# vtk DataFile Version 3.0
Test VTK file for Force data
ASCII
DATASET POLYDATA
POINTS 2975 float
-0.22 0.0099999998 -0.38
-0.22 0.0099999998 -0.36000001
-0.2 0.0099999998 -0.40000001
-0.2 0.0099999998 -0.38
-0.2 0.0099999998 -0.36000001
-0.18000001 0.0099999998 -0.40000001
-0.18000001 0.0099999998 -0.38
-0.18000001 0.0099999998 -0.36000001
-0.16 0.0099999998 -0.40000001
-0.16 0.0099999998 -0.38
-0.16 0.0099999998 -0.36000001
-0.14 0.0099999998 -0.40000001
-0.14 0.0099999998 -0.38
-0.14 0.0099999998 -0.36000001
-0.12 0.0099999998 -0.40000001
-0.12 0.0099999998 -0.38
-0.12 0.0099999998 -0.36000001
-0.1 0.0099999998 -0.40000001
-0.1 0.0099999998 -0.38
-0.1 0.0099999998 -0.36000001
-0.079999998 0.0099999998 -0.40000001
-0.079999998 0.0099999998 -0.38
-0.079999998 0.0099999998 -0.36000001
-0.059999999000000005 0.0099999998 -0.40000001
-0.059999999000000005 0.0099999998 -0.38
-0.059999999000000005 0.0099999998 -0.36000001
-0.039999999 0.0099999998 -0.40000001
-0.039999999 0.0099999998 -0.38
-0.039999999 0.0099999998 -0.36000001
-0.02 0.0099999998 -0.40000001
-0.02 0.0099999998 -0.38
-0.02 0.0099999998 -0.36000001
0.0 0.0099999998 -0.40000001
0.0 0.0099999998 -0.38
0.0 0.0099999998 -0.36000001
0.02 0.0099999998 -0.40000001
0.02 0.0099999998 -0.38
0.02 0.0099999998 -0.36000001
0.039999999 0.0099999998 -0.40000001
0.039999999 0.0099999998 -0.38
0.039999999 0.0099999998 -0.36000001
0.059999999000000005 0.0099999998 -0.40000001
0.059999999000000005 0.0099999998 -0.38
0.059999999000000005 0.0099999998 -0.36000001
0.079999998 0.0099999998 -0.40000001
0.079999998 0.0099999998 -0.38
0.079999998 0.0099999998 -0.36000001
0.1 0.0099999998 -0.40000001
0.1 0.0099999998 -0.38
0.1 0.0099999998 -0.36000001
0.12 0.0099999998 -0.40000001
0.12 0.0099999998 -0.38
0.12 0.0099999998 -0.36000001
0.14 0.0099999998 -0.40000001
0.14 0.0099999998 -0.38
0.14 0.0099999998 -0.36000001
0.16 0.0099999998 -0.40000001
0.16 0.0099999998 -0.38
0.16 0.0099999998 -0.36000001
0.18000001 0.0099999998 -0.40000001
0.18000001 0.0099999998 -0.38
0.18000001 0.0099999998 -0.36000001
0.2 0.0099999998 -0.38
0.2 0.0099999998 -0.36000001
-0.22 0.0099999998 -0.34
-0.22 0.0099999998 -0.31999999
-0.22 0.0099999998 -0.30000001
-0.22 0.0099999998 -0.28
-0.22 0.0099999998 -0.25999999
-0.22 0.0099999998 -0.23999999
-0.22 0.0099999998 -0.22
-0.22 0.0099999998 -0.2
-0.2 0.0099999998 -0.34
-0.2 0.0099999998 -0.31999999
-0.2 0.0099999998 -0.30000001
-0.2 0.0099999998 -0.28
-0.2 0.0099999998 -0.25999999
-0.2 0.0099999998 -0.23999999
-0.2 0.0099999998 -0.22
-0.2 0.0099999998 -0.2
-0.18000001 0.0099999998 -0.34
-0.18000001 0.0099999998 -0.31999999
-0.18000001 0.0099999998 -0.30000001
-0.18000001 0.0099999998 -0.28
-0.18000001 0.0099999998 -0.25999999
-0.18000001 0.0099999998 -0.23999999
-0.18000001 0.0099999998 -0.22
-0.18000001 0.0099999998 -0.2
-0.16 0.0099999998 -0.34
-0.16 0.0099999998 -0.31999999
-0.16 0.0099999998 -0.30000001
-0.16 0.0099999998 -0.28
-0.16 0.0099999998 -0.25999999
-0.16 0.0099999998 -0.23999999
-0.16 0.0099999998 -0.22
-0.16 0.0099999998 -0.2
-0.14 0.0099999998 -0.34
-0.14 0.0099999998 -0.31999999
-0.14 0.0099999998 -0.30000001
-0.14 0.0099999998 -0.28
-0.14 0.0099999998 -0.25999999
-0.14 0.0099999998 -0.23999999
-0.14 0.0099999998 -0.22
-0.14 0.0099999998 -0.2
-0.12 0.0099999998 -0.34
-0.12 0.0099999998 -0.31999999
-0.12 0.0099999998 -0.30000001
-0.12 0.0099999998 -0.28
-0.12 0.0099999998 -0.25999999
-0.12 0.0099999998 -0.23999999
-0.12 0.0099999998 -0.22
-0.12 0.0099999998 -0.2
-0.1 0.0099999998 -0.34
-0.1 0.0099999998 -0.31999999
-0.1 0.0099999998 -0.30000001
-0.1 0.0099999998 -0.28
-0.1 0.0099999998 -0.25999999
-0.1 0.0099999998 -0.23999999
-0.1 0.0099999998 -0.22
-0.1 0.0099999998 -0.2
-0.079999998 0.0099999998 -0.34
-0.079999998 0.0099999998 -0.31999999
-0.079999998 0.0099999998 -0.30000001
-0.079999998 0.0099999998 -0.28
-0.079999998 0.0099999998 -0.25999999
-0.079999998 0.0099999998 -0.23999999
-0.079999998 0.0099999998 -0.22
-0.079999998 0.0099999998 -0.2
-0.059999999000000005 0.0099999998 -0.34
-0.059999999000000005 0.0099999998 -0.31999999
-0.059999999000000005 0.0099999998 -0.30000001
-0.059999999000000005 0.0099999998 -0.28
-0.059999999000000005 0.0099999998 -0.25999999
-0.059999999000000005 0.0099999998 -0.23999999
-0.059999999000000005 0.0099999998 -0.22
-0.059999999000000005 0.0099999998 -0.2
-0.039999999 0.0099999998 -0.34
-0.039999999 0.0099999998 -0.31999999
-0.039999999 0.0099999998 -0.30000001
-0.039999999 0.0099999998 -0.28
-0.039999999 0.0099999998 -0.25999999
-0.039999999 0.0099999998 -0.23999999
-0.039999999 0.0099999998 -0.22
-0.039999999 0.0099999998 -0.2
-0.02 0.0099999998 -0.34
-0.02 0.0099999998 -0.31999999
-0.02 0.0099999998 -0.30000001
-0.02 0.0099999998 -0.28
-0.02 0.0099999998 -0.25999999
-0.02 0.0099999998 -0.23999999
-0.02 0.0099999998 -0.22
-0.02 0.0099999998 -0.2
0.0 0.0099999998 -0.34
0.0 0.0099999998 -0.31999999
0.0 0.0099999998 -0.30000001
0.02 0.0099999998 -0.34
0.02 0.0099999998 -0.31999999
0.039999999 0.0099999998 -0.34
0.039999999 0.0099999998 -0.31999999
0.059999999000000005 0.0099999998 -0.34
0.059999999000000005 0.0099999998 -0.31999999
0.079999998 0.0099999998 -0.34
0.079999998 0.0099999998 -0.31999999
0.1 0.0099999998 -0.34
0.1 0.0099999998 -0.31999999
0.12 0.0099999998 -0.34
0.12 0.0099999998 -0.31999999
0.14 0.0099999998 -0.34
0.14 0.0099999998 -0.31999999
0.16 0.0099999998 -0.34
0.16 0.0099999998 -0.31999999
0.18000001 0.0099999998 -0.34
0.18000001 0.0099999998 -0.31999999
0.2 0.0099999998 -0.34
0.2 0.0099999998 -0.31999999
-0.22 0.0099999998 -0.18000001
-0.22 0.0099999998 -0.16
-0.22 0.0099999998 -0.14
-0.22 0.0099999998 -0.12
-0.22 0.0099999998 -0.1
-0.22 0.0099999998 -0.079999998
-0.22 0.0099999998 -0.059999999000000005
-0.22 0.0099999998 -0.039999999
-0.22 0.0099999998 -0.02
-0.2 0.0099999998 -0.18000001
-0.2 0.0099999998 -0.16
-0.2 0.0099999998 -0.14
-0.2 0.0099999998 -0.12
-0.2 0.0099999998 -0.1
-0.2 0.0099999998 -0.079999998
-0.2 0.0099999998 -0.059999999000000005
-0.2 0.0099999998 -0.039999999
-0.2 0.0099999998 -0.02
-0.18000001 0.0099999998 -0.18000001
-0.18000001 0.0099999998 -0.16
-0.18000001 0.0099999998 -0.14
-0.18000001 0.0099999998 -0.12
-0.18000001 0.0099999998 -0.1
-0.18000001 0.0099999998 -0.079999998
-0.18000001 0.0099999998 -0.059999999000000005
-0.18000001 0.0099999998 -0.039999999
-0.18000001 0.0099999998 -0.02
-0.16 0.0099999998 -0.18000001
-0.16 0.0099999998 -0.16
-0.16 0.0099999998 -0.14
-0.16 0.0099999998 -0.12
-0.16 0.0099999998 -0.1
-0.16 0.0099999998 -0.079999998
-0.16 0.0099999998 -0.059999999000000005
-0.16 0.0099999998 -0.039999999
-0.16 0.0099999998 -0.02
-0.14 0.0099999998 -0.18000001
-0.14 0.0099999998 -0.16
-0.14 0.0099999998 -0.14
-0.14 0.0099999998 -0.12
-0.14 0.0099999998 -0.1
-0.14 0.0099999998 -0.079999998
-0.14 0.0099999998 -0.059999999000000005
-0.14 0.0099999998 -0.039999999
-0.14 0.0099999998 -0.02
-0.12 0.0099999998 -0.18000001
-0.12 0.0099999998 -0.16
-0.12 0.0099999998 -0.14
-0.12 0.0099999998 -0.12
-0.12 0.0099999998 -0.1
-0.12 0.0099999998 -0.079999998
-0.12 0.0099999998 -0.059999999000000005
-0.12 0.0099999998 -0.039999999
-0.12 0.0099999998 -0.02
-0.1 0.0099999998 -0.18000001
-0.1 0.0099999998 -0.16
-0.1 0.0099999998 -0.14
-0.1 0.0099999998 -0.12
-0.1 0.0099999998 -0.1
-0.1 0.0099999998 -0.079999998
-0.1 0.0099999998 -0.059999999000000005
-0.1 0.0099999998 -0.039999999
-0.1 0.0099999998 -0.02
-0.079999998 0.0099999998 -0.18000001
-0.079999998 0.0099999998 -0.16
-0.079999998 0.0099999998 -0.14
-0.079999998 0.0099999998 -0.12
-0.079999998 0.0099999998 -0.1
-0.079999998 0.0099999998 -0.079999998
-0.079999998 0.0099999998 -0.059999999000000005
-0.079999998 0.0099999998 -0.039999999
-0.079999998 0.0099999998 -0.02
-0.059999999000000005 0.0099999998 -0.18000001
-0.059999999000000005 0.0099999998 -0.16
-0.059999999000000005 0.0099999998 -0.14
-0.059999999000000005 0.0099999998 -0.12
-0.059999999000000005 0.0099999998 -0.1
-0.059999999000000005 0.0099999998 -0.079999998
-0.059999999000000005 0.0099999998 -0.059999999000000005
-0.059999999000000005 0.0099999998 -0.039999999
-0.059999999000000005 0.0099999998 -0.02
-0.039999999 0.0099999998 -0.18000001
-0.039999999 0.0099999998 -0.16
-0.039999999 0.0099999998 -0.14
-0.039999999 0.0099999998 -0.12
-0.039999999 0.0099999998 -0.1
-0.039999999 0.0099999998 -0.079999998
-0.039999999 0.0099999998 -0.059999999000000005
-0.039999999 0.0099999998 -0.039999999
-0.039999999 0.0099999998 -0.02
-0.02 0.0099999998 -0.18000001
-0.02 0.0099999998 -0.16
-0.02 0.0099999998 -0.14
-0.02 0.0099999998 -0.12
-0.02 0.0099999998 -0.1
-0.02 0.0099999998 -0.079999998
-0.02 0.0099999998 -0.059999999000000005
-0.02 0.0099999998 -0.039999999
-0.02 0.0099999998 -0.02
-0.22 0.0099999998 0.0
-0.22 0.0099999998 0.02
-0.22 0.0099999998 0.039999999
-0.22 0.0099999998 0.059999999000000005
-0.22 0.0099999998 0.079999998
-0.22 0.0099999998 0.1
-0.22 0.0099999998 0.12
-0.22 0.0099999998 0.14
-0.2 0.0099999998 0.0
-0.2 0.0099999998 0.02
-0.2 0.0099999998 0.039999999
-0.2 0.0099999998 0.059999999000000005
-0.2 0.0099999998 0.079999998
-0.2 0.0099999998 0.1
-0.2 0.0099999998 0.12
-0.2 0.0099999998 0.14
-0.18000001 0.0099999998 0.0
-0.18000001 0.0099999998 0.02
-0.18000001 0.0099999998 0.039999999
-0.18000001 0.0099999998 0.059999999000000005
-0.18000001 0.0099999998 0.079999998
-0.18000001 0.0099999998 0.1
-0.18000001 0.0099999998 0.12
-0.18000001 0.0099999998 0.14
-0.16 0.0099999998 0.0
-0.16 0.0099999998 0.02
-0.16 0.0099999998 0.039999999
-0.16 0.0099999998 0.059999999000000005
-0.16 0.0099999998 0.079999998
-0.16 0.0099999998 0.1
-0.16 0.0099999998 0.12
-0.16 0.0099999998 0.14
-0.14 0.0099999998 0.0
-0.14 0.0099999998 0.02
-0.14 0.0099999998 0.039999999
-0.14 0.0099999998 0.059999999000000005
-0.14 0.0099999998 0.079999998
-0.14 0.0099999998 0.1
-0.14 0.0099999998 0.12
-0.14 0.0099999998 0.14
-0.12 0.0099999998 0.0
-0.12 0.0099999998 0.02
-0.12 0.0099999998 0.039999999
-0.12 0.0099999998 0.059999999000000005
-0.12 0.0099999998 0.079999998
-0.12 0.0099999998 0.1
-0.12 0.0099999998 0.12
-0.12 0.0099999998 0.14
-0.1 0.0099999998 0.0
-0.1 0.0099999998 0.02
-0.1 0.0099999998 0.039999999
-0.1 0.0099999998 0.059999999000000005
-0.1 0.0099999998 0.079999998
-0.1 0.0099999998 0.1
-0.1 0.0099999998 0.12
-0.1 0.0099999998 0.14
-0.079999998 0.0099999998 0.0
-0.079999998 0.0099999998 0.02
-0.079999998 0.0099999998 0.039999999
-0.079999998 0.0099999998 0.059999999000000005
-0.079999998 0.0099999998 0.079999998
-0.079999998 0.0099999998 0.1
-0.079999998 0.0099999998 0.12
-0.079999998 0.0099999998 0.14
-0.059999999000000005 0.0099999998 0.0
-0.059999999000000005 0.0099999998 0.02
-0.059999999000000005 0.0099999998 0.039999999
-0.059999999000000005 0.0099999998 0.059999999000000005
-0.059999999000000005 0.0099999998 0.079999998
-0.059999999000000005 0.0099999998 0.1
-0.059999999000000005 0.0099999998 0.12
-0.059999999000000005 0.0099999998 0.14
-0.039999999 0.0099999998 0.0
-0.039999999 0.0099999998 0.02
-0.039999999 0.0099999998 0.039999999
-0.039999999 0.0099999998 0.059999999000000005
-0.039999999 0.0099999998 0.079999998
-0.039999999 0.0099999998 0.1
-0.039999999 0.0099999998 0.12
-0.039999999 0.0099999998 0.14
-0.02 0.0099999998 0.0
-0.02 0.0099999998 0.02
-0.02 0.0099999998 0.039999999
-0.02 0.0099999998 0.059999999000000005
-0.02 0.0099999998 0.079999998
-0.02 0.0099999998 0.1
-0.02 0.0099999998 0.12
-0.02 0.0099999998 0.14
-0.22 0.0099999998 0.16
-0.22 0.0099999998 0.18000001
-0.22 0.0099999998 0.2
-0.22 0.0099999998 0.22
-0.22 0.0099999998 0.23999999
-0.22 0.0099999998 0.25999999
-0.22 0.0099999998 0.28
-0.22 0.0099999998 0.30000001
-0.22 0.0099999998 0.31999999
-0.2 0.0099999998 0.16
-0.2 0.0099999998 0.18000001
-0.2 0.0099999998 0.2
-0.2 0.0099999998 0.22
-0.2 0.0099999998 0.23999999
-0.2 0.0099999998 0.25999999
-0.2 0.0099999998 0.28
-0.2 0.0099999998 0.30000001
-0.2 0.0099999998 0.31999999
-0.18000001 0.0099999998 0.16
-0.18000001 0.0099999998 0.18000001
-0.18000001 0.0099999998 0.2
-0.18000001 0.0099999998 0.22
-0.18000001 0.0099999998 0.23999999
-0.18000001 0.0099999998 0.25999999
-0.18000001 0.0099999998 0.28
-0.18000001 0.0099999998 0.30000001
-0.18000001 0.0099999998 0.31999999
-0.16 0.0099999998 0.16
-0.16 0.0099999998 0.18000001
-0.16 0.0099999998 0.2
-0.16 0.0099999998 0.22
-0.16 0.0099999998 0.23999999
-0.16 0.0099999998 0.25999999
-0.16 0.0099999998 0.28
-0.16 0.0099999998 0.30000001
-0.16 0.0099999998 0.31999999
-0.14 0.0099999998 0.16
-0.14 0.0099999998 0.18000001
-0.14 0.0099999998 0.2
-0.14 0.0099999998 0.22
-0.14 0.0099999998 0.23999999
-0.14 0.0099999998 0.25999999
-0.14 0.0099999998 0.28
-0.14 0.0099999998 0.30000001
-0.14 0.0099999998 0.31999999
-0.12 0.0099999998 0.16
-0.12 0.0099999998 0.18000001
-0.12 0.0099999998 0.2
-0.12 0.0099999998 0.22
-0.12 0.0099999998 0.23999999
-0.12 0.0099999998 0.25999999
-0.12 0.0099999998 0.28
-0.12 0.0099999998 0.30000001
-0.12 0.0099999998 0.31999999
-0.1 0.0099999998 0.16
-0.1 0.0099999998 0.18000001
-0.1 0.0099999998 0.2
-0.1 0.0099999998 0.22
-0.1 0.0099999998 0.23999999
-0.1 0.0099999998 0.25999999
-0.1 0.0099999998 0.28
-0.1 0.0099999998 0.30000001
-0.1 0.0099999998 0.31999999
-0.079999998 0.0099999998 0.16
-0.079999998 0.0099999998 0.18000001
-0.079999998 0.0099999998 0.2
-0.079999998 0.0099999998 0.22
-0.079999998 0.0099999998 0.23999999
-0.079999998 0.0099999998 0.25999999
-0.079999998 0.0099999998 0.28
-0.079999998 0.0099999998 0.30000001
-0.079999998 0.0099999998 0.31999999
-0.059999999000000005 0.0099999998 0.16
-0.059999999000000005 0.0099999998 0.18000001
-0.059999999000000005 0.0099999998 0.2
-0.059999999000000005 0.0099999998 0.22
-0.059999999000000005 0.0099999998 0.23999999
-0.059999999000000005 0.0099999998 0.25999999
-0.059999999000000005 0.0099999998 0.28
-0.059999999000000005 0.0099999998 0.30000001
-0.059999999000000005 0.0099999998 0.31999999
-0.039999999 0.0099999998 0.16
-0.039999999 0.0099999998 0.18000001
-0.039999999 0.0099999998 0.2
-0.039999999 0.0099999998 0.22
-0.039999999 0.0099999998 0.23999999
-0.039999999 0.0099999998 0.25999999
-0.039999999 0.0099999998 0.28
-0.039999999 0.0099999998 0.30000001
-0.039999999 0.0099999998 0.31999999
-0.02 0.0099999998 0.16
-0.02 0.0099999998 0.18000001
-0.02 0.0099999998 0.2
-0.02 0.0099999998 0.22
-0.02 0.0099999998 0.23999999
-0.02 0.0099999998 0.25999999
-0.02 0.0099999998 0.28
-0.02 0.0099999998 0.30000001
-0.02 0.0099999998 0.31999999
0.0 0.0099999998 0.30000001
0.0 0.0099999998 0.31999999
0.02 0.0099999998 0.31999999
0.039999999 0.0099999998 0.31999999
0.059999999000000005 0.0099999998 0.31999999
0.079999998 0.0099999998 0.31999999
0.1 0.0099999998 0.31999999
0.12 0.0099999998 0.31999999
0.14 0.0099999998 0.31999999
0.16 0.0099999998 0.31999999
0.18000001 0.0099999998 0.31999999
0.2 0.0099999998 0.31999999
-0.22 0.0099999998 0.34
-0.22 0.0099999998 0.36000001
-0.22 0.0099999998 0.38
-0.2 0.0099999998 0.34
-0.2 0.0099999998 0.36000001
-0.2 0.0099999998 0.38
-0.2 0.0099999998 0.40000001
-0.18000001 0.0099999998 0.34
-0.18000001 0.0099999998 0.36000001
-0.18000001 0.0099999998 0.38
-0.18000001 0.0099999998 0.40000001
-0.16 0.0099999998 0.34
-0.16 0.0099999998 0.36000001
-0.16 0.0099999998 0.38
-0.16 0.0099999998 0.40000001
-0.14 0.0099999998 0.34
-0.14 0.0099999998 0.36000001
-0.14 0.0099999998 0.38
-0.14 0.0099999998 0.40000001
-0.12 0.0099999998 0.34
-0.12 0.0099999998 0.36000001
-0.12 0.0099999998 0.38
-0.12 0.0099999998 0.40000001
-0.1 0.0099999998 0.34
-0.1 0.0099999998 0.36000001
-0.1 0.0099999998 0.38
-0.1 0.0099999998 0.40000001
-0.079999998 0.0099999998 0.34
-0.079999998 0.0099999998 0.36000001
-0.079999998 0.0099999998 0.38
-0.079999998 0.0099999998 0.40000001
-0.059999999000000005 0.0099999998 0.34
-0.059999999000000005 0.0099999998 0.36000001
-0.059999999000000005 0.0099999998 0.38
-0.059999999000000005 0.0099999998 0.40000001
-0.039999999 0.0099999998 0.34
-0.039999999 0.0099999998 0.36000001
-0.039999999 0.0099999998 0.38
-0.039999999 0.0099999998 0.40000001
-0.02 0.0099999998 0.34
-0.02 0.0099999998 0.36000001
-0.02 0.0099999998 0.38
-0.02 0.0099999998 0.40000001
0.0 0.0099999998 0.34
0.0 0.0099999998 0.36000001
0.0 0.0099999998 0.38
0.0 0.0099999998 0.40000001
0.02 0.0099999998 0.34
0.02 0.0099999998 0.36000001
0.02 0.0099999998 0.38
0.02 0.0099999998 0.40000001
0.039999999 0.0099999998 0.34
0.039999999 0.0099999998 0.36000001
0.039999999 0.0099999998 0.38
0.039999999 0.0099999998 0.40000001
0.059999999000000005 0.0099999998 0.34
0.059999999000000005 0.0099999998 0.36000001
0.059999999000000005 0.0099999998 0.38
0.059999999000000005 0.0099999998 0.40000001
0.079999998 0.0099999998 0.34
0.079999998 0.0099999998 0.36000001
0.079999998 0.0099999998 0.38
0.079999998 0.0099999998 0.40000001
0.1 0.0099999998 0.34
0.1 0.0099999998 0.36000001
0.1 0.0099999998 0.38
0.1 0.0099999998 0.40000001
0.12 0.0099999998 0.34
0.12 0.0099999998 0.36000001
0.12 0.0099999998 0.38
0.12 0.0099999998 0.40000001
0.14 0.0099999998 0.34
0.14 0.0099999998 0.36000001
0.14 0.0099999998 0.38
0.14 0.0099999998 0.40000001
0.16 0.0099999998 0.34
0.16 0.0099999998 0.36000001
0.16 0.0099999998 0.38
0.16 0.0099999998 0.40000001
0.18000001 0.0099999998 0.34
0.18000001 0.0099999998 0.36000001
0.18000001 0.0099999998 0.38
0.18000001 0.0099999998 0.40000001
0.2 0.0099999998 0.34
0.2 0.0099999998 0.36000001
0.2 0.0099999998 0.38
1.92 0.0099999998 -0.36000001
1.92 0.0099999998 -0.34
1.92 0.0099999998 -0.31999999
1.9400001 0.0099999998 -0.38
1.9400001 0.0099999998 -0.36000001
1.9400001 0.0099999998 -0.34
1.9400001 0.0099999998 -0.31999999
1.9400001 0.0099999998 -0.30000001
1.9400001 0.0099999998 -0.28
1.9400001 0.0099999998 -0.25999999
1.9400001 0.0099999998 -0.23999999
1.9400001 0.0099999998 -0.22
1.96 0.0099999998 -0.38
1.96 0.0099999998 -0.36000001
1.96 0.0099999998 -0.34
1.96 0.0099999998 -0.31999999
1.96 0.0099999998 -0.30000001
1.96 0.0099999998 -0.28
1.96 0.0099999998 -0.25999999
1.96 0.0099999998 -0.23999999
1.96 0.0099999998 -0.22
1.96 0.0099999998 -0.2
1.96 0.0099999998 -0.18000001
1.96 0.0099999998 -0.16
1.96 0.0099999998 -0.14
1.96 0.0099999998 -0.12
1.98 0.0099999998 -0.38
1.98 0.0099999998 -0.36000001
1.98 0.0099999998 -0.34
1.98 0.0099999998 -0.31999999
1.98 0.0099999998 -0.30000001
1.98 0.0099999998 -0.28
1.98 0.0099999998 -0.25999999
1.98 0.0099999998 -0.23999999
1.98 0.0099999998 -0.22
1.98 0.0099999998 -0.2
1.98 0.0099999998 -0.18000001
1.98 0.0099999998 -0.16
1.98 0.0099999998 -0.14
1.98 0.0099999998 -0.12
1.98 0.0099999998 -0.1
1.98 0.0099999998 -0.079999998
1.98 0.0099999998 -0.059999999000000005
1.98 0.0099999998 -0.039999999
1.98 0.0099999998 -0.02
2.0 0.0099999998 -0.38
2.0 0.0099999998 -0.36000001
2.0 0.0099999998 -0.34
2.0 0.0099999998 -0.31999999
2.0 0.0099999998 -0.30000001
2.0 0.0099999998 -0.28
2.0 0.0099999998 -0.25999999
2.0 0.0099999998 -0.23999999
2.0 0.0099999998 -0.22
2.0 0.0099999998 -0.2
2.0 0.0099999998 -0.18000001
2.0 0.0099999998 -0.16
2.0 0.0099999998 -0.14
2.0 0.0099999998 -0.12
2.0 0.0099999998 -0.1
2.0 0.0099999998 -0.079999998
2.0 0.0099999998 -0.059999999000000005
2.0 0.0099999998 -0.039999999
2.0 0.0099999998 -0.02
2.0 0.0099999998 0.0
2.0 0.0099999998 0.02
2.0 0.0099999998 0.039999999
2.0 0.0099999998 0.059999999000000005
2.0 0.0099999998 0.079999998
2.02 0.0099999998 -0.40000001
2.02 0.0099999998 -0.38
2.02 0.0099999998 -0.36000001
2.02 0.0099999998 -0.34
2.02 0.0099999998 -0.31999999
2.02 0.0099999998 -0.30000001
2.02 0.0099999998 -0.28
2.02 0.0099999998 -0.25999999
2.02 0.0099999998 -0.23999999
2.02 0.0099999998 -0.22
2.02 0.0099999998 -0.2
2.02 0.0099999998 -0.18000001
2.02 0.0099999998 -0.16
2.02 0.0099999998 -0.14
2.02 0.0099999998 -0.12
2.02 0.0099999998 -0.1
2.02 0.0099999998 -0.079999998
2.02 0.0099999998 -0.059999999000000005
2.02 0.0099999998 -0.039999999
2.02 0.0099999998 -0.02
2.02 0.0099999998 0.0
2.02 0.0099999998 0.02
2.02 0.0099999998 0.039999999
2.02 0.0099999998 0.059999999000000005
2.02 0.0099999998 0.079999998
2.02 0.0099999998 0.1
2.02 0.0099999998 0.12
2.02 0.0099999998 0.14
2.02 0.0099999998 0.16
2.02 0.0099999998 0.18000001
2.04 0.0099999998 -0.40000001
2.04 0.0099999998 -0.38
2.04 0.0099999998 -0.36000001
2.04 0.0099999998 -0.34
2.04 0.0099999998 -0.31999999
2.04 0.0099999998 -0.30000001
2.04 0.0099999998 -0.28
2.04 0.0099999998 -0.25999999
2.04 0.0099999998 -0.23999999
2.04 0.0099999998 -0.22
2.04 0.0099999998 -0.2
2.04 0.0099999998 -0.18000001
2.04 0.0099999998 -0.16
2.04 0.0099999998 -0.14
2.04 0.0099999998 -0.12
2.04 0.0099999998 -0.1
2.04 0.0099999998 -0.079999998
2.04 0.0099999998 -0.059999999000000005
2.04 0.0099999998 -0.039999999
2.04 0.0099999998 -0.02
2.04 0.0099999998 0.0
2.04 0.0099999998 0.02
2.04 0.0099999998 0.039999999
2.04 0.0099999998 0.059999999000000005
2.04 0.0099999998 0.079999998
2.04 0.0099999998 0.1
2.04 0.0099999998 0.12
2.04 0.0099999998 0.14
2.04 0.0099999998 0.16
2.04 0.0099999998 0.18000001
2.04 0.0099999998 0.2
2.04 0.0099999998 0.22
2.04 0.0099999998 0.23999999
2.04 0.0099999998 0.25999999
2.04 0.0099999998 0.28
2.0599998999999998 0.0099999998 -0.40000001
2.0599998999999998 0.0099999998 -0.38
2.0599998999999998 0.0099999998 -0.36000001
2.0599998999999998 0.0099999998 -0.34
2.0599998999999998 0.0099999998 -0.31999999
2.0599998999999998 0.0099999998 -0.30000001
2.0599998999999998 0.0099999998 -0.28
2.0599998999999998 0.0099999998 -0.25999999
2.0599998999999998 0.0099999998 -0.23999999
2.0599998999999998 0.0099999998 -0.22
2.0599998999999998 0.0099999998 -0.2
2.0599998999999998 0.0099999998 -0.18000001
2.0599998999999998 0.0099999998 -0.16
2.0599998999999998 0.0099999998 -0.14
2.0599998999999998 0.0099999998 -0.12
2.0599998999999998 0.0099999998 -0.1
2.0599998999999998 0.0099999998 -0.079999998
2.0599998999999998 0.0099999998 -0.059999999000000005
2.0599998999999998 0.0099999998 -0.039999999
2.0599998999999998 0.0099999998 -0.02
2.0599998999999998 0.0099999998 0.0
2.0599998999999998 0.0099999998 0.02
2.0599998999999998 0.0099999998 0.039999999
2.0599998999999998 0.0099999998 0.059999999000000005
2.0599998999999998 0.0099999998 0.079999998
2.0599998999999998 0.0099999998 0.1
2.0599998999999998 0.0099999998 0.12
2.0599998999999998 0.0099999998 0.14
2.0599998999999998 0.0099999998 0.16
2.0599998999999998 0.0099999998 0.18000001
2.0599998999999998 0.0099999998 0.2
2.0599998999999998 0.0099999998 0.22
2.0599998999999998 0.0099999998 0.23999999
2.0599998999999998 0.0099999998 0.25999999
2.0599998999999998 0.0099999998 0.28
2.0599998999999998 0.0099999998 0.30000001
2.0599998999999998 0.0099999998 0.31999999
2.0599998999999998 0.0099999998 0.34
2.0599998999999998 0.0099999998 0.36000001
2.0599998999999998 0.0099999998 0.38
2.0799999 0.0099999998 -0.40000001
2.0799999 0.0099999998 -0.38
2.0799999 0.0099999998 -0.36000001
2.0799999 0.0099999998 -0.34
2.0799999 0.0099999998 -0.31999999
2.0799999 0.0099999998 -0.30000001
2.0799999 0.0099999998 -0.28
2.0799999 0.0099999998 -0.25999999
2.0799999 0.0099999998 -0.23999999
2.0799999 0.0099999998 -0.22
2.0799999 0.0099999998 -0.2
2.0799999 0.0099999998 -0.18000001
2.0799999 0.0099999998 -0.16
2.0799999 0.0099999998 -0.14
2.0799999 0.0099999998 -0.12
2.0799999 0.0099999998 -0.1
2.0799999 0.0099999998 -0.079999998
2.0799999 0.0099999998 -0.059999999000000005
2.0799999 0.0099999998 -0.039999999
2.0799999 0.0099999998 -0.02
2.0799999 0.0099999998 0.0
2.0799999 0.0099999998 0.02
2.0799999 0.0099999998 0.039999999
2.0799999 0.0099999998 0.059999999000000005
2.0799999 0.0099999998 0.079999998
2.0799999 0.0099999998 0.1
2.0799999 0.0099999998 0.12
2.0799999 0.0099999998 0.14
2.0799999 0.0099999998 0.16
2.0799999 0.0099999998 0.18000001
2.0799999 0.0099999998 0.2
2.0799999 0.0099999998 0.22
2.0799999 0.0099999998 0.23999999
2.0799999 0.0099999998 0.25999999
2.0799999 0.0099999998 0.28
2.0799999 0.0099999998 0.30000001
2.0799999 0.0099999998 0.31999999
2.0799999 0.0099999998 0.34
2.0799999 0.0099999998 0.36000001
2.0799999 0.0099999998 0.38
2.0799999 0.0099999998 0.40000001
2.0999999 0.0099999998 -0.40000001
2.0999999 0.0099999998 -0.38
2.0999999 0.0099999998 -0.36000001
2.0999999 0.0099999998 -0.34
2.0999999 0.0099999998 -0.31999999
2.0999999 0.0099999998 -0.30000001
2.0999999 0.0099999998 -0.28
2.0999999 0.0099999998 -0.25999999
2.0999999 0.0099999998 -0.23999999
2.0999999 0.0099999998 -0.22
2.0999999 0.0099999998 -0.2
2.0999999 0.0099999998 -0.18000001
2.0999999 0.0099999998 -0.16
2.0999999 0.0099999998 -0.14
2.0999999 0.0099999998 -0.12
2.0999999 0.0099999998 -0.1
2.0999999 0.0099999998 -0.079999998
2.0999999 0.0099999998 -0.059999999000000005
2.0999999 0.0099999998 -0.039999999
2.0999999 0.0099999998 -0.02
2.0999999 0.0099999998 0.0
2.0999999 0.0099999998 0.02
2.0999999 0.0099999998 0.039999999
2.0999999 0.0099999998 0.059999999000000005
2.0999999 0.0099999998 0.079999998
2.0999999 0.0099999998 0.1
2.0999999 0.0099999998 0.12
2.0999999 0.0099999998 0.14
2.0999999 0.0099999998 0.16
2.0999999 0.0099999998 0.18000001
2.0999999 0.0099999998 0.2
2.0999999 0.0099999998 0.22
2.0999999 0.0099999998 0.23999999
2.0999999 0.0099999998 0.25999999
2.0999999 0.0099999998 0.28
2.0999999 0.0099999998 0.30000001
2.0999999 0.0099999998 0.31999999
2.0999999 0.0099999998 0.34
2.0999999 0.0099999998 0.36000001
2.0999999 0.0099999998 0.38
2.0999999 0.0099999998 0.40000001
2.1199999 0.0099999998 -0.41999999
2.1199999 0.0099999998 -0.40000001
2.1199999 0.0099999998 -0.38
2.1199999 0.0099999998 -0.36000001
2.1199999 0.0099999998 -0.34
2.1199999 0.0099999998 -0.31999999
2.1199999 0.0099999998 -0.30000001
2.1199999 0.0099999998 -0.28
2.1199999 0.0099999998 -0.25999999
2.1199999 0.0099999998 -0.23999999
2.1199999 0.0099999998 -0.22
2.1199999 0.0099999998 -0.2
2.1199999 0.0099999998 -0.18000001
2.1199999 0.0099999998 -0.16
2.1199999 0.0099999998 -0.14
2.1199999 0.0099999998 -0.12
2.1199999 0.0099999998 -0.1
2.1199999 0.0099999998 -0.079999998
2.1199999 0.0099999998 -0.059999999000000005
2.1199999 0.0099999998 -0.039999999
2.1199999 0.0099999998 -0.02
2.1199999 0.0099999998 0.0
2.1199999 0.0099999998 0.02
2.1199999 0.0099999998 0.039999999
2.1199999 0.0099999998 0.059999999000000005
2.1199999 0.0099999998 0.079999998
2.1199999 0.0099999998 0.1
2.1199999 0.0099999998 0.12
2.1199999 0.0099999998 0.14
2.1199999 0.0099999998 0.16
2.1199999 0.0099999998 0.18000001
2.1199999 0.0099999998 0.2
2.1199999 0.0099999998 0.22
2.1199999 0.0099999998 0.23999999
2.1199999 0.0099999998 0.25999999
2.1199999 0.0099999998 0.28
2.1199999 0.0099999998 0.30000001
2.1199999 0.0099999998 0.31999999
2.1199999 0.0099999998 0.34
2.1199999 0.0099999998 0.36000001
2.1199999 0.0099999998 0.38
2.1199999 0.0099999998 0.40000001
2.1400001 0.0099999998 -0.38
2.1400001 0.0099999998 -0.36000001
2.1400001 0.0099999998 -0.34
2.1400001 0.0099999998 -0.31999999
2.1400001 0.0099999998 -0.30000001
2.1400001 0.0099999998 -0.28
2.1400001 0.0099999998 -0.25999999
2.1400001 0.0099999998 -0.23999999
2.1400001 0.0099999998 -0.22
2.1400001 0.0099999998 -0.2
2.1400001 0.0099999998 -0.18000001
2.1400001 0.0099999998 -0.16
2.1400001 0.0099999998 -0.14
2.1400001 0.0099999998 -0.12
2.1400001 0.0099999998 -0.1
2.1400001 0.0099999998 -0.079999998
2.1400001 0.0099999998 -0.059999999000000005
2.1400001 0.0099999998 -0.039999999
2.1400001 0.0099999998 -0.02
2.1400001 0.0099999998 0.0
2.1400001 0.0099999998 0.02
2.1400001 0.0099999998 0.039999999
2.1400001 0.0099999998 0.059999999000000005
2.1400001 0.0099999998 0.079999998
2.1400001 0.0099999998 0.1
2.1400001 0.0099999998 0.12
2.1400001 0.0099999998 0.14
2.1400001 0.0099999998 0.16
2.1400001 0.0099999998 0.18000001
2.1400001 0.0099999998 0.2
2.1400001 0.0099999998 0.22
2.1400001 0.0099999998 0.23999999
2.1400001 0.0099999998 0.25999999
2.1400001 0.0099999998 0.28
2.1400001 0.0099999998 0.30000001
2.1400001 0.0099999998 0.31999999
2.1400001 0.0099999998 0.34
2.1400001 0.0099999998 0.36000001
2.1400001 0.0099999998 0.38
2.1400001 0.0099999998 0.40000001
2.1600001 0.0099999998 -0.28
2.1600001 0.0099999998 -0.25999999
2.1600001 0.0099999998 -0.23999999
2.1600001 0.0099999998 -0.22
2.1600001 0.0099999998 -0.2
2.1600001 0.0099999998 -0.18000001
2.1600001 0.0099999998 -0.16
2.1600001 0.0099999998 -0.14
2.1600001 0.0099999998 -0.12
2.1600001 0.0099999998 -0.1
2.1600001 0.0099999998 -0.079999998
2.1600001 0.0099999998 -0.059999999000000005
2.1600001 0.0099999998 -0.039999999
2.1600001 0.0099999998 -0.02
2.1600001 0.0099999998 0.0
2.1600001 0.0099999998 0.02
2.1600001 0.0099999998 0.039999999
2.1600001 0.0099999998 0.059999999000000005
2.1600001 0.0099999998 0.079999998
2.1600001 0.0099999998 0.1
2.1600001 0.0099999998 0.12
2.1600001 0.0099999998 0.14
2.1600001 0.0099999998 0.16
2.1600001 0.0099999998 0.18000001
2.1600001 0.0099999998 0.2
2.1600001 0.0099999998 0.22
2.1600001 0.0099999998 0.23999999
2.1600001 0.0099999998 0.25999999
2.1600001 0.0099999998 0.28
2.1600001 0.0099999998 0.30000001
2.1600001 0.0099999998 0.31999999
2.1600001 0.0099999998 0.34
2.1600001 0.0099999998 0.36000001
2.1600001 0.0099999998 0.38
2.1600001 0.0099999998 0.40000001
2.1800001 0.0099999998 -0.18000001
2.1800001 0.0099999998 -0.16
2.1800001 0.0099999998 -0.14
2.1800001 0.0099999998 -0.12
2.1800001 0.0099999998 -0.1
2.1800001 0.0099999998 -0.079999998
2.1800001 0.0099999998 -0.059999999000000005
2.1800001 0.0099999998 -0.039999999
2.1800001 0.0099999998 -0.02
2.1800001 0.0099999998 0.0
2.1800001 0.0099999998 0.02
2.1800001 0.0099999998 0.039999999
2.1800001 0.0099999998 0.059999999000000005
2.1800001 0.0099999998 0.079999998
2.1800001 0.0099999998 0.1
2.1800001 0.0099999998 0.12
2.1800001 0.0099999998 0.14
2.1800001 0.0099999998 0.16
2.1800001 0.0099999998 0.18000001
2.1800001 0.0099999998 0.2
2.1800001 0.0099999998 0.22
2.1800001 0.0099999998 0.23999999
2.1800001 0.0099999998 0.25999999
2.1800001 0.0099999998 0.28
2.1800001 0.0099999998 0.30000001
2.1800001 0.0099999998 0.31999999
2.1800001 0.0099999998 0.34
2.1800001 0.0099999998 0.36000001
2.1800001 0.0099999998 0.38
2.1800001 0.0099999998 0.40000001
2.2 0.0099999998 -0.079999998
2.2 0.0099999998 -0.059999999000000005
2.2 0.0099999998 -0.039999999
2.2 0.0099999998 -0.02
2.2 0.0099999998 0.0
2.2 0.0099999998 0.02
2.2 0.0099999998 0.039999999
2.2 0.0099999998 0.059999999000000005
2.2 0.0099999998 0.079999998
2.2 0.0099999998 0.1
2.2 0.0099999998 0.12
2.2 0.0099999998 0.14
2.2 0.0099999998 0.16
2.2 0.0099999998 0.18000001
2.2 0.0099999998 0.2
2.2 0.0099999998 0.22
2.2 0.0099999998 0.23999999
2.2 0.0099999998 0.25999999
2.2 0.0099999998 0.28
2.2 0.0099999998 0.30000001
2.2 0.0099999998 0.31999999
2.2 0.0099999998 0.34
2.2 0.0099999998 0.36000001
2.2 0.0099999998 0.38
2.22 0.0099999998 0.02
2.22 0.0099999998 0.039999999
2.22 0.0099999998 0.059999999000000005
2.22 0.0099999998 0.079999998
2.22 0.0099999998 0.1
2.22 0.0099999998 0.12
2.22 0.0099999998 0.14
2.22 0.0099999998 0.16
2.22 0.0099999998 0.18000001
2.22 0.0099999998 0.2
2.22 0.0099999998 0.22
2.22 0.0099999998 0.23999999
2.22 0.0099999998 0.25999999
2.22 0.0099999998 0.28
2.22 0.0099999998 0.30000001
2.22 0.0099999998 0.31999999
2.22 0.0099999998 0.34
2.22 0.0099999998 0.36000001
2.22 0.0099999998 0.38
2.24 0.0099999998 0.12
2.24 0.0099999998 0.14
2.24 0.0099999998 0.16
2.24 0.0099999998 0.18000001
2.24 0.0099999998 0.2
2.24 0.0099999998 0.22
2.24 0.0099999998 0.23999999
2.24 0.0099999998 0.25999999
2.24 0.0099999998 0.28
2.24 0.0099999998 0.30000001
2.24 0.0099999998 0.31999999
2.24 0.0099999998 0.34
2.24 0.0099999998 0.36000001
2.24 0.0099999998 0.38
2.26 0.0099999998 0.22
2.26 0.0099999998 0.23999999
2.26 0.0099999998 0.25999999
2.26 0.0099999998 0.28
2.26 0.0099999998 0.30000001
2.26 0.0099999998 0.31999999
2.26 0.0099999998 0.34
2.26 0.0099999998 0.36000001
2.26 0.0099999998 0.38
2.28 0.0099999998 0.31999999
2.28 0.0099999998 0.34
2.28 0.0099999998 0.36000001
-1.9276167e-06 0.0099999998 -0.28000075
-2.3446812e-06 0.0099999998 -0.26000071
-2.6968602999999995e-06 0.0099999998 -0.24000065
-2.9711139e-06 0.0099999998 -0.22000055
-3.1737061e-06 0.0099999998 -0.20000046
0.019998077 0.0099999998 -0.300001
0.01999731 0.0099999998 -0.28000093
0.019996654 0.0099999998 -0.26000091
0.019996127 0.0099999998 -0.24000084
0.019995729 0.0099999998 -0.22000074
0.019995443999999998 0.0099999998 -0.20000061
0.039997302 0.0099999998 -0.30000111
0.039996237000000004 0.0099999998 -0.28000107
0.039995324 0.0099999998 -0.26000103
0.039994583 0.0099999998 -0.24000096
0.039994039 0.0099999998 -0.22000085
0.039993655 0.0099999998 -0.20000072
0.059996333 0.0099999998 -0.3000012
0.059994905999999994 0.0099999998 -0.28000116
0.059993707 0.0099999998 -0.26000112
0.059992749000000005 0.0099999998 -0.24000104
0.059992040999999996 0.0099999998 -0.22000092
0.059991561 0.0099999998 -0.20000078
0.079995163 0.0099999998 -0.30000132
0.07999333 0.0099999998 -0.28000122
0.07999181 0.0099999998 -0.26000118
0.079990625 0.0099999998 -0.24000108
0.07998976099999999 0.0099999998 -0.22000097
0.079989187 0.0099999998 -0.20000081
0.09999375 0.0099999998 -0.30000144
0.09999144800000001 0.0099999998 -0.28000128
0.099989593 0.0099999998 -0.26000121
0.099988163 0.0099999998 -0.24000111
0.099987149 0.0099999998 -0.22000098
0.099986486 0.0099999998 -0.20000082
0.11999203 0.0099999998 -0.30000165
0.11998918 0.0099999998 -0.28000134
0.11998696 0.0099999998 -0.26000124
0.11998528 0.0099999998 -0.24000111
0.11998413 0.0099999998 -0.220001
0.11998339 0.0099999998 -0.20000082
0.13998987 0.0099999998 -0.30000195
0.13998643 0.0099999998 -0.28000149
0.13998382 0.0099999998 -0.2600013
0.13998188 0.0099999998 -0.24000114
0.13998058 0.0099999998 -0.22000103
0.13997979 0.0099999998 -0.20000087
0.15998712 0.0099999998 -0.30000231
0.15998307 0.0099999998 -0.2800017
0.15998006 0.0099999998 -0.26000145
0.15997787 0.0099999998 -0.24000126
0.15997644 0.0099999998 -0.22000113
0.15997559 0.0099999998 -0.20000097
0.1799835 0.0099999998 -0.30000255
0.17997897 0.0099999998 -0.28000194
0.17997557 0.0099999998 -0.26000169
0.17997313 0.0099999998 -0.2400015
0.17997156 0.0099999998 -0.22000135
0.17997068 0.0099999998 -0.20000118
0.19997875 0.0099999998 -0.30000263
0.1999739 0.0099999998 -0.28000224
0.1999702 0.0099999998 -0.26000202
0.19996755 0.0099999998 -0.24000189
0.19996586 0.0099999998 -0.22000176
0.19996499 0.0099999998 -0.20000157
0.21997319 0.0099999998 -0.30000401
0.21996774 0.0099999998 -0.28000307
0.2199638 0.0099999998 -0.2600027
0.21996096 0.0099999998 -0.24000251
0.21995923 0.0099999998 -0.2200024
0.21995839 0.0099999998 -0.20000218
0.23996609 0.0099999998 -0.30000892
0.23996024 0.0099999998 -0.28000605
0.23995613 0.0099999998 -0.26000452
0.23995318 0.0099999998 -0.24000378
0.23995151 0.0099999998 -0.22000343
0.23995075 0.0099999998 -0.20000307
0.25995657 0.0099999998 -0.30001393
0.25995085 0.0099999998 -0.28001019
0.25994676 0.0099999998 -0.26000741
0.25994399 0.0099999998 -0.24000585
0.2599425 0.0099999998 -0.22000502
0.25994191 0.0099999998 -0.20000434
0.27994478 0.0099999998 -0.30001786
0.27993947 0.0099999998 -0.2800141
0.27993572 0.0099999998 -0.26001075
0.27993327 0.0099999998 -0.24000852
0.27993205 0.0099999998 -0.22000709
0.27993169 0.0099999998 -0.20000596
0.29993144 0.0099999998 -0.30002141
0.29992652 0.0099999998 -0.28001761
0.29992309 0.0099999998 -0.26001406
0.29992098 0.0099999998 -0.24001141
0.29991999 0.0099999998 -0.22000945
0.2999199 0.0099999998 -0.20000787
0.31991696 0.0099999998 -0.30002496
0.31991223 0.0099999998 -0.28002104
0.31990892 0.0099999998 -0.26001734
0.31990698 0.0099999998 -0.24001436
0.3199062 0.0099999998 -0.22001196
0.31990635 0.0099999998 -0.20000999
0.33990139 0.0099999998 -0.30002877
0.33989638 0.0099999998 -0.28002459
0.33989298 0.0099999998 -0.26002061
0.33989108 0.0099999998 -0.24001738
0.33989048 0.0099999998 -0.22001462
0.33989087 0.0099999998 -0.20001224
0.3598842 0.0099999998 -0.30003303
0.35987866 0.0099999998 -0.28002843
0.35987493 0.0099999998 -0.2600241
0.35987297 0.0099999998 -0.24002056
0.35987249 0.0099999998 -0.22001743
0.35987315 0.0099999998 -0.20001464
0.37986478 0.0099999998 -0.30003783
0.37985849 0.0099999998 -0.28003269
0.37985441 0.0099999998 -0.26002792
0.37985235 0.0099999998 -0.24002397
0.379852 0.0099999998 -0.22002041
0.37985298 0.0099999998 -0.20001717
0.39984262 0.0099999998 -0.30004326
0.39983556 0.0099999998 -0.28003749
0.39983106 0.0099999998 -0.26003212
0.39982888 0.0099999998 -0.24002768
0.39982873 0.0099999998 -0.22002363
0.39983001 0.0099999998 -0.2000199
0.41981733 0.0099999998 -0.30004948
0.4198094 0.0099999998 -0.28004295
0.41980448 0.0099999998 -0.26003686
0.41980225 0.0099999998 -0.24003179
0.41980228 0.0099999998 -0.22002715
0.41980401 0.0099999998 -0.20002285
0.43978843 0.0099999998 -0.30005667
0.43977961 0.0099999998 -0.2800492
0.43977425 0.0099999998 -0.26004219
0.43977198 0.0099999998 -0.24003631
0.43977231 0.0099999998 -0.22003102
0.43977454 0.0099999998 -0.20002614
0.45975527 0.0099999998 -0.3000651
0.45974553 0.0099999998 -0.28005645
0.45973977 0.0099999998 -0.26004818
0.4597376 0.0099999998 -0.24004133
0.45973831 0.0099999998 -0.22003536
0.45974123 0.0099999998 -0.20002995
0.47971699 0.0099999998 -0.30007505
0.47970641 0.0099999998 -0.28006488
0.47970045 0.0099999998 -0.26005492
0.47969851 0.0099999998 -0.24004696
0.47969985 0.0099999998 -0.2200404
0.47970361 0.0099999998 -0.20003462
0.49967229 0.0099999998 -0.30008698
0.49966136 0.0099999998 -0.28007475
0.49965557 0.0099999998 -0.26006258
0.4996542 0.0099999998 -0.24005355
0.49965644 0.0099999998 -0.22004665
0.4996613 0.0099999998 -0.20004074
0.5196197 0.0099999998 -0.30010143
0.51960945 0.0099999998 -0.28008652
0.51960456 0.0099999998 -0.26007161
0.51960433 0.0099999998 -0.24006185
0.51960784 0.0099999998 -0.22005501
0.51961404 0.0099999998 -0.20004922
0.53955781 0.0099999998 -0.30011919
0.53955013 0.0099999998 -0.28010094
0.53954744 0.0099999998 -0.26008311
0.53954911 0.0099999998 -0.2400731
0.5395543 0.0099999998 -0.22006679
0.53956205 0.0099999998 -0.20006125
0.55948651 0.0099999998 -0.30014142
0.55948412 0.0099999998 -0.28011942
0.55948526 0.0099999998 -0.26009873
0.55948979 0.0099999998 -0.24008897
0.55949712 0.0099999998 -0.22008352
0.55950648 0.0099999998 -0.20007798
0.57940871 0.0099999998 -0.30017
0.57941455 0.0099999998 -0.28014448
0.57942098 0.0099999998 -0.26012117
0.57942891 0.0099999998 -0.24011134
0.57943869 0.0099999998 -0.22010629
0.57944965 0.0099999998 -0.20010017
0.59933108 0.0099999998 -0.30020797
0.59934646 0.0099999998 -0.28018007
0.59935892 0.0099999998 -0.26015407
0.59937018 0.0099999998 -0.24014167
0.59938198 0.0099999998 -0.22013506
0.59939444 0.0099999998 -0.20012712
0.61926252 0.0099999998 -0.30025995
0.61928576 0.0099999998 -0.2802318
0.6193015 0.0099999998 -0.26020038
0.61931562 0.0099999998 -0.24018131
0.61932975 0.0099999998 -0.22016977
0.61934364 0.0099999998 -0.20015804
0.63921171 0.0099999998 -0.300329
0.63923723 0.0099999998 -0.28030312
0.63925457 0.0099999998 -0.26026973
0.63926917 0.0099999998 -0.2402367
0.63928419 0.0099999998 -0.22021168
0.63930011 0.0099999998 -0.20019357
0.65918469 0.0099999998 -0.3004095
0.6592086 0.0099999998 -0.28038713
0.65922689 0.0099999998 -0.26036093
0.6592412 0.0099999998 -0.24031803
0.65925437 0.0099999998 -0.2202723
0.65926993 0.0099999998 -0.20023967
0.67919481 0.0099999998 -0.3004843
0.67920649 0.0099999998 -0.28046519
0.67922378 0.0099999998 -0.26045004
0.67923737 0.0099999998 -0.24041303
0.67924678 0.0099999998 -0.22035214
0.67925984 0.0099999998 -0.20030311
0.69931072 0.0099999998 -0.30054218
0.69926357 0.0099999998 -0.28052571
0.69926202 0.0099999998 -0.26052317
0.69927329 0.0099999998 -0.24050109
0.69927758 0.0099999998 -0.2204438
0.69928604 0.0099999998 -0.200386
0.71952671 0.0099999998 -0.30058506
0.71946841 0.0099999998 -0.28056833
0.71942329 0.0099999998 -0.26057023
0.71939725 0.0099999998 -0.24056233
0.71938819 0.0099999998 -0.22052228
0.7193929 0.0099999998 -0.20047189
0.73971373 0.0099999998 -0.3006168
0.7396751 0.0099999998 -0.28059667
0.73964363 0.0099999998 -0.26058593
0.73962098 0.0099999998 -0.24057461
0.73960942 0.0099999998 -0.22053796
0.73960876 0.0099999998 -0.20049138
0.75984919 0.0099999998 -0.30063969
0.75982708 0.0099999998 -0.28061718
0.75980937 0.0099999998 -0.26059207
0.75979501 0.0099999998 -0.24057466
0.75978619 0.0099999998 -0.22053847
0.75978327 0.0099999998 -0.20049439
0.77994257 0.0099999998 -0.30065468
0.77993405 0.0099999998 -0.28063059
0.77992749 0.0099999998 -0.26059625
0.77992088 0.0099999998 -0.24057318
0.77991551 0.0099999998 -0.22053565
0.77991229 0.0099999998 -0.2004921
0.8000164 0.0099999998 -0.30066225
0.80001909 0.0099999998 -0.28063762
0.80002129 0.0099999998 -0.26059985
0.80002147 0.0099999998 -0.24057323
0.80001968 0.0099999998 -0.22053339
0.80001694 0.0099999998 -0.20048775
0.82009095 0.0099999998 -0.30066267
0.82010388 0.0099999998 -0.28063831
0.82011265 0.0099999998 -0.26060185
0.82011861 0.0099999998 -0.24057443
0.82011992 0.0099999998 -0.22053161
0.82011735 0.0099999998 -0.20048213
0.84017533 0.0099999998 -0.30065456
0.84019756 0.0099999998 -0.28063059
0.84021205 0.0099999998 -0.2605966
0.8402226 0.0099999998 -0.24057026
0.84022623 0.0099999998 -0.22052582
0.8402229 0.0099999998 -0.20047408
0.86026663 0.0099999998 -0.30063874
0.86029798 0.0099999998 -0.28061512
0.86031747 0.0099999998 -0.26058325
0.86033171 0.0099999998 -0.24055845
0.86033696 0.0099999998 -0.22051415
0.86033165 0.0099999998 -0.20046221
0.88035691 0.0099999998 -0.30061638
0.88039649 0.0099999998 -0.28059307
0.88042015 0.0099999998 -0.26056254
0.88043779 0.0099999998 -0.24053885
0.88044399 0.0099999998 -0.22049606
0.88043624 0.0099999998 -0.2004455
0.90043825 0.0099999998 -0.30058882
0.90048414 0.0099999998 -0.28056559
0.90051061 0.0099999998 -0.26053554
0.90053058 0.0099999998 -0.24051175
0.90053791 0.0099999998 -0.22047059
0.90052867 0.0099999998 -0.20042367
0.92050463 0.0099999998 -0.3005572
0.92055362 0.0099999998 -0.28053382
0.92058253 0.0099999998 -0.26050365
0.92060292 0.0099999998 -0.24047829
0.92061138 0.0099999998 -0.22043855
0.92059892 0.0099999998 -0.20039739
0.94055289 0.0099999998 -0.30052242
0.94060338 0.0099999998 -0.28049856
0.94063407 0.0099999998 -0.26046851
0.94065285 0.0099999998 -0.24044089
0.94064808 0.0099999998 -0.2204058
0.94062191 0.0099999998 -0.20036921
0.9605881 0.0099999998 -0.30048525
0.96063823 0.0099999998 -0.28046119
0.9606685 0.0099999998 -0.26043129
0.96067542 0.0099999998 -0.24040572
0.96065396 0.0099999998 -0.22037543
0.96062344 0.0099999998 -0.20034026
0.98061907 0.0099999998 -0.30044657
0.98066586 0.0099999998 -0.2804226
0.98068905 0.0099999998 -0.26039398
0.98067909 0.0099999998 -0.2403727
0.98065144 0.0099999998 -0.2203446
0.98061877 0.0099999998 -0.20031179
1.000653 0.0099999998 -0.30040741
1.0006902 0.0099999998 -0.28038359
1.0006979999999999 0.0099999998 -0.26035744
1.0006774999999999 0.0099999998 -0.2403398
1.000645 0.0099999998 -0.22031341
1.0006109 0.0099999998 -0.2002853
1.0206956 0.0099999998 -0.30036882
1.020714 0.0099999998 -0.28034544
1.0207028 0.0099999998 -0.26032239
1.0206745000000002 0.0099999998 -0.2403076
1.0206378 0.0099999998 -0.22028455
1.020602 0.0099999998 -0.20026112
1.0407541999999999 0.0099999998 -0.30033177
1.0407415999999998 0.0099999998 -0.28031024
1.0407084 0.0099999998 -0.26029068
1.0406716 0.0099999998 -0.24027771
1.0406307 0.0099999998 -0.22025792
1.0405921 0.0099999998 -0.20023711
1.0608111999999998 0.0099999998 -0.30029765
1.0607673999999998 0.0099999998 -0.28028062
1.0607176 0.0099999998 -0.26026392
1.0606698 0.0099999998 -0.24025136
1.0606247 0.0099999998 -0.22023305
1.0605822 0.0099999998 -0.20021404
1.0808392 0.0099999998 -0.3002694
1.0807846 0.0099999998 -0.28025556
1.0807252 0.0099999998 -0.26023939
1.0806693 0.0099999998 -0.24022673
1.0806198 0.0099999998 -0.22021043
1.0805732 0.0099999998 -0.20019193
1.1007905 0.0099999998 -0.28023276
1.1007281999999998 0.0099999998 -0.26021555
1.10067 0.0099999998 -0.2402031
1.1006165 0.0099999998 -0.22018865
1.1005661 0.0099999998 -0.20017137
1.1207851999999998 0.0099999998 -0.28021336
1.1207291000000001 0.0099999998 -0.26019636
1.120671 0.0099999998 -0.24018167
1.1206152 0.0099999998 -0.22016843
1.1205611999999998 0.0099999998 -0.20015211
1.1407272 0.0099999998 -0.26018369
1.1406721000000002 0.0099999998 -0.24016656
1.1406174999999998 0.0099999998 -0.22015308
1.1405602 0.0099999998 -0.20013651
1.1607186 0.0099999998 -0.26017421
1.1606746000000001 0.0099999998 -0.24015975
1.160622 0.0099999998 -0.22014354
1.1605649 0.0099999998 -0.20012711
1.1806706 0.0099999998 -0.24015608
1.1806267 0.0099999998 -0.22014059
1.1805743 0.0099999998 -0.20012444
1.2006252 0.0099999998 -0.22014
1.2005841 0.0099999998 -0.20012635
1.2206053999999997 0.0099999998 -0.22013235
1.2205836 0.0099999998 -0.20012784
-3.3135466e-06 0.0099999998 -0.18000036
-3.4046848e-06 0.0099999998 -0.16000028
-3.4572881e-06 0.0099999998 -0.14000021
-3.4829952000000003e-06 0.0099999998 -0.12000016
-3.4910354e-06 0.0099999998 -0.10000011
-3.4885779e-06 0.0099999998 -0.080000073
-3.4815425e-06 0.0099999998 -0.060000047
-3.4737934000000003e-06 0.0099999998 -0.040000029
-3.4681411000000003e-06 0.0099999998 -0.020000013
0.019995254 0.0099999998 -0.1800005
0.019995136 0.0099999998 -0.16000038
0.019995075 0.0099999998 -0.1400003
0.019995047 0.0099999998 -0.12000022
0.019995045 0.0099999998 -0.10000016
0.019995053999999998 0.0099999998 -0.08000011
0.019995069 0.0099999998 -0.060000069
0.019995084 0.0099999998 -0.04000004
0.019995093000000002 0.0099999998 -0.020000018
0.039993405 0.0099999998 -0.18000059
0.03999326 0.0099999998 -0.16000046
0.039993189 0.0099999998 -0.14000034
0.039993163 0.0099999998 -0.12000026
0.039993167 0.0099999998 -0.10000019
0.039993189 0.0099999998 -0.080000125
0.039993215 0.0099999998 -0.060000084
0.039993238 0.0099999998 -0.040000051
0.039993256 0.0099999998 -0.020000023999999998
0.059991255 0.0099999998 -0.18000063
0.05999108400000001 0.0099999998 -0.1600005
0.059991006 0.0099999998 -0.14000037
0.059990987 0.0099999998 -0.12000028
0.059991006 0.0099999998 -0.1000002
0.059991043 0.0099999998 -0.08000014
0.05999108400000001 0.0099999998 -0.060000092000000005
0.059991117999999996 0.0099999998 -0.040000055
0.059991144 0.0099999998 -0.020000026
0.07998883 0.0099999998 -0.18000066
0.079988644 0.0099999998 -0.16000052
0.07998856900000001 0.0099999998 -0.14000039
0.079988562 0.0099999998 -0.12000029
0.07998859900000001 0.0099999998 -0.1000002
0.079988658 0.0099999998 -0.08000014
0.079988718 0.0099999998 -0.060000092000000005
0.07998877 0.0099999998 -0.040000055
0.0799888 0.0099999998 -0.020000026
0.09998609900000001 0.0099999998 -0.18000066
0.099985912 0.0099999998 -0.16000052
0.099985845 0.0099999998 -0.14000039
0.09998586 0.0099999998 -0.12000029
0.09998592699999999 0.0099999998 -0.1000002
0.099986009 0.0099999998 -0.08000014
0.099986091 0.0099999998 -0.060000092000000005
0.099986158 0.0099999998 -0.040000055
0.09998620300000001 0.0099999998 -0.020000026
0.11998298 0.0099999998 -0.18000068
0.11998279 0.0099999998 -0.16000053
0.11998276 0.0099999998 -0.1400004
0.11998281 0.0099999998 -0.1200003
0.11998291 0.0099999998 -0.10000021
0.11998302 0.0099999998 -0.08000014700000001
0.11998314 0.0099999998 -0.060000095999999996
0.11998323 0.0099999998 -0.040000055
0.11998329 0.0099999998 -0.020000026
0.13997938 0.0099999998 -0.18000071
0.13997921 0.0099999998 -0.16000056
0.13997921 0.0099999998 -0.14000043
0.13997932 0.0099999998 -0.12000033
0.13997945 0.0099999998 -0.10000023
0.13997962 0.0099999998 -0.080000162
0.13997976 0.0099999998 -0.060000107000000004
0.13997988 0.0099999998 -0.040000066
0.13997996 0.0099999998 -0.020000031
0.15997517 0.0099999998 -0.18000081
0.15997505 0.0099999998 -0.16000065
0.15997511 0.0099999998 -0.14000052
0.15997528 0.0099999998 -0.1200004
0.15997548 0.0099999998 -0.10000029
0.15997569 0.0099999998 -0.080000207
0.15997589 0.0099999998 -0.06000014
0.15997604 0.0099999998 -0.040000088999999996
0.15997612 0.0099999998 -0.020000041
0.17997031 0.0099999998 -0.18000102
0.17997025 0.0099999998 -0.16000085
0.17997038 0.0099999998 -0.14000069
0.17997061 0.0099999998 -0.12000053
0.17997089 0.0099999998 -0.1000004
0.17997117 0.0099999998 -0.080000296
0.17997141 0.0099999998 -0.060000204
0.17997159 0.0099999998 -0.040000126000000004
0.17997171 0.0099999998 -0.020000061
0.19996467 0.0099999998 -0.18000138
0.19996469 0.0099999998 -0.16000116
0.19996491 0.0099999998 -0.14000095
0.19996524 0.0099999998 -0.12000075
0.19996561 0.0099999998 -0.10000058
0.19996595 0.0099999998 -0.08000043
0.19996627 0.0099999998 -0.0600003
0.19996649 0.0099999998 -0.040000189
0.19996664 0.0099999998 -0.020000093
0.21995816 0.0099999998 -0.18000193
0.21995828 0.0099999998 -0.16000164
0.2199586 0.0099999998 -0.14000134
0.21995905 0.0099999998 -0.12000108
0.21995951 0.0099999998 -0.10000084
0.21995996 0.0099999998 -0.080000624
0.21996033 0.0099999998 -0.060000442
0.21996062 0.0099999998 -0.040000279
0.21996079 0.0099999998 -0.020000136
0.23995063 0.0099999998 -0.18000269
0.23995088 0.0099999998 -0.16000229
0.23995134 0.0099999998 -0.14000189
0.23995191 0.0099999998 -0.12000152
0.23995249 0.0099999998 -0.10000118
0.23995304 0.0099999998 -0.080000885
0.2399535 0.0099999998 -0.060000628
0.23995386 0.0099999998 -0.040000401
0.23995407 0.0099999998 -0.020000195
0.25994194 0.0099999998 -0.18000372
0.25994235 0.0099999998 -0.16000313
0.25994298 0.0099999998 -0.14000258
0.25994369 0.0099999998 -0.12000208
0.25994441 0.0099999998 -0.10000162
0.25994509 0.0099999998 -0.080001213
0.25994566 0.0099999998 -0.060000863
0.25994608 0.0099999998 -0.04000055
0.25994635 0.0099999998 -0.020000268
0.2799319 0.0099999998 -0.18000501
0.27993253 0.0099999998 -0.16000418
0.27993333 0.0099999998 -0.14000343
0.27993423 0.0099999998 -0.12000275
0.27993515 0.0099999998 -0.10000213
0.27993596 0.0099999998 -0.080001608
0.27993664 0.0099999998 -0.060001142
0.27993715 0.0099999998 -0.040000729
0.27993745 0.0099999998 -0.020000355
0.29992038 0.0099999998 -0.18000655
0.29992121 0.0099999998 -0.16000541
0.29992229 0.0099999998 -0.14000441
0.29992339 0.0099999998 -0.12000351
0.29992449 0.0099999998 -0.10000273
0.29992548 0.0099999998 -0.080002047
0.29992628 0.0099999998 -0.060001455
0.29992691 0.0099999998 -0.04000093
0.29992726 0.0099999998 -0.020000453999999997
0.31990713 0.0099999998 -0.18000828
0.31990826 0.0099999998 -0.16000679
0.3199096 0.0099999998 -0.14000551
0.31991097 0.0099999998 -0.12000438
0.31991228 0.0099999998 -0.10000339
0.31991348 0.0099999998 -0.080002539
0.31991443 0.0099999998 -0.060001802
0.31991515 0.0099999998 -0.040001154
0.31991559 0.0099999998 -0.020000562
0.33989194 0.0099999998 -0.18001014
0.3398934 0.0099999998 -0.1600083
0.33989507 0.0099999998 -0.14000671
0.33989674 0.0099999998 -0.12000531
0.33989835 0.0099999998 -0.10000411
0.33989975 0.0099999998 -0.080003068
0.33990088 0.0099999998 -0.060002174000000005
0.33990175 0.0099999998 -0.040001389
0.33990225 0.0099999998 -0.020000676000000002
0.35987458 0.0099999998 -0.18001212
0.35987642 0.0099999998 -0.16000991
0.35987848 0.0099999998 -0.14000797
0.35988051 0.0099999998 -0.1200063
0.35988241 0.0099999998 -0.10000486
0.35988405 0.0099999998 -0.08000362700000001
0.35988542 0.0099999998 -0.060002562
0.35988641 0.0099999998 -0.040001631
0.359887 0.0099999998 -0.020000793
0.3798548 0.0099999998 -0.18001422
0.37985709 0.0099999998 -0.1600116
0.37985957 0.0099999998 -0.14000933
0.37986201 0.0099999998 -0.12000734
0.37986425 0.0099999998 -0.10000565
0.37986621 0.0099999998 -0.080004208
0.37986779 0.0099999998 -0.060002970999999995
0.37986895 0.0099999998 -0.040001892000000004
0.37986967 0.0099999998 -0.02000092
0.39983231 0.0099999998 -0.18001647
0.39983511 0.0099999998 -0.16001344
0.39983809 0.0099999998 -0.14001077
0.39984098 0.0099999998 -0.12000847
0.39984366 0.0099999998 -0.10000651
0.39984596 0.0099999998 -0.080004849
0.39984781 0.0099999998 -0.060003426
0.39984918 0.0099999998 -0.040002182000000004
0.39985001 0.0099999998 -0.020001061
0.41980684 0.0099999998 -0.18001893
0.41981024 0.0099999998 -0.16001545
0.41981378 0.0099999998 -0.1400124
0.41981724 0.0099999998 -0.12000977
0.41982037 0.0099999998 -0.10000751
0.41982308 0.0099999998 -0.08000560799999999
0.41982526 0.0099999998 -0.060003974
0.41982684 0.0099999998 -0.04000254
0.41982779 0.0099999998 -0.020001238
0.43977803 0.0099999998 -0.18002172
0.43978214 0.0099999998 -0.1600178
0.4397864 0.0099999998 -0.14001437
0.43979049 0.0099999998 -0.12001137
0.43979418 0.0099999998 -0.10000881
0.43979731 0.0099999998 -0.080006614
0.43979985 0.0099999998 -0.060004715
0.43980169 0.0099999998 -0.040003031
0.4398028 0.0099999998 -0.020001482
0.45974553 0.0099999998 -0.18002509
0.45975047 0.0099999998 -0.16002074
0.45975554 0.0099999998 -0.14001691
0.45976037 0.0099999998 -0.12001354
0.45976469 0.0099999998 -0.1000106
0.45976838 0.0099999998 -0.080008052
0.45977131 0.0099999998 -0.060005795
0.45977345 0.0099999998 -0.04000375
0.45977473 0.0099999998 -0.020001843999999998
0.47970888 0.0099999998 -0.18002942
0.47971484 0.0099999998 -0.16002472
0.47972086 0.0099999998 -0.14002046
0.47972652 0.0099999998 -0.12001663
0.47973159 0.0099999998 -0.10001321
0.47973585 0.0099999998 -0.080010161
0.47973925 0.0099999998 -0.060007400999999995
0.47974169 0.0099999998 -0.040004835
0.47974321 0.0099999998 -0.020002389
0.49966773 0.0099999998 -0.18003537
0.49967483 0.0099999998 -0.16003032
0.49968192 0.0099999998 -0.14002559
0.49968854 0.0099999998 -0.12002114
0.49969438 0.0099999998 -0.10001704
0.49969929 0.0099999998 -0.080013275
0.4997032 0.0099999998 -0.060009763
0.49970603 0.0099999998 -0.040006428999999996
0.49970776 0.0099999998 -0.020003194
0.51962179 0.0099999998 -0.18004376
0.51963013 0.0099999998 -0.16003832
0.51963836 0.0099999998 -0.14003292
0.51964599 0.0099999998 -0.12002762
0.51965272 0.0099999998 -0.10002255
0.51965833 0.0099999998 -0.080017738
0.5196628 0.0099999998 -0.060013145
0.51966602 0.0099999998 -0.040008705
0.51966798 0.0099999998 -0.020004338
0.53957123 0.0099999998 -0.18005553
0.53958082 0.0099999998 -0.16004947
0.53959024 0.0099999998 -0.14004311
0.53959894 0.0099999998 -0.12003659
0.53960657 0.0099999998 -0.10003014
0.53961295 0.0099999998 -0.080023862
0.53961796 0.0099999998 -0.060017783
0.53962165 0.0099999998 -0.040011816
0.53962386 0.0099999998 -0.020005899
0.55951703 0.0099999998 -0.18007164
0.55952787 0.0099999998 -0.16006453
0.55953836 0.0099999998 -0.14005676
0.55954808 0.0099999998 -0.12004855
0.5595566 0.0099999998 -0.10004025
0.55956376 0.0099999998 -0.080032028
0.55956942 0.0099999998 -0.06002393
0.55957353 0.0099999998 -0.040015925
0.55957603 0.0099999998 -0.020007955
0.5794614 0.0099999998 -0.18009268
0.57947332 0.0099999998 -0.16008377
0.57948482 0.0099999998 -0.14007393
0.57949543 0.0099999998 -0.1200635
0.57950485 0.0099999998 -0.10005278
0.57951272 0.0099999998 -0.080042072
0.57951897 0.0099999998 -0.060031474
0.5795235 0.0099999998 -0.040020972
0.57952631 0.0099999998 -0.020010494
0.59940737 0.0099999998 -0.18011756
0.59942043 0.0099999998 -0.16010669
0.599433 0.0099999998 -0.14009462
0.59944451 0.0099999998 -0.12008151
0.59945464 0.0099999998 -0.10006787
0.59946316 0.0099999998 -0.080054156
0.59946996 0.0099999998 -0.060040578
0.59947497 0.0099999998 -0.040027104
0.59947801 0.0099999998 -0.020013589
0.61935812 0.0099999998 -0.18014598
0.61937261 0.0099999998 -0.16013303
0.61938608 0.0099999998 -0.14011833
0.6193983 0.0099999998 -0.12010214
0.61940897 0.0099999998 -0.10008529
0.61941803 0.0099999998 -0.080068335
0.61942536 0.0099999998 -0.060051340999999994
0.61943078 0.0099999998 -0.040034346
0.61943406 0.0099999998 -0.020017257
0.6393165 0.0099999998 -0.1801779
0.639332 0.0099999998 -0.16016199
0.63934606 0.0099999998 -0.14014405
0.6393587 0.0099999998 -0.1201243
0.63936996 0.0099999998 -0.10010366
0.63937962 0.0099999998 -0.080082968
0.63938743 0.0099999998 -0.060062353
0.63939321 0.0099999998 -0.040041789
0.63939667 0.0099999998 -0.020021008
0.65928656 0.0099999998 -0.18021628
0.65930235 0.0099999998 -0.16019583
0.65931654 0.0099999998 -0.14017396
0.65932918 0.0099999998 -0.12014978
0.65934044 0.0099999998 -0.10012474
0.65935034 0.0099999998 -0.080099933
0.65935844 0.0099999998 -0.06007541
0.65936434 0.0099999998 -0.040050708
0.65936792 0.0099999998 -0.020025512
0.67927563 0.0099999998 -0.18026957
0.67929107 0.0099999998 -0.16024265
0.67930466 0.0099999998 -0.14021546
0.6793167 0.0099999998 -0.12018602
0.67932761 0.0099999998 -0.10015561
0.67933708 0.0099999998 -0.080125451
0.67934483 0.0099999998 -0.060095385
0.67935055 0.0099999998 -0.040064756
0.67935401 0.0099999998 -0.020032847
0.6992991 0.0099999998 -0.18034266
0.69931263 0.0099999998 -0.16030757
0.69932365 0.0099999998 -0.14027162
0.69933289 0.0099999998 -0.12023316
0.69934177 0.0099999998 -0.10019433
0.69935018 0.0099999998 -0.080156311
0.69935727 0.0099999998 -0.060118597
0.69936258 0.0099999998 -0.040080324
0.69936568 0.0099999998 -0.020040728
0.71940386 0.0099999998 -0.18042412
0.71941662 0.0099999998 -0.16038319
0.7194286 0.0099999998 -0.14033772
0.71943986 0.0099999998 -0.12028734
0.71945065 0.0099999998 -0.10023709
0.71946043 0.0099999998 -0.080189012
0.71946865 0.0099999998 -0.060142614000000004
0.71947497 0.0099999998 -0.040096279
0.71947896 0.0099999998 -0.02004873
0.73961449 0.0099999998 -0.18044628
0.73962218 0.0099999998 -0.16040581
0.73963034 0.0099999998 -0.14035897
0.73963839 0.0099999998 -0.12030641
0.7396459 0.0099999998 -0.10025392
0.73965269 0.0099999998 -0.080203377
0.73965847 0.0099999998 -0.06015408
0.739663 0.0099999998 -0.040104337000000004
0.73966593 0.0099999998 -0.020052901
0.75978434 0.0099999998 -0.18045288
0.75978702 0.0099999998 -0.1604148
0.75979054 0.0099999998 -0.14036913
0.75979429 0.0099999998 -0.12031681
0.75979805 0.0099999998 -0.10026385
0.75980169 0.0099999998 -0.080212265
0.7598049 0.0099999998 -0.060161427
0.75980747 0.0099999998 -0.040109623
0.7598092 0.0099999998 -0.020055676
0.77991086 0.0099999998 -0.18045282
0.77991045 0.0099999998 -0.16041686
0.77991062 0.0099999998 -0.14037256
0.77991122 0.0099999998 -0.12032093
0.77991199 0.0099999998 -0.10026819
0.77991301 0.0099999998 -0.080216438
0.77991402 0.0099999998 -0.060165065999999996
0.77991498 0.0099999998 -0.040112342999999995
0.77991563 0.0099999998 -0.020057138000000002
0.8000142 0.0099999998 -0.18044916
0.80001163 0.0099999998 -0.16041441
0.80000943 0.0099999998 -0.14037111
0.80000752 0.0099999998 -0.12032023
0.80000597 0.0099999998 -0.10026804
0.80000484 0.0099999998 -0.080216706
0.80000412 0.0099999998 -0.060165565
0.80000365 0.0099999998 -0.040112853
0.80000347 0.0099999998 -0.020057453
0.82011312 0.0099999998 -0.1804432
0.82010853 0.0099999998 -0.16040878
0.82010406 0.0099999998 -0.14036603
0.82010007 0.0099999998 -0.12031583
0.82009655 0.0099999998 -0.1002644
0.82009369 0.0099999998 -0.080213882
0.82009149 0.0099999998 -0.060163539
0.82008994 0.0099999998 -0.040111564
0.82008904 0.0099999998 -0.020056831
0.84021634 0.0099999998 -0.18043472
0.84020919 0.0099999998 -0.16040029
0.84020233 0.0099999998 -0.14035791
0.84019619 0.0099999998 -0.12030843
0.84019089 0.0099999998 -0.10025799
0.84018648 0.0099999998 -0.080208614
0.84018308 0.0099999998 -0.06015953
0.84018058 0.0099999998 -0.04010886
0.84017903 0.0099999998 -0.020055465
0.86032206 0.0099999998 -0.18042289
0.86031175 0.0099999998 -0.16038857
0.86030221 0.0099999998 -0.14034675
0.86029381 0.0099999998 -0.12029826
0.86028671 0.0099999998 -0.10024913
0.86028093 0.0099999998 -0.080201291
0.86027634 0.0099999998 -0.060153864
0.86027306 0.0099999998 -0.040104985
0.86027098 0.0099999998 -0.020053493000000002
0.88042319 0.0099999998 -0.18040697
0.88040954 0.0099999998 -0.16037323
0.8803972 0.0099999998 -0.14033239
0.88038659 0.0099999998 -0.12028536
0.88037777 0.0099999998 -0.10023799
0.88037056 0.0099999998 -0.080192074
0.88036495 0.0099999998 -0.060146734
0.88036084 0.0099999998 -0.04010009
0.88035834 0.0099999998 -0.020050993
0.90051234 0.0099999998 -0.18038669
0.90049553 0.0099999998 -0.16035412
0.90048057 0.0099999998 -0.14031482
0.90046781 0.0099999998 -0.12026981
0.90045726 0.0099999998 -0.10022467
0.90044874 0.0099999998 -0.08018112200000001
0.90044206 0.0099999998 -0.06013827
0.90043718 0.0099999998 -0.040094282
0.9004342 0.0099999998 -0.02004803
0.9205761 0.0099999998 -0.1803627
0.92055362 0.0099999998 -0.1603317
0.92053413 0.0099999998 -0.14029439
0.92051774 0.0099999998 -0.12025192
0.92050403 0.0099999998 -0.10020956
0.92049283 0.0099999998 -0.080168881
0.92048401 0.0099999998 -0.060128942000000005
0.92047769 0.0099999998 -0.040087949
0.92047387 0.0099999998 -0.020044813
0.94059342 0.0099999998 -0.18033691
0.94056815 0.0099999998 -0.16030729
0.94054663 0.0099999998 -0.14027213
0.94052851 0.0099999998 -0.12023254
0.94051349 0.0099999998 -0.10019327
0.94050127 0.0099999998 -0.0801557
0.9404918 0.0099999998 -0.060118865
0.94048506 0.0099999998 -0.040081072999999995
0.94048101 0.0099999998 -0.020041298
0.96059388 0.0099999998 -0.18031064
0.96056777 0.0099999998 -0.16028246
0.96054566 0.0099999998 -0.14024951
0.96052706 0.0099999998 -0.12021286
0.96051157 0.0099999998 -0.10017663
0.96049905 0.0099999998 -0.080142029
0.96048933 0.0099999998 -0.06010824099999999
0.96048248 0.0099999998 -0.04007373
0.96047843 0.0099999998 -0.020037554
0.98058832 0.0099999998 -0.18028523
0.98056161 0.0099999998 -0.16025878
0.98053902 0.0099999998 -0.14022797
0.98052007 0.0099999998 -0.12019405
0.98050439 0.0099999998 -0.10016064
0.98049176 0.0099999998 -0.080128908
0.98048204 0.0099999998 -0.060098052
0.98047513 0.0099999998 -0.040066652
0.98047101 0.0099999998 -0.020033866
1.0005798000000001 0.0099999998 -0.18026108
1.0005527 0.0099999998 -0.16023706
1.0005292 0.0099999998 -0.14020869
1.0005099 0.0099999998 -0.12017763
1.0004940999999998 0.0099999998 -0.10014687
1.0004815999999999 0.0099999998 -0.080117568
1.0004718000000001 0.0099999998 -0.060089052000000004
1.0004648 0.0099999998 -0.040060293
1.0004605 0.0099999998 -0.020030556
1.0205698 0.0099999998 -0.18023871
1.0205418 0.0099999998 -0.16021647
1.0205176 0.0099999998 -0.14019065
1.0204978999999998 0.0099999998 -0.12016233
1.0204819 0.0099999998 -0.10013393
1.0204693 0.0099999998 -0.080106884
1.0204594999999999 0.0099999998 -0.060080767
1.0204524 0.0099999998 -0.04005453
1.0204481 0.0099999998 -0.020027567
1.0405585 0.0099999998 -0.18021783
1.0405289 0.0099999998 -0.16019696
1.0405042 0.0099999998 -0.14017391
1.0404838 0.0099999998 -0.12014819
1.0404676 0.0099999998 -0.10012227
1.0404547 0.0099999998 -0.080097318
1.0404449 0.0099999998 -0.060073238
1.0404377 0.0099999998 -0.040049203
1.0404334000000002 0.0099999998 -0.020024795
1.060546 0.0099999998 -0.18019712
1.0605149 0.0099999998 -0.16017835
1.0604892 0.0099999998 -0.14015782
1.0604681 0.0099999998 -0.1201352
1.0604513999999998 0.0099999998 -0.10011166
1.0604383999999998 0.0099999998 -0.080088675
1.0604284 0.0099999998 -0.060066330999999994
1.0604212 0.0099999998 -0.040044323
1.0604168 0.0099999998 -0.020022228
1.0805334999999998 0.0099999998 -0.18017597
1.080501 0.0099999998 -0.16016053
1.0804733999999998 0.0099999998 -0.14014231
1.0804516000000002 0.0099999998 -0.12012295
1.0804343 0.0099999998 -0.10010206
1.0804209999999999 0.0099999998 -0.080081038
1.0804108000000001 0.0099999998 -0.060060378
1.0804037 0.0099999998 -0.040040094
1.0803993 0.0099999998 -0.020020034
1.1005225 0.0099999998 -0.18015562
1.100487 0.0099999998 -0.16014151
1.1004585 0.0099999998 -0.14012729
1.1004353999999998 0.0099999998 -0.1201106
1.1004174 0.0099999998 -0.10009292
1.1004034 0.0099999998 -0.080073982
1.1003931999999998 0.0099999998 -0.060055103
1.1003858999999998 0.0099999998 -0.040036451
1.1003815000000001 0.0099999998 -0.020018123
1.1205142 0.0099999998 -0.18013665
1.1204753 0.0099999998 -0.16012309
1.1204445 0.0099999998 -0.14011092
1.1204203000000001 0.0099999998 -0.12009814
1.1204013000000002 0.0099999998 -0.10008313
1.120387 0.0099999998 -0.080067113
1.1203761 0.0099999998 -0.06005007
1.1203687 0.0099999998 -0.040033195
1.1203643 0.0099999998 -0.020016495
1.1405087999999999 0.0099999998 -0.18012013
1.1404665 0.0099999998 -0.16010639
1.140433 0.0099999998 -0.14009492
1.1404068 0.0099999998 -0.12008442
1.1403869 0.0099999998 -0.10007304
1.1403716999999998 0.0099999998 -0.08005941700000001
1.1403606000000002 0.0099999998 -0.060044974
1.1403530000000002 0.0099999998 -0.040029876
1.1403484 0.0099999998 -0.020014913999999998
1.1605085 0.0099999998 -0.18010852
1.1604617 0.0099999998 -0.16009292
1.1604246999999999 0.0099999998 -0.14008076
1.1603961999999999 0.0099999998 -0.12007093
1.1603745 0.0099999998 -0.10006163
1.1603584999999998 0.0099999998 -0.080051348
1.1603466999999998 0.0099999998 -0.060039088
1.1603389 0.0099999998 -0.040026262
1.1603343000000002 0.0099999998 -0.0200132
1.1805176000000002 0.0099999998 -0.18010545
1.1804636 0.0099999998 -0.16008589
1.1804208999999999 0.0099999998 -0.14007072
1.1803888999999999 0.0099999998 -0.12005962
1.1803652 0.0099999998 -0.10005084
1.1803476000000002 0.0099999998 -0.080042265
1.1803350000000001 0.0099999998 -0.0600328
1.1803268 0.0099999998 -0.04002225
1.1803221000000002 0.0099999998 -0.020011162
1.2005322 0.0099999998 -0.1801082
1.2004774999999999 0.0099999998 -0.16008893
1.2004261999999999 0.0099999998 -0.14006919
1.2003871000000002 0.0099999998 -0.12005369
1.2003596 0.0099999998 -0.10004281
1.20034 0.0099999998 -0.080034599
1.2003261 0.0099999998 -0.060026623
1.200317 0.0099999998 -0.040018067000000004
1.2003119 0.0099999998 -0.020009136
1.2205423 0.0099999998 -0.18011233
1.2204956 0.0099999998 -0.16009559
1.2204453000000002 0.0099999998 -0.14007753
1.2203983999999999 0.0099999998 -0.12005889
1.2203621 0.0099999998 -0.10004273
1.2203374 0.0099999998 -0.080031157
1.2203211 0.0099999998 -0.060022708
1.2203107 0.0099999998 -0.040015373
1.2203046999999998 0.0099999998 -0.020007806
1.2405354 0.0099999998 -0.18011123
1.2405015 0.0099999998 -0.16009864
1.2404633999999999 0.0099999998 -0.14008549
1.2404228000000002 0.0099999998 -0.12007067
1.2403829 0.0099999998 -0.10005458
1.2403495 0.0099999998 -0.080038942
1.2403258999999998 0.0099999998 -0.060025878
1.2403115 0.0099999998 -0.040016185
1.2403038 0.0099999998 -0.020008102
1.2604882 0.0099999998 -0.16009578
1.2604624 0.0099999998 -0.14008652
1.2604336 0.0099999998 -0.12007573
1.2604049 0.0099999998 -0.10006449
1.260378 0.0099999998 -0.080051102
1.260355 0.0099999998 -0.06003695
1.2603378 0.0099999998 -0.040023312000000005
1.2603278 0.0099999998 -0.020011328000000002
1.2804229 0.0099999998 -0.12007456
1.2804031 0.0099999998 -0.10006624
1.2803836000000002 0.0099999998 -0.080054402
1.2803687 0.0099999998 -0.060040906
1.2803579999999999 0.0099999998 -0.040026382
1.2803518999999999 0.0099999998 -0.020012666999999998
1.3003703000000002 0.0099999998 -0.080054216
1.3003579 0.0099999998 -0.060040645
1.3003489 0.0099999998 -0.040026106
1.3003434999999999 0.0099999998 -0.020012427
-3.4660798e-06 0.0099999998 -1.4750358000000001e-13
-3.4681408999999996e-06 0.0099999998 0.020000013
-3.4737934000000003e-06 0.0099999998 0.040000029
-3.4815434e-06 0.0099999998 0.060000047
-3.4885779e-06 0.0099999998 0.080000073
-3.4910367999999998e-06 0.0099999998 0.10000011
-3.4829939000000003e-06 0.0099999998 0.12000016
-3.4572879e-06 0.0099999998 0.14000021
0.019995097 0.0099999998 1.8741473e-14
0.019995093000000002 0.0099999998 0.020000018
0.019995084 0.0099999998 0.04000004
0.019995069 0.0099999998 0.060000069
0.019995053999999998 0.0099999998 0.08000011
0.019995045 0.0099999998 0.10000016
0.019995047 0.0099999998 0.12000022
0.019995075 0.0099999998 0.1400003
0.03999326 0.0099999998 -7.0639878e-14
0.039993256 0.0099999998 0.020000023999999998
0.039993238 0.0099999998 0.040000051
0.039993215 0.0099999998 0.060000084
0.039993189 0.0099999998 0.080000125
0.039993167 0.0099999998 0.10000019
0.039993163 0.0099999998 0.12000026
0.039993189 0.0099999998 0.14000034
0.059991151 0.0099999998 -4.0440234e-13
0.059991144 0.0099999998 0.020000026
0.059991117999999996 0.0099999998 0.040000055
0.05999108400000001 0.0099999998 0.060000092000000005
0.059991043 0.0099999998 0.08000014
0.059991006 0.0099999998 0.1000002
0.059990987 0.0099999998 0.12000028
0.059991006 0.0099999998 0.14000037
0.079988815 0.0099999998 1.5012868e-13
0.0799888 0.0099999998 0.020000026
0.07998877 0.0099999998 0.040000055
0.079988718 0.0099999998 0.060000092000000005
0.079988658 0.0099999998 0.08000014
0.07998859900000001 0.0099999998 0.1000002
0.079988562 0.0099999998 0.12000029
0.07998856900000001 0.0099999998 0.14000039
0.099986218 0.0099999998 -3.5526199e-13
0.09998620300000001 0.0099999998 0.020000026
0.099986158 0.0099999998 0.040000055
0.099986091 0.0099999998 0.060000092000000005
0.099986009 0.0099999998 0.08000014
0.09998592699999999 0.0099999998 0.1000002
0.09998586 0.0099999998 0.12000029
0.099985845 0.0099999998 0.14000039
0.11998331 0.0099999998 -7.1712054e-13
0.11998329 0.0099999998 0.020000026
0.11998323 0.0099999998 0.040000055
0.11998314 0.0099999998 0.060000095999999996
0.11998302 0.0099999998 0.08000014700000001
0.11998291 0.0099999998 0.10000021
0.11998281 0.0099999998 0.1200003
0.11998276 0.0099999998 0.1400004
0.13997997 0.0099999998 7.206864000000001e-14
0.13997996 0.0099999998 0.020000031
0.13997988 0.0099999998 0.040000066
0.13997976 0.0099999998 0.060000107000000004
0.13997962 0.0099999998 0.080000162
0.13997945 0.0099999998 0.10000023
0.13997932 0.0099999998 0.12000033
0.13997921 0.0099999998 0.14000043
0.15997615 0.0099999998 -4.2497404999999997e-13
0.15997612 0.0099999998 0.020000041
0.15997604 0.0099999998 0.040000088999999996
0.15997589 0.0099999998 0.06000014
0.15997569 0.0099999998 0.080000207
0.15997548 0.0099999998 0.10000029
0.15997528 0.0099999998 0.1200004
0.15997511 0.0099999998 0.14000052
0.17997175 0.0099999998 4.5213685999999996e-13
0.17997171 0.0099999998 0.020000061
0.17997159 0.0099999998 0.040000126000000004
0.17997141 0.0099999998 0.060000204
0.17997117 0.0099999998 0.080000296
0.17997089 0.0099999998 0.1000004
0.17997061 0.0099999998 0.12000053
0.17997038 0.0099999998 0.14000069
0.19996668 0.0099999998 -9.2111507e-13
0.19996664 0.0099999998 0.020000093
0.19996649 0.0099999998 0.040000189
0.19996627 0.0099999998 0.0600003
0.19996595 0.0099999998 0.08000043
0.19996561 0.0099999998 0.10000058
0.19996524 0.0099999998 0.12000075
0.19996491 0.0099999998 0.14000095
0.21996085 0.0099999998 -1.6170128999999998e-12
0.21996079 0.0099999998 0.020000136
0.21996062 0.0099999998 0.040000279
0.21996033 0.0099999998 0.060000442
0.21995996 0.0099999998 0.080000624
0.21995951 0.0099999998 0.10000084
0.21995905 0.0099999998 0.12000108
0.2199586 0.0099999998 0.14000134
0.23995414 0.0099999998 -7.376196e-13
0.23995407 0.0099999998 0.020000195
0.23995386 0.0099999998 0.040000401
0.2399535 0.0099999998 0.060000628
0.23995304 0.0099999998 0.080000885
0.23995249 0.0099999998 0.10000118
0.23995191 0.0099999998 0.12000152
0.23995134 0.0099999998 0.14000189
0.25994644 0.0099999998 -6.731574899999999e-13
0.25994635 0.0099999998 0.020000268
0.25994608 0.0099999998 0.04000055
0.25994566 0.0099999998 0.060000863
0.25994509 0.0099999998 0.080001213
0.25994441 0.0099999998 0.10000162
0.25994369 0.0099999998 0.12000208
0.25994298 0.0099999998 0.14000258
0.27993757 0.0099999998 -6.529855899999999e-13
0.27993745 0.0099999998 0.020000355
0.27993715 0.0099999998 0.040000729
0.27993664 0.0099999998 0.060001142
0.27993596 0.0099999998 0.080001608
0.27993515 0.0099999998 0.10000213
0.27993423 0.0099999998 0.12000275
0.27993333 0.0099999998 0.14000343
0.29992738 0.0099999998 -4.7818574e-13
0.29992726 0.0099999998 0.020000453999999997
0.29992691 0.0099999998 0.04000093
0.29992628 0.0099999998 0.060001455
0.29992548 0.0099999998 0.080002047
0.29992449 0.0099999998 0.10000273
0.29992339 0.0099999998 0.12000351
0.29992229 0.0099999998 0.14000441
0.31991574 0.0099999998 -2.2573033e-12
0.31991559 0.0099999998 0.020000562
0.31991515 0.0099999998 0.040001154
0.31991443 0.0099999998 0.060001802
0.31991348 0.0099999998 0.080002539
0.31991228 0.0099999998 0.10000339
0.31991097 0.0099999998 0.12000438
0.3199096 0.0099999998 0.14000551
0.33990243 0.0099999998 7.3093075e-14
0.33990225 0.0099999998 0.020000676000000002
0.33990175 0.0099999998 0.040001389
0.33990088 0.0099999998 0.060002174000000005
0.33989975 0.0099999998 0.080003068
0.33989835 0.0099999998 0.10000411
0.33989674 0.0099999998 0.12000531
0.33989507 0.0099999998 0.14000671
0.35988721 0.0099999998 -2.7919877999999996e-12
0.359887 0.0099999998 0.020000793
0.35988641 0.0099999998 0.040001631
0.35988542 0.0099999998 0.060002562
0.35988405 0.0099999998 0.08000362700000001
0.35988241 0.0099999998 0.10000486
0.35988051 0.0099999998 0.1200063
0.35987848 0.0099999998 0.14000797
0.37986991 0.0099999998 -2.5594342999999997e-13
0.37986967 0.0099999998 0.02000092
0.37986895 0.0099999998 0.040001892000000004
0.37986779 0.0099999998 0.060002970999999995
0.37986621 0.0099999998 0.080004208
0.37986425 0.0099999998 0.10000565
0.37986201 0.0099999998 0.12000734
0.37985957 0.0099999998 0.14000933
0.39985028 0.0099999998 -2.4876029999999997e-12
0.39985001 0.0099999998 0.020001061
0.39984918 0.0099999998 0.040002182000000004
0.39984781 0.0099999998 0.060003426
0.39984596 0.0099999998 0.080004849
0.39984366 0.0099999998 0.10000651
0.39984098 0.0099999998 0.12000847
0.39983809 0.0099999998 0.14001077
0.41982812 0.0099999998 -2.777806e-12
0.41982779 0.0099999998 0.020001238
0.41982684 0.0099999998 0.04000254
0.41982526 0.0099999998 0.060003974
0.41982308 0.0099999998 0.08000560799999999
0.41982037 0.0099999998 0.10000751
0.41981724 0.0099999998 0.12000977
0.41981378 0.0099999998 0.1400124
0.43980318 0.0099999998 1.0020727000000001e-13
0.4398028 0.0099999998 0.020001482
0.43980169 0.0099999998 0.040003031
0.43979985 0.0099999998 0.060004715
0.43979731 0.0099999998 0.080006614
0.43979418 0.0099999998 0.10000881
0.43979049 0.0099999998 0.12001137
0.4397864 0.0099999998 0.14001437
0.45977518 0.0099999998 7.6301196e-12
0.45977473 0.0099999998 0.020001843999999998
0.45977345 0.0099999998 0.04000375
0.45977131 0.0099999998 0.060005795
0.45976838 0.0099999998 0.080008052
0.45976469 0.0099999998 0.1000106
0.45976037 0.0099999998 0.12001354
0.45975554 0.0099999998 0.14001691
0.47974372 0.0099999998 -5.2319694e-13
0.47974321 0.0099999998 0.020002389
0.47974169 0.0099999998 0.040004835
0.47973925 0.0099999998 0.060007400999999995
0.47973585 0.0099999998 0.080010161
0.47973159 0.0099999998 0.10001321
0.47972652 0.0099999998 0.12001663
0.47972086 0.0099999998 0.14002046
0.49970832 0.0099999998 3.9687996e-13
0.49970776 0.0099999998 0.020003194
0.49970603 0.0099999998 0.040006428999999996
0.4997032 0.0099999998 0.060009763
0.49969929 0.0099999998 0.080013275
0.49969438 0.0099999998 0.10001704
0.49968854 0.0099999998 0.12002114
0.49968192 0.0099999998 0.14002559
0.51966864 0.0099999998 1.0588728000000001e-13
0.51966798 0.0099999998 0.020004338
0.51966602 0.0099999998 0.040008705
0.5196628 0.0099999998 0.060013145
0.51965833 0.0099999998 0.080017738
0.51965272 0.0099999998 0.10002255
0.51964599 0.0099999998 0.12002762
0.51963836 0.0099999998 0.14003292
0.53962463 0.0099999998 6.236683900000001e-12
0.53962386 0.0099999998 0.020005899
0.53962165 0.0099999998 0.040011816
0.53961796 0.0099999998 0.060017783
0.53961295 0.0099999998 0.080023862
0.53960657 0.0099999998 0.10003014
0.53959894 0.0099999998 0.12003659
0.53959024 0.0099999998 0.14004311
0.55957687 0.0099999998 -4.0884644e-12
0.55957603 0.0099999998 0.020007955
0.55957353 0.0099999998 0.040015925
0.55956942 0.0099999998 0.06002393
0.55956376 0.0099999998 0.080032028
0.5595566 0.0099999998 0.10004025
0.55954808 0.0099999998 0.12004855
0.55953836 0.0099999998 0.14005676
0.57952726 0.0099999998 -5.9381173e-13
0.57952631 0.0099999998 0.020010494
0.5795235 0.0099999998 0.040020972
0.57951897 0.0099999998 0.060031474
0.57951272 0.0099999998 0.080042072
0.57950485 0.0099999998 0.10005278
0.57949543 0.0099999998 0.1200635
0.57948482 0.0099999998 0.14007393
0.59947902 0.0099999998 9.6781342e-12
0.59947801 0.0099999998 0.020013589
0.59947497 0.0099999998 0.040027104
0.59946996 0.0099999998 0.060040578
0.59946316 0.0099999998 0.080054156
0.59945464 0.0099999998 0.10006787
0.59944451 0.0099999998 0.12008151
0.599433 0.0099999998 0.14009462
0.61943519 0.0099999998 -2.0328038e-12
0.61943406 0.0099999998 0.020017257
0.61943078 0.0099999998 0.040034346
0.61942536 0.0099999998 0.060051340999999994
0.61941803 0.0099999998 0.080068335
0.61940897 0.0099999998 0.10008529
0.6193983 0.0099999998 0.12010214
0.61938608 0.0099999998 0.14011833
0.6393978 0.0099999998 2.6997274e-11
0.63939667 0.0099999998 0.020021008
0.63939321 0.0099999998 0.040041789
0.63938743 0.0099999998 0.060062353
0.63937962 0.0099999998 0.080082968
0.63936996 0.0099999998 0.10010366
0.6393587 0.0099999998 0.1201243
0.63934606 0.0099999998 0.14014405
0.65936905 0.0099999998 -7.728194e-12
0.65936792 0.0099999998 0.020025512
0.65936434 0.0099999998 0.040050708
0.65935844 0.0099999998 0.06007541
0.65935034 0.0099999998 0.080099933
0.65934044 0.0099999998 0.10012474
0.65932918 0.0099999998 0.12014978
0.65931654 0.0099999998 0.14017396
0.6793552 0.0099999998 9.390397499999999e-13
0.67935401 0.0099999998 0.020032847
0.67935055 0.0099999998 0.040064756
0.67934483 0.0099999998 0.060095385
0.67933708 0.0099999998 0.080125451
0.67932761 0.0099999998 0.10015561
0.6793167 0.0099999998 0.12018602
0.67930466 0.0099999998 0.14021546
0.69936669 0.0099999998 2.2355255e-11
0.69936568 0.0099999998 0.020040728
0.69936258 0.0099999998 0.040080324
0.69935727 0.0099999998 0.060118597
0.69935018 0.0099999998 0.080156311
0.69934177 0.0099999998 0.10019433
0.69933289 0.0099999998 0.12023316
0.69932365 0.0099999998 0.14027162
0.71948034 0.0099999998 -1.701354e-11
0.71947896 0.0099999998 0.02004873
0.71947497 0.0099999998 0.040096279
0.71946865 0.0099999998 0.060142614000000004
0.71946043 0.0099999998 0.080189012
0.71945065 0.0099999998 0.10023709
0.71943986 0.0099999998 0.12028734
0.7194286 0.0099999998 0.14033772
0.73966688 0.0099999998 5.0451525e-11
0.73966593 0.0099999998 0.020052901
0.739663 0.0099999998 0.040104337000000004
0.73965847 0.0099999998 0.06015408
0.73965269 0.0099999998 0.080203377
0.7396459 0.0099999998 0.10025392
0.73963839 0.0099999998 0.12030641
0.73963034 0.0099999998 0.14035897
0.75980979 0.0099999998 1.2710631000000002e-10
0.7598092 0.0099999998 0.020055676
0.75980747 0.0099999998 0.040109623
0.7598049 0.0099999998 0.060161427
0.75980169 0.0099999998 0.080212265
0.75979805 0.0099999998 0.10026385
0.75979429 0.0099999998 0.12031681
0.75979054 0.0099999998 0.14036913
0.77991587 0.0099999998 -2.1832008e-11
0.77991563 0.0099999998 0.020057138000000002
0.77991498 0.0099999998 0.040112342999999995
0.77991402 0.0099999998 0.060165065999999996
0.77991301 0.0099999998 0.080216438
0.77991199 0.0099999998 0.10026819
0.77991122 0.0099999998 0.12032093
0.77991062 0.0099999998 0.14037256
0.80000341 0.0099999998 -1.4564e-10
0.80000347 0.0099999998 0.020057453
0.80000365 0.0099999998 0.040112853
0.80000412 0.0099999998 0.060165565
0.80000484 0.0099999998 0.080216706
0.80000597 0.0099999998 0.10026804
0.80000752 0.0099999998 0.12032023
0.80000943 0.0099999998 0.14037111
0.82008874 0.0099999998 2.6412558000000002e-11
0.82008904 0.0099999998 0.020056831
0.82008994 0.0099999998 0.040111564
0.82009149 0.0099999998 0.060163543
0.82009369 0.0099999998 0.080213882
0.82009655 0.0099999998 0.1002644
0.82010007 0.0099999998 0.12031583
0.82010406 0.0099999998 0.14036603
0.84017855 0.0099999998 1.3702017e-10
0.84017903 0.0099999998 0.020055465
0.84018058 0.0099999998 0.04010886
0.84018308 0.0099999998 0.06015953
0.84018648 0.0099999998 0.080208614
0.84019089 0.0099999998 0.10025799
0.84019619 0.0099999998 0.12030843
0.84020233 0.0099999998 0.14035791
0.86027032 0.0099999998 8.4464359e-11
0.86027098 0.0099999998 0.020053493000000002
0.86027306 0.0099999998 0.040104982000000004
0.86027634 0.0099999998 0.060153864
0.86028093 0.0099999998 0.080201291
0.86028671 0.0099999998 0.10024913
0.86029381 0.0099999998 0.12029826
0.86030221 0.0099999998 0.14034675
0.8803575 0.0099999998 -1.1396368999999998e-10
0.88035834 0.0099999998 0.020050993
0.88036084 0.0099999998 0.04010009
0.88036495 0.0099999998 0.060146734
0.88037056 0.0099999998 0.080192074
0.88037777 0.0099999998 0.10023799
0.88038659 0.0099999998 0.12028536
0.8803972 0.0099999998 0.14033239
0.90043324 0.0099999998 -1.2874272e-10
0.9004342 0.0099999998 0.02004803
0.90043718 0.0099999998 0.040094282
0.90044206 0.0099999998 0.06013827
0.90044874 0.0099999998 0.08018112200000001
0.90045726 0.0099999998 0.10022467
0.90046781 0.0099999998 0.12026981
0.90048057 0.0099999998 0.14031482
0.92047262 0.0099999998 -1.5609618e-11
0.92047387 0.0099999998 0.020044813
0.92047769 0.0099999998 0.040087949
0.92048401 0.0099999998 0.060128942000000005
0.92049283 0.0099999998 0.080168881
0.92050403 0.0099999998 0.10020956
0.92051774 0.0099999998 0.12025192
0.92053413 0.0099999998 0.14029439
0.9404797 0.0099999998 8.4625772e-11
0.94048101 0.0099999998 0.020041298
0.94048506 0.0099999998 0.040081072999999995
0.9404918 0.0099999998 0.060118865
0.94050127 0.0099999998 0.0801557
0.94051349 0.0099999998 0.10019327
0.94052851 0.0099999998 0.12023254
0.94054663 0.0099999998 0.14027213
0.96047705 0.0099999998 2.1900195000000003e-11
0.96047843 0.0099999998 0.020037554
0.96048248 0.0099999998 0.040073734
0.96048933 0.0099999998 0.06010824099999999
0.96049905 0.0099999998 0.080142029
0.96051157 0.0099999998 0.10017663
0.96052706 0.0099999998 0.12021286
0.96054566 0.0099999998 0.14024951
0.98046958 0.0099999998 -2.8299764e-11
0.98047101 0.0099999998 0.020033866
0.98047513 0.0099999998 0.040066652
0.98048204 0.0099999998 0.060098052
0.98049176 0.0099999998 0.080128908
0.98050439 0.0099999998 0.10016064
0.98052007 0.0099999998 0.12019405
0.98053902 0.0099999998 0.14022797
1.0004591 0.0099999998 5.9648652999999995e-12
1.0004605 0.0099999998 0.020030556
1.0004648 0.0099999998 0.040060293
1.0004718000000001 0.0099999998 0.060089052000000004
1.0004815999999999 0.0099999998 0.080117568
1.0004940999999998 0.0099999998 0.10014687
1.0005099 0.0099999998 0.12017763
1.0005292 0.0099999998 0.14020869
1.0204467 0.0099999998 2.1106682e-11
1.0204481 0.0099999998 0.020027567
1.0204524 0.0099999998 0.04005453
1.0204594999999999 0.0099999998 0.060080767
1.0204693 0.0099999998 0.080106884
1.0204819 0.0099999998 0.10013393
1.0204978999999998 0.0099999998 0.12016233
1.0205176 0.0099999998 0.14019065
1.0404319 0.0099999998 1.5404882e-11
1.0404334000000002 0.0099999998 0.020024795
1.0404377 0.0099999998 0.040049203
1.0404449 0.0099999998 0.060073238
1.0404547 0.0099999998 0.080097318
1.0404676 0.0099999998 0.10012227
1.0404838 0.0099999998 0.12014819
1.0405042 0.0099999998 0.14017391
1.0604154 0.0099999998 3.6317373e-11
1.0604168 0.0099999998 0.020022228
1.0604212 0.0099999998 0.040044323
1.0604284 0.0099999998 0.060066330999999994
1.0604383999999998 0.0099999998 0.080088675
1.0604513999999998 0.0099999998 0.10011166
1.0604681 0.0099999998 0.1201352
1.0604892 0.0099999998 0.14015782
1.0803978 0.0099999998 1.0421226e-11
1.0803993 0.0099999998 0.020020034
1.0804037 0.0099999998 0.040040094
1.0804108000000001 0.0099999998 0.060060378
1.0804209999999999 0.0099999998 0.080081038
1.0804343 0.0099999998 0.10010206
1.0804516000000002 0.0099999998 0.12012295
1.0804733999999998 0.0099999998 0.14014231
1.1003801000000002 0.0099999998 -6.5548777e-12
1.1003815000000001 0.0099999998 0.020018123
1.1003858999999998 0.0099999998 0.040036451
1.1003931999999998 0.0099999998 0.060055103
1.1004034 0.0099999998 0.080073982
1.1004174 0.0099999998 0.10009292
1.1004353999999998 0.0099999998 0.1201106
1.1004585 0.0099999998 0.14012729
1.1203629 0.0099999998 -1.7585567999999998e-11
1.1203643 0.0099999998 0.020016495
1.1203687 0.0099999998 0.040033195
1.1203761 0.0099999998 0.06005007
1.120387 0.0099999998 0.080067113
1.1204013000000002 0.0099999998 0.10008313
1.1204203000000001 0.0099999998 0.12009814
1.1204445 0.0099999998 0.14011092
1.140347 0.0099999998 8.712681599999998e-12
1.1403484 0.0099999998 0.020014913999999998
1.1403530000000002 0.0099999998 0.040029876
1.1403606000000002 0.0099999998 0.060044974
1.1403716999999998 0.0099999998 0.08005941700000001
1.1403869 0.0099999998 0.10007304
1.1404068 0.0099999998 0.12008442
1.140433 0.0099999998 0.14009492
1.1603328000000002 0.0099999998 1.1717787e-11
1.1603343000000002 0.0099999998 0.0200132
1.1603389 0.0099999998 0.040026262
1.1603466999999998 0.0099999998 0.060039088
1.1603584999999998 0.0099999998 0.080051348
1.1603745 0.0099999998 0.10006163
1.1603961999999999 0.0099999998 0.12007093
1.1604246999999999 0.0099999998 0.14008076
1.1803204999999999 0.0099999998 5.3478051e-12
1.1803221000000002 0.0099999998 0.020011162
1.1803268 0.0099999998 0.04002225
1.1803350000000001 0.0099999998 0.0600328
1.1803476000000002 0.0099999998 0.080042265
1.1803652 0.0099999998 0.10005084
1.1803888999999999 0.0099999998 0.12005962
1.1804208999999999 0.0099999998 0.14007072
1.2003103000000002 0.0099999998 9.0816365e-12
1.2003119 0.0099999998 0.020009136
1.200317 0.0099999998 0.040018067000000004
1.2003261 0.0099999998 0.060026623
1.20034 0.0099999998 0.080034599
1.2003596 0.0099999998 0.10004281
1.2003871000000002 0.0099999998 0.12005369
1.2004261999999999 0.0099999998 0.14006919
1.2203028 0.0099999998 9.2368621e-12
1.2203046999999998 0.0099999998 0.020007806
1.2203107 0.0099999998 0.040015373
1.2203211 0.0099999998 0.060022708
1.2203374 0.0099999998 0.080031157
1.2203621 0.0099999998 0.10004273
1.2203983999999999 0.0099999998 0.12005889
1.2204453000000002 0.0099999998 0.14007753
1.2403013999999999 0.0099999998 1.1320597e-11
1.2403038 0.0099999998 0.020008102
1.2403115 0.0099999998 0.040016185
1.2403258999999998 0.0099999998 0.060025878
1.2403495 0.0099999998 0.080038942
1.2403829 0.0099999998 0.10005458
1.2404228000000002 0.0099999998 0.12007067
1.2404633999999999 0.0099999998 0.14008549
1.2603245 0.0099999998 9.977672300000001e-12
1.2603278 0.0099999998 0.020011328000000002
1.2603378 0.0099999998 0.040023312000000005
1.260355 0.0099999998 0.06003695
1.260378 0.0099999998 0.080051102
1.2604049 0.0099999998 0.10006449
1.2604336 0.0099999998 0.12007573
1.2604624 0.0099999998 0.14008652
1.2803499 0.0099999998 1.6228503e-11
1.2803518999999999 0.0099999998 0.020012666999999998
1.2803579999999999 0.0099999998 0.040026382
1.2803687 0.0099999998 0.060040906
1.2803836000000002 0.0099999998 0.080054402
1.2804031 0.0099999998 0.10006624
1.2804229 0.0099999998 0.12007456
1.3003418 0.0099999998 1.258053e-11
1.3003434999999999 0.0099999998 0.020012427
1.3003489 0.0099999998 0.040026106
1.3003579 0.0099999998 0.060040645
1.3003703000000002 0.0099999998 0.080054216
-3.4046842999999996e-06 0.0099999998 0.16000028
-3.3135479e-06 0.0099999998 0.18000036
-3.1737056e-06 0.0099999998 0.20000046
-2.9711141000000006e-06 0.0099999998 0.22000055
-2.6968602999999995e-06 0.0099999998 0.24000065
-2.3446805e-06 0.0099999998 0.26000071
-1.9276167e-06 0.0099999998 0.28000075
0.019995136 0.0099999998 0.16000038
0.019995254 0.0099999998 0.1800005
0.019995443999999998 0.0099999998 0.20000061
0.019995729 0.0099999998 0.22000074
0.019996127 0.0099999998 0.24000084
0.019996654 0.0099999998 0.26000091
0.01999731 0.0099999998 0.28000093
0.019998077 0.0099999998 0.300001
0.03999326 0.0099999998 0.16000046
0.039993405 0.0099999998 0.18000059
0.039993655 0.0099999998 0.20000072
0.039994039 0.0099999998 0.22000085
0.039994583 0.0099999998 0.24000096
0.039995324 0.0099999998 0.26000103
0.039996237000000004 0.0099999998 0.28000107
0.039997302 0.0099999998 0.30000111
0.05999108400000001 0.0099999998 0.1600005
0.059991255 0.0099999998 0.18000063
0.059991561 0.0099999998 0.20000078
0.059992040999999996 0.0099999998 0.22000092
0.059992749000000005 0.0099999998 0.24000104
0.059993707 0.0099999998 0.26000112
0.059994905999999994 0.0099999998 0.28000116
0.059996333 0.0099999998 0.3000012
0.079988644 0.0099999998 0.16000052
0.07998883 0.0099999998 0.18000066
0.079989187 0.0099999998 0.20000081
0.07998976099999999 0.0099999998 0.22000097
0.079990625 0.0099999998 0.24000108
0.07999181 0.0099999998 0.26000118
0.07999333 0.0099999998 0.28000122
0.079995163 0.0099999998 0.30000132
0.099985912 0.0099999998 0.16000052
0.09998609900000001 0.0099999998 0.18000066
0.099986486 0.0099999998 0.20000082
0.099987149 0.0099999998 0.22000098
0.099988163 0.0099999998 0.24000111
0.099989593 0.0099999998 0.26000121
0.09999144800000001 0.0099999998 0.28000128
0.09999375 0.0099999998 0.30000144
0.11998279 0.0099999998 0.16000053
0.11998298 0.0099999998 0.18000068
0.11998339 0.0099999998 0.20000082
0.11998413 0.0099999998 0.220001
0.11998528 0.0099999998 0.24000111
0.11998696 0.0099999998 0.26000124
0.11998918 0.0099999998 0.28000134
0.11999203 0.0099999998 0.30000165
0.13997921 0.0099999998 0.16000056
0.13997938 0.0099999998 0.18000071
0.13997979 0.0099999998 0.20000087
0.13998058 0.0099999998 0.22000103
0.13998188 0.0099999998 0.24000114
0.13998382 0.0099999998 0.2600013
0.13998643 0.0099999998 0.28000149
0.13998987 0.0099999998 0.30000195
0.15997505 0.0099999998 0.16000065
0.15997517 0.0099999998 0.18000081
0.15997559 0.0099999998 0.20000097
0.15997644 0.0099999998 0.22000113
0.15997787 0.0099999998 0.24000126
0.15998006 0.0099999998 0.26000145
0.15998307 0.0099999998 0.2800017
0.15998712 0.0099999998 0.30000231
0.17997025 0.0099999998 0.16000085
0.17997031 0.0099999998 0.18000102
0.17997068 0.0099999998 0.20000118
0.17997156 0.0099999998 0.22000135
0.17997313 0.0099999998 0.2400015
0.17997557 0.0099999998 0.26000169
0.17997897 0.0099999998 0.28000194
0.1799835 0.0099999998 0.30000255
0.19996469 0.0099999998 0.16000116
0.19996467 0.0099999998 0.18000138
0.19996499 0.0099999998 0.20000157
0.19996586 0.0099999998 0.22000176
0.19996755 0.0099999998 0.24000189
0.1999702 0.0099999998 0.26000202
0.1999739 0.0099999998 0.28000224
0.19997875 0.0099999998 0.30000263
0.21995828 0.0099999998 0.16000164
0.21995816 0.0099999998 0.18000193
0.21995839 0.0099999998 0.20000218
0.21995923 0.0099999998 0.2200024
0.21996096 0.0099999998 0.24000251
0.2199638 0.0099999998 0.2600027
0.21996774 0.0099999998 0.28000307
0.21997319 0.0099999998 0.30000401
0.23995088 0.0099999998 0.16000229
0.23995063 0.0099999998 0.18000269
0.23995075 0.0099999998 0.20000307
0.23995151 0.0099999998 0.22000343
0.23995318 0.0099999998 0.24000378
0.23995613 0.0099999998 0.26000452
0.23996024 0.0099999998 0.28000605
0.23996609 0.0099999998 0.30000892
0.25994235 0.0099999998 0.16000313
0.25994194 0.0099999998 0.18000372
0.25994191 0.0099999998 0.20000434
0.2599425 0.0099999998 0.22000502
0.25994399 0.0099999998 0.24000585
0.25994676 0.0099999998 0.26000741
0.25995085 0.0099999998 0.28001019
0.25995657 0.0099999998 0.30001393
0.27993253 0.0099999998 0.16000418
0.2799319 0.0099999998 0.18000501
0.27993169 0.0099999998 0.20000596
0.27993205 0.0099999998 0.22000709
0.27993327 0.0099999998 0.24000852
0.27993572 0.0099999998 0.26001075
0.27993947 0.0099999998 0.2800141
0.27994478 0.0099999998 0.30001786
0.29992121 0.0099999998 0.16000541
0.29992038 0.0099999998 0.18000655
0.2999199 0.0099999998 0.20000787
0.29991999 0.0099999998 0.22000945
0.29992098 0.0099999998 0.24001141
0.29992309 0.0099999998 0.26001406
0.29992652 0.0099999998 0.28001761
0.29993144 0.0099999998 0.30002141
0.31990826 0.0099999998 0.16000679
0.31990713 0.0099999998 0.18000828
0.31990635 0.0099999998 0.20000999
0.3199062 0.0099999998 0.22001196
0.31990698 0.0099999998 0.24001436
0.31990892 0.0099999998 0.26001734
0.31991223 0.0099999998 0.28002104
0.31991696 0.0099999998 0.30002496
0.3398934 0.0099999998 0.1600083
0.33989194 0.0099999998 0.18001014
0.33989087 0.0099999998 0.20001224
0.33989048 0.0099999998 0.22001462
0.33989108 0.0099999998 0.24001738
0.33989298 0.0099999998 0.26002061
0.33989638 0.0099999998 0.28002459
0.33990139 0.0099999998 0.30002877
0.35987642 0.0099999998 0.16000991
0.35987458 0.0099999998 0.18001212
0.35987315 0.0099999998 0.20001464
0.35987249 0.0099999998 0.22001743
0.35987297 0.0099999998 0.24002056
0.35987493 0.0099999998 0.2600241
0.35987866 0.0099999998 0.28002843
0.3598842 0.0099999998 0.30003303
0.37985709 0.0099999998 0.1600116
0.3798548 0.0099999998 0.18001422
0.37985298 0.0099999998 0.20001717
0.379852 0.0099999998 0.22002041
0.37985235 0.0099999998 0.24002397
0.37985441 0.0099999998 0.26002792
0.37985849 0.0099999998 0.28003269
0.37986478 0.0099999998 0.30003783
0.39983511 0.0099999998 0.16001344
0.39983231 0.0099999998 0.18001647
0.39983001 0.0099999998 0.2000199
0.39982873 0.0099999998 0.22002363
0.39982888 0.0099999998 0.24002768
0.39983106 0.0099999998 0.26003212
0.39983556 0.0099999998 0.28003749
0.39984262 0.0099999998 0.30004326
0.41981024 0.0099999998 0.16001545
0.41980684 0.0099999998 0.18001893
0.41980401 0.0099999998 0.20002285
0.41980228 0.0099999998 0.22002715
0.41980225 0.0099999998 0.24003179
0.41980448 0.0099999998 0.26003686
0.4198094 0.0099999998 0.28004295
0.41981733 0.0099999998 0.30004948
0.43978214 0.0099999998 0.1600178
0.43977803 0.0099999998 0.18002172
0.43977454 0.0099999998 0.20002614
0.43977231 0.0099999998 0.22003102
0.43977198 0.0099999998 0.24003631
0.43977425 0.0099999998 0.26004219
0.43977961 0.0099999998 0.2800492
0.43978843 0.0099999998 0.30005667
0.45975047 0.0099999998 0.16002074
0.45974553 0.0099999998 0.18002509
0.45974123 0.0099999998 0.20002995
0.45973831 0.0099999998 0.22003536
0.4597376 0.0099999998 0.24004133
0.45973977 0.0099999998 0.26004818
0.45974553 0.0099999998 0.28005645
0.45975527 0.0099999998 0.3000651
0.47971484 0.0099999998 0.16002472
0.47970888 0.0099999998 0.18002942
0.47970361 0.0099999998 0.20003462
0.47969985 0.0099999998 0.2200404
0.47969851 0.0099999998 0.24004696
0.47970045 0.0099999998 0.26005492
0.47970641 0.0099999998 0.28006488
0.47971699 0.0099999998 0.30007505
0.49967483 0.0099999998 0.16003032
0.49966773 0.0099999998 0.18003537
0.4996613 0.0099999998 0.20004074
0.49965644 0.0099999998 0.22004665
0.4996542 0.0099999998 0.24005355
0.49965557 0.0099999998 0.26006258
0.49966136 0.0099999998 0.28007475
0.49967229 0.0099999998 0.30008698
0.51963013 0.0099999998 0.16003832
0.51962179 0.0099999998 0.18004376
0.51961404 0.0099999998 0.20004922
0.51960784 0.0099999998 0.22005501
0.51960433 0.0099999998 0.24006185
0.51960456 0.0099999998 0.26007161
0.51960945 0.0099999998 0.28008652
0.5196197 0.0099999998 0.30010143
0.53958082 0.0099999998 0.16004947
0.53957123 0.0099999998 0.18005553
0.53956205 0.0099999998 0.20006125
0.5395543 0.0099999998 0.22006679
0.53954911 0.0099999998 0.2400731
0.53954744 0.0099999998 0.26008311
0.53955013 0.0099999998 0.28010094
0.53955781 0.0099999998 0.30011919
0.55952787 0.0099999998 0.16006453
0.55951703 0.0099999998 0.18007164
0.55950648 0.0099999998 0.20007798
0.55949712 0.0099999998 0.22008352
0.55948979 0.0099999998 0.24008897
0.55948526 0.0099999998 0.26009873
0.55948412 0.0099999998 0.28011942
0.55948651 0.0099999998 0.30014142
0.57947332 0.0099999998 0.16008377
0.5794614 0.0099999998 0.18009268
0.57944965 0.0099999998 0.20010017
0.57943869 0.0099999998 0.22010629
0.57942891 0.0099999998 0.24011134
0.57942098 0.0099999998 0.26012117
0.57941455 0.0099999998 0.28014448
0.57940871 0.0099999998 0.30017
0.59942043 0.0099999998 0.16010669
0.59940737 0.0099999998 0.18011756
0.59939444 0.0099999998 0.20012712
0.59938198 0.0099999998 0.22013506
0.59937018 0.0099999998 0.24014167
0.59935892 0.0099999998 0.26015407
0.59934646 0.0099999998 0.28018007
0.59933108 0.0099999998 0.30020797
0.61937261 0.0099999998 0.16013303
0.61935812 0.0099999998 0.18014598
0.61934364 0.0099999998 0.20015804
0.61932975 0.0099999998 0.22016977
0.61931562 0.0099999998 0.24018131
0.6193015 0.0099999998 0.26020038
0.61928576 0.0099999998 0.2802318
0.61926252 0.0099999998 0.30025995
0.639332 0.0099999998 0.16016199
0.6393165 0.0099999998 0.1801779
0.63930011 0.0099999998 0.20019357
0.63928419 0.0099999998 0.22021168
0.63926917 0.0099999998 0.2402367
0.63925457 0.0099999998 0.26026973
0.63923723 0.0099999998 0.28030312
0.63921171 0.0099999998 0.300329
0.65930235 0.0099999998 0.16019583
0.65928656 0.0099999998 0.18021628
0.65926993 0.0099999998 0.20023967
0.65925437 0.0099999998 0.2202723
0.6592412 0.0099999998 0.24031803
0.65922689 0.0099999998 0.26036093
0.6592086 0.0099999998 0.28038713
0.65918469 0.0099999998 0.3004095
0.67929107 0.0099999998 0.16024265
0.67927563 0.0099999998 0.18026957
0.67925984 0.0099999998 0.20030311
0.67924678 0.0099999998 0.22035214
0.67923737 0.0099999998 0.24041303
0.67922378 0.0099999998 0.26045004
0.67920649 0.0099999998 0.28046519
0.67919481 0.0099999998 0.3004843
0.69931263 0.0099999998 0.16030757
0.6992991 0.0099999998 0.18034266
0.69928604 0.0099999998 0.200386
0.69927758 0.0099999998 0.2204438
0.69927329 0.0099999998 0.24050109
0.69926202 0.0099999998 0.26052317
0.69926357 0.0099999998 0.28052571
0.69931072 0.0099999998 0.30054218
0.71941662 0.0099999998 0.16038319
0.71940386 0.0099999998 0.18042412
0.7193929 0.0099999998 0.20047189
0.71938819 0.0099999998 0.22052228
0.71939725 0.0099999998 0.24056233
0.71942329 0.0099999998 0.26057023
0.71946841 0.0099999998 0.28056833
0.71952671 0.0099999998 0.30058506
0.73962218 0.0099999998 0.16040581
0.73961449 0.0099999998 0.18044628
0.73960876 0.0099999998 0.20049138
0.73960942 0.0099999998 0.22053796
0.73962098 0.0099999998 0.24057461
0.73964363 0.0099999998 0.26058593
0.7396751 0.0099999998 0.28059667
0.73971373 0.0099999998 0.3006168
0.75978702 0.0099999998 0.1604148
0.75978434 0.0099999998 0.18045288
0.75978327 0.0099999998 0.20049439
0.75978619 0.0099999998 0.22053847
0.75979501 0.0099999998 0.24057466
0.75980937 0.0099999998 0.26059207
0.75982708 0.0099999998 0.28061718
0.75984919 0.0099999998 0.30063969
0.77991045 0.0099999998 0.16041686
0.77991086 0.0099999998 0.18045282
0.77991229 0.0099999998 0.2004921
0.77991551 0.0099999998 0.22053565
0.77992088 0.0099999998 0.24057318
0.77992749 0.0099999998 0.26059625
0.77993405 0.0099999998 0.28063059
0.77994257 0.0099999998 0.30065468
0.80001163 0.0099999998 0.16041441
0.8000142 0.0099999998 0.18044916
0.80001694 0.0099999998 0.20048775
0.80001968 0.0099999998 0.22053339
0.80002147 0.0099999998 0.24057323
0.80002129 0.0099999998 0.26059985
0.80001909 0.0099999998 0.28063762
0.8000164 0.0099999998 0.30066225
0.82010853 0.0099999998 0.16040878
0.82011312 0.0099999998 0.1804432
0.82011735 0.0099999998 0.20048213
0.82011992 0.0099999998 0.22053161
0.82011861 0.0099999998 0.24057443
0.82011265 0.0099999998 0.26060185
0.82010388 0.0099999998 0.28063831
0.82009095 0.0099999998 0.30066267
0.84020919 0.0099999998 0.16040029
0.84021634 0.0099999998 0.18043472
0.8402229 0.0099999998 0.20047408
0.84022623 0.0099999998 0.22052582
0.8402226 0.0099999998 0.24057026
0.84021205 0.0099999998 0.2605966
0.84019756 0.0099999998 0.28063059
0.84017533 0.0099999998 0.30065456
0.86031175 0.0099999998 0.16038857
0.86032206 0.0099999998 0.18042289
0.86033165 0.0099999998 0.20046221
0.86033696 0.0099999998 0.22051415
0.86033171 0.0099999998 0.24055845
0.86031747 0.0099999998 0.26058325
0.86029798 0.0099999998 0.28061512
0.86026663 0.0099999998 0.30063874
0.88040954 0.0099999998 0.16037323
0.88042319 0.0099999998 0.18040697
0.88043624 0.0099999998 0.2004455
0.88044399 0.0099999998 0.22049606
0.88043779 0.0099999998 0.24053885
0.88042015 0.0099999998 0.26056254
0.88039649 0.0099999998 0.28059307
0.88035691 0.0099999998 0.30061638
0.90049553 0.0099999998 0.16035412
0.90051234 0.0099999998 0.18038669
0.90052867 0.0099999998 0.20042367
0.90053791 0.0099999998 0.22047059
0.90053058 0.0099999998 0.24051175
0.90051061 0.0099999998 0.26053554
0.90048414 0.0099999998 0.28056559
0.90043825 0.0099999998 0.30058882
0.92055362 0.0099999998 0.1603317
0.9205761 0.0099999998 0.1803627
0.92059892 0.0099999998 0.20039739
0.92061138 0.0099999998 0.22043855
0.92060292 0.0099999998 0.24047829
0.92058253 0.0099999998 0.26050365
0.92055362 0.0099999998 0.28053382
0.92050463 0.0099999998 0.3005572
0.94056815 0.0099999998 0.16030729
0.94059342 0.0099999998 0.18033691
0.94062191 0.0099999998 0.20036921
0.94064808 0.0099999998 0.2204058
0.94065285 0.0099999998 0.24044089
0.94063407 0.0099999998 0.26046851
0.94060338 0.0099999998 0.28049856
0.94055289 0.0099999998 0.30052242
0.96056777 0.0099999998 0.16028246
0.96059388 0.0099999998 0.18031064
0.96062344 0.0099999998 0.20034026
0.96065396 0.0099999998 0.22037543
0.96067542 0.0099999998 0.24040572
0.9606685 0.0099999998 0.26043129
0.96063823 0.0099999998 0.28046119
0.9605881 0.0099999998 0.30048525
0.98056161 0.0099999998 0.16025878
0.98058832 0.0099999998 0.18028523
0.98061877 0.0099999998 0.20031179
0.98065144 0.0099999998 0.2203446
0.98067909 0.0099999998 0.2403727
0.98068905 0.0099999998 0.26039398
0.98066586 0.0099999998 0.2804226
0.98061907 0.0099999998 0.30044657
1.0005527 0.0099999998 0.16023706
1.0005798000000001 0.0099999998 0.18026108
1.0006109 0.0099999998 0.2002853
1.000645 0.0099999998 0.22031341
1.0006774999999999 0.0099999998 0.2403398
1.0006979999999999 0.0099999998 0.26035744
1.0006902 0.0099999998 0.28038359
1.000653 0.0099999998 0.30040741
1.0205418 0.0099999998 0.16021647
1.0205698 0.0099999998 0.18023871
1.020602 0.0099999998 0.20026112
1.0206378 0.0099999998 0.22028455
1.0206745000000002 0.0099999998 0.2403076
1.0207028 0.0099999998 0.26032239
1.020714 0.0099999998 0.28034544
1.0206956 0.0099999998 0.30036882
1.0405289 0.0099999998 0.16019696
1.0405585 0.0099999998 0.18021783
1.0405921 0.0099999998 0.20023711
1.0406307 0.0099999998 0.22025792
1.0406716 0.0099999998 0.24027771
1.0407084 0.0099999998 0.26029068
1.0407415999999998 0.0099999998 0.28031024
1.0407541999999999 0.0099999998 0.30033177
1.0605149 0.0099999998 0.16017835
1.060546 0.0099999998 0.18019712
1.0605822 0.0099999998 0.20021404
1.0606247 0.0099999998 0.22023305
1.0606698 0.0099999998 0.24025136
1.0607176 0.0099999998 0.26026392
1.0607673999999998 0.0099999998 0.28028062
1.0608111999999998 0.0099999998 0.30029765
1.080501 0.0099999998 0.16016053
1.0805334999999998 0.0099999998 0.18017597
1.0805732 0.0099999998 0.20019193
1.0806198 0.0099999998 0.22021043
1.0806693 0.0099999998 0.24022673
1.0807252 0.0099999998 0.26023939
1.0807846 0.0099999998 0.28025556
1.0808392 0.0099999998 0.3002694
1.100487 0.0099999998 0.16014151
1.1005225 0.0099999998 0.18015562
1.1005661 0.0099999998 0.20017137
1.1006165 0.0099999998 0.22018865
1.10067 0.0099999998 0.2402031
1.1007281999999998 0.0099999998 0.26021555
1.1007905 0.0099999998 0.28023276
1.1204753 0.0099999998 0.16012309
1.1205142 0.0099999998 0.18013665
1.1205611999999998 0.0099999998 0.20015211
1.1206152 0.0099999998 0.22016843
1.120671 0.0099999998 0.24018167
1.1207291000000001 0.0099999998 0.26019636
1.1207851999999998 0.0099999998 0.28021336
1.1404665 0.0099999998 0.16010639
1.1405087999999999 0.0099999998 0.18012013
1.1405602 0.0099999998 0.20013651
1.1406174999999998 0.0099999998 0.22015308
1.1406721000000002 0.0099999998 0.24016656
1.1407272 0.0099999998 0.26018369
1.1604617 0.0099999998 0.16009292
1.1605085 0.0099999998 0.18010852
1.1605649 0.0099999998 0.20012711
1.160622 0.0099999998 0.22014354
1.1606746000000001 0.0099999998 0.24015975
1.1607186 0.0099999998 0.26017421
1.1804636 0.0099999998 0.16008589
1.1805176000000002 0.0099999998 0.18010545
1.1805743 0.0099999998 0.20012444
1.1806267 0.0099999998 0.22014059
1.1806706 0.0099999998 0.24015608
1.2004774999999999 0.0099999998 0.16008893
1.2005322 0.0099999998 0.1801082
1.2005841 0.0099999998 0.20012635
1.2006252 0.0099999998 0.22014
1.2204956 0.0099999998 0.16009559
1.2205423 0.0099999998 0.18011233
1.2205836 0.0099999998 0.20012784
1.2206053999999997 0.0099999998 0.22013235
1.2405015 0.0099999998 0.16009864
1.2405354 0.0099999998 0.18011123
1.2604882 0.0099999998 0.16009578
VERTICES 2975 5950
1 0
1 1
1 2
1 3
1 4
1 5
1 6
1 7
1 8
1 9
1 10
1 11
1 12
1 13
1 14
1 15
1 16
1 17
1 18
1 19
1 20
1 21
1 22
1 23
1 24
1 25
1 26
1 27
1 28
1 29
1 30
1 31
1 32
1 33
1 34
1 35
1 36
1 37
1 38
1 39
1 40
1 41
1 42
1 43
1 44
1 45
1 46
1 47
1 48
1 49
1 50
1 51
1 52
1 53
1 54
1 55
1 56
1 57
1 58
1 59
1 60
1 61
1 62
1 63
1 64
1 65
1 66
1 67
1 68
1 69
1 70
1 71
1 72
1 73
1 74
1 75
1 76
1 77
1 78
1 79
1 80
1 81
1 82
1 83
1 84
1 85
1 86
1 87
1 88
1 89
1 90
1 91
1 92
1 93
1 94
1 95
1 96
1 97
1 98
1 99
1 100
1 101
1 102
1 103
1 104
1 105
1 106
1 107
1 108
1 109
1 110
1 111
1 112
1 113
1 114
1 115
1 116
1 117
1 118
1 119
1 120
1 121
1 122
1 123
1 124
1 125
1 126
1 127
1 128
1 129
1 130
1 131
1 132
1 133
1 134
1 135
1 136
1 137
1 138
1 139
1 140
1 141
1 142
1 143
1 144
1 145
1 146
1 147
1 148
1 149
1 150
1 151
1 152
1 153
1 154
1 155
1 156
1 157
1 158
1 159
1 160
1 161
1 162
1 163
1 164
1 165
1 166
1 167
1 168
1 169
1 170
1 171
1 172
1 173
1 174
1 175
1 176
1 177
1 178
1 179
1 180
1 181
1 182
1 183
1 184
1 185
1 186
1 187
1 188
1 189
1 190
1 191
1 192
1 193
1 194
1 195
1 196
1 197
1 198
1 199
1 200
1 201
1 202
1 203
1 204
1 205
1 206
1 207
1 208
1 209
1 210
1 211
1 212
1 213
1 214
1 215
1 216
1 217
1 218
1 219
1 220
1 221
1 222
1 223
1 224
1 225
1 226
1 227
1 228
1 229
1 230
1 231
1 232
1 233
1 234
1 235
1 236
1 237
1 238
1 239
1 240
1 241
1 242
1 243
1 244
1 245
1 246
1 247
1 248
1 249
1 250
1 251
1 252
1 253
1 254
1 255
1 256
1 257
1 258
1 259
1 260
1 261
1 262
1 263
1 264
1 265
1 266
1 267
1 268
1 269
1 270
1 271
1 272
1 273
1 274
1 275
1 276
1 277
1 278
1 279
1 280
1 281
1 282
1 283
1 284
1 285
1 286
1 287
1 288
1 289
1 290
1 291
1 292
1 293
1 294
1 295
1 296
1 297
1 298
1 299
1 300
1 301
1 302
1 303
1 304
1 305
1 306
1 307
1 308
1 309
1 310
1 311
1 312
1 313
1 314
1 315
1 316
1 317
1 318
1 319
1 320
1 321
1 322
1 323
1 324
1 325
1 326
1 327
1 328
1 329
1 330
1 331
1 332
1 333
1 334
1 335
1 336
1 337
1 338
1 339
1 340
1 341
1 342
1 343
1 344
1 345
1 346
1 347
1 348
1 349
1 350
1 351
1 352
1 353
1 354
1 355
1 356
1 357
1 358
1 359
1 360
1 361
1 362
1 363
1 364
1 365
1 366
1 367
1 368
1 369
1 370
1 371
1 372
1 373
1 374
1 375
1 376
1 377
1 378
1 379
1 380
1 381
1 382
1 383
1 384
1 385
1 386
1 387
1 388
1 389
1 390
1 391
1 392
1 393
1 394
1 395
1 396
1 397
1 398
1 399
1 400
1 401
1 402
1 403
1 404
1 405
1 406
1 407
1 408
1 409
1 410
1 411
1 412
1 413
1 414
1 415
1 416
1 417
1 418
1 419
1 420
1 421
1 422
1 423
1 424
1 425
1 426
1 427
1 428
1 429
1 430
1 431
1 432
1 433
1 434
1 435
1 436
1 437
1 438
1 439
1 440
1 441
1 442
1 443
1 444
1 445
1 446
1 447
1 448
1 449
1 450
1 451
1 452
1 453
1 454
1 455
1 456
1 457
1 458
1 459
1 460
1 461
1 462
1 463
1 464
1 465
1 466
1 467
1 468
1 469
1 470
1 471
1 472
1 473
1 474
1 475
1 476
1 477
1 478
1 479
1 480
1 481
1 482
1 483
1 484
1 485
1 486
1 487
1 488
1 489
1 490
1 491
1 492
1 493
1 494
1 495
1 496
1 497
1 498
1 499
1 500
1 501
1 502
1 503
1 504
1 505
1 506
1 507
1 508
1 509
1 510
1 511
1 512
1 513
1 514
1 515
1 516
1 517
1 518
1 519
1 520
1 521
1 522
1 523
1 524
1 525
1 526
1 527
1 528
1 529
1 530
1 531
1 532
1 533
1 534
1 535
1 536
1 537
1 538
1 539
1 540
1 541
1 542
1 543
1 544
1 545
1 546
1 547
1 548
1 549
1 550
1 551
1 552
1 553
1 554
1 555
1 556
1 557
1 558
1 559
1 560
1 561
1 562
1 563
1 564
1 565
1 566
1 567
1 568
1 569
1 570
1 571
1 572
1 573
1 574
1 575
1 576
1 577
1 578
1 579
1 580
1 581
1 582
1 583
1 584
1 585
1 586
1 587
1 588
1 589
1 590
1 591
1 592
1 593
1 594
1 595
1 596
1 597
1 598
1 599
1 600
1 601
1 602
1 603
1 604
1 605
1 606
1 607
1 608
1 609
1 610
1 611
1 612
1 613
1 614
1 615
1 616
1 617
1 618
1 619
1 620
1 621
1 622
1 623
1 624
1 625
1 626
1 627
1 628
1 629
1 630
1 631
1 632
1 633
1 634
1 635
1 636
1 637
1 638
1 639
1 640
1 641
1 642
1 643
1 644
1 645
1 646
1 647
1 648
1 649
1 650
1 651
1 652
1 653
1 654
1 655
1 656
1 657
1 658
1 659
1 660
1 661
1 662
1 663
1 664
1 665
1 666
1 667
1 668
1 669
1 670
1 671
1 672
1 673
1 674
1 675
1 676
1 677
1 678
1 679
1 680
1 681
1 682
1 683
1 684
1 685
1 686
1 687
1 688
1 689
1 690
1 691
1 692
1 693
1 694
1 695
1 696
1 697
1 698
1 699
1 700
1 701
1 702
1 703
1 704
1 705
1 706
1 707
1 708
1 709
1 710
1 711
1 712
1 713
1 714
1 715
1 716
1 717
1 718
1 719
1 720
1 721
1 722
1 723
1 724
1 725
1 726
1 727
1 728
1 729
1 730
1 731
1 732
1 733
1 734
1 735
1 736
1 737
1 738
1 739
1 740
1 741
1 742
1 743
1 744
1 745
1 746
1 747
1 748
1 749
1 750
1 751
1 752
1 753
1 754
1 755
1 756
1 757
1 758
1 759
1 760
1 761
1 762
1 763
1 764
1 765
1 766
1 767
1 768
1 769
1 770
1 771
1 772
1 773
1 774
1 775
1 776
1 777
1 778
1 779
1 780
1 781
1 782
1 783
1 784
1 785
1 786
1 787
1 788
1 789
1 790
1 791
1 792
1 793
1 794
1 795
1 796
1 797
1 798
1 799
1 800
1 801
1 802
1 803
1 804
1 805
1 806
1 807
1 808
1 809
1 810
1 811
1 812
1 813
1 814
1 815
1 816
1 817
1 818
1 819
1 820
1 821
1 822
1 823
1 824
1 825
1 826
1 827
1 828
1 829
1 830
1 831
1 832
1 833
1 834
1 835
1 836
1 837
1 838
1 839
1 840
1 841
1 842
1 843
1 844
1 845
1 846
1 847
1 848
1 849
1 850
1 851
1 852
1 853
1 854
1 855
1 856
1 857
1 858
1 859
1 860
1 861
1 862
1 863
1 864
1 865
1 866
1 867
1 868
1 869
1 870
1 871
1 872
1 873
1 874
1 875
1 876
1 877
1 878
1 879
1 880
1 881
1 882
1 883
1 884
1 885
1 886
1 887
1 888
1 889
1 890
1 891
1 892
1 893
1 894
1 895
1 896
1 897
1 898
1 899
1 900
1 901
1 902
1 903
1 904
1 905
1 906
1 907
1 908
1 909
1 910
1 911
1 912
1 913
1 914
1 915
1 916
1 917
1 918
1 919
1 920
1 921
1 922
1 923
1 924
1 925
1 926
1 927
1 928
1 929
1 930
1 931
1 932
1 933
1 934
1 935
1 936
1 937
1 938
1 939
1 940
1 941
1 942
1 943
1 944
1 945
1 946
1 947
1 948
1 949
1 950
1 951
1 952
1 953
1 954
1 955
1 956
1 957
1 958
1 959
1 960
1 961
1 962
1 963
1 964
1 965
1 966
1 967
1 968
1 969
1 970
1 971
1 972
1 973
1 974
1 975
1 976
1 977
1 978
1 979
1 980
1 981
1 982
1 983
1 984
1 985
1 986
1 987
1 988
1 989
1 990
1 991
1 992
1 993
1 994
1 995
1 996
1 997
1 998
1 999
1 1000
1 1001
1 1002
1 1003
1 1004
1 1005
1 1006
1 1007
1 1008
1 1009
1 1010
1 1011
1 1012
1 1013
1 1014
1 1015
1 1016
1 1017
1 1018
1 1019
1 1020
1 1021
1 1022
1 1023
1 1024
1 1025
1 1026
1 1027
1 1028
1 1029
1 1030
1 1031
1 1032
1 1033
1 1034
1 1035
1 1036
1 1037
1 1038
1 1039
1 1040
1 1041
1 1042
1 1043
1 1044
1 1045
1 1046
1 1047
1 1048
1 1049
1 1050
1 1051
1 1052
1 1053
1 1054
1 1055
1 1056
1 1057
1 1058
1 1059
1 1060
1 1061
1 1062
1 1063
1 1064
1 1065
1 1066
1 1067
1 1068
1 1069
1 1070
1 1071
1 1072
1 1073
1 1074
1 1075
1 1076
1 1077
1 1078
1 1079
1 1080
1 1081
1 1082
1 1083
1 1084
1 1085
1 1086
1 1087
1 1088
1 1089
1 1090
1 1091
1 1092
1 1093
1 1094
1 1095
1 1096
1 1097
1 1098
1 1099
1 1100
1 1101
1 1102
1 1103
1 1104
1 1105
1 1106
1 1107
1 1108
1 1109
1 1110
1 1111
1 1112
1 1113
1 1114
1 1115
1 1116
1 1117
1 1118
1 1119
1 1120
1 1121
1 1122
1 1123
1 1124
1 1125
1 1126
1 1127
1 1128
1 1129
1 1130
1 1131
1 1132
1 1133
1 1134
1 1135
1 1136
1 1137
1 1138
1 1139
1 1140
1 1141
1 1142
1 1143
1 1144
1 1145
1 1146
1 1147
1 1148
1 1149
1 1150
1 1151
1 1152
1 1153
1 1154
1 1155
1 1156
1 1157
1 1158
1 1159
1 1160
1 1161
1 1162
1 1163
1 1164
1 1165
1 1166
1 1167
1 1168
1 1169
1 1170
1 1171
1 1172
1 1173
1 1174
1 1175
1 1176
1 1177
1 1178
1 1179
1 1180
1 1181
1 1182
1 1183
1 1184
1 1185
1 1186
1 1187
1 1188
1 1189
1 1190
1 1191
1 1192
1 1193
1 1194
1 1195
1 1196
1 1197
1 1198
1 1199
1 1200
1 1201
1 1202
1 1203
1 1204
1 1205
1 1206
1 1207
1 1208
1 1209
1 1210
1 1211
1 1212
1 1213
1 1214
1 1215
1 1216
1 1217
1 1218
1 1219
1 1220
1 1221
1 1222
1 1223
1 1224
1 1225
1 1226
1 1227
1 1228
1 1229
1 1230
1 1231
1 1232
1 1233
1 1234
1 1235
1 1236
1 1237
1 1238
1 1239
1 1240
1 1241
1 1242
1 1243
1 1244
1 1245
1 1246
1 1247
1 1248
1 1249
1 1250
1 1251
1 1252
1 1253
1 1254
1 1255
1 1256
1 1257
1 1258
1 1259
1 1260
1 1261
1 1262
1 1263
1 1264
1 1265
1 1266
1 1267
1 1268
1 1269
1 1270
1 1271
1 1272
1 1273
1 1274
1 1275
1 1276
1 1277
1 1278
1 1279
1 1280
1 1281
1 1282
1 1283
1 1284
1 1285
1 1286
1 1287
1 1288
1 1289
1 1290
1 1291
1 1292
1 1293
1 1294
1 1295
1 1296
1 1297
1 1298
1 1299
1 1300
1 1301
1 1302
1 1303
1 1304
1 1305
1 1306
1 1307
1 1308
1 1309
1 1310
1 1311
1 1312
1 1313
1 1314
1 1315
1 1316
1 1317
1 1318
1 1319
1 1320
1 1321
1 1322
1 1323
1 1324
1 1325
1 1326
1 1327
1 1328
1 1329
1 1330
1 1331
1 1332
1 1333
1 1334
1 1335
1 1336
1 1337
1 1338
1 1339
1 1340
1 1341
1 1342
1 1343
1 1344
1 1345
1 1346
1 1347
1 1348
1 1349
1 1350
1 1351
1 1352
1 1353
1 1354
1 1355
1 1356
1 1357
1 1358
1 1359
1 1360
1 1361
1 1362
1 1363
1 1364
1 1365
1 1366
1 1367
1 1368
1 1369
1 1370
1 1371
1 1372
1 1373
1 1374
1 1375
1 1376
1 1377
1 1378
1 1379
1 1380
1 1381
1 1382
1 1383
1 1384
1 1385
1 1386
1 1387
1 1388
1 1389
1 1390
1 1391
1 1392
1 1393
1 1394
1 1395
1 1396
1 1397
1 1398
1 1399
1 1400
1 1401
1 1402
1 1403
1 1404
1 1405
1 1406
1 1407
1 1408
1 1409
1 1410
1 1411
1 1412
1 1413
1 1414
1 1415
1 1416
1 1417
1 1418
1 1419
1 1420
1 1421
1 1422
1 1423
1 1424
1 1425
1 1426
1 1427
1 1428
1 1429
1 1430
1 1431
1 1432
1 1433
1 1434
1 1435
1 1436
1 1437
1 1438
1 1439
1 1440
1 1441
1 1442
1 1443
1 1444
1 1445
1 1446
1 1447
1 1448
1 1449
1 1450
1 1451
1 1452
1 1453
1 1454
1 1455
1 1456
1 1457
1 1458
1 1459
1 1460
1 1461
1 1462
1 1463
1 1464
1 1465
1 1466
1 1467
1 1468
1 1469
1 1470
1 1471
1 1472
1 1473
1 1474
1 1475
1 1476
1 1477
1 1478
1 1479
1 1480
1 1481
1 1482
1 1483
1 1484
1 1485
1 1486
1 1487
1 1488
1 1489
1 1490
1 1491
1 1492
1 1493
1 1494
1 1495
1 1496
1 1497
1 1498
1 1499
1 1500
1 1501
1 1502
1 1503
1 1504
1 1505
1 1506
1 1507
1 1508
1 1509
1 1510
1 1511
1 1512
1 1513
1 1514
1 1515
1 1516
1 1517
1 1518
1 1519
1 1520
1 1521
1 1522
1 1523
1 1524
1 1525
1 1526
1 1527
1 1528
1 1529
1 1530
1 1531
1 1532
1 1533
1 1534
1 1535
1 1536
1 1537
1 1538
1 1539
1 1540
1 1541
1 1542
1 1543
1 1544
1 1545
1 1546
1 1547
1 1548
1 1549
1 1550
1 1551
1 1552
1 1553
1 1554
1 1555
1 1556
1 1557
1 1558
1 1559
1 1560
1 1561
1 1562
1 1563
1 1564
1 1565
1 1566
1 1567
1 1568
1 1569
1 1570
1 1571
1 1572
1 1573
1 1574
1 1575
1 1576
1 1577
1 1578
1 1579
1 1580
1 1581
1 1582
1 1583
1 1584
1 1585
1 1586
1 1587
1 1588
1 1589
1 1590
1 1591
1 1592
1 1593
1 1594
1 1595
1 1596
1 1597
1 1598
1 1599
1 1600
1 1601
1 1602
1 1603
1 1604
1 1605
1 1606
1 1607
1 1608
1 1609
1 1610
1 1611
1 1612
1 1613
1 1614
1 1615
1 1616
1 1617
1 1618
1 1619
1 1620
1 1621
1 1622
1 1623
1 1624
1 1625
1 1626
1 1627
1 1628
1 1629
1 1630
1 1631
1 1632
1 1633
1 1634
1 1635
1 1636
1 1637
1 1638
1 1639
1 1640
1 1641
1 1642
1 1643
1 1644
1 1645
1 1646
1 1647
1 1648
1 1649
1 1650
1 1651
1 1652
1 1653
1 1654
1 1655
1 1656
1 1657
1 1658
1 1659
1 1660
1 1661
1 1662
1 1663
1 1664
1 1665
1 1666
1 1667
1 1668
1 1669
1 1670
1 1671
1 1672
1 1673
1 1674
1 1675
1 1676
1 1677
1 1678
1 1679
1 1680
1 1681
1 1682
1 1683
1 1684
1 1685
1 1686
1 1687
1 1688
1 1689
1 1690
1 1691
1 1692
1 1693
1 1694
1 1695
1 1696
1 1697
1 1698
1 1699
1 1700
1 1701
1 1702
1 1703
1 1704
1 1705
1 1706
1 1707
1 1708
1 1709
1 1710
1 1711
1 1712
1 1713
1 1714
1 1715
1 1716
1 1717
1 1718
1 1719
1 1720
1 1721
1 1722
1 1723
1 1724
1 1725
1 1726
1 1727
1 1728
1 1729
1 1730
1 1731
1 1732
1 1733
1 1734
1 1735
1 1736
1 1737
1 1738
1 1739
1 1740
1 1741
1 1742
1 1743
1 1744
1 1745
1 1746
1 1747
1 1748
1 1749
1 1750
1 1751
1 1752
1 1753
1 1754
1 1755
1 1756
1 1757
1 1758
1 1759
1 1760
1 1761
1 1762
1 1763
1 1764
1 1765
1 1766
1 1767
1 1768
1 1769
1 1770
1 1771
1 1772
1 1773
1 1774
1 1775
1 1776
1 1777
1 1778
1 1779
1 1780
1 1781
1 1782
1 1783
1 1784
1 1785
1 1786
1 1787
1 1788
1 1789
1 1790
1 1791
1 1792
1 1793
1 1794
1 1795
1 1796
1 1797
1 1798
1 1799
1 1800
1 1801
1 1802
1 1803
1 1804
1 1805
1 1806
1 1807
1 1808
1 1809
1 1810
1 1811
1 1812
1 1813
1 1814
1 1815
1 1816
1 1817
1 1818
1 1819
1 1820
1 1821
1 1822
1 1823
1 1824
1 1825
1 1826
1 1827
1 1828
1 1829
1 1830
1 1831
1 1832
1 1833
1 1834
1 1835
1 1836
1 1837
1 1838
1 1839
1 1840
1 1841
1 1842
1 1843
1 1844
1 1845
1 1846
1 1847
1 1848
1 1849
1 1850
1 1851
1 1852
1 1853
1 1854
1 1855
1 1856
1 1857
1 1858
1 1859
1 1860
1 1861
1 1862
1 1863
1 1864
1 1865
1 1866
1 1867
1 1868
1 1869
1 1870
1 1871
1 1872
1 1873
1 1874
1 1875
1 1876
1 1877
1 1878
1 1879
1 1880
1 1881
1 1882
1 1883
1 1884
1 1885
1 1886
1 1887
1 1888
1 1889
1 1890
1 1891
1 1892
1 1893
1 1894
1 1895
1 1896
1 1897
1 1898
1 1899
1 1900
1 1901
1 1902
1 1903
1 1904
1 1905
1 1906
1 1907
1 1908
1 1909
1 1910
1 1911
1 1912
1 1913
1 1914
1 1915
1 1916
1 1917
1 1918
1 1919
1 1920
1 1921
1 1922
1 1923
1 1924
1 1925
1 1926
1 1927
1 1928
1 1929
1 1930
1 1931
1 1932
1 1933
1 1934
1 1935
1 1936
1 1937
1 1938
1 1939
1 1940
1 1941
1 1942
1 1943
1 1944
1 1945
1 1946
1 1947
1 1948
1 1949
1 1950
1 1951
1 1952
1 1953
1 1954
1 1955
1 1956
1 1957
1 1958
1 1959
1 1960
1 1961
1 1962
1 1963
1 1964
1 1965
1 1966
1 1967
1 1968
1 1969
1 1970
1 1971
1 1972
1 1973
1 1974
1 1975
1 1976
1 1977
1 1978
1 1979
1 1980
1 1981
1 1982
1 1983
1 1984
1 1985
1 1986
1 1987
1 1988
1 1989
1 1990
1 1991
1 1992
1 1993
1 1994
1 1995
1 1996
1 1997
1 1998
1 1999
1 2000
1 2001
1 2002
1 2003
1 2004
1 2005
1 2006
1 2007
1 2008
1 2009
1 2010
1 2011
1 2012
1 2013
1 2014
1 2015
1 2016
1 2017
1 2018
1 2019
1 2020
1 2021
1 2022
1 2023
1 2024
1 2025
1 2026
1 2027
1 2028
1 2029
1 2030
1 2031
1 2032
1 2033
1 2034
1 2035
1 2036
1 2037
1 2038
1 2039
1 2040
1 2041
1 2042
1 2043
1 2044
1 2045
1 2046
1 2047
1 2048
1 2049
1 2050
1 2051
1 2052
1 2053
1 2054
1 2055
1 2056
1 2057
1 2058
1 2059
1 2060
1 2061
1 2062
1 2063
1 2064
1 2065
1 2066
1 2067
1 2068
1 2069
1 2070
1 2071
1 2072
1 2073
1 2074
1 2075
1 2076
1 2077
1 2078
1 2079
1 2080
1 2081
1 2082
1 2083
1 2084
1 2085
1 2086
1 2087
1 2088
1 2089
1 2090
1 2091
1 2092
1 2093
1 2094
1 2095
1 2096
1 2097
1 2098
1 2099
1 2100
1 2101
1 2102
1 2103
1 2104
1 2105
1 2106
1 2107
1 2108
1 2109
1 2110
1 2111
1 2112
1 2113
1 2114
1 2115
1 2116
1 2117
1 2118
1 2119
1 2120
1 2121
1 2122
1 2123
1 2124
1 2125
1 2126
1 2127
1 2128
1 2129
1 2130
1 2131
1 2132
1 2133
1 2134
1 2135
1 2136
1 2137
1 2138
1 2139
1 2140
1 2141
1 2142
1 2143
1 2144
1 2145
1 2146
1 2147
1 2148
1 2149
1 2150
1 2151
1 2152
1 2153
1 2154
1 2155
1 2156
1 2157
1 2158
1 2159
1 2160
1 2161
1 2162
1 2163
1 2164
1 2165
1 2166
1 2167
1 2168
1 2169
1 2170
1 2171
1 2172
1 2173
1 2174
1 2175
1 2176
1 2177
1 2178
1 2179
1 2180
1 2181
1 2182
1 2183
1 2184
1 2185
1 2186
1 2187
1 2188
1 2189
1 2190
1 2191
1 2192
1 2193
1 2194
1 2195
1 2196
1 2197
1 2198
1 2199
1 2200
1 2201
1 2202
1 2203
1 2204
1 2205
1 2206
1 2207
1 2208
1 2209
1 2210
1 2211
1 2212
1 2213
1 2214
1 2215
1 2216
1 2217
1 2218
1 2219
1 2220
1 2221
1 2222
1 2223
1 2224
1 2225
1 2226
1 2227
1 2228
1 2229
1 2230
1 2231
1 2232
1 2233
1 2234
1 2235
1 2236
1 2237
1 2238
1 2239
1 2240
1 2241
1 2242
1 2243
1 2244
1 2245
1 2246
1 2247
1 2248
1 2249
1 2250
1 2251
1 2252
1 2253
1 2254
1 2255
1 2256
1 2257
1 2258
1 2259
1 2260
1 2261
1 2262
1 2263
1 2264
1 2265
1 2266
1 2267
1 2268
1 2269
1 2270
1 2271
1 2272
1 2273
1 2274
1 2275
1 2276
1 2277
1 2278
1 2279
1 2280
1 2281
1 2282
1 2283
1 2284
1 2285
1 2286
1 2287
1 2288
1 2289
1 2290
1 2291
1 2292
1 2293
1 2294
1 2295
1 2296
1 2297
1 2298
1 2299
1 2300
1 2301
1 2302
1 2303
1 2304
1 2305
1 2306
1 2307
1 2308
1 2309
1 2310
1 2311
1 2312
1 2313
1 2314
1 2315
1 2316
1 2317
1 2318
1 2319
1 2320
1 2321
1 2322
1 2323
1 2324
1 2325
1 2326
1 2327
1 2328
1 2329
1 2330
1 2331
1 2332
1 2333
1 2334
1 2335
1 2336
1 2337
1 2338
1 2339
1 2340
1 2341
1 2342
1 2343
1 2344
1 2345
1 2346
1 2347
1 2348
1 2349
1 2350
1 2351
1 2352
1 2353
1 2354
1 2355
1 2356
1 2357
1 2358
1 2359
1 2360
1 2361
1 2362
1 2363
1 2364
1 2365
1 2366
1 2367
1 2368
1 2369
1 2370
1 2371
1 2372
1 2373
1 2374
1 2375
1 2376
1 2377
1 2378
1 2379
1 2380
1 2381
1 2382
1 2383
1 2384
1 2385
1 2386
1 2387
1 2388
1 2389
1 2390
1 2391
1 2392
1 2393
1 2394
1 2395
1 2396
1 2397
1 2398
1 2399
1 2400
1 2401
1 2402
1 2403
1 2404
1 2405
1 2406
1 2407
1 2408
1 2409
1 2410
1 2411
1 2412
1 2413
1 2414
1 2415
1 2416
1 2417
1 2418
1 2419
1 2420
1 2421
1 2422
1 2423
1 2424
1 2425
1 2426
1 2427
1 2428
1 2429
1 2430
1 2431
1 2432
1 2433
1 2434
1 2435
1 2436
1 2437
1 2438
1 2439
1 2440
1 2441
1 2442
1 2443
1 2444
1 2445
1 2446
1 2447
1 2448
1 2449
1 2450
1 2451
1 2452
1 2453
1 2454
1 2455
1 2456
1 2457
1 2458
1 2459
1 2460
1 2461
1 2462
1 2463
1 2464
1 2465
1 2466
1 2467
1 2468
1 2469
1 2470
1 2471
1 2472
1 2473
1 2474
1 2475
1 2476
1 2477
1 2478
1 2479
1 2480
1 2481
1 2482
1 2483
1 2484
1 2485
1 2486
1 2487
1 2488
1 2489
1 2490
1 2491
1 2492
1 2493
1 2494
1 2495
1 2496
1 2497
1 2498
1 2499
1 2500
1 2501
1 2502
1 2503
1 2504
1 2505
1 2506
1 2507
1 2508
1 2509
1 2510
1 2511
1 2512
1 2513
1 2514
1 2515
1 2516
1 2517
1 2518
1 2519
1 2520
1 2521
1 2522
1 2523
1 2524
1 2525
1 2526
1 2527
1 2528
1 2529
1 2530
1 2531
1 2532
1 2533
1 2534
1 2535
1 2536
1 2537
1 2538
1 2539
1 2540
1 2541
1 2542
1 2543
1 2544
1 2545
1 2546
1 2547
1 2548
1 2549
1 2550
1 2551
1 2552
1 2553
1 2554
1 2555
1 2556
1 2557
1 2558
1 2559
1 2560
1 2561
1 2562
1 2563
1 2564
1 2565
1 2566
1 2567
1 2568
1 2569
1 2570
1 2571
1 2572
1 2573
1 2574
1 2575
1 2576
1 2577
1 2578
1 2579
1 2580
1 2581
1 2582
1 2583
1 2584
1 2585
1 2586
1 2587
1 2588
1 2589
1 2590
1 2591
1 2592
1 2593
1 2594
1 2595
1 2596
1 2597
1 2598
1 2599
1 2600
1 2601
1 2602
1 2603
1 2604
1 2605
1 2606
1 2607
1 2608
1 2609
1 2610
1 2611
1 2612
1 2613
1 2614
1 2615
1 2616
1 2617
1 2618
1 2619
1 2620
1 2621
1 2622
1 2623
1 2624
1 2625
1 2626
1 2627
1 2628
1 2629
1 2630
1 2631
1 2632
1 2633
1 2634
1 2635
1 2636
1 2637
1 2638
1 2639
1 2640
1 2641
1 2642
1 2643
1 2644
1 2645
1 2646
1 2647
1 2648
1 2649
1 2650
1 2651
1 2652
1 2653
1 2654
1 2655
1 2656
1 2657
1 2658
1 2659
1 2660
1 2661
1 2662
1 2663
1 2664
1 2665
1 2666
1 2667
1 2668
1 2669
1 2670
1 2671
1 2672
1 2673
1 2674
1 2675
1 2676
1 2677
1 2678
1 2679
1 2680
1 2681
1 2682
1 2683
1 2684
1 2685
1 2686
1 2687
1 2688
1 2689
1 2690
1 2691
1 2692
1 2693
1 2694
1 2695
1 2696
1 2697
1 2698
1 2699
1 2700
1 2701
1 2702
1 2703
1 2704
1 2705
1 2706
1 2707
1 2708
1 2709
1 2710
1 2711
1 2712
1 2713
1 2714
1 2715
1 2716
1 2717
1 2718
1 2719
1 2720
1 2721
1 2722
1 2723
1 2724
1 2725
1 2726
1 2727
1 2728
1 2729
1 2730
1 2731
1 2732
1 2733
1 2734
1 2735
1 2736
1 2737
1 2738
1 2739
1 2740
1 2741
1 2742
1 2743
1 2744
1 2745
1 2746
1 2747
1 2748
1 2749
1 2750
1 2751
1 2752
1 2753
1 2754
1 2755
1 2756
1 2757
1 2758
1 2759
1 2760
1 2761
1 2762
1 2763
1 2764
1 2765
1 2766
1 2767
1 2768
1 2769
1 2770
1 2771
1 2772
1 2773
1 2774
1 2775
1 2776
1 2777
1 2778
1 2779
1 2780
1 2781
1 2782
1 2783
1 2784
1 2785
1 2786
1 2787
1 2788
1 2789
1 2790
1 2791
1 2792
1 2793
1 2794
1 2795
1 2796
1 2797
1 2798
1 2799
1 2800
1 2801
1 2802
1 2803
1 2804
1 2805
1 2806
1 2807
1 2808
1 2809
1 2810
1 2811
1 2812
1 2813
1 2814
1 2815
1 2816
1 2817
1 2818
1 2819
1 2820
1 2821
1 2822
1 2823
1 2824
1 2825
1 2826
1 2827
1 2828
1 2829
1 2830
1 2831
1 2832
1 2833
1 2834
1 2835
1 2836
1 2837
1 2838
1 2839
1 2840
1 2841
1 2842
1 2843
1 2844
1 2845
1 2846
1 2847
1 2848
1 2849
1 2850
1 2851
1 2852
1 2853
1 2854
1 2855
1 2856
1 2857
1 2858
1 2859
1 2860
1 2861
1 2862
1 2863
1 2864
1 2865
1 2866
1 2867
1 2868
1 2869
1 2870
1 2871
1 2872
1 2873
1 2874
1 2875
1 2876
1 2877
1 2878
1 2879
1 2880
1 2881
1 2882
1 2883
1 2884
1 2885
1 2886
1 2887
1 2888
1 2889
1 2890
1 2891
1 2892
1 2893
1 2894
1 2895
1 2896
1 2897
1 2898
1 2899
1 2900
1 2901
1 2902
1 2903
1 2904
1 2905
1 2906
1 2907
1 2908
1 2909
1 2910
1 2911
1 2912
1 2913
1 2914
1 2915
1 2916
1 2917
1 2918
1 2919
1 2920
1 2921
1 2922
1 2923
1 2924
1 2925
1 2926
1 2927
1 2928
1 2929
1 2930
1 2931
1 2932
1 2933
1 2934
1 2935
1 2936
1 2937
1 2938
1 2939
1 2940
1 2941
1 2942
1 2943
1 2944
1 2945
1 2946
1 2947
1 2948
1 2949
1 2950
1 2951
1 2952
1 2953
1 2954
1 2955
1 2956
1 2957
1 2958
1 2959
1 2960
1 2961
1 2962
1 2963
1 2964
1 2965
1 2966
1 2967
1 2968
1 2969
1 2970
1 2971
1 2972
1 2973
1 2974
POINT_DATA 2975
SCALARS Idp unsigned_int
LOOKUP_TABLE default
0 1 39 40 41 80 81 82 121 122 123 162 163 164 203 204 205 244 245 246 285 286 287 326 327 328 367 368 369 408 409 410 449 450 451 461 462 463 471 472 473 481 482 483 491 492 493 501 502 503 511 512 513 521 522 523 531 532 533 541 542 543 551 552 2 3 4 5 6 7 8 9 42 43 44 45 46 47 48 49 83 84 85 86 87 88 89 90 124 125 126 127 128 129 130 131 165 166 167 168 169 170 171 172 206 207 208 209 210 211 212 213 247 248 249 250 251 252 253 254 288 289 290 291 292 293 294 295 329 330 331 332 333 334 335 336 370 371 372 373 374 375 376 377 411 412 413 414 415 416 417 418 452 453 454 464 465 474 475 484 485 494 495 504 505 514 515 524 525 534 535 544 545 553 554 10 11 12 13 14 15 16 17 18 50 51 52 53 54 55 56 57 58 91 92 93 94 95 96 97 98 99 132 133 134 135 136 137 138 139 140 173 174 175 176 177 178 179 180 181 214 215 216 217 218 219 220 221 222 255 256 257 258 259 260 261 262 263 296 297 298 299 300 301 302 303 304 337 338 339 340 341 342 343 344 345 378 379 380 381 382 383 384 385 386 419 420 421 422 423 424 425 426 427 19 20 21 22 23 24 25 26 59 60 61 62 63 64 65 66 100 101 102 103 104 105 106 107 141 142 143 144 145 146 147 148 182 183 184 185 186 187 188 189 223 224 225 226 227 228 229 230 264 265 266 267 268 269 270 271 305 306 307 308 309 310 311 312 346 347 348 349 350 351 352 353 387 388 389 390 391 392 393 394 428 429 430 431 432 433 434 435 27 28 29 30 31 32 33 34 35 67 68 69 70 71 72 73 74 75 108 109 110 111 112 113 114 115 116 149 150 151 152 153 154 155 156 157 190 191 192 193 194 195 196 197 198 231 232 233 234 235 236 237 238 239 272 273 274 275 276 277 278 279 280 313 314 315 316 317 318 319 320 321 354 355 356 357 358 359 360 361 362 395 396 397 398 399 400 401 402 403 436 437 438 439 440 441 442 443 444 455 456 466 476 486 496 506 516 526 536 546 555 36 37 38 76 77 78 79 117 118 119 120 158 159 160 161 199 200 201 202 240 241 242 243 281 282 283 284 322 323 324 325 363 364 365 366 404 405 406 407 445 446 447 448 457 458 459 460 467 468 469 470 477 478 479 480 487 488 489 490 497 498 499 500 507 508 509 510 517 518 519 520 527 528 529 530 537 538 539 540 547 548 549 550 556 557 558 559 560 561 562 563 564 565 566 567 568 569 570 571 572 573 574 575 576 577 578 579 580 581 582 583 584 585 586 587 588 589 590 591 592 593 594 595 596 597 598 599 600 601 602 603 604 605 606 607 608 609 610 611 612 613 614 615 616 617 618 619 620 621 622 623 624 625 626 627 628 629 630 631 632 633 634 635 636 637 638 639 640 641 642 643 644 645 646 647 648 649 650 651 652 653 654 655 656 657 658 659 660 661 662 663 664 665 666 667 668 669 670 671 672 673 674 675 676 677 678 679 680 681 682 683 684 685 686 687 688 689 690 691 692 693 694 695 696 697 698 699 700 701 702 703 704 705 706 707 708 709 710 711 712 713 714 715 716 717 718 719 720 721 722 723 724 725 726 727 728 729 730 731 732 733 734 735 736 737 738 739 740 741 742 743 744 745 746 747 748 749 750 751 752 753 754 755 756 757 758 759 760 761 762 763 764 765 766 767 768 769 770 771 772 773 774 775 776 777 778 779 780 781 782 783 784 785 786 787 788 789 790 791 792 793 794 795 796 797 798 799 800 801 802 803 804 805 806 807 808 809 810 811 812 813 814 815 816 817 818 819 820 821 822 823 824 825 826 827 828 829 830 831 832 833 834 835 836 837 838 839 840 841 842 843 844 845 846 847 848 849 850 851 852 853 854 855 856 857 858 859 860 861 862 863 864 865 866 867 868 869 870 871 872 873 874 875 876 877 878 879 880 881 882 883 884 885 886 887 888 889 890 891 892 893 894 895 896 897 898 899 900 901 902 903 904 905 906 907 908 909 910 911 912 913 914 915 916 917 918 919 920 921 922 923 924 925 926 927 928 929 930 931 932 933 934 935 936 937 938 939 940 941 942 943 944 945 946 947 948 949 950 951 952 953 954 955 956 957 958 959 960 961 962 963 964 965 966 967 968 969 970 971 972 973 974 975 976 977 978 979 980 981 982 983 984 985 986 987 988 989 990 991 992 993 994 995 996 997 998 999 1000 1001 1002 1003 1004 1005 1006 1007 1008 1009 1010 1011 1012 1013 1014 1015 1016 1017 1018 1019 1020 1021 1022 1023 1024 1025 1026 1027 1028 1029 1030 1031 1032 1033 1034 1035 1060 1061 1062 1063 1064 1065 1091 1092 1093 1094 1095 1096 1122 1123 1124 1125 1126 1127 1153 1154 1155 1156 1157 1158 1184 1185 1186 1187 1188 1189 1215 1216 1217 1218 1219 1220 1246 1247 1248 1249 1250 1251 1277 1278 1279 1280 1281 1282 1308 1309 1310 1311 1312 1313 1339 1340 1341 1342 1343 1344 1370 1371 1372 1373 1374 1375 1401 1402 1403 1404 1405 1406 1432 1433 1434 1435 1436 1437 1463 1464 1465 1466 1467 1468 1494 1495 1496 1497 1498 1499 1525 1526 1527 1528 1529 1530 1556 1557 1558 1559 1560 1561 1587 1588 1589 1590 1591 1592 1618 1619 1620 1621 1622 1623 1649 1650 1651 1652 1653 1654 1680 1681 1682 1683 1684 1685 1711 1712 1713 1714 1715 1716 1742 1743 1744 1745 1746 1747 1773 1774 1775 1776 1777 1778 1804 1805 1806 1807 1808 1809 1835 1836 1837 1838 1839 1840 1866 1867 1868 1869 1870 1871 1897 1898 1899 1900 1901 1902 1928 1929 1930 1931 1932 1933 1959 1960 1961 1962 1963 1964 1990 1991 1992 1993 1994 1995 2021 2022 2023 2024 2025 2026 2052 2053 2054 2055 2056 2057 2083 2084 2085 2086 2087 2088 2114 2115 2116 2117 2118 2119 2145 2146 2147 2148 2149 2150 2176 2177 2178 2179 2180 2181 2207 2208 2209 2210 2211 2212 2238 2239 2240 2241 2242 2243 2269 2270 2271 2272 2273 2274 2300 2301 2302 2303 2304 2305 2331 2332 2333 2334 2335 2336 2362 2363 2364 2365 2366 2367 2393 2394 2395 2396 2397 2398 2424 2425 2426 2427 2428 2429 2455 2456 2457 2458 2459 2460 2486 2487 2488 2489 2490 2491 2517 2518 2519 2520 2521 2522 2548 2549 2550 2551 2552 2553 2579 2580 2581 2582 2583 2584 2610 2611 2612 2613 2614 2615 2641 2642 2643 2644 2645 2646 2672 2673 2674 2675 2676 2677 2703 2704 2705 2706 2707 2708 2734 2735 2736 2737 2738 2763 2764 2765 2766 2767 2792 2793 2794 2795 2819 2820 2821 2822 2846 2847 2848 2871 2872 2894 2895 1036 1037 1038 1039 1040 1041 1042 1043 1044 1066 1067 1068 1069 1070 1071 1072 1073 1074 1097 1098 1099 1100 1101 1102 1103 1104 1105 1128 1129 1130 1131 1132 1133 1134 1135 1136 1159 1160 1161 1162 1163 1164 1165 1166 1167 1190 1191 1192 1193 1194 1195 1196 1197 1198 1221 1222 1223 1224 1225 1226 1227 1228 1229 1252 1253 1254 1255 1256 1257 1258 1259 1260 1283 1284 1285 1286 1287 1288 1289 1290 1291 1314 1315 1316 1317 1318 1319 1320 1321 1322 1345 1346 1347 1348 1349 1350 1351 1352 1353 1376 1377 1378 1379 1380 1381 1382 1383 1384 1407 1408 1409 1410 1411 1412 1413 1414 1415 1438 1439 1440 1441 1442 1443 1444 1445 1446 1469 1470 1471 1472 1473 1474 1475 1476 1477 1500 1501 1502 1503 1504 1505 1506 1507 1508 1531 1532 1533 1534 1535 1536 1537 1538 1539 1562 1563 1564 1565 1566 1567 1568 1569 1570 1593 1594 1595 1596 1597 1598 1599 1600 1601 1624 1625 1626 1627 1628 1629 1630 1631 1632 1655 1656 1657 1658 1659 1660 1661 1662 1663 1686 1687 1688 1689 1690 1691 1692 1693 1694 1717 1718 1719 1720 1721 1722 1723 1724 1725 1748 1749 1750 1751 1752 1753 1754 1755 1756 1779 1780 1781 1782 1783 1784 1785 1786 1787 1810 1811 1812 1813 1814 1815 1816 1817 1818 1841 1842 1843 1844 1845 1846 1847 1848 1849 1872 1873 1874 1875 1876 1877 1878 1879 1880 1903 1904 1905 1906 1907 1908 1909 1910 1911 1934 1935 1936 1937 1938 1939 1940 1941 1942 1965 1966 1967 1968 1969 1970 1971 1972 1973 1996 1997 1998 1999 2000 2001 2002 2003 2004 2027 2028 2029 2030 2031 2032 2033 2034 2035 2058 2059 2060 2061 2062 2063 2064 2065 2066 2089 2090 2091 2092 2093 2094 2095 2096 2097 2120 2121 2122 2123 2124 2125 2126 2127 2128 2151 2152 2153 2154 2155 2156 2157 2158 2159 2182 2183 2184 2185 2186 2187 2188 2189 2190 2213 2214 2215 2216 2217 2218 2219 2220 2221 2244 2245 2246 2247 2248 2249 2250 2251 2252 2275 2276 2277 2278 2279 2280 2281 2282 2283 2306 2307 2308 2309 2310 2311 2312 2313 2314 2337 2338 2339 2340 2341 2342 2343 2344 2345 2368 2369 2370 2371 2372 2373 2374 2375 2376 2399 2400 2401 2402 2403 2404 2405 2406 2407 2430 2431 2432 2433 2434 2435 2436 2437 2438 2461 2462 2463 2464 2465 2466 2467 2468 2469 2492 2493 2494 2495 2496 2497 2498 2499 2500 2523 2524 2525 2526 2527 2528 2529 2530 2531 2554 2555 2556 2557 2558 2559 2560 2561 2562 2585 2586 2587 2588 2589 2590 2591 2592 2593 2616 2617 2618 2619 2620 2621 2622 2623 2624 2647 2648 2649 2650 2651 2652 2653 2654 2655 2678 2679 2680 2681 2682 2683 2684 2685 2686 2709 2710 2711 2712 2713 2714 2715 2716 2717 2739 2740 2741 2742 2743 2744 2745 2746 2747 2768 2769 2770 2771 2772 2773 2774 2775 2776 2796 2797 2798 2799 2800 2801 2802 2803 2804 2823 2824 2825 2826 2827 2828 2829 2830 2831 2849 2850 2851 2852 2853 2854 2855 2856 2857 2873 2874 2875 2876 2877 2878 2879 2880 2881 2896 2897 2898 2899 2900 2901 2902 2903 2904 2917 2918 2919 2920 2921 2922 2923 2924 2925 2936 2937 2938 2939 2940 2941 2942 2943 2953 2954 2955 2956 2957 2958 2966 2967 2968 2969 1045 1046 1047 1048 1049 1050 1051 1052 1075 1076 1077 1078 1079 1080 1081 1082 1106 1107 1108 1109 1110 1111 1112 1113 1137 1138 1139 1140 1141 1142 1143 1144 1168 1169 1170 1171 1172 1173 1174 1175 1199 1200 1201 1202 1203 1204 1205 1206 1230 1231 1232 1233 1234 1235 1236 1237 1261 1262 1263 1264 1265 1266 1267 1268 1292 1293 1294 1295 1296 1297 1298 1299 1323 1324 1325 1326 1327 1328 1329 1330 1354 1355 1356 1357 1358 1359 1360 1361 1385 1386 1387 1388 1389 1390 1391 1392 1416 1417 1418 1419 1420 1421 1422 1423 1447 1448 1449 1450 1451 1452 1453 1454 1478 1479 1480 1481 1482 1483 1484 1485 1509 1510 1511 1512 1513 1514 1515 1516 1540 1541 1542 1543 1544 1545 1546 1547 1571 1572 1573 1574 1575 1576 1577 1578 1602 1603 1604 1605 1606 1607 1608 1609 1633 1634 1635 1636 1637 1638 1639 1640 1664 1665 1666 1667 1668 1669 1670 1671 1695 1696 1697 1698 1699 1700 1701 1702 1726 1727 1728 1729 1730 1731 1732 1733 1757 1758 1759 1760 1761 1762 1763 1764 1788 1789 1790 1791 1792 1793 1794 1795 1819 1820 1821 1822 1823 1824 1825 1826 1850 1851 1852 1853 1854 1855 1856 1857 1881 1882 1883 1884 1885 1886 1887 1888 1912 1913 1914 1915 1916 1917 1918 1919 1943 1944 1945 1946 1947 1948 1949 1950 1974 1975 1976 1977 1978 1979 1980 1981 2005 2006 2007 2008 2009 2010 2011 2012 2036 2037 2038 2039 2040 2041 2042 2043 2067 2068 2069 2070 2071 2072 2073 2074 2098 2099 2100 2101 2102 2103 2104 2105 2129 2130 2131 2132 2133 2134 2135 2136 2160 2161 2162 2163 2164 2165 2166 2167 2191 2192 2193 2194 2195 2196 2197 2198 2222 2223 2224 2225 2226 2227 2228 2229 2253 2254 2255 2256 2257 2258 2259 2260 2284 2285 2286 2287 2288 2289 2290 2291 2315 2316 2317 2318 2319 2320 2321 2322 2346 2347 2348 2349 2350 2351 2352 2353 2377 2378 2379 2380 2381 2382 2383 2384 2408 2409 2410 2411 2412 2413 2414 2415 2439 2440 2441 2442 2443 2444 2445 2446 2470 2471 2472 2473 2474 2475 2476 2477 2501 2502 2503 2504 2505 2506 2507 2508 2532 2533 2534 2535 2536 2537 2538 2539 2563 2564 2565 2566 2567 2568 2569 2570 2594 2595 2596 2597 2598 2599 2600 2601 2625 2626 2627 2628 2629 2630 2631 2632 2656 2657 2658 2659 2660 2661 2662 2663 2687 2688 2689 2690 2691 2692 2693 2694 2718 2719 2720 2721 2722 2723 2724 2725 2748 2749 2750 2751 2752 2753 2754 2755 2777 2778 2779 2780 2781 2782 2783 2784 2805 2806 2807 2808 2809 2810 2811 2812 2832 2833 2834 2835 2836 2837 2838 2839 2858 2859 2860 2861 2862 2863 2864 2865 2882 2883 2884 2885 2886 2887 2888 2889 2905 2906 2907 2908 2909 2910 2911 2912 2926 2927 2928 2929 2930 2931 2932 2933 2944 2945 2946 2947 2948 2949 2950 2951 2959 2960 2961 2962 2963 2964 2965 2970 2971 2972 2973 2974 1053 1054 1055 1056 1057 1058 1059 1083 1084 1085 1086 1087 1088 1089 1090 1114 1115 1116 1117 1118 1119 1120 1121 1145 1146 1147 1148 1149 1150 1151 1152 1176 1177 1178 1179 1180 1181 1182 1183 1207 1208 1209 1210 1211 1212 1213 1214 1238 1239 1240 1241 1242 1243 1244 1245 1269 1270 1271 1272 1273 1274 1275 1276 1300 1301 1302 1303 1304 1305 1306 1307 1331 1332 1333 1334 1335 1336 1337 1338 1362 1363 1364 1365 1366 1367 1368 1369 1393 1394 1395 1396 1397 1398 1399 1400 1424 1425 1426 1427 1428 1429 1430 1431 1455 1456 1457 1458 1459 1460 1461 1462 1486 1487 1488 1489 1490 1491 1492 1493 1517 1518 1519 1520 1521 1522 1523 1524 1548 1549 1550 1551 1552 1553 1554 1555 1579 1580 1581 1582 1583 1584 1585 1586 1610 1611 1612 1613 1614 1615 1616 1617 1641 1642 1643 1644 1645 1646 1647 1648 1672 1673 1674 1675 1676 1677 1678 1679 1703 1704 1705 1706 1707 1708 1709 1710 1734 1735 1736 1737 1738 1739 1740 1741 1765 1766 1767 1768 1769 1770 1771 1772 1796 1797 1798 1799 1800 1801 1802 1803 1827 1828 1829 1830 1831 1832 1833 1834 1858 1859 1860 1861 1862 1863 1864 1865 1889 1890 1891 1892 1893 1894 1895 1896 1920 1921 1922 1923 1924 1925 1926 1927 1951 1952 1953 1954 1955 1956 1957 1958 1982 1983 1984 1985 1986 1987 1988 1989 2013 2014 2015 2016 2017 2018 2019 2020 2044 2045 2046 2047 2048 2049 2050 2051 2075 2076 2077 2078 2079 2080 2081 2082 2106 2107 2108 2109 2110 2111 2112 2113 2137 2138 2139 2140 2141 2142 2143 2144 2168 2169 2170 2171 2172 2173 2174 2175 2199 2200 2201 2202 2203 2204 2205 2206 2230 2231 2232 2233 2234 2235 2236 2237 2261 2262 2263 2264 2265 2266 2267 2268 2292 2293 2294 2295 2296 2297 2298 2299 2323 2324 2325 2326 2327 2328 2329 2330 2354 2355 2356 2357 2358 2359 2360 2361 2385 2386 2387 2388 2389 2390 2391 2392 2416 2417 2418 2419 2420 2421 2422 2423 2447 2448 2449 2450 2451 2452 2453 2454 2478 2479 2480 2481 2482 2483 2484 2485 2509 2510 2511 2512 2513 2514 2515 2516 2540 2541 2542 2543 2544 2545 2546 2547 2571 2572 2573 2574 2575 2576 2577 2578 2602 2603 2604 2605 2606 2607 2608 2609 2633 2634 2635 2636 2637 2638 2639 2640 2664 2665 2666 2667 2668 2669 2670 2671 2695 2696 2697 2698 2699 2700 2701 2702 2726 2727 2728 2729 2730 2731 2732 2733 2756 2757 2758 2759 2760 2761 2762 2785 2786 2787 2788 2789 2790 2791 2813 2814 2815 2816 2817 2818 2840 2841 2842 2843 2844 2845 2866 2867 2868 2869 2870 2890 2891 2892 2893 2913 2914 2915 2916 2934 2935 2952 
FIELD FieldData 12
Idp 1 2975 float
0 1 39 40 41 80 81 82 121 122 123 162 163 164 203 204 205 244 245 246 285 286 287 326 327 328 367 368 369 408 409 410 449 450 451 461 462 463 471 472 473 481 482 483 491 492 493 501 502 503 511 512 513 521 522 523 531 532 533 541 542 543 551 552 2 3 4 5 6 7 8 9 42 43 44 45 46 47 48 49 83 84 85 86 87 88 89 90 124 125 126 127 128 129 130 131 165 166 167 168 169 170 171 172 206 207 208 209 210 211 212 213 247 248 249 250 251 252 253 254 288 289 290 291 292 293 294 295 329 330 331 332 333 334 335 336 370 371 372 373 374 375 376 377 411 412 413 414 415 416 417 418 452 453 454 464 465 474 475 484 485 494 495 504 505 514 515 524 525 534 535 544 545 553 554 10 11 12 13 14 15 16 17 18 50 51 52 53 54 55 56 57 58 91 92 93 94 95 96 97 98 99 132 133 134 135 136 137 138 139 140 173 174 175 176 177 178 179 180 181 214 215 216 217 218 219 220 221 222 255 256 257 258 259 260 261 262 263 296 297 298 299 300 301 302 303 304 337 338 339 340 341 342 343 344 345 378 379 380 381 382 383 384 385 386 419 420 421 422 423 424 425 426 427 19 20 21 22 23 24 25 26 59 60 61 62 63 64 65 66 100 101 102 103 104 105 106 107 141 142 143 144 145 146 147 148 182 183 184 185 186 187 188 189 223 224 225 226 227 228 229 230 264 265 266 267 268 269 270 271 305 306 307 308 309 310 311 312 346 347 348 349 350 351 352 353 387 388 389 390 391 392 393 394 428 429 430 431 432 433 434 435 27 28 29 30 31 32 33 34 35 67 68 69 70 71 72 73 74 75 108 109 110 111 112 113 114 115 116 149 150 151 152 153 154 155 156 157 190 191 192 193 194 195 196 197 198 231 232 233 234 235 236 237 238 239 272 273 274 275 276 277 278 279 280 313 314 315 316 317 318 319 320 321 354 355 356 357 358 359 360 361 362 395 396 397 398 399 400 401 402 403 436 437 438 439 440 441 442 443 444 455 456 466 476 486 496 506 516 526 536 546 555 36 37 38 76 77 78 79 117 118 119 120 158 159 160 161 199 200 201 202 240 241 242 243 281 282 283 284 322 323 324 325 363 364 365 366 404 405 406 407 445 446 447 448 457 458 459 460 467 468 469 470 477 478 479 480 487 488 489 490 497 498 499 500 507 508 509 510 517 518 519 520 527 528 529 530 537 538 539 540 547 548 549 550 556 557 558 559 560 561 562 563 564 565 566 567 568 569 570 571 572 573 574 575 576 577 578 579 580 581 582 583 584 585 586 587 588 589 590 591 592 593 594 595 596 597 598 599 600 601 602 603 604 605 606 607 608 609 610 611 612 613 614 615 616 617 618 619 620 621 622 623 624 625 626 627 628 629 630 631 632 633 634 635 636 637 638 639 640 641 642 643 644 645 646 647 648 649 650 651 652 653 654 655 656 657 658 659 660 661 662 663 664 665 666 667 668 669 670 671 672 673 674 675 676 677 678 679 680 681 682 683 684 685 686 687 688 689 690 691 692 693 694 695 696 697 698 699 700 701 702 703 704 705 706 707 708 709 710 711 712 713 714 715 716 717 718 719 720 721 722 723 724 725 726 727 728 729 730 731 732 733 734 735 736 737 738 739 740 741 742 743 744 745 746 747 748 749 750 751 752 753 754 755 756 757 758 759 760 761 762 763 764 765 766 767 768 769 770 771 772 773 774 775 776 777 778 779 780 781 782 783 784 785 786 787 788 789 790 791 792 793 794 795 796 797 798 799 800 801 802 803 804 805 806 807 808 809 810 811 812 813 814 815 816 817 818 819 820 821 822 823 824 825 826 827 828 829 830 831 832 833 834 835 836 837 838 839 840 841 842 843 844 845 846 847 848 849 850 851 852 853 854 855 856 857 858 859 860 861 862 863 864 865 866 867 868 869 870 871 872 873 874 875 876 877 878 879 880 881 882 883 884 885 886 887 888 889 890 891 892 893 894 895 896 897 898 899 900 901 902 903 904 905 906 907 908 909 910 911 912 913 914 915 916 917 918 919 920 921 922 923 924 925 926 927 928 929 930 931 932 933 934 935 936 937 938 939 940 941 942 943 944 945 946 947 948 949 950 951 952 953 954 955 956 957 958 959 960 961 962 963 964 965 966 967 968 969 970 971 972 973 974 975 976 977 978 979 980 981 982 983 984 985 986 987 988 989 990 991 992 993 994 995 996 997 998 999 1000 1001 1002 1003 1004 1005 1006 1007 1008 1009 1010 1011 1012 1013 1014 1015 1016 1017 1018 1019 1020 1021 1022 1023 1024 1025 1026 1027 1028 1029 1030 1031 1032 1033 1034 1035 1060 1061 1062 1063 1064 1065 1091 1092 1093 1094 1095 1096 1122 1123 1124 1125 1126 1127 1153 1154 1155 1156 1157 1158 1184 1185 1186 1187 1188 1189 1215 1216 1217 1218 1219 1220 1246 1247 1248 1249 1250 1251 1277 1278 1279 1280 1281 1282 1308 1309 1310 1311 1312 1313 1339 1340 1341 1342 1343 1344 1370 1371 1372 1373 1374 1375 1401 1402 1403 1404 1405 1406 1432 1433 1434 1435 1436 1437 1463 1464 1465 1466 1467 1468 1494 1495 1496 1497 1498 1499 1525 1526 1527 1528 1529 1530 1556 1557 1558 1559 1560 1561 1587 1588 1589 1590 1591 1592 1618 1619 1620 1621 1622 1623 1649 1650 1651 1652 1653 1654 1680 1681 1682 1683 1684 1685 1711 1712 1713 1714 1715 1716 1742 1743 1744 1745 1746 1747 1773 1774 1775 1776 1777 1778 1804 1805 1806 1807 1808 1809 1835 1836 1837 1838 1839 1840 1866 1867 1868 1869 1870 1871 1897 1898 1899 1900 1901 1902 1928 1929 1930 1931 1932 1933 1959 1960 1961 1962 1963 1964 1990 1991 1992 1993 1994 1995 2021 2022 2023 2024 2025 2026 2052 2053 2054 2055 2056 2057 2083 2084 2085 2086 2087 2088 2114 2115 2116 2117 2118 2119 2145 2146 2147 2148 2149 2150 2176 2177 2178 2179 2180 2181 2207 2208 2209 2210 2211 2212 2238 2239 2240 2241 2242 2243 2269 2270 2271 2272 2273 2274 2300 2301 2302 2303 2304 2305 2331 2332 2333 2334 2335 2336 2362 2363 2364 2365 2366 2367 2393 2394 2395 2396 2397 2398 2424 2425 2426 2427 2428 2429 2455 2456 2457 2458 2459 2460 2486 2487 2488 2489 2490 2491 2517 2518 2519 2520 2521 2522 2548 2549 2550 2551 2552 2553 2579 2580 2581 2582 2583 2584 2610 2611 2612 2613 2614 2615 2641 2642 2643 2644 2645 2646 2672 2673 2674 2675 2676 2677 2703 2704 2705 2706 2707 2708 2734 2735 2736 2737 2738 2763 2764 2765 2766 2767 2792 2793 2794 2795 2819 2820 2821 2822 2846 2847 2848 2871 2872 2894 2895 1036 1037 1038 1039 1040 1041 1042 1043 1044 1066 1067 1068 1069 1070 1071 1072 1073 1074 1097 1098 1099 1100 1101 1102 1103 1104 1105 1128 1129 1130 1131 1132 1133 1134 1135 1136 1159 1160 1161 1162 1163 1164 1165 1166 1167 1190 1191 1192 1193 1194 1195 1196 1197 1198 1221 1222 1223 1224 1225 1226 1227 1228 1229 1252 1253 1254 1255 1256 1257 1258 1259 1260 1283 1284 1285 1286 1287 1288 1289 1290 1291 1314 1315 1316 1317 1318 1319 1320 1321 1322 1345 1346 1347 1348 1349 1350 1351 1352 1353 1376 1377 1378 1379 1380 1381 1382 1383 1384 1407 1408 1409 1410 1411 1412 1413 1414 1415 1438 1439 1440 1441 1442 1443 1444 1445 1446 1469 1470 1471 1472 1473 1474 1475 1476 1477 1500 1501 1502 1503 1504 1505 1506 1507 1508 1531 1532 1533 1534 1535 1536 1537 1538 1539 1562 1563 1564 1565 1566 1567 1568 1569 1570 1593 1594 1595 1596 1597 1598 1599 1600 1601 1624 1625 1626 1627 1628 1629 1630 1631 1632 1655 1656 1657 1658 1659 1660 1661 1662 1663 1686 1687 1688 1689 1690 1691 1692 1693 1694 1717 1718 1719 1720 1721 1722 1723 1724 1725 1748 1749 1750 1751 1752 1753 1754 1755 1756 1779 1780 1781 1782 1783 1784 1785 1786 1787 1810 1811 1812 1813 1814 1815 1816 1817 1818 1841 1842 1843 1844 1845 1846 1847 1848 1849 1872 1873 1874 1875 1876 1877 1878 1879 1880 1903 1904 1905 1906 1907 1908 1909 1910 1911 1934 1935 1936 1937 1938 1939 1940 1941 1942 1965 1966 1967 1968 1969 1970 1971 1972 1973 1996 1997 1998 1999 2000 2001 2002 2003 2004 2027 2028 2029 2030 2031 2032 2033 2034 2035 2058 2059 2060 2061 2062 2063 2064 2065 2066 2089 2090 2091 2092 2093 2094 2095 2096 2097 2120 2121 2122 2123 2124 2125 2126 2127 2128 2151 2152 2153 2154 2155 2156 2157 2158 2159 2182 2183 2184 2185 2186 2187 2188 2189 2190 2213 2214 2215 2216 2217 2218 2219 2220 2221 2244 2245 2246 2247 2248 2249 2250 2251 2252 2275 2276 2277 2278 2279 2280 2281 2282 2283 2306 2307 2308 2309 2310 2311 2312 2313 2314 2337 2338 2339 2340 2341 2342 2343 2344 2345 2368 2369 2370 2371 2372 2373 2374 2375 2376 2399 2400 2401 2402 2403 2404 2405 2406 2407 2430 2431 2432 2433 2434 2435 2436 2437 2438 2461 2462 2463 2464 2465 2466 2467 2468 2469 2492 2493 2494 2495 2496 2497 2498 2499 2500 2523 2524 2525 2526 2527 2528 2529 2530 2531 2554 2555 2556 2557 2558 2559 2560 2561 2562 2585 2586 2587 2588 2589 2590 2591 2592 2593 2616 2617 2618 2619 2620 2621 2622 2623 2624 2647 2648 2649 2650 2651 2652 2653 2654 2655 2678 2679 2680 2681 2682 2683 2684 2685 2686 2709 2710 2711 2712 2713 2714 2715 2716 2717 2739 2740 2741 2742 2743 2744 2745 2746 2747 2768 2769 2770 2771 2772 2773 2774 2775 2776 2796 2797 2798 2799 2800 2801 2802 2803 2804 2823 2824 2825 2826 2827 2828 2829 2830 2831 2849 2850 2851 2852 2853 2854 2855 2856 2857 2873 2874 2875 2876 2877 2878 2879 2880 2881 2896 2897 2898 2899 2900 2901 2902 2903 2904 2917 2918 2919 2920 2921 2922 2923 2924 2925 2936 2937 2938 2939 2940 2941 2942 2943 2953 2954 2955 2956 2957 2958 2966 2967 2968 2969 1045 1046 1047 1048 1049 1050 1051 1052 1075 1076 1077 1078 1079 1080 1081 1082 1106 1107 1108 1109 1110 1111 1112 1113 1137 1138 1139 1140 1141 1142 1143 1144 1168 1169 1170 1171 1172 1173 1174 1175 1199 1200 1201 1202 1203 1204 1205 1206 1230 1231 1232 1233 1234 1235 1236 1237 1261 1262 1263 1264 1265 1266 1267 1268 1292 1293 1294 1295 1296 1297 1298 1299 1323 1324 1325 1326 1327 1328 1329 1330 1354 1355 1356 1357 1358 1359 1360 1361 1385 1386 1387 1388 1389 1390 1391 1392 1416 1417 1418 1419 1420 1421 1422 1423 1447 1448 1449 1450 1451 1452 1453 1454 1478 1479 1480 1481 1482 1483 1484 1485 1509 1510 1511 1512 1513 1514 1515 1516 1540 1541 1542 1543 1544 1545 1546 1547 1571 1572 1573 1574 1575 1576 1577 1578 1602 1603 1604 1605 1606 1607 1608 1609 1633 1634 1635 1636 1637 1638 1639 1640 1664 1665 1666 1667 1668 1669 1670 1671 1695 1696 1697 1698 1699 1700 1701 1702 1726 1727 1728 1729 1730 1731 1732 1733 1757 1758 1759 1760 1761 1762 1763 1764 1788 1789 1790 1791 1792 1793 1794 1795 1819 1820 1821 1822 1823 1824 1825 1826 1850 1851 1852 1853 1854 1855 1856 1857 1881 1882 1883 1884 1885 1886 1887 1888 1912 1913 1914 1915 1916 1917 1918 1919 1943 1944 1945 1946 1947 1948 1949 1950 1974 1975 1976 1977 1978 1979 1980 1981 2005 2006 2007 2008 2009 2010 2011 2012 2036 2037 2038 2039 2040 2041 2042 2043 2067 2068 2069 2070 2071 2072 2073 2074 2098 2099 2100 2101 2102 2103 2104 2105 2129 2130 2131 2132 2133 2134 2135 2136 2160 2161 2162 2163 2164 2165 2166 2167 2191 2192 2193 2194 2195 2196 2197 2198 2222 2223 2224 2225 2226 2227 2228 2229 2253 2254 2255 2256 2257 2258 2259 2260 2284 2285 2286 2287 2288 2289 2290 2291 2315 2316 2317 2318 2319 2320 2321 2322 2346 2347 2348 2349 2350 2351 2352 2353 2377 2378 2379 2380 2381 2382 2383 2384 2408 2409 2410 2411 2412 2413 2414 2415 2439 2440 2441 2442 2443 2444 2445 2446 2470 2471 2472 2473 2474 2475 2476 2477 2501 2502 2503 2504 2505 2506 2507 2508 2532 2533 2534 2535 2536 2537 2538 2539 2563 2564 2565 2566 2567 2568 2569 2570 2594 2595 2596 2597 2598 2599 2600 2601 2625 2626 2627 2628 2629 2630 2631 2632 2656 2657 2658 2659 2660 2661 2662 2663 2687 2688 2689 2690 2691 2692 2693 2694 2718 2719 2720 2721 2722 2723 2724 2725 2748 2749 2750 2751 2752 2753 2754 2755 2777 2778 2779 2780 2781 2782 2783 2784 2805 2806 2807 2808 2809 2810 2811 2812 2832 2833 2834 2835 2836 2837 2838 2839 2858 2859 2860 2861 2862 2863 2864 2865 2882 2883 2884 2885 2886 2887 2888 2889 2905 2906 2907 2908 2909 2910 2911 2912 2926 2927 2928 2929 2930 2931 2932 2933 2944 2945 2946 2947 2948 2949 2950 2951 2959 2960 2961 2962 2963 2964 2965 2970 2971 2972 2973 2974 1053 1054 1055 1056 1057 1058 1059 1083 1084 1085 1086 1087 1088 1089 1090 1114 1115 1116 1117 1118 1119 1120 1121 1145 1146 1147 1148 1149 1150 1151 1152 1176 1177 1178 1179 1180 1181 1182 1183 1207 1208 1209 1210 1211 1212 1213 1214 1238 1239 1240 1241 1242 1243 1244 1245 1269 1270 1271 1272 1273 1274 1275 1276 1300 1301 1302 1303 1304 1305 1306 1307 1331 1332 1333 1334 1335 1336 1337 1338 1362 1363 1364 1365 1366 1367 1368 1369 1393 1394 1395 1396 1397 1398 1399 1400 1424 1425 1426 1427 1428 1429 1430 1431 1455 1456 1457 1458 1459 1460 1461 1462 1486 1487 1488 1489 1490 1491 1492 1493 1517 1518 1519 1520 1521 1522 1523 1524 1548 1549 1550 1551 1552 1553 1554 1555 1579 1580 1581 1582 1583 1584 1585 1586 1610 1611 1612 1613 1614 1615 1616 1617 1641 1642 1643 1644 1645 1646 1647 1648 1672 1673 1674 1675 1676 1677 1678 1679 1703 1704 1705 1706 1707 1708 1709 1710 1734 1735 1736 1737 1738 1739 1740 1741 1765 1766 1767 1768 1769 1770 1771 1772 1796 1797 1798 1799 1800 1801 1802 1803 1827 1828 1829 1830 1831 1832 1833 1834 1858 1859 1860 1861 1862 1863 1864 1865 1889 1890 1891 1892 1893 1894 1895 1896 1920 1921 1922 1923 1924 1925 1926 1927 1951 1952 1953 1954 1955 1956 1957 1958 1982 1983 1984 1985 1986 1987 1988 1989 2013 2014 2015 2016 2017 2018 2019 2020 2044 2045 2046 2047 2048 2049 2050 2051 2075 2076 2077 2078 2079 2080 2081 2082 2106 2107 2108 2109 2110 2111 2112 2113 2137 2138 2139 2140 2141 2142 2143 2144 2168 2169 2170 2171 2172 2173 2174 2175 2199 2200 2201 2202 2203 2204 2205 2206 2230 2231 2232 2233 2234 2235 2236 2237 2261 2262 2263 2264 2265 2266 2267 2268 2292 2293 2294 2295 2296 2297 2298 2299 2323 2324 2325 2326 2327 2328 2329 2330 2354 2355 2356 2357 2358 2359 2360 2361 2385 2386 2387 2388 2389 2390 2391 2392 2416 2417 2418 2419 2420 2421 2422 2423 2447 2448 2449 2450 2451 2452 2453 2454 2478 2479 2480 2481 2482 2483 2484 2485 2509 2510 2511 2512 2513 2514 2515 2516 2540 2541 2542 2543 2544 2545 2546 2547 2571 2572 2573 2574 2575 2576 2577 2578 2602 2603 2604 2605 2606 2607 2608 2609 2633 2634 2635 2636 2637 2638 2639 2640 2664 2665 2666 2667 2668 2669 2670 2671 2695 2696 2697 2698 2699 2700 2701 2702 2726 2727 2728 2729 2730 2731 2732 2733 2756 2757 2758 2759 2760 2761 2762 2785 2786 2787 2788 2789 2790 2791 2813 2814 2815 2816 2817 2818 2840 2841 2842 2843 2844 2845 2866 2867 2868 2869 2870 2890 2891 2892 2893 2913 2914 2915 2916 2934 2935 2952 
Rhop 1 2975 float
1000.0 1000.0 1000.0 1000.0 1000.0 1000.0 1000.0 1000.0 1000.0 1000.0 1000.0 1000.0 1000.0 1000.0 1000.0 1000.0 1000.0 1000.0 1000.0 1000.0002 1000.0 1000.0004 1000.0009 1000.0003 1000.001 1000.0023 1000.0009 1000.0022 1000.0045 1000.0015 1000.0039 1000.0072 1000.0025 1000.0057 1000.0105 1000.0034 1000.0078 1000.0137 1000.0043 1000.0096 1000.017 1000.0052 1000.0115 1000.0201 1000.0061 1000.0135 1000.0239 1000.0076 1000.0164 1000.0287 1000.0094 1000.0206 1000.0362 1000.0125 1000.0275 1000.0483 1000.0182 1000.0386 1000.0666 1000.0279 1000.0553 1000.0922 1000.0784 1000.1245 1000.0 1000.0 1000.0 1000.0 1000.0 1000.0 1000.0 1000.0 1000.0 1000.0 1000.0 1000.0 1000.0 1000.0 1000.0 1000.0 1000.0 1000.0 1000.0 1000.0 1000.0 1000.0 1000.0 1000.0 1000.0 1000.0 1000.0 1000.0 1000.0 1000.0 1000.0 1000.0 1000.0 1000.0 1000.0 1000.0 1000.0001 1000.0001 1000.0002 1000.0002 1000.0 1000.0002 1000.0004 1000.0007 1000.0009 1000.0011 1000.0012 1000.0014 1000.0006 1000.001 1000.0016 1000.0024 1000.0032 1000.0038 1000.0042 1000.0046 1000.0018 1000.003 1000.0045 1000.006 1000.0078 1000.0089 1000.01 1000.0109 1000.004 1000.0064 1000.0093 1000.0123 1000.0152 1000.0178 1000.0198 1000.0212 1000.0074 1000.0112 1000.016 1000.021 1000.0258 1000.0296 1000.0328 1000.0353 1000.0118 1000.0177 1000.0245 1000.0316 1000.0383 1000.0438 1000.0482 1000.0515 1000.0167 1000.0244 1000.0334 1000.0215 1000.0312 1000.0263 1000.0377 1000.0311 1000.0443 1000.0366 1000.0521 1000.0443 1000.0629 1000.0559 1000.0784 1000.0737 1000.102 1000.1003 1000.1361 1000.137 1000.1818 1000.1814 1000.2374 1000.0 1000.0 1000.0 1000.0 1000.0 1000.0 1000.0 1000.0 1000.0 1000.0 1000.0 1000.0 1000.0 1000.0 1000.0 1000.0 1000.0 1000.0 1000.0 1000.0 1000.0 1000.0 1000.0 1000.0 1000.0 1000.0 1000.0 1000.0 1000.0 1000.0 1000.0 1000.0 1000.0 1000.0 1000.0 1000.0 1000.0002 1000.0002 1000.0002 1000.0002 1000.0002 1000.0002 1000.0002 1000.0002 1000.0002 1000.0015 1000.0015 1000.0015 1000.0016 1000.0016 1000.0016 1000.0016 1000.0016 1000.0016 1000.0047 1000.0049 1000.005 1000.005 1000.0051 1000.0052 1000.0052 1000.0052 1000.0052 1000.0114 1000.012 1000.0121 1000.0124 1000.0126 1000.0126 1000.0126 1000.0127 1000.0127 1000.0223 1000.0233 1000.0238 1000.0243 1000.0244 1000.0244 1000.0245 1000.0245 1000.0245 1000.037 1000.0385 1000.0394 1000.04 1000.0405 1000.0406 1000.0407 1000.0407 1000.0408 1000.0541 1000.0559 1000.057 1000.0579 1000.0585 1000.0588 1000.0589 1000.059 1000.059 1000.0 1000.0 1000.0 1000.0 1000.0 1000.0 1000.0 1000.0 1000.0 1000.0 1000.0 1000.0 1000.0 1000.0 1000.0 1000.0 1000.0 1000.0 1000.0 1000.0 1000.0 1000.0 1000.0 1000.0 1000.0 1000.0 1000.0 1000.0 1000.0 1000.0 1000.0 1000.0 1000.0002 1000.0002 1000.0002 1000.0002 1000.0002 1000.0002 1000.0002 1000.0002 1000.0016 1000.0016 1000.0016 1000.0016 1000.0016 1000.0016 1000.0016 1000.0015 1000.0052 1000.0052 1000.0052 1000.0052 1000.0052 1000.0051 1000.005 1000.005 1000.0127 1000.0127 1000.0127 1000.0126 1000.0126 1000.0126 1000.0124 1000.0121 1000.0245 1000.0245 1000.0245 1000.0245 1000.0244 1000.0244 1000.0243 1000.0238 1000.0408 1000.0408 1000.0407 1000.0407 1000.0406 1000.0405 1000.04 1000.0394 1000.059 1000.059 1000.059 1000.0589 1000.0588 1000.0585 1000.0579 1000.057 1000.0 1000.0 1000.0 1000.0 1000.0 1000.0 1000.0 1000.0 1000.0 1000.0 1000.0 1000.0 1000.0 1000.0 1000.0 1000.0 1000.0 1000.0 1000.0 1000.0 1000.0 1000.0 1000.0 1000.0 1000.0 1000.0 1000.0 1000.0 1000.0 1000.0 1000.0 1000.0 1000.0 1000.0 1000.0 1000.0 1000.0002 1000.0002 1000.0002 1000.0002 1000.0001 1000.0001 1000.0 1000.0 1000.0 1000.0015 1000.0015 1000.0014 1000.0012 1000.0011 1000.0009 1000.0007 1000.0004 1000.0002 1000.0049 1000.0047 1000.0046 1000.0042 1000.0038 1000.0032 1000.0024 1000.0016 1000.001 1000.012 1000.0114 1000.0109 1000.01 1000.0089 1000.0078 1000.006 1000.0045 1000.003 1000.0233 1000.0223 1000.0212 1000.0198 1000.0178 1000.0152 1000.0123 1000.0093 1000.0064 1000.0385 1000.037 1000.0353 1000.0328 1000.0296 1000.0258 1000.021 1000.016 1000.0112 1000.0559 1000.0541 1000.0515 1000.0482 1000.0438 1000.0383 1000.0316 1000.0245 1000.0177 1000.0334 1000.0244 1000.0312 1000.0377 1000.0443 1000.0521 1000.0629 1000.0784 1000.102 1000.1361 1000.1818 1000.2374 1000.0 1000.0 1000.0 1000.0 1000.0 1000.0 1000.0 1000.0 1000.0 1000.0 1000.0 1000.0 1000.0 1000.0 1000.0 1000.0 1000.0 1000.0 1000.0 1000.0 1000.0 1000.0 1000.0 1000.0006 1000.0002 1000.0 1000.0 1000.0018 1000.0009 1000.0004 1000.0 1000.004 1000.0023 1000.001 1000.0003 1000.0074 1000.0045 1000.0022 1000.0009 1000.0118 1000.0072 1000.0039 1000.0015 1000.0167 1000.0105 1000.0057 1000.0025 1000.0215 1000.0137 1000.0078 1000.0034 1000.0263 1000.017 1000.0096 1000.0043 1000.0311 1000.0201 1000.0115 1000.0052 1000.0366 1000.0239 1000.0135 1000.0061 1000.0443 1000.0287 1000.0164 1000.0076 1000.0559 1000.0362 1000.0206 1000.0094 1000.0737 1000.0483 1000.0275 1000.0125 1000.1003 1000.0666 1000.0386 1000.0182 1000.137 1000.0922 1000.0553 1000.0279 1000.1814 1000.1245 1000.0784 1000.0 1000.0 1000.0 1000.0 1000.0 1000.0 1000.0 1000.0 1000.0 1000.0 1000.0 1000.0 1000.0 1000.0 1000.0 1000.0 1000.0 1000.0 1000.0 1000.0 1000.0 1000.0 1000.0 1000.0 1000.0 1000.0 1000.0 1000.0 1000.0 1000.0 1000.0 1000.0 1000.0 1000.0 1000.0 1000.0 1000.0 1000.0 1000.0 1000.0 1000.0 1000.0 1000.0 1000.0 1000.0 1000.0 1000.0 1000.0 1000.0 1000.0 1000.0 1000.0 1000.0 1000.0 1000.0 1000.0 1000.0 1000.0 1000.0 1000.0 1000.0 1000.0 1000.0 1000.0 1000.0 1000.0 1000.0 1000.0 1000.0 1000.0 1000.0 1000.0 1000.0 1000.0 1000.0 1000.0 1000.0 1000.0 1000.0 1000.0 1000.0 1000.0 1000.0 1000.0 1000.0 1000.0 1000.0 1000.0 1000.0 1000.0 1000.0 1000.0 1000.0 1000.0 1000.0 1000.0 1000.0 1000.0 1000.0 1000.0 1000.0 1000.0 1000.0 1000.0 1000.0 1000.0 1000.0 1000.0 1000.0 1000.0 1000.0 1000.0 1000.0 1000.0 1000.0 1000.0 1000.0 1000.0 1000.0 1000.0 1000.0 1000.0 1000.0 1000.0 1000.0 1000.0 1000.0 1000.0 1000.0 1000.0 1000.0 1000.0 1000.0 1000.0 1000.0 1000.0 1000.0 1000.0 1000.0 1000.0 1000.0 1000.0 1000.0 1000.0 1000.0 1000.0 1000.0 1000.0 1000.0 1000.0 1000.0 1000.0 1000.0 1000.0 1000.0 1000.0 1000.0 1000.0 1000.0 1000.0 1000.0 1000.0 1000.0 1000.0 1000.0 1000.0 1000.0 1000.0 1000.0 1000.0 1000.0 1000.0 1000.0 1000.0 1000.0 1000.0 1000.0 1000.0 1000.0 1000.0 1000.0 1000.0 1000.0 1000.0 1000.0 1000.0 1000.0 1000.0 1000.0 1000.0 1000.0 1000.0 1000.0 1000.0 1000.0 1000.0 1000.0 1000.0 1000.0 1000.0 1000.0 1000.0 1000.0 1000.0 1000.0 1000.0 1000.0 1000.0 1000.0 1000.0 1000.0 1000.0 1000.0 1000.0 1000.0 1000.0 1000.0 1000.0 1000.0 1000.0 1000.0 1000.0 1000.0 1000.0 1000.0 1000.0 1000.0 1000.0 1000.0 1000.0 1000.0 1000.0 1000.0 1000.0 1000.0 1000.0 1000.0 1000.0 1000.0 1000.0 1000.0 1000.0 1000.0 1000.0 1000.0 1000.0 1000.0 1000.0 1000.0 1000.0 1000.0 1000.0 1000.0 1000.0 1000.0 1000.0 1000.0 1000.0 1000.0 1000.0 1000.0 1000.0 1000.0 1000.0 1000.0 1000.0 1000.0 1000.0 1000.0 1000.0 1000.0 1000.0 1000.0 1000.0 1000.0 1000.0 1000.0 1000.0 1000.0 1000.0 1000.0 1000.0 1000.0 1000.0 1000.0 1000.0 1000.0 1000.0 1000.0 1000.0 1000.0 1000.0 1000.0 1000.0 1000.0 1000.0 1000.0 1000.0 1000.0 1000.0 1000.0 1000.0 1000.0 1000.0 1000.0 1000.0 1000.0 1000.0 1000.0 1000.0 1000.0 1000.0 1000.0 1000.0 1000.0 1000.0 1000.0 1000.0 1000.0 1000.0 1000.0 1000.0 1000.0 1000.0 1000.0 1000.0 1000.0 1000.0 1000.0 1000.0 1000.0 1000.0 1000.0 1000.0 1000.0 1000.0 1000.0 1000.0 1000.0 1000.0 1000.0 1000.0 1000.0 1000.0 1000.0 1000.0 1000.0 1000.0 1000.0 1000.0 1000.0 1000.0 1000.0 1000.0 1000.0 1000.0 1000.0 1000.0 1000.0 1000.0 1000.0 1000.0 1000.0 1000.0 1000.0 1000.0 1000.0 1000.0 1000.0 1000.0 1000.0 1000.0 1000.0 1000.0 1000.0 1000.0 1000.0 1000.0 1000.0 1000.0 1000.0 1000.0 1000.0 1000.0 1000.0 1000.0 1000.0 1000.0 1000.0 1000.0 1000.0 1000.0 1000.0 1000.0 1000.0 1000.0 1000.0 1000.0 1000.0 1000.0 1000.0 1000.0 1000.0 1000.0 1000.0 1000.0 1000.0 1000.0 1000.0 1000.0 1000.0 1000.0 1000.0 1000.0 1000.0 1000.0 1000.0 1000.0 1000.0 1000.0 1000.0 1000.0 1000.0 1000.0 1000.0 1000.0 1000.0 1000.0 1000.0 1000.0 1000.0 1000.0 1000.0 1000.0 1000.0 1000.0 1000.0 1000.0 1000.0 1000.0 1000.0 1000.0 1000.0 1000.0 1000.0 1000.0 1000.0 1000.0 1000.0 1000.0 1000.0 1000.0 1000.0 1000.0 1000.0 1000.0 1000.0 1000.0 1000.0 1000.0 1000.0 1000.0 1000.0 1000.0 1000.0 1000.0 1000.0 1000.0 1000.0 1000.0 1000.0 1000.0 1000.0425 1000.0507 1000.0576 1000.063 1000.067 1000.0415 1000.0527 1000.0621 1000.0698 1000.0759 1000.0804 1000.0497 1000.0623 1000.0731 1000.0817 1000.0882 1000.093 1000.0582 1000.0728 1000.0848 1000.0944 1000.1014 1000.1063 1000.0685 1000.0851 1000.0986 1000.1092 1000.1169 1000.1217 1000.0826 1000.1016 1000.1166 1000.1277 1000.1357 1000.1407 1000.105 1000.1252 1000.1407 1000.1514 1000.1588 1000.1639 1000.1405 1000.1608 1000.1734 1000.1818 1000.1876 1000.1913 1000.1946 1000.2115 1000.2171 1000.2198 1000.2217 1000.2236 1000.2703 1000.2767 1000.2707 1000.2643 1000.2612 1000.2602 1000.3603 1000.3503 1000.3294 1000.3132 1000.3044 1000.301 1000.4352 1000.4186 1000.3866 1000.3631 1000.3508 1000.3455 1000.4575 1000.4617 1000.4349 1000.4118 1000.399 1000.3937 1000.4641 1000.4857 1000.4759 1000.4598 1000.4504 1000.4467 1000.4904 1000.515 1000.519 1000.512 1000.5075 1000.5056 1000.5415 1000.5638 1000.5734 1000.5731 1000.5721 1000.572 1000.6144 1000.6333 1000.6435 1000.6457 1000.6468 1000.6476 1000.7037 1000.7194 1000.7285 1000.7307 1000.7324 1000.7336 1000.8049 1000.8194 1000.8271 1000.8287 1000.8303 1000.8314 1000.9195 1000.9341 1000.9404 1000.9407 1000.9421 1000.9427 1001.0505 1001.0654 1001.07 1001.0688 1001.0692 1001.0687 1001.2017 1001.2157 1001.2183 1001.2148 1001.213 1001.2104 1001.3749 1001.3873 1001.3875 1001.3802 1001.3748 1001.3685 1001.5725 1001.5825 1001.5798 1001.5668 1001.5551 1001.5436 1001.7916 1001.8 1001.7937 1001.7705 1001.7492 1001.7302 1002.0233 1002.0317 1002.0194 1001.98 1001.9453 1001.916 1002.2565 1002.2677 1002.2449 1002.1803 1002.1288 1002.0891 1002.4758 1002.4905 1002.449 1002.3513 1002.2817 1002.2332 1002.685 1002.702 1002.6321 1002.4973 1002.4128 1002.3618 1002.9542 1002.9694 1002.8691 1002.7039 1002.6148 1002.5712 1003.5287 1003.5381 1003.4275 1003.2595 1003.1816 1003.1597 1004.947 1004.9593 1004.909 1004.7834 1004.7354 1004.7477 1007.7345 1007.7761 1007.8375 1007.8468 1007.863 1007.9163 1011.1685 1011.2626 1011.4162 1011.6091 1011.7357 1011.8374 1013.4258 1013.5589 1013.7361 1014.0299 1014.2643 1014.4099 1014.0199 1014.1269 1014.2297 1014.5245 1014.805 1014.9755 1013.8268 1013.8828 1013.8796 1014.0773 1014.3197 1014.4772 1013.6548 1013.6764 1013.6625 1013.7225 1013.8445 1013.928 1013.7863 1013.7599 1013.7729 1013.723 1013.7382 1013.7515 1014.1521 1014.085 1014.1195 1014.014 1013.9678 1013.9384 1014.5764 1014.479 1014.5229 1014.4111 1014.351 1014.3104 1014.9096 1014.7977 1014.8395 1014.754 1014.7174 1014.6921 1014.8788 1014.7672 1014.8051 1014.7486 1014.7487 1014.7526 1014.53 1014.4328 1014.4745 1014.4481 1014.4875 1014.5274 1013.9792 1013.908 1013.9672 1013.9761 1014.0559 1014.1346 1013.3081 1013.2766 1013.3706 1013.423 1013.5439 1013.6614 1012.5427 1012.5649 1012.7068 1012.8129 1012.9737 1013.1233 1011.6724 1011.7622 1011.9538 1012.1152 1012.3027 1012.4796 1010.6864 1010.843 1011.082 1011.2758 1011.4878 1011.6835 1009.608 1009.8168 1010.0857 1010.2934 1010.5271 1010.7311 1008.499 1008.7389 1009.009 1009.2211 1009.4633 1009.6663 1007.431 1007.6791 1007.9285 1008.1299 1008.3647 1008.5593 1006.424 1006.6832 1006.9094 1007.0912 1007.3043 1007.4825 1005.4471 1005.7558 1005.9855 1006.1549 1006.3387 1006.4906 1004.5397 1004.9286 1005.1995 1005.3555 1005.4966 1005.6146 1004.2311 1004.5635 1004.6945 1004.7881 1004.8651 1003.6378 1003.9943 1004.1482 1004.204 1004.2431 1003.4147 1003.6425 1003.7029 1003.7356 1002.8679 1003.0795 1003.2289 1003.2966 1002.5239 1002.7122 1002.8511 1002.1964 1002.3406 1001.9984 1001.8771 1000.0701 1000.0724 1000.0737 1000.075 1000.0754 1000.0759 1000.076 1000.076 1000.076 1000.0837 1000.0863 1000.0879 1000.0891 1000.0895 1000.09 1000.09 1000.09 1000.09 1000.0964 1000.0988 1000.1006 1000.1014 1000.1021 1000.1022 1000.1022 1000.1022 1000.1021 1000.1097 1000.112 1000.1135 1000.1141 1000.1146 1000.1146 1000.1144 1000.1142 1000.1142 1000.1251 1000.1271 1000.1283 1000.1286 1000.1286 1000.1283 1000.1281 1000.1279 1000.1276 1000.1437 1000.1454 1000.1462 1000.1461 1000.1458 1000.1454 1000.1447 1000.1443 1000.1442 1000.1666 1000.1677 1000.1678 1000.1674 1000.1664 1000.1656 1000.1647 1000.1641 1000.1636 1000.1935 1000.1938 1000.1933 1000.1922 1000.1908 1000.1895 1000.1884 1000.1876 1000.1871 1000.2243 1000.2243 1000.223 1000.2211 1000.2192 1000.2174 1000.2157 1000.2147 1000.2141 1000.2597 1000.2586 1000.2565 1000.2538 1000.2513 1000.249 1000.2472 1000.2457 1000.245 1000.2993 1000.2973 1000.2943 1000.2913 1000.288 1000.2853 1000.2831 1000.2816 1000.2806 1000.343 1000.3405 1000.337 1000.3331 1000.3294 1000.3262 1000.3239 1000.3221 1000.321 1000.3912 1000.3885 1000.3847 1000.3804 1000.3764 1000.3731 1000.3703 1000.3683 1000.3671 1000.4448 1000.442 1000.4382 1000.4339 1000.4295 1000.4258 1000.4229 1000.4208 1000.4195 1000.5043 1000.5021 1000.4984 1000.4937 1000.4893 1000.4851 1000.4823 1000.48 1000.4788 1000.5714 1000.5692 1000.5657 1000.5612 1000.5568 1000.5528 1000.5494 1000.5471 1000.5459 1000.6472 1000.6453 1000.6418 1000.6371 1000.6325 1000.6285 1000.6251 1000.6227 1000.6215 1000.7334 1000.7315 1000.7277 1000.7231 1000.718 1000.7139 1000.7103 1000.7077 1000.7064 1000.8311 1000.8287 1000.8245 1000.819 1000.8137 1000.8091 1000.8054 1000.8027 1000.8011 1000.9417 1000.9383 1000.933 1000.9266 1000.9206 1000.9153 1000.9109 1000.908 1000.9061 1001.0663 1001.0613 1001.0544 1001.0466 1001.0389 1001.0326 1001.0274 1001.0236 1001.0215 1001.2059 1001.1984 1001.189 1001.1786 1001.1689 1001.1608 1001.1544 1001.1497 1001.1467 1001.3602 1001.3494 1001.3362 1001.3225 1001.3098 1001.2993 1001.291 1001.2849 1001.2811 1001.5305 1001.5143 1001.4957 1001.4772 1001.4605 1001.4465 1001.4357 1001.4278 1001.4233 1001.7096 1001.6867 1001.6616 1001.6364 1001.6144 1001.5965 1001.5826 1001.5728 1001.5669 1001.8871 1001.8553 1001.8217 1001.7896 1001.7614 1001.7386 1001.7218 1001.7094 1001.7026 1002.0511 1002.0104 1001.9676 1001.9269 1001.8922 1001.8647 1001.8441 1001.8297 1001.8215 1002.1885 1002.1406 1002.0898 1002.0414 1002.0004 1001.9683 1001.9448 1001.9283 1001.9187 1002.3164 1002.2664 1002.2114 1002.158 1002.1124 1002.0767 1002.0505 1002.0327 1002.0222 1002.5355 1002.4921 1002.4406 1002.3877 1002.3408 1002.3037 1002.2767 1002.2585 1002.2474 1003.1459 1003.1215 1003.0829 1003.038 1002.9956 1002.9604 1002.9343 1002.9163 1002.9055 1004.7689 1004.7745 1004.7601 1004.7322 1004.7001 1004.6712 1004.6486 1004.6323 1004.6225 1007.9792 1008.0231 1008.0399 1008.0355 1008.0201 1008.0021 1007.9855 1007.9734 1007.9654 1011.9385 1012.0189 1012.0674 1012.0883 1012.0925 1012.0886 1012.082 1012.0751 1012.0699 1014.535 1014.6386 1014.7103 1014.7532 1014.777 1014.7881 1014.7926 1014.7928 1014.7913 1015.1053 1015.213 1015.2936 1015.3503 1015.389 1015.415 1015.4313 1015.4398 1015.4434 1014.5917 1014.6851 1014.761 1014.8219 1014.8707 1014.9088 1014.9363 1014.9533 1014.9618 1013.9962 1014.0613 1014.1226 1014.179 1014.2308 1014.2753 1014.3099 1014.3325 1014.3444 1013.775 1013.8111 1013.8535 1013.8991 1013.9459 1013.989 1014.024 1014.0472 1014.0596 1013.9333 1013.9492 1013.9755 1014.0088 1014.0461 1014.0823 1014.1118 1014.1315 1014.141 1014.2974 1014.3066 1014.3254 1014.3502 1014.3786 1014.4065 1014.4283 1014.4416 1014.4473 1014.6896 1014.706 1014.7278 1014.751 1014.7748 1014.7966 1014.812 1014.8198 1014.8216 1014.7728 1014.8071 1014.8398 1014.868 1014.893 1014.913 1014.9254 1014.9297 1014.929 1014.5773 1014.634 1014.6821 1014.7201 1014.7502 1014.7723 1014.7848 1014.7888 1014.7873 1014.2165 1014.2962 1014.3599 1014.4077 1014.444 1014.4697 1014.4844 1014.489 1014.4884 1013.7734 1013.8725 1013.9472 1014.0008 1014.0405 1014.0681 1014.0841 1014.0903 1014.0902 1013.2597 1013.3698 1013.4469 1013.4991 1013.5369 1013.5626 1013.5776 1013.5829 1013.5827 1012.6295 1012.7401 1012.8109 1012.8552 1012.8852 1012.9058 1012.9171 1012.921 1012.9196 1011.837 1011.941 1012.0005 1012.0333 1012.0538 1012.0678 1012.0751 1012.0768 1012.075 1010.8826 1010.9776 1011.0262 1011.0487 1011.0609 1011.0696 1011.0746 1011.075 1011.0732 1009.8138 1009.9022 1009.9439 1009.9603 1009.9686 1009.9745 1009.9784 1009.9795 1009.9785 1008.7016 1008.7885 1008.8293 1008.8465 1008.855 1008.8613 1008.8661 1008.8684 1008.8691 1007.6164 1007.7048 1007.7529 1007.7767 1007.7899 1007.7988 1007.8055 1007.8099 1007.8117 1006.6097 1006.7 1006.7603 1006.7969 1006.8192 1006.8332 1006.8423 1006.8484 1006.8515 1005.7111 1005.7969 1005.8699 1005.9239 1005.9598 1005.9821 1005.9957 1006.0038 1006.0081 1004.9301 1005.0024 1005.0809 1005.1526 1005.2067 1005.2424 1005.2639 1005.2759 1005.2817 1004.2719 1004.3192 1004.3904 1004.4712 1004.5437 1004.5976 1004.6323 1004.6523 1004.6622 1003.7384 1003.7527 1003.8013 1003.8754 1003.9556 1004.0255 1004.0764 1004.1089 1004.126 1003.3177 1003.3099 1003.3242 1003.3732 1003.4434 1003.5157 1003.5768 1003.6203 1003.6458 1002.9441 1002.9747 1002.9683 1002.9795 1003.0188 1003.0743 1003.1299 1003.1751 1003.2043 1002.5314 1002.6533 1002.7045 1002.702 1002.7001 1002.7185 1002.7503 1002.783 1002.8067 1002.0767 1002.2577 1002.4002 1002.4732 1002.4811 1002.4658 1002.4598 1002.4654 1002.4743 1001.8127 1001.9036 1002.0145 1002.1296 1002.2188 1002.2571 1002.256 1002.2437 1002.2366 1001.8344 1001.7997 1001.8245 1001.8582 1001.9022 1001.9371 1001.9578 1001.9655 1001.8275 1001.7476 1001.7291 1001.6931 1001.6606 1001.6345 1001.8903 1001.851 1001.8137 1001.7816 1000.076 1000.076 1000.076 1000.076 1000.0759 1000.0754 1000.075 1000.0737 1000.09 1000.09 1000.09 1000.09 1000.09 1000.0895 1000.0891 1000.0879 1000.1021 1000.1021 1000.1022 1000.1022 1000.1022 1000.1021 1000.1014 1000.1006 1000.1142 1000.1142 1000.1142 1000.1144 1000.1146 1000.1146 1000.1141 1000.1135 1000.1276 1000.1276 1000.1279 1000.1281 1000.1283 1000.1286 1000.1286 1000.1283 1000.144 1000.1442 1000.1443 1000.1447 1000.1454 1000.1458 1000.1461 1000.1462 1000.1635 1000.1636 1000.1641 1000.1647 1000.1656 1000.1664 1000.1674 1000.1678 1000.1867 1000.1871 1000.1876 1000.1884 1000.1895 1000.1908 1000.1922 1000.1933 1000.2138 1000.2141 1000.2147 1000.2157 1000.2174 1000.2192 1000.2211 1000.223 1000.2446 1000.245 1000.2457 1000.2472 1000.249 1000.2513 1000.2538 1000.2565 1000.2802 1000.2806 1000.2816 1000.2831 1000.2853 1000.288 1000.2913 1000.2943 1000.3207 1000.321 1000.3221 1000.3239 1000.3262 1000.3294 1000.3331 1000.337 1000.3667 1000.3671 1000.3683 1000.3703 1000.3731 1000.3764 1000.3804 1000.3847 1000.4191 1000.4195 1000.4208 1000.4229 1000.4258 1000.4295 1000.4339 1000.4382 1000.4783 1000.4788 1000.48 1000.4823 1000.4851 1000.4893 1000.4937 1000.4984 1000.5454 1000.5459 1000.5471 1000.5494 1000.5528 1000.5568 1000.5612 1000.5657 1000.6209 1000.6215 1000.6227 1000.6251 1000.6285 1000.6325 1000.6371 1000.6418 1000.7059 1000.7064 1000.7077 1000.7103 1000.7139 1000.718 1000.7231 1000.7277 1000.8005 1000.8011 1000.8027 1000.8054 1000.8091 1000.8137 1000.819 1000.8245 1000.9053 1000.9061 1000.908 1000.9109 1000.9153 1000.9206 1000.9266 1000.933 1001.0208 1001.0215 1001.0236 1001.0274 1001.0326 1001.0389 1001.0466 1001.0544 1001.1459 1001.1467 1001.1497 1001.1544 1001.1608 1001.1689 1001.1786 1001.189 1001.2798 1001.2811 1001.2849 1001.291 1001.2993 1001.3098 1001.3225 1001.3362 1001.4217 1001.4233 1001.4278 1001.4357 1001.4465 1001.4605 1001.4772 1001.4957 1001.5651 1001.5669 1001.5728 1001.5826 1001.5965 1001.6144 1001.6364 1001.6616 1001.7001 1001.7026 1001.7094 1001.7218 1001.7386 1001.7614 1001.7896 1001.8217 1001.8185 1001.8215 1001.8297 1001.8441 1001.8647 1001.8922 1001.9269 1001.9676 1001.9155 1001.9187 1001.9283 1001.9448 1001.9683 1002.0004 1002.0414 1002.0898 1002.0186 1002.0222 1002.0327 1002.0505 1002.0767 1002.1124 1002.158 1002.2114 1002.2437 1002.2474 1002.2585 1002.2767 1002.3037 1002.3408 1002.3877 1002.4406 1002.9019 1002.9055 1002.9163 1002.9343 1002.9604 1002.9956 1003.038 1003.0829 1004.6191 1004.6225 1004.6323 1004.6486 1004.6712 1004.7001 1004.7322 1004.7601 1007.9626 1007.9654 1007.9734 1007.9855 1008.0021 1008.0201 1008.0355 1008.0399 1012.0681 1012.0699 1012.0751 1012.082 1012.0886 1012.0925 1012.0883 1012.0674 1014.7909 1014.7913 1014.7928 1014.7926 1014.7881 1014.777 1014.7532 1014.7103 1015.4442 1015.4434 1015.4398 1015.4313 1015.415 1015.389 1015.3503 1015.2936 1014.9641 1014.9618 1014.9533 1014.9363 1014.9088 1014.8707 1014.8219 1014.761 1014.3479 1014.3444 1014.3325 1014.3099 1014.2753 1014.2308 1014.179 1014.1226 1014.0632 1014.0596 1014.0472 1014.024 1013.989 1013.9459 1013.8991 1013.8535 1014.1436 1014.141 1014.1315 1014.1118 1014.0823 1014.0461 1014.0088 1013.9755 1014.4487 1014.4473 1014.4416 1014.4283 1014.4065 1014.3786 1014.3502 1014.3254 1014.8215 1014.8216 1014.8198 1014.812 1014.7966 1014.7748 1014.751 1014.7278 1014.9282 1014.929 1014.9297 1014.9254 1014.913 1014.893 1014.868 1014.8398 1014.7862 1014.7873 1014.7888 1014.7848 1014.7723 1014.7502 1014.7201 1014.6821 1014.4875 1014.4883 1014.489 1014.4844 1014.4697 1014.444 1014.4077 1014.3599 1014.089 1014.0902 1014.0903 1014.0841 1014.0681 1014.0405 1014.0008 1013.9472 1013.5818 1013.5827 1013.5829 1013.5776 1013.5626 1013.5369 1013.4991 1013.4469 1012.9185 1012.9196 1012.921 1012.9171 1012.9058 1012.8852 1012.8552 1012.8109 1012.0737 1012.075 1012.0768 1012.0751 1012.0678 1012.0538 1012.0333 1012.0005 1011.0723 1011.0732 1011.075 1011.0746 1011.0696 1011.0609 1011.0487 1011.0262 1009.9777 1009.9785 1009.9795 1009.9784 1009.9745 1009.9686 1009.9603 1009.9439 1008.869 1008.8691 1008.8684 1008.8661 1008.8613 1008.855 1008.8465 1008.8293 1007.8123 1007.8117 1007.8099 1007.8055 1007.7988 1007.7899 1007.7767 1007.7529 1006.8526 1006.8515 1006.8484 1006.8423 1006.8332 1006.8192 1006.7969 1006.7603 1006.0093 1006.0081 1006.0038 1005.9957 1005.9821 1005.9598 1005.9239 1005.8699 1005.2833 1005.2817 1005.2759 1005.2639 1005.2424 1005.2067 1005.1526 1005.0809 1004.6652 1004.6622 1004.6523 1004.6323 1004.5976 1004.5437 1004.4712 1004.3904 1004.1317 1004.126 1004.1089 1004.0764 1004.0255 1003.9556 1003.8754 1003.8013 1003.6541 1003.6458 1003.6203 1003.5768 1003.5157 1003.4434 1003.3732 1003.3242 1003.2141 1003.2043 1003.1751 1003.1299 1003.0743 1003.0188 1002.9795 1002.9683 1002.8152 1002.8067 1002.783 1002.7503 1002.7185 1002.7001 1002.702 1002.7045 1002.4781 1002.4743 1002.4654 1002.4598 1002.4658 1002.4811 1002.4732 1002.4002 1002.2344 1002.2366 1002.2437 1002.256 1002.2571 1002.2188 1002.1296 1002.0145 1001.9678 1001.9655 1001.9578 1001.9371 1001.9022 1001.8582 1001.8245 1001.7997 1001.6247 1001.6345 1001.6606 1001.6931 1001.7291 1001.7476 1001.8275 1001.7689 1001.7816 1001.8137 1001.851 1001.8903 1000.0724 1000.0701 1000.067 1000.063 1000.0576 1000.0507 1000.0425 1000.0863 1000.0837 1000.0804 1000.0759 1000.0698 1000.0621 1000.0527 1000.0415 1000.0988 1000.0964 1000.093 1000.0882 1000.0817 1000.0731 1000.0623 1000.0497 1000.112 1000.1097 1000.1063 1000.1014 1000.0944 1000.0848 1000.0728 1000.0582 1000.1271 1000.1251 1000.1217 1000.1169 1000.1092 1000.0986 1000.0851 1000.0685 1000.1454 1000.1437 1000.1407 1000.1357 1000.1277 1000.1166 1000.1016 1000.0826 1000.1677 1000.1666 1000.1639 1000.1588 1000.1514 1000.1407 1000.1252 1000.105 1000.1938 1000.1935 1000.1913 1000.1876 1000.1818 1000.1734 1000.1608 1000.1405 1000.2243 1000.2243 1000.2236 1000.2217 1000.2198 1000.2171 1000.2115 1000.1946 1000.2586 1000.2597 1000.2602 1000.2612 1000.2643 1000.2707 1000.2767 1000.2703 1000.2973 1000.2993 1000.301 1000.3044 1000.3132 1000.3294 1000.3503 1000.3603 1000.3405 1000.343 1000.3455 1000.3508 1000.3631 1000.3866 1000.4186 1000.4352 1000.3885 1000.3912 1000.3937 1000.399 1000.4118 1000.4349 1000.4617 1000.4575 1000.442 1000.4448 1000.4467 1000.4504 1000.4598 1000.4759 1000.4857 1000.4641 1000.5021 1000.5043 1000.5056 1000.5075 1000.512 1000.519 1000.515 1000.4904 1000.5692 1000.5714 1000.572 1000.5721 1000.5731 1000.5734 1000.5638 1000.5415 1000.6453 1000.6472 1000.6476 1000.6468 1000.6457 1000.6435 1000.6333 1000.6144 1000.7315 1000.7334 1000.7336 1000.7324 1000.7307 1000.7285 1000.7194 1000.7037 1000.8287 1000.8311 1000.8314 1000.8303 1000.8287 1000.8271 1000.8194 1000.8049 1000.9383 1000.9417 1000.9427 1000.9421 1000.9407 1000.9404 1000.9341 1000.9195 1001.0613 1001.0663 1001.0687 1001.0692 1001.0688 1001.07 1001.0654 1001.0505 1001.1984 1001.2059 1001.2104 1001.213 1001.2148 1001.2183 1001.2157 1001.2017 1001.3494 1001.3602 1001.3685 1001.3748 1001.3802 1001.3875 1001.3873 1001.3749 1001.5143 1001.5305 1001.5436 1001.5551 1001.5668 1001.5798 1001.5825 1001.5725 1001.6867 1001.7096 1001.7302 1001.7492 1001.7705 1001.7937 1001.8 1001.7916 1001.8553 1001.8871 1001.916 1001.9453 1001.98 1002.0194 1002.0317 1002.0233 1002.0104 1002.0511 1002.0891 1002.1288 1002.1803 1002.2449 1002.2677 1002.2565 1002.1406 1002.1885 1002.2332 1002.2817 1002.3513 1002.449 1002.4905 1002.4758 1002.2664 1002.3164 1002.3618 1002.4128 1002.4973 1002.6321 1002.702 1002.685 1002.4921 1002.5355 1002.5712 1002.6148 1002.7039 1002.8691 1002.9694 1002.9542 1003.1215 1003.1459 1003.1597 1003.1816 1003.2595 1003.4275 1003.5381 1003.5287 1004.7745 1004.7689 1004.7477 1004.7354 1004.7834 1004.909 1004.9593 1004.947 1008.0231 1007.9792 1007.9163 1007.863 1007.8468 1007.8375 1007.7761 1007.7345 1012.0189 1011.9385 1011.8374 1011.7357 1011.6091 1011.4162 1011.2626 1011.1685 1014.6386 1014.535 1014.4099 1014.2643 1014.0299 1013.7361 1013.5589 1013.4258 1015.213 1015.1053 1014.9755 1014.805 1014.5245 1014.2297 1014.1269 1014.0199 1014.6851 1014.5917 1014.4772 1014.3197 1014.0773 1013.8796 1013.8828 1013.8268 1014.0613 1013.9962 1013.928 1013.8445 1013.7225 1013.6625 1013.6764 1013.6548 1013.8111 1013.775 1013.7515 1013.7382 1013.723 1013.7729 1013.7599 1013.7863 1013.9492 1013.9333 1013.9384 1013.9678 1014.014 1014.1195 1014.085 1014.1521 1014.3066 1014.2974 1014.3104 1014.351 1014.4111 1014.5229 1014.479 1014.5764 1014.706 1014.6896 1014.6921 1014.7174 1014.754 1014.8395 1014.7977 1014.9096 1014.8071 1014.7728 1014.7526 1014.7487 1014.7486 1014.8051 1014.7672 1014.8788 1014.634 1014.5773 1014.5273 1014.4875 1014.4481 1014.4745 1014.4328 1014.53 1014.2962 1014.2165 1014.1346 1014.0559 1013.9761 1013.9672 1013.908 1013.9792 1013.8725 1013.7734 1013.6614 1013.5439 1013.423 1013.3706 1013.2766 1013.3081 1013.3698 1013.2597 1013.1233 1012.9737 1012.8129 1012.7068 1012.5649 1012.5427 1012.7401 1012.6295 1012.4796 1012.3028 1012.1152 1011.9538 1011.7622 1011.6724 1011.941 1011.837 1011.6835 1011.4878 1011.2758 1011.082 1010.843 1010.6864 1010.9776 1010.8826 1010.7311 1010.5271 1010.2934 1010.0857 1009.8168 1009.608 1009.9022 1009.8138 1009.6663 1009.4633 1009.2211 1009.009 1008.7389 1008.499 1008.7885 1008.7016 1008.5593 1008.3647 1008.1299 1007.9285 1007.6791 1007.431 1007.7048 1007.6164 1007.4825 1007.3043 1007.0912 1006.9094 1006.6832 1006.424 1006.7 1006.6097 1006.4906 1006.3387 1006.1549 1005.9855 1005.7558 1005.4471 1005.7969 1005.7111 1005.6146 1005.4966 1005.3555 1005.1995 1004.9286 1004.5397 1005.0024 1004.9301 1004.8651 1004.7881 1004.6945 1004.5635 1004.2311 1004.3192 1004.2719 1004.2431 1004.204 1004.1482 1003.9943 1003.6378 1003.7527 1003.7384 1003.7356 1003.7029 1003.6425 1003.4147 1003.3099 1003.3177 1003.2966 1003.2289 1003.0795 1002.8679 1002.9747 1002.9441 1002.8511 1002.7122 1002.5239 1002.6533 1002.5314 1002.3406 1002.1964 1002.2577 1002.0767 1001.8771 1001.9984 1001.9036 1001.8127 1001.8344 
Mass 1 2975 float
0.40000001 0.40000001 0.40000001 0.40000001 0.40000001 0.40000001 0.40000001 0.40000001 0.40000001 0.40000001 0.40000001 0.40000001 0.40000001 0.40000001 0.40000001 0.40000001 0.40000001 0.40000001 0.40000001 0.40000001 0.40000001 0.40000001 0.40000001 0.40000001 0.40000001 0.40000001 0.40000001 0.40000001 0.40000001 0.40000001 0.40000001 0.40000001 0.40000001 0.40000001 0.40000001 0.40000001 0.40000001 0.40000001 0.40000001 0.40000001 0.40000001 0.40000001 0.40000001 0.40000001 0.40000001 0.40000001 0.40000001 0.40000001 0.40000001 0.40000001 0.40000001 0.40000001 0.40000001 0.40000001 0.40000001 0.40000001 0.40000001 0.40000001 0.40000001 0.40000001 0.40000001 0.40000001 0.40000001 0.40000001 0.40000001 0.40000001 0.40000001 0.40000001 0.40000001 0.40000001 0.40000001 0.40000001 0.40000001 0.40000001 0.40000001 0.40000001 0.40000001 0.40000001 0.40000001 0.40000001 0.40000001 0.40000001 0.40000001 0.40000001 0.40000001 0.40000001 0.40000001 0.40000001 0.40000001 0.40000001 0.40000001 0.40000001 0.40000001 0.40000001 0.40000001 0.40000001 0.40000001 0.40000001 0.40000001 0.40000001 0.40000001 0.40000001 0.40000001 0.40000001 0.40000001 0.40000001 0.40000001 0.40000001 0.40000001 0.40000001 0.40000001 0.40000001 0.40000001 0.40000001 0.40000001 0.40000001 0.40000001 0.40000001 0.40000001 0.40000001 0.40000001 0.40000001 0.40000001 0.40000001 0.40000001 0.40000001 0.40000001 0.40000001 0.40000001 0.40000001 0.40000001 0.40000001 0.40000001 0.40000001 0.40000001 0.40000001 0.40000001 0.40000001 0.40000001 0.40000001 0.40000001 0.40000001 0.40000001 0.40000001 0.40000001 0.40000001 0.40000001 0.40000001 0.40000001 0.40000001 0.40000001 0.40000001 0.40000001 0.40000001 0.40000001 0.40000001 0.40000001 0.40000001 0.40000001 0.40000001 0.40000001 0.40000001 0.40000001 0.40000001 0.40000001 0.40000001 0.40000001 0.40000001 0.40000001 0.40000001 0.40000001 0.40000001 0.40000001 0.40000001 0.40000001 0.40000001 0.40000001 0.40000001 0.40000001 0.40000001 0.40000001 0.40000001 0.40000001 0.40000001 0.40000001 0.40000001 0.40000001 0.40000001 0.40000001 0.40000001 0.40000001 0.40000001 0.40000001 0.40000001 0.40000001 0.40000001 0.40000001 0.40000001 0.40000001 0.40000001 0.40000001 0.40000001 0.40000001 0.40000001 0.40000001 0.40000001 0.40000001 0.40000001 0.40000001 0.40000001 0.40000001 0.40000001 0.40000001 0.40000001 0.40000001 0.40000001 0.40000001 0.40000001 0.40000001 0.40000001 0.40000001 0.40000001 0.40000001 0.40000001 0.40000001 0.40000001 0.40000001 0.40000001 0.40000001 0.40000001 0.40000001 0.40000001 0.40000001 0.40000001 0.40000001 0.40000001 0.40000001 0.40000001 0.40000001 0.40000001 0.40000001 0.40000001 0.40000001 0.40000001 0.40000001 0.40000001 0.40000001 0.40000001 0.40000001 0.40000001 0.40000001 0.40000001 0.40000001 0.40000001 0.40000001 0.40000001 0.40000001 0.40000001 0.40000001 0.40000001 0.40000001 0.40000001 0.40000001 0.40000001 0.40000001 0.40000001 0.40000001 0.40000001 0.40000001 0.40000001 0.40000001 0.40000001 0.40000001 0.40000001 0.40000001 0.40000001 0.40000001 0.40000001 0.40000001 0.40000001 0.40000001 0.40000001 0.40000001 0.40000001 0.40000001 0.40000001 0.40000001 0.40000001 0.40000001 0.40000001 0.40000001 0.40000001 0.40000001 0.40000001 0.40000001 0.40000001 0.40000001 0.40000001 0.40000001 0.40000001 0.40000001 0.40000001 0.40000001 0.40000001 0.40000001 0.40000001 0.40000001 0.40000001 0.40000001 0.40000001 0.40000001 0.40000001 0.40000001 0.40000001 0.40000001 0.40000001 0.40000001 0.40000001 0.40000001 0.40000001 0.40000001 0.40000001 0.40000001 0.40000001 0.40000001 0.40000001 0.40000001 0.40000001 0.40000001 0.40000001 0.40000001 0.40000001 0.40000001 0.40000001 0.40000001 0.40000001 0.40000001 0.40000001 0.40000001 0.40000001 0.40000001 0.40000001 0.40000001 0.40000001 0.40000001 0.40000001 0.40000001 0.40000001 0.40000001 0.40000001 0.40000001 0.40000001 0.40000001 0.40000001 0.40000001 0.40000001 0.40000001 0.40000001 0.40000001 0.40000001 0.40000001 0.40000001 0.40000001 0.40000001 0.40000001 0.40000001 0.40000001 0.40000001 0.40000001 0.40000001 0.40000001 0.40000001 0.40000001 0.40000001 0.40000001 0.40000001 0.40000001 0.40000001 0.40000001 0.40000001 0.40000001 0.40000001 0.40000001 0.40000001 0.40000001 0.40000001 0.40000001 0.40000001 0.40000001 0.40000001 0.40000001 0.40000001 0.40000001 0.40000001 0.40000001 0.40000001 0.40000001 0.40000001 0.40000001 0.40000001 0.40000001 0.40000001 0.40000001 0.40000001 0.40000001 0.40000001 0.40000001 0.40000001 0.40000001 0.40000001 0.40000001 0.40000001 0.40000001 0.40000001 0.40000001 0.40000001 0.40000001 0.40000001 0.40000001 0.40000001 0.40000001 0.40000001 0.40000001 0.40000001 0.40000001 0.40000001 0.40000001 0.40000001 0.40000001 0.40000001 0.40000001 0.40000001 0.40000001 0.40000001 0.40000001 0.40000001 0.40000001 0.40000001 0.40000001 0.40000001 0.40000001 0.40000001 0.40000001 0.40000001 0.40000001 0.40000001 0.40000001 0.40000001 0.40000001 0.40000001 0.40000001 0.40000001 0.40000001 0.40000001 0.40000001 0.40000001 0.40000001 0.40000001 0.40000001 0.40000001 0.40000001 0.40000001 0.40000001 0.40000001 0.40000001 0.40000001 0.40000001 0.40000001 0.40000001 0.40000001 0.40000001 0.40000001 0.40000001 0.40000001 0.40000001 0.40000001 0.40000001 0.40000001 0.40000001 0.40000001 0.40000001 0.40000001 0.40000001 0.40000001 0.40000001 0.40000001 0.40000001 0.40000001 0.40000001 0.40000001 0.40000001 0.40000001 0.40000001 0.40000001 0.40000001 0.40000001 0.40000001 0.40000001 0.40000001 0.40000001 0.40000001 0.40000001 0.40000001 0.40000001 0.40000001 0.40000001 0.40000001 0.40000001 0.40000001 0.40000001 0.40000001 0.40000001 0.40000001 0.40000001 0.40000001 0.40000001 0.40000001 0.40000001 0.40000001 0.40000001 0.40000001 0.40000001 0.40000001 0.40000001 0.40000001 0.40000001 0.40000001 0.40000001 0.40000001 0.40000001 0.40000001 0.40000001 0.40000001 0.40000001 0.40000001 0.40000001 0.40000001 0.40000001 0.40000001 0.40000001 0.40000001 0.40000001 0.40000001 0.40000001 0.40000001 0.40000001 0.40000001 0.40000001 0.40000001 0.40000001 0.40000001 0.40000001 0.40000001 0.40000001 0.40000001 0.40000001 0.40000001 0.40000001 0.40000001 0.40000001 0.40000001 0.40000001 0.40000001 0.40000001 0.40000001 0.40000001 0.40000001 0.40000001 0.40000001 0.40000001 0.40000001 0.40000001 0.40000001 0.40000001 0.40000001 0.40000001 0.40000001 0.40000001 0.40000001 0.40000001 0.40000001 0.40000001 0.40000001 0.40000001 0.40000001 0.40000001 0.40000001 0.40000001 0.40000001 0.40000001 0.40000001 0.40000001 0.40000001 0.40000001 0.40000001 0.40000001 0.40000001 0.40000001 0.40000001 0.40000001 0.40000001 0.40000001 0.40000001 0.40000001 0.40000001 0.40000001 0.40000001 0.40000001 0.40000001 0.40000001 0.40000001 0.40000001 0.40000001 0.40000001 0.40000001 0.40000001 0.40000001 0.40000001 0.40000001 0.40000001 0.40000001 0.40000001 0.40000001 0.40000001 0.40000001 0.40000001 0.40000001 0.40000001 0.40000001 0.40000001 0.40000001 0.40000001 0.40000001 0.40000001 0.40000001 0.40000001 0.40000001 0.40000001 0.40000001 0.40000001 0.40000001 0.40000001 0.40000001 0.40000001 0.40000001 0.40000001 0.40000001 0.40000001 0.40000001 0.40000001 0.40000001 0.40000001 0.40000001 0.40000001 0.40000001 0.40000001 0.40000001 0.40000001 0.40000001 0.40000001 0.40000001 0.40000001 0.40000001 0.40000001 0.40000001 0.40000001 0.40000001 0.40000001 0.40000001 0.40000001 0.40000001 0.40000001 0.40000001 0.40000001 0.40000001 0.40000001 0.40000001 0.40000001 0.40000001 0.40000001 0.40000001 0.40000001 0.40000001 0.40000001 0.40000001 0.40000001 0.40000001 0.40000001 0.40000001 0.40000001 0.40000001 0.40000001 0.40000001 0.40000001 0.40000001 0.40000001 0.40000001 0.40000001 0.40000001 0.40000001 0.40000001 0.40000001 0.40000001 0.40000001 0.40000001 0.40000001 0.40000001 0.40000001 0.40000001 0.40000001 0.40000001 0.40000001 0.40000001 0.40000001 0.40000001 0.40000001 0.40000001 0.40000001 0.40000001 0.40000001 0.40000001 0.40000001 0.40000001 0.40000001 0.40000001 0.40000001 0.40000001 0.40000001 0.40000001 0.40000001 0.40000001 0.40000001 0.40000001 0.40000001 0.40000001 0.40000001 0.40000001 0.40000001 0.40000001 0.40000001 0.40000001 0.40000001 0.40000001 0.40000001 0.40000001 0.40000001 0.40000001 0.40000001 0.40000001 0.40000001 0.40000001 0.40000001 0.40000001 0.40000001 0.40000001 0.40000001 0.40000001 0.40000001 0.40000001 0.40000001 0.40000001 0.40000001 0.40000001 0.40000001 0.40000001 0.40000001 0.40000001 0.40000001 0.40000001 0.40000001 0.40000001 0.40000001 0.40000001 0.40000001 0.40000001 0.40000001 0.40000001 0.40000001 0.40000001 0.40000001 0.40000001 0.40000001 0.40000001 0.40000001 0.40000001 0.40000001 0.40000001 0.40000001 0.40000001 0.40000001 0.40000001 0.40000001 0.40000001 0.40000001 0.40000001 0.40000001 0.40000001 0.40000001 0.40000001 0.40000001 0.40000001 0.40000001 0.40000001 0.40000001 0.40000001 0.40000001 0.40000001 0.40000001 0.40000001 0.40000001 0.40000001 0.40000001 0.40000001 0.40000001 0.40000001 0.40000001 0.40000001 0.40000001 0.40000001 0.40000001 0.40000001 0.40000001 0.40000001 0.40000001 0.40000001 0.40000001 0.40000001 0.40000001 0.40000001 0.40000001 0.40000001 0.40000001 0.40000001 0.40000001 0.40000001 0.40000001 0.40000001 0.40000001 0.40000001 0.40000001 0.40000001 0.40000001 0.40000001 0.40000001 0.40000001 0.40000001 0.40000001 0.40000001 0.40000001 0.40000001 0.40000001 0.40000001 0.40000001 0.40000001 0.40000001 0.40000001 0.40000001 0.40000001 0.40000001 0.40000001 0.40000001 0.40000001 0.40000001 0.40000001 0.40000001 0.40000001 0.40000001 0.40000001 0.40000001 0.40000001 0.40000001 0.40000001 0.40000001 0.40000001 0.40000001 0.40000001 0.40000001 0.40000001 0.40000001 0.40000001 0.40000001 0.40000001 0.40000001 0.40000001 0.40000001 0.40000001 0.40000001 0.40000001 0.40000001 0.40000001 0.40000001 0.40000001 0.40000001 0.40000001 0.40000001 0.40000001 0.40000001 0.40000001 0.40000001 0.40000001 0.40000001 0.40000001 0.40000001 0.40000001 0.40000001 0.40000001 0.40000001 0.40000001 0.40000001 0.40000001 0.40000001 0.40000001 0.40000001 0.40000001 0.40000001 0.40000001 0.40000001 0.40000001 0.40000001 0.40000001 0.40000001 0.40000001 0.40000001 0.40000001 0.40000001 0.40000001 0.40000001 0.40000001 0.40000001 0.40000001 0.40000001 0.40000001 0.40000001 0.40000001 0.40000001 0.40000001 0.40000001 0.40000001 0.40000001 0.40000001 0.40000001 0.40000001 0.40000001 0.40000001 0.40000001 0.40000001 0.40000001 0.40000001 0.40000001 0.40000001 0.40000001 0.40000001 0.40000001 0.40000001 0.40000001 0.40000001 0.40000001 0.40000001 0.40000001 0.40000001 0.40000001 0.40000001 0.40000001 0.40000001 0.40000001 0.40000001 0.40000001 0.40000001 0.40000001 0.40000001 0.40000001 0.40000001 0.40000001 0.40000001 0.40000001 0.40000001 0.40000001 0.40000001 0.40000001 0.40000001 0.40000001 0.40000001 0.40000001 0.40000001 0.40000001 0.40000001 0.40000001 0.40000001 0.40000001 0.40000001 0.40000001 0.40000001 0.40000001 0.40000001 0.40000001 0.40000001 0.40000001 0.40000001 0.40000001 0.40000001 0.40000001 0.40000001 0.40000001 0.40000001 0.40000001 0.40000001 0.40000001 0.40000001 0.40000001 0.40000001 0.40000001 0.40000001 0.40000001 0.40000001 0.40000001 0.40000001 0.40000001 0.40000001 0.40000001 0.40000001 0.40000001 0.40000001 0.40000001 0.40000001 0.40000001 0.40000001 0.40000001 0.40000001 0.40000001 0.40000001 0.40000001 0.40000001 0.40000001 0.40000001 0.40000001 0.40000001 0.40000001 0.40000001 0.40000001 0.40000001 0.40000001 0.40000001 0.40000001 0.40000001 0.40000001 0.40000001 0.40000001 0.40000001 0.40000001 0.40000001 0.40000001 0.40000001 0.40000001 0.40000001 0.40000001 0.40000001 0.40000001 0.40000001 0.40000001 0.40000001 0.40000001 0.40000001 0.40000001 0.40000001 0.40000001 0.40000001 0.40000001 0.40000001 0.40000001 0.40000001 0.40000001 0.40000001 0.40000001 0.40000001 0.40000001 0.40000001 0.40000001 0.40000001 0.40000001 0.40000001 0.40000001 0.40000001 0.40000001 0.40000001 0.40000001 0.40000001 0.40000001 0.40000001 0.40000001 0.40000001 0.40000001 0.40000001 0.40000001 0.40000001 0.40000001 0.40000001 0.40000001 0.40000001 0.40000001 0.40000001 0.40000001 0.40000001 0.40000001 0.40000001 0.40000001 0.40000001 0.40000001 0.40000001 0.40000001 0.40000001 0.40000001 0.40000001 0.40000001 0.40000001 0.40000001 0.40000001 0.40000001 0.40000001 0.40000001 0.40000001 0.40000001 0.40000001 0.40000001 0.40000001 0.40000001 0.40000001 0.40000001 0.40000001 0.40000001 0.40000001 0.40000001 0.40000001 0.40000001 0.40000001 0.40000001 0.40000001 0.40000001 0.40000001 0.40000001 0.40000001 0.40000001 0.40000001 0.40000001 0.40000001 0.40000001 0.40000001 0.40000001 0.40000001 0.40000001 0.40000001 0.40000001 0.40000001 0.40000001 0.40000001 0.40000001 0.40000001 0.40000001 0.40000001 0.40000001 0.40000001 0.40000001 0.40000001 0.40000001 0.40000001 0.40000001 0.40000001 0.40000001 0.40000001 0.40000063 0.40000075 0.40000078 0.40000063 0.40000075 0.40000075 0.40000206 0.40000203 0.40000215 0.400002 0.40000206 0.40000206 0.4000048 0.40000492 0.40000483 0.40000489 0.4000048 0.40000492 0.40001333 0.40001333 0.40001324 0.40001333 0.4000133 0.40001333 0.40003589 0.40003586 0.40003592 0.40003595 0.40003601 0.40003598 0.40009663 0.40009665 0.40009663 0.40009671 0.40009686 0.40009677 0.40025771 0.40025786 0.40025795 0.40025797 0.400258 0.40025815 0.40066683 0.40066713 0.40066734 0.40066761 0.40066794 0.40066788 0.40160507 0.40160576 0.40160641 0.40160692 0.40160736 0.40160757 0.40333158 0.40333286 0.40333366 0.40333432 0.40333498 0.40333539 0.40551752 0.4055188 0.40551922 0.40551934 0.40551963 0.40552002 0.40727627 0.40727672 0.40727657 0.40727586 0.4072752 0.40727508 0.40824538 0.40824515 0.40824458 0.40824339 0.40824214 0.40824148 0.40867072 0.40867075 0.40867046 0.40866894 0.40866774 0.40866709 0.40883806 0.40883827 0.40883818 0.40883714 0.40883616 0.40883541 0.40890041 0.40890065 0.4089008 0.40890011 0.40889946 0.40889877 0.40892249 0.40892291 0.40892297 0.4089224 0.4089219 0.40892133 0.40892881 0.40892923 0.40892917 0.40892869 0.40892836 0.40892774 0.4089168 0.40891725 0.40891731 0.40891686 0.40891626 0.4089157 0.4087719 0.40877229 0.40877214 0.40877163 0.40877104 0.40877044 0.40848705 0.40848732 0.40848723 0.4084866 0.40848595 0.40848544 0.40807864 0.40807867 0.40807852 0.40807787 0.40807709 0.40807655 0.4075686 0.40756851 0.40756825 0.4075675 0.40756676 0.40756634 0.40698358 0.40698332 0.40698284 0.40698218 0.40698153 0.40698102 0.40635163 0.40635121 0.40635085 0.40635011 0.40634969 0.40634936 0.40570065 0.40570015 0.40569976 0.40569919 0.4056989 0.40569869 0.40505561 0.40505505 0.40505472 0.4050543 0.40505421 0.40505391 0.40443748 0.40443715 0.40443677 0.40443662 0.40443653 0.40443638 0.40386286 0.4038628 0.40386286 0.40386277 0.40386266 0.40386271 0.40334377 0.4033438 0.40334398 0.40334409 0.40334412 0.40334412 0.4028869 0.40288699 0.40288711 0.40288725 0.40288746 0.40288755 0.4024947 0.40249494 0.40249488 0.40249521 0.40249524 0.4024955 0.40216601 0.40216601 0.40216622 0.40216643 0.40216652 0.40189636 0.40189648 0.4018966 0.4018966 0.40189686 0.40168026 0.40168026 0.40168041 0.40168053 0.40151072 0.40151072 0.40151075 0.40151092 0.40138048 0.40138051 0.40138054 0.40128261 0.40128252 0.40121025 0.40121043 0.40000001 0.40000001 0.40000001 0.40000001 0.40000001 0.40000001 0.40000001 0.40000001 0.40000001 0.40000001 0.40000001 0.40000001 0.40000001 0.40000001 0.40000001 0.40000001 0.40000001 0.40000001 0.40000001 0.40000001 0.40000001 0.40000001 0.40000001 0.40000001 0.40000001 0.40000001 0.40000001 0.40000001 0.40000001 0.40000001 0.40000001 0.40000001 0.40000001 0.40000001 0.40000001 0.40000001 0.40000001 0.40000001 0.40000001 0.40000001 0.40000001 0.40000001 0.40000001 0.40000001 0.40000001 0.40000001 0.40000001 0.40000001 0.40000001 0.40000001 0.40000001 0.40000001 0.40000001 0.40000001 0.40000001 0.40000001 0.40000001 0.40000001 0.40000001 0.40000001 0.40000001 0.40000001 0.40000001 0.40000001 0.40000001 0.40000001 0.40000001 0.40000001 0.40000001 0.40000001 0.40000001 0.40000001 0.40000001 0.40000001 0.40000001 0.40000001 0.40000001 0.40000001 0.40000001 0.40000001 0.40000001 0.40000001 0.40000001 0.40000001 0.40000001 0.40000001 0.40000001 0.40000001 0.40000001 0.40000001 0.40000001 0.40000001 0.40000001 0.40000001 0.40000001 0.40000001 0.40000001 0.40000001 0.40000001 0.40000001 0.40000001 0.40000001 0.40000001 0.40000001 0.40000001 0.40000001 0.40000001 0.40000001 0.40000001 0.40000001 0.40000001 0.40000001 0.40000001 0.40000001 0.40000001 0.40000001 0.40000001 0.40000001 0.40000001 0.40000001 0.40000001 0.40000001 0.40000001 0.40000001 0.40000001 0.40000001 0.40000001 0.40000001 0.40000001 0.40000001 0.40000001 0.40000001 0.40000001 0.40000001 0.40000001 0.40000001 0.40000001 0.40000001 0.40000001 0.40000001 0.40000001 0.40000001 0.40000001 0.40000001 0.40000001 0.40000001 0.40000001 0.40000001 0.40000001 0.40000001 0.40000001 0.40000001 0.40000001 0.40000001 0.40000001 0.40000001 0.40000001 0.40000001 0.40000001 0.40000001 0.40000001 0.40000001 0.40000001 0.40000001 0.40000001 0.40000001 0.40000001 0.40000001 0.40000001 0.40000001 0.40000001 0.40000001 0.40000001 0.40000001 0.40000001 0.40000001 0.40000001 0.40000001 0.40000001 0.40000001 0.40000001 0.40000001 0.40000001 0.40000001 0.40000001 0.40000001 0.40000001 0.40000001 0.40000001 0.40000001 0.40000001 0.40000001 0.40000001 0.40000001 0.40000001 0.40000001 0.40000001 0.40000001 0.40000001 0.40000001 0.40000001 0.40000001 0.40000001 0.40000001 0.40000001 0.40000001 0.40000001 0.40000072 0.40000069 0.40000078 0.40000078 0.40000069 0.40000066 0.40000063 0.40000063 0.40000069 0.40000212 0.40000218 0.40000209 0.40000212 0.40000218 0.400002 0.40000215 0.40000209 0.40000203 0.40000489 0.40000474 0.4000048 0.40000474 0.40000477 0.4000048 0.40000474 0.40000486 0.40000489 0.40001333 0.40001345 0.40001342 0.40001333 0.40001336 0.40001333 0.40001345 0.40001342 0.40001333 0.40003586 0.40003607 0.40003574 0.40003586 0.40003598 0.40003601 0.40003604 0.40003604 0.40003595 0.40009671 0.40009686 0.4000968 0.40009686 0.40009686 0.40009683 0.40009695 0.40009704 0.40009695 0.40025818 0.40025809 0.40025824 0.40025827 0.4002583 0.4002583 0.40025842 0.40025848 0.40025836 0.40066791 0.4006682 0.40066829 0.40066832 0.40066841 0.40066868 0.4006688 0.40066865 0.40066874 0.40160778 0.40160823 0.40160865 0.40160868 0.40160897 0.40160912 0.4016093 0.40160936 0.40160945 0.40333599 0.40333632 0.40333676 0.40333715 0.40333757 0.40333784 0.40333796 0.40333816 0.40333822 0.4055202 0.40552068 0.40552098 0.40552106 0.40552139 0.40552169 0.40552184 0.40552199 0.40552199 0.40727481 0.40727472 0.4072746 0.40727451 0.40727451 0.40727448 0.40727451 0.40727445 0.4072744 0.40824094 0.40824023 0.4082399 0.40823954 0.4082391 0.40823901 0.40823877 0.40823862 0.40823841 0.40866625 0.40866539 0.40866488 0.40866426 0.40866369 0.40866357 0.40866303 0.40866271 0.40866259 0.40883443 0.40883386 0.408833 0.4088324 0.40883186 0.40883142 0.40883085 0.40883058 0.40883049 0.40889782 0.4088971 0.40889645 0.40889579 0.40889513 0.40889463 0.40889412 0.40889394 0.40889367 0.40892056 0.40891987 0.40891919 0.40891847 0.40891799 0.40891737 0.40891695 0.40891674 0.40891641 0.40892705 0.40892631 0.40892562 0.40892491 0.40892437 0.40892392 0.40892348 0.40892315 0.40892282 0.40891513 0.40891427 0.40891364 0.40891305 0.40891242 0.40891206 0.40891165 0.40891129 0.40891111 0.40876985 0.40876913 0.40876842 0.408768 0.40876743 0.40876707 0.40876651 0.40876627 0.40876609 0.40848485 0.40848407 0.40848348 0.408483 0.40848264 0.40848222 0.40848193 0.40848154 0.40848145 0.40807599 0.40807524 0.40807503 0.4080745 0.40807411 0.40807378 0.40807348 0.40807328 0.40807313 0.40756586 0.40756521 0.40756491 0.40756464 0.40756416 0.40756389 0.40756375 0.40756357 0.40756357 0.4069806 0.40698034 0.40697998 0.40697974 0.40697959 0.40697938 0.40697908 0.40697911 0.40697894 0.40634903 0.40634882 0.40634865 0.40634844 0.40634844 0.40634826 0.40634814 0.40634814 0.40634808 0.40569854 0.40569821 0.40569821 0.40569812 0.40569803 0.40569803 0.40569797 0.40569797 0.40569782 0.40505391 0.40505376 0.40505376 0.40505373 0.40505373 0.40505382 0.40505368 0.40505365 0.4050537 0.40443632 0.40443638 0.40443632 0.40443626 0.40443644 0.40443641 0.40443641 0.40443641 0.40443653 0.40386271 0.40386263 0.4038626 0.40386271 0.40386274 0.40386289 0.40386283 0.4038628 0.40386283 0.40334427 0.40334418 0.40334409 0.40334412 0.40334421 0.40334424 0.40334433 0.40334427 0.40334427 0.40288761 0.40288764 0.40288767 0.4028877 0.40288764 0.40288776 0.40288776 0.40288773 0.40288776 0.40249559 0.40249568 0.40249574 0.40249568 0.40249556 0.40249565 0.40249565 0.40249574 0.40249565 0.40216655 0.40216678 0.40216675 0.40216666 0.4021666 0.40216672 0.40216666 0.40216672 0.40216681 0.40189689 0.40189716 0.40189704 0.40189722 0.4018971 0.4018971 0.40189725 0.4018971 0.40189704 0.40168083 0.40168071 0.40168086 0.40168083 0.40168071 0.40168083 0.4016808 0.4016808 0.40168071 0.40151098 0.40151116 0.40151131 0.40151116 0.4015111 0.40151116 0.40151104 0.40151104 0.40151104 0.40138069 0.40138054 0.40138078 0.40138078 0.40138072 0.40138075 0.40138063 0.40138078 0.40138075 0.40128249 0.40128258 0.40128255 0.40128261 0.40128264 0.40128258 0.40128264 0.40128255 0.40128258 0.40121028 0.40121028 0.40121019 0.40121028 0.40121034 0.40121028 0.40121025 0.40121031 0.40121031 0.40115827 0.40115806 0.40115818 0.40115815 0.40115818 0.40115809 0.40115803 0.401158 0.40115812 0.40112132 0.4011212 0.40112126 0.40112132 0.40112117 0.40112129 0.40112135 0.40112126 0.40109563 0.40109563 0.40109551 0.40109563 0.40109566 0.4010956 0.40107805 0.40107813 0.40107828 0.40107816 0.40000001 0.40000001 0.40000001 0.40000001 0.40000001 0.40000001 0.40000001 0.40000001 0.40000001 0.40000001 0.40000001 0.40000001 0.40000001 0.40000001 0.40000001 0.40000001 0.40000001 0.40000001 0.40000001 0.40000001 0.40000001 0.40000001 0.40000001 0.40000001 0.40000001 0.40000001 0.40000001 0.40000001 0.40000001 0.40000001 0.40000001 0.40000001 0.40000001 0.40000001 0.40000001 0.40000001 0.40000001 0.40000001 0.40000001 0.40000001 0.40000001 0.40000001 0.40000001 0.40000001 0.40000001 0.40000001 0.40000001 0.40000001 0.40000001 0.40000001 0.40000001 0.40000001 0.40000001 0.40000001 0.40000001 0.40000001 0.40000001 0.40000001 0.40000001 0.40000001 0.40000001 0.40000001 0.40000001 0.40000001 0.40000001 0.40000001 0.40000001 0.40000001 0.40000001 0.40000001 0.40000001 0.40000001 0.40000001 0.40000001 0.40000001 0.40000001 0.40000001 0.40000001 0.40000001 0.40000001 0.40000001 0.40000001 0.40000001 0.40000001 0.40000001 0.40000001 0.40000001 0.40000001 0.40000001 0.40000001 0.40000001 0.40000001 0.40000001 0.40000001 0.40000001 0.40000001 0.40000001 0.40000001 0.40000001 0.40000001 0.40000001 0.40000001 0.40000001 0.40000001 0.40000001 0.40000001 0.40000001 0.40000001 0.40000001 0.40000001 0.40000001 0.40000001 0.40000001 0.40000001 0.40000001 0.40000001 0.40000001 0.40000001 0.40000001 0.40000001 0.40000001 0.40000001 0.40000001 0.40000001 0.40000001 0.40000001 0.40000001 0.40000001 0.40000001 0.40000001 0.40000001 0.40000001 0.40000001 0.40000001 0.40000001 0.40000001 0.40000001 0.40000001 0.40000001 0.40000001 0.40000001 0.40000001 0.40000001 0.40000001 0.40000001 0.40000001 0.40000001 0.40000001 0.40000001 0.40000001 0.40000001 0.40000001 0.40000001 0.40000001 0.40000001 0.40000001 0.40000001 0.40000001 0.40000001 0.40000001 0.40000001 0.40000001 0.40000001 0.40000001 0.40000001 0.40000001 0.40000001 0.40000001 0.40000001 0.40000001 0.40000001 0.40000001 0.40000001 0.40000001 0.40000001 0.40000001 0.40000001 0.40000001 0.40000001 0.40000001 0.40000001 0.40000001 0.40000001 0.40000001 0.40000072 0.40000069 0.40000063 0.40000063 0.40000066 0.40000069 0.40000078 0.40000078 0.40000212 0.40000203 0.40000209 0.40000215 0.400002 0.40000218 0.40000212 0.40000209 0.40000495 0.40000489 0.40000486 0.40000474 0.4000048 0.40000477 0.40000474 0.4000048 0.40001336 0.40001333 0.40001342 0.40001345 0.40001333 0.40001336 0.40001333 0.40001342 0.40003601 0.40003595 0.40003604 0.40003604 0.40003601 0.40003598 0.40003586 0.40003574 0.40009689 0.40009695 0.40009704 0.40009695 0.40009683 0.40009686 0.40009686 0.4000968 0.40025839 0.40025836 0.40025848 0.40025842 0.4002583 0.4002583 0.40025827 0.40025824 0.40066883 0.40066874 0.40066865 0.4006688 0.40066868 0.40066841 0.40066832 0.40066829 0.40160939 0.40160945 0.40160936 0.4016093 0.40160912 0.40160897 0.40160868 0.40160865 0.4033384 0.40333822 0.40333816 0.40333796 0.40333784 0.40333757 0.40333715 0.40333676 0.40552202 0.40552199 0.40552199 0.40552184 0.40552169 0.40552139 0.40552106 0.40552098 0.4072746 0.4072744 0.40727445 0.40727451 0.40727448 0.40727451 0.40727451 0.4072746 0.40823844 0.40823841 0.40823862 0.40823877 0.40823901 0.4082391 0.40823954 0.4082399 0.40866268 0.40866259 0.40866271 0.40866303 0.40866357 0.40866369 0.40866426 0.40866488 0.40883029 0.40883049 0.40883058 0.40883085 0.40883142 0.40883186 0.4088324 0.408833 0.40889341 0.40889367 0.40889394 0.40889412 0.40889463 0.40889513 0.40889579 0.40889645 0.40891638 0.40891641 0.40891674 0.40891695 0.40891737 0.40891799 0.40891847 0.40891919 0.40892282 0.40892282 0.40892315 0.40892348 0.40892392 0.40892437 0.40892491 0.40892562 0.40891093 0.40891111 0.40891129 0.40891165 0.40891206 0.40891242 0.40891305 0.40891364 0.40876591 0.40876609 0.40876627 0.40876651 0.40876707 0.40876743 0.408768 0.40876842 0.40848148 0.40848145 0.40848154 0.40848193 0.40848222 0.40848264 0.408483 0.40848348 0.40807313 0.4080731 0.40807328 0.40807348 0.40807378 0.40807411 0.4080745 0.40807503 0.4075636 0.40756357 0.40756357 0.40756375 0.40756389 0.40756416 0.40756464 0.40756491 0.40697899 0.40697894 0.40697911 0.40697908 0.40697938 0.40697959 0.40697974 0.40697998 0.40634805 0.40634808 0.40634814 0.40634814 0.40634826 0.40634844 0.40634844 0.40634865 0.40569788 0.40569782 0.40569797 0.40569797 0.40569803 0.40569803 0.40569812 0.40569821 0.40505368 0.4050537 0.40505365 0.40505368 0.40505382 0.40505373 0.40505373 0.40505376 0.40443644 0.40443653 0.40443641 0.40443641 0.40443641 0.40443644 0.40443626 0.40443632 0.40386271 0.40386283 0.4038628 0.40386283 0.40386289 0.40386274 0.40386271 0.4038626 0.40334427 0.40334427 0.40334427 0.40334433 0.40334424 0.40334421 0.40334412 0.40334409 0.4028877 0.40288776 0.40288773 0.40288776 0.40288776 0.40288764 0.4028877 0.40288767 0.4024958 0.40249565 0.40249574 0.40249565 0.40249565 0.40249556 0.40249568 0.40249574 0.40216655 0.40216681 0.40216672 0.40216666 0.40216672 0.4021666 0.40216666 0.40216675 0.40189707 0.40189704 0.4018971 0.40189725 0.4018971 0.4018971 0.40189722 0.40189704 0.40168083 0.40168071 0.4016808 0.4016808 0.40168083 0.40168071 0.40168083 0.40168086 0.4015111 0.40151104 0.40151104 0.40151104 0.40151116 0.4015111 0.40151116 0.40151131 0.40138063 0.40138075 0.40138078 0.40138063 0.40138075 0.40138072 0.40138078 0.40138078 0.40128252 0.40128258 0.40128255 0.40128264 0.40128258 0.40128264 0.40128261 0.40128255 0.40121022 0.40121031 0.40121031 0.40121025 0.40121028 0.40121034 0.40121028 0.40121019 0.40115815 0.40115812 0.401158 0.40115806 0.40115809 0.40115818 0.40115815 0.40115818 0.4011212 0.40112126 0.40112135 0.40112129 0.40112117 0.40112132 0.40112126 0.4011212 0.40109566 0.4010956 0.40109566 0.40109563 0.40109551 0.40109563 0.40109563 0.40107825 0.40107816 0.40107828 0.40107813 0.40107805 0.40000001 0.40000001 0.40000001 0.40000001 0.40000001 0.40000001 0.40000001 0.40000001 0.40000001 0.40000001 0.40000001 0.40000001 0.40000001 0.40000001 0.40000001 0.40000001 0.40000001 0.40000001 0.40000001 0.40000001 0.40000001 0.40000001 0.40000001 0.40000001 0.40000001 0.40000001 0.40000001 0.40000001 0.40000001 0.40000001 0.40000001 0.40000001 0.40000001 0.40000001 0.40000001 0.40000001 0.40000001 0.40000001 0.40000001 0.40000001 0.40000001 0.40000001 0.40000001 0.40000001 0.40000001 0.40000001 0.40000001 0.40000001 0.40000001 0.40000001 0.40000001 0.40000001 0.40000001 0.40000001 0.40000001 0.40000001 0.40000001 0.40000001 0.40000001 0.40000001 0.40000001 0.40000001 0.40000001 0.40000001 0.40000001 0.40000001 0.40000001 0.40000001 0.40000001 0.40000001 0.40000001 0.40000001 0.40000001 0.40000001 0.40000001 0.40000001 0.40000001 0.40000001 0.40000001 0.40000001 0.40000001 0.40000001 0.40000001 0.40000001 0.40000001 0.40000001 0.40000001 0.40000001 0.40000001 0.40000001 0.40000001 0.40000001 0.40000001 0.40000001 0.40000001 0.40000001 0.40000001 0.40000001 0.40000001 0.40000001 0.40000001 0.40000001 0.40000001 0.40000001 0.40000001 0.40000001 0.40000001 0.40000001 0.40000001 0.40000001 0.40000001 0.40000001 0.40000001 0.40000001 0.40000001 0.40000001 0.40000001 0.40000001 0.40000001 0.40000001 0.40000001 0.40000001 0.40000001 0.40000001 0.40000001 0.40000001 0.40000001 0.40000001 0.40000001 0.40000001 0.40000001 0.40000001 0.40000001 0.40000001 0.40000001 0.40000001 0.40000001 0.40000001 0.40000001 0.40000001 0.40000001 0.40000001 0.40000001 0.40000001 0.40000001 0.40000001 0.40000001 0.40000001 0.40000001 0.40000001 0.40000001 0.40000001 0.40000001 0.40000001 0.40000001 0.40000001 0.40000001 0.40000001 0.40000001 0.40000001 0.40000001 0.40000001 0.40000001 0.40000001 0.40000001 0.40000001 0.40000001 0.40000001 0.40000001 0.40000001 0.40000001 0.40000001 0.40000001 0.40000001 0.40000001 0.40000001 0.40000001 0.40000001 0.40000001 0.40000001 0.40000001 0.40000001 0.40000001 0.40000069 0.40000072 0.40000075 0.40000075 0.40000063 0.40000078 0.40000075 0.40000063 0.40000218 0.40000212 0.40000206 0.40000206 0.400002 0.40000215 0.40000203 0.40000206 0.40000474 0.40000489 0.40000492 0.4000048 0.40000489 0.40000483 0.40000492 0.4000048 0.40001345 0.40001333 0.40001333 0.4000133 0.40001333 0.40001324 0.40001333 0.40001333 0.40003607 0.40003586 0.40003598 0.40003601 0.40003595 0.40003592 0.40003586 0.40003589 0.40009686 0.40009671 0.40009677 0.40009686 0.40009671 0.40009663 0.40009665 0.40009663 0.40025809 0.40025818 0.40025815 0.400258 0.40025797 0.40025795 0.40025786 0.40025771 0.4006682 0.40066791 0.40066788 0.40066794 0.40066761 0.40066734 0.40066713 0.40066683 0.40160823 0.40160778 0.40160757 0.40160736 0.40160692 0.40160641 0.40160576 0.40160507 0.40333632 0.40333599 0.40333539 0.40333498 0.40333432 0.40333366 0.40333286 0.40333158 0.40552068 0.4055202 0.40552002 0.40551963 0.40551934 0.40551922 0.4055188 0.40551752 0.40727472 0.40727481 0.40727508 0.4072752 0.40727586 0.40727657 0.40727672 0.40727627 0.40824023 0.40824094 0.40824148 0.40824214 0.40824339 0.40824458 0.40824515 0.40824538 0.40866539 0.40866625 0.40866709 0.40866774 0.40866894 0.40867046 0.40867075 0.40867072 0.40883386 0.40883443 0.40883541 0.40883616 0.40883714 0.40883818 0.40883827 0.40883806 0.4088971 0.40889782 0.40889877 0.40889946 0.40890011 0.4089008 0.40890065 0.40890041 0.40891987 0.40892065 0.40892133 0.4089219 0.4089224 0.40892297 0.40892291 0.40892249 0.40892631 0.40892705 0.40892774 0.40892836 0.40892869 0.40892917 0.40892923 0.40892881 0.40891427 0.40891513 0.4089157 0.40891626 0.40891686 0.40891731 0.40891725 0.4089168 0.40876913 0.40876985 0.40877044 0.40877104 0.40877163 0.40877214 0.40877229 0.4087719 0.40848407 0.40848485 0.40848544 0.40848595 0.4084866 0.40848723 0.40848732 0.40848705 0.40807524 0.40807599 0.40807655 0.40807709 0.40807787 0.40807852 0.40807867 0.40807864 0.40756521 0.40756586 0.40756634 0.40756676 0.4075675 0.40756825 0.40756851 0.4075686 0.40698034 0.4069806 0.40698102 0.40698153 0.40698218 0.40698284 0.40698332 0.40698358 0.40634882 0.40634903 0.40634936 0.40634969 0.40635011 0.40635085 0.40635121 0.40635163 0.40569821 0.40569854 0.40569869 0.4056989 0.40569919 0.40569976 0.40570015 0.40570065 0.40505376 0.40505391 0.40505391 0.40505421 0.4050543 0.40505472 0.40505505 0.40505561 0.40443638 0.40443632 0.40443638 0.40443653 0.40443662 0.40443677 0.40443715 0.40443748 0.40386263 0.40386271 0.40386271 0.40386266 0.40386277 0.40386286 0.4038628 0.40386286 0.40334418 0.40334427 0.40334412 0.40334412 0.40334409 0.40334398 0.4033438 0.40334377 0.40288764 0.40288761 0.40288755 0.40288746 0.40288725 0.40288711 0.40288699 0.4028869 0.40249568 0.40249559 0.4024955 0.40249524 0.40249521 0.40249488 0.40249494 0.4024947 0.40216678 0.40216655 0.40216652 0.40216643 0.40216622 0.40216601 0.40216601 0.40189716 0.40189689 0.40189686 0.4018966 0.4018966 0.40189648 0.40189636 0.40168071 0.40168083 0.40168053 0.40168041 0.40168026 0.40168026 0.40151116 0.40151098 0.40151092 0.40151075 0.40151072 0.40151072 0.40138054 0.40138069 0.40138054 0.40138051 0.40138048 0.40128258 0.40128249 0.40128252 0.40128261 0.40121028 0.40121028 0.40121043 0.40121025 0.40115806 0.40115827 0.40112132 
Press 1 2975 float
0.0 0.0 0.0 0.0 0.0 0.0 0.0 0.0 0.0 0.0 0.0 0.0 0.0 0.0 0.0 0.0 0.0 0.0 0.0 0.19752525 0.0 0.29628786 0.69133836 0.29628786 0.88886362 1.8764898999999997 0.69133836 1.7777272000000002 3.6542169999999996 1.2839141 3.2591665 5.9257574 2.0740151 4.7406058 8.6911106 2.7653534 6.4195704000000005 11.357700999999999 3.5554544999999997 7.90101 14.123054999999999 4.3455553 9.4812117 16.690884 5.0368938 11.258939 19.752525 6.222045400000001 13.530479000000001 23.801792000000003 7.802247500000001 17.085933999999998 30.023838 10.370075 22.814167 39.998863 15.110682 31.999090000000002 55.208305 23.110454999999998 45.825859 76.343506 64.985809 103.10818 0.0 0.0 0.0 0.0 0.0 0.0 0.0 0.0 0.0 0.0 0.0 0.0 0.0 0.0 0.0 0.0 0.0 0.0 0.0 0.0 0.0 0.0 0.0 0.0 0.0 0.0 0.0 0.0 0.0 0.0 0.0 0.0 0.0 0.0 0.0 0.0 0.09876262400000001 0.09876262400000001 0.19752525 0.19752525 0.0 0.19752525 0.3950505 0.59257573 0.69133836 0.88886362 0.98762625 1.1851515 0.49381313 0.88886362 1.3826767 1.9752525 2.6665909 3.160404 3.4566917 3.8517422999999997 1.4814393999999997 2.4690657000000003 3.7529797999999994 5.0368938 6.4195704000000005 7.407197 8.2960606 8.9873991 3.3579292 5.3331819000000005 7.7034845 10.17255 12.542853 14.715631 16.394596 17.579746 6.1232829 9.2836866 13.234192000000002 17.382220999999998 21.332727 24.493132 27.159721 29.233735999999997 9.777500199999999 14.616867999999998 20.3451 26.172096 31.702803000000003 36.245884000000004 39.900101 42.665455 13.826767000000002 20.246338 27.653534000000004 17.777273 25.875807000000002 21.826539999999998 31.208990000000004 25.777044 36.640934 30.320126000000002 43.159267 36.640934 52.047901 46.319672 64.985809 61.035301000000004 84.54081 83.15812700000001 112.78692 113.47826 150.61301 150.31671 196.63638 0.0 0.0 0.0 0.0 0.0 0.0 0.0 0.0 0.0 0.0 0.0 0.0 0.0 0.0 0.0 0.0 0.0 0.0 0.0 0.0 0.0 0.0 0.0 0.0 0.0 0.0 0.0 0.0 0.0 0.0 0.0 0.0 0.0 0.0 0.0 0.0 0.19752525 0.19752525 0.19752525 0.19752525 0.19752525 0.19752525 0.19752525 0.19752525 0.19752525 1.1851515 1.2839141 1.2839141 1.2839141 1.2839141 1.2839141 1.2839141 1.2839141 1.2839141 3.8517422999999997 4.0492678 4.1480303 4.1480303 4.2467928 4.3455553 4.3455553 4.3455553 4.3455553 9.4812117 9.8762627 9.9750252 10.271313000000001 10.468838 10.468838 10.468838 10.468838 10.468838 18.468611 19.258710999999998 19.752525 20.147575 20.147575 20.246338 20.3451 20.3451 20.3451 30.616413 31.900328000000002 32.591667 33.184242 33.48053 33.579291999999995 33.776817 33.776817 33.776817 44.838229999999996 46.319672 47.208534 47.899871999999995 48.393684 48.689972 48.788734000000005 48.887501 48.887501 0.0 0.0 0.0 0.0 0.0 0.0 0.0 0.0 0.0 0.0 0.0 0.0 0.0 0.0 0.0 0.0 0.0 0.0 0.0 0.0 0.0 0.0 0.0 0.0 0.0 0.0 0.0 0.0 0.0 0.0 0.0 0.0 0.19752525 0.19752525 0.19752525 0.19752525 0.19752525 0.19752525 0.19752525 0.19752525 1.2839141 1.2839141 1.2839141 1.2839141 1.2839141 1.2839141 1.2839141 1.2839141 4.3455553 4.3455553 4.3455553 4.3455553 4.3455553 4.2467928 4.1480303 4.1480303 10.468838 10.468838 10.468838 10.468838 10.468838 10.468838 10.271313000000001 9.9750252 20.3451 20.3451 20.3451 20.3451 20.246338 20.147575 20.147575 19.752525 33.776817 33.776817 33.776817 33.776817 33.579291999999995 33.48053 33.184242 32.591667 48.887501 48.887501 48.887501 48.788734000000005 48.689972 48.393684 47.899871999999995 47.208534 0.0 0.0 0.0 0.0 0.0 0.0 0.0 0.0 0.0 0.0 0.0 0.0 0.0 0.0 0.0 0.0 0.0 0.0 0.0 0.0 0.0 0.0 0.0 0.0 0.0 0.0 0.0 0.0 0.0 0.0 0.0 0.0 0.0 0.0 0.0 0.0 0.19752525 0.19752525 0.19752525 0.19752525 0.09876262400000001 0.09876262400000001 0.0 0.0 0.0 1.2839141 1.1851515 1.1851515 0.98762625 0.88886362 0.69133836 0.59257573 0.3950505 0.19752525 4.0492678 3.8517422999999997 3.8517422999999997 3.4566917 3.160404 2.6665909 1.9752525 1.3826767 0.88886362 9.8762627 9.4812117 8.9873991 8.2960606 7.407197 6.4195704000000005 5.0368938 3.7529797999999994 2.4690657000000003 19.258710999999998 18.468611 17.579746 16.394596 14.715631 12.542853 10.17255 7.7034845 5.3331819000000005 31.900328000000002 30.616413 29.233735999999997 27.159721 24.493132 21.332727 17.382220999999998 13.234192000000002 9.2836866 46.319672 44.838229999999996 42.665455 39.900101 36.245884000000004 31.702803000000003 26.172096 20.3451 14.616867999999998 27.653534000000004 20.246338 25.875807000000002 31.208990000000004 36.640934 43.159267 52.047901 64.985809 84.54081 112.78692 150.61301 196.63638 0.0 0.0 0.0 0.0 0.0 0.0 0.0 0.0 0.0 0.0 0.0 0.0 0.0 0.0 0.0 0.0 0.0 0.0 0.0 0.0 0.0 0.0 0.0 0.49381313 0.19752525 0.0 0.0 1.4814393999999997 0.69133836 0.29628786 0.0 3.3579292 1.8764898999999997 0.88886362 0.29628786 6.1232829 3.6542169999999996 1.7777272000000002 0.69133836 9.777500199999999 5.9257574 3.2591665 1.2839141 13.826767000000002 8.6911106 4.7406058 2.0740151 17.777273 11.357700999999999 6.4195704000000005 2.7653534 21.826539999999998 14.123054999999999 7.90101 3.5554544999999997 25.777044 16.690884 9.4812117 4.3455553 30.320126000000002 19.752525 11.258939 5.0368938 36.640934 23.801792000000003 13.530479000000001 6.222045400000001 46.319672 30.023838 17.085933999999998 7.802247500000001 61.035301000000004 39.998863 22.814167 10.370075 83.15812700000001 55.208305 31.999090000000002 15.110682 113.47826 76.343506 45.825859 23.110454999999998 150.31671 103.10818 64.985809 0.0 0.0 0.0 0.0 0.0 0.0 0.0 0.0 0.0 0.0 0.0 0.0 0.0 0.0 0.0 0.0 0.0 0.0 0.0 0.0 0.0 0.0 0.0 0.0 0.0 0.0 0.0 0.0 0.0 0.0 0.0 0.0 0.0 0.0 0.0 0.0 0.0 0.0 0.0 0.0 0.0 0.0 0.0 0.0 0.0 0.0 0.0 0.0 0.0 0.0 0.0 0.0 0.0 0.0 0.0 0.0 0.0 0.0 0.0 0.0 0.0 0.0 0.0 0.0 0.0 0.0 0.0 0.0 0.0 0.0 0.0 0.0 0.0 0.0 0.0 0.0 0.0 0.0 0.0 0.0 0.0 0.0 0.0 0.0 0.0 0.0 0.0 0.0 0.0 0.0 0.0 0.0 0.0 0.0 0.0 0.0 0.0 0.0 0.0 0.0 0.0 0.0 0.0 0.0 0.0 0.0 0.0 0.0 0.0 0.0 0.0 0.0 0.0 0.0 0.0 0.0 0.0 0.0 0.0 0.0 0.0 0.0 0.0 0.0 0.0 0.0 0.0 0.0 0.0 0.0 0.0 0.0 0.0 0.0 0.0 0.0 0.0 0.0 0.0 0.0 0.0 0.0 0.0 0.0 0.0 0.0 0.0 0.0 0.0 0.0 0.0 0.0 0.0 0.0 0.0 0.0 0.0 0.0 0.0 0.0 0.0 0.0 0.0 0.0 0.0 0.0 0.0 0.0 0.0 0.0 0.0 0.0 0.0 0.0 0.0 0.0 0.0 0.0 0.0 0.0 0.0 0.0 0.0 0.0 0.0 0.0 0.0 0.0 0.0 0.0 0.0 0.0 0.0 0.0 0.0 0.0 0.0 0.0 0.0 0.0 0.0 0.0 0.0 0.0 0.0 0.0 0.0 0.0 0.0 0.0 0.0 0.0 0.0 0.0 0.0 0.0 0.0 0.0 0.0 0.0 0.0 0.0 0.0 0.0 0.0 0.0 0.0 0.0 0.0 0.0 0.0 0.0 0.0 0.0 0.0 0.0 0.0 0.0 0.0 0.0 0.0 0.0 0.0 0.0 0.0 0.0 0.0 0.0 0.0 0.0 0.0 0.0 0.0 0.0 0.0 0.0 0.0 0.0 0.0 0.0 0.0 0.0 0.0 0.0 0.0 0.0 0.0 0.0 0.0 0.0 0.0 0.0 0.0 0.0 0.0 0.0 0.0 0.0 0.0 0.0 0.0 0.0 0.0 0.0 0.0 0.0 0.0 0.0 0.0 0.0 0.0 0.0 0.0 0.0 0.0 0.0 0.0 0.0 0.0 0.0 0.0 0.0 0.0 0.0 0.0 0.0 0.0 0.0 0.0 0.0 0.0 0.0 0.0 0.0 0.0 0.0 0.0 0.0 0.0 0.0 0.0 0.0 0.0 0.0 0.0 0.0 0.0 0.0 0.0 0.0 0.0 0.0 0.0 0.0 0.0 0.0 0.0 0.0 0.0 0.0 0.0 0.0 0.0 0.0 0.0 0.0 0.0 0.0 0.0 0.0 0.0 0.0 0.0 0.0 0.0 0.0 0.0 0.0 0.0 0.0 0.0 0.0 0.0 0.0 0.0 0.0 0.0 0.0 0.0 0.0 0.0 0.0 0.0 0.0 0.0 0.0 0.0 0.0 0.0 0.0 0.0 0.0 0.0 0.0 0.0 0.0 0.0 0.0 0.0 0.0 0.0 0.0 0.0 0.0 0.0 0.0 0.0 0.0 0.0 0.0 0.0 0.0 0.0 0.0 0.0 0.0 0.0 0.0 0.0 0.0 0.0 0.0 0.0 0.0 0.0 0.0 0.0 0.0 0.0 0.0 0.0 0.0 0.0 0.0 0.0 0.0 0.0 0.0 0.0 0.0 0.0 0.0 0.0 0.0 0.0 0.0 0.0 0.0 0.0 0.0 0.0 0.0 0.0 0.0 0.0 0.0 0.0 0.0 0.0 0.0 0.0 0.0 0.0 0.0 0.0 0.0 0.0 0.0 0.0 0.0 0.0 0.0 0.0 0.0 0.0 0.0 0.0 0.0 0.0 0.0 0.0 0.0 35.258255 41.974113 47.702346999999996 52.146664 55.50459300000001 34.369392 43.653079999999996 51.455326 57.776134 62.911793 66.664772 41.184013 51.554089000000005 60.541489 67.75116 73.084343 77.03484300000001 48.196159 60.245201 70.318985 78.220001 83.948227 88.09626 56.788509 70.51651 81.676689 90.46656 96.787369 100.83664 68.442497 84.145752 96.589844 105.77476999999999 112.39187 116.53988999999999 87.009872 103.70075 116.63866000000002 125.42853999999998 131.55182 135.79861 116.44113 133.23077 143.69961999999998 150.61301 155.35361 158.51401 161.1806 175.30366999999998 179.84673999999998 182.11829 183.69849 185.27868999999998 223.89487000000003 229.22804 224.28992000000002 218.95674 216.38892 215.5988 298.46066 290.16458 272.88113 259.54819 252.23975 249.37562999999997 360.58234 346.75558 320.2872 300.83096 290.55962999999997 286.21407999999997 378.95218 382.50763 360.28604 341.1261 330.5585 326.1142 384.48287999999997 402.35889 394.26038 380.9274 373.12515 370.06354 406.21063 426.65450999999996 430.01242 424.18542 420.43245999999994 418.85226 448.57974 467.04834000000005 475.04812999999996 474.75183 473.96173 473.86298 509.02245999999997 524.7257099999999 533.12054 534.89825 535.88586 536.47845 582.9956099999999 596.03223 603.5382099999999 605.31592 606.6986099999999 607.78503 666.84497 678.89404 685.21484 686.49872 687.88141 688.77026 761.75568 773.90344 779.03912 779.3353900000001 780.52057 781.0143400000001 870.3942900000001 882.64081 886.49255 885.50494 885.8012699999999 885.40619 995.6248800000001 1007.1801 1009.3529 1006.4888 1004.9086 1002.8345 1139.0276 1149.299 1149.4965 1143.4719 1139.0276 1133.7932 1302.775 1311.071 1308.8983 1298.1332 1288.3557 1278.8745 1484.2992 1491.3114 1486.0769 1466.8182 1449.1398 1433.4366 1676.2917 1683.2051 1673.0326 1640.3423 1611.6024 1587.4056 1869.468 1878.7516 1859.8881 1806.359 1763.6937 1730.7072 2051.0879 2063.3342 2028.8663 1947.9803 1890.3033 1850.2061 2224.4097 2238.5325 2180.6582 2068.8599 1998.9366 1956.6666 2447.4053 2460.0469 2376.9885 2240.1052 2166.3306 2130.1838 2923.4224 2931.2244 2839.5742 2700.3215 2635.8306 2617.6584 4098.4551 4108.6274 4066.9507 3962.8572 3923.1555 3933.3279 6407.7158 6442.1831 6493.0439 6500.7476 6514.1787 6558.3242 9252.4824 9330.4033 9457.7021 9617.4941 9722.375 9806.6162 11122.409 11232.622 11379.473 11622.81 11817.065 11937.646999999999 11614.282 11702.964 11788.188999999998 12032.411 12264.683 12405.902 11454.085 11500.4 11497.833999999999 11661.565 11862.329 11992.88 11311.168 11329.042 11317.489 11367.16 11468.278999999999 11537.503 11419.421 11397.697 11408.362 11367.088 11379.728000000001 11390.688 11721.678999999998 11666.188 11694.723999999998 11607.341 11569.131000000001 11544.643999999998 12071.989 11991.427 12027.758999999998 11935.151000000002 11885.393 11851.825 12346.521 12253.825 12288.475 12217.596000000001 12187.389 12166.362 12318.915 12226.528999999999 12257.913999999999 12211.128 12211.226999999999 12214.386 12027.528 11947.001 11981.536 11959.726 11992.288 12025.347 11568.044 11509.143 11558.166000000001 11565.462 11631.555 11696.663999999999 11008.168 10982.123 11059.918 11103.3 11203.286 11300.416000000001 10369.306999999999 10387.721 10505.087 10592.792 10725.64 10849.329 9642.7236 9716.9561 9875.2012 10008.438 10163.447 10309.505 8819.3955 8948.6436 9145.7861 9305.751 9480.7842 9642.3447 7918.7998 8090.9063 8312.4453 8483.6035 8676.291 8844.4189 6992.1572 7189.4541 7411.6821 7586.1704 7785.4814 7952.4312 6098.7373 6302.3188 6507.0024 6672.3726 6865.0488 7024.7539 5255.2378 5467.1606 5652.2881 5801.1445 5975.4604 6121.2993 4436.8057 4688.2437 4875.4141 5013.4531 5163.2417 5287.0063 3676.4902 3991.48 4211.0049 4337.3657 4451.749 4547.4014 3400.6968 3668.019 3773.3198 3848.6262 3910.6116 2894.8621 3178.6057 3301.2822 3345.7869 3377.0083 2682.4988 2861.479 2909.1699 2934.8606 2215.6658 2379.3347 2494.8643 2547.3186 1909.3682 2051.9644 2157.1665 1618.6754 1725.1727 1426.6759 1340.2562 58.072421999999996 59.948914 61.035301000000004 62.121689 62.41798000000001 62.813030000000005 62.911793 62.911793 62.911793 69.33136 71.504143 72.788055 73.775681 74.170731 74.565781 74.565781 74.565781 74.565781 79.898964 81.874214 83.355652 84.046989 84.639572 84.73833499999999 84.73833499999999 84.73833499999999 84.639572 90.960373 92.83686800000001 94.022018 94.515831 95.009644 94.910881 94.812119 94.614594 94.614594 103.70075 105.28096000000001 106.26858999999999 106.56487 106.56487 106.26858999999999 106.07106 105.9723 105.77476999999999 119.10773 120.4904 121.08298 121.08298 120.78669 120.4904 119.89783 119.60153999999999 119.40401000000001 137.97138999999999 138.86024 139.05777 138.66272 137.87261999999998 137.18129 136.39119 135.89737 135.60109 160.3905 160.58803 160.19298 159.20535 158.11896000000002 157.03258 156.14371 155.35361 154.95856 185.87126 185.87126 184.68611 183.10591000000002 181.62447 180.14302 178.66159 177.87149 177.37767 215.20375 214.21613 212.4384 210.26563 208.1916 206.21635 204.83368000000002 203.54977 202.9572 247.99295 246.31398 243.84492000000003 241.27707999999998 238.6105 236.33896000000001 234.56123 233.27731 232.48721 284.14007999999995 282.06604 279.20193 275.94277999999997 272.88113 270.31329 268.33804 266.8566 265.96774 324.13895 321.8674 318.707 315.15152 311.89236 309.12701 306.75671 305.17651 304.18887 368.48334 366.21179 363.05138999999997 359.49591000000004 355.84171000000003 352.78006 350.40976 348.63205 347.54565 417.76587 415.98812999999996 412.82773 409.07477 405.42053 401.86508 399.59354 397.71707000000004 396.63068 473.36914 471.49265 468.72729000000004 464.87557999999996 461.3201 457.96219 455.19684000000007 453.32034000000004 452.23395 536.18219 534.60199 531.73785 527.8861099999999 524.03436 520.77521 517.91107 515.8371 514.84943 607.58746 606.00726 602.84686 599.09387 594.8471099999999 591.4892 588.52631 586.35352 585.1684 688.57275 686.49872 683.14081 678.59772 674.05463 670.40045 667.24005 665.0672599999999 663.68457 780.12549 777.36017 773.01459 767.6814 762.64453 758.29895 754.74353 752.2744799999999 750.6942700000001 883.4309099999999 879.2829 873.55469 867.0363800000001 860.71558 855.48114 851.1355599999999 847.97516 846.2962 999.08154 992.85956 985.0573099999999 976.4649699999999 968.46521 961.6505699999999 956.3173800000001 952.4657 949.9965800000001 1126.8799 1117.9912 1107.0286 1095.6709 1085.1033 1076.4122 1069.4989 1064.4619 1061.3015 1268.0106 1254.579 1239.172 1223.7651 1210.0371 1198.3832 1189.4945 1182.8774 1179.1245 1416.3507 1397.3883 1376.5496 1355.7107 1337.5383 1322.6252 1311.1688 1302.9716 1298.1322 1563.5052 1537.1357 1509.1859 1482.6189 1459.311 1440.4474 1426.522 1416.2507 1410.6212 1699.3009 1665.5242 1630.0686 1596.3907 1567.651 1544.9357 1527.7511 1515.8997 1509.0851 1813.0715 1773.3693 1731.2966 1691.1993 1657.2252 1630.6582 1611.2021 1597.573 1589.5732 1919.0385 1877.6573 1832.1282 1787.7842 1750.0573 1720.4287 1698.7999 1684.0844 1675.3933 2100.5554 2064.6064 2021.9414 1978.0914 1939.2782 1908.5634 1886.2433 1871.1328 1861.8492 2606.301 2586.0549 2554.1553 2516.9224 2481.7634 2452.6289 2431.0002 2415.9888 2407.1001 3950.9072 3955.5491 3943.5991 3920.3904 3893.8237 3869.9238 3851.1594 3837.728 3829.5308 6610.4692 6646.813 6660.6392 6656.9849 6644.3438 6629.4312 6615.7036 6605.6299 6599.0132 9890.4619 9957.0254 9997.2197 10014.503 10017.958 10014.699 10009.267 10003.638 9999.292 12041.341999999999 12127.162 12186.515 12222.065 12241.718 12251.001 12254.655 12254.853000000001 12253.668 12513.545 12602.721000000001 12669.479 12716.486 12748.581 12770.011999999999 12783.541000000001 12790.651000000002 12793.613000000001 12087.681999999999 12165.104 12227.91 12278.371000000001 12318.86 12350.362 12373.173999999999 12387.196000000002 12394.306999999999 11593.986 11647.902 11698.659 11745.368 11788.323 11825.156 11853.793 11872.555 11882.43 11410.141000000001 11440.061000000002 11475.113000000001 11512.933 11551.64 11587.386 11616.416000000001 11635.671 11645.841999999999 11540.497 11553.628999999999 11575.45 11602.997 11634.001 11663.918 11688.306999999999 11704.598 11712.497 11840.965 11848.567 11864.166000000001 11884.703000000001 11908.2 11931.303 11949.469 11960.427 11965.067 12164.29 12177.913 12195.978000000001 12215.229 12234.873 12252.938 12265.671999999999 12272.089 12273.668 12231.166000000001 12259.593 12286.735 12310.028999999999 12330.756000000001 12347.24 12357.505 12361.06 12360.566 12066.596000000001 12113.567 12153.336000000001 12184.815 12209.782 12228.038 12238.399 12241.657 12240.473 11764.438 11830.338 11883.116000000002 11922.677 11952.667 11973.878 11986.111 11989.96 11989.466999999999 11393.111 11475.06 11536.891000000001 11581.169 11614.008 11636.886999999999 11650.103000000001 11655.231000000002 11655.133999999998 10962.081 11053.152 11116.923 11160.096000000001 11191.341999999999 11212.534 11224.955 11229.393 11229.197 10433.405 10524.806999999999 10583.313999999998 10619.857 10644.683 10661.627 10671.086000000001 10674.239 10673.158000000001 9768.9795 9854.7842 9903.9873 9931.0537 9947.9834 9959.502 9965.5088 9966.9883 9965.417 8969.3164 9047.6416 9087.6445 9106.2275 9116.3584 9123.4414 9127.5742 9127.9736 9126.5029 8073.8726 8146.667 8181.0132 8194.4658 8201.3447 8206.1611 8209.4053 8210.2939 8209.415 7141.6045 7212.9565 7246.5396 7260.6479 7267.6108 7272.8091 7276.7324 7278.6963 7279.1895 6230.856 6303.2529 6342.5845 6362.1128 6372.958 6380.1895 6385.6626 6389.2793 6390.7476 5384.1582 5457.6108 5506.7817 5536.7192 5554.8037 5566.2803 5573.7715 5578.7339 5581.2642 4625.5708 4695.1377 4754.3672 4798.043 4827.2295 4845.3071 4856.3296 4862.811 4866.2939 3962.9094 4021.2322 4084.3362 4141.9697 4185.5078 4214.2817 4231.4541 4241.2417 4245.8501 3399.9641 3437.7065 3494.4106 3558.7891 3616.5171 3659.4346 3687.0686 3703.0247 3710.9099 2937.2188 2948.5496 2986.8376 3045.0627 3108.1467 3163.0723 3203.0955 3228.686 3242.1855 2563.7576 2557.79 2569.0256 2606.8665 2661.1838 2717.1477 2764.3496 2797.9983 2817.7271 2227.6663 2250.9907 2246.2322 2254.7961 2284.6304 2326.6289 2368.7954 2403.0117 2425.1294 1865.8921 1955.9365 1993.783 1992.0497 1990.7228 2004.3146 2027.8226 2051.9329 2069.4392 1482.7543 1612.179 1714.0529 1766.3821 1772.113 1761.2046 1756.9968 1761.0306 1767.4351 1246.6128 1309.254 1385.609 1464.8522 1526.3112 1552.8223 1552.158 1543.673 1538.8578 1208.642 1185.8546 1202.2715 1224.5035 1253.6467 1276.6541 1290.375 1295.5116 1148.6473 1098.4987 1086.9364 1064.27 1043.9139 1027.5175 1130.3025 1106.8146 1084.599 1065.3665 62.911793 62.911793 62.911793 62.911793 62.813030000000005 62.41798000000001 62.121689 61.035301000000004 74.565781 74.565781 74.565781 74.565781 74.565781 74.170731 73.775681 72.788055 84.639572 84.639572 84.73833499999999 84.73833499999999 84.73833499999999 84.639572 84.046989 83.355652 94.614594 94.614594 94.614594 94.812119 94.910881 95.009644 94.515831 94.022018 105.67601 105.77476999999999 105.9723 106.07106 106.26858999999999 106.56487 106.56487 106.26858999999999 119.30525 119.40401000000001 119.60153999999999 119.89783 120.4904 120.78669 121.08298 121.08298 135.40356 135.60109 135.89737 136.39119 137.18129 137.87261999999998 138.66272 139.05777 154.66226 154.95856 155.35361 156.14371 157.03258 158.11896000000002 159.20535 160.19298 177.18015 177.37767 177.87149 178.66159 180.14302 181.62447 183.10591000000002 184.68611 202.6609 202.9572 203.54977 204.83368000000002 206.21635 208.1916 210.26563 212.4384 232.19092999999998 232.48721 233.27731 234.56123 236.33896000000001 238.6105 241.27707999999998 243.84492000000003 265.77022999999997 265.96774 266.8566 268.33804 270.31329 272.88113 275.94277999999997 279.20193 303.79382000000004 304.18887 305.17651 306.75671 309.12701 311.89236 315.15152 318.707 347.24936 347.54565 348.63205 350.40976 352.78006 355.84171000000003 359.49591000000004 363.05138999999997 396.33437999999995 396.63068 397.71707000000004 399.59354 401.86508 405.42053 409.07477 412.82773 451.8389 452.23395 453.32034000000004 455.19684000000007 457.96219 461.3201 464.87557999999996 468.72729000000004 514.4544099999999 514.84943 515.8371 517.91107 520.77521 524.03436 527.8861099999999 531.73785 584.77332 585.1684 586.35352 588.52631 591.4892 594.8471099999999 599.09387 602.84686 663.1908 663.68457 665.0672599999999 667.24005 670.40045 674.05463 678.59772 683.14081 750.00293 750.6942700000001 752.2744799999999 754.74353 758.29895 762.64453 767.6814 773.01459 845.7036699999999 846.2962 847.97516 851.1355599999999 855.48114 860.71558 867.0363800000001 873.55469 949.3053 949.9965800000001 952.4657 956.3173800000001 961.6505699999999 968.46521 976.4649699999999 985.0573099999999 1060.314 1061.3015 1064.4619 1069.4989 1076.4122 1085.1033 1095.6709 1107.0286 1177.8406 1179.1245 1182.8774 1189.4945 1198.3832 1210.0371 1223.7651 1239.172 1296.6508 1298.1322 1302.9716 1311.1688 1322.6252 1337.5383 1355.7107 1376.5496 1408.4485 1410.6212 1416.2507 1426.522 1440.4474 1459.311 1482.6189 1509.1859 1506.616 1509.0851 1515.8997 1527.7511 1544.9357 1567.651 1596.3907 1630.0686 1586.9067 1589.5732 1597.573 1611.2021 1630.6582 1657.2252 1691.1993 1731.2966 1672.3318 1675.3933 1684.0844 1698.7999 1720.4287 1750.0573 1787.7842 1832.1282 1858.8864 1861.8492 1871.1328 1886.2433 1908.5634 1939.2782 1978.0914 2021.9414 2404.1375 2407.1001 2415.9888 2431.0002 2452.6289 2481.7634 2516.9224 2554.1553 3826.7656 3829.5308 3837.728 3851.1594 3869.9238 3893.8237 3920.3904 3943.5991 6596.6426 6599.0132 6605.6299 6615.7036 6629.4312 6644.3438 6656.9849 6660.6392 9997.7119 9999.292 10003.638 10009.267 10014.699 10017.958 10014.503 9997.2197 12253.271999999999 12253.668 12254.853000000001 12254.655 12251.001 12241.718 12222.065 12186.515 12794.206 12793.613000000001 12790.651000000002 12783.541000000001 12770.011999999999 12748.581 12716.486 12669.479 12396.183 12394.306999999999 12387.196000000002 12373.173999999999 12350.362 12318.86 12278.371000000001 12227.91 11885.294 11882.43 11872.555 11853.793 11825.156 11788.323 11745.368 11698.659 11648.902 11645.841999999999 11635.671 11616.416000000001 11587.386 11551.64 11512.933 11475.113000000001 11714.669 11712.497 11704.598 11688.306999999999 11663.918 11634.001 11602.997 11575.45 11966.252 11965.067 11960.427 11949.469 11931.303 11908.2 11884.703000000001 11864.166000000001 12273.569 12273.668 12272.089 12265.671999999999 12252.938 12234.873 12215.229 12195.978000000001 12359.875 12360.566 12361.06 12357.505 12347.24 12330.756000000001 12310.028999999999 12286.735 12239.585 12240.473 12241.657 12238.399 12228.038 12209.782 12184.815 12153.336000000001 11988.678999999998 11989.368 11989.96 11986.111 11973.878 11952.667 11922.677 11883.116000000002 11654.146999999999 11655.133999999998 11655.231000000002 11650.103000000001 11636.886999999999 11614.008 11581.169 11536.891000000001 11228.408000000001 11229.197 11229.393 11224.955 11212.534 11191.341999999999 11160.096000000001 11116.923 10672.175 10673.158000000001 10674.239 10671.086000000001 10661.627 10644.683 10619.857 10583.313999999998 9964.335 9965.417 9966.9883 9965.5088 9959.502 9947.9834 9931.0537 9903.9873 9125.7178 9126.5029 9127.9736 9127.5742 9123.4414 9116.3584 9106.2275 9087.6445 8208.8281 8209.415 8210.2939 8209.4053 8206.1611 8201.3447 8194.4658 8181.0132 7279.1914 7279.1895 7278.6963 7276.7324 7272.8091 7267.6108 7260.6479 7246.5396 6391.2373 6390.7476 6389.2793 6385.6626 6380.1895 6372.958 6362.1128 6342.5845 5582.1401 5581.2642 5578.7339 5573.7715 5566.2803 5554.8037 5536.7192 5506.7817 4867.2617 4866.2939 4862.811 4856.3296 4845.3071 4827.2295 4798.043 4754.3672 4247.1938 4245.8501 4241.2417 4231.4541 4214.2817 4185.5078 4141.9697 4084.3362 3713.3799 3710.9099 3703.0247 3687.0686 3659.4346 3616.5171 3558.7891 3494.4106 3246.5916 3242.1855 3228.686 3203.0955 3163.0723 3108.1467 3045.0627 2986.8376 2824.1804 2817.7271 2797.9983 2764.3496 2717.1477 2661.1838 2606.8665 2569.0256 2432.5317 2425.1294 2403.0117 2368.7954 2326.6289 2284.6304 2254.7961 2246.2322 2075.6848 2069.4392 2051.9329 2027.8226 2004.3146 1990.7228 1992.0497 1993.783 1770.166 1767.4351 1761.0306 1756.9968 1761.2046 1772.113 1766.3821 1714.0529 1537.3889 1538.8578 1543.673 1552.158 1552.8223 1526.3112 1464.8522 1385.609 1297.0142 1295.5116 1290.375 1276.6541 1253.6467 1224.5035 1202.2715 1185.8546 1021.3775 1027.5175 1043.9139 1064.27 1086.9364 1098.4987 1148.6473 1057.7435 1065.3665 1084.599 1106.8146 1130.3025 59.948914 58.072421999999996 55.50459300000001 52.146664 47.702346999999996 41.974113 35.258255 71.504143 69.33136 66.664772 62.911793 57.776134 51.455326 43.653079999999996 34.369392 81.874214 79.898964 77.03484300000001 73.084343 67.75116 60.541489 51.554089000000005 41.184013 92.83686800000001 90.960373 88.09626 83.948227 78.220001 70.318985 60.245201 48.196159 105.28096000000001 103.70075 100.83664 96.787369 90.46656 81.676689 70.51651 56.788509 120.4904 119.10773 116.53988999999999 112.39187 105.77476999999999 96.589844 84.145752 68.442497 138.86024 137.97138999999999 135.79861 131.55182 125.42853999999998 116.63866000000002 103.70075 87.009872 160.58803 160.3905 158.51401 155.35361 150.61301 143.69961999999998 133.23077 116.44113 185.87126 185.87126 185.27868999999998 183.69849 182.11829 179.84673999999998 175.30366999999998 161.1806 214.21613 215.20375 215.5988 216.38892 218.95674 224.28992000000002 229.22804 223.89487000000003 246.31398 247.99295 249.37562999999997 252.23975 259.54819 272.88113 290.16458 298.46066 282.06604 284.14007999999995 286.21407999999997 290.55962999999997 300.83096 320.2872 346.75558 360.58234 321.8674 324.13895 326.1142 330.5585 341.1261 360.28604 382.50763 378.95218 366.21179 368.48334 370.06354 373.12515 380.9274 394.26038 402.35889 384.48287999999997 415.98812999999996 417.76587 418.85226 420.43245999999994 424.18542 430.01242 426.65450999999996 406.21063 471.49265 473.36914 473.86298 473.96173 474.75183 475.04812999999996 467.04834000000005 448.57974 534.60199 536.18219 536.47845 535.88586 534.89825 533.12054 524.7257099999999 509.02245999999997 606.00726 607.58746 607.78503 606.6986099999999 605.31592 603.5382099999999 596.03223 582.9956099999999 686.49872 688.57275 688.77026 687.88141 686.49872 685.21484 678.89404 666.84497 777.36017 780.12549 781.0143400000001 780.52057 779.3353900000001 779.03912 773.90344 761.75568 879.2829 883.4309099999999 885.40619 885.8012699999999 885.50494 886.49255 882.64081 870.3942900000001 992.85956 999.08154 1002.8345 1004.9086 1006.4888 1009.3529 1007.1801 995.6248800000001 1117.9912 1126.8799 1133.7932 1139.0276 1143.4719 1149.4965 1149.299 1139.0276 1254.579 1268.0106 1278.8745 1288.3557 1298.1332 1308.8983 1311.071 1302.775 1397.3883 1416.3507 1433.4366 1449.1398 1466.8182 1486.0769 1491.3114 1484.2992 1537.1357 1563.5052 1587.4056 1611.6024 1640.3423 1673.0326 1683.2051 1676.2917 1665.5242 1699.3009 1730.7072 1763.6937 1806.359 1859.8881 1878.7516 1869.468 1773.3693 1813.0715 1850.2061 1890.3033 1947.9803 2028.8663 2063.3342 2051.0879 1877.6573 1919.0385 1956.6666 1998.9366 2068.8599 2180.6582 2238.5325 2224.4097 2064.6064 2100.5554 2130.1838 2166.3306 2240.1052 2376.9885 2460.0469 2447.4053 2586.0549 2606.301 2617.6584 2635.8306 2700.3215 2839.5742 2931.2244 2923.4224 3955.5491 3950.9072 3933.3279 3923.1555 3962.8572 4066.9507 4108.6274 4098.4551 6646.813 6610.4692 6558.3242 6514.1787 6500.7476 6493.0439 6442.1831 6407.7158 9957.0254 9890.4619 9806.6162 9722.375 9617.4941 9457.7021 9330.4033 9252.4824 12127.162 12041.341999999999 11937.646999999999 11817.065 11622.81 11379.473 11232.622 11122.409 12602.721000000001 12513.545 12405.902 12264.683 12032.411 11788.188999999998 11702.964 11614.282 12165.104 12087.681999999999 11992.88 11862.329 11661.565 11497.833999999999 11500.4 11454.085 11647.902 11593.986 11537.503 11468.278999999999 11367.16 11317.489 11329.042 11311.168 11440.061000000002 11410.141000000001 11390.688 11379.728000000001 11367.088 11408.362 11397.697 11419.421 11553.628999999999 11540.497 11544.643999999998 11569.131000000001 11607.341 11694.723999999998 11666.188 11721.678999999998 11848.567 11840.965 11851.825 11885.393 11935.151000000002 12027.758999999998 11991.427 12071.989 12177.913 12164.29 12166.362 12187.389 12217.596000000001 12288.475 12253.825 12346.521 12259.593 12231.166000000001 12214.386 12211.226999999999 12211.128 12257.913999999999 12226.528999999999 12318.915 12113.567 12066.596000000001 12025.248 11992.288 11959.726 11981.536 11947.001 12027.528 11830.338 11764.438 11696.663999999999 11631.555 11565.462 11558.166000000001 11509.143 11568.044 11475.06 11393.111 11300.416000000001 11203.286 11103.3 11059.918 10982.123 11008.168 11053.152 10962.081 10849.329 10725.64 10592.792 10505.087 10387.721 10369.306999999999 10524.806999999999 10433.405 10309.505 10163.447 10008.438 9875.2012 9716.9561 9642.7236 9854.7842 9768.9795 9642.3447 9480.7842 9305.751 9145.7861 8948.6436 8819.3955 9047.6416 8969.3164 8844.4189 8676.291 8483.6035 8312.4453 8090.9063 7918.7998 8146.667 8073.8726 7952.4312 7785.4814 7586.1704 7411.6821 7189.4541 6992.1572 7212.9565 7141.6045 7024.7539 6865.0488 6672.3726 6507.0024 6302.3188 6098.7373 6303.2529 6230.856 6121.2993 5975.4604 5801.1445 5652.2881 5467.1606 5255.2378 5457.6108 5384.1582 5287.0063 5163.2417 5013.4531 4875.4141 4688.2437 4436.8057 4695.1377 4625.5708 4547.4014 4451.749 4337.3657 4211.0049 3991.48 3676.4902 4021.2322 3962.9094 3910.6116 3848.6262 3773.3198 3668.019 3400.6968 3437.7065 3399.9641 3377.0083 3345.7869 3301.2822 3178.6057 2894.8621 2948.5496 2937.2188 2934.8606 2909.1699 2861.479 2682.4988 2557.79 2563.7576 2547.3186 2494.8643 2379.3347 2215.6658 2250.9907 2227.6663 2157.1665 2051.9644 1909.3682 1955.9365 1865.8921 1725.1727 1618.6754 1612.179 1482.7543 1340.2562 1426.6759 1309.254 1246.6128 1208.642 
Type 1 2975 float
0 0 0 0 0 0 0 0 0 0 0 0 0 0 0 0 0 0 0 0 0 0 0 0 0 0 0 0 0 0 0 0 0 0 0 0 0 0 0 0 0 0 0 0 0 0 0 0 0 0 0 0 0 0 0 0 0 0 0 0 0 0 0 0 0 0 0 0 0 0 0 0 0 0 0 0 0 0 0 0 0 0 0 0 0 0 0 0 0 0 0 0 0 0 0 0 0 0 0 0 0 0 0 0 0 0 0 0 0 0 0 0 0 0 0 0 0 0 0 0 0 0 0 0 0 0 0 0 0 0 0 0 0 0 0 0 0 0 0 0 0 0 0 0 0 0 0 0 0 0 0 0 0 0 0 0 0 0 0 0 0 0 0 0 0 0 0 0 0 0 0 0 0 0 0 0 0 0 0 0 0 0 0 0 0 0 0 0 0 0 0 0 0 0 0 0 0 0 0 0 0 0 0 0 0 0 0 0 0 0 0 0 0 0 0 0 0 0 0 0 0 0 0 0 0 0 0 0 0 0 0 0 0 0 0 0 0 0 0 0 0 0 0 0 0 0 0 0 0 0 0 0 0 0 0 0 0 0 0 0 0 0 0 0 0 0 0 0 0 0 0 0 0 0 0 0 0 0 0 0 0 0 0 0 0 0 0 0 0 0 0 0 0 0 0 0 0 0 0 0 0 0 0 0 0 0 0 0 0 0 0 0 0 0 0 0 0 0 0 0 0 0 0 0 0 0 0 0 0 0 0 0 0 0 0 0 0 0 0 0 0 0 0 0 0 0 0 0 0 0 0 0 0 0 0 0 0 0 0 0 0 0 0 0 0 0 0 0 0 0 0 0 0 0 0 0 0 0 0 0 0 0 0 0 0 0 0 0 0 0 0 0 0 0 0 0 0 0 0 0 0 0 0 0 0 0 0 0 0 0 0 0 0 0 0 0 0 0 0 0 0 0 0 0 0 0 0 0 0 0 0 0 0 0 0 0 0 0 0 0 0 0 0 0 0 0 0 0 0 0 0 0 0 0 0 0 0 0 0 0 0 0 0 0 0 0 0 0 0 0 0 0 0 0 0 0 0 0 0 0 0 0 0 0 0 0 0 0 0 0 0 0 0 0 0 0 0 0 0 0 0 0 0 0 0 0 0 0 0 0 0 0 0 0 0 0 0 0 0 0 0 0 0 0 0 0 0 0 0 0 0 0 0 0 0 0 0 0 0 0 0 0 0 0 0 0 0 0 0 0 0 0 0 0 0 0 0 0 0 0 0 0 0 0 0 0 0 0 0 0 0 0 0 0 0 0 0 0 0 0 0 0 0 0 0 0 0 0 0 0 0 0 0 0 0 0 0 0 0 0 0 0 0 0 0 0 0 0 0 0 0 0 0 0 0 0 0 0 0 0 0 0 0 0 0 0 0 0 0 0 0 0 0 0 0 0 0 0 0 0 0 0 0 0 0 0 0 0 0 0 0 0 0 0 0 0 0 0 0 0 0 0 0 0 0 0 0 0 0 0 0 0 0 0 0 0 0 0 0 0 0 0 0 0 0 0 0 0 0 0 0 0 0 0 0 0 0 0 0 0 0 0 0 0 0 0 0 0 0 0 0 0 0 0 0 0 0 0 0 0 0 0 0 0 0 0 0 0 0 0 0 0 0 0 0 0 0 0 0 0 0 0 0 0 0 0 0 0 0 0 0 0 0 0 0 0 0 0 0 0 0 0 0 0 0 0 0 0 0 0 0 0 0 0 0 0 0 0 0 0 0 0 0 0 0 0 0 0 0 0 0 0 0 0 0 0 0 0 0 0 0 0 0 0 0 0 0 0 0 0 0 0 0 0 0 0 0 0 0 0 0 0 0 0 0 0 0 0 0 0 0 0 0 0 0 0 0 0 0 0 0 0 0 0 0 0 0 0 0 0 0 0 0 0 0 0 0 0 0 0 0 0 0 0 0 0 0 0 0 0 0 0 0 0 0 0 0 0 0 0 0 0 0 0 0 0 0 0 0 0 0 0 0 0 0 0 0 0 0 0 0 0 0 0 0 0 0 0 0 0 0 0 0 0 0 0 0 0 0 0 0 0 0 0 0 0 0 0 0 0 0 0 0 0 0 0 0 0 0 0 0 0 0 0 0 0 0 0 0 0 0 0 0 0 0 0 0 0 0 0 0 0 0 0 0 0 0 0 0 0 0 0 0 0 0 0 0 0 0 0 0 0 0 0 0 0 0 0 0 0 0 0 0 0 0 0 0 0 0 0 0 0 0 0 0 0 0 0 0 0 0 0 0 0 0 0 0 0 0 0 0 0 0 0 0 0 0 0 0 0 0 3 3 3 3 3 3 3 3 3 3 3 3 3 3 3 3 3 3 3 3 3 3 3 3 3 3 3 3 3 3 3 3 3 3 3 3 3 3 3 3 3 3 3 3 3 3 3 3 3 3 3 3 3 3 3 3 3 3 3 3 3 3 3 3 3 3 3 3 3 3 3 3 3 3 3 3 3 3 3 3 3 3 3 3 3 3 3 3 3 3 3 3 3 3 3 3 3 3 3 3 3 3 3 3 3 3 3 3 3 3 3 3 3 3 3 3 3 3 3 3 3 3 3 3 3 3 3 3 3 3 3 3 3 3 3 3 3 3 3 3 3 3 3 3 3 3 3 3 3 3 3 3 3 3 3 3 3 3 3 3 3 3 3 3 3 3 3 3 3 3 3 3 3 3 3 3 3 3 3 3 3 3 3 3 3 3 3 3 3 3 3 3 3 3 3 3 3 3 3 3 3 3 3 3 3 3 3 3 3 3 3 3 3 3 3 3 3 3 3 3 3 3 3 3 3 3 3 3 3 3 3 3 3 3 3 3 3 3 3 3 3 3 3 3 3 3 3 3 3 3 3 3 3 3 3 3 3 3 3 3 3 3 3 3 3 3 3 3 3 3 3 3 3 3 3 3 3 3 3 3 3 3 3 3 3 3 3 3 3 3 3 3 3 3 3 3 3 3 3 3 3 3 3 3 3 3 3 3 3 3 3 3 3 3 3 3 3 3 3 3 3 3 3 3 3 3 3 3 3 3 3 3 3 3 3 3 3 3 3 3 3 3 3 3 3 3 3 3 3 3 3 3 3 3 3 3 3 3 3 3 3 3 3 3 3 3 3 3 3 3 3 3 3 3 3 3 3 3 3 3 3 3 3 3 3 3 3 3 3 3 3 3 3 3 3 3 3 3 3 3 3 3 3 3 3 3 3 3 3 3 3 3 3 3 3 3 3 3 3 3 3 3 3 3 3 3 3 3 3 3 3 3 3 3 3 3 3 3 3 3 3 3 3 3 3 3 3 3 3 3 3 3 3 3 3 3 3 3 3 3 3 3 3 3 3 3 3 3 3 3 3 3 3 3 3 3 3 3 3 3 3 3 3 3 3 3 3 3 3 3 3 3 3 3 3 3 3 3 3 3 3 3 3 3 3 3 3 3 3 3 3 3 3 3 3 3 3 3 3 3 3 3 3 3 3 3 3 3 3 3 3 3 3 3 3 3 3 3 3 3 3 3 3 3 3 3 3 3 3 3 3 3 3 3 3 3 3 3 3 3 3 3 3 3 3 3 3 3 3 3 3 3 3 3 3 3 3 3 3 3 3 3 3 3 3 3 3 3 3 3 3 3 3 3 3 3 3 3 3 3 3 3 3 3 3 3 3 3 3 3 3 3 3 3 3 3 3 3 3 3 3 3 3 3 3 3 3 3 3 3 3 3 3 3 3 3 3 3 3 3 3 3 3 3 3 3 3 3 3 3 3 3 3 3 3 3 3 3 3 3 3 3 3 3 3 3 3 3 3 3 3 3 3 3 3 3 3 3 3 3 3 3 3 3 3 3 3 3 3 3 3 3 3 3 3 3 3 3 3 3 3 3 3 3 3 3 3 3 3 3 3 3 3 3 3 3 3 3 3 3 3 3 3 3 3 3 3 3 3 3 3 3 3 3 3 3 3 3 3 3 3 3 3 3 3 3 3 3 3 3 3 3 3 3 3 3 3 3 3 3 3 3 3 3 3 3 3 3 3 3 3 3 3 3 3 3 3 3 3 3 3 3 3 3 3 3 3 3 3 3 3 3 3 3 3 3 3 3 3 3 3 3 3 3 3 3 3 3 3 3 3 3 3 3 3 3 3 3 3 3 3 3 3 3 3 3 3 3 3 3 3 3 3 3 3 3 3 3 3 3 3 3 3 3 3 3 3 3 3 3 3 3 3 3 3 3 3 3 3 3 3 3 3 3 3 3 3 3 3 3 3 3 3 3 3 3 3 3 3 3 3 3 3 3 3 3 3 3 3 3 3 3 3 3 3 3 3 3 3 3 3 3 3 3 3 3 3 3 3 3 3 3 3 3 3 3 3 3 3 3 3 3 3 3 3 3 3 3 3 3 3 3 3 3 3 3 3 3 3 3 3 3 3 3 3 3 3 3 3 3 3 3 3 3 3 3 3 3 3 3 3 3 3 3 3 3 3 3 3 3 3 3 3 3 3 3 3 3 3 3 3 3 3 3 3 3 3 3 3 3 3 3 3 3 3 3 3 3 3 3 3 3 3 3 3 3 3 3 3 3 3 3 3 3 3 3 3 3 3 3 3 3 3 3 3 3 3 3 3 3 3 3 3 3 3 3 3 3 3 3 3 3 3 3 3 3 3 3 3 3 3 3 3 3 3 3 3 3 3 3 3 3 3 3 3 3 3 3 3 3 3 3 3 3 3 3 3 3 3 3 3 3 3 3 3 3 3 3 3 3 3 3 3 3 3 3 3 3 3 3 3 3 3 3 3 3 3 3 3 3 3 3 3 3 3 3 3 3 3 3 3 3 3 3 3 3 3 3 3 3 3 3 3 3 3 3 3 3 3 3 3 3 3 3 3 3 3 3 3 3 3 3 3 3 3 3 3 3 3 3 3 3 3 3 3 3 3 3 3 3 3 3 3 3 3 3 3 3 3 3 3 3 3 3 3 3 3 3 3 3 3 3 3 3 3 3 3 3 3 3 3 3 3 3 3 3 3 3 3 3 3 3 3 3 3 3 3 3 3 3 3 3 3 3 3 3 3 3 3 3 3 3 3 3 3 3 3 3 3 3 3 3 3 3 3 3 3 3 3 3 3 3 3 3 3 3 3 3 3 3 3 3 3 3 3 3 3 3 3 3 3 3 3 3 3 3 3 3 3 3 3 3 3 3 3 3 3 3 3 3 3 3 3 3 3 3 3 3 3 3 3 3 3 3 3 3 3 3 3 3 3 3 3 3 3 3 3 3 3 3 3 3 3 3 3 3 3 3 3 3 3 3 3 3 3 3 3 3 3 3 3 3 3 3 3 3 3 3 3 3 3 3 3 3 3 3 3 3 3 3 3 3 3 3 3 3 3 3 3 3 3 3 3 3 3 3 3 3 3 3 3 3 3 3 3 3 3 3 3 3 3 3 3 3 3 3 3 3 3 3 3 3 3 3 3 3 3 3 3 3 3 3 3 3 3 3 3 3 3 3 3 3 3 3 3 3 3 3 3 3 3 3 3 3 3 3 3 3 3 3 3 3 3 3 3 3 3 3 3 3 3 3 3 3 3 3 3 3 3 3 3 3 3 3 3 3 3 3 3 3 3 3 3 3 3 3 3 3 3 3 3 3 3 3 3 3 3 3 3 3 3 3 3 3 3 3 3 3 3 3 3 3 3 3 3 3 3 3 3 3 3 3 3 3 3 3 3 3 3 3 3 3 3 3 3 3 3 3 3 3 3 3 3 3 3 3 3 3 3 3 3 3 3 3 3 3 3 3 3 3 3 3 3 3 3 3 3 3 3 3 3 3 3 3 3 3 3 3 3 3 3 3 3 3 3 3 3 3 3 3 3 3 3 3 3 3 3 3 3 3 3 3 3 3 3 3 3 3 3 3 3 3 3 3 3 3 3 3 3 3 3 3 3 3 3 3 3 3 3 3 3 3 3 3 3 3 3 3 3 3 3 3 3 3 3 3 3 3 3 3 3 3 3 3 3 3 3 3 3 3 3 3 3 3 3 3 3 3 3 3 3 3 3 3 3 3 3 3 3 3 3 3 3 3 3 3 3 3 3 3 3 3 3 3 3 3 3 3 3 3 3 3 3 3 3 3 3 3 3 3 3 3 3 3 3 3 3 3 3 3 3 3 3 3 3 3 3 3 3 3 3 3 3 3 3 3 3 3 3 3 3 3 3 3 3 3 3 3 3 3 3 3 3 3 3 3 3 3 3 3 3 3 3 3 3 3 3 3 3 3 3 3 3 3 3 3 3 3 3 3 3 3 3 3 3 3 3 3 3 3 3 3 3 3 3 3 3 3 3 3 3 3 3 3 3 3 3 3 3 3 3 3 3 3 3 3 3 3 3 3 3 3 3 3 3 3 3 3 3 3 3 3 3 3 3 3 3 3 3 3 3 3 3 3 3 3 3 3 3 3 3 3 3 3 3 3 3 3 3 3 3 3 3 3 3 3 3 3 3 3 3 3 3 3 3 3 3 3 3 3 3 3 3 3 3 3 3 3 3 3 3 3 3 3 3 3 3 3 3 3 3 3 3 3 3 3 3 3 3 3 3 3 3 3 3 3 3 3 3 3 3 3 3 3 3 3 3 3 3 3 3 3 3 3 3 3 3 3 3 3 3 3 3 3 3 3 3 3 3 3 3 3 3 3 
CellOffSpring 1 2975 float
0 0 0 0 0 0 0 0 0 0 0 0 0 0 0 0 0 0 0 0 0 0 0 0 0 0 0 0 0 0 0 0 0 0 0 0 0 0 0 0 0 0 0 0 0 0 0 0 0 0 0 0 0 0 0 0 0 0 0 0 0 0 0 0 0 0 0 0 0 0 0 0 0 0 0 0 0 0 0 0 0 0 0 0 0 0 0 0 0 0 0 0 0 0 0 0 0 0 0 0 0 0 0 0 0 0 0 0 0 0 0 0 0 0 0 0 0 0 0 0 0 0 0 0 0 0 0 0 0 0 0 0 0 0 0 0 0 0 0 0 0 0 0 0 0 0 0 0 0 0 0 0 0 0 0 0 0 0 0 0 0 0 0 0 0 0 0 0 0 0 0 0 0 0 0 0 0 0 0 0 0 0 0 0 0 0 0 0 0 0 0 0 0 0 0 0 0 0 0 0 0 0 0 0 0 0 0 0 0 0 0 0 0 0 0 0 0 0 0 0 0 0 0 0 0 0 0 0 0 0 0 0 0 0 0 0 0 0 0 0 0 0 0 0 0 0 0 0 0 0 0 0 0 0 0 0 0 0 0 0 0 0 0 0 0 0 0 0 0 0 0 0 0 0 0 0 0 0 0 0 0 0 0 0 0 0 0 0 0 0 0 0 0 0 0 0 0 0 0 0 0 0 0 0 0 0 0 0 0 0 0 0 0 0 0 0 0 0 0 0 0 0 0 0 0 0 0 0 0 0 0 0 0 0 0 0 0 0 0 0 0 0 0 0 0 0 0 0 0 0 0 0 0 0 0 0 0 0 0 0 0 0 0 0 0 0 0 0 0 0 0 0 0 0 0 0 0 0 0 0 0 0 0 0 0 0 0 0 0 0 0 0 0 0 0 0 0 0 0 0 0 0 0 0 0 0 0 0 0 0 0 0 0 0 0 0 0 0 0 0 0 0 0 0 0 0 0 0 0 0 0 0 0 0 0 0 0 0 0 0 0 0 0 0 0 0 0 0 0 0 0 0 0 0 0 0 0 0 0 0 0 0 0 0 0 0 0 0 0 0 0 0 0 0 0 0 0 0 0 0 0 0 0 0 0 0 0 0 0 0 0 0 0 0 0 0 0 0 0 0 0 0 0 0 0 0 0 0 0 0 0 0 0 0 0 0 0 0 0 0 0 0 0 0 0 0 0 0 0 0 0 0 0 0 0 0 0 0 0 0 0 0 0 0 0 0 0 0 0 0 0 0 0 0 0 0 0 0 0 0 0 0 0 0 0 0 0 0 0 0 0 0 0 0 0 0 0 0 0 0 0 0 0 0 0 0 0 0 0 0 0 0 0 0 0 0 0 0 0 0 0 0 0 0 0 0 0 0 0 0 0 0 0 0 0 0 0 0 0 0 0 0 0 0 0 0 0 0 0 0 0 0 0 0 0 0 0 0 0 0 0 0 0 0 0 0 0 0 0 0 0 0 0 0 0 0 0 0 0 0 0 0 0 0 0 0 0 0 0 0 0 0 0 0 0 0 0 0 0 0 0 0 0 0 0 0 0 0 0 0 0 0 0 0 0 0 0 0 0 0 0 0 0 0 0 0 0 0 0 0 0 0 0 0 0 0 0 0 0 0 0 0 0 0 0 0 0 0 0 0 0 0 0 0 0 0 0 0 0 0 0 0 0 0 0 0 0 0 0 0 0 0 0 0 0 0 0 0 0 0 0 0 0 0 0 0 0 0 0 0 0 0 0 0 0 0 0 0 0 0 0 0 0 0 0 0 0 0 0 0 0 0 0 0 0 0 0 0 0 0 0 0 0 0 0 0 0 0 0 0 0 0 0 0 0 0 0 0 0 0 0 0 0 0 0 0 0 0 0 0 0 0 0 0 0 0 0 0 0 0 0 0 0 0 0 0 0 0 0 0 0 0 0 0 0 0 0 0 0 0 0 0 0 0 0 0 0 0 0 0 0 0 0 0 0 0 0 0 0 0 0 0 0 0 0 0 0 0 0 0 0 0 0 0 0 0 0 0 0 0 0 0 0 0 0 0 0 0 0 0 0 0 0 0 0 0 0 0 0 0 0 0 0 0 0 0 0 0 0 0 0 0 0 0 0 0 0 0 0 0 0 0 0 0 0 0 0 0 0 0 0 0 0 0 0 0 0 0 0 0 0 0 0 0 0 0 0 0 0 0 0 0 0 0 0 0 0 0 0 0 0 0 0 0 0 0 0 0 0 0 0 0 0 0 0 0 0 0 0 0 0 0 0 0 0 0 0 0 0 0 0 0 0 0 0 0 0 0 0 0 0 0 0 0 0 0 0 0 0 0 0 0 0 0 0 0 0 0 0 0 0 0 0 0 0 0 0 0 0 0 0 0 0 0 0 0 0 0 0 0 0 0 0 0 0 0 0 0 0 0 0 0 0 0 0 0 0 0 0 0 0 0 0 0 0 0 0 0 0 0 0 0 0 0 0 0 0 0 0 0 0 0 0 0 0 0 0 0 0 0 0 0 0 0 0 0 0 0 0 0 0 0 0 0 0 0 0 0 0 0 0 0 0 0 0 0 0 0 0 0 0 0 0 0 0 0 0 0 0 0 0 0 0 0 0 0 0 0 0 0 0 0 0 0 0 0 0 0 0 0 0 0 0 0 0 0 0 0 0 0 0 0 0 0 0 0 0 0 0 0 0 0 0 0 0 0 0 0 0 0 0 0 0 0 0 0 0 0 0 0 0 0 0 0 0 0 0 0 0 0 0 0 0 0 0 0 0 0 0 0 0 0 0 0 0 0 0 0 0 0 0 0 0 0 0 0 0 0 0 0 0 0 0 0 0 0 0 0 0 0 0 0 0 0 0 0 0 0 0 0 0 0 0 0 0 0 0 0 0 0 0 0 0 0 0 0 0 0 0 0 0 0 0 0 0 0 0 0 0 0 0 0 0 0 0 0 0 0 0 0 0 0 0 0 0 0 0 0 0 0 0 0 0 0 0 0 0 0 0 0 0 0 0 0 0 0 0 0 0 0 0 0 0 0 0 0 0 0 0 0 0 0 0 0 0 0 0 0 0 0 0 0 0 0 0 0 0 0 0 0 0 0 0 0 0 0 0 0 0 0 0 0 0 0 0 0 0 0 0 0 0 0 0 0 0 0 0 0 0 0 0 0 0 0 0 0 0 0 0 0 0 0 0 0 0 0 0 0 0 0 0 0 0 0 0 0 0 0 0 0 0 0 0 0 0 0 0 0 0 0 0 0 0 0 0 0 0 0 0 0 0 0 0 0 0 0 0 0 0 0 0 0 0 0 0 0 0 0 0 0 0 0 0 0 0 0 0 0 0 0 0 0 0 0 0 0 0 0 0 0 0 0 0 0 0 0 0 0 0 0 0 0 0 0 0 0 0 0 0 0 0 0 0 0 0 0 0 0 0 0 0 0 0 0 0 0 0 0 0 0 0 0 0 0 0 0 0 0 0 0 0 0 0 0 0 0 0 0 0 0 0 0 0 0 0 0 0 0 0 0 0 0 0 0 0 0 0 0 0 0 0 0 0 0 0 0 0 0 0 0 0 0 0 0 0 0 0 0 0 0 0 0 0 0 0 0 0 0 0 0 0 0 0 0 0 0 0 0 0 0 0 0 0 0 0 0 0 0 0 0 0 0 0 0 0 0 0 0 0 0 0 0 0 0 0 0 0 0 0 0 0 0 0 0 0 0 0 0 0 0 0 0 0 0 0 0 0 0 0 0 0 0 0 0 0 0 0 0 0 0 0 0 0 0 0 0 0 0 0 0 0 0 0 0 0 0 0 0 0 0 0 0 0 0 0 0 0 0 0 0 0 0 0 0 0 0 0 0 0 0 0 0 0 0 0 0 0 0 0 0 0 0 0 0 0 0 0 0 0 0 0 0 0 0 0 0 0 0 0 0 0 0 0 0 0 0 0 0 0 0 0 0 0 0 0 0 0 0 0 0 0 0 0 0 0 0 0 0 0 0 0 0 0 0 0 0 0 0 0 0 0 0 0 0 0 0 0 0 0 0 0 0 0 0 0 0 0 0 0 0 0 0 0 0 0 0 0 0 0 0 0 0 0 0 0 0 0 0 0 0 0 0 0 0 0 0 0 0 0 0 0 0 0 0 0 0 0 0 0 0 0 0 0 0 0 0 0 0 0 0 0 0 0 0 0 0 0 0 0 0 0 0 0 0 0 0 0 0 0 0 0 0 0 0 0 0 0 0 0 0 0 0 0 0 0 0 0 0 0 0 0 0 0 0 0 0 0 0 0 0 0 0 0 0 0 0 0 0 0 0 0 0 0 0 0 0 0 0 0 0 0 0 0 0 0 0 0 0 0 0 0 0 0 0 0 0 0 0 0 0 0 0 0 0 0 0 0 0 0 0 0 0 0 0 0 0 0 0 0 0 0 0 0 0 0 0 0 0 0 0 0 0 0 0 0 0 0 0 0 0 0 0 0 0 0 0 0 0 0 0 0 0 0 0 0 0 0 0 0 0 0 0 0 0 0 0 0 0 0 0 0 0 0 0 0 0 0 0 0 0 0 0 0 0 0 0 0 0 0 0 0 0 0 0 0 0 0 0 0 0 0 0 0 0 0 0 0 0 0 0 0 0 0 0 0 0 0 0 0 0 0 0 0 0 0 0 0 0 0 0 0 0 0 0 0 0 0 0 0 0 0 0 0 0 0 0 0 0 0 0 0 0 0 0 0 0 0 0 0 0 0 0 0 0 0 0 0 0 0 0 0 0 0 0 0 0 0 0 0 0 0 0 0 0 0 0 0 0 0 0 0 0 0 0 0 0 0 0 0 0 0 0 0 0 0 0 0 0 0 0 0 0 0 0 0 0 0 0 0 0 0 0 0 0 0 0 0 0 0 0 0 0 0 0 0 0 0 0 0 0 0 0 0 0 0 0 0 0 0 0 0 0 0 0 0 0 0 0 0 0 0 0 0 0 0 0 0 0 0 0 0 0 0 0 0 0 0 0 0 0 0 0 0 0 0 0 0 0 0 0 0 0 0 0 0 0 0 0 0 0 0 0 0 0 0 0 0 0 0 0 0 0 0 0 0 0 0 0 0 0 0 0 0 0 0 0 0 0 0 0 0 0 0 0 0 0 0 0 0 0 0 0 0 0 0 0 0 0 0 0 0 0 0 0 0 0 0 0 0 0 0 0 0 0 0 0 0 0 0 0 0 0 0 0 0 0 0 0 0 0 0 0 0 0 0 0 0 0 0 0 0 0 0 0 0 0 0 0 0 0 0 0 0 0 0 0 0 0 0 0 0 0 0 0 0 0 0 0 0 0 0 0 0 0 0 0 0 0 0 0 0 0 0 0 0 0 0 0 0 0 0 0 0 0 0 0 0 0 0 0 0 0 0 0 0 0 0 0 0 0 0 0 0 0 0 0 0 0 0 0 0 0 0 0 0 0 0 0 0 0 0 0 0 0 0 0 0 0 0 0 0 0 0 0 0 0 0 0 0 0 0 0 0 0 0 0 0 0 0 0 0 0 0 0 0 0 0 0 0 0 0 0 0 0 0 0 0 0 0 0 0 0 0 0 0 0 0 0 0 0 0 0 0 0 0 0 0 0 0 0 0 0 0 0 0 0 0 0 0 0 0 0 0 0 0 0 0 0 0 0 0 0 0 0 0 0 0 0 0 0 0 0 0 0 0 0 0 0 0 0 0 0 0 0 0 0 0 0 0 0 0 0 0 0 0 0 0 0 0 0 0 0 0 0 0 0 0 0 0 0 0 0 0 0 0 0 0 0 0 0 0 0 0 0 0 0 0 0 0 0 0 0 0 0 0 0 0 0 0 0 0 0 0 0 0 0 0 0 0 0 0 0 0 0 0 0 0 0 0 0 0 0 0 0 0 0 0 0 0 0 0 0 0 0 0 0 0 0 0 0 0 0 0 0 0 0 0 0 0 0 0 0 0 0 0 0 0 0 0 0 0 0 0 0 0 0 0 0 0 0 0 0 0 0 0 0 0 0 0 0 0 0 0 0 0 0 0 0 0 0 0 0 0 0 0 0 0 0 0 0 0 0 0 0 0 0 0 0 0 0 0 0 0 0 0 0 0 0 0 0 0 0 0 0 0 0 0 0 0 0 0 0 0 0 0 0 0 0 0 0 0 0 0 0 0 0 0 0 0 0 0 0 0 0 0 0 0 0 0 0 0 0 0 0 0 0 0 0 0 0 0 0 0 0 0 0 0 0 0 0 0 0 0 0 0 0 0 0 0 0 0 0 0 0 0 0 0 0 0 0 0 0 0 0 0 0 0 0 0 0 0 0 0 0 0 0 0 0 0 0 0 0 0 0 0 0 0 0 0 0 0 0 0 0 0 0 0 0 0 0 0 0 0 0 0 0 0 0 0 0 0 0 0 0 0 0 0 0 0 0 0 0 0 0 0 0 0 0 0 0 0 0 0 0 0 0 0 0 0 0 0 0 0 0 0 0 0 0 0 0 0 0 0 0 0 0 0 0 0 0 0 0 0 0 0 0 0 0 0 0 0 0 0 0 0 0 0 0 0 0 0 0 0 0 0 0 0 0 0 0 0 0 0 0 0 0 0 0 0 0 0 0 0 0 0 0 0 0 0 0 0 0 0 0 0 0 0 0 0 0 0 0 0 0 0 0 0 0 0 0 0 0 0 0 0 0 0 0 0 0 0 0 0 0 0 
GradVel 1 2975 float
0.0 0.0 0.0 0.0 0.0 0.0 0.0 0.0 0.0 0.0 0.0 0.0 0.0 -8.837205899999999e-07 -9.2714233e-18 -4.6434889000000005e-06 -3.1312341999999997e-05 -8.480810699999999e-06 -6.1700543e-05 -0.0001942183 -7.122295900000001e-05 -0.00027029062000000003 -0.00064925011 -0.00025289916 -0.00073830341 -0.0015509247 -0.00059518137 -0.0015209297 -0.0029610460999999998 -0.0010865282 -0.0025800825 -0.004798674 -0.0016627751999999999 -0.0037905048 -0.0068528051000000005 -0.0022398797 -0.0049975086 -0.0088760704 -0.0027599777 -0.006099133299999999 -0.010722141999999999 -0.0032241126 -0.007103936700000001 -0.012431633000000001 -0.0036993069 -0.0081534926 -0.014271178 -0.0043149125 -0.0095189353 -0.01671958 -0.0052696341 -0.01160989 -0.020462789 -0.0068978174 -0.01504093 -0.026429888 -0.0097515387 -0.020577561 -0.035566445 -0.014588585 -0.028740142000000003 -0.048062071 -0.039734777 -0.063319229 0.0 0.0 0.0 0.0 0.0 0.0 0.0 0.0 0.0 0.0 0.0 0.0 0.0 0.0 0.0 0.0 0.0 0.0 0.0 0.0 0.0 0.0 0.0 0.0 0.0 -1.5818813e-07 -1.0053141e-06 -2.3744401000000003e-06 -3.5428254e-06 -4.1885978e-06 -4.629292599999999e-06 -4.960824799999999e-06 -7.600143400000001e-06 -2.4657390999999997e-05 -5.2449103999999997e-05 -8.661910400000001e-05 -0.00012015708999999999 -0.00014735591 -0.00016639785 -0.00017918585 -9.3633884e-05 -0.00019800116000000002 -0.00034061443999999996 -0.0005045663 -0.00066509651 -0.00080186303 -0.0009069276300000001 -0.00098251284 -0.00042449209 -0.00076201506 -0.0011948926 -0.0016781028 -0.0021473244 -0.0025519622 -0.0028724223 -0.0031122025 -0.0012311328 -0.0020353326 -0.0030357679 -0.0041325209000000005 -0.0051881834 -0.006099079300000001 -0.0068283649 -0.0073842835 -0.0027199553 -0.0042850468 -0.0061974316 -0.0082663959 -0.010235769 -0.011924609 -0.013279198999999998 -0.014320761000000001 -0.0049515208 -0.007563957 -0.010715678999999999 -0.014078773999999999 -0.017230116 -0.019903457 -0.022041986 -0.02369206 -0.007781419 -0.011633512 -0.016213091000000002 -0.021009119 -0.025408087000000003 -0.029096103999999998 -0.032034133 -0.034300897000000004 -0.010879238999999999 -0.01599142 -0.021918071 -0.013874595 -0.02009986 -0.016587433999999998 -0.023775952000000003 -0.019137114 -0.027298298 -0.021958067999999997 -0.031263843 -0.025774669 -0.036608174 -0.031562053 -0.044516355 -0.04054714 -0.05635927599999999 -0.053880908 -0.0733383 -0.071642362 -0.09555997 -0.09256930599999999 -0.12164528 0.0 0.0 0.0 0.0 0.0 0.0 0.0 0.0 0.0 0.0 0.0 0.0 0.0 0.0 0.0 0.0 0.0 0.0 0.0 0.0 0.0 0.0 0.0 0.0 0.0 0.0 0.0 -5.1950396e-06 -5.3487338e-06 -5.439989299999999e-06 -5.4859797e-06 -5.5018808999999995e-06 -5.4998777000000005e-06 -5.4893967e-06 -5.477331799999999e-06 -5.4683082e-06 -0.00018829986000000001 -0.00019454505 -0.00019849636000000002 -0.00020073108 -0.00020177435 -0.00020206793999999999 -0.00020196129000000002 -0.00020171154999999998 -0.00020149413 -0.0010351808 -0.0010715752 -0.0010953892 -0.0011096011 -0.0011169908 -0.0011199448 -0.0011203757 -0.0011197153 -0.0011189417999999999 -0.0032845284000000002 -0.0034042932 -0.0034840761 -0.0035332822999999997 -0.0035604038 -0.0035728388 -0.0035765942 -0.0035761921 -0.0035747459999999997 -0.007792453299999999 -0.0080809016 -0.008275264899999999 -0.0083975261 -0.0084671816 -0.008501351800000001 -0.0085140234 -0.0085158125 -0.0085140457 -0.015095371000000002 -0.015650107 -0.016027804 -0.016268153 -0.016407626 -0.016478468 -0.016507147 -0.016513811 -0.016512396000000002 -0.024928089 -0.025821069 -0.026433436 -0.026825525 -0.027054919 -0.027173272999999998 -0.027222956 -0.027236264 -0.027235562 -0.036003422 -0.037238732000000004 -0.038088348 -0.038632616 -0.038950976 -0.03911531 -0.039184502999999996 -0.039203241 -0.039202432999999995 0.0 0.0 0.0 0.0 0.0 0.0 0.0 0.0 0.0 0.0 0.0 0.0 0.0 0.0 0.0 0.0 0.0 0.0 0.0 0.0 0.0 0.0 0.0 0.0 -5.4650068e-06 -5.4683078e-06 -5.477330400000001e-06 -5.4893962e-06 -5.4998786e-06 -5.5018822e-06 -5.4859802e-06 -5.439990700000001e-06 -0.00020141072 -0.00020149416000000002 -0.00020171152 -0.00020196129000000002 -0.00020206791 -0.00020177431 -0.00020073107 -0.00019849632 -0.0011186218 -0.0011189417999999999 -0.0011197157 -0.0011203757 -0.0011199448 -0.0011169906 -0.0011096011 -0.0010953891 -0.0035740661 -0.0035747459999999997 -0.0035761914 -0.0035765937 -0.0035728395 -0.0035604045000000003 -0.0035332832 -0.0034840761 -0.0085129878 -0.008514049499999999 -0.008515813399999999 -0.0085140262 -0.0085013546 -0.0084671844 -0.008397524200000001 -0.0082752667 -0.016511033999999997 -0.016512392 -0.016513817 -0.016507147 -0.016478468 -0.016407624 -0.016268156000000002 -0.016027808 -0.02723391 -0.027235557999999997 -0.027236262 -0.027222958999999998 -0.027173272999999998 -0.027054912999999996 -0.02682551 -0.026433427000000002 -0.03920022 -0.039202441 -0.039203222999999995 -0.039184502999999996 -0.039115328 -0.038950976 -0.038632609 -0.038088343999999996 0.0 0.0 0.0 0.0 0.0 0.0 0.0 0.0 0.0 0.0 0.0 0.0 0.0 0.0 0.0 0.0 0.0 0.0 0.0 0.0 0.0 0.0 0.0 0.0 0.0 0.0 0.0 -5.3487333e-06 -5.1950396e-06 -4.9608243e-06 -4.6292921e-06 -4.1885974e-06 -3.5428254e-06 -2.3744402999999997e-06 -1.0053143e-06 -1.5818813e-07 -0.00019454501 -0.00018829985 -0.00017918587 -0.0001663978 -0.00014735591999999998 -0.00012015706 -8.6619111e-05 -5.2449119e-05 -2.4657387e-05 -0.0010715751 -0.0010351809 -0.00098251295 -0.00090692739 -0.0008018629700000001 -0.00066509645 -0.0005045664700000001 -0.00034061437999999993 -0.00019800118999999998 -0.0034042925 -0.0032845278999999996 -0.003112203 -0.0028724223 -0.0025519619 -0.0021473239000000003 -0.0016781026 -0.0011948928 -0.0007620151200000001 -0.0080809025 -0.0077924561 -0.0073842825 -0.006828364 -0.0060990811 -0.0051881834 -0.0041325213 -0.0030357682 -0.0020353331 -0.015650105 -0.015095373 -0.014320756 -0.013279197 -0.01192461 -0.010235769 -0.0082663959 -0.0061974321 -0.0042850482 -0.025821071 -0.024928095 -0.023692055 -0.022041988 -0.019903453 -0.017230118 -0.014078776999999999 -0.010715678000000001 -0.0075639589 -0.037238732000000004 -0.036003426 -0.034300897000000004 -0.032034133 -0.029096102000000002 -0.025408087000000003 -0.021009125 -0.016213091000000002 -0.011633513 -0.02191807 -0.015991421000000002 -0.020099865 -0.023775958 -0.027298296 -0.031263843 -0.036608171 -0.044516355 -0.05635928 -0.073338315 -0.095559984 -0.12164527 0.0 0.0 0.0 0.0 0.0 0.0 0.0 0.0 0.0 0.0 0.0 0.0 0.0 0.0 0.0 -7.600143400000001e-06 -8.837205899999999e-07 0.0 0.0 -9.363389100000001e-05 -3.1312331e-05 -4.6434893e-06 -9.2714216e-18 -0.00042449210999999994 -0.00019421827000000002 -6.1700535e-05 -8.4808125e-06 -0.001231133 -0.00064925005 -0.00027029056 -7.1222967e-05 -0.0027199565 -0.0015509245000000001 -0.00073830341 -0.00025289913 -0.0049515213 -0.0029610460999999998 -0.0015209299 -0.00059518137 -0.0077814218000000004 -0.004798674 -0.0025800818 -0.0010865282 -0.010879238000000001 -0.0068528065 -0.0037905042999999998 -0.0016627755 -0.013874596999999999 -0.0088760704 -0.004997509099999999 -0.0022398797 -0.016587432 -0.010722141999999999 -0.0060991338 -0.0027599782000000002 -0.019137112 -0.012431631 -0.0071039349 -0.0032241123 -0.021958067999999997 -0.014271178999999998 -0.0081534935 -0.0036993069 -0.025774667 -0.01671958 -0.0095189363 -0.0043149134 -0.031562056 -0.020462789 -0.01160989 -0.005269634499999999 -0.040547147 -0.026429895 -0.01504093 -0.0068978178 -0.053880908 -0.035566445 -0.020577566999999998 -0.0097515378 -0.071642369 -0.048062075 -0.028740138 -0.014588587 -0.092569329 -0.063319214 -0.039734781000000004 0.0 0.0 0.0 0.0 0.0 0.0 0.0 0.0 0.0 0.0 0.0 0.0 0.0 0.0 0.0 0.0 0.0 0.0 0.0 0.0 0.0 0.0 0.0 0.0 0.0 0.0 0.0 0.0 0.0 0.0 0.0 0.0 0.0 0.0 0.0 0.0 0.0 0.0 0.0 0.0 0.0 0.0 0.0 0.0 0.0 0.0 0.0 0.0 0.0 0.0 0.0 0.0 0.0 0.0 0.0 0.0 0.0 0.0 0.0 0.0 0.0 0.0 0.0 0.0 0.0 0.0 0.0 0.0 0.0 0.0 0.0 0.0 0.0 0.0 0.0 0.0 0.0 0.0 0.0 0.0 0.0 0.0 0.0 0.0 0.0 0.0 0.0 0.0 0.0 0.0 0.0 0.0 0.0 0.0 0.0 0.0 0.0 0.0 0.0 0.0 0.0 0.0 0.0 0.0 0.0 0.0 0.0 0.0 0.0 0.0 0.0 0.0 0.0 0.0 0.0 0.0 0.0 0.0 0.0 0.0 0.0 0.0 0.0 0.0 0.0 0.0 0.0 0.0 0.0 0.0 0.0 0.0 0.0 0.0 0.0 0.0 0.0 0.0 0.0 0.0 0.0 0.0 0.0 0.0 0.0 0.0 0.0 0.0 0.0 0.0 0.0 0.0 0.0 0.0 0.0 0.0 0.0 0.0 0.0 0.0 0.0 0.0 0.0 0.0 0.0 0.0 0.0 0.0 0.0 0.0 0.0 0.0 0.0 0.0 0.0 0.0 0.0 0.0 0.0 0.0 0.0 0.0 0.0 0.0 0.0 0.0 0.0 0.0 0.0 0.0 0.0 0.0 0.0 0.0 0.0 0.0 0.0 0.0 0.0 0.0 0.0 0.0 0.0 0.0 0.0 0.0 0.0 0.0 0.0 0.0 0.0 0.0 0.0 0.0 0.0 0.0 0.0 0.0 0.0 0.0 0.0 0.0 0.0 0.0 0.0 0.0 0.0 0.0 0.0 0.0 0.0 0.0 0.0 0.0 0.0 0.0 0.0 0.0 0.0 0.0 0.0 0.0 0.0 0.0 0.0 0.0 0.0 0.0 0.0 0.0 0.0 0.0 0.0 0.0 0.0 0.0 0.0 0.0 0.0 0.0 0.0 0.0 0.0 0.0 0.0 0.0 0.0 0.0 0.0 0.0 0.0 0.0 0.0 0.0 0.0 0.0 0.0 0.0 0.0 0.0 0.0 0.0 0.0 0.0 0.0 0.0 0.0 0.0 0.0 0.0 0.0 0.0 0.0 0.0 0.0 0.0 0.0 0.0 0.0 0.0 0.0 0.0 0.0 0.0 0.0 0.0 0.0 0.0 0.0 0.0 0.0 0.0 0.0 0.0 0.0 0.0 0.0 0.0 0.0 0.0 0.0 0.0 0.0 0.0 0.0 0.0 0.0 0.0 0.0 0.0 0.0 0.0 0.0 0.0 0.0 0.0 0.0 0.0 0.0 0.0 0.0 0.0 0.0 0.0 0.0 0.0 0.0 0.0 0.0 0.0 0.0 0.0 0.0 0.0 0.0 0.0 0.0 0.0 0.0 0.0 0.0 0.0 0.0 0.0 0.0 0.0 0.0 0.0 0.0 0.0 0.0 0.0 0.0 0.0 0.0 0.0 0.0 0.0 0.0 0.0 0.0 0.0 0.0 0.0 0.0 0.0 0.0 0.0 0.0 0.0 0.0 0.0 0.0 0.0 0.0 0.0 0.0 0.0 0.0 0.0 0.0 0.0 0.0 0.0 0.0 0.0 0.0 0.0 0.0 0.0 0.0 0.0 0.0 0.0 0.0 0.0 0.0 0.0 0.0 0.0 0.0 0.0 0.0 0.0 0.0 0.0 0.0 0.0 0.0 0.0 0.0 0.0 0.0 0.0 0.0 0.0 0.0 0.0 0.0 0.0 0.0 0.0 0.0 0.0 0.0 0.0 0.0 0.0 0.0 0.0 0.0 0.0 0.0 0.0 0.0 0.0 0.0 0.0 0.0 0.0 0.0 0.0 0.0 0.0 0.0 0.0 0.0 0.0 0.0 0.0 0.0 0.0 -0.027877284 -0.033319883 -0.037820064 -0.041382026 -0.0441163 -0.026807197999999997 -0.033965286000000004 -0.040174294 -0.045241695 -0.049195117999999996 -0.052186820999999994 -0.031405683999999996 -0.039455238999999996 -0.046363138 -0.051890381 -0.05609991 -0.059203222 -0.035939224 -0.044952075999999994 -0.052602008 -0.05859495 -0.063023165 -0.066168875 -0.0411641 -0.051241472 -0.05968402 -0.066178747 -0.070841737 -0.074006513 -0.048506867 -0.059600047999999996 -0.068631418 -0.075437717 -0.080233455 -0.08337611 -0.060138367000000005 -0.071908273 -0.080770396 -0.087214291 -0.091702387 -0.09460958800000001 -0.0788747 -0.09035597699999999 -0.09747385199999999 -0.10222837 -0.10554981 -0.10776965 -0.10752093 -0.11658142 -0.11947916 -0.12071628 -0.12176393 -0.12272564 -0.14714643 -0.1500227 -0.1459493 -0.14201748 -0.13993208 -0.13923097 -0.19363749 -0.18654081 -0.17402065 -0.16443589 -0.15917532 -0.15686876 -0.23021518 -0.21843649 -0.1996008 -0.18588541 -0.17848703 -0.17517242 -0.23439527 -0.23384203 -0.21850477 -0.20490396 -0.19730285 -0.19392279 -0.22995369 -0.23689733 -0.23096183 -0.22168756 -0.21588524 -0.21331441 -0.23465323 -0.24181286 -0.24243066 -0.2383554 -0.23525165 -0.23387744 -0.24880178 -0.25433058 -0.25770983 -0.25735715 -0.25654703 -0.25618848 -0.27029246 -0.27464369 -0.27856946 -0.27990994 -0.28040111 -0.28068623 -0.29676291 -0.30055508 -0.30425614 -0.30596071 -0.30700248 -0.30767053 -0.32624829 -0.33007428 -0.3335644 -0.33515206 -0.33642948 -0.33735532 -0.35826612 -0.36263236 -0.36599475 -0.36737281 -0.3687619 -0.36982191 -0.39344701 -0.39839149 -0.4015308 -0.40262082 -0.40399659 -0.40506601 -0.43235335 -0.43755293 -0.44018614 -0.44089285 -0.44211328 -0.44304091 -0.47534069 -0.48019853 -0.48200858 -0.48219132 -0.48302871 -0.48358777 -0.52228498 -0.52610373 -0.52685142 -0.52624041 -0.52628505 -0.52612793 -0.5721243 -0.57421803 -0.5737896 -0.5718292 -0.57041031 -0.56905478 -0.62201762 -0.62180746 -0.62014621 -0.61581188 -0.61204338 -0.60895711 -0.6663667 -0.66341263 -0.66031039 -0.65208364 -0.64505357 -0.63990641 -0.6961602 -0.69015086 -0.68509531 -0.67106092 -0.6602003 -0.6531592 -0.69806111 -0.68904203 -0.68116391 -0.65984267 -0.6455102 -0.6375404 -0.65218794 -0.64091468 -0.62960094 -0.60225594 -0.58668673 -0.57970172 -0.53092897 -0.51810533 -0.50358135 -0.47807723 -0.46478748 -0.46158925 -0.29544589 -0.28189981 -0.28033662 -0.26373178 -0.25568411 -0.258672 0.078400485 0.091893524 0.07006759900000001 0.064284042 0.061539530999999995 0.052570432 0.5716508 0.59612262 0.54644656 0.51466435 0.49377325 0.47999227 1.0854398 1.1530421 1.0891035 1.0508068000000002 1.0150567 1.0004245 1.582166 1.6670604 1.6100665 1.5976823999999998 1.5631218 1.5519551999999999 1.9150943999999999 2.0371807 2.0256023 2.0458486000000002 2.0373558999999997 2.0404415 2.0325177 2.2371993 2.2215197 2.2824981 2.3203522999999997 2.3579887999999998 2.0004272000000003 2.2833428 2.2461441000000004 2.3374085 2.4139516 2.4814172 1.895118 2.2257242 2.1870067000000004 2.2856023 2.3819217999999998 2.4655718999999996 1.7859415 2.1385834 2.1109729 2.2047958 2.3028381 2.3876936 1.7116988999999998 2.0656528 2.0511711 2.1387598999999997 2.2248349 2.2994312999999997 1.6630421999999998 2.0036026999999996 1.9982516 2.0801928 2.1499894 2.2088577999999996 1.6110181000000001 1.9283116000000002 1.9248657 1.9981863000000002 2.0503967 2.09131 1.5251854999999999 1.8090342000000001 1.8011651000000002 1.8600447 1.8933131999999997 1.9152796000000003 1.3971539 1.6347523000000002 1.616751 1.6527176 1.6645662 1.6675276 1.2374498 1.4221876 1.3829831 1.3903267 1.3800729999999999 1.3655697 1.0700963 1.1985123 1.1302023 1.1086397 1.081358 1.0517657 0.9196586 0.9950372 0.89513803 0.85397732 0.81114542 0.76935279 0.78729874 0.82500803 0.70216429 0.64923871 0.59215283 0.54394811 0.66870987 0.6858567 0.55155963 0.49225271 0.42922267 0.37988621 0.55267161 0.5691303 0.43222332 0.37500328 0.31338429 0.26664281 0.45165387 0.45704448 0.33848184 0.28473887 0.22966364 0.18832403 0.41899148 0.3611232 0.2588816 0.21072246 0.16543752 0.13183749 0.3665033 0.28301799 0.18403988 0.14482692 0.11396933 0.088859215 0.21795353 0.11056507 0.08083296599999999 0.069991343 0.055892251 0.17050731 0.063795216 0.022764213 0.030890703 0.029753432000000003 0.063551262 -0.008210822900000001 -0.00032305717 0.009580195 0.08825618 0.017144151 -0.012854785 -0.0022056848 0.081148483 0.022356056000000003 0.010132864 0.095677175 0.071406707 0.08838450199999999 0.14521 -0.046164334 -0.047649205 -0.048668064000000004 -0.049316399000000004 -0.049692012 -0.049882925999999994 -0.049960554000000004 -0.04997896 -0.049975522 -0.054400899 -0.055989958 -0.057065810999999994 -0.057735845 -0.058112238 -0.058293197000000005 -0.058356963 -0.058362424 -0.058350070999999996 -0.061441052999999995 -0.06300486599999999 -0.064026944 -0.064630613 -0.064942807 -0.065068051 -0.06508725900000001 -0.065060385 -0.065028518 -0.068342574 -0.06978554299999999 -0.0706608 -0.071118303 -0.07130342 -0.071325511 -0.07126613700000001 -0.071184389 -0.071120083 -0.07606346900000001 -0.077315941 -0.07796958799999999 -0.078214221 -0.078216039 -0.07809054900000001 -0.077919349 -0.07775969099999999 -0.077649549 -0.085265256 -0.08626289699999999 -0.086631939 -0.086607136 -0.08637703199999999 -0.086064473 -0.08575137699999999 -0.085492775 -0.08532428 -0.096238233 -0.096907318 -0.096932776 -0.09658800099999999 -0.09608423699999999 -0.09555158 -0.0950718 -0.094696999 -0.09445995800000001 -0.10894889 -0.10921239 -0.10883569 -0.10812617 -0.10731538 -0.10653858 -0.10587514 -0.10537279 -0.10506082 -0.12321823 -0.12299813 -0.12217762 -0.12107394 -0.11993722 -0.11890487 -0.11805111 -0.11741781 -0.11702911 -0.13887718 -0.13813859 -0.13687627 -0.13538107 -0.13392259 -0.13264084 -0.13160329 -0.13084425 -0.1303824 -0.15572441 -0.15452796 -0.15288642 -0.15104754 -0.14930299 -0.14779864 -0.14659792 -0.14572798 -0.14520173 -0.17354438 -0.17205733 -0.17015861 -0.16807032 -0.16610776 -0.16442965 -0.16310024 -0.16214302 -0.16156666 -0.19225103 -0.19069417 -0.18869546 -0.18648401 -0.18439682 -0.1826115 -0.1812001 -0.18018706 -0.17957877 -0.21196884 -0.21053405 -0.20858976 -0.20638698 -0.20427768 -0.20246135 -0.2010228 -0.19999096 -0.1993726 -0.23300612 -0.23180161 -0.23002993 -0.2279451 -0.22590783 -0.2241357 -0.22272748 -0.22171743 -0.22111292 -0.2557517 -0.25481293 -0.253272 -0.25137454 -0.24948141 -0.2478202 -0.24649709 -0.24554977 -0.24498416 -0.28058428 -0.27989918 -0.27858818 -0.27690443 -0.27520198 -0.27370495 -0.2725175 -0.27167249 -0.27117127 -0.3078258 -0.30733347 -0.30621088 -0.30473536 -0.30324969 -0.30195922 -0.30095187 -0.30024636 -0.29983273 -0.337672 -0.33728704 -0.33629408 -0.33500549 -0.33374816 -0.33269647 -0.33190644 -0.33137146 -0.3310664 -0.37019423 -0.36982819 -0.3689025 -0.36777046 -0.36674103 -0.36594573 -0.36539721 -0.36505455 -0.3648712 -0.40538174 -0.40494278 -0.40401477 -0.40299165 -0.40216553 -0.40162048 -0.40131569 -0.40117097 -0.40111366 -0.44316435 -0.44253632 -0.44150198 -0.44050044 -0.43981144 -0.43947077 -0.4393824 -0.43941861 -0.43947846 -0.48332331 -0.48232996 -0.4810206 -0.47988647 -0.47920823 -0.4789784 -0.47903988 -0.47921398 -0.47936666 -0.52518427 -0.5235579 -0.5217157 -0.52021593 -0.51935756 -0.51909393 -0.51920247 -0.51944572 -0.51965237 -0.56704736 -0.56442928 -0.56170976 -0.55953878 -0.55825531 -0.55777466 -0.55779994 -0.55802643 -0.55823666 -0.60547841 -0.60147762 -0.59749949 -0.59431624 -0.59233361 -0.59143108 -0.59122807 -0.59133732 -0.59149253 -0.63473231 -0.62909019 -0.62355304 -0.61905879 -0.61611688 -0.61458808 -0.61399972 -0.61388034 -0.61391258 -0.64655459 -0.63942486 -0.63234091 -0.62643051 -0.62236506 -0.62003779 -0.61890715 -0.61843061 -0.61825413 -0.63048023 -0.62271649 -0.61471963 -0.60774171 -0.6026457 -0.5994519 -0.59763432 -0.59664375 -0.59614021 -0.5739333 -0.56714827 -0.55963546 -0.55256993 -0.54691827 -0.54292333 -0.54024678 -0.5384863 -0.53744328 -0.45958543 -0.45592535 -0.45072663 -0.44494891 -0.43947673 -0.43478402 -0.43094179 -0.42795831 -0.42600065 -0.26272184 -0.2642467 -0.26301563 -0.25971997 -0.25504315 -0.24961711 -0.24408975 -0.23919681 -0.23576924 0.042245075 0.034958512000000004 0.031714827 0.032237545 0.036144286 0.042737767 0.050754219 0.05848205099999999 0.064099133 0.46662226 0.4560492 0.45009404 0.4491986 0.4534682 0.46233237 0.47402069 0.48573089 0.49439162 0.99038517 0.98239589 0.97822464 0.97921556 0.98627985 0.99925339 1.0160933 1.0329773000000002 1.0454980999999999 1.5520329 1.5542028 1.5580177 1.5654464 1.5784794 1.597645 1.6209358999999999 1.6437893 1.6606063999999998 2.0554731 2.0736732 2.0908158 2.1087301 2.1304247000000003 2.1572387 2.1875223999999998 2.2163754 2.2373619 2.3984485 2.4357371 2.4675293 2.4969835 2.5280905 2.5628736 2.6000267999999997 2.6344654999999997 2.6591918 2.5430074 2.5953727000000004 2.6389389 2.6782632 2.7180152 2.7604808999999997 2.8043275000000003 2.8441429 2.8724092999999997 2.5377166 2.5971534 2.6466007 2.6917419 2.7374976 2.7859607000000004 2.8353898999999996 2.8798132 2.9111362 2.4591648999999998 2.5167347999999996 2.5649462000000005 2.6103637 2.657887 2.7091717999999996 2.7618287 2.8091822 2.8425422 2.3614786 2.4099107 2.4506416 2.4909031 2.5355107999999995 2.5856776000000004 2.6383922 2.6863241 2.7202672999999997 2.256391 2.2914069 2.3206897 2.3518423999999998 2.3896306000000003 2.4350153999999997 2.4845862000000003 2.5306108 2.5635505000000003 2.1223164 2.1425362 2.1589633999999998 2.1791508 2.2078233 2.2458739 2.289813 2.3318470000000002 2.3623996 1.9295133000000002 1.9355203999999997 1.9397866999999998 1.9492569 1.9683945 1.9981217 2.0351305 2.0719116 2.0991743 1.6657398 1.6594703000000002 1.6539445 1.6547817999999999 1.6658025 1.6878872 1.7180607 1.7493708 1.7730895 1.3501253 1.335032 1.3235290000000002 1.3192669 1.3250278999999998 1.3415138 1.3661411 1.392683 1.4131688999999998 1.0266123 1.006999 0.99371028 0.98809689 0.99166942 1.0048561 1.0255026 1.048224 1.065956 0.73903155 0.71878529 0.70694965 0.70265603 0.70615786 0.71762836 0.73537892 0.75493503 0.77023375 0.51231837 0.49393624 0.48517734 0.48329893 0.48753688 0.49789509 0.51317489 0.52980906 0.54278105 0.34940955 0.33389002 0.32831377 0.32864448 0.33343041 0.34261173 0.35543987 0.36917585 0.37982583 0.23886907 0.22606167 0.22270295 0.22423913 0.22888383 0.23657866 0.24689555 0.2577756 0.26615492 0.16452225 0.15379637 0.15118881 0.15263048 0.15638596 0.16237333 0.17027013 0.17850295 0.18479371 0.11287169 0.10372904 0.10048293 0.10058632 0.10285552 0.10706991 0.11280708 0.11878593 0.12332073 0.075692654 0.068461299 0.064019233 0.061834574 0.062001452 0.064291924 0.06809774 0.07225728 0.07543239 0.049142167 0.045002744000000004 0.040181607 0.035576552000000004 0.032912418 0.032757282 0.034490198 0.036988199 0.039054066 0.030330628 0.030897453 0.027884557999999997 0.022235498 0.016782224 0.01346603 0.012521923 0.013022035 0.013852477 0.015936196 0.022093907000000003 0.02338843 0.019503608000000002 0.013077587 0.007067114100000001 0.0029733478999999998 0.00087322295 5.5402517e-05 0.0042238683 0.01361607 0.020586982 0.021387815 0.01713185 0.010705708999999999 0.0046400428 0.00012791157 -0.0025271028 0.0037040859 0.004337728 0.013249904 0.020159051 0.021195263 0.017685592 0.012190625 0.0068751872 0.0031756014000000003 0.033145517 0.011427492 0.0031469761999999997 0.010074839 0.017340451 0.019882977 0.01812467 0.014422938 0.011137724 0.091806844 0.050299019 0.018763497 0.0022448748000000003 0.0038437246999999996 0.0112385 0.015635431 0.016048342 0.0148862 0.12277889 0.090754703 0.063530549 0.031742446 0.009571597 0.0020131618 0.0045431778 0.0083611459 0.009781531999999999 0.081321239 0.08037889 0.055978321 0.041220374 0.023551226 0.014338948 0.0068308562 0.0022073537 0.032571591000000004 0.034424849 0.019655675 0.011718913999999999 -0.0009256899400000001 -0.012999496999999999 -0.024676762999999997 -0.029979639 -0.042812549000000005 -0.056526914000000004 -0.049971994000000006 -0.049975514000000006 -0.04997896 -0.049960545999999995 -0.04988294099999999 -0.049692009 -0.04931640599999999 -0.048668079 -0.058343381 -0.058350085999999995 -0.058362439 -0.058356955999999995 -0.058293208 -0.058112234000000006 -0.057735819 -0.057065804000000005 -0.065015346 -0.065028526 -0.065060385 -0.065087251 -0.065068066 -0.064942814 -0.064630613 -0.06402695900000001 -0.071096174 -0.07112009799999999 -0.071184404 -0.071266174 -0.071325526 -0.071303412 -0.071118318 -0.070660815 -0.077610485 -0.077649556 -0.077759683 -0.077919312 -0.07809054900000001 -0.078216009 -0.078214243 -0.077969596 -0.085265942 -0.085324265 -0.085492805 -0.08575133199999999 -0.086064465 -0.086377047 -0.086607166 -0.086631931 -0.094379067 -0.09445999599999999 -0.094696984 -0.095071793 -0.09555158 -0.096084215 -0.096587978 -0.09693276099999999 -0.10495508 -0.10506079 -0.10537279 -0.10587509 -0.10653859 -0.10731539 -0.10812614 -0.1088356 -0.11689804 -0.11702907 -0.11741781 -0.1180511 -0.11890475 -0.11993724 -0.12107393 -0.12217759 -0.13022736 -0.13038236 -0.13084428 -0.13160335 -0.13264081 -0.1339227 -0.135381 -0.13687626 -0.14502566 -0.14520177 -0.14572799 -0.14659788 -0.14779866 -0.14930308 -0.15104742 -0.15288638 -0.16137429 -0.16156662 -0.16214292 -0.16310029 -0.16442959 -0.16610779 -0.16807027 -0.17015857 -0.1793761 -0.17957881 -0.180187 -0.18120007 -0.18261139 -0.18439686 -0.18648407 -0.18869542 -0.19916673 -0.19937257 -0.1999909 -0.2010227 -0.20246132 -0.20427772 -0.20638706 -0.20858981 -0.2209118 -0.22111294 -0.22171745 -0.22272761 -0.22413583 -0.22590786 -0.22794509 -0.23002994 -0.24479644 -0.24498399 -0.24554969 -0.24649698 -0.24782002 -0.24948134 -0.25137448 -0.25327188 -0.27100539 -0.27117112 -0.27167249 -0.27251765 -0.27370501 -0.27520218 -0.27690446 -0.27858815 -0.29969695 -0.29983285 -0.30024645 -0.30095175 -0.30195919 -0.30324969 -0.30473542 -0.30621088 -0.33096728 -0.3310661 -0.33137146 -0.33190647 -0.33269659 -0.33374864 -0.33500558 -0.33629403 -0.36481392 -0.36487123 -0.36505467 -0.36539721 -0.36594579 -0.366741 -0.36777064 -0.3689028 -0.40109962 -0.40111381 -0.40117094 -0.40131572 -0.40162036 -0.40216586 -0.40299177 -0.40401474 -0.43950447 -0.43947846 -0.43941867 -0.43938237 -0.43947089 -0.43981138 -0.44050074 -0.44150236 -0.47942466 -0.47936633 -0.47921401 -0.47903991 -0.47897837 -0.47920862 -0.47988674 -0.48102063 -0.51972955 -0.51965249 -0.51944602 -0.51920211 -0.51909363 -0.51935786 -0.52021593 -0.52171582 -0.55831689 -0.55823648 -0.55802649 -0.55780017 -0.5577749 -0.55825555 -0.55953896 -0.56171018 -0.5915575 -0.59149241 -0.59133738 -0.59122813 -0.5914312 -0.59233403 -0.5943169 -0.59749973 -0.61393821 -0.6139127 -0.61388004 -0.61399943 -0.61458838 -0.6161176 -0.61905909 -0.6235534 -0.61821038 -0.61825418 -0.61843073 -0.61890733 -0.62003785 -0.62236506 -0.62643015 -0.63234115 -0.59598315 -0.59613991 -0.59664398 -0.59763443 -0.59945214 -0.60264593 -0.60774142 -0.61471957 -0.53709131 -0.53744316 -0.53848654 -0.54024696 -0.54292297 -0.54691821 -0.55256987 -0.5596357 -0.42530972 -0.42600012 -0.42795825 -0.43094185 -0.43478435 -0.43947637 -0.44494915 -0.45072722 -0.23453045 -0.23576942 -0.23919675 -0.2440899 -0.24961683 -0.25504318 -0.25972027 -0.26301575 0.06615746 0.06409901400000001 0.058482020999999995 0.050753951 0.042737573 0.036144063 0.0322375 0.031714931 0.49758595 0.49439135 0.48573074 0.47402081 0.46233243 0.45346835 0.44919848 0.45009395 1.0501245000000001 1.0454980999999999 1.0329773000000002 1.0160929 0.99925327 0.98627907 0.97921526 0.97822464 1.6668017 1.6606061 1.6437898000000002 1.6209363 1.5976456 1.5784788 1.565447 1.5580181999999998 2.2450628 2.2373613999999997 2.2163754 2.1875218999999997 2.1572387 2.1304255000000003 2.1087293999999996 2.0908163 2.6682169 2.659193 2.6344657000000002 2.6000267999999997 2.5628743 2.5280895 2.4969831 2.4675287999999997 2.8826742000000003 2.8724089 2.8441446 2.804328 2.7604827999999997 2.7180166 2.6782637 2.6389382 2.9224761000000004 2.9111366000000003 2.8798137 2.835391 2.7859612 2.7374976 2.6917424 2.6466012 2.8546142999999997 2.8425422 2.8091817000000003 2.7618287 2.709172 2.6578875 2.6103656 2.5649481 2.7325761 2.7202678 2.6863238999999997 2.6383922 2.5856767000000005 2.535511 2.4909048 2.4506421 2.5755501 2.5635502 2.530612 2.4845867000000004 2.4350157 2.3896313 2.3518414 2.3206906000000003 2.3736045 2.3623993 2.3318458 2.2898132999999996 2.2458735 2.2078227999999998 2.1791511000000003 2.1589632 2.1092587000000003 2.099174 2.0719104 2.0351305 1.9981216 1.968394 1.9492569 1.9397868999999999 1.7819448 1.7730898999999998 1.7493708 1.7180605 1.6878866999999997 1.6658026999999997 1.6547824 1.6539439999999999 1.4208771999999998 1.4131688999999998 1.3926828000000002 1.3661408000000002 1.3415129 1.3250277 1.3192667 1.3235289 1.0726608999999998 1.0659558999999998 1.0482236999999999 1.0255023 1.0048562 0.99166942 0.98809695 0.99370974 0.77602863 0.77023381 0.75493461 0.73537874 0.71762806 0.70615757 0.70265603 0.70694947 0.54768986 0.54278064 0.52980876 0.51317471 0.49789497 0.48753667 0.48329863 0.48517725 0.38384876 0.37982586 0.36917543 0.35544002 0.34261179 0.33343041 0.32864445 0.32831395 0.26931196 0.26615489 0.25777537 0.24689578 0.23657842 0.22888401 0.22423926 0.22270292 0.18715405 0.18479377 0.17850311 0.17027017 0.1623733 0.15638593 0.15263027 0.15118879 0.12501264 0.12332061 0.11878604 0.11280686 0.10707022 0.10285556 0.10058644 0.10048313 0.076614946 0.07543233 0.07225731 0.068097562 0.06429190900000001 0.062001437 0.061834753 0.064019471 0.03984049 0.039053977000000004 0.03698808 0.034490436 0.032757163 0.032912523 0.035576477999999995 0.040181786000000004 0.014220893 0.013852268000000001 0.013022213999999999 0.012522011999999999 0.013466164 0.016782075 0.022235467999999998 0.027884617 -0.00013852118999999998 5.5268407e-05 0.00087328255 0.002973333 0.0070670544999999994 0.013077408 0.019503638 0.023388356000000003 -0.0034012049 -0.0025270879 0.00012773275 0.0046399087 0.01070559 0.01713185 0.021387786000000002 0.020586788999999998 0.0018463135 0.0031755566999999998 0.0068750083 0.012190416 0.017685547 0.021195129 0.020158991 0.013249843999999998 0.0098784715 0.011137649 0.01442261 0.018124491 0.019882783 0.017340302 0.01007466 0.0031469911 0.014215037 0.0148862 0.016048148 0.015635206999999998 0.011238291999999999 0.0038434714000000004 0.0022446810999999997 0.018763483 0.0098695084 0.0097815022 0.0083609521 0.0045425519000000004 0.0020128638 0.0095712841 0.031742543 0.06353057200000001 -0.00028844178 0.0022071376000000003 0.006830550699999999 0.014338575 0.023550718999999998 0.041220106 0.055977702000000004 0.080378905 -0.018784053999999998 -0.012999862 -0.00092604756 0.011718266000000001 0.019655548000000002 0.03442426 0.032571286 -0.061441935999999996 -0.05652751 -0.042813182000000005 -0.029980026 -0.024677105 -0.047649212 -0.046164334 -0.04411628099999999 -0.041382026 -0.037820064 -0.03331989 -0.02787729 -0.055989955 -0.054400899 -0.052186809 -0.049195117999999996 -0.045241690999999994 -0.040174294 -0.033965286000000004 -0.026807197999999997 -0.06300486599999999 -0.061441075 -0.05920323 -0.056099914 -0.051890402999999995 -0.046363138 -0.039455238999999996 -0.031405683999999996 -0.06978554299999999 -0.06834258900000001 -0.066168882 -0.063023157 -0.058594930999999996 -0.052601993 -0.04495208 -0.035939217 -0.077315979 -0.076063477 -0.074006535 -0.070841745 -0.066178739 -0.059684005 -0.05124148 -0.041164093 -0.086262882 -0.08526521199999999 -0.083376132 -0.080233477 -0.075437717 -0.068631418 -0.059600055 -0.04850686 -0.09690733300000001 -0.09623820300000001 -0.094609529 -0.091702349 -0.08721430599999999 -0.080770425 -0.07190825 -0.06013836 -0.10921241 -0.10894891 -0.10776962 -0.10554975 -0.10222835 -0.097473823 -0.09035597 -0.078874692 -0.12299811 -0.12321819 -0.12272559 -0.12176383 -0.1207163 -0.11947917 -0.11658141 -0.10752091 -0.13813864 -0.13887718 -0.13923097 -0.13993199 -0.14201747 -0.14594936 -0.15002266 -0.14714646 -0.15452801 -0.15572438 -0.15686874 -0.15917534 -0.16443588 -0.17402068 -0.18654086 -0.19363748 -0.17205736 -0.17354433 -0.17517231 -0.17848706 -0.18588543 -0.19960074 -0.21843651 -0.23021521 -0.19069421 -0.19225107 -0.19392282 -0.19730289 -0.2049039 -0.21850477 -0.23384203 -0.23439535 -0.21053402 -0.21196887 -0.2133144 -0.21588512 -0.22168757 -0.2309618 -0.2368975 -0.2299538 -0.23180149 -0.23300606 -0.23387757 -0.23525168 -0.2383554 -0.2424306 -0.24181288 -0.23465334 -0.25481284 -0.25575164 -0.25618842 -0.25654715 -0.25735724 -0.25770977 -0.25433064 -0.24880192 -0.27989918 -0.28058434 -0.28068629 -0.28040123 -0.27990997 -0.27856946 -0.27464372 -0.27029258 -0.3073335 -0.30782583 -0.30767038 -0.30700245 -0.30596083 -0.30425632 -0.30055529 -0.296763 -0.33728728 -0.33767238 -0.33735561 -0.33642966 -0.33515209 -0.33356446 -0.33007425 -0.32624832 -0.36982834 -0.37019426 -0.36982164 -0.36876202 -0.36737263 -0.36599475 -0.36263245 -0.35826617 -0.40494278 -0.4053818 -0.40506607 -0.40399653 -0.40262097 -0.4015311 -0.39839137 -0.39344695 -0.44253695 -0.44316435 -0.44304079 -0.44211331 -0.44089299 -0.44018614 -0.43755296 -0.4323535 -0.48233011 -0.48332337 -0.48358804 -0.48302877 -0.48219138 -0.48200873 -0.48019829 -0.47534081 -0.52355808 -0.52518457 -0.52612805 -0.52628511 -0.52624059 -0.52685153 -0.52610427 -0.5222851 -0.56442916 -0.567047 -0.5690552 -0.57041031 -0.57182926 -0.57378983 -0.57421827 -0.57212436 -0.60147727 -0.60547817 -0.60895681 -0.61204326 -0.61581182 -0.6201461 -0.62180734 -0.62201732 -0.62909007 -0.63473237 -0.6399067 -0.64505339 -0.65208364 -0.66031033 -0.66341287 -0.66636652 -0.63942474 -0.64655459 -0.65315908 -0.66020036 -0.67106074 -0.68509501 -0.69015074 -0.69616008 -0.62271649 -0.63048041 -0.63754058 -0.6455102 -0.65984243 -0.68116421 -0.68904179 -0.69806087 -0.56714869 -0.57393336 -0.57970184 -0.58668667 -0.60225594 -0.62960112 -0.64091474 -0.65218806 -0.45592546 -0.45958549 -0.46158916 -0.46478766 -0.47807723 -0.50358164 -0.51810515 -0.53092909 -0.2642467 -0.26272207 -0.25867188 -0.25568414 -0.26373175 -0.2803368 -0.28189987 -0.29544607 0.034958586 0.042244598 0.052570254000000004 0.061539530999999995 0.064283878 0.070067577 0.091893524 0.078399934 0.45604891 0.46662229 0.47999212 0.49377301 0.51466429 0.54644644 0.5961225 0.5716508 0.98239553 0.99038512 1.0004245999999999 1.0150568000000002 1.0508064 1.0891030000000002 1.1530426 1.0854396000000002 1.5542023999999999 1.5520332000000001 1.551955 1.5631218 1.5976827 1.6100662000000001 1.6670599 1.5821664 2.0736741999999997 2.0554738 2.0404415 2.0373566000000003 2.0458491000000003 2.0256028 2.0371808999999996 1.9150951 2.4357381 2.3984482000000003 2.3579898 2.3203522999999997 2.2824986000000003 2.2215202 2.2372 2.0325172 2.5953736000000003 2.5430081 2.4814167 2.4139512 2.3374095 2.2461431 2.2833424 2.0004284 2.5971534 2.5377178 2.4655732999999995 2.3819251 2.2856037999999996 2.1870074 2.2257247000000002 1.8951186000000002 2.5167363 2.4591651000000003 2.3876941 2.3028392999999996 2.204797 2.1109726 2.1385834 1.7859415 2.4099109 2.3614783 2.299432 2.2248356 2.1387593999999996 2.0511708 2.0656531000000005 1.7116993999999999 2.2914076 2.2563912999999998 2.208858 2.1499894 2.0801926 1.9982513 2.0036026999999996 1.6630421999999998 2.1425362 2.1223156000000003 2.09131 2.0503962 1.9981859 1.9248648999999998 1.9283111000000002 1.6110176999999999 1.9355186999999998 1.9295127 1.9152778000000001 1.8933127 1.8600450000000002 1.8011645 1.8090341 1.5251858 1.6594696 1.6657379 1.6675266 1.664567 1.6527171000000003 1.616751 1.6347513999999999 1.3971536 1.3350316999999998 1.3501251 1.365569 1.3800721000000002 1.3903266 1.382983 1.4221873 1.2374506 1.0069987 1.0266119 1.0517652 1.0813575 1.1086392 1.1302013000000002 1.1985121 1.0700964 0.71878499 0.73903131 0.76935291 0.81114513 0.85397726 0.89513791 0.99503708 0.91965789 0.49393621 0.51231825 0.54394805 0.59215283 0.64923871 0.70216417 0.82500827 0.7872982 0.3338899 0.34940964 0.37988624 0.42922255 0.49225274 0.55155945 0.68585658 0.66870993 0.2260617 0.2388691 0.26664293 0.31338447 0.37500337 0.43222353 0.56912994 0.55267179 0.15379646 0.16452242 0.18832411 0.22966383 0.28473914 0.33848208 0.45704502 0.45165384 0.10372923 0.11287192 0.13183752 0.16543749 0.21072266 0.25888148 0.36112341 0.41899151 0.068461359 0.07569260900000001 0.088859312 0.11396944 0.14482707 0.18403965 0.28301817 0.36650303 0.045002787999999995 0.049142240999999996 0.055892332999999995 0.069991477 0.080833085 0.110565 0.21795383 0.030897467999999997 0.030330613 0.029753581 0.030890584 0.022764176 0.063795194 0.17050698 0.022093892 0.015936181 0.0095801651 -0.00032314657999999997 -0.0082105622 0.06355083 0.013615981000000001 0.0042238384 -0.0022056103 -0.012854896000000001 0.017144337 0.088255636 0.0043376684 0.0037041306 0.010132656 0.022356056000000003 0.081148773 0.011427224 0.033145599 0.071406871 0.095677018 0.050298974 0.09180687400000001 0.14520982 0.08838470300000001 0.090754911 0.12277903 0.08132121 
VonMises3D 1 2975 float
0.0 0.0 0.0 0.0 0.0 0.0 0.0 0.0 0.0 0.0 0.0 0.0 0.0 0.0023859802 8.5864501e-15 0.017586581 0.098646112 0.037312444 0.26434055 0.68760401 0.34872872 1.2686222 2.5174539 1.3508996000000002 3.7566421 6.5378952 3.4563116999999997 8.3793116 13.576193 6.8541083 15.383693 23.929486999999998 11.361248 24.379444 37.027279 16.459954999999997 34.399654 51.455765 21.54393 44.335834999999996 65.580437 26.229506 53.499714000000004 78.43515 30.548161 61.928665 90.342102 36.672886 70.47377 103.98637 67.475883 88.123657 126.77866999999999 194.97234 175.02975 170.44612 550.7737400000001 460.96704000000005 236.73233 1346.6656 1090.7864 299.62997 2100.7637 390.81805 0.0 0.0 0.0 0.0 0.0 0.0 0.0 0.0 0.0 0.0 0.0 0.0 0.0 0.0 0.0 0.0 0.0 0.0 0.0 0.0 0.0 0.0 0.0 0.0 0.0 0.00015168902 0.00047199500999999997 0.00026670741 0.00034465337999999994 0.0006077064900000001 0.00068077788 0.0007206209700000001 0.014872346000000002 0.031516902 0.038233582 0.027965122999999998 0.00440539 0.021010475 0.036200266 0.040083949 0.21453725 0.29735962 0.30180988 0.21707202 0.065203272 0.10114185 0.22606087 0.28706324 1.0932002 1.2989795 1.2251661 0.86445326 0.29238921 0.32530239 0.80972397 1.0796626 3.4911127 3.8534114 3.4959862 2.4325054 0.85596848 0.82447809 2.1623623 2.9419150000000003 8.4448709 8.959578500000001 7.953005800000001 5.475699400000001 1.9476861 1.7585442 4.7137737 6.467699099999999 16.867051999999997 17.520065 15.359371 10.463864 3.6810966 3.3011519999999996 8.8177948 12.103003999999999 29.105156 29.895708000000003 25.987875 17.448021 5.9231405 5.6001244 14.558495 19.86195 44.502316 45.391453000000006 38.965946 61.295338 62.06209200000001 77.375435 77.454498 91.6147 90.544205 104.66801 102.07978 124.97811999999999 124.44051 199.40202 239.46532000000002 431.83673 606.70032 936.47504 1410.4482 1755.9347 2786.6768 2687.7209 4529.8428 0.0 0.0 0.0 0.0 0.0 0.0 0.0 0.0 0.0 0.0 0.0 0.0 0.0 0.0 0.0 0.0 0.0 0.0 0.0 0.0 0.0 0.0 0.0 0.0 0.0 0.0 0.0 0.00073559745 0.0007333807300000001 0.00072140875 0.0007054146799999999 0.00068761385 0.00067040522 0.0006554993499999999 0.00064396206 0.0006367482099999999 0.040201362000000004 0.038885139 0.036805357999999996 0.034453556 0.032138769 0.030048573 0.028301463 0.026992198 0.026182326000000002 0.29578564 0.28351286 0.26390001 0.2415532 0.21952711 0.1997052 0.18326929 0.17099909 0.16343051 1.1585041999999999 1.1182988999999999 1.0338658 0.93518108 0.83679062 0.74790442 0.67418426 0.61923236 0.5853675 3.2094805 3.1371081000000003 2.8965185 2.6042118 2.3087862 2.0401978 1.8169426 1.6504679 1.5479032 7.103745 6.9819994 6.457256299999999 5.7849321 5.0970278 4.4675698 3.9428432 3.5511773 3.3098332999999998 13.313685999999999 13.098939999999999 12.119444 10.827435000000001 9.492921800000001 8.265317900000001 7.239252099999999 6.4725199 5.9999032 21.80286 21.418703 19.788708 17.632932999999998 15.391253 13.321303 11.587551 10.290759 9.4911518 0.0 0.0 0.0 0.0 0.0 0.0 0.0 0.0 0.0 0.0 0.0 0.0 0.0 0.0 0.0 0.0 0.0 0.0 0.0 0.0 0.0 0.0 0.0 0.0 0.0006342869000000001 0.00063674827 0.00064396206 0.0006554993499999999 0.0006704053399999999 0.0006876139699999999 0.0007054148 0.00072140852 0.02590772 0.026182331 0.0269922 0.028301466 0.030048582999999997 0.032138772 0.034453556 0.036805357999999996 0.16087534 0.16343051 0.17099914 0.18326931 0.19970523 0.21952711 0.24155317 0.26389995 0.57393551 0.58536738 0.61923254 0.6741845 0.74790466 0.83679068 0.93518108 1.0338658 1.5132747 1.5479037 1.6504682000000002 1.816943 2.0401986 2.3087871 2.6042125 2.8965187 3.228339 3.3098332999999998 3.5511777 3.9428434 4.4675703 5.0970287 5.784932599999999 6.4572568 5.8403182000000005 5.9999037 6.4725199 7.239253 8.2653189 9.492921800000001 10.827435000000001 12.119449000000001 9.221154199999999 9.4911528 10.290761 11.587552 13.321304999999999 15.391255 17.632935 19.788708 0.0 0.0 0.0 0.0 0.0 0.0 0.0 0.0 0.0 0.0 0.0 0.0 0.0 0.0 0.0 0.0 0.0 0.0 0.0 0.0 0.0 0.0 0.0 0.0 0.0 0.0 0.0 0.00073338067 0.0007355975699999999 0.0007206210899999999 0.00068077783 0.0006077064900000001 0.00034465347 0.0002667073 0.00047199489 0.00015168895 0.038885128 0.04020137 0.040083963 0.036200274 0.021010481 0.0044053886 0.027965128 0.038233582 0.031516895 0.28351286 0.29578567 0.28706327 0.22606096 0.1011419 0.065203264 0.21707207 0.30180988 0.29735965 1.118299 1.1585044 1.0796624 0.80972415 0.3253026 0.29238904 0.86445349 1.2251662 1.2989796 3.1371083 3.2094810000000003 2.9419147999999997 2.1623631000000003 0.82447863 0.85596812 2.4325054 3.4959855 3.8534114 6.982001299999999 7.103745 6.4676995 4.7137752 1.7585458999999999 1.9476849999999999 5.4756999 7.953007700000001 8.9595795 13.098939999999999 13.313687 12.103006 8.8177977 3.3011546000000003 3.6810951000000003 10.463865 15.359373999999999 17.520067 21.418709 21.802862 19.861956 14.558501000000001 5.6001287 5.923138099999999 17.448021 25.987879 29.895708000000003 38.965953999999996 45.391453000000006 62.062098999999996 77.454498 90.544197 102.07978 124.44051 239.46533 606.70032 1410.4487 2786.6772 4529.8433 0.0 0.0 0.0 0.0 0.0 0.0 0.0 0.0 0.0 0.0 0.0 0.0 0.0 0.0 0.0 0.01487234 0.0023859793 0.0 0.0 0.2145372 0.098646075 0.01758658 8.5864467e-15 1.0932 0.68760389 0.26434055 0.037312437000000004 3.4911122000000003 2.5174534 1.2686218999999999 0.34872866 8.444871899999999 6.537893799999999 3.7566414 1.3508997999999999 16.867054 13.576191 8.3793097 3.4563112 29.105156 23.929489 15.383694 6.854109299999999 44.502319 37.027279 24.379442 11.361249 61.295349 51.455771999999996 34.399658 16.459957 77.37545 65.580437 44.335834999999996 21.54393 91.614723 78.43515 53.49971800000001 26.229507 104.66801 90.342102 61.92866899999999 30.548161 124.97814 103.98637 70.47377 36.67289 199.40204 126.77866000000002 88.123672 67.475876 431.83682000000005 170.44615 175.02974 194.97232 936.4752199999999 236.73241000000002 460.96713 550.7737400000001 1755.9347 299.63004 1090.7861 1346.6656 2687.7207 390.81802000000005 2100.7637 0.0 0.0 0.0 0.0 0.0 0.0 0.0 0.0 0.0 0.0 0.0 0.0 0.0 0.0 0.0 0.0 0.0 0.0 0.0 0.0 0.0 0.0 0.0 0.0 0.0 0.0 0.0 0.0 0.0 0.0 0.0 0.0 0.0 0.0 0.0 0.0 0.0 0.0 0.0 0.0 0.0 0.0 0.0 0.0 0.0 0.0 0.0 0.0 0.0 0.0 0.0 0.0 0.0 0.0 0.0 0.0 0.0 0.0 0.0 0.0 0.0 0.0 0.0 0.0 0.0 0.0 0.0 0.0 0.0 0.0 0.0 0.0 0.0 0.0 0.0 0.0 0.0 0.0 0.0 0.0 0.0 0.0 0.0 0.0 0.0 0.0 0.0 0.0 0.0 0.0 0.0 0.0 0.0 0.0 0.0 0.0 0.0 0.0 0.0 0.0 0.0 0.0 0.0 0.0 0.0 0.0 0.0 0.0 0.0 0.0 0.0 0.0 0.0 0.0 0.0 0.0 0.0 0.0 0.0 0.0 0.0 0.0 0.0 0.0 0.0 0.0 0.0 0.0 0.0 0.0 0.0 0.0 0.0 0.0 0.0 0.0 0.0 0.0 0.0 0.0 0.0 0.0 0.0 0.0 0.0 0.0 0.0 0.0 0.0 0.0 0.0 0.0 0.0 0.0 0.0 0.0 0.0 0.0 0.0 0.0 0.0 0.0 0.0 0.0 0.0 0.0 0.0 0.0 0.0 0.0 0.0 0.0 0.0 0.0 0.0 0.0 0.0 0.0 0.0 0.0 0.0 0.0 0.0 0.0 0.0 0.0 0.0 0.0 0.0 0.0 0.0 0.0 0.0 0.0 0.0 0.0 0.0 0.0 0.0 0.0 0.0 0.0 0.0 0.0 0.0 0.0 0.0 0.0 0.0 0.0 0.0 0.0 0.0 0.0 0.0 0.0 0.0 0.0 0.0 0.0 0.0 0.0 0.0 0.0 0.0 0.0 0.0 0.0 0.0 0.0 0.0 0.0 0.0 0.0 0.0 0.0 0.0 0.0 0.0 0.0 0.0 0.0 0.0 0.0 0.0 0.0 0.0 0.0 0.0 0.0 0.0 0.0 0.0 0.0 0.0 0.0 0.0 0.0 0.0 0.0 0.0 0.0 0.0 0.0 0.0 0.0 0.0 0.0 0.0 0.0 0.0 0.0 0.0 0.0 0.0 0.0 0.0 0.0 0.0 0.0 0.0 0.0 0.0 0.0 0.0 0.0 0.0 0.0 0.0 0.0 0.0 0.0 0.0 0.0 0.0 0.0 0.0 0.0 0.0 0.0 0.0 0.0 0.0 0.0 0.0 0.0 0.0 0.0 0.0 0.0 0.0 0.0 0.0 0.0 0.0 0.0 0.0 0.0 0.0 0.0 0.0 0.0 0.0 0.0 0.0 0.0 0.0 0.0 0.0 0.0 0.0 0.0 0.0 0.0 0.0 0.0 0.0 0.0 0.0 0.0 0.0 0.0 0.0 0.0 0.0 0.0 0.0 0.0 0.0 0.0 0.0 0.0 0.0 0.0 0.0 0.0 0.0 0.0 0.0 0.0 0.0 0.0 0.0 0.0 0.0 0.0 0.0 0.0 0.0 0.0 0.0 0.0 0.0 0.0 0.0 0.0 0.0 0.0 0.0 0.0 0.0 0.0 0.0 0.0 0.0 0.0 0.0 0.0 0.0 0.0 0.0 0.0 0.0 0.0 0.0 0.0 0.0 0.0 0.0 0.0 0.0 0.0 0.0 0.0 0.0 0.0 0.0 0.0 0.0 0.0 0.0 0.0 0.0 0.0 0.0 0.0 0.0 0.0 0.0 0.0 0.0 0.0 0.0 0.0 0.0 0.0 0.0 0.0 0.0 0.0 0.0 0.0 0.0 0.0 0.0 0.0 0.0 0.0 0.0 0.0 0.0 0.0 0.0 0.0 0.0 0.0 0.0 0.0 0.0 0.0 0.0 0.0 0.0 0.0 0.0 0.0 0.0 0.0 0.0 0.0 0.0 0.0 0.0 0.0 0.0 0.0 0.0 0.0 0.0 0.0 0.0 0.0 25.056526 8.1878357 8.6202679 21.48975 29.031834000000003 48.254856 32.488819 9.8739967 12.15167 28.798546 38.425591 59.473133 38.598228000000006 10.564860000000001 16.10545 35.935219000000004 47.167255 68.540825 43.001076 10.079294 20.495932 42.729828000000005 54.930946 75.717896 45.788502 8.4683285 25.357697 49.271015000000006 61.864033 91.695549 54.244938 13.582417000000001 31.041094 55.886539 68.479469 201.27626 133.12598 62.37141 43.547455 63.77741999999999 75.881477 546.87366 381.56534 197.3596 88.783287 77.225685 86.46043399999999 1257.5679 874.76178 458.11107999999996 190.45944 106.18952 104.51003 2350.4297 1601.4272 828.77234 339.37487999999996 158.14383 136.0688 3484.7947 2338.7703 1190.839 487.84380999999996 228.36861000000002 187.50486999999998 4118.8501 2716.0129 1366.5176 575.50378 311.34091 264.20465 3968.7969 2539.3521 1270.6469 598.27954 417.28326 369.58075 3035.6584 1932.9781 1028.7813 648.6571700000001 561.0246599999999 502.74722 2033.7114 1390.0319 941.26715 800.84668 737.0473 657.70007 1606.0872 1293.9794 1092.5635 1008.8828 927.88824 827.28723 1645.0327 1448.7571 1307.0554 1221.063 1123.7458 1007.5031 1796.1759 1633.4905 1513.2528 1430.9734 1325.9344 1198.0802 1974.0811 1824.5753 1723.3916 1650.0844 1540.1844 1401.0463 2190.9619 2044.9955 1956.7076 1889.0144 1771.8446 1619.1044 2458.3152 2307.022 2223.2085 2153.9734 2024.3566 1853.7665 2780.6118 2616.5879 2525.9458 2445.845 2297.4319 2104.0728 3160.8354 2973.2732 2858.3362 2758.5562 2586.5466 2366.7605 3600.7288 3366.0269 3203.2097 3080.519 2884.9678 2638.5349 4086.9736 3768.1455 3533.8855 3399.3118 3189.2805 2920.9785 4587.7925 4136.7622 3823.4299 3714.354 3509.7749 3228.5234 5056.7827 4433.0132 4069.9624 4056.3933 3885.157 3599.3313 5438.8345 4636.417 4319.6729 4498.9819 4392.6582 4104.7197 5712.2446 4798.3281 4677.6089 5153.4814 5142.064 4845.7383 5959.127 5090.7212 5310.2192 6138.1885 6238.9351 5928.252 6495.77 5878.5698 6418.5811 7507.4126 7731.1577 7415.9966 8035.5034 7775.4199 8134.5083 9235.585 9573.3457 9291.0039 11239.052 11213.581 11042.91 11381.091999999999 11628.381000000001 11433.309 15449.373 15443.073999999999 14970.979 14091.741000000002 13810.657 13643.785 18514.842 18468.447 18224.787 16792.666 15879.778999999999 15679.938999999998 19346.65 19566.377 20167.563000000002 18833.432 17615.502 17343.986 19070.338 19358.516 20575.119 19860.816000000003 18779.211 18521.154 18868.15 18769.711 19422.558999999997 19393.23 18948.084 19057.066000000003 19122.941000000003 18795.322 18550.633 18926.721 18945.561 19309.693 19728.746 19301.926 18374.406000000003 18824.52 19012.836 19446.5 20406.865 20022.468999999997 18760.084 19053.98 19169.357 19528.227 20924.893 20657.332 19392.908 19436.92 19327.619 19537.25 20879.375 20764.027 19692.211 19622.318 19331.785 19412.014 20351.525 20373.855 19538.238 19469.74 19095.055 19093.268 19516.35 19634.912 18986.279 18966.824 18589.238 18549.471 18525.676 18674.949 18114.332 18136.457 17811.82 17780.26 17454.334 17546.25 17003.473 17023.256 16791.343999999997 16808.861 16280.794 16214.421999999999 15703.636 15695.283000000001 15624.551000000001 15676.608 14947.973 14727.778999999999 14248.767 14356.001 14373.158000000001 14420.821000000002 13442.69 13122.958 12752.685 13024.551000000001 13035.245 13082.228000000001 11747.693000000001 11401.66 11283.427 11675.918 11668.975 11718.283000000001 9898.9912 9660.2314 9891.1504 10384.305 10375.085 10395.601 7997.2202 8102.9819 8680.4473 9235.6787 9216.2881 9168.1055 6369.0454 7072.7471 7832.4927 8346.2002 8259.1709 8094.2231 6739.1782 6438.1567 7395.5791 7823.3423 7636.1987 7245.0391 5373.0889 7125.7793 7716.896 7430.4644 6726.123 4397.2915 6448.0625 7670.9346 7534.2681 6597.7261 4679.7329 7087.5459 7638.4497 6764.0669 3767.0767 5407.9771 7135.5718 6904.1821 3093.7559 5365.3389 6456.0366 2714.5764 4737.5 4119.3052 2256.9194 31.729784000000002 31.078569 28.643557 25.455635 22.128841 19.048582 16.464358999999998 14.529987 13.336917999999999 41.745810999999996 40.738014 37.455486 33.219868 28.791665999999996 24.682117 21.229029 18.642408 17.046526 50.81974 49.366203000000006 45.295444 40.136265 34.738037 29.717232 25.491447 22.322901 20.367044 58.53886 56.545654000000006 51.802212 45.917896 39.761654 34.022713 29.182321999999996 25.547293 23.301546 65.099968 62.510963000000004 57.235935 50.837757 44.14904 37.893589 32.599915 28.614033000000003 26.147472 71.191086 68.050949 62.397022 55.678383 48.644386 42.026604 36.39312 32.132233 29.487707 77.993172 74.40863 68.519722 61.63103100000001 54.361713 47.443714 41.495360999999995 36.963390000000004 34.137344 87.51049 83.350075 77.24984 70.223495 62.698184999999995 55.406639 49.044959999999996 44.147896 41.074543 103.07106 97.478317 90.749191 83.317444 75.28065500000001 67.344894 60.30959300000001 54.832241 51.370682 129.45297 120.45467 111.81513000000001 103.13367 93.932091 84.79370899999999 76.613686 70.194397 66.11655400000001 172.2576 156.67334 143.73282 132.14607 120.56602 109.28333 99.225716 91.331497 86.31147800000001 236.55241 210.3168 189.7448 172.77222 156.98128 142.18066000000002 129.22369 119.13795 112.74774 325.23523 284.2092 252.31742999999997 226.94272999999998 204.60655 184.52698 167.37874 154.21217 145.92834 437.96915 379.03299 332.54224 295.71371 264.27243 236.90695 214.07869 196.8073 186.03043 571.5555400000001 493.37050999999997 430.00522 379.11475 336.11246 299.40817000000004 269.3277 246.8548 232.94057 721.78357 624.58075 543.20392 476.33025999999995 419.66335999999995 371.71628 332.85706 304.09238 286.39328 885.422 770.0636599999999 670.2962 586.1528900000001 514.16931 453.36487 404.3761 368.33185 346.25487999999996 1061.0249 928.1519199999999 809.7951 707.52039 619.02759 544.15063 483.99282999999997 439.90384000000006 412.98999 1248.8835 1098.2444 960.9249300000001 839.98688 734.3288 644.72144 572.8446 520.32227 488.34835999999996 1449.954 1280.3812 1123.6981 984.1511199999999 861.5114699999999 757.36609 673.96106 613.18286 576.2774 1664.6052 1474.7511 1299.0331 1142.2048 1004.1884 887.00684 793.32642 725.23859 683.9966400000001 1892.0203 1681.7188 1489.2983 1318.8318 1169.233 1042.3447 941.0228900000001 867.5155 823.07782 2130.8352 1902.8308 1699.5636 1522.5383 1368.052 1237.0013 1132.2319 1056.1991 1010.261 2381.4233 2142.9731 1939.4924 1767.1923 1617.7268 1490.2903 1387.7108 1312.9109 1267.6147 2649.9094 2413.3484 2225.2778 2073.0591 1941.3717 1827.0828 1733.3152 1664.0057 1621.714 2953.7075 2734.6609 2580.825 2466.5586 2367.0173 2276.218 2198.1667 2138.6248 2101.646 3328.6831 3140.3906 3037.9216 2978.5208 2924.8794 2867.3533 2811.3862 2765.4465 2735.8013 3836.4221 3680.6934 3636.4458 3641.8743 3643.9646 3627.3145 3598.5359 3569.3186 3548.6887 4564.1934 4423.9663 4425.5977 4491.397 4550.79 4578.6592 4580.4561 4570.4727 4560.4111 5608.9546 5449.7539 5463.8936 5567.0215 5673.1021 5743.0103 5776.3281 5787.4526 5789.5571 7043.0313 6827.8989 6810.8506 6914.6816 7044.7432 7146.6567 7208.7856 7241.4663 7256.9736 8875.6475 8586.2705 8504.1387 8573.1523 8699.8447 8818.0732 8902.3936 8954.9258 8984.0781 11022.753 10678.758999999998 10528.87 10547.632 10652.163 10771.878 10870.046999999999 10939.145 10981.232 13303.081 12969.515 12793.996000000001 12781.457 12865.892 12981.694 13088.231000000002 13170.995 13225.12 15473.503999999999 15247.685 15129.823999999999 15140.271 15231.886999999999 15353.018999999998 15469.095 15564.888 15630.781 17300.398 17275.916 17313.135 17419.945 17564.213 17713.83 17849.436 17962.273 18041.564 18637.808999999997 18861.607 19122.633 19389.807 19635.777 19846.531000000003 20021.713 20163.443 20262.383 19447.17 19923.027 20414.613 20868.072 21248.381 21550.563 21789.199 21976.297000000002 22104.343999999997 19867.164 20508.406000000003 21178.191000000003 21798.102000000003 22314.531000000003 22720.266 23036.568 23280.568 23444.799 20038.949 20738.121 21504.074 22236.732000000004 22859.77 23356.267999999996 23746.433999999997 24046.869 24247.504 20060.004 20729.311 21510.397999999997 22289.314 22970.242000000002 23525.112999999998 23968.477000000003 24312.26 24541.746 19964.139 20553.439 21290.564 22056.385 22743.718999999997 23316.404 23782.709 24148.479 24393.775 19734.668 20230.799 20893.578 21605.801 22257.832000000002 22810.699 23268.662 23632.792999999998 23878.963 19335.635 19749.301 20331.176 20969.869 21560.215 22065.451 22489.439 22831.369 23065.039 18739.43 19090.104 19598.324 20159.367 20676.287 21118.021 21491.355 21796.695 22008.25 17940.785 18247.324 18694.266 19182.705 19624.988 19997.484 20312.107 20572.945 20756.715 16957.271 17234.9 17633.266 18058.058999999997 18430.449 18734.639 18988.703 19201.895 19355.012 15821.198 16080.938999999998 16442.076 16813.402 17123.752 17364.5 17559.863 17724.992 17846.102 14568.275 14818.683 15152.782 15481.481000000002 15739.976999999999 15925.294 16066.838 16185.702 16274.726999999999 13235.341 13482.396 13797.816 14094.646 14313.375 14454.551000000001 14550.688999999998 14627.935 14686.685 11863.705 12106.123 12406.48 12679.878 12871.42 12982.376 13045.186000000002 13088.986 13121.813 10504.532 10725.1 11005.517 11258.541000000001 11433.188999999998 11528.417 11572.465 11594.402 11608.452 9211.2539 9378.4717 9621.8721 9849.998 10012.905 10104.440999999999 10144.34 10157.82 10162.284 8029.9326 8108.4287 8287.7266 8478.4268 8627.0059 8720.416 8767.0645 8784.4453 8788.8994 7001.3755 6957.5098 7044.0747 7177.8071 7300.8853 7392.2041 7448.6567 7477.3257 7488.9868 6182.2729 5960.4707 5934.2896 5989.8525 6070.5879 6146.9946 6206.3545 6245.1128 6265.6978 5674.835 5166.29 4990.7188 4954.2451 4975.3325 5020.1851 5068.3169 5107.5557 5132.1528 5573.9941 4684.1431 4253.1167 4094.9187 4045.1003 4043.8462 4065.6819 4092.5437 4112.603 5776.1646 4626.1807 3829.9592 3444.9446 3292.7383 3235.9905 3221.3059 3225.5466 3233.6965 5947.0078 4848.3857 3813.98 3108.2551 2750.6489 2601.4226 2542.6274 2520.7056 2513.9165 5502.5371 4981.2651 3994.0601 3098.874 2484.6853 2161.6145 2026.3518 1974.8245 1954.9568 3783.2144 4390.8169 3954.8726 3142.3726 2403.3691 1910.9736 1666.3563 1573.2355 1541.4503 1672.9729 2548.6042 3083.5962 2855.3552 2271.9128 1737.7786 1423.7914 1295.442 1254.0474 1382.2085 1440.6127 1787.4781 1730.0989 1427.5861 1159.6696 1032.3566 993.9586199999999 1006.3591 973.73584 943.7641 843.0012800000001 757.10059 712.89581 917.96057 809.52472 748.5531599999999 714.1719400000001 12.934058 13.336917000000001 14.529991 16.464363 19.048583999999998 22.128845000000002 25.455637 28.643565999999996 16.507639 17.046522 18.64241 21.229034 24.682125 28.791677000000004 33.219868 37.455490000000005 19.706498999999997 20.367044 22.322905 25.491453 29.717237 34.738045 40.136272 45.295448 22.542791 23.301548 25.547295000000002 29.182322999999997 34.022724 39.761665 45.917896 51.802219 25.313482 26.147478 28.614034999999998 32.599922 37.8936 44.149055 50.837769 57.235935 28.592358 29.487710999999997 32.132236 36.393135 42.026608 48.644405 55.678383 62.39703000000001 33.178356 34.137347999999996 36.963398 41.49538 47.443721999999994 54.361725 61.631035 68.51973000000001 40.028351 41.074551 44.1479 49.044971000000004 55.406654 62.6982 70.223518 77.24987 50.188477 51.370701000000004 54.832253 60.309619999999995 67.34491700000001 75.28068499999999 83.317482 90.749214 64.72052 66.11657 70.19442 76.613716 84.793762 93.932121 103.13371 111.81513000000001 84.591629 86.311493 91.33152 99.22573100000001 109.28335 120.56606000000001 132.14612 143.73282 110.56123000000001 112.74776000000001 119.13798999999999 129.22377 142.18071 156.98131 172.77223 189.74483 143.10193 145.92836 154.21222 167.3788 184.52705 204.60654 226.9427 252.31742999999997 182.36676 186.03047 196.80733999999998 214.07873999999998 236.90697000000003 264.27243 295.71371 332.54224 228.22745 232.94057 246.8549 269.32782000000003 299.40823 336.11234 379.11462 430.00522 280.41681 286.39331 304.0925 332.85717999999997 371.71625 419.66333 476.33008 543.20374 338.81838999999997 346.25497 368.33194 404.37622000000005 453.36487 514.16907 586.15259 670.29584 403.94125 412.99008 439.9039 483.99292 544.15063 619.02734 707.52008 809.79468 477.61542000000003 488.34842000000003 520.32251 572.84473 644.72131 734.3286099999999 839.9863300000001 960.92432 563.90778 576.27734 613.18292 673.96112 757.3659700000001 861.51105 984.1506300000001 1123.6974 670.19373 683.9966400000001 725.23895 793.3266 887.00684 1004.188 1142.2041 1299.0322 808.2243 823.07794 867.5155599999999 941.02325 1042.3447 1169.2325 1318.8311 1489.2976 994.91571 1010.2612 1056.1995 1132.2322 1237.0015 1368.0515 1522.5378 1699.5629 1252.4735 1267.6146 1312.9113 1387.7108 1490.2899 1617.7264 1767.1917 1939.4919 1607.532 1621.7141 1664.006 1733.3153 1827.0828 1941.3712 2073.0588 2225.2773 2089.1523 2101.6462 2138.6252 2198.1665 2276.218 2367.0171 2466.5581 2580.824 2725.6262 2735.8013 2765.4463 2811.3865 2867.3528 2924.8794 2978.5208 3037.9209 3541.365 3548.6882 3569.3186 3598.5364 3627.3149 3643.9639 3641.8743 3636.4458 4556.4761 4560.4111 4570.4722 4580.4561 4578.6592 4550.79 4491.3975 4425.5977 5789.6299 5789.5557 5787.4517 5776.3271 5743.0103 5673.1016 5567.022 5463.894 7261.6401 7256.9736 7241.4648 7208.7856 7146.6572 7044.7432 6914.6807 6810.8506 8993.6563 8984.0771 8954.9258 8902.3936 8818.0732 8699.8447 8573.1514 8504.1396 10995.711000000001 10981.233 10939.145 10870.046999999999 10771.878 10652.167 10547.635 10528.868 13244.381000000001 13225.121000000001 13170.996000000001 13088.232 12981.694 12865.893 12781.458 12793.996000000001 15654.828000000001 15630.783000000001 15564.892 15469.095 15353.017 15231.889 15140.271999999999 15129.823999999999 18070.857 18041.563000000002 17962.277 17849.432 17713.832 17564.213 17419.941000000003 17313.137 20298.875 20262.379 20163.441000000003 20021.711 19846.531000000003 19635.777 19389.808999999997 19122.637 22151.093999999997 22104.343999999997 21976.297000000002 21789.195 21550.566000000003 21248.381 20868.072 20414.619 23504.178 23444.799 23280.564 23036.564 22720.266 22314.531000000003 21798.1 21178.199 24319.612999999998 24247.5 24046.871 23746.432 23356.267999999996 22859.767999999996 22236.734 21504.074 24624.08 24541.742000000002 24312.26 23968.472999999998 23525.107000000004 22970.244 22289.318 21510.406000000003 24481.892999999996 24393.771 24148.475 23782.705 23316.402000000002 22743.717 22056.387000000002 21290.564 23967.709 23878.961 23632.792999999998 23268.656000000003 22810.699 22257.84 21605.799 20893.58 23149.75 23065.041 22831.365 22489.436 22065.451 21560.217 20969.871 20331.178 22085.531000000003 22008.25 21796.693 21491.355 21118.022999999997 20676.285 20159.371 19598.326 20824.5 20756.713 20572.941000000003 20312.109 19997.482 19624.986 19182.709 18694.266 19412.16 19355.008 19201.896 18988.703 18734.643 18430.449 18058.061 17633.266 17891.933999999997 17846.098 17724.994 17559.863 17364.498 17123.752 16813.402 16442.076 16308.966999999999 16274.725 16185.7 16066.841 15925.294 15739.979 15481.48 15152.784 14709.688999999998 14686.683 14627.938 14550.691 14454.551000000001 14313.377 14094.646 13797.813999999998 13134.931 13121.813 13088.989 13045.187 12982.376 12871.418 12679.878 12406.48 11614.058 11608.451000000001 11594.405 11572.465 11528.417 11433.19 11258.538999999999 11005.52 10163.619 10162.282 10157.818000000001 10144.34 10104.440999999999 10012.905 9849.998 9621.874 8789.5547 8788.8994 8784.4453 8767.0645 8720.416 8627.0059 8478.4258 8287.7256 7491.9175 7488.9883 7477.3276 7448.6567 7392.2041 7300.8843 7177.8071 7044.0747 6271.9937 6265.6982 6245.1128 6206.354 6146.9946 6070.5879 5989.8525 5934.2896 5140.4194 5132.1514 5107.5537 5068.3169 5020.1851 4975.332 4954.2451 4990.7178 4119.8916 4112.6021 4092.543 4065.6819 4043.8462 4045.1003 4094.9185 4253.1167 3237.3105 3233.697 3225.5459 3221.3052 3235.9897 3292.7388 3444.9443 3829.959 2512.6243 2513.9163 2520.7051 2542.6265 2601.4226 2750.6492 3108.2551 3813.9805 1949.5543 1954.9562 1974.824 2026.3514 2161.6143 2484.6853 3098.874 3994.0615 1533.4886 1541.4503 1573.2349 1666.3561 1910.9736 2403.3689 3142.373 3954.8735 1244.5642 1254.0468 1295.4413 1423.791 1737.7783 2271.9126 2855.3552 3083.5967 986.46051 993.95831 1032.3563 1159.6691 1427.5857 1730.0985 1787.4783 1440.6124 700.37506 712.8958700000001 757.10004 843.0011 943.7637900000001 973.73535 1006.3588 702.90454 714.17206 748.5528 809.52441 917.9602699999999 31.078573 31.72979 29.031839 21.489760999999998 8.6202793 8.1878319 25.056528 40.738026 41.745823 38.425602000000005 28.798559 12.151688 9.8739796 32.488811 48.254856 49.366211 50.819748 47.167266999999995 35.935234 16.105463 10.564842 38.598221 59.473114 56.545662 58.538879 54.930962 42.729851000000004 20.495949 10.079271 43.001068 68.54081 62.510967 65.099983 61.864052 49.271029999999996 25.357719 8.4683104 45.78849 75.71788000000001 68.05096400000001 71.19109300000001 68.47949200000001 55.886566 31.041121 13.58242 54.244904000000005 91.695541 74.408661 77.993195 75.8815 63.777454000000006 43.547474 62.371441000000004 133.12599 201.27634 83.350075 87.510513 86.460449 77.225716 88.783325 197.35962 381.56537000000003 546.87366 97.478325 103.07108000000001 104.51006 106.18954 190.45955 458.11118 874.76166 1257.5677 120.45468999999999 129.45299 136.06882 158.14383999999998 339.37494 828.7724599999999 1601.4275 2350.4309 156.67337 172.25763 187.50493 228.36858999999998 487.84375 1190.8389 2338.7715 3484.7957 210.3168 236.55241 264.20465 311.34091 575.50366 1366.5177 2716.0129 4118.8506 284.2092 325.23511 369.58069 417.28311 598.2794200000001 1270.6467 2539.3523 3968.7969 379.03292999999996 437.96912000000003 502.7471 561.0246 648.6571 1028.7813 1932.9783 3035.6592 493.37045 571.55548 657.69989 737.04724 800.8467400000001 941.26715 1390.0317 2033.7114 624.58051 721.78351 827.28705 927.8883699999999 1008.8828 1092.5635 1293.9797 1606.0873 770.06335 885.42169 1007.5028 1123.7457 1221.0627 1307.0554 1448.7574 1645.0327 928.15155 1061.0247 1198.0797 1325.9342 1430.9734 1513.2531 1633.4907 1796.1761 1098.2438 1248.8831 1401.0461 1540.1841 1650.0847 1723.392 1824.5758 1974.0811 1280.3804 1449.9534 1619.1038 1771.8445 1889.0144 1956.7081 2044.996 2190.9622 1474.7506 1664.6044 1853.766 2024.3563 2153.9739 2223.2085 2307.0222 2458.3159 1681.7181 1892.0197 2104.072 2297.4319 2445.8457 2525.946 2616.5881 2780.6125 1902.8301 2130.8345 2366.76 2586.5466 2758.5562 2858.3369 2973.2737 3160.8357 2142.9722 2381.4221 2638.5349 2884.9678 3080.5183 3203.21 3366.0273 3600.7297 2413.3477 2649.9092 2920.978 3189.2805 3399.3115 3533.886 3768.1462 4086.9741 2734.6604 2953.7078 3228.5229 3509.7747 3714.3542 3823.4299 4136.7627 4587.792 3140.3904 3328.6831 3599.3313 3885.1563 4056.3936 4069.9619 4433.0132 5056.7832 3680.6934 3836.4216 4104.7202 4392.6587 4498.9824 4319.6729 4636.417 5438.8345 4423.9668 4564.1929 4845.7388 5142.064 5153.4814 4677.6104 4798.3276 5712.2446 5449.7539 5608.9556 5928.252 6238.9351 6138.1885 5310.2202 5090.7202 5959.127 6827.8989 7043.0313 7415.9961 7731.1567 7507.4136 6418.5806 5878.5693 6495.77 8586.2705 8875.6475 9291.0049 9573.3457 9235.585 8134.5098 7775.4214 8035.5044 10678.758999999998 11022.753 11433.309 11628.383999999998 11381.091999999999 11042.91 11213.58 11239.053999999998 12969.513 13303.083 13643.785 13810.657 14091.742 14970.976999999999 15443.073999999999 15449.374 15247.685 15473.506000000001 15679.938999999998 15879.78 16792.666 18224.787 18468.443 18514.84 17275.92 17300.402 17343.996 17615.508 18833.432 20167.563000000002 19566.375 19346.648 18861.607 18637.808999999997 18521.158 18779.211 19860.818 20575.121 19358.514 19070.334 19923.031000000003 19447.176 19057.072 18948.084 19393.236 19422.561 18769.707 18868.15 20508.406000000003 19867.166 19309.697 18945.564 18926.727 18550.629 18795.322 19122.939 20738.125 20038.951 19446.502 19012.84 18824.523 18374.41 19301.922 19728.74 20729.316000000003 20060.014 19528.234 19169.361 19053.984 18760.086 20022.468999999997 20406.867 20553.447 19964.143 19537.252 19327.621 19436.916 19392.904 20657.326 20924.893 20230.803 19734.672 19412.016 19331.785 19622.314 19692.203 20764.023 20879.373 19749.307 19335.635 19093.273 19095.047 19469.744 19538.236 20373.859 20351.521 19090.107 18739.426 18549.473 18589.238 18966.824 18986.277 19634.91 19516.348 18247.322 17940.781000000003 17780.262 17811.82 18136.455 18114.332 18674.947 18525.67 17234.9 16957.27 16808.859 16791.343999999997 17023.256 17003.471 17546.248 17454.336 16080.941 15821.2 15676.604 15624.548999999999 15695.283000000001 15703.632 16214.421 16280.795 14818.685 14568.275 14420.82 14373.156 14355.997 14248.767 14727.775 14947.976 13482.396 13235.34 13082.226999999999 13035.243999999999 13024.551000000001 12752.686000000002 13122.957 13442.693000000001 12106.125 11863.707 11718.28 11668.975 11675.923 11283.427 11401.662 11747.693000000001 10725.097 10504.531 10395.601 10375.085 10384.303 9891.1523 9660.2314 9898.9912 9378.4707 9211.2539 9168.1055 9216.2881 9235.6787 8680.4482 8102.9849 7997.2202 8108.4287 8029.9326 8094.2241 8259.1699 8346.2002 7832.4917 7072.7466 6369.0459 6957.5103 7001.3755 7245.0371 7636.1992 7823.3442 7395.5771 6438.1543 6739.1797 5960.4702 6182.2729 6726.1221 7430.4653 7716.897 7125.7808 5373.0879 5166.2896 5674.8364 6597.7251 7534.2666 7670.9351 6448.061 4397.2896 4684.1436 5573.9932 6764.0659 7638.4487 7087.5493 4679.7314 4626.1807 5776.1655 6904.1812 7135.5713 5407.9751 3767.0747 4848.3867 5947.0078 6456.0356 5365.3394 3093.7568 4981.2651 5502.5371 4737.501 2714.5769 4390.8174 3783.2136 2256.9199 4119.3052 2548.6045 1672.9728 1382.2083 
Vel 3 2975 float
0.0 0.0 0.0 0.0 0.0 0.0 0.0 0.0 0.0 0.0 0.0 0.0 0.0 0.0 0.0 0.0 0.0 0.0 0.0 0.0 0.0 0.0 0.0 0.0 0.0 0.0 0.0 0.0 0.0 0.0 0.0 0.0 0.0 0.0 0.0 0.0 0.0 0.0 0.0 0.0 0.0 0.0 0.0 0.0 0.0 0.0 0.0 0.0 0.0 0.0 0.0 0.0 0.0 0.0 0.0 0.0 0.0 0.0 0.0 0.0 0.0 0.0 0.0 0.0 0.0 0.0 0.0 0.0 0.0 0.0 0.0 0.0 0.0 0.0 0.0 0.0 0.0 0.0 0.0 0.0 0.0 0.0 0.0 0.0 0.0 0.0 0.0 0.0 0.0 0.0 0.0 0.0 0.0 0.0 0.0 0.0 0.0 0.0 0.0 0.0 0.0 0.0 0.0 0.0 0.0 0.0 0.0 0.0 0.0 0.0 0.0 0.0 0.0 0.0 0.0 0.0 0.0 0.0 0.0 0.0 0.0 0.0 0.0 0.0 0.0 0.0 0.0 0.0 0.0 0.0 0.0 0.0 0.0 0.0 0.0 0.0 0.0 0.0 0.0 0.0 0.0 0.0 0.0 0.0 0.0 0.0 0.0 0.0 0.0 0.0 0.0 0.0 0.0 0.0 0.0 0.0 0.0 0.0 0.0 0.0 0.0 0.0 0.0 0.0 0.0 0.0 0.0 0.0 0.0 0.0 0.0 0.0 0.0 0.0 0.0 0.0 0.0 0.0 0.0 0.0 0.0 0.0 0.0 0.0 0.0 0.0 0.0 0.0 0.0 0.0 0.0 0.0 0.0 0.0 0.0 0.0 0.0 0.0 0.0 0.0 0.0 0.0 0.0 0.0 0.0 0.0 0.0 0.0 0.0 0.0 0.0 0.0 0.0 0.0 0.0 0.0 0.0 0.0 0.0 0.0 0.0 0.0 0.0 0.0 0.0 0.0 0.0 0.0 0.0 0.0 0.0 0.0 0.0 0.0 0.0 0.0 0.0 0.0 0.0 0.0 0.0 0.0 0.0 0.0 0.0 0.0 0.0 0.0 0.0 0.0 0.0 0.0 0.0 0.0 0.0 0.0 0.0 0.0 0.0 0.0 0.0 0.0 0.0 0.0 0.0 0.0 0.0 0.0 0.0 0.0 0.0 0.0 0.0 0.0 0.0 0.0 0.0 0.0 0.0 0.0 0.0 0.0 0.0 0.0 0.0 0.0 0.0 0.0 0.0 0.0 0.0 0.0 0.0 0.0 0.0 0.0 0.0 0.0 0.0 0.0 0.0 0.0 0.0 0.0 0.0 0.0 0.0 0.0 0.0 0.0 0.0 0.0 0.0 0.0 0.0 0.0 0.0 0.0 0.0 0.0 0.0 0.0 0.0 0.0 0.0 0.0 0.0 0.0 0.0 0.0 0.0 0.0 0.0 0.0 0.0 0.0 0.0 0.0 0.0 0.0 0.0 0.0 0.0 0.0 0.0 0.0 0.0 0.0 0.0 0.0 0.0 0.0 0.0 0.0 0.0 0.0 0.0 0.0 0.0 0.0 0.0 0.0 0.0 0.0 0.0 0.0 0.0 0.0 0.0 0.0 0.0 0.0 0.0 0.0 0.0 0.0 0.0 0.0 0.0 0.0 0.0 0.0 0.0 0.0 0.0 0.0 0.0 0.0 0.0 0.0 0.0 0.0 0.0 0.0 0.0 0.0 0.0 0.0 0.0 0.0 0.0 0.0 0.0 0.0 0.0 0.0 0.0 0.0 0.0 0.0 0.0 0.0 0.0 0.0 0.0 0.0 0.0 0.0 0.0 0.0 0.0 0.0 0.0 0.0 0.0 0.0 0.0 0.0 0.0 0.0 0.0 0.0 0.0 0.0 0.0 0.0 0.0 0.0 0.0 0.0 0.0 0.0 0.0 0.0 0.0 0.0 0.0 0.0 0.0 0.0 0.0 0.0 0.0 0.0 0.0 0.0 0.0 0.0 0.0 0.0 0.0 0.0 0.0 0.0 0.0 0.0 0.0 0.0 0.0 0.0 0.0 0.0 0.0 0.0 0.0 0.0 0.0 0.0 0.0 0.0 0.0 0.0 0.0 0.0 0.0 0.0 0.0 0.0 0.0 0.0 0.0 0.0 0.0 0.0 0.0 0.0 0.0 0.0 0.0 0.0 0.0 0.0 0.0 0.0 0.0 0.0 0.0 0.0 0.0 0.0 0.0 0.0 0.0 0.0 0.0 0.0 0.0 0.0 0.0 0.0 0.0 0.0 0.0 0.0 0.0 0.0 0.0 0.0 0.0 0.0 0.0 0.0 0.0 0.0 0.0 0.0 0.0 0.0 0.0 0.0 0.0 0.0 0.0 0.0 0.0 0.0 0.0 0.0 0.0 0.0 0.0 0.0 0.0 0.0 0.0 0.0 0.0 0.0 0.0 0.0 0.0 0.0 0.0 0.0 0.0 0.0 0.0 0.0 0.0 0.0 0.0 0.0 0.0 0.0 0.0 0.0 0.0 0.0 0.0 0.0 0.0 0.0 0.0 0.0 0.0 0.0 0.0 0.0 0.0 0.0 0.0 0.0 0.0 0.0 0.0 0.0 0.0 0.0 0.0 0.0 0.0 0.0 0.0 0.0 0.0 0.0 0.0 0.0 0.0 0.0 0.0 0.0 0.0 0.0 0.0 0.0 0.0 0.0 0.0 0.0 0.0 0.0 0.0 0.0 0.0 0.0 0.0 0.0 0.0 0.0 0.0 0.0 0.0 0.0 0.0 0.0 0.0 0.0 0.0 0.0 0.0 0.0 0.0 0.0 0.0 0.0 0.0 0.0 0.0 0.0 0.0 0.0 0.0 0.0 0.0 0.0 0.0 0.0 0.0 0.0 0.0 0.0 0.0 0.0 0.0 0.0 0.0 0.0 0.0 0.0 0.0 0.0 0.0 0.0 0.0 0.0 0.0 0.0 0.0 0.0 0.0 0.0 0.0 0.0 0.0 0.0 0.0 0.0 0.0 0.0 0.0 0.0 0.0 0.0 0.0 0.0 0.0 0.0 0.0 0.0 0.0 0.0 0.0 0.0 0.0 0.0 0.0 0.0 0.0 0.0 0.0 0.0 0.0 0.0 0.0 0.0 0.0 0.0 0.0 0.0 0.0 0.0 0.0 0.0 0.0 0.0 0.0 0.0 0.0 0.0 0.0 0.0 0.0 0.0 0.0 0.0 0.0 0.0 0.0 0.0 0.0 0.0 0.0 0.0 0.0 0.0 0.0 0.0 0.0 0.0 0.0 0.0 0.0 0.0 0.0 0.0 0.0 0.0 0.0 0.0 0.0 0.0 0.0 0.0 0.0 0.0 0.0 0.0 0.0 0.0 0.0 0.0 0.0 0.0 0.0 0.0 0.0 0.0 0.0 0.0 0.0 0.0 0.0 0.0 0.0 0.0 0.0 0.0 0.0 0.0 0.0 0.0 0.0 0.0 0.0 0.0 0.0 0.0 0.0 0.0 0.0 0.0 0.0 0.0 0.0 0.0 0.0 0.0 0.0 0.0 0.0 0.0 0.0 0.0 0.0 0.0 0.0 0.0 0.0 0.0 0.0 0.0 0.0 0.0 0.0 0.0 0.0 0.0 0.0 0.0 0.0 0.0 0.0 0.0 0.0 0.0 0.0 0.0 0.0 0.0 0.0 0.0 0.0 0.0 0.0 0.0 0.0 0.0 0.0 0.0 0.0 0.0 0.0 0.0 0.0 0.0 0.0 0.0 0.0 0.0 0.0 0.0 0.0 0.0 0.0 0.0 0.0 0.0 0.0 0.0 0.0 0.0 0.0 0.0 0.0 0.0 0.0 0.0 0.0 0.0 0.0 0.0 0.0 0.0 0.0 0.0 0.0 0.0 0.0 0.0 0.0 0.0 0.0 0.0 0.0 0.0 0.0 0.0 0.0 0.0 0.0 0.0 0.0 0.0 0.0 0.0 0.0 0.0 0.0 0.0 0.0 0.0 0.0 0.0 0.0 0.0 0.0 0.0 0.0 0.0 0.0 0.0 0.0 0.0 0.0 0.0 0.0 0.0 0.0 0.0 0.0 0.0 0.0 0.0 0.0 0.0 0.0 0.0 0.0 0.0 0.0 0.0 0.0 0.0 0.0 0.0 0.0 0.0 0.0 0.0 0.0 0.0 0.0 0.0 0.0 0.0 0.0 0.0 0.0 0.0 0.0 0.0 0.0 0.0 0.0 0.0 0.0 0.0 0.0 0.0 0.0 0.0 0.0 0.0 0.0 0.0 0.0 0.0 0.0 0.0 0.0 0.0 0.0 0.0 0.0 0.0 0.0 0.0 0.0 0.0 0.0 0.0 0.0 0.0 0.0 0.0 0.0 0.0 0.0 0.0 0.0 0.0 0.0 0.0 0.0 0.0 0.0 0.0 0.0 0.0 0.0 0.0 0.0 0.0 0.0 0.0 0.0 0.0 0.0 0.0 0.0 0.0 0.0 0.0 0.0 0.0 0.0 0.0 0.0 0.0 0.0 0.0 0.0 0.0 0.0 0.0 0.0 0.0 0.0 0.0 0.0 0.0 0.0 0.0 0.0 0.0 0.0 0.0 0.0 0.0 0.0 0.0 0.0 0.0 0.0 0.0 0.0 0.0 0.0 0.0 0.0 0.0 0.0 0.0 0.0 0.0 0.0 0.0 0.0 0.0 0.0 0.0 0.0 0.0 0.0 0.0 0.0 0.0 0.0 0.0 0.0 0.0 0.0 0.0 0.0 0.0 0.0 0.0 0.0 0.0 0.0 0.0 0.0 0.0 0.0 0.0 0.0 0.0 0.0 0.0 0.0 0.0 0.0 0.0 0.0 0.0 0.0 0.0 0.0 0.0 0.0 0.0 0.0 0.0 0.0 0.0 0.0 0.0 0.0 0.0 0.0 0.0 0.0 0.0 0.0 0.0 0.0 0.0 0.0 0.0 0.0 0.0 0.0 0.0 0.0 0.0 0.0 0.0 0.0 0.0 0.0 0.0 0.0 0.0 0.0 0.0 0.0 0.0 0.0 0.0 0.0 0.0 0.0 0.0 0.0 0.0 0.0 0.0 0.0 0.0 0.0 0.0 0.0 0.0 0.0 0.0 0.0 0.0 0.0 0.0 0.0 0.0 0.0 0.0 0.0 0.0 0.0 0.0 0.0 0.0 0.0 0.0 0.0 0.0 0.0 0.0 0.0 0.0 0.0 0.0 0.0 0.0 0.0 0.0 0.0 0.0 0.0 0.0 0.0 0.0 0.0 0.0 0.0 0.0 0.0 0.0 0.0 0.0 0.0 0.0 0.0 0.0 0.0 0.0 0.0 0.0 0.0 0.0 0.0 0.0 0.0 0.0 0.0 0.0 0.0 0.0 0.0 0.0 0.0 0.0 0.0 0.0 0.0 0.0 0.0 0.0 0.0 0.0 0.0 0.0 0.0 0.0 0.0 0.0 0.0 0.0 0.0 0.0 0.0 0.0 0.0 0.0 0.0 0.0 0.0 0.0 0.0 0.0 0.0 0.0 0.0 0.0 0.0 0.0 0.0 0.0 0.0 0.0 0.0 0.0 0.0 0.0 0.0 0.0 0.0 0.0 0.0 0.0 0.0 0.0 0.0 0.0 0.0 0.0 0.0 0.0 0.0 0.0 0.0 0.0 0.0 0.0 0.0 0.0 0.0 0.0 0.0 0.0 0.0 0.0 0.0 0.0 0.0 0.0 0.0 0.0 0.0 0.0 0.0 0.0 0.0 0.0 0.0 0.0 0.0 0.0 0.0 0.0 0.0 0.0 0.0 0.0 0.0 0.0 0.0 0.0 0.0 0.0 0.0 0.0 0.0 0.0 0.0 0.0 0.0 0.0 0.0 0.0 0.0 0.0 0.0 0.0 0.0 0.0 0.0 0.0 0.0 0.0 0.0 0.0 0.0 0.0 0.0 0.0 0.0 0.0 0.0 0.0 0.0 0.0 0.0 0.0 0.0 0.0 0.0 0.0 0.0 0.0 0.0 0.0 0.0 0.0 0.0 0.0 0.0 0.0 0.0 0.0 0.0 0.0 0.0 0.0 0.0 0.0 0.0 0.0 0.0 0.0 0.0 0.0 0.0 0.0 0.0 0.0 0.0 0.0 0.0 0.0 0.0 0.0 0.0 0.0 0.0 0.0 0.0 0.0 0.0 0.0 0.0 0.0 0.0 0.0 0.0 0.0 0.0 0.0 0.0 0.0 0.0 0.0 0.0 0.0 0.0 0.0 0.0 0.0 0.0 0.0 0.0 0.0 0.0 0.0 0.0 0.0 0.0 0.0 0.0 0.0 0.0 0.0 0.0 0.0 0.0 0.0 0.0 0.0 0.0 0.0 0.0 0.0 0.0 0.0 0.0 0.0 0.0 0.0 0.0 0.0 0.0 0.0 0.0 0.0 0.0 0.0 0.0 0.0 0.0 0.0 0.0 0.0 0.0 0.0 0.0 0.0 0.0 0.0 0.0 0.0 0.0 0.0 0.0 0.0 0.0 0.0 0.0 0.0 0.0 0.0 0.0 0.0 0.0 0.0 0.0 0.0 0.0 0.0 0.0 0.0 0.0 0.0 0.0 0.0 0.0 0.0 0.0 0.0 0.0 0.0 0.0 0.0 0.0 0.0 0.0 0.0 0.0 0.0 0.0 0.0 0.0 0.0 0.0 0.0 0.0 0.0 0.0 0.0 0.0 0.0 0.0 0.0 0.0 0.0 0.0 0.0 0.0 0.0 0.0 0.0 0.0 0.0 0.0 0.0 0.0 0.0 0.0 0.0 0.0 0.0 0.0 0.0 0.0 0.0 0.0 0.0 0.0 0.0 0.0 0.0 0.0 0.0 0.0 0.0 0.0 0.0 0.0 0.0 0.0 0.0 0.0 0.0 0.0 0.0 0.0 0.0 0.0 0.0 0.0 0.0 0.0 0.0 0.0 0.0 0.0 0.0 0.0 0.0 0.0 0.0 0.0 0.0 0.0 0.0 0.0 0.0 0.0 0.0 0.0 0.0 0.0 0.0 0.0 0.0 0.0 0.0 0.0 0.0 0.0 0.0 0.0 0.0 0.0 0.0 0.0 0.0 0.0 0.0 0.0 0.0 0.0 0.0 0.0 0.0 0.0 0.0 0.0 0.0 0.0 0.0 0.0 0.0 0.0 0.0 0.0 0.0 0.0 0.0 0.0 0.0 0.0 0.0 0.0 0.0 0.0 0.0 0.0 0.0 0.0 0.0 0.0 0.0 0.0 0.0 0.0 0.0 0.0 0.0 0.0 0.0 0.0 0.0 0.0 0.0 0.0 0.0 0.0 0.0 0.0 0.0 0.0 0.0 0.0 0.0 0.0 0.0 0.0 0.0 0.0 0.0 0.0 0.0 0.0 0.0 0.0 0.0 0.0 0.0 0.0 0.0 0.0 0.0 0.0 0.0 0.0 0.0 0.0 0.0 0.0 0.0 0.0 0.0 0.0 0.0 0.0 0.0 0.0 0.0 0.0 0.0 0.0 0.0 0.0 0.0 0.0 0.0 0.0 0.0 0.0 0.0 0.0 0.0 0.0 0.0 0.0 0.0 0.0 0.0 0.0 0.0 0.0 0.0 0.0 0.0 0.0 0.0 0.0 0.0 0.0 0.0 0.0 0.0 0.0 0.0 0.0 0.0 0.0 0.0 0.0 0.0 0.0 0.0 0.0 0.0 0.0 0.0 0.0 0.0 0.0 0.0 0.0 0.0 0.0 0.0 0.0 0.0 0.0 0.0 0.0 0.0 0.0 0.0 0.0 0.0 0.0 0.0 0.0 0.0 0.0 0.0 0.0 0.0 0.0 0.0 0.0 0.0 0.0 0.0 0.0 0.0 0.0 0.0 0.0 0.0 0.0 0.0 0.0 0.0 0.0 0.0 0.0 0.0 0.0 0.0 0.0 0.0 0.0 0.0 0.0 0.0 0.0 0.0 0.0 0.0 0.0 0.0 0.0 0.0 0.0 0.0 0.0 0.0 0.0 0.0 0.0 0.0 0.0 0.0 0.0 0.0 0.0 0.0 0.0 0.0 0.0 0.0 0.0 0.0 0.0 0.0 0.0 0.0 0.0 0.0 0.0 0.0 0.0 0.0 0.0 0.0 0.0 0.0 0.0 0.0 0.0 0.0 0.0 0.0 0.0 0.0 0.0 0.0 0.0 0.0 0.0 0.0 0.0 0.0 0.0 0.0 0.0 0.0 0.0 0.0 0.0 0.0 0.0 0.0 0.0 0.0 0.0 0.0 0.0 0.0 0.0 0.0 0.0 0.0 0.0 0.0 0.0 0.0 0.0 0.0 0.0 0.0 0.0 0.0 0.0 0.0 0.0 0.0 0.0 0.0 0.0 0.0 0.0 0.0 0.0 0.0 0.0 0.0 0.0 0.0 0.0 0.0 0.0 0.0 0.0 0.0 0.0 0.0 0.0 0.0 0.0 0.0 0.0 0.0 0.0 0.0 0.0 0.0 0.0 0.0 0.0 0.0 0.0 0.0 0.0 0.0 0.0 0.0 0.0 0.0 0.0 0.0 0.0 0.0 0.0 0.0 0.0 0.0 0.0 0.0 0.0 0.0 0.0 0.0 0.0 0.0 0.0 0.0 0.0 0.0 0.0 0.0 0.0 0.0 0.0 0.0 0.0 0.0 0.0 0.0 0.0 0.0 0.0 0.0 0.0 0.0 0.0 0.0 0.0 0.0 0.0 0.0 0.0 0.0 0.0 0.0 0.0 0.0 0.0 0.0 0.0 0.0 0.0 0.0 0.0 0.0 0.0 0.0 0.0 0.0 0.0 0.0 0.0 0.0 0.0 0.0 0.0 0.0 0.0 0.0 0.0 0.0 0.0 0.0 0.0 0.0 0.0 0.0 0.0 0.0 0.0 0.0 0.0 0.0 0.0 0.0 0.0 0.0 0.0 0.0 0.0 0.0 0.0 0.0 0.0 0.0 0.0 0.0 0.0 0.0 0.0 0.0 0.0 0.0 0.0 0.0 0.0 0.0 0.0 0.0 0.0 0.0 0.0 0.0 0.0 0.0 0.0 0.0 0.0 0.0 0.0 0.0 0.0 0.0 0.0 0.0 0.0 0.0 0.0 0.0 0.0 0.0 0.0 0.0 0.0 0.0 0.0 0.0 0.0 0.0 0.0 0.0 0.0 0.0 0.0 0.0 0.0 0.0 0.0 0.0 0.0 0.0 0.0 0.0 0.0 0.0 0.0 0.0 0.0 0.0 0.0 0.0 0.0 0.0 0.0 0.0 0.0 0.0 0.0 0.0 0.0 0.0 0.0 0.0 0.0 0.0 0.0 0.0 0.0 0.0 0.0 0.0 0.0 0.0 0.0 0.0 0.0 0.0 0.0 0.0 0.0 0.0 0.0 0.0 0.0 0.0 0.0 0.0 0.0 0.0 0.0 0.0 0.0 0.0 0.0 0.0 0.0 0.0 0.0 0.0 0.0 0.0 0.0 0.0 0.0 0.0 0.0 0.0 0.0 0.0 0.0 0.0 0.0 0.0 0.0 0.0 0.0 0.0 0.0 0.0 0.0 0.0 0.0 0.0 0.0 0.0 0.0 0.0 0.0 0.0 0.0 0.0 0.0 0.0 0.0 0.0 0.0 0.0 0.0 0.0 0.0 0.0 0.0 0.0 0.0 0.0 0.0 0.0 0.0 0.0 0.0 0.0 0.0 0.0 0.0 0.0 0.0 0.0 0.0 0.0 0.0 0.0 0.0 0.0 0.0 0.0 0.0 0.0 0.0 0.0 0.0 0.0 0.0 0.0 0.0 0.0 0.0 0.0 0.0 0.0 0.0 0.0 0.0 0.0 0.0 0.0 0.0 0.0 0.0 0.0 0.0 0.0 0.0 0.0 0.0 0.0 0.0 0.0 0.0 0.0 0.0 0.0 0.0 0.0 0.0 0.0 0.0 0.0 0.0 0.0 0.0 0.0 0.0 0.0 0.0 0.0 0.0 0.0 0.0 0.0 0.0 0.0 0.0 0.0 0.0 0.0 0.0 0.0 0.0 0.0 0.0 0.0 0.0 0.0 0.0 0.0 0.0 0.0 0.0 0.0 0.0 0.0 0.0 0.0 0.0 0.0 0.0 0.0 0.0 0.0 0.0 0.0 0.0 0.0 0.0 0.0 0.0 0.0 0.0 0.0 0.0 0.0 0.0 0.0 0.0 0.0 0.0 0.0 0.0 0.0 0.0 0.0 0.0 0.0 0.0 0.0 0.0 0.0 0.0 0.0 0.0 0.0 0.0 0.0 0.0 0.0 0.0 0.0 0.0 0.0 0.0 0.0 0.0 0.0 0.0 0.0 0.0 0.0 0.0 0.0 0.0 0.0 0.0 0.0 0.0 0.0 0.0 0.0 0.0 0.0 0.0 0.0 0.0 0.0 0.0 0.0 0.0 0.0 0.0 0.0 0.0 0.0 0.0 0.0 0.0 0.0 0.0 0.0 0.0 0.0 0.0 0.0 0.0 0.0 0.0 0.0 0.0 0.0 0.0 0.0 0.0 0.0 0.0 0.0 0.0 0.0 0.0 0.0 0.0 0.0 0.0 0.0 0.0 0.0 0.0 0.0 0.0 0.0 0.0 0.0 0.0 0.0 0.0 0.0 0.0 0.0 0.0 0.0 0.0 0.0 0.0 0.0 0.0 0.0 0.0 0.0 0.0 0.0 0.0 0.0 0.0 0.0 0.0 0.0 0.0 0.0 0.0 0.0 0.0 0.0 0.0 0.0 0.0 0.0 0.0 0.0 0.0 0.0 0.0 0.0 0.0 0.0 0.0 0.0 0.0 0.0 0.0 0.0 0.0 0.0 0.0 0.0 0.0 0.0 0.0 0.0 0.0 0.0 0.0 0.0 0.0 0.0 0.0 0.0 0.0 0.0 0.0 0.0 0.0 0.0 0.0 0.0 0.0 0.0 0.0 0.0 0.0 0.0 0.0 0.0 0.0 0.0 0.0 0.0 0.0 0.0 0.0 0.0 0.0 0.0 0.0 0.0 0.0 0.0 0.0 0.0 0.0 0.0 0.0 0.0 0.0 0.0 0.0 0.0 0.0 0.0 0.0 0.0 0.0 0.0 0.0 0.0 0.0 0.0 0.0 0.0 0.0 0.0 0.0 0.0 0.0 0.0 0.0 0.0 0.0 0.0 0.0 0.0 0.0 0.0 0.0 0.0 0.0 0.0 0.0 0.0 0.0 0.0 0.0 0.0 0.0 0.0 0.0 0.0 0.0 0.0 0.0 0.0 0.0 0.0 0.0 0.0 0.0 0.0 0.0 0.0 0.0 0.0 0.0 0.0 0.0 0.0 0.0 0.0 0.0 0.0 0.0 0.0 0.0 0.0 0.0 0.0 0.0 0.0 0.0 0.0 0.0 0.0 0.0 0.0 0.0 0.0 0.0 0.0 0.0 0.0 0.0 0.0 0.0 0.0 0.0 0.0 0.0 0.0 0.0 0.0 0.0 0.0 0.0 0.0 0.0 0.0 0.0 0.0 0.0 0.0 0.0 0.0 0.0 0.0 0.0 0.0 0.0 0.0 0.0 0.0 0.0 0.0 0.0 0.0 0.0 0.0 0.0 0.0 0.0 0.0 0.0 0.0 0.0 0.0 0.0 0.0 0.0 0.0 0.0 0.0 0.0 0.0 0.0 0.0 0.0 0.0 0.0 0.0 0.0 0.0 0.0 0.0 0.0 0.0 0.0 0.0 0.0 0.0 0.0 0.0 0.0 0.0 0.0 0.0 0.0 0.0 0.0 0.0 0.0 0.0 0.0 0.0 0.0 0.0 0.0 0.0 0.0 0.0 0.0 0.0 0.0 0.0 0.0 0.0 0.0 0.0 0.0 0.0 0.0 0.0 0.0 0.0 0.0 0.0 0.0 0.0 0.0 0.0 0.0 0.0 0.0 0.0 0.0 0.0 0.0 0.0 0.0 0.0 0.0 0.0 0.0 0.0 0.0 0.0 0.0 0.0 0.0 0.0 0.0 0.0 0.0 0.0 0.0 0.0 0.0 0.0 0.0 0.0 0.0 0.0 0.0 0.0 0.0 0.0 0.0 0.0 0.0 0.0 0.0 0.0 0.0 0.0 0.0 0.0 0.0 0.0 0.0 0.0 0.0 0.0 0.0 0.0 0.0 0.0 0.0 0.0 0.0 0.0 0.0 0.0 0.0 0.0 0.0 0.0 0.0 0.0 0.0 0.0 0.0 0.0 0.0 0.0 0.0 0.0 0.0 0.0 0.0 0.0 0.0 0.0 0.0 0.0 0.0 0.0 0.0 0.0 0.0 0.0 0.0 0.0 0.0 0.0 0.0 0.0 0.0 0.0 0.0 0.0 0.0 0.0 0.0 0.0 0.0 0.0 0.0 0.0 0.0 0.0 0.0 0.0 0.0 0.0 0.0 0.0 0.0 0.0 0.0 0.0 0.0 0.0 0.0 0.0 0.0 0.0 0.0 0.0 0.0 0.0 0.0 0.0 0.0 0.0 0.0 0.0 0.0 0.0 0.0 0.0 0.0 0.0 0.0 0.0 0.0 0.0 0.0 0.0 0.0 0.0 0.0 0.0 0.0 0.0 0.0 0.0 0.0 0.0 0.0 0.0 0.0 0.0 0.0 0.0 0.0 0.0 0.0 0.0 0.0 0.0 0.0 0.0 0.0 0.0 0.0 0.0 0.0 0.0 0.0 0.0 0.0 0.0 0.0 0.0 0.0 0.0 0.0 0.0 0.0 0.0 0.0 0.0 0.0 0.0 0.0 0.0 0.0 0.0 0.0 0.0 0.0 0.0 0.0 0.0 0.0 0.0 0.0 0.0 0.0 0.0 0.0 0.0 0.0 0.0 0.0 0.0 0.0 0.0 0.0 0.0 0.0 0.0 0.0 0.0 0.0 0.0 0.0 0.0 0.0 0.0 0.0 0.0 0.0 0.0 0.0 0.0 0.0 0.0 0.0 0.0 0.0 0.0 0.0 0.0 0.0 0.0 0.0 0.0 0.0 0.0 0.0 0.0 0.0 0.0 0.0 0.0 0.0 0.0 0.0 0.0 0.0 0.0 0.0 0.0 0.0 0.0 0.0 0.0 0.0 0.0 0.0 0.0 0.0 0.0 0.0 0.0 0.0 0.0 0.0 0.0 0.0 0.0 0.0 0.0 0.0 0.0 0.0 0.0 0.0 0.0 0.0 0.0 0.0 0.0 0.0 0.0 0.0 0.0 0.0 0.0 0.0 0.0 0.0 0.0 0.0 0.0 0.0 0.0 0.0 0.0 0.0 0.0 0.0 0.0 0.0 0.0 0.0 0.0 0.0 0.0 0.0 0.0 0.0 0.0 0.0 0.0 0.0 0.0 0.0 0.0 0.0 0.0 0.0 0.0 0.0 0.0 0.0 0.0 0.0 0.0 0.0 0.0 0.0 0.0 0.0 0.0 0.0 0.0 0.0 0.0 0.0 0.0 0.0 0.0 0.0 0.0 0.0 0.0 0.0 0.0 0.0 0.0 0.0 0.0 0.0 0.0 0.0 0.0 0.0 0.0 0.0 0.0 0.0 0.0 0.0 0.0 0.0 0.0 0.0 0.0 0.0 0.0 0.0 0.0 0.0 0.0 0.0 -0.0013914355999999999 0.0 -0.00053831615 -0.0016976772 0.0 -0.00051911589 -0.0019571295000000003 0.0 -0.0004703367 -0.0021601567999999997 0.0 -0.00040697501 -0.0023095836 0.0 -0.00033831899 -0.0013644867999999999 0.0 -0.00070447871 -0.0019220955 0.0 -0.00065506325 -0.002400086 0.0 -0.00065007235 -0.0027869244000000002 0.0 -0.00060473435 -0.0030792619 0.0 -0.0005337067400000001 -0.0032877587 0.0 -0.00044912274000000007 -0.0018975129000000002 0.0 -0.0007694473599999999 -0.002666059 0.0 -0.00073571602 -0.003327105 0.0 -0.00072034117 -0.0038638629 0.0 -0.00067181379 -0.0042625051 0.0 -0.0006013169200000001 -0.0045417096 0.0 -0.00051021768 -0.0025545414999999998 0.0 -0.00081009511 -0.0035695373 0.0 -0.00076544553 -0.004427298400000001 0.0 -0.0007513187 -0.0051173619 0.0 -0.00070373452 -0.0056262789 0.0 -0.000631459 -0.0059756362 0.0 -0.00053765374 -0.0033271591999999997 0.0 -0.0008477218800000001 -0.0046171341 0.0 -0.0007697243700000001 -0.0056846654 0.0 -0.0007509101400000001 -0.0065291151 0.0 -0.00070300396 -0.0071427878000000005 0.0 -0.00063184212 -0.007555890799999999 0.0 -0.00053765887 -0.0042365897 0.0 -0.00089630368 -0.0058311452 0.0 -0.00075985072 -0.0071179266 0.0 -0.0007260461 -0.0081154639 0.0 -0.0006760264500000001 -0.0088257631 0.0 -0.0006098443400000001 -0.0092939958 0.0 -0.0005187330000000001 -0.0053214547 0.0 -0.0009792330699999999 -0.0072535551 0.0 -0.0007551976600000001 -0.0087677948 0.0 -0.00069203088 -0.009917309499999999 0.0 -0.0006364364499999999 -0.010717927 0.0 -0.00057703943 -0.011232391000000001 0.0 -0.0004940931099999999 -0.0066363025 0.0 -0.0011240247 -0.0089345947 0.0 -0.0007836841400000001 -0.010679916000000001 0.0 -0.00067939638 -0.011986432 0.0 -0.00060571235 -0.012870831999999999 0.0 -0.00055748387 -0.013424128 0.0 -0.00048436251 -0.0082742777 0.0 -0.0012967625 -0.010925694 0.0 -0.00085788005 -0.012898625 0.0 -0.00071724388 -0.014361786000000001 0.0 -0.0006263128 -0.015330361 0.0 -0.00058319047 -0.015913179 0.0 -0.00052048528 -0.010407796 0.0 -0.0013372722 -0.013295419 0.0 -0.0009455074900000002 -0.01547633 0.0 -0.00080400705 -0.017078833999999998 0.0 -0.00072802411 -0.01813096 0.0 -0.0006899770200000001 -0.018732021 0.0 -0.00063714915 -0.013193751 0.0 -0.0012223272000000001 -0.016157964 0.0 -0.0010218650999999999 -0.018480297 0.0 -0.0009333242199999999 -0.020195076 0.0 -0.0009141922900000001 -0.021303502999999998 0.0 -0.0009106393600000001 -0.021909357999999997 0.0 -0.0008674087 -0.016340768000000002 0.0 -0.0018264576 -0.019549495 0.0 -0.0013936741 -0.021954853 0.0 -0.0012687107000000002 -0.023757787000000002 0.0 -0.0012563214 -0.024892775 0.0 -0.0012707592 -0.025478521 0.0 -0.001239029 -0.02012993 0.0 -0.0045647193 -0.023530343999999998 0.0 -0.0030975522999999996 -0.026007918999999997 0.0 -0.0022990713 -0.027836265 0.0 -0.0019830537 -0.028941035 0.0 -0.0018848899 -0.029478882 0.0 -0.0017981757 -0.025095923 0.0 -0.0070788916000000006 -0.028368577000000002 0.0 -0.005367999 -0.030797428999999998 0.0 -0.0039571207 -0.032510575 0.0 -0.0031979007 -0.033506464 0.0 -0.0028489809000000004 -0.033967454 0.0 -0.0025948163 -0.031058557 0.0 -0.0088420305 -0.034053341 0.0 -0.0072950884 -0.036267366 0.0 -0.005762956600000001 -0.037781607 0.0 -0.0047197416 -0.038632706 0.0 -0.004088046 -0.038996179 0.0 -0.0035932958 -0.037544928 0.0 -0.010317958 -0.0402552 0.0 -0.0089215897 -0.042262975 0.0 -0.007469546 -0.043605421 0.0 -0.0063081477 -0.044339540999999996 0.0 -0.0054421923 -0.04460250599999999 0.0 -0.004747432199999999 -0.044253517 0.0 -0.011737073999999998 -0.046803322 0.0 -0.010406842 -0.048710647999999995 0.0 -0.009033246 -0.049975693 0.0 -0.007838098299999999 -0.050644506 0.0 -0.006831144 -0.050827671 0.0 -0.0059830924 -0.051100016 0.0 -0.0132133 -0.053704094 0.0 -0.01187853 -0.055660769000000006 0.0 -0.010514566000000001 -0.056939400999999994 0.0 -0.009305927 -0.057588982999999996 0.0 -0.0082162702 -0.057713944 0.0 -0.00725096 -0.058279502999999996 0.0 -0.014781615 -0.061117492999999995 0.0 -0.013393905 -0.063227162 0.0 -0.011982245 -0.064576849 0.0 -0.010751335 -0.065227576 0.0 -0.0096003488 -0.065308481 0.0 -0.008525609 -0.06605988 0.0 -0.016453024 -0.06920369700000001 0.0 -0.014970971000000001 -0.071507469 0.0 -0.013486385 -0.07295084 0.0 -0.012217291000000002 -0.073611692 0.0 -0.011001468 -0.073656268 0.0 -0.0098224282 -0.074571207 0.0 -0.018230692 -0.078043506 0.0 -0.016632058 -0.080558449 0.0 -0.01506306 -0.08210933200000001 0.0 -0.013738752 -0.08279226 0.0 -0.012444239 -0.082809627 0.0 -0.011153175 -0.08386492 0.0 -0.020132892 -0.087691441 0.0 -0.018399588999999997 -0.090433449 0.0 -0.016741162 -0.09210532199999999 0.0 -0.015340918 -0.0928239 0.0 -0.01394705 -0.092822827 0.0 -0.012523991000000002 -0.09400603199999999 0.0 -0.022172591000000002 -0.09821043199999999 0.0 -0.020298449 -0.10119419 0.0 -0.018539883 -0.10300133 0.0 -0.01703045 -0.10376899 0.0 -0.015513104 -0.10375687 0.0 -0.013940331 -0.10507996 0.0 -0.024381902 -0.109684 0.0 -0.022358749 -0.1129206 0.0 -0.020465232 -0.11487564 0.0 -0.01879772 -0.11570054 0.0 -0.017138405 -0.11568078 0.0 -0.015413721000000002 -0.11722814 0.0 -0.026803867999999998 -0.12223241 0.0 -0.024611682000000003 -0.12571774 0.0 -0.022509025 -0.12782182 0.0 -0.020627614 -0.1286999 0.0 -0.018832596 -0.12866814 0.0 -0.016982285 -0.13068515 0.0 -0.029492097000000002 -0.13602316 0.0 -0.027092936 -0.13971227 0.0 -0.024663791 -0.1419384 0.0 -0.022533111 -0.1428442 0.0 -0.020655183 -0.14278252 0.0 -0.018733951999999998 -0.14578138 0.0 -0.032521617 -0.15124707 0.0 -0.029859313999999998 -0.15501516 0.0 -0.026963484 -0.1572853 0.0 -0.024602903 -0.15817153 0.0 -0.022743052000000003 -0.15804482 0.0 -0.020829545 -0.16282175 0.0 -0.03600499 -0.16800666 0.0 -0.03301511 -0.1716112 0.0 -0.029523976 -0.17378405 0.0 -0.027038271000000003 -0.17457043 0.0 -0.025348203 -0.17435573 0.0 -0.023525908999999998 -0.1817752 0.0 -0.040128528999999996 -0.18608361 0.0 -0.036761429 -0.18918633 0.0 -0.032616377 -0.19103153 0.0 -0.030220057999999998 -0.19164856 0.0 -0.028829806 -0.19135539 0.0 -0.027077999 -0.20185934 0.0 -0.045216192 -0.20464407 0.0 -0.041472826000000004 -0.20691431 0.0 -0.036791861 -0.20826375 0.0 -0.034573227000000005 -0.20861088 0.0 -0.033402991 -0.20827486 0.0 -0.031659231 -0.22143976 0.0 -0.051693767 -0.22231735 0.0 -0.047779929000000006 -0.22341992 0.0 -0.043062832 -0.22436067 0.0 -0.040352754 -0.22465554 0.0 -0.038949426 -0.22429453 0.0 -0.036995652999999996 -0.23844206 0.0 -0.060373668 -0.23751785 0.0 -0.056980208 -0.23826072 0.0 -0.051588025 -0.23896106 0.0 -0.047580816 -0.23895708 0.0 -0.045521952000000004 -0.23857559 0.0 -0.042865332 -0.25069648 0.0 -0.071538843 -0.2496313 0.0 -0.06949228 -0.25043839 0.0 -0.063885234 -0.25114956 0.0 -0.057733789 -0.25101292 0.0 -0.053048063 -0.25034952 0.0 -0.049254593 -0.25675243 0.0 -0.08424106199999999 -0.25615528 0.0 -0.084985837 -0.25738904 0.0 -0.080171563 -0.25818941 0.0 -0.073440351 -0.25877067 0.0 -0.064346649 -0.25841767 0.0 -0.05734203400000001 -0.25219777 0.0 -0.094467461 -0.25554377 0.0 -0.09973583400000001 -0.25807902 0.0 -0.09671697 -0.25887206 0.0 -0.09288497300000001 -0.26050669 0.0 -0.081121236 -0.26094961 0.0 -0.070391916 -0.21432072 0.0 -0.10468887 -0.23977351 0.0 -0.11175435 -0.24870166 0.0 -0.11025726 -0.24889149 0.0 -0.11331889 -0.25125957 0.0 -0.1052745 -0.25305915 0.0 -0.092896536 -0.1426841 0.0 -0.11189736 -0.17009388 0.0 -0.11980305 -0.19524422 0.0 -0.12110238 -0.21196926 0.0 -0.12839951 -0.21988806 0.0 -0.12947252 -0.22307448 0.0 -0.12398303 -0.08529140800000001 0.0 -0.11571324 -0.10234132 0.0 -0.12703267 -0.11848691 0.0 -0.12449905 -0.13135143 0.0 -0.12948716 -0.13994324 0.0 -0.13092211 -0.14446442 0.0 -0.12652966 -0.04767178 0.0 -0.11879682 -0.056596331 0.0 -0.13341127 -0.06500586900000001 0.0 -0.126118 -0.072373666 0.0 -0.12771566 -0.077860661 0.0 -0.12755343 -0.081425838 0.0 -0.12242559 -0.023790192 0.0 -0.12117343 -0.02671984 0.0 -0.13745572 -0.029349617999999997 0.0 -0.12875091 -0.032057296 0.0 -0.12654428 -0.03452668 0.0 -0.12425871 -0.036557056 0.0 -0.11842687 -0.0041129608 0.0 -0.12255005 -0.002401235 0.0 -0.13928062 -0.00069093733 0.0 -0.13122638 0.0003644235 0.0 -0.12715007 0.00051040394 0.0 -0.12325184 1.9874073e-05 0.0 -0.1159744 0.018866954 0.0 -0.12282898 0.024793234 0.0 -0.13929029 0.030052328 0.0 -0.1326807 0.034131333 0.0 -0.12930089 0.036312871000000004 0.0 -0.12426325 0.036850642 0.0 -0.11504012 0.047601379000000006 0.0 -0.12190697 0.057805259000000005 0.0 -0.13754587 0.066421732 0.0 -0.13220648 0.072981678 0.0 -0.13035749 0.076634794 0.0 -0.12509558 0.077448316 0.0 -0.1146854 0.080125205 0.0 -0.11996566 0.094795771 0.0 -0.13462913 0.10666155 0.0 -0.1300272 0.1154519 0.0 -0.1295213 0.12015168 0.0 -0.12466867 0.1205964 0.0 -0.11387531 0.11294927 0.0 -0.11755542 0.13167942 0.0 -0.13081446 0.14676291 0.0 -0.12667066 0.15769477 0.0 -0.12686385 0.16317207 0.0 -0.12246694 0.16296427 0.0 -0.11182514 0.14314689 0.0 -0.11492779 0.16470344 0.0 -0.12626396 0.18293883 0.0 -0.12264407 0.19549865 0.0 -0.12239689 0.20181572 0.0 -0.11793358 0.20130241 0.0 -0.10814267 0.1688541 0.0 -0.11204424 0.1917071 0.0 -0.12142137 0.2122964 0.0 -0.11756144 0.22591098 0.0 -0.11609482 0.23326117 0.0 -0.11115055 0.23221289 0.0 -0.10286823 0.18899374 0.0 -0.10891142 0.21191311 0.0 -0.1162907 0.23396415 0.0 -0.11139363 0.2481828 0.0 -0.10844992 0.25167739 0.0 -0.10445461 0.24545939 0.0 -0.097170398 0.20496069 0.0 -0.10516914 0.22739674 0.0 -0.11085069 0.24980167 0.0 -0.10474418 0.26027423 0.0 -0.10202798 0.25672671 0.0 -0.099136271 0.24857019 0.0 -0.091480158 0.21949758 0.0 -0.10014453 0.24092945 0.0 -0.1047342 0.26108989 0.0 -0.098050952 0.26413357 0.0 -0.096619926 0.25759166 0.0 -0.09328201400000001 0.2486897 0.0 -0.085785754 0.23456556 0.0 -0.093852691 0.25336888 0.0 -0.09779107599999999 0.26743346 0.0 -0.09094665199999999 0.26496589 0.0 -0.09007933 0.25700486 0.0 -0.08686202800000001 0.24762329 0.0 -0.080458753 0.25137171 0.0 -0.086259134 0.26618943 0.0 -0.090182468 0.27047205 0.0 -0.083224885 0.26478714 0.0 -0.082950331 0.25583032 0.0 -0.080563717 0.24595758 0.0 -0.07547117 0.27278632 0.0 -0.07798837900000001 0.27881506 0.0 -0.081162296 0.27253726 0.0 -0.076141156 0.26440185 0.0 -0.075847894 0.25454244 0.0 -0.074120857 0.24394009 0.0 -0.069865122 0.29273897 0.0 -0.07248868 0.2861748 0.0 -0.072856486 0.27478629 0.0 -0.069234528 0.264018 0.0 -0.068823285 0.25322917 0.0 -0.067449011 0.24172892 0.0 -0.064011395 0.29865852 0.0 -0.06582129 0.28943431 0.0 -0.06526752599999999 0.27570146 0.0 -0.062058255 0.26338807 0.0 -0.061456949000000004 0.25198811 0.0 -0.06074994400000001 0.23957555 0.0 -0.057655267 0.28932014 0.0 -0.058099668 0.27480549 0.0 -0.05442486 0.26223335 0.0 -0.053215835 0.25064969 0.0 -0.053272575 0.23764989 0.0 -0.051167752999999996 0.28621861 0.0 -0.051741749000000004 0.27326104 0.0 -0.048049249 0.26043922 0.0 -0.045240406 0.24907503 0.0 -0.045452867 0.23589757 0.0 -0.044281247999999995 0.27136731 0.0 -0.043426014000000006 0.25840187 0.0 -0.039295241 0.2472616 0.0 -0.03844374 0.23436427 0.0 -0.037853342000000005 0.2676692 0.0 -0.039722394 0.25722364 0.0 -0.036054357999999995 0.24544062 0.0 -0.033120431 0.23314813 0.0 -0.032387864 0.25477728 0.0 -0.034359396 0.24428298 0.0 -0.030620305 0.23273304 0.0 -0.028827244 0.24188381 0.0 -0.029816367000000003 0.23286214 0.0 -0.027631122999999997 0.23375301 0.0 -0.027116518 0.22986144 0.0 -0.027080312000000002 -0.0024124067 0.0 -0.00027306138999999997 -0.002478993 0.0 -0.00021216346000000003 -0.0025168676 0.0 -0.00016118909 -0.0025345910999999997 0.0 -0.00011867367 -0.0025392366 0.0 -8.4122628e-05 -0.0025361310999999997 0.0 -5.7610665e-05 -0.0025298054999999997 0.0 -3.7051064e-05 -0.0025231768 0.0 -2.1888141e-05 -0.0025184327 0.0 -1.0017744e-05 -0.0034270653999999997 0.0 -0.00036324900999999996 -0.0035123071 0.0 -0.00028493788 -0.003557177 0.0 -0.00021878816000000002 -0.0035755092 0.0 -0.0001617004 -0.0035762175 0.0 -0.00011627093000000001 -0.0035673925 0.0 -8.0442936e-05 -0.0035550932 0.0 -5.2667025999999993e-05 -0.0035434541999999998 0.0 -3.1488944e-05 -0.0035354071 0.0 -1.4623447000000002e-05 -0.0047215857 0.0 -0.00041745655 -0.0048271334 0.0 -0.00033088258 -0.0048795762 0.0 -0.00025489874 -0.004896563499999999 0.0 -0.00019012523 -0.0048912456 0.0 -0.00013790778999999998 -0.0048745987 0.0 -9.596788e-05 -0.0048542027 0.0 -6.3585059e-05 -0.0048359246 0.0 -3.8154252000000004e-05 -0.0048234952 0.0 -1.7903896e-05 -0.006195006899999999 0.0 -0.00044084587999999994 -0.006318391800000001 0.0 -0.00035146257000000003 -0.0063757938 0.0 -0.00027072805 -0.0063887211 0.0 -0.00020296444 -0.0063748499 0.0 -0.00014713714 -0.0063478164 0.0 -0.00010284851999999998 -0.0063174916 0.0 -6.8264788e-05 -0.0062911063 0.0 -4.1128347000000006e-05 -0.0062734368000000006 0.0 -1.9275678e-05 -0.0078079583999999995 0.0 -0.0004411957599999999 -0.007943810899999999 0.0 -0.00035141402999999997 -0.0080009783 0.0 -0.00027036795 -0.0080057187 0.0 -0.00020307544 -0.0079799136 0.0 -0.00014696004999999998 -0.0079397494 0.0 -0.00010283836999999999 -0.0078974077 0.0 -6.8065019e-05 -0.0078614578 0.0 -4.1063442e-05 -0.007837693199999999 0.0 -1.9231324e-05 -0.0095699048 0.0 -0.00042723981 -0.009711056899999999 0.0 -0.00033963288 -0.0097612236 0.0 -0.00026203526 -0.0097526303 0.0 -0.00019651822 -0.0097104963 0.0 -0.00014260726000000002 -0.0096540134 0.0 -9.964987800000001e-05 -0.0095972186 0.0 -6.6179025e-05 -0.0095500741 0.0 -3.9962692e-05 -0.009519231500000001 0.0 -1.8763931e-05 -0.011523422 0.0 -0.00041209208 -0.011661457 0.0 -0.0003299469 -0.011697336000000001 0.0 -0.00025731995 -0.011669276999999999 0.0 -0.00019405384999999999 -0.011605958000000001 0.0 -0.00014229983 -0.011529346000000001 0.0 -0.00010033628 -0.01145527 0.0 -6.7317502e-05 -0.011394953000000001 0.0 -4.1086911e-05 -0.011355878 0.0 -1.9392792e-05 -0.013721509 0.0 -0.00041349287000000005 -0.013847426000000001 0.0 -0.00033870584 -0.013861313 0.0 -0.00027037522999999995 -0.013807016 0.0 -0.00020892337 -0.013717112 0.0 -0.00015669108000000001 -0.013616068 0.0 -0.00011332581 -0.013521463999999999 0.0 -7.778727700000001e-05 -0.013445674 0.0 -4.840799e-05 -0.013397012 0.0 -2.3160668e-05 -0.016207766000000002 0.0 -0.00045667164000000006 -0.016312214 0.0 -0.00038780388 -0.016296281 0.0 -0.00032068623 -0.016209066 0.0 -0.00025664011000000003 -0.016086921 0.0 -0.00019870901000000003 -0.01595683 0.0 -0.0001481848 -0.0158381 0.0 -0.00010457351000000001 -0.015744297 0.0 -6.656607699999999e-05 -0.01568451 0.0 -3.2343403e-05 -0.019011886999999998 0.0 -0.0005758586299999999 -0.019085731 0.0 -0.00050468097 -0.01903275 0.0 -0.00042992004000000003 -0.018906355 0.0 -0.00035408497000000003 -0.018746419 0.0 -0.00028173052000000004 -0.018582577 0.0 -0.00021519072 -0.018435951000000003 0.0 -0.00015519219 -0.018321412 0.0 -0.00010041911 -0.018248858 0.0 -4.9291099000000004e-05 -0.022162445 0.0 -0.0008017103500000001 -0.022197489 0.0 -0.00071581308 -0.022100888 0.0 -0.00061969127 -0.021929681 0.0 -0.00051824382 -0.021726767 0.0 -0.00041855089 -0.021524532000000002 0.0 -0.00032434094 -0.021346252000000003 0.0 -0.00023653406000000003 -0.021208157999999998 0.0 -0.00015445388000000001 -0.021121135 0.0 -7.6267221e-05 -0.025692921 0.0 -0.0011587809 -0.025683239 0.0 -0.0010380353 -0.025537111 0.0 -0.0009052919900000001 -0.02531592 0.0 -0.00076304807 -0.02506543 0.0 -0.0006195454 -0.024820421000000002 0.0 -0.0004830753 -0.024606707999999998 0.0 -0.00035452849 -0.024442276000000002 0.0 -0.00023260512000000002 -0.02433905 0.0 -0.00011528833000000001 -0.02964673 0.0 -0.0016555920000000002 -0.029583557000000003 0.0 -0.0014872460999999998 -0.029383553 0.0 -0.0012952829 -0.029108249 0.0 -0.0010920247999999999 -0.028805189 0.0 -0.00089204946 -0.028513292000000003 0.0 -0.000698708 -0.028260768999999998 0.0 -0.0005139003599999999 -0.028067425 0.0 -0.0003374481200000001 -0.027946462999999998 0.0 -0.00016714734 -0.034071207 0.0 -0.0023286005 -0.033948257999999995 0.0 -0.002063036 -0.033686936 0.0 -0.0017936395 -0.033351935 0.0 -0.0015118776 -0.032992426 0.0 -0.001236055 -0.032649789 0.0 -0.0009694906800000001 -0.032355238 0.0 -0.00071509462 -0.03213064 0.0 -0.00047123330000000004 -0.031990539 0.0 -0.00023382534 -0.039019499 0.0 -0.0031711098 -0.038826692999999995 0.0 -0.0027781089 -0.038497809 0.0 -0.0023976481 -0.038095966 0.0 -0.002022096 -0.037675496 0.0 -0.0016513779000000002 -0.03727898 0.0 -0.0012973335 -0.036940206 0.0 -0.0009580584599999999 -0.036682788 0.0 -0.00063129258 -0.036522523 0.0 -0.000313664 -0.044543099 0.0 -0.0041530994 -0.044269789000000004 0.0 -0.0036086785 -0.04386441 0.0 -0.0030983228000000004 -0.04339017 0.0 -0.0026100182 -0.042904261 0.0 -0.0021330195 -0.04245127 0.0 -0.0016760573 -0.042066514000000006 0.0 -0.001238964 -0.041775442999999995 0.0 -0.00081707281 -0.041594539 0.0 -0.00040600877 -0.050685216 0.0 -0.0052212644 -0.050326645 0.0 -0.0045242761 -0.049837884000000006 0.0 -0.0038750605 -0.049286664 0.0 -0.0032599822 -0.048731878 0.0 -0.0026689879999999997 -0.048221327 0.0 -0.0020999881 -0.047790319000000005 0.0 -0.0015543652 -0.047465414000000004 0.0 -0.0010260475 -0.047263939000000005 0.0 -0.00051008351 -0.057492330999999994 0.0 -0.0063415566 -0.057045865999999994 0.0 -0.005495429499999999 -0.056470550999999994 0.0 -0.0047082342 -0.055840377000000004 0.0 -0.0039618784 -0.055216953 0.0 -0.0032458056 -0.054648239 0.0 -0.0025578414 -0.054171722 0.0 -0.0018942223000000002 -0.05381364 0.0 -0.0012510684 -0.053591974 0.0 -0.0006218481599999999 -0.06501092 0.0 -0.0074914489 -0.064478286 0.0 -0.0065113446 -0.063818417 0.0 -0.0055838386 -0.06311015 0.0 -0.0046987291 -0.062418642999999996 0.0 -0.0038494025 -0.061793879 0.0 -0.0030353210999999997 -0.061273537999999995 0.0 -0.002247653 -0.060883556 0.0 -0.001484495 -0.060642457999999996 0.0 -0.0007377927 -0.073290698 0.0 -0.0086682392 -0.07267733700000001 0.0 -0.0075522712 -0.071937248 0.0 -0.0064814161 -0.071154565 0.0 -0.005452653399999999 -0.070397928 0.0 -0.0044615506 -0.06971883799999999 0.0 -0.0035134067 -0.06915679599999999 0.0 -0.0026022908 -0.068737023 0.0 -0.0017189921 -0.068477355 0.0 -0.0008541188400000001 -0.082382992 0.0 -0.0098662823 -0.081695169 0.0 -0.008606110699999999 -0.08087986700000001 0.0 -0.0073826066 -0.080026992 0.0 -0.0062016845 -0.079209246 0.0 -0.0050682849 -0.07848005 0.0 -0.0039851293 -0.077877142 0.0 -0.0029474528999999996 -0.07742884 0.0 -0.0019454335999999999 -0.077152289 0.0 -0.0009679657499999999 -0.092341915 0.0 -0.011087962 -0.091585197 0.0 -0.0096682403 -0.090697631 0.0 -0.0082813604 -0.089779057 0.0 -0.006944676899999999 -0.08890348699999999 0.0 -0.0056657204 -0.08812557900000001 0.0 -0.0044477764 -0.087483965 0.0 -0.003285083 -0.087007761 0.0 -0.0021658293 -0.08671377599999999 0.0 -0.0010759847 -0.10322608 0.0 -0.012341451000000002 -0.10240182 0.0 -0.010748644 -0.10144393 0.0 -0.0091908714 -0.10046002 0.0 -0.0076926867000000005 -0.099527299 0.0 -0.0062648444 -0.09870152199999999 0.0 -0.0049108015 -0.098021425 0.0 -0.0036230963000000002 -0.097516745 0.0 -0.0023864429 -0.097205319 0.0 -0.0011847047 -0.1151 0.0 -0.013653313 -0.11420596 0.0 -0.011885217 -0.11317494 0.0 -0.010152263 -0.11212293 0.0 -0.0084844064 -0.11113106 0.0 -0.0068992367 -0.11025566 0.0 -0.005401213199999999 -0.10953543 0.0 -0.003980191 -0.10899898 0.0 -0.0026220734999999997 -0.10866847 0.0 -0.0013012507000000001 -0.12803186 0.0 -0.015085971 -0.12706281 0.0 -0.013157421 -0.12595274 0.0 -0.011246865 -0.12482633 0.0 -0.0093960762 -0.12377058 0.0 -0.0076306751 -0.12283973 0.0 -0.0059679239 -0.12207419 0.0 -0.004395897 -0.1215023 0.0 -0.0028922642 -0.12114841 0.0 -0.0014370357000000002 -0.14208142 0.0 -0.016751161 -0.14103292 0.0 -0.014689657 -0.13983889 0.0 -0.012595317 -0.13863234 0.0 -0.010532497 -0.1375026 0.0 -0.0085534835 -0.13650845 0.0 -0.006683574100000001 -0.13568814 0.0 -0.0049191988 -0.13507414 0.0 -0.0032353981 -0.1346934 0.0 -0.0016044045000000002 -0.15726954 0.0 -0.018811755 -0.15614265 0.0 -0.016637744 -0.15486859 0.0 -0.014346204 -0.15357828 0.0 -0.012029111 -0.15236686 0.0 -0.0097766537 -0.15129675 0.0 -0.0076383957999999995 -0.15041035 0.0 -0.005619160400000001 -0.1497428 0.0 -0.0036958546999999995 -0.14932641 0.0 -0.0018340310999999999 -0.17350829 0.0 -0.021474695 -0.17232123 0.0 -0.019155731000000002 -0.17098297 0.0 -0.016644198 -0.16961488 0.0 -0.014017367 -0.16831754 0.0 -0.011420316000000002 -0.16716109 0.0 -0.0089332545 -0.16619512 0.0 -0.0065742223999999995 -0.16546305 0.0 -0.0043230885999999994 -0.16500421 0.0 -0.0021440764 -0.19046339 0.0 -0.024950173 -0.18925862 0.0 -0.022433219 -0.18789929 0.0 -0.019603303 -0.18648589 0.0 -0.016601304 -0.18511392 0.0 -0.013579019 -0.18386817 0.0 -0.010655628 -0.18281202 0.0 -0.007865387 -0.18200427 0.0 -0.0051849512 -0.18149558 0.0 -0.0025737716 -0.2074417 0.0 -0.029327651 -0.20630717 0.0 -0.026469182 -0.20498817 0.0 -0.023223344 -0.20356767 0.0 -0.019768513999999997 -0.20214869 0.0 -0.016241351 -0.20082256 0.0 -0.01279409 -0.1996713 0.0 -0.0094761252 -0.1987765 0.0 -0.0062717111 -0.19820952 0.0 -0.0031234731 -0.22350745 0.0 -0.034406748 -0.22241302 0.0 -0.031223807000000003 -0.22116047 0.0 -0.027550865 -0.21976776 0.0 -0.02357509 -0.21832953 0.0 -0.019486507 -0.21694738 0.0 -0.015437194 -0.21571785 0.0 -0.011493952 -0.21474171 0.0 -0.007638268199999999 -0.21412183 0.0 -0.0038120665000000004 -0.23768388 0.0 -0.039845128 -0.23656993 0.0 -0.036333713999999996 -0.23537064 0.0 -0.032264475 -0.23402356 0.0 -0.027831499 -0.23259793 0.0 -0.023233555 -0.23121424 0.0 -0.018610794 -0.22996537 0.0 -0.013992071000000002 -0.22895074 0.0 -0.009355239599999999 -0.22828628 0.0 -0.004690588 -0.24926062 0.0 -0.04547739 -0.24815758 0.0 -0.04146954 -0.24704258 0.0 -0.036988083 -0.24580613 0.0 -0.032204628 -0.24444276 0.0 -0.027149987999999996 -0.24305271 0.0 -0.021901594 -0.24179953 0.0 -0.016550508999999998 -0.24075352 0.0 -0.011075568000000001 -0.24007459 0.0 -0.0055475561 -0.25749591 0.0 -0.051896907 -0.25653556 0.0 -0.047007725 -0.25554979 0.0 -0.041998979000000006 -0.25444049 0.0 -0.036646094 -0.2532267 0.0 -0.03099915 -0.25193805 0.0 -0.025170695 -0.25075066 0.0 -0.01921599 -0.2497538 0.0 -0.012984903999999999 -0.24911553 0.0 -0.006527771700000001 -0.26040754 0.0 -0.062664047 -0.25968647 0.0 -0.056280172999999996 -0.25899586 0.0 -0.050432436 -0.25821239 0.0 -0.044465702 -0.25727153 0.0 -0.038220435 -0.25625163 0.0 -0.031776427999999995 -0.25533614 0.0 -0.024878426000000002 -0.25462985 0.0 -0.017298544 -0.25424695 0.0 -0.0089522004 -0.2535077 0.0 -0.08244238 -0.25362521 0.0 -0.07384681 -0.25398391 0.0 -0.065927692 -0.25442249 0.0 -0.058315869000000006 -0.25442046 0.0 -0.050735772 -0.25413173 0.0 -0.042866297000000005 -0.25379762 0.0 -0.03393377 -0.25353357 0.0 -0.023699144 -0.25344604 0.0 -0.012208926 -0.224622 0.0 -0.1136159 -0.22532147 0.0 -0.10397083 -0.2262049 0.0 -0.093615949 -0.22684696 0.0 -0.082294963 -0.22662075 0.0 -0.07054811 -0.2257238 0.0 -0.058483142 -0.22456124 0.0 -0.0456958 -0.22342815 0.0 -0.031658325 -0.22264732 0.0 -0.016276708 -0.14661768 0.0 -0.1172566 -0.14800219 0.0 -0.10833064 -0.1489944 0.0 -0.097985394 -0.14955829 0.0 -0.08633486900000001 -0.14967617 0.0 -0.074450947 -0.14940821 0.0 -0.06220812 -0.14888832 0.0 -0.04894254 -0.1483044 0.0 -0.034090061 -0.14785367 0.0 -0.017578386 -0.083765902 0.0 -0.11449623 -0.085659593 0.0 -0.10689516 -0.08725257199999999 0.0 -0.09766040699999999 -0.08849787699999999 0.0 -0.08691354800000001 -0.089358769 0.0 -0.075669155 -0.089846984 0.0 -0.063764773 -0.09002614800000001 0.0 -0.05051554 -0.09000933900000001 0.0 -0.035361294 -0.08992852300000001 0.0 -0.018287297 -0.038234018 0.0 -0.11116732 -0.039809242 0.0 -0.10447114 -0.041303761 0.0 -0.096065119 -0.042650352999999995 0.0 -0.08603200300000001 -0.043777287000000005 0.0 -0.075356245 -0.044638563 0.0 -0.06385847900000001 -0.045225453 0.0 -0.050834935 -0.045574120999999995 0.0 -0.035715055 -0.045746014 0.0 -0.01851151 -0.0007943328200000001 0.0 -0.10859541 -0.0018037052 0.0 -0.10219392 -0.0029270934999999997 0.0 -0.09414030599999999 -0.0040828101 0.0 -0.084462464 -0.0051798332 0.0 -0.074138314 -0.0061351163 0.0 -0.062981412 -0.0068896529 0.0 -0.050263483 -0.0074214539000000005 0.0 -0.035388752999999995 -0.0077327765 0.0 -0.018367803000000002 0.036496337999999996 0.0 -0.10708962 0.035774062999999995 0.0 -0.10046843 0.034882531 0.0 -0.092336327 0.033902142 0.0 -0.08267521900000001 0.032908753 0.0 -0.072475731 0.031983916 0.0 -0.061549835 0.031198652 0.0 -0.049141597 0.030604117000000004 0.0 -0.034622569 0.030234028 0.0 -0.01798016 0.076877028 0.0 -0.10613731 0.075903185 0.0 -0.099080123 0.07487320900000001 0.0 -0.090635195 0.073851898 0.0 -0.080800645 0.07286804200000001 0.0 -0.07059062299999999 0.071960971 0.0 -0.059819184000000004 0.071177855 0.0 -0.047708350999999996 0.070567533 0.0 -0.033599168 0.07017702599999999 0.0 -0.017446951999999998 0.11920837 0.0 -0.10493568 0.11748029 0.0 -0.09747278699999999 0.11593174 0.0 -0.088707194 0.11460762 0.0 -0.078695193 0.11346945 0.0 -0.06847183400000001 0.11249037 0.0 -0.057856082999999996 0.11166975 0.0 -0.046060365 0.11103361 0.0 -0.032406684 0.11062478 0.0 -0.016819773 0.16045015 0.0 -0.1027657 0.15769459 0.0 -0.095080107 0.15539637 0.0 -0.08615156300000001 0.15358169 0.0 -0.076103739 0.15214328 0.0 -0.065977782 0.15098558 0.0 -0.055599 0.15005653 0.0 -0.044185359 0.14935257 0.0 -0.031054934 0.1489045 0.0 -0.016109476 0.19768594 0.0 -0.09921619300000001 0.19390374 0.0 -0.09154450900000001 0.19081098 0.0 -0.082682148 0.18842025 0.0 -0.072808579 0.18657413 0.0 -0.062951811 0.18512759 0.0 -0.052944600999999994 0.18399511 0.0 -0.042023022 0.18315373 0.0 -0.029513982999999997 0.18262523 0.0 -0.015304446999999999 0.22661322 0.0 -0.09431812199999999 0.22102971 0.0 -0.08682610800000001 0.21644253 0.0 -0.078214586 0.21277748 0.0 -0.068715326 0.2098311 0.0 -0.059313599 0.20745845 0.0 -0.04983731 0.20561038 0.0 -0.039540462 0.20427154 0.0 -0.027765142000000003 0.20346829 0.0 -0.014396248 0.23781759 0.0 -0.08895020199999999 0.2310379 0.0 -0.08148383299999999 0.2253252 0.0 -0.073126622 0.2206229 0.0 -0.064082988 0.21678805 0.0 -0.055208825 0.21372049 0.0 -0.046309985 0.21138057 0.0 -0.03668626 0.2097391 0.0 -0.025731649 0.20876628 0.0 -0.013328995 0.24036995 0.0 -0.083630018 0.23315655 0.0 -0.076175369 0.22702666 0.0 -0.06804204700000001 0.22192444 0.0 -0.05944204 0.21776499 0.0 -0.051058251 0.21441622 0.0 -0.042684313 0.21183655 0.0 -0.033717103 0.21002397 0.0 -0.023610287999999997 0.2089576 0.0 -0.01223758 0.2401644 0.0 -0.07864473799999999 0.23267215 0.0 -0.071423605 0.2262796 0.0 -0.063521594 0.22096187 0.0 -0.055274885 0.2165854 0.0 -0.047250226 0.2130415 0.0 -0.039328851 0.21028987 0.0 -0.030949835 0.20832565 0.0 -0.021591781 0.2071507 0.0 -0.01114498 0.2387742 0.0 -0.073668756 0.23099512 0.0 -0.067059614 0.22429505 0.0 -0.05967114900000001 0.21868086 0.0 -0.051910646 0.21408165 0.0 -0.044267364000000003 0.21035793 0.0 -0.036702666 0.20741576 0.0 -0.028684951 0.20527208 0.0 -0.019871967 0.20397188 0.0 -0.010216901 0.23664178 0.0 -0.06926318299999999 0.22855614 0.0 -0.062837705 0.2215852 0.0 -0.05590494 0.21573776 0.0 -0.048652198 0.21096024 0.0 -0.041345879 0.20704406 0.0 -0.034075066 0.20391926 0.0 -0.026524054 0.20160733 0.0 -0.018327579 0.20017783 0.0 -0.0093958192 0.23408751 0.0 -0.064716108 0.22546564 0.0 -0.058851197 0.21811512 0.0 -0.0525412 0.21199098 0.0 -0.045650765 0.20698191 0.0 -0.038647685 0.20285404 0.0 -0.03163594 0.19953044 0.0 -0.024451797999999997 0.19704217 0.0 -0.016783588000000002 0.19549251 0.0 -0.0085728588 0.2311981 0.0 -0.059750084 0.22189143 0.0 -0.054664265 0.21408845 0.0 -0.049045824 0.20753154 0.0 -0.042886753 0.2021468 0.0 -0.036247361 0.19779491 0.0 -0.029415427 0.19432798 0.0 -0.02242968 0.19171174 0.0 -0.015252353 0.19006926 0.0 -0.0077356142 0.22797042 0.0 -0.054121844 0.21808802 0.0 -0.050237555 0.20956981 0.0 -0.045333266 0.20260321 0.0 -0.039919063 0.19682245 0.0 -0.033871643 0.19215882 0.0 -0.027462095 0.18847205 0.0 -0.02078815 0.18575884 0.0 -0.013950843000000001 0.18407112 0.0 -0.0070212479 0.22501346 0.0 -0.048166487 0.21414438 0.0 -0.045007952000000004 0.20506594 0.0 -0.041334092999999995 0.19743787 0.0 -0.036711626000000004 0.19126198 0.0 -0.031404469 0.18624555 0.0 -0.02543273 0.18235233 0.0 -0.01920809 0.179501 0.0 -0.012828083999999998 0.17774998 0.0 -0.0064105126 0.22252052 0.0 -0.04194748400000001 0.21063283 0.0 -0.039321885 0.20071116 0.0 -0.03659451 0.19249116 0.0 -0.033094544 0.18573214 0.0 -0.028637769 0.18036999 0.0 -0.023409207999999997 0.17621183 0.0 -0.017628506000000002 0.17324086 0.0 -0.011732168000000001 0.17142779 0.0 -0.0058207386 0.22055562 0.0 -0.035830632 0.20779359 0.0 -0.033581982999999996 0.19689542 0.0 -0.031253826 0.18794699 0.0 -0.028758671 0.18063815 0.0 -0.025403877999999998 0.17478268 0.0 -0.021048667000000004 0.17036927 0.0 -0.016032275 0.16722776 0.0 -0.010632982 0.16537419 0.0 -0.0052546421 0.21922845 0.0 -0.030501143999999997 0.20573606 0.0 -0.028182607000000002 0.19389232 0.0 -0.026020886 0.18409759 0.0 -0.023824392000000003 0.17615415 0.0 -0.021446242999999997 0.16985199 0.0 -0.018252693 0.16504037 0.0 -0.014074553 0.16174166 0.0 -0.0094522089 0.15982004 0.0 -0.0046775341 0.21915923 0.0 -0.026843977999999998 0.2047334 0.0 -0.023994968999999998 0.19183041 0.0 -0.02141336 0.18115368 0.0 -0.019194143 0.17247902 0.0 -0.017055083000000002 0.16565256 0.0 -0.014755431999999999 0.16057061 0.0 -0.011774305 0.15700358 0.0 -0.0079818722 0.15497813 0.0 -0.0040017129 0.22004305 0.0 -0.024907872 0.20575623 0.0 -0.022107317999999997 0.19113742 0.0 -0.018505103999999998 0.17920937 0.0 -0.015547543999999998 0.16970503 0.0 -0.01314438 0.16241571 0.0 -0.011063646000000002 0.15691932 0.0 -0.0089261672 0.15313192 0.0 -0.0062732617 0.15101112 0.0 -0.0031932453000000005 0.2193132 0.0 -0.023962969 0.20692655 0.0 -0.021193572999999997 0.19303454 0.0 -0.01818699 0.17936456 0.0 -0.014328728999999998 0.16822743 0.0 -0.01082763 0.16009718 0.0 -0.0081991898 0.15421957 0.0 -0.006238446999999999 0.15019347 0.0 -0.0044247122 0.1477817 0.0 -0.0022994496 0.21408814 0.0 -0.022361556 0.2044737 0.0 -0.019630131999999998 0.1935644 0.0 -0.017624417 0.18149209 0.0 -0.014985306 0.16967285 0.0 -0.011605891 0.15985391 0.0 -0.007938038599999999 0.15279862 0.0 -0.0049977968 0.14825064 0.0 -0.003103947 0.14562489 0.0 -0.0016888344 0.19751251 0.0 -0.017411551 0.18933596 0.0 -0.015450562 0.17950474 0.0 -0.013247678999999998 0.17007256 0.0 -0.011651061 0.16105777 0.0 -0.0093500474 0.15381438 0.0 -0.0069032279 0.14817925 0.0 -0.0042608464000000006 0.14474386 0.0 -0.0020683159 0.17326082 0.0 -0.010653973999999998 0.16560096 0.0 -0.009239694100000001 0.1578081 0.0 -0.007415155400000001 0.15135004 0.0 -0.0059981094999999995 0.14600238 0.0 -0.0042761932 0.14240272 0.0 -0.0021689269 0.15165226 0.0 -0.0051200627000000005 0.14598791 0.0 -0.0034323165 0.14109112 0.0 -0.0020339859 0.13773747 0.0 -0.0007848438099999999 -0.0025167125 0.0 -1.0143246e-10 -0.0025184336 0.0 1.0017658e-05 -0.0025231764 0.0 2.1888312e-05 -0.0025298053 0.0 3.7050958999999996e-05 -0.0025361310999999997 0.0 5.7610370000000005e-05 -0.0025392368 0.0 8.4122446e-05 -0.0025345902 0.0 0.00011867379 -0.0025168667000000002 0.0 0.00016118951 -0.0035325324 0.0 9.5301586e-11 -0.0035354057 0.0 1.4623086e-05 -0.0035434561 0.0 3.1488969000000005e-05 -0.0035550951 0.0 5.266727e-05 -0.0035673943 0.0 8.044287099999999e-05 -0.0035762154 0.0 0.00011627081 -0.0035755092 0.0 0.00016170042 -0.0035571773 0.0 0.00021878843999999998 -0.004819114199999999 0.0 -2.1164109e-10 -0.0048234924 0.0 1.7904029e-05 -0.0048359237 0.0 3.8154034e-05 -0.0048542046 0.0 6.3584921e-05 -0.0048746015 0.0 9.596777799999999e-05 -0.0048912428 0.0 0.0001379079 -0.0048965658000000006 0.0 0.00019012534 -0.0048795771 0.0 0.00025489886 -0.0062672482 0.0 -8.2735846e-10 -0.0062734378 0.0 1.9276296e-05 -0.0062911072999999994 0.0 4.112849599999999e-05 -0.006317494 0.0 6.826473e-05 -0.0063478164 0.0 0.00010284871 -0.0063748484999999995 0.0 0.00014713728 -0.0063887201 0.0 0.00020296406000000003 -0.0063757948 0.0 0.00027072817000000005 -0.0078294063 0.0 -2.921941e-10 -0.007837693199999999 0.0 1.9230447e-05 -0.0078614578 0.0 4.1062904e-05 -0.0078974059 0.0 6.806528100000001e-05 -0.0079397466 0.0 0.00010283863000000001 -0.0079799136 0.0 0.00014696 -0.008005719599999999 0.0 0.00020307522 -0.008000979200000001 0.0 0.00027036844 -0.0095085269 0.0 -2.780195e-10 -0.0095192296 0.0 1.8763161e-05 -0.0095500732 0.0 3.9961473e-05 -0.0095972205 0.0 6.617896e-05 -0.0096540162 0.0 9.9649653e-05 -0.0097104954 0.0 0.00014260723 -0.0097526312 0.0 0.00019651886999999998 -0.0097612236 0.0 0.00026203485 -0.011342379 0.0 -4.0034628e-10 -0.011355878 0.0 1.9392863e-05 -0.011394953000000001 0.0 4.1085892000000004e-05 -0.01145527 0.0 6.7317385e-05 -0.011529345 0.0 0.00010033584999999999 -0.011605956 0.0 0.00014229941000000002 -0.011669278 0.0 0.00019405391 -0.011697335 0.0 0.00025731866 -0.013380267 0.0 1.4845604e-09 -0.013397013000000001 0.0 2.3161949e-05 -0.013445677 0.0 4.8406702e-05 -0.013521462 0.0 7.7787852e-05 -0.013616068 0.0 0.0001133255 -0.013717113999999999 0.0 0.00015669093000000002 -0.013807016 0.0 0.00020892215 -0.013861311999999999 0.0 0.00027037493 -0.015664008 0.0 -2.1974487e-09 -0.015684508 0.0 3.2343189e-05 -0.015744297 0.0 6.656623e-05 -0.015838098000000002 0.0 0.00010457349 -0.015956828 0.0 0.0001481846 -0.016086923 0.0 0.00019870905 -0.016209064 0.0 0.00025664055 -0.016296281 0.0 0.00032068547000000004 -0.01822404 0.0 -1.1180099e-10 -0.01824886 0.0 4.9292204e-05 -0.018321412 0.0 0.00010041822 -0.018435953 0.0 0.00015519145000000002 -0.018582575 0.0 0.00021519022999999998 -0.018746419 0.0 0.00028172976000000004 -0.01890636 0.0 0.00035408567 -0.019032756 0.0 0.00042992234000000006 -0.021091442999999998 0.0 -1.8094646e-09 -0.021121131 0.0 7.6263379e-05 -0.02120816 0.0 0.00015445326999999998 -0.021346245 0.0 0.00023653339 -0.021524533999999998 0.0 0.00032434106 -0.02172677 0.0 0.00041855089 -0.021929679 0.0 0.00051824586 -0.022100888 0.0 0.0006196915599999999 -0.024303915 0.0 -3.2776672e-09 -0.024339052000000003 0.0 0.0001152883 -0.024442282000000003 0.0 0.00023260521000000001 -0.02460671 0.0 0.00035452845999999996 -0.024820413 0.0 0.0004830753 -0.025065431000000003 0.0 0.0006195460400000001 -0.025315918 0.0 0.00076304621 -0.025537112999999997 0.0 0.00090529112 -0.027905302000000003 0.0 -1.96518e-09 -0.027946455 0.0 0.00016714535 -0.028067425 0.0 0.00033744751 -0.028260768999999998 0.0 0.0005138998999999999 -0.028513287999999998 0.0 0.00069870759 -0.028805182999999998 0.0 0.00089204841 -0.029108247 0.0 0.0010920247999999999 -0.029383553 0.0 0.0012952812 -0.031942952000000004 0.0 -1.1770603e-09 -0.031990542999999996 0.0 0.00023382554 -0.032130636000000004 0.0 0.00047123467000000004 -0.032355241 0.0 0.0007150935700000001 -0.032649789 0.0 0.00096949149 -0.032992423 0.0 0.0012360545 -0.033351939 0.0 0.0015118769 -0.033686943 0.0 0.0017936403 -0.036468189 0.0 1.0521127e-11 -0.036522526 0.0 0.00031366394 -0.036682788 0.0 0.0006312931700000001 -0.036940202000000005 0.0 0.0009580582300000001 -0.037278987 0.0 0.0012973341 -0.0376755 0.0 0.0016513788 -0.038095962000000004 0.0 0.0020220969 -0.038497809 0.0 0.0023976464 -0.041533243 0.0 -3.3006894e-10 -0.041594531000000004 0.0 0.00040600551 -0.041775439 0.0 0.00081707351 -0.042066514000000006 0.0 0.0012389646000000002 -0.042451259000000005 0.0 0.0016760571 -0.042904261 0.0 0.002133019 -0.04339017 0.0 0.0026100178 -0.043864407 0.0 0.0030983203999999996 -0.047195729000000006 0.0 -5.8448557e-09 -0.047263928 0.0 0.00051008188 -0.047465414000000004 0.0 0.0010260502 -0.047790322 0.0 0.0015543664 -0.048221331 0.0 0.0020999881 -0.048731870999999996 0.0 0.0026689867999999998 -0.04928666 0.0 0.0032599831 -0.04983788 0.0 0.0038750598 -0.053516924 0.0 1.2758722e-09 -0.053591974 0.0 0.0006218481599999999 -0.053813644 0.0 0.0012510694 -0.054171722 0.0 0.0018942244 -0.054648239 0.0 0.0025578425 -0.055216957000000004 0.0 0.0032458073 -0.055840373 0.0 0.0039618807 -0.056470547 0.0 0.0047082375 -0.060560912 0.0 -3.7611989e-09 -0.060642457999999996 0.0 0.00073779636 -0.060883544000000005 0.0 0.0014844959 -0.061273545 0.0 0.0022476551 -0.061793886 0.0 0.0030353237 -0.062418642999999996 0.0 0.0038494032 -0.06311015 0.0 0.0046987301 -0.063818417 0.0 0.0055838386 -0.068389535 0.0 -2.1373128e-09 -0.068477355 0.0 0.0008541196000000001 -0.068737023 0.0 0.0017189929 -0.06915679599999999 0.0 0.0026022941 -0.06971883 0.0 0.0035134107 -0.070397921 0.0 0.0044615529 -0.07115458 0.0 0.0054526576 -0.071937248 0.0 0.0064814151 -0.077058509 0.0 -1.2276117e-09 -0.077152275 0.0 0.0009679662199999999 -0.077428818 0.0 0.0019454376000000002 -0.077877127 0.0 0.0029474595 -0.078480057 0.0 0.0039851354 -0.07920923099999999 0.0 0.0050682896 -0.08002698400000001 0.0 0.0062016881999999995 -0.080879837 0.0 0.0073826023999999995 -0.086614825 0.0 -1.6370257e-09 -0.08671377599999999 0.0 0.0010759810000000002 -0.087007761 0.0 0.0021658363 -0.087483987 0.0 0.0032850855 -0.08812557900000001 0.0 0.0044477829 -0.088903494 0.0 0.0056657256 -0.08977907199999999 0.0 0.0069446838 -0.09069764599999999 0.0 0.008281363199999999 -0.097100399 0.0 -1.8992294e-09 -0.097205326 0.0 0.0011847033 -0.09751675300000001 0.0 0.0023864454 -0.09802140300000001 0.0 0.0036231009 -0.09870153699999999 0.0 0.0049108048 -0.099527314 0.0 0.006264848199999999 -0.10046002 0.0 0.0076926886 -0.10144393 0.0 0.0091908704 -0.10855726 0.0 2.7930183e-09 -0.10866847 0.0 0.0013012466 -0.10899897 0.0 0.0026220751000000002 -0.10953543 0.0 0.0039801947 -0.11025567 0.0 0.0054012164000000005 -0.11113107 0.0 0.006899238100000001 -0.11212292 0.0 0.0084844064 -0.11317494 0.0 0.010152263 -0.12102957 0.0 1.657591e-09 -0.12114841 0.0 0.0014370310999999999 -0.12150232 0.0 0.0028922688 -0.12207421 0.0 0.004395898 -0.12283976 0.0 0.0059679262 -0.12377059 0.0 0.0076306779000000005 -0.12482634 0.0 0.009396079 -0.12595275 0.0 0.011246878 -0.13456316 0.0 -3.580453e-09 -0.1346934 0.0 0.0016044032999999998 -0.13507418 0.0 0.0032353983 -0.13568814 0.0 0.0049191993 -0.13650846 0.0 0.0066835759 -0.13750261 0.0 0.0085534863 -0.13863239 0.0 0.010532501000000001 -0.13983892 0.0 0.012595311000000001 -0.14918508 0.0 2.9549241e-09 -0.1493264 0.0 0.0018340264999999998 -0.1497428 0.0 0.0036958571999999995 -0.15041034 0.0 0.0056191622 -0.15129673 0.0 0.0076383972 -0.15236686 0.0 0.0097766565 -0.1535783 0.0 0.012029109 -0.15486859 0.0 0.014346201999999999 -0.16484763 0.0 4.0881409e-09 -0.16500419 0.0 0.0021440734 -0.16546303 0.0 0.004323090900000001 -0.16619511 0.0 0.006574223299999999 -0.16716106 0.0 0.0089332573 -0.16831754 0.0 0.011420317 -0.16961488 0.0 0.014017362 -0.17098296 0.0 0.016644197 -0.18132141 0.0 2.9520877e-09 -0.18149562 0.0 0.0025737786 -0.18200424 0.0 0.005184955 -0.18281202 0.0 0.0078653926 -0.18386814 0.0 0.010655629 -0.18511395 0.0 0.01357902 -0.18648593 0.0 0.016601302 -0.18789935 0.0 0.019603305 -0.1980135 0.0 8.225866099999999e-10 -0.19820951 0.0 0.0031234752 -0.19877647 0.0 0.006271714300000001 -0.19967131 0.0 0.0094761299 -0.20082259 0.0 0.012794092 -0.20214872 0.0 0.016241351 -0.20356767 0.0 0.019768513999999997 -0.20498815 0.0 0.023223339 -0.21390517 0.0 1.2027652e-09 -0.21412185 0.0 0.0038120707 -0.21474168 0.0 0.0076382724 -0.21571787 0.0 0.011493953999999999 -0.21694739 0.0 0.015437194 -0.21832955 0.0 0.019486506 -0.21976778 0.0 0.023575093999999998 -0.22116049 0.0 0.027550865 -0.22805563 0.0 1.1543755e-09 -0.22828625 0.0 0.0046905926 -0.22895072 0.0 0.0093552433 -0.22996536 0.0 0.013992073 -0.23121423 0.0 0.018610792 -0.23259793 0.0 0.023233552999999997 -0.23402357 0.0 0.027831502 -0.23537064 0.0 0.032264482000000004 -0.2398594 0.0 7.3606605e-09 -0.24007459 0.0 0.0055475603000000005 -0.24075358 0.0 0.011075578999999999 -0.24179952 0.0 0.016550511 -0.24305269 0.0 0.0219016 -0.24444279 0.0 0.027149986 -0.24580616 0.0 0.032204632000000004 -0.24704263 0.0 0.036988098 -0.24891612 0.0 -7.8870537e-09 -0.24911556 0.0 0.0065277866 -0.24975383 0.0 0.012984916 -0.25075069 0.0 0.019215998999999997 -0.25193805 0.0 0.025170697000000002 -0.25322673 0.0 0.030999156 -0.25444049 0.0 0.036646108999999996 -0.25554979 0.0 0.041998985999999995 -0.25411627 0.0 4.5615911e-09 -0.25424698 0.0 0.0089522097 -0.25462985 0.0 0.017298557 -0.25533611 0.0 0.024878437000000003 -0.25625166 0.0 0.031776432 -0.25727156 0.0 0.038220443 -0.25821239 0.0 0.044465698 -0.25899589 0.0 0.050432432 -0.25348753 0.0 4.7780535e-09 -0.25344601 0.0 0.01220892 -0.2535336 0.0 0.023699129 -0.25379759 0.0 0.033933785 -0.25413179 0.0 0.042866305 -0.25442049 0.0 0.050735757 -0.25442249 0.0 0.058315892 -0.25398391 0.0 0.065927699 -0.22236797 0.0 -7.7341396e-09 -0.22264723 0.0 0.016276699 -0.2234282 0.0 0.03165834 -0.22456135 0.0 0.045695763 -0.22572383 0.0 0.05848315 -0.22662069 0.0 0.07054811700000001 -0.22684699 0.0 0.082294993 -0.22620493 0.0 0.09361589699999999 -0.14768502 0.0 5.2416951e-09 -0.1478537 0.0 0.017578343 -0.14830436 0.0 0.034090072 -0.14888829 0.0 0.04894254 -0.14940824 0.0 0.06220812 -0.14967608 0.0 0.074450925 -0.14955828 0.0 0.086334892 -0.14899445 0.0 0.09798540900000001 -0.08988850599999999 0.0 2.6001697e-08 -0.08992858199999999 0.0 0.018287348000000002 -0.090009354 0.0 0.03536129 -0.090026096 0.0 0.05051553599999999 -0.08984692400000001 0.0 0.063764758 -0.089358807 0.0 0.075669155 -0.088497914 0.0 0.08691351900000001 -0.08725258 0.0 0.0976604 -0.045796048 0.0 -1.677342e-08 -0.045746025 0.0 0.018511493 -0.045574084 0.0 0.035715044 -0.04522546400000001 0.0 0.050834917 -0.044638522 0.0 0.063858472 -0.043777320999999994 0.0 0.075356208 -0.042650383 0.0 0.086032026 -0.041303821 0.0 0.09606509699999999 -0.0078348238 0.0 -4.5096979000000007e-08 -0.0077326931 0.0 0.018367801 -0.0074214255 0.0 0.035388745 -0.0068896808999999995 0.0 0.050263468 -0.0061350674 0.0 0.062981427 -0.0051798187 0.0 0.074138299 -0.0040827715 0.0 0.084462464 -0.0029271103000000002 0.0 0.09414029900000001 0.030108485 0.0 4.9444377e-09 0.030234046 0.0 0.017980108 0.030604165 0.0 0.034622565 0.031198622999999998 0.0 0.049141612 0.031983927 0.0 0.061549775 0.03290879 0.0 0.072475746 0.033902105 0.0 0.082675159 0.034882567999999996 0.0 0.09233631199999999 0.070042372 0.0 3.7915736e-08 0.07017704799999999 0.0 0.017446951999999998 0.070567481 0.0 0.033599168 0.071177803 0.0 0.047708336 0.071960963 0.0 0.059819181 0.072867982 0.0 0.0705906 0.07385201799999999 0.0 0.08080063 0.074873231 0.0 0.090635285 0.11048296 0.0 3.4856686000000005e-08 0.11062472 0.0 0.01681976 0.11103363 0.0 0.032406695 0.11166978 0.0 0.046060360999999994 0.11249045 0.0 0.057856072 0.11346949 0.0 0.068471827 0.11460771 0.0 0.078695178 0.1159318 0.0 0.08870720900000001 0.14874972 0.0 -1.2243058e-08 0.14890453 0.0 0.016109476 0.14935257 0.0 0.03105491 0.1500565 0.0 0.044185344 0.15098561 0.0 0.055598993 0.15214334 0.0 0.065977797 0.15358172 0.0 0.07610375400000001 0.15539648 0.0 0.0861516 0.18244386 0.0 -6.1361147e-09 0.18262517 0.0 0.015304481000000002 0.18315372 0.0 0.029514027999999998 0.18399517 0.0 0.04202304 0.18512763 0.0 0.05294458900000001 0.18657407 0.0 0.06295181799999999 0.18842021 0.0 0.072808594 0.19081099 0.0 0.08268217 0.20319739 0.0 5.1713398e-09 0.20346829 0.0 0.014396285 0.20427151 0.0 0.027765131000000002 0.20561033 0.0 0.039540473 0.20745844 0.0 0.049837284 0.2098311 0.0 0.059313595 0.21277753 0.0 0.06871537900000001 0.21644248 0.0 0.078214645 0.20844355 0.0 3.1635171e-08 0.20876627 0.0 0.013329021000000002 0.20973907 0.0 0.025731659 0.21138059 0.0 0.036686268 0.21372049 0.0 0.046310008 0.21678804 0.0 0.055208825 0.22062287 0.0 0.06408295 0.2253252 0.0 0.073126644 0.20859684 0.0 1.432089e-08 0.20895755 0.0 0.012237613 0.21002391 0.0 0.023610298999999998 0.21183649 0.0 0.033717088 0.21441616 0.0 0.042684313 0.21776496 0.0 0.051058277 0.22192439 0.0 0.059442028 0.22702669 0.0 0.068042062 0.20675814 0.0 -7.0863311e-09 0.20715065 0.0 0.011144956999999999 0.20832568 0.0 0.021591801 0.21028985 0.0 0.030949837999999997 0.21304148 0.0 0.039328858 0.2165854 0.0 0.047250226 0.22096185 0.0 0.055274881 0.22627959 0.0 0.063521594 0.20353641 0.0 4.9482596e-09 0.20397186 0.0 0.010216911 0.20527203 0.0 0.019871973 0.20741577 0.0 0.028684957 0.21035793 0.0 0.03670267 0.21408163 0.0 0.044267379 0.21868083 0.0 0.051910643 0.22429505 0.0 0.059671155999999996 0.1996934 0.0 5.1150022e-09 0.20017782 0.0 0.0093958229 0.20160733 0.0 0.018327563999999998 0.20391928 0.0 0.026524058 0.20704408 0.0 0.034075077999999995 0.21096021 0.0 0.041345872 0.2157377 0.0 0.048652198 0.22158521 0.0 0.055904947 0.19496778 0.0 2.9863572e-09 0.19549249 0.0 0.008572874599999999 0.19704215 0.0 0.016783576 0.19953042 0.0 0.0244518 0.20285405 0.0 0.031635951 0.2069819 0.0 0.038647681 0.21199103 0.0 0.045650765 0.21811514 0.0 0.052541181 0.1895096 0.0 1.0884301e-08 0.1900693 0.0 0.0077356160999999994 0.19171172 0.0 0.015252351 0.19432798 0.0 0.022429678999999998 0.19779493 0.0 0.029415429 0.20214683 0.0 0.036247369 0.20753157 0.0 0.042886756 0.21408847 0.0 0.04904582 0.18348727 0.0 6.8746289e-09 0.18407112 0.0 0.0070212497 0.18575884 0.0 0.013950855 0.18847199 0.0 0.020788146 0.1921588 0.0 0.027462099 0.19682243 0.0 0.033871643 0.20260322 0.0 0.039919056 0.20956981 0.0 0.045333259 0.17715827 0.0 2.2241458e-09 0.17775002 0.0 0.0064105201 0.179501 0.0 0.012828087 0.18235232 0.0 0.019208088999999998 0.18624553 0.0 0.025432726 0.19126193 0.0 0.031404472999999995 0.1974379 0.0 0.036711633 0.20506598 0.0 0.041334089 0.17082858 0.0 -2.1439436e-10 0.17142779 0.0 0.005820745600000001 0.17324089 0.0 0.011732166 0.17621182 0.0 0.01762851 0.18036996 0.0 0.023409206000000002 0.18573216 0.0 0.028637762999999997 0.19249117 0.0 0.033094548 0.20071116 0.0 0.03659451 0.16478409 0.0 2.4016489e-09 0.16537416 0.0 0.0052546449 0.16722776 0.0 0.010632988000000001 0.17036925 0.0 0.016032279 0.17478266 0.0 0.021048667000000004 0.18063815 0.0 0.025403877999999998 0.18794703 0.0 0.028758673 0.19689544 0.0 0.031253837 0.15921612 0.0 2.8140941e-09 0.15982002 0.0 0.0046775374 0.16174166 0.0 0.0094522107 0.16504039 0.0 0.014074551000000001 0.16985202 0.0 0.018252693 0.17615412 0.0 0.021446245 0.18409757 0.0 0.023824394 0.19389232 0.0 0.026020892 0.15435073 0.0 2.3429707e-09 0.15497811 0.0 0.0040017245000000005 0.15700355 0.0 0.0079818778 0.16057059 0.0 0.011774312 0.16565257 0.0 0.014755436 0.172479 0.0 0.017055079 0.18115368 0.0 0.019194143 0.19183041 0.0 0.021413368999999998 0.15026473 0.0 3.694727e-09 0.15101112 0.0 0.0031932557 0.15313192 0.0 0.006273276600000001 0.15691927 0.0 0.008926164399999999 0.16241567 0.0 0.011063658 0.16970503 0.0 0.013144389 0.17920938 0.0 0.015547557 0.19113742 0.0 0.018505103999999998 0.14699832 0.0 7.1996813e-09 0.14778171 0.0 0.002299461 0.15019347 0.0 0.0044247246999999995 0.15421955 0.0 0.0062384508 0.16009718 0.0 0.0081992019 0.16822742 0.0 0.010827628 0.17936455 0.0 0.014328735 0.19303453 0.0 0.01818699 0.14463051 0.0 9.5963397e-09 0.14562489 0.0 0.0016888469 0.14825064 0.0 0.003103955 0.15279867 0.0 0.0049977358 0.15985388 0.0 0.0079380414 0.16967282 0.0 0.011605892 0.18149211 0.0 0.014985314 0.19356439 0.0 0.017624417 0.14340964 0.0 5.6763989e-09 0.14474386 0.0 0.002068318 0.14817926 0.0 0.0042608487 0.15381438 0.0 0.00690322 0.16105776 0.0 0.0093500298 0.17007253 0.0 0.011651048999999998 0.17950472 0.0 0.013247662 0.18933596 0.0 0.015450561000000002 0.14103353 0.0 5.9850769e-09 0.14240274 0.0 0.0021689376 0.14600238 0.0 0.0042761895 0.15135001 0.0 0.0059980936 0.1578081 0.0 0.0074151442 0.16560094 0.0 0.0092396783 0.17326081 0.0 0.010653965 0.1366618 0.0 6.5113794e-09 0.13773745 0.0 0.0007848452700000001 0.14109111 0.0 0.0020339815 0.14598793 0.0 0.0034323034000000004 0.15165225 0.0 0.0051200455 -0.0024789932999999998 0.0 0.00021216302000000002 -0.0024124081 0.0 0.00027306136000000003 -0.0023095834 0.0 0.00033831928 -0.0021601566 0.0 0.00040697487 -0.0019571297 0.0 0.00047033687999999997 -0.0016976771 0.0 0.000519116 -0.0013914353 0.0 0.0005383163200000001 -0.0035123064000000003 0.0 0.00028493813999999997 -0.0034270647 0.0 0.00036324904 -0.003287758 0.0 0.00044912260000000003 -0.0030792626 0.0 0.0005337067400000001 -0.0027869234000000003 0.0 0.00060473423 -0.0024000863 0.0 0.00065007224 -0.0019220962 0.0 0.00065506279 -0.0013644867999999999 0.0 0.0007044784700000001 -0.0048271320000000005 0.0 0.00033088255 -0.0047215857 0.0 0.00041745606 -0.0045417096 0.0 0.00051021733 -0.0042625037 0.0 0.0006013168 -0.0038638634 0.0 0.0006718138499999999 -0.0033271047 0.0 0.0007203407000000001 -0.002666059 0.0 0.0007357159599999999 -0.0018975122 0.0 0.00076944754 -0.006318392700000001 0.0 0.00035146301 -0.006195005999999999 0.0 0.0004408462 -0.0059756357 0.0 0.0005376533999999999 -0.0056262789 0.0 0.00063145906 -0.0051173596 0.0 0.0007037343499999999 -0.0044272994 0.0 0.00075131864 -0.0035695382 0.0 0.00076544535 -0.0025545424 0.0 0.00081009557 -0.007943809 0.0 0.00035141333 -0.0078079583999999995 0.0 0.00044119555999999995 -0.0075558890000000005 0.0 0.0005376590400000001 -0.0071427873 0.0 0.0006318420099999999 -0.0065291165 0.0 0.0007030041900000001 -0.0056846645 0.0 0.00075090956 -0.0046171336 0.0 0.00076972478 -0.003327159 0.0 0.00084772159 -0.0097110579 0.0 0.00033963248 -0.009569905699999999 0.0 0.00042724123 -0.009293996700000001 0.0 0.0005187323500000001 -0.0088257622 0.0 0.00060984405 -0.0081154648 0.0 0.00067602668 -0.0071179261 0.0 0.00072604656 -0.0058311475 0.0 0.0007598513000000001 -0.0042365906 0.0 0.0008963037400000001 -0.011661458999999999 0.0 0.00032994669 -0.011523421 0.0 0.00041209138 -0.011232393 0.0 0.0004940926400000001 -0.010717928 0.0 0.00057703949 -0.0099173123 0.0 0.0006364363900000001 -0.008767795699999999 0.0 0.00069203181 -0.0072535546 0.0 0.00075519754 -0.0053214561 0.0 0.0009792339999999998 -0.013847425 0.0 0.00033870743999999997 -0.01372151 0.0 0.00041349372 -0.013424126000000002 0.0 0.00048436407999999994 -0.012870831999999999 0.0 0.00055748428 -0.011986432 0.0 0.0006057118299999999 -0.010679918 0.0 0.00067939656 -0.0089345938 0.0 0.0007836844900000001 -0.006636301999999999 0.0 0.0011240242 -0.016312214 0.0 0.00038780394 -0.016207766000000002 0.0 0.0004566727099999999 -0.015913181000000002 0.0 0.0005204858000000001 -0.015330362 0.0 0.00058318989 -0.014361783000000001 0.0 0.00062631193 -0.012898627 0.0 0.00071724429 -0.010925696 0.0 0.00085787784 -0.0082742758 0.0 0.0012967631 -0.019085733 0.0 0.00050467992 -0.019011883 0.0 0.0005758602099999999 -0.018732022 0.0 0.00063714979 -0.018130958 0.0 0.00068997603 -0.017078833999999998 0.0 0.0007280233 -0.015476331000000001 0.0 0.00080400653 -0.013295417 0.0 0.0009455069699999998 -0.010407796 0.0 0.0013372723000000001 -0.022197491 0.0 0.00071581255 -0.022162445 0.0 0.00080170808 -0.021909362 0.0 0.0008674079400000001 -0.021303501000000002 0.0 0.0009106395300000001 -0.020195074 0.0 0.00091419276 -0.018480295 0.0 0.0009333228800000001 -0.016157961999999998 0.0 0.0010218650999999999 -0.013193748 0.0 0.0012223281 -0.025683239 0.0 0.001038033 -0.025692925 0.0 0.0011587811999999999 -0.025478523 0.0 0.0012390295 -0.024892781 0.0 0.00127076 -0.023757787000000002 0.0 0.0012563208999999999 -0.021954859 0.0 0.0012687113 -0.019549495 0.0 0.0013936723999999998 -0.01634077 0.0 0.0018264593 -0.029583555 0.0 0.0014872461999999999 -0.029646732000000002 0.0 0.0016555920000000002 -0.02947888 0.0 0.0017981748 -0.028941037000000003 0.0 0.0018848891 -0.027836261 0.0 0.0019830533 -0.026007922000000003 0.0 0.0022990704 -0.023530345 0.0 0.0030975526 -0.020129932 0.0 0.0045647202000000005 -0.033948257999999995 0.0 0.002063035 -0.034071203 0.0 0.0023285976999999998 -0.033967461000000004 0.0 0.0025948160000000002 -0.03350646 0.0 0.0028489793 -0.032510575 0.0 0.0031978996000000003 -0.030797433 0.0 0.0039571198 -0.028368578999999998 0.0 0.0053679976 -0.025095927999999997 0.0 0.0070788907 -0.038826697 0.0 0.0027781089 -0.039019499 0.0 0.0031711098 -0.038996179 0.0 0.0035932953000000004 -0.03863271 0.0 0.0040880446 -0.037781611 0.0 0.0047197398 -0.036267366 0.0 0.0057629552 -0.034053344 0.0 0.007295087 -0.031058554 0.0 0.0088420287 -0.044269785 0.0 0.0036086765999999997 -0.044543099 0.0 0.0041530984 -0.044602512999999996 0.0 0.004747432199999999 -0.04433953400000001 0.0 0.0054421904000000005 -0.043605424000000004 0.0 0.0063081454 -0.042262968 0.0 0.0074695451 -0.0402552 0.0 0.0089215878 -0.037544932 0.0 0.010317955 -0.050326638 0.0 0.0045242766 -0.050685219000000004 0.0 0.0052212635 -0.050827682 0.0 0.0059830924 -0.050644517 0.0 0.0068311403 -0.049975693 0.0 0.0078380946 -0.048710647999999995 0.0 0.0090332441 -0.046803322 0.0 0.01040684 -0.044253517 0.0 0.011737069 -0.057045865999999994 0.0 0.00549543 -0.057492334000000006 0.0 0.00634155 -0.057713952 0.0 0.0072509572 -0.057588987 0.0 0.008216268399999999 -0.056939408 0.0 0.0093059232 -0.055660765999999993 0.0 0.010514563000000001 -0.053704102000000004 0.0 0.011878525 -0.051100007999999995 0.0 0.013213296999999999 -0.064478286 0.0 0.0065113435999999995 -0.065010905 0.0 0.0074914438 -0.065308481 0.0 0.0085256072 -0.06522758299999999 0.0 0.0096003441 -0.064576857 0.0 0.010751331000000001 -0.063227162 0.0 0.01198224 -0.06111749599999999 0.0 0.013393901000000001 -0.058279502999999996 0.0 0.01478161 -0.07267733700000001 0.0 0.0075522698 -0.073290706 0.0 0.0086682308 -0.073656268 0.0 0.0098224198 -0.073611692 0.0 0.011001459 -0.072950847 0.0 0.012217283999999998 -0.071507476 0.0 0.013486379 -0.069203705 0.0 0.014970967 -0.066059887 0.0 0.01645302 -0.081695169 0.0 0.008606107 -0.082382992 0.0 0.0098662786 -0.082809627 0.0 0.011153165 -0.08279226 0.0 0.012444232 -0.082109317 0.0 0.013738743999999999 -0.080558449 0.0 0.015063056000000002 -0.07804349099999999 0.0 0.016632054 -0.074571207 0.0 0.018230681999999998 -0.091585197 0.0 0.0096682301 -0.09234193 0.0 0.011087952 -0.09282284199999999 0.0 0.012523985 -0.09282390800000001 0.0 0.013947043999999999 -0.092105307 0.0 0.015340912 -0.090433449 0.0 0.016741157 -0.087691449 0.0 0.018399583 -0.08386492 0.0 0.020132888 -0.10240185 0.0 0.010748638000000001 -0.10322609 0.0 0.01234144 -0.10375686 0.0 0.013940323000000001 -0.103769 0.0 0.015513101000000001 -0.10300133 0.0 0.017030444 -0.10119421 0.0 0.018539876 -0.09821043900000001 0.0 0.020298446 -0.09400603199999999 0.0 0.022172587 -0.11420596 0.0 0.011885212 -0.1151 0.0 0.013653311000000001 -0.11568079 0.0 0.015413718 -0.11570054 0.0 0.017138403 -0.11487564 0.0 0.018797716000000003 -0.1129206 0.0 0.020465227 -0.10968401 0.0 0.022358742 -0.10507996 0.0 0.024381895 -0.12706281 0.0 0.013157424 -0.12803188 0.0 0.015085968 -0.12866816 0.0 0.016982288999999998 -0.12869991 0.0 0.01883259 -0.12782185 0.0 0.020627614 -0.12571774 0.0 0.022509025 -0.12223239 0.0 0.024611677999999998 -0.11722814 0.0 0.026803859 -0.14103293 0.0 0.014689647 -0.14208144 0.0 0.016751157 -0.14278252 0.0 0.018733948 -0.14284424 0.0 0.020655185 -0.14193843 0.0 0.022533109 -0.13971227 0.0 0.024663793 -0.13602318 0.0 0.02709293 -0.13068515 0.0 0.029492095 -0.15614264 0.0 0.016637735 -0.15726952 0.0 0.018811753 -0.15804479 0.0 0.020829543 -0.15817152 0.0 0.022743048 -0.15728532 0.0 0.024602898999999998 -0.15501517 0.0 0.026963482 -0.15124708 0.0 0.029859312000000002 -0.1457814 0.0 0.032521613 -0.17232125 0.0 0.019155743 -0.17350826 0.0 0.021474697 -0.17435575 0.0 0.023525908999999998 -0.17457043 0.0 0.025348201 -0.17378405 0.0 0.027038269 -0.1716112 0.0 0.029523973999999998 -0.16800664 0.0 0.033015102000000005 -0.16282175 0.0 0.03600499 -0.18925862 0.0 0.022433219 -0.19046338 0.0 0.024950168999999998 -0.19135544 0.0 0.027078003 -0.19164854 0.0 0.028829807000000002 -0.19103155 0.0 0.030220056000000002 -0.18918635 0.0 0.032616377 -0.18608363 0.0 0.036761429 -0.18177521 0.0 0.040128528999999996 -0.20630719 0.0 0.026469184 -0.20744172 0.0 0.029327651 -0.20827486 0.0 0.031659231 -0.20861091 0.0 0.033402994 -0.20826378 0.0 0.034573227000000005 -0.20691431 0.0 0.036791857000000004 -0.20464404 0.0 0.041472826000000004 -0.20185935 0.0 0.045216195 -0.22241306 0.0 0.031223811 -0.22350748 0.0 0.034406751 -0.2242945 0.0 0.036995652999999996 -0.22465552 0.0 0.03894943 -0.22436067 0.0 0.040352757999999996 -0.2234199 0.0 0.04306283599999999 -0.22231737 0.0 0.047779933 -0.22143981 0.0 0.051693764 -0.23656993 0.0 0.036333713999999996 -0.23768388 0.0 0.039845128 -0.23857562 0.0 0.042865336 -0.23895711 0.0 0.04552196 -0.23896106 0.0 0.047580823 -0.23826072 0.0 0.051588032 -0.23751786 0.0 0.056980208 -0.23844209 0.0 0.060373675 -0.24815758 0.0 0.041469552 -0.24926059 0.0 0.045477397999999995 -0.25034955 0.0 0.049254593 -0.25101292 0.0 0.053048067000000004 -0.25114962 0.0 0.0577338 -0.25043839 0.0 0.063885234 -0.24963133 0.0 0.06949228 -0.25069648 0.0 0.071538828 -0.25653559 0.0 0.047007725 -0.25749591 0.0 0.05189691900000001 -0.2584177 0.0 0.057342038 -0.25877067 0.0 0.064346641 -0.25818947 0.0 0.073440351 -0.25738898 0.0 0.08017157 -0.25615531 0.0 0.084985837 -0.25675243 0.0 0.08424106199999999 -0.2596865 0.0 0.056280214 -0.2604076 0.0 0.062664047 -0.26094967 0.0 0.070391923 -0.26050672 0.0 0.081121229 -0.25887209 0.0 0.092884958 -0.25807905 0.0 0.096716955 -0.25554377 0.0 0.099735826 -0.25219777 0.0 0.094467454 -0.2536253 0.0 0.073846817 -0.25350776 0.0 0.082442366 -0.25305918 0.0 0.092896521 -0.25125957 0.0 0.10527449 -0.24889152 0.0 0.11331887 -0.24870169 0.0 0.11025725 -0.23977351 0.0 0.11175433 -0.21432079 0.0 0.10468887 -0.22532149 0.0 0.10397083 -0.22462206 0.0 0.1136159 -0.22307447 0.0 0.12398305 -0.21988811 0.0 0.12947251 -0.21196927 0.0 0.12839951 -0.19524422 0.0 0.12110236 -0.17009395 0.0 0.11980303 -0.14268409 0.0 0.11189736 -0.14800228 0.0 0.10833064 -0.14661777 0.0 0.11725662 -0.14446443 0.0 0.12652968 -0.13994324 0.0 0.13092211 -0.13135138 0.0 0.12948717 -0.118487 0.0 0.12449903 -0.10234123 0.0 0.1270327 -0.08529143 0.0 0.11571325 -0.085659593 0.0 0.10689512 -0.083765984 0.0 0.11449627 -0.081425786 0.0 0.12242564 -0.077860668 0.0 0.12755348 -0.072373725 0.0 0.12771568 -0.065005906 0.0 0.126118 -0.056596369 0.0 0.13341127 -0.04767181 0.0 0.11879685 -0.039809238 0.0 0.10447107 -0.038234028999999996 0.0 0.11116736 -0.036556963 0.0 0.11842695 -0.034526667999999996 0.0 0.12425876 -0.0320573 0.0 0.1265443 -0.029349601 0.0 0.12875091 -0.026719838 0.0 0.13745573 -0.023790133999999998 0.0 0.12117349 -0.0018036456 0.0 0.10219391 -0.0007942434200000001 0.0 0.10859536 1.9831648e-05 0.0 0.11597443 0.00051049667 0.0 0.12325188 0.00036449757000000003 0.0 0.12715009 -0.0006908657400000001 0.0 0.13122638 -0.0024012439000000003 0.0 0.13928065 -0.004112933300000001 0.0 0.12255005 0.035774108 0.0 0.10046844 0.036496527 0.0 0.10708962 0.036850829 0.0 0.11504009 0.036312952999999995 0.0 0.1242632 0.034131434 0.0 0.12930089 0.030052442000000002 0.0 0.13268065 0.024793217000000003 0.0 0.13929033 0.018866945 0.0 0.12282901 0.07590324400000001 0.0 0.09908013 0.076877162 0.0 0.10613729 0.077448361 0.0 0.11468543 0.076634862 0.0 0.12509553 0.072981685 0.0 0.13035746 0.06642174 0.0 0.13220645 0.057805285 0.0 0.13754585 0.04760139099999999 0.0 0.12190693 0.11748035 0.0 0.09747281699999999 0.11920849 0.0 0.1049357 0.12059648 0.0 0.11387528 0.12015167 0.0 0.12466861 0.11545195 0.0 0.12952125 0.10666152 0.0 0.13002716 0.09479580800000001 0.0 0.13462912 0.080125161 0.0 0.11996569 0.15769453 0.0 0.09508013 0.16045021 0.0 0.1027657 0.1629642 0.0 0.11182515 0.16317211 0.0 0.1224669 0.15769491 0.0 0.12686382 0.14676291 0.0 0.12667063 0.13167946 0.0 0.13081445 0.11294925 0.0 0.11755542 0.1939038 0.0 0.09154451599999999 0.19768602 0.0 0.09921616300000001 0.20130232 0.0 0.1081427 0.20181571 0.0 0.11793356 0.19549865 0.0 0.12239686 0.18293884 0.0 0.12264405 0.16470346 0.0 0.12626393 0.14314683 0.0 0.11492781 0.2210298 0.0 0.086826086 0.22661328 0.0 0.094318181 0.2322129 0.0 0.10286824 0.23326123 0.0 0.11115053 0.22591093 0.0 0.11609482 0.21229649 0.0 0.11756143 0.19170712 0.0 0.12142137 0.16885412 0.0 0.11204424 0.2310379 0.0 0.08148383299999999 0.23781762 0.0 0.08895023199999999 0.24545942 0.0 0.09717042699999999 0.25167739 0.0 0.10445461 0.24818286 0.0 0.1084499 0.23396417 0.0 0.11139364 0.21191309 0.0 0.1162907 0.18899371 0.0 0.10891143 0.23315655 0.0 0.076175407 0.24037005 0.0 0.083630063 0.24857019 0.0 0.09148017300000001 0.25672668 0.0 0.099136285 0.2602742 0.0 0.10202799 0.24980164 0.0 0.10474419 0.22739679 0.0 0.11085069 0.2049607 0.0 0.10516912 0.23267213 0.0 0.071423613 0.24016441 0.0 0.078644775 0.24868973 0.0 0.085785761 0.25759166 0.0 0.09328201400000001 0.26413357 0.0 0.096619934 0.26108986 0.0 0.09805096699999999 0.24092942 0.0 0.10473421 0.21949759 0.0 0.10014451 0.2309951 0.0 0.067059591 0.23877421 0.0 0.073668763 0.24762329 0.0 0.080458723 0.25700486 0.0 0.086862013 0.26496592 0.0 0.09007936 0.26743346 0.0 0.090946667 0.25336885 0.0 0.097791083 0.23456554 0.0 0.093852706 0.22855617 0.0 0.062837705 0.23664176 0.0 0.069263175 0.24595758 0.0 0.075471163 0.25583035 0.0 0.080563717 0.26478714 0.0 0.082950346 0.27047208 0.0 0.083224908 0.26618946 0.0 0.09018246099999999 0.25137174 0.0 0.086259142 0.22546566 0.0 0.058851194 0.23408748 0.0 0.064716108 0.24394009 0.0 0.06986513 0.25454247 0.0 0.07412086400000001 0.26440188 0.0 0.075847909 0.27253726 0.0 0.076141156 0.27881509 0.0 0.081162311 0.27278629 0.0 0.07798837900000001 0.22189145 0.0 0.054664258 0.23119813 0.0 0.059750095 0.24172892 0.0 0.064011395 0.25322914 0.0 0.067449011 0.264018 0.0 0.068823293 0.27478626 0.0 0.069234528 0.2861748 0.0 0.07285650099999999 0.29273897 0.0 0.07248868 0.21808803 0.0 0.050237555 0.22797047 0.0 0.054121848 0.23957554 0.0 0.05765526 0.25198811 0.0 0.060749959000000006 0.2633881 0.0 0.06145695599999999 0.27570146 0.0 0.06205824 0.28943434 0.0 0.065267533 0.29865852 0.0 0.065821275 0.21414439 0.0 0.045007952000000004 0.22501348 0.0 0.048166495 0.23764993 0.0 0.051167767 0.25064969 0.0 0.053272579 0.26223338 0.0 0.053215839 0.27480549 0.0 0.054424848 0.28932017 0.0 0.05809968 0.21063283 0.0 0.03932187 0.22252053 0.0 0.041947488 0.23589759 0.0 0.044281252 0.24907501 0.0 0.045452862999999996 0.26043922 0.0 0.045240402 0.27326107 0.0 0.048049249 0.28621858 0.0 0.051741745 0.20779358 0.0 0.033581972 0.2205556 0.0 0.035830632 0.23436427 0.0 0.037853345 0.24726158 0.0 0.038443744 0.25840187 0.0 0.039295252 0.27136731 0.0 0.043426 0.20573607 0.0 0.028182608999999997 0.21922843 0.0 0.03050115 0.23314811 0.0 0.032387871 0.24544059 0.0 0.033120424 0.25722361 0.0 0.036054362 0.2676692 0.0 0.039722383 0.20473339 0.0 0.023994957999999997 0.21915923 0.0 0.02684398 0.23273303 0.0 0.028827232999999997 0.24428298 0.0 0.030620305 0.25477728 0.0 0.034359396 0.20575623 0.0 0.022107307000000003 0.22004306 0.0 0.02490788 0.23286217 0.0 0.027631122999999997 0.24188381 0.0 0.029816356000000002 0.20692655 0.0 0.021193572999999997 0.21931322 0.0 0.023962962999999997 0.22986144 0.0 0.027080301 0.23375301 0.0 0.02711652 0.20447373 0.0 0.019630127 0.21408814 0.0 0.022361556 0.19751252 0.0 0.017411543 
Acec 3 2975 float
0.0 0.0 0.0 0.0 0.0 0.0 0.0 0.0 0.0 0.0 0.0 0.0 0.0 0.0 0.0 0.0 0.0 0.0 0.0 0.0 0.0 0.0 0.0 0.0 0.0 0.0 0.0 0.0 0.0 0.0 0.0 0.0 0.0 0.0 0.0 0.0 0.0 0.0 0.0 0.0 0.0 0.0 0.0 0.0 0.0 0.0 0.0 0.0 0.0 0.0 0.0 0.0 0.0 0.0 0.0 0.0 0.0 0.0 0.0 0.0 0.0 0.0 0.0 0.0 0.0 0.0 0.0 0.0 0.0 0.0 0.0 0.0 0.0 0.0 0.0 0.0 0.0 0.0 0.0 0.0 0.0 0.0 0.0 0.0 0.0 0.0 0.0 0.0 0.0 0.0 0.0 0.0 0.0 0.0 0.0 0.0 0.0 0.0 0.0 0.0 0.0 0.0 0.0 0.0 0.0 0.0 0.0 0.0 0.0 0.0 0.0 0.0 0.0 0.0 0.0 0.0 0.0 0.0 0.0 0.0 0.0 0.0 0.0 0.0 0.0 0.0 0.0 0.0 0.0 0.0 0.0 0.0 0.0 0.0 0.0 0.0 0.0 0.0 0.0 0.0 0.0 0.0 0.0 0.0 0.0 0.0 0.0 0.0 0.0 0.0 0.0 0.0 0.0 0.0 0.0 0.0 0.0 0.0 0.0 0.0 0.0 0.0 0.0 0.0 0.0 0.0 0.0 0.0 0.0 0.0 0.0 0.0 0.0 0.0 0.0 0.0 0.0 0.0 0.0 0.0 0.0 0.0 0.0 0.0 0.0 0.0 0.0 0.0 0.0 0.0 0.0 0.0 0.0 0.0 0.0 0.0 0.0 0.0 0.0 0.0 0.0 0.0 0.0 0.0 0.0 0.0 0.0 0.0 0.0 0.0 0.0 0.0 0.0 0.0 0.0 0.0 0.0 0.0 0.0 0.0 0.0 0.0 0.0 0.0 0.0 0.0 0.0 0.0 0.0 0.0 0.0 0.0 0.0 0.0 0.0 0.0 0.0 0.0 0.0 0.0 0.0 0.0 0.0 0.0 0.0 0.0 0.0 0.0 0.0 0.0 0.0 0.0 0.0 0.0 0.0 0.0 0.0 0.0 0.0 0.0 0.0 0.0 0.0 0.0 0.0 0.0 0.0 0.0 0.0 0.0 0.0 0.0 0.0 0.0 0.0 0.0 0.0 0.0 0.0 0.0 0.0 0.0 0.0 0.0 0.0 0.0 0.0 0.0 0.0 0.0 0.0 0.0 0.0 0.0 0.0 0.0 0.0 0.0 0.0 0.0 0.0 0.0 0.0 0.0 0.0 0.0 0.0 0.0 0.0 0.0 0.0 0.0 0.0 0.0 0.0 0.0 0.0 0.0 0.0 0.0 0.0 0.0 0.0 0.0 0.0 0.0 0.0 0.0 0.0 0.0 0.0 0.0 0.0 0.0 0.0 0.0 0.0 0.0 0.0 0.0 0.0 0.0 0.0 0.0 0.0 0.0 0.0 0.0 0.0 0.0 0.0 0.0 0.0 0.0 0.0 0.0 0.0 0.0 0.0 0.0 0.0 0.0 0.0 0.0 0.0 0.0 0.0 0.0 0.0 0.0 0.0 0.0 0.0 0.0 0.0 0.0 0.0 0.0 0.0 0.0 0.0 0.0 0.0 0.0 0.0 0.0 0.0 0.0 0.0 0.0 0.0 0.0 0.0 0.0 0.0 0.0 0.0 0.0 0.0 0.0 0.0 0.0 0.0 0.0 0.0 0.0 0.0 0.0 0.0 0.0 0.0 0.0 0.0 0.0 0.0 0.0 0.0 0.0 0.0 0.0 0.0 0.0 0.0 0.0 0.0 0.0 0.0 0.0 0.0 0.0 0.0 0.0 0.0 0.0 0.0 0.0 0.0 0.0 0.0 0.0 0.0 0.0 0.0 0.0 0.0 0.0 0.0 0.0 0.0 0.0 0.0 0.0 0.0 0.0 0.0 0.0 0.0 0.0 0.0 0.0 0.0 0.0 0.0 0.0 0.0 0.0 0.0 0.0 0.0 0.0 0.0 0.0 0.0 0.0 0.0 0.0 0.0 0.0 0.0 0.0 0.0 0.0 0.0 0.0 0.0 0.0 0.0 0.0 0.0 0.0 0.0 0.0 0.0 0.0 0.0 0.0 0.0 0.0 0.0 0.0 0.0 0.0 0.0 0.0 0.0 0.0 0.0 0.0 0.0 0.0 0.0 0.0 0.0 0.0 0.0 0.0 0.0 0.0 0.0 0.0 0.0 0.0 0.0 0.0 0.0 0.0 0.0 0.0 0.0 0.0 0.0 0.0 0.0 0.0 0.0 0.0 0.0 0.0 0.0 0.0 0.0 0.0 0.0 0.0 0.0 0.0 0.0 0.0 0.0 0.0 0.0 0.0 0.0 0.0 0.0 0.0 0.0 0.0 0.0 0.0 0.0 0.0 0.0 0.0 0.0 0.0 0.0 0.0 0.0 0.0 0.0 0.0 0.0 0.0 0.0 0.0 0.0 0.0 0.0 0.0 0.0 0.0 0.0 0.0 0.0 0.0 0.0 0.0 0.0 0.0 0.0 0.0 0.0 0.0 0.0 0.0 0.0 0.0 0.0 0.0 0.0 0.0 0.0 0.0 0.0 0.0 0.0 0.0 0.0 0.0 0.0 0.0 0.0 0.0 0.0 0.0 0.0 0.0 0.0 0.0 0.0 0.0 0.0 0.0 0.0 0.0 0.0 0.0 0.0 0.0 0.0 0.0 0.0 0.0 0.0 0.0 0.0 0.0 0.0 0.0 0.0 0.0 0.0 0.0 0.0 0.0 0.0 0.0 0.0 0.0 0.0 0.0 0.0 0.0 0.0 0.0 0.0 0.0 0.0 0.0 0.0 0.0 0.0 0.0 0.0 0.0 0.0 0.0 0.0 0.0 0.0 0.0 0.0 0.0 0.0 0.0 0.0 0.0 0.0 0.0 0.0 0.0 0.0 0.0 0.0 0.0 0.0 0.0 0.0 0.0 0.0 0.0 0.0 0.0 0.0 0.0 0.0 0.0 0.0 0.0 0.0 0.0 0.0 0.0 0.0 0.0 0.0 0.0 0.0 0.0 0.0 0.0 0.0 0.0 0.0 0.0 0.0 0.0 0.0 0.0 0.0 0.0 0.0 0.0 0.0 0.0 0.0 0.0 0.0 0.0 0.0 0.0 0.0 0.0 0.0 0.0 0.0 0.0 0.0 0.0 0.0 0.0 0.0 0.0 0.0 0.0 0.0 0.0 0.0 0.0 0.0 0.0 0.0 0.0 0.0 0.0 0.0 0.0 0.0 0.0 0.0 0.0 0.0 0.0 0.0 0.0 0.0 0.0 0.0 0.0 0.0 0.0 0.0 0.0 0.0 0.0 0.0 0.0 0.0 0.0 0.0 0.0 0.0 0.0 0.0 0.0 0.0 0.0 0.0 0.0 0.0 0.0 0.0 0.0 0.0 0.0 0.0 0.0 0.0 0.0 0.0 0.0 0.0 0.0 0.0 0.0 0.0 0.0 0.0 0.0 0.0 0.0 0.0 0.0 0.0 0.0 0.0 0.0 0.0 0.0 0.0 0.0 0.0 0.0 0.0 0.0 0.0 0.0 0.0 0.0 0.0 0.0 0.0 0.0 0.0 0.0 0.0 0.0 0.0 0.0 0.0 0.0 0.0 0.0 0.0 0.0 0.0 0.0 0.0 0.0 0.0 0.0 0.0 0.0 0.0 0.0 0.0 0.0 0.0 0.0 0.0 0.0 0.0 0.0 0.0 0.0 0.0 0.0 0.0 0.0 0.0 0.0 0.0 0.0 0.0 0.0 0.0 0.0 0.0 0.0 0.0 0.0 0.0 0.0 0.0 0.0 0.0 0.0 0.0 0.0 0.0 0.0 0.0 0.0 0.0 0.0 0.0 0.0 0.0 0.0 0.0 0.0 0.0 0.0 0.0 0.0 0.0 0.0 0.0 0.0 0.0 0.0 0.0 0.0 0.0 0.0 0.0 0.0 0.0 0.0 0.0 0.0 0.0 0.0 0.0 0.0 0.0 0.0 0.0 0.0 0.0 0.0 0.0 0.0 0.0 0.0 0.0 0.0 0.0 0.0 0.0 0.0 0.0 0.0 0.0 0.0 0.0 0.0 0.0 0.0 0.0 0.0 0.0 0.0 0.0 0.0 0.0 0.0 0.0 0.0 0.0 0.0 0.0 0.0 0.0 0.0 0.0 0.0 0.0 0.0 0.0 0.0 0.0 0.0 0.0 0.0 0.0 0.0 0.0 0.0 0.0 0.0 0.0 0.0 0.0 0.0 0.0 0.0 0.0 0.0 0.0 0.0 0.0 0.0 0.0 0.0 0.0 0.0 0.0 0.0 0.0 0.0 0.0 0.0 0.0 0.0 0.0 0.0 0.0 0.0 0.0 0.0 0.0 0.0 0.0 0.0 0.0 0.0 0.0 0.0 0.0 0.0 0.0 0.0 0.0 0.0 0.0 0.0 0.0 0.0 0.0 0.0 0.0 0.0 0.0 0.0 0.0 0.0 0.0 0.0 0.0 0.0 0.0 0.0 0.0 0.0 0.0 0.0 0.0 0.0 0.0 0.0 0.0 0.0 0.0 0.0 0.0 0.0 0.0 0.0 0.0 0.0 0.0 0.0 0.0 0.0 0.0 0.0 0.0 0.0 0.0 0.0 0.0 0.0 0.0 0.0 0.0 0.0 0.0 0.0 0.0 0.0 0.0 0.0 0.0 0.0 0.0 0.0 0.0 0.0 0.0 0.0 0.0 0.0 0.0 0.0 0.0 0.0 0.0 0.0 0.0 0.0 0.0 0.0 0.0 0.0 0.0 0.0 0.0 0.0 0.0 0.0 0.0 0.0 0.0 0.0 0.0 0.0 0.0 0.0 0.0 0.0 0.0 0.0 0.0 0.0 0.0 0.0 0.0 0.0 0.0 0.0 0.0 0.0 0.0 0.0 0.0 0.0 0.0 0.0 0.0 0.0 0.0 0.0 0.0 0.0 0.0 0.0 0.0 0.0 0.0 0.0 0.0 0.0 0.0 0.0 0.0 0.0 0.0 0.0 0.0 0.0 0.0 0.0 0.0 0.0 0.0 0.0 0.0 0.0 0.0 0.0 0.0 0.0 0.0 0.0 0.0 0.0 0.0 0.0 0.0 0.0 0.0 0.0 0.0 0.0 0.0 0.0 0.0 0.0 0.0 0.0 0.0 0.0 0.0 0.0 0.0 0.0 0.0 0.0 0.0 0.0 0.0 0.0 0.0 0.0 0.0 0.0 0.0 0.0 0.0 0.0 0.0 0.0 0.0 0.0 0.0 0.0 0.0 0.0 0.0 0.0 0.0 0.0 0.0 0.0 0.0 0.0 0.0 0.0 0.0 0.0 0.0 0.0 0.0 0.0 0.0 0.0 0.0 0.0 0.0 0.0 0.0 0.0 0.0 0.0 0.0 0.0 0.0 0.0 0.0 0.0 0.0 0.0 0.0 0.0 0.0 0.0 0.0 0.0 0.0 0.0 0.0 0.0 0.0 0.0 0.0 0.0 0.0 0.0 0.0 0.0 0.0 0.0 0.0 0.0 0.0 0.0 0.0 0.0 0.0 0.0 0.0 0.0 0.0 0.0 0.0 0.0 0.0 0.0 0.0 0.0 0.0 0.0 0.0 0.0 0.0 0.0 0.0 0.0 0.0 0.0 0.0 0.0 0.0 0.0 0.0 0.0 0.0 0.0 0.0 0.0 0.0 0.0 0.0 0.0 0.0 0.0 0.0 0.0 0.0 0.0 0.0 0.0 0.0 0.0 0.0 0.0 0.0 0.0 0.0 0.0 0.0 0.0 0.0 0.0 0.0 0.0 0.0 0.0 0.0 0.0 0.0 0.0 0.0 0.0 0.0 0.0 0.0 0.0 0.0 0.0 0.0 0.0 0.0 0.0 0.0 0.0 0.0 0.0 0.0 0.0 0.0 0.0 0.0 0.0 0.0 0.0 0.0 0.0 0.0 0.0 0.0 0.0 0.0 0.0 0.0 0.0 0.0 0.0 0.0 0.0 0.0 0.0 0.0 0.0 0.0 0.0 0.0 0.0 0.0 0.0 0.0 0.0 0.0 0.0 0.0 0.0 0.0 0.0 0.0 0.0 0.0 0.0 0.0 0.0 0.0 0.0 0.0 0.0 0.0 0.0 0.0 0.0 0.0 0.0 0.0 0.0 0.0 0.0 0.0 0.0 0.0 0.0 0.0 0.0 0.0 0.0 0.0 0.0 0.0 0.0 0.0 0.0 0.0 0.0 0.0 0.0 0.0 0.0 0.0 0.0 0.0 0.0 0.0 0.0 0.0 0.0 0.0 0.0 0.0 0.0 0.0 0.0 0.0 0.0 0.0 0.0 0.0 0.0 0.0 0.0 0.0 0.0 0.0 0.0 0.0 0.0 0.0 0.0 0.0 0.0 0.0 0.0 0.0 0.0 0.0 0.0 0.0 0.0 0.0 0.0 0.0 0.0 0.0 0.0 0.0 0.0 0.0 0.0 0.0 0.0 0.0 0.0 0.0 0.0 0.0 0.0 0.0 0.0 0.0 0.0 0.0 0.0 0.0 0.0 0.0 0.0 0.0 0.0 0.0 0.0 0.0 0.0 0.0 0.0 0.0 0.0 0.0 0.0 0.0 0.0 0.0 0.0 0.0 0.0 0.0 0.0 0.0 0.0 0.0 0.0 0.0 0.0 0.0 0.0 0.0 0.0 0.0 0.0 0.0 0.0 0.0 0.0 0.0 0.0 0.0 0.0 0.0 0.0 0.0 0.0 0.0 0.0 0.0 0.0 0.0 0.0 0.0 0.0 0.0 0.0 0.0 0.0 0.0 0.0 0.0 0.0 0.0 0.0 0.0 0.0 0.0 0.0 0.0 0.0 0.0 0.0 0.0 0.0 0.0 0.0 0.0 0.0 0.0 0.0 0.0 0.0 0.0 0.0 0.0 0.0 0.0 0.0 0.0 0.0 0.0 0.0 0.0 0.0 0.0 0.0 0.0 0.0 0.0 0.0 0.0 0.0 0.0 0.0 0.0 0.0 0.0 0.0 0.0 0.0 0.0 0.0 0.0 0.0 0.0 0.0 0.0 0.0 0.0 0.0 0.0 0.0 0.0 0.0 0.0 0.0 0.0 0.0 0.0 0.0 0.0 0.0 0.0 0.0 0.0 0.0 0.0 0.0 0.0 0.0 0.0 0.0 0.0 0.0 0.0 0.0 0.0 0.0 0.0 0.0 0.0 0.0 0.0 0.0 0.0 0.0 0.0 0.0 0.0 0.0 0.0 0.0 0.0 0.0 0.0 0.0 0.0 0.0 0.0 0.0 0.0 0.0 0.0 0.0 0.0 0.0 0.0 0.0 0.0 0.0 0.0 0.0 0.0 0.0 0.0 0.0 0.0 0.0 0.0 0.0 0.0 0.0 0.0 0.0 0.0 0.0 0.0 0.0 0.0 0.0 0.0 0.0 0.0 0.0 0.0 0.0 0.0 0.0 0.0 0.0 0.0 0.0 0.0 0.0 0.0 0.0 0.0 0.0 0.0 0.0 0.0 0.0 0.0 0.0 0.0 0.0 0.0 0.0 0.0 0.0 0.0 0.0 0.0 0.0 0.0 0.0 0.0 0.0 0.0 0.0 0.0 0.0 0.0 0.0 0.0 0.0 0.0 0.0 0.0 0.0 0.0 0.0 0.0 0.0 0.0 0.0 0.0 0.0 0.0 0.0 0.0 0.0 0.0 0.0 0.0 0.0 0.0 0.0 0.0 0.0 0.0 0.0 0.0 0.0 0.0 0.0 0.0 0.0 0.0 0.0 0.0 0.0 0.0 0.0 0.0 0.0 0.0 0.0 0.0 0.0 0.0 0.0 0.0 0.0 0.0 0.0 0.0 0.0 0.0 0.0 0.0 0.0 0.0 0.0 0.0 0.0 0.0 0.0 0.0 0.0 0.0 0.0 0.0 0.0 0.0 0.0 0.0 0.0 0.0 0.0 0.0 0.0 0.0 0.0 0.0 0.0 0.0 0.0 0.0 0.0 0.0 0.0 0.0 0.0 0.0 0.0 0.0 0.0 0.0 0.0 0.0 0.0 0.0 0.0 0.0 0.0 0.0 0.0 0.0 0.0 0.0 0.0 0.0 0.0 0.0 0.0 0.0 0.0 0.0 0.0 0.0 0.0 0.0 0.0 0.0 0.0 0.0 0.0 0.0 0.0 0.0 0.0 0.0 0.0 0.0 0.0 0.0 0.0 0.0 0.0 0.0 0.0 0.0 0.0 0.0 0.0 0.0 0.0 0.0 0.0 0.0 0.0 0.0 0.0 0.0 0.0 0.0 0.0 0.0 0.0 0.0 0.0 0.0 0.0 0.0 0.0 0.0 0.0 0.0 0.0 0.0 0.0 0.0 0.0 0.0 0.0 0.0 0.0 0.0 0.0 0.0 0.0 0.0 0.0 0.0 0.0 0.0 0.0 0.0 0.0 0.0 0.0 0.0 0.0 0.0 0.0 0.0 0.0 0.0 0.0 0.0 0.0 0.0 0.0 0.0 0.0 0.0 0.0 0.0 0.0 0.0 0.0 0.0 0.0 0.0 0.0 0.0 0.0 0.0 0.0 0.0 0.0 0.0 0.0 0.0 0.0 0.0 0.0 0.0 0.0 0.0 0.0 0.0 0.0 0.0 0.0 0.0 0.0 0.0 0.0 0.0 0.0 0.0 0.0 0.0 0.0 0.0 0.0 0.0 0.0 0.0 0.0 0.0 0.0 0.0 0.0 0.0 0.0 0.0 0.0 0.0 0.0 0.0 0.0 0.0 0.0 0.0 0.0 0.0 0.0 0.0 0.0 0.0 0.0 0.0 0.0 0.0 0.0 0.0 0.0 0.0 0.0 0.0 0.0 0.0 0.0 0.0 0.0 0.0 0.0 0.0 0.0 0.0 0.0 0.0 0.0 0.0 0.0 0.0 0.0 0.0 0.0 0.0 0.0 0.0 0.0 0.0 0.0 0.0 0.0 0.0 0.0 0.0 0.0 0.0 0.0 0.0 0.0 0.0 0.0 0.0 0.0 0.0 0.0 0.0 0.0 0.0 0.0 0.0 0.0 0.0 0.0 0.0 0.0 0.0 0.0 0.0 0.0 0.0 0.0 0.0 0.0 0.0 0.0 0.0 0.0 0.0 0.0 0.0 0.0 0.0 0.0 0.0 0.0 0.0 0.0 0.0 0.0 0.0 0.0 0.0 0.0 0.0 0.0 0.0 0.0 0.0 0.0 0.0 0.0 0.0 0.0 0.0 0.0 0.0 0.0 0.0 0.0 0.0 0.0 0.0 0.0 0.0 0.0 0.0 0.0 0.0 0.0 0.0 0.0 0.0 0.0 0.0 0.0 0.0 0.0 0.0 0.0 0.0 0.0 0.0 0.0 0.0 0.0 0.0 0.0 0.0 0.0 0.0 0.0 0.0 0.0 0.0 0.0 0.0 0.0 0.0 0.0 0.0 0.0 0.0 0.0 0.0 0.0 0.0 0.0 0.0 0.0 0.0 0.0 0.0 0.0 0.0 0.0 0.0 0.0 0.0 0.0 0.0 0.0 0.0 0.0 0.0 0.0 0.0 0.0 0.0 0.0 0.0 0.0 0.0 0.0 0.0 0.0 0.0 0.0 0.0 0.0 0.0 0.0 0.0 0.0 0.0 0.0 0.0 0.0 0.0 0.0 0.0 0.0 0.0 0.0 0.0 0.0 0.0 0.0 0.0 0.0 0.0 0.0 0.0 0.0 0.0 0.0 0.0 0.0 0.0 0.0 0.0 0.0 0.0 0.0 0.0 0.0 0.0 0.0 0.0 0.0 0.0 0.0 0.0 0.0 0.0 0.0 0.0 0.0 0.0 0.0 0.0 0.0 0.0 0.0 0.0 0.0 0.0 0.0 0.0 0.0 0.0 0.0 0.0 0.0 0.0 0.0 0.0 0.0 0.0 0.0 0.0 0.0 0.0 0.0 0.0 0.0 0.0 0.0 0.0 0.0 0.0 0.0 0.0 0.0 0.0 0.0 0.0 0.0 0.0 0.0 0.0 0.0 0.0 0.0 0.0 0.0 0.0 0.0 0.0 0.0 0.0 0.0 0.0 0.0 0.0 0.0 0.0 0.0 0.0 0.0 0.0 0.0 0.0 0.0 0.0 0.0 0.0 0.0 0.0 0.0 0.0 0.0 0.0 0.0 0.0 0.0 0.0 0.0 0.0 0.0 0.0 0.0 0.0 0.0 0.0 0.0 0.0 0.0 0.0 0.0 0.0 0.0 0.0 0.0 0.0 0.0 0.0 0.0 0.0 0.0 0.0 0.0 0.0 0.0 0.0 0.0 0.0 0.0 0.0 0.0 0.0 0.0 0.0 0.0 0.0 0.0 0.0 0.0 0.0 0.0 0.0 0.0 0.0 0.0 0.0 0.0 0.0 0.0 0.0 0.0 0.0 0.0 0.0 0.0 0.0 0.0 0.0 0.0 0.0 0.0 0.0 0.0 0.0 0.0 0.0 0.0 0.0 0.0 0.0 0.0 0.0 0.0 0.0 0.0 0.0 0.0 0.0 0.0 0.0 0.0 0.0 0.0 0.0 0.0 0.0 0.0 0.0 0.0 0.0 0.0 0.0 0.0 0.0 0.0 0.0 0.0 0.0 0.0 0.0 0.0 0.0 0.0 0.0 0.0 0.0 0.0 0.0 0.0 0.0 0.0 0.0 0.0 0.0 0.0 0.0 0.0 0.0 0.0 0.0 0.0 0.0 0.0 0.0 0.0 0.0 0.0 0.0 0.0 0.0 0.0 0.0 0.0 0.0 0.0 0.0 0.0 0.0 0.0 0.0 0.0 0.0 0.0 0.0 0.0 0.0 0.0 0.0 0.0 0.0 0.0 0.0 0.0 0.0 0.0 0.0 0.0 0.0 0.0 0.0 0.0 0.0 0.0 0.0 0.0 0.0 0.0 0.0 0.0 0.0 0.0 0.0 0.0 0.0 0.0 0.0 0.0 0.0 0.0 0.0 0.0 0.0 0.0 0.0 0.0 0.0 0.0 0.0 0.0 0.0 0.0 0.0 0.0 0.0 0.0 0.0 0.0 0.0 0.0 0.0 0.0 0.0 0.0 0.0 0.0 0.0 0.0 0.0 0.0 0.0 0.0 0.0 0.0 0.0 0.0 0.0 0.0 0.0 0.0 0.0 0.0 0.0 0.0 0.0 0.0 0.0 0.0 0.0 0.0 0.0 0.0 0.0 0.0 0.0 0.0 0.0 0.0 0.0 0.0 0.0 0.0 0.0 0.0 0.0 0.0 0.0 0.0 0.0 0.0 0.0 0.0 0.0 0.0 0.0 0.0 0.0 0.0 0.0 0.0 0.0 0.0 0.0 0.0 0.0 0.0 0.0 0.0 0.0 0.0 0.0 0.0 0.0 0.0 0.0 0.0 0.0 0.0 0.0 0.0 0.0 0.0 0.0 0.0 0.0 0.0 0.0 0.0 0.0 0.0 0.0 0.0 0.0 0.0 0.0 0.0 0.0 0.0 0.0 0.0 0.0 0.0 0.0 0.0 0.0 0.0 0.0 0.0 0.0 0.0 0.0 0.0 0.0 0.0 0.0 0.0 0.0 0.0 0.0 0.0 0.0 0.0 0.0 0.0 0.0 0.0 0.0 0.0 0.0 0.0 0.0 0.0 0.0 0.0 0.0 0.0 0.0 0.0 0.0 0.0 0.0 0.0 0.0 0.0 0.0 0.0 0.0 0.0 0.0 0.0 0.0 0.0 0.0 0.0 0.0 0.0 0.0 0.0 0.0 0.0 0.0 0.0 0.0 0.0 0.0 0.0 0.0 0.0 0.0 0.0 0.0 0.0 0.0 0.0 0.0 0.0 0.0 0.0 0.0 0.0 0.0 0.0 0.0 0.0 0.0 0.0 0.0 0.0 0.0 0.0 0.0 0.0 0.0 0.0 0.0 0.0 0.0 0.0 0.0 0.0 0.0 0.0 0.0 0.0 0.0 0.0 0.0 0.0 0.0 0.0 0.0 0.0 0.0 0.0 0.0 0.0 0.0 0.0 0.0 0.0 0.0 0.0 0.0 0.0 0.0 0.0 0.0 0.0 0.0 0.0 0.0 0.0 0.0 0.0 0.0 0.0 0.0 0.0 0.0 0.0 0.0 0.0 0.0 0.0 0.0 0.0 0.0 0.0 0.0 0.0 0.0 0.0 0.0 0.0 0.0 0.0 0.0 0.0 0.0 0.0 0.0 0.0 0.0 0.0 0.0 0.0 0.0 0.0 0.0 0.0 0.0 0.0 0.0 0.0 0.0 0.0 0.0 0.0 0.0 0.0 0.0 0.0 0.0 0.0 0.0 0.0 0.0 0.0 0.0 0.0 0.0 0.0 0.0 0.0 0.0 0.0 0.0 0.0 0.0 0.0 0.0 0.0 0.0 0.0 0.0 0.0 0.0 0.0 0.0 0.0 0.0 0.0 0.0 0.0 0.0 0.0 0.0 0.0 0.0 0.0 0.0 0.0 0.0 0.0 0.0 0.0 0.0 0.0 0.0 0.0 0.0 0.0 0.0 0.0 0.0 0.0 0.0 0.0 0.0 0.0 0.0 0.0 0.0 0.0 0.0 0.0 0.0 0.0 0.0 0.0 0.0 0.0 0.0 0.0 0.0 0.0 0.0 0.0 0.0 0.0 0.0 0.0 0.0 0.0 0.0 0.0 0.0 0.0 0.0 0.0 0.0 0.0 0.0 0.0 0.0 0.0 0.0 0.0 0.0 0.0 0.0 0.0 0.0 0.0 0.0 0.0 0.0 0.0 0.0 0.0 0.0 0.0 0.0 0.0 0.0 0.0 0.0 0.0 0.0 0.0 0.0 0.0 0.0 0.0 0.0 0.0 0.0 0.0 0.0 0.0 0.0 0.0 0.0 0.0 0.0 0.0 0.0 0.0 0.0 0.0 0.0 0.0 0.0 0.0 0.0 0.0 0.0 0.0 0.0 0.0 0.0 0.0 0.0 0.0 0.0 0.0 0.0 0.0 0.0 0.0 0.0 0.0 0.0 0.0 0.0 0.0 0.0 0.0 0.0 0.0 0.0 0.0 0.0 0.0 0.0 0.0 0.0 0.0 0.0 0.0 0.0 0.0 0.0 0.0 0.0 0.0 0.0 0.0 0.0 0.0 0.0 0.0 0.0 0.0 0.0 0.0 0.0 0.0 0.0 0.0 0.0 0.0 0.0 0.0 0.0 0.0 0.0 0.0 0.0 0.0 0.0 0.0 0.0 0.0 0.0 0.0 0.0 0.0 0.0 0.0 0.0 0.0 0.0 0.0 0.0 0.0 0.0 0.0 0.0 0.0 0.0 0.0 0.0 0.0 0.0 0.0 0.0 0.0 0.0 0.0 0.0 0.0 0.0 0.0 0.0 0.0 0.0 0.0 0.0 0.0 0.0 0.0 0.0 0.0 0.0 0.0 0.0 0.0 0.0 0.0 0.0 0.0 0.0 0.0 0.0 0.0 0.0 0.0 0.0 0.0 0.0 0.0 0.0 0.0 0.0 0.0 0.0 0.0 0.0 0.0 0.0 -1.0860441 0.0 -0.42485476 -1.2724881000000001 0.0 -0.39368427 -1.4270425 0.0 -0.34835303 -1.5519156 0.0 -0.29842049 -1.6490698000000001 0.0 -0.24922889 -1.0509576999999999 0.0 -0.55090284 -1.3885169 0.0 -0.47629499 -1.6426339 0.0 -0.44839406 -1.8372582999999998 0.0 -0.40474725 -1.9892011000000003 0.0 -0.35293388 -2.1064835 0.0 -0.29895276 -1.3882732 0.0 -0.56561136 -1.8025546000000001 0.0 -0.49390054 -2.104847 0.0 -0.45300102 -2.3355507999999996 0.0 -0.40748405 -2.5136523 0.0 -0.36073565 -2.6526632 0.0 -0.30920237 -1.7981601000000003 0.0 -0.56128407 -2.2951922000000002 0.0 -0.47588563 -2.6379874 0.0 -0.4343152 -2.8946602 0.0 -0.39253259 -3.0968475 0.0 -0.3494013 -3.2557421000000004 0.0 -0.30239964 -2.2786627 0.0 -0.55698633 -2.8653612 0.0 -0.445539 -3.2485223 0.0 -0.40221047 -3.5296836000000003 0.0 -0.36321878 -3.7504449 0.0 -0.32770425 -3.9278553 0.0 -0.28597158 -2.8443379 0.0 -0.56193542 -3.5301712 0.0 -0.40969419 -3.9528809000000003 0.0 -0.36034513 -4.2547220999999995 0.0 -0.32516754 -4.4918051 0.0 -0.29781163 -4.684569799999999 0.0 -0.2634415 -3.5146604 0.0 -0.59300184 -4.3074889 0.0 -0.37917709 -4.7642307 0.0 -0.31561542 -5.0777655 0.0 -0.28596187 -5.3294702 0.0 -0.26437306 -5.533226 0.0 -0.24006774 -4.3120117 0.0 -0.67086983 -5.2105107 0.0 -0.37189817 -5.687827099999999 0.0 -0.28482199 -6.011402599999999 0.0 -0.24841428 -6.2638474 0.0 -0.24071163 -6.4755855 0.0 -0.22489893 -5.2901583 0.0 -0.76241875 -6.2523942 0.0 -0.39253521 -6.720994900000001 0.0 -0.28926373 -7.046868300000001 0.0 -0.23981071 -7.2999592 0.0 -0.23755896 -7.5118337 0.0 -0.23329496 -6.5634527 0.0 -0.73773479 -7.4615808 0.0 -0.41309261 -7.8894286 0.0 -0.31281328 -8.1889553 0.0 -0.27091861 -8.4331541 0.0 -0.2800976 -8.64223 0.0 -0.2838521 -8.224655199999999 0.0 -0.58395576 -8.8891649 0.0 -0.4231739 -9.211889300000001 0.0 -0.35172462 -9.4499397 0.0 -0.34692073 -9.6697588 0.0 -0.37355113 -9.8652735 0.0 -0.39244053 -10.041782000000001 0.0 -0.86815643 -10.541780000000001 0.0 -0.58765888 -10.684149 0.0 -0.49551535 -10.831671 0.0 -0.50343919 -11.010667999999999 0.0 -0.53414023 -11.182030000000001 0.0 -0.57073843 -12.091084 0.0 -2.4538059 -12.399329 0.0 -1.5011463 -12.354038000000001 0.0 -0.9888382 -12.358274 0.0 -0.84137177 -12.456512 0.0 -0.81660688 -12.593342 0.0 -0.83677697 -14.709635 0.0 -3.7735557999999996 -14.576529999999998 0.0 -2.6518888 -14.238261999999999 0.0 -1.8074846000000002 -14.037041 0.0 -1.4029717 -14.012939999999999 0.0 -1.2602553 -14.110054000000002 0.0 -1.2012113000000002 -17.781548 0.0 -4.6457205 -17.071487 0.0 -3.5141211 -16.311035 0.0 -2.6261511000000004 -15.839994 0.0 -2.0886558999999996 -15.685641 0.0 -1.8264471000000002 -15.732173000000001 0.0 -1.6555481 -21.006004 0.0 -5.346292500000001 -19.660211999999998 0.0 -4.223390599999999 -18.464956 0.0 -3.3440545 -17.72743 0.0 -2.7526164 -17.444857 0.0 -2.4011134999999997 -17.453869 0.0 -2.1695721000000003 -24.191965 0.0 -6.0038867 -22.253002 0.0 -4.842474500000001 -20.651220000000002 0.0 -3.9640961000000003 -19.679235000000002 0.0 -3.3498639999999997 -19.294941 0.0 -2.9498272 -19.273664 0.0 -2.6781242 -27.277714000000003 0.0 -6.664289999999999 -24.844362 0.0 -5.4170918 -22.879559 0.0 -4.5091176 -21.698215 0.0 -3.8695815000000002 -21.223576 0.0 -3.4512837 -21.178696 0.0 -3.1747982999999995 -30.364748 0.0 -7.3351197 -27.490965000000003 0.0 -5.989631200000001 -25.185228 0.0 -4.999581299999999 -23.793036999999998 0.0 -4.326427 -23.230453 0.0 -3.8997669000000004 -23.175396 0.0 -3.6091237 -33.581009 0.0 -8.0120153 -30.25433 0.0 -6.536470400000001 -27.588907 0.0 -5.4431652999999995 -25.97024 0.0 -4.736547900000001 -25.312691 0.0 -4.2956786 -25.246321 0.0 -3.9929318 -36.977886 0.0 -8.655205699999998 -33.144816999999996 0.0 -7.0519114 -30.084865999999998 0.0 -5.8523855000000005 -28.222965000000002 0.0 -5.0988231 -27.458824 0.0 -4.6336393 -27.388030999999998 0.0 -4.3448582 -40.536049 0.0 -9.2924643 -36.155838 0.0 -7.527813 -32.665981 0.0 -6.213068499999999 -30.541559000000003 0.0 -5.4105473 -29.662848999999998 0.0 -4.930672599999999 -29.588926 0.0 -4.647461900000001 -44.257771000000005 0.0 -9.8968954 -39.281071000000004 0.0 -7.946767299999999 -35.322189 0.0 -6.5152059 -32.913876 0.0 -5.6593342 -31.914223 0.0 -5.170255200000001 -31.839249 0.0 -4.8863807 -48.144264 0.0 -10.451853 -42.517109000000005 0.0 -8.292051299999999 -38.045807 0.0 -6.7413664 -35.328106 0.0 -5.8293285 -34.200485 0.0 -5.324945 -34.128944 0.0 -5.040171599999999 -52.213428 0.0 -10.940495 -45.870476000000004 0.0 -8.5362244 -40.835278 0.0 -6.8651114 -37.777607 0.0 -5.8940616 -36.513107 0.0 -5.364255 -36.448440999999995 0.0 -5.081822900000001 -56.523991 0.0 -11.341733999999999 -49.364891 0.0 -8.651632300000001 -43.697693 0.0 -6.8495178 -40.264278000000004 0.0 -5.8104424 -38.853004 0.0 -5.2834477 -38.79039 0.0 -4.9845042 -61.173504 0.0 -11.638328 -53.038532 0.0 -8.6091204 -46.645309000000005 0.0 -6.6529255 -42.787234999999995 0.0 -5.536109 -41.212115999999995 0.0 -5.007371400000001 -41.147597999999995 0.0 -4.7349639 -66.258057 0.0 -11.819855 -56.916336 0.0 -8.3949013 -49.666698 0.0 -6.255579900000001 -45.331833 0.0 -5.0498719 -43.562668 0.0 -4.5426412 -43.496719 0.0 -4.3307519 -71.7659 0.0 -11.885474 -60.947803 0.0 -8.0047188 -52.708065000000005 0.0 -5.6501532 -47.83596 0.0 -4.3724947 -45.82613 0.0 -3.9375598 -45.76643 0.0 -3.7644830000000002 -77.455246 0.0 -11.923814 -64.942932 0.0 -7.4697002999999995 -55.64599200000001 0.0 -4.814793099999999 -50.118491999999996 0.0 -3.6252498999999996 -47.827084 0.0 -3.2978656 -47.822517 0.0 -3.0816786 -82.939316 0.0 -12.084052 -68.631371 0.0 -6.8338418 -58.260844999999996 0.0 -3.9251968999999995 -51.960945 0.0 -2.9342322 -49.556492 0.0 -2.3813322 -49.626537 0.0 -2.139971 -87.547012 0.0 -12.247764 -71.60323299999999 0.0 -6.4486256 -60.04251899999999 0.0 -3.7000268 -53.520256 0.0 -1.9687381000000002 -50.998455 0.0 -1.2703468999999998 -51.105408000000004 0.0 -0.82520562 -90.756813 0.0 -12.62066 -74.00528 0.0 -6.5563845999999995 -61.659252 0.0 -3.5655875 -54.795081999999994 0.0 -1.1706153 -52.045338 0.0 0.013940288 -52.209652 0.0 0.66925234 -92.35368299999999 0.0 -12.853758000000001 -74.889648 0.0 -7.3710122 -62.094147 0.0 -4.252625900000001 -55.155403 0.0 -1.4708008999999997 -52.569775 0.0 0.76752853 -52.84795 0.0 2.1179322999999997 -89.021866 0.0 -11.524236 -73.066917 0.0 -7.191634700000001 -61.093498 0.0 -5.2271624 -54.372505000000004 0.0 -1.7941324 -52.250893 0.0 0.86607045 -52.79480699999999 0.0 3.2491889 -72.279922 0.0 -12.65144 -67.032875 0.0 -8.4012222 -57.803695999999995 0.0 -5.3743582000000005 -51.25132 0.0 -1.9382047999999998 -49.88179 0.0 -0.24945837 -51.13892 0.0 2.4244325 -45.592216 0.0 -14.104067 -44.717995 0.0 -7.442787200000001 -44.701846999999994 0.0 -5.675290599999999 -44.346621999999996 0.0 -1.8007317999999999 -43.75922 0.0 -0.88303554 -45.089043 0.0 -0.94349831 -26.960167 0.0 -11.670567 -26.283109999999997 0.0 -5.129053099999999 -26.053493 0.0 -5.9448562 -26.073099 0.0 -1.8527221999999999 -27.097658000000003 0.0 -0.67547292 -28.791733 0.0 0.14115915 -16.980574 0.0 -9.192343699999999 -16.178465 0.0 -3.4978681000000003 -15.559072 0.0 -6.5492849 -15.358108999999999 0.0 -1.9389787 -15.776468 0.0 0.6356191 -16.811316 0.0 3.3401136 -11.770667999999999 0.0 -8.0324545 -10.887138 0.0 -2.1128097 -10.051044000000001 0.0 -8.2199917 -9.5182076 0.0 -1.8765188000000002 -9.3728485 0.0 2.2483692000000004 -9.628920599999999 0.0 5.678298000000001 -6.691826799999999 0.0 -7.9230738 -5.9840708 0.0 -0.9748342 -5.2351408 0.0 -8.8466177 -4.5754805 0.0 -2.212965 -4.0705686000000005 0.0 2.5917807 -3.7530525000000003 0.0 6.4174414 1.2246343000000002 0.0 -8.1246042 1.5197059 0.0 -0.3541145 1.8876745 0.0 -8.6413651 2.3426348999999997 0.0 -3.2219007 2.8605359 0.0 1.6002214 3.4113834 0.0 5.762948000000001 12.414411999999999 0.0 -8.7347612 12.179960000000001 0.0 -0.28139865 12.001708 0.0 -8.2185326 11.944158999999999 0.0 -3.8414779 12.21275 0.0 0.062752485 12.638975 0.0 4.2868547 25.531284 0.0 -9.472819300000001 24.739332 0.0 -0.74889117 23.69697 0.0 -7.4474277 23.242386 0.0 -4.1474133 23.183836 0.0 -1.448035 23.284184 0.0 2.503124 39.212769 0.0 -11.217145 37.18182 0.0 -1.5664771 35.717898999999996 0.0 -7.302353900000001 34.982403000000005 0.0 -4.7792916 34.533546 0.0 -2.7336526 34.267845 0.0 0.7902329 52.085029999999996 0.0 -12.834657 48.220089 0.0 -2.7300444 46.89045 0.0 -8.0211334 45.645214 0.0 -5.2863793 45.158489 0.0 -3.5846753 44.752827 0.0 -0.63236529 63.56026800000001 0.0 -13.948081 57.731625 0.0 -4.473040599999999 55.853905000000005 0.0 -8.7302837 54.695889 0.0 -5.6889237999999995 54.539359999999995 0.0 -4.1578655 54.251049 0.0 -1.638666 73.551048 0.0 -15.581832 65.887741 0.0 -7.2994012999999995 62.94853199999999 0.0 -9.373450300000002 62.171794999999996 0.0 -6.0091434 62.455524 0.0 -4.9046874 61.563293 0.0 -2.5200951000000003 82.311409 0.0 -16.851051000000002 73.260704 0.0 -10.377033 69.380775 0.0 -10.361393 68.538422 0.0 -7.1134515 66.815239 0.0 -6.321320500000001 64.650024 0.0 -3.6413488 90.357979 0.0 -17.312387 80.177681 0.0 -12.50104 75.75264 0.0 -11.478655 72.860886 0.0 -9.3345442 68.405281 0.0 -7.4981384 65.729118 0.0 -4.6411452 98.80345200000001 0.0 -17.368357 86.944153 0.0 -13.569804999999999 81.78139499999999 0.0 -12.833064 74.778961 0.0 -10.344118 69.20607 0.0 -7.953548 66.372345 0.0 -5.4036102 107.96037 0.0 -16.905092 95.026878 0.0 -14.568526 85.431099 0.0 -13.355628 75.770226 0.0 -10.398461 69.838249 0.0 -8.3574514 66.678146 0.0 -6.033422900000001 117.50478000000001 0.0 -15.027182 103.59399 0.0 -15.066747 88.149117 0.0 -13.383251999999999 76.951767 0.0 -10.274459 70.545052 0.0 -8.402734800000001 66.943451 0.0 -6.36409 129.42667 0.0 -19.543509 108.95315 0.0 -16.233324 91.372986 0.0 -13.033546000000001 78.706863 0.0 -10.017059 71.432236 0.0 -8.3551569 67.403137 0.0 -6.6348677 137.06325 0.0 -20.992476 114.92466999999999 0.0 -16.321959 95.351357 0.0 -12.498681 81.451111 0.0 -9.574126199999998 72.999199 0.0 -8.0619383 68.085403 0.0 -6.5488658 121.67459 0.0 -16.315363 100.50515 0.0 -11.965444999999999 85.205238 0.0 -8.821116400000001 75.369904 0.0 -7.396400900000001 69.352386 0.0 -6.2358422 129.41257 0.0 -16.435934 107.18343 0.0 -11.964771 90.392303 0.0 -8.3600559 78.75361600000001 0.0 -6.7282715 71.41152199999999 0.0 -5.7726741 115.5295 0.0 -12.025276 96.894882 0.0 -8.1356049 83.411377 0.0 -5.9510927 74.386292 0.0 -5.3013244 124.92942 0.0 -12.237430999999999 104.78215 0.0 -8.136004400000001 89.30242199999999 0.0 -5.2363911 78.392319 0.0 -4.5178747 114.83966000000001 0.0 -8.8495617 97.2034 0.0 -5.3525047 84.30238299999999 0.0 -3.7507186000000003 107.55752 0.0 -6.365081299999999 93.125908 0.0 -4.0085826 117.08327 0.0 -7.3604674 103.69631 0.0 -5.247839900000001 -1.72048 0.0 -0.20396864 -1.7693243000000003 0.0 -0.16165081 -1.7984828999999998 0.0 -0.12563238 -1.8130388 0.0 -0.09523862599999999 -1.8180628 0.0 -0.069661245 -1.8171959 0.0 -0.049442127 -1.8137488000000002 0.0 -0.032942268999999996 -1.8097372 0.0 -0.020131433 -1.8067875 0.0 -0.0094340751 -2.1925297 0.0 -0.24584156 -2.2494946 0.0 -0.19748469 -2.281764 0.0 -0.15615295 -2.2969451000000003 0.0 -0.11931606 -2.3003998 0.0 -0.088967904 -2.2971992 0.0 -0.064112246 -2.2912416 0.0 -0.043607078 -2.2851138 0.0 -0.027014818 -2.2807717 0.0 -0.01285132 -2.7537341 0.0 -0.25900871 -2.8197155 0.0 -0.21167517 -2.856266 0.0 -0.16915959 -2.8718142999999996 0.0 -0.13142744 -2.8736444 0.0 -0.099640898 -2.8680515 0.0 -0.072596058 -2.8593717 0.0 -0.050229736 -2.8509612 0.0 -0.031369179 -2.8450375 0.0 -0.015127307 -3.3719869 0.0 -0.25586051 -3.4467182000000003 0.0 -0.21222809 -3.4872632000000006 0.0 -0.1709716 -3.5030078999999996 0.0 -0.13484678 -3.5030879999999995 0.0 -0.10313538 -3.4947729 0.0 -0.076114282 -3.4832544000000003 0.0 -0.053281195 -3.4724431000000004 0.0 -0.033539757 -3.4649137999999997 0.0 -0.016179688 -4.057661100000001 0.0 -0.24449703 -4.1402168 0.0 -0.20435502 -4.1833897 0.0 -0.16635756 -4.1985121 0.0 -0.13275953 -4.196291 0.0 -0.10272294 -4.1847205 0.0 -0.07668870700000001 -4.1700358 0.0 -0.054061245 -4.156559 0.0 -0.034384891 -4.147310299999999 0.0 -0.016647682 -4.8251485999999995 0.0 -0.22884655 -4.9135222 0.0 -0.19325665 -4.9576244 0.0 -0.1596556 -4.9708986 0.0 -0.12885359 -4.965179 0.0 -0.10101824 -4.9496727 0.0 -0.076322258 -4.9312172 0.0 -0.05450232 -4.9147148000000005 0.0 -0.034988634 -4.9035149 0.0 -0.017109483 -5.6815653 0.0 -0.21448334 -5.7732892 0.0 -0.18498537 -5.816459200000001 0.0 -0.15628578 -5.826303500000001 0.0 -0.12816022 -5.8159752000000005 0.0 -0.10255421 -5.7956085 0.0 -0.078784674 -5.7726994000000005 0.0 -0.057161178 -5.752678400000001 0.0 -0.037159823 -5.739241099999999 0.0 -0.018295612 -6.6286254 0.0 -0.20932993 -6.7211466 0.0 -0.18747294 -6.7615929 0.0 -0.16322397 -6.766460899999999 0.0 -0.13788128 -6.7503672 0.0 -0.11275548 -6.7242975000000005 0.0 -0.08856573 -6.696374400000001 0.0 -0.065450229 -6.672399 0.0 -0.043096285 -6.6564379 0.0 -0.021395979 -7.6663857 0.0 -0.22682139 -7.7576194 0.0 -0.21203335 -7.7939205000000005 0.0 -0.19123182 -7.792845699999999 0.0 -0.16625252 -7.7701712 0.0 -0.13901345 -7.7377687 0.0 -0.11114808 -7.7042789 0.0 -0.083251059 -7.676011999999999 0.0 -0.055419005 -7.657315299999999 0.0 -0.027705349 -8.7948008 0.0 -0.2843982 -8.8833418 0.0 -0.2725521 -8.914893199999998 0.0 -0.25133422 -8.9075899 0.0 -0.22226201 -8.8780632 0.0 -0.18848781 -8.8390026 0.0 -0.15219106 -8.7996702 0.0 -0.11482658 -8.7668219 0.0 -0.076904595 -8.7452173 0.0 -0.038539818999999996 -10.013885 0.0 -0.39561152 -10.098964 0.0 -0.38275522 -10.1264 0.0 -0.35440207 -10.113502 0.0 -0.31480637 -10.077598 0.0 -0.26772586 -10.031967999999999 0.0 -0.21728913 -9.9867668 0.0 -0.16426115 -9.949297 0.0 -0.1099226 -9.9247274 0.0 -0.055013675 -11.324914 0.0 -0.5699091 -11.407698 0.0 -0.54858178 -11.432345 0.0 -0.50755972 -11.415491000000001 0.0 -0.45090607 -11.374553 0.0 -0.38268629 -11.323077 0.0 -0.30909666 -11.272356 0.0 -0.23374107 -11.230406 0.0 -0.15670718 -11.202852 0.0 -0.079206474 -12.730886 0.0 -0.81223285 -12.813346000000001 0.0 -0.77694345 -12.838298 0.0 -0.71421337 -12.820874 0.0 -0.62784117 -12.776301 0.0 -0.53359497 -12.720138 0.0 -0.43480149 -12.664937 0.0 -0.32894844 -12.619153 0.0 -0.21990485 -12.589221 0.0 -0.10981295 -14.235512 0.0 -1.1423396000000001 -14.323017000000002 0.0 -1.0634905000000001 -14.35165 0.0 -0.97159106 -14.335301999999999 0.0 -0.85566223 -14.290323999999998 0.0 -0.72559506 -14.231769 0.0 -0.58737206 -14.173545 0.0 -0.44386271 -14.124348999999999 0.0 -0.30051437 -14.092498 0.0 -0.1511575 -15.847709 0.0 -1.5396691999999998 -15.940818 0.0 -1.4165287 -15.978260999999998 0.0 -1.2753948999999998 -15.965441 0.0 -1.1274438 -15.923592000000001 0.0 -0.956025 -15.865995000000002 0.0 -0.77580112 -15.807089000000001 0.0 -0.58746982 -15.757632999999998 0.0 -0.39371753 -15.725110999999998 0.0 -0.19700266 -17.569525 0.0 -1.985095 -17.671795 0.0 -1.8121375 -17.720003 0.0 -1.6257973999999997 -17.717194 0.0 -1.4310607 -17.680347 0.0 -1.2248065000000001 -17.627539000000002 0.0 -0.99441963 -17.571316 0.0 -0.75609785 -17.52342 0.0 -0.50916225 -17.491688 0.0 -0.25588888 -19.393745000000003 0.0 -2.4609027 -19.515638 0.0 -2.2355169999999998 -19.580013 0.0 -2.0045271000000002 -19.591572 0.0 -1.7636405 -19.566063 0.0 -1.5137912 -19.523739000000003 0.0 -1.2354678999999997 -19.475576 0.0 -0.94358575 -19.433256 0.0 -0.63747168 -19.404772 0.0 -0.32083347 -21.319441 0.0 -2.921047 -21.467791000000002 0.0 -2.6561539 -21.555923 0.0 -2.392266 -21.589466 0.0 -2.1130967000000003 -21.586357 0.0 -1.8136543 -21.559401 0.0 -1.4943975 -21.526386 0.0 -1.1446857 -21.494825 0.0 -0.7763834 -21.473106 0.0 -0.39216423 -23.337782 0.0 -3.3410199 -23.519026 0.0 -3.0731224999999998 -23.645070999999998 0.0 -2.7819445 -23.712034 0.0 -2.4750392000000003 -23.739578 0.0 -2.1273382 -23.739136 0.0 -1.7637811999999997 -23.729864000000003 0.0 -1.3554924 -23.716127 0.0 -0.92150038 -23.705507 0.0 -0.46609429 -25.443199 0.0 -3.7388654000000003 -25.668986999999998 0.0 -3.4700968 -25.843451 0.0 -3.1634736 -25.960209 0.0 -2.8389542000000003 -26.032253 0.0 -2.4544314999999997 -26.069589999999998 0.0 -2.0273731 -26.091337 0.0 -1.5621482 -26.104589 0.0 -1.0660421999999998 -26.109949 0.0 -0.54017884 -27.625731 0.0 -4.097962399999999 -27.909363 0.0 -3.8328949999999997 -28.148275 0.0 -3.5285318 -28.326168 0.0 -3.1690185 -28.459234000000002 0.0 -2.7534063 -28.554333000000003 0.0 -2.2820539 -28.616065999999996 0.0 -1.7596165000000001 -28.662445 0.0 -1.1944561000000002 -28.691721 0.0 -0.6100682 -29.877518 0.0 -4.4076824 -30.235146000000004 0.0 -4.1592145 -30.547898999999997 0.0 -3.8387811000000003 -30.807903000000003 0.0 -3.4570522000000006 -31.018055 0.0 -3.0140245 -31.184853000000004 0.0 -2.5041041 -31.303735999999997 0.0 -1.9346343999999998 -31.394817 0.0 -1.3128518 -31.450155 0.0 -0.66361582 -32.189278 0.0 -4.6530099 -32.634609000000005 0.0 -4.4086875999999995 -33.039894 0.0 -4.0799297999999995 -33.398098 0.0 -3.6802082 -33.703587 0.0 -3.2163823 -33.958317 0.0 -2.6758525 -34.150352000000005 0.0 -2.0710845 -34.297222 0.0 -1.4071461 -34.387352 0.0 -0.70823503 -34.55172 0.0 -4.812448000000001 -35.097195 0.0 -4.565406299999999 -35.613116999999995 0.0 -4.2328067 -36.086246 0.0 -3.8173757000000004 -36.505096 0.0 -3.3373932999999996 -36.864703999999996 0.0 -2.7785439 -37.151385999999995 0.0 -2.1410563 -37.360172 0.0 -1.4631536 -37.492378 0.0 -0.73359221 -36.954105 0.0 -4.8589039000000005 -37.614204 0.0 -4.6116495 -38.256294 0.0 -4.2755718 -38.856602 0.0 -3.8590591 -39.410332000000004 0.0 -3.3564754 -39.891335 0.0 -2.7923374 -40.285441999999996 0.0 -2.1526015 -40.574532 0.0 -1.4526825 -40.75005 0.0 -0.73924065 -39.386337 0.0 -4.766712200000001 -40.174442 0.0 -4.5272445999999995 -40.957844 0.0 -4.188075100000001 -41.70491 0.0 -3.7649281 -42.399291999999996 0.0 -3.2615298999999998 -43.018822 0.0 -2.6898772999999996 -43.529484000000004 0.0 -2.070622 -43.91111 0.0 -1.4002178 -44.146938 0.0 -0.69731641 -41.839169 0.0 -4.5243349 -42.762428 0.0 -4.2747598 -43.706657 0.0 -3.9434476000000003 -44.613525 0.0 -3.5135531 -45.463196 0.0 -3.016247 -46.223225 0.0 -2.4670591 -46.857323 0.0 -1.8820671999999998 -47.334038 0.0 -1.2700933 -47.627571 0.0 -0.64346391 -44.293819 0.0 -4.1283259 -45.370144 0.0 -3.8700678 -46.48188 0.0 -3.5178727999999997 -47.562378 0.0 -3.0705342 -48.576607 0.0 -2.5740323 -49.48571 0.0 -2.0583699 -50.246016999999995 0.0 -1.5368917 -50.818893 0.0 -1.0196177 -51.174834999999995 0.0 -0.50850737 -46.686352 0.0 -3.5991256000000003 -47.942181 0.0 -3.2922367999999995 -49.237365999999994 0.0 -2.8730216 -50.500523 0.0 -2.3972757000000002 -51.682468 0.0 -1.9074107 -52.741638 0.0 -1.4449681 -53.629261 0.0 -1.031004 -54.302834 0.0 -0.65006161 -54.717388 0.0 -0.31295362 -48.92532 0.0 -2.8312252 -50.393879 0.0 -2.4603248 -51.889648 0.0 -1.9853006999999998 -53.336224 0.0 -1.478969 -54.685931999999994 0.0 -1.0087513000000001 -55.885311 0.0 -0.61909187 -56.878048 0.0 -0.33660284 -57.632492000000006 0.0 -0.18069418 -58.117293999999994 0.0 -0.067402475 -50.901394 0.0 -1.8098831999999998 -52.564964 0.0 -1.4011436000000002 -54.276966 0.0 -0.83328164 -55.897804 0.0 -0.25833318 -57.400558 0.0 0.19152401 -58.709015 0.0 0.51576608 -59.780239 0.0 0.5819543 -60.586783999999994 0.0 0.46051544 -61.134975 0.0 0.27791792 -52.51848199999999 0.0 -0.47012648 -54.367118999999995 0.0 0.034906343 -56.259617000000006 0.0 0.65187478 -58.023239000000004 0.0 1.2330956 -59.599357999999995 0.0 1.672179 -60.983738 0.0 1.9285026 -62.119915 0.0 1.8054249 -62.991455 0.0 1.3476918 -63.512787 0.0 0.73125666 -53.747292 0.0 1.1964611 -55.735507999999996 0.0 1.8412633000000003 -57.730038 0.0 2.5236075000000002 -59.571583 0.0 3.0604028999999997 -61.236931000000006 0.0 3.3796241 -62.673374 0.0 3.4012394 -63.864029 0.0 2.9270213 -64.745712 0.0 2.1807301 -65.195717 0.0 1.2295573 -54.528385 0.0 3.0941137999999997 -56.65406 0.0 3.9990246 -58.760014 0.0 4.8726182 -60.67602900000001 0.0 5.4584394 -62.36587900000001 0.0 5.5707273 -63.783908999999994 0.0 5.3742042 -64.989876 0.0 4.6128817 -65.813828 0.0 3.4620266 -66.313133 0.0 1.8290905 -54.645531000000005 0.0 4.853085 -57.007656000000004 0.0 6.208235299999999 -59.24929 0.0 7.364347500000001 -61.286381000000006 0.0 8.0555363 -63.10326800000001 0.0 8.1664648 -64.550713 0.0 7.7586708 -65.748459 0.0 6.5927367 -66.612686 0.0 4.8520532 -67.222443 0.0 2.5216522 -53.4496 0.0 5.055738 -56.218159 0.0 7.202845599999999 -58.788619999999995 0.0 8.807423599999998 -60.92045600000001 0.0 9.5752621 -62.724208999999995 0.0 9.3921413 -64.35685699999999 0.0 8.394715300000001 -65.878723 0.0 6.803640799999999 -67.079933 0.0 4.7855606 -67.826897 0.0 2.5422868999999997 -47.950325 0.0 0.66926253 -50.974579 0.0 3.1156836 -54.223969 0.0 4.839386900000001 -57.533287 0.0 5.529397 -60.43435699999999 0.0 5.5375276 -62.743412 0.0 5.0466394 -64.575836 0.0 4.1069636 -65.803497 0.0 2.9209864 -66.55365 0.0 1.5166186000000001 -30.975247999999997 0.0 2.6738994 -33.50943 0.0 5.122836599999999 -36.191902 0.0 6.7735218999999995 -38.794140000000006 0.0 7.4642992 -41.150311 0.0 7.282011 -43.156231 0.0 6.440711 -44.751213 0.0 5.1620412 -45.90374 0.0 3.5974274 -46.599453000000004 0.0 1.8466582999999999 -18.284557 0.0 6.139213099999999 -20.123018 0.0 8.393528 -22.152134 0.0 9.7461472 -24.198132 0.0 10.034759 -26.116264 0.0 9.408555 -27.800962 0.0 8.1206913 -29.175542999999998 0.0 6.4056372999999995 -30.188139000000003 0.0 4.4181833 -30.807182 0.0 2.2547455000000003 -10.252885000000001 0.0 8.530355499999999 -11.185363 0.0 10.746189 -12.340093 0.0 11.971986 -13.605031 0.0 12.050980000000001 -14.868993 0.0 11.161461 -16.036236 0.0 9.5726738 -17.025745 0.0 7.5244575 -17.775089 0.0 5.1788720999999995 -18.241395999999998 0.0 2.63978 -3.6348388 0.0 9.4909821 -3.7256233999999995 0.0 11.833502000000001 -4.015932100000001 0.0 13.126429000000002 -4.4604096 0.0 13.215232 -4.9956441 0.0 12.275134 -5.5522943 0.0 10.569859 -6.0625485999999995 0.0 8.3393917 -6.4694805 0.0 5.7559414 -6.7308712 0.0 2.9388986 3.95678 0.0 9.1160069 4.443853900000001 0.0 11.679527 4.8243341 0.0 13.17711 5.0782523 0.0 13.447887 5.2116637 0.0 12.637294 5.251678900000001 0.0 10.987435000000001 5.2335944 0.0 8.7346125 5.1920838 0.0 6.061152 5.1548977 0.0 3.1046019 13.253160000000001 0.0 7.8145961999999995 13.991589000000001 0.0 10.587273 14.770706 0.0 12.334014999999999 15.514610999999999 0.0 12.869523 16.171591 0.0 12.294079 16.715418 0.0 10.821149 17.136195999999998 0.0 8.680485699999998 17.432686 0.0 6.0614262000000005 17.607929000000002 0.0 3.1162179 23.702299 0.0 6.0723944 24.425376999999997 0.0 8.975882499999999 25.356251 0.0 10.930294 26.378801 0.0 11.720978 27.390290999999998 0.0 11.403111 28.309834000000002 0.0 10.163862 29.077606 0.0 8.225008 29.651784999999997 0.0 5.7775002 30.005562 0.0 2.9805898999999996 34.378044 0.0 4.3046656 34.943008 0.0 7.2387624000000015 35.866848 0.0 9.3073635 37.008518 0.0 10.278711 38.225437 0.0 10.175887 39.391369 0.0 9.1687756 40.402023 0.0 7.471750699999999 41.178204 0.0 5.2721615 41.665226000000004 0.0 2.7269978999999998 44.587391 0.0 2.7805432999999997 44.977074 0.0 5.6555743 45.831432 0.0 7.7327576 46.996086 0.0 8.784470599999999 48.304759999999995 0.0 8.8204079 49.602222 0.0 8.004478500000001 50.753899 0.0 6.5469913 51.653324 0.0 4.6288295 52.224243 0.0 2.3967723999999997 53.94618199999999 0.0 1.6176443999999999 54.21385600000001 0.0 4.3665614 54.98151800000001 0.0 6.3628235 56.051426 0.0 7.399261500000001 57.289756999999994 0.0 7.4935074 58.493187 0.0 6.8137383 59.557388 0.0 5.5680860999999995 60.371444999999994 0.0 3.9333388999999994 60.890202 0.0 2.0352983 60.853725 0.0 0.59509748 60.7071 0.0 3.1881316 60.958785999999996 0.0 5.0635352 61.443180000000005 0.0 6.0608182 62.043491 0.0 6.1824174 62.651545999999996 0.0 5.6531892 63.250510999999996 0.0 4.6362486 63.762809999999995 0.0 3.2820292 64.112579 0.0 1.7007511000000002 63.51504499999999 0.0 -0.64944577 63.105858 0.0 1.8709221 63.029433999999995 0.0 3.7025452000000003 63.124782999999994 0.0 4.6919651 63.454391 0.0 4.8772211 63.899754 0.0 4.4840655 64.310356 0.0 3.6802597 64.64858199999999 0.0 2.6035863999999997 64.87988299999999 0.0 1.3437651000000002 64.530151 0.0 -1.8930755000000001 64.033142 0.0 0.49279517 63.79448299999999 0.0 2.2594418999999997 63.786411 0.0 3.2000256 64.036339 0.0 3.5064952000000003 64.332573 0.0 3.3090632000000006 64.6577 0.0 2.7508867 64.925934 0.0 1.9432851000000002 65.114769 0.0 1.0042492 64.98313900000001 0.0 -2.8762142999999996 64.36286199999999 0.0 -0.71217334 64.193039 0.0 0.88471711 64.161392 0.0 1.8640308 64.226456 0.0 2.2377307 64.40477800000001 0.0 2.1391994999999997 64.626083 0.0 1.754998 64.80117 0.0 1.2609471 64.92083000000001 0.0 0.65688705 65.21096 0.0 -3.7832565000000002 64.44754 0.0 -1.7398296999999998 64.275032 0.0 -0.17577764 64.196411 0.0 0.8000831 64.216255 0.0 1.161853 64.335831 0.0 1.1729298000000001 64.457993 0.0 0.97839946 64.564796 0.0 0.67768794 64.647293 0.0 0.34618473 65.227974 0.0 -4.4368367 64.52134699999999 0.0 -2.7512537999999997 64.125031 0.0 -1.3227514999999999 63.949627 0.0 -0.38252047 63.99799300000001 0.0 0.18496522 64.082596 0.0 0.42480889 64.129326 0.0 0.39607331 64.155518 0.0 0.26823142 64.145905 0.0 0.12105818 65.283333 0.0 -4.8518066 64.304276 0.0 -3.4011421000000004 63.887302000000005 0.0 -2.2316675 63.69025 0.0 -1.3614712 63.568001 0.0 -0.83135092 63.471008 0.0 -0.44799921 63.485611 0.0 -0.10674007 63.461558999999994 0.0 -0.032857917 63.418434 0.0 -0.015491258999999999 65.340324 0.0 -5.1234836999999995 64.06280500000001 0.0 -3.939611 63.46073199999999 0.0 -2.902384 63.122879000000005 0.0 -2.0537970000000003 62.903149 0.0 -1.4283282 62.728813 0.0 -1.0020417 62.547107999999994 0.0 -0.67987406 62.378634999999996 0.0 -0.38366166 62.37208199999999 0.0 -0.1246119 65.649956 0.0 -5.1292577 63.826145 0.0 -4.3033719 62.887684 0.0 -3.3703741999999997 62.373047 0.0 -2.6512147999999995 61.998008999999996 0.0 -1.9720773999999999 61.681141000000004 0.0 -1.407217 61.422092000000006 0.0 -0.94170696 61.215061 0.0 -0.57470667 61.073981999999994 0.0 -0.27312961 66.526787 0.0 -4.896489099999999 63.803211 0.0 -4.2307515 62.370449 0.0 -3.6900327000000006 61.544804000000006 0.0 -2.9737909 60.960903 0.0 -2.4061866000000003 60.473228000000006 0.0 -1.7631246999999999 60.095051 0.0 -1.2006228 59.806881000000004 0.0 -0.68120617 59.639931000000004 0.0 -0.24135262 68.13314100000001 0.0 -4.5566726 64.31681800000001 0.0 -3.9690013 62.095158 0.0 -3.5466392 60.777992000000005 0.0 -3.1465552000000003 59.885796 0.0 -2.5130367000000002 59.22523100000001 0.0 -2.0191729 58.693264 0.0 -1.3968651 58.299755000000005 0.0 -0.80681938 58.147999 0.0 -0.32833284 70.825813 0.0 -4.0797443 65.643951 0.0 -3.5873597000000004 62.415932 0.0 -3.2360907 60.436699 0.0 -2.8608942 59.039531999999994 0.0 -2.4958086 58.077587 0.0 -1.9733093999999998 57.310280000000006 0.0 -1.4741077 56.835213 0.0 -0.88126761 56.666222 0.0 -0.43275827 74.982162 0.0 -3.2402337 68.461258 0.0 -3.0191958 63.889374 0.0 -2.7364697000000002 60.795520999999994 0.0 -2.5131917 58.736015 0.0 -2.1159582 57.238403000000005 0.0 -1.7578574 56.294247 0.0 -1.3664191 55.62534 0.0 -0.85594797 55.37951999999999 0.0 -0.49258161 81.443504 0.0 -2.66539 72.875839 0.0 -2.213413 66.743332 0.0 -2.0265651 62.550865 0.0 -1.9297729 59.414413 0.0 -1.6959897000000002 57.252304 0.0 -1.2957752 55.868389 0.0 -0.99631828 54.95528 0.0 -0.75701916 54.66836899999999 0.0 -0.38278809 90.67524 0.0 -2.9898797999999998 80.030876 0.0 -1.7374908 72.07518 0.0 -1.3121911 65.921127 0.0 -1.0359775 61.633114 0.0 -0.98128414 58.574096999999995 0.0 -0.82439131 56.546974 0.0 -0.46982357 55.467445 0.0 -0.22630735 54.670547 0.0 -0.10733083 101.0486 0.0 -4.1392169 89.38922099999999 0.0 -2.0450513 79.674683 0.0 -0.96280152 71.649612 0.0 -0.18323348 65.721947 0.0 0.12089051 61.48161700000001 0.0 0.29133135 58.771 0.0 0.25342205 57.256057999999996 0.0 0.29367626 56.618308999999996 0.0 0.29941985 99.27198800000001 0.0 -2.8319777999999998 88.931061 0.0 -1.1993418 79.61122900000001 0.0 0.27605107 72.252769 0.0 1.0013926 66.377708 0.0 1.6043941000000002 62.686489 0.0 1.6615360000000001 60.361954000000004 0.0 1.503279 59.595631000000004 0.0 1.2017693999999999 88.577515 0.0 0.20913863 80.560661 0.0 1.2878039 73.994949 0.0 2.2251147999999996 69.442375 0.0 2.5158944 66.307014 0.0 2.3438325 64.437302 0.0 1.6834135 82.258972 0.0 2.578227 77.574272 0.0 3.2027879 74.44994399999999 0.0 3.2083132 73.201988 0.0 2.1696086 -1.805706 0.0 1.1019438e-08 -1.8067923 0.0 0.009434751199999999 -1.8097314999999998 0.0 0.02013134 -1.8137488000000002 0.0 0.032942001 -1.8171988000000001 0.0 0.049441822 -1.8180571 0.0 0.069660828 -1.8130374 0.0 0.09523916199999999 -1.7984838 0.0 0.12563398 -2.2791758 0.0 -5.526324e-07 -2.2807674 0.0 0.012851897 -2.2851228999999997 0.0 0.027016416 -2.2912416 0.0 0.043608050999999995 -2.2971945 0.0 0.064112373 -2.3003945 0.0 0.088968053 -2.2969408 0.0 0.11931568 -2.2817631 0.0 0.1561534 -2.8429193 0.0 8.1672533e-07 -2.8450293999999996 0.0 0.01512713 -2.8509574 0.0 0.031369053 -2.8593759999999997 0.0 0.050230831 -2.8680587 0.0 0.072595879 -2.8736429 0.0 0.09964186 -2.8718232999999995 0.0 0.13142699 -2.8562727000000003 0.0 0.16915846 -3.4622545 0.0 -5.439606e-07 -3.4649115 0.0 0.01617993 -3.4724445 0.0 0.033539504 -3.4832553999999996 0.0 0.053280734 -3.4947739 0.0 0.076114967 -3.5030832000000003 0.0 0.10313657 -3.5030087999999995 0.0 0.13484675 -3.4872656 0.0 0.17097281 -4.1440535 0.0 -9.9526187e-07 -4.1473112 0.0 0.016642143999999998 -4.1565609 0.0 0.034383625 -4.1700311 0.0 0.054061729 -4.1847186 0.0 0.076689646 -4.1962852 0.0 0.10272283 -4.1985159 0.0 0.13275906 -4.1833906 0.0 0.16636151 -4.8995628 0.0 -1.715693e-06 -4.9035149 0.0 0.01710676 -4.9147072 0.0 0.034986373 -4.9312195999999995 0.0 0.054502733 -4.9496779 0.0 0.07632231 -4.9651747 0.0 0.10101693 -4.9709029000000005 0.0 0.12885579 -4.9576235 0.0 0.15965414 -5.734521400000001 0.0 1.2142982e-06 -5.7392468 0.0 0.018297583 -5.752683599999999 0.0 0.037155102999999995 -5.7727084 0.0 0.057162628 -5.79561 0.0 0.078784019 -5.8159738 0.0 0.10255367 -5.8263011 0.0 0.12816033 -5.8164477 0.0 0.15628031 -6.6508532 0.0 3.0962101000000003e-06 -6.6564322 0.0 0.021397874 -6.6723962 0.0 0.04309186 -6.696374400000001 0.0 0.065450139 -6.7243071 0.0 0.088564016 -6.7503667 0.0 0.1127552 -6.766460899999999 0.0 0.13787881 -6.761595699999999 0.0 0.16322851 -7.650798299999999 0.0 -2.4414803e-06 -7.657311 0.0 0.027703559 -7.6760149 0.0 0.055417996 -7.7042798999999995 0.0 0.083253592 -7.737761 0.0 0.11114928 -7.770172099999999 0.0 0.13901366 -7.792841 0.0 0.16625257 -7.7939196 0.0 0.19123763 -8.7377005 0.0 1.408971e-06 -8.7452278 0.0 0.038538225 -8.766815199999998 0.0 0.07690075 -8.7996683 0.0 0.11482587 -8.8389988 0.0 0.15219136 -8.8780689 0.0 0.18848442 -8.9075871 0.0 0.22226532 -8.914902699999999 0.0 0.25134438 -9.916236900000001 0.0 -3.3723140000000003e-06 -9.9247227 0.0 0.055005252000000004 -9.949287400000001 0.0 0.10991601 -9.9867477 0.0 0.16425958 -10.031974 0.0 0.21729027 -10.07761 0.0 0.26772729 -10.113503 0.0 0.31480983 -10.126386 0.0 0.35439721 -11.193374 0.0 -5.651705599999999e-06 -11.202853999999999 0.0 0.079214856 -11.230416 0.0 0.15670836 -11.272343 0.0 0.23374122 -11.323071 0.0 0.30909422 -11.374561 0.0 0.38268727 -11.415497 0.0 0.45090264 -11.432347 0.0 0.50755787 -12.578732 0.0 -8.3298974e-06 -12.589228 0.0 0.10981506 -12.619148 0.0 0.21989809 -12.664942 0.0 0.32894707 -12.720139999999999 0.0 0.43480161 -12.776297999999999 0.0 0.5335924 -12.820869 0.0 0.62784296 -12.838292 0.0 0.71420544 -14.081485999999998 0.0 -7.0598835e-06 -14.092501 0.0 0.15115722 -14.124348000000001 0.0 0.30051744 -14.173542000000001 0.0 0.44385901 -14.231763 0.0 0.58737355 -14.290313000000001 0.0 0.72559392 -14.335313000000001 0.0 0.85565835 -14.351655 0.0 0.97159451 -15.714032000000001 0.0 4.371359e-06 -15.725132 0.0 0.19699699 -15.757635999999998 0.0 0.39371687 -15.807078 0.0 0.58746636 -15.866004 0.0 0.77580214 -15.923597000000001 0.0 0.95602643 -15.96545 0.0 1.1274505 -15.978234 0.0 1.2753839 -17.480549 0.0 -6.3601547e-06 -17.491685999999998 0.0 0.25587723 -17.52342 0.0 0.50916553 -17.571327 0.0 0.75609595 -17.62752 0.0 0.99442047 -17.680332 0.0 1.224805 -17.717207000000002 0.0 1.4310659 -17.720009 0.0 1.6258011 -19.394683999999998 0.0 -1.5462340999999998e-05 -19.404741 0.0 0.32083523 -19.433243 0.0 0.63747001 -19.475592000000002 0.0 0.94359225 -19.523751999999998 0.0 1.2354673999999999 -19.566057 0.0 1.5137863 -19.591593 0.0 1.7636477 -19.580032 0.0 2.0045328000000002 -21.465412 0.0 -2.4834644e-06 -21.473095 0.0 0.3921729 -21.494825 0.0 0.77637649 -21.526398 0.0 1.144682 -21.559399 0.0 1.4943888 -21.586411 0.0 1.8136452 -21.589476 0.0 2.1130929 -21.555927 0.0 2.3922703 -23.701488 0.0 5.9732538e-06 -23.705510999999998 0.0 0.46609247 -23.716122 0.0 0.92149508 -23.729851 0.0 1.3554859 -23.739136 0.0 1.7637737 -23.739613000000002 0.0 2.1273205 -23.712044 0.0 2.4750389999999998 -23.645103 0.0 2.7819523999999998 -26.111373999999998 0.0 -3.5145713000000003e-06 -26.109955 0.0 0.54016852 -26.104585999999998 0.0 1.0660257 -26.091345 0.0 1.5621421 -26.069588 0.0 2.027359 -26.032308999999998 0.0 2.4544082 -25.960214999999998 0.0 2.8389456 -25.843454 0.0 3.1634927000000004 -28.700772999999998 0.0 8.923576400000001e-06 -28.691664000000003 0.0 0.61007804 -28.662390000000002 0.0 1.1944612 -28.616056 0.0 1.7596033 -28.554331 0.0 2.2820342 -28.459253000000004 0.0 2.7533875 -28.326190999999998 0.0 3.1690240000000003 -28.148234999999996 0.0 3.5285327000000004 -31.47121 0.0 -1.3595161e-05 -31.450115000000004 0.0 0.66360229 -31.394835999999998 0.0 1.3128468999999998 -31.303728000000003 0.0 1.9346223000000002 -31.184864 0.0 2.5040841 -31.018028 0.0 3.0140017999999995 -30.807962 0.0 3.4570494 -30.547873 0.0 3.8388042 -34.421314 0.0 -1.5722606e-05 -34.387318 0.0 0.7082395 -34.297290999999994 0.0 1.4071451000000001 -34.150414000000005 0.0 2.0710783 -33.958317 0.0 2.6758311000000004 -33.703598 0.0 3.2163599 -33.398078999999996 0.0 3.680196 -33.039829 0.0 4.0799297999999995 -37.542194 0.0 -3.0737883e-06 -37.492332 0.0 0.73357838 -37.360134 0.0 1.463135 -37.151379 0.0 2.1410463 -36.864697 0.0 2.7785251 -36.505127 0.0 3.3373760999999997 -36.086208 0.0 3.8173672999999995 -35.613083 0.0 4.232792900000001 -40.814533000000004 0.0 -2.9546395e-06 -40.750019 0.0 0.73922306 -40.574574 0.0 1.4526881999999999 -40.285472999999996 0.0 2.1525912 -39.891388 0.0 2.7923317 -39.410343 0.0 3.3564737 -38.856559999999995 0.0 3.8590524 -38.25626 0.0 4.2755694 -44.223415 0.0 -7.577373299999999e-06 -44.146954 0.0 0.69730848 -43.911179 0.0 1.4002281 -43.529441999999996 0.0 2.0706198000000002 -43.01878 0.0 2.6898703999999998 -42.399269 0.0 3.2615249 -41.70499 0.0 3.7649283 -40.957878 0.0 4.1880784 -47.727512 0.0 -3.4776895000000005e-07 -47.627548 0.0 0.64343649 -47.333984 0.0 1.2700869 -46.8573 0.0 1.8820651000000002 -46.223267 0.0 2.4670601000000003 -45.463112 0.0 3.0162506000000002 -44.613552 0.0 3.5135365 -43.70673 0.0 3.9434623999999996 -51.295464 0.0 -6.0819875e-06 -51.174834999999995 0.0 0.50849932 -50.818882 0.0 1.0196224 -50.245971999999995 0.0 1.5368896 -49.48563 0.0 2.0583744 -48.576640999999995 0.0 2.5740317999999998 -47.562439000000005 0.0 3.0705245 -46.481701 0.0 3.5178759 -54.858063 0.0 1.3052457e-05 -54.717377 0.0 0.31297019 -54.302783999999996 0.0 0.65006202 -53.629162 0.0 1.0310082 -52.74154300000001 0.0 1.4449556000000001 -51.682442 0.0 1.9074057 -50.500587 0.0 2.3972757000000002 -49.237408 0.0 2.8730102000000004 -58.273422 0.0 2.1158047999999998e-06 -58.117287 0.0 0.06740521599999999 -57.632431000000004 0.0 0.1807024 -56.878131999999994 0.0 0.33661532 -55.885383999999995 0.0 0.61908871 -54.685871 0.0 1.0087428 -53.336245999999996 0.0 1.4789754 -51.889618 0.0 1.9852938999999998 -61.312943000000004 0.0 6.505069899999999e-07 -61.13496800000001 0.0 -0.27792573 -60.586777000000005 0.0 -0.46051365 -59.780257999999996 0.0 -0.58195966 -58.7089 0.0 -0.51576197 -57.400517 0.0 -0.19152236 -55.897873 0.0 0.25833726 -54.277007999999995 0.0 0.83328122 -63.681137 0.0 4.5266461e-06 -63.512691000000004 0.0 -0.73125947 -62.991282999999996 0.0 -1.3476958 -62.119930000000004 0.0 -1.8054215 -60.983695999999995 0.0 -1.9284928 -59.599444999999996 0.0 -1.6721728 -58.023143999999995 0.0 -1.2330961999999999 -56.259682 0.0 -0.65187514 -65.348045 0.0 -7.7338482e-06 -65.195724 0.0 -1.2295549 -64.745789 0.0 -2.180732 -63.863949 0.0 -2.9270217 -62.673320999999994 0.0 -3.4012382000000003 -61.236961 0.0 -3.3796146 -59.571608999999995 0.0 -3.0604107000000003 -57.730137 0.0 -2.5236068 -66.418488 0.0 -1.2428238e-05 -66.313164 0.0 -1.8290925999999998 -65.813843 0.0 -3.4620154000000003 -64.989876 0.0 -4.6128778 -63.783878 0.0 -5.3741956 -62.365868000000006 0.0 -5.5707321 -60.67599499999999 0.0 -5.458434099999999 -58.760059 0.0 -4.8725915 -67.38803100000001 0.0 -7.9245656e-06 -67.222389 0.0 -2.5216656000000004 -66.612633 0.0 -4.8520675 -65.74834399999999 0.0 -6.5927348 -64.55074300000001 0.0 -7.758667 -63.10323 0.0 -8.1664534 -61.28643 0.0 -8.0555172 -59.24929399999999 0.0 -7.364356 -68.015701 0.0 5.5278724e-06 -67.82686600000001 0.0 -2.5422868999999997 -67.07997900000001 0.0 -4.785555400000001 -65.878731 0.0 -6.8036289000000005 -64.35701800000001 0.0 -8.3947029 -62.724247 0.0 -9.392130900000002 -60.920429000000006 0.0 -9.5752535 -58.788563 0.0 -8.8073978 -66.810051 0.0 -3.8091202000000005e-06 -66.553635 0.0 -1.5166175 -65.803528 0.0 -2.9209831000000004 -64.575836 0.0 -4.1069584 -62.74343100000001 0.0 -5.0466275000000005 -60.43441800000001 0.0 -5.5375065999999995 -57.533145999999995 0.0 -5.5293875 -54.223991000000005 0.0 -4.8393654999999995 -46.832119 0.0 -7.0600508e-06 -46.599598 0.0 -1.8466601000000002 -45.90379 0.0 -3.5974233 -44.751244 0.0 -5.162032599999999 -43.156197 0.0 -6.4406967 -41.150321999999996 0.0 -7.2819929000000005 -38.794075 0.0 -7.4642773 -36.191952 0.0 -6.7735071 -31.01543 0.0 -1.6071222e-05 -30.807215000000003 0.0 -2.2547472 -30.188128000000003 0.0 -4.4181905 -29.175465000000003 0.0 -6.405632499999999 -27.800953000000003 0.0 -8.120674099999999 -26.11632 0.0 -9.4085407 -24.198086 0.0 -10.034737 -22.152098000000002 0.0 -9.7461319 -18.399527 0.0 -7.3831325e-06 -18.241425 0.0 -2.6398002999999997 -17.775051 0.0 -5.1788739999999995 -17.025698000000002 0.0 -7.524447400000001 -16.036179999999998 0.0 -9.5726528 -14.869114000000001 0.0 -11.161441 -13.604999 0.0 -12.050967 -12.340017 0.0 -11.971963 -6.820945699999999 0.0 -2.3631699e-05 -6.7308979 0.0 -2.9388971 -6.469493900000001 0.0 -5.755936599999999 -6.0625024000000005 0.0 -8.339386 -5.5522852 0.0 -10.569846 -4.995681299999999 0.0 -12.275103999999999 -4.460547 0.0 -13.215186 -4.0159378 0.0 -13.126398000000002 5.140520099999999 0.0 1.6477403e-05 5.154906700000001 0.0 -3.1045954 5.1921824999999995 0.0 -6.061152900000001 5.2336245 0.0 -8.734604800000001 5.2517014 0.0 -10.987423 5.2116365 0.0 -12.637265 5.0781031 0.0 -13.447857 4.824397599999999 0.0 -13.177078 17.665897 0.0 4.9429218e-06 17.607976999999998 0.0 -3.116205 17.432638 0.0 -6.061416099999999 17.136143 0.0 -8.680483800000001 16.715410000000002 0.0 -10.821143 16.171568 0.0 -12.294056 15.514625 0.0 -12.869480000000001 14.770665 0.0 -12.333979 30.124916 0.0 2.4399298e-05 30.005484000000003 0.0 -2.9805691000000003 29.651726 0.0 -5.777493 29.077603999999997 0.0 -8.2250118 28.309948 0.0 -10.163862 27.390265000000003 0.0 -11.403091 26.378798 0.0 -11.720951 25.356243 0.0 -10.930264 41.831173 0.0 2.6714226e-05 41.665192 0.0 -2.7269638 41.178191999999996 0.0 -5.2721580999999995 40.402004 0.0 -7.4717541 39.391384 0.0 -9.1687775 38.225376000000004 0.0 -10.175881 37.008617 0.0 -10.278698 35.866772 0.0 -9.307328199999999 52.419743 0.0 2.1830578999999996e-05 52.224232 0.0 -2.3967392000000003 51.653286 0.0 -4.6288257 50.753925 0.0 -6.546996099999999 49.602245 0.0 -8.0044813 48.304813 0.0 -8.820405000000001 46.995964 0.0 -8.7844648 45.831436 0.0 -7.732739 61.059718999999994 0.0 1.7037539e-05 60.89028199999999 0.0 -2.0352764 60.371371999999994 0.0 -3.9333317 59.557251 0.0 -5.5680871 58.493191 0.0 -6.8137417000000005 57.289744999999996 0.0 -7.493511200000001 56.051421999999995 0.0 -7.3992605 54.981434 0.0 -6.362813500000001 64.23853299999999 0.0 7.5086864000000004e-06 64.112549 0.0 -1.7007375 63.762657 0.0 -3.2820237 63.250416 0.0 -4.6362491 62.65150799999999 0.0 -5.6531997 62.043503 0.0 -6.1824188 61.443241 0.0 -6.060821099999999 60.958721 0.0 -5.063529 64.96217299999999 0.0 4.9576192e-06 64.879814 0.0 -1.3437579 64.648453 0.0 -2.6035824 64.31021899999999 0.0 -3.6802585 63.899733999999995 0.0 -4.4840722 63.454327 0.0 -4.8772268 63.124825 0.0 -4.6919675000000005 63.02940400000001 0.0 -3.702548 65.181961 0.0 9.4499046e-06 65.1147 0.0 -1.0042411 64.926018 0.0 -1.9432862000000002 64.657829 0.0 -2.7508863999999997 64.33244300000001 0.0 -3.3090718 64.03643000000001 0.0 -3.5064992999999993 63.786407 0.0 -3.2000384 63.794453000000004 0.0 -2.2594492 64.970192 0.0 1.6626727e-06 64.920753 0.0 -0.65688854 64.801186 0.0 -1.2609442 64.62616700000001 0.0 -1.7550008999999998 64.40479300000001 0.0 -2.1392012 64.226318 0.0 -2.2377279 64.161369 0.0 -1.8640308 64.193031 0.0 -0.88471454 64.678169 0.0 -2.8015710999999998e-06 64.647247 0.0 -0.3461799 64.56485699999999 0.0 -0.67767984 64.458061 0.0 -0.97840381 64.335876 0.0 -1.1729273999999998 64.216301 0.0 -1.1618469 64.19628900000001 0.0 -0.8000868 64.27507 0.0 0.17576739 64.1549 0.0 -4.767182000000001e-06 64.145844 0.0 -0.12105228 64.155396 0.0 -0.26822436 64.129211 0.0 -0.39607358 64.082451 0.0 -0.42480671 63.997997 0.0 -0.1849591 63.949665 0.0 0.38252255 64.125099 0.0 1.322754 63.406002 0.0 9.8334567e-09 63.418468000000004 0.0 0.015492587 63.461514 0.0 0.032865286 63.48571 0.0 0.10673331 63.471092000000006 0.0 0.44799531 63.568107999999995 0.0 0.83135325 63.69035 0.0 1.3614641 63.887333 0.0 2.2316527 62.342751 0.0 1.1074371e-06 62.372078 0.0 0.12461814 62.37860500000001 0.0 0.38365644 62.547024 0.0 0.67988551 62.728825 0.0 1.0020483 62.90323299999999 0.0 1.4283271 63.122845 0.0 2.0538142 63.46074300000001 0.0 2.902374 61.04251899999999 0.0 1.3229473999999999e-06 61.073981999999994 0.0 0.27313033 61.215194999999994 0.0 0.57470042 61.422138000000004 0.0 0.94170672 61.681187 0.0 1.4072113000000002 61.997944 0.0 1.9720808 62.373016 0.0 2.6512458 62.887722 0.0 3.3703856 59.70599 0.0 1.6505241e-05 59.639965000000004 0.0 0.24135111 59.806961 0.0 0.68120092 60.095013 0.0 1.2006306999999998 60.473225 0.0 1.7631167 60.961009999999995 0.0 2.406173 61.544716 0.0 2.9737994999999997 62.370464 0.0 3.6900446000000002 58.147079000000005 0.0 -6.174865099999999e-06 58.147971999999996 0.0 0.32832786 58.299769999999995 0.0 0.80681062 58.693153 0.0 1.3968758999999997 59.225216 0.0 2.019177 59.885780000000004 0.0 2.5130310000000002 60.778045999999996 0.0 3.1465572999999996 62.095177 0.0 3.5466623 56.616749 0.0 -5.6983481e-06 56.66621 0.0 0.43274224 56.835205 0.0 0.88126868 57.310276 0.0 1.4741071000000001 58.077656000000005 0.0 1.9733029999999998 59.03955799999999 0.0 2.4957886 60.436648999999996 0.0 2.8608911 62.415874 0.0 3.2360987999999997 55.279739 0.0 2.914865e-06 55.379490000000004 0.0 0.49258074 55.62528199999999 0.0 0.85593742 56.294292000000006 0.0 1.3664113000000002 57.23836899999999 0.0 1.7578748 58.736034 0.0 2.1159575 60.795609 0.0 2.5131655 63.889359 0.0 2.7364624 54.340355 0.0 -1.4387188e-06 54.66834300000001 0.0 0.38277116 54.95528 0.0 0.75701839 55.868401 0.0 0.996315 57.252269999999996 0.0 1.2957871 59.414314000000005 0.0 1.6960186000000002 62.550861 0.0 1.9297887999999999 66.743378 0.0 2.0265477 54.771141 0.0 -7.4862328e-08 54.67054399999999 0.0 0.10733178 55.467361 0.0 0.226307 56.546958999999994 0.0 0.46981466 58.574123 0.0 0.82439685 61.633137 0.0 0.98128486 65.921089 0.0 1.0359809000000002 72.075142 0.0 1.312207 56.127228 0.0 -1.9625877e-06 56.618317000000005 0.0 -0.29942816 57.256035 0.0 -0.29368395 58.771076 0.0 -0.25340468 61.481606000000006 0.0 -0.29134256 65.72197 0.0 -0.12088537 71.649551 0.0 0.18325037 79.674644 0.0 0.96280313 59.087364 0.0 -1.0843796e-05 59.595562 0.0 -1.2017831 60.361973 0.0 -1.5032709999999998 62.686493000000006 0.0 -1.6615398000000001 66.37773100000001 0.0 -1.6043811000000001 72.252708 0.0 -1.0013735000000001 79.611298 0.0 -0.2760635 88.931053 0.0 1.1993409 63.875473 0.0 -1.4026008999999999e-05 64.43737800000001 0.0 -1.683428 66.307022 0.0 -2.343843 69.44234499999999 0.0 -2.5159062999999997 73.994888 0.0 -2.225091 80.560677 0.0 -1.2878087 88.577522 0.0 -0.20913661 73.16364300000001 0.0 -6.381975300000001e-06 73.202065 0.0 -2.1696095 74.44998199999999 0.0 -3.2083366 77.574303 0.0 -3.2027924 82.258926 0.0 -2.5782201000000002 -1.7693281000000003 0.0 0.16164953 -1.7204852 0.0 0.20396984 -1.6490711999999998 0.0 0.24922949 -1.5519114 0.0 0.29842097 -1.4270439 0.0 0.34835362 -1.2724895 0.0 0.39368451 -1.0860436000000002 0.0 0.42485583 -2.2494912 0.0 0.19748461 -2.1925321 0.0 0.24584153 -2.1064782 0.0 0.29895252 -1.9892048999999998 0.0 0.352934 -1.8372511999999999 0.0 0.40474677 -1.6426330000000002 0.0 0.4483943 -1.3885188 0.0 0.4762938 -1.0509583999999998 0.0 0.55090189 -2.8197103 0.0 0.21167512 -2.7537298 0.0 0.2590085 -2.6526674999999997 0.0 0.30920112 -2.5136523 0.0 0.36073542 -2.3355522 0.0 0.40748501 -2.104845 0.0 0.45299959 -1.8025541 0.0 0.49390006 -1.3882728000000002 0.0 0.56561017 -3.4467196 0.0 0.21223038 -3.3719878 0.0 0.25586161 -3.2557402 0.0 0.30239794 -3.0968549 0.0 0.34940171 -2.8946557 0.0 0.39253271 -2.6379869 0.0 0.43431497 -2.2951912999999995 0.0 0.4758842 -1.7981625 0.0 0.56128454 -4.1402197 0.0 0.20435518 -4.0576644 0.0 0.24449612 -3.9278525999999996 0.0 0.28597134 -3.7504432 0.0 0.32770425 -3.5296792999999997 0.0 0.36321843 -3.2485211 0.0 0.40221071 -2.8653641 0.0 0.44553995 -2.2786598 0.0 0.55698586 -4.9135199 0.0 0.19325778 -4.8251519 0.0 0.22885194 -4.6845713 0.0 0.26344094 -4.491807 0.0 0.29780871 -4.2547269 0.0 0.32516718 -3.9528821000000005 0.0 0.36034703 -3.5301766000000003 0.0 0.40969515 -2.8443408 0.0 0.5619359 -5.7732964 0.0 0.1849851 -5.6815643 0.0 0.21447679 -5.5332303 0.0 0.24006398 -5.3294692 0.0 0.26437515 -5.0777717 0.0 0.28596115 -4.7642317 0.0 0.31561613 -4.3074899 0.0 0.379179 -3.5146608 0.0 0.59300518 -6.721140400000001 0.0 0.18747428 -6.628630599999999 0.0 0.20933808 -6.4755778 0.0 0.22490516 -6.2638474 0.0 0.24071378 -6.0113974 0.0 0.2484138 -5.687821400000001 0.0 0.28482246 -5.2105079000000005 0.0 0.37189865 -4.3120155 0.0 0.67086887 -7.757616499999999 0.0 0.21203655 -7.6663837 0.0 0.22682327 -7.5118322 0.0 0.23329681 -7.2999592 0.0 0.23756045 -7.0468712 0.0 0.23981166 -6.720994900000001 0.0 0.2892642 -6.2523960999999995 0.0 0.39252758 -5.290156400000001 0.0 0.7624197 -8.883332300000001 0.0 0.27254567 -8.7948008 0.0 0.28440046 -8.6422338 0.0 0.28385967 -8.4331446 0.0 0.28009903 -8.1889582 0.0 0.2709167 -7.889433400000001 0.0 0.31281424 -7.4615817 0.0 0.4130888 -6.563446000000001 0.0 0.7377367 -10.098961 0.0 0.38275537 -10.013886999999999 0.0 0.39560598 -9.865260099999999 0.0 0.39243063 -9.669775 0.0 0.37354803 -9.4499369 0.0 0.34692121 -9.2118835 0.0 0.35172606 -8.8891573 0.0 0.42317486 -8.224647500000001 0.0 0.58395767 -11.407691999999999 0.0 0.5485692 -11.324926 0.0 0.56992096 -11.182021 0.0 0.57074964 -11.01065 0.0 0.53414035 -10.831669999999999 0.0 0.50343966 -10.684145 0.0 0.49551868 -10.541777 0.0 0.58764839 -10.041771 0.0 0.86815262 -12.813348 0.0 0.77694184 -12.730891999999999 0.0 0.8122378 -12.593349 0.0 0.83678269 -12.456516 0.0 0.81660408 -12.358272 0.0 0.84136915 -12.354046 0.0 0.98883772 -12.399328 0.0 1.5011492 -12.091084 0.0 2.4538088 -14.323011 0.0 1.0634845 -14.235504 0.0 1.1423347 -14.110045999999999 0.0 1.2012103 -14.012926 0.0 1.2602544 -14.037022 0.0 1.4029731 -14.238273000000001 0.0 1.8074861 -14.576538000000001 0.0 2.6518869 -14.709626 0.0 3.7735577000000005 -15.940818 0.0 1.416533 -15.847691000000001 0.0 1.5396851 -15.732179 0.0 1.655544 -15.685645999999998 0.0 1.8264445 -15.840010999999999 0.0 2.0886524 -16.311041 0.0 2.6261485 -17.071486 0.0 3.5141184 -17.78154 0.0 4.6457195 -17.671799 0.0 1.8121394 -17.56951 0.0 1.9850941000000002 -17.453854 0.0 2.1695745 -17.444872 0.0 2.401118 -17.727427 0.0 2.7526143 -18.464954000000002 0.0 3.3440540000000003 -19.660204 0.0 4.2233890999999995 -21.006001 0.0 5.3462868 -19.515614000000003 0.0 2.2355192 -19.39374 0.0 2.4609039 -19.273676000000002 0.0 2.6781330000000003 -19.294973000000002 0.0 2.9498272 -19.679247 0.0 3.3498650000000003 -20.651220000000002 0.0 3.9640985 -22.253007999999998 0.0 4.842474500000001 -24.191969 0.0 6.003889099999999 -21.467787 0.0 2.6561759 -21.319471 0.0 2.9210372000000002 -21.178722 0.0 3.1747949 -21.223579 0.0 3.4512899 -21.698202 0.0 3.8695831 -22.879524 0.0 4.509119999999999 -24.844368 0.0 5.417089900000001 -27.277696999999996 0.0 6.6642842 -23.519018 0.0 3.0731467999999995 -23.337805 0.0 3.3410251000000004 -23.175410999999997 0.0 3.6091347000000003 -23.230434 0.0 3.8997786 -23.793051000000002 0.0 4.3264294 -25.185242000000002 0.0 4.9995818 -27.490999 0.0 5.989631200000001 -30.364753999999998 0.0 7.335116900000001 -25.668991000000002 0.0 3.4701052000000003 -25.44323 0.0 3.7388722999999997 -25.246342000000002 0.0 3.9929328 -25.312748000000003 0.0 4.295683900000001 -25.970242000000002 0.0 4.7365561 -27.588884000000004 0.0 5.4431682 -30.254313 0.0 6.5364709 -33.581028 0.0 8.0120163 -27.909370000000003 0.0 3.8329012000000002 -27.625738000000002 0.0 4.098001 -27.388083 0.0 4.344883900000001 -27.458864000000002 0.0 4.6336489 -28.222925 0.0 5.0988302 -30.084847999999997 0.0 5.8523903 -33.144833 0.0 7.051914699999999 -36.977859 0.0 8.6551924 -30.235167999999998 0.0 4.1592059 -29.877506 0.0 4.4077077000000005 -29.588919 0.0 4.6474833 -29.662876 0.0 4.9306931 -30.5415 0.0 5.4105573 -32.665955 0.0 6.2130694 -36.155907 0.0 7.527822500000001 -40.536095 0.0 9.2924614 -32.634621 0.0 4.408697599999999 -32.189278 0.0 4.652999400000001 -31.839264 0.0 4.886386900000001 -31.914209000000003 0.0 5.1702685 -32.913918 0.0 5.6593450999999995 -35.322159 0.0 6.515206299999999 -39.281040000000004 0.0 7.946763000000001 -44.257778 0.0 9.8968906 -35.097176 0.0 4.5654129999999995 -34.55167 0.0 4.8124752 -34.128921999999996 0.0 5.0401878 -34.200516 0.0 5.3249664 -35.328094 0.0 5.8293428 -38.045799 0.0 6.7413678 -42.517067 0.0 8.2920399 -48.144302 0.0 10.451842 -37.614117 0.0 4.611645200000001 -36.954128000000004 0.0 4.8588953 -36.44846 0.0 5.081859099999999 -36.513141999999995 0.0 5.3642669000000005 -37.777634 0.0 5.8940711 -40.835297 0.0 6.8651184999999995 -45.870441 0.0 8.536219599999999 -52.213436 0.0 10.940489 -40.174458 0.0 4.5272012 -39.386307 0.0 4.7667098 -38.790306 0.0 4.984521400000001 -38.853065 0.0 5.2834544 -40.264328000000006 0.0 5.8104544 -43.697701 0.0 6.8495178 -49.364925 0.0 8.651638 -56.523883999999995 0.0 11.341725 -42.762375 0.0 4.2747564 -41.839146 0.0 4.5243367999999995 -41.147655 0.0 4.7349695999999994 -41.212059 0.0 5.007381400000001 -42.787296000000005 0.0 5.5361209 -46.645374 0.0 6.652926 -53.038498 0.0 8.609132800000001 -61.173512 0.0 11.638324 -45.370135999999995 0.0 3.8701122000000003 -44.293789000000004 0.0 4.128322600000001 -43.496753999999996 0.0 4.3307514000000005 -43.562603 0.0 4.5426373 -45.33181 0.0 5.0498719 -49.666637 0.0 6.255578 -56.916233 0.0 8.394913699999998 -66.25811 0.0 11.819847 -47.942127 0.0 3.2922404000000003 -46.686295 0.0 3.5991359 -45.766521000000004 0.0 3.7644835 -45.826088 0.0 3.9375701000000003 -47.835922 0.0 4.3724970999999995 -52.708115 0.0 5.650156 -60.947849 0.0 8.0047121 -71.765945 0.0 11.885464 -50.393925 0.0 2.4603264 -48.925358 0.0 2.8312299 -47.822495 0.0 3.0816828999999997 -47.827148 0.0 3.2978648999999995 -50.118565000000004 0.0 3.6252456 -55.646091000000006 0.0 4.8147879 -64.942863 0.0 7.469697 -77.45533 0.0 11.923805 -52.565006000000004 0.0 1.4011461 -50.901337 0.0 1.8098931 -49.626442 0.0 2.1399673999999997 -49.556499 0.0 2.3813468999999996 -51.960964000000004 0.0 2.9342415 -58.260899 0.0 3.9251926 -68.631401 0.0 6.833833199999999 -82.939362 0.0 12.084048 -54.367068999999994 0.0 -0.034910716 -52.51838299999999 0.0 0.47011459 -51.105434 0.0 0.82520479 -50.998515999999995 0.0 1.2703438999999999 -53.520187 0.0 1.9687194 -60.04250699999999 0.0 3.7000141 -71.60329399999999 0.0 6.4486074 -87.547081 0.0 12.247757 -55.73548100000001 0.0 -1.8412733000000001 -53.747288 0.0 -1.1964618999999999 -52.209606 0.0 -0.66925496 -52.04525 0.0 -0.013943747 -54.795155 0.0 1.1706226 -61.65930899999999 0.0 3.5655975 -74.00524899999999 0.0 6.5563744999999995 -90.75679000000001 0.0 12.620638 -56.654068 0.0 -3.9990604 -54.528305 0.0 -3.0941331 -52.84790400000001 0.0 -2.1179736 -52.569599 0.0 -0.76754415 -55.155487 0.0 1.4707858999999999 -62.094112 0.0 4.2526436 -74.88974 0.0 7.371003599999999 -92.353691 0.0 12.853727000000001 -57.007679 0.0 -6.2082419 -54.645653 0.0 -4.8530836 -52.794880000000006 0.0 -3.2491879 -52.250946 0.0 -0.86607289 -54.37249 0.0 1.7941175999999999 -61.093536 0.0 5.2271624 -73.067024 0.0 7.191651299999999 -89.02194200000001 0.0 11.524247 -56.218231 0.0 -7.2028694 -53.449585 0.0 -5.0557356 -51.138912 0.0 -2.4244475 -49.881836 0.0 0.24944174 -51.251274 0.0 1.9381796000000002 -57.803794999999994 0.0 5.3743558 -67.032852 0.0 8.4012308 -72.28005999999999 0.0 12.651425999999999 -50.974529 0.0 -3.1156897999999997 -47.950302 0.0 -0.669267 -45.089008 0.0 0.94347149 -43.75914 0.0 0.88299793 -44.346569 0.0 1.800702 -44.701865999999995 0.0 5.6752709999999995 -44.718117 0.0 7.442787200000001 -45.592171 0.0 14.104076999999998 -33.50946 0.0 -5.1228232 -30.975254 0.0 -2.6738958 -28.791805 0.0 -0.14116798 -27.09763 0.0 0.67544645 -26.073116 0.0 1.8526716 -26.053387 0.0 5.9448295 -26.283056 0.0 5.1290445 -26.960091 0.0 11.670567 -20.122934 0.0 -8.3935099 -18.284610999999998 0.0 -6.1392069000000005 -16.811338 0.0 -3.3401237 -15.776482000000001 0.0 -0.63564724 -15.358065 0.0 1.9389253 -15.559169 0.0 6.549281099999999 -16.178553 0.0 3.4978497 -16.980648000000002 0.0 9.192317 -11.185317 0.0 -10.746172 -10.252882000000001 0.0 -8.5303469 -9.6289349 0.0 -5.6783137 -9.3728161 0.0 -2.2484007000000004 -9.5181808 0.0 1.8764724 -10.051036999999999 0.0 8.2199373 -10.887121 0.0 2.1128092 -11.770676 0.0 8.0324678 -3.7255665999999996 0.0 -11.833478 -3.6347556000000005 0.0 -9.4909735 -3.7531176 0.0 -6.4174581 -4.0706244 0.0 -2.5918195 -4.5754665999999995 0.0 2.2129042 -5.2351179000000005 0.0 8.84655 -5.9841003 0.0 0.97477627 -6.6918182 0.0 7.9230556 4.4439621 0.0 -11.679495 3.9568801 0.0 -9.1160021 3.4114392 0.0 -5.7629676 2.8606328999999997 0.0 -1.600264 2.3427107000000005 0.0 3.221853 1.8877499 0.0 8.641338300000001 1.5196991000000002 0.0 0.35411835 1.2246125 0.0 8.1245575 13.991581 0.0 -10.587251 13.253232999999998 0.0 -7.8145823000000005 12.639089 0.0 -4.2868705 12.212724 0.0 -0.062800996 11.944195 0.0 3.8414172999999994 12.001782 0.0 8.2184954 12.179935 0.0 0.28137329 12.414389 0.0 8.734755499999999 24.425238 0.0 -8.975850099999999 23.702347 0.0 -6.0723720000000005 23.284145000000002 0.0 -2.5031822 23.183905 0.0 1.4479918 23.242439 0.0 4.1473493999999995 23.696985 0.0 7.4473963 24.739353 0.0 0.74881142 25.531303 0.0 9.4727745 34.942913 0.0 -7.2387395 34.378056 0.0 -4.3046517 34.267765000000004 0.0 -0.79024762 34.533558 0.0 2.7336111 34.982426000000004 0.0 4.779234400000001 35.717911 0.0 7.3023133 37.181854 0.0 1.5664399 39.212776 0.0 11.217134 44.977123 0.0 -5.6555552 44.587376 0.0 -2.7805326 44.752796000000004 0.0 0.63235366 45.158417 0.0 3.5846440999999998 45.645222 0.0 5.2863474 46.890373 0.0 8.021102 48.220058 0.0 2.7300419999999996 52.085014 0.0 12.834700999999999 54.213879000000006 0.0 -4.3665538 53.946014 0.0 -1.6176442 54.251114 0.0 1.6386619999999998 54.539364 0.0 4.1578484 54.69582 0.0 5.6889114 55.85394300000001 0.0 8.7302647 57.731678 0.0 4.4730305999999995 63.560196 0.0 13.948049 60.707127 0.0 -3.1881328 60.853706 0.0 -0.59509099 61.563267 0.0 2.5200911 62.455481999999996 0.0 4.9046721 62.171780000000005 0.0 6.009131 62.948475 0.0 9.3734531 65.887665 0.0 7.299409900000001 73.551132 0.0 15.581833999999999 63.105789 0.0 -1.8709265 63.51505699999999 0.0 0.64944649 64.650085 0.0 3.6413434000000002 66.815216 0.0 6.3213115 68.538391 0.0 7.1134443 69.380783 0.0 10.361402 73.26074200000001 0.0 10.377052 82.311386 0.0 16.851011 64.033066 0.0 -0.49279565 64.530067 0.0 1.8930737000000002 65.72917199999999 0.0 4.641147599999999 68.405251 0.0 7.4981322 72.860863 0.0 9.334543199999999 75.75264 0.0 11.478672999999999 80.177643 0.0 12.501074000000001 90.357948 0.0 17.312366 64.362762 0.0 0.71217871 64.98318499999999 0.0 2.8762145 66.37240600000001 0.0 5.4036045 69.206192 0.0 7.9535332 74.77903 0.0 10.344084 81.781418 0.0 12.833060000000001 86.94410699999999 0.0 13.56979 98.803497 0.0 17.368332000000002 64.44757800000001 0.0 1.7398449 65.211021 0.0 3.7832425000000005 66.678032 0.0 6.0334311 69.83830999999999 0.0 8.3574371 75.770172 0.0 10.398458 85.431076 0.0 13.355621 95.026825 0.0 14.568523 107.96043 0.0 16.905075 64.521454 0.0 2.7512592999999996 65.22776800000001 0.0 4.4368677000000005 66.943497 0.0 6.3640970999999995 70.54499799999999 0.0 8.4027386 76.95165300000001 0.0 10.274482 88.149178 0.0 13.383254 103.594 0.0 15.066718 117.50477 0.0 15.02719 64.30439 0.0 3.4011245000000003 65.28325699999999 0.0 4.8518343 67.403076 0.0 6.6348791 71.432175 0.0 8.3551464 78.706963 0.0 10.017049 91.372986 0.0 13.033532000000001 108.9531 0.0 16.233335 129.42667 0.0 19.543492999999998 64.062836 0.0 3.9396002 65.340248 0.0 5.1235003 68.085373 0.0 6.5488815 72.999222 0.0 8.061944 81.451004 0.0 9.5741434 95.35141 0.0 12.498666 114.92463000000001 0.0 16.321985 137.06328 0.0 20.992476999999997 63.826 0.0 4.3033947999999995 65.649902 0.0 5.1292591 69.35247 0.0 6.2358494 75.369896 0.0 7.3964043 85.205223 0.0 8.8211403 100.50511999999999 0.0 11.965427 121.67452 0.0 16.315379999999998 63.803230000000006 0.0 4.2307453 66.52681 0.0 4.8964767 71.41152199999999 0.0 5.7726850999999995 78.753555 0.0 6.7282825 90.392296 0.0 8.360051200000001 107.1834 0.0 11.964811 129.41266000000002 0.0 16.435919000000002 64.316856 0.0 3.9689938999999996 68.13311800000001 0.0 4.5566692 74.38623 0.0 5.3013296 83.411324 0.0 5.9510875 96.894829 0.0 8.1356001 115.52961 0.0 12.02525 65.64386 0.0 3.587379 70.82582099999999 0.0 4.0797315 78.39226500000001 0.0 4.517877599999999 89.302376 0.0 5.2363976999999995 104.78211999999999 0.0 8.1360435 124.9295 0.0 12.237427 68.461288 0.0 3.0191956 74.982132 0.0 3.2402511 84.302414 0.0 3.7506957 97.20343000000001 0.0 5.3525095 114.83965 0.0 8.8495731 72.8759 0.0 2.2133973 81.443527 0.0 2.6654086 93.125923 0.0 4.008568799999999 107.55752 0.0 6.365076999999999 80.030899 0.0 1.737483 90.675209 0.0 2.989893 103.69631 0.0 5.2478361 117.08323999999999 0.0 7.360471700000001 89.389214 0.0 2.0450675 101.04858 0.0 4.139233600000001 99.272018 0.0 2.8319731 
StrainDot 3 2975 float
0.0 0.0 0.0 0.0 0.0 0.0 0.0 0.0 0.0 0.0 0.0 0.0 0.0 0.0 0.0 0.0 0.0 0.0 0.0 0.0 0.0 0.0 0.0 0.0 0.0 0.0 0.0 0.0 0.0 0.0 0.0 0.0 0.0 0.0 0.0 0.0 0.0 0.0 0.0 -6.9617698e-07 0.0 -1.8754359e-07 -6.5142769e-18 0.0 -2.7571466e-18 -3.276446e-06 0.0 -1.3670431000000003e-06 -2.3602073000000002e-05 0.0 -7.7102686e-06 -5.600351000000001e-06 0.0 -2.8804602e-06 -4.1275085e-05 0.0 -2.0425459e-05 -0.00014087031 0.0 -5.3347991e-05 -4.4457305e-05 0.0 -2.6765652e-05 -0.00017294601000000004 0.0 -9.7344622e-05 -0.00045530373 0.0 -0.0001939464 -0.00014997696000000003 0.0 -0.00010292220999999999 -0.00045235647 0.0 -0.00028594697 -0.0010516408 0.0 -0.00049928389 -0.00033423580999999996 0.0 -0.00026094556 -0.00088928634 0.0 -0.0006316434 -0.0019349932000000002 0.0 -0.0010260527 -0.00057489378 0.0 -0.00051163434 -0.0014342018 0.0 -0.0011458808 -0.0030126674 0.0 -0.0017860064999999999 -0.00082677428 0.0 -0.00083600084 -0.0020014232 0.0 -0.0017890816 -0.0041314991999999995 0.0 -0.0027213059 -0.0010506514999999998 0.0 -0.0011892283 -0.002520215 0.0 -0.0024772936 -0.0051667523 0.0 -0.0037093178999999996 -0.0012392291 0.0 -0.0015207486 -0.0029815044 0.0 -0.0031176289 -0.0061086458 0.0 -0.0046134964 -0.0014254889999999998 0.0 -0.0017986236999999999 -0.00345205 0.0 -0.0036518867 -0.0070795515000000005 0.0 -0.0053520813 -0.0016777155 0.0 -0.0020215914000000002 -0.0040756813 0.0 -0.0040778113 -0.0083415993 0.0 -0.005929579 -0.0020975703 0.0 -0.0022173419 -0.0050694323 0.0 -0.004449503 -0.010284591 0.0 -0.0064349873 -0.0028252234 0.0 -0.0024444107 -0.006720467 0.0 -0.0048894226 -0.013406393 0.0 -0.0070563965 -0.0040624877 0.0 -0.0028353299 -0.0094027482 0.0 -0.0056381821999999995 -0.018306492 0.0 -0.008123395 -0.006058608199999999 0.0 -0.0036929303 -0.013439965 0.0 -0.0071375970999999995 -0.025394574 0.0 -0.010171873 -0.0089173475 0.0 -0.005671238100000001 -0.018586144 0.0 -0.010153998000000001 -0.034034062000000004 0.0 -0.014028008 -0.023864495 0.0 -0.015870282 -0.042479950999999995 0.0 -0.020839276 0.0 0.0 0.0 0.0 0.0 0.0 0.0 0.0 0.0 0.0 0.0 0.0 0.0 0.0 0.0 0.0 0.0 0.0 0.0 0.0 0.0 0.0 0.0 0.0 0.0 0.0 0.0 0.0 0.0 0.0 0.0 0.0 0.0 0.0 0.0 0.0 0.0 0.0 0.0 0.0 0.0 0.0 0.0 0.0 0.0 0.0 0.0 0.0 0.0 0.0 0.0 0.0 0.0 0.0 0.0 0.0 0.0 0.0 0.0 0.0 0.0 0.0 0.0 0.0 0.0 0.0 0.0 0.0 0.0 0.0 0.0 0.0 0.0 0.0 0.0 -1.4546947e-07 0.0 -1.2718664e-08 -9.6237773e-07 0.0 -4.2936300000000004e-08 -2.3357762999999997e-06 0.0 -3.8663696000000004e-08 -3.5388532e-06 0.0 -3.9721204e-09 -4.1992243e-06 0.0 1.0626587999999999e-08 -4.6418018e-06 0.0 1.2509265e-08 -4.9735730999999995e-06 0.0 1.2748524e-08 -6.413537e-06 0.0 -1.1866061e-06 -2.2092428e-05 0.0 -2.5649617e-06 -4.9134909e-05 0.0 -3.3141964e-06 -8.3768005e-05 0.0 -2.8510963e-06 -0.00011880156000000002 0.0 -1.3555313999999997e-06 -0.00014769748999999999 0.0 3.4157759000000006e-07 -0.00016773096 0.0 1.3331158e-06 -0.00018070638 0.0 1.5205258e-06 -7.6710043e-05 0.0 -1.6923841e-05 -0.00017394288000000002 0.0 -2.4058272000000003e-05 -0.0003149265 0.0 -2.5687944999999998e-05 -0.00048384038000000003 0.0 -2.0725915e-05 -0.00065447309 0.0 -1.0623416999999999e-05 -0.0008026585000000001 0.0 7.954911300000001e-07 -0.00091629464 0.0 9.366986e-06 -0.00099587103 0.0 1.335825e-05 -0.0003387114 0.0 -8.5780681e-05 -0.00065781269 0.0 -0.00010420236999999999 -0.0010924471000000001 0.0 -0.00010244545 -0.0015985704999999998 0.0 -7.9532227e-05 -0.0021067704 0.0 -4.0553889e-05 -0.0025544697 0.0 2.5076406e-06 -0.0029087742 0.0 3.6351896e-05 -0.0031669771 0.0 5.4774657e-05 -0.00095944491 0.0 -0.00027168781 -0.0017295879000000002 0.0 -0.0003057447 -0.0027479352 0.0 -0.00028783272 -0.0039145084999999994 0.0 -0.00021801234 -0.0050788568 0.0 -0.00010932669 -0.0061077768999999995 0.0 8.697570599999999e-06 -0.0069313501 0.0 0.00010298511 -0.007541426899999999 0.0 0.00015714344 -0.0020692101999999998 0.0 -0.0006507451799999999 -0.0035823998 0.0 -0.0007026470299999999 -0.0055523911 0.0 -0.00064504053 -0.007786689300000001 0.0 -0.00047970624 -0.010000656 0.0 -0.00023511225 -0.011950553000000001 0.0 2.594451e-05 -0.013514168 0.0 0.00023496923999999998 -0.014678709 0.0 0.0003579483 -0.0036664435 0.0 -0.0012850775 -0.0062075662 0.0 -0.001356391 -0.0094894366 0.0 -0.0012262424000000001 -0.013182072 0.0 -0.0008967014699999999 -0.016804617 0.0 -0.00042549983 -0.019969598999999998 0.0 6.614302399999999e-05 -0.022498297 0.0 0.00045631008000000003 -0.02437965 0.0 0.0006875908 -0.005593271899999999 0.0 -0.0021881473 -0.0093525993 0.0 -0.0022809124 -0.014173393999999999 0.0 -0.0020396963000000002 -0.019546433999999998 0.0 -0.0014626841 -0.024745047000000003 0.0 -0.00066304108 -0.029241282 0.0 0.0001451789 -0.032810442 0.0 0.00077630818 -0.03545047 0.0 0.0011495741 -0.007586774 0.0 -0.0032924649 -0.012586954 0.0 -0.003404465 -0.018917371000000002 0.0 -0.0030007008 -0.009428973299999999 0.0 -0.0044456217 -0.015540509 0.0 -0.0045593497 -0.011114286000000001 0.0 -0.0054731476000000005 -0.01823058 0.0 -0.0055453726 -0.012855945 0.0 -0.0062811696 -0.021019084 0.0 -0.0062792134 -0.015068828999999999 0.0 -0.0068892399 -0.024467874 0.0 -0.0067959675 -0.018356161 0.0 -0.0074185072 -0.029379021 0.0 -0.007229153100000001 -0.023460886 0.0 -0.008101169 -0.036698315 0.0 -0.0078180386 -0.031228203 0.0 -0.0093189348 -0.047418479000000006 0.0 -0.008940796400000001 -0.042206380999999994 0.0 -0.011674526000000001 -0.062146861 0.0 -0.011191438 -0.055553354000000006 0.0 -0.016089008999999998 -0.080048807 0.0 -0.015511164 -0.06876213099999999 0.0 -0.023807174 -0.09839927400000001 0.0 -0.023246007000000003 0.0 0.0 0.0 0.0 0.0 0.0 0.0 0.0 0.0 0.0 0.0 0.0 0.0 0.0 0.0 0.0 0.0 0.0 0.0 0.0 0.0 0.0 0.0 0.0 0.0 0.0 0.0 0.0 0.0 0.0 0.0 0.0 0.0 0.0 0.0 0.0 0.0 0.0 0.0 0.0 0.0 0.0 0.0 0.0 0.0 0.0 0.0 0.0 0.0 0.0 0.0 0.0 0.0 0.0 0.0 0.0 0.0 0.0 0.0 0.0 0.0 0.0 0.0 0.0 0.0 0.0 0.0 0.0 0.0 0.0 0.0 0.0 0.0 0.0 0.0 0.0 0.0 0.0 0.0 0.0 0.0 -5.2069699e-06 0.0 1.1930203000000002e-08 -5.359229799999999e-06 0.0 1.0495920000000001e-08 -5.448818700000001e-06 0.0 8.8294145e-09 -5.4932065999999996e-06 0.0 7.2269093e-09 -5.5076102e-06 0.0 5.729357e-09 -5.504291500000001e-06 0.0 4.4136912e-09 -5.4927355e-06 0.0 3.338682e-09 -5.479867e-06 0.0 2.5352158e-09 -5.470351400000001e-06 0.0 2.0433901e-09 -0.00018975363 0.0 1.4537659999999999e-06 -0.00019584842000000002 0.0 1.3033732e-06 -0.00019961131000000002 0.0 1.114949e-06 -0.0002016509 0.0 9.198192299999999e-07 -0.0002025108 0.0 7.364368499999999e-07 -0.00020264325 0.0 5.75314e-07 -0.00020240404 0.0 4.4275026000000006e-07 -0.00020205583 0.0 3.442801e-07 -0.0002017778 0.0 2.8367916e-07 -0.0010487704 0.0 1.3589579e-05 -0.0010839497 0.0 1.2374519e-05 -0.001106103 0.0 1.0713655e-05 -0.0011185260000000001 0.0 8.924838800000001e-06 -0.001124201 0.0 7.2101684e-06 -0.0011256350999999999 0.0 5.690209e-06 -0.001124816 0.0 4.4402682e-06 -0.0011232262 0.0 3.5109776e-06 -0.0011218806 0.0 2.9388052000000004e-06 -0.0033439053000000004 0.0 5.9376955e-05 -0.0034597422999999997 0.0 5.5449134000000004e-05 -0.0035326038 0.0 4.8527836e-05 -0.0035740604999999997 0.0 4.0778163e-05 -0.0035936104 0.0 3.3206502999999996e-05 -0.0035992751 0.0 2.6436248e-05 -0.0035974435 0.0 2.0849346e-05 -0.0035928859999999996 0.0 1.6693896999999998e-05 -0.0035888806 0.0 1.4134736e-05 -0.0079666907 0.0 0.00017423761999999998 -0.008247729399999999 0.0 0.00016682773999999998 -0.0084228171 0.0 0.00014755221000000001 -0.0085224733 0.0 0.00012494703999999998 -0.0085696336 0.0 0.00010245198 -0.0085835028 0.0 8.2151419e-05 -0.0085793547 0.0 6.533104900000001e-05 -0.0085686138 0.0 5.2801213e-05 -0.0085591273 0.0 4.5081993e-05 -0.015495568999999999 0.0 0.0004001976 -0.016037893 0.0 0.0003877868 -0.016374461 0.0 0.00034665744 -0.016563622 0.0 0.00029546939 -0.016651318999999998 0.0 0.00024369417 -0.016675021 0.0 0.00019655449 -0.01666447 0.0 0.00015732345 -0.016641853 0.0 0.00012804252000000001 -0.016622387 0.0 0.00010999086999999999 -0.025697991 0.0 0.0007699016700000001 -0.026570771 0.0 0.00074970216 -0.027108321 0.0 0.00067488541 -0.027403755 0.0 0.0005782299 -0.027534064 0.0 0.00047914435999999995 -0.027561506 0.0 0.00038823369 -0.027535215 0.0 0.00031226015 -0.027491702000000003 0.0 0.00025543739 -0.027455937000000003 0.0 0.00022037482000000005 -0.037287048999999996 0.0 0.0012836268 -0.038490359 0.0 0.0012516259 -0.039219171000000004 0.0 0.0011308229 -0.039605472 0.0 0.0009728551400000001 -0.039760105 0.0 0.00080913078 -0.039773267 0.0 0.00065795705 -0.039715655 0.0 0.0005311520700000001 -0.039639361 0.0 0.00043612142 -0.039579861 0.0 0.00037742674 0.0 0.0 0.0 0.0 0.0 0.0 0.0 0.0 0.0 0.0 0.0 0.0 0.0 0.0 0.0 0.0 0.0 0.0 0.0 0.0 0.0 0.0 0.0 0.0 0.0 0.0 0.0 0.0 0.0 0.0 0.0 0.0 0.0 0.0 0.0 0.0 0.0 0.0 0.0 0.0 0.0 0.0 0.0 0.0 0.0 0.0 0.0 0.0 0.0 0.0 0.0 0.0 0.0 0.0 0.0 0.0 0.0 0.0 0.0 0.0 0.0 0.0 0.0 0.0 0.0 0.0 0.0 0.0 0.0 0.0 0.0 0.0 -5.4668835e-06 0.0 1.8766779e-09 -5.470351e-06 0.0 2.0434032e-09 -5.4798655999999996e-06 0.0 2.5352178e-09 -5.492735e-06 0.0 3.3386807e-09 -5.5042924e-06 0.0 4.4136987e-09 -5.5076116e-06 0.0 5.729361e-09 -5.493207e-06 0.0 7.2269084e-09 -5.448819999999999e-06 0.0 8.8294119e-09 -0.00020167389 0.0 2.631713e-07 -0.00020177783 0.0 2.8367954999999997e-07 -0.0002020558 0.0 3.4428061e-07 -0.00020240404 0.0 4.4275083e-07 -0.00020264322 0.0 5.7531435e-07 -0.00020251075 0.0 7.364369599999999e-07 -0.00020165088 0.0 9.1981894e-07 -0.00019961127000000002 0.0 1.1149481999999998e-06 -0.0011213676 0.0 2.7457975e-06 -0.0011218806 0.0 2.9388066000000004e-06 -0.0011232267 0.0 3.5109811000000004e-06 -0.001124816 0.0 4.4402714e-06 -0.0011256350999999999 0.0 5.6902135999999995e-06 -0.0011242008 0.0 7.2101689e-06 -0.0011185260000000001 0.0 8.924835099999999e-06 -0.0011061028 0.0 1.0713647e-05 -0.003587337 0.0 1.3270866e-05 -0.0035888806 0.0 1.4134745e-05 -0.0035928853 0.0 1.6693906e-05 -0.003597443 0.0 2.0849368e-05 -0.0035992758 0.0 2.6436273000000002e-05 -0.0035936111 0.0 3.3206517e-05 -0.0035740614 0.0 4.0778166e-05 -0.0035326038 0.0 4.8527821000000004e-05 -0.0085554626 0.0 4.2475232e-05 -0.0085591311 0.0 4.5082012000000006e-05 -0.0085686147 0.0 5.2801246e-05 -0.0085793575 0.0 6.5331071e-05 -0.008583505600000001 0.0 8.215146199999999e-05 -0.0085696364 0.0 0.00010245200999999999 -0.0085224714 0.0 0.00012494703999999998 -0.008422819 0.0 0.00014755213 -0.016614926999999998 0.0 0.00010389296999999999 -0.016622383 0.0 0.00010999089 -0.016641859 0.0 0.00012804258 -0.01666447 0.0 0.00015732351 -0.016675021 0.0 0.00019655457 -0.016651317 0.0 0.0002436943 -0.016563626 0.0 0.00029546947999999995 -0.016374465 0.0 0.0003466575 -0.027442439 0.0 0.00020852778000000002 -0.027455933 0.0 0.00022037484 -0.0274917 0.0 0.00025543754 -0.027535219 0.0 0.00031226032000000004 -0.027561506 0.0 0.00038823377999999995 -0.027534057999999997 0.0 0.00047914428 -0.02740374 0.0 0.0005782297799999999 -0.027108312000000002 0.0 0.0006748852900000001 -0.039557811 0.0 0.00035758915999999996 -0.039579868 0.0 0.00037742686 -0.039639343 0.0 0.00043612137 -0.039715655 0.0 0.00053115212 -0.039773285 0.0 0.0006579568099999999 -0.039760105 0.0 0.00080913072 -0.039605465 0.0 0.0009728552000000001 -0.039219167 0.0 0.0011308229 0.0 0.0 0.0 0.0 0.0 0.0 0.0 0.0 0.0 0.0 0.0 0.0 0.0 0.0 0.0 0.0 0.0 0.0 0.0 0.0 0.0 0.0 0.0 0.0 0.0 0.0 0.0 0.0 0.0 0.0 0.0 0.0 0.0 0.0 0.0 0.0 0.0 0.0 0.0 0.0 0.0 0.0 0.0 0.0 0.0 0.0 0.0 0.0 0.0 0.0 0.0 0.0 0.0 0.0 0.0 0.0 0.0 0.0 0.0 0.0 0.0 0.0 0.0 0.0 0.0 0.0 0.0 0.0 0.0 0.0 0.0 0.0 0.0 0.0 0.0 0.0 0.0 0.0 0.0 0.0 0.0 -5.3592294e-06 0.0 1.0495911e-08 -5.2069699e-06 0.0 1.1930203000000002e-08 -4.973572700000001e-06 0.0 1.2748526000000002e-08 -4.641801299999999e-06 0.0 1.2509259e-08 -4.1992239e-06 0.0 1.0626593999999998e-08 -3.5388532e-06 0.0 -3.9721115e-09 -2.3357766e-06 0.0 -3.86637e-08 -9.6237795e-07 0.0 -4.2936307000000003e-08 -1.4546947e-07 0.0 -1.2718661e-08 -0.00019584837999999999 0.0 1.3033723999999997e-06 -0.00018975361 0.0 1.4537655000000002e-06 -0.0001807064 0.0 1.5205255e-06 -0.00016773092 0.0 1.3331153999999997e-06 -0.0001476975 0.0 3.4157802000000004e-07 -0.00011880153 0.0 -1.3555308e-06 -8.376801299999999e-05 0.0 -2.851096e-06 -4.9134924e-05 0.0 -3.3141953000000003e-06 -2.2092427e-05 0.0 -2.5649613e-06 -0.0010839496 0.0 1.2374509000000001e-05 -0.0010487704 0.0 1.3589566e-05 -0.00099587115 0.0 1.3358243e-05 -0.0009162944 0.0 9.3669869e-06 -0.00080265844 0.0 7.9549358e-07 -0.00065447303 0.0 -1.0623414e-05 -0.00048384055999999996 0.0 -2.0725909000000002e-05 -0.00031492644 0.0 -2.5687943e-05 -0.00017394291 0.0 -2.4058272000000003e-05 -0.0034597416 0.0 5.5449123e-05 -0.0033439049 0.0 5.9376896e-05 -0.0031669775 0.0 5.4774660000000007e-05 -0.0029087742 0.0 3.6351896e-05 -0.0025544695 0.0 2.5076451e-06 -0.0021067702 0.0 -4.0553859e-05 -0.0015985704999999998 0.0 -7.953219e-05 -0.0010924473 0.0 -0.00010244545 -0.00065781275 0.0 -0.00010420234 -0.0082477303 0.0 0.00016682773999999998 -0.0079666935 0.0 0.00017423759999999998 -0.0075414259999999995 0.0 0.00015714332 -0.006931349200000001 0.0 0.00010298503 -0.0061077788 0.0 8.697597e-06 -0.0050788568 0.0 -0.00010932665000000001 -0.003914509 0.0 -0.00021801227999999998 -0.0027479354999999997 0.0 -0.00028783269 -0.0017295884 0.0 -0.00030574473 -0.016037891000000002 0.0 0.00038778674 -0.01549557 0.0 0.00040019752 -0.014678705 0.0 0.00035794807 -0.013514166000000001 0.0 0.00023496927000000003 -0.011950555 0.0 2.5944596999999997e-05 -0.010000656 0.0 -0.00023511227000000003 -0.0077866898 0.0 -0.00047970653 -0.0055523915 0.0 -0.00064504059 -0.0035824012 0.0 -0.00070264691 -0.026570773 0.0 0.00074970227 -0.025697997 0.0 0.00076990161 -0.024379645 0.0 0.00068759022 -0.022498297999999996 0.0 0.00045630999 -0.019969596000000003 0.0 6.6143075e-05 -0.016804617 0.0 -0.00042549989 -0.013182076000000001 0.0 -0.00089670153 -0.0094894366 0.0 -0.0012262422 -0.006207568100000001 0.0 -0.0013563907 -0.038490359 0.0 0.0012516261 -0.037287053 0.0 0.001283627 -0.03545047 0.0 0.0011495737 -0.032810442 0.0 0.0007763080599999999 -0.029241281 0.0 0.00014517886999999998 -0.024745047000000003 0.0 -0.00066304056 -0.019546442 0.0 -0.0014626835000000002 -0.014173395 0.0 -0.0020396968 -0.0093526002 0.0 -0.0022809133 -0.018917369 0.0 -0.0030006998999999998 -0.012586956000000002 0.0 -0.0034044647999999997 -0.015540515 0.0 -0.0045593497 -0.018230585 0.0 -0.005545372099999999 -0.021019082999999997 0.0 -0.0062792138 -0.024467876 0.0 -0.0067959656 -0.029379021 0.0 -0.007229150699999999 -0.036698315 0.0 -0.0078180386 -0.047418485999999996 0.0 -0.0089407936 -0.062146876 0.0 -0.01119144 -0.080048822 0.0 -0.015511164 -0.09839927400000001 0.0 -0.023246001000000002 0.0 0.0 0.0 0.0 0.0 0.0 0.0 0.0 0.0 0.0 0.0 0.0 0.0 0.0 0.0 0.0 0.0 0.0 0.0 0.0 0.0 0.0 0.0 0.0 0.0 0.0 0.0 0.0 0.0 0.0 0.0 0.0 0.0 0.0 0.0 0.0 0.0 0.0 0.0 0.0 0.0 0.0 0.0 0.0 0.0 -6.4135374e-06 0.0 -1.1866058e-06 -6.9617704e-07 0.0 -1.8754353e-07 0.0 0.0 0.0 0.0 0.0 0.0 -7.671005699999999e-05 0.0 -1.6923835999999997e-05 -2.3602067999999998e-05 0.0 -7.710265e-06 -3.2764465e-06 0.0 -1.3670427e-06 -6.514276500000001e-18 0.0 -2.7571454e-18 -0.0003387114 0.0 -8.5780717e-05 -0.00014087030000000002 0.0 -5.3347969e-05 -4.1275081e-05 0.0 -2.0425456e-05 -5.6003519e-06 0.0 -2.8804602e-06 -0.00095944526 0.0 -0.00027168775000000004 -0.0004553037 0.0 -0.00019394637 -0.00017294596000000002 0.0 -9.73446e-05 -4.4457309e-05 0.0 -2.6765654e-05 -0.0020692110999999997 0.0 -0.00065074535 -0.0010516408 0.0 -0.00049928366 -0.00045235647 0.0 -0.00028594691 -0.00014997693 0.0 -0.00010292220999999999 -0.0036664438 0.0 -0.0012850774 -0.0019349935 0.0 -0.0010260525 -0.00088928646 0.0 -0.00063164334 -0.00033423587 0.0 -0.00026094553 -0.0055932746999999994 0.0 -0.0021881473 -0.0030126676 0.0 -0.0017860064 -0.0014342013 0.0 -0.0011458806 -0.00057489378 0.0 -0.0005116344 -0.0075867726000000005 0.0 -0.0032924656 -0.0041315006 0.0 -0.0027213057 -0.0020014225 0.0 -0.0017890818 -0.00082677451 0.0 -0.0008360010099999999 -0.0094289752 0.0 -0.0044456217 -0.0051667518 0.0 -0.0037093181 -0.0025202151999999998 0.0 -0.0024772938 -0.0010506514 0.0 -0.0011892284 -0.011114285 0.0 -0.0054731471 -0.0061086453 0.0 -0.0046134968 -0.0029815046999999996 0.0 -0.0031176293 -0.0012392292 0.0 -0.0015207488 -0.012855944 0.0 -0.0062811687 -0.0070795505 0.0 -0.0053520808 -0.0034520478999999996 0.0 -0.0036518871999999996 -0.0014254885 0.0 -0.0017986238000000001 -0.015068827 0.0 -0.006889241700000001 -0.0083415993 0.0 -0.0059295795 -0.0040756813 0.0 -0.004077812199999999 -0.0016777157999999998 0.0 -0.0020215912 -0.018356159 0.0 -0.0074185077 -0.010284593 0.0 -0.0064349868000000005 -0.0050694323 0.0 -0.004449503499999999 -0.002097571 0.0 -0.0022173421 -0.023460887000000003 0.0 -0.0081011681 -0.013406392 0.0 -0.007056396899999999 -0.006720467 0.0 -0.0048894221000000005 -0.0028252235999999997 0.0 -0.0024444112 -0.031228211000000002 0.0 -0.0093189357 -0.018306496999999998 0.0 -0.0081233969 -0.0094027491 0.0 -0.005638181700000001 -0.0040624877 0.0 -0.0028353301 -0.042206384000000007 0.0 -0.011674523999999999 -0.025394572 0.0 -0.010171873 -0.013439969 0.0 -0.0071375975 -0.0060586077 0.0 -0.0036929303 -0.055553362 0.0 -0.016089007 -0.034034066 0.0 -0.014028008 -0.018586142 0.0 -0.010153995 -0.0089173485 0.0 -0.005671239000000001 -0.06876215299999999 0.0 -0.023807174 -0.042479943 0.0 -0.020839272 -0.023864497999999998 0.0 -0.015870281 0.0 0.0 0.0 0.0 0.0 0.0 0.0 0.0 0.0 0.0 0.0 0.0 0.0 0.0 0.0 0.0 0.0 0.0 0.0 0.0 0.0 0.0 0.0 0.0 0.0 0.0 0.0 0.0 0.0 0.0 0.0 0.0 0.0 0.0 0.0 0.0 0.0 0.0 0.0 0.0 0.0 0.0 0.0 0.0 0.0 0.0 0.0 0.0 0.0 0.0 0.0 0.0 0.0 0.0 0.0 0.0 0.0 0.0 0.0 0.0 0.0 0.0 0.0 0.0 0.0 0.0 0.0 0.0 0.0 0.0 0.0 0.0 0.0 0.0 0.0 0.0 0.0 0.0 0.0 0.0 0.0 0.0 0.0 0.0 0.0 0.0 0.0 0.0 0.0 0.0 0.0 0.0 0.0 0.0 0.0 0.0 0.0 0.0 0.0 0.0 0.0 0.0 0.0 0.0 0.0 0.0 0.0 0.0 0.0 0.0 0.0 0.0 0.0 0.0 0.0 0.0 0.0 0.0 0.0 0.0 0.0 0.0 0.0 0.0 0.0 0.0 0.0 0.0 0.0 0.0 0.0 0.0 0.0 0.0 0.0 0.0 0.0 0.0 0.0 0.0 0.0 0.0 0.0 0.0 0.0 0.0 0.0 0.0 0.0 0.0 0.0 0.0 0.0 0.0 0.0 0.0 0.0 0.0 0.0 0.0 0.0 0.0 0.0 0.0 0.0 0.0 0.0 0.0 0.0 0.0 0.0 0.0 0.0 0.0 0.0 0.0 0.0 0.0 0.0 0.0 0.0 0.0 0.0 0.0 0.0 0.0 0.0 0.0 0.0 0.0 0.0 0.0 0.0 0.0 0.0 0.0 0.0 0.0 0.0 0.0 0.0 0.0 0.0 0.0 0.0 0.0 0.0 0.0 0.0 0.0 0.0 0.0 0.0 0.0 0.0 0.0 0.0 0.0 0.0 0.0 0.0 0.0 0.0 0.0 0.0 0.0 0.0 0.0 0.0 0.0 0.0 0.0 0.0 0.0 0.0 0.0 0.0 0.0 0.0 0.0 0.0 0.0 0.0 0.0 0.0 0.0 0.0 0.0 0.0 0.0 0.0 0.0 0.0 0.0 0.0 0.0 0.0 0.0 0.0 0.0 0.0 0.0 0.0 0.0 0.0 0.0 0.0 0.0 0.0 0.0 0.0 0.0 0.0 0.0 0.0 0.0 0.0 0.0 0.0 0.0 0.0 0.0 0.0 0.0 0.0 0.0 0.0 0.0 0.0 0.0 0.0 0.0 0.0 0.0 0.0 0.0 0.0 0.0 0.0 0.0 0.0 0.0 0.0 0.0 0.0 0.0 0.0 0.0 0.0 0.0 0.0 0.0 0.0 0.0 0.0 0.0 0.0 0.0 0.0 0.0 0.0 0.0 0.0 0.0 0.0 0.0 0.0 0.0 0.0 0.0 0.0 0.0 0.0 0.0 0.0 0.0 0.0 0.0 0.0 0.0 0.0 0.0 0.0 0.0 0.0 0.0 0.0 0.0 0.0 0.0 0.0 0.0 0.0 0.0 0.0 0.0 0.0 0.0 0.0 0.0 0.0 0.0 0.0 0.0 0.0 0.0 0.0 0.0 0.0 0.0 0.0 0.0 0.0 0.0 0.0 0.0 0.0 0.0 0.0 0.0 0.0 0.0 0.0 0.0 0.0 0.0 0.0 0.0 0.0 0.0 0.0 0.0 0.0 0.0 0.0 0.0 0.0 0.0 0.0 0.0 0.0 0.0 0.0 0.0 0.0 0.0 0.0 0.0 0.0 0.0 0.0 0.0 0.0 0.0 0.0 0.0 0.0 0.0 0.0 0.0 0.0 0.0 0.0 0.0 0.0 0.0 0.0 0.0 0.0 0.0 0.0 0.0 0.0 0.0 0.0 0.0 0.0 0.0 0.0 0.0 0.0 0.0 0.0 0.0 0.0 0.0 0.0 0.0 0.0 0.0 0.0 0.0 0.0 0.0 0.0 0.0 0.0 0.0 0.0 0.0 0.0 0.0 0.0 0.0 0.0 0.0 0.0 0.0 0.0 0.0 0.0 0.0 0.0 0.0 0.0 0.0 0.0 0.0 0.0 0.0 0.0 0.0 0.0 0.0 0.0 0.0 0.0 0.0 0.0 0.0 0.0 0.0 0.0 0.0 0.0 0.0 0.0 0.0 0.0 0.0 0.0 0.0 0.0 0.0 0.0 0.0 0.0 0.0 0.0 0.0 0.0 0.0 0.0 0.0 0.0 0.0 0.0 0.0 0.0 0.0 0.0 0.0 0.0 0.0 0.0 0.0 0.0 0.0 0.0 0.0 0.0 0.0 0.0 0.0 0.0 0.0 0.0 0.0 0.0 0.0 0.0 0.0 0.0 0.0 0.0 0.0 0.0 0.0 0.0 0.0 0.0 0.0 0.0 0.0 0.0 0.0 0.0 0.0 0.0 0.0 0.0 0.0 0.0 0.0 0.0 0.0 0.0 0.0 0.0 0.0 0.0 0.0 0.0 0.0 0.0 0.0 0.0 0.0 0.0 0.0 0.0 0.0 0.0 0.0 0.0 0.0 0.0 0.0 0.0 0.0 0.0 0.0 0.0 0.0 0.0 0.0 0.0 0.0 0.0 0.0 0.0 0.0 0.0 0.0 0.0 0.0 0.0 0.0 0.0 0.0 0.0 0.0 0.0 0.0 0.0 0.0 0.0 0.0 0.0 0.0 0.0 0.0 0.0 0.0 0.0 0.0 0.0 0.0 0.0 0.0 0.0 0.0 0.0 0.0 0.0 0.0 0.0 0.0 0.0 0.0 0.0 0.0 0.0 0.0 0.0 0.0 0.0 0.0 0.0 0.0 0.0 0.0 0.0 0.0 0.0 0.0 0.0 0.0 0.0 0.0 0.0 0.0 0.0 0.0 0.0 0.0 0.0 0.0 0.0 0.0 0.0 0.0 0.0 0.0 0.0 0.0 0.0 0.0 0.0 0.0 0.0 0.0 0.0 0.0 0.0 0.0 0.0 0.0 0.0 0.0 0.0 0.0 0.0 0.0 0.0 0.0 0.0 0.0 0.0 0.0 0.0 0.0 0.0 0.0 0.0 0.0 0.0 0.0 0.0 0.0 0.0 0.0 0.0 0.0 0.0 0.0 0.0 0.0 0.0 0.0 0.0 0.0 0.0 0.0 0.0 0.0 0.0 0.0 0.0 0.0 0.0 0.0 0.0 0.0 0.0 0.0 0.0 0.0 0.0 0.0 0.0 0.0 0.0 0.0 0.0 0.0 0.0 0.0 0.0 0.0 0.0 0.0 0.0 0.0 0.0 0.0 0.0 0.0 0.0 0.0 0.0 0.0 0.0 0.0 0.0 0.0 0.0 0.0 0.0 0.0 0.0 0.0 0.0 0.0 0.0 0.0 0.0 0.0 0.0 0.0 0.0 0.0 0.0 0.0 0.0 0.0 0.0 0.0 0.0 0.0 0.0 0.0 0.0 0.0 0.0 0.0 0.0 0.0 0.0 0.0 0.0 0.0 0.0 0.0 0.0 0.0 0.0 0.0 0.0 0.0 0.0 0.0 0.0 0.0 0.0 0.0 0.0 0.0 0.0 0.0 0.0 0.0 0.0 0.0 0.0 0.0 0.0 0.0 0.0 0.0 0.0 0.0 0.0 0.0 0.0 0.0 0.0 0.0 0.0 0.0 0.0 0.0 0.0 0.0 0.0 0.0 0.0 0.0 0.0 0.0 0.0 0.0 0.0 0.0 0.0 0.0 0.0 0.0 0.0 0.0 0.0 0.0 0.0 0.0 0.0 0.0 0.0 0.0 0.0 0.0 0.0 0.0 0.0 0.0 0.0 0.0 0.0 0.0 0.0 0.0 0.0 0.0 0.0 0.0 0.0 0.0 0.0 0.0 0.0 0.0 0.0 0.0 0.0 0.0 0.0 0.0 0.0 0.0 0.0 0.0 0.0 0.0 0.0 0.0 0.0 0.0 0.0 0.0 0.0 0.0 0.0 0.0 0.0 0.0 0.0 0.0 0.0 0.0 0.0 0.0 0.0 0.0 0.0 0.0 0.0 0.0 0.0 0.0 0.0 0.0 0.0 0.0 0.0 0.0 0.0 0.0 0.0 0.0 0.0 0.0 0.0 0.0 0.0 0.0 0.0 0.0 0.0 0.0 0.0 0.0 0.0 0.0 0.0 0.0 0.0 0.0 0.0 0.0 0.0 0.0 0.0 0.0 0.0 0.0 0.0 0.0 0.0 0.0 0.0 0.0 0.0 0.0 0.0 0.0 0.0 0.0 0.0 0.0 0.0 0.0 0.0 0.0 0.0 0.0 0.0 0.0 0.0 0.0 0.0 0.0 0.0 0.0 0.0 0.0 0.0 0.0 0.0 0.0 0.0 0.0 0.0 0.0 0.0 0.0 0.0 0.0 0.0 0.0 0.0 0.0 0.0 0.0 0.0 0.0 0.0 0.0 0.0 0.0 0.0 0.0 0.0 0.0 0.0 0.0 0.0 0.0 0.0 0.0 0.0 0.0 0.0 0.0 0.0 0.0 0.0 0.0 0.0 0.0 0.0 0.0 0.0 0.0 0.0 0.0 0.0 0.0 0.0 0.0 0.0 0.0 0.0 0.0 0.0 0.0 0.0 0.0 0.0 0.0 0.0 0.0 0.0 0.0 0.0 0.0 0.0 0.0 0.0 0.0 0.0 0.0 0.0 0.0 0.0 0.0 0.0 0.0 0.0 0.0 0.0 0.0 0.0 0.0 0.0 0.0 0.0 0.0 0.0 0.0 0.0 0.0 0.0 0.0 0.0 0.0 0.0 0.0 0.0 0.0 0.0 0.0 0.0 0.0 0.0 0.0 0.0 0.0 0.0 0.0 0.0 0.0 0.0 0.0 0.0 0.0 0.0 0.0 0.0 0.0 0.0 0.0 0.0 0.0 0.0 0.0 0.0 0.0 0.0 0.0 0.0 0.0 0.0 0.0 0.0 0.0 0.0 0.0 0.0 0.0 0.0 0.0 0.0 0.0 0.0 0.0 0.0 0.0 0.0 0.0 0.0 0.0 0.0 0.0 0.0 0.0 0.0 0.0 0.0 0.0 0.0 0.0 0.0 0.0 0.0 0.0 0.0 0.0 0.0 0.0 0.0 0.0 0.0 0.0 0.0 0.0 0.0 0.0 0.0 0.0 0.0 0.0 0.0 0.0 0.0 0.0 0.0 0.0 0.0 0.0 0.0 0.0 0.0 0.0 0.0 0.0 0.0 0.0 0.0 0.0 0.0 0.0 0.0 0.0 0.0 0.0 0.0 0.0 0.0 0.0 0.0 0.0 0.0 0.0 0.0 0.0 0.0 0.0 0.0 0.0 0.0 0.0 0.0 0.0 0.0 0.0 0.0 0.0 0.0 0.0 0.0 0.0 0.0 0.0 0.0 0.0 0.0 0.0 0.0 0.0 0.0 0.0 0.0 0.0 0.0 0.0 0.0 0.0 0.0 0.0 0.0 0.0 0.0 0.0 0.0 0.0 0.0 0.0 0.0 0.0 0.0 0.0 0.0 0.0 0.0 0.0 0.0 0.0 0.0 0.0 0.0 0.0 0.0 0.0 0.0 0.0 0.0 0.0 0.0 0.0 0.0 0.0 0.0 0.0 0.0 0.0 0.0 0.0 0.0 0.0 0.0 0.0 0.0 0.0 0.0 0.0 0.0 0.0 0.0 0.0 0.0 0.0 0.0 0.0 0.0 0.0 0.0 0.0 0.0 0.0 0.0 0.0 0.0 0.0 0.0 0.0 0.0 0.0 0.0 0.0 0.0 0.0 0.0 0.0 0.0 0.0 0.0 0.0 0.0 0.0 0.0 0.0 0.0 0.0 0.0 0.0 0.0 0.0 0.0 0.0 0.0 0.0 0.0 0.0 0.0 0.0 0.0 0.0 0.0 0.0 0.0 0.0 0.0 0.0 0.0 0.0 0.0 0.0 0.0 0.0 0.0 0.0 0.0 0.0 0.0 0.0 0.0 0.0 0.0 0.0 0.0 0.0 0.0 0.0 0.0 0.0 0.0 0.0 0.0 0.0 0.0 0.0 0.0 0.0 0.0 0.0 0.0 0.0 0.0 0.0 0.0 0.0 0.0 0.0 0.0 0.0 0.0 0.0 0.0 0.0 0.0 0.0 0.0 0.0 0.0 0.0 0.0 0.0 0.0 0.0 0.0 0.0 0.0 0.0 0.0 0.0 0.0 0.0 -0.025820587000000002 0.0 -0.0020566981 -0.032422375 0.0 -0.00089750899 -0.038090605 0.0 0.00027054222 -0.042551360999999996 0.0 0.0011693351 -0.045813959 0.0 0.0016976612 -0.023173167999999997 0.0 -0.0036340307 -0.031359322 0.0 -0.0026059642 -0.03909852 0.0 -0.0010757732 -0.045670807 0.0 0.00042911420999999995 -0.050768732999999996 0.0 0.0015736133999999999 -0.054427486 0.0 0.0022406643 -0.027043546 0.0 -0.0043621366 -0.03643506 0.0 -0.0030201788 -0.045193523 0.0 -0.0011696141 -0.052496012 0.0 0.00060563092 -0.058035497000000005 0.0 0.0019355858 -0.061901838 0.0 0.0026986154 -0.031067286 0.0 -0.0048719393 -0.04167819 0.0 -0.0032738841 -0.051428799000000004 0.0 -0.0011732087 -0.059384864 0.0 0.00078991253 -0.065252133 0.0 0.0022289651 -0.069201283 0.0 0.0030324087 -0.035988461 0.0 -0.0051756399 -0.047864884 0.0 -0.0033765887 -0.058585957 0.0 -0.0010980638 -0.06715019 0.0 0.0009714451199999999 -0.073288403 0.0 0.0024466633 -0.077246018 0.0 0.0032395043 -0.043165457000000004 0.0 -0.0053414102000000005 -0.05622217400000001 0.0 -0.0033778725 -0.067661561 0.0 -0.00096985442 -0.076579943 0.0 0.0011422294 -0.082829081 0.0 0.0025956226 -0.08671947599999999 0.0 0.0033433653999999998 -0.054669990999999994 0.0 -0.0054683741 -0.068553343 0.0 -0.0033549261 -0.079958044 0.0 -0.0008123542599999999 -0.08853767800000001 0.0 0.0013233901999999999 -0.094424471 0.0 0.0027220831 -0.098012291 0.0 0.0034027016 -0.073217042 0.0 -0.0056576547 -0.08695481 0.0 -0.0034011705 -0.096843548 0.0 -0.0006303011900000001 -0.10381827 0.0 0.0015898987 -0.10849692 0.0 0.0029471073999999997 -0.11131675 0.0 0.0035470962 -0.1014699 0.0 -0.0060510351 -0.11297768 0.0 -0.0036037434 -0.11910412 0.0 -0.00037504709 -0.12281666 0.0 0.002100379 -0.12525149 0.0 0.0034875609 -0.12672395 0.0 0.0039983089 -0.13984026 0.0 -0.007306175799999999 -0.14593013 0.0 -0.0040925737 -0.14604411 0.0 9.4796065e-05 -0.14515974 0.0 0.00314226 -0.14459768 0.0 0.0046655987 -0.14429466 0.0 0.0050636972 -0.1828239 0.0 -0.010813587 -0.18138693 0.0 -0.0051538851 -0.17502518 0.0 0.0010045371 -0.16957182 0.0 0.0051359283 -0.16607089 0.0 0.006895576600000001 -0.16396889 0.0 0.0071001345999999995 -0.21806569 0.0 -0.012149482 -0.2128745 0.0 -0.005561988299999999 -0.20272678 0.0 0.0031259767999999998 -0.19451413 0.0 0.0086287055 -0.18905723 0.0 0.010570194 -0.18558472 0.0 0.010412303000000001 -0.24293694 0.0 0.0085416688 -0.23794265 0.0 0.0041006152 -0.22783385 0.0 0.0093290778 -0.21928406 0.0 0.014380105 -0.21321931 0.0 0.01591647 -0.20902795 0.0 0.015105153 -0.26434368 0.0 0.034389987999999996 -0.25980574 0.0 0.022908406 -0.25160277 0.0 0.020640947 -0.24428317 0.0 0.02259562 -0.23863362 0.0 0.022748385 -0.23428878 0.0 0.020974375 -0.28574747 0.0 0.051094241 -0.28183958 0.0 0.040026724 -0.27591085 0.0 0.033480205 -0.27033931 0.0 0.031983908 -0.26556632 0.0 0.030314672999999997 -0.26141006 0.0 0.027532617000000002 -0.3086696 0.0 0.059867814000000005 -0.30584559 0.0 0.051515017 -0.30199951 0.0 0.044289682000000004 -0.29807824 0.0 0.040721092 -0.29424545 0.0 0.037698407 -0.29044735 0.0 0.034258861 -0.33424532 0.0 0.06395284799999999 -0.33264345 0.0 0.05799976 -0.33041972 0.0 0.051850274 -0.32780984 0.0 0.047899897999999996 -0.32483679 0.0 0.044435665 -0.3215031 0.0 0.040816873 -0.36297834 0.0 0.066215433 -0.36237225 0.0 0.061817158 -0.36131868 0.0 0.057062550999999996 -0.35974163 0.0 0.053780898 -0.3575682 0.0 0.050565716 -0.35479739 0.0 0.047126874000000006 -0.39483756 0.0 0.068589255 -0.39505225 0.0 0.064977966 -0.39491889 0.0 0.061354495999999994 -0.39422041 0.0 0.059068359 -0.3928104 0.0 0.056380915999999996 -0.39064294 0.0 0.05328761 -0.43018591 0.0 0.071919814 -0.43110108 0.0 0.06846872 -0.43170297 0.0 0.065708235 -0.43172318 0.0 0.064350367 -0.43096104 0.0 0.062199149 -0.42931986 0.0 0.059497938 -0.46971223 0.0 0.076265216 -0.47106805 0.0 0.072676584 -0.47213575 0.0 0.070604935 -0.47262171 0.0 0.07000089400000001 -0.47228983 0.0 0.068293251 -0.47100386 0.0 0.065937832 -0.51384073 0.0 0.08148738700000001 -0.51530218 0.0 0.077749267 -0.51649004 0.0 0.076303907 -0.51710576 0.0 0.076212913 -0.51690388 0.0 0.07479059 -0.51573282 0.0 0.072691932 -0.56282741 0.0 0.08748671400000001 -0.56395692 0.0 0.083758391 -0.56481606 0.0 0.082807489 -0.56512541 0.0 0.082934082 -0.56466526 0.0 0.081636563 -0.56330156 0.0 0.07971378400000001 -0.61650747 0.0 0.094222479 -0.61671937 0.0 0.090615623 -0.61666149 0.0 0.089810066 -0.61610818 0.0 0.08986774800000001 -0.61490917 0.0 0.08862414199999999 -0.61298317 0.0 0.086855203 -0.6735729 0.0 0.10144859 -0.67214847 0.0 0.097930454 -0.67046046 0.0 0.096670873 -0.6683948 0.0 0.09656562699999999 -0.66591436 0.0 0.095504053 -0.66302454 0.0 0.09396977699999999 -0.7305361 0.0 0.10851845 -0.72675031 0.0 0.10494288 -0.72272086 0.0 0.10257463 -0.71851802 0.0 0.10270616 -0.71425956 0.0 0.10221617 -0.71005696 0.0 0.10109986 -0.78075212 0.0 0.1143854 -0.77412802 0.0 0.11071541 -0.76729703 0.0 0.10698666 -0.76059341 0.0 0.10850981 -0.75431007 0.0 0.10925648 -0.74865347 0.0 0.10874708 -0.81394345 0.0 0.11778323 -0.80461597 0.0 0.11446515 -0.79514951 0.0 0.11005421 -0.78617579 0.0 0.11511485 -0.77813941 0.0 0.11793914 -0.77130097 0.0 0.11814175 -0.81604409 0.0 0.11798295 -0.80524653 0.0 0.11620449 -0.79446918 0.0 0.11330527 -0.78452915 0.0 0.12468646 -0.7758736 0.0 0.13036342 -0.76874256 0.0 0.13120216 -0.76799601 0.0 0.11580805 -0.75851512 0.0 0.11760047 -0.74950379 0.0 0.11990283 -0.74164289 0.0 0.13938697 -0.7350263 0.0 0.14833958 -0.72962052 0.0 0.14991878 -0.64495617 0.0 0.11402719 -0.64109117 0.0 0.12298585 -0.63843292 0.0 0.13485156 -0.63722211 0.0 0.15914488 -0.63689572 0.0 0.17210822 -0.63676912 0.0 0.17517987 -0.41975319 0.0 0.12430731 -0.42632368 0.0 0.14442387 -0.43477917 0.0 0.15444253 -0.4448784 0.0 0.18114664 -0.45533755 0.0 0.19965345 -0.46460059 0.0 0.20592858 -0.073370852 0.0 0.15177134 -0.09400807300000001 0.0 0.1859016 -0.1167769 0.0 0.1868445 -0.14104174 0.0 0.20532578 -0.16498718 0.0 0.22652671 -0.18629949 0.0 0.23886992 0.38909489 0.0 0.18255591 0.35411641 0.0 0.2420062 0.31720462 0.0 0.22924192 0.27958456 0.0 0.23507978 0.2432119 0.0 0.25056136 0.2106521 0.0 0.26934019 0.92273855 0.0 0.16270122 0.87904412 0.0 0.27399802 0.83342516 0.0 0.25567824 0.78835505 0.0 0.26245177 0.74555683 0.0 0.2694999 0.70713687 0.0 0.29328766 1.4367511999999998 0.0 0.14541472 1.3980223 0.0 0.26903805 1.3561921000000001 0.0 0.25387439 1.3153588999999999 0.0 0.28232351 1.277025 0.0 0.28609678 1.2422276 0.0 0.30972761 1.8152856 0.0 0.09980875300000001 1.7998710999999998 0.0 0.23730963 1.780386 0.0 0.24521627 1.7599511000000003 0.0 0.28589752 1.7398851999999998 0.0 0.29747066 1.7199043 0.0 0.32053715 1.9896543999999998 0.0 0.042863134000000004 2.0040436 0.0 0.2331557 2.0181282 0.0 0.20339149 2.0301351999999997 0.0 0.252363 2.0382648000000003 0.0 0.28208765 2.0407076 0.0 0.31728113 1.9848139 0.0 0.015613256 2.0240679 0.0 0.25927499 2.0669568 0.0 0.17918731 2.1080136 0.0 0.22939497 2.1424961 0.0 0.2714555 2.1666923 0.0 0.31472504 1.8835212 0.0 0.011596803000000001 1.9385436999999999 0.0 0.28718042 1.9990431 0.0 0.18796352 2.0580385 0.0 0.22756393 2.1092286 0.0 0.27269325 2.1476657 0.0 0.31790611 1.7699343 0.0 0.016007148 1.8311983 0.0 0.307385 1.8976278999999998 0.0 0.21334493 1.9623272 0.0 0.24246866 2.0186732 0.0 0.28416482 2.0612812 0.0 0.32641247 1.6900865000000003 0.0 0.02161243 1.7494136999999998 0.0 0.316239 1.8124136999999998 0.0 0.23875742 1.8729063999999997 0.0 0.26585349 1.924554 0.0 0.30028102 1.9621279999999999 0.0 0.33730334 1.6420105999999999 0.0 0.02103164 1.6933552 0.0 0.31024754 1.7465490000000001 0.0 0.25170258 1.7960720000000001 0.0 0.28412074 1.8360819 0.0 0.3139075 1.861927 0.0 0.34693083 1.5916211999999998 0.0 0.019396892 1.6310966 0.0 0.29721504 1.6704515 0.0 0.2544142 1.7046747 0.0 0.2935116 1.7286255000000001 0.0 0.32177117 1.7386742 0.0 0.35263586 1.5013957 0.0 0.023789769 1.5264429 0.0 0.28259137 1.5490812 0.0 0.2520839 1.5648718000000001 0.0 0.2951729 1.5698336000000002 0.0 0.32347956 1.5619246999999998 0.0 0.35335496 1.3554085 0.0 0.041745305 1.3636371 0.0 0.27111518 1.3668553999999997 0.0 0.24989562 1.3614521000000002 0.0 0.29126555 1.3451995 0.0 0.31936672 1.3183171999999999 0.0 0.34921041 1.1662893 0.0 0.07116048 1.1555252 0.0 0.26666239 1.1370183 0.0 0.24596481 1.1084644 0.0 0.28186244 1.0699923999999998 0.0 0.3100805 1.0247828 0.0 0.3407869 0.96417123 0.0 0.10592498 0.93337154 0.0 0.2651408 0.89245862 0.0 0.23774369 0.84112155 0.0 0.26751813 0.7826159 0.0 0.298742 0.72275513 0.0 0.32901049 0.77973944 0.0 0.13991918 0.7299391 0.0 0.26509812 0.6684863 0.0 0.22665176 0.5978905 0.0 0.25608683 0.52449369 0.0 0.2866517 0.45530641 0.0 0.31404638 0.62912971 0.0 0.15816902 0.56442261 0.0 0.26058546 0.48744634 0.0 0.21471794 0.40347439 0.0 0.2457643 0.32143193 0.0 0.27072093 0.24830212 0.0 0.29564601 0.51170063 0.0 0.15700923 0.43880072 0.0 0.24705599 0.35278782 0.0 0.19877179 0.26197514 0.0 0.23027755 0.1777308 0.0 0.25149187 0.10558357 0.0 0.27430263 0.418374 0.0 0.13429759 0.34385499 0.0 0.22527531 0.25305876 0.0 0.17916454 0.16212757 0.0 0.21287572 0.081923991 0.0 0.2314603 0.015342376999999999 0.0 0.25130042 0.35123909 0.0 0.10041478 0.2692326 0.0 0.18781187 0.17211251 0.0 0.16636935 0.08735988300000001 0.0 0.19737899 0.016957119 0.0 0.21270652 -0.039871365 0.0 0.2281954 0.31887636 0.0 0.10011511 0.20302643 0.0 0.15809676 0.10031338 0.0 0.15856822 0.024847302999999998 0.0 0.18587516 -0.031536967 0.0 0.19697449 -0.075364761 0.0 0.20720224 0.27970561 0.0 0.086797684 0.14382523 0.0 0.13919275 0.035137799 0.0 0.14890207 -0.030506823 0.0 0.17533374 -0.071311794 0.0 0.18528113 -0.10071506 0.0 0.18957427 0.098163955 0.0 0.11978958 -0.018436536 0.0 0.1290016 -0.07656502 0.0 0.15739799 -0.1039147 0.0 0.17390604 -0.1199499 0.0 0.17584215 0.070482276 0.0 0.10002503 -0.046153493 0.0 0.10994871 -0.10738928 0.0 0.13015349 -0.1273661 0.0 0.1582568 -0.13422015 0.0 0.16397358 -0.037799532999999996 0.0 0.10135079 -0.11405186 0.0 0.10584104 -0.13814792 0.0 0.13782486 -0.14294806 0.0 0.15252826 -0.00713907 0.0 0.09539525199999999 -0.08359662400000001 0.0 0.10074078 -0.12956068 0.0 0.11670589 -0.14252172 0.0 0.14031604 -0.027715922999999996 0.0 0.1088644 -0.08875303 0.0 0.11110909 -0.12178782 0.0 0.13192068 -0.02388343 0.0 0.11956061 -0.06441156599999999 0.0 0.13581827 -0.013196315 0.0 0.10158081 0.0022149126 0.0 0.14299509 -0.04805059 0.0 0.0018862546 -0.049487643 0.0 0.0018384388 -0.050332338 0.0 0.0016642732999999999 -0.050752967999999996 0.0 0.0014365681 -0.050890606 0.0 0.0011985947000000001 -0.050860561 0.0 0.00097763585 -0.050752208 0.0 0.00079165463 -0.050630972 0.0 0.0006520116599999999 -0.0505412 0.0 0.0005656789900000001 -0.05687562400000001 0.0 0.0024747266 -0.05839888 0.0 0.0024089201 -0.059249841 0.0 0.0021840308 -0.059627078 0.0 0.0018912348000000002 -0.059695251 0.0 0.0015830121 -0.05958841 0.0 0.0012952134 -0.05940906 0.0 0.0010520966 -0.059231612999999995 0.0 0.00086918741 -0.059106056 0.0 0.0007559832300000001 -0.064398035 0.0 0.0029569815 -0.065876432 0.0 0.0028715665 -0.066634163 0.0 0.0026072166 -0.066896215 0.0 0.0022656017 -0.066846184 0.0 0.0019033751000000002 -0.06663110900000001 0.0 0.0015630552 -0.066361643 0.0 0.0012743847 -0.066117048 0.0 0.0010566632 -0.065950252 0.0 0.00092173211 -0.071629703 0.0 0.0032871307 -0.072965935 0.0 0.0031803941999999997 -0.073553458 0.0 0.0028926593 -0.073643163 0.0 0.0025248637 -0.073435269 0.0 0.0021318488000000003 -0.073085405 0.0 0.0017598932999999999 -0.07270886 0.0 0.0014427254 -0.072387069 0.0 0.0012026833 -0.072173722 0.0 0.0010536360000000002 -0.079530306 0.0 0.0034668359000000004 -0.08065641700000001 0.0 0.0033404715000000004 -0.08101760599999999 0.0 0.0030480151000000003 -0.080892727 0.0 0.0026785075 -0.080496006 0.0 0.0022799661 -0.07998952299999999 0.0 0.0018989726 -0.079490937 0.0 0.0015715861999999999 -0.079082191 0.0 0.0013224983 -0.07881690599999999 0.0 0.0011673541 -0.08880005 0.0 0.0035347964000000003 -0.089662634 0.0 0.0033997355 -0.089755461 0.0 0.0031235202000000004 -0.08938412400000001 0.0 0.0027769858000000003 -0.08877404 0.0 0.0023970101000000002 -0.088092171 0.0 0.0020276941 -0.087457649 0.0 0.0017062692000000001 -0.086952351 0.0 0.0014595727 -0.086629383 0.0 0.0013051018 -0.09980025099999999 0.0 0.0035620194 -0.10034554 0.0 0.0034382173 -0.10013458 0.0 0.0032018040999999995 -0.09949074699999999 0.0 0.0029027440999999997 -0.098646879 0.0 0.0025626393 -0.09777319400000001 0.0 0.002221616 -0.096989878 0.0 0.0019180741000000001 -0.09637862400000001 0.0 0.0016816244 -0.095992193 0.0 0.0015322337 -0.11261638 0.0 0.0036674878000000004 -0.11277967 0.0 0.0035672751 -0.11222792 0.0 0.0033922356 -0.11128804 0.0 0.003161873 -0.11019348 0.0 0.0028780996999999997 -0.1091148 0.0 0.0025762245 -0.10817202 0.0 0.002296882 -0.10744672 0.0 0.0020739255 -0.10699187 0.0 0.0019310516 -0.12726142 0.0 0.0040431828000000005 -0.12694333 0.0 0.0039452049 -0.12601081 0.0 0.0038331803000000004 -0.12475369 0.0 0.0036797490999999996 -0.12339608 0.0 0.0034588554 -0.1221035 0.0 0.0031986299 -0.12099401 0.0 0.0029428969 -0.12014927 0.0 0.0027314601000000003 -0.11962238 0.0 0.0025932696 -0.14383367 0.0 0.0049564838 -0.14292526 0.0 0.0047866772 -0.14157195 0.0 0.0046956874 -0.1399799 0.0 0.0045988257 -0.13835131 0.0 0.0044287173 -0.13684091 0.0 0.0042000664 -0.13556191 0.0 0.003958628 -0.13459516 0.0 0.0037509005 -0.13399455 0.0 0.0036121404 -0.16243418 0.0 0.0067097703 -0.16086619 0.0 0.006338223299999999 -0.15905742 0.0 0.006171009 -0.15711708 0.0 0.0060695456 -0.15521421 0.0 0.0059112222 -0.15348575 0.0 0.0056871097 -0.1520381 0.0 0.0054401695 -0.15095 0.0 0.0052220277 -0.1502758 0.0 0.0050740712 -0.18310012 0.0 0.0095557496 -0.18087284 0.0 0.0088155083 -0.17859177 0.0 0.008433165 -0.17629804 0.0 0.0082277255 -0.17412205 0.0 0.0080142962 -0.17217951 0.0 0.007749853199999999 -0.17056727 0.0 0.0074670282 -0.16936147 0.0 0.0072184447 -0.16861638 0.0 0.0070497184 -0.20584475 0.0 0.013593715 -0.20302387 0.0 0.012329698 -0.20028515 0.0 0.011589693 -0.19764847 0.0 0.011164451 -0.19520861 0.0 0.010811796 -0.19306089 0.0 0.010449402 -0.19129252 0.0 0.010092420999999999 -0.18997617 0.0 0.0097891102 -0.18916488 0.0 0.0095861051 -0.23067527 0.0 0.018706428 -0.22737466 0.0 0.016840605 -0.22423472 0.0 0.015644958 -0.22128832 0.0 0.014901343000000001 -0.21860582 0.0 0.014328142 -0.21626937 0.0 0.013808023 -0.2143589 0.0 0.013336097 -0.21294317 0.0 0.01295221 -0.21207331 0.0 0.012700701000000002 -0.25759658 0.0 0.024590461 -0.25396827 0.0 0.02216666 -0.25052783 0.0 0.020497905 -0.24732935 0.0 0.019384248 -0.24444047 0.0 0.018532632 -0.24194095 0.0 0.017805241 -0.23990895 0.0 0.017181471 -0.2384097 0.0 0.016692266 -0.23749116 0.0 0.016378235 -0.28663579 0.0 0.030884085 -0.28286558 0.0 0.02805266 -0.27925062 0.0 0.025978636 -0.27587605 0.0 0.024501516 -0.27282956 0.0 0.023348151 -0.27020225 0.0 0.022382051 -0.26807469 0.0 0.0215776 -0.26651099 0.0 0.020961227 -0.26555544 0.0 0.020571278000000002 -0.31788862 0.0 0.037304334 -0.31416294 0.0 0.034263764 -0.31049606 0.0 0.031907871000000004 -0.30702472 0.0 0.030120296 -0.30387491 0.0 0.028672935 -0.30115873 0.0 0.027453788 -0.2989648 0.0 0.026447309 -0.29735661 0.0 0.025684126 -0.29637635 0.0 0.025205089 -0.35153934 0.0 0.043713529 -0.34798861 0.0 0.04065514 -0.34436193 0.0 0.038151059 -0.34086025 0.0 0.03612487 -0.33765647 0.0 0.034406781000000004 -0.33488753 0.0 0.032928333 -0.33265269 0.0 0.031700812 -0.33101711 0.0 0.030770733999999998 -0.33002111 0.0 0.030188395 -0.3877984 0.0 0.050126418 -0.38447547 0.0 0.04718842400000001 -0.38093704 0.0 0.044642955 -0.3774462 0.0 0.04244072 -0.37422043 0.0 0.040472258 -0.37142208 0.0 0.038725617999999996 -0.36916122 0.0 0.037254769 -0.36750621 0.0 0.036134746 -0.36649922 0.0 0.035432804 -0.42684346 0.0 0.05664923 -0.42373079 0.0 0.053902593 -0.42028221 0.0 0.05137971 -0.4168112 0.0 0.049040738 -0.41357106 0.0 0.046830021 -0.41074479 0.0 0.044799067000000005 -0.40845487 0.0 0.043057658 -0.40677565 0.0 0.04172112 -0.40575245 0.0 0.040881261 -0.46877766 0.0 0.063395925 -0.46580487 0.0 0.06086209 -0.46240932 0.0 0.058394565999999995 -0.45893425 0.0 0.05594259099999999 -0.45565802 0.0 0.053492501 -0.4527809 0.0 0.051160429 -0.45043701 0.0 0.049121309 -0.44871226 0.0 0.047541302 -0.44765839 0.0 0.046544722999999996 -0.51358712 0.0 0.070422783 -0.51064807 0.0 0.068111755 -0.50723886 0.0 0.065736897 -0.50371104 0.0 0.063210599 -0.50035369 0.0 0.060542248 -0.49737948 0.0 0.057908699 -0.49493888 0.0 0.055556469000000004 -0.49313146 0.0 0.05371286 -0.49202231 0.0 0.05254385599999999 -0.56102532 0.0 0.077702008 -0.55799258 0.0 0.075662628 -0.55449325 0.0 0.07347264099999999 -0.55085588 0.0 0.070969395 -0.54736382 0.0 0.068155572 -0.54423857 0.0 0.065260187 -0.5416469 0.0 0.062607013 -0.53971052 0.0 0.06049655 -0.53851467 0.0 0.059148025 -0.61033362 0.0 0.085149355 -0.607077 0.0 0.08351907900000001 -0.60342652 0.0 0.081710838 -0.59964508 0.0 0.079429127 -0.59598464 0.0 0.07662706799999999 -0.59266645 0.0 0.07357251599999999 -0.58987665 0.0 0.070674174 -0.58776695 0.0 0.06832121299999999 -0.58645308 0.0 0.066800728 -0.65975845 0.0 0.092711091 -0.65617192 0.0 0.091742605 -0.65235382 0.0 0.090644054 -0.64844602 0.0 0.088907242 -0.64463341 0.0 0.086378105 -0.64112157 0.0 0.083346933 -0.6381169 0.0 0.080316953 -0.63581079 0.0 0.077784374 -0.63435847 0.0 0.076121829 -0.70598018 0.0 0.10050178 -0.7020148 0.0 0.10053716 -0.69808084 0.0 0.10058134 -0.69413775 0.0 0.099821486 -0.69026178 0.0 0.09792814400000001 -0.68662161 0.0 0.09519050300000001 -0.68344218 0.0 0.09221409300000001 -0.68095624 0.0 0.089618944 -0.67937034 0.0 0.08787783199999999 -0.74372411 0.0 0.10899182 -0.73943406 0.0 0.11034387 -0.73551625 0.0 0.11196318 -0.73170763 0.0 0.11264884 -0.72793823 0.0 0.11182135 -0.7243188 0.0 0.10973071 -0.7210778 0.0 0.10707805 -0.71849096 0.0 0.10461064 -0.71681702 0.0 0.10290444 -0.76576602 0.0 0.11921141 -0.76138365 0.0 0.12195881 -0.7577222 0.0 0.12538128 -0.75430185 0.0 0.12787136 -0.75089622 0.0 0.12853117 -0.74754077 0.0 0.12750298 -0.7444489 0.0 0.12554173 -0.74192256 0.0 0.12349192 -0.7402615 0.0 0.12200739 -0.76328105 0.0 0.13280083 -0.75932759 0.0 0.13661112 -0.75635362 0.0 0.14163399 -0.75372088 0.0 0.14597914 -0.75107324 0.0 0.14842756 -0.74836361 0.0 0.14891171 -0.74576479 0.0 0.14813046 -0.74357426 0.0 0.14693052 -0.74210417 0.0 0.14596397 -0.7255975 0.0 0.1516642 -0.72301435 0.0 0.1558661 -0.7214523 0.0 0.16181685 -0.72022682 0.0 0.16765691 -0.71890348 0.0 0.17198524 -0.71736377 0.0 0.17444046 -0.71572006 0.0 0.17547327 -0.71422797 0.0 0.17574166 -0.71318048 0.0 0.17573719 -0.63672853 0.0 0.17714311 -0.63712227 0.0 0.18119694 -0.63803285 0.0 0.18730621 -0.63902688 0.0 0.19407795 -0.63970256 0.0 0.20022583 -0.63990486 0.0 0.20512083 -0.63968933 0.0 0.20874754 -0.63925552 0.0 0.21129723 -0.63885754 0.0 0.21285687 -0.47187841 0.0 0.20915659 -0.47753957 0.0 0.21329285 -0.48234156 0.0 0.21932591 -0.48649102 0.0 0.22677107 -0.48985493 0.0 0.23481177 -0.49232563 0.0 0.24270852 -0.4939419 0.0 0.24985215 -0.49486229 0.0 0.25566548 -0.49529603 0.0 0.25952679 -0.2034252 0.0 0.24567027 -0.21641904 0.0 0.25137755 -0.22649935 0.0 0.25821418 -0.2346776 0.0 0.26691514 -0.24129635 0.0 0.27744064 -0.24642591 0.0 0.28916368 -0.25014758 0.0 0.3009018 -0.2526091 0.0 0.31109115 -0.25398993 0.0 0.31808907 0.18386522 0.0 0.28275704 0.16320419 0.0 0.29284501 0.1473922 0.0 0.30270183 0.13485336 0.0 0.31434524 0.12478308 0.0 0.32868513 0.11689039 0.0 0.34544197 0.11101342 0.0 0.36300728 0.10698906 0.0 0.37874183 0.1046534 0.0 0.38973823 0.67474604 0.0 0.31563911 0.64890474 0.0 0.33349115 0.62869596 0.0 0.34952864 0.61255598 0.0 0.36665958 0.59953523 0.0 0.38674459 0.58923221 0.0 0.41002122 0.58145386 0.0 0.43463939 0.57604671 0.0 0.45693067 0.57286966 0.0 0.47262841 1.2116451000000001 0.0 0.34038785 1.1857524 0.0 0.36845034 1.164351 0.0 0.39366668 1.1465716000000001 0.0 0.41887474 1.1318178 0.0 0.44666156 1.1198502000000001 0.0 0.47779495 1.1106002000000001 0.0 0.51033568 1.1040456 0.0 0.53974372 1.1001421999999998 0.0 0.5604642 1.6996911 0.0 0.355782 1.6798775000000001 0.0 0.39379582 1.6613797 0.0 0.42943615 1.6445622 0.0 0.46416777 1.6295781 0.0 0.50084662 1.6166826 0.0 0.54055613 1.6062143999999998 0.0 0.58130789 1.5985056999999998 0.0 0.61786956 1.5937982 0.0 0.64356387 2.0367272 0.0 0.36172116 2.0273316 0.0 0.40840548 2.0146754000000002 0.0 0.45285401 2.0006356 0.0 0.49634784 1.9865037 0.0 0.54158688 1.973285 0.0 0.58958864 1.9618857 0.0 0.63814116 1.9531019 0.0 0.68136364 1.9475629 0.0 0.71162891 2.1790682999999995 0.0 0.36393893 2.1807821 0.0 0.41459072 2.1748792999999997 0.0 0.46405947 2.1646271 0.0 0.51363623 2.1524551 0.0 0.56556022 2.1400728 0.0 0.62040812 2.1288235 0.0 0.67550397 2.1198387000000003 0.0 0.7243042 2.1140375 0.0 0.75837195 2.1710932 0.0 0.36662346 2.1805722999999997 0.0 0.41658124 2.1796775 0.0 0.46692324 2.1726438999999997 0.0 0.5190981 2.1626506 0.0 0.57484692 2.1518056 0.0 0.63415509 2.1416182999999998 0.0 0.69377154 2.1333051 0.0 0.74650812 2.127857 0.0 0.78327906 2.0876316999999998 0.0 0.37153307 2.0988705000000003 0.0 0.41786438 2.0990336 0.0 0.46591267 2.0928853 0.0 0.51747847 2.0838962 0.0 0.57399088 2.0742006 0.0 0.63497114 2.0651629000000002 0.0 0.69666576 2.0578122 0.0 0.75137001 2.0529973999999998 0.0 0.78954494 1.9834043999999997 0.0 0.37807408 1.9900593 0.0 0.41985148 1.9866681000000002 0.0 0.46397364 1.9782205000000002 0.0 0.51268262 1.9681206000000002 0.0 0.56739026 1.9582349 0.0 0.62744278 1.9495735 0.0 0.68881869 1.9427993000000001 0.0 0.74352485 1.9384637999999998 0.0 0.78180361 1.8721912 0.0 0.38419992 1.8694407 0.0 0.42196622 1.8587976000000002 0.0 0.46189213 1.8452349 0.0 0.50660765 1.8318516 0.0 0.55777901 1.8201243000000003 0.0 0.61489123 1.8106331999999998 0.0 0.67395312 1.8036307 0.0 0.72698015 1.7993138 0.0 0.76423657 1.7346126 0.0 0.38770381 1.7199686 0.0 0.42256749 1.7001761999999998 0.0 0.45878723 1.6799176 0.0 0.49923319 1.6618587 0.0 0.54596472 1.6470367 0.0 0.59883726 1.6356412 0.0 0.65417171 1.6275793 0.0 0.70426756 1.6227585 0.0 0.73964107 1.5423841 0.0 0.38712919 1.5155206 0.0 0.41999981 1.4866306999999999 0.0 0.45315599 1.4597431 0.0 0.4895137 1.4368834 0.0 0.53151101 1.4186329 0.0 0.57948881 1.4048705 0.0 0.63025987 1.3952892 0.0 0.67662233 1.3896321000000003 0.0 0.70954221 1.2837301 0.0 0.38200963 1.2461416 0.0 0.41332877 1.2100435 0.0 0.44390088 1.1782754999999998 0.0 0.47650632 1.151957 0.0 0.51384538 1.1311502 0.0 0.55673689 1.1154986999999998 0.0 0.60256207 1.1046096 0.0 0.64476115 1.0981892 0.0 0.67490029 0.97749257 0.0 0.37263274 0.93249446 0.0 0.40253758 0.89267665 0.0 0.43085238 0.85917389 0.0 0.46009302 0.83197385 0.0 0.49305415 0.8105647 0.0 0.53094906 0.79440314 0.0 0.57173795 0.7830956 0.0 0.60958743 0.77639848 0.0 0.63677037 0.6669966 0.0 0.35961565 0.61882609 0.0 0.38817298 0.57915366 0.0 0.41455662 0.54720294 0.0 0.44089395 0.52177256 0.0 0.46989682 0.5018059 0.0 0.50305027 0.48662865 0.0 0.53887391 0.47590938 0.0 0.57231462 0.46951261 0.0 0.59644336 0.39572564 0.0 0.34330595 0.34802926 0.0 0.37075606 0.31125045 0.0 0.3956992 0.28290698 0.0 0.41974905 0.26078242 0.0 0.44537544 0.24342324 0.0 0.47420511 0.23010047 0.0 0.50527847 0.22057877 0.0 0.53435624 0.21484132 0.0 0.55539244 0.18856241 0.0 0.32375595 0.14338252 0.0 0.35055372 0.11042937 0.0 0.37474796 0.085989915 0.0 0.39730901 0.06720316400000001 0.0 0.42033371 0.052435580999999995 0.0 0.44545951 0.040992618 0.0 0.47218224 0.032727219 0.0 0.49708185 0.027704969 0.0 0.5150761 0.048331849 0.0 0.30107769 0.0062095118 0.0 0.3276805 -0.023548028999999998 0.0 0.3518618 -0.045175251 0.0 0.37381974 -0.06173002 0.0 0.39516044 -0.074783124 0.0 0.41739485 -0.084929116 0.0 0.44036898 -0.0922748 0.0 0.46145067 -0.096748061 0.0 0.47657388 -0.037130114 0.0 0.27599919 -0.07626155 0.0 0.30232322 -0.1043118 0.0 0.32701474 -0.12492348 0.0 0.34916261 -0.14087084 0.0 0.36975467 -0.15344475 0.0 0.39002341 -0.16312325 0.0 0.4100188 -0.17005181 0.0 0.42782742 -0.17423737 0.0 0.44039229 -0.08528350300000001 0.0 0.24980575 -0.12121228 0.0 0.27500865 -0.14898463 0.0 0.30017343 -0.17038599 0.0 0.32301646 -0.18727949 0.0 0.34366545 -0.20053139 0.0 0.36290473 -0.21053232 0.0 0.38080245 -0.21753645 0.0 0.3960394 -0.22169617 0.0 0.40648988 -0.11140938 0.0 0.22428107 -0.14314348 0.0 0.24687251 -0.17116554 0.0 0.27164847 -0.19460148 0.0 0.2951878 -0.21352421 0.0 0.31637973 -0.22830057 0.0 0.33537048 -0.23924641 0.0 0.35205349 -0.24673529 0.0 0.36552122 -0.25109369 0.0 0.37441441 -0.12559609 0.0 0.20128874 -0.15132383 0.0 0.21978512 -0.17853539 0.0 0.24255462 -0.20420653 0.0 0.2660411 -0.22571151 0.0 0.28771296 -0.24256322 0.0 0.30685514 -0.25492778 0.0 0.32302552 -0.26324287 0.0 0.33550015 -0.26799902 0.0 0.34343141 -0.13316163 0.0 0.1823038 -0.15084791 0.0 0.19585066 -0.17476723 0.0 0.21494883 -0.20119894 0.0 0.23677549 -0.22526483 0.0 0.25817725 -0.2445465 0.0 0.27730379 -0.25875169 0.0 0.29324189 -0.26824963 0.0 0.30523783 -0.2736246 0.0 0.31267866 -0.13744898 0.0 0.16777961 -0.14590283 0.0 0.17680028 -0.16338073 0.0 0.19126529 -0.18730147 0.0 0.20953697 -0.21230118 0.0 0.2290834 -0.23391157 0.0 0.2473776 -0.25027746 0.0 0.26279938 -0.26134667 0.0 0.2743687 -0.26763105 0.0 0.28148353 -0.14090684 0.0 0.15684304 -0.14105694 0.0 0.16315085 -0.14980933 0.0 0.17319776 -0.16728204 0.0 0.18678565 -0.18947431 0.0 0.2025519 -0.21137294 0.0 0.21844006 -0.22947563 0.0 0.23244898 -0.24228953 0.0 0.24316275 -0.249727 0.0 0.2497824 -0.14402971 0.0 0.14825357 -0.14014854 0.0 0.15376461 -0.14018138 0.0 0.16076836 -0.14841482 0.0 0.16980264 -0.16361342 0.0 0.18074527 -0.18183394 0.0 0.19253965 -0.19901834 0.0 0.20365839 -0.21248773 0.0 0.21261564 -0.22083458 0.0 0.21830748 -0.13945304 0.0 0.14315712 -0.14308472 0.0 0.14742245 -0.139045 0.0 0.1522949 -0.13774514 0.0 0.15790419 -0.14307927 0.0 0.16427453 -0.15364318 0.0 0.17132877 -0.16618516 0.0 0.17837578 -0.1775838 0.0 0.18445899 -0.18537721 0.0 0.18855281 -0.11002263 0.0 0.14316815 -0.13550439 0.0 0.14693189 -0.1438231 0.0 0.14697008 -0.13901033 0.0 0.14908516 -0.13446276 0.0 0.15180321 -0.13485797 0.0 0.15474094 -0.13960806 0.0 0.15773273 -0.1460605 0.0 0.16048343 -0.15135561 0.0 0.16249333 -0.053933725 0.0 0.14574057 -0.099096864 0.0 0.14939588 -0.12991104 0.0 0.14867453 -0.14227323 0.0 0.14451811 -0.13831107 0.0 0.1421548 -0.13025522 0.0 0.14149372 -0.12580469 0.0 0.14144012 -0.1254748 0.0 0.14152314 -0.12675251 0.0 0.14163871 -0.015258878 0.0 0.13803777 -0.052315306 0.0 0.14307001 -0.085538164 0.0 0.14906871 -0.11494014 0.0 0.14668259 -0.1301419 0.0 0.1397135 -0.13105482 0.0 0.13306798 -0.12464999 0.0 0.12919317 -0.11897939 0.0 0.12734054 -0.11655167 0.0 0.12633321 -0.044079453 0.0 0.12540069 -0.054222081 0.0 0.13460097 -0.081094645 0.0 0.13707297 -0.09628065699999999 0.0 0.13750103 -0.10778582 0.0 0.13133705 -0.11001898 0.0 0.12435793 -0.11203102 0.0 0.11886188 -0.1138049 0.0 0.11601225 -0.082857795 0.0 0.11542939 -0.08695275300000001 0.0 0.1213776 -0.10026331 0.0 0.11991898 -0.10518593 0.0 0.11690485 -0.1131888 0.0 0.11226311 -0.12168752 0.0 0.10868803 -0.12793057 0.0 0.1032538 -0.1333369 0.0 0.10335726 -0.14561386 0.0 0.10280132 -0.15842117 0.0 0.10189426 -0.050508484000000006 0.0 0.00053649 -0.050541192 0.0 0.0005656787 -0.050630972 0.0 0.0006520116599999999 -0.0507522 0.0 0.0007916543400000001 -0.050860576 0.0 0.0009776362 -0.050890602 0.0 0.0011985945 -0.050752975 0.0 0.0014365683 -0.050332352999999996 0.0 0.001664273 -0.059061076 0.0 0.00071769574 -0.059106070999999996 0.0 0.00075598311 -0.059231628 0.0 0.00086918729 -0.059409052000000004 0.0 0.0010520964 -0.059588420999999996 0.0 0.0012952123 -0.059695248 0.0 0.0015830119 -0.059627052 0.0 0.0018912347 -0.059249832999999995 0.0 0.0021840313 -0.065891415 0.0 0.0008760705199999999 -0.06595026 0.0 0.0009217319300000001 -0.066117048 0.0 0.0010566622 -0.066361636 0.0 0.0012743837 -0.066631123 0.0 0.0015630551 -0.066846192 0.0 0.0019033748999999999 -0.066896215 0.0 0.0022656007000000002 -0.066634178 0.0 0.0026072178 -0.072099328 0.0 0.0010031527 -0.072173737 0.0 0.001053635 -0.072387084 0.0 0.0012026823 -0.07270889700000001 0.0 0.0014427251 -0.07308542 0.0 0.0017598923000000002 -0.073435262 0.0 0.0021318479 -0.073643178 0.0 0.0025248628 -0.073553473 0.0 0.0028926595000000003 -0.078725219 0.0 0.0011147343 -0.078816913 0.0 0.0011673539 -0.079082184 0.0 0.0013224967 -0.0794909 0.0 0.0015715851000000002 -0.07998952299999999 0.0 0.0018989713 -0.080495976 0.0 0.0022799645 -0.080892749 0.0 0.0026785063 -0.08101760599999999 0.0 0.0030480139000000003 -0.08651853400000001 0.0 0.0012525887 -0.08662936800000001 0.0 0.0013051014 -0.08695237300000001 0.0 0.0014595716 -0.087457597 0.0 0.0017062675 -0.08809215599999999 0.0 0.0020276918 -0.088774055 0.0 0.0023970094 -0.08938415300000001 0.0 0.0027769851 -0.089755446 0.0 0.0031235171 -0.095860302 0.0 0.0014812363 -0.09599223 0.0 0.0015322329999999998 -0.09637861 0.0 0.0016816228 -0.09698987 0.0 0.0019180739999999999 -0.09777319400000001 0.0 0.0022216144 -0.09864684900000001 0.0 0.0025626379000000003 -0.099490725 0.0 0.0029027427 -0.10013457 0.0 0.0032018053000000004 -0.10683703 0.0 0.0018819585999999998 -0.10699183 0.0 0.0019310514000000002 -0.10744672 0.0 0.0020739245 -0.10817197 0.0 0.0022968815 -0.10911481 0.0 0.0025762226 -0.11019349 0.0 0.0028780981 -0.11128801 0.0 0.0031618718 -0.11222783 0.0 0.0033922365 -0.1194434 0.0 0.0025453623 -0.11962234 0.0 0.00259327 -0.12014927 0.0 0.0027314610999999997 -0.120994 0.0 0.0029428971000000003 -0.12210339 0.0 0.0031986296999999995 -0.12339609 0.0 0.0034588536 -0.12475368 0.0 0.0036797478999999996 -0.12601078 0.0 0.0038331787 -0.13379093 0.0 0.0035635645 -0.1339945 0.0 0.0036121416 -0.13459519 0.0 0.0037509005 -0.13556197 0.0 0.0039586294 -0.13684088 0.0 0.0042000669000000004 -0.13835141 0.0 0.0044287145 -0.13997982 0.0 0.0045988243 -0.14157194 0.0 0.0046956865 -0.15004754 0.0 0.0050218878 -0.15027584 0.0 0.0050740703000000005 -0.15095001 0.0 0.0052220267 -0.15203805 0.0 0.0054401727 -0.15348577 0.0 0.005687110600000001 -0.15521429 0.0 0.0059112157 -0.15711696 0.0 0.0060695433 -0.15905738 0.0 0.0061710058 -0.16836442 0.0 0.006990131 -0.16861634 0.0 0.0070497189 -0.16936135 0.0 0.0072184423999999995 -0.17056732 0.0 0.0074670264 -0.17217945 0.0 0.0077498498999999995 -0.17412208 0.0 0.008014298000000001 -0.17629799 0.0 0.008227720899999999 -0.17859171 0.0 0.0084331557 -0.18889086 0.0 0.009514769499999999 -0.18916492 0.0 0.0095861061 -0.18997613 0.0 0.0097891176 -0.19129249 0.0 0.010092420999999999 -0.19306079 0.0 0.010449399 -0.19520865 0.0 0.010811794 -0.19764851 0.0 0.011164437 -0.20028511 0.0 0.011589686 -0.21177983 0.0 0.012613096 -0.21207327 0.0 0.012700691000000002 -0.21294311 0.0 0.012952212 -0.21435879 0.0 0.013336098000000001 -0.21626934 0.0 0.013808023 -0.21860586 0.0 0.014328131000000001 -0.22128838 0.0 0.014901332 -0.22423476 0.0 0.015644949 -0.23718165 0.0 0.016269846 -0.23749116 0.0 0.016378228999999998 -0.23840971 0.0 0.01669227 -0.23990908 0.0 0.017181465 -0.24194106 0.0 0.017805239 -0.24444048 0.0 0.018532611 -0.24732932 0.0 0.019384228 -0.25052783 0.0 0.020497892 -0.26523405 0.0 0.020437609 -0.26555526 0.0 0.020571275 -0.26651093 0.0 0.020961238 -0.26807457 0.0 0.021577588999999998 -0.27020207 0.0 0.022382047000000002 -0.27282947 0.0 0.023348137999999997 -0.27587596 0.0 0.024501488 -0.2792505 0.0 0.025978616 -0.29604694 0.0 0.025041537000000003 -0.2963762 0.0 0.025205085 -0.29735664 0.0 0.025684132999999998 -0.29896498 0.0 0.026447312999999997 -0.30115879 0.0 0.027453784 -0.30387509 0.0 0.028672906 -0.30702472 0.0 0.03012025 -0.31049597 0.0 0.031907838 -0.32968688 0.0 0.029989923999999998 -0.33002123 0.0 0.030188392999999997 -0.3310172 0.0 0.030770756 -0.33265254 0.0 0.031700801 -0.3348875 0.0 0.032928329 -0.33765644 0.0 0.034406748 -0.34086022 0.0 0.036124803 -0.34436187 0.0 0.038151002999999996 -0.3661609 0.0 0.035193632999999995 -0.36649889 0.0 0.035432793 -0.36750621 0.0 0.036134753 -0.36916122 0.0 0.037254747000000005 -0.3714222 0.0 0.038725603 -0.37422085 0.0 0.040472224 -0.37744623 0.0 0.042440668 -0.38093692 0.0 0.044642888 -0.40540883 0.0 0.040594902 -0.40575248 0.0 0.040881254 -0.40677577 0.0 0.041721106 -0.40845487 0.0 0.043057643 -0.41074485 0.0 0.044799048 -0.41357097 0.0 0.046829972000000004 -0.41681129 0.0 0.049040653 -0.42028245 0.0 0.051379642999999996 -0.44730425 0.0 0.046204615 -0.44765851 0.0 0.04654471599999999 -0.44871226 0.0 0.047541309000000004 -0.45043704 0.0 0.049121317000000005 -0.45278078 0.0 0.051160429 -0.45565832 0.0 0.053492457 -0.45893431 0.0 0.05594255 -0.46240923 0.0 0.058394488 -0.4916487 0.0 0.052144229 -0.49202234 0.0 0.052543879 -0.49313152 0.0 0.053712834 -0.49493882 0.0 0.055556457000000004 -0.49737954 0.0 0.057908662 -0.50035357 0.0 0.060542189 -0.50371128 0.0 0.06321054 -0.50723916 0.0 0.065736808 -0.53811026 0.0 0.058685615999999996 -0.53851438 0.0 0.05914804 -0.53971058 0.0 0.060496584000000006 -0.5416469 0.0 0.062607005 -0.54423851 0.0 0.06526015 -0.54736412 0.0 0.06815549 -0.55085605 0.0 0.070969321 -0.55449319 0.0 0.073472552 -0.58600634 0.0 0.06627677400000001 -0.58645326 0.0 0.066800743 -0.58776724 0.0 0.068321221 -0.58987629 0.0 0.070674203 -0.59266615 0.0 0.073572524 -0.59598488 0.0 0.07662700900000001 -0.59964502 0.0 0.07942909 -0.60342658 0.0 0.081710748 -0.63386172 0.0 0.075544827 -0.63435835 0.0 0.076121889 -0.63581091 0.0 0.077784412 -0.63811707 0.0 0.08031688599999999 -0.6411218 0.0 0.083346888 -0.64463365 0.0 0.086378075 -0.64844614 0.0 0.08890716 -0.65235418 0.0 0.090644024 -0.67882538 0.0 0.087267876 -0.67937028 0.0 0.08787789900000001 -0.68095636 0.0 0.089618959 -0.68344223 0.0 0.092214085 -0.68662167 0.0 0.095190458 -0.69026214 0.0 0.097928092 -0.69413835 0.0 0.099821433 -0.69808108 0.0 0.10058136 -0.71623743 0.0 0.10229924 -0.71681714 0.0 0.10290442 -0.71849072 0.0 0.10461069 -0.72107744 0.0 0.10707802 -0.72431904 0.0 0.10973064 -0.72793883 0.0 0.11182126 -0.73170793 0.0 0.11264881 -0.73551655 0.0 0.11196313 -0.73968208 0.0 0.12147171 -0.74026161 0.0 0.12200743 -0.74192262 0.0 0.12349185 -0.74444902 0.0 0.1255417 -0.74754077 0.0 0.12750292 -0.75089616 0.0 0.1285311 -0.75430149 0.0 0.12787132 -0.75772238 0.0 0.12538125 -0.74158639 0.0 0.14560322 -0.74210382 0.0 0.14596394 -0.74357444 0.0 0.14693044 -0.74576491 0.0 0.14813046 -0.74836373 0.0 0.14891161 -0.75107336 0.0 0.14842744 -0.75372058 0.0 0.14597915 -0.7563535 0.0 0.14163393 -0.71280372 0.0 0.17571242 -0.71318036 0.0 0.17573722 -0.71422821 0.0 0.17574167 -0.71572012 0.0 0.17547315 -0.71736342 0.0 0.17444046 -0.71890348 0.0 0.17198528 -0.72022676 0.0 0.16765687 -0.72145247 0.0 0.16181679 -0.63869894 0.0 0.21338922 -0.63885707 0.0 0.21285695 -0.63925552 0.0 0.21129729 -0.63968933 0.0 0.20874748 -0.6399051 0.0 0.20512076 -0.63970214 0.0 0.20022579 -0.639027 0.0 0.19407786 -0.63803339 0.0 0.18730615 -0.49541935 0.0 0.2608889 -0.49529624 0.0 0.25952682 -0.49486202 0.0 0.25566527 -0.49394187 0.0 0.24985197 -0.49232554 0.0 0.24270871 -0.48985493 0.0 0.23481175 -0.4864912 0.0 0.22677094 -0.48234165 0.0 0.21932589 -0.25443336 0.0 0.32059082 -0.25399005 0.0 0.31808907 -0.25260904 0.0 0.31109107 -0.25014758 0.0 0.30090153 -0.24642605 0.0 0.28916362 -0.24129646 0.0 0.27744052 -0.23467758 0.0 0.26691508 -0.22649954 0.0 0.25821447 0.10388796 0.0 0.39369801 0.10465346 0.0 0.3897379 0.10698906 0.0 0.37874168 0.11101352 0.0 0.36300728 0.11689056 0.0 0.34544188 0.12478315 0.0 0.32868519 0.13485329 0.0 0.31434518 0.14739212 0.0 0.30270183 0.57182246 0.0 0.47830206 0.57286966 0.0 0.47262847 0.57604665 0.0 0.45693064 0.5814535 0.0 0.43463936 0.58923203 0.0 0.41002128 0.59953457 0.0 0.3867445 0.6125558 0.0 0.36665949 0.62869585 0.0 0.34952876 1.0988454 0.0 0.56795633 1.1001419 0.0 0.5604642 1.1040459999999999 0.0 0.53974384 1.1106004999999999 0.0 0.5103358 1.1198506000000001 0.0 0.47779503 1.1318173 0.0 0.44666144 1.146572 0.0 0.41887495 1.1643515 0.0 0.39366677 1.5922178 0.0 0.65284508 1.5937976 0.0 0.64356381 1.5985056999999998 0.0 0.61786962 1.6062138000000001 0.0 0.58130813 1.6166826 0.0 0.54055601 1.6295792 0.0 0.50084633 1.6445615000000002 0.0 0.46416771 1.6613797 0.0 0.42943656 1.9456723000000002 0.0 0.72254461 1.9475644 0.0 0.71162856 1.9531019 0.0 0.68136376 1.9618862000000001 0.0 0.63814068 1.9732854 0.0 0.58958876 1.9865028000000002 0.0 0.54158688 2.0006348999999997 0.0 0.49634817 2.0146749 0.0 0.45285395 2.11203 0.0 0.77064431 2.1140368 0.0 0.75837207 2.1198403999999997 0.0 0.72430414 2.1288237999999997 0.0 0.67550415 2.1400747000000004 0.0 0.62040794 2.1524565 0.0 0.56556016 2.1646276 0.0 0.51363623 2.1748786 0.0 0.46405953 2.1259587000000004 0.0 0.79651737 2.1278579 0.0 0.78327882 2.1333057999999996 0.0 0.74650776 2.1416199000000002 0.0 0.69377124 2.1518059 0.0 0.63415527 2.1626506 0.0 0.57484692 2.1726441000000003 0.0 0.5190984 2.179678 0.0 0.46692333 2.0513201000000003 0.0 0.8032943 2.0529971000000002 0.0 0.78954494 2.0578115 0.0 0.75137013 2.0651627 0.0 0.69666606 2.0742011000000002 0.0 0.63497084 2.0838966 0.0 0.57399088 2.0928872 0.0 0.51747841 2.0990352999999997 0.0 0.46591282 1.9369677 0.0 0.7956084 1.9384637999999998 0.0 0.78180391 1.9427995999999998 0.0 0.74352437 1.9495738 0.0 0.68881845 1.958234 0.0 0.62744278 1.9681212 0.0 0.56738991 1.9782218999999996 0.0 0.5126828 1.9866681000000002 0.0 0.46397391 1.7978523000000002 0.0 0.7776978 1.7993139 0.0 0.76423633 1.8036313999999998 0.0 0.72698051 1.8106334 0.0 0.67395341 1.8201245 0.0 0.61489105 1.831852 0.0 0.55777919 1.8452342000000002 0.0 0.50660741 1.8587984 0.0 0.46189219 1.6211520000000001 0.0 0.75245249 1.6227586 0.0 0.73964077 1.6275784 0.0 0.7042675 1.6356416 0.0 0.65417165 1.6470363000000001 0.0 0.5988372 1.6618582 0.0 0.54596466 1.6799178 0.0 0.49923313 1.7001761999999998 0.0 0.45878708 1.3877616000000002 0.0 0.72149694 1.3896319 0.0 0.70954216 1.3952886 0.0 0.67662185 1.4048705 0.0 0.63025993 1.4186329 0.0 0.57948875 1.436883 0.0 0.53151113 1.4597428 0.0 0.48951405 1.486631 0.0 0.45315591 1.0960681 0.0 0.68587655 1.0981899 0.0 0.6749 1.1046095 0.0 0.64476138 1.1154982 0.0 0.60256225 1.1311499 0.0 0.55673683 1.1519575 0.0 0.51384526 1.1782758999999998 0.0 0.47650647 1.2100434 0.0 0.44390056 0.77418041 0.0 0.64669687 0.77639842 0.0 0.63677049 0.78309548 0.0 0.60958737 0.79440284 0.0 0.571738 0.81056434 0.0 0.53094864 0.83197337 0.0 0.49305433 0.85917366 0.0 0.46009299 0.89267665 0.0 0.4308522 0.46738511 0.0 0.60527581 0.46951246 0.0 0.59644347 0.47590929 0.0 0.57231444 0.48662847 0.0 0.53887385 0.50180584 0.0 0.50305039 0.52177244 0.0 0.46989697 0.547203 0.0 0.44089395 0.57915318 0.0 0.41455656 0.21292359 0.0 0.56310505 0.21484131 0.0 0.5553925 0.22057861 0.0 0.534356 0.23010036 0.0 0.50527841 0.24342293 0.0 0.47420514 0.26078215 0.0 0.44537544 0.28290689 0.0 0.41974917 0.31125036 0.0 0.39569908 0.026018091 0.0 0.52167177 0.02770496 0.0 0.51507568 0.032727223 0.0 0.49708155 0.040992577 0.0 0.47218212 0.052435536 0.0 0.44545943 0.06720309 0.0 0.42033359 0.085989766 0.0 0.39730886 0.11042919 0.0 0.37474805 -0.098252706 0.0 0.48210147 -0.096747987 0.0 0.47657385 -0.09227477 0.0 0.46145019 -0.084929012 0.0 0.44036904 -0.074783072 0.0 0.41739488 -0.061729975 0.0 0.39516038 -0.045175247 0.0 0.37381971 -0.023548055 0.0 0.35186201 -0.17563964 0.0 0.44495162 -0.17423739 0.0 0.44039229 -0.17005186 0.0 0.42782721 -0.16312312 0.0 0.41001889 -0.15344481 0.0 0.39002323 -0.14087075 0.0 0.36975476 -0.12492346 0.0 0.34916273 -0.10431171 0.0 0.32701463 -0.22307745 0.0 0.4102315 -0.22169608 0.0 0.40648985 -0.21753632 0.0 0.39603943 -0.21053228 0.0 0.38080245 -0.20053148 0.0 0.36290479 -0.18727943 0.0 0.34366536 -0.17038593 0.0 0.3230162 -0.14898461 0.0 0.3001734 -0.25252479 0.0 0.37753743 -0.25109378 0.0 0.37441438 -0.24673527 0.0 0.36552131 -0.23924646 0.0 0.35205331 -0.22830044 0.0 0.33537066 -0.21352422 0.0 0.31637979 -0.19460151 0.0 0.29518795 -0.17116536 0.0 0.2716485 -0.26954389 0.0 0.34615883 -0.2679989 0.0 0.34343123 -0.26324287 0.0 0.33550018 -0.25492778 0.0 0.32302535 -0.2425632 0.0 0.30685511 -0.22571149 0.0 0.28771293 -0.2042065 0.0 0.26604125 -0.17853536 0.0 0.24255483 -0.27535674 0.0 0.31519723 -0.27362472 0.0 0.31267869 -0.26824966 0.0 0.30523774 -0.25875157 0.0 0.29324201 -0.24454662 0.0 0.27730379 -0.2252647 0.0 0.25817722 -0.20119897 0.0 0.23677544 -0.17476712 0.0 0.21494891 -0.26965421 0.0 0.28387511 -0.26763108 0.0 0.28148335 -0.26134646 0.0 0.27436867 -0.2502774 0.0 0.26279941 -0.23391141 0.0 0.24737757 -0.21230125 0.0 0.22908333 -0.18730149 0.0 0.20953695 -0.16338086 0.0 0.19126548 -0.25214589 0.0 0.25200737 -0.2497271 0.0 0.24978237 -0.24228945 0.0 0.24316274 -0.22947566 0.0 0.232449 -0.2113729 0.0 0.21843995 -0.18947437 0.0 0.20255178 -0.16728202 0.0 0.18678565 -0.14980939 0.0 0.17319775 -0.22364463 0.0 0.22024342 -0.2208346 0.0 0.21830751 -0.21248771 0.0 0.21261545 -0.19901833 0.0 0.20365824 -0.18183403 0.0 0.19253962 -0.16361347 0.0 0.18074532 -0.14841489 0.0 0.16980268 -0.14018142 0.0 0.16076821 -0.18813758 0.0 0.18998389 -0.18537723 0.0 0.18855278 -0.17758383 0.0 0.18445884 -0.16618526 0.0 0.17837568 -0.15364324 0.0 0.17132878 -0.1430794 0.0 0.16427453 -0.13774519 0.0 0.15790418 -0.13904507 0.0 0.15229492 -0.15334766 0.0 0.16322613 -0.15135558 0.0 0.16249323 -0.14606068 0.0 0.16048329 -0.13960811 0.0 0.15773261 -0.13485806 0.0 0.15474084 -0.13446282 0.0 0.15180312 -0.13901043 0.0 0.14908509 -0.14382319 0.0 0.14697018 -0.12748778 0.0 0.14170282 -0.12675247 0.0 0.14163867 -0.12547484 0.0 0.14152299 -0.12580478 0.0 0.14143999 -0.13025528 0.0 0.14149357 -0.13831113 0.0 0.1421546 -0.14227335 0.0 0.14451803 -0.12991108 0.0 0.14867456 -0.11607661 0.0 0.12594612 -0.11655165 0.0 0.12633315 -0.11897944 0.0 0.12734039 -0.12465037 0.0 0.12919292 -0.13105498 0.0 0.13306785 -0.13014212 0.0 0.13971341 -0.11494005 0.0 0.14668259 -0.085538186 0.0 0.14906876 -0.11538678 0.0 0.11509834 -0.11380496 0.0 0.1160121 -0.1120311 0.0 0.11886165 -0.11001913 0.0 0.12435771 -0.10778613 0.0 0.13133685 -0.09628079099999999 0.0 0.1375009 -0.081095204 0.0 0.13707291 -0.054222148 0.0 0.13460106 -0.12623324 0.0 0.10744918 -0.12168776 0.0 0.1086879 -0.11318891 0.0 0.11226287 -0.1051863 0.0 0.11690456 -0.10026322 0.0 0.11991876 -0.086953133 0.0 0.12137739 -0.08285795900000001 0.0 0.11542924 -0.16304113 0.0 0.10159919 -0.15842164 0.0 0.10189413 -0.14561428 0.0 0.1028011 -0.13333699 0.0 0.10335696 -0.12793066 0.0 0.10325355 -0.04948765 0.0 0.0018384389 -0.04805059 0.0 0.0018862548 -0.04581394 0.0 0.001697661 -0.042551360999999996 0.0 0.0011693352000000001 -0.038090605 0.0 0.00027054222 -0.032422382 0.0 -0.0008975092199999999 -0.025820591 0.0 -0.0020566982999999997 -0.058398875999999995 0.0 0.0024089213 -0.05687562400000001 0.0 0.0024747271 -0.054427475 0.0 0.0022406634 -0.050768732999999996 0.0 0.0015736131 -0.045670807 0.0 0.00042911479000000007 -0.039098523999999996 0.0 -0.0010757714999999998 -0.031359322 0.0 -0.002605964 -0.02317317 0.0 -0.0036340286 -0.065876432 0.0 0.0028715665 -0.064398058 0.0 0.0029569825 -0.061901845 0.0 0.0026986146999999996 -0.0580355 0.0 0.0019355853 -0.052496035 0.0 0.00060563127 -0.045193523 0.0 -0.0011696132 -0.03643506 0.0 -0.0030201776 -0.027043547 0.0 -0.0043621371 -0.072965935 0.0 0.0031803953000000005 -0.071629718 0.0 0.0032871319 -0.069201291 0.0 0.0030324105 -0.065252125 0.0 0.002228966 -0.059384845 0.0 0.00078991253 -0.051428784000000005 0.0 -0.0011732082 -0.041678198 0.0 -0.0032738838 -0.031067277999999997 0.0 -0.0048719374 -0.080656447 0.0 0.0033404703999999996 -0.079530314 0.0 0.0034668376 -0.07724604 0.0 0.0032395055 -0.073288411 0.0 0.002446665 -0.067150183 0.0 0.00097144698 -0.058585942 0.0 -0.0010980624 -0.047864892 0.0 -0.0033765878 -0.035988453999999996 0.0 -0.0051756371 -0.089662619 0.0 0.0033997344 -0.08880001300000001 0.0 0.0035347990000000004 -0.086719498 0.0 0.0033433665999999997 -0.082829103 0.0 0.0025956247 -0.076579951 0.0 0.0011422316 -0.067661561 0.0 -0.00096985442 -0.056222182 0.0 -0.003377873 -0.043165453 0.0 -0.0053414055 -0.10034555 0.0 0.0034382184999999996 -0.099800222 0.0 0.0035620194 -0.09801223099999999 0.0 0.0034027016 -0.094424434 0.0 0.0027220840999999996 -0.0885377 0.0 0.001323392 -0.079958074 0.0 -0.00081235194 -0.068553321 0.0 -0.0033549257 -0.054669987 0.0 -0.0054683709 -0.11277968 0.0 0.0035672749 -0.1126164 0.0 0.003667488 -0.11131672 0.0 0.0035470964 -0.10849686 0.0 0.0029471091 -0.10381825 0.0 0.0015899008999999999 -0.096843526 0.0 -0.0006302991 -0.086954802 0.0 -0.0034011697999999997 -0.073217042 0.0 -0.0056576543 -0.12694332 0.0 0.0039452058000000005 -0.12726137 0.0 0.0040431814 -0.1267239 0.0 0.0039983098 -0.1252514 0.0 0.0034875622999999997 -0.12281668 0.0 0.0021003797 -0.11910412 0.0 -0.00037504407 -0.11297767 0.0 -0.0036037404 -0.10146988 0.0 -0.00605103 -0.14292531 0.0 0.0047866753 -0.14383367 0.0 0.0049564843 -0.14429466 0.0 0.0050636972 -0.14459759 0.0 0.0046656020000000005 -0.14515974 0.0 0.0031422647 -0.14604416 0.0 9.4798161e-05 -0.1459301 0.0 -0.0040925666999999995 -0.13984029 0.0 -0.007306170600000001 -0.16086623 0.0 0.006338221 -0.16243415 0.0 0.0067097661 -0.16396888 0.0 0.0071001373999999996 -0.16607092 0.0 0.0068955799 -0.16957182 0.0 0.0051359343 -0.17502522 0.0 0.0010045403999999999 -0.18138698 0.0 -0.0051538823 -0.1828239 0.0 -0.010813581000000001 -0.18087287 0.0 0.0088155046 -0.18310007 0.0 0.0095557487 -0.1855846 0.0 0.010412296 -0.18905726 0.0 0.010570196 -0.19451413 0.0 0.008628701800000001 -0.20272672 0.0 0.0031259784000000003 -0.21287453 0.0 -0.0055619762 -0.21806574 0.0 -0.012149462 -0.2030239 0.0 0.012329686000000001 -0.20584477 0.0 0.013593704 -0.20902795 0.0 0.015105134 -0.21321937 0.0 0.015916483000000002 -0.21928403 0.0 0.01438012 -0.22783385 0.0 0.009329080600000001 -0.23794265 0.0 0.0041006179999999995 -0.24293701 0.0 0.0085416641 -0.22737461 0.0 0.016840591999999998 -0.23067528 0.0 0.018706409 -0.23428875 0.0 0.020974357000000002 -0.2386335 0.0 0.022748381 -0.24428318 0.0 0.02259561 -0.25160274 0.0 0.020640945 -0.25980592 0.0 0.022908416 -0.26434377 0.0 0.034389973 -0.25396815 0.0 0.022166651000000002 -0.25759649 0.0 0.024590433 -0.26141018 0.0 0.027532615 -0.26556635 0.0 0.030314667000000003 -0.27033928 0.0 0.031983882000000005 -0.27591082 0.0 0.033480227 -0.28183964 0.0 0.040026747 -0.28574756 0.0 0.051094223 -0.28286546 0.0 0.028052618999999997 -0.28663573 0.0 0.030884087 -0.29044726 0.0 0.034258846 -0.29424554 0.0 0.037698384 -0.29807833 0.0 0.040721104 -0.30199945 0.0 0.044289670999999996 -0.30584565 0.0 0.051515005999999995 -0.30866975 0.0 0.059867829000000004 -0.31416291 0.0 0.034263719 -0.31788865 0.0 0.037304301 -0.32150313 0.0 0.040816832000000004 -0.32483685 0.0 0.04443562 -0.32780987 0.0 0.047899902 -0.33041975 0.0 0.051850297000000004 -0.33264348 0.0 0.057999756 -0.33424538 0.0 0.063952804 -0.34798858 0.0 0.04065508 -0.35153934 0.0 0.043713499 -0.35479724 0.0 0.047126848 -0.35756814 0.0 0.050565694 -0.35974175 0.0 0.053780898 -0.36131886 0.0 0.057062529 -0.36237246 0.0 0.061817158 -0.36297846 0.0 0.06621547 -0.38447562 0.0 0.047188349000000004 -0.38779876 0.0 0.050126366 -0.39064321 0.0 0.053287584000000006 -0.39281055 0.0 0.056380913 -0.39422044 0.0 0.059068355999999995 -0.39491895 0.0 0.061354480999999995 -0.39505216 0.0 0.064977929 -0.39483759 0.0 0.068589263 -0.42373091 0.0 0.053902555 -0.42684346 0.0 0.056649197000000005 -0.42931956 0.0 0.059497919 -0.43096116 0.0 0.06219916 -0.431723 0.0 0.06435035900000001 -0.43170306 0.0 0.065708295 -0.43110114 0.0 0.068468705 -0.43018597 0.0 0.071919799 -0.46580482 0.0 0.060862042000000005 -0.46877766 0.0 0.063395858 -0.47100389 0.0 0.065937802 -0.47228977 0.0 0.068293244 -0.47262189 0.0 0.070000902 -0.47213605 0.0 0.070604935 -0.47106797 0.0 0.072676592 -0.46971217 0.0 0.076265223 -0.51064861 0.0 0.068111643 -0.51358706 0.0 0.070422709 -0.51573265 0.0 0.072691865 -0.51690388 0.0 0.07479056 -0.51710594 0.0 0.076212958 -0.51649004 0.0 0.076303884 -0.51530218 0.0 0.07774923 -0.51384091 0.0 0.081487432 -0.55799264 0.0 0.07566253099999999 -0.56102532 0.0 0.077701963 -0.5633018 0.0 0.079713754 -0.56466532 0.0 0.081636563 -0.56512547 0.0 0.082934089 -0.56481618 0.0 0.08280745099999999 -0.56395674 0.0 0.083758444 -0.56282759 0.0 0.087486766 -0.60707706 0.0 0.08351897400000001 -0.61033392 0.0 0.085149325 -0.61298323 0.0 0.08685515099999999 -0.61490923 0.0 0.088624135 -0.6161083 0.0 0.089867733 -0.61666161 0.0 0.089810103 -0.61671984 0.0 0.090615585 -0.61650759 0.0 0.094222493 -0.65617168 0.0 0.09174250800000001 -0.65975809 0.0 0.092711084 -0.6630249 0.0 0.09396973300000001 -0.66591436 0.0 0.095504031 -0.66839492 0.0 0.09656567099999999 -0.6704607 0.0 0.09667089599999999 -0.67214864 0.0 0.097930379 -0.6735729 0.0 0.10144854 -0.70201439 0.0 0.10053713 -0.70597994 0.0 0.10050179 -0.71005672 0.0 0.10109988 -0.71425945 0.0 0.1022162 -0.71851802 0.0 0.10270619 -0.72272074 0.0 0.10257465 -0.7267502 0.0 0.10494286 -0.73053581 0.0 0.10851848 -0.73943388 0.0 0.11034382 -0.74372417 0.0 0.10899181 -0.74865377 0.0 0.10874708 -0.75430995 0.0 0.10925654 -0.76059341 0.0 0.1085098 -0.76729709 0.0 0.10698675 -0.77412826 0.0 0.1107154 -0.78075188 0.0 0.11438538 -0.76138353 0.0 0.12195877 -0.76576602 0.0 0.11921144 -0.77130085 0.0 0.11814176 -0.77813941 0.0 0.11793908 -0.78617555 0.0 0.11511479 -0.79514921 0.0 0.11005422 -0.8046158 0.0 0.11446506 -0.81394333 0.0 0.11778322 -0.75932759 0.0 0.13661109 -0.76328117 0.0 0.13280076 -0.76874268 0.0 0.13120212 -0.77587366 0.0 0.13036343 -0.78452885 0.0 0.12468644 -0.79446942 0.0 0.11330519 -0.80524629 0.0 0.11620452 -0.81604379 0.0 0.11798292 -0.72301477 0.0 0.1558661 -0.72559762 0.0 0.15166423 -0.72962064 0.0 0.14991881 -0.73502636 0.0 0.14833969 -0.74164289 0.0 0.13938698 -0.74950397 0.0 0.11990288 -0.75851518 0.0 0.11760046 -0.76799607 0.0 0.11580804 -0.63712239 0.0 0.18119693 -0.63672858 0.0 0.17714308 -0.63676894 0.0 0.17517976 -0.63689584 0.0 0.17210816 -0.63722205 0.0 0.15914483 -0.63843328 0.0 0.13485163 -0.64109111 0.0 0.12298593 -0.64495617 0.0 0.11402711 -0.47753957 0.0 0.21329288 -0.47187853 0.0 0.20915645 -0.46460041 0.0 0.20592852 -0.45533755 0.0 0.19965343 -0.4448784 0.0 0.18114665 -0.43477938 0.0 0.15444259 -0.42632374 0.0 0.14442386 -0.41975331 0.0 0.12430725 -0.21641906 0.0 0.25137764 -0.20342553 0.0 0.24567012 -0.18629974 0.0 0.23886999 -0.16498713 0.0 0.22652666 -0.14104193 0.0 0.20532581 -0.11677685 0.0 0.18684442 -0.094008207 0.0 0.18590173 -0.073370911 0.0 0.15177085 0.16320406 0.0 0.29284483 0.1838652 0.0 0.28275707 0.21065208 0.0 0.26934004 0.24321178 0.0 0.25056124 0.27958456 0.0 0.23507972 0.31720454 0.0 0.22924188 0.35411629 0.0 0.24200618 0.38909486 0.0 0.18255593 0.64890444 0.0 0.33349109 0.67474598 0.0 0.31563914 0.70713699 0.0 0.29328761 0.74555683 0.0 0.26950002 0.78835475 0.0 0.26245162 0.8334251 0.0 0.25567785 0.87904447 0.0 0.27399814 0.92273843 0.0 0.1627011 1.1857520000000001 0.0 0.36845043 1.2116452 0.0 0.34038788 1.2422276 0.0 0.30972743 1.2770249 0.0 0.2860969 1.3153591999999998 0.0 0.28232354 1.3561919 0.0 0.25387424 1.3980222 0.0 0.26903769 1.4367518 0.0 0.14541458 1.679878 0.0 0.39379618 1.6996913 0.0 0.35578251 1.7199043999999999 0.0 0.32053703 1.7398858 0.0 0.29747081 1.7599517 0.0 0.2858974 1.7803866000000002 0.0 0.24521619 1.7998716000000001 0.0 0.23730929 1.8152863999999997 0.0 0.09980873800000001 2.0273323 0.0 0.40840566 2.0367272 0.0 0.36172113 2.0407085 0.0 0.31728131 2.0382648000000003 0.0 0.28208759 2.0301356 0.0 0.25236303 2.0181289000000002 0.0 0.20339134 2.0040438000000003 0.0 0.23315628 1.9896539 0.0 0.042863213 2.1807828 0.0 0.41459078 2.1790688 0.0 0.3639392 2.1666915 0.0 0.31472525 2.1424956 0.0 0.27145559 2.1080143 0.0 0.22939505 2.0669558 0.0 0.17918727 2.0240674 0.0 0.25927487 1.9848146 0.0 0.015613807 2.180572 0.0 0.41658136 2.1710942 0.0 0.36662358 2.1476669 0.0 0.31790629 2.1092317000000005 0.0 0.27269343 2.0580397 0.0 0.22756408 1.9990438000000001 0.0 0.1879636 1.9385439999999998 0.0 0.28718072 1.883521 0.0 0.011597631 2.0988717 0.0 0.4178645 2.0876316999999998 0.0 0.37153327 2.0612814 0.0 0.32641259 2.0186744 0.0 0.28416494 1.9623282 0.0 0.24246879 1.8976277 0.0 0.21334493 1.8311981 0.0 0.30738527 1.7699343999999997 0.0 0.016007014 1.9900593 0.0 0.41985175 1.9834043000000001 0.0 0.37807417 1.9621285 0.0 0.33730361 1.9245546000000002 0.0 0.30028114 1.8729058999999997 0.0 0.26585358 1.8124136999999998 0.0 0.23875709 1.7494134999999997 0.0 0.31623966 1.6900862 0.0 0.021613162 1.8694414000000001 0.0 0.42196631 1.8721915 0.0 0.38419977 1.8619273 0.0 0.34693071 1.8360816999999998 0.0 0.31390753 1.7960718999999998 0.0 0.28412068 1.7465488 0.0 0.25170255 1.6933552 0.0 0.31024745 1.6420107 0.0 0.021031449 1.7199688999999998 0.0 0.42256734 1.7346116999999999 0.0 0.38770381 1.7386743999999998 0.0 0.35263568 1.7286251 0.0 0.32177114 1.7046743999999998 0.0 0.29351145 1.670451 0.0 0.25441387 1.6310961000000002 0.0 0.29721493 1.5916204 0.0 0.01939729 1.5155188999999998 0.0 0.41999981 1.5423836000000002 0.0 0.38712916 1.5619229 0.0 0.3533549 1.5698333 0.0 0.32347938 1.5648723 0.0 0.29517272 1.5490808 0.0 0.25208366 1.5264426000000002 0.0 0.28259146 1.5013958 0.0 0.023790047 1.246141 0.0 0.41332862 1.2837284 0.0 0.38200954 1.3183165000000001 0.0 0.34921017 1.3452005 0.0 0.31936648 1.3614517 0.0 0.29126537 1.3668553999999997 0.0 0.24989563 1.3636367 0.0 0.27111471 1.3554081 0.0 0.041745573 0.93249416 0.0 0.40253755 0.97749239 0.0 0.37263268 1.0247822 0.0 0.34078684 1.0699916999999999 0.0 0.31008035 1.1084641000000002 0.0 0.2818625 1.1370183 0.0 0.24596469 1.1555252 0.0 0.26666209 1.16629 0.0 0.071160555 0.61882561 0.0 0.38817307 0.66699636 0.0 0.35961556 0.72275478 0.0 0.32901049 0.78261566 0.0 0.29874179 0.84112132 0.0 0.26751789 0.89245778 0.0 0.23774362 0.93337113 0.0 0.26514092 0.96417123 0.0 0.1059251 0.34802881 0.0 0.37075618 0.3957254 0.0 0.34330595 0.45530659 0.0 0.31404632 0.52449369 0.0 0.28665143 0.59789038 0.0 0.25608689 0.66848606 0.0 0.22665183 0.72993898 0.0 0.26509812 0.77973896 0.0 0.13991891 0.1433824 0.0 0.35055381 0.18856241 0.0 0.32375586 0.24830201 0.0 0.29564607 0.32143176 0.0 0.27072108 0.40347427 0.0 0.24576443 0.48744613 0.0 0.21471803 0.56442267 0.0 0.26058558 0.62912941 0.0 0.15816882 0.0062094098 0.0 0.3276805 0.048331868 0.0 0.30107778 0.10558352 0.0 0.27430272 0.17773077 0.0 0.25149179 0.26197508 0.0 0.23027766 0.3527877 0.0 0.19877177 0.4388006 0.0 0.24705596 0.51170057 0.0 0.15700936 -0.076261543 0.0 0.30232325 -0.037130084 0.0 0.27599919 0.015342412 0.0 0.25130051 0.081924111 0.0 0.23146038 0.16212758 0.0 0.21287578 0.25305891 0.0 0.17916462 0.34385484 0.0 0.22527511 0.41837421 0.0 0.13429759 -0.12121219 0.0 0.27500865 -0.085283414 0.0 0.24980584 -0.03987132 0.0 0.22819543 0.016957212 0.0 0.21270663 0.08736002400000001 0.0 0.19737911 0.17211282 0.0 0.16636926 0.2692329 0.0 0.18781212 0.35123917 0.0 0.10041467 -0.14314334 0.0 0.24687257 -0.11140931 0.0 0.22428122 -0.075364739 0.0 0.20720226 -0.031536903 0.0 0.1969744 0.024847357999999996 0.0 0.1858753 0.10031334 0.0 0.15856814 0.20302667 0.0 0.15809675 0.31887633 0.0 0.10011517 -0.1513238 0.0 0.21978515 -0.12559606 0.0 0.20128867 -0.10071497 0.0 0.18957429 -0.07131175 0.0 0.18528119 -0.030506751000000002 0.0 0.17533381 0.03513772 0.0 0.14890192 0.14382534 0.0 0.13919283 0.27970561 0.0 0.086797409 -0.15084799 0.0 0.19585077 -0.13316165 0.0 0.18230389 -0.11994992 0.0 0.17584226 -0.10391466 0.0 0.17390613 -0.076564945 0.0 0.15739803 -0.01843656 0.0 0.12900156 0.098164141 0.0 0.11978969 -0.14590286 0.0 0.17680033 -0.13744904 0.0 0.16777965 -0.13422014 0.0 0.16397372 -0.12736604 0.0 0.15825662 -0.10738933 0.0 0.13015351 -0.046153385 0.0 0.10994858 0.070481963 0.0 0.10002501 -0.14105693 0.0 0.16315082 -0.14090686 0.0 0.15684304 -0.14294812 0.0 0.15252829 -0.13814789 0.0 0.13782474 -0.11405178 0.0 0.10584122 -0.037799828 0.0 0.10135066 -0.14014859 0.0 0.15376458 -0.14402972 0.0 0.14825356 -0.14252168 0.0 0.14031607 -0.12956077 0.0 0.11670587 -0.083596438 0.0 0.10074078 -0.0071394225 0.0 0.095395058 -0.14308475 0.0 0.14742242 -0.13945302 0.0 0.14315715 -0.12178795 0.0 0.13192061 -0.08875299199999999 0.0 0.11110905 -0.027715696 0.0 0.10886447 -0.13550463 0.0 0.14693186 -0.11002257 0.0 0.14316817 -0.064411491 0.0 0.13581836 -0.023883481 0.0 0.1195605 -0.09909693900000001 0.0 0.14939591 -0.053933639000000005 0.0 0.14574051 0.0022147801 0.0 0.14299504 -0.013196213 0.0 0.10158092 -0.052315194 0.0 0.1430701 -0.015258788 0.0 0.13803782 -0.044079494000000004 0.0 0.12540071 
Force 3 2975 float
0.0 0.0 0.0 0.0 0.0 0.0 0.0 0.0 0.0 0.0 0.0 0.0 0.0 0.0 0.0 0.0 0.0 0.0 0.0 0.0 0.0 0.0 0.0 0.0 0.0 0.0 0.0 0.0 0.0 0.0 0.0 0.0 0.0 0.0 0.0 0.0 0.0 0.0 0.0 0.0 0.0 0.0 0.0 0.0 0.0 0.0 0.0 0.0 0.0 0.0 0.0 0.0 0.0 0.0 0.0 0.0 0.0 0.0 0.0 0.0 0.0 0.0 0.0 0.0 0.0 0.0 0.0 0.0 0.0 0.0 0.0 0.0 0.0 0.0 0.0 0.0 0.0 0.0 0.0 0.0 0.0 0.0 0.0 0.0 0.0 0.0 0.0 0.0 0.0 0.0 0.0 0.0 0.0 0.0 0.0 0.0 0.0 0.0 0.0 0.0 0.0 0.0 0.0 0.0 0.0 0.0 0.0 0.0 0.0 0.0 0.0 0.0 0.0 0.0 0.0 0.0 0.0 0.0 0.0 0.0 0.0 0.0 0.0 0.0 0.0 0.0 0.0 0.0 0.0 0.0 0.0 0.0 0.0 0.0 0.0 0.0 0.0 0.0 0.0 0.0 0.0 0.0 0.0 0.0 0.0 0.0 0.0 0.0 0.0 0.0 0.0 0.0 0.0 0.0 0.0 0.0 0.0 0.0 0.0 0.0 0.0 0.0 0.0 0.0 0.0 0.0 0.0 0.0 0.0 0.0 0.0 0.0 0.0 0.0 0.0 0.0 0.0 0.0 0.0 0.0 0.0 0.0 0.0 0.0 0.0 0.0 0.0 0.0 0.0 0.0 0.0 0.0 0.0 0.0 0.0 0.0 0.0 0.0 0.0 0.0 0.0 0.0 0.0 0.0 0.0 0.0 0.0 0.0 0.0 0.0 0.0 0.0 0.0 0.0 0.0 0.0 0.0 0.0 0.0 0.0 0.0 0.0 0.0 0.0 0.0 0.0 0.0 0.0 0.0 0.0 0.0 0.0 0.0 0.0 0.0 0.0 0.0 0.0 0.0 0.0 0.0 0.0 0.0 0.0 0.0 0.0 0.0 0.0 0.0 0.0 0.0 0.0 0.0 0.0 0.0 0.0 0.0 0.0 0.0 0.0 0.0 0.0 0.0 0.0 0.0 0.0 0.0 0.0 0.0 0.0 0.0 0.0 0.0 0.0 0.0 0.0 0.0 0.0 0.0 0.0 0.0 0.0 0.0 0.0 0.0 0.0 0.0 0.0 0.0 0.0 0.0 0.0 0.0 0.0 0.0 0.0 0.0 0.0 0.0 0.0 0.0 0.0 0.0 0.0 0.0 0.0 0.0 0.0 0.0 0.0 0.0 0.0 0.0 0.0 0.0 0.0 0.0 0.0 0.0 0.0 0.0 0.0 0.0 0.0 0.0 0.0 0.0 0.0 0.0 0.0 0.0 0.0 0.0 0.0 0.0 0.0 0.0 0.0 0.0 0.0 0.0 0.0 0.0 0.0 0.0 0.0 0.0 0.0 0.0 0.0 0.0 0.0 0.0 0.0 0.0 0.0 0.0 0.0 0.0 0.0 0.0 0.0 0.0 0.0 0.0 0.0 0.0 0.0 0.0 0.0 0.0 0.0 0.0 0.0 0.0 0.0 0.0 0.0 0.0 0.0 0.0 0.0 0.0 0.0 0.0 0.0 0.0 0.0 0.0 0.0 0.0 0.0 0.0 0.0 0.0 0.0 0.0 0.0 0.0 0.0 0.0 0.0 0.0 0.0 0.0 0.0 0.0 0.0 0.0 0.0 0.0 0.0 0.0 0.0 0.0 0.0 0.0 0.0 0.0 0.0 0.0 0.0 0.0 0.0 0.0 0.0 0.0 0.0 0.0 0.0 0.0 0.0 0.0 0.0 0.0 0.0 0.0 0.0 0.0 0.0 0.0 0.0 0.0 0.0 0.0 0.0 0.0 0.0 0.0 0.0 0.0 0.0 0.0 0.0 0.0 0.0 0.0 0.0 0.0 0.0 0.0 0.0 0.0 0.0 0.0 0.0 0.0 0.0 0.0 0.0 0.0 0.0 0.0 0.0 0.0 0.0 0.0 0.0 0.0 0.0 0.0 0.0 0.0 0.0 0.0 0.0 0.0 0.0 0.0 0.0 0.0 0.0 0.0 0.0 0.0 0.0 0.0 0.0 0.0 0.0 0.0 0.0 0.0 0.0 0.0 0.0 0.0 0.0 0.0 0.0 0.0 0.0 0.0 0.0 0.0 0.0 0.0 0.0 0.0 0.0 0.0 0.0 0.0 0.0 0.0 0.0 0.0 0.0 0.0 0.0 0.0 0.0 0.0 0.0 0.0 0.0 0.0 0.0 0.0 0.0 0.0 0.0 0.0 0.0 0.0 0.0 0.0 0.0 0.0 0.0 0.0 0.0 0.0 0.0 0.0 0.0 0.0 0.0 0.0 0.0 0.0 0.0 0.0 0.0 0.0 0.0 0.0 0.0 0.0 0.0 0.0 0.0 0.0 0.0 0.0 0.0 0.0 0.0 0.0 0.0 0.0 0.0 0.0 0.0 0.0 0.0 0.0 0.0 0.0 0.0 0.0 0.0 0.0 0.0 0.0 0.0 0.0 0.0 0.0 0.0 0.0 0.0 0.0 0.0 0.0 0.0 0.0 0.0 0.0 0.0 0.0 0.0 0.0 0.0 0.0 0.0 0.0 0.0 0.0 0.0 0.0 0.0 0.0 0.0 0.0 0.0 0.0 0.0 0.0 0.0 0.0 0.0 0.0 0.0 0.0 0.0 0.0 0.0 0.0 0.0 0.0 0.0 0.0 0.0 0.0 0.0 0.0 0.0 0.0 0.0 0.0 0.0 0.0 0.0 0.0 0.0 0.0 0.0 0.0 0.0 0.0 0.0 0.0 0.0 0.0 0.0 0.0 0.0 0.0 0.0 0.0 0.0 0.0 0.0 0.0 0.0 0.0 0.0 0.0 0.0 0.0 0.0 0.0 0.0 0.0 0.0 0.0 0.0 0.0 0.0 0.0 0.0 0.0 0.0 0.0 0.0 0.0 0.0 0.0 0.0 0.0 0.0 0.0 0.0 0.0 0.0 0.0 0.0 0.0 0.0 0.0 0.0 0.0 0.0 0.0 0.0 0.0 0.0 0.0 0.0 0.0 0.0 0.0 0.0 0.0 0.0 0.0 0.0 0.0 0.0 0.0 0.0 0.0 0.0 0.0 0.0 0.0 0.0 0.0 0.0 0.0 0.0 0.0 0.0 0.0 0.0 0.0 0.0 0.0 0.0 0.0 0.0 0.0 0.0 0.0 0.0 0.0 0.0 0.0 0.0 0.0 0.0 0.0 0.0 0.0 0.0 0.0 0.0 0.0 0.0 0.0 0.0 0.0 0.0 0.0 0.0 0.0 0.0 0.0 0.0 0.0 0.0 0.0 0.0 0.0 0.0 0.0 0.0 0.0 0.0 0.0 0.0 0.0 0.0 0.0 0.0 0.0 0.0 0.0 0.0 0.0 0.0 0.0 0.0 0.0 0.0 0.0 0.0 0.0 0.0 0.0 0.0 0.0 0.0 0.0 0.0 0.0 0.0 0.0 0.0 0.0 0.0 0.0 0.0 0.0 0.0 0.0 0.0 0.0 0.0 0.0 0.0 0.0 0.0 0.0 0.0 0.0 0.0 0.0 0.0 0.0 0.0 0.0 0.0 0.0 0.0 0.0 0.0 0.0 0.0 0.0 0.0 0.0 0.0 0.0 0.0 0.0 0.0 0.0 0.0 0.0 0.0 0.0 0.0 0.0 0.0 0.0 0.0 0.0 0.0 0.0 0.0 0.0 0.0 0.0 0.0 0.0 0.0 0.0 0.0 0.0 0.0 0.0 0.0 0.0 0.0 0.0 0.0 0.0 0.0 0.0 0.0 0.0 0.0 0.0 0.0 0.0 0.0 0.0 0.0 0.0 0.0 0.0 0.0 0.0 0.0 0.0 0.0 0.0 0.0 0.0 0.0 0.0 0.0 0.0 0.0 0.0 0.0 0.0 0.0 0.0 0.0 0.0 0.0 0.0 0.0 0.0 0.0 0.0 0.0 0.0 0.0 0.0 0.0 0.0 0.0 0.0 0.0 0.0 0.0 0.0 0.0 0.0 0.0 0.0 0.0 0.0 0.0 0.0 0.0 0.0 0.0 0.0 0.0 0.0 0.0 0.0 0.0 0.0 0.0 0.0 0.0 0.0 0.0 0.0 0.0 0.0 0.0 0.0 0.0 0.0 0.0 0.0 0.0 0.0 0.0 0.0 0.0 0.0 0.0 0.0 0.0 0.0 0.0 0.0 0.0 0.0 0.0 0.0 0.0 0.0 0.0 0.0 0.0 0.0 0.0 0.0 0.0 0.0 0.0 0.0 0.0 0.0 0.0 0.0 0.0 0.0 0.0 0.0 0.0 0.0 0.0 0.0 0.0 0.0 0.0 0.0 0.0 0.0 0.0 0.0 0.0 0.0 0.0 0.0 0.0 0.0 0.0 0.0 0.0 0.0 0.0 0.0 0.0 0.0 0.0 0.0 0.0 0.0 0.0 0.0 0.0 0.0 0.0 0.0 0.0 0.0 0.0 0.0 0.0 0.0 0.0 0.0 0.0 0.0 0.0 0.0 0.0 0.0 0.0 0.0 0.0 0.0 0.0 0.0 0.0 0.0 0.0 0.0 0.0 0.0 0.0 0.0 0.0 0.0 0.0 0.0 0.0 0.0 0.0 0.0 0.0 0.0 0.0 0.0 0.0 0.0 0.0 0.0 0.0 0.0 0.0 0.0 0.0 0.0 0.0 0.0 0.0 0.0 0.0 0.0 0.0 0.0 0.0 0.0 0.0 0.0 0.0 0.0 0.0 0.0 0.0 0.0 0.0 0.0 0.0 0.0 0.0 0.0 0.0 0.0 0.0 0.0 0.0 0.0 0.0 0.0 0.0 0.0 0.0 0.0 0.0 0.0 0.0 0.0 0.0 0.0 0.0 0.0 0.0 0.0 0.0 0.0 0.0 0.0 0.0 0.0 0.0 0.0 0.0 0.0 0.0 0.0 0.0 0.0 0.0 0.0 0.0 0.0 0.0 0.0 0.0 0.0 0.0 0.0 0.0 0.0 0.0 0.0 0.0 0.0 0.0 0.0 0.0 0.0 0.0 0.0 0.0 0.0 0.0 0.0 0.0 0.0 0.0 0.0 0.0 0.0 0.0 0.0 0.0 0.0 0.0 0.0 0.0 0.0 0.0 0.0 0.0 0.0 0.0 0.0 0.0 0.0 0.0 0.0 0.0 0.0 0.0 0.0 0.0 0.0 0.0 0.0 0.0 0.0 0.0 0.0 0.0 0.0 0.0 0.0 0.0 0.0 0.0 0.0 0.0 0.0 0.0 0.0 0.0 0.0 0.0 0.0 0.0 0.0 0.0 0.0 0.0 0.0 0.0 0.0 0.0 0.0 0.0 0.0 0.0 0.0 0.0 0.0 0.0 0.0 0.0 0.0 0.0 0.0 0.0 0.0 0.0 0.0 0.0 0.0 0.0 0.0 0.0 0.0 0.0 0.0 0.0 0.0 0.0 0.0 0.0 0.0 0.0 0.0 0.0 0.0 0.0 0.0 0.0 0.0 0.0 0.0 0.0 0.0 0.0 0.0 0.0 0.0 0.0 0.0 0.0 0.0 0.0 0.0 0.0 0.0 0.0 0.0 0.0 0.0 0.0 0.0 0.0 0.0 0.0 0.0 0.0 0.0 0.0 0.0 0.0 0.0 0.0 0.0 0.0 0.0 0.0 0.0 0.0 0.0 0.0 0.0 0.0 0.0 0.0 0.0 0.0 0.0 0.0 0.0 0.0 0.0 0.0 0.0 0.0 0.0 0.0 0.0 0.0 0.0 0.0 0.0 0.0 0.0 0.0 0.0 0.0 0.0 0.0 0.0 0.0 0.0 0.0 0.0 0.0 0.0 0.0 0.0 0.0 0.0 0.0 0.0 0.0 0.0 0.0 0.0 0.0 0.0 0.0 0.0 0.0 0.0 0.0 0.0 0.0 0.0 0.0 0.0 0.0 0.0 0.0 0.0 0.0 0.0 0.0 0.0 0.0 0.0 0.0 0.0 0.0 0.0 0.0 0.0 0.0 0.0 0.0 0.0 0.0 0.0 0.0 0.0 0.0 0.0 0.0 0.0 0.0 0.0 0.0 0.0 0.0 0.0 0.0 0.0 0.0 0.0 0.0 0.0 0.0 0.0 0.0 0.0 0.0 0.0 0.0 0.0 0.0 0.0 0.0 0.0 0.0 0.0 0.0 0.0 0.0 0.0 0.0 0.0 0.0 0.0 0.0 0.0 0.0 0.0 0.0 0.0 0.0 0.0 0.0 0.0 0.0 0.0 0.0 0.0 0.0 0.0 0.0 0.0 0.0 0.0 0.0 0.0 0.0 0.0 0.0 0.0 0.0 0.0 0.0 0.0 0.0 0.0 0.0 0.0 0.0 0.0 0.0 0.0 0.0 0.0 0.0 0.0 0.0 0.0 0.0 0.0 0.0 0.0 0.0 0.0 0.0 0.0 0.0 0.0 0.0 0.0 0.0 0.0 0.0 0.0 0.0 0.0 0.0 0.0 0.0 0.0 0.0 0.0 0.0 0.0 0.0 0.0 0.0 0.0 0.0 0.0 0.0 0.0 0.0 0.0 0.0 0.0 0.0 0.0 0.0 0.0 0.0 0.0 0.0 0.0 0.0 0.0 0.0 0.0 0.0 0.0 0.0 0.0 0.0 0.0 0.0 0.0 0.0 0.0 0.0 0.0 0.0 0.0 0.0 0.0 0.0 0.0 0.0 0.0 0.0 0.0 0.0 0.0 0.0 0.0 0.0 0.0 0.0 0.0 0.0 0.0 0.0 0.0 0.0 0.0 0.0 0.0 0.0 0.0 0.0 0.0 0.0 0.0 0.0 0.0 0.0 0.0 0.0 0.0 0.0 0.0 0.0 0.0 0.0 0.0 0.0 0.0 0.0 0.0 0.0 0.0 0.0 0.0 0.0 0.0 0.0 0.0 0.0 0.0 0.0 0.0 0.0 0.0 0.0 0.0 0.0 0.0 0.0 0.0 0.0 0.0 0.0 0.0 0.0 0.0 0.0 0.0 0.0 0.0 0.0 0.0 0.0 0.0 0.0 0.0 0.0 0.0 0.0 0.0 0.0 0.0 0.0 0.0 0.0 0.0 0.0 0.0 0.0 0.0 0.0 0.0 0.0 0.0 0.0 0.0 0.0 0.0 0.0 0.0 0.0 0.0 0.0 0.0 0.0 0.0 0.0 0.0 0.0 0.0 0.0 0.0 0.0 0.0 0.0 0.0 0.0 0.0 0.0 0.0 0.0 0.0 0.0 0.0 0.0 0.0 0.0 0.0 0.0 0.0 0.0 0.0 0.0 0.0 0.0 0.0 0.0 0.0 0.0 0.0 0.0 0.0 0.0 0.0 0.0 0.0 0.0 0.0 0.0 0.0 0.0 0.0 0.0 0.0 0.0 0.0 0.0 0.0 0.0 0.0 0.0 0.0 0.0 0.0 0.0 0.0 0.0 0.0 0.0 0.0 0.0 0.0 0.0 0.0 0.0 0.0 0.0 0.0 0.0 0.0 0.0 0.0 0.0 0.0 0.0 0.0 0.0 0.0 0.0 0.0 0.0 0.0 0.0 0.0 0.0 0.0 0.0 0.0 0.0 0.0 0.0 0.0 0.0 0.0 0.0 0.0 0.0 0.0 0.0 0.0 0.0 0.0 0.0 0.0 0.0 0.0 0.0 0.0 0.0 0.0 0.0 0.0 0.0 0.0 0.0 0.0 0.0 0.0 0.0 0.0 0.0 0.0 0.0 0.0 0.0 0.0 0.0 0.0 0.0 0.0 0.0 0.0 0.0 0.0 0.0 0.0 0.0 0.0 0.0 0.0 0.0 0.0 0.0 0.0 0.0 0.0 0.0 0.0 0.0 0.0 0.0 0.0 0.0 0.0 0.0 0.0 0.0 0.0 0.0 0.0 0.0 0.0 0.0 0.0 0.0 0.0 0.0 0.0 0.0 0.0 0.0 0.0 0.0 0.0 0.0 0.0 0.0 0.0 0.0 0.0 0.0 0.0 0.0 0.0 0.0 0.0 0.0 0.0 0.0 0.0 0.0 0.0 0.0 0.0 0.0 0.0 0.0 0.0 0.0 0.0 0.0 0.0 0.0 0.0 0.0 0.0 0.0 0.0 0.0 0.0 0.0 0.0 0.0 0.0 0.0 0.0 0.0 0.0 0.0 0.0 0.0 0.0 0.0 0.0 0.0 0.0 0.0 0.0 0.0 0.0 0.0 0.0 0.0 0.0 0.0 0.0 0.0 0.0 0.0 0.0 0.0 0.0 0.0 0.0 0.0 0.0 0.0 0.0 0.0 0.0 0.0 0.0 0.0 0.0 0.0 0.0 0.0 0.0 0.0 0.0 0.0 0.0 0.0 0.0 0.0 0.0 0.0 0.0 0.0 0.0 0.0 0.0 0.0 0.0 0.0 0.0 0.0 0.0 0.0 0.0 0.0 0.0 0.0 0.0 0.0 0.0 0.0 0.0 0.0 0.0 0.0 0.0 0.0 0.0 0.0 0.0 0.0 0.0 0.0 0.0 0.0 0.0 0.0 0.0 0.0 0.0 0.0 0.0 0.0 0.0 0.0 0.0 0.0 0.0 0.0 0.0 0.0 0.0 0.0 0.0 0.0 0.0 0.0 0.0 0.0 0.0 0.0 0.0 0.0 0.0 0.0 0.0 0.0 0.0 0.0 0.0 0.0 0.0 0.0 0.0 0.0 0.0 0.0 0.0 0.0 0.0 0.0 0.0 0.0 0.0 0.0 0.0 0.0 0.0 0.0 0.0 0.0 0.0 0.0 0.0 0.0 0.0 0.0 0.0 0.0 0.0 0.0 0.0 0.0 0.0 0.0 0.0 0.0 0.0 0.0 0.0 0.0 0.0 0.0 0.0 0.0 0.0 0.0 0.0 0.0 0.0 0.0 0.0 0.0 0.0 0.0 0.0 0.0 0.0 0.0 0.0 0.0 0.0 0.0 0.0 0.0 0.0 0.0 0.0 0.0 0.0 0.0 0.0 0.0 0.0 0.0 0.0 0.0 0.0 0.0 0.0 0.0 0.0 0.0 0.0 0.0 0.0 0.0 0.0 0.0 0.0 0.0 0.0 0.0 0.0 0.0 0.0 0.0 0.0 0.0 0.0 0.0 0.0 0.0 0.0 0.0 0.0 0.0 0.0 0.0 0.0 0.0 0.0 0.0 0.0 0.0 0.0 0.0 0.0 0.0 0.0 0.0 0.0 0.0 0.0 0.0 0.0 0.0 0.0 0.0 0.0 0.0 0.0 0.0 0.0 0.0 0.0 0.0 0.0 0.0 0.0 0.0 0.0 0.0 0.0 0.0 0.0 0.0 0.0 0.0 0.0 0.0 0.0 0.0 0.0 0.0 0.0 0.0 0.0 0.0 0.0 0.0 0.0 0.0 0.0 0.0 0.0 0.0 0.0 0.0 0.0 0.0 0.0 0.0 0.0 0.0 0.0 0.0 0.0 0.0 0.0 0.0 0.0 0.0 0.0 0.0 0.0 0.0 0.0 0.0 0.0 0.0 0.0 0.0 0.0 0.0 0.0 0.0 0.0 0.0 0.0 0.0 0.0 0.0 0.0 0.0 0.0 0.0 0.0 0.0 0.0 0.0 0.0 0.0 0.0 0.0 0.0 0.0 0.0 0.0 0.0 0.0 0.0 0.0 0.0 0.0 0.0 0.0 0.0 0.0 0.0 0.0 0.0 0.0 0.0 0.0 0.0 0.0 0.0 0.0 0.0 0.0 0.0 0.0 0.0 0.0 0.0 0.0 0.0 0.0 0.0 0.0 0.0 0.0 0.0 0.0 0.0 0.0 0.0 0.0 0.0 0.0 0.0 0.0 0.0 0.0 0.0 0.0 0.0 0.0 0.0 0.0 0.0 0.0 0.0 0.0 0.0 0.0 0.0 0.0 0.0 0.0 0.0 0.0 0.0 0.0 0.0 0.0 0.0 0.0 0.0 0.0 0.0 0.0 0.0 0.0 0.0 0.0 0.0 0.0 0.0 0.0 0.0 0.0 0.0 0.0 0.0 0.0 0.0 0.0 0.0 0.0 0.0 0.0 0.0 0.0 0.0 0.0 0.0 0.0 0.0 0.0 0.0 0.0 0.0 0.0 0.0 0.0 0.0 0.0 0.0 0.0 0.0 0.0 0.0 0.0 0.0 0.0 0.0 0.0 0.0 0.0 0.0 0.0 0.0 0.0 0.0 0.0 0.0 0.0 0.0 0.0 0.0 0.0 0.0 0.0 0.0 0.0 0.0 0.0 0.0 0.0 0.0 0.0 0.0 0.0 0.0 0.0 0.0 0.0 0.0 0.0 0.0 0.0 0.0 0.0 0.0 0.0 0.0 0.0 0.0 0.0 0.0 0.0 0.0 0.0 0.0 0.0 0.0 0.0 0.0 0.0 0.0 0.0 0.0 0.0 0.0 0.0 0.0 0.0 0.0 0.0 0.0 0.0 0.0 0.0 0.0 0.0 0.0 0.0 0.0 0.0 0.0 0.0 0.0 0.0 0.0 0.0 0.0 0.0 0.0 0.0 0.0 0.0 0.0 0.0 0.0 0.0 0.0 0.0 0.0 0.0 0.0 0.0 0.0 0.0 0.0 0.0 0.0 0.0 0.0 0.0 0.0 0.0 0.0 0.0 0.0 0.0 0.0 0.0 0.0 0.0 0.0 0.0 0.0 0.0 0.0 0.0 0.0 0.0 0.0 0.0 0.0 0.0 0.0 0.0 0.0 0.0 0.0 0.0 0.0 0.0 0.0 0.0 0.0 0.0 0.0 0.0 0.0 0.0 0.0 0.0 0.0 0.0 0.0 0.0 0.0 0.0 0.0 0.0 0.0 0.0 0.0 0.0 0.0 0.0 0.0 0.0 0.0 0.0 0.0 0.0 0.0 0.0 0.0 0.0 0.0 0.0 0.0 0.0 0.0 0.0 0.0 0.0 0.0 0.0 0.0 0.0 0.0 0.0 0.0 0.0 0.0 0.0 0.0 0.0 0.0 0.0 0.0 0.0 0.0 0.0 0.0 0.0 0.0 0.0 0.0 0.0 0.0 0.0 0.0 0.0 0.0 0.0 0.0 0.0 0.0 0.0 0.0 0.0 0.0 0.0 0.0 0.0 0.0 0.0 0.0 0.0 0.0 0.0 0.0 0.0 0.0 0.0 0.0 0.0 0.0 0.0 0.0 0.0 0.0 0.0 0.0 0.0 0.0 0.0 0.0 0.0 0.0 0.0 0.0 0.0 0.0 0.0 0.0 0.0 0.0 0.0 0.0 0.0 0.0 0.0 0.0 0.0 0.0 0.0 0.0 0.0 0.0 0.0 0.0 0.0 0.0 0.0 0.0 0.0 0.0 0.0 0.0 0.0 0.0 0.0 0.0 0.0 0.0 0.0 0.0 0.0 0.0 0.0 0.0 0.0 0.0 0.0 0.0 0.0 0.0 0.0 0.0 0.0 0.0 0.0 0.0 0.0 0.0 0.0 0.0 0.0 0.0 0.0 0.0 0.0 0.0 0.0 0.0 0.0 0.0 0.0 0.0 0.0 0.0 0.0 0.0 0.0 0.0 0.0 0.0 0.0 0.0 0.0 0.0 0.0 0.0 0.0 0.0 0.0 0.0 0.0 0.0 0.0 0.0 0.0 0.0 0.0 0.0 0.0 0.0 0.0 0.0 0.0 0.0 0.0 0.0 0.0 0.0 0.0 0.0 0.0 0.0 0.0 0.0 0.0 0.0 0.0 0.0 0.0 0.0 0.0 0.0 0.0 0.0 0.0 0.0 0.0 0.0 0.0 0.0 0.0 0.0 0.0 0.0 0.0 0.0 0.0 0.0 0.0 0.0 0.0 0.0 0.0 0.0 0.0 0.0 0.0 0.0 0.0 0.0 0.0 0.0 0.0 0.0 0.0 0.0 0.0 0.0 0.0 0.0 0.0 0.0 0.0 0.0 0.0 0.0 0.0 0.0 0.0 0.0 0.0 0.0 0.0 0.0 0.0 0.0 0.0 0.0 0.0 0.0 0.0 0.0 0.0 0.0 0.0 0.0 0.0 0.0 0.0 0.0 0.0 0.0 0.0 0.0 0.0 0.0 0.0 0.0 0.0 0.0 0.0 0.0 0.0 0.0 0.0 0.0 0.0 0.0 0.0 0.0 0.0 0.0 0.0 0.0 0.0 0.0 0.0 0.0 0.0 0.0 0.0 0.0 0.0 0.0 0.0 0.0 0.0 0.0 0.0 0.0 0.0 0.0 0.0 0.0 0.0 0.0 0.0 0.0 0.0 0.0 0.0 0.0 0.0 0.0 0.0 0.0 0.0 0.0 0.0 0.0 0.0 0.0 0.0 0.0 0.0 0.0 0.0 0.0 0.0 0.0 0.0 0.0 0.0 0.0 0.0 0.0 0.0 0.0 0.0 0.0 0.0 0.0 0.0 0.0 0.0 0.0 0.0 0.0 0.0 0.0 0.0 0.0 0.0 0.0 0.0 0.0 0.0 0.0 0.0 0.0 0.0 0.0 0.0 0.0 0.0 0.0 0.0 0.0 0.0 0.0 0.0 0.0 0.0 0.0 0.0 0.0 0.0 0.0 0.0 0.0 0.0 0.0 0.0 0.0 0.0 0.0 0.0 0.0 0.0 0.0 0.0 0.0 0.0 0.0 0.0 0.0 0.0 0.0 0.0 0.0 0.0 0.0 0.0 0.0 0.0 0.0 0.0 0.0 0.0 0.0 0.0 0.0 0.0 0.0 0.0 0.0 0.0 0.0 0.0 0.0 0.0 0.0 0.0 0.0 0.0 0.0 0.0 0.0 0.0 0.0 0.0 0.0 0.0 0.0 0.0 0.0 0.0 0.0 0.0 0.0 0.0 0.0 0.0 0.0 0.0 0.0 0.0 0.0 0.0 0.0 0.0 0.0 0.0 0.0 0.0 0.0 0.0 0.0 0.0 0.0 0.0 0.0 0.0 0.0 0.0 0.0 0.0 0.0 0.0 0.0 0.0 0.0 0.0 0.0 0.0 0.0 0.0 0.0 0.0 0.0 0.0 0.0 0.0 0.0 0.0 0.0 0.0 0.0 0.0 0.0 0.0 0.0 0.0 0.0 0.0 0.0 0.0 0.0 0.0 0.0 0.0 0.0 0.0 0.0 0.0 0.0 0.0 0.0 0.0 0.0 0.0 0.0 0.0 0.0 0.0 0.0 0.0 0.0 0.0 0.0 0.0 0.0 0.0 0.0 0.0 0.0 0.0 0.0 0.0 0.0 0.0 0.0 0.0 0.0 0.0 0.0 0.0 0.0 0.0 0.0 0.0 0.0 0.0 0.0 0.0 0.0 0.0 0.0 0.0 0.0 0.0 0.0 0.0 0.0 0.0 0.0 0.0 0.0 0.0 0.0 0.0 0.0 0.0 0.0 0.0 0.0 0.0 0.0 0.0 0.0 0.0 0.0 0.0 0.0 0.0 0.0 0.0 0.0 0.0 0.0 0.0 0.0 0.0 0.0 0.0 0.0 -0.43441765086044104 0.0 -0.1699419082485476 -0.5089952527248811 0.0 -0.1574737119368427 -0.570817014270425 0.0 -0.13934121548353032 -0.6207662555191561 0.0 -0.11936819898420489 -0.6596279364906981 0.0 -0.0996915584922889 -0.42038309050957695 0.0 -0.2203611415090284 -0.555406773885169 0.0 -0.1905180007629499 -0.6570535764263391 0.0 -0.1793576284839406 -0.7349033383725829 0.0 -0.1618989040474725 -0.7956804598920112 0.0 -0.1411735555293388 -0.842593421064835 0.0 -0.1195811069895276 -0.555309293882732 0.0 -0.22624454965611362 -0.7210218580255461 0.0 -0.1975602209390054 -0.84193882104847 0.0 -0.1812004125300102 -0.9342203433555079 0.0 -0.1629936240748405 -1.005460945136523 0.0 -0.1442942636073565 -1.061065306526632 0.0 -0.1236809510920237 -0.7192640579816011 0.0 -0.2245136336128407 -0.9180769029519221 0.0 -0.1903542567588563 -1.0551949863798742 0.0 -0.173726084343152 -1.1578641089466022 0.0 -0.15701303992532592 -1.2387390309684752 0.0 -0.13976052349401302 -1.3022968725574213 0.0 -0.12095985902399642 -0.911465102786627 0.0 -0.2227945375698633 -1.1461445086536122 0.0 -0.17821560445539 -1.299408952485223 0.0 -0.1608841920221047 -1.4118734752968363 0.0 -0.1452875156321878 -1.5001779975044491 0.0 -0.1310817032770425 -1.571142159278553 0.0 -0.1143886348597158 -1.137735188443379 0.0 -0.2247741736193542 -1.412068515301712 0.0 -0.16387768009694192 -1.5811523995288093 0.0 -0.1441380556034513 -1.701888882547221 0.0 -0.1300670192516754 -1.796722084918051 0.0 -0.1191246549781163 -1.8738279668456979 0.0 -0.105376602634415 -1.405864195146604 0.0 -0.23720074193001842 -1.7229956030748892 0.0 -0.1516708397917709 -1.905692327642307 0.0 -0.1262461711561542 -2.031106250777655 0.0 -0.1143847508596187 -2.131788133294702 0.0 -0.1057492266437306 -2.21329045533226 0.0 -0.0960270984006774 -1.7248047231201171 0.0 -0.26834793870869833 -2.084204332105107 0.0 -0.1487592717189817 -2.2751308968782706 0.0 -0.11392879884821991 -2.4045611001140257 0.0 -0.0993657144841428 -2.5055390226384744 0.0 -0.09628465440711631 -2.590234264755855 0.0 -0.0899595742489893 -2.116063372901583 0.0 -0.3049675076241875 -2.5009577425239424 0.0 -0.15701408792535212 -2.6883980272099492 0.0 -0.1157054948926373 -2.8187473904686833 0.0 -0.09592428639810711 -2.9199837529995922 0.0 -0.09502358637558961 -3.0047335551183374 0.0 -0.0933179863329496 -2.625381145634527 0.0 -0.2950939233773479 -2.984632394615808 0.0 -0.16523704813092613 -3.155771518894286 0.0 -0.12512531512813282 -3.275582201889553 0.0 -0.1083674467091861 -3.373261724331541 0.0 -0.112039042800976 -3.4568920864223 0.0 -0.113540842838521 -3.2898621622465516 0.0 -0.23358230983955763 -3.5556660488916494 0.0 -0.169269564231739 -3.6847558121188935 0.0 -0.1406898515172462 -3.779975974499397 0.0 -0.1387682954692073 -3.867903616697588 0.0 -0.1494204557355113 -3.9461094986527354 0.0 -0.1569762159244053 -4.01671290041782 0.0 -0.3472625806815643 -4.216712105417801 0.0 -0.2350635578765888 -4.27365970684149 0.0 -0.1982061449551535 -4.3326685083167105 0.0 -0.20137568103439193 -4.40426731010668 0.0 -0.2136560973414023 -4.472812111820301 0.0 -0.2282953777073843 -4.836433720910841 0.0 -0.981522384538059 -4.95973172399329 0.0 -0.6004585350114631 -4.941615323540381 0.0 -0.395535289888382 -4.94330972358274 0.0 -0.3365487164137177 -4.98260492456512 0.0 -0.3266427601660688 -5.03733692593342 0.0 -0.3347107963677697 -5.883854147096351 0.0 -1.5094223577355579 -5.8306121457653 0.0 -1.060755546518888 -5.69530494238262 0.0 -0.7229938580748461 -5.61481654037041 0.0 -0.561188694029717 -5.6051761401294 0.0 -0.5041021326025531 -5.644021741100541 0.0 -0.4804845320121131 -7.112619377815481 0.0 -1.8582882464572053 -6.828594970714871 0.0 -1.405648475141211 -6.52441416311035 0.0 -1.0504604662615111 -6.335997758399941 0.0 -0.8354623808865589 -6.27425655685641 0.0 -0.7305788582644711 -6.292869357321731 0.0 -0.6622192565554811 -8.402401810060041 0.0 -2.1385170534629254 -7.864084996602119 0.0 -1.6893562822339057 -7.385982584649561 0.0 -1.337621833440545 -7.0909721772743 0.0 -1.1010465875261641 -6.9779429744485695 0.0 -0.9604454240111349 -6.981547774538691 0.0 -0.8678288616957212 -9.67678624191965 0.0 -2.401554740038867 -8.901201022530019 0.0 -1.9369898484247454 -8.260488206512202 0.0 -1.5856384796409613 -7.871694196792351 0.0 -1.33994563349864 -7.717976592949411 0.0 -1.1799309094982722 -7.709465792736641 0.0 -1.071249706781242 -10.911085872777141 0.0 -2.6657160666429 -9.93774504844362 0.0 -2.166836774170918 -9.15182382879559 0.0 -1.8036470850911759 -8.67928621698215 0.0 -1.5478326386958152 -8.489430612235761 0.0 -1.380513514512837 -8.47147861178696 0.0 -1.2699193517479828 -12.14589950364748 0.0 -2.934047953351197 -10.996386274909652 0.0 -2.395852539896312 -10.07409145185228 0.0 -1.9998325699958128 -9.51721503793037 0.0 -1.73057084326427 -9.292181432304531 0.0 -1.5599067989976692 -9.27015863175396 0.0 -1.443649516091237 -13.432403935810092 0.0 -3.204806200120153 -12.1017323025433 0.0 -2.6145882253647046 -11.03556307588907 0.0 -2.177266174431653 -10.388096259702401 0.0 -1.8946192073654793 -10.12507665312691 0.0 -1.718271482956786 -10.09852865246321 0.0 -1.5971727599293182 -14.79115476977886 0.0 -3.4620823665520564 -13.257927131448168 0.0 -2.820764630519114 -12.03394670084866 0.0 -2.340954258523855 -11.289186282229652 0.0 -2.0395292909882308 -10.98352987458824 0.0 -1.8534557663363929 -10.95521267388031 0.0 -1.7379433234485822 -16.21442000536049 0.0 -3.7169858129246434 -14.462335561558382 0.0 -3.0111252752781303 -13.066392726659812 0.0 -2.485227462130685 -12.216623905415592 0.0 -2.164218974105473 -11.86513989662849 0.0 -1.9722690893067258 -11.835570695889261 0.0 -1.8589848064746193 -17.703108842577713 0.0 -3.9587582589689543 -15.712428792810712 0.0 -3.178706999467673 -14.128875953221891 0.0 -2.606082425152059 -13.165550729138761 0.0 -2.263733736593342 -12.76568951914223 0.0 -2.0681021317025525 -12.73569991839249 0.0 -1.9545523288638071 -19.25773593088632 0.0 -4.18074778466739 -17.006875487831753 0.0 -3.3168267390384747 -15.21835247572946 0.0 -2.6965518182657924 -14.13126465670678 0.0 -2.331735072476955 -13.680219650363751 0.0 -2.12998199370875 -13.651603196707999 0.0 -2.0160724201286997 -20.88547875966168 0.0 -4.3762205374197 -18.34828351706628 0.0 -3.414507088535532 -16.3341989958477 0.0 -2.74605931998951 -15.111118355214002 0.0 -2.3576364281232 -14.60531801700042 0.0 -2.1457130503653 -14.579451483788459 0.0 -2.032739628555174 -22.6098677151568 0.0 -4.536748040323199 -19.74619927526372 0.0 -3.4606954860309163 -17.47928825985719 0.0 -2.739840203170974 -16.10590809231942 0.0 -2.3242053730633363 -15.541388094419199 0.0 -2.11340444054896 -15.5163468487188 0.0 -1.993826203760664 -24.470217042808322 0.0 -4.655486338912239 -21.21611980363156 0.0 -3.443762919574932 -18.658741183891163 0.0 -2.66125828473362 -17.115464353842547 0.0 -2.21451739633297 -16.485394521142798 0.0 -2.0030151580396205 -16.45958769748134 0.0 -1.8940486770687872 -26.50560080166573 0.0 -4.72836621459595 -22.76857541980896 0.0 -3.3582615611606186 -19.86846322779216 0.0 -2.502456660430008 -18.13436287939635 0.0 -2.0201303028948048 -17.42663589167468 0.0 -1.817220060509612 -17.40025261194962 0.0 -1.732456580453362 -28.713294738917 0.0 -4.75533809335262 -24.38501180515995 0.0 -3.2026611760720196 -21.08831918032095 0.0 -2.260607254303716 -19.139010215691602 0.0 -1.749420743962437 -18.3348907189518 0.0 -1.575405312042228 -18.3110008174311 0.0 -1.50615748901991 -31.00205939144666 0.0 -4.77259848610594 -25.99391898444552 0.0 -2.989806256919358 -22.272750683636403 0.0 -1.9271592158801445 -20.060325867381238 0.0 -1.4510351657167029 -19.143172987672 0.0 -1.3199970893248 -19.141352182763548 0.0 -1.23346697533059 -33.23103282408828 0.0 -4.84167880839516 -27.498334446535228 0.0 -2.738095780880034 -23.343217792302298 0.0 -1.5726982008992458 -20.81906764649145 0.0 -1.175651802759042 -19.855697563266478 0.0 -0.9541234670296681 -19.883759371531557 0.0 -0.85741764383148 -35.15932388255084 0.0 -4.91876411856348 -28.756270807422073 0.0 -2.589805185043456 -24.113460502946786 0.0 -1.485954480051788 -21.49410516977152 0.0 -0.790658844627652 -20.481354876628803 0.0 -0.5101806647931839 -20.524318720738563 0.0 -0.3314088237985434 -36.60508878305454 0.0 -5.090310738442801 -29.8487612375008 0.0 -2.644405351977956 -24.86925178202232 0.0 -1.4381214564252498 -22.10073713781424 0.0 -0.47214932600709597 -20.99170536132324 0.0 0.00562260578167424 -21.05800035118428 0.0 0.2699331535623126 -37.45103649302616 0.0 -5.2124240668401605 -30.3691601893824 0.0 -2.98908402212936 -25.18037005800534 0.0 -1.7245215379197985 -22.36658262199402 0.0 -0.5964382102394059 -21.31807570718325 0.0 0.3112478855000439 -21.430901740958998 0.0 0.8588639486546458 -36.25649353291982 0.0 -4.69354785267972 -29.75845429627224 0.0 -2.928985392054184 -24.881950314741857 0.0 -2.1289007731049683 -22.1446087342293 0.0 -0.730706816163864 -21.2804928967536 0.0 0.35272901573784005 -21.50200924450956 0.0 1.323313669182612 -29.50794422326036 0.0 -5.164891930347199 -27.36584610930625 0.0 -3.42975821722233 -23.59804559596768 0.0 -2.1940526061285563 -20.9230126187748 0.0 -0.7912592980662719 -20.3638486966306 0.0 -0.1018394188097118 -20.877028386401598 0.0 0.9897539119601 -18.63220373911552 0.0 -5.76391921581824 -18.27493655514625 0.0 -3.0416494271144003 -18.268324376339617 0.0 -2.319323620135676 -18.123087005320677 0.0 -0.7359031559302919 -17.8829815415628 0.0 -0.3608681384714796 -18.42640799369487 0.0 -0.3855767087676179 -11.02234237355602 0.0 -4.77137197138002 -10.745541222619698 0.0 -2.096953196142137 -10.65166266076274 0.0 -2.430484189169716 -10.659651226096859 0.0 -0.7574616454625079 -11.078502441713281 0.0 -0.2761577547967872 -11.77107996566553 0.0 0.05771085896550151 -6.94336367063534 0.0 -3.758753107790916 -6.615384854502249 0.0 -1.430280539704265 -6.3621169880576005 0.0 -2.67800783503792 -6.279932459491989 0.0 -0.792848603717657 -6.450989245907279 0.0 0.259904306755686 -6.874126434481321 0.0 1.365768342700272 -4.81329086752332 0.0 -3.284651294951705 -4.45200015253158 0.0 -0.863976290800227 -4.11010276408068 0.0 -3.3613434193393488 -3.8922082954902404 0.0 -0.7673505713411201 -3.83276301703215 0.0 0.9194074051654801 -3.9374710182163977 0.0 2.3219771702963405 -2.7364807700501075 0.0 -3.239973140576178 -2.4470614645094835 0.0 -0.39863819878366596 -2.140801782177136 0.0 -3.6176400333683087 -1.871045246985545 0.0 -0.90494487846585 -1.6645709418654961 0.0 1.059852631130652 -1.53472727692635 0.0 2.6242698082844362 0.5007735391262401 0.0 -3.3222871507305602 0.621433957436775 0.0 -0.14480352752512501 0.771902778695595 0.0 -3.5336037714198807 0.9579429074344139 0.0 -1.317489517475802 1.169719641823734 0.0 0.654356550059964 1.39496823097938 0.0 2.3565599154836003 5.074662780622799 0.0 -3.57052493177028 4.9788301413084 0.0 -0.11502797056340848 4.9059638628151205 0.0 -3.359507158561764 4.882433343409169 0.0 -1.570287182791977 4.99221851876 0.0 0.025651398556034398 5.166439371899 0.0 1.7523394819350682 10.4291988838722 0.0 -3.8695240110400655 10.10570342727024 0.0 -0.3059125470049644 9.6799096346931 0.0 -3.042179111798271 9.4942032330276 0.0 -1.69416275771178 9.4702712731042 0.0 -0.59150195260825 9.51125014628096 0.0 1.02248970851456 16.00189344415416 0.0 -4.5774772762828 15.1731076537794 0.0 -0.6392458915534569 14.575707361429478 0.0 -2.9799337720282284 14.275544503721612 0.0 -1.9503231362368918 14.09234895906114 0.0 -1.115540998078934 13.98390396353475 0.0 0.322475515528495 21.228222758058 0.0 -5.2310031849702 19.65298982579739 0.0 -1.1126801283418442 19.111058648212502 0.0 -3.26915930285455 18.603505756945 0.0 -2.15455639535275 18.40509904822564 0.0 -1.4609944976730278 18.239745905043183 0.0 -0.2577308067883386 25.867985416399446 0.0 -5.67663993950998 23.495808411495 0.0 -1.8204529138827916 22.7315808819902 0.0 -3.5530756542317077 22.26025214225802 0.0 -2.315290609977884 22.196512178020797 0.0 -1.6921744627242148 22.079147258089982 0.0 -0.66690596011932 29.88758824300824 0.0 -6.331702831586161 26.773563279516612 0.0 -2.9661205505305728 25.579189484452197 0.0 -3.8089094968377557 25.263515737147447 0.0 -2.441816081595774 25.37878281618756 0.0 -1.993018204536906 25.01620471004248 0.0 -1.024039031024136 33.39379213371585 0.0 -6.836482343883151 29.7218786019056 0.0 -4.2099638446549505 28.147763766114 0.0 -4.20361465336568 27.805982289278177 0.0 -2.885921511654285 27.1068689655371 0.0 -2.56455277339745 26.22843004526856 0.0 -1.4772904379930718 36.60000630221219 0.0 -7.0124794768410705 32.476374586339055 0.0 -5.063609382252 30.683964384460797 0.0 -4.6494833870016 29.512615176109797 0.0 -3.7809972667500595 27.70784705528301 0.0 -3.0371525260826644 26.62383624675138 0.0 -1.8799140101377323 39.95981914218096 0.0 -7.02441453682036 35.163445448483955 0.0 -5.48813326025575 33.07540323989414 0.0 -5.19016295336328 30.24335023395182 0.0 -4.18354012080116 27.9894628057371 0.0 -3.21670535430844 26.843390943911096 0.0 -2.185416548219076 43.6011837948582 0.0 -6.82733880368312 38.3778210243384 0.0 -5.883685702232801 34.50244797508314 0.0 -5.393842121176079 30.600773355886016 0.0 -4.19955126319697 28.20506101088234 0.0 -3.375262553224724 26.92881674133566 0.0 -2.4366745229700593 47.394820958220606 0.0 -6.06112024035614 41.783993583762 0.0 -6.0770789886186 35.55441568426566 0.0 -5.398054127022959 31.03804043450703 0.0 -4.14414231559731 28.453931919294238 0.0 -3.3891936734993764 27.001247333358116 0.0 -2.5669182806507997 52.144309853623 0.0 -7.8738237561321 43.895806654518495 0.0 -6.54019504405476 36.81299826161046 0.0 -5.251047680992061 31.709991590196747 0.0 -4.03574535359775 28.77915212416056 0.0 -3.3661879413424742 27.15588472824435 0.0 -2.673105592227135 55.167231689775 0.0 -8.4493603298772 46.2565981561698 0.0 -6.56950590838746 38.37843299355216 0.0 -5.03065510925328 32.783682026678306 0.0 -3.853539935435501 29.38183012131276 0.0 -3.244891790923692 27.4040683231865 0.0 -2.6358890146039 48.9333843786859 0.0 -6.561484439411631 40.4197551599515 0.0 -4.8120952735244495 34.26666849066036 0.0 -3.547555038768009 30.311245221122725 0.0 -2.9745841448017876 27.89120773131672 0.0 -2.507846956843144 52.0104408212452 0.0 -6.60554204780024 43.0766432313264 0.0 -4.80859934890608 36.3283592418698 0.0 -3.35987804201994 31.650810508105604 0.0 -2.7040694397269 28.700066459620917 0.0 -2.320019594593326 46.40591959767 0.0 -4.83031599025176 38.92076139442932 0.0 -3.267911891489274 33.50471611202457 0.0 -2.390437355684007 29.879525195294757 0.0 -2.129438794693932 50.160501373382395 0.0 -4.9134597317603195 42.071156489648 0.0 -3.266692984567168 35.8558824340365 0.0 -2.102467317854325 31.47537212262348 0.0 -1.813976027241724 46.0943978538368 0.0 -3.552041322935616 39.01555026573401 0.0 -2.148391066263397 33.83733601182682 0.0 -1.5054654570560442 43.160962350727196 0.0 -2.5541964369261927 37.369799039528154 0.0 -1.608574127356152 46.9750080275175 0.0 -2.95309496567085 41.6040411245133 0.0 -2.105488102850157 -0.6881920172048 0.0 -0.08158745803968641 -0.7077297376932431 0.0 -0.0646603256165081 -0.7193931779848289 0.0 -0.0502529532563238 -0.725215538130388 0.0 -0.03809545135238626 -0.7272251381806281 0.0 -0.02786449869661245 -0.726878378171959 0.0 -0.01977685129442127 -0.7254995381374881 0.0 -0.01317690792942269 -0.7238948980973721 0.0 -0.008052573401314331 -0.7227150180678751 0.0 -0.0037736301343407512 -0.8770119019252971 0.0 -0.0983366264584156 -0.899797862494946 0.0 -0.0789938779748469 -0.91270562281764 0.0 -0.06246118156152951 -0.9187780629694512 0.0 -0.0477264251931606 -0.9201599430039981 0.0 -0.03558716248967904 -0.9188797029719921 0.0 -0.025644899041122462 -0.9164966629124162 0.0 -0.017442831636070782 -0.914045542851138 0.0 -0.01080592747014818 -0.912308702807717 0.0 -0.0051405281285132 -1.101493667537341 0.0 -0.1036034865900871 -1.1278862281971551 0.0 -0.0846700701167517 -1.14250642856266 0.0 -0.0676638376915959 -1.1487257487181428 0.0 -0.0525709773142744 -1.149457788736444 0.0 -0.03985636019640899 -1.147220628680515 0.0 -0.029038423925960583 -1.143748708593717 0.0 -0.02009189490229736 -1.140384508509612 0.0 -0.012547671913691789 -1.1380150284503752 0.0 -0.00605092295127307 -1.348794793719869 0.0 -0.1023442065586051 -1.378687314467182 0.0 -0.0848912381222809 -1.3949053148726323 0.0 -0.06838864170971601 -1.401203195030079 0.0 -0.0539387133484678 -1.4012352350308799 0.0 -0.0412541530313538 -1.3979091949477291 0.0 -0.030445713561142822 -1.3933017948325441 0.0 -0.021312478532811954 -1.3889772747244313 0.0 -0.013415903135397571 -1.3859655546491378 0.0 -0.006471875361796881 -1.6230644805766112 0.0 -0.09779881444497031 -1.6560867614021682 0.0 -0.08174201004355021 -1.6733559218338971 0.0 -0.0665430256635756 -1.6794048819851213 0.0 -0.0531038133275953 -1.6785164419629102 0.0 -0.041089177027229404 -1.6738882418472052 0.0 -0.030675483566887075 -1.668014361700358 0.0 -0.02162449854061245 -1.66262364156559 0.0 -0.01375395674384891 -1.6589241614731027 0.0 -0.006659072966476821 -1.9300594882514859 0.0 -0.0915386222884655 -1.9654089291352221 0.0 -0.0773026619325665 -1.983049809576244 0.0 -0.06386224159655601 -1.988359489708986 0.0 -0.0515414372885359 -1.98607164965179 0.0 -0.0404072970101824 -1.979869129496727 0.0 -0.03052890396322258 -1.972486929312172 0.0 -0.0218009285450232 -1.9658859691471482 0.0 -0.01399545394988634 -1.9614060090351493 0.0 -0.006843793371094831 -2.272626176815653 0.0 -0.0857933381448334 -2.309315737732892 0.0 -0.07399414984985371 -2.3265837381645924 0.0 -0.0625143135628578 -2.3305214582630356 0.0 -0.0512640892816022 -2.3263901381597525 0.0 -0.041021685025542105 -2.3182434579560853 0.0 -0.03151387038784674 -2.309079817726994 0.0 -0.022864471771611782 -2.3010714175267846 0.0 -0.014863929571598232 -2.2956964973924108 0.0 -0.00731824498295612 -2.651450226286254 0.0 -0.0837319740932993 -2.688458707211466 0.0 -0.0749891778747294 -2.704637227615929 0.0 -0.0652895896322397 -2.706584427664609 0.0 -0.0551525133788128 -2.700146947503672 0.0 -0.045102193127554806 -2.6897190672429754 0.0 -0.0354262928856573 -2.6785498269637444 0.0 -0.02618009225450229 -2.6689596667239903 0.0 -0.01723851443096285 -2.662575226564379 0.0 -0.00855839181395979 -3.066554356663857 0.0 -0.09072855826821391 -3.1030478375761943 0.0 -0.08481334212033351 -3.1175682779392053 0.0 -0.0764927299123182 -3.117138357928457 0.0 -0.0665010096625252 -3.108068557701712 0.0 -0.0556053813901345 -3.095107557377687 0.0 -0.0444592331114808 -3.081711637042789 0.0 -0.03330042443251059 -3.07040487676012 0.0 -0.02216760255419005 -3.0629261965731525 0.0 -0.01108213987705349 -3.5179204079480084 0.0 -0.113759282843982 -3.5533368088334183 0.0 -0.10902084272552101 -3.5659573691489315 0.0 -0.1005336905133422 -3.563036049075899 0.0 -0.0889048062226201 -3.551225368780632 0.0 -0.07539512588487811 -3.5356011283900264 0.0 -0.060876425521910596 -3.519868167996702 0.0 -0.0459306331482658 -3.506728847668219 0.0 -0.030761838769045955 -3.498087007452173 0.0 -0.01541592798539819 -4.00555410013885 0.0 -0.1582446119561152 -4.03958570098964 0.0 -0.15310209182755222 -4.050560101264001 0.0 -0.14176083154402072 -4.045400901135021 0.0 -0.1259225511480637 -4.03103930077598 0.0 -0.1070903466772586 -4.01278730031968 0.0 -0.08691565417289131 -3.9947068198676683 0.0 -0.0657044616426115 -3.97971889949297 0.0 -0.043969041099226 -3.9698910592472743 0.0 -0.02200547055013675 -4.52996571324914 0.0 -0.227963645699091 -4.5630793140769805 0.0 -0.21943271748581783 -4.57293811432345 0.0 -0.20302389307559723 -4.56619651415491 0.0 -0.1803624325090607 -4.549821313745531 0.0 -0.1530745198268629 -4.52923091323077 0.0 -0.12363866709096662 -4.508942512723561 0.0 -0.0934964303374107 -4.49216251230406 0.0 -0.0626828735670718 -4.48114091202852 0.0 -0.03168259039206474 -5.09235452730886 0.0 -0.3248931481223285 -5.125338528133461 0.0 -0.31077738776943453 -5.13531932838298 0.0 -0.28568535514213367 -5.1283497282087405 0.0 -0.2511364742784117 -5.11052052776301 0.0 -0.2134379933359497 -5.08805532720138 0.0 -0.1739206003480149 -5.06597492664937 0.0 -0.1315793792894844 -5.04766132619153 0.0 -0.08796194219904852 -5.03568852589221 0.0 -0.043925181098129505 -5.69420494235512 0.0 -0.45693585142339604 -5.729206943230171 0.0 -0.42539621063490507 -5.7406601435165 0.0 -0.3886364337159106 -5.73412094335302 0.0 -0.3422649005566223 -5.71612974290324 0.0 -0.2902380312559506 -5.69270774231769 0.0 -0.2349488298737206 -5.66941814173545 0.0 -0.1775450884386271 -5.64973974124349 0.0 -0.12020575100514369 -5.636999340924981 0.0 -0.060463001511575 -6.3390837584770905 0.0 -0.615867695396692 -6.37632735940818 0.0 -0.566611494165287 -6.3913045597826095 0.0 -0.5101579727539489 -6.386176559654411 0.0 -0.450977531274438 -6.36943695923592 0.0 -0.38241000956025 -6.346398158659951 0.0 -0.3103204557580112 -6.322835758070891 0.0 -0.2349879338746982 -6.30305335757633 0.0 -0.1574870159371753 -6.290044557251109 0.0 -0.0788010659700266 -7.02781017569525 0.0 -0.79403801985095 -7.06871817671795 0.0 -0.724855018121375 -7.08800137720003 0.0 -0.650318976257974 -7.08687777717194 0.0 -0.572424294310607 -7.072138976803471 0.0 -0.48992261224806505 -7.051015776275391 0.0 -0.39776786194419633 -7.02852657571316 0.0 -0.3024391475609785 -7.009368175234201 0.0 -0.20366490509162252 -6.99667537491688 0.0 -0.1023555545588888 -7.757498193937451 0.0 -0.984361104609027 -7.80625539515638 0.0 -0.8942068223551699 -7.832005395800131 0.0 -0.8018108600452711 -7.83662899591572 0.0 -0.705456217636405 -7.82642539566063 0.0 -0.6055164951379121 -7.809495795237392 0.0 -0.4941871723546789 -7.79023059475576 0.0 -0.37743430943585754 -7.77330259433256 0.0 -0.2549886783747168 -7.761908994047721 0.0 -0.1283333912083347 -8.52777661319441 0.0 -1.16841882921047 -8.58711661467791 0.0 -1.062461586561539 -8.62236941555923 0.0 -0.9569064239226599 -8.635786615894661 0.0 -0.8452387011309671 -8.63454301586357 0.0 -0.725461738136543 -8.62376061559401 0.0 -0.5977590149439751 -8.61055461526386 0.0 -0.457874291446857 -8.59793021494825 0.0 -0.31055336776383397 -8.589242614731061 0.0 -0.15686569592164232 -9.335113033377821 0.0 -1.3364079934101991 -9.407610635190261 0.0 -1.229249030731225 -9.45802863645071 0.0 -1.112777827819445 -9.48481383712034 0.0 -0.9900157047503921 -9.49583143739578 0.0 -0.850935301273382 -9.49565463739136 0.0 -0.7055124976378119 -9.491945837298642 0.0 -0.542196973554924 -9.48645103716127 0.0 -0.36860016121500383 -9.48220303705507 0.0 -0.1864377206609429 -10.17727985443199 0.0 -1.4955461973886541 -10.267595056689869 0.0 -1.388038754700968 -10.337380658434512 0.0 -1.265389471634736 -10.38408385960209 0.0 -1.135581708389542 -10.41290146032253 0.0 -0.9817726245443149 -10.4278362606959 0.0 -0.810949260273731 -10.43653506091337 0.0 -0.624859295621482 -10.44183586104589 0.0 -0.42641689066042193 -10.443979861099491 0.0 -0.21607154140178844 -11.05029267625731 0.0 -1.6391850009796238 -11.16374547909363 0.0 -1.53315803832895 -11.259310281482751 0.0 -1.4114127552853182 -11.33046748326168 0.0 -1.267607431690185 -11.383693884592342 0.0 -1.101362547534063 -11.421733485543331 0.0 -0.9128215828205392 -11.44642668616066 0.0 -0.7038466175961651 -11.46497828662445 0.0 -0.4777824519445611 -11.47668868691721 0.0 -0.244027286100682 -11.95100749877518 0.0 -1.7630730040768239 -12.094058702351463 0.0 -1.6636858415921452 -12.219159905478989 0.0 -1.5355124783878111 -12.323161508079032 0.0 -1.3828209145705224 -12.40722231018055 0.0 -1.2056098301402451 -12.473941511848532 0.0 -1.0016416650410411 -12.52149471303736 0.0 -0.7738537793463439 -12.557927113948171 0.0 -0.5251407331285181 -12.58006231450155 0.0 -0.2654463346361582 -12.87571152189278 0.0 -1.861204006530099 -13.053843926346092 0.0 -1.7634750840868758 -13.21595793039894 0.0 -1.631971960799298 -13.359239533980979 0.0 -1.4720833168020822 -13.48143513703587 0.0 -1.286552952163823 -13.58332713958317 0.0 -1.070341026758525 -13.660141141503523 0.0 -0.828433820710845 -13.71888914297222 0.0 -0.5628584540714611 -13.75494114387352 0.0 -0.2832940190823503 -13.8207128772384 0.0 -1.92498266496256 -14.03890221706455 0.0 -1.8261656701303468 -14.245274578231259 0.0 -1.6931259815892261 -14.434526547271881 0.0 -1.5269532575530462 -14.60206358851624 0.0 -1.3349596228013767 -14.74590593070464 0.0 -1.111419393838974 -14.860577805373179 0.0 -0.856423868865469 -14.94409233690836 0.0 -0.585262361786768 -14.99697706974082 0.0 -0.29343739017862486 -14.7817203427026 0.0 -1.9435718608762682 -15.04576359896472 0.0 -1.84466985339591 -15.302597555654458 0.0 -1.7102376559450618 -15.542723175996242 0.0 -1.5436318212052922 -15.76421871452376 0.0 -1.342597477116372 -15.95661378267 0.0 -1.1169405446748002 -16.1142634137003 0.0 -0.8610452280932249 -16.229897600771878 0.0 -0.581076036106425 -16.3001027226015 0.0 -0.29569776065851955 -15.75472739918793 0.0 -1.9067081892226583 -16.06996722685508 0.0 -1.8109192991394039 -16.3833341976512 0.0 -1.6752501427604802 -16.6821616812734 0.0 -1.5059890857591942 -16.95991904462284 0.0 -1.304627517497623 -17.2077352903456 0.0 -1.0759638314110398 -17.411999929754163 0.0 -0.8282586147482801 -17.564657407994602 0.0 -0.5600939250585081 -17.65899107852682 0.0 -0.2789299738772449 -16.73622531612277 0.0 -1.809794269384217 -17.1055463546566 0.0 -1.70996141551931 -17.48324934333694 0.0 -1.5774319610667922 -17.84600469828825 0.0 -1.405468075662823 -18.18588578829856 0.0 -1.20653909705992 -18.48990615558925 0.0 -0.986856525897803 -18.74355943099435 0.0 -0.7528521938038399 -18.93425042278996 0.0 -0.5080543646520861 -19.05166327552143 0.0 -0.2573941413739203 -17.71911597634934 0.0 -1.651478401766774 -18.14969410109408 0.0 -1.5481667133455461 -18.594413262391196 0.0 -1.4072748487738718 -19.026656786875083 0.0 -1.228323789356412 -19.432390586319862 0.0 -1.029705533682154 -19.796065980417097 0.0 -0.823422081900099 -20.10021766645268 0.0 -0.614812069576868 -20.32938871290372 0.0 -0.40788382702190795 -20.471773735318248 0.0 -0.20342122883995148 -18.67905583710192 0.0 -1.4399983114367763 -19.181516079651658 0.0 -1.3172136060564479 -19.699712577028798 0.0 -1.14948674849088 -20.20510068065778 0.0 -0.9591424801243021 -20.67799316385048 0.0 -0.7631490318004021 -21.10176217280754 0.0 -0.5781271562611231 -21.45690375685395 0.0 -0.4125015558378 -21.72640314701136 0.0 -0.2600877259786344 -21.892260050766602 0.0 -0.125211788853459 -19.5827595391176 0.0 -1.1332210457221361 -20.17055775623111 0.0 -0.984764905227632 -20.76925918269952 0.0 -0.7946329640527678 -21.348264746572482 0.0 -0.59196957332363 -21.888498176235597 0.0 -0.40376108046079007 -22.368559575831302 0.0 -0.247796659430021 -22.76591762516416 0.0 -0.1347281209059128 -23.067893646532163 0.0 -0.07232437783164641 -23.261932784077835 0.0 -0.026978404103441 -20.39455515006654 0.0 -0.7251621190881119 -21.0611095089448 0.0 -0.56139368415352 -21.74705915360814 0.0 -0.3338695297871956 -22.396479220369283 0.0 -0.1035059212308576 -22.998590306972776 0.0 0.0767376205635241 -23.5228635441502 0.0 0.20665131446237442 -23.9520766238432 0.0 0.23317093103584 -24.275224953121597 0.0 0.18451409964895601 -24.4948734031815 0.0 0.1113530228298208 -21.091830964989956 0.0 -0.18880645195201443 -21.83428243178937 0.0 0.01401867462800289 -22.594348832887054 0.0 0.261798550364847 -23.30263642411452 0.0 0.495221896229808 -23.935636779041257 0.0 0.67156208584563 -24.49162535249056 0.0 0.774504232103712 -24.9479355792095 0.0 0.72507543029157 -25.297957928018803 0.0 0.541245641275248 -25.50733545503715 0.0 0.293679585031437 -21.67821722863908 0.0 0.482575822264989 -22.48015469005056 0.0 0.7426483635730562 -23.28464648159688 0.0 1.0178636725617 -24.02743250820845 0.0 1.2343741835377349 -24.69915494379767 0.0 1.363129372007437 -25.27854329467216 0.0 1.371848552918896 -25.75878717424084 0.0 1.180578800018548 -26.114416345969918 0.0 0.879571665990616 -26.295924446403742 0.0 0.495927452770006 -22.112361590877 0.0 1.2547256469987598 -22.9743929359608 0.0 1.621687175128728 -23.82841846209372 0.0 1.9759489076298358 -24.60540759667074 0.0 2.2135121314337636 -25.29069794065181 0.0 2.2590490780069468 -25.865758572486207 0.0 2.1793563695890983 -26.35481409689184 0.0 1.8706242746863282 -26.68895450007772 0.0 1.403927916264934 -26.891433657294666 0.0 0.7417364194500949 -22.25574825537411 0.0 1.9765392712888499 -23.21777713525632 0.0 2.5284572935016154 -24.130730885034 0.0 2.9993116823235004 -24.960380791448312 0.0 3.280814599369713 -25.700352554098682 0.0 3.325992949852248 -26.28985807070424 0.0 3.159908615561184 -26.777671422480086 0.0 2.6850536090515167 -27.1296450536727 0.0 1.9761172984007402 -27.3779801393592 0.0 1.02700438676368 -21.820314946624 0.0 2.06395923351372 -22.950514160336567 0.0 2.9404913443984873 -23.999860349937997 0.0 3.595541729721639 -24.870138934030244 0.0 3.909000595083434 -25.6064746303719 0.0 3.8342393113848305 -26.272979588391568 0.0 3.4270502633038538 -26.894248846690704 0.0 2.7775099517138155 -27.384619277612458 0.0 1.953650655270372 -27.689544586513772 0.0 1.037859161819829 -19.59567950403125 0.0 0.27350500840061254 -20.83154620712081 0.0 1.2732720535106041 -22.15943178450872 0.0 1.9776874667620725 -23.51179815722262 0.0 2.25966693325122 -24.69732733439733 0.0 2.262986462492844 -25.640946741900837 0.0 2.062377673706658 -26.389756804543076 0.0 1.678364188875708 -26.891435411496865 0.0 1.1936982180971438 -27.197986982953502 0.0 0.6197852851181741 -12.66374786018864 0.0 1.093182137076342 -13.699789613299801 0.0 2.0943890613272758 -14.796443870366 0.0 2.7692392789427 -15.860301362136001 0.0 3.05164735625408 -16.82355818570846 0.0 2.97711810167046 -17.64362320157802 0.0 2.63316502393962 -18.29567644932105 0.0 2.11040169153102 -18.7668526483692 0.0 1.470738330449892 -19.05127720372197 0.0 0.7549702176515669 -7.476515496965741 0.0 2.510310853105442 -8.2282437034478 0.0 3.4320892579688 -9.0579289525243 0.0 3.98516499125744 -9.89451430066428 0.0 4.103170708764609 -10.67881316339432 0.0 3.8471123198371497 -11.367664070634058 0.0 3.3205070644577193 -11.92970798050716 0.0 2.619227426822676 -12.343747096977662 0.0 1.806568377179202 -12.59686171033794 0.0 0.9219511624109851 -4.1926154758156 0.0 3.4882377480590794 -4.57391718386281 0.0 4.39433020887543 -5.04610083408467 0.0 4.895574817811339 -5.56334846082257 0.0 4.9278683036006 -6.08019873088407 0.0 4.56412219758339 -6.55749544981932 0.0 3.914432594163906 -6.96211571687775 0.0 3.0768782113046247 -7.2685314470898605 0.0 2.117727496008954 -7.459206165708359 0.0 1.0794493607898 -1.48638390770954 0.0 3.881119311755805 -1.523505429411654 0.0 4.83903030723762 -1.6422175238704022 0.0 5.367733117210981 -1.823972594243136 0.0 5.404037556229119 -2.0428406163367168 0.0 5.01960143761558 -2.270465950149656 0.0 4.322268176127279 -2.479118471181128 0.0 3.410173075047116 -2.6455203449235754 0.0 2.35373768850341 -2.7524068321607844 0.0 1.201782703206052 1.6179872080814002 0.0 3.7276731465943973 1.8171552735051533 0.0 4.77592525715029 1.972736017407124 0.0 5.388300014780401 2.076563636662515 0.0 5.49901648922535 2.131114015793154 0.0 5.16754647179148 2.1474748374575343 0.0 4.492894679966101 2.14007772153476 0.0 3.5716848094856255 2.1231016844461017 0.0 2.4784734832060797 2.107894940443447 0.0 1.269506209037109 5.417492225226001 0.0 3.19437131648457 5.71932966284757 0.0 4.327750373282489 6.037798153904521 0.0 5.0417558238063 6.341876509247999 0.0 5.260649177664 6.61041969208113 0.0 5.02541907704697 6.83271243968526 0.0 4.4233293707634305 7.00470303359596 0.0 3.5482918446939067 7.12589403230122 0.0 2.4777065786542742 7.197524290327611 0.0 1.2738042065710111 9.68203005167015 0.0 2.48048111562484 9.977377408244388 0.0 3.6665050154417744 10.357609648233481 0.0 4.46484453054312 10.775291768883 0.0 4.787820256374 11.188458378048239 0.0 4.657972885493041 11.564063840151482 0.0 4.15175691353364 11.87767661865958 0.0 3.3597671421054405 12.112206800548899 0.0 2.360002179046308 12.256715473824901 0.0 1.217515684207355 14.02885433956356 0.0 1.7566306763389439 14.259376375921919 0.0 2.9539597036829766 14.63636507360544 0.0 3.7981026394834045 15.102232478591 0.0 4.1944798519695 15.59881118313607 0.0 4.15251603098557 16.074584847204818 0.0 3.741536917063768 16.48699412465004 0.0 3.0490233098414357 16.80372477078912 0.0 2.15142823599472 17.002459185977383 0.0 1.112814568556427 18.17229835807126 0.0 1.133254521331738 18.33109060999554 0.0 2.305015327250103 18.67928345825112 0.0 3.151600655295816 19.15394287199904 0.0 3.5802395976795833 19.687288933401597 0.0 3.5948821366208636 20.21607455096358 0.0 3.2623363948813653 20.68544940356125 0.0 2.668316325445375 21.052013131806678 0.0 1.886542275941315 21.28469891762751 0.0 0.9768371158214678 21.9550495180692 0.0 0.65834988849864 22.063973547591043 0.0 1.777104643202876 22.376377096009644 0.0 2.5895417807735304 22.81179478010924 0.0 3.01134952146201 23.315761815059627 0.0 3.0497045693139664 23.80552097948406 0.0 2.773050988816254 24.23861097544304 0.0 2.266094558338788 24.569916955513946 0.0 1.6007867648503786 24.781029866345882 0.0 0.828323544717802 24.727852125636748 0.0 0.24181728375344438 24.668258450621998 0.0 1.295493513664712 24.7705203967389 0.0 2.05756069274748 24.9673403416392 0.0 2.462804020693608 25.21127578000404 0.0 2.512215665918856 25.45834670340996 0.0 2.297163594870792 25.70172749889954 0.0 1.8839309951876042 25.9098992446734 0.0 1.3336464608456882 26.05202338049832 0.0 0.6910969440428881 25.767961024534298 0.0 -0.2634792006981758 25.60193363111418 0.0 0.759029747019441 25.570928551113138 0.0 1.502115960084092 25.609605788507956 0.0 1.9035214201756119 25.74332142354973 0.0 1.978678992144433 25.92400431528462 0.0 1.819176539740965 26.09058087917732 0.0 1.493073889362809 26.22779848077854 0.0 1.056269717199608 26.321627094955055 0.0 0.545162571662082 26.13818997544041 0.0 -0.7667976332002051 25.936864931713917 0.0 0.1996085365183392 25.840195206406076 0.0 0.9151954370965438 25.836923698863032 0.0 1.296182305375488 25.93815796749447 0.0 1.420318959987096 26.05815444407886 0.0 1.3403486897814243 26.189839325336003 0.0 1.1142567810980561 26.298486546359097 0.0 0.787134722745615 26.3749781080953 0.0 0.40677485418204007 26.281541599208484 0.0 -1.163245527023376 26.030682913719556 0.0 -0.2880288075621092 25.96199646277648 0.0 0.3578117322094352 25.94919341687392 0.0 0.753881645276808 25.97551921845664 0.0 0.905019837986708 26.047637201166985 0.0 0.8651701660537949 26.13714100088203 0.0 0.7097850906771801 26.2079525585997 0.0 0.5099729183239111 26.256355209919906 0.0 0.26566911910393654 26.3362750273016 0.0 -1.527916222715115 26.027953001430202 0.0 -0.702652198394111 25.9582815386032 0.0 -0.070990014712264 25.92653651873381 0.0 0.323123728991201 25.9345526968387 0.0 0.46922913605722 25.982854638211588 0.0 0.47370281879512205 26.03218746910019 0.0 0.3951391747860718 26.0753192939888 0.0 0.27369294897463203 26.108638702819192 0.0 0.1398111447605859 26.309329556608983 0.0 -1.789572659870709 26.024309798210457 0.0 -1.109702207932884 25.864452274916793 0.0 -0.5335240000636349 25.79370602664324 0.0 -0.1542873823541364 25.813219928170533 0.0 0.0746046505383762 25.847345980847038 0.0 0.17134421888229362 25.86620002882158 0.0 0.1597539238528323 25.876760574181862 0.0 0.1081896062909634 25.87288322571435 0.0 0.0488281232396286 26.30184600520413 0.0 -1.9547327652562259 25.90739799954864 0.0 -1.3702781139736442 25.73940624536634 0.0 -0.8991113192897249 25.660018334925 0.0 -0.54852000038424 25.610761902407642 0.0 -0.3349410101706288 25.571692238062077 0.0 -0.18049339819866958 25.57757560802136 0.0 -0.0430042677045432 25.567883447771067 0.0 -0.013238051592658411 25.550510816967837 0.0 -0.006241238638089839 26.29919225917116 0.0 -2.062179594686883 25.785002261182406 0.0 -1.5856764083804802 25.542674287281677 0.0 -1.16819719584416 25.406686106662722 0.0 -0.8266444200969602 25.31823818251844 0.0 -0.574895758722792 25.24807436216345 0.0 -0.40331742536860493 25.174938890080195 0.0 -0.27364635169783896 25.107134854514896 0.0 -0.1544221837513284 25.104491686443296 0.0 -0.050155747688235 26.402216312171802 0.0 -2.062815873269935 25.668755214463097 0.0 -1.730673220165482 25.291335489307002 0.0 -1.35545243829785 25.08435998601302 0.0 -1.0662302010585678 24.933528486299398 0.0 -0.7931036628948399 24.80610216182752 0.0 -0.5659358452182399 24.701917589852723 0.0 -0.3787231428019536 24.618660296969917 0.0 -0.23112789643602238 24.561928514937417 0.0 -0.1098436639702441 26.73690879699243 0.0 -1.9678837412088988 25.64232929978076 0.0 -1.70032701251574 25.066498836570958 0.0 -1.4830132196332082 24.734685633044883 0.0 -1.195158295571298 24.5000101290813 0.0 -0.9670394165988602 24.304014960838803 0.0 -0.70859470386837 24.15203573550975 0.0 -0.4825270016073 24.0362120339451 0.0 -0.27377478422510704 23.969111734704242 0.0 -0.09699890357424479 27.367776627387034 0.0 -1.8303280320062578 25.834825119180785 0.0 -1.594271260174923 24.94243646727588 0.0 -1.424617083965712 24.41335427229336 0.0 -1.2639109043768162 24.05496905619516 0.0 -1.0094383659120572 23.789639945021733 0.0 -0.811063046385507 23.5759572381312 0.0 -0.56109389086008 23.417892228204003 0.0 -0.324083854013904 23.356929523399288 0.0 -0.1318849682875164 28.43734158692674 0.0 -1.638062132042414 26.35677891299316 0.0 -1.440364954484252 25.06070262219092 0.0 -1.299327016235817 24.266009122060836 0.0 -1.148680948879272 23.7050274368052 0.0 -1.0020948563754601 23.318799326370918 0.0 -0.7923057462329038 23.0107101254912 0.0 -0.591870515699008 22.819965480251522 0.0 -0.35383867460941437 22.75211372809088 0.0 -0.17375722305630079 30.09639192125178 0.0 -1.300567238267253 27.47901670511932 0.0 -1.211846440569732 25.643966769831717 0.0 -1.098366342632366 24.40215363948638 0.0 -1.0087468448355261 23.575503990630803 0.0 -0.849304825805904 22.974393124942253 0.0 -0.7055701216050501 22.59542032623561 0.0 -0.5484541592020331 22.3269423569652 0.0 -0.3435610638380166 22.228273272239996 0.0 -0.1977127760580075 32.68185207944496 0.0 -1.0695743360210999 29.243804693584618 0.0 -0.88820407924554 26.782934460456598 0.0 -0.813225211069005 25.100574364957648 0.0 -0.7743843060192689 23.84197250269032 0.0 -0.6805712242288081 22.97435226006432 0.0 -0.519972015356016 22.41901463046696 0.0 -0.3998052296786592 22.052594894364002 0.0 -0.303778578923658 21.937464156712018 0.0 -0.1536061923484722 36.3798384294672 0.0 -1.1995705117243438 32.10921016860528 0.0 -0.6970991703654239 28.9172966620842 0.0 -0.526464440547309 26.448233821585557 0.0 -0.41564482284869997 24.72784262319876 0.0 -0.3937013434460076 23.500529858117158 0.0 -0.33075426831466676 22.6872255752835 0.0 -0.1884980319755925 22.25411080335795 0.0 -0.0907968420487785 21.93438710973957 0.0 -0.0430622355768573 40.536481561921995 0.0 -1.660481090758763 35.85920648127126 0.0 -0.8203888121084779 31.96215082435694 0.0 -0.3862357054644336 28.7428257981378 0.0 -0.073505603854862 26.364896644576458 0.0 0.0484962169708718 24.663848045831536 0.0 0.11686992792312151 23.57645858113 0.0 0.1016622903365615 22.968725715164 0.0 0.11781058110908 22.712894396019077 0.0 0.120114704116682 39.82011086558416 0.0 -1.135966673346696 35.6721339055932 0.0 -0.48108142202616 31.933756486628543 0.0 0.1107299530227482 28.98212607493508 0.0 0.40167992155023197 26.62550389487836 0.0 0.6435564385330971 25.144885333250812 0.0 0.6664774637014401 24.212468477117902 0.0 0.60299730190665 23.905074597215062 0.0 0.4820552559574439 35.52805418275945 0.0 0.08388459055718689 32.312529077011426 0.0 0.516532516586957 29.67904180657899 0.0 0.8924835555145478 27.85303314932125 0.0 1.009114249381472 26.59545554295924 0.0 0.94010104351695 25.845518308071203 0.0 0.6752097478306 32.9922680847646 0.0 1.0340702576173502 31.113343949871357 0.0 1.284568181718627 29.860255485616317 0.0 1.286784739957296 29.359718655382082 0.0 0.8701826252081761 -0.7222824180570601 0.0 4.40777531019438e-09 -0.722716938067923 0.0 0.003773900574347512 -0.723892618097315 0.0 0.0080525362013134 -0.7254995381374881 0.0 0.01317680072942001 -0.726879538171988 0.0 0.019776729294418222 -0.7272228581805711 0.0 0.02786433189660828 -0.725214978130374 0.0 0.038095665752391615 -0.7193935379848381 0.0 0.0502535932563398 -0.9116703427917581 0.0 -2.21052965526324e-07 -0.912306982807674 0.0 0.00514075892851897 -0.9140491828512289 0.0 0.01080656667016416 -0.9164966629124162 0.0 0.01744322083608051 -0.918877822971945 0.0 0.02564494984112373 -0.920157823003945 0.0 0.035587222089680536 -0.9187763429694079 0.0 0.0477262731931568 -0.9127052628176311 0.0 0.062461361561534 -1.137167748429193 0.0 3.2669014016725333e-07 -1.1380117884502938 0.0 0.006050852151271301 -1.140382988509574 0.0 0.012547621513690531 -1.1437504285937599 0.0 0.02009233290230831 -1.147223508680587 0.0 0.02903835232595879 -1.149457188736429 0.0 0.0398567449964186 -1.1487293487182328 0.0 0.0525707973142699 -1.1425091085627272 0.0 0.0676633856915846 -1.384901834622545 0.0 -2.17584245439606e-07 -1.385964634649115 0.0 0.0064719721617993 -1.388977834724445 0.0 0.013415801935395039 -1.393302194832554 0.0 0.02131229413280734 -1.3979095949477391 0.0 0.030445987561149673 -1.4012333150308323 0.0 0.0412546290313657 -1.4012035550300879 0.0 0.0539387013484675 -1.3949062748726562 0.0 0.0683891257097281 -1.657621441440535 0.0 -3.981047579526187e-07 -1.658924521473112 0.0 0.00665685776642144 -1.6626244015656089 0.0 0.013753450343836252 -1.668012481700311 0.0 0.021624692140617293 -1.673887481847186 0.0 0.03067585916689646 -1.678514121962852 0.0 0.0410891330272283 -1.6794064019851591 0.0 0.05310362532759061 -1.673356281833906 0.0 0.0665446056636151 -1.959825168995628 0.0 -6.8627721715693e-07 -1.9614060090351493 0.0 0.0068427041710676 -1.9658829291470719 0.0 0.013994549549863731 -1.972487889312196 0.0 0.02180109374502733 -1.9798712094967792 0.0 0.0305289247632231 -1.9860699296517472 0.0 0.0404067730101693 -1.9883612097090293 0.0 0.051542317288557904 -1.9830494495762352 0.0 0.0638616575965414 -2.2938086173452144 0.0 4.85719292142982e-07 -2.295698777392468 0.0 0.00731903338297583 -2.301073497526836 0.0 0.014862041571551028 -2.3090834177270843 0.0 0.02286505177162628 -2.3182440579561 0.0 0.03151360838784019 -2.326389578159738 0.0 0.0410214690255367 -2.330520498263011 0.0 0.0512641332816033 -2.3265791381644774 0.0 0.06251212556280311 -2.6603413465085324 0.0 1.2384840709621012e-06 -2.6625729465643224 0.0 0.00855914981397874 -2.668958546723962 0.0 0.0172367444309186 -2.6785498269637444 0.0 0.026180056254501392 -2.689722907243071 0.0 0.03542560728564016 -2.700146747503667 0.0 0.045102081127552 -2.706584427664609 0.0 0.0551515253787881 -2.7046383476159566 0.0 0.0652914056322851 -3.0603193965079827 0.0 -9.76592144414803e-07 -3.06292447657311 0.0 0.01108142387703559 -3.0704060367601493 0.0 0.02216719895417996 -3.081712037042799 0.0 0.03330143763253592 -3.09510447737761 0.0 0.044459713111492806 -3.1080689177017207 0.0 0.0556054653901366 -3.11713647792841 0.0 0.0665010296625257 -3.117567917939196 0.0 0.0764950539123763 -3.4950802873770055 0.0 5.6358841408971e-07 -3.498091207452278 0.0 0.015415290385382252 -3.5067261676681514 0.0 0.030760300769007504 -3.519867407996683 0.0 0.0459303491482587 -3.5355996083899885 0.0 0.0608765455219136 -3.5512276487806895 0.0 0.07539376988484421 -3.5630349290758714 0.0 0.0889061302226532 -3.565961169149027 0.0 0.1005377545134438 -3.9664948591623697 0.0 -1.3489256337231402e-06 -3.969889179247227 0.0 0.02200210135005252 -3.9797150594928747 0.0 0.0439664050991601 -3.994699179867477 0.0 0.0657038336425958 -4.012789700319741 0.0 0.08691611017290271 -4.0310441007761 0.0 0.10709091867727291 -4.04540130113503 0.0 0.1259239351480983 -4.050554501263861 0.0 0.14175888754397212 -4.477349711933741 0.0 -2.2606822965170555e-06 -4.481141712028539 0.0 0.03168594319214856 -4.49216651230416 0.0 0.0626833455670836 -4.50893731272343 0.0 0.0934964903374122 -4.52922851323071 0.0 0.12363769109094219 -4.549824513745611 0.0 0.15307491182687272 -4.56619891415497 0.0 0.18036106050902642 -4.57293891432347 0.0 0.2030231530755787 -5.031492925787321 0.0 -3.331959043298974e-06 -5.03569132589228 0.0 0.043926025098150606 -5.0476593261914795 0.0 0.0879592381989809 -5.06597692664942 0.0 0.1315788312894707 -5.0880561272013995 0.0 0.1739206483480161 -5.1105193277629795 0.0 0.213436965335924 -5.1283477282086904 0.0 0.25113719027842957 -5.13531692838292 0.0 0.2856821831420544 -5.63259454081486 0.0 -2.823953470598835e-06 -5.63700054092501 0.0 0.06046288951157221 -5.649739341243481 0.0 0.12020697900517441 -5.66941694173542 0.0 0.1775436084385901 -5.69270534231763 0.0 0.23494942587373552 -5.716125342903131 0.0 0.29023757525593924 -5.7341253433531305 0.0 0.3422633485565835 -5.74066214351655 0.0 0.3886378137159451 -6.285612957140321 0.0 1.74854364371359e-06 -6.29005295725132 0.0 0.07879879796996991 -6.30305455757636 0.0 0.1574867519371687 -6.322831358070781 0.0 0.2349865498746636 -6.346401758660041 0.0 0.3103208637580214 -6.36943895923597 0.0 0.3824105815602643 -6.386180159654501 0.0 0.450980211274505 -6.39129375978234 0.0 0.510153572753839 -6.99221977480549 0.0 -2.544061943601547e-06 -6.9966745749168595 0.0 0.1023508945587723 -7.009368175234201 0.0 0.2036662170916553 -7.02853097571327 0.0 0.3024383875609595 -7.0510081762752 0.0 0.3977681979442047 -7.07213297680332 0.0 0.48992201224805 -7.086882977172071 0.0 0.572426374310659 -7.088003777200091 0.0 0.650320456258011 -7.75787379394684 0.0 -6.18493655462341e-06 -7.7618965940474105 0.0 0.12833409520835232 -7.773297394332431 0.0 0.25498801037470015 -7.790236994755921 0.0 0.3774369094359225 -7.80950099523752 0.0 0.49418697235467396 -7.826422995660571 0.0 0.605514535137863 -7.83663739591593 0.0 0.705459097636477 -7.83201299580032 0.0 0.8018131400453281 -8.58616501465412 0.0 -9.93385784834644e-07 -8.589238214730951 0.0 0.156869163921729 -8.59793021494825 0.0 0.3105506037637649 -8.61055941526398 0.0 0.45787281144682 -8.62375981559399 0.0 0.597755534943888 -8.63456461586411 0.0 0.725458098136452 -8.635790615894761 0.0 0.8452371811309289 -8.62237101555927 0.0 0.956908143922703 -9.48059543701488 0.0 2.3893015797325383e-06 -9.48220463705511 0.0 0.1864369926609247 -9.48644903716122 0.0 0.3685980412149508 -9.49194063729851 0.0 0.542194373554859 -9.49565463739136 0.0 0.7055094976377371 -9.495845437396131 0.0 0.8509282212732051 -9.48481783712044 0.0 0.99001562475039 -9.45804143645103 0.0 1.112780987819524 -10.444549861113739 0.0 -1.4058285551457133e-06 -10.443982261099551 0.0 0.21606741340168523 -10.44183466104586 0.0 0.426410290660257 -10.436538260913451 0.0 0.624856855621421 -10.42783546069588 0.0 0.8109436202735901 -10.41292386032309 0.0 0.981763304544082 -10.38408625960215 0.0 1.1355782683894562 -10.337381858434542 0.0 1.2653971116349272 -11.48030948700773 0.0 3.5694306492357646e-06 -11.476665886916642 0.0 0.2440312221007804 -11.4649562866239 0.0 0.477784491944612 -11.446422686160561 0.0 0.7038413375960331 -11.421732685543311 0.0 0.912813702820342 -11.383701484592532 0.0 1.101355027533875 -11.33047668326191 0.0 1.26760963169024 -11.25929428148235 0.0 1.4114131152853273 -12.588484314712101 0.0 -5.4380645359516105e-06 -12.580046314501152 0.0 0.2654409226360229 -12.55793471394836 0.0 0.5251387731284689 -12.521491513037281 0.0 0.7738489393462231 -12.473945911848642 0.0 1.001633665040841 -12.40721151018028 0.0 1.2056007501400179 -12.32318510807962 0.0 1.382819794570494 -12.21914950547873 0.0 1.535521718388042 -13.768525944213142 0.0 -6.289042557226061e-06 -13.754927543873182 0.0 0.28329580708239505 -13.718916742972908 0.0 0.5628580540714511 -13.660165941504143 0.0 0.8284313407107831 -13.58332713958317 0.0 1.0703324667583112 -13.48143953703598 0.0 1.286543992163599 -13.359231933980789 0.0 1.4720784368019602 -13.21593193039829 0.0 1.631971960799298 -15.01690463037968 0.0 -1.2295175331275759e-06 -14.996958669709079 0.0 0.2934318581690822 -14.944077136884422 0.0 0.5852549217750501 -14.860575005368771 0.0 0.8564198688591691 -14.74590313070002 0.0 1.111411873826566 -14.60207598853763 0.0 1.334952742789509 -14.434511347242239 0.0 1.5269498975464937 -14.245260978204742 0.0 1.6931204615784623 -16.32589972680996 0.0 -1.18186206383574e-06 -16.300090322538573 0.0 0.2956907246228118 -16.22991440085966 0.0 0.5810783161183379 -16.114275813766948 0.0 0.8610411080710799 -15.956634982776 0.0 1.1169382646634 -15.764223114547738 0.0 1.342596797112666 -15.542706375907198 0.0 1.543629141191088 -15.302583955583398 0.0 1.710236695940046 -17.68958490590425 0.0 -3.030986827997835e-06 -17.65899747860506 0.0 0.2789268018384672 -17.56468500832994 0.0 0.5600980451085661 -17.41198312955508 0.0 0.8282577347378521 -17.207718490144 0.0 1.07596107137792 -16.959909844513128 0.0 1.304625517473773 -16.682193681652603 0.0 1.505989165760142 -16.3833477978144 0.0 1.67525146277632 -19.091642439560317 0.0 -1.39112226193172e-07 -19.051654075214838 0.0 0.25738317300841174 -18.93422882206528 0.0 0.508051804566198 -18.743550230685 0.0 0.7528513537755951 -18.48992295614911 0.0 0.9868569259111332 -18.18585218717632 0.0 1.206540537108016 -17.84601549864816 0.0 1.405461435441545 -17.4832785443166 0.0 1.577437881265408 -20.52003274965864 0.0 -2.433014012369875e-06 -20.471773735318248 0.0 0.20341800855055397 -20.32938431250728 0.0 0.407885707191296 -20.10019966483088 0.0 0.614811229501184 -19.7960339775363 0.0 0.823423882062144 -19.432404187543177 0.0 1.029705333664164 -19.026681189062543 0.0 1.22831990900857 -18.594341655993738 0.0 1.4072760888846658 -21.94854039772407 0.0 5.2222474525587295e-06 -21.89225564970015 0.0 0.1252184184599205 -21.72638314215936 0.0 0.2600878900184208 -21.4568641472559 0.0 0.41250323624499 -21.101724163608694 0.0 0.578122155050748 -20.67798276133212 0.0 0.763147031316102 -20.20512628685682 0.0 0.9591424801243021 -19.6997293810944 0.0 1.1494821873873602 -23.32442606951058 0.0 8.468686228022719e-07 -23.26192998226932 0.0 0.026979501211605753 -23.067869230764884 0.0 0.07232766795635201 -22.76595124687144 0.0 0.1347331161309944 -22.3685887946872 0.0 0.247795394613793 -21.8884737604793 0.0 0.40375767826524 -21.34827355225442 0.0 0.591972134976558 -20.76924717495232 0.0 0.794630242296736 -24.56618513566669 0.0 2.6063787459012166e-07 -24.494870598500324 0.0 -0.1113561520526802 -24.275222148441053 0.0 -0.1845133824520725 -23.952084236550398 0.0 -0.233173078620608 -23.522817467252 0.0 -0.2066496677140996 -22.998573879567967 0.0 -0.0767369594606476 -22.39650686648336 0.0 0.1035075559576032 -21.747075981676318 0.0 0.3338693615065138 -25.574942585076432 0.0 1.817943578966879e-06 -25.50729690052995 0.0 -0.2936807135539915 -25.29788885120888 0.0 -0.5412472477126881 -24.947941603349 0.0 -0.72507406481995 -24.491608484907516 0.0 -0.7745002963343359 -23.93567171902165 0.0 -0.671559595870016 -23.302598271289916 0.0 -0.49522213719501595 -22.5943749374493 0.0 -0.261798694943961 -26.357375913427997 0.0 -3.11935795883088e-06 -26.29592726977128 0.0 -0.495926484758278 -26.114447403008242 0.0 -0.87957243233312 -25.75875490720404 0.0 -1.180578961353732 -25.27852191776664 0.0 -1.3718480689134882 -24.69916704392477 0.0 -1.363125540300522 -24.027442994974347 0.0 -1.2343773295675051 -23.28468641193612 0.0 -1.0178633902259682 -26.934159419105757 0.0 -5.03992417880076e-06 -26.89144622847636 0.0 -0.741737271046274 -26.688960582907573 0.0 -1.4039233744186461 -26.35481409689184 0.0 -1.870622693151152 -25.86574600131382 0.0 -2.179352882102564 -25.29069347991652 0.0 -2.2590510245096187 -24.605393808954698 0.0 -2.2135099821721456 -23.82843671053782 0.0 -1.97593808021967 -27.445433370312603 0.0 -3.2274742849137596e-06 -27.3779581465416 0.0 -1.0270098442406401 -27.12962346812685 0.0 -1.9761231224253752 -26.777624585911433 0.0 -2.6850528352299476 -26.289870288938644 0.0 -3.15990706791816 -25.7003370776673 0.0 -3.325988306922834 -24.9604007478993 0.0 -3.280806820426572 -24.130732514132397 0.0 -2.9993151441576 -27.76662367174644 0.0 2.2566900050950557e-06 -27.689531931123064 0.0 -1.037859161819829 -27.384638056588983 0.0 -1.9536485324295483 -26.89425211260087 0.0 -2.777505093672453 -26.273045314872185 0.0 -3.427045201140129 -25.6064901434577 0.0 -3.834235065698191 -24.870127911562662 0.0 -3.9089970842233903 -23.9998370802637 0.0 -3.59553119713222 -27.30277449259668 0.0 -1.5566452693741362e-06 -27.19798085301465 0.0 -0.619784835589325 -26.891448080040877 0.0 -1.193696869510201 -26.389756804543076 0.0 -1.678362063827952 -25.64095450650867 0.0 -2.0623728106101753 -24.697352262882426 0.0 -2.2629778805553538 -23.51174053556196 0.0 -2.25966305094075 -22.159440775136083 0.0 -1.9776787213336398 -19.146388792084508 0.0 -2.8863626159787318e-06 -19.051336484143018 0.0 -0.754970953546449 -18.7668730898982 0.0 -1.470736654244514 -18.295689123077402 0.0 -2.1103981755857095 -17.64360930130974 0.0 -2.633159177650314 -16.823562682858917 0.0 -2.9771107018137943 -15.860274788029999 0.0 -3.05163840282452 -14.796464312016 0.0 -2.7692332282142997 -12.6820049353163 0.0 -6.57141676644702e-06 -12.59687520382905 0.0 -0.921951857530224 -12.34374259914432 0.0 -1.8065713212155698 -11.929676086765802 0.0 -2.6192254641309 -11.36766039058239 0.0 -3.320500031470082 -10.6788360615216 0.0 -3.8471064726367907 -9.89449549145794 0.0 -4.103161713057229 -9.057914232252102 0.0 -3.9851587351417552 -7.52386797455226 0.0 -3.0190838149603503e-06 -7.45921802428425 0.0 -1.0794576617929228 -7.2685159082537405 0.0 -2.11772827295076 -6.962096497781101 0.0 -3.0768740812434303 -6.557472550446599 0.0 -3.9144240068991363 -6.08024820996086 0.0 -4.56411401922359 -5.56333537543153 0.0 -4.92786298766049 -5.046069756226229 0.0 -4.89556541266997 -2.789240350710874 0.0 -9.66354099647118e-06 -2.7524177504000784 0.0 -1.201782089821822 -2.6455258244937854 0.0 -2.3537357256722897 -2.4790995789163524 0.0 -3.41017074418328 -2.270462228941984 0.0 -4.32226286011632 -2.0428558283232805 0.0 -5.01958916988448 -1.82402878052577 0.0 -5.404018745683259 -1.6422198547464357 0.0 -5.36772044051676 2.1020148547746924 0.0 6.73779018471479e-06 2.1078986206434376 0.0 -1.269503551114894 2.1231420439904247 0.0 -2.478473851226241 2.140090029775425 0.0 -3.5716816608659205 2.147484037978884 0.0 -4.49288977302138 2.13110289337533 0.0 -5.167534613331299 2.076502626835455 0.0 -5.49900422183385 1.972761983423264 0.0 -5.38828692954392 7.22121646317127 0.0 2.020497927635838e-06 7.197543911099929 0.0 -1.27379893348845 7.12587441152026 0.0 -2.4777024501149465 7.004681368970931 0.0 -3.5482910680375386 6.832709169548701 0.0 -4.42332691816101 6.61041029043024 0.0 -5.025409675396079 6.341882232000001 0.0 -5.260631600640001 6.0377813943993 0.0 -5.04174110814318 12.305470272555679 0.0 9.96666135800104e-06 12.256683612271802 0.0 -1.2175071877931951 12.112182700138039 0.0 -2.3599992379792196 11.87767580169572 0.0 -3.359768694336774 11.56411040712456 0.0 -4.15175691353364 11.1884477574996 0.0 -4.65796471584024 10.775290543434 0.0 -4.787809227333 10.35760638036564 0.0 -4.46483227603872 17.07017769768149 0.0 1.090135781934738e-05 17.0024440615352 0.0 -1.11280057145378 16.803719873909756 0.0 -2.151426848545568 16.48698637125392 0.0 -3.049024697291268 16.074590968311522 0.0 -3.7415376924039494 15.598786290615362 0.0 -4.15251358254091 15.1022728779665 0.0 -4.1944745470010005 14.63633405990316 0.0 -3.7980882344348457 21.3643791681548 0.0 8.897349367324399e-06 21.28469443442824 0.0 -0.9768235847109441 21.05199764439102 0.0 -1.886540727199749 20.68546000021875 0.0 -2.668318281751375 20.216083924933052 0.0 -3.262337536060257 19.687310534302082 0.0 -3.5948809546848004 19.15389314911296 0.0 -3.580237233804672 18.67928508851076 0.0 -3.1515930745884897 24.850022768303806 0.0 6.93392041430561e-06 24.781062424661076 0.0 -0.828314631879016 24.569887246038917 0.0 -1.600783834600787 24.23855521930908 0.0 -2.2660949653178677 23.80552260740158 0.0 -2.7730523725461462 23.31575693130455 0.0 -3.0497061158364085 22.811793152190276 0.0 -3.0113491144822695 22.37634290969132 0.0 -2.5895377109737305 26.10320261941065 0.0 3.0511400767015203e-06 26.05201119005592 0.0 -0.691091417709 25.90983707340798 0.0 -1.333644225930918 25.70168889582624 0.0 -1.883931198361674 25.458331262176078 0.0 -2.297167861527522 25.21128065618532 0.0 -2.512216234806672 24.967365128894038 0.0 -2.4628051991040834 24.770493984076648 0.0 -2.05755817338585 26.355015866293236 0.0 2.011295599287296e-06 26.32159910180548 0.0 -0.5451596506377779 26.22774614574041 0.0 -1.056268094407728 26.090525298555427 0.0 -1.493073402525245 25.923996201324016 0.0 -1.819179257917766 25.74329545887581 0.0 -1.978681304623204 25.609622827829 0.0 -1.9035223938511001 25.570916380166842 0.0 -1.5021170960390802 26.402193172666482 0.0 3.827718633878928e-06 26.37495015939 0.0 -0.40677157324707003 26.298520570865698 0.0 -0.78713516830463 26.189891577260724 0.0 -1.1142566595819519 26.058101787082265 0.0 -1.340352173244276 25.938194827383903 0.0 -1.4203206207073886 25.836922078648108 0.0 -1.296187490063232 25.840183054793282 0.0 -0.915198393988992 26.27631315859648 0.0 6.724454276731881e-07 26.256324068307094 0.0 -0.2656697217143662 26.207959029582263 0.0 -0.509971745458322 26.137174973540475 0.0 -0.709786263542769 26.047643267713138 0.0 -0.865170853595692 25.975463406227924 0.0 -0.905018705564676 25.949184114839937 0.0 -0.753881645276808 25.961993227285923 0.0 -0.35781069280809286 26.12110061017799 0.0 -1.131450096703681e-06 26.108620125129008 0.0 -0.13980919410311698 26.075343929619596 0.0 -0.27368967768595204 26.032214931772632 0.0 -0.3951409315893823 25.982872812041638 0.0 -0.4737018495241859 25.93457127452474 0.0 -0.469226672494506 25.926487247483195 0.0 -0.323125223283228 25.958296885382 0.0 0.070985875120614 25.876511307422998 0.0 -1.9228155437471404e-06 25.872858621713878 0.0 -0.0488257435084356 25.87671136618092 0.0 -0.1081867586804172 25.866153644223626 0.0 -0.15975403275580138 25.847287495932243 0.0 -0.17134333959185039 25.813221541547367 0.0 -0.07460218207181099 25.7937213537198 0.0 0.154288221309906 25.864479702314913 0.0 0.53352500842386 25.5454983119754 0.0 3.96177875291259e-09 25.550524515151682 0.0 0.00624177367303512 25.56786531782322 0.0 0.01324102047234078 25.577615493909597 0.0 0.0430015441832856 25.571726080633923 0.0 0.18049182693640559 25.610805011385118 0.0 0.33494194889883 25.660058623695 0.0 0.54851713988157 25.739418734884108 0.0 0.899105356552209 25.0926954379458 0.0 4.4573878151418007e-07 25.1044900764607 0.0 0.050158259261091 25.1071227796427 0.0 0.15442008272356558 25.174905080445598 0.0 0.2736509602730315 25.24807919211125 0.0 0.403320081839895 25.318271992145476 0.0 0.574895315977676 25.4066724218096 0.0 0.8266513430226561 25.542678714734823 0.0 1.16819317088676 24.549259269539448 0.0 5.3204519168947e-07 24.561928514937417 0.0 0.10984395353034729 24.618714187310395 0.0 0.23112538289402237 24.701936089519084 0.0 0.3787230462819552 24.80612066149664 0.0 0.565933552867936 24.933502345470398 0.0 0.79310503026128 25.08434751884656 0.0 1.066242668225028 25.2913507716435 0.0 1.3554570229988 23.9956624424493 0.0 6.6334079975438705e-06 23.9691253992036 0.0 0.0969982967097144 24.0362441857131 0.0 0.273772674265332 24.15202046341425 0.0 0.4825301765955749 24.3040137551475 0.0 0.7085914886915701 24.500053132071 0.0 0.9670339507983 24.73465026608952 0.0 1.1951617518873898 25.06650486502656 0.0 1.483018002207984 23.35656695479557 0.0 -2.4803249385060326e-06 23.35691867802012 0.0 0.1318829679175806 23.417898253416 0.0 0.324080335290096 23.5759126515624 0.0 0.5610982290127199 23.78963391980928 0.0 0.81106469327691 24.0549626293038 0.0 1.00943607633201 24.41337596305818 0.0 1.2639117479065587 24.942444099212217 0.0 1.4246263627935778 22.7322531694139 0.0 -2.28795001381391e-06 22.752108909958398 0.0 0.1737507868343296 22.8199622681632 0.0 0.3538391042262272 23.01070851944704 0.0 0.5918702747923841 23.31882703064096 0.0 0.7923031765614799 23.705037876093797 0.0 1.0020868261534601 24.26598904650284 0.0 1.148679704194676 25.060679334534942 0.0 1.299330268477428 22.18821646605557 0.0 1.16997035006495e-06 22.228261230817502 0.0 0.19771242685675502 22.326919076879957 0.0 0.34355682927078757 22.595438388363963 0.0 0.5484510284331191 22.97437947799675 0.0 0.7055771056301 23.57551161686448 0.0 0.8493045448394 24.40218896099502 0.0 1.00873632865909 25.64396074912002 0.0 1.098363412552672 21.805834592094598 0.0 -5.77332705635376e-07 21.937453723364943 0.0 0.1535993986343928 22.052594894364002 0.0 0.3037782699360945 22.41901944585864 0.0 0.3998039134716 22.9743386164566 0.0 0.519976790618718 23.841932775708962 0.0 0.6805828212971041 25.10057275982721 0.0 0.7743906864127679 26.782952919453905 0.0 0.813218228752635 21.97474153026102 0.0 -3.003553108659216e-08 21.934385906108638 0.0 0.0430626167266518 22.25407710169191 0.0 0.09079670162517 22.687219557129747 0.0 0.18849445719226499 23.50054028958444 0.0 0.33075649101961796 24.72785185103658 0.0 0.3937016323174524 26.448218575594915 0.0 0.4156461869636521 28.91728141609698 0.0 0.52647081978933 22.5158949491082 0.0 -7.87308050944755e-07 22.71289760528404 0.0 -0.1201180377406592 22.96871648853 0.0 -0.11781366601410001 23.576490832272558 0.0 -0.10165532982372079 24.663843633092544 0.0 -0.1168744249053104 26.3649058712146 0.0 -0.0484941550178266 28.74280132749065 0.0 0.0735123794160155 31.962135179187918 0.0 0.38623635132910333 23.7011943525168 0.0 -4.3496764640752e-06 23.905046919848118 0.0 -0.482060751318706 24.212476098423547 0.0 -0.6029940929358499 25.144886937735972 0.0 -0.6664789879623421 26.625513120665275 0.0 -0.6435512239578871 28.98210160653456 0.0 -0.40167226013302004 31.93378416399548 0.0 -0.11073493896001001 35.672130696623604 0.0 0.48108106101708 25.62017500074718 0.0 -5.62577133702094e-06 25.845548791336803 0.0 -0.6752155637167999 26.59545875172452 0.0 -0.9401052550213801 27.853021116452343 0.0 -1.0091190224194688 29.679017339752882 0.0 -0.89247400944141 32.31253549454151 0.0 -0.516534441845981 35.52805699042886 0.0 -0.0838837803440143 29.344345898064756 0.0 -2.5596714848672255e-06 29.359749538400404 0.0 -0.8701829861785201 29.860270726590958 0.0 -1.286794125189048 31.11335638329339 0.0 -1.2845699865702118 32.9922496351743 0.0 -1.0340674901788052 -0.7077312576932812 0.0 0.06465981361649531 -0.688194097204852 0.0 0.08158793803969841 -0.659628496490712 0.0 0.0996917984922949 -0.620764575519114 0.0 0.1193683909842097 -0.570817574270439 0.0 0.1393414514835362 -0.508995812724895 0.0 0.1574738079368451 -0.4344174508604361 0.0 0.1699423362485583 -0.899796502494912 0.0 0.0789938459748461 -0.8770128619253211 0.0 0.09833661445841531 -0.8425913010647821 0.0 0.1195810109895252 -0.7956819798920489 0.0 0.14117360352934002 -0.7349004983725119 0.0 0.1618987120474677 -0.6570532164263301 0.0 0.17935772448394302 -0.555407533885188 0.0 0.190517524762938 -0.42038337050958396 0.0 0.2203607615090189 -1.1278841481971031 0.0 0.0846700501167512 -1.101491947537298 0.0 0.10360340259008499 -1.0610670265266748 0.0 0.1236804510920112 -1.005460945136523 0.0 0.1442941716073542 -0.934220903355522 0.0 0.1629940080748501 -0.8419380210484501 0.0 0.1811998405299959 -0.7210216580255411 0.0 0.1975600289390006 -0.5553091338827281 0.0 0.22624407365610172 -1.3786878744671962 0.0 0.0848921541223038 -1.348795153719878 0.0 0.10234464655861611 -1.302296112557402 0.0 0.1209591790239794 -1.238741990968549 0.0 0.1397606874940171 -1.157862308946557 0.0 0.15701308792532712 -1.055194786379869 0.0 0.17372599234314973 -0.9180765429519129 0.0 0.190353684758842 -0.7192650179816251 0.0 0.22451382161284544 -1.656087921402197 0.0 0.0817420740435518 -1.623065800576644 0.0 0.0977984504449612 -1.5711410792785259 0.0 0.11438853885971341 -1.500177317504432 0.0 0.1310817032770425 -1.411871755296793 0.0 0.1452873756321843 -1.299408472485211 0.0 0.1608842880221071 -1.146145668653641 0.0 0.17821598445539952 -0.9114639427865979 0.0 0.22279434956985864 -1.965408009135199 0.0 0.0773031139325778 -1.930060808251519 0.0 0.0915407782885194 -1.873828566845713 0.0 0.1053763786344094 -1.7967228449180699 0.0 0.1191234869780871 -1.701890802547269 0.0 0.1300668752516718 -1.5811528795288212 0.0 0.1441388156034703 -1.4120706753017662 0.0 0.16387806409695152 -1.137736348443408 0.0 0.22477436561935904 -2.309318617732964 0.0 0.073994041849851 -2.272625776815643 0.0 0.08579071814476791 -2.213292175332303 0.0 0.0960255944006398 -2.131787733294692 0.0 0.1057500626437515 -2.031108730777717 0.0 0.1143844628596115 -1.905692727642317 0.0 0.1262464551561613 -1.7229960030748992 0.0 0.15167160379179 -1.4058643551466081 0.0 0.23720207793005182 -2.6884562272114048 0.0 0.0749897138747428 -2.651452306286306 0.0 0.08373523409338081 -2.590231184755778 0.0 0.0899620662490516 -2.5055390226384744 0.0 0.0962855144071378 -2.404559020113974 0.0 0.099365522484138 -2.2751286168782143 0.0 0.11392898684822461 -2.0842032121050793 0.0 0.14875946371898652 -1.7248062431201552 0.0 0.2683475547086887 -3.103046677576165 0.0 0.0848146221203655 -3.066553556663837 0.0 0.09072931026823271 -3.004732955118322 0.0 0.0933187263329681 -2.9199837529995922 0.0 0.0950241823756045 -2.818748550468712 0.0 0.09592466639811661 -2.6883980272099492 0.0 0.11570568289264202 -2.500958502523961 0.0 0.1570110359252758 -2.1160626129015645 0.0 0.304967887624197 -3.5533330088333237 0.0 0.10901827072545671 -3.5179204079480084 0.0 0.11376018684400462 -3.456893606422338 0.0 0.11354387083859671 -3.3732579243314462 0.0 0.11203961480099031 -3.275583361889582 0.0 0.10836668270916701 -3.1557734388943346 0.0 0.12512569912814242 -2.9846327546158173 0.0 0.165235524130888 -2.6253784656344603 0.0 0.29509468737736705 -4.039584500989609 0.0 0.1531021518275537 -4.005554900138869 0.0 0.15824239595605982 -3.9461041386526006 0.0 0.1569722559243063 -3.86791009669775 0.0 0.1494192157354803 -3.7799748544993697 0.0 0.1387684874692121 -3.6847534921188356 0.0 0.1406904275172606 -3.5556630088915733 0.0 0.1692699482317486 -3.2898590822464757 0.0 0.23358307383957672 -4.56307691407692 0.0 0.219427685485692 -4.5299705132492605 0.0 0.22796838969920963 -4.472808511820211 0.0 0.2282998617074964 -4.404260110106501 0.0 0.21365614534140354 -4.3326681083167 0.0 0.20137586903439658 -4.27365810684145 0.0 0.1982074769551868 -4.21671090541777 0.0 0.2350593618764839 -4.01670850041771 0.0 0.34726105668152624 -5.12533932813348 0.0 0.3107767437694184 -5.09235692730892 0.0 0.32489512812237803 -5.03733972593349 0.0 0.33471308436782693 -4.982606524565161 0.0 0.3266416401660408 -4.94330892358272 0.0 0.3365476684136915 -4.94161852354046 0.0 0.3955350978883772 -4.959731323993281 0.0 0.600459695011492 -4.836433720910841 0.0 0.9815235445380881 -5.72920454323011 0.0 0.425393810634845 -5.69420174235504 0.0 0.456933891423347 -5.6440185411004595 0.0 0.48048413201210305 -5.605170540129261 0.0 0.5041017726025441 -5.61480894037022 0.0 0.5611892540297311 -5.695309342382731 0.0 0.7229944580748611 -5.830615345765381 0.0 1.0607547865188691 -5.8838505470962605 0.0 1.5094231177355772 -6.37632735940818 0.0 0.5666132141653301 -6.33907655847691 0.0 0.615874055396851 -6.29287175732179 0.0 0.66221761655544 -6.274258556856459 0.0 0.730577818264445 -6.33600455840011 0.0 0.835460980886524 -6.52441656311041 0.0 1.050459426261485 -6.82859457071486 0.0 1.405647395141184 -7.1126161778154 0.0 1.8582878464571952 -7.06871977671799 0.0 0.724855778121394 -7.027804175695101 0.0 0.7940376598509411 -6.98154177453854 0.0 0.8678298216957451 -6.97794897444872 0.0 0.96044722401118 -7.09097097727427 0.0 1.101045747526143 -7.385981784649541 0.0 1.3376216334405402 -7.86408179660204 0.0 1.6893556822338909 -8.402400610060011 0.0 2.138514773462868 -7.8062457951561415 0.0 0.8942077023551921 -7.757496193937401 0.0 0.984361584609039 -7.709470592736761 0.0 1.0712532267813302 -7.717989392949732 0.0 1.1799309094982722 -7.87169899679247 0.0 1.3399460334986502 -8.260488206512202 0.0 1.585639439640985 -8.90120342253008 0.0 1.9369898484247454 -9.67678784191969 0.0 2.401555700038891 -8.58711501467787 0.0 1.062470386561759 -8.52778861319471 0.0 1.1684149092103722 -8.47148901178722 0.0 1.269917991747949 -8.489431812235791 0.0 1.380515994512899 -8.679281016982019 0.0 1.547833278695831 -9.15180982879524 0.0 1.8036480450911998 -9.93774744844368 0.0 2.166836014170899 -10.91107907277697 0.0 2.665713746642842 -9.40760743519018 0.0 1.2292587507314678 -9.33512223337805 0.0 1.3364100734102513 -9.27016463175411 0.0 1.443653916091347 -9.29217383230434 0.0 1.559911478997786 -9.517220637930512 0.0 1.7305718032642943 -10.074097051852421 0.0 1.9998327699958178 -10.99639987490999 0.0 2.395852539896312 -12.14590190364754 0.0 2.9340468333511693 -10.26759665668991 0.0 1.3880421147010522 -10.1772922544323 0.0 1.4955489573887228 -10.09853705246342 0.0 1.5971731599293282 -10.125099453127481 0.0 1.7182736029568395 -10.388097059702421 0.0 1.8946224873655608 -11.035553875888843 0.0 2.177267334431682 -12.10172550254313 0.0 2.614588425364709 -13.432411535810282 0.0 3.2048066001201634 -11.163748279093701 0.0 1.5331605183290122 -11.05029547625738 0.0 1.63920044098001 -10.955233473880831 0.0 1.7379536034488394 -10.983545874588641 0.0 1.853459606336489 -11.28917028222925 0.0 2.0395321309883023 -12.03393950084848 0.0 2.340956178523903 -13.25793353144833 0.0 2.8207659505191467 -14.791143969778592 0.0 3.4620770465519244 -12.09406750235168 0.0 1.663682401592059 -11.95100269877506 0.0 1.7630831240770772 -11.835567895889191 0.0 1.8589933664748333 -11.865150696628762 0.0 1.9722772893069311 -12.216600305415 0.0 2.164222974105573 -13.06638232665955 0.0 2.4852278221306943 -14.46236316155907 0.0 3.0111290752782254 -16.21443840536095 0.0 3.7169846529246144 -13.053848726346212 0.0 1.7634790840869756 -12.87571152189278 0.0 1.8611998065299944 -12.735705918392641 0.0 1.9545548088638693 -12.765683919142091 0.0 2.068107451702685 -13.165567529139182 0.0 2.263738096593451 -14.12886395322159 0.0 2.6060825851520626 -15.712416392810402 0.0 3.1787052794676303 -17.70311164257778 0.0 3.9587563389689064 -14.038894617051438 0.0 1.8261683501349697 -13.820692877202399 0.0 1.9249935449821438 -13.651594396691499 0.0 2.01607890014085 -13.680232050387001 0.0 2.1299905537248 -14.13125985669922 0.0 2.3317407924859643 -15.21834927572322 0.0 2.696552378266884 -17.00685868780025 0.0 3.3168221790299253 -19.25775113091026 0.0 4.18074338466046 -15.045728798775059 0.0 1.8446681333865362 -14.781729542751362 0.0 1.9435684208580362 -14.579459083827599 0.0 2.0327541086297454 -14.605332017072518 0.0 2.1457178103898142 -15.111129155268001 0.0 2.3576402281422 -16.33420659588855 0.0 2.746062160004775 -18.34826951699523 0.0 3.4145051685257877 -20.88548195967816 0.0 4.3762181374073394 -16.06997362693092 0.0 1.8109019389336882 -15.754715399041231 0.0 1.906707229210922 -15.51631324830552 0.0 1.9938330838452885 -15.541412494712 0.0 2.11340712058112 -16.10592809256392 0.0 2.324210173122016 -17.47929145989583 0.0 2.739840203170974 -19.746212875431 0.0 3.46069776605896 -22.609824914643198 0.0 4.53674444028 -17.10552515394375 0.0 1.70996005547358 -16.73621611581618 0.0 1.8097950294095437 -16.45961049824115 0.0 1.8940509571447677 -16.485371720384702 0.0 2.0030191581726204 -17.115488754655683 0.0 2.214522156491597 -18.65876718475176 0.0 2.66125848474024 -21.216106203178338 0.0 3.4437678797402245 -24.470220242914962 0.0 4.65548473885892 -18.14969090080552 0.0 1.5481844749470541 -17.719103975273544 0.0 1.6514770816484363 -17.40026661320892 0.0 1.7324563804353723 -17.42660988933403 0.0 1.817218500369173 -18.134353678569497 0.0 2.0201303028948048 -19.86843882560104 0.0 2.5024559003617597 -22.76853421611538 0.0 3.3582665216052816 -26.5056220035679 0.0 4.7283630143088295 -19.18149447442122 0.0 1.3172150464051442 -18.67903303158945 0.0 1.440002432432889 -18.311037226237172 0.0 1.5061576890682948 -18.33487391488368 0.0 1.575409433039886 -19.13899501201662 0.0 1.7494217041945408 -21.08833918515245 0.0 2.26060837457428 -24.385030209605848 0.0 3.2026584954244655 -28.71331274326535 0.0 4.75533409238632 -20.170576168103253 0.0 0.9847655456405761 -19.582774748928443 0.0 1.133222926935582 -19.14134337708425 0.0 1.2334686964406347 -19.143198604184 0.0 1.3199968091441998 -20.060355086213054 0.0 1.451033444607432 -22.272790309173452 0.0 1.9271571345388048 -25.993891366653184 0.0 2.98980493606842 -31.0020930130943 0.0 4.7725948837865495 -21.0611263370092 0.0 0.56139468582402 -20.39453231199567 0.0 0.7251660857004211 -19.883721308082958 0.0 0.8574162014271118 -19.85570036794206 0.0 0.9541293568483858 -20.819075259176042 0.0 1.175655528967815 -23.34323942833866 0.0 1.572696478029684 -27.498346466549126 0.0 2.7380923351427153 -33.231051254762455 0.0 4.841677205727839 -21.83426235137787 0.0 -0.01402043086079268 -21.09179120581974 0.0 0.18880167683551022 -20.52432916253538 0.0 0.33140849046426035 -20.481379374677758 0.0 0.5101794599711039 -21.49407745889404 0.0 0.7906513345782479 -24.11345568366987 0.0 1.485949379650381 -28.756295305373435 0.0 2.5897978758186238 -35.15935159330067 0.0 4.91876130732799 -22.480143799969923 0.0 -0.7426523969362561 -21.67821561529512 0.0 -0.4825761449337809 -21.05798179775634 0.0 -0.26993421030103437 -20.991669867845 0.0 -0.00562400091737006 -22.100766581219602 0.0 0.472152270347632 -24.869274772040935 0.0 1.4381254897618498 -29.848748734182138 0.0 2.64440127831607 -36.605079506428204 0.0 5.0903018651480405 -22.97439618012624 0.0 -1.621701692769072 -22.112329149261 0.0 -1.25473347353862 -21.430883087038083 0.0 -0.8588806966314719 -21.318004335728368 0.0 -0.3112542197166645 -22.36661668561858 0.0 0.596432127449306 -25.18035586483264 0.0 1.724528715609992 -30.369197497112 0.0 2.98908053466768 -37.45103973716632 0.0 5.212411495797041 -23.21778650257488 0.0 -2.528459981514768 -22.25579794290093 0.0 -1.9765387011041158 -21.502038975590402 0.0 -1.323313261907532 -21.2805144823392 0.0 -0.352730009489328 -22.144602625091398 0.0 0.730700788481136 -24.88196579125152 0.0 2.1289007731049683 -29.75849787488128 0.0 2.9289921528477354 -36.256524485916344 0.0 4.69355233271869 -22.950543553633132 0.0 -2.940501060515962 -21.8203088230099 0.0 -2.063958253735464 -20.87702512046976 0.0 -0.9897600355823 -20.363867475769037 0.0 0.10183262974292359 -20.92299383957886 0.0 0.791249010332844 -23.5980860121811 0.0 2.194051626341564 -27.3658367196678 0.0 3.4297617281306203 -29.508000561122795 0.0 5.1648862149118795 -20.83152577385131 0.0 -1.273274587236022 -19.5956701047075 0.0 -0.27350683513874996 -18.42639369034672 0.0 0.3855657483162641 -17.882948848143602 0.0 0.3608527684777782 -18.12306534586686 0.0 0.73589097759588 -18.268332141078357 0.0 2.3193156101946597 -18.27498641297775 0.0 3.0416494271144003 -18.63218534893312 0.0 5.7639233025254395 -13.699801878315599 0.0 -2.0943835829535518 -12.663750313195221 0.0 -1.093180665272394 -11.77110940181505 0.0 -0.0577144689821718 -11.0784909943008 0.0 0.276146932903632 -10.65965817632824 0.0 0.757440958303224 -10.65161932391566 0.0 2.43047327319031 -10.74551914535312 0.0 2.096949680133015 -11.022311301863459 0.0 4.77137197138002 -8.228209356091401 0.0 -3.43208185693129 -7.47653757744802 0.0 -2.5103083179389585 -6.87413543025426 0.0 -1.365772472577849 -6.45099497049972 0.0 -0.2599158131864904 -6.279914467887149 0.0 0.7928267684517829 -6.362156651435201 0.0 2.6780062812148797 -6.61542083775945 0.0 1.430273015932305 -6.943393929265681 0.0 3.75874219014997 -4.57389837354879 0.0 -4.39432325723764 -4.1926151718133005 0.0 -3.4882349990734847 -3.9374768657914174 0.0 -2.321983590361221 -3.8327497679625897 0.0 -0.9194202862053301 -3.89219733636992 0.0 0.76733159734176 -4.11009990161989 0.0 3.361321173929781 -4.45199320084211 0.0 0.863976086338772 -4.81329413890324 0.0 3.284656733620822 -1.5234822023972459 0.0 -4.8390204930061795 -1.4863498849789802 0.0 -3.8811157949831756 -1.534753898122224 0.0 -2.624276637377694 -1.6645937600679839 0.0 -1.05986849755102 -1.8710395628767538 0.0 0.904920015601498 -2.140792417699143 0.0 3.6176123488635 -2.4470735279217686 0.0 0.3986145095133721 -2.736477253262342 0.0 3.2399656980718357 1.8171995180291671 0.0 -4.77591217189365 1.618028140485913 0.0 -3.727671183801773 1.39499104847544 0.0 -2.3565679302313196 1.1697593067009537 0.0 -0.65437396989264 0.9579739033324022 0.0 1.3174700121415799 0.771933611060769 0.0 3.5335928124359732 0.6214311767994751 0.0 0.14480510185653753 0.50076462474 0.0 3.3222680543160004 5.71932639269453 0.0 -4.32774138036163 5.417522065425049 0.0 -3.1943656345836553 5.16648597172916 0.0 -1.7523459405080202 4.99220789071296 0.0 -0.025671228447955836 4.88244805918785 0.0 1.5702624112311987 4.90599411195348 0.0 3.359491952238156 4.97881992200115 0.0 0.1150176040981341 5.0746533788691 0.0 3.5705226017704494 9.97732062895866 0.0 -3.6664917805579065 9.68204965894295 0.0 -2.4804719655642002 9.5112342153488 0.0 -1.022513482367168 9.470299458634749 0.0 0.59148430601521 9.4942248828174 0.0 1.6941366554180397 9.67991576200155 0.0 3.042166285299249 10.10571200550396 0.0 0.3058799701411944 10.42920664512615 0.0 3.869505710820225 14.25933760877412 0.0 -2.9539503587599802 14.02885923647544 0.0 -1.756625004082683 13.98387131741075 0.0 -0.32248152241531103 14.092353855986218 0.0 1.115524062879699 14.275553889512622 0.0 1.9502997941827285 14.57571225837172 0.0 2.979917204040316 15.17312152845418 0.0 0.639230711026933 16.00189630070464 0.0 4.57747278741776 18.33111058069083 0.0 -2.305007542754592 18.17229224458336 0.0 -1.133250160377036 18.239733270486642 0.0 0.25772606679180443 18.405069703418917 0.0 1.4609817815901158 18.603509017485 0.0 2.1545433939495005 19.11102726545725 0.0 3.2691465052115003 19.65297719117358 0.0 1.1126791501774198 21.2282162369604 0.0 5.2310211179885995 22.06398290813886 0.0 -1.777101550152292 21.9549811453284 0.0 -0.65834980710252 22.07917371185628 0.0 0.6669043321952399 22.196513805946918 0.0 1.6921675033400518 22.2602240604876 0.0 2.3152855633988523 22.731596347338122 0.0 3.553067921557748 23.49582998161096 0.0 1.8204488440495916 25.86795611358168 0.0 5.67662691603542 24.66826942204014 0.0 -1.295494001283296 24.727844405005182 0.0 -0.2418146465482397 25.016194144959123 0.0 1.024037405626696 25.378765749500577 0.0 1.993011987386649 25.2635096418958 0.0 2.4418110428544098 25.57916632245375 0.0 3.808910634620135 26.77353239682465 0.0 2.966124045150979 29.88762237654516 0.0 6.33170364428942 25.60190563793769 0.0 -0.7590315320915649 25.767965892916777 0.0 0.2634794928011246 26.22845479288865 0.0 1.477288247220146 27.106859634462403 0.0 2.56454912210735 27.80596971260329 0.0 2.885918590620117 28.14776701171208 0.0 4.20361830466352 29.721894018511303 0.0 4.2099715529578 33.393782802600896 0.0 6.83646611585715 25.93683414762816 0.0 -0.19960873094414397 26.138155950911973 0.0 0.7667969041031671 26.62385811966252 0.0 1.8799149822671157 27.707834903656714 0.0 3.037150014746562 29.512605859860898 0.0 3.780996861695759 30.683964384460797 0.0 4.6494906779865595 32.47635919424715 0.0 5.063623154123701 36.59999374548828 0.0 7.01247097067326 26.03064247008156 0.0 0.2880309793854698 26.2815602032792 0.0 1.1632456079106401 26.843415614530283 0.0 2.18541424293171 27.98951214699376 0.0 3.216699368647796 30.243378140078605 0.0 4.1835263699560805 33.07541254193986 0.0 5.1901613356162 35.163426844375046 0.0 5.4881271936985 39.95983734186756 0.0 7.024404425883361 26.02796834821014 0.0 0.702658337106087 26.336299662926912 0.0 1.5279105686371752 26.92877070098672 0.0 2.436677834644281 28.205085646504596 0.0 3.375256777988686 30.60075154729644 0.0 4.19955005160866 34.50243868623736 0.0 5.393839294136059 38.37779961961 0.0 5.8836844906444 43.6012080266298 0.0 6.8273319380145 26.02435295603772 0.0 1.1097044263258737 26.309246467689366 0.0 1.7895851635430793 27.001265887187635 0.0 2.5669211443940516 28.453910138711755 0.0 3.3891952062070314 31.03799445328077 0.0 4.14415159251138 35.55444028824844 0.0 5.39805493371092 41.783997617199994 0.0 6.077067291648399 47.394816924782894 0.0 6.0611234671063 25.9074439287396 0.0 1.37027102315118 26.301815385745765 0.0 1.9547439252430232 27.1558601521038 0.0 2.673110185145205 28.7791275480255 0.0 3.366183711024144 31.71003187892175 0.0 4.03574132472525 36.81299826161046 0.0 5.25104204057252 43.895786510169 0.0 6.54019947581165 52.144309853623 0.0 7.873817309941699 25.785014738548483 0.0 1.5856720614271362 26.299161669506322 0.0 2.062186276113677 27.404056248321503 0.0 2.63589533378325 29.38183937870328 0.0 3.24489408514656 32.78363895969084 0.0 3.853546858353114 38.3784543257808 0.0 5.03064907183008 46.2565820563722 0.0 6.569516373255901 55.167243764615996 0.0 8.449360732371899 25.66869690028 0.0 1.7306824297847438 26.4021945951781 0.0 2.062816436303105 27.8912415133044 0.0 2.5078498524420882 30.311242003791282 0.0 2.9745855121676494 34.26666245816706 0.0 3.547564650540666 40.419743094971196 0.0 4.81208803453627 48.933356227065204 0.0 6.5614912762338 25.6423369358268 0.0 1.7003245207533477 26.7369180406209 0.0 1.967878757687463 28.700066459620917 0.0 2.320024015458786 31.650785992413002 0.0 2.7040738605895 36.3283564285936 0.0 3.3598761531059202 43.076631174432 0.0 4.8086154247652795 52.010476991917606 0.0 6.605536019354841 25.83484038304776 0.0 1.5942682877376688 27.367767388727945 0.0 1.830326666291436 29.8795002911019 0.0 2.1294408834326877 33.50469482296284 0.0 2.390435266945875 38.92074010537554 0.0 3.267909963424026 46.4059637824986 0.0 4.830305546565 26.3567423754776 0.0 1.4403727036496399 28.43734479901458 0.0 1.6380569927018702 31.475350441033804 0.0 1.8139771916233918 35.855863964542 0.0 2.1024699678252747 42.07114444432639 0.0 3.2667086836363195 50.16053349424 0.0 4.91345812571744 27.47902874653552 0.0 1.211846360293624 30.096379879831076 0.0 1.300574222291259 33.83734845462356 0.0 1.505456265441678 39.01556230714931 0.0 2.1483929928898453 46.094393840032 0.0 3.552045898673088 29.243829171822 0.0 0.888197779109034 32.68186130894223 0.0 1.069581799875414 37.369805058765955 0.0 1.6085685896573756 43.160962350727196 0.0 2.5541947114109695 32.10921939644172 0.0 0.69709604092524 36.379825991948515 0.0 1.1995758077000398 41.6040411245133 0.0 2.105486578250523 46.974995991209994 0.0 2.953096690874925 35.859203673164835 0.0 0.8203953108690499 40.536473538756596 0.0 1.6604877901018722 39.82012289922376 0.0 1.135964788076492 
TENSORS Ellispoids float
0.01 0.0 0.0 0.0 0.01 0.0 0.0 0.0 0.01 0.01 0.0 0.0 0.0 0.01 0.0 0.0 0.0 0.01 0.01 0.0 0.0 0.0 0.01 0.0 0.0 0.0 0.01 0.01 0.0 0.0 0.0 0.01 0.0 0.0 0.0 0.01 0.01 0.0 0.0 0.0 0.01 0.0 0.0 0.0 0.01 0.01 0.0 0.0 0.0 0.01 0.0 0.0 0.0 0.01 0.01 0.0 0.0 0.0 0.01 0.0 0.0 0.0 0.01 0.01 0.0 0.0 0.0 0.01 0.0 0.0 0.0 0.01 0.01 0.0 0.0 0.0 0.01 0.0 0.0 0.0 0.01 0.01 0.0 0.0 0.0 0.01 0.0 0.0 0.0 0.01 0.01 0.0 0.0 0.0 0.01 0.0 0.0 0.0 0.01 0.01 0.0 0.0 0.0 0.01 0.0 0.0 0.0 0.01 0.01 0.0 0.0 0.0 0.01 0.0 0.0 0.0 0.01 0.01 0.0 0.0 0.0 0.01 0.0 0.0 0.0 0.01 0.01 0.0 0.0 0.0 0.01 0.0 0.0 0.0 0.01 0.01 0.0 0.0 0.0 0.01 0.0 0.0 0.0 0.01 0.01 0.0 0.0 0.0 0.01 0.0 0.0 0.0 0.01 0.01 0.0 0.0 0.0 0.01 0.0 0.0 0.0 0.01 0.01 0.0 0.0 0.0 0.01 0.0 0.0 0.0 0.01 0.01 0.0 0.0 0.0 0.01 0.0 0.0 0.0 0.01 0.01 0.0 0.0 0.0 0.01 0.0 0.0 0.0 0.01 0.01 0.0 0.0 0.0 0.01 0.0 0.0 0.0 0.01 0.01 0.0 0.0 0.0 0.01 0.0 0.0 0.0 0.01 0.01 0.0 0.0 0.0 0.01 0.0 0.0 0.0 0.01 0.01 0.0 0.0 0.0 0.01 0.0 0.0 0.0 0.01 0.01 0.0 0.0 0.0 0.01 0.0 0.0 0.0 0.01 0.01 0.0 0.0 0.0 0.01 0.0 0.0 0.0 0.01 0.01 0.0 0.0 0.0 0.01 0.0 0.0 0.0 0.01 0.01 0.0 0.0 0.0 0.01 0.0 0.0 0.0 0.01 0.01 0.0 0.0 0.0 0.01 0.0 0.0 0.0 0.01 0.01 0.0 0.0 0.0 0.01 0.0 0.0 0.0 0.01 0.01 0.0 0.0 0.0 0.01 0.0 0.0 0.0 0.01 0.01 0.0 0.0 0.0 0.01 0.0 0.0 0.0 0.01 0.01 0.0 0.0 0.0 0.01 0.0 0.0 0.0 0.01 0.01 0.0 0.0 0.0 0.01 0.0 0.0 0.0 0.01 0.01 0.0 0.0 0.0 0.01 0.0 0.0 0.0 0.01 0.01 0.0 0.0 0.0 0.01 0.0 0.0 0.0 0.01 0.01 0.0 0.0 0.0 0.01 0.0 0.0 0.0 0.01 0.01 0.0 0.0 0.0 0.01 0.0 0.0 0.0 0.01 0.01 0.0 0.0 0.0 0.01 0.0 0.0 0.0 0.01 0.01 0.0 0.0 0.0 0.01 0.0 0.0 0.0 0.01 0.01 0.0 0.0 0.0 0.01 0.0 0.0 0.0 0.01 0.01 0.0 0.0 0.0 0.01 0.0 0.0 0.0 0.01 0.01 0.0 0.0 0.0 0.01 0.0 0.0 0.0 0.01 0.01 0.0 0.0 0.0 0.01 0.0 0.0 0.0 0.01 0.01 0.0 0.0 0.0 0.01 0.0 0.0 0.0 0.01 0.01 0.0 0.0 0.0 0.01 0.0 0.0 0.0 0.01 0.01 0.0 0.0 0.0 0.01 0.0 0.0 0.0 0.01 0.01 0.0 0.0 0.0 0.01 0.0 0.0 0.0 0.01 0.01 0.0 0.0 0.0 0.01 0.0 0.0 0.0 0.01 0.01 0.0 0.0 0.0 0.01 0.0 0.0 0.0 0.01 0.01 0.0 0.0 0.0 0.01 0.0 0.0 0.0 0.01 0.01 0.0 0.0 0.0 0.01 0.0 0.0 0.0 0.01 0.01 0.0 0.0 0.0 0.01 0.0 0.0 0.0 0.01 0.01 0.0 0.0 0.0 0.01 0.0 0.0 0.0 0.01 0.01 0.0 0.0 0.0 0.01 0.0 0.0 0.0 0.01 0.01 0.0 0.0 0.0 0.01 0.0 0.0 0.0 0.01 0.01 0.0 0.0 0.0 0.01 0.0 0.0 0.0 0.01 0.01 0.0 0.0 0.0 0.01 0.0 0.0 0.0 0.01 0.01 0.0 0.0 0.0 0.01 0.0 0.0 0.0 0.01 0.01 0.0 0.0 0.0 0.01 0.0 0.0 0.0 0.01 0.01 0.0 0.0 0.0 0.01 0.0 0.0 0.0 0.01 0.01 0.0 0.0 0.0 0.01 0.0 0.0 0.0 0.01 0.01 0.0 0.0 0.0 0.01 0.0 0.0 0.0 0.01 0.01 0.0 0.0 0.0 0.01 0.0 0.0 0.0 0.01 0.01 0.0 0.0 0.0 0.01 0.0 0.0 0.0 0.01 0.01 0.0 0.0 0.0 0.01 0.0 0.0 0.0 0.01 0.01 0.0 0.0 0.0 0.01 0.0 0.0 0.0 0.01 0.01 0.0 0.0 0.0 0.01 0.0 0.0 0.0 0.01 0.01 0.0 0.0 0.0 0.01 0.0 0.0 0.0 0.01 0.01 0.0 0.0 0.0 0.01 0.0 0.0 0.0 0.01 0.01 0.0 0.0 0.0 0.01 0.0 0.0 0.0 0.01 0.01 0.0 0.0 0.0 0.01 0.0 0.0 0.0 0.01 0.01 0.0 0.0 0.0 0.01 0.0 0.0 0.0 0.01 0.01 0.0 0.0 0.0 0.01 0.0 0.0 0.0 0.01 0.01 0.0 0.0 0.0 0.01 0.0 0.0 0.0 0.01 0.01 0.0 0.0 0.0 0.01 0.0 0.0 0.0 0.01 0.01 0.0 0.0 0.0 0.01 0.0 0.0 0.0 0.01 0.01 0.0 0.0 0.0 0.01 0.0 0.0 0.0 0.01 0.01 0.0 0.0 0.0 0.01 0.0 0.0 0.0 0.01 0.01 0.0 0.0 0.0 0.01 0.0 0.0 0.0 0.01 0.01 0.0 0.0 0.0 0.01 0.0 0.0 0.0 0.01 0.01 0.0 0.0 0.0 0.01 0.0 0.0 0.0 0.01 0.01 0.0 0.0 0.0 0.01 0.0 0.0 0.0 0.01 0.01 0.0 0.0 0.0 0.01 0.0 0.0 0.0 0.01 0.01 0.0 0.0 0.0 0.01 0.0 0.0 0.0 0.01 0.01 0.0 0.0 0.0 0.01 0.0 0.0 0.0 0.01 0.01 0.0 0.0 0.0 0.01 0.0 0.0 0.0 0.01 0.01 0.0 0.0 0.0 0.01 0.0 0.0 0.0 0.01 0.01 0.0 0.0 0.0 0.01 0.0 0.0 0.0 0.01 0.01 0.0 0.0 0.0 0.01 0.0 0.0 0.0 0.01 0.01 0.0 0.0 0.0 0.01 0.0 0.0 0.0 0.01 0.01 0.0 0.0 0.0 0.01 0.0 0.0 0.0 0.01 0.01 0.0 0.0 0.0 0.01 0.0 0.0 0.0 0.01 0.01 0.0 0.0 0.0 0.01 0.0 0.0 0.0 0.01 0.01 0.0 0.0 0.0 0.01 0.0 0.0 0.0 0.01 0.01 0.0 0.0 0.0 0.01 0.0 0.0 0.0 0.01 0.01 0.0 0.0 0.0 0.01 0.0 0.0 0.0 0.01 0.01 0.0 0.0 0.0 0.01 0.0 0.0 0.0 0.01 0.01 0.0 0.0 0.0 0.01 0.0 0.0 0.0 0.01 0.01 0.0 0.0 0.0 0.01 0.0 0.0 0.0 0.01 0.01 0.0 0.0 0.0 0.01 0.0 0.0 0.0 0.01 0.01 0.0 0.0 0.0 0.01 0.0 0.0 0.0 0.01 0.01 0.0 0.0 0.0 0.01 0.0 0.0 0.0 0.01 0.01 0.0 0.0 0.0 0.01 0.0 0.0 0.0 0.01 0.01 0.0 0.0 0.0 0.01 0.0 0.0 0.0 0.01 0.01 0.0 0.0 0.0 0.01 0.0 0.0 0.0 0.01 0.01 0.0 0.0 0.0 0.01 0.0 0.0 0.0 0.01 0.01 0.0 0.0 0.0 0.01 0.0 0.0 0.0 0.01 0.01 0.0 0.0 0.0 0.01 0.0 0.0 0.0 0.01 0.01 0.0 0.0 0.0 0.01 0.0 0.0 0.0 0.01 0.01 0.0 0.0 0.0 0.01 0.0 0.0 0.0 0.01 0.01 0.0 0.0 0.0 0.01 0.0 0.0 0.0 0.01 0.01 0.0 0.0 0.0 0.01 0.0 0.0 0.0 0.01 0.01 0.0 0.0 0.0 0.01 0.0 0.0 0.0 0.01 0.01 0.0 0.0 0.0 0.01 0.0 0.0 0.0 0.01 0.01 0.0 0.0 0.0 0.01 0.0 0.0 0.0 0.01 0.01 0.0 0.0 0.0 0.01 0.0 0.0 0.0 0.01 0.01 0.0 0.0 0.0 0.01 0.0 0.0 0.0 0.01 0.01 0.0 0.0 0.0 0.01 0.0 0.0 0.0 0.01 0.01 0.0 0.0 0.0 0.01 0.0 0.0 0.0 0.01 0.01 0.0 0.0 0.0 0.01 0.0 0.0 0.0 0.01 0.01 0.0 0.0 0.0 0.01 0.0 0.0 0.0 0.01 0.01 0.0 0.0 0.0 0.01 0.0 0.0 0.0 0.01 0.01 0.0 0.0 0.0 0.01 0.0 0.0 0.0 0.01 0.01 0.0 0.0 0.0 0.01 0.0 0.0 0.0 0.01 0.01 0.0 0.0 0.0 0.01 0.0 0.0 0.0 0.01 0.01 0.0 0.0 0.0 0.01 0.0 0.0 0.0 0.01 0.01 0.0 0.0 0.0 0.01 0.0 0.0 0.0 0.01 0.01 0.0 0.0 0.0 0.01 0.0 0.0 0.0 0.01 0.01 0.0 0.0 0.0 0.01 0.0 0.0 0.0 0.01 0.01 0.0 0.0 0.0 0.01 0.0 0.0 0.0 0.01 0.01 0.0 0.0 0.0 0.01 0.0 0.0 0.0 0.01 0.01 0.0 0.0 0.0 0.01 0.0 0.0 0.0 0.01 0.01 0.0 0.0 0.0 0.01 0.0 0.0 0.0 0.01 0.01 0.0 0.0 0.0 0.01 0.0 0.0 0.0 0.01 0.01 0.0 0.0 0.0 0.01 0.0 0.0 0.0 0.01 0.01 0.0 0.0 0.0 0.01 0.0 0.0 0.0 0.01 0.01 0.0 0.0 0.0 0.01 0.0 0.0 0.0 0.01 0.01 0.0 0.0 0.0 0.01 0.0 0.0 0.0 0.01 0.01 0.0 0.0 0.0 0.01 0.0 0.0 0.0 0.01 0.01 0.0 0.0 0.0 0.01 0.0 0.0 0.0 0.01 0.01 0.0 0.0 0.0 0.01 0.0 0.0 0.0 0.01 0.01 0.0 0.0 0.0 0.01 0.0 0.0 0.0 0.01 0.01 0.0 0.0 0.0 0.01 0.0 0.0 0.0 0.01 0.01 0.0 0.0 0.0 0.01 0.0 0.0 0.0 0.01 0.01 0.0 0.0 0.0 0.01 0.0 0.0 0.0 0.01 0.01 0.0 0.0 0.0 0.01 0.0 0.0 0.0 0.01 0.01 0.0 0.0 0.0 0.01 0.0 0.0 0.0 0.01 0.01 0.0 0.0 0.0 0.01 0.0 0.0 0.0 0.01 0.01 0.0 0.0 0.0 0.01 0.0 0.0 0.0 0.01 0.01 0.0 0.0 0.0 0.01 0.0 0.0 0.0 0.01 0.01 0.0 0.0 0.0 0.01 0.0 0.0 0.0 0.01 0.01 0.0 0.0 0.0 0.01 0.0 0.0 0.0 0.01 0.01 0.0 0.0 0.0 0.01 0.0 0.0 0.0 0.01 0.01 0.0 0.0 0.0 0.01 0.0 0.0 0.0 0.01 0.01 0.0 0.0 0.0 0.01 0.0 0.0 0.0 0.01 0.01 0.0 0.0 0.0 0.01 0.0 0.0 0.0 0.01 0.01 0.0 0.0 0.0 0.01 0.0 0.0 0.0 0.01 0.01 0.0 0.0 0.0 0.01 0.0 0.0 0.0 0.01 0.01 0.0 0.0 0.0 0.01 0.0 0.0 0.0 0.01 0.01 0.0 0.0 0.0 0.01 0.0 0.0 0.0 0.01 0.01 0.0 0.0 0.0 0.01 0.0 0.0 0.0 0.01 0.01 0.0 0.0 0.0 0.01 0.0 0.0 0.0 0.01 0.01 0.0 0.0 0.0 0.01 0.0 0.0 0.0 0.01 0.01 0.0 0.0 0.0 0.01 0.0 0.0 0.0 0.01 0.01 0.0 0.0 0.0 0.01 0.0 0.0 0.0 0.01 0.01 0.0 0.0 0.0 0.01 0.0 0.0 0.0 0.01 0.01 0.0 0.0 0.0 0.01 0.0 0.0 0.0 0.01 0.01 0.0 0.0 0.0 0.01 0.0 0.0 0.0 0.01 0.01 0.0 0.0 0.0 0.01 0.0 0.0 0.0 0.01 0.01 0.0 0.0 0.0 0.01 0.0 0.0 0.0 0.01 0.01 0.0 0.0 0.0 0.01 0.0 0.0 0.0 0.01 0.01 0.0 0.0 0.0 0.01 0.0 0.0 0.0 0.01 0.01 0.0 0.0 0.0 0.01 0.0 0.0 0.0 0.01 0.01 0.0 0.0 0.0 0.01 0.0 0.0 0.0 0.01 0.01 0.0 0.0 0.0 0.01 0.0 0.0 0.0 0.01 0.01 0.0 0.0 0.0 0.01 0.0 0.0 0.0 0.01 0.01 0.0 0.0 0.0 0.01 0.0 0.0 0.0 0.01 0.01 0.0 0.0 0.0 0.01 0.0 0.0 0.0 0.01 0.01 0.0 0.0 0.0 0.01 0.0 0.0 0.0 0.01 0.01 0.0 0.0 0.0 0.01 0.0 0.0 0.0 0.01 0.01 0.0 0.0 0.0 0.01 0.0 0.0 0.0 0.01 0.01 0.0 0.0 0.0 0.01 0.0 0.0 0.0 0.01 0.01 0.0 0.0 0.0 0.01 0.0 0.0 0.0 0.01 0.01 0.0 0.0 0.0 0.01 0.0 0.0 0.0 0.01 0.01 0.0 0.0 0.0 0.01 0.0 0.0 0.0 0.01 0.01 0.0 0.0 0.0 0.01 0.0 0.0 0.0 0.01 0.01 0.0 0.0 0.0 0.01 0.0 0.0 0.0 0.01 0.01 0.0 0.0 0.0 0.01 0.0 0.0 0.0 0.01 0.01 0.0 0.0 0.0 0.01 0.0 0.0 0.0 0.01 0.01 0.0 0.0 0.0 0.01 0.0 0.0 0.0 0.01 0.01 0.0 0.0 0.0 0.01 0.0 0.0 0.0 0.01 0.01 0.0 0.0 0.0 0.01 0.0 0.0 0.0 0.01 0.01 0.0 0.0 0.0 0.01 0.0 0.0 0.0 0.01 0.01 0.0 0.0 0.0 0.01 0.0 0.0 0.0 0.01 0.01 0.0 0.0 0.0 0.01 0.0 0.0 0.0 0.01 0.01 0.0 0.0 0.0 0.01 0.0 0.0 0.0 0.01 0.01 0.0 0.0 0.0 0.01 0.0 0.0 0.0 0.01 0.01 0.0 0.0 0.0 0.01 0.0 0.0 0.0 0.01 0.01 0.0 0.0 0.0 0.01 0.0 0.0 0.0 0.01 0.01 0.0 0.0 0.0 0.01 0.0 0.0 0.0 0.01 0.01 0.0 0.0 0.0 0.01 0.0 0.0 0.0 0.01 0.01 0.0 0.0 0.0 0.01 0.0 0.0 0.0 0.01 0.01 0.0 0.0 0.0 0.01 0.0 0.0 0.0 0.01 0.01 0.0 0.0 0.0 0.01 0.0 0.0 0.0 0.01 0.01 0.0 0.0 0.0 0.01 0.0 0.0 0.0 0.01 0.01 0.0 0.0 0.0 0.01 0.0 0.0 0.0 0.01 0.01 0.0 0.0 0.0 0.01 0.0 0.0 0.0 0.01 0.01 0.0 0.0 0.0 0.01 0.0 0.0 0.0 0.01 0.01 0.0 0.0 0.0 0.01 0.0 0.0 0.0 0.01 0.01 0.0 0.0 0.0 0.01 0.0 0.0 0.0 0.01 0.01 0.0 0.0 0.0 0.01 0.0 0.0 0.0 0.01 0.01 0.0 0.0 0.0 0.01 0.0 0.0 0.0 0.01 0.01 0.0 0.0 0.0 0.01 0.0 0.0 0.0 0.01 0.01 0.0 0.0 0.0 0.01 0.0 0.0 0.0 0.01 0.01 0.0 0.0 0.0 0.01 0.0 0.0 0.0 0.01 0.01 0.0 0.0 0.0 0.01 0.0 0.0 0.0 0.01 0.01 0.0 0.0 0.0 0.01 0.0 0.0 0.0 0.01 0.01 0.0 0.0 0.0 0.01 0.0 0.0 0.0 0.01 0.01 0.0 0.0 0.0 0.01 0.0 0.0 0.0 0.01 0.01 0.0 0.0 0.0 0.01 0.0 0.0 0.0 0.01 0.01 0.0 0.0 0.0 0.01 0.0 0.0 0.0 0.01 0.01 0.0 0.0 0.0 0.01 0.0 0.0 0.0 0.01 0.01 0.0 0.0 0.0 0.01 0.0 0.0 0.0 0.01 0.01 0.0 0.0 0.0 0.01 0.0 0.0 0.0 0.01 0.01 0.0 0.0 0.0 0.01 0.0 0.0 0.0 0.01 0.01 0.0 0.0 0.0 0.01 0.0 0.0 0.0 0.01 0.01 0.0 0.0 0.0 0.01 0.0 0.0 0.0 0.01 0.01 0.0 0.0 0.0 0.01 0.0 0.0 0.0 0.01 0.01 0.0 0.0 0.0 0.01 0.0 0.0 0.0 0.01 0.01 0.0 0.0 0.0 0.01 0.0 0.0 0.0 0.01 0.01 0.0 0.0 0.0 0.01 0.0 0.0 0.0 0.01 0.01 0.0 0.0 0.0 0.01 0.0 0.0 0.0 0.01 0.01 0.0 0.0 0.0 0.01 0.0 0.0 0.0 0.01 0.01 0.0 0.0 0.0 0.01 0.0 0.0 0.0 0.01 0.01 0.0 0.0 0.0 0.01 0.0 0.0 0.0 0.01 0.01 0.0 0.0 0.0 0.01 0.0 0.0 0.0 0.01 0.01 0.0 0.0 0.0 0.01 0.0 0.0 0.0 0.01 0.01 0.0 0.0 0.0 0.01 0.0 0.0 0.0 0.01 0.01 0.0 0.0 0.0 0.01 0.0 0.0 0.0 0.01 0.01 0.0 0.0 0.0 0.01 0.0 0.0 0.0 0.01 0.01 0.0 0.0 0.0 0.01 0.0 0.0 0.0 0.01 0.01 0.0 0.0 0.0 0.01 0.0 0.0 0.0 0.01 0.01 0.0 0.0 0.0 0.01 0.0 0.0 0.0 0.01 0.01 0.0 0.0 0.0 0.01 0.0 0.0 0.0 0.01 0.01 0.0 0.0 0.0 0.01 0.0 0.0 0.0 0.01 0.01 0.0 0.0 0.0 0.01 0.0 0.0 0.0 0.01 0.01 0.0 0.0 0.0 0.01 0.0 0.0 0.0 0.01 0.01 0.0 0.0 0.0 0.01 0.0 0.0 0.0 0.01 0.01 0.0 0.0 0.0 0.01 0.0 0.0 0.0 0.01 0.01 0.0 0.0 0.0 0.01 0.0 0.0 0.0 0.01 0.01 0.0 0.0 0.0 0.01 0.0 0.0 0.0 0.01 0.01 0.0 0.0 0.0 0.01 0.0 0.0 0.0 0.01 0.01 0.0 0.0 0.0 0.01 0.0 0.0 0.0 0.01 0.01 0.0 0.0 0.0 0.01 0.0 0.0 0.0 0.01 0.01 0.0 0.0 0.0 0.01 0.0 0.0 0.0 0.01 0.01 0.0 0.0 0.0 0.01 0.0 0.0 0.0 0.01 0.01 0.0 0.0 0.0 0.01 0.0 0.0 0.0 0.01 0.01 0.0 0.0 0.0 0.01 0.0 0.0 0.0 0.01 0.01 0.0 0.0 0.0 0.01 0.0 0.0 0.0 0.01 0.01 0.0 0.0 0.0 0.01 0.0 0.0 0.0 0.01 0.01 0.0 0.0 0.0 0.01 0.0 0.0 0.0 0.01 0.01 0.0 0.0 0.0 0.01 0.0 0.0 0.0 0.01 0.01 0.0 0.0 0.0 0.01 0.0 0.0 0.0 0.01 0.01 0.0 0.0 0.0 0.01 0.0 0.0 0.0 0.01 0.01 0.0 0.0 0.0 0.01 0.0 0.0 0.0 0.01 0.01 0.0 0.0 0.0 0.01 0.0 0.0 0.0 0.01 0.01 0.0 0.0 0.0 0.01 0.0 0.0 0.0 0.01 0.01 0.0 0.0 0.0 0.01 0.0 0.0 0.0 0.01 0.01 0.0 0.0 0.0 0.01 0.0 0.0 0.0 0.01 0.01 0.0 0.0 0.0 0.01 0.0 0.0 0.0 0.01 0.01 0.0 0.0 0.0 0.01 0.0 0.0 0.0 0.01 0.01 0.0 0.0 0.0 0.01 0.0 0.0 0.0 0.01 0.01 0.0 0.0 0.0 0.01 0.0 0.0 0.0 0.01 0.01 0.0 0.0 0.0 0.01 0.0 0.0 0.0 0.01 0.01 0.0 0.0 0.0 0.01 0.0 0.0 0.0 0.01 0.01 0.0 0.0 0.0 0.01 0.0 0.0 0.0 0.01 0.01 0.0 0.0 0.0 0.01 0.0 0.0 0.0 0.01 0.01 0.0 0.0 0.0 0.01 0.0 0.0 0.0 0.01 0.01 0.0 0.0 0.0 0.01 0.0 0.0 0.0 0.01 0.01 0.0 0.0 0.0 0.01 0.0 0.0 0.0 0.01 0.01 0.0 0.0 0.0 0.01 0.0 0.0 0.0 0.01 0.01 0.0 0.0 0.0 0.01 0.0 0.0 0.0 0.01 0.01 0.0 0.0 0.0 0.01 0.0 0.0 0.0 0.01 0.01 0.0 0.0 0.0 0.01 0.0 0.0 0.0 0.01 0.01 0.0 0.0 0.0 0.01 0.0 0.0 0.0 0.01 0.01 0.0 0.0 0.0 0.01 0.0 0.0 0.0 0.01 0.01 0.0 0.0 0.0 0.01 0.0 0.0 0.0 0.01 0.01 0.0 0.0 0.0 0.01 0.0 0.0 0.0 0.01 0.01 0.0 0.0 0.0 0.01 0.0 0.0 0.0 0.01 0.01 0.0 0.0 0.0 0.01 0.0 0.0 0.0 0.01 0.01 0.0 0.0 0.0 0.01 0.0 0.0 0.0 0.01 0.01 0.0 0.0 0.0 0.01 0.0 0.0 0.0 0.01 0.01 0.0 0.0 0.0 0.01 0.0 0.0 0.0 0.01 0.01 0.0 0.0 0.0 0.01 0.0 0.0 0.0 0.01 0.01 0.0 0.0 0.0 0.01 0.0 0.0 0.0 0.01 0.01 0.0 0.0 0.0 0.01 0.0 0.0 0.0 0.01 0.01 0.0 0.0 0.0 0.01 0.0 0.0 0.0 0.01 0.01 0.0 0.0 0.0 0.01 0.0 0.0 0.0 0.01 0.01 0.0 0.0 0.0 0.01 0.0 0.0 0.0 0.01 0.01 0.0 0.0 0.0 0.01 0.0 0.0 0.0 0.01 0.01 0.0 0.0 0.0 0.01 0.0 0.0 0.0 0.01 0.01 0.0 0.0 0.0 0.01 0.0 0.0 0.0 0.01 0.01 0.0 0.0 0.0 0.01 0.0 0.0 0.0 0.01 0.01 0.0 0.0 0.0 0.01 0.0 0.0 0.0 0.01 0.01 0.0 0.0 0.0 0.01 0.0 0.0 0.0 0.01 0.01 0.0 0.0 0.0 0.01 0.0 0.0 0.0 0.01 0.01 0.0 0.0 0.0 0.01 0.0 0.0 0.0 0.01 0.01 0.0 0.0 0.0 0.01 0.0 0.0 0.0 0.01 0.01 0.0 0.0 0.0 0.01 0.0 0.0 0.0 0.01 0.01 0.0 0.0 0.0 0.01 0.0 0.0 0.0 0.01 0.01 0.0 0.0 0.0 0.01 0.0 0.0 0.0 0.01 0.01 0.0 0.0 0.0 0.01 0.0 0.0 0.0 0.01 0.01 0.0 0.0 0.0 0.01 0.0 0.0 0.0 0.01 0.01 0.0 0.0 0.0 0.01 0.0 0.0 0.0 0.01 0.01 0.0 0.0 0.0 0.01 0.0 0.0 0.0 0.01 0.01 0.0 0.0 0.0 0.01 0.0 0.0 0.0 0.01 0.01 0.0 0.0 0.0 0.01 0.0 0.0 0.0 0.01 0.01 0.0 0.0 0.0 0.01 0.0 0.0 0.0 0.01 0.01 0.0 0.0 0.0 0.01 0.0 0.0 0.0 0.01 0.01 0.0 0.0 0.0 0.01 0.0 0.0 0.0 0.01 0.01 0.0 0.0 0.0 0.01 0.0 0.0 0.0 0.01 0.01 0.0 0.0 0.0 0.01 0.0 0.0 0.0 0.01 0.01 0.0 0.0 0.0 0.01 0.0 0.0 0.0 0.01 0.01 0.0 0.0 0.0 0.01 0.0 0.0 0.0 0.01 0.01 0.0 0.0 0.0 0.01 0.0 0.0 0.0 0.01 0.01 0.0 0.0 0.0 0.01 0.0 0.0 0.0 0.01 0.01 0.0 0.0 0.0 0.01 0.0 0.0 0.0 0.01 0.01 0.0 0.0 0.0 0.01 0.0 0.0 0.0 0.01 0.01 0.0 0.0 0.0 0.01 0.0 0.0 0.0 0.01 0.01 0.0 0.0 0.0 0.01 0.0 0.0 0.0 0.01 0.01 0.0 0.0 0.0 0.01 0.0 0.0 0.0 0.01 0.01 0.0 0.0 0.0 0.01 0.0 0.0 0.0 0.01 0.01 0.0 0.0 0.0 0.01 0.0 0.0 0.0 0.01 0.01 0.0 0.0 0.0 0.01 0.0 0.0 0.0 0.01 0.01 0.0 0.0 0.0 0.01 0.0 0.0 0.0 0.01 0.01 0.0 0.0 0.0 0.01 0.0 0.0 0.0 0.01 0.01 0.0 0.0 0.0 0.01 0.0 0.0 0.0 0.01 0.01 0.0 0.0 0.0 0.01 0.0 0.0 0.0 0.01 0.01 0.0 0.0 0.0 0.01 0.0 0.0 0.0 0.01 0.01 0.0 0.0 0.0 0.01 0.0 0.0 0.0 0.01 0.01 0.0 0.0 0.0 0.01 0.0 0.0 0.0 0.01 0.01 0.0 0.0 0.0 0.01 0.0 0.0 0.0 0.01 0.01 0.0 0.0 0.0 0.01 0.0 0.0 0.0 0.01 0.01 0.0 0.0 0.0 0.01 0.0 0.0 0.0 0.01 0.01 0.0 0.0 0.0 0.01 0.0 0.0 0.0 0.01 0.01 0.0 0.0 0.0 0.01 0.0 0.0 0.0 0.01 0.01 0.0 0.0 0.0 0.01 0.0 0.0 0.0 0.01 0.01 0.0 0.0 0.0 0.01 0.0 0.0 0.0 0.01 0.01 0.0 0.0 0.0 0.01 0.0 0.0 0.0 0.01 0.01 0.0 0.0 0.0 0.01 0.0 0.0 0.0 0.01 0.01 0.0 0.0 0.0 0.01 0.0 0.0 0.0 0.01 0.01 0.0 0.0 0.0 0.01 0.0 0.0 0.0 0.01 0.01 0.0 0.0 0.0 0.01 0.0 0.0 0.0 0.01 0.01 0.0 0.0 0.0 0.01 0.0 0.0 0.0 0.01 0.01 0.0 0.0 0.0 0.01 0.0 0.0 0.0 0.01 0.01 0.0 0.0 0.0 0.01 0.0 0.0 0.0 0.01 0.01 0.0 0.0 0.0 0.01 0.0 0.0 0.0 0.01 0.01 0.0 0.0 0.0 0.01 0.0 0.0 0.0 0.01 0.01 0.0 0.0 0.0 0.01 0.0 0.0 0.0 0.01 0.01 0.0 0.0 0.0 0.01 0.0 0.0 0.0 0.01 0.01 0.0 0.0 0.0 0.01 0.0 0.0 0.0 0.01 0.01 0.0 0.0 0.0 0.01 0.0 0.0 0.0 0.01 0.01 0.0 0.0 0.0 0.01 0.0 0.0 0.0 0.01 0.01 0.0 0.0 0.0 0.01 0.0 0.0 0.0 0.01 0.01 0.0 0.0 0.0 0.01 0.0 0.0 0.0 0.01 0.01 0.0 0.0 0.0 0.01 0.0 0.0 0.0 0.01 0.01 0.0 0.0 0.0 0.01 0.0 0.0 0.0 0.01 0.01 0.0 0.0 0.0 0.01 0.0 0.0 0.0 0.01 0.01 0.0 0.0 0.0 0.01 0.0 0.0 0.0 0.01 0.01 0.0 0.0 0.0 0.01 0.0 0.0 0.0 0.01 0.01 0.0 0.0 0.0 0.01 0.0 0.0 0.0 0.01 0.01 0.0 0.0 0.0 0.01 0.0 0.0 0.0 0.01 0.01 0.0 0.0 0.0 0.01 0.0 0.0 0.0 0.01 0.01 0.0 0.0 0.0 0.01 0.0 0.0 0.0 0.01 0.01 0.0 0.0 0.0 0.01 0.0 0.0 0.0 0.01 0.01 0.0 0.0 0.0 0.01 0.0 0.0 0.0 0.01 0.01 0.0 0.0 0.0 0.01 0.0 0.0 0.0 0.01 0.01 0.0 0.0 0.0 0.01 0.0 0.0 0.0 0.01 0.01 0.0 0.0 0.0 0.01 0.0 0.0 0.0 0.01 0.01 0.0 0.0 0.0 0.01 0.0 0.0 0.0 0.01 0.01 0.0 0.0 0.0 0.01 0.0 0.0 0.0 0.01 0.01 0.0 0.0 0.0 0.01 0.0 0.0 0.0 0.01 0.01 0.0 0.0 0.0 0.01 0.0 0.0 0.0 0.01 0.01 0.0 0.0 0.0 0.01 0.0 0.0 0.0 0.01 0.01 0.0 0.0 0.0 0.01 0.0 0.0 0.0 0.01 0.01 0.0 0.0 0.0 0.01 0.0 0.0 0.0 0.01 0.01 0.0 0.0 0.0 0.01 0.0 0.0 0.0 0.01 0.01 0.0 0.0 0.0 0.01 0.0 0.0 0.0 0.01 0.01 0.0 0.0 0.0 0.01 0.0 0.0 0.0 0.01 0.01 0.0 0.0 0.0 0.01 0.0 0.0 0.0 0.01 0.01 0.0 0.0 0.0 0.01 0.0 0.0 0.0 0.01 0.01 0.0 0.0 0.0 0.01 0.0 0.0 0.0 0.01 0.01 0.0 0.0 0.0 0.01 0.0 0.0 0.0 0.01 0.01 0.0 0.0 0.0 0.01 0.0 0.0 0.0 0.01 0.01 0.0 0.0 0.0 0.01 0.0 0.0 0.0 0.01 0.01 0.0 0.0 0.0 0.01 0.0 0.0 0.0 0.01 0.01 0.0 0.0 0.0 0.01 0.0 0.0 0.0 0.01 0.01 0.0 0.0 0.0 0.01 0.0 0.0 0.0 0.01 0.01 0.0 0.0 0.0 0.01 0.0 0.0 0.0 0.01 0.01 0.0 0.0 0.0 0.01 0.0 0.0 0.0 0.01 0.01 0.0 0.0 0.0 0.01 0.0 0.0 0.0 0.01 0.01 0.0 0.0 0.0 0.01 0.0 0.0 0.0 0.01 0.01 0.0 0.0 0.0 0.01 0.0 0.0 0.0 0.01 0.01 0.0 0.0 0.0 0.01 0.0 0.0 0.0 0.01 0.01 0.0 0.0 0.0 0.01 0.0 0.0 0.0 0.01 0.01 0.0 0.0 0.0 0.01 0.0 0.0 0.0 0.01 0.01 0.0 0.0 0.0 0.01 0.0 0.0 0.0 0.01 0.01 0.0 0.0 0.0 0.01 0.0 0.0 0.0 0.01 0.01 0.0 0.0 0.0 0.01 0.0 0.0 0.0 0.01 0.01 0.0 0.0 0.0 0.01 0.0 0.0 0.0 0.01 0.01 0.0 0.0 0.0 0.01 0.0 0.0 0.0 0.01 0.01 0.0 0.0 0.0 0.01 0.0 0.0 0.0 0.01 0.01 0.0 0.0 0.0 0.01 0.0 0.0 0.0 0.01 0.01 0.0 0.0 0.0 0.01 0.0 0.0 0.0 0.01 0.01 0.0 0.0 0.0 0.01 0.0 0.0 0.0 0.01 0.01 0.0 0.0 0.0 0.01 0.0 0.0 0.0 0.01 0.01 0.0 0.0 0.0 0.01 0.0 0.0 0.0 0.01 0.01 0.0 0.0 0.0 0.01 0.0 0.0 0.0 0.01 0.01 0.0 0.0 0.0 0.01 0.0 0.0 0.0 0.01 0.01 0.0 0.0 0.0 0.01 0.0 0.0 0.0 0.01 0.01 0.0 0.0 0.0 0.01 0.0 0.0 0.0 0.01 0.01 0.0 0.0 0.0 0.01 0.0 0.0 0.0 0.01 0.01 0.0 0.0 0.0 0.01 0.0 0.0 0.0 0.01 0.01 0.0 0.0 0.0 0.01 0.0 0.0 0.0 0.01 0.01 0.0 0.0 0.0 0.01 0.0 0.0 0.0 0.01 0.01 0.0 0.0 0.0 0.01 0.0 0.0 0.0 0.01 0.01 0.0 0.0 0.0 0.01 0.0 0.0 0.0 0.01 0.01 0.0 0.0 0.0 0.01 0.0 0.0 0.0 0.01 0.01 0.0 0.0 0.0 0.01 0.0 0.0 0.0 0.01 0.01 0.0 0.0 0.0 0.01 0.0 0.0 0.0 0.01 0.01 0.0 0.0 0.0 0.01 0.0 0.0 0.0 0.01 0.01 0.0 0.0 0.0 0.01 0.0 0.0 0.0 0.01 0.01 0.0 0.0 0.0 0.01 0.0 0.0 0.0 0.01 0.01 0.0 0.0 0.0 0.01 0.0 0.0 0.0 0.01 0.01 0.0 0.0 0.0 0.01 0.0 0.0 0.0 0.01 0.01 0.0 0.0 0.0 0.01 0.0 0.0 0.0 0.01 0.01 0.0 0.0 0.0 0.01 0.0 0.0 0.0 0.01 0.01 0.0 0.0 0.0 0.01 0.0 0.0 0.0 0.01 0.01 0.0 0.0 0.0 0.01 0.0 0.0 0.0 0.01 0.01 0.0 0.0 0.0 0.01 0.0 0.0 0.0 0.01 0.01 0.0 0.0 0.0 0.01 0.0 0.0 0.0 0.01 0.01 0.0 0.0 0.0 0.01 0.0 0.0 0.0 0.01 0.01 0.0 0.0 0.0 0.01 0.0 0.0 0.0 0.01 0.01 0.0 0.0 0.0 0.01 0.0 0.0 0.0 0.01 0.01 0.0 0.0 0.0 0.01 0.0 0.0 0.0 0.01 0.01 0.0 0.0 0.0 0.01 0.0 0.0 0.0 0.01 0.01 0.0 0.0 0.0 0.01 0.0 0.0 0.0 0.01 0.01 0.0 0.0 0.0 0.01 0.0 0.0 0.0 0.01 0.01 0.0 0.0 0.0 0.01 0.0 0.0 0.0 0.01 0.01 0.0 0.0 0.0 0.01 0.0 0.0 0.0 0.01 0.01 0.0 0.0 0.0 0.01 0.0 0.0 0.0 0.01 0.01 0.0 0.0 0.0 0.01 0.0 0.0 0.0 0.01 0.01 0.0 0.0 0.0 0.01 0.0 0.0 0.0 0.01 0.01 0.0 0.0 0.0 0.01 0.0 0.0 0.0 0.01 0.01 0.0 0.0 0.0 0.01 0.0 0.0 0.0 0.01 0.01 0.0 0.0 0.0 0.01 0.0 0.0 0.0 0.01 0.01 0.0 0.0 0.0 0.01 0.0 0.0 0.0 0.01 0.01 0.0 0.0 0.0 0.01 0.0 0.0 0.0 0.01 0.01 0.0 0.0 0.0 0.01 0.0 0.0 0.0 0.01 0.01 0.0 0.0 0.0 0.01 0.0 0.0 0.0 0.01 0.01 0.0 0.0 0.0 0.01 0.0 0.0 0.0 0.01 0.01 0.0 0.0 0.0 0.01 0.0 0.0 0.0 0.01 0.01 0.0 0.0 0.0 0.01 0.0 0.0 0.0 0.01 0.01 0.0 0.0 0.0 0.01 0.0 0.0 0.0 0.01 0.01 0.0 0.0 0.0 0.01 0.0 0.0 0.0 0.01 0.01 0.0 0.0 0.0 0.01 0.0 0.0 0.0 0.01 0.01 0.0 0.0 0.0 0.01 0.0 0.0 0.0 0.01 0.01 0.0 0.0 0.0 0.01 0.0 0.0 0.0 0.01 0.01 0.0 0.0 0.0 0.01 0.0 0.0 0.0 0.01 0.01 0.0 0.0 0.0 0.01 0.0 0.0 0.0 0.01 0.01 0.0 0.0 0.0 0.01 0.0 0.0 0.0 0.01 0.01 0.0 0.0 0.0 0.01 0.0 0.0 0.0 0.01 0.01 0.0 0.0 0.0 0.01 0.0 0.0 0.0 0.01 0.01 0.0 0.0 0.0 0.01 0.0 0.0 0.0 0.01 0.01 0.0 0.0 0.0 0.01 0.0 0.0 0.0 0.01 0.01 0.0 0.0 0.0 0.01 0.0 0.0 0.0 0.01 0.01 0.0 0.0 0.0 0.01 0.0 0.0 0.0 0.01 0.01 0.0 0.0 0.0 0.01 0.0 0.0 0.0 0.01 0.01 0.0 0.0 0.0 0.01 0.0 0.0 0.0 0.01 0.01 0.0 0.0 0.0 0.01 0.0 0.0 0.0 0.01 0.01 0.0 0.0 0.0 0.01 0.0 0.0 0.0 0.01 0.01 0.0 0.0 0.0 0.01 0.0 0.0 0.0 0.01 0.01 0.0 0.0 0.0 0.01 0.0 0.0 0.0 0.01 0.01 0.0 0.0 0.0 0.01 0.0 0.0 0.0 0.01 0.01 0.0 0.0 0.0 0.01 0.0 0.0 0.0 0.01 0.01 0.0 0.0 0.0 0.01 0.0 0.0 0.0 0.01 0.01 0.0 0.0 0.0 0.01 0.0 0.0 0.0 0.01 0.01 0.0 0.0 0.0 0.01 0.0 0.0 0.0 0.01 0.01 0.0 0.0 0.0 0.01 0.0 0.0 0.0 0.01 0.01 0.0 0.0 0.0 0.01 0.0 0.0 0.0 0.01 0.01 0.0 0.0 0.0 0.01 0.0 0.0 0.0 0.01 0.01 0.0 0.0 0.0 0.01 0.0 0.0 0.0 0.01 0.01 0.0 0.0 0.0 0.01 0.0 0.0 0.0 0.01 0.01 0.0 0.0 0.0 0.01 0.0 0.0 0.0 0.01 0.01 0.0 0.0 0.0 0.01 0.0 0.0 0.0 0.01 0.01 0.0 0.0 0.0 0.01 0.0 0.0 0.0 0.01 0.01 0.0 0.0 0.0 0.01 0.0 0.0 0.0 0.01 0.01 0.0 0.0 0.0 0.01 0.0 0.0 0.0 0.01 0.01 0.0 0.0 0.0 0.01 0.0 0.0 0.0 0.01 0.01 0.0 0.0 0.0 0.01 0.0 0.0 0.0 0.01 0.01 0.0 0.0 0.0 0.01 0.0 0.0 0.0 0.01 0.01 0.0 0.0 0.0 0.01 0.0 0.0 0.0 0.01 0.01 0.0 0.0 0.0 0.01 0.0 0.0 0.0 0.01 0.01 0.0 0.0 0.0 0.01 0.0 0.0 0.0 0.01 0.01 0.0 0.0 0.0 0.01 0.0 0.0 0.0 0.01 0.01 0.0 0.0 0.0 0.01 0.0 0.0 0.0 0.01 0.01 0.0 0.0 0.0 0.01 0.0 0.0 0.0 0.01 0.01 0.0 0.0 0.0 0.01 0.0 0.0 0.0 0.01 0.01 0.0 0.0 0.0 0.01 0.0 0.0 0.0 0.01 0.01 0.0 0.0 0.0 0.01 0.0 0.0 0.0 0.01 0.01 0.0 0.0 0.0 0.01 0.0 0.0 0.0 0.01 0.01 0.0 0.0 0.0 0.01 0.0 0.0 0.0 0.01 0.01 0.0 0.0 0.0 0.01 0.0 0.0 0.0 0.01 0.01 0.0 0.0 0.0 0.01 0.0 0.0 0.0 0.01 0.01 0.0 0.0 0.0 0.01 0.0 0.0 0.0 0.01 0.01 0.0 0.0 0.0 0.01 0.0 0.0 0.0 0.01 0.01 0.0 0.0 0.0 0.01 0.0 0.0 0.0 0.01 0.01 0.0 0.0 0.0 0.01 0.0 0.0 0.0 0.01 0.01 0.0 0.0 0.0 0.01 0.0 0.0 0.0 0.01 0.01 0.0 0.0 0.0 0.01 0.0 0.0 0.0 0.01 0.01 0.0 0.0 0.0 0.01 0.0 0.0 0.0 0.01 0.01 0.0 0.0 0.0 0.01 0.0 0.0 0.0 0.01 0.01 0.0 0.0 0.0 0.01 0.0 0.0 0.0 0.01 0.01 0.0 0.0 0.0 0.01 0.0 0.0 0.0 0.01 0.01 0.0 0.0 0.0 0.01 0.0 0.0 0.0 0.01 0.01 0.0 0.0 0.0 0.01 0.0 0.0 0.0 0.01 0.01 0.0 0.0 0.0 0.01 0.0 0.0 0.0 0.01 0.01 0.0 0.0 0.0 0.01 0.0 0.0 0.0 0.01 0.01 0.0 0.0 0.0 0.01 0.0 0.0 0.0 0.01 0.01 0.0 0.0 0.0 0.01 0.0 0.0 0.0 0.01 0.01 0.0 0.0 0.0 0.01 0.0 0.0 0.0 0.01 0.01 0.0 0.0 0.0 0.01 0.0 0.0 0.0 0.01 0.01 0.0 0.0 0.0 0.01 0.0 0.0 0.0 0.01 0.01 0.0 0.0 0.0 0.01 0.0 0.0 0.0 0.01 0.01 0.0 0.0 0.0 0.01 0.0 0.0 0.0 0.01 0.01 0.0 0.0 0.0 0.01 0.0 0.0 0.0 0.01 0.01 0.0 0.0 0.0 0.01 0.0 0.0 0.0 0.01 0.01 0.0 0.0 0.0 0.01 0.0 0.0 0.0 0.01 0.01 0.0 0.0 0.0 0.01 0.0 0.0 0.0 0.01 0.01 0.0 0.0 0.0 0.01 0.0 0.0 0.0 0.01 0.01 0.0 0.0 0.0 0.01 0.0 0.0 0.0 0.01 0.01 0.0 0.0 0.0 0.01 0.0 0.0 0.0 0.01 0.01 0.0 0.0 0.0 0.01 0.0 0.0 0.0 0.01 0.01 0.0 0.0 0.0 0.01 0.0 0.0 0.0 0.01 0.01 0.0 0.0 0.0 0.01 0.0 0.0 0.0 0.01 0.01 0.0 0.0 0.0 0.01 0.0 0.0 0.0 0.01 0.01 0.0 0.0 0.0 0.01 0.0 0.0 0.0 0.01 0.01 0.0 0.0 0.0 0.01 0.0 0.0 0.0 0.01 0.01 0.0 0.0 0.0 0.01 0.0 0.0 0.0 0.01 0.01 0.0 0.0 0.0 0.01 0.0 0.0 0.0 0.01 0.01 0.0 0.0 0.0 0.01 0.0 0.0 0.0 0.01 0.01 0.0 0.0 0.0 0.01 0.0 0.0 0.0 0.01 0.01 0.0 0.0 0.0 0.01 0.0 0.0 0.0 0.01 0.01 0.0 0.0 0.0 0.01 0.0 0.0 0.0 0.01 0.01 0.0 0.0 0.0 0.01 0.0 0.0 0.0 0.01 0.01 0.0 0.0 0.0 0.01 0.0 0.0 0.0 0.01 0.01 0.0 0.0 0.0 0.01 0.0 0.0 0.0 0.01 0.01 0.0 0.0 0.0 0.01 0.0 0.0 0.0 0.01 0.01 0.0 0.0 0.0 0.01 0.0 0.0 0.0 0.01 0.01 0.0 0.0 0.0 0.01 0.0 0.0 0.0 0.01 0.01 0.0 0.0 0.0 0.01 0.0 0.0 0.0 0.01 0.01 0.0 0.0 0.0 0.01 0.0 0.0 0.0 0.01 0.01 0.0 0.0 0.0 0.01 0.0 0.0 0.0 0.01 0.01 0.0 0.0 0.0 0.01 0.0 0.0 0.0 0.01 0.01 0.0 0.0 0.0 0.01 0.0 0.0 0.0 0.01 0.01 0.0 0.0 0.0 0.01 0.0 0.0 0.0 0.01 0.01 0.0 0.0 0.0 0.01 0.0 0.0 0.0 0.01 0.01 0.0 0.0 0.0 0.01 0.0 0.0 0.0 0.01 0.01 0.0 0.0 0.0 0.01 0.0 0.0 0.0 0.01 0.01 0.0 0.0 0.0 0.01 0.0 0.0 0.0 0.01 0.01 0.0 0.0 0.0 0.01 0.0 0.0 0.0 0.01 0.01 0.0 0.0 0.0 0.01 0.0 0.0 0.0 0.01 0.01 0.0 0.0 0.0 0.01 0.0 0.0 0.0 0.01 0.01 0.0 0.0 0.0 0.01 0.0 0.0 0.0 0.01 0.01 0.0 0.0 0.0 0.01 0.0 0.0 0.0 0.01 0.01 0.0 0.0 0.0 0.01 0.0 0.0 0.0 0.01 0.01 0.0 0.0 0.0 0.01 0.0 0.0 0.0 0.01 0.01 0.0 0.0 0.0 0.01 0.0 0.0 0.0 0.01 0.01 0.0 0.0 0.0 0.01 0.0 0.0 0.0 0.01 0.01 0.0 0.0 0.0 0.01 0.0 0.0 0.0 0.01 0.01 0.0 0.0 0.0 0.01 0.0 0.0 0.0 0.01 0.01 0.0 0.0 0.0 0.01 0.0 0.0 0.0 0.01 0.01 0.0 0.0 0.0 0.01 0.0 0.0 0.0 0.01 0.01 0.0 0.0 0.0 0.01 0.0 0.0 0.0 0.01 0.01 0.0 0.0 0.0 0.01 0.0 0.0 0.0 0.01 0.01 0.0 0.0 0.0 0.01 0.0 0.0 0.0 0.01 0.01 0.0 0.0 0.0 0.01 0.0 0.0 0.0 0.01 0.01 0.0 0.0 0.0 0.01 0.0 0.0 0.0 0.01 0.01 0.0 0.0 0.0 0.01 0.0 0.0 0.0 0.01 0.01 0.0 0.0 0.0 0.01 0.0 0.0 0.0 0.01 0.01 0.0 0.0 0.0 0.01 0.0 0.0 0.0 0.01 0.01 0.0 0.0 0.0 0.01 0.0 0.0 0.0 0.01 0.01 0.0 0.0 0.0 0.01 0.0 0.0 0.0 0.01 0.01 0.0 0.0 0.0 0.01 0.0 0.0 0.0 0.01 0.01 0.0 0.0 0.0 0.01 0.0 0.0 0.0 0.01 0.01 0.0 0.0 0.0 0.01 0.0 0.0 0.0 0.01 0.01 0.0 0.0 0.0 0.01 0.0 0.0 0.0 0.01 0.01 0.0 0.0 0.0 0.01 0.0 0.0 0.0 0.01 0.01 0.0 0.0 0.0 0.01 0.0 0.0 0.0 0.01 0.01 0.0 0.0 0.0 0.01 0.0 0.0 0.0 0.01 0.01 0.0 0.0 0.0 0.01 0.0 0.0 0.0 0.01 0.01 0.0 0.0 0.0 0.01 0.0 0.0 0.0 0.01 0.01 0.0 0.0 0.0 0.01 0.0 0.0 0.0 0.01 0.01 0.0 0.0 0.0 0.01 0.0 0.0 0.0 0.01 0.01 0.0 0.0 0.0 0.01 0.0 0.0 0.0 0.01 0.01 0.0 0.0 0.0 0.01 0.0 0.0 0.0 0.01 0.01 0.0 0.0 0.0 0.01 0.0 0.0 0.0 0.01 0.01 0.0 0.0 0.0 0.01 0.0 0.0 0.0 0.01 0.01 0.0 0.0 0.0 0.01 0.0 0.0 0.0 0.01 0.01 0.0 0.0 0.0 0.01 0.0 0.0 0.0 0.01 0.01 0.0 0.0 0.0 0.01 0.0 0.0 0.0 0.01 0.01 0.0 0.0 0.0 0.01 0.0 0.0 0.0 0.01 0.01 0.0 0.0 0.0 0.01 0.0 0.0 0.0 0.01 0.01 0.0 0.0 0.0 0.01 0.0 0.0 0.0 0.01 0.01 0.0 0.0 0.0 0.01 0.0 0.0 0.0 0.01 0.01 0.0 0.0 0.0 0.01 0.0 0.0 0.0 0.01 0.01 0.0 0.0 0.0 0.01 0.0 0.0 0.0 0.01 0.01 0.0 0.0 0.0 0.01 0.0 0.0 0.0 0.01 0.01 0.0 0.0 0.0 0.01 0.0 0.0 0.0 0.01 0.01 0.0 0.0 0.0 0.01 0.0 0.0 0.0 0.01 0.01 0.0 0.0 0.0 0.01 0.0 0.0 0.0 0.01 0.01 0.0 0.0 0.0 0.01 0.0 0.0 0.0 0.01 0.01 0.0 0.0 0.0 0.01 0.0 0.0 0.0 0.01 0.01 0.0 0.0 0.0 0.01 0.0 0.0 0.0 0.01 0.01 0.0 0.0 0.0 0.01 0.0 0.0 0.0 0.01 0.01 0.0 0.0 0.0 0.01 0.0 0.0 0.0 0.01 0.01 0.0 0.0 0.0 0.01 0.0 0.0 0.0 0.01 0.01 0.0 0.0 0.0 0.01 0.0 0.0 0.0 0.01 0.01 0.0 0.0 0.0 0.01 0.0 0.0 0.0 0.01 0.01 0.0 0.0 0.0 0.01 0.0 0.0 0.0 0.01 0.01 0.0 0.0 0.0 0.01 0.0 0.0 0.0 0.01 0.01 0.0 0.0 0.0 0.01 0.0 0.0 0.0 0.01 0.01 0.0 0.0 0.0 0.01 0.0 0.0 0.0 0.01 0.01 0.0 0.0 0.0 0.01 0.0 0.0 0.0 0.01 0.01 0.0 0.0 0.0 0.01 0.0 0.0 0.0 0.01 0.01 0.0 0.0 0.0 0.01 0.0 0.0 0.0 0.01 0.01 0.0 0.0 0.0 0.01 0.0 0.0 0.0 0.01 0.01 0.0 0.0 0.0 0.01 0.0 0.0 0.0 0.01 0.01 0.0 0.0 0.0 0.01 0.0 0.0 0.0 0.01 0.01 0.0 0.0 0.0 0.01 0.0 0.0 0.0 0.01 0.01 0.0 0.0 0.0 0.01 0.0 0.0 0.0 0.01 0.01 0.0 0.0 0.0 0.01 0.0 0.0 0.0 0.01 0.01 0.0 0.0 0.0 0.01 0.0 0.0 0.0 0.01 0.01 0.0 0.0 0.0 0.01 0.0 0.0 0.0 0.01 0.01 0.0 0.0 0.0 0.01 0.0 0.0 0.0 0.01 0.01 0.0 0.0 0.0 0.01 0.0 0.0 0.0 0.01 0.01 0.0 0.0 0.0 0.01 0.0 0.0 0.0 0.01 0.01 0.0 0.0 0.0 0.01 0.0 0.0 0.0 0.01 0.01 0.0 0.0 0.0 0.01 0.0 0.0 0.0 0.01 0.01 0.0 0.0 0.0 0.01 0.0 0.0 0.0 0.01 0.01 0.0 0.0 0.0 0.01 0.0 0.0 0.0 0.01 0.01 0.0 0.0 0.0 0.01 0.0 0.0 0.0 0.01 0.01 0.0 0.0 0.0 0.01 0.0 0.0 0.0 0.01 0.01 0.0 0.0 0.0 0.01 0.0 0.0 0.0 0.01 0.01 0.0 0.0 0.0 0.01 0.0 0.0 0.0 0.01 0.01 0.0 0.0 0.0 0.01 0.0 0.0 0.0 0.01 0.01 0.0 0.0 0.0 0.01 0.0 0.0 0.0 0.01 0.01 0.0 0.0 0.0 0.01 0.0 0.0 0.0 0.01 0.01 0.0 0.0 0.0 0.01 0.0 0.0 0.0 0.01 0.01 0.0 0.0 0.0 0.01 0.0 0.0 0.0 0.01 0.01 0.0 0.0 0.0 0.01 0.0 0.0 0.0 0.01 0.01 0.0 0.0 0.0 0.01 0.0 0.0 0.0 0.01 0.01 0.0 0.0 0.0 0.01 0.0 0.0 0.0 0.01 0.01 0.0 0.0 0.0 0.01 0.0 0.0 0.0 0.01 0.01 0.0 0.0 0.0 0.01 0.0 0.0 0.0 0.01 0.01 0.0 0.0 0.0 0.01 0.0 0.0 0.0 0.01 0.01 0.0 0.0 0.0 0.01 0.0 0.0 0.0 0.01 0.01 0.0 0.0 0.0 0.01 0.0 0.0 0.0 0.01 0.01 0.0 0.0 0.0 0.01 0.0 0.0 0.0 0.01 0.01 0.0 0.0 0.0 0.01 0.0 0.0 0.0 0.01 0.01 0.0 0.0 0.0 0.01 0.0 0.0 0.0 0.01 0.01 0.0 0.0 0.0 0.01 0.0 0.0 0.0 0.01 0.01 0.0 0.0 0.0 0.01 0.0 0.0 0.0 0.01 0.01 0.0 0.0 0.0 0.01 0.0 0.0 0.0 0.01 0.01 0.0 0.0 0.0 0.01 0.0 0.0 0.0 0.01 0.01 0.0 0.0 0.0 0.01 0.0 0.0 0.0 0.01 0.01 0.0 0.0 0.0 0.01 0.0 0.0 0.0 0.01 0.01 0.0 0.0 0.0 0.01 0.0 0.0 0.0 0.01 0.01 0.0 0.0 0.0 0.01 0.0 0.0 0.0 0.01 0.01 0.0 0.0 0.0 0.01 0.0 0.0 0.0 0.01 0.01 0.0 0.0 0.0 0.01 0.0 0.0 0.0 0.01 0.01 0.0 0.0 0.0 0.01 0.0 0.0 0.0 0.01 0.01 0.0 0.0 0.0 0.01 0.0 0.0 0.0 0.01 0.01 0.0 0.0 0.0 0.01 0.0 0.0 0.0 0.01 0.01 0.0 0.0 0.0 0.01 0.0 0.0 0.0 0.01 0.01 0.0 0.0 0.0 0.01 0.0 0.0 0.0 0.01 0.01 0.0 0.0 0.0 0.01 0.0 0.0 0.0 0.01 0.01 0.0 0.0 0.0 0.01 0.0 0.0 0.0 0.01 0.01 0.0 0.0 0.0 0.01 0.0 0.0 0.0 0.01 0.01 0.0 0.0 0.0 0.01 0.0 0.0 0.0 0.01 0.01 0.0 0.0 0.0 0.01 0.0 0.0 0.0 0.01 0.01 0.0 0.0 0.0 0.01 0.0 0.0 0.0 0.01 0.01 0.0 0.0 0.0 0.01 0.0 0.0 0.0 0.01 0.01 0.0 0.0 0.0 0.01 0.0 0.0 0.0 0.01 0.01 0.0 0.0 0.0 0.01 0.0 0.0 0.0 0.01 0.01 0.0 0.0 0.0 0.01 0.0 0.0 0.0 0.01 0.01 0.0 0.0 0.0 0.01 0.0 0.0 0.0 0.01 0.01 0.0 0.0 0.0 0.01 0.0 0.0 0.0 0.01 0.01 0.0 0.0 0.0 0.01 0.0 0.0 0.0 0.01 0.01 0.0 0.0 0.0 0.01 0.0 0.0 0.0 0.01 0.01 0.0 0.0 0.0 0.01 0.0 0.0 0.0 0.01 0.01 0.0 0.0 0.0 0.01 0.0 0.0 0.0 0.01 0.01 0.0 0.0 0.0 0.01 0.0 0.0 0.0 0.01 0.01 0.0 0.0 0.0 0.01 0.0 0.0 0.0 0.01 0.01 0.0 0.0 0.0 0.01 0.0 0.0 0.0 0.01 0.01 0.0 0.0 0.0 0.01 0.0 0.0 0.0 0.01 0.01 0.0 0.0 0.0 0.01 0.0 0.0 0.0 0.01 0.01 0.0 0.0 0.0 0.01 0.0 0.0 0.0 0.01 0.01 0.0 0.0 0.0 0.01 0.0 0.0 0.0 0.01 0.01 0.0 0.0 0.0 0.01 0.0 0.0 0.0 0.01 0.01 0.0 0.0 0.0 0.01 0.0 0.0 0.0 0.01 0.01 0.0 0.0 0.0 0.01 0.0 0.0 0.0 0.01 0.01 0.0 0.0 0.0 0.01 0.0 0.0 0.0 0.01 0.01 0.0 0.0 0.0 0.01 0.0 0.0 0.0 0.01 0.01 0.0 0.0 0.0 0.01 0.0 0.0 0.0 0.01 0.01 0.0 0.0 0.0 0.01 0.0 0.0 0.0 0.01 0.01 0.0 0.0 0.0 0.01 0.0 0.0 0.0 0.01 0.01 0.0 0.0 0.0 0.01 0.0 0.0 0.0 0.01 0.01 0.0 0.0 0.0 0.01 0.0 0.0 0.0 0.01 0.01 0.0 0.0 0.0 0.01 0.0 0.0 0.0 0.01 0.01 0.0 0.0 0.0 0.01 0.0 0.0 0.0 0.01 0.01 0.0 0.0 0.0 0.01 0.0 0.0 0.0 0.01 0.01 0.0 0.0 0.0 0.01 0.0 0.0 0.0 0.01 0.01 0.0 0.0 0.0 0.01 0.0 0.0 0.0 0.01 0.01 0.0 0.0 0.0 0.01 0.0 0.0 0.0 0.01 0.01 0.0 0.0 0.0 0.01 0.0 0.0 0.0 0.01 0.01 0.0 0.0 0.0 0.01 0.0 0.0 0.0 0.01 0.01 0.0 0.0 0.0 0.01 0.0 0.0 0.0 0.01 0.01 0.0 0.0 0.0 0.01 0.0 0.0 0.0 0.01 0.01 0.0 0.0 0.0 0.01 0.0 0.0 0.0 0.01 0.01 0.0 0.0 0.0 0.01 0.0 0.0 0.0 0.01 0.01 0.0 0.0 0.0 0.01 0.0 0.0 0.0 0.01 0.01 0.0 0.0 0.0 0.01 0.0 0.0 0.0 0.01 0.01 0.0 0.0 0.0 0.01 0.0 0.0 0.0 0.01 0.01 0.0 0.0 0.0 0.01 0.0 0.0 0.0 0.01 0.01 0.0 0.0 0.0 0.01 0.0 0.0 0.0 0.01 0.01 0.0 0.0 0.0 0.01 0.0 0.0 0.0 0.01 0.01 0.0 0.0 0.0 0.01 0.0 0.0 0.0 0.01 0.01 0.0 0.0 0.0 0.01 0.0 0.0 0.0 0.01 0.01 0.0 0.0 0.0 0.01 0.0 0.0 0.0 0.01 0.01 0.0 0.0 0.0 0.01 0.0 0.0 0.0 0.01 0.01 0.0 0.0 0.0 0.01 0.0 0.0 0.0 0.01 0.01 0.0 0.0 0.0 0.01 0.0 0.0 0.0 0.01 0.01 0.0 0.0 0.0 0.01 0.0 0.0 0.0 0.01 0.01 0.0 0.0 0.0 0.01 0.0 0.0 0.0 0.01 0.01 0.0 0.0 0.0 0.01 0.0 0.0 0.0 0.01 0.01 0.0 0.0 0.0 0.01 0.0 0.0 0.0 0.01 0.01 0.0 0.0 0.0 0.01 0.0 0.0 0.0 0.01 0.01 0.0 0.0 0.0 0.01 0.0 0.0 0.0 0.01 0.01 0.0 0.0 0.0 0.01 0.0 0.0 0.0 0.01 0.01 0.0 0.0 0.0 0.01 0.0 0.0 0.0 0.01 0.01 0.0 0.0 0.0 0.01 0.0 0.0 0.0 0.01 0.01 0.0 0.0 0.0 0.01 0.0 0.0 0.0 0.01 0.01 0.0 0.0 0.0 0.01 0.0 0.0 0.0 0.01 0.01 0.0 0.0 0.0 0.01 0.0 0.0 0.0 0.01 0.01 0.0 0.0 0.0 0.01 0.0 0.0 0.0 0.01 0.01 0.0 0.0 0.0 0.01 0.0 0.0 0.0 0.01 0.01 0.0 0.0 0.0 0.01 0.0 0.0 0.0 0.01 0.01 0.0 0.0 0.0 0.01 0.0 0.0 0.0 0.01 0.01 0.0 0.0 0.0 0.01 0.0 0.0 0.0 0.01 0.01 0.0 0.0 0.0 0.01 0.0 0.0 0.0 0.01 0.01 0.0 0.0 0.0 0.01 0.0 0.0 0.0 0.01 0.01 0.0 0.0 0.0 0.01 0.0 0.0 0.0 0.01 0.01 0.0 0.0 0.0 0.01 0.0 0.0 0.0 0.01 0.01 0.0 0.0 0.0 0.01 0.0 0.0 0.0 0.01 0.01 0.0 0.0 0.0 0.01 0.0 0.0 0.0 0.01 0.01 0.0 0.0 0.0 0.01 0.0 0.0 0.0 0.01 0.01 0.0 0.0 0.0 0.01 0.0 0.0 0.0 0.01 0.01 0.0 0.0 0.0 0.01 0.0 0.0 0.0 0.01 0.01 0.0 0.0 0.0 0.01 0.0 0.0 0.0 0.01 0.01 0.0 0.0 0.0 0.01 0.0 0.0 0.0 0.01 0.01 0.0 0.0 0.0 0.01 0.0 0.0 0.0 0.01 0.01 0.0 0.0 0.0 0.01 0.0 0.0 0.0 0.01 0.01 0.0 0.0 0.0 0.01 0.0 0.0 0.0 0.01 0.01 0.0 0.0 0.0 0.01 0.0 0.0 0.0 0.01 0.01 0.0 0.0 0.0 0.01 0.0 0.0 0.0 0.01 0.01 0.0 0.0 0.0 0.01 0.0 0.0 0.0 0.01 0.01 0.0 0.0 0.0 0.01 0.0 0.0 0.0 0.01 0.01 0.0 0.0 0.0 0.01 0.0 0.0 0.0 0.01 0.01 0.0 0.0 0.0 0.01 0.0 0.0 0.0 0.01 0.01 0.0 0.0 0.0 0.01 0.0 0.0 0.0 0.01 0.01 0.0 0.0 0.0 0.01 0.0 0.0 0.0 0.01 0.01 0.0 0.0 0.0 0.01 0.0 0.0 0.0 0.01 0.01 0.0 0.0 0.0 0.01 0.0 0.0 0.0 0.01 0.01 0.0 0.0 0.0 0.01 0.0 0.0 0.0 0.01 0.01 0.0 0.0 0.0 0.01 0.0 0.0 0.0 0.01 0.01 0.0 0.0 0.0 0.01 0.0 0.0 0.0 0.01 0.01 0.0 0.0 0.0 0.01 0.0 0.0 0.0 0.01 0.01 0.0 0.0 0.0 0.01 0.0 0.0 0.0 0.01 0.01 0.0 0.0 0.0 0.01 0.0 0.0 0.0 0.01 0.01 0.0 0.0 0.0 0.01 0.0 0.0 0.0 0.01 0.01 0.0 0.0 0.0 0.01 0.0 0.0 0.0 0.01 0.01 0.0 0.0 0.0 0.01 0.0 0.0 0.0 0.01 0.01 0.0 0.0 0.0 0.01 0.0 0.0 0.0 0.01 0.01 0.0 0.0 0.0 0.01 0.0 0.0 0.0 0.01 0.01 0.0 0.0 0.0 0.01 0.0 0.0 0.0 0.01 0.01 0.0 0.0 0.0 0.01 0.0 0.0 0.0 0.01 0.01 0.0 0.0 0.0 0.01 0.0 0.0 0.0 0.01 0.01 0.0 0.0 0.0 0.01 0.0 0.0 0.0 0.01 0.01 0.0 0.0 0.0 0.01 0.0 0.0 0.0 0.01 0.01 0.0 0.0 0.0 0.01 0.0 0.0 0.0 0.01 0.01 0.0 0.0 0.0 0.01 0.0 0.0 0.0 0.01 0.01 0.0 0.0 0.0 0.01 0.0 0.0 0.0 0.01 0.01 0.0 0.0 0.0 0.01 0.0 0.0 0.0 0.01 0.01 0.0 0.0 0.0 0.01 0.0 0.0 0.0 0.01 0.01 0.0 0.0 0.0 0.01 0.0 0.0 0.0 0.01 0.01 0.0 0.0 0.0 0.01 0.0 0.0 0.0 0.01 0.01 0.0 0.0 0.0 0.01 0.0 0.0 0.0 0.01 0.01 0.0 0.0 0.0 0.01 0.0 0.0 0.0 0.01 0.01 0.0 0.0 0.0 0.01 0.0 0.0 0.0 0.01 0.01 0.0 0.0 0.0 0.01 0.0 0.0 0.0 0.01 0.01 0.0 0.0 0.0 0.01 0.0 0.0 0.0 0.01 0.01 0.0 0.0 0.0 0.01 0.0 0.0 0.0 0.01 0.01 0.0 0.0 0.0 0.01 0.0 0.0 0.0 0.01 0.01 0.0 0.0 0.0 0.01 0.0 0.0 0.0 0.01 0.01 0.0 0.0 0.0 0.01 0.0 0.0 0.0 0.01 0.01 0.0 0.0 0.0 0.01 0.0 0.0 0.0 0.01 0.01 0.0 0.0 0.0 0.01 0.0 0.0 0.0 0.01 0.01 0.0 0.0 0.0 0.01 0.0 0.0 0.0 0.01 0.01 0.0 0.0 0.0 0.01 0.0 0.0 0.0 0.01 0.01 0.0 0.0 0.0 0.01 0.0 0.0 0.0 0.01 0.01 0.0 0.0 0.0 0.01 0.0 0.0 0.0 0.01 0.01 0.0 0.0 0.0 0.01 0.0 0.0 0.0 0.01 0.01 0.0 0.0 0.0 0.01 0.0 0.0 0.0 0.01 0.01 0.0 0.0 0.0 0.01 0.0 0.0 0.0 0.01 0.01 0.0 0.0 0.0 0.01 0.0 0.0 0.0 0.01 0.01 0.0 0.0 0.0 0.01 0.0 0.0 0.0 0.01 0.01 0.0 0.0 0.0 0.01 0.0 0.0 0.0 0.01 0.01 0.0 0.0 0.0 0.01 0.0 0.0 0.0 0.01 0.01 0.0 0.0 0.0 0.01 0.0 0.0 0.0 0.01 0.01 0.0 0.0 0.0 0.01 0.0 0.0 0.0 0.01 0.01 0.0 0.0 0.0 0.01 0.0 0.0 0.0 0.01 0.01 0.0 0.0 0.0 0.01 0.0 0.0 0.0 0.01 0.01 0.0 0.0 0.0 0.01 0.0 0.0 0.0 0.01 0.01 0.0 0.0 0.0 0.01 0.0 0.0 0.0 0.01 0.01 0.0 0.0 0.0 0.01 0.0 0.0 0.0 0.01 0.01 0.0 0.0 0.0 0.01 0.0 0.0 0.0 0.01 0.01 0.0 0.0 0.0 0.01 0.0 0.0 0.0 0.01 0.01 0.0 0.0 0.0 0.01 0.0 0.0 0.0 0.01 0.01 0.0 0.0 0.0 0.01 0.0 0.0 0.0 0.01 0.01 0.0 0.0 0.0 0.01 0.0 0.0 0.0 0.01 0.01 0.0 0.0 0.0 0.01 0.0 0.0 0.0 0.01 0.01 0.0 0.0 0.0 0.01 0.0 0.0 0.0 0.01 0.01 0.0 0.0 0.0 0.01 0.0 0.0 0.0 0.01 0.01 0.0 0.0 0.0 0.01 0.0 0.0 0.0 0.01 0.01 0.0 0.0 0.0 0.01 0.0 0.0 0.0 0.01 0.01 0.0 0.0 0.0 0.01 0.0 0.0 0.0 0.01 0.01 0.0 0.0 0.0 0.01 0.0 0.0 0.0 0.01 0.01 0.0 0.0 0.0 0.01 0.0 0.0 0.0 0.01 0.01 0.0 0.0 0.0 0.01 0.0 0.0 0.0 0.01 0.01 0.0 0.0 0.0 0.01 0.0 0.0 0.0 0.01 0.01 0.0 0.0 0.0 0.01 0.0 0.0 0.0 0.01 0.01 0.0 0.0 0.0 0.01 0.0 0.0 0.0 0.01 0.01 0.0 0.0 0.0 0.01 0.0 0.0 0.0 0.01 0.01 0.0 0.0 0.0 0.01 0.0 0.0 0.0 0.01 0.01 0.0 0.0 0.0 0.01 0.0 0.0 0.0 0.01 0.01 0.0 0.0 0.0 0.01 0.0 0.0 0.0 0.01 0.01 0.0 0.0 0.0 0.01 0.0 0.0 0.0 0.01 0.01 0.0 0.0 0.0 0.01 0.0 0.0 0.0 0.01 0.01 0.0 0.0 0.0 0.01 0.0 0.0 0.0 0.01 0.01 0.0 0.0 0.0 0.01 0.0 0.0 0.0 0.01 0.01 0.0 0.0 0.0 0.01 0.0 0.0 0.0 0.01 0.01 0.0 0.0 0.0 0.01 0.0 0.0 0.0 0.01 0.01 0.0 0.0 0.0 0.01 0.0 0.0 0.0 0.01 0.01 0.0 0.0 0.0 0.01 0.0 0.0 0.0 0.01 0.01 0.0 0.0 0.0 0.01 0.0 0.0 0.0 0.01 0.01 0.0 0.0 0.0 0.01 0.0 0.0 0.0 0.01 0.01 0.0 0.0 0.0 0.01 0.0 0.0 0.0 0.01 0.01 0.0 0.0 0.0 0.01 0.0 0.0 0.0 0.01 0.01 0.0 0.0 0.0 0.01 0.0 0.0 0.0 0.01 0.01 0.0 0.0 0.0 0.01 0.0 0.0 0.0 0.01 0.01 0.0 0.0 0.0 0.01 0.0 0.0 0.0 0.01 0.01 0.0 0.0 0.0 0.01 0.0 0.0 0.0 0.01 0.01 0.0 0.0 0.0 0.01 0.0 0.0 0.0 0.01 0.01 0.0 0.0 0.0 0.01 0.0 0.0 0.0 0.01 0.01 0.0 0.0 0.0 0.01 0.0 0.0 0.0 0.01 0.01 0.0 0.0 0.0 0.01 0.0 0.0 0.0 0.01 0.01 0.0 0.0 0.0 0.01 0.0 0.0 0.0 0.01 0.01 0.0 0.0 0.0 0.01 0.0 0.0 0.0 0.01 0.01 0.0 0.0 0.0 0.01 0.0 0.0 0.0 0.01 0.01 0.0 0.0 0.0 0.01 0.0 0.0 0.0 0.01 0.01 0.0 0.0 0.0 0.01 0.0 0.0 0.0 0.01 0.01 0.0 0.0 0.0 0.01 0.0 0.0 0.0 0.01 0.01 0.0 0.0 0.0 0.01 0.0 0.0 0.0 0.01 0.01 0.0 0.0 0.0 0.01 0.0 0.0 0.0 0.01 0.01 0.0 0.0 0.0 0.01 0.0 0.0 0.0 0.01 0.01 0.0 0.0 0.0 0.01 0.0 0.0 0.0 0.01 0.01 0.0 0.0 0.0 0.01 0.0 0.0 0.0 0.01 0.01 0.0 0.0 0.0 0.01 0.0 0.0 0.0 0.01 0.01 0.0 0.0 0.0 0.01 0.0 0.0 0.0 0.01 0.01 0.0 0.0 0.0 0.01 0.0 0.0 0.0 0.01 0.01 0.0 0.0 0.0 0.01 0.0 0.0 0.0 0.01 0.01 0.0 0.0 0.0 0.01 0.0 0.0 0.0 0.01 0.01 0.0 0.0 0.0 0.01 0.0 0.0 0.0 0.01 0.01 0.0 0.0 0.0 0.01 0.0 0.0 0.0 0.01 0.01 0.0 0.0 0.0 0.01 0.0 0.0 0.0 0.01 0.01 0.0 0.0 0.0 0.01 0.0 0.0 0.0 0.01 0.01 0.0 0.0 0.0 0.01 0.0 0.0 0.0 0.01 0.01 0.0 0.0 0.0 0.01 0.0 0.0 0.0 0.01 0.01 0.0 0.0 0.0 0.01 0.0 0.0 0.0 0.01 0.01 0.0 0.0 0.0 0.01 0.0 0.0 0.0 0.01 0.01 0.0 0.0 0.0 0.01 0.0 0.0 0.0 0.01 0.01 0.0 0.0 0.0 0.01 0.0 0.0 0.0 0.01 0.01 0.0 0.0 0.0 0.01 0.0 0.0 0.0 0.01 0.01 0.0 0.0 0.0 0.01 0.0 0.0 0.0 0.01 0.01 0.0 0.0 0.0 0.01 0.0 0.0 0.0 0.01 0.01 0.0 0.0 0.0 0.01 0.0 0.0 0.0 0.01 0.01 0.0 0.0 0.0 0.01 0.0 0.0 0.0 0.01 0.01 0.0 0.0 0.0 0.01 0.0 0.0 0.0 0.01 0.01 0.0 0.0 0.0 0.01 0.0 0.0 0.0 0.01 0.01 0.0 0.0 0.0 0.01 0.0 0.0 0.0 0.01 0.01 0.0 0.0 0.0 0.01 0.0 0.0 0.0 0.01 0.01 0.0 0.0 0.0 0.01 0.0 0.0 0.0 0.01 0.01 0.0 0.0 0.0 0.01 0.0 0.0 0.0 0.01 0.01 0.0 0.0 0.0 0.01 0.0 0.0 0.0 0.01 0.01 0.0 0.0 0.0 0.01 0.0 0.0 0.0 0.01 0.01 0.0 0.0 0.0 0.01 0.0 0.0 0.0 0.01 0.01 0.0 0.0 0.0 0.01 0.0 0.0 0.0 0.01 0.01 0.0 0.0 0.0 0.01 0.0 0.0 0.0 0.01 0.01 0.0 0.0 0.0 0.01 0.0 0.0 0.0 0.01 0.01 0.0 0.0 0.0 0.01 0.0 0.0 0.0 0.01 0.01 0.0 0.0 0.0 0.01 0.0 0.0 0.0 0.01 0.01 0.0 0.0 0.0 0.01 0.0 0.0 0.0 0.01 0.01 0.0 0.0 0.0 0.01 0.0 0.0 0.0 0.01 0.01 0.0 0.0 0.0 0.01 0.0 0.0 0.0 0.01 0.01 0.0 0.0 0.0 0.01 0.0 0.0 0.0 0.01 0.01 0.0 0.0 0.0 0.01 0.0 0.0 0.0 0.01 0.01 0.0 0.0 0.0 0.01 0.0 0.0 0.0 0.01 0.01 0.0 0.0 0.0 0.01 0.0 0.0 0.0 0.01 0.01 0.0 0.0 0.0 0.01 0.0 0.0 0.0 0.01 0.01 0.0 0.0 0.0 0.01 0.0 0.0 0.0 0.01 0.01 0.0 0.0 0.0 0.01 0.0 0.0 0.0 0.01 0.01 0.0 0.0 0.0 0.01 0.0 0.0 0.0 0.01 0.01 0.0 0.0 0.0 0.01 0.0 0.0 0.0 0.01 0.01 0.0 0.0 0.0 0.01 0.0 0.0 0.0 0.01 0.01 0.0 0.0 0.0 0.01 0.0 0.0 0.0 0.01 0.01 0.0 0.0 0.0 0.01 0.0 0.0 0.0 0.01 0.01 0.0 0.0 0.0 0.01 0.0 0.0 0.0 0.01 0.01 0.0 0.0 0.0 0.01 0.0 0.0 0.0 0.01 0.01 0.0 0.0 0.0 0.01 0.0 0.0 0.0 0.01 0.01 0.0 0.0 0.0 0.01 0.0 0.0 0.0 0.01 0.01 0.0 0.0 0.0 0.01 0.0 0.0 0.0 0.01 0.01 0.0 0.0 0.0 0.01 0.0 0.0 0.0 0.01 0.01 0.0 0.0 0.0 0.01 0.0 0.0 0.0 0.01 0.01 0.0 0.0 0.0 0.01 0.0 0.0 0.0 0.01 0.01 0.0 0.0 0.0 0.01 0.0 0.0 0.0 0.01 0.01 0.0 0.0 0.0 0.01 0.0 0.0 0.0 0.01 0.01 0.0 0.0 0.0 0.01 0.0 0.0 0.0 0.01 0.01 0.0 0.0 0.0 0.01 0.0 0.0 0.0 0.01 0.01 0.0 0.0 0.0 0.01 0.0 0.0 0.0 0.01 0.01 0.0 0.0 0.0 0.01 0.0 0.0 0.0 0.01 0.01 0.0 0.0 0.0 0.01 0.0 0.0 0.0 0.01 0.01 0.0 0.0 0.0 0.01 0.0 0.0 0.0 0.01 0.01 0.0 0.0 0.0 0.01 0.0 0.0 0.0 0.01 0.01 0.0 0.0 0.0 0.01 0.0 0.0 0.0 0.01 0.01 0.0 0.0 0.0 0.01 0.0 0.0 0.0 0.01 0.01 0.0 0.0 0.0 0.01 0.0 0.0 0.0 0.01 0.01 0.0 0.0 0.0 0.01 0.0 0.0 0.0 0.01 0.01 0.0 0.0 0.0 0.01 0.0 0.0 0.0 0.01 0.01 0.0 0.0 0.0 0.01 0.0 0.0 0.0 0.01 0.01 0.0 0.0 0.0 0.01 0.0 0.0 0.0 0.01 0.01 0.0 0.0 0.0 0.01 0.0 0.0 0.0 0.01 0.01 0.0 0.0 0.0 0.01 0.0 0.0 0.0 0.01 0.01 0.0 0.0 0.0 0.01 0.0 0.0 0.0 0.01 0.01 0.0 0.0 0.0 0.01 0.0 0.0 0.0 0.01 0.01 0.0 0.0 0.0 0.01 0.0 0.0 0.0 0.01 0.01 0.0 0.0 0.0 0.01 0.0 0.0 0.0 0.01 0.01 0.0 0.0 0.0 0.01 0.0 0.0 0.0 0.01 0.01 0.0 0.0 0.0 0.01 0.0 0.0 0.0 0.01 0.01 0.0 0.0 0.0 0.01 0.0 0.0 0.0 0.01 0.01 0.0 0.0 0.0 0.01 0.0 0.0 0.0 0.01 0.01 0.0 0.0 0.0 0.01 0.0 0.0 0.0 0.01 0.01 0.0 0.0 0.0 0.01 0.0 0.0 0.0 0.01 0.01 0.0 0.0 0.0 0.01 0.0 0.0 0.0 0.01 0.01 0.0 0.0 0.0 0.01 0.0 0.0 0.0 0.01 0.01 0.0 0.0 0.0 0.01 0.0 0.0 0.0 0.01 0.01 0.0 0.0 0.0 0.01 0.0 0.0 0.0 0.01 0.01 0.0 0.0 0.0 0.01 0.0 0.0 0.0 0.01 0.01 0.0 0.0 0.0 0.01 0.0 0.0 0.0 0.01 0.01 0.0 0.0 0.0 0.01 0.0 0.0 0.0 0.01 0.01 0.0 0.0 0.0 0.01 0.0 0.0 0.0 0.01 0.01 0.0 0.0 0.0 0.01 0.0 0.0 0.0 0.01 0.01 0.0 0.0 0.0 0.01 0.0 0.0 0.0 0.01 0.01 0.0 0.0 0.0 0.01 0.0 0.0 0.0 0.01 0.01 0.0 0.0 0.0 0.01 0.0 0.0 0.0 0.01 0.01 0.0 0.0 0.0 0.01 0.0 0.0 0.0 0.01 0.01 0.0 0.0 0.0 0.01 0.0 0.0 0.0 0.01 0.01 0.0 0.0 0.0 0.01 0.0 0.0 0.0 0.01 0.01 0.0 0.0 0.0 0.01 0.0 0.0 0.0 0.01 0.01 0.0 0.0 0.0 0.01 0.0 0.0 0.0 0.01 0.01 0.0 0.0 0.0 0.01 0.0 0.0 0.0 0.01 0.01 0.0 0.0 0.0 0.01 0.0 0.0 0.0 0.01 0.01 0.0 0.0 0.0 0.01 0.0 0.0 0.0 0.01 0.01 0.0 0.0 0.0 0.01 0.0 0.0 0.0 0.01 0.01 0.0 0.0 0.0 0.01 0.0 0.0 0.0 0.01 0.01 0.0 0.0 0.0 0.01 0.0 0.0 0.0 0.01 0.01 0.0 0.0 0.0 0.01 0.0 0.0 0.0 0.01 0.01 0.0 0.0 0.0 0.01 0.0 0.0 0.0 0.01 0.01 0.0 0.0 0.0 0.01 0.0 0.0 0.0 0.01 0.01 0.0 0.0 0.0 0.01 0.0 0.0 0.0 0.01 0.01 0.0 0.0 0.0 0.01 0.0 0.0 0.0 0.01 0.01 0.0 0.0 0.0 0.01 0.0 0.0 0.0 0.01 0.01 0.0 0.0 0.0 0.01 0.0 0.0 0.0 0.01 0.01 0.0 0.0 0.0 0.01 0.0 0.0 0.0 0.01 0.01 0.0 0.0 0.0 0.01 0.0 0.0 0.0 0.01 0.01 0.0 0.0 0.0 0.01 0.0 0.0 0.0 0.01 0.01 0.0 0.0 0.0 0.01 0.0 0.0 0.0 0.01 0.01 0.0 0.0 0.0 0.01 0.0 0.0 0.0 0.01 0.01 0.0 0.0 0.0 0.01 0.0 0.0 0.0 0.01 0.01 0.0 0.0 0.0 0.01 0.0 0.0 0.0 0.01 0.01 0.0 0.0 0.0 0.01 0.0 0.0 0.0 0.01 0.01 0.0 0.0 0.0 0.01 0.0 0.0 0.0 0.01 0.01 0.0 0.0 0.0 0.01 0.0 0.0 0.0 0.01 0.01 0.0 0.0 0.0 0.01 0.0 0.0 0.0 0.01 0.01 0.0 0.0 0.0 0.01 0.0 0.0 0.0 0.01 0.01 0.0 0.0 0.0 0.01 0.0 0.0 0.0 0.01 0.01 0.0 0.0 0.0 0.01 0.0 0.0 0.0 0.01 0.01 0.0 0.0 0.0 0.01 0.0 0.0 0.0 0.01 0.01 0.0 0.0 0.0 0.01 0.0 0.0 0.0 0.01 0.01 0.0 0.0 0.0 0.01 0.0 0.0 0.0 0.01 0.01 0.0 0.0 0.0 0.01 0.0 0.0 0.0 0.01 0.01 0.0 0.0 0.0 0.01 0.0 0.0 0.0 0.01 0.01 0.0 0.0 0.0 0.01 0.0 0.0 0.0 0.01 0.01 0.0 0.0 0.0 0.01 0.0 0.0 0.0 0.01 0.01 0.0 0.0 0.0 0.01 0.0 0.0 0.0 0.01 0.01 0.0 0.0 0.0 0.01 0.0 0.0 0.0 0.01 0.01 0.0 0.0 0.0 0.01 0.0 0.0 0.0 0.01 0.01 0.0 0.0 0.0 0.01 0.0 0.0 0.0 0.01 0.01 0.0 0.0 0.0 0.01 0.0 0.0 0.0 0.01 0.009999606023283873 0.0 1.5136637906230854e-13 0.0 0.01 0.0 1.5136637906313572e-13 0.0 0.009999968500148839 0.009999504536824999 0.0 5.5883921672535733e-14 0.0 0.01 0.0 5.5883921672535733e-14 0.0 0.00999998750002344 0.009999419550542147 0.0 3.0015077022639454e-15 0.0 0.01 0.0 3.0015077022639454e-15 0.0 0.010000003900002281 0.0099993520629788 0.0 -8.093386246079974e-15 0.0 0.01 0.0 -8.093386246079974e-15 0.0 0.010000018050048872 0.009999303572758392 0.0 -1.890671128552487e-15 0.0 0.01 0.0 -1.890671128552487e-15 0.0 0.010000025400096774 0.009999641019330995 0.0 1.9936893436177165e-13 0.0 0.01 0.0 1.9936893436259883e-13 0.0 0.009999943000487347 0.009999513535499459 0.0 7.126700739336035e-14 0.0 0.01 0.0 7.126700739356715e-14 0.0 0.009999961000228147 0.00999939455498899 0.0 -4.333468290599908e-14 0.0 0.01 0.0 -4.3334682905895684e-14 0.0 0.00999998450003604 0.009999294074756604 0.0 -8.676691651059073e-14 0.0 0.01 0.0 -8.676691651038394e-14 0.0 0.010000007300007996 0.009999215592303974 0.0 -7.54328659828935e-14 0.0 0.01 0.0 -7.54328659826867e-14 0.0 0.010000025400096778 0.009999159106077285 0.0 -4.2838115436858285e-14 0.0 0.01 0.0 -4.2838115436858285e-14 0.0 0.010000035150185332 0.009999572027475642 0.0 1.97744363470709e-13 0.0 0.01 0.0 1.977443634698818e-13 0.0 0.009999930000734993 0.009999424549675276 0.0 8.078353186085612e-14 0.0 0.01 0.0 8.078353186126971e-14 0.0 0.009999953000331348 0.009999286576353256 0.0 -4.414318355613539e-14 0.0 0.01 0.0 -4.414318355613539e-14 0.0 0.009999983000043348 0.009999172602699273 0.0 -1.047288846005121e-13 0.0 0.01 0.0 -1.047288846005121e-13 0.0 0.010000010750017335 0.009999085125564602 0.0 -9.93409913747091e-14 0.0 0.01 0.0 -9.93409913747091e-14 0.0 0.010000031250146485 0.009999026642132279 0.0 -6.324832158849834e-14 0.0 0.01 0.0 -6.324832158849834e-14 0.0 0.010000043450283191 0.009999498037797441 0.0 4.600638363519237e-12 0.0 0.01 0.0 4.600638363519237e-12 0.0 0.009999920000959988 0.009999327067931732 0.0 1.415361030106412e-12 0.0 0.01 0.0 1.4153610301097208e-12 0.0 0.009999948000405597 0.009999170603196269 0.0 1.6672995219818604e-13 0.0 0.01 0.0 1.6672995219859963e-13 0.0 0.009999982500045936 0.009999042137642623 0.0 3.656475284751424e-14 0.0 0.01 0.0 3.656475284751424e-14 0.0 0.010000014150030033 0.0099989476661343 0.0 -2.8317040380349856e-14 0.0 0.01 0.0 -2.8317040380349856e-14 0.0 0.010000038100217747 0.009998885186449105 0.0 -3.923850317331412e-14 0.0 0.01 0.0 -3.923850317336582e-14 0.0 0.01000005125039399 0.00999940455318779 0.0 4.5710434102866847e-10 0.0 0.01 0.0 4.5710434102866847e-10 0.0 0.009999911501174854 0.009999205594672014 0.0 2.558613144792966e-10 0.0 0.01 0.0 2.558613144792966e-10 0.0 0.009999943500478845 0.009999031140821407 0.0 8.869361904573759e-11 0.0 0.01 0.0 8.869361904573759e-11 0.0 0.009999983500040839 0.009998889185113874 0.0 9.821977794661631e-12 0.0 0.01 0.0 9.821977794674866e-12 0.0 0.010000018050048872 0.009998788720115396 0.0 1.7632625715070838e-13 0.0 0.01 0.0 1.7632625715070838e-13 0.0 0.010000043450283191 0.009998725743600792 0.0 4.8076359189548724e-14 0.0 0.01 0.0 4.8076359189548724e-14 0.0 0.010000056150472928 0.009999268080366323 0.0 4.104200573796721e-09 0.0 0.01 0.0 4.104200573810273e-09 0.0 0.009999905001356254 0.009999046136496709 0.0 2.595131178161525e-09 0.0 0.01 0.0 2.595131178158137e-09 0.0 0.009999940500532042 0.009998849698509686 0.0 1.193737818779028e-09 0.0 0.01 0.0 1.193737818779028e-09 0.0 0.009999984500036248 0.00999869925383513 0.0 3.274825911465984e-10 0.0 0.01 0.0 3.274825911465984e-10 0.0 0.010000022450075616 0.009998595795823791 0.0 3.6407376149684966e-11 0.0 0.01 0.0 3.6407376149737906e-11 0.0 0.010000048350350663 0.009998529824276065 0.0 1.9991739390287183e-13 0.0 0.01 0.0 1.9991739390287183e-13 0.0 0.010000061500567344 0.009999052134830417 0.0 1.7533749940455354e-08 0.0 0.01 0.0 1.753374994042825e-08 0.0 0.009999898001606692 0.009998808712930116 0.0 1.1988433698290491e-08 0.0 0.01 0.0 1.1988433698317596e-08 0.0 0.009999939000579706 0.009998608790378921 0.0 6.013519579783086e-09 0.0 0.01 0.0 6.013519579783086e-09 0.0 0.009999987500028862 0.009998458856342438 0.0 2.0803439772489133e-09 0.0 0.01 0.0 2.0803439772472193e-09 0.0 0.010000027850116994 0.00999835540579252 0.0 4.1236787617394965e-10 0.0 0.01 0.0 4.1236787617437317e-10 0.0 0.010000055200457086 0.009998295435929876 0.0 2.8697442472560605e-11 0.0 0.01 0.0 2.8697442472560605e-11 0.0 0.010000067850690552 0.00999870575170972 0.0 5.192390542611272e-08 0.0 0.01 0.0 5.192390542611272e-08 0.0 0.009999888002286047 0.009998456357697721 0.0 3.645315517660213e-08 0.0 0.01 0.0 3.645315517660213e-08 0.0 0.00999993500083311 0.00999827394704583 0.0 1.899417255295558e-08 0.0 0.01 0.0 1.899417255295558e-08 0.0 0.009999990500067668 0.009998146015723849 0.0 7.1692816317844746e-09 0.0 0.01 0.0 7.1692816317844746e-09 0.0 0.010000036150203733 0.009998061064067176 0.0 1.7658370336553537e-09 0.0 0.01 0.0 1.7658370336536596e-09 0.0 0.010000063950613916 0.009998010593818059 0.0 2.2015202715593598e-10 0.0 0.01 0.0 2.2015202715572422e-10 0.0 0.010000076150869838 0.00999817700079978 0.0 1.2051499910178693e-07 0.0 0.01 0.0 1.205149991016785e-07 0.0 0.00999987650446689 0.009997956127840322 0.0 8.39412454799464e-08 0.0 0.01 0.0 8.39412454799464e-08 0.0 0.009999931501761037 0.009997828707671803 0.0 4.3991688228496714e-08 0.0 0.01 0.0 4.3991688228496714e-08 0.0 0.009999999500290414 0.009997752258122926 0.0 1.7160630614736e-08 0.0 0.01 0.0 1.7160630614708895e-08 0.0 0.010000051750445901 0.009997700793199218 0.0 4.66806941292627e-09 0.0 0.01 0.0 4.66806941292627e-09 0.0 0.010000082501024223 0.009997673811924545 0.0 7.447423722135292e-10 0.0 0.01 0.0 7.447423722139527e-10 0.0 0.010000092751290487 0.009997447984857757 0.0 2.2513280214673994e-07 0.0 0.01 0.0 2.2513280214684836e-07 0.0 0.009999850010980181 0.009997306592093823 0.0 1.5347989741631724e-07 0.0 0.01 0.0 1.5347989741631724e-07 0.0 0.009999926504345003 0.009997277613058407 0.0 7.939150391375778e-08 0.0 0.01 0.0 7.939150391375778e-08 0.0 0.010000015600982296 0.00999727561389234 0.0 3.116884133296416e-08 0.0 0.01 0.0 3.1168841332977716e-08 0.0 0.01000008250116673 0.009997274614575655 0.0 8.863671936137495e-09 0.0 0.01 0.0 8.863671936137495e-09 0.0 0.010000113751952687 0.009997278611297077 0.0 1.5913592757276567e-09 0.0 0.01 0.0 1.5913592757276567e-09 0.0 0.010000121102200204 0.009996604247087355 0.0 3.3284329567636814e-07 0.0 0.01 0.0 3.328432956761513e-07 0.0 0.009999796022867302 0.009996578764037535 0.0 2.2362224118331695e-07 0.0 0.01 0.0 2.2362224118331695e-07 0.0 0.009999918008513025 0.009996656679358115 0.0 1.1371689939525254e-07 0.0 0.01 0.0 1.1371689939530675e-07 0.0 0.010000048852298549 0.009996732602376568 0.0 4.4369552963929035e-08 0.0 0.01 0.0 4.436955296390193e-08 0.0 0.010000133802980857 0.009996784052038308 0.0 1.2811363634684264e-08 0.0 0.01 0.0 1.2811363634684264e-08 0.0 0.01000017185445462 0.009996819517964476 0.0 2.4228127470918748e-09 0.0 0.01 0.0 2.4228127470910278e-09 0.0 0.010000172854482578 0.009995853603421017 0.0 3.9223872724423667e-07 0.0 0.01 0.0 3.9223872724423667e-07 0.0 0.009999798029210687 0.009995881056326247 0.0 2.590008922661452e-07 0.0 0.01 0.0 2.590008922661452e-07 0.0 0.009999936510672556 0.009996023375816834 0.0 1.2974063560549634e-07 0.0 0.01 0.0 1.2974063560549634e-07 0.0 0.01000011330445181 0.00999614572983017 0.0 4.995513067698179e-08 0.0 0.01 0.0 4.995513067695468e-08 0.0 0.010000224107907926 0.00999623362893265 0.0 1.4353610808098534e-08 0.0 0.01 0.0 1.4353610808098534e-08 0.0 0.010000259760151864 0.009996297057784221 0.0 2.7272522413825353e-09 0.0 0.01 0.0 2.7272522413825353e-09 0.0 0.01000024950933904 0.009995228438644333 0.0 3.765994864414566e-07 0.0 0.01 0.0 3.76599486441565e-07 0.0 0.010000197777153714 0.009995247898239383 0.0 2.4097393607923e-07 0.0 0.01 0.0 2.4097393607912156e-07 0.0 0.010000138661599468 0.009995388693671954 0.0 1.1790715475227588e-07 0.0 0.01 0.0 1.1790715475227588e-07 0.0 0.01000026366251377 0.009995521510622975 0.0 4.4353028661955635e-08 0.0 0.01 0.0 4.435302866196919e-08 0.0 0.010000362820040022 0.009995623874271633 0.0 1.2418104661656934e-08 0.0 0.01 0.0 1.2418104661656934e-08 0.0 0.010000386272402946 0.009995703770226119 0.0 2.256366228268889e-09 0.0 0.01 0.0 2.256366228268889e-09 0.0 0.010000358919323302 0.009994608874451394 0.0 2.7886302354801105e-07 0.0 0.01 0.0 2.7886302354806526e-07 0.0 0.010000753046724098 0.009994619350487377 0.0 1.7616286062153378e-07 0.0 0.01 0.0 1.7616286062153378e-07 0.0 0.010000527896455946 0.009994728672029364 0.0 8.41328808828866e-08 0.0 0.01 0.0 8.41328808828866e-08 0.0 0.010000515640942443 0.009994845488229657 0.0 3.054666686651687e-08 0.0 0.01 0.0 3.054666686652365e-08 0.0 0.010000559147033355 0.00999494583428225 0.0 8.086930954441591e-09 0.0 0.01 0.0 8.086930954439897e-09 0.0 0.010000550345438496 0.00999503869462683 0.0 1.3071436196914903e-09 0.0 0.01 0.0 1.3071436196910667e-09 0.0 0.010000496636995052 0.00999391556132791 0.0 1.5821746327269797e-07 0.0 0.01 0.0 1.5821746327269797e-07 0.0 0.010001184314113547 0.009993923544460393 0.0 9.901961134205087e-08 0.0 0.01 0.0 9.901961134207798e-08 0.0 0.010000929331003928 0.009994001901214538 0.0 4.594000850875269e-08 0.0 0.01 0.0 4.594000850875269e-08 0.0 0.010000812599353686 0.009994095234096816 0.0 1.5731299560325685e-08 0.0 0.01 0.0 1.5731299560322297e-08 0.0 0.010000787693096432 0.009994192063741745 0.0 3.7218324612450792e-09 0.0 0.01 0.0 3.7218324612442322e-09 0.0 0.010000738381775174 0.009994292390242774 0.0 4.6480672162035794e-10 0.0 0.01 0.0 4.6480672162025206e-10 0.0 0.010000655314409952 0.009993116115412481 0.0 6.838152011655167e-08 0.0 0.01 0.0 6.838152011652456e-08 0.0 0.010001472976086652 0.009993124098471426 0.0 4.1676810340555005e-08 0.0 0.01 0.0 4.1676810340555005e-08 0.0 0.010001244382495333 0.009993176989428856 0.0 1.819604164343802e-08 0.0 0.01 0.0 1.8196041643441408e-08 0.0 0.010001091478722562 0.00999325483074381 0.0 5.561418078327691e-09 0.0 0.01 0.0 5.561418078327691e-09 0.0 0.010001018205494898 0.00999334864197479 0.0 1.0353507259150524e-09 0.0 0.01 0.0 1.0353507259152642e-09 0.0 0.010000932730481856 0.009993454432281933 0.0 6.804168033828021e-11 0.0 0.01 0.0 6.804168033830668e-11 0.0 0.010000828703000921 0.009992189160986443 0.0 2.0885589157270524e-08 0.0 0.01 0.0 2.0885589157273912e-08 0.0 0.010001671318968184 0.009992200634035157 0.0 1.1752142525559245e-08 0.0 0.01 0.0 1.1752142525560939e-08 0.0 0.010001474926267694 0.009992242536085666 0.0 4.492399639889958e-09 0.0 0.01 0.0 4.492399639889958e-09 0.0 0.010001327914459728 0.009992310877491669 0.0 1.0460038919383783e-09 0.0 0.01 0.0 1.0460038919381665e-09 0.0 0.010001237029498603 0.009992402666699613 0.0 9.772037141974731e-11 0.0 0.01 0.0 9.772037141973407e-11 0.0 0.010001133992861816 0.009992517406766956 0.0 -2.8189518044269596e-12 0.0 0.01 0.0 -2.8189518044261324e-12 0.0 0.010001011853556428 0.009991136797396263 0.0 3.202978324033121e-09 0.0 0.01 0.0 3.202978324033121e-09 0.0 0.010001834504689208 0.009991151757579593 0.0 1.4917137982146423e-09 0.0 0.01 0.0 1.4917137982146423e-09 0.0 0.010001661564027863 0.009991188160975682 0.0 3.706329385495225e-10 0.0 0.01 0.0 3.7063293854957546e-10 0.0 0.010001534052925589 0.009991252989927143 0.0 8.27947343038853e-12 0.0 0.01 0.0 8.279473430386876e-12 0.0 0.010001446113626224 0.009991346246093692 0.0 -1.1266359360445893e-11 0.0 0.01 0.0 -1.1266359360445893e-11 0.0 0.010001336717974483 0.009991468430584623 0.0 -2.5657260501163388e-12 0.0 0.01 0.0 -2.5657260501167524e-12 0.0 0.010001206768408356 0.009989952662659025 0.0 -1.379350484969509e-11 0.0 0.01 0.0 -1.3793504849696745e-11 0.0 0.010002007454319173 0.009989963131058157 0.0 -7.954977546737496e-11 0.0 0.01 0.0 -7.95497754673882e-11 0.0 0.010001850113311265 0.009989998025959604 0.0 -6.59286780348053e-11 0.0 0.01 0.0 -6.59286780348053e-11 0.0 0.010001742655421366 0.00999005884366186 0.0 -3.3480055383935994e-11 0.0 0.01 0.0 -3.34800553839393e-11 0.0 0.01000166496572434 0.009990156054590896 0.0 -1.180032162673761e-11 0.0 0.01 0.0 -1.180032162674092e-11 0.0 0.010001550660607688 0.009990287169210557 0.0 -2.413248049675203e-12 0.0 0.01 0.0 -2.413248049675203e-12 0.0 0.010001407547122572 0.009988598030425082 0.0 -7.926708877381014e-11 0.0 0.01 0.0 -7.926708877381014e-11 0.0 0.010002218488035064 0.009988604508222882 0.0 -1.093374748600071e-10 0.0 0.01 0.0 -1.0933747486003357e-10 0.0 0.010002066090132919 0.009988635402508866 0.0 -7.900108484526595e-11 0.0 0.01 0.0 -7.900108484525933e-11 0.0 0.010001972733598175 0.009988702673316774 0.0 -3.878021511851303e-11 0.0 0.01 0.0 -3.878021511851303e-11 0.0 0.01000190239272705 0.009988810807759985 0.0 -1.2951710981755036e-11 0.0 0.01 0.0 -1.2951710981755036e-11 0.0 0.010001781225801802 0.009988960806511665 0.0 -2.354512915792766e-12 0.0 0.01 0.0 -2.354512915792766e-12 0.0 0.010001625896444941 0.009987026789368953 0.0 -9.93827746313262e-11 0.0 0.01 0.0 -9.938277463135267e-11 0.0 0.010002484325474398 0.00998703924080579 0.0 -1.3685274331649154e-10 0.0 0.01 0.0 -1.3685274331650477e-10 0.0 0.010002324560285934 0.00998707858765229 0.0 -9.710832946450157e-11 0.0 0.01 0.0 -9.71083294645148e-11 0.0 0.010002235599462343 0.00998716226350486 0.0 -4.629796494324018e-11 0.0 0.01 0.0 -4.629796494324018e-11 0.0 0.010002165253045142 0.009987292264090654 0.0 -1.465514211023441e-11 0.0 0.01 0.0 -1.4655142110236064e-11 0.0 0.010002032369410961 0.00998747158357392 0.0 -2.323495582577521e-12 0.0 0.01 0.0 -2.323495582577728e-12 0.0 0.01000185646684244 0.009985204401358907 0.0 -1.203579746037606e-10 0.0 0.01 0.0 -1.203579746037606e-10 0.0 0.01000279952516251 0.009985235264106414 0.0 -1.7141947449321255e-10 0.0 0.01 0.0 -1.7141947449322578e-10 0.0 0.010002627985583365 0.009985304457435184 0.0 -1.20855319308983e-10 0.0 0.01 0.0 -1.2085531930896977e-10 0.0 0.01000253321224963 0.009985417957520995 0.0 -5.639105338656715e-11 0.0 0.01 0.0 -5.6391053386573766e-11 0.0 0.010002453052324724 0.009985589708431268 0.0 -1.713662664909577e-11 0.0 0.01 0.0 -1.713662664909908e-11 0.0 0.010002301094011429 0.009985809761678824 0.0 -2.456958211868897e-12 0.0 0.01 0.0 -2.456958211868897e-12 0.0 0.010002105164571142 0.009983104913249568 0.0 -1.3749534301871615e-10 0.0 0.01 0.0 -1.3749534301871615e-10 0.0 0.010003175812227141 0.009983176052222285 0.0 -2.1355832116530289e-10 0.0 0.01 0.0 -2.1355832116527642e-10 0.0 0.010002979831380283 0.00998329296222891 0.0 -1.5198620047898973e-10 0.0 0.01 0.0 -1.5198620047896326e-10 0.0 0.010002862578684543 0.00998346311093874 0.0 -7.051512047983099e-11 0.0 0.01 0.0 -7.051512047983099e-11 0.0 0.010002761893787383 0.0099836919796492 0.0 -2.1251370629289445e-11 0.0 0.01 0.0 -2.125137062928779e-11 0.0 0.010002586953503124 0.00998397360927124 0.0 -3.1247281304105814e-12 0.0 0.01 0.0 -3.1247281304105814e-12 0.0 0.01000236363775349 0.009980721393350832 0.0 -1.4540684906644442e-10 0.0 0.01 0.0 -1.454068490664312e-10 0.0 0.01000360890268716 0.009980861085255801 0.0 -2.659803600164029e-10 0.0 0.01 0.0 -2.659803600164029e-10 0.0 0.010003366949689485 0.009981051990439901 0.0 -1.9485288383870122e-10 0.0 0.01 0.0 -1.9485288383870122e-10 0.0 0.010003201236531449 0.009981305056123053 0.0 -9.207697352149181e-11 0.0 0.01 0.0 -9.207697352149181e-11 0.0 0.010003077570132935 0.009981617313002024 0.0 -2.897363922369e-11 0.0 0.01 0.0 -2.897363922369e-11 0.0 0.01000287964337449 0.009981978831692323 0.0 -5.271145342637603e-12 0.0 0.01 0.0 -5.271145342637603e-12 0.0 0.010002630937911048 0.009978096177373037 0.0 -1.401590235065086e-10 0.0 0.01 0.0 -1.401590235065086e-10 0.0 0.010004088455954706 0.009978335605810431 0.0 -3.360918337563375e-10 0.0 0.01 0.0 -3.3609183375631103e-10 0.0 0.010003760920615171 0.009978636157601467 0.0 -2.587144047880299e-10 0.0 0.01 0.0 -2.5871440478804314e-10 0.0 0.010003523361236768 0.009978999836740308 0.0 -1.2753403909283028e-10 0.0 0.01 0.0 -1.275340390928369e-10 0.0 0.01000338992295787 0.00997942219165074 0.0 -4.3931064636274995e-11 0.0 0.01 0.0 -4.3931064636278304e-11 0.0 0.010003178264563007 0.009979881874110719 0.0 -1.0776406932926549e-11 0.0 0.01 0.0 -1.0776406932925721e-11 0.0 0.010002908968822803 0.009975370293110596 0.0 -1.2332983963160264e-10 0.0 0.01 0.0 -1.2332983963159602e-10 0.0 0.010004581746938218 0.009975740564443837 0.0 -4.407347365735892e-10 0.0 0.01 0.0 -4.4073473657361567e-10 0.0 0.010004123148652072 0.009976178391522454 0.0 -3.618173358230051e-10 0.0 0.01 0.0 -3.618173358230051e-10 0.0 0.010003801967144524 0.009976677842902622 0.0 -1.8883245256916303e-10 0.0 0.01 0.0 -1.8883245256916303e-10 0.0 0.010003696398494641 0.009977229014484416 0.0 -7.21144894240234e-11 0.0 0.01 0.0 -7.211448942402671e-11 0.0 0.01000349302933608 0.009977799647786029 0.0 -2.263352531149041e-11 0.0 0.01 0.0 -2.2633525311492065e-11 0.0 0.010003210044997046 0.009972808311662522 0.0 -1.0730882362283708e-10 0.0 0.01 0.0 -1.0730882362283708e-10 0.0 0.010005042862005351 0.009973327097355216 0.0 -6.135507894046539e-10 0.0 0.01 0.0 -6.135507894046539e-10 0.0 0.010004411116977325 0.009973920874020986 0.0 -5.402479169454051e-10 0.0 0.01 0.0 -5.402479169453787e-10 0.0 0.010004039546372603 0.009974566360596487 0.0 -2.9882094109860676e-10 0.0 0.01 0.0 -2.9882094109862e-10 0.0 0.010004031236320394 0.009975248201951677 0.0 -1.2331362105299188e-10 0.0 0.01 0.0 -1.2331362105299188e-10 0.0 0.01000386208620492 0.009975928197561662 0.0 -4.406040109103435e-11 0.0 0.01 0.0 -4.4060401091037656e-11 0.0 0.010003580522103137 0.009970834591150479 0.0 -1.1701851037501004e-10 0.0 0.01 0.0 -1.1701851037501004e-10 0.0 0.010005417949948612 0.009971491376303826 0.0 -9.103990477558675e-10 0.0 0.01 0.0 -9.103990477558145e-10 0.0 0.010004604728577312 0.009972223658865142 0.0 -8.596694985722081e-10 0.0 0.01 0.0 -8.596694985722081e-10 0.0 0.010004283000043003 0.009972999747052957 0.0 -5.010492341741479e-10 0.0 0.01 0.0 -5.010492341741744e-10 0.0 0.010004474200980872 0.009973789410564296 0.0 -2.1510775001637094e-10 0.0 0.01 0.0 -2.1510775001637094e-10 0.0 0.010004375419970624 0.009974557925298144 0.0 -7.69671736775718e-11 0.0 0.01 0.0 -7.696717367757511e-11 0.0 0.010004090408348005 0.00997001837570497 0.0 -1.8693862456157045e-10 0.0 0.01 0.0 -1.8693862456156383e-10 0.0 0.010005686997615327 0.009970760246291944 0.0 -1.4069991801109455e-09 0.0 0.01 0.0 -1.4069991801108396e-09 0.0 0.010004764653126165 0.009971571686487747 0.0 -1.4186701371159614e-09 0.0 0.01 0.0 -1.4186701371159614e-09 0.0 0.010004643382148811 0.009972411093601414 0.0 -8.65007002085422e-10 0.0 0.01 0.0 -8.65007002085422e-10 0.0 0.010005142163559405 0.009973250216736505 0.0 -3.770184763525126e-10 0.0 0.01 0.0 -3.770184763524994e-10 0.0 0.010005142163559315 0.009974049862087365 0.0 -1.2266552302180436e-10 0.0 0.01 0.0 -1.2266552302180436e-10 0.0 0.010004850677078967 0.009971107698873494 0.0 -3.7671343579133943e-10 0.0 0.01 0.0 -3.767134357913262e-10 0.0 0.010005947201176467 0.009971819569663072 0.0 -2.2134339490479845e-09 0.0 0.01 0.0 -2.2134339490478786e-09 0.0 0.010005074159453621 0.009972585149606755 0.0 -2.3504919264224326e-09 0.0 0.01 0.0 -2.3504919264223267e-09 0.0 0.01000530061149657 0.00997336330626273 0.0 -1.480022519123158e-09 0.0 0.01 0.0 -1.480022519123158e-09 0.0 0.010006165347042479 0.009974131722494537 0.0 -6.453094795268972e-10 0.0 0.01 0.0 -6.453094795268972e-10 0.0 0.010006281814224692 0.009974869053110217 0.0 -1.82640725866082e-10 0.0 0.01 0.0 -1.8264072586608863e-10 0.0 0.0100059746001148 0.009974994604156021 0.0 -7.647914600126651e-10 0.0 0.01 0.0 -7.64791460012718e-10 0.0 0.010006521523998653 0.009975511745792299 0.0 -3.4814199166148918e-09 0.0 0.01 0.0 -3.4814199166148918e-09 0.0 0.010005907580808078 0.009976050313693013 0.0 -3.820247507387492e-09 0.0 0.01 0.0 -3.82024750738728e-09 0.0 0.010006467218333696 0.009976586982846068 0.0 -2.4569724572656125e-09 0.0 0.01 0.0 -2.4569724572655066e-09 0.0 0.010007601408436376 0.009977120262587541 0.0 -1.0671576138203777e-09 0.0 0.01 0.0 -1.0671576138203777e-09 0.0 0.010007845673539883 0.009977651641233617 0.0 -2.607777057040738e-10 0.0 0.01 0.0 -2.607777057040738e-10 0.0 0.010007532903153508 0.009982556249056529 0.0 -1.3671142684280545e-09 0.0 0.01 0.0 -1.3671142684279487e-09 0.0 0.010008157420681701 0.009982695023205784 0.0 -5.226308513559572e-09 0.0 0.01 0.0 -5.226308513559572e-09 0.0 0.010007912230616237 0.009982824849421234 0.0 -5.834409260722458e-09 0.0 0.01 0.0 -5.834409260722458e-09 0.0 0.010008283230436267 0.009982935280299966 0.0 -3.863700515123204e-09 0.0 0.01 0.0 -3.863700515123204e-09 0.0 0.010009427364545125 0.009983051684383982 0.0 -1.7048417804121185e-09 0.0 0.01 0.0 -1.7048417804121185e-09 0.0 0.01000979025863022 0.009983216348399018 0.0 -3.8842664699224664e-10 0.0 0.01 0.0 -3.8842664699224664e-10 0.0 0.010009512104828078 0.009994305368021619 0.0 -1.9625202119159255e-09 0.0 0.01 0.0 -1.9625202119161373e-09 0.0 0.0100115331212967 0.009993920049375526 0.0 -6.910736018449089e-09 0.0 0.01 0.0 -6.910736018449089e-09 0.0 0.010011535529617588 0.009993499344286902 0.0 -7.9861785861826e-09 0.0 0.01 0.0 -7.986178586183447e-09 0.0 0.010011353305414337 0.009993055241160573 0.0 -5.526977523702806e-09 0.0 0.01 0.0 -5.526977523702382e-09 0.0 0.010011710488263343 0.009992634146371113 0.0 -2.5668501627321924e-09 0.0 0.01 0.0 -2.566850162732404e-09 0.0 0.010011981448920201 0.009992302895940842 0.0 -6.361104122810136e-10 0.0 0.01 0.0 -6.361104122810136e-10 0.0 0.01001179523636767 0.010009912669697132 0.0 -1.8723967021947195e-09 0.0 0.01 0.0 -1.8723967021947195e-09 0.0 0.01001595952482744 0.010008956368135001 0.0 -7.492056362362723e-09 0.0 0.01 0.0 -7.492056362362723e-09 0.0 0.010016011523407517 0.010007950371232805 0.0 -9.33632012621775e-09 0.0 0.01 0.0 -9.33632012621775e-09 0.0 0.010015499360213795 0.010006927091053566 0.0 -6.901518375137012e-09 0.0 0.01 0.0 -6.901518375135318e-09 0.0 0.010014606640886716 0.010005948152874347 0.0 -3.4734334980745667e-09 0.0 0.01 0.0 -3.4734334980745667e-09 0.0 0.010014329089686922 0.010005100599765593 0.0 -1.0417504504098856e-09 0.0 0.01 0.0 -1.0417504504098856e-09 0.0 0.01001417608734186 0.010027766570697646 0.0 -7.039795208277288e-10 0.0 0.01 0.0 -7.039795208278347e-10 0.0 0.010019177576189366 0.010026371553227012 0.0 -5.982565870865693e-09 0.0 0.01 0.0 -5.982565870865693e-09 0.0 0.010019257133099391 0.01002489440210043 0.0 -8.802284367997752e-09 0.0 0.01 0.0 -8.802284367994363e-09 0.0 0.010018966925508964 0.010023419414205408 0.0 -7.172104385935461e-09 0.0 0.01 0.0 -7.172104385933767e-09 0.0 0.01001750927911229 0.01002201191594805 0.0 -3.982987166751666e-09 0.0 0.01 0.0 -3.982987166751666e-09 0.0 0.010016582154175386 0.010020750458999679 0.0 -1.4670677876533708e-09 0.0 0.01 0.0 -1.4670677876529472e-09 0.0 0.010016396187266813 0.010044840355503718 0.0 -2.0685108094131034e-09 0.0 0.01 0.0 -2.0685108094129975e-09 0.0 0.010020147625866555 0.010043378784111582 0.0 -3.8409519240217525e-09 0.0 0.01 0.0 -3.8409519240217525e-09 0.0 0.0100205121400181 0.010041768035551955 0.0 -6.502849172435073e-09 0.0 0.01 0.0 -6.50284917243465e-09 0.0 0.010021073728626107 0.01004014819381012 0.0 -6.005432930747581e-09 0.0 0.01 0.0 -6.0054329307471575e-09 0.0 0.010019742863575876 0.010038588416185434 0.0 -3.6787999457598533e-09 0.0 0.01 0.0 -3.6787999457598533e-09 0.0 0.010018501419008449 0.010037142413769365 0.0 -1.6052335775902232e-09 0.0 0.01 0.0 -1.6052335775900114e-09 0.0 0.010018240687295683 0.010057484599864153 0.0 -3.984925514764724e-09 0.0 0.01 0.0 -3.9849255147643005e-09 0.0 0.010019923634905286 0.010056449509710458 0.0 -5.576452385040553e-09 0.0 0.01 0.0 -5.576452385040553e-09 0.0 0.010020376561866856 0.010055220653472944 0.0 -5.273894117953504e-09 0.0 0.01 0.0 -5.273894117953504e-09 0.0 0.010021597617622478 0.010053907896990398 0.0 -4.181828891533347e-09 0.0 0.01 0.0 -4.181828891533559e-09 0.0 0.010020910152800048 0.01005257381357507 0.0 -2.6400453349344896e-09 0.0 0.01 0.0 -2.640045334934278e-09 0.0 0.010019817052069299 0.010051238280961475 0.0 -1.2861643611831487e-09 0.0 0.01 0.0 -1.2861643611830958e-09 0.0 0.010019570501131492 0.010063515090782758 0.0 -8.753282247565512e-10 0.0 0.01 0.0 -8.753282247565247e-10 0.0 0.010019696691493442 0.010063149328528776 0.0 -3.803553898425975e-09 0.0 0.01 0.0 -3.803553898425869e-09 0.0 0.010019836215604429 0.010062652775062462 0.0 -3.637911028085115e-09 0.0 0.01 0.0 -3.6379110280849033e-09 0.0 0.010020452223353708 0.010062006081848355 0.0 -2.5278881564081528e-09 0.0 0.01 0.0 -2.5278881564081528e-09 0.0 0.010020473855609568 0.010061194873417046 0.0 -1.469668330643691e-09 0.0 0.01 0.0 -1.469668330643691e-09 0.0 0.010020051850663124 0.010060203894757624 0.0 -7.294634698934513e-10 0.0 0.01 0.0 -7.294634698934513e-10 0.0 0.010020196772086312 0.010063490172027229 0.0 1.9071262548863476e-09 0.0 0.01 0.0 1.9071262548863476e-09 0.0 0.010019923634903463 0.0100637584278326 0.0 -7.612813682210805e-10 0.0 0.01 0.0 -7.61281368221054e-10 0.0 0.010019914782211481 0.010063970948135503 0.0 -1.2454606597634222e-09 0.0 0.01 0.0 -1.2454606597634222e-09 0.0 0.010019566578191457 0.010064007796550242 0.0 -8.928614370889644e-10 0.0 0.01 0.0 -8.928614370889909e-10 0.0 0.010020006177321007 0.010063766887616078 0.0 -5.000000411709607e-10 0.0 0.01 0.0 -5.000000411709739e-10 0.0 0.010020075442093974 0.010063201555998328 0.0 -2.5182221038835694e-10 0.0 0.01 0.0 -2.518222103883503e-10 0.0 0.010020492016751061 0.010059799756481894 0.0 1.6053704318695542e-09 0.0 0.01 0.0 1.6053704318695542e-09 0.0 0.010020518076402567 0.01006052804488188 0.0 3.9881170778727383e-10 0.0 0.01 0.0 3.9881170778728706e-10 0.0 0.010020456650406887 0.01006124060307799 0.0 -3.466204882074381e-11 0.0 0.01 0.0 -3.466204882074381e-11 0.0 0.01001940056158143 0.010061763839596583 0.0 -8.168964044354417e-11 0.0 0.01 0.0 -8.168964044354417e-11 0.0 0.010019907438519183 0.010061959781460886 0.0 -4.6540915585958377e-11 0.0 0.01 0.0 -4.6540915585958377e-11 0.0 0.010020154014330632 0.010061740971120548 0.0 -2.3989233111411874e-11 0.0 0.01 0.0 -2.398923311141022e-11 0.0 0.010020647773983298 0.010055067751616704 0.0 2.7963199143452657e-10 0.0 0.01 0.0 2.7963199143452657e-10 0.0 0.010021201535667087 0.010056033366604208 0.0 1.7485202459874905e-10 0.0 0.01 0.0 1.7485202459875567e-10 0.0 0.010021204957340284 0.010056984866524166 0.0 8.848710687659922e-11 0.0 0.01 0.0 8.848710687659922e-11 0.0 0.010019820019642446 0.010057742404922042 0.0 4.179518448812405e-11 0.0 0.01 0.0 4.1795184488122393e-11 0.0 0.010020155523418572 0.01005815672514298 0.0 2.091359277761599e-11 0.0 0.01 0.0 2.0913592777616817e-11 0.0 0.010020327412996423 0.010058126453206404 0.0 1.083390695146752e-11 0.0 0.01 0.0 1.0833906951467933e-11 0.0 0.010020742560039896 0.010050945793246816 0.0 -9.493713043798337e-11 0.0 0.01 0.0 -9.493713043798337e-11 0.0 0.010021744568870694 0.010051933530420649 0.0 -1.4903899754801108e-10 0.0 0.01 0.0 -1.4903899754801108e-10 0.0 0.010021865959506647 0.010052885848029491 0.0 -1.4260806162630308e-10 0.0 0.01 0.0 -1.4260806162630308e-10 0.0 0.010020501374054129 0.010053639970826181 0.0 -1.0857593710460911e-10 0.0 0.01 0.0 -1.085759371046025e-10 0.0 0.010020580962497997 0.010054057747831826 0.0 -6.839666735764654e-11 0.0 0.01 0.0 -6.839666735764654e-11 0.0 0.010020517573318193 0.010054033458226776 0.0 -3.3262393383468604e-11 0.0 0.01 0.0 -3.326239338346695e-11 0.0 0.010020774508175664 0.01004770936855003 0.0 1.3097276368910136e-10 0.0 0.01 0.0 1.3097276368909474e-10 0.0 0.010021729823127903 0.010048548062490404 0.0 -4.3120671963534577e-10 0.0 0.01 0.0 -4.3120671963537224e-10 0.0 0.010021994702820182 0.010049319984456535 0.0 -5.134616691541795e-10 0.0 0.01 0.0 -5.134616691541795e-10 0.0 0.010020845751103317 0.010049892419530134 0.0 -3.8351476337846056e-10 0.0 0.01 0.0 -3.835147633784341e-10 0.0 0.010020817777004212 0.010050137764293043 0.0 -2.2145113934677382e-10 0.0 0.01 0.0 -2.2145113934677382e-10 0.0 0.010020558826457249 0.010049966264687897 0.0 -9.949930884702928e-11 0.0 0.01 0.0 -9.949930884704252e-11 0.0 0.010020679670901648 0.010044642878412856 0.0 -5.032550684109136e-11 0.0 0.01 0.0 -5.032550684109798e-11 0.0 0.01002124083480121 0.010045216440442721 0.0 -1.0438836020312795e-09 0.0 0.01 0.0 -1.0438836020312266e-09 0.0 0.010021627108002033 0.010045690648431176 0.0 -1.1446290810928487e-09 0.0 0.01 0.0 -1.1446290810929017e-09 0.0 0.010020732749256574 0.010045952515440161 0.0 -8.221480900363067e-10 0.0 0.01 0.0 -8.221480900363596e-10 0.0 0.010020711618436005 0.010045897565264271 0.0 -4.450344156414686e-10 0.0 0.01 0.0 -4.450344156414686e-10 0.0 0.010020362325217715 0.01004546098673177 0.0 -1.8080735521178452e-10 0.0 0.01 0.0 -1.8080735521178452e-10 0.0 0.010020396684431507 0.010040816899766457 0.0 -8.771089017707937e-10 0.0 0.01 0.0 -8.771089017707937e-10 0.0 0.010020462033311448 0.0100410601125057 0.0 -2.0401772386304536e-09 0.0 0.01 0.0 -2.0401772386304536e-09 0.0 0.010020914077316435 0.01004115107506772 0.0 -2.031735453003351e-09 0.0 0.01 0.0 -2.0317354530031392e-09 0.0 0.010020218402689345 0.010041012632751008 0.0 -1.4063695903363515e-09 0.0 0.01 0.0 -1.4063695903363515e-09 0.0 0.010020250295507314 0.010040563329445036 0.0 -7.24654078237221e-10 0.0 0.01 0.0 -7.246540782371151e-10 0.0 0.010019897127197855 0.01003978300001522 0.0 -2.663615217016971e-10 0.0 0.01 0.0 -2.663615217016971e-10 0.0 0.010019882892596652 0.010035803166199687 0.0 -1.9352571394593455e-09 0.0 0.01 0.0 -1.9352571394593455e-09 0.0 0.010019552797644125 0.010035657566589161 0.0 -3.1219905259108554e-09 0.0 0.01 0.0 -3.1219905259108554e-09 0.0 0.010019988974529485 0.01003531115494739 0.0 -2.937207324668554e-09 0.0 0.01 0.0 -2.937207324668766e-09 0.0 0.010019387787547511 0.010034698819265234 0.0 -1.9671686494462674e-09 0.0 0.01 0.0 -1.9671686494460557e-09 0.0 0.010019457039496422 0.010033791107407394 0.0 -9.619788808512722e-10 0.0 0.01 0.0 -9.619788808512722e-10 0.0 0.010019148107425064 0.010032628248489977 0.0 -3.1390821594201956e-10 0.0 0.01 0.0 -3.139082159420725e-10 0.0 0.010019140765418308 0.010029925294510635 0.0 -2.7362468328578222e-09 0.0 0.01 0.0 -2.7362468328582458e-09 0.0 0.010018588803375745 0.010029351875993082 0.0 -3.958523821071261e-09 0.0 0.01 0.0 -3.958523821071261e-09 0.0 0.010018915836285953 0.010028515558469267 0.0 -3.537380654103951e-09 0.0 0.01 0.0 -3.537380654104798e-09 0.0 0.010018320724638949 0.010027383065589817 0.0 -2.273196585390961e-09 0.0 0.01 0.0 -2.273196585391808e-09 0.0 0.010018377687055161 0.010025996018728264 0.0 -1.0337261508601875e-09 0.0 0.01 0.0 -1.0337261508603993e-09 0.0 0.010018157736044732 0.010024460052330153 0.0 -2.87735403080322e-10 0.0 0.01 0.0 -2.8773540308037496e-10 0.0 0.010018198004848955 0.01002400067921546 0.0 -3.024563375439802e-09 0.0 0.01 0.0 -3.024563375440649e-09 0.0 0.010017552455387421 0.010022969497999527 0.0 -4.444086238999191e-09 0.0 0.01 0.0 -4.444086238999191e-09 0.0 0.010017660423667847 0.0100216290706837 0.0 -3.663022594197396e-09 0.0 0.01 0.0 -3.663022594197396e-09 0.0 0.010017076340836895 0.010019993903974962 0.0 -2.1988118723471436e-09 0.0 0.01 0.0 -2.1988118723462966e-09 0.0 0.010017086191140364 0.010018172968756293 0.0 -9.309222241355109e-10 0.0 0.01 0.0 -9.309222241355109e-10 0.0 0.010017032165590986 0.01001635151856346 0.0 -2.1233304704269362e-10 0.0 0.01 0.0 -2.1233304704269362e-10 0.0 0.010017105288752047 0.010018871636699806 0.0 -2.6771861246493994e-09 0.0 0.01 0.0 -2.6771861246493994e-09 0.0 0.010016382470043208 0.010017391464487562 0.0 -7.891120063172074e-09 0.0 0.01 0.0 -7.891120063185627e-09 0.0 0.010016277959716281 0.010015579783969875 0.0 -6.389901225658211e-09 0.0 0.01 0.0 -6.389901225658211e-09 0.0 0.01001569165709821 0.010013513693714947 0.0 -3.0905976125501978e-09 0.0 0.01 0.0 -3.0905976125501978e-09 0.0 0.010015817700955486 0.01001137482861577 0.0 -8.487990245215462e-10 0.0 0.01 0.0 -8.487990245211227e-10 0.0 0.010015850104389863 0.010009377423938997 0.0 -1.345597485291392e-10 0.0 0.01 0.0 -1.345597485291392e-10 0.0 0.010015908983995679 0.010014966633090983 0.0 -1.6391169552838931e-09 0.0 0.01 0.0 -1.6391169553109982e-09 0.0 0.010015042172098454 0.010013114152177028 0.0 -2.051727435232911e-08 0.0 0.01 0.0 -2.051727435232911e-08 0.0 0.01001479004730195 0.010010918756939555 0.0 -1.8415458559948564e-08 0.0 0.01 0.0 -1.8415458559941787e-08 0.0 0.010014291328085673 0.010008543185459635 0.0 -9.792558767261712e-09 0.0 0.01 0.0 -9.7925587672651e-09 0.0 0.010014595843736157 0.010006216241449355 0.0 -2.6886371631018703e-09 0.0 0.01 0.0 -2.688637163102294e-09 0.0 0.010014608097244151 0.01000414026985648 0.0 -2.522182321136739e-10 0.0 0.01 0.0 -2.522182321136739e-10 0.0 0.010014662535561769 0.010012221568558638 0.0 3.804241358330829e-09 0.0 0.01 0.0 3.804241358330829e-09 0.0 0.010013497980220097 0.010010127163418592 0.0 -4.085185792158377e-08 0.0 0.01 0.0 -4.085185792158377e-08 0.0 0.010013180312626737 0.010007668010992081 0.0 -4.0233462070604956e-08 0.0 0.01 0.0 -4.0233462070604956e-08 0.0 0.010012943537215184 0.010005117675985388 0.0 -2.213349488044069e-08 0.0 0.01 0.0 -2.213349488044069e-08 0.0 0.010013386682665498 0.01000273206922781 0.0 -5.886617282659413e-09 0.0 0.01 0.0 -5.88661728266026e-09 0.0 0.010013370517892101 0.01000067391811874 0.0 -2.866122830861963e-10 0.0 0.01 0.0 -2.866122830861963e-10 0.0 0.010013421974130243 0.010010328981196444 0.0 1.4096975170627309e-08 0.0 0.01 0.0 1.4096975170640861e-08 0.0 0.010011755546517783 0.010008062490463881 0.0 -4.991152564360647e-08 0.0 0.01 0.0 -4.991152564363358e-08 0.0 0.010011540446964251 0.010005429218712824 0.0 -5.479075919970742e-08 0.0 0.01 0.0 -5.479075919970742e-08 0.0 0.010011694783700714 0.010002853270805837 0.0 -2.5473968701313234e-08 0.0 0.01 0.0 -2.5473968701309846e-08 0.0 0.010012270598340032 0.010000553245908851 0.0 -7.376118351551182e-10 0.0 0.01 0.0 -7.376118351550123e-10 0.0 0.01001224706189614 0.009998614787878068 0.0 4.4782251535482444e-09 0.0 0.01 0.0 4.478225153548668e-09 0.0 0.010012259306800697 0.01000929028038287 0.0 -5.53762589113689e-09 0.0 0.01 0.0 -5.5376258911504425e-09 0.0 0.010009911666724604 0.010006522976843608 0.0 -6.335441126050753e-09 0.0 0.01 0.0 -6.335441126050753e-09 0.0 0.010010101234659665 0.01000368563666818 0.0 -2.3320003567518094e-08 0.0 0.01 0.0 -2.332000356752487e-08 0.0 0.01001069974830697 0.010001229726813766 0.0 1.0577333542460433e-08 0.0 0.01 0.0 1.0577333542460433e-08 0.0 0.010011354760366156 0.009999173102740577 0.0 3.32285580090137e-08 0.0 0.01 0.0 3.322855800901031e-08 0.0 0.010011302834436167 0.009997482950744938 0.0 2.5224156929282545e-08 0.0 0.01 0.0 2.5224156929282545e-08 0.0 0.01001122983820106 0.010009328942011739 0.0 -1.6063644765252662e-07 0.0 0.01 0.0 -1.6063644765252662e-07 0.0 0.010008226443891249 0.010005303067337566 0.0 1.1387000198629597e-07 0.0 0.01 0.0 1.1387000198624176e-07 0.0 0.010009198227500309 0.010002136436062044 0.0 1.0348072397123212e-07 0.0 0.01 0.0 1.0348072397120501e-07 0.0 0.010010097324431875 0.009999851005450495 0.0 1.1898090077266325e-07 0.0 0.01 0.0 1.1898090077266325e-07 0.0 0.010010706120760592 0.009998175001856248 0.0 1.1955177726038764e-07 0.0 0.01 0.0 1.1955177726038764e-07 0.0 0.010010566024709221 0.009996856483780691 0.0 7.769770492967144e-08 0.0 0.01 0.0 7.769770492967144e-08 0.0 0.010010382849079525 0.010009702650072163 0.0 -5.613830604297813e-07 0.0 0.01 0.0 -5.613830604297813e-07 0.0 0.010007140487831861 0.010004381286385512 0.0 2.413334079593354e-07 0.0 0.01 0.0 2.4133340795944383e-07 0.0 0.010008608762583813 0.010000745198883602 0.0 3.2266241118067765e-07 0.0 0.01 0.0 3.2266241118067765e-07 0.0 0.010009561561632341 0.00999858481507715 0.0 3.1222337592255603e-07 0.0 0.01 0.0 3.1222337592255603e-07 0.0 0.010010183499039068 0.009997345068887515 0.0 2.735114952862191e-07 0.0 0.01 0.0 2.735114952862462e-07 0.0 0.010010029228859393 0.009996484359576788 0.0 1.779498577566803e-07 0.0 0.01 0.0 1.779498577566803e-07 0.0 0.010009725123069333 0.010003866497148784 0.0 1.9742375468841458e-07 0.0 0.01 0.0 1.9742375468841458e-07 0.0 0.010007887728464953 0.009999704557217055 0.0 5.426577628680129e-07 0.0 0.01 0.0 5.426577628679045e-07 0.0 0.010008757133762584 0.009997578927469901 0.0 5.65552646715939e-07 0.0 0.01 0.0 5.65552646715939e-07 0.0 0.010009588019781523 0.009996672697709279 0.0 4.922417190585007e-07 0.0 0.01 0.0 4.922417190585549e-07 0.0 0.010009575773043046 0.009996259616678327 0.0 3.3729413863721426e-07 0.0 0.01 0.0 3.3729413863721426e-07 0.0 0.010009232035885768 0.010003832757871664 0.0 -1.9153940386681337e-07 0.0 0.01 0.0 -1.915394038669218e-07 0.0 0.010007130675224274 0.009999467602791499 0.0 6.341757585190747e-07 0.0 0.01 0.0 6.341757585188578e-07 0.0 0.010007955844461106 0.009997119343473205 0.0 8.095561273883337e-07 0.0 0.01 0.0 8.095561273883337e-07 0.0 0.010008783156153321 0.00999627666553185 0.0 7.529255083418623e-07 0.0 0.01 0.0 7.529255083416455e-07 0.0 0.010009079836431081 0.009996153767009646 0.0 5.588790930454867e-07 0.0 0.01 0.0 5.588790930454867e-07 0.0 0.01000881930006971 0.010000321839604372 0.0 4.0078305403503517e-07 0.0 0.01 0.0 4.00783054035252e-07 0.0 0.010007497196818793 0.009997518055026968 0.0 9.336916409554991e-07 0.0 0.01 0.0 9.336916409554991e-07 0.0 0.01000804056775359 0.009996391108512111 0.0 1.0131951708125747e-06 0.0 0.01 0.0 1.0131951708125747e-06 0.0 0.010008573165994525 0.009996206762889386 0.0 8.307096877206493e-07 0.0 0.01 0.0 8.307096877206493e-07 0.0 0.010008438973766035 0.010001918071063227 0.0 -3.594732584933898e-07 0.0 0.01 0.0 -3.594732584933898e-07 0.0 0.010007131641139307 0.00999912520311889 0.0 7.676218922488941e-07 0.0 0.01 0.0 7.676218922490026e-07 0.0 0.01000781784647432 0.009997323278812281 0.0 1.1655572038030831e-06 0.0 0.01 0.0 1.1655572038030831e-06 0.0 0.010008134117236528 0.009996651867694746 0.0 1.111997581831523e-06 0.0 0.01 0.0 1.1119975818314146e-06 0.0 0.010008137557371176 0.010001462720878205 0.0 7.275830954446582e-09 0.0 0.01 0.0 7.275830954446582e-09 0.0 0.010007778115467724 0.00999934920924422 0.0 9.860351924922788e-07 0.0 0.01 0.0 9.860351924924956e-07 0.0 0.010008014169293453 0.009997948879155241 0.0 1.2859444235150449e-06 0.0 0.01 0.0 1.2859444235150449e-06 0.0 0.010008034319767213 0.010002042128376111 0.0 1.4160972729390675e-07 0.0 0.01 0.0 1.4160972729387964e-07 0.0 0.010008026756992201 0.010000469457879475 0.0 1.0802317118277678e-06 0.0 0.01 0.0 1.0802317118279847e-06 0.0 0.010008160552979668 0.010003106185963543 0.0 -1.2642001510510675e-06 0.0 0.01 0.0 -1.2642001510506339e-06 0.0 0.010007139728260802 0.01000321980762757 0.0 1.4667520749551445e-07 0.0 0.01 0.0 1.4667520749551445e-07 0.0 0.010008233811413287 0.009999271079706466 0.0 2.6534318637211175e-15 0.0 0.01 0.0 2.6534318637211175e-15 0.0 0.010000029300128775 0.009999247085040679 0.0 2.717466915491283e-15 0.0 0.01 0.0 2.717466915491283e-15 0.0 0.010000027350112205 0.009999236587428713 0.0 1.405572384646715e-15 0.0 0.01 0.0 1.405572384646715e-15 0.0 0.010000025400096774 0.009999229089154694 0.0 4.675316886002874e-16 0.0 0.01 0.0 4.675316886002874e-16 0.0 0.010000021500069338 0.009999227589501915 0.0 3.3707183030276505e-16 0.0 0.01 0.0 3.3707183030276505e-16 0.0 0.010000018550051615 0.009999227589501915 0.0 1.1960642967406815e-16 0.0 0.01 0.0 1.1960642967406815e-16 0.0 0.010000014150030033 0.0099992280893861 0.0 8.843861416579593e-17 0.0 0.01 0.0 8.843861416579593e-17 0.0 0.010000011700020532 0.009999229589039104 0.0 3.466413010607862e-17 0.0 0.01 0.0 3.466413010607862e-17 0.0 0.010000009300012973 0.009999231588577491 0.0 7.027278663590873e-18 0.0 0.01 0.0 7.027278663590873e-18 0.0 0.010000007800009127 0.00999912261548405 0.0 -2.055274225764876e-14 0.0 0.01 0.0 -2.055274225759706e-14 0.0 0.010000038100217745 0.009999098621887026 0.0 -9.206011873404464e-15 0.0 0.01 0.0 -9.206011873404464e-15 0.0 0.010000037100206464 0.009999087125016327 0.0 -4.184600869488314e-15 0.0 0.01 0.0 -4.184600869488314e-15 0.0 0.010000033200165338 0.009999082126389263 0.0 -1.394021369106209e-15 0.0 0.01 0.0 -1.394021369106209e-15 0.0 0.010000028800124417 0.00999908112666475 0.0 -3.650828558206223e-16 0.0 0.01 0.0 -3.650828558206223e-16 0.0 0.01000002395008604 0.009999082126389263 0.0 -1.4612098204064345e-17 0.0 0.01 0.0 -1.4612098204064345e-17 0.0 0.010000019050054435 0.009999084625701857 0.0 2.497761445621954e-17 0.0 0.01 0.0 2.497761445621954e-17 0.0 0.010000015600036504 0.009999087125016327 0.0 1.767172756248038e-17 0.0 0.01 0.0 1.767172756248038e-17 0.0 0.010000012700024194 0.009999089124469252 0.0 1.0494468377053467e-17 0.0 0.01 0.0 1.0494468377053467e-17 0.0 0.010000010750017335 0.009998987153899366 0.0 -3.823077163554421e-14 0.0 0.01 0.0 -3.823077163554421e-14 0.0 0.01000004685032924 0.00999896516065604 0.0 -1.9531007887953316e-14 0.0 0.01 0.0 -1.9531007887953316e-14 0.0 0.01000004540030918 0.009998953664245691 0.0 -8.597249770358639e-15 0.0 0.01 0.0 -8.597249770358639e-15 0.0 0.010000040550246647 0.009998950165346064 0.0 -2.8390013987986093e-15 0.0 0.01 0.0 -2.8390013987986093e-15 0.0 0.01000003565019064 0.009998950665188643 0.0 -6.725699793332735e-16 0.0 0.01 0.0 -6.725699793332735e-16 0.0 0.010000029800133207 0.009998953664245691 0.0 -6.982633984994886e-17 0.0 0.01 0.0 -6.982633984994886e-17 0.0 0.010000023450082485 0.009998958662680099 0.0 2.141967048528309e-17 0.0 0.01 0.0 2.141967048528309e-17 0.0 0.010000019050054435 0.009998962661433023 0.0 -1.53634890539188e-17 0.0 0.01 0.0 -1.53634890539188e-17 0.0 0.010000015600036504 0.009998965160656037 0.0 -4.48200225674131e-17 0.0 0.01 0.0 -4.48200225674131e-17 0.0 0.010000013200026137 0.009998847699200173 0.0 -3.3811506877986085e-14 0.0 0.01 0.0 -3.381150687808948e-14 0.0 0.010000054200440648 0.009998825706877046 0.0 -2.1509712709442103e-14 0.0 0.01 0.0 -2.1509712709442103e-14 0.0 0.010000052250409517 0.009998819209172978 0.0 -9.5603276171211e-15 0.0 0.01 0.0 -9.5603276171211e-15 0.0 0.01000004685032924 0.009998818209527324 0.0 -3.106772496975024e-15 0.0 0.01 0.0 -3.106772496975024e-15 0.0 0.010000040050240602 0.009998823207758595 0.0 -4.4010572094429406e-16 0.0 0.01 0.0 -4.4010572094429406e-16 0.0 0.010000033700170356 0.009998828205997363 0.0 8.04114588812909e-17 0.0 0.01 0.0 8.04114588812909e-17 0.0 0.010000027350112205 0.009998833704068663 0.0 4.9576907925446564e-17 0.0 0.01 0.0 4.9576907925446564e-17 0.0 0.0100000224500756 0.009998838202497383 0.0 3.171920084345698e-17 0.0 0.01 0.0 3.171920084345698e-17 0.0 0.01000001805004887 0.009998842700932174 0.0 -2.3928640766503625e-17 0.0 0.01 0.0 -2.3928640766503625e-17 0.0 0.010000016100038882 0.009998688757948454 0.0 -5.085312690668011e-15 0.0 0.01 0.0 -5.085312690668011e-15 0.0 0.010000061050559072 0.009998672264479065 0.0 -1.6954284875861893e-14 0.0 0.01 0.0 -1.6954284875861893e-14 0.0 0.01000005665048139 0.009998665767074137 0.0 -8.634177226788911e-15 0.0 0.01 0.0 -8.634177226788911e-15 0.0 0.010000051750401712 0.009998668266074531 0.0 -2.5516905222546064e-15 0.0 0.01 0.0 -2.5516905222546064e-15 0.0 0.010000044900302403 0.009998675263285609 0.0 -2.2241124467915624e-17 0.0 0.01 0.0 -2.2241124467915624e-17 0.0 0.010000037100206463 0.009998684759524139 0.0 3.7910998927534445e-16 0.0 0.01 0.0 3.7910998927534445e-16 0.0 0.01000003025013726 0.009998692256573667 0.0 2.5565794605383166e-16 0.0 0.01 0.0 2.5565794605383166e-16 0.0 0.010000024900093002 0.009998699753640062 0.0 3.864212699696015e-17 0.0 0.01 0.0 3.864212699696015e-17 0.0 0.01000002000006 0.009998703752082366 0.0 -2.568400360220565e-18 0.0 0.01 0.0 -2.568400360220565e-18 0.0 0.010000017100043862 0.009998496339217374 0.0 4.0202044877631694e-14 0.0 0.01 0.0 4.0202044877631694e-14 0.0 0.01000006445062308 0.00999848434465132 0.0 -4.479341365387152e-15 0.0 0.01 0.0 -4.479341365387152e-15 0.0 0.010000060550549951 0.009998483345106097 0.0 -6.924625688801918e-15 0.0 0.01 0.0 -6.924625688801918e-15 0.0 0.01000005520045706 0.009998489842155402 0.0 -1.99682751511533e-15 0.0 0.01 0.0 -1.99682751511533e-15 0.0 0.010000048350350663 0.009998502336516585 0.0 5.036361619799521e-16 0.0 0.01 0.0 5.036361619799521e-16 0.0 0.010000040050240602 0.009998514331147387 0.0 7.792477913937301e-16 0.0 0.01 0.0 7.792477913937301e-16 0.0 0.010000033200165338 0.009998526325821357 0.0 5.772239407503902e-16 0.0 0.01 0.0 5.772239407503902e-16 0.0 0.010000027850116345 0.00999853382251451 0.0 1.3822348096017415e-16 0.0 0.01 0.0 1.3822348096017415e-16 0.0 0.010000022950079004 0.009998539320100207 0.0 4.0073362879877216e-17 0.0 0.01 0.0 4.0073362879877216e-17 0.0 0.01000002000006 0.009998265451403223 0.0 1.0904463155565874e-13 0.0 0.01 0.0 1.0904463155565874e-13 0.0 0.010000069350721424 0.009998257955313708 0.0 1.0166959737314507e-14 0.0 0.01 0.0 1.0166959737314507e-14 0.0 0.010000066900671348 0.009998261453486715 0.0 -5.9056793129563165e-15 0.0 0.01 0.0 -5.9056793129563165e-15 0.0 0.010000059550531935 0.009998274446732892 0.0 -1.7864676674814113e-15 0.0 0.01 0.0 -1.7864676674814113e-15 0.0 0.010000051750401712 0.009998291437977402 0.0 9.637910041295248e-16 0.0 0.01 0.0 9.637910041295248e-16 0.0 0.010000045400309177 0.009998306930069952 0.0 1.3197674497151993e-15 0.0 0.01 0.0 1.3197674497151993e-15 0.0 0.010000038100217743 0.00999832192248615 0.0 8.2008129639142e-16 0.0 0.01 0.0 8.2008129639142e-16 0.0 0.010000029800133207 0.009998332417217615 0.0 2.7257678578361416e-16 0.0 0.01 0.0 2.7257678578361416e-16 0.0 0.01000002635010415 0.009998338913972702 0.0 1.0999966310271209e-16 0.0 0.01 0.0 1.0999966310271209e-16 0.0 0.010000023450082485 0.00999798810731974 0.0 4.871347900040116e-12 0.0 0.01 0.0 4.871347900033499e-12 0.0 0.010000077150892833 0.009997988107319737 0.0 2.2436195068059474e-14 0.0 0.01 0.0 2.2436195068059474e-14 0.0 0.010000073750815871 0.009998001099500258 0.0 -6.128156626638639e-15 0.0 0.01 0.0 -6.128156626638639e-15 0.0 0.010000066400661351 0.009998019588459863 0.0 -2.409113580642888e-15 0.0 0.01 0.0 -2.409113580642888e-15 0.0 0.010000059550531935 0.009998041075758008 0.0 1.2972991740376017e-15 0.0 0.01 0.0 1.2972991740376017e-15 0.0 0.010000052250409513 0.009998062063485287 0.0 1.8361733737670895e-15 0.0 0.01 0.0 1.8361733737670895e-15 0.0 0.010000044900302403 0.009998079053647035 0.0 9.426703341315714e-16 0.0 0.01 0.0 9.426703341315714e-16 0.0 0.010000036600200936 0.009998094045038155 0.0 3.6892498248311047e-16 0.0 0.01 0.0 3.6892498248311047e-16 0.0 0.010000031750151211 0.009998101540759002 0.0 8.226935298188295e-17 0.0 0.01 0.0 8.226935298188295e-17 0.0 0.010000029300128775 0.0099976663171656 0.0 4.1438738326400606e-11 0.0 0.01 0.0 4.1438738326400606e-11 0.0 0.010000090801236717 0.009997674311575656 0.0 3.036232700808475e-14 0.0 0.01 0.0 3.036232700808475e-14 0.0 0.010000085451095273 0.0099976942976847 0.0 -1.0187023057976094e-14 0.0 0.01 0.0 -1.0187023057976094e-14 0.0 0.010000078100914953 0.00999771978014757 0.0 -4.027049727631242e-15 0.0 0.01 0.0 -4.027049727631242e-15 0.0 0.010000070800751906 0.009997747761115556 0.0 1.603400496973845e-15 0.0 0.01 0.0 1.603400496973845e-15 0.0 0.010000061500567344 0.009997773743653335 0.0 2.2489296808827102e-15 0.0 0.01 0.0 2.2489296808827102e-15 0.0 0.010000054700448817 0.00999779522936644 0.0 1.4619392678790248e-15 0.0 0.01 0.0 1.4619392678790248e-15 0.0 0.010000047850343446 0.009997813217511848 0.0 5.513260943659989e-16 0.0 0.01 0.0 5.513260943659989e-16 0.0 0.010000041000252152 0.009997822711294405 0.0 1.4058897494863132e-16 0.0 0.01 0.0 1.4058897494863132e-16 0.0 0.010000038100217743 0.009997288103556372 0.0 1.2334299423353932e-10 0.0 0.01 0.0 1.233429942336452e-10 0.0 0.010000115702008018 0.009997309586138625 0.0 4.0376192292166286e-13 0.0 0.01 0.0 4.0376192292124927e-13 0.0 0.010000106451699771 0.009997339562066233 0.0 -1.6397875891544994e-14 0.0 0.01 0.0 -1.6397875891544994e-14 0.0 0.01000009715141574 0.009997374034716325 0.0 -6.815088486087094e-15 0.0 0.01 0.0 -6.815088486087094e-15 0.0 0.010000090801236714 0.009997408507723028 0.0 1.3212650849585591e-15 0.0 0.01 0.0 1.3212650849585591e-15 0.0 0.010000080550973258 0.009997439983388416 0.0 2.393945987780443e-15 0.0 0.01 0.0 2.393945987780443e-15 0.0 0.010000072750793895 0.009997466463146696 0.0 1.3406622082383438e-15 0.0 0.01 0.0 1.3406622082383438e-15 0.0 0.010000062500585943 0.009997487447255525 0.0 4.697785372042034e-16 0.0 0.01 0.0 4.697785372042034e-16 0.0 0.010000056150472928 0.00999749943823418 0.0 6.053392669739783e-17 0.0 0.01 0.0 6.053392669739783e-17 0.0 0.010000052250409513 0.009996849989010763 0.0 2.1452509619909658e-10 0.0 0.01 0.0 2.1452509619909658e-10 0.0 0.010000157253709242 0.009996886454728526 0.0 1.6614097496678984e-12 0.0 0.01 0.0 1.661409749666244e-12 0.0 0.010000141603007658 0.009996928415774256 0.0 -2.543550619335062e-14 0.0 0.01 0.0 -2.543550619335062e-14 0.0 0.010000128402473038 0.009996971875985796 0.0 -1.0135491426524197e-14 0.0 0.01 0.0 -1.0135491426524197e-14 0.0 0.010000117702078034 0.009997014337659435 0.0 9.879112950337085e-16 0.0 0.01 0.0 9.879112950337085e-16 0.0 0.01000010595168384 0.009997051804291387 0.0 2.250014627157471e-15 0.0 0.01 0.0 2.250014627157471e-15 0.0 0.010000094751346656 0.009997084775275961 0.0 1.0755225188443615e-15 0.0 0.01 0.0 1.0755225188443615e-15 0.0 0.01000008495108249 0.009997109753511762 0.0 2.6039326140350235e-16 0.0 0.01 0.0 2.6039326140350235e-16 0.0 0.010000076650881295 0.009997124740543114 0.0 -1.2786391100028485e-17 0.0 0.01 0.0 -1.2786391100028485e-17 0.0 0.010000070800751906 0.00999634900044346 0.0 2.4344825722301626e-10 0.0 0.01 0.0 2.4344825722312214e-10 0.0 0.010000221207339694 0.009996399944992995 0.0 1.8686221422271488e-12 0.0 0.01 0.0 1.8686221422263216e-12 0.0 0.010000196305780243 0.009996454886066403 0.0 -2.8864315715700584e-14 0.0 0.01 0.0 -2.8864315715700584e-14 0.0 0.010000173854533705 0.009996511326476016 0.0 -1.1665420082846936e-14 0.0 0.01 0.0 -1.1665420082846936e-14 0.0 0.010000158203754186 0.00999656327247659 0.0 4.1831924933310113e-16 0.0 0.01 0.0 4.1831924933310113e-16 0.0 0.010000142103028933 0.009996610224366166 0.0 2.031558957104895e-15 0.0 0.01 0.0 2.031558957104895e-15 0.0 0.010000126952417497 0.009996647186957414 0.0 8.884279458671424e-16 0.0 0.01 0.0 8.884279458671424e-16 0.0 0.01000011330192557 0.009996676657425286 0.0 7.078469313395351e-16 0.0 0.01 0.0 7.078469313395351e-16 0.0 0.010000104501638067 0.009996693141020975 0.0 -1.8753471040135434e-16 0.0 0.01 0.0 -1.8753471040135434e-16 0.0 0.01000009715141574 0.00999577667697599 0.0 1.7843544226648068e-10 0.0 0.01 0.0 1.7843544226653362e-10 0.0 0.010000314964879813 0.009995845590302766 0.0 5.236724218900446e-13 0.0 0.01 0.0 5.236724218904582e-13 0.0 0.010000269560899071 0.009995915004442345 0.0 -2.6376975621922292e-14 0.0 0.01 0.0 -2.6376975621922292e-14 0.0 0.010000237308447027 0.009995984420028041 0.0 -9.350256835607222e-15 0.0 0.01 0.0 -9.350256835607222e-15 0.0 0.01000021190673548 0.009996046845350916 0.0 9.699052685662493e-16 0.0 0.01 0.0 9.699052685662493e-16 0.0 0.010000189955412322 0.009996101281187046 0.0 1.259515957685297e-15 0.0 0.01 0.0 1.259515957685297e-15 0.0 0.010000169904330024 0.009996146728300214 0.0 -1.8664263428603013e-16 0.0 0.01 0.0 -1.8664263428603013e-16 0.0 0.010000152353481668 0.009996178691476364 0.0 -5.112671210904218e-16 0.0 0.01 0.0 -5.112671210904218e-16 0.0 0.010000139152904475 0.009996200166907547 0.0 -3.3070780355794156e-16 0.0 0.01 0.0 -3.3070780355794156e-16 0.0 0.010000130852568314 0.009995128561949786 0.0 7.399072422375251e-11 0.0 0.01 0.0 7.399072422369957e-11 0.0 0.010000428227505251 0.009995214936717161 0.0 -2.9607053775429854e-14 0.0 0.01 0.0 -2.9607053775429854e-14 0.0 0.010000366720171565 0.009995300814428355 0.0 -1.3764090666342847e-14 0.0 0.01 0.0 -1.3764090666342847e-14 0.0 0.010000319365298478 0.009995382200581262 0.0 -3.5006489872527532e-15 0.0 0.01 0.0 -3.5006489872527532e-15 0.0 0.010000281261865791 0.009995455100295664 0.0 1.203730544693594e-15 0.0 0.01 0.0 1.203730544693594e-15 0.0 0.01000025000937539 0.009995520511671052 0.0 3.4313799666063647e-16 0.0 0.01 0.0 3.4313799666063647e-16 0.0 0.01000022265743623 0.009995571443554856 0.0 -1.4477961206223879e-15 0.0 0.01 0.0 -1.4477961206223879e-15 0.0 0.010000199205952293 0.009995611390675181 0.0 -1.2599297432833424e-15 0.0 0.01 0.0 -1.2599297432833424e-15 0.0 0.010000182605001566 0.009995634859831718 0.0 -6.045470862062279e-16 0.0 0.01 0.0 -6.045470862062279e-16 0.0 0.010000170904381147 0.00999439421724573 0.0 9.673474681663987e-12 0.0 0.01 0.0 9.673474681663987e-12 0.0 0.010000564997879784 0.009994499541587034 0.0 -1.2081620797971576e-14 0.0 0.01 0.0 -1.2081620797971576e-14 0.0 0.010000482934981677 0.00999460187411259 0.0 2.69001454201961e-15 0.0 0.01 0.0 2.69001454201961e-15 0.0 0.010000417976204155 0.009994699217724744 0.0 2.8485652654030327e-15 0.0 0.01 0.0 2.8485652654030327e-15 0.0 0.010000367220226614 0.0099947870790168 0.0 3.605530441834613e-17 0.0 0.01 0.0 3.605530441834613e-17 0.0 0.010000322265577597 0.00999486146339912 0.0 -2.3988650823672173e-15 0.0 0.01 0.0 -2.3988650823672173e-15 0.0 0.010000286612321522 0.00999492336844657 0.0 -4.691620259345295e-15 0.0 0.01 0.0 -4.691620259345295e-15 0.0 0.01000025535978096 0.009994968799495473 0.0 -3.612543623561602e-15 0.0 0.01 0.0 -3.612543623561602e-15 0.0 0.010000232408101778 0.009994995758872326 0.0 -1.920796092623871e-15 0.0 0.01 0.0 -1.920796092623871e-15 0.0 0.01000021825714522 0.009993570705693271 0.0 -3.9980350738399533e-13 0.0 0.01 0.0 -3.9980350738409873e-13 0.0 0.010000719827715332 0.009993691973703403 0.0 1.4490432134537912e-14 0.0 0.01 0.0 1.4490432134537912e-14 0.0 0.010000616757053698 0.009993812747055736 0.0 1.4876064818905712e-14 0.0 0.01 0.0 1.4876064818905712e-14 0.0 0.010000534242809257 0.0099939260384365 0.0 6.598515232771233e-15 0.0 0.01 0.0 6.598515232771233e-15 0.0 0.01000046488241534 0.009994028852451613 0.0 -4.6570458563130544e-15 0.0 0.01 0.0 -4.6570458563130544e-15 0.0 0.010000407274879573 0.009994116696065583 0.0 -1.1061537217654575e-14 0.0 0.01 0.0 -1.1061537217654575e-14 0.0 0.010000358419268735 0.00999418906896512 0.0 -1.2010561483319486e-14 0.0 0.01 0.0 -1.2010561483319486e-14 0.0 0.010000318365202815 0.009994241977045128 0.0 -6.6825318065255156e-15 0.0 0.01 0.0 -6.6825318065255156e-15 0.0 0.010000290562663508 0.009994271925387366 0.0 -2.2055235946388087e-15 0.0 0.01 0.0 -2.2055235946388087e-15 0.0 0.010000272461134855 0.009992647117689709 0.0 -2.7929043071931856e-13 0.0 0.01 0.0 -2.7929043071937026e-13 0.0 0.010000883417050067 0.009992784816350334 0.0 3.3139354921792526e-14 0.0 0.01 0.0 3.3139354921792526e-14 0.0 0.010000765687932725 0.009992923518581985 0.0 2.0513660556761268e-14 0.0 0.01 0.0 2.0513660556761268e-14 0.0 0.010000662665863087 0.009993055740115046 0.0 5.945616988797256e-16 0.0 0.01 0.0 5.945616988797256e-16 0.0 0.010000575749719345 0.009993175492447806 0.0 -1.8389684655888206e-14 0.0 0.01 0.0 -1.8389684655888206e-14 0.0 0.010000503438014924 0.009993278283300357 0.0 -2.4672647357763435e-14 0.0 0.01 0.0 -2.4672647357763435e-14 0.0 0.010000441429227243 0.009993360618067193 0.0 -2.2394155844002998e-14 0.0 0.01 0.0 -2.2394155844002998e-14 0.0 0.010000391623004085 0.009993420000162175 0.0 -1.2488070872990118e-14 0.0 0.01 0.0 -1.2488070872990118e-14 0.0 0.010000355468952829 0.00999345592933869 0.0 -3.9037365175818104e-15 0.0 0.01 0.0 -3.9037365175818104e-15 0.0 0.010000333016634272 0.009991610569204149 0.0 -1.7809837415456779e-13 0.0 0.01 0.0 -1.7809837415454194e-13 0.0 0.010001062669365929 0.009991766679309275 0.0 4.41973172986248e-14 0.0 0.01 0.0 4.41973172986248e-14 0.0 0.010000924928308032 0.0099919252906798 0.0 1.5545728282223818e-14 0.0 0.01 0.0 1.5545728282223818e-14 0.0 0.010000803796903034 0.009992077923847119 0.0 -1.5092439606197207e-14 0.0 0.01 0.0 -1.5092439606197207e-14 0.0 0.010000699273340642 0.009992216596644938 0.0 -4.140752798051078e-14 0.0 0.01 0.0 -4.140752798051078e-14 0.0 0.010000608955619526 0.009992335321109594 0.0 -4.633716234398029e-14 0.0 0.01 0.0 -4.633716234398029e-14 0.0 0.01000053229249728 0.009992432099644321 0.0 -3.603625734319105e-14 0.0 0.01 0.0 -3.603625734319105e-14 0.0 0.010000472683512342 0.009992501941570888 0.0 -1.9105293685100467e-14 0.0 0.01 0.0 -1.9105293685100467e-14 0.0 0.010000427777447467 0.009992544346312233 0.0 -6.197841525055688e-15 0.0 0.01 0.0 -6.197841525055688e-15 0.0 0.010000398973875753 0.009990445211564064 0.0 -9.662383407657232e-14 0.0 0.01 0.0 -9.662383407657232e-14 0.0 0.010001252185155888 0.009990624700935289 0.0 4.422703239800654e-14 0.0 0.01 0.0 4.422703239800654e-14 0.0 0.010001096380281104 0.00999080918620375 0.0 3.329007823785209e-15 0.0 0.01 0.0 3.329007823785209e-15 0.0 0.010000956687270069 0.009990985204648835 0.0 -2.903619525806907e-14 0.0 0.01 0.0 -2.903619525806907e-14 0.0 0.010000832603972864 0.009991145773497379 0.0 -6.015323298622661e-14 0.0 0.01 0.0 -6.015323298622661e-14 0.0 0.01000072612908186 0.0099912829114073 0.0 -6.636091927604411e-14 0.0 0.01 0.0 -6.636091927604411e-14 0.0 0.010000633860261732 0.009991393623221356 0.0 -5.10483591615634e-14 0.0 0.01 0.0 -5.10483591615634e-14 0.0 0.010000561097220981 0.00999147391652406 0.0 -2.4706000507423118e-14 0.0 0.01 0.0 -2.4706000507423118e-14 0.0 0.01000050588838587 0.009991522292926625 0.0 -7.902254288610866e-15 0.0 0.01 0.0 -7.902254288610866e-15 0.0 0.010000474133718285 0.009989144202871213 0.0 -8.716305657151088e-15 0.0 0.01 0.0 -8.716305657151088e-15 0.0 0.010001451465951865 0.009989350037446299 0.0 3.899275054935374e-14 0.0 0.01 0.0 3.899275054935374e-14 0.0 0.01000127809498727 0.009989562364407626 0.0 5.38612803778609e-15 0.0 0.01 0.0 5.38612803778609e-15 0.0 0.010001118837741678 0.009989766729433948 0.0 -1.889596500013961e-14 0.0 0.01 0.0 -1.889596500013961e-14 0.0 0.010000976693070771 0.009989953161153475 0.0 -5.3626453307055584e-14 0.0 0.01 0.0 -5.3626453307055584e-14 0.0 0.010000852158913848 0.009990111686173819 0.0 -7.15158133380633e-14 0.0 0.01 0.0 -7.15158133380633e-14 0.0 0.010000745683398269 0.0099902378136718 0.0 -5.236004870163625e-14 0.0 0.01 0.0 -5.236004870163625e-14 0.0 0.010000662665863087 0.00999033153996577 0.0 -2.8381736063838882e-14 0.0 0.01 0.0 -2.8381736063838882e-14 0.0 0.0100005991538435 0.009990388873839582 0.0 -8.339493214121717e-15 0.0 0.01 0.0 -8.339493214121717e-15 0.0 0.010000562047381038 0.009987688772325894 0.0 8.617032872606901e-14 0.0 0.01 0.0 8.617032872606901e-14 0.0 0.01000166446547459 0.0099879303865534 0.0 3.885233968782256e-14 0.0 0.01 0.0 3.885233968782256e-14 0.0 0.010001471524744043 0.009988176502370695 0.0 5.1356898557164895e-14 0.0 0.01 0.0 5.1356898557164895e-14 0.0 0.010001293701006048 0.00998841416588163 0.0 6.643419819752432e-14 0.0 0.01 0.0 6.643419819752432e-14 0.0 0.010001134493031966 0.009988629921243657 0.0 1.645393766560318e-14 0.0 0.01 0.0 1.645393766560318e-14 0.0 0.010000994798423899 0.009988812801054571 0.0 -2.4637626755798717e-14 0.0 0.01 0.0 -2.4637626755798717e-14 0.0 0.010000875614991817 0.009988960308165755 0.0 -2.5985116469183335e-14 0.0 0.01 0.0 -2.5985116469183335e-14 0.0 0.010000779391108107 0.009989065460805472 0.0 -1.2818875190899085e-14 0.0 0.01 0.0 -1.2818875190899085e-14 0.0 0.010000709525506824 0.00998913124518809 0.0 -5.20585785566174e-15 0.0 0.01 0.0 -5.20585785566174e-15 0.0 0.01000066801693103 0.009986072649786877 0.0 1.2565939097713867e-13 0.0 0.01 0.0 1.2565939097713867e-13 0.0 0.01000189068606893 0.009986359460494745 0.0 5.323213003714843e-14 0.0 0.01 0.0 5.323213003714843e-14 0.0 0.010001676221363534 0.009986645797916985 0.0 1.8788530783706337e-13 0.0 0.01 0.0 1.8788530783706337e-13 0.0 0.010001483229930407 0.009986921203056545 0.0 2.5243962402326233e-13 0.0 0.01 0.0 2.5243962402326233e-13 0.0 0.01000130980729434 0.009987167742354284 0.0 1.7616656513800467e-13 0.0 0.01 0.0 1.7616656513800467e-13 0.0 0.010001158401252937 0.009987378933968219 0.0 8.216903295353757e-14 0.0 0.01 0.0 8.216903295353757e-14 0.0 0.010001029959100514 0.009987546801010359 0.0 3.8247763474389766e-14 0.0 0.01 0.0 3.8247763474389766e-14 0.0 0.010000926878849736 0.009987669344314633 0.0 1.5349534974013023e-14 0.0 0.01 0.0 1.5349534974013023e-14 0.0 0.01000085265904172 0.009987741577237032 0.0 4.629373202058511e-15 0.0 0.01 0.0 4.629373202058511e-15 0.0 0.01000080529726511 0.009984294079030894 0.0 3.2677097520832833e-14 0.0 0.01 0.0 3.2677097520832833e-14 0.0 0.010002124676946042 0.00998463100365205 0.0 6.067526757817426e-14 0.0 0.01 0.0 6.067526757817426e-14 0.0 0.010001896039108353 0.009984967962384543 0.0 3.74616758406616e-13 0.0 0.01 0.0 3.7461675840659013e-13 0.0 0.010001691829246102 0.009985283052151031 0.0 5.132864316056056e-13 0.0 0.01 0.0 5.132864316056056e-13 0.0 0.0100015125430988 0.00998556680779785 0.0 3.9461960869165437e-13 0.0 0.01 0.0 3.9461960869165437e-13 0.0 0.010001356726055904 0.009985806276559265 0.0 2.250711064113705e-13 0.0 0.01 0.0 2.250711064113705e-13 0.0 0.010001221923928232 0.00998599646984634 0.0 1.146919910229264e-13 0.0 0.01 0.0 1.146919910229264e-13 0.0 0.01000111443626755 0.00998613339582545 0.0 5.328279046893817e-14 0.0 0.01 0.0 5.328279046893817e-14 0.0 0.010001037761519995 0.009986217545857894 0.0 1.3148787790948569e-14 0.0 0.01 0.0 1.3148787790948569e-14 0.0 0.01000099039711354 0.009982370728504464 0.0 -6.455468894953786e-13 0.0 0.01 0.0 -6.455468894954303e-13 0.0 0.010002373394683042 0.009982769635349605 0.0 -2.0025244953195015e-13 0.0 0.01 0.0 -2.0025244953195015e-13 0.0 0.010002133482568011 0.00998315714801123 0.0 4.182622843149806e-13 0.0 0.01 0.0 4.182622843149289e-13 0.0 0.01000192830761217 0.00998351584885466 0.0 6.934854495641731e-13 0.0 0.01 0.0 6.934854495641731e-13 0.0 0.010001755812323302 0.009983833786638903 0.0 5.591949978805337e-13 0.0 0.01 0.0 5.591949978805337e-13 0.0 0.0100016043860256 0.009984102987757969 0.0 3.336123569712197e-13 0.0 0.01 0.0 3.3361235697119383e-13 0.0 0.010001472975384567 0.009984315477955523 0.0 1.7165941270016212e-13 0.0 0.01 0.0 1.7165941270016212e-13 0.0 0.010001370381640416 0.009984468260322335 0.0 7.598038743523724e-14 0.0 0.01 0.0 7.598038743523724e-14 0.0 0.01000129225044353 0.009984561824322365 0.0 2.030106927537746e-14 0.0 0.01 0.0 2.030106927537746e-14 0.0 0.010001245832776229 0.009980355537725779 0.0 -3.0117998275108474e-12 0.0 0.01 0.0 -3.0117998275106406e-12 0.0 0.010002637292930357 0.00998082032046393 0.0 -1.5784400815849146e-12 0.0 0.01 0.0 -1.5784400815847078e-12 0.0 0.010002399813589458 0.009981258816751586 0.0 -3.1470704222204483e-13 0.0 0.01 0.0 -3.1470704222204483e-13 0.0 0.010002212634145892 0.009981659082067867 0.0 4.128426017633499e-13 0.0 0.01 0.0 4.128426017633499e-13 0.0 0.010002060186480411 0.009982009167233897 0.0 4.767161455513974e-13 0.0 0.01 0.0 4.767161455513974e-13 0.0 0.010001928757872572 0.00998230458024627 0.0 3.087114425405509e-13 0.0 0.01 0.0 3.087114425405509e-13 0.0 0.010001812992922346 0.009982537845751177 0.0 1.619198117944251e-13 0.0 0.01 0.0 1.619198117944251e-13 0.0 0.010001716241721765 0.009982706961032936 0.0 7.191502579696501e-14 0.0 0.01 0.0 7.191502579696501e-14 0.0 0.010001644455546185 0.009982809926605107 0.0 2.0600793555099594e-14 0.0 0.01 0.0 2.0600793555099594e-14 0.0 0.010001599983910375 0.009978361934055545 0.0 -9.214567567317758e-12 0.0 0.01 0.0 -9.214567567318585e-12 0.0 0.010002935391973234 0.00997889053008738 0.0 -5.988967872046089e-12 0.0 0.01 0.0 -5.988967872046089e-12 0.0 0.010002718858426842 0.00997937697226757 0.0 -3.289341196686796e-12 0.0 0.01 0.0 -3.289341196686796e-12 0.0 0.010002569339886998 0.009979811302513847 0.0 -1.1575272423661422e-12 0.0 0.01 0.0 -1.1575272423661422e-12 0.0 0.010002457455566452 0.009980189027089253 0.0 -2.114985148749442e-13 0.0 0.01 0.0 -2.114985148749442e-13 0.0 0.010002356782902113 0.009980505155883907 0.0 3.7759317040269214e-14 0.0 0.01 0.0 3.7759317040269214e-14 0.0 0.01000226637023235 0.00998075668861646 0.0 5.787220061731957e-14 0.0 0.01 0.0 5.787220061731957e-14 0.0 0.010002185266099537 0.009980939136311968 0.0 3.416784630753927e-14 0.0 0.01 0.0 3.416784630753927e-14 0.0 0.010002122725703414 0.009981050001787766 0.0 7.751292949570665e-15 0.0 0.01 0.0 7.751292949570665e-15 0.0 0.010002085101966273 0.009976574073967367 0.0 -2.1026870731009073e-11 0.0 0.01 0.0 -2.1026870731009073e-11 0.0 0.01000331074342783 0.009977161975223355 0.0 -1.5664030305457005e-11 0.0 0.01 0.0 -1.5664030305457005e-11 0.0 0.010003126966076262 0.00997768541396088 0.0 -1.0664264995406994e-11 0.0 0.01 0.0 -1.0664264995406167e-11 0.0 0.010003031177648891 0.00997814435971898 0.0 -5.504804302098032e-12 0.0 0.01 0.0 -5.504804302097618e-12 0.0 0.010002977379190349 0.009978539282570543 0.0 -2.2642444852008776e-12 0.0 0.01 0.0 -2.2642444852008776e-12 0.0 0.01000292513296004 0.00997887065653639 0.0 -7.78940873625206e-13 0.0 0.01 0.0 -7.78940873625206e-13 0.0 0.010002865481176956 0.009979133990723749 0.0 -2.3576809373032036e-13 0.0 0.01 0.0 -2.3576809373032036e-13 0.0 0.010002808782946218 0.009979324299914952 0.0 -5.572918592964258e-14 0.0 0.01 0.0 -5.572918592964258e-14 0.0 0.010002760892958736 0.00997944008080718 0.0 -9.864793418875583e-15 0.0 0.01 0.0 -9.864793418875583e-15 0.0 0.010002730117624495 0.00997526507607251 0.0 -3.578522363031222e-11 0.0 0.01 0.0 -3.578522363031388e-11 0.0 0.010003825443984154 0.009975892953496511 0.0 -2.9215811507879715e-11 0.0 0.01 0.0 -2.9215811507879715e-11 0.0 0.010003677827968288 0.009976433569038453 0.0 -2.3260263590154627e-11 0.0 0.01 0.0 -2.3260263590157936e-11 0.0 0.010003641137717543 0.009976902272918057 0.0 -1.412443001701969e-11 0.0 0.01 0.0 -1.412443001701969e-11 0.0 0.010003655303209893 0.009977303007534006 0.0 -6.824096215307328e-12 0.0 0.01 0.0 -6.824096215307741e-12 0.0 0.010003660709138032 0.009977639224875974 0.0 -2.7321055019691975e-12 0.0 0.01 0.0 -2.7321055019694043e-12 0.0 0.010003644591489282 0.00997790544174085 0.0 -9.27568539206738e-13 0.0 0.01 0.0 -9.275685392066863e-13 0.0 0.010003615259570654 0.009978098164260102 0.0 -2.818241244399697e-13 0.0 0.01 0.0 -2.818241244399697e-13 0.0 0.010003586378394345 0.009978216386176842 0.0 -5.997733689170033e-14 0.0 0.01 0.0 -5.997733689170033e-14 0.0 0.010003563904307157 0.009974779234915321 0.0 -4.3005496851988043e-11 0.0 0.01 0.0 -4.300549685198639e-11 0.0 0.010004573435534797 0.009975408509557165 0.0 -3.627632058847071e-11 0.0 0.01 0.0 -3.627632058847071e-11 0.0 0.01000444290916324 0.009975943585932616 0.0 -3.545252652287166e-11 0.0 0.01 0.0 -3.5452526522870005e-11 0.0 0.01000445367351536 0.009976401794895244 0.0 -2.5626731568221278e-11 0.0 0.01 0.0 -2.5626731568221278e-11 0.0 0.010004529425496868 0.009976790056017109 0.0 -1.4159584332418089e-11 0.0 0.01 0.0 -1.4159584332418916e-11 0.0 0.010004596417116486 0.009977112813957429 0.0 -6.2421861707532696e-12 0.0 0.01 0.0 -6.2421861707532696e-12 0.0 0.010004627209680086 0.009977370546251254 0.0 -2.2791281980969143e-12 0.0 0.01 0.0 -2.279128198096811e-12 0.0 0.010004630163778375 0.009977557774719311 0.0 -7.178054942092074e-13 0.0 0.01 0.0 -7.178054942092074e-13 0.0 0.010004620400243167 0.009977672500818777 0.0 -1.5176986957533237e-13 0.0 0.01 0.0 -1.5176986957533237e-13 0.0 0.010004607181964121 0.009975543015089738 0.0 -2.70449102335562e-11 0.0 0.01 0.0 -2.70449102335562e-11 0.0 0.01000565764772732 0.009976126762655762 0.0 -1.7910958527023073e-11 0.0 0.01 0.0 -1.79109585270239e-11 0.0 0.010005506995712348 0.009976614786752153 0.0 -3.3339021502902375e-11 0.0 0.01 0.0 -3.333902150290072e-11 0.0 0.010005532888543136 0.009977030880129103 0.0 -3.2870329010728934e-11 0.0 0.01 0.0 -3.2870329010728934e-11 0.0 0.010005646879488468 0.009977383458221011 0.0 -2.1722951211856317e-11 0.0 0.01 0.0 -2.172295121185797e-11 0.0 0.010005763779346024 0.009977674487452763 0.0 -1.0558994364708935e-11 0.0 0.01 0.0 -1.0558994364709762e-11 0.0 0.01000583911030256 0.009977910408675891 0.0 -4.033982518344533e-12 0.0 0.01 0.0 -4.033982518344533e-12 0.0 0.010005874822979512 0.009978081275757876 0.0 -1.2835367756366558e-12 0.0 0.01 0.0 -1.2835367756366558e-12 0.0 0.01000588704451639 0.009978187575406527 0.0 -2.7302649087221875e-13 0.0 0.01 0.0 -2.7302649087221875e-13 0.0 0.010005888997962913 0.009978162738735863 0.0 2.6332955467413172e-11 0.0 0.01 0.0 2.633295546741648e-11 0.0 0.010007160032575202 0.009978620756766901 0.0 4.559216765786497e-11 0.0 0.01 0.0 4.559216765786497e-11 0.0 0.010006951591981835 0.009979012755036626 0.0 1.4680555657777007e-12 0.0 0.01 0.0 1.4680555657777007e-12 0.0 0.010006944226651047 0.00997934616380913 0.0 -2.2895343713859298e-11 0.0 0.01 0.0 -2.2895343713859298e-11 0.0 0.010007060670927374 0.009979631898364002 0.0 -2.2579374070630266e-11 0.0 0.01 0.0 -2.257937407062861e-11 0.0 0.010007200168906072 0.00997987193435861 0.0 -1.2450384550823817e-11 0.0 0.01 0.0 -1.245038455082299e-11 0.0 0.01000731121026022 0.009980066261897857 0.0 -4.722030192098331e-12 0.0 0.01 0.0 -4.722030192098745e-12 0.0 0.010007380713205248 0.009980211393705116 0.0 -1.403575523289673e-12 0.0 0.01 0.0 -1.4035755232895696e-12 0.0 0.010007415490276476 0.009980299867570642 0.0 -2.8419109482587263e-13 0.0 0.01 0.0 -2.8419109482587263e-13 0.0 0.0100074321272745 0.009983430274545365 0.0 1.1032558854051464e-10 0.0 0.01 0.0 1.1032558854051464e-10 0.0 0.01000909639662832 0.009983667101852988 0.0 1.594856678034167e-10 0.0 0.01 0.0 1.594856678034167e-10 0.0 0.010008809477375268 0.009983893994240838 0.0 8.139151794501164e-11 0.0 0.01 0.0 8.139151794500503e-11 0.0 0.01000873553311327 0.009984099006806458 0.0 1.8832610988290033e-11 0.0 0.01 0.0 1.883261098828838e-11 0.0 0.010008815342854678 0.009984285619028877 0.0 -4.948538135376265e-12 0.0 0.01 0.0 -4.948538135376265e-12 0.0 0.010008953410194425 0.00998444686041534 0.0 -4.599544286078306e-12 0.0 0.01 0.0 -4.599544286078719e-12 0.0 0.010009083160600068 0.009984581731895778 0.0 -4.975802842845512e-13 0.0 0.01 0.0 -4.975802842845254e-13 0.0 0.010009178170376274 0.00998468575090343 0.0 5.199443585163192e-13 0.0 0.01 0.0 5.199443585162933e-13 0.0 0.010009236882255435 0.009984750453361583 0.0 1.8651125744808498e-13 0.0 0.01 0.0 1.8651125744808498e-13 0.0 0.010009271678681674 0.009992105358654751 0.0 1.6040005779551098e-10 0.0 0.01 0.0 1.6040005779551098e-10 0.0 0.010011384662110209 0.009992023054909815 0.0 2.839753850476184e-10 0.0 0.01 0.0 2.839753850476184e-10 0.0 0.01001104266417099 0.009992015572852026 0.0 1.9106795188641104e-10 0.0 0.01 0.0 1.9106795188641104e-10 0.0 0.010010896183183012 0.009992040513109998 0.0 9.474962119888691e-11 0.0 0.01 0.0 9.474962119887367e-11 0.0 0.010010926080835003 0.009992084408417621 0.0 4.092900225994416e-11 0.0 0.01 0.0 4.092900225994416e-11 0.0 0.01001104512229721 0.009992137283078998 0.0 2.1974613239039245e-11 0.0 0.01 0.0 2.1974613239039245e-11 0.0 0.01001117886715983 0.00999219065740925 0.0 1.4082875244674755e-11 0.0 0.01 0.0 1.4082875244673928e-11 0.0 0.010011292047795045 0.009992236550040622 0.0 6.989755194226183e-12 0.0 0.01 0.0 6.9897551942257696e-12 0.0 0.010011372871954393 0.009992266979199187 0.0 1.7528192493517596e-12 0.0 0.01 0.0 1.7528192493517596e-12 0.0 0.01001142334414796 0.01000444436109708 0.0 7.128513863706146e-11 0.0 0.01 0.0 7.128513863706146e-11 0.0 0.01001383872362713 0.010003990186968853 0.0 3.270992834574205e-10 0.0 0.01 0.0 3.2709928345736757e-10 0.0 0.010013509727680512 0.010003690542010215 0.0 2.728386175932284e-10 0.0 0.01 0.0 2.728386175932284e-10 0.0 0.010013340146525338 0.010003490126297351 0.0 1.781446781766211e-10 0.0 0.01 0.0 1.7814467817659462e-10 0.0 0.01001333813851117 0.010003354236881314 0.0 1.0809350693743648e-10 0.0 0.01 0.0 1.0809350693744971e-10 0.0 0.010013439143121573 0.010003264297650494 0.0 6.814038925028776e-11 0.0 0.01 0.0 6.814038925027453e-11 0.0 0.010013574439871425 0.01000320809311914 0.0 4.098754211223597e-11 0.0 0.01 0.0 4.0987542112229353e-11 0.0 0.01001370341616466 0.0100031763127037 0.0 1.9031059619411566e-11 0.0 0.01 0.0 1.9031059619414875e-11 0.0 0.010013804883695463 0.010003161648771616 0.0 4.722931245851859e-12 0.0 0.01 0.0 4.722931245851859e-12 0.0 0.010013873568069567 0.010019702123469282 0.0 -1.789390920075327e-10 0.0 0.01 0.0 -1.789390920074268e-10 0.0 0.01001620631172309 0.010018893258720643 0.0 2.2032551409727606e-10 0.0 0.01 0.0 2.2032551409717018e-10 0.0 0.010015989920029231 0.010018288799964884 0.0 2.6174401897730045e-10 0.0 0.01 0.0 2.6174401897772397e-10 0.0 0.010015882960287544 0.010017833743173955 0.0 2.1994143733140468e-10 0.0 0.01 0.0 2.1994143733140468e-10 0.0 0.01001590848160557 0.010017489123662605 0.0 1.6517466579341113e-10 0.0 0.01 0.0 1.6517466579341113e-10 0.0 0.01001602378211767 0.010017229476154067 0.0 1.1590086170512663e-10 0.0 0.01 0.0 1.1590086170512663e-10 0.0 0.010016170990737257 0.01001704050808365 0.0 7.079697477795874e-11 0.0 0.01 0.0 7.079697477795874e-11 0.0 0.010016315743835191 0.010016911955599225 0.0 3.261420821757332e-11 0.0 0.01 0.0 3.26142082176792e-11 0.0 0.010016439851626929 0.010016840796539715 0.0 8.094970229474928e-12 0.0 0.01 0.0 8.094970229474928e-12 0.0 0.010016525222377124 0.010035865885652086 0.0 -4.2900890972192117e-10 0.0 0.01 0.0 -4.2900890972192117e-10 0.0 0.01001822203565272 0.010034790063765602 0.0 2.3129215436152505e-11 0.0 0.01 0.0 2.312921543615416e-11 0.0 0.010018222538391023 0.010033920361364305 0.0 1.569396688647778e-10 0.0 0.01 0.0 1.5693966886476456e-10 0.0 0.010018281459847178 0.01003321702563639 0.0 1.8869399142993667e-10 0.0 0.01 0.0 1.886939914299102e-10 0.0 0.010018412528623503 0.010032651423949537 0.0 1.72929468922831e-10 0.0 0.01 0.0 1.72929468922831e-10 0.0 0.01001858734527378 0.010032202232379682 0.0 1.33106257353616e-10 0.0 0.01 0.0 1.3310625735360278e-10 0.0 0.01001877293143276 0.010031862084508167 0.0 8.339465100469594e-11 0.0 0.01 0.0 8.339465100469594e-11 0.0 0.010018947766950632 0.0100316234766344 0.0 3.852568970634003e-11 0.0 0.01 0.0 3.852568970633341e-11 0.0 0.01001909555711669 0.010031481036808813 0.0 9.581118293566005e-12 0.0 0.01 0.0 9.58111829356766e-12 0.0 0.010019201664331465 0.01004993946708167 0.0 -4.766392405969548e-10 0.0 0.01 0.0 -4.766392405969283e-10 0.0 0.010019718821821065 0.010048734303966408 0.0 -1.1947290895853426e-10 0.0 0.01 0.0 -1.1947290895852764e-10 0.0 0.010019979618660349 0.010047669757198225 0.0 3.0908318508057975e-11 0.0 0.01 0.0 3.090831850805963e-11 0.0 0.010020279270949797 0.01004675010419695 0.0 1.0097293045947188e-10 0.0 0.01 0.0 1.0097293045947188e-10 0.0 0.010020584383535563 0.010045971829323035 0.0 1.187411595830548e-10 0.0 0.01 0.0 1.1874115958306141e-10 0.0 0.010020868845005502 0.010045327839832635 0.0 1.0062485716799554e-10 0.0 0.01 0.0 1.0062485716799554e-10 0.0 0.010021126310060961 0.010044825507577635 0.0 6.493997616406437e-11 0.0 0.01 0.0 6.493997616406437e-11 0.0 0.010021350432012193 0.010044463755432168 0.0 3.002126143295485e-11 0.0 0.01 0.0 3.0021261432953197e-11 0.0 0.010021536675005582 0.010044245527171864 0.0 7.39179867297117e-12 0.0 0.01 0.0 7.39179867297117e-12 0.0 0.010021667871588652 0.010059071066417685 0.0 -3.249314994058073e-10 0.0 0.01 0.0 -3.249314994057941e-10 0.0 0.010020635951070452 0.01005787406203549 0.0 -1.4108998761726172e-10 0.0 0.01 0.0 -1.4108998761726172e-10 0.0 0.010021161230633327 0.010056708252283312 0.0 -4.8067692440068727e-11 0.0 0.01 0.0 -4.8067692440068727e-11 0.0 0.01002170325075914 0.010055628256381274 0.0 9.860436117521606e-12 0.0 0.01 0.0 9.860436117521606e-12 0.0 0.010022204588210092 0.010054671144119799 0.0 3.797665862837895e-11 0.0 0.01 0.0 3.797665862838226e-11 0.0 0.01002263864484108 0.010053862267237545 0.0 4.014456332326043e-11 0.0 0.01 0.0 4.014456332326043e-11 0.0 0.010022997037008024 0.010053211780578735 0.0 2.7508017420492175e-11 0.0 0.01 0.0 2.750801742049052e-11 0.0 0.010023294039784799 0.010052739503655064 0.0 1.2603877055814034e-11 0.0 0.01 0.0 1.2603877055814034e-11 0.0 0.010023533967222057 0.010052451811584394 0.0 3.0095401548107716e-12 0.0 0.01 0.0 3.0095401548105648e-12 0.0 0.010023701700076345 0.010062329896805583 0.0 -1.3357432279289696e-10 0.0 0.01 0.0 -1.3357432279290358e-10 0.0 0.010021109151815501 0.010061246612144421 0.0 -8.586877511334758e-11 0.0 0.01 0.0 -8.586877511334428e-11 0.0 0.010021807478060894 0.010060079629396625 0.0 -5.8058906559754186e-11 0.0 0.01 0.0 -5.8058906559754186e-11 0.0 0.010022535398380633 0.01005893091467799 0.0 -3.208752606891099e-11 0.0 0.01 0.0 -3.2087526068912645e-11 0.0 0.010023214890168393 0.010057874062035487 0.0 -1.2639373623897656e-11 0.0 0.01 0.0 -1.2639373623898484e-11 0.0 0.010023792141338781 0.010056960555698102 0.0 -3.0076384445689613e-12 0.0 0.01 0.0 -3.0076384445690647e-12 0.0 0.010024263825147225 0.01005622007544778 0.0 -5.167507694916276e-13 0.0 0.01 0.0 -5.167507694916276e-13 0.0 0.010024647979872512 0.010055675384534382 0.0 -5.16284172331205e-13 0.0 0.01 0.0 -5.16284172331205e-13 0.0 0.01002495293759203 0.010055341790439898 0.0 -2.9624458896392286e-13 0.0 0.01 0.0 -2.9624458896392286e-13 0.0 0.010025160086953344 0.010061116808520416 0.0 -2.1711680841252153e-11 0.0 0.01 0.0 -2.1711680841250498e-11 0.0 0.010021299809529403 0.010060177066082154 0.0 -2.7788597762593833e-11 0.0 0.01 0.0 -2.7788597762593833e-11 0.0 0.010022060586286371 0.010059069081657148 0.0 -3.0131719389108494e-11 0.0 0.01 0.0 -3.0131719389108494e-11 0.0 0.010022888392647193 0.010057926207414357 0.0 -2.5718219245150254e-11 0.0 0.01 0.0 -2.5718219245151908e-11 0.0 0.010023682967559656 0.010056848819712583 0.0 -1.8709546184653508e-11 0.0 0.01 0.0 -1.8709546184654335e-11 0.0 0.010024373471205448 0.010055906255967051 0.0 -1.2389134670020044e-11 0.0 0.01 0.0 -1.2389134670020871e-11 0.0 0.010024943618187693 0.010055137746046989 0.0 -7.541397472235091e-12 0.0 0.01 0.0 -7.541397472235091e-12 0.0 0.010025407554579304 0.010054570919588546 0.0 -3.788732922002251e-12 0.0 0.01 0.0 -3.788732922002044e-12 0.0 0.010025775112083241 0.010054221021231243 0.0 -1.063843790965168e-12 0.0 0.01 0.0 -1.063843790965168e-12 0.0 0.010026022625258172 0.010057645038960599 0.0 4.0301833385445975e-12 0.0 0.01 0.0 4.030183338544184e-12 0.0 0.01002133367518096 0.010056806099609891 0.0 -1.6327903044599997e-12 0.0 0.01 0.0 -1.6327903044599997e-12 0.0 0.010022059126669152 0.010055756830865892 0.0 -5.127387756600273e-12 0.0 0.01 0.0 -5.127387756600066e-12 0.0 0.010022898713206156 0.010054653304747158 0.0 -6.081025716196094e-12 0.0 0.01 0.0 -6.0810257161952666e-12 0.0 0.010023741532201508 0.010053604201535175 0.0 -5.460326045087903e-12 0.0 0.01 0.0 -5.460326045088317e-12 0.0 0.010024492539718398 0.010052683934088185 0.0 -4.169223846124568e-12 0.0 0.01 0.0 -4.169223846124568e-12 0.0 0.010025123663603606 0.010051935003129578 0.0 -2.7093712110608347e-12 0.0 0.01 0.0 -2.7093712110608347e-12 0.0 0.01002564617264068 0.010051380091607854 0.0 -1.3632197064582673e-12 0.0 0.01 0.0 -1.3632197064580605e-12 0.0 0.010026060519772744 0.010051039004750668 0.0 -3.7295044584381465e-13 0.0 0.01 0.0 -3.7295044584381465e-13 0.0 0.010026339047561509 0.010053563555077001 0.0 -1.1143786690325623e-11 0.0 0.01 0.0 -1.114378669032521e-11 0.0 0.010021253112730472 0.010052738487749775 0.0 -1.1276418065931748e-12 0.0 0.01 0.0 -1.1276418065931748e-12 0.0 0.010021892482840574 0.010051712834529488 0.0 2.118090164726257e-12 0.0 0.01 0.0 2.1180901647263603e-12 0.0 0.010022683397711098 0.01005064089399238 0.0 2.87118981463269e-12 0.0 0.01 0.0 2.87118981463269e-12 0.0 0.010023511861959015 0.010049633695181049 0.0 2.8817638801250417e-12 0.0 0.01 0.0 2.8817638801252485e-12 0.0 0.01002426724995818 0.010048755612559001 0.0 2.4977643827166877e-12 0.0 0.01 0.0 2.497764382716481e-12 0.0 0.010024916566874757 0.010048047174526072 0.0 1.786443422217331e-12 0.0 0.01 0.0 1.7864434222174345e-12 0.0 0.010025462622649145 0.010047524147663758 0.0 9.451649427899153e-13 0.0 0.01 0.0 9.45164942789967e-13 0.0 0.010025899571832224 0.010047205208320373 0.0 2.635084767523089e-13 0.0 0.01 0.0 2.635084767523089e-13 0.0 0.01002619632877648 0.010049378492170432 0.0 -3.4745888139570095e-11 0.0 0.01 0.0 -3.474588813957175e-11 0.0 0.010021047211785913 0.010048481655272177 0.0 -9.809950721939224e-12 0.0 0.01 0.0 -9.809950721938397e-12 0.0 0.010021588257243858 0.010047427585305524 0.0 -2.044648394728386e-12 0.0 0.01 0.0 -2.0446483947284895e-12 0.0 0.010022300928509508 0.010046362946747621 0.0 6.190160651573214e-13 0.0 0.01 0.0 6.190160651573214e-13 0.0 0.010023067874228467 0.010045385720323648 0.0 1.8327753265111818e-12 0.0 0.01 0.0 1.832775326510975e-12 0.0 0.010023785745912948 0.010044549338031412 0.0 2.2930125669283498e-12 0.0 0.01 0.0 2.2930125669285566e-12 0.0 0.0100244128580358 0.010043881405948049 0.0 1.970228862342868e-12 0.0 0.01 0.0 1.970228862342868e-12 0.0 0.010024949512078225 0.010043396107654071 0.0 1.1321690887287484e-12 0.0 0.01 0.0 1.1321690887285416e-12 0.0 0.010025382917831798 0.010043102278026126 0.0 3.2339954330813283e-13 0.0 0.01 0.0 3.2339954330818453e-13 0.0 0.010025678671562314 0.010044666137234072 0.0 -5.589615665632218e-11 0.0 0.01 0.0 -5.589615665632218e-11 0.0 0.010020677708779577 0.010043633530295191 0.0 -1.596097140432975e-11 0.0 0.01 0.0 -1.596097140432975e-11 0.0 0.010021131744362357 0.01004251373396033 0.0 -6.025105861885637e-12 0.0 0.01 0.0 -6.025105861885637e-12 0.0 0.010021757301595168 0.010041437291708467 0.0 -3.0828091005416484e-12 0.0 0.01 0.0 -3.0828091005412348e-12 0.0 0.010022449370490495 0.010040477848690424 0.0 -1.581281762299944e-12 0.0 0.01 0.0 -1.5812817622998406e-12 0.0 0.010023098334191552 0.010039673353513683 0.0 -3.6327604382608727e-13 0.0 0.01 0.0 -3.6327604382613897e-13 0.0 0.01002367264457787 0.010039043879067566 0.0 3.273415620613392e-13 0.0 0.01 0.0 3.273415620613392e-13 0.0 0.010024170349309478 0.010038589933615635 0.0 3.5348899486154936e-13 0.0 0.01 0.0 3.5348899486154936e-13 0.0 0.010024578620232464 0.010038317767862553 0.0 1.2079153024596572e-13 0.0 0.01 0.0 1.2079153024596572e-13 0.0 0.010024861457428685 0.01003873217065147 0.0 -6.540845295225021e-11 0.0 0.01 0.0 -6.540845295225021e-11 0.0 0.010020108339591667 0.010037541905921477 0.0 -1.0684151748680792e-11 0.0 0.01 0.0 -1.0684151748680792e-11 0.0 0.010020495940778187 0.010036349587655214 0.0 -1.4417281909692358e-12 0.0 0.01 0.0 -1.4417281909688222e-12 0.0 0.01002104474628454 0.010035257844596362 0.0 -5.600609582140397e-13 0.0 0.01 0.0 -5.600609582140397e-13 0.0 0.010021652622929436 0.010034319418382004 0.0 -6.464715569782696e-13 0.0 0.01 0.0 -6.464715569781662e-13 0.0 0.010022224772128446 0.010033549432577523 0.0 -2.422207073096882e-13 0.0 0.01 0.0 -2.422207073096882e-13 0.0 0.010022728604255918 0.010032957617647843 0.0 2.131817632651028e-13 0.0 0.01 0.0 2.1318176326512865e-13 0.0 0.010023169626694896 0.010032534084058974 0.0 2.5651789452777757e-13 0.0 0.01 0.0 2.5651789452767417e-13 0.0 0.010023538901902112 0.010032281645583663 0.0 8.107263207473611e-14 0.0 0.01 0.0 8.107263207473611e-14 0.0 0.01002379707640015 0.010031312458887965 0.0 -5.03808222509726e-11 0.0 0.01 0.0 -5.03808222509726e-11 0.0 0.010019334227654915 0.01002998048751019 0.0 8.274036746862245e-12 0.0 0.01 0.0 8.274036746862245e-12 0.0 0.010019675114565004 0.010028747993598116 0.0 1.145208083204253e-11 0.0 0.01 0.0 1.145208083204253e-11 0.0 0.01002015793796069 0.010027677483886421 0.0 8.034838364403858e-12 0.0 0.01 0.0 8.034838364402203e-12 0.0 0.010020691997079447 0.010026786947955708 0.0 5.184404649871667e-12 0.0 0.01 0.0 5.184404649871667e-12 0.0 0.010021180854746311 0.010026074276797239 0.0 3.567463579579098e-12 0.0 0.01 0.0 3.567463579579098e-12 0.0 0.010021611859528731 0.010025532000640066 0.0 2.439044113857984e-12 0.0 0.01 0.0 2.439044113858811e-12 0.0 0.010021987857859212 0.010025149759407218 0.0 1.2706284665312741e-12 0.0 0.01 0.0 1.2706284665321013e-12 0.0 0.010022308780819375 0.010024922460717574 0.0 3.302752739976043e-13 0.0 0.01 0.0 3.302752739978111e-13 0.0 0.010022533435168271 0.01002292725852796 0.0 -1.460009993067933e-11 0.0 0.01 0.0 -1.460009993067933e-11 0.0 0.010018376229045712 0.010021523892798465 0.0 2.8660874733297586e-11 0.0 0.01 0.0 2.8660874733297586e-11 0.0 0.01001868554224649 0.010020320068396909 0.0 2.2077496778642732e-11 0.0 0.01 0.0 2.2077496778642732e-11 0.0 0.0100191191417939 0.010019330304992411 0.0 1.4997576608976412e-11 0.0 0.01 0.0 1.4997576608976412e-11 0.0 0.010019584734401043 0.010018538725516815 0.0 1.0549651166799902e-11 0.0 0.01 0.0 1.0549651166799902e-11 0.0 0.010020003209581288 0.010017922567882137 0.0 7.541277853069751e-12 0.0 0.01 0.0 7.541277853069751e-12 0.0 0.010020360363282028 0.010017460172417654 0.0 4.9189689810509855e-12 0.0 0.01 0.0 4.9189689810509855e-12 0.0 0.01002066890439988 0.010017136699536328 0.0 2.420541436590217e-12 0.0 0.01 0.0 2.420541436591044e-12 0.0 0.010020936668543319 0.010016945827040219 0.0 6.259848924810261e-13 0.0 0.01 0.0 6.259848924810261e-13 0.0 0.01002112927879859 0.010014695429994568 0.0 1.3530189787643166e-11 0.0 0.01 0.0 1.3530189787649784e-11 0.0 0.010017275111535924 0.010013306763446717 0.0 3.120279487109693e-11 0.0 0.01 0.0 3.120279487111016e-11 0.0 0.010017566680057382 0.010012205911326328 0.0 1.902146236719993e-11 0.0 0.01 0.0 1.9021462367206548e-11 0.0 0.010017965297078053 0.010011350847051508 0.0 1.2977890750009211e-11 0.0 0.01 0.0 1.297789075001252e-11 0.0 0.01001837768705439 0.010010701253045788 0.0 1.0109767793061124e-11 0.0 0.01 0.0 1.0109767793061124e-11 0.0 0.010018728733739166 0.010010208460650429 0.0 7.780874205107574e-12 0.0 0.01 0.0 7.78087420510592e-12 0.0 0.010019018468065053 0.010009847025514076 0.0 5.219726987055774e-12 0.0 0.01 0.0 5.219726987055774e-12 0.0 0.01001926301696062 0.010009596797121413 0.0 2.5406269819277113e-12 0.0 0.01 0.0 2.5406269819277113e-12 0.0 0.01001947620096429 0.010009449878172013 0.0 6.399422105904025e-13 0.0 0.01 0.0 6.399422105906093e-13 0.0 0.010019633369388442 0.010007686102352815 0.0 1.3656569631799942e-11 0.0 0.01 0.0 1.3656569631796634e-11 0.0 0.010016083619377695 0.010006374239463609 0.0 1.260249508057048e-11 0.0 0.01 0.0 1.260249508057048e-11 0.0 0.010016367245496474 0.010005409636460967 0.0 4.213973690735998e-12 0.0 0.01 0.0 4.213973690735998e-12 0.0 0.010016741648768602 0.010004715232917745 0.0 3.8979354559642465e-12 0.0 0.01 0.0 3.8979354559642465e-12 0.0 0.010017109711372596 0.010004212610418622 0.0 4.811200990911995e-12 0.0 0.01 0.0 4.811200990911995e-12 0.0 0.01001741011148222 0.01000384842041157 0.0 4.652741098144906e-12 0.0 0.01 0.0 4.652741098144906e-12 0.0 0.01001763835723841 0.010003585427371994 0.0 3.3919006016520017e-12 0.0 0.01 0.0 3.3919006016520017e-12 0.0 0.010017824896020574 0.010003406990346882 0.0 1.6664608328550757e-12 0.0 0.01 0.0 1.666460832854869e-12 0.0 0.010017984902421515 0.010003304837571102 0.0 4.017403868214648e-13 0.0 0.01 0.0 4.017403868214648e-13 0.0 0.010018106206759728 0.010002467713140768 0.0 7.540261758862133e-13 0.0 0.01 0.0 7.540261758862133e-13 0.0 0.010014840119126862 0.010001240480780714 0.0 -7.45944607661424e-12 0.0 0.01 0.0 -7.459446076612586e-12 0.0 0.010015125045980755 0.010000402874344855 0.0 -8.0293148221793e-12 0.0 0.01 0.0 -8.029314822180127e-12 0.0 0.01001548413968159 0.009999840003839898 0.0 -3.5271607089521546e-12 0.0 0.01 0.0 -3.5271607089529818e-12 0.0 0.010015824081140563 0.009999458044060622 0.0 -1.5483744159113384e-13 0.0 0.01 0.0 -1.5483744159113384e-13 0.0 0.010016085578802326 0.009999194597311472 0.0 1.3353556292831367e-12 0.0 0.01 0.0 1.3353556292830333e-12 0.0 0.01001626519761131 0.009999011646545696 0.0 1.3738296078768579e-12 0.0 0.01 0.0 1.3738296078768579e-12 0.0 0.010016399604019786 0.009998891684281792 0.0 7.309956349989422e-13 0.0 0.01 0.0 7.309956349989422e-13 0.0 0.010016513464298389 0.009998822208111744 0.0 1.6563803580226406e-13 0.0 0.01 0.0 1.6563803580226406e-13 0.0 0.010016599841918905 0.009999044137068562 0.0 7.265682051303348e-11 0.0 0.01 0.0 7.26568205130401e-11 0.0 0.010013591609647033 0.009997884171698902 0.0 -4.037632057995904e-12 0.0 0.01 0.0 -4.03763205799549e-12 0.0 0.01001387597807327 0.009997122242699876 0.0 -3.540186411864199e-12 0.0 0.01 0.0 -3.540186411863372e-12 0.0 0.010014227556004958 0.009996636198036105 0.0 -2.326652659079094e-12 0.0 0.01 0.0 -2.3266526590795075e-12 0.0 0.010014550244947521 0.009996324027909533 0.0 -1.5361052847928007e-12 0.0 0.01 0.0 -1.5361052847928007e-12 0.0 0.010014783217029536 0.0099961182613546 0.0 -4.577854911863345e-13 0.0 0.01 0.0 -4.577854911863345e-13 0.0 0.010014930822974819 0.009995984919425986 0.0 2.837205036384543e-13 0.0 0.01 0.0 2.837205036384543e-13 0.0 0.010015028912467737 0.00999589902408064 0.0 3.130967573162147e-13 0.0 0.01 0.0 3.130967573162147e-13 0.0 0.010015102494035593 0.00999585058407748 0.0 9.54187981089263e-14 0.0 0.01 0.0 9.54187981089263e-14 0.0 0.010015156940417184 0.00999707578315722 0.0 1.4491501766208651e-09 0.0 0.01 0.0 1.4491501766207592e-09 0.0 0.010012388232279942 0.009995951959322348 0.0 7.605613801505688e-11 0.0 0.01 0.0 7.605613801505688e-11 0.0 0.010012653375733496 0.009995206448924047 0.0 2.241798056280346e-11 0.0 0.01 0.0 2.2417980562801807e-11 0.0 0.010012993530973787 0.009994732165437729 0.0 8.347402215686687e-12 0.0 0.01 0.0 8.34740221568586e-12 0.0 0.010013302396061127 0.009994428659436432 0.0 -2.2999370304341884e-13 0.0 0.01 0.0 -2.2999370304341884e-13 0.0 0.010013520521325706 0.009994235987408987 0.0 -2.0383547128925764e-12 0.0 0.01 0.0 -2.038354712892783e-12 0.0 0.010013651905377414 0.0099941161969476 0.0 -9.565913650611891e-13 0.0 0.01 0.0 -9.565913650610857e-13 0.0 0.01001372646072158 0.009994045322952795 0.0 -7.280715600209315e-14 0.0 0.01 0.0 -7.280715600209315e-14 0.0 0.010013772048244014 0.009994007890113338 0.0 5.5715254890845295e-14 0.0 0.01 0.0 5.5715254890845295e-14 0.0 0.010013804431829258 0.009996102779444203 0.0 8.39573798266737e-09 0.0 0.01 0.0 8.39573798266737e-09 0.0 0.010011282716278274 0.00999501822518646 0.0 8.644186694918318e-10 0.0 0.01 0.0 8.644186694917259e-10 0.0 0.01001149243108201 0.009994233491730443 0.0 6.745468916005704e-11 0.0 0.01 0.0 6.745468916005704e-11 0.0 0.010011798196820026 0.009993710438767116 0.0 2.76548889549314e-11 0.0 0.01 0.0 2.7654888954928093e-11 0.0 0.010012088785530865 0.009993366107124011 0.0 2.749858604827561e-12 0.0 0.01 0.0 2.749858604827561e-12 0.0 0.010012301461720627 0.009993149046770601 0.0 -4.9768818674990704e-12 0.0 0.01 0.0 -4.9768818674990704e-12 0.0 0.01001243038883105 0.009993017320487131 0.0 -3.9183448777961544e-12 0.0 0.01 0.0 -3.9183448777961544e-12 0.0 0.010012497489107026 0.00999294098150252 0.0 -1.4478086686636557e-12 0.0 0.01 0.0 -1.4478086686635523e-12 0.0 0.010012528856564878 0.009992900567454232 0.0 -2.39956477762375e-13 0.0 0.01 0.0 -2.39956477762375e-13 0.0 0.010012547978311819 0.009995733232478234 0.0 2.9225107529329725e-08 0.0 0.01 0.0 2.9225107529333113e-08 0.0 0.010010325069199808 0.009994733663072129 0.0 4.722455972505596e-09 0.0 0.01 0.0 4.722455972505596e-09 0.0 0.01001043034615624 0.009993899586800196 0.0 2.0229882805706645e-10 0.0 0.01 0.0 2.0229882805706645e-10 0.0 0.010010666441708078 0.009993281277256225 0.0 6.024218599132872e-11 0.0 0.01 0.0 6.024218599132872e-11 0.0 0.01001092071328379 0.009992859654966529 0.0 1.2492482197809489e-11 0.0 0.01 0.0 1.2492482197810316e-11 0.0 0.01001112353245742 0.009992584756038689 0.0 -6.637611709540575e-12 0.0 0.01 0.0 -6.637611709540162e-12 0.0 0.0100112582336748 0.009992415637117768 0.0 -8.01279171790201e-12 0.0 0.01 0.0 -8.012791717902837e-12 0.0 0.01001133564543795 0.009992319357910113 0.0 -3.99902335658784e-12 0.0 0.01 0.0 -3.999023356588254e-12 0.0 0.010011371918709572 0.009992272965295894 0.0 -9.393011900314357e-13 0.0 0.01 0.0 -9.393011900314357e-13 0.0 0.010011388575447725 0.009995714756968328 0.0 7.73563323390282e-08 0.0 0.01 0.0 7.735633233903498e-08 0.0 0.01000954344513447 0.009994886924258966 0.0 1.866270930923528e-08 0.0 0.01 0.0 1.8662709309236975e-08 0.0 0.010009517470166117 0.009994042328310566 0.0 1.6424801189162822e-09 0.0 0.01 0.0 1.6424801189162822e-09 0.0 0.010009637464226761 0.009993315707942098 0.0 1.1555426406898915e-10 0.0 0.01 0.0 1.1555426406898915e-10 0.0 0.010009825010680174 0.009992783319595163 0.0 4.109660031530258e-11 0.0 0.01 0.0 4.109660031529927e-11 0.0 0.010010001334019306 0.009992424616667621 0.0 2.1250451124037374e-12 0.0 0.01 0.0 2.1250451124037374e-12 0.0 0.01001013894892385 0.00999220163167662 0.0 -8.362265481605458e-12 0.0 0.01 0.0 -8.362265481605458e-12 0.0 0.010010228572177635 0.009992070940477625 0.0 -5.9093816482187495e-12 0.0 0.01 0.0 -5.909381648218336e-12 0.0 0.010010279478455304 0.009992004100396062 0.0 -1.6740441450956873e-12 0.0 0.01 0.0 -1.6740441450956873e-12 0.0 0.010010304004022946 0.009995902024716235 0.0 1.698895138528794e-07 0.0 0.01 0.0 1.698895138528794e-07 0.0 0.01000894654611878 0.00999534625110394 0.0 5.657778321760615e-08 0.0 0.01 0.0 5.657778321760615e-08 0.0 0.01000878596590942 0.009994589893572905 0.0 1.0337047166820552e-08 0.0 0.01 0.0 1.0337047166820552e-08 0.0 0.010008762954979687 0.009993796277704484 0.0 7.158500355476465e-10 0.0 0.01 0.0 7.158500355476465e-10 0.0 0.01000884226403357 0.009993136572467438 0.0 9.898167263414777e-11 0.0 0.01 0.0 9.898167263414777e-11 0.0 0.01000896368776665 0.009992664579161223 0.0 3.352582162123386e-11 0.0 0.01 0.0 3.352582162123386e-11 0.0 0.010009080703918777 0.00999235327980046 0.0 3.868353719457535e-12 0.0 0.01 0.0 3.8683537194571216e-12 0.0 0.010009178170376276 0.009992171203115052 0.0 -2.9117896437908562e-12 0.0 0.01 0.0 -2.9117896437906494e-12 0.0 0.010009242297237408 0.009992075928597197 0.0 -1.3657409616021285e-12 0.0 0.01 0.0 -1.3657409616021285e-12 0.0 0.010009278497620408 0.009996185699447683 0.0 3.26658126925661e-07 0.0 0.01 0.0 3.266581269256068e-07 0.0 0.010008505505227274 0.009995976432713645 0.0 1.4250734176465493e-07 0.0 0.01 0.0 1.4250734176464138e-07 0.0 0.010008248948599687 0.009995431632680674 0.0 4.287300906805557e-08 0.0 0.01 0.0 4.287300906805557e-08 0.0 0.010008086949521327 0.009994686238420746 0.0 7.587293556028112e-09 0.0 0.01 0.0 7.587293556028112e-09 0.0 0.010008026753992861 0.009993939513879216 0.0 6.570818662510725e-10 0.0 0.01 0.0 6.570818662511255e-10 0.0 0.01000805221529442 0.009993336166924 0.0 9.131478103982762e-11 0.0 0.01 0.0 9.131478103984085e-11 0.0 0.010008118776487692 0.009992913539811361 0.0 3.546408821577723e-11 0.0 0.01 0.0 3.546408821577392e-11 0.0 0.01000819561421545 0.009992648614383677 0.0 9.643254203229135e-12 0.0 0.01 0.0 9.643254203229135e-12 0.0 0.010008261225913456 0.009992506431459125 0.0 1.4318842649527135e-12 0.0 0.01 0.0 1.4318842649527135e-12 0.0 0.010008302829110118 0.009996468418636936 0.0 5.594782758684192e-07 0.0 0.01 0.0 5.594782758684192e-07 0.0 0.010008156014117642 0.009996613235250881 0.0 3.0495166166517786e-07 0.0 0.01 0.0 3.0495166166517786e-07 0.0 0.010007870145064058 0.009996391956163742 0.0 1.29795046543464e-07 0.0 0.01 0.0 1.2979504654347755e-07 0.0 0.010007610732201418 0.009995843593047189 0.0 4.102839205190171e-08 0.0 0.01 0.0 4.102839205190849e-08 0.0 0.010007419850216422 0.009995143540085011 0.0 9.08058170265302e-09 0.0 0.01 0.0 9.08058170265302e-09 0.0 0.010007317574216707 0.009994471088711836 0.0 1.2768406489658804e-09 0.0 0.01 0.0 1.2768406489660922e-09 0.0 0.010007296077150785 0.009993935022058883 0.0 1.3052889132104237e-10 0.0 0.01 0.0 1.3052889132102913e-10 0.0 0.010007321983873517 0.00999356870954897 0.0 3.1583022566353307e-11 0.0 0.01 0.0 3.1583022566353307e-11 0.0 0.010007363124363478 0.00999336610712401 0.0 7.015539362458636e-12 0.0 0.01 0.0 7.015539362458636e-12 0.0 0.010007394894589653 0.009996734210015856 0.0 8.545195463822639e-07 0.0 0.01 0.0 8.545195463823723e-07 0.0 0.010007853601529112 0.009997094813223577 0.0 5.58136299015047e-07 0.0 0.01 0.0 5.581362990151554e-07 0.0 0.010007573591865217 0.009997244653085026 0.0 3.041851923520295e-07 0.0 0.01 0.0 3.041851923520295e-07 0.0 0.010007284816415133 0.009997032324387301 0.0 1.3662574762933108e-07 0.0 0.01 0.0 1.3662574762930398e-07 0.0 0.010007007862439148 0.009996546290417475 0.0 5.011362332497661e-08 0.0 0.01 0.0 5.0113623324983384e-08 0.0 0.010006794518931201 0.009995954456321085 0.0 1.475092172755514e-08 0.0 0.01 0.0 1.475092172755514e-08 0.0 0.01000666535816501 0.009995404669502836 0.0 3.2297904955499445e-09 0.0 0.01 0.0 3.2297904955499445e-09 0.0 0.010006606641395608 0.00999498028216639 0.0 4.873363511463468e-10 0.0 0.01 0.0 4.873363511462938e-10 0.0 0.010006594918210043 0.009994720683621974 0.0 3.0561663057772704e-11 0.0 0.01 0.0 3.0561663057769395e-11 0.0 0.010006600779796874 0.009997346260181617 0.0 1.1648250947057792e-06 0.0 0.01 0.0 1.1648250947057792e-06 0.0 0.010007713719225424 0.009997425609882902 0.0 8.773158692563544e-07 0.0 0.01 0.0 8.773158692563544e-07 0.0 0.010007334827335337 0.009997801274889072 0.0 5.746589996413537e-07 0.0 0.01 0.0 5.746589996413537e-07 0.0 0.010007026498276343 0.009997991621125153 0.0 3.258934315237172e-07 0.0 0.01 0.0 3.258934315237714e-07 0.0 0.010006724542751493 0.00999787368217729 0.0 1.5920541807847174e-07 0.0 0.01 0.0 1.5920541807847174e-07 0.0 0.010006449087044938 0.009997536910976539 0.0 6.615984711961294e-08 0.0 0.01 0.0 6.615984711961294e-08 0.0 0.010006233374058338 0.00999712124363804 0.0 2.2361581258428337e-08 0.0 0.01 0.0 2.236158125842495e-08 0.0 0.010006092964186314 0.00999674858644597 0.0 5.6072114994728855e-09 0.0 0.01 0.0 5.6072114994737326e-09 0.0 0.01000601517300106 0.00999649534325423 0.0 7.633431537135754e-10 0.0 0.01 0.0 7.633431537135754e-10 0.0 0.01000597900800898 0.009998944440124478 0.0 1.349509422411254e-06 0.0 0.01 0.0 1.349509422411254e-06 0.0 0.010007783751243372 0.009998201202353299 0.0 1.2027561341655408e-06 0.0 0.01 0.0 1.202756134165324e-06 0.0 0.01000731538603102 0.009998161128294148 0.0 8.981591013736134e-07 0.0 0.01 0.0 8.981591013738303e-07 0.0 0.010006847948555206 0.00999854037262901 0.0 5.945040440895897e-07 0.0 0.01 0.0 5.945040440898065e-07 0.0 0.010006497580234239 0.009998844218481677 0.0 3.4723241770112136e-07 0.0 0.01 0.0 3.472324177012298e-07 0.0 0.010006212352265125 0.009998901685560117 0.0 1.749615958861173e-07 0.0 0.01 0.0 1.749615958860631e-07 0.0 0.010005971649418742 0.009998771227320576 0.0 7.309708931503285e-08 0.0 0.01 0.0 7.309708931500574e-08 0.0 0.010005784816546869 0.00999857080652926 0.0 2.335259018500452e-08 0.0 0.01 0.0 2.335259018500452e-08 0.0 0.010005657647809148 0.009998403382462407 0.0 4.3637992123367445e-09 0.0 0.01 0.0 4.3637992123375915e-09 0.0 0.010005586227409314 0.010001536674814699 0.0 1.0674963247640518e-06 0.0 0.01 0.0 1.0674963247642687e-06 0.0 0.010007926585198676 0.010000178971262177 0.0 1.3335068989126647e-06 0.0 0.01 0.0 1.3335068989126647e-06 0.0 0.010007477895681861 0.0099992937845909 0.0 1.1830117644206876e-06 0.0 0.01 0.0 1.1830117644206876e-06 0.0 0.010006944436646941 0.009999070744422462 0.0 8.754015834605035e-07 0.0 0.01 0.0 8.754015834600698e-07 0.0 0.010006440882170994 0.009999360609816104 0.0 5.687349235362514e-07 0.0 0.01 0.0 5.687349235362514e-07 0.0 0.010006074929679646 0.00999976152411321 0.0 3.224225637882966e-07 0.0 0.01 0.0 3.2242256378851343e-07 0.0 0.010005828857949586 0.010000002453511247 0.0 1.530357496956538e-07 0.0 0.01 0.0 1.530357496955996e-07 0.0 0.010005648836307977 0.010000076151341424 0.0 5.6091524663730297e-08 0.0 0.01 0.0 5.609152466374385e-08 0.0 0.010005515810742494 0.010000070800773093 0.0 1.18889690766793e-08 0.0 0.01 0.0 1.1888969076672524e-08 0.0 0.010005434126273239 0.010003175812235738 0.0 7.574515264587391e-09 0.0 0.01 0.0 7.57451526459078e-09 0.0 0.01000762245643576 0.010002445802540925 0.0 8.395024203272216e-07 0.0 0.01 0.0 8.395024203270048e-07 0.0 0.010007445913466143 0.010001648052296688 0.0 1.1408945196744302e-06 0.0 0.01 0.0 1.140894519674647e-06 0.0 0.010007136226429451 0.010000947098053941 0.0 1.0446975626967996e-06 0.0 0.01 0.0 1.0446975626972332e-06 0.0 0.010006690972778122 0.010000505974380153 0.0 7.574712906678344e-07 0.0 0.01 0.0 7.574712906678344e-07 0.0 0.010006242275955948 0.010000469814643358 0.0 4.587324493546957e-07 0.0 0.01 0.0 4.587324493548041e-07 0.0 0.010005899297667603 0.010000694880489443 0.0 2.320190592262775e-07 0.0 0.01 0.0 2.320190592262233e-07 0.0 0.010005685052362821 0.01000094203434853 0.0 9.136685854820178e-08 0.0 0.01 0.0 9.136685854822888e-08 0.0 0.01000556223858553 0.01000108902793523 0.0 2.0631169629741202e-08 0.0 0.01 0.0 2.0631169629741202e-08 0.0 0.010005487914340971 0.010002704211548906 0.0 -3.168075840830368e-07 0.0 0.01 0.0 -3.1680758408314524e-07 0.0 0.010006956467160093 0.010003025346708952 0.0 4.0329058612780834e-07 0.0 0.01 0.0 4.032905861275915e-07 0.0 0.010006984384777654 0.010002952536284759 0.0 7.271546602516821e-07 0.0 0.01 0.0 7.271546602514653e-07 0.0 0.010006810730732951 0.010002867508294017 0.0 7.094526748236199e-07 0.0 0.01 0.0 7.094526748238367e-07 0.0 0.010006558772323714 0.010002755576738515 0.0 5.048839414973846e-07 0.0 0.01 0.0 5.048839414973846e-07 0.0 0.010006230456112816 0.010002685643047758 0.0 2.774969181069476e-07 0.0 0.01 0.0 2.77496918107056e-07 0.0 0.010005955026659167 0.010002659262303789 0.0 1.1346741078270333e-07 0.0 0.01 0.0 1.1346741078270333e-07 0.0 0.010005777955788402 0.010002672471036552 0.0 2.621722352474725e-08 0.0 0.01 0.0 2.6217223524760804e-08 0.0 0.010005684543536987 0.010002462812465997 0.0 -1.4029553299329568e-07 0.0 0.01 0.0 -1.4029553299318726e-07 0.0 0.01000662913894713 0.01000322961786403 0.0 1.628845301122981e-07 0.0 0.01 0.0 1.628845301122439e-07 0.0 0.010006662406209762 0.010003626479704712 0.0 2.304984499853233e-07 0.0 0.01 0.0 2.304984499853233e-07 0.0 0.010006450093144497 0.01000422242690403 0.0 1.6499465184329105e-07 0.0 0.01 0.0 1.6499465184329105e-07 0.0 0.010006212839187538 0.010004727951788955 0.0 7.63336042248694e-08 0.0 0.01 0.0 7.633360422476098e-08 0.0 0.010006029850354868 0.010005089332612882 0.0 1.857627992055133e-08 0.0 0.01 0.0 1.857627992055133e-08 0.0 0.010005933977689466 0.010001426565286528 0.0 -2.594099988284656e-07 0.0 0.01 0.0 -2.594099988284656e-07 0.0 0.010006609106348367 0.010002034822174672 0.0 -9.200401182612094e-08 0.0 0.01 0.0 -9.200401182612094e-08 0.0 0.010006391874457302 0.010002561533966814 0.0 -2.3740568118584687e-08 0.0 0.01 0.0 -2.3740568118584687e-08 0.0 0.010006236278913632 0.010002955409652778 0.0 -3.592737027080143e-09 0.0 0.01 0.0 -3.592737027081837e-09 0.0 0.010006165847969496 0.009999231588577491 0.0 -8.580787393130268e-19 0.0 0.01 0.0 -8.580787393130268e-19 0.0 0.010000007300007994 0.009999231588577491 0.0 4.589132264395745e-18 0.0 0.01 0.0 4.589132264395745e-18 0.0 0.010000007800009127 0.009999229589039104 0.0 -1.5701860588900703e-14 0.0 0.01 0.0 -1.5701860588900703e-14 0.0 0.010000009300012973 0.0099992280893861 0.0 5.5343893397938593e-17 0.0 0.01 0.0 5.5343893397938593e-17 0.0 0.010000011700020532 0.009999227589501915 0.0 1.4364334045665925e-16 0.0 0.01 0.0 1.4364334045665925e-16 0.0 0.010000014150030033 0.009999227589501915 0.0 2.964518940407246e-16 0.0 0.01 0.0 2.964518940407246e-16 0.0 0.010000018550051615 0.009999229089154694 0.0 5.633973610762399e-16 0.0 0.01 0.0 5.633973610762399e-16 0.0 0.010000021500069338 0.009999236587428713 0.0 8.691029288729348e-16 0.0 0.01 0.0 8.691029288729348e-16 0.0 0.010000025400096774 0.00999908962433267 0.0 1.2108449554797097e-18 0.0 0.01 0.0 1.2108449554797097e-18 0.0 0.01000001025001576 0.009999089124469252 0.0 -7.534020032893915e-15 0.0 0.01 0.0 -7.534020032893915e-15 0.0 0.010000010750017335 0.009999087125016327 0.0 2.2670832469964397e-17 0.0 0.01 0.0 2.2670832469964397e-17 0.0 0.010000012700024194 0.009999084625701857 0.0 2.3161668077429085e-17 0.0 0.01 0.0 2.3161668077429085e-17 0.0 0.010000015600036504 0.009999082126389263 0.0 7.16595324255794e-18 0.0 0.01 0.0 7.16595324255794e-18 0.0 0.010000019050054435 0.00999908112666475 0.0 -2.405207289020887e-16 0.0 0.01 0.0 -2.405207289020887e-16 0.0 0.01000002395008604 0.009999082126389263 0.0 -1.2665081764808833e-15 0.0 0.01 0.0 -1.2665081764808833e-15 0.0 0.010000028800124417 0.009999087125016327 0.0 -4.080766122285047e-15 0.0 0.01 0.0 -4.080766122285047e-15 0.0 0.010000033200165338 0.009998965160656037 0.0 -1.4045849965832309e-19 0.0 0.01 0.0 -1.4045849965832309e-19 0.0 0.010000013200026137 0.009998965160656037 0.0 -4.910647104076316e-15 0.0 0.01 0.0 -4.910647104076316e-15 0.0 0.010000013200026137 0.009998962661433023 0.0 -3.9143458013047374e-17 0.0 0.01 0.0 -3.9143458013047374e-17 0.0 0.010000015600036504 0.009998958662680099 0.0 1.0835865164138239e-17 0.0 0.01 0.0 1.0835865164138239e-17 0.0 0.010000019050054435 0.009998953664245691 0.0 -5.2725524043194935e-17 0.0 0.01 0.0 -5.2725524043194935e-17 0.0 0.010000023450082485 0.009998950665188643 0.0 -6.3024110360254825e-16 0.0 0.01 0.0 -6.3024110360254825e-16 0.0 0.010000029800133207 0.009998950165346064 0.0 -2.638625085852796e-15 0.0 0.01 0.0 -2.638625085852796e-15 0.0 0.01000003565019064 0.009998953664245691 0.0 -8.49331345318913e-15 0.0 0.01 0.0 -8.49331345318913e-15 0.0 0.010000040550246647 0.009998844200411788 0.0 1.7181194606251733e-18 0.0 0.01 0.0 1.7181194606251733e-18 0.0 0.010000014650032193 0.009998842700932174 0.0 3.7491211269290926e-17 0.0 0.01 0.0 3.7491211269290926e-17 0.0 0.010000016100038882 0.009998838202497383 0.0 3.242110940383774e-17 0.0 0.01 0.0 3.242110940383774e-17 0.0 0.01000001805004887 0.009998833704068663 0.0 5.915379399757265e-18 0.0 0.01 0.0 5.915379399757265e-18 0.0 0.0100000224500756 0.009998828205997363 0.0 9.458442047703449e-17 0.0 0.01 0.0 9.458442047703449e-17 0.0 0.010000027350112205 0.009998823207758595 0.0 -4.49282862149823e-16 0.0 0.01 0.0 -4.49282862149823e-16 0.0 0.010000033700170356 0.009998818209527324 0.0 -2.9661015422294885e-15 0.0 0.01 0.0 -2.9661015422294885e-15 0.0 0.010000040050240602 0.009998819209172978 0.0 -9.550321319375733e-15 0.0 0.01 0.0 -9.550321319375733e-15 0.0 0.01000004685032924 0.009998705251499469 0.0 -6.469035907727616e-19 0.0 0.01 0.0 -6.469035907727616e-19 0.0 0.010000017100043862 0.009998703752082366 0.0 4.897610072404984e-17 0.0 0.01 0.0 4.897610072404984e-17 0.0 0.010000017100043862 0.009998699753640062 0.0 1.4189241668776552e-16 0.0 0.01 0.0 1.4189241668776552e-16 0.0 0.01000002000006 0.009998692256573667 0.0 2.6902539835269474e-16 0.0 0.01 0.0 2.6902539835269474e-16 0.0 0.010000024900093002 0.009998684759524139 0.0 4.137583096897648e-16 0.0 0.01 0.0 4.137583096897648e-16 0.0 0.01000003025013726 0.009998675263285609 0.0 4.050312112224299e-17 0.0 0.01 0.0 4.050312112224299e-17 0.0 0.010000037100206463 0.009998668266074531 0.0 -2.5219089718579632e-15 0.0 0.01 0.0 -2.5219089718579632e-15 0.0 0.010000044900302403 0.009998665767074137 0.0 -8.818400780947196e-15 0.0 0.01 0.0 -8.818400780947196e-15 0.0 0.010000051750401712 0.009998541319224527 0.0 -1.8367891626302273e-18 0.0 0.01 0.0 -1.8367891626302273e-18 0.0 0.010000019050054435 0.009998539320100207 0.0 4.605880116286935e-17 0.0 0.01 0.0 4.605880116286935e-17 0.0 0.01000002000006 0.00999853382251451 0.0 9.636050540186996e-17 0.0 0.01 0.0 9.636050540186996e-17 0.0 0.010000022950079004 0.009998526325821357 0.0 5.271393049211852e-16 0.0 0.01 0.0 5.271393049211852e-16 0.0 0.010000027850116345 0.009998514331147387 0.0 8.02302917370975e-16 0.0 0.01 0.0 8.02302917370975e-16 0.0 0.010000033200165338 0.009998502336516585 0.0 5.245312925138445e-16 0.0 0.01 0.0 5.245312925138445e-16 0.0 0.010000040050240602 0.009998489842155402 0.0 -1.8746083196562833e-15 0.0 0.01 0.0 -1.8746083196562833e-15 0.0 0.010000048350350663 0.009998483345106097 0.0 -7.020947069133742e-15 0.0 0.01 0.0 -7.020947069133742e-15 0.0 0.01000005520045706 0.009998341412728031 0.0 -1.192040381684743e-18 0.0 0.01 0.0 -1.192040381684743e-18 0.0 0.0100000224500756 0.009998338913972702 0.0 9.860842192867235e-17 0.0 0.01 0.0 9.860842192867235e-17 0.0 0.010000023450082485 0.009998332417217615 0.0 2.691617517005091e-16 0.0 0.01 0.0 2.691617517005091e-16 0.0 0.01000002635010415 0.00999832192248615 0.0 8.70750066159307e-16 0.0 0.01 0.0 8.70750066159307e-16 0.0 0.010000029800133207 0.009998306930069952 0.0 1.3149325002394112e-15 0.0 0.01 0.0 1.3149325002394112e-15 0.0 0.010000038100217743 0.009998291437977402 0.0 8.446034451366241e-16 0.0 0.01 0.0 8.446034451366241e-16 0.0 0.010000045400309177 0.009998274446732892 0.0 -1.7020623640385098e-15 0.0 0.01 0.0 -1.7020623640385098e-15 0.0 0.010000051750401712 0.009998261453486715 0.0 -5.152694495748128e-15 0.0 0.01 0.0 -5.152694495748128e-15 0.0 0.010000059550531935 0.009998103539620743 0.0 1.6440184166675193e-18 0.0 0.01 0.0 1.6440184166675193e-18 0.0 0.010000028300120135 0.009998101540759002 0.0 -6.015402011361734e-17 0.0 0.01 0.0 -6.015402011361734e-17 0.0 0.010000029300128775 0.009998094045038155 0.0 4.583594683083784e-16 0.0 0.01 0.0 4.583594683083784e-16 0.0 0.010000031750151211 0.009998079053647035 0.0 1.008893411255181e-15 0.0 0.01 0.0 1.008893411255181e-15 0.0 0.010000036600200936 0.009998062063485287 0.0 1.8069398769243096e-15 0.0 0.01 0.0 1.8069398769243096e-15 0.0 0.010000044900302403 0.009998041075758008 0.0 1.4997164173538865e-15 0.0 0.01 0.0 1.4997164173538865e-15 0.0 0.010000052250409513 0.009998019588459863 0.0 -2.32494783765735e-15 0.0 0.01 0.0 -2.32494783765735e-15 0.0 0.010000059550531935 0.009998001099500258 0.0 -5.251608783737945e-15 0.0 0.01 0.0 -5.251608783737945e-15 0.0 0.010000066400661351 0.00999782520966273 0.0 -1.5421466686236834e-18 0.0 0.01 0.0 -1.5421466686236834e-18 0.0 0.010000036150196024 0.009997822711294405 0.0 1.821066989433507e-17 0.0 0.01 0.0 1.821066989433507e-17 0.0 0.010000038100217743 0.009997813217511848 0.0 3.6560959787985517e-16 0.0 0.01 0.0 3.6560959787985517e-16 0.0 0.010000041000252152 0.00999779522936644 0.0 1.348699416057992e-15 0.0 0.01 0.0 1.348699416057992e-15 0.0 0.010000047850343446 0.009997773743653335 0.0 2.174357428771622e-15 0.0 0.01 0.0 2.174357428771622e-15 0.0 0.010000054700448817 0.009997747761115556 0.0 1.821926565372249e-15 0.0 0.01 0.0 1.821926565372249e-15 0.0 0.010000061500567344 0.00999771978014757 0.0 -3.820968246473827e-15 0.0 0.01 0.0 -3.820968246473827e-15 0.0 0.010000070800751906 0.0099976942976847 0.0 -9.718734080330093e-15 0.0 0.01 0.0 -9.718734080330093e-15 0.0 0.010000078100914953 0.009997504434488021 0.0 -1.749028221263225e-18 0.0 0.01 0.0 -1.749028221263225e-18 0.0 0.010000051750401712 0.00999749943823418 0.0 -6.354466064631472e-17 0.0 0.01 0.0 -6.354466064631472e-17 0.0 0.010000052250409513 0.009997487447255525 0.0 1.661027771939385e-16 0.0 0.01 0.0 1.661027771939385e-16 0.0 0.010000056150472928 0.009997466463146696 0.0 1.4633089331909076e-15 0.0 0.01 0.0 1.4633089331909076e-15 0.0 0.010000062500585943 0.009997439983388416 0.0 2.6136064566776067e-15 0.0 0.01 0.0 2.6136064566776067e-15 0.0 0.010000072750793895 0.009997408507723028 0.0 1.24927205988002e-15 0.0 0.01 0.0 1.24927205988002e-15 0.0 0.010000080550973258 0.009997374034716325 0.0 -6.447043493333639e-15 0.0 0.01 0.0 -6.447043493333639e-15 0.0 0.010000090801236714 0.009997339562066233 0.0 -1.7093888684411266e-14 0.0 0.01 0.0 -1.7093888684411266e-14 0.0 0.01000009715141574 0.00999712873709619 0.0 2.9586538635883967e-19 0.0 0.01 0.0 2.9586538635883967e-19 0.0 0.010000069800730815 0.009997124740543114 0.0 8.481189359092121e-17 0.0 0.01 0.0 8.481189359092121e-17 0.0 0.010000070800751906 0.009997109753511762 0.0 3.230614577559557e-16 0.0 0.01 0.0 3.230614577559557e-16 0.0 0.010000076650881295 0.009997084775275961 0.0 1.297937607761303e-15 0.0 0.01 0.0 1.297937607761303e-15 0.0 0.01000008495108249 0.009997051804291387 0.0 2.6472861713817762e-15 0.0 0.01 0.0 2.6472861713817762e-15 0.0 0.010000094751346656 0.009997014337659435 0.0 8.964290271603994e-16 0.0 0.01 0.0 8.964290271603994e-16 0.0 0.01000010595168384 0.009996971875985796 0.0 -8.834053316466756e-15 0.0 0.01 0.0 -8.834053316466756e-15 0.0 0.010000117702078034 0.009996928415774256 0.0 -2.407819416169361e-14 0.0 0.01 0.0 -2.407819416169361e-14 0.0 0.010000128402473038 0.009996698635570993 0.0 -2.9100867059821226e-18 0.0 0.01 0.0 -2.9100867059821226e-18 0.0 0.010000095201359476 0.009996693141020975 0.0 -4.2025246254607226e-17 0.0 0.01 0.0 -4.2025246254607226e-17 0.0 0.01000009715141574 0.009996676657425286 0.0 1.275955162115988e-16 0.0 0.01 0.0 1.275955162115988e-16 0.0 0.010000104501638067 0.009996647186957414 0.0 9.609914195515022e-16 0.0 0.01 0.0 9.609914195515022e-16 0.0 0.01000011330192557 0.009996610224366166 0.0 1.9387124689330205e-15 0.0 0.01 0.0 1.9387124689330205e-15 0.0 0.010000126952417497 0.00999656327247659 0.0 6.207256004572586e-16 0.0 0.01 0.0 6.207256004572586e-16 0.0 0.010000142103028933 0.009996511326476016 0.0 -1.0924744275167833e-14 0.0 0.01 0.0 -1.0924744275167833e-14 0.0 0.010000158203754186 0.009996454886066403 0.0 -3.068215052098813e-14 0.0 0.01 0.0 -3.068215052098813e-14 0.0 0.010000173854533705 0.009996205660644733 0.0 2.3528200326269313e-18 0.0 0.01 0.0 2.3528200326269313e-18 0.0 0.010000127452436577 0.009996200166907547 0.0 -5.169716417740944e-16 0.0 0.01 0.0 -5.169716417740944e-16 0.0 0.010000130852568314 0.009996178691476364 0.0 -9.209364356650257e-16 0.0 0.01 0.0 -9.209364356650257e-16 0.0 0.010000139152904475 0.009996146728300214 0.0 -1.2526587438371003e-16 0.0 0.01 0.0 -1.2526587438371003e-16 0.0 0.010000152353481668 0.009996101281187046 0.0 1.5919385294788839e-15 0.0 0.01 0.0 1.5919385294788839e-15 0.0 0.010000169904330024 0.009996046845350916 0.0 3.803578921219894e-16 0.0 0.01 0.0 3.803578921219894e-16 0.0 0.010000189955412322 0.009995984420028041 0.0 -9.485570091018767e-15 0.0 0.01 0.0 -9.485570091018767e-15 0.0 0.01000021190673548 0.009995915004442345 0.0 -2.808519967596996e-14 0.0 0.01 0.0 -2.808519967596996e-14 0.0 0.010000237308447027 0.009995642849369534 0.0 1.362970998085533e-19 0.0 0.01 0.0 1.362970998085533e-19 0.0 0.010000166504158452 0.009995634859831718 0.0 2.501363535849638e-17 0.0 0.01 0.0 2.501363535849638e-17 0.0 0.010000170904381147 0.009995611390675181 0.0 -1.4225613287300978e-15 0.0 0.01 0.0 -1.4225613287300978e-15 0.0 0.010000182605001566 0.009995571443554856 0.0 -1.935262037898036e-15 0.0 0.01 0.0 -1.935262037898036e-15 0.0 0.010000199205952293 0.009995520511671052 0.0 6.069503150689662e-16 0.0 0.01 0.0 6.069503150689662e-16 0.0 0.01000022265743623 0.009995455100295664 0.0 1.3560935776090506e-15 0.0 0.01 0.0 1.3560935776090506e-15 0.0 0.01000025000937539 0.009995382200581262 0.0 -1.4747784918213049e-15 0.0 0.01 0.0 -1.4747784918213049e-15 0.0 0.010000281261865791 0.009995300814428355 0.0 -1.3375015938993338e-14 0.0 0.01 0.0 -1.3375015938993338e-14 0.0 0.010000319365298478 0.009995005244630878 0.0 1.3717328744658434e-18 0.0 0.01 0.0 1.3717328744658434e-18 0.0 0.010000213406831177 0.009994995758872326 0.0 -1.503982772082625e-15 0.0 0.01 0.0 -1.503982772082625e-15 0.0 0.01000021825714522 0.009994968799495473 0.0 -3.678962381922843e-15 0.0 0.01 0.0 -3.678962381922843e-15 0.0 0.010000232408101778 0.00999492336844657 0.0 -5.052322225860381e-15 0.0 0.01 0.0 -5.052322225860381e-15 0.0 0.01000025535978096 0.00999486146339912 0.0 -3.293688891812349e-15 0.0 0.01 0.0 -3.293688891812349e-15 0.0 0.010000286612321522 0.0099947870790168 0.0 7.384942135596022e-16 0.0 0.01 0.0 7.384942135596022e-16 0.0 0.010000322265577597 0.009994699217724744 0.0 3.270457778519817e-15 0.0 0.01 0.0 3.270457778519817e-15 0.0 0.010000367220226614 0.00999460187411259 0.0 5.454904110165289e-15 0.0 0.01 0.0 5.454904110165289e-15 0.0 0.010000417976204155 0.009994283904799646 0.0 1.6499804369976384e-18 0.0 0.01 0.0 1.6499804369976384e-18 0.0 0.010000265160546144 0.009994271925387366 0.0 -2.1575735142659612e-15 0.0 0.01 0.0 -2.1575735142659612e-15 0.0 0.010000272461134855 0.009994241977045128 0.0 -7.053048704477034e-15 0.0 0.01 0.0 -7.053048704477034e-15 0.0 0.010000290562663508 0.00999418906896512 0.0 -1.127660664794919e-14 0.0 0.01 0.0 -1.127660664794919e-14 0.0 0.010000318365202815 0.009994116696065583 0.0 -1.1061731556472583e-14 0.0 0.01 0.0 -1.1061731556472583e-14 0.0 0.010000358419268735 0.009994028852451613 0.0 -5.564551712799061e-15 0.0 0.01 0.0 -5.564551712799061e-15 0.0 0.010000407274879573 0.0099939260384365 0.0 5.22653400695803e-15 0.0 0.01 0.0 5.22653400695803e-15 0.0 0.01000046488241534 0.009993812747055736 0.0 1.4158416356515848e-14 0.0 0.01 0.0 1.4158416356515848e-14 0.0 0.010000534242809257 0.00999346890385878 0.0 -5.674609184652832e-19 0.0 0.01 0.0 -5.674609184652832e-19 0.0 0.010000325215864117 0.00999345592933869 0.0 -3.402865266950857e-15 0.0 0.01 0.0 -3.402865266950857e-15 0.0 0.010000333016634272 0.009993420000162175 0.0 -1.2018086074718418e-14 0.0 0.01 0.0 -1.2018086074718418e-14 0.0 0.010000355468952829 0.009993360618067193 0.0 -2.1848115028767544e-14 0.0 0.01 0.0 -2.1848115028767544e-14 0.0 0.010000391623004085 0.009993278283300357 0.0 -2.542100823426501e-14 0.0 0.01 0.0 -2.542100823426501e-14 0.0 0.010000441429227243 0.009993175492447806 0.0 -1.8005888889202876e-14 0.0 0.01 0.0 -1.8005888889202876e-14 0.0 0.010000503438014924 0.009993055740115046 0.0 -1.365914505685275e-15 0.0 0.01 0.0 -1.365914505685275e-15 0.0 0.010000575749719345 0.009992923518581985 0.0 2.1069049223211456e-14 0.0 0.01 0.0 2.1069049223211456e-14 0.0 0.010000662665863087 0.009992557816166578 0.0 -2.3178173418041466e-19 0.0 0.01 0.0 -2.3178173418041466e-19 0.0 0.010000390172834038 0.009992544346312233 0.0 -4.9964674510274134e-15 0.0 0.01 0.0 -4.9964674510274134e-15 0.0 0.010000398973875753 0.009992501941570888 0.0 -1.9611811462247386e-14 0.0 0.01 0.0 -1.9611811462247386e-14 0.0 0.010000427777447467 0.009992432099644321 0.0 -3.6814005759629533e-14 0.0 0.01 0.0 -3.6814005759629533e-14 0.0 0.010000472683512342 0.009992335321109594 0.0 -4.6241561728231306e-14 0.0 0.01 0.0 -4.6241561728231306e-14 0.0 0.01000053229249728 0.009992216596644938 0.0 -4.051765763116824e-14 0.0 0.01 0.0 -4.051765763116824e-14 0.0 0.010000608955619526 0.009992077923847119 0.0 -1.3624005234486141e-14 0.0 0.01 0.0 -1.3624005234486141e-14 0.0 0.010000699273340642 0.0099919252906798 0.0 1.5127089362743382e-14 0.0 0.01 0.0 1.5127089362743382e-14 0.0 0.010000803796903034 0.009991538751038205 0.0 2.761657624306465e-19 0.0 0.01 0.0 2.761657624306465e-19 0.0 0.010000463432213422 0.009991522292926625 0.0 -7.39690566660561e-15 0.0 0.01 0.0 -7.39690566660561e-15 0.0 0.010000474133718285 0.00999147391652406 0.0 -2.623109318053018e-14 0.0 0.01 0.0 -2.623109318053018e-14 0.0 0.01000050588838587 0.009991393623221356 0.0 -5.043755212918686e-14 0.0 0.01 0.0 -5.043755212918686e-14 0.0 0.010000561097220981 0.0099912829114073 0.0 -6.899388311314366e-14 0.0 0.01 0.0 -6.899388311314366e-14 0.0 0.010000633860261732 0.009991145773497379 0.0 -5.827276341174235e-14 0.0 0.01 0.0 -5.827276341174235e-14 0.0 0.01000072612908186 0.009990985204648835 0.0 -3.0706201122360706e-14 0.0 0.01 0.0 -3.0706201122360706e-14 0.0 0.010000832603972864 0.00999080918620375 0.0 2.1604703487039766e-15 0.0 0.01 0.0 2.1604703487039766e-15 0.0 0.010000956687270069 0.009990407320600175 0.0 -5.495236283329909e-19 0.0 0.01 0.0 -5.495236283329909e-19 0.0 0.010000549345263718 0.009990388873839582 0.0 -7.675622487248374e-15 0.0 0.01 0.0 -7.675622487248374e-15 0.0 0.010000562047381038 0.00999033153996577 0.0 -2.6827469721667165e-14 0.0 0.01 0.0 -2.6827469721667165e-14 0.0 0.0100005991538435 0.0099902378136718 0.0 -5.216446101438463e-14 0.0 0.01 0.0 -5.216446101438463e-14 0.0 0.010000662665863087 0.009990111686173819 0.0 -7.034134613525491e-14 0.0 0.01 0.0 -7.034134613525491e-14 0.0 0.010000745683398269 0.009989953161153475 0.0 -5.423117314879537e-14 0.0 0.01 0.0 -5.423117314879537e-14 0.0 0.010000852158913848 0.009989766729433948 0.0 -1.9105864155796615e-14 0.0 0.01 0.0 -1.9105864155796615e-14 0.0 0.010000976693070771 0.009989562364407626 0.0 3.842605748876579e-15 0.0 0.01 0.0 3.842605748876579e-15 0.0 0.010001118837741678 0.009989151678480567 0.0 5.284882662205027e-19 0.0 0.01 0.0 5.284882662205027e-19 0.0 0.010000654364223278 0.00998913124518809 0.0 -4.418540094177401e-15 0.0 0.01 0.0 -4.418540094177401e-15 0.0 0.01000066801693103 0.009989065460805472 0.0 -1.4564619725005554e-14 0.0 0.01 0.0 -1.4564619725005554e-14 0.0 0.010000709525506824 0.009988960308165755 0.0 -2.6180237723753498e-14 0.0 0.01 0.0 -2.6180237723753498e-14 0.0 0.010000779391108107 0.009988812801054571 0.0 -2.288118060212944e-14 0.0 0.01 0.0 -2.288118060212944e-14 0.0 0.010000875614991817 0.009988629921243657 0.0 1.4332676521428625e-14 0.0 0.01 0.0 1.4332676521428625e-14 0.0 0.010000994798423899 0.00998841416588163 0.0 6.397833926982133e-14 0.0 0.01 0.0 6.397833926982133e-14 0.0 0.010001134493031966 0.009988176502370695 0.0 5.6682178981226105e-14 0.0 0.01 0.0 5.6682178981226105e-14 0.0 0.010001293701006048 0.009987767481839277 0.0 1.0148781721266406e-18 0.0 0.01 0.0 1.0148781721266406e-18 0.0 0.01000079014363918 0.009987741577237032 0.0 4.9395438123125054e-15 0.0 0.01 0.0 4.9395438123125054e-15 0.0 0.01000080529726511 0.009987669344314633 0.0 1.4211608384234745e-14 0.0 0.01 0.0 1.4211608384234745e-14 0.0 0.01000085265904172 0.009987546801010359 0.0 3.33903756952408e-14 0.0 0.01 0.0 3.33903756952408e-14 0.0 0.010000926878849736 0.009987378933968219 0.0 8.20165684883564e-14 0.0 0.01 0.0 8.20165684883564e-14 0.0 0.010001029959100514 0.009987167742354284 0.0 1.7600424985625e-13 0.0 0.01 0.0 1.7600424985625e-13 0.0 0.010001158401252937 0.009986921203056545 0.0 2.5253466594481123e-13 0.0 0.01 0.0 2.5253466594481123e-13 0.0 0.01000130980729434 0.009986645797916985 0.0 1.8773283981952922e-13 0.0 0.01 0.0 1.8773283981952922e-13 0.0 0.010001483229930407 0.009986244434482407 0.0 -4.659559605804966e-19 0.0 0.01 0.0 -4.659559605804966e-19 0.0 0.010000975242646185 0.009986217545857894 0.0 1.357530886372589e-14 0.0 0.01 0.0 1.357530886372589e-14 0.0 0.01000099039711354 0.00998613339582545 0.0 5.274038118630149e-14 0.0 0.01 0.0 5.274038118630149e-14 0.0 0.010001037761519995 0.00998599646984634 0.0 1.1671427884100617e-13 0.0 0.01 0.0 1.1671427884100617e-13 0.0 0.01000111443626755 0.009985806276559265 0.0 2.265288395769685e-13 0.0 0.01 0.0 2.265288395769685e-13 0.0 0.010001221923928232 0.00998556680779785 0.0 3.903433228263455e-13 0.0 0.01 0.0 3.903433228263455e-13 0.0 0.010001356726055904 0.009985283052151031 0.0 5.177669894891957e-13 0.0 0.01 0.0 5.177669894891957e-13 0.0 0.0100015125430988 0.009984967962384543 0.0 3.7476110397833136e-13 0.0 0.01 0.0 3.747611039783055e-13 0.0 0.010001691829246102 0.009984593676496983 0.0 1.5857059009568108e-18 0.0 0.01 0.0 1.5857059009568108e-18 0.0 0.010001231677517063 0.009984561824322365 0.0 2.0151011888760227e-14 0.0 0.01 0.0 2.0151011888760227e-14 0.0 0.010001245832776229 0.009984468260322335 0.0 7.517763064681179e-14 0.0 0.01 0.0 7.517763064681179e-14 0.0 0.01000129225044353 0.009984315477955523 0.0 1.7319403571670876e-13 0.0 0.01 0.0 1.7319403571670876e-13 0.0 0.010001370381640416 0.009984102987757969 0.0 3.3373118432453553e-13 0.0 0.01 0.0 3.3373118432448383e-13 0.0 0.010001472975384567 0.009983833786638903 0.0 5.546616715286244e-13 0.0 0.01 0.0 5.546616715286244e-13 0.0 0.0100016043860256 0.00998351584885466 0.0 6.923956625469515e-13 0.0 0.01 0.0 6.923956625469515e-13 0.0 0.010001755812323302 0.00998315714801123 0.0 4.207227771743911e-13 0.0 0.01 0.0 4.2072277717436524e-13 0.0 0.01000192830761217 0.009982844249170524 0.0 -6.716349292651241e-19 0.0 0.01 0.0 -6.716349292651241e-19 0.0 0.010001586327385363 0.009982809926605107 0.0 1.9409079357097223e-14 0.0 0.01 0.0 1.9409079357097223e-14 0.0 0.010001599983910375 0.009982706961032936 0.0 7.538445304767363e-14 0.0 0.01 0.0 7.538445304767363e-14 0.0 0.010001644455546185 0.009982537845751177 0.0 1.6076733024503473e-13 0.0 0.01 0.0 1.6076733024503473e-13 0.0 0.010001716241721765 0.00998230458024627 0.0 3.0991932304547033e-13 0.0 0.01 0.0 3.0991932304547033e-13 0.0 0.010001812992922346 0.009982009167233897 0.0 4.779982241032635e-13 0.0 0.01 0.0 4.779982241032635e-13 0.0 0.010001928757872572 0.009981659082067867 0.0 4.1032185301147226e-13 0.0 0.01 0.0 4.103218530114464e-13 0.0 0.010002060186480411 0.009981258816751586 0.0 -3.1385168329391834e-13 0.0 0.01 0.0 -3.1385168329391834e-13 0.0 0.010002212634145892 0.009981084306203574 0.0 6.593604802007781e-19 0.0 0.01 0.0 6.593604802007781e-19 0.0 0.010002072444075688 0.009981050001787766 0.0 8.854088009261988e-15 0.0 0.01 0.0 8.854088009261988e-15 0.0 0.010002085101966273 0.009980939136311968 0.0 3.0174897979087563e-14 0.0 0.01 0.0 3.0174897979087563e-14 0.0 0.010002122725703414 0.00998075668861646 0.0 5.700255658767379e-14 0.0 0.01 0.0 5.700255658767379e-14 0.0 0.010002185266099537 0.009980505155883907 0.0 3.839028912360445e-14 0.0 0.01 0.0 3.839028912360445e-14 0.0 0.01000226637023235 0.009980189027089253 0.0 -2.1234886256541204e-13 0.0 0.01 0.0 -2.1234886256541204e-13 0.0 0.010002356782902113 0.009979811302513847 0.0 -1.1567855205270505e-12 0.0 0.01 0.0 -1.1567855205270505e-12 0.0 0.010002457455566452 0.00997937697226757 0.0 -3.2875355003282338e-12 0.0 0.01 0.0 -3.287535500328027e-12 0.0 0.010002569339886998 0.009979478840976174 0.0 2.3207415370071145e-18 0.0 0.01 0.0 2.3207415370071145e-18 0.0 0.010002719859242871 0.00997944008080718 0.0 -9.223145299954141e-15 0.0 0.01 0.0 -9.223145299954141e-15 0.0 0.010002730117624495 0.009979324299914952 0.0 -6.152270355210204e-14 0.0 0.01 0.0 -6.152270355210204e-14 0.0 0.010002760892958736 0.009979133990723749 0.0 -2.328458663690208e-13 0.0 0.01 0.0 -2.328458663690208e-13 0.0 0.010002808782946218 0.00997887065653639 0.0 -7.744704061560686e-13 0.0 0.01 0.0 -7.744704061561203e-13 0.0 0.010002865481176956 0.009978539282570543 0.0 -2.2635080387718e-12 0.0 0.01 0.0 -2.263508038771593e-12 0.0 0.01000292513296004 0.00997814435971898 0.0 -5.498927493359457e-12 0.0 0.01 0.0 -5.498927493359457e-12 0.0 0.010002977379190347 0.009977684917300634 0.0 -1.0666721070448014e-11 0.0 0.01 0.0 -1.0666721070448014e-11 0.0 0.01000303117764889 0.009978256125579892 0.0 1.0966589412250405e-18 0.0 0.01 0.0 1.0966589412250405e-18 0.0 0.010003555094906734 0.009978216386176842 0.0 -5.792882720607783e-14 0.0 0.01 0.0 -5.792882720607783e-14 0.0 0.010003563904307157 0.009978098164260102 0.0 -2.8104200965211705e-13 0.0 0.01 0.0 -2.8104200965211705e-13 0.0 0.010003586378394345 0.00997790544174085 0.0 -9.338730105995667e-13 0.0 0.01 0.0 -9.338730105995667e-13 0.0 0.010003615259570655 0.009977639224875974 0.0 -2.730811545862777e-12 0.0 0.01 0.0 -2.7308115458629836e-12 0.0 0.010003644591489282 0.009977303007534005 0.0 -6.823528840483024e-12 0.0 0.01 0.0 -6.823528840483024e-12 0.0 0.01000366070913803 0.009976902272918057 0.0 -1.412933865611294e-11 0.0 0.01 0.0 -1.412933865611294e-11 0.0 0.010003655303209891 0.009976433569038453 0.0 -2.3254514329196486e-11 0.0 0.01 0.0 -2.325451432919483e-11 0.0 0.010003641137717546 0.009977710743731388 0.0 1.550079969725927e-18 0.0 0.01 0.0 1.550079969725927e-18 0.0 0.010004604227886195 0.009977672500818777 0.0 -1.5015125047457149e-13 0.0 0.01 0.0 -1.5015125047457149e-13 0.0 0.010004607181964121 0.009977557774719311 0.0 -7.145767528006305e-13 0.0 0.01 0.0 -7.145767528006305e-13 0.0 0.010004620400243167 0.00997737054625125 0.0 -2.2826280188582276e-12 0.0 0.01 0.0 -2.282628018858124e-12 0.0 0.010004630163778372 0.009977112813957429 0.0 -6.24351651522181e-12 0.0 0.01 0.0 -6.2435165152222236e-12 0.0 0.010004627209680086 0.00997679005601711 0.0 -1.4161244681585451e-11 0.0 0.01 0.0 -1.4161244681584624e-11 0.0 0.010004596417116488 0.00997640179489525 0.0 -2.562277193140789e-11 0.0 0.01 0.0 -2.5622771931406237e-11 0.0 0.010004529425496868 0.009975943585932618 0.0 -3.548968090745443e-11 0.0 0.01 0.0 -3.548968090745443e-11 0.0 0.010004453673515361 0.009978222843797527 0.0 6.989327298069831e-19 0.0 0.01 0.0 6.989327298069831e-19 0.0 0.01000588949884682 0.009978187575406527 0.0 -2.7241620821599243e-13 0.0 0.01 0.0 -2.7241620821599243e-13 0.0 0.010005888997962913 0.009978081275757876 0.0 -1.2854645748333161e-12 0.0 0.01 0.0 -1.2854645748332127e-12 0.0 0.01000588704451639 0.009977910408675893 0.0 -4.047820851561771e-12 0.0 0.01 0.0 -4.047820851561771e-12 0.0 0.010005874822979514 0.009977674487452763 0.0 -1.0559297113580753e-11 0.0 0.01 0.0 -1.0559297113582407e-11 0.0 0.01000583911030256 0.009977383458221013 0.0 -2.1725141157660307e-11 0.0 0.01 0.0 -2.172514115766196e-11 0.0 0.010005763779346024 0.009977030880129106 0.0 -3.285569915012455e-11 0.0 0.01 0.0 -3.285569915012621e-11 0.0 0.01000564687948847 0.009976614786752155 0.0 -3.33362020782357e-11 0.0 0.01 0.0 -3.333620207823405e-11 0.0 0.010005532888543138 0.009980330187807472 0.0 8.514793406355958e-19 0.0 0.01 0.0 8.514793406355958e-19 0.0 0.01000743799033273 0.009980299867570642 0.0 -2.8642512047326383e-13 0.0 0.01 0.0 -2.8642512047326383e-13 0.0 0.0100074321272745 0.009980211393705116 0.0 -1.3916085056129915e-12 0.0 0.01 0.0 -1.3916085056129915e-12 0.0 0.010007415490276476 0.009980066261897859 0.0 -4.724760833747049e-12 0.0 0.01 0.0 -4.724760833747049e-12 0.0 0.010007380713205248 0.009979871934358609 0.0 -1.2445652178489489e-11 0.0 0.01 0.0 -1.2445652178489489e-11 0.0 0.01000731121026022 0.009979631898364 0.0 -2.2560025412052144e-11 0.0 0.01 0.0 -2.2560025412052144e-11 0.0 0.010007200168906069 0.009979346163809135 0.0 -2.2879703208126674e-11 0.0 0.01 0.0 -2.2879703208126674e-11 0.0 0.01000706067092738 0.009979012755036624 0.0 1.4440502469113405e-12 0.0 0.01 0.0 1.4440502469113405e-12 0.0 0.010006944226651045 0.009984772850659395 0.0 1.4836738188022682e-18 0.0 0.01 0.0 1.4836738188022682e-18 0.0 0.010009282909882311 0.009984750453361583 0.0 1.8526201205306187e-13 0.0 0.01 0.0 1.8526201205306187e-13 0.0 0.010009271678681674 0.00998468575090343 0.0 5.255849963303694e-13 0.0 0.01 0.0 5.255849963303177e-13 0.0 0.010009236882255435 0.009984581731895778 0.0 -5.025555343967581e-13 0.0 0.01 0.0 -5.025555343967323e-13 0.0 0.010009178170376274 0.009984446860415339 0.0 -4.610395814901374e-12 0.0 0.01 0.0 -4.610395814901788e-12 0.0 0.010009083160600066 0.009984285619028876 0.0 -4.94088117923362e-12 0.0 0.01 0.0 -4.94088117923362e-12 0.0 0.010008953410194423 0.009984099006806454 0.0 1.882241935930164e-11 0.0 0.01 0.0 1.882241935930164e-11 0.0 0.010008815342854676 0.00998389399424084 0.0 8.141067668881561e-11 0.0 0.01 0.0 8.141067668881561e-11 0.0 0.010008735533113268 0.009992277454875478 0.0 -7.737417936879704e-20 0.0 0.01 0.0 -7.737417936879704e-20 0.0 0.010011441957843427 0.009992266979199187 0.0 1.7489552683232428e-12 0.0 0.01 0.0 1.7489552683231394e-12 0.0 0.01001142334414796 0.00999223655004062 0.0 6.985640474793203e-12 0.0 0.01 0.0 6.985640474792789e-12 0.0 0.010011372871954393 0.009992190657409252 0.0 1.4080167835735435e-11 0.0 0.01 0.0 1.4080167835734608e-11 0.0 0.010011292047795047 0.009992137283079001 0.0 2.1958157586147042e-11 0.0 0.01 0.0 2.1958157586148696e-11 0.0 0.010011178867159833 0.009992084408417617 0.0 4.096095119564669e-11 0.0 0.01 0.0 4.096095119564669e-11 0.0 0.01001104512229721 0.009992040513109993 0.0 9.467313731077748e-11 0.0 0.01 0.0 9.467313731077087e-11 0.0 0.010010926080835 0.009992015572852024 0.0 1.9095474765899895e-10 0.0 0.01 0.0 1.9095474765899895e-10 0.0 0.010010896183183014 0.010003156744126128 0.0 -6.4786775120123504e-18 0.0 0.01 0.0 -6.4786775120123504e-18 0.0 0.010013897065679898 0.010003161648771615 0.0 4.7287887847099975e-12 0.0 0.01 0.0 4.7287887847099975e-12 0.0 0.010013873568069561 0.010003176312703702 0.0 1.8984878212531037e-11 0.0 0.01 0.0 1.8984878212527728e-11 0.0 0.010013804883695463 0.010003208093119142 0.0 4.0970848846653776e-11 0.0 0.01 0.0 4.0970848846653776e-11 0.0 0.01001370341616466 0.010003264297650494 0.0 6.814710618389299e-11 0.0 0.01 0.0 6.814710618390623e-11 0.0 0.010013574439871427 0.010003354236881314 0.0 1.0804782708570695e-10 0.0 0.01 0.0 1.0804782708570695e-10 0.0 0.010013439143121576 0.010003490126297351 0.0 1.7817255340863718e-10 0.0 0.01 0.0 1.7817255340863718e-10 0.0 0.010013338138511164 0.010003690542010215 0.0 2.7290482139944166e-10 0.0 0.01 0.0 2.7290482139944166e-10 0.0 0.01001334014652534 0.010016817730475126 0.0 8.48344032115211e-16 0.0 0.01 0.0 8.48344032115211e-16 0.0 0.010016556627704936 0.010016840796539717 0.0 8.101101815482714e-12 0.0 0.01 0.0 8.101101815429774e-12 0.0 0.010016525222377122 0.010016911955599221 0.0 3.2601809897851124e-11 0.0 0.01 0.0 3.260180989806288e-11 0.0 0.010016439851626927 0.010017040508083648 0.0 7.08023264659507e-11 0.0 0.01 0.0 7.08023264659507e-11 0.0 0.010016315743835186 0.010017229476154065 0.0 1.159225550282458e-10 0.0 0.01 0.0 1.159225550282458e-10 0.0 0.010016170990737256 0.010017489123662609 0.0 1.651537208567234e-10 0.0 0.01 0.0 1.6515372085651163e-10 0.0 0.010016023782117672 0.010017833743173957 0.0 2.1988638965521458e-10 0.0 0.01 0.0 2.1988638965521458e-10 0.0 0.010015908481605574 0.010018288799964883 0.0 2.6174603929783987e-10 0.0 0.01 0.0 2.6174603929783987e-10 0.0 0.01001588296028754 0.010031434197539843 0.0 5.327107177095885e-18 0.0 0.01 0.0 5.327107177095885e-18 0.0 0.01001923897866507 0.01003148154154589 0.0 9.572962828292592e-12 0.0 0.01 0.0 9.572962828290937e-12 0.0 0.010019201664331467 0.010031623476634405 0.0 3.851187363725704e-11 0.0 0.01 0.0 3.851187363726366e-11 0.0 0.010019095557116695 0.010031862084508169 0.0 8.341100500222931e-11 0.0 0.01 0.0 8.341100500222931e-11 0.0 0.010018947766950628 0.010032202232379678 0.0 1.3309885101677158e-10 0.0 0.01 0.0 1.3309885101675834e-10 0.0 0.010018772931432756 0.010032651423949537 0.0 1.729561126306693e-10 0.0 0.01 0.0 1.7295611263064283e-10 0.0 0.01001858734527378 0.010033217025636391 0.0 1.8863348531877154e-10 0.0 0.01 0.0 1.88633485318798e-10 0.0 0.010018412528623503 0.010033920361364307 0.0 1.5697420786723645e-10 0.0 0.01 0.0 1.5697420786723645e-10 0.0 0.010018281459847176 0.010044174290656738 0.0 5.0623519298549725e-18 0.0 0.01 0.0 5.0623519298549725e-18 0.0 0.010021716033652579 0.010044245527171865 0.0 7.396476608852135e-12 0.0 0.01 0.0 7.396476608852548e-12 0.0 0.010021667871588652 0.010044463755432168 0.0 3.002145634947014e-11 0.0 0.01 0.0 3.002145634947014e-11 0.0 0.010021536675005582 0.010044825507577635 0.0 6.494196072860015e-11 0.0 0.01 0.0 6.494196072860346e-11 0.0 0.010021350432012195 0.010045327839832635 0.0 1.006289123113306e-10 0.0 0.01 0.0 1.0062891231133722e-10 0.0 0.010021126310060961 0.010045971829323031 0.0 1.1872553400923917e-10 0.0 0.01 0.0 1.1872553400923917e-10 0.0 0.010020868845005502 0.01004675010419695 0.0 1.009697990540452e-10 0.0 0.01 0.0 1.0096979905405182e-10 0.0 0.010020584383535565 0.010047669757198225 0.0 3.092004972563634e-11 0.0 0.01 0.0 3.092004972563634e-11 0.0 0.010020279270949797 0.010052355564190011 0.0 3.455737494396767e-19 0.0 0.01 0.0 3.455737494396767e-19 0.0 0.01002376066790458 0.010052451811584394 0.0 3.00792267466805e-12 0.0 0.01 0.0 3.00792267466805e-12 0.0 0.010023701700076345 0.010052739503655064 0.0 1.2616536239101126e-11 0.0 0.01 0.0 1.2616536239101953e-11 0.0 0.010023533967222057 0.010053211780578736 0.0 2.752045147275089e-11 0.0 0.01 0.0 2.7520451472747583e-11 0.0 0.0100232940397848 0.010053862267237545 0.0 4.0147661757501165e-11 0.0 0.01 0.0 4.014766175750282e-11 0.0 0.010022997037008024 0.010054671144119797 0.0 3.7988483643944054e-11 0.0 0.01 0.0 3.79884836439424e-11 0.0 0.010022638644841078 0.010055628256381274 0.0 9.861690643889472e-12 0.0 0.01 0.0 9.861690643889472e-12 0.0 0.010022204588210092 0.010056708252283313 0.0 -4.803880802967609e-11 0.0 0.01 0.0 -4.803880802967775e-11 0.0 0.010021703250759142 0.010055229600069743 0.0 -1.9497731937315044e-18 0.0 0.01 0.0 -1.9497731937315044e-18 0.0 0.010025236310268686 0.010055341790439898 0.0 -2.987802111567554e-13 0.0 0.01 0.0 -2.987802111567554e-13 0.0 0.010025160086953344 0.010055675384534382 0.0 -5.221852930576605e-13 0.0 0.01 0.0 -5.221852930576605e-13 0.0 0.01002495293759203 0.01005622007544778 0.0 -5.141110694800775e-13 0.0 0.01 0.0 -5.141110694800775e-13 0.0 0.010024647979872512 0.010056960555698102 0.0 -3.0090589545047342e-12 0.0 0.01 0.0 -3.009058954504941e-12 0.0 0.010024263825147225 0.010057874062035484 0.0 -1.2641567265402348e-11 0.0 0.01 0.0 -1.2641567265402348e-11 0.0 0.010023792141338776 0.010058930914677989 0.0 -3.210543988784895e-11 0.0 0.01 0.0 -3.210543988784895e-11 0.0 0.010023214890168391 0.010060079629396623 0.0 -5.8053130609879755e-11 0.0 0.01 0.0 -5.8053130609876446e-11 0.0 0.010022535398380635 0.010054103431059655 0.0 -4.8293007970948686e-20 0.0 0.01 0.0 -4.8293007970948686e-20 0.0 0.01002611317975176 0.010054221021231243 0.0 -1.0626210454104853e-12 0.0 0.01 0.0 -1.0626210454104853e-12 0.0 0.010026022625258172 0.010054570919588546 0.0 -3.788945816442773e-12 0.0 0.01 0.0 -3.7889458164425665e-12 0.0 0.010025775112083241 0.010055137746046989 0.0 -7.542409598314828e-12 0.0 0.01 0.0 -7.542409598314828e-12 0.0 0.010025407554579304 0.010055906255967053 0.0 -1.2391261242886872e-11 0.0 0.01 0.0 -1.2391261242887699e-11 0.0 0.010024943618187693 0.01005684881971258 0.0 -1.8701779868439836e-11 0.0 0.01 0.0 -1.8701779868439836e-11 0.0 0.010024373471205446 0.010057926207414355 0.0 -2.571396764601935e-11 0.0 0.01 0.0 -2.571396764601935e-11 0.0 0.010023682967559655 0.010059069081657152 0.0 -3.014615835880604e-11 0.0 0.01 0.0 -3.01461583588077e-11 0.0 0.010022888392647197 0.010050925435305887 0.0 1.778925271914147e-18 0.0 0.01 0.0 1.778925271914147e-18 0.0 0.010026440950084302 0.010051039004750668 0.0 -3.726105015618065e-13 0.0 0.01 0.0 -3.726105015618065e-13 0.0 0.010026339047561509 0.010051380091607854 0.0 -1.3637602352794098e-12 0.0 0.01 0.0 -1.3637602352794098e-12 0.0 0.010026060519772744 0.010051935003129578 0.0 -2.70941076770606e-12 0.0 0.01 0.0 -2.70941076770606e-12 0.0 0.01002564617264068 0.010052683934088185 0.0 -4.1702719299905855e-12 0.0 0.01 0.0 -4.170271929990379e-12 0.0 0.010025123663603606 0.010053603744259778 0.0 -5.459009884067778e-12 0.0 0.01 0.0 -5.459009884068191e-12 0.0 0.010024492539718398 0.010054653304747158 0.0 -6.081779507629956e-12 0.0 0.01 0.0 -6.081779507629542e-12 0.0 0.010023741532201508 0.010055756830865892 0.0 -5.124497437430927e-12 0.0 0.01 0.0 -5.12449743743072e-12 0.0 0.010022898713206156 0.010047098259630854 0.0 4.30649873388475e-19 0.0 0.01 0.0 4.30649873388475e-19 0.0 0.010026303115315943 0.010047205208320373 0.0 2.6358413350957e-13 0.0 0.01 0.0 2.6358413350957e-13 0.0 0.01002619632877648 0.010047524147663758 0.0 9.433495994741653e-13 0.0 0.01 0.0 9.433495994742687e-13 0.0 0.010025899571832224 0.010048047174526072 0.0 1.7851408678385173e-12 0.0 0.01 0.0 1.7851408678385173e-12 0.0 0.010025462622649145 0.010048755612559 0.0 2.5000605652265748e-12 0.0 0.01 0.0 2.5000605652265748e-12 0.0 0.010024916566874754 0.010049633695181049 0.0 2.8834074604365974e-12 0.0 0.01 0.0 2.8834074604368042e-12 0.0 0.01002426724995818 0.01005064089399238 0.0 2.8804333889977923e-12 0.0 0.01 0.0 2.880433388997999e-12 0.0 0.010023511861959015 0.010051712834529488 0.0 2.111554243855803e-12 0.0 0.01 0.0 2.1115542438560096e-12 0.0 0.010022683397711098 0.010043003361356025 0.0 2.627456270796852e-18 0.0 0.01 0.0 2.627456270796852e-18 0.0 0.01002578740668613 0.010043102278026126 0.0 3.2287697454269454e-13 0.0 0.01 0.0 3.228769745427204e-13 0.0 0.010025678671562314 0.010043396107654071 0.0 1.1363287532661913e-12 0.0 0.01 0.0 1.1363287532661913e-12 0.0 0.010025382917831798 0.010043881405948047 0.0 1.967840829715961e-12 0.0 0.01 0.0 1.967840829715961e-12 0.0 0.010024949512078225 0.010044549338031412 0.0 2.292227301143347e-12 0.0 0.01 0.0 2.2922273011437604e-12 0.0 0.0100244128580358 0.010045385720323647 0.0 1.8287719838012934e-12 0.0 0.01 0.0 1.8287719838010866e-12 0.0 0.010023785745912948 0.010046362946747621 0.0 6.204290757762604e-13 0.0 0.01 0.0 6.204290757763121e-13 0.0 0.010023067874228467 0.010047427585305524 0.0 -2.045294907904955e-12 0.0 0.01 0.0 -2.045294907904955e-12 0.0 0.010022300928509508 0.010038225365011115 0.0 6.675731332804772e-18 0.0 0.01 0.0 6.675731332804772e-18 0.0 0.010024963768283773 0.010038317767862553 0.0 1.1817754583921529e-13 0.0 0.01 0.0 1.1817754583921529e-13 0.0 0.010024861457428685 0.010038589933615635 0.0 3.550622517232018e-13 0.0 0.01 0.0 3.550622517232535e-13 0.0 0.010024578620232464 0.010039043879067566 0.0 3.214521807313027e-13 0.0 0.01 0.0 3.214521807313027e-13 0.0 0.010024170349309478 0.010039673353513683 0.0 -3.6208197086366067e-13 0.0 0.01 0.0 -3.6208197086366067e-13 0.0 0.01002367264457787 0.010040477848690424 0.0 -1.5764299430998257e-12 0.0 0.01 0.0 -1.5764299430998257e-12 0.0 0.010023098334191552 0.010041437291708467 0.0 -3.0824838036083135e-12 0.0 0.01 0.0 -3.0824838036083135e-12 0.0 0.010022449370490495 0.010042513733960328 0.0 -6.021641180968047e-12 0.0 0.01 0.0 -6.021641180968461e-12 0.0 0.010021757301595166 0.010032195820842813 0.0 6.819613987148281e-18 0.0 0.01 0.0 6.819613987148281e-18 0.0 0.010023890038203715 0.010032281645583663 0.0 8.200453699393879e-14 0.0 0.01 0.0 8.200453699393879e-14 0.0 0.01002379707640015 0.010032534084058974 0.0 2.6292710362556566e-13 0.0 0.01 0.0 2.6292710362556566e-13 0.0 0.010023538901902112 0.010032957617647843 0.0 2.1264048692673442e-13 0.0 0.01 0.0 2.1264048692673442e-13 0.0 0.010023169626694896 0.010033549432577523 0.0 -2.4420256269030927e-13 0.0 0.01 0.0 -2.442025626903351e-13 0.0 0.010022728604255918 0.010034319418382003 0.0 -6.457707469252424e-13 0.0 0.01 0.0 -6.457707469252424e-13 0.0 0.010022224772128444 0.010035257844596362 0.0 -5.778081843364119e-13 0.0 0.01 0.0 -5.778081843364119e-13 0.0 0.010021652622929436 0.010036349587655214 0.0 -1.4336210534443509e-12 0.0 0.01 0.0 -1.4336210534443509e-12 0.0 0.01002104474628454 0.010024848662495338 0.0 2.574783542223574e-17 0.0 0.01 0.0 2.574783542223574e-17 0.0 0.01002261704890115 0.010024922460717577 0.0 3.3260811147095647e-13 0.0 0.01 0.0 3.3260811147095647e-13 0.0 0.010022533435168275 0.010025149759407213 0.0 1.2715649012559133e-12 0.0 0.01 0.0 1.2715649012550861e-12 0.0 0.010022308780819372 0.010025532000640065 0.0 2.443152358478471e-12 0.0 0.01 0.0 2.443152358478471e-12 0.0 0.010021987857859207 0.010026074276797239 0.0 3.57197862147616e-12 0.0 0.01 0.0 3.5719786214745056e-12 0.0 0.01002161185952873 0.01002678694795571 0.0 5.194287416797605e-12 0.0 0.01 0.0 5.19428741679926e-12 0.0 0.010021180854746316 0.010027677483886424 0.0 8.036492306240121e-12 0.0 0.01 0.0 8.036492306241776e-12 0.0 0.010020691997079448 0.010028747993598113 0.0 1.1428555602712027e-11 0.0 0.01 0.0 1.1428555602712027e-11 0.0 0.01002015793796069 0.010016882506821449 0.0 3.9301916539242025e-17 0.0 0.01 0.0 3.9301916539242025e-17 0.0 0.010021200026106486 0.010016945827040217 0.0 6.282890549706137e-13 0.0 0.01 0.0 6.282890549704069e-13 0.0 0.010021128775622534 0.010017136699536324 0.0 2.4195343570546106e-12 0.0 0.01 0.0 2.4195343570546106e-12 0.0 0.010020936668543316 0.010017460172417654 0.0 4.917513689419808e-12 0.0 0.01 0.0 4.917513689423116e-12 0.0 0.01002066890439988 0.010017922567882136 0.0 7.543046973316254e-12 0.0 0.01 0.0 7.543046973316254e-12 0.0 0.010020360363282028 0.010018538725516814 0.0 1.054977940532495e-11 0.0 0.01 0.0 1.054977940535142e-11 0.0 0.010020003209581286 0.010019330304992413 0.0 1.496804388772195e-11 0.0 0.01 0.0 1.4968043887510193e-11 0.0 0.010019584734401045 0.010020320068396909 0.0 2.204692110786437e-11 0.0 0.01 0.0 2.20469211078379e-11 0.0 0.010019119141793901 0.01000940289555922 0.0 3.8517075713327314e-18 0.0 0.01 0.0 3.8517075713327314e-18 0.0 0.010019692315741352 0.010009449878172013 0.0 6.394406792725477e-13 0.0 0.01 0.0 6.394406792725477e-13 0.0 0.010019633369388442 0.010009596797121415 0.0 2.537204903354835e-12 0.0 0.01 0.0 2.5372049033556623e-12 0.0 0.010019476200964291 0.010009847025514077 0.0 5.212844525040319e-12 0.0 0.01 0.0 5.212844525041146e-12 0.0 0.01001926301696062 0.01001020846065043 0.0 7.783315877344288e-12 0.0 0.01 0.0 7.783315877342634e-12 0.0 0.010019018468065055 0.010010701253045786 0.0 1.0104912423520029e-11 0.0 0.01 0.0 1.0104912423520029e-11 0.0 0.01001872873373916 0.010011350847051506 0.0 1.2989586245976455e-11 0.0 0.01 0.0 1.2989586245976455e-11 0.0 0.010018377687054388 0.01001220591132633 0.0 1.905451148137365e-11 0.0 0.01 0.0 1.9054511481380266e-11 0.0 0.010017965297078055 0.010003270153386347 0.0 -4.484170065052518e-19 0.0 0.01 0.0 -4.484170065052518e-19 0.0 0.010018151351397341 0.010003304837571102 0.0 4.040632586124798e-13 0.0 0.01 0.0 4.040632586124798e-13 0.0 0.010018106206759728 0.010003406990346882 0.0 1.6602794470113338e-12 0.0 0.01 0.0 1.6602794470113338e-12 0.0 0.010017984902421515 0.010003585427371996 0.0 3.3907938559962372e-12 0.0 0.01 0.0 3.390793855996651e-12 0.0 0.010017824896020577 0.010003848420411568 0.0 4.649412546325008e-12 0.0 0.01 0.0 4.649412546324594e-12 0.0 0.01001763835723841 0.010004212610418624 0.0 4.812300046953683e-12 0.0 0.01 0.0 4.812300046953683e-12 0.0 0.010017410111482222 0.010004715232917741 0.0 3.905842479082131e-12 0.0 0.01 0.0 3.905842479082544e-12 0.0 0.010017109711372598 0.010005409636460967 0.0 4.228996938410772e-12 0.0 0.01 0.0 4.228996938409945e-12 0.0 0.010016741648768604 0.009998798716496985 0.0 -4.090142131035148e-18 0.0 0.01 0.0 -4.090142131035148e-18 0.0 0.010016631750447478 0.009998822208111744 0.0 1.7092171643722585e-13 0.0 0.01 0.0 1.7092171643722585e-13 0.0 0.010016599841918905 0.009998891684281792 0.0 7.288246794910297e-13 0.0 0.01 0.0 7.288246794910297e-13 0.0 0.010016513464298389 0.009999011646545698 0.0 1.3825918691159318e-12 0.0 0.01 0.0 1.3825918691159318e-12 0.0 0.010016399604019786 0.009999194597311476 0.0 1.3280894658360278e-12 0.0 0.01 0.0 1.3280894658360278e-12 0.0 0.010016265197611313 0.009999458044060622 0.0 -1.629412905769952e-13 0.0 0.01 0.0 -1.629412905769952e-13 0.0 0.010016085578802328 0.0099998400038399 0.0 -3.5070811290716967e-12 0.0 0.01 0.0 -3.5070811290716967e-12 0.0 0.010015824081140564 0.010000402874344854 0.0 -7.984364423910593e-12 0.0 0.01 0.0 -7.984364423910593e-12 0.0 0.01001548413968159 0.009995836102151422 0.0 2.650169769108266e-19 0.0 0.01 0.0 2.650169769108266e-19 0.0 0.010015178036117367 0.00999585058407748 0.0 9.699695805530932e-14 0.0 0.01 0.0 9.699695805530932e-14 0.0 0.010015156940417184 0.00999589902408064 0.0 3.1110216306702524e-13 0.0 0.01 0.0 3.1110216306702524e-13 0.0 0.010015102494035593 0.009995984919425986 0.0 2.778476475376137e-13 0.0 0.01 0.0 2.778476475376137e-13 0.0 0.010015028912467737 0.009996118261354601 0.0 -4.672948374428232e-13 0.0 0.01 0.0 -4.672948374427715e-13 0.0 0.01001493082297482 0.009996324027909533 0.0 -1.5352697456765984e-12 0.0 0.01 0.0 -1.5352697456763916e-12 0.0 0.010014783217029536 0.009996636697531744 0.0 -2.336986537981798e-12 0.0 0.01 0.0 -2.3369865379822117e-12 0.0 0.010014550244947523 0.009997122242699878 0.0 -3.559579111622215e-12 0.0 0.01 0.0 -3.5595791116226287e-12 0.0 0.01001422755600496 0.009993994913493842 0.0 -3.072483678262192e-18 0.0 0.01 0.0 -3.072483678262192e-18 0.0 0.010013815176219975 0.009994007890113338 0.0 6.091738606621106e-14 0.0 0.01 0.0 6.091738606621106e-14 0.0 0.010013804431829258 0.009994045322952795 0.0 -7.784950928316754e-14 0.0 0.01 0.0 -7.784950928316754e-14 0.0 0.010013772048244014 0.0099941161969476 0.0 -9.601452857918214e-13 0.0 0.01 0.0 -9.601452857918214e-13 0.0 0.01001372646072158 0.009994235987408987 0.0 -2.039694844744311e-12 0.0 0.01 0.0 -2.039694844744311e-12 0.0 0.010013651905377416 0.009994428659436432 0.0 -2.227430275599653e-13 0.0 0.01 0.0 -2.227430275599653e-13 0.0 0.010013520521325706 0.009994732165437732 0.0 8.32519350981294e-12 0.0 0.01 0.0 8.325193509811286e-12 0.0 0.01001330239606113 0.009995206448924047 0.0 2.2466643792557916e-11 0.0 0.01 0.0 2.246664379255957e-11 0.0 0.010012993530973789 0.009992889091949656 0.0 9.586888624067044e-20 0.0 0.01 0.0 9.586888624067044e-20 0.0 0.01001255435225181 0.009992900567454232 0.0 -2.4280168134520544e-13 0.0 0.01 0.0 -2.4280168134520544e-13 0.0 0.010012547978311819 0.00999294098150252 0.0 -1.4527562663494108e-12 0.0 0.01 0.0 -1.452756266349204e-12 0.0 0.01001252885656488 0.009993017320487131 0.0 -3.921445185148507e-12 0.0 0.01 0.0 -3.9214451851489205e-12 0.0 0.010012497489107026 0.0099931490467706 0.0 -4.973035157064031e-12 0.0 0.01 0.0 -4.973035157064031e-12 0.0 0.010012430388831048 0.00999336610712401 0.0 2.7644182994615635e-12 0.0 0.01 0.0 2.7644182994617703e-12 0.0 0.010012301461720623 0.009993710438767114 0.0 2.7672854043111024e-11 0.0 0.01 0.0 2.7672854043107716e-11 0.0 0.010012088785530861 0.00999423349173044 0.0 6.741196059036493e-11 0.0 0.01 0.0 6.741196059036493e-11 0.0 0.010011798196820026 0.00999225849891394 0.0 -3.5908685035204644e-19 0.0 0.01 0.0 -3.5908685035204644e-19 0.0 0.010011392488789829 0.009992272965295894 0.0 -9.478917908487055e-13 0.0 0.01 0.0 -9.478917908487055e-13 0.0 0.010011388575447725 0.009992319357910113 0.0 -3.9998091400838885e-12 0.0 0.01 0.0 -3.999809140084302e-12 0.0 0.010011371918709572 0.009992415637117773 0.0 -8.01019826377097e-12 0.0 0.01 0.0 -8.010198263769316e-12 0.0 0.010011335645437954 0.009992584756038687 0.0 -6.648704582231701e-12 0.0 0.01 0.0 -6.648704582232115e-12 0.0 0.0100112582336748 0.009992859654966527 0.0 1.2486088389823434e-11 0.0 0.01 0.0 1.2486088389824261e-11 0.0 0.010011123532457419 0.009993281277256228 0.0 6.026775205908451e-11 0.0 0.01 0.0 6.026775205908451e-11 0.0 0.010010920713283791 0.0099938995868002 0.0 2.022807106794899e-10 0.0 0.01 0.0 2.0228071067946343e-10 0.0 0.010010666441708076 0.009991985644788964 0.0 3.7564655793584503e-19 0.0 0.01 0.0 3.7564655793584503e-19 0.0 0.010010311326620008 0.009992004100396062 0.0 -1.675230003579198e-12 0.0 0.01 0.0 -1.675230003579198e-12 0.0 0.010010304004022946 0.009992070940477625 0.0 -5.908973004857027e-12 0.0 0.01 0.0 -5.908973004857027e-12 0.0 0.010010279478455304 0.009992201631676618 0.0 -8.351639626351498e-12 0.0 0.01 0.0 -8.351639626351498e-12 0.0 0.010010228572177633 0.009992424616667621 0.0 2.1214025677888794e-12 0.0 0.01 0.0 2.1214025677888794e-12 0.0 0.01001013894892385 0.009992783319595161 0.0 4.1102223655174805e-11 0.0 0.01 0.0 4.1102223655174805e-11 0.0 0.010010001334019305 0.009993315707942098 0.0 1.1548242533364997e-10 0.0 0.01 0.0 1.1548242533364997e-10 0.0 0.010009825010680172 0.009994042328310563 0.0 1.6424827703763172e-09 0.0 0.01 0.0 1.6424827703763172e-09 0.0 0.010009637464226761 0.009992046498799697 0.0 -1.5983872571030214e-18 0.0 0.01 0.0 -1.5983872571030214e-18 0.0 0.010009288826333564 0.009992075928597197 0.0 -1.3668985450373935e-12 0.0 0.01 0.0 -1.3668985450373935e-12 0.0 0.010009278497620408 0.00999217120311505 0.0 -2.9186700423792506e-12 0.0 0.01 0.0 -2.9186700423794574e-12 0.0 0.010009242297237401 0.00999235327980046 0.0 3.867468567406319e-12 0.0 0.01 0.0 3.8674685674059055e-12 0.0 0.010009178170376276 0.009992664579161224 0.0 3.351584402307168e-11 0.0 0.01 0.0 3.351584402306506e-11 0.0 0.010009080703918781 0.009993136572467441 0.0 9.897106430608667e-11 0.0 0.01 0.0 9.897106430608667e-11 0.0 0.010008963687766648 0.00999379627770448 0.0 7.158347795283369e-10 0.0 0.01 0.0 7.158347795284427e-10 0.0 0.010008842264033566 0.009994589893572901 0.0 1.0337098692674143e-08 0.0 0.01 0.0 1.0337098692673296e-08 0.0 0.010008762954979685 0.009992463029459706 0.0 3.9310421195117293e-19 0.0 0.01 0.0 3.9310421195117293e-19 0.0 0.010008317966787512 0.009992506431459125 0.0 1.424812215374146e-12 0.0 0.01 0.0 1.424812215374146e-12 0.0 0.010008302829110118 0.00999264861438368 0.0 9.649713076759927e-12 0.0 0.01 0.0 9.649713076760754e-12 0.0 0.010008261225913454 0.009992913539811358 0.0 3.545507872752635e-11 0.0 0.01 0.0 3.5455078727523044e-11 0.0 0.010008195614215452 0.009993336166924 0.0 9.132442813438609e-11 0.0 0.01 0.0 9.132442813438609e-11 0.0 0.010008118776487693 0.009993939513879214 0.0 6.570799656853217e-10 0.0 0.01 0.0 6.570799656853217e-10 0.0 0.010008052215294418 0.009994686238420746 0.0 7.587298057857455e-09 0.0 0.01 0.0 7.587298057856608e-09 0.0 0.010008026753992861 0.009995431632680674 0.0 4.287302057412402e-08 0.0 0.01 0.0 4.287302057411725e-08 0.0 0.010008086949521329 0.009993300239039197 0.0 2.116808048622343e-18 0.0 0.01 0.0 2.116808048622343e-18 0.0 0.010007408625033408 0.009993366107124008 0.0 7.008768096238506e-12 0.0 0.01 0.0 7.008768096238506e-12 0.0 0.010007394894589652 0.00999356870954897 0.0 3.15778118430535e-11 0.0 0.01 0.0 3.1577811843050194e-11 0.0 0.010007363124363478 0.00999393502205888 0.0 1.3052465552628564e-10 0.0 0.01 0.0 1.3052465552628564e-10 0.0 0.010007321983873519 0.009994471088711838 0.0 1.2768320466930269e-09 0.0 0.01 0.0 1.2768320466930269e-09 0.0 0.010007296077150786 0.009995143540085011 0.0 9.080586204309569e-09 0.0 0.01 0.0 9.080586204310416e-09 0.0 0.010007317574216707 0.009995843593047189 0.0 4.1028381046538155e-08 0.0 0.01 0.0 4.102838104653138e-08 0.0 0.010007419850216422 0.009996391956163744 0.0 1.297950765614443e-07 0.0 0.01 0.0 1.297950765614443e-07 0.0 0.01000761073220142 0.009994635819254359 0.0 2.1080281845806325e-18 0.0 0.01 0.0 2.1080281845806325e-18 0.0 0.010006603234652554 0.009994720683621974 0.0 3.0567256162340654e-11 0.0 0.01 0.0 3.056725616234396e-11 0.0 0.010006600779796874 0.009994980282166388 0.0 4.873668283257487e-10 0.0 0.01 0.0 4.873668283257487e-10 0.0 0.010006594918210043 0.009995404669502836 0.0 3.22980099871148e-09 0.0 0.01 0.0 3.2298009987110566e-09 0.0 0.010006606641395606 0.009995954456321085 0.0 1.4750928230108492e-08 0.0 0.01 0.0 1.4750928230110186e-08 0.0 0.010006665358165011 0.00999654629041748 0.0 5.011363833248275e-08 0.0 0.01 0.0 5.011363833248275e-08 0.0 0.010006794518931203 0.009997032324387293 0.0 1.366257026020896e-07 0.0 0.01 0.0 1.366257026021167e-07 0.0 0.010007007862439144 0.00999724465308502 0.0 3.0418516233160975e-07 0.0 0.01 0.0 3.0418516233160975e-07 0.0 0.010007284816415128 0.009996406437981737 0.0 2.2033685077437642e-18 0.0 0.01 0.0 2.2033685077437642e-18 0.0 0.010005968739628253 0.009996495343254226 0.0 7.633324997649286e-10 0.0 0.01 0.0 7.633324997650344e-10 0.0 0.010005979008008977 0.009996748586445968 0.0 5.607217001752324e-09 0.0 0.01 0.0 5.607217001752324e-09 0.0 0.010006015173001058 0.009997121243638043 0.0 2.236159576540577e-08 0.0 0.01 0.0 2.236159576540916e-08 0.0 0.010006092964186314 0.009997536910976539 0.0 6.615985712526756e-08 0.0 0.01 0.0 6.615985712526756e-08 0.0 0.010006233374058338 0.009997873682177288 0.0 1.592054480979157e-07 0.0 0.01 0.0 1.592054480979157e-07 0.0 0.010006449087044936 0.009997991621125163 0.0 3.258935816298275e-07 0.0 0.01 0.0 3.2589358162977327e-07 0.0 0.010006724542751505 0.00999780127488911 0.0 5.746591997862673e-07 0.0 0.01 0.0 5.746591997861589e-07 0.0 0.010007026498276382 0.00999834241223069 0.0 4.850157892941797e-18 0.0 0.01 0.0 4.850157892941797e-18 0.0 0.010005566143846996 0.009998403382462407 0.0 4.363798762069276e-09 0.0 0.01 0.0 4.363798762068429e-09 0.0 0.010005586227409316 0.00999857080652926 0.0 2.3352573674550222e-08 0.0 0.01 0.0 2.3352573674557e-08 0.0 0.010005657647809153 0.009998771227320579 0.0 7.309711933549325e-08 0.0 0.01 0.0 7.30971193355068e-08 0.0 0.01000578481654687 0.00999890168556012 0.0 1.7496162590805494e-07 0.0 0.01 0.0 1.7496162590805494e-07 0.0 0.010005971649418749 0.009998844218481675 0.0 3.472323876784248e-07 0.0 0.01 0.0 3.472323876784248e-07 0.0 0.010006212352265122 0.009998540372629025 0.0 5.945041441651365e-07 0.0 0.01 0.0 5.945041441651365e-07 0.0 0.010006497580234253 0.00999816112829428 0.0 8.981596017496127e-07 0.0 0.01 0.0 8.981596017493959e-07 0.0 0.01000684794855534 0.010000059550531935 0.0 -4.883849709097812e-18 0.0 0.01 0.0 -4.883849709097812e-18 0.0 0.010005407683295189 0.01000007080077309 0.0 1.1888965573791487e-08 0.0 0.01 0.0 1.1888965573791487e-08 0.0 0.010005434126273239 0.01000007615134143 0.0 5.609154468047409e-08 0.0 0.01 0.0 5.609154468047409e-08 0.0 0.010005515810742497 0.010000002453511254 0.0 1.5303583977187502e-07 0.0 0.01 0.0 1.5303583977187502e-07 0.0 0.010005648836307984 0.009999761524113221 0.0 3.224226538639215e-07 0.0 0.01 0.0 3.224226538640299e-07 0.0 0.010005828857949596 0.009999360609816092 0.0 5.687348234545246e-07 0.0 0.01 0.0 5.68734823454633e-07 0.0 0.010006074929679632 0.009999070744422538 0.0 8.754018837081774e-07 0.0 0.01 0.0 8.754018837079606e-07 0.0 0.01000644088217107 0.009999293784591082 0.0 1.1830122648879768e-06 0.0 0.01 0.0 1.1830122648881936e-06 0.0 0.010006944436647121 0.01000113644369629 0.0 -2.9434186693101984e-17 0.0 0.01 0.0 -2.9434186693101984e-17 0.0 0.010005461971713519 0.010001089027935228 0.0 2.063118114108836e-08 0.0 0.01 0.0 2.063118114108836e-08 0.0 0.010005487914340968 0.010000942034348531 0.0 9.13668985872459e-08 0.0 0.01 0.0 9.13668985872188e-08 0.0 0.01000556223858553 0.01000069488048943 0.0 2.3201896914013583e-07 0.0 0.01 0.0 2.3201896914013583e-07 0.0 0.01000568505236281 0.01000046981464336 0.0 4.587324793834096e-07 0.0 0.01 0.0 4.587324793833012e-07 0.0 0.010005899297667604 0.010000505974380182 0.0 7.574713907689684e-07 0.0 0.01 0.0 7.574713907689684e-07 0.0 0.010006242275955977 0.010000947098054002 0.0 1.0446977629261726e-06 0.0 0.01 0.0 1.0446977629261726e-06 0.0 0.010006690972778181 0.010001648052296688 0.0 1.1408945196744302e-06 0.0 0.01 0.0 1.140894519674647e-06 0.0 0.010007136226429451 0.010002680777600097 0.0 3.428400012361677e-17 0.0 0.01 0.0 3.428400012361677e-17 0.0 0.0100056551935675 0.010002672471036552 0.0 2.621723303666975e-08 0.0 0.01 0.0 2.6217233036683303e-08 0.0 0.010005684543536989 0.010002659262303789 0.0 1.1346741078270333e-07 0.0 0.01 0.0 1.1346741078270333e-07 0.0 0.010005777955788402 0.010002685643047758 0.0 2.77496943139441e-07 0.0 0.01 0.0 2.7749694313954944e-07 0.0 0.010005955026659167 0.01000275557673849 0.0 5.048837912950514e-07 0.0 0.01 0.0 5.048837912950514e-07 0.0 0.010006230456112793 0.010002867508294048 0.0 7.094528250357109e-07 0.0 0.01 0.0 7.094528250361446e-07 0.0 0.010006558772323745 0.010002952536284778 0.0 7.271547603981358e-07 0.0 0.01 0.0 7.271547603979189e-07 0.0 0.010006810730732967 0.010003025346708968 0.0 4.0329070630771603e-07 0.0 0.01 0.0 4.0329070630771603e-07 0.0 0.010006984384777666 0.010005212572806527 0.0 8.669010922026836e-17 0.0 0.01 0.0 8.669010922026836e-17 0.0 0.010005905627348852 0.010005089332612885 0.0 1.85763059635483e-08 0.0 0.01 0.0 1.85763059635483e-08 0.0 0.01000593397768947 0.010004727951788958 0.0 7.633364929732211e-08 0.0 0.01 0.0 7.633364929732211e-08 0.0 0.010006029850354868 0.010004222426904031 0.0 1.6499468189032796e-07 0.0 0.01 0.0 1.6499468189021954e-07 0.0 0.01000621283918754 0.010003626479704715 0.0 2.30498434962618e-07 0.0 0.01 0.0 2.3049843496250957e-07 0.0 0.010006450093144497 0.01000322961786403 0.0 1.628845301122981e-07 0.0 0.01 0.0 1.628845301122439e-07 0.0 0.010006662406209762 0.010002462812465996 0.0 -1.402955029523303e-07 0.0 0.01 0.0 -1.402955029523303e-07 0.0 0.010006629138947128 0.010003098589593843 0.0 4.3543557941237756e-17 0.0 0.01 0.0 4.3543557941237756e-17 0.0 0.01000614921728416 0.01000295540965278 0.0 -3.592719553197017e-09 0.0 0.01 0.0 -3.592719553198711e-09 0.0 0.010006165847969498 0.010002561533966814 0.0 -2.3740584640375676e-08 0.0 0.01 0.0 -2.3740584640375676e-08 0.0 0.010006236278913632 0.01000203482217467 0.0 -9.200395675656526e-08 0.0 0.01 0.0 -9.200395675653815e-08 0.0 0.010006391874457298 0.01000142656528653 0.0 -2.5940996879227074e-07 0.0 0.01 0.0 -2.5940996879227074e-07 0.0 0.010006609106348366 0.009999247085040679 0.0 2.345303573859684e-15 0.0 0.01 0.0 2.345303573859684e-15 0.0 0.010000027350112205 0.009999271079706466 0.0 2.86525173254075e-15 0.0 0.01 0.0 2.86525173254075e-15 0.0 0.010000029300128775 0.009999303572758392 0.0 -4.021424289623744e-15 0.0 0.01 0.0 -4.021424289623744e-15 0.0 0.010000025400096774 0.0099993520629788 0.0 -9.359418617141122e-15 0.0 0.01 0.0 -9.359418617141122e-15 0.0 0.010000018050048872 0.009999419550542147 0.0 2.618015420170823e-15 0.0 0.01 0.0 2.618015420170823e-15 0.0 0.010000003900002281 0.009999504536824999 0.0 5.518723975927452e-14 0.0 0.01 0.0 5.518723975927452e-14 0.0 0.00999998750002344 0.009999606023283869 0.0 1.5464110505357076e-13 0.0 0.01 0.0 1.5464110505357076e-13 0.0 0.009999968500148835 0.009999098621887026 0.0 -9.286672915095661e-15 0.0 0.01 0.0 -9.286672915095661e-15 0.0 0.010000037100206464 0.00999912261548405 0.0 -2.1367113222295775e-14 0.0 0.01 0.0 -2.1367113222244076e-14 0.0 0.010000038100217745 0.00999915910607728 0.0 -4.4454948002108715e-14 0.0 0.01 0.0 -4.445494800200532e-14 0.0 0.010000035150185327 0.009999215592303974 0.0 -7.574548538692812e-14 0.0 0.01 0.0 -7.574548538692812e-14 0.0 0.010000025400096778 0.009999294074756604 0.0 -8.67745357121584e-14 0.0 0.01 0.0 -8.67745357121584e-14 0.0 0.010000007300007996 0.009999394554988989 0.0 -4.110022704378076e-14 0.0 0.01 0.0 -4.1100227043884155e-14 0.0 0.009999984500036039 0.00999951353549946 0.0 6.946099975184436e-14 0.0 0.01 0.0 6.946099975163757e-14 0.0 0.009999961000228149 0.009999641019330993 0.0 1.9871553013449507e-13 0.0 0.01 0.0 1.9871553013449507e-13 0.0 0.009999943000487345 0.00999896516065604 0.0 -1.8681001559802373e-14 0.0 0.01 0.0 -1.8681001559802373e-14 0.0 0.01000004540030918 0.009998987153899365 0.0 -3.784960987315676e-14 0.0 0.01 0.0 -3.7849609873105064e-14 0.0 0.010000046850329238 0.009999026642132276 0.0 -6.548798914517945e-14 0.0 0.01 0.0 -6.548798914538624e-14 0.0 0.010000043450283188 0.009999085125564602 0.0 -9.79571148211557e-14 0.0 0.01 0.0 -9.79571148211557e-14 0.0 0.010000031250146485 0.009999172602699273 0.0 -1.0461585344795258e-13 0.0 0.01 0.0 -1.0461585344815937e-13 0.0 0.010000010750017335 0.009999286576353256 0.0 -4.627093341008836e-14 0.0 0.01 0.0 -4.627093341019176e-14 0.0 0.009999983000043348 0.009999424549675276 0.0 8.080480987422356e-14 0.0 0.01 0.0 8.080480987463715e-14 0.0 0.009999953000331348 0.00999957202747564 0.0 1.9860642907398332e-13 0.0 0.01 0.0 1.9860642907398332e-13 0.0 0.00999993000073499 0.009998825706877046 0.0 -2.1369561801425464e-14 0.0 0.01 0.0 -2.1369561801425464e-14 0.0 0.010000052250409517 0.009998847699200179 0.0 -3.205017354087011e-14 0.0 0.01 0.0 -3.205017354087011e-14 0.0 0.010000054200440653 0.009998885186449105 0.0 -3.995820333921417e-14 0.0 0.01 0.0 -3.9958203339265866e-14 0.0 0.01000005125039399 0.009998947666134298 0.0 -2.6498988008699274e-14 0.0 0.01 0.0 -2.6498988008699274e-14 0.0 0.010000038100217745 0.009999042137642623 0.0 3.538994067152586e-14 0.0 0.01 0.0 3.538994067152586e-14 0.0 0.010000014150030033 0.00999917060319627 0.0 1.6851336061871863e-13 0.0 0.01 0.0 1.6851336061871863e-13 0.0 0.009999982500045938 0.00999932706793173 0.0 1.4138612932039626e-12 0.0 0.01 0.0 1.4138612932039626e-12 0.0 0.009999948000405596 0.009999498037797441 0.0 4.602579094103309e-12 0.0 0.01 0.0 4.602579094090074e-12 0.0 0.009999920000959988 0.009998672264479065 0.0 -1.454269275822478e-14 0.0 0.01 0.0 -1.454269275822478e-14 0.0 0.01000005665048139 0.009998688757948454 0.0 -7.147686368586864e-15 0.0 0.01 0.0 -7.147686368586864e-15 0.0 0.010000061050559072 0.009998725743600792 0.0 4.3505463007091896e-14 0.0 0.01 0.0 4.3505463007143595e-14 0.0 0.010000056150472928 0.009998788720115392 0.0 1.777832818758164e-13 0.0 0.01 0.0 1.777832818760232e-13 0.0 0.010000043450283188 0.009998889185113873 0.0 9.822626688285435e-12 0.0 0.01 0.0 9.822626688285435e-12 0.0 0.010000018050048869 0.009999031140821409 0.0 8.869767844563159e-11 0.0 0.01 0.0 8.869767844541983e-11 0.0 0.009999983500040837 0.009999205594672014 0.0 2.558616644347704e-10 0.0 0.01 0.0 2.558616644347704e-10 0.0 0.009999943500478843 0.00999940455318779 0.0 4.571056208937577e-10 0.0 0.01 0.0 4.571056208954518e-10 0.0 0.009999911501174852 0.00999848434465132 0.0 -4.261437036062996e-15 0.0 0.01 0.0 -4.261437036062996e-15 0.0 0.010000060550549951 0.009998496339217374 0.0 3.874896113455929e-14 0.0 0.01 0.0 3.874896113455929e-14 0.0 0.01000006445062308 0.009998529824276067 0.0 1.9274897889539644e-13 0.0 0.01 0.0 1.9274897889581003e-13 0.0 0.010000061500567346 0.009998595795823791 0.0 3.6408361449272975e-11 0.0 0.01 0.0 3.6408361449272975e-11 0.0 0.010000048350350663 0.009998699253835125 0.0 3.27483026063712e-10 0.0 0.01 0.0 3.27483026063712e-10 0.0 0.010000022450075615 0.009998849698509688 0.0 1.1937387186210913e-09 0.0 0.01 0.0 1.1937387186210913e-09 0.0 0.009999984500036252 0.009999046136496707 0.0 2.5951288285260108e-09 0.0 0.01 0.0 2.5951288285260108e-09 0.0 0.009999940500532045 0.00999926808036632 0.0 4.1041977741563184e-09 0.0 0.01 0.0 4.1041977741563184e-09 0.0 0.009999905001356254 0.009998257955313708 0.0 1.118464796166442e-14 0.0 0.01 0.0 1.118464796166442e-14 0.0 0.010000066900671348 0.009998265451403221 0.0 1.0706501613805364e-13 0.0 0.01 0.0 1.0706501613805364e-13 0.0 0.010000069350721423 0.009998295435929878 0.0 2.8691617902856035e-11 0.0 0.01 0.0 2.8691617902882505e-11 0.0 0.010000067850690554 0.00999835540579252 0.0 4.123685710082053e-10 0.0 0.01 0.0 4.123685710086288e-10 0.0 0.010000055200457087 0.009998458856342438 0.0 2.0803439772489133e-09 0.0 0.01 0.0 2.0803439772472193e-09 0.0 0.010000027850116994 0.009998608790378921 0.0 6.013524078849408e-09 0.0 0.01 0.0 6.013524078849408e-09 0.0 0.009999987500028864 0.009998808712930114 0.0 1.1988437197634318e-08 0.0 0.01 0.0 1.1988437197634318e-08 0.0 0.009999939000579706 0.009999052134830419 0.0 1.7533759438933746e-08 0.0 0.01 0.0 1.7533759438933746e-08 0.0 0.009999898001606692 0.009997988107319737 0.0 2.199954104678067e-14 0.0 0.01 0.0 2.199954104678067e-14 0.0 0.010000073750815871 0.009997988107319737 0.0 4.872565846481585e-12 0.0 0.01 0.0 4.872565846478277e-12 0.0 0.010000077150892833 0.00999801059381806 0.0 2.2014597389363546e-10 0.0 0.01 0.0 2.2014597389363546e-10 0.0 0.010000076150869841 0.009998061064067173 0.0 1.7658386831910321e-09 0.0 0.01 0.0 1.7658386831910321e-09 0.0 0.010000063950613914 0.009998146015723845 0.0 7.169283631243016e-09 0.0 0.01 0.0 7.169283631243016e-09 0.0 0.010000036150203732 0.009998273947045831 0.0 1.8994176052028358e-08 0.0 0.01 0.0 1.8994176052014805e-08 0.0 0.009999990500067666 0.009998456357697721 0.0 3.645315517660213e-08 0.0 0.01 0.0 3.645315517660213e-08 0.0 0.00999993500083311 0.00999870575170972 0.0 5.1923910425152094e-08 0.0 0.01 0.0 5.1923910425097884e-08 0.0 0.009999888002286045 0.009997674311575656 0.0 2.978435428784458e-14 0.0 0.01 0.0 2.978435428784458e-14 0.0 0.010000085451095273 0.009997666317165598 0.0 4.143826198672893e-11 0.0 0.01 0.0 4.143826198672893e-11 0.0 0.010000090801236716 0.00999767381192455 0.0 7.44751569131252e-10 0.0 0.01 0.0 7.44751569131252e-10 0.0 0.01000009275129049 0.009997700793199216 0.0 4.668065714157006e-09 0.0 0.01 0.0 4.668065714157006e-09 0.0 0.010000082501024224 0.009997752258122921 0.0 1.7160639611770888e-08 0.0 0.01 0.0 1.7160639611757335e-08 0.0 0.010000051750445898 0.009997828707671803 0.0 4.3991688228496714e-08 0.0 0.01 0.0 4.3991688228496714e-08 0.0 0.009999999500290414 0.00999795612784032 0.0 8.394123048467142e-08 0.0 0.01 0.0 8.394123048472563e-08 0.0 0.009999931501761034 0.00999817700079978 0.0 1.2051498410607826e-07 0.0 0.01 0.0 1.2051498410618668e-07 0.0 0.009999876504466888 0.009997309586138625 0.0 4.042656176222559e-13 0.0 0.01 0.0 4.042656176220491e-13 0.0 0.010000106451699771 0.009997288103556372 0.0 1.233452333612708e-10 0.0 0.01 0.0 1.233452333612708e-10 0.0 0.010000115702008015 0.009997278611297077 0.0 1.591366173036478e-09 0.0 0.01 0.0 1.591366173036478e-09 0.0 0.010000121102200204 0.009997274614575653 0.0 8.863668937308825e-09 0.0 0.01 0.0 8.863668937308825e-09 0.0 0.010000113751952686 0.009997275613892345 0.0 3.1168846830763645e-08 0.0 0.01 0.0 3.11688468307772e-08 0.0 0.01000008250116673 0.009997277613058405 0.0 7.939152390563269e-08 0.0 0.01 0.0 7.93915239056869e-08 0.0 0.0100000156009823 0.009997306592093823 0.0 1.5347989741631724e-07 0.0 0.01 0.0 1.5347989741631724e-07 0.0 0.009999926504345003 0.009997447984857764 0.0 2.2513290210649396e-07 0.0 0.01 0.0 2.2513290210649396e-07 0.0 0.00999985001098019 0.009996886454728524 0.0 1.6596693758328267e-12 0.0 0.01 0.0 1.6596693758336538e-12 0.0 0.010000141603007657 0.009996849989010763 0.0 2.1452647557954569e-10 0.0 0.01 0.0 2.1452647557965157e-10 0.0 0.010000157253709242 0.009996819517964477 0.0 2.4228201937337497e-09 0.0 0.01 0.0 2.4228201937337497e-09 0.0 0.01000017285448258 0.009996784052038308 0.0 1.2811368632395493e-08 0.0 0.01 0.0 1.2811368632402269e-08 0.0 0.010000171854454622 0.009996732602376568 0.0 4.4369549465533885e-08 0.0 0.01 0.0 4.4369549465533885e-08 0.0 0.010000133802980855 0.009996656679358118 0.0 1.1371689439773104e-07 0.0 0.01 0.0 1.1371689439773104e-07 0.0 0.01000004885229855 0.009996578764037542 0.0 2.2362231114634104e-07 0.0 0.01 0.0 2.2362231114644946e-07 0.0 0.00999991800851303 0.009996604247087367 0.0 3.3284338562763506e-07 0.0 0.01 0.0 3.3284338562763506e-07 0.0 0.009999796022867309 0.009996399944992991 0.0 1.8658618522061583e-12 0.0 0.01 0.0 1.8658618522061583e-12 0.0 0.010000196305780243 0.009996349000443458 0.0 2.434438944688601e-10 0.0 0.01 0.0 2.4344389446875423e-10 0.0 0.010000221207339696 0.009996297057784223 0.0 2.7272524912530196e-09 0.0 0.01 0.0 2.7272524912530196e-09 0.0 0.010000249509339042 0.009996233628932651 0.0 1.4353611807577083e-08 0.0 0.01 0.0 1.4353611807577083e-08 0.0 0.010000259760151866 0.00999614572983017 0.0 4.995511968295492e-08 0.0 0.01 0.0 4.995511968298202e-08 0.0 0.01000022410790793 0.009996023375816834 0.0 1.2974063560549634e-07 0.0 0.01 0.0 1.2974063560549634e-07 0.0 0.01000011330445181 0.009995881056326246 0.0 2.590008622851362e-07 0.0 0.01 0.0 2.590008622851362e-07 0.0 0.009999936510672557 0.00999585360342102 0.0 3.9223875722459514e-07 0.0 0.01 0.0 3.9223875722470356e-07 0.0 0.009999798029210688 0.009995845590302765 0.0 5.199479434537371e-13 0.0 0.01 0.0 5.199479434537371e-13 0.0 0.01000026956089907 0.009995776676975992 0.0 1.7843280881129563e-10 0.0 0.01 0.0 1.784328088112427e-10 0.0 0.010000314964879815 0.009995703770226115 0.0 2.2563706756399424e-09 0.0 0.01 0.0 2.2563706756399424e-09 0.0 0.010000358919323299 0.009995623874271633 0.0 1.241810266285569e-08 0.0 0.01 0.0 1.241810266285569e-08 0.0 0.010000386272402947 0.009995521510622978 0.0 4.43530136712343e-08 0.0 0.01 0.0 4.4353013671220745e-08 0.0 0.010000362820040028 0.00999538869367196 0.0 1.1790714475872367e-07 0.0 0.01 0.0 1.1790714475875077e-07 0.0 0.01000026366251377 0.009995247898239383 0.0 2.4097393607923e-07 0.0 0.01 0.0 2.4097393607912156e-07 0.0 0.010000138661599468 0.00999522843864432 0.0 3.765994264826912e-07 0.0 0.01 0.0 3.765994264826912e-07 0.0 0.010000197777153703 0.009995214936717161 0.0 -3.521998890453604e-14 0.0 0.01 0.0 -3.521998890453604e-14 0.0 0.010000366720171565 0.009995128561949783 0.0 7.398581249944349e-11 0.0 0.01 0.0 7.398581249941702e-11 0.0 0.010000428227505248 0.009995038694626824 0.0 1.3071453685197589e-09 0.0 0.01 0.0 1.3071453685197589e-09 0.0 0.01000049663699505 0.009994945834282249 0.0 8.086932453422245e-09 0.0 0.01 0.0 8.086932453422245e-09 0.0 0.010000550345438494 0.009994845488229655 0.0 3.054666087067557e-08 0.0 0.01 0.0 3.054666087067557e-08 0.0 0.010000559147033357 0.00999472867202937 0.0 8.413287089001202e-08 0.0 0.01 0.0 8.413287089001202e-08 0.0 0.010000515640942446 0.00999461935048738 0.0 1.7616288560334077e-07 0.0 0.01 0.0 1.7616288560328656e-07 0.0 0.01000052789645595 0.009994608874451399 0.0 2.788630535272311e-07 0.0 0.01 0.0 2.788630535272311e-07 0.0 0.010000753046724103 0.009994499541587034 0.0 -1.4614512060910332e-14 0.0 0.01 0.0 -1.4614512060910332e-14 0.0 0.010000482934981677 0.009994394217245729 0.0 9.669122974557858e-12 0.0 0.01 0.0 9.669122974557858e-12 0.0 0.010000564997879787 0.009994292390242776 0.0 4.6479098855256883e-10 0.0 0.01 0.0 4.647909885526747e-10 0.0 0.010000655314409954 0.00999419206374174 0.0 3.721839206112534e-09 0.0 0.01 0.0 3.721839206112534e-09 0.0 0.010000738381775173 0.009994095234096818 0.0 1.5731290567224418e-08 0.0 0.01 0.0 1.5731290567227806e-08 0.0 0.010000787693096432 0.00999400190121453 0.0 4.5939993520430146e-08 0.0 0.01 0.0 4.5939993520416594e-08 0.0 0.01000081259935368 0.009993923544460388 0.0 9.901959635366057e-08 0.0 0.01 0.0 9.901959635363346e-08 0.0 0.010000929331003924 0.009993915561327909 0.0 1.5821744828373847e-07 0.0 0.01 0.0 1.5821744828373847e-07 0.0 0.010001184314113546 0.009993691973703403 0.0 8.870962002987935e-15 0.0 0.01 0.0 8.870962002987935e-15 0.0 0.010000616757053698 0.009993570705693271 0.0 -3.9920168324665337e-13 0.0 0.01 0.0 -3.9920168324675676e-13 0.0 0.010000719827715332 0.009993454432281931 0.0 6.803650478043995e-11 0.0 0.01 0.0 6.803650478045318e-11 0.0 0.010000828703000923 0.009993348641974795 0.0 1.0353530738990643e-09 0.0 0.01 0.0 1.0353530738988525e-09 0.0 0.01000093273048186 0.009993254830743812 0.0 5.5614220748891754e-09 0.0 0.01 0.0 5.561422074888328e-09 0.0 0.010001018205494896 0.009993176989428854 0.0 1.8196043641724268e-08 0.0 0.01 0.0 1.8196043641724268e-08 0.0 0.010001091478722565 0.009993124098471426 0.0 4.1676802846901955e-08 0.0 0.01 0.0 4.16768028468884e-08 0.0 0.010001244382495333 0.009993116115412481 0.0 6.838151512064293e-08 0.0 0.01 0.0 6.838151512061582e-08 0.0 0.010001472976086653 0.009992784816350334 0.0 3.792228228980461e-14 0.0 0.01 0.0 3.792228228980461e-14 0.0 0.010000765687932725 0.009992647117689709 0.0 -2.812385233661451e-13 0.0 0.01 0.0 -2.812385233661451e-13 0.0 0.010000883417050067 0.009992517406766956 0.0 -2.8239864127972566e-12 0.0 0.01 0.0 -2.8239864127972566e-12 0.0 0.010001011853556426 0.009992402666699613 0.0 9.771655512349725e-11 0.0 0.01 0.0 9.771655512349725e-11 0.0 0.010001133992861814 0.009992310877491669 0.0 1.0460092367603212e-09 0.0 0.01 0.0 1.0460092367603212e-09 0.0 0.010001237029498606 0.009992242536085666 0.0 4.492402936708207e-09 0.0 0.01 0.0 4.492402936708207e-09 0.0 0.01000132791445973 0.00999220063403516 0.0 1.175213603172525e-08 0.0 0.01 0.0 1.175213603172525e-08 0.0 0.010001474926267694 0.009992189160986445 0.0 2.08855876586524e-08 0.0 0.01 0.0 2.088558765864901e-08 0.0 0.010001671318968185 0.009991766679309275 0.0 4.288826096264953e-14 0.0 0.01 0.0 4.288826096264953e-14 0.0 0.010000924928308032 0.009991610569204149 0.0 -1.8135050094529348e-13 0.0 0.01 0.0 -1.8135050094526763e-13 0.0 0.010001062669365929 0.009991468430584629 0.0 -2.5610895003239067e-12 0.0 0.01 0.0 -2.561089500323493e-12 0.0 0.01000120676840836 0.009991346246093687 0.0 -1.1267156983969483e-11 0.0 0.01 0.0 -1.1267156983969483e-11 0.0 0.010001336717974482 0.009991252989927141 0.0 8.28047583130043e-12 0.0 0.01 0.0 8.280475831298775e-12 0.0 0.010001446113626222 0.009991188160975684 0.0 3.706435519491669e-10 0.0 0.01 0.0 3.706435519491669e-10 0.0 0.010001534052925592 0.009991151757579591 0.0 1.491695268214627e-09 0.0 0.01 0.0 1.4916952682148387e-09 0.0 0.010001661564027863 0.009991136797396265 0.0 3.2029839181266958e-09 0.0 0.01 0.0 3.2029839181271193e-09 0.0 0.010001834504689208 0.009990624700935289 0.0 4.3683333442017896e-14 0.0 0.01 0.0 4.3683333442017896e-14 0.0 0.010001096380281104 0.009990445211564064 0.0 -9.619029969844701e-14 0.0 0.01 0.0 -9.619029969844701e-14 0.0 0.010001252185155888 0.009990287169210557 0.0 -2.424317091626235e-12 0.0 0.01 0.0 -2.424317091626235e-12 0.0 0.010001407547122573 0.0099901560545909 0.0 -1.1799626992029364e-11 0.0 0.01 0.0 -1.1799626992029364e-11 0.0 0.010001550660607695 0.009990058843661864 0.0 -3.348556353657858e-11 0.0 0.01 0.0 -3.348556353657858e-11 0.0 0.010001664965724343 0.0099899980259596 0.0 -6.5922660500242e-11 0.0 0.01 0.0 -6.5922660500242e-11 0.0 0.010001742655421367 0.00998996313105816 0.0 -7.955649720147325e-11 0.0 0.01 0.0 -7.955649720147325e-11 0.0 0.010001850113311265 0.009989952662659026 0.0 -1.3807406061469488e-11 0.0 0.01 0.0 -1.3807406061467834e-11 0.0 0.010002007454319171 0.009989350037446299 0.0 3.812665285182476e-14 0.0 0.01 0.0 3.812665285182476e-14 0.0 0.01000127809498727 0.009989144202871213 0.0 -7.119097591229417e-15 0.0 0.01 0.0 -7.119097591229417e-15 0.0 0.010001451465951865 0.009988960806511666 0.0 -2.356710558043758e-12 0.0 0.01 0.0 -2.356710558043758e-12 0.0 0.010001625896444941 0.009988810807759986 0.0 -1.2952917276818255e-11 0.0 0.01 0.0 -1.2952917276816601e-11 0.0 0.010001781225801804 0.00998870267331677 0.0 -3.8778594905341784e-11 0.0 0.01 0.0 -3.87785949053484e-11 0.0 0.010001902392727045 0.009988635402508866 0.0 -7.899362537055734e-11 0.0 0.01 0.0 -7.899362537055072e-11 0.0 0.010001972733598173 0.009988604508222884 0.0 -1.0934187369451102e-10 0.0 0.01 0.0 -1.0934187369451102e-10 0.0 0.01000206609013292 0.00998859803042508 0.0 -7.926905106639875e-11 0.0 0.01 0.0 -7.926905106639875e-11 0.0 0.010002218488035064 0.0099879303865534 0.0 4.502987757790534e-14 0.0 0.01 0.0 4.502987757790534e-14 0.0 0.010001471524744043 0.009987688772325894 0.0 8.135169706870094e-14 0.0 0.01 0.0 8.135169706870094e-14 0.0 0.01000166446547459 0.009987471583573918 0.0 -2.3314804285601118e-12 0.0 0.01 0.0 -2.331480428559905e-12 0.0 0.010001856466842434 0.009987292264090657 0.0 -1.466602665028683e-11 0.0 0.01 0.0 -1.4666026650288484e-11 0.0 0.010002032369410963 0.00998716226350486 0.0 -4.629559324675932e-11 0.0 0.01 0.0 -4.62955932467527e-11 0.0 0.010002165253045144 0.00998707858765229 0.0 -9.711493885156433e-11 0.0 0.01 0.0 -9.711493885156433e-11 0.0 0.010002235599462344 0.009987039240805788 0.0 -1.368700306861125e-10 0.0 0.01 0.0 -1.3687003068612573e-10 0.0 0.010002324560285934 0.009987026789368953 0.0 -9.93673189922383e-11 0.0 0.01 0.0 -9.936731899225154e-11 0.0 0.010002484325474398 0.009986359460494745 0.0 5.2926779050157e-14 0.0 0.01 0.0 5.2926779050157e-14 0.0 0.010001676221363534 0.009986072649786877 0.0 1.2256758383933782e-13 0.0 0.01 0.0 1.2256758383933782e-13 0.0 0.01000189068606893 0.009985809761678824 0.0 -2.4560805559428384e-12 0.0 0.01 0.0 -2.4560805559426316e-12 0.0 0.010002105164571142 0.00998558970843127 0.0 -1.7137251012767844e-11 0.0 0.01 0.0 -1.7137251012767844e-11 0.0 0.010002301094011429 0.009985417957520993 0.0 -5.638268364471878e-11 0.0 0.01 0.0 -5.638268364471878e-11 0.0 0.010002453052324724 0.009985304457435182 0.0 -1.2085254937259678e-10 0.0 0.01 0.0 -1.2085254937259678e-10 0.0 0.010002533212249632 0.00998523526410641 0.0 -1.7139928632131646e-10 0.0 0.01 0.0 -1.713992863213297e-10 0.0 0.010002627985583361 0.009985204401358904 0.0 -1.2034102017470676e-10 0.0 0.01 0.0 -1.2034102017469353e-10 0.0 0.010002799525162509 0.00998463100365205 0.0 6.006915006608446e-14 0.0 0.01 0.0 6.006915006608446e-14 0.0 0.010001896039108353 0.009984294079030894 0.0 2.5081483857697763e-14 0.0 0.01 0.0 2.5081483857697763e-14 0.0 0.010002124676946042 0.009983973609271241 0.0 -3.129904797986219e-12 0.0 0.01 0.0 -3.129904797986012e-12 0.0 0.010002363637753491 0.0099836919796492 0.0 -2.125070051159417e-11 0.0 0.01 0.0 -2.1250700511592514e-11 0.0 0.010002586953503124 0.009983463110938742 0.0 -7.052121286270552e-11 0.0 0.01 0.0 -7.05212128626989e-11 0.0 0.010002761893787383 0.009983292962228912 0.0 -1.5197406074742813e-10 0.0 0.01 0.0 -1.5197406074742813e-10 0.0 0.010002862578684543 0.009983176052222282 0.0 -2.1355286252726494e-10 0.0 0.01 0.0 -2.135528625272517e-10 0.0 0.010002979831380283 0.009983104913249566 0.0 -1.3749161071748245e-10 0.0 0.01 0.0 -1.3749161071749568e-10 0.0 0.010003175812227143 0.009982769635349605 0.0 -2.0025491892683438e-13 0.0 0.01 0.0 -2.0025491892683438e-13 0.0 0.010002133482568011 0.009982370728504464 0.0 -6.451277010655322e-13 0.0 0.01 0.0 -6.451277010655839e-13 0.0 0.010002373394683042 0.009981978831692322 0.0 -5.26446380526993e-12 0.0 0.01 0.0 -5.264463805270344e-12 0.0 0.010002630937911046 0.009981617313002024 0.0 -2.8975412090541898e-11 0.0 0.01 0.0 -2.8975412090541898e-11 0.0 0.010002879643374485 0.009981305056123053 0.0 -9.20719203895255e-11 0.0 0.01 0.0 -9.20719203895255e-11 0.0 0.010003077570132936 0.009981051990439898 0.0 -1.94833734188954e-10 0.0 0.01 0.0 -1.9483373418896722e-10 0.0 0.010003201236531445 0.009980861085255803 0.0 -2.660078847257772e-10 0.0 0.01 0.0 -2.660078847257772e-10 0.0 0.010003366949689488 0.009980721393350832 0.0 -1.4541311928894196e-10 0.0 0.01 0.0 -1.4541311928894196e-10 0.0 0.010003608902687157 0.00998082032046393 0.0 -1.5804172421265034e-12 0.0 0.01 0.0 -1.5804172421264e-12 0.0 0.010002399813589458 0.00998035553772578 0.0 -3.015554174217742e-12 0.0 0.01 0.0 -3.015554174217535e-12 0.0 0.010002637292930357 0.009979881874110719 0.0 -1.0777957918224884e-11 0.0 0.01 0.0 -1.0777957918224057e-11 0.0 0.010002908968822803 0.009979422191650739 0.0 -4.392300223809815e-11 0.0 0.01 0.0 -4.392300223809815e-11 0.0 0.010003178264563001 0.00997899983674031 0.0 -1.2754589767727557e-10 0.0 0.01 0.0 -1.275458976772888e-10 0.0 0.010003389922957871 0.009978636157601467 0.0 -2.5870270618667444e-10 0.0 0.01 0.0 -2.5870270618667444e-10 0.0 0.010003523361236768 0.009978335605810434 0.0 -3.3606655185521163e-10 0.0 0.01 0.0 -3.3606655185518516e-10 0.0 0.010003760920615168 0.009978096177373039 0.0 -1.401174848494618e-10 0.0 0.01 0.0 -1.4011748484947504e-10 0.0 0.010004088455954708 0.00997889053008738 0.0 -5.988331133599023e-12 0.0 0.01 0.0 -5.988331133598609e-12 0.0 0.010002718858426842 0.009978361934055543 0.0 -9.21075030790107e-12 0.0 0.01 0.0 -9.210750307901898e-12 0.0 0.010002935391973233 0.009977799647786025 0.0 -2.2649045965755187e-11 0.0 0.01 0.0 -2.2649045965755187e-11 0.0 0.010003210044997045 0.009977229014484413 0.0 -7.21128142831809e-11 0.0 0.01 0.0 -7.21128142831809e-11 0.0 0.010003493029336076 0.009976677842902624 0.0 -1.8884294159173353e-10 0.0 0.01 0.0 -1.8884294159173353e-10 0.0 0.010003696398494645 0.00997617839152245 0.0 -3.6180636886426466e-10 0.0 0.01 0.0 -3.6180636886429113e-10 0.0 0.010003801967144524 0.009975740564443837 0.0 -4.4073531980609243e-10 0.0 0.01 0.0 -4.4073531980609243e-10 0.0 0.010004123148652075 0.009975370293110596 0.0 -1.2338365225089862e-10 0.0 0.01 0.0 -1.2338365225089862e-10 0.0 0.010004581746938218 0.009977161975223352 0.0 -1.566672680794385e-11 0.0 0.01 0.0 -1.566672680794302e-11 0.0 0.01000312696607626 0.009976574073967364 0.0 -2.102189479292222e-11 0.0 0.01 0.0 -2.102189479292222e-11 0.0 0.010003310743427826 0.009975928197561665 0.0 -4.4039601733012517e-11 0.0 0.01 0.0 -4.4039601733012517e-11 0.0 0.010003580522103137 0.009975248201951675 0.0 -1.2331514625755455e-10 0.0 0.01 0.0 -1.2331514625756116e-10 0.0 0.01000386208620492 0.009974566360596489 0.0 -2.9883390932006884e-10 0.0 0.01 0.0 -2.988339093200821e-10 0.0 0.010004031236320392 0.009973920874020986 0.0 -5.402289797751168e-10 0.0 0.01 0.0 -5.402289797750903e-10 0.0 0.010004039546372604 0.009973327097355215 0.0 -6.13584426666941e-10 0.0 0.01 0.0 -6.13584426666941e-10 0.0 0.010004411116977325 0.009972808311662525 0.0 -1.073159050069858e-10 0.0 0.01 0.0 -1.0731590500697257e-10 0.0 0.010005042862005355 0.00997589295349651 0.0 -2.919529060009903e-11 0.0 0.01 0.0 -2.9195290600097377e-11 0.0 0.010003677827968287 0.009975265076072515 0.0 -3.580193154896718e-11 0.0 0.01 0.0 -3.580193154896553e-11 0.0 0.010003825443984158 0.009974557925298144 0.0 -7.696085398895564e-11 0.0 0.01 0.0 -7.696085398895564e-11 0.0 0.010004090408348 0.009973789410564296 0.0 -2.1509871471670344e-10 0.0 0.01 0.0 -2.150987147166902e-10 0.0 0.010004375419970624 0.009972999747052957 0.0 -5.010474900892373e-10 0.0 0.01 0.0 -5.010474900892373e-10 0.0 0.010004474200980872 0.009972223658865145 0.0 -8.596594341746392e-10 0.0 0.01 0.0 -8.596594341746392e-10 0.0 0.010004283000043005 0.009971491376303827 0.0 -9.103709987235697e-10 0.0 0.01 0.0 -9.103709987235167e-10 0.0 0.010004604728577308 0.009970834591150475 0.0 -1.1700628908580248e-10 0.0 0.01 0.0 -1.1700628908580248e-10 0.0 0.010005417949948612 0.009975408509557162 0.0 -3.6300497768193215e-11 0.0 0.01 0.0 -3.6300497768196524e-11 0.0 0.010004442909163237 0.009974779234915316 0.0 -4.2961399405377966e-11 0.0 0.01 0.0 -4.296139940537962e-11 0.0 0.010004573435534792 0.009974049862087369 0.0 -1.2266836898195194e-10 0.0 0.01 0.0 -1.2266836898195855e-10 0.0 0.010004850677078967 0.009973250216736503 0.0 -3.769985212718281e-10 0.0 0.01 0.0 -3.769985212718281e-10 0.0 0.010005142163559314 0.009972411093601414 0.0 -8.649946936873527e-10 0.0 0.01 0.0 -8.649946936874057e-10 0.0 0.010005142163559405 0.009971571686487749 0.0 -1.418624450752825e-09 0.0 0.01 0.0 -1.418624450752825e-09 0.0 0.010004643382148813 0.009970760246291946 0.0 -1.406949064840009e-09 0.0 0.01 0.0 -1.4069490648399561e-09 0.0 0.010004764653126165 0.009970018375704966 0.0 -1.869425203052361e-10 0.0 0.01 0.0 -1.8694252030522947e-10 0.0 0.010005686997615327 0.009976126762655767 0.0 -1.7898599691043573e-11 0.0 0.01 0.0 -1.7898599691043573e-11 0.0 0.010005506995712354 0.009975543015089738 0.0 -2.702811426222483e-11 0.0 0.01 0.0 -2.702811426222483e-11 0.0 0.01000565764772732 0.009974869053110218 0.0 -1.8266783269470318e-10 0.0 0.01 0.0 -1.8266783269469656e-10 0.0 0.010005974600114802 0.009974131722494535 0.0 -6.453223415975816e-10 0.0 0.01 0.0 -6.45322341597608e-10 0.0 0.010006281814224686 0.009973363306262731 0.0 -1.4800374730291088e-09 0.0 0.01 0.0 -1.4800374730291618e-09 0.0 0.010006165347042482 0.009972585149606753 0.0 -2.3505457970403575e-09 0.0 0.01 0.0 -2.3505457970403575e-09 0.0 0.010005300611496567 0.009971819569663073 0.0 -2.2133587606677967e-09 0.0 0.01 0.0 -2.2133587606677967e-09 0.0 0.010005074159453621 0.009971107698873497 0.0 -3.7664983059697563e-10 0.0 0.01 0.0 -3.766498305969624e-10 0.0 0.010005947201176467 0.009978620756766901 0.0 4.5542337354477786e-11 0.0 0.01 0.0 4.5542337354477786e-11 0.0 0.010006951591981835 0.009978162738735868 0.0 2.637892342239962e-11 0.0 0.01 0.0 2.6378923422397966e-11 0.0 0.010007160032575206 0.009977651641233615 0.0 -2.60766151471133e-10 0.0 0.01 0.0 -2.60766151471133e-10 0.0 0.010007532903153506 0.009977120262587545 0.0 -1.0671470876436334e-09 0.0 0.01 0.0 -1.0671470876435804e-09 0.0 0.010007845673539885 0.00997658698284607 0.0 -2.456958989323696e-09 0.0 0.01 0.0 -2.456958989323696e-09 0.0 0.010007601408436375 0.009976050313693013 0.0 -3.820239378778427e-09 0.0 0.01 0.0 -3.820239378778427e-09 0.0 0.010006467218333691 0.009975511745792302 0.0 -3.4813286718200282e-09 0.0 0.01 0.0 -3.4813286718198165e-09 0.0 0.010005907580808082 0.00997499460415602 0.0 -7.648617145149794e-10 0.0 0.01 0.0 -7.648617145149794e-10 0.0 0.010006521523998651 0.009983667101852983 0.0 1.5948132272435e-10 0.0 0.01 0.0 1.5948132272435e-10 0.0 0.010008809477375265 0.009983430274545364 0.0 1.1029215615654514e-10 0.0 0.01 0.0 1.1029215615654514e-10 0.0 0.01000909639662832 0.009983216348399018 0.0 -3.8829076578068614e-10 0.0 0.01 0.0 -3.8829076578068614e-10 0.0 0.010009512104828075 0.00998305168438398 0.0 -1.7048430790120942e-09 0.0 0.01 0.0 -1.7048430790120942e-09 0.0 0.01000979025863022 0.009982935280299969 0.0 -3.8636923744850005e-09 0.0 0.01 0.0 -3.863692374484789e-09 0.0 0.010009427364545126 0.009982824849421236 0.0 -5.8344527025871975e-09 0.0 0.01 0.0 -5.834452702587621e-09 0.0 0.010008283230436267 0.009982695023205786 0.0 -5.226270567193349e-09 0.0 0.01 0.0 -5.226270567193349e-09 0.0 0.010007912230616235 0.00998255624905653 0.0 -1.3671010341237652e-09 0.0 0.01 0.0 -1.3671010341237652e-09 0.0 0.010008156919457126 0.009992023054909815 0.0 2.839973401010066e-10 0.0 0.01 0.0 2.8399734010103307e-10 0.0 0.010011042664170992 0.009992105358654748 0.0 1.6043818767887363e-10 0.0 0.01 0.0 1.604381876788604e-10 0.0 0.010011384662110205 0.009992302895940842 0.0 -6.360636836564351e-10 0.0 0.01 0.0 -6.360636836563821e-10 0.0 0.010011795236367669 0.009992634146371115 0.0 -2.5668322503697557e-09 0.0 0.01 0.0 -2.5668322503697557e-09 0.0 0.010011981448920201 0.009993055241160573 0.0 -5.526914979122441e-09 0.0 0.01 0.0 -5.526914979122441e-09 0.0 0.010011710488263345 0.009993499344286904 0.0 -7.986270152657495e-09 0.0 0.01 0.0 -7.986270152657495e-09 0.0 0.010011353305414339 0.009993920049375526 0.0 -6.91068197433097e-09 0.0 0.01 0.0 -6.91068197433097e-09 0.0 0.01001153552961759 0.009994305368021617 0.0 -1.9625998815293206e-09 0.0 0.01 0.0 -1.9625998815293206e-09 0.0 0.010011533121296696 0.010003990186968854 0.0 3.2701632110026945e-10 0.0 0.01 0.0 3.2701632110016357e-10 0.0 0.010013509727680512 0.010004444361097082 0.0 7.132232541791319e-11 0.0 0.01 0.0 7.132232541789995e-11 0.0 0.010013838723627133 0.010005100599765594 0.0 -1.0417078274197534e-09 0.0 0.01 0.0 -1.0417078274197534e-09 0.0 0.01001417608734186 0.010005948152874347 0.0 -3.473453107592027e-09 0.0 0.01 0.0 -3.47345310759118e-09 0.0 0.010014329089686923 0.01000692709105357 0.0 -6.901477242573348e-09 0.0 0.01 0.0 -6.90147724256996e-09 0.0 0.01001460664088672 0.010007950371232805 0.0 -9.33620973886982e-09 0.0 0.01 0.0 -9.336209738871514e-09 0.0 0.01001549936021379 0.010008956368135001 0.0 -7.491982084893307e-09 0.0 0.01 0.0 -7.491982084891613e-09 0.0 0.010016011523407519 0.010009912669697129 0.0 -1.8722691083262246e-09 0.0 0.01 0.0 -1.8722691083262246e-09 0.0 0.010015959524827435 0.010018893258720647 0.0 2.2031934191409085e-10 0.0 0.01 0.0 2.2031934191398497e-10 0.0 0.010015989920029233 0.010019702123469284 0.0 -1.789113380543028e-10 0.0 0.01 0.0 -1.789113380543028e-10 0.0 0.010016206311723088 0.010020750458999679 0.0 -1.466973413758499e-09 0.0 0.01 0.0 -1.466973413758499e-09 0.0 0.010016396187266813 0.010022011915948053 0.0 -3.983068686851683e-09 0.0 0.01 0.0 -3.983068686851683e-09 0.0 0.010016582154175389 0.01002341941420541 0.0 -7.1721612335064774e-09 0.0 0.01 0.0 -7.1721612335064774e-09 0.0 0.010017509279112293 0.010024894402100434 0.0 -8.80233218118481e-09 0.0 0.01 0.0 -8.802332181183115e-09 0.0 0.010018966925508969 0.010026371553227017 0.0 -5.9826917283234226e-09 0.0 0.01 0.0 -5.9826917283234226e-09 0.0 0.010019257133099398 0.010027766570697646 0.0 -7.039604370825712e-10 0.0 0.01 0.0 -7.039604370824653e-10 0.0 0.01001917757618937 0.0100347900637656 0.0 2.312909851144488e-11 0.0 0.01 0.0 2.3129098511446533e-11 0.0 0.010018222538391023 0.010035865885652086 0.0 -4.2911462765059337e-10 0.0 0.01 0.0 -4.2911462765059337e-10 0.0 0.010018222035652724 0.010037142413769363 0.0 -1.6053083955795261e-09 0.0 0.01 0.0 -1.6053083955795261e-09 0.0 0.010018240687295687 0.010038588416185436 0.0 -3.6787560218431576e-09 0.0 0.01 0.0 -3.678756021842946e-09 0.0 0.010018501419008449 0.010040148193810118 0.0 -6.005396606442252e-09 0.0 0.01 0.0 -6.005396606441828e-09 0.0 0.010019742863575876 0.010041768035551957 0.0 -6.5028643142412544e-09 0.0 0.01 0.0 -6.502864314240831e-09 0.0 0.01002107372862611 0.010043378784111582 0.0 -3.840895234326666e-09 0.0 0.01 0.0 -3.840895234326454e-09 0.0 0.0100205121400181 0.010044840355503723 0.0 -2.06845299968868e-09 0.0 0.01 0.0 -2.06845299968868e-09 0.0 0.010020147625866553 0.010048734303966411 0.0 -1.195179346890041e-10 0.0 0.01 0.0 -1.195179346890041e-10 0.0 0.010019979618660349 0.010049939467081671 0.0 -4.765758329396211e-10 0.0 0.01 0.0 -4.765758329396211e-10 0.0 0.010019718821821065 0.010051238280961479 0.0 -1.2860859849705882e-09 0.0 0.01 0.0 -1.2860859849705882e-09 0.0 0.010019570501131494 0.010052573813575074 0.0 -2.639994487036858e-09 0.0 0.01 0.0 -2.639994487036858e-09 0.0 0.0100198170520693 0.010053907896990398 0.0 -4.1817704913098575e-09 0.0 0.01 0.0 -4.1817704913098575e-09 0.0 0.01002091015280005 0.010055220653472943 0.0 -5.273905750909396e-09 0.0 0.01 0.0 -5.273905750909396e-09 0.0 0.010021597617622474 0.010056449509710458 0.0 -5.576539379347219e-09 0.0 0.01 0.0 -5.576539379347007e-09 0.0 0.010020376561866854 0.010057484599864155 0.0 -3.985033912971186e-09 0.0 0.01 0.0 -3.985033912971398e-09 0.0 0.010019923634905285 0.010057874062035487 0.0 -1.4109805242391388e-10 0.0 0.01 0.0 -1.4109805242391388e-10 0.0 0.010021161230633327 0.010059071066417685 0.0 -3.248243492323407e-10 0.0 0.01 0.0 -3.248243492323539e-10 0.0 0.01002063595107045 0.010060203894757624 0.0 -7.294536019125261e-10 0.0 0.01 0.0 -7.294536019125261e-10 0.0 0.010020196772086308 0.010061194873417046 0.0 -1.4696115446481054e-09 0.0 0.01 0.0 -1.4696115446481054e-09 0.0 0.010020051850663122 0.010062006081848353 0.0 -2.527845280657248e-09 0.0 0.01 0.0 -2.527845280657248e-09 0.0 0.010020473855609568 0.010062652775062464 0.0 -3.63796550105178e-09 0.0 0.01 0.0 -3.63796550105178e-09 0.0 0.010020452223353711 0.010063149328528774 0.0 -3.8034492069458045e-09 0.0 0.01 0.0 -3.80344920694591e-09 0.0 0.01001983621560443 0.010063515090782764 0.0 -8.755237431661451e-10 0.0 0.01 0.0 -8.755237431661715e-10 0.0 0.010019696691493446 0.01006124661214442 0.0 -8.588600789926545e-11 0.0 0.01 0.0 -8.588600789926545e-11 0.0 0.010021807478060895 0.010062329896805581 0.0 -1.3362417110271237e-10 0.0 0.01 0.0 -1.33624171102719e-10 0.0 0.010021109151815498 0.010063201555998333 0.0 -2.518483202145182e-10 0.0 0.01 0.0 -2.518483202145182e-10 0.0 0.010020492016751065 0.010063766887616074 0.0 -5.000056409571264e-10 0.0 0.01 0.0 -5.000056409571264e-10 0.0 0.010020075442093972 0.010064007796550239 0.0 -8.928632598506891e-10 0.0 0.01 0.0 -8.928632598506627e-10 0.0 0.010020006177321001 0.010063970948135501 0.0 -1.2455321980559235e-09 0.0 0.01 0.0 -1.2455321980559235e-09 0.0 0.010019566578191452 0.010063758427832598 0.0 -7.612418264288345e-10 0.0 0.01 0.0 -7.612418264288345e-10 0.0 0.01001991478221148 0.010063490172027227 0.0 1.907198855065303e-09 0.0 0.01 0.0 1.9071988550652502e-09 0.0 0.010019923634903463 0.01006017706608215 0.0 -2.7800410708657432e-11 0.0 0.01 0.0 -2.7800410708657432e-11 0.0 0.010022060586286373 0.010061116808520416 0.0 -2.1729234434824804e-11 0.0 0.01 0.0 -2.172923443482563e-11 0.0 0.010021299809529403 0.010061740971120548 0.0 -2.4018964792284946e-11 0.0 0.01 0.0 -2.4018964792285773e-11 0.0 0.0100206477739833 0.01006195978146089 0.0 -4.6502230314006035e-11 0.0 0.01 0.0 -4.650223031400769e-11 0.0 0.010020154014330636 0.010061763839596581 0.0 -8.169553704439457e-11 0.0 0.01 0.0 -8.169553704438795e-11 0.0 0.01001990743851918 0.010061240603077988 0.0 -3.46556455409177e-11 0.0 0.01 0.0 -3.4655645540919355e-11 0.0 0.010019400561581427 0.010060528044881879 0.0 3.9883866237765753e-10 0.0 0.01 0.0 3.988386623776443e-10 0.0 0.010020456650406885 0.010059799756481892 0.0 1.6054605660152297e-09 0.0 0.01 0.0 1.6054605660151767e-09 0.0 0.010020518529178226 0.010056806099609891 0.0 -1.6369972569706353e-12 0.0 0.01 0.0 -1.6369972569707387e-12 0.0 0.010022059126669152 0.010057645038960599 0.0 4.0278715308359236e-12 0.0 0.01 0.0 4.0278715308359236e-12 0.0 0.01002133367518096 0.010058126453206405 0.0 1.0843973540663935e-11 0.0 0.01 0.0 1.0843973540664349e-11 0.0 0.010020742560039897 0.01005815672514298 0.0 2.091153475262667e-11 0.0 0.01 0.0 2.091153475262667e-11 0.0 0.010020327412996423 0.01005774240492204 0.0 4.1788945697206004e-11 0.0 0.01 0.0 4.178894569720766e-11 0.0 0.010020155523418575 0.010056984866524165 0.0 8.847987423618892e-11 0.0 0.01 0.0 8.847987423618561e-11 0.0 0.010019820019642448 0.010056033366604208 0.0 1.7483044159087822e-10 0.0 0.01 0.0 1.7483044159088483e-10 0.0 0.010021204957340284 0.010055067751616704 0.0 2.7966525895645014e-10 0.0 0.01 0.0 2.796652589564369e-10 0.0 0.010021201535667091 0.010052738487749775 0.0 -1.1241518437646698e-12 0.0 0.01 0.0 -1.1241518437647215e-12 0.0 0.010021892482840574 0.010053563555077005 0.0 -1.1155504151773354e-11 0.0 0.01 0.0 -1.115550415177294e-11 0.0 0.010021253112730475 0.010054033458226778 0.0 -3.3273055073056893e-11 0.0 0.01 0.0 -3.3273055073056893e-11 0.0 0.010020774508175668 0.010054057747831828 0.0 -6.840095999680091e-11 0.0 0.01 0.0 -6.84009599967976e-11 0.0 0.010020517573318195 0.01005363997082618 0.0 -1.0858420846720702e-10 0.0 0.01 0.0 -1.0858420846720702e-10 0.0 0.010020580962497997 0.010052885848029491 0.0 -1.4262291890704982e-10 0.0 0.01 0.0 -1.426229189070432e-10 0.0 0.010020501374054129 0.010051933530420647 0.0 -1.490475868958896e-10 0.0 0.01 0.0 -1.4904758689589622e-10 0.0 0.010021865959506646 0.01005094579324681 0.0 -9.495391497796984e-11 0.0 0.01 0.0 -9.495391497796322e-11 0.0 0.010021744065601947 0.010048481655272173 0.0 -9.802137197862113e-12 0.0 0.01 0.0 -9.802137197861286e-12 0.0 0.010021588257243856 0.010049378492170436 0.0 -3.472271514875174e-11 0.0 0.01 0.0 -3.4722715148753396e-11 0.0 0.010021047211785915 0.010049966264687895 0.0 -9.95001476699972e-11 0.0 0.01 0.0 -9.950014766999058e-11 0.0 0.010020679670901643 0.010050137764293044 0.0 -2.214390824398673e-10 0.0 0.01 0.0 -2.2143908243988052e-10 0.0 0.010020558826457249 0.01004989241953013 0.0 -3.8350870459268466e-10 0.0 0.01 0.0 -3.835087045926582e-10 0.0 0.010020817777004209 0.010049319984456533 0.0 -5.134513614650576e-10 0.0 0.01 0.0 -5.134513614650576e-10 0.0 0.010020845751103314 0.010048548062490406 0.0 -4.3116348046220224e-10 0.0 0.01 0.0 -4.3116348046220224e-10 0.0 0.010021994702820182 0.010047709368550027 0.0 1.3091959387862904e-10 0.0 0.01 0.0 1.3091959387862904e-10 0.0 0.010021729823127901 0.010043633530295196 0.0 -1.595906298865232e-11 0.0 0.01 0.0 -1.5959062988653975e-11 0.0 0.010021131744362359 0.010044666137234074 0.0 -5.5866735237456844e-11 0.0 0.01 0.0 -5.5866735237456844e-11 0.0 0.010020677708779579 0.01004546098673177 0.0 -1.807906311342539e-10 0.0 0.01 0.0 -1.8079063113424067e-10 0.0 0.010020396684431507 0.010045897565264273 0.0 -4.450403845563606e-10 0.0 0.01 0.0 -4.450403845563606e-10 0.0 0.010020362325217717 0.010045952515440161 0.0 -8.221588468535051e-10 0.0 0.01 0.0 -8.221588468535051e-10 0.0 0.010020711618436009 0.010045690648431175 0.0 -1.1446273136042325e-09 0.0 0.01 0.0 -1.1446273136042855e-09 0.0 0.010020732749256571 0.010045216440442723 0.0 -1.0438974398161565e-09 0.0 0.01 0.0 -1.0438974398160506e-09 0.0 0.010021627108002036 0.010044642878412852 0.0 -5.035532197993213e-11 0.0 0.01 0.0 -5.035532197993544e-11 0.0 0.010021240834801205 0.010037541400269061 0.0 -1.0667559359887744e-11 0.0 0.01 0.0 -1.0667559359887744e-11 0.0 0.010020495940778185 0.010038732170651469 0.0 -6.540817551841386e-11 0.0 0.01 0.0 -6.540817551840724e-11 0.0 0.010020108339591667 0.010039783000015222 0.0 -2.663802158802028e-10 0.0 0.01 0.0 -2.663802158802028e-10 0.0 0.01001988334528621 0.010040563329445041 0.0 -7.24670122837693e-10 0.0 0.01 0.0 -7.24670122837693e-10 0.0 0.01001989712719786 0.010041012632751005 0.0 -1.4063272032872468e-09 0.0 0.01 0.0 -1.4063272032872468e-09 0.0 0.010020250295507311 0.010041151075067716 0.0 -2.031694579127361e-09 0.0 0.01 0.0 -2.0316945791271493e-09 0.0 0.010020218402689345 0.0100410601125057 0.0 -2.0401535195416437e-09 0.0 0.01 0.0 -2.0401535195416437e-09 0.0 0.010020914077316437 0.010040816899766459 0.0 -8.771903961206913e-10 0.0 0.01 0.0 -8.771903961206384e-10 0.0 0.010020462033311446 0.010029980487510188 0.0 8.29053904511439e-12 0.0 0.01 0.0 8.29053904511439e-12 0.0 0.010019675114565002 0.010031312458887966 0.0 -5.0363176887667515e-11 0.0 0.01 0.0 -5.03631768876609e-11 0.0 0.010019334227654917 0.010032628248489979 0.0 -3.138861605769811e-10 0.0 0.01 0.0 -3.138861605769811e-10 0.0 0.01001914076541831 0.010033791107407389 0.0 -9.61977721696319e-10 0.0 0.01 0.0 -9.61977721696213e-10 0.0 0.010019148107425062 0.010034698819265234 0.0 -1.967152673432912e-09 0.0 0.01 0.0 -1.967152673432912e-09 0.0 0.010019456536572224 0.010035311154947388 0.0 -2.937234345126086e-09 0.0 0.01 0.0 -2.9372343451262977e-09 0.0 0.010019387787547511 0.010035657566589161 0.0 -3.1219466114406946e-09 0.0 0.01 0.0 -3.121946611441118e-09 0.0 0.010019988974529485 0.010035803166199685 0.0 -1.9352634919074473e-09 0.0 0.01 0.0 -1.9352634919072355e-09 0.0 0.01001955279764412 0.010021523892798463 0.0 2.864999537880734e-11 0.0 0.01 0.0 2.8649995378794104e-11 0.0 0.010018685542246487 0.010022927258527964 0.0 -1.456040300386599e-11 0.0 0.01 0.0 -1.456040300386599e-11 0.0 0.010018376229045714 0.010024460052330155 0.0 -2.876758838646873e-10 0.0 0.01 0.0 -2.876758838646873e-10 0.0 0.010018198004848955 0.010025996018728263 0.0 -1.0337197083809538e-09 0.0 0.01 0.0 -1.0337197083811655e-09 0.0 0.01001815773604473 0.010027383065589819 0.0 -2.2731693996465963e-09 0.0 0.01 0.0 -2.27316939964702e-09 0.0 0.010018377687055163 0.010028515558469267 0.0 -3.5373295467532455e-09 0.0 0.01 0.0 -3.5373295467532455e-09 0.0 0.010018320724638952 0.010029351875993084 0.0 -3.9584853438504314e-09 0.0 0.01 0.0 -3.9584853438504314e-09 0.0 0.010018915836285955 0.010029925294510635 0.0 -2.736253178811299e-09 0.0 0.01 0.0 -2.7362531788108754e-09 0.0 0.010018588803375746 0.010013306763446713 0.0 3.1179096965800196e-11 0.0 0.01 0.0 3.1179096965800196e-11 0.0 0.010017566680057379 0.010014695429994573 0.0 1.3558643805166727e-11 0.0 0.01 0.0 1.3558643805173345e-11 0.0 0.010017275111535929 0.010016351518563461 0.0 -2.1234234856644434e-10 0.0 0.01 0.0 -2.1234234856644434e-10 0.0 0.010017105288752047 0.010018172968756294 0.0 -9.309401685640738e-10 0.0 0.01 0.0 -9.309401685623798e-10 0.0 0.010017032165590987 0.01001999390397496 0.0 -2.198815140458599e-09 0.0 0.01 0.0 -2.198815140457752e-09 0.0 0.01001708619114036 0.010021629070683699 0.0 -3.663005746762897e-09 0.0 0.01 0.0 -3.663005746762897e-09 0.0 0.010017076340836893 0.010022969497999527 0.0 -4.444089056102025e-09 0.0 0.01 0.0 -4.444089056100331e-09 0.0 0.010017660423667845 0.010024000679215455 0.0 -3.02437666654476e-09 0.0 0.01 0.0 -3.02437666654476e-09 0.0 0.010017552455387418 0.010006374239463609 0.0 1.2602023977413645e-11 0.0 0.01 0.0 1.26020239774153e-11 0.0 0.010016367245496472 0.010007686102352812 0.0 1.365125021248764e-11 0.0 0.01 0.0 1.365125021248764e-11 0.0 0.010016083619377692 0.010009377423938997 0.0 -1.3460171730445428e-10 0.0 0.01 0.0 -1.3460171730448075e-10 0.0 0.010015908983995679 0.010011374828615773 0.0 -8.487566519569166e-10 0.0 0.01 0.0 -8.487566519569166e-10 0.0 0.010015850104389868 0.010013513693714947 0.0 -3.090626137685739e-09 0.0 0.01 0.0 -3.090626137685739e-09 0.0 0.010015817700955486 0.010015579783969874 0.0 -6.3899052444704035e-09 0.0 0.01 0.0 -6.389905244361983e-09 0.0 0.010015691657098208 0.010017391464487562 0.0 -7.891017044639784e-09 0.0 0.01 0.0 -7.891017044639784e-09 0.0 0.01001627795971628 0.010018871636699804 0.0 -2.676985065165464e-09 0.0 0.01 0.0 -2.676985065165464e-09 0.0 0.010016382470043208 0.010001240480780712 0.0 -7.448404526393024e-12 0.0 0.01 0.0 -7.448404526393851e-12 0.0 0.010015125045980754 0.010002467713140766 0.0 7.336508348890899e-13 0.0 0.01 0.0 7.336508348890899e-13 0.0 0.01001484011912686 0.010004140269856483 0.0 -2.5218843324254425e-10 0.0 0.01 0.0 -2.5218843324254425e-10 0.0 0.010014662535561773 0.010006216241449354 0.0 -2.6886289390468037e-09 0.0 0.01 0.0 -2.6886289390476507e-09 0.0 0.010014608599438604 0.010008543185459635 0.0 -9.79254371514065e-09 0.0 0.01 0.0 -9.79254371514065e-09 0.0 0.010014595843736155 0.010010918756939557 0.0 -1.841551326631685e-08 0.0 0.01 0.0 -1.8415513266310075e-08 0.0 0.010014291328085676 0.010013114152177026 0.0 -2.0517231172107343e-08 0.0 0.01 0.0 -2.0517231172080238e-08 0.0 0.010014790047301951 0.010014966633090979 0.0 -1.6390684375890401e-09 0.0 0.01 0.0 -1.6390684375890401e-09 0.0 0.01001504217209845 0.009997884171698904 0.0 -4.009135584966664e-12 0.0 0.01 0.0 -4.00913558496625e-12 0.0 0.010013875978073268 0.00999904413706856 0.0 7.265061877987967e-11 0.0 0.01 0.0 7.265061877988629e-11 0.0 0.01001359160964703 0.010000673918118735 0.0 -2.865871099559064e-10 0.0 0.01 0.0 -2.8658710995593287e-10 0.0 0.01001342197413024 0.010002732069227813 0.0 -5.886643345494741e-09 0.0 0.01 0.0 -5.886643345494741e-09 0.0 0.010013370517892103 0.01000511767598539 0.0 -2.2133537999889538e-08 0.0 0.01 0.0 -2.2133537999889538e-08 0.0 0.0100133866826655 0.010007668010992081 0.0 -4.0233481129415475e-08 0.0 0.01 0.0 -4.0233481129415475e-08 0.0 0.010012943537215182 0.010010127163418597 0.0 -4.085185390756917e-08 0.0 0.01 0.0 -4.085185390756917e-08 0.0 0.010013180312626742 0.010012221568558641 0.0 3.804246728990665e-09 0.0 0.01 0.0 3.804246728990665e-09 0.0 0.0100134979802201 0.00999595195932235 0.0 7.609148355066768e-11 0.0 0.01 0.0 7.60914835506743e-11 0.0 0.010012653375733498 0.00999707578315722 0.0 1.449158338186182e-09 0.0 0.01 0.0 1.4491583381862878e-09 0.0 0.01001238823227994 0.009998614787878066 0.0 4.478214886830027e-09 0.0 0.01 0.0 4.478214886830027e-09 0.0 0.010012259306800695 0.010000553245908853 0.0 -7.376006637405972e-10 0.0 0.01 0.0 -7.376006637405972e-10 0.0 0.010012247061896143 0.010002853270805837 0.0 -2.5473972209259527e-08 0.0 0.01 0.0 -2.5473972209259527e-08 0.0 0.010012270598340032 0.01000542921871282 0.0 -5.479073413546041e-08 0.0 0.01 0.0 -5.479073413544686e-08 0.0 0.010011694783700712 0.010008062490463883 0.0 -4.991149605675918e-08 0.0 0.01 0.0 -4.991149605675918e-08 0.0 0.010011540446964251 0.01001032898119645 0.0 1.4097055435930176e-08 0.0 0.01 0.0 1.4097055435930176e-08 0.0 0.010011755546517788 0.00999501822518646 0.0 8.644220227599565e-10 0.0 0.01 0.0 8.644220227599565e-10 0.0 0.010011492431082009 0.009996102779444202 0.0 8.3957680158807e-09 0.0 0.01 0.0 8.395768015879853e-09 0.0 0.010011282716278274 0.009997482950744938 0.0 2.5224117878326066e-08 0.0 0.01 0.0 2.5224117878326066e-08 0.0 0.010011229838201059 0.009999173102740575 0.0 3.3228595567948746e-08 0.0 0.01 0.0 3.3228595567948746e-08 0.0 0.01001130283443617 0.010001229726813768 0.0 1.0577347067953686e-08 0.0 0.01 0.0 1.0577347067951991e-08 0.0 0.010011354760366157 0.010003685636668178 0.0 -2.3320033131217673e-08 0.0 0.01 0.0 -2.3320033131217673e-08 0.0 0.01001069974830697 0.010006522976843608 0.0 -6.3353283452909515e-09 0.0 0.01 0.0 -6.3353283452909515e-09 0.0 0.010010101234659665 0.010009290280382867 0.0 -5.537644945935861e-09 0.0 0.01 0.0 -5.537644945935861e-09 0.0 0.0100099116667246 0.00999473366307213 0.0 4.722417792994401e-09 0.0 0.01 0.0 4.722417792994401e-09 0.0 0.010010430346156242 0.00999573323247823 0.0 2.9225111032512305e-08 0.0 0.01 0.0 2.9225111032512305e-08 0.0 0.010010325069199806 0.00999685648378069 0.0 7.769766989169279e-08 0.0 0.01 0.0 7.769766989169956e-08 0.0 0.010010382849079525 0.00999817500185625 0.0 1.1955178727349614e-07 0.0 0.01 0.0 1.1955178727349614e-07 0.0 0.010010566024709225 0.009999851005450495 0.0 1.1898082064593497e-07 0.0 0.01 0.0 1.1898082064593497e-07 0.0 0.01001070612076059 0.010002136436062037 0.0 1.034804785214128e-07 0.0 0.01 0.0 1.034804785214128e-07 0.0 0.010010097324431866 0.010005303067337568 0.0 1.1386995688831029e-07 0.0 0.01 0.0 1.1386995688831029e-07 0.0 0.01000919822750031 0.010009328942011736 0.0 -1.606364175737226e-07 0.0 0.01 0.0 -1.6063641757350575e-07 0.0 0.01000822644389124 0.009994886924258968 0.0 1.866273382539946e-08 0.0 0.01 0.0 1.8662733825401153e-08 0.0 0.010009517470166117 0.00999571475696833 0.0 7.735635735872805e-08 0.0 0.01 0.0 7.735635735872805e-08 0.0 0.010009543445134468 0.009996484359576792 0.0 1.7794988778460814e-07 0.0 0.01 0.0 1.7794988778458104e-07 0.0 0.010009725123069338 0.00999734506888752 0.0 2.735115803802332e-07 0.0 0.01 0.0 2.7351158038020607e-07 0.0 0.010010029228859402 0.009998584815077143 0.0 3.1222328580415935e-07 0.0 0.01 0.0 3.1222328580415935e-07 0.0 0.010010183499039062 0.010000745198883578 0.0 3.2266214076303755e-07 0.0 0.01 0.0 3.2266214076303755e-07 0.0 0.010009561561632312 0.0100043812863855 0.0 2.413332726961155e-07 0.0 0.01 0.0 2.413332726961155e-07 0.0 0.010008608762583802 0.01000970265007219 0.0 -5.613832108086227e-07 0.0 0.01 0.0 -5.613832108090563e-07 0.0 0.010007140487831887 0.009995346251103944 0.0 5.65778432547458e-08 0.0 0.01 0.0 5.6577843254752575e-08 0.0 0.010008785965909421 0.009995902024716242 0.0 1.6988955888559611e-07 0.0 0.01 0.0 1.69889558885569e-07 0.0 0.010008946546118787 0.009996259616678318 0.0 3.372940785878638e-07 0.0 0.01 0.0 3.372940785878638e-07 0.0 0.010009232035885763 0.009996672697709272 0.0 4.922416590022656e-07 0.0 0.01 0.0 4.922416590023198e-07 0.0 0.010009575773043039 0.009997578927469917 0.0 5.655527468234156e-07 0.0 0.01 0.0 5.655527468234156e-07 0.0 0.010009588019781537 0.009999704557217055 0.0 5.426577628680129e-07 0.0 0.01 0.0 5.426577628679045e-07 0.0 0.010008757133762584 0.010003866997729021 0.0 1.9742382961361517e-07 0.0 0.01 0.0 1.9742382961361517e-07 0.0 0.010007887728464955 0.009995976432713646 0.0 1.4250742681848577e-07 0.0 0.01 0.0 1.4250742681847222e-07 0.0 0.010008248948599693 0.009996185699447688 0.0 3.266581569467313e-07 0.0 0.01 0.0 3.266581569467313e-07 0.0 0.01000850550522728 0.009996153767009639 0.0 5.588790430083096e-07 0.0 0.01 0.0 5.588790430082554e-07 0.0 0.010008819300069704 0.00999627666553178 0.0 7.52925208100802e-07 0.0 0.01 0.0 7.529252081009104e-07 0.0 0.01000907983643101 0.009997119343473252 0.0 8.095563275655566e-07 0.0 0.01 0.0 8.095563275654482e-07 0.0 0.010008783156153372 0.00999946760279145 0.0 6.34175508240761e-07 0.0 0.01 0.0 6.341755082406525e-07 0.0 0.010007955844461057 0.010003832757871648 0.0 -1.9153910337313396e-07 0.0 0.01 0.0 -1.9153910337324238e-07 0.0 0.010007130675224254 0.009996613235250884 0.0 3.0495172170552946e-07 0.0 0.01 0.0 3.0495172170552946e-07 0.0 0.010007870145064062 0.009996468418636911 0.0 5.594781257643689e-07 0.0 0.01 0.0 5.594781257644774e-07 0.0 0.010008156014117617 0.009996206762889375 0.0 8.307096376860201e-07 0.0 0.01 0.0 8.307096376860201e-07 0.0 0.010008438973766026 0.009996391108512056 0.0 1.0131949706633243e-06 0.0 0.01 0.0 1.0131949706633243e-06 0.0 0.010008573165994463 0.009997518055027077 0.0 9.336920412890198e-07 0.0 0.01 0.0 9.336920412890198e-07 0.0 0.010008040567753703 0.010000321839604363 0.0 4.007829639295947e-07 0.0 0.01 0.0 4.007829639295947e-07 0.0 0.010007497196818782 0.009997094813223584 0.0 5.581363490502183e-07 0.0 0.01 0.0 5.581363490501099e-07 0.0 0.010007573591865224 0.009996734210015906 0.0 8.545197465201302e-07 0.0 0.01 0.0 8.545197465200218e-07 0.0 0.010007853601529164 0.009996651867694798 0.0 1.1119977319392054e-06 0.0 0.01 0.0 1.1119977319392054e-06 0.0 0.010008137557371222 0.009997323278812194 0.0 1.165556953598712e-06 0.0 0.01 0.0 1.165556953598712e-06 0.0 0.010008134117236441 0.009999125203118827 0.0 7.676215919362765e-07 0.0 0.01 0.0 7.676215919363849e-07 0.0 0.010007817846474252 0.010001918071063208 0.0 -3.5947305321488727e-07 0.0 0.01 0.0 -3.5947305321488727e-07 0.0 0.010007131641139285 0.009997425609882917 0.0 8.77315919291851e-07 0.0 0.01 0.0 8.773159192917426e-07 0.0 0.01000733482733535 0.009997346260181617 0.0 1.1648250947057792e-06 0.0 0.01 0.0 1.1648250947057792e-06 0.0 0.010007713719225424 0.009997948879155146 0.0 1.2859441732909413e-06 0.0 0.01 0.0 1.2859441732911581e-06 0.0 0.010008034319767121 0.009999349209244264 0.0 9.860353426575322e-07 0.0 0.01 0.0 9.860353426575322e-07 0.0 0.010008014169293492 0.010001462720878205 0.0 7.2757037783499834e-09 0.0 0.01 0.0 7.2757037783516775e-09 0.0 0.010007778115467724 0.00999820120235339 0.0 1.2027563843720803e-06 0.0 0.01 0.0 1.2027563843720803e-06 0.0 0.01000731538603111 0.009998944440124342 0.0 1.3495090720576104e-06 0.0 0.01 0.0 1.3495090720576104e-06 0.0 0.010007783751243232 0.010000469457879475 0.0 1.0802317118277678e-06 0.0 0.01 0.0 1.0802317118279847e-06 0.0 0.010008160552979668 0.010002042128376106 0.0 1.4160966720316685e-07 0.0 0.01 0.0 1.4160966720319396e-07 0.0 0.010008026756992196 0.010000178971262218 0.0 1.3335069990272428e-06 0.0 0.01 0.0 1.3335069990272428e-06 0.0 0.010007477895681901 0.010001536674814664 0.0 1.0674962246221519e-06 0.0 0.01 0.0 1.0674962246221519e-06 0.0 0.010007926585198642 0.010003219807627573 0.0 1.4667517744386968e-07 0.0 0.01 0.0 1.466751774439239e-07 0.0 0.01000823381141329 0.010003106185963468 0.0 -1.2641999507434151e-06 0.0 0.01 0.0 -1.2641999507425478e-06 0.0 0.010007139728260724 0.01000244580254099 0.0 8.395026706985598e-07 0.0 0.01 0.0 8.395026706985598e-07 0.0 0.01000744591346621 0.010003175812235737 0.0 7.574595394229462e-09 0.0 0.01 0.0 7.574595394226074e-09 0.0 0.010007622456435758 0.010002704211548896 0.0 -3.1680746390909224e-07 0.0 0.01 0.0 -3.1680746390920066e-07 0.0 0.01000695646716008 
