# vtk DataFile Version 3.0
Test VTK file for Force data
ASCII
DATASET POLYDATA
POINTS 2975 float
-0.22 0.0099999998 -0.38
-0.22 0.0099999998 -0.36000001
-0.2 0.0099999998 -0.40000001
-0.2 0.0099999998 -0.38
-0.2 0.0099999998 -0.36000001
-0.18000001 0.0099999998 -0.40000001
-0.18000001 0.0099999998 -0.38
-0.18000001 0.0099999998 -0.36000001
-0.16 0.0099999998 -0.40000001
-0.16 0.0099999998 -0.38
-0.16 0.0099999998 -0.36000001
-0.14 0.0099999998 -0.40000001
-0.14 0.0099999998 -0.38
-0.14 0.0099999998 -0.36000001
-0.12 0.0099999998 -0.40000001
-0.12 0.0099999998 -0.38
-0.12 0.0099999998 -0.36000001
-0.1 0.0099999998 -0.40000001
-0.1 0.0099999998 -0.38
-0.1 0.0099999998 -0.36000001
-0.079999998 0.0099999998 -0.40000001
-0.079999998 0.0099999998 -0.38
-0.079999998 0.0099999998 -0.36000001
-0.059999999000000005 0.0099999998 -0.40000001
-0.059999999000000005 0.0099999998 -0.38
-0.059999999000000005 0.0099999998 -0.36000001
-0.039999999 0.0099999998 -0.40000001
-0.039999999 0.0099999998 -0.38
-0.039999999 0.0099999998 -0.36000001
-0.02 0.0099999998 -0.40000001
-0.02 0.0099999998 -0.38
-0.02 0.0099999998 -0.36000001
0.0 0.0099999998 -0.40000001
0.0 0.0099999998 -0.38
0.0 0.0099999998 -0.36000001
0.02 0.0099999998 -0.40000001
0.02 0.0099999998 -0.38
0.02 0.0099999998 -0.36000001
0.039999999 0.0099999998 -0.40000001
0.039999999 0.0099999998 -0.38
0.039999999 0.0099999998 -0.36000001
0.059999999000000005 0.0099999998 -0.40000001
0.059999999000000005 0.0099999998 -0.38
0.059999999000000005 0.0099999998 -0.36000001
0.079999998 0.0099999998 -0.40000001
0.079999998 0.0099999998 -0.38
0.079999998 0.0099999998 -0.36000001
0.1 0.0099999998 -0.40000001
0.1 0.0099999998 -0.38
0.1 0.0099999998 -0.36000001
0.12 0.0099999998 -0.40000001
0.12 0.0099999998 -0.38
0.12 0.0099999998 -0.36000001
0.14 0.0099999998 -0.40000001
0.14 0.0099999998 -0.38
0.14 0.0099999998 -0.36000001
0.16 0.0099999998 -0.40000001
0.16 0.0099999998 -0.38
0.16 0.0099999998 -0.36000001
0.18000001 0.0099999998 -0.40000001
0.18000001 0.0099999998 -0.38
0.18000001 0.0099999998 -0.36000001
0.2 0.0099999998 -0.38
0.2 0.0099999998 -0.36000001
-0.22 0.0099999998 -0.34
-0.22 0.0099999998 -0.31999999
-0.22 0.0099999998 -0.30000001
-0.22 0.0099999998 -0.28
-0.22 0.0099999998 -0.25999999
-0.22 0.0099999998 -0.23999999
-0.22 0.0099999998 -0.22
-0.22 0.0099999998 -0.2
-0.2 0.0099999998 -0.34
-0.2 0.0099999998 -0.31999999
-0.2 0.0099999998 -0.30000001
-0.2 0.0099999998 -0.28
-0.2 0.0099999998 -0.25999999
-0.2 0.0099999998 -0.23999999
-0.2 0.0099999998 -0.22
-0.2 0.0099999998 -0.2
-0.18000001 0.0099999998 -0.34
-0.18000001 0.0099999998 -0.31999999
-0.18000001 0.0099999998 -0.30000001
-0.18000001 0.0099999998 -0.28
-0.18000001 0.0099999998 -0.25999999
-0.18000001 0.0099999998 -0.23999999
-0.18000001 0.0099999998 -0.22
-0.18000001 0.0099999998 -0.2
-0.16 0.0099999998 -0.34
-0.16 0.0099999998 -0.31999999
-0.16 0.0099999998 -0.30000001
-0.16 0.0099999998 -0.28
-0.16 0.0099999998 -0.25999999
-0.16 0.0099999998 -0.23999999
-0.16 0.0099999998 -0.22
-0.16 0.0099999998 -0.2
-0.14 0.0099999998 -0.34
-0.14 0.0099999998 -0.31999999
-0.14 0.0099999998 -0.30000001
-0.14 0.0099999998 -0.28
-0.14 0.0099999998 -0.25999999
-0.14 0.0099999998 -0.23999999
-0.14 0.0099999998 -0.22
-0.14 0.0099999998 -0.2
-0.12 0.0099999998 -0.34
-0.12 0.0099999998 -0.31999999
-0.12 0.0099999998 -0.30000001
-0.12 0.0099999998 -0.28
-0.12 0.0099999998 -0.25999999
-0.12 0.0099999998 -0.23999999
-0.12 0.0099999998 -0.22
-0.12 0.0099999998 -0.2
-0.1 0.0099999998 -0.34
-0.1 0.0099999998 -0.31999999
-0.1 0.0099999998 -0.30000001
-0.1 0.0099999998 -0.28
-0.1 0.0099999998 -0.25999999
-0.1 0.0099999998 -0.23999999
-0.1 0.0099999998 -0.22
-0.1 0.0099999998 -0.2
-0.079999998 0.0099999998 -0.34
-0.079999998 0.0099999998 -0.31999999
-0.079999998 0.0099999998 -0.30000001
-0.079999998 0.0099999998 -0.28
-0.079999998 0.0099999998 -0.25999999
-0.079999998 0.0099999998 -0.23999999
-0.079999998 0.0099999998 -0.22
-0.079999998 0.0099999998 -0.2
-0.059999999000000005 0.0099999998 -0.34
-0.059999999000000005 0.0099999998 -0.31999999
-0.059999999000000005 0.0099999998 -0.30000001
-0.059999999000000005 0.0099999998 -0.28
-0.059999999000000005 0.0099999998 -0.25999999
-0.059999999000000005 0.0099999998 -0.23999999
-0.059999999000000005 0.0099999998 -0.22
-0.059999999000000005 0.0099999998 -0.2
-0.039999999 0.0099999998 -0.34
-0.039999999 0.0099999998 -0.31999999
-0.039999999 0.0099999998 -0.30000001
-0.039999999 0.0099999998 -0.28
-0.039999999 0.0099999998 -0.25999999
-0.039999999 0.0099999998 -0.23999999
-0.039999999 0.0099999998 -0.22
-0.039999999 0.0099999998 -0.2
-0.02 0.0099999998 -0.34
-0.02 0.0099999998 -0.31999999
-0.02 0.0099999998 -0.30000001
-0.02 0.0099999998 -0.28
-0.02 0.0099999998 -0.25999999
-0.02 0.0099999998 -0.23999999
-0.02 0.0099999998 -0.22
-0.02 0.0099999998 -0.2
0.0 0.0099999998 -0.34
0.0 0.0099999998 -0.31999999
0.0 0.0099999998 -0.30000001
0.02 0.0099999998 -0.34
0.02 0.0099999998 -0.31999999
0.039999999 0.0099999998 -0.34
0.039999999 0.0099999998 -0.31999999
0.059999999000000005 0.0099999998 -0.34
0.059999999000000005 0.0099999998 -0.31999999
0.079999998 0.0099999998 -0.34
0.079999998 0.0099999998 -0.31999999
0.1 0.0099999998 -0.34
0.1 0.0099999998 -0.31999999
0.12 0.0099999998 -0.34
0.12 0.0099999998 -0.31999999
0.14 0.0099999998 -0.34
0.14 0.0099999998 -0.31999999
0.16 0.0099999998 -0.34
0.16 0.0099999998 -0.31999999
0.18000001 0.0099999998 -0.34
0.18000001 0.0099999998 -0.31999999
0.2 0.0099999998 -0.34
0.2 0.0099999998 -0.31999999
-0.22 0.0099999998 -0.18000001
-0.22 0.0099999998 -0.16
-0.22 0.0099999998 -0.14
-0.22 0.0099999998 -0.12
-0.22 0.0099999998 -0.1
-0.22 0.0099999998 -0.079999998
-0.22 0.0099999998 -0.059999999000000005
-0.22 0.0099999998 -0.039999999
-0.22 0.0099999998 -0.02
-0.2 0.0099999998 -0.18000001
-0.2 0.0099999998 -0.16
-0.2 0.0099999998 -0.14
-0.2 0.0099999998 -0.12
-0.2 0.0099999998 -0.1
-0.2 0.0099999998 -0.079999998
-0.2 0.0099999998 -0.059999999000000005
-0.2 0.0099999998 -0.039999999
-0.2 0.0099999998 -0.02
-0.18000001 0.0099999998 -0.18000001
-0.18000001 0.0099999998 -0.16
-0.18000001 0.0099999998 -0.14
-0.18000001 0.0099999998 -0.12
-0.18000001 0.0099999998 -0.1
-0.18000001 0.0099999998 -0.079999998
-0.18000001 0.0099999998 -0.059999999000000005
-0.18000001 0.0099999998 -0.039999999
-0.18000001 0.0099999998 -0.02
-0.16 0.0099999998 -0.18000001
-0.16 0.0099999998 -0.16
-0.16 0.0099999998 -0.14
-0.16 0.0099999998 -0.12
-0.16 0.0099999998 -0.1
-0.16 0.0099999998 -0.079999998
-0.16 0.0099999998 -0.059999999000000005
-0.16 0.0099999998 -0.039999999
-0.16 0.0099999998 -0.02
-0.14 0.0099999998 -0.18000001
-0.14 0.0099999998 -0.16
-0.14 0.0099999998 -0.14
-0.14 0.0099999998 -0.12
-0.14 0.0099999998 -0.1
-0.14 0.0099999998 -0.079999998
-0.14 0.0099999998 -0.059999999000000005
-0.14 0.0099999998 -0.039999999
-0.14 0.0099999998 -0.02
-0.12 0.0099999998 -0.18000001
-0.12 0.0099999998 -0.16
-0.12 0.0099999998 -0.14
-0.12 0.0099999998 -0.12
-0.12 0.0099999998 -0.1
-0.12 0.0099999998 -0.079999998
-0.12 0.0099999998 -0.059999999000000005
-0.12 0.0099999998 -0.039999999
-0.12 0.0099999998 -0.02
-0.1 0.0099999998 -0.18000001
-0.1 0.0099999998 -0.16
-0.1 0.0099999998 -0.14
-0.1 0.0099999998 -0.12
-0.1 0.0099999998 -0.1
-0.1 0.0099999998 -0.079999998
-0.1 0.0099999998 -0.059999999000000005
-0.1 0.0099999998 -0.039999999
-0.1 0.0099999998 -0.02
-0.079999998 0.0099999998 -0.18000001
-0.079999998 0.0099999998 -0.16
-0.079999998 0.0099999998 -0.14
-0.079999998 0.0099999998 -0.12
-0.079999998 0.0099999998 -0.1
-0.079999998 0.0099999998 -0.079999998
-0.079999998 0.0099999998 -0.059999999000000005
-0.079999998 0.0099999998 -0.039999999
-0.079999998 0.0099999998 -0.02
-0.059999999000000005 0.0099999998 -0.18000001
-0.059999999000000005 0.0099999998 -0.16
-0.059999999000000005 0.0099999998 -0.14
-0.059999999000000005 0.0099999998 -0.12
-0.059999999000000005 0.0099999998 -0.1
-0.059999999000000005 0.0099999998 -0.079999998
-0.059999999000000005 0.0099999998 -0.059999999000000005
-0.059999999000000005 0.0099999998 -0.039999999
-0.059999999000000005 0.0099999998 -0.02
-0.039999999 0.0099999998 -0.18000001
-0.039999999 0.0099999998 -0.16
-0.039999999 0.0099999998 -0.14
-0.039999999 0.0099999998 -0.12
-0.039999999 0.0099999998 -0.1
-0.039999999 0.0099999998 -0.079999998
-0.039999999 0.0099999998 -0.059999999000000005
-0.039999999 0.0099999998 -0.039999999
-0.039999999 0.0099999998 -0.02
-0.02 0.0099999998 -0.18000001
-0.02 0.0099999998 -0.16
-0.02 0.0099999998 -0.14
-0.02 0.0099999998 -0.12
-0.02 0.0099999998 -0.1
-0.02 0.0099999998 -0.079999998
-0.02 0.0099999998 -0.059999999000000005
-0.02 0.0099999998 -0.039999999
-0.02 0.0099999998 -0.02
-0.22 0.0099999998 0.0
-0.22 0.0099999998 0.02
-0.22 0.0099999998 0.039999999
-0.22 0.0099999998 0.059999999000000005
-0.22 0.0099999998 0.079999998
-0.22 0.0099999998 0.1
-0.22 0.0099999998 0.12
-0.22 0.0099999998 0.14
-0.2 0.0099999998 0.0
-0.2 0.0099999998 0.02
-0.2 0.0099999998 0.039999999
-0.2 0.0099999998 0.059999999000000005
-0.2 0.0099999998 0.079999998
-0.2 0.0099999998 0.1
-0.2 0.0099999998 0.12
-0.2 0.0099999998 0.14
-0.18000001 0.0099999998 0.0
-0.18000001 0.0099999998 0.02
-0.18000001 0.0099999998 0.039999999
-0.18000001 0.0099999998 0.059999999000000005
-0.18000001 0.0099999998 0.079999998
-0.18000001 0.0099999998 0.1
-0.18000001 0.0099999998 0.12
-0.18000001 0.0099999998 0.14
-0.16 0.0099999998 0.0
-0.16 0.0099999998 0.02
-0.16 0.0099999998 0.039999999
-0.16 0.0099999998 0.059999999000000005
-0.16 0.0099999998 0.079999998
-0.16 0.0099999998 0.1
-0.16 0.0099999998 0.12
-0.16 0.0099999998 0.14
-0.14 0.0099999998 0.0
-0.14 0.0099999998 0.02
-0.14 0.0099999998 0.039999999
-0.14 0.0099999998 0.059999999000000005
-0.14 0.0099999998 0.079999998
-0.14 0.0099999998 0.1
-0.14 0.0099999998 0.12
-0.14 0.0099999998 0.14
-0.12 0.0099999998 0.0
-0.12 0.0099999998 0.02
-0.12 0.0099999998 0.039999999
-0.12 0.0099999998 0.059999999000000005
-0.12 0.0099999998 0.079999998
-0.12 0.0099999998 0.1
-0.12 0.0099999998 0.12
-0.12 0.0099999998 0.14
-0.1 0.0099999998 0.0
-0.1 0.0099999998 0.02
-0.1 0.0099999998 0.039999999
-0.1 0.0099999998 0.059999999000000005
-0.1 0.0099999998 0.079999998
-0.1 0.0099999998 0.1
-0.1 0.0099999998 0.12
-0.1 0.0099999998 0.14
-0.079999998 0.0099999998 0.0
-0.079999998 0.0099999998 0.02
-0.079999998 0.0099999998 0.039999999
-0.079999998 0.0099999998 0.059999999000000005
-0.079999998 0.0099999998 0.079999998
-0.079999998 0.0099999998 0.1
-0.079999998 0.0099999998 0.12
-0.079999998 0.0099999998 0.14
-0.059999999000000005 0.0099999998 0.0
-0.059999999000000005 0.0099999998 0.02
-0.059999999000000005 0.0099999998 0.039999999
-0.059999999000000005 0.0099999998 0.059999999000000005
-0.059999999000000005 0.0099999998 0.079999998
-0.059999999000000005 0.0099999998 0.1
-0.059999999000000005 0.0099999998 0.12
-0.059999999000000005 0.0099999998 0.14
-0.039999999 0.0099999998 0.0
-0.039999999 0.0099999998 0.02
-0.039999999 0.0099999998 0.039999999
-0.039999999 0.0099999998 0.059999999000000005
-0.039999999 0.0099999998 0.079999998
-0.039999999 0.0099999998 0.1
-0.039999999 0.0099999998 0.12
-0.039999999 0.0099999998 0.14
-0.02 0.0099999998 0.0
-0.02 0.0099999998 0.02
-0.02 0.0099999998 0.039999999
-0.02 0.0099999998 0.059999999000000005
-0.02 0.0099999998 0.079999998
-0.02 0.0099999998 0.1
-0.02 0.0099999998 0.12
-0.02 0.0099999998 0.14
-0.22 0.0099999998 0.16
-0.22 0.0099999998 0.18000001
-0.22 0.0099999998 0.2
-0.22 0.0099999998 0.22
-0.22 0.0099999998 0.23999999
-0.22 0.0099999998 0.25999999
-0.22 0.0099999998 0.28
-0.22 0.0099999998 0.30000001
-0.22 0.0099999998 0.31999999
-0.2 0.0099999998 0.16
-0.2 0.0099999998 0.18000001
-0.2 0.0099999998 0.2
-0.2 0.0099999998 0.22
-0.2 0.0099999998 0.23999999
-0.2 0.0099999998 0.25999999
-0.2 0.0099999998 0.28
-0.2 0.0099999998 0.30000001
-0.2 0.0099999998 0.31999999
-0.18000001 0.0099999998 0.16
-0.18000001 0.0099999998 0.18000001
-0.18000001 0.0099999998 0.2
-0.18000001 0.0099999998 0.22
-0.18000001 0.0099999998 0.23999999
-0.18000001 0.0099999998 0.25999999
-0.18000001 0.0099999998 0.28
-0.18000001 0.0099999998 0.30000001
-0.18000001 0.0099999998 0.31999999
-0.16 0.0099999998 0.16
-0.16 0.0099999998 0.18000001
-0.16 0.0099999998 0.2
-0.16 0.0099999998 0.22
-0.16 0.0099999998 0.23999999
-0.16 0.0099999998 0.25999999
-0.16 0.0099999998 0.28
-0.16 0.0099999998 0.30000001
-0.16 0.0099999998 0.31999999
-0.14 0.0099999998 0.16
-0.14 0.0099999998 0.18000001
-0.14 0.0099999998 0.2
-0.14 0.0099999998 0.22
-0.14 0.0099999998 0.23999999
-0.14 0.0099999998 0.25999999
-0.14 0.0099999998 0.28
-0.14 0.0099999998 0.30000001
-0.14 0.0099999998 0.31999999
-0.12 0.0099999998 0.16
-0.12 0.0099999998 0.18000001
-0.12 0.0099999998 0.2
-0.12 0.0099999998 0.22
-0.12 0.0099999998 0.23999999
-0.12 0.0099999998 0.25999999
-0.12 0.0099999998 0.28
-0.12 0.0099999998 0.30000001
-0.12 0.0099999998 0.31999999
-0.1 0.0099999998 0.16
-0.1 0.0099999998 0.18000001
-0.1 0.0099999998 0.2
-0.1 0.0099999998 0.22
-0.1 0.0099999998 0.23999999
-0.1 0.0099999998 0.25999999
-0.1 0.0099999998 0.28
-0.1 0.0099999998 0.30000001
-0.1 0.0099999998 0.31999999
-0.079999998 0.0099999998 0.16
-0.079999998 0.0099999998 0.18000001
-0.079999998 0.0099999998 0.2
-0.079999998 0.0099999998 0.22
-0.079999998 0.0099999998 0.23999999
-0.079999998 0.0099999998 0.25999999
-0.079999998 0.0099999998 0.28
-0.079999998 0.0099999998 0.30000001
-0.079999998 0.0099999998 0.31999999
-0.059999999000000005 0.0099999998 0.16
-0.059999999000000005 0.0099999998 0.18000001
-0.059999999000000005 0.0099999998 0.2
-0.059999999000000005 0.0099999998 0.22
-0.059999999000000005 0.0099999998 0.23999999
-0.059999999000000005 0.0099999998 0.25999999
-0.059999999000000005 0.0099999998 0.28
-0.059999999000000005 0.0099999998 0.30000001
-0.059999999000000005 0.0099999998 0.31999999
-0.039999999 0.0099999998 0.16
-0.039999999 0.0099999998 0.18000001
-0.039999999 0.0099999998 0.2
-0.039999999 0.0099999998 0.22
-0.039999999 0.0099999998 0.23999999
-0.039999999 0.0099999998 0.25999999
-0.039999999 0.0099999998 0.28
-0.039999999 0.0099999998 0.30000001
-0.039999999 0.0099999998 0.31999999
-0.02 0.0099999998 0.16
-0.02 0.0099999998 0.18000001
-0.02 0.0099999998 0.2
-0.02 0.0099999998 0.22
-0.02 0.0099999998 0.23999999
-0.02 0.0099999998 0.25999999
-0.02 0.0099999998 0.28
-0.02 0.0099999998 0.30000001
-0.02 0.0099999998 0.31999999
0.0 0.0099999998 0.30000001
0.0 0.0099999998 0.31999999
0.02 0.0099999998 0.31999999
0.039999999 0.0099999998 0.31999999
0.059999999000000005 0.0099999998 0.31999999
0.079999998 0.0099999998 0.31999999
0.1 0.0099999998 0.31999999
0.12 0.0099999998 0.31999999
0.14 0.0099999998 0.31999999
0.16 0.0099999998 0.31999999
0.18000001 0.0099999998 0.31999999
0.2 0.0099999998 0.31999999
-0.22 0.0099999998 0.34
-0.22 0.0099999998 0.36000001
-0.22 0.0099999998 0.38
-0.2 0.0099999998 0.34
-0.2 0.0099999998 0.36000001
-0.2 0.0099999998 0.38
-0.2 0.0099999998 0.40000001
-0.18000001 0.0099999998 0.34
-0.18000001 0.0099999998 0.36000001
-0.18000001 0.0099999998 0.38
-0.18000001 0.0099999998 0.40000001
-0.16 0.0099999998 0.34
-0.16 0.0099999998 0.36000001
-0.16 0.0099999998 0.38
-0.16 0.0099999998 0.40000001
-0.14 0.0099999998 0.34
-0.14 0.0099999998 0.36000001
-0.14 0.0099999998 0.38
-0.14 0.0099999998 0.40000001
-0.12 0.0099999998 0.34
-0.12 0.0099999998 0.36000001
-0.12 0.0099999998 0.38
-0.12 0.0099999998 0.40000001
-0.1 0.0099999998 0.34
-0.1 0.0099999998 0.36000001
-0.1 0.0099999998 0.38
-0.1 0.0099999998 0.40000001
-0.079999998 0.0099999998 0.34
-0.079999998 0.0099999998 0.36000001
-0.079999998 0.0099999998 0.38
-0.079999998 0.0099999998 0.40000001
-0.059999999000000005 0.0099999998 0.34
-0.059999999000000005 0.0099999998 0.36000001
-0.059999999000000005 0.0099999998 0.38
-0.059999999000000005 0.0099999998 0.40000001
-0.039999999 0.0099999998 0.34
-0.039999999 0.0099999998 0.36000001
-0.039999999 0.0099999998 0.38
-0.039999999 0.0099999998 0.40000001
-0.02 0.0099999998 0.34
-0.02 0.0099999998 0.36000001
-0.02 0.0099999998 0.38
-0.02 0.0099999998 0.40000001
0.0 0.0099999998 0.34
0.0 0.0099999998 0.36000001
0.0 0.0099999998 0.38
0.0 0.0099999998 0.40000001
0.02 0.0099999998 0.34
0.02 0.0099999998 0.36000001
0.02 0.0099999998 0.38
0.02 0.0099999998 0.40000001
0.039999999 0.0099999998 0.34
0.039999999 0.0099999998 0.36000001
0.039999999 0.0099999998 0.38
0.039999999 0.0099999998 0.40000001
0.059999999000000005 0.0099999998 0.34
0.059999999000000005 0.0099999998 0.36000001
0.059999999000000005 0.0099999998 0.38
0.059999999000000005 0.0099999998 0.40000001
0.079999998 0.0099999998 0.34
0.079999998 0.0099999998 0.36000001
0.079999998 0.0099999998 0.38
0.079999998 0.0099999998 0.40000001
0.1 0.0099999998 0.34
0.1 0.0099999998 0.36000001
0.1 0.0099999998 0.38
0.1 0.0099999998 0.40000001
0.12 0.0099999998 0.34
0.12 0.0099999998 0.36000001
0.12 0.0099999998 0.38
0.12 0.0099999998 0.40000001
0.14 0.0099999998 0.34
0.14 0.0099999998 0.36000001
0.14 0.0099999998 0.38
0.14 0.0099999998 0.40000001
0.16 0.0099999998 0.34
0.16 0.0099999998 0.36000001
0.16 0.0099999998 0.38
0.16 0.0099999998 0.40000001
0.18000001 0.0099999998 0.34
0.18000001 0.0099999998 0.36000001
0.18000001 0.0099999998 0.38
0.18000001 0.0099999998 0.40000001
0.2 0.0099999998 0.34
0.2 0.0099999998 0.36000001
0.2 0.0099999998 0.38
1.92 0.0099999998 -0.36000001
1.92 0.0099999998 -0.34
1.92 0.0099999998 -0.31999999
1.9400001 0.0099999998 -0.38
1.9400001 0.0099999998 -0.36000001
1.9400001 0.0099999998 -0.34
1.9400001 0.0099999998 -0.31999999
1.9400001 0.0099999998 -0.30000001
1.9400001 0.0099999998 -0.28
1.9400001 0.0099999998 -0.25999999
1.9400001 0.0099999998 -0.23999999
1.9400001 0.0099999998 -0.22
1.96 0.0099999998 -0.38
1.96 0.0099999998 -0.36000001
1.96 0.0099999998 -0.34
1.96 0.0099999998 -0.31999999
1.96 0.0099999998 -0.30000001
1.96 0.0099999998 -0.28
1.96 0.0099999998 -0.25999999
1.96 0.0099999998 -0.23999999
1.96 0.0099999998 -0.22
1.96 0.0099999998 -0.2
1.96 0.0099999998 -0.18000001
1.96 0.0099999998 -0.16
1.96 0.0099999998 -0.14
1.96 0.0099999998 -0.12
1.98 0.0099999998 -0.38
1.98 0.0099999998 -0.36000001
1.98 0.0099999998 -0.34
1.98 0.0099999998 -0.31999999
1.98 0.0099999998 -0.30000001
1.98 0.0099999998 -0.28
1.98 0.0099999998 -0.25999999
1.98 0.0099999998 -0.23999999
1.98 0.0099999998 -0.22
1.98 0.0099999998 -0.2
1.98 0.0099999998 -0.18000001
1.98 0.0099999998 -0.16
1.98 0.0099999998 -0.14
1.98 0.0099999998 -0.12
1.98 0.0099999998 -0.1
1.98 0.0099999998 -0.079999998
1.98 0.0099999998 -0.059999999000000005
1.98 0.0099999998 -0.039999999
1.98 0.0099999998 -0.02
2.0 0.0099999998 -0.38
2.0 0.0099999998 -0.36000001
2.0 0.0099999998 -0.34
2.0 0.0099999998 -0.31999999
2.0 0.0099999998 -0.30000001
2.0 0.0099999998 -0.28
2.0 0.0099999998 -0.25999999
2.0 0.0099999998 -0.23999999
2.0 0.0099999998 -0.22
2.0 0.0099999998 -0.2
2.0 0.0099999998 -0.18000001
2.0 0.0099999998 -0.16
2.0 0.0099999998 -0.14
2.0 0.0099999998 -0.12
2.0 0.0099999998 -0.1
2.0 0.0099999998 -0.079999998
2.0 0.0099999998 -0.059999999000000005
2.0 0.0099999998 -0.039999999
2.0 0.0099999998 -0.02
2.0 0.0099999998 0.0
2.0 0.0099999998 0.02
2.0 0.0099999998 0.039999999
2.0 0.0099999998 0.059999999000000005
2.0 0.0099999998 0.079999998
2.02 0.0099999998 -0.40000001
2.02 0.0099999998 -0.38
2.02 0.0099999998 -0.36000001
2.02 0.0099999998 -0.34
2.02 0.0099999998 -0.31999999
2.02 0.0099999998 -0.30000001
2.02 0.0099999998 -0.28
2.02 0.0099999998 -0.25999999
2.02 0.0099999998 -0.23999999
2.02 0.0099999998 -0.22
2.02 0.0099999998 -0.2
2.02 0.0099999998 -0.18000001
2.02 0.0099999998 -0.16
2.02 0.0099999998 -0.14
2.02 0.0099999998 -0.12
2.02 0.0099999998 -0.1
2.02 0.0099999998 -0.079999998
2.02 0.0099999998 -0.059999999000000005
2.02 0.0099999998 -0.039999999
2.02 0.0099999998 -0.02
2.02 0.0099999998 0.0
2.02 0.0099999998 0.02
2.02 0.0099999998 0.039999999
2.02 0.0099999998 0.059999999000000005
2.02 0.0099999998 0.079999998
2.02 0.0099999998 0.1
2.02 0.0099999998 0.12
2.02 0.0099999998 0.14
2.02 0.0099999998 0.16
2.02 0.0099999998 0.18000001
2.04 0.0099999998 -0.40000001
2.04 0.0099999998 -0.38
2.04 0.0099999998 -0.36000001
2.04 0.0099999998 -0.34
2.04 0.0099999998 -0.31999999
2.04 0.0099999998 -0.30000001
2.04 0.0099999998 -0.28
2.04 0.0099999998 -0.25999999
2.04 0.0099999998 -0.23999999
2.04 0.0099999998 -0.22
2.04 0.0099999998 -0.2
2.04 0.0099999998 -0.18000001
2.04 0.0099999998 -0.16
2.04 0.0099999998 -0.14
2.04 0.0099999998 -0.12
2.04 0.0099999998 -0.1
2.04 0.0099999998 -0.079999998
2.04 0.0099999998 -0.059999999000000005
2.04 0.0099999998 -0.039999999
2.04 0.0099999998 -0.02
2.04 0.0099999998 0.0
2.04 0.0099999998 0.02
2.04 0.0099999998 0.039999999
2.04 0.0099999998 0.059999999000000005
2.04 0.0099999998 0.079999998
2.04 0.0099999998 0.1
2.04 0.0099999998 0.12
2.04 0.0099999998 0.14
2.04 0.0099999998 0.16
2.04 0.0099999998 0.18000001
2.04 0.0099999998 0.2
2.04 0.0099999998 0.22
2.04 0.0099999998 0.23999999
2.04 0.0099999998 0.25999999
2.04 0.0099999998 0.28
2.0599998999999998 0.0099999998 -0.40000001
2.0599998999999998 0.0099999998 -0.38
2.0599998999999998 0.0099999998 -0.36000001
2.0599998999999998 0.0099999998 -0.34
2.0599998999999998 0.0099999998 -0.31999999
2.0599998999999998 0.0099999998 -0.30000001
2.0599998999999998 0.0099999998 -0.28
2.0599998999999998 0.0099999998 -0.25999999
2.0599998999999998 0.0099999998 -0.23999999
2.0599998999999998 0.0099999998 -0.22
2.0599998999999998 0.0099999998 -0.2
2.0599998999999998 0.0099999998 -0.18000001
2.0599998999999998 0.0099999998 -0.16
2.0599998999999998 0.0099999998 -0.14
2.0599998999999998 0.0099999998 -0.12
2.0599998999999998 0.0099999998 -0.1
2.0599998999999998 0.0099999998 -0.079999998
2.0599998999999998 0.0099999998 -0.059999999000000005
2.0599998999999998 0.0099999998 -0.039999999
2.0599998999999998 0.0099999998 -0.02
2.0599998999999998 0.0099999998 0.0
2.0599998999999998 0.0099999998 0.02
2.0599998999999998 0.0099999998 0.039999999
2.0599998999999998 0.0099999998 0.059999999000000005
2.0599998999999998 0.0099999998 0.079999998
2.0599998999999998 0.0099999998 0.1
2.0599998999999998 0.0099999998 0.12
2.0599998999999998 0.0099999998 0.14
2.0599998999999998 0.0099999998 0.16
2.0599998999999998 0.0099999998 0.18000001
2.0599998999999998 0.0099999998 0.2
2.0599998999999998 0.0099999998 0.22
2.0599998999999998 0.0099999998 0.23999999
2.0599998999999998 0.0099999998 0.25999999
2.0599998999999998 0.0099999998 0.28
2.0599998999999998 0.0099999998 0.30000001
2.0599998999999998 0.0099999998 0.31999999
2.0599998999999998 0.0099999998 0.34
2.0599998999999998 0.0099999998 0.36000001
2.0599998999999998 0.0099999998 0.38
2.0799999 0.0099999998 -0.40000001
2.0799999 0.0099999998 -0.38
2.0799999 0.0099999998 -0.36000001
2.0799999 0.0099999998 -0.34
2.0799999 0.0099999998 -0.31999999
2.0799999 0.0099999998 -0.30000001
2.0799999 0.0099999998 -0.28
2.0799999 0.0099999998 -0.25999999
2.0799999 0.0099999998 -0.23999999
2.0799999 0.0099999998 -0.22
2.0799999 0.0099999998 -0.2
2.0799999 0.0099999998 -0.18000001
2.0799999 0.0099999998 -0.16
2.0799999 0.0099999998 -0.14
2.0799999 0.0099999998 -0.12
2.0799999 0.0099999998 -0.1
2.0799999 0.0099999998 -0.079999998
2.0799999 0.0099999998 -0.059999999000000005
2.0799999 0.0099999998 -0.039999999
2.0799999 0.0099999998 -0.02
2.0799999 0.0099999998 0.0
2.0799999 0.0099999998 0.02
2.0799999 0.0099999998 0.039999999
2.0799999 0.0099999998 0.059999999000000005
2.0799999 0.0099999998 0.079999998
2.0799999 0.0099999998 0.1
2.0799999 0.0099999998 0.12
2.0799999 0.0099999998 0.14
2.0799999 0.0099999998 0.16
2.0799999 0.0099999998 0.18000001
2.0799999 0.0099999998 0.2
2.0799999 0.0099999998 0.22
2.0799999 0.0099999998 0.23999999
2.0799999 0.0099999998 0.25999999
2.0799999 0.0099999998 0.28
2.0799999 0.0099999998 0.30000001
2.0799999 0.0099999998 0.31999999
2.0799999 0.0099999998 0.34
2.0799999 0.0099999998 0.36000001
2.0799999 0.0099999998 0.38
2.0799999 0.0099999998 0.40000001
2.0999999 0.0099999998 -0.40000001
2.0999999 0.0099999998 -0.38
2.0999999 0.0099999998 -0.36000001
2.0999999 0.0099999998 -0.34
2.0999999 0.0099999998 -0.31999999
2.0999999 0.0099999998 -0.30000001
2.0999999 0.0099999998 -0.28
2.0999999 0.0099999998 -0.25999999
2.0999999 0.0099999998 -0.23999999
2.0999999 0.0099999998 -0.22
2.0999999 0.0099999998 -0.2
2.0999999 0.0099999998 -0.18000001
2.0999999 0.0099999998 -0.16
2.0999999 0.0099999998 -0.14
2.0999999 0.0099999998 -0.12
2.0999999 0.0099999998 -0.1
2.0999999 0.0099999998 -0.079999998
2.0999999 0.0099999998 -0.059999999000000005
2.0999999 0.0099999998 -0.039999999
2.0999999 0.0099999998 -0.02
2.0999999 0.0099999998 0.0
2.0999999 0.0099999998 0.02
2.0999999 0.0099999998 0.039999999
2.0999999 0.0099999998 0.059999999000000005
2.0999999 0.0099999998 0.079999998
2.0999999 0.0099999998 0.1
2.0999999 0.0099999998 0.12
2.0999999 0.0099999998 0.14
2.0999999 0.0099999998 0.16
2.0999999 0.0099999998 0.18000001
2.0999999 0.0099999998 0.2
2.0999999 0.0099999998 0.22
2.0999999 0.0099999998 0.23999999
2.0999999 0.0099999998 0.25999999
2.0999999 0.0099999998 0.28
2.0999999 0.0099999998 0.30000001
2.0999999 0.0099999998 0.31999999
2.0999999 0.0099999998 0.34
2.0999999 0.0099999998 0.36000001
2.0999999 0.0099999998 0.38
2.0999999 0.0099999998 0.40000001
2.1199999 0.0099999998 -0.41999999
2.1199999 0.0099999998 -0.40000001
2.1199999 0.0099999998 -0.38
2.1199999 0.0099999998 -0.36000001
2.1199999 0.0099999998 -0.34
2.1199999 0.0099999998 -0.31999999
2.1199999 0.0099999998 -0.30000001
2.1199999 0.0099999998 -0.28
2.1199999 0.0099999998 -0.25999999
2.1199999 0.0099999998 -0.23999999
2.1199999 0.0099999998 -0.22
2.1199999 0.0099999998 -0.2
2.1199999 0.0099999998 -0.18000001
2.1199999 0.0099999998 -0.16
2.1199999 0.0099999998 -0.14
2.1199999 0.0099999998 -0.12
2.1199999 0.0099999998 -0.1
2.1199999 0.0099999998 -0.079999998
2.1199999 0.0099999998 -0.059999999000000005
2.1199999 0.0099999998 -0.039999999
2.1199999 0.0099999998 -0.02
2.1199999 0.0099999998 0.0
2.1199999 0.0099999998 0.02
2.1199999 0.0099999998 0.039999999
2.1199999 0.0099999998 0.059999999000000005
2.1199999 0.0099999998 0.079999998
2.1199999 0.0099999998 0.1
2.1199999 0.0099999998 0.12
2.1199999 0.0099999998 0.14
2.1199999 0.0099999998 0.16
2.1199999 0.0099999998 0.18000001
2.1199999 0.0099999998 0.2
2.1199999 0.0099999998 0.22
2.1199999 0.0099999998 0.23999999
2.1199999 0.0099999998 0.25999999
2.1199999 0.0099999998 0.28
2.1199999 0.0099999998 0.30000001
2.1199999 0.0099999998 0.31999999
2.1199999 0.0099999998 0.34
2.1199999 0.0099999998 0.36000001
2.1199999 0.0099999998 0.38
2.1199999 0.0099999998 0.40000001
2.1400001 0.0099999998 -0.38
2.1400001 0.0099999998 -0.36000001
2.1400001 0.0099999998 -0.34
2.1400001 0.0099999998 -0.31999999
2.1400001 0.0099999998 -0.30000001
2.1400001 0.0099999998 -0.28
2.1400001 0.0099999998 -0.25999999
2.1400001 0.0099999998 -0.23999999
2.1400001 0.0099999998 -0.22
2.1400001 0.0099999998 -0.2
2.1400001 0.0099999998 -0.18000001
2.1400001 0.0099999998 -0.16
2.1400001 0.0099999998 -0.14
2.1400001 0.0099999998 -0.12
2.1400001 0.0099999998 -0.1
2.1400001 0.0099999998 -0.079999998
2.1400001 0.0099999998 -0.059999999000000005
2.1400001 0.0099999998 -0.039999999
2.1400001 0.0099999998 -0.02
2.1400001 0.0099999998 0.0
2.1400001 0.0099999998 0.02
2.1400001 0.0099999998 0.039999999
2.1400001 0.0099999998 0.059999999000000005
2.1400001 0.0099999998 0.079999998
2.1400001 0.0099999998 0.1
2.1400001 0.0099999998 0.12
2.1400001 0.0099999998 0.14
2.1400001 0.0099999998 0.16
2.1400001 0.0099999998 0.18000001
2.1400001 0.0099999998 0.2
2.1400001 0.0099999998 0.22
2.1400001 0.0099999998 0.23999999
2.1400001 0.0099999998 0.25999999
2.1400001 0.0099999998 0.28
2.1400001 0.0099999998 0.30000001
2.1400001 0.0099999998 0.31999999
2.1400001 0.0099999998 0.34
2.1400001 0.0099999998 0.36000001
2.1400001 0.0099999998 0.38
2.1400001 0.0099999998 0.40000001
2.1600001 0.0099999998 -0.28
2.1600001 0.0099999998 -0.25999999
2.1600001 0.0099999998 -0.23999999
2.1600001 0.0099999998 -0.22
2.1600001 0.0099999998 -0.2
2.1600001 0.0099999998 -0.18000001
2.1600001 0.0099999998 -0.16
2.1600001 0.0099999998 -0.14
2.1600001 0.0099999998 -0.12
2.1600001 0.0099999998 -0.1
2.1600001 0.0099999998 -0.079999998
2.1600001 0.0099999998 -0.059999999000000005
2.1600001 0.0099999998 -0.039999999
2.1600001 0.0099999998 -0.02
2.1600001 0.0099999998 0.0
2.1600001 0.0099999998 0.02
2.1600001 0.0099999998 0.039999999
2.1600001 0.0099999998 0.059999999000000005
2.1600001 0.0099999998 0.079999998
2.1600001 0.0099999998 0.1
2.1600001 0.0099999998 0.12
2.1600001 0.0099999998 0.14
2.1600001 0.0099999998 0.16
2.1600001 0.0099999998 0.18000001
2.1600001 0.0099999998 0.2
2.1600001 0.0099999998 0.22
2.1600001 0.0099999998 0.23999999
2.1600001 0.0099999998 0.25999999
2.1600001 0.0099999998 0.28
2.1600001 0.0099999998 0.30000001
2.1600001 0.0099999998 0.31999999
2.1600001 0.0099999998 0.34
2.1600001 0.0099999998 0.36000001
2.1600001 0.0099999998 0.38
2.1600001 0.0099999998 0.40000001
2.1800001 0.0099999998 -0.18000001
2.1800001 0.0099999998 -0.16
2.1800001 0.0099999998 -0.14
2.1800001 0.0099999998 -0.12
2.1800001 0.0099999998 -0.1
2.1800001 0.0099999998 -0.079999998
2.1800001 0.0099999998 -0.059999999000000005
2.1800001 0.0099999998 -0.039999999
2.1800001 0.0099999998 -0.02
2.1800001 0.0099999998 0.0
2.1800001 0.0099999998 0.02
2.1800001 0.0099999998 0.039999999
2.1800001 0.0099999998 0.059999999000000005
2.1800001 0.0099999998 0.079999998
2.1800001 0.0099999998 0.1
2.1800001 0.0099999998 0.12
2.1800001 0.0099999998 0.14
2.1800001 0.0099999998 0.16
2.1800001 0.0099999998 0.18000001
2.1800001 0.0099999998 0.2
2.1800001 0.0099999998 0.22
2.1800001 0.0099999998 0.23999999
2.1800001 0.0099999998 0.25999999
2.1800001 0.0099999998 0.28
2.1800001 0.0099999998 0.30000001
2.1800001 0.0099999998 0.31999999
2.1800001 0.0099999998 0.34
2.1800001 0.0099999998 0.36000001
2.1800001 0.0099999998 0.38
2.1800001 0.0099999998 0.40000001
2.2 0.0099999998 -0.079999998
2.2 0.0099999998 -0.059999999000000005
2.2 0.0099999998 -0.039999999
2.2 0.0099999998 -0.02
2.2 0.0099999998 0.0
2.2 0.0099999998 0.02
2.2 0.0099999998 0.039999999
2.2 0.0099999998 0.059999999000000005
2.2 0.0099999998 0.079999998
2.2 0.0099999998 0.1
2.2 0.0099999998 0.12
2.2 0.0099999998 0.14
2.2 0.0099999998 0.16
2.2 0.0099999998 0.18000001
2.2 0.0099999998 0.2
2.2 0.0099999998 0.22
2.2 0.0099999998 0.23999999
2.2 0.0099999998 0.25999999
2.2 0.0099999998 0.28
2.2 0.0099999998 0.30000001
2.2 0.0099999998 0.31999999
2.2 0.0099999998 0.34
2.2 0.0099999998 0.36000001
2.2 0.0099999998 0.38
2.22 0.0099999998 0.02
2.22 0.0099999998 0.039999999
2.22 0.0099999998 0.059999999000000005
2.22 0.0099999998 0.079999998
2.22 0.0099999998 0.1
2.22 0.0099999998 0.12
2.22 0.0099999998 0.14
2.22 0.0099999998 0.16
2.22 0.0099999998 0.18000001
2.22 0.0099999998 0.2
2.22 0.0099999998 0.22
2.22 0.0099999998 0.23999999
2.22 0.0099999998 0.25999999
2.22 0.0099999998 0.28
2.22 0.0099999998 0.30000001
2.22 0.0099999998 0.31999999
2.22 0.0099999998 0.34
2.22 0.0099999998 0.36000001
2.22 0.0099999998 0.38
2.24 0.0099999998 0.12
2.24 0.0099999998 0.14
2.24 0.0099999998 0.16
2.24 0.0099999998 0.18000001
2.24 0.0099999998 0.2
2.24 0.0099999998 0.22
2.24 0.0099999998 0.23999999
2.24 0.0099999998 0.25999999
2.24 0.0099999998 0.28
2.24 0.0099999998 0.30000001
2.24 0.0099999998 0.31999999
2.24 0.0099999998 0.34
2.24 0.0099999998 0.36000001
2.24 0.0099999998 0.38
2.26 0.0099999998 0.22
2.26 0.0099999998 0.23999999
2.26 0.0099999998 0.25999999
2.26 0.0099999998 0.28
2.26 0.0099999998 0.30000001
2.26 0.0099999998 0.31999999
2.26 0.0099999998 0.34
2.26 0.0099999998 0.36000001
2.26 0.0099999998 0.38
2.28 0.0099999998 0.31999999
2.28 0.0099999998 0.34
2.28 0.0099999998 0.36000001
-9.2878105e-09 0.0099999998 -0.28
-1.123198e-08 0.0099999998 -0.25999999
-1.2876431e-08 0.0099999998 -0.24000001
-1.4200316000000001e-08 0.0099999998 -0.22
-1.5254004e-08 0.0099999998 -0.2
0.01999999 0.0099999998 -0.30000001
0.019999987 0.0099999998 -0.28
0.019999983 0.0099999998 -0.25999999
0.019999981 0.0099999998 -0.24000001
0.019999978999999998 0.0099999998 -0.22
0.019999977 0.0099999998 -0.2
0.039999984 0.0099999998 -0.30000001
0.03999998 0.0099999998 -0.28
0.039999973 0.0099999998 -0.26000002
0.039999968999999996 0.0099999998 -0.24000001
0.039999968999999996 0.0099999998 -0.22
0.039999966 0.0099999998 -0.2
0.059999976 0.0099999998 -0.30000001
0.05999996900000001 0.0099999998 -0.28
0.059999965 0.0099999998 -0.26000002
0.059999958 0.0099999998 -0.24000001
0.059999954 0.0099999998 -0.22000001
0.05999995 0.0099999998 -0.2
0.079999968 0.0099999998 -0.30000001
0.079999961 0.0099999998 -0.28
0.079999946 0.0099999998 -0.26000002
0.079999939 0.0099999998 -0.24000001
0.079999939 0.0099999998 -0.22000001
0.079999931 0.0099999998 -0.2
0.09999995699999999 0.0099999998 -0.30000001
0.099999942 0.0099999998 -0.28
0.09999992699999999 0.0099999998 -0.26000002
0.09999992 0.0099999998 -0.24000001
0.099999912 0.0099999998 -0.22000001
0.099999905 0.0099999998 -0.2
0.11999994 0.0099999998 -0.30000001
0.11999992 0.0099999998 -0.28000003
0.1199999 0.0099999998 -0.26000002
0.11999989 0.0099999998 -0.24000002
0.11999988 0.0099999998 -0.22000001
0.11999987 0.0099999998 -0.20000002
0.13999991 0.0099999998 -0.30000004
0.13999988 0.0099999998 -0.28000003
0.13999987 0.0099999998 -0.26000002
0.13999985 0.0099999998 -0.24000002
0.13999984 0.0099999998 -0.22000001
0.13999982 0.0099999998 -0.20000002
0.15999988 0.0099999998 -0.30000004
0.15999985 0.0099999998 -0.28000003
0.15999982 0.0099999998 -0.26000002
0.15999979 0.0099999998 -0.24000002
0.15999977 0.0099999998 -0.22000003
0.15999977 0.0099999998 -0.20000002
0.17999983 0.0099999998 -0.30000004
0.17999978 0.0099999998 -0.28000006
0.17999974 0.0099999998 -0.26000005
0.17999972 0.0099999998 -0.24000004
0.17999971 0.0099999998 -0.22000003
0.17999969 0.0099999998 -0.20000003
0.19999976 0.0099999998 -0.30000007
0.1999997 0.0099999998 -0.28000006
0.19999966 0.0099999998 -0.26000005
0.19999963 0.0099999998 -0.24000005
0.1999996 0.0099999998 -0.22000004
0.19999959 0.0099999998 -0.20000003
0.21999967 0.0099999998 -0.3000001
0.2199996 0.0099999998 -0.28000009
0.21999954 0.0099999998 -0.26000008
0.21999949 0.0099999998 -0.24000007
0.21999946 0.0099999998 -0.22000006
0.21999945 0.0099999998 -0.20000005
0.23999953 0.0099999998 -0.30000019
0.23999944 0.0099999998 -0.28000015
0.23999937 0.0099999998 -0.26000011
0.23999932 0.0099999998 -0.2400001
0.23999929 0.0099999998 -0.22000009
0.23999928 0.0099999998 -0.20000006
0.25999933 0.0099999998 -0.30000031
0.25999922 0.0099999998 -0.28000024
0.25999916 0.0099999998 -0.26000017
0.2599991 0.0099999998 -0.24000014
0.25999907 0.0099999998 -0.22000012
0.25999904 0.0099999998 -0.20000009
0.27999905 0.0099999998 -0.30000046
0.27999893 0.0099999998 -0.28000036
0.27999887 0.0099999998 -0.26000026
0.27999881 0.0099999998 -0.2400002
0.27999878 0.0099999998 -0.22000016
0.27999875 0.0099999998 -0.20000012
0.2999987 0.0099999998 -0.30000061
0.29999858 0.0099999998 -0.28000048
0.29999849 0.0099999998 -0.26000035
0.29999843 0.0099999998 -0.24000026
0.2999984 0.0099999998 -0.22000021
0.29999837 0.0099999998 -0.20000015
0.31999823 0.0099999998 -0.30000082
0.31999809 0.0099999998 -0.28000063
0.319998 0.0099999998 -0.26000047
0.31999794 0.0099999998 -0.24000035
0.31999791 0.0099999998 -0.22000027
0.31999788 0.0099999998 -0.2000002
0.33999765 0.0099999998 -0.30000106
0.3399975 0.0099999998 -0.28000084
0.33999738 0.0099999998 -0.26000062
0.33999729 0.0099999998 -0.24000046
0.33999726 0.0099999998 -0.22000034
0.33999723 0.0099999998 -0.20000026
0.35999691 0.0099999998 -0.30000135
0.35999671 0.0099999998 -0.28000107
0.35999659 0.0099999998 -0.2600008
0.3599965 0.0099999998 -0.24000058
0.35999644 0.0099999998 -0.22000043
0.35999644 0.0099999998 -0.20000032
0.37999597 0.0099999998 -0.30000174
0.3799957 0.0099999998 -0.28000134
0.37999555 0.0099999998 -0.260001
0.37999547 0.0099999998 -0.24000072
0.37999541 0.0099999998 -0.22000054
0.37999541 0.0099999998 -0.20000039
0.39999476 0.0099999998 -0.30000225
0.39999443 0.0099999998 -0.28000173
0.39999422 0.0099999998 -0.26000124
0.39999413 0.0099999998 -0.24000089
0.39999411 0.0099999998 -0.22000065
0.39999413 0.0099999998 -0.20000048
0.41999316 0.0099999998 -0.30000287
0.41999277 0.0099999998 -0.28000215
0.41999257 0.0099999998 -0.26000154
0.41999248 0.0099999998 -0.2400011
0.41999248 0.0099999998 -0.2200008
0.41999254 0.0099999998 -0.2000006
0.43999112 0.0099999998 -0.30000365
0.43999064 0.0099999998 -0.28000271
0.4399904 0.0099999998 -0.2600019
0.43999037 0.0099999998 -0.24000134
0.43999043 0.0099999998 -0.220001
0.43999058 0.0099999998 -0.20000076
0.45998847 0.0099999998 -0.3000046
0.45998794 0.0099999998 -0.28000334
0.4599877 0.0099999998 -0.26000232
0.4599877 0.0099999998 -0.24000165
0.45998788 0.0099999998 -0.22000125
0.45998812 0.0099999998 -0.200001
0.479985 0.0099999998 -0.30000582
0.47998443 0.0099999998 -0.28000414
0.47998425 0.0099999998 -0.26000282
0.4799844 0.0099999998 -0.24000208
0.4799847 0.0099999998 -0.22000164
0.47998509 0.0099999998 -0.20000137
0.49998042 0.0099999998 -0.30000737
0.49997994 0.0099999998 -0.2800051
0.49997997 0.0099999998 -0.26000351
0.49998033 0.0099999998 -0.24000271
0.49998081 0.0099999998 -0.22000225
0.49998134 0.0099999998 -0.20000196
0.51997441 0.0099999998 -0.30000934
0.51997435 0.0099999998 -0.28000638
0.51997471 0.0099999998 -0.26000449
0.51997536 0.0099999998 -0.24000369
0.51997608 0.0099999998 -0.22000322
0.51997679 0.0099999998 -0.20000288
0.53996676 0.0099999998 -0.30001202
0.53996742 0.0099999998 -0.2800082
0.53996849 0.0099999998 -0.26000607
0.53996962 0.0099999998 -0.24000525
0.53997058 0.0099999998 -0.22000475
0.53997147 0.0099999998 -0.20000425
0.55995721 0.0099999998 -0.30001581
0.55995935 0.0099999998 -0.28001103
0.55996144 0.0099999998 -0.2600086
0.55996305 0.0099999998 -0.24000765
0.55996436 0.0099999998 -0.22000693
0.55996543 0.0099999998 -0.20000616
0.57994622 0.0099999998 -0.30002147
0.57995045 0.0099999998 -0.28001574
0.57995373 0.0099999998 -0.26001257
0.57995594 0.0099999998 -0.24001098
0.57995749 0.0099999998 -0.22000979
0.5799588 0.0099999998 -0.20000853
0.59993482 0.0099999998 -0.30003035
0.59994125 0.0099999998 -0.28002349
0.5999456 0.0099999998 -0.2600185
0.59994847 0.0099999998 -0.24001551
0.59995037 0.0099999998 -0.22001323
0.59995204 0.0099999998 -0.20001137
0.61992455 0.0099999998 -0.30004439
0.61993253 0.0099999998 -0.28003642
0.61993754 0.0099999998 -0.26002824
0.6199407 0.0099999998 -0.24002182
0.61994338 0.0099999998 -0.22001775
0.61994553 0.0099999998 -0.20001481
0.63991719 0.0099999998 -0.30006543
0.63992602 0.0099999998 -0.28005731
0.6399312 0.0099999998 -0.26004541
0.63993436 0.0099999998 -0.24003291
0.63993704 0.0099999998 -0.22002429
0.63993961 0.0099999998 -0.20001915
0.65991414 0.0099999998 -0.30009091
0.65992302 0.0099999998 -0.28008437
0.65992796 0.0099999998 -0.26006925
0.65993029 0.0099999998 -0.24004897
0.65993273 0.0099999998 -0.22003406
0.65993536 0.0099999998 -0.20002519
0.67991853 0.0099999998 -0.30011371
0.67992485 0.0099999998 -0.28010914
0.67992884 0.0099999998 -0.26009223
0.67992997 0.0099999998 -0.24006543
0.67993182 0.0099999998 -0.22004442
0.67993426 0.0099999998 -0.20003177
0.69993365 0.0099999998 -0.30012935
0.6999343 0.0099999998 -0.28012598
0.69993615 0.0099999998 -0.26010862
0.69993651 0.0099999998 -0.24007805
0.69993764 0.0099999998 -0.22005309
0.69993967 0.0099999998 -0.20003779
0.71995324 0.0099999998 -0.30013865
0.71995217 0.0099999998 -0.28013477
0.71995187 0.0099999998 -0.26011723
0.71995223 0.0099999998 -0.24008502
0.71995342 0.0099999998 -0.2200584
0.71995515 0.0099999998 -0.20004189
0.73997104 0.0099999998 -0.30014396
0.73997015 0.0099999998 -0.28013921
0.73996979 0.0099999998 -0.26012096
0.73996997 0.0099999998 -0.24008819
0.7399708 0.0099999998 -0.22006117
0.73997194 0.0099999998 -0.2000443
0.75998503 0.0099999998 -0.30014688
0.75998443 0.0099999998 -0.28014135
0.75998414 0.0099999998 -0.26012257
0.75998414 0.0099999998 -0.24008968
0.75998455 0.0099999998 -0.22006264
0.75998521 0.0099999998 -0.20004573
0.77999538 0.0099999998 -0.30014831
0.77999508 0.0099999998 -0.28014228
0.7799949 0.0099999998 -0.2601231
0.77999485 0.0099999998 -0.24009018
0.7799949 0.0099999998 -0.22006324
0.77999508 0.0099999998 -0.20004639
0.80000359 0.0099999998 -0.3001487
0.80000353 0.0099999998 -0.28014243
0.80000341 0.0099999998 -0.26012298
0.80000329 0.0099999998 -0.24009004
0.80000311 0.0099999998 -0.22006319
0.80000299 0.0099999998 -0.20004643
0.82001102 0.0099999998 -0.30014822
0.8200112 0.0099999998 -0.28014195
0.8200112 0.0099999998 -0.26012242
0.82001102 0.0099999998 -0.24008943
0.82001066 0.0099999998 -0.22006266
0.82001019 0.0099999998 -0.200046
0.84001863 0.0099999998 -0.30014586
0.84001899 0.0099999998 -0.28013965
0.84001905 0.0099999998 -0.26012027
0.84001875 0.0099999998 -0.24008775
0.84001821 0.0099999998 -0.22006138
0.8400175 0.0099999998 -0.20004502
0.8600263 0.0099999998 -0.3001416
0.86002684 0.0099999998 -0.28013548
0.8600269 0.0099999998 -0.26011652
0.8600266 0.0099999998 -0.24008492
0.86002582 0.0099999998 -0.22005937
0.86002481 0.0099999998 -0.20004351
0.88003361 0.0099999998 -0.30013558
0.88003427 0.0099999998 -0.28012952
0.88003439 0.0099999998 -0.26011124
0.88003397 0.0099999998 -0.24008103
0.88003302 0.0099999998 -0.22005662
0.88003176 0.0099999998 -0.20004152
0.90004003 0.0099999998 -0.30012807
0.90004069 0.0099999998 -0.28012207
0.90004075 0.0099999998 -0.2601046
0.90004039 0.0099999998 -0.24007617
0.90003926 0.0099999998 -0.22005326
0.90003777 0.0099999998 -0.20003907
0.92004502 0.0099999998 -0.30011943
0.92004538 0.0099999998 -0.28011343
0.92004561 0.0099999998 -0.26009691
0.92004526 0.0099999998 -0.24007055
0.92004395 0.0099999998 -0.22004937
0.9200421 0.0099999998 -0.20003629
0.94004828 0.0099999998 -0.30011007
0.94004846 0.0099999998 -0.28010404
0.94004881 0.0099999998 -0.26008856
0.9400484 0.0099999998 -0.24006441
0.94004637 0.0099999998 -0.22004515
0.94004369 0.0099999998 -0.20003331
0.9600504 0.0099999998 -0.30010036
0.96005052 0.0099999998 -0.28009444
0.96005052 0.0099999998 -0.26007998
0.96004945 0.0099999998 -0.24005803
0.96004665 0.0099999998 -0.22004075
0.96004361 0.0099999998 -0.20003022
0.98005229 0.0099999998 -0.30009067
0.98005193 0.0099999998 -0.28008494
0.98005128 0.0099999998 -0.26007152
0.98004931 0.0099999998 -0.2400517
0.98004597 0.0099999998 -0.2200364
0.98004276 0.0099999998 -0.20002717
1.0000547 0.0099999998 -0.30008122
1.0000535 0.0099999998 -0.28007573
1.0000516 0.0099999998 -0.26006344
1.0000489 0.0099999998 -0.24004577
1.0000449 0.0099999998 -0.22003229
1.0000414 0.0099999998 -0.20002426
1.0200584000000001 0.0099999998 -0.30007231
1.0200558000000002 0.0099999998 -0.28006709
1.0200523000000001 0.0099999998 -0.26005614
1.0200483 0.0099999998 -0.24004063
1.0200436 0.0099999998 -0.22002876
1.0200399 0.0099999998 -0.20002171
1.0400642 0.0099999998 -0.30006447
1.0400593 0.0099999998 -0.28005949
1.0400536 0.0099999998 -0.26004997
1.0400478000000002 0.0099999998 -0.24003656
1.0400423 0.0099999998 -0.220026
1.0400383 0.0099999998 -0.20001948
1.0600708 0.0099999998 -0.30005786
1.0600631999999999 0.0099999998 -0.28005329
1.0600551 0.0099999998 -0.26004526
1.0600473999999998 0.0099999998 -0.24003373
1.0600412000000001 0.0099999998 -0.22002402
1.0600368 0.0099999998 -0.20001769
1.0800755 0.0099999998 -0.30005243
1.0800661 0.0099999998 -0.28004852
1.0800565 0.0099999998 -0.26004189
1.0800471999999999 0.0099999998 -0.24003208
1.0800403 0.0099999998 -0.22002287
1.0800353999999999 0.0099999998 -0.20001647
1.100067 0.0099999998 -0.28004459
1.1000573999999999 0.0099999998 -0.26003933
1.1000476000000001 0.0099999998 -0.24003123
1.10004 0.0099999998 -0.22002251
1.1000344 0.0099999998 -0.20001586
1.1200665 0.0099999998 -0.28004113
1.1200576999999998 0.0099999998 -0.26003712
1.1200484 0.0099999998 -0.24003071
1.1200401000000002 0.0099999998 -0.22002277
1.1200339 0.0099999998 -0.20001586
1.1400576999999998 0.0099999998 -0.26003519
1.1400495000000002 0.0099999998 -0.24003029
1.140041 0.0099999998 -0.2200235
1.140034 0.0099999998 -0.20001654
1.1600571000000002 0.0099999998 -0.2600334
1.1600503999999998 0.0099999998 -0.24002987
1.1600428 0.0099999998 -0.22002444
1.1600353 0.0099999998 -0.20001796
1.1800507 0.0099999998 -0.24002936
1.1800445 0.0099999998 -0.22002529
1.1800376000000001 0.0099999998 -0.20001973
1.2000457 0.0099999998 -0.2200257
1.2000403 0.0099999998 -0.20002128
1.2200456 0.0099999998 -0.22002552
1.2200422 0.0099999998 -0.20002227
-1.6072326e-08 0.0099999998 -0.18000001
-1.6700019e-08 0.0099999998 -0.16
-1.7172143e-08 0.0099999998 -0.14
-1.7527512e-08 0.0099999998 -0.12
-1.7791728999999998e-08 0.0099999998 -0.1
-1.7984251e-08 0.0099999998 -0.079999998
-1.8119859e-08 0.0099999998 -0.059999999000000005
-1.8209086e-08 0.0099999998 -0.039999999
-1.8259563000000002e-08 0.0099999998 -0.02
0.019999975 0.0099999998 -0.18000001
0.019999975 0.0099999998 -0.16
0.019999973 0.0099999998 -0.14
0.019999973 0.0099999998 -0.12
0.019999973 0.0099999998 -0.1
0.019999973 0.0099999998 -0.079999998
0.019999973 0.0099999998 -0.060000002000000004
0.019999973 0.0099999998 -0.039999999
0.019999973 0.0099999998 -0.02
0.039999966 0.0099999998 -0.18000001
0.039999962 0.0099999998 -0.16
0.039999962 0.0099999998 -0.14
0.039999962 0.0099999998 -0.12
0.039999962 0.0099999998 -0.1
0.039999962 0.0099999998 -0.079999998
0.039999962 0.0099999998 -0.060000002000000004
0.039999962 0.0099999998 -0.039999999
0.039999957999999995 0.0099999998 -0.02
0.05999995 0.0099999998 -0.18000001
0.059999947000000005 0.0099999998 -0.16000001
0.059999947000000005 0.0099999998 -0.14
0.059999947000000005 0.0099999998 -0.12
0.059999943 0.0099999998 -0.1
0.059999943 0.0099999998 -0.079999998
0.059999943 0.0099999998 -0.060000002000000004
0.059999943 0.0099999998 -0.039999999
0.059999943 0.0099999998 -0.02
0.079999931 0.0099999998 -0.18000001
0.079999924 0.0099999998 -0.16000001
0.079999924 0.0099999998 -0.14
0.079999924 0.0099999998 -0.12
0.079999924 0.0099999998 -0.1
0.079999924 0.0099999998 -0.080000006
0.079999924 0.0099999998 -0.060000002000000004
0.079999924 0.0099999998 -0.040000003
0.079999924 0.0099999998 -0.020000001
0.099999905 0.0099999998 -0.18000001
0.09999989699999999 0.0099999998 -0.16000001
0.09999989699999999 0.0099999998 -0.14
0.09999989699999999 0.0099999998 -0.12
0.09999989699999999 0.0099999998 -0.1
0.09999989699999999 0.0099999998 -0.080000006
0.09999989699999999 0.0099999998 -0.060000002000000004
0.09999989699999999 0.0099999998 -0.040000003
0.09999989699999999 0.0099999998 -0.020000001
0.11999987 0.0099999998 -0.18000001
0.11999986 0.0099999998 -0.16000001
0.11999986 0.0099999998 -0.14
0.11999986 0.0099999998 -0.12
0.11999986 0.0099999998 -0.1
0.11999986 0.0099999998 -0.080000006
0.11999986 0.0099999998 -0.060000002000000004
0.11999986 0.0099999998 -0.040000003
0.11999986 0.0099999998 -0.020000001
0.13999982 0.0099999998 -0.18000002
0.13999982 0.0099999998 -0.16000001
0.13999982 0.0099999998 -0.14000002
0.13999981 0.0099999998 -0.12
0.13999981 0.0099999998 -0.10000001
0.13999981 0.0099999998 -0.080000006
0.13999981 0.0099999998 -0.060000002000000004
0.13999981 0.0099999998 -0.040000003
0.13999981 0.0099999998 -0.020000001
0.15999976 0.0099999998 -0.18000002
0.15999976 0.0099999998 -0.16000001
0.15999976 0.0099999998 -0.14000002
0.15999976 0.0099999998 -0.12000001
0.15999974 0.0099999998 -0.10000001
0.15999974 0.0099999998 -0.080000006
0.15999974 0.0099999998 -0.060000002000000004
0.15999974 0.0099999998 -0.040000003
0.15999974 0.0099999998 -0.020000001
0.17999968 0.0099999998 -0.18000002
0.17999968 0.0099999998 -0.16000003
0.17999966 0.0099999998 -0.14000002
0.17999966 0.0099999998 -0.12000001
0.17999966 0.0099999998 -0.10000001
0.17999966 0.0099999998 -0.080000006
0.17999966 0.0099999998 -0.060000005999999995
0.17999966 0.0099999998 -0.040000003
0.17999966 0.0099999998 -0.020000001
0.19999957 0.0099999998 -0.18000004
0.19999957 0.0099999998 -0.16000003
0.19999957 0.0099999998 -0.14000002
0.19999957 0.0099999998 -0.12000002
0.19999956 0.0099999998 -0.10000002
0.19999956 0.0099999998 -0.080000006
0.19999956 0.0099999998 -0.060000005999999995
0.19999956 0.0099999998 -0.040000003
0.19999956 0.0099999998 -0.020000001
0.21999943 0.0099999998 -0.18000004
0.21999943 0.0099999998 -0.16000004
0.21999943 0.0099999998 -0.14000003
0.21999943 0.0099999998 -0.12000002
0.21999943 0.0099999998 -0.10000002
0.21999943 0.0099999998 -0.080000013
0.21999943 0.0099999998 -0.06000001
0.21999943 0.0099999998 -0.040000007000000004
0.21999943 0.0099999998 -0.020000003
0.23999926 0.0099999998 -0.18000005
0.23999925 0.0099999998 -0.16000004
0.23999925 0.0099999998 -0.14000003
0.23999925 0.0099999998 -0.12000003
0.23999925 0.0099999998 -0.10000002
0.23999925 0.0099999998 -0.080000013
0.23999925 0.0099999998 -0.06000001
0.23999925 0.0099999998 -0.040000007000000004
0.23999925 0.0099999998 -0.020000003
0.25999904 0.0099999998 -0.18000007
0.25999904 0.0099999998 -0.16000006
0.25999904 0.0099999998 -0.14000005
0.25999904 0.0099999998 -0.12000003
0.25999904 0.0099999998 -0.10000002
0.25999904 0.0099999998 -0.08000002099999999
0.25999904 0.0099999998 -0.060000014000000004
0.25999904 0.0099999998 -0.040000007000000004
0.25999904 0.0099999998 -0.020000003
0.27999875 0.0099999998 -0.1800001
0.27999872 0.0099999998 -0.16000007
0.27999872 0.0099999998 -0.14000006
0.27999872 0.0099999998 -0.12000004
0.27999875 0.0099999998 -0.10000003
0.27999875 0.0099999998 -0.08000002099999999
0.27999875 0.0099999998 -0.060000014000000004
0.27999875 0.0099999998 -0.04000001
0.27999875 0.0099999998 -0.020000005
0.29999834 0.0099999998 -0.18000013
0.29999834 0.0099999998 -0.16000009
0.29999834 0.0099999998 -0.14000008
0.29999837 0.0099999998 -0.12000005
0.29999837 0.0099999998 -0.10000004
0.29999837 0.0099999998 -0.080000028
0.29999837 0.0099999998 -0.060000017
0.29999837 0.0099999998 -0.04000001
0.29999837 0.0099999998 -0.020000005
0.31999788 0.0099999998 -0.18000016
0.31999788 0.0099999998 -0.16000012
0.31999788 0.0099999998 -0.14000009
0.31999788 0.0099999998 -0.12000006
0.31999791 0.0099999998 -0.10000005
0.31999791 0.0099999998 -0.080000035
0.31999791 0.0099999998 -0.060000020999999994
0.31999794 0.0099999998 -0.040000014
0.31999794 0.0099999998 -0.020000007
0.33999723 0.0099999998 -0.18000019
0.33999726 0.0099999998 -0.16000015
0.33999726 0.0099999998 -0.1400001
0.33999729 0.0099999998 -0.12000008
0.33999732 0.0099999998 -0.10000005
0.33999732 0.0099999998 -0.08000004299999999
0.33999735 0.0099999998 -0.060000028
0.33999735 0.0099999998 -0.040000018
0.33999735 0.0099999998 -0.020000009
0.35999644 0.0099999998 -0.18000023
0.35999647 0.0099999998 -0.16000018
0.3599965 0.0099999998 -0.14000012
0.35999656 0.0099999998 -0.12000009
0.35999656 0.0099999998 -0.10000007
0.35999659 0.0099999998 -0.08000005
0.35999662 0.0099999998 -0.060000036
0.35999662 0.0099999998 -0.040000021000000004
0.35999665 0.0099999998 -0.020000011
0.37999547 0.0099999998 -0.18000029
0.3799955 0.0099999998 -0.16000022
0.37999555 0.0099999998 -0.14000016
0.37999561 0.0099999998 -0.12000012
0.37999564 0.0099999998 -0.10000009
0.37999567 0.0099999998 -0.080000065
0.3799957 0.0099999998 -0.060000047
0.3799957 0.0099999998 -0.040000033
0.37999573 0.0099999998 -0.020000016000000002
0.39999419 0.0099999998 -0.18000036
0.39999428 0.0099999998 -0.16000026
0.39999437 0.0099999998 -0.14000021
0.39999443 0.0099999998 -0.12000016
0.39999449 0.0099999998 -0.10000012
0.39999455 0.0099999998 -0.080000095
0.39999458 0.0099999998 -0.060000069
0.39999458 0.0099999998 -0.040000044
0.39999461 0.0099999998 -0.020000022
0.41999266 0.0099999998 -0.18000045
0.41999277 0.0099999998 -0.16000035
0.41999289 0.0099999998 -0.14000027
0.41999298 0.0099999998 -0.12000022
0.41999307 0.0099999998 -0.10000017
0.41999313 0.0099999998 -0.08000014
0.41999319 0.0099999998 -0.060000103
0.41999319 0.0099999998 -0.040000066
0.41999322 0.0099999998 -0.020000033
0.43999076 0.0099999998 -0.18000059
0.43999094 0.0099999998 -0.16000047
0.43999109 0.0099999998 -0.14000039
0.43999124 0.0099999998 -0.12000032
0.43999133 0.0099999998 -0.10000025
0.43999141 0.0099999998 -0.08000019900000001
0.43999147 0.0099999998 -0.060000150999999995
0.4399915 0.0099999998 -0.0400001
0.43999153 0.0099999998 -0.020000052
0.45998839 0.0099999998 -0.18000081
0.45998865 0.0099999998 -0.16000068
0.45998886 0.0099999998 -0.14000057
0.45998904 0.0099999998 -0.12000047
0.45998919 0.0099999998 -0.10000038
0.45998928 0.0099999998 -0.08000030400000001
0.45998937 0.0099999998 -0.060000226
0.4599894 0.0099999998 -0.040000152000000004
0.45998943 0.0099999998 -0.020000076000000002
0.47998545 0.0099999998 -0.18000115
0.4799858 0.0099999998 -0.16000099
0.47998613 0.0099999998 -0.14000084
0.47998637 0.0099999998 -0.1200007
0.47998655 0.0099999998 -0.10000057
0.47998667 0.0099999998 -0.080000453
0.47998676 0.0099999998 -0.060000338
0.47998679 0.0099999998 -0.040000223
0.47998682 0.0099999998 -0.020000113
0.49998185 0.0099999998 -0.18000171
0.49998233 0.0099999998 -0.16000147
0.49998271 0.0099999998 -0.14000125
0.49998301 0.0099999998 -0.12000103
0.49998325 0.0099999998 -0.10000084
0.4999834 0.0099999998 -0.080000661
0.49998352 0.0099999998 -0.060000487000000005
0.49998358 0.0099999998 -0.040000323
0.49998361 0.0099999998 -0.020000162
0.51997745 0.0099999998 -0.18000253
0.51997805 0.0099999998 -0.16000217
0.51997858 0.0099999998 -0.14000183
0.51997894 0.0099999998 -0.12000151
0.51997924 0.0099999998 -0.10000122
0.51997942 0.0099999998 -0.08000093700000001
0.51997954 0.0099999998 -0.060000687999999996
0.5199796 0.0099999998 -0.040000454
0.51997966 0.0099999998 -0.020000225
0.53997231 0.0099999998 -0.18000372
0.53997302 0.0099999998 -0.16000319
0.53997362 0.0099999998 -0.14000265
0.53997409 0.0099999998 -0.12000215
0.53997445 0.0099999998 -0.1000017
0.53997469 0.0099999998 -0.080001302
0.53997481 0.0099999998 -0.060000949000000005
0.53997493 0.0099999998 -0.040000617999999995
0.53997493 0.0099999998 -0.020000305
0.55996639 0.0099999998 -0.18000533
0.55996722 0.0099999998 -0.16000451
0.55996799 0.0099999998 -0.14000373
0.55996859 0.0099999998 -0.12000299
0.55996901 0.0099999998 -0.10000233
0.55996931 0.0099999998 -0.080001764
0.55996943 0.0099999998 -0.060001262
0.55996954 0.0099999998 -0.040000815
0.5599696 0.0099999998 -0.0200004
0.57995999 0.0099999998 -0.18000735
0.57996106 0.0099999998 -0.16000617
0.57996196 0.0099999998 -0.14000505
0.57996267 0.0099999998 -0.12000401
0.57996315 0.0099999998 -0.10000309
0.57996351 0.0099999998 -0.0800023
0.57996368 0.0099999998 -0.06000163
0.5799638 0.0099999998 -0.040001037999999996
0.57996386 0.0099999998 -0.020000506
0.59995353 0.0099999998 -0.18000968
0.59995484 0.0099999998 -0.16000809
0.59995592 0.0099999998 -0.14000657
0.59995681 0.0099999998 -0.12000516
0.59995741 0.0099999998 -0.10000393
0.59995782 0.0099999998 -0.08000288900000001
0.59995806 0.0099999998 -0.060002018
0.59995818 0.0099999998 -0.040001273
0.59995824 0.0099999998 -0.020000618
0.61994731 0.0099999998 -0.18001243
0.61994898 0.0099999998 -0.16001035
0.61995029 0.0099999998 -0.14000833
0.61995131 0.0099999998 -0.12000643
0.61995208 0.0099999998 -0.10000479
0.61995256 0.0099999998 -0.08000344
0.61995286 0.0099999998 -0.06000236
0.61995304 0.0099999998 -0.040001478
0.6199531 0.0099999998 -0.020000711
0.63994193 0.0099999998 -0.18001576
0.63994378 0.0099999998 -0.16001295
0.63994533 0.0099999998 -0.14001031
0.63994646 0.0099999998 -0.12000785
0.63994735 0.0099999998 -0.10000572
0.63994795 0.0099999998 -0.080004007
0.63994837 0.0099999998 -0.060002680999999995
0.63994861 0.0099999998 -0.040001646
0.63994873 0.0099999998 -0.020000784
0.65993786 0.0099999998 -0.18001989
0.65993989 0.0099999998 -0.16001612
0.65994155 0.0099999998 -0.14001273
0.65994281 0.0099999998 -0.12000956
0.65994382 0.0099999998 -0.10000686
0.65994453 0.0099999998 -0.080004722
0.65994501 0.0099999998 -0.060003098
0.65994537 0.0099999998 -0.040001869
0.65994555 0.0099999998 -0.020000879
0.67993683 0.0099999998 -0.18002458
0.67993897 0.0099999998 -0.16001973
0.67994064 0.0099999998 -0.14001545
0.67994195 0.0099999998 -0.12001149
0.67994297 0.0099999998 -0.10000811
0.67994368 0.0099999998 -0.08000547400000001
0.67994422 0.0099999998 -0.060003522999999996
0.67994452 0.0099999998 -0.040002089
0.67994469 0.0099999998 -0.020000976
0.69994187 0.0099999998 -0.18002898
0.69994378 0.0099999998 -0.16002317
0.69994539 0.0099999998 -0.14001808
0.69994658 0.0099999998 -0.1200133
0.69994748 0.0099999998 -0.10000924
0.69994813 0.0099999998 -0.080006085
0.69994855 0.0099999998 -0.06000380599999999
0.69994879 0.0099999998 -0.040002197
0.69994891 0.0099999998 -0.020001005
0.71995693 0.0099999998 -0.18003225
0.7199586 0.0099999998 -0.16002582
0.71995997 0.0099999998 -0.14002013
0.71996099 0.0099999998 -0.12001479
0.71996176 0.0099999998 -0.10001025
0.71996224 0.0099999998 -0.080006726
0.71996254 0.0099999998 -0.060004182
0.71996278 0.0099999998 -0.040002402
0.71996284 0.0099999998 -0.020001093
0.73997319 0.0099999998 -0.18003434
0.73997432 0.0099999998 -0.16002759
0.73997527 0.0099999998 -0.14002156
0.73997605 0.0099999998 -0.12001586
0.73997658 0.0099999998 -0.100011
0.73997694 0.0099999998 -0.080007225
0.73997718 0.0099999998 -0.060004495
0.73997736 0.0099999998 -0.040002581
0.73997742 0.0099999998 -0.020001177
0.75998592 0.0099999998 -0.18003567
0.75998658 0.0099999998 -0.16002876
0.75998718 0.0099999998 -0.1400225
0.75998765 0.0099999998 -0.12001658
0.75998801 0.0099999998 -0.10001151
0.75998825 0.0099999998 -0.08000756099999999
0.75998837 0.0099999998 -0.060004710999999995
0.75998849 0.0099999998 -0.040002711
0.75998855 0.0099999998 -0.020001234
0.77999538 0.0099999998 -0.18003632
0.77999562 0.0099999998 -0.16002937
0.77999592 0.0099999998 -0.14002302
0.7799961 0.0099999998 -0.12001698
0.77999628 0.0099999998 -0.1000118
0.7799964 0.0099999998 -0.080007754
0.77999645 0.0099999998 -0.06000483400000001
0.77999651 0.0099999998 -0.040002782
0.77999651 0.0099999998 -0.02000127
0.80000287 0.0099999998 -0.18003644
0.80000281 0.0099999998 -0.16002952
0.80000275 0.0099999998 -0.14002316
0.80000269 0.0099999998 -0.12001709
0.80000269 0.0099999998 -0.10001188
0.80000269 0.0099999998 -0.08000781400000001
0.80000269 0.0099999998 -0.060004875
0.80000269 0.0099999998 -0.040002808
0.80000269 0.0099999998 -0.020001283
0.82000977 0.0099999998 -0.1800361
0.82000935 0.0099999998 -0.16002925
0.82000905 0.0099999998 -0.14002296
0.82000881 0.0099999998 -0.12001694
0.82000864 0.0099999998 -0.10001177
0.82000858 0.0099999998 -0.080007747
0.82000846 0.0099999998 -0.06000483400000001
0.82000846 0.0099999998 -0.040002789
0.8200084 0.0099999998 -0.020001274
0.84001672 0.0099999998 -0.18003532
0.84001607 0.0099999998 -0.16002862
0.84001553 0.0099999998 -0.14002247
0.84001511 0.0099999998 -0.12001657
0.84001482 0.0099999998 -0.10001152
0.84001458 0.0099999998 -0.080007575
0.84001446 0.0099999998 -0.060004734000000004
0.8400144 0.0099999998 -0.04000273
0.84001434 0.0099999998 -0.020001248
0.8600238 0.0099999998 -0.18003413
0.86002284 0.0099999998 -0.16002765
0.86002207 0.0099999998 -0.14002171
0.86002153 0.0099999998 -0.12001601
0.86002111 0.0099999998 -0.10001113
0.86002082 0.0099999998 -0.080007315
0.86002064 0.0099999998 -0.06000457
0.86002052 0.0099999998 -0.040002637
0.86002046 0.0099999998 -0.020001205
0.88003045 0.0099999998 -0.18003257
0.88002926 0.0099999998 -0.1600264
0.88002831 0.0099999998 -0.14002071
0.88002759 0.0099999998 -0.12001527
0.88002706 0.0099999998 -0.10001061
0.8800267 0.0099999998 -0.080006972
0.88002646 0.0099999998 -0.060004354
0.88002634 0.0099999998 -0.04000251
0.88002628 0.0099999998 -0.020001147
0.90003622 0.0099999998 -0.18003069
0.90003479 0.0099999998 -0.16002487
0.90003365 0.0099999998 -0.14001952
0.90003282 0.0099999998 -0.12001439
0.90003216 0.0099999998 -0.10000999
0.90003175 0.0099999998 -0.080006562
0.90003151 0.0099999998 -0.06000409599999999
0.90003133 0.0099999998 -0.040002361
0.90003121 0.0099999998 -0.020001078000000002
0.92004013 0.0099999998 -0.18002854
0.92003834 0.0099999998 -0.16002317
0.92003697 0.0099999998 -0.14001819
0.9200359 0.0099999998 -0.12001342
0.92003512 0.0099999998 -0.10000934
0.92003453 0.0099999998 -0.080006167
0.92003411 0.0099999998 -0.060003877000000004
0.92003387 0.0099999998 -0.040002253
0.92003369 0.0099999998 -0.020001037
0.94004124 0.0099999998 -0.18002631
0.94003922 0.0099999998 -0.16002138
0.94003767 0.0099999998 -0.14001681
0.94003648 0.0099999998 -0.12001243
0.94003558 0.0099999998 -0.1000087
0.94003487 0.0099999998 -0.080005795
0.94003445 0.0099999998 -0.060003687
0.94003415 0.0099999998 -0.040002175
0.94003397 0.0099999998 -0.020001011000000003
0.96004099 0.0099999998 -0.180024
0.96003884 0.0099999998 -0.16001955
0.96003723 0.0099999998 -0.14001538
0.96003598 0.0099999998 -0.1200114
0.96003503 0.0099999998 -0.10000801
0.96003437 0.0099999998 -0.08000537
0.96003389 0.0099999998 -0.060003445
0.9600336 0.0099999998 -0.040002044
0.96003342 0.0099999998 -0.020000955
0.98004001 0.0099999998 -0.18002169
0.98003787 0.0099999998 -0.1600177
0.9800362 0.0099999998 -0.14001393
0.98003495 0.0099999998 -0.12001037
0.98003405 0.0099999998 -0.10000733
0.9800334 0.0099999998 -0.080004945
0.98003298 0.0099999998 -0.06000319900000001
0.98003274 0.0099999998 -0.040001918
0.98003256 0.0099999998 -0.020000903
1.0000386 0.0099999998 -0.18001948
1.0000366 0.0099999998 -0.16001594
1.0000349 0.0099999998 -0.14001259
1.0000337 0.0099999998 -0.12000941
1.0000328 0.0099999998 -0.10000669
1.0000322 0.0099999998 -0.080004573
1.0000318000000001 0.0099999998 -0.06000300099999999
1.0000315999999998 0.0099999998 -0.040001821
1.0000315 0.0099999998 -0.02000086
1.0200372 0.0099999998 -0.18001743
1.0200351 0.0099999998 -0.1600143
1.0200334999999998 0.0099999998 -0.14001133
1.0200323 0.0099999998 -0.12000853
1.0200313 0.0099999998 -0.10000613
1.0200309 0.0099999998 -0.080004252
1.0200305 0.0099999998 -0.06000283
1.0200303 0.0099999998 -0.040001728
1.0200301 0.0099999998 -0.020000819
1.0400356 0.0099999998 -0.18001562
1.0400334999999998 0.0099999998 -0.16001277
1.0400318000000002 0.0099999998 -0.14001018
1.0400306000000001 0.0099999998 -0.12000773
1.0400298000000001 0.0099999998 -0.10000563
1.0400292 0.0099999998 -0.080003962
1.0400288 0.0099999998 -0.060002665999999996
1.0400287 0.0099999998 -0.040001638
1.0400286 0.0099999998 -0.020000778
1.0600338 0.0099999998 -0.18001406
1.0600317 0.0099999998 -0.16001138
1.06003 0.0099999998 -0.14000912
1.0600288 0.0099999998 -0.12000701
1.060028 0.0099999998 -0.10000519
1.0600273999999998 0.0099999998 -0.080003701
1.0600271 0.0099999998 -0.06000251
1.0600268999999998 0.0099999998 -0.040001549
1.0600268 0.0099999998 -0.020000739
1.0800321000000002 0.0099999998 -0.1800127
1.0800298000000002 0.0099999998 -0.1600102
1.0800281999999999 0.0099999998 -0.14000812
1.080027 0.0099999998 -0.12000635
1.0800261 0.0099999998 -0.10000477
1.0800256000000001 0.0099999998 -0.080003448
1.0800252000000001 0.0099999998 -0.060002368
1.0800251 0.0099999998 -0.040001471000000004
1.080025 0.0099999998 -0.020000705
1.1000306999999998 0.0099999998 -0.1800117
1.1000282 0.0099999998 -0.1600091
1.1000265 0.0099999998 -0.14000723
1.1000252000000001 0.0099999998 -0.12000568
1.1000243 0.0099999998 -0.10000436
1.1000237 0.0099999998 -0.080003209
1.1000233999999998 0.0099999998 -0.060002234
1.1000233 0.0099999998 -0.0400014
1.1000232 0.0099999998 -0.020000674
1.1200296 0.0099999998 -0.18001117
1.1200268 0.0099999998 -0.16000827
1.1200249 0.0099999998 -0.14000639
1.1200236000000001 0.0099999998 -0.12000506
1.1200228 0.0099999998 -0.10000393
1.1200222 0.0099999998 -0.08000296400000001
1.1200217 0.0099999998 -0.060002092
1.1200215 0.0099999998 -0.040001333
1.1200212999999999 0.0099999998 -0.020000646
1.1400290000000002 0.0099999998 -0.18001126
1.1400257 0.0099999998 -0.16000785
1.1400236000000001 0.0099999998 -0.14000577
1.1400223 0.0099999998 -0.12000445
1.1400213 0.0099999998 -0.10000349
1.1400207 0.0099999998 -0.080002651
1.1400203000000002 0.0099999998 -0.060001917
1.14002 0.0099999998 -0.040001236
1.1400199 0.0099999998 -0.020000607
1.1600293 0.0099999998 -0.18001215
1.1600253999999999 0.0099999998 -0.16000807
1.1600229 0.0099999998 -0.14000554
1.1600211999999999 0.0099999998 -0.12000401
1.1600201 0.0099999998 -0.10000303
1.1600194 0.0099999998 -0.080002315
1.1600188999999999 0.0099999998 -0.060001671
1.1600187 0.0099999998 -0.040001094
1.1600186000000001 0.0099999998 -0.020000538
1.1800311 0.0099999998 -0.18001401
1.1800258999999997 0.0099999998 -0.16000929
1.1800226 0.0099999998 -0.14000604
1.1800206 0.0099999998 -0.12000403
1.1800193 0.0099999998 -0.10000281
1.1800184 0.0099999998 -0.08000201
1.1800178 0.0099999998 -0.060001418
1.1800176000000002 0.0099999998 -0.040000918999999996
1.1800173999999999 0.0099999998 -0.020000445
1.2000345 0.0099999998 -0.18001623
1.2000287 0.0099999998 -0.16001157
1.2000239 0.0099999998 -0.14000773
1.2000208 0.0099999998 -0.12000493
1.2000188999999999 0.0099999998 -0.10000316
1.2000178 0.0099999998 -0.080002062
1.2000171 0.0099999998 -0.060001325
1.2000166 0.0099999998 -0.0400008
1.2000165 0.0099999998 -0.020000376
1.2200379 0.0099999998 -0.1800182
1.220033 0.0099999998 -0.16001396
1.2200278 0.0099999998 -0.14001019
1.2200233 0.0099999998 -0.12000711
1.2200201000000002 0.0099999998 -0.10000462
1.2200181 0.0099999998 -0.08000285900000001
1.220017 0.0099999998 -0.06000169
1.2200163999999998 0.0099999998 -0.040000934
1.2200161 0.0099999998 -0.020000415
1.2400392 0.0099999998 -0.18001966
1.2400361999999998 0.0099999998 -0.16001607
1.2400328 0.0099999998 -0.1400125
1.2400287 0.0099999998 -0.12000938
1.2400248 0.0099999998 -0.10000678
1.2400215 0.0099999998 -0.080004632
1.2400193000000002 0.0099999998 -0.060002901
1.2400178999999998 0.0099999998 -0.040001616000000004
1.2400173 0.0099999998 -0.020000709
1.2600366000000003 0.0099999998 -0.16001765
1.260035 0.0099999998 -0.14001463
1.260033 0.0099999998 -0.12001161
1.2600305 0.0099999998 -0.10000879
1.2600280000000001 0.0099999998 -0.080006227
1.2600258999999998 0.0099999998 -0.060004022000000004
1.2600243999999998 0.0099999998 -0.040002301000000004
1.2600236 0.0099999998 -0.020001028
1.2800336 0.0099999998 -0.12001372
1.280033 0.0099999998 -0.1000109
1.2800322 0.0099999998 -0.080007978
1.2800313 0.0099999998 -0.060005199
1.2800307 0.0099999998 -0.040002972000000005
1.2800303999999998 0.0099999998 -0.02000132
1.3000318000000002 0.0099999998 -0.08000977299999999
1.300032 0.0099999998 -0.06000641
1.3000321000000001 0.0099999998 -0.04000365
1.3000323 0.0099999998 -0.020001611000000002
-1.8275978e-08 0.0099999998 -1.1676729e-16
-1.8259563000000002e-08 0.0099999998 0.02
-1.8209095e-08 0.0099999998 0.039999999
-1.8119861e-08 0.0099999998 0.059999999000000005
-1.7984247e-08 0.0099999998 0.079999998
-1.7791722e-08 0.0099999998 0.1
-1.7527514e-08 0.0099999998 0.12
-1.717215e-08 0.0099999998 0.14
0.019999973 0.0099999998 1.1134349e-15
0.019999973 0.0099999998 0.02
0.019999973 0.0099999998 0.039999999
0.019999973 0.0099999998 0.060000002000000004
0.019999973 0.0099999998 0.079999998
0.019999973 0.0099999998 0.1
0.019999973 0.0099999998 0.12
0.019999973 0.0099999998 0.14
0.039999957999999995 0.0099999998 -5.0749476e-16
0.039999957999999995 0.0099999998 0.02
0.039999962 0.0099999998 0.039999999
0.039999962 0.0099999998 0.060000002000000004
0.039999962 0.0099999998 0.079999998
0.039999962 0.0099999998 0.1
0.039999962 0.0099999998 0.12
0.039999962 0.0099999998 0.14
0.059999943 0.0099999998 6.612946099999999e-16
0.059999943 0.0099999998 0.02
0.059999943 0.0099999998 0.039999999
0.059999943 0.0099999998 0.060000002000000004
0.059999943 0.0099999998 0.079999998
0.059999943 0.0099999998 0.1
0.059999947000000005 0.0099999998 0.12
0.059999947000000005 0.0099999998 0.14
0.079999924 0.0099999998 -2.0331858999999998e-15
0.079999924 0.0099999998 0.020000001
0.079999924 0.0099999998 0.040000003
0.079999924 0.0099999998 0.060000002000000004
0.079999924 0.0099999998 0.080000006
0.079999924 0.0099999998 0.1
0.079999924 0.0099999998 0.12
0.079999924 0.0099999998 0.14
0.09999989699999999 0.0099999998 -1.2021316e-15
0.09999989699999999 0.0099999998 0.020000001
0.09999989699999999 0.0099999998 0.040000003
0.09999989699999999 0.0099999998 0.060000002000000004
0.09999989699999999 0.0099999998 0.080000006
0.09999989699999999 0.0099999998 0.1
0.09999989699999999 0.0099999998 0.12
0.09999989699999999 0.0099999998 0.14
0.11999986 0.0099999998 2.9020458000000003e-15
0.11999986 0.0099999998 0.020000001
0.11999986 0.0099999998 0.040000003
0.11999986 0.0099999998 0.060000002000000004
0.11999986 0.0099999998 0.080000006
0.11999986 0.0099999998 0.1
0.11999986 0.0099999998 0.12
0.11999986 0.0099999998 0.14
0.13999981 0.0099999998 -1.837678e-14
0.13999981 0.0099999998 0.020000001
0.13999981 0.0099999998 0.040000003
0.13999981 0.0099999998 0.060000002000000004
0.13999981 0.0099999998 0.080000006
0.13999981 0.0099999998 0.10000001
0.13999981 0.0099999998 0.12
0.13999982 0.0099999998 0.14000002
0.15999974 0.0099999998 -4.8708391999999994e-15
0.15999974 0.0099999998 0.020000001
0.15999974 0.0099999998 0.040000003
0.15999974 0.0099999998 0.060000002000000004
0.15999974 0.0099999998 0.080000006
0.15999974 0.0099999998 0.10000001
0.15999976 0.0099999998 0.12000001
0.15999976 0.0099999998 0.14000002
0.17999966 0.0099999998 9.113974600000001e-15
0.17999966 0.0099999998 0.020000001
0.17999966 0.0099999998 0.040000003
0.17999966 0.0099999998 0.060000005999999995
0.17999966 0.0099999998 0.080000006
0.17999966 0.0099999998 0.10000001
0.17999966 0.0099999998 0.12000001
0.17999966 0.0099999998 0.14000002
0.19999956 0.0099999998 1.0706717999999998e-15
0.19999956 0.0099999998 0.020000001
0.19999956 0.0099999998 0.040000003
0.19999956 0.0099999998 0.060000005999999995
0.19999956 0.0099999998 0.080000006
0.19999956 0.0099999998 0.10000002
0.19999957 0.0099999998 0.12000002
0.19999957 0.0099999998 0.14000002
0.21999943 0.0099999998 6.664163000000001e-15
0.21999943 0.0099999998 0.020000003
0.21999943 0.0099999998 0.040000007000000004
0.21999943 0.0099999998 0.06000001
0.21999943 0.0099999998 0.080000013
0.21999943 0.0099999998 0.10000002
0.21999943 0.0099999998 0.12000002
0.21999943 0.0099999998 0.14000003
0.23999925 0.0099999998 -3.9132342999999994e-14
0.23999925 0.0099999998 0.020000003
0.23999925 0.0099999998 0.040000007000000004
0.23999925 0.0099999998 0.06000001
0.23999925 0.0099999998 0.080000013
0.23999925 0.0099999998 0.10000002
0.23999925 0.0099999998 0.12000003
0.23999925 0.0099999998 0.14000003
0.25999904 0.0099999998 -2.9209331e-14
0.25999904 0.0099999998 0.020000003
0.25999904 0.0099999998 0.040000007000000004
0.25999904 0.0099999998 0.060000014000000004
0.25999904 0.0099999998 0.08000002099999999
0.25999904 0.0099999998 0.10000002
0.25999904 0.0099999998 0.12000003
0.25999904 0.0099999998 0.14000005
0.27999875 0.0099999998 -4.2777397000000003e-14
0.27999875 0.0099999998 0.020000005
0.27999875 0.0099999998 0.04000001
0.27999875 0.0099999998 0.060000014000000004
0.27999875 0.0099999998 0.08000002099999999
0.27999875 0.0099999998 0.10000003
0.27999872 0.0099999998 0.12000004
0.27999872 0.0099999998 0.14000006
0.29999837 0.0099999998 -2.1245348e-14
0.29999837 0.0099999998 0.020000005
0.29999837 0.0099999998 0.04000001
0.29999837 0.0099999998 0.060000017
0.29999837 0.0099999998 0.080000028
0.29999837 0.0099999998 0.10000004
0.29999837 0.0099999998 0.12000005
0.29999834 0.0099999998 0.14000008
0.31999794 0.0099999998 -5.0927358e-14
0.31999794 0.0099999998 0.020000007
0.31999794 0.0099999998 0.040000014
0.31999791 0.0099999998 0.060000020999999994
0.31999791 0.0099999998 0.080000035
0.31999791 0.0099999998 0.10000005
0.31999788 0.0099999998 0.12000006
0.31999788 0.0099999998 0.14000009
0.33999735 0.0099999998 5.0632709000000006e-14
0.33999735 0.0099999998 0.020000009
0.33999735 0.0099999998 0.040000018
0.33999735 0.0099999998 0.060000028
0.33999732 0.0099999998 0.08000004299999999
0.33999732 0.0099999998 0.10000005
0.33999729 0.0099999998 0.12000008
0.33999726 0.0099999998 0.1400001
0.35999665 0.0099999998 -7.7918676e-14
0.35999665 0.0099999998 0.020000011
0.35999662 0.0099999998 0.040000021000000004
0.35999662 0.0099999998 0.060000036
0.35999659 0.0099999998 0.08000005
0.35999656 0.0099999998 0.10000007
0.35999656 0.0099999998 0.12000009
0.3599965 0.0099999998 0.14000012
0.37999573 0.0099999998 -2.7669928000000003e-15
0.37999573 0.0099999998 0.020000016000000002
0.3799957 0.0099999998 0.040000033
0.3799957 0.0099999998 0.060000047
0.37999567 0.0099999998 0.080000065
0.37999564 0.0099999998 0.10000009
0.37999561 0.0099999998 0.12000012
0.37999555 0.0099999998 0.14000016
0.39999461 0.0099999998 1.1147584e-13
0.39999461 0.0099999998 0.020000022
0.39999458 0.0099999998 0.040000044
0.39999458 0.0099999998 0.060000069
0.39999455 0.0099999998 0.080000095
0.39999449 0.0099999998 0.10000012
0.39999443 0.0099999998 0.12000016
0.39999437 0.0099999998 0.14000021
0.41999322 0.0099999998 -3.1325534e-13
0.41999322 0.0099999998 0.020000033
0.41999319 0.0099999998 0.040000066
0.41999319 0.0099999998 0.060000103
0.41999313 0.0099999998 0.08000014
0.41999307 0.0099999998 0.10000017
0.41999298 0.0099999998 0.12000022
0.41999289 0.0099999998 0.14000027
0.43999153 0.0099999998 -2.6006267e-13
0.43999153 0.0099999998 0.020000052
0.4399915 0.0099999998 0.0400001
0.43999147 0.0099999998 0.060000150999999995
0.43999141 0.0099999998 0.08000019900000001
0.43999133 0.0099999998 0.10000025
0.43999124 0.0099999998 0.12000032
0.43999109 0.0099999998 0.14000039
0.45998943 0.0099999998 2.0567089e-13
0.45998943 0.0099999998 0.020000076000000002
0.4599894 0.0099999998 0.040000152000000004
0.45998937 0.0099999998 0.060000226
0.45998928 0.0099999998 0.08000030400000001
0.45998919 0.0099999998 0.10000038
0.45998904 0.0099999998 0.12000047
0.45998886 0.0099999998 0.14000057
0.47998682 0.0099999998 3.3546664999999997e-13
0.47998682 0.0099999998 0.020000113
0.47998679 0.0099999998 0.040000223
0.47998676 0.0099999998 0.060000338
0.47998667 0.0099999998 0.080000453
0.47998655 0.0099999998 0.10000057
0.47998637 0.0099999998 0.1200007
0.47998613 0.0099999998 0.14000084
0.49998361 0.0099999998 3.7457019e-13
0.49998361 0.0099999998 0.020000162
0.49998358 0.0099999998 0.040000323
0.49998352 0.0099999998 0.060000487000000005
0.4999834 0.0099999998 0.080000661
0.49998325 0.0099999998 0.10000084
0.49998301 0.0099999998 0.12000103
0.49998271 0.0099999998 0.14000125
0.51997966 0.0099999998 6.488103e-14
0.51997966 0.0099999998 0.020000225
0.5199796 0.0099999998 0.040000454
0.51997954 0.0099999998 0.060000687999999996
0.51997942 0.0099999998 0.08000093700000001
0.51997924 0.0099999998 0.10000122
0.51997894 0.0099999998 0.12000151
0.51997858 0.0099999998 0.14000183
0.53997499 0.0099999998 -1.1658408e-12
0.53997493 0.0099999998 0.020000305
0.53997493 0.0099999998 0.040000617999999995
0.53997481 0.0099999998 0.060000949000000005
0.53997469 0.0099999998 0.080001302
0.53997445 0.0099999998 0.1000017
0.53997409 0.0099999998 0.12000215
0.53997362 0.0099999998 0.14000265
0.5599696 0.0099999998 -2.3632136e-12
0.5599696 0.0099999998 0.0200004
0.55996954 0.0099999998 0.040000815
0.55996943 0.0099999998 0.060001262
0.55996931 0.0099999998 0.080001764
0.55996901 0.0099999998 0.10000233
0.55996859 0.0099999998 0.12000299
0.55996799 0.0099999998 0.14000373
0.57996386 0.0099999998 3.7569347e-14
0.57996386 0.0099999998 0.020000506
0.5799638 0.0099999998 0.040001037999999996
0.57996368 0.0099999998 0.06000163
0.57996351 0.0099999998 0.0800023
0.57996315 0.0099999998 0.10000309
0.57996267 0.0099999998 0.12000401
0.57996196 0.0099999998 0.14000505
0.59995824 0.0099999998 1.7304304e-12
0.59995824 0.0099999998 0.020000618
0.59995818 0.0099999998 0.040001273
0.59995806 0.0099999998 0.060002018
0.59995782 0.0099999998 0.08000288900000001
0.59995741 0.0099999998 0.10000393
0.59995681 0.0099999998 0.12000516
0.59995592 0.0099999998 0.14000657
0.61995316 0.0099999998 -6.098763299999999e-14
0.6199531 0.0099999998 0.020000711
0.61995304 0.0099999998 0.040001478
0.61995286 0.0099999998 0.06000236
0.61995256 0.0099999998 0.08000344
0.61995208 0.0099999998 0.10000479
0.61995131 0.0099999998 0.12000643
0.61995029 0.0099999998 0.14000833
0.63994879 0.0099999998 4.2435342e-13
0.63994873 0.0099999998 0.020000784
0.63994861 0.0099999998 0.040001646
0.63994837 0.0099999998 0.060002680999999995
0.63994795 0.0099999998 0.080004007
0.63994735 0.0099999998 0.10000572
0.63994646 0.0099999998 0.12000785
0.63994533 0.0099999998 0.14001031
0.65994561 0.0099999998 2.0230144e-12
0.65994555 0.0099999998 0.020000879
0.65994537 0.0099999998 0.040001869
0.65994501 0.0099999998 0.060003098
0.65994453 0.0099999998 0.080004722
0.65994382 0.0099999998 0.10000686
0.65994281 0.0099999998 0.12000956
0.65994155 0.0099999998 0.14001273
0.67994475 0.0099999998 3.866606299999999e-12
0.67994469 0.0099999998 0.020000976
0.67994452 0.0099999998 0.040002089
0.67994422 0.0099999998 0.060003522999999996
0.67994368 0.0099999998 0.08000547400000001
0.67994297 0.0099999998 0.10000811
0.67994195 0.0099999998 0.12001149
0.67994064 0.0099999998 0.14001545
0.69994897 0.0099999998 8.2222605e-12
0.69994891 0.0099999998 0.020001005
0.69994879 0.0099999998 0.040002197
0.69994855 0.0099999998 0.06000380599999999
0.69994813 0.0099999998 0.080006085
0.69994748 0.0099999998 0.10000924
0.69994658 0.0099999998 0.1200133
0.69994539 0.0099999998 0.14001808
0.71996289 0.0099999998 3.3637561e-12
0.71996284 0.0099999998 0.020001093
0.71996278 0.0099999998 0.040002402
0.71996254 0.0099999998 0.060004182
0.71996224 0.0099999998 0.080006726
0.71996176 0.0099999998 0.10001025
0.71996099 0.0099999998 0.12001479
0.71995997 0.0099999998 0.14002013
0.73997742 0.0099999998 3.2138638999999996e-13
0.73997742 0.0099999998 0.020001177
0.73997736 0.0099999998 0.040002581
0.73997718 0.0099999998 0.060004495
0.73997694 0.0099999998 0.080007225
0.73997658 0.0099999998 0.100011
0.73997605 0.0099999998 0.12001586
0.73997527 0.0099999998 0.14002156
0.75998855 0.0099999998 1.3804983e-11
0.75998855 0.0099999998 0.020001234
0.75998849 0.0099999998 0.040002711
0.75998837 0.0099999998 0.060004710999999995
0.75998825 0.0099999998 0.08000756099999999
0.75998801 0.0099999998 0.10001151
0.75998765 0.0099999998 0.12001658
0.75998718 0.0099999998 0.1400225
0.77999651 0.0099999998 -7.5392019e-12
0.77999651 0.0099999998 0.02000127
0.77999651 0.0099999998 0.040002782
0.77999645 0.0099999998 0.06000483400000001
0.7799964 0.0099999998 0.080007754
0.77999628 0.0099999998 0.1000118
0.7799961 0.0099999998 0.12001698
0.77999592 0.0099999998 0.14002302
0.80000269 0.0099999998 -1.484112e-11
0.80000269 0.0099999998 0.020001283
0.80000269 0.0099999998 0.040002808
0.80000269 0.0099999998 0.060004875
0.80000269 0.0099999998 0.08000781400000001
0.80000269 0.0099999998 0.10001188
0.80000269 0.0099999998 0.12001709
0.80000275 0.0099999998 0.14002316
0.8200084 0.0099999998 1.0254729e-12
0.8200084 0.0099999998 0.020001274
0.82000846 0.0099999998 0.040002789
0.82000846 0.0099999998 0.060004838
0.82000858 0.0099999998 0.080007747
0.82000864 0.0099999998 0.10001177
0.82000881 0.0099999998 0.12001694
0.82000905 0.0099999998 0.14002296
0.84001434 0.0099999998 -1.8086172999999998e-13
0.84001434 0.0099999998 0.020001248
0.8400144 0.0099999998 0.04000273
0.84001446 0.0099999998 0.060004734000000004
0.84001458 0.0099999998 0.080007575
0.84001482 0.0099999998 0.10001152
0.84001511 0.0099999998 0.12001657
0.84001553 0.0099999998 0.14002247
0.86002046 0.0099999998 1.0259105e-11
0.86002046 0.0099999998 0.020001205
0.86002052 0.0099999998 0.040002637
0.86002064 0.0099999998 0.06000457
0.86002082 0.0099999998 0.080007315
0.86002111 0.0099999998 0.10001113
0.86002153 0.0099999998 0.12001601
0.86002207 0.0099999998 0.14002171
0.88002622 0.0099999998 -5.3433013e-12
0.88002628 0.0099999998 0.020001147
0.88002634 0.0099999998 0.04000251
0.88002646 0.0099999998 0.060004354
0.8800267 0.0099999998 0.080006972
0.88002706 0.0099999998 0.10001061
0.88002759 0.0099999998 0.12001527
0.88002831 0.0099999998 0.14002071
0.90003121 0.0099999998 -2.6942473e-11
0.90003121 0.0099999998 0.020001078000000002
0.90003133 0.0099999998 0.040002361
0.90003151 0.0099999998 0.06000409599999999
0.90003175 0.0099999998 0.080006562
0.90003216 0.0099999998 0.10000999
0.90003282 0.0099999998 0.12001439
0.90003365 0.0099999998 0.14001952
0.92003369 0.0099999998 -4.4708399e-12
0.92003369 0.0099999998 0.020001037
0.92003387 0.0099999998 0.040002253
0.92003411 0.0099999998 0.060003877000000004
0.92003453 0.0099999998 0.080006167
0.92003512 0.0099999998 0.10000934
0.9200359 0.0099999998 0.12001342
0.92003697 0.0099999998 0.14001819
0.94003391 0.0099999998 6.5103877e-12
0.94003397 0.0099999998 0.020001011000000003
0.94003415 0.0099999998 0.040002175
0.94003445 0.0099999998 0.060003687
0.94003487 0.0099999998 0.080005795
0.94003558 0.0099999998 0.1000087
0.94003648 0.0099999998 0.12001243
0.94003767 0.0099999998 0.14001681
0.96003342 0.0099999998 -6.6968978e-12
0.96003342 0.0099999998 0.020000955
0.9600336 0.0099999998 0.040002044
0.96003389 0.0099999998 0.060003445
0.96003437 0.0099999998 0.08000537
0.96003503 0.0099999998 0.10000801
0.96003598 0.0099999998 0.1200114
0.96003723 0.0099999998 0.14001538
0.98003256 0.0099999998 2.2503662999999997e-12
0.98003256 0.0099999998 0.020000903
0.98003274 0.0099999998 0.040001918
0.98003298 0.0099999998 0.06000319900000001
0.9800334 0.0099999998 0.080004945
0.98003405 0.0099999998 0.10000733
0.98003495 0.0099999998 0.12001037
0.9800362 0.0099999998 0.14001393
1.0000315 0.0099999998 -2.2549636000000004e-12
1.0000315 0.0099999998 0.02000086
1.0000315999999998 0.0099999998 0.040001821
1.0000318000000001 0.0099999998 0.06000300099999999
1.0000322 0.0099999998 0.080004573
1.0000328 0.0099999998 0.10000669
1.0000337 0.0099999998 0.12000941
1.0000349 0.0099999998 0.14001259
1.0200301 0.0099999998 3.0697641e-12
1.0200301 0.0099999998 0.020000819
1.0200303 0.0099999998 0.040001728
1.0200305 0.0099999998 0.06000283
1.0200309 0.0099999998 0.080004252
1.0200313 0.0099999998 0.10000613
1.0200323 0.0099999998 0.12000853
1.0200334999999998 0.0099999998 0.14001133
1.0400286 0.0099999998 3.2702142000000005e-12
1.0400286 0.0099999998 0.020000778
1.0400287 0.0099999998 0.040001638
1.0400288 0.0099999998 0.060002665999999996
1.0400292 0.0099999998 0.080003962
1.0400298000000001 0.0099999998 0.10000563
1.0400306000000001 0.0099999998 0.12000773
1.0400318000000002 0.0099999998 0.14001018
1.0600268 0.0099999998 2.3425428e-12
1.0600268 0.0099999998 0.020000739
1.0600268999999998 0.0099999998 0.040001549
1.0600271 0.0099999998 0.06000251
1.0600273999999998 0.0099999998 0.080003701
1.060028 0.0099999998 0.10000519
1.0600288 0.0099999998 0.12000701
1.06003 0.0099999998 0.14000912
1.080025 0.0099999998 -1.8652832999999998e-12
1.080025 0.0099999998 0.020000705
1.0800251 0.0099999998 0.040001471000000004
1.0800252000000001 0.0099999998 0.060002368
1.0800256000000001 0.0099999998 0.080003448
1.0800261 0.0099999998 0.10000477
1.080027 0.0099999998 0.12000635
1.0800281999999999 0.0099999998 0.14000812
1.100023 0.0099999998 -1.8175911000000002e-13
1.1000232 0.0099999998 0.020000674
1.1000233 0.0099999998 0.0400014
1.1000233999999998 0.0099999998 0.060002234
1.1000237 0.0099999998 0.080003209
1.1000243 0.0099999998 0.10000436
1.1000252000000001 0.0099999998 0.12000568
1.1000265 0.0099999998 0.14000723
1.1200212999999999 0.0099999998 -2.0836087e-12
1.1200212999999999 0.0099999998 0.020000646
1.1200215 0.0099999998 0.040001333
1.1200217 0.0099999998 0.060002092
1.1200222 0.0099999998 0.08000296400000001
1.1200228 0.0099999998 0.10000393
1.1200236000000001 0.0099999998 0.12000506
1.1200249 0.0099999998 0.14000639
1.1400198000000001 0.0099999998 -2.3067543999999998e-12
1.1400199 0.0099999998 0.020000607
1.14002 0.0099999998 0.040001236
1.1400203000000002 0.0099999998 0.060001917
1.1400207 0.0099999998 0.080002651
1.1400213 0.0099999998 0.10000349
1.1400223 0.0099999998 0.12000445
1.1400236000000001 0.0099999998 0.14000577
1.1600184 0.0099999998 -7.599488e-13
1.1600186000000001 0.0099999998 0.020000538
1.1600187 0.0099999998 0.040001094
1.1600188999999999 0.0099999998 0.060001671
1.1600194 0.0099999998 0.080002315
1.1600201 0.0099999998 0.10000303
1.1600211999999999 0.0099999998 0.12000401
1.1600229 0.0099999998 0.14000554
1.1800173999999999 0.0099999998 -6.5495049e-13
1.1800173999999999 0.0099999998 0.020000445
1.1800176000000002 0.0099999998 0.040000918999999996
1.1800178 0.0099999998 0.060001418
1.1800184 0.0099999998 0.08000201
1.1800193 0.0099999998 0.10000281
1.1800206 0.0099999998 0.12000403
1.1800226 0.0099999998 0.14000604
1.2000164 0.0099999998 -1.1451985000000002e-12
1.2000165 0.0099999998 0.020000376
1.2000166 0.0099999998 0.0400008
1.2000171 0.0099999998 0.060001325
1.2000178 0.0099999998 0.080002062
1.2000188999999999 0.0099999998 0.10000316
1.2000208 0.0099999998 0.12000493
1.2000239 0.0099999998 0.14000773
1.220016 0.0099999998 1.153276e-13
1.2200161 0.0099999998 0.020000415
1.2200163999999998 0.0099999998 0.040000934
1.220017 0.0099999998 0.06000169
1.2200181 0.0099999998 0.08000285900000001
1.2200201000000002 0.0099999998 0.10000462
1.2200233 0.0099999998 0.12000711
1.2200278 0.0099999998 0.14001019
1.2400171 0.0099999998 -1.2603315e-12
1.2400173 0.0099999998 0.020000709
1.2400178999999998 0.0099999998 0.040001616000000004
1.2400193000000002 0.0099999998 0.060002901
1.2400215 0.0099999998 0.080004632
1.2400248 0.0099999998 0.10000678
1.2400287 0.0099999998 0.12000938
1.2400328 0.0099999998 0.1400125
1.2600234 0.0099999998 -7.7119967e-13
1.2600236 0.0099999998 0.020001028
1.2600243999999998 0.0099999998 0.040002301000000004
1.2600258999999998 0.0099999998 0.060004022000000004
1.2600280000000001 0.0099999998 0.080006227
1.2600305 0.0099999998 0.10000879
1.260033 0.0099999998 0.12001161
1.260035 0.0099999998 0.14001463
1.2800303 0.0099999998 1.1235639e-12
1.2800303999999998 0.0099999998 0.02000132
1.2800307 0.0099999998 0.040002972000000005
1.2800313 0.0099999998 0.060005199
1.2800322 0.0099999998 0.080007978
1.280033 0.0099999998 0.1000109
1.2800336 0.0099999998 0.12001372
1.3000323 0.0099999998 7.685694499999999e-13
1.3000323 0.0099999998 0.020001611000000002
1.3000321000000001 0.0099999998 0.04000365
1.300032 0.0099999998 0.06000641
1.3000318000000002 0.0099999998 0.08000977299999999
-1.6700017e-08 0.0099999998 0.16
-1.6072331e-08 0.0099999998 0.18000001
-1.5254001e-08 0.0099999998 0.2
-1.4200318e-08 0.0099999998 0.22
-1.2876431e-08 0.0099999998 0.24000001
-1.123198e-08 0.0099999998 0.25999999
-9.2878105e-09 0.0099999998 0.28
0.019999975 0.0099999998 0.16
0.019999975 0.0099999998 0.18000001
0.019999977 0.0099999998 0.2
0.019999978999999998 0.0099999998 0.22
0.019999981 0.0099999998 0.24000001
0.019999983 0.0099999998 0.25999999
0.019999987 0.0099999998 0.28
0.01999999 0.0099999998 0.30000001
0.039999962 0.0099999998 0.16
0.039999966 0.0099999998 0.18000001
0.039999966 0.0099999998 0.2
0.039999968999999996 0.0099999998 0.22
0.039999968999999996 0.0099999998 0.24000001
0.039999973 0.0099999998 0.26000002
0.03999998 0.0099999998 0.28
0.039999984 0.0099999998 0.30000001
0.059999947000000005 0.0099999998 0.16000001
0.05999995 0.0099999998 0.18000001
0.05999995 0.0099999998 0.2
0.059999954 0.0099999998 0.22000001
0.059999958 0.0099999998 0.24000001
0.059999965 0.0099999998 0.26000002
0.05999996900000001 0.0099999998 0.28
0.059999976 0.0099999998 0.30000001
0.079999924 0.0099999998 0.16000001
0.079999931 0.0099999998 0.18000001
0.079999931 0.0099999998 0.2
0.079999939 0.0099999998 0.22000001
0.079999939 0.0099999998 0.24000001
0.079999946 0.0099999998 0.26000002
0.079999961 0.0099999998 0.28
0.079999968 0.0099999998 0.30000001
0.09999989699999999 0.0099999998 0.16000001
0.099999905 0.0099999998 0.18000001
0.099999905 0.0099999998 0.2
0.099999912 0.0099999998 0.22000001
0.09999992 0.0099999998 0.24000001
0.09999992699999999 0.0099999998 0.26000002
0.099999942 0.0099999998 0.28
0.09999995699999999 0.0099999998 0.30000001
0.11999986 0.0099999998 0.16000001
0.11999987 0.0099999998 0.18000001
0.11999987 0.0099999998 0.20000002
0.11999988 0.0099999998 0.22000001
0.11999989 0.0099999998 0.24000002
0.1199999 0.0099999998 0.26000002
0.11999992 0.0099999998 0.28000003
0.11999994 0.0099999998 0.30000001
0.13999982 0.0099999998 0.16000001
0.13999982 0.0099999998 0.18000002
0.13999982 0.0099999998 0.20000002
0.13999984 0.0099999998 0.22000001
0.13999985 0.0099999998 0.24000002
0.13999987 0.0099999998 0.26000002
0.13999988 0.0099999998 0.28000003
0.13999991 0.0099999998 0.30000004
0.15999976 0.0099999998 0.16000001
0.15999976 0.0099999998 0.18000002
0.15999977 0.0099999998 0.20000002
0.15999977 0.0099999998 0.22000003
0.15999979 0.0099999998 0.24000002
0.15999982 0.0099999998 0.26000002
0.15999985 0.0099999998 0.28000003
0.15999988 0.0099999998 0.30000004
0.17999968 0.0099999998 0.16000003
0.17999968 0.0099999998 0.18000002
0.17999969 0.0099999998 0.20000003
0.17999971 0.0099999998 0.22000003
0.17999972 0.0099999998 0.24000004
0.17999974 0.0099999998 0.26000005
0.17999978 0.0099999998 0.28000006
0.17999983 0.0099999998 0.30000004
0.19999957 0.0099999998 0.16000003
0.19999957 0.0099999998 0.18000004
0.19999959 0.0099999998 0.20000003
0.1999996 0.0099999998 0.22000004
0.19999963 0.0099999998 0.24000005
0.19999966 0.0099999998 0.26000005
0.1999997 0.0099999998 0.28000006
0.19999976 0.0099999998 0.30000007
0.21999943 0.0099999998 0.16000004
0.21999943 0.0099999998 0.18000004
0.21999945 0.0099999998 0.20000005
0.21999946 0.0099999998 0.22000006
0.21999949 0.0099999998 0.24000007
0.21999954 0.0099999998 0.26000008
0.2199996 0.0099999998 0.28000009
0.21999967 0.0099999998 0.3000001
0.23999925 0.0099999998 0.16000004
0.23999926 0.0099999998 0.18000005
0.23999928 0.0099999998 0.20000006
0.23999929 0.0099999998 0.22000009
0.23999932 0.0099999998 0.2400001
0.23999937 0.0099999998 0.26000011
0.23999944 0.0099999998 0.28000015
0.23999953 0.0099999998 0.30000019
0.25999904 0.0099999998 0.16000006
0.25999904 0.0099999998 0.18000007
0.25999904 0.0099999998 0.20000009
0.25999907 0.0099999998 0.22000012
0.2599991 0.0099999998 0.24000014
0.25999916 0.0099999998 0.26000017
0.25999922 0.0099999998 0.28000024
0.25999933 0.0099999998 0.30000031
0.27999872 0.0099999998 0.16000007
0.27999875 0.0099999998 0.1800001
0.27999875 0.0099999998 0.20000012
0.27999878 0.0099999998 0.22000016
0.27999881 0.0099999998 0.2400002
0.27999887 0.0099999998 0.26000026
0.27999893 0.0099999998 0.28000036
0.27999905 0.0099999998 0.30000046
0.29999834 0.0099999998 0.16000009
0.29999834 0.0099999998 0.18000013
0.29999837 0.0099999998 0.20000015
0.2999984 0.0099999998 0.22000021
0.29999843 0.0099999998 0.24000026
0.29999849 0.0099999998 0.26000035
0.29999858 0.0099999998 0.28000048
0.2999987 0.0099999998 0.30000061
0.31999788 0.0099999998 0.16000012
0.31999788 0.0099999998 0.18000016
0.31999788 0.0099999998 0.2000002
0.31999791 0.0099999998 0.22000027
0.31999794 0.0099999998 0.24000035
0.319998 0.0099999998 0.26000047
0.31999809 0.0099999998 0.28000063
0.31999823 0.0099999998 0.30000082
0.33999726 0.0099999998 0.16000015
0.33999723 0.0099999998 0.18000019
0.33999723 0.0099999998 0.20000026
0.33999726 0.0099999998 0.22000034
0.33999729 0.0099999998 0.24000046
0.33999738 0.0099999998 0.26000062
0.3399975 0.0099999998 0.28000084
0.33999765 0.0099999998 0.30000106
0.35999647 0.0099999998 0.16000018
0.35999644 0.0099999998 0.18000023
0.35999644 0.0099999998 0.20000032
0.35999644 0.0099999998 0.22000043
0.3599965 0.0099999998 0.24000058
0.35999659 0.0099999998 0.2600008
0.35999671 0.0099999998 0.28000107
0.35999691 0.0099999998 0.30000135
0.3799955 0.0099999998 0.16000022
0.37999547 0.0099999998 0.18000029
0.37999541 0.0099999998 0.20000039
0.37999541 0.0099999998 0.22000054
0.37999547 0.0099999998 0.24000072
0.37999555 0.0099999998 0.260001
0.3799957 0.0099999998 0.28000134
0.37999597 0.0099999998 0.30000174
0.39999428 0.0099999998 0.16000026
0.39999419 0.0099999998 0.18000036
0.39999413 0.0099999998 0.20000048
0.39999411 0.0099999998 0.22000065
0.39999413 0.0099999998 0.24000089
0.39999422 0.0099999998 0.26000124
0.39999443 0.0099999998 0.28000173
0.39999476 0.0099999998 0.30000225
0.41999277 0.0099999998 0.16000035
0.41999266 0.0099999998 0.18000045
0.41999254 0.0099999998 0.2000006
0.41999248 0.0099999998 0.2200008
0.41999248 0.0099999998 0.2400011
0.41999257 0.0099999998 0.26000154
0.41999277 0.0099999998 0.28000215
0.41999316 0.0099999998 0.30000287
0.43999094 0.0099999998 0.16000047
0.43999076 0.0099999998 0.18000059
0.43999058 0.0099999998 0.20000076
0.43999043 0.0099999998 0.220001
0.43999037 0.0099999998 0.24000134
0.4399904 0.0099999998 0.2600019
0.43999064 0.0099999998 0.28000271
0.43999112 0.0099999998 0.30000365
0.45998865 0.0099999998 0.16000068
0.45998839 0.0099999998 0.18000081
0.45998812 0.0099999998 0.200001
0.45998788 0.0099999998 0.22000125
0.4599877 0.0099999998 0.24000165
0.4599877 0.0099999998 0.26000232
0.45998794 0.0099999998 0.28000334
0.45998847 0.0099999998 0.3000046
0.4799858 0.0099999998 0.16000099
0.47998545 0.0099999998 0.18000115
0.47998509 0.0099999998 0.20000137
0.4799847 0.0099999998 0.22000164
0.4799844 0.0099999998 0.24000208
0.47998425 0.0099999998 0.26000282
0.47998443 0.0099999998 0.28000414
0.479985 0.0099999998 0.30000582
0.49998233 0.0099999998 0.16000147
0.49998185 0.0099999998 0.18000171
0.49998134 0.0099999998 0.20000196
0.49998081 0.0099999998 0.22000225
0.49998033 0.0099999998 0.24000271
0.49997997 0.0099999998 0.26000351
0.49997994 0.0099999998 0.2800051
0.49998042 0.0099999998 0.30000737
0.51997805 0.0099999998 0.16000217
0.51997745 0.0099999998 0.18000253
0.51997679 0.0099999998 0.20000288
0.51997608 0.0099999998 0.22000322
0.51997536 0.0099999998 0.24000369
0.51997471 0.0099999998 0.26000449
0.51997435 0.0099999998 0.28000638
0.51997441 0.0099999998 0.30000934
0.53997302 0.0099999998 0.16000319
0.53997231 0.0099999998 0.18000372
0.53997147 0.0099999998 0.20000425
0.53997058 0.0099999998 0.22000475
0.53996962 0.0099999998 0.24000525
0.53996849 0.0099999998 0.26000607
0.53996742 0.0099999998 0.2800082
0.53996676 0.0099999998 0.30001202
0.55996722 0.0099999998 0.16000451
0.55996639 0.0099999998 0.18000533
0.55996543 0.0099999998 0.20000616
0.55996436 0.0099999998 0.22000693
0.55996305 0.0099999998 0.24000765
0.55996144 0.0099999998 0.2600086
0.55995935 0.0099999998 0.28001103
0.55995721 0.0099999998 0.30001581
0.57996106 0.0099999998 0.16000617
0.57995999 0.0099999998 0.18000735
0.5799588 0.0099999998 0.20000853
0.57995749 0.0099999998 0.22000979
0.57995594 0.0099999998 0.24001098
0.57995373 0.0099999998 0.26001257
0.57995045 0.0099999998 0.28001574
0.57994622 0.0099999998 0.30002147
0.59995484 0.0099999998 0.16000809
0.59995353 0.0099999998 0.18000968
0.59995204 0.0099999998 0.20001137
0.59995037 0.0099999998 0.22001323
0.59994847 0.0099999998 0.24001551
0.5999456 0.0099999998 0.2600185
0.59994125 0.0099999998 0.28002349
0.59993482 0.0099999998 0.30003035
0.61994898 0.0099999998 0.16001035
0.61994731 0.0099999998 0.18001243
0.61994553 0.0099999998 0.20001481
0.61994338 0.0099999998 0.22001775
0.6199407 0.0099999998 0.24002182
0.61993754 0.0099999998 0.26002824
0.61993253 0.0099999998 0.28003642
0.61992455 0.0099999998 0.30004439
0.63994378 0.0099999998 0.16001295
0.63994193 0.0099999998 0.18001576
0.63993961 0.0099999998 0.20001915
0.63993704 0.0099999998 0.22002429
0.63993436 0.0099999998 0.24003291
0.6399312 0.0099999998 0.26004541
0.63992602 0.0099999998 0.28005731
0.63991719 0.0099999998 0.30006543
0.65993989 0.0099999998 0.16001612
0.65993786 0.0099999998 0.18001989
0.65993536 0.0099999998 0.20002519
0.65993273 0.0099999998 0.22003406
0.65993029 0.0099999998 0.24004897
0.65992796 0.0099999998 0.26006925
0.65992302 0.0099999998 0.28008437
0.65991414 0.0099999998 0.30009091
0.67993897 0.0099999998 0.16001973
0.67993683 0.0099999998 0.18002458
0.67993426 0.0099999998 0.20003177
0.67993182 0.0099999998 0.22004442
0.67992997 0.0099999998 0.24006543
0.67992884 0.0099999998 0.26009223
0.67992485 0.0099999998 0.28010914
0.67991853 0.0099999998 0.30011371
0.69994378 0.0099999998 0.16002317
0.69994187 0.0099999998 0.18002898
0.69993967 0.0099999998 0.20003779
0.69993764 0.0099999998 0.22005309
0.69993651 0.0099999998 0.24007805
0.69993615 0.0099999998 0.26010862
0.6999343 0.0099999998 0.28012598
0.69993365 0.0099999998 0.30012935
0.7199586 0.0099999998 0.16002582
0.71995693 0.0099999998 0.18003225
0.71995515 0.0099999998 0.20004189
0.71995342 0.0099999998 0.2200584
0.71995223 0.0099999998 0.24008502
0.71995187 0.0099999998 0.26011723
0.71995217 0.0099999998 0.28013477
0.71995324 0.0099999998 0.30013865
0.73997432 0.0099999998 0.16002759
0.73997319 0.0099999998 0.18003434
0.73997194 0.0099999998 0.2000443
0.7399708 0.0099999998 0.22006117
0.73996997 0.0099999998 0.24008819
0.73996979 0.0099999998 0.26012096
0.73997015 0.0099999998 0.28013921
0.73997104 0.0099999998 0.30014396
0.75998658 0.0099999998 0.16002876
0.75998592 0.0099999998 0.18003567
0.75998521 0.0099999998 0.20004573
0.75998455 0.0099999998 0.22006264
0.75998414 0.0099999998 0.24008968
0.75998414 0.0099999998 0.26012257
0.75998443 0.0099999998 0.28014135
0.75998503 0.0099999998 0.30014688
0.77999562 0.0099999998 0.16002937
0.77999538 0.0099999998 0.18003632
0.77999508 0.0099999998 0.20004639
0.7799949 0.0099999998 0.22006324
0.77999485 0.0099999998 0.24009018
0.7799949 0.0099999998 0.2601231
0.77999508 0.0099999998 0.28014228
0.77999538 0.0099999998 0.30014831
0.80000281 0.0099999998 0.16002952
0.80000287 0.0099999998 0.18003644
0.80000299 0.0099999998 0.20004643
0.80000311 0.0099999998 0.22006319
0.80000329 0.0099999998 0.24009004
0.80000341 0.0099999998 0.26012298
0.80000353 0.0099999998 0.28014243
0.80000359 0.0099999998 0.3001487
0.82000935 0.0099999998 0.16002925
0.82000977 0.0099999998 0.1800361
0.82001019 0.0099999998 0.200046
0.82001066 0.0099999998 0.22006266
0.82001102 0.0099999998 0.24008943
0.8200112 0.0099999998 0.26012242
0.8200112 0.0099999998 0.28014195
0.82001102 0.0099999998 0.30014822
0.84001607 0.0099999998 0.16002862
0.84001672 0.0099999998 0.18003532
0.8400175 0.0099999998 0.20004502
0.84001821 0.0099999998 0.22006138
0.84001875 0.0099999998 0.24008775
0.84001905 0.0099999998 0.26012027
0.84001899 0.0099999998 0.28013965
0.84001863 0.0099999998 0.30014586
0.86002284 0.0099999998 0.16002765
0.8600238 0.0099999998 0.18003413
0.86002481 0.0099999998 0.20004351
0.86002582 0.0099999998 0.22005937
0.8600266 0.0099999998 0.24008492
0.8600269 0.0099999998 0.26011652
0.86002684 0.0099999998 0.28013548
0.8600263 0.0099999998 0.3001416
0.88002926 0.0099999998 0.1600264
0.88003045 0.0099999998 0.18003257
0.88003176 0.0099999998 0.20004152
0.88003302 0.0099999998 0.22005662
0.88003397 0.0099999998 0.24008103
0.88003439 0.0099999998 0.26011124
0.88003427 0.0099999998 0.28012952
0.88003361 0.0099999998 0.30013558
0.90003479 0.0099999998 0.16002487
0.90003622 0.0099999998 0.18003069
0.90003777 0.0099999998 0.20003907
0.90003926 0.0099999998 0.22005326
0.90004039 0.0099999998 0.24007617
0.90004075 0.0099999998 0.2601046
0.90004069 0.0099999998 0.28012207
0.90004003 0.0099999998 0.30012807
0.92003834 0.0099999998 0.16002317
0.92004013 0.0099999998 0.18002854
0.9200421 0.0099999998 0.20003629
0.92004395 0.0099999998 0.22004937
0.92004526 0.0099999998 0.24007055
0.92004561 0.0099999998 0.26009691
0.92004538 0.0099999998 0.28011343
0.92004502 0.0099999998 0.30011943
0.94003922 0.0099999998 0.16002138
0.94004124 0.0099999998 0.18002631
0.94004369 0.0099999998 0.20003331
0.94004637 0.0099999998 0.22004515
0.9400484 0.0099999998 0.24006441
0.94004881 0.0099999998 0.26008856
0.94004846 0.0099999998 0.28010404
0.94004828 0.0099999998 0.30011007
0.96003884 0.0099999998 0.16001955
0.96004099 0.0099999998 0.180024
0.96004361 0.0099999998 0.20003022
0.96004665 0.0099999998 0.22004075
0.96004945 0.0099999998 0.24005803
0.96005052 0.0099999998 0.26007998
0.96005052 0.0099999998 0.28009444
0.9600504 0.0099999998 0.30010036
0.98003787 0.0099999998 0.1600177
0.98004001 0.0099999998 0.18002169
0.98004276 0.0099999998 0.20002717
0.98004597 0.0099999998 0.2200364
0.98004931 0.0099999998 0.2400517
0.98005128 0.0099999998 0.26007152
0.98005193 0.0099999998 0.28008494
0.98005229 0.0099999998 0.30009067
1.0000366 0.0099999998 0.16001594
1.0000386 0.0099999998 0.18001948
1.0000414 0.0099999998 0.20002426
1.0000449 0.0099999998 0.22003229
1.0000489 0.0099999998 0.24004577
1.0000516 0.0099999998 0.26006344
1.0000535 0.0099999998 0.28007573
1.0000547 0.0099999998 0.30008122
1.0200351 0.0099999998 0.1600143
1.0200372 0.0099999998 0.18001743
1.0200399 0.0099999998 0.20002171
1.0200436 0.0099999998 0.22002876
1.0200483 0.0099999998 0.24004063
1.0200523000000001 0.0099999998 0.26005614
1.0200558000000002 0.0099999998 0.28006709
1.0200584000000001 0.0099999998 0.30007231
1.0400334999999998 0.0099999998 0.16001277
1.0400356 0.0099999998 0.18001562
1.0400383 0.0099999998 0.20001948
1.0400423 0.0099999998 0.220026
1.0400478000000002 0.0099999998 0.24003656
1.0400536 0.0099999998 0.26004997
1.0400593 0.0099999998 0.28005949
1.0400642 0.0099999998 0.30006447
1.0600317 0.0099999998 0.16001138
1.0600338 0.0099999998 0.18001406
1.0600368 0.0099999998 0.20001769
1.0600412000000001 0.0099999998 0.22002402
1.0600473999999998 0.0099999998 0.24003373
1.0600551 0.0099999998 0.26004526
1.0600631999999999 0.0099999998 0.28005329
1.0600708 0.0099999998 0.30005786
1.0800298000000002 0.0099999998 0.1600102
1.0800321000000002 0.0099999998 0.1800127
1.0800353999999999 0.0099999998 0.20001647
1.0800403 0.0099999998 0.22002287
1.0800471999999999 0.0099999998 0.24003208
1.0800565 0.0099999998 0.26004189
1.0800661 0.0099999998 0.28004852
1.0800755 0.0099999998 0.30005243
1.1000282 0.0099999998 0.1600091
1.1000306999999998 0.0099999998 0.1800117
1.1000344 0.0099999998 0.20001586
1.10004 0.0099999998 0.22002251
1.1000476000000001 0.0099999998 0.24003123
1.1000573999999999 0.0099999998 0.26003933
1.100067 0.0099999998 0.28004459
1.1200268 0.0099999998 0.16000827
1.1200296 0.0099999998 0.18001117
1.1200339 0.0099999998 0.20001586
1.1200401000000002 0.0099999998 0.22002277
1.1200484 0.0099999998 0.24003071
1.1200576999999998 0.0099999998 0.26003712
1.1200665 0.0099999998 0.28004113
1.1400257 0.0099999998 0.16000785
1.1400290000000002 0.0099999998 0.18001126
1.140034 0.0099999998 0.20001654
1.140041 0.0099999998 0.2200235
1.1400495000000002 0.0099999998 0.24003029
1.1400576999999998 0.0099999998 0.26003519
1.1600253999999999 0.0099999998 0.16000807
1.1600293 0.0099999998 0.18001215
1.1600353 0.0099999998 0.20001796
1.1600428 0.0099999998 0.22002444
1.1600503999999998 0.0099999998 0.24002987
1.1600571000000002 0.0099999998 0.2600334
1.1800258999999997 0.0099999998 0.16000929
1.1800311 0.0099999998 0.18001401
1.1800376000000001 0.0099999998 0.20001973
1.1800445 0.0099999998 0.22002529
1.1800507 0.0099999998 0.24002936
1.2000287 0.0099999998 0.16001157
1.2000345 0.0099999998 0.18001623
1.2000403 0.0099999998 0.20002128
1.2000457 0.0099999998 0.2200257
1.220033 0.0099999998 0.16001396
1.2200379 0.0099999998 0.1800182
1.2200422 0.0099999998 0.20002227
1.2200456 0.0099999998 0.22002552
1.2400361999999998 0.0099999998 0.16001607
1.2400392 0.0099999998 0.18001966
1.2600366000000003 0.0099999998 0.16001765
VERTICES 2975 5950
1 0
1 1
1 2
1 3
1 4
1 5
1 6
1 7
1 8
1 9
1 10
1 11
1 12
1 13
1 14
1 15
1 16
1 17
1 18
1 19
1 20
1 21
1 22
1 23
1 24
1 25
1 26
1 27
1 28
1 29
1 30
1 31
1 32
1 33
1 34
1 35
1 36
1 37
1 38
1 39
1 40
1 41
1 42
1 43
1 44
1 45
1 46
1 47
1 48
1 49
1 50
1 51
1 52
1 53
1 54
1 55
1 56
1 57
1 58
1 59
1 60
1 61
1 62
1 63
1 64
1 65
1 66
1 67
1 68
1 69
1 70
1 71
1 72
1 73
1 74
1 75
1 76
1 77
1 78
1 79
1 80
1 81
1 82
1 83
1 84
1 85
1 86
1 87
1 88
1 89
1 90
1 91
1 92
1 93
1 94
1 95
1 96
1 97
1 98
1 99
1 100
1 101
1 102
1 103
1 104
1 105
1 106
1 107
1 108
1 109
1 110
1 111
1 112
1 113
1 114
1 115
1 116
1 117
1 118
1 119
1 120
1 121
1 122
1 123
1 124
1 125
1 126
1 127
1 128
1 129
1 130
1 131
1 132
1 133
1 134
1 135
1 136
1 137
1 138
1 139
1 140
1 141
1 142
1 143
1 144
1 145
1 146
1 147
1 148
1 149
1 150
1 151
1 152
1 153
1 154
1 155
1 156
1 157
1 158
1 159
1 160
1 161
1 162
1 163
1 164
1 165
1 166
1 167
1 168
1 169
1 170
1 171
1 172
1 173
1 174
1 175
1 176
1 177
1 178
1 179
1 180
1 181
1 182
1 183
1 184
1 185
1 186
1 187
1 188
1 189
1 190
1 191
1 192
1 193
1 194
1 195
1 196
1 197
1 198
1 199
1 200
1 201
1 202
1 203
1 204
1 205
1 206
1 207
1 208
1 209
1 210
1 211
1 212
1 213
1 214
1 215
1 216
1 217
1 218
1 219
1 220
1 221
1 222
1 223
1 224
1 225
1 226
1 227
1 228
1 229
1 230
1 231
1 232
1 233
1 234
1 235
1 236
1 237
1 238
1 239
1 240
1 241
1 242
1 243
1 244
1 245
1 246
1 247
1 248
1 249
1 250
1 251
1 252
1 253
1 254
1 255
1 256
1 257
1 258
1 259
1 260
1 261
1 262
1 263
1 264
1 265
1 266
1 267
1 268
1 269
1 270
1 271
1 272
1 273
1 274
1 275
1 276
1 277
1 278
1 279
1 280
1 281
1 282
1 283
1 284
1 285
1 286
1 287
1 288
1 289
1 290
1 291
1 292
1 293
1 294
1 295
1 296
1 297
1 298
1 299
1 300
1 301
1 302
1 303
1 304
1 305
1 306
1 307
1 308
1 309
1 310
1 311
1 312
1 313
1 314
1 315
1 316
1 317
1 318
1 319
1 320
1 321
1 322
1 323
1 324
1 325
1 326
1 327
1 328
1 329
1 330
1 331
1 332
1 333
1 334
1 335
1 336
1 337
1 338
1 339
1 340
1 341
1 342
1 343
1 344
1 345
1 346
1 347
1 348
1 349
1 350
1 351
1 352
1 353
1 354
1 355
1 356
1 357
1 358
1 359
1 360
1 361
1 362
1 363
1 364
1 365
1 366
1 367
1 368
1 369
1 370
1 371
1 372
1 373
1 374
1 375
1 376
1 377
1 378
1 379
1 380
1 381
1 382
1 383
1 384
1 385
1 386
1 387
1 388
1 389
1 390
1 391
1 392
1 393
1 394
1 395
1 396
1 397
1 398
1 399
1 400
1 401
1 402
1 403
1 404
1 405
1 406
1 407
1 408
1 409
1 410
1 411
1 412
1 413
1 414
1 415
1 416
1 417
1 418
1 419
1 420
1 421
1 422
1 423
1 424
1 425
1 426
1 427
1 428
1 429
1 430
1 431
1 432
1 433
1 434
1 435
1 436
1 437
1 438
1 439
1 440
1 441
1 442
1 443
1 444
1 445
1 446
1 447
1 448
1 449
1 450
1 451
1 452
1 453
1 454
1 455
1 456
1 457
1 458
1 459
1 460
1 461
1 462
1 463
1 464
1 465
1 466
1 467
1 468
1 469
1 470
1 471
1 472
1 473
1 474
1 475
1 476
1 477
1 478
1 479
1 480
1 481
1 482
1 483
1 484
1 485
1 486
1 487
1 488
1 489
1 490
1 491
1 492
1 493
1 494
1 495
1 496
1 497
1 498
1 499
1 500
1 501
1 502
1 503
1 504
1 505
1 506
1 507
1 508
1 509
1 510
1 511
1 512
1 513
1 514
1 515
1 516
1 517
1 518
1 519
1 520
1 521
1 522
1 523
1 524
1 525
1 526
1 527
1 528
1 529
1 530
1 531
1 532
1 533
1 534
1 535
1 536
1 537
1 538
1 539
1 540
1 541
1 542
1 543
1 544
1 545
1 546
1 547
1 548
1 549
1 550
1 551
1 552
1 553
1 554
1 555
1 556
1 557
1 558
1 559
1 560
1 561
1 562
1 563
1 564
1 565
1 566
1 567
1 568
1 569
1 570
1 571
1 572
1 573
1 574
1 575
1 576
1 577
1 578
1 579
1 580
1 581
1 582
1 583
1 584
1 585
1 586
1 587
1 588
1 589
1 590
1 591
1 592
1 593
1 594
1 595
1 596
1 597
1 598
1 599
1 600
1 601
1 602
1 603
1 604
1 605
1 606
1 607
1 608
1 609
1 610
1 611
1 612
1 613
1 614
1 615
1 616
1 617
1 618
1 619
1 620
1 621
1 622
1 623
1 624
1 625
1 626
1 627
1 628
1 629
1 630
1 631
1 632
1 633
1 634
1 635
1 636
1 637
1 638
1 639
1 640
1 641
1 642
1 643
1 644
1 645
1 646
1 647
1 648
1 649
1 650
1 651
1 652
1 653
1 654
1 655
1 656
1 657
1 658
1 659
1 660
1 661
1 662
1 663
1 664
1 665
1 666
1 667
1 668
1 669
1 670
1 671
1 672
1 673
1 674
1 675
1 676
1 677
1 678
1 679
1 680
1 681
1 682
1 683
1 684
1 685
1 686
1 687
1 688
1 689
1 690
1 691
1 692
1 693
1 694
1 695
1 696
1 697
1 698
1 699
1 700
1 701
1 702
1 703
1 704
1 705
1 706
1 707
1 708
1 709
1 710
1 711
1 712
1 713
1 714
1 715
1 716
1 717
1 718
1 719
1 720
1 721
1 722
1 723
1 724
1 725
1 726
1 727
1 728
1 729
1 730
1 731
1 732
1 733
1 734
1 735
1 736
1 737
1 738
1 739
1 740
1 741
1 742
1 743
1 744
1 745
1 746
1 747
1 748
1 749
1 750
1 751
1 752
1 753
1 754
1 755
1 756
1 757
1 758
1 759
1 760
1 761
1 762
1 763
1 764
1 765
1 766
1 767
1 768
1 769
1 770
1 771
1 772
1 773
1 774
1 775
1 776
1 777
1 778
1 779
1 780
1 781
1 782
1 783
1 784
1 785
1 786
1 787
1 788
1 789
1 790
1 791
1 792
1 793
1 794
1 795
1 796
1 797
1 798
1 799
1 800
1 801
1 802
1 803
1 804
1 805
1 806
1 807
1 808
1 809
1 810
1 811
1 812
1 813
1 814
1 815
1 816
1 817
1 818
1 819
1 820
1 821
1 822
1 823
1 824
1 825
1 826
1 827
1 828
1 829
1 830
1 831
1 832
1 833
1 834
1 835
1 836
1 837
1 838
1 839
1 840
1 841
1 842
1 843
1 844
1 845
1 846
1 847
1 848
1 849
1 850
1 851
1 852
1 853
1 854
1 855
1 856
1 857
1 858
1 859
1 860
1 861
1 862
1 863
1 864
1 865
1 866
1 867
1 868
1 869
1 870
1 871
1 872
1 873
1 874
1 875
1 876
1 877
1 878
1 879
1 880
1 881
1 882
1 883
1 884
1 885
1 886
1 887
1 888
1 889
1 890
1 891
1 892
1 893
1 894
1 895
1 896
1 897
1 898
1 899
1 900
1 901
1 902
1 903
1 904
1 905
1 906
1 907
1 908
1 909
1 910
1 911
1 912
1 913
1 914
1 915
1 916
1 917
1 918
1 919
1 920
1 921
1 922
1 923
1 924
1 925
1 926
1 927
1 928
1 929
1 930
1 931
1 932
1 933
1 934
1 935
1 936
1 937
1 938
1 939
1 940
1 941
1 942
1 943
1 944
1 945
1 946
1 947
1 948
1 949
1 950
1 951
1 952
1 953
1 954
1 955
1 956
1 957
1 958
1 959
1 960
1 961
1 962
1 963
1 964
1 965
1 966
1 967
1 968
1 969
1 970
1 971
1 972
1 973
1 974
1 975
1 976
1 977
1 978
1 979
1 980
1 981
1 982
1 983
1 984
1 985
1 986
1 987
1 988
1 989
1 990
1 991
1 992
1 993
1 994
1 995
1 996
1 997
1 998
1 999
1 1000
1 1001
1 1002
1 1003
1 1004
1 1005
1 1006
1 1007
1 1008
1 1009
1 1010
1 1011
1 1012
1 1013
1 1014
1 1015
1 1016
1 1017
1 1018
1 1019
1 1020
1 1021
1 1022
1 1023
1 1024
1 1025
1 1026
1 1027
1 1028
1 1029
1 1030
1 1031
1 1032
1 1033
1 1034
1 1035
1 1036
1 1037
1 1038
1 1039
1 1040
1 1041
1 1042
1 1043
1 1044
1 1045
1 1046
1 1047
1 1048
1 1049
1 1050
1 1051
1 1052
1 1053
1 1054
1 1055
1 1056
1 1057
1 1058
1 1059
1 1060
1 1061
1 1062
1 1063
1 1064
1 1065
1 1066
1 1067
1 1068
1 1069
1 1070
1 1071
1 1072
1 1073
1 1074
1 1075
1 1076
1 1077
1 1078
1 1079
1 1080
1 1081
1 1082
1 1083
1 1084
1 1085
1 1086
1 1087
1 1088
1 1089
1 1090
1 1091
1 1092
1 1093
1 1094
1 1095
1 1096
1 1097
1 1098
1 1099
1 1100
1 1101
1 1102
1 1103
1 1104
1 1105
1 1106
1 1107
1 1108
1 1109
1 1110
1 1111
1 1112
1 1113
1 1114
1 1115
1 1116
1 1117
1 1118
1 1119
1 1120
1 1121
1 1122
1 1123
1 1124
1 1125
1 1126
1 1127
1 1128
1 1129
1 1130
1 1131
1 1132
1 1133
1 1134
1 1135
1 1136
1 1137
1 1138
1 1139
1 1140
1 1141
1 1142
1 1143
1 1144
1 1145
1 1146
1 1147
1 1148
1 1149
1 1150
1 1151
1 1152
1 1153
1 1154
1 1155
1 1156
1 1157
1 1158
1 1159
1 1160
1 1161
1 1162
1 1163
1 1164
1 1165
1 1166
1 1167
1 1168
1 1169
1 1170
1 1171
1 1172
1 1173
1 1174
1 1175
1 1176
1 1177
1 1178
1 1179
1 1180
1 1181
1 1182
1 1183
1 1184
1 1185
1 1186
1 1187
1 1188
1 1189
1 1190
1 1191
1 1192
1 1193
1 1194
1 1195
1 1196
1 1197
1 1198
1 1199
1 1200
1 1201
1 1202
1 1203
1 1204
1 1205
1 1206
1 1207
1 1208
1 1209
1 1210
1 1211
1 1212
1 1213
1 1214
1 1215
1 1216
1 1217
1 1218
1 1219
1 1220
1 1221
1 1222
1 1223
1 1224
1 1225
1 1226
1 1227
1 1228
1 1229
1 1230
1 1231
1 1232
1 1233
1 1234
1 1235
1 1236
1 1237
1 1238
1 1239
1 1240
1 1241
1 1242
1 1243
1 1244
1 1245
1 1246
1 1247
1 1248
1 1249
1 1250
1 1251
1 1252
1 1253
1 1254
1 1255
1 1256
1 1257
1 1258
1 1259
1 1260
1 1261
1 1262
1 1263
1 1264
1 1265
1 1266
1 1267
1 1268
1 1269
1 1270
1 1271
1 1272
1 1273
1 1274
1 1275
1 1276
1 1277
1 1278
1 1279
1 1280
1 1281
1 1282
1 1283
1 1284
1 1285
1 1286
1 1287
1 1288
1 1289
1 1290
1 1291
1 1292
1 1293
1 1294
1 1295
1 1296
1 1297
1 1298
1 1299
1 1300
1 1301
1 1302
1 1303
1 1304
1 1305
1 1306
1 1307
1 1308
1 1309
1 1310
1 1311
1 1312
1 1313
1 1314
1 1315
1 1316
1 1317
1 1318
1 1319
1 1320
1 1321
1 1322
1 1323
1 1324
1 1325
1 1326
1 1327
1 1328
1 1329
1 1330
1 1331
1 1332
1 1333
1 1334
1 1335
1 1336
1 1337
1 1338
1 1339
1 1340
1 1341
1 1342
1 1343
1 1344
1 1345
1 1346
1 1347
1 1348
1 1349
1 1350
1 1351
1 1352
1 1353
1 1354
1 1355
1 1356
1 1357
1 1358
1 1359
1 1360
1 1361
1 1362
1 1363
1 1364
1 1365
1 1366
1 1367
1 1368
1 1369
1 1370
1 1371
1 1372
1 1373
1 1374
1 1375
1 1376
1 1377
1 1378
1 1379
1 1380
1 1381
1 1382
1 1383
1 1384
1 1385
1 1386
1 1387
1 1388
1 1389
1 1390
1 1391
1 1392
1 1393
1 1394
1 1395
1 1396
1 1397
1 1398
1 1399
1 1400
1 1401
1 1402
1 1403
1 1404
1 1405
1 1406
1 1407
1 1408
1 1409
1 1410
1 1411
1 1412
1 1413
1 1414
1 1415
1 1416
1 1417
1 1418
1 1419
1 1420
1 1421
1 1422
1 1423
1 1424
1 1425
1 1426
1 1427
1 1428
1 1429
1 1430
1 1431
1 1432
1 1433
1 1434
1 1435
1 1436
1 1437
1 1438
1 1439
1 1440
1 1441
1 1442
1 1443
1 1444
1 1445
1 1446
1 1447
1 1448
1 1449
1 1450
1 1451
1 1452
1 1453
1 1454
1 1455
1 1456
1 1457
1 1458
1 1459
1 1460
1 1461
1 1462
1 1463
1 1464
1 1465
1 1466
1 1467
1 1468
1 1469
1 1470
1 1471
1 1472
1 1473
1 1474
1 1475
1 1476
1 1477
1 1478
1 1479
1 1480
1 1481
1 1482
1 1483
1 1484
1 1485
1 1486
1 1487
1 1488
1 1489
1 1490
1 1491
1 1492
1 1493
1 1494
1 1495
1 1496
1 1497
1 1498
1 1499
1 1500
1 1501
1 1502
1 1503
1 1504
1 1505
1 1506
1 1507
1 1508
1 1509
1 1510
1 1511
1 1512
1 1513
1 1514
1 1515
1 1516
1 1517
1 1518
1 1519
1 1520
1 1521
1 1522
1 1523
1 1524
1 1525
1 1526
1 1527
1 1528
1 1529
1 1530
1 1531
1 1532
1 1533
1 1534
1 1535
1 1536
1 1537
1 1538
1 1539
1 1540
1 1541
1 1542
1 1543
1 1544
1 1545
1 1546
1 1547
1 1548
1 1549
1 1550
1 1551
1 1552
1 1553
1 1554
1 1555
1 1556
1 1557
1 1558
1 1559
1 1560
1 1561
1 1562
1 1563
1 1564
1 1565
1 1566
1 1567
1 1568
1 1569
1 1570
1 1571
1 1572
1 1573
1 1574
1 1575
1 1576
1 1577
1 1578
1 1579
1 1580
1 1581
1 1582
1 1583
1 1584
1 1585
1 1586
1 1587
1 1588
1 1589
1 1590
1 1591
1 1592
1 1593
1 1594
1 1595
1 1596
1 1597
1 1598
1 1599
1 1600
1 1601
1 1602
1 1603
1 1604
1 1605
1 1606
1 1607
1 1608
1 1609
1 1610
1 1611
1 1612
1 1613
1 1614
1 1615
1 1616
1 1617
1 1618
1 1619
1 1620
1 1621
1 1622
1 1623
1 1624
1 1625
1 1626
1 1627
1 1628
1 1629
1 1630
1 1631
1 1632
1 1633
1 1634
1 1635
1 1636
1 1637
1 1638
1 1639
1 1640
1 1641
1 1642
1 1643
1 1644
1 1645
1 1646
1 1647
1 1648
1 1649
1 1650
1 1651
1 1652
1 1653
1 1654
1 1655
1 1656
1 1657
1 1658
1 1659
1 1660
1 1661
1 1662
1 1663
1 1664
1 1665
1 1666
1 1667
1 1668
1 1669
1 1670
1 1671
1 1672
1 1673
1 1674
1 1675
1 1676
1 1677
1 1678
1 1679
1 1680
1 1681
1 1682
1 1683
1 1684
1 1685
1 1686
1 1687
1 1688
1 1689
1 1690
1 1691
1 1692
1 1693
1 1694
1 1695
1 1696
1 1697
1 1698
1 1699
1 1700
1 1701
1 1702
1 1703
1 1704
1 1705
1 1706
1 1707
1 1708
1 1709
1 1710
1 1711
1 1712
1 1713
1 1714
1 1715
1 1716
1 1717
1 1718
1 1719
1 1720
1 1721
1 1722
1 1723
1 1724
1 1725
1 1726
1 1727
1 1728
1 1729
1 1730
1 1731
1 1732
1 1733
1 1734
1 1735
1 1736
1 1737
1 1738
1 1739
1 1740
1 1741
1 1742
1 1743
1 1744
1 1745
1 1746
1 1747
1 1748
1 1749
1 1750
1 1751
1 1752
1 1753
1 1754
1 1755
1 1756
1 1757
1 1758
1 1759
1 1760
1 1761
1 1762
1 1763
1 1764
1 1765
1 1766
1 1767
1 1768
1 1769
1 1770
1 1771
1 1772
1 1773
1 1774
1 1775
1 1776
1 1777
1 1778
1 1779
1 1780
1 1781
1 1782
1 1783
1 1784
1 1785
1 1786
1 1787
1 1788
1 1789
1 1790
1 1791
1 1792
1 1793
1 1794
1 1795
1 1796
1 1797
1 1798
1 1799
1 1800
1 1801
1 1802
1 1803
1 1804
1 1805
1 1806
1 1807
1 1808
1 1809
1 1810
1 1811
1 1812
1 1813
1 1814
1 1815
1 1816
1 1817
1 1818
1 1819
1 1820
1 1821
1 1822
1 1823
1 1824
1 1825
1 1826
1 1827
1 1828
1 1829
1 1830
1 1831
1 1832
1 1833
1 1834
1 1835
1 1836
1 1837
1 1838
1 1839
1 1840
1 1841
1 1842
1 1843
1 1844
1 1845
1 1846
1 1847
1 1848
1 1849
1 1850
1 1851
1 1852
1 1853
1 1854
1 1855
1 1856
1 1857
1 1858
1 1859
1 1860
1 1861
1 1862
1 1863
1 1864
1 1865
1 1866
1 1867
1 1868
1 1869
1 1870
1 1871
1 1872
1 1873
1 1874
1 1875
1 1876
1 1877
1 1878
1 1879
1 1880
1 1881
1 1882
1 1883
1 1884
1 1885
1 1886
1 1887
1 1888
1 1889
1 1890
1 1891
1 1892
1 1893
1 1894
1 1895
1 1896
1 1897
1 1898
1 1899
1 1900
1 1901
1 1902
1 1903
1 1904
1 1905
1 1906
1 1907
1 1908
1 1909
1 1910
1 1911
1 1912
1 1913
1 1914
1 1915
1 1916
1 1917
1 1918
1 1919
1 1920
1 1921
1 1922
1 1923
1 1924
1 1925
1 1926
1 1927
1 1928
1 1929
1 1930
1 1931
1 1932
1 1933
1 1934
1 1935
1 1936
1 1937
1 1938
1 1939
1 1940
1 1941
1 1942
1 1943
1 1944
1 1945
1 1946
1 1947
1 1948
1 1949
1 1950
1 1951
1 1952
1 1953
1 1954
1 1955
1 1956
1 1957
1 1958
1 1959
1 1960
1 1961
1 1962
1 1963
1 1964
1 1965
1 1966
1 1967
1 1968
1 1969
1 1970
1 1971
1 1972
1 1973
1 1974
1 1975
1 1976
1 1977
1 1978
1 1979
1 1980
1 1981
1 1982
1 1983
1 1984
1 1985
1 1986
1 1987
1 1988
1 1989
1 1990
1 1991
1 1992
1 1993
1 1994
1 1995
1 1996
1 1997
1 1998
1 1999
1 2000
1 2001
1 2002
1 2003
1 2004
1 2005
1 2006
1 2007
1 2008
1 2009
1 2010
1 2011
1 2012
1 2013
1 2014
1 2015
1 2016
1 2017
1 2018
1 2019
1 2020
1 2021
1 2022
1 2023
1 2024
1 2025
1 2026
1 2027
1 2028
1 2029
1 2030
1 2031
1 2032
1 2033
1 2034
1 2035
1 2036
1 2037
1 2038
1 2039
1 2040
1 2041
1 2042
1 2043
1 2044
1 2045
1 2046
1 2047
1 2048
1 2049
1 2050
1 2051
1 2052
1 2053
1 2054
1 2055
1 2056
1 2057
1 2058
1 2059
1 2060
1 2061
1 2062
1 2063
1 2064
1 2065
1 2066
1 2067
1 2068
1 2069
1 2070
1 2071
1 2072
1 2073
1 2074
1 2075
1 2076
1 2077
1 2078
1 2079
1 2080
1 2081
1 2082
1 2083
1 2084
1 2085
1 2086
1 2087
1 2088
1 2089
1 2090
1 2091
1 2092
1 2093
1 2094
1 2095
1 2096
1 2097
1 2098
1 2099
1 2100
1 2101
1 2102
1 2103
1 2104
1 2105
1 2106
1 2107
1 2108
1 2109
1 2110
1 2111
1 2112
1 2113
1 2114
1 2115
1 2116
1 2117
1 2118
1 2119
1 2120
1 2121
1 2122
1 2123
1 2124
1 2125
1 2126
1 2127
1 2128
1 2129
1 2130
1 2131
1 2132
1 2133
1 2134
1 2135
1 2136
1 2137
1 2138
1 2139
1 2140
1 2141
1 2142
1 2143
1 2144
1 2145
1 2146
1 2147
1 2148
1 2149
1 2150
1 2151
1 2152
1 2153
1 2154
1 2155
1 2156
1 2157
1 2158
1 2159
1 2160
1 2161
1 2162
1 2163
1 2164
1 2165
1 2166
1 2167
1 2168
1 2169
1 2170
1 2171
1 2172
1 2173
1 2174
1 2175
1 2176
1 2177
1 2178
1 2179
1 2180
1 2181
1 2182
1 2183
1 2184
1 2185
1 2186
1 2187
1 2188
1 2189
1 2190
1 2191
1 2192
1 2193
1 2194
1 2195
1 2196
1 2197
1 2198
1 2199
1 2200
1 2201
1 2202
1 2203
1 2204
1 2205
1 2206
1 2207
1 2208
1 2209
1 2210
1 2211
1 2212
1 2213
1 2214
1 2215
1 2216
1 2217
1 2218
1 2219
1 2220
1 2221
1 2222
1 2223
1 2224
1 2225
1 2226
1 2227
1 2228
1 2229
1 2230
1 2231
1 2232
1 2233
1 2234
1 2235
1 2236
1 2237
1 2238
1 2239
1 2240
1 2241
1 2242
1 2243
1 2244
1 2245
1 2246
1 2247
1 2248
1 2249
1 2250
1 2251
1 2252
1 2253
1 2254
1 2255
1 2256
1 2257
1 2258
1 2259
1 2260
1 2261
1 2262
1 2263
1 2264
1 2265
1 2266
1 2267
1 2268
1 2269
1 2270
1 2271
1 2272
1 2273
1 2274
1 2275
1 2276
1 2277
1 2278
1 2279
1 2280
1 2281
1 2282
1 2283
1 2284
1 2285
1 2286
1 2287
1 2288
1 2289
1 2290
1 2291
1 2292
1 2293
1 2294
1 2295
1 2296
1 2297
1 2298
1 2299
1 2300
1 2301
1 2302
1 2303
1 2304
1 2305
1 2306
1 2307
1 2308
1 2309
1 2310
1 2311
1 2312
1 2313
1 2314
1 2315
1 2316
1 2317
1 2318
1 2319
1 2320
1 2321
1 2322
1 2323
1 2324
1 2325
1 2326
1 2327
1 2328
1 2329
1 2330
1 2331
1 2332
1 2333
1 2334
1 2335
1 2336
1 2337
1 2338
1 2339
1 2340
1 2341
1 2342
1 2343
1 2344
1 2345
1 2346
1 2347
1 2348
1 2349
1 2350
1 2351
1 2352
1 2353
1 2354
1 2355
1 2356
1 2357
1 2358
1 2359
1 2360
1 2361
1 2362
1 2363
1 2364
1 2365
1 2366
1 2367
1 2368
1 2369
1 2370
1 2371
1 2372
1 2373
1 2374
1 2375
1 2376
1 2377
1 2378
1 2379
1 2380
1 2381
1 2382
1 2383
1 2384
1 2385
1 2386
1 2387
1 2388
1 2389
1 2390
1 2391
1 2392
1 2393
1 2394
1 2395
1 2396
1 2397
1 2398
1 2399
1 2400
1 2401
1 2402
1 2403
1 2404
1 2405
1 2406
1 2407
1 2408
1 2409
1 2410
1 2411
1 2412
1 2413
1 2414
1 2415
1 2416
1 2417
1 2418
1 2419
1 2420
1 2421
1 2422
1 2423
1 2424
1 2425
1 2426
1 2427
1 2428
1 2429
1 2430
1 2431
1 2432
1 2433
1 2434
1 2435
1 2436
1 2437
1 2438
1 2439
1 2440
1 2441
1 2442
1 2443
1 2444
1 2445
1 2446
1 2447
1 2448
1 2449
1 2450
1 2451
1 2452
1 2453
1 2454
1 2455
1 2456
1 2457
1 2458
1 2459
1 2460
1 2461
1 2462
1 2463
1 2464
1 2465
1 2466
1 2467
1 2468
1 2469
1 2470
1 2471
1 2472
1 2473
1 2474
1 2475
1 2476
1 2477
1 2478
1 2479
1 2480
1 2481
1 2482
1 2483
1 2484
1 2485
1 2486
1 2487
1 2488
1 2489
1 2490
1 2491
1 2492
1 2493
1 2494
1 2495
1 2496
1 2497
1 2498
1 2499
1 2500
1 2501
1 2502
1 2503
1 2504
1 2505
1 2506
1 2507
1 2508
1 2509
1 2510
1 2511
1 2512
1 2513
1 2514
1 2515
1 2516
1 2517
1 2518
1 2519
1 2520
1 2521
1 2522
1 2523
1 2524
1 2525
1 2526
1 2527
1 2528
1 2529
1 2530
1 2531
1 2532
1 2533
1 2534
1 2535
1 2536
1 2537
1 2538
1 2539
1 2540
1 2541
1 2542
1 2543
1 2544
1 2545
1 2546
1 2547
1 2548
1 2549
1 2550
1 2551
1 2552
1 2553
1 2554
1 2555
1 2556
1 2557
1 2558
1 2559
1 2560
1 2561
1 2562
1 2563
1 2564
1 2565
1 2566
1 2567
1 2568
1 2569
1 2570
1 2571
1 2572
1 2573
1 2574
1 2575
1 2576
1 2577
1 2578
1 2579
1 2580
1 2581
1 2582
1 2583
1 2584
1 2585
1 2586
1 2587
1 2588
1 2589
1 2590
1 2591
1 2592
1 2593
1 2594
1 2595
1 2596
1 2597
1 2598
1 2599
1 2600
1 2601
1 2602
1 2603
1 2604
1 2605
1 2606
1 2607
1 2608
1 2609
1 2610
1 2611
1 2612
1 2613
1 2614
1 2615
1 2616
1 2617
1 2618
1 2619
1 2620
1 2621
1 2622
1 2623
1 2624
1 2625
1 2626
1 2627
1 2628
1 2629
1 2630
1 2631
1 2632
1 2633
1 2634
1 2635
1 2636
1 2637
1 2638
1 2639
1 2640
1 2641
1 2642
1 2643
1 2644
1 2645
1 2646
1 2647
1 2648
1 2649
1 2650
1 2651
1 2652
1 2653
1 2654
1 2655
1 2656
1 2657
1 2658
1 2659
1 2660
1 2661
1 2662
1 2663
1 2664
1 2665
1 2666
1 2667
1 2668
1 2669
1 2670
1 2671
1 2672
1 2673
1 2674
1 2675
1 2676
1 2677
1 2678
1 2679
1 2680
1 2681
1 2682
1 2683
1 2684
1 2685
1 2686
1 2687
1 2688
1 2689
1 2690
1 2691
1 2692
1 2693
1 2694
1 2695
1 2696
1 2697
1 2698
1 2699
1 2700
1 2701
1 2702
1 2703
1 2704
1 2705
1 2706
1 2707
1 2708
1 2709
1 2710
1 2711
1 2712
1 2713
1 2714
1 2715
1 2716
1 2717
1 2718
1 2719
1 2720
1 2721
1 2722
1 2723
1 2724
1 2725
1 2726
1 2727
1 2728
1 2729
1 2730
1 2731
1 2732
1 2733
1 2734
1 2735
1 2736
1 2737
1 2738
1 2739
1 2740
1 2741
1 2742
1 2743
1 2744
1 2745
1 2746
1 2747
1 2748
1 2749
1 2750
1 2751
1 2752
1 2753
1 2754
1 2755
1 2756
1 2757
1 2758
1 2759
1 2760
1 2761
1 2762
1 2763
1 2764
1 2765
1 2766
1 2767
1 2768
1 2769
1 2770
1 2771
1 2772
1 2773
1 2774
1 2775
1 2776
1 2777
1 2778
1 2779
1 2780
1 2781
1 2782
1 2783
1 2784
1 2785
1 2786
1 2787
1 2788
1 2789
1 2790
1 2791
1 2792
1 2793
1 2794
1 2795
1 2796
1 2797
1 2798
1 2799
1 2800
1 2801
1 2802
1 2803
1 2804
1 2805
1 2806
1 2807
1 2808
1 2809
1 2810
1 2811
1 2812
1 2813
1 2814
1 2815
1 2816
1 2817
1 2818
1 2819
1 2820
1 2821
1 2822
1 2823
1 2824
1 2825
1 2826
1 2827
1 2828
1 2829
1 2830
1 2831
1 2832
1 2833
1 2834
1 2835
1 2836
1 2837
1 2838
1 2839
1 2840
1 2841
1 2842
1 2843
1 2844
1 2845
1 2846
1 2847
1 2848
1 2849
1 2850
1 2851
1 2852
1 2853
1 2854
1 2855
1 2856
1 2857
1 2858
1 2859
1 2860
1 2861
1 2862
1 2863
1 2864
1 2865
1 2866
1 2867
1 2868
1 2869
1 2870
1 2871
1 2872
1 2873
1 2874
1 2875
1 2876
1 2877
1 2878
1 2879
1 2880
1 2881
1 2882
1 2883
1 2884
1 2885
1 2886
1 2887
1 2888
1 2889
1 2890
1 2891
1 2892
1 2893
1 2894
1 2895
1 2896
1 2897
1 2898
1 2899
1 2900
1 2901
1 2902
1 2903
1 2904
1 2905
1 2906
1 2907
1 2908
1 2909
1 2910
1 2911
1 2912
1 2913
1 2914
1 2915
1 2916
1 2917
1 2918
1 2919
1 2920
1 2921
1 2922
1 2923
1 2924
1 2925
1 2926
1 2927
1 2928
1 2929
1 2930
1 2931
1 2932
1 2933
1 2934
1 2935
1 2936
1 2937
1 2938
1 2939
1 2940
1 2941
1 2942
1 2943
1 2944
1 2945
1 2946
1 2947
1 2948
1 2949
1 2950
1 2951
1 2952
1 2953
1 2954
1 2955
1 2956
1 2957
1 2958
1 2959
1 2960
1 2961
1 2962
1 2963
1 2964
1 2965
1 2966
1 2967
1 2968
1 2969
1 2970
1 2971
1 2972
1 2973
1 2974
POINT_DATA 2975
SCALARS Idp unsigned_int
LOOKUP_TABLE default
0 1 39 40 41 80 81 82 121 122 123 162 163 164 203 204 205 244 245 246 285 286 287 326 327 328 367 368 369 408 409 410 449 450 451 461 462 463 471 472 473 481 482 483 491 492 493 501 502 503 511 512 513 521 522 523 531 532 533 541 542 543 551 552 2 3 4 5 6 7 8 9 42 43 44 45 46 47 48 49 83 84 85 86 87 88 89 90 124 125 126 127 128 129 130 131 165 166 167 168 169 170 171 172 206 207 208 209 210 211 212 213 247 248 249 250 251 252 253 254 288 289 290 291 292 293 294 295 329 330 331 332 333 334 335 336 370 371 372 373 374 375 376 377 411 412 413 414 415 416 417 418 452 453 454 464 465 474 475 484 485 494 495 504 505 514 515 524 525 534 535 544 545 553 554 10 11 12 13 14 15 16 17 18 50 51 52 53 54 55 56 57 58 91 92 93 94 95 96 97 98 99 132 133 134 135 136 137 138 139 140 173 174 175 176 177 178 179 180 181 214 215 216 217 218 219 220 221 222 255 256 257 258 259 260 261 262 263 296 297 298 299 300 301 302 303 304 337 338 339 340 341 342 343 344 345 378 379 380 381 382 383 384 385 386 419 420 421 422 423 424 425 426 427 19 20 21 22 23 24 25 26 59 60 61 62 63 64 65 66 100 101 102 103 104 105 106 107 141 142 143 144 145 146 147 148 182 183 184 185 186 187 188 189 223 224 225 226 227 228 229 230 264 265 266 267 268 269 270 271 305 306 307 308 309 310 311 312 346 347 348 349 350 351 352 353 387 388 389 390 391 392 393 394 428 429 430 431 432 433 434 435 27 28 29 30 31 32 33 34 35 67 68 69 70 71 72 73 74 75 108 109 110 111 112 113 114 115 116 149 150 151 152 153 154 155 156 157 190 191 192 193 194 195 196 197 198 231 232 233 234 235 236 237 238 239 272 273 274 275 276 277 278 279 280 313 314 315 316 317 318 319 320 321 354 355 356 357 358 359 360 361 362 395 396 397 398 399 400 401 402 403 436 437 438 439 440 441 442 443 444 455 456 466 476 486 496 506 516 526 536 546 555 36 37 38 76 77 78 79 117 118 119 120 158 159 160 161 199 200 201 202 240 241 242 243 281 282 283 284 322 323 324 325 363 364 365 366 404 405 406 407 445 446 447 448 457 458 459 460 467 468 469 470 477 478 479 480 487 488 489 490 497 498 499 500 507 508 509 510 517 518 519 520 527 528 529 530 537 538 539 540 547 548 549 550 556 557 558 559 560 561 562 563 564 565 566 567 568 569 570 571 572 573 574 575 576 577 578 579 580 581 582 583 584 585 586 587 588 589 590 591 592 593 594 595 596 597 598 599 600 601 602 603 604 605 606 607 608 609 610 611 612 613 614 615 616 617 618 619 620 621 622 623 624 625 626 627 628 629 630 631 632 633 634 635 636 637 638 639 640 641 642 643 644 645 646 647 648 649 650 651 652 653 654 655 656 657 658 659 660 661 662 663 664 665 666 667 668 669 670 671 672 673 674 675 676 677 678 679 680 681 682 683 684 685 686 687 688 689 690 691 692 693 694 695 696 697 698 699 700 701 702 703 704 705 706 707 708 709 710 711 712 713 714 715 716 717 718 719 720 721 722 723 724 725 726 727 728 729 730 731 732 733 734 735 736 737 738 739 740 741 742 743 744 745 746 747 748 749 750 751 752 753 754 755 756 757 758 759 760 761 762 763 764 765 766 767 768 769 770 771 772 773 774 775 776 777 778 779 780 781 782 783 784 785 786 787 788 789 790 791 792 793 794 795 796 797 798 799 800 801 802 803 804 805 806 807 808 809 810 811 812 813 814 815 816 817 818 819 820 821 822 823 824 825 826 827 828 829 830 831 832 833 834 835 836 837 838 839 840 841 842 843 844 845 846 847 848 849 850 851 852 853 854 855 856 857 858 859 860 861 862 863 864 865 866 867 868 869 870 871 872 873 874 875 876 877 878 879 880 881 882 883 884 885 886 887 888 889 890 891 892 893 894 895 896 897 898 899 900 901 902 903 904 905 906 907 908 909 910 911 912 913 914 915 916 917 918 919 920 921 922 923 924 925 926 927 928 929 930 931 932 933 934 935 936 937 938 939 940 941 942 943 944 945 946 947 948 949 950 951 952 953 954 955 956 957 958 959 960 961 962 963 964 965 966 967 968 969 970 971 972 973 974 975 976 977 978 979 980 981 982 983 984 985 986 987 988 989 990 991 992 993 994 995 996 997 998 999 1000 1001 1002 1003 1004 1005 1006 1007 1008 1009 1010 1011 1012 1013 1014 1015 1016 1017 1018 1019 1020 1021 1022 1023 1024 1025 1026 1027 1028 1029 1030 1031 1032 1033 1034 1035 1060 1061 1062 1063 1064 1065 1091 1092 1093 1094 1095 1096 1122 1123 1124 1125 1126 1127 1153 1154 1155 1156 1157 1158 1184 1185 1186 1187 1188 1189 1215 1216 1217 1218 1219 1220 1246 1247 1248 1249 1250 1251 1277 1278 1279 1280 1281 1282 1308 1309 1310 1311 1312 1313 1339 1340 1341 1342 1343 1344 1370 1371 1372 1373 1374 1375 1401 1402 1403 1404 1405 1406 1432 1433 1434 1435 1436 1437 1463 1464 1465 1466 1467 1468 1494 1495 1496 1497 1498 1499 1525 1526 1527 1528 1529 1530 1556 1557 1558 1559 1560 1561 1587 1588 1589 1590 1591 1592 1618 1619 1620 1621 1622 1623 1649 1650 1651 1652 1653 1654 1680 1681 1682 1683 1684 1685 1711 1712 1713 1714 1715 1716 1742 1743 1744 1745 1746 1747 1773 1774 1775 1776 1777 1778 1804 1805 1806 1807 1808 1809 1835 1836 1837 1838 1839 1840 1866 1867 1868 1869 1870 1871 1897 1898 1899 1900 1901 1902 1928 1929 1930 1931 1932 1933 1959 1960 1961 1962 1963 1964 1990 1991 1992 1993 1994 1995 2021 2022 2023 2024 2025 2026 2052 2053 2054 2055 2056 2057 2083 2084 2085 2086 2087 2088 2114 2115 2116 2117 2118 2119 2145 2146 2147 2148 2149 2150 2176 2177 2178 2179 2180 2181 2207 2208 2209 2210 2211 2212 2238 2239 2240 2241 2242 2243 2269 2270 2271 2272 2273 2274 2300 2301 2302 2303 2304 2305 2331 2332 2333 2334 2335 2336 2362 2363 2364 2365 2366 2367 2393 2394 2395 2396 2397 2398 2424 2425 2426 2427 2428 2429 2455 2456 2457 2458 2459 2460 2486 2487 2488 2489 2490 2491 2517 2518 2519 2520 2521 2522 2548 2549 2550 2551 2552 2553 2579 2580 2581 2582 2583 2584 2610 2611 2612 2613 2614 2615 2641 2642 2643 2644 2645 2646 2672 2673 2674 2675 2676 2677 2703 2704 2705 2706 2707 2708 2734 2735 2736 2737 2738 2763 2764 2765 2766 2767 2792 2793 2794 2795 2819 2820 2821 2822 2846 2847 2848 2871 2872 2894 2895 1036 1037 1038 1039 1040 1041 1042 1043 1044 1066 1067 1068 1069 1070 1071 1072 1073 1074 1097 1098 1099 1100 1101 1102 1103 1104 1105 1128 1129 1130 1131 1132 1133 1134 1135 1136 1159 1160 1161 1162 1163 1164 1165 1166 1167 1190 1191 1192 1193 1194 1195 1196 1197 1198 1221 1222 1223 1224 1225 1226 1227 1228 1229 1252 1253 1254 1255 1256 1257 1258 1259 1260 1283 1284 1285 1286 1287 1288 1289 1290 1291 1314 1315 1316 1317 1318 1319 1320 1321 1322 1345 1346 1347 1348 1349 1350 1351 1352 1353 1376 1377 1378 1379 1380 1381 1382 1383 1384 1407 1408 1409 1410 1411 1412 1413 1414 1415 1438 1439 1440 1441 1442 1443 1444 1445 1446 1469 1470 1471 1472 1473 1474 1475 1476 1477 1500 1501 1502 1503 1504 1505 1506 1507 1508 1531 1532 1533 1534 1535 1536 1537 1538 1539 1562 1563 1564 1565 1566 1567 1568 1569 1570 1593 1594 1595 1596 1597 1598 1599 1600 1601 1624 1625 1626 1627 1628 1629 1630 1631 1632 1655 1656 1657 1658 1659 1660 1661 1662 1663 1686 1687 1688 1689 1690 1691 1692 1693 1694 1717 1718 1719 1720 1721 1722 1723 1724 1725 1748 1749 1750 1751 1752 1753 1754 1755 1756 1779 1780 1781 1782 1783 1784 1785 1786 1787 1810 1811 1812 1813 1814 1815 1816 1817 1818 1841 1842 1843 1844 1845 1846 1847 1848 1849 1872 1873 1874 1875 1876 1877 1878 1879 1880 1903 1904 1905 1906 1907 1908 1909 1910 1911 1934 1935 1936 1937 1938 1939 1940 1941 1942 1965 1966 1967 1968 1969 1970 1971 1972 1973 1996 1997 1998 1999 2000 2001 2002 2003 2004 2027 2028 2029 2030 2031 2032 2033 2034 2035 2058 2059 2060 2061 2062 2063 2064 2065 2066 2089 2090 2091 2092 2093 2094 2095 2096 2097 2120 2121 2122 2123 2124 2125 2126 2127 2128 2151 2152 2153 2154 2155 2156 2157 2158 2159 2182 2183 2184 2185 2186 2187 2188 2189 2190 2213 2214 2215 2216 2217 2218 2219 2220 2221 2244 2245 2246 2247 2248 2249 2250 2251 2252 2275 2276 2277 2278 2279 2280 2281 2282 2283 2306 2307 2308 2309 2310 2311 2312 2313 2314 2337 2338 2339 2340 2341 2342 2343 2344 2345 2368 2369 2370 2371 2372 2373 2374 2375 2376 2399 2400 2401 2402 2403 2404 2405 2406 2407 2430 2431 2432 2433 2434 2435 2436 2437 2438 2461 2462 2463 2464 2465 2466 2467 2468 2469 2492 2493 2494 2495 2496 2497 2498 2499 2500 2523 2524 2525 2526 2527 2528 2529 2530 2531 2554 2555 2556 2557 2558 2559 2560 2561 2562 2585 2586 2587 2588 2589 2590 2591 2592 2593 2616 2617 2618 2619 2620 2621 2622 2623 2624 2647 2648 2649 2650 2651 2652 2653 2654 2655 2678 2679 2680 2681 2682 2683 2684 2685 2686 2709 2710 2711 2712 2713 2714 2715 2716 2717 2739 2740 2741 2742 2743 2744 2745 2746 2747 2768 2769 2770 2771 2772 2773 2774 2775 2776 2796 2797 2798 2799 2800 2801 2802 2803 2804 2823 2824 2825 2826 2827 2828 2829 2830 2831 2849 2850 2851 2852 2853 2854 2855 2856 2857 2873 2874 2875 2876 2877 2878 2879 2880 2881 2896 2897 2898 2899 2900 2901 2902 2903 2904 2917 2918 2919 2920 2921 2922 2923 2924 2925 2936 2937 2938 2939 2940 2941 2942 2943 2953 2954 2955 2956 2957 2958 2966 2967 2968 2969 1045 1046 1047 1048 1049 1050 1051 1052 1075 1076 1077 1078 1079 1080 1081 1082 1106 1107 1108 1109 1110 1111 1112 1113 1137 1138 1139 1140 1141 1142 1143 1144 1168 1169 1170 1171 1172 1173 1174 1175 1199 1200 1201 1202 1203 1204 1205 1206 1230 1231 1232 1233 1234 1235 1236 1237 1261 1262 1263 1264 1265 1266 1267 1268 1292 1293 1294 1295 1296 1297 1298 1299 1323 1324 1325 1326 1327 1328 1329 1330 1354 1355 1356 1357 1358 1359 1360 1361 1385 1386 1387 1388 1389 1390 1391 1392 1416 1417 1418 1419 1420 1421 1422 1423 1447 1448 1449 1450 1451 1452 1453 1454 1478 1479 1480 1481 1482 1483 1484 1485 1509 1510 1511 1512 1513 1514 1515 1516 1540 1541 1542 1543 1544 1545 1546 1547 1571 1572 1573 1574 1575 1576 1577 1578 1602 1603 1604 1605 1606 1607 1608 1609 1633 1634 1635 1636 1637 1638 1639 1640 1664 1665 1666 1667 1668 1669 1670 1671 1695 1696 1697 1698 1699 1700 1701 1702 1726 1727 1728 1729 1730 1731 1732 1733 1757 1758 1759 1760 1761 1762 1763 1764 1788 1789 1790 1791 1792 1793 1794 1795 1819 1820 1821 1822 1823 1824 1825 1826 1850 1851 1852 1853 1854 1855 1856 1857 1881 1882 1883 1884 1885 1886 1887 1888 1912 1913 1914 1915 1916 1917 1918 1919 1943 1944 1945 1946 1947 1948 1949 1950 1974 1975 1976 1977 1978 1979 1980 1981 2005 2006 2007 2008 2009 2010 2011 2012 2036 2037 2038 2039 2040 2041 2042 2043 2067 2068 2069 2070 2071 2072 2073 2074 2098 2099 2100 2101 2102 2103 2104 2105 2129 2130 2131 2132 2133 2134 2135 2136 2160 2161 2162 2163 2164 2165 2166 2167 2191 2192 2193 2194 2195 2196 2197 2198 2222 2223 2224 2225 2226 2227 2228 2229 2253 2254 2255 2256 2257 2258 2259 2260 2284 2285 2286 2287 2288 2289 2290 2291 2315 2316 2317 2318 2319 2320 2321 2322 2346 2347 2348 2349 2350 2351 2352 2353 2377 2378 2379 2380 2381 2382 2383 2384 2408 2409 2410 2411 2412 2413 2414 2415 2439 2440 2441 2442 2443 2444 2445 2446 2470 2471 2472 2473 2474 2475 2476 2477 2501 2502 2503 2504 2505 2506 2507 2508 2532 2533 2534 2535 2536 2537 2538 2539 2563 2564 2565 2566 2567 2568 2569 2570 2594 2595 2596 2597 2598 2599 2600 2601 2625 2626 2627 2628 2629 2630 2631 2632 2656 2657 2658 2659 2660 2661 2662 2663 2687 2688 2689 2690 2691 2692 2693 2694 2718 2719 2720 2721 2722 2723 2724 2725 2748 2749 2750 2751 2752 2753 2754 2755 2777 2778 2779 2780 2781 2782 2783 2784 2805 2806 2807 2808 2809 2810 2811 2812 2832 2833 2834 2835 2836 2837 2838 2839 2858 2859 2860 2861 2862 2863 2864 2865 2882 2883 2884 2885 2886 2887 2888 2889 2905 2906 2907 2908 2909 2910 2911 2912 2926 2927 2928 2929 2930 2931 2932 2933 2944 2945 2946 2947 2948 2949 2950 2951 2959 2960 2961 2962 2963 2964 2965 2970 2971 2972 2973 2974 1053 1054 1055 1056 1057 1058 1059 1083 1084 1085 1086 1087 1088 1089 1090 1114 1115 1116 1117 1118 1119 1120 1121 1145 1146 1147 1148 1149 1150 1151 1152 1176 1177 1178 1179 1180 1181 1182 1183 1207 1208 1209 1210 1211 1212 1213 1214 1238 1239 1240 1241 1242 1243 1244 1245 1269 1270 1271 1272 1273 1274 1275 1276 1300 1301 1302 1303 1304 1305 1306 1307 1331 1332 1333 1334 1335 1336 1337 1338 1362 1363 1364 1365 1366 1367 1368 1369 1393 1394 1395 1396 1397 1398 1399 1400 1424 1425 1426 1427 1428 1429 1430 1431 1455 1456 1457 1458 1459 1460 1461 1462 1486 1487 1488 1489 1490 1491 1492 1493 1517 1518 1519 1520 1521 1522 1523 1524 1548 1549 1550 1551 1552 1553 1554 1555 1579 1580 1581 1582 1583 1584 1585 1586 1610 1611 1612 1613 1614 1615 1616 1617 1641 1642 1643 1644 1645 1646 1647 1648 1672 1673 1674 1675 1676 1677 1678 1679 1703 1704 1705 1706 1707 1708 1709 1710 1734 1735 1736 1737 1738 1739 1740 1741 1765 1766 1767 1768 1769 1770 1771 1772 1796 1797 1798 1799 1800 1801 1802 1803 1827 1828 1829 1830 1831 1832 1833 1834 1858 1859 1860 1861 1862 1863 1864 1865 1889 1890 1891 1892 1893 1894 1895 1896 1920 1921 1922 1923 1924 1925 1926 1927 1951 1952 1953 1954 1955 1956 1957 1958 1982 1983 1984 1985 1986 1987 1988 1989 2013 2014 2015 2016 2017 2018 2019 2020 2044 2045 2046 2047 2048 2049 2050 2051 2075 2076 2077 2078 2079 2080 2081 2082 2106 2107 2108 2109 2110 2111 2112 2113 2137 2138 2139 2140 2141 2142 2143 2144 2168 2169 2170 2171 2172 2173 2174 2175 2199 2200 2201 2202 2203 2204 2205 2206 2230 2231 2232 2233 2234 2235 2236 2237 2261 2262 2263 2264 2265 2266 2267 2268 2292 2293 2294 2295 2296 2297 2298 2299 2323 2324 2325 2326 2327 2328 2329 2330 2354 2355 2356 2357 2358 2359 2360 2361 2385 2386 2387 2388 2389 2390 2391 2392 2416 2417 2418 2419 2420 2421 2422 2423 2447 2448 2449 2450 2451 2452 2453 2454 2478 2479 2480 2481 2482 2483 2484 2485 2509 2510 2511 2512 2513 2514 2515 2516 2540 2541 2542 2543 2544 2545 2546 2547 2571 2572 2573 2574 2575 2576 2577 2578 2602 2603 2604 2605 2606 2607 2608 2609 2633 2634 2635 2636 2637 2638 2639 2640 2664 2665 2666 2667 2668 2669 2670 2671 2695 2696 2697 2698 2699 2700 2701 2702 2726 2727 2728 2729 2730 2731 2732 2733 2756 2757 2758 2759 2760 2761 2762 2785 2786 2787 2788 2789 2790 2791 2813 2814 2815 2816 2817 2818 2840 2841 2842 2843 2844 2845 2866 2867 2868 2869 2870 2890 2891 2892 2893 2913 2914 2915 2916 2934 2935 2952 
FIELD FieldData 12
Idp 1 2975 float
0 1 39 40 41 80 81 82 121 122 123 162 163 164 203 204 205 244 245 246 285 286 287 326 327 328 367 368 369 408 409 410 449 450 451 461 462 463 471 472 473 481 482 483 491 492 493 501 502 503 511 512 513 521 522 523 531 532 533 541 542 543 551 552 2 3 4 5 6 7 8 9 42 43 44 45 46 47 48 49 83 84 85 86 87 88 89 90 124 125 126 127 128 129 130 131 165 166 167 168 169 170 171 172 206 207 208 209 210 211 212 213 247 248 249 250 251 252 253 254 288 289 290 291 292 293 294 295 329 330 331 332 333 334 335 336 370 371 372 373 374 375 376 377 411 412 413 414 415 416 417 418 452 453 454 464 465 474 475 484 485 494 495 504 505 514 515 524 525 534 535 544 545 553 554 10 11 12 13 14 15 16 17 18 50 51 52 53 54 55 56 57 58 91 92 93 94 95 96 97 98 99 132 133 134 135 136 137 138 139 140 173 174 175 176 177 178 179 180 181 214 215 216 217 218 219 220 221 222 255 256 257 258 259 260 261 262 263 296 297 298 299 300 301 302 303 304 337 338 339 340 341 342 343 344 345 378 379 380 381 382 383 384 385 386 419 420 421 422 423 424 425 426 427 19 20 21 22 23 24 25 26 59 60 61 62 63 64 65 66 100 101 102 103 104 105 106 107 141 142 143 144 145 146 147 148 182 183 184 185 186 187 188 189 223 224 225 226 227 228 229 230 264 265 266 267 268 269 270 271 305 306 307 308 309 310 311 312 346 347 348 349 350 351 352 353 387 388 389 390 391 392 393 394 428 429 430 431 432 433 434 435 27 28 29 30 31 32 33 34 35 67 68 69 70 71 72 73 74 75 108 109 110 111 112 113 114 115 116 149 150 151 152 153 154 155 156 157 190 191 192 193 194 195 196 197 198 231 232 233 234 235 236 237 238 239 272 273 274 275 276 277 278 279 280 313 314 315 316 317 318 319 320 321 354 355 356 357 358 359 360 361 362 395 396 397 398 399 400 401 402 403 436 437 438 439 440 441 442 443 444 455 456 466 476 486 496 506 516 526 536 546 555 36 37 38 76 77 78 79 117 118 119 120 158 159 160 161 199 200 201 202 240 241 242 243 281 282 283 284 322 323 324 325 363 364 365 366 404 405 406 407 445 446 447 448 457 458 459 460 467 468 469 470 477 478 479 480 487 488 489 490 497 498 499 500 507 508 509 510 517 518 519 520 527 528 529 530 537 538 539 540 547 548 549 550 556 557 558 559 560 561 562 563 564 565 566 567 568 569 570 571 572 573 574 575 576 577 578 579 580 581 582 583 584 585 586 587 588 589 590 591 592 593 594 595 596 597 598 599 600 601 602 603 604 605 606 607 608 609 610 611 612 613 614 615 616 617 618 619 620 621 622 623 624 625 626 627 628 629 630 631 632 633 634 635 636 637 638 639 640 641 642 643 644 645 646 647 648 649 650 651 652 653 654 655 656 657 658 659 660 661 662 663 664 665 666 667 668 669 670 671 672 673 674 675 676 677 678 679 680 681 682 683 684 685 686 687 688 689 690 691 692 693 694 695 696 697 698 699 700 701 702 703 704 705 706 707 708 709 710 711 712 713 714 715 716 717 718 719 720 721 722 723 724 725 726 727 728 729 730 731 732 733 734 735 736 737 738 739 740 741 742 743 744 745 746 747 748 749 750 751 752 753 754 755 756 757 758 759 760 761 762 763 764 765 766 767 768 769 770 771 772 773 774 775 776 777 778 779 780 781 782 783 784 785 786 787 788 789 790 791 792 793 794 795 796 797 798 799 800 801 802 803 804 805 806 807 808 809 810 811 812 813 814 815 816 817 818 819 820 821 822 823 824 825 826 827 828 829 830 831 832 833 834 835 836 837 838 839 840 841 842 843 844 845 846 847 848 849 850 851 852 853 854 855 856 857 858 859 860 861 862 863 864 865 866 867 868 869 870 871 872 873 874 875 876 877 878 879 880 881 882 883 884 885 886 887 888 889 890 891 892 893 894 895 896 897 898 899 900 901 902 903 904 905 906 907 908 909 910 911 912 913 914 915 916 917 918 919 920 921 922 923 924 925 926 927 928 929 930 931 932 933 934 935 936 937 938 939 940 941 942 943 944 945 946 947 948 949 950 951 952 953 954 955 956 957 958 959 960 961 962 963 964 965 966 967 968 969 970 971 972 973 974 975 976 977 978 979 980 981 982 983 984 985 986 987 988 989 990 991 992 993 994 995 996 997 998 999 1000 1001 1002 1003 1004 1005 1006 1007 1008 1009 1010 1011 1012 1013 1014 1015 1016 1017 1018 1019 1020 1021 1022 1023 1024 1025 1026 1027 1028 1029 1030 1031 1032 1033 1034 1035 1060 1061 1062 1063 1064 1065 1091 1092 1093 1094 1095 1096 1122 1123 1124 1125 1126 1127 1153 1154 1155 1156 1157 1158 1184 1185 1186 1187 1188 1189 1215 1216 1217 1218 1219 1220 1246 1247 1248 1249 1250 1251 1277 1278 1279 1280 1281 1282 1308 1309 1310 1311 1312 1313 1339 1340 1341 1342 1343 1344 1370 1371 1372 1373 1374 1375 1401 1402 1403 1404 1405 1406 1432 1433 1434 1435 1436 1437 1463 1464 1465 1466 1467 1468 1494 1495 1496 1497 1498 1499 1525 1526 1527 1528 1529 1530 1556 1557 1558 1559 1560 1561 1587 1588 1589 1590 1591 1592 1618 1619 1620 1621 1622 1623 1649 1650 1651 1652 1653 1654 1680 1681 1682 1683 1684 1685 1711 1712 1713 1714 1715 1716 1742 1743 1744 1745 1746 1747 1773 1774 1775 1776 1777 1778 1804 1805 1806 1807 1808 1809 1835 1836 1837 1838 1839 1840 1866 1867 1868 1869 1870 1871 1897 1898 1899 1900 1901 1902 1928 1929 1930 1931 1932 1933 1959 1960 1961 1962 1963 1964 1990 1991 1992 1993 1994 1995 2021 2022 2023 2024 2025 2026 2052 2053 2054 2055 2056 2057 2083 2084 2085 2086 2087 2088 2114 2115 2116 2117 2118 2119 2145 2146 2147 2148 2149 2150 2176 2177 2178 2179 2180 2181 2207 2208 2209 2210 2211 2212 2238 2239 2240 2241 2242 2243 2269 2270 2271 2272 2273 2274 2300 2301 2302 2303 2304 2305 2331 2332 2333 2334 2335 2336 2362 2363 2364 2365 2366 2367 2393 2394 2395 2396 2397 2398 2424 2425 2426 2427 2428 2429 2455 2456 2457 2458 2459 2460 2486 2487 2488 2489 2490 2491 2517 2518 2519 2520 2521 2522 2548 2549 2550 2551 2552 2553 2579 2580 2581 2582 2583 2584 2610 2611 2612 2613 2614 2615 2641 2642 2643 2644 2645 2646 2672 2673 2674 2675 2676 2677 2703 2704 2705 2706 2707 2708 2734 2735 2736 2737 2738 2763 2764 2765 2766 2767 2792 2793 2794 2795 2819 2820 2821 2822 2846 2847 2848 2871 2872 2894 2895 1036 1037 1038 1039 1040 1041 1042 1043 1044 1066 1067 1068 1069 1070 1071 1072 1073 1074 1097 1098 1099 1100 1101 1102 1103 1104 1105 1128 1129 1130 1131 1132 1133 1134 1135 1136 1159 1160 1161 1162 1163 1164 1165 1166 1167 1190 1191 1192 1193 1194 1195 1196 1197 1198 1221 1222 1223 1224 1225 1226 1227 1228 1229 1252 1253 1254 1255 1256 1257 1258 1259 1260 1283 1284 1285 1286 1287 1288 1289 1290 1291 1314 1315 1316 1317 1318 1319 1320 1321 1322 1345 1346 1347 1348 1349 1350 1351 1352 1353 1376 1377 1378 1379 1380 1381 1382 1383 1384 1407 1408 1409 1410 1411 1412 1413 1414 1415 1438 1439 1440 1441 1442 1443 1444 1445 1446 1469 1470 1471 1472 1473 1474 1475 1476 1477 1500 1501 1502 1503 1504 1505 1506 1507 1508 1531 1532 1533 1534 1535 1536 1537 1538 1539 1562 1563 1564 1565 1566 1567 1568 1569 1570 1593 1594 1595 1596 1597 1598 1599 1600 1601 1624 1625 1626 1627 1628 1629 1630 1631 1632 1655 1656 1657 1658 1659 1660 1661 1662 1663 1686 1687 1688 1689 1690 1691 1692 1693 1694 1717 1718 1719 1720 1721 1722 1723 1724 1725 1748 1749 1750 1751 1752 1753 1754 1755 1756 1779 1780 1781 1782 1783 1784 1785 1786 1787 1810 1811 1812 1813 1814 1815 1816 1817 1818 1841 1842 1843 1844 1845 1846 1847 1848 1849 1872 1873 1874 1875 1876 1877 1878 1879 1880 1903 1904 1905 1906 1907 1908 1909 1910 1911 1934 1935 1936 1937 1938 1939 1940 1941 1942 1965 1966 1967 1968 1969 1970 1971 1972 1973 1996 1997 1998 1999 2000 2001 2002 2003 2004 2027 2028 2029 2030 2031 2032 2033 2034 2035 2058 2059 2060 2061 2062 2063 2064 2065 2066 2089 2090 2091 2092 2093 2094 2095 2096 2097 2120 2121 2122 2123 2124 2125 2126 2127 2128 2151 2152 2153 2154 2155 2156 2157 2158 2159 2182 2183 2184 2185 2186 2187 2188 2189 2190 2213 2214 2215 2216 2217 2218 2219 2220 2221 2244 2245 2246 2247 2248 2249 2250 2251 2252 2275 2276 2277 2278 2279 2280 2281 2282 2283 2306 2307 2308 2309 2310 2311 2312 2313 2314 2337 2338 2339 2340 2341 2342 2343 2344 2345 2368 2369 2370 2371 2372 2373 2374 2375 2376 2399 2400 2401 2402 2403 2404 2405 2406 2407 2430 2431 2432 2433 2434 2435 2436 2437 2438 2461 2462 2463 2464 2465 2466 2467 2468 2469 2492 2493 2494 2495 2496 2497 2498 2499 2500 2523 2524 2525 2526 2527 2528 2529 2530 2531 2554 2555 2556 2557 2558 2559 2560 2561 2562 2585 2586 2587 2588 2589 2590 2591 2592 2593 2616 2617 2618 2619 2620 2621 2622 2623 2624 2647 2648 2649 2650 2651 2652 2653 2654 2655 2678 2679 2680 2681 2682 2683 2684 2685 2686 2709 2710 2711 2712 2713 2714 2715 2716 2717 2739 2740 2741 2742 2743 2744 2745 2746 2747 2768 2769 2770 2771 2772 2773 2774 2775 2776 2796 2797 2798 2799 2800 2801 2802 2803 2804 2823 2824 2825 2826 2827 2828 2829 2830 2831 2849 2850 2851 2852 2853 2854 2855 2856 2857 2873 2874 2875 2876 2877 2878 2879 2880 2881 2896 2897 2898 2899 2900 2901 2902 2903 2904 2917 2918 2919 2920 2921 2922 2923 2924 2925 2936 2937 2938 2939 2940 2941 2942 2943 2953 2954 2955 2956 2957 2958 2966 2967 2968 2969 1045 1046 1047 1048 1049 1050 1051 1052 1075 1076 1077 1078 1079 1080 1081 1082 1106 1107 1108 1109 1110 1111 1112 1113 1137 1138 1139 1140 1141 1142 1143 1144 1168 1169 1170 1171 1172 1173 1174 1175 1199 1200 1201 1202 1203 1204 1205 1206 1230 1231 1232 1233 1234 1235 1236 1237 1261 1262 1263 1264 1265 1266 1267 1268 1292 1293 1294 1295 1296 1297 1298 1299 1323 1324 1325 1326 1327 1328 1329 1330 1354 1355 1356 1357 1358 1359 1360 1361 1385 1386 1387 1388 1389 1390 1391 1392 1416 1417 1418 1419 1420 1421 1422 1423 1447 1448 1449 1450 1451 1452 1453 1454 1478 1479 1480 1481 1482 1483 1484 1485 1509 1510 1511 1512 1513 1514 1515 1516 1540 1541 1542 1543 1544 1545 1546 1547 1571 1572 1573 1574 1575 1576 1577 1578 1602 1603 1604 1605 1606 1607 1608 1609 1633 1634 1635 1636 1637 1638 1639 1640 1664 1665 1666 1667 1668 1669 1670 1671 1695 1696 1697 1698 1699 1700 1701 1702 1726 1727 1728 1729 1730 1731 1732 1733 1757 1758 1759 1760 1761 1762 1763 1764 1788 1789 1790 1791 1792 1793 1794 1795 1819 1820 1821 1822 1823 1824 1825 1826 1850 1851 1852 1853 1854 1855 1856 1857 1881 1882 1883 1884 1885 1886 1887 1888 1912 1913 1914 1915 1916 1917 1918 1919 1943 1944 1945 1946 1947 1948 1949 1950 1974 1975 1976 1977 1978 1979 1980 1981 2005 2006 2007 2008 2009 2010 2011 2012 2036 2037 2038 2039 2040 2041 2042 2043 2067 2068 2069 2070 2071 2072 2073 2074 2098 2099 2100 2101 2102 2103 2104 2105 2129 2130 2131 2132 2133 2134 2135 2136 2160 2161 2162 2163 2164 2165 2166 2167 2191 2192 2193 2194 2195 2196 2197 2198 2222 2223 2224 2225 2226 2227 2228 2229 2253 2254 2255 2256 2257 2258 2259 2260 2284 2285 2286 2287 2288 2289 2290 2291 2315 2316 2317 2318 2319 2320 2321 2322 2346 2347 2348 2349 2350 2351 2352 2353 2377 2378 2379 2380 2381 2382 2383 2384 2408 2409 2410 2411 2412 2413 2414 2415 2439 2440 2441 2442 2443 2444 2445 2446 2470 2471 2472 2473 2474 2475 2476 2477 2501 2502 2503 2504 2505 2506 2507 2508 2532 2533 2534 2535 2536 2537 2538 2539 2563 2564 2565 2566 2567 2568 2569 2570 2594 2595 2596 2597 2598 2599 2600 2601 2625 2626 2627 2628 2629 2630 2631 2632 2656 2657 2658 2659 2660 2661 2662 2663 2687 2688 2689 2690 2691 2692 2693 2694 2718 2719 2720 2721 2722 2723 2724 2725 2748 2749 2750 2751 2752 2753 2754 2755 2777 2778 2779 2780 2781 2782 2783 2784 2805 2806 2807 2808 2809 2810 2811 2812 2832 2833 2834 2835 2836 2837 2838 2839 2858 2859 2860 2861 2862 2863 2864 2865 2882 2883 2884 2885 2886 2887 2888 2889 2905 2906 2907 2908 2909 2910 2911 2912 2926 2927 2928 2929 2930 2931 2932 2933 2944 2945 2946 2947 2948 2949 2950 2951 2959 2960 2961 2962 2963 2964 2965 2970 2971 2972 2973 2974 1053 1054 1055 1056 1057 1058 1059 1083 1084 1085 1086 1087 1088 1089 1090 1114 1115 1116 1117 1118 1119 1120 1121 1145 1146 1147 1148 1149 1150 1151 1152 1176 1177 1178 1179 1180 1181 1182 1183 1207 1208 1209 1210 1211 1212 1213 1214 1238 1239 1240 1241 1242 1243 1244 1245 1269 1270 1271 1272 1273 1274 1275 1276 1300 1301 1302 1303 1304 1305 1306 1307 1331 1332 1333 1334 1335 1336 1337 1338 1362 1363 1364 1365 1366 1367 1368 1369 1393 1394 1395 1396 1397 1398 1399 1400 1424 1425 1426 1427 1428 1429 1430 1431 1455 1456 1457 1458 1459 1460 1461 1462 1486 1487 1488 1489 1490 1491 1492 1493 1517 1518 1519 1520 1521 1522 1523 1524 1548 1549 1550 1551 1552 1553 1554 1555 1579 1580 1581 1582 1583 1584 1585 1586 1610 1611 1612 1613 1614 1615 1616 1617 1641 1642 1643 1644 1645 1646 1647 1648 1672 1673 1674 1675 1676 1677 1678 1679 1703 1704 1705 1706 1707 1708 1709 1710 1734 1735 1736 1737 1738 1739 1740 1741 1765 1766 1767 1768 1769 1770 1771 1772 1796 1797 1798 1799 1800 1801 1802 1803 1827 1828 1829 1830 1831 1832 1833 1834 1858 1859 1860 1861 1862 1863 1864 1865 1889 1890 1891 1892 1893 1894 1895 1896 1920 1921 1922 1923 1924 1925 1926 1927 1951 1952 1953 1954 1955 1956 1957 1958 1982 1983 1984 1985 1986 1987 1988 1989 2013 2014 2015 2016 2017 2018 2019 2020 2044 2045 2046 2047 2048 2049 2050 2051 2075 2076 2077 2078 2079 2080 2081 2082 2106 2107 2108 2109 2110 2111 2112 2113 2137 2138 2139 2140 2141 2142 2143 2144 2168 2169 2170 2171 2172 2173 2174 2175 2199 2200 2201 2202 2203 2204 2205 2206 2230 2231 2232 2233 2234 2235 2236 2237 2261 2262 2263 2264 2265 2266 2267 2268 2292 2293 2294 2295 2296 2297 2298 2299 2323 2324 2325 2326 2327 2328 2329 2330 2354 2355 2356 2357 2358 2359 2360 2361 2385 2386 2387 2388 2389 2390 2391 2392 2416 2417 2418 2419 2420 2421 2422 2423 2447 2448 2449 2450 2451 2452 2453 2454 2478 2479 2480 2481 2482 2483 2484 2485 2509 2510 2511 2512 2513 2514 2515 2516 2540 2541 2542 2543 2544 2545 2546 2547 2571 2572 2573 2574 2575 2576 2577 2578 2602 2603 2604 2605 2606 2607 2608 2609 2633 2634 2635 2636 2637 2638 2639 2640 2664 2665 2666 2667 2668 2669 2670 2671 2695 2696 2697 2698 2699 2700 2701 2702 2726 2727 2728 2729 2730 2731 2732 2733 2756 2757 2758 2759 2760 2761 2762 2785 2786 2787 2788 2789 2790 2791 2813 2814 2815 2816 2817 2818 2840 2841 2842 2843 2844 2845 2866 2867 2868 2869 2870 2890 2891 2892 2893 2913 2914 2915 2916 2934 2935 2952 
Rhop 1 2975 float
1000.0 1000.0 1000.0 1000.0 1000.0 1000.0 1000.0 1000.0 1000.0 1000.0 1000.0 1000.0 1000.0 1000.0 1000.0 1000.0 1000.0 1000.0 1000.0 1000.0 1000.0 1000.0 1000.0 1000.0 1000.0 1000.0 1000.0 1000.0 1000.0 1000.0 1000.0 1000.0 1000.0 1000.0 1000.0 1000.0 1000.0 1000.0001 1000.0 1000.0001 1000.0001 1000.0 1000.0001 1000.0001 1000.0 1000.0001 1000.0002 1000.0001 1000.0001 1000.0002 1000.0001 1000.0002 1000.0004 1000.0001 1000.0004 1000.0007 1000.0002 1000.0007 1000.0011 1000.0004 1000.001 1000.0016 1000.0016 1000.0024 1000.0 1000.0 1000.0 1000.0 1000.0 1000.0 1000.0 1000.0 1000.0 1000.0 1000.0 1000.0 1000.0 1000.0 1000.0 1000.0 1000.0 1000.0 1000.0 1000.0 1000.0 1000.0 1000.0 1000.0 1000.0 1000.0 1000.0 1000.0 1000.0 1000.0 1000.0 1000.0 1000.0 1000.0 1000.0 1000.0 1000.0 1000.0 1000.0 1000.0 1000.0 1000.0 1000.0 1000.0 1000.0 1000.0 1000.0 1000.0 1000.0 1000.0 1000.0 1000.0 1000.0 1000.0 1000.0 1000.0 1000.0 1000.0 1000.0 1000.0 1000.0 1000.0 1000.0 1000.0 1000.0 1000.0 1000.0 1000.0 1000.0001 1000.0001 1000.0001 1000.0001 1000.0 1000.0 1000.0001 1000.0001 1000.0001 1000.0001 1000.0001 1000.0001 1000.0 1000.0001 1000.0001 1000.0001 1000.0002 1000.0002 1000.0002 1000.0002 1000.0001 1000.0001 1000.0001 1000.0001 1000.0002 1000.0001 1000.0002 1000.0002 1000.0004 1000.0003 1000.0005 1000.0004 1000.0007 1000.0007 1000.001 1000.0011 1000.0014 1000.0016 1000.0021 1000.0024 1000.0032 1000.0036 1000.0047 1000.0 1000.0 1000.0 1000.0 1000.0 1000.0 1000.0 1000.0 1000.0 1000.0 1000.0 1000.0 1000.0 1000.0 1000.0 1000.0 1000.0 1000.0 1000.0 1000.0 1000.0 1000.0 1000.0 1000.0 1000.0 1000.0 1000.0 1000.0 1000.0 1000.0 1000.0 1000.0 1000.0 1000.0 1000.0 1000.0 1000.0 1000.0 1000.0 1000.0 1000.0 1000.0 1000.0 1000.0 1000.0 1000.0 1000.0 1000.0 1000.0 1000.0 1000.0 1000.0 1000.0 1000.0 1000.0 1000.0 1000.0 1000.0 1000.0 1000.0 1000.0 1000.0 1000.0 1000.0 1000.0 1000.0 1000.0 1000.0 1000.0 1000.0 1000.0001 1000.0001 1000.0001 1000.0001 1000.0001 1000.0001 1000.0001 1000.0001 1000.0001 1000.0001 1000.0001 1000.0001 1000.0002 1000.0002 1000.0002 1000.0002 1000.0002 1000.0002 1000.0002 1000.0002 1000.0002 1000.0002 1000.0002 1000.0002 1000.0003 1000.0004 1000.0004 1000.0004 1000.0004 1000.0 1000.0 1000.0 1000.0 1000.0 1000.0 1000.0 1000.0 1000.0 1000.0 1000.0 1000.0 1000.0 1000.0 1000.0 1000.0 1000.0 1000.0 1000.0 1000.0 1000.0 1000.0 1000.0 1000.0 1000.0 1000.0 1000.0 1000.0 1000.0 1000.0 1000.0 1000.0 1000.0 1000.0 1000.0 1000.0 1000.0 1000.0 1000.0 1000.0 1000.0 1000.0 1000.0 1000.0 1000.0 1000.0 1000.0 1000.0 1000.0 1000.0 1000.0 1000.0 1000.0 1000.0 1000.0 1000.0 1000.0001 1000.0001 1000.0001 1000.0 1000.0 1000.0 1000.0 1000.0 1000.0001 1000.0001 1000.0001 1000.0001 1000.0001 1000.0001 1000.0001 1000.0001 1000.0002 1000.0002 1000.0002 1000.0002 1000.0002 1000.0002 1000.0002 1000.0002 1000.0004 1000.0004 1000.0004 1000.0004 1000.0004 1000.0003 1000.0002 1000.0002 1000.0 1000.0 1000.0 1000.0 1000.0 1000.0 1000.0 1000.0 1000.0 1000.0 1000.0 1000.0 1000.0 1000.0 1000.0 1000.0 1000.0 1000.0 1000.0 1000.0 1000.0 1000.0 1000.0 1000.0 1000.0 1000.0 1000.0 1000.0 1000.0 1000.0 1000.0 1000.0 1000.0 1000.0 1000.0 1000.0 1000.0 1000.0 1000.0 1000.0 1000.0 1000.0 1000.0 1000.0 1000.0 1000.0 1000.0 1000.0 1000.0 1000.0 1000.0 1000.0 1000.0 1000.0 1000.0 1000.0 1000.0 1000.0 1000.0 1000.0 1000.0 1000.0 1000.0 1000.0 1000.0 1000.0 1000.0 1000.0 1000.0 1000.0 1000.0 1000.0 1000.0001 1000.0001 1000.0001 1000.0001 1000.0001 1000.0001 1000.0 1000.0 1000.0 1000.0002 1000.0001 1000.0001 1000.0001 1000.0001 1000.0001 1000.0001 1000.0001 1000.0 1000.0002 1000.0002 1000.0002 1000.0002 1000.0002 1000.0002 1000.0001 1000.0001 1000.0001 1000.0001 1000.0001 1000.0002 1000.0002 1000.0004 1000.0005 1000.0007 1000.001 1000.0014 1000.0021 1000.0032 1000.0047 1000.0 1000.0 1000.0 1000.0 1000.0 1000.0 1000.0 1000.0 1000.0 1000.0 1000.0 1000.0 1000.0 1000.0 1000.0 1000.0 1000.0 1000.0 1000.0 1000.0 1000.0 1000.0 1000.0 1000.0 1000.0 1000.0 1000.0 1000.0 1000.0 1000.0 1000.0 1000.0 1000.0 1000.0 1000.0 1000.0 1000.0 1000.0 1000.0 1000.0 1000.0 1000.0 1000.0 1000.0001 1000.0 1000.0 1000.0 1000.0001 1000.0001 1000.0 1000.0 1000.0001 1000.0001 1000.0001 1000.0 1000.0002 1000.0001 1000.0001 1000.0 1000.0003 1000.0002 1000.0001 1000.0 1000.0004 1000.0002 1000.0001 1000.0001 1000.0007 1000.0004 1000.0002 1000.0001 1000.0011 1000.0007 1000.0004 1000.0001 1000.0016 1000.0011 1000.0007 1000.0002 1000.0024 1000.0016 1000.001 1000.0004 1000.0036 1000.0024 1000.0016 1000.0 1000.0 1000.0 1000.0 1000.0 1000.0 1000.0 1000.0 1000.0 1000.0 1000.0 1000.0 1000.0 1000.0 1000.0 1000.0 1000.0 1000.0 1000.0 1000.0 1000.0 1000.0 1000.0 1000.0 1000.0 1000.0 1000.0 1000.0 1000.0 1000.0 1000.0 1000.0 1000.0 1000.0 1000.0 1000.0 1000.0 1000.0 1000.0 1000.0 1000.0 1000.0 1000.0 1000.0 1000.0 1000.0 1000.0 1000.0 1000.0 1000.0 1000.0 1000.0 1000.0 1000.0 1000.0 1000.0 1000.0 1000.0 1000.0 1000.0 1000.0 1000.0 1000.0 1000.0 1000.0 1000.0 1000.0 1000.0 1000.0 1000.0 1000.0 1000.0 1000.0 1000.0 1000.0 1000.0 1000.0 1000.0 1000.0 1000.0 1000.0 1000.0 1000.0 1000.0 1000.0 1000.0 1000.0 1000.0 1000.0 1000.0 1000.0 1000.0 1000.0 1000.0 1000.0 1000.0 1000.0 1000.0 1000.0 1000.0 1000.0 1000.0 1000.0 1000.0 1000.0 1000.0 1000.0 1000.0 1000.0 1000.0 1000.0 1000.0 1000.0 1000.0 1000.0 1000.0 1000.0 1000.0 1000.0 1000.0 1000.0 1000.0 1000.0 1000.0 1000.0 1000.0 1000.0 1000.0 1000.0 1000.0 1000.0 1000.0 1000.0 1000.0 1000.0 1000.0 1000.0 1000.0 1000.0 1000.0 1000.0 1000.0 1000.0 1000.0 1000.0 1000.0 1000.0 1000.0 1000.0 1000.0 1000.0 1000.0 1000.0 1000.0 1000.0 1000.0 1000.0 1000.0 1000.0 1000.0 1000.0 1000.0 1000.0 1000.0 1000.0 1000.0 1000.0 1000.0 1000.0 1000.0 1000.0 1000.0 1000.0 1000.0 1000.0 1000.0 1000.0 1000.0 1000.0 1000.0 1000.0 1000.0 1000.0 1000.0 1000.0 1000.0 1000.0 1000.0 1000.0 1000.0 1000.0 1000.0 1000.0 1000.0 1000.0 1000.0 1000.0 1000.0 1000.0 1000.0 1000.0 1000.0 1000.0 1000.0 1000.0 1000.0 1000.0 1000.0 1000.0 1000.0 1000.0 1000.0 1000.0 1000.0 1000.0 1000.0 1000.0 1000.0 1000.0 1000.0 1000.0 1000.0 1000.0 1000.0 1000.0 1000.0 1000.0 1000.0 1000.0 1000.0 1000.0 1000.0 1000.0 1000.0 1000.0 1000.0 1000.0 1000.0 1000.0 1000.0 1000.0 1000.0 1000.0 1000.0 1000.0 1000.0 1000.0 1000.0 1000.0 1000.0 1000.0 1000.0 1000.0 1000.0 1000.0 1000.0 1000.0 1000.0 1000.0 1000.0 1000.0 1000.0 1000.0 1000.0 1000.0 1000.0 1000.0 1000.0 1000.0 1000.0 1000.0 1000.0 1000.0 1000.0 1000.0 1000.0 1000.0 1000.0 1000.0 1000.0 1000.0 1000.0 1000.0 1000.0 1000.0 1000.0 1000.0 1000.0 1000.0 1000.0 1000.0 1000.0 1000.0 1000.0 1000.0 1000.0 1000.0 1000.0 1000.0 1000.0 1000.0 1000.0 1000.0 1000.0 1000.0 1000.0 1000.0 1000.0 1000.0 1000.0 1000.0 1000.0 1000.0 1000.0 1000.0 1000.0 1000.0 1000.0 1000.0 1000.0 1000.0 1000.0 1000.0 1000.0 1000.0 1000.0 1000.0 1000.0 1000.0 1000.0 1000.0 1000.0 1000.0 1000.0 1000.0 1000.0 1000.0 1000.0 1000.0 1000.0 1000.0 1000.0 1000.0 1000.0 1000.0 1000.0 1000.0 1000.0 1000.0 1000.0 1000.0 1000.0 1000.0 1000.0 1000.0 1000.0 1000.0 1000.0 1000.0 1000.0 1000.0 1000.0 1000.0 1000.0 1000.0 1000.0 1000.0 1000.0 1000.0 1000.0 1000.0 1000.0 1000.0 1000.0 1000.0 1000.0 1000.0 1000.0 1000.0 1000.0 1000.0 1000.0 1000.0 1000.0 1000.0 1000.0 1000.0 1000.0 1000.0 1000.0 1000.0 1000.0 1000.0 1000.0 1000.0 1000.0 1000.0 1000.0 1000.0 1000.0 1000.0 1000.0 1000.0 1000.0 1000.0 1000.0 1000.0 1000.0 1000.0 1000.0 1000.0 1000.0 1000.0 1000.0 1000.0 1000.0 1000.0 1000.0 1000.0 1000.0 1000.0 1000.0 1000.0 1000.0 1000.0 1000.0 1000.0 1000.0 1000.0 1000.0 1000.0 1000.0 1000.0 1000.0 1000.0 1000.0 1000.0 1000.0 1000.0 1000.0 1000.0 1000.0 1000.0 1000.0 1000.0 1000.0 1000.0 1000.0 1000.0 1000.0 1000.0 1000.0 1000.0 1000.0 1000.0 1000.0 1000.0 1000.0 1000.0 1000.0 1000.0 1000.0 1000.0 1000.0 1000.0 1000.0 1000.0 1000.0 1000.0 1000.0 1000.0 1000.0 1000.0002 1000.0002 1000.0004 1000.0004 1000.0004 1000.0002 1000.0004 1000.0004 1000.0004 1000.0005 1000.0005 1000.0004 1000.0004 1000.0005 1000.0006 1000.0007 1000.0007 1000.0004 1000.0006 1000.0007 1000.0008 1000.0009 1000.0009 1000.0007 1000.0009 1000.0009 1000.001 1000.0012 1000.0012 1000.0009 1000.0012 1000.0013 1000.0013 1000.0015 1000.0016 1000.0013 1000.0015 1000.0018 1000.0018 1000.002 1000.0021 1000.0019 1000.0021 1000.0024 1000.0025 1000.0026 1000.0027 1000.0028 1000.0032 1000.0033 1000.0035 1000.0036 1000.0037 1000.0043 1000.0045 1000.0045 1000.0046 1000.0046 1000.0048 1000.0062 1000.0062 1000.0061 1000.006 1000.006 1000.0062 1000.0082 1000.0082 1000.008 1000.0079 1000.0079 1000.008 1000.0098 1000.0103 1000.0101 1000.0101 1000.0101 1000.0102 1000.0118 1000.0126 1000.0126 1000.0126 1000.0128 1000.0132 1000.0145 1000.0155 1000.0159 1000.0161 1000.0165 1000.0168 1000.0185 1000.0196 1000.0201 1000.0204 1000.0209 1000.0213 1000.024 1000.0251 1000.0256 1000.0261 1000.0266 1000.0272 1000.0311 1000.0322 1000.0328 1000.0332 1000.0338 1000.0345 1000.0398 1000.0409 1000.0417 1000.0422 1000.0428 1000.0436 1000.0506 1000.0521 1000.053 1000.0536 1000.0543 1000.0549 1000.0642 1000.0664 1000.0674 1000.0678 1000.0684 1000.0689 1000.0818 1000.0846 1000.0858 1000.0858 1000.086 1000.0861 1000.1039 1000.1077 1000.1088 1000.1078 1000.1072 1000.1068 1000.1321 1000.1373 1000.1375 1000.1351 1000.1331 1000.1317 1000.167 1000.1739 1000.172 1000.1667 1000.163 1000.1605 1000.2085 1000.2165 1000.2108 1000.2012 1000.1952 1000.1913 1000.2584 1000.2669 1000.2538 1000.2384 1000.2299 1000.2253 1000.3188 1000.3246 1000.3003 1000.2778 1000.2676 1000.2636 1000.404 1000.4031 1000.3637 1000.3345 1000.3246 1000.3239 1000.5609 1000.5484 1000.4952 1000.4611 1000.4544 1000.4608 1000.9192 1000.8936 1000.8374 1000.8032 1000.8035 1000.8217 1001.7393 1001.7058 1001.6702 1001.6517 1001.6649 1001.7 1003.2556 1003.2174 1003.2381 1003.2692 1003.3089 1003.3666 1005.1471 1005.0934 1005.1926 1005.3023 1005.3806 1005.465 1006.6008 1006.5156 1006.6696 1006.8474 1006.9623 1007.0718 1007.3412 1007.2153 1007.3779 1007.5889 1007.7258 1007.8544 1007.6432 1007.4896 1007.629 1007.84 1007.9828 1008.1219 1007.7763 1007.6024 1007.718 1007.9143 1008.054 1008.1979 1007.8646 1007.6784 1007.7747 1007.957 1008.0923 1008.2374 1007.9415 1007.7496 1007.8356 1008.0087 1008.1401 1008.2847 1008.0046 1007.8126 1007.8966 1008.0662 1008.1952 1008.3383 1008.0412 1007.8533 1007.9422 1008.1136 1008.2419 1008.3828 1007.9408 1007.759 1007.8507 1008.0215 1008.1481 1008.2864 1007.7048 1007.5306 1007.6221 1007.789 1007.9126 1008.0472 1007.355 1007.1903 1007.2791 1007.4393 1007.559 1007.6892 1006.9144 1006.7621 1006.8467 1006.9979 1007.1127 1007.2381 1006.4053 1006.2686 1006.3479 1006.4888 1006.5984 1006.718 1005.8473 1005.7279 1005.8026 1005.9331 1006.0369 1006.1503 1005.2596 1005.1579 1005.2296 1005.3505 1005.4484 1005.5552 1004.6658 1004.5801 1004.6489 1004.7607 1004.8526 1004.9527 1004.0901 1004.0177 1004.0813 1004.1835 1004.2693 1004.3625 1003.5535 1003.4918 1003.5468 1003.6386 1003.7178 1003.8036 1003.0623 1003.0144 1003.0598 1003.1415 1003.2134 1003.2904 1002.6188 1002.5908 1002.629 1002.7024 1002.7667 1002.8334 1002.2264 1002.2226 1002.2569 1002.3245 1002.3821 1002.4374 1001.9177 1001.9455 1002.0051 1002.0579 1002.1027 1001.6727 1001.6907 1001.7377 1001.7883 1001.8257 1001.4834 1001.5154 1001.5634 1001.6003 1001.3142 1001.3305 1001.3727 1001.4148 1001.1802 1001.2101 1001.2557 1001.0772 1001.1152 1000.9831 1001.0012 1000.0004 1000.0004 1000.0004 1000.0004 1000.0004 1000.0005 1000.0005 1000.0005 1000.0005 1000.0005 1000.0005 1000.0005 1000.0006 1000.0007 1000.0007 1000.0007 1000.0007 1000.0007 1000.0007 1000.0007 1000.0007 1000.0007 1000.0009 1000.0009 1000.0009 1000.0009 1000.0009 1000.0009 1000.001 1000.001 1000.001 1000.001 1000.001 1000.001 1000.001 1000.001 1000.0012 1000.0013 1000.0013 1000.0013 1000.0013 1000.0013 1000.0013 1000.0013 1000.0013 1000.0016 1000.0016 1000.0017 1000.0017 1000.0018 1000.0018 1000.0018 1000.0018 1000.0018 1000.0021 1000.0021 1000.0023 1000.0023 1000.0023 1000.0023 1000.0023 1000.0023 1000.0023 1000.0028 1000.0029 1000.0029 1000.003 1000.0031 1000.0031 1000.0031 1000.0031 1000.0031 1000.0037 1000.0038 1000.0039 1000.004 1000.004 1000.004 1000.004 1000.004 1000.004 1000.0048 1000.0049 1000.0051 1000.0051 1000.0051 1000.0051 1000.0051 1000.0051 1000.0051 1000.0063 1000.0064 1000.0066 1000.0067 1000.0067 1000.0067 1000.0067 1000.0067 1000.0067 1000.0082 1000.0083 1000.0083 1000.0083 1000.0084 1000.0084 1000.0084 1000.0084 1000.0085 1000.0104 1000.0107 1000.0107 1000.0107 1000.0107 1000.0108 1000.0108 1000.0108 1000.0108 1000.0135 1000.0137 1000.0138 1000.0139 1000.0139 1000.0139 1000.0139 1000.0139 1000.0139 1000.0172 1000.0175 1000.0176 1000.0176 1000.0176 1000.0175 1000.0175 1000.0175 1000.0175 1000.0218 1000.022 1000.0223 1000.0223 1000.0225 1000.0223 1000.0223 1000.0222 1000.0222 1000.0276 1000.0279 1000.0282 1000.0282 1000.0281 1000.0281 1000.028 1000.028 1000.0279 1000.035 1000.0354 1000.0356 1000.0356 1000.0355 1000.0354 1000.0353 1000.0351 1000.0351 1000.0442 1000.0444 1000.0446 1000.0444 1000.0442 1000.0441 1000.0439 1000.0438 1000.0438 1000.0555 1000.0557 1000.0557 1000.0554 1000.0551 1000.0547 1000.0546 1000.0544 1000.0542 1000.0695 1000.0695 1000.0692 1000.0687 1000.0682 1000.0677 1000.0674 1000.0671 1000.0671 1000.0863 1000.0861 1000.0856 1000.0847 1000.084 1000.0834 1000.0828 1000.0825 1000.0823 1000.1064 1000.1058 1000.1046 1000.1036 1000.1025 1000.1019 1000.1013 1000.1009 1000.1006 1000.1309 1000.1294 1000.1278 1000.1262 1000.125 1000.124 1000.1234 1000.1229 1000.1227 1000.1583 1000.1564 1000.1541 1000.1521 1000.1506 1000.1495 1000.149 1000.1485 1000.1482 1000.1883 1000.1855 1000.1827 1000.1804 1000.1788 1000.1777 1000.1772 1000.1769 1000.1771 1000.222 1000.2189 1000.2159 1000.2134 1000.2119 1000.211 1000.2109 1000.2109 1000.2112 1000.2614 1000.2593 1000.2568 1000.2548 1000.2537 1000.2535 1000.2539 1000.2545 1000.2548 1000.3254 1000.3264 1000.3262 1000.3256 1000.3257 1000.3264 1000.3279 1000.3292 1000.3303 1000.4703 1000.4781 1000.4829 1000.4857 1000.488 1000.4907 1000.4936 1000.4962 1000.4978 1000.8442 1000.8638 1000.8773 1000.886 1000.8925 1000.8979 1000.9033 1000.9076 1000.9105 1001.7411 1001.7775 1001.8043 1001.8221 1001.8345 1001.8447 1001.8534 1001.8601 1001.8645 1003.4311 1003.4891 1003.5328 1003.5626 1003.5836 1003.5996 1003.6125 1003.6226 1003.6291 1005.5552 1005.637 1005.7002 1005.7441 1005.7746 1005.7979 1005.8163 1005.8304 1005.8394 1007.1865 1007.2914 1007.374 1007.432 1007.4731 1007.504 1007.5281 1007.5464 1007.5579 1007.989 1008.1138 1008.2131 1008.2841 1008.3347 1008.3725 1008.4023 1008.4246 1008.4387 1008.2707 1008.41 1008.522 1008.6031 1008.6611 1008.7048 1008.7391 1008.765 1008.7812 1008.3549 1008.5034 1008.6235 1008.7111 1008.7742 1008.8219 1008.8596 1008.8878 1008.9057 1008.3981 1008.551 1008.6752 1008.7661 1008.8319 1008.882 1008.9216 1008.9516 1008.9705 1008.446 1008.6001 1008.7252 1008.817 1008.8835 1008.9346 1008.9751 1009.0057 1009.0251 1008.4984 1008.6512 1008.7753 1008.8662 1008.9323 1008.9832 1009.0237 1009.0545 1009.074 1008.5405 1008.6906 1008.8123 1008.9014 1008.9662 1009.0163 1009.0564 1009.0867 1009.106 1008.4405 1008.5871 1008.7054 1008.7919 1008.8549 1008.9035 1008.9425 1008.9722 1008.991 1008.1969 1008.3386 1008.4529 1008.5364 1008.597 1008.6439 1008.6814 1008.7101 1008.7282 1007.8333 1007.9694 1008.0786 1008.1581 1008.2159 1008.2604 1008.2963 1008.3235 1008.3407 1007.3757 1007.5049 1007.6083 1007.6829 1007.7371 1007.7787 1007.8123 1007.838 1007.8541 1006.8483 1006.9694 1007.0654 1007.1343 1007.1843 1007.2225 1007.2534 1007.2767 1007.2916 1006.2723 1006.3843 1006.4724 1006.535 1006.5798 1006.6143 1006.6418 1006.6629 1006.6761 1005.6686 1005.7712 1005.8508 1005.9067 1005.9465 1005.9767 1006.0008 1006.0194 1006.0311 1005.0574 1005.151 1005.2227 1005.2723 1005.3069 1005.3334 1005.3544 1005.3702 1005.3803 1004.4594 1004.5447 1004.6094 1004.6538 1004.6843 1004.7072 1004.7253 1004.739 1004.7476 1003.8923 1003.9709 1004.0301 1004.0706 1004.0982 1004.1183 1004.134 1004.1457 1004.1531 1003.3705 1003.4428 1003.4983 1003.5366 1003.5623 1003.5806 1003.5944 1003.6046 1003.6109 1002.9039 1002.97 1003.0229 1003.0605 1003.0861 1003.1036 1003.1161 1003.1251 1003.1306 1002.497 1002.556 1002.6069 1002.6452 1002.6718 1002.6898 1002.702 1002.7104 1002.7154 1002.1501 1002.2008 1002.2487 1002.2881 1002.3171 1002.337 1002.3502 1002.3587 1002.3633 1001.8619 1001.9031 1001.9462 1001.9856 1002.0172 1002.0401 1002.0554 1002.0649 1002.0702 1001.6282 1001.6592 1001.6954 1001.7321 1001.7646 1001.7902 1001.8083 1001.8201 1001.8265 1001.4427 1001.4659 1001.4933 1001.5242 1001.5545 1001.5804 1001.6006 1001.6144 1001.6224 1001.2917 1001.3155 1001.3358 1001.3586 1001.383 1001.4061 1001.4255 1001.4398 1001.4486 1001.1583 1001.1918 1001.2142 1001.2314 1001.248 1001.2651 1001.2808 1001.2933 1001.3014 1001.0357 1001.0743 1001.1074 1001.1304 1001.1451 1001.1563 1001.1664 1001.175 1001.181 1000.9518 1000.9727 1001.0001 1001.0286 1001.0518 1001.0681 1001.0784 1001.085 1001.0892 1000.9237 1000.9257 1000.9359 1000.9529 1000.9708 1000.9844 1000.9933 1000.998 1000.9044 1000.8964 1000.8968 1000.8984 1000.8995 1000.9001 1000.9084 1000.8995 1000.8899 1000.8835 1000.0005 1000.0005 1000.0005 1000.0005 1000.0005 1000.0004 1000.0004 1000.0004 1000.0007 1000.0007 1000.0007 1000.0007 1000.0007 1000.0007 1000.0006 1000.0005 1000.0009 1000.0009 1000.0009 1000.0009 1000.0009 1000.0009 1000.0007 1000.0007 1000.001 1000.001 1000.001 1000.001 1000.001 1000.001 1000.001 1000.001 1000.0013 1000.0013 1000.0013 1000.0013 1000.0013 1000.0013 1000.0013 1000.0013 1000.0018 1000.0018 1000.0018 1000.0018 1000.0018 1000.0018 1000.0017 1000.0017 1000.0023 1000.0023 1000.0023 1000.0023 1000.0023 1000.0023 1000.0023 1000.0023 1000.0031 1000.0031 1000.0031 1000.0031 1000.0031 1000.0031 1000.003 1000.0029 1000.004 1000.004 1000.004 1000.004 1000.004 1000.004 1000.004 1000.0039 1000.0051 1000.0051 1000.0051 1000.0051 1000.0051 1000.0051 1000.0051 1000.0051 1000.0067 1000.0067 1000.0067 1000.0067 1000.0067 1000.0067 1000.0067 1000.0066 1000.0085 1000.0085 1000.0084 1000.0084 1000.0084 1000.0084 1000.0083 1000.0083 1000.0108 1000.0108 1000.0108 1000.0108 1000.0108 1000.0107 1000.0107 1000.0107 1000.0139 1000.0139 1000.0139 1000.0139 1000.0139 1000.0139 1000.0139 1000.0138 1000.0175 1000.0175 1000.0175 1000.0175 1000.0175 1000.0176 1000.0176 1000.0176 1000.0222 1000.0222 1000.0222 1000.0223 1000.0223 1000.0225 1000.0223 1000.0223 1000.0279 1000.0279 1000.028 1000.028 1000.0281 1000.0281 1000.0282 1000.0282 1000.0351 1000.0351 1000.0351 1000.0353 1000.0354 1000.0355 1000.0356 1000.0356 1000.0437 1000.0438 1000.0438 1000.0439 1000.0441 1000.0442 1000.0444 1000.0446 1000.0541 1000.0542 1000.0544 1000.0546 1000.0547 1000.0551 1000.0554 1000.0557 1000.067 1000.0671 1000.0671 1000.0674 1000.0677 1000.0682 1000.0687 1000.0692 1000.0823 1000.0823 1000.0825 1000.0828 1000.0834 1000.084 1000.0847 1000.0856 1000.1006 1000.1006 1000.1009 1000.1013 1000.1019 1000.1025 1000.1036 1000.1046 1000.1227 1000.1227 1000.1229 1000.1234 1000.124 1000.125 1000.1262 1000.1278 1000.1482 1000.1482 1000.1485 1000.149 1000.1495 1000.1506 1000.1521 1000.1541 1000.1771 1000.1771 1000.1769 1000.1772 1000.1777 1000.1788 1000.1804 1000.1827 1000.2112 1000.2112 1000.2109 1000.2109 1000.211 1000.2119 1000.2134 1000.2159 1000.2551 1000.2548 1000.2545 1000.2539 1000.2535 1000.2537 1000.2548 1000.2568 1000.3305 1000.3303 1000.3292 1000.3279 1000.3264 1000.3257 1000.3256 1000.3262 1000.4984 1000.4978 1000.4962 1000.4936 1000.4907 1000.488 1000.4857 1000.4829 1000.9114 1000.9105 1000.9076 1000.9033 1000.8979 1000.8925 1000.886 1000.8773 1001.866 1001.8645 1001.8601 1001.8534 1001.8447 1001.8345 1001.8221 1001.8043 1003.6313 1003.6291 1003.6226 1003.6125 1003.5996 1003.5836 1003.5626 1003.5328 1005.8423 1005.8394 1005.8304 1005.8163 1005.7979 1005.7746 1005.7441 1005.7002 1007.562 1007.5579 1007.5464 1007.5281 1007.504 1007.4731 1007.432 1007.374 1008.4434 1008.4387 1008.4246 1008.4023 1008.3725 1008.3347 1008.2841 1008.2131 1008.7867 1008.7812 1008.765 1008.7391 1008.7048 1008.6611 1008.6031 1008.522 1008.9119 1008.9057 1008.8878 1008.8596 1008.8219 1008.7742 1008.7111 1008.6235 1008.9769 1008.9705 1008.9516 1008.9216 1008.882 1008.8319 1008.7661 1008.6752 1009.0317 1009.0251 1009.0057 1008.9751 1008.9346 1008.8835 1008.817 1008.7252 1009.0807 1009.074 1009.0545 1009.0237 1008.9832 1008.9323 1008.8662 1008.7753 1009.1126 1009.106 1009.0867 1009.0564 1009.0163 1008.9662 1008.9014 1008.8123 1008.9975 1008.991 1008.9722 1008.9425 1008.9035 1008.8549 1008.7919 1008.7054 1008.7344 1008.7282 1008.7101 1008.6814 1008.6439 1008.597 1008.5364 1008.4529 1008.3468 1008.3407 1008.3235 1008.2963 1008.2604 1008.2159 1008.1581 1008.0786 1007.8596 1007.8541 1007.838 1007.8123 1007.7787 1007.7371 1007.6829 1007.6083 1007.2968 1007.2916 1007.2767 1007.2534 1007.2225 1007.1843 1007.1343 1007.0654 1006.6808 1006.6761 1006.6629 1006.6418 1006.6143 1006.5798 1006.535 1006.4724 1006.035 1006.0311 1006.0194 1006.0008 1005.9767 1005.9465 1005.9067 1005.8508 1005.3839 1005.3803 1005.3702 1005.3544 1005.3334 1005.3069 1005.2723 1005.2227 1004.7505 1004.7476 1004.739 1004.7253 1004.7072 1004.6843 1004.6538 1004.6094 1004.1556 1004.1531 1004.1457 1004.134 1004.1183 1004.0982 1004.0706 1004.0301 1003.613 1003.6109 1003.6046 1003.5944 1003.5806 1003.5623 1003.5366 1003.4983 1003.1324 1003.1306 1003.1251 1003.1161 1003.1036 1003.0861 1003.0605 1003.0229 1002.7169 1002.7154 1002.7104 1002.702 1002.6898 1002.6718 1002.6452 1002.6069 1002.3649 1002.3633 1002.3587 1002.3502 1002.337 1002.3171 1002.2881 1002.2487 1002.0718 1002.0702 1002.0649 1002.0554 1002.0401 1002.0172 1001.9856 1001.9462 1001.8287 1001.8265 1001.8201 1001.8083 1001.7902 1001.7646 1001.7321 1001.6954 1001.625 1001.6224 1001.6144 1001.6006 1001.5804 1001.5545 1001.5242 1001.4933 1001.4515 1001.4486 1001.4398 1001.4255 1001.4061 1001.383 1001.3586 1001.3358 1001.3042 1001.3014 1001.2933 1001.2808 1001.2651 1001.248 1001.2314 1001.2142 1001.1831 1001.181 1001.175 1001.1664 1001.1563 1001.1451 1001.1304 1001.1074 1001.0906 1001.0892 1001.085 1001.0784 1001.0681 1001.0518 1001.0286 1001.0001 1000.9998 1000.998 1000.9933 1000.9844 1000.9708 1000.9529 1000.9359 1000.9257 1000.9003 1000.9001 1000.8995 1000.8984 1000.8968 1000.8964 1000.9044 1000.8813 1000.8835 1000.8899 1000.8995 1000.9084 1000.0004 1000.0004 1000.0004 1000.0004 1000.0004 1000.0002 1000.0002 1000.0005 1000.0005 1000.0005 1000.0005 1000.0004 1000.0004 1000.0004 1000.0002 1000.0007 1000.0007 1000.0007 1000.0007 1000.0006 1000.0005 1000.0004 1000.0004 1000.001 1000.0009 1000.0009 1000.0009 1000.0008 1000.0007 1000.0006 1000.0004 1000.0013 1000.0012 1000.0012 1000.0012 1000.001 1000.0009 1000.0009 1000.0007 1000.0016 1000.0016 1000.0016 1000.0015 1000.0013 1000.0013 1000.0012 1000.0009 1000.0021 1000.0021 1000.0021 1000.002 1000.0018 1000.0018 1000.0015 1000.0013 1000.0029 1000.0028 1000.0027 1000.0026 1000.0025 1000.0024 1000.0021 1000.0019 1000.0038 1000.0037 1000.0037 1000.0036 1000.0035 1000.0033 1000.0032 1000.0028 1000.0049 1000.0048 1000.0048 1000.0046 1000.0046 1000.0045 1000.0045 1000.0043 1000.0064 1000.0063 1000.0062 1000.006 1000.006 1000.0061 1000.0062 1000.0062 1000.0083 1000.0082 1000.008 1000.0079 1000.0079 1000.008 1000.0082 1000.0082 1000.0107 1000.0104 1000.0102 1000.0101 1000.0101 1000.0101 1000.0103 1000.0098 1000.0137 1000.0135 1000.0132 1000.0128 1000.0126 1000.0126 1000.0126 1000.0118 1000.0175 1000.0172 1000.0168 1000.0165 1000.0161 1000.0159 1000.0155 1000.0145 1000.022 1000.0218 1000.0213 1000.0209 1000.0204 1000.0201 1000.0196 1000.0185 1000.0279 1000.0276 1000.0272 1000.0266 1000.0261 1000.0256 1000.0251 1000.024 1000.0354 1000.035 1000.0345 1000.0338 1000.0332 1000.0328 1000.0322 1000.0311 1000.0444 1000.0442 1000.0436 1000.0428 1000.0422 1000.0417 1000.0409 1000.0398 1000.0557 1000.0555 1000.0549 1000.0543 1000.0536 1000.053 1000.0521 1000.0506 1000.0695 1000.0695 1000.0689 1000.0684 1000.0678 1000.0674 1000.0664 1000.0642 1000.0861 1000.0863 1000.0861 1000.086 1000.0858 1000.0858 1000.0846 1000.0818 1000.1058 1000.1064 1000.1068 1000.1072 1000.1078 1000.1088 1000.1077 1000.1039 1000.1294 1000.1309 1000.1317 1000.1331 1000.1351 1000.1375 1000.1373 1000.1321 1000.1564 1000.1583 1000.1605 1000.163 1000.1667 1000.172 1000.1739 1000.167 1000.1855 1000.1883 1000.1913 1000.1952 1000.2012 1000.2108 1000.2165 1000.2085 1000.2189 1000.222 1000.2253 1000.2299 1000.2384 1000.2538 1000.2669 1000.2584 1000.2593 1000.2614 1000.2636 1000.2676 1000.2778 1000.3003 1000.3246 1000.3188 1000.3264 1000.3254 1000.3239 1000.3246 1000.3345 1000.3637 1000.4031 1000.404 1000.4781 1000.4703 1000.4608 1000.4544 1000.4611 1000.4952 1000.5484 1000.5609 1000.8638 1000.8442 1000.8217 1000.8035 1000.8032 1000.8374 1000.8936 1000.9192 1001.7775 1001.7411 1001.7 1001.6649 1001.6517 1001.6702 1001.7058 1001.7393 1003.4891 1003.4311 1003.3666 1003.3089 1003.2692 1003.2381 1003.2174 1003.2556 1005.637 1005.5552 1005.465 1005.3806 1005.3023 1005.1926 1005.0934 1005.1471 1007.2914 1007.1865 1007.0718 1006.9623 1006.8474 1006.6696 1006.5156 1006.6008 1008.1138 1007.989 1007.8544 1007.7258 1007.5889 1007.3779 1007.2153 1007.3412 1008.41 1008.2707 1008.1219 1007.9828 1007.84 1007.629 1007.4896 1007.6432 1008.5034 1008.3549 1008.1979 1008.054 1007.9143 1007.718 1007.6024 1007.7763 1008.551 1008.3981 1008.2374 1008.0923 1007.957 1007.7747 1007.6784 1007.8646 1008.6001 1008.446 1008.2847 1008.1401 1008.0087 1007.8356 1007.7496 1007.9415 1008.6512 1008.4984 1008.3383 1008.1952 1008.0662 1007.8966 1007.8126 1008.0046 1008.6906 1008.5405 1008.3828 1008.2419 1008.1136 1007.9422 1007.8533 1008.0412 1008.5871 1008.4405 1008.2864 1008.1481 1008.0215 1007.8507 1007.759 1007.9408 1008.3386 1008.1969 1008.0472 1007.9126 1007.789 1007.6221 1007.5306 1007.7048 1007.9694 1007.8333 1007.6892 1007.559 1007.4393 1007.2791 1007.1903 1007.355 1007.5049 1007.3757 1007.2381 1007.1127 1006.9979 1006.8467 1006.7621 1006.9144 1006.9694 1006.8483 1006.718 1006.5984 1006.4888 1006.3479 1006.2686 1006.4053 1006.3843 1006.2723 1006.1503 1006.0369 1005.9331 1005.8026 1005.7279 1005.8473 1005.7712 1005.6686 1005.5552 1005.4484 1005.3505 1005.2296 1005.1579 1005.2596 1005.151 1005.0574 1004.9527 1004.8526 1004.7607 1004.6489 1004.5801 1004.6658 1004.5447 1004.4594 1004.3625 1004.2693 1004.1835 1004.0813 1004.0177 1004.0901 1003.9709 1003.8923 1003.8036 1003.7178 1003.6386 1003.5468 1003.4918 1003.5535 1003.4428 1003.3705 1003.2904 1003.2134 1003.1415 1003.0598 1003.0144 1003.0623 1002.97 1002.9039 1002.8334 1002.7667 1002.7024 1002.629 1002.5908 1002.6188 1002.556 1002.497 1002.4374 1002.3821 1002.3245 1002.2569 1002.2226 1002.2264 1002.2008 1002.1501 1002.1027 1002.0579 1002.0051 1001.9455 1001.9177 1001.9031 1001.8619 1001.8257 1001.7883 1001.7377 1001.6907 1001.6727 1001.6592 1001.6282 1001.6003 1001.5634 1001.5154 1001.4834 1001.4659 1001.4427 1001.4148 1001.3727 1001.3305 1001.3142 1001.3155 1001.2917 1001.2557 1001.2101 1001.1802 1001.1918 1001.1583 1001.1152 1001.0772 1001.0743 1001.0357 1001.0012 1000.9831 1000.9727 1000.9518 1000.9237 
Mass 1 2975 float
0.40000001 0.40000001 0.40000001 0.40000001 0.40000001 0.40000001 0.40000001 0.40000001 0.40000001 0.40000001 0.40000001 0.40000001 0.40000001 0.40000001 0.40000001 0.40000001 0.40000001 0.40000001 0.40000001 0.40000001 0.40000001 0.40000001 0.40000001 0.40000001 0.40000001 0.40000001 0.40000001 0.40000001 0.40000001 0.40000001 0.40000001 0.40000001 0.40000001 0.40000001 0.40000001 0.40000001 0.40000001 0.40000001 0.40000001 0.40000001 0.40000001 0.40000001 0.40000001 0.40000001 0.40000001 0.40000001 0.40000001 0.40000001 0.40000001 0.40000001 0.40000001 0.40000001 0.40000001 0.40000001 0.40000001 0.40000001 0.40000001 0.40000001 0.40000001 0.40000001 0.40000001 0.40000001 0.40000001 0.40000001 0.40000001 0.40000001 0.40000001 0.40000001 0.40000001 0.40000001 0.40000001 0.40000001 0.40000001 0.40000001 0.40000001 0.40000001 0.40000001 0.40000001 0.40000001 0.40000001 0.40000001 0.40000001 0.40000001 0.40000001 0.40000001 0.40000001 0.40000001 0.40000001 0.40000001 0.40000001 0.40000001 0.40000001 0.40000001 0.40000001 0.40000001 0.40000001 0.40000001 0.40000001 0.40000001 0.40000001 0.40000001 0.40000001 0.40000001 0.40000001 0.40000001 0.40000001 0.40000001 0.40000001 0.40000001 0.40000001 0.40000001 0.40000001 0.40000001 0.40000001 0.40000001 0.40000001 0.40000001 0.40000001 0.40000001 0.40000001 0.40000001 0.40000001 0.40000001 0.40000001 0.40000001 0.40000001 0.40000001 0.40000001 0.40000001 0.40000001 0.40000001 0.40000001 0.40000001 0.40000001 0.40000001 0.40000001 0.40000001 0.40000001 0.40000001 0.40000001 0.40000001 0.40000001 0.40000001 0.40000001 0.40000001 0.40000001 0.40000001 0.40000001 0.40000001 0.40000001 0.40000001 0.40000001 0.40000001 0.40000001 0.40000001 0.40000001 0.40000001 0.40000001 0.40000001 0.40000001 0.40000001 0.40000001 0.40000001 0.40000001 0.40000001 0.40000001 0.40000001 0.40000001 0.40000001 0.40000001 0.40000001 0.40000001 0.40000001 0.40000001 0.40000001 0.40000001 0.40000001 0.40000001 0.40000001 0.40000001 0.40000001 0.40000001 0.40000001 0.40000001 0.40000001 0.40000001 0.40000001 0.40000001 0.40000001 0.40000001 0.40000001 0.40000001 0.40000001 0.40000001 0.40000001 0.40000001 0.40000001 0.40000001 0.40000001 0.40000001 0.40000001 0.40000001 0.40000001 0.40000001 0.40000001 0.40000001 0.40000001 0.40000001 0.40000001 0.40000001 0.40000001 0.40000001 0.40000001 0.40000001 0.40000001 0.40000001 0.40000001 0.40000001 0.40000001 0.40000001 0.40000001 0.40000001 0.40000001 0.40000001 0.40000001 0.40000001 0.40000001 0.40000001 0.40000001 0.40000001 0.40000001 0.40000001 0.40000001 0.40000001 0.40000001 0.40000001 0.40000001 0.40000001 0.40000001 0.40000001 0.40000001 0.40000001 0.40000001 0.40000001 0.40000001 0.40000001 0.40000001 0.40000001 0.40000001 0.40000001 0.40000001 0.40000001 0.40000001 0.40000001 0.40000001 0.40000001 0.40000001 0.40000001 0.40000001 0.40000001 0.40000001 0.40000001 0.40000001 0.40000001 0.40000001 0.40000001 0.40000001 0.40000001 0.40000001 0.40000001 0.40000001 0.40000001 0.40000001 0.40000001 0.40000001 0.40000001 0.40000001 0.40000001 0.40000001 0.40000001 0.40000001 0.40000001 0.40000001 0.40000001 0.40000001 0.40000001 0.40000001 0.40000001 0.40000001 0.40000001 0.40000001 0.40000001 0.40000001 0.40000001 0.40000001 0.40000001 0.40000001 0.40000001 0.40000001 0.40000001 0.40000001 0.40000001 0.40000001 0.40000001 0.40000001 0.40000001 0.40000001 0.40000001 0.40000001 0.40000001 0.40000001 0.40000001 0.40000001 0.40000001 0.40000001 0.40000001 0.40000001 0.40000001 0.40000001 0.40000001 0.40000001 0.40000001 0.40000001 0.40000001 0.40000001 0.40000001 0.40000001 0.40000001 0.40000001 0.40000001 0.40000001 0.40000001 0.40000001 0.40000001 0.40000001 0.40000001 0.40000001 0.40000001 0.40000001 0.40000001 0.40000001 0.40000001 0.40000001 0.40000001 0.40000001 0.40000001 0.40000001 0.40000001 0.40000001 0.40000001 0.40000001 0.40000001 0.40000001 0.40000001 0.40000001 0.40000001 0.40000001 0.40000001 0.40000001 0.40000001 0.40000001 0.40000001 0.40000001 0.40000001 0.40000001 0.40000001 0.40000001 0.40000001 0.40000001 0.40000001 0.40000001 0.40000001 0.40000001 0.40000001 0.40000001 0.40000001 0.40000001 0.40000001 0.40000001 0.40000001 0.40000001 0.40000001 0.40000001 0.40000001 0.40000001 0.40000001 0.40000001 0.40000001 0.40000001 0.40000001 0.40000001 0.40000001 0.40000001 0.40000001 0.40000001 0.40000001 0.40000001 0.40000001 0.40000001 0.40000001 0.40000001 0.40000001 0.40000001 0.40000001 0.40000001 0.40000001 0.40000001 0.40000001 0.40000001 0.40000001 0.40000001 0.40000001 0.40000001 0.40000001 0.40000001 0.40000001 0.40000001 0.40000001 0.40000001 0.40000001 0.40000001 0.40000001 0.40000001 0.40000001 0.40000001 0.40000001 0.40000001 0.40000001 0.40000001 0.40000001 0.40000001 0.40000001 0.40000001 0.40000001 0.40000001 0.40000001 0.40000001 0.40000001 0.40000001 0.40000001 0.40000001 0.40000001 0.40000001 0.40000001 0.40000001 0.40000001 0.40000001 0.40000001 0.40000001 0.40000001 0.40000001 0.40000001 0.40000001 0.40000001 0.40000001 0.40000001 0.40000001 0.40000001 0.40000001 0.40000001 0.40000001 0.40000001 0.40000001 0.40000001 0.40000001 0.40000001 0.40000001 0.40000001 0.40000001 0.40000001 0.40000001 0.40000001 0.40000001 0.40000001 0.40000001 0.40000001 0.40000001 0.40000001 0.40000001 0.40000001 0.40000001 0.40000001 0.40000001 0.40000001 0.40000001 0.40000001 0.40000001 0.40000001 0.40000001 0.40000001 0.40000001 0.40000001 0.40000001 0.40000001 0.40000001 0.40000001 0.40000001 0.40000001 0.40000001 0.40000001 0.40000001 0.40000001 0.40000001 0.40000001 0.40000001 0.40000001 0.40000001 0.40000001 0.40000001 0.40000001 0.40000001 0.40000001 0.40000001 0.40000001 0.40000001 0.40000001 0.40000001 0.40000001 0.40000001 0.40000001 0.40000001 0.40000001 0.40000001 0.40000001 0.40000001 0.40000001 0.40000001 0.40000001 0.40000001 0.40000001 0.40000001 0.40000001 0.40000001 0.40000001 0.40000001 0.40000001 0.40000001 0.40000001 0.40000001 0.40000001 0.40000001 0.40000001 0.40000001 0.40000001 0.40000001 0.40000001 0.40000001 0.40000001 0.40000001 0.40000001 0.40000001 0.40000001 0.40000001 0.40000001 0.40000001 0.40000001 0.40000001 0.40000001 0.40000001 0.40000001 0.40000001 0.40000001 0.40000001 0.40000001 0.40000001 0.40000001 0.40000001 0.40000001 0.40000001 0.40000001 0.40000001 0.40000001 0.40000001 0.40000001 0.40000001 0.40000001 0.40000001 0.40000001 0.40000001 0.40000001 0.40000001 0.40000001 0.40000001 0.40000001 0.40000001 0.40000001 0.40000001 0.40000001 0.40000001 0.40000001 0.40000001 0.40000001 0.40000001 0.40000001 0.40000001 0.40000001 0.40000001 0.40000001 0.40000001 0.40000001 0.40000001 0.40000001 0.40000001 0.40000001 0.40000001 0.40000001 0.40000001 0.40000001 0.40000001 0.40000001 0.40000001 0.40000001 0.40000001 0.40000001 0.40000001 0.40000001 0.40000001 0.40000001 0.40000001 0.40000001 0.40000001 0.40000001 0.40000001 0.40000001 0.40000001 0.40000001 0.40000001 0.40000001 0.40000001 0.40000001 0.40000001 0.40000001 0.40000001 0.40000001 0.40000001 0.40000001 0.40000001 0.40000001 0.40000001 0.40000001 0.40000001 0.40000001 0.40000001 0.40000001 0.40000001 0.40000001 0.40000001 0.40000001 0.40000001 0.40000001 0.40000001 0.40000001 0.40000001 0.40000001 0.40000001 0.40000001 0.40000001 0.40000001 0.40000001 0.40000001 0.40000001 0.40000001 0.40000001 0.40000001 0.40000001 0.40000001 0.40000001 0.40000001 0.40000001 0.40000001 0.40000001 0.40000001 0.40000001 0.40000001 0.40000001 0.40000001 0.40000001 0.40000001 0.40000001 0.40000001 0.40000001 0.40000001 0.40000001 0.40000001 0.40000001 0.40000001 0.40000001 0.40000001 0.40000001 0.40000001 0.40000001 0.40000001 0.40000001 0.40000001 0.40000001 0.40000001 0.40000001 0.40000001 0.40000001 0.40000001 0.40000001 0.40000001 0.40000001 0.40000001 0.40000001 0.40000001 0.40000001 0.40000001 0.40000001 0.40000001 0.40000001 0.40000001 0.40000001 0.40000001 0.40000001 0.40000001 0.40000001 0.40000001 0.40000001 0.40000001 0.40000001 0.40000001 0.40000001 0.40000001 0.40000001 0.40000001 0.40000001 0.40000001 0.40000001 0.40000001 0.40000001 0.40000001 0.40000001 0.40000001 0.40000001 0.40000001 0.40000001 0.40000001 0.40000001 0.40000001 0.40000001 0.40000001 0.40000001 0.40000001 0.40000001 0.40000001 0.40000001 0.40000001 0.40000001 0.40000001 0.40000001 0.40000001 0.40000001 0.40000001 0.40000001 0.40000001 0.40000001 0.40000001 0.40000001 0.40000001 0.40000001 0.40000001 0.40000001 0.40000001 0.40000001 0.40000001 0.40000001 0.40000001 0.40000001 0.40000001 0.40000001 0.40000001 0.40000001 0.40000001 0.40000001 0.40000001 0.40000001 0.40000001 0.40000001 0.40000001 0.40000001 0.40000001 0.40000001 0.40000001 0.40000001 0.40000001 0.40000001 0.40000001 0.40000001 0.40000001 0.40000001 0.40000001 0.40000001 0.40000001 0.40000001 0.40000001 0.40000001 0.40000001 0.40000001 0.40000001 0.40000001 0.40000001 0.40000001 0.40000001 0.40000001 0.40000001 0.40000001 0.40000001 0.40000001 0.40000001 0.40000001 0.40000001 0.40000001 0.40000001 0.40000001 0.40000001 0.40000001 0.40000001 0.40000001 0.40000001 0.40000001 0.40000001 0.40000001 0.40000001 0.40000001 0.40000001 0.40000001 0.40000001 0.40000001 0.40000001 0.40000001 0.40000001 0.40000001 0.40000001 0.40000001 0.40000001 0.40000001 0.40000001 0.40000001 0.40000001 0.40000001 0.40000001 0.40000001 0.40000001 0.40000001 0.40000001 0.40000001 0.40000001 0.40000001 0.40000001 0.40000001 0.40000001 0.40000001 0.40000001 0.40000001 0.40000001 0.40000001 0.40000001 0.40000001 0.40000001 0.40000001 0.40000001 0.40000001 0.40000001 0.40000001 0.40000001 0.40000001 0.40000001 0.40000001 0.40000001 0.40000001 0.40000001 0.40000001 0.40000001 0.40000001 0.40000001 0.40000001 0.40000001 0.40000001 0.40000001 0.40000001 0.40000001 0.40000001 0.40000001 0.40000001 0.40000001 0.40000001 0.40000001 0.40000001 0.40000001 0.40000001 0.40000001 0.40000001 0.40000001 0.40000001 0.40000001 0.40000001 0.40000001 0.40000001 0.40000001 0.40000001 0.40000001 0.40000001 0.40000001 0.40000001 0.40000001 0.40000001 0.40000001 0.40000001 0.40000001 0.40000001 0.40000001 0.40000001 0.40000001 0.40000001 0.40000001 0.40000001 0.40000001 0.40000001 0.40000001 0.40000001 0.40000001 0.40000001 0.40000001 0.40000001 0.40000001 0.40000001 0.40000001 0.40000001 0.40000001 0.40000001 0.40000001 0.40000001 0.40000001 0.40000001 0.40000001 0.40000001 0.40000001 0.40000001 0.40000001 0.40000001 0.40000001 0.40000001 0.40000001 0.40000001 0.40000001 0.40000001 0.40000001 0.40000001 0.40000001 0.40000001 0.40000001 0.40000001 0.40000001 0.40000001 0.40000001 0.40000001 0.40000001 0.40000001 0.40000001 0.40000001 0.40000001 0.40000001 0.40000001 0.40000001 0.40000001 0.40000001 0.40000001 0.40000001 0.40000001 0.40000001 0.40000001 0.40000001 0.40000001 0.40000001 0.40000001 0.40000001 0.40000001 0.40000001 0.40000001 0.40000001 0.40000001 0.40000001 0.40000001 0.40000001 0.40000001 0.40000001 0.40000001 0.40000001 0.40000001 0.40000001 0.40000001 0.40000001 0.40000001 0.40000001 0.40000001 0.40000001 0.40000001 0.40000001 0.40000001 0.40000001 0.40000001 0.40000001 0.40000001 0.40000001 0.40000001 0.40000001 0.40000001 0.40000001 0.40000001 0.40000001 0.40000001 0.40000001 0.40000001 0.40000001 0.40000001 0.40000001 0.40000001 0.40000001 0.40000001 0.40000001 0.40000001 0.40000001 0.40000001 0.40000001 0.40000001 0.40000001 0.40000001 0.40000001 0.40000001 0.40000001 0.40000001 0.40000001 0.40000001 0.40000001 0.40000001 0.40000001 0.40000001 0.40000001 0.40000001 0.40000001 0.40000001 0.40000001 0.40000001 0.40000001 0.40000001 0.40000001 0.40000001 0.40000001 0.40000001 0.40000001 0.40000001 0.40000001 0.40000001 0.40000001 0.40000001 0.40000001 0.40000001 0.40000001 0.40000001 0.40000001 0.40000001 0.40000001 0.40000001 0.40000001 0.40000001 0.40000001 0.40000001 0.40000001 0.40000001 0.40000001 0.40000001 0.40000001 0.40000001 0.40000001 0.40000001 0.40000001 0.40000001 0.40000001 0.40000001 0.40000001 0.40000001 0.40000001 0.40000001 0.40000001 0.40000001 0.40000001 0.40000001 0.40000001 0.40000001 0.40000001 0.40000001 0.40000001 0.40000001 0.40000001 0.40000001 0.40000001 0.40000001 0.40000001 0.40000001 0.40000001 0.40000001 0.40000001 0.40000001 0.40000001 0.40000001 0.40000001 0.40000001 0.40000001 0.40000001 0.40000001 0.40000001 0.40000001 0.40000001 0.40000001 0.40000001 0.40000001 0.40000001 0.40000001 0.40000001 0.40000001 0.40000001 0.40000001 0.40000001 0.40000001 0.40000001 0.40000001 0.40000001 0.40000001 0.40000001 0.40000001 0.40000001 0.40000001 0.40000001 0.40000001 0.40000001 0.40000001 0.40000001 0.40000001 0.40000001 0.40000001 0.40000001 0.40000001 0.40000001 0.40000001 0.40000001 0.40000001 0.40000001 0.40000001 0.40000001 0.40000001 0.40000001 0.40000001 0.40000001 0.40000001 0.40000001 0.40000001 0.40000001 0.40000001 0.40000001 0.40000001 0.40000001 0.40000001 0.40000001 0.40000001 0.40000001 0.40000001 0.40000001 0.4000003 0.40000033 0.40000033 0.40000027 0.40000033 0.40000033 0.4000009 0.40000087 0.40000096 0.40000087 0.4000009 0.40000084 0.40000206 0.40000215 0.40000212 0.40000212 0.40000209 0.40000212 0.40000585 0.40000591 0.40000591 0.40000588 0.40000591 0.40000594 0.40001556 0.40001556 0.40001556 0.40001562 0.40001562 0.40001559 0.40004191 0.40004191 0.40004188 0.40004194 0.400042 0.40004188 0.40011185 0.40011182 0.40011185 0.40011185 0.40011182 0.40011185 0.40028945 0.40028948 0.40028951 0.40028951 0.40028957 0.40028954 0.40069616 0.40069613 0.40069625 0.40069628 0.40069628 0.40069631 0.40144116 0.40144128 0.40144125 0.40144131 0.40144128 0.40144116 0.40237731 0.4023774 0.40237731 0.40237719 0.40237719 0.40237713 0.40312389 0.403124 0.40312368 0.40312341 0.40312332 0.40312323 0.40353212 0.40353203 0.4035317 0.40353155 0.40353125 0.40353104 0.40371037 0.40371048 0.4037101 0.40370971 0.40370953 0.40370935 0.40378052 0.40378061 0.40378037 0.40377998 0.40377972 0.40377951 0.40380701 0.4038071 0.40380684 0.40380654 0.40380636 0.40380609 0.40381667 0.40381688 0.40381655 0.40381622 0.40381598 0.40381578 0.40381914 0.40381935 0.40381905 0.40381873 0.40381855 0.40381828 0.40381506 0.40381521 0.40381488 0.40381464 0.40381435 0.40381414 0.4037534 0.40375349 0.40375325 0.40375286 0.40375268 0.40375248 0.40363196 0.4036321 0.40363181 0.40363157 0.40363133 0.40363115 0.40345776 0.40345791 0.40345764 0.4034574 0.40345719 0.40345696 0.40324029 0.40324038 0.4032402 0.40323988 0.40323976 0.40323964 0.40299067 0.40299073 0.40299055 0.4029904 0.40299019 0.40299007 0.40272084 0.40272096 0.40272078 0.40272057 0.40272051 0.40272036 0.4024426 0.4024426 0.40244254 0.40244243 0.40244225 0.40244225 0.40216675 0.40216669 0.4021666 0.40216652 0.40216646 0.40216643 0.40190217 0.40190223 0.40190211 0.40190202 0.40190202 0.40190187 0.40165621 0.40165627 0.4016563 0.40165618 0.40165612 0.40165609 0.40143389 0.40143391 0.40143391 0.40143394 0.40143386 0.4014338 0.40123814 0.40123817 0.40123811 0.40123808 0.40123811 0.40123808 0.40106994 0.40107006 0.40106994 0.40107 0.40106988 0.40107 0.40092894 0.40092897 0.40092891 0.40092903 0.40092894 0.40081325 0.40081325 0.40081328 0.40081325 0.40081328 0.4007206 0.40072054 0.40072051 0.40072051 0.40064776 0.40064779 0.40064776 0.40064785 0.40059185 0.40059185 0.40059188 0.40054974 0.40054974 0.40051872 0.40051877 0.40000001 0.40000001 0.40000001 0.40000001 0.40000001 0.40000001 0.40000001 0.40000001 0.40000001 0.40000001 0.40000001 0.40000001 0.40000001 0.40000001 0.40000001 0.40000001 0.40000001 0.40000001 0.40000001 0.40000001 0.40000001 0.40000001 0.40000001 0.40000001 0.40000001 0.40000001 0.40000001 0.40000001 0.40000001 0.40000001 0.40000001 0.40000001 0.40000001 0.40000001 0.40000001 0.40000001 0.40000001 0.40000001 0.40000001 0.40000001 0.40000001 0.40000001 0.40000001 0.40000001 0.40000001 0.40000001 0.40000001 0.40000001 0.40000001 0.40000001 0.40000001 0.40000001 0.40000001 0.40000001 0.40000001 0.40000001 0.40000001 0.40000001 0.40000001 0.40000001 0.40000001 0.40000001 0.40000001 0.40000001 0.40000001 0.40000001 0.40000001 0.40000001 0.40000001 0.40000001 0.40000001 0.40000001 0.40000001 0.40000001 0.40000001 0.40000001 0.40000001 0.40000001 0.40000001 0.40000001 0.40000001 0.40000001 0.40000001 0.40000001 0.40000001 0.40000001 0.40000001 0.40000001 0.40000001 0.40000001 0.40000001 0.40000001 0.40000001 0.40000001 0.40000001 0.40000001 0.40000001 0.40000001 0.40000001 0.40000001 0.40000001 0.40000001 0.40000001 0.40000001 0.40000001 0.40000001 0.40000001 0.40000001 0.40000001 0.40000001 0.40000001 0.40000001 0.40000001 0.40000001 0.40000001 0.40000001 0.40000001 0.40000001 0.40000001 0.40000001 0.40000001 0.40000001 0.40000001 0.40000001 0.40000001 0.40000001 0.40000001 0.40000001 0.40000001 0.40000001 0.40000001 0.40000001 0.40000001 0.40000001 0.40000001 0.40000001 0.40000001 0.40000001 0.40000001 0.40000001 0.40000001 0.40000001 0.40000001 0.40000001 0.40000001 0.40000001 0.40000001 0.40000001 0.40000001 0.40000001 0.40000001 0.40000001 0.40000001 0.40000001 0.40000001 0.40000001 0.40000001 0.40000001 0.40000001 0.40000001 0.40000001 0.40000001 0.40000001 0.40000001 0.40000001 0.40000001 0.40000001 0.40000001 0.40000001 0.40000001 0.40000001 0.40000001 0.40000001 0.40000001 0.40000001 0.40000001 0.40000001 0.40000001 0.40000001 0.40000001 0.40000001 0.40000001 0.40000001 0.40000001 0.40000001 0.40000001 0.40000001 0.40000001 0.40000001 0.40000001 0.40000001 0.40000001 0.40000001 0.40000001 0.40000001 0.40000001 0.40000001 0.40000001 0.40000001 0.40000001 0.40000001 0.40000001 0.40000001 0.40000001 0.40000001 0.40000001 0.40000001 0.4000003 0.4000003 0.40000036 0.40000033 0.40000027 0.40000027 0.40000024 0.4000003 0.40000033 0.40000099 0.40000099 0.40000093 0.4000009 0.40000093 0.40000093 0.40000096 0.40000093 0.4000009 0.40000206 0.40000212 0.40000206 0.40000209 0.40000209 0.400002 0.40000203 0.40000212 0.40000215 0.40000585 0.40000597 0.40000585 0.40000594 0.40000594 0.40000591 0.40000597 0.40000591 0.40000591 0.40001553 0.40001556 0.4000155 0.40001553 0.40001553 0.40001556 0.40001559 0.40001553 0.40001553 0.40004188 0.40004188 0.40004188 0.40004191 0.40004194 0.40004191 0.40004197 0.400042 0.40004194 0.40011185 0.40011185 0.40011188 0.40011185 0.40011185 0.40011182 0.40011185 0.40011188 0.40011185 0.40028948 0.40028954 0.40028954 0.40028948 0.40028951 0.40028954 0.40028962 0.40028954 0.40028954 0.40069619 0.40069622 0.40069637 0.40069622 0.40069628 0.40069625 0.40069628 0.40069625 0.40069619 0.40144119 0.40144128 0.40144119 0.40144113 0.40144122 0.40144119 0.40144116 0.40144116 0.40144119 0.40237698 0.40237701 0.40237692 0.40237689 0.40237686 0.40237686 0.4023768 0.40237686 0.40237686 0.40312305 0.40312299 0.40312287 0.40312281 0.40312275 0.40312269 0.40312272 0.40312266 0.40312272 0.40353087 0.40353066 0.4035306 0.40353054 0.40353039 0.40353045 0.40353045 0.40353042 0.40353036 0.40370911 0.40370893 0.40370882 0.40370867 0.40370858 0.40370861 0.40370849 0.40370849 0.40370852 0.40377924 0.40377909 0.40377885 0.40377885 0.40377876 0.40377861 0.40377861 0.40377861 0.40377864 0.40380573 0.40380555 0.4038054 0.40380529 0.40380523 0.40380517 0.40380514 0.40380511 0.40380514 0.40381545 0.40381533 0.40381515 0.40381503 0.40381494 0.40381485 0.40381479 0.40381485 0.40381479 0.40381798 0.40381777 0.40381762 0.40381747 0.40381739 0.40381739 0.40381742 0.40381736 0.40381724 0.40381387 0.40381366 0.40381348 0.40381336 0.40381324 0.40381324 0.40381324 0.40381321 0.40381315 0.40375227 0.40375203 0.40375179 0.40375173 0.40375164 0.40375164 0.40375155 0.40375149 0.40375152 0.40363091 0.40363064 0.40363047 0.40363047 0.40363035 0.40363038 0.40363029 0.40363026 0.4036302 0.40345681 0.4034566 0.40345648 0.40345642 0.40345627 0.40345633 0.40345633 0.40345627 0.40345624 0.40323946 0.40323928 0.40323919 0.40323913 0.40323901 0.40323898 0.40323904 0.40323898 0.40323904 0.40298989 0.40298977 0.40298969 0.4029896 0.40298957 0.40298951 0.40298951 0.40298951 0.40298945 0.40272021 0.40272009 0.40272 0.40271997 0.40271991 0.40271994 0.40271991 0.40271991 0.40271994 0.40244213 0.40244195 0.40244195 0.40244183 0.40244192 0.40244183 0.40244186 0.40244189 0.40244177 0.40216628 0.40216622 0.40216616 0.40216616 0.40216607 0.4021661 0.40216604 0.40216601 0.4021661 0.40190184 0.40190181 0.40190169 0.40190169 0.40190175 0.40190169 0.40190169 0.40190169 0.40190172 0.40165603 0.40165597 0.40165597 0.40165594 0.40165594 0.401656 0.40165594 0.40165597 0.40165597 0.40143383 0.40143374 0.40143362 0.40143368 0.40143362 0.40143362 0.40143371 0.40143365 0.40143365 0.40123799 0.40123802 0.40123799 0.40123793 0.40123796 0.40123799 0.40123799 0.40123796 0.40123791 0.40106997 0.40106997 0.40107 0.40107 0.40106991 0.40106997 0.40106988 0.40107 0.40106994 0.40092885 0.40092891 0.40092891 0.40092883 0.4009288 0.40092885 0.40092885 0.40092888 0.40092885 0.40081325 0.40081337 0.40081337 0.40081331 0.40081328 0.40081331 0.40081334 0.40081328 0.40081331 0.40072057 0.40072057 0.40072057 0.40072057 0.40072045 0.40072048 0.40072057 0.4007206 0.40072051 0.40064782 0.40064782 0.40064791 0.40064782 0.4006477 0.40064776 0.4006477 0.40064785 0.40064779 0.40059185 0.40059182 0.40059185 0.40059185 0.40059176 0.40059182 0.40059179 0.40059179 0.40059179 0.4005498 0.40054971 0.40054977 0.40054974 0.40054977 0.40054971 0.4005498 0.40054971 0.40054977 0.40051872 0.4005188 0.40051872 0.40051872 0.40051875 0.40051869 0.40051872 0.40051877 0.40051869 0.40049633 0.40049633 0.40049636 0.40049636 0.4004963 0.40049633 0.40049627 0.4004963 0.40049633 0.4004806 0.40048054 0.40048051 0.40048054 0.40048048 0.40048054 0.4004806 0.40048048 0.40046957 0.40046951 0.40046948 0.40046945 0.40046948 0.40046945 0.40046203 0.40046203 0.40046206 0.40046203 0.40000001 0.40000001 0.40000001 0.40000001 0.40000001 0.40000001 0.40000001 0.40000001 0.40000001 0.40000001 0.40000001 0.40000001 0.40000001 0.40000001 0.40000001 0.40000001 0.40000001 0.40000001 0.40000001 0.40000001 0.40000001 0.40000001 0.40000001 0.40000001 0.40000001 0.40000001 0.40000001 0.40000001 0.40000001 0.40000001 0.40000001 0.40000001 0.40000001 0.40000001 0.40000001 0.40000001 0.40000001 0.40000001 0.40000001 0.40000001 0.40000001 0.40000001 0.40000001 0.40000001 0.40000001 0.40000001 0.40000001 0.40000001 0.40000001 0.40000001 0.40000001 0.40000001 0.40000001 0.40000001 0.40000001 0.40000001 0.40000001 0.40000001 0.40000001 0.40000001 0.40000001 0.40000001 0.40000001 0.40000001 0.40000001 0.40000001 0.40000001 0.40000001 0.40000001 0.40000001 0.40000001 0.40000001 0.40000001 0.40000001 0.40000001 0.40000001 0.40000001 0.40000001 0.40000001 0.40000001 0.40000001 0.40000001 0.40000001 0.40000001 0.40000001 0.40000001 0.40000001 0.40000001 0.40000001 0.40000001 0.40000001 0.40000001 0.40000001 0.40000001 0.40000001 0.40000001 0.40000001 0.40000001 0.40000001 0.40000001 0.40000001 0.40000001 0.40000001 0.40000001 0.40000001 0.40000001 0.40000001 0.40000001 0.40000001 0.40000001 0.40000001 0.40000001 0.40000001 0.40000001 0.40000001 0.40000001 0.40000001 0.40000001 0.40000001 0.40000001 0.40000001 0.40000001 0.40000001 0.40000001 0.40000001 0.40000001 0.40000001 0.40000001 0.40000001 0.40000001 0.40000001 0.40000001 0.40000001 0.40000001 0.40000001 0.40000001 0.40000001 0.40000001 0.40000001 0.40000001 0.40000001 0.40000001 0.40000001 0.40000001 0.40000001 0.40000001 0.40000001 0.40000001 0.40000001 0.40000001 0.40000001 0.40000001 0.40000001 0.40000001 0.40000001 0.40000001 0.40000001 0.40000001 0.40000001 0.40000001 0.40000001 0.40000001 0.40000001 0.40000001 0.40000001 0.40000001 0.40000001 0.40000001 0.40000001 0.40000001 0.40000001 0.40000001 0.40000001 0.40000001 0.40000001 0.40000001 0.40000001 0.40000001 0.40000001 0.40000001 0.40000001 0.40000001 0.40000001 0.40000001 0.40000033 0.40000033 0.4000003 0.40000024 0.40000027 0.40000027 0.40000033 0.40000036 0.40000093 0.4000009 0.40000093 0.40000096 0.40000093 0.40000093 0.4000009 0.40000093 0.40000215 0.40000215 0.40000212 0.40000203 0.400002 0.40000209 0.40000209 0.40000206 0.40000591 0.40000591 0.40000591 0.40000597 0.40000591 0.40000594 0.40000594 0.40000585 0.40001565 0.40001553 0.40001553 0.40001559 0.40001556 0.40001553 0.40001553 0.4000155 0.40004191 0.40004194 0.400042 0.40004197 0.40004191 0.40004194 0.40004191 0.40004188 0.40011188 0.40011185 0.40011188 0.40011185 0.40011182 0.40011185 0.40011185 0.40011188 0.40028954 0.40028954 0.40028954 0.40028962 0.40028954 0.40028951 0.40028948 0.40028954 0.40069619 0.40069619 0.40069625 0.40069628 0.40069625 0.40069628 0.40069622 0.40069637 0.40144128 0.40144119 0.40144116 0.40144116 0.40144119 0.40144122 0.40144113 0.40144119 0.40237689 0.40237686 0.40237686 0.4023768 0.40237686 0.40237686 0.40237689 0.40237692 0.40312278 0.40312272 0.40312266 0.40312272 0.40312269 0.40312275 0.40312281 0.40312287 0.40353033 0.40353036 0.40353042 0.40353045 0.40353045 0.40353039 0.40353054 0.4035306 0.40370849 0.40370852 0.40370849 0.40370849 0.40370861 0.40370858 0.40370867 0.40370882 0.40377855 0.40377864 0.40377861 0.40377861 0.40377861 0.40377876 0.40377885 0.40377885 0.40380502 0.40380514 0.40380511 0.40380514 0.40380517 0.40380523 0.40380529 0.4038054 0.40381476 0.40381479 0.40381485 0.40381479 0.40381485 0.40381494 0.40381503 0.40381515 0.40381727 0.40381724 0.40381736 0.40381742 0.40381739 0.40381739 0.40381747 0.40381762 0.40381312 0.40381315 0.40381321 0.40381324 0.40381324 0.40381324 0.40381336 0.40381348 0.40375146 0.40375152 0.40375149 0.40375155 0.40375164 0.40375164 0.40375173 0.40375179 0.40363029 0.4036302 0.40363026 0.40363029 0.40363038 0.40363035 0.40363047 0.40363047 0.40345621 0.40345624 0.40345627 0.40345633 0.40345633 0.40345627 0.40345642 0.40345648 0.40323901 0.40323904 0.40323898 0.40323904 0.40323898 0.40323901 0.40323913 0.40323919 0.40298957 0.40298945 0.40298951 0.40298951 0.40298951 0.40298957 0.4029896 0.40298969 0.40271989 0.40271994 0.40271991 0.40271991 0.40271994 0.40271991 0.40271997 0.40272 0.40244183 0.40244177 0.40244189 0.40244186 0.40244183 0.40244192 0.40244183 0.40244195 0.4021661 0.4021661 0.40216601 0.40216604 0.4021661 0.40216607 0.40216616 0.40216616 0.40190178 0.40190172 0.40190169 0.40190169 0.40190169 0.40190175 0.40190169 0.40190169 0.40165594 0.40165597 0.40165597 0.40165594 0.401656 0.40165594 0.40165594 0.40165597 0.40143359 0.40143365 0.40143365 0.40143371 0.40143362 0.40143362 0.40143368 0.40143362 0.40123788 0.40123791 0.40123796 0.40123799 0.40123799 0.40123796 0.40123793 0.40123799 0.40106997 0.40106994 0.40107 0.40106988 0.40106997 0.40106991 0.40107 0.40107 0.40092883 0.40092885 0.40092888 0.40092885 0.40092885 0.4009288 0.40092883 0.40092891 0.40081328 0.40081331 0.40081328 0.40081334 0.40081331 0.40081328 0.40081331 0.40081337 0.40072051 0.40072051 0.4007206 0.40072057 0.40072048 0.40072045 0.40072057 0.40072057 0.40064779 0.40064779 0.40064785 0.4006477 0.40064776 0.4006477 0.40064782 0.40064791 0.40059176 0.40059179 0.40059179 0.40059179 0.40059182 0.40059176 0.40059185 0.40059185 0.40054965 0.40054977 0.40054971 0.4005498 0.40054971 0.40054977 0.40054974 0.40054977 0.40051872 0.40051869 0.40051877 0.40051872 0.40051869 0.40051875 0.40051872 0.40051872 0.40049636 0.40049633 0.4004963 0.40049627 0.40049633 0.4004963 0.40049636 0.40049636 0.40048054 0.40048048 0.4004806 0.40048054 0.40048048 0.40048054 0.40048051 0.40048054 0.40046951 0.40046945 0.40046948 0.40046945 0.40046948 0.40046951 0.40046957 0.40046206 0.40046203 0.40046206 0.40046203 0.40046203 0.40000001 0.40000001 0.40000001 0.40000001 0.40000001 0.40000001 0.40000001 0.40000001 0.40000001 0.40000001 0.40000001 0.40000001 0.40000001 0.40000001 0.40000001 0.40000001 0.40000001 0.40000001 0.40000001 0.40000001 0.40000001 0.40000001 0.40000001 0.40000001 0.40000001 0.40000001 0.40000001 0.40000001 0.40000001 0.40000001 0.40000001 0.40000001 0.40000001 0.40000001 0.40000001 0.40000001 0.40000001 0.40000001 0.40000001 0.40000001 0.40000001 0.40000001 0.40000001 0.40000001 0.40000001 0.40000001 0.40000001 0.40000001 0.40000001 0.40000001 0.40000001 0.40000001 0.40000001 0.40000001 0.40000001 0.40000001 0.40000001 0.40000001 0.40000001 0.40000001 0.40000001 0.40000001 0.40000001 0.40000001 0.40000001 0.40000001 0.40000001 0.40000001 0.40000001 0.40000001 0.40000001 0.40000001 0.40000001 0.40000001 0.40000001 0.40000001 0.40000001 0.40000001 0.40000001 0.40000001 0.40000001 0.40000001 0.40000001 0.40000001 0.40000001 0.40000001 0.40000001 0.40000001 0.40000001 0.40000001 0.40000001 0.40000001 0.40000001 0.40000001 0.40000001 0.40000001 0.40000001 0.40000001 0.40000001 0.40000001 0.40000001 0.40000001 0.40000001 0.40000001 0.40000001 0.40000001 0.40000001 0.40000001 0.40000001 0.40000001 0.40000001 0.40000001 0.40000001 0.40000001 0.40000001 0.40000001 0.40000001 0.40000001 0.40000001 0.40000001 0.40000001 0.40000001 0.40000001 0.40000001 0.40000001 0.40000001 0.40000001 0.40000001 0.40000001 0.40000001 0.40000001 0.40000001 0.40000001 0.40000001 0.40000001 0.40000001 0.40000001 0.40000001 0.40000001 0.40000001 0.40000001 0.40000001 0.40000001 0.40000001 0.40000001 0.40000001 0.40000001 0.40000001 0.40000001 0.40000001 0.40000001 0.40000001 0.40000001 0.40000001 0.40000001 0.40000001 0.40000001 0.40000001 0.40000001 0.40000001 0.40000001 0.40000001 0.40000001 0.40000001 0.40000001 0.40000001 0.40000001 0.40000001 0.40000001 0.40000001 0.40000001 0.40000001 0.40000001 0.40000001 0.40000001 0.40000001 0.40000001 0.40000001 0.40000001 0.40000001 0.40000001 0.40000001 0.40000001 0.4000003 0.4000003 0.40000033 0.40000033 0.40000027 0.40000033 0.40000033 0.4000003 0.40000099 0.40000099 0.40000084 0.4000009 0.40000087 0.40000096 0.40000087 0.4000009 0.40000212 0.40000206 0.40000212 0.40000209 0.40000212 0.40000212 0.40000215 0.40000206 0.40000597 0.40000585 0.40000594 0.40000591 0.40000588 0.40000591 0.40000591 0.40000585 0.40001556 0.40001553 0.40001559 0.40001562 0.40001562 0.40001556 0.40001556 0.40001556 0.40004188 0.40004188 0.40004188 0.400042 0.40004194 0.40004188 0.40004191 0.40004191 0.40011185 0.40011185 0.40011185 0.40011182 0.40011185 0.40011185 0.40011182 0.40011185 0.40028954 0.40028948 0.40028954 0.40028957 0.40028951 0.40028951 0.40028948 0.40028945 0.40069622 0.40069619 0.40069631 0.40069628 0.40069628 0.40069625 0.40069613 0.40069616 0.40144128 0.40144119 0.40144116 0.40144128 0.40144131 0.40144125 0.40144128 0.40144116 0.40237701 0.40237698 0.40237713 0.40237719 0.40237719 0.40237731 0.4023774 0.40237731 0.40312299 0.40312305 0.40312323 0.40312332 0.40312341 0.40312368 0.403124 0.40312389 0.40353066 0.40353087 0.40353104 0.40353125 0.40353155 0.4035317 0.40353203 0.40353212 0.40370893 0.40370911 0.40370935 0.40370953 0.40370971 0.4037101 0.40371048 0.40371037 0.40377909 0.40377924 0.40377951 0.40377972 0.40377998 0.40378037 0.40378061 0.40378052 0.40380555 0.40380573 0.40380609 0.40380636 0.40380654 0.40380684 0.4038071 0.40380701 0.40381533 0.40381545 0.40381578 0.40381598 0.40381622 0.40381655 0.40381688 0.40381667 0.40381777 0.40381798 0.40381828 0.40381855 0.40381873 0.40381905 0.40381935 0.40381914 0.40381366 0.40381387 0.40381414 0.40381435 0.40381464 0.40381488 0.40381521 0.40381506 0.40375203 0.40375227 0.40375248 0.40375268 0.40375286 0.40375325 0.40375349 0.4037534 0.40363064 0.40363091 0.40363115 0.40363133 0.40363157 0.40363181 0.4036321 0.40363196 0.4034566 0.40345681 0.40345696 0.40345719 0.4034574 0.40345764 0.40345791 0.40345776 0.40323928 0.40323946 0.40323964 0.40323976 0.40323988 0.4032402 0.40324038 0.40324029 0.40298977 0.40298989 0.40299007 0.40299019 0.4029904 0.40299055 0.40299073 0.40299067 0.40272009 0.40272021 0.40272036 0.40272051 0.40272057 0.40272078 0.40272096 0.40272084 0.40244195 0.40244213 0.40244225 0.40244225 0.40244243 0.40244254 0.4024426 0.4024426 0.40216622 0.40216628 0.40216643 0.40216646 0.40216652 0.4021666 0.40216669 0.40216675 0.40190181 0.40190184 0.40190187 0.40190202 0.40190202 0.40190211 0.40190223 0.40190217 0.40165597 0.40165603 0.40165609 0.40165612 0.40165618 0.4016563 0.40165627 0.40165621 0.40143374 0.40143383 0.4014338 0.40143386 0.40143394 0.40143391 0.40143391 0.40143389 0.40123802 0.40123799 0.40123808 0.40123811 0.40123808 0.40123811 0.40123817 0.40123814 0.40106997 0.40106997 0.40107 0.40106988 0.40107 0.40106994 0.40107006 0.40106994 0.40092891 0.40092885 0.40092894 0.40092903 0.40092891 0.40092897 0.40092894 0.40081337 0.40081325 0.40081328 0.40081325 0.40081328 0.40081325 0.40081325 0.40072057 0.40072057 0.40072051 0.40072051 0.40072054 0.4007206 0.40064782 0.40064782 0.40064785 0.40064776 0.40064779 0.40064776 0.40059182 0.40059185 0.40059188 0.40059185 0.40059185 0.40054971 0.4005498 0.40054974 0.40054974 0.4005188 0.40051872 0.40051877 0.40051872 0.40049633 0.40049633 0.4004806 
Press 1 2975 float
0.0 0.0 0.0 0.0 0.0 0.0 0.0 0.0 0.0 0.0 0.0 0.0 0.0 0.0 0.0 0.0 0.0 0.0 0.0 0.0 0.0 0.0 0.0 0.0 0.0 0.0 0.0 0.0 0.0 0.0 0.0 0.0 0.0 0.0 0.0 0.0 0.0 0.09876262400000001 0.0 0.09876262400000001 0.09876262400000001 0.0 0.09876262400000001 0.09876262400000001 0.0 0.09876262400000001 0.19752525 0.09876262400000001 0.09876262400000001 0.19752525 0.09876262400000001 0.19752525 0.3950505 0.09876262400000001 0.3950505 0.59257573 0.19752525 0.59257573 0.88886362 0.3950505 0.79010099 1.3826767 1.2839141 1.9752525 0.0 0.0 0.0 0.0 0.0 0.0 0.0 0.0 0.0 0.0 0.0 0.0 0.0 0.0 0.0 0.0 0.0 0.0 0.0 0.0 0.0 0.0 0.0 0.0 0.0 0.0 0.0 0.0 0.0 0.0 0.0 0.0 0.0 0.0 0.0 0.0 0.0 0.0 0.0 0.0 0.0 0.0 0.0 0.0 0.0 0.0 0.0 0.0 0.0 0.0 0.0 0.0 0.0 0.0 0.0 0.0 0.0 0.0 0.0 0.0 0.0 0.0 0.0 0.0 0.0 0.0 0.0 0.0 0.09876262400000001 0.09876262400000001 0.09876262400000001 0.09876262400000001 0.0 0.0 0.09876262400000001 0.09876262400000001 0.09876262400000001 0.09876262400000001 0.09876262400000001 0.09876262400000001 0.0 0.09876262400000001 0.09876262400000001 0.09876262400000001 0.19752525 0.19752525 0.19752525 0.19752525 0.09876262400000001 0.09876262400000001 0.09876262400000001 0.09876262400000001 0.19752525 0.09876262400000001 0.19752525 0.19752525 0.29628786 0.29628786 0.3950505 0.3950505 0.59257573 0.59257573 0.79010099 0.88886362 1.1851515 1.2839141 1.7777272000000002 1.9752525 2.6665909 2.9628787 3.8517422999999997 0.0 0.0 0.0 0.0 0.0 0.0 0.0 0.0 0.0 0.0 0.0 0.0 0.0 0.0 0.0 0.0 0.0 0.0 0.0 0.0 0.0 0.0 0.0 0.0 0.0 0.0 0.0 0.0 0.0 0.0 0.0 0.0 0.0 0.0 0.0 0.0 0.0 0.0 0.0 0.0 0.0 0.0 0.0 0.0 0.0 0.0 0.0 0.0 0.0 0.0 0.0 0.0 0.0 0.0 0.0 0.0 0.0 0.0 0.0 0.0 0.0 0.0 0.0 0.0 0.0 0.0 0.0 0.0 0.0 0.0 0.09876262400000001 0.09876262400000001 0.09876262400000001 0.09876262400000001 0.09876262400000001 0.09876262400000001 0.09876262400000001 0.09876262400000001 0.09876262400000001 0.09876262400000001 0.09876262400000001 0.09876262400000001 0.19752525 0.19752525 0.19752525 0.19752525 0.19752525 0.19752525 0.19752525 0.19752525 0.19752525 0.19752525 0.19752525 0.19752525 0.29628786 0.29628786 0.29628786 0.29628786 0.29628786 0.0 0.0 0.0 0.0 0.0 0.0 0.0 0.0 0.0 0.0 0.0 0.0 0.0 0.0 0.0 0.0 0.0 0.0 0.0 0.0 0.0 0.0 0.0 0.0 0.0 0.0 0.0 0.0 0.0 0.0 0.0 0.0 0.0 0.0 0.0 0.0 0.0 0.0 0.0 0.0 0.0 0.0 0.0 0.0 0.0 0.0 0.0 0.0 0.0 0.0 0.0 0.0 0.0 0.0 0.0 0.0 0.09876262400000001 0.09876262400000001 0.09876262400000001 0.0 0.0 0.0 0.0 0.0 0.09876262400000001 0.09876262400000001 0.09876262400000001 0.09876262400000001 0.09876262400000001 0.09876262400000001 0.09876262400000001 0.09876262400000001 0.19752525 0.19752525 0.19752525 0.19752525 0.19752525 0.19752525 0.19752525 0.19752525 0.29628786 0.29628786 0.29628786 0.29628786 0.29628786 0.29628786 0.19752525 0.19752525 0.0 0.0 0.0 0.0 0.0 0.0 0.0 0.0 0.0 0.0 0.0 0.0 0.0 0.0 0.0 0.0 0.0 0.0 0.0 0.0 0.0 0.0 0.0 0.0 0.0 0.0 0.0 0.0 0.0 0.0 0.0 0.0 0.0 0.0 0.0 0.0 0.0 0.0 0.0 0.0 0.0 0.0 0.0 0.0 0.0 0.0 0.0 0.0 0.0 0.0 0.0 0.0 0.0 0.0 0.0 0.0 0.0 0.0 0.0 0.0 0.0 0.0 0.0 0.0 0.0 0.0 0.0 0.0 0.0 0.0 0.0 0.0 0.09876262400000001 0.09876262400000001 0.09876262400000001 0.09876262400000001 0.09876262400000001 0.09876262400000001 0.0 0.0 0.0 0.19752525 0.09876262400000001 0.09876262400000001 0.09876262400000001 0.09876262400000001 0.09876262400000001 0.09876262400000001 0.09876262400000001 0.0 0.19752525 0.19752525 0.19752525 0.19752525 0.19752525 0.19752525 0.09876262400000001 0.09876262400000001 0.09876262400000001 0.09876262400000001 0.09876262400000001 0.19752525 0.19752525 0.29628786 0.3950505 0.59257573 0.79010099 1.1851515 1.7777272000000002 2.6665909 3.8517422999999997 0.0 0.0 0.0 0.0 0.0 0.0 0.0 0.0 0.0 0.0 0.0 0.0 0.0 0.0 0.0 0.0 0.0 0.0 0.0 0.0 0.0 0.0 0.0 0.0 0.0 0.0 0.0 0.0 0.0 0.0 0.0 0.0 0.0 0.0 0.0 0.0 0.0 0.0 0.0 0.0 0.0 0.0 0.0 0.09876262400000001 0.0 0.0 0.0 0.09876262400000001 0.09876262400000001 0.0 0.0 0.09876262400000001 0.09876262400000001 0.09876262400000001 0.0 0.19752525 0.09876262400000001 0.09876262400000001 0.0 0.29628786 0.19752525 0.09876262400000001 0.0 0.3950505 0.19752525 0.09876262400000001 0.09876262400000001 0.59257573 0.3950505 0.19752525 0.09876262400000001 0.88886362 0.59257573 0.3950505 0.09876262400000001 1.2839141 0.88886362 0.59257573 0.19752525 1.9752525 1.3826767 0.79010099 0.3950505 2.9628787 1.9752525 1.2839141 0.0 0.0 0.0 0.0 0.0 0.0 0.0 0.0 0.0 0.0 0.0 0.0 0.0 0.0 0.0 0.0 0.0 0.0 0.0 0.0 0.0 0.0 0.0 0.0 0.0 0.0 0.0 0.0 0.0 0.0 0.0 0.0 0.0 0.0 0.0 0.0 0.0 0.0 0.0 0.0 0.0 0.0 0.0 0.0 0.0 0.0 0.0 0.0 0.0 0.0 0.0 0.0 0.0 0.0 0.0 0.0 0.0 0.0 0.0 0.0 0.0 0.0 0.0 0.0 0.0 0.0 0.0 0.0 0.0 0.0 0.0 0.0 0.0 0.0 0.0 0.0 0.0 0.0 0.0 0.0 0.0 0.0 0.0 0.0 0.0 0.0 0.0 0.0 0.0 0.0 0.0 0.0 0.0 0.0 0.0 0.0 0.0 0.0 0.0 0.0 0.0 0.0 0.0 0.0 0.0 0.0 0.0 0.0 0.0 0.0 0.0 0.0 0.0 0.0 0.0 0.0 0.0 0.0 0.0 0.0 0.0 0.0 0.0 0.0 0.0 0.0 0.0 0.0 0.0 0.0 0.0 0.0 0.0 0.0 0.0 0.0 0.0 0.0 0.0 0.0 0.0 0.0 0.0 0.0 0.0 0.0 0.0 0.0 0.0 0.0 0.0 0.0 0.0 0.0 0.0 0.0 0.0 0.0 0.0 0.0 0.0 0.0 0.0 0.0 0.0 0.0 0.0 0.0 0.0 0.0 0.0 0.0 0.0 0.0 0.0 0.0 0.0 0.0 0.0 0.0 0.0 0.0 0.0 0.0 0.0 0.0 0.0 0.0 0.0 0.0 0.0 0.0 0.0 0.0 0.0 0.0 0.0 0.0 0.0 0.0 0.0 0.0 0.0 0.0 0.0 0.0 0.0 0.0 0.0 0.0 0.0 0.0 0.0 0.0 0.0 0.0 0.0 0.0 0.0 0.0 0.0 0.0 0.0 0.0 0.0 0.0 0.0 0.0 0.0 0.0 0.0 0.0 0.0 0.0 0.0 0.0 0.0 0.0 0.0 0.0 0.0 0.0 0.0 0.0 0.0 0.0 0.0 0.0 0.0 0.0 0.0 0.0 0.0 0.0 0.0 0.0 0.0 0.0 0.0 0.0 0.0 0.0 0.0 0.0 0.0 0.0 0.0 0.0 0.0 0.0 0.0 0.0 0.0 0.0 0.0 0.0 0.0 0.0 0.0 0.0 0.0 0.0 0.0 0.0 0.0 0.0 0.0 0.0 0.0 0.0 0.0 0.0 0.0 0.0 0.0 0.0 0.0 0.0 0.0 0.0 0.0 0.0 0.0 0.0 0.0 0.0 0.0 0.0 0.0 0.0 0.0 0.0 0.0 0.0 0.0 0.0 0.0 0.0 0.0 0.0 0.0 0.0 0.0 0.0 0.0 0.0 0.0 0.0 0.0 0.0 0.0 0.0 0.0 0.0 0.0 0.0 0.0 0.0 0.0 0.0 0.0 0.0 0.0 0.0 0.0 0.0 0.0 0.0 0.0 0.0 0.0 0.0 0.0 0.0 0.0 0.0 0.0 0.0 0.0 0.0 0.0 0.0 0.0 0.0 0.0 0.0 0.0 0.0 0.0 0.0 0.0 0.0 0.0 0.0 0.0 0.0 0.0 0.0 0.0 0.0 0.0 0.0 0.0 0.0 0.0 0.0 0.0 0.0 0.0 0.0 0.0 0.0 0.0 0.0 0.0 0.0 0.0 0.0 0.0 0.0 0.0 0.0 0.0 0.0 0.0 0.0 0.0 0.0 0.0 0.0 0.0 0.0 0.0 0.0 0.0 0.0 0.0 0.0 0.0 0.0 0.0 0.0 0.0 0.0 0.0 0.0 0.0 0.0 0.0 0.0 0.0 0.0 0.0 0.0 0.0 0.0 0.0 0.0 0.0 0.0 0.0 0.0 0.0 0.0 0.0 0.0 0.0 0.0 0.0 0.0 0.0 0.0 0.0 0.0 0.0 0.0 0.0 0.0 0.0 0.0 0.0 0.0 0.0 0.0 0.0 0.0 0.0 0.0 0.0 0.0 0.0 0.0 0.19752525 0.19752525 0.29628786 0.29628786 0.29628786 0.19752525 0.29628786 0.3950505 0.3950505 0.3950505 0.3950505 0.29628786 0.3950505 0.3950505 0.49381313 0.59257573 0.59257573 0.3950505 0.49381313 0.59257573 0.69133836 0.69133836 0.69133836 0.59257573 0.69133836 0.79010099 0.88886362 0.98762625 0.98762625 0.69133836 0.98762625 1.0863888000000002 1.0863888000000002 1.1851515 1.2839141 1.0863888000000002 1.2839141 1.4814393999999997 1.4814393999999997 1.6789646 1.7777272000000002 1.580202 1.7777272000000002 1.9752525 2.0740151 2.1727777 2.2715403999999997 2.3703029 2.6665909 2.7653534 2.8641162000000002 2.9628787 3.0616415 3.5554544999999997 3.6542169999999996 3.7529797999999994 3.7529797999999994 3.8517422999999997 3.950505 5.1356564 5.1356564 5.0368938 4.938131299999999 4.938131299999999 5.1356564 6.814621000000001 6.814621000000001 6.617095900000001 6.518333 6.518333 6.617095900000001 8.098535499999999 8.5923481 8.3948231 8.2960606 8.2960606 8.4935856 9.7774992 10.468838 10.468838 10.468838 10.666363 10.96265 11.950275999999999 12.839139999999999 13.234191000000001 13.332953 13.629241 13.925529000000001 15.308204000000002 16.197067 16.69088 16.987167000000003 17.283455 17.678504999999998 19.851282 20.740147 21.233959 21.629009 22.024059 22.517874 25.777037 26.665901 27.159714 27.554764000000002 28.048576 28.641151 32.986702 33.875565 34.566902 34.961952000000004 35.455765 36.147102000000004 41.875328 43.159240999999994 43.850578000000006 44.443153 44.936966 45.430779 53.233008999999996 55.010735 55.899597 56.195885 56.590934999999995 57.084751000000004 67.849846 70.12138399999999 71.109009 71.109009 71.207771 71.306534 86.022118 89.281281 90.071381 89.380043 88.88623 88.49118 109.42876000000001 113.67553999999998 113.97182 111.89782 110.31761999999999 109.13247 138.36604 144.09425 142.51405 138.16852 135.00812 132.93411 172.73516999999998 179.35223 174.61165 166.71066000000002 161.6738 158.5134 214.11626 221.12836000000001 210.26452999999998 197.52421999999999 190.51211999999998 186.66038999999998 264.08939 268.92871 248.78127999999998 230.11527999999998 221.72052000000002 218.36261000000002 334.70333999999997 333.91327 301.3219 277.12527 268.92807 268.33551 464.67215 454.30222000000003 410.25464 382.00891 376.47827 381.71262 761.54535 740.31171 693.79535 665.35217 665.6485 680.75891 1440.9127 1413.1611 1383.6318 1368.324 1379.2864 1408.3219 2697.1216 2665.5186 2682.604 2708.3801 2741.2671 2789.0667 4264.0913 4219.5513 4301.8169 4392.6743 4457.5586 4527.4795 5468.3677 5397.7563 5525.3501 5672.5967 5767.7983 5858.4575 6081.5249 5977.2397 6112.0405 6286.7378 6400.1084 6506.7637 6331.5967 6204.3052 6319.8452 6494.5376 6612.9414 6728.1855 6441.5659 6297.5903 6393.2778 6555.9165 6671.6499 6790.8394 6514.4136 6360.1763 6439.9609 6590.9399 6703.1128 6823.1851 6577.6611 6418.6943 6489.9824 6633.3486 6742.1567 6861.9248 6629.3892 6470.3384 6539.9419 6680.333 6787.1567 6905.6304 6658.7832 6503.3057 6576.8491 6718.8027 6825.021 6941.7031 6574.5771 6424.0605 6500.0591 6641.4956 6746.2158 6860.7075 6377.728 6233.5601 6309.3447 6447.4932 6549.8218 6661.229 6086.376 5950.1431 6023.5371 6156.2188 6255.1621 6362.9844 5719.4512 5593.4302 5663.5405 5788.4766 5883.4355 5987.27 5295.4966 5182.4556 5247.9937 5364.4844 5455.1548 5553.9058 4830.604 4731.9258 4793.6733 4901.4121 4987.1895 5080.9443 4340.7813 4256.8604 4315.9888 4415.7495 4496.6216 4584.7744 3845.4973 3774.8538 3831.644 3923.707 3999.5586 4081.9937 3364.9963 3305.4644 3357.7397 3441.8899 3512.5066 3589.2031 2916.5303 2865.8499 2911.0535 2986.3926 3051.3608 3121.8076 2505.3467 2466.1436 2503.2061 2570.1118 2628.9229 2691.9268 2133.2661 2110.4497 2141.5286 2201.3513 2253.6963 2308.1765 1803.2595 1800.1752 1827.989 1882.7416 1929.3824 1974.2841 1541.6035 1563.9384 1611.8599 1654.3181 1690.2583 1331.3199 1345.749 1383.1407 1423.3788 1453.178 1165.6178 1190.7281 1228.4846 1257.4352 1015.625 1028.2531 1060.8744 1093.4038 893.1138900000001 915.76404 950.23364 794.15198 822.1944 702.16071 715.02118 0.3950505 0.3950505 0.3950505 0.3950505 0.3950505 0.3950505 0.3950505 0.3950505 0.3950505 0.3950505 0.49381313 0.49381313 0.49381313 0.59257573 0.59257573 0.59257573 0.59257573 0.59257573 0.59257573 0.59257573 0.59257573 0.59257573 0.69133836 0.69133836 0.69133836 0.69133836 0.69133836 0.79010099 0.79010099 0.79010099 0.79010099 0.88886362 0.88886362 0.88886362 0.88886362 0.88886362 0.98762625 1.0863888000000002 1.0863888000000002 1.0863888000000002 1.0863888000000002 1.0863888000000002 1.0863888000000002 1.0863888000000002 1.0863888000000002 1.2839141 1.3826767 1.3826767 1.3826767 1.4814393999999997 1.4814393999999997 1.4814393999999997 1.4814393999999997 1.4814393999999997 1.7777272000000002 1.7777272000000002 1.8764898999999997 1.8764898999999997 1.8764898999999997 1.8764898999999997 1.8764898999999997 1.8764898999999997 1.8764898999999997 2.3703029 2.3703029 2.4690657000000003 2.4690657000000003 2.5678282 2.5678282 2.5678282 2.5678282 2.5678282 3.0616415 3.160404 3.2591665 3.2591665 3.2591665 3.2591665 3.2591665 3.3579292 3.3579292 3.950505 4.0492678 4.1480303 4.1480303 4.1480303 4.1480303 4.1480303 4.1480303 4.1480303 5.2344189000000005 5.3331819000000005 5.4319444 5.5307069 5.5307069 5.5307069 5.5307069 5.5307069 5.5307069 6.814621000000001 6.913383500000001 6.913383500000001 6.913383500000001 6.913383500000001 6.913383500000001 7.0121465 7.0121465 7.0121465 8.6911106 8.8886366 8.8886366 8.8886366 8.8886366 8.9873991 8.9873991 8.9873991 8.9873991 11.160175 11.357700999999999 11.456464 11.456464 11.456464 11.456464 11.555226 11.555226 11.555226 14.221817000000001 14.518104999999998 14.518104999999998 14.518104999999998 14.518104999999998 14.518104999999998 14.518104999999998 14.518104999999998 14.518104999999998 18.073557 18.271082 18.468607000000002 18.468607000000002 18.567369 18.468607000000002 18.468607000000002 18.369844 18.369844 22.912924 23.110449 23.406736 23.406736 23.307973999999998 23.307973999999998 23.209211 23.110449 23.110449 29.036203000000004 29.332490999999997 29.431253 29.431253 29.332490999999997 29.332490999999997 29.233728000000003 29.036203000000004 29.036203000000004 36.640919 36.739681 36.937206 36.838444 36.640919 36.542156 36.44339 36.344627 36.245865 45.924591 46.122116 46.122116 45.825829 45.628304 45.332015999999996 45.233253000000005 45.134491 44.936966 57.578564 57.578564 57.282276 56.887221999999994 56.492172 56.097122 55.899597 55.60331 55.60331 71.504059 71.306534 70.911484 70.220146 69.627571 69.03499599999999 68.639946 68.34365799999999 68.14613299999999 88.09613 87.60231800000001 86.71345500000001 85.82459300000001 84.93573 84.441917 83.84934200000001 83.553055 83.35553 108.44113 107.15722 105.87331 104.5894 103.60178 102.71291 102.2191 101.82405 101.72529 131.15639 129.57619 127.69971000000001 126.02073999999999 124.8356 123.84798 123.45293000000001 123.05788000000001 122.76158999999998 156.04433999999998 153.67406 151.40253 149.42728 148.14337 147.15575 146.85945 146.56316999999999 146.7607 183.89505 181.42598999999998 178.85818 176.78418 175.59903 174.80893 174.71017 174.71017 175.00645 216.5849 214.80719 212.73317999999998 211.153 210.16537000000002 209.96785 210.3629 210.8567 211.153 269.52063 270.40948 270.31073 269.81692999999996 269.81692999999996 270.40948 271.69338999999997 272.681 273.56985 389.61352999999997 396.03302 400.08221000000003 402.35373 404.32898 406.50171 408.97076 411.04474 412.4274 699.42474 715.62152 726.7814900000001 733.99103 739.3241 743.96588 748.3113400000001 751.86676 754.33575 1442.4929 1472.6149 1494.8359 1509.5511 1519.8223 1528.2169 1535.4264 1541.0557 1544.7098 2842.4956 2890.4927 2926.7373 2951.4272 2968.8088 2982.1414 2992.8076 3001.2021 3006.5352 4602.1411 4669.9883 4722.3301 4758.6733 4783.9551 4803.2134 4818.5205 4830.1743 4837.5811 5953.4614 6040.4663 6108.8062 6156.9009 6190.9717 6216.5498 6236.5977 6251.7075 6261.188 6618.1592 6721.5557 6803.8184 6862.6763 6904.5479 6935.9521 6960.542 6979.0093 6990.7607 6851.4282 6966.771 7059.5977 7126.7495 7174.7432 7210.9849 7239.4258 7260.855 7274.2852 6920.8916 7043.8335 7143.3721 7215.9521 7268.1899 7307.6895 7338.9927 7362.2974 7377.1099 6956.3901 7082.9795 7185.8706 7261.1128 7315.6196 7357.1904 7389.9736 7414.7583 7430.4585 6995.6147 7123.1831 7226.7573 7302.7852 7357.979 7400.2383 7433.8091 7459.1846 7475.1797 7038.3208 7164.7915 7267.5674 7342.897 7397.6909 7439.8477 7473.415 7498.8872 7514.9795 7072.3042 7196.5879 7297.3765 7371.1177 7424.8188 7466.2798 7499.5469 7524.6206 7540.5142 6988.3257 7109.7266 7207.6362 7279.2925 7331.4058 7371.6753 7403.9497 7428.625 7444.1206 6785.1685 6902.397 6997.0288 7066.2021 7116.3301 7155.1104 7186.1938 7209.8765 7224.9741 6482.2495 6594.8081 6685.1694 6750.9673 6798.8115 6835.7061 6865.3003 6887.792 6902.0962 6101.064 6207.9551 6293.4482 6355.1772 6400.0435 6434.4575 6462.1665 6483.4658 6496.7778 5661.6255 5761.8555 5841.1914 5898.1553 5939.4502 5971.0859 5996.6113 6015.9277 6028.1484 5181.6914 5274.2642 5346.9434 5398.6465 5435.7744 5464.1372 5486.9849 5504.3174 5515.3477 4678.2393 4763.0469 4828.6689 4874.811 4907.6714 4932.6611 4952.4365 4967.7842 4977.4258 4168.3584 4245.4873 4304.5371 4345.4111 4373.9043 4395.8149 4413.1074 4426.1753 4434.4282 3668.8425 3739.0662 3792.3223 3828.8071 3853.9153 3872.7458 3887.6538 3898.8345 3905.9944 3194.6028 3259.0808 3307.7083 3340.9749 3363.5764 3380.1118 3393.0269 3402.6155 3408.6816 2757.4661 2816.5684 2862.0166 2893.3232 2914.3896 2929.3115 2940.6245 2949.0122 2954.0835 2365.4724 2419.3691 2462.4863 2493.0767 2513.9553 2528.2307 2538.4275 2545.7107 2550.1777 2022.4679 2070.2646 2111.4954 2142.5874 2164.1201 2178.604 2188.5496 2195.405 2199.3643 1728.4017 1769.2275 1807.6571 1839.3781 1862.6656 1878.6698 1889.3073 1896.1115 1899.8491 1482.0269 1514.8599 1549.1155 1580.4291 1605.6698 1623.8884 1636.0344 1643.6256 1647.8005 1279.4524 1303.7163 1332.1943 1361.0466 1386.5261 1406.6661 1420.9048 1430.1785 1435.2369 1115.0607 1132.9382 1154.1311 1177.9949 1201.3976 1221.4832 1237.0538 1247.7416 1253.9146 977.4860199999999 995.5351 1010.8759 1028.1998 1046.6056 1064.1089 1078.8148 1089.6412 1096.3175 853.92938 878.72144 895.25079 907.9111300000001 920.13049 932.7003800000001 944.30298 953.5321 959.50897 739.71777 767.3104900000001 790.90228 807.3413099999999 817.90375 825.91022 833.14935 839.2807 843.5383300000001 654.83209 669.10535 687.97217 707.5780599999999 723.5756200000001 734.7338900000001 741.95416 746.4667400000001 749.33813 608.79755 610.1351900000001 616.7374900000001 628.05444 639.7644 648.80261 654.61871 657.76263 568.47565 563.4556299999999 563.7565900000001 564.73193 565.40723 565.85742 543.1616799999999 537.81519 532.1124900000001 528.33453 0.3950505 0.3950505 0.3950505 0.3950505 0.3950505 0.3950505 0.3950505 0.3950505 0.59257573 0.59257573 0.59257573 0.59257573 0.59257573 0.59257573 0.49381313 0.49381313 0.69133836 0.69133836 0.69133836 0.69133836 0.69133836 0.69133836 0.59257573 0.59257573 0.88886362 0.88886362 0.88886362 0.88886362 0.88886362 0.88886362 0.79010099 0.79010099 1.0863888000000002 1.0863888000000002 1.0863888000000002 1.0863888000000002 1.0863888000000002 1.0863888000000002 1.0863888000000002 1.0863888000000002 1.4814393999999997 1.4814393999999997 1.4814393999999997 1.4814393999999997 1.4814393999999997 1.4814393999999997 1.3826767 1.3826767 1.8764898999999997 1.8764898999999997 1.8764898999999997 1.8764898999999997 1.8764898999999997 1.8764898999999997 1.8764898999999997 1.8764898999999997 2.5678282 2.5678282 2.5678282 2.5678282 2.5678282 2.5678282 2.4690657000000003 2.4690657000000003 3.3579292 3.3579292 3.3579292 3.2591665 3.2591665 3.2591665 3.2591665 3.2591665 4.1480303 4.1480303 4.1480303 4.1480303 4.1480303 4.1480303 4.1480303 4.1480303 5.5307069 5.5307069 5.5307069 5.5307069 5.5307069 5.5307069 5.5307069 5.4319444 7.0121465 7.0121465 7.0121465 7.0121465 6.913383500000001 6.913383500000001 6.913383500000001 6.913383500000001 8.9873991 8.9873991 8.9873991 8.9873991 8.9873991 8.8886366 8.8886366 8.8886366 11.555226 11.555226 11.555226 11.555226 11.456464 11.456464 11.456464 11.456464 14.518104999999998 14.518104999999998 14.518104999999998 14.518104999999998 14.518104999999998 14.518104999999998 14.518104999999998 14.518104999999998 18.369844 18.369844 18.369844 18.468607000000002 18.468607000000002 18.567369 18.468607000000002 18.468607000000002 23.110449 23.110449 23.110449 23.209211 23.307973999999998 23.307973999999998 23.406736 23.406736 29.036203000000004 29.036203000000004 29.036203000000004 29.233728000000003 29.332490999999997 29.332490999999997 29.431253 29.431253 36.245865 36.245865 36.344627 36.44339 36.542156 36.640919 36.838444 36.937206 44.838203 44.936966 45.134491 45.233253000000005 45.332015999999996 45.628304 45.825829 46.122116 55.504546999999995 55.60331 55.60331 55.899597 56.097122 56.492172 56.887221999999994 57.282276 68.14613299999999 68.14613299999999 68.34365799999999 68.639946 69.03499599999999 69.627571 70.220146 70.911484 83.35553 83.35553 83.553055 83.84934200000001 84.441917 84.93573 85.82459300000001 86.71345500000001 101.62653 101.72529 101.82405 102.2191 102.71291 103.60178 104.5894 105.87331 122.76158999999998 122.76158999999998 123.05788000000001 123.45293000000001 123.84798 124.8356 126.02073999999999 127.69971000000001 146.66193 146.7607 146.56316999999999 146.85945 147.15575 148.14337 149.42728 151.40253 175.00645 175.00645 174.71017 174.71017 174.80893 175.59903 176.78418 178.85818 211.35051 211.153 210.8567 210.3629 209.96785 210.16537000000002 211.153 212.73317999999998 273.7674 273.56985 272.681 271.69338999999997 270.40948 269.81692999999996 269.81692999999996 270.31073 412.9212 412.4274 411.04474 408.97076 406.50171 404.32898 402.35373 400.08221000000003 755.0271 754.33575 751.86676 748.3113400000001 743.96588 739.3241 733.99103 726.7814900000001 1545.895 1544.7098 1541.0557 1535.4264 1528.2169 1519.8223 1509.5511 1494.8359 3008.4116 3006.5352 3001.2021 2992.8076 2982.1414 2968.8088 2951.4272 2926.7373 4840.0498 4837.5811 4830.1743 4818.5205 4803.2134 4783.9551 4758.6733 4722.3301 6264.5459 6261.188 6251.7075 6236.5977 6216.5498 6190.9717 6156.9009 6108.8062 6994.6123 6990.7607 6979.0093 6960.542 6935.9521 6904.5479 6862.6763 6803.8184 7278.8276 7274.2852 7260.855 7239.4258 7210.9849 7174.7432 7126.7495 7059.5977 7382.2446 7377.1099 7362.2974 7338.9927 7307.6895 7268.1899 7215.9521 7143.3721 7435.6919 7430.4585 7414.7583 7389.9736 7357.1904 7315.6196 7261.1128 7185.8706 7480.6104 7475.1797 7459.1846 7433.8091 7400.2383 7357.979 7302.7852 7226.7573 7520.6074 7514.9795 7498.8872 7473.415 7439.8477 7397.6909 7342.897 7267.5674 7546.042 7540.5142 7524.6206 7499.5469 7466.2798 7424.8188 7371.1177 7297.3765 7449.4502 7444.1206 7428.625 7403.9497 7371.6753 7331.4058 7279.2925 7207.6362 7230.1055 7224.9741 7209.8765 7186.1938 7155.1104 7116.3301 7066.2021 6997.0288 6907.127 6902.0962 6887.792 6865.3003 6835.7061 6798.8115 6750.9673 6685.1694 6501.314 6496.7778 6483.4658 6462.1665 6434.4575 6400.0435 6355.1772 6293.4482 6032.4849 6028.1484 6015.9277 5996.6113 5971.0859 5939.4502 5898.1553 5841.1914 5519.0898 5515.3477 5504.3174 5486.9849 5464.1372 5435.7744 5398.6465 5346.9434 4980.6729 4977.4258 4967.7842 4952.4365 4932.6611 4907.6714 4874.811 4828.6689 4437.4741 4434.4282 4426.1753 4413.1074 4395.8149 4373.9043 4345.4111 4304.5371 3908.3481 3905.9944 3898.8345 3887.6538 3872.7458 3853.9153 3828.8071 3792.3223 3410.7363 3408.6816 3402.6155 3393.0269 3380.1118 3363.5764 3340.9749 3307.7083 2955.8389 2954.0835 2949.0122 2940.6245 2929.3115 2914.3896 2893.3232 2862.0166 2551.7314 2550.1777 2545.7107 2538.4275 2528.2307 2513.9553 2493.0767 2462.4863 2200.6196 2199.3643 2195.405 2188.5496 2178.604 2164.1201 2142.5874 2111.4954 1901.095 1899.8491 1896.1115 1889.3073 1878.6698 1862.6656 1839.3781 1807.6571 1649.129 1647.8005 1643.6256 1636.0344 1623.8884 1605.6698 1580.4291 1549.1155 1436.9231 1435.2369 1430.1785 1420.9048 1406.6661 1386.5261 1361.0466 1332.1943 1255.8494 1253.9146 1247.7416 1237.0538 1221.4832 1201.3976 1177.9949 1154.1311 1098.4828 1096.3175 1089.6412 1078.8148 1064.1089 1046.6056 1028.1998 1010.8759 961.5306400000001 959.50897 953.5321 944.30298 932.7003800000001 920.13049 907.9111300000001 895.25079 845.07111 843.5383300000001 839.2807 833.14935 825.91022 817.90375 807.3413099999999 790.90228 750.32257 749.33813 746.4667400000001 741.95416 734.7338900000001 723.5756200000001 707.5780599999999 687.97217 658.94153 657.76263 654.61871 648.80261 639.7644 628.05444 616.7374900000001 610.1351900000001 565.9325 565.85742 565.40723 564.73193 563.7565900000001 563.4556299999999 568.47565 526.98022 528.33453 532.1124900000001 537.81519 543.1616799999999 0.3950505 0.3950505 0.29628786 0.29628786 0.29628786 0.19752525 0.19752525 0.49381313 0.3950505 0.3950505 0.3950505 0.3950505 0.3950505 0.29628786 0.19752525 0.59257573 0.59257573 0.59257573 0.59257573 0.49381313 0.3950505 0.3950505 0.29628786 0.79010099 0.79010099 0.69133836 0.69133836 0.69133836 0.59257573 0.49381313 0.3950505 1.0863888000000002 0.98762625 0.98762625 0.98762625 0.88886362 0.79010099 0.69133836 0.59257573 1.3826767 1.2839141 1.2839141 1.1851515 1.0863888000000002 1.0863888000000002 0.98762625 0.69133836 1.7777272000000002 1.7777272000000002 1.7777272000000002 1.6789646 1.4814393999999997 1.4814393999999997 1.2839141 1.0863888000000002 2.3703029 2.3703029 2.2715403999999997 2.1727777 2.0740151 1.9752525 1.7777272000000002 1.580202 3.160404 3.0616415 3.0616415 2.9628787 2.8641162000000002 2.7653534 2.6665909 2.3703029 4.0492678 3.950505 3.950505 3.8517422999999997 3.7529797999999994 3.7529797999999994 3.6542169999999996 3.5554544999999997 5.3331819000000005 5.2344189000000005 5.1356564 4.938131299999999 4.938131299999999 5.0368938 5.1356564 5.1356564 6.913383500000001 6.814621000000001 6.617095900000001 6.518333 6.518333 6.617095900000001 6.814621000000001 6.814621000000001 8.8886366 8.6911106 8.4935856 8.2960606 8.2960606 8.3948231 8.5923481 8.098535499999999 11.357700999999999 11.160175 10.96265 10.666363 10.468838 10.468838 10.468838 9.7774992 14.518104999999998 14.221817000000001 13.925529000000001 13.629241 13.332953 13.234191000000001 12.839139999999999 11.950275999999999 18.271082 18.073557 17.678504999999998 17.283455 16.987167000000003 16.69088 16.197067 15.308204000000002 23.110449 22.912924 22.517874 22.024059 21.629009 21.233959 20.740147 19.851282 29.332490999999997 29.036203000000004 28.641151 28.048576 27.554764000000002 27.159714 26.665901 25.777037 36.739681 36.640919 36.147102000000004 35.455765 34.961952000000004 34.566902 33.875565 32.986702 46.122116 45.924591 45.430779 44.936966 44.443153 43.850578000000006 43.159240999999994 41.875328 57.578564 57.578564 57.084751000000004 56.590934999999995 56.195885 55.899597 55.010735 53.233008999999996 71.306534 71.504059 71.306534 71.207771 71.109009 71.109009 70.12138399999999 67.849846 87.60231800000001 88.09613 88.49118 88.88623 89.380043 90.071381 89.281281 86.022118 107.15722 108.44113 109.13247 110.31761999999999 111.89782 113.97182 113.67553999999998 109.42876000000001 129.57619 131.15639 132.93411 135.00812 138.16852 142.51405 144.09425 138.36604 153.67406 156.04433999999998 158.5134 161.6738 166.71066000000002 174.61165 179.35223 172.73516999999998 181.42598999999998 183.89505 186.66038999999998 190.51211999999998 197.52421999999999 210.26452999999998 221.12836000000001 214.11626 214.80719 216.5849 218.36261000000002 221.72052000000002 230.11527999999998 248.78127999999998 268.92871 264.08939 270.40948 269.52063 268.33551 268.92807 277.12527 301.3219 333.91327 334.70333999999997 396.03302 389.61352999999997 381.71262 376.47827 382.00891 410.25464 454.30222000000003 464.67215 715.62152 699.42474 680.75891 665.6485 665.35217 693.79535 740.31171 761.54535 1472.6149 1442.4929 1408.3219 1379.2864 1368.324 1383.6318 1413.1611 1440.9127 2890.4927 2842.4956 2789.0667 2741.2671 2708.3801 2682.604 2665.5186 2697.1216 4669.9883 4602.1411 4527.4795 4457.5586 4392.6743 4301.8169 4219.5513 4264.0913 6040.4663 5953.4614 5858.4575 5767.7983 5672.5967 5525.3501 5397.7563 5468.3677 6721.5557 6618.1592 6506.7637 6400.1084 6286.7378 6112.0405 5977.2397 6081.5249 6966.771 6851.4282 6728.1855 6612.9414 6494.5376 6319.8452 6204.3052 6331.5967 7043.8335 6920.8916 6790.8394 6671.6499 6555.9165 6393.2778 6297.5903 6441.5659 7082.9795 6956.3901 6823.1851 6703.1128 6590.9399 6439.9609 6360.1763 6514.4136 7123.1831 6995.6147 6861.9248 6742.1567 6633.3486 6489.9824 6418.6943 6577.6611 7164.7915 7038.3208 6905.6304 6787.1567 6680.333 6539.9419 6470.3384 6629.3892 7196.5879 7072.3042 6941.7031 6825.021 6718.8027 6576.8491 6503.3057 6658.7832 7109.7266 6988.3257 6860.7075 6746.2158 6641.4956 6500.0591 6424.0605 6574.5771 6902.397 6785.1685 6661.229 6549.8218 6447.4932 6309.3447 6233.5601 6377.728 6594.8081 6482.2495 6362.9844 6255.1621 6156.2188 6023.5371 5950.1431 6086.376 6207.9551 6101.064 5987.27 5883.4355 5788.4766 5663.5405 5593.4302 5719.4512 5761.8555 5661.6255 5553.9058 5455.1548 5364.4844 5247.9937 5182.4556 5295.4966 5274.2642 5181.6914 5080.9443 4987.1895 4901.4121 4793.6733 4731.9258 4830.604 4763.0469 4678.2393 4584.7744 4496.6216 4415.7495 4315.9888 4256.8604 4340.7813 4245.4873 4168.3584 4081.9937 3999.5586 3923.707 3831.644 3774.8538 3845.4973 3739.0662 3668.8425 3589.2031 3512.5066 3441.8899 3357.7397 3305.4644 3364.9963 3259.0808 3194.6028 3121.8076 3051.3608 2986.3926 2911.0535 2865.8499 2916.5303 2816.5684 2757.4661 2691.9268 2628.9229 2570.1118 2503.2061 2466.1436 2505.3467 2419.3691 2365.4724 2308.1765 2253.6963 2201.3513 2141.5286 2110.4497 2133.2661 2070.2646 2022.4679 1974.2841 1929.3824 1882.7416 1827.989 1800.1752 1803.2595 1769.2275 1728.4017 1690.2583 1654.3181 1611.8599 1563.9384 1541.6035 1514.8599 1482.0269 1453.178 1423.3788 1383.1407 1345.749 1331.3199 1303.7163 1279.4524 1257.4352 1228.4846 1190.7281 1165.6178 1132.9382 1115.0607 1093.4038 1060.8744 1028.2531 1015.625 995.5351 977.4860199999999 950.23364 915.76404 893.1138900000001 878.72144 853.92938 822.1944 794.15198 767.3104900000001 739.71777 715.02118 702.16071 669.10535 654.83209 608.79755 
Type 1 2975 float
0 0 0 0 0 0 0 0 0 0 0 0 0 0 0 0 0 0 0 0 0 0 0 0 0 0 0 0 0 0 0 0 0 0 0 0 0 0 0 0 0 0 0 0 0 0 0 0 0 0 0 0 0 0 0 0 0 0 0 0 0 0 0 0 0 0 0 0 0 0 0 0 0 0 0 0 0 0 0 0 0 0 0 0 0 0 0 0 0 0 0 0 0 0 0 0 0 0 0 0 0 0 0 0 0 0 0 0 0 0 0 0 0 0 0 0 0 0 0 0 0 0 0 0 0 0 0 0 0 0 0 0 0 0 0 0 0 0 0 0 0 0 0 0 0 0 0 0 0 0 0 0 0 0 0 0 0 0 0 0 0 0 0 0 0 0 0 0 0 0 0 0 0 0 0 0 0 0 0 0 0 0 0 0 0 0 0 0 0 0 0 0 0 0 0 0 0 0 0 0 0 0 0 0 0 0 0 0 0 0 0 0 0 0 0 0 0 0 0 0 0 0 0 0 0 0 0 0 0 0 0 0 0 0 0 0 0 0 0 0 0 0 0 0 0 0 0 0 0 0 0 0 0 0 0 0 0 0 0 0 0 0 0 0 0 0 0 0 0 0 0 0 0 0 0 0 0 0 0 0 0 0 0 0 0 0 0 0 0 0 0 0 0 0 0 0 0 0 0 0 0 0 0 0 0 0 0 0 0 0 0 0 0 0 0 0 0 0 0 0 0 0 0 0 0 0 0 0 0 0 0 0 0 0 0 0 0 0 0 0 0 0 0 0 0 0 0 0 0 0 0 0 0 0 0 0 0 0 0 0 0 0 0 0 0 0 0 0 0 0 0 0 0 0 0 0 0 0 0 0 0 0 0 0 0 0 0 0 0 0 0 0 0 0 0 0 0 0 0 0 0 0 0 0 0 0 0 0 0 0 0 0 0 0 0 0 0 0 0 0 0 0 0 0 0 0 0 0 0 0 0 0 0 0 0 0 0 0 0 0 0 0 0 0 0 0 0 0 0 0 0 0 0 0 0 0 0 0 0 0 0 0 0 0 0 0 0 0 0 0 0 0 0 0 0 0 0 0 0 0 0 0 0 0 0 0 0 0 0 0 0 0 0 0 0 0 0 0 0 0 0 0 0 0 0 0 0 0 0 0 0 0 0 0 0 0 0 0 0 0 0 0 0 0 0 0 0 0 0 0 0 0 0 0 0 0 0 0 0 0 0 0 0 0 0 0 0 0 0 0 0 0 0 0 0 0 0 0 0 0 0 0 0 0 0 0 0 0 0 0 0 0 0 0 0 0 0 0 0 0 0 0 0 0 0 0 0 0 0 0 0 0 0 0 0 0 0 0 0 0 0 0 0 0 0 0 0 0 0 0 0 0 0 0 0 0 0 0 0 0 0 0 0 0 0 0 0 0 0 0 0 0 0 0 0 0 0 0 0 0 0 0 0 0 0 0 0 0 0 0 0 0 0 0 0 0 0 0 0 0 0 0 0 0 0 0 0 0 0 0 0 0 0 0 0 0 0 0 0 0 0 0 0 0 0 0 0 0 0 0 0 0 0 0 0 0 0 0 0 0 0 0 0 0 0 0 0 0 0 0 0 0 0 0 0 0 0 0 0 0 0 0 0 0 0 0 0 0 0 0 0 0 0 0 0 0 0 0 0 0 0 0 0 0 0 0 0 0 0 0 0 0 0 0 0 0 0 0 0 0 0 0 0 0 0 0 0 0 0 0 0 0 0 0 0 0 0 0 0 0 0 0 0 0 0 0 0 0 0 0 0 0 0 0 0 0 0 0 0 0 0 0 0 0 0 0 0 0 0 0 0 0 0 0 0 0 0 0 0 0 0 0 0 0 0 0 0 0 0 0 0 0 0 0 0 0 0 0 0 0 0 0 0 0 0 0 0 0 0 0 0 0 0 0 0 0 0 0 0 0 0 0 0 0 0 0 0 0 0 0 0 0 0 0 0 0 0 0 0 0 0 0 0 0 0 0 0 0 0 0 0 0 0 0 0 0 0 0 0 0 0 0 0 0 0 0 0 0 0 0 0 0 0 0 0 0 0 0 0 0 0 0 0 0 0 0 0 0 0 0 0 0 0 0 0 0 0 0 0 0 0 0 0 0 0 0 0 0 0 0 0 0 0 0 0 0 0 0 0 0 0 0 0 0 0 0 0 0 0 0 0 0 0 0 0 0 0 0 0 0 0 0 0 0 0 0 0 0 0 0 0 0 0 0 0 0 0 0 0 0 0 0 0 0 0 0 0 0 0 0 0 0 0 0 0 0 0 0 0 0 0 0 0 0 0 0 0 0 0 0 0 3 3 3 3 3 3 3 3 3 3 3 3 3 3 3 3 3 3 3 3 3 3 3 3 3 3 3 3 3 3 3 3 3 3 3 3 3 3 3 3 3 3 3 3 3 3 3 3 3 3 3 3 3 3 3 3 3 3 3 3 3 3 3 3 3 3 3 3 3 3 3 3 3 3 3 3 3 3 3 3 3 3 3 3 3 3 3 3 3 3 3 3 3 3 3 3 3 3 3 3 3 3 3 3 3 3 3 3 3 3 3 3 3 3 3 3 3 3 3 3 3 3 3 3 3 3 3 3 3 3 3 3 3 3 3 3 3 3 3 3 3 3 3 3 3 3 3 3 3 3 3 3 3 3 3 3 3 3 3 3 3 3 3 3 3 3 3 3 3 3 3 3 3 3 3 3 3 3 3 3 3 3 3 3 3 3 3 3 3 3 3 3 3 3 3 3 3 3 3 3 3 3 3 3 3 3 3 3 3 3 3 3 3 3 3 3 3 3 3 3 3 3 3 3 3 3 3 3 3 3 3 3 3 3 3 3 3 3 3 3 3 3 3 3 3 3 3 3 3 3 3 3 3 3 3 3 3 3 3 3 3 3 3 3 3 3 3 3 3 3 3 3 3 3 3 3 3 3 3 3 3 3 3 3 3 3 3 3 3 3 3 3 3 3 3 3 3 3 3 3 3 3 3 3 3 3 3 3 3 3 3 3 3 3 3 3 3 3 3 3 3 3 3 3 3 3 3 3 3 3 3 3 3 3 3 3 3 3 3 3 3 3 3 3 3 3 3 3 3 3 3 3 3 3 3 3 3 3 3 3 3 3 3 3 3 3 3 3 3 3 3 3 3 3 3 3 3 3 3 3 3 3 3 3 3 3 3 3 3 3 3 3 3 3 3 3 3 3 3 3 3 3 3 3 3 3 3 3 3 3 3 3 3 3 3 3 3 3 3 3 3 3 3 3 3 3 3 3 3 3 3 3 3 3 3 3 3 3 3 3 3 3 3 3 3 3 3 3 3 3 3 3 3 3 3 3 3 3 3 3 3 3 3 3 3 3 3 3 3 3 3 3 3 3 3 3 3 3 3 3 3 3 3 3 3 3 3 3 3 3 3 3 3 3 3 3 3 3 3 3 3 3 3 3 3 3 3 3 3 3 3 3 3 3 3 3 3 3 3 3 3 3 3 3 3 3 3 3 3 3 3 3 3 3 3 3 3 3 3 3 3 3 3 3 3 3 3 3 3 3 3 3 3 3 3 3 3 3 3 3 3 3 3 3 3 3 3 3 3 3 3 3 3 3 3 3 3 3 3 3 3 3 3 3 3 3 3 3 3 3 3 3 3 3 3 3 3 3 3 3 3 3 3 3 3 3 3 3 3 3 3 3 3 3 3 3 3 3 3 3 3 3 3 3 3 3 3 3 3 3 3 3 3 3 3 3 3 3 3 3 3 3 3 3 3 3 3 3 3 3 3 3 3 3 3 3 3 3 3 3 3 3 3 3 3 3 3 3 3 3 3 3 3 3 3 3 3 3 3 3 3 3 3 3 3 3 3 3 3 3 3 3 3 3 3 3 3 3 3 3 3 3 3 3 3 3 3 3 3 3 3 3 3 3 3 3 3 3 3 3 3 3 3 3 3 3 3 3 3 3 3 3 3 3 3 3 3 3 3 3 3 3 3 3 3 3 3 3 3 3 3 3 3 3 3 3 3 3 3 3 3 3 3 3 3 3 3 3 3 3 3 3 3 3 3 3 3 3 3 3 3 3 3 3 3 3 3 3 3 3 3 3 3 3 3 3 3 3 3 3 3 3 3 3 3 3 3 3 3 3 3 3 3 3 3 3 3 3 3 3 3 3 3 3 3 3 3 3 3 3 3 3 3 3 3 3 3 3 3 3 3 3 3 3 3 3 3 3 3 3 3 3 3 3 3 3 3 3 3 3 3 3 3 3 3 3 3 3 3 3 3 3 3 3 3 3 3 3 3 3 3 3 3 3 3 3 3 3 3 3 3 3 3 3 3 3 3 3 3 3 3 3 3 3 3 3 3 3 3 3 3 3 3 3 3 3 3 3 3 3 3 3 3 3 3 3 3 3 3 3 3 3 3 3 3 3 3 3 3 3 3 3 3 3 3 3 3 3 3 3 3 3 3 3 3 3 3 3 3 3 3 3 3 3 3 3 3 3 3 3 3 3 3 3 3 3 3 3 3 3 3 3 3 3 3 3 3 3 3 3 3 3 3 3 3 3 3 3 3 3 3 3 3 3 3 3 3 3 3 3 3 3 3 3 3 3 3 3 3 3 3 3 3 3 3 3 3 3 3 3 3 3 3 3 3 3 3 3 3 3 3 3 3 3 3 3 3 3 3 3 3 3 3 3 3 3 3 3 3 3 3 3 3 3 3 3 3 3 3 3 3 3 3 3 3 3 3 3 3 3 3 3 3 3 3 3 3 3 3 3 3 3 3 3 3 3 3 3 3 3 3 3 3 3 3 3 3 3 3 3 3 3 3 3 3 3 3 3 3 3 3 3 3 3 3 3 3 3 3 3 3 3 3 3 3 3 3 3 3 3 3 3 3 3 3 3 3 3 3 3 3 3 3 3 3 3 3 3 3 3 3 3 3 3 3 3 3 3 3 3 3 3 3 3 3 3 3 3 3 3 3 3 3 3 3 3 3 3 3 3 3 3 3 3 3 3 3 3 3 3 3 3 3 3 3 3 3 3 3 3 3 3 3 3 3 3 3 3 3 3 3 3 3 3 3 3 3 3 3 3 3 3 3 3 3 3 3 3 3 3 3 3 3 3 3 3 3 3 3 3 3 3 3 3 3 3 3 3 3 3 3 3 3 3 3 3 3 3 3 3 3 3 3 3 3 3 3 3 3 3 3 3 3 3 3 3 3 3 3 3 3 3 3 3 3 3 3 3 3 3 3 3 3 3 3 3 3 3 3 3 3 3 3 3 3 3 3 3 3 3 3 3 3 3 3 3 3 3 3 3 3 3 3 3 3 3 3 3 3 3 3 3 3 3 3 3 3 3 3 3 3 3 3 3 3 3 3 3 3 3 3 3 3 3 3 3 3 3 3 3 3 3 3 3 3 3 3 3 3 3 3 3 3 3 3 3 3 3 3 3 3 3 3 3 3 3 3 3 3 3 3 3 3 3 3 3 3 3 3 3 3 3 3 3 3 3 3 3 3 3 3 3 3 3 3 3 3 3 3 3 3 3 3 3 3 3 3 3 3 3 3 3 3 3 3 3 3 3 3 3 3 3 3 3 3 3 3 3 3 3 3 3 3 3 3 3 3 3 3 3 3 3 3 3 3 3 3 3 3 3 3 3 3 3 3 3 3 3 3 3 3 3 3 3 3 3 3 3 3 3 3 3 3 3 3 3 3 3 3 3 3 3 3 3 3 3 3 3 3 3 3 3 3 3 3 3 3 3 3 3 3 3 3 3 3 3 3 3 3 3 3 3 3 3 3 3 3 3 3 3 3 3 3 3 3 3 3 3 3 3 3 3 3 3 3 3 3 3 3 3 3 3 3 3 3 3 3 3 3 3 3 3 3 3 3 3 3 3 3 3 3 3 3 3 3 3 3 3 3 3 3 3 3 3 3 3 3 3 3 3 3 3 3 3 3 3 3 3 3 3 3 3 3 3 3 3 3 3 3 3 3 3 3 3 3 3 3 3 3 3 3 3 3 3 3 3 3 3 3 3 3 3 3 3 3 3 3 3 3 3 3 3 3 3 3 3 3 3 3 3 3 3 3 3 3 3 3 3 3 3 3 3 3 3 3 3 3 3 3 3 3 3 3 3 3 3 3 3 3 3 3 3 3 3 3 3 3 3 3 3 3 3 3 3 3 3 3 3 3 3 3 3 3 3 3 3 3 3 3 3 3 3 3 3 3 3 3 3 3 3 3 3 3 3 3 3 3 3 3 3 3 3 3 3 3 3 3 3 3 3 3 3 3 3 3 3 3 3 3 3 3 3 3 3 3 3 3 3 3 3 3 3 3 3 3 3 3 3 3 3 3 3 3 3 3 3 3 3 3 3 3 3 3 3 3 3 3 3 3 3 3 3 3 3 3 3 3 3 3 3 3 3 3 3 3 3 3 3 3 3 3 3 3 3 3 3 3 3 3 3 3 3 3 3 3 3 3 3 3 3 3 3 3 3 3 3 3 3 3 3 3 3 3 3 3 3 3 3 3 3 3 3 3 3 3 3 3 3 3 3 3 3 3 3 3 3 3 3 3 3 3 3 3 3 3 3 3 3 3 3 3 3 3 3 3 3 3 3 3 3 3 3 3 3 3 3 3 3 3 3 3 3 3 3 3 3 3 3 3 3 3 3 3 3 3 3 3 3 3 3 3 3 3 3 
CellOffSpring 1 2975 float
0 0 0 0 0 0 0 0 0 0 0 0 0 0 0 0 0 0 0 0 0 0 0 0 0 0 0 0 0 0 0 0 0 0 0 0 0 0 0 0 0 0 0 0 0 0 0 0 0 0 0 0 0 0 0 0 0 0 0 0 0 0 0 0 0 0 0 0 0 0 0 0 0 0 0 0 0 0 0 0 0 0 0 0 0 0 0 0 0 0 0 0 0 0 0 0 0 0 0 0 0 0 0 0 0 0 0 0 0 0 0 0 0 0 0 0 0 0 0 0 0 0 0 0 0 0 0 0 0 0 0 0 0 0 0 0 0 0 0 0 0 0 0 0 0 0 0 0 0 0 0 0 0 0 0 0 0 0 0 0 0 0 0 0 0 0 0 0 0 0 0 0 0 0 0 0 0 0 0 0 0 0 0 0 0 0 0 0 0 0 0 0 0 0 0 0 0 0 0 0 0 0 0 0 0 0 0 0 0 0 0 0 0 0 0 0 0 0 0 0 0 0 0 0 0 0 0 0 0 0 0 0 0 0 0 0 0 0 0 0 0 0 0 0 0 0 0 0 0 0 0 0 0 0 0 0 0 0 0 0 0 0 0 0 0 0 0 0 0 0 0 0 0 0 0 0 0 0 0 0 0 0 0 0 0 0 0 0 0 0 0 0 0 0 0 0 0 0 0 0 0 0 0 0 0 0 0 0 0 0 0 0 0 0 0 0 0 0 0 0 0 0 0 0 0 0 0 0 0 0 0 0 0 0 0 0 0 0 0 0 0 0 0 0 0 0 0 0 0 0 0 0 0 0 0 0 0 0 0 0 0 0 0 0 0 0 0 0 0 0 0 0 0 0 0 0 0 0 0 0 0 0 0 0 0 0 0 0 0 0 0 0 0 0 0 0 0 0 0 0 0 0 0 0 0 0 0 0 0 0 0 0 0 0 0 0 0 0 0 0 0 0 0 0 0 0 0 0 0 0 0 0 0 0 0 0 0 0 0 0 0 0 0 0 0 0 0 0 0 0 0 0 0 0 0 0 0 0 0 0 0 0 0 0 0 0 0 0 0 0 0 0 0 0 0 0 0 0 0 0 0 0 0 0 0 0 0 0 0 0 0 0 0 0 0 0 0 0 0 0 0 0 0 0 0 0 0 0 0 0 0 0 0 0 0 0 0 0 0 0 0 0 0 0 0 0 0 0 0 0 0 0 0 0 0 0 0 0 0 0 0 0 0 0 0 0 0 0 0 0 0 0 0 0 0 0 0 0 0 0 0 0 0 0 0 0 0 0 0 0 0 0 0 0 0 0 0 0 0 0 0 0 0 0 0 0 0 0 0 0 0 0 0 0 0 0 0 0 0 0 0 0 0 0 0 0 0 0 0 0 0 0 0 0 0 0 0 0 0 0 0 0 0 0 0 0 0 0 0 0 0 0 0 0 0 0 0 0 0 0 0 0 0 0 0 0 0 0 0 0 0 0 0 0 0 0 0 0 0 0 0 0 0 0 0 0 0 0 0 0 0 0 0 0 0 0 0 0 0 0 0 0 0 0 0 0 0 0 0 0 0 0 0 0 0 0 0 0 0 0 0 0 0 0 0 0 0 0 0 0 0 0 0 0 0 0 0 0 0 0 0 0 0 0 0 0 0 0 0 0 0 0 0 0 0 0 0 0 0 0 0 0 0 0 0 0 0 0 0 0 0 0 0 0 0 0 0 0 0 0 0 0 0 0 0 0 0 0 0 0 0 0 0 0 0 0 0 0 0 0 0 0 0 0 0 0 0 0 0 0 0 0 0 0 0 0 0 0 0 0 0 0 0 0 0 0 0 0 0 0 0 0 0 0 0 0 0 0 0 0 0 0 0 0 0 0 0 0 0 0 0 0 0 0 0 0 0 0 0 0 0 0 0 0 0 0 0 0 0 0 0 0 0 0 0 0 0 0 0 0 0 0 0 0 0 0 0 0 0 0 0 0 0 0 0 0 0 0 0 0 0 0 0 0 0 0 0 0 0 0 0 0 0 0 0 0 0 0 0 0 0 0 0 0 0 0 0 0 0 0 0 0 0 0 0 0 0 0 0 0 0 0 0 0 0 0 0 0 0 0 0 0 0 0 0 0 0 0 0 0 0 0 0 0 0 0 0 0 0 0 0 0 0 0 0 0 0 0 0 0 0 0 0 0 0 0 0 0 0 0 0 0 0 0 0 0 0 0 0 0 0 0 0 0 0 0 0 0 0 0 0 0 0 0 0 0 0 0 0 0 0 0 0 0 0 0 0 0 0 0 0 0 0 0 0 0 0 0 0 0 0 0 0 0 0 0 0 0 0 0 0 0 0 0 0 0 0 0 0 0 0 0 0 0 0 0 0 0 0 0 0 0 0 0 0 0 0 0 0 0 0 0 0 0 0 0 0 0 0 0 0 0 0 0 0 0 0 0 0 0 0 0 0 0 0 0 0 0 0 0 0 0 0 0 0 0 0 0 0 0 0 0 0 0 0 0 0 0 0 0 0 0 0 0 0 0 0 0 0 0 0 0 0 0 0 0 0 0 0 0 0 0 0 0 0 0 0 0 0 0 0 0 0 0 0 0 0 0 0 0 0 0 0 0 0 0 0 0 0 0 0 0 0 0 0 0 0 0 0 0 0 0 0 0 0 0 0 0 0 0 0 0 0 0 0 0 0 0 0 0 0 0 0 0 0 0 0 0 0 0 0 0 0 0 0 0 0 0 0 0 0 0 0 0 0 0 0 0 0 0 0 0 0 0 0 0 0 0 0 0 0 0 0 0 0 0 0 0 0 0 0 0 0 0 0 0 0 0 0 0 0 0 0 0 0 0 0 0 0 0 0 0 0 0 0 0 0 0 0 0 0 0 0 0 0 0 0 0 0 0 0 0 0 0 0 0 0 0 0 0 0 0 0 0 0 0 0 0 0 0 0 0 0 0 0 0 0 0 0 0 0 0 0 0 0 0 0 0 0 0 0 0 0 0 0 0 0 0 0 0 0 0 0 0 0 0 0 0 0 0 0 0 0 0 0 0 0 0 0 0 0 0 0 0 0 0 0 0 0 0 0 0 0 0 0 0 0 0 0 0 0 0 0 0 0 0 0 0 0 0 0 0 0 0 0 0 0 0 0 0 0 0 0 0 0 0 0 0 0 0 0 0 0 0 0 0 0 0 0 0 0 0 0 0 0 0 0 0 0 0 0 0 0 0 0 0 0 0 0 0 0 0 0 0 0 0 0 0 0 0 0 0 0 0 0 0 0 0 0 0 0 0 0 0 0 0 0 0 0 0 0 0 0 0 0 0 0 0 0 0 0 0 0 0 0 0 0 0 0 0 0 0 0 0 0 0 0 0 0 0 0 0 0 0 0 0 0 0 0 0 0 0 0 0 0 0 0 0 0 0 0 0 0 0 0 0 0 0 0 0 0 0 0 0 0 0 0 0 0 0 0 0 0 0 0 0 0 0 0 0 0 0 0 0 0 0 0 0 0 0 0 0 0 0 0 0 0 0 0 0 0 0 0 0 0 0 0 0 0 0 0 0 0 0 0 0 0 0 0 0 0 0 0 0 0 0 0 0 0 0 0 0 0 0 0 0 0 0 0 0 0 0 0 0 0 0 0 0 0 0 0 0 0 0 0 0 0 0 0 0 0 0 0 0 0 0 0 0 0 0 0 0 0 0 0 0 0 0 0 0 0 0 0 0 0 0 0 0 0 0 0 0 0 0 0 0 0 0 0 0 0 0 0 0 0 0 0 0 0 0 0 0 0 0 0 0 0 0 0 0 0 0 0 0 0 0 0 0 0 0 0 0 0 0 0 0 0 0 0 0 0 0 0 0 0 0 0 0 0 0 0 0 0 0 0 0 0 0 0 0 0 0 0 0 0 0 0 0 0 0 0 0 0 0 0 0 0 0 0 0 0 0 0 0 0 0 0 0 0 0 0 0 0 0 0 0 0 0 0 0 0 0 0 0 0 0 0 0 0 0 0 0 0 0 0 0 0 0 0 0 0 0 0 0 0 0 0 0 0 0 0 0 0 0 0 0 0 0 0 0 0 0 0 0 0 0 0 0 0 0 0 0 0 0 0 0 0 0 0 0 0 0 0 0 0 0 0 0 0 0 0 0 0 0 0 0 0 0 0 0 0 0 0 0 0 0 0 0 0 0 0 0 0 0 0 0 0 0 0 0 0 0 0 0 0 0 0 0 0 0 0 0 0 0 0 0 0 0 0 0 0 0 0 0 0 0 0 0 0 0 0 0 0 0 0 0 0 0 0 0 0 0 0 0 0 0 0 0 0 0 0 0 0 0 0 0 0 0 0 0 0 0 0 0 0 0 0 0 0 0 0 0 0 0 0 0 0 0 0 0 0 0 0 0 0 0 0 0 0 0 0 0 0 0 0 0 0 0 0 0 0 0 0 0 0 0 0 0 0 0 0 0 0 0 0 0 0 0 0 0 0 0 0 0 0 0 0 0 0 0 0 0 0 0 0 0 0 0 0 0 0 0 0 0 0 0 0 0 0 0 0 0 0 0 0 0 0 0 0 0 0 0 0 0 0 0 0 0 0 0 0 0 0 0 0 0 0 0 0 0 0 0 0 0 0 0 0 0 0 0 0 0 0 0 0 0 0 0 0 0 0 0 0 0 0 0 0 0 0 0 0 0 0 0 0 0 0 0 0 0 0 0 0 0 0 0 0 0 0 0 0 0 0 0 0 0 0 0 0 0 0 0 0 0 0 0 0 0 0 0 0 0 0 0 0 0 0 0 0 0 0 0 0 0 0 0 0 0 0 0 0 0 0 0 0 0 0 0 0 0 0 0 0 0 0 0 0 0 0 0 0 0 0 0 0 0 0 0 0 0 0 0 0 0 0 0 0 0 0 0 0 0 0 0 0 0 0 0 0 0 0 0 0 0 0 0 0 0 0 0 0 0 0 0 0 0 0 0 0 0 0 0 0 0 0 0 0 0 0 0 0 0 0 0 0 0 0 0 0 0 0 0 0 0 0 0 0 0 0 0 0 0 0 0 0 0 0 0 0 0 0 0 0 0 0 0 0 0 0 0 0 0 0 0 0 0 0 0 0 0 0 0 0 0 0 0 0 0 0 0 0 0 0 0 0 0 0 0 0 0 0 0 0 0 0 0 0 0 0 0 0 0 0 0 0 0 0 0 0 0 0 0 0 0 0 0 0 0 0 0 0 0 0 0 0 0 0 0 0 0 0 0 0 0 0 0 0 0 0 0 0 0 0 0 0 0 0 0 0 0 0 0 0 0 0 0 0 0 0 0 0 0 0 0 0 0 0 0 0 0 0 0 0 0 0 0 0 0 0 0 0 0 0 0 0 0 0 0 0 0 0 0 0 0 0 0 0 0 0 0 0 0 0 0 0 0 0 0 0 0 0 0 0 0 0 0 0 0 0 0 0 0 0 0 0 0 0 0 0 0 0 0 0 0 0 0 0 0 0 0 0 0 0 0 0 0 0 0 0 0 0 0 0 0 0 0 0 0 0 0 0 0 0 0 0 0 0 0 0 0 0 0 0 0 0 0 0 0 0 0 0 0 0 0 0 0 0 0 0 0 0 0 0 0 0 0 0 0 0 0 0 0 0 0 0 0 0 0 0 0 0 0 0 0 0 0 0 0 0 0 0 0 0 0 0 0 0 0 0 0 0 0 0 0 0 0 0 0 0 0 0 0 0 0 0 0 0 0 0 0 0 0 0 0 0 0 0 0 0 0 0 0 0 0 0 0 0 0 0 0 0 0 0 0 0 0 0 0 0 0 0 0 0 0 0 0 0 0 0 0 0 0 0 0 0 0 0 0 0 0 0 0 0 0 0 0 0 0 0 0 0 0 0 0 0 0 0 0 0 0 0 0 0 0 0 0 0 0 0 0 0 0 0 0 0 0 0 0 0 0 0 0 0 0 0 0 0 0 0 0 0 0 0 0 0 0 0 0 0 0 0 0 0 0 0 0 0 0 0 0 0 0 0 0 0 0 0 0 0 0 0 0 0 0 0 0 0 0 0 0 0 0 0 0 0 0 0 0 0 0 0 0 0 0 0 0 0 0 0 0 0 0 0 0 0 0 0 0 0 0 0 0 0 0 0 0 0 0 0 0 0 0 0 0 0 0 0 0 0 0 0 0 0 0 0 0 0 0 0 0 0 0 0 0 0 0 0 0 0 0 0 0 0 0 0 0 0 0 0 0 0 0 0 0 0 0 0 0 0 0 0 0 0 0 0 0 0 0 0 0 0 0 0 0 0 0 0 0 0 0 0 0 0 0 0 0 0 0 0 0 0 0 0 0 0 0 0 0 0 0 0 0 0 0 0 0 0 0 0 0 0 0 0 0 0 0 0 0 0 0 0 0 0 0 0 0 0 0 0 0 0 0 0 0 0 0 0 0 0 0 0 0 0 0 0 0 0 0 0 0 0 0 0 0 0 0 0 0 0 0 0 0 0 0 0 0 0 0 0 0 0 0 0 0 0 0 0 0 0 0 0 0 0 0 0 0 0 0 0 0 0 0 0 0 0 0 0 0 0 0 0 0 0 0 0 0 0 0 0 0 0 0 0 0 0 0 0 0 0 0 0 0 0 0 0 0 0 0 0 0 0 0 0 0 0 0 0 0 0 0 0 0 0 0 0 0 0 0 0 0 0 0 0 0 0 0 0 0 0 0 0 0 0 0 0 
GradVel 1 2975 float
0.0 0.0 0.0 0.0 0.0 0.0 0.0 0.0 0.0 0.0 0.0 0.0 0.0 -1.0609186000000002e-08 -2.3439631e-26 -5.6833834000000005e-08 -3.8485999e-07 -1.0685338e-07 -7.7429252e-07 -2.4403532e-06 -9.1408691e-07 -3.4758975e-06 -8.369922400000001e-06 -3.3339629e-06 -9.7945849e-06 -2.0655909e-05 -8.143692e-06 -2.1023429999999998e-05 -4.1147716e-05 -1.5644467999999998e-05 -3.7670849e-05 -7.052787999999999e-05 -2.5659744999999997e-05 -5.9521721e-05 -0.00010844921 -3.790194e-05 -8.628943799999998e-05 -0.00015461084 -5.2515421e-05 -0.00011859931999999999 -0.00021043571 -7.0552844e-05 -0.00015886308 -0.00028040266 -9.440316399999999e-05 -0.0002123727 -0.00037411065000000004 -0.00012866568999999998 -0.00028930054 -0.00050970144 -0.00018213044999999998 -0.00040849281 -0.0007194478500000001 -0.00027269131 -0.0006043145 -0.0010577582 -0.00043567910000000005 -0.0009313480699999999 -0.0016003731 -0.00073226303 -0.0014539398 -0.0024136751999999997 -0.0022365125 -0.0035330902 0.0 0.0 0.0 0.0 0.0 0.0 0.0 0.0 0.0 0.0 0.0 0.0 0.0 0.0 0.0 0.0 0.0 0.0 0.0 0.0 0.0 0.0 0.0 0.0 0.0 -1.904306e-09 -1.2097374000000001e-08 -2.8488804e-08 -4.2313832e-08 -4.9795055000000005e-08 -5.4961863e-08 -5.9070668e-08 -9.1483898e-08 -2.9709133000000003e-07 -6.310803500000001e-07 -1.0395445e-06 -1.4383333999999999e-06 -1.7611975e-06 -1.9893046e-06 -2.1483847000000005e-06 -1.1510531e-06 -2.430306e-06 -4.1688518e-06 -6.1546366e-06 -8.088783e-06 -9.736365400000001e-06 -1.1017123999999999e-05 -1.1970898e-05 -5.3327358e-06 -9.5541291e-06 -1.4933493000000001e-05 -2.0897109e-05 -2.6658440999999998e-05 -3.1629256999999995e-05 -3.5615547e-05 -3.8698755999999996e-05 -1.5872962e-05 -2.6185955e-05 -3.8921774999999995e-05 -5.2781372e-05 -6.6053188e-05 -7.7515862e-05 -8.6815162e-05 -9.414123600000001e-05 -3.6237958e-05 -5.6952085e-05 -8.2047947e-05 -0.00010898128000000001 -0.00013448232 -0.0001563806 -0.00017419523999999997 -0.00018836418000000001 -6.8836853e-05 -0.00010485019 -0.00014786399 -0.00019335846999999997 -0.0002357615 -0.0002718016 -0.00030108017000000004 -0.00032448719 -0.00011440915 -0.00017045633000000002 -0.00023633681 -0.00030469662 -0.00036711042000000003 -0.00041957191 -0.0004620749400000001 -0.00049613212 -0.0001722264 -0.00025220407 -0.00034397256 -0.00024178368999999998 -0.0003489932 -0.00032566313 -0.00046511731 -0.0004312564 -0.00061211502 -0.0005733834099999999 -0.00080985937 -0.0007793864900000001 -0.0010938649 -0.0010960896000000002 -0.0015225745999999998 -0.0015988632000000001 -0.0021854981 -0.0023885483 -0.0031991843 -0.0035487929999999997 -0.0046661566 -0.0051019406 -0.006621938199999999 0.0 0.0 0.0 0.0 0.0 0.0 0.0 0.0 0.0 0.0 0.0 0.0 0.0 0.0 0.0 0.0 0.0 0.0 0.0 0.0 0.0 0.0 0.0 0.0 0.0 0.0 0.0 -6.2267723e-08 -6.4704899e-08 -6.6529545e-08 -6.7875675e-08 -6.885539200000001e-08 -6.955438900000001e-08 -7.0038141e-08 -7.0353714e-08 -7.053146300000001e-08 -2.270828e-06 -2.3655309e-06 -2.4374417000000002e-06 -2.4911051e-06 -2.5304785e-06 -2.5587949e-06 -2.5785362000000004e-06 -2.5914777999999996e-06 -2.5988024000000002e-06 -1.2681793e-05 -1.3228119e-05 -1.3646193e-05 -1.3960425e-05 -1.4192382e-05 -1.4359983e-05 -1.4477252000000002e-05 -1.4554368e-05 -1.4598092e-05 -4.1055926e-05 -4.2861247000000004e-05 -4.4245672999999995e-05 -4.5291472e-05 -4.606682300000001e-05 -4.6629066000000004e-05 -4.7023543e-05 -4.7283469e-05 -4.7431068999999996e-05 -9.9847915e-05 -0.00010426562 -0.00010765933 -0.00011023038 -0.00011214198999999998 -0.0001135315 -0.00011450813 -0.00011515256000000001 -0.00011551881999999999 -0.00019953595 -0.00020827189 -0.00021501322 -0.00022012952999999998 -0.00022393891 -0.00022671162 -0.00022866261000000003 -0.00022995107000000004 -0.00023068397 -0.00034309370999999997 -0.00035775441 -0.00036911402 -0.00037774595 -0.00038417407999999994 -0.00038885449999999995 -0.00039214946000000006 -0.00039432652 -0.00039556556000000005 -0.0005233367 -0.00054487813 -0.00056160556 -0.0005743113 -0.0005837632900000001 -0.0005906407 -0.00059548084 -0.00059867912 -0.0006004998 0.0 0.0 0.0 0.0 0.0 0.0 0.0 0.0 0.0 0.0 0.0 0.0 0.0 0.0 0.0 0.0 0.0 0.0 0.0 0.0 0.0 0.0 0.0 0.0 -7.058878999999999e-08 -7.053147800000001e-08 -7.0353728e-08 -7.0038148e-08 -6.955438900000001e-08 -6.88554e-08 -6.7875675e-08 -6.6529523e-08 -2.6011734999999998e-06 -2.5988027e-06 -2.5914776e-06 -2.5785362000000004e-06 -2.5587949e-06 -2.5304785e-06 -2.4911049e-06 -2.4374417000000002e-06 -1.4612256e-05 -1.4598088e-05 -1.4554366e-05 -1.4477247999999999e-05 -1.4359984999999999e-05 -1.4192384e-05 -1.3960432e-05 -1.3646192000000001e-05 -4.7478909e-05 -4.7431076e-05 -4.7283469e-05 -4.702355e-05 -4.6629072999999997e-05 -4.6066816e-05 -4.5291476e-05 -4.4245677e-05 -0.00011563765 -0.00011551881999999999 -0.00011515261 -0.00011450813999999999 -0.00011353148999999999 -0.00011214198 -0.00011023039 -0.0001076593 -0.00023092183999999998 -0.00023068406000000002 -0.00022995113999999998 -0.00022866255 -0.00022671164 -0.0002239389 -0.00022012952999999998 -0.00021501318999999998 -0.00039596767999999994 -0.00039556567000000004 -0.00039432661 -0.00039214946000000006 -0.00038885456 -0.00038417405 -0.00037774592000000003 -0.00036911406999999997 -0.0006010909599999999 -0.0006004998599999999 -0.00059867918 -0.00059548079 -0.0005906407 -0.00058376335 -0.00057431124 -0.00056160585 0.0 0.0 0.0 0.0 0.0 0.0 0.0 0.0 0.0 0.0 0.0 0.0 0.0 0.0 0.0 0.0 0.0 0.0 0.0 0.0 0.0 0.0 0.0 0.0 0.0 0.0 0.0 -6.4704878e-08 -6.2267723e-08 -5.9070700000000004e-08 -5.4961865999999996e-08 -4.9795052e-08 -4.2313843000000004e-08 -2.8488806000000002e-08 -1.2097376e-08 -1.9043065e-09 -2.3655309e-06 -2.2708284e-06 -2.1483847000000005e-06 -1.9893048000000002e-06 -1.7611975e-06 -1.4383331999999998e-06 -1.0395446e-06 -6.310805799999999e-07 -2.9709133000000003e-07 -1.3228117999999999e-05 -1.2681794e-05 -1.19709e-05 -1.1017122e-05 -9.736363599999999e-06 -8.0887821e-06 -6.154638e-06 -4.1688518e-06 -2.4303067e-06 -4.2861251e-05 -4.1055919000000006e-05 -3.8698755999999996e-05 -3.561554e-05 -3.1629256999999995e-05 -2.6658437e-05 -2.0897111e-05 -1.4933496e-05 -9.5541309e-06 -0.00010426562 -9.984792299999999e-05 -9.414125099999999e-05 -8.6815162e-05 -7.7515855e-05 -6.6053188e-05 -5.2781379e-05 -3.8921782e-05 -2.618596e-05 -0.0002082718 -0.00019953598999999998 -0.00018836422999999998 -0.00017419527 -0.00015638059 -0.00013448237 -0.00010898127 -8.2047947e-05 -5.69521e-05 -0.00035775444 -0.00034309352999999993 -0.00032448719 -0.00030108026 -0.00027180157 -0.0002357615 -0.00019335843000000002 -0.000147864 -0.0001048502 -0.0005448783599999999 -0.00052333658 -0.00049613207 -0.000462075 -0.00041957197 -0.00036711051 -0.00030469673 -0.00023633687000000002 -0.00017045633000000002 -0.00034397263999999994 -0.00025220407 -0.00034899329 -0.00046511739000000004 -0.00061211508 -0.00080985948 -0.001093865 -0.0015225745999999998 -0.0021854979 -0.003199185 -0.0046661575 -0.0066219424 0.0 0.0 0.0 0.0 0.0 0.0 0.0 0.0 0.0 0.0 0.0 0.0 0.0 0.0 0.0 -9.148391199999999e-08 -1.0609188000000001e-08 0.0 0.0 -1.1510531e-06 -3.8486007e-07 -5.6833847999999996e-08 -2.3439628999999997e-26 -5.332737599999999e-06 -2.4403537e-06 -7.742926300000001e-07 -1.0685339000000001e-07 -1.5872964e-05 -8.3699233e-06 -3.4758977999999997e-06 -9.140872e-07 -3.6237965e-05 -2.0655913000000002e-05 -9.7945849e-06 -3.3339637999999997e-06 -6.883686e-05 -4.1147727000000006e-05 -2.1023436e-05 -8.1436956e-06 -0.00011440918 -7.0527894e-05 -3.7670849e-05 -1.5644473000000002e-05 -0.00017222646000000002 -0.00010844925 -5.9521713e-05 -2.5659752e-05 -0.0002417838 -0.00015461085 -8.6289423e-05 -3.790194e-05 -0.00032566313 -0.00021043574 -0.0001185993 -5.2515432e-05 -0.0004312564 -0.00028040272 -0.00015886308 -7.0552851e-05 -0.00057338353 -0.00037411068 -0.00021237266 -9.4403178e-05 -0.0007793865499999999 -0.0005097016099999999 -0.00028930051 -0.00012866571 -0.0010960898 -0.00071944797 -0.00040849275000000003 -0.00018213048 -0.0015988634 -0.0010577583 -0.00060431455 -0.00027269134 -0.0023885488 -0.0016003735000000002 -0.0009313483 -0.00043567915999999997 -0.0035487935 -0.0024136761 -0.0014539401000000002 -0.00073226326 -0.0051019411 -0.0035330909000000003 -0.0022365132 0.0 0.0 0.0 0.0 0.0 0.0 0.0 0.0 0.0 0.0 0.0 0.0 0.0 0.0 0.0 0.0 0.0 0.0 0.0 0.0 0.0 0.0 0.0 0.0 0.0 0.0 0.0 0.0 0.0 0.0 0.0 0.0 0.0 0.0 0.0 0.0 0.0 0.0 0.0 0.0 0.0 0.0 0.0 0.0 0.0 0.0 0.0 0.0 0.0 0.0 0.0 0.0 0.0 0.0 0.0 0.0 0.0 0.0 0.0 0.0 0.0 0.0 0.0 0.0 0.0 0.0 0.0 0.0 0.0 0.0 0.0 0.0 0.0 0.0 0.0 0.0 0.0 0.0 0.0 0.0 0.0 0.0 0.0 0.0 0.0 0.0 0.0 0.0 0.0 0.0 0.0 0.0 0.0 0.0 0.0 0.0 0.0 0.0 0.0 0.0 0.0 0.0 0.0 0.0 0.0 0.0 0.0 0.0 0.0 0.0 0.0 0.0 0.0 0.0 0.0 0.0 0.0 0.0 0.0 0.0 0.0 0.0 0.0 0.0 0.0 0.0 0.0 0.0 0.0 0.0 0.0 0.0 0.0 0.0 0.0 0.0 0.0 0.0 0.0 0.0 0.0 0.0 0.0 0.0 0.0 0.0 0.0 0.0 0.0 0.0 0.0 0.0 0.0 0.0 0.0 0.0 0.0 0.0 0.0 0.0 0.0 0.0 0.0 0.0 0.0 0.0 0.0 0.0 0.0 0.0 0.0 0.0 0.0 0.0 0.0 0.0 0.0 0.0 0.0 0.0 0.0 0.0 0.0 0.0 0.0 0.0 0.0 0.0 0.0 0.0 0.0 0.0 0.0 0.0 0.0 0.0 0.0 0.0 0.0 0.0 0.0 0.0 0.0 0.0 0.0 0.0 0.0 0.0 0.0 0.0 0.0 0.0 0.0 0.0 0.0 0.0 0.0 0.0 0.0 0.0 0.0 0.0 0.0 0.0 0.0 0.0 0.0 0.0 0.0 0.0 0.0 0.0 0.0 0.0 0.0 0.0 0.0 0.0 0.0 0.0 0.0 0.0 0.0 0.0 0.0 0.0 0.0 0.0 0.0 0.0 0.0 0.0 0.0 0.0 0.0 0.0 0.0 0.0 0.0 0.0 0.0 0.0 0.0 0.0 0.0 0.0 0.0 0.0 0.0 0.0 0.0 0.0 0.0 0.0 0.0 0.0 0.0 0.0 0.0 0.0 0.0 0.0 0.0 0.0 0.0 0.0 0.0 0.0 0.0 0.0 0.0 0.0 0.0 0.0 0.0 0.0 0.0 0.0 0.0 0.0 0.0 0.0 0.0 0.0 0.0 0.0 0.0 0.0 0.0 0.0 0.0 0.0 0.0 0.0 0.0 0.0 0.0 0.0 0.0 0.0 0.0 0.0 0.0 0.0 0.0 0.0 0.0 0.0 0.0 0.0 0.0 0.0 0.0 0.0 0.0 0.0 0.0 0.0 0.0 0.0 0.0 0.0 0.0 0.0 0.0 0.0 0.0 0.0 0.0 0.0 0.0 0.0 0.0 0.0 0.0 0.0 0.0 0.0 0.0 0.0 0.0 0.0 0.0 0.0 0.0 0.0 0.0 0.0 0.0 0.0 0.0 0.0 0.0 0.0 0.0 0.0 0.0 0.0 0.0 0.0 0.0 0.0 0.0 0.0 0.0 0.0 0.0 0.0 0.0 0.0 0.0 0.0 0.0 0.0 0.0 0.0 0.0 0.0 0.0 0.0 0.0 0.0 0.0 0.0 0.0 0.0 0.0 0.0 0.0 0.0 0.0 0.0 0.0 0.0 0.0 0.0 0.0 0.0 0.0 0.0 0.0 0.0 0.0 0.0 0.0 0.0 0.0 0.0 0.0 0.0 0.0 0.0 0.0 0.0 0.0 0.0 0.0 0.0 0.0 0.0 0.0 0.0 0.0 0.0 0.0 0.0 0.0 0.0 0.0 0.0 0.0 0.0 0.0 0.0 0.0 0.0 0.0 0.0 0.0 0.0 0.0 0.0 0.0 0.0 0.0 0.0 0.0 0.0 0.0 0.0 0.0 0.0 -0.00043580485999999996 -0.00051908719 -0.00058822159 -0.0006439611900000001 -0.00068854674 -0.00046501664000000005 -0.00058595539 -0.00069114985 -0.00077738019 -0.00084611314 -0.00090063381 -0.00061364047 -0.00076699414 -0.0008987308199999999 -0.0010047852 -0.0010877801 -0.0011525962 -0.0008031808500000001 -0.00099860784 -0.0011642196 -0.0012949753 -0.0013950423 -0.0014715625 -0.001058217 -0.0013074032 -0.0015152364999999998 -0.0016765082 -0.0017974579999999998 -0.0018877226 -0.0014257145000000002 -0.0017382043 -0.0019914664 -0.0021841722 -0.0023272764000000002 -0.0024329475 -0.0019880182 -0.0023657768 -0.0026527883 -0.0028646302 -0.0030223005 -0.0031409576 -0.0028736371999999997 -0.0032975484999999997 -0.0035791227000000004 -0.0037757349 -0.0039269971 -0.0040494204 -0.0042480896 -0.0046552946 -0.0048527988000000005 -0.0049756044 -0.0050880769 -0.0052004438 -0.006237788100000001 -0.006514289 -0.006518947 -0.006502734499999999 -0.006546930899999999 -0.006639454 -0.008774823499999999 -0.0088172248 -0.008548524200000001 -0.0083622374 -0.0083352653 -0.0084142704 -0.011323028999999998 -0.011318472 -0.010847016000000001 -0.01054341 -0.010487759 -0.010581215 -0.01333896 -0.013733051999999999 -0.013347076999999999 -0.013074687 -0.013068466 -0.013217547 -0.015264914 -0.016199718999999998 -0.016169801 -0.01607544 -0.016191013 -0.016430203 -0.017955374 -0.019255809 -0.019617269 -0.019751392 -0.020014538999999998 -0.020354547 -0.022002481 -0.023425817 -0.024028689 -0.024329344 -0.024716271 -0.025147816 -0.027597728999999998 -0.028949142999999997 -0.029635189 -0.030012814 -0.03048161 -0.030989392 -0.034545973 -0.035860352000000005 -0.036573105 -0.036997903 -0.037526827 -0.038091104 -0.042827092000000004 -0.044278603 -0.045085162000000005 -0.045552358 -0.046116475 -0.046697903 -0.052798841 -0.054561108 -0.055545498 -0.056027312 -0.056559544 -0.0570812 -0.064968452 -0.067194283 -0.068420656 -0.06882815099999999 -0.069198653 -0.06953026400000001 -0.079808772 -0.08277528 -0.08426365300000001 -0.084402293 -0.084383786 -0.08432068699999999 -0.097903661 -0.10194792 -0.10366178 -0.10315766 -0.10238967 -0.10163054 -0.11971732 -0.1253415 -0.12703174 -0.12525494 -0.12322588 -0.12136527 -0.14532775 -0.15325212 -0.15425387 -0.1502437 -0.14630283 -0.14287743 -0.17423128 -0.1851784 -0.18421541 -0.17658004 -0.17000285 -0.16458814 -0.20469569 -0.21879497 -0.21381912 -0.20102042 -0.19116588 -0.18356742 -0.2330091 -0.24966282 -0.23769897 -0.218136 -0.2047354 -0.19523431 -0.2527495 -0.26980764 -0.247688 -0.22026955 -0.20378703 -0.19333896 -0.25351459 -0.26751989 -0.2325889 -0.19807088 -0.17988704 -0.17007594 -0.22081277 -0.22489898 -0.179829 -0.14207742 -0.12393869 -0.11627861 -0.1367269 -0.12445448 -0.079987697 -0.044034302000000004 -0.026879147000000003 -0.023431092999999997 0.014181248999999998 0.051887385999999994 0.091673091 0.10705962 0.11539921 0.11235563 0.21279207 0.2964358 0.33253631 0.30834767 0.29830319 0.2858775 0.41355467 0.54299021 0.59017718 0.53107458 0.50110251 0.47939694 0.57213277 0.73581827 0.80646169 0.73273695 0.69160396 0.66419256 0.65788215 0.83736098 0.94150913 0.8750695 0.83590078 0.80814695 0.67998475 0.86676288 0.99328816 0.94518036 0.91554379 0.89099777 0.65797579 0.84698904 0.988379 0.9556793 0.93490463 0.91420007 0.61329401 0.80249757 0.95089352 0.92741609 0.91271234 0.89526892 0.56653392 0.75506532 0.90332997 0.8827123 0.87083721 0.85549903 0.52887911 0.71604079 0.85931492 0.83624828 0.82427955 0.80979502 0.49577117 0.67871279 0.81553173 0.7901209 0.77731359 0.76288104 0.46179074 0.63745511 0.76717567 0.74052262 0.7266646 0.71169245 0.4225353 0.58749163 0.70864159 0.68196976 0.66693228 0.65094334 0.37655914 0.52765346 0.63803905 0.61225796 0.59584498 0.57847524 0.32682878 0.46094555 0.55892968 0.53442186 0.51645541 0.49754754 0.27970898 0.39612782 0.48009151 0.45550075 0.43592551 0.41557568 0.24191239 0.34015763 0.4096992 0.38323373 0.3621273 0.34050137 0.21337342 0.29573226 0.35171512 0.32268596 0.30039543 0.27761284 0.19049013 0.25987676 0.30493414 0.27525491 0.25219664 0.22862977 0.17081484 0.22773477 0.26623744 0.23906252 0.21607386 0.1924458 0.1647657 0.20241311 0.234312 0.21104386 0.18902609 0.16651869 0.18167652 0.18933395 0.20895241 0.18849573 0.16803364 0.14822958 0.20964095 0.18400869 0.18875343 0.17032872 0.15153335 0.13554528 0.17658181 0.17030013 0.15610868 0.1393643 0.12702894 0.17311434 0.15744998 0.14693922 0.13163614 0.12155855 0.15587972 0.14622423 0.13072129 0.1189627 0.16429779 0.15638429 0.14009614 0.12260677 0.17273152 0.16048875 0.13801767 0.18423904 0.16562811 0.19327733 0.19335687 -0.00072419632 -0.0007524728999999999 -0.00077441568 -0.00079103169 -0.00080335845 -0.00081230886 -0.0008185995399999999 -0.0008227545799999999 -0.00082511915 -0.0009440238900000001 -0.00097833201 -0.0010048153 -0.0010247268 -0.0010394161999999999 -0.0010500374000000001 -0.0010574802 -0.0010623867 -0.0010651764 -0.0012035939999999999 -0.001243538 -0.0012740217 -0.0012966562 -0.0013131985 -0.0013250728 -0.0013333472 -0.0013387814000000002 -0.0013418635 -0.001530729 -0.0015763503 -0.0016105455999999999 -0.0016354867999999999 -0.0016534664999999999 -0.0016662267999999999 -0.0016750405 -0.0016807902 -0.0016840369 -0.0019559863 -0.0020075543 -0.0020453198999999997 -0.0020722647 -0.0020913279 -0.0021046416 -0.0021137162 -0.0021195738 -0.0021228576 -0.0025111507 -0.0025688095 -0.0026099572 -0.0026385586 -0.0026583155 -0.002671812 -0.002680833 -0.0026865634000000005 -0.0026897402 -0.0032291317 -0.0032927190999999995 -0.0033368217 -0.0033665195000000003 -0.0033864079 -0.0033995846999999996 -0.0034081404999999998 -0.0034134359999999997 -0.003416315 -0.0041452143 -0.00421442 -0.004260776599999999 -0.0042907023 -0.0043098819 -0.0043220161 -0.0043295133 -0.004333938 -0.0043362495 -0.0052999798 -0.0053743981 -0.005422379399999999 -0.0054514389 -0.005468765699999999 -0.005478815600000001 -0.005484411 -0.005487333100000001 -0.005488690500000001 -0.0067412648 -0.0068216813 -0.006871309599999999 -0.0068984339000000006 -0.0069124671 -0.0069190231 -0.0069214906999999996 -0.006921999599999999 -0.0069218366 -0.008524416 -0.0086145913 -0.0086669875 -0.0086913016 -0.0087002767 -0.0087013887 -0.0086989878 -0.008695728100000001 -0.0086932005 -0.010715058000000001 -0.010822117 -0.010879442 -0.010900103999999999 -0.010901691000000002 -0.010894583999999999 -0.010884747 -0.010875705 -0.010869553 -0.013394892 -0.013527174 -0.013591651000000001 -0.013607105 -0.013597763999999998 -0.013578315 -0.013557228000000001 -0.013539436 -0.013527796000000002 -0.016666384 -0.01682988 -0.016901925 -0.016908418 -0.016882274 -0.016844181 -0.01680617 -0.016775252 -0.016755382 -0.020654378 -0.020850036000000002 -0.020925861 -0.020915315 -0.020862528999999998 -0.020796068 -0.020732787 -0.020682413 -0.020650405 -0.025506757 -0.025728891 -0.025797341 -0.025754687999999998 -0.025659382 -0.025549974 -0.025449352 -0.025370656000000002 -0.025321113 -0.031396396 -0.031629335 -0.031668339 -0.031568597999999996 -0.031406589 -0.031233217999999997 -0.031078478 -0.030959392000000002 -0.030885125 -0.038522251 -0.038734645 -0.038707059 -0.038512044 -0.038248617 -0.0379823 -0.037751202000000005 -0.037576187000000004 -0.037468009 -0.047105845 -0.04724472 -0.047093775 -0.046748679 -0.046336468 -0.045939524 -0.04560411 -0.045354242999999995 -0.045201279000000004 -0.057386026 -0.057369555999999995 -0.05701359 -0.056443874000000005 -0.055821675999999994 -0.055247918 -0.054775633 -0.054429792000000005 -0.054220292999999996 -0.0696069 -0.069315657 -0.068643145 -0.067753084 -0.066847004 -0.066044033 -0.0654006 -0.064938039 -0.06466116 -0.083984874 -0.083254218 -0.082121737 -0.080796883 -0.079525635 -0.07844124 -0.077596471 -0.077001572 -0.07665024 -0.10062975 -0.09924768699999999 -0.09748478199999999 -0.09560208 -0.093888409 -0.092482269 -0.091419905 -0.09068948800000001 -0.09026539300000001 -0.11938485 -0.11710294 -0.11452813 -0.11197429 -0.10976497 -0.10802552 -0.10675764 -0.10591123 -0.10543024 -0.13957286 -0.13613707 -0.132587 -0.12928712 -0.12657756 -0.12454361 -0.12312633 -0.12221775 -0.12171707 -0.15967385 -0.15488921 -0.15026683 -0.14622021 -0.14308184 -0.14086357 -0.13941385 -0.13854237 -0.13808757 -0.17698811 -0.17085719 -0.16522309 -0.16055559 -0.15716626 -0.15496466 -0.15367422 -0.15299504 -0.15268609 -0.18738969 -0.18032113 -0.1740559 -0.16911688 -0.16581079 -0.16394697 -0.16310182 -0.1628391 -0.16281821 -0.18526967 -0.17828304 -0.1722852 -0.16779736 -0.165158 -0.16412677 -0.16414414 -0.16461818 -0.16508664 -0.16344944 -0.158272 -0.15410522 -0.15132146 -0.15030223 -0.15085459 -0.1523381 -0.15400359 -0.15524554 -0.11332919 -0.11232806 -0.11220833 -0.11296052 -0.11495972 -0.11816657 -0.12195197 -0.12543075 -0.1278341 -0.026628092000000003 -0.032512814 -0.039049581 -0.045583799 -0.05237253 -0.059594392999999996 -0.06673497 -0.072804801 -0.07685338 0.10088228 0.085676722 0.070012197 0.055456347999999996 0.04201716900000001 0.029304549 0.017660253 0.008153736600000001 0.0019341484 0.26488632 0.23897003 0.21254703 0.188326 0.16674428 0.14728405 0.13013244 0.11644652 0.10759522 0.44939858 0.41293931 0.37550485 0.341088 0.31072164 0.28388745 0.26069501 0.24242696 0.2306937 0.62740743 0.58213276 0.5349313 0.49112549 0.45245767 0.41853634 0.38948783 0.36676416 0.35222733 0.76783526 0.71649176 0.66192091 0.61068428 0.5652355 0.52539063 0.49137717 0.46484813 0.44791007 0.85001159 0.79554999 0.73652494 0.68045247 0.63036412 0.58630228 0.5486564 0.51930088 0.50056446 0.874255 0.81911474 0.75833893 0.69999385 0.64747047 0.60099769 0.56115174 0.53002894 0.51015097 0.85710859 0.8028512 0.74229705 0.68368757 0.63054037 0.58320296 0.54242355 0.51048458 0.49005908 0.81912243 0.76646245 0.7072643 0.64966357 0.59712392 0.55003977 0.50928366 0.47726962 0.45676398 0.77481884 0.72390831 0.66656113 0.61062968 0.55940896 0.51328933 0.47320825 0.44164133 0.42139286 0.72886288 0.67961633 0.62429029 0.57034278 0.52084351 0.47613832 0.43717575 0.40642858 0.38668373 0.67825663 0.6305865 0.57740617 0.52569389 0.47824034 0.43531555 0.39783755 0.36822367 0.34919298 0.6178419 0.57180703 0.52104521 0.47194615 0.42694804 0.38621604 0.35061359 0.32246011 0.30436173 0.5456602 0.50155532 0.45371401 0.40779585 0.36581022 0.32779002 0.29452699 0.26820934 0.25128913 0.46523488 0.4235903 0.37934625 0.33730382 0.298985 0.26426959 0.23386195 0.20978764 0.19430861 0.38412476 0.34548342 0.30543244 0.26784128 0.23372337 0.20279689 0.17566311 0.15416038 0.14033192 0.3101047 0.27466619 0.23899467 0.20602915 0.17628615 0.14932287 0.12562165 0.10681814 0.09472308300000001 0.24813966 0.21559814 0.18394464 0.15526883 0.1296382 0.10645391 0.086060643 0.069873102 0.059462300999999995 0.19985007 0.16951245 0.1410334 0.11585655 0.09369795 0.073821962 0.05640585 0.042605925 0.033737946 0.16440336 0.13551708 0.10907942 0.08631067 0.066739835 0.049529243 0.034644939 0.022928822999999997 0.015418923999999999 0.13984099 0.11195754 0.08642135599999999 0.064841114 0.04685089 0.03156931 0.018708598 0.0087386928 0.002389472 0.12408941 0.097347505 0.071894743 0.050303228 0.032823324 0.018650614 0.0072426274 -0.0013478175 -0.0067399144 0.11527713 0.09050039900000001 0.065017164 0.042479154000000005 0.024410971 0.010403626 -0.00024989992 -0.007908739100000001 -0.012583364 0.11168917 0.09019731 0.065454394 0.041782971 0.022161514 0.0072518028 -0.0035552494 -0.010919693999999999 -0.015233729 0.11129265 0.094527416 0.072153285 0.048343286 0.027031146000000002 0.010295037 -0.0016985535999999998 -0.0096158832 -0.014101866999999999 0.11204596 0.10083705 0.08285529900000001 0.060965150999999995 0.039295178 0.020906422 0.0070883706 -0.0021761507 -0.007414788 0.11334983 0.10650174 0.094460145 0.07698483 0.057385739000000005 0.039074786 0.024209807000000003 0.013604218000000001 0.0073583499 0.12038457 0.11129504 0.10407797 0.092931665 0.078143582 0.062479317 0.048490636 0.037723221 0.031010799 0.14139539 0.12307342 0.11294687 0.10588855 0.097485855 0.08702169400000001 0.07622802299999999 0.067050353 0.06094455 0.17483237 0.15271212 0.1331578 0.12068336 0.11358774 0.10799085 0.10204519 0.09622766099999999 0.091919139 0.19363813 0.18605126 0.17209348 0.15518856 0.1401871 0.12982056 0.12352308 0.11955622 0.11703657 0.18881777 0.19497216 0.19457111 0.18634966 0.17527448 0.16592912 0.15975054 0.15621084 0.19204761 0.20390359 0.20759249 0.20968252 0.21038432 0.21072935 0.17939787 0.18808429 0.19689482 0.20266998 -0.00082588708 -0.00082511932 -0.00082275475 -0.0008185997099999999 -0.00081230869 -0.0008033586200000001 -0.00079103163 -0.0007744154400000001 -0.0010660816 -0.0010651764 -0.0010623867 -0.0010574802 -0.0010500378999999998 -0.0010394163000000001 -0.0010247271 -0.0010048155 -0.0013428626999999998 -0.0013418629999999998 -0.0013387807000000002 -0.0013333469 -0.0013250723000000002 -0.0013131987 -0.0012966563 -0.0012740217 -0.0016850873000000001 -0.0016840369 -0.0016807902 -0.0016750399 -0.0016662269000000001 -0.0016534664999999999 -0.0016354875 -0.0016105460999999998 -0.0021239168 -0.0021228588 -0.0021195731 -0.0021137154999999997 -0.0021046421 -0.0020913281 -0.0020722658 -0.0020453217 -0.002690759 -0.0026897406 -0.0026865629 -0.0026808332 -0.0026718113 -0.002658315 -0.0026385589000000004 -0.0026099579000000003 -0.0034172259999999998 -0.003416315 -0.0034134362 -0.00340814 -0.0033995854 -0.0033864086 -0.0033665211 -0.0033368214 -0.0043369653000000005 -0.0043362491 -0.004333936599999999 -0.0043295119 -0.0043220152 -0.0043098805 -0.0042907032 -0.0042607784 -0.0054890802 -0.005488691899999999 -0.005487333499999999 -0.0054844087 -0.0054788169999999995 -0.0054687653 -0.0054514370999999995 -0.0054223826 -0.0069217077 -0.0069218371 -0.006921999599999999 -0.0069214921 -0.0069190226 -0.0069124660999999995 -0.0068984348 -0.0068713166 -0.008692272 -0.008693203299999999 -0.00869573 -0.0086989952 -0.0087013924 -0.0087002795 -0.008691304399999999 -0.0086669913 -0.010867389 -0.010869552 -0.010875703 -0.010884742 -0.010894581 -0.01090169 -0.010900108 -0.01087944 -0.013523762 -0.013527795 -0.013539444 -0.013557233 -0.013578318999999998 -0.013597766 -0.013607108 -0.013591652 -0.016748555 -0.016755382 -0.01677526 -0.016806176000000003 -0.016844189 -0.016882282 -0.016908418 -0.016901931000000002 -0.020639472 -0.020650401999999998 -0.020682403999999998 -0.020732785 -0.02079607 -0.020862538 -0.020915324 -0.020925874 -0.025304248999999997 -0.025321122 -0.02537065 -0.025449349 -0.025549967000000003 -0.025659386 -0.025754685 -0.025797345 -0.030859934 -0.030885121 -0.030959402999999996 -0.031078478 -0.031233214 -0.031406589 -0.031568576 -0.031668335 -0.037431475 -0.03746799 -0.03757618 -0.037751178999999996 -0.0379823 -0.038248606 -0.038511999 -0.038707043999999996 -0.045149859 -0.045201298 -0.045354277 -0.04560411 -0.045939531 -0.046336468 -0.046748679 -0.04709376 -0.054150254 -0.054220304000000004 -0.054429792000000005 -0.054775644000000005 -0.05524791 -0.055821697999999996 -0.056443874000000005 -0.05701362 -0.064569108 -0.06466113799999999 -0.064938039 -0.065400586 -0.066044062 -0.066847004 -0.067753062 -0.06864316 -0.076534323 -0.076650247 -0.077001557 -0.077596478 -0.078441277 -0.079525612 -0.080796905 -0.082121737 -0.090126552 -0.09026539300000001 -0.090689503 -0.09141995 -0.092482276 -0.093888439 -0.09560201300000001 -0.09748481199999999 -0.10527466 -0.10543026 -0.10591119 -0.10675757 -0.1080255 -0.10976498 -0.11197432 -0.11452807 -0.12155789 -0.12171707 -0.12221774 -0.12312628 -0.12454366 -0.12657762 -0.12928718 -0.13258696 -0.13794756 -0.13808756 -0.13854235 -0.13941379 -0.1408636 -0.14308201 -0.14622027 -0.15026677 -0.15259957 -0.15268609 -0.15299499 -0.15367432 -0.15496472 -0.15716624 -0.16055557 -0.16522309 -0.16283372 -0.16281819 -0.16283919 -0.16310185 -0.16394679 -0.16581067 -0.16911688 -0.17405593 -0.16527258 -0.16508655 -0.16461818 -0.16414404 -0.16412681 -0.16515799 -0.16779742 -0.17228508 -0.1556989 -0.15524565 -0.15400359 -0.152338 -0.15085462 -0.15030217 -0.15132146 -0.15410507 -0.12868676 -0.12783417 -0.12543075 -0.12195189 -0.1181666 -0.1149597 -0.11296061 -0.11220834 -0.07827018200000001 -0.076853484 -0.072804645 -0.066734955 -0.059594408 -0.052372403 -0.045583814 -0.039049663 -0.00022575259 0.0019341856 0.0081537217 0.017660275 0.029304579 0.042017117 0.055456392 0.070012197 0.10453557 0.10759521 0.11644653 0.13013244 0.14728408 0.16674441 0.18832609 0.21254696 0.22664964 0.23069376 0.24242699 0.2606951 0.28388762 0.31072164 0.34108806 0.37550473 0.34722579 0.35222745 0.36676431 0.38948798 0.41853634 0.45245779 0.49112546 0.5349313 0.44208726 0.44791013 0.46484855 0.49137712 0.52539045 0.56523561 0.61068416 0.66192091 0.49412501 0.50056463 0.5193007 0.5486564 0.58630264 0.6303643 0.68045223 0.73652494 0.50331765 0.51015109 0.53002906 0.56115174 0.60099763 0.64747053 0.69999397 0.75833881 0.48303366 0.49005884 0.51048422 0.54242307 0.58320302 0.63054067 0.68368751 0.74229729 0.44970661 0.45676389 0.47726959 0.50928396 0.55003983 0.59712386 0.64966351 0.70726454 0.41441956 0.42139274 0.44164109 0.47320828 0.51328921 0.55940896 0.61062974 0.66656125 0.37988058 0.38668388 0.40642887 0.43717569 0.47613841 0.52084351 0.57034296 0.62429011 0.34263399 0.34919301 0.36822367 0.39783758 0.43531573 0.47824043 0.52569389 0.57740599 0.29812333 0.30436167 0.32246023 0.35061353 0.38621601 0.42694801 0.47194627 0.52104545 0.24545738 0.25128919 0.2682094 0.29452717 0.32779005 0.36581025 0.40779576 0.45371383 0.18897414 0.19430852 0.20978767 0.23386189 0.26426947 0.29898503 0.33730385 0.37934643 0.13556677 0.14033186 0.15416031 0.17566311 0.20279682 0.2337233 0.26784128 0.30543235 0.09055582400000001 0.09472306800000001 0.10681811 0.12562165 0.14932284 0.17628618 0.20602915 0.23899476 0.055875838 0.059462231 0.069873065 0.08606058400000001 0.10645382 0.12963815 0.15526858 0.1839447 0.030684084 0.033737943 0.042605877 0.056405813 0.073821947 0.093697943 0.11585642 0.14103326 0.012834594 0.015418965 0.022928788999999998 0.034644905 0.049529195 0.066739753 0.086310543 0.10907941 0.00020913407 0.0023894943 0.0087386295 0.018708572 0.031569287 0.04685086 0.064841099 0.086421385 -0.0085813105 -0.006739933 -0.0013478547 0.0072425529 0.018650651 0.03282328 0.050303198 0.071894765 -0.014160413 -0.012583338000000001 -0.007908728 -0.00024998188 0.010403603 0.024410985 0.042479072 0.065017194 -0.01665882 -0.01523371 -0.010919705 -0.0035552643 0.0072518215 0.022161517000000002 0.041782912 0.065454364 -0.015553981000000001 -0.014101843999999999 -0.009615853399999999 -0.0016985498000000002 0.010294981 0.027031165 0.048343292999999996 0.0721533 -0.0091028363 -0.007414795500000001 -0.002176173 0.0070883668999999995 0.020906441 0.039295158999999996 0.060965143 0.082855262 0.0053020268999999995 0.0073583014 0.013604222 0.024209772999999997 0.039074775 0.057385728 0.07698483 0.094460219 0.028736766 0.031010807 0.037723247 0.048490636 0.062479335999999996 0.078143589 0.09293168800000001 0.10407797 0.058822624000000004 0.060944557 0.067050368 0.07622806 0.087021716 0.09748584 0.1058885 0.11294691 0.09035027 0.091919146 0.09622765300000001 0.10204518 0.10799088 0.11358778 0.12068333 0.13315783 0.11613369 0.11703658 0.11955622 0.12352312 0.12982059 0.14018711 0.15518862 0.17209339 0.15504818 0.15621082 0.15975052 0.16592918 0.17527452 0.18634969 0.19457114 0.19497213 0.21078765 0.21072927 0.21038426 0.20968249 0.20759243 0.20390365 0.19204758 0.20459077 0.20266998 0.19689487 0.18808433 0.1793979 -0.0007524728999999999 -0.00072419643 -0.0006885466900000001 -0.00064396107 -0.00058822165 -0.00051908725 -0.00043580480000000003 -0.0009783319000000001 -0.00094402401 -0.0009006340400000001 -0.00084611331 -0.00077738042 -0.00069114973 -0.00058595551 -0.00046501678 -0.0012435383 -0.0012035944 -0.0011525967 -0.0010877805 -0.0010047855 -0.0008987311199999999 -0.00076699414 -0.00061364035 -0.0015763512 -0.0015307294000000001 -0.0014715631 -0.0013950429 -0.0012949759 -0.00116422 -0.00099860795 -0.00080318097 -0.0020075543 -0.0019559872 -0.0018877235 -0.0017974582000000001 -0.0016765082999999998 -0.0015152369 -0.0013074032 -0.0010582172999999999 -0.0025688095 -0.0025111510999999997 -0.0024329473 -0.0023272764000000002 -0.0021841719 -0.0019914666 -0.0017382044 -0.0014257147 -0.0032927194 -0.0032291315000000003 -0.0031409585 -0.0030223015000000004 -0.0028646311 -0.0026527890000000004 -0.0023657776999999997 -0.0019880182 -0.0042144195 -0.0041452148 -0.0040494213 -0.0039269971 -0.0037757368 -0.0035791232 -0.0032975483 -0.0028736371999999997 -0.0053743995 -0.0052999789 -0.0052004415 -0.0050880769 -0.0049756039 -0.0048528006 -0.0046552946 -0.0042480896 -0.0068216799 -0.0067412672 -0.0066394573 -0.0065469304 -0.0065027354 -0.0065189479000000005 -0.0065142894 -0.00623779 -0.0086145895 -0.008524416 -0.008414269399999999 -0.0083352653 -0.0083622374 -0.008548524200000001 -0.0088172276 -0.0087748254 -0.010822116000000001 -0.010715058999999999 -0.010581217 -0.010487763 -0.010543416000000002 -0.010847018 -0.011318479 -0.011323028999999998 -0.013527181000000001 -0.013394898999999998 -0.013217546 -0.013068466 -0.013074691000000001 -0.013347086000000001 -0.013733061999999999 -0.013338962 -0.016829895 -0.01666639 -0.016430207 -0.016191018999999997 -0.01607544 -0.016169806999999998 -0.016199718999999998 -0.015264918 -0.020850042 -0.020654382 -0.020354558000000002 -0.020014556 -0.019751396 -0.01961728 -0.019255823000000002 -0.017955376000000002 -0.025728881000000002 -0.025506763 -0.025147822 -0.024716272999999997 -0.024329351000000003 -0.024028703999999998 -0.023425829 -0.022002503 -0.031629346 -0.0313964 -0.030989416000000002 -0.030481622000000003 -0.030012812000000003 -0.029635195 -0.028949142 -0.027597751 -0.038734633 -0.038522251 -0.038091104 -0.037526816 -0.03699794 -0.036573116 -0.035860367000000004 -0.03454598 -0.047244702 -0.04710586 -0.0466979 -0.046116475 -0.045552354 -0.045085192 -0.044278599 -0.042827092000000004 -0.057369575 -0.057386037 -0.057081208 -0.056559559 -0.056027300999999995 -0.05554550900000001 -0.054561108 -0.052798856 -0.06931565 -0.06960693700000001 -0.069530278 -0.06919863799999999 -0.06882818 -0.068420701 -0.067194283 -0.064968437 -0.08325418799999999 -0.083984949 -0.084320754 -0.084383816 -0.08440228599999999 -0.08426372 -0.082775265 -0.079808749 -0.099247716 -0.10062972 -0.10163052 -0.10238967 -0.10315771 -0.10366178 -0.10194787 -0.09790362400000001 -0.11710291 -0.11938486 -0.12136525 -0.12322584 -0.12525499 -0.1270317 -0.12534152 -0.11971735 -0.1361371 -0.13957284 -0.14287737 -0.14630285 -0.15024363 -0.15425384 -0.15325217 -0.14532778 -0.15488932 -0.15967384 -0.16458823 -0.17000277 -0.17658001 -0.18421534 -0.18517846 -0.17423131 -0.17085715 -0.17698805 -0.18356726 -0.19116589 -0.20102051 -0.21381913 -0.21879497 -0.20469573 -0.1803211 -0.18738978 -0.19523434 -0.20473535 -0.21813604 -0.23769906 -0.24966283 -0.23300913 -0.17828326 -0.18526965 -0.19333898 -0.20378694 -0.22026962 -0.24768806 -0.26980764 -0.25274959 -0.15827215 -0.16344945 -0.17007589 -0.17988718 -0.19807096 -0.2325889 -0.26751986 -0.25351453 -0.11232813 -0.11332939 -0.11627849 -0.12393848 -0.14207739 -0.17982906 -0.22489905 -0.22081272 -0.032512709 -0.026628122 -0.023431197 -0.026879147000000003 -0.044034362 -0.079987682 -0.12445441 -0.13672698 0.08567676699999999 0.10088225 0.11235563 0.11539923 0.10705959 0.09167324 0.051887527 0.014181293999999999 0.23896988 0.26488641 0.28587741 0.29830331 0.30834767 0.33253631 0.29643577 0.21279204 0.41293892 0.44939852 0.479397 0.50110257 0.53107476 0.59017766 0.54299021 0.41355449 0.58213294 0.62740755 0.66419315 0.69160432 0.73273724 0.80646193 0.73581827 0.57213283 0.71649158 0.76783508 0.80814707 0.83590108 0.87506938 0.9415096 0.83736134 0.65788233 0.79555011 0.85001147 0.89099789 0.91554368 0.9451803 0.99328876 0.866763 0.67998475 0.81911433 0.874255 0.91420007 0.93490469 0.95567977 0.98837942 0.84698904 0.65797579 0.8028512 0.85710847 0.89526904 0.9127121 0.92741591 0.95089328 0.8024978 0.61329436 0.76646256 0.81912267 0.85549927 0.87083691 0.88271248 0.90332997 0.75506508 0.56653368 0.72390819 0.77481854 0.80979544 0.82427943 0.83624816 0.85931492 0.71604073 0.52887923 0.67961645 0.72886264 0.76288104 0.77731347 0.79012036 0.81553161 0.67871273 0.49577117 0.63058656 0.67825639 0.71169251 0.72666454 0.74052238 0.76717579 0.63745505 0.46179098 0.57180727 0.61784202 0.65094328 0.66693223 0.68196952 0.70864135 0.58749151 0.42253518 0.50155514 0.54566014 0.57847524 0.59584481 0.6122579 0.63803923 0.52765357 0.37655932 0.42359033 0.46523499 0.49754745 0.51645541 0.53442198 0.55892992 0.46094561 0.32682905 0.34548336 0.38412502 0.41557574 0.43592572 0.45550093 0.48009166 0.39612782 0.27970904 0.27466619 0.31010467 0.34050122 0.36212742 0.38323379 0.40969941 0.34015775 0.24191248 0.21559823 0.24813958 0.27761286 0.30039558 0.32268596 0.3517153 0.29573232 0.21337342 0.1695125 0.19985011 0.22862972 0.25219667 0.27525488 0.304934 0.25987679 0.19049013 0.13551708 0.16440347 0.19244584 0.21607386 0.23906259 0.26623738 0.22773482 0.17081484 0.11195752 0.13984105 0.16651848 0.18902597 0.21104388 0.23431186 0.2024131 0.16476557 0.09734754300000001 0.12408938 0.14822969 0.16803369 0.18849565 0.20895241 0.18933395 0.18167636 0.090500474 0.11527713 0.13554539 0.15153328 0.17032881 0.18875332 0.1840086 0.20964068 0.09019731 0.11168909 0.12702887 0.13936441 0.15610862 0.17030013 0.17658189 0.09452742300000001 0.11129267 0.12155845 0.13163613 0.14693928 0.15744993 0.17311427 0.10083708 0.11204578 0.11896266 0.13072118 0.14622426 0.15587971 0.10650179 0.11334983 0.12260681 0.1400962 0.15638427 0.16429766 0.11129506 0.12038453 0.13801771 0.16048877 0.17273152 0.12307339 0.14139529 0.16562808 0.18423907 0.15271211 0.17483246 0.19335696 0.19327734 0.18605138 0.19363803 0.18881771 
VonMises3D 1 2975 float
0.0 0.0 0.0 0.0 0.0 0.0 0.0 0.0 0.0 0.0 0.0 0.0 0.0 7.9320662e-06 0.0 5.965884e-05 0.00033604534 0.00013041666999999999 0.0009237029 0.0024157879000000003 0.0012512627 0.0045925537 0.0091868723 0.005040314000000001 0.014214233 0.024995675 0.013571623 0.03350269 0.054954708 0.028728342 0.065892875 0.10393838 0.051734369 0.11382587 0.17557818 0.08319357 0.17882913 0.27218693 0.12381473 0.26283443 0.39663857 0.17550839 0.37024462 0.55562967 0.24247898 0.5098725 0.76349562 0.34018338 0.69848949 1.0517889999999999 0.60001892 1.0017308 1.4913265 1.6255107 1.8206029 2.2158203 4.8882818 4.5034355999999995 3.3797492999999994 13.186070999999998 11.283209 5.0377059 23.895870000000002 7.6814518 0.0 0.0 0.0 0.0 0.0 0.0 0.0 0.0 0.0 0.0 0.0 0.0 0.0 0.0 0.0 0.0 0.0 0.0 0.0 0.0 0.0 0.0 0.0 0.0 0.0 5.0299627e-07 1.5623626999999999e-06 8.7928021e-07 1.1294316e-06 1.9668108999999997e-06 2.2003357999999998e-06 2.356471e-06 4.9523296e-05 0.00010520711999999999 0.00012826391 9.576602999999999e-05 2.0283222e-05 6.1252518e-05 0.00011027331 0.00012405957 0.00073282182 0.0010188077999999999 0.0010410503999999999 0.0007668551400000001 0.00027372336 0.00026465658 0.00067042984 0.00087840296 0.0038569437 0.0046019536 0.00437479 0.0031658409000000004 0.0012527022 0.00079841173 0.0024050442 0.0033319222 0.012812963 0.01421281 0.013002643000000001 0.0092835929 0.0038009371999999995 0.0019873772 0.006572736899999999 0.0093125449 0.032506995 0.034667265 0.031024782 0.021916227000000003 0.0090510203 0.0043137725 0.014890576 0.021284502 0.068782426 0.07178621 0.063394986 0.044299759 0.01813004 0.0084975576 0.029355854 0.041953672000000004 0.12738116 0.13135722 0.1148918 0.07916506400000001 0.031563907999999995 0.015563809 0.051905967000000004 0.073675402 0.21266878 0.21766734 0.18812291 0.3271026 0.33265659 0.47343183 0.47784275 0.65936738 0.66087466 0.90258867 0.89879084 1.2636561000000002 1.2687684 2.0330894 2.2837218999999997 4.1477733 5.552739099999999 9.2722683 13.768409 18.893091000000002 29.949244 32.020493 54.00951800000001 0.0 0.0 0.0 0.0 0.0 0.0 0.0 0.0 0.0 0.0 0.0 0.0 0.0 0.0 0.0 0.0 0.0 0.0 0.0 0.0 0.0 0.0 0.0 0.0 0.0 0.0 0.0 2.450294e-06 2.5001843e-06 2.5264021e-06 2.540133e-06 2.5439278e-06 2.5418747000000003e-06 2.5361053e-06 2.5286849e-06 2.5230917999999995e-06 0.00012750379 0.00012758402 0.00012583047 0.00012333746 0.00012066992 0.00011807633 0.00011572464 0.00011382495000000001 0.00011257583999999999 0.0009297856 0.00092449755 0.0009018550599999999 0.0008719355099999999 0.00084080867 0.00081165304 0.00078634138 0.000766518 0.0007537979400000001 0.0036804518 0.0036867821999999996 0.0035789469 0.0034339144 0.0032818399 0.0031399643 0.0030183365999999997 0.0029244528000000004 0.0028648612 0.010453212 0.010595562 0.01027367 0.0098151928 0.0093281437 0.008872361899999999 0.0084831724 0.0081848651 0.0079967091 0.024020102 0.024449562999999997 0.023731903999999998 0.022607721 0.021400262000000003 0.020265691000000002 0.019297894 0.018558729 0.018094262 0.047349256 0.048177514000000005 0.046747625 0.044423595 0.041910112 0.039541725 0.037521962 0.035982482 0.035017416 0.082872443 0.084090598 0.081425279 0.077189438 0.07259424 0.06825953 0.064563982 0.061751064 0.05999068900000001 0.0 0.0 0.0 0.0 0.0 0.0 0.0 0.0 0.0 0.0 0.0 0.0 0.0 0.0 0.0 0.0 0.0 0.0 0.0 0.0 0.0 0.0 0.0 0.0 2.5211432000000003e-06 2.5230920000000002e-06 2.5286852e-06 2.5361057e-06 2.5418748999999998e-06 2.5439285e-06 2.5401334e-06 2.5264017000000003e-06 0.00011213742 0.00011257586000000002 0.00011382495000000001 0.00011572466999999998 0.00011807638000000001 0.00012066996999999999 0.00012333749 0.00012583048 0.0007494036099999999 0.0007537979400000001 0.00076651806 0.0007863414900000001 0.00081165339 0.0008408090199999999 0.0008719359800000001 0.0009018550599999999 0.0028444090999999996 0.0028648609 0.0029244525 0.0030183373 0.0031399655 0.0032818406 0.0034339156 0.0035789481 0.0079323277 0.0079967091 0.008184867 0.0084831752 0.0088723646 0.0093281483 0.0098151965 0.010273673 0.017935647 0.018094262 0.018558728 0.019297894 0.020265698000000002 0.021400265 0.022607727 0.023731906 0.034688346 0.035017412000000005 0.035982482 0.037521973 0.039541732999999996 0.041910118999999996 0.044423606 0.046747632000000004 0.059391133 0.059990682000000004 0.061751068 0.06456399 0.06825953 0.072594248 0.077189445 0.08142529400000001 0.0 0.0 0.0 0.0 0.0 0.0 0.0 0.0 0.0 0.0 0.0 0.0 0.0 0.0 0.0 0.0 0.0 0.0 0.0 0.0 0.0 0.0 0.0 0.0 0.0 0.0 0.0 2.5001839e-06 2.4502945e-06 2.3564714e-06 2.2003357999999998e-06 1.9668108999999997e-06 1.1294325e-06 8.7928004e-07 1.5623625000000002e-06 5.029960399999999e-07 0.00012758399 0.00012750379 0.00012405956 0.00011027329 6.1252533e-05 2.02832e-05 9.5766045e-05 0.00012826391 0.00010520707 0.00092449755 0.0009297856 0.00087840285 0.0006704299 0.00026465653 0.00027372327000000003 0.0007668551400000001 0.0010410503 0.0010188075 0.0036867827000000002 0.0036804518 0.003331922 0.0024050442 0.0007984120699999999 0.0012527021 0.0031658409000000004 0.0043747895 0.0046019526000000005 0.010595563999999998 0.010453212 0.0093125449 0.006572737800000001 0.0019873786 0.0038009359999999996 0.009283592 0.013002641 0.014212808 0.024449562999999997 0.024020102 0.021284502 0.014890579 0.0043137772 0.0090510184 0.021916232999999997 0.031024787999999998 0.034667257 0.048177529000000004 0.047349259000000005 0.04195369 0.029355869 0.008497566 0.01813004 0.04429977400000001 0.06339499400000001 0.07178620200000001 0.08409061300000001 0.082872473 0.073675424 0.051905993 0.015563831 0.031563907999999995 0.07916507099999999 0.11489181 0.13135719 0.18812293 0.21766731 0.33265659 0.4778429 0.66087478 0.8987909 1.2687683 2.2837212000000005 5.552740099999999 13.768414000000002 29.949246999999996 54.009525 0.0 0.0 0.0 0.0 0.0 0.0 0.0 0.0 0.0 0.0 0.0 0.0 0.0 0.0 0.0 4.9523282e-05 7.932065299999999e-06 0.0 0.0 0.0007328217 0.00033604528 5.965884e-05 0.0 0.0038569432 0.0024157879000000003 0.0009237029 0.00013041668 0.012812958999999999 0.009186873199999999 0.0045925537 0.0012512630999999999 0.032506999 0.024995682999999998 0.014214228 0.005040314000000001 0.068782426 0.054954723 0.03350269 0.013571624 0.12738116 0.10393838 0.065892875 0.028728342 0.21266879 0.17557818 0.11382587 0.051734366 0.32710266 0.27218693 0.17882912 0.08319357 0.47343189 0.39663863 0.2628344 0.12381473 0.65936744 0.55562979 0.37024462 0.17550839 0.90258884 0.76349568 0.50987238 0.24247898 1.2636563 1.0517893 0.69848949 0.34018341 2.0330894 1.4913266 1.0017307 0.60001904 4.147772799999999 2.2158206000000003 1.8206021000000001 1.6255108 9.2722702 3.37975 4.5034366 4.888282299999999 18.893095000000002 5.0377045 11.283209 13.186078 32.020493 7.6814518 23.895878 0.0 0.0 0.0 0.0 0.0 0.0 0.0 0.0 0.0 0.0 0.0 0.0 0.0 0.0 0.0 0.0 0.0 0.0 0.0 0.0 0.0 0.0 0.0 0.0 0.0 0.0 0.0 0.0 0.0 0.0 0.0 0.0 0.0 0.0 0.0 0.0 0.0 0.0 0.0 0.0 0.0 0.0 0.0 0.0 0.0 0.0 0.0 0.0 0.0 0.0 0.0 0.0 0.0 0.0 0.0 0.0 0.0 0.0 0.0 0.0 0.0 0.0 0.0 0.0 0.0 0.0 0.0 0.0 0.0 0.0 0.0 0.0 0.0 0.0 0.0 0.0 0.0 0.0 0.0 0.0 0.0 0.0 0.0 0.0 0.0 0.0 0.0 0.0 0.0 0.0 0.0 0.0 0.0 0.0 0.0 0.0 0.0 0.0 0.0 0.0 0.0 0.0 0.0 0.0 0.0 0.0 0.0 0.0 0.0 0.0 0.0 0.0 0.0 0.0 0.0 0.0 0.0 0.0 0.0 0.0 0.0 0.0 0.0 0.0 0.0 0.0 0.0 0.0 0.0 0.0 0.0 0.0 0.0 0.0 0.0 0.0 0.0 0.0 0.0 0.0 0.0 0.0 0.0 0.0 0.0 0.0 0.0 0.0 0.0 0.0 0.0 0.0 0.0 0.0 0.0 0.0 0.0 0.0 0.0 0.0 0.0 0.0 0.0 0.0 0.0 0.0 0.0 0.0 0.0 0.0 0.0 0.0 0.0 0.0 0.0 0.0 0.0 0.0 0.0 0.0 0.0 0.0 0.0 0.0 0.0 0.0 0.0 0.0 0.0 0.0 0.0 0.0 0.0 0.0 0.0 0.0 0.0 0.0 0.0 0.0 0.0 0.0 0.0 0.0 0.0 0.0 0.0 0.0 0.0 0.0 0.0 0.0 0.0 0.0 0.0 0.0 0.0 0.0 0.0 0.0 0.0 0.0 0.0 0.0 0.0 0.0 0.0 0.0 0.0 0.0 0.0 0.0 0.0 0.0 0.0 0.0 0.0 0.0 0.0 0.0 0.0 0.0 0.0 0.0 0.0 0.0 0.0 0.0 0.0 0.0 0.0 0.0 0.0 0.0 0.0 0.0 0.0 0.0 0.0 0.0 0.0 0.0 0.0 0.0 0.0 0.0 0.0 0.0 0.0 0.0 0.0 0.0 0.0 0.0 0.0 0.0 0.0 0.0 0.0 0.0 0.0 0.0 0.0 0.0 0.0 0.0 0.0 0.0 0.0 0.0 0.0 0.0 0.0 0.0 0.0 0.0 0.0 0.0 0.0 0.0 0.0 0.0 0.0 0.0 0.0 0.0 0.0 0.0 0.0 0.0 0.0 0.0 0.0 0.0 0.0 0.0 0.0 0.0 0.0 0.0 0.0 0.0 0.0 0.0 0.0 0.0 0.0 0.0 0.0 0.0 0.0 0.0 0.0 0.0 0.0 0.0 0.0 0.0 0.0 0.0 0.0 0.0 0.0 0.0 0.0 0.0 0.0 0.0 0.0 0.0 0.0 0.0 0.0 0.0 0.0 0.0 0.0 0.0 0.0 0.0 0.0 0.0 0.0 0.0 0.0 0.0 0.0 0.0 0.0 0.0 0.0 0.0 0.0 0.0 0.0 0.0 0.0 0.0 0.0 0.0 0.0 0.0 0.0 0.0 0.0 0.0 0.0 0.0 0.0 0.0 0.0 0.0 0.0 0.0 0.0 0.0 0.0 0.0 0.0 0.0 0.0 0.0 0.0 0.0 0.0 0.0 0.0 0.0 0.0 0.0 0.0 0.0 0.0 0.0 0.0 0.0 0.0 0.0 0.0 0.0 0.0 0.0 0.0 0.0 0.0 0.0 0.0 0.0 0.0 0.0 0.0 0.0 0.0 0.0 0.0 0.0 0.0 0.0 0.0 0.0 0.0 0.0 0.0 0.0 0.0 0.0 0.0 0.0 0.0 0.0 0.0 0.0 0.0 0.0 0.0 0.0 0.0 0.0 0.0 0.0 0.0 0.0 0.0 0.0 0.0 0.0 0.0 0.0 0.0 0.0 0.0 0.0 0.12541915 0.048793435 0.026550217999999997 0.083826773 0.11774347 0.26866096 0.18429537 0.068848349 0.04256789 0.12626201 0.1751442 0.38230252 0.25660285 0.091357715 0.06554895599999999 0.18191716 0.24871096 0.52431625 0.34595206 0.11644679 0.098482363 0.25567141 0.34403476 0.70564008 0.45779496 0.14395186 0.14619493 0.35525572 0.4701567 0.98612559 0.62797105 0.1940722 0.22061455 0.49397576 0.64131945 1.9053885 1.2714013000000002 0.56144321 0.39374155 0.70019591 0.88235366 5.0839137999999995 3.6097972 1.896452 0.94747746 1.0445025 1.2395127000000001 12.850595 9.1827888 4.9671607 2.2787137000000004 1.6795686 1.7938478999999998 27.312616 19.154465 10.259658 4.5912561 2.7937667 2.6681272999999996 47.023548 32.331866999999995 16.999632000000002 7.5922351 4.491863700000001 4.0167198 65.068726 43.959831 22.780493 10.546727 6.8390740999999995 6.010713099999999 72.273552 48.34597 25.148045 13.188270999999999 10.066863 8.829832099999999 65.12999 43.785858000000005 24.552128 16.725624 14.565010000000001 12.641917999999999 50.909248 36.247688000000004 25.875010999999997 22.76071 20.598425 17.586557 43.630035 36.620598 33.174071999999995 31.499948999999997 28.272572999999998 23.805494 51.762051 47.433937 45.052677 42.583012 37.763191 31.486851 69.222824 63.773102 60.116253 56.162323 49.385704 40.859028 92.239449 84.32106800000001 78.600487 72.761528 63.507023 52.1572 122.55548 110.24473 101.20566 92.80420699999999 80.434303 65.625084 161.73709 142.24684 128.15313999999998 116.53052 100.44314 81.564171 211.33028 180.0847 159.16792 144.06094 123.89571000000001 100.48999 270.89044 222.30345 193.49161 175.72988999999998 151.60172 123.48123000000001 339.30652000000003 266.40234 230.89362000000003 213.00947999999997 185.65317 152.79761000000002 412.10944 308.80862 272.83905 260.25897000000003 230.85521 192.86185 482.35056 346.81408999999996 325.78244 327.62216 297.10528999999997 251.90974 543.96527 386.55618 406.80782999999997 435.33774000000005 402.73888999999997 344.43582000000004 597.15735 446.26275999999996 548.0694 616.5202 576.82141 493.58359 666.9116799999999 571.8266 797.01172 913.2004400000001 857.18207 730.81891 828.02118 852.79022 1205.1467 1366.3622 1283.5988 1090.4244 1251.8992 1425.137 1824.1693 2012.9457 1886.2739 1599.9352 2263.4973 2545.3511 2794.3259 2880.8674 2677.1145 2265.7971 4221.4487 4583.6357 4346.3462 4032.9053 3635.6704 3062.0415 6799.748 7321.9707 6369.6001 5395.0757 4699.9697 3927.6406 8921.416 9740.0723 8272.7969 6715.0498 5733.4976 4770.897 10003.121 11192.583999999999 9624.0801 7779.1309 6617.8369 5505.7192 10323.695 11754.473999999998 10354.744 8497.4736 7280.6797 6075.7681 10322.252 11911.323 10694.03 8935.1045 7724.5034 6468.6245 10244.167 11923.337 10843.97 9178.2373 7985.0103 6702.8096 10190.894 11899.337 10889.685 9280.3008 8100.8159 6808.4185 10182.746 11873.783000000001 10868.99 9276.9893 8104.5425 6813.4541 10211.104 11850.241000000002 10796.576000000001 9186.8428 8015.6221 6735.6914 10084.462 11664.66 10592.163999999999 8993.0352 7837.5962 6582.1221 9785.1709 11299.181 10245.996 8693.166 7571.2856 6354.6362 9330.0342 10764.115 9763.0439 8289.7783 7218.9248 6055.4717 8746.1563 10083.795 9157.7275 7792.0586 6787.6333 5690.6382 8066.8818 9282.8604 8453.4199 7216.0586 6290.2617 5270.9854 7324.5581 8410.3252 7680.062 6582.2715 5744.6563 4811.8374 6551.397 7511.4038 6872.6504 5915.0366 5171.7524 4331.3159 5765.0918 6611.8149 6063.4717 5243.4766 4595.1416 3849.1091 4971.5122 5725.4341 5282.7993 4596.4497 4038.1133 3384.967 4189.416 4877.5571 4560.6489 3997.6394 3520.0359 2955.1248 3469.3489 4096.5015 3916.1436 3460.25 3051.6025 2568.2534 2812.3955 3405.0701 3359.0227 2990.6917 2635.3462 2226.3447 2310.6501 2820.7188 2894.3386 2595.9622 2276.0547 1928.5619 2271.0046 2493.4958 2280.5442 1981.4381 1676.1787 1750.3003 2074.7661 2017.0398 1750.9009 1471.1442 1588.4719 1732.4314 1562.1846 1308.8854 1188.9575 1352.8292 1360.8663 1171.809 961.49261 1069.744 1018.6265 735.95013 785.09015 737.3752400000001 517.85364 0.13173294 0.13313453 0.12852381 0.12151968 0.11393471 0.10678092 0.10068562 0.096051916 0.09315635300000001 0.19466293 0.19582295 0.18841863 0.17768934 0.16612083 0.15521786 0.14593561 0.138889 0.1344921 0.2742781 0.27448767 0.26321408 0.24758781 0.23083445 0.21506414 0.2016508 0.19148283 0.1851477 0.37610763 0.37427217 0.35760394 0.33541179 0.31178695 0.28959346 0.27074128 0.25647327 0.24759813 0.50931013 0.5038057 0.47941971 0.44808486 0.41502091 0.38405856 0.35781023 0.33798629 0.325679 0.68781263 0.67595786 0.64010596 0.59557772 0.54908597 0.50574982 0.46912992 0.44155616 0.42448044 0.93325955 0.90934336 0.85552001 0.79130596 0.72520149 0.66401029 0.61256325 0.57399255 0.55018735 1.2812181999999999 1.2315049 1.147542 1.0528746999999998 0.95756656 0.8703348 0.79756171 0.74333024 0.71000642 1.789811 1.6839373 1.5466383999999997 1.4032949 1.2639042 1.1386192 1.0353011 0.95893663 0.91227382 2.5457449 2.3266307999999998 2.0944984 1.8723401000000002 1.6661255000000001 1.4855236 1.3389666 1.2318120000000001 1.1667903999999998 3.6631088 3.2386506 2.844861 2.4970727000000004 2.1906258999999997 1.9307113 1.7240646000000002 1.5750164 1.4853488000000001 5.2732544 4.5127120000000005 3.8611258999999998 3.3208337 2.8679377999999995 2.4969523 2.2089031 2.0044625 1.8827283 7.509767500000001 6.2458887 5.2111316 4.3907442 3.7319458 3.2104506 2.8157029 2.5405693 2.3786731 10.496485 8.5311422 6.961478200000001 5.7549233 4.819438900000001 4.1020689 3.5729822999999996 3.2114133999999996 3.0014833999999997 14.347164000000001 11.454014 9.174612 7.4617319 6.1716132 5.210743 4.5202960999999995 4.058311 3.7940636 19.177288 15.095353 11.911356 9.563673 7.839941499999999 6.590992900000001 5.7168746 5.1450787 4.8234739 25.115505 19.540423999999998 15.240675 12.129121000000001 9.8995781 8.3272371 7.2561641 6.5724306 6.1951008000000005 32.304821000000004 24.893261 19.259438 15.265751000000002 12.474134 10.557939999999999 9.2883701 8.498806 8.0722027 40.914124 31.301771000000002 24.128560999999998 19.161566 15.77634 13.512704999999999 12.052719999999999 11.168269 10.700925 51.166466 39.008926 30.137117 24.15082 20.168512 17.563882999999997 15.9196 14.944614999999999 14.439194 63.416561 48.452422999999996 37.807526 30.810946 26.243759000000004 23.290379 21.438948 20.347834 19.785604 78.322678 60.434799 48.049217 40.089043 34.921741 31.545439000000002 29.385797999999998 28.084028000000004 27.400236 97.14546999999999 76.367126 62.346973 53.438263 47.540112 43.511868 40.788540000000005 39.055191 38.103747999999996 122.18731000000001 98.556938 82.934624 72.913788 65.900436 60.713547 56.916771 54.331024 52.839478 157.3909 130.50256000000002 112.89478000000001 101.17029000000001 92.216995 84.944221 79.198227 75.059143 72.579788 209.23004 177.22948 156.18053 141.34641000000002 128.9614 118.10316 109.05573000000001 102.30044000000001 98.160431 288.24167 245.95657000000003 217.70721 196.91884 178.6512 161.98346 147.70064 136.82394 130.07068999999998 410.94943 347.28082 303.83279 271.73082999999997 243.71545 218.10322999999997 195.96643 178.94536000000002 168.29433 600.40692 495.97418 422.97020999999995 370.27594 326.53345 287.65335 254.24412999999998 228.46979 212.26457000000002 882.9984099999999 709.55756 585.19647 497.68335 429.45465 371.48624 322.4758 284.71796 260.9136 1280.3921 1003.2377 799.61829 658.56812 554.34125 469.9426 400.13153 346.60867 312.82916 1798.5389 1381.9935 1069.536 854.46783 701.36877 582.3692599999999 486.10489 412.78305 366.50867 2417.7578 1833.1368 1387.4304 1080.8076 867.38745 706.3505200000001 578.45868 481.64273 420.56018 3090.1123 2324.0002 1732.9872 1325.3816 1044.9056 837.10266 674.10559 551.23004 473.70697 3748.6646 2808.1497 2076.4412 1569.8754 1222.7002 967.6850599999999 768.85895 619.21387 524.73969 4327.9697 3238.9705 2386.7463 1794.3931 1388.2031 1090.275 858.13214 683.2557400000001 572.69836 4784.1348 3583.6289 2640.6619 1982.9977 1530.6755 1197.8804 937.74579 741.2525 616.78998 5103.2822 3829.7014 2827.6355 2127.0466 1643.2781 1285.3624 1004.129 790.92926 655.60022 5296.1357 3982.4365 2948.7261 2224.9734 1723.1973 1349.6288 1054.4066 829.77344 686.90918 5384.9346 4056.1953 3011.5588 2279.7029 1770.5945 1389.4415 1086.6962 855.61511 708.4201 5391.4131 4065.8579 3025.0129 2295.7983 1787.3418 1405.1074 1100.3729 867.2492699999999 718.59357 5329.9302 4021.8208 2996.0071 2277.6055 1776.0663 1398.1031 1096.0892 864.7365699999999 717.1214 5206.9473 3929.4326 2928.897 2228.6877 1739.6692 1370.7069 1075.556 849.3250699999999 704.9472 5024.707 3791.2478 2826.573 2152.1084 1681.1433 1325.6511 1041.1604 823.0842299999999 683.92883 4785.519 3609.8145 2691.9004 2050.9355 1603.5532 1265.8152 995.52582 788.40143 656.29449 4494.4824 3389.5061 2528.7217 1928.6293 1510.0233 1193.9987 941.1377 747.49744 624.08978 4160.4229 3137.1804 2342.2629 1789.2349 1403.7905 1112.839 880.1433699999999 702.12848 588.80994 3795.6165 2862.0564 2139.1313 1637.4642 1288.2919 1024.8767 814.38068 653.57092 551.3537 3414.7939 2575.1655 1927.0867 1478.652 1167.2235 932.67969 745.56775 602.8903799999999 512.35205 3033.9929 2288.6023 1714.6389 1318.5735 1044.474 838.8728 675.4478799999999 551.18884 472.49945 2669.053 2014.4446 1510.412 1163.1028 923.9527 746.04095 605.71295 499.55035 432.50519 2333.396 1763.2905 1322.255 1017.7485 809.35138 656.55627 537.81812 448.83463 392.89758 2035.3 1542.4032 1156.2234 887.13593 703.91614 572.4643599999999 472.9017 399.59409 353.92145 1776.2981 1354.1068 1015.5994 774.52301 610.33911 495.57974 411.92874 352.18289 315.59277000000003 1552.4083 1195.3591 899.88269 681.34839 530.6542400000001 427.67392 356.00137 307.05773999999997 277.95242 1358.5598 1059.0699 804.3407 606.62714 465.8371 370.37237999999996 306.5661 265.16107 241.50876 1193.8214 938.7199699999999 721.3226900000001 545.90631 415.0004 324.49185 265.0567 227.93385 207.50928000000002 1060.8813 834.81512 645.12274 492.18845 374.04846000000003 288.94745 231.98507999999998 196.60298 177.44702 954.7738 752.95807 579.21625 441.8194 336.96674 259.60034 205.76405 171.17337 152.09366 860.26495 688.51398 530.81879 400.84418 302.81876 232.17203999999998 182.70096999999998 149.84656999999999 131.00366 743.78113 625.20148 492.52615 372.63046 277.03528 207.64226000000002 160.61566000000002 130.11754 112.48636 551.7760599999999 528.14197 442.95557 344.50595 255.79469 187.1721 140.2563 111.17961000000001 95.128326 356.17078 357.73438 347.36328 293.20242 224.52931 164.09518 120.55028999999999 93.593361 79.269577 256.9209 210.26807000000002 199.89577 166.61821 122.68666 86.588707 64.14518699999999 52.696259 144.46671 102.12358 72.30879200000001 44.389126 24.178272 12.850817999999999 90.5448 45.882092 20.402269 7.1559854000000005 0.0921712 0.093156345 0.096051931 0.1006856 0.10678092 0.11393476 0.12151971 0.12852381 0.13299754 0.13449208 0.13888901 0.14593564 0.15521786 0.16612084 0.17768937 0.18841869 0.18299636 0.1851477 0.19148278 0.20165078 0.21506414 0.23083451 0.24758779 0.26321414 0.2445873 0.24759811 0.25647327 0.27074125 0.28959349 0.31178695 0.33541185 0.35760403 0.32150882 0.32567897 0.33798641 0.35781023 0.38405851 0.41502085 0.44808486 0.47941965 0.41870332 0.4244805 0.44155601 0.4691298 0.50574976 0.54908586 0.59557772 0.64010608 0.54214829 0.55018723 0.57399243 0.61256325 0.66401017 0.72520131 0.79130572 0.85552001 0.69877917 0.7100063 0.74333024 0.79756159 0.8703348 0.95756644 1.0528743 1.147542 0.89659756 0.91227359 0.95893633 1.0353004000000001 1.1386192 1.2639040000000001 1.4032944 1.5466379 1.145023 1.1667903999999998 1.2318120000000001 1.3389666 1.4855233 1.6661249 1.8723396 2.0944982 1.4554576000000001 1.4853488000000001 1.5750166 1.7240642 1.9307106 2.1906258999999997 2.4970725 2.844861 1.8423512999999998 1.8827281000000002 2.0044627 2.2089024 2.4969523 2.8679377999999995 3.3208330000000004 3.8611245000000003 2.3252928 2.3786732999999995 2.5405693 2.8157027 3.2104504 3.7319455 4.3907428 5.211131099999999 2.9327383 3.0014837000000005 3.2114136 3.5729828 4.1020699 4.819438900000001 5.7549233 6.961476299999999 3.7082121 3.7940636 4.0583119 4.5202960999999995 5.2107434 6.171611799999999 7.46173 9.174612 4.7199454 4.8234744 5.145079099999999 5.7168756 6.5909944000000005 7.8399410000000005 9.563673 11.911356 6.0749235 6.1951017 6.572433 7.2561655 8.327238099999999 9.8995771 12.129121000000001 15.24068 7.9379811 8.0722036 8.498806 9.288371099999999 10.557939999999999 12.474136999999999 15.265753 19.259438 10.555822000000001 10.700925 11.168269 12.052722 13.512704999999999 15.77634 19.161566 24.128565 14.284118 14.439195000000002 14.944613 15.919598 17.563881 20.168512 24.150822 30.137121 19.613815 19.785603 20.347834 21.438942 23.290377 26.243759000000004 30.810949 37.807528999999995 27.188917 27.400234 28.084023 29.385794 31.545437 34.921745 40.089046 48.049236 37.802162 38.103745 39.055187 40.788536 43.511868 47.540115 53.438281999999994 62.346985 52.353802 52.839462 54.331013 56.916752 60.713547 65.900429 72.913803 82.934608 71.756805 72.579788 75.059151 79.198235 84.944214 92.21701 101.17027 112.89478000000001 96.77035500000001 98.160446 102.30041999999999 109.05573999999999 118.10316999999999 128.9614 141.34641000000002 156.18053999999998 127.78813000000001 130.07068 136.82394 147.70067 161.98346999999998 178.65125 196.91888 217.70722999999998 164.6794 168.29433 178.94536000000002 195.96646 218.10324 243.71545 271.7309 303.83282 206.74872 212.26456000000002 228.46982999999997 254.24412999999998 287.65337999999997 326.53351000000004 370.27591 422.97031 252.7941 260.91364 284.71796 322.47577 371.4863 429.45455999999996 497.68323 585.19659 301.28997999999996 312.82912999999996 346.60867 400.13153 469.94263 554.34125 658.5679299999999 799.6184099999999 350.6842 366.50854 412.78317000000004 486.10489 582.36914 701.36865 854.4679 1069.536 399.65518 420.56015 481.64273 578.45874 706.3503400000001 867.3875099999999 1080.8079 1387.4302 447.15542999999997 473.70685 551.23016 674.1057099999999 837.10291 1044.906 1325.3818 1732.9871 492.35623 524.73969 619.21411 768.85895 967.6851800000001 1222.7007 1569.875 2076.4407 534.76563 572.69855 683.2557400000001 858.1323199999999 1090.2753 1388.203 1794.3931 2386.7463 574.04315 616.79022 741.25275 937.74609 1197.8804 1530.6757 1982.9976 2640.6619 609.07715 655.60022 790.92926 1004.1293 1285.3625 1643.2783 2127.0464 2827.6357 637.75647 686.9093 829.77362 1054.407 1349.6284 1723.1969 2224.9731 2948.7258 657.74634 708.42035 855.61499 1086.696 1389.4417 1770.5947 2279.7029 3011.5591 667.39618 718.59363 867.24915 1100.3728 1405.1074 1787.3409 2295.7983 3025.0132 666.27136 717.12128 864.737 1096.0891 1398.103 1776.0665 2277.605 2996.0066 655.21069 704.94714 849.3253199999999 1075.5562 1370.7069 1739.6688 2228.6877 2928.8965 635.9975 683.92908 823.08429 1041.1608 1325.6511 1681.1436 2152.1079 2826.5728 610.8053 656.29492 788.40179 995.5261199999999 1265.8148 1603.5527 2050.9353 2691.9006 581.61792 624.0899 747.49725 941.1375699999999 1193.9984 1510.0231 1928.6287 2528.7219 549.83984 588.8103 702.12848 880.1436800000001 1112.8387 1403.7899 1789.2343 2342.2627 516.23376 551.35382 653.57104 814.38007 1024.8763 1288.2917 1637.4642 2139.1316 481.27643 512.35205 602.89026 745.5675 932.67932 1167.2235 1478.6517 1927.0872 445.51807 472.49935999999997 551.18872 675.44727 838.8725599999999 1044.4735 1318.5732 1714.6388 409.54367 432.50507000000005 499.54987 605.7125900000001 746.04065 923.95239 1163.1025 1510.4122 373.77505 392.89758 448.83437999999995 537.81787 656.55603 809.35089 1017.7482 1322.2552 338.3624 353.9213 399.59384 472.90143 572.46411 703.91595 887.13593 1156.2235 303.21707000000004 315.59268 352.18282999999997 411.92856 495.57962000000003 610.33893 774.52301 1015.5994 268.23999 277.95224 307.05765 356.00128 427.67374 530.65405 681.34845 899.8825699999999 233.77688999999998 241.50872999999999 265.16101000000003 306.56597999999997 370.37228 465.8371 606.6270099999999 804.34082 200.97583 207.50929 227.93381000000002 265.05661000000003 324.49172999999996 415.00052 545.90625 721.32257 171.39015 177.44699 196.60301 231.98505 288.94742 374.04843 492.18839 645.12268 146.00887 152.09372 171.17334 205.76405 259.60037 336.96677 441.8194 579.21625 124.86216 131.00366 149.84656 182.70096999999998 232.17207000000002 302.81879 400.84427 530.81879 106.68943999999999 112.48637 130.11751 160.61565 207.64227 277.03533999999996 372.63052000000005 492.52630999999997 89.954422 95.128288 111.17961000000001 140.25632 187.1721 255.79471 344.50588999999997 442.95563 74.789337 79.26951600000001 93.593346 120.55028999999999 164.0952 224.52931 293.20245 347.36325 49.221481 52.696243 64.145149 86.58869200000001 122.6867 166.61827 199.89581 210.26802 9.3860884 12.850821 24.178261 44.389111 72.308769 102.12354 144.46672 2.9818664 7.1560006 20.402273 45.882095 90.54480699999999 0.13313457 0.13173296 0.11774351 0.083826795 0.026550239 0.048793416 0.12541918 0.19582295 0.19466299 0.17514428 0.12626207 0.042567942000000004 0.06884831200000001 0.18429534 0.26866099 0.27448779 0.27427819 0.24871105 0.18191724 0.065549031 0.091357663 0.25660279 0.38230246 0.37427214 0.37610766 0.34403485 0.25567147 0.098482519 0.11644672 0.34595194 0.52431625 0.5038057 0.50931025 0.47015679 0.35525587 0.14619514 0.14395164 0.45779493 0.70563996 0.67595792 0.68781275 0.64131957 0.49397597 0.22061478 0.19407205 0.62797093 0.98612577 0.90934348 0.93325973 0.88235426 0.70019609 0.39374149 0.56144381 1.2714013000000002 1.9053875 1.2315048000000002 1.2812186 1.2395128 1.0445029000000001 0.94747758 1.8964522000000001 3.6097982 5.0839156999999995 1.6839368000000001 1.7898116000000002 1.7938484000000001 1.6795692 2.2787137000000004 4.9671617 9.1827917 12.850597 2.3266307999999998 2.5457451 2.668128 2.7937672000000005 4.5912571 10.25966 19.154467 27.312616 3.238651 3.6631095 4.016721700000001 4.491864700000001 7.592237 16.999634 32.331879 47.023567 4.5127125 5.273255799999999 6.0107145 6.8390740999999995 10.546725 22.780493 43.959839 65.068733 6.2458911 7.509769400000001 8.829833 10.066864 13.188272 25.148054000000002 48.345985 72.27358199999999 8.531144099999999 10.496488000000001 12.641922000000001 14.565019 16.725628 24.552135 43.785872999999995 65.130028 11.454017 14.347169000000001 17.586563 20.598426999999997 22.760714 25.875013 36.247688000000004 50.909264 15.095351999999998 19.177301 23.805492 28.272581 31.499945 33.174076 36.620605 43.630032 19.540428 25.115509 31.486864 37.763195 42.583019 45.052673 47.433933 51.762043 24.893263 32.304829 40.859035 49.385731 56.16233100000001 60.116261 63.773106000000006 69.222824 31.301765000000003 40.914146 52.157211 63.507045999999995 72.761551 78.60051700000001 84.321083 92.239479 39.008938 51.166472999999996 65.625107 80.434303 92.804245 101.20568 110.24476999999999 122.5555 48.452438 63.416573 81.564178 100.44315999999999 116.53052 128.15318 142.24684 161.73712 60.43480699999999 78.32268499999999 100.49001 123.89571000000001 144.06099 159.16795 180.08479 211.33029 76.367126 97.145531 123.48125 151.6017 175.72988999999998 193.49165 222.30345 270.89047 98.556938 122.18736000000001 152.79764 185.65321 213.00954 230.89362000000003 266.4024 339.30667 130.50255 157.39093 192.86185 230.85526000000002 260.25909 272.83907999999997 308.80865 412.10956 177.22948 209.23009 251.90979 297.10537999999997 327.62216 325.78253 346.81408999999996 482.35062 245.95662000000002 288.2417 344.43585 402.73895 435.33786 406.80786 386.55618 543.96533 347.28082 410.94948999999997 493.58367999999996 576.82147 616.52032 548.06958 446.26282000000003 597.1574099999999 495.9743 600.40698 730.81915 857.18225 913.20056 797.0119 571.82678 666.91187 709.5575 882.9986 1090.4243 1283.5988 1366.3621 1205.147 852.79041 828.02142 1003.2375 1280.3921 1599.9352 1886.2733 2012.946 1824.1693 1425.1373 1251.8992 1381.9939 1798.5392 2265.7969 2677.114 2880.8669 2794.3264 2545.3516 2263.498 1833.1366 2417.7571 3062.0417 3635.6704 4032.9065 4346.3467 4583.6357 4221.4492 2324.0002 3090.1121 3927.6399 4699.9692 5395.0757 6369.6001 7321.9707 6799.748 2808.1497 3748.6646 4770.896 5733.4976 6715.0488 8272.7979 9740.0723 8921.417 3238.97 4327.9697 5505.7188 6617.8379 7779.1309 9624.0811 11192.585 10003.121 3583.6279 4784.1333 6075.7671 7280.6782 8497.4756 10354.743 11754.473 10323.695 3829.7014 5103.2803 6468.624 7724.501 8935.1025 10694.033000000001 11911.323 10322.252 3982.4355 5296.1353 6702.8086 7985.0098 9178.2383 10843.972 11923.337 10244.166 4056.1948 5384.9336 6808.4165 8100.8154 9280.2998 10889.684 11899.337 10190.894 4065.8567 5391.4131 6813.4541 8104.5425 9276.9902 10868.988000000001 11873.783000000001 10182.745 4021.8215 5329.9302 6735.6899 8015.6216 9186.8398 10796.576000000001 11850.24 10211.104 3929.4331 5206.9468 6582.1221 7837.5967 8993.0342 10592.162 11664.662 10084.463 3791.249 5024.707 6354.6382 7571.2827 8693.167 10245.997 11299.178 9785.1709 3609.8149 4785.5195 6055.4727 7218.9258 8289.7793 9763.0449 10764.118999999999 9330.0361 3389.5059 4494.4819 5690.6377 6787.6343 7792.0576 9157.7246 10083.795 8746.1572 3137.1809 4160.4238 5270.9858 6290.2627 7216.0581 8453.4189 9282.8594 8066.8818 2862.0571 3795.6172 4811.8374 5744.6572 6582.272 7680.0649 8410.3262 7324.5581 2575.1655 3414.7942 4331.3164 5171.7524 5915.0366 6872.6499 7511.4043 6551.397 2288.6023 3033.9919 3849.1091 4595.1416 5243.4746 6063.4707 6611.8145 5765.0918 2014.4451 2669.054 3384.9668 4038.114 4596.4497 5282.8003 5725.4341 4971.5132 1763.2903 2333.3958 2955.1248 3520.0361 3997.6382 4560.6504 4877.5566 4189.4165 1542.403 2035.3008 2568.2537 3051.6023 3460.25 3916.1436 4096.5 3469.3479 1354.1071 1776.2986 2226.3452 2635.3462 2990.6917 3359.0222 3405.0706 2812.3943 1195.3591 1552.4081 1928.5623 2276.0547 2595.9624 2894.3386 2820.718 2310.6494 1059.0698 1358.5599 1676.1786 1981.4384 2280.5444 2493.4958 2271.0056 938.7199699999999 1193.821 1471.1439 1750.9009 2017.0405 2074.7664 1750.3004 834.815 1060.8815 1308.8853 1562.1841 1732.4312 1588.4722 752.95831 954.7738 1171.8091 1360.8661 1352.8296 1188.9574 688.51392 860.26495 1018.6263 1069.7441 961.4923699999999 625.20142 743.7808200000001 785.09027 735.9505 528.14197 551.77631 517.85364 737.3752400000001 357.73431 356.17078 256.92081 
Vel 3 2975 float
0.0 0.0 0.0 0.0 0.0 0.0 0.0 0.0 0.0 0.0 0.0 0.0 0.0 0.0 0.0 0.0 0.0 0.0 0.0 0.0 0.0 0.0 0.0 0.0 0.0 0.0 0.0 0.0 0.0 0.0 0.0 0.0 0.0 0.0 0.0 0.0 0.0 0.0 0.0 0.0 0.0 0.0 0.0 0.0 0.0 0.0 0.0 0.0 0.0 0.0 0.0 0.0 0.0 0.0 0.0 0.0 0.0 0.0 0.0 0.0 0.0 0.0 0.0 0.0 0.0 0.0 0.0 0.0 0.0 0.0 0.0 0.0 0.0 0.0 0.0 0.0 0.0 0.0 0.0 0.0 0.0 0.0 0.0 0.0 0.0 0.0 0.0 0.0 0.0 0.0 0.0 0.0 0.0 0.0 0.0 0.0 0.0 0.0 0.0 0.0 0.0 0.0 0.0 0.0 0.0 0.0 0.0 0.0 0.0 0.0 0.0 0.0 0.0 0.0 0.0 0.0 0.0 0.0 0.0 0.0 0.0 0.0 0.0 0.0 0.0 0.0 0.0 0.0 0.0 0.0 0.0 0.0 0.0 0.0 0.0 0.0 0.0 0.0 0.0 0.0 0.0 0.0 0.0 0.0 0.0 0.0 0.0 0.0 0.0 0.0 0.0 0.0 0.0 0.0 0.0 0.0 0.0 0.0 0.0 0.0 0.0 0.0 0.0 0.0 0.0 0.0 0.0 0.0 0.0 0.0 0.0 0.0 0.0 0.0 0.0 0.0 0.0 0.0 0.0 0.0 0.0 0.0 0.0 0.0 0.0 0.0 0.0 0.0 0.0 0.0 0.0 0.0 0.0 0.0 0.0 0.0 0.0 0.0 0.0 0.0 0.0 0.0 0.0 0.0 0.0 0.0 0.0 0.0 0.0 0.0 0.0 0.0 0.0 0.0 0.0 0.0 0.0 0.0 0.0 0.0 0.0 0.0 0.0 0.0 0.0 0.0 0.0 0.0 0.0 0.0 0.0 0.0 0.0 0.0 0.0 0.0 0.0 0.0 0.0 0.0 0.0 0.0 0.0 0.0 0.0 0.0 0.0 0.0 0.0 0.0 0.0 0.0 0.0 0.0 0.0 0.0 0.0 0.0 0.0 0.0 0.0 0.0 0.0 0.0 0.0 0.0 0.0 0.0 0.0 0.0 0.0 0.0 0.0 0.0 0.0 0.0 0.0 0.0 0.0 0.0 0.0 0.0 0.0 0.0 0.0 0.0 0.0 0.0 0.0 0.0 0.0 0.0 0.0 0.0 0.0 0.0 0.0 0.0 0.0 0.0 0.0 0.0 0.0 0.0 0.0 0.0 0.0 0.0 0.0 0.0 0.0 0.0 0.0 0.0 0.0 0.0 0.0 0.0 0.0 0.0 0.0 0.0 0.0 0.0 0.0 0.0 0.0 0.0 0.0 0.0 0.0 0.0 0.0 0.0 0.0 0.0 0.0 0.0 0.0 0.0 0.0 0.0 0.0 0.0 0.0 0.0 0.0 0.0 0.0 0.0 0.0 0.0 0.0 0.0 0.0 0.0 0.0 0.0 0.0 0.0 0.0 0.0 0.0 0.0 0.0 0.0 0.0 0.0 0.0 0.0 0.0 0.0 0.0 0.0 0.0 0.0 0.0 0.0 0.0 0.0 0.0 0.0 0.0 0.0 0.0 0.0 0.0 0.0 0.0 0.0 0.0 0.0 0.0 0.0 0.0 0.0 0.0 0.0 0.0 0.0 0.0 0.0 0.0 0.0 0.0 0.0 0.0 0.0 0.0 0.0 0.0 0.0 0.0 0.0 0.0 0.0 0.0 0.0 0.0 0.0 0.0 0.0 0.0 0.0 0.0 0.0 0.0 0.0 0.0 0.0 0.0 0.0 0.0 0.0 0.0 0.0 0.0 0.0 0.0 0.0 0.0 0.0 0.0 0.0 0.0 0.0 0.0 0.0 0.0 0.0 0.0 0.0 0.0 0.0 0.0 0.0 0.0 0.0 0.0 0.0 0.0 0.0 0.0 0.0 0.0 0.0 0.0 0.0 0.0 0.0 0.0 0.0 0.0 0.0 0.0 0.0 0.0 0.0 0.0 0.0 0.0 0.0 0.0 0.0 0.0 0.0 0.0 0.0 0.0 0.0 0.0 0.0 0.0 0.0 0.0 0.0 0.0 0.0 0.0 0.0 0.0 0.0 0.0 0.0 0.0 0.0 0.0 0.0 0.0 0.0 0.0 0.0 0.0 0.0 0.0 0.0 0.0 0.0 0.0 0.0 0.0 0.0 0.0 0.0 0.0 0.0 0.0 0.0 0.0 0.0 0.0 0.0 0.0 0.0 0.0 0.0 0.0 0.0 0.0 0.0 0.0 0.0 0.0 0.0 0.0 0.0 0.0 0.0 0.0 0.0 0.0 0.0 0.0 0.0 0.0 0.0 0.0 0.0 0.0 0.0 0.0 0.0 0.0 0.0 0.0 0.0 0.0 0.0 0.0 0.0 0.0 0.0 0.0 0.0 0.0 0.0 0.0 0.0 0.0 0.0 0.0 0.0 0.0 0.0 0.0 0.0 0.0 0.0 0.0 0.0 0.0 0.0 0.0 0.0 0.0 0.0 0.0 0.0 0.0 0.0 0.0 0.0 0.0 0.0 0.0 0.0 0.0 0.0 0.0 0.0 0.0 0.0 0.0 0.0 0.0 0.0 0.0 0.0 0.0 0.0 0.0 0.0 0.0 0.0 0.0 0.0 0.0 0.0 0.0 0.0 0.0 0.0 0.0 0.0 0.0 0.0 0.0 0.0 0.0 0.0 0.0 0.0 0.0 0.0 0.0 0.0 0.0 0.0 0.0 0.0 0.0 0.0 0.0 0.0 0.0 0.0 0.0 0.0 0.0 0.0 0.0 0.0 0.0 0.0 0.0 0.0 0.0 0.0 0.0 0.0 0.0 0.0 0.0 0.0 0.0 0.0 0.0 0.0 0.0 0.0 0.0 0.0 0.0 0.0 0.0 0.0 0.0 0.0 0.0 0.0 0.0 0.0 0.0 0.0 0.0 0.0 0.0 0.0 0.0 0.0 0.0 0.0 0.0 0.0 0.0 0.0 0.0 0.0 0.0 0.0 0.0 0.0 0.0 0.0 0.0 0.0 0.0 0.0 0.0 0.0 0.0 0.0 0.0 0.0 0.0 0.0 0.0 0.0 0.0 0.0 0.0 0.0 0.0 0.0 0.0 0.0 0.0 0.0 0.0 0.0 0.0 0.0 0.0 0.0 0.0 0.0 0.0 0.0 0.0 0.0 0.0 0.0 0.0 0.0 0.0 0.0 0.0 0.0 0.0 0.0 0.0 0.0 0.0 0.0 0.0 0.0 0.0 0.0 0.0 0.0 0.0 0.0 0.0 0.0 0.0 0.0 0.0 0.0 0.0 0.0 0.0 0.0 0.0 0.0 0.0 0.0 0.0 0.0 0.0 0.0 0.0 0.0 0.0 0.0 0.0 0.0 0.0 0.0 0.0 0.0 0.0 0.0 0.0 0.0 0.0 0.0 0.0 0.0 0.0 0.0 0.0 0.0 0.0 0.0 0.0 0.0 0.0 0.0 0.0 0.0 0.0 0.0 0.0 0.0 0.0 0.0 0.0 0.0 0.0 0.0 0.0 0.0 0.0 0.0 0.0 0.0 0.0 0.0 0.0 0.0 0.0 0.0 0.0 0.0 0.0 0.0 0.0 0.0 0.0 0.0 0.0 0.0 0.0 0.0 0.0 0.0 0.0 0.0 0.0 0.0 0.0 0.0 0.0 0.0 0.0 0.0 0.0 0.0 0.0 0.0 0.0 0.0 0.0 0.0 0.0 0.0 0.0 0.0 0.0 0.0 0.0 0.0 0.0 0.0 0.0 0.0 0.0 0.0 0.0 0.0 0.0 0.0 0.0 0.0 0.0 0.0 0.0 0.0 0.0 0.0 0.0 0.0 0.0 0.0 0.0 0.0 0.0 0.0 0.0 0.0 0.0 0.0 0.0 0.0 0.0 0.0 0.0 0.0 0.0 0.0 0.0 0.0 0.0 0.0 0.0 0.0 0.0 0.0 0.0 0.0 0.0 0.0 0.0 0.0 0.0 0.0 0.0 0.0 0.0 0.0 0.0 0.0 0.0 0.0 0.0 0.0 0.0 0.0 0.0 0.0 0.0 0.0 0.0 0.0 0.0 0.0 0.0 0.0 0.0 0.0 0.0 0.0 0.0 0.0 0.0 0.0 0.0 0.0 0.0 0.0 0.0 0.0 0.0 0.0 0.0 0.0 0.0 0.0 0.0 0.0 0.0 0.0 0.0 0.0 0.0 0.0 0.0 0.0 0.0 0.0 0.0 0.0 0.0 0.0 0.0 0.0 0.0 0.0 0.0 0.0 0.0 0.0 0.0 0.0 0.0 0.0 0.0 0.0 0.0 0.0 0.0 0.0 0.0 0.0 0.0 0.0 0.0 0.0 0.0 0.0 0.0 0.0 0.0 0.0 0.0 0.0 0.0 0.0 0.0 0.0 0.0 0.0 0.0 0.0 0.0 0.0 0.0 0.0 0.0 0.0 0.0 0.0 0.0 0.0 0.0 0.0 0.0 0.0 0.0 0.0 0.0 0.0 0.0 0.0 0.0 0.0 0.0 0.0 0.0 0.0 0.0 0.0 0.0 0.0 0.0 0.0 0.0 0.0 0.0 0.0 0.0 0.0 0.0 0.0 0.0 0.0 0.0 0.0 0.0 0.0 0.0 0.0 0.0 0.0 0.0 0.0 0.0 0.0 0.0 0.0 0.0 0.0 0.0 0.0 0.0 0.0 0.0 0.0 0.0 0.0 0.0 0.0 0.0 0.0 0.0 0.0 0.0 0.0 0.0 0.0 0.0 0.0 0.0 0.0 0.0 0.0 0.0 0.0 0.0 0.0 0.0 0.0 0.0 0.0 0.0 0.0 0.0 0.0 0.0 0.0 0.0 0.0 0.0 0.0 0.0 0.0 0.0 0.0 0.0 0.0 0.0 0.0 0.0 0.0 0.0 0.0 0.0 0.0 0.0 0.0 0.0 0.0 0.0 0.0 0.0 0.0 0.0 0.0 0.0 0.0 0.0 0.0 0.0 0.0 0.0 0.0 0.0 0.0 0.0 0.0 0.0 0.0 0.0 0.0 0.0 0.0 0.0 0.0 0.0 0.0 0.0 0.0 0.0 0.0 0.0 0.0 0.0 0.0 0.0 0.0 0.0 0.0 0.0 0.0 0.0 0.0 0.0 0.0 0.0 0.0 0.0 0.0 0.0 0.0 0.0 0.0 0.0 0.0 0.0 0.0 0.0 0.0 0.0 0.0 0.0 0.0 0.0 0.0 0.0 0.0 0.0 0.0 0.0 0.0 0.0 0.0 0.0 0.0 0.0 0.0 0.0 0.0 0.0 0.0 0.0 0.0 0.0 0.0 0.0 0.0 0.0 0.0 0.0 0.0 0.0 0.0 0.0 0.0 0.0 0.0 0.0 0.0 0.0 0.0 0.0 0.0 0.0 0.0 0.0 0.0 0.0 0.0 0.0 0.0 0.0 0.0 0.0 0.0 0.0 0.0 0.0 0.0 0.0 0.0 0.0 0.0 0.0 0.0 0.0 0.0 0.0 0.0 0.0 0.0 0.0 0.0 0.0 0.0 0.0 0.0 0.0 0.0 0.0 0.0 0.0 0.0 0.0 0.0 0.0 0.0 0.0 0.0 0.0 0.0 0.0 0.0 0.0 0.0 0.0 0.0 0.0 0.0 0.0 0.0 0.0 0.0 0.0 0.0 0.0 0.0 0.0 0.0 0.0 0.0 0.0 0.0 0.0 0.0 0.0 0.0 0.0 0.0 0.0 0.0 0.0 0.0 0.0 0.0 0.0 0.0 0.0 0.0 0.0 0.0 0.0 0.0 0.0 0.0 0.0 0.0 0.0 0.0 0.0 0.0 0.0 0.0 0.0 0.0 0.0 0.0 0.0 0.0 0.0 0.0 0.0 0.0 0.0 0.0 0.0 0.0 0.0 0.0 0.0 0.0 0.0 0.0 0.0 0.0 0.0 0.0 0.0 0.0 0.0 0.0 0.0 0.0 0.0 0.0 0.0 0.0 0.0 0.0 0.0 0.0 0.0 0.0 0.0 0.0 0.0 0.0 0.0 0.0 0.0 0.0 0.0 0.0 0.0 0.0 0.0 0.0 0.0 0.0 0.0 0.0 0.0 0.0 0.0 0.0 0.0 0.0 0.0 0.0 0.0 0.0 0.0 0.0 0.0 0.0 0.0 0.0 0.0 0.0 0.0 0.0 0.0 0.0 0.0 0.0 0.0 0.0 0.0 0.0 0.0 0.0 0.0 0.0 0.0 0.0 0.0 0.0 0.0 0.0 0.0 0.0 0.0 0.0 0.0 0.0 0.0 0.0 0.0 0.0 0.0 0.0 0.0 0.0 0.0 0.0 0.0 0.0 0.0 0.0 0.0 0.0 0.0 0.0 0.0 0.0 0.0 0.0 0.0 0.0 0.0 0.0 0.0 0.0 0.0 0.0 0.0 0.0 0.0 0.0 0.0 0.0 0.0 0.0 0.0 0.0 0.0 0.0 0.0 0.0 0.0 0.0 0.0 0.0 0.0 0.0 0.0 0.0 0.0 0.0 0.0 0.0 0.0 0.0 0.0 0.0 0.0 0.0 0.0 0.0 0.0 0.0 0.0 0.0 0.0 0.0 0.0 0.0 0.0 0.0 0.0 0.0 0.0 0.0 0.0 0.0 0.0 0.0 0.0 0.0 0.0 0.0 0.0 0.0 0.0 0.0 0.0 0.0 0.0 0.0 0.0 0.0 0.0 0.0 0.0 0.0 0.0 0.0 0.0 0.0 0.0 0.0 0.0 0.0 0.0 0.0 0.0 0.0 0.0 0.0 0.0 0.0 0.0 0.0 0.0 0.0 0.0 0.0 0.0 0.0 0.0 0.0 0.0 0.0 0.0 0.0 0.0 0.0 0.0 0.0 0.0 0.0 0.0 0.0 0.0 0.0 0.0 0.0 0.0 0.0 0.0 0.0 0.0 0.0 0.0 0.0 0.0 0.0 0.0 0.0 0.0 0.0 0.0 0.0 0.0 0.0 0.0 0.0 0.0 0.0 0.0 0.0 0.0 0.0 0.0 0.0 0.0 0.0 0.0 0.0 0.0 0.0 0.0 0.0 0.0 0.0 0.0 0.0 0.0 0.0 0.0 0.0 0.0 0.0 0.0 0.0 0.0 0.0 0.0 0.0 0.0 0.0 0.0 0.0 0.0 0.0 0.0 0.0 0.0 0.0 0.0 0.0 0.0 0.0 0.0 0.0 0.0 0.0 0.0 0.0 0.0 0.0 0.0 0.0 0.0 0.0 0.0 0.0 0.0 0.0 0.0 0.0 0.0 0.0 0.0 0.0 0.0 0.0 0.0 0.0 0.0 0.0 0.0 0.0 0.0 0.0 0.0 0.0 0.0 0.0 0.0 0.0 0.0 0.0 0.0 0.0 0.0 0.0 0.0 0.0 0.0 0.0 0.0 0.0 0.0 0.0 0.0 0.0 0.0 0.0 0.0 0.0 0.0 0.0 0.0 0.0 0.0 0.0 0.0 0.0 0.0 0.0 0.0 0.0 0.0 0.0 0.0 0.0 0.0 0.0 0.0 0.0 0.0 0.0 0.0 0.0 0.0 0.0 0.0 0.0 0.0 0.0 0.0 0.0 0.0 0.0 0.0 0.0 0.0 0.0 0.0 0.0 0.0 0.0 0.0 0.0 0.0 0.0 0.0 0.0 0.0 0.0 0.0 0.0 0.0 0.0 0.0 0.0 0.0 0.0 0.0 0.0 0.0 0.0 0.0 0.0 0.0 0.0 0.0 0.0 0.0 0.0 0.0 0.0 0.0 0.0 0.0 0.0 0.0 0.0 0.0 0.0 0.0 0.0 0.0 0.0 0.0 0.0 0.0 0.0 0.0 0.0 0.0 0.0 0.0 0.0 0.0 0.0 0.0 0.0 0.0 0.0 0.0 0.0 0.0 0.0 0.0 0.0 0.0 0.0 0.0 0.0 0.0 0.0 0.0 0.0 0.0 0.0 0.0 0.0 0.0 0.0 0.0 0.0 0.0 0.0 0.0 0.0 0.0 0.0 0.0 0.0 0.0 0.0 0.0 0.0 0.0 0.0 0.0 0.0 0.0 0.0 0.0 0.0 0.0 0.0 0.0 0.0 0.0 0.0 0.0 0.0 0.0 0.0 0.0 0.0 0.0 0.0 0.0 0.0 0.0 0.0 0.0 0.0 0.0 0.0 0.0 0.0 0.0 0.0 0.0 0.0 0.0 0.0 0.0 0.0 0.0 0.0 0.0 0.0 0.0 0.0 0.0 0.0 0.0 0.0 0.0 0.0 0.0 0.0 0.0 0.0 0.0 0.0 0.0 0.0 0.0 0.0 0.0 0.0 0.0 0.0 0.0 0.0 0.0 0.0 0.0 0.0 0.0 0.0 0.0 0.0 0.0 0.0 0.0 0.0 0.0 0.0 0.0 0.0 0.0 0.0 0.0 0.0 0.0 0.0 0.0 0.0 0.0 0.0 0.0 0.0 0.0 0.0 0.0 0.0 0.0 0.0 0.0 0.0 0.0 0.0 0.0 0.0 0.0 0.0 0.0 0.0 0.0 0.0 0.0 0.0 0.0 0.0 0.0 0.0 0.0 0.0 0.0 0.0 0.0 0.0 0.0 0.0 0.0 0.0 0.0 0.0 0.0 0.0 0.0 0.0 0.0 0.0 0.0 0.0 0.0 0.0 0.0 0.0 0.0 0.0 0.0 0.0 0.0 0.0 0.0 0.0 0.0 0.0 0.0 0.0 0.0 0.0 0.0 0.0 0.0 0.0 0.0 0.0 0.0 0.0 0.0 0.0 0.0 0.0 0.0 0.0 0.0 0.0 0.0 0.0 0.0 0.0 0.0 0.0 0.0 0.0 0.0 0.0 0.0 0.0 0.0 0.0 0.0 0.0 0.0 0.0 0.0 0.0 0.0 0.0 0.0 0.0 0.0 0.0 0.0 0.0 0.0 0.0 0.0 0.0 0.0 0.0 0.0 0.0 0.0 0.0 0.0 0.0 0.0 0.0 0.0 0.0 0.0 0.0 0.0 0.0 0.0 0.0 0.0 0.0 0.0 0.0 0.0 0.0 0.0 0.0 0.0 0.0 0.0 0.0 0.0 0.0 0.0 0.0 0.0 0.0 0.0 0.0 0.0 0.0 0.0 0.0 0.0 0.0 0.0 0.0 0.0 0.0 0.0 0.0 0.0 0.0 0.0 0.0 0.0 0.0 0.0 0.0 0.0 0.0 0.0 0.0 0.0 0.0 0.0 0.0 0.0 0.0 0.0 0.0 0.0 0.0 0.0 0.0 0.0 0.0 0.0 0.0 0.0 0.0 0.0 0.0 0.0 0.0 0.0 0.0 0.0 0.0 0.0 0.0 0.0 0.0 0.0 0.0 0.0 0.0 0.0 0.0 0.0 0.0 0.0 0.0 0.0 0.0 0.0 0.0 0.0 0.0 0.0 0.0 0.0 0.0 0.0 0.0 0.0 0.0 0.0 0.0 0.0 0.0 0.0 0.0 0.0 0.0 0.0 0.0 0.0 0.0 0.0 0.0 0.0 0.0 0.0 0.0 0.0 0.0 0.0 0.0 0.0 0.0 0.0 0.0 0.0 0.0 0.0 0.0 0.0 0.0 0.0 0.0 0.0 0.0 0.0 0.0 0.0 0.0 0.0 0.0 0.0 0.0 0.0 0.0 0.0 0.0 0.0 0.0 0.0 0.0 0.0 0.0 0.0 0.0 0.0 0.0 0.0 0.0 0.0 0.0 0.0 0.0 0.0 0.0 0.0 0.0 0.0 0.0 0.0 0.0 0.0 0.0 0.0 0.0 0.0 0.0 0.0 0.0 0.0 0.0 0.0 0.0 0.0 0.0 0.0 0.0 0.0 0.0 0.0 0.0 0.0 0.0 0.0 0.0 0.0 0.0 0.0 0.0 0.0 0.0 0.0 0.0 0.0 0.0 0.0 0.0 0.0 0.0 0.0 0.0 0.0 0.0 0.0 0.0 0.0 0.0 0.0 0.0 0.0 0.0 0.0 0.0 0.0 0.0 0.0 0.0 0.0 0.0 0.0 0.0 0.0 0.0 0.0 0.0 0.0 0.0 0.0 0.0 0.0 0.0 0.0 0.0 0.0 0.0 0.0 0.0 0.0 0.0 0.0 0.0 0.0 0.0 0.0 0.0 0.0 0.0 0.0 0.0 0.0 0.0 0.0 0.0 0.0 0.0 0.0 0.0 0.0 0.0 0.0 0.0 0.0 0.0 0.0 0.0 0.0 0.0 0.0 0.0 0.0 0.0 0.0 0.0 0.0 0.0 0.0 0.0 0.0 0.0 0.0 0.0 0.0 0.0 0.0 0.0 0.0 0.0 0.0 0.0 0.0 0.0 0.0 0.0 0.0 0.0 0.0 0.0 0.0 0.0 0.0 0.0 0.0 0.0 0.0 0.0 0.0 0.0 0.0 0.0 0.0 0.0 0.0 0.0 0.0 0.0 0.0 0.0 0.0 0.0 0.0 0.0 0.0 0.0 0.0 0.0 0.0 0.0 0.0 0.0 0.0 0.0 0.0 0.0 0.0 0.0 0.0 0.0 0.0 0.0 0.0 0.0 0.0 0.0 0.0 0.0 0.0 0.0 0.0 0.0 0.0 0.0 0.0 0.0 0.0 0.0 0.0 0.0 0.0 0.0 0.0 0.0 0.0 0.0 0.0 0.0 0.0 0.0 0.0 0.0 0.0 0.0 0.0 0.0 0.0 0.0 0.0 0.0 0.0 0.0 0.0 0.0 0.0 0.0 0.0 0.0 0.0 0.0 0.0 0.0 0.0 0.0 0.0 0.0 0.0 0.0 0.0 0.0 0.0 0.0 0.0 0.0 0.0 0.0 0.0 0.0 0.0 0.0 0.0 0.0 0.0 0.0 0.0 0.0 0.0 0.0 0.0 0.0 0.0 0.0 0.0 0.0 0.0 0.0 0.0 0.0 0.0 0.0 0.0 0.0 0.0 0.0 0.0 0.0 0.0 0.0 0.0 0.0 0.0 0.0 0.0 0.0 0.0 0.0 0.0 0.0 0.0 0.0 0.0 0.0 0.0 0.0 0.0 0.0 0.0 0.0 0.0 0.0 0.0 0.0 0.0 0.0 0.0 0.0 0.0 0.0 0.0 0.0 0.0 0.0 0.0 0.0 0.0 0.0 0.0 0.0 0.0 0.0 0.0 0.0 0.0 0.0 0.0 0.0 0.0 0.0 0.0 0.0 0.0 0.0 0.0 0.0 0.0 0.0 0.0 0.0 0.0 0.0 0.0 0.0 0.0 0.0 0.0 0.0 0.0 0.0 0.0 0.0 0.0 0.0 0.0 0.0 0.0 0.0 0.0 0.0 0.0 0.0 0.0 0.0 0.0 0.0 0.0 0.0 0.0 0.0 0.0 0.0 0.0 0.0 0.0 0.0 0.0 0.0 0.0 0.0 0.0 0.0 0.0 0.0 0.0 0.0 0.0 0.0 0.0 0.0 0.0 0.0 0.0 0.0 0.0 0.0 0.0 0.0 0.0 0.0 0.0 0.0 0.0 0.0 0.0 0.0 0.0 0.0 0.0 0.0 0.0 0.0 0.0 0.0 0.0 0.0 0.0 0.0 0.0 0.0 0.0 0.0 0.0 0.0 0.0 0.0 0.0 0.0 0.0 0.0 0.0 0.0 0.0 0.0 0.0 0.0 0.0 0.0 0.0 0.0 0.0 0.0 0.0 0.0 0.0 0.0 0.0 0.0 0.0 0.0 0.0 0.0 0.0 0.0 0.0 0.0 0.0 0.0 0.0 0.0 0.0 0.0 0.0 0.0 0.0 0.0 0.0 0.0 0.0 0.0 0.0 0.0 0.0 0.0 0.0 0.0 0.0 0.0 0.0 0.0 0.0 0.0 0.0 0.0 0.0 0.0 0.0 0.0 0.0 0.0 0.0 0.0 0.0 0.0 0.0 0.0 0.0 0.0 0.0 0.0 0.0 0.0 0.0 0.0 0.0 0.0 0.0 0.0 0.0 0.0 0.0 0.0 0.0 0.0 0.0 0.0 0.0 0.0 0.0 0.0 0.0 0.0 0.0 0.0 0.0 0.0 0.0 0.0 0.0 0.0 0.0 0.0 0.0 0.0 0.0 0.0 0.0 0.0 0.0 0.0 0.0 0.0 0.0 0.0 0.0 0.0 0.0 0.0 0.0 0.0 0.0 0.0 0.0 0.0 0.0 0.0 0.0 0.0 0.0 0.0 0.0 0.0 0.0 0.0 0.0 0.0 0.0 0.0 0.0 0.0 0.0 0.0 0.0 0.0 0.0 0.0 0.0 0.0 0.0 0.0 0.0 0.0 0.0 0.0 0.0 0.0 0.0 0.0 0.0 0.0 0.0 0.0 0.0 0.0 0.0 0.0 0.0 0.0 0.0 0.0 0.0 0.0 0.0 0.0 0.0 0.0 0.0 0.0 0.0 0.0 0.0 0.0 0.0 0.0 0.0 0.0 0.0 0.0 0.0 0.0 0.0 0.0 0.0 0.0 0.0 0.0 0.0 0.0 0.0 0.0 0.0 0.0 0.0 0.0 0.0 0.0 0.0 0.0 0.0 0.0 0.0 0.0 0.0 0.0 0.0 0.0 0.0 0.0 0.0 0.0 0.0 0.0 0.0 0.0 0.0 0.0 0.0 0.0 0.0 0.0 0.0 0.0 0.0 0.0 0.0 0.0 0.0 0.0 0.0 0.0 0.0 0.0 0.0 0.0 0.0 0.0 0.0 0.0 0.0 0.0 0.0 0.0 0.0 0.0 0.0 0.0 0.0 0.0 0.0 0.0 0.0 0.0 0.0 0.0 0.0 0.0 0.0 0.0 0.0 0.0 0.0 0.0 0.0 0.0 0.0 0.0 0.0 0.0 0.0 0.0 0.0 0.0 0.0 0.0 0.0 0.0 0.0 0.0 0.0 0.0 0.0 0.0 0.0 0.0 0.0 0.0 0.0 0.0 0.0 0.0 0.0 0.0 0.0 0.0 0.0 0.0 0.0 0.0 0.0 0.0 0.0 0.0 0.0 0.0 0.0 0.0 0.0 0.0 0.0 0.0 0.0 0.0 0.0 0.0 0.0 0.0 0.0 0.0 0.0 0.0 0.0 0.0 0.0 0.0 0.0 0.0 0.0 0.0 0.0 0.0 0.0 0.0 0.0 0.0 0.0 0.0 0.0 0.0 0.0 0.0 0.0 0.0 0.0 0.0 0.0 0.0 0.0 0.0 0.0 0.0 0.0 0.0 0.0 0.0 0.0 0.0 0.0 0.0 0.0 0.0 0.0 0.0 0.0 0.0 0.0 0.0 0.0 0.0 0.0 0.0 0.0 0.0 0.0 0.0 0.0 0.0 0.0 0.0 0.0 0.0 0.0 0.0 0.0 0.0 0.0 0.0 0.0 0.0 0.0 0.0 0.0 0.0 0.0 0.0 0.0 0.0 0.0 0.0 0.0 0.0 0.0 0.0 0.0 0.0 0.0 0.0 0.0 -2.1105583e-05 0.0 -7.9898282e-06 -2.5494166e-05 0.0 -7.7143613e-06 -2.9197945e-05 0.0 -7.0886330999999996e-06 -3.2149557e-05 0.0 -6.3227711999999996e-06 -3.4463093e-05 0.0 -5.4726224e-06 -2.269683e-05 0.0 -1.1287501999999999e-05 -3.0945441e-05 0.0 -1.0888371999999999e-05 -3.7980153e-05 0.0 -1.070548e-05 -4.3678661e-05 0.0 -1.0007995e-05 -4.8100442999999995e-05 0.0 -9.036457400000001e-06 -5.1491686e-05 0.0 -7.8493749e-06 -3.3328877e-05 0.0 -1.4369975999999999e-05 -4.5298657e-05 0.0 -1.4291571e-05 -5.5493107e-05 0.0 -1.3940795e-05 -6.3773288e-05 0.0 -1.302404e-05 -7.0125454e-05 0.0 -1.1791383e-05 -7.491277200000001e-05 0.0 -1.0264308000000001e-05 -4.7614706999999996e-05 0.0 -1.8258017e-05 -6.4540523e-05 0.0 -1.8170153e-05 -7.8712284e-05 0.0 -1.7745457e-05 -9.014608099999999e-05 0.0 -1.6524835e-05 -9.881737800000001e-05 0.0 -1.4937067e-05 -0.00010525312 0.0 -1.2990384e-05 -6.6529967e-05 0.0 -2.3327022000000002e-05 -8.9847104e-05 0.0 -2.2962538e-05 -0.00010904055 0.0 -2.2314191e-05 -0.00012430563 0.0 -2.0685387e-05 -0.00013569844 0.0 -1.8656976e-05 -0.00014401336000000002 0.0 -1.6191233999999998e-05 -9.1752867e-05 0.0 -3.0036623e-05 -0.00012324615 0.0 -2.9003220000000002e-05 -0.00014868453999999999 0.0 -2.788687e-05 -0.00016855463 0.0 -2.5697995e-05 -0.00018310304 0.0 -2.3139371e-05 -0.00019352778000000003 0.0 -2.0049398e-05 -0.00012578593 0.0 -3.8985882999999996e-05 -0.00016760772 0.0 -3.6810852e-05 -0.00020071199 0.0 -3.4852954e-05 -0.00022604388 0.0 -3.1898453e-05 -0.00024423428 0.0 -2.8658098e-05 -0.00025699675 0.0 -2.4822244e-05 -0.000172158 0.0 -5.1161231e-05 -0.00022678563 0.0 -4.7185684e-05 -0.00026914236 0.0 -4.3869579e-05 -0.00030083272999999997 0.0 -3.9909981e-05 -0.00032319585 0.0 -3.5743109e-05 -0.00033852943999999993 0.0 -3.0960487e-05 -0.00023585465 0.0 -6.7282468e-05 -0.00030573559 0.0 -6.103583999999999e-05 -0.00035890517999999995 0.0 -5.5893852e-05 -0.0003978608 0.0 -5.0796967000000005e-05 -0.00042499730000000003 0.0 -4.5340152e-05 -0.00044318265 0.0 -3.9107752e-05 -0.00032406926 0.0 -8.7279921e-05 -0.00041104064 0.0 -7.8800775e-05 -0.0004761274 0.0 -7.2166455e-05 -0.0005234476999999999 0.0 -6.5537046e-05 -0.00055596151 0.0 -5.8267498e-05 -0.0005771113799999999 0.0 -5.0082799000000005e-05 -0.00044566329000000004 0.0 -0.00011229763999999999 -0.00055126881 0.0 -0.00010142497 -0.00062903244 0.0 -9.3449322e-05 -0.00068568141 0.0 -8.489366900000001e-05 -0.00072372385 0.0 -7.5834978e-05 -0.0007478952799999999 0.0 -6.475010000000001e-05 -0.00060247834 0.0 -0.00017844068 -0.00073488092 0.0 -0.00014656907 -0.0008275846499999999 0.0 -0.00012816608 -0.0008943727599999999 0.0 -0.00011311626 -0.0009380813 0.0 -9.9446916e-05 -0.0009647446000000001 0.0 -8.4270083e-05 -0.0008315457400000001 0.0 -0.00032933883000000003 -0.00098179688 0.0 -0.00024390501 -0.0010869439999999998 0.0 -0.00019219793000000001 -0.0011629801 0.0 -0.00015768771 -0.0012109812 0.0 -0.00013332261 -0.0012390253999999999 0.0 -0.00011058973 -0.0011580553 0.0 -0.00052283797 -0.0013162806 0.0 -0.00038622456 -0.0014280204999999999 0.0 -0.00028767492000000003 -0.00150804 0.0 -0.00022376805 -0.0015571428 0.0 -0.00018159220000000002 -0.0015846322 0.0 -0.00014568408000000002 -0.0015915072 0.0 -0.00073289295 -0.0017530225 0.0 -0.00055368699 -0.0018672323999999998 0.0 -0.00040935072999999996 -0.00194684 0.0 -0.00031097446 -0.0019935328 0.0 -0.00024402767000000005 -0.0020181113 0.0 -0.00018987380000000002 -0.0021372556 0.0 -0.0009610510300000001 -0.0023041211999999998 0.0 -0.00074022269 -0.0024196759 0.0 -0.00055070233 -0.0024976895999999998 0.0 -0.00041538748 -0.0025402829 0.0 -0.00032031006 -0.0025592837 0.0 -0.00024300162 -0.0028026728000000002 0.0 -0.0012195081 -0.0029835526 0.0 -0.0009499426199999999 -0.0031052267 0.0 -0.00071160565 -0.0031834864000000003 0.0 -0.00053492608 -0.0032212091999999997 0.0 -0.00040832767 -0.0032320628000000002 0.0 -0.00030511306 -0.0036080708 0.0 -0.0015262535999999998 -0.0038165557 0.0 -0.0011940592 -0.0039527356 0.0 -0.0008982255800000001 -0.00403438 0.0 -0.00067211781 -0.004066490999999999 0.0 -0.0005079339 -0.0040648854 0.0 -0.0003752018700000001 -0.0045914324 0.0 -0.0018957842999999999 -0.0048426636 0.0 -0.0014846076999999998 -0.0050013093 0.0 -0.001116548 -0.0050882683000000005 0.0 -0.00083123875 -0.0051112678 0.0 -0.00062075641 -0.0050907908 0.0 -0.00045264277 -0.0058069248 0.0 -0.0023462101999999997 -0.0061123683 0.0 -0.0018351077 -0.0062983831999999995 0.0 -0.0013732345999999999 -0.006388959499999999 0.0 -0.0010134329 -0.0063961581 0.0 -0.00074761931 -0.006347100699999999 0.0 -0.0005391476400000001 -0.007314208399999999 0.0 -0.0028966197 -0.0076836236 0.0 -0.0022569788 -0.0078990282 0.0 -0.0016733266000000001 -0.0079873493 0.0 -0.0012210887 -0.0079671275 0.0 -0.0008910266900000001 -0.0078746472 0.0 -0.0006383039900000001 -0.009183092 0.0 -0.0035680626 -0.0096262302 0.0 -0.0027593756 -0.0098695708 0.0 -0.0020195756 -0.009943222600000001 0.0 -0.0014564134 -0.0098763062 0.0 -0.0010566389 -0.009718848399999999 0.0 -0.00075848267 -0.011503643999999999 0.0 -0.0043829395 -0.012027511999999999 0.0 -0.0033534977000000002 -0.012291024 0.0 -0.0024131089 -0.012327349 0.0 -0.0017241139 -0.012185538999999999 0.0 -0.0012553496 -0.011932799 0.0 -0.0009174305599999999 -0.014392785 0.0 -0.0053695845 -0.014995943000000001 0.0 -0.0040486203999999994 -0.015259855 0.0 -0.0028592646 -0.0152218 0.0 -0.0020400174 -0.014966713000000001 0.0 -0.0015079997 -0.014578518 0.0 -0.0011492296 -0.018010363 0.0 -0.0065702205000000005 -0.01866232 0.0 -0.0048540877 -0.018882222 0.0 -0.0033764476 -0.018713793 0.0 -0.0024401976 -0.018295189 0.0 -0.001865724 -0.017726084 0.0 -0.0015060705 -0.02254946 0.0 -0.0080093462 -0.023174979 0.0 -0.0057841907 -0.023258123999999998 0.0 -0.003987687199999999 -0.022885712000000002 0.0 -0.0030032179999999998 -0.022239312999999997 0.0 -0.0024192429 -0.021441283 0.0 -0.0020808778 -0.028250286 0.0 -0.0097369794 -0.028679042999999998 0.0 -0.0069013773 -0.028481352999999997 0.0 -0.0048097139 -0.027793296000000002 0.0 -0.0038412574 -0.026838606 0.0 -0.0033112827000000003 -0.025767116 0.0 -0.0030091177 -0.035328858 0.0 -0.011840513 -0.035261102 0.0 -0.0083205765 -0.034559041 0.0 -0.0060183555 -0.033407241000000004 0.0 -0.0051740403 -0.032067969 0.0 -0.0047503114 -0.030691907 0.0 -0.0044512036 -0.043827984 0.0 -0.014484677 -0.042841896 0.0 -0.010293517 -0.041344669 0.0 -0.0079197083 -0.039568726 0.0 -0.0072999238 -0.037789859 0.0 -0.006989457199999999 -0.036102839 0.0 -0.0065975664 -0.053435557 0.0 -0.017950747 -0.051060952 0.0 -0.01325669 -0.048466447999999995 0.0 -0.010983327 -0.045953359000000006 0.0 -0.010551848 -0.043733474 0.0 -0.010228384 -0.041837595 0.0 -0.0094392877 -0.063325383 0.0 -0.022682479 -0.059249815 0.0 -0.017966183 -0.05542231 0.0 -0.015771614 -0.052266967000000004 0.0 -0.015023628999999998 -0.049878068 0.0 -0.014043608 -0.04768686 0.0 -0.012852311000000002 -0.072318144 0.0 -0.029205406 -0.066723451 0.0 -0.025251823 -0.06206364599999999 0.0 -0.022631111000000002 -0.05872022 0.0 -0.020560671000000003 -0.055802729 0.0 -0.018816065 -0.05328263 0.0 -0.016917299 -0.07926987099999999 0.0 -0.038012479 -0.072847493 0.0 -0.03589274 -0.067616679 0.0 -0.033957667999999996 -0.064063668 0.0 -0.029381145 -0.061070467999999996 0.0 -0.025174693999999997 -0.058245327 0.0 -0.021909745 -0.08315267400000001 0.0 -0.048029602000000005 -0.07623186700000001 0.0 -0.04944177 -0.070295677 0.0 -0.05049943900000001 -0.067232095 0.0 -0.042880915 -0.064517505 0.0 -0.034679323 -0.06172999 0.0 -0.028686469 -0.080924898 0.0 -0.057513647 -0.075471476 0.0 -0.062275185999999996 -0.069787301 0.0 -0.067258373 -0.067870647 0.0 -0.05830713 -0.065890104 0.0 -0.045978509 -0.063289292 0.0 -0.036864717000000005 -0.067240871 0.0 -0.065056272 -0.067498438 0.0 -0.071804933 -0.06421750799999999 0.0 -0.080197804 -0.063699268 0.0 -0.071212031 -0.06257043799999999 0.0 -0.056123201 -0.060332835 0.0 -0.044727280999999994 -0.047420315 0.0 -0.069871373 -0.049246497 0.0 -0.076637551 -0.04990999 0.0 -0.08713248400000001 -0.04989360599999999 0.0 -0.078607149 -0.048622843 0.0 -0.062493115999999994 -0.046607826 0.0 -0.050103839000000004 -0.029391888999999997 0.0 -0.072826773 -0.030764522000000002 0.0 -0.078990325 -0.031522993 0.0 -0.089472674 -0.031657919 0.0 -0.08132031599999999 -0.03085332 0.0 -0.065429255 -0.029519465 0.0 -0.052995707999999996 -0.015276073000000001 0.0 -0.074737199 -0.01616919 0.0 -0.08019948 -0.016736159 0.0 -0.09033328300000001 -0.016938688 0.0 -0.08244808 -0.016584488 0.0 -0.066919275 -0.015890876 0.0 -0.054653451 -0.0048280964 0.0 -0.075898208 -0.0052677220999999995 0.0 -0.08083475400000001 -0.0055925502 0.0 -0.09056983099999999 -0.0058124387 0.0 -0.08271735200000001 -0.005788133000000001 0.0 -0.06746394900000001 -0.0055995197 0.0 -0.055380147000000005 0.0034127479999999997 0.0 -0.076454744 0.003378344 0.0 -0.081153125 0.0032799528000000003 0.0 -0.09052705 0.0030916728999999996 0.0 -0.082511164 0.0028749732 0.0 -0.06735675 0.0026670434 0.0 -0.055396624000000005 0.011000348 0.0 -0.07639472900000001 0.011313261000000002 0.0 -0.081111751 0.011378691000000002 0.0 -0.090244189 0.011251921000000002 0.0 -0.081950039 0.010831795 0.0 -0.066733368 0.010283005999999999 0.0 -0.054829329 0.018781122 0.0 -0.075408638 0.019377517 0.0 -0.08007360200000001 0.019534707 0.0 -0.088867269 0.019470725 0.0 -0.08045911 0.01884431 0.0 -0.065382227 0.017968226 0.0 -0.053658344000000004 0.026714975 0.0 -0.073439315 0.027530765 0.0 -0.0779365 0.027701864 0.0 -0.086229578 0.02773389 0.0 -0.07795187099999999 0.026886682999999998 0.0 -0.06327009900000001 0.025683345 0.0 -0.051890019 0.034338165 0.0 -0.070616737 0.035247955 0.0 -0.074774794 0.035406131 0.0 -0.08241929099999999 0.035548799 0.0 -0.07445731 0.03447653 0.0 -0.06041475 0.032956071 0.0 -0.049546167 0.041069523 0.0 -0.067169413 0.041935861 0.0 -0.07076522 0.041935947 0.0 -0.077542074 0.042314305999999996 0.0 -0.070081756 0.041031759 0.0 -0.056885477000000004 0.03922525 0.0 -0.046680488 0.046390336 0.0 -0.063159347 0.046910848 0.0 -0.066101313 0.046847321 0.0 -0.071826741 0.047501515999999994 0.0 -0.064947456 0.046035111 0.0 -0.0528051 0.043743345999999995 0.0 -0.04339489 0.049982712 0.0 -0.058750737000000004 0.050269093 0.0 -0.061065167000000004 0.050189748 0.0 -0.06577403799999999 0.05084797 0.0 -0.059344790999999994 0.048430752 0.0 -0.048358627 0.045243919 0.0 -0.039858597999999995 0.052460492000000004 0.0 -0.054193344000000004 0.052618541 0.0 -0.055921882 0.052343614000000004 0.0 -0.059724125999999995 0.051946795999999996 0.0 -0.053579651 0.048610917999999996 0.0 -0.043732516 0.045066327 0.0 -0.036192369 0.054544076 0.0 -0.049534298 0.054401219 0.0 -0.050796602 0.053616557 0.0 -0.053816732 0.051803845999999994 0.0 -0.047759797 0.047997434000000005 0.0 -0.03912298 0.044264987 0.0 -0.032540131 0.056913301 0.0 -0.044802818 0.056171805 0.0 -0.045700289000000005 0.05441403400000001 0.0 -0.048044384 0.051315457 0.0 -0.042245860999999996 0.046975702 0.0 -0.034724995 0.0430969 0.0 -0.029083807000000003 0.060256738 0.0 -0.040197033 0.058421731 0.0 -0.040620237999999996 0.05522650900000001 0.0 -0.042504419 0.050757747 0.0 -0.037340377 0.045801774 0.0 -0.03086482 0.041784015 0.0 -0.025970811 0.065713175 0.0 -0.036614232000000003 0.061665967 0.0 -0.0364003 0.056209151 0.0 -0.037612308 0.050217528 0.0 -0.033335745 0.044649575 0.0 -0.027656272000000003 0.040393684 0.0 -0.023110574 0.071128115 0.0 -0.034670807000000005 0.064558096 0.0 -0.033556625 0.057277903 0.0 -0.033832613 0.049817055 0.0 -0.030270977 0.043709397000000004 0.0 -0.02504728 0.039022569 0.0 -0.02066966 0.07458374599999999 0.0 -0.033291362000000005 0.066567726 0.0 -0.031474724 0.058299724000000004 0.0 -0.030836562 0.049704175 0.0 -0.027974565 0.042982463 0.0 -0.023124937 0.03779535 0.0 -0.018772915 0.067179747 0.0 -0.029486071000000003 0.059028994 0.0 -0.028208191 0.050214142 0.0 -0.025895724 0.042606205 0.0 -0.021754971 0.036880903 0.0 -0.017367812 0.066626966 0.0 -0.027935565 0.059308442999999995 0.0 -0.0261542 0.051098187 0.0 -0.024089571 0.042902037999999997 0.0 -0.020605266 0.036394782 0.0 -0.016405074 0.059023402999999995 0.0 -0.024812311 0.051873319 0.0 -0.022835299 0.043915145 0.0 -0.019851128 0.036597647000000004 0.0 -0.015881164 0.058113374 0.0 -0.023923867999999997 0.052354001 0.0 -0.022151824 0.045300383 0.0 -0.019564649 0.037811792999999996 0.0 -0.015972575 0.052066750999999994 0.0 -0.021722181 0.046511501 0.0 -0.019628156 0.039793015 0.0 -0.01655749 0.04688184 0.0 -0.019650504 0.041638415 0.0 -0.017321276 0.045682363 0.0 -0.019272067 0.042497329 0.0 -0.017818553 -3.6224323e-05 0.0 -4.6304044000000005e-06 -3.7542846e-05 0.0 -3.831902600000001e-06 -3.8503131e-05 0.0 -3.1311874000000002e-06 -3.9201164e-05 0.0 -2.5000729e-06 -3.9702982999999996e-05 0.0 -1.9439169e-06 -4.005701e-05 0.0 -1.4600499e-06 -4.0298985999999997e-05 0.0 -1.0348125e-06 -4.0454135e-05 0.0 -6.5979151e-07 -4.0540097e-05 0.0 -3.2165636e-07 -5.4010558e-05 0.0 -6.658819099999999e-06 -5.5853507e-05 0.0 -5.5325645e-06 -5.7174741000000006e-05 0.0 -4.5393745e-06 -5.8125537000000006e-05 0.0 -3.6334222e-06 -5.8795186999999993e-05 0.0 -2.8446366e-06 -5.9258233e-05 0.0 -2.1498777e-06 -5.9569817999999996e-05 0.0 -1.5298563000000003e-06 -5.976611299999999e-05 0.0 -9.7983434e-07 -5.9873641e-05 0.0 -4.7825398e-07 -7.8397774e-05 0.0 -8.7362505e-06 -8.0900892e-05 0.0 -7.2775238e-06 -8.2664534e-05 0.0 -5.9853319e-06 -8.3905717e-05 0.0 -4.8108104e-06 -8.4758714e-05 0.0 -3.7802631000000004e-06 -8.533441000000001e-05 0.0 -2.8639397000000002e-06 -8.5713233e-05 0.0 -2.0437478e-06 -8.5947744e-05 0.0 -1.3120547e-06 -8.607469499999999e-05 0.0 -6.4081649e-07 -0.00010986040000000001 0.0 -1.1048543e-05 -0.00011310841 0.0 -9.2082428e-06 -0.00011535403999999998 0.0 -7.5704615e-06 -0.0001168923 0.0 -6.091667700000001e-06 -0.00011791847 0.0 -4.7913727e-06 -0.00011859164 0.0 -3.6320418999999996e-06 -0.00011902236999999999 0.0 -2.5954737e-06 -0.00011928261999999999 0.0 -1.6687218e-06 -0.00011942120000000001 0.0 -8.1492351e-07 -0.00014985471 0.0 -1.3749381e-05 -0.00015388781 0.0 -1.1452898e-05 -0.00015661983 0.0 -9.392919300000001e-06 -0.00015843722 0.0 -7.550042e-06 -0.00015961086 0.0 -5.931579400000001e-06 -0.00016035353 0.0 -4.4910166e-06 -0.00016081009 0.0 -3.2095625e-06 -0.00016107511999999998 0.0 -2.0650409e-06 -0.00016121237 0.0 -1.0075257e-06 -0.00020069245 0.0 -1.7005597e-05 -0.00020551891 0.0 -1.415819e-05 -0.00020870927 0.0 -1.1571175e-05 -0.00021075752999999997 0.0 -9.2784385e-06 -0.00021202574000000001 0.0 -7.269372400000001e-06 -0.00021278851000000002 0.0 -5.4882052999999996e-06 -0.00021322859 0.0 -3.9173815e-06 -0.00021346687999999997 0.0 -2.5185504e-06 -0.00021358277000000002 0.0 -1.2278903e-06 -0.00026556462000000005 0.0 -2.1040052e-05 -0.00027116630000000003 0.0 -1.7511824e-05 -0.00027475072 0.0 -1.4255229e-05 -0.00027694387000000003 0.0 -1.1388826e-05 -0.00027821820999999997 0.0 -8.886320800000001e-06 -0.00027892136000000003 0.0 -6.6784178e-06 -0.00027927849 0.0 -4.754228e-06 -0.00027944191 0.0 -3.0492613e-06 -0.00027950664 0.0 -1.4850153999999997e-06 -0.00034856534 0.0 -2.618655e-05 -0.00035488361000000007 0.0 -2.1759812e-05 -0.00035874624 0.0 -1.7631332e-05 -0.00036094533 0.0 -1.4012397e-05 -0.0003620873 0.0 -1.0866121e-05 -0.00036260529000000004 0.0 -8.119855e-06 -0.00036277861 0.0 -5.755145999999999e-06 -0.00036279301 0.0 -3.6772643999999995e-06 -0.0003627621 0.0 -1.7876723999999999e-06 -0.00045468727999999997 0.0 -3.2930583999999996e-05 -0.00046158777 0.0 -2.7258513e-05 -0.00046554094000000006 0.0 -2.1938587e-05 -0.00046753496 0.0 -1.7304514e-05 -0.00046833753 0.0 -1.330908e-05 -0.00046848759000000004 0.0 -9.8672217e-06 -0.00046832629999999997 0.0 -6.948493999999999e-06 -0.0004680810400000001 0.0 -4.4162971e-06 -0.00046788674000000006 0.0 -2.1406398999999998e-06 -0.00058995734 0.0 -4.195272e-05 -0.00059721543 0.0 -3.4436751e-05 -0.0006009583000000001 0.0 -2.7462171e-05 -0.0006024293799999999 0.0 -2.1439737e-05 -0.0006025894 0.0 -1.6311506e-05 -0.0006021036 0.0 -1.1965035e-05 -0.00060138956 0.0 -8.3501773e-06 -0.00060072372 0.0 -5.268439099999999e-06 -0.00060026796 0.0 -2.5429281e-06 -0.0007617697099999999 0.0 -5.3941814000000004e-05 -0.00076902792 0.0 -4.3736462e-05 -0.00077209505 0.0 -3.4505996e-05 -0.00077257509 0.0 -2.6583302e-05 -0.0007716475500000001 0.0 -1.9951005e-05 -0.0007701406699999999 0.0 -1.4436344999999999e-05 -0.00076856307 0.0 -9.9574545e-06 -0.00076725119 0.0 -6.2238037e-06 -0.00076639786 0.0 -2.9872192e-06 -0.0009791501800000002 0.0 -6.95079e-05 -0.00098580727 0.0 -5.5590746e-05 -0.00098751776 0.0 -4.3327250999999994e-05 -0.0009863408 0.0 -3.2845007999999997e-05 -0.00098369399 0.0 -2.4266747999999997e-05 -0.00098062668 0.0 -1.7276781000000002e-05 -0.00097775494 0.0 -1.1747147e-05 -0.00097548845 0.0 -7.2566395e-06 -0.0009740508999999999 0.0 -3.4587889999999997e-06 -0.0012530356 0.0 -8.949011e-05 -0.0012580793 0.0 -7.0416558e-05 -0.0012574055 0.0 -5.4092139e-05 -0.0012535998 0.0 -4.0261329999999996e-05 -0.0012483476 0.0 -2.9243625e-05 -0.001242972 0.0 -2.0442061000000002e-05 -0.0012382197 0.0 -1.3675589e-05 -0.0012345802 0.0 -8.329307099999999e-06 -0.0012323092 0.0 -3.9380702e-06 -0.0015965678 0.0 -0.0001149068 -0.0015984023000000002 0.0 -8.856869e-05 -0.0015937884 0.0 -6.6854576e-05 -0.0015859244 0.0 -4.8788563e-05 -0.0015768192000000002 0.0 -3.4782941e-05 -0.0015681126000000002 0.0 -2.3861909e-05 -0.0015606814 0.0 -1.5687193999999998e-05 -0.0015551126999999998 0.0 -9.402519e-06 -0.0015516805 0.0 -4.407113e-06 -0.0020255905 0.0 -0.00014617461 -0.00202178 0.0 -0.0001101797 -0.0020109476 0.0 -8.1561455e-05 -0.0019969752 0.0 -5.8338363e-05 -0.001982277 0.0 -4.0782201e-05 -0.0019688362 0.0 -2.7430982e-05 -0.0019576710000000002 0.0 -1.7744578e-05 -0.0019494363 0.0 -1.0461667e-05 -0.0019444110999999999 0.0 -4.856885e-06 -0.0025589792 0.0 -0.00018308259 -0.002546252 0.0 -0.00013525937 -0.0025260111 0.0 -9.811688500000001e-05 -0.0025030943 0.0 -6.884295e-05 -0.0024804245 0.0 -4.7191194999999996e-05 -0.0024603631 0.0 -3.1176826999999997e-05 -0.0024440729 0.0 -1.9860001e-05 -0.0024322113 0.0 -1.1557746e-05 -0.0024250404 0.0 -5.3141670999999995e-06 -0.0032197529999999997 0.0 -0.00022558037 -0.0031934706 0.0 -0.0001633307 -0.0031595319 0.0 -0.00011612913000000001 -0.0031238947999999997 0.0 -8.0211328e-05 -0.0030901663 0.0 -5.4164295e-05 -0.003061044 0.0 -3.534491e-05 -0.0030378420000000002 0.0 -2.2272188e-05 -0.0030211610999999997 0.0 -1.2906987e-05 -0.003011157 0.0 -5.9090785e-06 -0.0040350799 0.0 -0.00027296561 -0.0039891414 0.0 -0.00019461031000000002 -0.003935914 0.0 -0.00013600707 -0.0038826642999999997 0.0 -9.3027149e-05 -0.0038339677 0.0 -6.2391686e-05 -0.0037927658000000003 0.0 -4.0699084e-05 -0.0037604843 0.0 -2.5715686e-05 -0.0037375409000000004 0.0 -1.5045296e-05 -0.0037238819 0.0 -6.9292587e-06 -0.0050359168 0.0 -0.00032556223 -0.004962293400000001 0.0 -0.00022984162 -0.0048826844 0.0 -0.00015902563 -0.0048057078000000005 0.0 -0.00010893921999999998 -0.0047372985 0.0 -7.3582225e-05 -0.0046804552 0.0 -4.8969352e-05 -0.004636587100000001 0.0 -3.1664167000000004e-05 -0.0046057324 0.0 -1.9038016e-05 -0.0045875045 0.0 -8.9333598e-06 -0.0062559485 0.0 -0.00038438945 -0.006144306600000001 0.0 -0.00027192943 -0.0060292729 0.0 -0.00018862871 -0.0059211119 0.0 -0.00013169082 -0.0058273324 0.0 -9.141072200000001e-05 -0.0057507926000000004 0.0 -6.3424006e-05 -0.0056925663 0.0 -4.2832434999999996e-05 -0.0056520551 0.0 -2.6773005e-05 -0.0056282971 0.0 -1.2916785e-05 -0.0077318646999999996 0.0 -0.00045546092000000004 -0.0075683938 0.0 -0.00032612763 -0.0074060438000000004 0.0 -0.00023172014 -0.007257790300000001 0.0 -0.00016777941999999998 -0.0071320003 0.0 -0.00012256105 -0.0070312772999999995 0.0 -8.9610796e-05 -0.0069557683999999995 0.0 -6.3700092e-05 -0.0069038495 0.0 -4.136606e-05 -0.0068736412 0.0 -2.0455493e-05 -0.0095035937 0.0 -0.00055000698 -0.009269944399999999 0.0 -0.00040488882000000003 -0.0090457369 0.0 -0.00030087799 -0.008846594000000001 0.0 -0.00022927217999999997 -0.0086812796 0.0 -0.0001774984 -0.0085514812 0.0 -0.00013636458999999998 -0.0084557468 0.0 -0.00010096296999999999 -0.008390744200000001 0.0 -6.736652e-05 -0.0083532538 0.0 -3.38301e-05 -0.011617911000000002 0.0 -0.0006888097900000001 -0.011291618 0.0 -0.00052970828 -0.010987549 0.0 -0.00041672282 -0.010724997 0.0 -0.00033478144999999997 -0.01051172 0.0 -0.00027144307 -0.010347719 0.0 -0.00021621122000000002 -0.010228843 0.0 -0.00016398046999999998 -0.010149234 0.0 -0.00011096754 -0.010103764 0.0 -5.6126821e-05 -0.014131188999999999 0.0 -0.0009076395699999999 -0.013686133999999999 0.0 -0.00073534803 -0.013282407 0.0 -0.00061071949 -0.012942741 0.0 -0.0005108075 -0.012672585 0.0 -0.00042586174000000006 -0.0124691 0.0 -0.00034571400999999996 -0.012324305 0.0 -0.00026483028 -0.012228808 0.0 -0.00018013996 -0.01217485 0.0 -9.129465599999999e-05 -0.017110281 0.0 -0.0012598203 -0.016518088 0.0 -0.0010741815 -0.01599508 0.0 -0.0009260679400000001 -0.015564065 0.0 -0.00079360273 -0.015228265 0.0 -0.00066870981 -0.014980286 0.0 -0.00054455944 -0.014807003000000001 0.0 -0.00041666873999999995 -0.014694543000000001 0.0 -0.00028261499 -0.014631729 0.0 -0.00014295295 -0.020621596000000002 0.0 -0.0018325928 -0.019856954 0.0 -0.0016177645999999998 -0.01919681 0.0 -0.0014217815 -0.018661883 0.0 -0.0012261994 -0.018252274 0.0 -0.001029711 -0.017955381 0.0 -0.0008327621000000001 -0.017751561000000003 0.0 -0.0006320571400000001 -0.017621316 0.0 -0.00042590662000000005 -0.017549438 0.0 -0.00021460489 -0.024715308 0.0 -0.0027337787 -0.023761618999999998 0.0 -0.0024558676000000002 -0.022950357 0.0 -0.0021640174 -0.022300651 0.0 -0.0018553236999999999 -0.021809792 0.0 -0.0015434692999999999 -0.021459198999999998 0.0 -0.0012343526 -0.021222032999999998 0.0 -0.0009282694099999999 -0.021073056 0.0 -0.00062049972 -0.020991845 0.0 -0.00031118252 -0.029397682999999997 0.0 -0.0040934221 -0.028248664 0.0 -0.0036714694 -0.027278984 0.0 -0.0031993142 -0.026506351 0.0 -0.0027043258000000003 -0.025926337 0.0 -0.0022191198 -0.025516592 0.0 -0.0017517745000000002 -0.025243549 0.0 -0.0013018129 -0.025073916 0.0 -0.00086312345 -0.024981897000000003 0.0 -0.0004304761 -0.034584622999999995 0.0 -0.006021654699999999 -0.033248305 0.0 -0.005328404300000001 -0.032114051 0.0 -0.004582244 -0.031208849 0.0 -0.0038256373 -0.030533215 0.0 -0.0030962965000000003 -0.030060717999999997 0.0 -0.0024105334 -0.029749479 0.0 -0.0017673413 -0.029558381 0.0 -0.0011576335 -0.029455325 0.0 -0.0005727146099999999 -0.040116485 0.0 -0.0084840301 -0.038577225 0.0 -0.007413839 -0.037257224 0.0 -0.0063091163 -0.036203936 0.0 -0.0052031418 -0.035423517 0.0 -0.0041551255 -0.034881756 0.0 -0.0031930308 -0.03452719 0.0 -0.0023143229 -0.034310546000000004 0.0 -0.001502844 -0.034193136 0.0 -0.00074226531 -0.045702353 0.0 -0.011429308999999999 -0.043917727000000004 0.0 -0.0099078845 -0.042378593 0.0 -0.008351001 -0.041167196 0.0 -0.0067816526 -0.040272251 0.0 -0.0053204228 -0.039649606000000004 0.0 -0.0040256502000000005 -0.039234742999999996 0.0 -0.0028887077 -0.038976979 0.0 -0.0018661595999999998 -0.038841181 0.0 -0.00091472769 -0.051000509000000006 0.0 -0.014950883 -0.048931517 0.0 -0.012929926000000001 -0.047183909 0.0 -0.010795315 -0.045808695 0.0 -0.008628238 -0.044775302999999995 0.0 -0.0066352723999999995 -0.044053324000000005 0.0 -0.0049037589 -0.043568975999999995 0.0 -0.0034511198999999998 -0.043254055 0.0 -0.0022034389 -0.043081 0.0 -0.0010745419000000001 -0.055610444 0.0 -0.019129708 -0.053298011 0.0 -0.016367376 -0.051401537000000004 0.0 -0.013492711999999999 -0.049874797 0.0 -0.01062894 -0.048690841 0.0 -0.0080428831 -0.047827605 0.0 -0.0058556921 -0.047235942999999996 0.0 -0.004053087899999999 -0.046855050999999995 0.0 -0.0025543042 -0.046643127 0.0 -0.0012365609 -0.059041865 0.0 -0.024292152 -0.056669381 0.0 -0.020535478 -0.054700844000000005 0.0 -0.016776199 -0.053086676 0.0 -0.013073493 -0.051792748 0.0 -0.0097558601 -0.05079700400000001 0.0 -0.0069982088 -0.05008361099999999 0.0 -0.004783947 -0.049613487000000005 0.0 -0.0029858609 -0.049348481 0.0 -0.0014369332000000001 -0.060532656 0.0 -0.030610176 -0.05804757 0.0 -0.025588034 -0.055995613 0.0 -0.020703578 -0.05433309099999999 0.0 -0.01595388 -0.052997544 0.0 -0.011737431000000001 -0.051976454000000005 0.0 -0.0082932664 -0.051237535 0.0 -0.0055953161999999996 -0.050737895 0.0 -0.0034511068 -0.050457197999999995 0.0 -0.0016507438000000001 -0.057749771 0.0 -0.036843546 -0.055361178 0.0 -0.030630769 -0.053375742999999996 0.0 -0.024606267 -0.05177477 0.0 -0.018749841 -0.050527122 0.0 -0.013597938 -0.049595982000000004 0.0 -0.0094308769 -0.048930824000000005 0.0 -0.0062342449 -0.04849861900000001 0.0 -0.0037823631 -0.048257884 0.0 -0.0017892395000000001 -0.044342749 0.0 -0.041386373 -0.04221233 0.0 -0.034417354 -0.040402304 0.0 -0.027610989 -0.038965493 0.0 -0.020988528 -0.037888527000000005 0.0 -0.015180137 -0.037120473 0.0 -0.010486338999999999 -0.036597781 0.0 -0.0068978309 -0.036263309 0.0 -0.0041682138 -0.036076799 0.0 -0.0019666238 -0.027988717000000003 0.0 -0.044061273 -0.026515042000000003 0.0 -0.036769234 -0.02523423 0.0 -0.029559962000000002 -0.024199868 0.0 -0.022507343 -0.023415252999999997 0.0 -0.01630077 -0.022850662 0.0 -0.011274583000000001 -0.022462741 0.0 -0.007425332 -0.022211716 0.0 -0.0044918284 -0.022070352 0.0 -0.0021209384 -0.015040453999999998 0.0 -0.045709893 -0.014181306999999999 0.0 -0.038286068 -0.013407233999999999 0.0 -0.030852251 -0.012768285 0.0 -0.023531082999999998 -0.012276925 0.0 -0.017064631 -0.011919121999999999 0.0 -0.011817713999999998 -0.01166968 0.0 -0.0077933818000000005 -0.011505586000000002 0.0 -0.0047204732 -0.011411821 0.0 -0.0022309176 -0.005306398 0.0 -0.046510354000000004 -0.0049703033 0.0 -0.039069686 -0.0046447571 0.0 -0.031544201 -0.0043657045 0.0 -0.024090313999999998 -0.0041460325 0.0 -0.017488074 -0.0039821872 0.0 -0.012123829 -0.0038643415999999996 0.0 -0.0080050547 -0.0037840178999999996 0.0 -0.0048546549 -0.0037367258 0.0 -0.0022964587 0.0025034507 0.0 -0.046620954000000006 0.0023947377 0.0 -0.039230227 0.0023288119 0.0 -0.031710997000000005 0.0022889469 0.0 -0.024236063999999998 0.0022655507 0.0 -0.01760501 0.002254369 0.0 -0.012214283000000001 0.0022522088 0.0 -0.0080727469 0.0022551357 0.0 -0.0049008409999999995 0.0022590386 0.0 -0.0023201695 0.0097192209 0.0 -0.046150312 0.009215988199999999 0.0 -0.038856801 0.0088022156 0.0 -0.03142317 0.0084793903 0.0 -0.024021842 0.0082403803 0.0 -0.017453738 0.0080733029 0.0 -0.012114708 0.0079634832 0.0 -0.0080123497 0.0078963889 0.0 -0.0048679169 0.007860681 0.0 -0.002306002 0.017027128 0.0 -0.045148682 0.016157825 0.0 -0.038012881 0.015427231999999999 0.0 -0.030739 0.014850289 0.0 -0.023495544 0.014418876 0.0 -0.017070111000000002 0.014112858999999998 0.0 -0.01184984 0.013906782 0.0 -0.0078398436 0.013776762 0.0 -0.0047652819 0.013705323 0.0 -0.0022582660999999997 0.024377463 0.0 -0.043646122999999995 0.023163847999999997 0.0 -0.036739528 0.022142502 0.0 -0.029700585 0.021336397000000003 0.0 -0.022693509 0.02073307 0.0 -0.016481986 0.020303313 0.0 -0.011439393 0.020011595 0.0 -0.0075682439 0.019825598 0.0 -0.0046007884999999995 0.019722292 0.0 -0.0021806154 0.031307131 0.0 -0.041673657 0.029777706 0.0 -0.035074092 0.028495153 0.0 -0.02834492 0.02748617 0.0 -0.021647267 0.026731947000000002 0.0 -0.015713587 0.026194151000000002 0.0 -0.010900718 0.025827823 0.0 -0.0072092907999999995 0.025593122000000003 0.0 -0.004381728400000001 0.025462184 0.0 -0.0020766526 0.037271122999999996 0.0 -0.039280381 0.035463385 0.0 -0.03306343 0.033951137 0.0 -0.02671374 0.032762185 0.0 -0.020390969 0.031870257 0.0 -0.014791282 0.031231461000000002 0.0 -0.010253315 0.030794526000000003 0.0 -0.006777173399999999 0.030513557 0.0 -0.0041177389 0.030355822 0.0 -0.0019511692 0.041271918 0.0 -0.036561582 0.039016206 0.0 -0.030787352 0.037177127000000004 0.0 -0.02487554 0.035722643 0.0 -0.018991958 0.034589492 0.0 -0.013791101000000002 0.033735115 0.0 -0.0095871761 0.033118012999999995 0.0 -0.0063635209 0.032712396 0.0 -0.0038841064 0.032482952 0.0 -0.0018469229 0.042252332000000004 0.0 -0.033664137000000004 0.039737563999999996 0.0 -0.028358134 0.037729487 0.0 -0.022920467000000003 0.036139835 0.0 -0.017520856 0.034908857 0.0 -0.012757589 0.033978472999999995 0.0 -0.0089104613 0.033305924 0.0 -0.0059546665000000006 0.032851811 0.0 -0.0036575361 0.032598745 0.0 -0.0017473497 0.041958347 0.0 -0.030660309 0.039380014 0.0 -0.025853558 0.03731513 0.0 -0.020901483999999998 0.035689641 0.0 -0.016001251 0.034436528 0.0 -0.011679928999999999 0.033488274 0.0 -0.0081855757 0.032819528 0.0 -0.005485994300000001 0.032377362 0.0 -0.0033770103000000003 0.032125864 0.0 -0.0016152898 0.041082798999999996 0.0 -0.027673677999999997 0.038467649 0.0 -0.023345697999999998 0.036395997 0.0 -0.018894384 0.034771703 0.0 -0.014494244 0.033522651 0.0 -0.010612898999999999 0.032613002 0.0 -0.007461955300000001 0.031995621 0.0 -0.0050145191999999995 0.03159564 0.0 -0.0030977203999999997 0.031368814 0.0 -0.001485834 0.039868467000000005 0.0 -0.02481107 0.037269656 0.0 -0.020977309 0.035190347999999996 0.0 -0.017007582 0.033597674 0.0 -0.01309038 0.032413829 0.0 -0.009612569599999999 0.031569336 0.0 -0.0067858999 0.030984795 0.0 -0.0045985361 0.030604517 0.0 -0.0028683832 0.030396115 0.0 -0.0013831975 0.03855088 0.0 -0.022125447000000003 0.035935361 0.0 -0.018734721 0.033842769 0.0 -0.015227846000000001 0.032265555 0.0 -0.011774285 0.031114124 0.0 -0.0087076603 0.030309542999999998 0.0 -0.0062149442 0.029765662000000002 0.0 -0.0042554954999999995 0.029421894 0.0 -0.0026664440999999996 0.029224386 0.0 -0.0012856118 0.037105825 0.0 -0.019710586999999998 0.034420136000000004 0.0 -0.016637025 0.032344859 0.0 -0.01359332 0.030769372000000003 0.0 -0.010578626 0.029649917 0.0 -0.0079126339 0.02887517 0.0 -0.0057107238 0.028366804 0.0 -0.0039427569 0.028043645 0.0 -0.0024757667 0.027859619 0.0 -0.0011899688 0.035566054 0.0 -0.017532887 0.032842249 0.0 -0.014723508 0.030741865 0.0 -0.012089164 0.02917875 0.0 -0.0095114568 0.028068459 0.0 -0.0072028032 0.027318667999999997 0.0 -0.0052569597 0.026835775 0.0 -0.0036580392999999998 0.026533243999999997 0.0 -0.0022987253 0.026362867999999998 0.0 -0.0011064650999999999 0.034048568 0.0 -0.015598085 0.0312896 0.0 -0.013074943 0.029133298 0.0 -0.010697153999999999 0.027580634 0.0 -0.0085477419 0.02646653 0.0 -0.0065505072 0.025731743999999997 0.0 -0.0048463908 0.025262162 0.0 -0.0033946303 0.024965288 0.0 -0.0021391071 0.024802865 0.0 -0.001030357 0.032746017 0.0 -0.014011977 0.029787498 0.0 -0.011512096000000001 0.027644092000000002 0.0 -0.0094665084 0.026040819 0.0 -0.007596018299999999 0.02494221 0.0 -0.0059407031999999995 0.02419587 0.0 -0.0044498234000000005 0.023719845 0.0 -0.0031478563 0.023418466000000002 0.0 -0.0019936957 0.023254517000000002 0.0 -0.00096439349 0.031792715 0.0 -0.012827735 0.028551571 0.0 -0.010206231 0.026271153 0.0 -0.0082679717 0.024673097 0.0 -0.0067031705 0.023529295 0.0 -0.005299181700000001 0.022784372999999997 0.0 -0.0040571531 0.022283052999999997 0.0 -0.0029004265000000004 0.02196949 0.0 -0.0018603572 0.021796521 0.0 -0.0009036026300000001 0.031284247 0.0 -0.012148701999999999 0.027661771 0.0 -0.0092813559 0.02517979 0.0 -0.0072852173 0.023456786 0.0 -0.005825527 0.022312835 0.0 -0.0046709534 0.021520691 0.0 -0.0036094584999999996 0.02100287 0.0 -0.0026342163 0.020674121 0.0 -0.0017039295 0.020496482 0.0 -0.00084044231 0.03152955 0.0 -0.012102373 0.027260887 0.0 -0.0089167161 0.024437702999999998 0.0 -0.006661239100000001 0.022535145 0.0 -0.0051371278 0.021267252 0.0 -0.0040292302 0.020440171 0.0 -0.0031471341 0.019893007 0.0 -0.0023069163 0.019547746 0.0 -0.0015140763000000002 0.019364024 0.0 -0.00074844295 0.033138674 0.0 -0.012892035 0.02778396 0.0 -0.0093761859 0.024241345 0.0 -0.0066533987 0.02197532 0.0 -0.0048275571 0.020508113999999997 0.0 -0.0035992972999999997 0.019555885 0.0 -0.0026955674 0.018949546 0.0 -0.001963645 0.018599641 0.0 -0.0012949732000000001 0.018394675 0.0 -0.00063416956 0.035787277 0.0 -0.014175023 0.02994428 0.0 -0.010843845 0.025250683 0.0 -0.0077214957999999995 0.022084925 0.0 -0.005269358399999999 0.02016904 0.0 -0.0036383281 0.018999895 0.0 -0.002555473 0.018257048 0.0 -0.0017451474 0.017821319 0.0 -0.0011021855 0.017599586 0.0 -0.0005330047599999999 0.038113926 0.0 -0.015446877 0.033323899 0.0 -0.012544963999999999 0.028274433999999998 0.0 -0.0096761268 0.023956417999999997 0.0 -0.0069967126 0.020947138 0.0 -0.0047013476 0.019099889 0.0 -0.0030501094 0.018037743999999998 0.0 -0.0019226938000000001 0.017450592 0.0 -0.0011347 0.017147234 0.0 -0.00052657357 0.03852582 0.0 -0.016126633 0.035470936 0.0 -0.013959613000000001 0.032065172 0.0 -0.011379593 0.028294648999999998 0.0 -0.0088847196 0.024558386 0.0 -0.0066435732999999995 0.021487804 0.0 -0.0046592336 0.019422151000000002 0.0 -0.0029772713 0.018257564 0.0 -0.0016951526 0.017699862 0.0 -0.00075795461 0.035120595 0.0 -0.01461159 0.03331494 0.0 -0.012811752 0.031462729 0.0 -0.010519442 0.02924384 0.0 -0.008173250600000001 0.026939293 0.0 -0.0059441634999999994 0.024988484 0.0 -0.0039349818 0.023629148 0.0 -0.002302143 0.022858482000000003 0.0 -0.0010428049000000001 0.031212801000000002 0.0 -0.011868161 0.030557171 0.0 -0.0097750891 0.029769697999999997 0.0 -0.0072862571 0.02911514 0.0 -0.0048440471 0.028548986000000002 0.0 -0.002817869 0.028203221 0.0 -0.0012672382 0.028809104 0.0 -0.0086099561 0.028904722999999997 0.0 -0.0057615489 0.028999382999999997 0.0 -0.0033280998 0.029029147999999998 0.0 -0.0014834151000000001 -4.0567797e-05 0.0 -3.2306318e-14 -4.0540093e-05 0.0 3.2165374e-07 -4.0454157e-05 0.0 6.597882099999999e-07 -4.0298985999999997e-05 0.0 1.0348098e-06 -4.0056992e-05 0.0 1.4600473e-06 -3.9702973e-05 0.0 1.9439151000000003e-06 -3.9201168e-05 0.0 2.5000695e-06 -3.850316e-05 0.0 3.1311893e-06 -5.9908045e-05 0.0 -2.0994526e-12 -5.9873651e-05 0.0 4.7824824e-07 -5.9766098000000005e-05 0.0 9.798322900000002e-07 -5.9569804000000004e-05 0.0 1.5298534e-06 -5.9258251e-05 0.0 2.149874e-06 -5.8795198000000004e-05 0.0 2.8446379e-06 -5.8125537000000006e-05 0.0 3.6334188000000002e-06 -5.7174741000000006e-05 0.0 4.5393722e-06 -8.6114989e-05 0.0 5.0986949e-12 -8.6074702e-05 0.0 6.4081763e-07 -8.594773699999999e-05 0.0 1.3120542e-06 -8.571325500000001e-05 0.0 2.0437478e-06 -8.5334417e-05 0.0 2.8639348999999998e-06 -8.4758693e-05 0.0 3.7802613e-06 -8.390574699999999e-05 0.0 4.810809099999999e-06 -8.266454100000001e-05 0.0 5.9853251e-06 -0.00011946481000000001 0.0 -8.973400099999999e-12 -0.00011942122 0.0 8.149271999999999e-07 -0.00011928261 0.0 1.668713e-06 -0.00011902241000000001 0.0 2.5954677999999996e-06 -0.00011859163000000001 0.0 3.6320378e-06 -0.00011791853000000001 0.0 4.791368599999999e-06 -0.00011689233 0.0 6.0916623e-06 -0.00011535409 0.0 7.5704634e-06 -0.00016125468000000002 0.0 -2.0913367e-12 -0.00016121233 0.0 1.0075414999999999e-06 -0.00016107515 0.0 2.0650245e-06 -0.00016081001000000001 0.0 3.2095609e-06 -0.00016035356000000003 0.0 4.491006599999999e-06 -0.00015961088 0.0 5.9315702999999995e-06 -0.00015843713 0.0 7.5500351999999995e-06 -0.00015661985 0.0 9.3929266e-06 -0.00021361689 0.0 -1.6422207e-11 -0.00021358279999999998 0.0 1.2279218e-06 -0.00021346693 0.0 2.5185639000000002e-06 -0.00021322854 0.0 3.9173706e-06 -0.00021278854 0.0 5.488193e-06 -0.00021202571 0.0 7.2693592000000005e-06 -0.00021075748 0.0 9.2784321e-06 -0.00020870924 0.0 1.1571189e-05 -0.00027952265 0.0 1.8086876000000002e-11 -0.00027950669999999997 0.0 1.4850368999999998e-06 -0.00027944182999999995 0.0 3.0492274e-06 -0.00027927849 0.0 4.7542158e-06 -0.00027892148 0.0 6.6784119e-06 -0.00027821827 0.0 8.8863117e-06 -0.00027694379 0.0 1.1388834e-05 -0.00027475072 0.0 1.4255229999999999e-05 -0.0003627449 0.0 -2.2531893e-11 -0.00036276208 0.0 1.7876383999999998e-06 -0.00036279304 0.0 3.6772651000000004e-06 -0.00036277864 0.0 5.755137900000001e-06 -0.00036260541 0.0 8.1198523e-06 -0.0003620873 0.0 1.086612e-05 -0.00036094541 0.0 1.4012367e-05 -0.00035874621 0.0 1.7631368e-05 -0.00046781365999999994 0.0 -1.3847281e-11 -0.00046788668 0.0 2.1406099000000002e-06 -0.0004680810400000001 0.0 4.4162798e-06 -0.00046832647000000005 0.0 6.948485400000001e-06 -0.00046848740999999995 0.0 9.867206199999999e-06 -0.0004683374099999999 0.0 1.3309094999999999e-05 -0.00046753485 0.0 1.7304506e-05 -0.000465541 0.0 2.1938557e-05 -0.00060010643 0.0 2.165771e-11 -0.0006002679 0.0 2.5429351e-06 -0.00060072372 0.0 5.2684172e-06 -0.00060138968 0.0 8.3501473e-06 -0.00060210394 0.0 1.1965027e-05 -0.00060258934 0.0 1.6311487e-05 -0.00060242921 0.0 2.1439739e-05 -0.0006009583599999999 0.0 2.746208e-05 -0.00076610257 0.0 -4.2383926e-11 -0.0007663979799999999 0.0 2.9871314e-06 -0.00076725113 0.0 6.223780000000001e-06 -0.00076856301 0.0 9.9574409e-06 -0.0007701406699999999 0.0 1.4436342999999999e-05 -0.0007716474900000001 0.0 1.9951016e-05 -0.00077257538 0.0 2.6583262e-05 -0.00077209511 0.0 3.4505996e-05 -0.00097355933 0.0 9.0316386e-11 -0.0009740508400000001 0.0 3.4588437999999995e-06 -0.00097548851 0.0 7.2566477e-06 -0.00097775529 0.0 1.1747075999999999e-05 -0.00098062668 0.0 1.7276754e-05 -0.00098369375 0.0 2.4266696e-05 -0.0009863408 0.0 3.2844924e-05 -0.00098751788 0.0 4.3327265e-05 -0.0012315391999999999 0.0 4.0719463e-11 -0.0012323095 0.0 3.9380575e-06 -0.0012345803 0.0 8.3292034e-06 -0.0012382197 0.0 1.3675533e-05 -0.0012429722 0.0 2.0442056e-05 -0.0012483477 0.0 2.924362e-05 -0.0012535999 0.0 4.0261271e-05 -0.0012574054 0.0 5.4092157e-05 -0.0015505232000000001 0.0 -1.0288690999999999e-10 -0.0015516801999999998 0.0 4.4073008e-06 -0.0015551129 0.0 9.402509e-06 -0.0015606818 0.0 1.5687199000000002e-05 -0.0015681125 0.0 2.3861887e-05 -0.001576819 0.0 3.4782930000000004e-05 -0.0015859245 0.0 4.8788574e-05 -0.0015937886999999999 0.0 6.685478e-05 -0.0019427249 0.0 -1.1897412e-10 -0.0019444107000000002 0.0 4.856674e-06 -0.0019494361 0.0 1.0461482e-05 -0.0019576717 0.0 1.7744522e-05 -0.0019688362 0.0 2.7430995e-05 -0.001982278 0.0 4.0782186e-05 -0.0019969754 0.0 5.8338359e-05 -0.0020109478 0.0 8.156149099999999e-05 -0.0024226455 0.0 -3.6782143e-11 -0.0024250404 0.0 5.3140751999999995e-06 -0.0024322115 0.0 1.1557543e-05 -0.0024440733 0.0 1.9859823e-05 -0.0024603624 0.0 3.1176772999999995e-05 -0.0024804242000000002 0.0 4.7191075e-05 -0.002503095 0.0 6.8842957e-05 -0.0025260109 0.0 9.811688500000001e-05 -0.0030078279999999997 0.0 1.6723503e-10 -0.0030111568 0.0 5.9090653e-06 -0.0030211615000000002 0.0 1.2906554e-05 -0.0030378420000000002 0.0 2.2271891999999997e-05 -0.003061044 0.0 3.5344863e-05 -0.0030901665000000003 0.0 5.4164248e-05 -0.0031238939000000003 0.0 8.021120399999999e-05 -0.0031595321 0.0 0.00011612896000000001 -0.0037193538 0.0 1.2315363000000001e-11 -0.0037238828000000002 0.0 6.9288684999999995e-06 -0.0037375407 0.0 1.5044878e-05 -0.0037604846999999995 0.0 2.5715592000000003e-05 -0.0037927658000000003 0.0 4.0699079999999997e-05 -0.0038339677 0.0 6.2391511e-05 -0.0038826647 0.0 9.302685799999999e-05 -0.003935914 0.0 0.00013600633 -0.0045814794 0.0 -5.0007898e-10 -0.0045875041 0.0 8.9339746e-06 -0.004605732899999999 0.0 1.9037861e-05 -0.0046365862 0.0 3.1664309e-05 -0.0046804546999999995 0.0 4.8969214000000004e-05 -0.0047372989 0.0 7.3582327e-05 -0.0048057069 0.0 0.00010893925 -0.004882684 0.0 0.00015902554 -0.0056204777 0.0 -4.1126244e-10 -0.005628296600000001 0.0 1.2916536000000001e-05 -0.0056520551 0.0 2.6772694999999998e-05 -0.0056925672 0.0 4.2832384e-05 -0.005750793000000001 0.0 6.3423984e-05 -0.0058273328000000004 0.0 9.1410875e-05 -0.0059211119 0.0 0.00013169123999999999 -0.0060292734 0.0 0.00018862886999999998 -0.0068637393 0.0 -9.6950148e-12 -0.0068736412 0.0 2.0455949e-05 -0.0069038505 0.0 4.1365928999999996e-05 -0.0069557694 0.0 6.3699474e-05 -0.007031279200000001 0.0 8.961057e-05 -0.0071320008 0.0 0.00012256113 -0.0072577917 0.0 0.00016777939 -0.0074060438000000004 0.0 0.00023171952 -0.008341025600000001 0.0 -8.121988599999999e-10 -0.0083532548 0.0 3.3830718000000004e-05 -0.008390744200000001 0.0 6.7366156e-05 -0.0084557487 0.0 0.00010096269000000001 -0.008551483 0.0 0.00013636422 -0.008681280500000001 0.0 0.00017749863 -0.008846595 0.0 0.00022927225 -0.0090457378 0.0 0.00030087706000000004 -0.010089006999999999 0.0 -1.2261454e-09 -0.010103764 0.0 5.6126995e-05 -0.010149238 0.0 0.00011096676000000001 -0.010228842 0.0 0.0001639801 -0.010347717 0.0 0.00021621102000000004 -0.010511721000000002 0.0 0.00027144264 -0.010724998999999999 0.0 0.00033478061 -0.010987549 0.0 0.00041672290999999995 -0.012157435 0.0 7.0234868e-10 -0.012174852 0.0 9.1294649e-05 -0.012228805 0.0 0.00018014037 -0.012324305 0.0 0.00026482999 -0.0124691 0.0 0.00034571377999999996 -0.012672586999999999 0.0 0.00042586107 -0.012942738999999998 0.0 0.00051080692 -0.013282406 0.0 0.0006107193799999999 -0.014611566999999999 0.0 -3.807851e-10 -0.014631726999999999 0.0 0.00014295062 -0.014694542 0.0 0.00028261522 -0.014807002 0.0 0.00041666854 -0.014980283999999998 0.0 0.00054455915 -0.015228268 0.0 0.00066870992 -0.015564067 0.0 0.00079360284 -0.01599508 0.0 0.0009260679400000001 -0.017526455 0.0 8.2496487e-10 -0.017549437 0.0 0.0002146045 -0.017621314 0.0 0.00042590595 -0.017751563 0.0 0.00063205633 -0.017955381 0.0 0.0008327622200000001 -0.018252276 0.0 0.0010297105 -0.018661883 0.0 0.0012261987 -0.019196808 0.0 0.0014217802 -0.020965984 0.0 -4.9173438e-10 -0.020991843 0.0 0.00031118176 -0.021073052999999998 0.0 0.00062049914 -0.021222038 0.0 0.00092826918 -0.021459198999999998 0.0 0.0012343522 -0.021809794 0.0 0.0015434691 -0.022300657 0.0 0.0018553235999999999 -0.022950361000000002 0.0 0.0021640169 -0.02495308 0.0 -1.8424563e-09 -0.024981893999999998 0.0 0.00043047458 -0.025073917999999997 0.0 0.0008631218199999999 -0.025243549 0.0 0.0013018118 -0.025516594 0.0 0.0017517735999999999 -0.02592634 0.0 0.0022191193 -0.026506353 0.0 0.0027043282000000003 -0.027278987999999997 0.0 0.0031993165999999996 -0.029423012999999998 0.0 -1.5180958e-10 -0.029455323 0.0 0.000572716 -0.029558382999999997 0.0 0.0011576344 -0.029749477000000003 0.0 0.0017673408 -0.030060716 0.0 0.0024105334 -0.030533209 0.0 0.0030962965000000003 -0.03120885 0.0 0.0038256375 -0.032114051 0.0 0.0045822458 -0.034156594 0.0 1.7939039e-09 -0.034193132 0.0 0.00074226403 -0.034310538 0.0 0.0015028464 -0.03452719 0.0 0.0023143215 -0.034881752 0.0 0.0031930311 -0.035423521 0.0 0.0041551231 -0.036203932 0.0 0.0052031409 -0.037257224 0.0 0.006309116700000001 -0.038797952000000004 0.0 4.0582333e-09 -0.038841177000000005 0.0 0.00091472571 -0.038976979 0.0 0.0018661626000000002 -0.039234742999999996 0.0 0.0028887074 -0.039649602 0.0 0.0040256493 -0.040272247000000004 0.0 0.0053204224 -0.041167192000000005 0.0 0.006781651600000001 -0.042378582000000005 0.0 0.008350999100000001 -0.043024685 0.0 -2.2170892e-09 -0.043081008 0.0 0.0010745467 -0.043254059000000004 0.0 0.0022034321 -0.04356898 0.0 0.0034511208 -0.044053327 0.0 0.0049037561 -0.044775315 0.0 0.0066352752000000004 -0.045808699 0.0 0.0086282343 -0.047183909 0.0 0.010795315 -0.046577714000000006 0.0 1.8620703e-09 -0.046643116 0.0 0.0012365683 -0.046855059000000004 0.0 0.0025543028 -0.047235927999999996 0.0 0.0040530805 -0.04782760900000001 0.0 0.0058556888 -0.048690844000000004 0.0 0.0080428841 -0.049874800999999996 0.0 0.010628945 -0.051401533 0.0 0.01349271 -0.049262144 0.0 7.6732505e-09 -0.049348481 0.0 0.0014369463 -0.049613490999999996 0.0 0.0029858476 -0.050083619 0.0 0.0047839452000000005 -0.050797008 0.0 0.0069982065000000005 -0.051792748 0.0 0.0097558638 -0.053086679000000005 0.0 0.013073493 -0.054700859000000004 0.0 0.0167762 -0.050368223 0.0 4.8106403e-09 -0.050457197999999995 0.0 0.0016507187 -0.050737895 0.0 0.0034511078000000004 -0.051237542000000004 0.0 0.0055953115 -0.051976445999999996 0.0 0.008293258000000001 -0.052997537000000004 0.0 0.011737433 -0.054333109000000004 0.0 0.015953878 -0.05599561 0.0 0.020703573 -0.048181515 0.0 9.3868113e-09 -0.048257891 0.0 0.00178922 -0.048498612 0.0 0.0037823596999999997 -0.04893082 0.0 0.0062342477 -0.049595982000000004 0.0 0.009430883499999999 -0.050527126 0.0 0.013597935 -0.05177477 0.0 0.018749859 -0.053375747 0.0 0.024606271000000002 -0.036016803 0.0 2.2614642000000002e-10 -0.036076814 0.0 0.0019666278 -0.036263313 0.0 0.0041682059 -0.036597785 0.0 0.0068978192 -0.037120454 0.0 0.010486334 -0.037888523 0.0 0.015180133 -0.038965501 0.0 0.020988557 -0.040402312 0.0 0.027610992999999997 -0.022024592000000003 0.0 -4.7134225e-09 -0.022070343 0.0 0.0021209077 -0.022211714 0.0 0.004491827 -0.022462727999999998 0.0 0.0074253385 -0.02285067 0.0 0.011274593999999999 -0.023415249 0.0 0.016300764 -0.024199843 0.0 0.022507371 -0.025234235 0.0 0.029559966 -0.011381218 0.0 1.8053818e-08 -0.011411813 0.0 0.0022309178 -0.011505583 0.0 0.004720455 -0.011669675 0.0 0.0077933874 -0.01191912 0.0 0.011817709 -0.012276938999999999 0.0 0.01706464 -0.012768278000000001 0.0 0.023531072000000004 -0.013407249 0.0 0.030852253 -0.0037210023 0.0 -2.5694278e-09 -0.0037367173999999998 0.0 0.0022964535999999997 -0.0037840211 0.0 0.0048546488 -0.0038643493 0.0 0.0080050426 -0.0039821719 0.0 0.012123819 -0.0041460372 0.0 0.017488077 -0.0043656961 0.0 0.024090325 -0.0046447767 0.0 0.031544175 0.0022607229 0.0 -1.4155956e-08 0.0022590477 0.0 0.002320186 0.0022551485 0.0 0.004900832700000001 0.0022521988000000002 0.0 0.008072746 0.0022543629 0.0 0.012214282 0.0022655576000000003 0.0 0.017604999 0.0022889457 0.0 0.024236046 0.0023288276999999997 0.0 0.031711005 0.0078495322 0.0 -4.6117621e-09 0.0078606922 0.0 0.0023059982 0.0078963796 0.0 0.0048679081 0.0079634683 0.0 0.0080123628 0.0080733076 0.0 0.012114702 0.0082403822 0.0 0.017453736 0.0084793903 0.0 0.024021847000000002 0.008802209 0.0 0.031423166 0.013682555 0.0 5.4661431e-09 0.013705325 0.0 0.0022582349 0.013776766000000001 0.0 0.0047652577 0.013906801000000002 0.0 0.0078398362 0.014112845 0.0 0.011849837 0.014418876 0.0 0.017070102 0.014850283999999998 0.0 0.023495542 0.015427223 0.0 0.030739011 0.019689131999999998 0.0 3.3102334e-09 0.019722293999999998 0.0 0.0021806059 0.019825588999999998 0.0 0.0046007899 0.020011608 0.0 0.0075682341000000005 0.020303322 0.0 0.011439393999999999 0.020733064 0.0 0.01648199 0.02133638 0.0 0.0226935 0.022142496 0.0 0.029700587 0.02542004 0.0 -1.6327578999999997e-08 0.025462187999999997 0.0 0.0020766256 0.025593121 0.0 0.0043817121 0.025827849 0.0 0.007209286600000001 0.026194157000000003 0.0 0.010900721 0.026731953 0.0 0.015713591000000002 0.027486175 0.0 0.021647247999999997 0.028495176 0.0 0.02834494 0.030304901000000002 0.0 -2.1126665e-08 0.030355826000000002 0.0 0.0019511873000000002 0.030513547000000002 0.0 0.0041177524 0.03079455 0.0 0.0067771664 0.031231446 0.0 0.010253311 0.031870261000000004 0.0 0.014791281000000002 0.032762174 0.0 0.020390967 0.033951126 0.0 0.02671374 0.032408677000000004 0.0 3.5045742e-09 0.032482941 0.0 0.0018469159 0.032712396 0.0 0.0038840906 0.03311801 0.0 0.0063635199 0.033735126000000004 0.0 0.0095871715 0.034589503 0.0 0.013791096000000001 0.035722658 0.0 0.018991966000000002 0.037177142 0.0 0.024875544 0.032517079 0.0 9.2834513e-09 0.032598748999999996 0.0 0.0017473744 0.032851807999999996 0.0 0.0036575345 0.033305928 0.0 0.005954669300000001 0.033978466 0.0 0.0089104557 0.034908853 0.0 0.012757576999999999 0.036139835 0.0 0.017520834 0.037729502000000005 0.0 0.022920474 0.032044317999999995 0.0 5.3554974e-09 0.032125864 0.0 0.0016152889000000002 0.032377366 0.0 0.0033770225 0.032819532 0.0 0.005485990600000001 0.033488281 0.0 0.0081855739 0.034436516 0.0 0.011679941999999999 0.035689633 0.0 0.016001256000000002 0.037315141 0.0 0.020901483999999998 0.03129518 0.0 9.3955617e-09 0.031368814 0.0 0.0014858381 0.031595647000000004 0.0 0.0030977293 0.031995628 0.0 0.0050145191999999995 0.032613005 0.0 0.0074619586 0.033522654 0.0 0.010612894 0.034771698999999996 0.0 0.014494238000000001 0.036396001000000004 0.0 0.018894373 0.03033133 0.0 -2.613203e-09 0.030396111 0.0 0.0013832025 0.030604519 0.0 0.0028683909 0.030984797 0.0 0.0045985337 0.031569343 0.0 0.0067858952 0.03241384 0.0 0.009612569599999999 0.033597678 0.0 0.013090377 0.035190344 0.0 0.017007573999999998 0.029154861 0.0 1.5271642e-09 0.029224394 0.0 0.0012856157000000002 0.029421886 0.0 0.002666448 0.029765679 0.0 0.004255502 0.030309542999999998 0.0 0.006214946 0.031114113 0.0 0.0087076621 0.032265559 0.0 0.011774288 0.033842787 0.0 0.015227847 0.027802305 0.0 4.9695665e-09 0.027859624 0.0 0.0011899781 0.028043642999999997 0.0 0.0024757653 0.028366802000000003 0.0 0.0039427583 0.028875167 0.0 0.005710724699999999 0.029649917 0.0 0.0079126311 0.030769372000000003 0.0 0.010578625 0.032344863 0.0 0.013593316999999999 0.026309304 0.0 4.1222656e-09 0.026362872000000002 0.0 0.0011064711 0.026533246 0.0 0.0022987281 0.026835771 0.0 0.0036580402 0.027318671 0.0 0.0052569625 0.028068457 0.0 0.007202800400000001 0.029178757000000003 0.0 0.0095114596 0.030741862999999998 0.0 0.012089161999999999 0.024750836000000002 0.0 -2.9114151e-09 0.024802863999999997 0.0 0.0010303648 0.024965288 0.0 0.0021391043 0.025262155 0.0 0.0033946316999999998 0.025731748 0.0 0.0048463903000000004 0.026466534 0.0 0.0065505067 0.027580641 0.0 0.0085477438 0.029133303 0.0 0.010697153999999999 0.023201471 0.0 -2.4564425e-10 0.023254521 0.0 0.0009643939 0.023418469 0.0 0.001993696 0.023719853 0.0 0.0031478563 0.024195877999999997 0.0 0.0044498248 0.024942212000000002 0.0 0.005940707900000001 0.02604082 0.0 0.007596015 0.027644087999999997 0.0 0.0094665131 0.021743072000000002 0.0 -2.3962008e-09 0.021796522999999998 0.0 0.0009036043199999998 0.021969486 0.0 0.0018603571 0.022283047 0.0 0.0029004263 0.022784367000000003 0.0 0.0040571559000000005 0.023529295 0.0 0.005299184 0.024673099 0.0 0.0067031686 0.02627115 0.0 0.0082679698 0.020435903000000002 0.0 -1.4435712e-09 0.020496488 0.0 0.00084044004 0.020674115 0.0 0.001703932 0.021002862999999997 0.0 0.0026342159000000004 0.021520691 0.0 0.0036094584999999996 0.022312837000000002 0.0 0.0046709538 0.02345679 0.0 0.0058255279 0.02517979 0.0 0.007285216800000001 0.019303908999999998 0.0 2.5622029e-09 0.019364021999999998 0.0 0.0007484444099999999 0.019547749 0.0 0.001514075 0.019893011000000002 0.0 0.0023069161 0.020440172 0.0 0.0031471334000000004 0.021267248 0.0 0.0040292302 0.022535147000000002 0.0 0.0051371297 0.024437696000000002 0.0 0.0066612414 0.018335985 0.0 1.0871946e-09 0.018394681 0.0 0.00063417072 0.018599637 0.0 0.0012949705999999999 0.01894955 0.0 0.0019636441 0.019555883 0.0 0.0026955670000000003 0.020508113999999997 0.0 0.0035992956 0.021975323999999997 0.0 0.0048275567 0.024241345 0.0 0.006653398299999999 0.017531098999999998 0.0 -2.5566249e-09 0.017599594 0.0 0.00053300807 0.017821321 0.0 0.0011021839 0.01825705 0.0 0.0017451468 0.018999895 0.0 0.0025554728 0.02016904 0.0 0.0036383266999999997 0.022084923 0.0 0.0052693579 0.025250683 0.0 0.0077214986 0.017052976 0.0 7.241541799999999e-10 0.017147236 0.0 0.00052657066 0.017450592 0.0 0.0011347012 0.018037743999999998 0.0 0.0019226932000000001 0.019099893 0.0 0.0030501103 0.02094714 0.0 0.0047013485 0.02395642 0.0 0.006996711700000001 0.028274443 0.0 0.0096761296 0.017535374 0.0 -1.1218838e-09 0.017699864 0.0 0.00075795513 0.018257566 0.0 0.0016951529999999998 0.019422147 0.0 0.0029772704 0.021487806 0.0 0.0046592336 0.024558387999999997 0.0 0.0066435714 0.028294657999999997 0.0 0.008884718599999999 0.032065175 0.0 0.011379593 0.022613194 0.0 -1.1190258e-10 0.022858487 0.0 0.0010428044 0.023629148 0.0 0.002302143 0.024988491 0.0 0.0039349822 0.026939297 0.0 0.0059441631 0.029243845 0.0 0.008173251500000001 0.031462729 0.0 0.010519443 0.033314943 0.0 0.012811752 0.028086632 0.0 1.3271108e-09 0.028203217000000003 0.0 0.0012672404 0.028548984 0.0 0.0028178709999999996 0.029115142000000004 0.0 0.0048440462 0.029769697999999997 0.0 0.0072862562 0.030557174 0.0 0.00977509 0.031212801000000002 0.0 0.011868158 0.029032323999999998 0.0 8.864125e-10 0.029029147999999998 0.0 0.0014834136999999999 0.028999384 0.0 0.0033281005 0.028904725 0.0 0.005761549300000001 0.028809107999999996 0.0 0.0086099561 -3.754285e-05 0.0 3.8319049e-06 -3.6224323e-05 0.0 4.6304071e-06 -3.4463078999999995e-05 0.0 5.4726247e-06 -3.2149561e-05 0.0 6.3227711999999996e-06 -2.9197945e-05 0.0 7.088633499999999e-06 -2.5494168e-05 0.0 7.7143568e-06 -2.1105581e-05 0.0 7.9898291e-06 -5.5853499e-05 0.0 5.53256e-06 -5.4010554e-05 0.0 6.658815e-06 -5.1491697000000006e-05 0.0 7.849375800000001e-06 -4.8100428e-05 0.0 9.036462e-06 -4.3678665000000003e-05 0.0 1.0007996e-05 -3.7980146e-05 0.0 1.070548e-05 -3.0945455e-05 0.0 1.0888374e-05 -2.2696822000000003e-05 0.0 1.1287501999999999e-05 -8.0900892e-05 0.0 7.2775279e-06 -7.8397767e-05 0.0 8.7362532e-06 -7.4912794e-05 0.0 1.0264309e-05 -7.012543899999999e-05 0.0 1.1791379e-05 -6.3773281e-05 0.0 1.3024037e-05 -5.5493095999999995e-05 0.0 1.3940797e-05 -4.5298671e-05 0.0 1.4291573e-05 -3.3328874e-05 0.0 1.4369984e-05 -0.00011310843 0.0 9.2082382e-06 -0.00010986041000000001 0.0 1.1048548e-05 -0.00010525318999999999 0.0 1.2990388e-05 -9.881737800000001e-05 0.0 1.4937069e-05 -9.0146073e-05 0.0 1.6524838e-05 -7.8712321e-05 0.0 1.7745457e-05 -6.4540523e-05 0.0 1.8170145e-05 -4.7614706999999996e-05 0.0 1.8258026e-05 -0.00015388784 0.0 1.1452924e-05 -0.00014985472 0.0 1.3749382e-05 -0.00014401344999999998 0.0 1.6191217999999998e-05 -0.00013569844 0.0 1.8656977999999998e-05 -0.00012430565000000001 0.0 2.0685382e-05 -0.00010904052 0.0 2.2314192e-05 -8.984712600000001e-05 0.0 2.2962538e-05 -6.6529967e-05 0.0 2.3327029e-05 -0.00020551895 0.0 1.4158171e-05 -0.00020069249 0.0 1.7005606000000002e-05 -0.00019352783 0.0 2.00494e-05 -0.00018310308 0.0 2.3139375e-05 -0.0001685546 0.0 2.5697991000000002e-05 -0.00014868457 0.0 2.7886857e-05 -0.00012324617 0.0 2.9003222e-05 -9.1752881e-05 0.0 3.0036630000000002e-05 -0.00027116632999999997 0.0 1.7511855e-05 -0.00026556468 0.0 2.1040034e-05 -0.00025699678 0.0 2.4822226000000002e-05 -0.00024423425 0.0 2.86581e-05 -0.00022604397999999998 0.0 3.1898453e-05 -0.00020071203000000001 0.0 3.4852957e-05 -0.00016760771000000002 0.0 3.6810841e-05 -0.00012578594 0.0 3.8985891000000004e-05 -0.00035488358 0.0 2.1759861e-05 -0.00034856542999999997 0.0 2.6186553e-05 -0.00033852949999999996 0.0 3.0960458e-05 -0.00032319588 0.0 3.5743094000000004e-05 -0.00030083279 0.0 3.9909974000000005e-05 -0.00026914236 0.0 4.3869579e-05 -0.0002267856 0.0 4.7185666e-05 -0.00017215798 0.0 5.1161202000000006e-05 -0.00046158777 0.0 2.7258503999999998e-05 -0.00045468737 0.0 3.2930544e-05 -0.00044318277000000004 0.0 3.9107759e-05 -0.00042499730000000003 0.0 4.5340144000000004e-05 -0.0003978608 0.0 5.0796956e-05 -0.00035890517999999995 0.0 5.5893852e-05 -0.00030573562000000003 0.0 6.1035847e-05 -0.00023585467999999996 0.0 6.7282468e-05 -0.00059721555 0.0 3.4436704e-05 -0.0005899574 0.0 4.195264e-05 -0.00057711144 0.0 5.0082752e-05 -0.00055596163 0.0 5.8267513e-05 -0.00052344776 0.0 6.5537053e-05 -0.0004761274 0.0 7.2166447e-05 -0.00041104059 0.0 7.880076e-05 -0.00032406932 0.0 8.7279957e-05 -0.00076902803 0.0 4.3736603e-05 -0.00076176983 0.0 5.3941887e-05 -0.00074789539 0.0 6.4750107e-05 -0.00072372402 0.0 7.5834949e-05 -0.00068568141 0.0 8.4893654e-05 -0.0006290325 0.0 9.34493e-05 -0.00055126887 0.0 0.00010142496 -0.00044566345999999996 0.0 0.00011229768 -0.00098580727 0.0 5.5590618999999995e-05 -0.0009791503 0.0 6.9507914e-05 -0.00096474477 0.0 8.4270061e-05 -0.00093808147 0.0 9.944693e-05 -0.00089437293 0.0 0.00011311628999999999 -0.0008275849400000001 0.0 0.00012816607 -0.00073488121 0.0 0.00014656913 -0.00060247834 0.0 0.00017844074 -0.0012580794 0.0 7.0416529e-05 -0.0012530355 0.0 8.949e-05 -0.0012390256 0.0 0.00011058973999999998 -0.0012109814 0.0 0.00013332261 -0.0011629803 0.0 0.0001576877 -0.0010869441 0.0 0.00019219796000000003 -0.00098179688 0.0 0.00024390493999999999 -0.0008315457400000001 0.0 0.00032933888999999995 -0.0015984023000000002 0.0 8.8568457e-05 -0.0015965676000000001 0.0 0.00011490671999999998 -0.0015846323000000002 0.0 0.00014568416999999998 -0.0015571428 0.0 0.00018159218999999998 -0.0015080404000000001 0.0 0.00022376799 -0.0014280207000000001 0.0 0.00028767482999999996 -0.0013162807 0.0 0.00038622461999999997 -0.0011580557 0.0 0.00052283809 -0.0020217807 0.0 0.00011017983000000001 -0.0020255905 0.0 0.00014617464 -0.0020181120000000003 0.0 0.000189874 -0.0019935332 0.0 0.00024402756000000003 -0.0019468407999999999 0.0 0.00031097449 -0.0018672323999999998 0.0 0.00040935079 -0.0017530231 0.0 0.00055368693 -0.0015915075 0.0 0.00073289283 -0.002546252 0.0 0.00013525893 -0.0025589794 0.0 0.00018308248 -0.0025592851 0.0 0.00024300147 -0.0025402831 0.0 0.00032031012000000004 -0.0024976907 0.0 0.00041538752999999997 -0.0024196764 0.0 0.00055070239 -0.0023041214000000003 0.0 0.00074022257 -0.0021372556 0.0 0.0009610510300000001 -0.0031934709 0.0 0.00016333038999999998 -0.0032197533 0.0 0.00022558029999999999 -0.0032320637 0.0 0.00030511306 -0.0032212106 0.0 0.00040832769999999996 -0.0031834859 0.0 0.0005349261299999999 -0.0031052274 0.0 0.00071160553 -0.0029835531 0.0 0.00094994274 -0.0028026733 0.0 0.0012195081 -0.0039891405 0.0 0.0001946105 -0.0040350808 0.0 0.00027296522999999996 -0.0040648864 0.0 0.0003752018700000001 -0.0040664915 0.0 0.00050793379 -0.0040343804 0.0 0.00067211787 -0.0039527356 0.0 0.0008982255800000001 -0.0038165562 0.0 0.0011940593 -0.0036080712 0.0 0.0015262538 -0.0049622944 0.0 0.00022984156000000004 -0.0050359173 0.0 0.00032556205 -0.0050907913 0.0 0.00045264259000000004 -0.0051112687 0.0 0.00062075641 -0.0050882688 0.0 0.00083123875 -0.0050013093 0.0 0.001116548 -0.0048426646 0.0 0.0014846079 -0.0045914324 0.0 0.0018957842999999999 -0.006144306600000001 0.0 0.00027192946 -0.0062559493999999995 0.0 0.00038438915999999997 -0.0063471012 0.0 0.0005391476400000001 -0.006396159100000001 0.0 0.00074761931 -0.0063889613 0.0 0.0010134329 -0.0062983846 0.0 0.0013732347 -0.0061123692 0.0 0.0018351079999999998 -0.0058069248 0.0 0.0023462104 -0.0075683934 0.0 0.00032612702000000003 -0.0077318646999999996 0.0 0.0004554615 -0.007874648100000001 0.0 0.00063830387 -0.0079671284 0.0 0.0008910265800000001 -0.0079873493 0.0 0.0012210887 -0.007899029200000001 0.0 0.0016733266000000001 -0.0076836231 0.0 0.0022569795000000003 -0.0073142103 0.0 0.0028966203999999996 -0.0092699463 0.0 0.00040488792 -0.0095035946 0.0 0.00055000692 -0.0097188465 0.0 0.00075848238 -0.0098763071 0.0 0.0010566383 -0.009943222600000001 0.0 0.0014564135 -0.0098695736 0.0 0.0020195758 -0.0096262321 0.0 0.0027593758 -0.0091830939 0.0 0.0035680626 -0.01129162 0.0 0.00052970881 -0.011617913 0.0 0.00068880897 -0.011932801000000002 0.0 0.00091743114 -0.012185541000000001 0.0 0.0012553498 -0.012327352 0.0 0.0017241138 -0.012291027 0.0 0.0024131087 -0.012027511999999999 0.0 0.0033534979 -0.011503643999999999 0.0 0.0043829395 -0.013686133999999999 0.0 0.00073534762 -0.014131188999999999 0.0 0.00090763991 -0.014578518 0.0 0.0011492301 -0.014966711 0.0 0.001508 -0.015221803 0.0 0.0020400174 -0.015259854 0.0 0.0028592641 -0.014995943000000001 0.0 0.0040486208000000004 -0.014392783999999999 0.0 0.0053695845 -0.016518088 0.0 0.0010741817999999998 -0.017110286000000002 0.0 0.001259819 -0.01772609 0.0 0.001506071 -0.018295189 0.0 0.001865724 -0.018713795 0.0 0.0024401976 -0.018882221 0.0 0.0033764483000000003 -0.018662326 0.0 0.0048540882 -0.018010367 0.0 0.0065702205000000005 -0.019856954 0.0 0.0016177635 -0.020621598 0.0 0.0018325922 -0.021441283 0.0 0.0020808789000000003 -0.022239311 0.0 0.0024192430999999998 -0.022885712000000002 0.0 0.0030032179999999998 -0.023258125 0.0 0.0039876867 -0.023174981 0.0 0.0057841907 -0.022549463 0.0 0.0080093471 -0.023761618999999998 0.0 0.0024558673999999997 -0.024715308 0.0 0.0027337782 -0.025767116 0.0 0.0030091179 -0.02683861 0.0 0.0033112851000000002 -0.027793303 0.0 0.0038412580999999998 -0.028481352999999997 0.0 0.004809713 -0.028679047000000003 0.0 0.0069013773 -0.02825029 0.0 0.0097369775 -0.028248664 0.0 0.0036714699 -0.029397685 0.0 0.0040934212 -0.030691909 0.0 0.0044512032 -0.032067969 0.0 0.0047503095 -0.033407249 0.0 0.0051740399 -0.034559041 0.0 0.006018356 -0.035261109 0.0 0.0083205765 -0.035328865 0.0 0.011840515 -0.033248309 0.0 0.0053284038 -0.034584627 0.0 0.0060216561 -0.036102835 0.0 0.006597567800000001 -0.037789851 0.0 0.006989457199999999 -0.039568722 0.0 0.0072999232999999995 -0.041344676000000004 0.0 0.0079197083 -0.04284190400000001 0.0 0.010293517 -0.043827988 0.0 0.014484677 -0.038577229 0.0 0.0074138381 -0.040116489 0.0 0.008484031099999999 -0.041837603 0.0 0.0094392877 -0.04373347 0.0 0.010228383 -0.04595337099999999 0.0 0.010551848 -0.048466447999999995 0.0 0.010983325 -0.051060952 0.0 0.01325669 -0.05343556 0.0 0.017950747 -0.043917719 0.0 0.0099078882 -0.045702357 0.0 0.011429308999999999 -0.047686853 0.0 0.012852311000000002 -0.04987807599999999 0.0 0.014043608 -0.052266967000000004 0.0 0.015023627 -0.055422321 0.0 0.015771614 -0.059249826 0.0 0.017966181 -0.06332539 0.0 0.022682481 -0.048931512999999996 0.0 0.01292993 -0.051000517 0.0 0.01495088 -0.053282632999999996 0.0 0.016917299 -0.055802733 0.0 0.018816065 -0.05872022 0.0 0.020560671000000003 -0.062063652999999996 0.0 0.022631109 -0.066723444 0.0 0.025251823 -0.072318159 0.0 0.029205404 -0.053298011 0.0 0.016367383 -0.055610455999999996 0.0 0.019129708 -0.058245324 0.0 0.021909744 -0.061070476 0.0 0.0251747 -0.064063668 0.0 0.029381149 -0.067616679 0.0 0.033957667999999996 -0.072847493 0.0 0.035892744 -0.07926987099999999 0.0 0.038012482 -0.056669372999999995 0.0 0.020535466999999998 -0.059041860999999994 0.0 0.024292143 -0.061729997 0.0 0.028686466 -0.064517505 0.0 0.03467932 -0.067232095 0.0 0.042880919 -0.070295684 0.0 0.050499432000000004 -0.07623186700000001 0.0 0.04944177 -0.083152682 0.0 0.048029598 -0.058047562999999996 0.0 0.025588023999999997 -0.060532663 0.0 0.03061017 -0.063289292 0.0 0.036864705 -0.065890104 0.0 0.045978501 -0.067870647 0.0 0.058307137 -0.06978728599999999 0.0 0.06725838 -0.075471468 0.0 0.062275194000000006 -0.080924898 0.0 0.057513642999999996 -0.055361189000000005 0.0 0.030630745 -0.057749767 0.0 0.036843546 -0.060332842000000005 0.0 0.044727288 -0.06257043799999999 0.0 0.056123205 -0.063699275 0.0 0.07121203799999999 -0.064217493 0.0 0.080197819 -0.067498423 0.0 0.071804933 -0.067240879 0.0 0.065056272 -0.042212325999999994 0.0 0.034417354 -0.044342767000000005 0.0 0.041386351 -0.046607817999999995 0.0 0.050103836 -0.048622839 0.0 0.062493108 -0.049893618 0.0 0.078607135 -0.04990999 0.0 0.08713248400000001 -0.049246494 0.0 0.07663756599999999 -0.047420308 0.0 0.069871373 -0.026515061 0.0 0.036769241 -0.027988706000000002 0.0 0.04406127 -0.029519469 0.0 0.0529957 -0.030853311 0.0 0.06542924 -0.031657916 0.0 0.081320308 -0.031522997000000004 0.0 0.089472681 -0.030764503 0.0 0.078990333 -0.029391894 0.0 0.07282678 -0.014181296999999999 0.0 0.038286056 -0.015040466 0.0 0.045709893 -0.015890868 0.0 0.054653432 -0.01658448 0.0 0.06691926 -0.016938691999999998 0.0 0.082448073 -0.016736163000000002 0.0 0.090333275 -0.016169164 0.0 0.08019948 -0.015276073000000001 0.0 0.074737199 -0.004970313499999999 0.0 0.039069671 -0.0053063924 0.0 0.04651035 -0.005599516 0.0 0.055380147000000005 -0.0057881442 0.0 0.067463942 -0.0058124223999999995 0.0 0.082717359 -0.0055925604 0.0 0.09056982400000001 -0.0052676923 0.0 0.080834769 -0.0048280838 0.0 0.075898215 0.0023947664999999997 0.0 0.039230205 0.0025034547 0.0 0.046620928 0.0026670441 0.0 0.055396624000000005 0.0028749846000000003 0.0 0.067356758 0.0030916783 0.0 0.082511149 0.0032799390999999995 0.0 0.090527043 0.0033783405 0.0 0.081153117 0.0034127287 0.0 0.076454744 0.0092159919 0.0 0.038856797 0.0097192479 0.0 0.046150308 0.010283003 0.0 0.054829302999999996 0.010831816999999999 0.0 0.06673336 0.011251913999999998 0.0 0.08195003099999999 0.011378706 0.0 0.090244189 0.011313258999999999 0.0 0.081111759 0.011000332 0.0 0.076394744 0.016157832 0.0 0.038012877 0.017027128 0.0 0.04514867400000001 0.017968221 0.0 0.053658332999999996 0.018844338000000002 0.0 0.06538222 0.019470721 0.0 0.080459096 0.019534715 0.0 0.08886726199999999 0.019377501999999998 0.0 0.08007361 0.01878109 0.0 0.075408638 0.023163876 0.0 0.036739539 0.02437746 0.0 0.043646107999999996 0.025683328999999998 0.0 0.051890038 0.026886677 0.0 0.063270085 0.027733911 0.0 0.07795187099999999 0.027701862 0.0 0.0862296 0.027530753999999998 0.0 0.0779365 0.026714951 0.0 0.073439322 0.029777691000000002 0.0 0.035074059 0.031307131 0.0 0.041673645 0.032956082000000005 0.0 0.049546177999999996 0.034476504 0.0 0.060414754 0.03554881 0.0 0.07445731 0.035406112999999996 0.0 0.082419276 0.035247948 0.0 0.074774779 0.034338153999999996 0.0 0.07061673 0.035463392999999996 0.0 0.033063415 0.037271131 0.0 0.039280362 0.039225243 0.0 0.046680491 0.041031763 0.0 0.056885480999999995 0.042314305999999996 0.0 0.07008176299999999 0.041935928 0.0 0.07754208900000001 0.041935872 0.0 0.070765235 0.041069523 0.0 0.067169413 0.039016221000000004 0.0 0.030787345 0.041271936 0.0 0.036561586 0.043743357000000004 0.0 0.04339489 0.0460351 0.0 0.052805092000000005 0.04750150400000001 0.0 0.06494746400000001 0.04684731 0.0 0.07182675599999999 0.04691083 0.0 0.066101305 0.046390343 0.0 0.063159361 0.03973756 0.0 0.028358132 0.042252320999999995 0.0 0.03366413 0.045243923 0.0 0.039858602 0.048430747999999996 0.0 0.048358627 0.050847977 0.0 0.059344802 0.050189752000000004 0.0 0.065774031 0.050269105 0.0 0.06106516 0.049982734 0.0 0.058750734000000006 0.039380017999999996 0.0 0.025853563 0.041958342999999995 0.0 0.030660303 0.045066334000000006 0.0 0.03619238 0.048610922 0.0 0.04373252 0.051946815 0.0 0.053579647 0.052343618 0.0 0.059724122000000004 0.052618552 0.0 0.055921882 0.05246048 0.0 0.054193347999999995 0.038467646 0.0 0.023345701 0.041082796 0.0 0.027673677 0.04426498 0.0 0.032540135 0.047997437000000004 0.0 0.039122988 0.051803853 0.0 0.047759794 0.05361658 0.0 0.053816728 0.05440123400000001 0.0 0.050796598 0.054544087000000005 0.0 0.049534295 0.037269656 0.0 0.020977303 0.039868467000000005 0.0 0.02481107 0.043096910999999995 0.0 0.029083801 0.046975709000000004 0.0 0.034724988 0.051315464000000005 0.0 0.042245865 0.054414049000000006 0.0 0.04804437599999999 0.056171812 0.0 0.045700292999999996 0.05691329 0.0 0.044802815 0.035935352999999996 0.0 0.018734705 0.03855088 0.0 0.022125451 0.041784033 0.0 0.025970813 0.045801781 0.0 0.030864816 0.050757751 0.0 0.037340377 0.055226515999999996 0.0 0.042504426 0.058421731 0.0 0.040620237999999996 0.060256752999999996 0.0 0.040197033 0.03442014 0.0 0.016637028999999998 0.037105832000000005 0.0 0.019710589 0.040393688 0.0 0.023110568999999997 0.044649579 0.0 0.027656273999999998 0.050217532 0.0 0.033335752999999996 0.056209157999999995 0.0 0.037612308 0.061665975 0.0 0.0364003 0.065713167 0.0 0.036614232000000003 0.032842245 0.0 0.014723505 0.035566054 0.0 0.017532881 0.039022584 0.0 0.020669658 0.043709405 0.0 0.025047278 0.049817062999999995 0.0 0.030270979 0.057277918 0.0 0.03383261 0.064558104 0.0 0.033556622 0.071128123 0.0 0.034670807000000005 0.031289604 0.0 0.01307495 0.034048576000000004 0.0 0.015598081000000001 0.03779535 0.0 0.018772917 0.042982463 0.0 0.023124941 0.049704179 0.0 0.02797457 0.058299735 0.0 0.030836562 0.066567726 0.0 0.031474728 0.07458373900000001 0.0 0.033291362000000005 0.029787501 0.0 0.01151209 0.032746017 0.0 0.014011978000000001 0.03688091 0.0 0.01736781 0.042606212000000004 0.0 0.021754969 0.050214164000000006 0.0 0.025895728 0.059028998 0.0 0.028208191 0.06717975400000001 0.0 0.029486071000000003 0.028551571 0.0 0.010206235 0.031792726 0.0 0.01282773 0.036394782 0.0 0.016405072 0.042902045 0.0 0.020605268 0.051098200999999996 0.0 0.024089575 0.059308458 0.0 0.026154202999999997 0.066626959 0.0 0.027935566000000002 0.027661774 0.0 0.0092813587 0.031284254 0.0 0.012148703 0.036597647000000004 0.0 0.015881162 0.043915145 0.0 0.019851123999999998 0.051873326 0.0 0.022835297999999997 0.05902341 0.0 0.024812308999999998 0.027260887 0.0 0.008916718 0.03152955 0.0 0.012102372 0.037811801 0.0 0.015972579 0.045300387000000004 0.0 0.019564653 0.052354012000000005 0.0 0.022151824 0.058113363 0.0 0.023923865 0.027783955 0.0 0.009376183199999999 0.033138677000000005 0.0 0.01289203 0.039793018 0.0 0.01655749 0.046511505 0.0 0.019628158 0.052066755 0.0 0.021722181 0.02994428 0.0 0.010843843999999998 0.035787269 0.0 0.01417502 0.041638412 0.0 0.017321276 0.046881847000000004 0.0 0.019650504 0.033323895 0.0 0.012544963999999999 0.038113929 0.0 0.015446876000000002 0.042497337 0.0 0.017818555 0.045682367 0.0 0.019272067 0.03547094 0.0 0.013959615 0.038525816000000004 0.0 0.016126631000000002 0.035120599 0.0 0.014611591 
Acec 3 2975 float
0.0 0.0 0.0 0.0 0.0 0.0 0.0 0.0 0.0 0.0 0.0 0.0 0.0 0.0 0.0 0.0 0.0 0.0 0.0 0.0 0.0 0.0 0.0 0.0 0.0 0.0 0.0 0.0 0.0 0.0 0.0 0.0 0.0 0.0 0.0 0.0 0.0 0.0 0.0 0.0 0.0 0.0 0.0 0.0 0.0 0.0 0.0 0.0 0.0 0.0 0.0 0.0 0.0 0.0 0.0 0.0 0.0 0.0 0.0 0.0 0.0 0.0 0.0 0.0 0.0 0.0 0.0 0.0 0.0 0.0 0.0 0.0 0.0 0.0 0.0 0.0 0.0 0.0 0.0 0.0 0.0 0.0 0.0 0.0 0.0 0.0 0.0 0.0 0.0 0.0 0.0 0.0 0.0 0.0 0.0 0.0 0.0 0.0 0.0 0.0 0.0 0.0 0.0 0.0 0.0 0.0 0.0 0.0 0.0 0.0 0.0 0.0 0.0 0.0 0.0 0.0 0.0 0.0 0.0 0.0 0.0 0.0 0.0 0.0 0.0 0.0 0.0 0.0 0.0 0.0 0.0 0.0 0.0 0.0 0.0 0.0 0.0 0.0 0.0 0.0 0.0 0.0 0.0 0.0 0.0 0.0 0.0 0.0 0.0 0.0 0.0 0.0 0.0 0.0 0.0 0.0 0.0 0.0 0.0 0.0 0.0 0.0 0.0 0.0 0.0 0.0 0.0 0.0 0.0 0.0 0.0 0.0 0.0 0.0 0.0 0.0 0.0 0.0 0.0 0.0 0.0 0.0 0.0 0.0 0.0 0.0 0.0 0.0 0.0 0.0 0.0 0.0 0.0 0.0 0.0 0.0 0.0 0.0 0.0 0.0 0.0 0.0 0.0 0.0 0.0 0.0 0.0 0.0 0.0 0.0 0.0 0.0 0.0 0.0 0.0 0.0 0.0 0.0 0.0 0.0 0.0 0.0 0.0 0.0 0.0 0.0 0.0 0.0 0.0 0.0 0.0 0.0 0.0 0.0 0.0 0.0 0.0 0.0 0.0 0.0 0.0 0.0 0.0 0.0 0.0 0.0 0.0 0.0 0.0 0.0 0.0 0.0 0.0 0.0 0.0 0.0 0.0 0.0 0.0 0.0 0.0 0.0 0.0 0.0 0.0 0.0 0.0 0.0 0.0 0.0 0.0 0.0 0.0 0.0 0.0 0.0 0.0 0.0 0.0 0.0 0.0 0.0 0.0 0.0 0.0 0.0 0.0 0.0 0.0 0.0 0.0 0.0 0.0 0.0 0.0 0.0 0.0 0.0 0.0 0.0 0.0 0.0 0.0 0.0 0.0 0.0 0.0 0.0 0.0 0.0 0.0 0.0 0.0 0.0 0.0 0.0 0.0 0.0 0.0 0.0 0.0 0.0 0.0 0.0 0.0 0.0 0.0 0.0 0.0 0.0 0.0 0.0 0.0 0.0 0.0 0.0 0.0 0.0 0.0 0.0 0.0 0.0 0.0 0.0 0.0 0.0 0.0 0.0 0.0 0.0 0.0 0.0 0.0 0.0 0.0 0.0 0.0 0.0 0.0 0.0 0.0 0.0 0.0 0.0 0.0 0.0 0.0 0.0 0.0 0.0 0.0 0.0 0.0 0.0 0.0 0.0 0.0 0.0 0.0 0.0 0.0 0.0 0.0 0.0 0.0 0.0 0.0 0.0 0.0 0.0 0.0 0.0 0.0 0.0 0.0 0.0 0.0 0.0 0.0 0.0 0.0 0.0 0.0 0.0 0.0 0.0 0.0 0.0 0.0 0.0 0.0 0.0 0.0 0.0 0.0 0.0 0.0 0.0 0.0 0.0 0.0 0.0 0.0 0.0 0.0 0.0 0.0 0.0 0.0 0.0 0.0 0.0 0.0 0.0 0.0 0.0 0.0 0.0 0.0 0.0 0.0 0.0 0.0 0.0 0.0 0.0 0.0 0.0 0.0 0.0 0.0 0.0 0.0 0.0 0.0 0.0 0.0 0.0 0.0 0.0 0.0 0.0 0.0 0.0 0.0 0.0 0.0 0.0 0.0 0.0 0.0 0.0 0.0 0.0 0.0 0.0 0.0 0.0 0.0 0.0 0.0 0.0 0.0 0.0 0.0 0.0 0.0 0.0 0.0 0.0 0.0 0.0 0.0 0.0 0.0 0.0 0.0 0.0 0.0 0.0 0.0 0.0 0.0 0.0 0.0 0.0 0.0 0.0 0.0 0.0 0.0 0.0 0.0 0.0 0.0 0.0 0.0 0.0 0.0 0.0 0.0 0.0 0.0 0.0 0.0 0.0 0.0 0.0 0.0 0.0 0.0 0.0 0.0 0.0 0.0 0.0 0.0 0.0 0.0 0.0 0.0 0.0 0.0 0.0 0.0 0.0 0.0 0.0 0.0 0.0 0.0 0.0 0.0 0.0 0.0 0.0 0.0 0.0 0.0 0.0 0.0 0.0 0.0 0.0 0.0 0.0 0.0 0.0 0.0 0.0 0.0 0.0 0.0 0.0 0.0 0.0 0.0 0.0 0.0 0.0 0.0 0.0 0.0 0.0 0.0 0.0 0.0 0.0 0.0 0.0 0.0 0.0 0.0 0.0 0.0 0.0 0.0 0.0 0.0 0.0 0.0 0.0 0.0 0.0 0.0 0.0 0.0 0.0 0.0 0.0 0.0 0.0 0.0 0.0 0.0 0.0 0.0 0.0 0.0 0.0 0.0 0.0 0.0 0.0 0.0 0.0 0.0 0.0 0.0 0.0 0.0 0.0 0.0 0.0 0.0 0.0 0.0 0.0 0.0 0.0 0.0 0.0 0.0 0.0 0.0 0.0 0.0 0.0 0.0 0.0 0.0 0.0 0.0 0.0 0.0 0.0 0.0 0.0 0.0 0.0 0.0 0.0 0.0 0.0 0.0 0.0 0.0 0.0 0.0 0.0 0.0 0.0 0.0 0.0 0.0 0.0 0.0 0.0 0.0 0.0 0.0 0.0 0.0 0.0 0.0 0.0 0.0 0.0 0.0 0.0 0.0 0.0 0.0 0.0 0.0 0.0 0.0 0.0 0.0 0.0 0.0 0.0 0.0 0.0 0.0 0.0 0.0 0.0 0.0 0.0 0.0 0.0 0.0 0.0 0.0 0.0 0.0 0.0 0.0 0.0 0.0 0.0 0.0 0.0 0.0 0.0 0.0 0.0 0.0 0.0 0.0 0.0 0.0 0.0 0.0 0.0 0.0 0.0 0.0 0.0 0.0 0.0 0.0 0.0 0.0 0.0 0.0 0.0 0.0 0.0 0.0 0.0 0.0 0.0 0.0 0.0 0.0 0.0 0.0 0.0 0.0 0.0 0.0 0.0 0.0 0.0 0.0 0.0 0.0 0.0 0.0 0.0 0.0 0.0 0.0 0.0 0.0 0.0 0.0 0.0 0.0 0.0 0.0 0.0 0.0 0.0 0.0 0.0 0.0 0.0 0.0 0.0 0.0 0.0 0.0 0.0 0.0 0.0 0.0 0.0 0.0 0.0 0.0 0.0 0.0 0.0 0.0 0.0 0.0 0.0 0.0 0.0 0.0 0.0 0.0 0.0 0.0 0.0 0.0 0.0 0.0 0.0 0.0 0.0 0.0 0.0 0.0 0.0 0.0 0.0 0.0 0.0 0.0 0.0 0.0 0.0 0.0 0.0 0.0 0.0 0.0 0.0 0.0 0.0 0.0 0.0 0.0 0.0 0.0 0.0 0.0 0.0 0.0 0.0 0.0 0.0 0.0 0.0 0.0 0.0 0.0 0.0 0.0 0.0 0.0 0.0 0.0 0.0 0.0 0.0 0.0 0.0 0.0 0.0 0.0 0.0 0.0 0.0 0.0 0.0 0.0 0.0 0.0 0.0 0.0 0.0 0.0 0.0 0.0 0.0 0.0 0.0 0.0 0.0 0.0 0.0 0.0 0.0 0.0 0.0 0.0 0.0 0.0 0.0 0.0 0.0 0.0 0.0 0.0 0.0 0.0 0.0 0.0 0.0 0.0 0.0 0.0 0.0 0.0 0.0 0.0 0.0 0.0 0.0 0.0 0.0 0.0 0.0 0.0 0.0 0.0 0.0 0.0 0.0 0.0 0.0 0.0 0.0 0.0 0.0 0.0 0.0 0.0 0.0 0.0 0.0 0.0 0.0 0.0 0.0 0.0 0.0 0.0 0.0 0.0 0.0 0.0 0.0 0.0 0.0 0.0 0.0 0.0 0.0 0.0 0.0 0.0 0.0 0.0 0.0 0.0 0.0 0.0 0.0 0.0 0.0 0.0 0.0 0.0 0.0 0.0 0.0 0.0 0.0 0.0 0.0 0.0 0.0 0.0 0.0 0.0 0.0 0.0 0.0 0.0 0.0 0.0 0.0 0.0 0.0 0.0 0.0 0.0 0.0 0.0 0.0 0.0 0.0 0.0 0.0 0.0 0.0 0.0 0.0 0.0 0.0 0.0 0.0 0.0 0.0 0.0 0.0 0.0 0.0 0.0 0.0 0.0 0.0 0.0 0.0 0.0 0.0 0.0 0.0 0.0 0.0 0.0 0.0 0.0 0.0 0.0 0.0 0.0 0.0 0.0 0.0 0.0 0.0 0.0 0.0 0.0 0.0 0.0 0.0 0.0 0.0 0.0 0.0 0.0 0.0 0.0 0.0 0.0 0.0 0.0 0.0 0.0 0.0 0.0 0.0 0.0 0.0 0.0 0.0 0.0 0.0 0.0 0.0 0.0 0.0 0.0 0.0 0.0 0.0 0.0 0.0 0.0 0.0 0.0 0.0 0.0 0.0 0.0 0.0 0.0 0.0 0.0 0.0 0.0 0.0 0.0 0.0 0.0 0.0 0.0 0.0 0.0 0.0 0.0 0.0 0.0 0.0 0.0 0.0 0.0 0.0 0.0 0.0 0.0 0.0 0.0 0.0 0.0 0.0 0.0 0.0 0.0 0.0 0.0 0.0 0.0 0.0 0.0 0.0 0.0 0.0 0.0 0.0 0.0 0.0 0.0 0.0 0.0 0.0 0.0 0.0 0.0 0.0 0.0 0.0 0.0 0.0 0.0 0.0 0.0 0.0 0.0 0.0 0.0 0.0 0.0 0.0 0.0 0.0 0.0 0.0 0.0 0.0 0.0 0.0 0.0 0.0 0.0 0.0 0.0 0.0 0.0 0.0 0.0 0.0 0.0 0.0 0.0 0.0 0.0 0.0 0.0 0.0 0.0 0.0 0.0 0.0 0.0 0.0 0.0 0.0 0.0 0.0 0.0 0.0 0.0 0.0 0.0 0.0 0.0 0.0 0.0 0.0 0.0 0.0 0.0 0.0 0.0 0.0 0.0 0.0 0.0 0.0 0.0 0.0 0.0 0.0 0.0 0.0 0.0 0.0 0.0 0.0 0.0 0.0 0.0 0.0 0.0 0.0 0.0 0.0 0.0 0.0 0.0 0.0 0.0 0.0 0.0 0.0 0.0 0.0 0.0 0.0 0.0 0.0 0.0 0.0 0.0 0.0 0.0 0.0 0.0 0.0 0.0 0.0 0.0 0.0 0.0 0.0 0.0 0.0 0.0 0.0 0.0 0.0 0.0 0.0 0.0 0.0 0.0 0.0 0.0 0.0 0.0 0.0 0.0 0.0 0.0 0.0 0.0 0.0 0.0 0.0 0.0 0.0 0.0 0.0 0.0 0.0 0.0 0.0 0.0 0.0 0.0 0.0 0.0 0.0 0.0 0.0 0.0 0.0 0.0 0.0 0.0 0.0 0.0 0.0 0.0 0.0 0.0 0.0 0.0 0.0 0.0 0.0 0.0 0.0 0.0 0.0 0.0 0.0 0.0 0.0 0.0 0.0 0.0 0.0 0.0 0.0 0.0 0.0 0.0 0.0 0.0 0.0 0.0 0.0 0.0 0.0 0.0 0.0 0.0 0.0 0.0 0.0 0.0 0.0 0.0 0.0 0.0 0.0 0.0 0.0 0.0 0.0 0.0 0.0 0.0 0.0 0.0 0.0 0.0 0.0 0.0 0.0 0.0 0.0 0.0 0.0 0.0 0.0 0.0 0.0 0.0 0.0 0.0 0.0 0.0 0.0 0.0 0.0 0.0 0.0 0.0 0.0 0.0 0.0 0.0 0.0 0.0 0.0 0.0 0.0 0.0 0.0 0.0 0.0 0.0 0.0 0.0 0.0 0.0 0.0 0.0 0.0 0.0 0.0 0.0 0.0 0.0 0.0 0.0 0.0 0.0 0.0 0.0 0.0 0.0 0.0 0.0 0.0 0.0 0.0 0.0 0.0 0.0 0.0 0.0 0.0 0.0 0.0 0.0 0.0 0.0 0.0 0.0 0.0 0.0 0.0 0.0 0.0 0.0 0.0 0.0 0.0 0.0 0.0 0.0 0.0 0.0 0.0 0.0 0.0 0.0 0.0 0.0 0.0 0.0 0.0 0.0 0.0 0.0 0.0 0.0 0.0 0.0 0.0 0.0 0.0 0.0 0.0 0.0 0.0 0.0 0.0 0.0 0.0 0.0 0.0 0.0 0.0 0.0 0.0 0.0 0.0 0.0 0.0 0.0 0.0 0.0 0.0 0.0 0.0 0.0 0.0 0.0 0.0 0.0 0.0 0.0 0.0 0.0 0.0 0.0 0.0 0.0 0.0 0.0 0.0 0.0 0.0 0.0 0.0 0.0 0.0 0.0 0.0 0.0 0.0 0.0 0.0 0.0 0.0 0.0 0.0 0.0 0.0 0.0 0.0 0.0 0.0 0.0 0.0 0.0 0.0 0.0 0.0 0.0 0.0 0.0 0.0 0.0 0.0 0.0 0.0 0.0 0.0 0.0 0.0 0.0 0.0 0.0 0.0 0.0 0.0 0.0 0.0 0.0 0.0 0.0 0.0 0.0 0.0 0.0 0.0 0.0 0.0 0.0 0.0 0.0 0.0 0.0 0.0 0.0 0.0 0.0 0.0 0.0 0.0 0.0 0.0 0.0 0.0 0.0 0.0 0.0 0.0 0.0 0.0 0.0 0.0 0.0 0.0 0.0 0.0 0.0 0.0 0.0 0.0 0.0 0.0 0.0 0.0 0.0 0.0 0.0 0.0 0.0 0.0 0.0 0.0 0.0 0.0 0.0 0.0 0.0 0.0 0.0 0.0 0.0 0.0 0.0 0.0 0.0 0.0 0.0 0.0 0.0 0.0 0.0 0.0 0.0 0.0 0.0 0.0 0.0 0.0 0.0 0.0 0.0 0.0 0.0 0.0 0.0 0.0 0.0 0.0 0.0 0.0 0.0 0.0 0.0 0.0 0.0 0.0 0.0 0.0 0.0 0.0 0.0 0.0 0.0 0.0 0.0 0.0 0.0 0.0 0.0 0.0 0.0 0.0 0.0 0.0 0.0 0.0 0.0 0.0 0.0 0.0 0.0 0.0 0.0 0.0 0.0 0.0 0.0 0.0 0.0 0.0 0.0 0.0 0.0 0.0 0.0 0.0 0.0 0.0 0.0 0.0 0.0 0.0 0.0 0.0 0.0 0.0 0.0 0.0 0.0 0.0 0.0 0.0 0.0 0.0 0.0 0.0 0.0 0.0 0.0 0.0 0.0 0.0 0.0 0.0 0.0 0.0 0.0 0.0 0.0 0.0 0.0 0.0 0.0 0.0 0.0 0.0 0.0 0.0 0.0 0.0 0.0 0.0 0.0 0.0 0.0 0.0 0.0 0.0 0.0 0.0 0.0 0.0 0.0 0.0 0.0 0.0 0.0 0.0 0.0 0.0 0.0 0.0 0.0 0.0 0.0 0.0 0.0 0.0 0.0 0.0 0.0 0.0 0.0 0.0 0.0 0.0 0.0 0.0 0.0 0.0 0.0 0.0 0.0 0.0 0.0 0.0 0.0 0.0 0.0 0.0 0.0 0.0 0.0 0.0 0.0 0.0 0.0 0.0 0.0 0.0 0.0 0.0 0.0 0.0 0.0 0.0 0.0 0.0 0.0 0.0 0.0 0.0 0.0 0.0 0.0 0.0 0.0 0.0 0.0 0.0 0.0 0.0 0.0 0.0 0.0 0.0 0.0 0.0 0.0 0.0 0.0 0.0 0.0 0.0 0.0 0.0 0.0 0.0 0.0 0.0 0.0 0.0 0.0 0.0 0.0 0.0 0.0 0.0 0.0 0.0 0.0 0.0 0.0 0.0 0.0 0.0 0.0 0.0 0.0 0.0 0.0 0.0 0.0 0.0 0.0 0.0 0.0 0.0 0.0 0.0 0.0 0.0 0.0 0.0 0.0 0.0 0.0 0.0 0.0 0.0 0.0 0.0 0.0 0.0 0.0 0.0 0.0 0.0 0.0 0.0 0.0 0.0 0.0 0.0 0.0 0.0 0.0 0.0 0.0 0.0 0.0 0.0 0.0 0.0 0.0 0.0 0.0 0.0 0.0 0.0 0.0 0.0 0.0 0.0 0.0 0.0 0.0 0.0 0.0 0.0 0.0 0.0 0.0 0.0 0.0 0.0 0.0 0.0 0.0 0.0 0.0 0.0 0.0 0.0 0.0 0.0 0.0 0.0 0.0 0.0 0.0 0.0 0.0 0.0 0.0 0.0 0.0 0.0 0.0 0.0 0.0 0.0 0.0 0.0 0.0 0.0 0.0 0.0 0.0 0.0 0.0 0.0 0.0 0.0 0.0 0.0 0.0 0.0 0.0 0.0 0.0 0.0 0.0 0.0 0.0 0.0 0.0 0.0 0.0 0.0 0.0 0.0 0.0 0.0 0.0 0.0 0.0 0.0 0.0 0.0 0.0 0.0 0.0 0.0 0.0 0.0 0.0 0.0 0.0 0.0 0.0 0.0 0.0 0.0 0.0 0.0 0.0 0.0 0.0 0.0 0.0 0.0 0.0 0.0 0.0 0.0 0.0 0.0 0.0 0.0 0.0 0.0 0.0 0.0 0.0 0.0 0.0 0.0 0.0 0.0 0.0 0.0 0.0 0.0 0.0 0.0 0.0 0.0 0.0 0.0 0.0 0.0 0.0 0.0 0.0 0.0 0.0 0.0 0.0 0.0 0.0 0.0 0.0 0.0 0.0 0.0 0.0 0.0 0.0 0.0 0.0 0.0 0.0 0.0 0.0 0.0 0.0 0.0 0.0 0.0 0.0 0.0 0.0 0.0 0.0 0.0 0.0 0.0 0.0 0.0 0.0 0.0 0.0 0.0 0.0 0.0 0.0 0.0 0.0 0.0 0.0 0.0 0.0 0.0 0.0 0.0 0.0 0.0 0.0 0.0 0.0 0.0 0.0 0.0 0.0 0.0 0.0 0.0 0.0 0.0 0.0 0.0 0.0 0.0 0.0 0.0 0.0 0.0 0.0 0.0 0.0 0.0 0.0 0.0 0.0 0.0 0.0 0.0 0.0 0.0 0.0 0.0 0.0 0.0 0.0 0.0 0.0 0.0 0.0 0.0 0.0 0.0 0.0 0.0 0.0 0.0 0.0 0.0 0.0 0.0 0.0 0.0 0.0 0.0 0.0 0.0 0.0 0.0 0.0 0.0 0.0 0.0 0.0 0.0 0.0 0.0 0.0 0.0 0.0 0.0 0.0 0.0 0.0 0.0 0.0 0.0 0.0 0.0 0.0 0.0 0.0 0.0 0.0 0.0 0.0 0.0 0.0 0.0 0.0 0.0 0.0 0.0 0.0 0.0 0.0 0.0 0.0 0.0 0.0 0.0 0.0 0.0 0.0 0.0 0.0 0.0 0.0 0.0 0.0 0.0 0.0 0.0 0.0 0.0 0.0 0.0 0.0 0.0 0.0 0.0 0.0 0.0 0.0 0.0 0.0 0.0 0.0 0.0 0.0 0.0 0.0 0.0 0.0 0.0 0.0 0.0 0.0 0.0 0.0 0.0 0.0 0.0 0.0 0.0 0.0 0.0 0.0 0.0 0.0 0.0 0.0 0.0 0.0 0.0 0.0 0.0 0.0 0.0 0.0 0.0 0.0 0.0 0.0 0.0 0.0 0.0 0.0 0.0 0.0 0.0 0.0 0.0 0.0 0.0 0.0 0.0 0.0 0.0 0.0 0.0 0.0 0.0 0.0 0.0 0.0 0.0 0.0 0.0 0.0 0.0 0.0 0.0 0.0 0.0 0.0 0.0 0.0 0.0 0.0 0.0 0.0 0.0 0.0 0.0 0.0 0.0 0.0 0.0 0.0 0.0 0.0 0.0 0.0 0.0 0.0 0.0 0.0 0.0 0.0 0.0 0.0 0.0 0.0 0.0 0.0 0.0 0.0 0.0 0.0 0.0 0.0 0.0 0.0 0.0 0.0 0.0 0.0 0.0 0.0 0.0 0.0 0.0 0.0 0.0 0.0 0.0 0.0 0.0 0.0 0.0 0.0 0.0 0.0 0.0 0.0 0.0 0.0 0.0 0.0 0.0 0.0 0.0 0.0 0.0 0.0 0.0 0.0 0.0 0.0 0.0 0.0 0.0 0.0 0.0 0.0 0.0 0.0 0.0 0.0 0.0 0.0 0.0 0.0 0.0 0.0 0.0 0.0 0.0 0.0 0.0 0.0 0.0 0.0 0.0 0.0 0.0 0.0 0.0 0.0 0.0 0.0 0.0 0.0 0.0 0.0 0.0 0.0 0.0 0.0 0.0 0.0 0.0 0.0 0.0 0.0 0.0 0.0 0.0 0.0 0.0 0.0 0.0 0.0 0.0 0.0 0.0 0.0 0.0 0.0 0.0 0.0 0.0 0.0 0.0 0.0 0.0 0.0 0.0 0.0 0.0 0.0 0.0 0.0 0.0 0.0 0.0 0.0 0.0 0.0 0.0 0.0 0.0 0.0 0.0 0.0 0.0 0.0 0.0 0.0 0.0 0.0 0.0 0.0 0.0 0.0 0.0 0.0 0.0 0.0 0.0 0.0 0.0 0.0 0.0 0.0 0.0 0.0 0.0 0.0 0.0 0.0 0.0 0.0 0.0 0.0 0.0 0.0 0.0 0.0 0.0 0.0 0.0 0.0 0.0 0.0 0.0 0.0 0.0 0.0 0.0 0.0 0.0 0.0 0.0 0.0 0.0 0.0 0.0 0.0 0.0 0.0 0.0 0.0 0.0 0.0 0.0 0.0 0.0 0.0 0.0 0.0 0.0 0.0 0.0 0.0 0.0 0.0 0.0 0.0 0.0 0.0 0.0 0.0 0.0 0.0 0.0 0.0 0.0 0.0 0.0 0.0 0.0 0.0 0.0 0.0 0.0 0.0 0.0 0.0 0.0 0.0 0.0 0.0 0.0 0.0 0.0 0.0 0.0 0.0 0.0 0.0 0.0 0.0 0.0 0.0 0.0 0.0 0.0 0.0 0.0 0.0 0.0 0.0 0.0 0.0 0.0 0.0 0.0 0.0 0.0 0.0 0.0 0.0 0.0 0.0 0.0 0.0 0.0 0.0 0.0 0.0 0.0 0.0 0.0 0.0 0.0 0.0 0.0 0.0 0.0 0.0 0.0 0.0 0.0 0.0 0.0 0.0 0.0 0.0 0.0 0.0 0.0 0.0 0.0 0.0 0.0 0.0 0.0 0.0 0.0 0.0 0.0 0.0 0.0 0.0 0.0 0.0 0.0 0.0 0.0 0.0 0.0 0.0 0.0 0.0 0.0 0.0 0.0 0.0 0.0 0.0 0.0 0.0 0.0 0.0 0.0 0.0 0.0 0.0 0.0 0.0 0.0 0.0 0.0 0.0 0.0 0.0 0.0 0.0 0.0 0.0 0.0 0.0 0.0 0.0 0.0 0.0 0.0 0.0 0.0 0.0 0.0 0.0 0.0 0.0 0.0 0.0 0.0 0.0 0.0 0.0 0.0 0.0 0.0 0.0 0.0 0.0 0.0 0.0 0.0 0.0 0.0 0.0 0.0 0.0 0.0 0.0 0.0 0.0 0.0 0.0 0.0 0.0 0.0 0.0 0.0 0.0 0.0 0.0 0.0 0.0 0.0 0.0 0.0 0.0 0.0 0.0 0.0 0.0 0.0 0.0 0.0 0.0 0.0 0.0 0.0 0.0 0.0 0.0 0.0 0.0 0.0 0.0 0.0 0.0 0.0 0.0 0.0 0.0 0.0 0.0 0.0 0.0 0.0 0.0 0.0 0.0 0.0 0.0 0.0 0.0 0.0 0.0 0.0 0.0 0.0 0.0 0.0 0.0 0.0 0.0 0.0 0.0 0.0 0.0 0.0 0.0 0.0 0.0 0.0 0.0 0.0 0.0 0.0 0.0 0.0 0.0 0.0 0.0 0.0 0.0 0.0 0.0 0.0 0.0 0.0 0.0 0.0 0.0 0.0 0.0 0.0 0.0 0.0 0.0 0.0 0.0 0.0 0.0 0.0 0.0 0.0 0.0 0.0 0.0 0.0 0.0 0.0 0.0 0.0 0.0 0.0 0.0 0.0 0.0 0.0 0.0 0.0 0.0 0.0 0.0 0.0 0.0 0.0 0.0 0.0 0.0 0.0 0.0 0.0 0.0 0.0 0.0 0.0 0.0 0.0 0.0 0.0 0.0 0.0 0.0 0.0 0.0 0.0 0.0 0.0 0.0 0.0 0.0 0.0 0.0 0.0 0.0 0.0 0.0 0.0 0.0 0.0 0.0 0.0 0.0 0.0 0.0 0.0 0.0 0.0 0.0 0.0 0.0 0.0 0.0 0.0 0.0 0.0 0.0 0.0 0.0 0.0 0.0 0.0 0.0 0.0 0.0 0.0 0.0 0.0 0.0 0.0 0.0 0.0 0.0 0.0 0.0 0.0 0.0 0.0 0.0 0.0 0.0 0.0 0.0 0.0 0.0 0.0 0.0 0.0 0.0 0.0 0.0 0.0 0.0 0.0 0.0 0.0 0.0 0.0 0.0 0.0 0.0 0.0 0.0 0.0 0.0 0.0 0.0 0.0 0.0 0.0 0.0 0.0 0.0 0.0 0.0 0.0 0.0 0.0 0.0 0.0 0.0 0.0 0.0 0.0 0.0 0.0 0.0 0.0 0.0 0.0 0.0 0.0 0.0 0.0 0.0 0.0 0.0 0.0 0.0 0.0 0.0 0.0 0.0 0.0 0.0 0.0 0.0 0.0 0.0 0.0 0.0 0.0 0.0 0.0 0.0 0.0 0.0 0.0 0.0 0.0 0.0 0.0 0.0 0.0 0.0 0.0 0.0 0.0 0.0 0.0 0.0 0.0 0.0 0.0 0.0 0.0 0.0 0.0 0.0 0.0 0.0 0.0 0.0 0.0 0.0 0.0 0.0 0.0 0.0 0.0 0.0 0.0 0.0 0.0 0.0 0.0 0.0 0.0 0.0 0.0 0.0 0.0 0.0 0.0 0.0 0.0 0.0 0.0 0.0 0.0 0.0 0.0 0.0 0.0 0.0 0.0 0.0 0.0 0.0 0.0 0.0 0.0 0.0 0.0 0.0 0.0 0.0 0.0 0.0 0.0 0.0 0.0 0.0 0.0 0.0 0.0 0.0 0.0 0.0 0.0 0.0 0.0 0.0 0.0 0.0 0.0 0.0 0.0 0.0 0.0 0.0 0.0 0.0 0.0 0.0 0.0 0.0 0.0 0.0 0.0 0.0 0.0 0.0 0.0 0.0 0.0 0.0 0.0 0.0 0.0 0.0 -0.036642902000000005 0.0 -0.013948416000000002 -0.043656044000000005 0.0 -0.013280473999999999 -0.049521603 0.0 -0.012058658 -0.054186977000000004 0.0 -0.010654024 -0.057849890999999994 0.0 -0.0091500338 -0.038787786 0.0 -0.019436006000000002 -0.051931679 0.0 -0.018240331000000002 -0.062738061 0.0 -0.017659904 -0.07134328 0.0 -0.016306859 -0.077996016 0.0 -0.014580988000000001 -0.083109297 0.0 -0.01256578 -0.055481207000000005 0.0 -0.023745682 -0.073806003 0.0 -0.022925927999999998 -0.08877819 0.0 -0.021950154 -0.10072217 0.0 -0.020216662 -0.10985216 0.0 -0.018118721 -0.11676183 0.0 -0.015640638999999998 -0.077447928 0.0 -0.02899228 -0.10246007 0.0 -0.027906567 -0.12242734 0.0 -0.026681773 -0.13824549 0.0 -0.024441547999999997 -0.15020666 0.0 -0.021849031 -0.15912768 0.0 -0.018833911000000002 -0.10597707 0.0 -0.035742156000000004 -0.13938445 0.0 -0.033822469 -0.16544682 0.0 -0.032103643 -0.18577556 0.0 -0.029204812 -0.20090193 0.0 -0.026009589 -0.2119945 0.0 -0.022351898 -0.14335677 0.0 -0.04450202 -0.18721768 0.0 -0.041038916 -0.22056553 0.0 -0.038422231 -0.24604249 0.0 -0.034665421 -0.26461914 0.0 -0.030787274 -0.27798909 0.0 -0.026386106 -0.1929124 0.0 -0.05597043 -0.24953669 0.0 -0.050101385 -0.29138654 0.0 -0.046000019 -0.32256669 0.0 -0.041120984 -0.3447901 0.0 -0.036424454 -0.36042306 0.0 -0.031180084 -0.25924218 0.0 -0.071305633 -0.33084491 0.0 -0.061966165999999996 -0.38234773 0.0 -0.055529349000000006 -0.41958454 0.0 -0.049230407999999996 -0.4455567 0.0 -0.043430217 -0.46330106 0.0 -0.03720076 -0.3487131 0.0 -0.0910649 -0.43685284 0.0 -0.077501178 -0.49859625 0.0 -0.068065211 -0.54194027 0.0 -0.060245059000000004 -0.57166463 0.0 -0.052939139 -0.59134763 0.0 -0.045168709 -0.47053161 0.0 -0.11405987 -0.57489616 0.0 -0.096772403 -0.64628863 0.0 -0.08494068699999999 -0.69572419 0.0 -0.07520900700000001 -0.72903746 0.0 -0.06576772 -0.75011176 0.0 -0.056040100999999995 -0.63555127 0.0 -0.1407218 -0.75460827 0.0 -0.11990157 -0.83384544 0.0 -0.10638058 -0.88862842 0.0 -0.09464488900000001 -0.92434454 0.0 -0.08357884 -0.94613969 0.0 -0.070741922 -0.84198117 0.0 -0.22190487 -0.98355442 0.0 -0.17036378 -1.0705308 0.0 -0.14269626 -1.129315 0.0 -0.12342333 -1.166064 0.0 -0.10746951 -1.186903 0.0 -0.09055568300000001 -1.1361383999999999 0.0 -0.42011267 -1.2837291000000002 0.0 -0.28771967 -1.3709403 0.0 -0.21471156 -1.4297739 0.0 -0.17105094 -1.4639202 0.0 -0.14284633 -1.4813566 0.0 -0.11772816 -1.5484103999999999 0.0 -0.66240096 -1.6805357 0.0 -0.45775193 -1.7555424 0.0 -0.32314736 -1.8040895000000001 0.0 -0.24318281 -1.8294828 0.0 -0.19433349 -1.8400069 0.0 -0.15432264 -2.0835896000000003 0.0 -0.90521747 -2.1843088 0.0 -0.64550126 -2.2360802000000004 0.0 -0.45648995 -2.264806 0.0 -0.33787814 -2.2748313 0.0 -0.26036239 -2.2745178 0.0 -0.1999552 -2.7355814 0.0 -1.1472917999999999 -2.7997611 0.0 -0.84148145 -2.8189447 0.0 -0.60400683 -2.8218555 0.0 -0.44571516 -2.813153 0.0 -0.34030548 -2.7980511000000003 0.0 -0.25463861 -3.4996697999999995 0.0 -1.4056612 -3.5283985 0.0 -1.047228 -3.5145013 0.0 -0.76389641 -3.489372 0.0 -0.56454349 -3.4582469 0.0 -0.42705938 -3.4247849 0.0 -0.3172105 -4.3877254 0.0 -1.6948613000000001 -4.3855329 0.0 -1.2732886 -4.339171400000001 0.0 -0.93949139 -4.2841907 0.0 -0.69569314 -4.2282577 0.0 -0.52207458 -4.1701182999999995 0.0 -0.38360122 -5.4287419 0.0 -2.0285819 -5.3981071 0.0 -1.5300276000000002 -5.3172755 0.0 -1.1365633999999998 -5.2291265 0.0 -0.84388489 -5.1411896 0.0 -0.62602395 -5.0524383 0.0 -0.45334834 -6.6664977 0.0 -2.4179356 -6.6002383 0.0 -1.8279514 -6.4766072999999995 0.0 -1.3596562 -6.3466396 0.0 -1.0060716 -6.2189274 0.0 -0.7377134 -6.0911064 0.0 -0.52669328 -8.1399593 0.0 -2.8772523 -8.0256948 0.0 -2.1761212000000003 -7.846495599999999 0.0 -1.6130561 -7.663392999999999 0.0 -1.1835518999999999 -7.485603299999999 0.0 -0.85654151 -7.306110899999999 0.0 -0.60365474 -9.8911915 0.0 -3.4178667000000003 -9.7116966 0.0 -2.5814867 -9.4599533 0.0 -1.8992928 -9.2085533 0.0 -1.3768958 -8.9638405 0.0 -0.98396045 -8.7170038 0.0 -0.68597519 -11.969514 0.0 -4.057502700000001 -11.701528999999999 0.0 -3.0543191000000003 -11.355672 0.0 -2.2171896 -11.014279 0.0 -1.5833913 -10.680231 0.0 -1.1267081 -10.344902000000001 0.0 -0.78415734 -14.436046 0.0 -4.819757900000001 -14.047652 0.0 -3.6037583 -13.578748999999998 0.0 -2.5607202 -13.114737 0.0 -1.8028909 -12.661306 0.0 -1.2883556 -12.207985 0.0 -0.91532481 -17.375557 0.0 -5.7438164 -16.813173000000003 0.0 -4.235093099999999 -16.177069 0.0 -2.937511 -15.54275 0.0 -2.039659 -14.932207 0.0 -1.4863520000000001 -14.320847 0.0 -1.1129562 -20.878496 0.0 -6.832150500000001 -20.067663 0.0 -4.9510555 -19.186557999999998 0.0 -3.3283614999999998 -18.326168 0.0 -2.3546164000000003 -17.507317999999998 0.0 -1.7682053 -16.695766 0.0 -1.4254407 -25.062920000000002 0.0 -8.0980864 -23.881203 0.0 -5.7509656 -22.657806 0.0 -3.7815573 -21.494993 0.0 -2.7564964 -20.389877 0.0 -2.20276 -19.32865 0.0 -1.9447724999999998 -30.029217 0.0 -9.518626199999998 -28.289974 0.0 -6.6468678 -26.600255999999998 0.0 -4.352397900000001 -25.016859 0.0 -3.3564366999999997 -23.55014 0.0 -2.9030485 -22.194138 0.0 -2.7769456000000003 -35.751633 0.0 -11.0733 -33.25285 0.0 -7.628067999999999 -30.941843 0.0 -5.1209836 -28.825777000000002 0.0 -4.2428851 -26.902237 0.0 -4.0503893 -25.184448 0.0 -4.155303 -41.994209000000005 0.0 -12.650272 -38.56496 0.0 -8.7573948 -35.458378 0.0 -6.2226782 -32.602364 0.0 -5.8732514 -29.994228000000003 0.0 -6.300930999999999 -28.044836 0.0 -6.324812400000001 -48.271961 0.0 -14.171726999999999 -43.768005 0.0 -10.033596000000001 -39.622528 0.0 -8.2465019 -35.59333 0.0 -8.690238 -32.970177 0.0 -8.882897400000001 -30.980904 0.0 -8.7343254 -53.919312 0.0 -15.233932000000001 -48.166065 0.0 -11.70857 -42.383984000000005 0.0 -11.213151 -38.586815 0.0 -11.534474000000001 -35.826111 0.0 -11.775518 -33.76458 0.0 -11.513645 -58.764998999999996 0.0 -14.950346 -51.97477 0.0 -11.822416 -45.708698 0.0 -13.305854 -41.339096000000005 0.0 -14.627870999999999 -38.401775 0.0 -15.116842000000002 -36.198944 0.0 -14.824085 -62.070335 0.0 -13.350125 -55.077366000000005 0.0 -10.138444999999999 -47.325668 0.0 -16.958183 -42.451782 0.0 -19.842163 -39.562236999999996 0.0 -19.994059 -37.544559 0.0 -19.187788 -62.748192 0.0 -12.689333 -55.739025 0.0 -9.131894099999998 -46.668888 0.0 -19.886459 -42.438702 0.0 -27.921364 -40.377926 0.0 -27.518545 -38.594658 0.0 -25.526382 -54.102253000000005 0.0 -13.688773000000001 -51.101112 0.0 -9.779813800000001 -43.712658000000005 0.0 -23.581184 -41.276646 0.0 -36.217392 -40.211082 0.0 -35.260391 -38.660168 0.0 -32.265240000000006 -38.143166 0.0 -15.206752999999999 -37.110283 0.0 -10.496666000000001 -35.633469 0.0 -26.536512 -35.039734 0.0 -41.939785 -33.702422999999996 0.0 -40.505210999999996 -32.089447 0.0 -36.976894 -23.580458 0.0 -16.511017000000002 -23.093339999999998 0.0 -10.8873 -22.56954 0.0 -26.577897999999998 -22.45961 0.0 -42.989403 -21.688013 0.0 -42.224358 -20.672058 0.0 -39.025490000000005 -12.250525 0.0 -17.842194 -12.163424000000001 0.0 -11.302547 -12.090086 0.0 -26.346508 -12.193583 0.0 -43.205303 -11.908575 0.0 -42.93475 -11.439183 0.0 -40.100322999999996 -3.9790742 0.0 -18.922997 -4.0860434 0.0 -11.731505 -4.2037754000000005 0.0 -26.247197999999997 -4.4257531 0.0 -43.033122999999996 -4.4576082 0.0 -43.077759 -4.3827715 0.0 -40.495388 2.5076424999999998 0.0 -19.575577 2.3069942 0.0 -12.146557000000001 2.0982597000000003 0.0 -26.413282000000002 1.8282962 0.0 -42.803761 1.5847319 0.0 -42.887356 1.3707502 0.0 -40.409531 8.5879993 0.0 -19.633154 8.2406063 0.0 -12.429614 7.875043400000001 0.0 -26.618171999999998 7.6122521999999995 0.0 -42.543587 7.184118700000001 0.0 -42.45002 6.7212553 0.0 -39.947174 14.963135000000001 0.0 -19.437269 14.366517000000002 0.0 -12.589841 13.637922 0.0 -26.60548 13.482075 0.0 -41.879166 12.845245 0.0 -41.621902 12.127172999999999 0.0 -39.097862 21.540466000000002 0.0 -18.988526999999998 20.686211 0.0 -12.63642 19.261997 0.0 -26.019117 19.414883 0.0 -40.711483 18.536655 0.0 -40.351749 17.545752 0.0 -37.849327 27.921818 0.0 -18.366961 26.714437 0.0 -12.519464 24.593218 0.0 -25.069257999999998 25.052576000000002 0.0 -39.029804 23.920351 0.0 -38.626129 22.654037 0.0 -36.200195 33.725101 0.0 -17.984716 32.012043 0.0 -12.304196000000001 28.9555 0.0 -23.690179999999998 29.965805 0.0 -36.877731 28.596102000000002 0.0 -36.473473 27.077457 0.0 -34.176899 38.36459 0.0 -17.404497 36.245922 0.0 -12.16013 32.284962 0.0 -22.028526 33.63409 0.0 -34.136692 32.200371000000004 0.0 -33.963409000000006 30.249199 0.0 -31.8445 41.541576 0.0 -16.588022 38.998753 0.0 -11.798177 34.855995 0.0 -20.577635 36.050076000000004 0.0 -31.228417999999998 33.740463 0.0 -31.220232 31.10025 0.0 -29.318354 43.788486 0.0 -15.67075 41.051414 0.0 -11.415181 36.909348 0.0 -19.387835 36.958908 0.0 -28.531336 33.746185 0.0 -28.364883000000003 30.951041999999998 0.0 -26.681734000000002 45.665699 0.0 -14.634056 42.591103000000004 0.0 -10.885745 38.622219 0.0 -18.432935999999998 36.84483 0.0 -25.555397 33.43116 0.0 -25.515964999999998 30.518534000000002 0.0 -24.071941 47.545868 0.0 -13.336301999999998 44.162952000000004 0.0 -10.287933 40.045605 0.0 -17.540039 36.509209000000006 0.0 -22.689579000000002 32.852406 0.0 -22.76211 29.92675 0.0 -21.608578 49.996601 0.0 -11.784881 45.706542999999996 0.0 -9.2998867 40.977512 0.0 -16.22945 36.195847 0.0 -20.079060000000002 32.272751 0.0 -20.34339 29.321534999999997 0.0 -19.379467 53.783398 0.0 -11.27443 47.480331 0.0 -9.311188699999999 41.39455 0.0 -14.605454 35.985554 0.0 -17.955735999999998 31.799153999999998 0.0 -18.174528 28.652271000000002 0.0 -17.207796 57.227013 0.0 -13.700673000000002 48.814213 0.0 -10.797064 42.133186 0.0 -13.468848999999999 36.042419 0.0 -16.110338 31.593735 0.0 -16.193904999999997 27.986067 0.0 -15.275712 60.817013 0.0 -15.213335 51.101646 0.0 -11.778003 43.617816999999995 0.0 -12.081005000000001 36.74485 0.0 -14.310164000000002 31.425156 0.0 -14.606592000000001 27.469778 0.0 -13.654038 53.379425 0.0 -12.251703 45.403149 0.0 -10.854636 38.422421 0.0 -11.86012 31.936895 0.0 -12.929914 27.249354999999998 0.0 -12.195596 55.158604000000004 0.0 -13.220141 47.018833 0.0 -10.727847 39.970646 0.0 -10.266657 33.12989 0.0 -10.885671 27.504255 0.0 -10.731771 48.603153000000006 0.0 -11.384045 41.440571000000006 0.0 -9.8336554 34.642315 0.0 -9.5719461 28.319126 0.0 -9.3093987 50.001041 0.0 -12.421986 43.120678000000005 0.0 -10.344444000000001 36.380547 0.0 -9.130085000000001 29.859865000000003 0.0 -8.457191499999999 44.579147 0.0 -11.236647 38.379608000000005 0.0 -9.5594931 31.990175 0.0 -8.3671103 40.065895000000005 0.0 -10.349732000000001 34.177822 0.0 -9.0009327 40.632576 0.0 -10.898814 36.096699 0.0 -10.008816 -0.060627349000000004 0.0 -0.007689814499999999 -0.06267645200000001 0.0 -0.006312513299999999 -0.064122282 0.0 -0.0051075434 -0.06512901900000001 0.0 -0.0040268041 -0.06581822799999999 0.0 -0.0030796244 -0.066280514 0.0 -0.0022761917 -0.066581078 0.0 -0.0015918626 -0.066765063 0.0 -0.0010045924 -0.066863246 0.0 -0.00048636615999999997 -0.08689456400000001 0.0 -0.010574408 -0.08960828900000001 0.0 -0.0087119127 -0.091476806 0.0 -0.007081997099999999 -0.092754431 0.0 -0.005599988199999999 -0.09360030300000001 0.0 -0.0043268576 -0.094150119 0.0 -0.0032317535999999997 -0.09449787400000001 0.0 -0.0022779573000000003 -0.094703615 0.0 -0.0014491563 -0.094811171 0.0 -0.0007039752099999999 -0.12176893 0.0 -0.013206098999999999 -0.12527722 0.0 -0.01090625 -0.12763008 0.0 -0.0088867294 -0.12918101 0.0 -0.0070674907999999995 -0.13016595 0.0 -0.005495110500000001 -0.13077116 0.0 -0.004124566 -0.13112891 0.0 -0.0029222061999999997 -0.13132654 0.0 -0.0018673807 -0.13142405 0.0 -0.00090905617 -0.16548204 0.0 -0.015882116 -0.16982892 0.0 -0.013120016000000002 -0.17265292 0.0 -0.010683726999999999 -0.17442136 0.0 -0.0085188281 -0.17546865 0.0 -0.006642106899999999 -0.17605533 0.0 -0.0049917302 -0.17635928 0.0 -0.0035448216 -0.17650032 0.0 -0.0022709076 -0.17655778 0.0 -0.0011058436 -0.21972704 0.0 -0.018810121000000003 -0.22485884 0.0 -0.015523298 -0.22806278 0.0 -0.012594916999999999 -0.22993667 0.0 -0.010033806 -0.23093337 0.0 -0.0078173233 -0.23140015 0.0 -0.0058662905 -0.23156826 0.0 -0.0041664615 -0.23159125 0.0 -0.0026717864000000003 -0.23157144 0.0 -0.001298886 -0.28705311 0.0 -0.022162812 -0.29283586 0.0 -0.018271561999999998 -0.29627031 0.0 -0.014748434 -0.29809326 0.0 -0.011710887 -0.29889283 0.0 -0.0090893274 -0.29911289 0.0 -0.0067915347999999995 -0.29904166 0.0 -0.0048145461 -0.29887289 0.0 -0.0030807073 -0.29872945 0.0 -0.0014972034 -0.37069258 0.0 -0.026158895 -0.37692761 0.0 -0.021561675 -0.38036874 0.0 -0.017311737 -0.38191792 0.0 -0.013669968999999999 -0.38231969 0.0 -0.010545205 -0.3821269 0.0 -0.0078244386 -0.38168296 0.0 -0.0055237598999999995 -0.38122723 0.0 -0.0035155918 -0.38090125 0.0 -0.0017064664000000002 -0.4745478 0.0 -0.031143121 -0.48091993 0.0 -0.025645817 -0.48402736 0.0 -0.020482445 -0.48498583 0.0 -0.016055966 -0.48472109 0.0 -0.012265783999999998 -0.48387882 0.0 -0.009032216899999999 -0.48287728 0.0 -0.0063311611 -0.48199913 0.0 -0.0040010898 -0.48141015 0.0 -0.0019350747 -0.60318327 0.0 -0.037668381 -0.60923499 0.0 -0.030915299 -0.61154127 0.0 -0.024516031 -0.61145574 0.0 -0.019046116999999998 -0.61011422 0.0 -0.014384058 -0.60827994 0.0 -0.01047071 -0.60644656 0.0 -0.0072592688 -0.60494912 0.0 -0.0045426833 -0.60397869 0.0 -0.0021837212 -0.76192605 0.0 -0.046532462999999996 -0.76703489 0.0 -0.037868626 -0.76789188 0.0 -0.029721614 -0.76612943 0.0 -0.022809567000000003 -0.7631318 0.0 -0.016971451999999998 -0.75981605 0.0 -0.012156795 -0.75676847 0.0 -0.0083003528 -0.75437659 0.0 -0.0051236562 -0.75285923 0.0 -0.0024422684 -0.95699549 0.0 -0.058507405 -0.96034342 0.0 -0.04697434599999999 -0.9588657 0.0 -0.036409765 -0.95458537 0.0 -0.027480315 -0.94916934 0.0 -0.020038208000000002 -0.94372016 0.0 -0.014048181000000002 -0.93894082 0.0 -0.009399835 -0.93528348 0.0 -0.005703079000000001 -0.93299538 0.0 -0.0026861618 -1.1956174 0.0 -0.074197948 -1.1960815 0.0 -0.058660712000000004 -1.1911263 0.0 -0.044794049 -1.1832665 0.0 -0.033060629 -1.1744430000000001 0.0 -0.023545227999999998 -1.1660178999999997 0.0 -0.016071076 -1.1588275 0.0 -0.010465393 -1.153417 0.0 -0.0061997012 -1.1500666000000002 0.0 -0.0028755510999999997 -1.4861865 0.0 -0.094440199 -1.4821596000000001 0.0 -0.073243469 -1.4721892 0.0 -0.054904517 -1.4593424 0.0 -0.039475728 -1.4458331 0.0 -0.027357008 -1.4333473 0.0 -0.018048262 -1.4228863 0.0 -0.01134695 -1.4150938 0.0 -0.0064976574 -1.4103048999999999 0.0 -0.0029532237 -1.8383503 0.0 -0.12025202 -1.8275544999999997 0.0 -0.09093876199999999 -1.8104663 0.0 -0.066621654 -1.7907151000000001 0.0 -0.046419419 -1.7708370999999998 0.0 -0.031115929 -1.7528988999999997 0.0 -0.019744335 -1.7380362 0.0 -0.011849725 -1.7270553 0.0 -0.0064603202 -1.7203417 0.0 -0.0028411569 -2.2631607000000002 0.0 -0.15195632 -2.2424293 0.0 -0.11169241 -2.2153671000000004 0.0 -0.07967601 -2.1861522 0.0 -0.053683762 -2.1576746 0.0 -0.034539361 -2.1324165 0.0 -0.020704461 -2.1117513 0.0 -0.01172997 -2.0965637999999998 0.0 -0.0059232716 -2.0873208 0.0 -0.0024435897 -2.7724986 0.0 -0.18820056 -2.7379937 0.0 -0.13485622 -2.697252 0.0 -0.0935499 -2.6552474 0.0 -0.060840767000000004 -2.6152651000000002 0.0 -0.03725189 -2.5803401000000004 0.0 -0.020806668 -2.5520758999999997 0.0 -0.010778018 -2.5314186000000003 0.0 -0.0047803055 -2.5188978 0.0 -0.0017143183 -3.3803498999999997 0.0 -0.22924751 -3.3269638999999995 0.0 -0.1598749 -3.267627 0.0 -0.10701697 -3.2084782000000005 0.0 -0.066918708 -3.1534564 0.0 -0.039002273 -3.1058888 0.0 -0.019952772 -3.0677664 0.0 -0.0088749109 -3.0401130000000003 0.0 -0.0030737372999999997 -3.0233984 0.0 -0.00069645495 -4.1016846 0.0 -0.27277038 -4.0232668 0.0 -0.18582383 -3.9394089999999995 0.0 -0.1202093 -3.8576589 0.0 -0.071917735 -3.7831222999999996 0.0 -0.039901778 -3.7192845 0.0 -0.018435473 -3.6685847999999996 0.0 -0.0065513602 -3.6320682 0.0 -0.0011481534 -3.6100667 0.0 0.00041277058 -4.952898 0.0 -0.31803897 -4.8416824 0.0 -0.21181765 -4.7262235 0.0 -0.13325837 -4.615335900000001 0.0 -0.077139109 -4.5157404 0.0 -0.040784169 -4.4314008000000005 0.0 -0.017497528000000002 -4.364954 0.0 -0.00496434 -4.3173965999999995 0.0 0.00013166260000000002 -4.2888737 0.0 0.0011413445 -5.9498329000000005 0.0 -0.36094829 -5.7972279 0.0 -0.24018131 -5.6415687000000005 0.0 -0.14759541 -5.4936919 0.0 -0.08501475300000001 -5.3627129 0.0 -0.044385184 -5.2529898 0.0 -0.019878006 -5.1672462999999995 0.0 -0.0065103839000000005 -5.1062737 0.0 -0.00097749394 -5.0698742999999995 0.0 0.00052355678 -7.1111835999999995 0.0 -0.40811446 -6.9050025999999995 0.0 -0.27142727 -6.6978539999999995 0.0 -0.16770312 -6.5039759 0.0 -0.10002028 -6.3343973 0.0 -0.056815673 -6.193851 0.0 -0.030479383 -6.0850015 0.0 -0.015527148999999999 -6.0081372 0.0 -0.0075925058 -5.9624825 0.0 -0.0030080996999999996 -8.453059199999998 0.0 -0.46561298 -8.177523599999999 0.0 -0.31417498 -7.9062247 0.0 -0.20307109 -7.6558909 0.0 -0.13195799 -7.439702499999999 0.0 -0.087745734 -7.2625318 0.0 -0.057906646 -7.1267648 0.0 -0.038772877000000004 -7.0315943 0.0 -0.024423607000000003 -6.9753489 0.0 -0.011862099 -9.990560499999999 0.0 -0.5449326 -9.6280546 0.0 -0.38535312 -9.276395800000001 0.0 -0.27055049 -8.9578867 0.0 -0.19734965 -8.6866045 0.0 -0.15092407 -8.467326199999999 0.0 -0.11484721 -8.3010902 0.0 -0.08608181 -8.1854315 0.0 -0.058334730999999994 -8.1174936 0.0 -0.02957179 -11.736353 0.0 -0.67135513 -11.266788 0.0 -0.50878602 -10.817588 0.0 -0.39710265 -10.419058999999999 0.0 -0.320824 -10.084501 0.0 -0.26784006 -9.8179636 0.0 -0.21979524 -9.618350999999999 0.0 -0.1715139 -9.480730099999999 0.0 -0.11916695 -9.4003382 0.0 -0.06105404 -13.705698000000002 0.0 -0.87685305 -13.103261 0.0 -0.72400355 -12.540436 0.0 -0.61733425 -12.050137 0.0 -0.53797382 -11.645241 0.0 -0.46755379 -11.327643 0.0 -0.39264664 -11.092601 0.0 -0.308893 -10.932055 0.0 -0.21421939 -10.838838 0.0 -0.10998509 -15.905669 0.0 -1.2321222 -15.144767000000002 0.0 -1.0907379 -14.454267999999999 0.0 -0.98916221 -13.863898 0.0 -0.89364123 -13.383841 0.0 -0.78342247 -13.013656 0.0 -0.65924823 -12.742702 0.0 -0.5165866 -12.559031 0.0 -0.35585979 -12.452835 0.0 -0.18134983 -18.327198000000003 0.0 -1.7999648000000001 -17.395508 0.0 -1.6868287 -16.570308999999998 0.0 -1.5756066999999998 -15.874735000000001 0.0 -1.431873 -15.317689000000001 0.0 -1.2515073 -14.893421 0.0 -1.0389226999999999 -14.583870999999998 0.0 -0.80758226 -14.376038000000001 0.0 -0.55269492 -14.256556 0.0 -0.28130984 -20.952735999999998 0.0 -2.7180958 -19.847051999999998 0.0 -2.6115394 -18.885223 0.0 -2.4352562 -18.090033 0.0 -2.1705468 -17.456734 0.0 -1.8654647 -16.975672 0.0 -1.5272419 -16.628391 0.0 -1.1648663000000001 -16.394962 0.0 -0.78449321 -16.260158999999998 0.0 -0.3931815 -23.713587 0.0 -4.1318269 -22.460426000000002 0.0 -3.9240953999999997 -21.385632 0.0 -3.5869689 -20.488897 0.0 -3.1625066000000004 -19.777084 0.0 -2.6877561 -19.238951 0.0 -2.1751852 -18.852013 0.0 -1.6402693 -18.59395 0.0 -1.0907246000000002 -18.445028 0.0 -0.54293334 -26.558072999999997 0.0 -5.9973377999999995 -25.195364 0.0 -5.569757900000001 -24.002832 0.0 -5.0195265 -23.001236 0.0 -4.3735352 -22.211073000000003 0.0 -3.6639285000000004 -21.615092999999998 0.0 -2.9344845 -21.179884 0.0 -2.2037179 -20.891197000000002 0.0 -1.4596412 -20.720659 0.0 -0.73896253 -29.371166 0.0 -8.253788900000002 -27.900247999999998 0.0 -7.630764500000001 -26.597145 0.0 -6.8001556 -25.496336 0.0 -5.8290811 -24.635164000000003 0.0 -4.7635288000000005 -23.978621 0.0 -3.7331483 -23.490463000000002 0.0 -2.7684791 -23.143010999999998 0.0 -1.8470273999999998 -22.95112 0.0 -0.92252648 -32.021809000000005 0.0 -10.928688000000001 -30.445434999999996 0.0 -10.058597 -29.027374 0.0 -8.9434662 -27.869260999999998 0.0 -7.572576 -26.904663 0.0 -6.1435976 -26.164742 0.0 -4.735848900000001 -25.648849 0.0 -3.4451509 -25.264948 0.0 -2.2606261 -25.040620999999998 0.0 -1.1153423 -34.336552000000005 0.0 -14.07065 -32.597336 0.0 -12.852243 -31.155185999999997 0.0 -11.256464999999999 -29.922898999999997 0.0 -9.394004800000001 -28.879532 0.0 -7.5458946 -28.029007 0.0 -5.844401400000001 -27.431953000000004 0.0 -4.2240047 -27.013835999999998 0.0 -2.7509513 -26.747417 0.0 -1.3616507 -35.784641 0.0 -17.921215 -34.18272 0.0 -16.257921 -32.787964 0.0 -14.112801999999999 -31.543514000000002 0.0 -11.70153 -30.477064000000002 0.0 -9.2841158 -29.580429 0.0 -7.073842999999999 -28.897018 0.0 -5.0963802000000005 -28.415545 0.0 -3.3226062999999995 -28.143590999999997 0.0 -1.6461693 -36.914009 0.0 -23.232723 -35.258334999999995 0.0 -20.760153 -33.779812 0.0 -17.803511 -32.494987 0.0 -14.598624 -31.373243 0.0 -11.4393 -30.440179999999998 0.0 -8.609403599999998 -29.751409999999996 0.0 -6.1528735 -29.230971999999998 0.0 -3.970252 -28.927072999999996 0.0 -1.9504538 -36.862808 0.0 -29.040981 -35.16441 0.0 -25.624153 -33.678284000000005 0.0 -21.699593 -32.387553999999994 0.0 -17.516417999999998 -31.258944 0.0 -13.549294 -30.336407 0.0 -10.069869 -29.616907 0.0 -7.1159034 -29.121613 0.0 -4.5553246 -28.831894000000002 0.0 -2.2286335999999998 -30.339878000000002 0.0 -33.254646 -28.649477 0.0 -29.270198999999998 -27.125139 0.0 -24.67684 -25.831114000000003 0.0 -19.824253 -24.793272 0.0 -15.279594 -23.995142 0.0 -11.311579 -23.408386 0.0 -7.9568076 -23.006242999999998 0.0 -5.0797324 -22.770429999999998 0.0 -2.4822493 -19.527082 0.0 -35.355289 -18.373697 0.0 -31.24638 -17.305471 0.0 -26.417271000000003 -16.382864 0.0 -21.274204 -15.629848999999998 0.0 -16.430925 -15.043052 0.0 -12.186186 -14.606179000000001 0.0 -8.5859127 -14.302939000000002 0.0 -5.488433799999999 -14.123376 0.0 -2.6842771 -10.845539 0.0 -36.581984999999996 -10.20001 0.0 -32.478489 -9.5704956 0.0 -27.54808 -9.0091543 0.0 -22.239954 -8.540984199999999 0.0 -17.211605 -8.169190400000002 0.0 -12.788749000000001 -7.8871207 0.0 -9.026102999999999 -7.6876469 0.0 -5.7783303 -7.5677533 0.0 -2.8287432 -4.2152233 0.0 -37.125355 -3.9860763999999995 0.0 -33.080624 -3.7356385999999997 0.0 -28.132744 -3.4981767999999995 0.0 -22.756622 -3.2917678 0.0 -17.640263 -3.1212807000000002 0.0 -13.128112 -2.9864361 0.0 -9.2804165 -2.8871984 0.0 -5.9494319 -2.8258193 0.0 -2.9153247 1.2047881 0.0 -37.139378 1.0901067 0.0 -33.164947999999995 1.0161703000000002 0.0 -28.250034000000003 0.97010213 0.0 -22.878918 0.94405276 0.0 -17.754251 0.93347687 0.0 -13.228608 0.93412822 0.0 -9.363519699999998 0.94068795 0.0 -6.009882 0.94748396 0.0 -2.9474182 6.2644486 0.0 -36.723721000000005 5.8468227 0.0 -32.817394 5.486433 0.0 -27.970652 5.1902652 0.0 -22.662706 4.958888099999999 0.0 -17.595495 4.7875199 0.0 -13.119844 4.6680317 0.0 -9.294936199999999 4.5909028 0.0 -5.971175700000001 4.5479755 0.0 -2.9302666 11.386477000000001 0.0 -35.920452000000004 10.682753 0.0 -32.093697 10.059645 0.0 -27.349617 9.5385065 0.0 -22.156368 9.1239376 0.0 -17.202723000000002 8.8095427 0.0 -12.830503 8.582866699999999 0.0 -9.0944023 8.4307442 0.0 -5.8454919 8.343191099999999 0.0 -2.8698301 16.518518 0.0 -34.744040999999996 15.539026999999999 0.0 -31.023857 14.671389000000001 0.0 -26.422911 13.945885999999998 0.0 -21.394354 13.367304 0.0 -16.604843 12.925428 0.0 -12.382809 12.603477999999999 0.0 -8.777752900000001 12.384808999999999 0.0 -5.6431298 12.257561 0.0 -2.7709603 21.348988000000002 0.0 -33.207863 20.111378 0.0 -29.632604999999998 19.021196 0.0 -25.219879000000002 18.113357999999998 0.0 -20.404802 17.390059 0.0 -15.825739000000002 16.836588 0.0 -11.795534 16.431509 0.0 -8.3588524 16.154825 0.0 -5.3731833 15.993127 0.0 -2.6383815 25.522741 0.0 -31.342243 24.05521 0.0 -27.953867 22.76775 0.0 -23.774063 21.697535000000002 0.0 -19.217493 20.842964000000002 0.0 -14.890354 20.185146 0.0 -11.088416 19.702957 0.0 -7.852431299999999 19.372147000000002 0.0 -5.045782099999999 19.178572 0.0 -2.4773810000000003 28.273986999999998 0.0 -29.208658000000003 26.433165000000002 0.0 -26.035666 24.878483 0.0 -22.126995 23.587616 0.0 -17.875010999999997 22.533773 0.0 -13.842959 21.705946 0.0 -10.311923 21.067370999999998 0.0 -7.3150592 20.629054999999997 0.0 -4.7082028 20.373714 0.0 -2.3139925 28.795021000000002 0.0 -26.896568 26.823133000000002 0.0 -23.951551000000002 25.174618 0.0 -20.342894 23.812572 0.0 -16.427891 22.702951000000002 0.0 -12.730144000000001 21.84198 0.0 -9.4854927 21.204824 0.0 -6.739589200000001 20.72821 0.0 -4.340482700000001 20.465601 0.0 -2.1361093999999996 28.630445 0.0 -24.495138 26.634359000000003 0.0 -21.809054999999997 24.970179 0.0 -18.51227 23.599943 0.0 -14.949876000000001 22.50091 0.0 -11.576338 21.597046 0.0 -8.646273599999999 20.928888 0.0 -6.145371 20.47806 0.0 -3.9564315999999997 20.211315 0.0 -1.9423753000000001 28.158325 0.0 -22.134666 26.147434 0.0 -19.679329 24.479162 0.0 -16.695180999999998 23.123089 0.0 -13.481563000000001 21.994934 0.0 -10.462153 21.104212 0.0 -7.812338400000001 20.463131 0.0 -5.5368185 20.046412 0.0 -3.5404186 19.791237 0.0 -1.7269731 27.527642999999998 0.0 -19.873392000000003 25.490586999999998 0.0 -17.684261 23.794666 0.0 -15.012192 22.43051 0.0 -12.157022 21.353897 0.0 -9.4231853 20.54924 0.0 -6.996635 19.953096 0.0 -4.9349055 19.53314 0.0 -3.1786343999999995 19.292358 0.0 -1.5736392 26.829895 0.0 -17.770041 24.763329000000002 0.0 -15.805914999999999 23.047009 0.0 -13.432174 21.70046 0.0 -10.878291 20.660494 0.0 -8.421855 19.87071 0.0 -6.2789378 19.291338 0.0 -4.469228299999999 18.913113 0.0 -2.9014933 18.685907 0.0 -1.4418339 26.067598 0.0 -15.827971 23.943064 0.0 -14.036229 22.22542 0.0 -11.967216 20.872774 0.0 -9.693087599999998 19.86202 0.0 -7.552715299999999 19.097925 0.0 -5.6686449 18.548952 0.0 -4.0534058 18.177794 0.0 -2.6429482 17.940678 0.0 -1.2996535 25.290461999999998 0.0 -14.003732999999999 23.10161 0.0 -12.385591999999999 21.342834 0.0 -10.582299 20.008152 0.0 -8.662776 18.9965 0.0 -6.799184299999999 18.257635 0.0 -5.126812 17.726430999999998 0.0 -3.7029742999999993 17.391068 0.0 -2.4060962000000004 17.178541 0.0 -1.1790512 24.532427 0.0 -12.33943 22.27228 0.0 -10.942647000000001 20.484768 0.0 -9.3451691 19.130219 0.0 -7.7420807 18.124132 0.0 -6.1293669 17.376932 0.0 -4.6615982 16.911505 0.0 -3.3939362 16.589798000000002 0.0 -2.1940441 16.399658 0.0 -1.0677485 23.931425 0.0 -10.884641 21.485682999999998 0.0 -9.563536599999999 19.67384 0.0 -8.266413700000001 18.284720999999998 0.0 -6.8670969 17.27853 0.0 -5.5130153 16.561325 0.0 -4.244567900000001 16.109694 0.0 -3.0975547000000003 15.799876999999999 0.0 -1.9948223999999999 15.621201000000001 0.0 -0.97604197 23.619705 0.0 -9.596364 20.884041 0.0 -8.3225965 18.938579999999998 0.0 -7.153826700000001 17.542353 0.0 -6.0372825 16.494770000000003 0.0 -4.8790325999999995 15.814521 0.0 -3.8344855000000004 15.354346 0.0 -2.8038979 15.049672 0.0 -1.8237318999999999 14.878081 0.0 -0.88997149 23.656021 0.0 -8.5011864 20.546553 0.0 -7.2768879 18.402496 0.0 -6.184867400000001 16.892109 0.0 -5.1901421999999995 15.849172 0.0 -4.2774129 15.138988000000001 0.0 -3.3818996 14.671818 0.0 -2.5125102999999998 14.371552 0.0 -1.6441641 14.204332999999998 0.0 -0.81528729 24.313602 0.0 -7.643046400000001 20.569502 0.0 -6.522540599999999 18.101765 0.0 -5.394899400000001 16.447206 0.0 -4.4908032 15.316776999999998 0.0 -3.6645105000000004 14.567767000000002 0.0 -2.9397569 14.084608 0.0 -2.2013197 13.776110000000001 0.0 -1.4555738 13.613994 0.0 -0.72722191 26.117832 0.0 -7.262562299999999 21.332642 0.0 -6.136078400000001 18.222845 0.0 -4.957453299999999 16.258923 0.0 -3.972234 14.984894 0.0 -3.195586 14.138202 0.0 -2.4968557000000002 13.598760999999998 0.0 -1.8805258000000002 13.284335999999998 0.0 -1.2576598 13.108173999999998 0.0 -0.62584937 28.578808000000002 0.0 -7.6443095 23.289848000000003 0.0 -6.4228106 19.178894 0.0 -5.0958467 16.532211 0.0 -3.8467962999999994 14.932079000000002 0.0 -2.9238956000000003 13.939179000000001 0.0 -2.2325377 13.290984 0.0 -1.6179155 12.913569 0.0 -1.0613165 12.724469000000001 0.0 -0.52345407 30.736069 0.0 -8.773160899999999 25.913101 0.0 -7.4070988 21.366032 0.0 -6.0918255 17.891432000000002 0.0 -4.5884457 15.511545000000002 0.0 -3.2560189 14.088123000000001 0.0 -2.2808487 13.255629999999998 0.0 -1.5750617 12.778323 0.0 -1.0021328 12.526871 0.0 -0.48744094 32.463409000000006 0.0 -9.5600128 28.114384 0.0 -8.568942999999999 24.171768 0.0 -7.347307700000001 20.731516 0.0 -5.9314141 17.660173 0.0 -4.556721700000001 15.325061999999999 0.0 -3.2552352000000004 13.857529999999999 0.0 -2.1222708 13.089096000000001 0.0 -1.243107 12.735465 0.0 -0.57372159 29.488764 0.0 -9.067167300000001 26.116119 0.0 -8.3792448 23.465414000000003 0.0 -7.1052561 21.190920000000002 0.0 -5.5519780999999995 19.118189 0.0 -4.0938983 17.469225 0.0 -2.7671471000000003 16.357542000000002 0.0 -1.6564196 15.739229000000002 0.0 -0.76406771 24.713089 0.0 -8.0296383 22.866305999999998 0.0 -6.8822149999999995 21.519707 0.0 -5.0967255 20.673342 0.0 -3.4140654 19.965673000000002 0.0 -2.0111654 19.557444 0.0 -0.91497672 22.358587 0.0 -6.2696199 21.659903 0.0 -4.2405276 21.308807 0.0 -2.4634581 21.093042 0.0 -1.1049063000000001 -0.066894285 0.0 -1.2549108e-09 -0.066863209 0.0 0.00048635772000000003 -0.066765092 0.0 0.0010045941 -0.06658107 0.0 0.0015918538000000001 -0.066280454 0.0 0.0022761838 -0.065818235 0.0 0.0030796225 -0.06512899 0.0 0.004026791500000001 -0.06412237900000001 0.0 0.0051075323 -0.09484496699999999 0.0 -2.0396328e-08 -0.09481117900000001 0.0 0.0007039736999999999 -0.094703645 0.0 0.0014491623999999999 -0.094497822 0.0 0.0022779466 -0.09415014099999999 0.0 0.0032317475 -0.093600325 0.0 0.0043268637 -0.092754453 0.0 0.0055999737 -0.091476806 0.0 0.0070819939 -0.13145357 0.0 3.1073984e-08 -0.13142416 0.0 0.00090905163 -0.13132647 0.0 0.0018673803 -0.13112897 0.0 0.0029222147999999996 -0.13077116 0.0 0.0041245613 -0.13016582 0.0 0.005495112900000001 -0.12918109 0.0 0.007067493199999999 -0.12763013 0.0 0.0088867191 -0.17657292 0.0 -4.6195659000000006e-08 -0.17655781 0.0 0.0011058379 -0.17650019 0.0 0.0022709155 -0.1763593 0.0 0.0035448133 -0.1760553 0.0 0.004991719 -0.17546883 0.0 0.0066420953 -0.17442141 0.0 0.0085188104 -0.17265305 0.0 0.010683721 -0.23155923 0.0 2.0609058e-08 -0.23157144 0.0 0.0012989645 -0.23159131 0.0 0.00267175 -0.23156805 0.0 0.0041664676 -0.23140024 0.0 0.005866264 -0.23093343 0.0 0.0078173121 -0.2299365 0.0 0.010033801 -0.22806273 0.0 0.012594949 -0.29867426 0.0 -6.712056e-08 -0.29872951 0.0 0.00149731 -0.29887301 0.0 0.0030807499 -0.29904154 0.0 0.004814513 -0.29911304 0.0 0.0067914831000000005 -0.29889256 0.0 0.0090892781 -0.29809311 0.0 0.011710917 -0.29627034 0.0 0.01474847 -0.38078323 0.0 5.9299339000000006e-08 -0.38090113 0.0 0.0017065292 -0.38122714 0.0 0.0035155194 -0.38168278 0.0 0.0055237291 -0.38212731 0.0 0.0078244358 -0.38231978 0.0 0.010545163 -0.38191772 0.0 0.013670047 -0.38036862 0.0 0.017311832 -0.48120236 0.0 3.7736569e-08 -0.48141012 0.0 0.0019349164000000002 -0.48199901 0.0 0.00400106 -0.48287711 0.0 0.006331055 -0.48387894 0.0 0.009032215 -0.48472109 0.0 0.012265768 -0.48498607 0.0 0.016055906 -0.48402712 0.0 0.020482514 -0.60364294 0.0 -2.1321114e-09 -0.60397881 0.0 0.0021836546 -0.604949 0.0 0.004542768 -0.60644728 0.0 0.0072591882 -0.60827959 0.0 0.010470648 -0.61011392 0.0 0.014384147 -0.61145568 0.0 0.019046253 -0.61154175 0.0 0.02451597 -0.75234115 0.0 3.2307383e-08 -0.75285923 0.0 0.0024421601999999997 -0.75437623 0.0 0.005123605 -0.75676852 0.0 0.008300351 -0.75981671 0.0 0.012156878000000001 -0.76313186 0.0 0.016971359 -0.76612872 0.0 0.022809587000000003 -0.76789194 0.0 0.029721415 -0.9322198 0.0 -1.8885956e-07 -0.93299556 0.0 0.0026860659000000004 -0.93528324 0.0 0.005703064599999999 -0.93894064 0.0 0.0093998285 -0.94372004 0.0 0.014048233 -0.94916946 0.0 0.020038279 -0.95458615 0.0 0.027480325 -0.9588654 0.0 0.036409881 -1.148935 0.0 3.0158725e-07 -1.1500659 0.0 0.0028756324 -1.153416 0.0 0.006199745 -1.158829 0.0 0.010465264 -1.1660177 0.0 0.016071118 -1.1744426000000001 0.0 0.023545174 -1.1832665 0.0 0.033060614 -1.1911268 0.0 0.04479415 -1.4086914 0.0 3.5230721e-07 -1.4103044 0.0 0.0029530842 -1.4150931999999998 0.0 0.0064973799 -1.4228863999999999 0.0 0.011346925 -1.4333486999999998 0.0 0.018048266 -1.4458336999999999 0.0 0.027357005 -1.4593433 0.0 0.039475527 -1.4721899 0.0 0.054904677 -1.7180845 0.0 -5.1396228e-08 -1.7203403000000002 0.0 0.0028413391999999997 -1.7270558 0.0 0.006460304399999999 -1.7380366000000003 0.0 0.011849759 -1.7528987 0.0 0.019744189 -1.7708358 0.0 0.031115755 -1.7907147 0.0 0.046419706 -1.8104661 0.0 0.066622503 -2.0842166 0.0 -3.6485391999999997e-07 -2.0873196 0.0 0.0024426531 -2.0965637999999998 0.0 0.0059230998 -2.1117522999999996 0.0 0.011730002 -2.1324165 0.0 0.020704415 -2.1576772 0.0 0.034539312 -2.1861541 0.0 0.053683799000000004 -2.2153673 0.0 0.079676151 -2.514708 0.0 -8.938172900000001e-08 -2.518898 0.0 0.001714438 -2.5314202 0.0 0.0047799372 -2.5520785 0.0 0.010777636 -2.5803375 0.0 0.020806501 -2.6152651000000002 0.0 0.037251551 -2.6552488999999997 0.0 0.06084026 -2.6972517999999996 0.0 0.09354983300000001 -3.0178137 0.0 1.6552888e-06 -3.0233991000000002 0.0 0.00069664564 -3.0401146 0.0 0.0030727084 -3.0677654999999997 0.0 0.0088743893 -3.1058898 0.0 0.019952567 -3.1534579 0.0 0.039002165 -3.2084739 0.0 0.066918164 -3.2676315 0.0 0.10701677 -3.6027292999999996 0.0 3.6960341e-07 -3.6100669 0.0 -0.00041418360000000003 -3.6320660000000005 0.0 0.0011470115 -3.6685852999999997 0.0 0.0065516704 -3.7192847999999996 0.0 0.018435361 -3.7831193999999995 0.0 0.03990148 -3.8576574 0.0 0.07191693 -3.9394101999999998 0.0 0.12020698 -4.279387 0.0 -1.2636435e-06 -4.2888732 0.0 -0.0011377438000000001 -4.3173938 0.0 -0.00013083871000000002 -4.3649535 0.0 0.0049647922 -4.4313970000000005 0.0 0.01749696 -4.515746099999999 0.0 0.040784501 -4.6153345 0.0 0.077138729 -4.7262244 0.0 0.1332584 -5.057803599999999 0.0 -1.0202934e-06 -5.0698752 0.0 -0.0005254234400000001 -5.1062737 0.0 0.0009753864699999999 -5.1672459 0.0 0.006510337299999999 -5.2529898 0.0 0.019878148999999998 -5.362711900000001 0.0 0.044386644 -5.493691 0.0 0.0850159 -5.6415677 0.0 0.14759554 -5.9473677 0.0 -6.363789000000001e-07 -5.9624809999999995 0.0 0.0030071025 -6.0081415 0.0 0.007593262900000001 -6.085005799999999 0.0 0.015526011000000001 -6.1938553 0.0 0.030478712 -6.3343973 0.0 0.056816347 -6.5039763 0.0 0.10002108 -6.6978559 0.0 0.16770172 -6.9567938 0.0 -1.2046016000000002e-06 -6.975349400000001 0.0 0.011863223999999999 -7.0315909 0.0 0.024421013999999998 -7.126771499999999 0.0 0.03877278 -7.262533199999999 0.0 0.057905927 -7.4397035 0.0 0.087746777 -7.6558905 0.0 0.13195996 -7.9062328 0.0 0.20306909 -8.0951138 0.0 -4.6324503e-06 -8.117490799999999 0.0 0.029571421 -8.1854401 0.0 0.058333885 -8.3010845 0.0 0.086080775 -8.4673252 0.0 0.11484701 -8.686605499999999 0.0 0.15092315 -8.9579 0.0 0.19734536 -9.2763882 0.0 0.27055332 -9.3739319 0.0 1.3495394e-06 -9.4003391 0.0 0.061056975 -9.4807234 0.0 0.1191676 -9.6183615 0.0 0.17151387 -9.8179588 0.0 0.2197955 -10.0845 0.0 0.26783949 -10.419057 0.0 0.32082367 -10.817584 0.0 0.39710456 -10.808291 0.0 -2.5805284000000002e-06 -10.838839 0.0 0.10997928 -10.932051 0.0 0.2142244 -11.092601 0.0 0.3088924 -11.327637 0.0 0.39264706 -11.645236 0.0 0.46755466 -12.050142999999998 0.0 0.53797704 -12.540436999999999 0.0 0.61733389 -12.418288 0.0 6.559858799999999e-06 -12.45282 0.0 0.18134958 -12.559028 0.0 0.35586056 -12.742707000000001 0.0 0.51658368 -13.013656 0.0 0.65925044 -13.383842000000001 0.0 0.78342295 -13.863885 0.0 0.89363706 -14.454269 0.0 0.98915887 -14.217702 0.0 2.8147319e-06 -14.25656 0.0 0.28131557 -14.376035 0.0 0.55269367 -14.583874 0.0 0.80758244 -14.893432 0.0 1.0389230999999999 -15.317669 0.0 1.2515100000000001 -15.87474 0.0 1.4318771000000001 -16.570308999999998 0.0 1.5756058000000002 -16.215725 0.0 9.7908332e-07 -16.260154999999997 0.0 0.39317274 -16.394973999999998 0.0 0.78449422 -16.628389000000002 0.0 1.1648641000000002 -16.975676999999997 0.0 1.5272419 -17.45673 0.0 1.8654651999999998 -18.090021 0.0 2.1705561 -18.885229000000002 0.0 2.4352629 -18.395761 0.0 1.0518377000000001e-05 -18.445021 0.0 0.54294062 -18.593957999999997 0.0 1.0907278999999999 -18.852007 0.0 1.6402672999999999 -19.238945 0.0 2.1751869 -19.777073 0.0 2.687758 -20.488884 0.0 3.1625042000000003 -21.385618 0.0 3.5869656 -20.664381 0.0 4.6290406e-06 -20.720654999999997 0.0 0.73895818 -20.891188 0.0 1.459648 -21.179918 0.0 2.203716 -21.615084 0.0 2.9344847 -22.211088 0.0 3.6639258999999997 -23.001236 0.0 4.3735323 -24.002825 0.0 5.0195265 -22.894402 0.0 -5.6051067e-07 -22.951124 0.0 0.92253113 -23.142998000000002 0.0 1.8470414000000002 -23.49045 0.0 2.7684808 -23.978619000000002 0.0 3.7331505 -24.635172 0.0 4.763531200000001 -25.496334 0.0 5.8290844 -26.597132000000002 0.0 6.8001409 -24.965870000000002 0.0 -3.7577120000000004e-06 -25.04063 0.0 1.1153576 -25.264959 0.0 2.2606111 -25.64884 0.0 3.4451571000000003 -26.164738 0.0 4.735849900000001 -26.904703 0.0 6.1436038 -27.869221000000003 0.0 7.572575099999999 -29.027386 0.0 8.9434671 -26.667625 0.0 -6.3853804e-06 -26.7474 0.0 1.3616891000000002 -27.013840000000002 0.0 2.7509527 -27.431931 0.0 4.2240095 -28.029047 0.0 5.8443937 -28.879521999999998 0.0 7.545903200000001 -29.922935 0.0 9.394021 -31.155179999999998 0.0 11.256469000000001 -28.049807 0.0 1.8123304e-05 -28.143599 0.0 1.64619 -28.415539000000003 0.0 3.3225949 -28.897024 0.0 5.0963783 -29.580423 0.0 7.0738463000000005 -30.477051 0.0 9.284112 -31.543503 0.0 11.701539 -32.788006 0.0 14.112810999999999 -28.832196999999997 0.0 2.107484e-05 -28.927069 0.0 1.950425 -29.230960999999997 0.0 3.9702358 -29.751434000000003 0.0 6.1528778 -30.440159 0.0 8.6094122 -31.37327 0.0 11.439292 -32.495022 0.0 14.598614000000001 -33.779778 0.0 17.803473 -28.735798 0.0 1.6735867e-05 -28.831928 0.0 2.2286222 -29.12159 0.0 4.5553207 -29.616867 0.0 7.1158834 -30.33642 0.0 10.069875 -31.258963 0.0 13.549297 -32.387524 0.0 17.51643 -33.678290999999994 0.0 21.699596 -22.692601999999997 0.0 5.584792200000001e-06 -22.770462 0.0 2.482281 -23.006256 0.0 5.0797153 -23.408410999999997 0.0 7.95679 -23.995123 0.0 11.311566000000001 -24.793291 0.0 15.279582000000001 -25.831131 0.0 19.824284 -27.125165999999997 0.0 24.676867 -14.063723999999999 0.0 -1.7508457e-05 -14.123362 0.0 2.6842634999999997 -14.302948 0.0 5.488472 -14.606175 0.0 8.585927 -15.043039000000002 0.0 12.186209 -15.629885 0.0 16.430901000000002 -16.382832 0.0 21.274248 -17.305464 0.0 26.417241999999998 -7.5276594 0.0 7.480441099999999e-06 -7.5677304 0.0 2.8287427000000003 -7.687626400000001 0.0 5.7782993 -7.887127400000001 0.0 9.0261288 -8.1692295 0.0 12.788731 -8.540969800000001 0.0 17.21163 -9.0091524 0.0 22.239939 -9.5705214 0.0 27.548077000000003 -2.8049369 0.0 -1.9011378999999998e-05 -2.8257972999999996 0.0 2.9153284999999998 -2.8872197 0.0 5.9494576 -2.9864523 0.0 9.2803965 -3.1212921000000002 0.0 13.128103 -3.2917782999999994 0.0 17.640289000000003 -3.4981697 0.0 22.756626 -3.7356474000000004 0.0 28.132717 0.95030427 0.0 -1.2239849e-05 0.94750237 0.0 2.9474093999999997 0.94069725 0.0 6.009900099999999 0.9341324 0.0 9.3635464 0.93345666 0.0 13.228624 0.94405109 0.0 17.75423 0.97010881 0.0 22.878887 1.0161675 0.0 28.250071999999996 4.5342769999999994 0.0 -1.8014688999999999e-06 4.5479937 0.0 2.9302402 4.5908804000000005 0.0 5.9711318 4.6680398 0.0 9.2949429 4.7875595 0.0 13.119860999999998 4.958881900000001 0.0 17.595489999999998 5.1902828 0.0 22.662714 5.486418700000001 0.0 27.970679999999998 8.3146029 0.0 9.1717229e-06 8.343195 0.0 2.8698061000000004 8.4307394 0.0 5.845481400000001 8.582859 0.0 9.0943861 8.809530300000002 0.0 12.830503 9.1239586 0.0 17.202703 9.538502699999999 0.0 22.156391 10.059611 0.0 27.34964 12.215717999999999 0.0 6.4241467e-06 12.257565 0.0 2.7709558 12.384805 0.0 5.6431512999999995 12.603472 0.0 8.7777605 12.925447 0.0 12.382794 13.367317000000002 0.0 16.604837 13.945889000000001 0.0 21.394337 14.671368 0.0 26.422946999999997 15.939834 0.0 -1.7620972e-05 15.993134 0.0 2.6383382999999996 16.154861 0.0 5.3731532 16.431520000000003 0.0 8.358855199999999 16.836578 0.0 11.795539999999999 17.390072 0.0 15.825756 18.113364999999998 0.0 20.404766 19.021238 0.0 25.219908 19.114496 0.0 -2.2166467e-05 19.178587 0.0 2.4773872000000003 19.372128 0.0 5.0457849999999995 19.702991 0.0 7.8524423 20.185131 0.0 11.088403 20.842979 0.0 14.890353 21.697502 0.0 19.217495 22.767723 0.0 23.774078 20.287724 0.0 -2.6360503e-06 20.373741 0.0 2.3139877 20.629070000000002 0.0 4.7081857000000005 21.067362 0.0 7.3150592 21.705961 0.0 10.311922000000001 22.533781 0.0 13.842939000000001 23.587646 0.0 17.875042 24.878525 0.0 22.12702 20.384024 0.0 -1.7230224000000002e-05 20.465586 0.0 2.1361318 20.728223999999997 0.0 4.3404755999999995 21.204824 0.0 6.7395678 21.841946 0.0 9.4854927 22.702938 0.0 12.730119 23.812586 0.0 16.427872 25.17466 0.0 20.342937 20.120428 0.0 1.4980033000000001e-05 20.2113 0.0 1.9423887 20.478081 0.0 3.9564126 20.928857999999998 0.0 6.1453533 21.597065 0.0 8.6462669 22.500908 0.0 11.576345 23.59992 0.0 14.949883999999999 24.970148000000002 0.0 18.512262 19.698704 0.0 1.7601065e-05 19.791285000000002 0.0 1.7269703999999997 20.04648 0.0 3.5404372000000004 20.463192000000003 0.0 5.536818 21.104242000000003 0.0 7.8123469 21.994928 0.0 10.462152 23.123104 0.0 13.481554000000001 24.479176000000002 0.0 16.695169 19.2481 0.0 9.019888199999999e-06 19.292372 0.0 1.5736388000000001 19.533115 0.0 3.1786366000000004 19.953098 0.0 4.9349031 20.549246 0.0 6.9966254 21.353908999999998 0.0 9.4231825 22.430506 0.0 12.157007 23.794628 0.0 15.012201999999998 18.583445 0.0 -7.3170813e-06 18.685926000000002 0.0 1.4418333 18.91309 0.0 2.9014821 19.291376 0.0 4.469243 19.870686 0.0 6.2789383 20.660482000000002 0.0 8.4218645 21.700464 0.0 10.878292 23.047031 0.0 13.432163000000001 17.871681 0.0 1.0706106e-05 17.940683 0.0 1.2996885 18.177789999999998 0.0 2.6429319 18.548948 0.0 4.0534143 19.097946 0.0 5.6686525 19.862007000000002 0.0 7.5527101 20.872749 0.0 9.693089500000001 22.225441 0.0 11.967225 17.113722 0.0 2.0407679e-05 17.178555 0.0 1.179067 17.391087 0.0 2.4060787999999995 17.726423 0.0 3.70298 18.257624 0.0 5.1268144 18.996506 0.0 6.7991796 20.00816 0.0 8.662768400000001 21.342854 0.0 10.582299 16.336088 0.0 -5.8902077999999994e-06 16.399652 0.0 1.0677584 16.589785 0.0 2.1940223999999997 16.911488000000002 0.0 3.3939337999999997 17.376960999999998 0.0 4.6615949 18.124123 0.0 6.129361599999999 19.130232 0.0 7.742080199999999 20.484768 0.0 9.3451719 15.562884 0.0 6.740592700000001e-07 15.621203 0.0 0.97604167 15.79987 0.0 1.9948238999999999 16.109714999999998 0.0 3.0975595 16.561359 0.0 4.2445683 17.278526 0.0 5.5130172 18.284717999999998 0.0 6.867095 19.673820000000003 0.0 8.266407000000001 14.827398 0.0 -2.8684443999999996e-06 14.878093 0.0 0.88996679 15.049657 0.0 1.8237311999999999 15.354335 0.0 2.8039081 15.814519 0.0 3.8344898 16.494782999999998 0.0 4.8790383 17.542385 0.0 6.037282 18.938568 0.0 7.1538300999999995 14.153522 0.0 -2.2962922000000004e-06 14.204335 0.0 0.81527466 14.371548 0.0 1.6441753000000001 14.671803 0.0 2.5125127 15.138993 0.0 3.3818967000000004 15.849159 0.0 4.277411900000001 16.892098999999998 0.0 5.190146400000001 18.402487 0.0 6.1848593 13.562481 0.0 9.584051400000001e-06 13.613973999999999 0.0 0.7272259 13.776117000000001 0.0 1.4555726999999998 14.084620000000001 0.0 2.2013164 14.567778 0.0 2.9397531000000003 15.316759 0.0 3.6645119 16.447201 0.0 4.4908085 18.101736 0.0 5.394908 13.045816 0.0 6.911970599999999e-06 13.108185999999998 0.0 0.62585086 13.284312 0.0 1.2576544 13.598773000000001 0.0 1.8805279 14.138202 0.0 2.4968553 14.984901999999998 0.0 3.1955838 16.25893 0.0 3.9722315999999998 18.222857 0.0 4.9574523 12.66109 0.0 4.3014006e-07 12.724482 0.0 0.52345252 12.913575 0.0 1.0613215 13.290988 0.0 1.6179186 13.939174 0.0 2.2325394 14.93208 0.0 2.9238942000000003 16.532211 0.0 3.8467898000000003 19.178888 0.0 5.0958452 12.445892 0.0 2.7337082000000003e-06 12.526869 0.0 0.48743978 12.778310000000001 0.0 1.0021361 13.255635999999999 0.0 1.5750626 14.088119 0.0 2.2808498999999998 15.511544 0.0 3.2560194 17.891436 0.0 4.5884442000000005 21.366035 0.0 6.0918282999999995 12.628716 0.0 -6.354530300000001e-07 12.735472 0.0 0.57372278 13.089103 0.0 1.243109 13.857529000000001 0.0 2.1222706000000002 15.325064000000001 0.0 3.2552357000000005 17.660179 0.0 4.5567203 20.731527 0.0 5.9314151 24.171778 0.0 7.3473091 15.544264000000002 0.0 -3.6752316999999996e-07 15.739237 0.0 0.76406705 16.357536 0.0 1.6564218000000002 17.469231 0.0 2.7671466000000002 19.118191 0.0 4.0938988 21.190928 0.0 5.5519762 23.465416 0.0 7.105254700000001 26.116125 0.0 8.379248599999999 19.423868 0.0 2.3788307000000004e-06 19.557442 0.0 0.91497761 19.965675 0.0 2.0111675 20.673354999999997 0.0 3.4140644 21.519707 0.0 5.0967236 22.866314000000003 0.0 6.8822198000000006 24.713081 0.0 8.0296345 21.018513000000002 0.0 -9.6095027e-07 21.093042 0.0 1.1049069 21.308815 0.0 2.4634569 21.659897 0.0 4.240526200000001 22.358593 0.0 6.2696199 -0.06267650400000001 0.0 0.0063125198 -0.06062730400000001 0.0 0.007689815 -0.057849854000000006 0.0 0.009150045 -0.054186985 0.0 0.010654028999999999 -0.04952158 0.0 0.012058659 -0.043656044000000005 0.0 0.013280459 -0.03664289 0.0 0.013948422 -0.089608341 0.0 0.0087118996 -0.086894557 0.0 0.010574393 -0.083109297 0.0 0.012565787 -0.077995971 0.0 0.014581003 -0.07134328 0.0 0.016306859 -0.06273803900000001 0.0 0.017659904 -0.051931705 0.0 0.018240333 -0.038787752 0.0 0.019436002 -0.12527718 0.0 0.010906281 -0.12176895 0.0 0.013206106 -0.11676189 0.0 0.015640638999999998 -0.10985214 0.0 0.018118717 -0.10072216 0.0 0.020216644 -0.088778131 0.0 0.021950172 -0.073806025 0.0 0.022925932000000003 -0.055481177 0.0 0.023745701 -0.169829 0.0 0.013119988 -0.1654821 0.0 0.015882136 -0.15912785 0.0 0.018833937 -0.15020666 0.0 0.021849021 -0.13824552 0.0 0.02444155 -0.12242745 0.0 0.026681762 -0.10246011 0.0 0.027906526 -0.077447906 0.0 0.028992299 -0.22485892 0.0 0.015523358999999999 -0.21972704 0.0 0.018810142 -0.21199468 0.0 0.022351874 -0.20090169 0.0 0.026009587999999997 -0.18577561 0.0 0.029204806 -0.16544679 0.0 0.032103654 -0.13938446 0.0 0.033822469 -0.10597707 0.0 0.035742179 -0.29283604 0.0 0.018271575 -0.28705329 0.0 0.022162857 -0.27798912 0.0 0.026386127000000002 -0.2646192 0.0 0.030787311 -0.24604255 0.0 0.034665421 -0.22056553 0.0 0.038422219 -0.18721762 0.0 0.041038908 -0.14335681 0.0 0.044501998 -0.37692755 0.0 0.021561782999999998 -0.37069279 0.0 0.026158851 -0.36042306 0.0 0.031180095 -0.34478992 0.0 0.036424488 -0.32256684 0.0 0.041120991 -0.2913866 0.0 0.046000026 -0.24953654 0.0 0.050101437 -0.19291238 0.0 0.055970400999999996 -0.48091978 0.0 0.025646187 -0.47454777 0.0 0.031143177 -0.46330103 0.0 0.037200667 -0.44555673 0.0 0.043430261 -0.4195846 0.0 0.049230385999999994 -0.38234788 0.0 0.055529355999999995 -0.33084476 0.0 0.061966090999999994 -0.259242 0.0 0.071305498 -0.60923505 0.0 0.030915343999999997 -0.60318357 0.0 0.037668254 -0.59134758 0.0 0.045168638 -0.57166451 0.0 0.052939136 -0.54194021 0.0 0.060245032999999996 -0.49859595 0.0 0.06806525599999999 -0.43685287 0.0 0.077501133 -0.34871304 0.0 0.091064841 -0.76703477 0.0 0.037868567 -0.76192605 0.0 0.046532229 -0.75011188 0.0 0.056040019 -0.72903752 0.0 0.06576778700000001 -0.69572449 0.0 0.075209044 -0.64628869 0.0 0.084940672 -0.57489634 0.0 0.096772283 -0.47053191 0.0 0.11406016 -0.9603433 0.0 0.046974652 -0.95699531 0.0 0.058507707 -0.94613945 0.0 0.070742019 -0.9243449 0.0 0.083578706 -0.8886289 0.0 0.094644934 -0.83384585 0.0 0.10638049 -0.75460815 0.0 0.11990157 -0.63555175 0.0 0.14072192 -1.1960813 0.0 0.058660357999999996 -1.1956178999999998 0.0 0.074197814 -1.1869034 0.0 0.090555459 -1.1660643999999998 0.0 0.10746959 -1.1293156 0.0 0.12342346 -1.0705311000000002 0.0 0.14269629 -0.98355514 0.0 0.17036387 -0.84198147 0.0 0.22190505 -1.4821601 0.0 0.073243596 -1.486186 0.0 0.094440095 -1.4813572 0.0 0.11772825 -1.4639204 0.0 0.14284639 -1.4297743 0.0 0.17105091 -1.3709396 0.0 0.21471141 -1.2837294 0.0 0.28771928 -1.1361386999999998 0.0 0.42011279 -1.8275550999999999 0.0 0.090938509 -1.8383506999999997 0.0 0.12025172 -1.8400067999999998 0.0 0.15432328 -1.8294824 0.0 0.19433345 -1.8040901000000003 0.0 0.24318263 -1.7555418999999999 0.0 0.3231473 -1.6805358 0.0 0.45775178 -1.5484116 0.0 0.66240102 -2.2424312 0.0 0.11169297 -2.26316 0.0 0.15195625 -2.2745182999999995 0.0 0.19995612 -2.2748327 0.0 0.26036239 -2.2648083999999997 0.0 0.33787823 -2.2360787 0.0 0.45649001 -2.18431 0.0 0.64550138 -2.08359 0.0 0.90521723 -2.7379919999999998 0.0 0.13485527 -2.7725 0.0 0.18820088 -2.7980525000000003 0.0 0.25463754 -2.8131532999999997 0.0 0.3403056 -2.8218586 0.0 0.44571528 -2.8189428 0.0 0.60400677 -2.7997607999999996 0.0 0.84148103 -2.7355804 0.0 1.1472919 -3.3269625 0.0 0.15987433 -3.3803483999999995 0.0 0.2292472 -3.4247875 0.0 0.3172096 -3.4582486000000006 0.0 0.42705923 -3.4893703 0.0 0.56454378 -3.5145025000000003 0.0 0.76389623 -3.5284004 0.0 1.0472283000000002 -3.4996696000000003 0.0 1.4056612 -4.0232654000000005 0.0 0.1858241 -4.1016855 0.0 0.27276924 -4.1701212 0.0 0.38360271 -4.2282553 0.0 0.52207446 -4.2841916 0.0 0.69569331 -4.3391705 0.0 0.93949181 -4.3855329 0.0 1.2732883999999998 -4.3877258 0.0 1.6948617 -4.8416858 0.0 0.21181859 -4.952898 0.0 0.31803834 -5.0524373 0.0 0.45334733 -5.1411885999999996 0.0 0.62602419 -5.2291288 0.0 0.84388465 -5.3172798 0.0 1.1365629 -5.3981085 0.0 1.5300280000000002 -5.4287395 0.0 2.0285816000000003 -5.7972283 0.0 0.24018036 -5.9498315 0.0 0.36094964 -6.0911016 0.0 0.52669275 -6.2189269 0.0 0.73771381 -6.346642500000001 0.0 1.0060713 -6.4766068 0.0 1.3596559 -6.600238799999999 0.0 1.8279523000000002 -6.6664982 0.0 2.4179366 -6.9050012 0.0 0.27142289 -7.1111784 0.0 0.40811658 -7.3061093999999995 0.0 0.60365528 -7.4856048 0.0 0.85654122 -7.6633935 0.0 1.1835514 -7.846495200000001 0.0 1.6130556999999999 -8.025692900000001 0.0 2.1761217 -8.1399612 0.0 2.8772519 -8.1775274 0.0 0.31417564 -8.4530582 0.0 0.46561345 -8.717 0.0 0.68597347 -8.9638424 0.0 0.98396063 -9.2085476 0.0 1.3768953000000002 -9.4599543 0.0 1.8992933999999997 -9.7117004 0.0 2.5814869 -9.8911915 0.0 3.4178667000000003 -9.6280613 0.0 0.38535523 -9.990556699999999 0.0 0.54493165 -10.344909 0.0 0.7841602 -10.680228 0.0 1.126708 -11.014283 0.0 1.5833913 -11.355674 0.0 2.2171887999999997 -11.701528999999999 0.0 3.0543206 -11.969514 0.0 4.057500800000001 -11.266785 0.0 0.50878841 -11.736353 0.0 0.67135179 -12.207975999999999 0.0 0.91532481 -12.661299 0.0 1.2883556999999999 -13.114734 0.0 1.8028908 -13.578741 0.0 2.5607207 -14.047642000000002 0.0 3.6037587999999996 -14.436042 0.0 4.819756 -13.103268 0.0 0.72401148 -13.705708 0.0 0.87684762 -14.320851000000001 0.0 1.1129578000000002 -14.932201000000001 0.0 1.486349 -15.542748000000001 0.0 2.0396585 -16.177063 0.0 2.9375119 -16.813181 0.0 4.235093099999999 -17.37557 0.0 5.7438145 -15.144770000000001 0.0 1.0907316999999999 -15.90567 0.0 1.2321222 -16.695766 0.0 1.4254411 -17.507315 0.0 1.768204 -18.326162 0.0 2.3546153999999997 -19.186537 0.0 3.3283582000000003 -20.067671 0.0 4.951054599999999 -20.878510000000002 0.0 6.83215 -17.3955 0.0 1.6868324000000001 -18.327194 0.0 1.7999668000000002 -19.32865 0.0 1.9447728 -20.389882999999998 0.0 2.2027639999999997 -21.494999 0.0 2.7564992999999998 -22.657812 0.0 3.7815532999999997 -23.881207 0.0 5.7509623 -25.062923 0.0 8.0980806 -19.847042000000002 0.0 2.6115367000000003 -20.952751 0.0 2.7180974 -22.194136 0.0 2.7769463 -23.550125 0.0 2.9030447 -25.016865 0.0 3.3564364999999996 -26.600254 0.0 4.3523974 -28.290003000000002 0.0 6.646865400000001 -30.029232 0.0 9.5186338 -22.460449 0.0 3.9240877999999997 -23.713596 0.0 4.1318297 -25.184429 0.0 4.1553035000000005 -26.902199 0.0 4.0503912 -28.825775 0.0 4.242882700000001 -30.941846999999996 0.0 5.1209826 -33.252865 0.0 7.6280651 -35.751644 0.0 11.073298 -25.195377 0.0 5.569756 -26.558077 0.0 5.997331099999999 -28.044867 0.0 6.3248119 -29.994246 0.0 6.300930999999999 -32.602394 0.0 5.8732514 -35.458374 0.0 6.2226758 -38.564968 0.0 8.7573948 -41.994225 0.0 12.650269 -27.900219 0.0 7.630764999999999 -29.371181 0.0 8.253793700000001 -30.980913 0.0 8.734314 -32.9702 0.0 8.882906 -35.593346000000004 0.0 8.6902409 -39.622528 0.0 8.2465038 -43.768032 0.0 10.033588 -48.271965 0.0 14.171726000000001 -30.445406 0.0 10.058608 -32.021793 0.0 10.92868 -33.764618 0.0 11.513648 -35.826088 0.0 11.775530999999999 -38.586788 0.0 11.534472000000001 -42.383990999999995 0.0 11.213148 -48.166022999999996 0.0 11.708569 -53.919304000000004 0.0 15.233934 -32.597336 0.0 12.852267 -34.33659 0.0 14.070635000000001 -36.19891 0.0 14.82407 -38.401752 0.0 15.116847 -41.339134 0.0 14.627888 -45.708698 0.0 13.305847 -51.974751 0.0 11.822413000000001 -58.765015000000005 0.0 14.950335999999998 -34.182686 0.0 16.257875 -35.784611 0.0 17.921217000000002 -37.544533 0.0 19.187782000000002 -39.56221 0.0 19.994062 -42.451805 0.0 19.842169000000002 -47.325691 0.0 16.958187 -55.077369999999995 0.0 10.138444999999999 -62.070362 0.0 13.350129 -35.258339 0.0 20.760126 -36.913994 0.0 23.232698000000003 -38.594654 0.0 25.526396 -40.377907 0.0 27.518542999999998 -42.43866 0.0 27.921362 -46.668929999999996 0.0 19.886492 -55.739020999999994 0.0 9.131888400000001 -62.748183999999995 0.0 12.689336 -35.164433 0.0 25.624138000000002 -36.862778000000006 0.0 29.040985 -38.660175 0.0 32.26527 -40.211067 0.0 35.260403000000004 -41.276649 0.0 36.217419 -43.712601 0.0 23.581194 -51.101059 0.0 9.7798119 -54.102264 0.0 13.688776999999998 -28.649487 0.0 29.270231 -30.339882 0.0 33.254622999999995 -32.089436 0.0 36.976894 -33.702427 0.0 40.505226 -35.039776 0.0 41.93977 -35.633488 0.0 26.536537 -37.110268 0.0 10.496675999999999 -38.143147 0.0 15.20675 -18.37369 0.0 31.246408000000002 -19.527061 0.0 35.355282 -20.672037 0.0 39.025517 -21.688015 0.0 42.224373 -22.459630999999998 0.0 42.989407 -22.569563 0.0 26.577909000000002 -23.093273 0.0 10.887298 -23.580444 0.0 16.511 -10.199978 0.0 32.478458 -10.845528 0.0 36.581993 -11.439174000000001 0.0 40.100304 -11.908588 0.0 42.934761 -12.193596000000001 0.0 43.205307 -12.090086 0.0 26.346506 -12.163364999999999 0.0 11.302553999999999 -12.250475 0.0 17.842223999999998 -3.9861128 0.0 33.080559 -4.2152038 0.0 37.12532 -4.3826919 0.0 40.495411 -4.457588200000001 0.0 43.077763 -4.4257207 0.0 43.033127 -4.203713400000001 0.0 26.247203999999996 -4.0860233 0.0 11.731505 -3.9790782999999994 0.0 18.922998 1.0901488000000001 0.0 33.164925 1.2048028 0.0 37.139385 1.3707571000000003 0.0 40.409527000000004 1.5847168 0.0 42.887356 1.8282967 0.0 42.803734000000006 2.0982575 0.0 26.413277 2.307003 0.0 12.146561 2.5076263 0.0 19.575609 5.8468099 0.0 32.817417 6.264459099999999 0.0 36.723704999999995 6.7212758 0.0 39.947155 7.1841655 0.0 42.450043 7.612218400000001 0.0 42.543591 7.875076299999999 0.0 26.618171999999998 8.240626299999999 0.0 12.42962 8.5880013 0.0 19.633169 10.682754 0.0 32.093674 11.386457 0.0 35.920448 12.127151 0.0 39.097836 12.845301 0.0 41.621871999999996 13.482076000000001 0.0 41.879143 13.637944000000001 0.0 26.605484000000004 14.366528 0.0 12.589814 14.963132 0.0 19.437251999999997 15.539007000000002 0.0 31.023832000000002 16.51849 0.0 34.744034 17.545742 0.0 37.849327 18.536652 0.0 40.351727000000004 19.414901999999998 0.0 40.711490999999995 19.262035 0.0 26.019119 20.686165 0.0 12.636445 21.540421 0.0 18.988518 20.111345 0.0 29.632565000000003 21.348982 0.0 33.207867 22.654079 0.0 36.200199 23.920364000000003 0.0 38.626118 25.05262 0.0 39.029796999999995 24.593187 0.0 25.069232999999997 26.714432000000002 0.0 12.519453 27.921814 0.0 18.366961 24.055208 0.0 27.953863000000002 25.522758 0.0 31.342249 27.077452 0.0 34.176876 28.596151000000003 0.0 36.473476 29.965813 0.0 36.877734999999994 28.955510999999998 0.0 23.690207 32.012058 0.0 12.304195 33.725094 0.0 17.984709 26.433163 0.0 26.035648000000002 28.274 0.0 29.208662 30.249208000000003 0.0 31.844517 32.200378 0.0 33.963402 33.63409 0.0 34.136696 32.284962 0.0 22.028548999999998 36.245869 0.0 12.160145 38.364628 0.0 17.404497 26.823112 0.0 23.951565 28.795 0.0 26.896568 31.100281 0.0 29.318352 33.74044 0.0 31.220246999999997 36.050121000000004 0.0 31.228432 34.855979999999995 0.0 20.577616 38.998791 0.0 11.798161 41.541634 0.0 16.588024 26.63438 0.0 21.809057 28.630421000000002 0.0 24.495138 30.95105 0.0 26.681744000000002 33.746193 0.0 28.36488 36.958908 0.0 28.531336 36.909332 0.0 19.387842000000003 41.051353000000006 0.0 11.415174 43.788483 0.0 15.670753 26.147398000000003 0.0 19.679356 28.158325 0.0 22.134663 30.518538 0.0 24.071962 33.431126 0.0 25.515968 36.844845 0.0 25.555395 38.622208 0.0 18.432947 42.591084 0.0 10.885746000000001 45.665749 0.0 14.63406 25.490612 0.0 17.684251999999997 27.527615 0.0 19.873381 29.926766999999998 0.0 21.60858 32.852436 0.0 22.76211 36.509215999999995 0.0 22.689571 40.045589 0.0 17.540036999999998 44.16291 0.0 10.287917 47.545849 0.0 13.336291000000001 24.76333 0.0 15.805923000000002 26.829878000000004 0.0 17.770044 29.32155 0.0 19.379475 32.272774 0.0 20.343384 36.19585 0.0 20.079067000000002 40.977501000000004 0.0 16.229439000000003 45.706524 0.0 9.2998962 49.996596999999994 0.0 11.784881 23.943079 0.0 14.036222 26.067606 0.0 15.827967000000001 28.652328000000004 0.0 17.207783 31.799149 0.0 18.17452 35.985535 0.0 17.955738 41.394554 0.0 14.605448 47.480346999999995 0.0 9.3111963 53.783375 0.0 11.274436999999999 23.101585 0.0 12.385597 25.290474 0.0 14.003735999999998 27.986105 0.0 15.275708999999999 31.593769 0.0 16.193907 36.042427 0.0 16.11034 42.133186 0.0 13.468856 48.814223999999996 0.0 10.797069 57.227008999999995 0.0 13.700685 22.272291 0.0 10.942658999999999 24.532425 0.0 12.339425 27.469778 0.0 13.654044 31.425133000000002 0.0 14.606589999999999 36.744820000000004 0.0 14.310164000000002 43.61784 0.0 12.080999 51.101658 0.0 11.778003 60.816993999999994 0.0 15.213335 21.48571 0.0 9.5635204 23.931414 0.0 10.884649000000001 27.249363 0.0 12.195596 31.93692 0.0 12.929913 38.422451 0.0 11.860119000000001 45.403137 0.0 10.854643 53.37941 0.0 12.251704 20.884062 0.0 8.322587 23.619711 0.0 9.5963631 27.504241999999998 0.0 10.731765 33.129894 0.0 10.885665 39.970669 0.0 10.266656 47.01886 0.0 10.727845 55.158588 0.0 13.220138 20.546574 0.0 7.2768836 23.656034 0.0 8.5011835 28.319132 0.0 9.3093939 34.642342 0.0 9.5719385 41.440575 0.0 9.8336582 48.603146 0.0 11.384041999999999 20.56949 0.0 6.5225390999999995 24.313622 0.0 7.643042100000001 29.859871000000002 0.0 8.4571981 36.380542999999996 0.0 9.130085000000001 43.120682 0.0 10.344439999999999 50.001026 0.0 12.421984 21.332621 0.0 6.1360822 26.11784 0.0 7.262558 31.990161999999998 0.0 8.3671236 38.37962 0.0 9.559489300000001 44.579147 0.0 11.236654 23.289829 0.0 6.4228148 28.578802000000003 0.0 7.644304300000001 34.177807 0.0 9.0009336 40.065909999999995 0.0 10.349723 25.913092000000002 0.0 7.4071012000000005 30.736053000000002 0.0 8.7731543 36.096684 0.0 10.00882 40.632571999999996 0.0 10.898819 28.114378000000002 0.0 8.5689487 32.463406 0.0 9.56001 29.488762 0.0 9.0671692 
StrainDot 3 2975 float
0.0 0.0 0.0 0.0 0.0 0.0 0.0 0.0 0.0 0.0 0.0 0.0 0.0 0.0 0.0 0.0 0.0 0.0 0.0 0.0 0.0 0.0 0.0 0.0 0.0 0.0 0.0 0.0 0.0 0.0 0.0 0.0 0.0 0.0 0.0 0.0 0.0 0.0 0.0 -8.4016367e-09 0.0 -2.2075488e-09 -1.6590732e-26 0.0 -6.8488973e-27 -4.045931200000001e-08 0.0 -1.6374520000000002e-08 -2.9212782e-07 0.0 -9.2732165e-08 -7.1436666e-08 0.0 -3.5416715e-08 -5.2312561e-07 0.0 -2.5116694e-07 -1.7809501e-06 0.0 -6.594031600000001e-07 -5.7719512e-07 0.0 -3.3689179e-07 -2.240447e-06 0.0 -1.2354506e-06 -5.889835799999999e-06 0.0 -2.4800867999999997e-06 -1.9921392e-06 0.0 -1.3418236e-06 -6.0177576e-06 0.0 -3.7768273e-06 -1.3997064e-05 0.0 -6.6588441e-06 -4.580053e-06 0.0 -3.5636394000000003e-06 -1.2250767000000001e-05 0.0 -8.772663e-06 -2.6732268e-05 0.0 -1.4415449000000002e-05 -8.2259266e-06 0.0 -7.4185414000000005e-06 -2.0715348e-05 0.0 -1.6955502e-05 -4.3754109e-05 0.0 -2.6773771000000002e-05 -1.2568364999999999e-05 0.0 -1.309138e-05 -3.0838892e-05 0.0 -2.8682827000000003e-05 -6.4186177e-05 0.0 -4.4263037e-05 -1.7358073999999998e-05 0.0 -2.0543865e-05 -4.2340510999999996e-05 0.0 -4.3948927e-05 -8.7728004e-05 0.0 -6.6882829e-05 -2.2811419000000002e-05 0.0 -2.9704002e-05 -5.5875436e-05 0.0 -6.272387700000001e-05 -0.00011584708000000001 0.0 -9.458861999999999e-05 -2.9811457e-05 0.0 -4.0741386000000004e-05 -7.3402109e-05 0.0 -8.5460983e-05 -0.00015230712999999999 0.0 -0.00012809555 -4.0118771999999996e-05 0.0 -5.4284395000000005e-05 -9.886457e-05 0.0 -0.00011350813000000001 -0.00020457641 0.0 -0.00016953423999999998 -5.6966379e-05 0.0 -7.1699316e-05 -0.00013954138999999998 0.0 -0.00014975916 -0.00028630383999999996 0.0 -0.00022339757999999998 -8.6099077e-05 0.0 -9.603137e-05 -0.00020808308999999999 0.0 -0.00020040973 -0.00042066429000000004 0.0 -0.00029878359000000003 -0.00013789615 0.0 -0.00013479516 -0.00032571807999999997 0.0 -0.00027859645 -0.00064450194 0.0 -0.00041325635000000004 -0.00022921900000000002 0.0 -0.00020646008 -0.00052066485 0.0 -0.00041068325 -0.0010019682 0.0 -0.00059840496 -0.00037767248999999995 0.0 -0.00035459053 -0.00080704648 0.0 -0.0006468934 -0.0015063725 0.0 -0.0009073028300000001 -0.0011639323 0.0 -0.0010725803 -0.0021119623000000003 0.0 -0.0014211279 0.0 0.0 0.0 0.0 0.0 0.0 0.0 0.0 0.0 0.0 0.0 0.0 0.0 0.0 0.0 0.0 0.0 0.0 0.0 0.0 0.0 0.0 0.0 0.0 0.0 0.0 0.0 0.0 0.0 0.0 0.0 0.0 0.0 0.0 0.0 0.0 0.0 0.0 0.0 0.0 0.0 0.0 0.0 0.0 0.0 0.0 0.0 0.0 0.0 0.0 0.0 0.0 0.0 0.0 0.0 0.0 0.0 0.0 0.0 0.0 0.0 0.0 0.0 0.0 0.0 0.0 0.0 0.0 0.0 0.0 0.0 0.0 0.0 0.0 0.0 -1.7546709e-09 0.0 -1.4963517e-10 -1.1591583000000002e-08 0.0 -5.0579069e-10 -2.8030043999999998e-08 0.0 -4.5876010999999995e-10 -4.2254907e-08 0.0 -5.8926856e-11 -4.989802e-08 0.0 1.0296607e-10 -5.5082683e-08 0.0 1.2081967e-10 -5.9196395e-08 0.0 1.2572596e-10 -7.7487982e-08 0.0 -1.3995913999999997e-08 -2.6675644000000004e-07 0.0 -3.0334874e-08 -5.916796800000001e-07 0.0 -3.9400650000000004e-08 -1.0051181e-06 0.0 -3.44264e-08 -1.420762e-06 0.0 -1.7571352e-08 -1.7628236999999999e-06 0.0 1.6262123e-09 -2.0021528e-06 0.0 1.2848308000000001e-08 -2.1634983e-06 0.0 1.5113489e-08 -9.4694144e-07 0.0 -2.0411166e-07 -2.1392254e-06 0.0 -2.9108062e-07 -3.856168e-06 0.0 -3.1268362e-07 -5.897959900000001e-06 0.0 -2.5667654000000004e-07 -7.9477359e-06 0.0 -1.4104712e-07 -9.7257889e-06 0.0 -1.057662e-08 -1.110454e-05 0.0 8.741651699999999e-08 -1.2105517e-05 0.0 1.3461973e-07 -4.2680867e-06 0.0 -1.0646488999999999e-06 -8.255748099999999e-06 0.0 -1.2983805000000001e-06 -1.3648562e-05 0.0 -1.2849307999999999e-06 -1.9881516e-05 0.0 -1.0155923e-06 -2.6102280999999997e-05 0.0 -5.561604399999999e-07 -3.1577667000000004e-05 0.0 -5.1589485e-08 -3.5959143e-05 0.0 3.4359615999999997e-07 -3.9262512e-05 0.0 5.6375535e-07 -1.2379934000000001e-05 0.0 -3.4930281e-06 -2.2237404000000003e-05 0.0 -3.9485512e-06 -3.5179666000000005e-05 0.0 -3.7421087e-06 -4.9895857999999996e-05 0.0 -2.8855129e-06 -6.4497726e-05 0.0 -1.5554641000000002e-06 -7.7392433e-05 0.0 -1.2343233e-07 -8.7828004e-05 0.0 1.0128407e-06 -9.5816649e-05 0.0 1.6754107999999999e-06 -2.75039e-05 0.0 -8.7340586e-06 -4.747871600000001e-05 0.0 -9.4733687e-06 -7.3297226e-05 0.0 -8.7507206e-06 -0.00010235969000000001 0.0 -6.6215857000000005e-06 -0.00013099118999999998 0.0 -3.4911311e-06 -0.0001561964 0.0 -1.8420296e-07 -0.00017663493000000003 0.0 2.4396827e-06 -0.00019236165 0.0 3.997472e-06 -5.0659113e-05 0.0 -1.817774e-05 -8.5587541e-05 0.0 -1.9262645e-05 -0.00013035978 0.0 -1.7504208e-05 -0.00018034298 0.0 -1.3015495e-05 -0.00022910409 0.0 -6.6574194e-06 -0.00027170617 0.0 -9.544229599999999e-08 -0.00030613982000000006 0.0 5.0596382e-06 -0.00033261755 0.0 8.130356e-06 -8.1380953e-05 0.0 -3.3028202e-05 -0.0001359239 0.0 -3.4532437e-05 -0.00020533804 0.0 -3.099877e-05 -0.00028209222 0.0 -2.260439e-05 -0.00035600358 0.0 -1.1106847e-05 -0.0004199789 0.0 4.0698615000000003e-07 -0.00047138482 0.0 9.3098834e-06 -0.00051071774 0.0 1.4585594000000002e-05 -0.00011830169 0.0 -5.3924708e-05 -0.00019631348999999998 0.0 -5.5890591999999995e-05 -0.00029450937 0.0 -4.9463181999999995e-05 -0.00016099746000000002 0.0 -8.0786238e-05 -0.00026588767999999996 0.0 -8.3105522e-05 -0.00021226831000000003 0.0 -0.00011339482 -0.00034946822999999997 0.0 -0.00011564907 -0.00027867794 0.0 -0.00015257846 -0.00045771623 0.0 -0.00015439881999999998 -0.00037241730000000004 0.0 -0.00020096608 -0.00060786301 0.0 -0.00020199636000000002 -0.00051540049 0.0 -0.00026398599999999996 -0.0008301743700000001 0.0 -0.0002636906 -0.0007438521099999999 0.0 -0.00035223746 -0.0011730662 0.0 -0.00034950834 -0.0011132183000000001 0.0 -0.00048564488 -0.0017072470999999999 0.0 -0.00047825093 -0.0016887660999999998 0.0 -0.00069978234 -0.0025148629 0.0 -0.00068432128 -0.0024952991 0.0 -0.0010534941000000001 -0.0036392497999999996 0.0 -0.0010269067 -0.0034704374 0.0 -0.0016315035 -0.0050289906 0.0 -0.0015929476000000001 0.0 0.0 0.0 0.0 0.0 0.0 0.0 0.0 0.0 0.0 0.0 0.0 0.0 0.0 0.0 0.0 0.0 0.0 0.0 0.0 0.0 0.0 0.0 0.0 0.0 0.0 0.0 0.0 0.0 0.0 0.0 0.0 0.0 0.0 0.0 0.0 0.0 0.0 0.0 0.0 0.0 0.0 0.0 0.0 0.0 0.0 0.0 0.0 0.0 0.0 0.0 0.0 0.0 0.0 0.0 0.0 0.0 0.0 0.0 0.0 0.0 0.0 0.0 0.0 0.0 0.0 0.0 0.0 0.0 0.0 0.0 0.0 0.0 0.0 0.0 0.0 0.0 0.0 0.0 0.0 0.0 -6.2388814e-08 0.0 1.2109275e-10 -6.481558e-08 0.0 1.1068382e-10 -6.662839500000001e-08 0.0 9.884998399999999e-11 -6.7963597e-08 0.0 8.792101800000001e-11 -6.893338900000001e-08 0.0 7.7993723e-11 -6.9623965e-08 0.0 6.9579627e-11 -7.010076100000001e-08 0.0 6.2618237e-11 -7.0410778e-08 0.0 5.7062493999999993e-11 -7.0585017e-08 0.0 5.3555067e-11 -2.2856616e-06 0.0 1.4833677999999999e-08 -2.3793702000000004e-06 0.0 1.3839406000000001e-08 -2.4499711e-06 0.0 1.2529511999999999e-08 -2.5022943999999998e-06 0.0 1.1189176999999999e-08 -2.5404419999999997e-06 0.0 9.9634265e-09 -2.5676983999999997e-06 0.0 8.9036103e-09 -2.5865647e-06 0.0 8.0285512e-09 -2.5988443e-06 0.0 7.366431e-09 -2.6057504999999997e-06 0.0 6.948174e-09 -1.2823028999999998e-05 0.0 1.4123616e-07 -1.3361706999999999e-05 0.0 1.3358758999999999e-07 -1.3768394e-05 0.0 1.2220048e-07 -1.4070257999999998e-05 0.0 1.0983203999999999e-07 -1.4290503000000001e-05 0.0 9.812128400000001e-08 -1.4447853e-05 0.0 8.786958699999999e-08 -1.4556705e-05 0.0 7.9452185e-08 -1.4627504e-05 0.0 7.3136157e-08 -1.4667286e-05 0.0 6.9193753e-08 -4.1689036e-05 0.0 6.331088100000001e-07 -4.3474785000000005e-05 0.0 6.135362e-07 -4.4811732000000004e-05 0.0 5.660580799999999e-07 -4.5803167999999995e-05 0.0 5.1169781e-07 -4.6525582999999994e-05 0.0 4.5876168999999995e-07 -4.7040874e-05 0.0 4.1180771999999997e-07 -4.7396716e-05 0.0 3.7317238000000006e-07 -4.7627778e-05 0.0 3.4430838e-07 -4.7757465e-05 0.0 3.2639483e-07 -0.00010176923000000001 0.0 1.9213217e-06 -0.00010617211000000001 0.0 1.9064912e-06 -0.00010943274999999999 0.0 1.7734166000000001e-06 -0.00011184136999999999 0.0 1.6109880000000002e-06 -0.00011359101 0.0 1.449024e-06 -0.00011483511 0.0 1.303622e-06 -0.00011569163 0.0 1.183492e-06 -0.00011624638000000001 0.0 1.0938188999999998e-06 -0.00011655713 0.0 1.0383112e-06 -0.00020414345000000002 0.0 4.6074997000000005e-06 -0.00021288792999999998 0.0 4.6160403e-06 -0.0002193429 0.0 4.3296814000000005e-06 -0.00022407807 0.0 3.9485471e-06 -0.00022750015 0.0 3.5612388e-06 -0.00022992158 0.0 3.2099637999999997e-06 -0.0002315811 0.0 2.9184862000000004e-06 -0.0002326518 0.0 2.7007338e-06 -0.00023325002999999997 0.0 2.5660487999999996e-06 -0.00035244697999999995 0.0 9.353281699999998e-06 -0.00036714706 0.0 9.3926374e-06 -0.00037796531 0.0 8.851288800000001e-06 -0.00038584105999999997 0.0 8.0951031e-06 -0.00039148986000000005 0.0 7.3157803000000004e-06 -0.00039545796 0.0 6.6034695e-06 -0.00039815964 0.0 6.0101615e-06 -0.00039989286 0.0 5.5663349e-06 -0.00040085736000000004 0.0 5.2918061999999995e-06 -0.00054001727 0.0 1.6680581999999998e-05 -0.00056160986 0.0 1.6731743e-05 -0.00057739567 0.0 1.5790129e-05 -0.00058877957 0.0 1.4468294e-05 -0.00059685577 0.0 1.3092465999999999e-05 -0.00060246879 0.0 1.1828114000000001e-05 -0.00060625264 0.0 1.0771812e-05 -0.0006086597 0.0 9.9805748e-06 -0.00060999079 0.0 9.491008300000001e-06 0.0 0.0 0.0 0.0 0.0 0.0 0.0 0.0 0.0 0.0 0.0 0.0 0.0 0.0 0.0 0.0 0.0 0.0 0.0 0.0 0.0 0.0 0.0 0.0 0.0 0.0 0.0 0.0 0.0 0.0 0.0 0.0 0.0 0.0 0.0 0.0 0.0 0.0 0.0 0.0 0.0 0.0 0.0 0.0 0.0 0.0 0.0 0.0 0.0 0.0 0.0 0.0 0.0 0.0 0.0 0.0 0.0 0.0 0.0 0.0 0.0 0.0 0.0 0.0 0.0 0.0 0.0 0.0 0.0 0.0 0.0 0.0 -7.0641192e-08 0.0 5.2404043e-11 -7.0585031e-08 0.0 5.3554938e-11 -7.041079200000001e-08 0.0 5.7062445e-11 -7.010076799999999e-08 0.0 6.261832e-11 -6.9623965e-08 0.0 6.9579724e-11 -6.893339599999999e-08 0.0 7.7993903e-11 -6.7963597e-08 0.0 8.792130899999999e-11 -6.662837400000001e-08 0.0 9.8850039e-11 -2.6079773999999996e-06 0.0 6.8040125e-09 -2.6057507999999995e-06 0.0 6.9481709e-09 -2.5988440000000004e-06 0.0 7.3664306e-09 -2.5865647e-06 0.0 8.0285547e-09 -2.5676986e-06 0.0 8.9036245e-09 -2.5404419999999997e-06 0.0 9.9634461e-09 -2.5022941e-06 0.0 1.1189191999999998e-08 -2.4499711e-06 0.0 1.2529518999999998e-08 -1.4680106e-05 0.0 6.7849768e-08 -1.4667281e-05 0.0 6.919374600000001e-08 -1.4627501999999999e-05 0.0 7.313614200000001e-08 -1.45567e-05 0.0 7.945224900000002e-08 -1.4447854e-05 0.0 8.7869708e-08 -1.4290506e-05 0.0 9.812141900000001e-08 -1.4070264e-05 0.0 1.0983216000000001e-07 -1.3768393000000001e-05 0.0 1.2220053e-07 -4.7799224999999996e-05 0.0 3.2031534e-07 -4.7757471999999995e-05 0.0 3.2639485e-07 -4.7627778e-05 0.0 3.4430842999999996e-07 -4.7396723e-05 0.0 3.7317253e-07 -4.7040881e-05 0.0 4.1180816999999996e-07 -4.652558e-05 0.0 4.5876212000000003e-07 -4.5803175e-05 0.0 5.1169815e-07 -4.4811735e-05 0.0 5.6605836e-07 -0.00011665715 0.0 1.0195023e-06 -0.00011655713 0.0 1.0383112e-06 -0.00011624643 0.0 1.0938195e-06 -0.00011569163 0.0 1.1834924e-06 -0.00011483511 0.0 1.3036229e-06 -0.00011359101 0.0 1.4490255e-06 -0.00011184138 0.0 1.6109886e-06 -0.00010943271999999999 0.0 1.7734172000000002e-06 -0.00023344227999999998 0.0 2.5204326e-06 -0.00023325012 0.0 2.566049e-06 -0.00023265187000000003 0.0 2.7007341000000003e-06 -0.00023158104 0.0 2.9184872999999998e-06 -0.0002299216 0.0 3.2099656e-06 -0.00022750015 0.0 3.5612405999999998e-06 -0.00022407807 0.0 3.9485494e-06 -0.00021934287999999995 0.0 4.3296836e-06 -0.00040116653 0.0 5.1988491e-06 -0.00040085748 0.0 5.2918058e-06 -0.00039989295 0.0 5.5663354e-06 -0.00039815964 0.0 6.0101634e-06 -0.00039545805 0.0 6.603474e-06 -0.00039148983 0.0 7.3157858e-06 -0.00038584102999999993 0.0 8.0951077e-06 -0.00037796536 0.0 8.851292499999999e-06 -0.00061041623 0.0 9.325260199999999e-06 -0.00060999085 0.0 9.4910047e-06 -0.00060865976 0.0 9.9805775e-06 -0.00060625258 0.0 1.0771822e-05 -0.00060246879 0.0 1.1828115e-05 -0.00059685583 0.0 1.3092465e-05 -0.00058877957 0.0 1.4468301e-05 -0.0005773959599999999 0.0 1.5790134e-05 0.0 0.0 0.0 0.0 0.0 0.0 0.0 0.0 0.0 0.0 0.0 0.0 0.0 0.0 0.0 0.0 0.0 0.0 0.0 0.0 0.0 0.0 0.0 0.0 0.0 0.0 0.0 0.0 0.0 0.0 0.0 0.0 0.0 0.0 0.0 0.0 0.0 0.0 0.0 0.0 0.0 0.0 0.0 0.0 0.0 0.0 0.0 0.0 0.0 0.0 0.0 0.0 0.0 0.0 0.0 0.0 0.0 0.0 0.0 0.0 0.0 0.0 0.0 0.0 0.0 0.0 0.0 0.0 0.0 0.0 0.0 0.0 0.0 0.0 0.0 0.0 0.0 0.0 0.0 0.0 0.0 -6.4815559e-08 0.0 1.1068366e-10 -6.2388814e-08 0.0 1.2109264e-10 -5.919642700000001e-08 0.0 1.2572578e-10 -5.5082687e-08 0.0 1.2081963e-10 -4.9898016e-08 0.0 1.0296614e-10 -4.2254918e-08 0.0 -5.892680799999999e-11 -2.8030046000000005e-08 0.0 -4.587602e-10 -1.1591585e-08 0.0 -5.0579069e-10 -1.7546714e-09 0.0 -1.4963517e-10 -2.3793702000000004e-06 0.0 1.3839398999999999e-08 -2.285662e-06 0.0 1.4833661e-08 -2.1634983e-06 0.0 1.5113475e-08 -2.0021530000000003e-06 0.0 1.2848308000000001e-08 -1.7628236999999999e-06 0.0 1.6262172e-09 -1.4207618999999999e-06 0.0 -1.7571348999999998e-08 -1.0051182e-06 0.0 -3.4426407e-08 -5.916799100000001e-07 0.0 -3.9400650000000004e-08 -2.6675644000000004e-07 0.0 -3.0334874e-08 -1.3361706e-05 0.0 1.3358753e-07 -1.2823030000000001e-05 0.0 1.4123609e-07 -1.210552e-05 0.0 1.3461963e-07 -1.1104538e-05 0.0 8.741651699999999e-08 -9.7257871e-06 0.0 -1.0576597999999999e-08 -7.947735000000001e-06 0.0 -1.410471e-07 -5.897961299999999e-06 0.0 -2.566766e-07 -3.856168e-06 0.0 -3.1268365e-07 -2.1392261e-06 0.0 -2.9108065e-07 -4.3474789e-05 0.0 6.135361400000001e-07 -4.1689029e-05 0.0 6.3310875e-07 -3.9262512e-05 0.0 5.6375507e-07 -3.5959136e-05 0.0 3.4359621000000005e-07 -3.1577667000000004e-05 0.0 -5.1589513e-08 -2.6102278000000002e-05 0.0 -5.561605e-07 -1.9881518000000002e-05 0.0 -1.0155923e-06 -1.3648566e-05 0.0 -1.2849307999999999e-06 -8.255749900000001e-06 0.0 -1.2983806999999998e-06 -0.00010617211000000001 0.0 1.9064915e-06 -0.00010176924000000001 0.0 1.9213221000000003e-06 -9.5816664e-05 0.0 1.6754107999999999e-06 -8.7828004e-05 0.0 1.0128415e-06 -7.7392426e-05 0.0 -1.2343214e-07 -6.4497726e-05 0.0 -1.555464e-06 -4.9895865e-05 0.0 -2.8855136e-06 -3.5179673e-05 0.0 -3.7421075000000002e-06 -2.2237409e-05 0.0 -3.9485503e-06 -0.00021288784 0.0 4.6160403e-06 -0.00020414349 0.0 4.6074992e-06 -0.00019236168999999998 0.0 3.997473e-06 -0.00017663496 0.0 2.4396832e-06 -0.00015619638999999998 0.0 -1.8420246e-07 -0.00013099123 0.0 -3.4911315999999998e-06 -0.00010235969000000001 0.0 -6.6215875e-06 -7.3297226e-05 0.0 -8.7507224e-06 -4.747873e-05 0.0 -9.4733678e-06 -0.00036714709000000003 0.0 9.3926365e-06 -0.0003524468 0.0 9.3532863e-06 -0.00033261755 0.0 8.1303588e-06 -0.0003061399 0.0 5.0596454e-06 -0.00027170613999999996 0.0 -9.5440278e-08 -0.00022910409 0.0 -6.6574203e-06 -0.00018034293000000003 0.0 -1.3015499e-05 -0.0001303598 0.0 -1.750421e-05 -8.5587562e-05 0.0 -1.9262643000000002e-05 -0.0005616101000000001 0.0 1.673175e-05 -0.00054001715 0.0 1.6680588e-05 -0.0005107176799999999 0.0 1.45856e-05 -0.00047138488 0.0 9.3098924e-06 -0.00041997895 0.0 4.0699117999999996e-07 -0.00035600367 0.0 -1.1106847e-05 -0.00028209234 0.0 -2.2604396000000002e-05 -0.00020533808999999997 0.0 -3.0998777e-05 -0.00013592391 0.0 -3.4532426e-05 -0.00029450943 0.0 -4.9463197e-05 -0.00019631348999999998 0.0 -5.5890585e-05 -0.00026588773 0.0 -8.310555099999999e-05 -0.00034946829 0.0 -0.0001156491 -0.00045771626 0.0 -0.00015439881999999998 -0.00060786313 0.0 -0.00020199636999999998 -0.00083017431 0.0 -0.00026369074 -0.0011730662 0.0 -0.00034950834 -0.0017072469 0.0 -0.00047825102 -0.0025148635999999998 0.0 -0.00068432145 -0.0036392512 0.0 -0.0010269064 -0.0050289943 0.0 -0.0015929480999999999 0.0 0.0 0.0 0.0 0.0 0.0 0.0 0.0 0.0 0.0 0.0 0.0 0.0 0.0 0.0 0.0 0.0 0.0 0.0 0.0 0.0 0.0 0.0 0.0 0.0 0.0 0.0 0.0 0.0 0.0 0.0 0.0 0.0 0.0 0.0 0.0 0.0 0.0 0.0 0.0 0.0 0.0 0.0 0.0 0.0 -7.7487996e-08 0.0 -1.3995911999999998e-08 -8.4016394e-09 0.0 -2.2075486e-09 0.0 0.0 0.0 0.0 0.0 0.0 -9.469415e-07 0.0 -2.0411164000000004e-07 -2.9212794e-07 0.0 -9.2732151e-08 -4.045932700000001e-08 0.0 -1.6374520000000002e-08 -1.6590732e-26 0.0 -6.8488965e-27 -4.2680886e-06 0.0 -1.0646488000000001e-06 -1.7809504999999998e-06 0.0 -6.5940327e-07 -5.231257199999999e-07 0.0 -2.5116694e-07 -7.143668099999999e-08 0.0 -3.5416715e-08 -1.2379936e-05 0.0 -3.4930276000000004e-06 -5.8898363e-06 0.0 -2.4800866000000003e-06 -2.2404472000000003e-06 0.0 -1.2354506e-06 -5.7719535e-07 0.0 -3.3689184000000005e-07 -2.7503907e-05 0.0 -8.734059499999999e-06 -1.3997066e-05 0.0 -6.6588459e-06 -6.017758099999999e-06 0.0 -3.7768264e-06 -1.9921401e-06 0.0 -1.3418236e-06 -5.0659120000000006e-05 0.0 -1.8177736e-05 -2.6732274000000004e-05 0.0 -1.4415454e-05 -1.225077e-05 0.0 -8.772664800000001e-06 -4.5800562e-06 0.0 -3.5636399e-06 -8.1380975e-05 0.0 -3.3028206e-05 -4.3754124e-05 0.0 -2.6773771999999998e-05 -2.0715344000000002e-05 0.0 -1.6955502e-05 -8.2259294e-06 0.0 -7.4185427000000005e-06 -0.00011830173 0.0 -5.3924723000000005e-05 -6.4186199e-05 0.0 -4.4263051999999995e-05 -3.0838892e-05 0.0 -2.8682824e-05 -1.256837e-05 0.0 -1.3091382e-05 -0.00016099753000000001 0.0 -8.078626e-05 -8.772801100000001e-05 0.0 -6.688284300000001e-05 -4.23405e-05 0.0 -4.3948923000000005e-05 -1.7358077e-05 0.0 -2.0543865e-05 -0.00021226828999999997 0.0 -0.00011339483 -0.00011584708000000001 0.0 -9.4588657e-05 -5.5875429e-05 0.0 -6.272387700000001e-05 -2.2811424000000002e-05 0.0 -2.9704007999999997e-05 -0.00027867794 0.0 -0.00015257846 -0.00015230716 0.0 -0.00012809558 -7.3402094e-05 0.0 -8.5460983e-05 -2.9811459e-05 0.0 -4.074139e-05 -0.00037241739 0.0 -0.00020096615 -0.00020457643 0.0 -0.00016953425 -9.886454100000001e-05 0.0 -0.00011350811000000002 -4.0118771999999996e-05 0.0 -5.4284403e-05 -0.00051540049 0.0 -0.00026398606 -0.00028630396 0.0 -0.00022339767000000002 -0.00013954136 0.0 -0.00014975916 -5.6966383e-05 0.0 -7.1699316e-05 -0.00074385235 0.0 -0.00035223746 -0.00042066429000000004 0.0 -0.00029878365 -0.00020808306 0.0 -0.00020040968999999998 -8.6099091e-05 0.0 -9.6031385e-05 -0.0011132185 0.0 -0.00048564490999999997 -0.0006445019999999999 0.0 -0.00041325638 -0.00032571807999999997 0.0 -0.00027859647999999997 -0.00013789618 0.0 -0.00013479516 -0.0016887664 0.0 -0.00069978234 -0.0010019686 0.0 -0.0005984049099999999 -0.00052066497 0.0 -0.00041068330999999997 -0.00022921906000000002 0.0 -0.00020646009999999998 -0.0024952993 0.0 -0.0010534942 -0.0015063733 0.0 -0.0009073028300000001 -0.00080704672 0.0 -0.00064689334 -0.00037767267 0.0 -0.00035459059000000003 -0.0034704376 0.0 -0.0016315033 -0.0021119628 0.0 -0.0014211281 -0.0011639325999999999 0.0 -0.0010725806 0.0 0.0 0.0 0.0 0.0 0.0 0.0 0.0 0.0 0.0 0.0 0.0 0.0 0.0 0.0 0.0 0.0 0.0 0.0 0.0 0.0 0.0 0.0 0.0 0.0 0.0 0.0 0.0 0.0 0.0 0.0 0.0 0.0 0.0 0.0 0.0 0.0 0.0 0.0 0.0 0.0 0.0 0.0 0.0 0.0 0.0 0.0 0.0 0.0 0.0 0.0 0.0 0.0 0.0 0.0 0.0 0.0 0.0 0.0 0.0 0.0 0.0 0.0 0.0 0.0 0.0 0.0 0.0 0.0 0.0 0.0 0.0 0.0 0.0 0.0 0.0 0.0 0.0 0.0 0.0 0.0 0.0 0.0 0.0 0.0 0.0 0.0 0.0 0.0 0.0 0.0 0.0 0.0 0.0 0.0 0.0 0.0 0.0 0.0 0.0 0.0 0.0 0.0 0.0 0.0 0.0 0.0 0.0 0.0 0.0 0.0 0.0 0.0 0.0 0.0 0.0 0.0 0.0 0.0 0.0 0.0 0.0 0.0 0.0 0.0 0.0 0.0 0.0 0.0 0.0 0.0 0.0 0.0 0.0 0.0 0.0 0.0 0.0 0.0 0.0 0.0 0.0 0.0 0.0 0.0 0.0 0.0 0.0 0.0 0.0 0.0 0.0 0.0 0.0 0.0 0.0 0.0 0.0 0.0 0.0 0.0 0.0 0.0 0.0 0.0 0.0 0.0 0.0 0.0 0.0 0.0 0.0 0.0 0.0 0.0 0.0 0.0 0.0 0.0 0.0 0.0 0.0 0.0 0.0 0.0 0.0 0.0 0.0 0.0 0.0 0.0 0.0 0.0 0.0 0.0 0.0 0.0 0.0 0.0 0.0 0.0 0.0 0.0 0.0 0.0 0.0 0.0 0.0 0.0 0.0 0.0 0.0 0.0 0.0 0.0 0.0 0.0 0.0 0.0 0.0 0.0 0.0 0.0 0.0 0.0 0.0 0.0 0.0 0.0 0.0 0.0 0.0 0.0 0.0 0.0 0.0 0.0 0.0 0.0 0.0 0.0 0.0 0.0 0.0 0.0 0.0 0.0 0.0 0.0 0.0 0.0 0.0 0.0 0.0 0.0 0.0 0.0 0.0 0.0 0.0 0.0 0.0 0.0 0.0 0.0 0.0 0.0 0.0 0.0 0.0 0.0 0.0 0.0 0.0 0.0 0.0 0.0 0.0 0.0 0.0 0.0 0.0 0.0 0.0 0.0 0.0 0.0 0.0 0.0 0.0 0.0 0.0 0.0 0.0 0.0 0.0 0.0 0.0 0.0 0.0 0.0 0.0 0.0 0.0 0.0 0.0 0.0 0.0 0.0 0.0 0.0 0.0 0.0 0.0 0.0 0.0 0.0 0.0 0.0 0.0 0.0 0.0 0.0 0.0 0.0 0.0 0.0 0.0 0.0 0.0 0.0 0.0 0.0 0.0 0.0 0.0 0.0 0.0 0.0 0.0 0.0 0.0 0.0 0.0 0.0 0.0 0.0 0.0 0.0 0.0 0.0 0.0 0.0 0.0 0.0 0.0 0.0 0.0 0.0 0.0 0.0 0.0 0.0 0.0 0.0 0.0 0.0 0.0 0.0 0.0 0.0 0.0 0.0 0.0 0.0 0.0 0.0 0.0 0.0 0.0 0.0 0.0 0.0 0.0 0.0 0.0 0.0 0.0 0.0 0.0 0.0 0.0 0.0 0.0 0.0 0.0 0.0 0.0 0.0 0.0 0.0 0.0 0.0 0.0 0.0 0.0 0.0 0.0 0.0 0.0 0.0 0.0 0.0 0.0 0.0 0.0 0.0 0.0 0.0 0.0 0.0 0.0 0.0 0.0 0.0 0.0 0.0 0.0 0.0 0.0 0.0 0.0 0.0 0.0 0.0 0.0 0.0 0.0 0.0 0.0 0.0 0.0 0.0 0.0 0.0 0.0 0.0 0.0 0.0 0.0 0.0 0.0 0.0 0.0 0.0 0.0 0.0 0.0 0.0 0.0 0.0 0.0 0.0 0.0 0.0 0.0 0.0 0.0 0.0 0.0 0.0 0.0 0.0 0.0 0.0 0.0 0.0 0.0 0.0 0.0 0.0 0.0 0.0 0.0 0.0 0.0 0.0 0.0 0.0 0.0 0.0 0.0 0.0 0.0 0.0 0.0 0.0 0.0 0.0 0.0 0.0 0.0 0.0 0.0 0.0 0.0 0.0 0.0 0.0 0.0 0.0 0.0 0.0 0.0 0.0 0.0 0.0 0.0 0.0 0.0 0.0 0.0 0.0 0.0 0.0 0.0 0.0 0.0 0.0 0.0 0.0 0.0 0.0 0.0 0.0 0.0 0.0 0.0 0.0 0.0 0.0 0.0 0.0 0.0 0.0 0.0 0.0 0.0 0.0 0.0 0.0 0.0 0.0 0.0 0.0 0.0 0.0 0.0 0.0 0.0 0.0 0.0 0.0 0.0 0.0 0.0 0.0 0.0 0.0 0.0 0.0 0.0 0.0 0.0 0.0 0.0 0.0 0.0 0.0 0.0 0.0 0.0 0.0 0.0 0.0 0.0 0.0 0.0 0.0 0.0 0.0 0.0 0.0 0.0 0.0 0.0 0.0 0.0 0.0 0.0 0.0 0.0 0.0 0.0 0.0 0.0 0.0 0.0 0.0 0.0 0.0 0.0 0.0 0.0 0.0 0.0 0.0 0.0 0.0 0.0 0.0 0.0 0.0 0.0 0.0 0.0 0.0 0.0 0.0 0.0 0.0 0.0 0.0 0.0 0.0 0.0 0.0 0.0 0.0 0.0 0.0 0.0 0.0 0.0 0.0 0.0 0.0 0.0 0.0 0.0 0.0 0.0 0.0 0.0 0.0 0.0 0.0 0.0 0.0 0.0 0.0 0.0 0.0 0.0 0.0 0.0 0.0 0.0 0.0 0.0 0.0 0.0 0.0 0.0 0.0 0.0 0.0 0.0 0.0 0.0 0.0 0.0 0.0 0.0 0.0 0.0 0.0 0.0 0.0 0.0 0.0 0.0 0.0 0.0 0.0 0.0 0.0 0.0 0.0 0.0 0.0 0.0 0.0 0.0 0.0 0.0 0.0 0.0 0.0 0.0 0.0 0.0 0.0 0.0 0.0 0.0 0.0 0.0 0.0 0.0 0.0 0.0 0.0 0.0 0.0 0.0 0.0 0.0 0.0 0.0 0.0 0.0 0.0 0.0 0.0 0.0 0.0 0.0 0.0 0.0 0.0 0.0 0.0 0.0 0.0 0.0 0.0 0.0 0.0 0.0 0.0 0.0 0.0 0.0 0.0 0.0 0.0 0.0 0.0 0.0 0.0 0.0 0.0 0.0 0.0 0.0 0.0 0.0 0.0 0.0 0.0 0.0 0.0 0.0 0.0 0.0 0.0 0.0 0.0 0.0 0.0 0.0 0.0 0.0 0.0 0.0 0.0 0.0 0.0 0.0 0.0 0.0 0.0 0.0 0.0 0.0 0.0 0.0 0.0 0.0 0.0 0.0 0.0 0.0 0.0 0.0 0.0 0.0 0.0 0.0 0.0 0.0 0.0 0.0 0.0 0.0 0.0 0.0 0.0 0.0 0.0 0.0 0.0 0.0 0.0 0.0 0.0 0.0 0.0 0.0 0.0 0.0 0.0 0.0 0.0 0.0 0.0 0.0 0.0 0.0 0.0 0.0 0.0 0.0 0.0 0.0 0.0 0.0 0.0 0.0 0.0 0.0 0.0 0.0 0.0 0.0 0.0 0.0 0.0 0.0 0.0 0.0 0.0 0.0 0.0 0.0 0.0 0.0 0.0 0.0 0.0 0.0 0.0 0.0 0.0 0.0 0.0 0.0 0.0 0.0 0.0 0.0 0.0 0.0 0.0 0.0 0.0 0.0 0.0 0.0 0.0 0.0 0.0 0.0 0.0 0.0 0.0 0.0 0.0 0.0 0.0 0.0 0.0 0.0 0.0 0.0 0.0 0.0 0.0 0.0 0.0 0.0 0.0 0.0 0.0 0.0 0.0 0.0 0.0 0.0 0.0 0.0 0.0 0.0 0.0 0.0 0.0 0.0 0.0 0.0 0.0 0.0 0.0 0.0 0.0 0.0 0.0 0.0 0.0 0.0 0.0 0.0 0.0 0.0 0.0 0.0 0.0 0.0 0.0 0.0 0.0 0.0 0.0 0.0 0.0 0.0 0.0 0.0 0.0 0.0 0.0 0.0 0.0 0.0 0.0 0.0 0.0 0.0 0.0 0.0 0.0 0.0 0.0 0.0 0.0 0.0 0.0 0.0 0.0 0.0 0.0 0.0 0.0 0.0 0.0 0.0 0.0 0.0 0.0 0.0 0.0 0.0 0.0 0.0 0.0 0.0 0.0 0.0 0.0 0.0 0.0 0.0 0.0 0.0 0.0 0.0 0.0 0.0 0.0 0.0 0.0 0.0 0.0 0.0 0.0 0.0 0.0 0.0 0.0 0.0 0.0 0.0 0.0 0.0 0.0 0.0 0.0 0.0 0.0 0.0 0.0 0.0 0.0 0.0 0.0 0.0 0.0 0.0 0.0 0.0 0.0 0.0 0.0 0.0 0.0 0.0 0.0 0.0 0.0 0.0 0.0 0.0 0.0 0.0 0.0 0.0 0.0 0.0 0.0 0.0 0.0 0.0 0.0 0.0 0.0 0.0 0.0 0.0 0.0 0.0 0.0 0.0 0.0 0.0 0.0 0.0 0.0 0.0 0.0 0.0 0.0 0.0 0.0 0.0 0.0 0.0 0.0 0.0 0.0 0.0 0.0 0.0 0.0 0.0 0.0 0.0 0.0 0.0 0.0 0.0 0.0 0.0 0.0 0.0 0.0 0.0 0.0 0.0 0.0 0.0 0.0 0.0 0.0 0.0 0.0 0.0 0.0 0.0 0.0 0.0 0.0 0.0 0.0 0.0 0.0 0.0 0.0 0.0 0.0 0.0 0.0 0.0 0.0 0.0 0.0 0.0 0.0 0.0 0.0 0.0 0.0 0.0 0.0 0.0 0.0 0.0 0.0 0.0 0.0 0.0 0.0 0.0 0.0 0.0 0.0 0.0 0.0 0.0 0.0 0.0 0.0 0.0 0.0 0.0 0.0 0.0 0.0 0.0 0.0 0.0 0.0 0.0 0.0 0.0 0.0 0.0 0.0 0.0 0.0 0.0 0.0 0.0 0.0 0.0 0.0 0.0 0.0 0.0 0.0 0.0 0.0 0.0 0.0 0.0 0.0 0.0 0.0 0.0 0.0 0.0 0.0 0.0 0.0 0.0 0.0 0.0 0.0 0.0 0.0 0.0 0.0 0.0 0.0 0.0 0.0 0.0 0.0 0.0 0.0 0.0 0.0 0.0 0.0 0.0 0.0 0.0 0.0 0.0 0.0 0.0 0.0 0.0 0.0 0.0 0.0 0.0 0.0 0.0 0.0 0.0 0.0 0.0 0.0 0.0 0.0 0.0 0.0 0.0 0.0 0.0 0.0 0.0 0.0 0.0 0.0 0.0 0.0 0.0 0.0 0.0 0.0 0.0 0.0 0.0 0.0 0.0 0.0 0.0 0.0 0.0 0.0 0.0 0.0 0.0 0.0 0.0 0.0 0.0 0.0 0.0 0.0 0.0 0.0 0.0 0.0 0.0 0.0 0.0 0.0 0.0 0.0 0.0 0.0 0.0 0.0 0.0 0.0 0.0 0.0 0.0 0.0 0.0 0.0 0.0 0.0 0.0 0.0 0.0 0.0 0.0 0.0 0.0 0.0 0.0 0.0 0.0 0.0 0.0 0.0 0.0 0.0 0.0 0.0 0.0 0.0 0.0 0.0 0.0 0.0 0.0 0.0 0.0 0.0 0.0 0.0 0.0 0.0 0.0 0.0 0.0 0.0 0.0 0.0 0.0 0.0 0.0 0.0 0.0 0.0 0.0 0.0 0.0 0.0 0.0 0.0 0.0 0.0 0.0 0.0 0.0 0.0 0.0 0.0 0.0 0.0 0.0 0.0 0.0 0.0 0.0 0.0 0.0 0.0 0.0 0.0 0.0 0.0 0.0 0.0 0.0 0.0 0.0 0.0 0.0 0.0 0.0 0.0 0.0 0.0 0.0 0.0 0.0 0.0 0.0 0.0 0.0 0.0 0.0 0.0 0.0 0.0 0.0 0.0 0.0 0.0 0.0 0.0 0.0 0.0 0.0 0.0 0.0 0.0 0.0 0.0 0.0 -0.00040105035000000003 0.0 -3.475451e-05 -0.0005025685500000001 0.0 -1.6518623e-05 -0.0005898393 0.0 1.6176955000000002e-06 -0.00065940357 0.0 1.5442401e-05 -0.00071210851 0.0 2.3561739e-05 -0.00039656076 0.0 -6.8455876e-05 -0.00053652818 0.0 -4.9427221e-05 -0.00066863693 0.0 -2.2512933e-05 -0.0007810927900000001 0.0 3.7125756000000003e-06 -0.0008695852 0.0 2.3472057e-05 -0.0009355761599999999 0.0 3.4942357e-05 -0.0005193782900000001 0.0 -9.426217000000001e-05 -0.00070054212 0.0 -6.6452019e-05 -0.0008697478300000001 0.0 -2.898301e-05 -0.0010116674 0.0 6.882224599999999e-06 -0.0011213399000000001 0.0 3.3559765e-05 -0.0012013916 0.0 4.8795315e-05 -0.00067846384 0.0 -0.00012471704 -0.00091224728 0.0 -8.6360604e-05 -0.0011282088 0.0 -3.6010788e-05 -0.0013064228 0.0 1.1447428e-05 -0.0014412769 0.0 4.6234618e-05 -0.0015372507 0.0 6.5688175e-05 -0.0008967322099999999 0.0 -0.00016148484 -0.001197388 0.0 -0.0001100151 -0.0014715713 0.0 -4.3665117e-05 -0.0016944993 0.0 1.7991111e-05 -0.0018599513 0.0 6.2493215e-05 -0.0019745259 0.0 8.6803215e-05 -0.0012186371 0.0 -0.00020707741999999998 -0.0015997882999999999 0.0 -0.00013841591 -0.0019400199 0.0 -5.1446396999999994e-05 -0.0022121695999999997 0.0 2.7997462999999996e-05 -0.0024115422 0.0 8.4265943e-05 -0.0025471572 0.0 0.00011420961999999999 -0.0017232837 0.0 -0.00026473452 -0.0021938664999999998 0.0 -0.00017191036 -0.0025958904999999997 0.0 -5.6897698000000004e-05 -0.0029102077000000004 0.0 4.5577515e-05 -0.0031382693 0.0 0.00011596871000000001 -0.0032928064000000003 0.0 0.00015184893999999998 -0.0025355746 0.0 -0.00033806276 -0.0030886033 0.0 -0.00020894517 -0.0035256898999999997 0.0 -5.343285e-05 -0.0038557248 0.0 7.9989877e-05 -0.0040939436 0.0 0.00016694641 -0.0042569167 0.0 0.00020749627 -0.0038176789 0.0 -0.00043041072999999995 -0.0044117374 0.0 -0.00024355708999999998 -0.004825836500000001 0.0 -2.6962342e-05 -0.0051245004999999995 0.0 0.00014889603999999998 -0.0053421026 0.0 0.00025402557 -0.0054952013000000004 0.0 0.00029475751 -0.0056941081 0.0 -0.00054367987 -0.006253020400000001 0.0 -0.0002612684 -0.0065685273 0.0 4.9580296e-05 -0.0067848014 0.0 0.00028206699 -0.0069502908999999995 0.0 0.00040335982000000003 -0.0070734759999999995 0.0 0.00043402212999999997 -0.0081025735 0.0 -0.00067225 -0.0085840244 0.0 -0.00023320061 -0.0087688584 0.0 0.00022033375 -0.0088851983 0.0 0.00052296079 -0.0089855744 0.0 0.00065030932 -0.0090658218 0.0 0.0006515511799999999 -0.010752768000000001 0.0 -0.0005702605700000001 -0.011280183000000001 0.0 -3.8289494e-05 -0.011411808999999998 0.0 0.00056479324 -0.01147139 0.0 0.00092797959 -0.011522228 0.0 0.0010344689999999999 -0.011556887 0.0 0.0009756723300000001 -0.013715543 0.0 0.00037658331 -0.01436698 0.0 0.0006339277 -0.014559966 0.0 0.0012128886 -0.014632059 0.0 0.0015573729 -0.01465969 0.0 0.0015912242 -0.014648431000000002 0.0 0.0014308839999999999 -0.01736276 0.0 0.0020978458 -0.018115336 0.0 0.0019156167000000002 -0.018410539 0.0 0.0022407384 -0.01852322 0.0 0.0024477795 -0.018532325 0.0 0.0023413124 -0.018463273 0.0 0.0020330701999999997 -0.02211499 0.0 0.0041596163 -0.022881602999999997 0.0 0.0036257938000000003 -0.023225844 0.0 0.0036085746 -0.023341522000000003 0.0 0.0035901289 -0.023300803999999998 0.0 0.0032862644 -0.023144335 0.0 0.002789787 -0.028317781 0.0 0.0063152993000000004 -0.02895914 0.0 0.0055333227 -0.029241784 0.0 0.0052130958 -0.029283867999999998 0.0 0.0049545243 -0.029140847 0.0 0.0044245757 -0.02885469 0.0 0.0037068743 -0.036119681 0.0 0.0085219517 -0.036516741 0.0 0.0075675976 -0.036643852000000005 0.0 0.007008662 -0.036547005 0.0 0.006534190400000001 -0.036250263 0.0 0.0057686521 -0.03578449 0.0 0.0047950987 -0.045545887 0.0 0.010999916 -0.045693297 0.0 0.0098329457 -0.045644335 0.0 0.00907123 -0.04537376 0.0 0.008375858 -0.044871677 0.0 0.0073448503000000005 -0.04415866400000001 0.0 0.0060675595999999995 -0.056812975999999994 0.0 0.013985883000000001 -0.05680165400000001 0.0 0.01252305 -0.056583997000000004 0.0 0.011498834 -0.056091953 0.0 0.010539596000000002 -0.055297907 0.0 0.0091814334 -0.05423014599999999 0.0 0.0075322422 -0.070552081 0.0 0.01775324 -0.070382461 0.0 0.015821351 -0.069920197 0.0 0.014374699 -0.06908147 0.0 0.013054159 -0.067845292 0.0 0.011285749 -0.066268891 0.0 0.0091876918 -0.087472126 0.0 0.02250367 -0.086999699 0.0 0.019805415 -0.086114593 0.0 0.017693939 -0.084727205 0.0 0.015899055 -0.082837433 0.0 0.013638777 -0.080549337 0.0 0.011019077 -0.10818885 0.0 0.028380072000000003 -0.10718412 0.0 0.02440884 -0.10561427 0.0 0.021350618 -0.10339741 0.0 0.018995118999999998 -0.10057576 0.0 0.016191971 -0.097324595 0.0 0.013003906 -0.133255 0.0 0.035351343 -0.13138621 0.0 0.029438285 -0.12877227 0.0 0.025110498 -0.12536174 0.0 0.022204078999999998 -0.12126872 0.0 0.01887905 -0.11676636 0.0 0.015135828 -0.16293581 0.0 0.04321848599999999 -0.15976736 0.0 0.034425858 -0.15566161 0.0 0.028629869 -0.15063009 0.0 0.025375141 -0.14489138 0.0 0.021665507999999997 -0.138842 0.0 0.017476728 -0.19683114 0.0 0.051503398 -0.19187109 0.0 0.038618974 -0.18578938 0.0 0.031535503 -0.17870319 0.0 0.028459482 -0.17096598 0.0 0.024663148 -0.16311364 0.0 0.020236202 -0.23339574 0.0 0.059164460999999995 -0.22619963 0.0 0.041021224 -0.21772787 0.0 0.033512457999999995 -0.20825289 0.0 0.031672843 -0.19828139 0.0 0.028278539 -0.18848175 0.0 0.023893612999999998 -0.26943886 0.0 0.064743176 -0.25977004 0.0 0.04097506 -0.24873066 0.0 0.034911542999999996 -0.23679169 0.0 0.035771273 -0.22460471 0.0 0.033438828 -0.21293084 0.0 0.029363427 -0.29976571 0.0 0.066756606 -0.28781718 0.0 0.03815436 -0.27449811 0.0 0.036799125 -0.26048663 0.0 0.042350639 -0.24652331 0.0 0.041787911000000004 -0.23338279 0.0 0.038148474 -0.31708556 0.0 0.064336054 -0.30373025 0.0 0.03392262 -0.28914127 0.0 0.04145328 -0.27413481 0.0 0.053865265 -0.25941679 0.0 0.055629755999999995 -0.24566004 0.0 0.05232108 -0.31229746 0.0 0.058782887 -0.29920733 0.0 0.03168745 -0.28517041 0.0 0.052581508 -0.27099779 0.0 0.072926916 -0.25718832 0.0 0.077301279 -0.24417169 0.0 0.074095756 -0.27557799 0.0 0.054765228 -0.26502597 0.0 0.040126998 -0.25391549 0.0 0.074086495 -0.24288316 0.0 0.10080574 -0.23208387 0.0 0.10814518 -0.22159827 0.0 0.10531966 -0.1989121 0.0 0.062185198 -0.19325989 0.0 0.068805419 -0.18743747 0.0 0.10744978 -0.18181697 0.0 0.13778266 -0.17615199 0.0 0.14927284 -0.17010497 0.0 0.14667387 -0.080056243 0.0 0.09423749099999999 -0.081098042 0.0 0.13298543 -0.082319319 0.0 0.17399241 -0.083744489 0.0 0.19080411 -0.084736362 0.0 0.20013557 -0.084582478 0.0 0.19693811 0.07333234 0.0 0.13945973 0.064976357 0.0 0.23145944 0.056129545 0.0 0.27640676 0.047294937 0.0 0.26105273 0.039366797 0.0 0.25893638 0.033201762 0.0 0.25267574 0.24128449 0.0 0.17227019 0.22688571 0.0 0.31610447 0.21164499 0.0 0.3785322 0.19673811 0.0 0.33433646 0.18307157 0.0 0.31803095 0.17136891 0.0 0.30802801 0.39371625 0.0 0.17841652 0.37671369 0.0 0.35910454 0.35832334 0.0 0.44813839 0.34020892 0.0 0.39252803 0.32312968 0.0 0.36847427 0.30756375 0.0 0.35662884 0.50112653 0.0 0.15675561 0.48534715 0.0 0.3520138 0.46775904 0.0 0.47375011 0.44970787 0.0 0.42536163 0.43175793 0.0 0.40414289 0.41428539 0.0 0.39386156 0.54914963 0.0 0.13083513 0.53675264 0.0 0.33001021 0.52248722 0.0 0.47080097 0.50678366 0.0 0.43839669 0.4899089 0.0 0.42563486 0.47226703 0.0 0.41873074 0.54401392 0.0 0.11396185 0.53546792 0.0 0.31152114 0.52510571 0.0 0.46327332 0.51257956 0.0 0.44309977 0.49782547 0.0 0.43707916 0.48124564 0.0 0.43295446 0.50559741 0.0 0.10769662 0.50037283 0.0 0.30212474 0.49333414 0.0 0.45755938 0.48372141 0.0 0.44369465 0.47125599 0.0 0.44145635 0.45630682 0.0 0.4389621 0.45566031 0.0 0.11087359 0.45270962 0.0 0.30235568 0.44790158 0.0 0.45542842 0.44039351 0.0 0.4423188 0.42982221 0.0 0.44101498 0.41650647 0.0 0.43899256 0.40865424 0.0 0.12022484 0.40679055 0.0 0.30925024 0.40306425 0.0 0.45625067 0.39672476 0.0 0.43952355 0.38740507 0.0 0.43687445 0.37537012 0.0 0.43442488 0.36861303 0.0 0.12715814 0.36682016 0.0 0.31189263 0.36322337 0.0 0.45230839 0.35721195 0.0 0.43290895 0.3484495 0.0 0.42886409 0.33716965 0.0 0.42571136 0.33184758 0.0 0.12994318 0.3294194 0.0 0.30803573 0.32525048 0.0 0.4419252 0.31886297 0.0 0.42165965 0.30998114 0.0 0.41668347 0.2988621 0.0 0.41283038 0.29268828 0.0 0.12984702 0.28914019 0.0 0.29835144 0.28383946 0.0 0.42480212 0.27643117 0.0 0.40553862 0.26675543 0.0 0.40017685 0.25519681 0.0 0.39574653 0.24862054 0.0 0.1279386 0.24349713 0.0 0.28415635 0.23650046 0.0 0.40153861 0.22740537 0.0 0.38485259 0.21627511 0.0 0.37956986 0.20376009 0.0 0.37471515 0.20210031 0.0 0.12472849 0.19487467 0.0 0.26607087 0.18554437 0.0 0.37338531 0.17408226 0.0 0.36033961 0.1609372 0.0 0.35551822 0.14716905 0.0 0.35037848 0.1589072 0.0 0.12080178 0.14899892 0.0 0.24712889 0.13670279 0.0 0.34338874 0.12232605 0.0 0.33317471 0.10687396 0.0 0.32905155 0.091846816 0.0 0.32372886 0.12469077 0.0 0.11722163 0.11160073 0.0 0.2285569 0.09595050699999999 0.0 0.31374869 0.078478247 0.0 0.30475548 0.060734313 0.0 0.301393 0.044542942 0.0 0.29595843 0.1017025 0.0 0.11167092 0.08529447 0.0 0.21043779 0.0663637 0.0 0.28535143 0.046089694 0.0 0.27659628 0.026393924 0.0 0.27400151 0.0092125162 0.0 0.26840031 0.088292599 0.0 0.10219753 0.068756521 0.0 0.19112024 0.046984896 0.0 0.25794926 0.024629228 0.0 0.25062567 0.0037683002 0.0 0.24842834 -0.013883547 0.0 0.24251331 0.080931462 0.0 0.08988338 0.058124986 0.0 0.16960979 0.033908247999999995 0.0 0.2323292 0.01054325 0.0 0.22851926 -0.010129018 0.0 0.22620288 -0.027163805 0.0 0.2196096 0.079871207 0.0 0.084894493 0.050459950999999996 0.0 0.15195316 0.022786306 0.0 0.21152569 -0.00050345063 0.0 0.21154732 -0.019120097 0.0 0.20814618 -0.033921058999999996 0.0 0.20043975 0.087535061 0.0 0.094141461 0.044187501 0.0 0.14514644 0.011268758 0.0 0.19768365 -0.011444822 0.0 0.19994055 -0.026157226000000002 0.0 0.19419087 -0.036973491000000004 0.0 0.18520308 0.10130028 0.0 0.10834068 0.039958753 0.0 0.14404994 0.00044901464999999997 0.0 0.18830441 -0.022488711 0.0 0.19281743 -0.03239724 0.0 0.18393059 -0.037980042 0.0 0.17352532 0.038926903 0.0 0.13765492 -0.0057099238 0.0 0.17601006 -0.030329518 0.0 0.18643819 -0.037388686000000004 0.0 0.17675298 -0.037536345 0.0 0.16456528 0.043417002999999996 0.0 0.12969734 -0.0034193529 0.0 0.16086933 -0.030413784 0.0 0.17735301 -0.038911782 0.0 0.17054792 -0.03586008 0.0 0.15741862 0.0089643337 0.0 0.14691539 -0.020145059 0.0 0.16636929 -0.033666238 0.0 0.16438752 -0.032332547 0.0 0.15129524 0.029589353 0.0 0.13470843 0.0011375116000000001 0.0 0.15524678 -0.018055165 0.0 0.15815131 -0.023924815 0.0 0.14653158 0.028527411000000003 0.0 0.14420411 0.0086945165 0.0 0.15179424 -0.0053418959 0.0 0.14335957 0.040423278 0.0 0.14381577 0.024684466000000002 0.0 0.14094363 0.059754808 0.0 0.13352253 0.056616709 0.0 0.13674016 -0.00075093179 0.0 2.673545e-05 -0.00077921315 0.0 2.6740237000000003e-05 -0.00079964311 0.0 2.5227411000000002e-05 -0.0008141692999999999 0.0 2.3137604999999997e-05 -0.00082430977 0.0 2.0951342e-05 -0.0008312435199999999 0.0 1.8934634e-05 -0.00083584536 0.0 1.7245817e-05 -0.00083873392 0.0 1.5979353e-05 -0.0008403147199999999 0.0 1.5195566e-05 -0.0009833324 0.0 3.930851e-05 -0.0010174962 0.0 3.9164268e-05 -0.001041719 0.0 3.690369e-05 -0.0010585801 0.0 3.3853357e-05 -0.0010700723 0.0 3.0656083e-05 -0.0010777356 0.0 2.7698154e-05 -0.0010826965 0.0 2.521627e-05 -0.0010857403 0.0 2.3353623e-05 -0.0010873772000000001 0.0 2.2200787e-05 -0.0012579635000000001 0.0 5.4369393e-05 -0.0012974472 0.0 5.3909247e-05 -0.0013247193 0.0 5.0697603e-05 -0.0013431351000000001 0.0 4.6478900999999996e-05 -0.0013552561999999998 0.0 4.2057713000000004e-05 -0.0013630311999999999 0.0 3.7958325e-05 -0.0013678599 0.0 3.4512745e-05 -0.0013707066 0.0 3.1925123e-05 -0.0013721872 0.0 3.0323579e-05 -0.0016031582 0.0 7.2429233e-05 -0.0016477570000000001 0.0 7.140667e-05 -0.001677515 0.0 6.6969384e-05 -0.0016967845000000002 0.0 6.1297622e-05 -0.0017088319 0.0 5.5365392e-05 -0.0017160836 0.0 4.9856833e-05 -0.00172026 0.0 4.5219509e-05 -0.0017225248999999999 0.0 4.1734653e-05 -0.0017236148 0.0 3.9577779e-05 -0.0020506677999999998 0.0 9.468149799999999e-05 -0.0021003182 0.0 9.2764036e-05 -0.0021320134 0.0 8.6693537e-05 -0.0021513901 0.0 7.9125326e-05 -0.0021625659 0.0 7.123797e-05 -0.0021685497 0.0 6.3908017e-05 -0.0021714456 0.0 5.7729449000000004e-05 -0.0021726575 0.0 5.3083782e-05 -0.0021730664 0.0 5.0208680000000005e-05 -0.0026343158 0.0 0.00012316497 -0.0026886760999999997 0.0 0.00011986646999999999 -0.0027214729 0.0 0.00011151558999999999 -0.0027399051 0.0 0.00010134656999999999 -0.0027491122 0.0 9.079662399999999e-05 -0.0027528033 0.0 8.0991413e-05 -0.0027535532000000002 0.0 7.2720235e-05 -0.0027530640000000004 0.0 6.6500659e-05 -0.0027523928000000005 0.0 6.265274000000001e-05 -0.0033903907 0.0 0.0001612589 -0.0034483084000000003 0.0 0.00015558921 -0.0034806607000000002 0.0 0.00014383908000000002 -0.0034964501 0.0 0.00012993057 -0.0035020084999999998 0.0 0.00011560058 -0.0035018851 0.0 0.00010230036 -0.0034992278000000004 0.0 9.108735699999999e-05 -0.0034960985999999998 0.0 8.266249599999999e-05 -0.00349377 0.0 7.7455181e-05 -0.004360023 0.0 0.00021480839 -0.0044187438 0.0 0.00020432373 -0.0044478299 0.0 0.00018705316000000002 -0.0044581965 0.0 0.00016749396000000002 -0.0044575091 0.0 0.0001476272 -0.0044513009 0.0 0.00012928482 -0.004443381 0.0 0.00011386754 -0.0044362494 0.0 0.00010231129000000001 -0.0044314316 0.0 9.5181909e-05 -0.0055936282 0.0 0.00029364825 -0.00564725 0.0 0.00027285187 -0.00566831 0.0 0.0002459308 -0.0056688776 0.0 0.00021743859 -0.0056580458999999994 0.0 0.00018928028000000002 -0.005642418299999999 0.0 0.00016360242 -0.0056265807 0.0 0.00014216977 -0.0056135138 0.0 0.00012618072 -0.0056050387 0.0 0.00011634813999999999 -0.0071537192 0.0 0.00041245447999999996 -0.0071927397999999995 0.0 0.00037105852999999995 -0.0071983216 0.0 0.00032701195 -0.0071825339 0.0 0.00028409988999999997 -0.0071558775 0.0 0.00024341042 -0.007126105 0.0 0.000207082 -0.0070986166000000005 0.0 0.00017712584 -0.0070769503 0.0 0.00015495086 -0.007063216999999999 0.0 0.0001413804 -0.0091144349 0.0 0.00059001922 -0.0091263251 0.0 0.0005117339900000001 -0.009105565999999999 0.0 0.00043857825 -0.009064015 0.0 0.00037271308 -0.0090135289 0.0 0.0003132525 -0.008963049399999999 0.0 0.00026166067 -0.008918833000000001 0.0 0.00021984556 -0.0088849571 0.0 0.00018922904999999998 -0.0088638198 0.0 0.00017061879 -0.011561736000000001 0.0 0.0008466777499999999 -0.011531178999999999 0.0 0.00070906163 -0.011469338999999999 0.0 0.00058989733 -0.01138912 0.0 0.00048901624 -0.011303888 0.0 0.00040219634 -0.011223841000000002 0.0 0.00032925693 -0.011156118999999999 0.0 0.00027137285 -0.011105278 0.0 0.00022957327 -0.011073936000000001 0.0 0.00020438206000000003 -0.014595585 0.0 0.0012006923 -0.014503505 0.0 0.0009763304300000001 -0.014381494 0.0 0.0007898430900000001 -0.014245588 0.0 0.0006384828599999999 -0.014111175 0.0 0.0005134113599999999 -0.013989951 0.0 0.00041163634 -0.013889947 0.0 0.00033271892 -0.013816076000000002 0.0 0.00027664002999999997 -0.013770983999999998 0.0 0.00024318761000000002 -0.018331852 0.0 0.0016654670000000001 -0.018153738 0.0 0.0013238575 -0.017947335 0.0 0.001045409 -0.017733857 0.0 0.00082543842 -0.017531725 0.0 0.00064945017 -0.017354563 0.0 0.00051038183 -0.017211253 0.0 0.00040508341 -0.017106829 0.0 0.00033157723 -0.017043626 0.0 0.0002882437 -0.022903714 0.0 0.0022493352 -0.022608072000000003 0.0 0.0017580359 -0.0222866 0.0 0.001360739 -0.021967782 0.0 0.0010524666 -0.021674633 0.0 0.0008121036200000001 -0.02142323 0.0 0.00062716135 -0.021223227999999997 0.0 0.00049044163 -0.021079237 0.0 0.00039682388999999995 -0.02099278 0.0 0.00034237446000000006 -0.028464452999999997 0.0 0.0029576963 -0.02801045 0.0 0.0022815603 -0.027534417999999998 0.0 0.0017370764 -0.027075181 0.0 0.0013204926000000001 -0.026662243999999998 0.0 0.0010028603 -0.026314566 0.0 0.00076459209 -0.026042087000000002 0.0 0.0005927342 -0.025848184 0.0 0.0004775274400000001 -0.025732676 0.0 0.00041156204 -0.03519126 0.0 0.0037948631 -0.034523841 0.0 0.0028945045 -0.03384196 0.0 0.0021736219 -0.033198491000000004 0.0 0.0016298932999999998 -0.032630991 0.0 0.0012244008000000001 -0.032161292 0.0 0.0009280743 -0.031798456 0.0 0.0007199777799999999 -0.031543214 0.0 0.00058382202 -0.03139244 0.0 0.00050731527 -0.043285526 0.0 0.0047632735 -0.042330001 0.0 0.0035953554 -0.041376427 0.0 0.0026693689 -0.04049509 0.0 0.0019830464999999998 -0.039732244 0.0 0.0014836267 -0.039111391 0.0 0.0011290915 -0.038638845 0.0 0.00088764192 -0.038310397 0.0 0.0007342100099999999 -0.038118027 0.0 0.00065002014 -0.052968659 0.0 0.0058628134 -0.05162704 0.0 0.0043823193 -0.050320178 0.0 0.0032264031 -0.049137626 0.0 0.002388946 -0.048133351 0.0 0.0017968825 -0.047329962 0.0 0.0013904403 -0.04672772099999999 0.0 0.00112361 -0.046314422 0.0 0.0009601773300000001 -0.046074566 0.0 0.00087328797 -0.064475909 0.0 0.0070898826 -0.062626243 0.0 0.0052566864 -0.060869875999999996 0.0 0.003856285 -0.059314887999999996 0.0 0.0028710139000000003 -0.058019675 0.0 0.0021979986 -0.057001672999999996 0.0 0.0017537565 -0.056250419 0.0 0.001474785 -0.055741679 0.0 0.0013118882999999999 -0.055449310999999994 0.0 0.0012290178999999999 -0.078047171 0.0 0.0084402673 -0.075546913 0.0 0.006231259100000001 -0.073234767 0.0 0.0045916242999999995 -0.071232513 0.0 0.0034794286 -0.069596685 0.0 0.002749684 -0.068333223 0.0 0.0022891937 -0.067415506 0.0 0.0020149052 -0.066802412 0.0 0.0018643738 -0.066453673 0.0 0.001792512 -0.093906984 0.0 0.009922110500000001 -0.090602078 0.0 0.0073478576 -0.08762665800000001 0.0 0.0055049183 -0.085105456 0.0 0.0043085702 -0.083083645 0.0 0.0035580134 -0.081547648 0.0 0.0031064088 -0.08044879099999999 0.0 0.0028523209 -0.079724386 0.0 0.0027228182 -0.07931643 0.0 0.0026661921000000004 -0.11221422 0.0 0.011584461 -0.1079543 0.0 0.0087066144 -0.10421988 0.0 0.0067350902 -0.10112065 0.0 0.005518569599999999 -0.098676592 0.0 0.0047881845 -0.09684717699999999 0.0 0.0043649045 -0.09555575300000001 0.0 0.0041358438 -0.094714589 0.0 0.0040251007 -0.094245501 0.0 0.0039801085 -0.13294886 0.0 0.013564011 -0.12760851 0.0 0.010505571000000002 -0.1230461 0.0 0.0085179685 -0.11933044 0.0 0.007356151899999999 -0.11644195 0.0 0.0066769761 -0.11430521 0.0 0.006279691600000001 -0.11281309 0.0 0.0060554523999999995 -0.11185046 0.0 0.0059392313 -0.11131781 0.0 0.005887567099999999 -0.15572031 0.0 0.016147453 -0.14922018 0.0 0.013083108999999999 -0.14379866 0.0 0.011211663 -0.13945431 0.0 0.010167180999999999 -0.13611321 0.0 0.0095356526 -0.13366134 0.0 0.009117730899999999 -0.13196075 0.0 0.0088344179 -0.1308706 0.0 0.0086528426 -0.13027036 0.0 0.0085532935 -0.17952006 0.0 0.019846205 -0.17184463 0.0 0.016955426000000003 -0.16557431 0.0 0.01530748 -0.16061236 0.0 0.014392146000000001 -0.1568203 0.0 0.013738453999999999 -0.15404615 0.0 0.013182585 -0.15212564 0.0 0.012711798 -0.15089644 0.0 0.012354078000000001 -0.15022065 0.0 0.012133082 -0.20248687 0.0 0.025498767999999998 -0.19371277 0.0 0.022855576000000002 -0.18664926 0.0 0.021426167000000003 -0.18109924 0.0 0.020543653999999998 -0.17686146 0.0 0.019695208999999998 -0.17375296 0.0 0.018788304 -0.17159179 0.0 0.017917575 -0.17020237 0.0 0.017207343 -0.16943565 0.0 0.016749556999999998 -0.22177523 0.0 0.034385543 -0.21211468 0.0 0.031793546 -0.20438115 0.0 0.030325256000000002 -0.19830148 0.0 0.029184598 -0.19363351 0.0 0.027822716 -0.19017956 0.0 0.026232585 -0.18775168 0.0 0.024649866 -0.18617256 0.0 0.02333346 -0.18529254 0.0 0.02247433 -0.23351285 0.0 0.048243184 -0.2233728 0.0 0.04508977 -0.21520922 0.0 0.042924017 -0.20872852 0.0 0.040931168999999996 -0.2036912 0.0 0.038533202999999995 -0.19990997 0.0 0.035783205 -0.19720857 0.0 0.033064421000000004 -0.19542135 0.0 0.030803179 -0.19441076 0.0 0.029324118 -0.23248063 0.0 0.069031186 -0.22253577 0.0 0.064263783 -0.21437618 0.0 0.060270965 -0.20776929 0.0 0.05644783 -0.20253347 0.0 0.05223123 -0.19852854 0.0 0.047673959 -0.19561185 0.0 0.043273742999999996 -0.19364476 0.0 0.039641164 -0.19251433 0.0 0.037268784 -0.21175405 0.0 0.098424867 -0.20299637 0.0 0.09066831300000001 -0.1955363 0.0 0.083327971 -0.18929878 0.0 0.07633825400000001 -0.18421942 0.0 0.06925970299999999 -0.18024558 0.0 0.062079005 -0.17729166 0.0 0.05533969 -0.17526242 0.0 0.04983167 -0.1740789 0.0 0.046244796 -0.1637155 0.0 0.1370874 -0.15739964 0.0 0.12488683 -0.15158552 0.0 0.11253594 -0.14645562 0.0 0.10087182 -0.14211316 0.0 0.089740634 -0.13861828 0.0 0.079023883 -0.13596347 0.0 0.0692285 -0.13410781 0.0 0.061303012000000004 -0.13301142 0.0 0.056158035999999995 -0.083035335 0.0 0.18391761 -0.080410607 0.0 0.16608733 -0.077298224 0.0 0.14731042 -0.07417220599999999 0.0 0.12962855 -0.071326688 0.0 0.11334386 -0.068931714 0.0 0.098236263 -0.067057058 0.0 0.08471731099999999 -0.065718547 0.0 0.073872283 -0.064916104 0.0 0.066850252 0.029231941 0.0 0.23565437 0.027306691 0.0 0.21166334 0.026813353999999998 0.0 0.18573368 0.027074199 0.0 0.1612518 0.027642932000000002 0.0 0.13910134 0.02827372 0.0 0.11901033 0.02884195 0.0 0.10129049 0.0292846 0.0 0.08716192800000001 0.029565142000000003 0.0 0.07803008 0.16212323 0.0 0.28727534 0.15541413 0.0 0.25752518 0.15080595 0.0 0.22469889 0.14761125 0.0 0.19347677 0.14533915 0.0 0.1653825 0.14371932 0.0 0.14016813 0.14259645 0.0 0.11809856 0.14186846 0.0 0.1005585 0.14146256 0.0 0.089231133 0.29405198 0.0 0.33335546 0.282996 0.0 0.29913676 0.27432433 0.0 0.260607 0.26755983 0.0 0.22356567 0.26230475 0.0 0.19015293 0.25831822 0.0 0.16021812 0.25542516 0.0 0.13406268 0.25347918 0.0 0.11328497 0.25236312 0.0 0.09986422199999999 0.39796972 0.0 0.36986554 0.38358203 0.0 0.33290973 0.37150326 0.0 0.29041764 0.36161786 0.0 0.2490664 0.35373333 0.0 0.21150218 0.34767964 0.0 0.177711 0.34326461 0.0 0.14811255 0.3402878 0.0 0.12456033 0.33857864 0.0 0.10933143 0.45472726 0.0 0.39528432 0.43838876 0.0 0.35716122 0.42404169 0.0 0.31248325 0.41196224 0.0 0.26849023 0.40220723 0.0 0.22815691 0.39469671 0.0 0.19160554 0.38922855 0.0 0.15942787 0.38555309 0.0 0.13374777 0.38344765 0.0 0.11711681 0.46385077 0.0 0.41040424 0.44695351 0.0 0.37216124 0.43162754 0.0 0.32671139 0.41848078 0.0 0.28151304 0.40778863 0.0 0.23968187 0.39955118 0.0 0.20144647 0.39356756 0.0 0.16758421 0.38955981 0.0 0.14046913 0.38727129 0.0 0.12287966 0.43992266 0.0 0.41718593 0.42349732 0.0 0.37935391 0.40826288 0.0 0.33403417 0.39504167 0.0 0.28864586 0.38424727 0.0 0.2462931 0.37592998 0.0 0.20727299 0.36989948 0.0 0.17252405 0.36587015 0.0 0.14461443 0.36357552 0.0 0.12648357 0.40145287 0.0 0.41766956 0.38604128 0.0 0.38042113 0.37156206 0.0 0.33570227 0.35892412 0.0 0.29073948 0.34858787 0.0 0.24853607 0.34062105 0.0 0.20941868 0.33484682 0.0 0.17443681 0.33099291 0.0 0.14627671 0.32879981 0.0 0.12796415 0.36154971 0.0 0.41326913 0.34726807 0.0 0.37664023 0.33379644 0.0 0.33276469 0.32202742 0.0 0.28860223 0.31239739 0.0 0.24701157 0.30496925 0.0 0.2083201 0.29957861 0.0 0.17362966 0.29597497 0.0 0.14566638 0.29392183 0.0 0.12747104 0.3242389 0.0 0.40462396 0.3109166 0.0 0.36869976 0.29840466 0.0 0.32588562 0.28751054 0.0 0.28283224 0.27860913 0.0 0.24223436 0.27173781 0.0 0.20440051 0.26673824 0.0 0.17043753 0.26338378 0.0 0.14304481 0.26146588 0.0 0.12521785 0.28636703 0.0 0.39188963 0.27370435 0.0 0.35688213 0.26197305 0.0 0.31543314 0.25185281 0.0 0.27384105 0.24362424 0.0 0.2346161 0.23727818 0.0 0.19803737 0.23264851 0.0 0.16518904 0.22952805 0.0 0.13869563 0.22773586 0.0 0.12145713 0.24269612 0.0 0.37514579 0.23043019 0.0 0.34137681 0.21935514 0.0 0.3016901 0.2099731 0.0 0.26197305 0.20242646 0.0 0.22452158 0.19663231 0.0 0.18958373 0.19240332 0.0 0.15821028 0.18954316 0.0 0.13291696 0.18789408 0.0 0.11646766 0.19096641 0.0 0.35469377 0.17902648 0.0 0.32252884 0.16867985 0.0 0.28503418 0.16017674 0.0 0.24761912 0.15347284 0.0 0.21233737 0.14838383 0.0 0.17940621 0.14468686 0.0 0.14984015 0.14218836 0.0 0.126021 0.14074659 0.0 0.11054253 0.13407217 0.0 0.33116272 0.12265502 0.0 0.3009353 0.11333226 0.0 0.26601398 0.10602814 0.0 0.23127568 0.10047338 0.0 0.19851163 0.096362084 0.0 0.16790751 0.093425505 0.0 0.14043646 0.09146204599999999 0.0 0.1183256 0.090336204 0.0 0.1039724 0.078648269 0.0 0.30547649 0.06805957900000001 0.0 0.27742383 0.060090850999999994 0.0 0.24534158 0.05429719400000001 0.0 0.2135441 0.050168625999999994 0.0 0.18355475 0.047274787 0.0 0.15552211 0.045297775 0.0 0.13036534 0.044021174 0.0 0.11013921 0.043306708 0.0 0.097025216 0.031351693 0.0 0.27875301 0.021691112000000002 0.0 0.25297508 0.015160575 0.0 0.2238341 0.010939471000000001 0.0 0.19508968 0.0082789483 0.0 0.16800719 0.006631615600000001 0.0 0.14269125 0.0056370725 0.0 0.11998457 0.0050664912 0.0 0.10175165 0.0047771283 0.0 0.08994595699999999 -0.0040759887 0.0 0.25221565 -0.013046211 0.0 0.22864434 -0.018406063 0.0 0.20235071 -0.021319544 0.0 0.17658837 -0.022758637 0.0 0.15239683 -0.023375302999999997 0.0 0.12982921 -0.023563442999999996 0.0 0.10962409 -0.02355705 0.0 0.093430154 -0.023499386 0.0 0.08296168599999999 -0.027257873 0.0 0.22710794 -0.035964958 0.0 0.20547742 -0.040695533 0.0 0.18172893 -0.042824917000000004 0.0 0.15868147 -0.04350607099999999 0.0 0.13720402 -0.043477189000000006 0.0 0.11729915 -0.043159537000000005 0.0 0.09956538699999999 -0.042793322 0.0 0.08539924800000001 -0.042521138 0.0 0.076259084 -0.040186848 0.0 0.20459022 -0.048904344 0.0 0.18442142 -0.053645778 0.0 0.1627252 -0.05563258 0.0 0.14194325 -0.056106366 0.0 0.1228462 -0.055869337000000005 0.0 0.10539858 -0.055376619 0.0 0.090021558 -0.054884340999999996 0.0 0.077813163 -0.054538265 0.0 0.069957189 -0.045681572999999996 0.0 0.18552256 -0.054289743 0.0 0.16624728 -0.059549898 0.0 0.14597125 -0.062025644000000005 0.0 0.12686676 -0.062826663 0.0 0.10967755 -0.062788412 0.0 0.09435772199999999 -0.06241845 0.0 0.081127048 -0.06200620900000001 0.0 0.070744902 -0.06170832 0.0 0.064097792 -0.046172610999999995 0.0 0.17026202 -0.054094635 0.0 0.15144214 -0.060054816 0.0 0.13194956 -0.063563593 0.0 0.11386682 -0.065183066 0.0 0.09800639 -0.065711945 0.0 0.084362559 -0.065719046 0.0 0.072961673 -0.065552346 0.0 0.06420452900000001 -0.065396681 0.0 0.058656767 -0.043331429000000005 0.0 0.15860856 -0.04963249 0.0 0.14013289 -0.055952914000000006 0.0 0.12097008 -0.060814667 0.0 0.10329382 -0.063723698 0.0 0.088134669 -0.065208763 0.0 0.075612389 -0.06585901200000001 0.0 0.065609112 -0.06609551599999999 0.0 0.058186777 -0.06616237 0.0 0.053579006 -0.038186524 0.0 0.14987569 -0.041792706 0.0 0.13199002 -0.047637448 0.0 0.11309184 -0.053645227000000004 0.0 0.095428199 -0.058231145 0.0 0.080392659 -0.061131399 0.0 0.068383202 -0.062793605 0.0 0.059238356 -0.06367173 0.0 0.052752037 -0.064084023 0.0 0.048850294 -0.031766128 0.0 0.14305878 -0.031719603 0.0 0.12624702 -0.035829734 0.0 0.10798302 -0.042015538 0.0 0.090358824 -0.04807975900000001 0.0 0.075110905 -0.052753333 0.0 0.06304837 -0.05586328 0.0 0.054164725999999996 -0.057735574000000005 0.0 0.04811969 -0.058709375999999994 0.0 0.044607509000000004 -0.025166379 0.0 0.13721234 -0.020992225 0.0 0.12182928 -0.021988921 0.0 0.10484422 -0.026787451 0.0 0.08775260300000001 -0.03311431 0.0 0.072409488 -0.039093312000000005 0.0 0.059999734000000006 -0.043759192999999995 0.0 0.050847564000000005 -0.046893001 0.0 0.04471685 -0.048641037000000005 0.0 0.041226249 -0.018657522 0.0 0.13200735 -0.011277296000000001 0.0 0.11777904 -0.0081065418 0.0 0.10256669 -0.0097807646 0.0 0.086765595 -0.014511305 0.0 0.071897045 -0.020251827 0.0 0.059326610999999994 -0.025512202 0.0 0.049722008 -0.029521087 0.0 0.043125305 -0.031963099 0.0 0.039321449 -0.0084020151 0.0 0.12878658 -0.0029201491 0.0 0.11421519 0.0037711478999999997 0.0 0.10030682 0.0066141193000000004 0.0 0.086317547 0.0054428112 0.0 0.072700769 0.0018955806 0.0 0.060583737 -0.0023306254 0.0 0.05082126 -0.0060535218 0.0 0.043776743 -0.008540020300000001 0.0 0.039550819 0.013388606 0.0 0.12800679 0.0098747024 0.0 0.11319872 0.013965378 0.0 0.09898149199999999 0.019893927 0.0 0.085994616 0.023502792999999998 0.0 0.073983058 0.023997063 0.0 0.063024633 0.022509655 0.0 0.053718369 0.020419996 0.0 0.046630353 0.018761685 0.0 0.042182866 0.04657907 0.0 0.12825331 0.038194839 0.0 0.11451728 0.032481279 0.0 0.10067652 0.032917592999999995 0.0 0.08776576800000001 0.037394468 0.0 0.076193266 0.041731231 0.0 0.066259615 0.044197392 0.0 0.057847794 0.045009561 0.0 0.051218104 0.045024290999999994 0.0 0.046894852 0.066691294 0.0 0.12694684 0.069209069 0.0 0.1168422 0.068428949 0.0 0.10366452 0.06360171 0.0 0.091586851 0.059328791 0.0 0.080858313 0.058478169 0.0 0.071342394 0.060239568 0.0 0.063283511 0.062521599 0.0 0.057034615 0.064067923 0.0 0.052968644 0.070604138 0.0 0.11821362 0.08581890199999999 0.0 0.10915325 0.097163551 0.0 0.09740755 0.099743918 0.0 0.08660575 0.098172605 0.0 0.077101871 0.09667789199999999 0.0 0.069251232 0.09642180800000001 0.0 0.063328728 0.096682146 0.0 0.059528700999999996 0.085061766 0.0 0.10698584 0.10793458 0.0 0.095969014 0.12294934 0.0 0.08464314 0.13411219 0.0 0.075570323 0.14094459 0.0 0.069439739 0.14492097 0.0 0.06580837099999999 0.08365088700000001 0.0 0.09574697900000001 0.10524839 0.0 0.082835898 0.12167706 0.0 0.075217754 0.13128637 0.0 0.07138361 -0.00084081735 0.0 1.493026e-05 -0.0008403149000000001 0.0 1.5195568000000001e-05 -0.00083873409 0.0 1.5979362e-05 -0.00083584554 0.0 1.7245824e-05 -0.0008312433500000001 0.0 1.8934647e-05 -0.00082431 0.0 2.0951353e-05 -0.00081416924 0.0 2.3137609e-05 -0.00079964288 0.0 2.5227413e-05 -0.0010878922 0.0 2.1810605e-05 -0.0010873772000000001 0.0 2.2200784e-05 -0.0010857403 0.0 2.3353618000000002e-05 -0.0010826965 0.0 2.5216275e-05 -0.0010777360000000001 0.0 2.7698155000000002e-05 -0.0010700724 0.0 3.0656093999999996e-05 -0.0010585805 0.0 3.3853383e-05 -0.0010417191 0.0 3.6903693e-05 -0.0013726443 0.0 2.9781613000000002e-05 -0.0013721866 0.0 3.0323581e-05 -0.0013707059 0.0 3.1925116e-05 -0.0013678597 0.0 3.4512745e-05 -0.0013630305999999999 0.0 3.795834e-05 -0.0013552564000000001 0.0 4.2057716e-05 -0.0013431353 0.0 4.647889e-05 -0.0013247193 0.0 5.0697628000000004e-05 -0.0017239354000000001 0.0 3.8848033e-05 -0.0017236148 0.0 3.9577793e-05 -0.0017225248999999999 0.0 4.1734656000000005e-05 -0.0017202594 0.0 4.5219509e-05 -0.0017160837 0.0 4.9856826e-05 -0.0017088319 0.0 5.5365377e-05 -0.0016967852 0.0 6.1297629e-05 -0.0016775154999999998 0.0 6.6969362e-05 -0.0021731529999999997 0.0 4.9236121000000005e-05 -0.0021730675 0.0 5.0208688e-05 -0.0021726568 0.0 5.3083819e-05 -0.0021714449 0.0 5.7729438e-05 -0.0021685502 0.0 6.3908003e-05 -0.0021625662 0.0 7.1237948e-05 -0.0021513912 0.0 7.9125333e-05 -0.0021320153 0.0 8.6693493e-05 -0.0027521106 0.0 6.1351602e-05 -0.0027523935 0.0 6.2652776e-05 -0.0027530636 0.0 6.6500696e-05 -0.0027535534000000003 0.0 7.272028599999999e-05 -0.0027528026 0.0 8.0991369e-05 -0.0027491115000000004 0.0 9.0796595e-05 -0.0027399053999999996 0.0 0.00010134652 -0.0027214736 0.0 0.00011151563 -0.0034929215999999997 0.0 7.5695454e-05 -0.0034937703000000003 0.0 7.7455239e-05 -0.0034960988 0.0 8.2662584e-05 -0.0034992273 0.0 9.1087371e-05 -0.0035018858 0.0 0.00010230039 -0.0035020092 0.0 0.00011560055 -0.0034964515000000004 0.0 0.0001299305 -0.0034806604999999997 0.0 0.00014383905 -0.0044297404 0.0 9.2775263e-05 -0.0044314312 0.0 9.518201100000001e-05 -0.004436248 0.0 0.00010231134 -0.0044433796 0.0 0.00011386758999999999 -0.0044513 0.0 0.00012928488000000003 -0.0044575077 0.0 0.00014762716 -0.0044581969 0.0 0.00016749383999999998 -0.0044478313 0.0 0.00018705304 -0.0056021147999999995 0.0 0.00011303444999999999 -0.0056050401 0.0 0.00011634823999999998 -0.0056135142 0.0 0.00012618081 -0.0056265783 0.0 0.00014216985 -0.0056424192 0.0 0.0001636024 -0.0056580458999999994 0.0 0.00018928037000000002 -0.0056688758 0.0 0.00021743859 -0.0056683131999999995 0.0 0.00024593083 -0.007058525899999999 0.0 0.00013681805 -0.0070632175 0.0 0.00014138051 -0.007076950699999999 0.0 0.00015495095 -0.007098618 0.0 0.000177126 -0.0071261046 0.0 0.000207082 -0.0071558766000000005 0.0 0.00024341047000000002 -0.0071825348 0.0 0.00028409981 -0.0071983286 0.0 0.00032701201 -0.008856654200000001 0.0 0.00016438223000000003 -0.0088638226 0.0 0.00017061888999999998 -0.0088849589 0.0 0.00018922918000000003 -0.008918840400000001 0.0 0.00021984552000000004 -0.0089630531 0.0 0.00026166072 -0.0090135317 0.0 0.00031325236 -0.0090640169 0.0 0.00037271294 -0.0091055688 0.0 0.00043857790000000003 -0.011063363 0.0 0.00019597472 -0.011073935 0.0 0.00020438206000000003 -0.011105276 0.0 0.00022957333 -0.011156115 0.0 0.00027137293 -0.011223838 0.0 0.00032925705 -0.011303886 0.0 0.00040219634 -0.011389123999999999 0.0 0.00048901606 -0.011469337 0.0 0.00058989739 -0.01375584 0.0 0.00023207859 -0.013770983 0.0 0.00024318763 -0.013816084 0.0 0.00027664 -0.013889951999999999 0.0 0.00033271894999999997 -0.013989955 0.0 0.00041163616999999997 -0.014111176999999999 0.0 0.0005134115900000001 -0.014245591 0.0 0.00063848292 -0.014381495 0.0 0.0007898430900000001 -0.017022494 0.0 0.00027393852000000003 -0.017043626 0.0 0.0002882439 -0.017106837 0.0 0.00033157735 -0.01721126 0.0 0.00040508379 -0.01735457 0.0 0.00051038177 -0.017531732 0.0 0.0006494505799999999 -0.017733857 0.0 0.0008254383000000001 -0.017947339 0.0 0.0010454083 -0.020963996999999998 0.0 0.00032452528999999997 -0.020992776 0.0 0.00034237464 -0.021079227000000002 0.0 0.00039682424 -0.021223227 0.0 0.00049044169 -0.021423232 0.0 0.00062716176 -0.02167464 0.0 0.0008121030400000001 -0.021967791 0.0 0.0010524663 -0.022286612999999997 0.0 0.0013607393 -0.025694368 0.0 0.00039012026 -0.025732685 0.0 0.00041156236000000005 -0.025848178 0.0 0.00047752779000000004 -0.026042082999999997 0.0 0.00059273478 -0.026314558 0.0 0.0007645922 -0.026662247000000003 0.0 0.0010028607 -0.027075177000000002 0.0 0.0013204928 -0.027534422000000003 0.0 0.0017370770999999999 -0.031342641 0.0 0.00048270705000000004 -0.031392436 0.0 0.00050731527 -0.031543225 0.0 0.00058382167 -0.031798456 0.0 0.0007199780099999999 -0.032161287999999996 0.0 0.00092807465 -0.032630991 0.0 0.0012244008000000001 -0.033198467999999995 0.0 0.001629894 -0.033841956 0.0 0.0021736219 -0.038054782999999995 0.0 0.0006233087000000001 -0.038118009 0.0 0.00065002026 -0.03831039 0.0 0.0007342106 -0.038638822999999996 0.0 0.0008876420300000001 -0.039111391 0.0 0.0011290911 -0.039732233 0.0 0.0014836265 -0.040495045 0.0 0.0019830468 -0.041376416 0.0 0.0026693712 -0.04599609599999999 0.0 0.00084623555 -0.046074584 0.0 0.00087328802 -0.046314456 0.0 0.0009601773300000001 -0.04672772099999999 0.0 0.0011236096 -0.04732997 0.0 0.0013904398 -0.048133351 0.0 0.0017968825 -0.049137626 0.0 0.0023889453 -0.050320163 0.0 0.0032264043 -0.055354178 0.0 0.0012039244 -0.055449322 0.0 0.0012290177 -0.055741679 0.0 0.0013118882 -0.056250427 0.0 0.0014747845000000002 -0.057001665 0.0 0.0017537551 -0.058019698 0.0 0.002198 -0.059314892 0.0 0.0028710163 -0.060869905999999994 0.0 0.0038562862 -0.066340797 0.0 0.0017716885000000002 -0.066453651 0.0 0.0017925117000000001 -0.066802412 0.0 0.0018643726000000002 -0.067415491 0.0 0.0020149036 -0.068333253 0.0 0.0022891937 -0.069596693 0.0 0.0027496857 -0.07123249 0.0 0.00347943 -0.07323478900000001 0.0 0.0045916279999999995 -0.07918521 0.0 0.0026508882 -0.079316437 0.0 0.0026661919 -0.079724379 0.0 0.0027228205 -0.080448799 0.0 0.0028523202000000003 -0.081547685 0.0 0.0031064085 -0.083083622 0.0 0.0035580127000000004 -0.085105479 0.0 0.0043085725 -0.08762665800000001 0.0 0.005504922 -0.09409531199999999 0.0 0.0039687618 -0.094245501 0.0 0.0039801076 -0.09471460400000001 0.0 0.0040250984000000005 -0.095555797 0.0 0.0041358434 -0.09684717699999999 0.0 0.0043649031 -0.09867662199999999 0.0 0.0047881855 -0.10112058 0.0 0.005518569599999999 -0.10421991 0.0 0.0067350953000000005 -0.11114813 0.0 0.005873471999999999 -0.11131783 0.0 0.0058875646999999994 -0.11185042 0.0 0.005939229399999999 -0.11281302 0.0 0.0060554538 -0.11430519 0.0 0.006279693 -0.11644196 0.0 0.006676980799999999 -0.11933048 0.0 0.0073561566 -0.12304605 0.0 0.0085179722 -0.13007978 0.0 0.0085218884 -0.13027036 0.0 0.0085532973 -0.13087058 0.0 0.008652845400000001 -0.1319607 0.0 0.0088344198 -0.13366139 0.0 0.0091177328 -0.13611327 0.0 0.0095356544 -0.13945436 0.0 0.010167183 -0.14379862 0.0 0.011211664 -0.15000629 0.0 0.012058728999999999 -0.15022063 0.0 0.012133081 -0.15089643 0.0 0.012354071999999999 -0.1521256 0.0 0.012711802 -0.15404619 0.0 0.013182593999999999 -0.15682046 0.0 0.013738456999999999 -0.16061242 0.0 0.014392155 -0.16557425 0.0 0.015307478999999999 -0.16919187 0.0 0.016592301 -0.16943567 0.0 0.01674957 -0.17020234 0.0 0.017207351 -0.17159191 0.0 0.017917583 -0.17375302 0.0 0.018788302 -0.17686146 0.0 0.019695222 -0.18109924 0.0 0.020543661 -0.18664928 0.0 0.021426183999999997 -0.18501101 0.0 0.022177288 -0.18529251 0.0 0.022474311 -0.18617266 0.0 0.023333475 -0.18775171 0.0 0.024649864 -0.19017939 0.0 0.026232598 -0.19363341 0.0 0.027822725 -0.19830149 0.0 0.029184615 -0.20438118 0.0 0.030325245 -0.19408448 0.0 0.0288119 -0.19441068 0.0 0.029324133 -0.19542135 0.0 0.030803176 -0.19720848 0.0 0.03306444 -0.19991 0.0 0.035783194 -0.2036912 0.0 0.038533213999999996 -0.2087286 0.0 0.040931188 -0.2152091 0.0 0.042924009000000006 -0.19214609 0.0 0.036447197 -0.19251442 0.0 0.037268776 -0.19364478 0.0 0.039641187 -0.19561176 0.0 0.043273766 -0.19852859 0.0 0.047673963 -0.20253341 0.0 0.052231241 -0.20776927 0.0 0.056447815 -0.21437603 0.0 0.060270969 -0.17369008 0.0 0.045003327999999995 -0.17407894 0.0 0.046244774 -0.17526241 0.0 0.049831655 -0.17729156 0.0 0.055339672 -0.18024562 0.0 0.06207903099999999 -0.18421941 0.0 0.06925970299999999 -0.18929888 0.0 0.076338269 -0.19553624 0.0 0.08332790400000001 -0.13264881 0.0 0.054378632 -0.13301152 0.0 0.056158035999999995 -0.13410766 0.0 0.061303015999999995 -0.13596343 0.0 0.06922847 -0.13861829 0.0 0.079023883 -0.1421131 0.0 0.08974070099999999 -0.14645559 0.0 0.10087177 -0.15158558 0.0 0.11253592 -0.064648606 0.0 0.064422853 -0.064916074 0.0 0.06685026 -0.065718532 0.0 0.073872253 -0.067057058 0.0 0.084717333 -0.068931699 0.0 0.09823627800000001 -0.071326695 0.0 0.11334381 -0.07417220599999999 0.0 0.1296286 -0.077298239 0.0 0.14731044 0.029661236 0.0 0.074874334 0.029565139 0.0 0.078030072 0.029284632 0.0 0.087161899 0.028841943 0.0 0.10129049 0.0282737 0.0 0.11901037 0.027642984 0.0 0.13910143 0.027074212 0.0 0.16125187 0.02681336 0.0 0.1857336 0.1413326 0.0 0.085317045 0.14146259 0.0 0.08923115599999999 0.14186853 0.0 0.10055845 0.14259653 0.0 0.11809859 0.14371935 0.0 0.14016828 0.14533916 0.0 0.16538249 0.14761128 0.0 0.19347678 0.15080595 0.0 0.22469877 0.25200012 0.0 0.095225655 0.2523632 0.0 0.099864244 0.25347933 0.0 0.11328499 0.25542524 0.0 0.13406272 0.25831822 0.0 0.16021812 0.26230478 0.0 0.19015302 0.26755989 0.0 0.22356558 0.27432436 0.0 0.26060694 0.33802226 0.0 0.10406499 0.33857873 0.0 0.10933141 0.34028816 0.0 0.12456039 0.34326455 0.0 0.14811257 0.34767938 0.0 0.17771105 0.35373345 0.0 0.21150216 0.36161777 0.0 0.2490664 0.37150326 0.0 0.29041764 0.3827633 0.0 0.1113617 0.38344777 0.0 0.11711687 0.38555297 0.0 0.13374776 0.38922846 0.0 0.15942794 0.39469692 0.0 0.19160572 0.4022074 0.0 0.22815686 0.41196215 0.0 0.26849011 0.4240416 0.0 0.31248334 0.38652882 0.0 0.11678882 0.3872714 0.0 0.12287966 0.38955984 0.0 0.14046919 0.39356753 0.0 0.16758424 0.39955112 0.0 0.20144652 0.40778869 0.0 0.23968183 0.41848078 0.0 0.28151315 0.43162757 0.0 0.32671124 0.36283186 0.0 0.12020178 0.36357525 0.0 0.12648357 0.36586973 0.0 0.14461449 0.36989903 0.0 0.17252405 0.37593001 0.0 0.20727302 0.38424754 0.0 0.24629313 0.39504164 0.0 0.28864586 0.40826291 0.0 0.33403441 0.32808962 0.0 0.121617 0.32879966 0.0 0.12796423 0.33099279 0.0 0.1462768 0.33484703 0.0 0.17443691 0.34062114 0.0 0.2094187 0.34858775 0.0 0.24853611 0.35892412 0.0 0.29073939 0.37156239 0.0 0.33570212 0.2932564 0.0 0.12116317 0.29392174 0.0 0.12747101 0.29597479 0.0 0.1456663 0.29957861 0.0 0.17362967 0.3049691 0.0 0.20832014 0.31239742 0.0 0.24701154 0.32202742 0.0 0.28860232 0.33379662 0.0 0.33276463 0.26084301 0.0 0.11903756 0.26146603 0.0 0.12521785 0.26338395 0.0 0.1430449 0.26673815 0.0 0.17043754 0.2717379 0.0 0.20440049 0.2786091 0.0 0.24223441 0.28751054 0.0 0.28283241 0.29840451 0.0 0.32588556 0.22715212 0.0 0.11548186 0.22773586 0.0 0.12145715 0.22952799 0.0 0.13869567 0.23264855 0.0 0.16518901 0.23727834 0.0 0.19803737 0.24362437 0.0 0.23461607 0.25185278 0.0 0.27384111 0.26197299 0.0 0.315433 0.18735555 0.0 0.11076778 0.18789402 0.0 0.11646765 0.18954313 0.0 0.13291709 0.19240336 0.0 0.15821019 0.19663231 0.0 0.1895837 0.20242651 0.0 0.2245215 0.20997322 0.0 0.26197305 0.21935521 0.0 0.30169022 0.14027566 0.0 0.10518173 0.14074661 0.0 0.11054257 0.14218841 0.0 0.126021 0.14468694 0.0 0.14984022 0.14838377 0.0 0.17940629 0.15347283 0.0 0.21233742 0.16017665 0.0 0.24761911 0.16867967 0.0 0.28503418 0.08996956099999999 0.0 0.099004574 0.090336181 0.0 0.10397234 0.09146204599999999 0.0 0.11832563 0.09342546800000001 0.0 0.14043643 0.096362084 0.0 0.16790739 0.10047338 0.0 0.19851166 0.10602821 0.0 0.23127565 0.11333229 0.0 0.26601413 0.043076918 0.0 0.092489846 0.043306679 0.0 0.09702519300000001 0.044021167 0.0 0.11013914 0.045297757 0.0 0.13036536 0.047274767999999995 0.0 0.15552205 0.050168622 0.0 0.18355468 0.054297149 0.0 0.21354415 0.060090818 0.0 0.24534152 0.0046893149 0.0 0.08586651099999999 0.0047771288 0.0 0.08994594199999999 0.0050664884 0.0 0.10175162 0.0056370664 0.0 0.11998458 0.006631624 0.0 0.14269121 0.0082789399 0.0 0.16800724 0.010939457 0.0 0.19508968 0.015160565 0.0 0.2238342 -0.023471442999999998 0.0 0.079347283 -0.023499381 0.0 0.08296161099999999 -0.023557047999999997 0.0 0.093430109 -0.023563447999999997 0.0 0.10962404 -0.023375306000000002 0.0 0.12982912 -0.022758646 0.0 0.1523968 -0.021319561 0.0 0.17658815 -0.018406071 0.0 0.20235077 -0.042421877000000004 0.0 0.073105961 -0.042521141 0.0 0.076259084 -0.042793326 0.0 0.085399203 -0.043159522 0.0 0.099565335 -0.043477181 0.0 0.11729912 -0.043506092999999996 0.0 0.13720404 -0.042824928 0.0 0.15868135 -0.040695529 0.0 0.1817288 -0.054414831 0.0 0.067249425 -0.054538246 0.0 0.069957212 -0.054884344 0.0 0.077813134 -0.055376623 0.0 0.090021528 -0.055869340999999996 0.0 0.10539854 -0.056106355 0.0 0.12284611 -0.055632584000000006 0.0 0.14194313 -0.053645770999999995 0.0 0.16272518 -0.061601265999999995 0.0 0.0618104 -0.061708268 0.0 0.064097762 -0.062006228 0.0 0.07074485700000001 -0.062418460999999995 0.0 0.081127033 -0.062788405 0.0 0.09435769199999999 -0.062826678 0.0 0.10967754 -0.062025644000000005 0.0 0.12686674 -0.059549898 0.0 0.14597128 -0.065336712 0.0 0.056755401 -0.065396726 0.0 0.058656793 -0.065552346 0.0 0.064204492 -0.065719061 0.0 0.07296161400000001 -0.065711945 0.0 0.084362596 -0.065183096 0.0 0.098006375 -0.063563578 0.0 0.11386678 -0.060054783 0.0 0.13194954 -0.066173911 0.0 0.052013498 -0.066162385 0.0 0.053579047000000005 -0.066095486 0.0 0.058186758 -0.065859079 0.0 0.065609097 -0.065208748 0.0 0.075612351 -0.063723698 0.0 0.088134684 -0.060814712 0.0 0.10329378 -0.055952899 0.0 0.12097009 -0.064203687 0.0 0.047544867000000005 -0.064084031 0.0 0.04885032 -0.06367173 0.0 0.052752025 -0.062793612 0.0 0.059238347999999996 -0.06113138 0.0 0.068383202 -0.058231127 0.0 0.080392644 -0.053645235 0.0 0.09542814599999999 -0.047637451 0.0 0.11309181 -0.059008468 0.0 0.043454487 -0.058709353 0.0 0.044607509000000004 -0.057735547000000005 0.0 0.048119694000000005 -0.055863275999999996 0.0 0.054164725999999996 -0.052753374000000006 0.0 0.063048355 -0.048079755 0.0 0.07511092 -0.042015553 0.0 0.09035884599999999 -0.035829734 0.0 0.10798303 -0.04919802 0.0 0.040095184 -0.048641037000000005 0.0 0.041226242 -0.046892993 0.0 0.04471682 -0.04375919 0.0 0.050847555999999995 -0.039093297 0.0 0.059999738 -0.033114299 0.0 0.072409458 -0.026787452000000003 0.0 0.087752596 -0.021988922999999997 0.0 0.10484418 -0.03277963 0.0 0.038081657000000005 -0.031963132000000005 0.0 0.039321434 -0.029521087 0.0 0.043125309 -0.025512213 0.0 0.049721985999999996 -0.020251829 0.0 0.059326604000000005 -0.014511304 0.0 0.07189703 -0.009780755300000001 0.0 0.08676558699999999 -0.0081065288 0.0 0.10256675 -0.0094081676 0.0 0.038144935 -0.0085400166 0.0 0.039550822 -0.006053510600000001 0.0 0.043776758 -0.0023306223999999998 0.0 0.05082126 0.0018955942 0.0 0.06058374 0.0054428237 0.0 0.072700769 0.0066141216 0.0 0.08631756900000001 0.0037711586 0.0 0.10030682 0.018147962 0.0 0.04067466 0.018761693 0.0 0.042182863 0.020420011000000002 0.0 0.046630356 0.022509677000000002 0.0 0.053718380999999996 0.023997083 0.0 0.063024633 0.023502802000000003 0.0 0.073983036 0.019893927 0.0 0.08599457099999999 0.013965385 0.0 0.098981529 0.044951685 0.0 0.045398582 0.045024298 0.0 0.046894847999999996 0.045009561 0.0 0.051218092 0.044197399000000005 0.0 0.057847779 0.04173125 0.0 0.066259623 0.037394486 0.0 0.076193295 0.032917603999999996 0.0 0.087765731 0.032481331 0.0 0.10067651 0.06458193799999999 0.0 0.051551752 0.064067945 0.0 0.052968636 0.062521607 0.0 0.057034608 0.060239572000000005 0.0 0.06328354 0.058478188 0.0 0.071342401 0.059328821 0.0 0.08085829 0.06360177 0.0 0.091586843 0.068428911 0.0 0.10366449 0.096842468 0.0 0.058205713 0.096682161 0.0 0.059528667 0.096421786 0.0 0.063328736 0.09667795900000001 0.0 0.069251224 0.09817265 0.0 0.077101879 0.099743925 0.0 0.08660575699999999 0.09716358800000001 0.0 0.09740755699999999 0.085818879 0.0 0.10915324 0.14620858 0.0 0.064579062 0.14492092 0.0 0.065808356 0.14094453 0.0 0.069439739 0.13411218 0.0 0.075570315 0.12294932 0.0 0.084643111 0.10793462 0.0 0.095969029 0.085061766 0.0 0.10698581 0.13440087 0.0 0.070189901 0.1312864 0.0 0.071383588 0.12167709 0.0 0.075217776 0.10524842 0.0 0.082835913 0.08365090900000001 0.0 0.09574698699999999 -0.00077921315 0.0 2.6740254e-05 -0.0007509319099999999 0.0 2.6735472e-05 -0.00071210845 0.0 2.3561754e-05 -0.0006594035099999999 0.0 1.5442409e-05 -0.00058983936 0.0 1.6177054999999998e-06 -0.00050256861 0.0 -1.6518619e-05 -0.00040105029 0.0 -3.4754514e-05 -0.0010174962 0.0 3.916429e-05 -0.0009833325199999998 0.0 3.9308532e-05 -0.0009355764500000001 0.0 3.4942386e-05 -0.00086958538 0.0 2.3472086e-05 -0.0007810930299999999 0.0 3.7125956000000004e-06 -0.0006686368099999999 0.0 -2.251293e-05 -0.0005365283 0.0 -4.9427221e-05 -0.00039656087999999996 0.0 -6.8455898e-05 -0.0012974476 0.0 5.3909228999999995e-05 -0.0012579638 0.0 5.4369430000000004e-05 -0.0012013919 0.0 4.87953e-05 -0.0011213402 0.0 3.3559794e-05 -0.0010116678 0.0 6.882261e-06 -0.0008697481199999999 0.0 -2.8983002000000002e-05 -0.00070054212 0.0 -6.6451998e-05 -0.00051937823 0.0 -9.426214799999999e-05 -0.0016477579 0.0 7.140667e-05 -0.0016031587 0.0 7.2429255e-05 -0.0015372514 0.0 6.568824e-05 -0.0014412773999999998 0.0 4.6234622e-05 -0.0013064233 0.0 1.1447471e-05 -0.0011282093 0.0 -3.6010744e-05 -0.00091224734 0.0 -8.6360582e-05 -0.0006784639 0.0 -0.00012471706 -0.0021003184 0.0 9.2764036e-05 -0.0020506687 0.0 9.4681607e-05 -0.0019745267999999997 0.0 8.680328799999999e-05 -0.0018599514000000002 0.0 6.249327299999999e-05 -0.0016944995 0.0 1.7991162e-05 -0.0014715719 0.0 -4.3665059000000004e-05 -0.001197388 0.0 -0.0001100151 -0.0008967324400000001 0.0 -0.00016148482 -0.0026886760999999997 0.0 0.00011986646000000001 -0.0026343162 0.0 0.00012316497 -0.002547157 0.0 0.00011420966999999998 -0.0024115425 0.0 8.4266023e-05 -0.0022121693 0.0 2.7997514000000003e-05 -0.0019400204000000001 0.0 -5.1446325e-05 -0.0015997884 0.0 -0.00013841591 -0.0012186373 0.0 -0.00020707738999999997 -0.0034483087 0.0 0.00015558921 -0.0033903903999999998 0.0 0.000161259 -0.0032928076000000002 0.0 0.00015184902 -0.0031382702000000004 0.0 0.00011596879999999999 -0.0029102087 0.0 4.557761e-05 -0.0025958915 0.0 -5.6897603e-05 -0.0021938672 0.0 -0.00017191039 -0.0017232838 0.0 -0.00026473447 -0.0044187433 0.0 0.00020432365000000002 -0.0043600234 0.0 0.00021480845 -0.0042569176 0.0 0.00020749633 -0.0040939436 0.0 0.00016694653000000003 -0.0038557266999999997 0.0 7.998995700000001e-05 -0.0035256904 0.0 -5.3432792e-05 -0.0030886033 0.0 -0.00020894512 -0.0025355744 0.0 -0.00033806276 -0.0056472514 0.0 0.00027285199 -0.0055936271999999995 0.0 0.00029364842 -0.005495199 0.0 0.00029475759999999997 -0.0053421026 0.0 0.0002540256 -0.0051245 0.0 0.0001488961 -0.0048258384 0.0 -2.6962167e-05 -0.0044117374 0.0 -0.00024355708999999998 -0.0038176789 0.0 -0.00043041067000000003 -0.0071927384 0.0 0.00037105870000000003 -0.007153721500000001 0.0 0.00041245457000000003 -0.0070734796999999995 0.0 0.00043402215999999996 -0.006950290400000001 0.0 0.00040335994 -0.0067848023 0.0 0.00028206708 -0.0065685282 0.0 4.9580529e-05 -0.0062530213 0.0 -0.00026126822999999994 -0.0056941099 0.0 -0.0005436799299999999 -0.0091263233 0.0 0.0005117337 -0.0091144359 0.0 0.00059001957 -0.009065820799999999 0.0 0.00065155129 -0.0089855753 0.0 0.00065030996 -0.0088851983 0.0 0.0005229610299999999 -0.0087688584 0.0 0.00022033395 -0.0085840272 0.0 -0.00023320036 -0.0081025753 0.0 -0.00067225011 -0.011531178999999999 0.0 0.00070906227 -0.011561736000000001 0.0 0.00084667781 -0.01155689 0.0 0.00097567326 -0.011522233 0.0 0.0010344689999999999 -0.011471396000000002 0.0 0.0009279801199999999 -0.011411811000000001 0.0 0.00056479347 -0.011280189 0.0 -3.8289261e-05 -0.010752768000000001 0.0 -0.0005702605700000001 -0.014503512 0.0 0.0009763306599999999 -0.014595591000000002 0.0 0.0012006925 -0.01464843 0.0 0.0014308839 -0.01465969 0.0 0.0015912246 -0.014632065 0.0 0.0015573737 -0.014559976 0.0 0.0012128892999999999 -0.01436699 0.0 0.00063392828 -0.013715546 0.0 0.00037658412 -0.018153753 0.0 0.0013238575 -0.018331857 0.0 0.0016654672 -0.018463276 0.0 0.0020330701999999997 -0.01853233 0.0 0.0023413117000000002 -0.01852322 0.0 0.0024477793 -0.018410547 0.0 0.0022407395 -0.018115336 0.0 0.0019156168 -0.017362764 0.0 0.0020978462 -0.022608077 0.0 0.0017580360000000001 -0.022903717999999997 0.0 0.0022493358999999997 -0.023144346 0.0 0.0027897878999999996 -0.023300821 0.0 0.0032862644 -0.023341525 0.0 0.0035901292999999997 -0.023225852999999998 0.0 0.003608573 -0.022881616 0.0 0.0036257929 -0.02211499 0.0 0.0041596144 -0.028010443 0.0 0.0022815613 -0.028464461 0.0 0.0029576972999999997 -0.028854696000000003 0.0 0.0037068741 -0.029140847 0.0 0.0044245748 -0.029283877000000003 0.0 0.0049545257 -0.029241797000000003 0.0 0.0052130935 -0.028959151000000002 0.0 0.0055333227 -0.028317802000000003 0.0 0.0063152988 -0.034523852 0.0 0.0028945040000000004 -0.035191264 0.0 0.0037948631 -0.035784513 0.0 0.0047950959 -0.036250275 0.0 0.0057686539 -0.036547005 0.0 0.0065341932 -0.036643859 0.0 0.007008663399999999 -0.036516741 0.0 0.0075675994 -0.036119699 0.0 0.008521948 -0.042329989000000005 0.0 0.0035953557 -0.043285526 0.0 0.0047632735 -0.04415866400000001 0.0 0.0060675595999999995 -0.044871666 0.0 0.0073448513 -0.045373797 0.0 0.008375856999999999 -0.04564435 0.0 0.0090712346 -0.045693316 0.0 0.0098329475 -0.045545891 0.0 0.010999911999999999 -0.051627020999999995 0.0 0.0043823207 -0.05296867 0.0 0.0058628110999999995 -0.054230142 0.0 0.0075322427 -0.055297907 0.0 0.0091814334 -0.056091953 0.0 0.010539598 -0.05658403 0.0 0.01149884 -0.05680165400000001 0.0 0.012523053999999999 -0.056812975999999994 0.0 0.013985885 -0.062626265 0.0 0.0052566892 -0.064475924 0.0 0.007089888199999999 -0.066268899 0.0 0.009187692800000001 -0.06784530700000001 0.0 0.011285749 -0.069081463 0.0 0.013054163 -0.069920205 0.0 0.014374696999999999 -0.070382468 0.0 0.015821358 -0.070552096 0.0 0.01775324 -0.075546913 0.0 0.0062312633 -0.07804720799999999 0.0 0.008440269200000001 -0.080549352 0.0 0.011019073999999998 -0.082837418 0.0 0.013638781 -0.084727228 0.0 0.015899047 -0.08611465199999999 0.0 0.01769395 -0.08699969199999999 0.0 0.019805411000000002 -0.087472118 0.0 0.022503678 -0.090602055 0.0 0.0073478636 -0.093907058 0.0 0.009922110500000001 -0.09732466199999999 0.0 0.013003906 -0.10057578 0.0 0.016191971 -0.10339741 0.0 0.018995121 -0.10561435 0.0 0.021350627999999996 -0.10718411 0.0 0.024408851000000002 -0.10818882 0.0 0.028380075 -0.10795433 0.0 0.0087066162 -0.11221417 0.0 0.011584455 -0.11676635 0.0 0.015135826000000002 -0.12126872 0.0 0.01887905 -0.12536179 0.0 0.022204075 -0.12877227 0.0 0.025110492 -0.13138616 0.0 0.029438289 -0.13325498 0.0 0.035351351 -0.12760848 0.0 0.010505566000000001 -0.13294888 0.0 0.01356401 -0.13884197 0.0 0.017476724 -0.14489134 0.0 0.021665502000000003 -0.15063012 0.0 0.02537513 -0.15566157 0.0 0.028629871 -0.15976739 0.0 0.03442587 -0.16293584 0.0 0.04321848599999999 -0.1492202 0.0 0.013083108000000001 -0.15572031 0.0 0.016147461000000002 -0.16311358 0.0 0.020236208999999998 -0.170966 0.0 0.024663156000000002 -0.1787031 0.0 0.02845948 -0.18578935 0.0 0.031535503 -0.19187115 0.0 0.038618986 -0.19683118 0.0 0.051503398 -0.17184474 0.0 0.016955424 -0.17952006 0.0 0.019846212 -0.18848184 0.0 0.023893615 -0.19828133 0.0 0.028278553999999997 -0.20825286 0.0 0.031672843 -0.21772783 0.0 0.033512492000000005 -0.2261997 0.0 0.041021246000000004 -0.23339574 0.0 0.059164435 -0.19371273 0.0 0.022855585 -0.20248681 0.0 0.025498765 -0.21293068 0.0 0.029363427 -0.22460473 0.0 0.033438828 -0.23679176 0.0 0.035771247 -0.24873067 0.0 0.034911547 -0.25977007 0.0 0.040975094 -0.26943892 0.0 0.06474319099999999 -0.21211463 0.0 0.031793537999999996 -0.22177531 0.0 0.034385536 -0.23338282 0.0 0.038148481 -0.24652326 0.0 0.041787904 -0.26048669 0.0 0.042350646 -0.27449816 0.0 0.036799103 -0.28781718 0.0 0.038154345 -0.29976571 0.0 0.06675658400000001 -0.22337303 0.0 0.04508977 -0.23351283 0.0 0.048243187 -0.24566005 0.0 0.05232108 -0.25941667 0.0 0.055629738 -0.27413487 0.0 0.053865261 -0.28914133 0.0 0.041453268 -0.30373025 0.0 0.033922613 -0.31708568 0.0 0.06433609900000001 -0.22253594 0.0 0.064263791 -0.23248067 0.0 0.069031224 -0.24417163 0.0 0.074095748 -0.25718844 0.0 0.077301256 -0.27099791 0.0 0.072926953 -0.28517041 0.0 0.052581504 -0.29920736 0.0 0.031687487 -0.3122974 0.0 0.058782879 -0.20299637 0.0 0.090668246 -0.21175423 0.0 0.098424844 -0.22159812 0.0 0.10531963 -0.23208371 0.0 0.10814523 -0.24288316 0.0 0.10080578 -0.25391555 0.0 0.07408648 -0.26502606 0.0 0.040127002 -0.27557799 0.0 0.054765272999999996 -0.15739955 0.0 0.12488684 -0.16371547 0.0 0.13708735 -0.17010504 0.0 0.14667384 -0.17615201 0.0 0.14927286 -0.181817 0.0 0.13778263 -0.1874375 0.0 0.10744982 -0.19325987 0.0 0.068805456 -0.19891211 0.0 0.062185142 -0.080410592 0.0 0.16608736 -0.08303535 0.0 0.1839176 -0.084582478 0.0 0.19693811 -0.084736392 0.0 0.20013562 -0.083744533 0.0 0.19080412 -0.08231926 0.0 0.1739925 -0.08109799 0.0 0.13298552 -0.080056235 0.0 0.094237529 0.027306689 0.0 0.21166319 0.029231953999999997 0.0 0.23565446 0.033201735 0.0 0.25267568 0.0393668 0.0 0.25893649 0.047294933 0.0 0.26105273 0.056129593 0.0 0.27640671 0.06497636400000001 0.0 0.23145942 0.073332407 0.0 0.13945962 0.15541404 0.0 0.25752488 0.16212314 0.0 0.28727537 0.17136894 0.0 0.30802804 0.18307166 0.0 0.31803092 0.19673815 0.0 0.33433664 0.21164507 0.0 0.37853256 0.22688574 0.0 0.3161045 0.2412844 0.0 0.1722701 0.282996 0.0 0.29913694 0.29405212 0.0 0.33335546 0.30756405 0.0 0.35662907 0.32312998 0.0 0.36847433 0.34020901 0.0 0.39252824 0.35832322 0.0 0.44813871 0.37671363 0.0 0.3591046 0.39371625 0.0 0.17841657 0.38358197 0.0 0.33290964 0.39796972 0.0 0.36986536 0.41428545 0.0 0.39386162 0.43175799 0.0 0.4041431 0.44970772 0.0 0.42536169 0.46775916 0.0 0.47375047 0.48534721 0.0 0.35201415 0.50112653 0.0 0.15675578 0.43838894 0.0 0.35716119 0.45472732 0.0 0.39528415 0.47226706 0.0 0.41873083 0.48990905 0.0 0.42563465 0.50678355 0.0 0.43839672 0.52248734 0.0 0.47080138 0.5367527 0.0 0.33001027 0.54914957 0.0 0.13083519 0.44695348 0.0 0.37216085 0.4638508 0.0 0.41040421 0.4812457 0.0 0.43295434 0.49782535 0.0 0.43707937 0.5125798 0.0 0.44309995 0.52510607 0.0 0.46327335 0.5354678 0.0 0.31152126 0.54401398 0.0 0.11396181 0.42349741 0.0 0.37935379 0.4399229 0.0 0.41718554 0.45630676 0.0 0.43896231 0.47125578 0.0 0.44145635 0.48372129 0.0 0.44369462 0.49333405 0.0 0.45755926 0.50037283 0.0 0.30212498 0.50559753 0.0 0.10769682 0.38604146 0.0 0.38042107 0.4014529 0.0 0.4176698 0.41650665 0.0 0.43899259 0.429822 0.0 0.44101492 0.44039348 0.0 0.44231901 0.44790179 0.0 0.45542821 0.45270944 0.0 0.30235565 0.45566025 0.0 0.1108734 0.34726822 0.0 0.37663996 0.36154962 0.0 0.41326892 0.37537032 0.0 0.43442512 0.38740498 0.0 0.43687442 0.39672476 0.0 0.4395234 0.40306431 0.0 0.45625058 0.40679038 0.0 0.30925035 0.40865421 0.0 0.12022499 0.31091672 0.0 0.36869976 0.3242389 0.0 0.40462378 0.33716983 0.0 0.42571124 0.34844971 0.0 0.42886379 0.35721171 0.0 0.43290868 0.36322343 0.0 0.45230818 0.36682016 0.0 0.3118926 0.368613 0.0 0.12715816 0.27370444 0.0 0.35688213 0.28636706 0.0 0.3918893 0.2988621 0.0 0.41283041 0.30998108 0.0 0.4166835 0.31886289 0.0 0.4216595 0.32525057 0.0 0.44192526 0.32941926 0.0 0.30803579 0.33184767 0.0 0.12994333 0.23043016 0.0 0.34137708 0.24269621 0.0 0.37514579 0.25519684 0.0 0.39574647 0.26675543 0.0 0.40017679 0.27643111 0.0 0.40553838 0.28383958 0.0 0.42480177 0.28914028 0.0 0.29835126 0.29268825 0.0 0.12984695 0.1790265 0.0 0.32252863 0.19096646 0.0 0.35469371 0.20376018 0.0 0.37471509 0.21627496 0.0 0.37956986 0.22740535 0.0 0.38485253 0.23650053 0.0 0.40153873 0.24349716 0.0 0.28415644 0.24862066 0.0 0.12793866 0.12265501 0.0 0.30093533 0.13407226 0.0 0.33116272 0.14716889 0.0 0.35037854 0.16093725 0.0 0.35551813 0.17408232 0.0 0.36033967 0.18554454 0.0 0.37338537 0.1948747 0.0 0.2660709 0.2021004 0.0 0.12472864 0.068059549 0.0 0.27742383 0.078648262 0.0 0.30547675 0.091846853 0.0 0.32372889 0.10687406 0.0 0.32905167 0.12232614 0.0 0.33317479 0.13670295 0.0 0.34338871 0.14899898 0.0 0.24712886 0.15890737 0.0 0.12080167 0.021691129 0.0 0.25297508 0.031351723 0.0 0.27875295 0.044542972 0.0 0.29595825 0.06073438 0.0 0.30139303 0.07847832099999999 0.0 0.30475545 0.095950596 0.0 0.31374881 0.11160079 0.0 0.22855696 0.12469088 0.0 0.11722162 -0.013046213999999999 0.0 0.22864445 -0.0040759849 0.0 0.25221556 0.009212531099999999 0.0 0.26840034 0.02639395 0.0 0.27400163 0.046089730999999995 0.0 0.27659622 0.066363752 0.0 0.28535154 0.085294545 0.0 0.21043777 0.10170256 0.0 0.11167087 -0.035964951 0.0 0.20547745 -0.027257886000000002 0.0 0.227108 -0.013883528000000001 0.0 0.24251325 0.0037683215999999996 0.0 0.24842836 0.02462923 0.0 0.25062564 0.046984952 0.0 0.25794905 0.068756528 0.0 0.19112027 0.088292614 0.0 0.10219752 -0.04890433 0.0 0.18442141 -0.040186845 0.0 0.20459032 -0.027163798 0.0 0.21960965 -0.010129022 0.0 0.22620288 0.010543243999999998 0.0 0.22851935 0.03390824 0.0 0.23232915 0.058125 0.0 0.16960981 0.080931462 0.0 0.08988337199999999 -0.054289702 0.0 0.16624722 -0.045681587999999995 0.0 0.18552263 -0.033921085 0.0 0.20043956 -0.019120093 0.0 0.20814607 -0.00050345814 0.0 0.21154734 0.022786295 0.0 0.21152557 0.050459965999999995 0.0 0.15195313 0.079871155 0.0 0.084894419 -0.05409463900000001 0.0 0.15144219 -0.046172619000000005 0.0 0.17026199 -0.036973502000000005 0.0 0.18520319 -0.026157239 0.0 0.19419093 -0.011444847 0.0 0.1999405 0.011268737 0.0 0.19768368 0.04418750900000001 0.0 0.14514644 0.087534986 0.0 0.09414137199999999 -0.049632508 0.0 0.14013298 -0.043331444000000004 0.0 0.15860857 -0.037980046 0.0 0.17352544 -0.032397262999999996 0.0 0.18393055 -0.022488717000000002 0.0 0.19281752 0.00044899712999999994 0.0 0.18830432 0.039958692999999997 0.0 0.1440499 0.10130008 0.0 0.10834059 -0.041792709 0.0 0.13199002 -0.038186532 0.0 0.14987563 -0.037536353 0.0 0.16456522 -0.037388712000000004 0.0 0.17675312 -0.030329527000000002 0.0 0.18643814 -0.005709941999999999 0.0 0.17601007 0.038926952 0.0 0.13765495 -0.03171961 0.0 0.12624703 -0.031766124 0.0 0.14305879 -0.035860084 0.0 0.15741853 -0.038911805 0.0 0.17054793 -0.030413799 0.0 0.17735307 -0.0034194076 0.0 0.16086935 0.043416928 0.0 0.12969734 -0.020992231 0.0 0.12182932 -0.025166388999999997 0.0 0.13721217 -0.032332554 0.0 0.15129521 -0.033666279 0.0 0.16438746 -0.020145077 0.0 0.16636933 0.0089643234 0.0 0.14691538 -0.011277286000000001 0.0 0.11777908 -0.018657558 0.0 0.13200739 -0.023924797999999997 0.0 0.14653161 -0.018055169 0.0 0.15815137 0.0011375088 0.0 0.15524676 0.029589262 0.0 0.13470839 -0.002920138 0.0 0.1142152 -0.008402038399999999 0.0 0.12878656 -0.0053418679 0.0 0.14335959 0.0086945007 0.0 0.15179427 0.028527454 0.0 0.14420407 0.009874721999999999 0.0 0.11319867 0.013388561 0.0 0.12800673 0.02468445 0.0 0.14094363 0.040423293 0.0 0.14381579 0.03819482 0.0 0.11451729 0.046579108 0.0 0.12825336 0.056616828 0.0 0.13674013 0.059754819 0.0 0.13352253 0.069209144 0.0 0.11684224 0.06669125 0.0 0.12694678 0.070604086 0.0 0.11821363 
Force 3 2975 float
0.0 0.0 0.0 0.0 0.0 0.0 0.0 0.0 0.0 0.0 0.0 0.0 0.0 0.0 0.0 0.0 0.0 0.0 0.0 0.0 0.0 0.0 0.0 0.0 0.0 0.0 0.0 0.0 0.0 0.0 0.0 0.0 0.0 0.0 0.0 0.0 0.0 0.0 0.0 0.0 0.0 0.0 0.0 0.0 0.0 0.0 0.0 0.0 0.0 0.0 0.0 0.0 0.0 0.0 0.0 0.0 0.0 0.0 0.0 0.0 0.0 0.0 0.0 0.0 0.0 0.0 0.0 0.0 0.0 0.0 0.0 0.0 0.0 0.0 0.0 0.0 0.0 0.0 0.0 0.0 0.0 0.0 0.0 0.0 0.0 0.0 0.0 0.0 0.0 0.0 0.0 0.0 0.0 0.0 0.0 0.0 0.0 0.0 0.0 0.0 0.0 0.0 0.0 0.0 0.0 0.0 0.0 0.0 0.0 0.0 0.0 0.0 0.0 0.0 0.0 0.0 0.0 0.0 0.0 0.0 0.0 0.0 0.0 0.0 0.0 0.0 0.0 0.0 0.0 0.0 0.0 0.0 0.0 0.0 0.0 0.0 0.0 0.0 0.0 0.0 0.0 0.0 0.0 0.0 0.0 0.0 0.0 0.0 0.0 0.0 0.0 0.0 0.0 0.0 0.0 0.0 0.0 0.0 0.0 0.0 0.0 0.0 0.0 0.0 0.0 0.0 0.0 0.0 0.0 0.0 0.0 0.0 0.0 0.0 0.0 0.0 0.0 0.0 0.0 0.0 0.0 0.0 0.0 0.0 0.0 0.0 0.0 0.0 0.0 0.0 0.0 0.0 0.0 0.0 0.0 0.0 0.0 0.0 0.0 0.0 0.0 0.0 0.0 0.0 0.0 0.0 0.0 0.0 0.0 0.0 0.0 0.0 0.0 0.0 0.0 0.0 0.0 0.0 0.0 0.0 0.0 0.0 0.0 0.0 0.0 0.0 0.0 0.0 0.0 0.0 0.0 0.0 0.0 0.0 0.0 0.0 0.0 0.0 0.0 0.0 0.0 0.0 0.0 0.0 0.0 0.0 0.0 0.0 0.0 0.0 0.0 0.0 0.0 0.0 0.0 0.0 0.0 0.0 0.0 0.0 0.0 0.0 0.0 0.0 0.0 0.0 0.0 0.0 0.0 0.0 0.0 0.0 0.0 0.0 0.0 0.0 0.0 0.0 0.0 0.0 0.0 0.0 0.0 0.0 0.0 0.0 0.0 0.0 0.0 0.0 0.0 0.0 0.0 0.0 0.0 0.0 0.0 0.0 0.0 0.0 0.0 0.0 0.0 0.0 0.0 0.0 0.0 0.0 0.0 0.0 0.0 0.0 0.0 0.0 0.0 0.0 0.0 0.0 0.0 0.0 0.0 0.0 0.0 0.0 0.0 0.0 0.0 0.0 0.0 0.0 0.0 0.0 0.0 0.0 0.0 0.0 0.0 0.0 0.0 0.0 0.0 0.0 0.0 0.0 0.0 0.0 0.0 0.0 0.0 0.0 0.0 0.0 0.0 0.0 0.0 0.0 0.0 0.0 0.0 0.0 0.0 0.0 0.0 0.0 0.0 0.0 0.0 0.0 0.0 0.0 0.0 0.0 0.0 0.0 0.0 0.0 0.0 0.0 0.0 0.0 0.0 0.0 0.0 0.0 0.0 0.0 0.0 0.0 0.0 0.0 0.0 0.0 0.0 0.0 0.0 0.0 0.0 0.0 0.0 0.0 0.0 0.0 0.0 0.0 0.0 0.0 0.0 0.0 0.0 0.0 0.0 0.0 0.0 0.0 0.0 0.0 0.0 0.0 0.0 0.0 0.0 0.0 0.0 0.0 0.0 0.0 0.0 0.0 0.0 0.0 0.0 0.0 0.0 0.0 0.0 0.0 0.0 0.0 0.0 0.0 0.0 0.0 0.0 0.0 0.0 0.0 0.0 0.0 0.0 0.0 0.0 0.0 0.0 0.0 0.0 0.0 0.0 0.0 0.0 0.0 0.0 0.0 0.0 0.0 0.0 0.0 0.0 0.0 0.0 0.0 0.0 0.0 0.0 0.0 0.0 0.0 0.0 0.0 0.0 0.0 0.0 0.0 0.0 0.0 0.0 0.0 0.0 0.0 0.0 0.0 0.0 0.0 0.0 0.0 0.0 0.0 0.0 0.0 0.0 0.0 0.0 0.0 0.0 0.0 0.0 0.0 0.0 0.0 0.0 0.0 0.0 0.0 0.0 0.0 0.0 0.0 0.0 0.0 0.0 0.0 0.0 0.0 0.0 0.0 0.0 0.0 0.0 0.0 0.0 0.0 0.0 0.0 0.0 0.0 0.0 0.0 0.0 0.0 0.0 0.0 0.0 0.0 0.0 0.0 0.0 0.0 0.0 0.0 0.0 0.0 0.0 0.0 0.0 0.0 0.0 0.0 0.0 0.0 0.0 0.0 0.0 0.0 0.0 0.0 0.0 0.0 0.0 0.0 0.0 0.0 0.0 0.0 0.0 0.0 0.0 0.0 0.0 0.0 0.0 0.0 0.0 0.0 0.0 0.0 0.0 0.0 0.0 0.0 0.0 0.0 0.0 0.0 0.0 0.0 0.0 0.0 0.0 0.0 0.0 0.0 0.0 0.0 0.0 0.0 0.0 0.0 0.0 0.0 0.0 0.0 0.0 0.0 0.0 0.0 0.0 0.0 0.0 0.0 0.0 0.0 0.0 0.0 0.0 0.0 0.0 0.0 0.0 0.0 0.0 0.0 0.0 0.0 0.0 0.0 0.0 0.0 0.0 0.0 0.0 0.0 0.0 0.0 0.0 0.0 0.0 0.0 0.0 0.0 0.0 0.0 0.0 0.0 0.0 0.0 0.0 0.0 0.0 0.0 0.0 0.0 0.0 0.0 0.0 0.0 0.0 0.0 0.0 0.0 0.0 0.0 0.0 0.0 0.0 0.0 0.0 0.0 0.0 0.0 0.0 0.0 0.0 0.0 0.0 0.0 0.0 0.0 0.0 0.0 0.0 0.0 0.0 0.0 0.0 0.0 0.0 0.0 0.0 0.0 0.0 0.0 0.0 0.0 0.0 0.0 0.0 0.0 0.0 0.0 0.0 0.0 0.0 0.0 0.0 0.0 0.0 0.0 0.0 0.0 0.0 0.0 0.0 0.0 0.0 0.0 0.0 0.0 0.0 0.0 0.0 0.0 0.0 0.0 0.0 0.0 0.0 0.0 0.0 0.0 0.0 0.0 0.0 0.0 0.0 0.0 0.0 0.0 0.0 0.0 0.0 0.0 0.0 0.0 0.0 0.0 0.0 0.0 0.0 0.0 0.0 0.0 0.0 0.0 0.0 0.0 0.0 0.0 0.0 0.0 0.0 0.0 0.0 0.0 0.0 0.0 0.0 0.0 0.0 0.0 0.0 0.0 0.0 0.0 0.0 0.0 0.0 0.0 0.0 0.0 0.0 0.0 0.0 0.0 0.0 0.0 0.0 0.0 0.0 0.0 0.0 0.0 0.0 0.0 0.0 0.0 0.0 0.0 0.0 0.0 0.0 0.0 0.0 0.0 0.0 0.0 0.0 0.0 0.0 0.0 0.0 0.0 0.0 0.0 0.0 0.0 0.0 0.0 0.0 0.0 0.0 0.0 0.0 0.0 0.0 0.0 0.0 0.0 0.0 0.0 0.0 0.0 0.0 0.0 0.0 0.0 0.0 0.0 0.0 0.0 0.0 0.0 0.0 0.0 0.0 0.0 0.0 0.0 0.0 0.0 0.0 0.0 0.0 0.0 0.0 0.0 0.0 0.0 0.0 0.0 0.0 0.0 0.0 0.0 0.0 0.0 0.0 0.0 0.0 0.0 0.0 0.0 0.0 0.0 0.0 0.0 0.0 0.0 0.0 0.0 0.0 0.0 0.0 0.0 0.0 0.0 0.0 0.0 0.0 0.0 0.0 0.0 0.0 0.0 0.0 0.0 0.0 0.0 0.0 0.0 0.0 0.0 0.0 0.0 0.0 0.0 0.0 0.0 0.0 0.0 0.0 0.0 0.0 0.0 0.0 0.0 0.0 0.0 0.0 0.0 0.0 0.0 0.0 0.0 0.0 0.0 0.0 0.0 0.0 0.0 0.0 0.0 0.0 0.0 0.0 0.0 0.0 0.0 0.0 0.0 0.0 0.0 0.0 0.0 0.0 0.0 0.0 0.0 0.0 0.0 0.0 0.0 0.0 0.0 0.0 0.0 0.0 0.0 0.0 0.0 0.0 0.0 0.0 0.0 0.0 0.0 0.0 0.0 0.0 0.0 0.0 0.0 0.0 0.0 0.0 0.0 0.0 0.0 0.0 0.0 0.0 0.0 0.0 0.0 0.0 0.0 0.0 0.0 0.0 0.0 0.0 0.0 0.0 0.0 0.0 0.0 0.0 0.0 0.0 0.0 0.0 0.0 0.0 0.0 0.0 0.0 0.0 0.0 0.0 0.0 0.0 0.0 0.0 0.0 0.0 0.0 0.0 0.0 0.0 0.0 0.0 0.0 0.0 0.0 0.0 0.0 0.0 0.0 0.0 0.0 0.0 0.0 0.0 0.0 0.0 0.0 0.0 0.0 0.0 0.0 0.0 0.0 0.0 0.0 0.0 0.0 0.0 0.0 0.0 0.0 0.0 0.0 0.0 0.0 0.0 0.0 0.0 0.0 0.0 0.0 0.0 0.0 0.0 0.0 0.0 0.0 0.0 0.0 0.0 0.0 0.0 0.0 0.0 0.0 0.0 0.0 0.0 0.0 0.0 0.0 0.0 0.0 0.0 0.0 0.0 0.0 0.0 0.0 0.0 0.0 0.0 0.0 0.0 0.0 0.0 0.0 0.0 0.0 0.0 0.0 0.0 0.0 0.0 0.0 0.0 0.0 0.0 0.0 0.0 0.0 0.0 0.0 0.0 0.0 0.0 0.0 0.0 0.0 0.0 0.0 0.0 0.0 0.0 0.0 0.0 0.0 0.0 0.0 0.0 0.0 0.0 0.0 0.0 0.0 0.0 0.0 0.0 0.0 0.0 0.0 0.0 0.0 0.0 0.0 0.0 0.0 0.0 0.0 0.0 0.0 0.0 0.0 0.0 0.0 0.0 0.0 0.0 0.0 0.0 0.0 0.0 0.0 0.0 0.0 0.0 0.0 0.0 0.0 0.0 0.0 0.0 0.0 0.0 0.0 0.0 0.0 0.0 0.0 0.0 0.0 0.0 0.0 0.0 0.0 0.0 0.0 0.0 0.0 0.0 0.0 0.0 0.0 0.0 0.0 0.0 0.0 0.0 0.0 0.0 0.0 0.0 0.0 0.0 0.0 0.0 0.0 0.0 0.0 0.0 0.0 0.0 0.0 0.0 0.0 0.0 0.0 0.0 0.0 0.0 0.0 0.0 0.0 0.0 0.0 0.0 0.0 0.0 0.0 0.0 0.0 0.0 0.0 0.0 0.0 0.0 0.0 0.0 0.0 0.0 0.0 0.0 0.0 0.0 0.0 0.0 0.0 0.0 0.0 0.0 0.0 0.0 0.0 0.0 0.0 0.0 0.0 0.0 0.0 0.0 0.0 0.0 0.0 0.0 0.0 0.0 0.0 0.0 0.0 0.0 0.0 0.0 0.0 0.0 0.0 0.0 0.0 0.0 0.0 0.0 0.0 0.0 0.0 0.0 0.0 0.0 0.0 0.0 0.0 0.0 0.0 0.0 0.0 0.0 0.0 0.0 0.0 0.0 0.0 0.0 0.0 0.0 0.0 0.0 0.0 0.0 0.0 0.0 0.0 0.0 0.0 0.0 0.0 0.0 0.0 0.0 0.0 0.0 0.0 0.0 0.0 0.0 0.0 0.0 0.0 0.0 0.0 0.0 0.0 0.0 0.0 0.0 0.0 0.0 0.0 0.0 0.0 0.0 0.0 0.0 0.0 0.0 0.0 0.0 0.0 0.0 0.0 0.0 0.0 0.0 0.0 0.0 0.0 0.0 0.0 0.0 0.0 0.0 0.0 0.0 0.0 0.0 0.0 0.0 0.0 0.0 0.0 0.0 0.0 0.0 0.0 0.0 0.0 0.0 0.0 0.0 0.0 0.0 0.0 0.0 0.0 0.0 0.0 0.0 0.0 0.0 0.0 0.0 0.0 0.0 0.0 0.0 0.0 0.0 0.0 0.0 0.0 0.0 0.0 0.0 0.0 0.0 0.0 0.0 0.0 0.0 0.0 0.0 0.0 0.0 0.0 0.0 0.0 0.0 0.0 0.0 0.0 0.0 0.0 0.0 0.0 0.0 0.0 0.0 0.0 0.0 0.0 0.0 0.0 0.0 0.0 0.0 0.0 0.0 0.0 0.0 0.0 0.0 0.0 0.0 0.0 0.0 0.0 0.0 0.0 0.0 0.0 0.0 0.0 0.0 0.0 0.0 0.0 0.0 0.0 0.0 0.0 0.0 0.0 0.0 0.0 0.0 0.0 0.0 0.0 0.0 0.0 0.0 0.0 0.0 0.0 0.0 0.0 0.0 0.0 0.0 0.0 0.0 0.0 0.0 0.0 0.0 0.0 0.0 0.0 0.0 0.0 0.0 0.0 0.0 0.0 0.0 0.0 0.0 0.0 0.0 0.0 0.0 0.0 0.0 0.0 0.0 0.0 0.0 0.0 0.0 0.0 0.0 0.0 0.0 0.0 0.0 0.0 0.0 0.0 0.0 0.0 0.0 0.0 0.0 0.0 0.0 0.0 0.0 0.0 0.0 0.0 0.0 0.0 0.0 0.0 0.0 0.0 0.0 0.0 0.0 0.0 0.0 0.0 0.0 0.0 0.0 0.0 0.0 0.0 0.0 0.0 0.0 0.0 0.0 0.0 0.0 0.0 0.0 0.0 0.0 0.0 0.0 0.0 0.0 0.0 0.0 0.0 0.0 0.0 0.0 0.0 0.0 0.0 0.0 0.0 0.0 0.0 0.0 0.0 0.0 0.0 0.0 0.0 0.0 0.0 0.0 0.0 0.0 0.0 0.0 0.0 0.0 0.0 0.0 0.0 0.0 0.0 0.0 0.0 0.0 0.0 0.0 0.0 0.0 0.0 0.0 0.0 0.0 0.0 0.0 0.0 0.0 0.0 0.0 0.0 0.0 0.0 0.0 0.0 0.0 0.0 0.0 0.0 0.0 0.0 0.0 0.0 0.0 0.0 0.0 0.0 0.0 0.0 0.0 0.0 0.0 0.0 0.0 0.0 0.0 0.0 0.0 0.0 0.0 0.0 0.0 0.0 0.0 0.0 0.0 0.0 0.0 0.0 0.0 0.0 0.0 0.0 0.0 0.0 0.0 0.0 0.0 0.0 0.0 0.0 0.0 0.0 0.0 0.0 0.0 0.0 0.0 0.0 0.0 0.0 0.0 0.0 0.0 0.0 0.0 0.0 0.0 0.0 0.0 0.0 0.0 0.0 0.0 0.0 0.0 0.0 0.0 0.0 0.0 0.0 0.0 0.0 0.0 0.0 0.0 0.0 0.0 0.0 0.0 0.0 0.0 0.0 0.0 0.0 0.0 0.0 0.0 0.0 0.0 0.0 0.0 0.0 0.0 0.0 0.0 0.0 0.0 0.0 0.0 0.0 0.0 0.0 0.0 0.0 0.0 0.0 0.0 0.0 0.0 0.0 0.0 0.0 0.0 0.0 0.0 0.0 0.0 0.0 0.0 0.0 0.0 0.0 0.0 0.0 0.0 0.0 0.0 0.0 0.0 0.0 0.0 0.0 0.0 0.0 0.0 0.0 0.0 0.0 0.0 0.0 0.0 0.0 0.0 0.0 0.0 0.0 0.0 0.0 0.0 0.0 0.0 0.0 0.0 0.0 0.0 0.0 0.0 0.0 0.0 0.0 0.0 0.0 0.0 0.0 0.0 0.0 0.0 0.0 0.0 0.0 0.0 0.0 0.0 0.0 0.0 0.0 0.0 0.0 0.0 0.0 0.0 0.0 0.0 0.0 0.0 0.0 0.0 0.0 0.0 0.0 0.0 0.0 0.0 0.0 0.0 0.0 0.0 0.0 0.0 0.0 0.0 0.0 0.0 0.0 0.0 0.0 0.0 0.0 0.0 0.0 0.0 0.0 0.0 0.0 0.0 0.0 0.0 0.0 0.0 0.0 0.0 0.0 0.0 0.0 0.0 0.0 0.0 0.0 0.0 0.0 0.0 0.0 0.0 0.0 0.0 0.0 0.0 0.0 0.0 0.0 0.0 0.0 0.0 0.0 0.0 0.0 0.0 0.0 0.0 0.0 0.0 0.0 0.0 0.0 0.0 0.0 0.0 0.0 0.0 0.0 0.0 0.0 0.0 0.0 0.0 0.0 0.0 0.0 0.0 0.0 0.0 0.0 0.0 0.0 0.0 0.0 0.0 0.0 0.0 0.0 0.0 0.0 0.0 0.0 0.0 0.0 0.0 0.0 0.0 0.0 0.0 0.0 0.0 0.0 0.0 0.0 0.0 0.0 0.0 0.0 0.0 0.0 0.0 0.0 0.0 0.0 0.0 0.0 0.0 0.0 0.0 0.0 0.0 0.0 0.0 0.0 0.0 0.0 0.0 0.0 0.0 0.0 0.0 0.0 0.0 0.0 0.0 0.0 0.0 0.0 0.0 0.0 0.0 0.0 0.0 0.0 0.0 0.0 0.0 0.0 0.0 0.0 0.0 0.0 0.0 0.0 0.0 0.0 0.0 0.0 0.0 0.0 0.0 0.0 0.0 0.0 0.0 0.0 0.0 0.0 0.0 0.0 0.0 0.0 0.0 0.0 0.0 0.0 0.0 0.0 0.0 0.0 0.0 0.0 0.0 0.0 0.0 0.0 0.0 0.0 0.0 0.0 0.0 0.0 0.0 0.0 0.0 0.0 0.0 0.0 0.0 0.0 0.0 0.0 0.0 0.0 0.0 0.0 0.0 0.0 0.0 0.0 0.0 0.0 0.0 0.0 0.0 0.0 0.0 0.0 0.0 0.0 0.0 0.0 0.0 0.0 0.0 0.0 0.0 0.0 0.0 0.0 0.0 0.0 0.0 0.0 0.0 0.0 0.0 0.0 0.0 0.0 0.0 0.0 0.0 0.0 0.0 0.0 0.0 0.0 0.0 0.0 0.0 0.0 0.0 0.0 0.0 0.0 0.0 0.0 0.0 0.0 0.0 0.0 0.0 0.0 0.0 0.0 0.0 0.0 0.0 0.0 0.0 0.0 0.0 0.0 0.0 0.0 0.0 0.0 0.0 0.0 0.0 0.0 0.0 0.0 0.0 0.0 0.0 0.0 0.0 0.0 0.0 0.0 0.0 0.0 0.0 0.0 0.0 0.0 0.0 0.0 0.0 0.0 0.0 0.0 0.0 0.0 0.0 0.0 0.0 0.0 0.0 0.0 0.0 0.0 0.0 0.0 0.0 0.0 0.0 0.0 0.0 0.0 0.0 0.0 0.0 0.0 0.0 0.0 0.0 0.0 0.0 0.0 0.0 0.0 0.0 0.0 0.0 0.0 0.0 0.0 0.0 0.0 0.0 0.0 0.0 0.0 0.0 0.0 0.0 0.0 0.0 0.0 0.0 0.0 0.0 0.0 0.0 0.0 0.0 0.0 0.0 0.0 0.0 0.0 0.0 0.0 0.0 0.0 0.0 0.0 0.0 0.0 0.0 0.0 0.0 0.0 0.0 0.0 0.0 0.0 0.0 0.0 0.0 0.0 0.0 0.0 0.0 0.0 0.0 0.0 0.0 0.0 0.0 0.0 0.0 0.0 0.0 0.0 0.0 0.0 0.0 0.0 0.0 0.0 0.0 0.0 0.0 0.0 0.0 0.0 0.0 0.0 0.0 0.0 0.0 0.0 0.0 0.0 0.0 0.0 0.0 0.0 0.0 0.0 0.0 0.0 0.0 0.0 0.0 0.0 0.0 0.0 0.0 0.0 0.0 0.0 0.0 0.0 0.0 0.0 0.0 0.0 0.0 0.0 0.0 0.0 0.0 0.0 0.0 0.0 0.0 0.0 0.0 0.0 0.0 0.0 0.0 0.0 0.0 0.0 0.0 0.0 0.0 0.0 0.0 0.0 0.0 0.0 0.0 0.0 0.0 0.0 0.0 0.0 0.0 0.0 0.0 0.0 0.0 0.0 0.0 0.0 0.0 0.0 0.0 0.0 0.0 0.0 0.0 0.0 0.0 0.0 0.0 0.0 0.0 0.0 0.0 0.0 0.0 0.0 0.0 0.0 0.0 0.0 0.0 0.0 0.0 0.0 0.0 0.0 0.0 0.0 0.0 0.0 0.0 0.0 0.0 0.0 0.0 0.0 0.0 0.0 0.0 0.0 0.0 0.0 0.0 0.0 0.0 0.0 0.0 0.0 0.0 0.0 0.0 0.0 0.0 0.0 0.0 0.0 0.0 0.0 0.0 0.0 0.0 0.0 0.0 0.0 0.0 0.0 0.0 0.0 0.0 0.0 0.0 0.0 0.0 0.0 0.0 0.0 0.0 0.0 0.0 0.0 0.0 0.0 0.0 0.0 0.0 0.0 0.0 0.0 0.0 0.0 0.0 0.0 0.0 0.0 0.0 0.0 0.0 0.0 0.0 0.0 0.0 0.0 0.0 0.0 0.0 0.0 0.0 0.0 0.0 0.0 0.0 0.0 0.0 0.0 0.0 0.0 0.0 0.0 0.0 0.0 0.0 0.0 0.0 0.0 0.0 0.0 0.0 0.0 0.0 0.0 0.0 0.0 0.0 0.0 0.0 0.0 0.0 0.0 0.0 0.0 0.0 0.0 0.0 0.0 0.0 0.0 0.0 0.0 0.0 0.0 0.0 0.0 0.0 0.0 0.0 0.0 0.0 0.0 0.0 0.0 0.0 0.0 0.0 0.0 0.0 0.0 0.0 0.0 0.0 0.0 0.0 0.0 0.0 0.0 0.0 0.0 0.0 0.0 0.0 0.0 0.0 0.0 0.0 0.0 0.0 0.0 0.0 0.0 0.0 0.0 0.0 0.0 0.0 0.0 0.0 0.0 0.0 0.0 0.0 0.0 0.0 0.0 0.0 0.0 0.0 0.0 0.0 0.0 0.0 0.0 0.0 0.0 0.0 0.0 0.0 0.0 0.0 0.0 0.0 0.0 0.0 0.0 0.0 0.0 0.0 0.0 0.0 0.0 0.0 0.0 0.0 0.0 0.0 0.0 0.0 0.0 0.0 0.0 0.0 0.0 0.0 0.0 0.0 0.0 0.0 0.0 0.0 0.0 0.0 0.0 0.0 0.0 0.0 0.0 0.0 0.0 0.0 0.0 0.0 0.0 0.0 0.0 0.0 0.0 0.0 0.0 0.0 0.0 0.0 0.0 0.0 0.0 0.0 0.0 0.0 0.0 0.0 0.0 0.0 0.0 0.0 0.0 0.0 0.0 0.0 0.0 0.0 0.0 0.0 0.0 0.0 0.0 0.0 0.0 0.0 0.0 0.0 0.0 0.0 0.0 0.0 0.0 0.0 0.0 0.0 0.0 0.0 0.0 0.0 0.0 0.0 0.0 0.0 0.0 0.0 0.0 0.0 0.0 0.0 0.0 0.0 0.0 0.0 0.0 0.0 0.0 0.0 0.0 0.0 0.0 0.0 0.0 0.0 0.0 0.0 0.0 0.0 0.0 0.0 0.0 0.0 0.0 0.0 0.0 0.0 0.0 0.0 0.0 0.0 0.0 0.0 0.0 0.0 0.0 0.0 0.0 0.0 0.0 0.0 0.0 0.0 0.0 0.0 0.0 0.0 0.0 0.0 0.0 0.0 0.0 0.0 0.0 0.0 0.0 0.0 0.0 0.0 0.0 0.0 0.0 0.0 0.0 0.0 0.0 0.0 0.0 0.0 0.0 0.0 0.0 0.0 0.0 0.0 0.0 0.0 0.0 0.0 0.0 0.0 0.0 0.0 0.0 0.0 0.0 0.0 0.0 0.0 0.0 0.0 0.0 0.0 0.0 0.0 0.0 0.0 0.0 0.0 0.0 0.0 0.0 0.0 0.0 0.0 0.0 0.0 0.0 0.0 0.0 0.0 0.0 0.0 0.0 0.0 0.0 0.0 0.0 0.0 0.0 0.0 0.0 0.0 0.0 0.0 0.0 0.0 0.0 0.0 0.0 0.0 0.0 0.0 0.0 0.0 0.0 0.0 0.0 0.0 0.0 0.0 0.0 0.0 0.0 0.0 0.0 0.0 0.0 0.0 0.0 0.0 0.0 0.0 0.0 0.0 0.0 0.0 0.0 0.0 0.0 0.0 0.0 0.0 0.0 0.0 0.0 0.0 0.0 0.0 0.0 0.0 0.0 0.0 0.0 0.0 0.0 0.0 0.0 0.0 0.0 0.0 0.0 0.0 0.0 0.0 0.0 0.0 0.0 0.0 0.0 0.0 0.0 0.0 0.0 0.0 0.0 0.0 0.0 0.0 0.0 0.0 0.0 0.0 0.0 0.0 0.0 0.0 0.0 0.0 0.0 0.0 0.0 0.0 0.0 0.0 0.0 0.0 0.0 0.0 0.0 0.0 0.0 0.0 0.0 0.0 0.0 0.0 0.0 0.0 0.0 0.0 0.0 0.0 0.0 0.0 0.0 0.0 0.0 0.0 0.0 0.0 0.0 0.0 0.0 0.0 0.0 0.0 0.0 0.0 0.0 0.0 0.0 0.0 0.0 0.0 0.0 0.0 0.0 0.0 0.0 0.0 0.0 0.0 0.0 0.0 0.0 0.0 0.0 0.0 0.0 0.0 0.0 0.0 0.0 0.0 0.0 0.0 0.0 0.0 0.0 0.0 0.0 0.0 0.0 0.0 0.0 0.0 0.0 0.0 0.0 0.0 0.0 0.0 0.0 0.0 0.0 0.0 0.0 0.0 0.0 0.0 0.0 0.0 0.0 0.0 0.0 0.0 0.0 0.0 0.0 0.0 0.0 0.0 0.0 0.0 0.0 0.0 0.0 0.0 0.0 0.0 0.0 0.0 0.0 0.0 0.0 0.0 0.0 0.0 0.0 0.0 0.0 0.0 0.0 0.0 0.0 0.0 0.0 0.0 0.0 0.0 0.0 0.0 0.0 0.0 0.0 0.0 0.0 0.0 0.0 0.0 0.0 0.0 0.0 0.0 0.0 0.0 0.0 0.0 0.0 0.0 0.0 0.0 0.0 0.0 0.0 0.0 0.0 0.0 0.0 0.0 0.0 0.0 0.0 0.0 0.0 0.0 0.0 0.0 0.0 0.0 0.0 0.0 0.0 0.0 0.0 0.0 0.0 0.0 0.0 0.0 0.0 0.0 0.0 0.0 0.0 0.0 0.0 0.0 0.0 0.0 0.0 0.0 0.0 0.0 0.0 0.0 0.0 0.0 0.0 0.0 0.0 0.0 0.0 0.0 0.0 0.0 0.0 0.0 0.0 0.0 0.0 0.0 0.0 0.0 0.0 0.0 0.0 0.0 0.0 0.0 0.0 0.0 0.0 0.0 0.0 0.0 0.0 0.0 0.0 0.0 0.0 0.0 0.0 0.0 0.0 0.0 0.0 0.0 0.0 0.0 0.0 0.0 0.0 0.0 0.0 0.0 0.0 0.0 0.0 0.0 0.0 0.0 0.0 0.0 0.0 0.0 0.0 0.0 0.0 0.0 -0.014657161166429022 0.0 -0.005579366539484161 -0.017462418036560443 0.0 -0.00531218973280474 -0.01980864169521603 0.0 -0.00482346332058658 -0.02167479134186977 0.0 -0.00426160970654024 -0.02313995697849891 0.0 -0.0036600136115003384 -0.01551511478787786 0.0 -0.007774402594360061 -0.02077267211931679 0.0 -0.007296132582403311 -0.02509522502738061 0.0 -0.007063961776599041 -0.028537312713432798 0.0 -0.00652274376306859 -0.031198407179960162 0.0 -0.0058323953458098805 -0.03324371963109297 0.0 -0.0050263121256578 -0.022192483354812075 0.0 -0.00949827303745682 -0.02952240193806003 0.0 -0.00917037142925928 -0.035511276887781905 0.0 -0.00878006181950154 -0.0402888690072217 0.0 -0.008086665002166621 -0.0439408650985216 0.0 -0.007247488581187211 -0.0467047331676183 0.0 -0.006256255756406389 -0.030979171974479282 0.0 -0.0115969122899228 -0.0409840290246007 0.0 -0.01116262707906567 -0.0489709372242734 0.0 -0.01067270946681773 -0.0552981973824549 0.0 -0.009776619444415479 -0.0600826655020666 0.0 -0.00873961261849031 -0.0636510735912768 0.0 -0.007533564588339111 -0.04239082905977071 0.0 -0.014296862757421562 -0.0557537813938445 0.0 -0.013528987938224692 -0.06617872965446821 0.0 -0.012841457521036432 -0.07431022585775561 0.0 -0.01168192509204812 -0.08036077400901931 0.0 -0.01040383586009589 -0.084797802119945 0.0 -0.00894075942351898 -0.0573427094335677 0.0 -0.017800808445020203 -0.0748870738721768 0.0 -0.01641556681038916 -0.08822621420565531 0.0 -0.01536889278422231 -0.09841699846042491 0.0 -0.01386616874665421 -0.10584765864619139 0.0 -0.012314909907872741 -0.1111956387798909 0.0 -0.01055444266386106 -0.077164961929124 0.0 -0.0223881725597043 -0.0998146784953669 0.0 -0.02004055450101385 -0.11655461891386541 0.0 -0.01840000806000019 -0.1290266792256669 0.0 -0.01644839401120984 -0.137916043447901 0.0 -0.014569781964244542 -0.14416922760423062 0.0 -0.01247203391180084 -0.1036968745924218 0.0 -0.02852225391305633 -0.1323379673084491 0.0 -0.02478646701966166 -0.1529390958234773 0.0 -0.022211740155293494 -0.16783382019584542 0.0 -0.01969216369230408 -0.17822268445556702 0.0 -0.01737208723430217 -0.1853204286330106 0.0 -0.0148803043720076 -0.139485243487131 0.0 -0.036425960910649 -0.17474114036852842 0.0 -0.03100047197501178 -0.19943850498596252 0.0 -0.02722608508065211 -0.2167761134194027 0.0 -0.024098024202450594 -0.22866585771664633 0.0 -0.02117565612939139 -0.23653905791347632 0.0 -0.01806748405168709 -0.1882126487053161 0.0 -0.045623949140598696 -0.2299584697489616 0.0 -0.038708962167724036 -0.2585154584628863 0.0 -0.03397627564940687 -0.2782896829572419 0.0 -0.030083603552090075 -0.2916149912903746 0.0 -0.0263070886576772 -0.3000447115011176 0.0 -0.02241604096040101 -0.25422051435551274 0.0 -0.056288721407218 -0.3018433155460827 0.0 -0.047960629199015704 -0.33353818433845445 0.0 -0.0425522330638058 -0.3554513768862842 0.0 -0.0378579565464489 -0.3697378252434454 0.0 -0.0334315368357884 -0.3784558854613969 0.0 -0.02829676950741922 -0.3367924764198117 0.0 -0.0887619502190487 -0.3934217778355442 0.0 -0.0681455137036378 -0.428212330705308 0.0 -0.0570785054269626 -0.45172601129315004 0.0 -0.0493693332342333 -0.46642561166064 0.0 -0.0429878050746951 -0.47476121186903003 0.0 -0.03622227410555683 -0.454455371361384 0.0 -0.16804507220112672 -0.5134916528372911 0.0 -0.1150878708771967 -0.548376133709403 0.0 -0.0858846261471156 -0.571909574297739 0.0 -0.0684203777105094 -0.585568094639202 0.0 -0.0571385334284633 -0.592542654813566 0.0 -0.0470912651772816 -0.6193641754841039 0.0 -0.2649603906240096 -0.672214296805357 0.0 -0.1831007765775193 -0.702216977555424 0.0 -0.1292589472314736 -0.721635818040895 0.0 -0.0972731264318281 -0.7317931382948281 0.0 -0.0777333979433349 -0.736002778400069 0.0 -0.061729057543226405 -0.8334358608358962 0.0 -0.3620869970521747 -0.8737235418430881 0.0 -0.2582005104550126 -0.8944321023608022 0.0 -0.1825959845648995 -0.9059224226480601 0.0 -0.1351512593787814 -0.9099325427483129 0.0 -0.10414495860362391 -0.909807142745178 0.0 -0.07998208199955201 -1.094232587355814 0.0 -0.45891673147291795 -1.1199044679976111 0.0 -0.3365925884148145 -1.127577908189447 0.0 -0.24160273804006832 -1.128742228218555 0.0 -0.17828606845715161 -1.12526122813153 0.0 -0.1361221954030548 -1.1192204679805111 0.0 -0.1018554465463861 -1.399867954996698 0.0 -0.562264494056612 -1.411359435283985 0.0 -0.41889121047228006 -1.405800555145013 0.0 -0.3055585716389641 -1.39574883489372 0.0 -0.22581740164543493 -1.383298794582469 0.0 -0.1708237562705938 -1.369913994247849 0.0 -0.126884203172105 -1.755090203877254 0.0 -0.6779445369486131 -1.754213203855329 0.0 -0.509315452732886 -1.7356686033917144 0.0 -0.3757965653949139 -1.713676322841907 0.0 -0.27827726295693145 -1.6913031222825772 0.0 -0.2088298372207458 -1.6680473617011828 0.0 -0.15344049183601222 -2.171496814287419 0.0 -0.811432780285819 -2.159242893981071 0.0 -0.6120110553002761 -2.1269102531727553 0.0 -0.4546253713656339 -2.091650652291265 0.0 -0.33755396443884894 -2.056475891411896 0.0 -0.2504095862602395 -2.020975370524383 0.0 -0.1813393405334834 -2.666599146664977 0.0 -0.967174264179356 -2.640095386002383 0.0 -0.731180578279514 -2.590642984766073 0.0 -0.543862493596562 -2.538655903466396 0.0 -0.40242865006071604 -2.487571022189274 0.0 -0.295085367377134 -2.4364426209110643 0.0 -0.2106773172669328 -3.255983801399593 0.0 -1.150900948772523 -3.210278000256948 0.0 -0.8704485017612121 -3.1385983184649557 0.0 -0.6452224561305611 -3.0653572766339297 0.0 -0.47342077183551895 -2.994241394856033 0.0 -0.3426166125654151 -2.922444433061109 0.0 -0.2414619020365474 -3.956476698911915 0.0 -1.367146714178667 -3.884678737116966 0.0 -1.032594705814867 -3.783981414599533 0.0 -0.759717138992928 -3.6834214120855333 0.0 -0.550758333768958 -3.585536289638405 0.0 -0.3935841898396045 -3.4868016071700385 0.0 -0.2743900828597519 -4.7878057196951405 0.0 -1.6230011205750272 -4.68061171701529 0.0 -1.2217276705431912 -4.54226891355672 0.0 -0.8868758621718961 -4.40571171014279 0.0 -0.633356535833913 -4.27209250680231 0.0 -0.4506832512670811 -4.137960903449021 0.0 -0.31366294384157345 -5.774422730813799 0.0 -1.9279046059273701 -5.61906543572516 0.0 -1.441504509240239 -5.431504080987169 0.0 -1.024288925037666 -5.245898340978989 0.0 -0.7211568467805429 -5.06452657823098 0.0 -0.5153426651573481 -4.883198028635051 0.0 -0.3661302260571873 -6.9502384380013 0.0 -2.29753172943476 -6.725283827460511 0.0 -1.6940409245309969 -6.47084312998624 0.0 -1.1750072200105601 -6.2171135221925 0.0 -0.81586537450333 -5.9728962389863 0.0 -0.5945421377168001 -5.728350829511481 0.0 -0.445183414883208 -8.35144140970176 0.0 -2.7328742742300305 -8.02710834547545 0.0 -1.980432844769325 -7.67466387550296 0.0 -1.3313516561263798 -7.33050605147616 0.0 -0.9418515517867682 -7.0029637902946185 0.0 -0.707285815549077 -6.67834179502392 0.0 -0.570179301934284 -10.025314618082001 0.0 -3.2392819338054397 -9.55262233790973 0.0 -2.300420228206696 -9.063256307633461 0.0 -1.512645269003643 -8.59812359055884 0.0 -1.1026147681988319 -8.15607130417307 0.0 -0.8811170183116 -7.731574812181 0.0 -0.77792055194865 -12.01215405461652 0.0 -3.8075985898236713 -11.31642979199544 0.0 -2.658850545262968 -10.640516299983359 0.0 -1.7410268833113243 -10.007134363337581 0.0 -1.342627107541254 -9.4204238531868 0.0 -1.1612647456175702 -8.878001206611419 0.0 -1.110821532581904 -14.30215155093903 0.0 -4.429784082003 -13.3025336269435 0.0 -3.0515468923298794 -12.37803304438484 0.0 -2.048607906793168 -11.53151975308738 0.0 -1.6973319866010939 -10.762024693954 0.0 -1.6203258363506001 -10.07483392468224 0.0 -1.66229522408964 -16.80238065227665 0.0 -5.0615237329232 -15.4302963338272 0.0 -3.503937171886536 -14.1873172195793 0.0 -2.48976728655667 -13.0445921744134 0.0 -2.34995748316909 -12.001045154574962 0.0 -2.52107697010442 -11.2210712149066 0.0 -2.5306323902669403 -19.32275671911145 0.0 -5.67279280638015 -17.5198719620874 0.0 -4.01634292537008 -15.860482318081282 0.0 -3.300988204765069 -14.247636624968301 0.0 -3.4786111108033806 -13.19761797415389 0.0 -3.555731180600118 -12.401331810944159 0.0 -3.4962590965763156 -21.60526126824192 0.0 -6.104178054101121 -19.29995584282845 0.0 -4.6915786868341 -16.98310344886 0.0 -4.49306755638375 -15.461593227548201 0.0 -4.621820823556721 -14.35538940456708 0.0 -4.71840625767304 -13.5293426146998 0.0 -4.61347506614995 -23.59068936595884 0.0 -6.00168424064136 -20.8648181965056 0.0 -4.746005811732481 -18.3493568609925 0.0 -5.3415186620775 -16.59522085245576 0.0 -5.872231696751009 -15.416057710272002 0.0 -6.068524402037761 -14.53174607013504 0.0 -5.9509978783386 -24.975694428098848 0.0 -5.37178738566375 -22.1618873299284 0.0 -4.079481139143 -19.04277498379308 0.0 -6.823588058027729 -17.08162875165258 0.0 -7.98403379146197 -15.918941754174028 0.0 -8.04515327711421 -15.10707189753567 0.0 -7.720727066488441 -25.29529524950688 0.0 -5.11537328046537 -22.469738714099996 0.0 -3.681285677168399 -18.81333387206784 0.0 -8.016702534249118 -17.10803426621382 0.0 -11.255755467531241 -16.277283583834322 0.0 -11.0933672219694 -15.558403193705342 0.0 -10.290277562053861 -21.83199684986636 0.0 -5.523859588888761 -20.62093546061736 0.0 -3.9464681157360144 -17.6394431942586 0.0 -9.5157552675328 -16.6564289391813 0.0 -14.6148603307176 -16.2264281833125 0.0 -14.22866965571875 -15.60057779961472 0.0 -13.020025853049603 -15.398791658831419 0.0 -6.13912388012861 -14.981810162865841 0.0 -4.23761406925968 -14.3855913333369 0.0 -10.7130579131712 -14.145880851617141 0.0 -16.93149843981235 -13.605989349191187 0.0 -16.35233969536083 -12.95480979022945 0.0 -14.927917841758902 -9.521329593078159 0.0 -6.66682702998884 -9.3246429121374 0.0 -4.396080635253 -9.1131372119298 0.0 -10.73163348826226 -9.0687408766078 0.0 -17.35826028355194 -8.757179816496361 0.0 -17.04933945041976 -8.346953449931581 0.0 -15.757693229709902 -4.94684787118025 0.0 -7.20480301097994 -4.9116769715104 0.0 -4.5640487266836995 -4.88205942298824 0.0 -10.63890014051472 -4.92384856143282 0.0 -17.44658391408162 -4.808758323537 0.0 -17.33732511501 -4.61921176002447 0.0 -16.19275463836707 -1.606816493126914 0.0 -7.64142163495999 -1.650013297332592 0.0 -4.7373797468044 -1.6975540790028703 0.0 -10.5990529435269 -1.787190887495282 0.0 -17.37747306465506 -1.8000534237390362 0.0 -17.395487466788822 -1.76983229183427 0.0 -16.35267669162264 1.0126340377774499 0.0 -7.90499266914378 0.93160889829777 0.0 -4.905014752477951 0.8473172387072851 0.0 -10.6661864446221 0.738300249547826 0.0 -17.28496040624353 0.639944137996745 0.0 -17.318709913253798 0.553533988073656 0.0 -16.31810730402668 3.467963452609458 0.0 -7.9281632604992405 3.3276821635618226 0.0 -5.01926718762894 3.1800597055657924 0.0 -10.748813931999358 3.0739388817322078 0.0 -17.17972326871368 2.9010502231633453 0.0 -17.141927233787 2.714137928689942 0.0 -16.13123371424036 6.0414166309090005 0.0 -7.8478634454646 5.80053137789433 0.0 -5.08319224229509 5.5063553307465 0.0 -10.74204901781 5.4434263399845 0.0 -16.908833046914758 5.186302094006599 0.0 -16.80495447919736 4.89637617413904 0.0 -15.78585874519776 8.69442051089336 0.0 -7.664376370522919 8.3496187869731 0.0 -5.100464741082 7.77475471332457 0.0 -10.50214328931177 7.83645970665631 0.0 -16.43243980031831 7.48197471140115 0.0 -16.28723011669617 7.0820120573748 0.0 -15.277167383736051 11.265274145407679 0.0 -7.41029294306736 10.77815091884667 0.0 -5.05107677976024 9.92232169428552 0.0 -10.114383669231119 10.107647176262402 0.0 -15.7468632443496 9.650837598273691 0.0 -15.58398946691751 9.139928899747519 0.0 -14.605220626107199 13.59931950751929 0.0 -7.252162095407639 12.90854838389634 0.0 -4.961548670634481 11.6760216111 0.0 -9.552832921236 12.0834076123034 0.0 -14.870571823112279 11.531085307415522 0.0 -14.707554498886479 10.91870401279548 0.0 -13.78148044907636 15.460571828375299 0.0 -7.01384990704299 14.60677056630306 0.0 -4.9004196655949 13.0105345931091 0.0 -8.8772878084293 13.554215382736 0.0 -13.756759163756799 12.976433627360493 0.0 -13.686920645957713 12.19012682245393 0.0 -12.833017284115 16.72965838164384 0.0 -6.68034215377848 15.70561524696288 0.0 -4.751373167689921 14.0372334940761 0.0 -8.2870412177553 14.518107155263321 0.0 -12.576326297158259 13.587976466996128 0.0 -12.57302775335832 12.52470387609 0.0 -11.80709807748744 17.6223521559036 0.0 -6.30657737395 16.5208377838364 0.0 -4.5939551211106 14.853891758863922 0.0 -7.8024895625009 14.87383274566644 0.0 -11.48222019098648 13.580890620316248 0.0 -11.415227335506751 12.4560069823245 0.0 -10.737857064861501 18.36522575330825 0.0 -5.885330740838 17.12872291695907 0.0 -4.37788403483405 15.5325664996854 0.0 -7.413111199137599 14.817757061091601 0.0 -10.27752507870844 13.4448912708936 0.0 -10.261665317533899 12.273529867613622 0.0 -9.68092657514063 19.10878752373356 0.0 -5.359888713575339 17.749188892182964 0.0 -4.134743214790591 16.09441314572655 0.0 -7.049378683582289 14.673124845702183 0.0 -9.118987633049581 13.203448333260122 0.0 -9.148137988462201 12.027616788022499 0.0 -8.684527906240861 20.08144527054221 0.0 -4.733470637761011 18.35831957597461 0.0 -3.7353578033446087 16.4588758531256 0.0 -6.518660838035 14.53828563788446 0.0 -8.0648785375908 12.96254794838612 0.0 -8.1710470950468 11.77717310089815 0.0 -7.783880941504031 21.59047867655822 0.0 -4.5259382924327 19.060214921424212 0.0 -3.7378268865888167 16.617176059190502 0.0 -5.86312450654514 14.44582272530276 0.0 -7.208041848079839 12.765257134954439 0.0 -7.295870928718079 11.5019900261598 0.0 -6.9077909379047995 22.96166025387582 0.0 -5.497232551268221 19.58612549411021 0.0 -4.33219420073288 16.90543991891846 0.0 -5.404215516635389 14.46159099811552 0.0 -6.4640810872710395 12.67661051924085 0.0 -6.497611835719549 11.22907578983136 0.0 -6.12919735351296 24.39187575488922 0.0 -6.101611355649901 20.49534022731876 0.0 -4.72380436989018 17.49379524712098 0.0 -4.8453279504897 14.737256989499999 0.0 -5.73937747548 12.60368354590128 0.0 -5.85826410064896 11.01730386246 0.0 -5.476225020659999 21.4013562830595 0.0 -4.9120622969848196 18.20343776332653 0.0 -4.35193803120492 15.40465937109111 0.0 -4.7550649840692 12.80442833356185 0.0 -5.183977878003421 10.9250550158337 0.0 -4.88956737694824 22.108299334703002 0.0 -5.29880767966825 18.845771265937252 0.0 -4.299863221572751 16.02076572697888 0.0 -4.11501246680496 13.278898883042501 0.0 -4.36312117194075 11.0240706605064 0.0 -4.30143633471888 19.4762846320518 0.0 -4.561821342827 16.606087989028342 0.0 -3.940547702061916 13.88188613438065 0.0 -3.8356751228845107 11.34805461347426 0.0 -3.7304669948573363 20.032805074318162 0.0 -4.9768408656513605 17.276204344001624 0.0 -4.144478627378761 14.57578466312472 0.0 -3.6579481038596007 11.963290713540252 0.0 -3.3883555915132746 17.85804296815195 0.0 -4.5013092095269505 15.374558170994803 0.0 -3.8294550259912348 12.815004344779 0.0 -3.3517964452443643 16.048383825117302 0.0 -4.14558246166968 13.68991771586628 0.0 -3.605321252742498 16.27410732982272 0.0 -4.36517903279808 14.457405484540232 0.0 -4.00871867347632 -0.024250940206273493 0.0 -0.003075925876898145 -0.025070581426764525 0.0 -0.0025250053831251326 -0.02564891344122282 0.0 -0.002043017411075434 -0.026051608251290194 0.0 -0.001610721680268041 -0.026327291858182278 0.0 -0.0012318497907962442 -0.026512206262805142 0.0 -0.0009104767027619171 -0.026632431865810782 0.0 -0.000636745055918626 -0.02670602586765063 0.0 -0.00040183697004592405 -0.02674529906863246 0.0 -0.0001945464688636616 -0.034757826468945645 0.0 -0.00422976330574408 -0.0358433164960829 0.0 -0.003484765167119127 -0.03659072331476806 0.0 -0.0028327989108199707 -0.03710177332754431 0.0 -0.002239995335999882 -0.037440122136003035 0.0 -0.0017307430832685761 -0.03766004854150119 0.0 -0.001292701472317536 -0.037799150544978746 0.0 -0.0009111829427795731 -0.03788144694703616 0.0 -0.000579662534491563 -0.03792446934811171 0.0 -0.0002815900910397521 -0.0487075732176893 0.0 -0.00528243973206099 -0.0501108892527722 0.0 -0.0043625001090624995 -0.051052033276300805 0.0 -0.003554691848867294 -0.05167240529181011 0.0 -0.002826996390674908 -0.052066381301659505 0.0 -0.0021980442549511055 -0.052308465307711605 0.0 -0.0016498264412456599 -0.0524515653112891 0.0 -0.0011688825092220619 -0.0525306173132654 0.0 -0.0007469522986738071 -0.0525696213142405 0.0 -0.0003636224770905617 -0.06619281765482041 0.0 -0.006352846558821161 -0.0679315696982892 0.0 -0.005248006531200161 -0.0690611697265292 0.0 -0.00427349090683727 -0.06976854574421361 0.0 -0.0034075313251882814 -0.0701874617546865 0.0 -0.0026568428264210687 -0.07042213376055331 0.0 -0.001996692129917302 -0.07054371376359281 0.0 -0.001417928675448216 -0.0706001297650032 0.0 -0.0009083630627090761 -0.0706231137655778 0.0 -0.000442337451058436 -0.0878908181972704 0.0 -0.007524048588101211 -0.0899435382485884 0.0 -0.00620931935523298 -0.0912251142806278 0.0 -0.005037966925949169 -0.0919746702993667 0.0 -0.00401352250033806 -0.0923733503093337 0.0 -0.003126929398173233 -0.0925600623140015 0.0 -0.002346516258662905 -0.0926273063156826 0.0 -0.0016665846416646151 -0.0926365023159125 0.0 -0.001068714586717864 -0.0926285783157144 0.0 -0.00051955441298886 -0.11482124687053111 0.0 -0.008865125021628121 -0.11713434692835861 0.0 -0.0073086249827156195 -0.1185081269627031 0.0 -0.00589937374748434 -0.11923730698093261 0.0 -0.00468435491710887 -0.11955713498892831 0.0 -0.003635731050893274 -0.11964515899112892 0.0 -0.0027166139879153477 -0.1196166669904166 0.0 -0.001925818488145461 -0.1195491589887289 0.0 -0.001232282950807073 -0.11949178298729451 0.0 -0.000598881374972034 -0.1482770357069258 0.0 -0.010463558261588951 -0.1507710477692761 0.0 -0.00862467021561675 -0.15214749980368739 0.0 -0.006924694973117371 -0.1527671718191792 0.0 -0.00546798773669969 -0.15292787982319692 0.0 -0.0042180821054520505 -0.152850763821269 0.0 -0.003129775518244386 -0.15267318781682962 0.0 -0.002209504015237599 -0.1524908958122723 0.0 -0.001406236755155918 -0.1523605038090125 0.0 -0.0006825865770646641 -0.18981912474547802 0.0 -0.01245724871143121 -0.19236797680919931 0.0 -0.01025832705645817 -0.1936109488402736 0.0 -0.00819297820482445 -0.1939943368498583 0.0 -0.006422386560559661 -0.1938884408472109 0.0 -0.00490631372265784 -0.1935515328387882 0.0 -0.0036128868503221686 -0.1931509168287728 0.0 -0.002532464503311611 -0.1927996568199913 0.0 -0.001600435960010898 -0.1925640648141015 0.0 -0.0007740298993507471 -0.24127331403183272 0.0 -0.01506735277668381 -0.24369400209234993 0.0 -0.01236611990915299 -0.24461651411541271 0.0 -0.009806412645160311 -0.24458230211455742 0.0 -0.00761844699046117 -0.2440456941011422 0.0 -0.00575362334384058 -0.2433119820827994 0.0 -0.0041882841047071 -0.2425786300644656 0.0 -0.002903707592592688 -0.2419796540494912 0.0 -0.001817073365426833 -0.24159148203978692 0.0 -0.000873488501837212 -0.30477042761926054 0.0 -0.01861298566532463 -0.3068139636703489 0.0 -0.015147450778686261 -0.3071567596789188 0.0 -0.011888645897216141 -0.30645177966129433 0.0 -0.009123827028095671 -0.305252727631318 0.0 -0.006788580969714519 -0.3039264275981605 0.0 -0.00486271812156795 -0.3027073955676847 0.0 -0.0033201412030035285 -0.3017506435437659 0.0 -0.0020494625312365623 -0.3011436995285923 0.0 -0.0009769073844226842 -0.3827982055699549 0.0 -0.02340296258507405 -0.3841373776034342 0.0 -0.018789738869743458 -0.38354628958865705 0.0 -0.01456390636409765 -0.3818341575458537 0.0 -0.01099212627480315 -0.3796677454916934 0.0 -0.008015283400382081 -0.37748807343720164 0.0 -0.005619272540481811 -0.3755763373894082 0.0 -0.0037599340939983503 -0.3741134013528348 0.0 -0.0022812316570307903 -0.3731981613299538 0.0 -0.0010744647468616181 -0.478246971956174 0.0 -0.02967917994197948 -0.47843261196081505 0.0 -0.023464285386607123 -0.4764505319112631 0.0 -0.01791762004794049 -0.47330661183266504 0.0 -0.013224251930606291 -0.46977721174443005 0.0 -0.00941809143545228 -0.4664071716601789 0.0 -0.0064284305607107605 -0.463531011588275 0.0 -0.00418615730465393 -0.46136681153417 0.0 -0.0024798805419970122 -0.4600266515006661 0.0 -0.001150220468755511 -0.594474614861865 0.0 -0.03777608054440199 -0.5928638548215961 0.0 -0.029297388332434695 -0.588875694721892 0.0 -0.02196180734904517 -0.583736974593424 0.0 -0.01579029159475728 -0.5783332544583311 0.0 -0.01094280347357008 -0.573338934333473 0.0 -0.00721930498048262 -0.5691545342288631 0.0 -0.0045387801134695 -0.566037534150938 0.0 -0.002599063024976574 -0.564121974103049 0.0 -0.001181289509532237 -0.7353401383835031 0.0 -0.0481008092025202 -0.7310218182755449 0.0 -0.03637550570938762 -0.724186538104663 0.0 -0.026648662266216542 -0.716286057907151 0.0 -0.018567768064194193 -0.708334857708371 0.0 -0.012446371911159292 -0.7011595775289889 0.0 -0.00789773419744335 -0.695214497380362 0.0 -0.00473989011849725 -0.690822137270553 0.0 -0.0025841281446032024 -0.6881366972034171 0.0 -0.001136462788411569 -0.9052643026316072 0.0 -0.06078252951956321 -0.896971742424293 0.0 -0.0446769651169241 -0.8861468621536712 0.0 -0.0318704047967601 -0.874460901861522 0.0 -0.02147350533683762 -0.863069861576746 0.0 -0.01381574474539361 -0.8529666213241651 0.0 -0.008281784607044611 -0.844700541117513 0.0 -0.0046919881172997 -0.8386255409656379 0.0 -0.002369308699232716 -0.8349283408732081 0.0 -0.000977435904435897 -1.1089994677249861 0.0 -0.0752802258820056 -1.0951975073799372 0.0 -0.0539424893485622 -1.0789008269725202 0.0 -0.03741996093549901 -1.062098986552474 0.0 -0.024336307408407674 -1.0461060661526511 0.0 -0.014900756372518902 -1.0321360658034011 0.0 -0.00832266740806668 -1.020830385520759 0.0 -0.004311207307780181 -1.012567465314186 0.0 -0.001912122247803055 -1.007559145188978 0.0 -0.000685727337143183 -1.352139993803499 0.0 -0.0916990062924751 -1.3307855932696389 0.0 -0.063949961598749 -1.30705083267627 0.0 -0.0428067890701697 -1.2833913120847822 0.0 -0.026767483869187078 -1.261382591534564 0.0 -0.01560090959002273 -1.242355551058888 0.0 -0.00798110899952772 -1.2271065906776641 0.0 -0.003549964448749109 -1.2160452304011302 0.0 -0.001229494950737373 -1.209359390233984 0.0 -0.0002785819869645495 -1.640673881016846 0.0 -0.1091081547277038 -1.609306760232668 0.0 -0.0743295338582383 -1.57576363939409 0.0 -0.048083721202093005 -1.543063598576589 0.0 -0.02876709471917735 -1.513248957831223 0.0 -0.01596071159901778 -1.4877138371928451 0.0 -0.007374189384354731 -1.4674339566858479 0.0 -0.0026205441455136023 -1.452827316320682 0.0 -0.000459261371481534 -1.444026716100667 0.0 0.00016510823612770579 -1.9811592495289803 0.0 -0.1272155911803897 -1.936673008416824 0.0 -0.0847270621181765 -1.890489447262235 0.0 -0.0533033493325837 -1.8461344061533593 0.0 -0.03085564437139109 -1.8062962051574043 0.0 -0.016313668007841692 -1.7725603643140082 0.0 -0.006999011374975281 -1.7459816436495401 0.0 -0.0019857360496434 -1.7269586831739658 0.0 5.266504131662601e-05 -1.715549522888737 0.0 0.00045653781141344503 -2.379933219498329 0.0 -0.14437931960948291 -2.318891217972279 0.0 -0.0960725264018131 -2.2566275364156874 0.0 -0.059038165475954106 -2.1974768149369193 0.0 -0.034005902050147536 -2.1450852136271292 0.0 -0.01775407404385184 -2.101195972529898 0.0 -0.007951202598780061 -2.066898571672463 0.0 -0.0026041536251038395 -2.0425095310627372 0.0 -0.00039099758577493943 -2.027949770698743 0.0 0.00020942271723556783 -2.8444735111118358 0.0 -0.16324578808114462 -2.762001109050026 0.0 -0.1085709107142727 -2.67914166697854 0.0 -0.0670812496770312 -2.6015904250397592 0.0 -0.0400081130002028 -2.533758983343973 0.0 -0.02272626976815673 -2.4775404619385104 0.0 -0.01219175350479383 -2.434000660850015 0.0 -0.0062108597552714894 -2.4032549400813723 0.0 -0.003037002395925058 -2.384993059624825 0.0 -0.001203239910080997 -3.3812237645305916 0.0 -0.18624519665612982 -3.2710095217752357 0.0 -0.1256699951417498 -3.1624899590622473 0.0 -0.0812284380307109 -3.0623564365589093 0.0 -0.0527831973195799 -2.9758810743970248 0.0 -0.03509829447745735 -2.905012792625318 0.0 -0.02316265897906646 -2.850705991267648 0.0 -0.015509151187728772 -2.812637790315943 0.0 -0.009769443044236072 -2.7901396297534893 0.0 -0.00474483971862099 -3.996224299905605 0.0 -0.217973045449326 -3.851221936280546 0.0 -0.1541412518535312 -3.710558412763959 0.0 -0.1082201987055049 -3.583154769578867 0.0 -0.07893986197349649 -3.474641886866045 0.0 -0.0603696295092407 -3.3869305646732615 0.0 -0.0459388851484721 -3.3204361630109025 0.0 -0.0344327248608181 -3.2741726818543153 0.0 -0.02333389298334731 -3.246997521174936 0.0 -0.011828716295717901 -4.694544720905899 0.0 -0.268542253406539 -4.5067185800364 0.0 -0.20351456063580597 -4.32703909433168 0.0 -0.158841202956954 -4.16762703828947 0.0 -0.12832970587192 -4.03380312281527 0.0 -0.1071360963168162 -3.927188090850172 0.0 -0.0879181553447148 -3.8473427084042395 0.0 -0.068605601163336 -3.792294884219029 0.0 -0.047666815750084995 -3.7601383821116063 0.0 -0.0244216361478332 -5.48229276864102 0.0 -0.3507420880845195 -5.24131737222839 0.0 -0.28960213676351454 -5.016186062605479 0.0 -0.24693427412085248 -4.820065645123299 0.0 -0.21519001217643802 -4.65810723007413 0.0 -0.1870219508250247 -4.53106773470799 0.0 -0.15705902116137518 -4.437051048896961 0.0 -0.12355749653728 -4.37283216681115 0.0 -0.0856879552240327 -4.335544954954201 0.0 -0.043994134986580995 -6.36230036567814 0.0 -0.492851418171732 -6.057938906906041 0.0 -0.436297472364348 -5.78173697579208 0.0 -0.3956669216741526 -5.54558817554682 0.0 -0.35745835971017065 -5.35356437222769 0.0 -0.3133706253529623 -5.205488427312 0.0 -0.26370061049646 -5.09710666768506 0.0 -0.206635688670798 -5.0236390251457195 0.0 -0.1423446704227548 -4.98116077359525 0.0 -0.0725403219021345 -7.330986414108301 0.0 -0.7199964497940801 -6.95830705118276 0.0 -0.674741550367339 -6.62822053630765 0.0 -0.630251897299195 -6.3499882959259 0.0 -0.57275770532562 -6.127166587072661 0.0 -0.5006103539533621 -5.957456420118111 0.0 -0.41557522003315694 -5.833635465709869 0.0 -0.3230377252660922 -5.750500162384581 0.0 -0.2210812344269772 -5.70270665624596 0.0 -0.1125255985411544 -8.38141979599008 0.0 -1.087280532027774 -7.939129620129119 0.0 -1.0446563955530639 -7.554381920956501 0.0 -0.9741402264711001 -7.2362941382124895 0.0 -0.868252428591804 -6.982964703079021 0.0 -0.746214850666791 -6.79053294145632 0.0 -0.610920523883964 -6.6516156366156896 0.0 -0.46596468026561705 -6.55823941375986 0.0 -0.3138094671795513 -6.504316120269269 0.0 -0.15727870610869502 -9.48642792502356 0.0 -1.652903800910572 -8.985111042640881 0.0 -1.569802501115352 -8.555148430268162 0.0 -1.434937782257532 -8.196417489673271 0.0 -1.2651351806516062 -7.911663050902959 0.0 -1.075215164490834 -7.69638670443641 0.0 -0.8701652420117321 -7.54159641898561 0.0 -0.6561765621025211 -7.4383609459 0.0 -0.43633565043320005 -7.37878478447432 0.0 -0.2171961066242796 -10.62619972046505 0.0 -2.39960592223293 -10.0809637014634 0.0 -2.2285261374211154 -9.60381823684416 0.0 -2.0083721846248195 -9.2030670882466 0.0 -1.74990325991212 -8.88691350851505 0.0 -1.4659812104027252 -8.648454199699259 0.0 -1.17412193405679 -8.4743225700254 0.0 -0.881733645847115 -8.35881610712036 0.0 -0.584019784657456 -8.29058120570915 0.0 -0.2956676649589805 -11.75696876513368 0.0 -3.3039048668107727 -11.16817743780592 0.0 -3.0545152115533303 -10.6465589373633 0.0 -2.722031157052424 -10.20591507934528 0.0 -2.3333198423968278 -9.861197726329642 0.0 -1.9067906092228883 -9.59839116992434 0.0 -1.494340215758782 -9.402988507894062 0.0 -1.108193446916942 -9.263905227404939 0.0 -0.739345748313396 -9.1870932672848 0.0 -0.36927770031701923 -12.831016863207712 0.0 -4.379083643298721 -12.199370720755699 0.0 -4.03044179640334 -11.63116339243238 0.0 -3.5836144415576943 -11.167107536893418 0.0 -3.03430257886272 -10.78059837875364 0.0 -2.461716704136928 -10.484114001617499 0.0 -1.8976368947966251 -10.27739838058172 0.0 -1.380459149668652 -10.123569920045 0.0 -0.905824400922125 -10.03368142993399 0.0 -0.446913410155837 -13.784106295376882 0.0 -5.6485384800735 -13.085916288430079 0.0 -5.15942088079104 -12.50697494251134 0.0 -4.51880870479335 -12.012282387435869 0.0 -3.771139902137424 -11.59343455910904 0.0 -3.0292331342154117 -11.25199792459833 0.0 -2.3461834528536665 -11.012315033385482 0.0 -1.6956893466134522 -10.84446565988976 0.0 -1.104345080975508 -10.73751490990623 0.0 -0.546622677372333 -14.39891577596418 0.0 -7.2110843696307 -13.7543406672672 0.0 -6.541813640796209 -13.193119967390881 0.0 -5.6786658013298394 -12.69238106299146 0.0 -4.7084252496417 -12.26326531433904 0.0 -3.735713363480388 -11.90248013847294 0.0 -2.8463507344729795 -11.6274896323824 0.0 -2.05066515645936 -11.4337577722887 0.0 -1.3369398900102178 -11.324329775704259 0.0 -0.662380433962398 -14.880887895807449 0.0 -9.36564615556515 -14.213445427621648 0.0 -8.36889495021747 -13.617414761500442 0.0 -7.177002450396571 -13.09947047035347 0.0 -5.885038329013439 -12.647267994578248 0.0 -4.611442074075 -12.2711272456842 0.0 -3.4706459385276833 -11.993469323035198 0.0 -2.48036310113592 -11.78366718702552 0.0 -1.6004985471103201 -11.661160349398559 0.0 -0.786272241090336 -14.875280982882959 0.0 -11.718932328583469 -14.189917575810599 0.0 -10.34013137203098 -13.590218149490402 0.0 -8.7564497830458 -13.069367154899158 0.0 -7.068409614405719 -12.61393386330816 0.0 -5.46755189204466 -12.24166396809315 0.0 -4.0634987690110504 -11.95132380931815 0.0 -2.87148370115853 -11.75145672496746 0.0 -1.8382120490743319 -11.634544565301841 0.0 -0.8993213189160959 -12.24848514488858 0.0 -13.42520354002506 -11.566049704729611 0.0 -11.81664071917707 -10.95065785802598 0.0 -9.9622579577288 -10.42824467755838 0.0 -8.00322281237351 -10.009256632673761 0.0 -6.16850319671652 -9.687045423572622 0.0 -4.5665818349951905 -9.450164165397139 0.0 -3.212230781416524 -9.287815622103068 0.0 -2.050731096808076 -9.1926165950636 0.0 -1.002105191174036 -7.884630329377679 0.0 -14.275731722400359 -7.4189146545957305 0.0 -12.6166348821942 -6.98758317908835 0.0 -10.666735304518351 -6.615053985626401 0.0 -8.5900736257854 -6.311001048207239 0.0 -6.6344585221529995 -6.074062626717719 0.0 -4.92052124428146 -5.8976626540311905 0.0 -3.4668078955873467 -5.775220828334791 0.0 -2.2161121708410176 -5.7027175534886405 0.0 -1.0838537568211442 -4.37949079313847 0.0 -14.772015157774048 -4.1188206480555 0.0 -13.114994113813951 -3.8646178039562393 0.0 -11.124063463631998 -3.637944164766247 0.0 -8.98061107455666 -3.4488940893073656 0.0 -6.95013611569415 -3.2987613182343685 0.0 -5.1641629640323305 -3.184859878460398 0.0 -3.6447867855694196 -3.104311102095659 0.0 -2.3333193024078334 -3.055897680791962 0.0 -1.142261043900048 -1.702172293739985 0.0 -14.991791935734751 -1.6096387568712116 0.0 -13.358463097165918 -1.50850746160479 0.0 -11.3604282382716 -1.412616369437304 0.0 -9.18946599562866 -1.329265016650932 0.0 -7.123401744929221 -1.2604194976783951 0.0 -5.3013265780631995 -1.205967066569919 0.0 -3.7475694400600346 -1.16589358881624 0.0 -2.402468950283715 -1.141107627207447 0.0 -1.177251231512313 0.486515096870038 0.0 -14.99754860241644 0.440204456656059 0.0 -13.39259534352596 0.41034747206068606 0.0 -11.40786149479908 0.39174418777821113 0.0 -9.238906783097459 0.3812249215654964 0.0 -7.16947530022489 0.3769541932687693 0.0 -5.34194195589312 0.37721724774959237 0.0 -3.781152367373173 0.37986612455281205 0.0 -2.42689468315152 0.38261035767147045 0.0 -1.190218282649768 2.529671232582082 0.0 -14.829547897810272 2.361026873858082 0.0 -13.25211198280204 2.21549560251684 0.0 -11.29492632198896 2.095898429703072 0.0 -9.15150345655216 2.0024646704584437 0.0 -7.1052938453538 1.9332639223834762 0.0 -5.29796671393456 1.8850130051997083 0.0 -3.7534183025152874 1.853867196465988 0.0 -2.411239626890997 1.836532312777825 0.0 -1.18328018608579 4.597315936052791 0.0 -14.502964034426043 4.31318320973859 0.0 -12.957895313954909 4.06159967551455 0.0 -11.04245681956443 3.851188500991245 0.0 -8.945671910516639 3.683804769257664 0.0 -6.945627623715722 3.556867312775028 0.0 -5.180336628274921 3.4653457335683844 0.0 -3.6718790249485656 3.4039255325588575 0.0 -2.3601260644079307 3.3685760882754714 0.0 -1.1586982650167519 6.6673844521913805 0.0 -14.023768885907309 6.2720274129872795 0.0 -12.522179256178479 5.921819637622831 0.0 -10.66509198569817 5.628984520746419 0.0 -8.63541316036638 5.3954495920764005 0.0 -6.70221859178505 5.21709541530264 0.0 -4.99807790213742 5.08714548014862 0.0 -3.5429669485753417 4.9988836767203395 0.0 -2.277737948387748 4.9475217979422 0.0 -1.11844326008106 8.61339459520828 0.0 -13.397938472897032 8.1140681891948 0.0 -11.955470062442998 7.67422478355008 0.0 -10.17512360736592 7.307950572858359 0.0 -8.232448365728839 7.0161283392199305 0.0 -6.384993626933531 6.792828004202039 0.0 -4.75898285803022 6.629396317501969 0.0 -3.3724319123156916 6.517765437002749 0.0 -2.167844492244291 6.45252688526248 0.0 -1.06447147967556 10.29177629855986 0.0 -12.63842914250878 9.7000055606488 0.0 -11.27209720229576 9.1808490681225 0.0 -9.586633907128972 8.749295136544552 0.0 -7.749245158101091 8.404696168825641 0.0 -6.00437160550954 8.13943768419108 0.0 -4.47128155765568 7.945001465841281 0.0 -3.1664068590779517 7.8116047966900615 0.0 -2.0346560273062577 7.73354896185088 0.0 -0.9989767361542401 11.39413091099143 0.0 -11.770793874467621 10.652295083722052 0.0 -10.49210705313682 10.02577215184027 0.0 -8.91695085568155 9.5055639367936 0.0 -7.203443532885599 9.08087549174761 0.0 -5.578568094937631 8.74726854262646 0.0 -4.15559679692773 8.48992951627821 0.0 -2.9478921226289923 8.31329276621305 0.0 -1.8973563393526278 8.2103917993173 0.0 -0.932514564879125 11.59633690407441 0.0 -10.83179151323928 10.802214535841971 0.0 -9.64577077435959 10.13832216096 0.0 -8.19249027168 9.589798281462839 0.0 -6.6158397706832694 9.142930383454411 0.0 -5.126682445967041 8.7962008750812 0.0 -3.819997051014438 8.53960481284584 0.0 -2.7141667560609726 8.3476628656611 0.0 -1.7479988023005575 8.24190560678394 0.0 -0.8602538494014358 11.522097268647851 0.0 -9.857875511363941 10.71878337296005 0.0 -8.776878621857248 10.04904752860905 0.0 -7.4501140377265 9.49760424881569 0.0 -6.01645545571308 9.0553094221472 0.0 -4.65880369128896 8.69155471483418 0.0 -3.4796221702646877 8.42266061445168 0.0 -2.47315453563006 8.2412291699334 0.0 -1.592233810759724 8.13387738262755 0.0 -0.781692953736281 11.324328816281 0.0 -8.901816284262479 10.515614694479481 0.0 -7.91436135606638 9.84469058155792 0.0 -6.714236833274959 9.29932391046824 0.0 -5.421828422508081 8.84561616668938 0.0 -4.20752295574871 8.4873986336132 0.0 -3.1418576662082405 8.22957636027124 0.0 -2.22672037034374 8.06198552885612 0.0 -1.423836022091786 7.9593645984657 0.0 -0.69453003643191 11.06341037256312 0.0 -7.987152811841281 10.244713053262469 0.0 -7.107336504412411 9.56311647838554 0.0 -6.03342533540448 9.0148598765619 0.0 -4.88592768716718 8.58216857361975 0.0 -3.787194662644275 8.2587742842156 0.0 -2.81195943081315 8.01918300313224 0.0 -1.983346860440295 7.8504019770066 0.0 -1.2774985372521357 7.753631863055761 0.0 -0.632448301139424 10.77638911101685 0.0 -7.1374441209972295 9.94633892992413 0.0 -6.348540121062549 9.256968755493729 0.0 -5.3951128771787795 8.7161186597324 0.0 -4.36933019719854 8.29841013843436 0.0 -3.3826880865687 7.98118989576 0.0 -2.5219730409967998 7.748480498247719 0.0 -1.7950920939111017 7.596564747734609 0.0 -1.1654021058600008 7.5053061014147895 0.0 -0.579121193683383 10.46441570404034 0.0 -6.35388301965893 9.61155372857936 0.0 -5.63461590296646 8.9220308066204 0.0 -4.80404284020192 8.37903447862832 0.0 -3.8911318258303673 7.9732825891124 0.0 -3.0319138437083857 7.6665491672385 0.0 -2.275584642701538 7.44617461797192 0.0 -1.627173728429518 7.297178194368099 0.0 -1.06096834268693 7.2019918530146985 0.0 -0.521724648240275 10.147494139051378 0.0 -5.61882968141667 9.2692442552122 0.0 -4.969570410607839 8.56355581506366 0.0 -4.246020380339011 8.02802949160536 0.0 -3.47583431029368 7.622116907140001 0.0 -2.7280908381960276 7.32565676955365 0.0 -2.05707174198788 7.112517544313689 0.0 -1.4857739651536566 6.97795664654128 0.0 -0.9654171308517522 6.892681887689309 0.0 -0.47308003927099196 9.839219760917189 0.0 -4.9489748199171 8.9327426714316 0.0 -4.38876710401059 8.215825901759999 0.0 -3.748066970937 7.67255693433 0.0 -3.1051163063489997 7.269043990068119 0.0 -2.458304630939979 6.96936559593204 0.0 -1.8696270502260541 6.782695280969399 0.0 -1.361205584461656 6.65367028386 0.0 -0.8799652671870001 6.57740985008052 0.0 -0.42824182683009 9.59479870411125 0.0 -4.36396659879285 8.61423146579553 0.0 -3.834298304783106 7.8878112267144 0.0 -3.3142442343500678 7.330871797406429 0.0 -2.753217125613627 6.927460298663999 0.0 -2.21032660861064 6.63991298672625 0.0 -1.7017697268939154 6.458841089271901 0.0 -1.2418990436830952 6.334626989747759 0.0 -0.799781910630912 6.26299015254885 0.0 -0.39132338458383453 9.46709072509125 0.0 -3.846349843023 8.37060285242817 0.0 -3.3358079503152047 7.590836072814599 0.0 -2.8673493880229795 7.031208571118429 0.0 -2.4198231822300746 6.611322866545601 0.0 -1.9555810596329277 6.338670508074509 0.0 -1.536912825402005 6.15422670377564 0.0 -1.123839682317986 6.032108397244159 0.0 -0.7309759646796319 5.9633328920581095 0.0 -0.3567124187125319 9.47945421905197 0.0 -3.406600259884248 8.233426429695209 0.0 -2.915998667114103 7.37425868654272 0.0 -2.478403589902418 6.76901554698213 0.0 -2.0797967407650537 6.3510873359674 0.0 -1.714046822123805 6.06650253807424 0.0 -1.355196431023808 5.87929927189626 0.0 -1.006814559546871 5.758976940371199 0.0 -0.65885042465046 5.691967563969829 0.0 -0.3267023386453179 9.74119163764764 0.0 -3.0621698783188482 8.24112613478564 0.0 -2.6132416722514917 7.25243431456115 0.0 -2.1614551692702544 6.58953722899092 0.0 -1.799230512129024 6.136631476462899 0.0 -1.46817770345085 5.836543216751921 0.0 -1.177807016929544 5.6429658006015995 0.0 -0.88195367476969 5.519368852863501 0.0 -0.58317251348633 5.45441660917326 0.0 -0.2913598510810789 10.4625906388692 0.0 -2.9093232674972547 8.54568188418844 0.0 -2.458062813918688 7.29992319081325 0.0 -1.985915388735605 6.5131920435775505 0.0 -1.5912445666929 6.00282506087344 0.0 -1.28012541997136 5.66364807070764 0.0 -1.0002199691403741 5.447552010772189 0.0 -0.7533231963631821 5.321595937201439 0.0 -0.503808190493042 5.251026886291459 0.0 -0.25071011939867227 11.447235828638402 0.0 -3.0619266413631 9.328741862344081 0.0 -2.572654923214926 7.68210158055438 0.0 -2.041140223640259 6.62197281767514 0.0 -1.5408332577979618 5.981040809071831 0.0 -1.1711657100840123 5.58333410608809 0.0 -0.894242328299067 5.3237009830032 0.0 -0.6480557299419001 5.172526318014991 0.0 -0.425110016293215 5.09678313132213 0.0 -0.20966940734406392 12.31037101371168 0.0 -3.5138151740220476 10.3786841167988 0.0 -2.96668232285744 8.55749578811904 0.0 -2.4398901517233598 7.16585344360704 0.0 -1.8377583985535042 6.212664613968751 0.0 -1.3040966198043749 5.642556568518871 0.0 -0.913522533412203 5.3091279603935995 0.0 -0.630841696005024 5.11795821062271 0.0 -0.40137299643265606 5.01724596271899 0.0 -0.1952292067411686 13.001476163788972 0.0 -3.8287500411530244 11.25970761221072 0.0 -3.4318302234791895 9.68070509876448 0.0 -2.9425699896499724 8.30289669528176 0.0 -2.3755097567026757 7.072833943859901 0.0 -1.8249501809797104 6.137631088022459 0.0 -1.3037097508868163 5.549889076413099 0.0 -0.8499615393299159 5.242134518344801 0.0 -0.49785975400410004 5.10050699334345 0.0 -0.2297733912367647 11.8096778999784 0.0 -3.631224600604381 10.45899743982426 0.0 -3.3557244822961922 9.397440966081142 0.0 -2.845516586608611 8.486551084696801 0.0 -2.2234591875561738 7.656461507450721 0.0 -1.6395263562551843 6.9960846613815 0.0 -1.1081885648674341 6.550878234685201 0.0 -0.66336391525976 6.303253984749921 0.0 -0.3059942032533008 9.89684012520173 0.0 -3.215625797256531 9.157258359330058 0.0 -2.75611726876465 8.61798587204236 0.0 -2.04108301068774 8.2790419004019 0.0 -1.36722889300203 7.995642684160041 0.0 -0.8054103619319919 7.8321588420858 0.0 -0.366420223821204 8.95376513795161 0.0 -2.5107447124823974 8.67396872498309 0.0 -1.6981702909670282 8.53336874736242 0.0 -0.986521505449686 8.44696241819526 0.0 -0.4424730198577891 -0.02675771466894285 0.0 -5.019643325491081e-10 -0.026745284268632093 0.0 0.00019454309286357722 -0.02670603746765092 0.0 0.000401837650045941 -0.026632428665810705 0.0 0.0006367415359185381 -0.02651218226280454 0.0 0.000910473542761838 -0.026327294658182353 0.0 0.001231849030796225 -0.0260515966512899 0.0 0.0016107166402679154 -0.025648952241223794 0.0 0.0020430129710753233 -0.03793798774844967 0.0 -8.15853140396328e-09 -0.03792447254811179 0.0 0.000281589487039737 -0.037881458947036456 0.0 0.0005796649744916239 -0.03779912974497822 0.0 0.0009111786627794661 -0.03766005734150141 0.0 0.0012926990323174749 -0.03744013093600325 0.0 0.001730745523268637 -0.03710178212754453 0.0 0.002239989535999737 -0.03659072331476806 0.0 0.002832797630819939 -0.0525814293145357 0.0 1.242959391073984e-08 -0.052569665314241606 0.0 0.0003636206610905163 -0.0525305893132647 0.0 0.0007469521386738031 -0.05245158931128971 0.0 0.0011688859492221479 -0.052308465307711605 0.0 0.0016498245612456132 -0.0520663293016582 0.0 0.0021980452149511294 -0.0516724372918109 0.0 0.0028269973506749317 -0.05105205327630131 0.0 0.0035546877288671914 -0.0706291697657292 0.0 -1.8478264061956592e-08 -0.07062312576557811 0.0 0.000442335171058379 -0.0706000777650019 0.0 0.000908366222709155 -0.070543721763593 0.0 0.0014179253554481332 -0.070422121760553 0.0 0.0019966876499171904 -0.0701875337546883 0.0 0.0026568381864209532 -0.0697685657442141 0.0 0.003407524245188104 -0.06906122172653051 0.0 0.00427348850683721 -0.09262369431559231 0.0 8.24362340609058e-09 -0.0926285783157144 0.0 0.000519585812989645 -0.0926365263159131 0.0 0.0010687000267175 -0.0926272223156805 0.0 0.001666587081664676 -0.0925600983140024 0.0 0.00234650565866264 -0.0923733743093343 0.0 0.003126924918173121 -0.091974602299365 0.0 0.00401352050033801 -0.0912250942806273 0.0 0.00503797972594949 -0.11946970698674261 0.0 -2.6848224671205602e-08 -0.1194918069872951 0.0 0.0005989240149731 -0.1195492069887301 0.0 0.001232299990807499 -0.1196166189904154 0.0 0.0019258052481451301 -0.1196452189911304 0.0 0.0027165933079148314 -0.11955702698892559 0.0 0.0036357113308927813 -0.1192372469809311 0.0 0.00468436691710917 -0.11850813896270342 0.0 0.0058993881474847 -0.1523132958078323 0.0 2.3719736192993395e-08 -0.1523604558090113 0.0 0.0006826116970652921 -0.15249085981227142 0.0 0.001406207795155194 -0.1526731158168278 0.0 0.0022094916952372914 -0.1528509278212731 0.0 0.003129774398244358 -0.1529279158231978 0.0 0.00421806530545163 -0.15276709181917722 0.0 0.00546801893670047 -0.1521474518036862 0.0 0.00692473297311832 -0.1924809488120236 0.0 1.5094627977365692e-08 -0.19256405281410122 0.0 0.0007739665793491641 -0.19279960881999011 0.0 0.0016004240400106001 -0.19315084882877112 0.0 0.0025324220633105503 -0.1935515808387894 0.0 0.00361288609032215 -0.1938884408472109 0.0 0.0049063073226576805 -0.1939944328498607 0.0 0.006422362560559061 -0.19361085284027119 0.0 0.00819300580482514 -0.2414571820364294 0.0 -8.52844581321114e-10 -0.2415915300397881 0.0 0.000873461861836546 -0.24197960604948998 0.0 0.00181710724542768 -0.24257891806447282 0.0 0.002903675352591882 -0.2433118420827959 0.0 0.00418825930470648 -0.2440455741011392 0.0 0.00575365894384147 -0.2445822781145568 0.0 0.00761850139046253 -0.2446167061154175 0.0 0.0098063882451597 -0.3009364675234115 0.0 1.292295352307383e-08 -0.3011436995285923 0.0 0.0009768641044216018 -0.3017504995437623 0.0 0.00204944205123605 -0.3027074155676852 0.0 0.0033201404830035097 -0.3039266915981671 0.0 0.0048627513215687805 -0.3052527516313186 0.0 0.00678854376971359 -0.3064514956612872 0.0 0.009123835028095871 -0.3071567836789194 0.0 0.01188856629721415 -0.37288792932219805 0.0 -7.55438258885956e-08 -0.3731982333299556 0.0 0.0010744263868606592 -0.3741133053528324 0.0 0.002281225897030646 -0.3755762653894064 0.0 0.003759931493998285 -0.3774880254372004 0.0 0.005619293340482331 -0.3796677934916946 0.0 0.00801531180038279 -0.38183446954586153 0.0 0.01099213027480325 -0.383546169588654 0.0 0.01456395276409881 -0.45957401148935 0.0 1.206349030158725e-07 -0.460026371500659 0.0 0.001150252988756324 -0.46136641153416 0.0 0.0024798980619974505 -0.46353161158829004 0.0 0.00418610570465264 -0.466407091660177 0.0 0.00642844736071118 -0.4697770517444261 0.0 0.00941806983545174 -0.47330661183266504 0.0 0.013224245930606142 -0.47645073191126797 0.0 0.0179176604479415 -0.563476574086914 0.0 1.409228875230721e-07 -0.564121774103044 0.0 0.0011812337095308421 -0.566037294150932 0.0 0.002598952024973799 -0.569154574228864 0.0 0.004538770113469251 -0.573339494333487 0.0 0.00721930658048266 -0.5783334944583369 0.0 0.01094280227357005 -0.583737334593433 0.0 0.015790211194755273 -0.588875974721899 0.0 0.02196187134904677 -0.6872338171808451 0.0 -2.055849171396228e-08 -0.688136137203403 0.0 0.001136535708413392 -0.6908223372705581 0.0 0.002584121824603044 -0.6952146573803661 0.0 0.00473990371849759 -0.7011594975289871 0.0 0.00789767579744189 -0.708334337708358 0.0 0.01244630231115755 -0.716285897907147 0.0 0.01856788286419706 -0.724186458104661 0.0 0.02664900186622503 -0.833686660842166 0.0 -1.459415716485392e-07 -0.8349278608731959 0.0 0.000977061264426531 -0.8386255409656379 0.0 0.002369239979230998 -0.8447009411175229 0.0 0.00469200091730002 -0.8529666213241651 0.0 0.00828176620704415 -0.8630709015767721 0.0 0.013815725145393122 -0.8744616618615411 0.0 0.021473520136837992 -0.8861469421536731 0.0 0.03187046119676151 -1.0058832251470802 0.0 -3.5752692493817294e-08 -1.00755922518898 0.0 0.0006857752171443801 -1.012568105314202 0.0 0.001911974927799372 -1.020831425520785 0.0 0.00431105450777636 -1.032135025803375 0.0 0.008322600608065011 -1.0461060661526511 0.0 0.014900620772515511 -1.062099586552489 0.0 0.0243361046084026 -1.0789007469725178 0.0 0.03741993413549834 -1.207125510178137 0.0 6.621155365528881e-07 -1.209359670233991 0.0 0.00027865826296645643 -1.216045870401146 0.0 0.001229083390727084 -1.227106230677655 0.0 0.0035497558087438934 -1.242355951058898 0.0 0.007981026999525671 -1.261383191534579 0.0 0.01560086639002165 -1.2833895920847391 0.0 0.026767266269181644 -1.307052632676315 0.0 0.0428067090701677 -1.441091756027293 0.0 1.4784136769603412e-07 -1.4440267961006692 0.0 -0.00016567344414183602 -1.4528264363206602 0.0 0.00045880461147011504 -1.4674341566858529 0.0 0.0026206682255167043 -1.487713957192848 0.0 0.007374144584353611 -1.5132477978311938 0.0 0.015960592399014803 -1.543062998576574 0.0 0.028766772719169303 -1.5757641193941019 0.0 0.048082793202069804 -1.71175484279387 0.0 -5.054574126364351e-07 -1.7155493228887322 0.0 -0.0004550975313774381 -1.726957563173938 0.0 -5.233548530838711e-05 -1.7459814436495351 0.0 0.001985916929647922 -1.7725588443139704 0.0 0.0069987841749696 -1.8062984851574608 0.0 0.01631380080784501 -1.8461338461533452 0.0 0.030855492371387294 -1.8904898072622442 0.0 0.053303361332584 -2.0231214905780357 0.0 -4.08117370202934e-07 -2.0279501306987524 0.0 -0.00021016938125423444 -2.0425095310627372 0.0 0.00039015459775386467 -2.0668984116724594 0.0 0.0026041349851033727 -2.101195972529898 0.0 0.00795125979878149 -2.1450848136271192 0.0 0.01775465804386644 -2.1974764549369104 0.0 0.034006360850159005 -2.2566271364156774 0.0 0.059038217475955404 -2.378947139473677 0.0 -2.5455156636378903e-07 -2.3849924596248098 0.0 0.001202841030071025 -2.403256660081415 0.0 0.0030373052359326295 -2.4340023808500577 0.0 0.0062104045552601106 -2.4775421819385532 0.0 0.012191485104787122 -2.533758983343973 0.0 0.022726539368163472 -2.601590585039763 0.0 0.0400084330002108 -2.6791424269785593 0.0 0.0670806896770172 -2.782717589567938 0.0 -4.818406520460161e-07 -2.7901398297534943 0.0 0.004745289718632239 -2.812636430315909 0.0 0.00976840584421014 -2.8507086712677148 0.0 0.0155091123877278 -2.905013352625332 0.0 0.02316237137905927 -2.975881474397035 0.0 0.035098711677467774 -3.062356276558905 0.0 0.052783985319599595 -3.162493199062328 0.0 0.08122763803069091 -3.2380456009511382 0.0 -1.852980166324503e-06 -3.2469964011749077 0.0 0.011828568695714211 -3.274176121854401 0.0 0.023333554583338852 -3.3204338830108453 0.0 0.03443231086080775 -3.386930164673252 0.0 0.045938805148470103 -3.4746422868660547 0.0 0.060369261509231505 -3.583160089579 0.0 0.0789381459734536 -3.710555372763882 0.0 0.1082213307055332 -3.7495758533975274 0.0 5.39816205348002e-07 -3.760138742111903 0.0 0.024422810148801752 -3.79229220421702 0.0 0.047667075750279994 -3.8473469084067604 0.0 0.0686055891633288 -3.927186170848876 0.0 0.087918259344785 -4.033802722815 0.0 0.1071358683166623 -4.16762623828881 0.0 0.1283295738718111 -4.32703749433024 0.0 0.1588419669576416 -4.32332645171063 0.0 -1.032213759891412e-06 -4.3355453549551 0.0 0.043991810981352 -4.37283056680743 0.0 0.08568995922869199 -4.437051048896961 0.0 0.123557256536704 -4.53106533470241 0.0 0.15705918916176578 -4.65810523006948 0.0 0.1870222988258338 -4.820068045128699 0.0 0.215191300179336 -5.016186462606409 0.0 0.2469341301205177 -4.9673418993192 0.0 2.62395762369642e-06 -4.9811547735629995 0.0 0.07254022190159701 -5.02363782513936 0.0 0.1423449784243872 -5.097108667695211 0.0 0.2066345206648704 -5.205488427312 0.0 0.26370149450088004 -5.35356477222978 0.0 0.31337081735396544 -5.5455829755196495 0.0 0.3574566917014554 -5.7817373757941395 0.0 0.3956655856672722 -5.68716482661882 0.0 1.125909395065529e-06 -5.7027082562696005 0.0 0.1125278905750187 -5.7504989623668505 0.0 0.22108073441958973 -5.83363666572778 0.0 0.3230377972671668 -5.957460820183121 0.0 0.41557538003552097 -6.12715858695386 0.0 0.5006114339694 -6.3499902959556 0.0 0.5727593453499741 -6.62822053630765 0.0 0.63025153729393 -6.48654377609625 0.0 3.9164865065395794e-07 -6.504314520207149 0.0 0.1572752019726522 -6.558244213946219 0.0 0.3138098711952366 -6.6516148365845105 0.0 0.46596380023131906 -6.790534941534119 0.0 0.610920523883964 -6.982963103016901 0.0 0.746215050674556 -7.23628933802613 0.0 0.8682561487362331 -7.554384321049501 0.0 0.9741429065749501 -7.35907536634351 0.0 4.20779162518007e-06 -7.37878198418074 0.0 0.21719901892960278 -7.438364146235999 0.0 0.43633697057179993 -7.54159401873379 0.0 0.656175762018581 -7.69638430418495 0.0 0.8701659220829789 -7.911658650441621 0.0 1.07521592457052 -8.196412289128439 0.0 1.265134220551022 -8.555142829681841 0.0 1.4349364621193281 -8.26806433094628 0.0 1.852134137062328e-06 -8.29057960526175 0.0 0.295665924472433 -8.35881250611344 0.0 0.58402250541824 -8.4743361738283 0.0 0.8817328856346 -8.64845059869288 0.0 1.174122014079154 -8.8869195101928 0.0 1.4659801701119148 -9.2030670882466 0.0 1.749902099587755 -9.603815436061 0.0 2.0083721846248195 -9.16438964515508 0.0 -2.2436655825939182e-07 -9.18709486844296 0.0 0.36927956166338016 -9.263900023640922 0.0 0.739351352366956 -9.402983304129 0.0 1.108194127409296 -9.59839036934526 0.0 1.49434109639577 -9.86120092864572 0.0 1.9067915699177125 -10.20591427876632 0.0 2.333321163352112 -10.64655373359928 0.0 2.722025272796186 -10.0037289890353 0.0 -1.5057008815172802e-06 -10.0336850361997 0.0 0.44691954080754404 -10.12357432770375 0.0 0.905818390478375 -10.2773947743152 0.0 1.3804616339855882 -10.4841123988325 0.0 1.897637295492875 -10.78061440660484 0.0 2.461719188453864 -11.16709150904462 0.0 3.0343022182361215 -11.63116820078882 0.0 3.583614802184427 -10.705485514560001 0.0 -2.563355281062912e-06 -10.737508085406 0.0 0.5466380927140291 -10.844467265654401 0.0 1.104345642993132 -11.01230620167996 0.0 1.6956912735310201 -11.252013982245929 0.0 2.3461803617565034 -11.593430544696838 0.0 3.0292365866099042 -12.01229683931655 0.0 3.77114640548373 -12.506972533864198 0.0 4.51881031055811 -11.28659410576023 0.0 7.29239870004456e-06 -11.32433299471914 0.0 0.6623887631634 -11.433755358027542 0.0 1.336935302914014 -11.627492046643198 0.0 2.0506643919434397 -11.90247772421178 0.0 2.846352062316618 -12.26326008343986 0.0 3.73571183444832 -12.69237663684567 0.0 4.70842887103371 -13.193136867221522 0.0 5.67866942272212 -11.622915408147659 0.0 8.4957480888552e-06 -11.66115873690768 0.0 0.786260631156 -11.783662752676259 0.0 1.6004920165232281 -11.993478997980482 0.0 2.480364834563616 -12.271118780107711 0.0 3.470649405382818 -12.6472788788925 0.0 4.611438849093 -13.09948457965182 0.0 5.8850342977853405 -13.61740105532286 0.0 7.17698713172751 -11.595766049753339 0.0 6.75342993334611e-06 -11.63455828533408 0.0 0.8993167186699921 -11.7514474437678 0.0 1.838210475305694 -11.95130766810015 0.0 2.87147563054953 -12.241669213988999 0.0 4.06350119019375 -12.61394153038557 0.0 5.46755310263583 -13.06935504898296 0.0 7.068414456772199 -13.590220974204598 0.0 8.7564509936376 -9.161196087590978 0.0 2.2546280260257784e-06 -9.19262951373624 0.0 1.00211798873412 -9.287820870313439 0.0 2.050724193392897 -9.450174258109389 0.0 3.2122236761471 -9.687037753109031 0.0 4.566576586783261 -10.00926430313678 0.0 6.16849835221356 -10.42825154060577 0.0 8.00323532734228 -10.950668758164118 0.0 9.962268857866942 -5.6786300843202 0.0 -7.06953938019735e-06 -5.702711900587681 0.0 1.08384826543164 -5.77522446234228 0.0 2.2161275951839197 -5.89766103891675 0.0 3.46681366962147 -6.074057377595791 0.0 4.92053053118949 -6.3110155842426 0.0 6.634448831462761 -6.615041064703201 0.0 8.5900913920548 -6.9875803526364 0.0 10.6667235949317 -3.039706654570188 0.0 3.0206396679943217e-06 -3.055888433654256 0.0 1.1422608419974782 -3.1043028240909045 0.0 2.333306784449423 -3.1848625839548363 0.0 3.644797203742032 -3.298777107016515 0.0 5.16415569553927 -3.4488882745120546 0.0 6.9501462108249 -3.637943397536196 0.0 8.980605017477309 -3.86462822213556 0.0 11.1240622522158 -1.132674921088644 0.0 -7.67707544815404e-06 -1.1410987432820667 0.0 1.1772527660085148 -1.165902190072545 0.0 2.40247932832536 -1.205973608369517 0.0 3.747561363764235 -1.260424101167685 0.0 5.3013229437295495 -1.3292692567078017 0.0 7.123412244117661 -1.412613502350591 0.0 9.18946761088878 -1.5085110151781103 0.0 11.36041733526255 0.3837492759807429 0.0 -4.94266240839223e-06 0.38261779194685885 0.0 1.190214729058056 0.37986988005426003 0.0 2.4269019922457358 0.37721893570640797 0.0 3.7811631492982882 0.37694603211931743 0.0 5.34194841697136 0.3812242471904551 0.0 7.1694668200597 0.3917468852789107 0.0 9.23889426475589 0.41034634137134995 0.0 11.407876839868639 1.83100054231424 0.0 -7.27456777091968e-07 1.836539662177155 0.0 1.18326952541863 1.853858151050084 0.0 2.411221899491078 1.885016276086952 0.0 3.7534210080639965 1.9332799133877803 0.0 5.29797357875964 2.0024621668163562 0.0 7.1052918262875995 2.0959055368182082 0.0 9.15150668705904 2.2154898279840762 0.0 11.2949376287664 3.357033060195234 0.0 3.703096511590434e-06 3.3685776629063997 0.0 1.158688574980272 3.403923594551706 0.0 2.3601218250172864 3.46534262468145 0.0 3.671872484173455 3.556862306254693 0.0 5.180336628274921 3.683813248042104 0.0 6.94561954868292 3.8511869667346703 0.0 8.94568119680643 4.06158594795369 0.0 11.0424661058556 4.93063379889822 0.0 2.592980195523543e-06 4.947523412463 0.0 1.11844144374516 4.9988820621993 0.0 2.2777466264383377 5.08714305836688 0.0 3.542970016165545 5.21710308427986 0.0 4.998071847681721 5.395454839270951 0.0 6.70221617000295 5.6289857316378304 0.0 8.635406298648391 5.92181116138296 0.0 10.66510651639509 6.43102501366914 0.0 -7.10929057963612e-06 6.45252970945616 0.0 1.0644540503659918 6.51777996142847 0.0 2.167832348210564 6.6294007555216 0.0 3.3724330419934154 6.792823969638739 0.0 4.7589852787682 7.01613358415144 0.0 6.38500048569012 7.307953397053299 0.0 8.23243384129772 7.67424172872224 0.0 10.17513530760384 7.70771044368896 0.0 -8.93838420827767e-06 7.73355501043648 0.0 0.9989792362362881 7.811597135149441 0.0 2.0346571966993 7.94501517596864 0.0 3.166411294707392 8.13943163560638 0.0 4.47127631554894 8.40470221741079 0.0 6.00437120227053 8.74928182965326 0.0 7.74924596457935 9.18083818066437 0.0 9.586639955716821 8.17574117103868 0.0 -1.062300776895371e-06 8.21040268003245 0.0 0.9325126305297652 8.3132988110557 0.0 1.8973494482320072 8.48992588937262 0.0 2.9478921226289923 8.747274587469109 0.0 4.15559639393822 9.080878715664172 0.0 5.57856003514623 9.5055760264816 0.0 7.2034560255632005 10.02578907740725 0.0 8.916960930423802 8.209051903037361 0.0 -6.938953913955362e-06 8.24189956598484 0.0 0.8602628703280919 8.34766850373984 0.0 1.7479959429891958 8.53960481284584 0.0 2.714158137854898 8.79618718260324 0.0 3.819997051014438 9.14292514809558 0.0 5.126672377969291 9.589803919542419 0.0 6.61583211900384 10.138339075200001 0.0 8.19250758864 8.09730186470324 0.0 6.02859189398039e-06 8.133871346001 0.0 0.7816983464559989 8.24123762121309 0.0 1.5922261643638143 8.42264854119588 0.0 2.473147412409138 8.69156236122895 0.0 3.4796194739044273 9.05530861726336 0.0 4.6588065083824 9.4975949926536 0.0 6.01645867524772 10.0490350529086 0.0 7.4501108181908995 7.9221509627344 0.0 7.078551666896501e-06 7.959383902438502 0.0 0.6945289505834399 8.0620128761448 0.0 1.4238435023795721 8.22960089239968 0.0 2.22672016926072 8.487410698596202 0.0 3.14186108462009 8.84561375369296 0.0 4.20752255358264 9.299329942960641 0.0 5.42182480301264 9.84469621188416 0.0 6.71423200728104 7.735845651618 0.0 3.625109122980995e-06 7.75363748967984 0.0 0.6324481403787361 7.850391929464349 0.0 1.2774994214358542 8.01918380693562 0.0 1.9833458958762387 8.25877669562574 0.0 2.811955572556926 8.58217339644075 0.0 3.7871935373193746 9.01485826895514 0.0 4.88592165864183 9.563101206121319 0.0 6.033429354421379 7.4641510699133 0.0 -2.938949167607922e-06 7.5053137328782205 0.0 0.579120952689801 7.5965555096473 0.0 1.165397607313137 7.74849576117344 0.0 1.7950979982534199 7.981180256016 0.0 2.5219732418248 8.29840531856308 0.0 3.38269190230013 8.71612026635616 0.0 4.3693305988544795 9.25697759192507 0.0 5.39510845896311 7.174293063164789 0.0 4.29779056650054e-06 7.20199386018295 0.0 0.521738698418025 7.297176588633499 0.0 1.0609617993184348 7.44617301223708 0.0 1.627177140616053 7.66655759734452 0.0 2.2755876935970503 7.973277370475341 0.0 3.0319117562535616 8.37902444278632 0.0 3.8911325885543606 8.92203923672642 0.0 4.804046453104499 6.86667353418936 0.0 8.18833385768052e-06 6.892687505020049 0.0 0.47308637882997 6.97796427006252 0.0 0.9654101493112478 7.11251433440977 0.0 1.4857762522102 7.32565235593576 0.0 2.057072704959056 7.62211931456776 0.0 2.7280889523776164 8.0280327015088 0.0 3.4758312608854127 8.563563839823459 0.0 4.246020380339011 6.55191432407736 0.0 -2.362385465639766e-06 6.5774074436608805 0.0 0.428245797422496 6.65366506995 0.0 0.8799565639679998 6.782688462781441 0.0 1.3612046218939438 6.969377226961169 0.0 1.869625726695153 7.26904038043893 0.0 2.4583025052694554 7.672562148239999 0.0 3.1051161058139995 8.215825901759999 0.0 3.748068093933 6.239608873545721 0.0 2.702497944717541e-07 6.26299095440655 0.0 0.3913232643051795 6.3346241832456 0.0 0.7997825120242319 6.4588495087777495 0.0 1.241900968141575 6.6399266183071495 0.0 1.701769887265455 6.9274586949487995 0.0 2.21032737037536 7.330870594619939 0.0 2.7532163638488503 7.8878032081362015 0.0 3.3142415481263705 5.94301802624544 0.0 -1.1497106084616318e-06 5.96333770181783 0.0 0.3567105348899749 6.0321023850449595 0.0 0.730975684110336 6.154222294828901 0.0 1.123843770614054 6.33866970644789 0.0 1.536914548899238 6.611328077118239 0.0 1.9555833442686241 7.03122139714435 0.0 2.41982298182342 7.59083126305416 0.0 2.867350750788437 5.67160655413622 0.0 -9.201713814930221e-07 5.69196836541085 0.0 0.3266972775452766 5.7589753374888 0.0 0.65885491272118 5.87929326108771 0.0 1.0068155212762389 6.06650454167664 0.0 1.3551952689344162 6.3510821266015505 0.0 1.7140464214033553 6.76901153977643 0.0 2.0797984237914484 7.374255080057591 0.0 2.478400344065801 5.43377803956699 0.0 3.839829012656406e-06 5.454408596217459 0.0 0.291361449665761 5.519371657398451 0.0 0.583172072773695 5.642970608374 0.0 0.88195235263228 5.836547623877281 0.0 1.1778054944680563 6.1366242648043 0.0 1.46817826435763 6.58953522575182 0.0 1.79923263556247 7.2524226957717595 0.0 2.16145861484228 5.22604639207616 0.0 2.768878467722256e-06 5.251031693392939 0.0 0.2507107162804394 5.32158632299848 0.0 0.503806027297376 5.447556817873671 0.0 0.753324037605941 5.66364807070764 0.0 1.000219808903646 6.002828265607519 0.0 1.2801245386694882 6.5131948477205 0.0 1.5912436052724601 7.299927997915451 0.0 1.985914988143755 5.071395168118499 0.0 1.72292450483979e-07 5.096788338469141 0.0 0.20966878649192042 5.17252872131325 0.0 0.425112019041765 5.3237025852024 0.0 0.6480569716462801 5.58333210333954 0.0 0.8942430092335739 5.9810412096216 0.0 1.1711651493143342 6.62197281767514 0.0 1.5408306542246522 7.682099177255761 0.0 2.0411396228156042 4.984812733098241 0.0 1.094901309117504e-06 5.01724516168161 0.0 0.1952287421394882 5.117953003878701 0.0 0.401374318144597 5.309130363505919 0.0 0.6308420564718721 5.64255496644411 0.0 0.9135230140346309 6.21266421345 0.0 1.30409682006375 7.165855045681919 0.0 1.8377577977754243 8.5574969896752 0.0 2.4398912731757756 5.05775478947376 0.0 -2.544966254659708e-07 5.10050979681776 0.0 0.2297738678273974 5.2421373218189 0.0 0.49786055499670007 5.54988867591683 0.0 0.849961459230662 6.137631889015121 0.0 1.3037099511349812 7.0728363468377005 0.0 1.8249496202848903 8.30290110074172 0.0 2.375510157199036 9.68070910372808 0.0 2.9425705503448762 6.225175240622561 0.0 -1.4718587758411179e-07 6.3032571885937605 0.0 0.305993938936184 6.5508758318016005 0.0 0.6633647963170801 6.99608706426474 0.0 1.1081883646271642 7.6564623084116805 0.0 1.639526556495424 8.48655428854112 0.0 2.2234584266431483 9.39744176704216 0.0 2.8455160259358974 10.4589998427075 0.0 3.355726004122243 7.778666900264679 0.0 9.526491648019571e-07 7.832158041146901 0.0 0.3664205802390145 7.995643485099 0.0 0.8054112029179 8.279047106504748 0.0 1.36722849253258 8.61798587204236 0.0 2.041082249795728 9.15726156308614 0.0 2.756119191018298 9.89683692144517 0.0 3.215624275472165 8.417117014116782 0.0 -3.8482412468175623e-07 8.44696241819526 0.0 0.44247326013500704 8.5333719510589 0.0 0.9865210248952141 8.67396632221091 0.0 1.6981697303201864 8.95376754072379 0.0 2.5107447124823974 -0.025070602226765045 0.0 0.002525007983125198 -0.024250922206273045 0.0 0.0030759260768981503 -0.023139942178498542 0.0 0.0036600180915004506 -0.021674794541869852 0.0 0.00426161170654029 -0.019808632495215802 0.0 0.00482346372058659 -0.017462418036560443 0.0 0.00531218373280459 -0.0146571563664289 0.0 0.00557936893948422 -0.03584333729608341 0.0 0.003484759927118996 -0.03475782366894557 0.0 0.00422975730574393 -0.03324371963109297 0.0 0.00502631492565787 -0.03119838917995971 0.0 0.00583240134581003 -0.028537312713432798 0.0 0.00652274376306859 -0.025095216227380396 0.0 0.007063961776599041 -0.020772682519317052 0.0 0.007296133382403331 -0.01551510118787752 0.0 0.00777440099436002 -0.0501108732527718 0.0 0.00436251250906281 -0.048707581217689505 0.0 0.00528244253206106 -0.0467047571676189 0.0 0.006256255756406389 -0.0439408570985214 0.0 0.00724748698118717 -0.040288865007221605 0.0 0.00808665780216644 -0.03551125328778131 0.0 0.008780069019501721 -0.02952241073806025 0.0 0.009170373029259321 -0.022192471354811772 0.0 0.00949828063745701 -0.06793160169829 0.0 0.005247995331199881 -0.066192841654821 0.0 0.0063528545588213605 -0.06365114159127849 0.0 0.00753357498833937 -0.0600826655020666 0.0 0.00873960861849021 -0.05529820938245521 0.0 0.0097766202444155 -0.0489709812242745 0.0 0.01067270506681762 -0.040984045024601096 0.0 0.01116261067906526 -0.03097916317447906 0.0 0.01159691988992299 -0.0899435702485892 0.0 0.00620934375523359 -0.0878908181972704 0.0 0.00752405698810142 -0.0847978741199468 0.0 0.00894074982351874 -0.0803606780090169 0.0 0.01040383546009588 -0.07431024585775611 0.0 0.01168192269204806 -0.06617871765446791 0.0 0.01284146192103654 -0.055753785393844596 0.0 0.013528987938224692 -0.04239082905977071 0.0 0.01429687195742179 -0.1171344189283604 0.0 0.007308630182715751 -0.11482131887053292 0.0 0.008865143021628571 -0.1111956507798912 0.0 0.010554451063861272 -0.105847682646192 0.0 0.01231492470787311 -0.09841702246042551 0.0 0.01386616874665421 -0.08822621420565531 0.0 0.015368887984222191 -0.0748870498721762 0.0 0.01641556361038908 -0.0573427254335681 0.0 0.01780079964501998 -0.1507710237692755 0.0 0.00862471341561783 -0.1482771197069279 0.0 0.01046354066158851 -0.14416922760423062 0.0 0.012472038311800951 -0.13791597144789922 0.0 0.01456979556424488 -0.1290267392256684 0.0 0.016448396811209912 -0.116554642913866 0.0 0.01840001086000026 -0.09981461849536541 0.0 0.02004057530101437 -0.0771649539291238 0.0 0.022388160959704008 -0.19236791680919782 0.0 0.010258475056461871 -0.1898191127454777 0.0 0.01245727111143177 -0.1853204166330103 0.0 0.01488026717200667 -0.17822269645556732 0.0 0.01737210483430261 -0.167833844195846 0.0 0.01969215489230386 -0.1529391558234788 0.0 0.02221174295529356 -0.1323379073084476 0.0 0.02478643701966091 -0.10369680259241999 0.0 0.02852219991305498 -0.24369402609235052 0.0 0.01236613790915344 -0.2412734340318357 0.0 0.01506730197668254 -0.2365390379134758 0.0 0.018067455651686378 -0.2286658097166451 0.0 0.02117565492939136 -0.21677608941940213 0.0 0.02409801380245033 -0.1994383849859595 0.0 0.02722610308065256 -0.17474115236852872 0.0 0.031000453975011333 -0.13948521948713039 0.0 0.03642593731064841 -0.3068139156703477 0.0 0.01514742717868567 -0.30477042761926054 0.0 0.01861289206532229 -0.3000447595011188 0.0 0.02241600816040019 -0.2916150152903752 0.0 0.026307115457677874 -0.2782898029572449 0.0 0.030083618352090443 -0.2585154824628869 0.0 0.03397626964940672 -0.2299585417489634 0.0 0.03870891416772283 -0.1882127687053191 0.0 0.0456240651406016 -0.384137329603433 0.0 0.01878986126974652 -0.3827981335699531 0.0 0.02340308338507707 -0.3784557894613945 0.0 0.028296808307420193 -0.36973796924344904 0.0 0.03343148323578706 -0.35545156888628904 0.0 0.03785797454644934 -0.3335383483384585 0.0 0.0425521970638049 -0.30184326754608154 0.0 0.047960629199015704 -0.2542207063555175 0.0 0.056288769407219205 -0.478432531960813 0.0 0.02346414378660358 -0.47824717195617894 0.0 0.02967912634197814 -0.47476137186903405 0.0 0.036222184505554596 -0.4664257716606439 0.0 0.0429878370746959 -0.451726251293156 0.0 0.0493693852342346 -0.4282124507053111 0.0 0.057078517426962905 -0.3934220658355514 0.0 0.0681455497036387 -0.33679259641981474 0.0 0.0887620222190505 -0.592864054821601 0.0 0.02929743913243596 -0.59447441486186 0.0 0.03777603894440095 -0.592542894813572 0.0 0.0470913011772825 -0.585568174639204 0.0 0.057138557428463896 -0.571909734297743 0.0 0.0684203657105091 -0.548375853709396 0.0 0.0858845661471141 -0.513491772837294 0.0 0.11508771487719281 -0.45445549136138697 0.0 0.1680451202011279 -0.731022058275551 0.0 0.03637540450938509 -0.7353402983835069 0.0 0.048100689202517206 -0.7360027384000679 0.0 0.06172931354323281 -0.731792978294824 0.0 0.0777333819433345 -0.7216360580409011 0.0 0.09727305443182631 -0.702216777555419 0.0 0.129258923231473 -0.672214336805358 0.0 0.1831007165775178 -0.6193646554841161 0.0 0.2649604146240102 -0.896972502424312 0.0 0.0446771891169297 -0.9052640226316001 0.0 0.0607825015195625 -0.9098073427451828 0.0 0.0799824499995612 -0.9099331027483271 0.0 0.10414495860362391 -0.9059233826480839 0.0 0.13515129537878232 -0.8944315023607872 0.0 0.1825960085649001 -0.8737240218431 0.0 0.25820055845501383 -0.8334360208359001 0.0 0.3620869010521723 -1.09519682737992 0.0 0.0539421093485527 -1.109000027725 0.0 0.0752803538820088 -1.1192210279805253 0.0 0.10185501854637541 -1.125261348131533 0.0 0.136122243403056 -1.1287434682185862 0.0 0.1782861164571528 -1.127577148189428 0.0 0.24160271404006772 -1.1199043479976079 0.0 0.3365924204148103 -1.094232187355804 0.0 0.458916771472919 -1.3307850332696252 0.0 0.0639497335987433 -1.3521393938034838 0.0 0.09169888229247201 -1.369915034247875 0.0 0.126883843172096 -1.3832994745824863 0.0 0.17082369627059232 -1.395748154893703 0.0 0.22581751764543784 -1.4058010351450252 0.0 0.3055584996389623 -1.4113601952840042 0.0 0.4188913304722831 -1.3998678749966962 0.0 0.562264494056612 -1.6093062002326544 0.0 0.074329641858241 -1.640674241016855 0.0 0.10910769872769241 -1.668048521701212 0.0 0.1534410878360271 -1.691302162282553 0.0 0.2088297892207446 -1.7136766828419159 0.0 0.27827733095693313 -1.735668243391705 0.0 0.37579673339491815 -1.754213203855329 0.0 0.509315372732884 -1.7550903638772581 0.0 0.677944696948617 -1.936674368416858 0.0 0.08472743811818591 -1.9811592495289803 0.0 0.12721533918038339 -2.020974970524373 0.0 0.1813389365334733 -2.056475491411886 0.0 0.2504096822602419 -2.091651572291288 0.0 0.3375538684388465 -2.126911973172798 0.0 0.45462517136562897 -2.159243453981085 0.0 0.6120112153002801 -2.171495854287395 0.0 0.8114326602858162 -2.318891377972283 0.0 0.0960721464018036 -2.3799326594983152 0.0 0.14437985960949642 -2.436440700911016 0.0 0.21067710526692754 -2.487570822189269 0.0 0.2950855313771381 -2.538657063466425 0.0 0.402428530060713 -2.590642784766068 0.0 0.543862373596559 -2.6400955860023876 0.0 0.7311809382795231 -2.666599346664982 0.0 0.967174664179366 -2.762000549050012 0.0 0.10856915871422891 -2.844471431111784 0.0 0.1632466360811658 -2.922443833061094 0.0 0.24146211803655282 -2.994241994856048 0.0 0.3426164965654122 -3.065357476633935 0.0 0.47342057183551406 -3.1385981584649523 0.0 0.6452222961305569 -3.2102772402569295 0.0 0.870448701761217 -3.2559845613996123 0.0 1.1509007887725191 -3.2710110417752745 0.0 0.1256702591417564 -3.381223364530582 0.0 0.1862453846561345 -3.4868000871700002 0.0 0.2743893948597347 -3.5855370496384245 0.0 0.3935842618396063 -3.6834191320854757 0.0 0.5507581337689531 -3.783981814599543 0.0 0.7597173789929339 -3.884680257117004 0.0 1.032594785814869 -3.956476698911915 0.0 1.367146714178667 -3.8512246162806134 0.0 0.1541420958535523 -3.9962227799055667 0.0 0.2179726654493165 -4.13796370344909 0.0 0.313664087841602 -4.27209130680228 0.0 0.45068321126708005 -4.40571331014283 0.0 0.633356535833913 -4.54226971355674 0.0 0.8868755421718879 -4.68061171701529 0.0 1.221728270543206 -4.7878057196951405 0.0 1.6230003605750083 -4.5067173800355 0.0 0.20351551663652298 -4.694544720905899 0.0 0.268540917405537 -4.88319442863208 0.0 0.3661302260571873 -5.06452377822867 0.0 0.515342705157381 -5.24589714097818 0.0 0.721156806780516 -5.43150088098453 0.0 1.024289125037831 -5.619061435721861 0.0 1.4415047092404039 -5.7744211308126 0.0 1.9279038459267999 -5.24132017223532 0.0 0.2896053087713652 -5.48229676865092 0.0 0.35073991607914384 -5.728352429514841 0.0 0.4451840548845521 -5.9728938389809 0.0 0.5945409377141 -6.217112722190761 0.0 0.815865174502895 -6.47084072998048 0.0 1.1750075800114241 -6.72528702746747 0.0 1.6940409245309969 -6.950243638013 0.0 2.29753096943305 -6.057940106912401 0.0 0.43629499235120395 -6.3623007656802 0.0 0.492851418171732 -6.67834179502392 0.0 0.570179461935132 -7.002962590288349 0.0 0.70728529554636 -7.330503651463441 0.0 0.941851151784648 -7.674655475458441 0.0 1.3313503361193841 -8.02711154549265 0.0 1.9804324847673895 -8.3514470097306 0.0 2.732874074229 -6.958303851134999 0.0 0.6747430303894281 -7.330984814084899 0.0 0.7199972498057801 -7.731574812181 0.0 0.777920671950432 -8.156073704208529 0.0 0.88111861833524 -8.59812599059412 0.0 1.1026159282158838 -9.06325870766892 0.0 1.512643668980003 -9.55262393793337 0.0 2.300418908187193 -10.02531581809955 0.0 3.23927961377151 -7.93912561997352 0.0 1.044655315511052 -8.38142579622303 0.0 1.087281172052622 -8.87800040658024 0.0 1.1108218125928169 -9.4204178529525 0.0 1.161263225558214 -10.0071367634313 0.0 1.3426270275381298 -10.64051549995224 0.0 1.741026683303544 -11.31644139244668 0.0 2.6588495852256244 -12.01216005484992 0.0 3.807601629941928 -8.98512024360412 0.0 1.569799460797064 -9.48643152540048 0.0 1.6529049210278361 -10.074826323886521 0.0 1.6622954241105803 -10.762009492358 0.0 1.6203265964304001 -11.5315189530035 0.0 1.6973310265004382 -12.37803464455236 0.0 2.048607506751288 -13.30253962757215 0.0 3.051545732208341 -14.302155951400039 0.0 4.42978328191918 -10.08096890291745 0.0 2.2285253772086 -10.62620132091245 0.0 2.399603241483535 -11.22108361837395 0.0 2.530632190211015 -12.00105235658772 0.0 2.52107697010442 -13.044604177768898 0.0 2.34995748316909 -14.1873156191319 0.0 2.48976632628823 -15.43029953472176 0.0 3.503937171886536 -16.80238705406625 0.0 5.06152253258765 -11.16816582940926 0.0 3.0545154116981 -11.75697476947588 0.0 3.303906788200276 -12.40133541355002 0.0 3.4962545332755597 -13.197627180813999 0.0 3.55573462309042 -14.247643029600463 0.0 3.478612271642959 -15.860482318081282 0.0 3.300988965315138 -17.519882769903358 0.0 4.01633972305424 -19.32275832026925 0.0 5.6727924060907 -12.199359100565319 0.0 4.03044620406176 -12.831010452068671 0.0 4.3790804377292 -13.52935784115958 0.0 4.61347626823888 -14.35538018855264 0.0 4.71841146672468 -15.46158240874864 0.0 4.621820022164161 -16.983106253733748 0.0 4.493066354295 -19.299939013590986 0.0 4.69157828613797 -21.605258062672643 0.0 6.104178855493441 -13.085916288430079 0.0 5.15943051538176 -13.7841215501421 0.0 5.648532458455651 -14.5317324211356 0.0 5.950991856721201 -15.416048477122562 0.0 6.06852640924416 -16.595236107225542 0.0 5.87223852125328 -18.3493568609925 0.0 5.34151585198875 -20.86481056912128 0.0 4.746004607408641 -23.590695789017403 0.0 6.00168022622976 -13.754326986448858 0.0 6.541795131453749 -14.39890370465478 0.0 7.211085174384661 -15.10706143573029 0.0 7.720724652225662 -15.9189308899899 0.0 8.04515448424578 -17.08163800632795 0.0 7.98403620572511 -19.04278423847121 0.0 6.823589667536969 -22.161888939437997 0.0 4.079481139143 -24.97570529228622 0.0 5.37178899517299 -14.21344704011361 0.0 8.36888406589674 -14.8808818489617 0.0 9.365636077488901 -15.558401581212419 0.0 10.29028320577908 -16.277275924491242 0.0 11.093366415722759 -17.1080173350306 0.0 11.25575466128442 -18.8133508032624 0.0 8.01671583733056 -22.469737101603997 0.0 3.6812833793616004 -25.295292024515756 0.0 5.11537448983704 -14.18992685701578 0.0 10.340125319071081 -14.875268876956861 0.0 11.718933942706949 -15.600580624332002 0.0 13.0200379589808 -16.22642213034375 0.0 14.228674498093751 -16.65643014977595 0.0 14.61487122606945 -17.6394201929517 0.0 9.5157593028498 -20.62091407341977 0.0 3.946467349025157 -21.832001288719677 0.0 5.52386120301724 -11.56605374181891 0.0 11.81665363786283 -12.248486759725019 0.0 13.425194254715528 -12.9548053494266 0.0 14.927917841758902 -13.60599096402931 0.0 16.352345751003778 -14.145897807424962 0.0 16.931492384166702 -14.385599003828801 0.0 10.7130680059237 -14.981804107208639 0.0 4.237618106364479 -15.398783988334388 0.0 6.1391226689975 -7.4189118281421 0.0 12.61664618800872 -7.88462185001364 0.0 14.275728895945681 -8.34694497056187 0.0 15.75770413175667 -8.7571806240558 0.0 17.04934550711556 -9.068749355987379 0.0 17.35826189867186 -9.11314649887831 0.0 10.73163792984633 -9.32461585883653 0.0 4.396079827691779 -9.521323940150879 0.0 6.666820165719999 -4.1188077262779 0.0 13.114981595841902 -4.37948635127544 0.0 14.772018388219887 -4.619208125769661 0.0 16.19274696605136 -4.80876357301968 0.0 17.33732955687996 -4.923853810917841 0.0 17.44658552930778 -4.88205942298824 0.0 10.63889933290104 -4.911653146891499 0.0 4.5640515533334 -4.94682768082975 0.0 7.2048151251902395 -1.609653455749224 0.0 13.35843684916947 -1.7021644193387102 0.0 14.991777802194001 -1.7698001480981822 0.0 16.35268597938558 -1.8000453474194364 0.0 17.39548908205274 -1.787177803849754 0.0 17.377474679919942 -1.6975290423767704 0.0 10.599055366426198 -1.6500051806133038 0.0 4.7373797468044 -1.6068181487752606 0.0 7.64142203877666 0.44022145738417606 0.0 13.39258605571725 0.486521032994344 0.0 14.9975514291423 0.5535367744197881 0.0 16.318105688753562 0.63993804033664 0.0 17.318709913253798 0.738300451457191 0.0 17.284949503137824 0.847316350305375 0.0 10.66618442552685 0.93161245190805 0.0 4.90501636775535 1.012627495907382 0.0 7.90500559135626 2.361021705043234 0.0 13.25212127051622 2.5296754726277166 0.0 14.829541436788348 2.714146206879812 0.0 16.1312260417717 2.901069121674925 0.0 17.14193652151705 3.073925232797376 0.0 17.17972488397224 3.1800729910753436 0.0 10.748813931999358 3.327690239866022 0.0 5.019269610520199 3.467964260239578 0.0 7.92816931772514 4.31318361349062 0.0 12.957886027658219 4.5973078610073905 0.0 14.502962419416962 4.89636729158448 0.0 15.78584824763328 5.18632470415668 0.0 16.804942366616956 5.44342674373736 0.0 16.908823760598978 5.506364213318 0.0 10.742050632823002 5.80053581918272 0.0 5.08318134095086 6.0414154196488 0.0 7.8478565816567984 6.272019340374481 0.0 12.52216916541248 6.6673731505259 0.0 14.02376606049094 7.0820080210633005 0.0 15.277167383736051 7.48197350050716 0.0 16.28722123680691 7.836467375656139 0.0 16.43244302937087 7.77477005133335 0.0 10.502144096575389 8.3496002198965 0.0 5.1004748318845 8.69440234745516 0.0 7.66437273783528 8.114054875127 0.0 11.955453924179002 8.61339217446742 0.0 13.39794008672427 9.13994584493984 0.0 14.605222239935038 9.650842843217161 0.0 15.58398502888842 10.107664928388001 0.0 15.746860420147799 9.92230918709868 0.0 10.114373582790119 10.77814890155712 0.0 5.05107234172323 11.26527253157664 0.0 7.41029294306736 9.700004754170239 0.0 11.27209558933864 10.29178315363068 0.0 12.63843156194554 10.91870199659728 0.0 13.78147117456464 11.53110506616376 0.0 14.70755570860576 12.08341083822244 0.0 14.870573436071798 11.6760260467422 0.0 9.5528438087214 12.908554432502042 0.0 4.9615482673941 13.599316684837259 0.0 7.25215927272561 10.652294277742511 0.0 10.492099799320961 11.394136149860001 0.0 11.77079548642718 12.19013044936456 0.0 12.83302413494619 12.976436448291821 0.0 13.686917825026383 13.554215382736 0.0 13.756760775718401 13.0105345931091 0.0 8.87729707721195 14.60674920779437 0.0 4.90042571045585 15.460587142020762 0.0 7.01384990704299 10.80220607872008 0.0 9.64577641244085 11.596328446950002 0.0 10.83179151323928 12.52471636042116 0.0 11.80709727204672 13.587967204424398 0.0 12.573033794165967 14.518125277688972 0.0 12.576331935246241 14.037227453264398 0.0 8.28703356606048 15.70563055035936 0.0 4.75136672415456 16.729681739452563 0.0 6.680342959220161 10.718791824241 0.0 8.77687942674115 11.522087610036731 0.0 9.857875511363941 12.4560102018625 0.0 10.737861089284001 13.58089383985425 0.0 11.41522612818 14.87383274566644 0.0 11.48222019098648 14.85388531978328 0.0 7.802492379598681 16.520813234837803 0.0 4.5939523040124 17.6223509485758 0.0 6.306578581277799 10.515600216495562 0.0 7.914372214554319 11.324328816281 0.0 8.90181507776364 12.27353147627934 0.0 9.68093502063566 13.44487759723396 0.0 10.26166652403328 14.8177630935894 0.0 10.2775242743754 15.5325620758528 0.0 7.413115622970199 17.12871527579196 0.0 4.37788443700074 18.36524586164575 0.0 5.885332349505 10.24472310080772 0.0 7.10733288729612 11.063399119311601 0.0 7.98714839092104 12.027623620354289 0.0 8.6845287100446 13.20346039032072 0.0 9.148137988462201 14.67312765901632 0.0 9.11898441783342 16.094406715292788 0.0 7.049377879778069 17.7491720122893 0.0 4.13473678435491 19.10877988759233 0.0 5.35988429265147 9.946339331580099 0.0 6.34854333431031 10.776382282864342 0.0 7.137445325965319 11.7771791257395 0.0 7.78388415475275 12.962557186476879 0.0 8.17104468511008 14.538286842853 0.0 8.064881349184061 16.458871434906303 0.0 6.518656419815701 18.35831194450548 0.0 3.7353616190791734 20.08144366391737 0.0 4.733470637761011 9.61155975008546 0.0 5.63461309293028 10.464418915510981 0.0 6.35388141392361 11.502012907886401 0.0 6.9077857192654 12.765255127785139 0.0 7.2958677172472 14.4458150980579 0.0 7.20804265094772 16.61717766492614 0.0 5.86312209794168 19.060221344366767 0.0 3.7378299374865334 21.59046944357875 0.0 4.52594110246993 9.2692342242617 0.0 4.96957241679794 10.14749895390726 0.0 5.618830885130639 11.2290910368784 0.0 6.1291961497987195 12.67662416133659 0.0 6.497612638195769 14.461594208020161 0.0 6.4640818897472005 16.90543991891846 0.0 5.40421832530216 19.58612990773008 0.0 4.33219620692373 22.961658648923258 0.0 5.4972373661259 8.932747083201269 0.0 4.38877191685023 9.83921895877725 0.0 4.9489728145672505 11.01730386246 0.0 5.47622742708 12.60367432129404 0.0 5.8582632985092 14.737244957400002 0.0 5.73937747548 17.4938044717296 0.0 4.84532554407006 20.49534504015948 0.0 4.72380436989018 24.391868134560358 0.0 6.101611355649901 8.614242290876101 0.0 3.834291809734764 9.5947942938939 0.0 4.3639698062236505 10.92505822326522 0.0 4.88956737694824 12.804438356787601 0.0 5.18397747707439 15.404671398958412 0.0 4.755064583140291 18.20343295217889 0.0 4.351940837707709 21.401350269125402 0.0 4.91206269791376 8.37061126950894 0.0 3.33580414258819 9.467093129970749 0.0 3.846349482291075 11.02406544993376 0.0 4.3014339298392 13.2789004862955 0.0 4.36311876706125 16.02077494568432 0.0 4.11501206599168 18.845782087895 0.0 4.29986241994625 22.108292921691 0.0 5.2988064772285 8.23343484482718 0.0 2.9159969440156517 9.479459428419378 0.0 3.406599097794595 11.34805701779732 0.0 3.7304650713988887 13.881896953834419 0.0 3.835672077408635 16.6060895919105 0.0 3.9405488240794284 19.4762818270076 0.0 4.5618201406651995 8.241121327011799 0.0 2.6132410712797616 9.74119965060404 0.0 3.062168155533222 11.963293117427352 0.0 3.388358235789085 14.575783060533679 0.0 3.6579481038596007 17.276205946592782 0.0 4.1444770247876 20.03279906460176 0.0 4.97684006435584 8.54567347176022 0.0 2.458064336167604 10.462593843604001 0.0 2.9093215449523004 12.814999137084559 0.0 3.351801773116368 15.374562978097002 0.0 3.8294535037422057 17.85804296815195 0.0 4.5013120136699 9.32873425189959 0.0 2.5726566055237083 11.447233425339602 0.0 3.0619245585041406 13.68991170762018 0.0 3.6053216132372636 16.048389833363398 0.0 4.145578856722019 10.378680512129602 0.0 2.9666832841025603 12.310364605412161 0.0 3.513812530598496 14.457399476758683 0.0 4.008720275551401 16.274105727747838 0.0 4.36518103539168 11.259705209232742 0.0 3.4318325063082713 13.00147496229998 0.0 3.8287489197633002 11.8096770990172 0.0 3.6312253615175205 
TENSORS Ellispoids float
0.01 0.0 0.0 0.0 0.01 0.0 0.0 0.0 0.01 0.01 0.0 0.0 0.0 0.01 0.0 0.0 0.0 0.01 0.01 0.0 0.0 0.0 0.01 0.0 0.0 0.0 0.01 0.01 0.0 0.0 0.0 0.01 0.0 0.0 0.0 0.01 0.01 0.0 0.0 0.0 0.01 0.0 0.0 0.0 0.01 0.01 0.0 0.0 0.0 0.01 0.0 0.0 0.0 0.01 0.01 0.0 0.0 0.0 0.01 0.0 0.0 0.0 0.01 0.01 0.0 0.0 0.0 0.01 0.0 0.0 0.0 0.01 0.01 0.0 0.0 0.0 0.01 0.0 0.0 0.0 0.01 0.01 0.0 0.0 0.0 0.01 0.0 0.0 0.0 0.01 0.01 0.0 0.0 0.0 0.01 0.0 0.0 0.0 0.01 0.01 0.0 0.0 0.0 0.01 0.0 0.0 0.0 0.01 0.01 0.0 0.0 0.0 0.01 0.0 0.0 0.0 0.01 0.01 0.0 0.0 0.0 0.01 0.0 0.0 0.0 0.01 0.01 0.0 0.0 0.0 0.01 0.0 0.0 0.0 0.01 0.01 0.0 0.0 0.0 0.01 0.0 0.0 0.0 0.01 0.01 0.0 0.0 0.0 0.01 0.0 0.0 0.0 0.01 0.01 0.0 0.0 0.0 0.01 0.0 0.0 0.0 0.01 0.01 0.0 0.0 0.0 0.01 0.0 0.0 0.0 0.01 0.01 0.0 0.0 0.0 0.01 0.0 0.0 0.0 0.01 0.01 0.0 0.0 0.0 0.01 0.0 0.0 0.0 0.01 0.01 0.0 0.0 0.0 0.01 0.0 0.0 0.0 0.01 0.01 0.0 0.0 0.0 0.01 0.0 0.0 0.0 0.01 0.01 0.0 0.0 0.0 0.01 0.0 0.0 0.0 0.01 0.01 0.0 0.0 0.0 0.01 0.0 0.0 0.0 0.01 0.01 0.0 0.0 0.0 0.01 0.0 0.0 0.0 0.01 0.01 0.0 0.0 0.0 0.01 0.0 0.0 0.0 0.01 0.01 0.0 0.0 0.0 0.01 0.0 0.0 0.0 0.01 0.01 0.0 0.0 0.0 0.01 0.0 0.0 0.0 0.01 0.01 0.0 0.0 0.0 0.01 0.0 0.0 0.0 0.01 0.01 0.0 0.0 0.0 0.01 0.0 0.0 0.0 0.01 0.01 0.0 0.0 0.0 0.01 0.0 0.0 0.0 0.01 0.01 0.0 0.0 0.0 0.01 0.0 0.0 0.0 0.01 0.01 0.0 0.0 0.0 0.01 0.0 0.0 0.0 0.01 0.01 0.0 0.0 0.0 0.01 0.0 0.0 0.0 0.01 0.01 0.0 0.0 0.0 0.01 0.0 0.0 0.0 0.01 0.01 0.0 0.0 0.0 0.01 0.0 0.0 0.0 0.01 0.01 0.0 0.0 0.0 0.01 0.0 0.0 0.0 0.01 0.01 0.0 0.0 0.0 0.01 0.0 0.0 0.0 0.01 0.01 0.0 0.0 0.0 0.01 0.0 0.0 0.0 0.01 0.01 0.0 0.0 0.0 0.01 0.0 0.0 0.0 0.01 0.01 0.0 0.0 0.0 0.01 0.0 0.0 0.0 0.01 0.01 0.0 0.0 0.0 0.01 0.0 0.0 0.0 0.01 0.01 0.0 0.0 0.0 0.01 0.0 0.0 0.0 0.01 0.01 0.0 0.0 0.0 0.01 0.0 0.0 0.0 0.01 0.01 0.0 0.0 0.0 0.01 0.0 0.0 0.0 0.01 0.01 0.0 0.0 0.0 0.01 0.0 0.0 0.0 0.01 0.01 0.0 0.0 0.0 0.01 0.0 0.0 0.0 0.01 0.01 0.0 0.0 0.0 0.01 0.0 0.0 0.0 0.01 0.01 0.0 0.0 0.0 0.01 0.0 0.0 0.0 0.01 0.01 0.0 0.0 0.0 0.01 0.0 0.0 0.0 0.01 0.01 0.0 0.0 0.0 0.01 0.0 0.0 0.0 0.01 0.01 0.0 0.0 0.0 0.01 0.0 0.0 0.0 0.01 0.01 0.0 0.0 0.0 0.01 0.0 0.0 0.0 0.01 0.01 0.0 0.0 0.0 0.01 0.0 0.0 0.0 0.01 0.01 0.0 0.0 0.0 0.01 0.0 0.0 0.0 0.01 0.01 0.0 0.0 0.0 0.01 0.0 0.0 0.0 0.01 0.01 0.0 0.0 0.0 0.01 0.0 0.0 0.0 0.01 0.01 0.0 0.0 0.0 0.01 0.0 0.0 0.0 0.01 0.01 0.0 0.0 0.0 0.01 0.0 0.0 0.0 0.01 0.01 0.0 0.0 0.0 0.01 0.0 0.0 0.0 0.01 0.01 0.0 0.0 0.0 0.01 0.0 0.0 0.0 0.01 0.01 0.0 0.0 0.0 0.01 0.0 0.0 0.0 0.01 0.01 0.0 0.0 0.0 0.01 0.0 0.0 0.0 0.01 0.01 0.0 0.0 0.0 0.01 0.0 0.0 0.0 0.01 0.01 0.0 0.0 0.0 0.01 0.0 0.0 0.0 0.01 0.01 0.0 0.0 0.0 0.01 0.0 0.0 0.0 0.01 0.01 0.0 0.0 0.0 0.01 0.0 0.0 0.0 0.01 0.01 0.0 0.0 0.0 0.01 0.0 0.0 0.0 0.01 0.01 0.0 0.0 0.0 0.01 0.0 0.0 0.0 0.01 0.01 0.0 0.0 0.0 0.01 0.0 0.0 0.0 0.01 0.01 0.0 0.0 0.0 0.01 0.0 0.0 0.0 0.01 0.01 0.0 0.0 0.0 0.01 0.0 0.0 0.0 0.01 0.01 0.0 0.0 0.0 0.01 0.0 0.0 0.0 0.01 0.01 0.0 0.0 0.0 0.01 0.0 0.0 0.0 0.01 0.01 0.0 0.0 0.0 0.01 0.0 0.0 0.0 0.01 0.01 0.0 0.0 0.0 0.01 0.0 0.0 0.0 0.01 0.01 0.0 0.0 0.0 0.01 0.0 0.0 0.0 0.01 0.01 0.0 0.0 0.0 0.01 0.0 0.0 0.0 0.01 0.01 0.0 0.0 0.0 0.01 0.0 0.0 0.0 0.01 0.01 0.0 0.0 0.0 0.01 0.0 0.0 0.0 0.01 0.01 0.0 0.0 0.0 0.01 0.0 0.0 0.0 0.01 0.01 0.0 0.0 0.0 0.01 0.0 0.0 0.0 0.01 0.01 0.0 0.0 0.0 0.01 0.0 0.0 0.0 0.01 0.01 0.0 0.0 0.0 0.01 0.0 0.0 0.0 0.01 0.01 0.0 0.0 0.0 0.01 0.0 0.0 0.0 0.01 0.01 0.0 0.0 0.0 0.01 0.0 0.0 0.0 0.01 0.01 0.0 0.0 0.0 0.01 0.0 0.0 0.0 0.01 0.01 0.0 0.0 0.0 0.01 0.0 0.0 0.0 0.01 0.01 0.0 0.0 0.0 0.01 0.0 0.0 0.0 0.01 0.01 0.0 0.0 0.0 0.01 0.0 0.0 0.0 0.01 0.01 0.0 0.0 0.0 0.01 0.0 0.0 0.0 0.01 0.01 0.0 0.0 0.0 0.01 0.0 0.0 0.0 0.01 0.01 0.0 0.0 0.0 0.01 0.0 0.0 0.0 0.01 0.01 0.0 0.0 0.0 0.01 0.0 0.0 0.0 0.01 0.01 0.0 0.0 0.0 0.01 0.0 0.0 0.0 0.01 0.01 0.0 0.0 0.0 0.01 0.0 0.0 0.0 0.01 0.01 0.0 0.0 0.0 0.01 0.0 0.0 0.0 0.01 0.01 0.0 0.0 0.0 0.01 0.0 0.0 0.0 0.01 0.01 0.0 0.0 0.0 0.01 0.0 0.0 0.0 0.01 0.01 0.0 0.0 0.0 0.01 0.0 0.0 0.0 0.01 0.01 0.0 0.0 0.0 0.01 0.0 0.0 0.0 0.01 0.01 0.0 0.0 0.0 0.01 0.0 0.0 0.0 0.01 0.01 0.0 0.0 0.0 0.01 0.0 0.0 0.0 0.01 0.01 0.0 0.0 0.0 0.01 0.0 0.0 0.0 0.01 0.01 0.0 0.0 0.0 0.01 0.0 0.0 0.0 0.01 0.01 0.0 0.0 0.0 0.01 0.0 0.0 0.0 0.01 0.01 0.0 0.0 0.0 0.01 0.0 0.0 0.0 0.01 0.01 0.0 0.0 0.0 0.01 0.0 0.0 0.0 0.01 0.01 0.0 0.0 0.0 0.01 0.0 0.0 0.0 0.01 0.01 0.0 0.0 0.0 0.01 0.0 0.0 0.0 0.01 0.01 0.0 0.0 0.0 0.01 0.0 0.0 0.0 0.01 0.01 0.0 0.0 0.0 0.01 0.0 0.0 0.0 0.01 0.01 0.0 0.0 0.0 0.01 0.0 0.0 0.0 0.01 0.01 0.0 0.0 0.0 0.01 0.0 0.0 0.0 0.01 0.01 0.0 0.0 0.0 0.01 0.0 0.0 0.0 0.01 0.01 0.0 0.0 0.0 0.01 0.0 0.0 0.0 0.01 0.01 0.0 0.0 0.0 0.01 0.0 0.0 0.0 0.01 0.01 0.0 0.0 0.0 0.01 0.0 0.0 0.0 0.01 0.01 0.0 0.0 0.0 0.01 0.0 0.0 0.0 0.01 0.01 0.0 0.0 0.0 0.01 0.0 0.0 0.0 0.01 0.01 0.0 0.0 0.0 0.01 0.0 0.0 0.0 0.01 0.01 0.0 0.0 0.0 0.01 0.0 0.0 0.0 0.01 0.01 0.0 0.0 0.0 0.01 0.0 0.0 0.0 0.01 0.01 0.0 0.0 0.0 0.01 0.0 0.0 0.0 0.01 0.01 0.0 0.0 0.0 0.01 0.0 0.0 0.0 0.01 0.01 0.0 0.0 0.0 0.01 0.0 0.0 0.0 0.01 0.01 0.0 0.0 0.0 0.01 0.0 0.0 0.0 0.01 0.01 0.0 0.0 0.0 0.01 0.0 0.0 0.0 0.01 0.01 0.0 0.0 0.0 0.01 0.0 0.0 0.0 0.01 0.01 0.0 0.0 0.0 0.01 0.0 0.0 0.0 0.01 0.01 0.0 0.0 0.0 0.01 0.0 0.0 0.0 0.01 0.01 0.0 0.0 0.0 0.01 0.0 0.0 0.0 0.01 0.01 0.0 0.0 0.0 0.01 0.0 0.0 0.0 0.01 0.01 0.0 0.0 0.0 0.01 0.0 0.0 0.0 0.01 0.01 0.0 0.0 0.0 0.01 0.0 0.0 0.0 0.01 0.01 0.0 0.0 0.0 0.01 0.0 0.0 0.0 0.01 0.01 0.0 0.0 0.0 0.01 0.0 0.0 0.0 0.01 0.01 0.0 0.0 0.0 0.01 0.0 0.0 0.0 0.01 0.01 0.0 0.0 0.0 0.01 0.0 0.0 0.0 0.01 0.01 0.0 0.0 0.0 0.01 0.0 0.0 0.0 0.01 0.01 0.0 0.0 0.0 0.01 0.0 0.0 0.0 0.01 0.01 0.0 0.0 0.0 0.01 0.0 0.0 0.0 0.01 0.01 0.0 0.0 0.0 0.01 0.0 0.0 0.0 0.01 0.01 0.0 0.0 0.0 0.01 0.0 0.0 0.0 0.01 0.01 0.0 0.0 0.0 0.01 0.0 0.0 0.0 0.01 0.01 0.0 0.0 0.0 0.01 0.0 0.0 0.0 0.01 0.01 0.0 0.0 0.0 0.01 0.0 0.0 0.0 0.01 0.01 0.0 0.0 0.0 0.01 0.0 0.0 0.0 0.01 0.01 0.0 0.0 0.0 0.01 0.0 0.0 0.0 0.01 0.01 0.0 0.0 0.0 0.01 0.0 0.0 0.0 0.01 0.01 0.0 0.0 0.0 0.01 0.0 0.0 0.0 0.01 0.01 0.0 0.0 0.0 0.01 0.0 0.0 0.0 0.01 0.01 0.0 0.0 0.0 0.01 0.0 0.0 0.0 0.01 0.01 0.0 0.0 0.0 0.01 0.0 0.0 0.0 0.01 0.01 0.0 0.0 0.0 0.01 0.0 0.0 0.0 0.01 0.01 0.0 0.0 0.0 0.01 0.0 0.0 0.0 0.01 0.01 0.0 0.0 0.0 0.01 0.0 0.0 0.0 0.01 0.01 0.0 0.0 0.0 0.01 0.0 0.0 0.0 0.01 0.01 0.0 0.0 0.0 0.01 0.0 0.0 0.0 0.01 0.01 0.0 0.0 0.0 0.01 0.0 0.0 0.0 0.01 0.01 0.0 0.0 0.0 0.01 0.0 0.0 0.0 0.01 0.01 0.0 0.0 0.0 0.01 0.0 0.0 0.0 0.01 0.01 0.0 0.0 0.0 0.01 0.0 0.0 0.0 0.01 0.01 0.0 0.0 0.0 0.01 0.0 0.0 0.0 0.01 0.01 0.0 0.0 0.0 0.01 0.0 0.0 0.0 0.01 0.01 0.0 0.0 0.0 0.01 0.0 0.0 0.0 0.01 0.01 0.0 0.0 0.0 0.01 0.0 0.0 0.0 0.01 0.01 0.0 0.0 0.0 0.01 0.0 0.0 0.0 0.01 0.01 0.0 0.0 0.0 0.01 0.0 0.0 0.0 0.01 0.01 0.0 0.0 0.0 0.01 0.0 0.0 0.0 0.01 0.01 0.0 0.0 0.0 0.01 0.0 0.0 0.0 0.01 0.01 0.0 0.0 0.0 0.01 0.0 0.0 0.0 0.01 0.01 0.0 0.0 0.0 0.01 0.0 0.0 0.0 0.01 0.01 0.0 0.0 0.0 0.01 0.0 0.0 0.0 0.01 0.01 0.0 0.0 0.0 0.01 0.0 0.0 0.0 0.01 0.01 0.0 0.0 0.0 0.01 0.0 0.0 0.0 0.01 0.01 0.0 0.0 0.0 0.01 0.0 0.0 0.0 0.01 0.01 0.0 0.0 0.0 0.01 0.0 0.0 0.0 0.01 0.01 0.0 0.0 0.0 0.01 0.0 0.0 0.0 0.01 0.01 0.0 0.0 0.0 0.01 0.0 0.0 0.0 0.01 0.01 0.0 0.0 0.0 0.01 0.0 0.0 0.0 0.01 0.01 0.0 0.0 0.0 0.01 0.0 0.0 0.0 0.01 0.01 0.0 0.0 0.0 0.01 0.0 0.0 0.0 0.01 0.01 0.0 0.0 0.0 0.01 0.0 0.0 0.0 0.01 0.01 0.0 0.0 0.0 0.01 0.0 0.0 0.0 0.01 0.01 0.0 0.0 0.0 0.01 0.0 0.0 0.0 0.01 0.01 0.0 0.0 0.0 0.01 0.0 0.0 0.0 0.01 0.01 0.0 0.0 0.0 0.01 0.0 0.0 0.0 0.01 0.01 0.0 0.0 0.0 0.01 0.0 0.0 0.0 0.01 0.01 0.0 0.0 0.0 0.01 0.0 0.0 0.0 0.01 0.01 0.0 0.0 0.0 0.01 0.0 0.0 0.0 0.01 0.01 0.0 0.0 0.0 0.01 0.0 0.0 0.0 0.01 0.01 0.0 0.0 0.0 0.01 0.0 0.0 0.0 0.01 0.01 0.0 0.0 0.0 0.01 0.0 0.0 0.0 0.01 0.01 0.0 0.0 0.0 0.01 0.0 0.0 0.0 0.01 0.01 0.0 0.0 0.0 0.01 0.0 0.0 0.0 0.01 0.01 0.0 0.0 0.0 0.01 0.0 0.0 0.0 0.01 0.01 0.0 0.0 0.0 0.01 0.0 0.0 0.0 0.01 0.01 0.0 0.0 0.0 0.01 0.0 0.0 0.0 0.01 0.01 0.0 0.0 0.0 0.01 0.0 0.0 0.0 0.01 0.01 0.0 0.0 0.0 0.01 0.0 0.0 0.0 0.01 0.01 0.0 0.0 0.0 0.01 0.0 0.0 0.0 0.01 0.01 0.0 0.0 0.0 0.01 0.0 0.0 0.0 0.01 0.01 0.0 0.0 0.0 0.01 0.0 0.0 0.0 0.01 0.01 0.0 0.0 0.0 0.01 0.0 0.0 0.0 0.01 0.01 0.0 0.0 0.0 0.01 0.0 0.0 0.0 0.01 0.01 0.0 0.0 0.0 0.01 0.0 0.0 0.0 0.01 0.01 0.0 0.0 0.0 0.01 0.0 0.0 0.0 0.01 0.01 0.0 0.0 0.0 0.01 0.0 0.0 0.0 0.01 0.01 0.0 0.0 0.0 0.01 0.0 0.0 0.0 0.01 0.01 0.0 0.0 0.0 0.01 0.0 0.0 0.0 0.01 0.01 0.0 0.0 0.0 0.01 0.0 0.0 0.0 0.01 0.01 0.0 0.0 0.0 0.01 0.0 0.0 0.0 0.01 0.01 0.0 0.0 0.0 0.01 0.0 0.0 0.0 0.01 0.01 0.0 0.0 0.0 0.01 0.0 0.0 0.0 0.01 0.01 0.0 0.0 0.0 0.01 0.0 0.0 0.0 0.01 0.01 0.0 0.0 0.0 0.01 0.0 0.0 0.0 0.01 0.01 0.0 0.0 0.0 0.01 0.0 0.0 0.0 0.01 0.01 0.0 0.0 0.0 0.01 0.0 0.0 0.0 0.01 0.01 0.0 0.0 0.0 0.01 0.0 0.0 0.0 0.01 0.01 0.0 0.0 0.0 0.01 0.0 0.0 0.0 0.01 0.01 0.0 0.0 0.0 0.01 0.0 0.0 0.0 0.01 0.01 0.0 0.0 0.0 0.01 0.0 0.0 0.0 0.01 0.01 0.0 0.0 0.0 0.01 0.0 0.0 0.0 0.01 0.01 0.0 0.0 0.0 0.01 0.0 0.0 0.0 0.01 0.01 0.0 0.0 0.0 0.01 0.0 0.0 0.0 0.01 0.01 0.0 0.0 0.0 0.01 0.0 0.0 0.0 0.01 0.01 0.0 0.0 0.0 0.01 0.0 0.0 0.0 0.01 0.01 0.0 0.0 0.0 0.01 0.0 0.0 0.0 0.01 0.01 0.0 0.0 0.0 0.01 0.0 0.0 0.0 0.01 0.01 0.0 0.0 0.0 0.01 0.0 0.0 0.0 0.01 0.01 0.0 0.0 0.0 0.01 0.0 0.0 0.0 0.01 0.01 0.0 0.0 0.0 0.01 0.0 0.0 0.0 0.01 0.01 0.0 0.0 0.0 0.01 0.0 0.0 0.0 0.01 0.01 0.0 0.0 0.0 0.01 0.0 0.0 0.0 0.01 0.01 0.0 0.0 0.0 0.01 0.0 0.0 0.0 0.01 0.01 0.0 0.0 0.0 0.01 0.0 0.0 0.0 0.01 0.01 0.0 0.0 0.0 0.01 0.0 0.0 0.0 0.01 0.01 0.0 0.0 0.0 0.01 0.0 0.0 0.0 0.01 0.01 0.0 0.0 0.0 0.01 0.0 0.0 0.0 0.01 0.01 0.0 0.0 0.0 0.01 0.0 0.0 0.0 0.01 0.01 0.0 0.0 0.0 0.01 0.0 0.0 0.0 0.01 0.01 0.0 0.0 0.0 0.01 0.0 0.0 0.0 0.01 0.01 0.0 0.0 0.0 0.01 0.0 0.0 0.0 0.01 0.01 0.0 0.0 0.0 0.01 0.0 0.0 0.0 0.01 0.01 0.0 0.0 0.0 0.01 0.0 0.0 0.0 0.01 0.01 0.0 0.0 0.0 0.01 0.0 0.0 0.0 0.01 0.01 0.0 0.0 0.0 0.01 0.0 0.0 0.0 0.01 0.01 0.0 0.0 0.0 0.01 0.0 0.0 0.0 0.01 0.01 0.0 0.0 0.0 0.01 0.0 0.0 0.0 0.01 0.01 0.0 0.0 0.0 0.01 0.0 0.0 0.0 0.01 0.01 0.0 0.0 0.0 0.01 0.0 0.0 0.0 0.01 0.01 0.0 0.0 0.0 0.01 0.0 0.0 0.0 0.01 0.01 0.0 0.0 0.0 0.01 0.0 0.0 0.0 0.01 0.01 0.0 0.0 0.0 0.01 0.0 0.0 0.0 0.01 0.01 0.0 0.0 0.0 0.01 0.0 0.0 0.0 0.01 0.01 0.0 0.0 0.0 0.01 0.0 0.0 0.0 0.01 0.01 0.0 0.0 0.0 0.01 0.0 0.0 0.0 0.01 0.01 0.0 0.0 0.0 0.01 0.0 0.0 0.0 0.01 0.01 0.0 0.0 0.0 0.01 0.0 0.0 0.0 0.01 0.01 0.0 0.0 0.0 0.01 0.0 0.0 0.0 0.01 0.01 0.0 0.0 0.0 0.01 0.0 0.0 0.0 0.01 0.01 0.0 0.0 0.0 0.01 0.0 0.0 0.0 0.01 0.01 0.0 0.0 0.0 0.01 0.0 0.0 0.0 0.01 0.01 0.0 0.0 0.0 0.01 0.0 0.0 0.0 0.01 0.01 0.0 0.0 0.0 0.01 0.0 0.0 0.0 0.01 0.01 0.0 0.0 0.0 0.01 0.0 0.0 0.0 0.01 0.01 0.0 0.0 0.0 0.01 0.0 0.0 0.0 0.01 0.01 0.0 0.0 0.0 0.01 0.0 0.0 0.0 0.01 0.01 0.0 0.0 0.0 0.01 0.0 0.0 0.0 0.01 0.01 0.0 0.0 0.0 0.01 0.0 0.0 0.0 0.01 0.01 0.0 0.0 0.0 0.01 0.0 0.0 0.0 0.01 0.01 0.0 0.0 0.0 0.01 0.0 0.0 0.0 0.01 0.01 0.0 0.0 0.0 0.01 0.0 0.0 0.0 0.01 0.01 0.0 0.0 0.0 0.01 0.0 0.0 0.0 0.01 0.01 0.0 0.0 0.0 0.01 0.0 0.0 0.0 0.01 0.01 0.0 0.0 0.0 0.01 0.0 0.0 0.0 0.01 0.01 0.0 0.0 0.0 0.01 0.0 0.0 0.0 0.01 0.01 0.0 0.0 0.0 0.01 0.0 0.0 0.0 0.01 0.01 0.0 0.0 0.0 0.01 0.0 0.0 0.0 0.01 0.01 0.0 0.0 0.0 0.01 0.0 0.0 0.0 0.01 0.01 0.0 0.0 0.0 0.01 0.0 0.0 0.0 0.01 0.01 0.0 0.0 0.0 0.01 0.0 0.0 0.0 0.01 0.01 0.0 0.0 0.0 0.01 0.0 0.0 0.0 0.01 0.01 0.0 0.0 0.0 0.01 0.0 0.0 0.0 0.01 0.01 0.0 0.0 0.0 0.01 0.0 0.0 0.0 0.01 0.01 0.0 0.0 0.0 0.01 0.0 0.0 0.0 0.01 0.01 0.0 0.0 0.0 0.01 0.0 0.0 0.0 0.01 0.01 0.0 0.0 0.0 0.01 0.0 0.0 0.0 0.01 0.01 0.0 0.0 0.0 0.01 0.0 0.0 0.0 0.01 0.01 0.0 0.0 0.0 0.01 0.0 0.0 0.0 0.01 0.01 0.0 0.0 0.0 0.01 0.0 0.0 0.0 0.01 0.01 0.0 0.0 0.0 0.01 0.0 0.0 0.0 0.01 0.01 0.0 0.0 0.0 0.01 0.0 0.0 0.0 0.01 0.01 0.0 0.0 0.0 0.01 0.0 0.0 0.0 0.01 0.01 0.0 0.0 0.0 0.01 0.0 0.0 0.0 0.01 0.01 0.0 0.0 0.0 0.01 0.0 0.0 0.0 0.01 0.01 0.0 0.0 0.0 0.01 0.0 0.0 0.0 0.01 0.01 0.0 0.0 0.0 0.01 0.0 0.0 0.0 0.01 0.01 0.0 0.0 0.0 0.01 0.0 0.0 0.0 0.01 0.01 0.0 0.0 0.0 0.01 0.0 0.0 0.0 0.01 0.01 0.0 0.0 0.0 0.01 0.0 0.0 0.0 0.01 0.01 0.0 0.0 0.0 0.01 0.0 0.0 0.0 0.01 0.01 0.0 0.0 0.0 0.01 0.0 0.0 0.0 0.01 0.01 0.0 0.0 0.0 0.01 0.0 0.0 0.0 0.01 0.01 0.0 0.0 0.0 0.01 0.0 0.0 0.0 0.01 0.01 0.0 0.0 0.0 0.01 0.0 0.0 0.0 0.01 0.01 0.0 0.0 0.0 0.01 0.0 0.0 0.0 0.01 0.01 0.0 0.0 0.0 0.01 0.0 0.0 0.0 0.01 0.01 0.0 0.0 0.0 0.01 0.0 0.0 0.0 0.01 0.01 0.0 0.0 0.0 0.01 0.0 0.0 0.0 0.01 0.01 0.0 0.0 0.0 0.01 0.0 0.0 0.0 0.01 0.01 0.0 0.0 0.0 0.01 0.0 0.0 0.0 0.01 0.01 0.0 0.0 0.0 0.01 0.0 0.0 0.0 0.01 0.01 0.0 0.0 0.0 0.01 0.0 0.0 0.0 0.01 0.01 0.0 0.0 0.0 0.01 0.0 0.0 0.0 0.01 0.01 0.0 0.0 0.0 0.01 0.0 0.0 0.0 0.01 0.01 0.0 0.0 0.0 0.01 0.0 0.0 0.0 0.01 0.01 0.0 0.0 0.0 0.01 0.0 0.0 0.0 0.01 0.01 0.0 0.0 0.0 0.01 0.0 0.0 0.0 0.01 0.01 0.0 0.0 0.0 0.01 0.0 0.0 0.0 0.01 0.01 0.0 0.0 0.0 0.01 0.0 0.0 0.0 0.01 0.01 0.0 0.0 0.0 0.01 0.0 0.0 0.0 0.01 0.01 0.0 0.0 0.0 0.01 0.0 0.0 0.0 0.01 0.01 0.0 0.0 0.0 0.01 0.0 0.0 0.0 0.01 0.01 0.0 0.0 0.0 0.01 0.0 0.0 0.0 0.01 0.01 0.0 0.0 0.0 0.01 0.0 0.0 0.0 0.01 0.01 0.0 0.0 0.0 0.01 0.0 0.0 0.0 0.01 0.01 0.0 0.0 0.0 0.01 0.0 0.0 0.0 0.01 0.01 0.0 0.0 0.0 0.01 0.0 0.0 0.0 0.01 0.01 0.0 0.0 0.0 0.01 0.0 0.0 0.0 0.01 0.01 0.0 0.0 0.0 0.01 0.0 0.0 0.0 0.01 0.01 0.0 0.0 0.0 0.01 0.0 0.0 0.0 0.01 0.01 0.0 0.0 0.0 0.01 0.0 0.0 0.0 0.01 0.01 0.0 0.0 0.0 0.01 0.0 0.0 0.0 0.01 0.01 0.0 0.0 0.0 0.01 0.0 0.0 0.0 0.01 0.01 0.0 0.0 0.0 0.01 0.0 0.0 0.0 0.01 0.01 0.0 0.0 0.0 0.01 0.0 0.0 0.0 0.01 0.01 0.0 0.0 0.0 0.01 0.0 0.0 0.0 0.01 0.01 0.0 0.0 0.0 0.01 0.0 0.0 0.0 0.01 0.01 0.0 0.0 0.0 0.01 0.0 0.0 0.0 0.01 0.01 0.0 0.0 0.0 0.01 0.0 0.0 0.0 0.01 0.01 0.0 0.0 0.0 0.01 0.0 0.0 0.0 0.01 0.01 0.0 0.0 0.0 0.01 0.0 0.0 0.0 0.01 0.01 0.0 0.0 0.0 0.01 0.0 0.0 0.0 0.01 0.01 0.0 0.0 0.0 0.01 0.0 0.0 0.0 0.01 0.01 0.0 0.0 0.0 0.01 0.0 0.0 0.0 0.01 0.01 0.0 0.0 0.0 0.01 0.0 0.0 0.0 0.01 0.01 0.0 0.0 0.0 0.01 0.0 0.0 0.0 0.01 0.01 0.0 0.0 0.0 0.01 0.0 0.0 0.0 0.01 0.01 0.0 0.0 0.0 0.01 0.0 0.0 0.0 0.01 0.01 0.0 0.0 0.0 0.01 0.0 0.0 0.0 0.01 0.01 0.0 0.0 0.0 0.01 0.0 0.0 0.0 0.01 0.01 0.0 0.0 0.0 0.01 0.0 0.0 0.0 0.01 0.01 0.0 0.0 0.0 0.01 0.0 0.0 0.0 0.01 0.01 0.0 0.0 0.0 0.01 0.0 0.0 0.0 0.01 0.01 0.0 0.0 0.0 0.01 0.0 0.0 0.0 0.01 0.01 0.0 0.0 0.0 0.01 0.0 0.0 0.0 0.01 0.01 0.0 0.0 0.0 0.01 0.0 0.0 0.0 0.01 0.01 0.0 0.0 0.0 0.01 0.0 0.0 0.0 0.01 0.01 0.0 0.0 0.0 0.01 0.0 0.0 0.0 0.01 0.01 0.0 0.0 0.0 0.01 0.0 0.0 0.0 0.01 0.01 0.0 0.0 0.0 0.01 0.0 0.0 0.0 0.01 0.01 0.0 0.0 0.0 0.01 0.0 0.0 0.0 0.01 0.01 0.0 0.0 0.0 0.01 0.0 0.0 0.0 0.01 0.01 0.0 0.0 0.0 0.01 0.0 0.0 0.0 0.01 0.01 0.0 0.0 0.0 0.01 0.0 0.0 0.0 0.01 0.01 0.0 0.0 0.0 0.01 0.0 0.0 0.0 0.01 0.01 0.0 0.0 0.0 0.01 0.0 0.0 0.0 0.01 0.01 0.0 0.0 0.0 0.01 0.0 0.0 0.0 0.01 0.01 0.0 0.0 0.0 0.01 0.0 0.0 0.0 0.01 0.01 0.0 0.0 0.0 0.01 0.0 0.0 0.0 0.01 0.01 0.0 0.0 0.0 0.01 0.0 0.0 0.0 0.01 0.01 0.0 0.0 0.0 0.01 0.0 0.0 0.0 0.01 0.01 0.0 0.0 0.0 0.01 0.0 0.0 0.0 0.01 0.01 0.0 0.0 0.0 0.01 0.0 0.0 0.0 0.01 0.01 0.0 0.0 0.0 0.01 0.0 0.0 0.0 0.01 0.01 0.0 0.0 0.0 0.01 0.0 0.0 0.0 0.01 0.01 0.0 0.0 0.0 0.01 0.0 0.0 0.0 0.01 0.01 0.0 0.0 0.0 0.01 0.0 0.0 0.0 0.01 0.01 0.0 0.0 0.0 0.01 0.0 0.0 0.0 0.01 0.01 0.0 0.0 0.0 0.01 0.0 0.0 0.0 0.01 0.01 0.0 0.0 0.0 0.01 0.0 0.0 0.0 0.01 0.01 0.0 0.0 0.0 0.01 0.0 0.0 0.0 0.01 0.01 0.0 0.0 0.0 0.01 0.0 0.0 0.0 0.01 0.01 0.0 0.0 0.0 0.01 0.0 0.0 0.0 0.01 0.01 0.0 0.0 0.0 0.01 0.0 0.0 0.0 0.01 0.01 0.0 0.0 0.0 0.01 0.0 0.0 0.0 0.01 0.01 0.0 0.0 0.0 0.01 0.0 0.0 0.0 0.01 0.01 0.0 0.0 0.0 0.01 0.0 0.0 0.0 0.01 0.01 0.0 0.0 0.0 0.01 0.0 0.0 0.0 0.01 0.01 0.0 0.0 0.0 0.01 0.0 0.0 0.0 0.01 0.01 0.0 0.0 0.0 0.01 0.0 0.0 0.0 0.01 0.01 0.0 0.0 0.0 0.01 0.0 0.0 0.0 0.01 0.01 0.0 0.0 0.0 0.01 0.0 0.0 0.0 0.01 0.01 0.0 0.0 0.0 0.01 0.0 0.0 0.0 0.01 0.01 0.0 0.0 0.0 0.01 0.0 0.0 0.0 0.01 0.01 0.0 0.0 0.0 0.01 0.0 0.0 0.0 0.01 0.01 0.0 0.0 0.0 0.01 0.0 0.0 0.0 0.01 0.01 0.0 0.0 0.0 0.01 0.0 0.0 0.0 0.01 0.01 0.0 0.0 0.0 0.01 0.0 0.0 0.0 0.01 0.01 0.0 0.0 0.0 0.01 0.0 0.0 0.0 0.01 0.01 0.0 0.0 0.0 0.01 0.0 0.0 0.0 0.01 0.01 0.0 0.0 0.0 0.01 0.0 0.0 0.0 0.01 0.01 0.0 0.0 0.0 0.01 0.0 0.0 0.0 0.01 0.01 0.0 0.0 0.0 0.01 0.0 0.0 0.0 0.01 0.01 0.0 0.0 0.0 0.01 0.0 0.0 0.0 0.01 0.01 0.0 0.0 0.0 0.01 0.0 0.0 0.0 0.01 0.01 0.0 0.0 0.0 0.01 0.0 0.0 0.0 0.01 0.01 0.0 0.0 0.0 0.01 0.0 0.0 0.0 0.01 0.01 0.0 0.0 0.0 0.01 0.0 0.0 0.0 0.01 0.01 0.0 0.0 0.0 0.01 0.0 0.0 0.0 0.01 0.01 0.0 0.0 0.0 0.01 0.0 0.0 0.0 0.01 0.01 0.0 0.0 0.0 0.01 0.0 0.0 0.0 0.01 0.01 0.0 0.0 0.0 0.01 0.0 0.0 0.0 0.01 0.01 0.0 0.0 0.0 0.01 0.0 0.0 0.0 0.01 0.01 0.0 0.0 0.0 0.01 0.0 0.0 0.0 0.01 0.01 0.0 0.0 0.0 0.01 0.0 0.0 0.0 0.01 0.01 0.0 0.0 0.0 0.01 0.0 0.0 0.0 0.01 0.01 0.0 0.0 0.0 0.01 0.0 0.0 0.0 0.01 0.01 0.0 0.0 0.0 0.01 0.0 0.0 0.0 0.01 0.01 0.0 0.0 0.0 0.01 0.0 0.0 0.0 0.01 0.01 0.0 0.0 0.0 0.01 0.0 0.0 0.0 0.01 0.01 0.0 0.0 0.0 0.01 0.0 0.0 0.0 0.01 0.01 0.0 0.0 0.0 0.01 0.0 0.0 0.0 0.01 0.01 0.0 0.0 0.0 0.01 0.0 0.0 0.0 0.01 0.01 0.0 0.0 0.0 0.01 0.0 0.0 0.0 0.01 0.01 0.0 0.0 0.0 0.01 0.0 0.0 0.0 0.01 0.01 0.0 0.0 0.0 0.01 0.0 0.0 0.0 0.01 0.01 0.0 0.0 0.0 0.01 0.0 0.0 0.0 0.01 0.01 0.0 0.0 0.0 0.01 0.0 0.0 0.0 0.01 0.01 0.0 0.0 0.0 0.01 0.0 0.0 0.0 0.01 0.01 0.0 0.0 0.0 0.01 0.0 0.0 0.0 0.01 0.01 0.0 0.0 0.0 0.01 0.0 0.0 0.0 0.01 0.01 0.0 0.0 0.0 0.01 0.0 0.0 0.0 0.01 0.01 0.0 0.0 0.0 0.01 0.0 0.0 0.0 0.01 0.01 0.0 0.0 0.0 0.01 0.0 0.0 0.0 0.01 0.01 0.0 0.0 0.0 0.01 0.0 0.0 0.0 0.01 0.01 0.0 0.0 0.0 0.01 0.0 0.0 0.0 0.01 0.01 0.0 0.0 0.0 0.01 0.0 0.0 0.0 0.01 0.01 0.0 0.0 0.0 0.01 0.0 0.0 0.0 0.01 0.01 0.0 0.0 0.0 0.01 0.0 0.0 0.0 0.01 0.01 0.0 0.0 0.0 0.01 0.0 0.0 0.0 0.01 0.01 0.0 0.0 0.0 0.01 0.0 0.0 0.0 0.01 0.01 0.0 0.0 0.0 0.01 0.0 0.0 0.0 0.01 0.01 0.0 0.0 0.0 0.01 0.0 0.0 0.0 0.01 0.01 0.0 0.0 0.0 0.01 0.0 0.0 0.0 0.01 0.01 0.0 0.0 0.0 0.01 0.0 0.0 0.0 0.01 0.01 0.0 0.0 0.0 0.01 0.0 0.0 0.0 0.01 0.01 0.0 0.0 0.0 0.01 0.0 0.0 0.0 0.01 0.01 0.0 0.0 0.0 0.01 0.0 0.0 0.0 0.01 0.01 0.0 0.0 0.0 0.01 0.0 0.0 0.0 0.01 0.01 0.0 0.0 0.0 0.01 0.0 0.0 0.0 0.01 0.01 0.0 0.0 0.0 0.01 0.0 0.0 0.0 0.01 0.01 0.0 0.0 0.0 0.01 0.0 0.0 0.0 0.01 0.01 0.0 0.0 0.0 0.01 0.0 0.0 0.0 0.01 0.01 0.0 0.0 0.0 0.01 0.0 0.0 0.0 0.01 0.01 0.0 0.0 0.0 0.01 0.0 0.0 0.0 0.01 0.01 0.0 0.0 0.0 0.01 0.0 0.0 0.0 0.01 0.01 0.0 0.0 0.0 0.01 0.0 0.0 0.0 0.01 0.01 0.0 0.0 0.0 0.01 0.0 0.0 0.0 0.01 0.01 0.0 0.0 0.0 0.01 0.0 0.0 0.0 0.01 0.01 0.0 0.0 0.0 0.01 0.0 0.0 0.0 0.01 0.01 0.0 0.0 0.0 0.01 0.0 0.0 0.0 0.01 0.01 0.0 0.0 0.0 0.01 0.0 0.0 0.0 0.01 0.01 0.0 0.0 0.0 0.01 0.0 0.0 0.0 0.01 0.01 0.0 0.0 0.0 0.01 0.0 0.0 0.0 0.01 0.01 0.0 0.0 0.0 0.01 0.0 0.0 0.0 0.01 0.01 0.0 0.0 0.0 0.01 0.0 0.0 0.0 0.01 0.01 0.0 0.0 0.0 0.01 0.0 0.0 0.0 0.01 0.01 0.0 0.0 0.0 0.01 0.0 0.0 0.0 0.01 0.01 0.0 0.0 0.0 0.01 0.0 0.0 0.0 0.01 0.01 0.0 0.0 0.0 0.01 0.0 0.0 0.0 0.01 0.01 0.0 0.0 0.0 0.01 0.0 0.0 0.0 0.01 0.01 0.0 0.0 0.0 0.01 0.0 0.0 0.0 0.01 0.01 0.0 0.0 0.0 0.01 0.0 0.0 0.0 0.01 0.01 0.0 0.0 0.0 0.01 0.0 0.0 0.0 0.01 0.01 0.0 0.0 0.0 0.01 0.0 0.0 0.0 0.01 0.01 0.0 0.0 0.0 0.01 0.0 0.0 0.0 0.01 0.01 0.0 0.0 0.0 0.01 0.0 0.0 0.0 0.01 0.01 0.0 0.0 0.0 0.01 0.0 0.0 0.0 0.01 0.01 0.0 0.0 0.0 0.01 0.0 0.0 0.0 0.01 0.01 0.0 0.0 0.0 0.01 0.0 0.0 0.0 0.01 0.01 0.0 0.0 0.0 0.01 0.0 0.0 0.0 0.01 0.01 0.0 0.0 0.0 0.01 0.0 0.0 0.0 0.01 0.01 0.0 0.0 0.0 0.01 0.0 0.0 0.0 0.01 0.01 0.0 0.0 0.0 0.01 0.0 0.0 0.0 0.01 0.01 0.0 0.0 0.0 0.01 0.0 0.0 0.0 0.01 0.01 0.0 0.0 0.0 0.01 0.0 0.0 0.0 0.01 0.01 0.0 0.0 0.0 0.01 0.0 0.0 0.0 0.01 0.01 0.0 0.0 0.0 0.01 0.0 0.0 0.0 0.01 0.01 0.0 0.0 0.0 0.01 0.0 0.0 0.0 0.01 0.01 0.0 0.0 0.0 0.01 0.0 0.0 0.0 0.01 0.01 0.0 0.0 0.0 0.01 0.0 0.0 0.0 0.01 0.01 0.0 0.0 0.0 0.01 0.0 0.0 0.0 0.01 0.01 0.0 0.0 0.0 0.01 0.0 0.0 0.0 0.01 0.01 0.0 0.0 0.0 0.01 0.0 0.0 0.0 0.01 0.01 0.0 0.0 0.0 0.01 0.0 0.0 0.0 0.01 0.01 0.0 0.0 0.0 0.01 0.0 0.0 0.0 0.01 0.01 0.0 0.0 0.0 0.01 0.0 0.0 0.0 0.01 0.01 0.0 0.0 0.0 0.01 0.0 0.0 0.0 0.01 0.01 0.0 0.0 0.0 0.01 0.0 0.0 0.0 0.01 0.01 0.0 0.0 0.0 0.01 0.0 0.0 0.0 0.01 0.01 0.0 0.0 0.0 0.01 0.0 0.0 0.0 0.01 0.01 0.0 0.0 0.0 0.01 0.0 0.0 0.0 0.01 0.01 0.0 0.0 0.0 0.01 0.0 0.0 0.0 0.01 0.01 0.0 0.0 0.0 0.01 0.0 0.0 0.0 0.01 0.01 0.0 0.0 0.0 0.01 0.0 0.0 0.0 0.01 0.01 0.0 0.0 0.0 0.01 0.0 0.0 0.0 0.01 0.01 0.0 0.0 0.0 0.01 0.0 0.0 0.0 0.01 0.01 0.0 0.0 0.0 0.01 0.0 0.0 0.0 0.01 0.01 0.0 0.0 0.0 0.01 0.0 0.0 0.0 0.01 0.01 0.0 0.0 0.0 0.01 0.0 0.0 0.0 0.01 0.01 0.0 0.0 0.0 0.01 0.0 0.0 0.0 0.01 0.01 0.0 0.0 0.0 0.01 0.0 0.0 0.0 0.01 0.01 0.0 0.0 0.0 0.01 0.0 0.0 0.0 0.01 0.01 0.0 0.0 0.0 0.01 0.0 0.0 0.0 0.01 0.01 0.0 0.0 0.0 0.01 0.0 0.0 0.0 0.01 0.01 0.0 0.0 0.0 0.01 0.0 0.0 0.0 0.01 0.01 0.0 0.0 0.0 0.01 0.0 0.0 0.0 0.01 0.01 0.0 0.0 0.0 0.01 0.0 0.0 0.0 0.01 0.01 0.0 0.0 0.0 0.01 0.0 0.0 0.0 0.01 0.01 0.0 0.0 0.0 0.01 0.0 0.0 0.0 0.01 0.01 0.0 0.0 0.0 0.01 0.0 0.0 0.0 0.01 0.01 0.0 0.0 0.0 0.01 0.0 0.0 0.0 0.01 0.01 0.0 0.0 0.0 0.01 0.0 0.0 0.0 0.01 0.01 0.0 0.0 0.0 0.01 0.0 0.0 0.0 0.01 0.01 0.0 0.0 0.0 0.01 0.0 0.0 0.0 0.01 0.01 0.0 0.0 0.0 0.01 0.0 0.0 0.0 0.01 0.01 0.0 0.0 0.0 0.01 0.0 0.0 0.0 0.01 0.01 0.0 0.0 0.0 0.01 0.0 0.0 0.0 0.01 0.01 0.0 0.0 0.0 0.01 0.0 0.0 0.0 0.01 0.01 0.0 0.0 0.0 0.01 0.0 0.0 0.0 0.01 0.01 0.0 0.0 0.0 0.01 0.0 0.0 0.0 0.01 0.01 0.0 0.0 0.0 0.01 0.0 0.0 0.0 0.01 0.01 0.0 0.0 0.0 0.01 0.0 0.0 0.0 0.01 0.01 0.0 0.0 0.0 0.01 0.0 0.0 0.0 0.01 0.01 0.0 0.0 0.0 0.01 0.0 0.0 0.0 0.01 0.01 0.0 0.0 0.0 0.01 0.0 0.0 0.0 0.01 0.01 0.0 0.0 0.0 0.01 0.0 0.0 0.0 0.01 0.01 0.0 0.0 0.0 0.01 0.0 0.0 0.0 0.01 0.01 0.0 0.0 0.0 0.01 0.0 0.0 0.0 0.01 0.01 0.0 0.0 0.0 0.01 0.0 0.0 0.0 0.01 0.01 0.0 0.0 0.0 0.01 0.0 0.0 0.0 0.01 0.01 0.0 0.0 0.0 0.01 0.0 0.0 0.0 0.01 0.01 0.0 0.0 0.0 0.01 0.0 0.0 0.0 0.01 0.01 0.0 0.0 0.0 0.01 0.0 0.0 0.0 0.01 0.01 0.0 0.0 0.0 0.01 0.0 0.0 0.0 0.01 0.01 0.0 0.0 0.0 0.01 0.0 0.0 0.0 0.01 0.01 0.0 0.0 0.0 0.01 0.0 0.0 0.0 0.01 0.01 0.0 0.0 0.0 0.01 0.0 0.0 0.0 0.01 0.01 0.0 0.0 0.0 0.01 0.0 0.0 0.0 0.01 0.01 0.0 0.0 0.0 0.01 0.0 0.0 0.0 0.01 0.01 0.0 0.0 0.0 0.01 0.0 0.0 0.0 0.01 0.01 0.0 0.0 0.0 0.01 0.0 0.0 0.0 0.01 0.01 0.0 0.0 0.0 0.01 0.0 0.0 0.0 0.01 0.01 0.0 0.0 0.0 0.01 0.0 0.0 0.0 0.01 0.01 0.0 0.0 0.0 0.01 0.0 0.0 0.0 0.01 0.01 0.0 0.0 0.0 0.01 0.0 0.0 0.0 0.01 0.01 0.0 0.0 0.0 0.01 0.0 0.0 0.0 0.01 0.01 0.0 0.0 0.0 0.01 0.0 0.0 0.0 0.01 0.01 0.0 0.0 0.0 0.01 0.0 0.0 0.0 0.01 0.01 0.0 0.0 0.0 0.01 0.0 0.0 0.0 0.01 0.01 0.0 0.0 0.0 0.01 0.0 0.0 0.0 0.01 0.01 0.0 0.0 0.0 0.01 0.0 0.0 0.0 0.01 0.01 0.0 0.0 0.0 0.01 0.0 0.0 0.0 0.01 0.01 0.0 0.0 0.0 0.01 0.0 0.0 0.0 0.01 0.01 0.0 0.0 0.0 0.01 0.0 0.0 0.0 0.01 0.01 0.0 0.0 0.0 0.01 0.0 0.0 0.0 0.01 0.01 0.0 0.0 0.0 0.01 0.0 0.0 0.0 0.01 0.01 0.0 0.0 0.0 0.01 0.0 0.0 0.0 0.01 0.01 0.0 0.0 0.0 0.01 0.0 0.0 0.0 0.01 0.01 0.0 0.0 0.0 0.01 0.0 0.0 0.0 0.01 0.01 0.0 0.0 0.0 0.01 0.0 0.0 0.0 0.01 0.01 0.0 0.0 0.0 0.01 0.0 0.0 0.0 0.01 0.01 0.0 0.0 0.0 0.01 0.0 0.0 0.0 0.01 0.01 0.0 0.0 0.0 0.01 0.0 0.0 0.0 0.01 0.01 0.0 0.0 0.0 0.01 0.0 0.0 0.0 0.01 0.01 0.0 0.0 0.0 0.01 0.0 0.0 0.0 0.01 0.01 0.0 0.0 0.0 0.01 0.0 0.0 0.0 0.01 0.01 0.0 0.0 0.0 0.01 0.0 0.0 0.0 0.01 0.01 0.0 0.0 0.0 0.01 0.0 0.0 0.0 0.01 0.01 0.0 0.0 0.0 0.01 0.0 0.0 0.0 0.01 0.01 0.0 0.0 0.0 0.01 0.0 0.0 0.0 0.01 0.01 0.0 0.0 0.0 0.01 0.0 0.0 0.0 0.01 0.01 0.0 0.0 0.0 0.01 0.0 0.0 0.0 0.01 0.01 0.0 0.0 0.0 0.01 0.0 0.0 0.0 0.01 0.01 0.0 0.0 0.0 0.01 0.0 0.0 0.0 0.01 0.01 0.0 0.0 0.0 0.01 0.0 0.0 0.0 0.01 0.01 0.0 0.0 0.0 0.01 0.0 0.0 0.0 0.01 0.01 0.0 0.0 0.0 0.01 0.0 0.0 0.0 0.01 0.01 0.0 0.0 0.0 0.01 0.0 0.0 0.0 0.01 0.01 0.0 0.0 0.0 0.01 0.0 0.0 0.0 0.01 0.01 0.0 0.0 0.0 0.01 0.0 0.0 0.0 0.01 0.01 0.0 0.0 0.0 0.01 0.0 0.0 0.0 0.01 0.01 0.0 0.0 0.0 0.01 0.0 0.0 0.0 0.01 0.01 0.0 0.0 0.0 0.01 0.0 0.0 0.0 0.01 0.01 0.0 0.0 0.0 0.01 0.0 0.0 0.0 0.01 0.01 0.0 0.0 0.0 0.01 0.0 0.0 0.0 0.01 0.01 0.0 0.0 0.0 0.01 0.0 0.0 0.0 0.01 0.01 0.0 0.0 0.0 0.01 0.0 0.0 0.0 0.01 0.01 0.0 0.0 0.0 0.01 0.0 0.0 0.0 0.01 0.01 0.0 0.0 0.0 0.01 0.0 0.0 0.0 0.01 0.01 0.0 0.0 0.0 0.01 0.0 0.0 0.0 0.01 0.01 0.0 0.0 0.0 0.01 0.0 0.0 0.0 0.01 0.01 0.0 0.0 0.0 0.01 0.0 0.0 0.0 0.01 0.01 0.0 0.0 0.0 0.01 0.0 0.0 0.0 0.01 0.01 0.0 0.0 0.0 0.01 0.0 0.0 0.0 0.01 0.01 0.0 0.0 0.0 0.01 0.0 0.0 0.0 0.01 0.01 0.0 0.0 0.0 0.01 0.0 0.0 0.0 0.01 0.01 0.0 0.0 0.0 0.01 0.0 0.0 0.0 0.01 0.01 0.0 0.0 0.0 0.01 0.0 0.0 0.0 0.01 0.01 0.0 0.0 0.0 0.01 0.0 0.0 0.0 0.01 0.01 0.0 0.0 0.0 0.01 0.0 0.0 0.0 0.01 0.01 0.0 0.0 0.0 0.01 0.0 0.0 0.0 0.01 0.01 0.0 0.0 0.0 0.01 0.0 0.0 0.0 0.01 0.01 0.0 0.0 0.0 0.01 0.0 0.0 0.0 0.01 0.01 0.0 0.0 0.0 0.01 0.0 0.0 0.0 0.01 0.01 0.0 0.0 0.0 0.01 0.0 0.0 0.0 0.01 0.01 0.0 0.0 0.0 0.01 0.0 0.0 0.0 0.01 0.01 0.0 0.0 0.0 0.01 0.0 0.0 0.0 0.01 0.01 0.0 0.0 0.0 0.01 0.0 0.0 0.0 0.01 0.01 0.0 0.0 0.0 0.01 0.0 0.0 0.0 0.01 0.01 0.0 0.0 0.0 0.01 0.0 0.0 0.0 0.01 0.01 0.0 0.0 0.0 0.01 0.0 0.0 0.0 0.01 0.01 0.0 0.0 0.0 0.01 0.0 0.0 0.0 0.01 0.01 0.0 0.0 0.0 0.01 0.0 0.0 0.0 0.01 0.01 0.0 0.0 0.0 0.01 0.0 0.0 0.0 0.01 0.01 0.0 0.0 0.0 0.01 0.0 0.0 0.0 0.01 0.01 0.0 0.0 0.0 0.01 0.0 0.0 0.0 0.01 0.01 0.0 0.0 0.0 0.01 0.0 0.0 0.0 0.01 0.01 0.0 0.0 0.0 0.01 0.0 0.0 0.0 0.01 0.01 0.0 0.0 0.0 0.01 0.0 0.0 0.0 0.01 0.01 0.0 0.0 0.0 0.01 0.0 0.0 0.0 0.01 0.01 0.0 0.0 0.0 0.01 0.0 0.0 0.0 0.01 0.01 0.0 0.0 0.0 0.01 0.0 0.0 0.0 0.01 0.01 0.0 0.0 0.0 0.01 0.0 0.0 0.0 0.01 0.01 0.0 0.0 0.0 0.01 0.0 0.0 0.0 0.01 0.01 0.0 0.0 0.0 0.01 0.0 0.0 0.0 0.01 0.01 0.0 0.0 0.0 0.01 0.0 0.0 0.0 0.01 0.01 0.0 0.0 0.0 0.01 0.0 0.0 0.0 0.01 0.01 0.0 0.0 0.0 0.01 0.0 0.0 0.0 0.01 0.01 0.0 0.0 0.0 0.01 0.0 0.0 0.0 0.01 0.01 0.0 0.0 0.0 0.01 0.0 0.0 0.0 0.01 0.01 0.0 0.0 0.0 0.01 0.0 0.0 0.0 0.01 0.01 0.0 0.0 0.0 0.01 0.0 0.0 0.0 0.01 0.01 0.0 0.0 0.0 0.01 0.0 0.0 0.0 0.01 0.01 0.0 0.0 0.0 0.01 0.0 0.0 0.0 0.01 0.01 0.0 0.0 0.0 0.01 0.0 0.0 0.0 0.01 0.01 0.0 0.0 0.0 0.01 0.0 0.0 0.0 0.01 0.01 0.0 0.0 0.0 0.01 0.0 0.0 0.0 0.01 0.01 0.0 0.0 0.0 0.01 0.0 0.0 0.0 0.01 0.01 0.0 0.0 0.0 0.01 0.0 0.0 0.0 0.01 0.01 0.0 0.0 0.0 0.01 0.0 0.0 0.0 0.01 0.01 0.0 0.0 0.0 0.01 0.0 0.0 0.0 0.01 0.01 0.0 0.0 0.0 0.01 0.0 0.0 0.0 0.01 0.01 0.0 0.0 0.0 0.01 0.0 0.0 0.0 0.01 0.01 0.0 0.0 0.0 0.01 0.0 0.0 0.0 0.01 0.01 0.0 0.0 0.0 0.01 0.0 0.0 0.0 0.01 0.01 0.0 0.0 0.0 0.01 0.0 0.0 0.0 0.01 0.01 0.0 0.0 0.0 0.01 0.0 0.0 0.0 0.01 0.01 0.0 0.0 0.0 0.01 0.0 0.0 0.0 0.01 0.01 0.0 0.0 0.0 0.01 0.0 0.0 0.0 0.01 0.01 0.0 0.0 0.0 0.01 0.0 0.0 0.0 0.01 0.01 0.0 0.0 0.0 0.01 0.0 0.0 0.0 0.01 0.01 0.0 0.0 0.0 0.01 0.0 0.0 0.0 0.01 0.01 0.0 0.0 0.0 0.01 0.0 0.0 0.0 0.01 0.01 0.0 0.0 0.0 0.01 0.0 0.0 0.0 0.01 0.01 0.0 0.0 0.0 0.01 0.0 0.0 0.0 0.01 0.01 0.0 0.0 0.0 0.01 0.0 0.0 0.0 0.01 0.01 0.0 0.0 0.0 0.01 0.0 0.0 0.0 0.01 0.01 0.0 0.0 0.0 0.01 0.0 0.0 0.0 0.01 0.01 0.0 0.0 0.0 0.01 0.0 0.0 0.0 0.01 0.01 0.0 0.0 0.0 0.01 0.0 0.0 0.0 0.01 0.01 0.0 0.0 0.0 0.01 0.0 0.0 0.0 0.01 0.01 0.0 0.0 0.0 0.01 0.0 0.0 0.0 0.01 0.01 0.0 0.0 0.0 0.01 0.0 0.0 0.0 0.01 0.01 0.0 0.0 0.0 0.01 0.0 0.0 0.0 0.01 0.01 0.0 0.0 0.0 0.01 0.0 0.0 0.0 0.01 0.01 0.0 0.0 0.0 0.01 0.0 0.0 0.0 0.01 0.01 0.0 0.0 0.0 0.01 0.0 0.0 0.0 0.01 0.01 0.0 0.0 0.0 0.01 0.0 0.0 0.0 0.01 0.01 0.0 0.0 0.0 0.01 0.0 0.0 0.0 0.01 0.01 0.0 0.0 0.0 0.01 0.0 0.0 0.0 0.01 0.01 0.0 0.0 0.0 0.01 0.0 0.0 0.0 0.01 0.01 0.0 0.0 0.0 0.01 0.0 0.0 0.0 0.01 0.01 0.0 0.0 0.0 0.01 0.0 0.0 0.0 0.01 0.01 0.0 0.0 0.0 0.01 0.0 0.0 0.0 0.01 0.01 0.0 0.0 0.0 0.01 0.0 0.0 0.0 0.01 0.01 0.0 0.0 0.0 0.01 0.0 0.0 0.0 0.01 0.01 0.0 0.0 0.0 0.01 0.0 0.0 0.0 0.01 0.01 0.0 0.0 0.0 0.01 0.0 0.0 0.0 0.01 0.01 0.0 0.0 0.0 0.01 0.0 0.0 0.0 0.01 0.01 0.0 0.0 0.0 0.01 0.0 0.0 0.0 0.01 0.01 0.0 0.0 0.0 0.01 0.0 0.0 0.0 0.01 0.01 0.0 0.0 0.0 0.01 0.0 0.0 0.0 0.01 0.01 0.0 0.0 0.0 0.01 0.0 0.0 0.0 0.01 0.01 0.0 0.0 0.0 0.01 0.0 0.0 0.0 0.01 0.01 0.0 0.0 0.0 0.01 0.0 0.0 0.0 0.01 0.01 0.0 0.0 0.0 0.01 0.0 0.0 0.0 0.01 0.01 0.0 0.0 0.0 0.01 0.0 0.0 0.0 0.01 0.01 0.0 0.0 0.0 0.01 0.0 0.0 0.0 0.01 0.01 0.0 0.0 0.0 0.01 0.0 0.0 0.0 0.01 0.01 0.0 0.0 0.0 0.01 0.0 0.0 0.0 0.01 0.01 0.0 0.0 0.0 0.01 0.0 0.0 0.0 0.01 0.01 0.0 0.0 0.0 0.01 0.0 0.0 0.0 0.01 0.01 0.0 0.0 0.0 0.01 0.0 0.0 0.0 0.01 0.01 0.0 0.0 0.0 0.01 0.0 0.0 0.0 0.01 0.01 0.0 0.0 0.0 0.01 0.0 0.0 0.0 0.01 0.01 0.0 0.0 0.0 0.01 0.0 0.0 0.0 0.01 0.01 0.0 0.0 0.0 0.01 0.0 0.0 0.0 0.01 0.01 0.0 0.0 0.0 0.01 0.0 0.0 0.0 0.01 0.01 0.0 0.0 0.0 0.01 0.0 0.0 0.0 0.01 0.01 0.0 0.0 0.0 0.01 0.0 0.0 0.0 0.01 0.01 0.0 0.0 0.0 0.01 0.0 0.0 0.0 0.01 0.01 0.0 0.0 0.0 0.01 0.0 0.0 0.0 0.01 0.01 0.0 0.0 0.0 0.01 0.0 0.0 0.0 0.01 0.01 0.0 0.0 0.0 0.01 0.0 0.0 0.0 0.01 0.01 0.0 0.0 0.0 0.01 0.0 0.0 0.0 0.01 0.01 0.0 0.0 0.0 0.01 0.0 0.0 0.0 0.01 0.01 0.0 0.0 0.0 0.01 0.0 0.0 0.0 0.01 0.01 0.0 0.0 0.0 0.01 0.0 0.0 0.0 0.01 0.01 0.0 0.0 0.0 0.01 0.0 0.0 0.0 0.01 0.01 0.0 0.0 0.0 0.01 0.0 0.0 0.0 0.01 0.01 0.0 0.0 0.0 0.01 0.0 0.0 0.0 0.01 0.01 0.0 0.0 0.0 0.01 0.0 0.0 0.0 0.01 0.01 0.0 0.0 0.0 0.01 0.0 0.0 0.0 0.01 0.01 0.0 0.0 0.0 0.01 0.0 0.0 0.0 0.01 0.01 0.0 0.0 0.0 0.01 0.0 0.0 0.0 0.01 0.01 0.0 0.0 0.0 0.01 0.0 0.0 0.0 0.01 0.01 0.0 0.0 0.0 0.01 0.0 0.0 0.0 0.01 0.01 0.0 0.0 0.0 0.01 0.0 0.0 0.0 0.01 0.01 0.0 0.0 0.0 0.01 0.0 0.0 0.0 0.01 0.01 0.0 0.0 0.0 0.01 0.0 0.0 0.0 0.01 0.01 0.0 0.0 0.0 0.01 0.0 0.0 0.0 0.01 0.01 0.0 0.0 0.0 0.01 0.0 0.0 0.0 0.01 0.01 0.0 0.0 0.0 0.01 0.0 0.0 0.0 0.01 0.01 0.0 0.0 0.0 0.01 0.0 0.0 0.0 0.01 0.01 0.0 0.0 0.0 0.01 0.0 0.0 0.0 0.01 0.01 0.0 0.0 0.0 0.01 0.0 0.0 0.0 0.01 0.01 0.0 0.0 0.0 0.01 0.0 0.0 0.0 0.01 0.01 0.0 0.0 0.0 0.01 0.0 0.0 0.0 0.01 0.01 0.0 0.0 0.0 0.01 0.0 0.0 0.0 0.01 0.01 0.0 0.0 0.0 0.01 0.0 0.0 0.0 0.01 0.01 0.0 0.0 0.0 0.01 0.0 0.0 0.0 0.01 0.01 0.0 0.0 0.0 0.01 0.0 0.0 0.0 0.01 0.01 0.0 0.0 0.0 0.01 0.0 0.0 0.0 0.01 0.01 0.0 0.0 0.0 0.01 0.0 0.0 0.0 0.01 0.01 0.0 0.0 0.0 0.01 0.0 0.0 0.0 0.01 0.01 0.0 0.0 0.0 0.01 0.0 0.0 0.0 0.01 0.01 0.0 0.0 0.0 0.01 0.0 0.0 0.0 0.01 0.01 0.0 0.0 0.0 0.01 0.0 0.0 0.0 0.01 0.01 0.0 0.0 0.0 0.01 0.0 0.0 0.0 0.01 0.01 0.0 0.0 0.0 0.01 0.0 0.0 0.0 0.01 0.01 0.0 0.0 0.0 0.01 0.0 0.0 0.0 0.01 0.01 0.0 0.0 0.0 0.01 0.0 0.0 0.0 0.01 0.01 0.0 0.0 0.0 0.01 0.0 0.0 0.0 0.01 0.01 0.0 0.0 0.0 0.01 0.0 0.0 0.0 0.01 0.01 0.0 0.0 0.0 0.01 0.0 0.0 0.0 0.01 0.01 0.0 0.0 0.0 0.01 0.0 0.0 0.0 0.01 0.01 0.0 0.0 0.0 0.01 0.0 0.0 0.0 0.01 0.01 0.0 0.0 0.0 0.01 0.0 0.0 0.0 0.01 0.01 0.0 0.0 0.0 0.01 0.0 0.0 0.0 0.01 0.01 0.0 0.0 0.0 0.01 0.0 0.0 0.0 0.01 0.01 0.0 0.0 0.0 0.01 0.0 0.0 0.0 0.01 0.01 0.0 0.0 0.0 0.01 0.0 0.0 0.0 0.01 0.01 0.0 0.0 0.0 0.01 0.0 0.0 0.0 0.01 0.01 0.0 0.0 0.0 0.01 0.0 0.0 0.0 0.01 0.01 0.0 0.0 0.0 0.01 0.0 0.0 0.0 0.01 0.01 0.0 0.0 0.0 0.01 0.0 0.0 0.0 0.01 0.01 0.0 0.0 0.0 0.01 0.0 0.0 0.0 0.01 0.01 0.0 0.0 0.0 0.01 0.0 0.0 0.0 0.01 0.01 0.0 0.0 0.0 0.01 0.0 0.0 0.0 0.01 0.01 0.0 0.0 0.0 0.01 0.0 0.0 0.0 0.01 0.01 0.0 0.0 0.0 0.01 0.0 0.0 0.0 0.01 0.01 0.0 0.0 0.0 0.01 0.0 0.0 0.0 0.01 0.01 0.0 0.0 0.0 0.01 0.0 0.0 0.0 0.01 0.01 0.0 0.0 0.0 0.01 0.0 0.0 0.0 0.01 0.01 0.0 0.0 0.0 0.01 0.0 0.0 0.0 0.01 0.01 0.0 0.0 0.0 0.01 0.0 0.0 0.0 0.01 0.01 0.0 0.0 0.0 0.01 0.0 0.0 0.0 0.01 0.01 0.0 0.0 0.0 0.01 0.0 0.0 0.0 0.01 0.01 0.0 0.0 0.0 0.01 0.0 0.0 0.0 0.01 0.01 0.0 0.0 0.0 0.01 0.0 0.0 0.0 0.01 0.01 0.0 0.0 0.0 0.01 0.0 0.0 0.0 0.01 0.01 0.0 0.0 0.0 0.01 0.0 0.0 0.0 0.01 0.01 0.0 0.0 0.0 0.01 0.0 0.0 0.0 0.01 0.01 0.0 0.0 0.0 0.01 0.0 0.0 0.0 0.01 0.01 0.0 0.0 0.0 0.01 0.0 0.0 0.0 0.01 0.01 0.0 0.0 0.0 0.01 0.0 0.0 0.0 0.01 0.01 0.0 0.0 0.0 0.01 0.0 0.0 0.0 0.01 0.01 0.0 0.0 0.0 0.01 0.0 0.0 0.0 0.01 0.01 0.0 0.0 0.0 0.01 0.0 0.0 0.0 0.01 0.01 0.0 0.0 0.0 0.01 0.0 0.0 0.0 0.01 0.01 0.0 0.0 0.0 0.01 0.0 0.0 0.0 0.01 0.01 0.0 0.0 0.0 0.01 0.0 0.0 0.0 0.01 0.01 0.0 0.0 0.0 0.01 0.0 0.0 0.0 0.01 0.01 0.0 0.0 0.0 0.01 0.0 0.0 0.0 0.01 0.01 0.0 0.0 0.0 0.01 0.0 0.0 0.0 0.01 0.01 0.0 0.0 0.0 0.01 0.0 0.0 0.0 0.01 0.01 0.0 0.0 0.0 0.01 0.0 0.0 0.0 0.01 0.01 0.0 0.0 0.0 0.01 0.0 0.0 0.0 0.01 0.01 0.0 0.0 0.0 0.01 0.0 0.0 0.0 0.01 0.01 0.0 0.0 0.0 0.01 0.0 0.0 0.0 0.01 0.01 0.0 0.0 0.0 0.01 0.0 0.0 0.0 0.01 0.01 0.0 0.0 0.0 0.01 0.0 0.0 0.0 0.01 0.01 0.0 0.0 0.0 0.01 0.0 0.0 0.0 0.01 0.01 0.0 0.0 0.0 0.01 0.0 0.0 0.0 0.01 0.01 0.0 0.0 0.0 0.01 0.0 0.0 0.0 0.01 0.01 0.0 0.0 0.0 0.01 0.0 0.0 0.0 0.01 0.01 0.0 0.0 0.0 0.01 0.0 0.0 0.0 0.01 0.01 0.0 0.0 0.0 0.01 0.0 0.0 0.0 0.01 0.01 0.0 0.0 0.0 0.01 0.0 0.0 0.0 0.01 0.01 0.0 0.0 0.0 0.01 0.0 0.0 0.0 0.01 0.01 0.0 0.0 0.0 0.01 0.0 0.0 0.0 0.01 0.01 0.0 0.0 0.0 0.01 0.0 0.0 0.0 0.01 0.01 0.0 0.0 0.0 0.01 0.0 0.0 0.0 0.01 0.01 0.0 0.0 0.0 0.01 0.0 0.0 0.0 0.01 0.01 0.0 0.0 0.0 0.01 0.0 0.0 0.0 0.01 0.01 0.0 0.0 0.0 0.01 0.0 0.0 0.0 0.01 0.01 0.0 0.0 0.0 0.01 0.0 0.0 0.0 0.01 0.01 0.0 0.0 0.0 0.01 0.0 0.0 0.0 0.01 0.01 0.0 0.0 0.0 0.01 0.0 0.0 0.0 0.01 0.01 0.0 0.0 0.0 0.01 0.0 0.0 0.0 0.01 0.01 0.0 0.0 0.0 0.01 0.0 0.0 0.0 0.01 0.01 0.0 0.0 0.0 0.01 0.0 0.0 0.0 0.01 0.01 0.0 0.0 0.0 0.01 0.0 0.0 0.0 0.01 0.01 0.0 0.0 0.0 0.01 0.0 0.0 0.0 0.01 0.01 0.0 0.0 0.0 0.01 0.0 0.0 0.0 0.01 0.01 0.0 0.0 0.0 0.01 0.0 0.0 0.0 0.01 0.01 0.0 0.0 0.0 0.01 0.0 0.0 0.0 0.01 0.01 0.0 0.0 0.0 0.01 0.0 0.0 0.0 0.01 0.01 0.0 0.0 0.0 0.01 0.0 0.0 0.0 0.01 0.01 0.0 0.0 0.0 0.01 0.0 0.0 0.0 0.01 0.01 0.0 0.0 0.0 0.01 0.0 0.0 0.0 0.01 0.01 0.0 0.0 0.0 0.01 0.0 0.0 0.0 0.01 0.01 0.0 0.0 0.0 0.01 0.0 0.0 0.0 0.01 0.01 0.0 0.0 0.0 0.01 0.0 0.0 0.0 0.01 0.01 0.0 0.0 0.0 0.01 0.0 0.0 0.0 0.01 0.01 0.0 0.0 0.0 0.01 0.0 0.0 0.0 0.01 0.01 0.0 0.0 0.0 0.01 0.0 0.0 0.0 0.01 0.01 0.0 0.0 0.0 0.01 0.0 0.0 0.0 0.01 0.01 0.0 0.0 0.0 0.01 0.0 0.0 0.0 0.01 0.01 0.0 0.0 0.0 0.01 0.0 0.0 0.0 0.01 0.01 0.0 0.0 0.0 0.01 0.0 0.0 0.0 0.01 0.01 0.0 0.0 0.0 0.01 0.0 0.0 0.0 0.01 0.01 0.0 0.0 0.0 0.01 0.0 0.0 0.0 0.01 0.01 0.0 0.0 0.0 0.01 0.0 0.0 0.0 0.01 0.01 0.0 0.0 0.0 0.01 0.0 0.0 0.0 0.01 0.01 0.0 0.0 0.0 0.01 0.0 0.0 0.0 0.01 0.01 0.0 0.0 0.0 0.01 0.0 0.0 0.0 0.01 0.01 0.0 0.0 0.0 0.01 0.0 0.0 0.0 0.01 0.01 0.0 0.0 0.0 0.01 0.0 0.0 0.0 0.01 0.01 0.0 0.0 0.0 0.01 0.0 0.0 0.0 0.01 0.01 0.0 0.0 0.0 0.01 0.0 0.0 0.0 0.01 0.01 0.0 0.0 0.0 0.01 0.0 0.0 0.0 0.01 0.01 0.0 0.0 0.0 0.01 0.0 0.0 0.0 0.01 0.01 0.0 0.0 0.0 0.01 0.0 0.0 0.0 0.01 0.01 0.0 0.0 0.0 0.01 0.0 0.0 0.0 0.01 0.01 0.0 0.0 0.0 0.01 0.0 0.0 0.0 0.01 0.01 0.0 0.0 0.0 0.01 0.0 0.0 0.0 0.01 0.01 0.0 0.0 0.0 0.01 0.0 0.0 0.0 0.01 0.01 0.0 0.0 0.0 0.01 0.0 0.0 0.0 0.01 0.01 0.0 0.0 0.0 0.01 0.0 0.0 0.0 0.01 0.01 0.0 0.0 0.0 0.01 0.0 0.0 0.0 0.01 0.01 0.0 0.0 0.0 0.01 0.0 0.0 0.0 0.01 0.01 0.0 0.0 0.0 0.01 0.0 0.0 0.0 0.01 0.01 0.0 0.0 0.0 0.01 0.0 0.0 0.0 0.01 0.01 0.0 0.0 0.0 0.01 0.0 0.0 0.0 0.01 0.01 0.0 0.0 0.0 0.01 0.0 0.0 0.0 0.01 0.01 0.0 0.0 0.0 0.01 0.0 0.0 0.0 0.01 0.01 0.0 0.0 0.0 0.01 0.0 0.0 0.0 0.01 0.01 0.0 0.0 0.0 0.01 0.0 0.0 0.0 0.01 0.01 0.0 0.0 0.0 0.01 0.0 0.0 0.0 0.01 0.01 0.0 0.0 0.0 0.01 0.0 0.0 0.0 0.01 0.01 0.0 0.0 0.0 0.01 0.0 0.0 0.0 0.01 0.01 0.0 0.0 0.0 0.01 0.0 0.0 0.0 0.01 0.01 0.0 0.0 0.0 0.01 0.0 0.0 0.0 0.01 0.01 0.0 0.0 0.0 0.01 0.0 0.0 0.0 0.01 0.01 0.0 0.0 0.0 0.01 0.0 0.0 0.0 0.01 0.01 0.0 0.0 0.0 0.01 0.0 0.0 0.0 0.01 0.01 0.0 0.0 0.0 0.01 0.0 0.0 0.0 0.01 0.01 0.0 0.0 0.0 0.01 0.0 0.0 0.0 0.01 0.01 0.0 0.0 0.0 0.01 0.0 0.0 0.0 0.01 0.01 0.0 0.0 0.0 0.01 0.0 0.0 0.0 0.01 0.01 0.0 0.0 0.0 0.01 0.0 0.0 0.0 0.01 0.01 0.0 0.0 0.0 0.01 0.0 0.0 0.0 0.01 0.01 0.0 0.0 0.0 0.01 0.0 0.0 0.0 0.01 0.01 0.0 0.0 0.0 0.01 0.0 0.0 0.0 0.01 0.01 0.0 0.0 0.0 0.01 0.0 0.0 0.0 0.01 0.01 0.0 0.0 0.0 0.01 0.0 0.0 0.0 0.01 0.01 0.0 0.0 0.0 0.01 0.0 0.0 0.0 0.01 0.01 0.0 0.0 0.0 0.01 0.0 0.0 0.0 0.01 0.01 0.0 0.0 0.0 0.01 0.0 0.0 0.0 0.01 0.01 0.0 0.0 0.0 0.01 0.0 0.0 0.0 0.01 0.01 0.0 0.0 0.0 0.01 0.0 0.0 0.0 0.01 0.01 0.0 0.0 0.0 0.01 0.0 0.0 0.0 0.01 0.01 0.0 0.0 0.0 0.01 0.0 0.0 0.0 0.01 0.01 0.0 0.0 0.0 0.01 0.0 0.0 0.0 0.01 0.01 0.0 0.0 0.0 0.01 0.0 0.0 0.0 0.01 0.01 0.0 0.0 0.0 0.01 0.0 0.0 0.0 0.01 0.01 0.0 0.0 0.0 0.01 0.0 0.0 0.0 0.01 0.01 0.0 0.0 0.0 0.01 0.0 0.0 0.0 0.01 0.01 0.0 0.0 0.0 0.01 0.0 0.0 0.0 0.01 0.01 0.0 0.0 0.0 0.01 0.0 0.0 0.0 0.01 0.01 0.0 0.0 0.0 0.01 0.0 0.0 0.0 0.01 0.01 0.0 0.0 0.0 0.01 0.0 0.0 0.0 0.01 0.01 0.0 0.0 0.0 0.01 0.0 0.0 0.0 0.01 0.01 0.0 0.0 0.0 0.01 0.0 0.0 0.0 0.01 0.01 0.0 0.0 0.0 0.01 0.0 0.0 0.0 0.01 0.01 0.0 0.0 0.0 0.01 0.0 0.0 0.0 0.01 0.01 0.0 0.0 0.0 0.01 0.0 0.0 0.0 0.01 0.01 0.0 0.0 0.0 0.01 0.0 0.0 0.0 0.01 0.01 0.0 0.0 0.0 0.01 0.0 0.0 0.0 0.01 0.01 0.0 0.0 0.0 0.01 0.0 0.0 0.0 0.01 0.01 0.0 0.0 0.0 0.01 0.0 0.0 0.0 0.01 0.01 0.0 0.0 0.0 0.01 0.0 0.0 0.0 0.01 0.01 0.0 0.0 0.0 0.01 0.0 0.0 0.0 0.01 0.01 0.0 0.0 0.0 0.01 0.0 0.0 0.0 0.01 0.01 0.0 0.0 0.0 0.01 0.0 0.0 0.0 0.01 0.01 0.0 0.0 0.0 0.01 0.0 0.0 0.0 0.01 0.01 0.0 0.0 0.0 0.01 0.0 0.0 0.0 0.01 0.01 0.0 0.0 0.0 0.01 0.0 0.0 0.0 0.01 0.01 0.0 0.0 0.0 0.01 0.0 0.0 0.0 0.01 0.01 0.0 0.0 0.0 0.01 0.0 0.0 0.0 0.01 0.01 0.0 0.0 0.0 0.01 0.0 0.0 0.0 0.01 0.01 0.0 0.0 0.0 0.01 0.0 0.0 0.0 0.01 0.01 0.0 0.0 0.0 0.01 0.0 0.0 0.0 0.01 0.01 0.0 0.0 0.0 0.01 0.0 0.0 0.0 0.01 0.01 0.0 0.0 0.0 0.01 0.0 0.0 0.0 0.01 0.01 0.0 0.0 0.0 0.01 0.0 0.0 0.0 0.01 0.01 0.0 0.0 0.0 0.01 0.0 0.0 0.0 0.01 0.01 0.0 0.0 0.0 0.01 0.0 0.0 0.0 0.01 0.01 0.0 0.0 0.0 0.01 0.0 0.0 0.0 0.01 0.01 0.0 0.0 0.0 0.01 0.0 0.0 0.0 0.01 0.01 0.0 0.0 0.0 0.01 0.0 0.0 0.0 0.01 0.01 0.0 0.0 0.0 0.01 0.0 0.0 0.0 0.01 0.01 0.0 0.0 0.0 0.01 0.0 0.0 0.0 0.01 0.01 0.0 0.0 0.0 0.01 0.0 0.0 0.0 0.01 0.01 0.0 0.0 0.0 0.01 0.0 0.0 0.0 0.01 0.01 0.0 0.0 0.0 0.01 0.0 0.0 0.0 0.01 0.01 0.0 0.0 0.0 0.01 0.0 0.0 0.0 0.01 0.01 0.0 0.0 0.0 0.01 0.0 0.0 0.0 0.01 0.01 0.0 0.0 0.0 0.01 0.0 0.0 0.0 0.01 0.01 0.0 0.0 0.0 0.01 0.0 0.0 0.0 0.01 0.01 0.0 0.0 0.0 0.01 0.0 0.0 0.0 0.01 0.01 0.0 0.0 0.0 0.01 0.0 0.0 0.0 0.01 0.01 0.0 0.0 0.0 0.01 0.0 0.0 0.0 0.01 0.01 0.0 0.0 0.0 0.01 0.0 0.0 0.0 0.01 0.01 0.0 0.0 0.0 0.01 0.0 0.0 0.0 0.01 0.01 0.0 0.0 0.0 0.01 0.0 0.0 0.0 0.01 0.01 0.0 0.0 0.0 0.01 0.0 0.0 0.0 0.01 0.01 0.0 0.0 0.0 0.01 0.0 0.0 0.0 0.01 0.01 0.0 0.0 0.0 0.01 0.0 0.0 0.0 0.01 0.01 0.0 0.0 0.0 0.01 0.0 0.0 0.0 0.01 0.01 0.0 0.0 0.0 0.01 0.0 0.0 0.0 0.01 0.01 0.0 0.0 0.0 0.01 0.0 0.0 0.0 0.01 0.01 0.0 0.0 0.0 0.01 0.0 0.0 0.0 0.01 0.01 0.0 0.0 0.0 0.01 0.0 0.0 0.0 0.01 0.01 0.0 0.0 0.0 0.01 0.0 0.0 0.0 0.01 0.01 0.0 0.0 0.0 0.01 0.0 0.0 0.0 0.01 0.01 0.0 0.0 0.0 0.01 0.0 0.0 0.0 0.01 0.01 0.0 0.0 0.0 0.01 0.0 0.0 0.0 0.01 0.01 0.0 0.0 0.0 0.01 0.0 0.0 0.0 0.01 0.01 0.0 0.0 0.0 0.01 0.0 0.0 0.0 0.01 0.01 0.0 0.0 0.0 0.01 0.0 0.0 0.0 0.01 0.01 0.0 0.0 0.0 0.01 0.0 0.0 0.0 0.01 0.01 0.0 0.0 0.0 0.01 0.0 0.0 0.0 0.01 0.01 0.0 0.0 0.0 0.01 0.0 0.0 0.0 0.01 0.01 0.0 0.0 0.0 0.01 0.0 0.0 0.0 0.01 0.01 0.0 0.0 0.0 0.01 0.0 0.0 0.0 0.01 0.01 0.0 0.0 0.0 0.01 0.0 0.0 0.0 0.01 0.01 0.0 0.0 0.0 0.01 0.0 0.0 0.0 0.01 0.01 0.0 0.0 0.0 0.01 0.0 0.0 0.0 0.01 0.01 0.0 0.0 0.0 0.01 0.0 0.0 0.0 0.01 0.01 0.0 0.0 0.0 0.01 0.0 0.0 0.0 0.01 0.01 0.0 0.0 0.0 0.01 0.0 0.0 0.0 0.01 0.01 0.0 0.0 0.0 0.01 0.0 0.0 0.0 0.01 0.01 0.0 0.0 0.0 0.01 0.0 0.0 0.0 0.01 0.01 0.0 0.0 0.0 0.01 0.0 0.0 0.0 0.01 0.01 0.0 0.0 0.0 0.01 0.0 0.0 0.0 0.01 0.01 0.0 0.0 0.0 0.01 0.0 0.0 0.0 0.01 0.01 0.0 0.0 0.0 0.01 0.0 0.0 0.0 0.01 0.01 0.0 0.0 0.0 0.01 0.0 0.0 0.0 0.01 0.01 0.0 0.0 0.0 0.01 0.0 0.0 0.0 0.01 0.01 0.0 0.0 0.0 0.01 0.0 0.0 0.0 0.01 0.01 0.0 0.0 0.0 0.01 0.0 0.0 0.0 0.01 0.01 0.0 0.0 0.0 0.01 0.0 0.0 0.0 0.01 0.01 0.0 0.0 0.0 0.01 0.0 0.0 0.0 0.01 0.01 0.0 0.0 0.0 0.01 0.0 0.0 0.0 0.01 0.01 0.0 0.0 0.0 0.01 0.0 0.0 0.0 0.01 0.01 0.0 0.0 0.0 0.01 0.0 0.0 0.0 0.01 0.01 0.0 0.0 0.0 0.01 0.0 0.0 0.0 0.01 0.01 0.0 0.0 0.0 0.01 0.0 0.0 0.0 0.01 0.01 0.0 0.0 0.0 0.01 0.0 0.0 0.0 0.01 0.01 0.0 0.0 0.0 0.01 0.0 0.0 0.0 0.01 0.01 0.0 0.0 0.0 0.01 0.0 0.0 0.0 0.01 0.01 0.0 0.0 0.0 0.01 0.0 0.0 0.0 0.01 0.01 0.0 0.0 0.0 0.01 0.0 0.0 0.0 0.01 0.01 0.0 0.0 0.0 0.01 0.0 0.0 0.0 0.01 0.01 0.0 0.0 0.0 0.01 0.0 0.0 0.0 0.01 0.01 0.0 0.0 0.0 0.01 0.0 0.0 0.0 0.01 0.01 0.0 0.0 0.0 0.01 0.0 0.0 0.0 0.01 0.01 0.0 0.0 0.0 0.01 0.0 0.0 0.0 0.01 0.01 0.0 0.0 0.0 0.01 0.0 0.0 0.0 0.01 0.01 0.0 0.0 0.0 0.01 0.0 0.0 0.0 0.01 0.01 0.0 0.0 0.0 0.01 0.0 0.0 0.0 0.01 0.01 0.0 0.0 0.0 0.01 0.0 0.0 0.0 0.01 0.01 0.0 0.0 0.0 0.01 0.0 0.0 0.0 0.01 0.01 0.0 0.0 0.0 0.01 0.0 0.0 0.0 0.01 0.01 0.0 0.0 0.0 0.01 0.0 0.0 0.0 0.01 0.01 0.0 0.0 0.0 0.01 0.0 0.0 0.0 0.01 0.01 0.0 0.0 0.0 0.01 0.0 0.0 0.0 0.01 0.01 0.0 0.0 0.0 0.01 0.0 0.0 0.0 0.01 0.01 0.0 0.0 0.0 0.01 0.0 0.0 0.0 0.01 0.01 0.0 0.0 0.0 0.01 0.0 0.0 0.0 0.01 0.01 0.0 0.0 0.0 0.01 0.0 0.0 0.0 0.01 0.01 0.0 0.0 0.0 0.01 0.0 0.0 0.0 0.01 0.01 0.0 0.0 0.0 0.01 0.0 0.0 0.0 0.01 0.01 0.0 0.0 0.0 0.01 0.0 0.0 0.0 0.01 0.01 0.0 0.0 0.0 0.01 0.0 0.0 0.0 0.01 0.01 0.0 0.0 0.0 0.01 0.0 0.0 0.0 0.01 0.01 0.0 0.0 0.0 0.01 0.0 0.0 0.0 0.01 0.01 0.0 0.0 0.0 0.01 0.0 0.0 0.0 0.01 0.01 0.0 0.0 0.0 0.01 0.0 0.0 0.0 0.01 0.01 0.0 0.0 0.0 0.01 0.0 0.0 0.0 0.01 0.01 0.0 0.0 0.0 0.01 0.0 0.0 0.0 0.01 0.01 0.0 0.0 0.0 0.01 0.0 0.0 0.0 0.01 0.01 0.0 0.0 0.0 0.01 0.0 0.0 0.0 0.01 0.01 0.0 0.0 0.0 0.01 0.0 0.0 0.0 0.01 0.0099999980000006 0.0 -9.182376998129303e-12 0.0 0.01 0.0 -9.182376998129303e-12 0.0 0.01 0.009999997000001351 0.0 8.637527609311795e-18 0.0 0.01 0.0 8.637527609311795e-18 0.0 0.01 0.009999996500001837 0.0 -5.7084335038386505e-18 0.0 0.01 0.0 -5.7084335038386505e-18 0.0 0.01 0.0099999960000024 0.0 -2.7286342640229456e-17 0.0 0.01 0.0 -2.7286342640229456e-17 0.0 0.01 0.0099999960000024 0.0 1.5376786277135486e-17 0.0 0.01 0.0 1.5376786277135486e-17 0.0 0.01 0.0099999980000006 0.0 1.6446828565100155e-17 0.0 0.01 0.0 1.6446828565100155e-17 0.0 0.01 0.009999997000001351 0.0 -4.596800667123764e-12 0.0 0.01 0.0 -4.596800667123764e-12 0.0 0.01 0.0099999960000024 0.0 1.7273318139337228e-17 0.0 0.01 0.0 1.7273318139337228e-17 0.0 0.01 0.009999995500003037 0.0 1.1021656063306824e-17 0.0 0.01 0.0 1.1021656063306824e-17 0.0 0.01 0.009999994500004536 0.0 -3.2408902769765845e-17 0.0 0.01 0.0 -3.2408902769765845e-17 0.0 0.01 0.009999994500004536 0.0 3.827176293397034e-18 0.0 0.01 0.0 3.827176293397034e-18 0.0 0.01 0.009999996500001837 0.0 -1.864216181368692e-17 0.0 0.01 0.0 -1.864216181368692e-17 0.0 0.009999999500000037 0.0099999960000024 0.0 2.7021309286764778e-18 0.0 0.01 0.0 2.7021309286764778e-18 0.0 0.01 0.009999994500004536 0.0 2.5587918899759985e-17 0.0 0.01 0.0 2.5587918899759985e-17 0.0 0.01 0.009999994500004536 0.0 7.643562272434034e-13 0.0 0.01 0.0 7.643562272434034e-13 0.0 0.01 0.009999993000007349 0.0 -2.4109185683362257e-17 0.0 0.01 0.0 -2.4109185683362257e-17 0.0 0.01 0.009999992500008438 0.0 -1.2726072181245791e-17 0.0 0.01 0.0 -1.2726072181245791e-17 0.0 0.01 0.0099999960000024 0.0 3.066553628891606e-14 0.0 0.01 0.0 3.066553628891606e-14 0.0 0.009999999500000037 0.00999999450000454 0.0 8.137012288426239e-15 0.0 0.01 0.0 8.1370122900806e-15 0.0 0.010000000000000004 0.009999993000007349 0.0 3.5618869606523065e-17 0.0 0.01 0.0 3.5618869606523065e-17 0.0 0.01 0.009999992000009601 0.0 3.1456962247121246e-17 0.0 0.01 0.0 3.1456962247121246e-17 0.0 0.01 0.009999990500013536 0.0 9.848448420931948e-13 0.0 0.01 0.0 9.848448420931948e-13 0.0 0.01 0.009999990500013536 0.0 3.033485827769e-17 0.0 0.01 0.0 3.033485827769e-17 0.0 0.01 0.009999994500004536 0.0 3.6199872699443523e-12 0.0 0.01 0.0 3.6199872716384182e-12 0.0 0.00999999900000015 0.009999992500008438 0.0 2.0714299136850834e-12 0.0 0.01 0.0 2.071429913261567e-12 0.0 0.009999999500000035 0.009999990500013538 0.0 7.418838428166754e-13 0.0 0.01 0.0 7.418838428166754e-13 0.0 0.010000000000000002 0.00999998950001654 0.0 8.395116778327419e-14 0.0 0.01 0.0 8.39511677700393e-14 0.0 0.010000000000000004 0.00999998900001815 0.0 5.4463445139815214e-17 0.0 0.01 0.0 5.4463445139815214e-17 0.0 0.01 0.0099999880000216 0.0 3.5100782820695994e-17 0.0 0.01 0.0 3.5100782820695994e-17 0.0 0.01 0.0099999920000096 0.0 3.585183261785264e-11 0.0 0.01 0.0 3.585183261107638e-11 0.0 0.009999999000000152 0.009999989500016538 0.0 2.324142565684681e-11 0.0 0.01 0.0 2.3241425653458677e-11 0.0 0.009999999500000039 0.009999987500023436 0.0 1.1109287668863914e-11 0.0 0.01 0.0 1.110928767055798e-11 0.0 0.01 0.009999985500031538 0.0 3.2257132840616274e-12 0.0 0.01 0.0 3.2257132840616274e-12 0.0 0.010000000000000004 0.00999998500003375 0.0 3.8703829417519866e-13 0.0 0.01 0.0 3.8703829417519866e-13 0.0 0.010000000000000004 0.009999983500040837 0.0 1.918344895905368e-17 0.0 0.01 0.0 1.918344895905368e-17 0.0 0.010000000500000038 0.00999998950001654 0.0 1.69772364488072e-10 0.0 0.01 0.0 1.6977236446096694e-10 0.0 0.009999998500000341 0.009999985500031538 0.0 1.1913208303692118e-10 0.0 0.01 0.0 1.1913208303692118e-10 0.0 0.009999999000000153 0.00999998300004335 0.0 6.212717157811883e-11 0.0 0.01 0.0 6.212717157811883e-11 0.0 0.009999999999999998 0.009999981000054151 0.0 2.278165857187448e-11 0.0 0.01 0.0 2.278165857187448e-11 0.0 0.01 0.009999979500063035 0.0 4.924168728190147e-12 0.0 0.01 0.0 4.924168728190147e-12 0.0 0.010000000500000036 0.00999997850006934 0.0 3.8630370212530507e-13 0.0 0.01 0.0 3.8630370212530507e-13 0.0 0.010000001000000152 0.009999983000043398 0.0 5.611217507349789e-10 0.0 0.01 0.0 5.61121750789189e-10 0.0 0.009999998000000647 0.009999979500063065 0.0 4.047394946862619e-10 0.0 0.01 0.0 4.047394946862619e-10 0.0 0.009999999000000174 0.009999976500082846 0.0 2.1893739325282678e-10 0.0 0.01 0.0 2.1893739323927425e-10 0.0 0.010000000000000007 0.009999974000101403 0.0 8.737046925787889e-11 0.0 0.01 0.0 8.737046925110263e-11 0.0 0.010000000000000002 0.009999972500113436 0.0 2.3397500496585236e-11 0.0 0.01 0.0 2.339750049489117e-11 0.0 0.01000000100000015 0.009999971000126145 0.0 3.3059436652432605e-12 0.0 0.01 0.0 3.3059436652432605e-12 0.0 0.010000001000000149 0.009999973500105659 0.0 1.4647677683407231e-09 0.0 0.01 0.0 1.4647677683407231e-09 0.0 0.00999999700000167 0.009999969500139705 0.0 1.0500462597953092e-09 0.0 0.01 0.0 1.0500462597953092e-09 0.0 0.009999998500000508 0.009999966500168385 0.0 5.698142367021111e-10 0.0 0.01 0.0 5.698142366750061e-10 0.0 0.010000000000000049 0.009999964500189045 0.0 2.337920301147614e-10 0.0 0.01 0.0 2.337920301147614e-10 0.0 0.010000001000000158 0.009999962500210938 0.0 6.861468896990396e-11 0.0 0.01 0.0 6.861468896990396e-11 0.0 0.010000001450000318 0.009999962000216599 0.0 1.2296480006505862e-11 0.0 0.01 0.0 1.2296480006505862e-11 0.0 0.010000001950000571 0.009999961000229601 0.0 3.1132921026345156e-09 0.0 0.01 0.0 3.1132921026345156e-09 0.0 0.00999999650000329 0.009999956500284549 0.0 2.182634467043018e-09 0.0 0.01 0.0 2.1826344672598585e-09 0.0 0.009999998500001049 0.0099999540003176 0.0 1.1648972122742067e-09 0.0 0.01 0.0 1.1648972122199966e-09 0.0 0.010000000000000205 0.009999952000345627 0.0 4.774560119963139e-10 0.0 0.01 0.0 4.774560119963139e-10 0.0 0.0100000019500006 0.009999950500367536 0.0 1.4485673267448582e-10 0.0 0.01 0.0 1.4485673267448582e-10 0.0 0.010000002450000904 0.009999950000374997 0.0 2.878466935192167e-11 0.0 0.01 0.0 2.878466935192167e-11 0.0 0.010000002950001308 0.009999944000474645 0.0 5.3212149118443686e-09 0.0 0.01 0.0 5.3212149118443686e-09 0.0 0.009999994500008788 0.009999938500569338 0.0 3.6540892188159993e-09 0.0 0.01 0.0 3.6540892188159993e-09 0.0 0.009999998500002343 0.009999936500605378 0.0 1.9063848063637263e-09 0.0 0.01 0.0 1.9063848063095162e-09 0.0 0.01000000145000086 0.009999935500624122 0.0 7.689414026980411e-10 0.0 0.01 0.0 7.689414026980411e-10 0.0 0.010000003400001827 0.009999934000653403 0.0 2.335796292509914e-10 0.0 0.01 0.0 2.335796292509914e-10 0.0 0.010000004900003611 0.00999993400065339 0.0 4.800972599192029e-11 0.0 0.01 0.0 4.8009725991073255e-11 0.0 0.0100000049000036 0.009999923500885823 0.0 7.303039768194117e-09 0.0 0.01 0.0 7.303039768194117e-09 0.0 0.009999995500011037 0.009999919000987768 0.0 4.9197504251898005e-09 0.0 0.01 0.0 4.9197504251898005e-09 0.0 0.010000000000003631 0.009999917001034279 0.0 2.5075270101418065e-09 0.0 0.01 0.0 2.5075270101418065e-09 0.0 0.010000003400002674 0.009999914501096668 0.0 9.861676677770355e-10 0.0 0.01 0.0 9.861676677770355e-10 0.0 0.010000005850005279 0.009999913501122335 0.0 2.9331698739787013e-10 0.0 0.01 0.0 2.9331698739787013e-10 0.0 0.010000007800009139 0.00999991350112232 0.0 5.938456605036451e-11 0.0 0.01 0.0 5.938456605036451e-11 0.0 0.010000006350006047 0.009999898501555004 0.0 8.038627360333964e-09 0.0 0.01 0.0 8.038627360333964e-09 0.0 0.010000001450010006 0.009999893501705577 0.0 5.3355959851622385e-09 0.0 0.01 0.0 5.3355959851622385e-09 0.0 0.010000003400006004 0.009999890501799561 0.0 2.649803224850098e-09 0.0 0.01 0.0 2.6498032248229927e-09 0.0 0.010000008800012672 0.009999888501864954 0.0 1.005556603573556e-09 0.0 0.01 0.0 1.0055566035871086e-09 0.0 0.010000010750017484 0.00999988750189841 0.0 2.863001318327205e-10 0.0 0.01 0.0 2.863001318361086e-10 0.0 0.010000011250018995 0.009999886001949362 0.0 5.4333834432960225e-11 0.0 0.01 0.0 5.433383443211319e-11 0.0 0.010000010250015758 0.00999986950256197 0.0 7.0653756253794345e-09 0.0 0.01 0.0 7.065375625487855e-09 0.0 0.010000012200029813 0.009999861502880495 0.0 4.636398459221484e-09 0.0 0.01 0.0 4.636398459275694e-09 0.0 0.01000001320002936 0.009999857503046612 0.0 2.2314349922415537e-09 0.0 0.01 0.0 2.2314349922415537e-09 0.0 0.010000016100039632 0.009999855003153773 0.0 8.040595741981961e-10 0.0 0.01 0.0 8.040595741914199e-10 0.0 0.01000001710004396 0.009999853003241277 0.0 2.1225094431360505e-10 0.0 0.01 0.0 2.1225094431191098e-10 0.0 0.010000017100043869 0.00999985350321926 0.0 3.515669919186635e-11 0.0 0.01 0.0 3.515669919186635e-11 0.0 0.010000014650032195 0.009999826504518899 0.0 4.961072563771773e-09 0.0 0.01 0.0 4.961072563825983e-09 0.0 0.010000027850120033 0.009999819004915526 0.0 3.186384819355275e-09 0.0 0.01 0.0 3.186384819355275e-09 0.0 0.010000025900102148 0.009999815005133911 0.0 1.4623968085618463e-09 0.0 0.01 0.0 1.4623968085618463e-09 0.0 0.010000026850108458 0.00999981250527331 0.0 4.860248181088396e-10 0.0 0.01 0.0 4.860248181054515e-10 0.0 0.010000026850108175 0.009999811505329671 0.0 1.1233940321328593e-10 0.0 0.01 0.0 1.123394032124389e-10 0.0 0.010000024900093005 0.009999811505329673 0.0 1.415924975116882e-11 0.0 0.01 0.0 1.4159249751380578e-11 0.0 0.010000021000066152 0.009999770507901323 0.0 2.6972309302085136e-09 0.0 0.01 0.0 2.6972309302356187e-09 0.0 0.01000004395029083 0.009999763508389917 0.0 1.6562907938138323e-09 0.0 0.01 0.0 1.6562907938138323e-09 0.0 0.010000040050241014 0.009999759508675765 0.0 6.986503387672533e-10 0.0 0.01 0.0 6.986503387672533e-10 0.0 0.010000039050228811 0.009999758008784256 0.0 2.0278492247007463e-10 0.0 0.01 0.0 2.0278492247007463e-10 0.0 0.010000037100206468 0.009999757508820581 0.0 3.635028956788791e-11 0.0 0.01 0.0 3.6350289567676155e-11 0.0 0.010000032700160396 0.00999975850874799 0.0 2.4479498000227743e-12 0.0 0.01 0.0 2.4479498000095394e-12 0.0 0.010000027850116349 0.009999697513725404 0.0 1.0169883390451315e-09 0.0 0.01 0.0 1.0169883390485196e-09 0.0 0.010000062500586101 0.009999692514182762 0.0 5.676995201242627e-10 0.0 0.01 0.0 5.676995201208746e-10 0.0 0.010000057600497719 0.009999689514460798 0.0 2.0659719749136017e-10 0.0 0.01 0.0 2.065971974922072e-10 0.0 0.010000054200440657 0.009999688014600841 0.0 4.548974530847097e-11 0.0 0.01 0.0 4.548974530847097e-11 0.0 0.01000005125039399 0.009999688514554086 0.0 4.347593692029372e-12 0.0 0.01 0.0 4.347593692002902e-12 0.0 0.010000044900302407 0.009999691014321412 0.0 1.2683457759928218e-15 0.0 0.01 0.0 1.2683457759928218e-15 0.0 0.010000036600200936 0.009999605023402214 0.0 1.8600470063607442e-10 0.0 0.01 0.0 1.8600470063607442e-10 0.0 0.010000084451069792 0.00999960252369937 0.0 8.7653729043381e-11 0.0 0.01 0.0 8.765372904295748e-11 0.0 0.010000075700859586 0.009999601023878563 0.0 2.2362473294602844e-11 0.0 0.01 0.0 2.2362473294549904e-11 0.0 0.010000071300762565 0.009999601023878561 0.0 1.8004609416563252e-12 0.0 0.01 0.0 1.8004609416629427e-12 0.0 0.010000065900651429 0.009999603523580277 0.0 -1.3457209414272429e-14 0.0 0.01 0.0 -1.3457209414272429e-14 0.0 0.010000057600497667 0.009999608522989338 0.0 1.045380592451836e-15 0.0 0.01 0.0 1.045380592451836e-15 0.0 0.010000048350350663 0.009999491038858855 0.0 2.642397444192484e-12 0.0 0.01 0.0 2.642397444192484e-12 0.0 0.010000110851843194 0.009999489539088214 0.0 1.0015245229715239e-13 0.0 0.01 0.0 1.0015245229694559e-13 0.0 0.010000100601518081 0.009999490538935233 0.0 -2.7070804780091717e-13 0.0 0.01 0.0 -2.707080477992628e-13 0.0 0.010000092751290405 0.009999492038706323 0.0 -9.71404181461151e-14 0.0 0.01 0.0 -9.71404181465287e-14 0.0 0.010000085451095271 0.00999949703794817 0.0 -1.8524757762805828e-14 0.0 0.01 0.0 -1.8524757762857527e-14 0.0 0.01000007375081587 0.009999503536973778 0.0 1.8977733021869026e-15 0.0 0.01 0.0 1.8977733021869026e-15 0.0 0.010000060550549951 0.00999934806375867 0.0 -7.152954075889073e-13 0.0 0.01 0.0 -7.152954075872529e-13 0.0 0.010000145503175616 0.009999348063758672 0.0 -7.077872194050422e-13 0.0 0.01 0.0 -7.077872194050422e-13 0.0 0.010000130352548726 0.009999350063368138 0.0 -3.925794114747989e-13 0.0 0.01 0.0 -3.925794114731445e-13 0.0 0.01000011865211172 0.009999356062203727 0.0 -1.3860334494833908e-13 0.0 0.01 0.0 -1.3860334494833908e-13 0.0 0.010000108401762619 0.00999936456057262 0.0 -2.5490159250640096e-14 0.0 0.01 0.0 -2.5490159250640096e-14 0.0 0.010000093251304352 0.009999375058587646 0.0 2.0898685504133635e-15 0.0 0.01 0.0 2.0898685504133635e-15 0.0 0.010000076150869834 0.009999166104318901 0.0 -9.839733097529463e-13 0.0 0.01 0.0 -9.839733097529463e-13 0.0 0.010000191405495268 0.009999169103569806 0.0 -1.0103255519774985e-12 0.0 0.01 0.0 -1.0103255519758441e-12 0.0 0.010000167504208554 0.009999175102079717 0.0 -5.601857331435598e-13 0.0 0.01 0.0 -5.601857331435598e-13 0.0 0.010000149403348141 0.009999185599498032 0.0 -1.9435940754404637e-13 0.0 0.01 0.0 -1.9435940754404637e-13 0.0 0.010000135752764275 0.009999199596107218 0.0 -3.722771659872934e-14 0.0 0.01 0.0 -3.7227716598781037e-14 0.0 0.010000115702008015 0.00999921709195135 0.0 1.923989400729716e-15 0.0 0.01 0.0 1.923989400729716e-15 0.0 0.010000092751290404 0.009998934170423125 0.0 -1.2730865168787696e-12 0.0 0.01 0.0 -1.2730865168787696e-12 0.0 0.010000247559192533 0.009998942667716377 0.0 -1.4056037569713572e-12 0.0 0.01 0.0 -1.4056037569713572e-12 0.0 0.010000209456580627 0.009998956663305436 0.0 -7.951109208581653e-13 0.0 0.01 0.0 -7.951109208589924e-13 0.0 0.010000185055136687 0.00999897565741316 0.0 -2.802186985831671e-13 0.0 0.01 0.0 -2.802186985831671e-13 0.0 0.010000167004183469 0.009998999650125007 0.0 -5.5488041497044436e-14 0.0 0.01 0.0 -5.5488041497044436e-14 0.0 0.010000141603007658 0.009999023643009562 0.0 -7.818093277261606e-16 0.0 0.01 0.0 -7.818093277261606e-16 0.0 0.010000113751940896 0.009998644275748082 0.0 -1.4803416254030214e-12 0.0 0.01 0.0 -1.4803416254030214e-12 0.0 0.010000316415017136 0.00999866376787517 0.0 -1.9361823335662962e-12 0.0 0.01 0.0 -1.9361823335662962e-12 0.0 0.010000258310008264 0.009998689257751834 0.0 -1.1519007975376926e-12 0.0 0.01 0.0 -1.151900797539347e-12 0.0 0.010000223157469663 0.009998720245707584 0.0 -4.2654703194640907e-13 0.0 0.01 0.0 -4.2654703194640907e-13 0.0 0.0100002011560694 0.009998756232082283 0.0 -9.759144590172943e-14 0.0 0.01 0.0 -9.759144590172943e-14 0.0 0.010000171854429992 0.009998792718664431 0.0 -1.0930202607088255e-14 0.0 0.01 0.0 -1.0930202607088255e-14 0.0 0.01000013770284426 0.00999829293720902 0.0 -1.5273613507804809e-12 0.0 0.01 0.0 -1.5273613507804809e-12 0.0 0.010000393573233766 0.009998326420224163 0.0 -2.7259056506779585e-12 0.0 0.01 0.0 -2.725905650679613e-12 0.0 0.010000308114239576 0.009998366900139402 0.0 -1.7608173009693578e-12 0.0 0.01 0.0 -1.7608173009726665e-12 0.0 0.010000264160466746 0.009998415376734232 0.0 -7.139452036686036e-13 0.0 0.01 0.0 -7.139452036686036e-13 0.0 0.010000241708763189 0.009998467852193485 0.0 -2.0108978597089947e-13 0.0 0.01 0.0 -2.0108978597069267e-13 0.0 0.010000208006489826 0.009998519828700935 0.0 -4.4428578090814106e-14 0.0 0.01 0.0 -4.442857809076241e-14 0.0 0.010000168454256433 0.009997875677103949 0.0 -1.4030697115094309e-12 0.0 0.01 0.0 -1.4030697115086037e-12 0.0 0.010000476584067695 0.009997930142823715 0.0 -4.095705170785719e-12 0.0 0.01 0.0 -4.095705170785719e-12 0.0 0.010000354518851654 0.009997994103704453 0.0 -2.92595318341499e-12 0.0 0.01 0.0 -2.925953183416644e-12 0.0 0.010000307164151892 0.009998065061742833 0.0 -1.307323991174913e-12 0.0 0.01 0.0 -1.307323991174913e-12 0.0 0.01000029151274646 0.009998137520453754 0.0 -4.381714619602206e-13 0.0 0.01 0.0 -4.381714619602206e-13 0.0 0.010000255859819304 0.00999820748208329 0.0 -1.4026490576717437e-13 0.0 0.01 0.0 -1.4026490576707097e-13 0.0 0.010000210456643613 0.009997413004228453 0.0 -1.3753850312023555e-12 0.0 0.01 0.0 -1.3753850312031827e-12 0.0 0.010000555246241336 0.009997493442739456 0.0 -6.9892060500332734e-12 0.0 0.01 0.0 -6.989206050036582e-12 0.0 0.01000039407329284 0.009997584375568209 0.0 -5.452413029445596e-12 0.0 0.01 0.0 -5.452413029445596e-12 0.0 0.010000360369478987 0.009997679308091681 0.0 -2.6110968168255688e-12 0.0 0.01 0.0 -2.6110968168255688e-12 0.0 0.010000360369478987 0.009997776741651502 0.0 -9.598533185707784e-13 0.0 0.01 0.0 -9.598533185699512e-13 0.0 0.010000324715815374 0.009997867182530646 0.0 -3.673472733302734e-13 0.0 0.01 0.0 -3.67347273330687e-13 0.0 0.010000272961175763 0.009996940404741517 0.0 -2.7241322300079595e-12 0.0 0.01 0.0 -2.7241322300071324e-12 0.0 0.01000062360832825 0.00999704980606038 0.0 -1.3872981905151337e-11 0.0 0.01 0.0 -1.3872981905157955e-11 0.0 0.010000430677820912 0.009997169702041588 0.0 -1.1385356342995126e-11 0.0 0.01 0.0 -1.1385356343001744e-11 0.0 0.010000440929161067 0.009997292100305375 0.0 -5.624779758039766e-12 0.0 0.01 0.0 -5.624779758039766e-12 0.0 0.01000047073323638 0.00999741350384054 0.0 -2.0785736346370877e-12 0.0 0.01 0.0 -2.0785736346370877e-12 0.0 0.010000435578457638 0.009997524419578291 0.0 -7.799058330097151e-13 0.0 0.01 0.0 -7.799058330093016e-13 0.0 0.010000371620714267 0.009996528808212729 0.0 -8.314385285972403e-12 0.0 0.01 0.0 -8.31438528597902e-12 0.0 0.010000676818706335 0.00999666217190851 0.0 -3.053697156678154e-11 0.0 0.01 0.0 -3.053697156678154e-11 0.0 0.010000482934981679 0.009996806030867748 0.0 -2.5828288244929262e-11 0.0 0.01 0.0 -2.5828288244916027e-11 0.0 0.010000582550900883 0.00999695239375191 0.0 -1.2819124421172605e-11 0.0 0.01 0.0 -1.2819124421179222e-11 0.0 0.010000659715277894 0.00999709426698351 0.0 -4.432655919646266e-12 0.0 0.01 0.0 -4.432655919644612e-12 0.0 0.010000619207507944 0.009997223157056893 0.0 -1.3682214100202381e-12 0.0 0.01 0.0 -1.3682214100210653e-12 0.0 0.010000531292337734 0.009996272085638469 0.0 -2.3243934904351314e-11 0.0 0.01 0.0 -2.3243934904357932e-11 0.0 0.010000741282416797 0.009996420922386843 0.0 -6.86832047037365e-11 0.0 0.01 0.0 -6.868320470376297e-11 0.0 0.010000600654113472 0.009996577258076648 0.0 -5.932904825979785e-11 0.0 0.01 0.0 -5.932904825974491e-11 0.0 0.010000836554961928 0.009996734100611793 0.0 -2.9369101380389075e-11 0.0 0.01 0.0 -2.936910138040231e-11 0.0 0.010000971841653074 0.009996885955195448 0.0 -9.326764244884986e-12 0.0 0.01 0.0 -9.326764244884986e-12 0.0 0.010000917626290249 0.0099970243287201 0.0 -1.8592388990976274e-12 0.0 0.01 0.0 -1.8592388990992817e-12 0.0 0.010000787192941155 0.009996297057783108 0.0 -5.456570031494904e-11 0.0 0.01 0.0 -5.456570031496228e-11 0.0 0.010000898070965235 0.009996437904183352 0.0 -1.4673118796683978e-10 0.0 0.01 0.0 -1.4673118796683978e-10 0.0 0.010000880016150638 0.009996587247826911 0.0 -1.285772551686901e-10 0.0 0.01 0.0 -1.285772551686901e-10 0.0 0.010001261938833262 0.009996735099632491 0.0 -6.363246940520643e-11 0.0 0.01 0.0 -6.36324694052329e-11 0.0 0.010001453416801667 0.00999687746314461 0.0 -1.8937245454562185e-11 0.0 0.01 0.0 -1.8937245454562185e-11 0.0 0.010001377734670636 0.009997011839898949 0.0 -1.841784350058608e-12 0.0 0.01 0.0 -1.841784350057781e-12 0.0 0.010001179408617897 0.009996728606003301 0.0 -1.0746262741887419e-10 0.0 0.01 0.0 -1.0746262741887419e-10 0.0 0.010001321561932737 0.009996836501791588 0.0 -2.796810031764868e-10 0.0 0.01 0.0 -2.796810031764868e-10 0.0 0.010001469073663227 0.009996949396495279 0.0 -2.476300469531517e-10 0.0 0.01 0.0 -2.476300469531517e-10 0.0 0.010001915100000772 0.009997062295023822 0.0 -1.2347174730087443e-10 0.0 0.01 0.0 -1.2347174730076855e-10 0.0 0.010002144239467317 0.009997173199072453 0.0 -3.5680492120006355e-11 0.0 0.01 0.0 -3.568049212001959e-11 0.0 0.010002028917308819 0.009997283607219474 0.0 -1.0053959977002148e-12 0.0 0.01 0.0 -1.0053959977006284e-12 0.0 0.010001737752862826 0.009997654825234745 0.0 -1.7543960108519587e-10 0.0 0.01 0.0 -1.754396010852488e-10 0.0 0.010002356782902115 0.009997705290095795 0.0 -4.516914021077428e-10 0.0 0.01 0.0 -4.516914021077428e-10 0.0 0.010002640195226703 0.009997756255384493 0.0 -4.0445191628326705e-10 0.0 0.01 0.0 -4.0445191628337293e-10 0.0 0.010002942197970165 0.00999780922013782 0.0 -2.054233696874703e-10 0.0 0.01 0.0 -2.0542336968752324e-10 0.0 0.010003072715657228 0.009997866183170502 0.0 -5.995439788526369e-11 0.0 0.01 0.0 -5.995439788523722e-11 0.0 0.010002885048045232 0.009997932141582658 0.0 -4.932961194412931e-14 0.0 0.01 0.0 -4.932961194412931e-14 0.0 0.010002469664585307 0.009999077127769708 0.0 -2.2958345328292415e-10 0.0 0.01 0.0 -2.295834532828712e-10 0.0 0.010004379325094397 0.009999052634642229 0.0 -5.991662979654229e-10 0.0 0.01 0.0 -5.991662979656347e-10 0.0 0.010004784681787603 0.009999028141694693 0.0 -5.489385876929528e-10 0.0 0.01 0.0 -5.489385876931646e-10 0.0 0.010004602275192101 0.009999005148479142 0.0 -2.8564452093123056e-10 0.0 0.01 0.0 -2.8564452093123056e-10 0.0 0.010004312337835651 0.009998993651930854 0.0 -8.616744471417644e-11 0.0 0.01 0.0 -8.616744471417644e-11 0.0 0.010003927112120744 0.009998997650725755 0.0 -5.173868641864939e-13 0.0 0.01 0.0 -5.173868641864939e-13 0.0 0.010003348831450003 0.010000870213577581 0.0 -2.2795229081947655e-10 0.0 0.01 0.0 -2.2795229081947655e-10 0.0 0.010007043083773065 0.010000771089177669 0.0 -6.345271519356186e-10 0.0 0.01 0.0 -6.345271519355127e-10 0.0 0.01000768068989621 0.01000066851703133 0.0 -6.009823118154934e-10 0.0 0.01 0.0 -6.009823118154934e-10 0.0 0.010006790109582345 0.01000057229912521 0.0 -3.211648117198585e-10 0.0 0.01 0.0 -3.2116481172007026e-10 0.0 0.01000579162755993 0.010000490736120932 0.0 -1.01842079850609e-10 0.0 0.01 0.0 -1.01842079850609e-10 0.0 0.010005090334088886 0.010000431177885558 0.0 -3.233896664750075e-12 0.0 0.01 0.0 -3.233896664750075e-12 0.0 0.010004309434083553 0.010002774604337334 0.0 -1.875842887279366e-10 0.0 0.01 0.0 -1.8758428872798954e-10 0.0 0.010009233974213194 0.010002618728301675 0.0 -5.23853860911643e-10 0.0 0.01 0.0 -5.23853860911643e-10 0.0 0.010010237399220408 0.010002456454829224 0.0 -5.15813647658133e-10 0.0 0.01 0.0 -5.15813647658133e-10 0.0 0.010008858908148472 0.010002304996706625 0.0 -2.8485114559534953e-10 0.0 0.01 0.0 -2.8485114559524365e-10 0.0 0.010007235395072542 0.01000216915558132 0.0 -9.568851418601313e-11 0.0 0.01 0.0 -9.568851418598667e-11 0.0 0.010006226009656392 0.01000205583379416 0.0 -6.283793342434849e-12 0.0 0.01 0.0 -6.283793342434849e-12 0.0 0.010005247277200039 0.010004438002632874 0.0 -1.6945270975982805e-10 0.0 0.01 0.0 -1.69452709759881e-10 0.0 0.010010345632699702 0.010004263975673621 0.0 -3.586852608160349e-10 0.0 0.01 0.0 -3.586852608160349e-10 0.0 0.010011770750014451 0.010004078193393372 0.0 -3.5154733109588815e-10 0.0 0.01 0.0 -3.515473310956764e-10 0.0 0.010010327025118575 0.010003900731169085 0.0 -1.9928327413618642e-10 0.0 0.01 0.0 -1.9928327413613348e-10 0.0 0.010008400723979807 0.010003735992603688 0.0 -7.02134497947229e-11 0.0 0.01 0.0 -7.02134497947229e-11 0.0 0.010007200168906069 0.010003586378394345 0.0 -7.055216005722232e-12 0.0 0.01 0.0 -7.055216005722232e-12 0.0 0.010006068018662368 0.010005556377571261 0.0 -1.1636231649617893e-10 0.0 0.01 0.0 -1.1636231649615246e-10 0.0 0.010010649286974935 0.010005397416673379 0.0 -2.2897594825527397e-10 0.0 0.01 0.0 -2.289759482553269e-10 0.0 0.010012335788265483 0.010005225292701047 0.0 -2.0401156614168776e-10 0.0 0.01 0.0 -2.040115661417407e-10 0.0 0.010011109786717145 0.01000505117457877 0.0 -1.142056091766983e-10 0.0 0.01 0.0 -1.1420560917659241e-10 0.0 0.010009181078369886 0.010004881972722963 0.0 -4.054808359936762e-11 0.0 0.01 0.0 -4.054808359939409e-11 0.0 0.010007927867707324 0.010004717185678027 0.0 -5.27899821966113e-12 0.0 0.01 0.0 -5.2789982196578214e-12 0.0 0.010006704987504963 0.01000600049657604 0.0 -3.693462269828394e-11 0.0 0.01 0.0 -3.693462269828394e-11 0.0 0.010010619943556908 0.01000587677641888 0.0 -1.0660318161083015e-10 0.0 0.01 0.0 -1.0660318161083015e-10 0.0 0.01001246958486431 0.01000573928713426 0.0 -9.340573546265382e-11 0.0 0.01 0.0 -9.340573546265382e-11 0.0 0.010011453748243328 0.010005588681515533 0.0 -5.010359056800066e-11 0.0 0.01 0.0 -5.010359056800066e-11 0.0 0.010009646741009001 0.010005430219892935 0.0 -1.7297625081732476e-11 0.0 0.01 0.0 -1.729762508174571e-11 0.0 0.010008411952248846 0.010005265856468212 0.0 -2.730568393922037e-12 0.0 0.01 0.0 -2.730568393922037e-12 0.0 0.010007142895861949 0.010005872368659886 0.0 1.0390224216265055e-11 0.0 0.01 0.0 1.0390224216271673e-11 0.0 0.010010524892718092 0.010005785767394868 0.0 -2.5654488231086413e-11 0.0 0.01 0.0 -2.5654488231079796e-11 0.0 0.010012462207342726 0.010005683040874748 0.0 -2.5886192087729405e-11 0.0 0.01 0.0 -2.5886192087722788e-11 0.0 0.010011599250224188 0.01000556373983801 0.0 -1.367653614360436e-11 0.0 0.01 0.0 -1.367653614360436e-11 0.0 0.010009903843512885 0.010005423358734835 0.0 -4.613537269059174e-12 0.0 0.01 0.0 -4.613537269059174e-12 0.0 0.010008695879611257 0.010005270764216706 0.0 -9.661874406573105e-13 0.0 0.01 0.0 -9.661874406573105e-13 0.0 0.01000740371413827 0.010005401322994047 0.0 1.5297503607166908e-11 0.0 0.01 0.0 1.529750360716029e-11 0.0 0.010010470020273938 0.010005346584840712 0.0 3.149253670322494e-12 0.0 0.01 0.0 3.149253670322494e-12 0.0 0.010012432797792929 0.010005275171180692 0.0 -6.07100046540249e-13 0.0 0.01 0.0 -6.071000465406626e-13 0.0 0.01001164430695155 0.010005179321028 0.0 -6.434374448346732e-13 0.0 0.01 0.0 -6.434374448346732e-13 0.0 0.01001001402203646 0.010005060989451172 0.0 -2.812597318863115e-13 0.0 0.01 0.0 -2.812597318862081e-13 0.0 0.010008823664834616 0.010004922081649695 0.0 -1.9746948289637323e-13 0.0 0.01 0.0 -1.9746948289637323e-13 0.0 0.010007522128858975 0.010004829195918899 0.0 4.008717360801213e-12 0.0 0.01 0.0 4.008717360800386e-12 0.0 0.010010476891819439 0.01000479544724291 0.0 2.3246570454871706e-12 0.0 0.01 0.0 2.3246570454871706e-12 0.0 0.01001241909684542 0.010004744073801277 0.0 6.826829026745711e-13 0.0 0.01 0.0 6.826829026747779e-13 0.0 0.010011632064306199 0.010004667315542903 0.0 1.0206639435706325e-15 0.0 0.01 0.0 1.0206639435706325e-15 0.0 0.01001001748241315 0.01000456512415209 0.0 -5.71194775919282e-14 0.0 0.01 0.0 -5.71194775919282e-14 0.0 0.010008834443333461 0.010004441457230031 0.0 6.6247445086323996e-15 0.0 0.01 0.0 6.6247445086323996e-15 0.0 0.010007533404284319 0.010004308432790316 0.0 -4.493779042418642e-12 0.0 0.01 0.0 -4.493779042417815e-12 0.0 0.010010534222126503 0.010004284501971406 0.0 -9.045754971748366e-12 0.0 0.01 0.0 -9.045754971746712e-12 0.0 0.010012424466807154 0.010004242448228716 0.0 -8.419765235824587e-12 0.0 0.01 0.0 -8.419765235822932e-12 0.0 0.010011576722088631 0.010004176464972722 0.0 -4.727634122439284e-12 0.0 0.01 0.0 -4.727634122440939e-12 0.0 0.010009935186600614 0.010004085502336248 0.0 -1.5404820412919602e-12 0.0 0.01 0.0 -1.5404820412923738e-12 0.0 0.010008751224199336 0.010003972115402321 0.0 -5.301068100984477e-14 0.0 0.01 0.0 -5.301068100984477e-14 0.0 0.0100074580350541 0.010003873349263517 0.0 -1.151030943412536e-11 0.0 0.01 0.0 -1.151030943412867e-11 0.0 0.01001043771918395 0.010003849872086596 0.0 -2.7462939655681616e-11 0.0 0.01 0.0 -2.7462939655675e-11 0.0 0.010012266683870764 0.01000380977605363 0.0 -2.4771133782466547e-11 0.0 0.01 0.0 -2.477113378245993e-11 0.0 0.0100113895286973 0.01000374770574249 0.0 -1.3387158127448233e-11 0.0 0.01 0.0 -1.3387158127448233e-11 0.0 0.010009750592590384 0.01000366166018185 0.0 -4.362959521954256e-12 0.0 0.01 0.0 -4.362959521955911e-12 0.0 0.010008574966911779 0.010003556596507434 0.0 -3.5922693003461997e-13 0.0 0.01 0.0 -3.5922693003461997e-13 0.0 0.010007303393148636 0.010003476411976119 0.0 -2.4307906242028612e-11 0.0 0.01 0.0 -2.4307906242028612e-11 0.0 0.010010167836738262 0.010003449033554643 0.0 -5.5561830189597496e-11 0.0 0.01 0.0 -5.556183018958426e-11 0.0 0.010011928057893162 0.010003405538864654 0.0 -4.937013174457454e-11 0.0 0.01 0.0 -4.937013174457454e-11 0.0 0.010011055406314338 0.010003340072667885 0.0 -2.6545862817407607e-11 0.0 0.01 0.0 -2.6545862817407607e-11 0.0 0.010009456246197127 0.010003254037625286 0.0 -8.763225255022753e-12 0.0 0.01 0.0 -8.763225255022753e-12 0.0 0.010008310147316441 0.010003150888589437 0.0 -9.53615660251177e-13 0.0 0.01 0.0 -9.536156602503499e-13 0.0 0.01000707389893361 0.010003057051263187 0.0 -4.442231269675013e-11 0.0 0.01 0.0 -4.4422312696736896e-11 0.0 0.0100097432210775 0.010003021368748954 0.0 -9.246037675032826e-11 0.0 0.01 0.0 -9.246037675032826e-11 0.0 0.010011416019110288 0.010002966169202218 0.0 -8.091339284097817e-11 0.0 0.01 0.0 -8.091339284097817e-11 0.0 0.01001058071908317 0.010002893355241424 0.0 -4.3337088071416036e-11 0.0 0.01 0.0 -4.3337088071442505e-11 0.0 0.010009057691420707 0.010002800475960732 0.0 -1.440294681896568e-11 0.0 0.01 0.0 -1.4402946818968988e-11 0.0 0.010007959693431955 0.01000269153626528 0.0 -1.6985210436001445e-12 0.0 0.01 0.0 -1.6985210436001445e-12 0.0 0.010006768114911566 0.01000258545233903 0.0 -6.742452689984853e-11 0.0 0.01 0.0 -6.742452689986177e-11 0.0 0.0100091943147866 0.010002533662591732 0.0 -1.3210137197267903e-10 0.0 0.01 0.0 -1.3210137197267903e-10 0.0 0.010010760994963121 0.01000246431062482 0.0 -1.1410468064918376e-10 0.0 0.01 0.0 -1.1410468064918376e-10 0.0 0.010009981725360415 0.010002376346785304 0.0 -6.052518657225523e-11 0.0 0.01 0.0 -6.052518657225523e-11 0.0 0.0100085641892512 0.010002268371593083 0.0 -1.9981473523922483e-11 0.0 0.01 0.0 -1.9981473523915865e-11 0.0 0.010007526538798574 0.010002149642946104 0.0 -2.290907802973262e-12 0.0 0.01 0.0 -2.290907802974089e-12 0.0 0.010006395780673225 0.010002089504722088 0.0 -8.677319410174551e-11 0.0 0.01 0.0 -8.677319410177198e-11 0.0 0.010008553912909585 0.010002017210206434 0.0 -1.677373712721208e-10 0.0 0.01 0.0 -1.6773737127214728e-10 0.0 0.010009986138552368 0.010001924855617777 0.0 -1.413947441375298e-10 0.0 0.01 0.0 -1.4139474413747686e-10 0.0 0.010009283411276083 0.010001811041862122 0.0 -7.367375961654927e-11 0.0 0.01 0.0 -7.367375961654927e-11 0.0 0.010007992972939618 0.010001683525043078 0.0 -2.384082209357358e-11 0.0 0.01 0.0 -2.3840822093566963e-11 0.0 0.010007029855889025 0.010001549660142571 0.0 -2.495129355096039e-12 0.0 0.01 0.0 -2.495129355096039e-12 0.0 0.0100059696913305 0.010001635651215738 0.0 -9.812971974856185e-11 0.0 0.01 0.0 -9.812971974856185e-11 0.0 0.010007855947699918 0.01000153355269547 0.0 -2.1213929775998357e-10 0.0 0.01 0.0 -2.1213929776008945e-10 0.0 0.010009145330279592 0.010001408997735262 0.0 -1.615466916008059e-10 0.0 0.01 0.0 -1.615466916008059e-10 0.0 0.010008522131643651 0.010001263439401541 0.0 -7.900649068113608e-11 0.0 0.01 0.0 -7.900649068113608e-11 0.0 0.01000736653188114 0.010001108084150365 0.0 -2.4949187162308014e-11 0.0 0.01 0.0 -2.4949187162308014e-11 0.0 0.010006485303423162 0.010000958637830357 0.0 -2.3738201262471183e-12 0.0 0.01 0.0 -2.3738201262471183e-12 0.0 0.010005503540011264 0.010001286848354196 0.0 -9.620129506277993e-11 0.0 0.01 0.0 -9.62012950628064e-11 0.0 0.010007136031179878 0.010001148147706347 0.0 -9.574566628254229e-10 0.0 0.01 0.0 -9.574566628252111e-10 0.0 0.01000828959622999 0.010000982544790267 0.0 -8.128195047679773e-10 0.0 0.01 0.0 -8.128195047679773e-10 0.0 0.010007734564277546 0.010000799895964814 0.0 -3.126315624163202e-10 0.0 0.01 0.0 -3.126315624164261e-10 0.0 0.010006711851300027 0.01000061625696122 0.0 -4.4764923737579776e-11 0.0 0.01 0.0 -4.4764923737579776e-11 0.0 0.01000591834988685 0.010000449230269364 0.0 -2.0830540655701673e-12 0.0 0.01 0.0 -2.08305406556934e-12 0.0 0.01000501987734694 0.010001068021075992 0.0 -5.340969085605479e-11 0.0 0.01 0.0 -5.340969085605479e-11 0.0 0.010006406050368644 0.010000887818221333 0.0 -3.786277552178188e-09 0.0 0.01 0.0 -3.786277552178188e-09 0.0 0.01000743944357313 0.010000681719706951 0.0 -3.674139270850602e-09 0.0 0.01 0.0 -3.674139270851449e-09 0.0 0.010006956452108999 0.01000046148194335 0.0 -1.7870193719424945e-09 0.0 0.01 0.0 -1.7870193719424945e-09 0.0 0.010006060705373838 0.010000250009375421 0.0 -4.544176828824777e-10 0.0 0.01 0.0 -4.544176828824777e-10 0.0 0.010005355348894553 0.010000064450623077 0.0 -3.998633839209222e-11 0.0 0.01 0.0 -3.998633839209222e-11 0.0 0.010004543144149454 0.010000960088247787 0.0 6.744694417478823e-10 0.0 0.01 0.0 6.744694417480941e-10 0.0 0.010005665961833266 0.01000073738156344 0.0 -8.846126413673586e-09 0.0 0.01 0.0 -8.84612641367528e-09 0.0 0.010006607142397466 0.010000494186643678 0.0 -9.324173161841292e-09 0.0 0.01 0.0 -9.324173161837904e-09 0.0 0.010006215239595434 0.010000244158945341 0.0 -4.897650541490689e-09 0.0 0.01 0.0 -4.897650541490689e-09 0.0 0.010005445344543083 0.010000010750017633 0.0 -1.4081022215237404e-09 0.0 0.01 0.0 -1.4081022215237404e-09 0.0 0.010004822836721194 0.009999812505273278 0.0 -1.6827259317363852e-10 0.0 0.01 0.0 -1.6827259317358558e-10 0.0 0.010004091359514387 0.010000918076415 0.0 2.3503656386183913e-09 0.0 0.01 0.0 2.3503656386175442e-09 0.0 0.010004930894662865 0.010000650963582025 0.0 -1.2786782599953249e-08 0.0 0.01 0.0 -1.2786782599953249e-08 0.0 0.01000581316503162 0.010000373570964989 0.0 -1.4780399292307677e-08 0.0 0.01 0.0 -1.4780399292307677e-08 0.0 0.010005541703202468 0.010000105451676594 0.0 -7.577738972986819e-09 0.0 0.01 0.0 -7.577738972986819e-09 0.0 0.010004892237766773 0.009999866002693742 0.0 -1.6459421611638091e-09 0.0 0.01 0.0 -1.6459421611638091e-09 0.0 0.010004342176538466 0.009999665516782608 0.0 1.654792181205054e-10 0.0 0.01 0.0 1.654792181205054e-10 0.0 0.010003686137139804 0.01000093813199729 0.0 6.016844595928902e-10 0.0 0.01 0.0 6.016844595928902e-10 0.0 0.010004269332524558 0.010000587451770324 0.0 -7.936176216512953e-09 0.0 0.01 0.0 -7.936176216506176e-09 0.0 0.010005095692276785 0.010000268060801409 0.0 -1.246842867970468e-08 0.0 0.01 0.0 -1.246842867970468e-08 0.0 0.010004963643242083 0.009999996000005767 0.0 -4.737447661513387e-09 0.0 0.01 0.0 -4.737447661515081e-09 0.0 0.010004420879903138 0.009999773507695686 0.0 2.0712695981410132e-09 0.0 0.01 0.0 2.0712695981418602e-09 0.0 0.010003926161001849 0.009999593524785702 0.0 2.638024087893705e-09 0.0 0.01 0.0 2.638024087893705e-09 0.0 0.010003338120714902 0.01000105971848424 0.0 -1.95949519834999e-08 0.0 0.01 0.0 -1.9594951983513452e-08 0.0 0.010003688539853253 0.010000542044087351 0.0 1.1189144449730027e-08 0.0 0.01 0.0 1.1189144449726639e-08 0.0 0.010004487869357676 0.01000015135344189 0.0 6.21169150873497e-09 0.0 0.01 0.0 6.211691508733276e-09 0.0 0.010004499134517066 0.009999881502119456 0.0 9.3693451974412e-09 0.0 0.01 0.0 9.3693451974412e-09 0.0 0.010004035641659836 0.00999969901361724 0.0 1.361082787513894e-08 0.0 0.01 0.0 1.3610827875145716e-08 0.0 0.01000357611740585 0.009999560528986208 0.0 9.764033963448912e-09 0.0 0.01 0.0 9.764033963442136e-09 0.0 0.010003048743673451 0.010001275645059876 0.0 -8.212240574460156e-08 0.0 0.01 0.0 -8.212240574454735e-08 0.0 0.010003195882407657 0.010000521991042371 0.0 3.4071955861225234e-08 0.0 0.01 0.0 3.407195586121168e-08 0.0 0.01000399018714298 0.010000037100477364 0.0 4.250915446630686e-08 0.0 0.01 0.0 4.250915446632041e-08 0.0 0.010004130958584424 0.00999976050881315 0.0 3.737730675639481e-08 0.0 0.01 0.0 3.7377306756408366e-08 0.0 0.01000373449113179 0.009999632020498235 0.0 3.5210278164803295e-08 0.0 0.01 0.0 3.521027816478974e-08 0.0 0.010003288721828396 0.009999555529720637 0.0 2.3920400109571534e-08 0.0 0.01 0.0 2.392040010955798e-08 0.0 0.010002813687165739 0.010000523991314745 0.0 2.9739855353396708e-08 0.0 0.01 0.0 2.9739855353396708e-08 0.0 0.010003510647964932 0.00999996550119822 0.0 8.247008158158791e-08 0.0 0.01 0.0 8.247008158161501e-08 0.0 0.010003794659843369 0.009999669517260994 0.0 7.649722996572856e-08 0.0 0.01 0.0 7.649722996572856e-08 0.0 0.01000349548278317 0.009999584026604084 0.0 6.57143835327645e-08 0.0 0.01 0.0 6.57143835327645e-08 0.0 0.010003054599664326 0.009999570527986598 0.0 4.6054849968662093e-08 0.0 0.01 0.0 4.6054849968662093e-08 0.0 0.01000262163089999 0.010000581100775662 0.0 -2.9205392049555393e-08 0.0 0.01 0.0 -2.9205392049568945e-08 0.0 0.010003015513577936 0.009999990501494489 0.0 9.938567362410009e-08 0.0 0.01 0.0 9.93856736241543e-08 0.0 0.010003425610898148 0.009999666018788734 0.0 1.1710938338760054e-07 0.0 0.01 0.0 1.1710938338760054e-07 0.0 0.010003282867931446 0.0099995765284347 0.0 1.01139132075833e-07 0.0 0.01 0.0 1.0113913207577879e-07 0.0 0.010002869386067419 0.009999609523715414 0.0 7.499566758253397e-08 0.0 0.01 0.0 7.499566758253397e-08 0.0 0.010002460858919178 0.010000143053631423 0.0 6.121413978447542e-08 0.0 0.01 0.0 6.121413978452963e-08 0.0 0.01000303067775624 0.009999792509358533 0.0 1.3908092082984443e-07 0.0 0.01 0.0 1.3908092082989864e-07 0.0 0.01000306195866393 0.009999650521086383 0.0 1.3579271358797954e-07 0.0 0.01 0.0 1.3579271358808796e-07 0.0 0.010002726217197997 0.009999677517328007 0.0 1.0734564919850356e-07 0.0 0.01 0.0 1.0734564919850356e-07 0.0 0.01000233091644998 0.010000413576086447 0.0 -5.362099537339058e-08 0.0 0.01 0.0 -5.362099537339058e-08 0.0 0.010002632389487415 0.01000006545251624 0.0 1.1178482567543576e-07 0.0 0.01 0.0 1.1178482567554418e-07 0.0 0.010002818593095325 0.00999985100701125 0.0 1.5668402037296615e-07 0.0 0.01 0.0 1.5668402037296615e-07 0.0 0.010002610875825046 0.009999803008680749 0.0 1.3809322580457615e-07 0.0 0.01 0.0 1.3809322580457615e-07 0.0 0.01000223950494161 0.010000428227505397 0.0 9.85433603289543e-10 0.0 0.01 0.0 9.85433603289543e-10 0.0 0.01000256103349819 0.01000019335822319 0.0 1.3206640375100585e-07 0.0 0.01 0.0 1.3206640375100585e-07 0.0 0.010002497037582629 0.010000048854020626 0.0 1.562846887277411e-07 0.0 0.01 0.0 1.562846887277411e-07 0.0 0.01000218677074744 0.010000608455581733 0.0 1.8891865913273857e-08 0.0 0.01 0.0 1.8891865913273857e-08 0.0 0.010002359735043199 0.01000044973291293 0.0 1.3106828301140926e-07 0.0 0.01 0.0 1.3106828301140926e-07 0.0 0.010002138388285372 0.010000925433566657 0.0 -1.8477345285392542e-07 0.0 0.01 0.0 -1.8477345285392542e-07 0.0 0.010002208736679749 0.01000088146658321 0.0 1.8153205492358725e-08 0.0 0.01 0.0 1.8153205492358725e-08 0.0 0.010002070442881992 0.0099999960000024 0.0 1.3698960787947006e-17 0.0 0.01 0.0 1.3698960787947006e-17 0.0 0.01 0.009999995500003037 0.0 3.278116688383879e-18 0.0 0.01 0.0 3.278116688383879e-18 0.0 0.01 0.009999995500003037 0.0 -1.8162678888859521e-12 0.0 0.01 0.0 -1.8162678888859521e-12 0.0 0.01 0.009999995500003037 0.0 1.3291396666645177e-13 0.0 0.01 0.0 1.3291396666645177e-13 0.0 0.01 0.009999995500003037 0.0 1.9758929999968053e-12 0.0 0.01 0.0 1.9758929999968053e-12 0.0 0.01 0.00999999500000375 0.0 -6.665153899854514e-14 0.0 0.01 0.0 -6.665153899854514e-14 0.0 0.01 0.009999994500004536 0.0 -1.7359876362970365e-12 0.0 0.01 0.0 -1.7359876362970365e-12 0.0 0.01 0.009999994500004536 0.0 -1.8124077272031958e-12 0.0 0.01 0.0 -1.8124077272031958e-12 0.0 0.01 0.009999994500004536 0.0 7.51404690880264e-13 0.0 0.01 0.0 7.51404690880264e-13 0.0 0.01 0.009999994500004536 0.0 5.602001880481466e-18 0.0 0.01 0.0 5.602001880481466e-18 0.0 0.01 0.0099999940000054 0.0 -9.944991548303815e-18 0.0 0.01 0.0 -9.944991548303815e-18 0.0 0.01 0.0099999940000054 0.0 2.1374610002125453e-12 0.0 0.01 0.0 2.1374610002125453e-12 0.0 0.01 0.0099999940000054 0.0 -2.3389803949401956e-18 0.0 0.01 0.0 -2.3389803949401956e-18 0.0 0.01 0.009999993500006337 0.0 1.9625592306440105e-12 0.0 0.01 0.0 1.9625592306440105e-12 0.0 0.01 0.009999993500006337 0.0 9.89723307629159e-13 0.0 0.01 0.0 9.89723307629159e-13 0.0 0.01 0.009999993500006337 0.0 -2.1003126921736827e-13 0.0 0.01 0.0 -2.1003126921736827e-13 0.0 0.01 0.009999993500006337 0.0 -4.118964153583345e-13 0.0 0.01 0.0 -4.118964153583345e-13 0.0 0.01 0.009999993500006337 0.0 -7.212472999539811e-14 0.0 0.01 0.0 -7.212472999539811e-14 0.0 0.01 0.009999992500008438 0.0 3.84872081991174e-18 0.0 0.01 0.0 3.84872081991174e-18 0.0 0.01 0.009999992500008438 0.0 4.6417335772717024e-18 0.0 0.01 0.0 4.6417335772717024e-18 0.0 0.01 0.009999992000009601 0.0 2.3931492281404773e-18 0.0 0.01 0.0 2.3931492281404773e-18 0.0 0.01 0.009999992000009601 0.0 -4.6976572123453075e-18 0.0 0.01 0.0 -4.6976572123453075e-18 0.0 0.01 0.009999991500010838 0.0 -2.3691890789743494e-18 0.0 0.01 0.0 -2.3691890789743494e-18 0.0 0.01 0.009999991500010838 0.0 -1.7623464117828086e-12 0.0 0.01 0.0 -1.7623464117828086e-12 0.0 0.01 0.009999991500010838 0.0 1.029917823539991e-12 0.0 0.01 0.0 1.029917823539991e-12 0.0 0.01 0.009999991500010838 0.0 8.590749411852949e-13 0.0 0.01 0.0 8.590749411852949e-13 0.0 0.01 0.009999991500010838 0.0 3.0555874706196224e-14 0.0 0.01 0.0 3.0555874706196224e-14 0.0 0.01 0.009999990000015 0.0 1.0965771051267036e-17 0.0 0.01 0.0 1.0965771051267036e-17 0.0 0.01 0.009999989500016538 0.0 -1.2168744285343262e-12 0.0 0.01 0.0 -1.2168744285343262e-12 0.0 0.01 0.009999989500016538 0.0 -2.915843507318593e-18 0.0 0.01 0.0 -2.915843507318593e-18 0.0 0.01 0.009999989500016538 0.0 -3.504610999893146e-13 0.0 0.01 0.0 -3.504610999893146e-13 0.0 0.01 0.009999989500016538 0.0 -2.758681954799207e-18 0.0 0.01 0.0 -2.758681954799207e-18 0.0 0.01 0.009999989500016538 0.0 -3.6063114760805207e-13 0.0 0.01 0.0 -3.6063114760805207e-13 0.0 0.01 0.009999989500016538 0.0 -2.3837413332606535e-13 0.0 0.01 0.0 -2.3837413332606535e-13 0.0 0.01 0.009999989500016538 0.0 9.863069999699278e-13 0.0 0.01 0.0 9.863069999699278e-13 0.0 0.01 0.009999989500016538 0.0 2.1830558094572487e-13 0.0 0.01 0.0 2.1830558094572487e-13 0.0 0.01 0.0099999880000216 0.0 3.882823102462008e-18 0.0 0.01 0.0 3.882823102462008e-18 0.0 0.010000000500000038 0.009999987500023438 0.0 1.3493105714265805e-17 0.0 0.01 0.0 1.3493105714265805e-17 0.0 0.010000000500000038 0.00999998700002535 0.0 6.628936073298969e-18 0.0 0.01 0.0 6.628936073298969e-18 0.0 0.01 0.009999986000029399 0.0 2.2737018253524074e-18 0.0 0.01 0.0 2.2737018253524074e-18 0.0 0.01 0.009999985500031538 0.0 -2.7100941723716364e-13 0.0 0.01 0.0 -2.7100941723716364e-13 0.0 0.01 0.009999985500031538 0.0 3.683940537324099e-18 0.0 0.01 0.0 3.683940537324099e-18 0.0 0.01 0.009999985500031538 0.0 3.005083763707564e-18 0.0 0.01 0.0 3.005083763707564e-18 0.0 0.01 0.009999985500031538 0.0 9.573116206747637e-13 0.0 0.01 0.0 9.573116206747637e-13 0.0 0.01 0.009999985500031538 0.0 7.117587241268592e-14 0.0 0.01 0.0 7.117587241268592e-14 0.0 0.01 0.00999998300004335 0.0 1.5349820510668097e-17 0.0 0.01 0.0 1.5349820510668097e-17 0.0 0.010000000500000038 0.009999982500045938 0.0 1.3161282439337944e-17 0.0 0.01 0.0 1.3161282439337944e-17 0.0 0.010000000500000038 0.009999982000048601 0.0 1.4675680476808498e-17 0.0 0.01 0.0 1.4675680476808498e-17 0.0 0.010000000500000038 0.009999982000048601 0.0 4.559283231729183e-18 0.0 0.01 0.0 4.559283231729183e-18 0.0 0.010000000500000038 0.009999982000048601 0.0 4.487310283789448e-18 0.0 0.01 0.0 4.487310283789448e-18 0.0 0.01 0.009999982000048601 0.0 4.972433611103071e-14 0.0 0.01 0.0 4.972433611103071e-14 0.0 0.01 0.009999982000048601 0.0 4.976798611103064e-13 0.0 0.01 0.0 4.976798611103064e-13 0.0 0.01 0.009999981500051337 0.0 1.859828243230077e-13 0.0 0.01 0.0 1.859828243230077e-13 0.0 0.01 0.009999981500051337 0.0 -1.4711502702598558e-13 0.0 0.01 0.0 -1.4711502702598558e-13 0.0 0.01 0.0099999780000726 0.0 2.01663659755373e-17 0.0 0.01 0.0 2.01663659755373e-17 0.0 0.01000000100000015 0.009999977500075937 0.0 5.084278603051991e-17 0.0 0.01 0.0 5.084278603051991e-17 0.0 0.01000000100000015 0.009999976500082837 0.0 2.576285355178482e-17 0.0 0.01 0.0 2.576285355178482e-17 0.0 0.01000000100000015 0.009999976500082837 0.0 -7.490504333035687e-13 0.0 0.01 0.0 -7.490504333035687e-13 0.0 0.010000000500000038 0.009999976500082837 0.0 -4.689471484584473e-13 0.0 0.01 0.0 -4.689471484584473e-13 0.0 0.010000000500000038 0.009999976000086399 0.0 3.3431889426090914e-13 0.0 0.01 0.0 3.3431889426090914e-13 0.0 0.010000000500000038 0.009999976000086399 0.0 1.7910221458078137e-13 0.0 0.01 0.0 1.7910221458078137e-13 0.0 0.01 0.009999976000086399 0.0 2.6075029131567414e-18 0.0 0.01 0.0 2.6075029131567414e-18 0.0 0.01 0.009999976000086399 0.0 3.3760695832852285e-13 0.0 0.01 0.0 3.3760695832852285e-13 0.0 0.01 0.009999969500139537 0.0 8.513662827121119e-14 0.0 0.01 0.0 8.513662827121119e-14 0.0 0.01000000100000015 0.009999969500139537 0.0 6.761498080659787e-17 0.0 0.01 0.0 6.761498080659787e-17 0.0 0.01000000100000015 0.009999969500139537 0.0 1.1905833316860923e-17 0.0 0.01 0.0 1.1905833316860923e-17 0.0 0.01000000100000015 0.009999969500139537 0.0 1.1453661318027174e-17 0.0 0.01 0.0 1.1453661318027174e-17 0.0 0.01000000100000015 0.00999996900014415 0.0 3.446095492607742e-18 0.0 0.01 0.0 3.446095492607742e-18 0.0 0.01000000100000015 0.00999996900014415 0.0 2.7364489307822375e-18 0.0 0.01 0.0 2.7364489307822375e-18 0.0 0.010000000500000038 0.00999996900014415 0.0 2.678782444535287e-18 0.0 0.01 0.0 2.678782444535287e-18 0.0 0.010000000500000038 0.009999968500148837 0.0 9.870192524712509e-14 0.0 0.01 0.0 9.870192524712509e-14 0.0 0.010000000500000038 0.009999968500148837 0.0 2.394313416392141e-18 0.0 0.01 0.0 2.394313416392141e-18 0.0 0.010000000500000038 0.00999996150022234 0.0 8.111037531224006e-13 0.0 0.01 0.0 8.111037531224006e-13 0.0 0.010000001950000571 0.00999996000024 0.0 1.42471781148474e-16 0.0 0.01 0.0 1.42471781148474e-16 0.0 0.010000001450000314 0.00999996000024 0.0 1.6358037409218767e-17 0.0 0.01 0.0 1.6358037409218767e-17 0.0 0.010000001450000314 0.00999996000024 0.0 -2.8433055084855985e-18 0.0 0.01 0.0 -2.8433055084855985e-18 0.0 0.010000001450000314 0.00999996000024 0.0 -2.035828862111172e-13 0.0 0.01 0.0 -2.035828862111172e-13 0.0 0.01000000100000015 0.009999959500246037 0.0 1.492741113119857e-13 0.0 0.01 0.0 1.492741113119857e-13 0.0 0.01000000100000015 0.009999959500246037 0.0 -1.5777270252323553e-13 0.0 0.01 0.0 -1.5777270252323553e-13 0.0 0.01000000100000015 0.00999996000024 0.0 4.908065669729368e-18 0.0 0.01 0.0 4.908065669729368e-18 0.0 0.010000000500000038 0.00999996000024 0.0 2.552485426474336e-18 0.0 0.01 0.0 2.552485426474336e-18 0.0 0.010000000500000038 0.009999948500397838 0.0 2.605882972687465e-12 0.0 0.01 0.0 2.605882972581586e-12 0.0 0.010000002950001308 0.009999948500397836 0.0 1.0143521369168058e-14 0.0 0.01 0.0 1.0143521369168058e-14 0.0 0.010000002450000904 0.009999948500397832 0.0 2.3344185994405848e-17 0.0 0.01 0.0 2.3344185994405848e-17 0.0 0.01000000195000057 0.009999948500397832 0.0 1.8957565904276168e-13 0.0 0.01 0.0 1.8957565904276168e-13 0.0 0.01000000195000057 0.009999948000405597 0.0 -4.694929300638898e-18 0.0 0.01 0.0 -4.694929300638898e-18 0.0 0.010000001450000314 0.009999948000405597 0.0 4.863531022250137e-18 0.0 0.01 0.0 4.863531022250137e-18 0.0 0.010000001450000314 0.009999948000405597 0.0 3.937312079600948e-18 0.0 0.01 0.0 3.937312079600948e-18 0.0 0.01000000100000015 0.009999948500397832 0.0 5.692607878704731e-18 0.0 0.01 0.0 5.692607878704731e-18 0.0 0.01000000100000015 0.009999948500397832 0.0 3.260473183147264e-13 0.0 0.01 0.0 3.260473183147264e-13 0.0 0.01000000100000015 0.009999932000693594 0.0 4.862677730709676e-12 0.0 0.01 0.0 4.862677730709676e-12 0.0 0.010000003400001733 0.00999993150070383 0.0 4.63331155577895e-14 0.0 0.01 0.0 4.633311555944386e-14 0.0 0.010000003400001733 0.00999993150070383 0.0 2.9080934061864425e-17 0.0 0.01 0.0 2.9080934061864425e-17 0.0 0.010000002950001304 0.00999993150070383 0.0 1.8459072117249893e-17 0.0 0.01 0.0 1.8459072117249893e-17 0.0 0.0100000024500009 0.00999993150070383 0.0 2.1402161022477104e-13 0.0 0.01 0.0 2.1402161022477104e-13 0.0 0.01000000195000057 0.00999993150070383 0.0 2.4449740597369536e-18 0.0 0.01 0.0 2.4449740597369536e-18 0.0 0.010000001450000314 0.00999993200069359 0.0 5.332276270675072e-18 0.0 0.01 0.0 5.332276270675072e-18 0.0 0.010000001450000314 0.00999993250068343 0.0 5.1499389769962106e-18 0.0 0.01 0.0 5.1499389769962106e-18 0.0 0.010000001450000314 0.009999933000673342 0.0 2.9545409501306487e-18 0.0 0.01 0.0 2.9545409501306487e-18 0.0 0.01000000100000015 0.009999912001161584 0.0 5.9315639083941905e-12 0.0 0.01 0.0 5.93156390850007e-12 0.0 0.010000005850005133 0.00999991150117482 0.0 5.5444928464152464e-14 0.0 0.01 0.0 5.5444928464152464e-14 0.0 0.010000005350004294 0.009999912001161583 0.0 2.6018776822255084e-17 0.0 0.01 0.0 2.6018776822255084e-17 0.0 0.010000003400001733 0.009999912001161583 0.0 1.7479678262692804e-13 0.0 0.01 0.0 1.7479678262692804e-13 0.0 0.010000003400001733 0.009999912501148421 0.0 -8.189222140235629e-18 0.0 0.01 0.0 -8.189222140235629e-18 0.0 0.010000002950001304 0.009999913001135332 0.0 1.1475436014337855e-13 0.0 0.01 0.0 1.1475436014337855e-13 0.0 0.0100000024500009 0.009999913001135332 0.0 7.507596158990928e-18 0.0 0.01 0.0 7.507596158990928e-18 0.0 0.010000001450000314 0.009999913501122322 0.0 9.636405563621939e-18 0.0 0.01 0.0 9.636405563621939e-18 0.0 0.010000001450000314 0.009999913501122322 0.0 3.951168743003969e-18 0.0 0.01 0.0 3.951168743003969e-18 0.0 0.010000001450000314 0.009999886001949364 0.0 4.711819801198222e-12 0.0 0.01 0.0 4.711819801198222e-12 0.0 0.010000009300012975 0.009999886001949364 0.0 1.7258573318337225e-14 0.0 0.01 0.0 1.7258573318337225e-14 0.0 0.01000000635000605 0.0099998865019323 0.0 3.6497820916134244e-18 0.0 0.01 0.0 3.6497820916134244e-18 0.0 0.010000005350004294 0.009999888001881565 0.0 -1.932999951460783e-17 0.0 0.01 0.0 -1.932999951460783e-17 0.0 0.010000004400002904 0.009999888001881565 0.0 -5.903255836178126e-18 0.0 0.01 0.0 -5.903255836178126e-18 0.0 0.010000003400001733 0.009999888501864803 0.0 1.6210944493889072e-13 0.0 0.01 0.0 1.6210944493889072e-13 0.0 0.010000002950001304 0.009999889501831503 0.0 1.7455705471909541e-13 0.0 0.01 0.0 1.7455705471909541e-13 0.0 0.0100000024500009 0.009999889001848117 0.0 1.0957605583086658e-17 0.0 0.01 0.0 1.0957605583086658e-17 0.0 0.0100000024500009 0.009999889001848117 0.0 3.151291316481673e-18 0.0 0.01 0.0 3.151291316481673e-18 0.0 0.010000001450000314 0.009999853503219256 0.0 2.1506857133424543e-12 0.0 0.01 0.0 2.150685713368924e-12 0.0 0.010000011700020534 0.009999854003197323 0.0 1.9652905018601994e-16 0.0 0.01 0.0 1.9652905018601994e-16 0.0 0.010000009300012973 0.009999854003197323 0.0 -1.2621660039953369e-13 0.0 0.01 0.0 -1.2621660039953369e-13 0.0 0.010000007800009127 0.009999855503131962 0.0 -3.172831125340584e-17 0.0 0.01 0.0 -3.172831125340584e-17 0.0 0.010000005350004294 0.009999856003110326 0.0 -2.4409440698511915e-17 0.0 0.01 0.0 -2.4409440698511915e-17 0.0 0.010000004900003601 0.009999857003067276 0.0 -4.70414359839405e-18 0.0 0.01 0.0 -4.70414359839405e-18 0.0 0.010000003900002281 0.009999857003067276 0.0 9.817250264714437e-18 0.0 0.01 0.0 9.817250264714437e-18 0.0 0.010000002950001304 0.009999858003024527 0.0 1.0113756794495063e-17 0.0 0.01 0.0 1.0113756794495063e-17 0.0 0.0100000024500009 0.009999858003024527 0.0 7.473251052141975e-15 0.0 0.01 0.0 7.473251052141975e-15 0.0 0.0100000024500009 0.00999981150532967 0.0 3.2598985440283423e-13 0.0 0.01 0.0 3.2598985440614295e-13 0.0 0.010000016600041335 0.009999812505273273 0.0 1.5402430305596126e-16 0.0 0.01 0.0 1.5402430305596126e-16 0.0 0.010000013200026137 0.009999814505161377 0.0 1.3377117444484268e-17 0.0 0.01 0.0 1.3377117444484268e-17 0.0 0.010000009300012973 0.009999816505050683 0.0 -3.0424310952485076e-17 0.0 0.01 0.0 -3.0424310952485076e-17 0.0 0.010000008300010334 0.009999817504995786 0.0 -4.261516011319994e-18 0.0 0.01 0.0 -4.261516011319994e-18 0.0 0.010000005350004294 0.009999818504941187 0.0 1.0061878015156073e-14 0.0 0.01 0.0 1.0061878015156073e-14 0.0 0.010000004400002904 0.009999820004859853 0.0 1.069138658808974e-17 0.0 0.01 0.0 1.069138658808974e-17 0.0 0.010000003900002281 0.009999820504832892 0.0 1.2497601377107919e-17 0.0 0.01 0.0 1.2497601377107919e-17 0.0 0.010000003400001733 0.009999821004806007 0.0 6.763078904518695e-18 0.0 0.01 0.0 6.763078904518695e-18 0.0 0.010000002950001304 0.00999975950867569 0.0 1.0342622721235386e-15 0.0 0.01 0.0 1.0342622721235386e-15 0.0 0.0100000224500756 0.009999761008567809 0.0 3.285963977421891e-16 0.0 0.01 0.0 3.285963977421891e-16 0.0 0.010000017100043862 0.00999976400835407 0.0 -1.8578720709608617e-17 0.0 0.01 0.0 -1.8578720709608617e-17 0.0 0.010000012700024194 0.009999766008213078 0.0 -2.8181260155894856e-17 0.0 0.01 0.0 -2.8181260155894856e-17 0.0 0.010000009300012973 0.009999768008073288 0.0 -8.503471186494777e-14 0.0 0.01 0.0 -8.503471186494777e-14 0.0 0.010000007800009127 0.009999770007934696 0.0 -1.430804742992626e-17 0.0 0.01 0.0 -1.430804742992626e-17 0.0 0.010000005850005133 0.009999772007797305 0.0 4.299892232243363e-18 0.0 0.01 0.0 4.299892232243363e-18 0.0 0.010000004400002904 0.00999977400766111 0.0 1.526096872775905e-17 0.0 0.01 0.0 1.526096872775905e-17 0.0 0.010000004400002904 0.00999977400766111 0.0 -5.076630492062532e-18 0.0 0.01 0.0 -5.076630492062532e-18 0.0 0.010000003400001733 0.009999693514090618 0.0 1.332534193840483e-15 0.0 0.01 0.0 1.332534193840483e-15 0.0 0.010000028800124417 0.009999697513725245 0.0 3.380432697722358e-16 0.0 0.01 0.0 3.380432697722358e-16 0.0 0.0100000224500756 0.009999701013409482 0.0 -2.453012991174816e-17 0.0 0.01 0.0 -2.453012991174816e-17 0.0 0.010000016600041335 0.009999705513008899 0.0 -4.868611440061512e-18 0.0 0.01 0.0 -4.868611440061512e-18 0.0 0.010000012200022326 0.009999708512745217 0.0 1.1729415497029704e-17 0.0 0.01 0.0 1.1729415497029704e-17 0.0 0.010000009300012973 0.009999711012527546 0.0 3.514072277310156e-17 0.0 0.01 0.0 3.514072277310156e-17 0.0 0.010000007800009127 0.009999712512397844 0.0 2.1380727326485933e-17 0.0 0.01 0.0 2.1380727326485933e-17 0.0 0.010000006350006049 0.009999714012268814 0.0 5.654203973509376e-18 0.0 0.01 0.0 5.654203973509376e-18 0.0 0.010000005350004294 0.009999715012183172 0.0 -6.5270432677634806e-18 0.0 0.01 0.0 -6.5270432677634806e-18 0.0 0.010000004900003601 0.009999612522521982 0.0 1.5650147938719152e-15 0.0 0.01 0.0 1.5650147938719152e-15 0.0 0.010000037100206463 0.009999617521944539 0.0 2.2403938679542425e-16 0.0 0.01 0.0 2.2403938679542425e-16 0.0 0.010000027850116345 0.009999623521261504 0.0 -2.3327310583067623e-17 0.0 0.01 0.0 -2.3327310583067623e-17 0.0 0.01000002100006615 0.009999629020644872 0.0 3.032136358219195e-17 0.0 0.01 0.0 3.032136358219195e-17 0.0 0.010000015600036504 0.009999634020092175 0.0 9.070505632107967e-17 0.0 0.01 0.0 9.070505632107967e-17 0.0 0.010000012200022326 0.009999637019764154 0.0 3.641690791544657e-17 0.0 0.01 0.0 3.641690791544657e-17 0.0 0.010000009300012973 0.009999640519384876 0.0 2.4821896530213383e-17 0.0 0.01 0.0 2.4821896530213383e-17 0.0 0.010000007800009127 0.009999642519169795 0.0 2.651442991693502e-17 0.0 0.01 0.0 2.651442991693502e-17 0.0 0.010000006850007037 0.009999643019116213 0.0 1.4076659608042857e-17 0.0 0.01 0.0 1.4076659608042857e-17 0.0 0.010000006350006049 0.009999510535938606 0.0 1.9837233878319404e-15 0.0 0.01 0.0 1.9837233878319404e-15 0.0 0.01000004685032924 0.009999519534629265 0.0 9.79865493433132e-17 0.0 0.01 0.0 9.79865493433132e-17 0.0 0.010000035150185329 0.009999528533344217 0.0 7.615502000034015e-17 0.0 0.01 0.0 7.615502000034015e-17 0.0 0.01000002635010415 0.009999535532361532 0.0 1.1425313454278653e-17 0.0 0.01 0.0 1.1425313454278653e-17 0.0 0.01000001955005733 0.0099995420314622 0.0 1.2471013090070204e-16 0.0 0.01 0.0 1.2471013090070204e-16 0.0 0.010000015150034429 0.009999547530711122 0.0 4.5456446357235584e-17 0.0 0.01 0.0 4.5456446357235584e-17 0.0 0.010000012200022326 0.009999551030237887 0.0 5.9443292382201604e-18 0.0 0.01 0.0 5.9443292382201604e-18 0.0 0.010000010750017335 0.009999552530036197 0.0 -3.844170724908147e-17 0.0 0.01 0.0 -3.844170724908147e-17 0.0 0.010000009300012973 0.009999554029835182 0.0 2.184373200063063e-17 0.0 0.01 0.0 2.184373200063063e-17 0.0 0.010000008800011615 0.009999387556267694 0.0 1.89396005142338e-15 0.0 0.01 0.0 1.89396005142338e-15 0.0 0.010000058100506347 0.0099994000539946 0.0 1.6766816530493591e-16 0.0 0.01 0.0 1.6766816530493591e-16 0.0 0.010000042950276707 0.009999411052033043 0.0 1.2294196296321165e-16 0.0 0.01 0.0 1.2294196296321165e-16 0.0 0.010000032250156011 0.009999422050107773 0.0 3.635667398251469e-16 0.0 0.01 0.0 3.635667398251469e-16 0.0 0.010000024400089305 0.00999943004873037 0.0 1.7049257303111171e-16 0.0 0.01 0.0 1.7049257303111171e-16 0.0 0.01000001955005733 0.009999436047709916 0.0 9.200327380092444e-17 0.0 0.01 0.0 9.200327380092444e-17 0.0 0.010000016100038882 0.00999944054695166 0.0 -6.932558405921779e-17 0.0 0.01 0.0 -6.932558405921779e-17 0.0 0.010000014150030033 0.009999444046366103 0.0 5.571313470910409e-17 0.0 0.01 0.0 5.571313470910409e-17 0.0 0.010000012700024194 0.00999944604603315 0.0 7.37255783887245e-18 0.0 0.01 0.0 7.37255783887245e-18 0.0 0.010000012200022326 0.009999235587657869 0.0 2.092149863616247e-15 0.0 0.01 0.0 2.092149863616247e-15 0.0 0.010000071300762562 0.009999253583578938 0.0 2.0218260581545103e-16 0.0 0.01 0.0 2.0218260581545103e-16 0.0 0.010000052750417389 0.009999268080363796 0.0 3.451214737586407e-16 0.0 0.01 0.0 3.451214737586407e-16 0.0 0.010000039550234633 0.009999282077319347 0.0 3.6023531486664836e-16 0.0 0.01 0.0 3.6023531486664836e-16 0.0 0.010000030750141836 0.009999293574862523 0.0 3.528748405764235e-16 0.0 0.01 0.0 3.528748405764235e-16 0.0 0.010000025900100622 0.009999300573386482 0.0 6.882723502156478e-17 0.0 0.01 0.0 6.882723502156478e-17 0.0 0.01000002195007227 0.009999306572133 0.0 3.0489526282539837e-17 0.0 0.01 0.0 3.0489526282539837e-17 0.0 0.01000001955005733 0.009999310071406788 0.0 -4.692511620012195e-17 0.0 0.01 0.0 -4.692511620012195e-17 0.0 0.010000017600046464 0.00999931207099346 0.0 -5.051651134268595e-17 0.0 0.01 0.0 -5.051651134268595e-17 0.0 0.010000017100043862 0.009999050635211141 0.0 7.149855408255013e-16 0.0 0.01 0.0 7.149855408255013e-16 0.0 0.010000086901132759 0.009999074628462721 0.0 -5.224724097076374e-16 0.0 0.01 0.0 -5.224724097076374e-16 0.0 0.010000064950632782 0.00999909562269954 0.0 3.12783164019011e-16 0.0 0.01 0.0 3.12783164019011e-16 0.0 0.010000050300379516 0.009999113117997905 0.0 3.4132687789540996e-16 0.0 0.01 0.0 3.4132687789540996e-16 0.0 0.010000040050240602 0.009999126114564712 0.0 2.3716068988485073e-16 0.0 0.01 0.0 2.3716068988485073e-16 0.0 0.010000033200165338 0.009999136111958278 0.0 2.805537349636007e-16 0.0 0.01 0.0 2.805537349636007e-16 0.0 0.010000030750141836 0.009999143610023133 0.0 9.929306090257552e-17 0.0 0.01 0.0 9.929306090257552e-17 0.0 0.010000027350112205 0.009999149108614746 0.0 8.290520502066941e-17 0.0 0.01 0.0 8.290520502066941e-17 0.0 0.01000002635010415 0.009999151108104853 0.0 5.614965339728865e-18 0.0 0.01 0.0 5.614965339728865e-18 0.0 0.010000025400096774 0.009998827706173148 0.0 -2.2898687746915314e-15 0.0 0.01 0.0 -2.2898687746915314e-15 0.0 0.01000010595168384 0.009998860194902967 0.0 -2.4701167383980844e-15 0.0 0.01 0.0 -2.4701167383980844e-15 0.0 0.010000081550997573 0.00999888818544723 0.0 -1.9493090052641117e-15 0.0 0.01 0.0 -1.9493090052641117e-15 0.0 0.010000064950632782 0.009998909178509692 0.0 -1.1056469543905512e-15 0.0 0.01 0.0 -1.1056469543905512e-15 0.0 0.01000005420044065 0.009998927172668471 0.0 -4.983865590325012e-16 0.0 0.01 0.0 -4.983865590325012e-16 0.0 0.01000004685032924 0.009998939668669226 0.0 -4.907597859923059e-16 0.0 0.01 0.0 -4.907597859923059e-16 0.0 0.010000042000264601 0.0099989481659765 0.0 -2.4226078163416084e-16 0.0 0.01 0.0 -2.4226078163416084e-16 0.0 0.010000038100217743 0.009998953664245691 0.0 -3.9789888037658624e-17 0.0 0.01 0.0 -3.9789888037658624e-17 0.0 0.010000037600212066 0.009998956663305436 0.0 1.3213325479473548e-16 0.0 0.01 0.0 1.3213325479473548e-16 0.0 0.010000036150196024 0.009998568307520208 0.0 -1.8167573529127393e-14 0.0 0.01 0.0 -1.8167573529127393e-14 0.0 0.010000133302665396 0.009998609290164884 0.0 -1.478798901203631e-14 0.0 0.01 0.0 -1.478798901203631e-14 0.0 0.01000010500165378 0.00999864377595145 0.0 -1.0516785257867176e-14 0.0 0.01 0.0 -1.0516785257867176e-14 0.0 0.010000085951108127 0.009998670265276198 0.0 -6.367884022498065e-15 0.0 0.01 0.0 -6.367884022498065e-15 0.0 0.010000074200825857 0.00999869125696609 0.0 -3.3649963662090555e-15 0.0 0.01 0.0 -3.3649963662090555e-15 0.0 0.010000065900651429 0.009998706750917245 0.0 -1.3442786926389812e-15 0.0 0.01 0.0 -1.3442786926389812e-15 0.0 0.010000060050540905 0.009998717246860564 0.0 -5.481347223034388e-16 0.0 0.01 0.0 -5.481347223034388e-16 0.0 0.010000056650481388 0.0099987232445573 0.0 -2.0663645437093745e-16 0.0 0.01 0.0 -2.0663645437093745e-16 0.0 0.010000053700432558 0.009998727243027788 0.0 6.899135719190615e-17 0.0 0.01 0.0 6.899135719190615e-17 0.0 0.010000052250409513 0.009998268449843748 0.0 -7.477895478520148e-14 0.0 0.01 0.0 -7.477895478520148e-14 0.0 0.01000017040435555 0.009998320922989638 0.0 -5.724279783497982e-14 0.0 0.01 0.0 -5.724279783503152e-14 0.0 0.01000013720282364 0.009998363401855713 0.0 -4.058477231846114e-14 0.0 0.01 0.0 -4.058477231843529e-14 0.0 0.010000117202060418 0.009998396385819262 0.0 -2.3890523573998495e-14 0.0 0.01 0.0 -2.3890523573998495e-14 0.0 0.010000103501606867 0.009998420874124551 0.0 -1.1124948437843652e-14 0.0 0.01 0.0 -1.1124948437843652e-14 0.0 0.010000094751346656 0.009998439365413083 0.0 -4.065218964887092e-15 0.0 0.01 0.0 -4.065218964887092e-15 0.0 0.010000087901158979 0.009998451359817258 0.0 -1.0681589386472445e-15 0.0 0.01 0.0 -1.0681589386472445e-15 0.0 0.010000081550997573 0.009998460355648718 0.0 -3.5672875686848727e-16 0.0 0.01 0.0 -3.5672875686848727e-16 0.0 0.010000077150892829 0.009998464353803827 0.0 6.479904204482446e-17 0.0 0.01 0.0 6.479904204482446e-17 0.0 0.010000074200825857 0.009997944633853206 0.0 -2.2316780121008778e-13 0.0 0.01 0.0 -2.2316780121008778e-13 0.0 0.01000022365750318 0.009998008595012063 0.0 -1.806980562675349e-13 0.0 0.01 0.0 -1.806980562673281e-13 0.0 0.01000018800530177 0.009998059564939394 0.0 -1.326644163026479e-13 0.0 0.01 0.0 -1.326644163028547e-13 0.0 0.010000165054086336 0.009998098542468642 0.0 -7.643201791649604e-14 0.0 0.01 0.0 -7.643201791649604e-14 0.0 0.010000149403348138 0.00999812852549365 0.0 -3.564792411313452e-14 0.0 0.01 0.0 -3.564792411313452e-14 0.0 0.010000136252784677 0.00999815001349417 0.0 -1.3567458546337651e-14 0.0 0.01 0.0 -1.3567458546337651e-14 0.0 0.010000124002306448 0.009998164005755036 0.0 -3.61407316624696e-15 0.0 0.01 0.0 -3.61407316624696e-15 0.0 0.01000011475197517 0.00999817400026305 0.0 -1.0186261257192475e-15 0.0 0.01 0.0 -1.0186261257192475e-15 0.0 0.010000106951715776 0.009998178497801437 0.0 9.510417425070791e-17 0.0 0.01 0.0 9.510417425070791e-17 0.0 0.010000103051592922 0.009997618351107984 0.0 -5.025140777472635e-13 0.0 0.01 0.0 -5.025140777472635e-13 0.0 0.010000309114332162 0.009997695796647712 0.0 -4.4753735418478186e-13 0.0 0.01 0.0 -4.4753735418498865e-13 0.0 0.010000263210391594 0.009997756255384465 0.0 -3.454604987573848e-13 0.0 0.01 0.0 -3.454604987573848e-13 0.0 0.010000232908136676 0.009997802724415233 0.0 -2.0740116210236237e-13 0.0 0.01 0.0 -2.0740116210215558e-13 0.0 0.01000021240676731 0.009997837201856766 0.0 -1.0124981101137266e-13 0.0 0.01 0.0 -1.0124981101137266e-13 0.0 0.010000192405552843 0.009997863185091882 0.0 -4.013936252104454e-14 0.0 0.01 0.0 -4.013936252104454e-14 0.0 0.01000017430455721 0.009997879174875718 0.0 -1.3013173396323355e-14 0.0 0.01 0.0 -1.3013173396323355e-14 0.0 0.010000158703777955 0.00999789016789661 0.0 -3.2388727343503344e-15 0.0 0.01 0.0 -3.2388727343503344e-15 0.0 0.010000146503219415 0.009997896164105105 0.0 -4.3068776410308045e-16 0.0 0.01 0.0 -4.3068776410308045e-16 0.0 0.010000140152946372 0.00999733306725904 0.0 -8.063950418093156e-13 0.0 0.01 0.0 -8.063950418093156e-13 0.0 0.010000443379486064 0.009997421997257507 0.0 -8.222901924188257e-13 0.0 0.01 0.0 -8.222901924188257e-13 0.0 0.010000375521151364 0.009997490944619842 0.0 -7.059709287717592e-13 0.0 0.01 0.0 -7.059709287721728e-13 0.0 0.010000330566390398 0.009997544904420199 0.0 -4.5101192578967073e-13 0.0 0.01 0.0 -4.5101192578967073e-13 0.0 0.010000297863307856 0.00999758537484385 0.0 -2.2997353287348523e-13 0.0 0.01 0.0 -2.2997353287338183e-13 0.0 0.010000268060778104 0.009997615353252306 0.0 -9.609666477652066e-14 0.0 0.01 0.0 -9.609666477652066e-14 0.0 0.010000240258658356 0.009997636338298687 0.0 -3.267832220078815e-14 0.0 0.01 0.0 -3.267832220078815e-14 0.0 0.010000215356956594 0.009997648329813088 0.0 -9.359925770240688e-15 0.0 0.01 0.0 -9.359925770240688e-15 0.0 0.010000197255836327 0.009997656324179996 0.0 -1.667928216389975e-15 0.0 0.01 0.0 -1.667928216389975e-15 0.0 0.010000185055136683 0.009997144223784636 0.0 -6.808847720151209e-13 0.0 0.01 0.0 -6.808847720147073e-13 0.0 0.010000651913743188 0.009997241641700964 0.0 -1.0514179531070697e-12 0.0 0.01 0.0 -1.0514179531070697e-12 0.0 0.010000543494304698 0.009997320577280776 0.0 -1.1065299693544674e-12 0.0 0.01 0.0 -1.1065299693544674e-12 0.0 0.010000466832687882 0.009997382028425253 0.0 -7.833725481654358e-13 0.0 0.01 0.0 -7.833725481654358e-13 0.0 0.01000041162541393 0.009997427493009428 0.0 -4.202008021054039e-13 0.0 0.01 0.0 -4.202008021051971e-13 0.0 0.010000365720061697 0.009997462466188567 0.0 -1.8069176430786575e-13 0.0 0.01 0.0 -1.8069176430796915e-13 0.0 0.010000323265674427 0.009997485948386228 0.0 -6.199126719768122e-14 0.0 0.01 0.0 -6.199126719762953e-14 0.0 0.01000028516219716 0.009997500437484349 0.0 -1.6880887402811056e-14 0.0 0.01 0.0 -1.6880887402811056e-14 0.0 0.01000025730993092 0.00999750893112288 0.0 -2.745371183177738e-15 0.0 0.01 0.0 -2.745371183177738e-15 0.0 0.010000237808482661 0.0099971312349443 0.0 7.593195598284265e-13 0.0 0.01 0.0 7.593195598280129e-13 0.0 0.010000964489518063 0.009997233648328786 0.0 -5.192521083693163e-13 0.0 0.01 0.0 -5.192521083693163e-13 0.0 0.010000784292257507 0.009997315081705167 0.0 -1.268756739735232e-12 0.0 0.01 0.0 -1.268756739736059e-12 0.0 0.010000655314409917 0.009997381528817883 0.0 -1.0700478374693538e-12 0.0 0.01 0.0 -1.0700478374689402e-12 0.0 0.010000562547465388 0.009997430990310828 0.0 -6.094227087505284e-13 0.0 0.01 0.0 -6.094227087505284e-13 0.0 0.010000490286054707 0.00999746846162756 0.0 -2.6201005348220706e-13 0.0 0.01 0.0 -2.6201005348231046e-13 0.0 0.010000425827197778 0.00999749444198783 0.0 -8.62252762311576e-14 0.0 0.01 0.0 -8.62252762311576e-14 0.0 0.010000370120547369 0.009997511928882825 0.0 -2.1524061191090902e-14 0.0 0.01 0.0 -2.1524061191090902e-14 0.0 0.010000326165956941 0.009997521921435451 0.0 -3.2609063795596336e-15 0.0 0.01 0.0 -3.2609063795596336e-15 0.0 0.010000299313437743 0.00999738802371953 0.0 4.442404910028287e-12 0.0 0.01 0.0 4.442404910026633e-12 0.0 0.01000140799731265 0.009997481451782376 0.0 1.4520524022330656e-12 0.0 0.01 0.0 1.4520524022322384e-12 0.0 0.010001119337909557 0.00999755989340869 0.0 -7.902615702624697e-13 0.0 0.01 0.0 -7.902615702624697e-13 0.0 0.010000906373211972 0.009997624346827433 0.0 -1.11743636152682e-12 0.0 0.01 0.0 -1.1174363615264065e-12 0.0 0.010000755935707184 0.00999767481122692 0.0 -7.083309676882988e-13 0.0 0.01 0.0 -7.083309676882988e-13 0.0 0.010000642161850481 0.009997712285285325 0.0 -3.020272358562848e-13 0.0 0.01 0.0 -3.02027235856078e-13 0.0 0.010000548395107282 0.00999774026619038 0.0 -8.930999490474731e-14 0.0 0.01 0.0 -8.930999490479901e-14 0.0 0.010000468782961559 0.009997758753702972 0.0 -1.574756170322233e-14 0.0 0.01 0.0 -1.574756170322233e-14 0.0 0.010000406274757534 0.009997768247330374 0.0 -1.4515076177948618e-15 0.0 0.01 0.0 -1.4515076177948618e-15 0.0 0.010000367220226614 0.009998003098301754 0.0 1.0141901750283068e-11 0.0 0.01 0.0 1.0141901750283068e-11 0.0 0.010001988392898757 0.009998073057109468 0.0 4.976086511757718e-12 0.0 0.01 0.0 4.976086511759372e-12 0.0 0.010001555062657784 0.00999813602129205 0.0 4.953215653394122e-13 0.0 0.01 0.0 4.953215653394122e-13 0.0 0.010001224824992695 0.009998190491266806 0.0 -8.011435252241013e-13 0.0 0.01 0.0 -8.011435252245149e-13 0.0 0.01000099329797653 0.009998235966881737 0.0 -6.428074100189367e-13 0.0 0.01 0.0 -6.428074100193503e-13 0.0 0.010000824301909843 0.009998269449324521 0.0 -2.6476614840233386e-13 0.0 0.01 0.0 -2.6476614840233386e-13 0.0 0.01000069002141286 0.009998293936697138 0.0 -5.860134035360685e-14 0.0 0.01 0.0 -5.860134035360685e-14 0.0 0.010000580150482287 0.009998310428294367 0.0 -1.741310790600266e-16 0.0 0.01 0.0 -1.741310790600266e-16 0.0 0.01000049418663065 0.009998321422737856 0.0 2.8763146552457187e-15 0.0 0.01 0.0 2.8763146552457187e-15 0.0 0.010000441429227243 0.009999019644183475 0.0 1.5539636634013262e-11 0.0 0.01 0.0 1.553963663401988e-11 0.0 0.01000268518114258 0.009999052134784305 0.0 8.776369709779345e-12 0.0 0.01 0.0 8.776369709782654e-12 0.0 0.010002075345880351 0.009999089124469254 0.0 2.1346532330020324e-12 0.0 0.01 0.0 2.1346532330036868e-12 0.0 0.0100016014346068 0.009999123115352492 0.0 -2.2749320714683656e-13 0.0 0.01 0.0 -2.2749320714725015e-13 0.0 0.010001270241986224 0.009999153607469178 0.0 -4.355010705030929e-13 0.0 0.01 0.0 -4.355010705035065e-13 0.0 0.01000103481060279 0.009999177101585417 0.0 -1.6399630181523411e-13 0.0 0.01 0.0 -1.6399630181523411e-13 0.0 0.010000850708543443 0.00999919509719071 0.0 -5.0225141788072286e-15 0.0 0.01 0.0 -5.0225141788072286e-15 0.0 0.010000703674266653 0.009999207594196 0.0 2.380514766366522e-14 0.0 0.01 0.0 2.380514766366522e-14 0.0 0.010000589902193588 0.009999214592539423 0.0 8.224087272198656e-15 0.0 0.01 0.0 8.224087272198656e-15 0.0 0.010000518590337602 0.010000396523583399 0.0 1.7322890343174022e-11 0.0 0.01 0.0 1.7322890343174022e-11 0.0 0.010003444629003258 0.01000038232192439 0.0 1.0587448379468058e-11 0.0 0.01 0.0 1.0587448379468058e-11 0.0 0.010002644598715554 0.010000382821981778 0.0 3.138186728655829e-12 0.0 0.01 0.0 3.1381867286591378e-12 0.0 0.010002016209601292 0.01000038867265879 0.0 2.394582055202363e-13 0.0 0.01 0.0 2.394582055202363e-13 0.0 0.010001572170680394 0.010000396523583397 0.0 -2.1310183727039863e-13 0.0 0.01 0.0 -2.1310183727081222e-13 0.0 0.010001260488284562 0.010000402874344854 0.0 -5.541212070096593e-14 0.0 0.01 0.0 -5.541212070075914e-14 0.0 0.01000102310699077 0.010000409675173688 0.0 4.3841403299166195e-14 0.0 0.01 0.0 4.3841403299166195e-14 0.0 0.010000834104347904 0.010000413575655308 0.0 4.1911128024506356e-14 0.0 0.01 0.0 4.191112802471315e-14 0.0 0.010000689521309386 0.010000416025960199 0.0 1.2228167051814957e-14 0.0 0.01 0.0 1.2228167051918354e-14 0.0 0.010000598703762638 0.010001967880730808 0.0 1.4137524301969321e-11 0.0 0.01 0.0 1.4137524301969321e-11 0.0 0.010004194537646697 0.010001907295527704 0.0 9.106657944737619e-12 0.0 0.01 0.0 9.106657944724384e-12 0.0 0.010003209544515425 0.010001865772035925 0.0 2.8015804888075328e-12 0.0 0.01 0.0 2.8015804888075328e-12 0.0 0.010002429585145852 0.010001837406285245 0.0 2.9327499372378334e-13 0.0 0.01 0.0 2.9327499372378334e-13 0.0 0.010001877978888272 0.010001817895591533 0.0 -1.1482756455416859e-13 0.0 0.01 0.0 -1.14827564553755e-13 0.0 0.010001489582762431 0.010001805188688305 0.0 -2.9844655370649114e-15 0.0 0.01 0.0 -2.9844655370649114e-15 0.0 0.0100011970148924 0.010001794933152125 0.0 6.158391739979352e-14 0.0 0.01 0.0 6.158391739989691e-14 0.0 0.010000965489807591 0.010001788079469918 0.0 4.348935071364389e-14 0.0 0.01 0.0 4.348935071359219e-14 0.0 0.01000078914340227 0.01000178512788849 0.0 1.2741693395025389e-14 0.0 0.01 0.0 1.2741693395025389e-14 0.0 0.010000678769102872 0.010003459794698978 0.0 8.263426644344881e-12 0.0 0.01 0.0 8.263426644331646e-12 0.0 0.010004854582759301 0.010003356689348406 0.0 5.404559229563613e-12 0.0 0.01 0.0 5.404559229563613e-12 0.0 0.010003715469681899 0.010003277010115759 0.0 1.4501957599605765e-12 0.0 0.01 0.0 1.4501957599605765e-12 0.0 0.010002806380924191 0.010003215900637626 0.0 -2.0102132427956188e-14 0.0 0.01 0.0 -2.0102132428007887e-14 0.0 0.010002159399249436 0.010003169956656958 0.0 -1.6016569518982e-13 0.0 0.01 0.0 -1.6016569518982e-13 0.0 0.010001704535717273 0.010003134773404792 0.0 -1.8781342371701232e-14 0.0 0.01 0.0 -1.8781342371701232e-14 0.0 0.01000136112784993 0.0100031103505405 0.0 4.4638386653540564e-14 0.0 0.01 0.0 4.463838665356641e-14 0.0 0.01000108952803484 0.010003094685969657 0.0 3.419976801509694e-14 0.0 0.01 0.0 3.419976801509694e-14 0.0 0.010000882916917581 0.010003084926929178 0.0 9.751574507030783e-15 0.0 0.01 0.0 9.751574507030783e-15 0.0 0.010000753035050729 0.010004565624837208 0.0 3.1624095091977607e-12 0.0 0.01 0.0 3.1624095091977607e-12 0.0 0.010005375431184661 0.010004432645511017 0.0 1.8980838410444953e-12 0.0 0.01 0.0 1.8980838410444953e-12 0.0 0.010004119744446437 0.01000432410306394 0.0 1.297149864252948e-13 0.0 0.01 0.0 1.297149864252948e-13 0.0 0.010003114254183026 0.010004236090149478 0.0 -3.4876532331148654e-13 0.0 0.01 0.0 -3.4876532331065936e-13 0.0 0.010002395860747337 0.01000416765395389 0.0 -2.281964163177028e-13 0.0 0.01 0.0 -2.281964163179096e-13 0.0 0.010001887734396668 0.010004115339009042 0.0 -5.736421281958826e-14 0.0 0.01 0.0 -5.73642128196141e-14 0.0 0.010001502788688213 0.010004079645168406 0.0 1.4487673979861882e-14 0.0 0.01 0.0 1.4487673979861882e-14 0.0 0.010001198465413481 0.010004055215382704 0.0 1.6776974342742122e-14 0.0 0.01 0.0 1.6776974342742122e-14 0.0 0.010000966940227932 0.010004040998130787 0.0 5.463643013728215e-15 0.0 0.01 0.0 5.463643013728215e-15 0.0 0.010000819900824583 0.010005105957960374 0.0 4.5299081694654304e-13 0.0 0.01 0.0 4.529908169481974e-13 0.0 0.010005740789718758 0.01000495828525246 0.0 -6.784672820089462e-15 0.0 0.01 0.0 -6.784672820089462e-15 0.0 0.01000440866373457 0.010004829646571185 0.0 -4.806716791024753e-13 0.0 0.01 0.0 -4.806716791020617e-13 0.0 0.010003340523118975 0.010004724045383469 0.0 -4.3275790586908986e-13 0.0 0.01 0.0 -4.327579058682627e-13 0.0 0.010002573743282306 0.010004641429431445 0.0 -2.2354893587765727e-13 0.0 0.01 0.0 -2.2354893587776067e-13 0.0 0.010002030418222358 0.010004579794257238 0.0 -7.018520123621797e-14 0.0 0.01 0.0 -7.018520123626967e-14 0.0 0.010001617592406146 0.010004534332161747 0.0 -6.896027086174575e-15 0.0 0.01 0.0 -6.896027086174575e-15 0.0 0.01000128684835419 0.010004505993768214 0.0 4.238369290371141e-15 0.0 0.01 0.0 4.238369290371141e-15 0.0 0.010001034810602789 0.01000448937135968 0.0 1.8380061931258605e-15 0.0 0.01 0.0 1.8380061931258605e-15 0.0 0.010000874614729259 0.010005112818465531 0.0 -3.270861505332473e-13 0.0 0.01 0.0 -3.270861505332473e-13 0.0 0.010005960875572753 0.010004962191058816 0.0 -4.585915706066463e-13 0.0 0.01 0.0 -4.585915706066463e-13 0.0 0.010004588105676504 0.010004827243093022 0.0 -4.583246429025107e-13 0.0 0.01 0.0 -4.583246429020971e-13 0.0 0.01000348472064575 0.010004715232917745 0.0 -3.0310810635743475e-13 0.0 0.01 0.0 -3.0310810635764155e-13 0.0 0.010002693938204578 0.01000462625836086 0.0 -1.483037413282123e-13 0.0 0.01 0.0 -1.483037413283157e-13 0.0 0.010002129580073588 0.010004558765457618 0.0 -5.313882710324973e-14 0.0 0.01 0.0 -5.313882710330143e-14 0.0 0.010001697231991704 0.010004510349654031 0.0 -1.336135303180943e-14 0.0 0.01 0.0 -1.336135303180943e-14 0.0 0.010001350373477038 0.010004480058841712 0.0 -1.497666223607455e-15 0.0 0.01 0.0 -1.497666223607455e-15 0.0 0.01000108417629025 0.010004461483950745 0.0 -3.1816333165737134e-17 0.0 0.01 0.0 -3.1816333165737134e-17 0.0 0.010000914675479382 0.01000477441708341 0.0 -2.4708368072510755e-13 0.0 0.01 0.0 -2.4708368072469396e-13 0.0 0.010006061657101844 0.010004628711763636 0.0 -2.635584260195284e-13 0.0 0.01 0.0 -2.6355842602614586e-13 0.0 0.010004674675847262 0.010004497181878675 0.0 -2.0812133288228048e-13 0.0 0.01 0.0 -2.081213328814533e-13 0.0 0.010003560500672418 0.010004385683446715 0.0 -1.2576807137748315e-13 0.0 0.01 0.0 -1.2576807137748315e-13 0.0 0.010002759441757731 0.010004295265812214 0.0 -6.021214530145158e-14 0.0 0.01 0.0 -6.021214530134819e-14 0.0 0.010002186767083457 0.010004228730813067 0.0 -2.333873113694773e-14 0.0 0.01 0.0 -2.333873113694773e-14 0.0 0.010001745556939006 0.010004181321055551 0.0 -7.217816169621587e-15 0.0 0.01 0.0 -7.217816169621587e-15 0.0 0.010001389439527693 0.01000415103323174 0.0 -1.8703562221338228e-15 0.0 0.01 0.0 -1.8703562221338228e-15 0.0 0.010001114936434772 0.010004132910731515 0.0 -4.0472407794562797e-16 0.0 0.01 0.0 -4.0472407794562797e-16 0.0 0.010000940582687728 0.010004304527749561 0.0 1.5153794774781823e-14 0.0 0.01 0.0 1.5153794774781823e-14 0.0 0.010006074380235026 0.010004169105767891 0.0 -6.615333965098542e-15 0.0 0.01 0.0 -6.615333965098542e-15 0.0 0.010004687844323477 0.010004043951709824 0.0 -1.6865805620521522e-14 0.0 0.01 0.0 -1.6865805620521522e-14 0.0 0.01000357711845143 0.010003938375398973 0.0 -1.3785217671068454e-14 0.0 0.01 0.0 -1.3785217671068454e-14 0.0 0.010002779008003735 0.01000385427717329 0.0 -7.351009534255937e-15 0.0 0.01 0.0 -7.351009534255937e-15 0.0 0.010002206279935944 0.01000378975324638 0.0 -3.1336258178799603e-15 0.0 0.01 0.0 -3.1336258178799603e-15 0.0 0.010001762665939174 0.010003745252987797 0.0 -1.2674484965319836e-15 0.0 0.01 0.0 -1.2674484965319836e-15 0.0 0.010001403595456737 0.010003715920183705 0.0 -4.521969662376773e-16 0.0 0.01 0.0 -4.521969662376773e-16 0.0 0.010001128140876564 0.010003698851213397 0.0 -1.4597136019038451e-16 0.0 0.01 0.0 -1.4597136019038451e-16 0.0 0.010000951285724464 0.01000384696873718 0.0 2.38026456529176e-13 0.0 0.01 0.0 2.38026456529176e-13 0.0 0.010006012267761258 0.010003721326210113 0.0 1.4095419097101395e-13 0.0 0.01 0.0 1.4095419097122074e-13 0.0 0.010004641880058352 0.010003605949493434 0.0 4.581393421116223e-14 0.0 0.01 0.0 4.581393421116223e-14 0.0 0.010003544833986718 0.010003507694725555 0.0 9.821808644944434e-15 0.0 0.01 0.0 9.821808644944434e-15 0.0 0.01000275894134374 0.010003429012913404 0.0 1.1940707903860243e-15 0.0 0.01 0.0 1.1940707903860243e-15 0.0 0.010002191620269432 0.010003369402165918 0.0 3.5825356344925645e-16 0.0 0.01 0.0 3.5825356344925645e-16 0.0 0.010001753861296541 0.010003328310910936 0.0 3.409404599213406e-16 0.0 0.01 0.0 3.409404599213406e-16 0.0 0.010001397742998217 0.010003299982764505 0.0 3.3079613804065457e-16 0.0 0.01 0.0 3.3079613804065457e-16 0.0 0.010001122739053146 0.010003284817795617 0.0 8.07940516126387e-17 0.0 0.01 0.0 8.07940516126387e-17 0.0 0.010000947384613636 0.010003437821980739 0.0 4.1331164850919327e-13 0.0 0.01 0.0 4.1331164850940006e-13 0.0 0.01000588459018777 0.010003321454076033 0.0 2.098921922321804e-13 0.0 0.01 0.0 2.098921922323872e-13 0.0 0.010004543644831273 0.010003212997840157 0.0 2.291365326075611e-14 0.0 0.01 0.0 2.291365326075611e-14 0.0 0.010003473008430686 0.010003121561013375 0.0 -2.5074495336726267e-14 0.0 0.01 0.0 -2.5074495336726267e-14 0.0 0.01000270324573568 0.010003048243201737 0.0 -2.0152837567210133e-14 0.0 0.01 0.0 -2.0152837567261832e-14 0.0 0.010002149142623628 0.010002993043210097 0.0 -8.323174209797677e-15 0.0 0.01 0.0 -8.323174209797677e-15 0.0 0.010001721144248679 0.010002954408764109 0.0 -1.4529977446858742e-15 0.0 0.01 0.0 -1.4529977446858742e-15 0.0 0.010001372832648684 0.01000292803550691 0.0 1.2393309886928372e-16 0.0 0.01 0.0 1.2393309886928372e-16 0.0 0.010001103232541454 0.010002914373541082 0.0 -1.6036529985183608e-17 0.0 0.01 0.0 -1.6036529985183608e-17 0.0 0.01000093032981093 0.010003036032064126 0.0 6.214216333959827e-13 0.0 0.01 0.0 6.214216333963963e-13 0.0 0.010005696263418589 0.010002923131205044 0.0 2.876817487865915e-13 0.0 0.01 0.0 2.876817487870051e-13 0.0 0.010004396948273915 0.01000282099325161 0.0 -1.1648542907771429e-14 0.0 0.01 0.0 -1.1648542907745579e-14 0.0 0.010003360092775115 0.01000273502164247 0.0 -7.139124453435208e-14 0.0 0.01 0.0 -7.139124453435208e-14 0.0 0.010002616726730586 0.010002667066607341 0.0 -4.6002426481988773e-14 0.0 0.01 0.0 -4.600242648209217e-14 0.0 0.01000208270046555 0.010002614324846917 0.0 -1.7519984826593158e-14 0.0 0.01 0.0 -1.7519984826644857e-14 0.0 0.010001667917199385 0.010002577646296643 0.0 -3.597067467974083e-15 0.0 0.01 0.0 -3.597067467974083e-15 0.0 0.010001331315813084 0.010002553727895947 0.0 4.505183027834282e-16 0.0 0.01 0.0 4.505183027834282e-16 0.0 0.01000106997170142 0.010002540017425635 0.0 4.758296626487154e-17 0.0 0.01 0.0 4.758296626487154e-17 0.0 0.010000903422411063 0.010002576695561963 0.0 9.076312495073309e-13 0.0 0.01 0.0 9.076312495073309e-13 0.0 0.010005446846991567 0.010002466262067362 0.0 4.4690953713249825e-13 0.0 0.01 0.0 4.4690953713332543e-13 0.0 0.010004203348736564 0.010002367540521882 0.0 -3.2599215838608825e-15 0.0 0.01 0.0 -3.2599215838608825e-15 0.0 0.010003212997840155 0.010002286934271108 0.0 -8.743563008911096e-14 0.0 0.01 0.0 -8.743563008828378e-14 0.0 0.010002502889354782 0.010002222440666899 0.0 -5.510680853539596e-14 0.0 0.01 0.0 -5.510680853539596e-14 0.0 0.010001992795526868 0.01000217500939415 0.0 -1.8797145141931762e-14 0.0 0.01 0.0 -1.8797145141880063e-14 0.0 0.01000159708251943 0.010002140837281456 0.0 -2.4053907551475108e-15 0.0 0.01 0.0 -2.4053907551475108e-15 0.0 0.010001274643666059 0.010002116871982379 0.0 6.896034966001296e-17 0.0 0.01 0.0 6.896034966001296e-17 0.0 0.010001026508036182 0.010002104664255336 0.0 2.503121138697299e-16 0.0 0.01 0.0 2.503121138697299e-16 0.0 0.010000868263069024 0.010002030418222358 0.0 1.320172399936628e-12 0.0 0.01 0.0 1.3201723999349736e-12 0.0 0.010005144567264423 0.010001920453079382 0.0 6.78118414109831e-13 0.0 0.01 0.0 6.78118414109831e-13 0.0 0.010003967710159956 0.010001827150649957 0.0 6.899621602700084e-14 0.0 0.01 0.0 6.899621602700084e-14 0.0 0.01000303262896817 0.010001751910270924 0.0 -6.361481903477361e-14 0.0 0.01 0.0 -6.361481903477361e-14 0.0 0.01000236508878223 0.01000169378023656 0.0 -3.698098266546362e-14 0.0 0.01 0.0 -3.698098266546362e-14 0.0 0.010001883331907293 0.010001649357967539 0.0 -7.45697649308516e-15 0.0 0.01 0.0 -7.45697649308516e-15 0.0 0.010001511092441061 0.010001619043110227 0.0 1.924172533001721e-15 0.0 0.01 0.0 1.924172533001721e-15 0.0 0.010001208719114972 0.0100015975327351 0.0 1.1150140228639919e-15 0.0 0.01 0.0 1.1150140228639919e-15 0.0 0.010000975742792522 0.010001585827147415 0.0 4.2809972200747987e-16 0.0 0.01 0.0 4.2809972200747987e-16 0.0 0.010000825302157306 0.010001425104580585 0.0 1.7127440352759126e-12 0.0 0.01 0.0 1.7127440352767398e-12 0.0 0.010004796398610403 0.010001317160190948 0.0 8.893768412488203e-13 0.0 0.01 0.0 8.893768412488203e-13 0.0 0.0100036983506584 0.01000123067714766 0.0 1.5086303674024285e-13 0.0 0.01 0.0 1.5086303674044964e-13 0.0 0.010002827348633172 0.010001163753116684 0.0 -1.7671599475571106e-14 0.0 0.01 0.0 -1.7671599475571106e-14 0.0 0.010002206279935947 0.010001114436267552 0.0 -9.915259930823176e-15 0.0 0.01 0.0 -9.915259930823176e-15 0.0 0.010001760714908405 0.010001078274376277 0.0 4.149126906783828e-15 0.0 0.01 0.0 4.149126906783828e-15 0.0 0.010001416300829399 0.01000105291627156 0.0 3.1862353113426613e-15 0.0 0.01 0.0 3.18623531139436e-15 0.0 0.010001134493031968 0.010001036311068839 0.0 -7.530010551868969e-16 0.0 0.01 0.0 -7.530010551868969e-16 0.0 0.010000918076414171 0.010001027508344317 0.0 -7.705502658486193e-16 0.0 0.01 0.0 -7.705502658486193e-16 0.0 0.010000779891225062 0.010000828703000921 0.0 1.8019216208827503e-12 0.0 0.01 0.0 1.8019216208827503e-12 0.0 0.010004417475390218 0.010000725178875035 0.0 8.990517689579732e-13 0.0 0.01 0.0 8.990517689579732e-13 0.0 0.01000340458789388 0.010000648513079928 0.0 1.7969566136282825e-13 0.0 0.01 0.0 1.7969566136282825e-13 0.0 0.010002604517173217 0.010000593302797057 0.0 1.4733021160618173e-14 0.0 0.01 0.0 1.4733021160618173e-14 0.0 0.010002036772097142 0.010000555696316329 0.0 9.469633662114352e-15 0.0 0.01 0.0 9.469633662114352e-15 0.0 0.010001627347152637 0.010000528841948115 0.0 8.786434691353032e-15 0.0 0.01 0.0 8.786434691353032e-15 0.0 0.010001312758454978 0.010000511289209825 0.0 -2.307595643014385e-15 0.0 0.01 0.0 -2.307595643014385e-15 0.0 0.010001055367046435 0.010000500037503128 0.0 -5.942333035379087e-15 0.0 0.01 0.0 -5.942333035379087e-15 0.0 0.010000856560041703 0.010000493186482539 0.0 -2.904535686684501e-15 0.0 0.01 0.0 -2.904535686684501e-15 0.0 0.010000732030372427 0.010000313014696114 0.0 1.3932267734449653e-12 0.0 0.01 0.0 1.3932267734457925e-12 0.0 0.010004027331604217 0.010000214856924327 0.0 6.175173005345962e-13 0.0 0.01 0.0 6.175173005345962e-13 0.0 0.010003102493222601 0.010000148953328 0.0 1.0809990468710772e-13 0.0 0.01 0.0 1.0809990468710772e-13 0.0 0.010002376346785304 0.010000106951715777 0.0 1.8976601861971485e-14 0.0 0.01 0.0 1.8976601861971485e-14 0.0 0.010001859418487021 0.01000008105098538 0.0 1.6840170333783143e-14 0.0 0.01 0.0 1.6840170333783143e-14 0.0 0.010001491033410812 0.010000066400661351 0.0 6.716127400470444e-15 0.0 0.01 0.0 6.716127400470444e-15 0.0 0.010001205768046433 0.010000056150472928 0.0 -6.630272631571173e-15 0.0 0.01 0.0 -6.630272631571173e-15 0.0 0.01000097474249992 0.010000050800387102 0.0 -9.83347943365916e-15 0.0 0.01 0.0 -9.83347943365916e-15 0.0 0.01000079499479246 0.010000048350350663 0.0 -3.7337258749140986e-15 0.0 0.01 0.0 -3.7337258749140986e-15 0.0 0.01000068221980723 0.009999923000889342 0.0 6.481694142352635e-13 0.0 0.01 0.0 6.481694142356771e-13 0.0 0.010003640186679581 0.009999825004593618 0.0 1.7995695409890837e-13 0.0 0.01 0.0 1.7995695409890837e-13 0.0 0.010002803428441155 0.009999768008073288 0.0 1.310622794908061e-14 0.0 0.01 0.0 1.310622794908061e-14 0.0 0.010002147641656642 0.009999737510335487 0.0 2.7395610171434025e-14 0.0 0.01 0.0 2.7395610171434025e-14 0.0 0.010001683525043078 0.009999721511633803 0.0 2.8329891668760548e-14 0.0 0.01 0.0 2.8329891668760548e-14 0.0 0.010001354275059476 0.009999714512225956 0.0 4.890132408111289e-15 0.0 0.01 0.0 4.890132408111289e-15 0.0 0.010001098831087933 0.009999712512397846 0.0 -1.1319664012296795e-14 0.0 0.01 0.0 -1.1319664012296795e-14 0.0 0.010000892719527999 0.009999712012441004 0.0 -1.2268141873959466e-14 0.0 0.01 0.0 -1.2268141873959466e-14 0.0 0.010000734931010603 0.009999711512484239 0.0 -4.299169409077576e-15 0.0 0.01 0.0 -4.299169409077576e-15 0.0 0.010000634810442529 0.009999661017237179 0.0 -1.771838413871262e-12 0.0 0.01 0.0 -1.771838413871262e-12 0.0 0.010003277961050152 0.009999563528577763 0.0 -8.117396902175692e-14 0.0 0.01 0.0 -8.117396902170522e-14 0.0 0.010002524405571886 0.009999508536232871 0.0 5.909049500698211e-14 0.0 0.01 0.0 5.909049500698211e-14 0.0 0.01000193316042193 0.009999482540167475 0.0 9.767933121975405e-14 0.0 0.01 0.0 9.767933121965065e-14 0.0 0.010001515944643564 0.009999473541576688 0.0 5.42724873315449e-14 0.0 0.01 0.0 5.42724873315449e-14 0.0 0.010001220923561756 0.009999472041813921 0.0 6.2954516213587e-15 0.0 0.01 0.0 6.2954516213587e-15 0.0 0.010000996248856996 0.00999947354157669 0.0 -1.570926055050788e-14 0.0 0.01 0.0 -1.570926055050788e-14 0.0 0.010000815549757364 0.009999475041340135 0.0 -1.4374396325715603e-14 0.0 0.01 0.0 -1.4374396325715603e-14 0.0 0.010000676818706335 0.009999476041182804 0.0 -4.665950424079005e-15 0.0 0.01 0.0 -4.665950424079005e-15 0.0 0.010000588902016754 0.009999513035572465 0.0 1.1144366374466478e-10 0.0 0.01 0.0 1.1144366374471772e-10 0.0 0.01000295490920744 0.00999940905238699 0.0 3.749067279534803e-12 0.0 0.01 0.0 3.749067279538112e-12 0.0 0.01000227517622855 0.009999352562881649 0.0 4.1142721365757747e-13 0.0 0.01 0.0 4.1142721365778427e-13 0.0 0.010001741154637372 0.0099993265680327 0.0 2.9391860279050674e-13 0.0 0.01 0.0 2.9391860279029995e-13 0.0 0.010001365029444946 0.009999317569862989 0.0 1.1351252939830454e-13 0.0 0.01 0.0 1.1351252939851133e-13 0.0 0.010001098330923126 0.009999315070375716 0.0 1.0155310805076783e-14 0.0 0.01 0.0 1.0155310805076783e-14 0.0 0.010000898571099995 0.009999317569862992 0.0 -2.232959939470184e-14 0.0 0.01 0.0 -2.232959939470184e-14 0.0 0.010000741282416799 0.009999321069148326 0.0 -1.8087532457353676e-14 0.0 0.01 0.0 -1.8087532457353676e-14 0.0 0.01000062165796399 0.009999323068741595 0.0 -5.636303637171162e-15 0.0 0.01 0.0 -5.636303637171162e-15 0.0 0.010000546444787022 0.009999448545618761 0.0 8.968274653462353e-10 0.0 0.01 0.0 8.968274653458118e-10 0.0 0.01000268172836458 0.009999343064740263 0.0 7.851841941377239e-11 0.0 0.01 0.0 7.851841941377239e-11 0.0 0.010002068041342403 0.009999276078616916 0.0 1.2425039643555837e-12 0.0 0.01 0.0 1.2425039643547565e-12 0.0 0.010001578973895068 0.009999243085946507 0.0 6.851626290590284e-13 0.0 0.01 0.0 6.851626290590284e-13 0.0 0.010001232177701873 0.009999229089154696 0.0 2.2548898435815266e-13 0.0 0.01 0.0 2.2548898435815266e-13 0.0 0.010000988896668157 0.009999224590198382 0.0 1.810503697178275e-14 0.0 0.01 0.0 1.810503697178275e-14 0.0 0.010000810648562012 0.009999225090082116 0.0 -3.45651592341976e-14 0.0 0.01 0.0 -3.45651592340942e-14 0.0 0.010000672417815779 0.00999922658973377 0.0 -2.495802275617444e-14 0.0 0.01 0.0 -2.495802275614859e-14 0.0 0.010000568398457848 0.009999227589501915 0.0 -7.138897997448727e-15 0.0 0.01 0.0 -7.138897997448727e-15 0.0 0.010000505388310021 0.009999443546451442 0.0 3.572323578569171e-09 0.0 0.01 0.0 3.5723235785674768e-09 0.0 0.010002463309887404 0.009999342064937519 0.0 5.160273604498363e-10 0.0 0.01 0.0 5.160273604494128e-10 0.0 0.010001905794669632 0.009999265081023825 0.0 1.004520780073597e-11 0.0 0.01 0.0 1.004520780073597e-11 0.0 0.010001453416801667 0.009999218591599409 0.0 1.3898916927852726e-12 0.0 0.01 0.0 1.3898916927860997e-12 0.0 0.010001123739390157 0.009999195597070024 0.0 4.5342474280161927e-13 0.0 0.01 0.0 4.5342474280203286e-13 0.0 0.010000894670050857 0.009999182600232283 0.0 5.243375113000642e-14 0.0 0.01 0.0 5.243375113005812e-14 0.0 0.010000730530043326 0.009999178601215478 0.0 -4.3872532920253696e-14 0.0 0.01 0.0 -4.3872532920253696e-14 0.0 0.010000609405701768 0.009999176601708883 0.0 -3.535237992476559e-14 0.0 0.01 0.0 -3.535237992471389e-14 0.0 0.010000521540797886 0.009999177101585415 0.0 -1.0230946687530388e-14 0.0 0.01 0.0 -1.0230946687530388e-14 0.0 0.010000468282891275 0.00999948054049382 0.0 1.0096604464643398e-08 0.0 0.01 0.0 1.009660446465695e-08 0.0 0.010002296190646943 0.009999394554989735 0.0 2.2314387739421195e-09 0.0 0.01 0.0 2.2314387739404254e-09 0.0 0.010001791481296566 0.009999312070993468 0.0 1.5934612420883801e-10 0.0 0.01 0.0 1.5934612420883801e-10 0.0 0.010001366480039136 0.00999924958447697 0.0 2.5701458841622385e-12 0.0 0.01 0.0 2.570145884160584e-12 0.0 0.01000104606411463 0.009999208593958442 0.0 9.456541924445187e-13 0.0 0.01 0.0 9.45654192446173e-13 0.0 0.010000821401193906 0.00999918659925388 0.0 1.92787314726469e-13 0.0 0.01 0.0 1.9278731472688259e-13 0.0 0.010000665116351079 0.009999174102327316 0.0 -2.2544829609459098e-14 0.0 0.01 0.0 -2.2544829609459098e-14 0.0 0.010000554246074905 0.0099991671040689 0.0 -3.805205055016457e-14 0.0 0.01 0.0 -3.8052050550267964e-14 0.0 0.010000477584210821 0.009999164104819798 0.0 -1.2142649632450193e-14 0.0 0.01 0.0 -1.2142649632450193e-14 0.0 0.010000431677950271 0.0099995505303826 0.0 2.2709439800329932e-08 0.0 0.01 0.0 2.2709439800302827e-08 0.0 0.010002166253772373 0.00999949553818232 0.0 7.0692756234746286e-09 0.0 0.01 0.0 7.0692756234746286e-09 0.0 0.010001715291240183 0.009999416551066068 0.0 1.1486794898433417e-09 0.0 0.01 0.0 1.1486794898416477e-09 0.0 0.010001317160191144 0.009999337565828671 0.0 5.667077724024396e-11 0.0 0.01 0.0 5.667077724024396e-11 0.0 0.010001001600460432 0.009999277078399904 0.0 1.9159397819597792e-12 0.0 0.01 0.0 1.915939781958125e-12 0.0 0.010000773039629306 0.009999236587428713 0.0 5.890886070917218e-13 0.0 0.01 0.0 5.890886070917218e-13 0.0 0.010000615306785707 0.009999211593247584 0.0 1.0109067977415885e-13 0.0 0.01 0.0 1.0109067977426224e-13 0.0 0.01000050883883491 0.009999197096708408 0.0 -7.45042371613105e-15 0.0 0.01 0.0 -7.45042371613105e-15 0.0 0.010000438528844446 0.009999190598280278 0.0 -7.564463090911668e-15 0.0 0.01 0.0 -7.564463090911668e-15 0.0 0.010000397973756205 0.009999646019077097 0.0 4.327343291988736e-08 0.0 0.01 0.0 4.3273432919914466e-08 0.0 0.010002064589484244 0.009999632520305828 0.0 1.8008369633462748e-08 0.0 0.01 0.0 1.8008369633462748e-08 0.0 0.010001667416997843 0.009999571527543626 0.0 5.004675576641472e-09 0.0 0.01 0.0 5.00467557664486e-09 0.0 0.010001298602915395 0.009999487539395169 0.0 7.851912994899073e-10 0.0 0.01 0.0 7.851912994899073e-10 0.0 0.010000988446534766 0.009999407052742137 0.0 4.90495283714184e-11 0.0 0.01 0.0 4.904952837147134e-11 0.0 0.010000753035050729 0.009999344064543345 0.0 1.4376183864383145e-12 0.0 0.01 0.0 1.4376183864383145e-12 0.0 0.010000588451937277 0.009999302073072099 0.0 4.583401239537021e-13 0.0 0.01 0.0 4.583401239553564e-13 0.0 0.010000476584067691 0.009999276078616913 0.0 1.0766514538025253e-13 0.0 0.01 0.0 1.0766514538066612e-13 0.0 0.010000407274879573 0.00999926158179727 0.0 1.4467565979033046e-14 0.0 0.01 0.0 1.4467565979033046e-14 0.0 0.010000368670386678 0.009999754009843737 0.0 7.150364622886827e-08 0.0 0.01 0.0 7.150364622881406e-08 0.0 0.010001974685520009 0.009999789006893228 0.0 3.789073380812305e-08 0.0 0.01 0.0 3.7890733808150154e-08 0.0 0.01000162929832074 0.009999761508567302 0.0 1.5342973361373493e-08 0.0 0.01 0.0 1.5342973361346388e-08 0.0 0.010001296652187741 0.00999969051437087 0.0 4.5274282188111515e-09 0.0 0.01 0.0 4.5274282188111515e-09 0.0 0.01000100015002808 0.009999605023402336 0.0 9.129301427931985e-10 0.0 0.01 0.0 9.129301427948926e-10 0.0 0.010000760836822218 0.009999525033841071 0.0 1.0842692212016828e-10 0.0 0.01 0.0 1.0842692212016828e-10 0.0 0.010000585501417773 0.009999463043251479 0.0 5.451460721456701e-12 0.0 0.01 0.0 5.451460721456701e-12 0.0 0.010000466332617888 0.009999420050455123 0.0 3.8643172869855614e-13 0.0 0.01 0.0 3.864317286969018e-13 0.0 0.010000390622886744 0.009999396554626344 0.0 7.727680153663624e-14 0.0 0.01 0.0 7.727680153663624e-14 0.0 0.010000349118281685 0.0099998690041789 0.0 1.0344790930989778e-07 0.0 0.01 0.0 1.0344790930989778e-07 0.0 0.010001896540998197 0.009999942501159745 0.0 6.653081282371803e-08 0.0 0.01 0.0 6.653081282366382e-08 0.0 0.010001590229907941 0.009999962500398446 0.0 3.5359829744568624e-08 0.0 0.01 0.0 3.5359829744622834e-08 0.0 0.01000129710251508 0.009999926500845503 0.0 1.531480845745202e-08 0.0 0.01 0.0 1.531480845745202e-08 0.0 0.010001024107333063 0.009999857003071594 0.0 5.367467641246952e-09 0.0 0.01 0.0 5.367467641253728e-09 0.0 0.010000791593987556 0.00999977800739266 0.0 1.4954748964482142e-09 0.0 0.01 0.0 1.4954748964516023e-09 0.0 0.010000609405702104 0.009999708012788992 0.0 3.0528515934238545e-10 0.0 0.01 0.0 3.052851593432325e-10 0.0 0.010000479034418912 0.009999655017852726 0.0 4.11596964725377e-11 0.0 0.01 0.0 4.115969647264358e-11 0.0 0.010000394073292845 0.009999621521487985 0.0 1.7360264722553564e-12 0.0 0.01 0.0 1.7360264722553564e-12 0.0 0.01000034766813013 0.01000002880279286 0.0 1.3339398810866508e-07 0.0 0.01 0.0 1.3339398810855666e-07 0.0 0.010001846213817764 0.010000086452582026 0.0 9.870046402036224e-08 0.0 0.01 0.0 9.870046402025382e-08 0.0 0.01000155211274397 0.01000014695385357 0.0 6.400243615818646e-08 0.0 0.01 0.0 6.400243615818646e-08 0.0 0.010001289299915509 0.010000163104182783 0.0 3.581983409265809e-08 0.0 0.01 0.0 3.581983409265809e-08 0.0 0.010001046564464053 0.010000134302749817 0.0 1.7183122202673803e-08 0.0 0.01 0.0 1.7183122202673803e-08 0.0 0.010000830203418494 0.01000008055098058 0.0 6.986585546480285e-09 0.0 0.01 0.0 6.986585546480285e-09 0.0 0.010000651913750509 0.010000021950073068 0.0 2.304390378256966e-09 0.0 0.01 0.0 2.304390378256966e-09 0.0 0.010000517140113114 0.009999972000117641 0.0 5.632690458991268e-10 0.0 0.01 0.0 5.632690458991268e-10 0.0 0.010000423876949273 0.009999939500549036 0.0 7.4939655199092e-11 0.0 0.01 0.0 7.493965519888024e-11 0.0 0.010000369670497434 0.010000328619626585 0.0 1.5121302908622548e-07 0.0 0.01 0.0 1.5121302908644232e-07 0.0 0.010001829105149468 0.010000283214492011 0.0 1.281038803143536e-07 0.0 0.01 0.0 1.2810388031457044e-07 0.0 0.010001539407854018 0.01000031591630934 0.0 9.451081159155515e-08 0.0 0.01 0.0 9.451081159177199e-08 0.0 0.010001283948575598 0.010000367220808234 0.0 6.227325631351886e-08 0.0 0.01 0.0 6.227325631330202e-08 0.0 0.010001060719326462 0.010000393073371996 0.0 3.626319315924026e-08 0.0 0.01 0.0 3.626319315934868e-08 0.0 0.010000867813149076 0.010000386272429444 0.0 1.8193156466582427e-08 0.0 0.01 0.0 1.8193156466799268e-08 0.0 0.010000704174421894 0.010000361369595822 0.0 7.559174775169895e-09 0.0 0.01 0.0 7.559174775278316e-09 0.0 0.010000574249469147 0.010000331566490585 0.0 2.400722208078772e-09 0.0 0.01 0.0 2.400722208078772e-09 0.0 0.010000477584211687 0.010000308614285856 0.0 4.464385551031778e-10 0.0 0.01 0.0 4.4643855509640153e-10 0.0 0.010000418976329733 0.010000783294290489 0.0 1.2298059071276513e-07 0.0 0.01 0.0 1.2298059071254829e-07 0.0 0.010001822750509117 0.010000671920726317 0.0 1.417020585412366e-07 0.0 0.01 0.0 1.417020585412366e-07 0.0 0.010001548212480487 0.010000587453900594 0.0 1.1944443102846793e-07 0.0 0.01 0.0 1.1944443102846793e-07 0.0 0.010001303957140429 0.010000570349922513 0.0 8.686019981507705e-08 0.0 0.01 0.0 8.68601998148602e-08 0.0 0.010001091979968289 0.010000603555110761 0.0 5.6182882956839694e-08 0.0 0.01 0.0 5.6182882956839694e-08 0.0 0.01000091172514458 0.010000641161809636 0.0 3.17991057908161e-08 0.0 0.01 0.0 3.179910578994874e-08 0.0 0.010000761337087934 0.010000662165797891 0.0 1.5094044336465273e-08 0.0 0.01 0.0 1.5094044338199997e-08 0.0 0.010000640211509535 0.01000066606654538 0.0 5.5338072552047965e-09 0.0 0.01 0.0 5.5338072552047965e-09 0.0 0.010000549345268311 0.010000664616251551 0.0 1.1733063896542453e-09 0.0 0.01 0.0 1.1733063896677979e-09 0.0 0.010000491736268513 0.01000106166904735 0.0 8.426366662432204e-10 0.0 0.01 0.0 8.426366662449145e-10 0.0 0.01000182469930776 0.010001099282608799 0.0 9.566321554398474e-08 0.0 0.01 0.0 9.566321554420158e-08 0.0 0.010001579975741573 0.010001063171637669 0.0 1.186756601097988e-07 0.0 0.01 0.0 1.1867566011023248e-07 0.0 0.010001342572438255 0.010000979145341649 0.0 1.0172588868657961e-07 0.0 0.01 0.0 1.0172588868657961e-07 0.0 0.010001141296905613 0.010000913225846748 0.0 7.141648510414211e-08 0.0 0.01 0.0 7.141648510414211e-08 0.0 0.01000097279269519 0.010000892719802458 0.0 4.277738602492115e-08 0.0 0.01 0.0 4.277738602405379e-08 0.0 0.010000833104372261 0.01000090342248055 0.0 2.1523655545363507e-08 0.0 0.01 0.0 2.1523655545146667e-08 0.0 0.01000071832746121 0.010000923477916599 0.0 8.41939233500559e-09 0.0 0.01 0.0 8.41939233495138e-09 0.0 0.010000633360177317 0.01000093663157591 0.0 1.8891658073303037e-09 0.0 0.01 0.0 1.88916580733708e-09 0.0 0.010000577700057283 0.010001132992774567 0.0 -4.1059501687534805e-08 0.0 0.01 0.0 -4.1059501687534805e-08 0.0 0.010001638102671897 0.010001331316148197 0.0 4.726963671397924e-08 0.0 0.01 0.0 4.726963671397924e-08 0.0 0.010001421203250375 0.01000142900716738 0.0 7.818825249489986e-08 0.0 0.01 0.0 7.818825249489986e-08 0.0 0.010001221924845101 0.010001428056569915 0.0 6.9603545847308e-08 0.0 0.01 0.0 6.960354584709116e-08 0.0 0.010001050966382688 0.010001390440263361 0.0 4.609069497428248e-08 0.0 0.01 0.0 4.609069497428248e-08 0.0 0.01000091077473 0.010001365979920962 0.0 2.40556034868198e-08 0.0 0.01 0.0 2.40556034868198e-08 0.0 0.010000799896051583 0.010001360627659467 0.0 9.557047444961253e-09 0.0 0.01 0.0 9.557047444934148e-09 0.0 0.010000717827297702 0.010001361628054865 0.0 2.168754572081505e-09 0.0 0.01 0.0 2.168754572074729e-09 0.0 0.010000667066741471 0.010001327414308925 0.0 -1.8513521591202037e-08 0.0 0.01 0.0 -1.8513521591202037e-08 0.0 0.010001364529291606 0.010001592180230454 0.0 1.9236963627405033e-08 0.0 0.01 0.0 1.9236963627350823e-08 0.0 0.01000117795816061 0.010001753861388178 0.0 2.471720356107864e-08 0.0 0.01 0.0 2.471720356102443e-08 0.0 0.010001012353799882 0.010001864271233526 0.0 1.5709941643334306e-08 0.0 0.01 0.0 1.570994164336141e-08 0.0 0.010000885367604491 0.01000193611214098 0.0 6.617689114497014e-09 0.0 0.01 0.0 6.6176891144902376e-09 0.0 0.0100008008962115 0.01000198203911652 0.0 1.5228092745699139e-09 0.0 0.01 0.0 1.5228092745699139e-09 0.0 0.010000751534712525 0.010001303004827444 0.0 -3.638158236046046e-08 0.0 0.01 0.0 -3.6381582360894144e-08 0.0 0.010001163753315197 0.010001571670462926 0.0 -1.1062632350136064e-08 0.0 0.01 0.0 -1.1062632350108959e-08 0.0 0.010000982544808523 0.010001770970340239 0.0 -2.4635945197583136e-09 0.0 0.01 0.0 -2.4635945197617017e-09 0.0 0.010000878515755839 0.010001887734396682 0.0 -3.368663305159902e-10 0.0 0.01 0.0 -3.3686633051556667e-10 0.0 0.010000825302157323 0.009999994500004536 0.0 6.996893363367934e-19 0.0 0.01 0.0 6.996893363367934e-19 0.0 0.01 0.009999994500004536 0.0 4.425152908921142e-13 0.0 0.01 0.0 4.425152908921142e-13 0.0 0.01 0.009999994500004536 0.0 1.4363302726721691e-12 0.0 0.01 0.0 1.4363302726721691e-12 0.0 0.01 0.009999994500004536 0.0 1.1318245454111239e-13 0.0 0.01 0.0 1.1318245454111239e-13 0.0 0.01 0.00999999500000375 0.0 -2.7526997999399144e-12 0.0 0.01 0.0 -2.7526997999399144e-12 0.0 0.01 0.009999995500003037 0.0 2.825289093176926e-18 0.0 0.01 0.0 2.825289093176926e-18 0.0 0.01 0.009999995500003037 0.0 6.35797470977959e-18 0.0 0.01 0.0 6.35797470977959e-18 0.0 0.01 0.009999995500003037 0.0 -4.393310436214299e-18 0.0 0.01 0.0 -4.393310436214299e-18 0.0 0.01 0.009999993500006337 0.0 -8.567022307145692e-19 0.0 0.01 0.0 -8.567022307145692e-19 0.0 0.01 0.009999993500006337 0.0 1.4352751537545768e-12 0.0 0.01 0.0 1.4352751537545768e-12 0.0 0.01 0.009999993500006337 0.0 5.062942230446192e-13 0.0 0.01 0.0 5.062942230446192e-13 0.0 0.01 0.009999993500006337 0.0 8.503933845611256e-13 0.0 0.01 0.0 8.503933845611256e-13 0.0 0.01 0.009999993500006337 0.0 8.528518460994302e-13 0.0 0.01 0.0 8.528518460994302e-13 0.0 0.01 0.009999993500006337 0.0 -8.554836922531087e-13 0.0 0.01 0.0 -8.554836922531087e-13 0.0 0.01 0.0099999940000054 0.0 3.566968140515938e-18 0.0 0.01 0.0 3.566968140515938e-18 0.0 0.01 0.0099999940000054 0.0 2.0905466668745466e-12 0.0 0.01 0.0 2.0905466668745466e-12 0.0 0.01 0.009999991500010838 0.0 -1.4983348823683319e-18 0.0 0.01 0.0 -1.4983348823683319e-18 0.0 0.01 0.009999991500010838 0.0 6.673322941245019e-13 0.0 0.01 0.0 6.673322941245019e-13 0.0 0.01 0.009999991500010838 0.0 2.4074070000247285e-13 0.0 0.01 0.0 2.4074070000247285e-13 0.0 0.01 0.009999991500010838 0.0 1.3545283529550904e-12 0.0 0.01 0.0 1.3545283529550904e-12 0.0 0.01 0.009999991500010838 0.0 6.65767470595074e-13 0.0 0.01 0.0 6.65767470595074e-13 0.0 0.01 0.009999991500010838 0.0 -2.958646677761798e-18 0.0 0.01 0.0 -2.958646677761798e-18 0.0 0.01 0.009999992000009601 0.0 -2.9792718750166983e-18 0.0 0.01 0.0 -2.9792718750166983e-18 0.0 0.01 0.009999992000009601 0.0 2.5430357500601346e-12 0.0 0.01 0.0 2.5430357500601346e-12 0.0 0.01 0.009999989500016538 0.0 -1.1360229047272676e-19 0.0 0.01 0.0 -1.1360229047272676e-19 0.0 0.01 0.009999989500016538 0.0 2.2723323332640507e-13 0.0 0.01 0.0 2.2723323332640507e-13 0.0 0.01 0.009999989500016538 0.0 -1.9214099047033214e-13 0.0 0.01 0.0 -1.9214099047033214e-13 0.0 0.01 0.009999989500016538 0.0 1.1955200475825964e-13 0.0 0.01 0.0 1.1955200475825964e-13 0.0 0.01 0.009999989500016538 0.0 -3.752638999885583e-13 0.0 0.01 0.0 -3.752638999885583e-13 0.0 0.01 0.009999989500016538 0.0 -2.0975991427931875e-12 0.0 0.01 0.0 -2.0975991427931875e-12 0.0 0.01 0.009999989500016538 0.0 -4.403271809389556e-13 0.0 0.01 0.0 -4.403271809389556e-13 0.0 0.01 0.009999989500016538 0.0 -1.0870427378508754e-17 0.0 0.01 0.0 -1.0870427378508754e-17 0.0 0.01 0.009999985500031538 0.0 -7.336603792989324e-18 0.0 0.01 0.0 -7.336603792989324e-18 0.0 0.01 0.009999985500031538 0.0 4.197504482693327e-13 0.0 0.01 0.0 4.197504482693327e-13 0.0 0.01 0.009999985500031538 0.0 9.056121034341887e-13 0.0 0.01 0.0 9.056121034341887e-13 0.0 0.01 0.009999985500031538 0.0 1.0829236206728097e-12 0.0 0.01 0.0 1.0829236206728097e-12 0.0 0.01 0.009999985500031538 0.0 4.416253744531877e-18 0.0 0.01 0.0 4.416253744531877e-18 0.0 0.01 0.009999985500031538 0.0 -2.530581795834315e-18 0.0 0.01 0.0 -2.530581795834315e-18 0.0 0.01 0.009999986000029399 0.0 3.6157585072407e-18 0.0 0.01 0.0 3.6157585072407e-18 0.0 0.01 0.00999998700002535 0.0 5.956918461575136e-13 0.0 0.01 0.0 5.956918461575136e-13 0.0 0.01 0.009999981500051337 0.0 9.395399189122676e-19 0.0 0.01 0.0 9.395399189122676e-19 0.0 0.01 0.009999981500051337 0.0 4.827543783749609e-13 0.0 0.01 0.0 4.827543783749609e-13 0.0 0.01 0.009999981500051337 0.0 -9.085730270205951e-13 0.0 0.01 0.0 -9.085730270205951e-13 0.0 0.01 0.009999982000048601 0.0 2.5026698926698076e-18 0.0 0.01 0.0 2.5026698926698076e-18 0.0 0.01 0.009999982000048601 0.0 2.9684835348498275e-18 0.0 0.01 0.0 2.9684835348498275e-18 0.0 0.01 0.009999982000048601 0.0 4.010289166660183e-13 0.0 0.01 0.0 4.010289166660183e-13 0.0 0.01 0.009999982000048601 0.0 1.3043852759073367e-17 0.0 0.01 0.0 1.3043852759073367e-17 0.0 0.010000000500000038 0.009999982000048601 0.0 -8.973324232386482e-14 0.0 0.01 0.0 -8.973324232386482e-14 0.0 0.010000000500000038 0.009999976000086399 0.0 3.982987708276581e-18 0.0 0.01 0.0 3.982987708276581e-18 0.0 0.01 0.009999976000086399 0.0 -1.1679107083166922e-13 0.0 0.01 0.0 -1.1679107083166922e-13 0.0 0.01 0.009999976000086399 0.0 -2.5658093749634407e-13 0.0 0.01 0.0 -2.5658093749634407e-13 0.0 0.01 0.009999976000086399 0.0 3.145223333288518e-13 0.0 0.01 0.0 3.145223333288518e-13 0.0 0.01 0.009999976000086399 0.0 4.042146901669485e-18 0.0 0.01 0.0 4.042146901669485e-18 0.0 0.010000000500000038 0.009999976500082837 0.0 2.2871833593688967e-18 0.0 0.01 0.0 2.2871833593688967e-18 0.0 0.010000000500000038 0.009999976500082837 0.0 8.20495419339003e-18 0.0 0.01 0.0 8.20495419339003e-18 0.0 0.010000000500000038 0.009999976500082837 0.0 -2.7158353841925894e-17 0.0 0.01 0.0 -2.7158353841925894e-17 0.0 0.01000000100000015 0.009999968500148837 0.0 3.010703588020808e-18 0.0 0.01 0.0 3.010703588020808e-18 0.0 0.010000000500000038 0.009999968500148837 0.0 -4.006182387789996e-13 0.0 0.01 0.0 -4.006182387789996e-13 0.0 0.010000000500000038 0.009999968500148837 0.0 1.3305247540198864e-13 0.0 0.01 0.0 1.3305247540198864e-13 0.0 0.010000000500000038 0.00999996900014415 0.0 5.624912820919093e-13 0.0 0.01 0.0 5.624912820919093e-13 0.0 0.010000000500000038 0.00999996900014415 0.0 4.623719896445228e-18 0.0 0.01 0.0 4.623719896445228e-18 0.0 0.010000000500000038 0.00999996900014415 0.0 3.938740425638629e-18 0.0 0.01 0.0 3.938740425638629e-18 0.0 0.01000000100000015 0.009999969500139537 0.0 1.0729135023912185e-17 0.0 0.01 0.0 1.0729135023912185e-17 0.0 0.01000000100000015 0.009999969500139537 0.0 -7.491972848179231e-18 0.0 0.01 0.0 -7.491972848179231e-18 0.0 0.01000000100000015 0.00999996000024 0.0 8.143549789880382e-18 0.0 0.01 0.0 8.143549789880382e-18 0.0 0.010000000500000038 0.00999996000024 0.0 -7.744906930442711e-14 0.0 0.01 0.0 -7.744906930442711e-14 0.0 0.010000000500000038 0.00999996000024 0.0 -5.412807060755065e-13 0.0 0.01 0.0 -5.412807060755065e-13 0.0 0.010000000500000038 0.009999959500246037 0.0 3.874965568194331e-13 0.0 0.01 0.0 3.874965568194331e-13 0.0 0.01000000100000015 0.009999959500246037 0.0 2.9963098468333104e-18 0.0 0.01 0.0 2.9963098468333104e-18 0.0 0.01000000100000015 0.00999996000024 0.0 -3.517423123044489e-18 0.0 0.01 0.0 -3.517423123044489e-18 0.0 0.01000000100000015 0.00999996000024 0.0 -1.2280625486736803e-17 0.0 0.01 0.0 -1.2280625486736803e-17 0.0 0.010000001450000314 0.00999996000024 0.0 2.476403530149721e-17 0.0 0.01 0.0 2.476403530149721e-17 0.0 0.010000001450000314 0.009999948500397832 0.0 3.905323342861889e-18 0.0 0.01 0.0 3.905323342861889e-18 0.0 0.01000000100000015 0.009999948500397832 0.0 -1.305573559111602e-13 0.0 0.01 0.0 -1.305573559111602e-13 0.0 0.01000000100000015 0.009999948500397832 0.0 2.8356963787704125e-13 0.0 0.01 0.0 2.8356963787704125e-13 0.0 0.01000000100000015 0.009999948000405597 0.0 5.797510149112727e-18 0.0 0.01 0.0 5.797510149112727e-18 0.0 0.01000000100000015 0.009999948000405597 0.0 6.257244554406327e-18 0.0 0.01 0.0 6.257244554406327e-18 0.0 0.010000001450000314 0.009999948000405597 0.0 -1.3216325583486883e-13 0.0 0.01 0.0 -1.3216325583486883e-13 0.0 0.010000001450000314 0.009999948500397832 0.0 1.3376774077086404e-17 0.0 0.01 0.0 1.3376774077086404e-17 0.0 0.01000000195000057 0.009999948500397832 0.0 -3.1493082928318223e-18 0.0 0.01 0.0 -3.1493082928318223e-18 0.0 0.01000000195000057 0.009999933000673342 0.0 1.4193334507524776e-18 0.0 0.01 0.0 1.4193334507524776e-18 0.0 0.01000000100000015 0.009999933000673342 0.0 -9.352575935228619e-14 0.0 0.01 0.0 -9.352575935228619e-14 0.0 0.01000000100000015 0.00999993250068343 0.0 7.770517442912157e-14 0.0 0.01 0.0 7.770517442912157e-14 0.0 0.010000001450000314 0.00999993200069359 0.0 7.227984846838996e-18 0.0 0.01 0.0 7.227984846838996e-18 0.0 0.010000001450000314 0.00999993150070383 0.0 7.792627125800669e-18 0.0 0.01 0.0 7.792627125800669e-18 0.0 0.010000001450000314 0.00999993150070383 0.0 1.3172160008988065e-17 0.0 0.01 0.0 1.3172160008988065e-17 0.0 0.01000000195000057 0.00999993150070383 0.0 8.159172163201624e-18 0.0 0.01 0.0 8.159172163201624e-18 0.0 0.0100000024500009 0.00999993150070383 0.0 6.324458814919326e-17 0.0 0.01 0.0 6.324458814919326e-17 0.0 0.010000002950001304 0.009999913501122322 0.0 7.058854349279865e-19 0.0 0.01 0.0 7.058854349279865e-19 0.0 0.010000001450000314 0.009999913501122322 0.0 -8.101808451615718e-14 0.0 0.01 0.0 -8.101808451615718e-14 0.0 0.010000001450000314 0.009999913501122322 0.0 -1.8675134032491424e-13 0.0 0.01 0.0 -1.8675134032491424e-13 0.0 0.010000001450000314 0.009999913001135332 0.0 4.197647333751093e-18 0.0 0.01 0.0 4.197647333751093e-18 0.0 0.010000001450000314 0.009999913001135332 0.0 3.7210734576221095e-18 0.0 0.01 0.0 3.7210734576221095e-18 0.0 0.0100000024500009 0.009999912501148421 0.0 3.922551202320859e-18 0.0 0.01 0.0 3.922551202320859e-18 0.0 0.010000002950001304 0.009999912001161583 0.0 2.1718295895429897e-17 0.0 0.01 0.0 2.1718295895429897e-17 0.0 0.010000003400001733 0.009999912001161583 0.0 3.133728883076134e-18 0.0 0.01 0.0 3.133728883076134e-18 0.0 0.010000003400001733 0.009999889001848117 0.0 1.1705404098389787e-18 0.0 0.01 0.0 1.1705404098389787e-18 0.0 0.010000001450000314 0.009999889001848117 0.0 1.2349034249521773e-14 0.0 0.01 0.0 1.2349034249521773e-14 0.0 0.010000001450000314 0.009999889001848117 0.0 6.262779526543552e-18 0.0 0.01 0.0 6.262779526543552e-18 0.0 0.0100000024500009 0.009999889501831503 0.0 5.6058721430531214e-18 0.0 0.01 0.0 5.6058721430531214e-18 0.0 0.0100000024500009 0.009999888501864803 0.0 1.8446157909938767e-13 0.0 0.01 0.0 1.8446157909938767e-13 0.0 0.010000002950001304 0.009999888001881565 0.0 -1.7365454344511406e-13 0.0 0.01 0.0 -1.7365454344511406e-13 0.0 0.010000003400001733 0.009999888001881565 0.0 -3.698306559494499e-17 0.0 0.01 0.0 -3.698306559494499e-17 0.0 0.010000004400002904 0.0099998865019323 0.0 4.464680121898754e-17 0.0 0.01 0.0 4.464680121898754e-17 0.0 0.010000005350004294 0.009999858503003266 0.0 -1.191337527531633e-18 0.0 0.01 0.0 -1.191337527531633e-18 0.0 0.01000000195000057 0.009999858003024527 0.0 -3.897809509344614e-18 0.0 0.01 0.0 -3.897809509344614e-18 0.0 0.0100000024500009 0.009999858003024527 0.0 3.9238998883259456e-14 0.0 0.01 0.0 3.9238998883259456e-14 0.0 0.0100000024500009 0.009999857003067276 0.0 4.56546294127264e-18 0.0 0.01 0.0 4.56546294127264e-18 0.0 0.010000002950001304 0.009999857003067276 0.0 -2.423045567184339e-14 0.0 0.01 0.0 -2.423045567184339e-14 0.0 0.010000003900002281 0.009999856003110326 0.0 -1.6171372585263808e-17 0.0 0.01 0.0 -1.6171372585263808e-17 0.0 0.010000004900003601 0.009999855503131962 0.0 -2.2562253570959246e-17 0.0 0.01 0.0 -2.2562253570959246e-17 0.0 0.010000005350004294 0.009999854003197323 0.0 1.1037992683303116e-17 0.0 0.01 0.0 1.1037992683303116e-17 0.0 0.010000007800009127 0.009999821004806007 0.0 -3.0448797760307757e-18 0.0 0.01 0.0 -3.0448797760307757e-18 0.0 0.0100000024500009 0.009999821004806007 0.0 -4.45863205902826e-18 0.0 0.01 0.0 -4.45863205902826e-18 0.0 0.010000002950001304 0.009999820504832892 0.0 -9.417974771286235e-14 0.0 0.01 0.0 -9.417974771286235e-14 0.0 0.010000003400001733 0.009999820004859853 0.0 7.513953718914756e-14 0.0 0.01 0.0 7.513953718914756e-14 0.0 0.010000003900002281 0.009999818504941187 0.0 4.198370720715794e-18 0.0 0.01 0.0 4.198370720715794e-18 0.0 0.010000004400002904 0.009999817504995786 0.0 1.9428489238367297e-17 0.0 0.01 0.0 1.9428489238367297e-17 0.0 0.010000005350004294 0.009999816505050683 0.0 -6.530984866484059e-18 0.0 0.01 0.0 -6.530984866484059e-18 0.0 0.010000008300010334 0.009999814505161377 0.0 -6.279730027544483e-17 0.0 0.01 0.0 -6.279730027544483e-17 0.0 0.010000009300012973 0.00999977400766111 0.0 1.0016411426536954e-18 0.0 0.01 0.0 1.0016411426536954e-18 0.0 0.010000003400001733 0.00999977400766111 0.0 -4.03299808878531e-18 0.0 0.01 0.0 -4.03299808878531e-18 0.0 0.010000003400001733 0.00999977400766111 0.0 9.623688110079853e-18 0.0 0.01 0.0 9.623688110079853e-18 0.0 0.010000004400002904 0.009999772007797305 0.0 -5.683235385080809e-18 0.0 0.01 0.0 -5.683235385080809e-18 0.0 0.010000004400002904 0.009999770007934696 0.0 -9.14964636749573e-18 0.0 0.01 0.0 -9.14964636749573e-18 0.0 0.010000005850005133 0.009999768008073288 0.0 2.0713372912877254e-17 0.0 0.01 0.0 2.0713372912877254e-17 0.0 0.010000007800009127 0.009999766008213078 0.0 -1.2197098399120596e-17 0.0 0.01 0.0 -1.2197098399120596e-17 0.0 0.010000009300012973 0.00999976400835407 0.0 -5.537048037727969e-17 0.0 0.01 0.0 -5.537048037727969e-17 0.0 0.010000012700024194 0.009999715512140463 0.0 8.720673761738548e-20 0.0 0.01 0.0 8.720673761738548e-20 0.0 0.010000004900003601 0.009999715012183172 0.0 2.2647502970385668e-18 0.0 0.01 0.0 2.2647502970385668e-18 0.0 0.010000004900003601 0.009999714012268814 0.0 1.9460630760664265e-17 0.0 0.01 0.0 1.9460630760664265e-17 0.0 0.010000005350004294 0.009999712512397844 0.0 -8.203676532457508e-18 0.0 0.01 0.0 -8.203676532457508e-18 0.0 0.010000006350006049 0.009999711012527546 0.0 1.8341087377589712e-17 0.0 0.01 0.0 1.8341087377589712e-17 0.0 0.010000007800009127 0.009999708512745217 0.0 5.031187031205393e-18 0.0 0.01 0.0 5.031187031205393e-18 0.0 0.010000009300012973 0.009999705513008899 0.0 6.082427441394191e-17 0.0 0.01 0.0 6.082427441394191e-17 0.0 0.010000012200022326 0.009999701013409482 0.0 -1.3751242001855687e-17 0.0 0.01 0.0 -1.3751242001855687e-17 0.0 0.010000016600041335 0.009999643019116213 0.0 5.80047066626173e-19 0.0 0.01 0.0 5.80047066626173e-19 0.0 0.010000005850005133 0.009999643019116213 0.0 2.935237364922237e-18 0.0 0.01 0.0 2.935237364922237e-18 0.0 0.010000006350006049 0.009999642519169795 0.0 2.0801326409851836e-17 0.0 0.01 0.0 2.0801326409851836e-17 0.0 0.010000006850007037 0.009999640519384876 0.0 -9.690891760638344e-18 0.0 0.01 0.0 -9.690891760638344e-18 0.0 0.010000007800009127 0.009999637019764154 0.0 6.03140650611411e-17 0.0 0.01 0.0 6.03140650611411e-17 0.0 0.010000009300012973 0.009999634020092175 0.0 9.58463434751603e-17 0.0 0.01 0.0 9.58463434751603e-17 0.0 0.010000012200022326 0.009999629020644872 0.0 8.518188399324466e-17 0.0 0.01 0.0 8.518188399324466e-17 0.0 0.010000015600036504 0.009999623521261504 0.0 -1.0138723857736544e-16 0.0 0.01 0.0 -1.0138723857736544e-16 0.0 0.01000002100006615 0.009999554029835182 0.0 -2.9247129712042413e-18 0.0 0.01 0.0 -2.9247129712042413e-18 0.0 0.010000008300010334 0.009999554029835182 0.0 -7.712964688206415e-18 0.0 0.01 0.0 -7.712964688206415e-18 0.0 0.010000008800011615 0.009999552530036197 0.0 -2.3009077626807144e-17 0.0 0.01 0.0 -2.3009077626807144e-17 0.0 0.010000009300012973 0.009999551030237887 0.0 -1.2922326026325192e-17 0.0 0.01 0.0 -1.2922326026325192e-17 0.0 0.010000010750017335 0.009999547530711122 0.0 5.962293724024608e-17 0.0 0.01 0.0 5.962293724024608e-17 0.0 0.010000012200022326 0.0099995420314622 0.0 8.771718322495202e-17 0.0 0.01 0.0 8.771718322495202e-17 0.0 0.010000015150034429 0.009999535532361532 0.0 1.2731248793801032e-16 0.0 0.01 0.0 1.2731248793801032e-16 0.0 0.01000001955005733 0.009999528533344217 0.0 1.9700026595858413e-16 0.0 0.01 0.0 1.9700026595858413e-16 0.0 0.01000002635010415 0.009999446545950098 0.0 9.408708667952772e-19 0.0 0.01 0.0 9.408708667952772e-19 0.0 0.010000012200022326 0.00999944604603315 0.0 3.705902224663329e-17 0.0 0.01 0.0 3.705902224663329e-17 0.0 0.010000012200022326 0.009999444046366103 0.0 -7.279332777434604e-18 0.0 0.01 0.0 -7.279332777434604e-18 0.0 0.010000012700024194 0.00999944054695166 0.0 1.1345544916735426e-17 0.0 0.01 0.0 1.1345544916735426e-17 0.0 0.010000014150030033 0.009999436047709916 0.0 1.3519120944267245e-16 0.0 0.01 0.0 1.3519120944267245e-16 0.0 0.010000016100038882 0.00999943004873037 0.0 2.2980295098316856e-16 0.0 0.01 0.0 2.2980295098316856e-16 0.0 0.01000001955005733 0.009999422050107773 0.0 1.3580577284062117e-16 0.0 0.01 0.0 1.3580577284062117e-16 0.0 0.010000024400089305 0.009999411052033043 0.0 2.5065981708555343e-18 0.0 0.01 0.0 2.5065981708555343e-18 0.0 0.010000032250156011 0.009999313070787245 0.0 3.218690491893638e-18 0.0 0.01 0.0 3.218690491893638e-18 0.0 0.010000017100043862 0.00999931207099346 0.0 -2.4891989529972152e-17 0.0 0.01 0.0 -2.4891989529972152e-17 0.0 0.010000017100043862 0.009999310071406788 0.0 -2.44852044574268e-17 0.0 0.01 0.0 -2.44852044574268e-17 0.0 0.010000017600046464 0.009999306572133 0.0 2.187813831658563e-17 0.0 0.01 0.0 2.187813831658563e-17 0.0 0.01000001955005733 0.009999300573386482 0.0 1.2362983538007085e-16 0.0 0.01 0.0 1.2362983538007085e-16 0.0 0.01000002195007227 0.009999293574862523 0.0 3.981124773397741e-16 0.0 0.01 0.0 3.981124773397741e-16 0.0 0.010000025900100622 0.009999282077319347 0.0 6.347970114650209e-17 0.0 0.01 0.0 6.347970114650209e-17 0.0 0.010000030750141836 0.009999268080363796 0.0 2.6012352212017425e-16 0.0 0.01 0.0 2.6012352212017425e-16 0.0 0.010000039550234633 0.009999152607723221 0.0 -5.2771189974463255e-19 0.0 0.01 0.0 -5.2771189974463255e-19 0.0 0.010000024900093002 0.009999151108104853 0.0 4.0340274952515435e-17 0.0 0.01 0.0 4.0340274952515435e-17 0.0 0.010000025400096774 0.009999149108614746 0.0 8.73986042086148e-17 0.0 0.01 0.0 8.73986042086148e-17 0.0 0.01000002635010415 0.009999143610023133 0.0 5.4045478353294853e-17 0.0 0.01 0.0 5.4045478353294853e-17 0.0 0.010000027350112205 0.009999136111958278 0.0 9.402871281204764e-17 0.0 0.01 0.0 9.402871281204764e-17 0.0 0.010000030750141836 0.009999126114564712 0.0 1.1075800647634748e-16 0.0 0.01 0.0 1.1075800647634748e-16 0.0 0.010000033200165338 0.009999113117997905 0.0 -5.475908341606304e-18 0.0 0.01 0.0 -5.475908341606304e-18 0.0 0.010000040050240602 0.00999909562269954 0.0 1.6586657800650145e-16 0.0 0.01 0.0 1.6586657800650145e-16 0.0 0.010000050300379516 0.00999895716314899 0.0 2.980706276362667e-19 0.0 0.01 0.0 2.980706276362667e-19 0.0 0.010000036150196024 0.009998956663305436 0.0 -3.0874887334760417e-17 0.0 0.01 0.0 -3.0874887334760417e-17 0.0 0.010000036150196024 0.009998953664245691 0.0 -9.251434466798778e-17 0.0 0.01 0.0 -9.251434466798778e-17 0.0 0.010000037600212066 0.0099989481659765 0.0 -2.4906766143414237e-16 0.0 0.01 0.0 -2.4906766143414237e-16 0.0 0.010000038100217743 0.009998939668669226 0.0 -4.736020821965217e-16 0.0 0.01 0.0 -4.736020821965217e-16 0.0 0.010000042000264601 0.009998927172668471 0.0 -7.610831551372109e-16 0.0 0.01 0.0 -7.610831551372109e-16 0.0 0.01000004685032924 0.009998909178509692 0.0 -1.0028992332881418e-15 0.0 0.01 0.0 -1.0028992332881418e-15 0.0 0.01000005420044065 0.00999888818544723 0.0 -1.4378106375939564e-15 0.0 0.01 0.0 -1.4378106375939564e-15 0.0 0.010000064950632782 0.009998728242646159 0.0 2.3574271939349653e-18 0.0 0.01 0.0 2.3574271939349653e-18 0.0 0.010000052250409513 0.009998727243027788 0.0 -3.7099833756598803e-17 0.0 0.01 0.0 -3.7099833756598803e-17 0.0 0.010000052250409513 0.0099987232445573 0.0 -8.728628887854011e-17 0.0 0.01 0.0 -8.728628887854011e-17 0.0 0.010000053700432558 0.009998717246860564 0.0 -5.014411114494202e-16 0.0 0.01 0.0 -5.014411114494202e-16 0.0 0.010000056650481388 0.009998706750917245 0.0 -1.1014004779642498e-15 0.0 0.01 0.0 -1.1014004779642498e-15 0.0 0.010000060050540905 0.00999869125696609 0.0 -3.646708638423239e-15 0.0 0.01 0.0 -3.646708638423239e-15 0.0 0.010000065900651429 0.009998670265276198 0.0 -6.251957858769777e-15 0.0 0.01 0.0 -6.251957858769777e-15 0.0 0.010000074200825857 0.00999864377595145 0.0 -1.0870459856126994e-14 0.0 0.01 0.0 -1.0870459856126994e-14 0.0 0.010000085951108127 0.009998465353343354 0.0 -4.431836004746731e-19 0.0 0.01 0.0 -4.431836004746731e-19 0.0 0.010000072750793895 0.009998464353803827 0.0 -1.0828069317934071e-17 0.0 0.01 0.0 -1.0828069317934071e-17 0.0 0.010000074200825857 0.009998460355648718 0.0 -3.821079631837919e-16 0.0 0.01 0.0 -3.821079631837919e-16 0.0 0.010000077150892829 0.009998451359817258 0.0 -1.0369785017415264e-15 0.0 0.01 0.0 -1.0369785017415264e-15 0.0 0.010000081550997573 0.009998439365413083 0.0 -4.163277098337622e-15 0.0 0.01 0.0 -4.163277098337622e-15 0.0 0.010000087901158979 0.009998420874124551 0.0 -1.0460463920707544e-14 0.0 0.01 0.0 -1.0460463920707544e-14 0.0 0.010000094751346656 0.009998396385819262 0.0 -2.3383239246054376e-14 0.0 0.01 0.0 -2.3383239246054376e-14 0.0 0.010000103501606867 0.009998363401855713 0.0 -4.170268797908626e-14 0.0 0.01 0.0 -4.170268797898286e-14 0.0 0.010000117202060418 0.009998178997528298 0.0 3.7710682715270484e-18 0.0 0.01 0.0 3.7710682715270484e-18 0.0 0.010000102551577501 0.009998178497801437 0.0 -1.7196311267831133e-16 0.0 0.01 0.0 -1.7196311267831133e-16 0.0 0.010000103051592922 0.00999817400026305 0.0 -1.0081700725476641e-15 0.0 0.01 0.0 -1.0081700725476641e-15 0.0 0.010000106951715776 0.009998164005755036 0.0 -3.7195819686178715e-15 0.0 0.01 0.0 -3.7195819686178715e-15 0.0 0.01000011475197517 0.00999815001349417 0.0 -1.355428995649754e-14 0.0 0.01 0.0 -1.355428995649754e-14 0.0 0.010000124002306448 0.00999812852549365 0.0 -3.530768419413881e-14 0.0 0.01 0.0 -3.530768419413881e-14 0.0 0.010000136252784677 0.009998098542468642 0.0 -7.686760341186404e-14 0.0 0.01 0.0 -7.686760341186404e-14 0.0 0.010000149403348138 0.009998059564939394 0.0 -1.324532425544469e-13 0.0 0.01 0.0 -1.324532425545503e-13 0.0 0.010000165054086336 0.00999789816284367 0.0 -5.845339619529486e-19 0.0 0.01 0.0 -5.845339619529486e-19 0.0 0.01000013770284426 0.009997896164105105 0.0 -3.9350139552655867e-16 0.0 0.01 0.0 -3.9350139552655867e-16 0.0 0.010000140152946372 0.00999789016789661 0.0 -2.788454269806706e-15 0.0 0.01 0.0 -2.788454269806706e-15 0.0 0.010000146503219415 0.009997879174875718 0.0 -1.2954793583458009e-14 0.0 0.01 0.0 -1.2954793583458009e-14 0.0 0.010000158703777955 0.009997863185091882 0.0 -3.9690399723110614e-14 0.0 0.01 0.0 -3.9690399723110614e-14 0.0 0.01000017430455721 0.009997837201856766 0.0 -1.0211396552848606e-13 0.0 0.01 0.0 -1.0211396552853776e-13 0.0 0.010000192405552843 0.009997802724415228 0.0 -2.0977629974235447e-13 0.0 0.01 0.0 -2.0977629974235447e-13 0.0 0.010000212406767305 0.009997756255384467 0.0 -3.4375610800088096e-13 0.0 0.01 0.0 -3.4375610800088096e-13 0.0 0.010000232908136678 0.009997658822423585 0.0 -1.1907961587887827e-18 0.0 0.01 0.0 -1.1907961587887827e-18 0.0 0.010000181154922448 0.009997656324179996 0.0 -1.7361492199482347e-15 0.0 0.01 0.0 -1.7361492199482347e-15 0.0 0.010000185055136683 0.009997648329813088 0.0 -8.897475263973457e-15 0.0 0.01 0.0 -8.897475263973457e-15 0.0 0.010000197255836327 0.009997636338298687 0.0 -3.2893408867966076e-14 0.0 0.01 0.0 -3.2893408867966076e-14 0.0 0.010000215356956594 0.009997615353252306 0.0 -9.580591832765083e-14 0.0 0.01 0.0 -9.580591832759913e-14 0.0 0.010000240258658356 0.009997585374843845 0.0 -2.326114832164737e-13 0.0 0.01 0.0 -2.326114832164737e-13 0.0 0.0100002680607781 0.009997544904420196 0.0 -4.485979171862063e-13 0.0 0.01 0.0 -4.485979171864131e-13 0.0 0.010000297863307852 0.00999749094461984 0.0 -7.051227060434806e-13 0.0 0.01 0.0 -7.051227060434806e-13 0.0 0.010000330566390396 0.009997511928882825 0.0 3.2400921788894454e-18 0.0 0.01 0.0 3.2400921788894454e-18 0.0 0.010000232908136676 0.00999750893112288 0.0 -2.6523137961119634e-15 0.0 0.01 0.0 -2.6523137961119634e-15 0.0 0.010000237808482661 0.009997500437484349 0.0 -1.7003185755360827e-14 0.0 0.01 0.0 -1.7003185755360827e-14 0.0 0.01000025730993092 0.009997485948386228 0.0 -6.21111521024959e-14 0.0 0.01 0.0 -6.21111521024959e-14 0.0 0.01000028516219716 0.009997462466188567 0.0 -1.8043000127990273e-13 0.0 0.01 0.0 -1.8043000128000613e-13 0.0 0.010000323265674427 0.009997427493009428 0.0 -4.200696805242216e-13 0.0 0.01 0.0 -4.200696805242216e-13 0.0 0.010000365720061697 0.009997382028425253 0.0 -7.80743768477768e-13 0.0 0.01 0.0 -7.807437684781816e-13 0.0 0.01000041162541393 0.009997320577280774 0.0 -1.1115738447296693e-12 0.0 0.01 0.0 -1.1115738447296693e-12 0.0 0.010000466832687878 0.009997524919207081 0.0 -8.892477745392867e-19 0.0 0.01 0.0 -8.892477745392867e-19 0.0 0.010000290562663508 0.009997521921435451 0.0 -3.035872498666005e-15 0.0 0.01 0.0 -3.035872498666005e-15 0.0 0.010000299313437743 0.009997511928882825 0.0 -2.145451625115205e-14 0.0 0.01 0.0 -2.145451625115205e-14 0.0 0.010000326165956941 0.00999749444198783 0.0 -8.643981248824587e-14 0.0 0.01 0.0 -8.643981248829757e-14 0.0 0.010000370120547369 0.009997468461627558 0.0 -2.6292292504489467e-13 0.0 0.01 0.0 -2.6292292504510146e-13 0.0 0.010000425827197776 0.009997430990310828 0.0 -6.10320828608574e-13 0.0 0.01 0.0 -6.103208286094012e-13 0.0 0.010000490286054707 0.009997381528817885 0.0 -1.073649576323263e-12 0.0 0.01 0.0 -1.0736495763240901e-12 0.0 0.01000056254746539 0.009997315081705168 0.0 -1.2637659097338317e-12 0.0 0.01 0.0 -1.2637659097338317e-12 0.0 0.01000065531440992 0.009997771744989392 0.0 -1.7534907816019703e-18 0.0 0.01 0.0 -1.7534907816019703e-18 0.0 0.010000354018798509 0.009997768247330374 0.0 -7.737911696857842e-16 0.0 0.01 0.0 -7.737911696857842e-16 0.0 0.010000367220226614 0.009997758753702972 0.0 -1.6228903674692915e-14 0.0 0.01 0.0 -1.6228903674692915e-14 0.0 0.010000406274757534 0.00999774026619038 0.0 -8.907729243843538e-14 0.0 0.01 0.0 -8.907729243843538e-14 0.0 0.010000468782961559 0.009997712285285325 0.0 -3.0105921849284304e-13 0.0 0.01 0.0 -3.0105921849284304e-13 0.0 0.010000548395107282 0.00999767481122692 0.0 -7.083314675622283e-13 0.0 0.01 0.0 -7.083314675622283e-13 0.0 0.010000642161850481 0.00999762434682743 0.0 -1.116028203773979e-12 0.0 0.01 0.0 -1.116028203773979e-12 0.0 0.01000075593570718 0.00999755989340869 0.0 -7.894683528222915e-13 0.0 0.01 0.0 -7.894683528227051e-13 0.0 0.010000906373211972 0.009998323421731478 0.0 8.023083745019387e-19 0.0 0.01 0.0 8.023083745019387e-19 0.0 0.010000422876822209 0.009998321422737856 0.0 2.8796278402610185e-15 0.0 0.01 0.0 2.8796278402610185e-15 0.0 0.010000441429227243 0.009998310428294367 0.0 4.74812350957087e-16 0.0 0.01 0.0 4.74812350957087e-16 0.0 0.01000049418663065 0.009998293936697138 0.0 -5.874570596560787e-14 0.0 0.01 0.0 -5.874570596560787e-14 0.0 0.010000580150482287 0.009998269449324521 0.0 -2.6466676891804234e-13 0.0 0.01 0.0 -2.6466676891804234e-13 0.0 0.01000069002141286 0.009998235966881739 0.0 -6.422038451254905e-13 0.0 0.01 0.0 -6.422038451254905e-13 0.0 0.010000824301909846 0.009998190491266807 0.0 -8.001839927489245e-13 0.0 0.01 0.0 -8.001839927485109e-13 0.0 0.010000993297976535 0.00999813602129205 0.0 5.012784639124327e-13 0.0 0.01 0.0 5.012784639126395e-13 0.0 0.010001224824992695 0.00999921709195135 0.0 1.0518326038969184e-18 0.0 0.01 0.0 1.0518326038969184e-18 0.0 0.010000494686704818 0.009999214592539423 0.0 8.302933115821538e-15 0.0 0.01 0.0 8.302933115821538e-15 0.0 0.010000518590337602 0.009999207594196 0.0 2.2893289871099085e-14 0.0 0.01 0.0 2.2893289871099085e-14 0.0 0.010000589902193588 0.00999919509719071 0.0 -5.119769700932113e-15 0.0 0.01 0.0 -5.119769700932113e-15 0.0 0.010000703674266653 0.009999177101585415 0.0 -1.645678691914444e-13 0.0 0.01 0.0 -1.645678691914444e-13 0.0 0.010000850708543441 0.009999153607469178 0.0 -4.354138430394313e-13 0.0 0.01 0.0 -4.354138430394313e-13 0.0 0.01000103481060279 0.009999123115352494 0.0 -2.324428840702788e-13 0.0 0.01 0.0 -2.324428840702788e-13 0.0 0.010001270241986226 0.009999089124469255 0.0 2.1357344949610306e-12 0.0 0.01 0.0 2.1357344949610306e-12 0.0 0.010001601434606799 0.010000417026085165 0.0 -3.3901075862361483e-18 0.0 0.01 0.0 -3.3901075862361483e-18 0.0 0.010000567448295982 0.010000416025960197 0.0 1.203627884764545e-14 0.0 0.01 0.0 1.2036278847748848e-14 0.0 0.010000598703762636 0.010000413575655311 0.0 4.0928032375280453e-14 0.0 0.01 0.0 4.092803237548725e-14 0.0 0.01000068952130939 0.010000409675173688 0.0 4.482130009186405e-14 0.0 0.01 0.0 4.482130009186405e-14 0.0 0.010000834104347904 0.010000402874344857 0.0 -5.6370765721257114e-14 0.0 0.01 0.0 -5.6370765721257114e-14 0.0 0.010001023106990773 0.010000396523583394 0.0 -2.1384503696050568e-13 0.0 0.01 0.0 -2.1384503696133286e-13 0.0 0.010001260488284558 0.010000388672658792 0.0 2.380010620297767e-13 0.0 0.01 0.0 2.380010620297767e-13 0.0 0.010001572170680395 0.01000038282198178 0.0 3.1221572619759154e-12 0.0 0.01 0.0 3.1221572619759154e-12 0.0 0.010002016209601294 0.010001784677647485 0.0 5.586829785736015e-18 0.0 0.01 0.0 5.586829785736015e-18 0.0 0.010000639711379362 0.01000178512788849 0.0 1.272347916509789e-14 0.0 0.01 0.0 1.272347916509789e-14 0.0 0.010000678769102872 0.010001788079469918 0.0 4.3378175246645144e-14 0.0 0.01 0.0 4.3378175246645144e-14 0.0 0.01000078914340227 0.01000179493315212 0.0 6.295721086893228e-14 0.0 0.01 0.0 6.295721086882889e-14 0.0 0.010000965489807586 0.010001805188688305 0.0 -2.5886618488064324e-15 0.0 0.01 0.0 -2.5886618488064324e-15 0.0 0.0100011970148924 0.010001817895591533 0.0 -1.152877277759098e-13 0.0 0.01 0.0 -1.1528772777508262e-13 0.0 0.010001489582762431 0.010001837406285246 0.0 2.9653433451051255e-13 0.0 0.01 0.0 2.9653433451051255e-13 0.0 0.010001877978888274 0.010001865772035927 0.0 2.8008055897617844e-12 0.0 0.01 0.0 2.8008055897485495e-12 0.0 0.010002429585145854 0.010003081974199484 0.0 -2.447684610251035e-19 0.0 0.01 0.0 -2.447684610251035e-19 0.0 0.010000707575092293 0.010003084926929178 0.0 9.793488626359173e-15 0.0 0.01 0.0 9.793488626359173e-15 0.0 0.010000753035050729 0.010003094685969657 0.0 3.311394795508826e-14 0.0 0.01 0.0 3.311394795508826e-14 0.0 0.010000882916917581 0.0100031103505405 0.0 4.447404116569493e-14 0.0 0.01 0.0 4.447404116572078e-14 0.0 0.01000108952803484 0.010003134773404792 0.0 -1.8729471407232655e-14 0.0 0.01 0.0 -1.8729471407232655e-14 0.0 0.01000136112784993 0.01000316995665696 0.0 -1.6133109687339815e-13 0.0 0.01 0.0 -1.6133109687319136e-13 0.0 0.010001704535717275 0.01000321590063763 0.0 -1.8702741720322212e-14 0.0 0.01 0.0 -1.8702741720322212e-14 0.0 0.010002159399249439 0.010003277010115762 0.0 1.453782931290396e-12 0.0 0.01 0.0 1.4537829312970134e-12 0.0 0.01000280638092419 0.010004037093403195 0.0 -4.056501572640061e-18 0.0 0.01 0.0 -4.056501572640061e-18 0.0 0.010000768638611716 0.010004040998130787 0.0 5.299785105759509e-15 0.0 0.01 0.0 5.299785105759509e-15 0.0 0.010000819900824583 0.010004055215382704 0.0 1.701921872794604e-14 0.0 0.01 0.0 1.701921872794604e-14 0.0 0.010000966940227932 0.010004079645168406 0.0 1.4352609108777722e-14 0.0 0.01 0.0 1.4352609108777722e-14 0.0 0.010001198465413481 0.010004115339009042 0.0 -5.804675766695886e-14 0.0 0.01 0.0 -5.804675766695886e-14 0.0 0.010001502788688213 0.010004167653953889 0.0 -2.2669737558989563e-13 0.0 0.01 0.0 -2.2669737558968883e-13 0.0 0.010001887734396666 0.010004236090149483 0.0 -3.478743826122935e-13 0.0 0.01 0.0 -3.478743826122935e-13 0.0 0.010002395860747342 0.010004324103063941 0.0 1.3576630814583013e-13 0.0 0.01 0.0 1.3576630814583013e-13 0.0 0.010003114254183028 0.010004483964088016 0.0 1.35434504669763e-18 0.0 0.01 0.0 1.35434504669763e-18 0.0 0.010000818950591026 0.01000448937135968 0.0 1.9656203578387133e-15 0.0 0.01 0.0 1.9656203578387133e-15 0.0 0.010000874614729259 0.010004505993768214 0.0 3.7655940531651014e-15 0.0 0.01 0.0 3.7655940531651014e-15 0.0 0.010001034810602789 0.010004534332161747 0.0 -7.747230860528854e-15 0.0 0.01 0.0 -7.747230860528854e-15 0.0 0.01000128684835419 0.010004579794257238 0.0 -7.162368256865146e-14 0.0 0.01 0.0 -7.162368256870316e-14 0.0 0.010001617592406146 0.010004641429431447 0.0 -2.2431140340299628e-13 0.0 0.01 0.0 -2.2431140340320308e-13 0.0 0.01000203041822236 0.010004724045383469 0.0 -4.333895017380104e-13 0.0 0.01 0.0 -4.3338950173759683e-13 0.0 0.010002573743282306 0.010004829646571184 0.0 -4.739281014985171e-13 0.0 0.01 0.0 -4.739281014985171e-13 0.0 0.010003340523118973 0.010004456577393047 0.0 5.00575267305426e-18 0.0 0.01 0.0 5.00575267305426e-18 0.0 0.0100008565600417 0.010004461483950745 0.0 9.225125784847146e-17 0.0 0.01 0.0 9.225125784847146e-17 0.0 0.010000914675479382 0.010004480058841712 0.0 -1.5086187092228544e-15 0.0 0.01 0.0 -1.5086187092228544e-15 0.0 0.01000108417629025 0.010004510349654031 0.0 -1.2884793853769951e-14 0.0 0.01 0.0 -1.2884793853769951e-14 0.0 0.010001350373477038 0.010004558765457618 0.0 -5.271776724512211e-14 0.0 0.01 0.0 -5.271776724517381e-14 0.0 0.010001697231991704 0.01000462625836086 0.0 -1.47370165933479e-13 0.0 0.01 0.0 -1.47370165933479e-13 0.0 0.010002129580073588 0.010004715232917743 0.0 -3.0495216924870516e-13 0.0 0.01 0.0 -3.0495216924911875e-13 0.0 0.010002693938204577 0.010004827243093024 0.0 -4.566401244138998e-13 0.0 0.01 0.0 -4.566401244138998e-13 0.0 0.010003484720645748 0.010004128054719182 0.0 -2.005878389137113e-18 0.0 0.01 0.0 -2.005878389137113e-18 0.0 0.010000880966401598 0.010004132910731515 0.0 -3.612971479791461e-16 0.0 0.01 0.0 -3.612971479791461e-16 0.0 0.010000940582687728 0.01000415103323174 0.0 -1.8310954283420196e-15 0.0 0.01 0.0 -1.8310954283420196e-15 0.0 0.010001114936434772 0.010004181321055551 0.0 -7.469760070461925e-15 0.0 0.01 0.0 -7.469760070461925e-15 0.0 0.010001389439527693 0.010004228730813067 0.0 -2.3448282748870943e-14 0.0 0.01 0.0 -2.3448282748870943e-14 0.0 0.010001745556939006 0.010004295265812214 0.0 -6.061880543391051e-14 0.0 0.01 0.0 -6.061880543385881e-14 0.0 0.010002186767083457 0.010004385683446717 0.0 -1.2693535152329874e-13 0.0 0.01 0.0 -1.2693535152309195e-13 0.0 0.010002759441757733 0.010004497181878675 0.0 -2.0736071430206592e-13 0.0 0.01 0.0 -2.0736071430206592e-13 0.0 0.010003560500672418 0.010003694446332015 0.0 3.7003152882189844e-18 0.0 0.01 0.0 3.7003152882189844e-18 0.0 0.010000890718992916 0.010003698851213397 0.0 -9.762635105105997e-17 0.0 0.01 0.0 -9.762635105105997e-17 0.0 0.010000951285724464 0.010003715920183705 0.0 -4.647924884067082e-16 0.0 0.01 0.0 -4.647924884067082e-16 0.0 0.010001128140876564 0.010003745252987797 0.0 -1.3138227929624796e-15 0.0 0.01 0.0 -1.3138227929624796e-15 0.0 0.010001403595456737 0.01000378975324638 0.0 -3.1381617434933216e-15 0.0 0.01 0.0 -3.1381617434933216e-15 0.0 0.010001762665939174 0.010003853776594964 0.0 -7.34198528499872e-15 0.0 0.01 0.0 -7.34198528499872e-15 0.0 0.010002206279935944 0.010003938375398973 0.0 -1.3708304725560234e-14 0.0 0.01 0.0 -1.3708304725560234e-14 0.0 0.010002779008003735 0.010004043951709824 0.0 -1.688808707242118e-14 0.0 0.01 0.0 -1.688808707242118e-14 0.0 0.01000357711845143 0.010003279912968956 0.0 6.910860137106064e-18 0.0 0.01 0.0 6.910860137106064e-18 0.0 0.010000886817952965 0.010003284817795617 0.0 1.333523866892384e-16 0.0 0.01 0.0 1.333523866892384e-16 0.0 0.010000947384613636 0.010003299982764505 0.0 2.5448811885700234e-16 0.0 0.01 0.0 2.5448811885700234e-16 0.0 0.010001122739053146 0.010003328310910936 0.0 3.042592893103124e-16 0.0 0.01 0.0 3.042592893103124e-16 0.0 0.010001397742998217 0.010003369402165918 0.0 2.621573986247693e-16 0.0 0.01 0.0 2.621573986247693e-16 0.0 0.010001753861296541 0.010003429012913404 0.0 9.007801096454682e-16 0.0 0.01 0.0 9.007801096454682e-16 0.0 0.010002191620269432 0.010003507694725555 0.0 9.188338560686807e-15 0.0 0.01 0.0 9.188338560686807e-15 0.0 0.01000275894134374 0.010003605949493432 0.0 4.576796243597282e-14 0.0 0.01 0.0 4.576796243597282e-14 0.0 0.010003544833986716 0.010002909469259311 0.0 9.33318241478197e-19 0.0 0.01 0.0 9.33318241478197e-19 0.0 0.01000087171396954 0.010002914373541082 0.0 1.7479466286280046e-16 0.0 0.01 0.0 1.7479466286280046e-16 0.0 0.01000093032981093 0.01000292803550691 0.0 -2.232892026682422e-17 0.0 0.01 0.0 -2.232892026682422e-17 0.0 0.010001103232541454 0.010002954408764109 0.0 -1.7140071857687577e-15 0.0 0.01 0.0 -1.7140071857687577e-15 0.0 0.010001372832648684 0.010002993043210097 0.0 -8.353839383550288e-15 0.0 0.01 0.0 -8.353839383550288e-15 0.0 0.010001721144248679 0.010003048243201737 0.0 -1.9992129843948476e-14 0.0 0.01 0.0 -1.9992129843974326e-14 0.0 0.010002149142623628 0.010003121561013375 0.0 -2.408832620249846e-14 0.0 0.01 0.0 -2.408832620249846e-14 0.0 0.01000270324573568 0.010003212997840155 0.0 2.3114953009509573e-14 0.0 0.01 0.0 2.311495300961297e-14 0.0 0.010003473008430684 0.010002535163732503 0.0 -7.023627539866076e-19 0.0 0.01 0.0 -7.023627539866076e-19 0.0 0.010000846307423315 0.010002540017425635 0.0 7.849587436558696e-17 0.0 0.01 0.0 7.849587436558696e-17 0.0 0.010000903422411063 0.010002553727895947 0.0 8.945520021767488e-17 0.0 0.01 0.0 8.945520021767488e-17 0.0 0.01000106997170142 0.010002577646296643 0.0 -3.821957077445565e-15 0.0 0.01 0.0 -3.821957077445565e-15 0.0 0.010001331315813084 0.010002614324846917 0.0 -1.761929158718147e-14 0.0 0.01 0.0 -1.761929158723317e-14 0.0 0.010001667917199385 0.010002667066607341 0.0 -4.6339186797443677e-14 0.0 0.01 0.0 -4.6339186797443677e-14 0.0 0.01000208270046555 0.010002735021642471 0.0 -7.006010151392012e-14 0.0 0.01 0.0 -7.006010151557448e-14 0.0 0.010002616726730588 0.010002820993251612 0.0 -1.422435112244451e-14 0.0 0.01 0.0 -1.422435112244451e-14 0.0 0.010003360092775117 0.010002098810566011 0.0 -2.2156337669114488e-18 0.0 0.01 0.0 -2.2156337669114488e-18 0.0 0.01000081259903685 0.010002104664255336 0.0 2.987697212184903e-16 0.0 0.01 0.0 2.987697212184903e-16 0.0 0.010000868263069024 0.010002116871982379 0.0 4.0616856372563575e-16 0.0 0.01 0.0 4.0616856372563575e-16 0.0 0.010001026508036182 0.010002140837281456 0.0 -2.2935724881530063e-15 0.0 0.01 0.0 -2.2935724881530063e-15 0.0 0.010001274643666059 0.01000217500939415 0.0 -1.828903325447467e-14 0.0 0.01 0.0 -1.8289033254422972e-14 0.0 0.01000159708251943 0.010002222440666895 0.0 -5.578953503118964e-14 0.0 0.01 0.0 -5.578953503118964e-14 0.0 0.010001992795526864 0.01000228693427111 0.0 -8.995169194637993e-14 0.0 0.01 0.0 -8.995169194637993e-14 0.0 0.010002502889354784 0.010002367540521882 0.0 -5.613217075033227e-15 0.0 0.01 0.0 -5.613217075033227e-15 0.0 0.010003212997840155 0.010001583375982549 0.0 3.7414329288547374e-19 0.0 0.01 0.0 3.7414329288547374e-19 0.0 0.010000773539745305 0.010001585827147415 0.0 1.321085727281326e-16 0.0 0.01 0.0 1.321085727281326e-16 0.0 0.010000825302157306 0.0100015975327351 0.0 1.1541878396507842e-15 0.0 0.01 0.0 1.1541878396507842e-15 0.0 0.010000975742792522 0.010001619043110227 0.0 2.149637189840126e-15 0.0 0.01 0.0 2.149637189840126e-15 0.0 0.010001208719114972 0.010001649357967535 0.0 -7.005491026074463e-15 0.0 0.01 0.0 -7.005491026074463e-15 0.0 0.010001511092441058 0.010001693780236558 0.0 -3.7849927245400597e-14 0.0 0.01 0.0 -3.7849927245400597e-14 0.0 0.010001883331907291 0.010001751910270926 0.0 -6.407136585823871e-14 0.0 0.01 0.0 -6.40713658584455e-14 0.0 0.010002365088782232 0.010001827150649957 0.0 6.584119726272641e-14 0.0 0.01 0.0 6.58411972628298e-14 0.0 0.01000303262896817 0.010001024107297885 0.0 1.814726418235167e-17 0.0 0.01 0.0 1.814726418235167e-17 0.0 0.01000073153026265 0.010001027508344317 0.0 -5.982012488161272e-16 0.0 0.01 0.0 -5.982012488161272e-16 0.0 0.010000779891225062 0.010001036311068839 0.0 -9.09147371791686e-16 0.0 0.01 0.0 -9.09147371791686e-16 0.0 0.010000918076414171 0.010001052916271558 0.0 3.4391460260980666e-15 0.0 0.01 0.0 3.4391460260980666e-15 0.0 0.010001134493031966 0.010001078274376277 0.0 3.928171549057537e-15 0.0 0.01 0.0 3.928171549057537e-15 0.0 0.010001416300829399 0.010001114436267552 0.0 -9.267198021124288e-15 0.0 0.01 0.0 -9.267198021124288e-15 0.0 0.010001760714908405 0.010001163753116682 0.0 -1.6792825405353626e-14 0.0 0.01 0.0 -1.6792825405353626e-14 0.0 0.010002206279935946 0.010001230677147664 0.0 1.5825858651959162e-13 0.0 0.01 0.0 1.582585865197984e-13 0.0 0.010002827348633175 0.010000491736268305 0.0 -2.2441646082656314e-17 0.0 0.01 0.0 -2.2441646082656314e-17 0.0 0.010000687570906563 0.010000493186482539 0.0 -2.438959582552099e-15 0.0 0.01 0.0 -2.438959582552099e-15 0.0 0.010000732030372427 0.010000500037503128 0.0 -6.2993886824225085e-15 0.0 0.01 0.0 -6.2993886824225085e-15 0.0 0.010000856560041703 0.010000511289209825 0.0 -1.6296543038228112e-15 0.0 0.01 0.0 -1.6296543038228112e-15 0.0 0.010001055367046435 0.010000528841948115 0.0 8.08417923813589e-15 0.0 0.01 0.0 8.08417923813589e-15 0.0 0.010001312758454978 0.010000555696316329 0.0 9.800340428671745e-15 0.0 0.01 0.0 9.800340428671745e-15 0.0 0.010001627347152637 0.010000593302797057 0.0 1.4615453792386012e-14 0.0 0.01 0.0 1.4615453792386012e-14 0.0 0.010002036772097142 0.010000648513079927 0.0 1.7556111462718294e-13 0.0 0.01 0.0 1.7556111462707954e-13 0.0 0.010002604517173216 0.010000046400322945 0.0 -1.638314690671398e-17 0.0 0.01 0.0 -1.638314690671398e-17 0.0 0.010000643112033645 0.010000048350350663 0.0 -3.721526738179885e-15 0.0 0.01 0.0 -3.721526738179885e-15 0.0 0.01000068221980723 0.010000050800387102 0.0 -1.0297972857321211e-14 0.0 0.01 0.0 -1.0297972857321211e-14 0.0 0.01000079499479246 0.010000056150472928 0.0 -7.442366192422746e-15 0.0 0.01 0.0 -7.442366192422746e-15 0.0 0.01000097474249992 0.010000066400661351 0.0 5.679350089016085e-15 0.0 0.01 0.0 5.679350089016085e-15 0.0 0.010001205768046433 0.01000008105098538 0.0 1.6900387030813988e-14 0.0 0.01 0.0 1.6900387030813988e-14 0.0 0.010001491033410812 0.010000106951715777 0.0 1.6917966307002973e-14 0.0 0.01 0.0 1.6917966307002973e-14 0.0 0.010001859418487021 0.010000148953327999 0.0 1.0658395563567279e-13 0.0 0.01 0.0 1.0658395563567279e-13 0.0 0.010002376346785302 0.009999711512484239 0.0 -6.487791241408817e-18 0.0 0.01 0.0 -6.487791241408817e-18 0.0 0.0100005991538435 0.009999711512484239 0.0 -4.795265927505497e-15 0.0 0.01 0.0 -4.795265927505497e-15 0.0 0.010000634810442529 0.009999712012441004 0.0 -1.2509277038040854e-14 0.0 0.01 0.0 -1.2509277038040854e-14 0.0 0.010000734931010603 0.009999712512397846 0.0 -1.1429044441001699e-14 0.0 0.01 0.0 -1.1429044441001699e-14 0.0 0.010000892719527999 0.009999714512225956 0.0 4.9009015217492124e-15 0.0 0.01 0.0 4.9009015217492124e-15 0.0 0.010001098831087933 0.009999721511633803 0.0 2.8220548027556294e-14 0.0 0.01 0.0 2.8220548027556294e-14 0.0 0.010001354275059476 0.009999737510335487 0.0 2.6552415981606735e-14 0.0 0.01 0.0 2.6552415981606735e-14 0.0 0.010001683525043078 0.009999768008073288 0.0 8.414202098386732e-15 0.0 0.01 0.0 8.414202098386732e-15 0.0 0.010002147641656642 0.009999477041025774 0.0 -7.153231070907606e-19 0.0 0.01 0.0 -7.153231070907606e-19 0.0 0.010000558146725689 0.009999476041182804 0.0 -4.5945606290813274e-15 0.0 0.01 0.0 -4.5945606290813274e-15 0.0 0.010000588902016754 0.009999475041340135 0.0 -1.3776668714576095e-14 0.0 0.01 0.0 -1.3776668714576095e-14 0.0 0.010000676818706335 0.00999947354157669 0.0 -1.561500446418939e-14 0.0 0.01 0.0 -1.561500446418939e-14 0.0 0.010000815549757364 0.009999472041813921 0.0 6.126874282397704e-15 0.0 0.01 0.0 6.126874282397704e-15 0.0 0.010000996248856996 0.009999473541576688 0.0 5.444557535820869e-14 0.0 0.01 0.0 5.444557535820869e-14 0.0 0.010001220923561756 0.009999482540167477 0.0 9.876791422100015e-14 0.0 0.01 0.0 9.876791422100015e-14 0.0 0.010001515944643566 0.009999508536232873 0.0 6.17315759926875e-14 0.0 0.01 0.0 6.17315759926875e-14 0.0 0.010001933160421932 0.009999323068741595 0.0 2.158860024913396e-18 0.0 0.01 0.0 2.158860024913396e-18 0.0 0.010000519590493338 0.009999323068741595 0.0 -5.522590363755059e-15 0.0 0.01 0.0 -5.522590363755059e-15 0.0 0.010000546444787022 0.009999321069148326 0.0 -1.7109684866277464e-14 0.0 0.01 0.0 -1.7109684866277464e-14 0.0 0.01000062165796399 0.009999317569862992 0.0 -2.2404663556592623e-14 0.0 0.01 0.0 -2.2404663556592623e-14 0.0 0.010000741282416799 0.009999315070375716 0.0 9.638003734170766e-15 0.0 0.01 0.0 9.638003734170766e-15 0.0 0.010000898571099995 0.00999931756986299 0.0 1.1436440252684214e-13 0.0 0.01 0.0 1.1436440252704893e-13 0.0 0.010001098330923127 0.009999326568032704 0.0 2.965153971082927e-13 0.0 0.01 0.0 2.965153971084995e-13 0.0 0.01000136502944495 0.00999935256288165 0.0 4.152960431888145e-13 0.0 0.01 0.0 4.152960431888145e-13 0.0 0.010001741154637374 0.009999227089617804 0.0 -3.018556391472369e-20 0.0 0.01 0.0 -3.018556391472369e-20 0.0 0.010000482934981677 0.009999227589501915 0.0 -7.375328525435331e-15 0.0 0.01 0.0 -7.375328525435331e-15 0.0 0.010000505388310021 0.00999922658973377 0.0 -2.4899541555154564e-14 0.0 0.01 0.0 -2.4899541555102866e-14 0.0 0.010000568398457848 0.009999225090082116 0.0 -3.449613779599505e-14 0.0 0.01 0.0 -3.449613779599505e-14 0.0 0.010000672417815779 0.009999224590198382 0.0 1.7152304447819117e-14 0.0 0.01 0.0 1.7152304447819117e-14 0.0 0.010000810648562012 0.009999229089154698 0.0 2.2433346159378213e-13 0.0 0.01 0.0 2.2433346159378213e-13 0.0 0.010000988896668159 0.009999243085946505 0.0 6.887591853724554e-13 0.0 0.01 0.0 6.88759185372869e-13 0.0 0.010001232177701871 0.009999276078616913 0.0 1.2400812037076775e-12 0.0 0.01 0.0 1.2400812037076775e-12 0.0 0.010001578973895066 0.009999177101585415 0.0 -2.255406023492749e-18 0.0 0.01 0.0 -2.255406023492749e-18 0.0 0.010000449230269362 0.009999177101585415 0.0 -1.0595369299304399e-14 0.0 0.01 0.0 -1.0595369299304399e-14 0.0 0.010000468282891275 0.009999176601708883 0.0 -3.4955282908949075e-14 0.0 0.01 0.0 -3.495528290884568e-14 0.0 0.010000521540797886 0.009999178601215478 0.0 -4.324421640690705e-14 0.0 0.01 0.0 -4.324421640690705e-14 0.0 0.010000609405701768 0.009999182600232283 0.0 5.314223688951566e-14 0.0 0.01 0.0 5.3142236889619057e-14 0.0 0.010000730530043326 0.009999195597070026 0.0 4.551764814952929e-13 0.0 0.01 0.0 4.551764814944657e-13 0.0 0.010000894670050858 0.009999218591599407 0.0 1.387819536422694e-12 0.0 0.01 0.0 1.3878195364218668e-12 0.0 0.010001123739390156 0.009999265081023825 0.0 1.0044050176013847e-11 0.0 0.01 0.0 1.0044050176000612e-11 0.0 0.010001453416801667 0.009999162605196255 0.0 -5.061361322235224e-18 0.0 0.01 0.0 -5.061361322235224e-18 0.0 0.010000417026085165 0.009999164104819798 0.0 -1.2348683637899468e-14 0.0 0.01 0.0 -1.2348683637899468e-14 0.0 0.010000431677950271 0.0099991671040689 0.0 -3.813463964760342e-14 0.0 0.01 0.0 -3.813463964770682e-14 0.0 0.010000477584210821 0.009999174102327316 0.0 -2.3203786751472942e-14 0.0 0.01 0.0 -2.3203786751472942e-14 0.0 0.010000554246074905 0.009999186599253878 0.0 1.9192966381259364e-13 0.0 0.01 0.0 1.9192966381280044e-13 0.0 0.010000665116351077 0.009999208593958444 0.0 9.458652433906233e-13 0.0 0.01 0.0 9.458652433914505e-13 0.0 0.010000821401193908 0.009999249584476969 0.0 2.569642661851879e-12 0.0 0.01 0.0 2.5696426618551875e-12 0.0 0.010001046064114628 0.009999312070993466 0.0 1.5934561415704328e-10 0.0 0.01 0.0 1.5934561415704328e-10 0.0 0.01000136648003914 0.009999188098888218 0.0 4.929059276089664e-18 0.0 0.01 0.0 4.929059276089664e-18 0.0 0.010000384322154393 0.009999190598280278 0.0 -7.432515235254384e-15 0.0 0.01 0.0 -7.432515235254384e-15 0.0 0.010000397973756205 0.009999197096708408 0.0 -7.465240406175737e-15 0.0 0.01 0.0 -7.465240406175737e-15 0.0 0.010000438528844446 0.009999211593247584 0.0 1.0074940408901671e-13 0.0 0.01 0.0 1.0074940408901671e-13 0.0 0.01000050883883491 0.009999236587428715 0.0 5.893397515110682e-13 0.0 0.01 0.0 5.893397515094138e-13 0.0 0.010000615306785709 0.009999277078399904 0.0 1.917103240692465e-12 0.0 0.01 0.0 1.9171032406941194e-12 0.0 0.0100007730396293 0.009999337565828674 0.0 5.666476693453114e-11 0.0 0.01 0.0 5.666476693453114e-11 0.0 0.010001001600460432 0.00999941655106607 0.0 1.1486861405740959e-09 0.0 0.01 0.0 1.1486861405740959e-09 0.0 0.010001317160191148 0.009999257582685704 0.0 -5.044096720726825e-19 0.0 0.01 0.0 -5.044096720726825e-19 0.0 0.010000356469059623 0.00999926158179727 0.0 1.452483730215862e-14 0.0 0.01 0.0 1.452483730215862e-14 0.0 0.010000368670386678 0.009999276078616913 0.0 1.071089868005935e-13 0.0 0.01 0.0 1.071089868008003e-13 0.0 0.010000407274879573 0.009999302073072102 0.0 4.587918989519183e-13 0.0 0.01 0.0 4.587918989510912e-13 0.0 0.010000476584067695 0.009999344064543345 0.0 1.4385459270415563e-12 0.0 0.01 0.0 1.4385459270415563e-12 0.0 0.010000588451937277 0.009999407052742137 0.0 4.904717081487543e-11 0.0 0.01 0.0 4.904717081487543e-11 0.0 0.010000753035050729 0.009999487539395167 0.0 7.851919995406154e-10 0.0 0.01 0.0 7.851919995397684e-10 0.0 0.010000988446534765 0.009999571527543624 0.0 5.004679577161141e-09 0.0 0.01 0.0 5.004679577161141e-09 0.0 0.01000129860291539 0.009999389055992448 0.0 6.571988929486814e-18 0.0 0.01 0.0 6.571988929486814e-18 0.0 0.010000337417076774 0.009999396554626347 0.0 7.701376157279762e-14 0.0 0.01 0.0 7.701376157290102e-14 0.0 0.010000349118281689 0.009999420050455125 0.0 3.853686738922574e-13 0.0 0.01 0.0 3.853686738922574e-13 0.0 0.010000390622886745 0.009999463043251477 0.0 5.45032323351353e-12 0.0 0.01 0.0 5.45032323351353e-12 0.0 0.01000046633261789 0.009999525033841071 0.0 1.0842882215122951e-10 0.0 0.01 0.0 1.0842882215165303e-10 0.0 0.010000585501417771 0.009999605023402332 0.0 9.129317928828365e-10 0.0 0.01 0.0 9.129317928828365e-10 0.0 0.010000760836822215 0.009999690514370869 0.0 4.527427318713284e-09 0.0 0.01 0.0 4.527427318713284e-09 0.0 0.01000100015002808 0.009999761508567304 0.0 1.5342988363736452e-08 0.0 0.01 0.0 1.5342988363736452e-08 0.0 0.01000129665218774 0.009999612022580139 0.0 4.785802412187564e-18 0.0 0.01 0.0 4.785802412187564e-18 0.0 0.010000332066539495 0.009999621521487981 0.0 1.7362034714363882e-12 0.0 0.01 0.0 1.7362034714363882e-12 0.0 0.010000347668130129 0.009999655017852724 0.0 4.115923446911041e-11 0.0 0.01 0.0 4.115923446921629e-11 0.0 0.01000039407329284 0.009999708012788993 0.0 3.0528475433188766e-10 0.0 0.01 0.0 3.0528475433188766e-10 0.0 0.010000479034418914 0.009999778007392664 0.0 1.495477546604242e-09 0.0 0.01 0.0 1.495477546604242e-09 0.0 0.010000609405702108 0.009999857003071598 0.0 5.367471641634484e-09 0.0 0.01 0.0 5.367471641648037e-09 0.0 0.010000791593987559 0.009999926500845503 0.0 1.5314812458049618e-08 0.0 0.01 0.0 1.5314812458076723e-08 0.0 0.010001024107333068 0.00999996250039845 0.0 3.535984124665263e-08 0.0 0.01 0.0 3.535984124665263e-08 0.0 0.01000129710251508 0.009999927500788429 0.0 -1.0743387884896448e-17 0.0 0.01 0.0 -1.0743387884896448e-17 0.0 0.010000352068591971 0.009999939500549032 0.0 7.493903517033933e-11 0.0 0.01 0.0 7.493903517033933e-11 0.0 0.01000036967049743 0.00999997200011765 0.0 5.632707459942018e-10 0.0 0.01 0.0 5.632707459908137e-10 0.0 0.010000423876949275 0.010000021950073067 0.0 2.304394778620232e-09 0.0 0.01 0.0 2.304394778620232e-09 0.0 0.010000517140113114 0.010000080550980579 0.0 6.986589046881209e-09 0.0 0.01 0.0 6.986589046881209e-09 0.0 0.010000651913750512 0.010000134302749814 0.0 1.7183114701566863e-08 0.0 0.01 0.0 1.7183114701621073e-08 0.0 0.01000083020341849 0.010000163104182785 0.0 3.581986009746404e-08 0.0 0.01 0.0 3.581986009746404e-08 0.0 0.010001046564464057 0.010000146953853569 0.0 6.400245116148454e-08 0.0 0.01 0.0 6.400245116148454e-08 0.0 0.010001289299915507 0.010000300313527692 0.0 -5.571078716829495e-17 0.0 0.01 0.0 -5.571078716829495e-17 0.0 0.010000400924109731 0.010000308614285858 0.0 4.4643861510699177e-10 0.0 0.01 0.0 4.4643861511376804e-10 0.0 0.010000418976329733 0.010000331566490588 0.0 2.4007224581500033e-09 0.0 0.01 0.0 2.4007224581228982e-09 0.0 0.010000477584211692 0.010000361369595824 0.0 7.559179775943996e-09 0.0 0.01 0.0 7.559179775889786e-09 0.0 0.01000057424946915 0.010000386272429444 0.0 1.8193165468062544e-08 0.0 0.01 0.0 1.8193165468170965e-08 0.0 0.010000704174421894 0.010000393073371996 0.0 3.6263189658568284e-08 0.0 0.01 0.0 3.6263189658568284e-08 0.0 0.010000867813149076 0.010000367220808232 0.0 6.227324631121172e-08 0.0 0.01 0.0 6.227324631132014e-08 0.0 0.010001060719326459 0.010000315916309337 0.0 9.451083659770248e-08 0.0 0.01 0.0 9.451083659770248e-08 0.0 0.010001283948575593 0.010000663165962532 0.0 3.242393213330403e-17 0.0 0.01 0.0 3.242393213330403e-17 0.0 0.010000472683512342 0.01000066461625155 0.0 1.1733055395177694e-09 0.0 0.01 0.0 1.1733055395177694e-09 0.0 0.01000049173626851 0.010000666066545382 0.0 5.533811755999065e-09 0.0 0.01 0.0 5.533811755999065e-09 0.0 0.010000549345268313 0.01000066216579789 0.0 1.5094051838276945e-08 0.0 0.01 0.0 1.5094051837409583e-08 0.0 0.010000640211509535 0.010000641161809638 0.0 3.1799120794005764e-08 0.0 0.01 0.0 3.179912079357208e-08 0.0 0.010000761337087936 0.010000603555110763 0.0 5.61828929594721e-08 0.0 0.01 0.0 5.6182892959038416e-08 0.0 0.010000911725144581 0.010000570349922511 0.0 8.686021981947449e-08 0.0 0.01 0.0 8.686021981969133e-08 0.0 0.010001091979968285 0.010000587453900598 0.0 1.1944448604413876e-07 0.0 0.01 0.0 1.1944448604392192e-07 0.0 0.010001303957140434 0.010000941532955955 0.0 1.5334996791594523e-17 0.0 0.01 0.0 1.5334996791594523e-17 0.0 0.010000560097052793 0.010000936631575913 0.0 1.889167207665501e-09 0.0 0.01 0.0 1.889167207672277e-09 0.0 0.010000577700057283 0.0100009234779166 0.0 8.419400836993766e-09 0.0 0.01 0.0 8.419400836939556e-09 0.0 0.010000633360177317 0.010000903422480546 0.0 2.152366104660533e-08 0.0 0.01 0.0 2.152366104682217e-08 0.0 0.010000718327461206 0.01000089271980246 0.0 4.2777404528349106e-08 0.0 0.01 0.0 4.2777404528349106e-08 0.0 0.010000833104372263 0.01000091322584675 0.0 7.141650010776546e-08 0.0 0.01 0.0 7.141650010776546e-08 0.0 0.010000972792695191 0.01000097914534165 0.0 1.0172591369435324e-07 0.0 0.01 0.0 1.0172591369435324e-07 0.0 0.010001141296905616 0.010001063171637667 0.0 1.1867564010279927e-07 0.0 0.01 0.0 1.1867564010279927e-07 0.0 0.010001342572438251 0.010001363578851393 0.0 -2.2048930153082108e-17 0.0 0.01 0.0 -2.2048930153082108e-17 0.0 0.010000649463264902 0.010001361628054869 0.0 2.1687613241334934e-09 0.0 0.01 0.0 2.1687613241334934e-09 0.0 0.010000667066741476 0.010001360627659467 0.0 9.557055947627055e-09 0.0 0.01 0.0 9.557055947627055e-09 0.0 0.010000717827297702 0.010001365979920967 0.0 2.4055629495312036e-08 0.0 0.01 0.0 2.4055629495312036e-08 0.0 0.010000799896051587 0.010001390440263363 0.0 4.60907249848902e-08 0.0 0.01 0.0 4.60907249848902e-08 0.0 0.010000910774729999 0.01000142805656992 0.0 6.960360086709881e-08 0.0 0.01 0.0 6.960360086731565e-08 0.0 0.010001050966382697 0.010001429007167384 0.0 7.818828250648335e-08 0.0 0.01 0.0 7.818828250691703e-08 0.0 0.010001221924845104 0.0100013313161482 0.0 4.726962921173389e-08 0.0 0.01 0.0 4.7269629210432845e-08 0.0 0.01000142120325038 0.010001995246992763 0.0 -2.310216501215341e-17 0.0 0.01 0.0 -2.310216501215341e-17 0.0 0.010000735431120886 0.010001982039116519 0.0 1.5228064734200988e-09 0.0 0.01 0.0 1.522806473421793e-09 0.0 0.010000751534712521 0.010001936112140982 0.0 6.617692615934706e-09 0.0 0.01 0.0 6.61769261592793e-09 0.0 0.010000800896211503 0.010001864271233524 0.0 1.5709956649505525e-08 0.0 0.01 0.0 1.5709956649505525e-08 0.0 0.010000885367604491 0.010001753861388178 0.0 2.471720356107864e-08 0.0 0.01 0.0 2.471720356102443e-08 0.0 0.010001012353799882 0.010001592180230452 0.0 1.9236971130517748e-08 0.0 0.01 0.0 1.9236971130517748e-08 0.0 0.010001177958160608 0.010001327414308923 0.0 -1.8513494081089793e-08 0.0 0.01 0.0 -1.851349408022243e-08 0.0 0.010001364529291606 0.01000192585619549 0.0 -5.2344300442452576e-17 0.0 0.01 0.0 -5.2344300442452576e-17 0.0 0.010000809648318945 0.010001887734396682 0.0 -3.368637094496149e-10 0.0 0.01 0.0 -3.368637094496149e-10 0.0 0.010000825302157323 0.010001770970340239 0.0 -2.4636015225456068e-09 0.0 0.01 0.0 -2.4636015225456068e-09 0.0 0.010000878515755839 0.010001571670462924 0.0 -1.1062649856775648e-08 0.0 0.01 0.0 -1.1062649856775648e-08 0.0 0.010000982544808528 0.01000130300482744 0.0 -3.6381589862705815e-08 0.0 0.01 0.0 -3.6381589862705815e-08 0.0 0.010001163753315197 0.009999995500003037 0.0 -6.63807802253791e-18 0.0 0.01 0.0 -6.63807802253791e-18 0.0 0.01 0.0099999960000024 0.0 6.014217393192871e-18 0.0 0.01 0.0 6.014217393192871e-18 0.0 0.01 0.0099999960000024 0.0 3.8236580000904175e-12 0.0 0.01 0.0 3.8236580000904175e-12 0.0 0.01 0.0099999960000024 0.0 -5.740891555702936e-18 0.0 0.01 0.0 -5.740891555702936e-18 0.0 0.01 0.009999996500001837 0.0 2.5623935715723958e-12 0.0 0.01 0.0 2.5623935715723958e-12 0.0 0.01 0.009999997000001351 0.0 -8.046131376241715e-18 0.0 0.01 0.0 -8.046131376241715e-18 0.0 0.01 0.0099999980000006 0.0 1.7161967746503646e-12 0.0 0.01 0.0 1.7161967746503646e-12 0.0 0.01 0.0099999940000054 0.0 5.345514688918221e-18 0.0 0.01 0.0 5.345514688918221e-18 0.0 0.01 0.009999994500004536 0.0 1.5004719626584393e-17 0.0 0.01 0.0 1.5004719626584393e-17 0.0 0.01 0.009999994500004536 0.0 5.109619286287432e-18 0.0 0.01 0.0 5.109619286287432e-18 0.0 0.01 0.009999994500004536 0.0 3.3709091816888597e-12 0.0 0.01 0.0 3.3709091816888597e-12 0.0 0.01 0.009999995500003037 0.0 1.1204579940727189e-17 0.0 0.01 0.0 1.1204579940727189e-17 0.0 0.01 0.0099999960000024 0.0 9.347734892458988e-18 0.0 0.01 0.0 9.347734892458988e-18 0.0 0.01 0.009999997000001351 0.0 -3.523725333683726e-12 0.0 0.01 0.0 -3.523725333683726e-12 0.0 0.01 0.009999998000000601 0.0 2.4220904231604574e-17 0.0 0.01 0.0 2.4220904231604574e-17 0.0 0.010000000000000002 0.009999992500008438 0.0 1.182872369202392e-17 0.0 0.01 0.0 1.182872369202392e-17 0.0 0.01 0.009999992500008438 0.0 1.8981107645217028e-17 0.0 0.01 0.0 1.8981107645217028e-17 0.0 0.01 0.009999992500008438 0.0 3.537752269914581e-18 0.0 0.01 0.0 3.537752269914581e-18 0.0 0.01 0.009999993000007349 0.0 -6.993889658014431e-18 0.0 0.01 0.0 -6.993889658014431e-18 0.0 0.01 0.009999994500004536 0.0 -5.10018329291998e-18 0.0 0.01 0.0 -5.10018329291998e-18 0.0 0.01 0.009999994500004536 0.0 3.370480970959314e-17 0.0 0.01 0.0 3.370480970959314e-17 0.0 0.01 0.0099999960000024 0.0 3.041769874875126e-17 0.0 0.01 0.0 3.041769874875126e-17 0.0 0.01 0.009999996500001837 0.0 2.6846592385189435e-17 0.0 0.01 0.0 2.6846592385189435e-17 0.0 0.009999999500000037 0.009999989500016538 0.0 -9.690949735275825e-18 0.0 0.01 0.0 -9.690949735275825e-18 0.0 0.01 0.009999990000015 0.0 -1.3897162499696657e-12 0.0 0.01 0.0 -1.3897162499696657e-12 0.0 0.01 0.009999990500013536 0.0 1.5420616529230185e-17 0.0 0.01 0.0 1.5420616529230185e-17 0.0 0.01 0.009999990500013536 0.0 -6.985345047076646e-18 0.0 0.01 0.0 -6.985345047076646e-18 0.0 0.01 0.009999992000009601 0.0 2.8154949718017104e-17 0.0 0.01 0.0 2.8154949718017104e-17 0.0 0.01 0.009999993000007349 0.0 2.914241140534217e-17 0.0 0.01 0.0 2.914241140534217e-17 0.0 0.01 0.00999999450000454 0.0 8.209189228139392e-15 0.0 0.01 0.0 8.209189228139392e-15 0.0 0.010000000000000004 0.009999996000002398 0.0 3.069616776638074e-14 0.0 0.01 0.0 3.069616777961563e-14 0.0 0.009999999500000035 0.009999987500023438 0.0 6.3020216572876575e-18 0.0 0.01 0.0 6.3020216572876575e-18 0.0 0.010000000500000038 0.0099999880000216 0.0 2.8550188250961272e-18 0.0 0.01 0.0 2.8550188250961272e-18 0.0 0.010000000500000038 0.0099999880000216 0.0 3.558747944644517e-17 0.0 0.01 0.0 3.558747944644517e-17 0.0 0.01 0.00999998900001815 0.0 1.0852772093675559e-17 0.0 0.01 0.0 1.0852772093675559e-17 0.0 0.01 0.00999998950001654 0.0 8.395027276061652e-14 0.0 0.01 0.0 8.395027276061652e-14 0.0 0.01 0.009999990500013541 0.0 7.419055427419928e-13 0.0 0.01 0.0 7.419055426361137e-13 0.0 0.010000000000000002 0.009999992500008438 0.0 2.07148696389518e-12 0.0 0.01 0.0 2.0714869634716633e-12 0.0 0.009999999500000033 0.009999994500004534 0.0 3.6200414190666044e-12 0.0 0.01 0.0 3.6200414207606703e-12 0.0 0.009999999000000146 0.009999982500045938 0.0 3.045314234586226e-17 0.0 0.01 0.0 3.045314234586226e-17 0.0 0.010000000500000038 0.00999998300004335 0.0 1.8265090794746888e-17 0.0 0.01 0.0 1.8265090794746888e-17 0.0 0.010000000500000038 0.009999983500040837 0.0 -9.000751626119099e-13 0.0 0.01 0.0 -9.000751626119099e-13 0.0 0.010000000500000038 0.009999985000033748 0.0 3.870179741724314e-13 0.0 0.01 0.0 3.870179742783105e-13 0.0 0.009999999999999998 0.009999985500031536 0.0 3.2256996841006262e-12 0.0 0.01 0.0 3.2256996845241427e-12 0.0 0.01 0.009999987500023441 0.0 1.1109265169974769e-11 0.0 0.01 0.0 1.1109265168280703e-11 0.0 0.010000000000000002 0.009999989500016536 0.0 2.3241456654864547e-11 0.0 0.01 0.0 2.324145665825268e-11 0.0 0.009999999500000037 0.0099999920000096 0.0 3.585185060883244e-11 0.0 0.01 0.0 3.585185060883244e-11 0.0 0.00999999900000015 0.009999977500075937 0.0 -2.0422181139398394e-17 0.0 0.01 0.0 -2.0422181139398394e-17 0.0 0.01000000100000015 0.0099999780000726 0.0 5.551634012231568e-17 0.0 0.01 0.0 5.551634012231568e-17 0.0 0.01000000100000015 0.009999978500069341 0.0 3.862915071802052e-13 0.0 0.01 0.0 3.862915071802052e-13 0.0 0.010000001000000154 0.009999979500063037 0.0 4.924105528520854e-12 0.0 0.01 0.0 4.924105528520854e-12 0.0 0.01000000050000004 0.009999981000054151 0.0 2.2781635071792393e-11 0.0 0.01 0.0 2.278163507348646e-11 0.0 0.010000000000000002 0.009999983000043348 0.0 6.212725157868663e-11 0.0 0.01 0.0 6.212725157191037e-11 0.0 0.01 0.009999985500031538 0.0 1.1913206803427362e-10 0.0 0.01 0.0 1.1913206803427362e-10 0.0 0.009999999000000152 0.009999989500016543 0.0 1.6977231943947173e-10 0.0 0.01 0.0 1.6977231941236667e-10 0.0 0.009999998500000344 0.009999969500139537 0.0 -5.334030897055243e-18 0.0 0.01 0.0 -5.334030897055243e-18 0.0 0.01000000100000015 0.009999969500139537 0.0 8.511273837860454e-14 0.0 0.01 0.0 8.511273837860454e-14 0.0 0.01000000100000015 0.009999971000126147 0.0 3.305923865424602e-12 0.0 0.01 0.0 3.305923865424602e-12 0.0 0.01000000100000015 0.009999972500113436 0.0 2.339749499425921e-11 0.0 0.01 0.0 2.339749499425921e-11 0.0 0.010000001000000149 0.009999974000101403 0.0 8.737051424549279e-11 0.0 0.01 0.0 8.737051425226905e-11 0.0 0.010000000000000002 0.009999976500082846 0.0 2.1893739325282678e-10 0.0 0.01 0.0 2.1893739323927425e-10 0.0 0.010000000000000007 0.009999979500063065 0.0 4.0473960969300733e-10 0.0 0.01 0.0 4.0473960969300733e-10 0.0 0.009999999000000174 0.009999983000043398 0.0 5.611219008969798e-10 0.0 0.01 0.0 5.611219008427697e-10 0.0 0.009999998000000648 0.00999996000024 0.0 4.5849305375698825e-17 0.0 0.01 0.0 4.5849305375698825e-17 0.0 0.010000001450000314 0.009999961500222337 0.0 8.110367535044871e-13 0.0 0.01 0.0 8.110367534780173e-13 0.0 0.010000001950000571 0.009999962000216599 0.0 1.2296388507042284e-11 0.0 0.01 0.0 1.2296388507465801e-11 0.0 0.010000001950000571 0.009999962500210935 0.0 6.861454396802778e-11 0.0 0.01 0.0 6.861454396802778e-11 0.0 0.010000001450000314 0.009999964500189045 0.0 2.337920301147614e-10 0.0 0.01 0.0 2.337920301147614e-10 0.0 0.010000001000000158 0.009999966500168385 0.0 5.698142867109363e-10 0.0 0.01 0.0 5.698142867380414e-10 0.0 0.01000000000000005 0.009999969500139701 0.0 1.0500465098123302e-09 0.0 0.01 0.0 1.05004650975812e-09 0.0 0.0099999985000005 0.009999973500105659 0.0 1.4647677683407231e-09 0.0 0.01 0.0 1.4647677683407231e-09 0.0 0.00999999700000167 0.009999948500397832 0.0 1.0061260974537972e-14 0.0 0.01 0.0 1.0061260974951562e-14 0.0 0.0100000024500009 0.009999948500397834 0.0 2.6058707226852236e-12 0.0 0.01 0.0 2.6058707227911027e-12 0.0 0.010000002950001304 0.009999950000374997 0.0 2.8784711352050358e-11 0.0 0.01 0.0 2.8784711352050358e-11 0.0 0.010000002950001306 0.009999950500367536 0.0 1.4485661267363411e-10 0.0 0.01 0.0 1.4485661267363411e-10 0.0 0.010000002450000902 0.009999952000345634 0.0 4.774559569595011e-10 0.0 0.01 0.0 4.774559569730536e-10 0.0 0.010000001950000607 0.0099999540003176 0.0 1.1648972122742067e-09 0.0 0.01 0.0 1.1648972122199966e-09 0.0 0.010000000000000205 0.009999956500284547 0.0 2.1826349672939005e-09 0.0 0.01 0.0 2.1826349674023207e-09 0.0 0.00999999850000105 0.009999961000229601 0.0 3.1132921026345156e-09 0.0 0.01 0.0 3.1132921026345156e-09 0.0 0.00999999650000329 0.009999931500703833 0.0 4.629856939596353e-14 0.0 0.01 0.0 4.629856939513635e-14 0.0 0.010000003400001737 0.009999932000693594 0.0 4.862494932529329e-12 0.0 0.01 0.0 4.862494932529329e-12 0.0 0.010000003400001733 0.009999934000653394 0.0 4.800936599614144e-11 0.0 0.01 0.0 4.800936599529441e-11 0.0 0.010000004900003603 0.009999934000653403 0.0 2.3357961424834385e-10 0.0 0.01 0.0 2.3357961424834385e-10 0.0 0.010000004900003611 0.009999935500624118 0.0 7.689417026696772e-10 0.0 0.01 0.0 7.689417026561247e-10 0.0 0.010000003400001824 0.009999936500605374 0.0 1.9063854563429287e-09 0.0 0.01 0.0 1.906385456397139e-09 0.0 0.010000001450000857 0.009999938500569338 0.0 3.6540906188462646e-09 0.0 0.01 0.0 3.6540906188462646e-09 0.0 0.009999998500002341 0.009999944000474645 0.0 5.321215911478772e-09 0.0 0.01 0.0 5.321215911695612e-09 0.0 0.009999994500008784 0.009999911501174824 0.0 5.547132813523416e-14 0.0 0.01 0.0 5.547132813523416e-14 0.0 0.010000005350004297 0.009999912001161586 0.0 5.931503909133009e-12 0.0 0.01 0.0 5.931503909133009e-12 0.0 0.010000005850005133 0.009999913501122322 0.0 5.938441105265253e-11 0.0 0.01 0.0 5.938441105265253e-11 0.0 0.010000006350006049 0.009999913501122334 0.0 2.9331669740089404e-10 0.0 0.01 0.0 2.933166974076703e-10 0.0 0.010000007800009139 0.009999914501096668 0.0 9.861676677770355e-10 0.0 0.01 0.0 9.861676677770355e-10 0.0 0.010000005850005279 0.009999917001034279 0.0 2.5075270101418065e-09 0.0 0.01 0.0 2.5075270101418065e-09 0.0 0.010000003400002674 0.00999991900098777 0.0 4.919752325037267e-09 0.0 0.01 0.0 4.919752324928847e-09 0.0 0.010000000000003633 0.009999923500885828 0.0 7.3030417683302845e-09 0.0 0.01 0.0 7.3030417683302845e-09 0.0 0.009999995500011042 0.009999886001949364 0.0 1.726089678058315e-14 0.0 0.01 0.0 1.726089678058315e-14 0.0 0.01000000635000605 0.00999988600194936 0.0 4.711762052027126e-12 0.0 0.01 0.0 4.711762052133005e-12 0.0 0.010000009300012972 0.009999886001949364 0.0 5.433386443232612e-11 0.0 0.01 0.0 5.4333864431479085e-11 0.0 0.01000001025001576 0.00999988750189841 0.0 2.863001618278512e-10 0.0 0.01 0.0 2.8630016183123935e-10 0.0 0.010000011250018995 0.009999888501864958 0.0 1.0055562536066473e-09 0.0 0.01 0.0 1.0055562535930948e-09 0.0 0.01000001075001749 0.009999890501799561 0.0 2.649804374782027e-09 0.0 0.01 0.0 2.649804374754922e-09 0.0 0.010000008800012668 0.009999893501705576 0.0 5.335596985176112e-09 0.0 0.01 0.0 5.3355969852303224e-09 0.0 0.010000003400006004 0.009999898501555006 0.0 8.038630360538215e-09 0.0 0.01 0.0 8.038630360429795e-09 0.0 0.010000001450010012 0.009999854003197323 0.0 1.6400012719129573e-16 0.0 0.01 0.0 1.6400012719129573e-16 0.0 0.010000009300012973 0.00999985350321926 0.0 2.1505117668416946e-12 0.0 0.01 0.0 2.150511766894634e-12 0.0 0.010000011700020536 0.00999985350321926 0.0 3.515608820370809e-11 0.0 0.01 0.0 3.515608820413161e-11 0.0 0.010000014650032195 0.009999853003241278 0.0 2.1225073931638522e-10 0.0 0.01 0.0 2.1225073931469115e-10 0.0 0.01000001710004387 0.009999855003153773 0.0 8.040595741981961e-10 0.0 0.01 0.0 8.040595741914199e-10 0.0 0.01000001710004396 0.00999985750304661 0.0 2.2314354422125603e-09 0.0 0.01 0.0 2.2314354422125603e-09 0.0 0.010000016100039626 0.009999861502880498 0.0 4.6363989093280156e-09 0.0 0.01 0.0 4.6363989093280156e-09 0.0 0.010000013200029365 0.009999869502561971 0.0 7.065379625218089e-09 0.0 0.01 0.0 7.065379625218089e-09 0.0 0.010000012200029815 0.009999812505273273 0.0 1.8937915370871604e-16 0.0 0.01 0.0 1.8937915370871604e-16 0.0 0.010000013200026137 0.009999811505329671 0.0 3.2611297123067024e-13 0.0 0.01 0.0 3.2611297123067024e-13 0.0 0.010000016600041337 0.009999811505329671 0.0 1.4158727764362218e-11 0.0 0.01 0.0 1.4158727764362218e-11 0.0 0.010000021000066153 0.00999981150532967 0.0 1.1233939821325044e-10 0.0 0.01 0.0 1.1233939821325044e-10 0.0 0.010000024900093003 0.009999812505273308 0.0 4.860247881103208e-10 0.0 0.01 0.0 4.860247881103208e-10 0.0 0.010000026850108173 0.009999815005133913 0.0 1.462396458581385e-09 0.0 0.01 0.0 1.462396458581385e-09 0.0 0.01000002685010846 0.009999819004915523 0.0 3.1863871692821687e-09 0.0 0.01 0.0 3.1863871692821687e-09 0.0 0.010000025900102143 0.009999826504518902 0.0 4.961073963802038e-09 0.0 0.01 0.0 4.961073963747828e-09 0.0 0.010000027850120037 0.009999761008567809 0.0 3.512594584072238e-16 0.0 0.01 0.0 3.512594584072238e-16 0.0 0.010000017100043862 0.00999975950867569 0.0 1.056390198383855e-15 0.0 0.01 0.0 1.056390198383855e-15 0.0 0.0100000224500756 0.009999758508747987 0.0 2.4472906211558244e-12 0.0 0.01 0.0 2.4472906211425895e-12 0.0 0.010000027850116347 0.009999757508820583 0.0 3.635023506957633e-11 0.0 0.01 0.0 3.635023506936457e-11 0.0 0.010000032700160397 0.009999758008784254 0.0 2.0278481747356455e-10 0.0 0.01 0.0 2.0278481747356455e-10 0.0 0.01000003710020647 0.009999759508675763 0.0 6.986500887773374e-10 0.0 0.01 0.0 6.986500887773374e-10 0.0 0.010000039050228811 0.009999763508389915 0.0 1.6562906938097344e-09 0.0 0.01 0.0 1.6562906938097344e-09 0.0 0.010000040050241011 0.009999770507901325 0.0 2.69722998028478e-09 0.0 0.01 0.0 2.6972299802712277e-09 0.0 0.010000043950290832 0.009999697513725245 0.0 2.468318463020155e-16 0.0 0.01 0.0 2.468318463020155e-16 0.0 0.0100000224500756 0.009999693514090618 0.0 1.2471841490572212e-15 0.0 0.01 0.0 1.2471841490572212e-15 0.0 0.010000028800124417 0.009999691014321412 0.0 6.728241087256644e-16 0.0 0.01 0.0 6.728241087256644e-16 0.0 0.010000036600200936 0.009999688514554085 0.0 4.347288154222166e-12 0.0 0.01 0.0 4.347288154222166e-12 0.0 0.010000044900302407 0.009999688014600841 0.0 4.548930482550389e-11 0.0 0.01 0.0 4.548930482571565e-11 0.0 0.01000005125039399 0.009999689514460794 0.0 2.065971674928413e-10 0.0 0.01 0.0 2.065971674928413e-10 0.0 0.010000054200440655 0.00999969251418276 0.0 5.676991201383644e-10 0.0 0.01 0.0 5.676991201383644e-10 0.0 0.010000057600497717 0.009999697513725396 0.0 1.0169882390579743e-09 0.0 0.01 0.0 1.0169882390545862e-09 0.0 0.010000062500586096 0.009999617521944539 0.0 2.6656263468987635e-16 0.0 0.01 0.0 2.6656263468987635e-16 0.0 0.010000027850116345 0.009999612522521982 0.0 1.688684593866733e-15 0.0 0.01 0.0 1.688684593866733e-15 0.0 0.010000037100206463 0.009999608522989338 0.0 1.2937482585380614e-15 0.0 0.01 0.0 1.2937482585380614e-15 0.0 0.010000048350350663 0.009999603523580277 0.0 -1.349882129902069e-14 0.0 0.01 0.0 -1.349882129902069e-14 0.0 0.010000057600497667 0.009999601023878563 0.0 1.8000378127995331e-12 0.0 0.01 0.0 1.8000378127995331e-12 0.0 0.01000006590065143 0.009999601023878564 0.0 2.23610983621355e-11 0.0 0.01 0.0 2.236109836208256e-11 0.0 0.010000071300762563 0.009999602523699368 0.0 8.765252410132056e-11 0.0 0.01 0.0 8.765252410153232e-11 0.0 0.010000075700859586 0.009999605023402212 0.0 1.860076255001336e-10 0.0 0.01 0.0 1.860076255001336e-10 0.0 0.01000008445106979 0.009999519534629265 0.0 -5.140768588516367e-17 0.0 0.01 0.0 -5.140768588516367e-17 0.0 0.010000035150185329 0.009999510535938606 0.0 1.7481651280632891e-15 0.0 0.01 0.0 1.7481651280632891e-15 0.0 0.01000004685032924 0.009999503536973778 0.0 1.436584159932828e-15 0.0 0.01 0.0 1.436584159932828e-15 0.0 0.010000060550549951 0.00999949703794817 0.0 -1.907196503026528e-14 0.0 0.01 0.0 -1.907196503031698e-14 0.0 0.01000007375081587 0.009999492038706325 0.0 -9.783383419687596e-14 0.0 0.01 0.0 -9.783383419687596e-14 0.0 0.010000085451095273 0.009999490538935233 0.0 -2.7136943645605804e-13 0.0 0.01 0.0 -2.7136943645605804e-13 0.0 0.010000092751290404 0.009999489539088212 0.0 1.0124315023751098e-13 0.0 0.01 0.0 1.0124315023751098e-13 0.0 0.01000010060151808 0.009999491038858853 0.0 2.6447035564739544e-12 0.0 0.01 0.0 2.6447035564739544e-12 0.0 0.010000110851843191 0.0099994000539946 0.0 -5.0660017047516007e-17 0.0 0.01 0.0 -5.0660017047516007e-17 0.0 0.010000042950276707 0.009999387556267694 0.0 2.1267788405970277e-15 0.0 0.01 0.0 2.1267788405970277e-15 0.0 0.010000058100506347 0.009999375058587646 0.0 1.5935934065359202e-15 0.0 0.01 0.0 1.5935934065359202e-15 0.0 0.010000076150869834 0.00999936456057262 0.0 -2.5576442232809135e-14 0.0 0.01 0.0 -2.5576442232809135e-14 0.0 0.010000093251304352 0.009999356062203724 0.0 -1.3805547896247476e-13 0.0 0.01 0.0 -1.3805547896247476e-13 0.0 0.010000108401762615 0.009999350063368138 0.0 -3.923051633318436e-13 0.0 0.01 0.0 -3.9230516333101643e-13 0.0 0.01000011865211172 0.009999348063758674 0.0 -7.051509256818955e-13 0.0 0.01 0.0 -7.051509256802412e-13 0.0 0.010000130352548727 0.009999348063758672 0.0 -7.158203177080429e-13 0.0 0.01 0.0 -7.158203177096972e-13 0.0 0.010000145503175618 0.009999253583578938 0.0 -4.951536841532701e-16 0.0 0.01 0.0 -4.951536841532701e-16 0.0 0.010000052750417389 0.009999235587657869 0.0 1.4737858595228865e-15 0.0 0.01 0.0 1.4737858595228865e-15 0.0 0.010000071300762562 0.00999921709195135 0.0 1.5190060804734224e-15 0.0 0.01 0.0 1.5190060804734224e-15 0.0 0.010000092751290404 0.009999199596107216 0.0 -3.708173659331945e-14 0.0 0.01 0.0 -3.708173659331945e-14 0.0 0.010000115702008013 0.009999185599498028 0.0 -1.9520286667276698e-13 0.0 0.01 0.0 -1.9520286667276698e-13 0.0 0.010000135752764271 0.009999175102079719 0.0 -5.618159679429359e-13 0.0 0.01 0.0 -5.618159679421087e-13 0.0 0.010000149403348143 0.009999169103569806 0.0 -1.008561877499374e-12 0.0 0.01 0.0 -1.0085618774977197e-12 0.0 0.010000167504208556 0.009999166104318901 0.0 -9.819397557597131e-13 0.0 0.01 0.0 -9.819397557597131e-13 0.0 0.010000191405495271 0.009999074628462721 0.0 -9.851787839643899e-16 0.0 0.01 0.0 -9.851787839643899e-16 0.0 0.010000064950632782 0.009999050635211141 0.0 6.950782165562046e-16 0.0 0.01 0.0 6.950782165562046e-16 0.0 0.010000086901132759 0.009999023643009562 0.0 -1.5409969828758644e-15 0.0 0.01 0.0 -1.5409969828758644e-15 0.0 0.010000113751940896 0.009998999650125007 0.0 -5.6016148461211615e-14 0.0 0.01 0.0 -5.6016148461211615e-14 0.0 0.010000141603007658 0.009998975657413157 0.0 -2.7933716696500733e-13 0.0 0.01 0.0 -2.793371669654209e-13 0.0 0.010000167004183465 0.00999895666330544 0.0 -7.943563680153028e-13 0.0 0.01 0.0 -7.9435636801613e-13 0.0 0.010000185055136685 0.009998942667716377 0.0 -1.4060046559761898e-12 0.0 0.01 0.0 -1.4060046559778442e-12 0.0 0.010000209456580623 0.009998934170423123 0.0 -1.2738698207214337e-12 0.0 0.01 0.0 -1.2738698207214337e-12 0.0 0.01000024755919253 0.009998860194902967 0.0 -3.475273907259272e-15 0.0 0.01 0.0 -3.475273907259272e-15 0.0 0.010000081550997573 0.009998827706173148 0.0 -2.367731818432844e-15 0.0 0.01 0.0 -2.367731818432844e-15 0.0 0.01000010595168384 0.009998792718664431 0.0 -1.2347672155694948e-14 0.0 0.01 0.0 -1.2347672155694948e-14 0.0 0.01000013770284426 0.009998756232082281 0.0 -9.800363961497468e-14 0.0 0.01 0.0 -9.800363961518147e-14 0.0 0.01000017185442999 0.009998720245707587 0.0 -4.2640602476322695e-13 0.0 0.01 0.0 -4.2640602476364054e-13 0.0 0.010000201156069404 0.009998689257751835 0.0 -1.1521071138740245e-12 0.0 0.01 0.0 -1.1521071138756789e-12 0.0 0.010000223157469667 0.009998663767875168 0.0 -1.941064594016223e-12 0.0 0.01 0.0 -1.9410645940178775e-12 0.0 0.010000258310008265 0.009998644275748085 0.0 -1.4839942558608667e-12 0.0 0.01 0.0 -1.4839942558608667e-12 0.0 0.010000316415017137 0.009998609290164884 0.0 -1.4507901538726894e-14 0.0 0.01 0.0 -1.4507901538726894e-14 0.0 0.01000010500165378 0.009998568307520208 0.0 -1.733515718052067e-14 0.0 0.01 0.0 -1.733515718052067e-14 0.0 0.010000133302665396 0.009998519828700935 0.0 -4.5750872367271096e-14 0.0 0.01 0.0 -4.5750872367271096e-14 0.0 0.010000168454256433 0.009998467852193486 0.0 -1.9998645016268984e-13 0.0 0.01 0.0 -1.9998645016227625e-13 0.0 0.010000208006489828 0.00999841537673423 0.0 -7.125748297729347e-13 0.0 0.01 0.0 -7.125748297737619e-13 0.0 0.010000241708763185 0.009998366900139404 0.0 -1.7598332030911445e-12 0.0 0.01 0.0 -1.7598332030894901e-12 0.0 0.010000264160466748 0.00999832642022416 0.0 -2.722236602347587e-12 0.0 0.01 0.0 -2.722236602347587e-12 0.0 0.010000308114239574 0.009998292937209018 0.0 -1.5291676948022308e-12 0.0 0.01 0.0 -1.529167694803058e-12 0.0 0.010000393573233764 0.009998320922989638 0.0 -5.915323588706289e-14 0.0 0.01 0.0 -5.915323588711459e-14 0.0 0.01000013720282364 0.009998268449843747 0.0 -7.226537853143377e-14 0.0 0.01 0.0 -7.226537853143377e-14 0.0 0.010000170404355548 0.00999820748208329 0.0 -1.405104824754869e-13 0.0 0.01 0.0 -1.4051048247528011e-13 0.0 0.010000210456643613 0.00999813752045375 0.0 -4.351576934411882e-13 0.0 0.01 0.0 -4.351576934411882e-13 0.0 0.0100002558598193 0.009998065061742832 0.0 -1.3065827239561472e-12 0.0 0.01 0.0 -1.30658272395532e-12 0.0 0.01000029151274646 0.009997994103704453 0.0 -2.924717248430595e-12 0.0 0.01 0.0 -2.924717248430595e-12 0.0 0.010000307164151893 0.009997930142823715 0.0 -4.093451100923212e-12 0.0 0.01 0.0 -4.093451100923212e-12 0.0 0.010000354518851654 0.009997875677103947 0.0 -1.4044482706798614e-12 0.0 0.01 0.0 -1.4044482706806886e-12 0.0 0.010000476584067695 0.009998008595012061 0.0 -1.8419009638261468e-13 0.0 0.01 0.0 -1.841900963824079e-13 0.0 0.010000188005301768 0.009997944633853206 0.0 -2.220481089377931e-13 0.0 0.01 0.0 -2.220481089377931e-13 0.0 0.01000022365750318 0.009997867182530644 0.0 -3.6601046138033494e-13 0.0 0.01 0.0 -3.6601046138033494e-13 0.0 0.010000272961175762 0.0099977767416515 0.0 -9.591235264655181e-13 0.0 0.01 0.0 -9.591235264655181e-13 0.0 0.010000324715815372 0.009997679308091681 0.0 -2.6144175400600843e-12 0.0 0.01 0.0 -2.6144175400617386e-12 0.0 0.010000360369478987 0.00999758437556821 0.0 -5.447728973960864e-12 0.0 0.01 0.0 -5.447728973960864e-12 0.0 0.010000360369478987 0.009997493442739458 0.0 -6.9868308029425004e-12 0.0 0.01 0.0 -6.9868308029425004e-12 0.0 0.01000039407329284 0.009997413004228453 0.0 -1.3810755962985605e-12 0.0 0.01 0.0 -1.3810755962993877e-12 0.0 0.010000555246241334 0.00999769579664771 0.0 -4.535577004873946e-13 0.0 0.01 0.0 -4.535577004876014e-13 0.0 0.010000263210391592 0.009997618351107983 0.0 -4.983782838996362e-13 0.0 0.01 0.0 -4.983782839000498e-13 0.0 0.01000030911433216 0.00999752441957829 0.0 -7.833405486664819e-13 0.0 0.01 0.0 -7.833405486668955e-13 0.0 0.010000371620714267 0.00999741350384054 0.0 -2.078439278000506e-12 0.0 0.01 0.0 -2.078439278000506e-12 0.0 0.010000435578457638 0.009997292100305373 0.0 -5.62624226707656e-12 0.0 0.01 0.0 -5.62624226707656e-12 0.0 0.010000470733236379 0.009997169702041592 0.0 -1.1385190902319813e-11 0.0 0.01 0.0 -1.1385190902313196e-11 0.0 0.010000440929161067 0.009997049806060383 0.0 -1.3874361883413801e-11 0.0 0.01 0.0 -1.3874361883413801e-11 0.0 0.010000430677820913 0.009996940404741517 0.0 -2.7244418168369672e-12 0.0 0.01 0.0 -2.7244418168369672e-12 0.0 0.010000623608328253 0.009997421997257503 0.0 -8.277225470868677e-13 0.0 0.01 0.0 -8.277225470876949e-13 0.0 0.01000037552115136 0.009997333067259036 0.0 -8.002027079158379e-13 0.0 0.01 0.0 -8.002027079158379e-13 0.0 0.01000044337948606 0.009997223157056897 0.0 -1.3655109733376595e-12 0.0 0.01 0.0 -1.3655109733376595e-12 0.0 0.010000531292337737 0.009997094266983515 0.0 -4.436769958039114e-12 0.0 0.01 0.0 -4.436769958039114e-12 0.0 0.010000619207507945 0.009996952393751911 0.0 -1.2816627815800273e-11 0.0 0.01 0.0 -1.2816627815800273e-11 0.0 0.010000659715277896 0.009996806030867745 0.0 -2.5831148124183973e-11 0.0 0.01 0.0 -2.5831148124170738e-11 0.0 0.010000582550900878 0.009996662171908506 0.0 -3.052414556183366e-11 0.0 0.01 0.0 -3.052414556183366e-11 0.0 0.010000482934981677 0.009996528808212729 0.0 -8.305404052338514e-12 0.0 0.01 0.0 -8.305404052341822e-12 0.0 0.010000676818706339 0.009997241641700965 0.0 -1.0494685510054162e-12 0.0 0.01 0.0 -1.0494685510058298e-12 0.0 0.010000543494304698 0.00999714422378464 0.0 -6.742732085504181e-13 0.0 0.01 0.0 -6.742732085500045e-13 0.0 0.010000651913743192 0.0099970243287201 0.0 -1.866631221352643e-12 0.0 0.01 0.0 -1.8666312213518156e-12 0.0 0.010000787192941153 0.00999688595519545 0.0 -9.336175642738683e-12 0.0 0.01 0.0 -9.336175642735375e-12 0.0 0.010000917626290252 0.009996734100611793 0.0 -2.937589704079661e-11 0.0 0.01 0.0 -2.9375897040809844e-11 0.0 0.010000971841653074 0.009996577258076643 0.0 -5.932060153808646e-11 0.0 0.01 0.0 -5.932060153811293e-11 0.0 0.010000836554961924 0.009996420922386843 0.0 -6.867325415149845e-11 0.0 0.01 0.0 -6.867325415147198e-11 0.0 0.010000600654113474 0.009996272085638467 0.0 -2.325060391510879e-11 0.0 0.01 0.0 -2.325060391510879e-11 0.0 0.010000741282416799 0.009997233648328786 0.0 -5.187402106236405e-13 0.0 0.01 0.0 -5.187402106234337e-13 0.0 0.010000784292257507 0.009997131234944301 0.0 7.635840411707503e-13 0.0 0.01 0.0 7.635840411707503e-13 0.0 0.010000964489518064 0.00999701183989895 0.0 -1.8324122441037435e-12 0.0 0.01 0.0 -1.8324122441045706e-12 0.0 0.010001179408617897 0.009996877463144607 0.0 -1.893894201029019e-11 0.0 0.01 0.0 -1.893894201029019e-11 0.0 0.010001377734670629 0.009996735099632493 0.0 -6.363371406683876e-11 0.0 0.01 0.0 -6.363371406683876e-11 0.0 0.010001453416801668 0.009996587247826911 0.0 -1.2860086754664817e-10 0.0 0.01 0.0 -1.2860086754659523e-10 0.0 0.010001261938833264 0.00999643790418335 0.0 -1.467307631378886e-10 0.0 0.01 0.0 -1.467307631378886e-10 0.0 0.010000880016150637 0.00999629705778311 0.0 -5.4552845726146436e-11 0.0 0.01 0.0 -5.4552845726146436e-11 0.0 0.010000898070965237 0.009997481451782378 0.0 1.4437370482676713e-12 0.0 0.01 0.0 1.4437370482676713e-12 0.0 0.010001119337909564 0.00999738802371953 0.0 4.444457289163337e-12 0.0 0.01 0.0 4.444457289164991e-12 0.0 0.01000140799731265 0.009997283607219474 0.0 -1.0053538538919072e-12 0.0 0.01 0.0 -1.0053538538919072e-12 0.0 0.010001737752862826 0.009997173199072451 0.0 -3.5673925906702605e-11 0.0 0.01 0.0 -3.567392590671584e-11 0.0 0.01000202891730882 0.009997062295023822 0.0 -1.2345924879012477e-10 0.0 0.01 0.0 -1.2345924879012477e-10 0.0 0.010002144239467317 0.009996949396495274 0.0 -2.476464591553349e-10 0.0 0.01 0.0 -2.4764645915544075e-10 0.0 0.01000191510000077 0.009996836501791586 0.0 -2.796815280428878e-10 0.0 0.01 0.0 -2.7968152804309954e-10 0.0 0.010001469073663226 0.009996728606003301 0.0 -1.0748988944099107e-10 0.0 0.01 0.0 -1.0748988944104401e-10 0.0 0.010001321561932739 0.009998073057109471 0.0 4.97907719474367e-12 0.0 0.01 0.0 4.97907719474367e-12 0.0 0.010001555062657787 0.00999800309830176 0.0 1.015049073863581e-11 0.0 0.01 0.0 1.0150490738632502e-11 0.0 0.010001988392898759 0.009997932141582656 0.0 -3.248100823830819e-14 0.0 0.01 0.0 -3.248100823830819e-14 0.0 0.010002469664585305 0.00999786618317051 0.0 -5.997273494909369e-11 0.0 0.01 0.0 -5.997273494909369e-11 0.0 0.010002885048045237 0.00999780922013782 0.0 -2.0542049930822312e-10 0.0 0.01 0.0 -2.0542049930817018e-10 0.0 0.01000307271565723 0.00999775625538449 0.0 -4.0445340143843775e-10 0.0 0.01 0.0 -4.0445340143854363e-10 0.0 0.010002942197970164 0.009997705290095799 0.0 -4.516431446126232e-10 0.0 0.01 0.0 -4.516431446126232e-10 0.0 0.010002640195226701 0.009997654825234747 0.0 -1.754008810221378e-10 0.0 0.01 0.0 -1.754008810221378e-10 0.0 0.010002356782902119 0.009999052134784307 0.0 8.78947192480942e-12 0.0 0.01 0.0 8.789471924806111e-12 0.0 0.010002075345880357 0.009999019644183479 0.0 1.5556608472241136e-11 0.0 0.01 0.0 1.5556608472247754e-11 0.0 0.010002685181142586 0.009998997650725755 0.0 -5.366171793179557e-13 0.0 0.01 0.0 -5.366171793179557e-13 0.0 0.010003348831450005 0.009998993651930854 0.0 -8.61820861251355e-11 0.0 0.01 0.0 -8.61820861251355e-11 0.0 0.010003927112120743 0.009999005148479139 0.0 -2.856464418865467e-10 0.0 0.01 0.0 -2.856464418865467e-10 0.0 0.010004312337835653 0.00999902814169469 0.0 -5.489479928113741e-10 0.0 0.01 0.0 -5.489479928113741e-10 0.0 0.010004602275192098 0.00999905263464223 0.0 -5.99122923015439e-10 0.0 0.01 0.0 -5.991229230156508e-10 0.0 0.0100047846817876 0.009999077127769703 0.0 -2.2961130271301964e-10 0.0 0.01 0.0 -2.2961130271301964e-10 0.0 0.010004379325094391 0.010000382321924392 0.0 1.0576319328274257e-11 0.0 0.01 0.0 1.0576319328274257e-11 0.0 0.010002644598715556 0.010000396523583397 0.0 1.7313445904067213e-11 0.0 0.01 0.0 1.7313445904080448e-11 0.0 0.010003444629003256 0.010000431177885554 0.0 -3.2128223376535444e-12 0.0 0.01 0.0 -3.21282233765189e-12 0.0 0.010004309434083553 0.010000490736120932 0.0 -1.0183818158936291e-10 0.0 0.01 0.0 -1.0183818158938938e-10 0.0 0.010005090334088886 0.01000057229912521 0.0 -3.2115566299343993e-10 0.0 0.01 0.0 -3.211556629935458e-10 0.0 0.010005791627559933 0.010000668517031332 0.0 -6.009666943588077e-10 0.0 0.01 0.0 -6.009666943588077e-10 0.0 0.010006790109582343 0.010000771089177674 0.0 -6.345088787932623e-10 0.0 0.01 0.0 -6.345088787932623e-10 0.0 0.010007680689896208 0.010000870213577581 0.0 -2.2787134482838572e-10 0.0 0.01 0.0 -2.2787134482843866e-10 0.0 0.010007043083773063 0.0100019072955277 0.0 9.106511332268e-12 0.0 0.01 0.0 9.106511332268e-12 0.0 0.010003209544515423 0.010001967880730808 0.0 1.4125293003075636e-11 0.0 0.01 0.0 1.4125293003075636e-11 0.0 0.010004194537646697 0.010002055833794153 0.0 -6.291748550335914e-12 0.0 0.01 0.0 -6.291748550335914e-12 0.0 0.010005247277200036 0.01000216915558132 0.0 -9.569322010675343e-11 0.0 0.01 0.0 -9.569322010670049e-11 0.0 0.010006226009656392 0.01000230499670663 0.0 -2.8487139954966395e-10 0.0 0.01 0.0 -2.8487139954966395e-10 0.0 0.01000723539507254 0.010002456454829228 0.0 -5.158138980825768e-10 0.0 0.01 0.0 -5.158138980826827e-10 0.0 0.010008858908148472 0.010002618728301675 0.0 -5.238633792405705e-10 0.0 0.01 0.0 -5.238633792405705e-10 0.0 0.010010237399220408 0.010002774604337336 0.0 -1.8765706464584697e-10 0.0 0.01 0.0 -1.8765706464584697e-10 0.0 0.010009233974213196 0.010003356689348406 0.0 5.412361000033704e-12 0.0 0.01 0.0 5.412361000060174e-12 0.0 0.0100037154696819 0.010003459794698976 0.0 8.27307416621824e-12 0.0 0.01 0.0 8.27307416621824e-12 0.0 0.0100048545827593 0.010003586378394345 0.0 -7.057134781675532e-12 0.0 0.01 0.0 -7.057134781678841e-12 0.0 0.010006068018662367 0.010003735992603685 0.0 -7.022095709596235e-11 0.0 0.01 0.0 -7.022095709596235e-11 0.0 0.01000720016890607 0.010003900731169085 0.0 -1.992786506156318e-10 0.0 0.01 0.0 -1.9927865061568474e-10 0.0 0.010008400723979806 0.010004078193393374 0.0 -3.515476517876442e-10 0.0 0.01 0.0 -3.515476517875383e-10 0.0 0.010010327025118573 0.010004263975673616 0.0 -3.586765047920901e-10 0.0 0.01 0.0 -3.5867650479230186e-10 0.0 0.010011770750014448 0.010004438002632876 0.0 -1.6942970883361997e-10 0.0 0.01 0.0 -1.6942970883361997e-10 0.0 0.010010345632699705 0.010004432645511015 0.0 1.895549342429041e-12 0.0 0.01 0.0 1.895549342429041e-12 0.0 0.010004119744446437 0.010004565624837206 0.0 3.181163947189024e-12 0.0 0.01 0.0 3.1811639471956416e-12 0.0 0.010005375431184658 0.010004717185678023 0.0 -5.264296059095426e-12 0.0 0.01 0.0 -5.2642960590987345e-12 0.0 0.01000670498750496 0.010004881972722968 0.0 -4.0555115092660324e-11 0.0 0.01 0.0 -4.0555115092633854e-11 0.0 0.010007927867707326 0.010005051174578772 0.0 -1.1420888616225334e-10 0.0 0.01 0.0 -1.1420888616225334e-10 0.0 0.010009181078369888 0.010005225292701045 0.0 -2.0400377708891444e-10 0.0 0.01 0.0 -2.0400377708896738e-10 0.0 0.010011109786717142 0.010005397416673377 0.0 -2.289896045131023e-10 0.0 0.01 0.0 -2.289896045131023e-10 0.0 0.010012335788265481 0.010005556377571265 0.0 -1.1640272957007256e-10 0.0 0.01 0.0 -1.1640272957007256e-10 0.0 0.010010649286974939 0.010004958285252458 0.0 -4.856000192628226e-15 0.0 0.01 0.0 -4.856000192628226e-15 0.0 0.010004408663734568 0.010005105957960374 0.0 4.615789798325914e-13 0.0 0.01 0.0 4.615789798325914e-13 0.0 0.010005740789718758 0.010005265856468212 0.0 -2.739472346263324e-12 0.0 0.01 0.0 -2.739472346263324e-12 0.0 0.01000714289586195 0.010005430219892935 0.0 -1.7296821415409665e-11 0.0 0.01 0.0 -1.7296821415416283e-11 0.0 0.010008411952248846 0.010005588681515538 0.0 -5.0097191466806455e-11 0.0 0.01 0.0 -5.0097191466806455e-11 0.0 0.010009646741009 0.010005739287134259 0.0 -9.340208105486111e-11 0.0 0.01 0.0 -9.340208105486111e-11 0.0 0.010011453748243328 0.010005876776418877 0.0 -1.066286465553524e-10 0.0 0.01 0.0 -1.0662864655529946e-10 0.0 0.010012469584864308 0.01000600049657604 0.0 -3.690247418637244e-11 0.0 0.01 0.0 -3.690247418637244e-11 0.0 0.010010619943556908 0.010004962191058817 0.0 -4.533477057101047e-13 0.0 0.01 0.0 -4.533477057101047e-13 0.0 0.010004588105676504 0.010005112818465531 0.0 -3.304459401391098e-13 0.0 0.01 0.0 -3.304459401391098e-13 0.0 0.010005960875572753 0.010005270764216707 0.0 -9.673336670456606e-13 0.0 0.01 0.0 -9.673336670456606e-13 0.0 0.010007403714138271 0.010005423358734833 0.0 -4.611283753220735e-12 0.0 0.01 0.0 -4.611283753222389e-12 0.0 0.010008695879611255 0.01000556373983801 0.0 -1.3675638564402729e-11 0.0 0.01 0.0 -1.3675638564402729e-11 0.0 0.010009903843512885 0.01000568304087475 0.0 -2.5881162572868073e-11 0.0 0.01 0.0 -2.5881162572868073e-11 0.0 0.01001159925022419 0.010005785767394868 0.0 -2.567225928136876e-11 0.0 0.01 0.0 -2.5672259281362143e-11 0.0 0.010012462207342726 0.010005872368659885 0.0 1.0403847668024279e-11 0.0 0.01 0.0 1.0403847668024279e-11 0.0 0.010010524892718092 0.010004628711763634 0.0 -2.649490198018135e-13 0.0 0.01 0.0 -2.649490198018135e-13 0.0 0.01000467467584726 0.01000477441708341 0.0 -2.474783865865078e-13 0.0 0.01 0.0 -2.474783865860942e-13 0.0 0.010006061657101845 0.010004922081649695 0.0 -1.9648935065788095e-13 0.0 0.01 0.0 -1.9648935065808774e-13 0.0 0.010007522128858975 0.010005060989451172 0.0 -2.7817253632470566e-13 0.0 0.01 0.0 -2.7817253632460227e-13 0.0 0.010008823664834616 0.010005179321028002 0.0 -6.444956527093778e-13 0.0 0.01 0.0 -6.444956527093778e-13 0.0 0.01001001402203646 0.01000527517118069 0.0 -6.01129119604425e-13 0.0 0.01 0.0 -6.011291196048386e-13 0.0 0.010011644306951548 0.010005346584840712 0.0 3.146825205938355e-12 0.0 0.01 0.0 3.146825205938355e-12 0.0 0.010012432797792929 0.010005401322994045 0.0 1.5288718372649056e-11 0.0 0.01 0.0 1.5288718372649056e-11 0.0 0.01001047052184612 0.010004169105767891 0.0 -6.570336737349001e-15 0.0 0.01 0.0 -6.570336737349001e-15 0.0 0.010004687844323477 0.010004304527749561 0.0 1.522189969198013e-14 0.0 0.01 0.0 1.522189969198013e-14 0.0 0.010006074380235026 0.010004441457230031 0.0 7.215717233054756e-15 0.0 0.01 0.0 7.215717233054756e-15 0.0 0.010007533404284319 0.01000456512415209 0.0 -5.651055038120227e-14 0.0 0.01 0.0 -5.651055038120227e-14 0.0 0.010008834443333461 0.010004667315542903 0.0 1.0681088413355558e-15 0.0 0.01 0.0 1.0681088413355558e-15 0.0 0.01001001748241315 0.010004744073801277 0.0 6.835504299967474e-13 0.0 0.01 0.0 6.835504299969542e-13 0.0 0.010011632064306199 0.010004795447242908 0.0 2.3230497026357958e-12 0.0 0.01 0.0 2.3230497026357958e-12 0.0 0.01001241909684542 0.010004829195918899 0.0 4.008456212184915e-12 0.0 0.01 0.0 4.0084562121840876e-12 0.0 0.010010476891819437 0.010003721326210113 0.0 1.399206204644726e-13 0.0 0.01 0.0 1.399206204646794e-13 0.0 0.010004641880058352 0.010003846968737178 0.0 2.3727187170151404e-13 0.0 0.01 0.0 2.3727187170151404e-13 0.0 0.010006012267761256 0.010003972115402323 0.0 -5.642718679008394e-14 0.0 0.01 0.0 -5.642718679008394e-14 0.0 0.010007458035054102 0.010004085502336248 0.0 -1.5429072047154981e-12 0.0 0.01 0.0 -1.5429072047154981e-12 0.0 0.010008751224199336 0.010004176464972724 0.0 -4.729285162075973e-12 0.0 0.01 0.0 -4.729285162075973e-12 0.0 0.010009935186600614 0.010004242448228715 0.0 -8.424660331614572e-12 0.0 0.01 0.0 -8.424660331612918e-12 0.0 0.01001157672208863 0.010004284501971406 0.0 -9.051275783900535e-12 0.0 0.01 0.0 -9.051275783898881e-12 0.0 0.010012424466807156 0.010004308432790314 0.0 -4.491866190329225e-12 0.0 0.01 0.0 -4.491866190330052e-12 0.0 0.010010534222126501 0.010003321454076033 0.0 2.0964698317245952e-13 0.0 0.01 0.0 2.0964698317266632e-13 0.0 0.010004543644831273 0.010003437821980739 0.0 4.164398486970307e-13 0.0 0.01 0.0 4.164398486966171e-13 0.0 0.01000588459018777 0.010003556596507434 0.0 -3.5872091166105673e-13 0.0 0.01 0.0 -3.5872091166105673e-13 0.0 0.010007303393148636 0.010003661660181849 0.0 -4.3526966587920194e-12 0.0 0.01 0.0 -4.3526966587920194e-12 0.0 0.010008574966911777 0.010003747705742493 0.0 -1.3387951731989086e-11 0.0 0.01 0.0 -1.3387951731985777e-11 0.0 0.010009750592590386 0.010003809776053633 0.0 -2.4768406073796175e-11 0.0 0.01 0.0 -2.4768406073796175e-11 0.0 0.010011389528697304 0.010003849872086594 0.0 -2.7462673513409874e-11 0.0 0.01 0.0 -2.7462673513416492e-11 0.0 0.010012266683870763 0.01000387334926352 0.0 -1.1508101702126675e-11 0.0 0.01 0.0 -1.1508101702123367e-11 0.0 0.010010437719183952 0.010002923131205045 0.0 2.8574552937054317e-13 0.0 0.01 0.0 2.8574552937137035e-13 0.0 0.010004396948273916 0.010003036032064124 0.0 6.163343258095995e-13 0.0 0.01 0.0 6.163343258095995e-13 0.0 0.01000569626341859 0.010003150888589437 0.0 -9.51425855306533e-13 0.0 0.01 0.0 -9.51425855306533e-13 0.0 0.01000707389893361 0.010003254037625291 0.0 -8.75828619812189e-12 0.0 0.01 0.0 -8.758286198125198e-12 0.0 0.010008310147316443 0.010003340072667883 0.0 -2.6540816143908694e-11 0.0 0.01 0.0 -2.6540816143915312e-11 0.0 0.010009456246197127 0.010003405538864652 0.0 -4.937340934291822e-11 0.0 0.01 0.0 -4.937340934291822e-11 0.0 0.010011055406314334 0.010003449033554645 0.0 -5.5562842520640595e-11 0.0 0.01 0.0 -5.5562842520640595e-11 0.0 0.010011928057893164 0.010003476411976119 0.0 -2.4325491680068786e-11 0.0 0.01 0.0 -2.4325491680075403e-11 0.0 0.010010167836738262 0.010002466262067364 0.0 4.455852982122721e-13 0.0 0.01 0.0 4.455852982118585e-13 0.0 0.010004203348736562 0.010002576695561961 0.0 9.130553220919418e-13 0.0 0.01 0.0 9.130553220911146e-13 0.0 0.010005446846991565 0.010002691536265283 0.0 -1.7052126290810293e-12 0.0 0.01 0.0 -1.7052126290802021e-12 0.0 0.010006768114911566 0.01000280047596073 0.0 -1.4404051600048464e-11 0.0 0.01 0.0 -1.4404051600051773e-11 0.0 0.010007959693431956 0.010002893355241424 0.0 -4.332176664105904e-11 0.0 0.01 0.0 -4.3321766641072274e-11 0.0 0.010009057691420712 0.010002966169202218 0.0 -8.092207545799047e-11 0.0 0.01 0.0 -8.092207545797724e-11 0.0 0.010010580719083171 0.010003021368748958 0.0 -9.248619757842998e-11 0.0 0.01 0.0 -9.248619757840351e-11 0.0 0.01001141601911029 0.010003057051263187 0.0 -4.443626595019076e-11 0.0 0.01 0.0 -4.443626595020399e-11 0.0 0.0100097432210775 0.010001920453079382 0.0 6.769611926490089e-13 0.0 0.01 0.0 6.769611926490089e-13 0.0 0.010003967710159954 0.010002030418222353 0.0 1.3224244718758871e-12 0.0 0.01 0.0 1.3224244718767143e-12 0.0 0.01000514456726442 0.010002149642946104 0.0 -2.2935642048391958e-12 0.0 0.01 0.0 -2.2935642048391958e-12 0.0 0.010006395780673225 0.01000226837159308 0.0 -1.9974257933881747e-11 0.0 0.01 0.0 -1.9974257933881747e-11 0.0 0.010007526538798571 0.010002376346785306 0.0 -6.051235645803288e-11 0.0 0.01 0.0 -6.051235645803288e-11 0.0 0.010008563738094075 0.01000246431062482 0.0 -1.1410698494511558e-10 0.0 0.01 0.0 -1.141069849450891e-10 0.0 0.010009981725360419 0.010002533662591732 0.0 -1.3208509957084856e-10 0.0 0.01 0.0 -1.320850995708221e-10 0.0 0.010010760994963123 0.010002585452339034 0.0 -6.740067981766347e-11 0.0 0.01 0.0 -6.740067981766347e-11 0.0 0.010009194314786604 0.01000131716019095 0.0 8.842583925788494e-13 0.0 0.01 0.0 8.842583925788494e-13 0.0 0.010003698350658402 0.010001425104580585 0.0 1.723475142983692e-12 0.0 0.01 0.0 1.723475142983692e-12 0.0 0.010004796398610405 0.010001549660142573 0.0 -2.4848964730702886e-12 0.0 0.01 0.0 -2.4848964730702886e-12 0.0 0.010005969691330498 0.010001683525043074 0.0 -2.382692344573979e-11 0.0 0.01 0.0 -2.382692344573979e-11 0.0 0.010007029855889025 0.010001811041862126 0.0 -7.366607833296898e-11 0.0 0.01 0.0 -7.366607833296898e-11 0.0 0.010007992972939622 0.010001924855617777 0.0 -1.4139126329287604e-10 0.0 0.01 0.0 -1.4139126329284957e-10 0.0 0.010009283411276082 0.010002017210206432 0.0 -1.677575225045792e-10 0.0 0.01 0.0 -1.6775752250455272e-10 0.0 0.010009986138552368 0.010002089504722091 0.0 -8.680361260730752e-11 0.0 0.01 0.0 -8.680361260730752e-11 0.0 0.010008553912909586 0.010000725178875037 0.0 8.955446474417403e-13 0.0 0.01 0.0 8.955446474413267e-13 0.0 0.010003404587893882 0.010000828703000918 0.0 1.800751650760472e-12 0.0 0.01 0.0 1.800751650760472e-12 0.0 0.010004417475390217 0.010000958637830359 0.0 -2.3590253460589497e-12 0.0 0.01 0.0 -2.359025346059777e-12 0.0 0.010005503540011264 0.010001108084150365 0.0 -2.495563199652496e-11 0.0 0.01 0.0 -2.495563199652496e-11 0.0 0.010006485303423164 0.010001263439401544 0.0 -7.900001230334902e-11 0.0 0.01 0.0 -7.900001230332255e-11 0.0 0.010007366531881138 0.010001408997735264 0.0 -1.615435719589794e-10 0.0 0.01 0.0 -1.6154357195895293e-10 0.0 0.010008522131643651 0.010001533552695471 0.0 -2.1213769519619961e-10 0.0 0.01 0.0 -2.1213769519614667e-10 0.0 0.010009145330279594 0.010001635651215736 0.0 -9.816285186896008e-11 0.0 0.01 0.0 -9.816285186896008e-11 0.0 0.010007855947699915 0.010000214856924327 0.0 6.182485142370067e-13 0.0 0.01 0.0 6.182485142378338e-13 0.0 0.010003102493222601 0.010000313014696118 0.0 1.3909199223754026e-12 0.0 0.01 0.0 1.3909199223754026e-12 0.0 0.010004027331604215 0.010000449230269362 0.0 -2.08599457624032e-12 0.0 0.01 0.0 -2.085994576239493e-12 0.0 0.010005019877346937 0.01000061625696122 0.0 -4.4765896190007316e-11 0.0 0.01 0.0 -4.4765896190007316e-11 0.0 0.01000591834988685 0.010000799895964812 0.0 -3.1263948633669693e-10 0.0 0.01 0.0 -3.126394863368028e-10 0.0 0.01000671185130003 0.010000982544790269 0.0 -8.127998791331741e-10 0.0 0.01 0.0 -8.127998791329623e-10 0.0 0.010007734564277549 0.010001148147706343 0.0 -9.573987809761442e-10 0.0 0.01 0.0 -9.57398780976356e-10 0.0 0.010008289596229989 0.010001286848354194 0.0 -9.620094462047393e-11 0.0 0.01 0.0 -9.620094462047393e-11 0.0 0.010007136031179876 0.00999982500459362 0.0 1.843437380050876e-13 0.0 0.01 0.0 1.843437380050876e-13 0.0 0.010002803428441157 0.009999923000889342 0.0 6.445362733435832e-13 0.0 0.01 0.0 6.445362733435832e-13 0.0 0.010003640186679581 0.01000006445062308 0.0 -3.997936657653228e-11 0.0 0.01 0.0 -3.997936657651905e-11 0.0 0.010004543144149457 0.010000250009375421 0.0 -4.544189039083174e-10 0.0 0.01 0.0 -4.544189039083174e-10 0.0 0.010005355348894553 0.01000046148194335 0.0 -1.7870269293301156e-09 0.0 0.01 0.0 -1.7870269293305391e-09 0.0 0.010006060705373836 0.010000681719706955 0.0 -3.674144877267659e-09 0.0 0.01 0.0 -3.674144877267659e-09 0.0 0.010006956452109 0.010000887818221331 0.0 -3.7862784533043535e-09 0.0 0.01 0.0 -3.7862784533035065e-09 0.0 0.01000743944357313 0.010001068021075995 0.0 -5.343494914866511e-11 0.0 0.01 0.0 -5.343494914863864e-11 0.0 0.010006406050368647 0.009999563528577763 0.0 -7.833845127517986e-14 0.0 0.01 0.0 -7.833845127517986e-14 0.0 0.010002524405571886 0.009999661017237175 0.0 -1.7692057537846286e-12 0.0 0.01 0.0 -1.7692057537838015e-12 0.0 0.010003277961050149 0.009999812505273277 0.0 -1.682824539446458e-10 0.0 0.01 0.0 -1.682824539446458e-10 0.0 0.010004091359514381 0.010000010750017633 0.0 -1.4081009706182841e-09 0.0 0.01 0.0 -1.408100970617437e-09 0.0 0.010004822836721198 0.010000244158945345 0.0 -4.897648239524495e-09 0.0 0.01 0.0 -4.897648239524495e-09 0.0 0.010005445344543083 0.010000494186643678 0.0 -9.324175664356089e-09 0.0 0.01 0.0 -9.324175664359477e-09 0.0 0.010006215239595434 0.010000737381563445 0.0 -8.846149939568157e-09 0.0 0.01 0.0 -8.846149939568157e-09 0.0 0.01000660714239747 0.010000960088247787 0.0 6.744629853360154e-10 0.0 0.01 0.0 6.744629853358036e-10 0.0 0.010005665961833266 0.00999940905238699 0.0 3.742673264725471e-12 0.0 0.01 0.0 3.742673264723817e-12 0.0 0.01000227517622855 0.009999513035572468 0.0 1.1144615466643942e-10 0.0 0.01 0.0 1.1144615466638648e-10 0.0 0.010002954909207445 0.009999665516782604 0.0 1.654799284774339e-10 0.0 0.01 0.0 1.6547992847753979e-10 0.0 0.0100036861371398 0.009999866002693744 0.0 -1.6459440123314454e-09 0.0 0.01 0.0 -1.645944012331869e-09 0.0 0.010004342176538466 0.010000105451676592 0.0 -7.577733468865083e-09 0.0 0.01 0.0 -7.577733468865083e-09 0.0 0.010004892237766775 0.01000037357096499 0.0 -1.4780395789199636e-08 0.0 0.01 0.0 -1.4780395789199636e-08 0.0 0.010005541703202468 0.010000650963582021 0.0 -1.2786765583467914e-08 0.0 0.01 0.0 -1.2786765583467914e-08 0.0 0.010005813165031616 0.010000918076414997 0.0 2.3503432690051088e-09 0.0 0.01 0.0 2.3503432690051088e-09 0.0 0.010004930894662862 0.009999343064740263 0.0 7.85174392063347e-11 0.0 0.01 0.0 7.851743920638764e-11 0.0 0.010002068041342405 0.009999448545618765 0.0 8.968356679650157e-10 0.0 0.01 0.0 8.968356679654392e-10 0.0 0.010002681728364578 0.0099995935247857 0.0 2.6380194358498454e-09 0.0 0.01 0.0 2.6380194358498454e-09 0.0 0.010003338120714902 0.009999773507695688 0.0 2.07126984827916e-09 0.0 0.01 0.0 2.071269848280007e-09 0.0 0.010003926161001852 0.009999996000005765 0.0 -4.737446260585267e-09 0.0 0.01 0.0 -4.737446260586961e-09 0.0 0.010004420879903135 0.010000268060801405 0.0 -1.246841566949545e-08 0.0 0.01 0.0 -1.246841566949545e-08 0.0 0.010004963643242078 0.010000587451770324 0.0 -7.936177217363695e-09 0.0 0.01 0.0 -7.936177217363695e-09 0.0 0.010005095692276785 0.01000093813199729 0.0 6.016782547489616e-10 0.0 0.01 0.0 6.016782547487498e-10 0.0 0.010004269332524556 0.009999342064937517 0.0 5.160324614046409e-10 0.0 0.01 0.0 5.160324614046409e-10 0.0 0.010001905794669632 0.009999443546451443 0.0 3.5723368823718782e-09 0.0 0.01 0.0 3.572336882370184e-09 0.0 0.010002463309887405 0.009999560528986212 0.0 9.764018957569072e-09 0.0 0.01 0.0 9.764018957565684e-09 0.0 0.010003048743673453 0.009999699013617242 0.0 1.361083337783766e-08 0.0 0.01 0.0 1.3610833377851212e-08 0.0 0.010003576117405853 0.00999988150211946 0.0 9.369348199200604e-09 0.0 0.01 0.0 9.369348199197216e-09 0.0 0.010004035641659838 0.010000151353441896 0.0 6.211711522686946e-09 0.0 0.01 0.0 6.211711522685252e-09 0.0 0.010004499134517068 0.010000542044087348 0.0 1.11891694685964e-08 0.0 0.01 0.0 1.11891694685964e-08 0.0 0.010004487869357674 0.01000105971848424 0.0 -1.9594966994197663e-08 0.0 0.01 0.0 -1.9594966994197663e-08 0.0 0.010003688539853253 0.009999394554989736 0.0 2.2314532265112387e-09 0.0 0.01 0.0 2.2314532265112387e-09 0.0 0.010001791481296565 0.009999480540493818 0.0 1.0096598963184734e-08 0.0 0.01 0.0 1.0096598963177958e-08 0.0 0.010002296190646942 0.009999555529720637 0.0 2.392040961294239e-08 0.0 0.01 0.0 2.392040961294239e-08 0.0 0.010002813687165739 0.009999632020498235 0.0 3.5210278164803295e-08 0.0 0.01 0.0 3.521027816478974e-08 0.0 0.010003288721828396 0.009999760508813148 0.0 3.737733277003701e-08 0.0 0.01 0.0 3.737733277003701e-08 0.0 0.01000373449113179 0.01000003710047737 0.0 4.2509173478171426e-08 0.0 0.01 0.0 4.2509173478171426e-08 0.0 0.010004130958584424 0.010000521991042371 0.0 3.407192584091391e-08 0.0 0.01 0.0 3.407192584091391e-08 0.0 0.010003990187142982 0.010001275645059877 0.0 -8.21223957379034e-08 0.0 0.01 0.0 -8.21223957379034e-08 0.0 0.010003195882407659 0.00999949553818232 0.0 7.069284625103823e-09 0.0 0.01 0.0 7.0692846251105995e-09 0.0 0.010001715291240186 0.009999550530382604 0.0 2.2709434298898374e-08 0.0 0.01 0.0 2.2709434298911926e-08 0.0 0.010002166253772376 0.0099995705279866 0.0 4.6054853969991526e-08 0.0 0.01 0.0 4.6054853969991526e-08 0.0 0.010002621630899993 0.009999584026604086 0.0 6.571439853863756e-08 0.0 0.01 0.0 6.571439853866466e-08 0.0 0.010003054599664326 0.009999669517260992 0.0 7.649725997999545e-08 0.0 0.01 0.0 7.649725997999545e-08 0.0 0.010003495482783169 0.00999996550119822 0.0 8.247016162671642e-08 0.0 0.01 0.0 8.247016162671642e-08 0.0 0.010003794659843367 0.010000523991314745 0.0 2.973985135096952e-08 0.0 0.01 0.0 2.9739851350983073e-08 0.0 0.010003510647964932 0.00999963252030583 0.0 1.8008377134922054e-08 0.0 0.01 0.0 1.8008377134922054e-08 0.0 0.010001667416997845 0.009999646019077105 0.0 4.3273444422811625e-08 0.0 0.01 0.0 4.3273444422811625e-08 0.0 0.01000206458948425 0.009999609523715414 0.0 7.499566758253397e-08 0.0 0.01 0.0 7.499566758253397e-08 0.0 0.010002460858919178 0.009999576528434702 0.0 1.0113913707763709e-07 0.0 0.01 0.0 1.0113913707763709e-07 0.0 0.010002869386067419 0.009999666018788739 0.0 1.1710943841194499e-07 0.0 0.01 0.0 1.1710943841189078e-07 0.0 0.01000328286793145 0.009999990501494489 0.0 9.938570363947829e-08 0.0 0.01 0.0 9.938570363947829e-08 0.0 0.010003425610898148 0.010000581100775662 0.0 -2.920541055952922e-08 0.0 0.01 0.0 -2.920541055952922e-08 0.0 0.010003015513577936 0.009999789006893224 0.0 3.789076381452948e-08 0.0 0.01 0.0 3.7890763814556585e-08 0.0 0.010001629298320734 0.009999754009843735 0.0 7.150363122502808e-08 0.0 0.01 0.0 7.150363122497387e-08 0.0 0.010001974685520006 0.009999677517328004 0.0 1.0734563419390443e-07 0.0 0.01 0.0 1.0734563419385022e-07 0.0 0.010002330916449975 0.00999965052108638 0.0 1.357926535667099e-07 0.0 0.01 0.0 1.357926535666557e-07 0.0 0.010002726217197996 0.009999792509358533 0.0 1.3908092082984443e-07 0.0 0.01 0.0 1.3908092082989864e-07 0.0 0.01000306195866393 0.010000143053631418 0.0 6.121414978927622e-08 0.0 0.01 0.0 6.121414978927622e-08 0.0 0.010003030677756234 0.009999942501159745 0.0 6.653082282597096e-08 0.0 0.01 0.0 6.653082282597096e-08 0.0 0.01000159022990794 0.0099998690041789 0.0 1.0344792431373796e-07 0.0 0.01 0.0 1.0344792431373796e-07 0.0 0.010001896540998197 0.00999980300868075 0.0 1.380933308366616e-07 0.0 0.01 0.0 1.380933308366616e-07 0.0 0.010002239504941612 0.009999851007011252 0.0 1.5668400536739124e-07 0.0 0.01 0.0 1.5668400536728282e-07 0.0 0.010002610875825046 0.010000065452516244 0.0 1.1178485568837451e-07 0.0 0.01 0.0 1.1178485568826609e-07 0.0 0.010002818593095323 0.010000413576086447 0.0 -5.362097036201198e-08 0.0 0.01 0.0 -5.3620970361984875e-08 0.0 0.010002632389487415 0.010000086452582027 0.0 9.870048902650957e-08 0.0 0.01 0.0 9.870048902650957e-08 0.0 0.010001552112743976 0.010000028802792854 0.0 1.3339397310417438e-07 0.0 0.01 0.0 1.3339397310417438e-07 0.0 0.010001846213817757 0.010000048854020628 0.0 1.5628471873791513e-07 0.0 0.01 0.0 1.5628471873791513e-07 0.0 0.010002186770747441 0.010000193358223188 0.0 1.3206643376323986e-07 0.0 0.01 0.0 1.3206643376323986e-07 0.0 0.01000249703758263 0.010000428227505397 0.0 9.854164956219586e-10 0.0 0.01 0.0 9.854164956211116e-10 0.0 0.010002561033498192 0.010000283214492008 0.0 1.2810386531051342e-07 0.0 0.01 0.0 1.2810386531051342e-07 0.0 0.010001539407854018 0.010000328619626589 0.0 1.5121296906674478e-07 0.0 0.01 0.0 1.5121296906674478e-07 0.0 0.010001829105149468 0.01000044973291293 0.0 1.3106826800540067e-07 0.0 0.01 0.0 1.3106826800540067e-07 0.0 0.010002138388285368 0.010000608455581735 0.0 1.889187141574896e-08 0.0 0.01 0.0 1.8891871415762512e-08 0.0 0.0100023597350432 0.01000067192072631 0.0 1.4170204353609536e-07 0.0 0.01 0.0 1.4170204353587852e-07 0.0 0.01000154821248048 0.010000783294290496 0.0 1.229806957535242e-07 0.0 0.01 0.0 1.2298069575374104e-07 0.0 0.01000182275050912 0.01000088146658321 0.0 1.815318898505539e-08 0.0 0.01 0.0 1.815318898505539e-08 0.0 0.010002070442881993 0.010000925433566657 0.0 -1.8477345285392542e-07 0.0 0.01 0.0 -1.8477345285392542e-07 0.0 0.010002208736679749 0.010001099282608802 0.0 9.566327056594395e-08 0.0 0.01 0.0 9.56632705661608e-08 0.0 0.010001579975741574 0.010001061669047353 0.0 8.426266619133635e-10 0.0 0.01 0.0 8.426266619133635e-10 0.0 0.010001824699307762 0.010001132992774558 0.0 -4.1059490683208015e-08 0.0 0.01 0.0 -4.1059490683316435e-08 0.0 0.010001638102671894 
