# vtk DataFile Version 3.0
Test VTK file for Force data
ASCII
DATASET POLYDATA
POINTS 2975 float
-0.22 0.0099999998 -0.38
-0.22 0.0099999998 -0.36000001
-0.2 0.0099999998 -0.40000001
-0.2 0.0099999998 -0.38
-0.2 0.0099999998 -0.36000001
-0.18000001 0.0099999998 -0.40000001
-0.18000001 0.0099999998 -0.38
-0.18000001 0.0099999998 -0.36000001
-0.16 0.0099999998 -0.40000001
-0.16 0.0099999998 -0.38
-0.16 0.0099999998 -0.36000001
-0.14 0.0099999998 -0.40000001
-0.14 0.0099999998 -0.38
-0.14 0.0099999998 -0.36000001
-0.12 0.0099999998 -0.40000001
-0.12 0.0099999998 -0.38
-0.12 0.0099999998 -0.36000001
-0.1 0.0099999998 -0.40000001
-0.1 0.0099999998 -0.38
-0.1 0.0099999998 -0.36000001
-0.079999998 0.0099999998 -0.40000001
-0.079999998 0.0099999998 -0.38
-0.079999998 0.0099999998 -0.36000001
-0.059999999000000005 0.0099999998 -0.40000001
-0.059999999000000005 0.0099999998 -0.38
-0.059999999000000005 0.0099999998 -0.36000001
-0.039999999 0.0099999998 -0.40000001
-0.039999999 0.0099999998 -0.38
-0.039999999 0.0099999998 -0.36000001
-0.02 0.0099999998 -0.40000001
-0.02 0.0099999998 -0.38
-0.02 0.0099999998 -0.36000001
0.0 0.0099999998 -0.40000001
0.0 0.0099999998 -0.38
0.0 0.0099999998 -0.36000001
0.02 0.0099999998 -0.40000001
0.02 0.0099999998 -0.38
0.02 0.0099999998 -0.36000001
0.039999999 0.0099999998 -0.40000001
0.039999999 0.0099999998 -0.38
0.039999999 0.0099999998 -0.36000001
0.059999999000000005 0.0099999998 -0.40000001
0.059999999000000005 0.0099999998 -0.38
0.059999999000000005 0.0099999998 -0.36000001
0.079999998 0.0099999998 -0.40000001
0.079999998 0.0099999998 -0.38
0.079999998 0.0099999998 -0.36000001
0.1 0.0099999998 -0.40000001
0.1 0.0099999998 -0.38
0.1 0.0099999998 -0.36000001
0.12 0.0099999998 -0.40000001
0.12 0.0099999998 -0.38
0.12 0.0099999998 -0.36000001
0.14 0.0099999998 -0.40000001
0.14 0.0099999998 -0.38
0.14 0.0099999998 -0.36000001
0.16 0.0099999998 -0.40000001
0.16 0.0099999998 -0.38
0.16 0.0099999998 -0.36000001
0.18000001 0.0099999998 -0.40000001
0.18000001 0.0099999998 -0.38
0.18000001 0.0099999998 -0.36000001
0.2 0.0099999998 -0.38
0.2 0.0099999998 -0.36000001
-0.22 0.0099999998 -0.34
-0.22 0.0099999998 -0.31999999
-0.22 0.0099999998 -0.30000001
-0.22 0.0099999998 -0.28
-0.22 0.0099999998 -0.25999999
-0.22 0.0099999998 -0.23999999
-0.22 0.0099999998 -0.22
-0.22 0.0099999998 -0.2
-0.2 0.0099999998 -0.34
-0.2 0.0099999998 -0.31999999
-0.2 0.0099999998 -0.30000001
-0.2 0.0099999998 -0.28
-0.2 0.0099999998 -0.25999999
-0.2 0.0099999998 -0.23999999
-0.2 0.0099999998 -0.22
-0.2 0.0099999998 -0.2
-0.18000001 0.0099999998 -0.34
-0.18000001 0.0099999998 -0.31999999
-0.18000001 0.0099999998 -0.30000001
-0.18000001 0.0099999998 -0.28
-0.18000001 0.0099999998 -0.25999999
-0.18000001 0.0099999998 -0.23999999
-0.18000001 0.0099999998 -0.22
-0.18000001 0.0099999998 -0.2
-0.16 0.0099999998 -0.34
-0.16 0.0099999998 -0.31999999
-0.16 0.0099999998 -0.30000001
-0.16 0.0099999998 -0.28
-0.16 0.0099999998 -0.25999999
-0.16 0.0099999998 -0.23999999
-0.16 0.0099999998 -0.22
-0.16 0.0099999998 -0.2
-0.14 0.0099999998 -0.34
-0.14 0.0099999998 -0.31999999
-0.14 0.0099999998 -0.30000001
-0.14 0.0099999998 -0.28
-0.14 0.0099999998 -0.25999999
-0.14 0.0099999998 -0.23999999
-0.14 0.0099999998 -0.22
-0.14 0.0099999998 -0.2
-0.12 0.0099999998 -0.34
-0.12 0.0099999998 -0.31999999
-0.12 0.0099999998 -0.30000001
-0.12 0.0099999998 -0.28
-0.12 0.0099999998 -0.25999999
-0.12 0.0099999998 -0.23999999
-0.12 0.0099999998 -0.22
-0.12 0.0099999998 -0.2
-0.1 0.0099999998 -0.34
-0.1 0.0099999998 -0.31999999
-0.1 0.0099999998 -0.30000001
-0.1 0.0099999998 -0.28
-0.1 0.0099999998 -0.25999999
-0.1 0.0099999998 -0.23999999
-0.1 0.0099999998 -0.22
-0.1 0.0099999998 -0.2
-0.079999998 0.0099999998 -0.34
-0.079999998 0.0099999998 -0.31999999
-0.079999998 0.0099999998 -0.30000001
-0.079999998 0.0099999998 -0.28
-0.079999998 0.0099999998 -0.25999999
-0.079999998 0.0099999998 -0.23999999
-0.079999998 0.0099999998 -0.22
-0.079999998 0.0099999998 -0.2
-0.059999999000000005 0.0099999998 -0.34
-0.059999999000000005 0.0099999998 -0.31999999
-0.059999999000000005 0.0099999998 -0.30000001
-0.059999999000000005 0.0099999998 -0.28
-0.059999999000000005 0.0099999998 -0.25999999
-0.059999999000000005 0.0099999998 -0.23999999
-0.059999999000000005 0.0099999998 -0.22
-0.059999999000000005 0.0099999998 -0.2
-0.039999999 0.0099999998 -0.34
-0.039999999 0.0099999998 -0.31999999
-0.039999999 0.0099999998 -0.30000001
-0.039999999 0.0099999998 -0.28
-0.039999999 0.0099999998 -0.25999999
-0.039999999 0.0099999998 -0.23999999
-0.039999999 0.0099999998 -0.22
-0.039999999 0.0099999998 -0.2
-0.02 0.0099999998 -0.34
-0.02 0.0099999998 -0.31999999
-0.02 0.0099999998 -0.30000001
-0.02 0.0099999998 -0.28
-0.02 0.0099999998 -0.25999999
-0.02 0.0099999998 -0.23999999
-0.02 0.0099999998 -0.22
-0.02 0.0099999998 -0.2
0.0 0.0099999998 -0.34
0.0 0.0099999998 -0.31999999
0.0 0.0099999998 -0.30000001
0.02 0.0099999998 -0.34
0.02 0.0099999998 -0.31999999
0.039999999 0.0099999998 -0.34
0.039999999 0.0099999998 -0.31999999
0.059999999000000005 0.0099999998 -0.34
0.059999999000000005 0.0099999998 -0.31999999
0.079999998 0.0099999998 -0.34
0.079999998 0.0099999998 -0.31999999
0.1 0.0099999998 -0.34
0.1 0.0099999998 -0.31999999
0.12 0.0099999998 -0.34
0.12 0.0099999998 -0.31999999
0.14 0.0099999998 -0.34
0.14 0.0099999998 -0.31999999
0.16 0.0099999998 -0.34
0.16 0.0099999998 -0.31999999
0.18000001 0.0099999998 -0.34
0.18000001 0.0099999998 -0.31999999
0.2 0.0099999998 -0.34
0.2 0.0099999998 -0.31999999
-0.22 0.0099999998 -0.18000001
-0.22 0.0099999998 -0.16
-0.22 0.0099999998 -0.14
-0.22 0.0099999998 -0.12
-0.22 0.0099999998 -0.1
-0.22 0.0099999998 -0.079999998
-0.22 0.0099999998 -0.059999999000000005
-0.22 0.0099999998 -0.039999999
-0.22 0.0099999998 -0.02
-0.2 0.0099999998 -0.18000001
-0.2 0.0099999998 -0.16
-0.2 0.0099999998 -0.14
-0.2 0.0099999998 -0.12
-0.2 0.0099999998 -0.1
-0.2 0.0099999998 -0.079999998
-0.2 0.0099999998 -0.059999999000000005
-0.2 0.0099999998 -0.039999999
-0.2 0.0099999998 -0.02
-0.18000001 0.0099999998 -0.18000001
-0.18000001 0.0099999998 -0.16
-0.18000001 0.0099999998 -0.14
-0.18000001 0.0099999998 -0.12
-0.18000001 0.0099999998 -0.1
-0.18000001 0.0099999998 -0.079999998
-0.18000001 0.0099999998 -0.059999999000000005
-0.18000001 0.0099999998 -0.039999999
-0.18000001 0.0099999998 -0.02
-0.16 0.0099999998 -0.18000001
-0.16 0.0099999998 -0.16
-0.16 0.0099999998 -0.14
-0.16 0.0099999998 -0.12
-0.16 0.0099999998 -0.1
-0.16 0.0099999998 -0.079999998
-0.16 0.0099999998 -0.059999999000000005
-0.16 0.0099999998 -0.039999999
-0.16 0.0099999998 -0.02
-0.14 0.0099999998 -0.18000001
-0.14 0.0099999998 -0.16
-0.14 0.0099999998 -0.14
-0.14 0.0099999998 -0.12
-0.14 0.0099999998 -0.1
-0.14 0.0099999998 -0.079999998
-0.14 0.0099999998 -0.059999999000000005
-0.14 0.0099999998 -0.039999999
-0.14 0.0099999998 -0.02
-0.12 0.0099999998 -0.18000001
-0.12 0.0099999998 -0.16
-0.12 0.0099999998 -0.14
-0.12 0.0099999998 -0.12
-0.12 0.0099999998 -0.1
-0.12 0.0099999998 -0.079999998
-0.12 0.0099999998 -0.059999999000000005
-0.12 0.0099999998 -0.039999999
-0.12 0.0099999998 -0.02
-0.1 0.0099999998 -0.18000001
-0.1 0.0099999998 -0.16
-0.1 0.0099999998 -0.14
-0.1 0.0099999998 -0.12
-0.1 0.0099999998 -0.1
-0.1 0.0099999998 -0.079999998
-0.1 0.0099999998 -0.059999999000000005
-0.1 0.0099999998 -0.039999999
-0.1 0.0099999998 -0.02
-0.079999998 0.0099999998 -0.18000001
-0.079999998 0.0099999998 -0.16
-0.079999998 0.0099999998 -0.14
-0.079999998 0.0099999998 -0.12
-0.079999998 0.0099999998 -0.1
-0.079999998 0.0099999998 -0.079999998
-0.079999998 0.0099999998 -0.059999999000000005
-0.079999998 0.0099999998 -0.039999999
-0.079999998 0.0099999998 -0.02
-0.059999999000000005 0.0099999998 -0.18000001
-0.059999999000000005 0.0099999998 -0.16
-0.059999999000000005 0.0099999998 -0.14
-0.059999999000000005 0.0099999998 -0.12
-0.059999999000000005 0.0099999998 -0.1
-0.059999999000000005 0.0099999998 -0.079999998
-0.059999999000000005 0.0099999998 -0.059999999000000005
-0.059999999000000005 0.0099999998 -0.039999999
-0.059999999000000005 0.0099999998 -0.02
-0.039999999 0.0099999998 -0.18000001
-0.039999999 0.0099999998 -0.16
-0.039999999 0.0099999998 -0.14
-0.039999999 0.0099999998 -0.12
-0.039999999 0.0099999998 -0.1
-0.039999999 0.0099999998 -0.079999998
-0.039999999 0.0099999998 -0.059999999000000005
-0.039999999 0.0099999998 -0.039999999
-0.039999999 0.0099999998 -0.02
-0.02 0.0099999998 -0.18000001
-0.02 0.0099999998 -0.16
-0.02 0.0099999998 -0.14
-0.02 0.0099999998 -0.12
-0.02 0.0099999998 -0.1
-0.02 0.0099999998 -0.079999998
-0.02 0.0099999998 -0.059999999000000005
-0.02 0.0099999998 -0.039999999
-0.02 0.0099999998 -0.02
-0.22 0.0099999998 0.0
-0.22 0.0099999998 0.02
-0.22 0.0099999998 0.039999999
-0.22 0.0099999998 0.059999999000000005
-0.22 0.0099999998 0.079999998
-0.22 0.0099999998 0.1
-0.22 0.0099999998 0.12
-0.22 0.0099999998 0.14
-0.2 0.0099999998 0.0
-0.2 0.0099999998 0.02
-0.2 0.0099999998 0.039999999
-0.2 0.0099999998 0.059999999000000005
-0.2 0.0099999998 0.079999998
-0.2 0.0099999998 0.1
-0.2 0.0099999998 0.12
-0.2 0.0099999998 0.14
-0.18000001 0.0099999998 0.0
-0.18000001 0.0099999998 0.02
-0.18000001 0.0099999998 0.039999999
-0.18000001 0.0099999998 0.059999999000000005
-0.18000001 0.0099999998 0.079999998
-0.18000001 0.0099999998 0.1
-0.18000001 0.0099999998 0.12
-0.18000001 0.0099999998 0.14
-0.16 0.0099999998 0.0
-0.16 0.0099999998 0.02
-0.16 0.0099999998 0.039999999
-0.16 0.0099999998 0.059999999000000005
-0.16 0.0099999998 0.079999998
-0.16 0.0099999998 0.1
-0.16 0.0099999998 0.12
-0.16 0.0099999998 0.14
-0.14 0.0099999998 0.0
-0.14 0.0099999998 0.02
-0.14 0.0099999998 0.039999999
-0.14 0.0099999998 0.059999999000000005
-0.14 0.0099999998 0.079999998
-0.14 0.0099999998 0.1
-0.14 0.0099999998 0.12
-0.14 0.0099999998 0.14
-0.12 0.0099999998 0.0
-0.12 0.0099999998 0.02
-0.12 0.0099999998 0.039999999
-0.12 0.0099999998 0.059999999000000005
-0.12 0.0099999998 0.079999998
-0.12 0.0099999998 0.1
-0.12 0.0099999998 0.12
-0.12 0.0099999998 0.14
-0.1 0.0099999998 0.0
-0.1 0.0099999998 0.02
-0.1 0.0099999998 0.039999999
-0.1 0.0099999998 0.059999999000000005
-0.1 0.0099999998 0.079999998
-0.1 0.0099999998 0.1
-0.1 0.0099999998 0.12
-0.1 0.0099999998 0.14
-0.079999998 0.0099999998 0.0
-0.079999998 0.0099999998 0.02
-0.079999998 0.0099999998 0.039999999
-0.079999998 0.0099999998 0.059999999000000005
-0.079999998 0.0099999998 0.079999998
-0.079999998 0.0099999998 0.1
-0.079999998 0.0099999998 0.12
-0.079999998 0.0099999998 0.14
-0.059999999000000005 0.0099999998 0.0
-0.059999999000000005 0.0099999998 0.02
-0.059999999000000005 0.0099999998 0.039999999
-0.059999999000000005 0.0099999998 0.059999999000000005
-0.059999999000000005 0.0099999998 0.079999998
-0.059999999000000005 0.0099999998 0.1
-0.059999999000000005 0.0099999998 0.12
-0.059999999000000005 0.0099999998 0.14
-0.039999999 0.0099999998 0.0
-0.039999999 0.0099999998 0.02
-0.039999999 0.0099999998 0.039999999
-0.039999999 0.0099999998 0.059999999000000005
-0.039999999 0.0099999998 0.079999998
-0.039999999 0.0099999998 0.1
-0.039999999 0.0099999998 0.12
-0.039999999 0.0099999998 0.14
-0.02 0.0099999998 0.0
-0.02 0.0099999998 0.02
-0.02 0.0099999998 0.039999999
-0.02 0.0099999998 0.059999999000000005
-0.02 0.0099999998 0.079999998
-0.02 0.0099999998 0.1
-0.02 0.0099999998 0.12
-0.02 0.0099999998 0.14
-0.22 0.0099999998 0.16
-0.22 0.0099999998 0.18000001
-0.22 0.0099999998 0.2
-0.22 0.0099999998 0.22
-0.22 0.0099999998 0.23999999
-0.22 0.0099999998 0.25999999
-0.22 0.0099999998 0.28
-0.22 0.0099999998 0.30000001
-0.22 0.0099999998 0.31999999
-0.2 0.0099999998 0.16
-0.2 0.0099999998 0.18000001
-0.2 0.0099999998 0.2
-0.2 0.0099999998 0.22
-0.2 0.0099999998 0.23999999
-0.2 0.0099999998 0.25999999
-0.2 0.0099999998 0.28
-0.2 0.0099999998 0.30000001
-0.2 0.0099999998 0.31999999
-0.18000001 0.0099999998 0.16
-0.18000001 0.0099999998 0.18000001
-0.18000001 0.0099999998 0.2
-0.18000001 0.0099999998 0.22
-0.18000001 0.0099999998 0.23999999
-0.18000001 0.0099999998 0.25999999
-0.18000001 0.0099999998 0.28
-0.18000001 0.0099999998 0.30000001
-0.18000001 0.0099999998 0.31999999
-0.16 0.0099999998 0.16
-0.16 0.0099999998 0.18000001
-0.16 0.0099999998 0.2
-0.16 0.0099999998 0.22
-0.16 0.0099999998 0.23999999
-0.16 0.0099999998 0.25999999
-0.16 0.0099999998 0.28
-0.16 0.0099999998 0.30000001
-0.16 0.0099999998 0.31999999
-0.14 0.0099999998 0.16
-0.14 0.0099999998 0.18000001
-0.14 0.0099999998 0.2
-0.14 0.0099999998 0.22
-0.14 0.0099999998 0.23999999
-0.14 0.0099999998 0.25999999
-0.14 0.0099999998 0.28
-0.14 0.0099999998 0.30000001
-0.14 0.0099999998 0.31999999
-0.12 0.0099999998 0.16
-0.12 0.0099999998 0.18000001
-0.12 0.0099999998 0.2
-0.12 0.0099999998 0.22
-0.12 0.0099999998 0.23999999
-0.12 0.0099999998 0.25999999
-0.12 0.0099999998 0.28
-0.12 0.0099999998 0.30000001
-0.12 0.0099999998 0.31999999
-0.1 0.0099999998 0.16
-0.1 0.0099999998 0.18000001
-0.1 0.0099999998 0.2
-0.1 0.0099999998 0.22
-0.1 0.0099999998 0.23999999
-0.1 0.0099999998 0.25999999
-0.1 0.0099999998 0.28
-0.1 0.0099999998 0.30000001
-0.1 0.0099999998 0.31999999
-0.079999998 0.0099999998 0.16
-0.079999998 0.0099999998 0.18000001
-0.079999998 0.0099999998 0.2
-0.079999998 0.0099999998 0.22
-0.079999998 0.0099999998 0.23999999
-0.079999998 0.0099999998 0.25999999
-0.079999998 0.0099999998 0.28
-0.079999998 0.0099999998 0.30000001
-0.079999998 0.0099999998 0.31999999
-0.059999999000000005 0.0099999998 0.16
-0.059999999000000005 0.0099999998 0.18000001
-0.059999999000000005 0.0099999998 0.2
-0.059999999000000005 0.0099999998 0.22
-0.059999999000000005 0.0099999998 0.23999999
-0.059999999000000005 0.0099999998 0.25999999
-0.059999999000000005 0.0099999998 0.28
-0.059999999000000005 0.0099999998 0.30000001
-0.059999999000000005 0.0099999998 0.31999999
-0.039999999 0.0099999998 0.16
-0.039999999 0.0099999998 0.18000001
-0.039999999 0.0099999998 0.2
-0.039999999 0.0099999998 0.22
-0.039999999 0.0099999998 0.23999999
-0.039999999 0.0099999998 0.25999999
-0.039999999 0.0099999998 0.28
-0.039999999 0.0099999998 0.30000001
-0.039999999 0.0099999998 0.31999999
-0.02 0.0099999998 0.16
-0.02 0.0099999998 0.18000001
-0.02 0.0099999998 0.2
-0.02 0.0099999998 0.22
-0.02 0.0099999998 0.23999999
-0.02 0.0099999998 0.25999999
-0.02 0.0099999998 0.28
-0.02 0.0099999998 0.30000001
-0.02 0.0099999998 0.31999999
0.0 0.0099999998 0.30000001
0.0 0.0099999998 0.31999999
0.02 0.0099999998 0.31999999
0.039999999 0.0099999998 0.31999999
0.059999999000000005 0.0099999998 0.31999999
0.079999998 0.0099999998 0.31999999
0.1 0.0099999998 0.31999999
0.12 0.0099999998 0.31999999
0.14 0.0099999998 0.31999999
0.16 0.0099999998 0.31999999
0.18000001 0.0099999998 0.31999999
0.2 0.0099999998 0.31999999
-0.22 0.0099999998 0.34
-0.22 0.0099999998 0.36000001
-0.22 0.0099999998 0.38
-0.2 0.0099999998 0.34
-0.2 0.0099999998 0.36000001
-0.2 0.0099999998 0.38
-0.2 0.0099999998 0.40000001
-0.18000001 0.0099999998 0.34
-0.18000001 0.0099999998 0.36000001
-0.18000001 0.0099999998 0.38
-0.18000001 0.0099999998 0.40000001
-0.16 0.0099999998 0.34
-0.16 0.0099999998 0.36000001
-0.16 0.0099999998 0.38
-0.16 0.0099999998 0.40000001
-0.14 0.0099999998 0.34
-0.14 0.0099999998 0.36000001
-0.14 0.0099999998 0.38
-0.14 0.0099999998 0.40000001
-0.12 0.0099999998 0.34
-0.12 0.0099999998 0.36000001
-0.12 0.0099999998 0.38
-0.12 0.0099999998 0.40000001
-0.1 0.0099999998 0.34
-0.1 0.0099999998 0.36000001
-0.1 0.0099999998 0.38
-0.1 0.0099999998 0.40000001
-0.079999998 0.0099999998 0.34
-0.079999998 0.0099999998 0.36000001
-0.079999998 0.0099999998 0.38
-0.079999998 0.0099999998 0.40000001
-0.059999999000000005 0.0099999998 0.34
-0.059999999000000005 0.0099999998 0.36000001
-0.059999999000000005 0.0099999998 0.38
-0.059999999000000005 0.0099999998 0.40000001
-0.039999999 0.0099999998 0.34
-0.039999999 0.0099999998 0.36000001
-0.039999999 0.0099999998 0.38
-0.039999999 0.0099999998 0.40000001
-0.02 0.0099999998 0.34
-0.02 0.0099999998 0.36000001
-0.02 0.0099999998 0.38
-0.02 0.0099999998 0.40000001
0.0 0.0099999998 0.34
0.0 0.0099999998 0.36000001
0.0 0.0099999998 0.38
0.0 0.0099999998 0.40000001
0.02 0.0099999998 0.34
0.02 0.0099999998 0.36000001
0.02 0.0099999998 0.38
0.02 0.0099999998 0.40000001
0.039999999 0.0099999998 0.34
0.039999999 0.0099999998 0.36000001
0.039999999 0.0099999998 0.38
0.039999999 0.0099999998 0.40000001
0.059999999000000005 0.0099999998 0.34
0.059999999000000005 0.0099999998 0.36000001
0.059999999000000005 0.0099999998 0.38
0.059999999000000005 0.0099999998 0.40000001
0.079999998 0.0099999998 0.34
0.079999998 0.0099999998 0.36000001
0.079999998 0.0099999998 0.38
0.079999998 0.0099999998 0.40000001
0.1 0.0099999998 0.34
0.1 0.0099999998 0.36000001
0.1 0.0099999998 0.38
0.1 0.0099999998 0.40000001
0.12 0.0099999998 0.34
0.12 0.0099999998 0.36000001
0.12 0.0099999998 0.38
0.12 0.0099999998 0.40000001
0.14 0.0099999998 0.34
0.14 0.0099999998 0.36000001
0.14 0.0099999998 0.38
0.14 0.0099999998 0.40000001
0.16 0.0099999998 0.34
0.16 0.0099999998 0.36000001
0.16 0.0099999998 0.38
0.16 0.0099999998 0.40000001
0.18000001 0.0099999998 0.34
0.18000001 0.0099999998 0.36000001
0.18000001 0.0099999998 0.38
0.18000001 0.0099999998 0.40000001
0.2 0.0099999998 0.34
0.2 0.0099999998 0.36000001
0.2 0.0099999998 0.38
1.92 0.0099999998 -0.36000001
1.92 0.0099999998 -0.34
1.92 0.0099999998 -0.31999999
1.9400001 0.0099999998 -0.38
1.9400001 0.0099999998 -0.36000001
1.9400001 0.0099999998 -0.34
1.9400001 0.0099999998 -0.31999999
1.9400001 0.0099999998 -0.30000001
1.9400001 0.0099999998 -0.28
1.9400001 0.0099999998 -0.25999999
1.9400001 0.0099999998 -0.23999999
1.9400001 0.0099999998 -0.22
1.96 0.0099999998 -0.38
1.96 0.0099999998 -0.36000001
1.96 0.0099999998 -0.34
1.96 0.0099999998 -0.31999999
1.96 0.0099999998 -0.30000001
1.96 0.0099999998 -0.28
1.96 0.0099999998 -0.25999999
1.96 0.0099999998 -0.23999999
1.96 0.0099999998 -0.22
1.96 0.0099999998 -0.2
1.96 0.0099999998 -0.18000001
1.96 0.0099999998 -0.16
1.96 0.0099999998 -0.14
1.96 0.0099999998 -0.12
1.98 0.0099999998 -0.38
1.98 0.0099999998 -0.36000001
1.98 0.0099999998 -0.34
1.98 0.0099999998 -0.31999999
1.98 0.0099999998 -0.30000001
1.98 0.0099999998 -0.28
1.98 0.0099999998 -0.25999999
1.98 0.0099999998 -0.23999999
1.98 0.0099999998 -0.22
1.98 0.0099999998 -0.2
1.98 0.0099999998 -0.18000001
1.98 0.0099999998 -0.16
1.98 0.0099999998 -0.14
1.98 0.0099999998 -0.12
1.98 0.0099999998 -0.1
1.98 0.0099999998 -0.079999998
1.98 0.0099999998 -0.059999999000000005
1.98 0.0099999998 -0.039999999
1.98 0.0099999998 -0.02
2.0 0.0099999998 -0.38
2.0 0.0099999998 -0.36000001
2.0 0.0099999998 -0.34
2.0 0.0099999998 -0.31999999
2.0 0.0099999998 -0.30000001
2.0 0.0099999998 -0.28
2.0 0.0099999998 -0.25999999
2.0 0.0099999998 -0.23999999
2.0 0.0099999998 -0.22
2.0 0.0099999998 -0.2
2.0 0.0099999998 -0.18000001
2.0 0.0099999998 -0.16
2.0 0.0099999998 -0.14
2.0 0.0099999998 -0.12
2.0 0.0099999998 -0.1
2.0 0.0099999998 -0.079999998
2.0 0.0099999998 -0.059999999000000005
2.0 0.0099999998 -0.039999999
2.0 0.0099999998 -0.02
2.0 0.0099999998 0.0
2.0 0.0099999998 0.02
2.0 0.0099999998 0.039999999
2.0 0.0099999998 0.059999999000000005
2.0 0.0099999998 0.079999998
2.02 0.0099999998 -0.40000001
2.02 0.0099999998 -0.38
2.02 0.0099999998 -0.36000001
2.02 0.0099999998 -0.34
2.02 0.0099999998 -0.31999999
2.02 0.0099999998 -0.30000001
2.02 0.0099999998 -0.28
2.02 0.0099999998 -0.25999999
2.02 0.0099999998 -0.23999999
2.02 0.0099999998 -0.22
2.02 0.0099999998 -0.2
2.02 0.0099999998 -0.18000001
2.02 0.0099999998 -0.16
2.02 0.0099999998 -0.14
2.02 0.0099999998 -0.12
2.02 0.0099999998 -0.1
2.02 0.0099999998 -0.079999998
2.02 0.0099999998 -0.059999999000000005
2.02 0.0099999998 -0.039999999
2.02 0.0099999998 -0.02
2.02 0.0099999998 0.0
2.02 0.0099999998 0.02
2.02 0.0099999998 0.039999999
2.02 0.0099999998 0.059999999000000005
2.02 0.0099999998 0.079999998
2.02 0.0099999998 0.1
2.02 0.0099999998 0.12
2.02 0.0099999998 0.14
2.02 0.0099999998 0.16
2.02 0.0099999998 0.18000001
2.04 0.0099999998 -0.40000001
2.04 0.0099999998 -0.38
2.04 0.0099999998 -0.36000001
2.04 0.0099999998 -0.34
2.04 0.0099999998 -0.31999999
2.04 0.0099999998 -0.30000001
2.04 0.0099999998 -0.28
2.04 0.0099999998 -0.25999999
2.04 0.0099999998 -0.23999999
2.04 0.0099999998 -0.22
2.04 0.0099999998 -0.2
2.04 0.0099999998 -0.18000001
2.04 0.0099999998 -0.16
2.04 0.0099999998 -0.14
2.04 0.0099999998 -0.12
2.04 0.0099999998 -0.1
2.04 0.0099999998 -0.079999998
2.04 0.0099999998 -0.059999999000000005
2.04 0.0099999998 -0.039999999
2.04 0.0099999998 -0.02
2.04 0.0099999998 0.0
2.04 0.0099999998 0.02
2.04 0.0099999998 0.039999999
2.04 0.0099999998 0.059999999000000005
2.04 0.0099999998 0.079999998
2.04 0.0099999998 0.1
2.04 0.0099999998 0.12
2.04 0.0099999998 0.14
2.04 0.0099999998 0.16
2.04 0.0099999998 0.18000001
2.04 0.0099999998 0.2
2.04 0.0099999998 0.22
2.04 0.0099999998 0.23999999
2.04 0.0099999998 0.25999999
2.04 0.0099999998 0.28
2.0599998999999998 0.0099999998 -0.40000001
2.0599998999999998 0.0099999998 -0.38
2.0599998999999998 0.0099999998 -0.36000001
2.0599998999999998 0.0099999998 -0.34
2.0599998999999998 0.0099999998 -0.31999999
2.0599998999999998 0.0099999998 -0.30000001
2.0599998999999998 0.0099999998 -0.28
2.0599998999999998 0.0099999998 -0.25999999
2.0599998999999998 0.0099999998 -0.23999999
2.0599998999999998 0.0099999998 -0.22
2.0599998999999998 0.0099999998 -0.2
2.0599998999999998 0.0099999998 -0.18000001
2.0599998999999998 0.0099999998 -0.16
2.0599998999999998 0.0099999998 -0.14
2.0599998999999998 0.0099999998 -0.12
2.0599998999999998 0.0099999998 -0.1
2.0599998999999998 0.0099999998 -0.079999998
2.0599998999999998 0.0099999998 -0.059999999000000005
2.0599998999999998 0.0099999998 -0.039999999
2.0599998999999998 0.0099999998 -0.02
2.0599998999999998 0.0099999998 0.0
2.0599998999999998 0.0099999998 0.02
2.0599998999999998 0.0099999998 0.039999999
2.0599998999999998 0.0099999998 0.059999999000000005
2.0599998999999998 0.0099999998 0.079999998
2.0599998999999998 0.0099999998 0.1
2.0599998999999998 0.0099999998 0.12
2.0599998999999998 0.0099999998 0.14
2.0599998999999998 0.0099999998 0.16
2.0599998999999998 0.0099999998 0.18000001
2.0599998999999998 0.0099999998 0.2
2.0599998999999998 0.0099999998 0.22
2.0599998999999998 0.0099999998 0.23999999
2.0599998999999998 0.0099999998 0.25999999
2.0599998999999998 0.0099999998 0.28
2.0599998999999998 0.0099999998 0.30000001
2.0599998999999998 0.0099999998 0.31999999
2.0599998999999998 0.0099999998 0.34
2.0599998999999998 0.0099999998 0.36000001
2.0599998999999998 0.0099999998 0.38
2.0799999 0.0099999998 -0.40000001
2.0799999 0.0099999998 -0.38
2.0799999 0.0099999998 -0.36000001
2.0799999 0.0099999998 -0.34
2.0799999 0.0099999998 -0.31999999
2.0799999 0.0099999998 -0.30000001
2.0799999 0.0099999998 -0.28
2.0799999 0.0099999998 -0.25999999
2.0799999 0.0099999998 -0.23999999
2.0799999 0.0099999998 -0.22
2.0799999 0.0099999998 -0.2
2.0799999 0.0099999998 -0.18000001
2.0799999 0.0099999998 -0.16
2.0799999 0.0099999998 -0.14
2.0799999 0.0099999998 -0.12
2.0799999 0.0099999998 -0.1
2.0799999 0.0099999998 -0.079999998
2.0799999 0.0099999998 -0.059999999000000005
2.0799999 0.0099999998 -0.039999999
2.0799999 0.0099999998 -0.02
2.0799999 0.0099999998 0.0
2.0799999 0.0099999998 0.02
2.0799999 0.0099999998 0.039999999
2.0799999 0.0099999998 0.059999999000000005
2.0799999 0.0099999998 0.079999998
2.0799999 0.0099999998 0.1
2.0799999 0.0099999998 0.12
2.0799999 0.0099999998 0.14
2.0799999 0.0099999998 0.16
2.0799999 0.0099999998 0.18000001
2.0799999 0.0099999998 0.2
2.0799999 0.0099999998 0.22
2.0799999 0.0099999998 0.23999999
2.0799999 0.0099999998 0.25999999
2.0799999 0.0099999998 0.28
2.0799999 0.0099999998 0.30000001
2.0799999 0.0099999998 0.31999999
2.0799999 0.0099999998 0.34
2.0799999 0.0099999998 0.36000001
2.0799999 0.0099999998 0.38
2.0799999 0.0099999998 0.40000001
2.0999999 0.0099999998 -0.40000001
2.0999999 0.0099999998 -0.38
2.0999999 0.0099999998 -0.36000001
2.0999999 0.0099999998 -0.34
2.0999999 0.0099999998 -0.31999999
2.0999999 0.0099999998 -0.30000001
2.0999999 0.0099999998 -0.28
2.0999999 0.0099999998 -0.25999999
2.0999999 0.0099999998 -0.23999999
2.0999999 0.0099999998 -0.22
2.0999999 0.0099999998 -0.2
2.0999999 0.0099999998 -0.18000001
2.0999999 0.0099999998 -0.16
2.0999999 0.0099999998 -0.14
2.0999999 0.0099999998 -0.12
2.0999999 0.0099999998 -0.1
2.0999999 0.0099999998 -0.079999998
2.0999999 0.0099999998 -0.059999999000000005
2.0999999 0.0099999998 -0.039999999
2.0999999 0.0099999998 -0.02
2.0999999 0.0099999998 0.0
2.0999999 0.0099999998 0.02
2.0999999 0.0099999998 0.039999999
2.0999999 0.0099999998 0.059999999000000005
2.0999999 0.0099999998 0.079999998
2.0999999 0.0099999998 0.1
2.0999999 0.0099999998 0.12
2.0999999 0.0099999998 0.14
2.0999999 0.0099999998 0.16
2.0999999 0.0099999998 0.18000001
2.0999999 0.0099999998 0.2
2.0999999 0.0099999998 0.22
2.0999999 0.0099999998 0.23999999
2.0999999 0.0099999998 0.25999999
2.0999999 0.0099999998 0.28
2.0999999 0.0099999998 0.30000001
2.0999999 0.0099999998 0.31999999
2.0999999 0.0099999998 0.34
2.0999999 0.0099999998 0.36000001
2.0999999 0.0099999998 0.38
2.0999999 0.0099999998 0.40000001
2.1199999 0.0099999998 -0.41999999
2.1199999 0.0099999998 -0.40000001
2.1199999 0.0099999998 -0.38
2.1199999 0.0099999998 -0.36000001
2.1199999 0.0099999998 -0.34
2.1199999 0.0099999998 -0.31999999
2.1199999 0.0099999998 -0.30000001
2.1199999 0.0099999998 -0.28
2.1199999 0.0099999998 -0.25999999
2.1199999 0.0099999998 -0.23999999
2.1199999 0.0099999998 -0.22
2.1199999 0.0099999998 -0.2
2.1199999 0.0099999998 -0.18000001
2.1199999 0.0099999998 -0.16
2.1199999 0.0099999998 -0.14
2.1199999 0.0099999998 -0.12
2.1199999 0.0099999998 -0.1
2.1199999 0.0099999998 -0.079999998
2.1199999 0.0099999998 -0.059999999000000005
2.1199999 0.0099999998 -0.039999999
2.1199999 0.0099999998 -0.02
2.1199999 0.0099999998 0.0
2.1199999 0.0099999998 0.02
2.1199999 0.0099999998 0.039999999
2.1199999 0.0099999998 0.059999999000000005
2.1199999 0.0099999998 0.079999998
2.1199999 0.0099999998 0.1
2.1199999 0.0099999998 0.12
2.1199999 0.0099999998 0.14
2.1199999 0.0099999998 0.16
2.1199999 0.0099999998 0.18000001
2.1199999 0.0099999998 0.2
2.1199999 0.0099999998 0.22
2.1199999 0.0099999998 0.23999999
2.1199999 0.0099999998 0.25999999
2.1199999 0.0099999998 0.28
2.1199999 0.0099999998 0.30000001
2.1199999 0.0099999998 0.31999999
2.1199999 0.0099999998 0.34
2.1199999 0.0099999998 0.36000001
2.1199999 0.0099999998 0.38
2.1199999 0.0099999998 0.40000001
2.1400001 0.0099999998 -0.38
2.1400001 0.0099999998 -0.36000001
2.1400001 0.0099999998 -0.34
2.1400001 0.0099999998 -0.31999999
2.1400001 0.0099999998 -0.30000001
2.1400001 0.0099999998 -0.28
2.1400001 0.0099999998 -0.25999999
2.1400001 0.0099999998 -0.23999999
2.1400001 0.0099999998 -0.22
2.1400001 0.0099999998 -0.2
2.1400001 0.0099999998 -0.18000001
2.1400001 0.0099999998 -0.16
2.1400001 0.0099999998 -0.14
2.1400001 0.0099999998 -0.12
2.1400001 0.0099999998 -0.1
2.1400001 0.0099999998 -0.079999998
2.1400001 0.0099999998 -0.059999999000000005
2.1400001 0.0099999998 -0.039999999
2.1400001 0.0099999998 -0.02
2.1400001 0.0099999998 0.0
2.1400001 0.0099999998 0.02
2.1400001 0.0099999998 0.039999999
2.1400001 0.0099999998 0.059999999000000005
2.1400001 0.0099999998 0.079999998
2.1400001 0.0099999998 0.1
2.1400001 0.0099999998 0.12
2.1400001 0.0099999998 0.14
2.1400001 0.0099999998 0.16
2.1400001 0.0099999998 0.18000001
2.1400001 0.0099999998 0.2
2.1400001 0.0099999998 0.22
2.1400001 0.0099999998 0.23999999
2.1400001 0.0099999998 0.25999999
2.1400001 0.0099999998 0.28
2.1400001 0.0099999998 0.30000001
2.1400001 0.0099999998 0.31999999
2.1400001 0.0099999998 0.34
2.1400001 0.0099999998 0.36000001
2.1400001 0.0099999998 0.38
2.1400001 0.0099999998 0.40000001
2.1600001 0.0099999998 -0.28
2.1600001 0.0099999998 -0.25999999
2.1600001 0.0099999998 -0.23999999
2.1600001 0.0099999998 -0.22
2.1600001 0.0099999998 -0.2
2.1600001 0.0099999998 -0.18000001
2.1600001 0.0099999998 -0.16
2.1600001 0.0099999998 -0.14
2.1600001 0.0099999998 -0.12
2.1600001 0.0099999998 -0.1
2.1600001 0.0099999998 -0.079999998
2.1600001 0.0099999998 -0.059999999000000005
2.1600001 0.0099999998 -0.039999999
2.1600001 0.0099999998 -0.02
2.1600001 0.0099999998 0.0
2.1600001 0.0099999998 0.02
2.1600001 0.0099999998 0.039999999
2.1600001 0.0099999998 0.059999999000000005
2.1600001 0.0099999998 0.079999998
2.1600001 0.0099999998 0.1
2.1600001 0.0099999998 0.12
2.1600001 0.0099999998 0.14
2.1600001 0.0099999998 0.16
2.1600001 0.0099999998 0.18000001
2.1600001 0.0099999998 0.2
2.1600001 0.0099999998 0.22
2.1600001 0.0099999998 0.23999999
2.1600001 0.0099999998 0.25999999
2.1600001 0.0099999998 0.28
2.1600001 0.0099999998 0.30000001
2.1600001 0.0099999998 0.31999999
2.1600001 0.0099999998 0.34
2.1600001 0.0099999998 0.36000001
2.1600001 0.0099999998 0.38
2.1600001 0.0099999998 0.40000001
2.1800001 0.0099999998 -0.18000001
2.1800001 0.0099999998 -0.16
2.1800001 0.0099999998 -0.14
2.1800001 0.0099999998 -0.12
2.1800001 0.0099999998 -0.1
2.1800001 0.0099999998 -0.079999998
2.1800001 0.0099999998 -0.059999999000000005
2.1800001 0.0099999998 -0.039999999
2.1800001 0.0099999998 -0.02
2.1800001 0.0099999998 0.0
2.1800001 0.0099999998 0.02
2.1800001 0.0099999998 0.039999999
2.1800001 0.0099999998 0.059999999000000005
2.1800001 0.0099999998 0.079999998
2.1800001 0.0099999998 0.1
2.1800001 0.0099999998 0.12
2.1800001 0.0099999998 0.14
2.1800001 0.0099999998 0.16
2.1800001 0.0099999998 0.18000001
2.1800001 0.0099999998 0.2
2.1800001 0.0099999998 0.22
2.1800001 0.0099999998 0.23999999
2.1800001 0.0099999998 0.25999999
2.1800001 0.0099999998 0.28
2.1800001 0.0099999998 0.30000001
2.1800001 0.0099999998 0.31999999
2.1800001 0.0099999998 0.34
2.1800001 0.0099999998 0.36000001
2.1800001 0.0099999998 0.38
2.1800001 0.0099999998 0.40000001
2.2 0.0099999998 -0.079999998
2.2 0.0099999998 -0.059999999000000005
2.2 0.0099999998 -0.039999999
2.2 0.0099999998 -0.02
2.2 0.0099999998 0.0
2.2 0.0099999998 0.02
2.2 0.0099999998 0.039999999
2.2 0.0099999998 0.059999999000000005
2.2 0.0099999998 0.079999998
2.2 0.0099999998 0.1
2.2 0.0099999998 0.12
2.2 0.0099999998 0.14
2.2 0.0099999998 0.16
2.2 0.0099999998 0.18000001
2.2 0.0099999998 0.2
2.2 0.0099999998 0.22
2.2 0.0099999998 0.23999999
2.2 0.0099999998 0.25999999
2.2 0.0099999998 0.28
2.2 0.0099999998 0.30000001
2.2 0.0099999998 0.31999999
2.2 0.0099999998 0.34
2.2 0.0099999998 0.36000001
2.2 0.0099999998 0.38
2.22 0.0099999998 0.02
2.22 0.0099999998 0.039999999
2.22 0.0099999998 0.059999999000000005
2.22 0.0099999998 0.079999998
2.22 0.0099999998 0.1
2.22 0.0099999998 0.12
2.22 0.0099999998 0.14
2.22 0.0099999998 0.16
2.22 0.0099999998 0.18000001
2.22 0.0099999998 0.2
2.22 0.0099999998 0.22
2.22 0.0099999998 0.23999999
2.22 0.0099999998 0.25999999
2.22 0.0099999998 0.28
2.22 0.0099999998 0.30000001
2.22 0.0099999998 0.31999999
2.22 0.0099999998 0.34
2.22 0.0099999998 0.36000001
2.22 0.0099999998 0.38
2.24 0.0099999998 0.12
2.24 0.0099999998 0.14
2.24 0.0099999998 0.16
2.24 0.0099999998 0.18000001
2.24 0.0099999998 0.2
2.24 0.0099999998 0.22
2.24 0.0099999998 0.23999999
2.24 0.0099999998 0.25999999
2.24 0.0099999998 0.28
2.24 0.0099999998 0.30000001
2.24 0.0099999998 0.31999999
2.24 0.0099999998 0.34
2.24 0.0099999998 0.36000001
2.24 0.0099999998 0.38
2.26 0.0099999998 0.22
2.26 0.0099999998 0.23999999
2.26 0.0099999998 0.25999999
2.26 0.0099999998 0.28
2.26 0.0099999998 0.30000001
2.26 0.0099999998 0.31999999
2.26 0.0099999998 0.34
2.26 0.0099999998 0.36000001
2.26 0.0099999998 0.38
2.28 0.0099999998 0.31999999
2.28 0.0099999998 0.34
2.28 0.0099999998 0.36000001
-2.4651511e-12 0.0099999998 -0.28
-3.0514046000000003e-12 0.0099999998 -0.25999999
-3.554255e-12 0.0099999998 -0.23999999
-3.9786394999999994e-12 0.0099999998 -0.22
-4.3298502999999995e-12 0.0099999998 -0.2
0.02 0.0099999998 -0.30000001
0.02 0.0099999998 -0.28
0.02 0.0099999998 -0.25999999
0.02 0.0099999998 -0.23999999
0.02 0.0099999998 -0.22
0.02 0.0099999998 -0.2
0.039999999 0.0099999998 -0.30000001
0.039999999 0.0099999998 -0.28
0.039999999 0.0099999998 -0.25999999
0.039999999 0.0099999998 -0.23999999
0.039999999 0.0099999998 -0.22
0.039999999 0.0099999998 -0.2
0.059999999000000005 0.0099999998 -0.30000001
0.059999999000000005 0.0099999998 -0.28
0.059999999000000005 0.0099999998 -0.25999999
0.059999999000000005 0.0099999998 -0.23999999
0.059999999000000005 0.0099999998 -0.22
0.059999999000000005 0.0099999998 -0.2
0.079999998 0.0099999998 -0.30000001
0.079999998 0.0099999998 -0.28
0.079999998 0.0099999998 -0.25999999
0.079999998 0.0099999998 -0.23999999
0.079999998 0.0099999998 -0.22
0.079999998 0.0099999998 -0.2
0.1 0.0099999998 -0.30000001
0.1 0.0099999998 -0.28
0.1 0.0099999998 -0.25999999
0.1 0.0099999998 -0.23999999
0.1 0.0099999998 -0.22
0.1 0.0099999998 -0.2
0.12 0.0099999998 -0.30000001
0.12 0.0099999998 -0.28
0.12 0.0099999998 -0.25999999
0.12 0.0099999998 -0.23999999
0.12 0.0099999998 -0.22
0.12 0.0099999998 -0.2
0.14 0.0099999998 -0.30000001
0.14 0.0099999998 -0.28
0.14 0.0099999998 -0.25999999
0.14 0.0099999998 -0.23999999
0.14 0.0099999998 -0.22
0.14 0.0099999998 -0.2
0.16 0.0099999998 -0.30000001
0.16 0.0099999998 -0.28
0.16 0.0099999998 -0.25999999
0.16 0.0099999998 -0.23999999
0.16 0.0099999998 -0.22
0.16 0.0099999998 -0.2
0.17999999 0.0099999998 -0.30000001
0.17999999 0.0099999998 -0.28
0.17999999 0.0099999998 -0.25999999
0.17999999 0.0099999998 -0.23999999
0.17999999 0.0099999998 -0.22
0.17999999 0.0099999998 -0.2
0.2 0.0099999998 -0.30000001
0.2 0.0099999998 -0.28
0.2 0.0099999998 -0.25999999
0.2 0.0099999998 -0.23999999
0.2 0.0099999998 -0.22
0.2 0.0099999998 -0.2
0.22 0.0099999998 -0.30000001
0.22 0.0099999998 -0.28
0.22 0.0099999998 -0.25999999
0.22 0.0099999998 -0.23999999
0.22 0.0099999998 -0.22
0.22 0.0099999998 -0.2
0.23999999 0.0099999998 -0.30000001
0.23999999 0.0099999998 -0.28
0.23999999 0.0099999998 -0.25999999
0.23999999 0.0099999998 -0.23999999
0.23999999 0.0099999998 -0.22
0.23999999 0.0099999998 -0.2
0.25999999 0.0099999998 -0.30000001
0.25999999 0.0099999998 -0.28
0.25999999 0.0099999998 -0.25999999
0.25999999 0.0099999998 -0.23999999
0.25999999 0.0099999998 -0.22
0.25999999 0.0099999998 -0.2
0.28 0.0099999998 -0.30000001
0.28 0.0099999998 -0.28
0.28 0.0099999998 -0.25999999
0.28 0.0099999998 -0.23999999
0.28 0.0099999998 -0.22
0.28 0.0099999998 -0.2
0.29999998 0.0099999998 -0.30000001
0.29999998 0.0099999998 -0.28
0.29999998 0.0099999998 -0.25999999
0.29999998 0.0099999998 -0.23999999
0.29999998 0.0099999998 -0.22
0.29999998 0.0099999998 -0.2
0.31999999 0.0099999998 -0.30000001
0.31999999 0.0099999998 -0.28
0.31999999 0.0099999998 -0.25999999
0.31999999 0.0099999998 -0.24000001
0.31999999 0.0099999998 -0.22
0.31999999 0.0099999998 -0.2
0.33999997 0.0099999998 -0.30000001
0.33999997 0.0099999998 -0.28
0.33999997 0.0099999998 -0.26000002
0.33999997 0.0099999998 -0.24000001
0.33999997 0.0099999998 -0.22
0.33999997 0.0099999998 -0.2
0.35999995 0.0099999998 -0.30000001
0.35999995 0.0099999998 -0.28
0.35999995 0.0099999998 -0.26000002
0.35999995 0.0099999998 -0.24000001
0.35999995 0.0099999998 -0.22
0.35999995 0.0099999998 -0.2
0.37999994 0.0099999998 -0.30000001
0.37999994 0.0099999998 -0.28000003
0.37999994 0.0099999998 -0.26000002
0.37999994 0.0099999998 -0.24000001
0.37999994 0.0099999998 -0.22000001
0.37999994 0.0099999998 -0.2
0.39999992 0.0099999998 -0.30000004
0.39999992 0.0099999998 -0.28000003
0.39999992 0.0099999998 -0.26000002
0.39999989 0.0099999998 -0.24000001
0.39999989 0.0099999998 -0.22000001
0.39999989 0.0099999998 -0.2
0.41999987 0.0099999998 -0.30000004
0.41999987 0.0099999998 -0.28000003
0.41999987 0.0099999998 -0.26000002
0.41999984 0.0099999998 -0.24000002
0.41999984 0.0099999998 -0.22000001
0.41999984 0.0099999998 -0.20000002
0.43999982 0.0099999998 -0.30000007
0.43999979 0.0099999998 -0.28000006
0.43999979 0.0099999998 -0.26000005
0.43999979 0.0099999998 -0.24000002
0.43999979 0.0099999998 -0.22000003
0.43999976 0.0099999998 -0.20000002
0.45999971 0.0099999998 -0.30000013
0.45999968 0.0099999998 -0.28000009
0.45999968 0.0099999998 -0.26000005
0.45999968 0.0099999998 -0.24000004
0.45999968 0.0099999998 -0.22000003
0.45999968 0.0099999998 -0.20000003
0.47999957 0.0099999998 -0.30000019
0.47999954 0.0099999998 -0.28000012
0.47999954 0.0099999998 -0.26000008
0.47999951 0.0099999998 -0.24000007
0.47999951 0.0099999998 -0.22000006
0.47999951 0.0099999998 -0.20000005
0.49999934 0.0099999998 -0.30000028
0.49999931 0.0099999998 -0.28000018
0.49999931 0.0099999998 -0.26000014
0.49999931 0.0099999998 -0.2400001
0.49999931 0.0099999998 -0.22000009
0.49999931 0.0099999998 -0.20000006
0.51999903 0.0099999998 -0.30000043
0.51999903 0.0099999998 -0.2800003
0.51999903 0.0099999998 -0.2600002
0.51999903 0.0099999998 -0.24000016
0.51999903 0.0099999998 -0.22000013
0.51999903 0.0099999998 -0.20000011
0.53999853 0.0099999998 -0.3000007
0.53999859 0.0099999998 -0.28000048
0.53999865 0.0099999998 -0.26000035
0.53999871 0.0099999998 -0.24000026
0.53999865 0.0099999998 -0.22000019
0.53999865 0.0099999998 -0.20000015
0.55999792 0.0099999998 -0.30000111
0.5599981 0.0099999998 -0.28000081
0.55999821 0.0099999998 -0.26000056
0.55999821 0.0099999998 -0.24000038
0.55999821 0.0099999998 -0.22000028
0.55999821 0.0099999998 -0.20000021
0.57999718 0.0099999998 -0.30000183
0.57999754 0.0099999998 -0.28000134
0.57999766 0.0099999998 -0.26000085
0.57999772 0.0099999998 -0.24000055
0.57999772 0.0099999998 -0.22000037
0.57999772 0.0099999998 -0.20000027
0.59999639 0.0099999998 -0.30000302
0.59999686 0.0099999998 -0.28000224
0.59999704 0.0099999998 -0.26000136
0.59999716 0.0099999998 -0.2400008
0.59999716 0.0099999998 -0.22000049
0.59999716 0.0099999998 -0.20000033
0.61999571 0.0099999998 -0.30000508
0.61999625 0.0099999998 -0.28000382
0.61999649 0.0099999998 -0.26000234
0.61999655 0.0099999998 -0.24000123
0.61999661 0.0099999998 -0.22000065
0.61999667 0.0099999998 -0.20000039
0.63999528 0.0099999998 -0.30000821
0.63999581 0.0099999998 -0.28000638
0.63999599 0.0099999998 -0.26000392
0.63999605 0.0099999998 -0.24000204
0.63999611 0.0099999998 -0.22000098
0.63999617 0.0099999998 -0.20000049
0.65999526 0.0099999998 -0.30001196
0.65999568 0.0099999998 -0.28000951
0.65999573 0.0099999998 -0.26000592
0.65999573 0.0099999998 -0.24000306
0.65999579 0.0099999998 -0.22000143
0.65999591 0.0099999998 -0.20000066
0.67999566 0.0099999998 -0.30001521
0.67999595 0.0099999998 -0.28001225
0.67999595 0.0099999998 -0.26000768
0.67999589 0.0099999998 -0.24000399
0.67999595 0.0099999998 -0.22000183
0.67999601 0.0099999998 -0.20000081
0.69999659 0.0099999998 -0.30001736
0.69999665 0.0099999998 -0.28001407
0.69999665 0.0099999998 -0.26000887
0.69999659 0.0099999998 -0.24000461
0.69999659 0.0099999998 -0.22000213
0.69999665 0.0099999998 -0.20000093
0.71999758 0.0099999998 -0.30001864
0.71999758 0.0099999998 -0.28001508
0.71999758 0.0099999998 -0.26000953
0.71999758 0.0099999998 -0.24000496
0.71999764 0.0099999998 -0.22000229
0.71999764 0.0099999998 -0.20000102
0.73999852 0.0099999998 -0.30001932
0.73999852 0.0099999998 -0.28001565
0.73999852 0.0099999998 -0.26000988
0.73999852 0.0099999998 -0.24000515
0.73999858 0.0099999998 -0.22000238
0.73999858 0.0099999998 -0.20000106
0.75999928 0.0099999998 -0.30001968
0.75999928 0.0099999998 -0.28001595
0.75999928 0.0099999998 -0.26001006
0.75999928 0.0099999998 -0.24000525
0.75999928 0.0099999998 -0.22000244
0.75999928 0.0099999998 -0.20000109
0.77999979 0.0099999998 -0.30001983
0.77999979 0.0099999998 -0.28001606
0.77999979 0.0099999998 -0.26001015
0.77999979 0.0099999998 -0.24000528
0.77999979 0.0099999998 -0.22000246
0.77999979 0.0099999998 -0.20000111
0.80000019 0.0099999998 -0.30001983
0.80000019 0.0099999998 -0.28001603
0.80000019 0.0099999998 -0.26001012
0.80000019 0.0099999998 -0.24000528
0.80000019 0.0099999998 -0.22000246
0.80000019 0.0099999998 -0.20000111
0.82000059 0.0099999998 -0.30001974
0.82000059 0.0099999998 -0.28001598
0.82000059 0.0099999998 -0.26001006
0.82000059 0.0099999998 -0.24000525
0.82000059 0.0099999998 -0.22000244
0.82000053 0.0099999998 -0.20000109
0.84000093 0.0099999998 -0.30001938
0.84000093 0.0099999998 -0.28001568
0.84000093 0.0099999998 -0.26000988
0.84000093 0.0099999998 -0.24000515
0.84000093 0.0099999998 -0.2200024
0.84000093 0.0099999998 -0.20000108
0.86000133 0.0099999998 -0.30001876
0.86000133 0.0099999998 -0.28001517
0.86000133 0.0099999998 -0.26000956
0.86000133 0.0099999998 -0.24000499
0.86000133 0.0099999998 -0.22000231
0.86000133 0.0099999998 -0.20000103
0.88000172 0.0099999998 -0.30001789
0.88000172 0.0099999998 -0.28001446
0.88000172 0.0099999998 -0.26000911
0.88000172 0.0099999998 -0.24000475
0.88000166 0.0099999998 -0.2200022
0.88000166 0.0099999998 -0.20000099
0.900002 0.0099999998 -0.30001682
0.900002 0.0099999998 -0.28001359
0.900002 0.0099999998 -0.26000857
0.900002 0.0099999998 -0.24000446
0.900002 0.0099999998 -0.22000207
0.900002 0.0099999998 -0.20000093
0.92000228 0.0099999998 -0.30001557
0.92000228 0.0099999998 -0.28001258
0.92000228 0.0099999998 -0.26000795
0.92000228 0.0099999998 -0.24000414
0.92000222 0.0099999998 -0.22000192
0.92000222 0.0099999998 -0.20000087
0.94000238 0.0099999998 -0.30001426
0.94000238 0.0099999998 -0.2800115
0.94000244 0.0099999998 -0.26000723
0.94000238 0.0099999998 -0.24000376
0.94000238 0.0099999998 -0.22000176
0.94000232 0.0099999998 -0.20000079
0.96000248 0.0099999998 -0.30001286
0.96000248 0.0099999998 -0.28001037
0.96000248 0.0099999998 -0.26000655
0.96000248 0.0099999998 -0.24000339
0.96000242 0.0099999998 -0.22000158
0.96000236 0.0099999998 -0.20000072
0.98000258 0.0099999998 -0.30001149
0.98000252 0.0099999998 -0.28000927
0.98000252 0.0099999998 -0.26000583
0.98000246 0.0099999998 -0.24000303
0.98000234 0.0099999998 -0.22000141
0.98000228 0.0099999998 -0.20000064
1.0000027 0.0099999998 -0.30001014
1.0000026 0.0099999998 -0.2800082
1.0000025 0.0099999998 -0.26000518
1.0000023999999998 0.0099999998 -0.24000271
1.0000023 0.0099999998 -0.22000127
1.0000021000000001 0.0099999998 -0.20000058
1.020003 0.0099999998 -0.30000889
1.0200027 0.0099999998 -0.28000724
1.0200025 0.0099999998 -0.26000461
1.0200023999999999 0.0099999998 -0.24000244
1.0200022 0.0099999998 -0.22000115
1.0200021000000001 0.0099999998 -0.20000054
1.0400032 0.0099999998 -0.30000773
1.0400029 0.0099999998 -0.28000638
1.0400026 0.0099999998 -0.26000416
1.0400023 0.0099999998 -0.24000224
1.0400021000000002 0.0099999998 -0.22000109
1.040002 0.0099999998 -0.20000052
1.0600036 0.0099999998 -0.30000669
1.0600032 0.0099999998 -0.28000566
1.0600027 0.0099999998 -0.26000383
1.0600023 0.0099999998 -0.24000216
1.0600021000000002 0.0099999998 -0.22000107
1.0600018999999998 0.0099999998 -0.20000052
1.0800040000000002 0.0099999998 -0.30000579
1.0800034 0.0099999998 -0.28000507
1.0800028 0.0099999998 -0.26000363
1.0800023 0.0099999998 -0.24000216
1.0800020000000001 0.0099999998 -0.22000113
1.0800018 0.0099999998 -0.20000055
1.1000035 0.0099999998 -0.28000456
1.1000028999999998 0.0099999998 -0.26000351
1.1000024 0.0099999998 -0.24000224
1.1000018999999999 0.0099999998 -0.22000124
1.1000017 0.0099999998 -0.20000063
1.1200036 0.0099999998 -0.28000411
1.120003 0.0099999998 -0.26000339
1.1200025 0.0099999998 -0.24000236
1.120002 0.0099999998 -0.22000141
1.1200017 0.0099999998 -0.20000075
1.1400031000000002 0.0099999998 -0.26000327
1.1400025 0.0099999998 -0.24000248
1.140002 0.0099999998 -0.22000162
1.1400017 0.0099999998 -0.20000093
1.1600031000000002 0.0099999998 -0.26000309
1.1600027 0.0099999998 -0.24000254
1.1600021999999999 0.0099999998 -0.22000183
1.1600018 0.0099999998 -0.20000115
1.1800028 0.0099999998 -0.24000254
1.1800023000000002 0.0099999998 -0.220002
1.180002 0.0099999998 -0.20000137
1.2000026000000001 0.0099999998 -0.2200021
1.2000023000000002 0.0099999998 -0.20000157
1.2200027 0.0099999998 -0.22000213
1.2200024999999999 0.0099999998 -0.2000017
-4.616091400000001e-12 0.0099999998 -0.18000001
-4.8451247000000006e-12 0.0099999998 -0.16
-5.0247454e-12 0.0099999998 -0.14
-5.163307299999999e-12 0.0099999998 -0.12
-5.2679384000000006e-12 0.0099999998 -0.1
-5.3450421e-12 0.0099999998 -0.079999998
-5.399740599999999e-12 0.0099999998 -0.059999999000000005
-5.4360093e-12 0.0099999998 -0.039999999
-5.4566642e-12 0.0099999998 -0.02
0.02 0.0099999998 -0.18000001
0.02 0.0099999998 -0.16
0.02 0.0099999998 -0.14
0.02 0.0099999998 -0.12
0.02 0.0099999998 -0.1
0.02 0.0099999998 -0.079999998
0.02 0.0099999998 -0.059999999000000005
0.02 0.0099999998 -0.039999999
0.02 0.0099999998 -0.02
0.039999999 0.0099999998 -0.18000001
0.039999999 0.0099999998 -0.16
0.039999999 0.0099999998 -0.14
0.039999999 0.0099999998 -0.12
0.039999999 0.0099999998 -0.1
0.039999999 0.0099999998 -0.079999998
0.039999999 0.0099999998 -0.059999999000000005
0.039999999 0.0099999998 -0.039999999
0.039999999 0.0099999998 -0.02
0.059999999000000005 0.0099999998 -0.18000001
0.059999999000000005 0.0099999998 -0.16
0.059999999000000005 0.0099999998 -0.14
0.059999999000000005 0.0099999998 -0.12
0.059999999000000005 0.0099999998 -0.1
0.059999999000000005 0.0099999998 -0.079999998
0.059999999000000005 0.0099999998 -0.059999999000000005
0.059999999000000005 0.0099999998 -0.039999999
0.059999999000000005 0.0099999998 -0.02
0.079999998 0.0099999998 -0.18000001
0.079999998 0.0099999998 -0.16
0.079999998 0.0099999998 -0.14
0.079999998 0.0099999998 -0.12
0.079999998 0.0099999998 -0.1
0.079999998 0.0099999998 -0.079999998
0.079999998 0.0099999998 -0.059999999000000005
0.079999998 0.0099999998 -0.039999999
0.079999998 0.0099999998 -0.02
0.1 0.0099999998 -0.18000001
0.1 0.0099999998 -0.16
0.1 0.0099999998 -0.14
0.1 0.0099999998 -0.12
0.1 0.0099999998 -0.1
0.1 0.0099999998 -0.079999998
0.1 0.0099999998 -0.059999999000000005
0.1 0.0099999998 -0.039999999
0.1 0.0099999998 -0.02
0.12 0.0099999998 -0.18000001
0.12 0.0099999998 -0.16
0.12 0.0099999998 -0.14
0.12 0.0099999998 -0.12
0.12 0.0099999998 -0.1
0.12 0.0099999998 -0.079999998
0.12 0.0099999998 -0.059999999000000005
0.12 0.0099999998 -0.039999999
0.12 0.0099999998 -0.02
0.14 0.0099999998 -0.18000001
0.14 0.0099999998 -0.16
0.14 0.0099999998 -0.14
0.14 0.0099999998 -0.12
0.14 0.0099999998 -0.1
0.14 0.0099999998 -0.079999998
0.14 0.0099999998 -0.059999999000000005
0.14 0.0099999998 -0.039999999
0.14 0.0099999998 -0.02
0.16 0.0099999998 -0.18000001
0.16 0.0099999998 -0.16
0.16 0.0099999998 -0.14
0.16 0.0099999998 -0.12
0.16 0.0099999998 -0.1
0.16 0.0099999998 -0.079999998
0.16 0.0099999998 -0.059999999000000005
0.16 0.0099999998 -0.039999999
0.16 0.0099999998 -0.02
0.17999999 0.0099999998 -0.18000001
0.17999999 0.0099999998 -0.16
0.17999999 0.0099999998 -0.14
0.17999999 0.0099999998 -0.12
0.17999999 0.0099999998 -0.1
0.17999999 0.0099999998 -0.079999998
0.17999999 0.0099999998 -0.059999999000000005
0.17999999 0.0099999998 -0.039999999
0.17999999 0.0099999998 -0.02
0.2 0.0099999998 -0.18000001
0.2 0.0099999998 -0.16
0.2 0.0099999998 -0.14
0.2 0.0099999998 -0.12
0.2 0.0099999998 -0.1
0.2 0.0099999998 -0.079999998
0.2 0.0099999998 -0.059999999000000005
0.2 0.0099999998 -0.039999999
0.2 0.0099999998 -0.02
0.22 0.0099999998 -0.18000001
0.22 0.0099999998 -0.16
0.22 0.0099999998 -0.14
0.22 0.0099999998 -0.12
0.22 0.0099999998 -0.1
0.22 0.0099999998 -0.079999998
0.22 0.0099999998 -0.059999999000000005
0.22 0.0099999998 -0.039999999
0.22 0.0099999998 -0.02
0.23999999 0.0099999998 -0.18000001
0.23999999 0.0099999998 -0.16
0.23999999 0.0099999998 -0.14
0.23999999 0.0099999998 -0.12
0.23999999 0.0099999998 -0.1
0.23999999 0.0099999998 -0.079999998
0.23999999 0.0099999998 -0.059999999000000005
0.23999999 0.0099999998 -0.039999999
0.23999999 0.0099999998 -0.02
0.25999999 0.0099999998 -0.18000001
0.25999999 0.0099999998 -0.16
0.25999999 0.0099999998 -0.14
0.25999999 0.0099999998 -0.12
0.25999999 0.0099999998 -0.1
0.25999999 0.0099999998 -0.079999998
0.25999999 0.0099999998 -0.059999999000000005
0.25999999 0.0099999998 -0.039999999
0.25999999 0.0099999998 -0.02
0.28 0.0099999998 -0.18000001
0.28 0.0099999998 -0.16
0.28 0.0099999998 -0.14
0.28 0.0099999998 -0.12
0.28 0.0099999998 -0.1
0.28 0.0099999998 -0.079999998
0.28 0.0099999998 -0.059999999000000005
0.28 0.0099999998 -0.039999999
0.28 0.0099999998 -0.02
0.29999998 0.0099999998 -0.18000001
0.29999998 0.0099999998 -0.16
0.29999998 0.0099999998 -0.14
0.29999998 0.0099999998 -0.12
0.29999998 0.0099999998 -0.1
0.29999998 0.0099999998 -0.079999998
0.29999998 0.0099999998 -0.059999999000000005
0.29999998 0.0099999998 -0.039999999
0.29999998 0.0099999998 -0.02
0.31999999 0.0099999998 -0.18000001
0.31999999 0.0099999998 -0.16
0.31999999 0.0099999998 -0.14
0.31999996 0.0099999998 -0.12
0.31999996 0.0099999998 -0.1
0.31999996 0.0099999998 -0.079999998
0.31999996 0.0099999998 -0.059999999000000005
0.31999996 0.0099999998 -0.039999999
0.31999996 0.0099999998 -0.02
0.33999997 0.0099999998 -0.18000001
0.33999997 0.0099999998 -0.16
0.33999997 0.0099999998 -0.14
0.33999997 0.0099999998 -0.12
0.33999997 0.0099999998 -0.1
0.33999997 0.0099999998 -0.079999998
0.33999997 0.0099999998 -0.059999999000000005
0.33999997 0.0099999998 -0.039999999
0.33999997 0.0099999998 -0.02
0.35999995 0.0099999998 -0.18000001
0.35999995 0.0099999998 -0.16
0.35999995 0.0099999998 -0.14
0.35999995 0.0099999998 -0.12
0.35999995 0.0099999998 -0.1
0.35999995 0.0099999998 -0.079999998
0.35999995 0.0099999998 -0.060000002000000004
0.35999995 0.0099999998 -0.039999999
0.35999995 0.0099999998 -0.02
0.37999994 0.0099999998 -0.18000001
0.37999994 0.0099999998 -0.16
0.37999994 0.0099999998 -0.14
0.37999994 0.0099999998 -0.12
0.37999994 0.0099999998 -0.1
0.37999994 0.0099999998 -0.079999998
0.37999994 0.0099999998 -0.060000002000000004
0.37999994 0.0099999998 -0.039999999
0.37999994 0.0099999998 -0.02
0.39999989 0.0099999998 -0.18000001
0.39999989 0.0099999998 -0.16000001
0.39999989 0.0099999998 -0.14
0.39999989 0.0099999998 -0.12
0.39999989 0.0099999998 -0.1
0.39999989 0.0099999998 -0.079999998
0.39999989 0.0099999998 -0.060000002000000004
0.39999989 0.0099999998 -0.039999999
0.39999989 0.0099999998 -0.02
0.41999984 0.0099999998 -0.18000001
0.41999984 0.0099999998 -0.16000001
0.41999984 0.0099999998 -0.14
0.41999984 0.0099999998 -0.12
0.41999984 0.0099999998 -0.1
0.41999984 0.0099999998 -0.080000006
0.41999984 0.0099999998 -0.060000002000000004
0.41999984 0.0099999998 -0.040000003
0.41999984 0.0099999998 -0.020000001
0.43999976 0.0099999998 -0.18000002
0.43999976 0.0099999998 -0.16000001
0.43999976 0.0099999998 -0.14000002
0.43999976 0.0099999998 -0.12
0.43999976 0.0099999998 -0.10000001
0.43999976 0.0099999998 -0.080000006
0.43999976 0.0099999998 -0.060000002000000004
0.43999976 0.0099999998 -0.040000003
0.43999976 0.0099999998 -0.020000001
0.45999965 0.0099999998 -0.18000002
0.45999965 0.0099999998 -0.16000001
0.45999965 0.0099999998 -0.14000002
0.45999965 0.0099999998 -0.12000001
0.45999965 0.0099999998 -0.10000001
0.45999965 0.0099999998 -0.080000006
0.45999965 0.0099999998 -0.060000002000000004
0.45999965 0.0099999998 -0.040000003
0.45999965 0.0099999998 -0.020000001
0.47999951 0.0099999998 -0.18000004
0.47999951 0.0099999998 -0.16000003
0.47999951 0.0099999998 -0.14000002
0.47999951 0.0099999998 -0.12000001
0.47999951 0.0099999998 -0.10000001
0.47999951 0.0099999998 -0.080000006
0.47999951 0.0099999998 -0.060000005999999995
0.47999951 0.0099999998 -0.040000003
0.47999951 0.0099999998 -0.020000001
0.49999928 0.0099999998 -0.18000005
0.49999928 0.0099999998 -0.16000004
0.49999928 0.0099999998 -0.14000003
0.49999928 0.0099999998 -0.12000002
0.49999928 0.0099999998 -0.10000002
0.49999928 0.0099999998 -0.080000013
0.49999928 0.0099999998 -0.060000005999999995
0.49999928 0.0099999998 -0.040000003
0.49999928 0.0099999998 -0.020000001
0.51999903 0.0099999998 -0.18000008
0.51999897 0.0099999998 -0.16000006
0.51999897 0.0099999998 -0.14000005
0.51999897 0.0099999998 -0.12000003
0.51999897 0.0099999998 -0.10000002
0.51999897 0.0099999998 -0.080000013
0.51999897 0.0099999998 -0.06000001
0.51999897 0.0099999998 -0.040000007000000004
0.51999897 0.0099999998 -0.020000003
0.53999865 0.0099999998 -0.18000011
0.53999859 0.0099999998 -0.16000009
0.53999859 0.0099999998 -0.14000006
0.53999859 0.0099999998 -0.12000004
0.53999859 0.0099999998 -0.10000002
0.53999859 0.0099999998 -0.08000002099999999
0.53999859 0.0099999998 -0.06000001
0.53999859 0.0099999998 -0.040000007000000004
0.53999859 0.0099999998 -0.020000003
0.55999815 0.0099999998 -0.18000016
0.55999815 0.0099999998 -0.16000012
0.55999815 0.0099999998 -0.14000008
0.55999815 0.0099999998 -0.12000005
0.55999815 0.0099999998 -0.10000003
0.55999815 0.0099999998 -0.08000002099999999
0.55999815 0.0099999998 -0.060000014000000004
0.55999815 0.0099999998 -0.040000007000000004
0.55999815 0.0099999998 -0.020000003
0.57999772 0.0099999998 -0.1800002
0.57999766 0.0099999998 -0.16000015
0.57999766 0.0099999998 -0.1400001
0.57999766 0.0099999998 -0.12000006
0.57999766 0.0099999998 -0.10000005
0.57999766 0.0099999998 -0.080000028
0.57999766 0.0099999998 -0.060000017
0.57999766 0.0099999998 -0.04000001
0.57999766 0.0099999998 -0.020000005
0.59999716 0.0099999998 -0.18000023
0.59999716 0.0099999998 -0.16000018
0.59999716 0.0099999998 -0.14000012
0.59999722 0.0099999998 -0.12000008
0.59999722 0.0099999998 -0.10000005
0.59999722 0.0099999998 -0.080000035
0.59999722 0.0099999998 -0.060000020999999994
0.59999722 0.0099999998 -0.040000014
0.59999722 0.0099999998 -0.020000005
0.61999667 0.0099999998 -0.18000026
0.61999673 0.0099999998 -0.16000019
0.61999673 0.0099999998 -0.14000013
0.61999673 0.0099999998 -0.12000009
0.61999673 0.0099999998 -0.10000006
0.61999673 0.0099999998 -0.08000004299999999
0.61999673 0.0099999998 -0.060000025
0.61999673 0.0099999998 -0.040000014
0.61999673 0.0099999998 -0.020000007
0.63999623 0.0099999998 -0.18000029
0.63999629 0.0099999998 -0.16000021
0.63999629 0.0099999998 -0.14000015
0.63999635 0.0099999998 -0.1200001
0.63999635 0.0099999998 -0.10000007
0.63999635 0.0099999998 -0.08000004299999999
0.63999635 0.0099999998 -0.060000025
0.63999635 0.0099999998 -0.040000014
0.63999635 0.0099999998 -0.020000007
0.65999597 0.0099999998 -0.18000036
0.65999597 0.0099999998 -0.16000025
0.65999603 0.0099999998 -0.14000018
0.65999603 0.0099999998 -0.12000012
0.65999609 0.0099999998 -0.10000008
0.65999609 0.0099999998 -0.08000005
0.65999609 0.0099999998 -0.060000028
0.65999609 0.0099999998 -0.040000014
0.65999609 0.0099999998 -0.020000007
0.67999601 0.0099999998 -0.18000041
0.67999607 0.0099999998 -0.16000026
0.67999613 0.0099999998 -0.14000019
0.67999613 0.0099999998 -0.12000014
0.67999613 0.0099999998 -0.10000008
0.67999613 0.0099999998 -0.08000005
0.67999613 0.0099999998 -0.060000028
0.67999613 0.0099999998 -0.040000014
0.67999613 0.0099999998 -0.020000005
0.69999671 0.0099999998 -0.18000045
0.69999671 0.0099999998 -0.16000029
0.69999671 0.0099999998 -0.14000022
0.69999677 0.0099999998 -0.12000015
0.69999677 0.0099999998 -0.10000009
0.69999677 0.0099999998 -0.080000058
0.69999677 0.0099999998 -0.060000028
0.69999677 0.0099999998 -0.040000014
0.69999677 0.0099999998 -0.020000005
0.71999764 0.0099999998 -0.1800005
0.7199977 0.0099999998 -0.16000032
0.7199977 0.0099999998 -0.14000024
0.7199977 0.0099999998 -0.12000017
0.7199977 0.0099999998 -0.10000011
0.71999776 0.0099999998 -0.080000058
0.71999776 0.0099999998 -0.060000032
0.71999776 0.0099999998 -0.040000014
0.71999776 0.0099999998 -0.020000005
0.73999858 0.0099999998 -0.18000053
0.73999858 0.0099999998 -0.16000035
0.73999864 0.0099999998 -0.14000025
0.73999864 0.0099999998 -0.12000018
0.73999864 0.0099999998 -0.10000011
0.73999864 0.0099999998 -0.080000065
0.73999864 0.0099999998 -0.060000032
0.73999864 0.0099999998 -0.040000014
0.73999864 0.0099999998 -0.020000005
0.75999928 0.0099999998 -0.18000054
0.75999928 0.0099999998 -0.16000037
0.75999933 0.0099999998 -0.14000027
0.75999933 0.0099999998 -0.12000018
0.75999933 0.0099999998 -0.10000011
0.75999933 0.0099999998 -0.080000065
0.75999933 0.0099999998 -0.060000036
0.75999933 0.0099999998 -0.040000014
0.75999933 0.0099999998 -0.020000005
0.77999979 0.0099999998 -0.18000056
0.77999979 0.0099999998 -0.16000037
0.77999979 0.0099999998 -0.14000027
0.77999979 0.0099999998 -0.12000019
0.77999979 0.0099999998 -0.10000012
0.77999979 0.0099999998 -0.080000065
0.77999979 0.0099999998 -0.060000036
0.77999979 0.0099999998 -0.040000018
0.77999979 0.0099999998 -0.020000005
0.80000019 0.0099999998 -0.18000056
0.80000019 0.0099999998 -0.16000037
0.80000019 0.0099999998 -0.14000028
0.80000019 0.0099999998 -0.12000019
0.80000019 0.0099999998 -0.10000012
0.80000019 0.0099999998 -0.080000065
0.80000019 0.0099999998 -0.060000036
0.80000019 0.0099999998 -0.040000018
0.80000019 0.0099999998 -0.020000007
0.82000053 0.0099999998 -0.18000056
0.82000053 0.0099999998 -0.16000037
0.82000053 0.0099999998 -0.14000027
0.82000053 0.0099999998 -0.12000019
0.82000053 0.0099999998 -0.10000012
0.82000053 0.0099999998 -0.080000065
0.82000053 0.0099999998 -0.060000036
0.82000053 0.0099999998 -0.040000018
0.82000053 0.0099999998 -0.020000005
0.84000093 0.0099999998 -0.18000054
0.84000093 0.0099999998 -0.16000037
0.84000093 0.0099999998 -0.14000027
0.84000093 0.0099999998 -0.12000018
0.84000087 0.0099999998 -0.10000011
0.84000087 0.0099999998 -0.080000065
0.84000087 0.0099999998 -0.060000036
0.84000087 0.0099999998 -0.040000014
0.84000087 0.0099999998 -0.020000005
0.86000127 0.0099999998 -0.18000053
0.86000127 0.0099999998 -0.16000035
0.86000127 0.0099999998 -0.14000025
0.86000127 0.0099999998 -0.12000018
0.86000127 0.0099999998 -0.10000011
0.86000127 0.0099999998 -0.080000065
0.86000127 0.0099999998 -0.060000032
0.86000127 0.0099999998 -0.040000014
0.86000127 0.0099999998 -0.020000005
0.88000166 0.0099999998 -0.1800005
0.88000166 0.0099999998 -0.16000034
0.8800016 0.0099999998 -0.14000025
0.8800016 0.0099999998 -0.12000017
0.8800016 0.0099999998 -0.10000011
0.8800016 0.0099999998 -0.080000058
0.8800016 0.0099999998 -0.060000032
0.8800016 0.0099999998 -0.040000014
0.8800016 0.0099999998 -0.020000005
0.90000194 0.0099999998 -0.18000047
0.90000194 0.0099999998 -0.16000032
0.90000194 0.0099999998 -0.14000024
0.90000194 0.0099999998 -0.12000016
0.90000188 0.0099999998 -0.1000001
0.90000188 0.0099999998 -0.080000058
0.90000188 0.0099999998 -0.060000028
0.90000188 0.0099999998 -0.040000014
0.90000188 0.0099999998 -0.020000005
0.92000216 0.0099999998 -0.18000044
0.92000216 0.0099999998 -0.16000029
0.92000216 0.0099999998 -0.14000022
0.9200021 0.0099999998 -0.12000015
0.9200021 0.0099999998 -0.1000001
0.9200021 0.0099999998 -0.080000058
0.9200021 0.0099999998 -0.060000028
0.9200021 0.0099999998 -0.040000014
0.9200021 0.0099999998 -0.020000005
0.94000226 0.0099999998 -0.18000041
0.94000226 0.0099999998 -0.16000028
0.9400022 0.0099999998 -0.14000021
0.9400022 0.0099999998 -0.12000015
0.9400022 0.0099999998 -0.10000009
0.9400022 0.0099999998 -0.080000058
0.94000214 0.0099999998 -0.060000032
0.94000214 0.0099999998 -0.040000014
0.94000214 0.0099999998 -0.020000007
0.96000224 0.0099999998 -0.18000038
0.96000224 0.0099999998 -0.16000026
0.96000218 0.0099999998 -0.14000019
0.96000218 0.0099999998 -0.12000014
0.96000218 0.0099999998 -0.10000009
0.96000212 0.0099999998 -0.080000058
0.96000212 0.0099999998 -0.060000032
0.96000212 0.0099999998 -0.040000018
0.96000212 0.0099999998 -0.020000007
0.98000222 0.0099999998 -0.18000035
0.98000216 0.0099999998 -0.16000025
0.98000211 0.0099999998 -0.14000018
0.98000211 0.0099999998 -0.12000013
0.98000211 0.0099999998 -0.10000008
0.98000211 0.0099999998 -0.08000005
0.98000211 0.0099999998 -0.060000032
0.98000211 0.0099999998 -0.040000018
0.98000211 0.0099999998 -0.020000007
1.0000021000000001 0.0099999998 -0.18000033
1.000002 0.0099999998 -0.16000023
1.000002 0.0099999998 -0.14000018
1.000002 0.0099999998 -0.12000012
1.000002 0.0099999998 -0.10000008
1.000002 0.0099999998 -0.08000005
1.000002 0.0099999998 -0.060000032
1.000002 0.0099999998 -0.040000018
1.000002 0.0099999998 -0.020000009
1.020002 0.0099999998 -0.18000032
1.020002 0.0099999998 -0.16000023
1.0200019 0.0099999998 -0.14000016
1.0200019 0.0099999998 -0.12000012
1.0200019 0.0099999998 -0.10000008
1.0200019 0.0099999998 -0.08000005
1.0200019 0.0099999998 -0.060000032
1.0200019 0.0099999998 -0.040000018
1.0200019 0.0099999998 -0.020000009
1.0400019 0.0099999998 -0.18000031
1.0400019 0.0099999998 -0.16000022
1.0400019 0.0099999998 -0.14000016
1.0400017 0.0099999998 -0.12000012
1.0400017 0.0099999998 -0.10000008
1.0400017 0.0099999998 -0.08000005
1.0400017 0.0099999998 -0.060000032
1.0400017 0.0099999998 -0.040000018
1.0400017 0.0099999998 -0.020000009
1.0600017 0.0099999998 -0.18000031
1.0600017 0.0099999998 -0.16000021
1.0600017 0.0099999998 -0.14000016
1.0600016 0.0099999998 -0.12000012
1.0600016 0.0099999998 -0.10000008
1.0600016 0.0099999998 -0.08000005
1.0600016 0.0099999998 -0.060000032
1.0600016 0.0099999998 -0.040000018
1.0600016 0.0099999998 -0.020000009
1.0800016000000001 0.0099999998 -0.18000031
1.0800016000000001 0.0099999998 -0.16000021
1.0800016000000001 0.0099999998 -0.14000015
1.0800014999999998 0.0099999998 -0.12000011
1.0800014999999998 0.0099999998 -0.10000008
1.0800014999999998 0.0099999998 -0.08000005
1.0800014999999998 0.0099999998 -0.060000036
1.0800014999999998 0.0099999998 -0.040000021000000004
1.0800014999999998 0.0099999998 -0.020000009
1.1000016000000001 0.0099999998 -0.18000033
1.1000014999999999 0.0099999998 -0.16000021
1.1000014999999999 0.0099999998 -0.14000015
1.1000013000000002 0.0099999998 -0.12000011
1.1000013000000002 0.0099999998 -0.10000008
1.1000013000000002 0.0099999998 -0.080000058
1.1000013000000002 0.0099999998 -0.060000036
1.1000013000000002 0.0099999998 -0.040000021000000004
1.1000013000000002 0.0099999998 -0.020000011
1.1200013999999998 0.0099999998 -0.18000039
1.1200013 0.0099999998 -0.16000022
1.1200013 0.0099999998 -0.14000013
1.1200012 0.0099999998 -0.1200001
1.1200012 0.0099999998 -0.10000008
1.1200012 0.0099999998 -0.080000058
1.1200012 0.0099999998 -0.06000004
1.1200012 0.0099999998 -0.040000025
1.1200012 0.0099999998 -0.020000011
1.1400013999999998 0.0099999998 -0.18000048
1.1400013 0.0099999998 -0.16000026
1.1400012 0.0099999998 -0.14000015
1.1400012 0.0099999998 -0.12000009
1.1400011 0.0099999998 -0.10000007
1.1400011 0.0099999998 -0.08000005
1.1400011 0.0099999998 -0.060000036
1.1400011 0.0099999998 -0.040000025
1.1400011 0.0099999998 -0.020000013
1.1600015 0.0099999998 -0.18000065
1.1600013 0.0099999998 -0.16000034
1.1600012 0.0099999998 -0.14000018
1.160001 0.0099999998 -0.1200001
1.160001 0.0099999998 -0.10000006
1.160001 0.0099999998 -0.08000004299999999
1.1600008999999998 0.0099999998 -0.060000032
1.1600008999999998 0.0099999998 -0.040000021000000004
1.1600008999999998 0.0099999998 -0.020000011
1.1800016000000002 0.0099999998 -0.18000086
1.1800013999999999 0.0099999998 -0.16000049
1.1800011000000001 0.0099999998 -0.14000027
1.180001 0.0099999998 -0.12000015
1.1800008999999998 0.0099999998 -0.10000008
1.1800008999999998 0.0099999998 -0.08000004299999999
1.1800008999999998 0.0099999998 -0.060000025
1.1800008999999998 0.0099999998 -0.040000014
1.1800008999999998 0.0099999998 -0.020000007
1.200002 0.0099999998 -0.18000108
1.2000016000000002 0.0099999998 -0.1600007
1.2000012 0.0099999998 -0.14000042
1.2000011 0.0099999998 -0.12000024
1.2000008999999998 0.0099999998 -0.10000014
1.2000008999999998 0.0099999998 -0.080000073
1.2000008 0.0099999998 -0.060000036
1.2000008 0.0099999998 -0.040000018
1.2000008 0.0099999998 -0.020000007
1.2200022 0.0099999998 -0.18000129
1.2200018999999998 0.0099999998 -0.16000091
1.2200016000000002 0.0099999998 -0.14000061
1.2200013 0.0099999998 -0.1200004
1.2200011 0.0099999998 -0.10000025
1.2200010000000001 0.0099999998 -0.080000155
1.2200008999999998 0.0099999998 -0.060000084
1.2200008999999998 0.0099999998 -0.04000004
1.2200007 0.0099999998 -0.020000016000000002
1.2400023999999998 0.0099999998 -0.18000145
1.2400023 0.0099999998 -0.16000111
1.240002 0.0099999998 -0.14000082
1.2400016999999999 0.0099999998 -0.12000058
1.2400014 0.0099999998 -0.1000004
1.2400013 0.0099999998 -0.080000259
1.2400011 0.0099999998 -0.060000159000000004
1.2400011 0.0099999998 -0.040000085
1.2400010000000001 0.0099999998 -0.020000037
1.2600023999999999 0.0099999998 -0.16000129
1.2600023 0.0099999998 -0.14000101
1.2600021000000001 0.0099999998 -0.12000077
1.2600018999999998 0.0099999998 -0.10000057
1.2600018 0.0099999998 -0.08000038599999999
1.2600017 0.0099999998 -0.060000240999999996
1.2600015 0.0099999998 -0.040000133
1.2600014 0.0099999998 -0.020000056999999998
1.2800022 0.0099999998 -0.12000097
1.2800022 0.0099999998 -0.10000075
1.2800021000000001 0.0099999998 -0.080000527
1.2800021000000001 0.0099999998 -0.060000334
1.280002 0.0099999998 -0.040000185
1.280002 0.0099999998 -0.020000082
1.3000022 0.0099999998 -0.080000684
1.3000022 0.0099999998 -0.060000437999999996
1.3000022 0.0099999998 -0.040000245
1.3000022 0.0099999998 -0.020000106
-5.4633598e-12 0.0099999998 4.5478711e-19
-5.4566581e-12 0.0099999998 0.02
-5.436008799999999e-12 0.0099999998 0.039999999
-5.3997375e-12 0.0099999998 0.059999999000000005
-5.345039900000001e-12 0.0099999998 0.079999998
-5.2679384000000006e-12 0.0099999998 0.1
-5.1633059999999994e-12 0.0099999998 0.12
-5.0247462e-12 0.0099999998 0.14
0.02 0.0099999998 3.4255555e-19
0.02 0.0099999998 0.02
0.02 0.0099999998 0.039999999
0.02 0.0099999998 0.059999999000000005
0.02 0.0099999998 0.079999998
0.02 0.0099999998 0.1
0.02 0.0099999998 0.12
0.02 0.0099999998 0.14
0.039999999 0.0099999998 -7.6220418e-19
0.039999999 0.0099999998 0.02
0.039999999 0.0099999998 0.039999999
0.039999999 0.0099999998 0.059999999000000005
0.039999999 0.0099999998 0.079999998
0.039999999 0.0099999998 0.1
0.039999999 0.0099999998 0.12
0.039999999 0.0099999998 0.14
0.059999999000000005 0.0099999998 6.507631e-19
0.059999999000000005 0.0099999998 0.02
0.059999999000000005 0.0099999998 0.039999999
0.059999999000000005 0.0099999998 0.059999999000000005
0.059999999000000005 0.0099999998 0.079999998
0.059999999000000005 0.0099999998 0.1
0.059999999000000005 0.0099999998 0.12
0.059999999000000005 0.0099999998 0.14
0.079999998 0.0099999998 4.8384205e-18
0.079999998 0.0099999998 0.02
0.079999998 0.0099999998 0.039999999
0.079999998 0.0099999998 0.059999999000000005
0.079999998 0.0099999998 0.079999998
0.079999998 0.0099999998 0.1
0.079999998 0.0099999998 0.12
0.079999998 0.0099999998 0.14
0.1 0.0099999998 7.9365374e-18
0.1 0.0099999998 0.02
0.1 0.0099999998 0.039999999
0.1 0.0099999998 0.059999999000000005
0.1 0.0099999998 0.079999998
0.1 0.0099999998 0.1
0.1 0.0099999998 0.12
0.1 0.0099999998 0.14
0.12 0.0099999998 -9.2939466e-18
0.12 0.0099999998 0.02
0.12 0.0099999998 0.039999999
0.12 0.0099999998 0.059999999000000005
0.12 0.0099999998 0.079999998
0.12 0.0099999998 0.1
0.12 0.0099999998 0.12
0.12 0.0099999998 0.14
0.14 0.0099999998 -8.7100102e-19
0.14 0.0099999998 0.02
0.14 0.0099999998 0.039999999
0.14 0.0099999998 0.059999999000000005
0.14 0.0099999998 0.079999998
0.14 0.0099999998 0.1
0.14 0.0099999998 0.12
0.14 0.0099999998 0.14
0.16 0.0099999998 -4.3760944e-18
0.16 0.0099999998 0.02
0.16 0.0099999998 0.039999999
0.16 0.0099999998 0.059999999000000005
0.16 0.0099999998 0.079999998
0.16 0.0099999998 0.1
0.16 0.0099999998 0.12
0.16 0.0099999998 0.14
0.17999999 0.0099999998 -7.1352547e-17
0.17999999 0.0099999998 0.02
0.17999999 0.0099999998 0.039999999
0.17999999 0.0099999998 0.059999999000000005
0.17999999 0.0099999998 0.079999998
0.17999999 0.0099999998 0.1
0.17999999 0.0099999998 0.12
0.17999999 0.0099999998 0.14
0.2 0.0099999998 -1.0142367e-17
0.2 0.0099999998 0.02
0.2 0.0099999998 0.039999999
0.2 0.0099999998 0.059999999000000005
0.2 0.0099999998 0.079999998
0.2 0.0099999998 0.1
0.2 0.0099999998 0.12
0.2 0.0099999998 0.14
0.22 0.0099999998 -3.2483598e-17
0.22 0.0099999998 0.02
0.22 0.0099999998 0.039999999
0.22 0.0099999998 0.059999999000000005
0.22 0.0099999998 0.079999998
0.22 0.0099999998 0.1
0.22 0.0099999998 0.12
0.22 0.0099999998 0.14
0.23999999 0.0099999998 1.3279936e-16
0.23999999 0.0099999998 0.02
0.23999999 0.0099999998 0.039999999
0.23999999 0.0099999998 0.059999999000000005
0.23999999 0.0099999998 0.079999998
0.23999999 0.0099999998 0.1
0.23999999 0.0099999998 0.12
0.23999999 0.0099999998 0.14
0.25999999 0.0099999998 -2.0796611000000002e-16
0.25999999 0.0099999998 0.02
0.25999999 0.0099999998 0.039999999
0.25999999 0.0099999998 0.059999999000000005
0.25999999 0.0099999998 0.079999998
0.25999999 0.0099999998 0.1
0.25999999 0.0099999998 0.12
0.25999999 0.0099999998 0.14
0.28 0.0099999998 2.1654906000000006e-16
0.28 0.0099999998 0.02
0.28 0.0099999998 0.039999999
0.28 0.0099999998 0.059999999000000005
0.28 0.0099999998 0.079999998
0.28 0.0099999998 0.1
0.28 0.0099999998 0.12
0.28 0.0099999998 0.14
0.29999998 0.0099999998 -7.3637148e-16
0.29999998 0.0099999998 0.02
0.29999998 0.0099999998 0.039999999
0.29999998 0.0099999998 0.059999999000000005
0.29999998 0.0099999998 0.079999998
0.29999998 0.0099999998 0.1
0.29999998 0.0099999998 0.12
0.29999998 0.0099999998 0.14
0.31999996 0.0099999998 -8.000224599999999e-16
0.31999996 0.0099999998 0.02
0.31999996 0.0099999998 0.039999999
0.31999996 0.0099999998 0.059999999000000005
0.31999996 0.0099999998 0.079999998
0.31999996 0.0099999998 0.1
0.31999996 0.0099999998 0.12
0.31999999 0.0099999998 0.14
0.33999997 0.0099999998 2.0684966e-15
0.33999997 0.0099999998 0.02
0.33999997 0.0099999998 0.039999999
0.33999997 0.0099999998 0.059999999000000005
0.33999997 0.0099999998 0.079999998
0.33999997 0.0099999998 0.1
0.33999997 0.0099999998 0.12
0.33999997 0.0099999998 0.14
0.35999995 0.0099999998 -1.6827218999999997e-16
0.35999995 0.0099999998 0.02
0.35999995 0.0099999998 0.039999999
0.35999995 0.0099999998 0.060000002000000004
0.35999995 0.0099999998 0.079999998
0.35999995 0.0099999998 0.1
0.35999995 0.0099999998 0.12
0.35999995 0.0099999998 0.14
0.37999994 0.0099999998 -1.7705657000000003e-15
0.37999994 0.0099999998 0.02
0.37999994 0.0099999998 0.039999999
0.37999994 0.0099999998 0.060000002000000004
0.37999994 0.0099999998 0.079999998
0.37999994 0.0099999998 0.1
0.37999994 0.0099999998 0.12
0.37999994 0.0099999998 0.14
0.39999989 0.0099999998 -5.0627773e-16
0.39999989 0.0099999998 0.02
0.39999989 0.0099999998 0.039999999
0.39999989 0.0099999998 0.060000002000000004
0.39999989 0.0099999998 0.079999998
0.39999989 0.0099999998 0.1
0.39999989 0.0099999998 0.12
0.39999989 0.0099999998 0.14
0.41999984 0.0099999998 -5.3989677e-15
0.41999984 0.0099999998 0.020000001
0.41999984 0.0099999998 0.040000003
0.41999984 0.0099999998 0.060000002000000004
0.41999984 0.0099999998 0.080000006
0.41999984 0.0099999998 0.1
0.41999984 0.0099999998 0.12
0.41999984 0.0099999998 0.14
0.43999976 0.0099999998 -8.8305514e-15
0.43999976 0.0099999998 0.020000001
0.43999976 0.0099999998 0.040000003
0.43999976 0.0099999998 0.060000002000000004
0.43999976 0.0099999998 0.080000006
0.43999976 0.0099999998 0.10000001
0.43999976 0.0099999998 0.12
0.43999976 0.0099999998 0.14000002
0.45999965 0.0099999998 3.1315909e-14
0.45999965 0.0099999998 0.020000001
0.45999965 0.0099999998 0.040000003
0.45999965 0.0099999998 0.060000002000000004
0.45999965 0.0099999998 0.080000006
0.45999965 0.0099999998 0.10000001
0.45999965 0.0099999998 0.12000001
0.45999965 0.0099999998 0.14000002
0.47999951 0.0099999998 -2.0707235e-14
0.47999951 0.0099999998 0.020000001
0.47999951 0.0099999998 0.040000003
0.47999951 0.0099999998 0.060000005999999995
0.47999951 0.0099999998 0.080000006
0.47999951 0.0099999998 0.10000001
0.47999951 0.0099999998 0.12000001
0.47999951 0.0099999998 0.14000002
0.49999928 0.0099999998 6.4463824e-15
0.49999928 0.0099999998 0.020000001
0.49999928 0.0099999998 0.040000003
0.49999928 0.0099999998 0.060000005999999995
0.49999928 0.0099999998 0.080000013
0.49999928 0.0099999998 0.10000002
0.49999928 0.0099999998 0.12000002
0.49999928 0.0099999998 0.14000003
0.51999897 0.0099999998 -3.4913217e-14
0.51999897 0.0099999998 0.020000003
0.51999897 0.0099999998 0.040000007000000004
0.51999897 0.0099999998 0.06000001
0.51999897 0.0099999998 0.080000013
0.51999897 0.0099999998 0.10000002
0.51999897 0.0099999998 0.12000003
0.51999897 0.0099999998 0.14000005
0.53999859 0.0099999998 1.9686404e-14
0.53999859 0.0099999998 0.020000003
0.53999859 0.0099999998 0.040000007000000004
0.53999859 0.0099999998 0.06000001
0.53999859 0.0099999998 0.08000002099999999
0.53999859 0.0099999998 0.10000002
0.53999859 0.0099999998 0.12000004
0.53999859 0.0099999998 0.14000006
0.55999815 0.0099999998 -1.660611e-14
0.55999815 0.0099999998 0.020000003
0.55999815 0.0099999998 0.040000007000000004
0.55999815 0.0099999998 0.060000014000000004
0.55999815 0.0099999998 0.08000002099999999
0.55999815 0.0099999998 0.10000003
0.55999815 0.0099999998 0.12000005
0.55999815 0.0099999998 0.14000008
0.57999766 0.0099999998 -2.410788e-13
0.57999766 0.0099999998 0.020000005
0.57999766 0.0099999998 0.04000001
0.57999766 0.0099999998 0.060000017
0.57999766 0.0099999998 0.080000028
0.57999766 0.0099999998 0.10000005
0.57999766 0.0099999998 0.12000006
0.57999766 0.0099999998 0.1400001
0.59999722 0.0099999998 -7.4312518e-14
0.59999722 0.0099999998 0.020000005
0.59999722 0.0099999998 0.040000014
0.59999722 0.0099999998 0.060000020999999994
0.59999722 0.0099999998 0.080000035
0.59999722 0.0099999998 0.10000005
0.59999722 0.0099999998 0.12000008
0.59999716 0.0099999998 0.14000012
0.61999673 0.0099999998 -2.5100329e-13
0.61999673 0.0099999998 0.020000007
0.61999673 0.0099999998 0.040000014
0.61999673 0.0099999998 0.060000025
0.61999673 0.0099999998 0.08000004299999999
0.61999673 0.0099999998 0.10000006
0.61999673 0.0099999998 0.12000009
0.61999673 0.0099999998 0.14000013
0.63999635 0.0099999998 6.0526067e-14
0.63999635 0.0099999998 0.020000007
0.63999635 0.0099999998 0.040000014
0.63999635 0.0099999998 0.060000025
0.63999635 0.0099999998 0.08000004299999999
0.63999635 0.0099999998 0.10000007
0.63999635 0.0099999998 0.1200001
0.63999629 0.0099999998 0.14000015
0.65999609 0.0099999998 -2.7177006e-14
0.65999609 0.0099999998 0.020000007
0.65999609 0.0099999998 0.040000014
0.65999609 0.0099999998 0.060000028
0.65999609 0.0099999998 0.08000005
0.65999609 0.0099999998 0.10000008
0.65999603 0.0099999998 0.12000012
0.65999603 0.0099999998 0.14000018
0.67999613 0.0099999998 4.4625600999999996e-13
0.67999613 0.0099999998 0.020000005
0.67999613 0.0099999998 0.040000014
0.67999613 0.0099999998 0.060000028
0.67999613 0.0099999998 0.08000005
0.67999613 0.0099999998 0.10000008
0.67999613 0.0099999998 0.12000014
0.67999613 0.0099999998 0.14000019
0.69999677 0.0099999998 1.1980676000000002e-12
0.69999677 0.0099999998 0.020000005
0.69999677 0.0099999998 0.040000014
0.69999677 0.0099999998 0.060000028
0.69999677 0.0099999998 0.080000058
0.69999677 0.0099999998 0.10000009
0.69999677 0.0099999998 0.12000015
0.69999671 0.0099999998 0.14000022
0.71999776 0.0099999998 2.3641652e-13
0.71999776 0.0099999998 0.020000005
0.71999776 0.0099999998 0.040000014
0.71999776 0.0099999998 0.060000032
0.71999776 0.0099999998 0.080000058
0.7199977 0.0099999998 0.10000011
0.7199977 0.0099999998 0.12000017
0.7199977 0.0099999998 0.14000024
0.73999864 0.0099999998 1.7255591e-12
0.73999864 0.0099999998 0.020000005
0.73999864 0.0099999998 0.040000014
0.73999864 0.0099999998 0.060000032
0.73999864 0.0099999998 0.080000065
0.73999864 0.0099999998 0.10000011
0.73999864 0.0099999998 0.12000018
0.73999864 0.0099999998 0.14000025
0.75999933 0.0099999998 1.3358071e-12
0.75999933 0.0099999998 0.020000005
0.75999933 0.0099999998 0.040000014
0.75999933 0.0099999998 0.060000036
0.75999933 0.0099999998 0.080000065
0.75999933 0.0099999998 0.10000011
0.75999933 0.0099999998 0.12000018
0.75999933 0.0099999998 0.14000027
0.77999979 0.0099999998 -8.9654315e-13
0.77999979 0.0099999998 0.020000005
0.77999979 0.0099999998 0.040000018
0.77999979 0.0099999998 0.060000036
0.77999979 0.0099999998 0.080000065
0.77999979 0.0099999998 0.10000012
0.77999979 0.0099999998 0.12000019
0.77999979 0.0099999998 0.14000027
0.80000019 0.0099999998 -9.7666634e-13
0.80000019 0.0099999998 0.020000007
0.80000019 0.0099999998 0.040000018
0.80000019 0.0099999998 0.060000036
0.80000019 0.0099999998 0.080000065
0.80000019 0.0099999998 0.10000012
0.80000019 0.0099999998 0.12000019
0.80000019 0.0099999998 0.14000028
0.82000053 0.0099999998 1.0019173e-12
0.82000053 0.0099999998 0.020000005
0.82000053 0.0099999998 0.040000018
0.82000053 0.0099999998 0.060000036
0.82000053 0.0099999998 0.080000065
0.82000053 0.0099999998 0.10000012
0.82000053 0.0099999998 0.12000019
0.82000053 0.0099999998 0.14000027
0.84000087 0.0099999998 9.024906999999999e-13
0.84000087 0.0099999998 0.020000005
0.84000087 0.0099999998 0.040000014
0.84000087 0.0099999998 0.060000036
0.84000087 0.0099999998 0.080000065
0.84000087 0.0099999998 0.10000011
0.84000093 0.0099999998 0.12000018
0.84000093 0.0099999998 0.14000027
0.86000127 0.0099999998 1.6973216e-12
0.86000127 0.0099999998 0.020000005
0.86000127 0.0099999998 0.040000014
0.86000127 0.0099999998 0.060000032
0.86000127 0.0099999998 0.080000065
0.86000127 0.0099999998 0.10000011
0.86000127 0.0099999998 0.12000018
0.86000127 0.0099999998 0.14000025
0.8800016 0.0099999998 1.799771e-13
0.8800016 0.0099999998 0.020000005
0.8800016 0.0099999998 0.040000014
0.8800016 0.0099999998 0.060000032
0.8800016 0.0099999998 0.080000058
0.8800016 0.0099999998 0.10000011
0.8800016 0.0099999998 0.12000017
0.8800016 0.0099999998 0.14000025
0.90000188 0.0099999998 -8.1752302e-13
0.90000188 0.0099999998 0.020000005
0.90000188 0.0099999998 0.040000014
0.90000188 0.0099999998 0.060000028
0.90000188 0.0099999998 0.080000058
0.90000188 0.0099999998 0.1000001
0.90000194 0.0099999998 0.12000016
0.90000194 0.0099999998 0.14000024
0.9200021 0.0099999998 1.7356573e-12
0.9200021 0.0099999998 0.020000005
0.9200021 0.0099999998 0.040000014
0.9200021 0.0099999998 0.060000028
0.9200021 0.0099999998 0.080000058
0.9200021 0.0099999998 0.1000001
0.9200021 0.0099999998 0.12000015
0.92000216 0.0099999998 0.14000022
0.94000214 0.0099999998 -1.8281958999999998e-13
0.94000214 0.0099999998 0.020000007
0.94000214 0.0099999998 0.040000014
0.94000214 0.0099999998 0.060000032
0.9400022 0.0099999998 0.080000058
0.9400022 0.0099999998 0.10000009
0.9400022 0.0099999998 0.12000015
0.9400022 0.0099999998 0.14000021
0.96000212 0.0099999998 -8.726379499999999e-13
0.96000212 0.0099999998 0.020000007
0.96000212 0.0099999998 0.040000018
0.96000212 0.0099999998 0.060000032
0.96000212 0.0099999998 0.080000058
0.96000218 0.0099999998 0.10000009
0.96000218 0.0099999998 0.12000014
0.96000218 0.0099999998 0.14000019
0.98000211 0.0099999998 -7.4560312e-14
0.98000211 0.0099999998 0.020000007
0.98000211 0.0099999998 0.040000018
0.98000211 0.0099999998 0.060000032
0.98000211 0.0099999998 0.08000005
0.98000211 0.0099999998 0.10000008
0.98000211 0.0099999998 0.12000013
0.98000211 0.0099999998 0.14000018
1.000002 0.0099999998 -9.4972706e-13
1.000002 0.0099999998 0.020000009
1.000002 0.0099999998 0.040000018
1.000002 0.0099999998 0.060000032
1.000002 0.0099999998 0.08000005
1.000002 0.0099999998 0.10000008
1.000002 0.0099999998 0.12000012
1.000002 0.0099999998 0.14000018
1.0200019 0.0099999998 -5.884785899999999e-13
1.0200019 0.0099999998 0.020000009
1.0200019 0.0099999998 0.040000018
1.0200019 0.0099999998 0.060000032
1.0200019 0.0099999998 0.08000005
1.0200019 0.0099999998 0.10000008
1.0200019 0.0099999998 0.12000012
1.0200019 0.0099999998 0.14000016
1.0400017 0.0099999998 1.3050463e-12
1.0400017 0.0099999998 0.020000009
1.0400017 0.0099999998 0.040000018
1.0400017 0.0099999998 0.060000032
1.0400017 0.0099999998 0.08000005
1.0400017 0.0099999998 0.10000008
1.0400017 0.0099999998 0.12000012
1.0400019 0.0099999998 0.14000016
1.0600016 0.0099999998 8.351017900000001e-13
1.0600016 0.0099999998 0.020000009
1.0600016 0.0099999998 0.040000018
1.0600016 0.0099999998 0.060000032
1.0600016 0.0099999998 0.08000005
1.0600016 0.0099999998 0.10000008
1.0600016 0.0099999998 0.12000012
1.0600017 0.0099999998 0.14000016
1.0800014999999998 0.0099999998 2.9345122000000003e-13
1.0800014999999998 0.0099999998 0.020000009
1.0800014999999998 0.0099999998 0.040000021000000004
1.0800014999999998 0.0099999998 0.060000036
1.0800014999999998 0.0099999998 0.08000005
1.0800014999999998 0.0099999998 0.10000008
1.0800014999999998 0.0099999998 0.12000011
1.0800016000000001 0.0099999998 0.14000015
1.1000013000000002 0.0099999998 2.2583121e-13
1.1000013000000002 0.0099999998 0.020000011
1.1000013000000002 0.0099999998 0.040000021000000004
1.1000013000000002 0.0099999998 0.060000036
1.1000013000000002 0.0099999998 0.080000058
1.1000013000000002 0.0099999998 0.10000008
1.1000013000000002 0.0099999998 0.12000011
1.1000014999999999 0.0099999998 0.14000015
1.1200012 0.0099999998 1.2165525e-13
1.1200012 0.0099999998 0.020000011
1.1200012 0.0099999998 0.040000025
1.1200012 0.0099999998 0.06000004
1.1200012 0.0099999998 0.080000058
1.1200012 0.0099999998 0.10000008
1.1200012 0.0099999998 0.1200001
1.1200013 0.0099999998 0.14000013
1.1400011 0.0099999998 -1.6700607e-13
1.1400011 0.0099999998 0.020000013
1.1400011 0.0099999998 0.040000025
1.1400011 0.0099999998 0.060000036
1.1400011 0.0099999998 0.08000005
1.1400011 0.0099999998 0.10000007
1.1400012 0.0099999998 0.12000009
1.1400012 0.0099999998 0.14000015
1.1600008999999998 0.0099999998 2.0557147e-13
1.1600008999999998 0.0099999998 0.020000011
1.1600008999999998 0.0099999998 0.040000021000000004
1.1600008999999998 0.0099999998 0.060000032
1.160001 0.0099999998 0.08000004299999999
1.160001 0.0099999998 0.10000006
1.160001 0.0099999998 0.1200001
1.1600012 0.0099999998 0.14000018
1.1800008999999998 0.0099999998 3.5848641e-13
1.1800008999999998 0.0099999998 0.020000007
1.1800008999999998 0.0099999998 0.040000014
1.1800008999999998 0.0099999998 0.060000025
1.1800008999999998 0.0099999998 0.08000004299999999
1.1800008999999998 0.0099999998 0.10000008
1.180001 0.0099999998 0.12000015
1.1800011000000001 0.0099999998 0.14000027
1.2000008 0.0099999998 2.7559403000000003e-13
1.2000008 0.0099999998 0.020000007
1.2000008 0.0099999998 0.040000018
1.2000008 0.0099999998 0.060000036
1.2000008999999998 0.0099999998 0.080000073
1.2000008999999998 0.0099999998 0.10000014
1.2000011 0.0099999998 0.12000024
1.2000012 0.0099999998 0.14000042
1.2200007 0.0099999998 -2.1577359000000002e-13
1.2200007 0.0099999998 0.020000016000000002
1.2200008999999998 0.0099999998 0.04000004
1.2200008999999998 0.0099999998 0.060000084
1.2200010000000001 0.0099999998 0.080000155
1.2200011 0.0099999998 0.10000025
1.2200013 0.0099999998 0.1200004
1.2200016000000002 0.0099999998 0.14000061
1.2400010000000001 0.0099999998 2.2558080000000002e-14
1.2400010000000001 0.0099999998 0.020000037
1.2400011 0.0099999998 0.040000085
1.2400011 0.0099999998 0.060000159000000004
1.2400013 0.0099999998 0.080000259
1.2400014 0.0099999998 0.1000004
1.2400016999999999 0.0099999998 0.12000058
1.240002 0.0099999998 0.14000082
1.2600014 0.0099999998 -4.6208957000000004e-14
1.2600014 0.0099999998 0.020000056999999998
1.2600015 0.0099999998 0.040000133
1.2600017 0.0099999998 0.060000240999999996
1.2600018 0.0099999998 0.08000038599999999
1.2600018999999998 0.0099999998 0.10000057
1.2600021000000001 0.0099999998 0.12000077
1.2600023 0.0099999998 0.14000101
1.280002 0.0099999998 6.8180521e-14
1.280002 0.0099999998 0.020000082
1.280002 0.0099999998 0.040000185
1.2800021000000001 0.0099999998 0.060000334
1.2800021000000001 0.0099999998 0.080000527
1.2800022 0.0099999998 0.10000075
1.2800022 0.0099999998 0.12000097
1.3000022 0.0099999998 5.3072642e-14
1.3000022 0.0099999998 0.020000106
1.3000022 0.0099999998 0.040000245
1.3000022 0.0099999998 0.060000437999999996
1.3000022 0.0099999998 0.080000684
-4.8451242999999995e-12 0.0099999998 0.16
-4.616091799999999e-12 0.0099999998 0.18000001
-4.3298511e-12 0.0099999998 0.2
-3.9786382e-12 0.0099999998 0.22
-3.5542567000000004e-12 0.0099999998 0.23999999
-3.051404e-12 0.0099999998 0.25999999
-2.4651516e-12 0.0099999998 0.28
0.02 0.0099999998 0.16
0.02 0.0099999998 0.18000001
0.02 0.0099999998 0.2
0.02 0.0099999998 0.22
0.02 0.0099999998 0.23999999
0.02 0.0099999998 0.25999999
0.02 0.0099999998 0.28
0.02 0.0099999998 0.30000001
0.039999999 0.0099999998 0.16
0.039999999 0.0099999998 0.18000001
0.039999999 0.0099999998 0.2
0.039999999 0.0099999998 0.22
0.039999999 0.0099999998 0.23999999
0.039999999 0.0099999998 0.25999999
0.039999999 0.0099999998 0.28
0.039999999 0.0099999998 0.30000001
0.059999999000000005 0.0099999998 0.16
0.059999999000000005 0.0099999998 0.18000001
0.059999999000000005 0.0099999998 0.2
0.059999999000000005 0.0099999998 0.22
0.059999999000000005 0.0099999998 0.23999999
0.059999999000000005 0.0099999998 0.25999999
0.059999999000000005 0.0099999998 0.28
0.059999999000000005 0.0099999998 0.30000001
0.079999998 0.0099999998 0.16
0.079999998 0.0099999998 0.18000001
0.079999998 0.0099999998 0.2
0.079999998 0.0099999998 0.22
0.079999998 0.0099999998 0.23999999
0.079999998 0.0099999998 0.25999999
0.079999998 0.0099999998 0.28
0.079999998 0.0099999998 0.30000001
0.1 0.0099999998 0.16
0.1 0.0099999998 0.18000001
0.1 0.0099999998 0.2
0.1 0.0099999998 0.22
0.1 0.0099999998 0.23999999
0.1 0.0099999998 0.25999999
0.1 0.0099999998 0.28
0.1 0.0099999998 0.30000001
0.12 0.0099999998 0.16
0.12 0.0099999998 0.18000001
0.12 0.0099999998 0.2
0.12 0.0099999998 0.22
0.12 0.0099999998 0.23999999
0.12 0.0099999998 0.25999999
0.12 0.0099999998 0.28
0.12 0.0099999998 0.30000001
0.14 0.0099999998 0.16
0.14 0.0099999998 0.18000001
0.14 0.0099999998 0.2
0.14 0.0099999998 0.22
0.14 0.0099999998 0.23999999
0.14 0.0099999998 0.25999999
0.14 0.0099999998 0.28
0.14 0.0099999998 0.30000001
0.16 0.0099999998 0.16
0.16 0.0099999998 0.18000001
0.16 0.0099999998 0.2
0.16 0.0099999998 0.22
0.16 0.0099999998 0.23999999
0.16 0.0099999998 0.25999999
0.16 0.0099999998 0.28
0.16 0.0099999998 0.30000001
0.17999999 0.0099999998 0.16
0.17999999 0.0099999998 0.18000001
0.17999999 0.0099999998 0.2
0.17999999 0.0099999998 0.22
0.17999999 0.0099999998 0.23999999
0.17999999 0.0099999998 0.25999999
0.17999999 0.0099999998 0.28
0.17999999 0.0099999998 0.30000001
0.2 0.0099999998 0.16
0.2 0.0099999998 0.18000001
0.2 0.0099999998 0.2
0.2 0.0099999998 0.22
0.2 0.0099999998 0.23999999
0.2 0.0099999998 0.25999999
0.2 0.0099999998 0.28
0.2 0.0099999998 0.30000001
0.22 0.0099999998 0.16
0.22 0.0099999998 0.18000001
0.22 0.0099999998 0.2
0.22 0.0099999998 0.22
0.22 0.0099999998 0.23999999
0.22 0.0099999998 0.25999999
0.22 0.0099999998 0.28
0.22 0.0099999998 0.30000001
0.23999999 0.0099999998 0.16
0.23999999 0.0099999998 0.18000001
0.23999999 0.0099999998 0.2
0.23999999 0.0099999998 0.22
0.23999999 0.0099999998 0.23999999
0.23999999 0.0099999998 0.25999999
0.23999999 0.0099999998 0.28
0.23999999 0.0099999998 0.30000001
0.25999999 0.0099999998 0.16
0.25999999 0.0099999998 0.18000001
0.25999999 0.0099999998 0.2
0.25999999 0.0099999998 0.22
0.25999999 0.0099999998 0.23999999
0.25999999 0.0099999998 0.25999999
0.25999999 0.0099999998 0.28
0.25999999 0.0099999998 0.30000001
0.28 0.0099999998 0.16
0.28 0.0099999998 0.18000001
0.28 0.0099999998 0.2
0.28 0.0099999998 0.22
0.28 0.0099999998 0.23999999
0.28 0.0099999998 0.25999999
0.28 0.0099999998 0.28
0.28 0.0099999998 0.30000001
0.29999998 0.0099999998 0.16
0.29999998 0.0099999998 0.18000001
0.29999998 0.0099999998 0.2
0.29999998 0.0099999998 0.22
0.29999998 0.0099999998 0.23999999
0.29999998 0.0099999998 0.25999999
0.29999998 0.0099999998 0.28
0.29999998 0.0099999998 0.30000001
0.31999999 0.0099999998 0.16
0.31999999 0.0099999998 0.18000001
0.31999999 0.0099999998 0.2
0.31999999 0.0099999998 0.22
0.31999999 0.0099999998 0.24000001
0.31999999 0.0099999998 0.25999999
0.31999999 0.0099999998 0.28
0.31999999 0.0099999998 0.30000001
0.33999997 0.0099999998 0.16
0.33999997 0.0099999998 0.18000001
0.33999997 0.0099999998 0.2
0.33999997 0.0099999998 0.22
0.33999997 0.0099999998 0.24000001
0.33999997 0.0099999998 0.26000002
0.33999997 0.0099999998 0.28
0.33999997 0.0099999998 0.30000001
0.35999995 0.0099999998 0.16
0.35999995 0.0099999998 0.18000001
0.35999995 0.0099999998 0.2
0.35999995 0.0099999998 0.22
0.35999995 0.0099999998 0.24000001
0.35999995 0.0099999998 0.26000002
0.35999995 0.0099999998 0.28
0.35999995 0.0099999998 0.30000001
0.37999994 0.0099999998 0.16
0.37999994 0.0099999998 0.18000001
0.37999994 0.0099999998 0.2
0.37999994 0.0099999998 0.22000001
0.37999994 0.0099999998 0.24000001
0.37999994 0.0099999998 0.26000002
0.37999994 0.0099999998 0.28000003
0.37999994 0.0099999998 0.30000001
0.39999989 0.0099999998 0.16000001
0.39999989 0.0099999998 0.18000001
0.39999989 0.0099999998 0.2
0.39999989 0.0099999998 0.22000001
0.39999989 0.0099999998 0.24000001
0.39999992 0.0099999998 0.26000002
0.39999992 0.0099999998 0.28000003
0.39999992 0.0099999998 0.30000004
0.41999984 0.0099999998 0.16000001
0.41999984 0.0099999998 0.18000001
0.41999984 0.0099999998 0.20000002
0.41999984 0.0099999998 0.22000001
0.41999984 0.0099999998 0.24000002
0.41999987 0.0099999998 0.26000002
0.41999987 0.0099999998 0.28000003
0.41999987 0.0099999998 0.30000004
0.43999976 0.0099999998 0.16000001
0.43999976 0.0099999998 0.18000002
0.43999976 0.0099999998 0.20000002
0.43999979 0.0099999998 0.22000003
0.43999979 0.0099999998 0.24000002
0.43999979 0.0099999998 0.26000005
0.43999979 0.0099999998 0.28000006
0.43999982 0.0099999998 0.30000007
0.45999965 0.0099999998 0.16000001
0.45999965 0.0099999998 0.18000002
0.45999968 0.0099999998 0.20000003
0.45999968 0.0099999998 0.22000003
0.45999968 0.0099999998 0.24000004
0.45999968 0.0099999998 0.26000005
0.45999968 0.0099999998 0.28000009
0.45999971 0.0099999998 0.30000013
0.47999951 0.0099999998 0.16000003
0.47999951 0.0099999998 0.18000004
0.47999951 0.0099999998 0.20000005
0.47999951 0.0099999998 0.22000006
0.47999951 0.0099999998 0.24000007
0.47999954 0.0099999998 0.26000008
0.47999954 0.0099999998 0.28000012
0.47999957 0.0099999998 0.30000019
0.49999928 0.0099999998 0.16000004
0.49999928 0.0099999998 0.18000005
0.49999931 0.0099999998 0.20000006
0.49999931 0.0099999998 0.22000009
0.49999931 0.0099999998 0.2400001
0.49999931 0.0099999998 0.26000014
0.49999931 0.0099999998 0.28000018
0.49999934 0.0099999998 0.30000028
0.51999897 0.0099999998 0.16000006
0.51999903 0.0099999998 0.18000008
0.51999903 0.0099999998 0.20000011
0.51999903 0.0099999998 0.22000013
0.51999903 0.0099999998 0.24000016
0.51999903 0.0099999998 0.2600002
0.51999903 0.0099999998 0.2800003
0.51999903 0.0099999998 0.30000043
0.53999859 0.0099999998 0.16000009
0.53999865 0.0099999998 0.18000011
0.53999865 0.0099999998 0.20000015
0.53999865 0.0099999998 0.22000019
0.53999871 0.0099999998 0.24000026
0.53999865 0.0099999998 0.26000035
0.53999859 0.0099999998 0.28000048
0.53999853 0.0099999998 0.3000007
0.55999815 0.0099999998 0.16000012
0.55999815 0.0099999998 0.18000016
0.55999821 0.0099999998 0.20000021
0.55999821 0.0099999998 0.22000028
0.55999821 0.0099999998 0.24000038
0.55999821 0.0099999998 0.26000056
0.5599981 0.0099999998 0.28000081
0.55999792 0.0099999998 0.30000111
0.57999766 0.0099999998 0.16000015
0.57999772 0.0099999998 0.1800002
0.57999772 0.0099999998 0.20000027
0.57999772 0.0099999998 0.22000037
0.57999772 0.0099999998 0.24000055
0.57999766 0.0099999998 0.26000085
0.57999754 0.0099999998 0.28000134
0.57999718 0.0099999998 0.30000183
0.59999716 0.0099999998 0.16000018
0.59999716 0.0099999998 0.18000023
0.59999716 0.0099999998 0.20000033
0.59999716 0.0099999998 0.22000049
0.59999716 0.0099999998 0.2400008
0.59999704 0.0099999998 0.26000136
0.59999686 0.0099999998 0.28000224
0.59999639 0.0099999998 0.30000302
0.61999673 0.0099999998 0.16000019
0.61999667 0.0099999998 0.18000026
0.61999667 0.0099999998 0.20000039
0.61999661 0.0099999998 0.22000065
0.61999655 0.0099999998 0.24000123
0.61999649 0.0099999998 0.26000234
0.61999625 0.0099999998 0.28000382
0.61999571 0.0099999998 0.30000508
0.63999629 0.0099999998 0.16000021
0.63999623 0.0099999998 0.18000029
0.63999617 0.0099999998 0.20000049
0.63999611 0.0099999998 0.22000098
0.63999605 0.0099999998 0.24000204
0.63999599 0.0099999998 0.26000392
0.63999581 0.0099999998 0.28000638
0.63999528 0.0099999998 0.30000821
0.65999597 0.0099999998 0.16000025
0.65999597 0.0099999998 0.18000036
0.65999591 0.0099999998 0.20000066
0.65999579 0.0099999998 0.22000143
0.65999573 0.0099999998 0.24000306
0.65999573 0.0099999998 0.26000592
0.65999568 0.0099999998 0.28000951
0.65999526 0.0099999998 0.30001196
0.67999607 0.0099999998 0.16000026
0.67999601 0.0099999998 0.18000041
0.67999601 0.0099999998 0.20000081
0.67999595 0.0099999998 0.22000183
0.67999589 0.0099999998 0.24000399
0.67999595 0.0099999998 0.26000768
0.67999595 0.0099999998 0.28001225
0.67999566 0.0099999998 0.30001521
0.69999671 0.0099999998 0.16000029
0.69999671 0.0099999998 0.18000045
0.69999665 0.0099999998 0.20000093
0.69999659 0.0099999998 0.22000213
0.69999659 0.0099999998 0.24000461
0.69999665 0.0099999998 0.26000887
0.69999665 0.0099999998 0.28001407
0.69999659 0.0099999998 0.30001736
0.7199977 0.0099999998 0.16000032
0.71999764 0.0099999998 0.1800005
0.71999764 0.0099999998 0.20000102
0.71999764 0.0099999998 0.22000229
0.71999758 0.0099999998 0.24000496
0.71999758 0.0099999998 0.26000953
0.71999758 0.0099999998 0.28001508
0.71999758 0.0099999998 0.30001864
0.73999858 0.0099999998 0.16000035
0.73999858 0.0099999998 0.18000053
0.73999858 0.0099999998 0.20000106
0.73999858 0.0099999998 0.22000238
0.73999852 0.0099999998 0.24000515
0.73999852 0.0099999998 0.26000988
0.73999852 0.0099999998 0.28001565
0.73999852 0.0099999998 0.30001932
0.75999928 0.0099999998 0.16000037
0.75999928 0.0099999998 0.18000054
0.75999928 0.0099999998 0.20000109
0.75999928 0.0099999998 0.22000244
0.75999928 0.0099999998 0.24000525
0.75999928 0.0099999998 0.26001006
0.75999928 0.0099999998 0.28001595
0.75999928 0.0099999998 0.30001968
0.77999979 0.0099999998 0.16000037
0.77999979 0.0099999998 0.18000056
0.77999979 0.0099999998 0.20000111
0.77999979 0.0099999998 0.22000246
0.77999979 0.0099999998 0.24000528
0.77999979 0.0099999998 0.26001015
0.77999979 0.0099999998 0.28001606
0.77999979 0.0099999998 0.30001983
0.80000019 0.0099999998 0.16000037
0.80000019 0.0099999998 0.18000056
0.80000019 0.0099999998 0.20000111
0.80000019 0.0099999998 0.22000246
0.80000019 0.0099999998 0.24000528
0.80000019 0.0099999998 0.26001012
0.80000019 0.0099999998 0.28001603
0.80000019 0.0099999998 0.30001983
0.82000053 0.0099999998 0.16000037
0.82000053 0.0099999998 0.18000056
0.82000053 0.0099999998 0.20000109
0.82000059 0.0099999998 0.22000244
0.82000059 0.0099999998 0.24000525
0.82000059 0.0099999998 0.26001006
0.82000059 0.0099999998 0.28001598
0.82000059 0.0099999998 0.30001974
0.84000093 0.0099999998 0.16000037
0.84000093 0.0099999998 0.18000054
0.84000093 0.0099999998 0.20000108
0.84000093 0.0099999998 0.2200024
0.84000093 0.0099999998 0.24000515
0.84000093 0.0099999998 0.26000988
0.84000093 0.0099999998 0.28001568
0.84000093 0.0099999998 0.30001938
0.86000127 0.0099999998 0.16000035
0.86000127 0.0099999998 0.18000053
0.86000133 0.0099999998 0.20000103
0.86000133 0.0099999998 0.22000231
0.86000133 0.0099999998 0.24000499
0.86000133 0.0099999998 0.26000956
0.86000133 0.0099999998 0.28001517
0.86000133 0.0099999998 0.30001876
0.88000166 0.0099999998 0.16000034
0.88000166 0.0099999998 0.1800005
0.88000166 0.0099999998 0.20000099
0.88000166 0.0099999998 0.2200022
0.88000172 0.0099999998 0.24000475
0.88000172 0.0099999998 0.26000911
0.88000172 0.0099999998 0.28001446
0.88000172 0.0099999998 0.30001789
0.90000194 0.0099999998 0.16000032
0.90000194 0.0099999998 0.18000047
0.900002 0.0099999998 0.20000093
0.900002 0.0099999998 0.22000207
0.900002 0.0099999998 0.24000446
0.900002 0.0099999998 0.26000857
0.900002 0.0099999998 0.28001359
0.900002 0.0099999998 0.30001682
0.92000216 0.0099999998 0.16000029
0.92000216 0.0099999998 0.18000044
0.92000222 0.0099999998 0.20000087
0.92000222 0.0099999998 0.22000192
0.92000228 0.0099999998 0.24000414
0.92000228 0.0099999998 0.26000795
0.92000228 0.0099999998 0.28001258
0.92000228 0.0099999998 0.30001557
0.94000226 0.0099999998 0.16000028
0.94000226 0.0099999998 0.18000041
0.94000232 0.0099999998 0.20000079
0.94000238 0.0099999998 0.22000176
0.94000238 0.0099999998 0.24000376
0.94000244 0.0099999998 0.26000723
0.94000238 0.0099999998 0.2800115
0.94000238 0.0099999998 0.30001426
0.96000224 0.0099999998 0.16000026
0.96000224 0.0099999998 0.18000038
0.96000236 0.0099999998 0.20000072
0.96000242 0.0099999998 0.22000158
0.96000248 0.0099999998 0.24000339
0.96000248 0.0099999998 0.26000655
0.96000248 0.0099999998 0.28001037
0.96000248 0.0099999998 0.30001286
0.98000216 0.0099999998 0.16000025
0.98000222 0.0099999998 0.18000035
0.98000228 0.0099999998 0.20000064
0.98000234 0.0099999998 0.22000141
0.98000246 0.0099999998 0.24000303
0.98000252 0.0099999998 0.26000583
0.98000252 0.0099999998 0.28000927
0.98000258 0.0099999998 0.30001149
1.000002 0.0099999998 0.16000023
1.0000021000000001 0.0099999998 0.18000033
1.0000021000000001 0.0099999998 0.20000058
1.0000023 0.0099999998 0.22000127
1.0000023999999998 0.0099999998 0.24000271
1.0000025 0.0099999998 0.26000518
1.0000026 0.0099999998 0.2800082
1.0000027 0.0099999998 0.30001014
1.020002 0.0099999998 0.16000023
1.020002 0.0099999998 0.18000032
1.0200021000000001 0.0099999998 0.20000054
1.0200022 0.0099999998 0.22000115
1.0200023999999999 0.0099999998 0.24000244
1.0200025 0.0099999998 0.26000461
1.0200027 0.0099999998 0.28000724
1.020003 0.0099999998 0.30000889
1.0400019 0.0099999998 0.16000022
1.0400019 0.0099999998 0.18000031
1.040002 0.0099999998 0.20000052
1.0400021000000002 0.0099999998 0.22000109
1.0400023 0.0099999998 0.24000224
1.0400026 0.0099999998 0.26000416
1.0400029 0.0099999998 0.28000638
1.0400032 0.0099999998 0.30000773
1.0600017 0.0099999998 0.16000021
1.0600017 0.0099999998 0.18000031
1.0600018999999998 0.0099999998 0.20000052
1.0600021000000002 0.0099999998 0.22000107
1.0600023 0.0099999998 0.24000216
1.0600027 0.0099999998 0.26000383
1.0600032 0.0099999998 0.28000566
1.0600036 0.0099999998 0.30000669
1.0800016000000001 0.0099999998 0.16000021
1.0800016000000001 0.0099999998 0.18000031
1.0800018 0.0099999998 0.20000055
1.0800020000000001 0.0099999998 0.22000113
1.0800023 0.0099999998 0.24000216
1.0800028 0.0099999998 0.26000363
1.0800034 0.0099999998 0.28000507
1.0800040000000002 0.0099999998 0.30000579
1.1000014999999999 0.0099999998 0.16000021
1.1000016000000001 0.0099999998 0.18000033
1.1000017 0.0099999998 0.20000063
1.1000018999999999 0.0099999998 0.22000124
1.1000024 0.0099999998 0.24000224
1.1000028999999998 0.0099999998 0.26000351
1.1000035 0.0099999998 0.28000456
1.1200013 0.0099999998 0.16000022
1.1200013999999998 0.0099999998 0.18000039
1.1200017 0.0099999998 0.20000075
1.120002 0.0099999998 0.22000141
1.1200025 0.0099999998 0.24000236
1.120003 0.0099999998 0.26000339
1.1200036 0.0099999998 0.28000411
1.1400013 0.0099999998 0.16000026
1.1400013999999998 0.0099999998 0.18000048
1.1400017 0.0099999998 0.20000093
1.140002 0.0099999998 0.22000162
1.1400025 0.0099999998 0.24000248
1.1400031000000002 0.0099999998 0.26000327
1.1600013 0.0099999998 0.16000034
1.1600015 0.0099999998 0.18000065
1.1600018 0.0099999998 0.20000115
1.1600021999999999 0.0099999998 0.22000183
1.1600027 0.0099999998 0.24000254
1.1600031000000002 0.0099999998 0.26000309
1.1800013999999999 0.0099999998 0.16000049
1.1800016000000002 0.0099999998 0.18000086
1.180002 0.0099999998 0.20000137
1.1800023000000002 0.0099999998 0.220002
1.1800028 0.0099999998 0.24000254
1.2000016000000002 0.0099999998 0.1600007
1.200002 0.0099999998 0.18000108
1.2000023000000002 0.0099999998 0.20000157
1.2000026000000001 0.0099999998 0.2200021
1.2200018999999998 0.0099999998 0.16000091
1.2200022 0.0099999998 0.18000129
1.2200024999999999 0.0099999998 0.2000017
1.2200027 0.0099999998 0.22000213
1.2400023 0.0099999998 0.16000111
1.2400023999999998 0.0099999998 0.18000145
1.2600023999999999 0.0099999998 0.16000129
VERTICES 2975 5950
1 0
1 1
1 2
1 3
1 4
1 5
1 6
1 7
1 8
1 9
1 10
1 11
1 12
1 13
1 14
1 15
1 16
1 17
1 18
1 19
1 20
1 21
1 22
1 23
1 24
1 25
1 26
1 27
1 28
1 29
1 30
1 31
1 32
1 33
1 34
1 35
1 36
1 37
1 38
1 39
1 40
1 41
1 42
1 43
1 44
1 45
1 46
1 47
1 48
1 49
1 50
1 51
1 52
1 53
1 54
1 55
1 56
1 57
1 58
1 59
1 60
1 61
1 62
1 63
1 64
1 65
1 66
1 67
1 68
1 69
1 70
1 71
1 72
1 73
1 74
1 75
1 76
1 77
1 78
1 79
1 80
1 81
1 82
1 83
1 84
1 85
1 86
1 87
1 88
1 89
1 90
1 91
1 92
1 93
1 94
1 95
1 96
1 97
1 98
1 99
1 100
1 101
1 102
1 103
1 104
1 105
1 106
1 107
1 108
1 109
1 110
1 111
1 112
1 113
1 114
1 115
1 116
1 117
1 118
1 119
1 120
1 121
1 122
1 123
1 124
1 125
1 126
1 127
1 128
1 129
1 130
1 131
1 132
1 133
1 134
1 135
1 136
1 137
1 138
1 139
1 140
1 141
1 142
1 143
1 144
1 145
1 146
1 147
1 148
1 149
1 150
1 151
1 152
1 153
1 154
1 155
1 156
1 157
1 158
1 159
1 160
1 161
1 162
1 163
1 164
1 165
1 166
1 167
1 168
1 169
1 170
1 171
1 172
1 173
1 174
1 175
1 176
1 177
1 178
1 179
1 180
1 181
1 182
1 183
1 184
1 185
1 186
1 187
1 188
1 189
1 190
1 191
1 192
1 193
1 194
1 195
1 196
1 197
1 198
1 199
1 200
1 201
1 202
1 203
1 204
1 205
1 206
1 207
1 208
1 209
1 210
1 211
1 212
1 213
1 214
1 215
1 216
1 217
1 218
1 219
1 220
1 221
1 222
1 223
1 224
1 225
1 226
1 227
1 228
1 229
1 230
1 231
1 232
1 233
1 234
1 235
1 236
1 237
1 238
1 239
1 240
1 241
1 242
1 243
1 244
1 245
1 246
1 247
1 248
1 249
1 250
1 251
1 252
1 253
1 254
1 255
1 256
1 257
1 258
1 259
1 260
1 261
1 262
1 263
1 264
1 265
1 266
1 267
1 268
1 269
1 270
1 271
1 272
1 273
1 274
1 275
1 276
1 277
1 278
1 279
1 280
1 281
1 282
1 283
1 284
1 285
1 286
1 287
1 288
1 289
1 290
1 291
1 292
1 293
1 294
1 295
1 296
1 297
1 298
1 299
1 300
1 301
1 302
1 303
1 304
1 305
1 306
1 307
1 308
1 309
1 310
1 311
1 312
1 313
1 314
1 315
1 316
1 317
1 318
1 319
1 320
1 321
1 322
1 323
1 324
1 325
1 326
1 327
1 328
1 329
1 330
1 331
1 332
1 333
1 334
1 335
1 336
1 337
1 338
1 339
1 340
1 341
1 342
1 343
1 344
1 345
1 346
1 347
1 348
1 349
1 350
1 351
1 352
1 353
1 354
1 355
1 356
1 357
1 358
1 359
1 360
1 361
1 362
1 363
1 364
1 365
1 366
1 367
1 368
1 369
1 370
1 371
1 372
1 373
1 374
1 375
1 376
1 377
1 378
1 379
1 380
1 381
1 382
1 383
1 384
1 385
1 386
1 387
1 388
1 389
1 390
1 391
1 392
1 393
1 394
1 395
1 396
1 397
1 398
1 399
1 400
1 401
1 402
1 403
1 404
1 405
1 406
1 407
1 408
1 409
1 410
1 411
1 412
1 413
1 414
1 415
1 416
1 417
1 418
1 419
1 420
1 421
1 422
1 423
1 424
1 425
1 426
1 427
1 428
1 429
1 430
1 431
1 432
1 433
1 434
1 435
1 436
1 437
1 438
1 439
1 440
1 441
1 442
1 443
1 444
1 445
1 446
1 447
1 448
1 449
1 450
1 451
1 452
1 453
1 454
1 455
1 456
1 457
1 458
1 459
1 460
1 461
1 462
1 463
1 464
1 465
1 466
1 467
1 468
1 469
1 470
1 471
1 472
1 473
1 474
1 475
1 476
1 477
1 478
1 479
1 480
1 481
1 482
1 483
1 484
1 485
1 486
1 487
1 488
1 489
1 490
1 491
1 492
1 493
1 494
1 495
1 496
1 497
1 498
1 499
1 500
1 501
1 502
1 503
1 504
1 505
1 506
1 507
1 508
1 509
1 510
1 511
1 512
1 513
1 514
1 515
1 516
1 517
1 518
1 519
1 520
1 521
1 522
1 523
1 524
1 525
1 526
1 527
1 528
1 529
1 530
1 531
1 532
1 533
1 534
1 535
1 536
1 537
1 538
1 539
1 540
1 541
1 542
1 543
1 544
1 545
1 546
1 547
1 548
1 549
1 550
1 551
1 552
1 553
1 554
1 555
1 556
1 557
1 558
1 559
1 560
1 561
1 562
1 563
1 564
1 565
1 566
1 567
1 568
1 569
1 570
1 571
1 572
1 573
1 574
1 575
1 576
1 577
1 578
1 579
1 580
1 581
1 582
1 583
1 584
1 585
1 586
1 587
1 588
1 589
1 590
1 591
1 592
1 593
1 594
1 595
1 596
1 597
1 598
1 599
1 600
1 601
1 602
1 603
1 604
1 605
1 606
1 607
1 608
1 609
1 610
1 611
1 612
1 613
1 614
1 615
1 616
1 617
1 618
1 619
1 620
1 621
1 622
1 623
1 624
1 625
1 626
1 627
1 628
1 629
1 630
1 631
1 632
1 633
1 634
1 635
1 636
1 637
1 638
1 639
1 640
1 641
1 642
1 643
1 644
1 645
1 646
1 647
1 648
1 649
1 650
1 651
1 652
1 653
1 654
1 655
1 656
1 657
1 658
1 659
1 660
1 661
1 662
1 663
1 664
1 665
1 666
1 667
1 668
1 669
1 670
1 671
1 672
1 673
1 674
1 675
1 676
1 677
1 678
1 679
1 680
1 681
1 682
1 683
1 684
1 685
1 686
1 687
1 688
1 689
1 690
1 691
1 692
1 693
1 694
1 695
1 696
1 697
1 698
1 699
1 700
1 701
1 702
1 703
1 704
1 705
1 706
1 707
1 708
1 709
1 710
1 711
1 712
1 713
1 714
1 715
1 716
1 717
1 718
1 719
1 720
1 721
1 722
1 723
1 724
1 725
1 726
1 727
1 728
1 729
1 730
1 731
1 732
1 733
1 734
1 735
1 736
1 737
1 738
1 739
1 740
1 741
1 742
1 743
1 744
1 745
1 746
1 747
1 748
1 749
1 750
1 751
1 752
1 753
1 754
1 755
1 756
1 757
1 758
1 759
1 760
1 761
1 762
1 763
1 764
1 765
1 766
1 767
1 768
1 769
1 770
1 771
1 772
1 773
1 774
1 775
1 776
1 777
1 778
1 779
1 780
1 781
1 782
1 783
1 784
1 785
1 786
1 787
1 788
1 789
1 790
1 791
1 792
1 793
1 794
1 795
1 796
1 797
1 798
1 799
1 800
1 801
1 802
1 803
1 804
1 805
1 806
1 807
1 808
1 809
1 810
1 811
1 812
1 813
1 814
1 815
1 816
1 817
1 818
1 819
1 820
1 821
1 822
1 823
1 824
1 825
1 826
1 827
1 828
1 829
1 830
1 831
1 832
1 833
1 834
1 835
1 836
1 837
1 838
1 839
1 840
1 841
1 842
1 843
1 844
1 845
1 846
1 847
1 848
1 849
1 850
1 851
1 852
1 853
1 854
1 855
1 856
1 857
1 858
1 859
1 860
1 861
1 862
1 863
1 864
1 865
1 866
1 867
1 868
1 869
1 870
1 871
1 872
1 873
1 874
1 875
1 876
1 877
1 878
1 879
1 880
1 881
1 882
1 883
1 884
1 885
1 886
1 887
1 888
1 889
1 890
1 891
1 892
1 893
1 894
1 895
1 896
1 897
1 898
1 899
1 900
1 901
1 902
1 903
1 904
1 905
1 906
1 907
1 908
1 909
1 910
1 911
1 912
1 913
1 914
1 915
1 916
1 917
1 918
1 919
1 920
1 921
1 922
1 923
1 924
1 925
1 926
1 927
1 928
1 929
1 930
1 931
1 932
1 933
1 934
1 935
1 936
1 937
1 938
1 939
1 940
1 941
1 942
1 943
1 944
1 945
1 946
1 947
1 948
1 949
1 950
1 951
1 952
1 953
1 954
1 955
1 956
1 957
1 958
1 959
1 960
1 961
1 962
1 963
1 964
1 965
1 966
1 967
1 968
1 969
1 970
1 971
1 972
1 973
1 974
1 975
1 976
1 977
1 978
1 979
1 980
1 981
1 982
1 983
1 984
1 985
1 986
1 987
1 988
1 989
1 990
1 991
1 992
1 993
1 994
1 995
1 996
1 997
1 998
1 999
1 1000
1 1001
1 1002
1 1003
1 1004
1 1005
1 1006
1 1007
1 1008
1 1009
1 1010
1 1011
1 1012
1 1013
1 1014
1 1015
1 1016
1 1017
1 1018
1 1019
1 1020
1 1021
1 1022
1 1023
1 1024
1 1025
1 1026
1 1027
1 1028
1 1029
1 1030
1 1031
1 1032
1 1033
1 1034
1 1035
1 1036
1 1037
1 1038
1 1039
1 1040
1 1041
1 1042
1 1043
1 1044
1 1045
1 1046
1 1047
1 1048
1 1049
1 1050
1 1051
1 1052
1 1053
1 1054
1 1055
1 1056
1 1057
1 1058
1 1059
1 1060
1 1061
1 1062
1 1063
1 1064
1 1065
1 1066
1 1067
1 1068
1 1069
1 1070
1 1071
1 1072
1 1073
1 1074
1 1075
1 1076
1 1077
1 1078
1 1079
1 1080
1 1081
1 1082
1 1083
1 1084
1 1085
1 1086
1 1087
1 1088
1 1089
1 1090
1 1091
1 1092
1 1093
1 1094
1 1095
1 1096
1 1097
1 1098
1 1099
1 1100
1 1101
1 1102
1 1103
1 1104
1 1105
1 1106
1 1107
1 1108
1 1109
1 1110
1 1111
1 1112
1 1113
1 1114
1 1115
1 1116
1 1117
1 1118
1 1119
1 1120
1 1121
1 1122
1 1123
1 1124
1 1125
1 1126
1 1127
1 1128
1 1129
1 1130
1 1131
1 1132
1 1133
1 1134
1 1135
1 1136
1 1137
1 1138
1 1139
1 1140
1 1141
1 1142
1 1143
1 1144
1 1145
1 1146
1 1147
1 1148
1 1149
1 1150
1 1151
1 1152
1 1153
1 1154
1 1155
1 1156
1 1157
1 1158
1 1159
1 1160
1 1161
1 1162
1 1163
1 1164
1 1165
1 1166
1 1167
1 1168
1 1169
1 1170
1 1171
1 1172
1 1173
1 1174
1 1175
1 1176
1 1177
1 1178
1 1179
1 1180
1 1181
1 1182
1 1183
1 1184
1 1185
1 1186
1 1187
1 1188
1 1189
1 1190
1 1191
1 1192
1 1193
1 1194
1 1195
1 1196
1 1197
1 1198
1 1199
1 1200
1 1201
1 1202
1 1203
1 1204
1 1205
1 1206
1 1207
1 1208
1 1209
1 1210
1 1211
1 1212
1 1213
1 1214
1 1215
1 1216
1 1217
1 1218
1 1219
1 1220
1 1221
1 1222
1 1223
1 1224
1 1225
1 1226
1 1227
1 1228
1 1229
1 1230
1 1231
1 1232
1 1233
1 1234
1 1235
1 1236
1 1237
1 1238
1 1239
1 1240
1 1241
1 1242
1 1243
1 1244
1 1245
1 1246
1 1247
1 1248
1 1249
1 1250
1 1251
1 1252
1 1253
1 1254
1 1255
1 1256
1 1257
1 1258
1 1259
1 1260
1 1261
1 1262
1 1263
1 1264
1 1265
1 1266
1 1267
1 1268
1 1269
1 1270
1 1271
1 1272
1 1273
1 1274
1 1275
1 1276
1 1277
1 1278
1 1279
1 1280
1 1281
1 1282
1 1283
1 1284
1 1285
1 1286
1 1287
1 1288
1 1289
1 1290
1 1291
1 1292
1 1293
1 1294
1 1295
1 1296
1 1297
1 1298
1 1299
1 1300
1 1301
1 1302
1 1303
1 1304
1 1305
1 1306
1 1307
1 1308
1 1309
1 1310
1 1311
1 1312
1 1313
1 1314
1 1315
1 1316
1 1317
1 1318
1 1319
1 1320
1 1321
1 1322
1 1323
1 1324
1 1325
1 1326
1 1327
1 1328
1 1329
1 1330
1 1331
1 1332
1 1333
1 1334
1 1335
1 1336
1 1337
1 1338
1 1339
1 1340
1 1341
1 1342
1 1343
1 1344
1 1345
1 1346
1 1347
1 1348
1 1349
1 1350
1 1351
1 1352
1 1353
1 1354
1 1355
1 1356
1 1357
1 1358
1 1359
1 1360
1 1361
1 1362
1 1363
1 1364
1 1365
1 1366
1 1367
1 1368
1 1369
1 1370
1 1371
1 1372
1 1373
1 1374
1 1375
1 1376
1 1377
1 1378
1 1379
1 1380
1 1381
1 1382
1 1383
1 1384
1 1385
1 1386
1 1387
1 1388
1 1389
1 1390
1 1391
1 1392
1 1393
1 1394
1 1395
1 1396
1 1397
1 1398
1 1399
1 1400
1 1401
1 1402
1 1403
1 1404
1 1405
1 1406
1 1407
1 1408
1 1409
1 1410
1 1411
1 1412
1 1413
1 1414
1 1415
1 1416
1 1417
1 1418
1 1419
1 1420
1 1421
1 1422
1 1423
1 1424
1 1425
1 1426
1 1427
1 1428
1 1429
1 1430
1 1431
1 1432
1 1433
1 1434
1 1435
1 1436
1 1437
1 1438
1 1439
1 1440
1 1441
1 1442
1 1443
1 1444
1 1445
1 1446
1 1447
1 1448
1 1449
1 1450
1 1451
1 1452
1 1453
1 1454
1 1455
1 1456
1 1457
1 1458
1 1459
1 1460
1 1461
1 1462
1 1463
1 1464
1 1465
1 1466
1 1467
1 1468
1 1469
1 1470
1 1471
1 1472
1 1473
1 1474
1 1475
1 1476
1 1477
1 1478
1 1479
1 1480
1 1481
1 1482
1 1483
1 1484
1 1485
1 1486
1 1487
1 1488
1 1489
1 1490
1 1491
1 1492
1 1493
1 1494
1 1495
1 1496
1 1497
1 1498
1 1499
1 1500
1 1501
1 1502
1 1503
1 1504
1 1505
1 1506
1 1507
1 1508
1 1509
1 1510
1 1511
1 1512
1 1513
1 1514
1 1515
1 1516
1 1517
1 1518
1 1519
1 1520
1 1521
1 1522
1 1523
1 1524
1 1525
1 1526
1 1527
1 1528
1 1529
1 1530
1 1531
1 1532
1 1533
1 1534
1 1535
1 1536
1 1537
1 1538
1 1539
1 1540
1 1541
1 1542
1 1543
1 1544
1 1545
1 1546
1 1547
1 1548
1 1549
1 1550
1 1551
1 1552
1 1553
1 1554
1 1555
1 1556
1 1557
1 1558
1 1559
1 1560
1 1561
1 1562
1 1563
1 1564
1 1565
1 1566
1 1567
1 1568
1 1569
1 1570
1 1571
1 1572
1 1573
1 1574
1 1575
1 1576
1 1577
1 1578
1 1579
1 1580
1 1581
1 1582
1 1583
1 1584
1 1585
1 1586
1 1587
1 1588
1 1589
1 1590
1 1591
1 1592
1 1593
1 1594
1 1595
1 1596
1 1597
1 1598
1 1599
1 1600
1 1601
1 1602
1 1603
1 1604
1 1605
1 1606
1 1607
1 1608
1 1609
1 1610
1 1611
1 1612
1 1613
1 1614
1 1615
1 1616
1 1617
1 1618
1 1619
1 1620
1 1621
1 1622
1 1623
1 1624
1 1625
1 1626
1 1627
1 1628
1 1629
1 1630
1 1631
1 1632
1 1633
1 1634
1 1635
1 1636
1 1637
1 1638
1 1639
1 1640
1 1641
1 1642
1 1643
1 1644
1 1645
1 1646
1 1647
1 1648
1 1649
1 1650
1 1651
1 1652
1 1653
1 1654
1 1655
1 1656
1 1657
1 1658
1 1659
1 1660
1 1661
1 1662
1 1663
1 1664
1 1665
1 1666
1 1667
1 1668
1 1669
1 1670
1 1671
1 1672
1 1673
1 1674
1 1675
1 1676
1 1677
1 1678
1 1679
1 1680
1 1681
1 1682
1 1683
1 1684
1 1685
1 1686
1 1687
1 1688
1 1689
1 1690
1 1691
1 1692
1 1693
1 1694
1 1695
1 1696
1 1697
1 1698
1 1699
1 1700
1 1701
1 1702
1 1703
1 1704
1 1705
1 1706
1 1707
1 1708
1 1709
1 1710
1 1711
1 1712
1 1713
1 1714
1 1715
1 1716
1 1717
1 1718
1 1719
1 1720
1 1721
1 1722
1 1723
1 1724
1 1725
1 1726
1 1727
1 1728
1 1729
1 1730
1 1731
1 1732
1 1733
1 1734
1 1735
1 1736
1 1737
1 1738
1 1739
1 1740
1 1741
1 1742
1 1743
1 1744
1 1745
1 1746
1 1747
1 1748
1 1749
1 1750
1 1751
1 1752
1 1753
1 1754
1 1755
1 1756
1 1757
1 1758
1 1759
1 1760
1 1761
1 1762
1 1763
1 1764
1 1765
1 1766
1 1767
1 1768
1 1769
1 1770
1 1771
1 1772
1 1773
1 1774
1 1775
1 1776
1 1777
1 1778
1 1779
1 1780
1 1781
1 1782
1 1783
1 1784
1 1785
1 1786
1 1787
1 1788
1 1789
1 1790
1 1791
1 1792
1 1793
1 1794
1 1795
1 1796
1 1797
1 1798
1 1799
1 1800
1 1801
1 1802
1 1803
1 1804
1 1805
1 1806
1 1807
1 1808
1 1809
1 1810
1 1811
1 1812
1 1813
1 1814
1 1815
1 1816
1 1817
1 1818
1 1819
1 1820
1 1821
1 1822
1 1823
1 1824
1 1825
1 1826
1 1827
1 1828
1 1829
1 1830
1 1831
1 1832
1 1833
1 1834
1 1835
1 1836
1 1837
1 1838
1 1839
1 1840
1 1841
1 1842
1 1843
1 1844
1 1845
1 1846
1 1847
1 1848
1 1849
1 1850
1 1851
1 1852
1 1853
1 1854
1 1855
1 1856
1 1857
1 1858
1 1859
1 1860
1 1861
1 1862
1 1863
1 1864
1 1865
1 1866
1 1867
1 1868
1 1869
1 1870
1 1871
1 1872
1 1873
1 1874
1 1875
1 1876
1 1877
1 1878
1 1879
1 1880
1 1881
1 1882
1 1883
1 1884
1 1885
1 1886
1 1887
1 1888
1 1889
1 1890
1 1891
1 1892
1 1893
1 1894
1 1895
1 1896
1 1897
1 1898
1 1899
1 1900
1 1901
1 1902
1 1903
1 1904
1 1905
1 1906
1 1907
1 1908
1 1909
1 1910
1 1911
1 1912
1 1913
1 1914
1 1915
1 1916
1 1917
1 1918
1 1919
1 1920
1 1921
1 1922
1 1923
1 1924
1 1925
1 1926
1 1927
1 1928
1 1929
1 1930
1 1931
1 1932
1 1933
1 1934
1 1935
1 1936
1 1937
1 1938
1 1939
1 1940
1 1941
1 1942
1 1943
1 1944
1 1945
1 1946
1 1947
1 1948
1 1949
1 1950
1 1951
1 1952
1 1953
1 1954
1 1955
1 1956
1 1957
1 1958
1 1959
1 1960
1 1961
1 1962
1 1963
1 1964
1 1965
1 1966
1 1967
1 1968
1 1969
1 1970
1 1971
1 1972
1 1973
1 1974
1 1975
1 1976
1 1977
1 1978
1 1979
1 1980
1 1981
1 1982
1 1983
1 1984
1 1985
1 1986
1 1987
1 1988
1 1989
1 1990
1 1991
1 1992
1 1993
1 1994
1 1995
1 1996
1 1997
1 1998
1 1999
1 2000
1 2001
1 2002
1 2003
1 2004
1 2005
1 2006
1 2007
1 2008
1 2009
1 2010
1 2011
1 2012
1 2013
1 2014
1 2015
1 2016
1 2017
1 2018
1 2019
1 2020
1 2021
1 2022
1 2023
1 2024
1 2025
1 2026
1 2027
1 2028
1 2029
1 2030
1 2031
1 2032
1 2033
1 2034
1 2035
1 2036
1 2037
1 2038
1 2039
1 2040
1 2041
1 2042
1 2043
1 2044
1 2045
1 2046
1 2047
1 2048
1 2049
1 2050
1 2051
1 2052
1 2053
1 2054
1 2055
1 2056
1 2057
1 2058
1 2059
1 2060
1 2061
1 2062
1 2063
1 2064
1 2065
1 2066
1 2067
1 2068
1 2069
1 2070
1 2071
1 2072
1 2073
1 2074
1 2075
1 2076
1 2077
1 2078
1 2079
1 2080
1 2081
1 2082
1 2083
1 2084
1 2085
1 2086
1 2087
1 2088
1 2089
1 2090
1 2091
1 2092
1 2093
1 2094
1 2095
1 2096
1 2097
1 2098
1 2099
1 2100
1 2101
1 2102
1 2103
1 2104
1 2105
1 2106
1 2107
1 2108
1 2109
1 2110
1 2111
1 2112
1 2113
1 2114
1 2115
1 2116
1 2117
1 2118
1 2119
1 2120
1 2121
1 2122
1 2123
1 2124
1 2125
1 2126
1 2127
1 2128
1 2129
1 2130
1 2131
1 2132
1 2133
1 2134
1 2135
1 2136
1 2137
1 2138
1 2139
1 2140
1 2141
1 2142
1 2143
1 2144
1 2145
1 2146
1 2147
1 2148
1 2149
1 2150
1 2151
1 2152
1 2153
1 2154
1 2155
1 2156
1 2157
1 2158
1 2159
1 2160
1 2161
1 2162
1 2163
1 2164
1 2165
1 2166
1 2167
1 2168
1 2169
1 2170
1 2171
1 2172
1 2173
1 2174
1 2175
1 2176
1 2177
1 2178
1 2179
1 2180
1 2181
1 2182
1 2183
1 2184
1 2185
1 2186
1 2187
1 2188
1 2189
1 2190
1 2191
1 2192
1 2193
1 2194
1 2195
1 2196
1 2197
1 2198
1 2199
1 2200
1 2201
1 2202
1 2203
1 2204
1 2205
1 2206
1 2207
1 2208
1 2209
1 2210
1 2211
1 2212
1 2213
1 2214
1 2215
1 2216
1 2217
1 2218
1 2219
1 2220
1 2221
1 2222
1 2223
1 2224
1 2225
1 2226
1 2227
1 2228
1 2229
1 2230
1 2231
1 2232
1 2233
1 2234
1 2235
1 2236
1 2237
1 2238
1 2239
1 2240
1 2241
1 2242
1 2243
1 2244
1 2245
1 2246
1 2247
1 2248
1 2249
1 2250
1 2251
1 2252
1 2253
1 2254
1 2255
1 2256
1 2257
1 2258
1 2259
1 2260
1 2261
1 2262
1 2263
1 2264
1 2265
1 2266
1 2267
1 2268
1 2269
1 2270
1 2271
1 2272
1 2273
1 2274
1 2275
1 2276
1 2277
1 2278
1 2279
1 2280
1 2281
1 2282
1 2283
1 2284
1 2285
1 2286
1 2287
1 2288
1 2289
1 2290
1 2291
1 2292
1 2293
1 2294
1 2295
1 2296
1 2297
1 2298
1 2299
1 2300
1 2301
1 2302
1 2303
1 2304
1 2305
1 2306
1 2307
1 2308
1 2309
1 2310
1 2311
1 2312
1 2313
1 2314
1 2315
1 2316
1 2317
1 2318
1 2319
1 2320
1 2321
1 2322
1 2323
1 2324
1 2325
1 2326
1 2327
1 2328
1 2329
1 2330
1 2331
1 2332
1 2333
1 2334
1 2335
1 2336
1 2337
1 2338
1 2339
1 2340
1 2341
1 2342
1 2343
1 2344
1 2345
1 2346
1 2347
1 2348
1 2349
1 2350
1 2351
1 2352
1 2353
1 2354
1 2355
1 2356
1 2357
1 2358
1 2359
1 2360
1 2361
1 2362
1 2363
1 2364
1 2365
1 2366
1 2367
1 2368
1 2369
1 2370
1 2371
1 2372
1 2373
1 2374
1 2375
1 2376
1 2377
1 2378
1 2379
1 2380
1 2381
1 2382
1 2383
1 2384
1 2385
1 2386
1 2387
1 2388
1 2389
1 2390
1 2391
1 2392
1 2393
1 2394
1 2395
1 2396
1 2397
1 2398
1 2399
1 2400
1 2401
1 2402
1 2403
1 2404
1 2405
1 2406
1 2407
1 2408
1 2409
1 2410
1 2411
1 2412
1 2413
1 2414
1 2415
1 2416
1 2417
1 2418
1 2419
1 2420
1 2421
1 2422
1 2423
1 2424
1 2425
1 2426
1 2427
1 2428
1 2429
1 2430
1 2431
1 2432
1 2433
1 2434
1 2435
1 2436
1 2437
1 2438
1 2439
1 2440
1 2441
1 2442
1 2443
1 2444
1 2445
1 2446
1 2447
1 2448
1 2449
1 2450
1 2451
1 2452
1 2453
1 2454
1 2455
1 2456
1 2457
1 2458
1 2459
1 2460
1 2461
1 2462
1 2463
1 2464
1 2465
1 2466
1 2467
1 2468
1 2469
1 2470
1 2471
1 2472
1 2473
1 2474
1 2475
1 2476
1 2477
1 2478
1 2479
1 2480
1 2481
1 2482
1 2483
1 2484
1 2485
1 2486
1 2487
1 2488
1 2489
1 2490
1 2491
1 2492
1 2493
1 2494
1 2495
1 2496
1 2497
1 2498
1 2499
1 2500
1 2501
1 2502
1 2503
1 2504
1 2505
1 2506
1 2507
1 2508
1 2509
1 2510
1 2511
1 2512
1 2513
1 2514
1 2515
1 2516
1 2517
1 2518
1 2519
1 2520
1 2521
1 2522
1 2523
1 2524
1 2525
1 2526
1 2527
1 2528
1 2529
1 2530
1 2531
1 2532
1 2533
1 2534
1 2535
1 2536
1 2537
1 2538
1 2539
1 2540
1 2541
1 2542
1 2543
1 2544
1 2545
1 2546
1 2547
1 2548
1 2549
1 2550
1 2551
1 2552
1 2553
1 2554
1 2555
1 2556
1 2557
1 2558
1 2559
1 2560
1 2561
1 2562
1 2563
1 2564
1 2565
1 2566
1 2567
1 2568
1 2569
1 2570
1 2571
1 2572
1 2573
1 2574
1 2575
1 2576
1 2577
1 2578
1 2579
1 2580
1 2581
1 2582
1 2583
1 2584
1 2585
1 2586
1 2587
1 2588
1 2589
1 2590
1 2591
1 2592
1 2593
1 2594
1 2595
1 2596
1 2597
1 2598
1 2599
1 2600
1 2601
1 2602
1 2603
1 2604
1 2605
1 2606
1 2607
1 2608
1 2609
1 2610
1 2611
1 2612
1 2613
1 2614
1 2615
1 2616
1 2617
1 2618
1 2619
1 2620
1 2621
1 2622
1 2623
1 2624
1 2625
1 2626
1 2627
1 2628
1 2629
1 2630
1 2631
1 2632
1 2633
1 2634
1 2635
1 2636
1 2637
1 2638
1 2639
1 2640
1 2641
1 2642
1 2643
1 2644
1 2645
1 2646
1 2647
1 2648
1 2649
1 2650
1 2651
1 2652
1 2653
1 2654
1 2655
1 2656
1 2657
1 2658
1 2659
1 2660
1 2661
1 2662
1 2663
1 2664
1 2665
1 2666
1 2667
1 2668
1 2669
1 2670
1 2671
1 2672
1 2673
1 2674
1 2675
1 2676
1 2677
1 2678
1 2679
1 2680
1 2681
1 2682
1 2683
1 2684
1 2685
1 2686
1 2687
1 2688
1 2689
1 2690
1 2691
1 2692
1 2693
1 2694
1 2695
1 2696
1 2697
1 2698
1 2699
1 2700
1 2701
1 2702
1 2703
1 2704
1 2705
1 2706
1 2707
1 2708
1 2709
1 2710
1 2711
1 2712
1 2713
1 2714
1 2715
1 2716
1 2717
1 2718
1 2719
1 2720
1 2721
1 2722
1 2723
1 2724
1 2725
1 2726
1 2727
1 2728
1 2729
1 2730
1 2731
1 2732
1 2733
1 2734
1 2735
1 2736
1 2737
1 2738
1 2739
1 2740
1 2741
1 2742
1 2743
1 2744
1 2745
1 2746
1 2747
1 2748
1 2749
1 2750
1 2751
1 2752
1 2753
1 2754
1 2755
1 2756
1 2757
1 2758
1 2759
1 2760
1 2761
1 2762
1 2763
1 2764
1 2765
1 2766
1 2767
1 2768
1 2769
1 2770
1 2771
1 2772
1 2773
1 2774
1 2775
1 2776
1 2777
1 2778
1 2779
1 2780
1 2781
1 2782
1 2783
1 2784
1 2785
1 2786
1 2787
1 2788
1 2789
1 2790
1 2791
1 2792
1 2793
1 2794
1 2795
1 2796
1 2797
1 2798
1 2799
1 2800
1 2801
1 2802
1 2803
1 2804
1 2805
1 2806
1 2807
1 2808
1 2809
1 2810
1 2811
1 2812
1 2813
1 2814
1 2815
1 2816
1 2817
1 2818
1 2819
1 2820
1 2821
1 2822
1 2823
1 2824
1 2825
1 2826
1 2827
1 2828
1 2829
1 2830
1 2831
1 2832
1 2833
1 2834
1 2835
1 2836
1 2837
1 2838
1 2839
1 2840
1 2841
1 2842
1 2843
1 2844
1 2845
1 2846
1 2847
1 2848
1 2849
1 2850
1 2851
1 2852
1 2853
1 2854
1 2855
1 2856
1 2857
1 2858
1 2859
1 2860
1 2861
1 2862
1 2863
1 2864
1 2865
1 2866
1 2867
1 2868
1 2869
1 2870
1 2871
1 2872
1 2873
1 2874
1 2875
1 2876
1 2877
1 2878
1 2879
1 2880
1 2881
1 2882
1 2883
1 2884
1 2885
1 2886
1 2887
1 2888
1 2889
1 2890
1 2891
1 2892
1 2893
1 2894
1 2895
1 2896
1 2897
1 2898
1 2899
1 2900
1 2901
1 2902
1 2903
1 2904
1 2905
1 2906
1 2907
1 2908
1 2909
1 2910
1 2911
1 2912
1 2913
1 2914
1 2915
1 2916
1 2917
1 2918
1 2919
1 2920
1 2921
1 2922
1 2923
1 2924
1 2925
1 2926
1 2927
1 2928
1 2929
1 2930
1 2931
1 2932
1 2933
1 2934
1 2935
1 2936
1 2937
1 2938
1 2939
1 2940
1 2941
1 2942
1 2943
1 2944
1 2945
1 2946
1 2947
1 2948
1 2949
1 2950
1 2951
1 2952
1 2953
1 2954
1 2955
1 2956
1 2957
1 2958
1 2959
1 2960
1 2961
1 2962
1 2963
1 2964
1 2965
1 2966
1 2967
1 2968
1 2969
1 2970
1 2971
1 2972
1 2973
1 2974
POINT_DATA 2975
SCALARS Idp unsigned_int
LOOKUP_TABLE default
0 1 39 40 41 80 81 82 121 122 123 162 163 164 203 204 205 244 245 246 285 286 287 326 327 328 367 368 369 408 409 410 449 450 451 461 462 463 471 472 473 481 482 483 491 492 493 501 502 503 511 512 513 521 522 523 531 532 533 541 542 543 551 552 2 3 4 5 6 7 8 9 42 43 44 45 46 47 48 49 83 84 85 86 87 88 89 90 124 125 126 127 128 129 130 131 165 166 167 168 169 170 171 172 206 207 208 209 210 211 212 213 247 248 249 250 251 252 253 254 288 289 290 291 292 293 294 295 329 330 331 332 333 334 335 336 370 371 372 373 374 375 376 377 411 412 413 414 415 416 417 418 452 453 454 464 465 474 475 484 485 494 495 504 505 514 515 524 525 534 535 544 545 553 554 10 11 12 13 14 15 16 17 18 50 51 52 53 54 55 56 57 58 91 92 93 94 95 96 97 98 99 132 133 134 135 136 137 138 139 140 173 174 175 176 177 178 179 180 181 214 215 216 217 218 219 220 221 222 255 256 257 258 259 260 261 262 263 296 297 298 299 300 301 302 303 304 337 338 339 340 341 342 343 344 345 378 379 380 381 382 383 384 385 386 419 420 421 422 423 424 425 426 427 19 20 21 22 23 24 25 26 59 60 61 62 63 64 65 66 100 101 102 103 104 105 106 107 141 142 143 144 145 146 147 148 182 183 184 185 186 187 188 189 223 224 225 226 227 228 229 230 264 265 266 267 268 269 270 271 305 306 307 308 309 310 311 312 346 347 348 349 350 351 352 353 387 388 389 390 391 392 393 394 428 429 430 431 432 433 434 435 27 28 29 30 31 32 33 34 35 67 68 69 70 71 72 73 74 75 108 109 110 111 112 113 114 115 116 149 150 151 152 153 154 155 156 157 190 191 192 193 194 195 196 197 198 231 232 233 234 235 236 237 238 239 272 273 274 275 276 277 278 279 280 313 314 315 316 317 318 319 320 321 354 355 356 357 358 359 360 361 362 395 396 397 398 399 400 401 402 403 436 437 438 439 440 441 442 443 444 455 456 466 476 486 496 506 516 526 536 546 555 36 37 38 76 77 78 79 117 118 119 120 158 159 160 161 199 200 201 202 240 241 242 243 281 282 283 284 322 323 324 325 363 364 365 366 404 405 406 407 445 446 447 448 457 458 459 460 467 468 469 470 477 478 479 480 487 488 489 490 497 498 499 500 507 508 509 510 517 518 519 520 527 528 529 530 537 538 539 540 547 548 549 550 556 557 558 559 560 561 562 563 564 565 566 567 568 569 570 571 572 573 574 575 576 577 578 579 580 581 582 583 584 585 586 587 588 589 590 591 592 593 594 595 596 597 598 599 600 601 602 603 604 605 606 607 608 609 610 611 612 613 614 615 616 617 618 619 620 621 622 623 624 625 626 627 628 629 630 631 632 633 634 635 636 637 638 639 640 641 642 643 644 645 646 647 648 649 650 651 652 653 654 655 656 657 658 659 660 661 662 663 664 665 666 667 668 669 670 671 672 673 674 675 676 677 678 679 680 681 682 683 684 685 686 687 688 689 690 691 692 693 694 695 696 697 698 699 700 701 702 703 704 705 706 707 708 709 710 711 712 713 714 715 716 717 718 719 720 721 722 723 724 725 726 727 728 729 730 731 732 733 734 735 736 737 738 739 740 741 742 743 744 745 746 747 748 749 750 751 752 753 754 755 756 757 758 759 760 761 762 763 764 765 766 767 768 769 770 771 772 773 774 775 776 777 778 779 780 781 782 783 784 785 786 787 788 789 790 791 792 793 794 795 796 797 798 799 800 801 802 803 804 805 806 807 808 809 810 811 812 813 814 815 816 817 818 819 820 821 822 823 824 825 826 827 828 829 830 831 832 833 834 835 836 837 838 839 840 841 842 843 844 845 846 847 848 849 850 851 852 853 854 855 856 857 858 859 860 861 862 863 864 865 866 867 868 869 870 871 872 873 874 875 876 877 878 879 880 881 882 883 884 885 886 887 888 889 890 891 892 893 894 895 896 897 898 899 900 901 902 903 904 905 906 907 908 909 910 911 912 913 914 915 916 917 918 919 920 921 922 923 924 925 926 927 928 929 930 931 932 933 934 935 936 937 938 939 940 941 942 943 944 945 946 947 948 949 950 951 952 953 954 955 956 957 958 959 960 961 962 963 964 965 966 967 968 969 970 971 972 973 974 975 976 977 978 979 980 981 982 983 984 985 986 987 988 989 990 991 992 993 994 995 996 997 998 999 1000 1001 1002 1003 1004 1005 1006 1007 1008 1009 1010 1011 1012 1013 1014 1015 1016 1017 1018 1019 1020 1021 1022 1023 1024 1025 1026 1027 1028 1029 1030 1031 1032 1033 1034 1035 1060 1061 1062 1063 1064 1065 1091 1092 1093 1094 1095 1096 1122 1123 1124 1125 1126 1127 1153 1154 1155 1156 1157 1158 1184 1185 1186 1187 1188 1189 1215 1216 1217 1218 1219 1220 1246 1247 1248 1249 1250 1251 1277 1278 1279 1280 1281 1282 1308 1309 1310 1311 1312 1313 1339 1340 1341 1342 1343 1344 1370 1371 1372 1373 1374 1375 1401 1402 1403 1404 1405 1406 1432 1433 1434 1435 1436 1437 1463 1464 1465 1466 1467 1468 1494 1495 1496 1497 1498 1499 1525 1526 1527 1528 1529 1530 1556 1557 1558 1559 1560 1561 1587 1588 1589 1590 1591 1592 1618 1619 1620 1621 1622 1623 1649 1650 1651 1652 1653 1654 1680 1681 1682 1683 1684 1685 1711 1712 1713 1714 1715 1716 1742 1743 1744 1745 1746 1747 1773 1774 1775 1776 1777 1778 1804 1805 1806 1807 1808 1809 1835 1836 1837 1838 1839 1840 1866 1867 1868 1869 1870 1871 1897 1898 1899 1900 1901 1902 1928 1929 1930 1931 1932 1933 1959 1960 1961 1962 1963 1964 1990 1991 1992 1993 1994 1995 2021 2022 2023 2024 2025 2026 2052 2053 2054 2055 2056 2057 2083 2084 2085 2086 2087 2088 2114 2115 2116 2117 2118 2119 2145 2146 2147 2148 2149 2150 2176 2177 2178 2179 2180 2181 2207 2208 2209 2210 2211 2212 2238 2239 2240 2241 2242 2243 2269 2270 2271 2272 2273 2274 2300 2301 2302 2303 2304 2305 2331 2332 2333 2334 2335 2336 2362 2363 2364 2365 2366 2367 2393 2394 2395 2396 2397 2398 2424 2425 2426 2427 2428 2429 2455 2456 2457 2458 2459 2460 2486 2487 2488 2489 2490 2491 2517 2518 2519 2520 2521 2522 2548 2549 2550 2551 2552 2553 2579 2580 2581 2582 2583 2584 2610 2611 2612 2613 2614 2615 2641 2642 2643 2644 2645 2646 2672 2673 2674 2675 2676 2677 2703 2704 2705 2706 2707 2708 2734 2735 2736 2737 2738 2763 2764 2765 2766 2767 2792 2793 2794 2795 2819 2820 2821 2822 2846 2847 2848 2871 2872 2894 2895 1036 1037 1038 1039 1040 1041 1042 1043 1044 1066 1067 1068 1069 1070 1071 1072 1073 1074 1097 1098 1099 1100 1101 1102 1103 1104 1105 1128 1129 1130 1131 1132 1133 1134 1135 1136 1159 1160 1161 1162 1163 1164 1165 1166 1167 1190 1191 1192 1193 1194 1195 1196 1197 1198 1221 1222 1223 1224 1225 1226 1227 1228 1229 1252 1253 1254 1255 1256 1257 1258 1259 1260 1283 1284 1285 1286 1287 1288 1289 1290 1291 1314 1315 1316 1317 1318 1319 1320 1321 1322 1345 1346 1347 1348 1349 1350 1351 1352 1353 1376 1377 1378 1379 1380 1381 1382 1383 1384 1407 1408 1409 1410 1411 1412 1413 1414 1415 1438 1439 1440 1441 1442 1443 1444 1445 1446 1469 1470 1471 1472 1473 1474 1475 1476 1477 1500 1501 1502 1503 1504 1505 1506 1507 1508 1531 1532 1533 1534 1535 1536 1537 1538 1539 1562 1563 1564 1565 1566 1567 1568 1569 1570 1593 1594 1595 1596 1597 1598 1599 1600 1601 1624 1625 1626 1627 1628 1629 1630 1631 1632 1655 1656 1657 1658 1659 1660 1661 1662 1663 1686 1687 1688 1689 1690 1691 1692 1693 1694 1717 1718 1719 1720 1721 1722 1723 1724 1725 1748 1749 1750 1751 1752 1753 1754 1755 1756 1779 1780 1781 1782 1783 1784 1785 1786 1787 1810 1811 1812 1813 1814 1815 1816 1817 1818 1841 1842 1843 1844 1845 1846 1847 1848 1849 1872 1873 1874 1875 1876 1877 1878 1879 1880 1903 1904 1905 1906 1907 1908 1909 1910 1911 1934 1935 1936 1937 1938 1939 1940 1941 1942 1965 1966 1967 1968 1969 1970 1971 1972 1973 1996 1997 1998 1999 2000 2001 2002 2003 2004 2027 2028 2029 2030 2031 2032 2033 2034 2035 2058 2059 2060 2061 2062 2063 2064 2065 2066 2089 2090 2091 2092 2093 2094 2095 2096 2097 2120 2121 2122 2123 2124 2125 2126 2127 2128 2151 2152 2153 2154 2155 2156 2157 2158 2159 2182 2183 2184 2185 2186 2187 2188 2189 2190 2213 2214 2215 2216 2217 2218 2219 2220 2221 2244 2245 2246 2247 2248 2249 2250 2251 2252 2275 2276 2277 2278 2279 2280 2281 2282 2283 2306 2307 2308 2309 2310 2311 2312 2313 2314 2337 2338 2339 2340 2341 2342 2343 2344 2345 2368 2369 2370 2371 2372 2373 2374 2375 2376 2399 2400 2401 2402 2403 2404 2405 2406 2407 2430 2431 2432 2433 2434 2435 2436 2437 2438 2461 2462 2463 2464 2465 2466 2467 2468 2469 2492 2493 2494 2495 2496 2497 2498 2499 2500 2523 2524 2525 2526 2527 2528 2529 2530 2531 2554 2555 2556 2557 2558 2559 2560 2561 2562 2585 2586 2587 2588 2589 2590 2591 2592 2593 2616 2617 2618 2619 2620 2621 2622 2623 2624 2647 2648 2649 2650 2651 2652 2653 2654 2655 2678 2679 2680 2681 2682 2683 2684 2685 2686 2709 2710 2711 2712 2713 2714 2715 2716 2717 2739 2740 2741 2742 2743 2744 2745 2746 2747 2768 2769 2770 2771 2772 2773 2774 2775 2776 2796 2797 2798 2799 2800 2801 2802 2803 2804 2823 2824 2825 2826 2827 2828 2829 2830 2831 2849 2850 2851 2852 2853 2854 2855 2856 2857 2873 2874 2875 2876 2877 2878 2879 2880 2881 2896 2897 2898 2899 2900 2901 2902 2903 2904 2917 2918 2919 2920 2921 2922 2923 2924 2925 2936 2937 2938 2939 2940 2941 2942 2943 2953 2954 2955 2956 2957 2958 2966 2967 2968 2969 1045 1046 1047 1048 1049 1050 1051 1052 1075 1076 1077 1078 1079 1080 1081 1082 1106 1107 1108 1109 1110 1111 1112 1113 1137 1138 1139 1140 1141 1142 1143 1144 1168 1169 1170 1171 1172 1173 1174 1175 1199 1200 1201 1202 1203 1204 1205 1206 1230 1231 1232 1233 1234 1235 1236 1237 1261 1262 1263 1264 1265 1266 1267 1268 1292 1293 1294 1295 1296 1297 1298 1299 1323 1324 1325 1326 1327 1328 1329 1330 1354 1355 1356 1357 1358 1359 1360 1361 1385 1386 1387 1388 1389 1390 1391 1392 1416 1417 1418 1419 1420 1421 1422 1423 1447 1448 1449 1450 1451 1452 1453 1454 1478 1479 1480 1481 1482 1483 1484 1485 1509 1510 1511 1512 1513 1514 1515 1516 1540 1541 1542 1543 1544 1545 1546 1547 1571 1572 1573 1574 1575 1576 1577 1578 1602 1603 1604 1605 1606 1607 1608 1609 1633 1634 1635 1636 1637 1638 1639 1640 1664 1665 1666 1667 1668 1669 1670 1671 1695 1696 1697 1698 1699 1700 1701 1702 1726 1727 1728 1729 1730 1731 1732 1733 1757 1758 1759 1760 1761 1762 1763 1764 1788 1789 1790 1791 1792 1793 1794 1795 1819 1820 1821 1822 1823 1824 1825 1826 1850 1851 1852 1853 1854 1855 1856 1857 1881 1882 1883 1884 1885 1886 1887 1888 1912 1913 1914 1915 1916 1917 1918 1919 1943 1944 1945 1946 1947 1948 1949 1950 1974 1975 1976 1977 1978 1979 1980 1981 2005 2006 2007 2008 2009 2010 2011 2012 2036 2037 2038 2039 2040 2041 2042 2043 2067 2068 2069 2070 2071 2072 2073 2074 2098 2099 2100 2101 2102 2103 2104 2105 2129 2130 2131 2132 2133 2134 2135 2136 2160 2161 2162 2163 2164 2165 2166 2167 2191 2192 2193 2194 2195 2196 2197 2198 2222 2223 2224 2225 2226 2227 2228 2229 2253 2254 2255 2256 2257 2258 2259 2260 2284 2285 2286 2287 2288 2289 2290 2291 2315 2316 2317 2318 2319 2320 2321 2322 2346 2347 2348 2349 2350 2351 2352 2353 2377 2378 2379 2380 2381 2382 2383 2384 2408 2409 2410 2411 2412 2413 2414 2415 2439 2440 2441 2442 2443 2444 2445 2446 2470 2471 2472 2473 2474 2475 2476 2477 2501 2502 2503 2504 2505 2506 2507 2508 2532 2533 2534 2535 2536 2537 2538 2539 2563 2564 2565 2566 2567 2568 2569 2570 2594 2595 2596 2597 2598 2599 2600 2601 2625 2626 2627 2628 2629 2630 2631 2632 2656 2657 2658 2659 2660 2661 2662 2663 2687 2688 2689 2690 2691 2692 2693 2694 2718 2719 2720 2721 2722 2723 2724 2725 2748 2749 2750 2751 2752 2753 2754 2755 2777 2778 2779 2780 2781 2782 2783 2784 2805 2806 2807 2808 2809 2810 2811 2812 2832 2833 2834 2835 2836 2837 2838 2839 2858 2859 2860 2861 2862 2863 2864 2865 2882 2883 2884 2885 2886 2887 2888 2889 2905 2906 2907 2908 2909 2910 2911 2912 2926 2927 2928 2929 2930 2931 2932 2933 2944 2945 2946 2947 2948 2949 2950 2951 2959 2960 2961 2962 2963 2964 2965 2970 2971 2972 2973 2974 1053 1054 1055 1056 1057 1058 1059 1083 1084 1085 1086 1087 1088 1089 1090 1114 1115 1116 1117 1118 1119 1120 1121 1145 1146 1147 1148 1149 1150 1151 1152 1176 1177 1178 1179 1180 1181 1182 1183 1207 1208 1209 1210 1211 1212 1213 1214 1238 1239 1240 1241 1242 1243 1244 1245 1269 1270 1271 1272 1273 1274 1275 1276 1300 1301 1302 1303 1304 1305 1306 1307 1331 1332 1333 1334 1335 1336 1337 1338 1362 1363 1364 1365 1366 1367 1368 1369 1393 1394 1395 1396 1397 1398 1399 1400 1424 1425 1426 1427 1428 1429 1430 1431 1455 1456 1457 1458 1459 1460 1461 1462 1486 1487 1488 1489 1490 1491 1492 1493 1517 1518 1519 1520 1521 1522 1523 1524 1548 1549 1550 1551 1552 1553 1554 1555 1579 1580 1581 1582 1583 1584 1585 1586 1610 1611 1612 1613 1614 1615 1616 1617 1641 1642 1643 1644 1645 1646 1647 1648 1672 1673 1674 1675 1676 1677 1678 1679 1703 1704 1705 1706 1707 1708 1709 1710 1734 1735 1736 1737 1738 1739 1740 1741 1765 1766 1767 1768 1769 1770 1771 1772 1796 1797 1798 1799 1800 1801 1802 1803 1827 1828 1829 1830 1831 1832 1833 1834 1858 1859 1860 1861 1862 1863 1864 1865 1889 1890 1891 1892 1893 1894 1895 1896 1920 1921 1922 1923 1924 1925 1926 1927 1951 1952 1953 1954 1955 1956 1957 1958 1982 1983 1984 1985 1986 1987 1988 1989 2013 2014 2015 2016 2017 2018 2019 2020 2044 2045 2046 2047 2048 2049 2050 2051 2075 2076 2077 2078 2079 2080 2081 2082 2106 2107 2108 2109 2110 2111 2112 2113 2137 2138 2139 2140 2141 2142 2143 2144 2168 2169 2170 2171 2172 2173 2174 2175 2199 2200 2201 2202 2203 2204 2205 2206 2230 2231 2232 2233 2234 2235 2236 2237 2261 2262 2263 2264 2265 2266 2267 2268 2292 2293 2294 2295 2296 2297 2298 2299 2323 2324 2325 2326 2327 2328 2329 2330 2354 2355 2356 2357 2358 2359 2360 2361 2385 2386 2387 2388 2389 2390 2391 2392 2416 2417 2418 2419 2420 2421 2422 2423 2447 2448 2449 2450 2451 2452 2453 2454 2478 2479 2480 2481 2482 2483 2484 2485 2509 2510 2511 2512 2513 2514 2515 2516 2540 2541 2542 2543 2544 2545 2546 2547 2571 2572 2573 2574 2575 2576 2577 2578 2602 2603 2604 2605 2606 2607 2608 2609 2633 2634 2635 2636 2637 2638 2639 2640 2664 2665 2666 2667 2668 2669 2670 2671 2695 2696 2697 2698 2699 2700 2701 2702 2726 2727 2728 2729 2730 2731 2732 2733 2756 2757 2758 2759 2760 2761 2762 2785 2786 2787 2788 2789 2790 2791 2813 2814 2815 2816 2817 2818 2840 2841 2842 2843 2844 2845 2866 2867 2868 2869 2870 2890 2891 2892 2893 2913 2914 2915 2916 2934 2935 2952 
FIELD FieldData 12
Idp 1 2975 float
0 1 39 40 41 80 81 82 121 122 123 162 163 164 203 204 205 244 245 246 285 286 287 326 327 328 367 368 369 408 409 410 449 450 451 461 462 463 471 472 473 481 482 483 491 492 493 501 502 503 511 512 513 521 522 523 531 532 533 541 542 543 551 552 2 3 4 5 6 7 8 9 42 43 44 45 46 47 48 49 83 84 85 86 87 88 89 90 124 125 126 127 128 129 130 131 165 166 167 168 169 170 171 172 206 207 208 209 210 211 212 213 247 248 249 250 251 252 253 254 288 289 290 291 292 293 294 295 329 330 331 332 333 334 335 336 370 371 372 373 374 375 376 377 411 412 413 414 415 416 417 418 452 453 454 464 465 474 475 484 485 494 495 504 505 514 515 524 525 534 535 544 545 553 554 10 11 12 13 14 15 16 17 18 50 51 52 53 54 55 56 57 58 91 92 93 94 95 96 97 98 99 132 133 134 135 136 137 138 139 140 173 174 175 176 177 178 179 180 181 214 215 216 217 218 219 220 221 222 255 256 257 258 259 260 261 262 263 296 297 298 299 300 301 302 303 304 337 338 339 340 341 342 343 344 345 378 379 380 381 382 383 384 385 386 419 420 421 422 423 424 425 426 427 19 20 21 22 23 24 25 26 59 60 61 62 63 64 65 66 100 101 102 103 104 105 106 107 141 142 143 144 145 146 147 148 182 183 184 185 186 187 188 189 223 224 225 226 227 228 229 230 264 265 266 267 268 269 270 271 305 306 307 308 309 310 311 312 346 347 348 349 350 351 352 353 387 388 389 390 391 392 393 394 428 429 430 431 432 433 434 435 27 28 29 30 31 32 33 34 35 67 68 69 70 71 72 73 74 75 108 109 110 111 112 113 114 115 116 149 150 151 152 153 154 155 156 157 190 191 192 193 194 195 196 197 198 231 232 233 234 235 236 237 238 239 272 273 274 275 276 277 278 279 280 313 314 315 316 317 318 319 320 321 354 355 356 357 358 359 360 361 362 395 396 397 398 399 400 401 402 403 436 437 438 439 440 441 442 443 444 455 456 466 476 486 496 506 516 526 536 546 555 36 37 38 76 77 78 79 117 118 119 120 158 159 160 161 199 200 201 202 240 241 242 243 281 282 283 284 322 323 324 325 363 364 365 366 404 405 406 407 445 446 447 448 457 458 459 460 467 468 469 470 477 478 479 480 487 488 489 490 497 498 499 500 507 508 509 510 517 518 519 520 527 528 529 530 537 538 539 540 547 548 549 550 556 557 558 559 560 561 562 563 564 565 566 567 568 569 570 571 572 573 574 575 576 577 578 579 580 581 582 583 584 585 586 587 588 589 590 591 592 593 594 595 596 597 598 599 600 601 602 603 604 605 606 607 608 609 610 611 612 613 614 615 616 617 618 619 620 621 622 623 624 625 626 627 628 629 630 631 632 633 634 635 636 637 638 639 640 641 642 643 644 645 646 647 648 649 650 651 652 653 654 655 656 657 658 659 660 661 662 663 664 665 666 667 668 669 670 671 672 673 674 675 676 677 678 679 680 681 682 683 684 685 686 687 688 689 690 691 692 693 694 695 696 697 698 699 700 701 702 703 704 705 706 707 708 709 710 711 712 713 714 715 716 717 718 719 720 721 722 723 724 725 726 727 728 729 730 731 732 733 734 735 736 737 738 739 740 741 742 743 744 745 746 747 748 749 750 751 752 753 754 755 756 757 758 759 760 761 762 763 764 765 766 767 768 769 770 771 772 773 774 775 776 777 778 779 780 781 782 783 784 785 786 787 788 789 790 791 792 793 794 795 796 797 798 799 800 801 802 803 804 805 806 807 808 809 810 811 812 813 814 815 816 817 818 819 820 821 822 823 824 825 826 827 828 829 830 831 832 833 834 835 836 837 838 839 840 841 842 843 844 845 846 847 848 849 850 851 852 853 854 855 856 857 858 859 860 861 862 863 864 865 866 867 868 869 870 871 872 873 874 875 876 877 878 879 880 881 882 883 884 885 886 887 888 889 890 891 892 893 894 895 896 897 898 899 900 901 902 903 904 905 906 907 908 909 910 911 912 913 914 915 916 917 918 919 920 921 922 923 924 925 926 927 928 929 930 931 932 933 934 935 936 937 938 939 940 941 942 943 944 945 946 947 948 949 950 951 952 953 954 955 956 957 958 959 960 961 962 963 964 965 966 967 968 969 970 971 972 973 974 975 976 977 978 979 980 981 982 983 984 985 986 987 988 989 990 991 992 993 994 995 996 997 998 999 1000 1001 1002 1003 1004 1005 1006 1007 1008 1009 1010 1011 1012 1013 1014 1015 1016 1017 1018 1019 1020 1021 1022 1023 1024 1025 1026 1027 1028 1029 1030 1031 1032 1033 1034 1035 1060 1061 1062 1063 1064 1065 1091 1092 1093 1094 1095 1096 1122 1123 1124 1125 1126 1127 1153 1154 1155 1156 1157 1158 1184 1185 1186 1187 1188 1189 1215 1216 1217 1218 1219 1220 1246 1247 1248 1249 1250 1251 1277 1278 1279 1280 1281 1282 1308 1309 1310 1311 1312 1313 1339 1340 1341 1342 1343 1344 1370 1371 1372 1373 1374 1375 1401 1402 1403 1404 1405 1406 1432 1433 1434 1435 1436 1437 1463 1464 1465 1466 1467 1468 1494 1495 1496 1497 1498 1499 1525 1526 1527 1528 1529 1530 1556 1557 1558 1559 1560 1561 1587 1588 1589 1590 1591 1592 1618 1619 1620 1621 1622 1623 1649 1650 1651 1652 1653 1654 1680 1681 1682 1683 1684 1685 1711 1712 1713 1714 1715 1716 1742 1743 1744 1745 1746 1747 1773 1774 1775 1776 1777 1778 1804 1805 1806 1807 1808 1809 1835 1836 1837 1838 1839 1840 1866 1867 1868 1869 1870 1871 1897 1898 1899 1900 1901 1902 1928 1929 1930 1931 1932 1933 1959 1960 1961 1962 1963 1964 1990 1991 1992 1993 1994 1995 2021 2022 2023 2024 2025 2026 2052 2053 2054 2055 2056 2057 2083 2084 2085 2086 2087 2088 2114 2115 2116 2117 2118 2119 2145 2146 2147 2148 2149 2150 2176 2177 2178 2179 2180 2181 2207 2208 2209 2210 2211 2212 2238 2239 2240 2241 2242 2243 2269 2270 2271 2272 2273 2274 2300 2301 2302 2303 2304 2305 2331 2332 2333 2334 2335 2336 2362 2363 2364 2365 2366 2367 2393 2394 2395 2396 2397 2398 2424 2425 2426 2427 2428 2429 2455 2456 2457 2458 2459 2460 2486 2487 2488 2489 2490 2491 2517 2518 2519 2520 2521 2522 2548 2549 2550 2551 2552 2553 2579 2580 2581 2582 2583 2584 2610 2611 2612 2613 2614 2615 2641 2642 2643 2644 2645 2646 2672 2673 2674 2675 2676 2677 2703 2704 2705 2706 2707 2708 2734 2735 2736 2737 2738 2763 2764 2765 2766 2767 2792 2793 2794 2795 2819 2820 2821 2822 2846 2847 2848 2871 2872 2894 2895 1036 1037 1038 1039 1040 1041 1042 1043 1044 1066 1067 1068 1069 1070 1071 1072 1073 1074 1097 1098 1099 1100 1101 1102 1103 1104 1105 1128 1129 1130 1131 1132 1133 1134 1135 1136 1159 1160 1161 1162 1163 1164 1165 1166 1167 1190 1191 1192 1193 1194 1195 1196 1197 1198 1221 1222 1223 1224 1225 1226 1227 1228 1229 1252 1253 1254 1255 1256 1257 1258 1259 1260 1283 1284 1285 1286 1287 1288 1289 1290 1291 1314 1315 1316 1317 1318 1319 1320 1321 1322 1345 1346 1347 1348 1349 1350 1351 1352 1353 1376 1377 1378 1379 1380 1381 1382 1383 1384 1407 1408 1409 1410 1411 1412 1413 1414 1415 1438 1439 1440 1441 1442 1443 1444 1445 1446 1469 1470 1471 1472 1473 1474 1475 1476 1477 1500 1501 1502 1503 1504 1505 1506 1507 1508 1531 1532 1533 1534 1535 1536 1537 1538 1539 1562 1563 1564 1565 1566 1567 1568 1569 1570 1593 1594 1595 1596 1597 1598 1599 1600 1601 1624 1625 1626 1627 1628 1629 1630 1631 1632 1655 1656 1657 1658 1659 1660 1661 1662 1663 1686 1687 1688 1689 1690 1691 1692 1693 1694 1717 1718 1719 1720 1721 1722 1723 1724 1725 1748 1749 1750 1751 1752 1753 1754 1755 1756 1779 1780 1781 1782 1783 1784 1785 1786 1787 1810 1811 1812 1813 1814 1815 1816 1817 1818 1841 1842 1843 1844 1845 1846 1847 1848 1849 1872 1873 1874 1875 1876 1877 1878 1879 1880 1903 1904 1905 1906 1907 1908 1909 1910 1911 1934 1935 1936 1937 1938 1939 1940 1941 1942 1965 1966 1967 1968 1969 1970 1971 1972 1973 1996 1997 1998 1999 2000 2001 2002 2003 2004 2027 2028 2029 2030 2031 2032 2033 2034 2035 2058 2059 2060 2061 2062 2063 2064 2065 2066 2089 2090 2091 2092 2093 2094 2095 2096 2097 2120 2121 2122 2123 2124 2125 2126 2127 2128 2151 2152 2153 2154 2155 2156 2157 2158 2159 2182 2183 2184 2185 2186 2187 2188 2189 2190 2213 2214 2215 2216 2217 2218 2219 2220 2221 2244 2245 2246 2247 2248 2249 2250 2251 2252 2275 2276 2277 2278 2279 2280 2281 2282 2283 2306 2307 2308 2309 2310 2311 2312 2313 2314 2337 2338 2339 2340 2341 2342 2343 2344 2345 2368 2369 2370 2371 2372 2373 2374 2375 2376 2399 2400 2401 2402 2403 2404 2405 2406 2407 2430 2431 2432 2433 2434 2435 2436 2437 2438 2461 2462 2463 2464 2465 2466 2467 2468 2469 2492 2493 2494 2495 2496 2497 2498 2499 2500 2523 2524 2525 2526 2527 2528 2529 2530 2531 2554 2555 2556 2557 2558 2559 2560 2561 2562 2585 2586 2587 2588 2589 2590 2591 2592 2593 2616 2617 2618 2619 2620 2621 2622 2623 2624 2647 2648 2649 2650 2651 2652 2653 2654 2655 2678 2679 2680 2681 2682 2683 2684 2685 2686 2709 2710 2711 2712 2713 2714 2715 2716 2717 2739 2740 2741 2742 2743 2744 2745 2746 2747 2768 2769 2770 2771 2772 2773 2774 2775 2776 2796 2797 2798 2799 2800 2801 2802 2803 2804 2823 2824 2825 2826 2827 2828 2829 2830 2831 2849 2850 2851 2852 2853 2854 2855 2856 2857 2873 2874 2875 2876 2877 2878 2879 2880 2881 2896 2897 2898 2899 2900 2901 2902 2903 2904 2917 2918 2919 2920 2921 2922 2923 2924 2925 2936 2937 2938 2939 2940 2941 2942 2943 2953 2954 2955 2956 2957 2958 2966 2967 2968 2969 1045 1046 1047 1048 1049 1050 1051 1052 1075 1076 1077 1078 1079 1080 1081 1082 1106 1107 1108 1109 1110 1111 1112 1113 1137 1138 1139 1140 1141 1142 1143 1144 1168 1169 1170 1171 1172 1173 1174 1175 1199 1200 1201 1202 1203 1204 1205 1206 1230 1231 1232 1233 1234 1235 1236 1237 1261 1262 1263 1264 1265 1266 1267 1268 1292 1293 1294 1295 1296 1297 1298 1299 1323 1324 1325 1326 1327 1328 1329 1330 1354 1355 1356 1357 1358 1359 1360 1361 1385 1386 1387 1388 1389 1390 1391 1392 1416 1417 1418 1419 1420 1421 1422 1423 1447 1448 1449 1450 1451 1452 1453 1454 1478 1479 1480 1481 1482 1483 1484 1485 1509 1510 1511 1512 1513 1514 1515 1516 1540 1541 1542 1543 1544 1545 1546 1547 1571 1572 1573 1574 1575 1576 1577 1578 1602 1603 1604 1605 1606 1607 1608 1609 1633 1634 1635 1636 1637 1638 1639 1640 1664 1665 1666 1667 1668 1669 1670 1671 1695 1696 1697 1698 1699 1700 1701 1702 1726 1727 1728 1729 1730 1731 1732 1733 1757 1758 1759 1760 1761 1762 1763 1764 1788 1789 1790 1791 1792 1793 1794 1795 1819 1820 1821 1822 1823 1824 1825 1826 1850 1851 1852 1853 1854 1855 1856 1857 1881 1882 1883 1884 1885 1886 1887 1888 1912 1913 1914 1915 1916 1917 1918 1919 1943 1944 1945 1946 1947 1948 1949 1950 1974 1975 1976 1977 1978 1979 1980 1981 2005 2006 2007 2008 2009 2010 2011 2012 2036 2037 2038 2039 2040 2041 2042 2043 2067 2068 2069 2070 2071 2072 2073 2074 2098 2099 2100 2101 2102 2103 2104 2105 2129 2130 2131 2132 2133 2134 2135 2136 2160 2161 2162 2163 2164 2165 2166 2167 2191 2192 2193 2194 2195 2196 2197 2198 2222 2223 2224 2225 2226 2227 2228 2229 2253 2254 2255 2256 2257 2258 2259 2260 2284 2285 2286 2287 2288 2289 2290 2291 2315 2316 2317 2318 2319 2320 2321 2322 2346 2347 2348 2349 2350 2351 2352 2353 2377 2378 2379 2380 2381 2382 2383 2384 2408 2409 2410 2411 2412 2413 2414 2415 2439 2440 2441 2442 2443 2444 2445 2446 2470 2471 2472 2473 2474 2475 2476 2477 2501 2502 2503 2504 2505 2506 2507 2508 2532 2533 2534 2535 2536 2537 2538 2539 2563 2564 2565 2566 2567 2568 2569 2570 2594 2595 2596 2597 2598 2599 2600 2601 2625 2626 2627 2628 2629 2630 2631 2632 2656 2657 2658 2659 2660 2661 2662 2663 2687 2688 2689 2690 2691 2692 2693 2694 2718 2719 2720 2721 2722 2723 2724 2725 2748 2749 2750 2751 2752 2753 2754 2755 2777 2778 2779 2780 2781 2782 2783 2784 2805 2806 2807 2808 2809 2810 2811 2812 2832 2833 2834 2835 2836 2837 2838 2839 2858 2859 2860 2861 2862 2863 2864 2865 2882 2883 2884 2885 2886 2887 2888 2889 2905 2906 2907 2908 2909 2910 2911 2912 2926 2927 2928 2929 2930 2931 2932 2933 2944 2945 2946 2947 2948 2949 2950 2951 2959 2960 2961 2962 2963 2964 2965 2970 2971 2972 2973 2974 1053 1054 1055 1056 1057 1058 1059 1083 1084 1085 1086 1087 1088 1089 1090 1114 1115 1116 1117 1118 1119 1120 1121 1145 1146 1147 1148 1149 1150 1151 1152 1176 1177 1178 1179 1180 1181 1182 1183 1207 1208 1209 1210 1211 1212 1213 1214 1238 1239 1240 1241 1242 1243 1244 1245 1269 1270 1271 1272 1273 1274 1275 1276 1300 1301 1302 1303 1304 1305 1306 1307 1331 1332 1333 1334 1335 1336 1337 1338 1362 1363 1364 1365 1366 1367 1368 1369 1393 1394 1395 1396 1397 1398 1399 1400 1424 1425 1426 1427 1428 1429 1430 1431 1455 1456 1457 1458 1459 1460 1461 1462 1486 1487 1488 1489 1490 1491 1492 1493 1517 1518 1519 1520 1521 1522 1523 1524 1548 1549 1550 1551 1552 1553 1554 1555 1579 1580 1581 1582 1583 1584 1585 1586 1610 1611 1612 1613 1614 1615 1616 1617 1641 1642 1643 1644 1645 1646 1647 1648 1672 1673 1674 1675 1676 1677 1678 1679 1703 1704 1705 1706 1707 1708 1709 1710 1734 1735 1736 1737 1738 1739 1740 1741 1765 1766 1767 1768 1769 1770 1771 1772 1796 1797 1798 1799 1800 1801 1802 1803 1827 1828 1829 1830 1831 1832 1833 1834 1858 1859 1860 1861 1862 1863 1864 1865 1889 1890 1891 1892 1893 1894 1895 1896 1920 1921 1922 1923 1924 1925 1926 1927 1951 1952 1953 1954 1955 1956 1957 1958 1982 1983 1984 1985 1986 1987 1988 1989 2013 2014 2015 2016 2017 2018 2019 2020 2044 2045 2046 2047 2048 2049 2050 2051 2075 2076 2077 2078 2079 2080 2081 2082 2106 2107 2108 2109 2110 2111 2112 2113 2137 2138 2139 2140 2141 2142 2143 2144 2168 2169 2170 2171 2172 2173 2174 2175 2199 2200 2201 2202 2203 2204 2205 2206 2230 2231 2232 2233 2234 2235 2236 2237 2261 2262 2263 2264 2265 2266 2267 2268 2292 2293 2294 2295 2296 2297 2298 2299 2323 2324 2325 2326 2327 2328 2329 2330 2354 2355 2356 2357 2358 2359 2360 2361 2385 2386 2387 2388 2389 2390 2391 2392 2416 2417 2418 2419 2420 2421 2422 2423 2447 2448 2449 2450 2451 2452 2453 2454 2478 2479 2480 2481 2482 2483 2484 2485 2509 2510 2511 2512 2513 2514 2515 2516 2540 2541 2542 2543 2544 2545 2546 2547 2571 2572 2573 2574 2575 2576 2577 2578 2602 2603 2604 2605 2606 2607 2608 2609 2633 2634 2635 2636 2637 2638 2639 2640 2664 2665 2666 2667 2668 2669 2670 2671 2695 2696 2697 2698 2699 2700 2701 2702 2726 2727 2728 2729 2730 2731 2732 2733 2756 2757 2758 2759 2760 2761 2762 2785 2786 2787 2788 2789 2790 2791 2813 2814 2815 2816 2817 2818 2840 2841 2842 2843 2844 2845 2866 2867 2868 2869 2870 2890 2891 2892 2893 2913 2914 2915 2916 2934 2935 2952 
Rhop 1 2975 float
1000.0 1000.0 1000.0 1000.0 1000.0 1000.0 1000.0 1000.0 1000.0 1000.0 1000.0 1000.0 1000.0 1000.0 1000.0 1000.0 1000.0 1000.0 1000.0 1000.0 1000.0 1000.0 1000.0 1000.0 1000.0 1000.0 1000.0 1000.0 1000.0 1000.0 1000.0 1000.0 1000.0 1000.0 1000.0 1000.0 1000.0 1000.0 1000.0 1000.0 1000.0 1000.0 1000.0 1000.0 1000.0 1000.0 1000.0 1000.0 1000.0 1000.0 1000.0 1000.0 1000.0 1000.0 1000.0 1000.0 1000.0 1000.0 1000.0 1000.0 1000.0 1000.0 1000.0 1000.0 1000.0 1000.0 1000.0 1000.0 1000.0 1000.0 1000.0 1000.0 1000.0 1000.0 1000.0 1000.0 1000.0 1000.0 1000.0 1000.0 1000.0 1000.0 1000.0 1000.0 1000.0 1000.0 1000.0 1000.0 1000.0 1000.0 1000.0 1000.0 1000.0 1000.0 1000.0 1000.0 1000.0 1000.0 1000.0 1000.0 1000.0 1000.0 1000.0 1000.0 1000.0 1000.0 1000.0 1000.0 1000.0 1000.0 1000.0 1000.0 1000.0 1000.0 1000.0 1000.0 1000.0 1000.0 1000.0 1000.0 1000.0 1000.0 1000.0 1000.0 1000.0 1000.0 1000.0 1000.0 1000.0 1000.0 1000.0 1000.0 1000.0 1000.0 1000.0 1000.0 1000.0 1000.0 1000.0 1000.0 1000.0 1000.0 1000.0 1000.0 1000.0 1000.0 1000.0 1000.0 1000.0 1000.0 1000.0 1000.0 1000.0 1000.0 1000.0 1000.0 1000.0 1000.0 1000.0 1000.0 1000.0 1000.0 1000.0 1000.0 1000.0 1000.0 1000.0 1000.0 1000.0 1000.0 1000.0 1000.0 1000.0 1000.0 1000.0 1000.0 1000.0 1000.0 1000.0 1000.0 1000.0 1000.0 1000.0 1000.0 1000.0 1000.0 1000.0 1000.0 1000.0 1000.0 1000.0 1000.0 1000.0 1000.0 1000.0 1000.0 1000.0 1000.0 1000.0 1000.0 1000.0 1000.0 1000.0 1000.0 1000.0 1000.0 1000.0 1000.0 1000.0 1000.0 1000.0 1000.0 1000.0 1000.0 1000.0 1000.0 1000.0 1000.0 1000.0 1000.0 1000.0 1000.0 1000.0 1000.0 1000.0 1000.0 1000.0 1000.0 1000.0 1000.0 1000.0 1000.0 1000.0 1000.0 1000.0 1000.0 1000.0 1000.0 1000.0 1000.0 1000.0 1000.0 1000.0 1000.0 1000.0 1000.0 1000.0 1000.0 1000.0 1000.0 1000.0 1000.0 1000.0 1000.0 1000.0 1000.0 1000.0 1000.0 1000.0 1000.0 1000.0 1000.0 1000.0 1000.0 1000.0 1000.0 1000.0 1000.0 1000.0 1000.0 1000.0 1000.0 1000.0 1000.0 1000.0 1000.0 1000.0 1000.0 1000.0 1000.0 1000.0 1000.0 1000.0 1000.0 1000.0 1000.0 1000.0 1000.0 1000.0 1000.0 1000.0 1000.0 1000.0 1000.0 1000.0 1000.0 1000.0 1000.0 1000.0 1000.0 1000.0 1000.0 1000.0 1000.0 1000.0 1000.0 1000.0 1000.0 1000.0 1000.0 1000.0 1000.0 1000.0 1000.0 1000.0 1000.0 1000.0 1000.0 1000.0 1000.0 1000.0 1000.0 1000.0 1000.0 1000.0 1000.0 1000.0 1000.0 1000.0 1000.0 1000.0 1000.0 1000.0 1000.0 1000.0 1000.0 1000.0 1000.0 1000.0 1000.0 1000.0 1000.0 1000.0 1000.0 1000.0 1000.0 1000.0 1000.0 1000.0 1000.0 1000.0 1000.0 1000.0 1000.0 1000.0 1000.0 1000.0 1000.0 1000.0 1000.0 1000.0 1000.0 1000.0 1000.0 1000.0 1000.0 1000.0 1000.0 1000.0 1000.0 1000.0 1000.0 1000.0 1000.0 1000.0 1000.0 1000.0 1000.0 1000.0 1000.0 1000.0 1000.0 1000.0 1000.0 1000.0 1000.0 1000.0 1000.0 1000.0 1000.0 1000.0 1000.0 1000.0 1000.0 1000.0 1000.0 1000.0 1000.0 1000.0 1000.0 1000.0 1000.0 1000.0 1000.0 1000.0 1000.0 1000.0 1000.0 1000.0 1000.0 1000.0 1000.0 1000.0 1000.0 1000.0 1000.0 1000.0 1000.0 1000.0 1000.0 1000.0 1000.0 1000.0 1000.0 1000.0 1000.0 1000.0 1000.0 1000.0 1000.0 1000.0 1000.0 1000.0 1000.0 1000.0 1000.0 1000.0 1000.0 1000.0 1000.0 1000.0 1000.0 1000.0 1000.0 1000.0 1000.0 1000.0 1000.0 1000.0 1000.0 1000.0 1000.0 1000.0 1000.0 1000.0 1000.0 1000.0 1000.0 1000.0 1000.0 1000.0 1000.0 1000.0 1000.0 1000.0 1000.0 1000.0 1000.0 1000.0 1000.0 1000.0 1000.0 1000.0 1000.0 1000.0 1000.0 1000.0 1000.0 1000.0 1000.0 1000.0 1000.0 1000.0 1000.0 1000.0 1000.0 1000.0 1000.0 1000.0 1000.0 1000.0 1000.0 1000.0 1000.0 1000.0 1000.0 1000.0 1000.0 1000.0 1000.0 1000.0 1000.0 1000.0 1000.0 1000.0 1000.0 1000.0 1000.0 1000.0 1000.0 1000.0 1000.0 1000.0 1000.0 1000.0 1000.0 1000.0 1000.0 1000.0 1000.0 1000.0 1000.0 1000.0 1000.0 1000.0 1000.0 1000.0 1000.0 1000.0 1000.0 1000.0 1000.0 1000.0 1000.0 1000.0 1000.0 1000.0 1000.0 1000.0 1000.0 1000.0 1000.0 1000.0 1000.0 1000.0 1000.0 1000.0 1000.0 1000.0 1000.0 1000.0 1000.0 1000.0 1000.0 1000.0 1000.0 1000.0 1000.0 1000.0 1000.0 1000.0 1000.0 1000.0 1000.0 1000.0 1000.0 1000.0 1000.0 1000.0 1000.0 1000.0 1000.0 1000.0 1000.0 1000.0 1000.0 1000.0 1000.0 1000.0 1000.0 1000.0 1000.0 1000.0 1000.0 1000.0 1000.0 1000.0 1000.0 1000.0 1000.0 1000.0 1000.0 1000.0 1000.0 1000.0 1000.0 1000.0 1000.0 1000.0 1000.0 1000.0 1000.0 1000.0 1000.0 1000.0 1000.0 1000.0 1000.0 1000.0 1000.0 1000.0 1000.0 1000.0 1000.0 1000.0 1000.0 1000.0 1000.0 1000.0 1000.0 1000.0 1000.0 1000.0 1000.0 1000.0 1000.0 1000.0 1000.0 1000.0 1000.0 1000.0 1000.0 1000.0 1000.0 1000.0 1000.0 1000.0 1000.0 1000.0 1000.0 1000.0 1000.0 1000.0 1000.0 1000.0 1000.0 1000.0 1000.0 1000.0 1000.0 1000.0 1000.0 1000.0 1000.0 1000.0 1000.0 1000.0 1000.0 1000.0 1000.0 1000.0 1000.0 1000.0 1000.0 1000.0 1000.0 1000.0 1000.0 1000.0 1000.0 1000.0 1000.0 1000.0 1000.0 1000.0 1000.0 1000.0 1000.0 1000.0 1000.0 1000.0 1000.0 1000.0 1000.0 1000.0 1000.0 1000.0 1000.0 1000.0 1000.0 1000.0 1000.0 1000.0 1000.0 1000.0 1000.0 1000.0 1000.0 1000.0 1000.0 1000.0 1000.0 1000.0 1000.0 1000.0 1000.0 1000.0 1000.0 1000.0 1000.0 1000.0 1000.0 1000.0 1000.0 1000.0 1000.0 1000.0 1000.0 1000.0 1000.0 1000.0 1000.0 1000.0 1000.0 1000.0 1000.0 1000.0 1000.0 1000.0 1000.0 1000.0 1000.0 1000.0 1000.0 1000.0 1000.0 1000.0 1000.0 1000.0 1000.0 1000.0 1000.0 1000.0 1000.0 1000.0 1000.0 1000.0 1000.0 1000.0 1000.0 1000.0 1000.0 1000.0 1000.0 1000.0 1000.0 1000.0 1000.0 1000.0 1000.0 1000.0 1000.0 1000.0 1000.0 1000.0 1000.0 1000.0 1000.0 1000.0 1000.0 1000.0 1000.0 1000.0 1000.0 1000.0 1000.0 1000.0 1000.0 1000.0 1000.0 1000.0 1000.0 1000.0 1000.0 1000.0 1000.0 1000.0 1000.0 1000.0 1000.0 1000.0 1000.0 1000.0 1000.0 1000.0 1000.0 1000.0 1000.0 1000.0 1000.0 1000.0 1000.0 1000.0 1000.0 1000.0 1000.0 1000.0 1000.0 1000.0 1000.0 1000.0 1000.0 1000.0 1000.0 1000.0 1000.0 1000.0 1000.0 1000.0 1000.0 1000.0 1000.0 1000.0 1000.0 1000.0 1000.0 1000.0 1000.0 1000.0 1000.0 1000.0 1000.0 1000.0 1000.0 1000.0 1000.0 1000.0 1000.0 1000.0 1000.0 1000.0 1000.0 1000.0 1000.0 1000.0 1000.0 1000.0 1000.0 1000.0 1000.0 1000.0 1000.0 1000.0 1000.0 1000.0 1000.0 1000.0 1000.0 1000.0 1000.0 1000.0 1000.0 1000.0 1000.0 1000.0 1000.0 1000.0 1000.0 1000.0 1000.0 1000.0 1000.0 1000.0 1000.0 1000.0 1000.0 1000.0 1000.0 1000.0 1000.0 1000.0 1000.0 1000.0 1000.0 1000.0 1000.0 1000.0 1000.0 1000.0 1000.0 1000.0 1000.0 1000.0 1000.0 1000.0 1000.0 1000.0 1000.0 1000.0 1000.0 1000.0 1000.0 1000.0 1000.0 1000.0 1000.0 1000.0 1000.0 1000.0 1000.0 1000.0 1000.0 1000.0 1000.0 1000.0 1000.0 1000.0 1000.0 1000.0 1000.0 1000.0 1000.0 1000.0 1000.0 1000.0 1000.0 1000.0 1000.0 1000.0 1000.0 1000.0 1000.0 1000.0 1000.0 1000.0 1000.0 1000.0 1000.0 1000.0 1000.0 1000.0 1000.0 1000.0 1000.0 1000.0 1000.0 1000.0 1000.0 1000.0 1000.0 1000.0 1000.0 1000.0 1000.0 1000.0 1000.0 1000.0 1000.0 1000.0 1000.0 1000.0 1000.0 1000.0 1000.0 1000.0 1000.0 1000.0 1000.0 1000.0 1000.0 1000.0 1000.0 1000.0 1000.0 1000.0 1000.0 1000.0 1000.0 1000.0 1000.0 1000.0 1000.0 1000.0 1000.0 1000.0 1000.0 1000.0 1000.0 1000.0 1000.0 1000.0 1000.0 1000.0 1000.0 1000.0 1000.0 1000.0 1000.0 1000.0 1000.0 1000.0 1000.0 1000.0 1000.0 1000.0 1000.0 1000.0 1000.0 1000.0 1000.0 1000.0 1000.0 1000.0 1000.0 1000.0 1000.0 1000.0 1000.0 1000.0 1000.0 1000.0 1000.0 1000.0 1000.0 1000.0 1000.0 1000.0 1000.0 1000.0 1000.0 1000.0 1000.0 1000.0 1000.0 1000.0 1000.0 1000.0 1000.0 1000.0 1000.0 1000.0 1000.0 1000.0 1000.0 1000.0 1000.0 1000.0 1000.0 1000.0 1000.0 1000.0 1000.0 1000.0 1000.0 1000.0 1000.0 1000.0 1000.0 1000.0 1000.0 1000.0 1000.0 1000.0 1000.0 1000.0 1000.0 1000.0 1000.0 1000.0 1000.0 1000.0 1000.0 1000.0 1000.0 1000.0 1000.0 1000.0 1000.0 1000.0 1000.0 1000.0 1000.0 1000.0 1000.0 1000.0 1000.0 1000.0 1000.0 1000.0 1000.0 1000.0 1000.0 1000.0 1000.0 1000.0 1000.0001 1000.0001 1000.0001 1000.0001 1000.0001 1000.0001 1000.0001 1000.0001 1000.0001 1000.0001 1000.0001 1000.0001 1000.0001 1000.0001 1000.0001 1000.0001 1000.0001 1000.0001 1000.0002 1000.0002 1000.0002 1000.0002 1000.0002 1000.0002 1000.0002 1000.0002 1000.0002 1000.0003 1000.0003 1000.0003 1000.0003 1000.0004 1000.0004 1000.0004 1000.0004 1000.0005 1000.0005 1000.0007 1000.0007 1000.0007 1000.0007 1000.0007 1000.0008 1000.001 1000.001 1000.001 1000.0011 1000.0011 1000.0011 1000.0015 1000.0015 1000.0015 1000.0016 1000.0016 1000.0016 1000.0023 1000.0023 1000.0023 1000.0023 1000.0023 1000.0024 1000.0034 1000.0034 1000.0034 1000.0034 1000.0034 1000.0035 1000.0049 1000.0048 1000.0047 1000.0047 1000.0048 1000.0048 1000.0074 1000.0071 1000.0069 1000.0068 1000.0068 1000.007 1000.0107 1000.0104 1000.0099 1000.0096 1000.0096 1000.0099 1000.0152 1000.0145 1000.0136 1000.0132 1000.0133 1000.0136 1000.0225 1000.0212 1000.0196 1000.019 1000.0193 1000.02 1000.0352 1000.0328 1000.0304 1000.0296 1000.0303 1000.0316 1000.0626 1000.0588 1000.0555 1000.0548 1000.0562 1000.0584 1000.1301 1000.1249 1000.1214 1000.1211 1000.1236 1000.1274 1000.3 1000.2948 1000.293 1000.2938 1000.2981 1000.3043 1000.6929 1000.6905 1000.6942 1000.6985 1000.7057 1000.7148 1001.4172 1001.4223 1001.4379 1001.4489 1001.4601 1001.473 1002.3277 1002.3427 1002.3741 1002.394 1002.41 1002.4268 1003.049 1003.0709 1003.1149 1003.1419 1003.1622 1003.1825 1003.4383 1003.4616 1003.5115 1003.5425 1003.5656 1003.5891 1003.6058 1003.6279 1003.6792 1003.7115 1003.7365 1003.7621 1003.6722 1003.6921 1003.743 1003.7756 1003.8016 1003.8289 1003.6995 1003.7177 1003.7677 1003.8002 1003.8268 1003.855 1003.7127 1003.7297 1003.7791 1003.8114 1003.8383 1003.8669 1003.7176 1003.7342 1003.7832 1003.8153 1003.8422 1003.871 1003.7187 1003.7357 1003.7847 1003.817 1003.8436 1003.8721 1003.6608 1003.6778 1003.7261 1003.7578 1003.784 1003.8118 1003.5438 1003.5604 1003.6072 1003.6378 1003.6631 1003.6901 1003.3752 1003.3908 1003.4352 1003.4645 1003.4887 1003.5145 1003.1642 1003.1786 1003.2202 1003.2475 1003.2704 1003.295 1002.9222 1002.9351 1002.9732 1002.9986 1003.02 1003.043 1002.6601 1002.6715 1002.706 1002.7291 1002.749 1002.7703 1002.3892 1002.3991 1002.4299 1002.4509 1002.4691 1002.4887 1002.1202 1002.1285 1002.1556 1002.1744 1002.1909 1002.2089 1001.862 1001.8682 1001.8918 1001.9085 1001.9235 1001.9398 1001.6221 1001.6262 1001.6461 1001.6611 1001.6745 1001.6891 1001.4057 1001.407 1001.4237 1001.437 1001.449 1001.4618 1001.2153 1001.2143 1001.2276 1001.2397 1001.2502 1001.2614 1001.0515 1001.0487 1001.0588 1001.0702 1001.0796 1001.0889 1000.9105 1000.9175 1000.9279 1000.9364 1000.9442 1000.7985 1000.8017 1000.8105 1000.8187 1000.8251 1000.7095 1000.7158 1000.7234 1000.7293 1000.6372 1000.6409 1000.6475 1000.6534 1000.5828 1000.588 1000.5938 1000.5423 1000.5475 1000.508 1000.5123 1000.0 1000.0 1000.0 1000.0 1000.0 1000.0 1000.0 1000.0 1000.0 1000.0 1000.0 1000.0 1000.0 1000.0 1000.0 1000.0 1000.0 1000.0 1000.0 1000.0 1000.0 1000.0 1000.0 1000.0 1000.0 1000.0 1000.0 1000.0 1000.0 1000.0 1000.0 1000.0 1000.0 1000.0 1000.0 1000.0 1000.0 1000.0 1000.0 1000.0 1000.0 1000.0 1000.0 1000.0 1000.0 1000.0 1000.0 1000.0 1000.0 1000.0 1000.0 1000.0 1000.0 1000.0 1000.0 1000.0 1000.0 1000.0 1000.0 1000.0 1000.0 1000.0 1000.0 1000.0 1000.0 1000.0 1000.0 1000.0 1000.0 1000.0 1000.0 1000.0 1000.0 1000.0 1000.0 1000.0 1000.0 1000.0 1000.0 1000.0 1000.0 1000.0 1000.0 1000.0 1000.0 1000.0 1000.0 1000.0 1000.0 1000.0 1000.0001 1000.0001 1000.0001 1000.0001 1000.0001 1000.0001 1000.0001 1000.0001 1000.0001 1000.0001 1000.0001 1000.0001 1000.0001 1000.0001 1000.0001 1000.0001 1000.0001 1000.0001 1000.0001 1000.0001 1000.0001 1000.0001 1000.0001 1000.0001 1000.0001 1000.0001 1000.0001 1000.0002 1000.0002 1000.0002 1000.0002 1000.0002 1000.0002 1000.0002 1000.0002 1000.0002 1000.0002 1000.0002 1000.0002 1000.0002 1000.0002 1000.0002 1000.0002 1000.0002 1000.0002 1000.0003 1000.0003 1000.0003 1000.0003 1000.0004 1000.0004 1000.0004 1000.0004 1000.0004 1000.0005 1000.0005 1000.0005 1000.0005 1000.0005 1000.0005 1000.0005 1000.0005 1000.0005 1000.0008 1000.0009 1000.0009 1000.0009 1000.0009 1000.0009 1000.0009 1000.0009 1000.0009 1000.0012 1000.0012 1000.0012 1000.0012 1000.0012 1000.0013 1000.0013 1000.0013 1000.0013 1000.0017 1000.0017 1000.0018 1000.0018 1000.0018 1000.0018 1000.0018 1000.0018 1000.0018 1000.0025 1000.0026 1000.0026 1000.0026 1000.0026 1000.0026 1000.0027 1000.0027 1000.0027 1000.0036 1000.0036 1000.0037 1000.0037 1000.0037 1000.0038 1000.0038 1000.0038 1000.0038 1000.0049 1000.0051 1000.0051 1000.0052 1000.0052 1000.0053 1000.0053 1000.0053 1000.0053 1000.0072 1000.0073 1000.0073 1000.0074 1000.0075 1000.0076 1000.0076 1000.0076 1000.0076 1000.0101 1000.0103 1000.0104 1000.0106 1000.0107 1000.0107 1000.0107 1000.0107 1000.0107 1000.014 1000.0143 1000.0145 1000.0147 1000.0148 1000.0149 1000.015 1000.015 1000.0151 1000.0207 1000.0212 1000.0216 1000.0219 1000.022 1000.022 1000.0222 1000.0222 1000.0223 1000.0328 1000.0338 1000.0344 1000.0347 1000.035 1000.0351 1000.0352 1000.0353 1000.0353 1000.0607 1000.0624 1000.0635 1000.064 1000.0643 1000.0645 1000.0647 1000.0648 1000.0648 1000.1312 1000.1342 1000.136 1000.137 1000.1374 1000.1376 1000.1378 1000.1379 1000.138 1000.3103 1000.3149 1000.3179 1000.3193 1000.3201 1000.3204 1000.3206 1000.3208 1000.3209 1000.7237 1000.7306 1000.735 1000.7374 1000.7385 1000.7391 1000.7394 1000.7396 1000.7396 1001.4852 1001.4951 1001.5013 1001.5046 1001.5062 1001.507 1001.5073 1001.5075 1001.5077 1002.4427 1002.4555 1002.4638 1002.4682 1002.4702 1002.4712 1002.4717 1002.4719 1002.4721 1003.2019 1003.2176 1003.2278 1003.2332 1003.2359 1003.2371 1003.2376 1003.238 1003.2381 1003.6115 1003.6295 1003.6414 1003.6478 1003.6509 1003.6522 1003.653 1003.6533 1003.6535 1003.7868 1003.8068 1003.8199 1003.827 1003.8304 1003.8319 1003.8327 1003.8331 1003.8334 1003.855 1003.8763 1003.8904 1003.8979 1003.9016 1003.9031 1003.904 1003.9044 1003.9047 1003.8823 1003.9043 1003.9188 1003.9266 1003.9304 1003.9321 1003.9329 1003.9333 1003.9336 1003.8947 1003.9171 1003.9318 1003.9398 1003.9435 1003.9453 1003.946 1003.9465 1003.9468 1003.8987 1003.9212 1003.9359 1003.9439 1003.9476 1003.9493 1003.9502 1003.9506 1003.9509 1003.8996 1003.9218 1003.9364 1003.9443 1003.948 1003.9498 1003.9506 1003.951 1003.9513 1003.8388 1003.8607 1003.8749 1003.8825 1003.8862 1003.8878 1003.8887 1003.8892 1003.8894 1003.7161 1003.7372 1003.751 1003.7586 1003.7621 1003.7637 1003.7645 1003.765 1003.7652 1003.5396 1003.5598 1003.5729 1003.5801 1003.5835 1003.585 1003.5858 1003.5862 1003.5864 1003.3185 1003.3377 1003.3503 1003.3569 1003.3602 1003.3616 1003.3624 1003.3628 1003.363 1003.0651 1003.0831 1003.0947 1003.101 1003.104 1003.1053 1003.106 1003.1063 1003.1066 1002.7908 1002.8074 1002.8182 1002.824 1002.8267 1002.828 1002.8286 1002.829 1002.8292 1002.5076 1002.5228 1002.5326 1002.5378 1002.5405 1002.5416 1002.5421 1002.5425 1002.5427 1002.226 1002.2399 1002.2488 1002.2537 1002.2559 1002.257 1002.2576 1002.2578 1002.258 1001.9553 1001.9679 1001.9761 1001.9805 1001.9826 1001.9836 1001.9841 1001.9843 1001.9845 1001.7031 1001.7145 1001.722 1001.7261 1001.7281 1001.7289 1001.7295 1001.7297 1001.7299 1001.4742 1001.4846 1001.4915 1001.4954 1001.4974 1001.4984 1001.4989 1001.4991 1001.4992 1001.2722 1001.2815 1001.288 1001.2919 1001.294 1001.295 1001.2955 1001.2958 1001.296 1001.0981 1001.1063 1001.1124 1001.1164 1001.1187 1001.1198 1001.1204 1001.1208 1001.1209 1000.9517 1000.9587 1000.9644 1000.9685 1000.9709 1000.9725 1000.9733 1000.9738 1000.9739 1000.8311 1000.8369 1000.842 1000.846 1000.8489 1000.8506 1000.8517 1000.8523 1000.8526 1000.7343 1000.7388 1000.7432 1000.7469 1000.7499 1000.752 1000.7534 1000.7542 1000.7546 1000.6577 1000.6614 1000.665 1000.6682 1000.6711 1000.6732 1000.6749 1000.6759 1000.6765 1000.5983 1000.6017 1000.6046 1000.6072 1000.6096 1000.6116 1000.6132 1000.6143 1000.6149 1000.5524 1000.5562 1000.559 1000.5612 1000.563 1000.5646 1000.5659 1000.5668 1000.5674 1000.5166 1000.5208 1000.524 1000.5264 1000.5281 1000.5292 1000.5302 1000.5309 1000.5314 1000.4904 1000.4935 1000.4966 1000.4994 1000.5013 1000.5027 1000.5037 1000.5043 1000.5046 1000.4754 1000.4769 1000.4787 1000.4805 1000.4821 1000.4832 1000.4839 1000.4842 1000.4662 1000.4664 1000.4669 1000.4673 1000.4675 1000.4677 1000.4605 1000.4601 1000.4595 1000.4592 1000.0 1000.0 1000.0 1000.0 1000.0 1000.0 1000.0 1000.0 1000.0 1000.0 1000.0 1000.0 1000.0 1000.0 1000.0 1000.0 1000.0 1000.0 1000.0 1000.0 1000.0 1000.0 1000.0 1000.0 1000.0 1000.0 1000.0 1000.0 1000.0 1000.0 1000.0 1000.0 1000.0 1000.0 1000.0 1000.0 1000.0 1000.0 1000.0 1000.0 1000.0 1000.0 1000.0 1000.0 1000.0 1000.0 1000.0 1000.0 1000.0 1000.0 1000.0 1000.0 1000.0 1000.0 1000.0 1000.0 1000.0 1000.0 1000.0 1000.0 1000.0 1000.0 1000.0 1000.0 1000.0 1000.0 1000.0 1000.0 1000.0 1000.0 1000.0 1000.0 1000.0 1000.0 1000.0 1000.0 1000.0 1000.0 1000.0 1000.0 1000.0001 1000.0001 1000.0001 1000.0001 1000.0001 1000.0001 1000.0001 1000.0001 1000.0001 1000.0001 1000.0001 1000.0001 1000.0001 1000.0001 1000.0001 1000.0001 1000.0001 1000.0001 1000.0001 1000.0001 1000.0001 1000.0001 1000.0001 1000.0001 1000.0002 1000.0002 1000.0002 1000.0002 1000.0002 1000.0002 1000.0002 1000.0002 1000.0002 1000.0002 1000.0002 1000.0002 1000.0002 1000.0002 1000.0002 1000.0002 1000.0004 1000.0004 1000.0004 1000.0004 1000.0004 1000.0004 1000.0003 1000.0003 1000.0005 1000.0005 1000.0005 1000.0005 1000.0005 1000.0005 1000.0005 1000.0005 1000.0009 1000.0009 1000.0009 1000.0009 1000.0009 1000.0009 1000.0009 1000.0009 1000.0013 1000.0013 1000.0013 1000.0013 1000.0013 1000.0012 1000.0012 1000.0012 1000.0018 1000.0018 1000.0018 1000.0018 1000.0018 1000.0018 1000.0018 1000.0018 1000.0027 1000.0027 1000.0027 1000.0027 1000.0026 1000.0026 1000.0026 1000.0026 1000.0038 1000.0038 1000.0038 1000.0038 1000.0038 1000.0037 1000.0037 1000.0037 1000.0053 1000.0053 1000.0053 1000.0053 1000.0053 1000.0052 1000.0052 1000.0051 1000.0076 1000.0076 1000.0076 1000.0076 1000.0076 1000.0075 1000.0074 1000.0073 1000.0107 1000.0107 1000.0107 1000.0107 1000.0107 1000.0107 1000.0106 1000.0104 1000.0151 1000.0151 1000.015 1000.015 1000.0149 1000.0148 1000.0147 1000.0145 1000.0223 1000.0223 1000.0222 1000.0222 1000.022 1000.022 1000.0219 1000.0216 1000.0353 1000.0353 1000.0353 1000.0352 1000.0351 1000.035 1000.0347 1000.0344 1000.0648 1000.0648 1000.0648 1000.0647 1000.0645 1000.0643 1000.064 1000.0635 1000.138 1000.138 1000.1379 1000.1378 1000.1376 1000.1374 1000.137 1000.136 1000.3209 1000.3209 1000.3208 1000.3206 1000.3204 1000.3201 1000.3193 1000.3179 1000.7396 1000.7396 1000.7396 1000.7394 1000.7391 1000.7385 1000.7374 1000.735 1001.5077 1001.5077 1001.5075 1001.5073 1001.507 1001.5062 1001.5046 1001.5013 1002.4722 1002.4721 1002.4719 1002.4717 1002.4712 1002.4702 1002.4682 1002.4638 1003.2382 1003.2381 1003.238 1003.2376 1003.2371 1003.2359 1003.2332 1003.2278 1003.6535 1003.6535 1003.6533 1003.653 1003.6522 1003.6509 1003.6478 1003.6414 1003.8334 1003.8334 1003.8331 1003.8327 1003.8319 1003.8304 1003.827 1003.8199 1003.9047 1003.9047 1003.9044 1003.904 1003.9031 1003.9016 1003.8979 1003.8904 1003.9337 1003.9336 1003.9333 1003.9329 1003.9321 1003.9304 1003.9266 1003.9188 1003.9469 1003.9468 1003.9465 1003.946 1003.9453 1003.9435 1003.9398 1003.9318 1003.9511 1003.9509 1003.9506 1003.9502 1003.9493 1003.9476 1003.9439 1003.9359 1003.9514 1003.9513 1003.951 1003.9506 1003.9498 1003.948 1003.9443 1003.9364 1003.8895 1003.8894 1003.8892 1003.8887 1003.8878 1003.8862 1003.8825 1003.8749 1003.7653 1003.7652 1003.765 1003.7645 1003.7637 1003.7621 1003.7586 1003.751 1003.5865 1003.5864 1003.5862 1003.5858 1003.585 1003.5835 1003.5801 1003.5729 1003.3631 1003.363 1003.3628 1003.3624 1003.3616 1003.3602 1003.3569 1003.3503 1003.1066 1003.1066 1003.1063 1003.106 1003.1053 1003.104 1003.101 1003.0947 1002.8292 1002.8292 1002.829 1002.8286 1002.828 1002.8267 1002.824 1002.8182 1002.5427 1002.5427 1002.5425 1002.5421 1002.5416 1002.5405 1002.5378 1002.5326 1002.2581 1002.258 1002.2578 1002.2576 1002.257 1002.2559 1002.2537 1002.2488 1001.9846 1001.9845 1001.9843 1001.9841 1001.9836 1001.9826 1001.9805 1001.9761 1001.73 1001.7299 1001.7297 1001.7295 1001.7289 1001.7281 1001.7261 1001.722 1001.4993 1001.4992 1001.4991 1001.4989 1001.4984 1001.4974 1001.4954 1001.4915 1001.296 1001.296 1001.2958 1001.2955 1001.295 1001.294 1001.2919 1001.288 1001.121 1001.1209 1001.1208 1001.1204 1001.1198 1001.1187 1001.1164 1001.1124 1000.9739 1000.9739 1000.9738 1000.9733 1000.9725 1000.9709 1000.9685 1000.9644 1000.8527 1000.8526 1000.8523 1000.8517 1000.8506 1000.8489 1000.846 1000.842 1000.7548 1000.7546 1000.7542 1000.7534 1000.752 1000.7499 1000.7469 1000.7432 1000.6766 1000.6765 1000.6759 1000.6749 1000.6732 1000.6711 1000.6682 1000.665 1000.6152 1000.6149 1000.6143 1000.6132 1000.6116 1000.6096 1000.6072 1000.6046 1000.5676 1000.5674 1000.5668 1000.5659 1000.5646 1000.563 1000.5612 1000.559 1000.5316 1000.5314 1000.5309 1000.5302 1000.5292 1000.5281 1000.5264 1000.524 1000.5048 1000.5046 1000.5043 1000.5037 1000.5027 1000.5013 1000.4994 1000.4966 1000.4843 1000.4842 1000.4839 1000.4832 1000.4821 1000.4805 1000.4787 1000.4769 1000.4677 1000.4677 1000.4675 1000.4673 1000.4669 1000.4664 1000.4662 1000.459 1000.4592 1000.4595 1000.4601 1000.4605 1000.0 1000.0 1000.0 1000.0 1000.0 1000.0 1000.0 1000.0 1000.0 1000.0 1000.0 1000.0 1000.0 1000.0 1000.0 1000.0 1000.0 1000.0 1000.0 1000.0 1000.0 1000.0 1000.0 1000.0 1000.0 1000.0 1000.0 1000.0 1000.0 1000.0 1000.0 1000.0 1000.0 1000.0 1000.0 1000.0 1000.0 1000.0 1000.0 1000.0 1000.0 1000.0 1000.0 1000.0 1000.0 1000.0 1000.0 1000.0 1000.0 1000.0 1000.0 1000.0 1000.0 1000.0 1000.0 1000.0 1000.0 1000.0 1000.0 1000.0 1000.0 1000.0 1000.0 1000.0 1000.0 1000.0 1000.0 1000.0 1000.0 1000.0 1000.0 1000.0 1000.0 1000.0 1000.0 1000.0 1000.0 1000.0 1000.0 1000.0001 1000.0001 1000.0001 1000.0 1000.0 1000.0 1000.0 1000.0 1000.0001 1000.0001 1000.0001 1000.0001 1000.0001 1000.0001 1000.0001 1000.0001 1000.0001 1000.0001 1000.0001 1000.0001 1000.0001 1000.0001 1000.0001 1000.0001 1000.0002 1000.0002 1000.0002 1000.0001 1000.0001 1000.0001 1000.0001 1000.0001 1000.0002 1000.0002 1000.0002 1000.0002 1000.0002 1000.0002 1000.0002 1000.0002 1000.0003 1000.0003 1000.0003 1000.0003 1000.0003 1000.0003 1000.0002 1000.0002 1000.0005 1000.0005 1000.0005 1000.0005 1000.0004 1000.0004 1000.0004 1000.0004 1000.0009 1000.0008 1000.0008 1000.0007 1000.0007 1000.0007 1000.0007 1000.0007 1000.0012 1000.0012 1000.0011 1000.0011 1000.0011 1000.001 1000.001 1000.001 1000.0017 1000.0017 1000.0016 1000.0016 1000.0016 1000.0015 1000.0015 1000.0015 1000.0026 1000.0025 1000.0024 1000.0023 1000.0023 1000.0023 1000.0023 1000.0023 1000.0036 1000.0036 1000.0035 1000.0034 1000.0034 1000.0034 1000.0034 1000.0034 1000.0051 1000.0049 1000.0048 1000.0048 1000.0047 1000.0047 1000.0048 1000.0049 1000.0073 1000.0072 1000.007 1000.0068 1000.0068 1000.0069 1000.0071 1000.0074 1000.0103 1000.0101 1000.0099 1000.0096 1000.0096 1000.0099 1000.0104 1000.0107 1000.0143 1000.014 1000.0136 1000.0133 1000.0132 1000.0136 1000.0145 1000.0152 1000.0212 1000.0207 1000.02 1000.0193 1000.019 1000.0196 1000.0212 1000.0225 1000.0338 1000.0328 1000.0316 1000.0303 1000.0296 1000.0304 1000.0328 1000.0352 1000.0624 1000.0607 1000.0584 1000.0562 1000.0548 1000.0555 1000.0588 1000.0626 1000.1342 1000.1312 1000.1274 1000.1236 1000.1211 1000.1214 1000.1249 1000.1301 1000.3149 1000.3103 1000.3043 1000.2981 1000.2938 1000.293 1000.2948 1000.3 1000.7306 1000.7237 1000.7148 1000.7057 1000.6985 1000.6942 1000.6905 1000.6929 1001.4951 1001.4852 1001.473 1001.4601 1001.4489 1001.4379 1001.4223 1001.4172 1002.4555 1002.4427 1002.4268 1002.41 1002.394 1002.3741 1002.3427 1002.3277 1003.2176 1003.2019 1003.1825 1003.1622 1003.1419 1003.1149 1003.0709 1003.049 1003.6295 1003.6115 1003.5891 1003.5656 1003.5425 1003.5115 1003.4616 1003.4383 1003.8068 1003.7868 1003.7621 1003.7365 1003.7115 1003.6792 1003.6279 1003.6058 1003.8763 1003.855 1003.8289 1003.8016 1003.7756 1003.743 1003.6921 1003.6722 1003.9043 1003.8823 1003.855 1003.8268 1003.8002 1003.7677 1003.7177 1003.6995 1003.9171 1003.8947 1003.8669 1003.8383 1003.8114 1003.7791 1003.7297 1003.7127 1003.9212 1003.8987 1003.871 1003.8422 1003.8153 1003.7832 1003.7342 1003.7176 1003.9218 1003.8996 1003.8721 1003.8436 1003.817 1003.7847 1003.7357 1003.7187 1003.8607 1003.8388 1003.8118 1003.784 1003.7578 1003.7261 1003.6778 1003.6608 1003.7372 1003.7161 1003.6901 1003.6631 1003.6378 1003.6072 1003.5604 1003.5438 1003.5598 1003.5396 1003.5145 1003.4887 1003.4645 1003.4352 1003.3908 1003.3752 1003.3377 1003.3185 1003.295 1003.2704 1003.2475 1003.2202 1003.1786 1003.1642 1003.0831 1003.0651 1003.043 1003.02 1002.9986 1002.9732 1002.9351 1002.9222 1002.8074 1002.7908 1002.7703 1002.749 1002.7291 1002.706 1002.6715 1002.6601 1002.5228 1002.5076 1002.4887 1002.4691 1002.4509 1002.4299 1002.3991 1002.3892 1002.2399 1002.226 1002.2089 1002.1909 1002.1744 1002.1556 1002.1285 1002.1202 1001.9679 1001.9553 1001.9398 1001.9235 1001.9085 1001.8918 1001.8682 1001.862 1001.7145 1001.7031 1001.6891 1001.6745 1001.6611 1001.6461 1001.6262 1001.6221 1001.4846 1001.4742 1001.4618 1001.449 1001.437 1001.4237 1001.407 1001.4057 1001.2815 1001.2722 1001.2614 1001.2502 1001.2397 1001.2276 1001.2143 1001.2153 1001.1063 1001.0981 1001.0889 1001.0796 1001.0702 1001.0588 1001.0487 1001.0515 1000.9587 1000.9517 1000.9442 1000.9364 1000.9279 1000.9175 1000.9105 1000.8369 1000.8311 1000.8251 1000.8187 1000.8105 1000.8017 1000.7985 1000.7388 1000.7343 1000.7293 1000.7234 1000.7158 1000.7095 1000.6614 1000.6577 1000.6534 1000.6475 1000.6409 1000.6372 1000.6017 1000.5983 1000.5938 1000.588 1000.5828 1000.5562 1000.5524 1000.5475 1000.5423 1000.5208 1000.5166 1000.5123 1000.508 1000.4935 1000.4904 1000.4754 
Mass 1 2975 float
0.40000001 0.40000001 0.40000001 0.40000001 0.40000001 0.40000001 0.40000001 0.40000001 0.40000001 0.40000001 0.40000001 0.40000001 0.40000001 0.40000001 0.40000001 0.40000001 0.40000001 0.40000001 0.40000001 0.40000001 0.40000001 0.40000001 0.40000001 0.40000001 0.40000001 0.40000001 0.40000001 0.40000001 0.40000001 0.40000001 0.40000001 0.40000001 0.40000001 0.40000001 0.40000001 0.40000001 0.40000001 0.40000001 0.40000001 0.40000001 0.40000001 0.40000001 0.40000001 0.40000001 0.40000001 0.40000001 0.40000001 0.40000001 0.40000001 0.40000001 0.40000001 0.40000001 0.40000001 0.40000001 0.40000001 0.40000001 0.40000001 0.40000001 0.40000001 0.40000001 0.40000001 0.40000001 0.40000001 0.40000001 0.40000001 0.40000001 0.40000001 0.40000001 0.40000001 0.40000001 0.40000001 0.40000001 0.40000001 0.40000001 0.40000001 0.40000001 0.40000001 0.40000001 0.40000001 0.40000001 0.40000001 0.40000001 0.40000001 0.40000001 0.40000001 0.40000001 0.40000001 0.40000001 0.40000001 0.40000001 0.40000001 0.40000001 0.40000001 0.40000001 0.40000001 0.40000001 0.40000001 0.40000001 0.40000001 0.40000001 0.40000001 0.40000001 0.40000001 0.40000001 0.40000001 0.40000001 0.40000001 0.40000001 0.40000001 0.40000001 0.40000001 0.40000001 0.40000001 0.40000001 0.40000001 0.40000001 0.40000001 0.40000001 0.40000001 0.40000001 0.40000001 0.40000001 0.40000001 0.40000001 0.40000001 0.40000001 0.40000001 0.40000001 0.40000001 0.40000001 0.40000001 0.40000001 0.40000001 0.40000001 0.40000001 0.40000001 0.40000001 0.40000001 0.40000001 0.40000001 0.40000001 0.40000001 0.40000001 0.40000001 0.40000001 0.40000001 0.40000001 0.40000001 0.40000001 0.40000001 0.40000001 0.40000001 0.40000001 0.40000001 0.40000001 0.40000001 0.40000001 0.40000001 0.40000001 0.40000001 0.40000001 0.40000001 0.40000001 0.40000001 0.40000001 0.40000001 0.40000001 0.40000001 0.40000001 0.40000001 0.40000001 0.40000001 0.40000001 0.40000001 0.40000001 0.40000001 0.40000001 0.40000001 0.40000001 0.40000001 0.40000001 0.40000001 0.40000001 0.40000001 0.40000001 0.40000001 0.40000001 0.40000001 0.40000001 0.40000001 0.40000001 0.40000001 0.40000001 0.40000001 0.40000001 0.40000001 0.40000001 0.40000001 0.40000001 0.40000001 0.40000001 0.40000001 0.40000001 0.40000001 0.40000001 0.40000001 0.40000001 0.40000001 0.40000001 0.40000001 0.40000001 0.40000001 0.40000001 0.40000001 0.40000001 0.40000001 0.40000001 0.40000001 0.40000001 0.40000001 0.40000001 0.40000001 0.40000001 0.40000001 0.40000001 0.40000001 0.40000001 0.40000001 0.40000001 0.40000001 0.40000001 0.40000001 0.40000001 0.40000001 0.40000001 0.40000001 0.40000001 0.40000001 0.40000001 0.40000001 0.40000001 0.40000001 0.40000001 0.40000001 0.40000001 0.40000001 0.40000001 0.40000001 0.40000001 0.40000001 0.40000001 0.40000001 0.40000001 0.40000001 0.40000001 0.40000001 0.40000001 0.40000001 0.40000001 0.40000001 0.40000001 0.40000001 0.40000001 0.40000001 0.40000001 0.40000001 0.40000001 0.40000001 0.40000001 0.40000001 0.40000001 0.40000001 0.40000001 0.40000001 0.40000001 0.40000001 0.40000001 0.40000001 0.40000001 0.40000001 0.40000001 0.40000001 0.40000001 0.40000001 0.40000001 0.40000001 0.40000001 0.40000001 0.40000001 0.40000001 0.40000001 0.40000001 0.40000001 0.40000001 0.40000001 0.40000001 0.40000001 0.40000001 0.40000001 0.40000001 0.40000001 0.40000001 0.40000001 0.40000001 0.40000001 0.40000001 0.40000001 0.40000001 0.40000001 0.40000001 0.40000001 0.40000001 0.40000001 0.40000001 0.40000001 0.40000001 0.40000001 0.40000001 0.40000001 0.40000001 0.40000001 0.40000001 0.40000001 0.40000001 0.40000001 0.40000001 0.40000001 0.40000001 0.40000001 0.40000001 0.40000001 0.40000001 0.40000001 0.40000001 0.40000001 0.40000001 0.40000001 0.40000001 0.40000001 0.40000001 0.40000001 0.40000001 0.40000001 0.40000001 0.40000001 0.40000001 0.40000001 0.40000001 0.40000001 0.40000001 0.40000001 0.40000001 0.40000001 0.40000001 0.40000001 0.40000001 0.40000001 0.40000001 0.40000001 0.40000001 0.40000001 0.40000001 0.40000001 0.40000001 0.40000001 0.40000001 0.40000001 0.40000001 0.40000001 0.40000001 0.40000001 0.40000001 0.40000001 0.40000001 0.40000001 0.40000001 0.40000001 0.40000001 0.40000001 0.40000001 0.40000001 0.40000001 0.40000001 0.40000001 0.40000001 0.40000001 0.40000001 0.40000001 0.40000001 0.40000001 0.40000001 0.40000001 0.40000001 0.40000001 0.40000001 0.40000001 0.40000001 0.40000001 0.40000001 0.40000001 0.40000001 0.40000001 0.40000001 0.40000001 0.40000001 0.40000001 0.40000001 0.40000001 0.40000001 0.40000001 0.40000001 0.40000001 0.40000001 0.40000001 0.40000001 0.40000001 0.40000001 0.40000001 0.40000001 0.40000001 0.40000001 0.40000001 0.40000001 0.40000001 0.40000001 0.40000001 0.40000001 0.40000001 0.40000001 0.40000001 0.40000001 0.40000001 0.40000001 0.40000001 0.40000001 0.40000001 0.40000001 0.40000001 0.40000001 0.40000001 0.40000001 0.40000001 0.40000001 0.40000001 0.40000001 0.40000001 0.40000001 0.40000001 0.40000001 0.40000001 0.40000001 0.40000001 0.40000001 0.40000001 0.40000001 0.40000001 0.40000001 0.40000001 0.40000001 0.40000001 0.40000001 0.40000001 0.40000001 0.40000001 0.40000001 0.40000001 0.40000001 0.40000001 0.40000001 0.40000001 0.40000001 0.40000001 0.40000001 0.40000001 0.40000001 0.40000001 0.40000001 0.40000001 0.40000001 0.40000001 0.40000001 0.40000001 0.40000001 0.40000001 0.40000001 0.40000001 0.40000001 0.40000001 0.40000001 0.40000001 0.40000001 0.40000001 0.40000001 0.40000001 0.40000001 0.40000001 0.40000001 0.40000001 0.40000001 0.40000001 0.40000001 0.40000001 0.40000001 0.40000001 0.40000001 0.40000001 0.40000001 0.40000001 0.40000001 0.40000001 0.40000001 0.40000001 0.40000001 0.40000001 0.40000001 0.40000001 0.40000001 0.40000001 0.40000001 0.40000001 0.40000001 0.40000001 0.40000001 0.40000001 0.40000001 0.40000001 0.40000001 0.40000001 0.40000001 0.40000001 0.40000001 0.40000001 0.40000001 0.40000001 0.40000001 0.40000001 0.40000001 0.40000001 0.40000001 0.40000001 0.40000001 0.40000001 0.40000001 0.40000001 0.40000001 0.40000001 0.40000001 0.40000001 0.40000001 0.40000001 0.40000001 0.40000001 0.40000001 0.40000001 0.40000001 0.40000001 0.40000001 0.40000001 0.40000001 0.40000001 0.40000001 0.40000001 0.40000001 0.40000001 0.40000001 0.40000001 0.40000001 0.40000001 0.40000001 0.40000001 0.40000001 0.40000001 0.40000001 0.40000001 0.40000001 0.40000001 0.40000001 0.40000001 0.40000001 0.40000001 0.40000001 0.40000001 0.40000001 0.40000001 0.40000001 0.40000001 0.40000001 0.40000001 0.40000001 0.40000001 0.40000001 0.40000001 0.40000001 0.40000001 0.40000001 0.40000001 0.40000001 0.40000001 0.40000001 0.40000001 0.40000001 0.40000001 0.40000001 0.40000001 0.40000001 0.40000001 0.40000001 0.40000001 0.40000001 0.40000001 0.40000001 0.40000001 0.40000001 0.40000001 0.40000001 0.40000001 0.40000001 0.40000001 0.40000001 0.40000001 0.40000001 0.40000001 0.40000001 0.40000001 0.40000001 0.40000001 0.40000001 0.40000001 0.40000001 0.40000001 0.40000001 0.40000001 0.40000001 0.40000001 0.40000001 0.40000001 0.40000001 0.40000001 0.40000001 0.40000001 0.40000001 0.40000001 0.40000001 0.40000001 0.40000001 0.40000001 0.40000001 0.40000001 0.40000001 0.40000001 0.40000001 0.40000001 0.40000001 0.40000001 0.40000001 0.40000001 0.40000001 0.40000001 0.40000001 0.40000001 0.40000001 0.40000001 0.40000001 0.40000001 0.40000001 0.40000001 0.40000001 0.40000001 0.40000001 0.40000001 0.40000001 0.40000001 0.40000001 0.40000001 0.40000001 0.40000001 0.40000001 0.40000001 0.40000001 0.40000001 0.40000001 0.40000001 0.40000001 0.40000001 0.40000001 0.40000001 0.40000001 0.40000001 0.40000001 0.40000001 0.40000001 0.40000001 0.40000001 0.40000001 0.40000001 0.40000001 0.40000001 0.40000001 0.40000001 0.40000001 0.40000001 0.40000001 0.40000001 0.40000001 0.40000001 0.40000001 0.40000001 0.40000001 0.40000001 0.40000001 0.40000001 0.40000001 0.40000001 0.40000001 0.40000001 0.40000001 0.40000001 0.40000001 0.40000001 0.40000001 0.40000001 0.40000001 0.40000001 0.40000001 0.40000001 0.40000001 0.40000001 0.40000001 0.40000001 0.40000001 0.40000001 0.40000001 0.40000001 0.40000001 0.40000001 0.40000001 0.40000001 0.40000001 0.40000001 0.40000001 0.40000001 0.40000001 0.40000001 0.40000001 0.40000001 0.40000001 0.40000001 0.40000001 0.40000001 0.40000001 0.40000001 0.40000001 0.40000001 0.40000001 0.40000001 0.40000001 0.40000001 0.40000001 0.40000001 0.40000001 0.40000001 0.40000001 0.40000001 0.40000001 0.40000001 0.40000001 0.40000001 0.40000001 0.40000001 0.40000001 0.40000001 0.40000001 0.40000001 0.40000001 0.40000001 0.40000001 0.40000001 0.40000001 0.40000001 0.40000001 0.40000001 0.40000001 0.40000001 0.40000001 0.40000001 0.40000001 0.40000001 0.40000001 0.40000001 0.40000001 0.40000001 0.40000001 0.40000001 0.40000001 0.40000001 0.40000001 0.40000001 0.40000001 0.40000001 0.40000001 0.40000001 0.40000001 0.40000001 0.40000001 0.40000001 0.40000001 0.40000001 0.40000001 0.40000001 0.40000001 0.40000001 0.40000001 0.40000001 0.40000001 0.40000001 0.40000001 0.40000001 0.40000001 0.40000001 0.40000001 0.40000001 0.40000001 0.40000001 0.40000001 0.40000001 0.40000001 0.40000001 0.40000001 0.40000001 0.40000001 0.40000001 0.40000001 0.40000001 0.40000001 0.40000001 0.40000001 0.40000001 0.40000001 0.40000001 0.40000001 0.40000001 0.40000001 0.40000001 0.40000001 0.40000001 0.40000001 0.40000001 0.40000001 0.40000001 0.40000001 0.40000001 0.40000001 0.40000001 0.40000001 0.40000001 0.40000001 0.40000001 0.40000001 0.40000001 0.40000001 0.40000001 0.40000001 0.40000001 0.40000001 0.40000001 0.40000001 0.40000001 0.40000001 0.40000001 0.40000001 0.40000001 0.40000001 0.40000001 0.40000001 0.40000001 0.40000001 0.40000001 0.40000001 0.40000001 0.40000001 0.40000001 0.40000001 0.40000001 0.40000001 0.40000001 0.40000001 0.40000001 0.40000001 0.40000001 0.40000001 0.40000001 0.40000001 0.40000001 0.40000001 0.40000001 0.40000001 0.40000001 0.40000001 0.40000001 0.40000001 0.40000001 0.40000001 0.40000001 0.40000001 0.40000001 0.40000001 0.40000001 0.40000001 0.40000001 0.40000001 0.40000001 0.40000001 0.40000001 0.40000001 0.40000001 0.40000001 0.40000001 0.40000001 0.40000001 0.40000001 0.40000001 0.40000001 0.40000001 0.40000001 0.40000001 0.40000001 0.40000001 0.40000001 0.40000001 0.40000001 0.40000001 0.40000001 0.40000001 0.40000001 0.40000001 0.40000001 0.40000001 0.40000001 0.40000001 0.40000001 0.40000001 0.40000001 0.40000001 0.40000001 0.40000001 0.40000001 0.40000001 0.40000001 0.40000001 0.40000001 0.40000001 0.40000001 0.40000001 0.40000001 0.40000001 0.40000001 0.40000001 0.40000001 0.40000001 0.40000001 0.40000001 0.40000001 0.40000001 0.40000001 0.40000001 0.40000001 0.40000001 0.40000001 0.40000001 0.40000001 0.40000001 0.40000001 0.40000001 0.40000001 0.40000001 0.40000001 0.40000001 0.40000001 0.40000001 0.40000001 0.40000001 0.40000001 0.40000001 0.40000001 0.40000001 0.40000001 0.40000001 0.40000001 0.40000001 0.40000001 0.40000001 0.40000001 0.40000001 0.40000001 0.40000001 0.40000001 0.40000001 0.40000001 0.40000001 0.40000001 0.40000001 0.40000001 0.40000001 0.40000001 0.40000001 0.40000001 0.40000001 0.40000001 0.40000001 0.40000001 0.40000001 0.40000001 0.40000001 0.40000001 0.40000001 0.40000001 0.40000001 0.40000001 0.40000001 0.40000001 0.40000001 0.40000001 0.40000001 0.40000001 0.40000001 0.40000001 0.40000001 0.40000001 0.40000001 0.40000001 0.40000001 0.40000001 0.40000001 0.40000001 0.40000001 0.40000001 0.40000001 0.40000001 0.40000001 0.40000001 0.40000001 0.40000001 0.40000001 0.40000001 0.40000001 0.40000001 0.40000001 0.40000001 0.40000001 0.40000001 0.40000001 0.40000001 0.40000001 0.40000001 0.40000001 0.40000001 0.40000001 0.40000001 0.40000001 0.40000001 0.40000001 0.40000001 0.40000001 0.40000001 0.40000001 0.40000001 0.40000001 0.40000001 0.40000001 0.40000001 0.40000001 0.40000001 0.40000001 0.40000001 0.40000001 0.40000001 0.40000001 0.40000001 0.40000001 0.40000001 0.40000001 0.40000001 0.40000001 0.40000001 0.40000001 0.40000001 0.40000001 0.40000001 0.40000001 0.40000001 0.40000001 0.40000001 0.40000001 0.40000001 0.40000001 0.40000001 0.40000001 0.40000001 0.40000001 0.40000001 0.40000001 0.40000001 0.40000001 0.40000001 0.40000001 0.40000001 0.40000001 0.40000001 0.40000001 0.40000001 0.40000001 0.40000001 0.40000001 0.40000001 0.40000001 0.40000001 0.40000001 0.40000001 0.40000001 0.40000001 0.40000001 0.40000001 0.40000001 0.40000001 0.40000001 0.40000001 0.40000001 0.40000001 0.40000001 0.40000001 0.40000001 0.40000001 0.40000001 0.40000001 0.40000001 0.40000001 0.40000001 0.40000001 0.40000001 0.40000001 0.40000001 0.40000001 0.40000001 0.40000001 0.40000001 0.40000001 0.40000001 0.40000001 0.40000001 0.40000001 0.40000001 0.40000001 0.40000001 0.40000001 0.40000001 0.40000001 0.40000001 0.40000001 0.40000001 0.40000001 0.40000001 0.40000001 0.40000001 0.40000001 0.40000001 0.40000001 0.40000001 0.40000001 0.40000013 0.40000013 0.40000013 0.40000013 0.40000013 0.40000013 0.40000042 0.40000042 0.40000039 0.40000042 0.40000042 0.40000036 0.4000009 0.4000009 0.40000087 0.4000009 0.4000009 0.40000087 0.40000245 0.40000251 0.40000245 0.40000245 0.40000245 0.40000251 0.40000647 0.4000065 0.4000065 0.40000653 0.40000653 0.4000065 0.40001747 0.40001747 0.40001747 0.40001747 0.40001747 0.40001747 0.40004665 0.40004665 0.40004665 0.40004665 0.40004665 0.40004665 0.40012076 0.40012074 0.40012076 0.40012076 0.40012074 0.40012074 0.4002904 0.4002904 0.40029034 0.4002904 0.40029043 0.4002904 0.400601 0.40060097 0.40060097 0.40060094 0.40060094 0.40060091 0.4009909 0.4009909 0.40099084 0.40099087 0.40099087 0.40099084 0.40130153 0.40130159 0.4013015 0.4013015 0.4013015 0.40130147 0.40147123 0.4014712 0.40147117 0.40147117 0.40147114 0.40147111 0.40154538 0.40154535 0.40154532 0.40154529 0.40154529 0.40154529 0.40157449 0.40157449 0.40157452 0.40157446 0.40157443 0.40157443 0.40158552 0.40158555 0.40158552 0.40158546 0.40158549 0.40158549 0.4015896 0.40158963 0.40158957 0.40158954 0.40158951 0.40158954 0.40158993 0.40158996 0.4015899 0.40158993 0.40158987 0.40158987 0.40158898 0.40158892 0.40158892 0.40158892 0.40158886 0.40158889 0.40156326 0.40156326 0.40156329 0.4015632 0.40156323 0.40156323 0.40151274 0.40151277 0.40151274 0.40151268 0.40151268 0.40151265 0.40144026 0.40144029 0.40144023 0.4014402 0.40144017 0.40144017 0.40134969 0.40134969 0.40134966 0.40134963 0.40134966 0.40134963 0.40124577 0.40124577 0.4012458 0.40124577 0.40124577 0.40124574 0.40113345 0.40113345 0.40113348 0.40113339 0.40113342 0.40113342 0.40101761 0.40101758 0.40101758 0.40101752 0.40101755 0.40101758 0.40090272 0.40090272 0.40090263 0.40090263 0.40090266 0.40090266 0.40079248 0.40079254 0.40079251 0.40079248 0.40079248 0.40079245 0.40069005 0.40069008 0.40069011 0.40069008 0.40069005 0.40069005 0.40059745 0.40059742 0.40059742 0.40059748 0.40059745 0.40059745 0.40051588 0.40051588 0.40051585 0.40051588 0.40051588 0.40051588 0.40044582 0.40044585 0.40044582 0.40044579 0.40044579 0.40044582 0.40038714 0.40038708 0.40038708 0.40038714 0.40038714 0.40033889 0.40033889 0.40033889 0.40033889 0.40033892 0.40030029 0.40030023 0.40030026 0.40030023 0.40026996 0.40026996 0.40026993 0.40026993 0.40024659 0.40024662 0.40024659 0.4002291 0.4002291 0.40021619 0.40021622 0.40000001 0.40000001 0.40000001 0.40000001 0.40000001 0.40000001 0.40000001 0.40000001 0.40000001 0.40000001 0.40000001 0.40000001 0.40000001 0.40000001 0.40000001 0.40000001 0.40000001 0.40000001 0.40000001 0.40000001 0.40000001 0.40000001 0.40000001 0.40000001 0.40000001 0.40000001 0.40000001 0.40000001 0.40000001 0.40000001 0.40000001 0.40000001 0.40000001 0.40000001 0.40000001 0.40000001 0.40000001 0.40000001 0.40000001 0.40000001 0.40000001 0.40000001 0.40000001 0.40000001 0.40000001 0.40000001 0.40000001 0.40000001 0.40000001 0.40000001 0.40000001 0.40000001 0.40000001 0.40000001 0.40000001 0.40000001 0.40000001 0.40000001 0.40000001 0.40000001 0.40000001 0.40000001 0.40000001 0.40000001 0.40000001 0.40000001 0.40000001 0.40000001 0.40000001 0.40000001 0.40000001 0.40000001 0.40000001 0.40000001 0.40000001 0.40000001 0.40000001 0.40000001 0.40000001 0.40000001 0.40000001 0.40000001 0.40000001 0.40000001 0.40000001 0.40000001 0.40000001 0.40000001 0.40000001 0.40000001 0.40000001 0.40000001 0.40000001 0.40000001 0.40000001 0.40000001 0.40000001 0.40000001 0.40000001 0.40000001 0.40000001 0.40000001 0.40000001 0.40000001 0.40000001 0.40000001 0.40000001 0.40000001 0.40000001 0.40000001 0.40000001 0.40000001 0.40000001 0.40000001 0.40000001 0.40000001 0.40000001 0.40000001 0.40000001 0.40000001 0.40000001 0.40000001 0.40000001 0.40000001 0.40000001 0.40000001 0.40000001 0.40000001 0.40000001 0.40000001 0.40000001 0.40000001 0.40000001 0.40000001 0.40000001 0.40000001 0.40000001 0.40000001 0.40000001 0.40000001 0.40000001 0.40000001 0.40000001 0.40000001 0.40000001 0.40000001 0.40000001 0.40000001 0.40000001 0.40000001 0.40000001 0.40000001 0.40000001 0.40000001 0.40000001 0.40000001 0.40000001 0.40000001 0.40000001 0.40000001 0.40000001 0.40000001 0.40000001 0.40000001 0.40000001 0.40000001 0.40000001 0.40000001 0.40000001 0.40000001 0.40000001 0.40000001 0.40000001 0.40000001 0.40000001 0.40000001 0.40000001 0.40000001 0.40000001 0.40000001 0.40000001 0.40000001 0.40000001 0.40000001 0.40000001 0.40000001 0.40000001 0.40000001 0.40000001 0.40000001 0.40000001 0.40000001 0.40000001 0.40000001 0.40000001 0.40000001 0.40000001 0.40000001 0.40000001 0.40000001 0.40000001 0.40000001 0.40000001 0.40000001 0.40000001 0.40000001 0.40000001 0.40000015 0.40000015 0.40000015 0.40000015 0.40000013 0.40000013 0.40000013 0.40000015 0.40000015 0.40000042 0.40000045 0.40000045 0.40000039 0.40000042 0.40000042 0.40000042 0.40000042 0.40000042 0.40000087 0.4000009 0.40000087 0.40000087 0.40000087 0.40000084 0.40000084 0.4000009 0.4000009 0.40000248 0.40000245 0.40000248 0.40000251 0.40000248 0.40000248 0.40000251 0.40000251 0.40000251 0.40000647 0.4000065 0.40000647 0.40000647 0.4000065 0.4000065 0.4000065 0.4000065 0.40000653 0.40001747 0.40001747 0.40001747 0.40001747 0.4000175 0.40001747 0.40001753 0.40001753 0.4000175 0.40004665 0.40004665 0.40004662 0.40004665 0.40004665 0.40004662 0.40004665 0.40004665 0.40004665 0.40012074 0.40012074 0.40012076 0.40012074 0.40012074 0.40012079 0.40012082 0.40012076 0.40012076 0.40029037 0.40029037 0.4002904 0.40029037 0.4002904 0.40029037 0.40029037 0.40029034 0.40029034 0.40060094 0.40060097 0.40060094 0.40060091 0.40060094 0.40060091 0.40060091 0.40060091 0.40060094 0.40099087 0.40099084 0.40099087 0.40099084 0.40099084 0.40099087 0.40099078 0.40099084 0.40099084 0.40130147 0.4013015 0.4013015 0.40130147 0.40130147 0.40130144 0.40130144 0.40130144 0.40130144 0.40147114 0.40147111 0.40147114 0.40147114 0.40147108 0.40147114 0.40147117 0.40147117 0.40147111 0.40154523 0.40154523 0.40154526 0.40154526 0.40154523 0.40154523 0.4015452 0.40154523 0.40154523 0.40157437 0.4015744 0.4015744 0.4015744 0.4015744 0.40157437 0.40157434 0.4015744 0.4015744 0.4015854 0.4015854 0.40158543 0.4015854 0.40158543 0.40158537 0.4015854 0.40158543 0.4015854 0.40158945 0.40158951 0.40158948 0.40158951 0.40158951 0.40158945 0.40158945 0.40158948 0.40158945 0.40158981 0.40158987 0.40158984 0.40158978 0.40158981 0.40158981 0.40158987 0.40158984 0.40158981 0.40158883 0.40158883 0.40158883 0.40158883 0.4015888 0.40158883 0.40158883 0.40158883 0.40158883 0.40156317 0.4015632 0.40156317 0.4015632 0.40156317 0.40156314 0.40156314 0.40156314 0.40156314 0.40151268 0.40151262 0.40151262 0.40151262 0.40151262 0.40151265 0.40151262 0.40151262 0.40151262 0.4014402 0.40144017 0.40144017 0.40144017 0.40144017 0.4014402 0.40144017 0.40144017 0.40144017 0.40134963 0.4013496 0.40134969 0.40134963 0.4013496 0.40134963 0.40134966 0.40134966 0.40134966 0.40124571 0.40124571 0.40124571 0.40124568 0.40124571 0.40124571 0.40124571 0.40124574 0.40124571 0.40113339 0.40113339 0.40113342 0.40113339 0.40113336 0.40113342 0.40113336 0.40113336 0.40113342 0.40101755 0.40101752 0.40101755 0.40101755 0.40101755 0.40101755 0.40101755 0.40101755 0.40101752 0.40090266 0.40090266 0.40090272 0.40090266 0.40090263 0.40090263 0.40090263 0.40090266 0.40090266 0.40079248 0.40079248 0.40079245 0.40079245 0.40079254 0.40079251 0.40079248 0.40079248 0.40079254 0.40069005 0.40069008 0.40069005 0.40069005 0.40069002 0.40069005 0.40069005 0.40069005 0.40069005 0.40059751 0.40059745 0.40059742 0.40059742 0.40059742 0.40059742 0.40059742 0.40059742 0.40059742 0.40051588 0.40051588 0.40051588 0.40051585 0.40051588 0.40051588 0.40051588 0.40051588 0.40051582 0.40044579 0.40044582 0.40044582 0.40044582 0.40044582 0.40044582 0.40044582 0.40044582 0.40044582 0.40038708 0.40038711 0.40038714 0.40038708 0.40038702 0.40038708 0.40038708 0.40038714 0.40038711 0.40033889 0.40033892 0.40033892 0.40033889 0.40033889 0.40033889 0.40033892 0.40033889 0.40033892 0.40030029 0.40030029 0.40030029 0.40030032 0.40030026 0.40030023 0.40030032 0.40030026 0.40030023 0.40026993 0.40026993 0.40026996 0.40026996 0.4002699 0.40026993 0.4002699 0.40026996 0.4002699 0.40024659 0.40024656 0.40024659 0.40024659 0.40024656 0.40024662 0.40024656 0.40024659 0.40024659 0.40022916 0.40022907 0.40022913 0.40022916 0.40022916 0.4002291 0.40022916 0.4002291 0.40022913 0.40021616 0.40021622 0.40021622 0.40021622 0.40021619 0.40021619 0.40021622 0.40021622 0.40021616 0.40020674 0.4002068 0.4002068 0.40020683 0.4002068 0.4002068 0.4002068 0.40020683 0.4002068 0.40020025 0.40020022 0.40020022 0.40020022 0.40020022 0.40020022 0.40020025 0.40020019 0.40019569 0.40019572 0.40019566 0.40019566 0.40019569 0.40019569 0.4001925 0.40019253 0.40019253 0.4001925 0.40000001 0.40000001 0.40000001 0.40000001 0.40000001 0.40000001 0.40000001 0.40000001 0.40000001 0.40000001 0.40000001 0.40000001 0.40000001 0.40000001 0.40000001 0.40000001 0.40000001 0.40000001 0.40000001 0.40000001 0.40000001 0.40000001 0.40000001 0.40000001 0.40000001 0.40000001 0.40000001 0.40000001 0.40000001 0.40000001 0.40000001 0.40000001 0.40000001 0.40000001 0.40000001 0.40000001 0.40000001 0.40000001 0.40000001 0.40000001 0.40000001 0.40000001 0.40000001 0.40000001 0.40000001 0.40000001 0.40000001 0.40000001 0.40000001 0.40000001 0.40000001 0.40000001 0.40000001 0.40000001 0.40000001 0.40000001 0.40000001 0.40000001 0.40000001 0.40000001 0.40000001 0.40000001 0.40000001 0.40000001 0.40000001 0.40000001 0.40000001 0.40000001 0.40000001 0.40000001 0.40000001 0.40000001 0.40000001 0.40000001 0.40000001 0.40000001 0.40000001 0.40000001 0.40000001 0.40000001 0.40000001 0.40000001 0.40000001 0.40000001 0.40000001 0.40000001 0.40000001 0.40000001 0.40000001 0.40000001 0.40000001 0.40000001 0.40000001 0.40000001 0.40000001 0.40000001 0.40000001 0.40000001 0.40000001 0.40000001 0.40000001 0.40000001 0.40000001 0.40000001 0.40000001 0.40000001 0.40000001 0.40000001 0.40000001 0.40000001 0.40000001 0.40000001 0.40000001 0.40000001 0.40000001 0.40000001 0.40000001 0.40000001 0.40000001 0.40000001 0.40000001 0.40000001 0.40000001 0.40000001 0.40000001 0.40000001 0.40000001 0.40000001 0.40000001 0.40000001 0.40000001 0.40000001 0.40000001 0.40000001 0.40000001 0.40000001 0.40000001 0.40000001 0.40000001 0.40000001 0.40000001 0.40000001 0.40000001 0.40000001 0.40000001 0.40000001 0.40000001 0.40000001 0.40000001 0.40000001 0.40000001 0.40000001 0.40000001 0.40000001 0.40000001 0.40000001 0.40000001 0.40000001 0.40000001 0.40000001 0.40000001 0.40000001 0.40000001 0.40000001 0.40000001 0.40000001 0.40000001 0.40000001 0.40000001 0.40000001 0.40000001 0.40000001 0.40000001 0.40000001 0.40000001 0.40000001 0.40000001 0.40000001 0.40000001 0.40000001 0.40000001 0.40000001 0.40000001 0.40000001 0.40000015 0.40000015 0.40000015 0.40000013 0.40000013 0.40000013 0.40000015 0.40000015 0.40000042 0.40000042 0.40000042 0.40000042 0.40000042 0.40000042 0.40000039 0.40000045 0.4000009 0.4000009 0.4000009 0.40000084 0.40000084 0.40000087 0.40000087 0.40000087 0.40000251 0.40000251 0.40000251 0.40000251 0.40000248 0.40000248 0.40000251 0.40000248 0.40000653 0.40000653 0.4000065 0.4000065 0.4000065 0.4000065 0.40000647 0.40000647 0.4000175 0.4000175 0.40001753 0.40001753 0.40001747 0.4000175 0.40001747 0.40001747 0.40004665 0.40004665 0.40004665 0.40004665 0.40004662 0.40004665 0.40004665 0.40004662 0.40012076 0.40012076 0.40012076 0.40012082 0.40012079 0.40012074 0.40012074 0.40012076 0.40029034 0.40029034 0.40029034 0.40029037 0.40029037 0.4002904 0.40029037 0.4002904 0.40060094 0.40060094 0.40060091 0.40060091 0.40060091 0.40060094 0.40060091 0.40060094 0.40099084 0.40099084 0.40099084 0.40099078 0.40099087 0.40099084 0.40099084 0.40099087 0.40130144 0.40130144 0.40130144 0.40130144 0.40130144 0.40130147 0.40130147 0.4013015 0.40147111 0.40147111 0.40147117 0.40147117 0.40147114 0.40147108 0.40147114 0.40147114 0.40154523 0.40154523 0.40154523 0.4015452 0.40154523 0.40154523 0.40154526 0.40154526 0.40157437 0.4015744 0.4015744 0.40157434 0.40157437 0.4015744 0.4015744 0.4015744 0.4015854 0.4015854 0.40158543 0.4015854 0.40158537 0.40158543 0.4015854 0.40158543 0.40158948 0.40158945 0.40158948 0.40158945 0.40158945 0.40158951 0.40158951 0.40158948 0.40158981 0.40158981 0.40158984 0.40158987 0.40158981 0.40158981 0.40158978 0.40158984 0.40158883 0.40158883 0.40158883 0.40158883 0.40158883 0.4015888 0.40158883 0.40158883 0.40156314 0.40156314 0.40156314 0.40156314 0.40156314 0.40156317 0.4015632 0.40156317 0.40151262 0.40151262 0.40151262 0.40151262 0.40151265 0.40151262 0.40151262 0.40151262 0.40144017 0.40144017 0.40144017 0.40144017 0.4014402 0.40144017 0.40144017 0.40144017 0.40134966 0.40134966 0.40134966 0.40134966 0.40134963 0.4013496 0.40134963 0.40134969 0.40124571 0.40124571 0.40124574 0.40124571 0.40124571 0.40124571 0.40124568 0.40124571 0.40113339 0.40113342 0.40113336 0.40113336 0.40113342 0.40113336 0.40113339 0.40113342 0.40101752 0.40101752 0.40101755 0.40101755 0.40101755 0.40101755 0.40101755 0.40101755 0.40090266 0.40090266 0.40090266 0.40090263 0.40090263 0.40090263 0.40090266 0.40090272 0.40079254 0.40079254 0.40079248 0.40079248 0.40079251 0.40079254 0.40079245 0.40079245 0.40069005 0.40069005 0.40069005 0.40069005 0.40069005 0.40069002 0.40069005 0.40069005 0.40059742 0.40059742 0.40059742 0.40059742 0.40059742 0.40059742 0.40059742 0.40059742 0.40051585 0.40051582 0.40051588 0.40051588 0.40051588 0.40051588 0.40051585 0.40051588 0.40044582 0.40044582 0.40044582 0.40044582 0.40044582 0.40044582 0.40044582 0.40044582 0.40038711 0.40038711 0.40038714 0.40038708 0.40038708 0.40038702 0.40038708 0.40038714 0.40033889 0.40033892 0.40033889 0.40033892 0.40033889 0.40033889 0.40033889 0.40033892 0.40030026 0.40030023 0.40030026 0.40030032 0.40030023 0.40030026 0.40030032 0.40030029 0.40026993 0.4002699 0.40026996 0.4002699 0.40026993 0.4002699 0.40026996 0.40026996 0.40024659 0.40024659 0.40024659 0.40024656 0.40024662 0.40024656 0.40024659 0.40024659 0.4002291 0.40022913 0.4002291 0.40022916 0.4002291 0.40022916 0.40022916 0.40022913 0.40021622 0.40021616 0.40021622 0.40021622 0.40021619 0.40021619 0.40021622 0.40021622 0.4002068 0.4002068 0.40020683 0.4002068 0.4002068 0.4002068 0.40020683 0.4002068 0.40020022 0.40020019 0.40020025 0.40020022 0.40020022 0.40020022 0.40020022 0.40020022 0.40019569 0.40019569 0.40019569 0.40019566 0.40019566 0.40019572 0.40019569 0.40019253 0.4001925 0.40019253 0.40019253 0.4001925 0.40000001 0.40000001 0.40000001 0.40000001 0.40000001 0.40000001 0.40000001 0.40000001 0.40000001 0.40000001 0.40000001 0.40000001 0.40000001 0.40000001 0.40000001 0.40000001 0.40000001 0.40000001 0.40000001 0.40000001 0.40000001 0.40000001 0.40000001 0.40000001 0.40000001 0.40000001 0.40000001 0.40000001 0.40000001 0.40000001 0.40000001 0.40000001 0.40000001 0.40000001 0.40000001 0.40000001 0.40000001 0.40000001 0.40000001 0.40000001 0.40000001 0.40000001 0.40000001 0.40000001 0.40000001 0.40000001 0.40000001 0.40000001 0.40000001 0.40000001 0.40000001 0.40000001 0.40000001 0.40000001 0.40000001 0.40000001 0.40000001 0.40000001 0.40000001 0.40000001 0.40000001 0.40000001 0.40000001 0.40000001 0.40000001 0.40000001 0.40000001 0.40000001 0.40000001 0.40000001 0.40000001 0.40000001 0.40000001 0.40000001 0.40000001 0.40000001 0.40000001 0.40000001 0.40000001 0.40000001 0.40000001 0.40000001 0.40000001 0.40000001 0.40000001 0.40000001 0.40000001 0.40000001 0.40000001 0.40000001 0.40000001 0.40000001 0.40000001 0.40000001 0.40000001 0.40000001 0.40000001 0.40000001 0.40000001 0.40000001 0.40000001 0.40000001 0.40000001 0.40000001 0.40000001 0.40000001 0.40000001 0.40000001 0.40000001 0.40000001 0.40000001 0.40000001 0.40000001 0.40000001 0.40000001 0.40000001 0.40000001 0.40000001 0.40000001 0.40000001 0.40000001 0.40000001 0.40000001 0.40000001 0.40000001 0.40000001 0.40000001 0.40000001 0.40000001 0.40000001 0.40000001 0.40000001 0.40000001 0.40000001 0.40000001 0.40000001 0.40000001 0.40000001 0.40000001 0.40000001 0.40000001 0.40000001 0.40000001 0.40000001 0.40000001 0.40000001 0.40000001 0.40000001 0.40000001 0.40000001 0.40000001 0.40000001 0.40000001 0.40000001 0.40000001 0.40000001 0.40000001 0.40000001 0.40000001 0.40000001 0.40000001 0.40000001 0.40000001 0.40000001 0.40000001 0.40000001 0.40000001 0.40000001 0.40000001 0.40000001 0.40000001 0.40000001 0.40000001 0.40000001 0.40000001 0.40000001 0.40000001 0.40000001 0.40000001 0.40000001 0.40000001 0.40000001 0.40000001 0.40000015 0.40000015 0.40000013 0.40000013 0.40000013 0.40000013 0.40000013 0.40000013 0.40000045 0.40000042 0.40000036 0.40000042 0.40000042 0.40000039 0.40000042 0.40000042 0.4000009 0.40000087 0.40000087 0.4000009 0.4000009 0.40000087 0.4000009 0.4000009 0.40000245 0.40000248 0.40000251 0.40000245 0.40000245 0.40000245 0.40000251 0.40000245 0.4000065 0.40000647 0.4000065 0.40000653 0.40000653 0.4000065 0.4000065 0.40000647 0.40001747 0.40001747 0.40001747 0.40001747 0.40001747 0.40001747 0.40001747 0.40001747 0.40004665 0.40004665 0.40004665 0.40004665 0.40004665 0.40004665 0.40004665 0.40004665 0.40012074 0.40012074 0.40012074 0.40012074 0.40012076 0.40012076 0.40012074 0.40012076 0.40029037 0.40029037 0.4002904 0.40029043 0.4002904 0.40029034 0.4002904 0.4002904 0.40060097 0.40060094 0.40060091 0.40060094 0.40060094 0.40060097 0.40060097 0.400601 0.40099084 0.40099087 0.40099084 0.40099087 0.40099087 0.40099084 0.4009909 0.4009909 0.4013015 0.40130147 0.40130147 0.4013015 0.4013015 0.4013015 0.40130159 0.40130153 0.40147111 0.40147114 0.40147111 0.40147114 0.40147117 0.40147117 0.4014712 0.40147123 0.40154523 0.40154523 0.40154529 0.40154529 0.40154529 0.40154532 0.40154535 0.40154538 0.4015744 0.40157437 0.40157443 0.40157443 0.40157446 0.40157452 0.40157449 0.40157449 0.4015854 0.4015854 0.40158549 0.40158549 0.40158546 0.40158552 0.40158555 0.40158552 0.40158951 0.40158945 0.40158954 0.40158951 0.40158954 0.40158957 0.40158963 0.4015896 0.40158987 0.40158981 0.40158987 0.40158987 0.40158993 0.4015899 0.40158996 0.40158993 0.40158883 0.40158883 0.40158889 0.40158886 0.40158892 0.40158892 0.40158892 0.40158898 0.4015632 0.40156317 0.40156323 0.40156323 0.4015632 0.40156329 0.40156326 0.40156326 0.40151262 0.40151268 0.40151265 0.40151268 0.40151268 0.40151274 0.40151277 0.40151274 0.40144017 0.4014402 0.40144017 0.40144017 0.4014402 0.40144023 0.40144029 0.40144026 0.4013496 0.40134963 0.40134963 0.40134966 0.40134963 0.40134966 0.40134969 0.40134969 0.40124571 0.40124571 0.40124574 0.40124577 0.40124577 0.4012458 0.40124577 0.40124577 0.40113339 0.40113339 0.40113342 0.40113342 0.40113339 0.40113348 0.40113345 0.40113345 0.40101752 0.40101755 0.40101758 0.40101755 0.40101752 0.40101758 0.40101758 0.40101761 0.40090266 0.40090266 0.40090266 0.40090266 0.40090263 0.40090263 0.40090272 0.40090272 0.40079248 0.40079248 0.40079245 0.40079248 0.40079248 0.40079251 0.40079254 0.40079248 0.40069008 0.40069005 0.40069005 0.40069005 0.40069008 0.40069011 0.40069008 0.40069005 0.40059745 0.40059751 0.40059745 0.40059745 0.40059748 0.40059742 0.40059742 0.40059745 0.40051588 0.40051588 0.40051588 0.40051588 0.40051588 0.40051585 0.40051588 0.40051588 0.40044582 0.40044579 0.40044582 0.40044579 0.40044579 0.40044582 0.40044585 0.40044582 0.40038711 0.40038708 0.40038714 0.40038714 0.40038708 0.40038708 0.40038714 0.40033892 0.40033889 0.40033892 0.40033889 0.40033889 0.40033889 0.40033889 0.40030029 0.40030029 0.40030023 0.40030026 0.40030023 0.40030029 0.40026993 0.40026993 0.40026993 0.40026993 0.40026996 0.40026996 0.40024656 0.40024659 0.40024659 0.40024662 0.40024659 0.40022907 0.40022916 0.4002291 0.4002291 0.40021622 0.40021616 0.40021622 0.40021619 0.4002068 0.40020674 0.40020025 
Press 1 2975 float
0.0 0.0 0.0 0.0 0.0 0.0 0.0 0.0 0.0 0.0 0.0 0.0 0.0 0.0 0.0 0.0 0.0 0.0 0.0 0.0 0.0 0.0 0.0 0.0 0.0 0.0 0.0 0.0 0.0 0.0 0.0 0.0 0.0 0.0 0.0 0.0 0.0 0.0 0.0 0.0 0.0 0.0 0.0 0.0 0.0 0.0 0.0 0.0 0.0 0.0 0.0 0.0 0.0 0.0 0.0 0.0 0.0 0.0 0.0 0.0 0.0 0.0 0.0 0.0 0.0 0.0 0.0 0.0 0.0 0.0 0.0 0.0 0.0 0.0 0.0 0.0 0.0 0.0 0.0 0.0 0.0 0.0 0.0 0.0 0.0 0.0 0.0 0.0 0.0 0.0 0.0 0.0 0.0 0.0 0.0 0.0 0.0 0.0 0.0 0.0 0.0 0.0 0.0 0.0 0.0 0.0 0.0 0.0 0.0 0.0 0.0 0.0 0.0 0.0 0.0 0.0 0.0 0.0 0.0 0.0 0.0 0.0 0.0 0.0 0.0 0.0 0.0 0.0 0.0 0.0 0.0 0.0 0.0 0.0 0.0 0.0 0.0 0.0 0.0 0.0 0.0 0.0 0.0 0.0 0.0 0.0 0.0 0.0 0.0 0.0 0.0 0.0 0.0 0.0 0.0 0.0 0.0 0.0 0.0 0.0 0.0 0.0 0.0 0.0 0.0 0.0 0.0 0.0 0.0 0.0 0.0 0.0 0.0 0.0 0.0 0.0 0.0 0.0 0.0 0.0 0.0 0.0 0.0 0.0 0.0 0.0 0.0 0.0 0.0 0.0 0.0 0.0 0.0 0.0 0.0 0.0 0.0 0.0 0.0 0.0 0.0 0.0 0.0 0.0 0.0 0.0 0.0 0.0 0.0 0.0 0.0 0.0 0.0 0.0 0.0 0.0 0.0 0.0 0.0 0.0 0.0 0.0 0.0 0.0 0.0 0.0 0.0 0.0 0.0 0.0 0.0 0.0 0.0 0.0 0.0 0.0 0.0 0.0 0.0 0.0 0.0 0.0 0.0 0.0 0.0 0.0 0.0 0.0 0.0 0.0 0.0 0.0 0.0 0.0 0.0 0.0 0.0 0.0 0.0 0.0 0.0 0.0 0.0 0.0 0.0 0.0 0.0 0.0 0.0 0.0 0.0 0.0 0.0 0.0 0.0 0.0 0.0 0.0 0.0 0.0 0.0 0.0 0.0 0.0 0.0 0.0 0.0 0.0 0.0 0.0 0.0 0.0 0.0 0.0 0.0 0.0 0.0 0.0 0.0 0.0 0.0 0.0 0.0 0.0 0.0 0.0 0.0 0.0 0.0 0.0 0.0 0.0 0.0 0.0 0.0 0.0 0.0 0.0 0.0 0.0 0.0 0.0 0.0 0.0 0.0 0.0 0.0 0.0 0.0 0.0 0.0 0.0 0.0 0.0 0.0 0.0 0.0 0.0 0.0 0.0 0.0 0.0 0.0 0.0 0.0 0.0 0.0 0.0 0.0 0.0 0.0 0.0 0.0 0.0 0.0 0.0 0.0 0.0 0.0 0.0 0.0 0.0 0.0 0.0 0.0 0.0 0.0 0.0 0.0 0.0 0.0 0.0 0.0 0.0 0.0 0.0 0.0 0.0 0.0 0.0 0.0 0.0 0.0 0.0 0.0 0.0 0.0 0.0 0.0 0.0 0.0 0.0 0.0 0.0 0.0 0.0 0.0 0.0 0.0 0.0 0.0 0.0 0.0 0.0 0.0 0.0 0.0 0.0 0.0 0.0 0.0 0.0 0.0 0.0 0.0 0.0 0.0 0.0 0.0 0.0 0.0 0.0 0.0 0.0 0.0 0.0 0.0 0.0 0.0 0.0 0.0 0.0 0.0 0.0 0.0 0.0 0.0 0.0 0.0 0.0 0.0 0.0 0.0 0.0 0.0 0.0 0.0 0.0 0.0 0.0 0.0 0.0 0.0 0.0 0.0 0.0 0.0 0.0 0.0 0.0 0.0 0.0 0.0 0.0 0.0 0.0 0.0 0.0 0.0 0.0 0.0 0.0 0.0 0.0 0.0 0.0 0.0 0.0 0.0 0.0 0.0 0.0 0.0 0.0 0.0 0.0 0.0 0.0 0.0 0.0 0.0 0.0 0.0 0.0 0.0 0.0 0.0 0.0 0.0 0.0 0.0 0.0 0.0 0.0 0.0 0.0 0.0 0.0 0.0 0.0 0.0 0.0 0.0 0.0 0.0 0.0 0.0 0.0 0.0 0.0 0.0 0.0 0.0 0.0 0.0 0.0 0.0 0.0 0.0 0.0 0.0 0.0 0.0 0.0 0.0 0.0 0.0 0.0 0.0 0.0 0.0 0.0 0.0 0.0 0.0 0.0 0.0 0.0 0.0 0.0 0.0 0.0 0.0 0.0 0.0 0.0 0.0 0.0 0.0 0.0 0.0 0.0 0.0 0.0 0.0 0.0 0.0 0.0 0.0 0.0 0.0 0.0 0.0 0.0 0.0 0.0 0.0 0.0 0.0 0.0 0.0 0.0 0.0 0.0 0.0 0.0 0.0 0.0 0.0 0.0 0.0 0.0 0.0 0.0 0.0 0.0 0.0 0.0 0.0 0.0 0.0 0.0 0.0 0.0 0.0 0.0 0.0 0.0 0.0 0.0 0.0 0.0 0.0 0.0 0.0 0.0 0.0 0.0 0.0 0.0 0.0 0.0 0.0 0.0 0.0 0.0 0.0 0.0 0.0 0.0 0.0 0.0 0.0 0.0 0.0 0.0 0.0 0.0 0.0 0.0 0.0 0.0 0.0 0.0 0.0 0.0 0.0 0.0 0.0 0.0 0.0 0.0 0.0 0.0 0.0 0.0 0.0 0.0 0.0 0.0 0.0 0.0 0.0 0.0 0.0 0.0 0.0 0.0 0.0 0.0 0.0 0.0 0.0 0.0 0.0 0.0 0.0 0.0 0.0 0.0 0.0 0.0 0.0 0.0 0.0 0.0 0.0 0.0 0.0 0.0 0.0 0.0 0.0 0.0 0.0 0.0 0.0 0.0 0.0 0.0 0.0 0.0 0.0 0.0 0.0 0.0 0.0 0.0 0.0 0.0 0.0 0.0 0.0 0.0 0.0 0.0 0.0 0.0 0.0 0.0 0.0 0.0 0.0 0.0 0.0 0.0 0.0 0.0 0.0 0.0 0.0 0.0 0.0 0.0 0.0 0.0 0.0 0.0 0.0 0.0 0.0 0.0 0.0 0.0 0.0 0.0 0.0 0.0 0.0 0.0 0.0 0.0 0.0 0.0 0.0 0.0 0.0 0.0 0.0 0.0 0.0 0.0 0.0 0.0 0.0 0.0 0.0 0.0 0.0 0.0 0.0 0.0 0.0 0.0 0.0 0.0 0.0 0.0 0.0 0.0 0.0 0.0 0.0 0.0 0.0 0.0 0.0 0.0 0.0 0.0 0.0 0.0 0.0 0.0 0.0 0.0 0.0 0.0 0.0 0.0 0.0 0.0 0.0 0.0 0.0 0.0 0.0 0.0 0.0 0.0 0.0 0.0 0.0 0.0 0.0 0.0 0.0 0.0 0.0 0.0 0.0 0.0 0.0 0.0 0.0 0.0 0.0 0.0 0.0 0.0 0.0 0.0 0.0 0.0 0.0 0.0 0.0 0.0 0.0 0.0 0.0 0.0 0.0 0.0 0.0 0.0 0.0 0.0 0.0 0.0 0.0 0.0 0.0 0.0 0.0 0.0 0.0 0.0 0.0 0.0 0.0 0.0 0.0 0.0 0.0 0.0 0.0 0.0 0.0 0.0 0.0 0.0 0.0 0.0 0.0 0.0 0.0 0.0 0.0 0.0 0.0 0.0 0.0 0.0 0.0 0.0 0.0 0.0 0.0 0.0 0.0 0.0 0.0 0.0 0.0 0.0 0.0 0.0 0.0 0.0 0.0 0.0 0.0 0.0 0.0 0.0 0.0 0.0 0.0 0.0 0.0 0.0 0.0 0.0 0.0 0.0 0.0 0.0 0.0 0.0 0.0 0.0 0.0 0.0 0.0 0.0 0.0 0.0 0.0 0.0 0.0 0.0 0.0 0.0 0.0 0.0 0.0 0.0 0.0 0.0 0.0 0.0 0.0 0.0 0.0 0.0 0.0 0.0 0.0 0.0 0.0 0.0 0.0 0.0 0.0 0.0 0.0 0.0 0.0 0.0 0.0 0.0 0.0 0.0 0.0 0.0 0.0 0.0 0.0 0.0 0.0 0.0 0.0 0.0 0.0 0.0 0.0 0.0 0.0 0.0 0.0 0.0 0.0 0.0 0.0 0.0 0.0 0.0 0.0 0.0 0.0 0.0 0.0 0.0 0.0 0.0 0.0 0.0 0.0 0.0 0.0 0.0 0.0 0.0 0.0 0.0 0.0 0.0 0.0 0.0 0.0 0.0 0.0 0.0 0.0 0.0 0.0 0.0 0.0 0.0 0.0 0.0 0.0 0.0 0.0 0.0 0.0 0.0 0.0 0.0 0.0 0.0 0.0 0.0 0.0 0.0 0.0 0.0 0.0 0.0 0.0 0.0 0.0 0.0 0.0 0.0 0.0 0.0 0.0 0.0 0.0 0.0 0.0 0.0 0.0 0.0 0.0 0.0 0.0 0.0 0.0 0.0 0.0 0.0 0.0 0.0 0.0 0.0 0.0 0.0 0.0 0.0 0.0 0.0 0.0 0.0 0.0 0.0 0.0 0.0 0.0 0.0 0.0 0.0 0.0 0.0 0.0 0.0 0.0 0.0 0.0 0.0 0.0 0.0 0.0 0.09876262400000001 0.09876262400000001 0.09876262400000001 0.09876262400000001 0.09876262400000001 0.09876262400000001 0.09876262400000001 0.09876262400000001 0.09876262400000001 0.09876262400000001 0.09876262400000001 0.09876262400000001 0.09876262400000001 0.098762617 0.098762617 0.098762617 0.098762617 0.098762617 0.19752523 0.19752523 0.19752523 0.19752523 0.19752523 0.19752523 0.19752523 0.1975252 0.1975252 0.2962878 0.2962878 0.2962878 0.2962878 0.39505041 0.39505041 0.39505041 0.39505041 0.39505041 0.39505041 0.59257555 0.59257555 0.59257555 0.59257555 0.59257555 0.69133818 0.88886321 0.88886321 0.88886321 0.88886321 0.88886321 0.88886321 1.2839133999999999 1.2839133999999999 1.2839133999999999 1.2839133999999999 1.2839133999999999 1.3826758999999997 1.8764883 1.8764883 1.8764883 1.8764883 1.8764883 1.9752508000000002 2.8641129000000003 2.8641129000000003 2.7653502999999997 2.7653502999999997 2.8641129000000003 2.8641129000000003 4.0492616 3.9504991 3.8517365 3.8517365 3.9504991 3.9504991 6.1232695999999995 5.8269825 5.728219999999999 5.6294575 5.6294575 5.728219999999999 8.8886108 8.5923233 8.197274199999999 7.9009871 7.999749700000001 8.197274199999999 12.542805 11.950232000000002 11.258896 10.962609 11.061371000000001 11.258896 18.666039 17.579655 16.196985 15.801936999999999 15.999462 16.592035 29.134767999999998 27.159529 25.18429 24.492956 25.085529 26.171909 51.849884 48.68951 45.924183 45.430374 46.615517 48.393227 107.8474 103.50189 100.53905 100.34153 102.41552 105.57588 248.58119 244.23572000000001 242.7543 243.34686000000002 247.00102 252.03782999999999 574.09363 572.01965 575.0812400000001 578.73535 584.66095 592.16675 1174.0527 1178.2994 1191.2369 1200.3228 1209.705 1220.2722 1928.3562 1940.7998 1966.8719 1983.3646 1996.5983 2010.4244 2525.9053 2543.9778 2580.4192 2602.8369 2619.6255 2636.5129 2848.2891 2867.645 2909.0232 2934.6008 2953.8579 2973.3127 2986.9575 3005.3254 3047.7888 3074.5508 3095.2888 3116.5205 3041.8501 3058.3411 3100.5068 3127.5637 3149.0911 3171.7043 3064.4097 3079.4187 3120.8911 3147.8479 3169.8679 3193.1714 3075.0642 3089.1836 3130.0608 3156.8184 3179.1331 3202.8298 3078.8328 3092.6545 3133.2319 3159.7898 3182.1023 3205.8958 3079.4426 3093.4602 3134.1311 3160.7844 3182.8967 3206.3911 3030.9653 3045.0793 3085.0527 3111.208 3132.9219 3156.0176 2933.4866 2947.104 2985.8843 3011.2444 3032.1641 3054.564 2793.1155 2805.9397 2842.7354 2866.9043 2886.9297 2908.3362 2617.4465 2629.2795 2663.6938 2686.2749 2705.2075 2725.5208 2415.8523 2426.5947 2458.0334 2479.0254 2496.7651 2515.6875 2197.5122 2206.9663 2235.5259 2254.6313 2270.9792 2288.6074 1971.8053 1979.9711 2005.4525 2022.7679 2037.7223 2053.9558 1747.42 1754.2977 1776.6992 1792.1249 1805.782 1820.5199 1531.9546 1537.0546 1556.3756 1570.2045 1582.562 1595.9004 1331.3217 1334.6482 1351.0854 1363.4135 1374.3718 1386.3085 1150.0338 1151.1066 1164.7605 1175.5859 1185.4362 1195.8716 989.9268199999999 989.15015 1000.0264 1009.9316 1018.4772 1027.5083 851.72241 849.40521 857.61267 866.7856400000001 874.4137 881.94519 731.95367 737.5119599999999 745.94531 752.7493900000001 759.0742799999999 635.54602 638.10815 645.12994 651.58234 656.7063 557.43457 562.49298 568.3944700000001 573.07813 492.43802 495.29430999999994 500.36166 504.96844000000004 441.06317 444.9426 449.3634 399.80807000000004 403.67537999999996 362.79535 365.86062999999996 0.0 0.0 0.0 0.0 0.0 0.0 0.0 0.0 0.0 0.0 0.0 0.0 0.0 0.0 0.0 0.0 0.0 0.0 0.0 0.0 0.0 0.0 0.0 0.0 0.0 0.0 0.0 0.0 0.0 0.0 0.0 0.0 0.0 0.0 0.0 0.0 0.0 0.0 0.0 0.0 0.0 0.0 0.0 0.0 0.0 0.0 0.0 0.0 0.0 0.0 0.0 0.0 0.0 0.0 0.0 0.0 0.0 0.0 0.0 0.0 0.0 0.0 0.0 0.0 0.0 0.0 0.0 0.0 0.0 0.0 0.0 0.0 0.0 0.0 0.0 0.0 0.0 0.0 0.0 0.0 0.0 0.0 0.0 0.0 0.0 0.0 0.0 0.0 0.0 0.0 0.09876262400000001 0.09876262400000001 0.09876262400000001 0.09876262400000001 0.09876262400000001 0.09876262400000001 0.09876262400000001 0.09876262400000001 0.09876262400000001 0.09876262400000001 0.09876262400000001 0.09876262400000001 0.09876262400000001 0.09876262400000001 0.09876262400000001 0.09876262400000001 0.09876262400000001 0.09876262400000001 0.09876262400000001 0.09876262400000001 0.09876262400000001 0.09876262400000001 0.09876262400000001 0.09876262400000001 0.09876262400000001 0.09876262400000001 0.09876262400000001 0.19752523 0.19752523 0.19752523 0.19752523 0.19752523 0.19752523 0.19752523 0.19752523 0.19752523 0.19752523 0.19752523 0.19752523 0.19752523 0.19752523 0.19752523 0.19752523 0.19752523 0.19752523 0.2962878 0.2962878 0.2962878 0.2962878 0.39505041 0.39505041 0.39505041 0.39505041 0.39505041 0.39505041 0.39505041 0.39505041 0.39505041 0.49381301 0.49381301 0.49381301 0.49381301 0.49381301 0.69133818 0.69133818 0.69133818 0.69133818 0.69133818 0.79010075 0.79010075 0.79010075 0.79010075 0.98762578 0.98762578 0.98762578 0.98762578 0.98762578 1.0863883 1.0863883 1.0863883 1.0863883 1.3826758999999997 1.3826758999999997 1.4814385 1.4814385 1.4814385 1.4814385 1.4814385 1.4814385 1.4814385 2.0740135 2.172776 2.172776 2.172776 2.172776 2.172776 2.2715384999999997 2.2715384999999997 2.2715384999999997 2.9628754 2.9628754 3.0616379 3.0616379 3.0616379 3.1604004 3.1604004 3.1604004 3.1604004 4.0492616 4.1480241 4.1480241 4.3455490999999995 4.3455490999999995 4.444311099999999 4.444311099999999 4.444311099999999 4.444311099999999 5.925745 6.0245074999999995 6.0245074999999995 6.1232695999999995 6.2220321 6.2220321 6.2220321 6.320794599999999 6.320794599999999 8.2960367 8.5923233 8.691085800000002 8.789848300000001 8.8886108 8.8886108 8.8886108 8.8886108 8.8886108 11.653945 11.851469 12.048994 12.147756 12.246518 12.345281 12.345281 12.444042999999999 12.542805 17.184607 17.579655 17.875942000000002 18.073465 18.172228 18.27099 18.369753 18.369753 18.468515 27.159529 27.949625 28.443434000000003 28.739719 28.937244 29.036005 29.134767999999998 29.23353 29.23353 50.269698999999996 51.652363 52.54121800000001 53.035027 53.331309999999995 53.430073 53.627593999999995 53.627593999999995 53.72635699999999 108.73624 111.10651999999999 112.6867 113.47679 113.87183 114.06936 114.16812 114.26688 114.36565 257.07462000000004 260.9263 263.29657000000003 264.58044 265.17303 265.4693 265.66684 265.76559 265.86435 599.57379 605.30188 608.95599 610.93121 611.82007 612.31384 612.51135 612.70892 612.70892 1230.4445 1238.5427 1243.777 1246.5422 1247.8262 1248.4187 1248.715 1248.9125 1249.0112 2023.6581 2034.2252 2041.1383 2044.7924 2046.4712 2047.2614 2047.6564 2047.8539 2048.0513 2652.6104 2665.5476 2674.0405 2678.4846 2680.7561 2681.645 2682.1387 2682.4351 2682.5337 2991.7798 3006.7905 3016.5674 3021.9001 3024.4678 3025.554 3026.1465 3026.4429 3026.6404 3136.9622 3153.4539 3164.4153 3170.2417 3173.1055 3174.2905 3174.9817 3175.3767 3175.5742 3193.3303 3211.0063 3222.6587 3228.8799 3231.9412 3233.2249 3233.916 3234.311 3234.5085 3215.7837 3234.0513 3245.9993 3252.4175 3255.5774 3257.0583 3257.6509 3258.0459 3258.2434 3225.8357 3244.3982 3256.6416 3263.2568 3266.3179 3267.7988 3268.3911 3268.7861 3268.9836 3228.8992 3247.4602 3259.7024 3266.3171 3269.3777 3270.76 3271.5498 3271.8459 3272.1421 3229.1946 3247.6545 3259.6978 3266.2131 3269.2732 3270.7539 3271.4451 3271.7412 3272.0374 3178.3237 3196.4846 3208.2297 3214.5466 3217.6062 3218.8894 3219.679 3220.0737 3220.271 3076.0757 3093.5415 3104.988 3111.2048 3114.165 3115.448 3116.1387 3116.5334 3116.7307 2929.0522 2945.7239 2956.6738 2962.5925 2965.4534 2966.6372 2967.229 2967.6235 2967.821 2745.0452 2760.9211 2771.2749 2776.7969 2779.4592 2780.6426 2781.333 2781.6287 2781.8259 2534.0186 2548.9001 2558.46 2563.6833 2566.1472 2567.2312 2567.8225 2568.1182 2568.3152 2305.5461 2319.2351 2328.1968 2332.9241 2335.189 2336.2725 2336.7646 2337.0603 2337.2571 2069.5005 2081.9954 2090.1611 2094.49 2096.6545 2097.6382 2098.0317 2098.3269 2098.4253 1834.6682 1846.0654 1853.5327 1857.4629 1859.3297 1860.214 1860.7052 1860.9017 1861.0 1608.6505 1619.0466 1625.8138 1629.4427 1631.11 1631.8947 1632.385 1632.5812 1632.6792 1397.8536 1407.1486 1413.3125 1416.6392 1418.3024 1418.9873 1419.4764 1419.6722 1419.8679 1206.1118 1214.4991 1220.1556 1223.4716 1225.032 1225.8123 1226.2999 1226.3975 1226.4949 1036.3453 1043.9198 1049.2607 1052.4653 1054.1162 1054.9902 1055.3787 1055.5729 1055.6699 889.4766199999999 896.0424199999999 901.06335 904.2497599999999 906.08429 907.0498699999999 907.53265 907.8223300000001 907.9188800000001 765.1116900000001 770.66992 775.26978 778.52802 780.54047 781.78632 782.36133 782.74463 782.93628 661.54553 666.19507 670.27515 673.40637 675.68365 677.10699 677.86609 678.43542 678.62518 576.9187599999999 580.47833 584.0378400000001 586.94171 589.18982 590.87585 591.99994 592.6556400000001 592.93665 508.28528 511.14145 513.9054 516.39301 518.6041299999999 520.2625099999999 521.55237 522.38153 522.75006 452.79177999999996 455.31799 457.57345999999995 459.55825999999996 461.36260999999996 462.89633 464.06912 464.88107 465.33215 407.27905 410.09171000000003 412.11334 413.69547 415.10175 416.24438 417.21121 417.82645 418.35382000000004 369.01108 371.90619 374.29037 375.99343999999996 377.18557999999996 378.03711 378.71832 379.14407 379.48467999999997 337.38457999999997 339.51694 341.64932000000005 343.53571 344.93005 345.83231 346.48846000000003 346.89859 347.14465 313.31882 314.34024 315.51883 316.69745 317.7189 318.42609 318.89758 319.1333 293.08142000000004 293.15637000000004 293.53112999999996 293.75595 293.90587999999997 293.98082999999997 275.3584 275.14456 274.78815 274.57431 0.0 0.0 0.0 0.0 0.0 0.0 0.0 0.0 0.0 0.0 0.0 0.0 0.0 0.0 0.0 0.0 0.0 0.0 0.0 0.0 0.0 0.0 0.0 0.0 0.0 0.0 0.0 0.0 0.0 0.0 0.0 0.0 0.0 0.0 0.0 0.0 0.0 0.0 0.0 0.0 0.0 0.0 0.0 0.0 0.0 0.0 0.0 0.0 0.0 0.0 0.0 0.0 0.0 0.0 0.0 0.0 0.0 0.0 0.0 0.0 0.0 0.0 0.0 0.0 0.0 0.0 0.0 0.0 0.0 0.0 0.0 0.0 0.0 0.0 0.0 0.0 0.0 0.0 0.0 0.0 0.09876262400000001 0.09876262400000001 0.09876262400000001 0.09876262400000001 0.09876262400000001 0.09876262400000001 0.09876262400000001 0.09876262400000001 0.09876262400000001 0.09876262400000001 0.09876262400000001 0.09876262400000001 0.09876262400000001 0.09876262400000001 0.09876262400000001 0.09876262400000001 0.09876262400000001 0.09876262400000001 0.09876262400000001 0.09876262400000001 0.09876262400000001 0.09876262400000001 0.09876262400000001 0.09876262400000001 0.19752523 0.19752523 0.19752523 0.19752523 0.19752523 0.19752523 0.19752523 0.19752523 0.19752523 0.19752523 0.19752523 0.19752523 0.19752523 0.19752523 0.19752523 0.19752523 0.39505041 0.39505041 0.39505041 0.39505041 0.39505041 0.39505041 0.2962878 0.2962878 0.49381301 0.49381301 0.49381301 0.49381301 0.49381301 0.49381301 0.39505041 0.39505041 0.79010075 0.79010075 0.79010075 0.79010075 0.79010075 0.69133818 0.69133818 0.69133818 1.0863883 1.0863883 1.0863883 1.0863883 1.0863883 0.98762578 0.98762578 0.98762578 1.4814385 1.4814385 1.4814385 1.4814385 1.4814385 1.4814385 1.4814385 1.4814385 2.2715384999999997 2.2715384999999997 2.2715384999999997 2.2715384999999997 2.172776 2.172776 2.172776 2.172776 3.1604004 3.1604004 3.1604004 3.1604004 3.1604004 3.0616379 3.0616379 3.0616379 4.444311099999999 4.444311099999999 4.444311099999999 4.444311099999999 4.444311099999999 4.3455490999999995 4.3455490999999995 4.1480241 6.320794599999999 6.320794599999999 6.320794599999999 6.2220321 6.2220321 6.2220321 6.1232695999999995 6.0245074999999995 8.8886108 8.8886108 8.8886108 8.8886108 8.8886108 8.8886108 8.789848300000001 8.691085800000002 12.542805 12.542805 12.444042999999999 12.345281 12.345281 12.246518 12.147756 12.048994 18.468515 18.468515 18.369753 18.369753 18.27099 18.172228 18.073465 17.875942000000002 29.23353 29.23353 29.23353 29.134767999999998 29.036005 28.937244 28.739719 28.443434000000003 53.72635699999999 53.72635699999999 53.627593999999995 53.627593999999995 53.430073 53.331309999999995 53.035027 52.54121800000001 114.36565 114.36565 114.26688 114.16812 114.06936 113.87183 113.47679 112.6867 265.86435 265.86435 265.76559 265.66684 265.4693 265.17303 264.58044 263.29657000000003 612.70892 612.70892 612.70892 612.51135 612.31384 611.82007 610.93121 608.95599 1249.0112 1249.0112 1248.9125 1248.715 1248.4187 1247.8262 1246.5422 1243.777 2048.0513 2048.0513 2047.8539 2047.6564 2047.2614 2046.4712 2044.7924 2041.1383 2682.6326 2682.5337 2682.4351 2682.1387 2681.645 2680.7561 2678.4846 2674.0405 3026.6404 3026.6404 3026.4429 3026.1465 3025.554 3024.4678 3021.9001 3016.5674 3175.5742 3175.5742 3175.3767 3174.9817 3174.2905 3173.1055 3170.2417 3164.4153 3234.5085 3234.5085 3234.311 3233.916 3233.2249 3231.9412 3228.8799 3222.6587 3258.342 3258.2434 3258.0459 3257.6509 3257.0583 3255.5774 3252.4175 3245.9993 3269.0823 3268.9836 3268.7861 3268.3911 3267.7988 3266.3179 3263.2568 3256.6416 3272.241 3272.1421 3271.8459 3271.5498 3270.76 3269.3777 3266.3171 3259.7024 3272.136 3272.0374 3271.7412 3271.4451 3270.7539 3269.2732 3266.2131 3259.6978 3220.3699 3220.271 3220.0737 3219.679 3218.8894 3217.6062 3214.5466 3208.2297 3116.7307 3116.7307 3116.5334 3116.1387 3115.448 3114.165 3111.2048 3104.988 2967.9197 2967.821 2967.6235 2967.229 2966.6372 2965.4534 2962.5925 2956.6738 2781.9246 2781.8259 2781.6287 2781.333 2780.6426 2779.4592 2776.7969 2771.2749 2568.3152 2568.3152 2568.1182 2567.8225 2567.2312 2566.1472 2563.6833 2558.46 2337.2571 2337.2571 2337.0603 2336.7646 2336.2725 2335.189 2332.9241 2328.1968 2098.4253 2098.4253 2098.3269 2098.0317 2097.6382 2096.6545 2094.49 2090.1611 1861.0983 1861.0 1860.9017 1860.7052 1860.214 1859.3297 1857.4629 1853.5327 1632.7773 1632.6792 1632.5812 1632.385 1631.8947 1631.11 1629.4427 1625.8138 1419.8679 1419.8679 1419.6722 1419.4764 1418.9873 1418.3024 1416.6392 1413.3125 1226.5924 1226.4949 1226.3975 1226.2999 1225.8123 1225.032 1223.4716 1220.1556 1055.7671 1055.6699 1055.5729 1055.3787 1054.9902 1054.1162 1052.4653 1049.2607 907.9188800000001 907.9188800000001 907.8223300000001 907.53265 907.0498699999999 906.08429 904.2497599999999 901.06335 782.93628 782.93628 782.74463 782.36133 781.78632 780.54047 778.52802 775.26978 678.72009 678.62518 678.43542 677.86609 677.10699 675.68365 673.40637 670.27515 593.0303299999999 592.93665 592.6556400000001 591.99994 590.87585 589.18982 586.94171 584.0378400000001 522.9343299999999 522.75006 522.38153 521.55237 520.2625099999999 518.6041299999999 516.39301 513.9054 465.51257000000004 465.33215 464.88107 464.06912 462.89633 461.36260999999996 459.55825999999996 457.57345999999995 418.52957000000004 418.35382000000004 417.82645 417.21121 416.24438 415.10175 413.69547 412.11334 379.65497 379.48467999999997 379.14407 378.71832 378.03711 377.18557999999996 375.99343999999996 374.29037 347.22665 347.14465 346.89859 346.48846000000003 345.83231 344.93005 343.53571 341.64932000000005 319.21188 319.1333 318.89758 318.42609 317.7189 316.69745 315.51883 314.34024 293.98087000000004 293.98082999999997 293.90587999999997 293.75595 293.53112999999996 293.15637000000004 293.08142000000004 274.43172999999996 274.57431 274.78815 275.14456 275.3584 0.0 0.0 0.0 0.0 0.0 0.0 0.0 0.0 0.0 0.0 0.0 0.0 0.0 0.0 0.0 0.0 0.0 0.0 0.0 0.0 0.0 0.0 0.0 0.0 0.0 0.0 0.0 0.0 0.0 0.0 0.0 0.0 0.0 0.0 0.0 0.0 0.0 0.0 0.0 0.0 0.0 0.0 0.0 0.0 0.0 0.0 0.0 0.0 0.0 0.0 0.0 0.0 0.0 0.0 0.0 0.0 0.0 0.0 0.0 0.0 0.0 0.0 0.0 0.0 0.0 0.0 0.0 0.0 0.0 0.0 0.0 0.0 0.0 0.0 0.0 0.0 0.0 0.0 0.0 0.09876262400000001 0.09876262400000001 0.09876262400000001 0.0 0.0 0.0 0.0 0.0 0.09876262400000001 0.09876262400000001 0.09876262400000001 0.09876262400000001 0.09876262400000001 0.09876262400000001 0.09876262400000001 0.09876262400000001 0.09876262400000001 0.09876262400000001 0.09876262400000001 0.09876262400000001 0.09876262400000001 0.09876262400000001 0.09876262400000001 0.09876262400000001 0.19752523 0.19752523 0.19752523 0.098762617 0.098762617 0.098762617 0.098762617 0.098762617 0.19752523 0.19752523 0.19752523 0.19752523 0.19752523 0.19752523 0.19752523 0.19752523 0.2962878 0.2962878 0.2962878 0.2962878 0.2962878 0.2962878 0.1975252 0.1975252 0.39505041 0.39505041 0.39505041 0.39505041 0.39505041 0.39505041 0.39505041 0.39505041 0.69133818 0.69133818 0.69133818 0.59257555 0.59257555 0.59257555 0.59257555 0.59257555 0.98762578 0.98762578 0.88886321 0.88886321 0.88886321 0.88886321 0.88886321 0.88886321 1.3826758999999997 1.3826758999999997 1.3826758999999997 1.2839133999999999 1.2839133999999999 1.2839133999999999 1.2839133999999999 1.2839133999999999 2.172776 2.0740135 1.9752508000000002 1.8764883 1.8764883 1.8764883 1.8764883 1.8764883 2.9628754 2.9628754 2.8641129000000003 2.8641129000000003 2.7653502999999997 2.7653502999999997 2.8641129000000003 2.8641129000000003 4.1480241 4.0492616 3.9504991 3.9504991 3.8517365 3.8517365 3.9504991 4.0492616 6.0245074999999995 5.925745 5.728219999999999 5.6294575 5.6294575 5.728219999999999 5.8269825 6.1232695999999995 8.5923233 8.2960367 8.197274199999999 7.999749700000001 7.9009871 8.197274199999999 8.5923233 8.8886108 11.851469 11.653945 11.258896 11.061371000000001 10.962609 11.258896 11.950232000000002 12.542805 17.579655 17.184607 16.592035 15.999462 15.801936999999999 16.196985 17.579655 18.666039 27.949625 27.159529 26.171909 25.085529 24.492956 25.18429 27.159529 29.134767999999998 51.652363 50.269698999999996 48.393227 46.615517 45.430374 45.924183 48.68951 51.849884 111.10651999999999 108.73624 105.57588 102.41552 100.34153 100.53905 103.50189 107.8474 260.9263 257.07462000000004 252.03782999999999 247.00102 243.34686000000002 242.7543 244.23572000000001 248.58119 605.30188 599.57379 592.16675 584.66095 578.73535 575.0812400000001 572.01965 574.09363 1238.5427 1230.4445 1220.2722 1209.705 1200.3228 1191.2369 1178.2994 1174.0527 2034.2252 2023.6581 2010.4244 1996.5983 1983.3646 1966.8719 1940.7998 1928.3562 2665.5476 2652.6104 2636.5129 2619.6255 2602.8369 2580.4192 2543.9778 2525.9053 3006.7905 2991.7798 2973.3127 2953.8579 2934.6008 2909.0232 2867.645 2848.2891 3153.4539 3136.9622 3116.5205 3095.2888 3074.5508 3047.7888 3005.3254 2986.9575 3211.0063 3193.3303 3171.7043 3149.0911 3127.5637 3100.5068 3058.3411 3041.8501 3234.0513 3215.7837 3193.1714 3169.8679 3147.8479 3120.8911 3079.4187 3064.4097 3244.3982 3225.8357 3202.8298 3179.1331 3156.8184 3130.0608 3089.1836 3075.0642 3247.4602 3228.8992 3205.8958 3182.1023 3159.7898 3133.2319 3092.6545 3078.8328 3247.6545 3229.1946 3206.3911 3182.8967 3160.7844 3134.1311 3093.4602 3079.4426 3196.4846 3178.3237 3156.0176 3132.9219 3111.208 3085.0527 3045.0793 3030.9653 3093.5415 3076.0757 3054.564 3032.1641 3011.2444 2985.8843 2947.104 2933.4866 2945.7239 2929.0522 2908.3362 2886.9297 2866.9043 2842.7354 2805.9397 2793.1155 2760.9211 2745.0452 2725.5208 2705.2075 2686.2749 2663.6938 2629.2795 2617.4465 2548.9001 2534.0186 2515.6875 2496.7651 2479.0254 2458.0334 2426.5947 2415.8523 2319.2351 2305.5461 2288.6074 2270.9792 2254.6313 2235.5259 2206.9663 2197.5122 2081.9954 2069.5005 2053.9558 2037.7223 2022.7679 2005.4525 1979.9711 1971.8053 1846.0654 1834.6682 1820.5199 1805.782 1792.1249 1776.6992 1754.2977 1747.42 1619.0466 1608.6505 1595.9004 1582.562 1570.2045 1556.3756 1537.0546 1531.9546 1407.1486 1397.8536 1386.3085 1374.3718 1363.4135 1351.0854 1334.6482 1331.3217 1214.4991 1206.1118 1195.8716 1185.4362 1175.5859 1164.7605 1151.1066 1150.0338 1043.9198 1036.3453 1027.5083 1018.4772 1009.9316 1000.0264 989.15015 989.9268199999999 896.0424199999999 889.4766199999999 881.94519 874.4137 866.7856400000001 857.61267 849.40521 851.72241 770.66992 765.1116900000001 759.0742799999999 752.7493900000001 745.94531 737.5119599999999 731.95367 666.19507 661.54553 656.7063 651.58234 645.12994 638.10815 635.54602 580.47833 576.9187599999999 573.07813 568.3944700000001 562.49298 557.43457 511.14145 508.28528 504.96844000000004 500.36166 495.29430999999994 492.43802 455.31799 452.79177999999996 449.3634 444.9426 441.06317 410.09171000000003 407.27905 403.67537999999996 399.80807000000004 371.90619 369.01108 365.86062999999996 362.79535 339.51694 337.38457999999997 313.31882 
Type 1 2975 float
0 0 0 0 0 0 0 0 0 0 0 0 0 0 0 0 0 0 0 0 0 0 0 0 0 0 0 0 0 0 0 0 0 0 0 0 0 0 0 0 0 0 0 0 0 0 0 0 0 0 0 0 0 0 0 0 0 0 0 0 0 0 0 0 0 0 0 0 0 0 0 0 0 0 0 0 0 0 0 0 0 0 0 0 0 0 0 0 0 0 0 0 0 0 0 0 0 0 0 0 0 0 0 0 0 0 0 0 0 0 0 0 0 0 0 0 0 0 0 0 0 0 0 0 0 0 0 0 0 0 0 0 0 0 0 0 0 0 0 0 0 0 0 0 0 0 0 0 0 0 0 0 0 0 0 0 0 0 0 0 0 0 0 0 0 0 0 0 0 0 0 0 0 0 0 0 0 0 0 0 0 0 0 0 0 0 0 0 0 0 0 0 0 0 0 0 0 0 0 0 0 0 0 0 0 0 0 0 0 0 0 0 0 0 0 0 0 0 0 0 0 0 0 0 0 0 0 0 0 0 0 0 0 0 0 0 0 0 0 0 0 0 0 0 0 0 0 0 0 0 0 0 0 0 0 0 0 0 0 0 0 0 0 0 0 0 0 0 0 0 0 0 0 0 0 0 0 0 0 0 0 0 0 0 0 0 0 0 0 0 0 0 0 0 0 0 0 0 0 0 0 0 0 0 0 0 0 0 0 0 0 0 0 0 0 0 0 0 0 0 0 0 0 0 0 0 0 0 0 0 0 0 0 0 0 0 0 0 0 0 0 0 0 0 0 0 0 0 0 0 0 0 0 0 0 0 0 0 0 0 0 0 0 0 0 0 0 0 0 0 0 0 0 0 0 0 0 0 0 0 0 0 0 0 0 0 0 0 0 0 0 0 0 0 0 0 0 0 0 0 0 0 0 0 0 0 0 0 0 0 0 0 0 0 0 0 0 0 0 0 0 0 0 0 0 0 0 0 0 0 0 0 0 0 0 0 0 0 0 0 0 0 0 0 0 0 0 0 0 0 0 0 0 0 0 0 0 0 0 0 0 0 0 0 0 0 0 0 0 0 0 0 0 0 0 0 0 0 0 0 0 0 0 0 0 0 0 0 0 0 0 0 0 0 0 0 0 0 0 0 0 0 0 0 0 0 0 0 0 0 0 0 0 0 0 0 0 0 0 0 0 0 0 0 0 0 0 0 0 0 0 0 0 0 0 0 0 0 0 0 0 0 0 0 0 0 0 0 0 0 0 0 0 0 0 0 0 0 0 0 0 0 0 0 0 0 0 0 0 0 0 0 0 0 0 0 0 0 0 0 0 0 0 0 0 0 0 0 0 0 0 0 0 0 0 0 0 0 0 0 0 0 0 0 0 0 0 0 0 0 0 0 0 0 0 0 0 0 0 0 0 0 0 0 0 0 0 0 0 0 0 0 0 0 0 0 0 0 0 0 0 0 0 0 0 0 0 0 0 0 0 0 0 0 0 0 0 0 0 0 0 0 0 0 0 0 0 0 0 0 0 0 0 0 0 0 0 0 0 0 0 0 0 0 0 0 0 0 0 0 0 0 0 0 0 0 0 0 0 0 0 0 0 0 0 0 0 0 0 0 0 0 0 0 0 0 0 0 0 0 0 0 0 0 0 0 0 0 0 0 0 0 0 0 0 0 0 0 0 0 0 0 0 0 0 0 0 0 0 0 0 0 0 0 0 0 0 0 0 0 0 0 0 0 0 0 0 0 0 0 0 0 0 0 0 0 0 0 0 0 0 0 0 0 0 0 0 0 0 0 0 0 0 0 0 0 0 0 0 0 0 0 0 0 0 0 0 0 0 0 0 0 0 0 0 0 0 0 0 0 0 0 0 0 0 0 0 0 0 0 0 0 0 0 0 0 0 0 0 0 0 0 0 0 0 0 0 0 0 0 0 0 0 0 0 0 0 0 0 0 0 0 0 0 0 0 0 0 0 0 0 0 0 0 0 0 0 0 0 0 0 0 0 0 0 0 0 0 0 0 0 0 0 0 0 0 0 0 0 0 0 0 0 0 0 0 0 0 0 0 0 0 0 0 0 0 0 0 0 0 0 0 0 0 0 0 0 0 0 0 0 0 0 0 0 0 0 0 0 0 0 0 0 0 0 0 0 0 0 0 0 0 0 0 0 0 0 0 0 0 0 0 0 0 0 0 0 0 0 0 0 0 0 0 0 0 0 0 0 0 0 0 0 0 0 0 0 0 0 0 0 0 0 0 0 0 0 0 0 0 0 0 0 0 0 0 0 0 0 0 0 0 0 0 0 0 0 0 0 0 0 0 0 0 0 0 0 0 0 0 0 3 3 3 3 3 3 3 3 3 3 3 3 3 3 3 3 3 3 3 3 3 3 3 3 3 3 3 3 3 3 3 3 3 3 3 3 3 3 3 3 3 3 3 3 3 3 3 3 3 3 3 3 3 3 3 3 3 3 3 3 3 3 3 3 3 3 3 3 3 3 3 3 3 3 3 3 3 3 3 3 3 3 3 3 3 3 3 3 3 3 3 3 3 3 3 3 3 3 3 3 3 3 3 3 3 3 3 3 3 3 3 3 3 3 3 3 3 3 3 3 3 3 3 3 3 3 3 3 3 3 3 3 3 3 3 3 3 3 3 3 3 3 3 3 3 3 3 3 3 3 3 3 3 3 3 3 3 3 3 3 3 3 3 3 3 3 3 3 3 3 3 3 3 3 3 3 3 3 3 3 3 3 3 3 3 3 3 3 3 3 3 3 3 3 3 3 3 3 3 3 3 3 3 3 3 3 3 3 3 3 3 3 3 3 3 3 3 3 3 3 3 3 3 3 3 3 3 3 3 3 3 3 3 3 3 3 3 3 3 3 3 3 3 3 3 3 3 3 3 3 3 3 3 3 3 3 3 3 3 3 3 3 3 3 3 3 3 3 3 3 3 3 3 3 3 3 3 3 3 3 3 3 3 3 3 3 3 3 3 3 3 3 3 3 3 3 3 3 3 3 3 3 3 3 3 3 3 3 3 3 3 3 3 3 3 3 3 3 3 3 3 3 3 3 3 3 3 3 3 3 3 3 3 3 3 3 3 3 3 3 3 3 3 3 3 3 3 3 3 3 3 3 3 3 3 3 3 3 3 3 3 3 3 3 3 3 3 3 3 3 3 3 3 3 3 3 3 3 3 3 3 3 3 3 3 3 3 3 3 3 3 3 3 3 3 3 3 3 3 3 3 3 3 3 3 3 3 3 3 3 3 3 3 3 3 3 3 3 3 3 3 3 3 3 3 3 3 3 3 3 3 3 3 3 3 3 3 3 3 3 3 3 3 3 3 3 3 3 3 3 3 3 3 3 3 3 3 3 3 3 3 3 3 3 3 3 3 3 3 3 3 3 3 3 3 3 3 3 3 3 3 3 3 3 3 3 3 3 3 3 3 3 3 3 3 3 3 3 3 3 3 3 3 3 3 3 3 3 3 3 3 3 3 3 3 3 3 3 3 3 3 3 3 3 3 3 3 3 3 3 3 3 3 3 3 3 3 3 3 3 3 3 3 3 3 3 3 3 3 3 3 3 3 3 3 3 3 3 3 3 3 3 3 3 3 3 3 3 3 3 3 3 3 3 3 3 3 3 3 3 3 3 3 3 3 3 3 3 3 3 3 3 3 3 3 3 3 3 3 3 3 3 3 3 3 3 3 3 3 3 3 3 3 3 3 3 3 3 3 3 3 3 3 3 3 3 3 3 3 3 3 3 3 3 3 3 3 3 3 3 3 3 3 3 3 3 3 3 3 3 3 3 3 3 3 3 3 3 3 3 3 3 3 3 3 3 3 3 3 3 3 3 3 3 3 3 3 3 3 3 3 3 3 3 3 3 3 3 3 3 3 3 3 3 3 3 3 3 3 3 3 3 3 3 3 3 3 3 3 3 3 3 3 3 3 3 3 3 3 3 3 3 3 3 3 3 3 3 3 3 3 3 3 3 3 3 3 3 3 3 3 3 3 3 3 3 3 3 3 3 3 3 3 3 3 3 3 3 3 3 3 3 3 3 3 3 3 3 3 3 3 3 3 3 3 3 3 3 3 3 3 3 3 3 3 3 3 3 3 3 3 3 3 3 3 3 3 3 3 3 3 3 3 3 3 3 3 3 3 3 3 3 3 3 3 3 3 3 3 3 3 3 3 3 3 3 3 3 3 3 3 3 3 3 3 3 3 3 3 3 3 3 3 3 3 3 3 3 3 3 3 3 3 3 3 3 3 3 3 3 3 3 3 3 3 3 3 3 3 3 3 3 3 3 3 3 3 3 3 3 3 3 3 3 3 3 3 3 3 3 3 3 3 3 3 3 3 3 3 3 3 3 3 3 3 3 3 3 3 3 3 3 3 3 3 3 3 3 3 3 3 3 3 3 3 3 3 3 3 3 3 3 3 3 3 3 3 3 3 3 3 3 3 3 3 3 3 3 3 3 3 3 3 3 3 3 3 3 3 3 3 3 3 3 3 3 3 3 3 3 3 3 3 3 3 3 3 3 3 3 3 3 3 3 3 3 3 3 3 3 3 3 3 3 3 3 3 3 3 3 3 3 3 3 3 3 3 3 3 3 3 3 3 3 3 3 3 3 3 3 3 3 3 3 3 3 3 3 3 3 3 3 3 3 3 3 3 3 3 3 3 3 3 3 3 3 3 3 3 3 3 3 3 3 3 3 3 3 3 3 3 3 3 3 3 3 3 3 3 3 3 3 3 3 3 3 3 3 3 3 3 3 3 3 3 3 3 3 3 3 3 3 3 3 3 3 3 3 3 3 3 3 3 3 3 3 3 3 3 3 3 3 3 3 3 3 3 3 3 3 3 3 3 3 3 3 3 3 3 3 3 3 3 3 3 3 3 3 3 3 3 3 3 3 3 3 3 3 3 3 3 3 3 3 3 3 3 3 3 3 3 3 3 3 3 3 3 3 3 3 3 3 3 3 3 3 3 3 3 3 3 3 3 3 3 3 3 3 3 3 3 3 3 3 3 3 3 3 3 3 3 3 3 3 3 3 3 3 3 3 3 3 3 3 3 3 3 3 3 3 3 3 3 3 3 3 3 3 3 3 3 3 3 3 3 3 3 3 3 3 3 3 3 3 3 3 3 3 3 3 3 3 3 3 3 3 3 3 3 3 3 3 3 3 3 3 3 3 3 3 3 3 3 3 3 3 3 3 3 3 3 3 3 3 3 3 3 3 3 3 3 3 3 3 3 3 3 3 3 3 3 3 3 3 3 3 3 3 3 3 3 3 3 3 3 3 3 3 3 3 3 3 3 3 3 3 3 3 3 3 3 3 3 3 3 3 3 3 3 3 3 3 3 3 3 3 3 3 3 3 3 3 3 3 3 3 3 3 3 3 3 3 3 3 3 3 3 3 3 3 3 3 3 3 3 3 3 3 3 3 3 3 3 3 3 3 3 3 3 3 3 3 3 3 3 3 3 3 3 3 3 3 3 3 3 3 3 3 3 3 3 3 3 3 3 3 3 3 3 3 3 3 3 3 3 3 3 3 3 3 3 3 3 3 3 3 3 3 3 3 3 3 3 3 3 3 3 3 3 3 3 3 3 3 3 3 3 3 3 3 3 3 3 3 3 3 3 3 3 3 3 3 3 3 3 3 3 3 3 3 3 3 3 3 3 3 3 3 3 3 3 3 3 3 3 3 3 3 3 3 3 3 3 3 3 3 3 3 3 3 3 3 3 3 3 3 3 3 3 3 3 3 3 3 3 3 3 3 3 3 3 3 3 3 3 3 3 3 3 3 3 3 3 3 3 3 3 3 3 3 3 3 3 3 3 3 3 3 3 3 3 3 3 3 3 3 3 3 3 3 3 3 3 3 3 3 3 3 3 3 3 3 3 3 3 3 3 3 3 3 3 3 3 3 3 3 3 3 3 3 3 3 3 3 3 3 3 3 3 3 3 3 3 3 3 3 3 3 3 3 3 3 3 3 3 3 3 3 3 3 3 3 3 3 3 3 3 3 3 3 3 3 3 3 3 3 3 3 3 3 3 3 3 3 3 3 3 3 3 3 3 3 3 3 3 3 3 3 3 3 3 3 3 3 3 3 3 3 3 3 3 3 3 3 3 3 3 3 3 3 3 3 3 3 3 3 3 3 3 3 3 3 3 3 3 3 3 3 3 3 3 3 3 3 3 3 3 3 3 3 3 3 3 3 3 3 3 3 3 3 3 3 3 3 3 3 3 3 3 3 3 3 3 3 3 3 3 3 3 3 3 3 3 3 3 3 3 3 3 3 3 3 3 3 3 3 3 3 3 3 3 3 3 3 3 3 3 3 3 3 3 3 3 3 3 3 3 3 3 3 3 3 3 3 3 3 3 3 3 3 3 3 3 3 3 3 3 3 3 3 3 3 3 3 3 3 3 3 3 3 3 3 3 3 3 3 3 3 3 3 3 3 3 3 3 3 3 3 3 3 3 3 3 3 3 3 3 3 3 3 3 3 3 3 3 3 3 3 3 3 3 3 3 3 3 3 3 3 3 3 3 3 3 3 3 3 3 3 3 3 3 3 3 3 3 3 3 3 3 3 3 3 3 3 3 3 3 3 3 3 3 3 3 3 3 3 3 3 3 3 3 3 3 3 3 3 3 3 3 3 3 3 3 3 3 3 3 3 3 3 3 3 3 3 3 3 3 3 3 3 3 3 3 3 
CellOffSpring 1 2975 float
0 0 0 0 0 0 0 0 0 0 0 0 0 0 0 0 0 0 0 0 0 0 0 0 0 0 0 0 0 0 0 0 0 0 0 0 0 0 0 0 0 0 0 0 0 0 0 0 0 0 0 0 0 0 0 0 0 0 0 0 0 0 0 0 0 0 0 0 0 0 0 0 0 0 0 0 0 0 0 0 0 0 0 0 0 0 0 0 0 0 0 0 0 0 0 0 0 0 0 0 0 0 0 0 0 0 0 0 0 0 0 0 0 0 0 0 0 0 0 0 0 0 0 0 0 0 0 0 0 0 0 0 0 0 0 0 0 0 0 0 0 0 0 0 0 0 0 0 0 0 0 0 0 0 0 0 0 0 0 0 0 0 0 0 0 0 0 0 0 0 0 0 0 0 0 0 0 0 0 0 0 0 0 0 0 0 0 0 0 0 0 0 0 0 0 0 0 0 0 0 0 0 0 0 0 0 0 0 0 0 0 0 0 0 0 0 0 0 0 0 0 0 0 0 0 0 0 0 0 0 0 0 0 0 0 0 0 0 0 0 0 0 0 0 0 0 0 0 0 0 0 0 0 0 0 0 0 0 0 0 0 0 0 0 0 0 0 0 0 0 0 0 0 0 0 0 0 0 0 0 0 0 0 0 0 0 0 0 0 0 0 0 0 0 0 0 0 0 0 0 0 0 0 0 0 0 0 0 0 0 0 0 0 0 0 0 0 0 0 0 0 0 0 0 0 0 0 0 0 0 0 0 0 0 0 0 0 0 0 0 0 0 0 0 0 0 0 0 0 0 0 0 0 0 0 0 0 0 0 0 0 0 0 0 0 0 0 0 0 0 0 0 0 0 0 0 0 0 0 0 0 0 0 0 0 0 0 0 0 0 0 0 0 0 0 0 0 0 0 0 0 0 0 0 0 0 0 0 0 0 0 0 0 0 0 0 0 0 0 0 0 0 0 0 0 0 0 0 0 0 0 0 0 0 0 0 0 0 0 0 0 0 0 0 0 0 0 0 0 0 0 0 0 0 0 0 0 0 0 0 0 0 0 0 0 0 0 0 0 0 0 0 0 0 0 0 0 0 0 0 0 0 0 0 0 0 0 0 0 0 0 0 0 0 0 0 0 0 0 0 0 0 0 0 0 0 0 0 0 0 0 0 0 0 0 0 0 0 0 0 0 0 0 0 0 0 0 0 0 0 0 0 0 0 0 0 0 0 0 0 0 0 0 0 0 0 0 0 0 0 0 0 0 0 0 0 0 0 0 0 0 0 0 0 0 0 0 0 0 0 0 0 0 0 0 0 0 0 0 0 0 0 0 0 0 0 0 0 0 0 0 0 0 0 0 0 0 0 0 0 0 0 0 0 0 0 0 0 0 0 0 0 0 0 0 0 0 0 0 0 0 0 0 0 0 0 0 0 0 0 0 0 0 0 0 0 0 0 0 0 0 0 0 0 0 0 0 0 0 0 0 0 0 0 0 0 0 0 0 0 0 0 0 0 0 0 0 0 0 0 0 0 0 0 0 0 0 0 0 0 0 0 0 0 0 0 0 0 0 0 0 0 0 0 0 0 0 0 0 0 0 0 0 0 0 0 0 0 0 0 0 0 0 0 0 0 0 0 0 0 0 0 0 0 0 0 0 0 0 0 0 0 0 0 0 0 0 0 0 0 0 0 0 0 0 0 0 0 0 0 0 0 0 0 0 0 0 0 0 0 0 0 0 0 0 0 0 0 0 0 0 0 0 0 0 0 0 0 0 0 0 0 0 0 0 0 0 0 0 0 0 0 0 0 0 0 0 0 0 0 0 0 0 0 0 0 0 0 0 0 0 0 0 0 0 0 0 0 0 0 0 0 0 0 0 0 0 0 0 0 0 0 0 0 0 0 0 0 0 0 0 0 0 0 0 0 0 0 0 0 0 0 0 0 0 0 0 0 0 0 0 0 0 0 0 0 0 0 0 0 0 0 0 0 0 0 0 0 0 0 0 0 0 0 0 0 0 0 0 0 0 0 0 0 0 0 0 0 0 0 0 0 0 0 0 0 0 0 0 0 0 0 0 0 0 0 0 0 0 0 0 0 0 0 0 0 0 0 0 0 0 0 0 0 0 0 0 0 0 0 0 0 0 0 0 0 0 0 0 0 0 0 0 0 0 0 0 0 0 0 0 0 0 0 0 0 0 0 0 0 0 0 0 0 0 0 0 0 0 0 0 0 0 0 0 0 0 0 0 0 0 0 0 0 0 0 0 0 0 0 0 0 0 0 0 0 0 0 0 0 0 0 0 0 0 0 0 0 0 0 0 0 0 0 0 0 0 0 0 0 0 0 0 0 0 0 0 0 0 0 0 0 0 0 0 0 0 0 0 0 0 0 0 0 0 0 0 0 0 0 0 0 0 0 0 0 0 0 0 0 0 0 0 0 0 0 0 0 0 0 0 0 0 0 0 0 0 0 0 0 0 0 0 0 0 0 0 0 0 0 0 0 0 0 0 0 0 0 0 0 0 0 0 0 0 0 0 0 0 0 0 0 0 0 0 0 0 0 0 0 0 0 0 0 0 0 0 0 0 0 0 0 0 0 0 0 0 0 0 0 0 0 0 0 0 0 0 0 0 0 0 0 0 0 0 0 0 0 0 0 0 0 0 0 0 0 0 0 0 0 0 0 0 0 0 0 0 0 0 0 0 0 0 0 0 0 0 0 0 0 0 0 0 0 0 0 0 0 0 0 0 0 0 0 0 0 0 0 0 0 0 0 0 0 0 0 0 0 0 0 0 0 0 0 0 0 0 0 0 0 0 0 0 0 0 0 0 0 0 0 0 0 0 0 0 0 0 0 0 0 0 0 0 0 0 0 0 0 0 0 0 0 0 0 0 0 0 0 0 0 0 0 0 0 0 0 0 0 0 0 0 0 0 0 0 0 0 0 0 0 0 0 0 0 0 0 0 0 0 0 0 0 0 0 0 0 0 0 0 0 0 0 0 0 0 0 0 0 0 0 0 0 0 0 0 0 0 0 0 0 0 0 0 0 0 0 0 0 0 0 0 0 0 0 0 0 0 0 0 0 0 0 0 0 0 0 0 0 0 0 0 0 0 0 0 0 0 0 0 0 0 0 0 0 0 0 0 0 0 0 0 0 0 0 0 0 0 0 0 0 0 0 0 0 0 0 0 0 0 0 0 0 0 0 0 0 0 0 0 0 0 0 0 0 0 0 0 0 0 0 0 0 0 0 0 0 0 0 0 0 0 0 0 0 0 0 0 0 0 0 0 0 0 0 0 0 0 0 0 0 0 0 0 0 0 0 0 0 0 0 0 0 0 0 0 0 0 0 0 0 0 0 0 0 0 0 0 0 0 0 0 0 0 0 0 0 0 0 0 0 0 0 0 0 0 0 0 0 0 0 0 0 0 0 0 0 0 0 0 0 0 0 0 0 0 0 0 0 0 0 0 0 0 0 0 0 0 0 0 0 0 0 0 0 0 0 0 0 0 0 0 0 0 0 0 0 0 0 0 0 0 0 0 0 0 0 0 0 0 0 0 0 0 0 0 0 0 0 0 0 0 0 0 0 0 0 0 0 0 0 0 0 0 0 0 0 0 0 0 0 0 0 0 0 0 0 0 0 0 0 0 0 0 0 0 0 0 0 0 0 0 0 0 0 0 0 0 0 0 0 0 0 0 0 0 0 0 0 0 0 0 0 0 0 0 0 0 0 0 0 0 0 0 0 0 0 0 0 0 0 0 0 0 0 0 0 0 0 0 0 0 0 0 0 0 0 0 0 0 0 0 0 0 0 0 0 0 0 0 0 0 0 0 0 0 0 0 0 0 0 0 0 0 0 0 0 0 0 0 0 0 0 0 0 0 0 0 0 0 0 0 0 0 0 0 0 0 0 0 0 0 0 0 0 0 0 0 0 0 0 0 0 0 0 0 0 0 0 0 0 0 0 0 0 0 0 0 0 0 0 0 0 0 0 0 0 0 0 0 0 0 0 0 0 0 0 0 0 0 0 0 0 0 0 0 0 0 0 0 0 0 0 0 0 0 0 0 0 0 0 0 0 0 0 0 0 0 0 0 0 0 0 0 0 0 0 0 0 0 0 0 0 0 0 0 0 0 0 0 0 0 0 0 0 0 0 0 0 0 0 0 0 0 0 0 0 0 0 0 0 0 0 0 0 0 0 0 0 0 0 0 0 0 0 0 0 0 0 0 0 0 0 0 0 0 0 0 0 0 0 0 0 0 0 0 0 0 0 0 0 0 0 0 0 0 0 0 0 0 0 0 0 0 0 0 0 0 0 0 0 0 0 0 0 0 0 0 0 0 0 0 0 0 0 0 0 0 0 0 0 0 0 0 0 0 0 0 0 0 0 0 0 0 0 0 0 0 0 0 0 0 0 0 0 0 0 0 0 0 0 0 0 0 0 0 0 0 0 0 0 0 0 0 0 0 0 0 0 0 0 0 0 0 0 0 0 0 0 0 0 0 0 0 0 0 0 0 0 0 0 0 0 0 0 0 0 0 0 0 0 0 0 0 0 0 0 0 0 0 0 0 0 0 0 0 0 0 0 0 0 0 0 0 0 0 0 0 0 0 0 0 0 0 0 0 0 0 0 0 0 0 0 0 0 0 0 0 0 0 0 0 0 0 0 0 0 0 0 0 0 0 0 0 0 0 0 0 0 0 0 0 0 0 0 0 0 0 0 0 0 0 0 0 0 0 0 0 0 0 0 0 0 0 0 0 0 0 0 0 0 0 0 0 0 0 0 0 0 0 0 0 0 0 0 0 0 0 0 0 0 0 0 0 0 0 0 0 0 0 0 0 0 0 0 0 0 0 0 0 0 0 0 0 0 0 0 0 0 0 0 0 0 0 0 0 0 0 0 0 0 0 0 0 0 0 0 0 0 0 0 0 0 0 0 0 0 0 0 0 0 0 0 0 0 0 0 0 0 0 0 0 0 0 0 0 0 0 0 0 0 0 0 0 0 0 0 0 0 0 0 0 0 0 0 0 0 0 0 0 0 0 0 0 0 0 0 0 0 0 0 0 0 0 0 0 0 0 0 0 0 0 0 0 0 0 0 0 0 0 0 0 0 0 0 0 0 0 0 0 0 0 0 0 0 0 0 0 0 0 0 0 0 0 0 0 0 0 0 0 0 0 0 0 0 0 0 0 0 0 0 0 0 0 0 0 0 0 0 0 0 0 0 0 0 0 0 0 0 0 0 0 0 0 0 0 0 0 0 0 0 0 0 0 0 0 0 0 0 0 0 0 0 0 0 0 0 0 0 0 0 0 0 0 0 0 0 0 0 0 0 0 0 0 0 0 0 0 0 0 0 0 0 0 0 0 0 0 0 0 0 0 0 0 0 0 0 0 0 0 0 0 0 0 0 0 0 0 0 0 0 0 0 0 0 0 0 0 0 0 0 0 0 0 0 0 0 0 0 0 0 0 0 0 0 0 0 0 0 0 0 0 0 0 0 0 0 0 0 0 0 0 0 0 0 0 0 0 0 0 0 0 0 0 0 0 0 0 0 0 0 0 0 0 0 0 0 0 0 0 0 0 0 0 0 0 0 0 0 0 0 0 0 0 0 0 0 0 0 0 0 0 0 0 0 0 0 0 0 0 0 0 0 0 0 0 0 0 0 0 0 0 0 0 0 0 0 0 0 0 0 0 0 0 0 0 0 0 0 0 0 0 0 0 0 0 0 0 0 0 0 0 0 0 0 0 0 0 0 0 0 0 0 0 0 0 0 0 0 0 0 0 0 0 0 0 0 0 0 0 0 0 0 0 0 0 0 0 0 0 0 0 0 0 0 0 0 0 0 0 0 0 0 0 0 0 0 0 0 0 0 0 0 0 0 0 0 0 0 0 0 0 0 0 0 0 0 0 0 0 0 0 0 0 0 0 0 0 0 0 0 0 0 0 0 0 0 0 0 0 0 0 0 0 0 0 0 0 0 0 0 0 0 0 0 0 0 0 0 0 0 0 0 0 0 0 0 0 0 0 0 0 0 0 0 0 0 0 0 0 0 0 0 0 0 0 0 0 0 0 0 0 0 0 0 0 0 0 0 0 0 0 0 0 0 0 0 0 0 0 0 0 0 0 0 0 0 0 0 0 0 0 0 0 0 0 0 0 0 0 0 0 0 0 0 0 0 0 0 0 0 0 0 0 0 0 0 0 0 0 0 0 0 0 0 0 0 0 0 0 0 0 0 0 0 0 0 0 0 0 0 0 0 0 0 0 0 0 0 0 0 0 0 0 0 0 0 0 0 0 0 0 0 0 0 0 0 0 0 0 0 0 0 0 0 0 0 0 0 0 0 0 0 0 0 0 0 0 0 0 0 0 0 0 0 0 0 0 0 0 0 0 0 0 0 0 0 0 0 0 0 0 0 0 0 0 0 0 0 0 0 0 0 0 0 0 0 0 0 0 0 0 0 0 0 0 0 0 0 0 0 0 0 0 0 0 0 0 0 0 0 0 0 0 0 0 0 0 0 0 0 0 0 0 0 0 0 0 0 0 0 0 0 0 0 0 0 0 0 0 0 0 0 0 0 0 0 0 0 0 0 0 0 0 0 0 0 0 0 0 0 0 0 0 0 0 0 0 0 0 0 0 0 0 0 0 0 0 0 0 0 0 0 0 0 0 0 0 0 0 0 0 0 0 0 0 0 0 0 0 0 0 0 0 0 0 
GradVel 1 2975 float
0.0 0.0 0.0 0.0 0.0 0.0 0.0 0.0 0.0 0.0 0.0 0.0 0.0 -1.9060272e-12 0.0 -1.1060763000000001e-11 -7.7307785e-11 -2.3369962e-11 -1.6873526e-10 -5.4860122e-10 -2.1820315e-10 -8.5620666e-10 -2.1519055e-09 -9.073118900000001e-10 -2.8126639e-09 -6.2634737e-09 -2.636277e-09 -7.3074746e-09 -1.5258435e-08 -6.3043784e-09 -1.6514209e-08 -3.3257592e-08 -1.3470926000000002e-08 -3.4258967e-08 -6.7521839e-08 -2.6934902e-08 -6.737151600000001e-08 -1.3093839e-07 -5.1722679000000006e-08 -1.2797986e-07 -2.4623404e-07 -9.685332699999998e-08 -2.3754739999999997e-07 -4.5316142e-07 -1.7905845000000003e-07 -4.3576878e-07 -8.25239e-07 -3.3165912e-07 -8.0144787e-07 -1.5084601000000001e-06 -6.2511589e-07 -1.4974636999999999e-06 -2.7999298999999997e-06 -1.2156488e-06 -2.8611407000000003e-06 -5.2915902e-06 -2.4484883999999998e-06 -5.5410919e-06 -1.0043568e-05 -5.0242716e-06 -1.0572711999999999e-05 -1.8550503e-05 -1.9395866000000002e-05 -3.255493e-05 0.0 0.0 0.0 0.0 0.0 0.0 0.0 0.0 0.0 0.0 0.0 0.0 0.0 0.0 0.0 0.0 0.0 0.0 0.0 0.0 0.0 0.0 0.0 0.0 0.0 -3.5366511999999997e-13 -2.2805217000000002e-12 -5.4729945e-12 -8.3041143e-12 -9.987608e-12 -1.1221669e-11 -1.22306e-11 -1.688062e-11 -5.6383887e-11 -1.2234054e-10 -2.0505625e-10 -2.8845628999999997e-10 -3.5925574e-10 -4.1240245e-10 -4.5161364000000004e-10 -2.3710361e-10 -5.1210314e-10 -8.9441071e-10 -1.3399241e-09 -1.7850171e-09 -2.1785529e-09 -2.4996016e-09 -2.7515572e-09 -1.2367655e-09 -2.2745439e-09 -3.6267829e-09 -5.1542215e-09 -6.6649877e-09 -8.0136804e-09 -9.1433972e-09 -1.0059874e-08 -4.2432489e-09 -7.221324e-09 -1.0983154e-08 -1.5155505e-08 -1.924918e-08 -2.290942e-08 -2.6008522e-08 -2.8563487999999996e-08 -1.1513672e-08 -1.8760186e-08 -2.7746353e-08 -3.7592631e-08 -4.7177419e-08 -5.5728499000000005e-08 -6.3001117e-08 -6.905045799999999e-08 -2.6934657000000002e-08 -4.2739163e-08 -6.2090919e-08 -8.3073012e-08 -1.0332236e-07 -1.2131645e-07 -1.3664567e-07 -1.4946411e-07 -5.7275698999999996e-08 -8.9328942e-08 -1.2814249000000001e-07 -1.6978170999999998e-07 -2.0961026e-07 -2.4486272e-07 -2.7490361e-07 -3.0009645000000003e-07 -1.1441867999999999e-07 -1.7629289e-07 -2.5038489e-07 -2.1933208e-07 -3.3479969e-07 -4.0884328000000004e-07 -6.194799200000001e-07 -7.466246600000001e-07 -1.1239199e-06 -1.3492177000000002e-06 -2.0148363999999997e-06 -2.4465512e-06 -3.61409e-06 -4.4990575e-06 -6.548834299999999e-06 -8.4029643e-06 -1.2001001000000002e-05 -1.5730281999999998e-05 -2.2002249999999998e-05 -2.8676068e-05 -3.9457744e-05 -4.9638576000000004e-05 -6.7705594e-05 0.0 0.0 0.0 0.0 0.0 0.0 0.0 0.0 0.0 0.0 0.0 0.0 0.0 0.0 0.0 0.0 0.0 0.0 0.0 0.0 0.0 0.0 0.0 0.0 0.0 0.0 0.0 -1.3035878e-11 -1.3663204000000001e-11 -1.4139786999999999e-11 -1.4492801999999999e-11 -1.474758e-11 -1.4926187e-11 -1.5046697e-11 -1.5123028e-11 -1.5164970000000002e-11 -4.826568599999999e-10 -5.0713478e-10 -5.2598448e-10 -5.4015209e-10 -5.5052934e-10 -5.5791072e-10 -5.6296057e-10 -5.6619903e-10 -5.6799493e-10 -2.9474077e-09 -3.1015637e-09 -3.2214043e-09 -3.3124041e-09 -3.3797851e-09 -3.428239e-09 -3.4617365e-09 -3.4834124e-09 -3.4955183e-09 -1.0790719e-08 -1.1367457e-08 -1.1818147e-08 -1.2163127e-08 -1.2420753999999999e-08 -1.2607636e-08 -1.2737916999999998e-08 -1.2822843000000001e-08 -1.2870542999999998e-08 -3.0635717999999993e-08 -3.2290702999999996e-08 -3.3590567000000004e-08 -3.4591693e-08 -3.5344431000000004e-08 -3.5894312999999994e-08 -3.6280294e-08 -3.6533436e-08 -3.6676262e-08 -7.4008668e-08 -7.800610300000001e-08 -8.116624900000002e-08 -8.3612676e-08 -8.546251e-08 -8.682197e-08 -8.778182100000001e-08 -8.841465199999998e-08 -8.877311300000001e-08 -1.6004171e-07 -1.6862576999999998e-07 -1.7544824e-07 -1.8075443e-07 -1.8478624e-07 -1.8776504e-07 -1.8987939000000001e-07 -1.9128004999999997e-07 -1.9207634e-07 -3.2097137e-07 -3.3798452000000005e-07 -3.5155696e-07 -3.6215144000000003e-07 -3.702356e-07 -3.7623641e-07 -3.8051684e-07 -3.8336475e-07 -3.8498951e-07 0.0 0.0 0.0 0.0 0.0 0.0 0.0 0.0 0.0 0.0 0.0 0.0 0.0 0.0 0.0 0.0 0.0 0.0 0.0 0.0 0.0 0.0 0.0 0.0 -1.5178315e-11 -1.5164975e-11 -1.5123031e-11 -1.5046698000000003e-11 -1.4926184e-11 -1.474758e-11 -1.4492801000000001e-11 -1.4139781e-11 -5.6856925e-10 -5.6799504e-10 -5.6619903e-10 -5.629607299999999e-10 -5.579106599999999e-10 -5.5052929e-10 -5.4015209e-10 -5.2598453e-10 -3.4994039e-09 -3.4955183e-09 -3.4834124e-09 -3.4617358e-09 -3.4282388e-09 -3.3797851e-09 -3.3124039e-09 -3.2214038e-09 -1.2885893999999998e-08 -1.2870537e-08 -1.2822841e-08 -1.2737916999999998e-08 -1.2607633999999999e-08 -1.2420752e-08 -1.2163123e-08 -1.1818146e-08 -3.6722348e-08 -3.6676258e-08 -3.6533432e-08 -3.6280297999999994e-08 -3.5894312999999994e-08 -3.5344428e-08 -3.45917e-08 -3.3590556000000004e-08 -8.888905300000002e-08 -8.877309199999999e-08 -8.8414644e-08 -8.778180000000001e-08 -8.682197699999999e-08 -8.546251e-08 -8.3612669e-08 -8.116624900000002e-08 -1.9233450000000002e-07 -1.9207640999999998e-07 -1.9128004999999997e-07 -1.8987939999999997e-07 -1.8776501e-07 -1.8478620000000004e-07 -1.8075436e-07 -1.7544822e-07 -3.8551701000000003e-07 -3.8498942e-07 -3.8336475e-07 -3.805167e-07 -3.7623632999999996e-07 -3.702356e-07 -3.6215144000000003e-07 -3.5155696e-07 0.0 0.0 0.0 0.0 0.0 0.0 0.0 0.0 0.0 0.0 0.0 0.0 0.0 0.0 0.0 0.0 0.0 0.0 0.0 0.0 0.0 0.0 0.0 0.0 0.0 0.0 0.0 -1.3663201e-11 -1.303588e-11 -1.2230603e-11 -1.1221667e-11 -9.9876045e-12 -8.3041152e-12 -5.472994e-12 -2.2805215e-12 -3.5366514999999997e-13 -5.0713467e-10 -4.8265691e-10 -4.5161364000000004e-10 -4.1240239e-10 -3.5925571000000003e-10 -2.8845622999999996e-10 -2.0505622e-10 -1.2234057e-10 -5.6383872999999997e-11 -3.1015637e-09 -2.9474079e-09 -2.751557e-09 -2.4996007e-09 -2.1785524e-09 -1.7850166e-09 -1.3399242e-09 -8.944106e-10 -5.121031900000001e-10 -1.1367455e-08 -1.0790719e-08 -1.0059868000000001e-08 -9.1433963e-09 -8.0136777e-09 -6.6649877e-09 -5.154221e-09 -3.6267831e-09 -2.2745443e-09 -3.2290702999999996e-08 -3.0635714e-08 -2.8563486000000002e-08 -2.600852e-08 -2.2909415000000003e-08 -1.9249172999999998e-08 -1.5155504e-08 -1.0983152e-08 -7.2213231e-09 -7.800608900000001e-08 -7.400866099999999e-08 -6.9050465e-08 -6.300110299999999e-08 -5.5728485e-08 -4.7177419e-08 -3.7592624e-08 -2.7746348999999998e-08 -1.8760183000000003e-08 -1.6862576e-07 -1.6004168e-07 -1.494641e-07 -1.3664567e-07 -1.2131643e-07 -1.0332237e-07 -8.3072983e-08 -6.209090500000001e-08 -4.2739167e-08 -3.3798454999999995e-07 -3.2097141999999996e-07 -3.0009642e-07 -2.7490356e-07 -2.4486272e-07 -2.0961031e-07 -1.6978170000000003e-07 -1.2814253e-07 -8.9328942e-08 -2.5038489e-07 -1.7629289e-07 -3.3479971999999994e-07 -6.194798100000001e-07 -1.1239204e-06 -2.0148366e-06 -3.6140904999999997e-06 -6.548835699999999e-06 -1.2001005e-05 -2.2002256e-05 -3.9457758e-05 -6.770560900000001e-05 0.0 0.0 0.0 0.0 0.0 0.0 0.0 0.0 0.0 0.0 0.0 0.0 0.0 0.0 0.0 -1.6880618e-11 -1.906027e-12 0.0 0.0 -2.3710359e-10 -7.730779200000001e-11 -1.1060763000000001e-11 0.0 -1.2367655e-09 -5.4860128e-10 -1.6873521999999998e-10 -2.3369962e-11 -4.2432498e-09 -2.1519053e-09 -8.5620655e-10 -2.1820317999999998e-10 -1.1513673999999998e-08 -6.2634746e-09 -2.812663e-09 -9.073118900000001e-10 -2.6934662999999998e-08 -1.5258436000000003e-08 -7.3074751e-09 -2.6362776e-09 -5.727571e-08 -3.3257595999999996e-08 -1.651421e-08 -6.3043792e-09 -1.144187e-07 -6.752185300000001e-08 -3.4258959999999996e-08 -1.3470926999999999e-08 -2.1933212e-07 -1.309384e-07 -6.737150200000001e-08 -2.6934906e-08 -4.0884328000000004e-07 -2.4623408999999996e-07 -1.2797987e-07 -5.172268700000001e-08 -7.466250100000001e-07 -4.5316153e-07 -2.3754737e-07 -9.6853341e-08 -1.3492178000000001e-06 -8.252391099999999e-07 -4.3576881e-07 -1.7905845000000003e-07 -2.4465514e-06 -1.5084603000000002e-06 -8.014479799999999e-07 -3.3165909e-07 -4.4990566e-06 -2.7999304000000002e-06 -1.4974639e-06 -6.2511594e-07 -8.4029625e-06 -5.2915907e-06 -2.861141e-06 -1.2156487e-06 -1.5730286000000003e-05 -1.0043569e-05 -5.5410928e-06 -2.448488e-06 -2.8676073e-05 -1.8550505000000002e-05 -1.0572711999999999e-05 -5.0242725e-06 -4.963858e-05 -3.2554926e-05 -1.9395866000000002e-05 0.0 0.0 0.0 0.0 0.0 0.0 0.0 0.0 0.0 0.0 0.0 0.0 0.0 0.0 0.0 0.0 0.0 0.0 0.0 0.0 0.0 0.0 0.0 0.0 0.0 0.0 0.0 0.0 0.0 0.0 0.0 0.0 0.0 0.0 0.0 0.0 0.0 0.0 0.0 0.0 0.0 0.0 0.0 0.0 0.0 0.0 0.0 0.0 0.0 0.0 0.0 0.0 0.0 0.0 0.0 0.0 0.0 0.0 0.0 0.0 0.0 0.0 0.0 0.0 0.0 0.0 0.0 0.0 0.0 0.0 0.0 0.0 0.0 0.0 0.0 0.0 0.0 0.0 0.0 0.0 0.0 0.0 0.0 0.0 0.0 0.0 0.0 0.0 0.0 0.0 0.0 0.0 0.0 0.0 0.0 0.0 0.0 0.0 0.0 0.0 0.0 0.0 0.0 0.0 0.0 0.0 0.0 0.0 0.0 0.0 0.0 0.0 0.0 0.0 0.0 0.0 0.0 0.0 0.0 0.0 0.0 0.0 0.0 0.0 0.0 0.0 0.0 0.0 0.0 0.0 0.0 0.0 0.0 0.0 0.0 0.0 0.0 0.0 0.0 0.0 0.0 0.0 0.0 0.0 0.0 0.0 0.0 0.0 0.0 0.0 0.0 0.0 0.0 0.0 0.0 0.0 0.0 0.0 0.0 0.0 0.0 0.0 0.0 0.0 0.0 0.0 0.0 0.0 0.0 0.0 0.0 0.0 0.0 0.0 0.0 0.0 0.0 0.0 0.0 0.0 0.0 0.0 0.0 0.0 0.0 0.0 0.0 0.0 0.0 0.0 0.0 0.0 0.0 0.0 0.0 0.0 0.0 0.0 0.0 0.0 0.0 0.0 0.0 0.0 0.0 0.0 0.0 0.0 0.0 0.0 0.0 0.0 0.0 0.0 0.0 0.0 0.0 0.0 0.0 0.0 0.0 0.0 0.0 0.0 0.0 0.0 0.0 0.0 0.0 0.0 0.0 0.0 0.0 0.0 0.0 0.0 0.0 0.0 0.0 0.0 0.0 0.0 0.0 0.0 0.0 0.0 0.0 0.0 0.0 0.0 0.0 0.0 0.0 0.0 0.0 0.0 0.0 0.0 0.0 0.0 0.0 0.0 0.0 0.0 0.0 0.0 0.0 0.0 0.0 0.0 0.0 0.0 0.0 0.0 0.0 0.0 0.0 0.0 0.0 0.0 0.0 0.0 0.0 0.0 0.0 0.0 0.0 0.0 0.0 0.0 0.0 0.0 0.0 0.0 0.0 0.0 0.0 0.0 0.0 0.0 0.0 0.0 0.0 0.0 0.0 0.0 0.0 0.0 0.0 0.0 0.0 0.0 0.0 0.0 0.0 0.0 0.0 0.0 0.0 0.0 0.0 0.0 0.0 0.0 0.0 0.0 0.0 0.0 0.0 0.0 0.0 0.0 0.0 0.0 0.0 0.0 0.0 0.0 0.0 0.0 0.0 0.0 0.0 0.0 0.0 0.0 0.0 0.0 0.0 0.0 0.0 0.0 0.0 0.0 0.0 0.0 0.0 0.0 0.0 0.0 0.0 0.0 0.0 0.0 0.0 0.0 0.0 0.0 0.0 0.0 0.0 0.0 0.0 0.0 0.0 0.0 0.0 0.0 0.0 0.0 0.0 0.0 0.0 0.0 0.0 0.0 0.0 0.0 0.0 0.0 0.0 0.0 0.0 0.0 0.0 0.0 0.0 0.0 0.0 0.0 0.0 0.0 0.0 0.0 0.0 0.0 0.0 0.0 0.0 0.0 0.0 0.0 0.0 0.0 0.0 0.0 0.0 0.0 0.0 0.0 0.0 0.0 0.0 0.0 0.0 0.0 0.0 0.0 0.0 0.0 0.0 0.0 0.0 0.0 0.0 0.0 0.0 0.0 0.0 0.0 0.0 0.0 0.0 0.0 0.0 0.0 0.0 0.0 0.0 0.0 0.0 0.0 0.0 0.0 0.0 0.0 0.0 0.0 0.0 0.0 0.0 0.0 0.0 0.0 0.0 0.0 0.0 0.0 0.0 0.0 0.0 0.0 -3.2885387e-07 -4.0353262e-07 -4.6936390000000003e-07 -5.253971800000001e-07 -5.724228299999999e-07 -4.7090164999999996e-07 -6.1553914e-07 -7.5168339e-07 -8.7108879e-07 -9.723894399999998e-07 -1.0573001000000002e-06 -8.6568946e-07 -1.1261327e-06 -1.3695545e-06 -1.5816338000000002e-06 -1.7606635e-06 -1.9103146999999997e-06 -1.5616423000000001e-06 -2.0222396e-06 -2.4493393e-06 -2.8186282e-06 -3.1284364e-06 -3.3863876e-06 -2.7785210999999996e-06 -3.5745378999999997e-06 -4.305894e-06 -4.9343089e-06 -5.4591660000000005e-06 -5.894207299999999e-06 -4.9305331e-06 -6.263624099999999e-06 -7.4691611e-06 -8.4983531e-06 -9.360053800000001e-06 -1.007697e-05 -8.8133065e-06 -1.0963516999999999e-05 -1.284645e-05 -1.4440392999999999e-05 -1.5789232e-05 -1.6931594e-05 -1.5900734e-05 -1.9201285e-05 -2.1942132999999998e-05 -2.4241550000000002e-05 -2.6236887e-05 -2.7985729999999997e-05 -2.8687678e-05 -3.3421235e-05 -3.7067952e-05 -4.0136641e-05 -4.2942644e-05 -4.5534664000000005e-05 -5.0697831999999995e-05 -5.7006713e-05 -6.1422455e-05 -6.5284665e-05 -6.9146918e-05 -7.2946685e-05 -8.563138499999999e-05 -9.3866387e-05 -9.9048906e-05 -0.00010397457 -0.00010944028999999999 -0.00011508506999999999 -0.00013654353 -0.00014835622 -0.00015522512 -0.000162208 -0.00017039593999999998 -0.00017894016 -0.00020984121 -0.00022765783 -0.00023821402000000002 -0.00024905509999999996 -0.00026165659 -0.00027456612 -0.00032125512 -0.00034614422 -0.00036208244 -0.00037855431000000003 -0.0003973571 -0.00041630584999999997 -0.00049473962 -0.00052591553 -0.00054792373 -0.00057106162 -0.00059750176 -0.00062424433 -0.00077302154 -0.00080261042 -0.0008262435400000001 -0.00085453788 -0.0008894266199999999 -0.00092595565 -0.0011863853 -0.0012086503999999998 -0.0012316512 -0.0012646399 -0.0013096783 -0.0013588271 -0.0017827189999999999 -0.0017929045999999999 -0.0018121528 -0.0018496956 -0.0019074292999999999 -0.0019727566 -0.0026123025 -0.0026161252 -0.0026327886 -0.0026751390999999996 -0.0027475946 -0.0028322919 -0.00376616 -0.0037709571999999998 -0.0037836259999999996 -0.0038259809000000004 -0.0039120968 -0.0040184474 -0.005383053299999999 -0.0053900899 -0.0053805419999999994 -0.0054068239 -0.0055007813 -0.0056298617000000006 -0.0076289135 -0.0076198364 -0.0075554443 -0.0075369020999999994 -0.0076276949 -0.0077799377000000005 -0.010704519 -0.010641353000000001 -0.010447864 -0.010331767 -0.010403123 -0.010581877 -0.014750698999999999 -0.014585086 -0.01413635 -0.013846078999999999 -0.013884615 -0.01410595 -0.019880181 -0.019453243999999998 -0.018529909 -0.017962018 -0.017977023 -0.018292818 -0.025895847000000003 -0.024912367 -0.023159944 -0.022201341 -0.022268271 -0.022814011000000002 -0.031960979 -0.029963737 -0.026910627000000003 -0.02549929 -0.025838447999999997 -0.026898633999999998 -0.036507916 -0.032672577 -0.027798992 -0.026097264 -0.027103562 -0.029184794 -0.036340322 -0.029931046 -0.023330959 -0.021548538 -0.023788156 -0.027689416 -0.026399095 -0.017262101000000002 -0.010158412 -0.0089080706 -0.013225973 -0.020030759 0.0017268061999999999 0.010885384 0.015367426000000002 0.014612618999999999 0.007017795 -0.0040006153000000004 0.059131302000000004 0.063560724 0.058104627 0.050899357 0.038174145 0.021564597 0.1555452 0.14742956 0.11993386 0.099914186 0.079423122 0.055929538 0.27528119 0.25087067 0.19348705 0.15646479 0.12691602 0.095936492 0.37903109 0.3436228 0.26267606 0.21180087 0.17417745 0.13623679 0.44442439 0.40764299 0.31600058 0.25762114 0.21445385 0.17084767 0.47769666 0.4440951 0.35034552 0.28943205 0.24299936 0.19523463 0.48987922 0.46045005 0.36806121 0.30689874 0.25863346 0.20804712 0.48970804 0.46378332 0.37336949 0.31264329 0.26341033 0.21110746 0.48376173 0.45990819 0.37092659 0.31065989 0.26101628 0.20788382 0.475925 0.4527573 0.36449242 0.30456397 0.25493035 0.20168793 0.46891624 0.44494331 0.35639092 0.29653266 0.24723558 0.19448411 0.4570978 0.43301332 0.34563389 0.28670639 0.23833464 0.1866568 0.43967056 0.41626576 0.33162099 0.27453294 0.22765493 0.17758615 0.4163318 0.39428872 0.31379583 0.25936562 0.21448593 0.16650215 0.38760373 0.36741126 0.29221547 0.24110201 0.19863251 0.15313418 0.35493183 0.33681712 0.26772723 0.22038928 0.18062872 0.13792859 0.32026476 0.30428258 0.24171989 0.1984324 0.16157885 0.12189621 0.28554678 0.2717796 0.21579754 0.17663603 0.14278957 0.10624009 0.25214675 0.24075772 0.19134921 0.15620604 0.12536536 0.091968626 0.22070253 0.21207894 0.16919658 0.1378269 0.10992975 0.079662293 0.19104065 0.18604365 0.14959447 0.12163671 0.096598752 0.069463573 0.16340153 0.16260271 0.13246322 0.10741927 0.08515656699999999 0.061209358 0.13874133 0.1418471 0.11773358 0.094938084 0.075268634 0.054609343 0.1180566 0.12386622 0.10541666 0.084232241 0.066764168 0.04939498 0.10754349 0.095149562 0.075699933 0.059743673 0.045398392 0.091786429 0.086152583 0.06973394 0.054597627 0.042519357 0.077975988 0.066250697 0.051931385 0.0408879 0.071076527 0.064561717 0.052119106 0.041009486 0.064099506 0.054755237000000005 0.043576665 0.058462583 0.048721477 0.062342487 0.054495748 -6.1146983e-07 -6.4337405e-07 -6.6888464e-07 -6.888485599999999e-07 -7.0413239e-07 -7.1552188e-07 -7.2367988e-07 -7.291294000000001e-07 -7.32248e-07 -1.1278346e-06 -1.1855328e-06 -1.2317203000000002e-06 -1.2679166e-06 -1.2956889e-06 -1.3164407e-06 -1.3313508999999998e-06 -1.3413409e-06 -1.3470718e-06 -2.0345306000000002e-06 -2.1361572999999997e-06 -2.2175336000000003e-06 -2.2813457999999998e-06 -2.3303696000000004e-06 -2.3670661e-06 -2.3934772e-06 -2.4112072999999997e-06 -2.4213928e-06 -3.6001327000000005e-06 -3.7749304999999997e-06 -3.9148667e-06 -4.0246191e-06 -4.108997e-06 -4.1722182999999995e-06 -4.2177735000000005e-06 -4.2483803e-06 -4.265974400000001e-06 -6.2537811e-06 -6.5475501e-06 -6.7826099e-06 -6.966947700000001e-06 -7.1087406e-06 -7.2150424e-06 -7.2916887e-06 -7.3432066e-06 -7.3728297e-06 -1.0668938000000001e-05 -1.1151828e-05 -1.1537881e-05 -1.1840549e-05 -1.2073439e-05 -1.2248137e-05 -1.2374158e-05 -1.2458883e-05 -1.2507601e-05 -1.7884915e-05 -1.8662693e-05 -1.9283668999999998e-05 -1.9770257e-05 -2.0144747e-05 -2.0425858000000002e-05 -2.0628762e-05 -2.0765252e-05 -2.0843755999999998e-05 -2.9481385e-05 -3.0711308e-05 -3.1691739e-05 -3.2459149e-05 -3.3049924e-05 -3.3493699e-05 -3.3814362e-05 -3.403025e-05 -3.4154524e-05 -4.7827067e-05 -4.9738122000000004e-05 -5.1261093000000004e-05 -5.2450825000000004e-05 -5.336645e-05 -5.4054903999999994e-05 -5.4553096999999996e-05 -5.4888995e-05 -5.5082534999999996e-05 -7.641601399999999e-05 -7.9342099e-05 -8.1673083e-05 -8.3488449e-05 -8.4884181e-05 -8.5934531e-05 -8.669585800000001e-05 -8.7210232e-05 -8.750711300000001e-05 -0.00012032241000000002 -0.00012475146000000002 -0.00012826701 -0.0001309934 -0.00013308581 -0.00013466099 -0.00013580499 -0.00013657973999999998 -0.00013702788 -0.00018683016 -0.00019345376 -0.00019867278999999999 -0.00020269828 -0.00020577938 -0.00020809927 -0.00020978738 -0.00021093384999999997 -0.00021159867000000002 -0.00028630506 -0.00029605089 -0.00030366264 -0.00030949645 -0.00031394677 -0.00031729758 -0.00031974107999999997 -0.00032140571 -0.00032237353 -0.00043336221 -0.00044741655999999994 -0.00045830765 -0.00046659639 -0.00047289734000000006 -0.00047764147 -0.00048110947999999994 -0.00048348002000000003 -0.00048486207 -0.00064837624 -0.0006682372200000001 -0.00068352115 -0.00069506792 -0.00070381793 -0.0007104100099999999 -0.00071524316 -0.0007185583199999999 -0.00072049722 -0.00095940422 -0.00098696549 -0.0010080192 -0.0010238168 -0.0010357619 -0.0010447778 -0.0010514121 -0.0010559825 -0.0010586646000000002 -0.0014044895999999999 -0.0014420805999999999 -0.0014706003 -0.0014918856 -0.0015079770000000002 -0.0015201689000000002 -0.0015291874 -0.00153543 -0.0015391064 -0.0020339957 -0.0020844073 -0.0021224848000000003 -0.0021508245 -0.0021723183 -0.0021887089 -0.0022009166 -0.0022094152 -0.0022144401000000003 -0.0029127470000000003 -0.0029792874 -0.0030295108000000003 -0.003066943 -0.0030955356 -0.0031175453000000003 -0.0031340832000000002 -0.0031456714 -0.0031525493 -0.0041219885 -0.0042085941 -0.0042742556 -0.0043234951 -0.0043615215 -0.004391137 -0.0044136131 -0.0044294689000000005 -0.0044389199 -0.0057607689 -0.0058724205 -0.0059579401 -0.0060227537 -0.006073475300000001 -0.0061134589 -0.0061440831 -0.006165830400000001 -0.0061788401 -0.0079441182 -0.0080880309 -0.0081998343 -0.0082856324 -0.0083536515 -0.008407809799999999 -0.0084495703 -0.0084793577 -0.008497227 -0.010790261 -0.010978386000000001 -0.01112654 -0.011241306000000001 -0.01133308 -0.011406592 -0.011463461000000001 -0.011504091999999999 -0.011528505 -0.01438266 -0.014636966999999999 -0.014837855 -0.01499329 -0.015117668 -0.015217386000000001 -0.01529455 -0.015349679 -0.0153828 -0.018692425 -0.019055608999999998 -0.01933708 -0.019550297 -0.019718744 -0.019853216 -0.019957196 -0.020031441 -0.020076049 -0.023458816 -0.024017922999999997 -0.024430702000000002 -0.024727996000000002 -0.024955126 -0.025134128 -0.02527233 -0.025371194 -0.02543064 -0.028044387999999996 -0.028979665 -0.029624462 -0.030052206 -0.030358654 -0.030593237000000002 -0.030773407000000003 -0.030902697000000003 -0.030980708 -0.031307891000000004 -0.032969356 -0.034047514 -0.034698043 -0.035120307999999996 -0.03542557 -0.035656184 -0.035821997 -0.035922552999999996 -0.031565279 -0.034552488 -0.036429346 -0.03748022 -0.038090587 -0.038493954 -0.038787518 -0.038997509 -0.039125363999999996 -0.026744017000000002 -0.031937916000000004 -0.035182837 -0.036930211 -0.03785897 -0.03841221 -0.038790677 -0.039056703 -0.039218776000000004 -0.014854023000000001 -0.023347881 -0.028705321000000002 -0.031560451 -0.033002611 -0.033789232 -0.034288999 -0.034629505 -0.034835815 0.005264746 -0.0076551996 -0.015925388999999998 -0.020352542 -0.022542938999999998 -0.02367154 -0.024342668999999997 -0.024783136 -0.025047114 0.033152178 0.014911468999999998 0.0030664662 -0.0033362238 -0.0064917491 -0.0080705471 -0.0089668976 -0.009535715 -0.0098722801 0.066233456 0.042269837000000005 0.026527191000000002 0.017933914 0.01368583 0.011585845 0.010424863000000001 0.009705208199999999 0.0092838937 0.099970467 0.07051903799999999 0.05100756099999999 0.040275224 0.034946375 0.032321569 0.030888971 0.030012669 0.029503005 0.12900129 0.09484759 0.07210332900000001 0.059531078 0.053267967 0.050184373 0.048509948 0.047491535999999994 0.04690076 0.14910419 0.11133741 0.086127676 0.07215880599999999 0.065188035 0.061754382999999996 0.059891202000000004 0.058758639 0.058101594000000006 0.15894338 0.11869523 0.09181991199999999 0.076920033 0.069481775 0.065815002 0.063821845 0.06260729599999999 0.061901178 0.16018941 0.11846052 0.09061677 0.07518870400000001 0.06748978 0.063691601 0.061621159 0.060354806 0.059616651 0.15610215 0.11369523 0.08542755199999999 0.069779754 0.06197667900000001 0.058124735999999996 0.056019105 0.054726597 0.053971298 0.14980195 0.10733931 0.079058275 0.06341739 0.055623002000000005 0.05177376400000001 0.049665015 0.048366942 0.04760696 0.14311853 0.10110356 0.07313551 0.057677582000000005 0.049977854 0.046174135 0.044087179000000004 0.04279992 0.042045254000000004 0.13636518 0.095240638 0.06787307599999999 0.052751936 0.045220897 0.041498851 0.03945411 0.03819114 0.037450067999999996 0.12887536 0.08905355599999999 0.062558696 0.047921278 0.040629473 0.037022557000000005 0.035038419 0.033811617999999995 0.033091497000000004 0.11983267 0.081698194 0.056336001 0.042325601 0.035343129 0.031885039 0.029979851000000002 0.028800935 0.028108992000000003 0.10890744 0.07280544900000001 0.04881560099999999 0.035569098 0.028966326 0.025692906 0.023886904 0.022768835 0.02211294 0.09647040800000001 0.062689528 0.040278219 0.02791841 0.021762907999999997 0.018711619 0.017027363 0.015984725 0.015373626999999999 0.08343868 0.052186333 0.031503782 0.020122763000000002 0.014468163999999999 0.011671063 0.01012895 0.0091750398 0.0086165676 0.070895478 0.04226420400000001 0.023370607 0.013002091 0.007867978000000001 0.0053377621999999994 0.0039463774 0.0030867811 0.0025841048999999997 0.059721261 0.033665054 0.016504249 0.007099885500000001 0.0024537845000000003 0.0001717289 -0.0010794725 -0.0018511270000000002 -0.0023017316 0.050426014000000005 0.026781021000000002 0.011181606 0.0026067994 -0.0016403035 -0.0037265478000000005 -0.0048668245 -0.005567089200000001 -0.005974549799999999 0.04315530099999999 0.021723695 0.0074317288 -0.00051978044 -0.0045062071 -0.0064777248 -0.0075505702000000004 -0.008201730400000001 -0.0085769063 0.037813287 0.018443093 0.0051929047 -0.0023878412 -0.0062905056 -0.0082531013 -0.0093142241 -0.0099429525 -0.010297452 0.034198642 0.016831901 0.0044250162 -0.0030513639 -0.0070760399 -0.0091622006 -0.010285206 -0.01092751 -0.011276703999999999 0.032074034 0.016754691000000002 0.0051264009000000004 -0.002458361 -0.0068275322999999995 -0.0092025315 -0.010492893 -0.011207378 -0.011578922 0.031190113999999998 0.018029021 0.0072644334 -0.00047552864999999997 -0.005384671999999999 -0.0082409047 -0.009847050500000001 -0.010731451000000001 -0.011178263999999999 0.031217745 0.020316723999999998 0.010648399 0.0029491927 -0.0025136988000000002 -0.0060149292000000005 -0.0081089037 -0.00929779 -0.0099024074 0.031802207 0.023112345 0.014826667 0.007575330799999999 0.0018568449 -0.0022251159 -0.0049027056 -0.0065211486 -0.0073732054 0.032830052 0.025876603999999997 0.019158412 0.01283465 0.0073817186 0.0031086309 4.0315557e-05 -0.0019758868 -0.0031049821999999997 0.034910765 0.028497552000000002 0.023054846 0.017989635 0.01336366 0.0094476119 0.0064068185 0.0042569814 0.0029779044 0.039351154 0.03202628 0.026661096000000002 0.022492322999999998 0.018947343999999998 0.015873196000000003 0.013326855 0.011402495 0.010195154 0.04619825599999999 0.038198769 0.031738274 0.027095783999999998 0.023876282999999998 0.021533284 0.019707359 0.018296698 0.017372171999999998 0.051458254 0.045500755 0.039480142 0.03412044 0.030066034 0.027338397 0.025562705 0.024393231 0.023683721 0.048548214000000006 0.045757659000000006 0.042413734 0.038815174 0.035708792999999996 0.03354115 0.032220025 0.031497121 0.044725984 0.044372752 0.043364778 0.042507432000000005 0.042055756 0.041845646 0.040435717 0.041232042 0.042310987 0.043114729000000004 -7.3326237e-07 -7.3224788e-07 -7.2912934e-07 -7.2367942e-07 -7.1552199e-07 -7.0413216e-07 -6.8884867e-07 -6.6888464e-07 -1.3489386000000002e-06 -1.3470718e-06 -1.3413414e-06 -1.3313506e-06 -1.3164412e-06 -1.2956884e-06 -1.2679167e-06 -1.2317198e-06 -2.4247142e-06 -2.4213941e-06 -2.4112069e-06 -2.3934774e-06 -2.3670657000000003e-06 -2.3303699e-06 -2.2813449e-06 -2.2175334e-06 -4.2717138e-06 -4.2659735e-06 -4.2483789e-06 -4.2177717e-06 -4.1722192e-06 -4.1089978999999995e-06 -4.0246173e-06 -3.9148672e-06 -7.3824904e-06 -7.372827900000001e-06 -7.3432061e-06 -7.2916887e-06 -7.2150438e-06 -7.1087397e-06 -6.966947200000001e-06 -6.782609499999999e-06 -1.2523494e-05 -1.2507601e-05 -1.2458879999999999e-05 -1.2374157e-05 -1.2248142e-05 -1.2073439e-05 -1.1840551e-05 -1.1537881e-05 -2.0869364000000002e-05 -2.0843752e-05 -2.0765252e-05 -2.0628764e-05 -2.0425856e-05 -2.0144742000000002e-05 -1.9770248e-05 -1.9283667e-05 -3.4195058e-05 -3.4154513e-05 -3.4030243e-05 -3.3814355e-05 -3.3493696e-05 -3.3049913e-05 -3.2459175e-05 -3.1691743000000005e-05 -5.5145749e-05 -5.5082546e-05 -5.4888969e-05 -5.4553086000000006e-05 -5.4054919e-05 -5.3366435e-05 -5.2450847000000005e-05 -5.126109e-05 -8.760413e-05 -8.7507098e-05 -8.721019500000001e-05 -8.6695851e-05 -8.5934524e-05 -8.4884196e-05 -8.348851399999999e-05 -8.1673061e-05 -0.00013717451999999998 -0.00013702782 -0.00013657972 -0.00013580498 -0.00013466098 -0.00013308579 -0.00013099343 -0.00012826697 -0.00021181644 -0.00021159852999999999 -0.00021093375 -0.00020978734 -0.00020809927 -0.00020577936 -0.0002026983 -0.0001986728 -0.00032269111 -0.00032237335 -0.00032140556 -0.00031974107999999997 -0.00031729752999999996 -0.00031394683 -0.00030949647999999996 -0.00030366270000000003 -0.0004853165 -0.00048486219 -0.00048347992999999995 -0.00048110969 -0.00047764165 -0.00047289725999999995 -0.00046659627999999997 -0.00045830774000000005 -0.00072113588 -0.00072049716 -0.0007185578599999999 -0.00071524299 -0.00071041007 -0.00070381811 -0.0006950681599999999 -0.00068352098 -0.0010595495 -0.0010586649 -0.0010559825 -0.0010514121 -0.0010447778 -0.0010357618 -0.0010238169 -0.001008019 -0.0015403216 -0.0015391060000000002 -0.0015354303 -0.0015291876999999998 -0.0015201692 -0.0015079770000000002 -0.0014918846 -0.0014706001000000001 -0.0022161037 -0.0022144392 -0.0022094147 -0.0022009178 -0.0021887079 -0.002172319 -0.0021508243 -0.0021224841 -0.0031548326 -0.003152549 -0.0031456703000000003 -0.0031340828 -0.0031175469 -0.0030955363 -0.0030669422999999997 -0.0030295120000000003 -0.0044420627 -0.0044389213 -0.0044294694 -0.004413614000000001 -0.0043911384 -0.0043615187 -0.0043234946 -0.0042742556 -0.006183172099999999 -0.0061788447 -0.00616583 -0.006144085400000001 -0.0061134575 -0.0060734757999999995 -0.0060227541 -0.0059579401 -0.0085031865 -0.0084972316 -0.0084793521 -0.0084495712 -0.0084078116 -0.0083536562 -0.008285637 -0.0081998389 -0.011536652 -0.01152851 -0.011504091000000001 -0.011463458000000001 -0.011406592 -0.011333083 -0.011241309 -0.011126546999999999 -0.015393849 -0.015382802 -0.015349679 -0.01529455 -0.015217382 -0.015117668999999999 -0.014993289 -0.014837856000000002 -0.020090923 -0.020076048 -0.020031438999999998 -0.019957187 -0.019853212 -0.01971874 -0.019550305 -0.019337105 -0.02545049 -0.025430647999999997 -0.025371203 -0.025272349 -0.025134124 -0.024955116 -0.024727985 -0.024430694 -0.031006792999999998 -0.030980719 -0.030902707999999997 -0.030773396 -0.030593229 -0.030358657 -0.030052193999999997 -0.029624466000000002 -0.035956252 -0.03592255 -0.035822004 -0.035656191000000004 -0.035425548 -0.035120297 -0.03469805 -0.034047529 -0.039168391000000004 -0.039125383 -0.038997512000000005 -0.038787518 -0.038493961 -0.038090587 -0.037480224 -0.036429364 -0.03927343 -0.039218772 -0.039056707 -0.038790677 -0.038412202 -0.037858967 -0.036930189 -0.035182845 -0.034905486 -0.034835793 -0.034629505 -0.034288988 -0.033789247 -0.033002607999999996 -0.031560477 -0.028705325 -0.025136121 -0.025047125 -0.024783138 -0.02434268 -0.023671521 -0.022542942000000003 -0.020352554 -0.015925385 -0.0099854795 -0.0098722847 -0.0095357215 -0.008966898499999999 -0.008070558299999999 -0.0064917472 -0.0033362265999999996 0.0030664587 0.0091425776 0.0092838928 0.0097052054 0.010424866999999999 0.011585848999999999 0.013685836000000002 0.017933908999999998 0.026527178999999998 0.029332347 0.029503007999999997 0.030012671 0.030888972999999997 0.032321557 0.034946375 0.040275235 0.05100755 0.046703067 0.04690076 0.047491520999999995 0.048509940999999994 0.050184390999999995 0.053267947999999996 0.059531074 0.07210332900000001 0.057881568 0.058101568 0.058758654 0.059891205 0.061754382999999996 0.065188043 0.07215879900000001 0.086127669 0.061664511 0.061901167 0.062607273 0.063821808 0.06581500900000001 0.06948178299999999 0.07692007 0.091819949 0.059368949000000004 0.059616635999999994 0.060354818 0.061621148 0.063691601 0.067489773 0.075188719 0.09061677 0.053717627999999996 0.053971272 0.054726585999999994 0.056019109000000004 0.058124747000000004 0.06197667900000001 0.06977973900000001 0.08542753800000001 0.047351461 0.047606934000000004 0.048366938 0.04966504099999999 0.051773749 0.05562301 0.063417397 0.07905830400000001 0.041791413 0.042045236 0.04279992 0.044087182999999995 0.04617412 0.04997785 0.057677571 0.073135532 0.037200734 0.037450057 0.038191114 0.039454088 0.04149884 0.045220897 0.052751942999999996 0.06787307599999999 0.032849181 0.033091493 0.03381161 0.035038393 0.03702255 0.040629454 0.04792127 0.062558696 0.027876202000000003 0.028108981 0.02880094 0.029979842000000003 0.031885024 0.035343103 0.042325579 0.056335993 0.021892412000000003 0.022112943 0.022768828999999997 0.023886906 0.02569288 0.028966304 0.035569078999999997 0.048815615 0.015168339 0.015373625 0.015984727 0.017027358 0.01871161 0.021762902 0.027918413 0.040278207999999996 0.0084291445 0.0086165722 0.0091750408 0.010128947 0.011671063 0.014468159 0.020122759 0.031503782 0.0024155721 0.0025841051 0.0030867849 0.0039463784000000005 0.0053377636 0.007867973299999999 0.013002088 0.023370605 -0.0024526445 -0.0023017263 -0.0018511247 -0.0010794683 0.00017173076 0.0024537845000000003 0.0070998771 0.016504234 -0.0061107362 -0.005974545600000001 -0.005567083100000001 -0.0048668240000000005 -0.0037265469 -0.0016403021 0.0026067994 0.01118161 -0.0087017044 -0.0085769035 -0.0082017295 -0.007550564599999999 -0.0064777238 -0.0045062131 -0.0005197878900000001 0.0074317204 -0.010414119 -0.010297447 -0.009942946999999999 -0.009314226 -0.0082530975 -0.0062905024 -0.0023878552 0.0051928945 -0.011389423999999999 -0.01127671 -0.01092751 -0.010285198 -0.0091622053 -0.0070760432 -0.0030513796999999997 0.0044250013 -0.011695607 -0.011578918999999998 -0.011207378 -0.010492896000000002 -0.0092025325 -0.0068275294999999995 -0.0024583787 0.0051264018 -0.011315368000000001 -0.011178271000000002 -0.010731451000000001 -0.009847043100000001 -0.0082409037 -0.0053846743 -0.00047554169 0.007264427800000001 -0.0100874 -0.0099024028 -0.009297788100000001 -0.008108912 -0.006014930999999999 -0.0025137081 0.0029491903 0.010648391 -0.0076379874 -0.0073732035 -0.0065211481000000005 -0.0049027125 -0.0022251206 0.0018568486 0.0075753354 0.014826652 -0.0034681663 -0.0031049796 -0.0019758868 4.0315092e-05 0.0031086307 0.0073817195 0.012834655 0.019158421000000002 0.0025532651 0.0029779056 0.0042569842 0.0064068176 0.0094476137 0.013363667 0.017989647 0.023054849 0.0097860703 0.010195157 0.011402493 0.013326857 0.015873198999999998 0.018947359 0.022492331 0.026661097999999998 0.017051348 0.017372174 0.018296701999999998 0.019707378 0.021533286000000002 0.02387628 0.0270958 0.031738281 0.023442566 0.023683719 0.02439324 0.025562709 0.027338407999999998 0.030066067000000002 0.034120477999999996 0.039480172 0.03126432 0.031497143 0.032220043 0.033541168999999996 0.035708804 0.038815185 0.04241376400000001 0.045757674000000005 0.041778725 0.041845642 0.042055767 0.042507444000000005 0.043364782000000004 0.044372771 0.044725962 0.043395862 0.043114737 0.042311005 0.041232027000000004 0.040435717 -6.4337382e-07 -6.1146989e-07 -5.7242272e-07 -5.253971299999999e-07 -4.6936397999999995e-07 -4.0353268e-07 -3.2885401e-07 -1.1855325e-06 -1.1278345e-06 -1.0573001000000002e-06 -9.723894399999998e-07 -8.7108913e-07 -7.5168316e-07 -6.155393100000001e-07 -4.709017100000001e-07 -2.1361566e-06 -2.0345296000000004e-06 -1.9103152e-06 -1.7606639999999998e-06 -1.5816341e-06 -1.3695548e-06 -1.126133e-06 -8.6568957e-07 -3.7749323e-06 -3.6001327000000005e-06 -3.3863878e-06 -3.1284369e-06 -2.8186289e-06 -2.4493411e-06 -2.0222401e-06 -1.5616431e-06 -6.5475529000000005e-06 -6.2537811e-06 -5.894209200000001e-06 -5.4591678e-06 -4.9343103e-06 -4.3058949e-06 -3.5745391e-06 -2.7785217999999996e-06 -1.115183e-05 -1.0668941e-05 -1.0076972e-05 -9.3600556e-06 -8.4983549e-06 -7.4691629e-06 -6.263625400000001e-06 -4.9305331e-06 -1.8662693e-05 -1.788491e-05 -1.6931595e-05 -1.5789235e-05 -1.44404e-05 -1.2846450999999999e-05 -1.0963517999999999e-05 -8.813304699999998e-06 -3.0711325999999996e-05 -2.9481383999999998e-05 -2.7985734000000002e-05 -2.6236899e-05 -2.4241566e-05 -2.1942132999999998e-05 -1.9201289e-05 -1.5900734e-05 -4.9738152e-05 -4.7827080999999996e-05 -4.553466e-05 -4.2942651e-05 -4.013666e-05 -3.7067952e-05 -3.3421242e-05 -2.8687689e-05 -7.934217899999999e-05 -7.6416021e-05 -7.2946714e-05 -6.9146925e-05 -6.528467899999999e-05 -6.1422477e-05 -5.7006739e-05 -5.0697843000000005e-05 -0.00012475152 -0.00012032238999999999 -0.00011508506999999999 -0.00010944031999999999 -0.00010397458 -9.9048921e-05 -9.386644500000001e-05 -8.56314e-05 -0.0001934538 -0.00018683015 -0.00017894013 -0.00017039596999999997 -0.000162208 -0.00015522516 -0.00014835625 -0.00013654355 -0.00029605097000000004 -0.00028630503 -0.00027456621 -0.00026165665000000004 -0.00024905519 -0.00023821419999999998 -0.00022765792000000002 -0.00020984119 -0.00044741691 -0.00043336218 -0.00041630591 -0.00039735727 -0.00037855440000000005 -0.00036208252999999995 -0.00034614434 -0.00032125515 -0.00066823734 -0.0006483765900000001 -0.00062424445 -0.0005975017 -0.00057106168 -0.0005479239 -0.0005259157 -0.0004947398599999999 -0.00098696549 -0.0009594041 -0.0009259557699999999 -0.0008894266199999999 -0.00085453788 -0.0008262438900000001 -0.00080261065 -0.0007730217200000001 -0.0014420801000000001 -0.0014044906 -0.0013588276000000002 -0.0013096789 -0.0012646413 -0.0012316519 -0.0012086506 -0.001186386 -0.0020844089 -0.0020339959 -0.0019727576999999997 -0.0019074291 -0.0018496964000000002 -0.001812153 -0.0017929059 -0.0017827195999999999 -0.0029792876 -0.0029127484000000003 -0.0028322935 -0.0027475953000000003 -0.0026751396 -0.0026327893 -0.0026161275 -0.0026123032 -0.004208594600000001 -0.0041219885 -0.0040184497 -0.0039120987 -0.0038259809000000004 -0.0037836281 -0.0037709596 -0.0037661628000000003 -0.0058724196 -0.0057607698 -0.0056298636 -0.00550078 -0.0054068258 -0.0053805429 -0.0053900923 -0.0053830566 -0.0080880299 -0.0079441192 -0.0077799385999999995 -0.0076276958 -0.0075369026 -0.0075554446999999995 -0.007619839200000001 -0.0076289154 -0.01097839 -0.010790263000000001 -0.010581874 -0.010403123 -0.01033177 -0.010447865 -0.010641355 -0.010704522 -0.014636972 -0.014382658999999999 -0.01410595 -0.013884624 -0.013846082 -0.014136353 -0.014585086 -0.014750695 -0.019055612 -0.018692423 -0.018292818 -0.017977037 -0.017962024 -0.018529911 -0.01945325 -0.019880183 -0.024017937000000003 -0.023458822 -0.022814027999999997 -0.022268277000000003 -0.02220135 -0.023159945 -0.024912367 -0.025895857999999997 -0.028979674 -0.028044403 -0.02689863 -0.025838463 -0.025499299 -0.026910633 -0.029963735 -0.03196099 -0.032969367 -0.031307906 -0.029184792 -0.027103568999999997 -0.026097272 -0.027798977000000002 -0.032672592 -0.036507927 -0.034552503 -0.031565316 -0.027689427000000003 -0.023788171 -0.021548571000000002 -0.023330972999999998 -0.029931042 -0.036340345 -0.031937897 -0.026744023 -0.020030773999999998 -0.013225978000000001 -0.0089080706 -0.010158430999999999 -0.017262114 -0.026399087 -0.023347866000000002 -0.014854063999999998 -0.0040006377 0.0070177801 0.014612596 0.015367418999999998 0.010885384 0.0017267913 -0.0076552089 0.0052647442 0.021564579 0.038174145 0.050899312 0.058104645 0.063560724 0.05913130900000001 0.014911448999999998 0.0331522 0.055929542 0.079423115 0.099914134 0.11993383 0.14742951 0.15554518 0.042269845 0.06623343400000001 0.095936492 0.12691596 0.15646474 0.19348706 0.2508707 0.27528131 0.070519015 0.09997045199999999 0.13623677 0.17417748 0.21180074 0.26267612 0.3436228 0.37903106 0.094847575 0.12900126 0.17084765 0.21445383 0.25762117 0.31600043 0.40764302 0.44442454 0.11133744 0.14910421 0.19523461 0.24299923 0.28943196 0.35034573 0.44409496 0.47769672 0.11869521 0.15894338 0.20804718 0.25863335 0.30689868 0.36806116 0.46045008 0.48987931 0.11846051 0.16018936 0.21110743 0.26341039 0.31264329 0.37336934 0.46378338 0.48970798 0.11369524 0.15610209 0.20788375 0.26101631 0.31065983 0.37092644 0.4599081 0.48376179 0.1073393 0.14980197 0.20168787 0.25493032 0.30456394 0.36449242 0.45275742 0.47592506 0.10110356 0.1431185 0.1944841 0.24723566 0.29653263 0.3563908 0.44494316 0.46891612 0.095240645 0.13636512 0.18665677 0.2383346 0.28670633 0.34563395 0.43301332 0.45709759 0.089053601 0.12887539 0.1775862 0.22765486 0.27453303 0.33162111 0.41626564 0.43967053 0.081698246 0.11983276 0.16650212 0.21448591 0.25936568 0.31379598 0.39428869 0.41633195 0.072805464 0.10890741 0.15313424 0.19863243 0.24110202 0.2922155 0.36741132 0.38760367 0.06268952 0.09647041599999999 0.13792859 0.18062873 0.22038929 0.26772723 0.33681715 0.35493189 0.052186362 0.083438717 0.12189621 0.1615788 0.19843236 0.24172001 0.30428258 0.32026497 0.042264182000000004 0.07089541099999999 0.10624007 0.14278956 0.17663604 0.21579751 0.27177954 0.2855469 0.033665076 0.059721209000000004 0.09196863300000001 0.12536538 0.15620591 0.19134916 0.24075767 0.25214684 0.026781022999999998 0.050426005999999995 0.079662263 0.10992973 0.13782687 0.16919662 0.21207885 0.22070254 0.02172368 0.043155279000000005 0.06946353599999999 0.09659869199999999 0.1216367 0.14959449 0.18604362 0.19104066 0.018443085 0.03781328 0.061209355 0.085156552 0.10741926 0.13246317 0.16260271 0.16340153 0.016831882 0.034198627 0.05460934 0.075268611 0.094938055 0.1177335 0.1418471 0.13874136 0.016754678999999998 0.032074027000000005 0.049394939000000006 0.066764176 0.084232233 0.10541661 0.12386615 0.11805661 0.018029027 0.031190142 0.045398403 0.05974365 0.075699896 0.095149562 0.10754357 0.020316716000000002 0.031217732 0.042519327 0.054597624000000004 0.06973391799999999 0.086152613 0.091786385 0.023112336 0.031802215 0.040887902999999996 0.051931366 0.066250712 0.077976018 0.025876606 0.032830041000000004 0.041009475 0.052119106 0.064561695 0.07107652 0.028497558 0.034910746 0.043576675999999995 0.054755240999999996 0.064099491 0.032026302 0.03935118 0.048721477 0.058462597000000005 0.038198777 0.046198279 0.054495752 0.062342506 0.04550078900000001 0.051458225 0.048548222 
VonMises3D 1 2975 float
0.0 0.0 0.0 0.0 0.0 0.0 0.0 0.0 0.0 0.0 0.0 0.0 0.0 6.354318499999999e-11 0.0 5.6044613e-10 3.1870999e-09 1.4851392e-09 1.0325536e-08 2.7098765999999998e-08 1.6306691e-08 6.1595721e-08 1.2528187e-07 7.953980199999999e-08 2.3748429e-07 4.3035206000000005e-07 2.7289784e-07 7.2845398e-07 1.244908e-06 7.747241899999998e-07 1.9514594e-06 3.2318706000000004e-06 1.9662559e-06 4.7971043e-06 7.8026369e-06 4.6511514e-06 1.1128345e-05 1.7887762e-05 1.0488345999999998e-05 2.4745740999999998e-05 3.9412833e-05 2.2801025e-05 5.3169504e-05 8.4009327e-05 4.8060398999999995e-05 0.00011086408 0.00017416039 0.00010084655 0.00022561946 0.00035484077000000005 0.00025219651 0.00046575759000000005 0.0007217857099999999 0.00091244257 0.0011482753 0.0014790016 0.0036382431 0.0036943257000000003 0.0029916351 0.012876176999999999 0.011993803999999999 0.0057245791 0.032699216 0.010886373000000001 0.0 0.0 0.0 0.0 0.0 0.0 0.0 0.0 0.0 0.0 0.0 0.0 0.0 0.0 0.0 0.0 0.0 0.0 0.0 0.0 0.0 0.0 0.0 0.0 0.0 3.8929259e-12 1.1222623e-11 3.5619758e-12 1.6956842e-11 2.5143051e-11 2.7521746999999996e-11 2.8925189000000002e-11 3.9488067999999996e-10 8.1608453e-10 9.0171859e-10 4.8559246e-10 2.6068717e-10 9.96355e-10 1.4022673e-09 1.4797527e-09 6.7911508e-09 8.9026626e-09 7.9894997e-09 4.0893759e-09 1.5061372e-09 6.8029742e-09 1.0229780000000002e-08 1.1581382e-08 4.2277453000000004e-08 4.7355552e-08 3.9134739999999996e-08 1.9106276999999998e-08 6.9180146e-09 3.0626438e-08 4.585312e-08 5.2117336e-08 1.7195741000000001e-07 1.7939203e-07 1.4211831e-07 6.7374657e-08 2.4934096999999998e-08 1.0731272e-07 1.595992e-07 1.8044221000000002e-07 5.5479774e-07 5.5804253e-07 4.3241522e-07 2.0209523999999998e-07 7.4488362e-08 3.1803452000000003e-07 4.7117925e-07 5.3042089e-07 1.5534625e-06 1.5332131e-06 1.174699e-06 5.4617158e-07 1.9541021e-07 8.413176700000001e-07 1.244166e-06 1.3964335e-06 3.9635074e-06 3.8734706e-06 2.9499987999999996e-06 1.3697211999999998e-06 4.7006344e-07 2.0570553000000002e-06 3.0404426e-06 3.4060231e-06 9.4753441e-06 9.211704300000001e-06 6.9873372e-06 2.1578877e-05 2.0909751e-05 4.7286525000000004e-05 4.5690653000000004e-05 0.00010028492 9.663585699999999e-05 0.0002071207 0.00019895074 0.00042988482000000004 0.00042116371 0.0009989024800000001 0.0011347933 0.0028175102 0.0038978008 0.008392400999999999 0.012956666 0.022308322000000002 0.03684542 0.048641849 0.085613444 0.0 0.0 0.0 0.0 0.0 0.0 0.0 0.0 0.0 0.0 0.0 0.0 0.0 0.0 0.0 0.0 0.0 0.0 0.0 0.0 0.0 0.0 0.0 0.0 0.0 0.0 0.0 2.9656947e-11 2.9921617e-11 2.9896207e-11 2.9725413e-11 2.9507875e-11 2.9301551e-11 2.9134375e-11 2.9015918e-11 2.8946526000000002e-11 1.4604814e-09 1.4126368e-09 1.3525406e-09 1.2915906e-09 1.2371355e-09 1.1928775e-09 1.1598118e-09 1.1374063e-09 1.1245834e-09 1.1460032e-08 1.0842155e-08 1.0120033000000001e-08 9.4088657e-09 8.7796357e-09 8.268362e-09 7.8849274e-09 7.6237141e-09 7.4734787e-09 5.2134367999999994e-08 4.8954778e-08 4.4971155999999996e-08 4.1059135e-08 3.7592148e-08 3.4761133e-08 3.2624371000000004e-08 3.115942e-08 3.0312527999999997e-08 1.7983964999999998e-07 1.6845973999999997e-07 1.5330964e-07 1.3832567e-07 1.2500226e-07 1.1407052e-07 1.0577324000000001e-07 1.0005376000000001e-07 9.673296800000001e-08 5.2579793e-07 4.901157199999999e-07 4.4354671999999993e-07 3.9697488e-07 3.5544170000000004e-07 3.2123134e-07 2.9514794000000004e-07 2.7708802e-07 2.6656477e-07 1.3782273999999999e-06 1.2783638e-06 1.1516369e-06 1.0247892000000001e-06 9.114104399999999e-07 8.1773607e-07 7.4604986e-07 6.9622945e-07 6.6711004e-07 3.3510582e-06 3.0961598e-06 2.7789049e-06 2.462795e-06 2.1798022999999997e-06 1.9453992e-06 1.7654377e-06 1.6399445e-06 1.5663883999999998e-06 0.0 0.0 0.0 0.0 0.0 0.0 0.0 0.0 0.0 0.0 0.0 0.0 0.0 0.0 0.0 0.0 0.0 0.0 0.0 0.0 0.0 0.0 0.0 0.0 2.8923810999999998e-11 2.8946538e-11 2.9015925e-11 2.9134382000000003e-11 2.9301544e-11 2.9507875e-11 2.9725424e-11 2.9896214e-11 1.120426e-09 1.1245835e-09 1.1374062e-09 1.1598119e-09 1.1928775e-09 1.2371356e-09 1.2915917e-09 1.3525416e-09 7.4246218e-09 7.4734778e-09 7.6237132e-09 7.8849274e-09 8.2683647e-09 8.7796419e-09 9.4088701e-09 1.0120039000000001e-08 3.0036322e-08 3.0312523999999995e-08 3.1159427e-08 3.2624381e-08 3.476114299999999e-08 3.7592176e-08 4.1059167e-08 4.4971184e-08 9.564734399999999e-08 9.673300400000001e-08 1.0005378e-07 1.0577328999999998e-07 1.1407059e-07 1.2500236e-07 1.3832575e-07 1.533097e-07 2.631175e-07 2.6656483e-07 2.7708813e-07 2.9514808e-07 3.2123157e-07 3.5544207e-07 3.9697511e-07 4.4354694999999997e-07 6.5755461e-07 6.6711027e-07 6.9622956e-07 7.4605038e-07 8.1773641e-07 9.114110100000001e-07 1.0247899e-06 1.1516373000000001e-06 1.5422115e-06 1.5663883999999998e-06 1.6399447000000001e-06 1.7654387e-06 1.9454012e-06 2.1798039e-06 2.4627967999999998e-06 2.7789054e-06 0.0 0.0 0.0 0.0 0.0 0.0 0.0 0.0 0.0 0.0 0.0 0.0 0.0 0.0 0.0 0.0 0.0 0.0 0.0 0.0 0.0 0.0 0.0 0.0 0.0 0.0 0.0 2.9921621000000004e-11 2.9656947e-11 2.8925183000000002e-11 2.7521742e-11 2.5143049e-11 1.6956851e-11 3.5619722999999997e-12 1.1222624e-11 3.8929246e-12 1.4126372e-09 1.4604815e-09 1.4797522e-09 1.4022666e-09 9.9635489e-10 2.6068711e-10 4.855926200000001e-10 9.0171842e-10 8.160840900000001e-10 1.0842160999999999e-08 1.1460033999999999e-08 1.1581378e-08 1.0229777e-08 6.8029697e-09 1.506136e-09 4.0893764e-09 7.9894988e-09 8.9026582e-09 4.8954785000000005e-08 5.2134361e-08 5.2117315e-08 4.5853113e-08 3.0626427999999997e-08 6.9180053e-09 1.9106283e-08 3.913473600000001e-08 4.7355552e-08 1.6845979e-07 1.7983964999999998e-07 1.8044217e-07 1.5959914e-07 1.0731266999999998e-07 2.4934060000000003e-08 6.7374692e-08 1.4211832e-07 1.7939198999999999e-07 4.901158399999999e-07 5.2579776e-07 5.3042078e-07 4.7117913000000003e-07 3.1803434999999995e-07 7.4488263e-08 2.0209532e-07 4.3241515999999997e-07 5.5804242e-07 1.2783638e-06 1.3782269999999999e-06 1.3964334e-06 1.2441657e-06 8.413175600000001e-07 1.9541004000000001e-07 5.4617163e-07 1.1746988e-06 1.5332131e-06 3.0961604999999995e-06 3.3510587000000005e-06 3.4060231e-06 3.0404410000000002e-06 2.0570542e-06 4.7006324e-07 1.3697213e-06 2.9499975e-06 3.8734697e-06 6.9873367000000006e-06 9.211700699999998e-06 2.0909749e-05 4.5690645e-05 9.663585699999999e-05 0.00019895071 0.00042116379999999995 0.0011347935 0.0038978038 0.012956671999999999 0.036845433999999996 0.085613489 0.0 0.0 0.0 0.0 0.0 0.0 0.0 0.0 0.0 0.0 0.0 0.0 0.0 0.0 0.0 3.9488054e-10 6.354318499999999e-11 0.0 0.0 6.7911503e-09 3.187099e-09 5.6044597e-10 0.0 4.2277437999999996e-08 2.7098765999999998e-08 1.0325534999999998e-08 1.4851387e-09 1.719574e-07 1.2528186e-07 6.1595706e-08 1.6306691e-08 5.5479774e-07 4.3035206000000005e-07 2.3748415999999998e-07 7.9539788e-08 1.5534622e-06 1.244908e-06 7.2845398e-07 2.7289781e-07 3.9635065e-06 3.2318706000000004e-06 1.9514591e-06 7.747239600000001e-07 9.4753404e-06 7.802636e-06 4.797103400000001e-06 1.966255e-06 2.1578877e-05 1.7887762e-05 1.1128341e-05 4.6511514e-06 4.7286514e-05 3.9412836e-05 2.4745740999999998e-05 1.0488344e-05 0.00010028495 8.4009298e-05 5.3169493e-05 2.2801023e-05 0.00020712063999999997 0.00017416035 0.00011086403999999999 4.8060398999999995e-05 0.00042988482000000004 0.00035484071 0.00022561943 0.00010084655999999999 0.0009989024800000001 0.0007217857099999999 0.00046575770999999995 0.00025219657000000005 0.0028175095000000003 0.0014790015 0.0011482752 0.00091244245 0.008392402 0.0029916342 0.0036943264 0.0036382438 0.02230832 0.0057245785999999995 0.011993803999999999 0.012876183000000001 0.048641845999999996 0.010886373000000001 0.032699227000000004 0.0 0.0 0.0 0.0 0.0 0.0 0.0 0.0 0.0 0.0 0.0 0.0 0.0 0.0 0.0 0.0 0.0 0.0 0.0 0.0 0.0 0.0 0.0 0.0 0.0 0.0 0.0 0.0 0.0 0.0 0.0 0.0 0.0 0.0 0.0 0.0 0.0 0.0 0.0 0.0 0.0 0.0 0.0 0.0 0.0 0.0 0.0 0.0 0.0 0.0 0.0 0.0 0.0 0.0 0.0 0.0 0.0 0.0 0.0 0.0 0.0 0.0 0.0 0.0 0.0 0.0 0.0 0.0 0.0 0.0 0.0 0.0 0.0 0.0 0.0 0.0 0.0 0.0 0.0 0.0 0.0 0.0 0.0 0.0 0.0 0.0 0.0 0.0 0.0 0.0 0.0 0.0 0.0 0.0 0.0 0.0 0.0 0.0 0.0 0.0 0.0 0.0 0.0 0.0 0.0 0.0 0.0 0.0 0.0 0.0 0.0 0.0 0.0 0.0 0.0 0.0 0.0 0.0 0.0 0.0 0.0 0.0 0.0 0.0 0.0 0.0 0.0 0.0 0.0 0.0 0.0 0.0 0.0 0.0 0.0 0.0 0.0 0.0 0.0 0.0 0.0 0.0 0.0 0.0 0.0 0.0 0.0 0.0 0.0 0.0 0.0 0.0 0.0 0.0 0.0 0.0 0.0 0.0 0.0 0.0 0.0 0.0 0.0 0.0 0.0 0.0 0.0 0.0 0.0 0.0 0.0 0.0 0.0 0.0 0.0 0.0 0.0 0.0 0.0 0.0 0.0 0.0 0.0 0.0 0.0 0.0 0.0 0.0 0.0 0.0 0.0 0.0 0.0 0.0 0.0 0.0 0.0 0.0 0.0 0.0 0.0 0.0 0.0 0.0 0.0 0.0 0.0 0.0 0.0 0.0 0.0 0.0 0.0 0.0 0.0 0.0 0.0 0.0 0.0 0.0 0.0 0.0 0.0 0.0 0.0 0.0 0.0 0.0 0.0 0.0 0.0 0.0 0.0 0.0 0.0 0.0 0.0 0.0 0.0 0.0 0.0 0.0 0.0 0.0 0.0 0.0 0.0 0.0 0.0 0.0 0.0 0.0 0.0 0.0 0.0 0.0 0.0 0.0 0.0 0.0 0.0 0.0 0.0 0.0 0.0 0.0 0.0 0.0 0.0 0.0 0.0 0.0 0.0 0.0 0.0 0.0 0.0 0.0 0.0 0.0 0.0 0.0 0.0 0.0 0.0 0.0 0.0 0.0 0.0 0.0 0.0 0.0 0.0 0.0 0.0 0.0 0.0 0.0 0.0 0.0 0.0 0.0 0.0 0.0 0.0 0.0 0.0 0.0 0.0 0.0 0.0 0.0 0.0 0.0 0.0 0.0 0.0 0.0 0.0 0.0 0.0 0.0 0.0 0.0 0.0 0.0 0.0 0.0 0.0 0.0 0.0 0.0 0.0 0.0 0.0 0.0 0.0 0.0 0.0 0.0 0.0 0.0 0.0 0.0 0.0 0.0 0.0 0.0 0.0 0.0 0.0 0.0 0.0 0.0 0.0 0.0 0.0 0.0 0.0 0.0 0.0 0.0 0.0 0.0 0.0 0.0 0.0 0.0 0.0 0.0 0.0 0.0 0.0 0.0 0.0 0.0 0.0 0.0 0.0 0.0 0.0 0.0 0.0 0.0 0.0 0.0 0.0 0.0 0.0 0.0 0.0 0.0 0.0 0.0 0.0 0.0 0.0 0.0 0.0 0.0 0.0 0.0 0.0 0.0 0.0 0.0 0.0 0.0 0.0 0.0 0.0 0.0 0.0 0.0 0.0 0.0 0.0 0.0 0.0 0.0 0.0 0.0 0.0 0.0 0.0 0.0 0.0 0.0 0.0 0.0 0.0 0.0 0.0 0.0 0.0 0.0 0.0 0.0 0.0 0.0 0.0 0.0 0.0 0.0 0.0 0.0 0.0 0.0 0.0 0.0 0.0 0.0 0.0 0.0 0.0 0.0 0.0 0.0 0.0 0.0 0.0 0.0 0.0 0.0 0.0 0.0 0.0 0.0 0.0 0.0 0.0 0.0 3.2304615e-06 1.060949e-06 4.747561e-06 7.0232231e-06 7.8599269e-06 1.5612546e-05 7.3208735000000005e-06 2.2760794e-06 1.0490505000000001e-05 1.5549791e-05 1.7395292e-05 3.4017368e-05 1.6030737e-05 4.7021276e-06 2.2398850000000003e-05 3.3275410000000004e-05 3.7212369e-05 7.1737159e-05 3.395601e-05 9.4771012e-06 4.6446181e-05 6.910550299999999e-05 7.7230558e-05 0.00014695915 6.9681373e-05 1.9043269e-05 9.391189099999999e-05 0.0001396389 0.00015581396 0.00031570563 0.00015942780000000002 5.6167137e-05 0.00018687946 0.00027561537 0.00030633251 0.0009816325 0.0006421755 0.00033170584 0.00038758843000000003 0.00053553242 0.0005892528599999999 0.0038022499 0.0027976125 0.0015799192000000002 0.0009794631 0.0010438041 0.0011148304 0.013071997 0.0097972956 0.0056034485 0.0028119835 0.0020989995 0.0020852706 0.037225336 0.027580202 0.015558486000000002 0.007294924 0.0042999308 0.0038647240000000004 0.08598283699999999 0.06274531 0.034609631 0.015725371999999998 0.0084434031 0.0070669283 0.15867163 0.11499711 0.0621062 0.027898323 0.015297576 0.012660463 0.23623037 0.17025799 0.090243846 0.041595823999999997 0.025999348999999998 0.022167573 0.28853559 0.20408823 0.10699622 0.056143329000000006 0.043376978 0.037981741 0.2850242 0.19533926 0.10899445 0.079677261 0.072635092 0.063718185 0.21473572 0.15027586 0.12284328 0.12702037 0.1207072 0.10473436 0.11878381 0.14346424 0.19019605 0.20979567 0.19708827 0.1691236 0.12099998 0.23271208 0.31486869 0.34096384 0.3163636 0.26926249 0.2260035 0.39092305 0.51104957 0.54567432 0.50191331 0.42448616 0.42018437 0.64838415 0.8196739 0.86589772 0.79129851 0.66599858 0.76605129 1.0587238 1.3050057 1.3714608999999998 1.2480856000000002 1.0460958 1.2762923000000002 1.6775948 2.0708256 2.1847107000000006 1.9837718 1.6545773000000001 1.9599512 2.6193337000000003 3.3175476 3.5319293 3.1984174 2.6460612 3.0945642 4.1537066 5.4365139000000005 5.8340912000000005 5.250114 4.284968900000001 4.7302847 6.734972999999999 9.154478999999998 9.8580933 8.773469 7.0202909 7.2363062000000005 11.271756 15.80996 16.963734 14.875376999999999 11.615328 11.954861 19.742758 27.793831 29.421267999999998 25.356932 19.335928 21.157654 35.660004 48.767952 50.371258000000005 42.876984 32.11158 40.508587 64.712837 82.665718 83.697769 70.816811 52.468593999999996 81.893776 116.01357 135.23796000000002 133.57986 112.58421000000001 83.027847 169.0963 204.20012 213.19582000000003 203.59004 170.58595 125.60878000000001 340.99554 356.90555 328.659 296.17899 244.95233 180.1431 633.28949 596.8576 487.68335 410.86325 332.82205 243.9545 995.3168900000001 888.55334 670.63361 535.73871 426.62384000000003 311.7446 1296.4387 1139.5745 835.89996 653.3443 516.1478900000001 376.71063 1474.0453 1304.3621 959.50665 750.3312400000001 593.00763 433.00613 1561.069 1398.4751 1042.745 822.9538 652.7394400000001 477.08755 1599.057 1449.1455 1095.396 872.75446 694.66138 508.08633 1612.6332 1474.1276 1125.55 902.99091 720.4531900000001 527.11792 1614.7328 1483.2495 1138.9878 917.2960800000001 732.77655 536.1646099999999 1609.2338 1480.5417 1139.1392 918.62042 734.0878299999999 537.0880099999999 1601.7228 1470.499 1128.8912 909.05994 726.04767 531.1037 1570.1324 1439.882 1104.054 888.34229 709.26404 518.76672 1514.3855 1388.8009 1064.9481 856.89441 684.12012 500.34520999999995 1436.2537 1318.6123 1012.4321 815.3312400000001 651.08344 476.16724000000005 1338.8475 1231.7355 948.05426 764.72858 610.97717 446.83289 1226.5031 1131.6151 874.04401 706.69464 565.05383 413.28143 1103.8948 1022.1558 793.01288 643.22009 514.93622 376.75793 975.67615 907.83783 708.04285 576.60077 462.48508 338.70746 846.05072 792.9715 622.6813400000001 509.41525 409.68613 300.63773 718.67676 681.6247599999999 540.2907700000001 444.11844 358.38842999999997 263.94086 595.7644700000001 577.14362 463.71414000000004 382.6944 310.01852 229.6756 479.88239000000004 481.48795 394.75597999999997 326.36768 265.39218 198.38173 373.42963 395.31863 333.85886 275.6828 224.76924 170.13237 279.44903999999997 318.48669 280.32797 230.86772000000002 188.31351999999998 144.77686 249.09302999999997 232.85876000000002 192.37888 156.44586 122.299 185.29922 189.17372 160.40863000000002 129.80978000000002 102.87669 146.75791999999998 133.04373 108.56138999999999 86.683212 108.22925 105.86748999999999 91.01334399999999 73.395096 79.234024 73.198616 61.684490000000004 54.386481999999994 48.601795 50.082394 34.553596 7.716153e-06 7.1086697e-06 6.3624225e-06 5.6226691e-06 4.9599575999999995e-06 4.4098633e-06 3.9862853e-06 3.6899755e-06 3.5158307000000003e-06 1.7049004e-05 1.5671561e-05 1.3996878e-05 1.2344894e-05 1.0865254e-05 9.6350559e-06 8.685318800000002e-06 8.0190111e-06 7.6264355e-06 3.6415171e-05 3.340458e-05 2.9780810999999998e-05 2.6225112e-05 2.3044313e-05 2.0397551000000002e-05 1.8350028999999998e-05 1.6909977e-05 1.6059657e-05 7.5444848e-05 6.9059352e-05 6.145638299999999e-05 5.404219e-05 4.7425487999999996e-05 4.1920481e-05 3.7656446e-05 3.4651839e-05 3.2874494e-05 0.0001518778 0.00013868956 0.00012318198999999999 0.00010816969 9.481880999999999e-05 8.372368e-05 7.5126431e-05 6.9061454e-05 6.546918300000001e-05 0.00029758584999999997 0.0002709277 0.00024009976000000002 0.00021053226000000003 0.00018436128 0.00016265856000000003 0.00014585108 0.00013398989 0.0001269597 0.0005690178400000001 0.0005157814599999999 0.00045577832 0.00039898322 0.00034904986 0.00030777938 0.00027586397 0.00025335094 0.0002400071 0.0010654045 0.0009593364100000001 0.00084428885 0.0007374867599999999 0.000644513 0.0005680473400000001 0.0005090535299999999 0.00046748412000000006 0.0004428571599999999 0.0019595784 0.0017478042000000002 0.0015295505 0.0013321873000000002 0.0011627553 0.0010243697999999999 0.00091794936 0.0008430686999999999 0.0007987352400000001 0.0035470487 0.0031252452 0.0027154833 0.0023563199 0.00205338 0.0018081479999999999 0.0016203125 0.0014883467999999998 0.001410253 0.0063211796999999995 0.005491219499999999 0.0047318381 0.0040881136 0.003555927 0.0031295288 0.0028043468 0.002576188 0.0024411823 0.011080673000000001 0.0094854375 0.0081023918 0.0069676703 0.0060486509 0.0053200377 0.0047666305 0.0043786177 0.0041489163 0.019076021000000002 0.016107128999999998 0.013643841 0.011681191 0.01012155 0.0088965055 0.0079686707 0.0073178913 0.0069321357 0.032212357999999996 0.026884109 0.022608873999999998 0.019285627 0.016685603 0.014656568 0.013120653999999999 0.012041163999999998 0.011399786 0.053354970999999994 0.044124164 0.036900636 0.031397123 0.027137913 0.023821687 0.021304748999999998 0.019528501 0.018469442 0.086814716 0.071303762 0.059408762000000004 0.050485216 0.043615247999999995 0.038251426 0.034155041000000004 0.031246347 0.029504389 0.13911478 0.11369637 0.094549045 0.08033618299999999 0.069382608 0.06076097900000001 0.054114651 0.049359903 0.046498772 0.22021542 0.1794188 0.14913981 0.12677658 0.10941318 0.095575169 0.084788553 0.077013947 0.07231610299999999 0.34570968 0.28119692 0.23380953 0.19877043 0.17121924 0.14894384 0.1313999 0.11868321 0.1109799 0.54070187 0.43928316 0.36516878 0.3099868 0.26595399 0.22990763 0.20132974 0.18057202 0.1679991 0.84641361 0.6860016 0.56884724 0.4808003 0.40968671 0.35110861 0.30464563 0.27098569 0.25066289 1.3309083000000002 1.0721114999999999 0.88309336 0.74029285 0.62450105 0.52934068 0.45437533 0.40046832 0.36812052 2.1051137000000004 1.6747290000000001 1.3619237 1.1271363 0.93848437 0.78524953 0.66604435 0.58129328 0.53086174 3.3462811 2.6060072999999995 2.0761464 1.6876997999999999 1.3832506000000002 1.141035 0.95574492 0.82571566 0.74905515 5.3355284 4.0248151 3.111527 2.4698037999999998 1.9875571 1.6152371 1.3358896999999998 1.1424334999999999 1.0293375 8.5277138 6.1619663000000005 4.569397 3.5140447999999997 2.7672982000000004 2.2142638999999997 1.8087236 1.5312456 1.3701564 13.672267000000002 9.379508999999999 6.5842962 4.8513641 3.7169902 2.9235785 2.3588292999999996 1.9771261999999998 1.7565811000000002 21.946426000000002 14.255857 9.366828 6.5177302 4.8107505 3.7042512999999997 2.9487865 2.4459999 2.1564951 34.961467999999996 21.624146 13.240454999999999 8.5794039 6.0152454 4.498138900000001 3.5210536 2.8850994 2.5203233 54.480198 32.453734999999995 18.613976 11.14204 7.3066087 5.2417135 4.0075612000000005 3.2301092000000002 2.7868266 81.786537 47.515465 25.845032 14.317185999999998 8.677976600000001 5.884023200000001 4.3470892999999995 3.4203242999999994 2.8969883999999997 116.92924 66.920349 35.019531 18.143696 10.128677 6.4010072000000005 4.5056357 3.4190712 2.8138466 158.15916 89.755913 45.759834000000005 22.504147 11.639982 6.799635899999999 4.4917574 3.2324843 2.5421386000000004 201.99788 114.09501000000002 57.201308999999995 27.099344 13.159424 7.113542999999999 4.3608975 2.9188221000000003 2.1397468999999996 244.09063999999998 137.49393999999998 68.218941 31.527503999999997 14.615689999999999 7.3970618 4.2063613 2.5811541 1.7121446 280.57513 157.76735 77.803673 35.430546 15.953285999999999 7.7144008 4.1332836 2.3375888 1.3820673 309.09058 173.59251 85.346176 38.592636 17.140219000000002 8.1086216 4.2131581 2.2711959 1.2379533999999999 329.06091000000004 184.66879 90.702263 40.949669 18.149683 8.5706396 4.4471345 2.3902428 1.2927997 341.26038 191.45332 94.06505600000001 42.539646000000005 18.946870999999998 9.039794 4.7700667 2.6322653 1.4873629 347.03326 194.69926 95.752655 43.435009 19.490496 9.4327087 5.0878401 2.9030001 1.7289703 347.6011 195.06447 96.036102 43.695248 19.74428 9.677954699999999 5.319570099999999 3.120311 1.9357332999999999 343.72635 192.94232 95.074554 43.357189 19.692184 9.740782699999999 5.4251657 3.2426205 2.0654242 335.74789 188.50173999999998 92.941948 42.451275 19.348034 9.6293983 5.4103947 3.2739449 2.1207986 323.81992 181.82483 89.69079599999999 41.020416 18.752726000000003 9.3835306 5.312918700000001 3.2495701 2.1354117 308.14898999999997 173.03688 85.40322900000001 39.128262 17.962215 9.054673199999998 5.1804051 3.2138598 2.1514382000000003 289.13457999999997 162.37985 80.218613 36.859634 17.0355 8.689527499999999 5.0525856 3.2019873 2.2012970000000003 267.41406 150.23491 74.340988 34.318478000000006 16.027729 8.3210955 4.951908599999999 3.2305396 2.2982558999999996 243.83997000000002 137.11035 68.032997 31.624965999999997 14.988092000000002 7.9670214999999995 4.8822627 3.2966652 2.4358439 219.41435 123.60935 61.6054 28.915421000000002 13.964305 7.6357737000000006 4.836082900000001 3.3859205 2.5963008 195.1996 110.38548 55.403468999999994 26.344719 13.011178 7.337045699999999 4.805431400000001 3.484025 2.7630218999999996 172.20021 98.080658 49.780827 24.080988 12.193927 7.0872687999999995 4.7875752 3.5823873999999996 2.926127 151.17189 87.229576 45.05188 22.285397 11.582024 6.9084692 4.7843222999999995 3.6766939 3.0804775 132.47718999999998 78.107399 41.42794 21.084286 11.241641 6.8280072 4.8019753 3.7641102999999996 3.2204666 116.05691000000002 70.64186099999999 38.947361 20.538218 11.227597 6.8809648 4.8547859 3.8437943 3.3371722999999998 101.53730999999999 64.424141 37.384609000000005 20.604677 11.564998 7.1070814 4.9693332 3.9229502999999997 3.4235916 88.513504 58.856579 36.235752000000005 21.088213 12.2156 7.5302929999999995 5.1792607 4.0222758999999995 3.4855516000000004 76.828735 53.436485 34.876331 21.567295 13.032494999999999 8.1219511 5.5004544 4.165356200000001 3.5415604 66.583946 48.121468 32.913395 21.524252 13.684092999999999 8.750854499999999 5.8929281 4.3473663 3.5983412000000006 57.709351 43.216732 30.587002000000002 20.783876 13.796184 9.132474900000002 6.2124224 4.5015883 3.6211324 49.734085 38.651096 28.396853999999998 19.820677 13.435534 9.0702362 6.2429190000000006 4.496079 3.5409867999999993 41.747322 33.881985 26.08091 18.912266 13.040894999999999 8.76478 5.9519925 4.2275542999999995 3.2787924 31.739403000000003 28.090653999999997 22.847618 17.365742 12.359761 8.3137817 5.4728712999999996 3.7340209000000004 2.8188956000000003 21.872963000000002 19.647375 17.858973000000002 14.544571 10.703826 7.257527799999999 4.6661177 3.0212383 2.1736279 14.553071 10.866611 9.8412485 7.813972 5.2912192000000005 3.1455247 1.7139679 0.96352792 6.7878857 4.139739 2.5544033 1.1755128000000001 0.66790032 1.0475815999999998 3.5810970999999996 0.91144854 0.73874301 1.468424 3.4585041e-06 3.5158314000000003e-06 3.6899762000000003e-06 3.9862871000000005e-06 4.4098665e-06 4.959963e-06 5.622672700000001e-06 6.3624257e-06 7.497012999999999e-06 7.6264355e-06 8.019013e-06 8.685324199999999e-06 9.635060499999999e-06 1.0865258e-05 1.2344899e-05 1.3996880000000002e-05 1.5778973000000002e-05 1.6059657e-05 1.6909979e-05 1.8350034000000002e-05 2.039756e-05 2.3044319999999997e-05 2.6225125e-05 2.9780823999999997e-05 3.2287178e-05 3.2874501e-05 3.4651839e-05 3.7656457000000003e-05 4.1920492000000004e-05 4.7425514e-05 5.4042204e-05 6.1456398e-05 6.4281128e-05 6.546918999999999e-05 6.9061462e-05 7.512644500000001e-05 8.3723702e-05 9.4818824e-05 0.0001081697 0.00012318198999999999 0.0001246335 0.00012695973 0.00013398989 0.00014585111 0.00016265865 0.00018436131 0.00021053228 0.00024009978999999998 0.00023559130000000002 0.00024000723999999997 0.00025335099999999997 0.00027586403 0.00030777938 0.00034905004 0.00039898342000000005 0.00045577837999999994 0.00043470899000000007 0.00044285733 0.00046748412000000006 0.00050905376 0.00056804763 0.00064451335 0.00073748699 0.0008442890800000001 0.0007840707000000001 0.00079873553 0.0008430686999999999 0.00091794936 0.0010243697999999999 0.0011627552 0.0013321876 0.0015295515 0.0013844223999999999 0.001410253 0.0014883473000000002 0.0016203126999999999 0.0018081488000000001 0.0020533801999999997 0.0023563199 0.0027154834999999996 0.0023965205 0.0024411827 0.0025761884 0.0028043475 0.0031295291 0.0035559274 0.0040881136 0.0047318414 0.004072892 0.0041489182 0.0043786196000000005 0.0047666319 0.0053200386 0.0060486514000000005 0.0069676703 0.0081023974 0.0068043433 0.0069321375 0.0073178908999999995 0.0079686707 0.0088965027 0.01012155 0.011681191 0.013643843000000001 0.011187012 0.011399787 0.012041163999999998 0.013120653999999999 0.01465657 0.016685603 0.019285621 0.02260888 0.01811742 0.018469443999999998 0.019528506 0.021304753 0.023821687 0.027137913 0.031397115 0.036900647 0.028924073999999998 0.029504389 0.031246355 0.034155041000000004 0.03825143 0.043615252 0.050485212 0.059408773 0.045543495999999996 0.046498772 0.049359892 0.054114647 0.060760982000000005 0.06938259299999999 0.080336161 0.094549045 0.070744842 0.072316095 0.077013925 0.084788553 0.095575131 0.10941318 0.12677652 0.14913979 0.10840121 0.11097988 0.1186832 0.13139988 0.14894378 0.17121923 0.19877043 0.23380955 0.16379218 0.1679991 0.18057197 0.20132972 0.22990759 0.26595387 0.30998668 0.36516884 0.24387662 0.25066286 0.27098578 0.30464563 0.35110855 0.4096866 0.48080015 0.56884736 0.35735643 0.36812058 0.40046847 0.45437542 0.52934068 0.62450099 0.74029261 0.88309336 0.51415592 0.53086185 0.5812934 0.66604459 0.78524953 0.93848419 1.1271361 1.3619238 0.72378647 0.74905527 0.82571566 0.95574474 1.1410347 1.3832502 1.6876993000000002 2.0761464 0.99221975 1.0293376 1.1424333999999998 1.3358893 1.6152365 1.9875561999999998 2.4698033 3.111526 1.3174511999999998 1.3701562 1.5312451999999999 1.8087229 2.2142627 2.7672977000000003 3.5140431000000003 4.569395500000001 1.6845571 1.7565806000000002 1.9771254 2.3588287999999995 2.9235773 3.7169887999999998 4.8513622000000005 6.584293400000001 2.0619898 2.1564951 2.4459994 2.948786 3.7042501000000003 4.8107470999999995 6.5177264 9.366826099999999 2.4011467 2.5203227999999998 2.8850988999999996 3.5210532999999997 4.4981365 6.015243099999999 8.579400099999999 13.240452 2.6417935000000003 2.7868277999999997 3.2301099 4.0075617 5.2417121 7.3066068 11.142035 18.613974 2.7255206000000003 2.8969902999999997 3.4203277 4.3470912 5.8840222 8.677976600000001 14.317179999999999 25.845029999999998 2.6153896 2.8138492000000004 3.4190736000000004 4.5056381 6.4010077 10.128678 18.143692 35.019531 2.3157758999999998 2.5421388 3.2324853 4.4917607 6.799639699999999 11.639988 22.504139000000002 45.759838 1.8843974 2.1397443 2.9188194 4.3608961 7.113539200000001 13.159424 27.099342 57.201298 1.4272989 1.7121383999999997 2.5811452999999998 4.2063540999999995 7.3970618 14.615697 31.527502000000002 68.21893299999999 1.0685528999999998 1.3820575000000002 2.3375745 4.133271700000001 7.7143955 15.953279 35.430546 77.803658 0.89835531 1.2379402 2.2711763 4.213141 8.1086092 17.140204999999998 38.592625 85.34612299999999 0.93138814 1.292784 2.3902235000000003 4.4471183 8.5706234 18.149673 40.949642 90.702225 1.1096566 1.487348 2.6322436000000002 4.7700491 9.039785400000001 18.946861 42.539635 94.064995 1.3411516 1.7289577 2.9029832000000004 5.087824299999999 9.432706800000002 19.490499 43.435005 95.75264 1.5441177 1.9357275 3.1203036 5.319571 9.6779585 19.744287 43.695244 96.03609499999999 1.6760806000000001 2.0654202 3.2426232999999995 5.4251733 9.7407923 19.692192000000002 43.357193 95.07453199999999 1.7393391 2.1207981 3.2739534 5.410410400000001 9.6294174 19.348049 42.451267 92.941986 1.7668438999999998 2.1354139 3.249579 5.3129325 9.3835449 18.752739000000002 41.020409 89.690773 1.8000154 2.1514417999999997 3.2138689 5.1804171 9.054682699999999 17.962214000000003 39.128254 85.40320600000001 1.8703477 2.2012999 3.2019932 5.052590400000001 8.6895323 17.035494 36.859623 80.21865799999999 1.9900006999999997 2.2982583 3.2305393 4.951904799999999 8.321090700000001 16.027718 34.318459000000004 74.340988 2.1512827999999997 2.4358419999999996 3.2966614 4.8822551 7.9670105 14.988076000000001 31.624943 68.032967 2.3353387999999997 2.5962975 3.3859129 4.8360715 7.635760799999999 13.964293 28.915409000000004 61.6054 2.5249166 2.7630183999999995 3.4840162000000006 4.8054190000000006 7.337030400000001 13.011166000000001 26.344696000000003 55.403461 2.7099737999999998 2.9261220000000003 3.582376 4.787560900000001 7.0872531 12.193911 24.080969 49.780819 2.8855258999999998 3.0804696 3.6766803 4.7843065000000005 6.9084516 11.582011 22.285379000000002 45.051868 3.0455029 3.2204595 3.7640967000000005 4.801960500000001 6.827991 11.241629 21.084278 41.427929 3.1785715 3.3371654000000004 3.843781 4.8547721 6.880950500000001 11.227583000000001 20.538198 38.947353 3.2727527999999997 3.4235858999999995 3.9229391000000002 4.9693203 7.107068099999999 11.564986 20.604662 37.38459 3.3278797 3.4855466 4.0222682999999995 5.1792517 7.530282000000001 12.215594 21.088207 36.23576 3.3591564 3.5415571000000003 4.1653495000000005 5.500446299999999 8.1219454 13.03249 21.567289000000002 34.876331 3.3755667000000003 3.5983398 4.347363 5.8929238 8.7508526 13.684089000000002 21.52425 32.913391 3.3504071000000004 3.6211290000000003 4.5015874 6.2124185999999995 9.132475900000001 13.796178 20.783876 30.587002000000002 3.2368338 3.5409851000000003 4.496077099999999 6.2429171 9.070233300000002 13.435532 19.820677 28.396852000000003 2.9748557 3.2787919000000003 4.2275538 5.9519915999999995 8.764781 13.040892999999999 18.912275 26.080914 2.536279 2.8188956000000003 3.7340205 5.4728727 8.3137827 12.359761 17.365747 22.847622 1.9246676999999999 2.1736279 3.021239 4.6661196 7.2575269 10.703828 14.544571 17.858982 0.75370014 0.96352482 1.7139634 3.145525 5.291218799999999 7.8139753 9.841253300000002 10.866609 1.2277718999999998 1.0475831 0.6679039 1.1755115 2.5544019000000002 4.1397371 6.787889999999999 1.7040321 1.4684255 0.73874354 0.91144884 3.5811017 7.1086702000000005e-06 7.7161521e-06 7.8599269e-06 7.02322e-06 4.7475601e-06 1.0609491e-06 3.2304602e-06 1.5671561e-05 1.7049000000000002e-05 1.7395292e-05 1.5549787e-05 1.0490501e-05 2.2760785e-06 7.320873e-06 1.5612537e-05 3.3404576e-05 3.6415164e-05 3.7212354e-05 3.3275399e-05 2.2398846e-05 4.7021313e-06 1.603073e-05 3.4017365e-05 6.9059359e-05 7.5444834e-05 7.7230485e-05 6.9105481e-05 4.6446162999999995e-05 9.4771103e-06 3.3956003e-05 7.1737159e-05 0.00013868957 0.00015187776000000002 0.00015581393 0.0001396389 9.391189099999999e-05 1.9043277e-05 6.9681359e-05 0.00014695909 0.00027092773 0.00029758582000000003 0.00030633248 0.00027561517 0.00018687941000000003 5.6167144e-05 0.00015942786 0.00031570584 0.00051578134 0.00056901778 0.0005892528 0.00053553231 0.0003875884 0.00033170561 0.00064217602 0.0009816325 0.00095933629 0.0010654047 0.0011148304 0.0010438041 0.00097946299 0.0015799185 0.0027976135999999998 0.0038022515 0.0017478038 0.0019595781 0.0020852708 0.002098999 0.0028119829999999997 0.0056034462 0.0097972956 0.013072003 0.0031252459000000003 0.0035470496000000002 0.0038647246999999997 0.0042999284 0.0072949259 0.015558481 0.027580205 0.037225351000000004 0.0054912199 0.0063211806 0.0070669283 0.008443404 0.015725367 0.034609631 0.062745355 0.08598285900000001 0.0094854347 0.011080679 0.012660463 0.015297577 0.027898312 0.062106185 0.11499709 0.15867169 0.016107133 0.019076027 0.022167576 0.02599935 0.041595802 0.090243831 0.17025805 0.23623042 0.026884114 0.032212362 0.037981733999999996 0.043376967 0.05614331 0.10699619 0.20408824 0.28853565 0.044124175 0.05335498599999999 0.06371817 0.072635077 0.079677202 0.10899442 0.19533931 0.28502432 0.071303777 0.08681472400000001 0.10473437 0.12070717 0.12702033 0.12284319 0.15027586 0.21473579 0.11369637 0.13911483 0.1691236 0.1970883 0.20979555 0.19019593 0.14346416 0.11878426 0.1794188 0.22021542 0.26926249 0.31636357 0.34096372 0.31486866 0.232712 0.12100014 0.28119695 0.34570977 0.42448625 0.50191325 0.54567438 0.51104945 0.39092302 0.22600378 0.43928325 0.54070187 0.66599864 0.79129869 0.86589795 0.81967413 0.64838409 0.42018473 0.68600142 0.84641385 1.0460957 1.2480857 1.371461 1.3050057 1.0587242000000001 0.76605165 1.0721118 1.3309083000000002 1.6545778999999998 1.9837721999999998 2.1847117000000003 2.0708256 1.6775944999999999 1.2762934 1.6747290000000001 2.1051145 2.6460617 3.1984181 3.5319288 3.3175483 2.6193347 1.9599526999999999 2.6060072999999995 3.3462824999999996 4.2849698 5.250114900000001 5.8340920999999994 5.4365139000000005 4.153707499999999 3.0945656 4.0248156 5.3355293 7.020291800000001 8.7734671 9.8580942 9.154480900000001 6.7349714999999994 4.7302865999999995 6.161965400000001 8.5277138 11.615328 14.875376999999999 16.963734 15.809961999999999 11.271753 7.236314299999999 9.3795071 13.672263000000001 19.335928 25.356934 29.421267999999998 27.793829 19.74275 11.954867 14.25585 21.946424 32.111576 42.876979999999996 50.37125 48.767959999999995 35.66 21.157667 21.62414 34.961464 52.468593999999996 70.816811 83.697792 82.66571 64.712852 40.508587 32.453728000000005 54.48019 83.027824 112.58416000000001 133.57981999999998 135.2379 116.01357 81.89379100000001 47.515461 81.786537 125.60876 170.58597 203.59006000000002 213.19576 204.20023 169.09636 66.92034100000001 116.9292 180.14308 244.9523 296.17886 328.659 356.90546 340.99564 89.755928 158.15915 243.95445 332.82198999999997 410.86312999999996 487.68314000000004 596.8575400000001 633.28937 114.09496000000001 201.99788999999998 311.74445 426.62380999999993 535.73853 670.63324 888.55304 995.3173199999999 137.49391 244.09056 376.71045 516.14777 653.34412 835.8999 1139.574 1296.4387 157.76727 280.57498 433.00589 593.00745 750.33087 959.5062300000001 1304.3616 1474.0457 173.59238 309.09042 477.08749000000006 652.73926 822.95343 1042.7443 1398.4753 1561.0692 184.66873 329.06091000000004 508.08624000000003 694.66083 872.75409 1095.3956 1449.1451 1599.057 191.45318999999998 341.26035 527.11768 720.45276 902.9906 1125.5499 1474.1271 1612.6333 194.69914 347.03314 536.1646099999999 732.776 917.29578 1138.9875 1483.2484 1614.7327 195.06438 347.60095 537.08789 734.08734 918.62 1139.1389 1480.5416 1609.234 192.94225 343.7262 531.10358 726.04718 909.0595099999999 1128.891 1470.4977 1601.7224 188.50162 335.74777 518.7665400000001 709.26392 888.34192 1104.0536 1439.8813 1570.1323 181.82486 323.81973 500.34515 684.11987 856.89404 1064.9475 1388.8004 1514.3859 173.03685 308.1489 476.16702000000004 651.08313 815.33075 1012.4318 1318.6116 1436.254 162.37985 289.13467 446.83267 610.9769299999999 764.72845 948.0538300000001 1231.735 1338.8478 150.23492 267.414 413.28131 565.05365 706.6944 874.0438800000001 1131.615 1226.5028 137.11035 243.83997000000002 376.75784 514.93585 643.2196 793.01263 1022.1558 1103.8951 123.60938 219.41432000000003 338.70737 462.48467999999997 576.60065 708.0427900000001 907.8375199999999 975.6767 110.38553999999999 195.19963 300.6377 409.68604 509.41515999999996 622.68109 792.97113 846.05078 98.08065 172.2002 263.94077000000004 358.38837 444.11807000000005 540.2905900000001 681.6243900000001 718.6771200000001 87.229568 151.17193999999998 229.67553999999998 310.01842999999997 382.69431000000003 463.71414000000004 577.14362 595.7647099999999 78.107399 132.47716 198.38162 265.39206 326.36752 394.75586 481.48779 479.88239000000004 70.641876 116.05689 170.13235 224.76921000000002 275.68271 333.8587 395.31866 373.42972000000003 64.424149 101.53732 144.77686 188.31351 230.86765 280.32788 318.48669 279.44903999999997 58.856579 88.51349599999999 122.29897 156.44585 192.37885 232.8588 249.09311 53.436496999999996 76.828735 102.87666 129.80978000000002 160.40865 189.17375 185.29916 48.121468 66.583931 86.68319699999999 108.56138 133.04375 146.75793000000002 43.216732 57.709339 73.395103 91.013306 105.86747 108.22925 38.651081 49.734081 61.684502 73.198578 79.234024 33.881985 41.747337 48.601799 54.386481999999994 28.090652000000002 31.739408 34.553612 50.082375 19.647375 21.872963000000002 14.553072 
Vel 3 2975 float
0.0 0.0 0.0 0.0 0.0 0.0 0.0 0.0 0.0 0.0 0.0 0.0 0.0 0.0 0.0 0.0 0.0 0.0 0.0 0.0 0.0 0.0 0.0 0.0 0.0 0.0 0.0 0.0 0.0 0.0 0.0 0.0 0.0 0.0 0.0 0.0 0.0 0.0 0.0 0.0 0.0 0.0 0.0 0.0 0.0 0.0 0.0 0.0 0.0 0.0 0.0 0.0 0.0 0.0 0.0 0.0 0.0 0.0 0.0 0.0 0.0 0.0 0.0 0.0 0.0 0.0 0.0 0.0 0.0 0.0 0.0 0.0 0.0 0.0 0.0 0.0 0.0 0.0 0.0 0.0 0.0 0.0 0.0 0.0 0.0 0.0 0.0 0.0 0.0 0.0 0.0 0.0 0.0 0.0 0.0 0.0 0.0 0.0 0.0 0.0 0.0 0.0 0.0 0.0 0.0 0.0 0.0 0.0 0.0 0.0 0.0 0.0 0.0 0.0 0.0 0.0 0.0 0.0 0.0 0.0 0.0 0.0 0.0 0.0 0.0 0.0 0.0 0.0 0.0 0.0 0.0 0.0 0.0 0.0 0.0 0.0 0.0 0.0 0.0 0.0 0.0 0.0 0.0 0.0 0.0 0.0 0.0 0.0 0.0 0.0 0.0 0.0 0.0 0.0 0.0 0.0 0.0 0.0 0.0 0.0 0.0 0.0 0.0 0.0 0.0 0.0 0.0 0.0 0.0 0.0 0.0 0.0 0.0 0.0 0.0 0.0 0.0 0.0 0.0 0.0 0.0 0.0 0.0 0.0 0.0 0.0 0.0 0.0 0.0 0.0 0.0 0.0 0.0 0.0 0.0 0.0 0.0 0.0 0.0 0.0 0.0 0.0 0.0 0.0 0.0 0.0 0.0 0.0 0.0 0.0 0.0 0.0 0.0 0.0 0.0 0.0 0.0 0.0 0.0 0.0 0.0 0.0 0.0 0.0 0.0 0.0 0.0 0.0 0.0 0.0 0.0 0.0 0.0 0.0 0.0 0.0 0.0 0.0 0.0 0.0 0.0 0.0 0.0 0.0 0.0 0.0 0.0 0.0 0.0 0.0 0.0 0.0 0.0 0.0 0.0 0.0 0.0 0.0 0.0 0.0 0.0 0.0 0.0 0.0 0.0 0.0 0.0 0.0 0.0 0.0 0.0 0.0 0.0 0.0 0.0 0.0 0.0 0.0 0.0 0.0 0.0 0.0 0.0 0.0 0.0 0.0 0.0 0.0 0.0 0.0 0.0 0.0 0.0 0.0 0.0 0.0 0.0 0.0 0.0 0.0 0.0 0.0 0.0 0.0 0.0 0.0 0.0 0.0 0.0 0.0 0.0 0.0 0.0 0.0 0.0 0.0 0.0 0.0 0.0 0.0 0.0 0.0 0.0 0.0 0.0 0.0 0.0 0.0 0.0 0.0 0.0 0.0 0.0 0.0 0.0 0.0 0.0 0.0 0.0 0.0 0.0 0.0 0.0 0.0 0.0 0.0 0.0 0.0 0.0 0.0 0.0 0.0 0.0 0.0 0.0 0.0 0.0 0.0 0.0 0.0 0.0 0.0 0.0 0.0 0.0 0.0 0.0 0.0 0.0 0.0 0.0 0.0 0.0 0.0 0.0 0.0 0.0 0.0 0.0 0.0 0.0 0.0 0.0 0.0 0.0 0.0 0.0 0.0 0.0 0.0 0.0 0.0 0.0 0.0 0.0 0.0 0.0 0.0 0.0 0.0 0.0 0.0 0.0 0.0 0.0 0.0 0.0 0.0 0.0 0.0 0.0 0.0 0.0 0.0 0.0 0.0 0.0 0.0 0.0 0.0 0.0 0.0 0.0 0.0 0.0 0.0 0.0 0.0 0.0 0.0 0.0 0.0 0.0 0.0 0.0 0.0 0.0 0.0 0.0 0.0 0.0 0.0 0.0 0.0 0.0 0.0 0.0 0.0 0.0 0.0 0.0 0.0 0.0 0.0 0.0 0.0 0.0 0.0 0.0 0.0 0.0 0.0 0.0 0.0 0.0 0.0 0.0 0.0 0.0 0.0 0.0 0.0 0.0 0.0 0.0 0.0 0.0 0.0 0.0 0.0 0.0 0.0 0.0 0.0 0.0 0.0 0.0 0.0 0.0 0.0 0.0 0.0 0.0 0.0 0.0 0.0 0.0 0.0 0.0 0.0 0.0 0.0 0.0 0.0 0.0 0.0 0.0 0.0 0.0 0.0 0.0 0.0 0.0 0.0 0.0 0.0 0.0 0.0 0.0 0.0 0.0 0.0 0.0 0.0 0.0 0.0 0.0 0.0 0.0 0.0 0.0 0.0 0.0 0.0 0.0 0.0 0.0 0.0 0.0 0.0 0.0 0.0 0.0 0.0 0.0 0.0 0.0 0.0 0.0 0.0 0.0 0.0 0.0 0.0 0.0 0.0 0.0 0.0 0.0 0.0 0.0 0.0 0.0 0.0 0.0 0.0 0.0 0.0 0.0 0.0 0.0 0.0 0.0 0.0 0.0 0.0 0.0 0.0 0.0 0.0 0.0 0.0 0.0 0.0 0.0 0.0 0.0 0.0 0.0 0.0 0.0 0.0 0.0 0.0 0.0 0.0 0.0 0.0 0.0 0.0 0.0 0.0 0.0 0.0 0.0 0.0 0.0 0.0 0.0 0.0 0.0 0.0 0.0 0.0 0.0 0.0 0.0 0.0 0.0 0.0 0.0 0.0 0.0 0.0 0.0 0.0 0.0 0.0 0.0 0.0 0.0 0.0 0.0 0.0 0.0 0.0 0.0 0.0 0.0 0.0 0.0 0.0 0.0 0.0 0.0 0.0 0.0 0.0 0.0 0.0 0.0 0.0 0.0 0.0 0.0 0.0 0.0 0.0 0.0 0.0 0.0 0.0 0.0 0.0 0.0 0.0 0.0 0.0 0.0 0.0 0.0 0.0 0.0 0.0 0.0 0.0 0.0 0.0 0.0 0.0 0.0 0.0 0.0 0.0 0.0 0.0 0.0 0.0 0.0 0.0 0.0 0.0 0.0 0.0 0.0 0.0 0.0 0.0 0.0 0.0 0.0 0.0 0.0 0.0 0.0 0.0 0.0 0.0 0.0 0.0 0.0 0.0 0.0 0.0 0.0 0.0 0.0 0.0 0.0 0.0 0.0 0.0 0.0 0.0 0.0 0.0 0.0 0.0 0.0 0.0 0.0 0.0 0.0 0.0 0.0 0.0 0.0 0.0 0.0 0.0 0.0 0.0 0.0 0.0 0.0 0.0 0.0 0.0 0.0 0.0 0.0 0.0 0.0 0.0 0.0 0.0 0.0 0.0 0.0 0.0 0.0 0.0 0.0 0.0 0.0 0.0 0.0 0.0 0.0 0.0 0.0 0.0 0.0 0.0 0.0 0.0 0.0 0.0 0.0 0.0 0.0 0.0 0.0 0.0 0.0 0.0 0.0 0.0 0.0 0.0 0.0 0.0 0.0 0.0 0.0 0.0 0.0 0.0 0.0 0.0 0.0 0.0 0.0 0.0 0.0 0.0 0.0 0.0 0.0 0.0 0.0 0.0 0.0 0.0 0.0 0.0 0.0 0.0 0.0 0.0 0.0 0.0 0.0 0.0 0.0 0.0 0.0 0.0 0.0 0.0 0.0 0.0 0.0 0.0 0.0 0.0 0.0 0.0 0.0 0.0 0.0 0.0 0.0 0.0 0.0 0.0 0.0 0.0 0.0 0.0 0.0 0.0 0.0 0.0 0.0 0.0 0.0 0.0 0.0 0.0 0.0 0.0 0.0 0.0 0.0 0.0 0.0 0.0 0.0 0.0 0.0 0.0 0.0 0.0 0.0 0.0 0.0 0.0 0.0 0.0 0.0 0.0 0.0 0.0 0.0 0.0 0.0 0.0 0.0 0.0 0.0 0.0 0.0 0.0 0.0 0.0 0.0 0.0 0.0 0.0 0.0 0.0 0.0 0.0 0.0 0.0 0.0 0.0 0.0 0.0 0.0 0.0 0.0 0.0 0.0 0.0 0.0 0.0 0.0 0.0 0.0 0.0 0.0 0.0 0.0 0.0 0.0 0.0 0.0 0.0 0.0 0.0 0.0 0.0 0.0 0.0 0.0 0.0 0.0 0.0 0.0 0.0 0.0 0.0 0.0 0.0 0.0 0.0 0.0 0.0 0.0 0.0 0.0 0.0 0.0 0.0 0.0 0.0 0.0 0.0 0.0 0.0 0.0 0.0 0.0 0.0 0.0 0.0 0.0 0.0 0.0 0.0 0.0 0.0 0.0 0.0 0.0 0.0 0.0 0.0 0.0 0.0 0.0 0.0 0.0 0.0 0.0 0.0 0.0 0.0 0.0 0.0 0.0 0.0 0.0 0.0 0.0 0.0 0.0 0.0 0.0 0.0 0.0 0.0 0.0 0.0 0.0 0.0 0.0 0.0 0.0 0.0 0.0 0.0 0.0 0.0 0.0 0.0 0.0 0.0 0.0 0.0 0.0 0.0 0.0 0.0 0.0 0.0 0.0 0.0 0.0 0.0 0.0 0.0 0.0 0.0 0.0 0.0 0.0 0.0 0.0 0.0 0.0 0.0 0.0 0.0 0.0 0.0 0.0 0.0 0.0 0.0 0.0 0.0 0.0 0.0 0.0 0.0 0.0 0.0 0.0 0.0 0.0 0.0 0.0 0.0 0.0 0.0 0.0 0.0 0.0 0.0 0.0 0.0 0.0 0.0 0.0 0.0 0.0 0.0 0.0 0.0 0.0 0.0 0.0 0.0 0.0 0.0 0.0 0.0 0.0 0.0 0.0 0.0 0.0 0.0 0.0 0.0 0.0 0.0 0.0 0.0 0.0 0.0 0.0 0.0 0.0 0.0 0.0 0.0 0.0 0.0 0.0 0.0 0.0 0.0 0.0 0.0 0.0 0.0 0.0 0.0 0.0 0.0 0.0 0.0 0.0 0.0 0.0 0.0 0.0 0.0 0.0 0.0 0.0 0.0 0.0 0.0 0.0 0.0 0.0 0.0 0.0 0.0 0.0 0.0 0.0 0.0 0.0 0.0 0.0 0.0 0.0 0.0 0.0 0.0 0.0 0.0 0.0 0.0 0.0 0.0 0.0 0.0 0.0 0.0 0.0 0.0 0.0 0.0 0.0 0.0 0.0 0.0 0.0 0.0 0.0 0.0 0.0 0.0 0.0 0.0 0.0 0.0 0.0 0.0 0.0 0.0 0.0 0.0 0.0 0.0 0.0 0.0 0.0 0.0 0.0 0.0 0.0 0.0 0.0 0.0 0.0 0.0 0.0 0.0 0.0 0.0 0.0 0.0 0.0 0.0 0.0 0.0 0.0 0.0 0.0 0.0 0.0 0.0 0.0 0.0 0.0 0.0 0.0 0.0 0.0 0.0 0.0 0.0 0.0 0.0 0.0 0.0 0.0 0.0 0.0 0.0 0.0 0.0 0.0 0.0 0.0 0.0 0.0 0.0 0.0 0.0 0.0 0.0 0.0 0.0 0.0 0.0 0.0 0.0 0.0 0.0 0.0 0.0 0.0 0.0 0.0 0.0 0.0 0.0 0.0 0.0 0.0 0.0 0.0 0.0 0.0 0.0 0.0 0.0 0.0 0.0 0.0 0.0 0.0 0.0 0.0 0.0 0.0 0.0 0.0 0.0 0.0 0.0 0.0 0.0 0.0 0.0 0.0 0.0 0.0 0.0 0.0 0.0 0.0 0.0 0.0 0.0 0.0 0.0 0.0 0.0 0.0 0.0 0.0 0.0 0.0 0.0 0.0 0.0 0.0 0.0 0.0 0.0 0.0 0.0 0.0 0.0 0.0 0.0 0.0 0.0 0.0 0.0 0.0 0.0 0.0 0.0 0.0 0.0 0.0 0.0 0.0 0.0 0.0 0.0 0.0 0.0 0.0 0.0 0.0 0.0 0.0 0.0 0.0 0.0 0.0 0.0 0.0 0.0 0.0 0.0 0.0 0.0 0.0 0.0 0.0 0.0 0.0 0.0 0.0 0.0 0.0 0.0 0.0 0.0 0.0 0.0 0.0 0.0 0.0 0.0 0.0 0.0 0.0 0.0 0.0 0.0 0.0 0.0 0.0 0.0 0.0 0.0 0.0 0.0 0.0 0.0 0.0 0.0 0.0 0.0 0.0 0.0 0.0 0.0 0.0 0.0 0.0 0.0 0.0 0.0 0.0 0.0 0.0 0.0 0.0 0.0 0.0 0.0 0.0 0.0 0.0 0.0 0.0 0.0 0.0 0.0 0.0 0.0 0.0 0.0 0.0 0.0 0.0 0.0 0.0 0.0 0.0 0.0 0.0 0.0 0.0 0.0 0.0 0.0 0.0 0.0 0.0 0.0 0.0 0.0 0.0 0.0 0.0 0.0 0.0 0.0 0.0 0.0 0.0 0.0 0.0 0.0 0.0 0.0 0.0 0.0 0.0 0.0 0.0 0.0 0.0 0.0 0.0 0.0 0.0 0.0 0.0 0.0 0.0 0.0 0.0 0.0 0.0 0.0 0.0 0.0 0.0 0.0 0.0 0.0 0.0 0.0 0.0 0.0 0.0 0.0 0.0 0.0 0.0 0.0 0.0 0.0 0.0 0.0 0.0 0.0 0.0 0.0 0.0 0.0 0.0 0.0 0.0 0.0 0.0 0.0 0.0 0.0 0.0 0.0 0.0 0.0 0.0 0.0 0.0 0.0 0.0 0.0 0.0 0.0 0.0 0.0 0.0 0.0 0.0 0.0 0.0 0.0 0.0 0.0 0.0 0.0 0.0 0.0 0.0 0.0 0.0 0.0 0.0 0.0 0.0 0.0 0.0 0.0 0.0 0.0 0.0 0.0 0.0 0.0 0.0 0.0 0.0 0.0 0.0 0.0 0.0 0.0 0.0 0.0 0.0 0.0 0.0 0.0 0.0 0.0 0.0 0.0 0.0 0.0 0.0 0.0 0.0 0.0 0.0 0.0 0.0 0.0 0.0 0.0 0.0 0.0 0.0 0.0 0.0 0.0 0.0 0.0 0.0 0.0 0.0 0.0 0.0 0.0 0.0 0.0 0.0 0.0 0.0 0.0 0.0 0.0 0.0 0.0 0.0 0.0 0.0 0.0 0.0 0.0 0.0 0.0 0.0 0.0 0.0 0.0 0.0 0.0 0.0 0.0 0.0 0.0 0.0 0.0 0.0 0.0 0.0 0.0 0.0 0.0 0.0 0.0 0.0 0.0 0.0 0.0 0.0 0.0 0.0 0.0 0.0 0.0 0.0 0.0 0.0 0.0 0.0 0.0 0.0 0.0 0.0 0.0 0.0 0.0 0.0 0.0 0.0 0.0 0.0 0.0 0.0 0.0 0.0 0.0 0.0 0.0 0.0 0.0 0.0 0.0 0.0 0.0 0.0 0.0 0.0 0.0 0.0 0.0 0.0 0.0 0.0 0.0 0.0 0.0 0.0 0.0 0.0 0.0 0.0 0.0 0.0 0.0 0.0 0.0 0.0 0.0 0.0 0.0 0.0 0.0 0.0 0.0 0.0 0.0 0.0 0.0 0.0 0.0 0.0 0.0 0.0 0.0 0.0 0.0 0.0 0.0 0.0 0.0 0.0 0.0 0.0 0.0 0.0 0.0 0.0 0.0 0.0 0.0 0.0 0.0 0.0 0.0 0.0 0.0 0.0 0.0 0.0 0.0 0.0 0.0 0.0 0.0 0.0 0.0 0.0 0.0 0.0 0.0 0.0 0.0 0.0 0.0 0.0 0.0 0.0 0.0 0.0 0.0 0.0 0.0 0.0 0.0 0.0 0.0 0.0 0.0 0.0 0.0 0.0 0.0 0.0 0.0 0.0 0.0 0.0 0.0 0.0 0.0 0.0 0.0 0.0 0.0 0.0 0.0 0.0 0.0 0.0 0.0 0.0 0.0 0.0 0.0 0.0 0.0 0.0 0.0 0.0 0.0 0.0 0.0 0.0 0.0 0.0 0.0 0.0 0.0 0.0 0.0 0.0 0.0 0.0 0.0 0.0 0.0 0.0 0.0 0.0 0.0 0.0 0.0 0.0 0.0 0.0 0.0 0.0 0.0 0.0 0.0 0.0 0.0 0.0 0.0 0.0 0.0 0.0 0.0 0.0 0.0 0.0 0.0 0.0 0.0 0.0 0.0 0.0 0.0 0.0 0.0 0.0 0.0 0.0 0.0 0.0 0.0 0.0 0.0 0.0 0.0 0.0 0.0 0.0 0.0 0.0 0.0 0.0 0.0 0.0 0.0 0.0 0.0 0.0 0.0 0.0 0.0 0.0 0.0 0.0 0.0 0.0 0.0 0.0 0.0 0.0 0.0 0.0 0.0 0.0 0.0 0.0 0.0 0.0 0.0 0.0 0.0 0.0 0.0 0.0 0.0 0.0 0.0 0.0 0.0 0.0 0.0 0.0 0.0 0.0 0.0 0.0 0.0 0.0 0.0 0.0 0.0 0.0 0.0 0.0 0.0 0.0 0.0 0.0 0.0 0.0 0.0 0.0 0.0 0.0 0.0 0.0 0.0 0.0 0.0 0.0 0.0 0.0 0.0 0.0 0.0 0.0 0.0 0.0 0.0 0.0 0.0 0.0 0.0 0.0 0.0 0.0 0.0 0.0 0.0 0.0 0.0 0.0 0.0 0.0 0.0 0.0 0.0 0.0 0.0 0.0 0.0 0.0 0.0 0.0 0.0 0.0 0.0 0.0 0.0 0.0 0.0 0.0 0.0 0.0 0.0 0.0 0.0 0.0 0.0 0.0 0.0 0.0 0.0 0.0 0.0 0.0 0.0 0.0 0.0 0.0 0.0 0.0 0.0 0.0 0.0 0.0 0.0 0.0 0.0 0.0 0.0 0.0 0.0 0.0 0.0 0.0 0.0 0.0 0.0 0.0 0.0 0.0 0.0 0.0 0.0 0.0 0.0 0.0 0.0 0.0 0.0 0.0 0.0 0.0 0.0 0.0 0.0 0.0 0.0 0.0 0.0 0.0 0.0 0.0 0.0 0.0 0.0 0.0 0.0 0.0 0.0 0.0 0.0 0.0 0.0 0.0 0.0 0.0 0.0 0.0 0.0 0.0 0.0 0.0 0.0 0.0 0.0 0.0 0.0 0.0 0.0 0.0 0.0 0.0 0.0 0.0 0.0 0.0 0.0 0.0 0.0 0.0 0.0 0.0 0.0 0.0 0.0 0.0 0.0 0.0 0.0 0.0 0.0 0.0 0.0 0.0 0.0 0.0 0.0 0.0 0.0 0.0 0.0 0.0 0.0 0.0 0.0 0.0 0.0 0.0 0.0 0.0 0.0 0.0 0.0 0.0 0.0 0.0 0.0 0.0 0.0 0.0 0.0 0.0 0.0 0.0 0.0 0.0 0.0 0.0 0.0 0.0 0.0 0.0 0.0 0.0 0.0 0.0 0.0 0.0 0.0 0.0 0.0 0.0 0.0 0.0 0.0 0.0 0.0 0.0 0.0 0.0 0.0 0.0 0.0 0.0 0.0 0.0 0.0 0.0 0.0 0.0 0.0 0.0 0.0 0.0 0.0 0.0 0.0 0.0 0.0 0.0 0.0 0.0 0.0 0.0 0.0 0.0 0.0 0.0 0.0 0.0 0.0 0.0 0.0 0.0 0.0 0.0 0.0 0.0 0.0 0.0 0.0 0.0 0.0 0.0 0.0 0.0 0.0 0.0 0.0 0.0 0.0 0.0 0.0 0.0 0.0 0.0 0.0 0.0 0.0 0.0 0.0 0.0 0.0 0.0 0.0 0.0 0.0 0.0 0.0 0.0 0.0 0.0 0.0 0.0 0.0 0.0 0.0 0.0 0.0 0.0 0.0 0.0 0.0 0.0 0.0 0.0 0.0 0.0 0.0 0.0 0.0 0.0 0.0 0.0 0.0 0.0 0.0 0.0 0.0 0.0 0.0 0.0 0.0 0.0 0.0 0.0 0.0 0.0 0.0 0.0 0.0 0.0 0.0 0.0 0.0 0.0 0.0 0.0 0.0 0.0 0.0 0.0 0.0 0.0 0.0 0.0 0.0 0.0 0.0 0.0 0.0 0.0 0.0 0.0 0.0 0.0 0.0 0.0 0.0 0.0 0.0 0.0 0.0 0.0 0.0 0.0 0.0 0.0 0.0 0.0 0.0 0.0 0.0 0.0 0.0 0.0 0.0 0.0 0.0 0.0 0.0 0.0 0.0 0.0 0.0 0.0 0.0 0.0 0.0 0.0 0.0 0.0 0.0 0.0 0.0 0.0 0.0 0.0 0.0 0.0 0.0 0.0 0.0 0.0 0.0 0.0 0.0 0.0 0.0 0.0 0.0 0.0 0.0 0.0 0.0 0.0 0.0 0.0 0.0 0.0 0.0 0.0 0.0 0.0 0.0 0.0 0.0 0.0 0.0 0.0 0.0 0.0 0.0 0.0 0.0 0.0 0.0 0.0 0.0 0.0 0.0 0.0 0.0 0.0 0.0 0.0 0.0 0.0 0.0 0.0 0.0 0.0 0.0 0.0 0.0 0.0 0.0 0.0 0.0 0.0 0.0 0.0 0.0 0.0 0.0 0.0 0.0 0.0 0.0 0.0 0.0 0.0 0.0 0.0 0.0 0.0 0.0 0.0 0.0 0.0 0.0 0.0 0.0 0.0 0.0 0.0 0.0 0.0 0.0 0.0 0.0 0.0 0.0 0.0 0.0 0.0 0.0 0.0 0.0 0.0 0.0 0.0 0.0 0.0 0.0 0.0 0.0 0.0 0.0 0.0 0.0 0.0 0.0 0.0 0.0 0.0 0.0 0.0 0.0 0.0 0.0 0.0 0.0 0.0 0.0 0.0 0.0 0.0 0.0 0.0 0.0 0.0 0.0 0.0 0.0 0.0 0.0 0.0 0.0 0.0 0.0 0.0 0.0 0.0 0.0 0.0 0.0 0.0 0.0 0.0 0.0 0.0 0.0 0.0 0.0 0.0 0.0 0.0 0.0 0.0 0.0 0.0 0.0 0.0 0.0 0.0 0.0 0.0 0.0 0.0 0.0 0.0 0.0 0.0 0.0 0.0 0.0 0.0 0.0 0.0 0.0 0.0 0.0 0.0 0.0 0.0 0.0 0.0 0.0 0.0 0.0 0.0 0.0 0.0 0.0 0.0 0.0 0.0 0.0 0.0 0.0 0.0 0.0 0.0 0.0 0.0 0.0 0.0 0.0 0.0 0.0 0.0 0.0 0.0 0.0 0.0 0.0 0.0 0.0 0.0 0.0 0.0 0.0 0.0 0.0 0.0 0.0 0.0 0.0 0.0 0.0 0.0 0.0 0.0 0.0 0.0 0.0 0.0 0.0 0.0 0.0 0.0 0.0 0.0 0.0 0.0 0.0 0.0 0.0 0.0 0.0 0.0 0.0 0.0 0.0 0.0 0.0 0.0 0.0 0.0 0.0 0.0 0.0 0.0 0.0 0.0 0.0 0.0 0.0 0.0 0.0 0.0 0.0 0.0 0.0 0.0 0.0 0.0 0.0 0.0 0.0 0.0 0.0 0.0 0.0 0.0 0.0 0.0 0.0 0.0 0.0 0.0 0.0 0.0 0.0 0.0 0.0 0.0 0.0 0.0 0.0 0.0 0.0 0.0 0.0 0.0 0.0 0.0 0.0 0.0 0.0 0.0 0.0 0.0 0.0 0.0 0.0 0.0 0.0 0.0 0.0 0.0 0.0 0.0 0.0 0.0 0.0 0.0 0.0 0.0 0.0 0.0 0.0 0.0 0.0 0.0 0.0 0.0 0.0 0.0 0.0 0.0 0.0 0.0 0.0 0.0 0.0 0.0 0.0 0.0 0.0 0.0 0.0 0.0 0.0 0.0 0.0 0.0 0.0 0.0 0.0 0.0 0.0 0.0 0.0 0.0 0.0 0.0 0.0 0.0 0.0 0.0 0.0 0.0 0.0 0.0 0.0 0.0 0.0 0.0 0.0 0.0 0.0 0.0 0.0 0.0 0.0 0.0 0.0 0.0 0.0 0.0 0.0 0.0 0.0 0.0 0.0 0.0 0.0 0.0 0.0 0.0 0.0 0.0 0.0 0.0 0.0 0.0 0.0 0.0 0.0 0.0 0.0 0.0 0.0 0.0 0.0 0.0 0.0 0.0 0.0 0.0 0.0 0.0 0.0 0.0 0.0 0.0 0.0 0.0 0.0 0.0 0.0 0.0 0.0 0.0 0.0 0.0 0.0 0.0 0.0 0.0 0.0 0.0 0.0 0.0 0.0 0.0 0.0 0.0 0.0 0.0 0.0 0.0 0.0 0.0 0.0 0.0 0.0 0.0 0.0 0.0 0.0 0.0 0.0 0.0 0.0 0.0 0.0 0.0 0.0 0.0 0.0 0.0 0.0 0.0 0.0 0.0 0.0 0.0 0.0 0.0 0.0 0.0 0.0 0.0 0.0 0.0 0.0 0.0 0.0 0.0 0.0 0.0 0.0 0.0 0.0 0.0 0.0 0.0 0.0 0.0 0.0 0.0 0.0 0.0 0.0 0.0 0.0 0.0 0.0 0.0 0.0 0.0 0.0 0.0 0.0 0.0 0.0 0.0 0.0 0.0 0.0 0.0 0.0 0.0 0.0 0.0 0.0 0.0 0.0 0.0 0.0 0.0 0.0 0.0 0.0 0.0 0.0 0.0 0.0 0.0 0.0 0.0 0.0 0.0 0.0 0.0 0.0 0.0 0.0 0.0 0.0 0.0 0.0 0.0 0.0 0.0 0.0 0.0 0.0 0.0 0.0 0.0 0.0 0.0 0.0 0.0 0.0 0.0 0.0 0.0 0.0 0.0 0.0 0.0 0.0 0.0 0.0 0.0 0.0 0.0 0.0 0.0 0.0 0.0 0.0 0.0 0.0 0.0 0.0 0.0 0.0 0.0 0.0 0.0 0.0 0.0 0.0 0.0 0.0 0.0 0.0 0.0 0.0 0.0 0.0 0.0 0.0 0.0 0.0 0.0 0.0 0.0 0.0 0.0 0.0 0.0 0.0 0.0 0.0 0.0 0.0 0.0 0.0 0.0 0.0 0.0 0.0 0.0 0.0 0.0 0.0 0.0 0.0 0.0 0.0 0.0 0.0 0.0 0.0 0.0 0.0 0.0 0.0 0.0 0.0 0.0 0.0 0.0 0.0 0.0 0.0 0.0 0.0 0.0 0.0 0.0 0.0 0.0 0.0 0.0 0.0 0.0 0.0 0.0 0.0 0.0 0.0 0.0 0.0 0.0 0.0 0.0 0.0 0.0 0.0 0.0 0.0 0.0 0.0 0.0 0.0 0.0 0.0 0.0 0.0 0.0 0.0 0.0 0.0 0.0 0.0 0.0 0.0 0.0 0.0 0.0 0.0 0.0 0.0 0.0 0.0 0.0 0.0 0.0 0.0 0.0 0.0 0.0 0.0 0.0 0.0 0.0 0.0 0.0 0.0 0.0 0.0 0.0 0.0 0.0 0.0 0.0 0.0 0.0 0.0 0.0 0.0 0.0 0.0 0.0 0.0 0.0 0.0 0.0 0.0 0.0 0.0 0.0 0.0 0.0 0.0 0.0 0.0 0.0 0.0 0.0 0.0 0.0 0.0 0.0 0.0 0.0 0.0 0.0 0.0 0.0 0.0 0.0 -1.756251e-08 0.0 -5.496072e-09 -2.1722222000000002e-08 0.0 -5.1256452e-09 -2.5294437000000002e-08 0.0 -4.6044835e-09 -2.8317881e-08 0.0 -4.0000265e-09 -3.0828588e-08 0.0 -3.3923901e-09 -2.4238052000000002e-08 0.0 -1.0449720999999998e-08 -3.3058416e-08 0.0 -1.0286153e-08 -4.0879481e-08 0.0 -9.5896109e-09 -4.7510472000000005e-08 0.0 -8.6181302e-09 -5.3075549000000003e-08 0.0 -7.4930826e-09 -5.7668834999999995e-08 0.0 -6.3634138e-09 -4.4894112e-08 0.0 -1.9037578999999996e-08 -6.0934731e-08 0.0 -1.8809731e-08 -7.504578299999999e-08 0.0 -1.7469263e-08 -8.6959936e-08 0.0 -1.5665231000000002e-08 -9.6899342e-08 0.0 -1.3608912e-08 -1.0505852000000001e-07 0.0 -1.1554073e-08 -8.1171542e-08 0.0 -3.4034438999999997e-08 -1.0976900999999999e-07 0.0 -3.3567080000000004e-08 -1.3467486e-07 0.0 -3.1104772e-08 -1.5554403e-07 0.0 -2.7831919999999995e-08 -1.7282936e-07 0.0 -2.4154313999999997e-08 -1.8693977e-07 0.0 -2.0488223000000003e-08 -1.4401917999999998e-07 0.0 -5.9798154e-08 -1.9405255e-07 0.0 -5.873726e-08 -2.3720676000000002e-07 0.0 -5.425834e-08 -2.7304901000000004e-07 0.0 -4.8427267999999994e-08 -3.024762e-07 0.0 -4.1980690999999995e-08 -3.2634597e-07 0.0 -3.5569567000000004e-08 -2.5176493e-07 0.0 -1.0351064e-07 -3.3781575e-07 0.0 -1.0110247e-07 -4.1128095e-07 0.0 -9.2988735e-08 -4.7172550999999997e-07 0.0 -8.2733209e-08 -5.2090348e-07 0.0 -7.1592574e-08 -5.6050953e-07 0.0 -6.0573136e-08 -4.3471888e-07 0.0 -1.7702749000000002e-07 -5.8047192e-07 0.0 -1.7171723e-07 -7.0355765e-07 0.0 -1.5707992e-07 -8.0380249e-07 0.0 -1.392026e-07 -8.845937600000001e-07 0.0 -1.2007631e-07 -9.490768199999999e-07 0.0 -1.0133421999999999e-07 -7.4306996e-07 0.0 -2.9952053999999997e-07 -9.8576095e-07 0.0 -2.8817479e-07 -1.1880943e-06 0.0 -2.6196118999999997e-07 -1.3511938999999998e-06 0.0 -2.3113478e-07 -1.4816175e-06 0.0 -1.9854477e-07 -1.5848756e-06 0.0 -1.6690929e-07 -1.2575091e-06 0.0 -5.0013966e-07 -1.6531618e-06 0.0 -4.7687047e-07 -1.9784065000000003e-06 0.0 -4.3085257e-07 -2.2381851e-06 0.0 -3.7870899e-07 -2.4447667999999997e-06 0.0 -3.2400948e-07 -2.6073731000000005e-06 0.0 -2.7119199e-07 -2.1055868999999997e-06 0.0 -8.216938499999999e-07 -2.7365857e-06 0.0 -7.7603687e-07 -3.2475243e-06 0.0 -6.976851e-07 -3.6529247999999995e-06 0.0 -6.1089344e-07 -3.9731999e-06 0.0 -5.213943300000001e-07 -4.2245902e-06 0.0 -4.3457310999999996e-07 -3.4837462e-06 0.0 -1.3331429e-06 -4.470533400000001e-06 0.0 -1.2435351999999998e-06 -5.2573168e-06 0.0 -1.1104333e-06 -5.8773458e-06 0.0 -9.6836516e-07 -6.36303e-06 0.0 -8.2591532e-07 -6.743907799999999e-06 0.0 -6.854368700000001e-07 -5.6694885e-06 0.0 -2.3055441e-06 -7.1977893e-06 0.0 -2.0574993999999997e-06 -8.3918476e-06 0.0 -1.782609e-06 -9.322883699999998e-06 0.0 -1.5272552999999998e-06 -1.0044509e-05 0.0 -1.2923433e-06 -1.0609623999999998e-05 0.0 -1.0640912e-06 -9.320811800000002e-06 0.0 -4.1594094e-06 -1.1516599000000001e-05 0.0 -3.5279124000000002e-06 -1.3249131999999999e-05 0.0 -2.9081866e-06 -1.4605024e-05 0.0 -2.4074891e-06 -1.5648262e-05 0.0 -2.0012369e-06 -1.6466813e-05 0.0 -1.6270037999999999e-06 -1.5241756e-05 0.0 -7.155491900000001e-06 -1.8317004999999998e-05 0.0 -5.933508400000001e-06 -2.0737501000000002e-05 0.0 -4.7006292e-06 -2.2631117e-05 0.0 -3.8437442999999995e-06 -2.4104740000000003e-05 0.0 -3.0895182999999997e-06 -2.5263282e-05 0.0 -2.4577284e-06 -2.4444630999999998e-05 0.0 -1.2014943e-05 -2.8793203e-05 0.0 -9.7950006e-06 -3.2140812e-05 0.0 -7.5214407e-06 -3.4764470999999996e-05 0.0 -5.8282753e-06 -3.6795438e-05 0.0 -4.620701e-06 -3.8398794e-05 0.0 -3.6495096e-06 -3.8531634e-05 0.0 -1.8727149e-05 -4.4675828e-05 0.0 -1.5140544e-05 -4.9310918e-05 0.0 -1.1467194e-05 -5.2918193e-05 0.0 -8.7551616e-06 -5.5702228999999996e-05 0.0 -6.8515083e-06 -5.7891251000000005e-05 0.0 -5.3644421e-06 -5.9579516999999994e-05 0.0 -2.9207353e-05 -6.8320012e-05 0.0 -2.3352059e-05 -7.4796619e-05 0.0 -1.7399982e-05 -7.9777332e-05 0.0 -1.3059556e-05 -8.3576939e-05 0.0 -1.0080756e-05 -8.6543558e-05 0.0 -7.815149700000001e-06 -9.0704612e-05 0.0 -4.4152977e-05 -0.00010314699 0.0 -3.4888471e-05 -0.00011220127000000001 0.0 -2.5659721e-05 -0.00011903061000000002 0.0 -1.906627e-05 -0.00012416469999999998 0.0 -1.4601373000000002e-05 -0.0001281102 0.0 -1.1274677999999999e-05 -0.00013643815 0.0 -6.5052693e-05 -0.0001539962 0.0 -5.0760609e-05 -0.00016645598000000002 0.0 -3.6950209e-05 -0.00017559099 0.0 -2.7319855e-05 -0.00018230919 0.0 -2.0884223000000002e-05 -0.00018737275 0.0 -1.6171829e-05 -0.00020329653000000002 0.0 -9.593867399999999e-05 -0.00022753004000000001 0.0 -7.3673385e-05 -0.00024408549 0.0 -5.2863848e-05 -0.00025574572 0.0 -3.8811559e-05 -0.00026408129000000003 0.0 -2.9637213e-05 -0.00027025305 0.0 -2.3105916999999998e-05 -0.00030053682999999995 0.0 -0.00013939921 -0.0003329686 0.0 -0.00010480881999999999 -0.00035391597000000003 0.0 -7.4140313e-05 -0.00036782798 0.0 -5.4271102e-05 -0.00037740869 0.0 -4.1674840999999995e-05 -0.00038442318 0.0 -3.2919994e-05 -0.00044141107000000005 0.0 -0.00020091639999999999 -0.00048330547999999993 0.0 -0.00014788226999999998 -0.00050823623 0.0 -0.00010288339 -0.00052341231 0.0 -7.5294149e-05 -0.00053335715 0.0 -5.8259553e-05 -0.00054061052 0.0 -4.697598e-05 -0.00064537709 0.0 -0.00028650233 -0.0006970582799999999 0.0 -0.00020563113999999997 -0.0007243840400000001 0.0 -0.00014122015 -0.00073886837 0.0 -0.00010421993000000001 -0.0007478325900000001 0.0 -8.199310799999999e-05 -0.0007545701799999999 0.0 -6.7483466e-05 -0.00094042765 0.0 -0.00040722627 -0.00099979003 0.0 -0.00028446622 -0.0010256188000000001 0.0 -0.00019405391 -0.0010362328 0.0 -0.00014597125 -0.0010427189 0.0 -0.00011735418 -0.0010484986 0.0 -9.8249031e-05 -0.001366565 0.0 -0.00057863735 -0.0014248028 0.0 -0.00039464107000000004 -0.0014405739000000002 0.0 -0.00027017423 -0.0014421714999999999 0.0 -0.00020931878 -0.0014451166 0.0 -0.00017256242 -0.0014506160999999999 0.0 -0.00014557513 -0.0019783992 0.0 -0.00082515058 -0.0020115902 0.0 -0.00055435958 -0.0019993612 0.0 -0.00038669689 -0.0019838214000000003 0.0 -0.00031000123 -0.0019829888 0.0 -0.00026119011 -0.0019913679000000003 0.0 -0.00021764008999999998 -0.0028437967 0.0 -0.0011975103 -0.0027994447999999997 0.0 -0.00080272765 -0.0027253532 0.0 -0.00057737052 -0.0026813934000000004 0.0 -0.00047420859 -0.0026788348 0.0 -0.00039899049 -0.0026962692 0.0 -0.00032257775000000004 -0.0040290416 0.0 -0.0017751042 -0.0038122968 0.0 -0.0012155616 -0.0036222381 0.0 -0.00090216851 -0.0035500827 0.0 -0.0007213528200000001 -0.0035550292 0.0 -0.00058147672 -0.0035798158000000004 0.0 -0.00046279925000000004 -0.0055662831000000005 0.0 -0.002719125 -0.005035365 0.0 -0.0019192818 -0.0047075436 0.0 -0.0014027157000000001 -0.0046097761999999995 0.0 -0.001049465 -0.0046104095 0.0 -0.00081017253 -0.0046313568 0.0 -0.00063345645 -0.0073943501000000005 0.0 -0.0042878217 -0.0064391545 0.0 -0.0031326371 -0.005985653499999999 0.0 -0.0021426626000000002 -0.0058485158 0.0 -0.0014813353 -0.005808649599999999 0.0 -0.0010843511 -0.0058028884 0.0 -0.0008241217599999999 -0.0092955083 0.0 -0.0069729993 -0.0080544073 0.0 -0.00516285 -0.0074789925 0.0 -0.0033217787 -0.0071898182 0.0 -0.0021044698 -0.0070730913 0.0 -0.0014197357000000001 -0.007018455799999999 0.0 -0.0010279664 -0.010956842 0.0 -0.011443196999999999 -0.009510645600000001 0.0 -0.008742108 -0.0088783288 0.0 -0.0055517699 -0.008578644100000001 0.0 -0.0031787015 -0.0083504329 0.0 -0.0018963033 -0.0082002059 0.0 -0.0012536942 -0.011997947 0.0 -0.018348908 -0.010500485 0.0 -0.014561593999999999 -0.010005552 0.0 -0.009348928000000001 -0.0097906068 0.0 -0.0051625087 -0.009546726 0.0 -0.002748366 -0.0093090655 0.0 -0.0015978462 -0.01215819 0.0 -0.026696756000000002 -0.010917337 0.0 -0.02183613 -0.010610521999999999 0.0 -0.014213845 -0.010528293000000001 0.0 -0.0077529862 -0.010317477 0.0 -0.0039593712 -0.010062413000000001 0.0 -0.0021253268 -0.011153543 0.0 -0.033970445 -0.01035763 0.0 -0.028219018 -0.010243398 0.0 -0.018532803 -0.010310949 0.0 -0.010138593000000001 -0.010199248000000001 0.0 -0.0050880499 -0.0099853296 0.0 -0.0025980957 -0.0088719977 0.0 -0.038752984 -0.0086736875 0.0 -0.032427885 -0.0086804936 0.0 -0.021441581 -0.0087228641 0.0 -0.011772936999999999 -0.0086583346 0.0 -0.005908630799999999 -0.0085321087 0.0 -0.0029843657 -0.006195704000000001 0.0 -0.041551095 -0.0062333256999999994 0.0 -0.034805555 -0.0062449933 0.0 -0.023059028999999998 -0.0062187519 0.0 -0.012691217 -0.0061397497 0.0 -0.0063983463 -0.006036910699999999 0.0 -0.0032532995 -0.0037921064 0.0 -0.04310501 -0.003835419 0.0 -0.036074888 -0.0038474344 0.0 -0.023906445 -0.0038208489000000003 0.0 -0.013183627 -0.0037628238 0.0 -0.0066777072 -0.0036891494 0.0 -0.0034234041999999998 -0.0019221046 0.0 -0.04390484099999999 -0.0019521344 0.0 -0.036710426000000004 -0.0019614592 0.0 -0.024323385 -0.0019465835999999998 0.0 -0.013431175 -0.0019124129000000001 0.0 -0.006827017800000001 -0.001868865 0.0 -0.0035231824 -0.0005513715400000001 0.0 -0.044241261 -0.0005674971 0.0 -0.036964044 -0.00057384989 0.0 -0.02448315 -0.00056984264 0.0 -0.013527228999999998 -0.00055770739 0.0 -0.0068897526 -0.0005413398 0.0 -0.0035704528000000003 0.00051458372 0.0 -0.044247098 0.0005110092500000001 0.0 -0.036950502999999996 0.0005070130000000001 0.0 -0.02446463 0.00050148153 0.0 -0.013516737 0.0004948374099999999 0.0 -0.0068886867000000004 0.00048822456 0.0 -0.0035760882 0.0014839501999999998 0.0 -0.044030331 0.0014908337 0.0 -0.03676445 0.0014880609 0.0 -0.024331599 0.0014741182999999998 0.0 -0.013434244 0.0014516978 0.0 -0.006840351 0.0014256445000000002 0.0 -0.0035473970000000003 0.0024703927 0.0 -0.043234880999999996 0.0024858761999999998 0.0 -0.036094118 0.0024832203 0.0 -0.02387942 0.0024614618 0.0 -0.013177603999999999 0.00242517 0.0 -0.0067050979 0.0023819085 0.0 -0.0034742411 0.0034731014000000003 0.0 -0.041859827999999995 0.0034956126 0.0 -0.034937132 0.0034925365000000002 0.0 -0.023105588 0.0034634490000000004 0.0 -0.012746131 0.0034145056 0.0 -0.00648276 0.0033555112 0.0 -0.003357626 0.0044256272 0.0 -0.03994922 0.0044537419 0.0 -0.033328958 0.0044500045 0.0 -0.022032181 0.0044141212 0.0 -0.012150633000000001 0.0043535829 0.0 -0.0061788387 0.0042802086 0.0 -0.0032003357 0.0052468744 0.0 -0.037579562999999996 0.0052787769 0.0 -0.031333014 0.0052746665000000005 0.0 -0.02070049 0.0052326097999999995 0.0 -0.011412471 0.0051617133 0.0 -0.005803498000000001 0.0050756177 0.0 -0.0030074783 0.0058728317 0.0 -0.034857024 0.005892961800000001 0.0 -0.029035527000000002 0.005902440300000001 0.0 -0.019168979 0.0058549861 0.0 -0.010563688 0.0057722828 0.0 -0.0053721024 0.0056622881 0.0 -0.0027876238 0.0062722103 0.0 -0.03190149 0.0062839696 0.0 -0.02654111 0.0062990692 0.0 -0.017504076 0.0062433095 0.0 -0.0096397074 0.006115035600000001 0.0 -0.0049039158 0.005937126 0.0 -0.0025576658 0.0065041338 0.0 -0.028835707999999998 0.0065114186 0.0 -0.023966527 0.0064845295 0.0 -0.015781745 0.0063785543 0.0 -0.0086822063 0.0061819614 0.0 -0.0044202380999999995 0.0059459265 0.0 -0.0023256328 0.0067024636 0.0 -0.025777334 0.006640393299999999 0.0 -0.021408722 0.006537762 0.0 -0.014088615 0.006359994399999999 0.0 -0.007744983299999999 0.0060866526 0.0 -0.0039474536 0.0058077727 0.0 -0.0021001322 0.0070364764 0.0 -0.022829263 0.00680352 0.0 -0.018967928000000002 0.006560959399999999 0.0 -0.012510944 0.0062882057 0.0 -0.0068898308 0.005917016 0.0 -0.0035193253000000003 0.0055907168 0.0 -0.0018901639000000001 0.0075811874 0.0 -0.020051034 0.0071077105 0.0 -0.016730992 0.0066391611 0.0 -0.011131914 0.0062101125 0.0 -0.0061810706000000005 0.005711435799999999 0.0 -0.0031778809999999996 0.0053354166 0.0 -0.0017276392 0.0083932951 0.0 -0.017501447 0.0075905947 0.0 -0.014758673 0.006813322199999999 0.0 -0.010017564 0.0061462624 0.0 -0.005671315400000001 0.0055055479 0.0 -0.0029634333000000002 0.0050709331 0.0 -0.0016183965 0.0094120568 0.0 -0.015213046000000001 0.0082122181 0.0 -0.013088046 0.0070831752 0.0 -0.0092049204 0.0061160829 0.0 -0.0053958562 0.005326004200000001 0.0 -0.0028887982 0.0048149698 0.0 -0.0015761685000000001 0.010347026 0.0 -0.013194121999999999 0.0088084918 0.0 -0.011715923999999999 0.0073803086 0.0 -0.0086772637 0.0061388817 0.0 -0.0053539579 0.0051926337 0.0 -0.0029661704 0.004587363 0.0 -0.0016120669 0.0091238609 0.0 -0.010570316000000001 0.007603512099999999 0.0 -0.0083361138 0.0062144664 0.0 -0.0055047651000000005 0.0051258690999999995 0.0 -0.0031895612 0.0044152676 0.0 -0.0017473648999999998 0.009167319200000001 0.0 -0.0095242439 0.0077321609 0.0 -0.0080393832 0.0063396934 0.0 -0.0057564531 0.0051541119 0.0 -0.0035470538 0.0043220338 0.0 -0.0019904335 0.0077800215 0.0 -0.0076938001 0.0065189945 0.0 -0.0059892614 0.0053160139 0.0 -0.0040045381 0.004356350300000001 0.0 -0.0023681025 0.0078259325 0.0 -0.0072532371 0.006755555999999999 0.0 -0.0060959840000000005 0.0056302552 0.0 -0.004469519 0.0045899902000000005 0.0 -0.0028678975 0.0069782635999999995 0.0 -0.0060633901 0.0060428535 0.0 -0.0048357164000000005 0.0050543225 0.0 -0.0033967202000000003 0.0064312923 0.0 -0.0050400314000000005 0.0056840959 0.0 -0.0038314885 0.0067155821999999995 0.0 -0.0050984379 0.006210935799999999 0.0 -0.0041302935999999995 -3.2883303000000005e-08 0.0 -2.8067244e-09 -3.4534953e-08 0.0 -2.2646571e-09 -3.5836535999999996e-08 0.0 -1.7901636e-09 -3.6845577000000005e-08 0.0 -1.3796759e-09 -3.7611122999999995e-08 0.0 -1.0371782e-09 -3.817771e-08 0.0 -7.5333628e-10 -3.8581156e-08 0.0 -5.1975496e-10 -3.8849461000000004e-08 0.0 -3.2471409e-10 -3.9002572e-08 0.0 -1.5575778e-10 -6.1411647e-08 0.0 -5.274913e-09 -6.441099700000001e-08 0.0 -4.2659676e-09 -6.6770269e-08 0.0 -3.3825998e-09 -6.8598595e-08 0.0 -2.6153451e-09 -6.998605099999999e-08 0.0 -1.9745143e-09 -7.1014483e-08 0.0 -1.440107e-09 -7.1748268e-08 0.0 -9.9800002e-10 -7.2237505e-08 0.0 -6.2576155e-10 -7.2517203e-08 0.0 -3.0094352e-10 -1.1167802e-07 0.0 -9.5820063e-09 -1.1696494e-07 0.0 -7.7569844e-09 -1.2111525000000002e-07 0.0 -6.1593592e-09 -1.2432625e-07 0.0 -4.7759747e-09 -1.2676226e-07 0.0 -3.6165499e-09 -1.2856836999999998e-07 0.0 -2.6466864e-09 -1.2985807e-07 0.0 -1.840758e-09 -1.3071923e-07 0.0 -1.1575783e-09 -1.3121204999999997e-07 0.0 -5.579315299999999e-10 -1.9833625000000002e-07 0.0 -1.6978776999999998e-08 -2.0739968999999998e-07 0.0 -1.3756177000000001e-08 -2.1449939e-07 0.0 -1.0928085e-08 -2.1997911e-07 0.0 -8.4892422e-09 -2.2413211999999997e-07 0.0 -6.4381731e-09 -2.2720807999999998e-07 0.0 -4.7228079e-09 -2.2940424e-07 0.0 -3.2926968e-09 -2.3087073e-07 0.0 -2.0747231e-09 -2.3171052e-07 0.0 -1.0015252e-09 -3.4552582000000003e-07 0.0 -2.9444003e-08 -3.6070728000000004e-07 0.0 -2.3862944000000002e-08 -3.7256848e-07 0.0 -1.895188e-08 -3.8169597e-07 0.0 -1.4735243999999998e-08 -3.8860114000000003e-07 0.0 -1.1179575000000002e-08 -3.9370542e-07 0.0 -8.2106615e-09 -3.9734533e-07 0.0 -5.7303371e-09 -3.9977379999999995e-07 0.0 -3.6150292e-09 -4.0116285e-07 0.0 -1.7466661e-09 -5.921515400000001e-07 0.0 -5.0077016e-08 -6.1707397e-07 0.0 -4.0576762000000004e-08 -6.3649117e-07 0.0 -3.2199189e-08 -6.5138306e-07 0.0 -2.5037044e-08 -6.626250999999999e-07 0.0 -1.8986144e-08 -6.7091503e-07 0.0 -1.3946816999999999e-08 -6.7681515e-07 0.0 -9.7330428e-09 -6.8074354e-07 0.0 -6.1424417e-09 -6.829888000000001e-07 0.0 -2.9686882e-09 -1.0001795e-06 0.0 -8.3617337e-08 -1.0401978e-06 0.0 -6.772150099999999e-08 -1.0713371000000001e-06 0.0 -5.3689625e-08 -1.0951860000000002e-06 0.0 -4.1734229000000005e-08 -1.1131618999999998e-06 0.0 -3.1615581e-08 -1.1263866000000002e-06 0.0 -2.3214392000000004e-08 -1.1357813999999999e-06 0.0 -1.6188743e-08 -1.1420249e-06 0.0 -1.0214021e-08 -1.1455893e-06 0.0 -4.9357221e-09 -1.6660558999999997e-06 0.0 -1.3724579000000002e-07 -1.729119e-06 0.0 -1.1095205e-07 -1.7779666e-06 0.0 -8.790689800000001e-08 -1.8153838999999998e-06 0.0 -6.834388000000001e-08 -1.8436566000000001e-06 0.0 -5.1732165e-08 -1.8644448e-06 0.0 -3.7968015e-08 -1.8791943e-06 0.0 -2.6454526000000002e-08 -1.8889851000000002e-06 0.0 -1.6684726000000002e-08 -1.8945677e-06 0.0 -8.0595335e-09 -2.7343962999999997e-06 0.0 -2.2204245999999997e-07 -2.8325117e-06 0.0 -1.7893142999999997e-07 -2.9082489e-06 0.0 -1.4159272e-07 -2.9662517000000004e-06 0.0 -1.1018967999999999e-07 -3.0102881000000002e-06 0.0 -8.347971899999999e-08 -3.0428213999999996e-06 0.0 -6.1267407e-08 -3.0659126000000005e-06 0.0 -4.2640845999999995e-08 -3.0811839e-06 0.0 -2.6872497e-08 -3.08986e-06 0.0 -1.2974629e-08 -4.420067400000001e-06 0.0 -3.5457690999999995e-07 -4.570753400000001e-06 0.0 -2.8498977e-07 -4.687032700000001e-06 0.0 -2.2529262e-07 -4.7761923e-06 0.0 -1.7559529000000002e-07 -4.8441725e-06 0.0 -1.3337849e-07 -4.8947459e-06 0.0 -9.8078253e-08 -4.9308733e-06 0.0 -6.8243295e-08 -4.9548044e-06 0.0 -4.2941654e-08 -4.9683608e-06 0.0 -2.0683460000000002e-08 -7.0383821e-06 0.0 -5.5831066e-07 -7.2652192000000005e-06 0.0 -4.4814956000000004e-07 -7.4403565e-06 0.0 -3.541803400000001e-07 -7.574844400000001e-06 0.0 -2.766684e-07 -7.677842400000001e-06 0.0 -2.1091741e-07 -7.7549821e-06 0.0 -1.5568187e-07 -7.8105377e-06 0.0 -1.0855546000000001e-07 -7.8475905e-06 0.0 -6.8325114e-08 -7.8686935e-06 0.0 -3.2865940999999996e-08 -1.1043276e-05 0.0 -8.647039599999999e-07 -1.1376579e-05 0.0 -6.9373823e-07 -1.1633747e-05 0.0 -5.483956299999999e-07 -1.1831080999999999e-05 0.0 -4.2952722999999997e-07 -1.1982624e-05 0.0 -3.2876906e-07 -1.2096721999999999e-05 0.0 -2.4385992000000004e-07 -1.2179545e-05 0.0 -1.7073853e-07 -1.2235272e-05 0.0 -1.0775332000000001e-07 -1.2267291e-05 0.0 -5.1925337e-08 -1.7090972e-05 0.0 -1.3162878e-06 -1.7569095e-05 0.0 -1.0545625e-06 -1.7936585e-05 0.0 -8.3425095e-07 -1.8217903e-05 0.0 -6.5507595e-07 -1.8433951e-05 0.0 -5.0313412e-07 -1.8596755e-05 0.0 -3.7490324e-07 -1.8715415e-05 0.0 -2.6372709e-07 -1.8795807e-05 0.0 -1.6716575e-07 -1.8842342000000002e-05 0.0 -8.082491799999999e-08 -2.614348e-05 0.0 -1.9705899e-06 -2.6812154999999997e-05 0.0 -1.5752236000000002e-06 -2.7323134e-05 0.0 -1.2461317e-06 -2.7712431e-05 0.0 -9.8033195e-07 -2.801092e-05 0.0 -7.550230000000001e-07 -2.8235627e-05 0.0 -5.643316899999999e-07 -2.8399427000000002e-05 0.0 -3.9846307000000005e-07 -2.8510687e-05 0.0 -2.5362418999999997e-07 -2.8575360999999997e-05 0.0 -1.2303592e-07 -3.961266e-05 0.0 -2.9080315000000003e-06 -4.0527189e-05 0.0 -2.3175487000000003e-06 -4.1219573e-05 0.0 -1.8320918999999998e-06 -4.174342e-05 0.0 -1.44214e-06 -4.2143842e-05 0.0 -1.1123085e-06 -4.2444727999999994e-05 0.0 -8.3271249e-07 -4.2664255e-05 0.0 -5.8945659e-07 -4.2813746e-05 0.0 -3.7634811e-07 -4.29008e-05 0.0 -1.8305853e-07 -5.953632400000001e-05 0.0 -4.247945099999999e-06 -6.0763672e-05 0.0 -3.373664e-06 -6.1684674e-05 0.0 -2.6606003e-06 -6.237482e-05 0.0 -2.0916227e-06 -6.2898755e-05 0.0 -1.6135301e-06 -6.329250799999999e-05 0.0 -1.208861e-06 -6.3581014e-05 0.0 -8.574698999999999e-07 -6.3778309e-05 0.0 -5.4875824e-07 -6.389360399999999e-05 0.0 -2.6735958e-07 -8.8745823e-05 0.0 -6.152634799999999e-06 -9.0371374e-05 0.0 -4.8708198e-06 -9.158290000000001e-05 0.0 -3.8358726000000005e-06 -9.248588299999999e-05 0.0 -3.0082231e-06 -9.3168856e-05 0.0 -2.3185523e-06 -9.3682567e-05 0.0 -1.7376752e-06 -9.4060175e-05 0.0 -1.2342798e-06 -9.4319315e-05 0.0 -7.9098027e-07 -9.4471019e-05 0.0 -3.8567214e-07 -0.00013100763000000002 0.0 -8.868560099999999e-06 -0.00013313364 0.0 -7.014206400000001e-06 -0.00013471483999999998 0.0 -5.5272826e-06 -0.00013589773000000001 0.0 -4.32663e-06 -0.00013679586 0.0 -3.3302350999999997e-06 -0.00013747354 0.0 -2.4929766e-06 -0.00013797193000000002 0.0 -1.7701362e-06 -0.00013831415 0.0 -1.1340363e-06 -0.00013851466 0.0 -5.527913299999999e-07 -0.00019107168 0.0 -1.2766819e-05 -0.00019379181 0.0 -1.0128852000000001e-05 -0.00019582841 0.0 -8.0032924e-06 -0.00019737561999999998 0.0 -6.2600238e-06 -0.00019856395000000002 0.0 -4.8103238e-06 -0.0001994682 0.0 -3.5904149999999997e-06 -0.00020013447 0.0 -2.5426161000000004e-06 -0.00020059178 0.0 -1.6251731000000002e-06 -0.0002008593 0.0 -7.910369399999999e-07 -0.00027477542999999996 0.0 -1.8379033999999998e-05 -0.00027814583 0.0 -1.4680229e-05 -0.00028071377999999995 0.0 -1.1655603e-05 -0.00028271673 0.0 -9.120403800000001e-06 -0.00028428667999999996 0.0 -6.9931775e-06 -0.00028549795 0.0 -5.1978095e-06 -0.00028639581 0.0 -3.6638707999999997e-06 -0.00028701185 0.0 -2.3321938e-06 -0.00028737133999999997 0.0 -1.1320975e-06 -0.00038964002 0.0 -2.6504178000000003e-05 -0.00039363551 0.0 -2.1366577000000004e-05 -0.00039677482000000005 0.0 -1.7053506e-05 -0.00039930621 0.0 -1.3348053e-05 -0.00040134101 0.0 -1.019972e-05 -0.00040293796000000003 0.0 -7.5409262e-06 -0.00040413332 0.0 -5.282665400000001e-06 -0.0004049564 0.0 -3.3447884e-06 -0.00040543632000000003 0.0 -1.6176665e-06 -0.0005462275 0.0 -3.8361144e-05 -0.00055070192 0.0 -3.1207157000000004e-05 -0.00055435597 0.0 -2.4982588e-05 -0.00055740296 0.0 -1.9522529e-05 -0.00055992254 0.0 -1.4827629999999999e-05 -0.00056194054 0.0 -1.0887415000000001e-05 -0.0005634747200000001 0.0 -7.574578400000001e-06 -0.00056454277 0.0 -4.7659646e-06 -0.00056516903 0.0 -2.2975314e-06 -0.0007601919900000001 0.0 -5.5830507e-05 -0.0007648900500000001 0.0 -4.5649507e-05 -0.0007688489900000001 0.0 -3.6447607e-05 -0.00077221898 0.0 -2.8343682e-05 -0.0007750993799999999 0.0 -2.1328654999999998e-05 -0.0007774732700000001 0.0 -1.55162e-05 -0.00077932159 0.0 -1.0728488999999999e-05 -0.00078063883 0.0 -6.7081482000000006e-06 -0.0007814202099999999 0.0 -3.2250333999999996e-06 -0.0010540516999999999 0.0 -8.1732564e-05 -0.0010587435 0.0 -6.6678011e-05 -0.0010626576 0.0 -5.2685470999999996e-05 -0.0010659496 0.0 -4.0478586e-05 -0.0010688194 0.0 -3.0187392e-05 -0.0010713114 0.0 -2.1734122000000003e-05 -0.0010733411 0.0 -1.4931541e-05 -0.0010748493 0.0 -9.2783484e-06 -0.0010757664999999999 0.0 -4.4498825e-06 -0.0014569325 0.0 -0.00012007354 -0.0014616353 0.0 -9.6937474e-05 -0.0014650860999999998 0.0 -7.5231721e-05 -0.0014676675 0.0 -5.686140099999999e-05 -0.00146992 0.0 -4.1965442999999994e-05 -0.0014721137 0.0 -2.98623e-05 -0.0014740706 0.0 -2.0335316e-05 -0.0014756323 0.0 -1.2581433e-05 -0.0014766279 0.0 -6.0138063e-06 -0.0020004417999999998 0.0 -0.00017617813000000003 -0.0020060851 0.0 -0.00013843784 -0.0020083981 0.0 -0.00010607156 -0.0020094838 0.0 -7.8756537e-05 -0.0020103839 0.0 -5.7289777000000005e-05 -0.0020116949 0.0 -4.0369192e-05 -0.0020132372 0.0 -2.7204271e-05 -0.002014657 0.0 -1.6731989e-05 -0.0020156463 0.0 -7.959048199999999e-06 -0.0027117538 0.0 -0.00025373767000000006 -0.0027184174 0.0 -0.0001961394 -0.0027194668 0.0 -0.00014779154 -0.002718315 0.0 -0.00010801815 -0.0027170823999999997 0.0 -7.7313322e-05 -0.0027168884000000003 0.0 -5.3802109e-05 -0.0027176307 0.0 -3.5826561e-05 -0.0027186919 0.0 -2.1881497e-05 -0.0027195716 0.0 -1.0343772e-05 -0.0035991655 0.0 -0.00036031504999999996 -0.0036084652 0.0 -0.00027322932 -0.0036079059 0.0 -0.00020264603 -0.0036035879 0.0 -0.00014622565 -0.0035994448999999997 0.0 -0.00010304832 -0.0035971342999999998 0.0 -7.0811373e-05 -0.0035966490000000004 0.0 -4.6552475000000004e-05 -0.0035971403 0.0 -2.8187938e-05 -0.0035978032 0.0 -1.3222739e-05 -0.0046506709999999995 0.0 -0.00048753983 -0.0046545258 0.0 -0.00037058873999999995 -0.0046505635 0.0 -0.00027247667 -0.00464225 0.0 -0.00019414703000000003 -0.0046342523 0.0 -0.0001349651 -0.0046291444 0.0 -9.1663591e-05 -0.004627035900000001 0.0 -5.9564842e-05 -0.004626719699999999 0.0 -3.5716745e-05 -0.0046270778000000005 0.0 -1.6657847e-05 -0.0057983984999999995 0.0 -0.0006400939900000001 -0.005795809 0.0 -0.00047718987000000004 -0.0057807928 0.0 -0.0003525381 -0.0057648942000000005 0.0 -0.00025137027999999997 -0.005751899 0.0 -0.00017305365 -0.0057433392 0.0 -0.00011595226000000001 -0.0057392051 0.0 -7.4776348e-05 -0.005737929100000001 0.0 -4.4277120000000005e-05 -0.0057378891 0.0 -2.058415e-05 -0.0069763088 0.0 -0.00077181432 -0.006935256999999999 0.0 -0.00059267791 -0.0069041569 0.0 -0.00043249791 -0.006874413199999999 0.0 -0.0003095358 -0.0068526291 0.0 -0.0002143576 -0.0068395524 0.0 -0.00014287936000000002 -0.006832994100000001 0.0 -9.1317597e-05 -0.006830649499999999 0.0 -5.3586666999999996e-05 -0.0068301363 0.0 -2.4705823e-05 -0.0081099067 0.0 -0.0009067363 -0.008026784300000001 0.0 -0.00068167114 -0.007961047800000001 0.0 -0.0005095661599999999 -0.0079143923 0.0 -0.00036273125 -0.0078800404 0.0 -0.00025140692000000004 -0.0078597171 0.0 -0.00016713046 -0.0078492397 0.0 -0.00010563254999999999 -0.0078444751 0.0 -6.1369763e-05 -0.007842840600000001 0.0 -2.8072478000000003e-05 -0.0091296295 0.0 -0.0010802385 -0.0090054292 0.0 -0.00079570845 -0.0089095086 0.0 -0.00058730837 -0.0088392291 0.0 -0.00041696083 -0.0087929498 0.0 -0.00028100546000000003 -0.0087650772 0.0 -0.00018057599999999997 -0.0087485127 0.0 -0.00011056574 -0.0087399203 0.0 -6.3281565e-05 -0.0087360265 0.0 -2.8201359000000002e-05 -0.009837307 0.0 -0.0013266535999999999 -0.0096776895 0.0 -0.00095721969 -0.0095655601 0.0 -0.00070379011 -0.0094865598 0.0 -0.0004927268599999999 -0.009431202 0.0 -0.00032371841 -0.009393679 0.0 -0.00020052476999999998 -0.0093697878 0.0 -0.00011708138999999999 -0.0093558952 0.0 -6.3599618e-05 -0.009348460500000001 0.0 -2.7331977000000002e-05 -0.0097834021 0.0 -0.0015398532999999998 -0.0096348887 0.0 -0.0010933352 -0.0095275203 0.0 -0.00080656819 -0.0094512012 0.0 -0.00055768515 -0.009398357900000001 0.0 -0.00035896937999999994 -0.0093633244 0.0 -0.00021465866000000002 -0.009341741 0.0 -0.00011975582 -0.0093291225 0.0 -6.1136532e-05 -0.009322729 0.0 -2.5303912e-05 -0.0083978288 0.0 -0.0017306271 -0.008284384399999999 0.0 -0.0012202809 -0.008197682900000001 0.0 -0.00090110436 -0.0081359278 0.0 -0.0006196672900000001 -0.0080948919 0.0 -0.00039172155 -0.008069827199999999 0.0 -0.00022611712999999999 -0.0080558565 0.0 -0.00011885448 -0.0080487924 0.0 -5.62967e-05 -0.0080456696 0.0 -2.1708888999999998e-05 -0.0059333062 0.0 -0.0018982021 -0.0058441726 0.0 -0.0013426095000000002 -0.0057747886 0.0 -0.00099210127 -0.0057247449 0.0 -0.0006821002499999999 -0.0056915781000000006 0.0 -0.00043073365999999995 -0.0056715752 0.0 -0.00024807069 -0.0056606564 0.0 -0.00012991972 -0.0056553008 0.0 -6.1225481e-05 -0.0056530093 0.0 -2.3492927e-05 -0.0036158009999999997 0.0 -0.0020170428 -0.003552642 0.0 -0.0014342342000000002 -0.0035027721999999996 0.0 -0.001061097 -0.0034664245000000002 0.0 -0.00072992127 -0.0034422411 0.0 -0.00046093503 -0.0034276512 0.0 -0.00026535249 -0.0034196965999999996 0.0 -0.0001388466 -0.0034157925 0.0 -6.534619e-05 -0.0034141270000000003 0.0 -2.5046749e-05 -0.0018252244 0.0 -0.0020931466 -0.0017868835000000001 0.0 -0.0014955835999999998 -0.0017559172 0.0 -0.0011080592 -0.0017330861999999999 0.0 -0.0007626615700000001 -0.0017178445 0.0 -0.00048160757000000005 -0.0017086631 0.0 -0.00027713897999999995 -0.0017036644 0.0 -0.00014491245000000002 -0.0017012171 0.0 -6.8149937e-05 -0.0017001707 0.0 -2.6099497999999998e-05 -0.00052401202 0.0 -0.0021329075 -0.00050778128 0.0 -0.0015291813 -0.00049406127 0.0 -0.0011342604 -0.00048376220999999997 0.0 -0.0007810125200000001 -0.00047688035 0.0 -0.00049315795 -0.00047275014 0.0 -0.00028367719 -0.00047051886 0.0 -0.00014825702 -0.00046943245000000003 0.0 -6.9682159e-05 -0.00046896926 0.0 -2.6666140999999997e-05 0.00048304095999999997 0.0 -0.0021416226 0.00047986375 0.0 -0.0015381444 0.00047815652 0.0 -0.0011417294 0.00047716094000000006 0.0 -0.0007862996400000001 0.00047650535 0.0 -0.00049642386 0.00047606902 0.0 -0.00028546283 0.00047580147000000005 0.0 -0.00014913161 0.00047566797 0.0 -7.0071801e-05 0.00047561032 0.0 -2.6813697000000002e-05 0.0014008621 0.0 -0.0021232683 0.0013803745000000001 0.0 -0.0015252641 0.0013648289 0.0 -0.0011325147 0.0013537299 0.0 -0.00077996281 0.0013463466 0.0 -0.00049233949 0.0013418454 0.0 -0.00028304092 0.0013393622 0.0 -0.00014782205 0.0013381309 0.0 -6.9439418e-05 0.0013376054 0.0 -2.6575648e-05 0.0023394504 0.0 -0.0020781143 0.0023031805 0.0 -0.0014927267000000002 0.0022751060000000003 0.0 -0.0011084764 0.0022549357000000003 0.0 -0.00076335383 0.0022415584 0.0 -0.000481772 0.0022334387 0.0 -0.00027690938 0.0022289758 0.0 -0.00014459316 0.0022267606 0.0 -6.791533800000001e-05 0.0022258107 0.0 -2.5987147e-05 0.0032968081 0.0 -0.0020078418 0.0032460792 0.0 -0.0014423476999999999 0.0032066641999999998 0.0 -0.0010711746 0.0031783822999999997 0.0 -0.00073762116 0.0031596485 0.0 -0.0004654626 0.0031483162 0.0 -0.00026749546000000003 0.0031420889000000002 0.0 -0.00013966158 0.0031389953000000004 0.0 -6.5594329e-05 0.0031376544 0.0 -2.5103078e-05 0.0042067301 0.0 -0.0019145362 0.0041430228999999996 0.0 -0.0013759679000000002 0.0040935655 0.0 -0.0010221069 0.004058165 0.0 -0.00070386421 0.0040347585 0.0 -0.0004441325700000001 0.0040206098999999995 0.0 -0.00025521737 0.0040128385 0.0 -0.00013325275 0.00400898 0.0 -6.2589919e-05 0.0040073046 0.0 -2.3953149e-05 0.004988933 0.0 -0.0018011758 0.0049138274 0.0 -0.00129582 0.0048557119 0.0 -0.000963055 0.0048141615000000006 0.0 -0.00066334277 0.004786733499999999 0.0 -0.00041860918 0.0047700778000000004 0.0 -0.00024058449 0.0047608903 0.0 -0.00012565781 0.0047562891 0.0 -5.905229e-05 0.0047542853 0.0 -2.2617154000000002e-05 0.0055454778 0.0 -0.001675882 0.0054487335 0.0 -0.0012099972 0.0053748488 0.0 -0.00090077659 0.0053211180000000005 0.0 -0.00062239805 0.005283608100000001 0.0 -0.00039494119 0.0052594715000000005 0.0 -0.00022934876 0.005244468299999999 0.0 -0.00012201943999999999 0.0052359449 0.0 -5.8861176999999995e-05 0.0052319621 0.0 -2.3260665e-05 0.0057604453 0.0 -0.0015590776 0.0056267873999999996 0.0 -0.001136166 0.0055307825 0.0 -0.00084812386 0.005460913299999999 0.0 -0.00058937451 0.00541102 0.0 -0.00037995754999999997 0.0053776726 0.0 -0.00022741167000000001 0.0053555449 0.0 -0.00012791311000000003 0.0053416253000000006 0.0 -6.6127031e-05 0.0053339526000000005 0.0 -2.7718879000000002e-05 0.005731768000000001 0.0 -0.0014431204000000001 0.0055801827 0.0 -0.0010590384 0.0054741725 0.0 -0.00079259649 0.0053975 0.0 -0.00055503316 0.005344170600000001 0.0 -0.00036332188999999997 0.0053058942 0.0 -0.00022130529 0.0052807936 0.0 -0.00012677812 0.0052669537 0.0 -6.773453099999999e-05 0.0052593857999999995 0.0 -2.9233827999999998e-05 0.0055782185 0.0 -0.0013226777 0.0054211109 0.0 -0.00098130561 0.0053125792000000005 0.0 -0.0007345223599999999 0.0052332832 0.0 -0.00051752501 0.0051784613 0.0 -0.00034080862 0.0051442357 0.0 -0.00021233845 0.0051236711 0.0 -0.00012604953 0.0051118587 0.0 -6.9643029e-05 0.005105936 0.0 -3.1395273e-05 0.005355795799999999 0.0 -0.0012148232000000001 0.0052118269 0.0 -0.00090872648 0.0051023271 0.0 -0.0006817787099999999 0.005024374 0.0 -0.0004828177 0.004972579 0.0 -0.00032441696 0.0049415589 0.0 -0.00020940276000000002 0.0049232896 0.0 -0.00012884253 0.0049132579 0.0 -7.410328499999999e-05 0.004908605900000001 0.0 -3.3180895e-05 0.0051112119 0.0 -0.0011239401 0.0049640243 0.0 -0.0008493697400000001 0.0048575574 0.0 -0.00063660933 0.0047790016999999995 0.0 -0.00045470275999999997 0.0047277636 0.0 -0.0003124777 0.0046957345 0.0 -0.00020631865000000002 0.0046780165 0.0 -0.0001303601 0.0046684626 0.0 -7.544417900000001e-05 0.0046637114 0.0 -3.4342014e-05 0.004836397199999999 0.0 -0.0010590798 0.0046834061 0.0 -0.0007916860000000001 0.0045731929 0.0 -0.00059684512 0.004494153 0.0 -0.00043264843 0.0044394769 0.0 -0.00030111038 0.0044058496 0.0 -0.00020164307 0.0043864935 0.0 -0.00012893125 0.004375882 0.0 -7.5838565e-05 0.0043707849 0.0 -3.5078049999999995e-05 0.0045395028 0.0 -0.0010137262 0.0043750606 0.0 -0.00073905906 0.0042628497 0.0 -0.00056075258 0.0041762232 0.0 -0.00041140447 0.0041171662 0.0 -0.00029036435 0.0040797982 0.0 -0.00019766203999999998 0.0040569329 0.0 -0.00012832331 0.0040443703 0.0 -7.6091899e-05 0.0040379859999999995 0.0 -3.5769996999999996e-05 0.0042468188 0.0 -0.00099142233 0.0040676259 0.0 -0.00069980917 0.0039388477 0.0 -0.00052238698 0.0038478915 0.0 -0.00038967939 0.0037829832000000002 0.0 -0.00028168585 0.003738567 0.0 -0.00019527063999999998 0.0037107679999999997 0.0 -0.00012822266 0.0036946174 0.0 -7.722377599999999e-05 0.003686225 0.0 -3.6308262e-05 0.0039945929 0.0 -0.0010166755 0.0037657965000000002 0.0 -0.0006687629499999999 0.0036281417 0.0 -0.0004888530799999999 0.0035276262 0.0 -0.00036733638 0.003455176 0.0 -0.00026981111 0.0034047458 0.0 -0.00019330363999999997 0.0033702396000000003 0.0 -0.00012992223 0.0033488164000000003 0.0 -7.9566053e-05 0.003337373 0.0 -3.7522676999999996e-05 0.0038044907 0.0 -0.0011145574 0.0035100211 0.0 -0.00066981057 0.0033406906 0.0 -0.00045828236 0.0032299419 0.0 -0.00033985396 0.003151285 0.0 -0.00025535517000000005 0.0030945356 0.0 -0.00018700863999999997 0.0030547888 0.0 -0.00013018811000000002 0.0030281797999999996 0.0 -8.1733713e-05 0.0030134721 0.0 -3.9007638e-05 0.003710266 0.0 -0.001315369 0.0033270835 0.0 -0.00073966064 0.0031016783 0.0 -0.00045159081 0.002965492 0.0 -0.00031448077 0.0028797893 0.0 -0.00023234963 0.0028165298999999998 0.0 -0.00017205483 0.0027741841 0.0 -0.00012307943000000002 0.0027459431 0.0 -7.957688600000001e-05 0.0027291859 0.0 -3.8617964000000003e-05 0.0037820856 0.0 -0.0016612634 0.0032578351 0.0 -0.0009171343400000001 0.0029480596999999996 0.0 -0.0005143033900000001 0.0027619647 0.0 -0.00031462367 0.0026459115999999997 0.0 -0.00021041493 0.0025762303 0.0 -0.00015142688 0.0025268332 0.0 -0.00010478671 0.0024972677 0.0 -6.8558809e-05 0.0024804045 0.0 -3.3434964e-05 0.0041380073 0.0 -0.0021510927 0.0034151303000000003 0.0 -0.001261133 0.0029384859 0.0 -0.00070444652 0.0026557548 0.0 -0.00039322101000000004 0.0024841223 0.0 -0.00022947074 0.0023792647 0.0 -0.00014029793999999999 0.0023167797 0.0 -8.777725500000001e-05 0.0022803068 0.0 -5.3142048000000005e-05 0.0022611867000000003 0.0 -2.5055586e-05 0.0048232866 0.0 -0.0026689337 0.003954194 0.0 -0.0017433179000000002 0.0032401555 0.0 -0.0010786867 0.0027572041999999997 0.0 -0.0006271167099999999 0.0024562902 0.0 -0.00035387481 0.0022823154 0.0 -0.00019550965 0.0021793162 0.0 -0.00010434476 0.0021223463 0.0 -5.2531445999999996e-05 0.0020942225 0.0 -2.1636275e-05 0.0055763995999999994 0.0 -0.0031455813000000003 0.0048114266 0.0 -0.0022515007000000003 0.004014276 0.0 -0.001540105 0.003304647 0.0 -0.0010216241 0.0027725995000000003 0.0 -0.00064646965 0.0024295036999999998 0.0 -0.00038139991000000004 0.0022266395 0.0 -0.00020676083 0.0021146825 0.0 -0.00010183568000000001 0.0020603776999999998 0.0 -4.0965995e-05 0.005995829100000001 0.0 -0.0035429247999999997 0.005540133 0.0 -0.0027384069 0.004959404000000001 0.0 -0.0020244343 0.0043047001 0.0 -0.0014499468 0.0036799358000000003 0.0 -0.0010028592 0.0031690253000000003 0.0 -0.0006596524000000001 0.0028050329999999997 0.0 -0.00040093434000000003 0.0025784275 0.0 -0.00021779223999999998 0.0024597454000000003 0.0 -9.366826999999999e-05 0.0057930849 0.0 -0.0031525269 0.0055610174 0.0 -0.0024904781 0.0052011986 0.0 -0.0019117297 0.0047653234 0.0 -0.001399396 0.0043335357 0.0 -0.00096044305 0.0039835521 0.0 -0.00060134026 0.0037467713 0.0 -0.00033463509 0.0036147938 0.0 -0.00014614753 0.00549741 0.0 -0.0023716581 0.0053977249 0.0 -0.0018274389000000001 0.0052357959 0.0 -0.0013048775 0.0050801234 0.0 -0.00083008868 0.0049658213 0.0 -0.00046447583 0.0048986827 0.0 -0.00020315707999999999 0.005342273000000001 0.0 -0.0016738432 0.0053950269 0.0 -0.0010735261 0.0054268874 0.0 -0.00060114334 0.0054421098999999995 0.0 -0.00026225802000000005 -3.9052257000000004e-08 0.0 3.4889509000000003e-15 -3.9002525999999996e-08 0.0 1.5575952e-10 -3.8849457e-08 0.0 3.2471392e-10 -3.8581131e-08 0.0 5.1975535e-10 -3.817769600000001e-08 0.0 7.5333523e-10 -3.7611122999999995e-08 0.0 1.0371775e-09 -3.6845567e-08 0.0 1.379677e-09 -3.5836542999999995e-08 0.0 1.7901644e-09 -7.260809599999999e-08 0.0 2.4525686999999998e-15 -7.2517167e-08 0.0 3.0094727e-10 -7.223742e-08 0.0 6.2576011e-10 -7.1748268e-08 0.0 9.9800035e-10 -7.101451899999999e-08 0.0 1.4401054e-09 -6.9986029e-08 0.0 1.9745161e-09 -6.859860899999999e-08 0.0 2.6153466e-09 -6.6770276e-08 0.0 3.3825962e-09 -1.3137245e-07 0.0 -5.498502900000001e-15 -1.3121204999999997e-07 0.0 5.5792865e-10 -1.3071909e-07 0.0 1.1575757e-09 -1.2985804e-07 0.0 1.8407552e-09 -1.2856833e-07 0.0 2.6466822e-09 -1.2676225000000001e-07 0.0 3.6165524e-09 -1.2432626e-07 0.0 4.775992e-09 -1.2111522000000001e-07 0.0 6.1593579e-09 -2.3198376e-07 0.0 6.328051899999999e-15 -2.3171052e-07 0.0 1.0015447e-09 -2.308708e-07 0.0 2.0747213e-09 -2.2940429000000003e-07 0.0 3.2926817e-09 -2.2720813e-07 0.0 4.7228017e-09 -2.2413207e-07 0.0 6.438174e-09 -2.1997909e-07 0.0 8.4892715e-09 -2.1449938e-07 0.0 1.0928083999999997e-08 -4.0161507000000003e-07 0.0 3.8348302e-14 -4.0116296000000007e-07 0.0 1.7466629e-09 -3.9977351e-07 0.0 3.615007e-09 -3.9734524999999997e-07 0.0 5.7303549e-09 -3.9370539e-07 0.0 8.2106633e-09 -3.8860098999999996e-07 0.0 1.1179576e-08 -3.8169594e-07 0.0 1.4735291000000001e-08 -3.7256876e-07 0.0 1.8951898e-08 -6.8371918e-07 0.0 5.9909421e-14 -6.8298903e-07 0.0 2.9686871e-09 -6.8074343e-07 0.0 6.1424301e-09 -6.7681538e-07 0.0 9.7330428e-09 -6.7091526e-07 0.0 1.3946808000000002e-08 -6.626249799999999e-07 0.0 1.8986118000000003e-08 -6.5138312e-07 0.0 2.5037078e-08 -6.3649111e-07 0.0 3.2199207000000006e-08 -1.1467468999999998e-06 0.0 -9.180038699999998e-14 -1.1455892e-06 0.0 4.9356279e-09 -1.1420252e-06 0.0 1.0214045e-08 -1.135781e-06 0.0 1.6188723e-08 -1.1263866000000002e-06 0.0 2.3214382e-08 -1.1131618999999998e-06 0.0 3.1615552999999996e-08 -1.0951861e-06 0.0 4.1734197e-08 -1.0713375e-06 0.0 5.3689542999999996e-08 -1.8963815e-06 0.0 -2.7685562000000004e-14 -1.8945681999999999e-06 0.0 8.0592848e-09 -1.8889851000000002e-06 0.0 1.6684766e-08 -1.8791932e-06 0.0 2.6454527000000002e-08 -1.8644445e-06 0.0 3.7967975e-08 -1.8436569e-06 0.0 5.1732196999999996e-08 -1.8153842e-06 0.0 6.8343716e-08 -1.7779674e-06 0.0 8.790664199999998e-08 -3.092674e-06 0.0 -5.2742739000000003e-14 -3.0898593e-06 0.0 1.2974374e-08 -3.0811846000000003e-06 0.0 2.6872421000000003e-08 -3.0659145999999998e-06 0.0 4.2640835e-08 -3.0428205e-06 0.0 6.1267372e-08 -3.0102894e-06 0.0 8.347939900000001e-08 -2.9662535e-06 0.0 1.1018938e-07 -2.9082466e-06 0.0 1.4159217999999998e-07 -4.972727299999999e-06 0.0 -4.1821516e-13 -4.968359500000001e-06 0.0 2.0683689e-08 -4.954802099999999e-06 0.0 4.2941919999999996e-08 -4.9308724e-06 0.0 6.8243438e-08 -4.8947445e-06 0.0 9.8078196e-08 -4.844172099999999e-06 0.0 1.3337825e-07 -4.776191e-06 0.0 1.7559523000000002e-07 -4.6870332e-06 0.0 2.2529257e-07 -7.8755293e-06 0.0 1.5478499999999998e-13 -7.8686971e-06 0.0 3.2866108e-08 -7.8475896e-06 0.0 6.832500099999999e-08 -7.8105359e-06 0.0 1.0855523e-07 -7.7549848e-06 0.0 1.556818e-07 -7.6778406e-06 0.0 2.1091745e-07 -7.5748494e-06 0.0 2.7666859999999995e-07 -7.4403579e-06 0.0 3.5417963e-07 -1.2277716e-05 0.0 -5.1708746e-13 -1.2267293999999999e-05 0.0 5.1926385000000005e-08 -1.2235281e-05 0.0 1.0775418e-07 -1.2179541e-05 0.0 1.7073827999999999e-07 -1.2096718000000002e-05 0.0 2.4385983e-07 -1.1982628999999999e-05 0.0 3.2876940000000005e-07 -1.1831076e-05 0.0 4.2952550000000004e-07 -1.1633748e-05 0.0 5.4839472e-07 -1.8857564999999998e-05 0.0 -8.834124699999999e-14 -1.8842346e-05 0.0 8.0825117e-08 -1.8795801e-05 0.0 1.6716585000000001e-07 -1.8715411e-05 0.0 2.6372683000000003e-07 -1.8596751e-05 0.0 3.7490321e-07 -1.8433952999999998e-05 0.0 5.031345200000001e-07 -1.821789e-05 0.0 6.550770899999999e-07 -1.7936592000000002e-05 0.0 8.342512399999999e-07 -2.8596589e-05 0.0 -1.0918489e-12 -2.8575360999999997e-05 0.0 1.2303361999999999e-07 -2.85107e-05 0.0 2.5362243e-07 -2.8399430000000003e-05 0.0 3.9846296e-07 -2.8235625e-05 0.0 5.6433151e-07 -2.8010934000000003e-05 0.0 7.5502567e-07 -2.7712418e-05 0.0 9.8032979e-07 -2.7323134e-05 0.0 1.2461328e-06 -4.2929401e-05 0.0 1.2432112e-12 -4.2900789000000004e-05 0.0 1.8305554999999998e-07 -4.2813734999999995e-05 0.0 3.7634461999999997e-07 -4.2664258e-05 0.0 5.8945415e-07 -4.2444727999999994e-05 0.0 8.3271112e-07 -4.2143838e-05 0.0 1.1123092e-06 -4.1743417e-05 0.0 1.4421385e-06 -4.1219555e-05 0.0 1.8320916e-06 -6.3931446e-05 0.0 -3.5032228999999997e-12 -6.3893589e-05 0.0 2.6735225e-07 -6.3778352e-05 0.0 5.487488599999999e-07 -6.3580999e-05 0.0 8.5746763e-07 -6.32925e-05 0.0 1.2088624e-06 -6.289872500000001e-05 0.0 1.6135343e-06 -6.2374798e-05 0.0 2.0916191000000003e-06 -6.1684637e-05 0.0 2.660599e-06 -9.4520939e-05 0.0 -4.3572051e-12 -9.4471026e-05 0.0 3.8566952e-07 -9.431929400000001e-05 0.0 7.9099561e-07 -9.4060197e-05 0.0 1.2342761e-06 -9.368256e-05 0.0 1.7376717e-06 -9.3168848e-05 0.0 2.3185523e-06 -9.248592e-05 0.0 3.0082217e-06 -9.1582937e-05 0.0 3.835863e-06 -0.00013858058 0.0 1.440501e-11 -0.00013851465000000001 0.0 5.5280822e-07 -0.00013831415 0.0 1.1340413000000002e-06 -0.00013797196 0.0 1.770129e-06 -0.00013747351 0.0 2.4929745e-06 -0.00013679586 0.0 3.3302390000000003e-06 -0.00013589778 0.0 4.3266341e-06 -0.00013471482 0.0 5.527289400000001e-06 -0.00020094718999999999 0.0 -3.2950122e-11 -0.00020085931000000002 0.0 7.9100909e-07 -0.00020059179 0.0 1.6251396e-06 -0.0002001345 0.0 2.5426184e-06 -0.00019946824 0.0 3.590417e-06 -0.00019856397000000002 0.0 4.8103157e-06 -0.00019737567 0.0 6.2600234e-06 -0.00019582838 0.0 8.003286900000001e-06 -0.00028748941 0.0 -1.4298388999999999e-12 -0.0002873714 0.0 1.1321387e-06 -0.00028701188 0.0 2.3321987999999998e-06 -0.00028639581 0.0 3.6638608e-06 -0.00028549795 0.0 5.1978031e-06 -0.00028428674 0.0 6.993182099999999e-06 -0.00028271676 0.0 9.1204147e-06 -0.00028071387000000003 0.0 1.1655609e-05 -0.00040559366 0.0 -1.8686384e-11 -0.00040543638 0.0 1.6176713e-06 -0.00040495627999999996 0.0 3.3447807e-06 -0.00040413335 0.0 5.2826204e-06 -0.00040293790999999996 0.0 7.5409275e-06 -0.00040134108999999996 0.0 1.0199708e-05 -0.00039930621 0.0 1.3348007e-05 -0.0003967747 0.0 1.7053515e-05 -0.0005653747900000001 0.0 -7.207006699999999e-12 -0.0005651688 0.0 2.2975697999999995e-06 -0.00056454295 0.0 4.7659960000000005e-06 -0.0005634747200000001 0.0 7.5745705999999995e-06 -0.00056194083 0.0 1.08874e-05 -0.0005599226 0.0 1.4827609e-05 -0.00055740273 0.0 1.9522518e-05 -0.00055435614 0.0 2.4982639e-05 -0.00078167993 0.0 -3.6693943e-11 -0.0007814204400000001 0.0 3.2250246e-06 -0.00078063871 0.0 6.708225599999999e-06 -0.00077932188 0.0 1.0728462e-05 -0.00077747315 0.0 1.5516185e-05 -0.0007750995599999999 0.0 2.1328651e-05 -0.0007722188 0.0 2.8343712999999997e-05 -0.00076884928 0.0 3.6447593e-05 -0.0010760757000000001 0.0 1.2762606e-10 -0.0010757663 0.0 4.4497469e-06 -0.0010748492 0.0 9.278313000000001e-06 -0.0010733414 0.0 1.4931553e-05 -0.0010713116000000001 0.0 2.1734166e-05 -0.0010688194 0.0 3.0187386e-05 -0.0010659499000000002 0.0 4.0478477e-05 -0.0010626576 0.0 5.2685496000000005e-05 -0.0014769714999999998 0.0 -1.2114747e-11 -0.0014766279999999998 0.0 6.013507599999999e-06 -0.0014756323 0.0 1.2581467e-05 -0.0014740701 0.0 2.033533e-05 -0.0014721132 0.0 2.9862285000000003e-05 -0.0014699193 0.0 4.1965341e-05 -0.0014676669 0.0 5.686123e-05 -0.0014650854999999998 0.0 7.5231779e-05 -0.0020159988 0.0 1.702012e-10 -0.0020156457999999998 0.0 7.959106400000001e-06 -0.0020146575 0.0 1.6732036e-05 -0.0020132372 0.0 2.7204524000000003e-05 -0.0020116954 0.0 4.036917e-05 -0.0020103834 0.0 5.7289551e-05 -0.0020094838 0.0 7.8756457e-05 -0.0020083978 0.0 0.00010607153999999999 -0.0027199036 0.0 -5.9414015e-11 -0.0027195709000000005 0.0 1.034356e-05 -0.0027186919 0.0 2.1881573e-05 -0.0027176302 0.0 3.5826597e-05 -0.0027168898 0.0 5.3802061000000004e-05 -0.0027170823999999997 0.0 7.7313183e-05 -0.0027183147999999997 0.0 0.00010801783000000001 -0.0027194673 0.0 0.00014779158000000002 -0.0035980823 0.0 -2.5610625e-10 -0.0035978040999999996 0.0 1.3222172e-05 -0.0035971403 0.0 2.8188162e-05 -0.0035966488 0.0 4.6552541000000004e-05 -0.0035971353999999997 0.0 7.0811147e-05 -0.0035994437 0.0 0.00010304808000000001 -0.0036035876 0.0 0.00014622552 -0.0036079072999999997 0.0 0.00020264555 -0.0046272762 0.0 2.7726019e-10 -0.0046270788 0.0 1.6658918e-05 -0.0046267188 0.0 3.5716785e-05 -0.0046270373 0.0 5.956474e-05 -0.004629144 0.0 9.1663438e-05 -0.0046342532 0.0 0.00013496513000000002 -0.0046422505 0.0 0.00019414694 -0.0046505639 0.0 0.00027247664 -0.0057379925 0.0 -1.159246e-10 -0.00573789 0.0 2.0584311999999998e-05 -0.0057379295999999995 0.0 4.4277381999999995e-05 -0.0057392074 0.0 7.4775773e-05 -0.0057433386999999995 0.0 0.00011595197 -0.0057519018000000005 0.0 0.00017305357 -0.0057648933 0.0 0.00025137037 -0.005780791899999999 0.0 0.00035253828 -0.006830140500000001 0.0 7.3719564e-10 -0.0068301372 0.0 2.4703841e-05 -0.0068306471 0.0 5.3585169e-05 -0.006832995 0.0 9.131790999999999e-05 -0.006839552 0.0 0.00014287888000000002 -0.0068526291 0.0 0.00021435796000000002 -0.006874413199999999 0.0 0.00030953519 -0.0069041564 0.0 0.00043249755999999993 -0.0078424364 0.0 -2.0982331000000002e-10 -0.0078428416 0.0 2.8071127e-05 -0.0078444751 0.0 6.136944999999999e-05 -0.0078492388 0.0 0.00010563278000000001 -0.0078597143 0.0 0.00016712955000000002 -0.007880041400000001 0.0 0.00025140715 -0.0079143932 0.0 0.00036273152 -0.007961047800000001 0.0 0.00050956663 -0.008734864200000001 0.0 7.5770779e-10 -0.0087360283 0.0 2.8201601e-05 -0.0087399203 0.0 6.3280611e-05 -0.0087485118 0.0 0.00011056629999999999 -0.0087650772 0.0 0.00018057584 -0.0087929498 0.0 0.00028100662 -0.0088392291 0.0 0.00041696290000000003 -0.0089095095 0.0 0.00058730977 -0.0093463045 0.0 2.1046118e-09 -0.0093484595 0.0 2.7328789999999998e-05 -0.009355898 0.0 6.359881800000001e-05 -0.0093697868 0.0 0.00011707809 -0.0093936799 0.0 0.00020052433999999996 -0.0094311982 0.0 0.00032371888 -0.009486557900000001 0.0 0.00049272383 -0.0095655601 0.0 0.00070379011 -0.0093207862 0.0 9.9706292e-11 -0.009322732700000001 0.0 2.5308451e-05 -0.0093291188 0.0 6.1132174e-05 -0.009341741 0.0 0.00011975781999999999 -0.009363325300000001 0.0 0.0002146573 -0.0093983561 0.0 0.00035896801 -0.009451204 0.0 0.00055768673 -0.0095275193 0.0 0.0008065711 -0.0080448044 0.0 2.3220506e-10 -0.0080456696 0.0 2.1708909e-05 -0.0080487924 0.0 5.6295583e-05 -0.0080558555 0.0 0.00011885566 -0.0080698319 0.0 0.00022611801 -0.0080948891 0.0 0.00039172321000000005 -0.008135926 0.0 0.0006196771299999999 -0.0081976848 0.0 0.00090110116 -0.0056523914 0.0 1.0404955e-09 -0.0056530111 0.0 2.3496069999999998e-05 -0.0056553022 0.0 6.1221785e-05 -0.0056606564 0.0 0.00012991911 -0.0056715775 0.0 0.00024807316000000003 -0.00569158 0.0 0.00043073049000000004 -0.005724743000000001 0.0 0.00068209931 -0.0057747886 0.0 0.00099210546 -0.0034136746999999996 0.0 2.0462114e-09 -0.0034141246999999995 0.0 2.5048934e-05 -0.0034157890000000002 0.0 6.5349835e-05 -0.003419694 0.0 0.00013884871000000002 -0.0034276508000000002 0.0 0.00026534987 -0.003442239 0.0 0.00046093538 -0.0034664242999999997 0.0 0.0007299245299999999 -0.0035027759000000004 0.0 0.0010611069000000001 -0.0016998888000000001 0.0 -3.0925551000000003e-10 -0.0017001706 0.0 2.6101403e-05 -0.0017012182999999999 0.0 6.8148118e-05 -0.0017036651 0.0 0.00014491561000000002 -0.0017086598999999998 0.0 0.00027713875 -0.0017178418 0.0 0.00048161071 -0.0017330839000000002 0.0 0.0007626612200000001 -0.0017559195 0.0 0.001108059 -0.00046884007000000004 0.0 -5.9121441e-10 -0.00046896856 0.0 2.6671414e-05 -0.00046942915999999995 0.0 6.9682006e-05 -0.00047051920999999995 0.0 0.00014825669 -0.0004727499 0.0 0.00028367547 -0.00047687962 0.0 0.00049315917 -0.00048376614000000004 0.0 0.00078101549 -0.0004940609200000001 0.0 0.0011342589999999999 0.00047559678 0.0 -4.781036e-09 0.00047560968 0.0 2.6816640000000003e-05 0.00047566849 0.0 7.0071386e-05 0.00047580387999999996 0.0 0.00014913044 0.0004760689599999999 0.0 0.00028546277 0.00047650692000000003 0.0 0.00049642456 0.00047716250999999996 0.0 0.00078629761 0.00047815765999999996 0.0 0.0011417258 0.0013374644 0.0 6.399349400000001e-10 0.0013376066 0.0 2.6568325e-05 0.0013381358 0.0 6.9437345e-05 0.001339359 0.0 0.00014782476 0.001341846 0.0 0.00028304072 0.0013463460999999998 0.0 0.0004923415799999999 0.0013537279000000002 0.0 0.00077996316 0.001364826 0.0 0.0011325087 0.0022255510999999997 0.0 3.3264407e-09 0.0022258062 0.0 2.5983631999999997e-05 0.0022267641 0.0 6.7908157e-05 0.0022289783 0.0 0.00014459193 0.0022334401 0.0 0.00027690694 0.0022415568 0.0 0.00048176755 0.0022549401 0.0 0.00076335151 0.0022751049 0.0 0.0011084741 0.0031372893 0.0 5.4958056e-09 0.0031376566999999998 0.0 2.509094e-05 0.0031389934 0.0 6.559227e-05 0.0031420897999999997 0.0 0.00013966372 0.003148315 0.0 0.00026749657000000004 0.0031596506 0.0 0.0004654614 0.0031783773999999997 0.0 0.00073761959 0.0032066665999999997 0.0 0.0010711717 0.0040068473 0.0 4.920497900000001e-10 0.0040073055 0.0 2.3944863999999997e-05 0.0040089795 0.0 6.258367599999999e-05 0.0040128385 0.0 0.00013325051 0.0040206108 0.0 0.00025521562 0.0040347581 0.0 0.00044413315000000004 0.0040581604 0.0 0.00070385879 0.0040935627 0.0 0.0010221078 0.0047537353999999995 0.0 -6.2399761e-09 0.0047542844 0.0 2.2614868000000002e-05 0.0047562863 0.0 5.9051552000000004e-05 0.0047608916999999995 0.0 0.00012565458 0.0047700778000000004 0.0 0.00024058425 0.0047867312 0.0 0.00041861006 0.0048141619 0.0 0.0006633417200000001 0.0048557073 0.0 0.00096305087 0.0052305291999999995 0.0 2.7667757e-09 0.0052319653 0.0 2.3260832999999996e-05 0.0052359435 0.0 5.8860191000000005e-05 0.0052444688 0.0 0.00012201841 0.005259471 0.0 0.00022934841 0.0052836062 0.0 0.00039494294 0.0053211199 0.0 0.00062239746 0.0053748469999999994 0.0 0.00090077356 0.0053315251 0.0 -1.7547754e-09 0.005333951700000001 0.0 2.7717264e-05 0.0053416248 0.0 6.6130422e-05 0.0053555443999999995 0.0 0.00012791369 0.0053776735 0.0 0.00022741324 0.005411018199999999 0.0 0.00037995749 0.0054609147 0.0 0.00058937346 0.0055307811 0.0 0.00084812415 0.0052571604000000004 0.0 -2.5470843e-09 0.005259388100000001 0.0 2.923359e-05 0.0052669523 0.0 6.7739238e-05 0.0052807955 0.0 0.00012677808 0.0053058979 0.0 0.00022130432000000002 0.0053441725 0.0 0.00036332602 0.0053974986 0.0 0.0005550335 0.005474174399999999 0.0 0.0007925997500000001 0.0051041404 0.0 -5.846761999999999e-11 0.0051059354999999996 0.0 3.1396154000000004e-05 0.0051118582000000004 0.0 6.964923499999999e-05 0.0051236707 0.0 0.00012605033 0.0051442352000000005 0.0 0.00021233859 0.0051784632 0.0 0.00034080891000000006 0.0052332832 0.0 0.00051752431 0.0053125811 0.0 0.0007345193300000001 0.0049071237 0.0 -3.3401952e-09 0.0049086035999999994 0.0 3.3182609e-05 0.0049132574 0.0 7.4103242e-05 0.0049232906 0.0 0.00012884187 0.0049415561 0.0 0.00020940241999999997 0.0049725766 0.0 0.00032441449 0.0050243735 0.0 0.00048281526 0.005102328 0.0 0.0006817770200000001 0.0046625347 0.0 -1.4564566e-09 0.0046637119 0.0 3.4346471e-05 0.0046684635 0.0 7.5443051e-05 0.0046780178999999995 0.0 0.0001303582 0.004695733499999999 0.0 0.00020632006999999998 0.0047277645 0.0 0.00031247741 0.0047790012 0.0 0.00045469965 0.0048575597 0.0 0.0006366082800000001 0.004369277 0.0 2.0227149e-09 0.0043707839 0.0 3.5078443000000004e-05 0.004375882 0.0 7.5838565e-05 0.0043864915999999995 0.0 0.00012893045 0.0044058487 0.0 0.0002016432 0.0044394745 0.0 0.00030111097 0.0044941567 0.0 0.00043264995 0.0045731957 0.0 0.0005968437799999999 0.0040362757 0.0 1.3293570999999998e-11 0.0040379879 0.0 3.5770736000000005e-05 0.0040443707 0.0 7.609075e-05 0.0040569342999999996 0.0 0.00012832538000000002 0.0040797982 0.0 0.00019766249 0.0041171657 0.0 0.00029036435 0.004176225 0.0 0.00041140348 0.0042628497 0.0 0.00056075247 0.003683873 0.0 1.4826996e-09 0.0036862254999999997 0.0 3.6311314000000004e-05 0.0036946166999999998 0.0 7.7224082e-05 0.0037107673 0.0 0.00012822298 0.0037385675 0.0 0.00019527036 0.0037829854999999997 0.0 0.00028168588 0.0038478926 0.0 0.00038968006000000003 0.0039388482 0.0 0.00052238756 0.0033339371000000004 0.0 9.8354647e-10 0.0033373719 0.0 3.7524274e-05 0.0033488164000000003 0.0 7.9566169e-05 0.0033702396000000003 0.0 0.00012992093 0.0034047428000000004 0.0 0.00019330370999999998 0.0034551755999999998 0.0 0.00026981104999999997 0.0035276245 0.0 0.00036733516000000006 0.0036281438 0.0 0.00048885192 0.0030087794 0.0 -1.0008814e-09 0.0030134728000000004 0.0 3.9008355e-05 0.0030281777 0.0 8.1734128e-05 0.0030547881 0.0 0.00013018896 0.0030945365000000003 0.0 0.00018700839 0.0031512859 0.0 0.00025535526 0.0032299409999999996 0.0 0.00033985436000000003 0.0033406909 0.0 0.00045828038 0.0027236836 0.0 -4.1756046e-10 0.0027291856 0.0 3.8619099e-05 0.0027459424 0.0 7.9576675e-05 0.0027741864000000002 0.0 0.00012307895000000002 0.0028165290000000003 0.0 0.00017205485 0.0028797877 0.0 0.00023235074 0.0029654934 0.0 0.00031448064999999996 0.0031016786 0.0 0.00045158903 0.0024751974 0.0 -2.4612853e-11 0.0024804051000000002 0.0 3.3436936000000004e-05 0.0024972688000000002 0.0 6.8558387e-05 0.0025268339000000003 0.0 0.00010478641 0.002576232 0.0 0.0001514266 0.0026459114 0.0 0.0002104145 0.0027619649 0.0 0.00031462382 0.0029480596999999996 0.0 0.00051430357 0.0022560209 0.0 2.6112196e-10 0.0022611869 0.0 2.5055100000000003e-05 0.0022803082 0.0 5.3142558e-05 0.0023167792 0.0 8.7776818e-05 0.0023792647 0.0 0.00014029843 0.0024841223 0.0 0.00022947062000000003 0.0026557546000000004 0.0 0.00039322103999999997 0.0029384855 0.0 0.0007044459299999999 0.0020851960999999997 0.0 4.9342258e-10 0.0020942232 0.0 2.1636552e-05 0.0021223461 0.0 5.2532385000000004e-05 0.0021793162 0.0 0.00010434460999999999 0.0022823159 0.0 0.00019550974999999997 0.0024562909 0.0 0.00035387470000000003 0.0027572052 0.0 0.00062711653 0.0032401561999999997 0.0 0.0010786877 0.0020440514 0.0 -4.9372381e-11 0.002060378 0.0 4.0966024e-05 0.0021146829 0.0 0.0001018355 0.0022266407 0.0 0.00020676092000000002 0.0024295046 0.0 0.00038139985 0.0027726002 0.0 0.00064647017 0.0033046475 0.0 0.0010216243 0.0040142769 0.0 0.0015401057999999998 0.0024231181 0.0 -3.285496e-10 0.0024597454000000003 0.0 9.366770200000001e-05 0.0025784278 0.0 0.00021779278 0.0028050329999999997 0.0 0.00040093425 0.0031690265000000003 0.0 0.0006596523500000001 0.0036799375 0.0 0.0010028596 0.0043047019 0.0 0.0014499468 0.0049594063 0.0 0.002024434 0.00357302 0.0 -2.8226371e-10 0.0036147952 0.0 0.00014614778 0.0037467727 0.0 0.00033463494 0.003983553 0.0 0.0006013407299999999 0.0043335361 0.0 0.0009604427599999999 0.0047653238 0.0 0.0013993954999999998 0.0052012 0.0 0.0019117299 0.005561019300000001 0.0 0.0024904785999999997 0.0048766714 0.0 -3.3691198999999996e-11 0.0048986827 0.0 0.00020315709 0.0049658231 0.0 0.00046447627 0.0050801258 0.0 0.00083008839 0.0052357968 0.0 0.0013048773 0.0053977272 0.0 0.0018274385999999998 0.005497409 0.0 0.0023716581 0.0054466128 0.0 1.7534445e-10 0.005442110799999999 0.0 0.00026225793 0.0054268888 0.0 0.00060114387 0.0053950269 0.0 0.0010735263 0.0053422734999999996 0.0 0.0016738433999999999 -3.4534949e-08 0.0 2.2646576e-09 -3.2883307e-08 0.0 2.8067262e-09 -3.0828595e-08 0.0 3.3923906e-09 -2.8317872000000005e-08 0.0 4.0000256e-09 -2.5294451000000003e-08 0.0 4.6044817e-09 -2.1722217e-08 0.0 5.1256452e-09 -1.7562513e-08 0.0 5.4960734e-09 -6.4410983e-08 0.0 4.2659654e-09 -6.1411654e-08 0.0 5.2749161e-09 -5.766883900000001e-08 0.0 6.3634142e-09 -5.3075549000000003e-08 0.0 7.4930755e-09 -4.7510461e-08 0.0 8.6181231e-09 -4.0879485000000004e-08 0.0 9.5896073e-09 -3.3058409e-08 0.0 1.0286150999999999e-08 -2.4238053000000002e-08 0.0 1.0449718e-08 -1.1696489e-07 0.0 7.7569853e-09 -1.1167805e-07 0.0 9.5819912e-09 -1.0505855000000001e-07 0.0 1.1554070000000001e-08 -9.6899342e-08 0.0 1.3608903999999999e-08 -8.695994300000001e-08 0.0 1.5665231000000002e-08 -7.504578299999999e-08 0.0 1.7469262e-08 -6.0934745e-08 0.0 1.8809724e-08 -4.4894119000000006e-08 0.0 1.9037578999999996e-08 -2.0739974e-07 0.0 1.3756196000000002e-08 -1.9833627e-07 0.0 1.6978762e-08 -1.8693983e-07 0.0 2.0488218999999995e-08 -1.7282942000000003e-07 0.0 2.4154313999999997e-08 -1.5554404000000002e-07 0.0 2.7831911e-08 -1.3467485e-07 0.0 3.1104779e-08 -1.0976900999999999e-07 0.0 3.3567082999999995e-08 -8.117154899999999e-08 0.0 3.4034457e-08 -3.6070712999999997e-07 0.0 2.3862980999999997e-08 -3.455257899999999e-07 0.0 2.9444001000000002e-08 -3.2634582999999997e-07 0.0 3.5569574e-08 -3.0247625e-07 0.0 4.1980663e-08 -2.7304904e-07 0.0 4.8427257000000007e-08 -2.3720682999999998e-07 0.0 5.4258326e-08 -1.9405256000000002e-07 0.0 5.8737266999999994e-08 -1.4401927e-07 0.0 5.9798154e-08 -6.1707419e-07 0.0 4.0576782999999994e-08 -5.921515400000001e-07 0.0 5.007697e-08 -5.6050948e-07 0.0 6.0573122e-08 -5.2090348e-07 0.0 7.159258099999999e-08 -4.717256e-07 0.0 8.2733166e-08 -4.1128101e-07 0.0 9.298869900000002e-08 -3.3781583000000006e-07 0.0 1.0110249000000002e-07 -2.5176496e-07 0.0 1.0351066000000002e-07 -1.040198e-06 0.0 6.772135200000001e-08 -1.0001794e-06 0.0 8.3617202e-08 -9.4907688e-07 0.0 1.0133417999999999e-07 -8.8459387e-07 0.0 1.2007631e-07 -8.0380272e-07 0.0 1.3920257e-07 -7.035574799999999e-07 0.0 1.5707985e-07 -5.804722600000001e-07 0.0 1.7171724999999998e-07 -4.3471897e-07 0.0 1.7702750000000003e-07 -1.7291195e-06 0.0 1.1095217999999999e-07 -1.6660558e-06 0.0 1.3724588e-07 -1.5848756e-06 0.0 1.6690913000000002e-07 -1.4816176000000002e-06 0.0 1.9854471e-07 -1.3511941e-06 0.0 2.3113479000000002e-07 -1.1880946000000002e-06 0.0 2.6196113e-07 -9.857611800000002e-07 0.0 2.8817487e-07 -7.4307002e-07 0.0 2.9952047999999997e-07 -2.8325107000000003e-06 0.0 1.7893132000000003e-07 -2.7343962999999997e-06 0.0 2.2204195999999998e-07 -2.6073737e-06 0.0 2.7119184999999997e-07 -2.4447675e-06 0.0 3.2400948e-07 -2.2381857000000002e-06 0.0 3.7870884999999994e-07 -1.978407e-06 0.0 4.3085257e-07 -1.6531617e-06 0.0 4.7687075e-07 -1.2575096999999999e-06 0.0 5.001398900000001e-07 -4.5707538e-06 0.0 2.8498872e-07 -4.4200692e-06 0.0 3.5457703e-07 -4.2245902e-06 0.0 4.3457262999999996e-07 -3.9732017e-06 0.0 5.2139421e-07 -3.6529252e-06 0.0 6.1089321e-07 -3.2475257e-06 0.0 6.976852099999999e-07 -2.7365857e-06 0.0 7.760368100000001e-07 -2.1055876e-06 0.0 8.216941899999999e-07 -7.2652206000000005e-06 0.0 4.4814965e-07 -7.0383843999999996e-06 0.0 5.5831111e-07 -6.743907799999999e-06 0.0 6.8543625e-07 -6.3630305e-06 0.0 8.2591509e-07 -5.877348500000001e-06 0.0 9.683653800000001e-07 -5.2573191e-06 0.0 1.110433e-06 -4.4705343e-06 0.0 1.2435349e-06 -3.4837459999999998e-06 0.0 1.3331434999999998e-06 -1.1376585e-05 0.0 6.937373199999999e-07 -1.1043281999999999e-05 0.0 8.647045300000001e-07 -1.0609628e-05 0.0 1.0640913e-06 -1.0044508e-05 0.0 1.2923433e-06 -9.322883699999998e-06 0.0 1.5272551999999999e-06 -8.3918458e-06 0.0 1.782609e-06 -7.197792e-06 0.0 2.0575003e-06 -5.6694898e-06 0.0 2.3055442999999995e-06 -1.7569097e-05 0.0 1.054561e-06 -1.7090975e-05 0.0 1.3162868e-06 -1.6466818000000002e-05 0.0 1.6270041e-06 -1.5648266e-05 0.0 2.0012369e-06 -1.4605024e-05 0.0 2.4074905e-06 -1.3249133e-05 0.0 2.908188e-06 -1.1516605e-05 0.0 3.5279127e-06 -9.32082e-06 0.0 4.1594099e-06 -2.6812138e-05 0.0 1.5752233000000002e-06 -2.6143478e-05 0.0 1.9705916999999998e-06 -2.5263285e-05 0.0 2.4577296e-06 -2.4104756000000003e-05 0.0 3.0895173e-06 -2.2631119e-05 0.0 3.8437442999999995e-06 -2.07375e-05 0.0 4.700628299999999e-06 -1.8317004999999998e-05 0.0 5.933508e-06 -1.524176e-05 0.0 7.155491900000001e-06 -4.0527175e-05 0.0 2.3175468999999997e-06 -3.9612671e-05 0.0 2.9080242999999996e-06 -3.8398782999999996e-05 0.0 3.6495047999999996e-06 -3.679542e-05 0.0 4.6206992e-06 -3.4764475e-05 0.0 5.8282749e-06 -3.2140815e-05 0.0 7.5214407e-06 -2.8793202e-05 0.0 9.7950006e-06 -2.4444630999999998e-05 0.0 1.2014946e-05 -6.0763672e-05 0.0 3.3736717000000002e-06 -5.9536331e-05 0.0 4.2479428e-06 -5.7891288000000006e-05 0.0 5.3644462e-06 -5.570221e-05 0.0 6.8515096e-06 -5.29182e-05 0.0 8.7551634e-06 -4.9310922e-05 0.0 1.1467194e-05 -4.4675828e-05 0.0 1.5140546999999999e-05 -3.8531649e-05 0.0 1.8727149e-05 -9.0371395e-05 0.0 4.8708120999999994e-06 -8.874583000000001e-05 0.0 6.152633900000001e-06 -8.6543616e-05 0.0 7.8151434e-06 -8.3576946e-05 0.0 1.0080747e-05 -7.9777317e-05 0.0 1.3059558999999999e-05 -7.4796641e-05 0.0 1.7399983e-05 -6.8320005e-05 0.0 2.3352057e-05 -5.9579528e-05 0.0 2.9207351e-05 -0.00013313365 0.0 7.0142059e-06 -0.00013100766 0.0 8.8685829e-06 -0.00012811021999999998 0.0 1.1274697e-05 -0.00012416471000000002 0.0 1.4601367e-05 -0.00011903067 0.0 1.9066271999999997e-05 -0.00011220128000000001 0.0 2.5659732e-05 -0.00010314699 0.0 3.4888467999999996e-05 -9.0704627e-05 0.0 4.4152977e-05 -0.00019379186999999998 0.0 1.0128879e-05 -0.00019107165000000002 0.0 1.2766837e-05 -0.00018737278999999998 0.0 1.6171822e-05 -0.00018230919 0.0 2.0884218e-05 -0.00017559098 0.0 2.7319848e-05 -0.00016645601000000003 0.0 3.6950201e-05 -0.00015399621999999998 0.0 5.0760623999999995e-05 -0.00013643818000000002 0.0 6.5052693e-05 -0.00027814589 0.0 1.4680181e-05 -0.00027477546 0.0 1.837898e-05 -0.00027025316000000004 0.0 2.3105915e-05 -0.00026408129000000003 0.0 2.9637209e-05 -0.00025574577999999996 0.0 3.8811562e-05 -0.00024408555 0.0 5.2863837e-05 -0.00022753008999999998 0.0 7.3673407e-05 -0.00020329656000000004 0.0 9.593868200000001e-05 -0.00039363553999999994 0.0 2.1366472e-05 -0.00038963996 0.0 2.6504094e-05 -0.00038442333 0.0 3.2919983000000003e-05 -0.00037740887 0.0 4.1674833e-05 -0.00036782803 0.0 5.4271091e-05 -0.00035391594 0.0 7.414032e-05 -0.00033296863 0.0 0.00010480883 -0.00030053686 0.0 0.00013939929 -0.00055070192 0.0 3.1207066e-05 -0.00054622744 0.0 3.8361057000000003e-05 -0.00054061046 0.0 4.6975896e-05 -0.00053335726 0.0 5.8259582e-05 -0.00052341254 0.0 7.5294149e-05 -0.00050823629 0.0 0.00010288336 -0.0004833056 0.0 0.00014788226999999998 -0.0004414111 0.0 0.00020091643 -0.0007648901099999999 0.0 4.5649369e-05 -0.00076019223 0.0 5.5830496e-05 -0.00075457012 0.0 6.7483576e-05 -0.00074783247 0.0 8.199311600000001e-05 -0.00073886832 0.0 0.00010421994000000001 -0.0007243841 0.0 0.0001412202 -0.00069705845 0.0 0.00020563115 -0.00064537727 0.0 0.00028650238999999996 -0.0010587435 0.0 6.6678069e-05 -0.0010540516 0.0 8.1732542e-05 -0.0010484983 0.0 9.8249053e-05 -0.001042719 0.0 0.00011735409 -0.0010362327 0.0 0.00014597125 -0.0010256189 0.0 0.00019405388 -0.00099979015 0.0 0.00028446627999999995 -0.00094042765 0.0 0.00040722633 -0.0014616353 0.0 9.693727e-05 -0.0014569325 0.0 0.00012007350000000001 -0.0014506164000000002 0.0 0.0001455751 -0.0014451168 0.0 0.00017256232 -0.0014421716000000001 0.0 0.00020931881000000002 -0.0014405743 0.0 0.00027017423 -0.0014248032000000002 0.0 0.00039464099000000003 -0.0013665648999999999 0.0 0.00057863741 -0.0020060854 0.0 0.00013843771999999999 -0.0020004417999999998 0.0 0.00017617808999999997 -0.0019913684 0.0 0.00021763993999999998 -0.0019829888 0.0 0.00026119006 -0.0019838216 0.0 0.00031000123 -0.0019993617 0.0 0.00038669704 -0.0020115902 0.0 0.00055435952 -0.0019783995 0.0 0.00082515046 -0.0027184171999999995 0.0 0.00019613846 -0.0027117555 0.0 0.00025373778999999996 -0.0026962690000000003 0.0 0.00032257772 -0.0026788351 0.0 0.00039899044000000003 -0.0026813928999999998 0.0 0.00047420865 -0.0027253544 0.0 0.00057737058 -0.0027994455 0.0 0.00080272777 -0.0028437967 0.0 0.0011975103 -0.0036084652 0.0 0.0002732295 -0.0035991659000000004 0.0 0.00036031401 -0.0035798161 0.0 0.00046279935999999993 -0.0035550303000000004 0.0 0.00058147666 -0.0035500827 0.0 0.0007213528200000001 -0.0036222378 0.0 0.0009021686300000002 -0.0038122968 0.0 0.0012155617999999998 -0.0040290421000000005 0.0 0.0017751042999999999 -0.0046545267 0.0 0.0003705897 -0.004650672 0.0 0.00048753995000000005 -0.0046313582 0.0 0.0006334561 -0.0046104095 0.0 0.0008101727000000001 -0.0046097776 0.0 0.0010494653 -0.0047075446 0.0 0.0014027159 -0.005035365 0.0 0.0019192816 -0.0055662836 0.0 0.0027191252000000003 -0.0057958099 0.0 0.00047718955 -0.0057983984999999995 0.0 0.00064009428 -0.0058028894 0.0 0.0008241212299999999 -0.0058086501 0.0 0.001084351 -0.0058485162 0.0 0.0014813353 -0.005985654399999999 0.0 0.0021426629 -0.0064391559 0.0 0.0031326381 -0.0073943506 0.0 0.0042878212 -0.0069352560999999995 0.0 0.0005926783799999999 -0.0069763097 0.0 0.0007718147200000001 -0.0070184562 0.0 0.0010279652000000001 -0.0070730918 0.0 0.0014197351000000001 -0.0071898191000000005 0.0 0.0021044696 -0.0074789952000000005 0.0 0.0033217792 -0.0080544082 0.0 0.00516285 -0.0092955073 0.0 0.006972997900000001 -0.0080267852 0.0 0.00068167155 -0.008109905799999999 0.0 0.00090673612 -0.0082002059 0.0 0.0012536935000000001 -0.0083504347 0.0 0.0018963021 -0.008578646 0.0 0.0031787016999999997 -0.0088783307 0.0 0.005551769399999999 -0.009510645600000001 0.0 0.008742108 -0.010956843999999999 0.0 0.011443199 -0.009005431099999999 0.0 0.0007957083900000001 -0.0091296323 0.0 0.00108024 -0.009309068299999999 0.0 0.0015978448999999998 -0.0095467269 0.0 0.002748365 -0.0097906068 0.0 0.0051625092 -0.010005553 0.0 0.0093489261 -0.010500487 0.0 0.014561591 -0.011997948 0.0 0.018348906 -0.0096776914 0.0 0.0009572203300000001 -0.0098373061 0.0 0.0013266552 -0.010062412 0.0 0.0021253226 -0.010317475999999999 0.0 0.0039593698 -0.010528293999999999 0.0 0.0077529847999999995 -0.010610525 0.0 0.014213844 -0.010917333999999999 0.0 0.02183613 -0.01215819 0.0 0.026696757999999998 -0.0096348887 0.0 0.0010933397999999999 -0.0097834049 0.0 0.0015398546 -0.0099853314 0.0 0.0025980955 -0.010199253 0.0 0.0050880495000000005 -0.01031095 0.0 0.010138589 -0.010243398 0.0 0.018532803 -0.010357628 0.0 0.028219018 -0.011153541999999999 0.0 0.033970445 -0.0082843881 0.0 0.0012202767 -0.0083978297 0.0 0.0017306282999999998 -0.0085321097 0.0 0.0029843668 -0.0086583374 0.0 0.0059086313 -0.0087228622 0.0 0.011772936999999999 -0.0086804936 0.0 0.021441577000000003 -0.0086736893 0.0 0.032427885 -0.0088720014 0.0 0.038752981 -0.005844173 0.0 0.0013426086 -0.0059333076 0.0 0.0018981989000000001 -0.006036910699999999 0.0 0.0032532976000000003 -0.0061397469 0.0 0.0063983453 -0.0062187514 0.0 0.012691215 -0.006244992800000001 0.0 0.023059031 -0.0062333238 0.0 0.034805544 -0.006195704000000001 0.0 0.041551087 -0.0035526452 0.0 0.0014342311999999999 -0.0036158015000000003 0.0 0.0020170428 -0.0036891465999999997 0.0 0.0034233974 -0.0037628212 0.0 0.006677705799999999 -0.0038208493 0.0 0.013183626 -0.0038474348999999997 0.0 0.023906443 -0.0038354222 0.0 0.036074895 -0.0037921078 0.0 0.04310501 -0.0017868823000000002 0.0 0.0014955822 -0.0018252264000000002 0.0 0.0020931477 -0.0018688679 0.0 0.0035231786 -0.0019124125 0.0 0.006827017800000001 -0.0019465878 0.0 0.013431175 -0.001961462 0.0 0.024323391 -0.0019521355 0.0 0.03671043 -0.0019220996 0.0 0.04390484099999999 -0.00050778064 0.0 0.0015291842000000001 -0.00052401121 0.0 0.0021329024 -0.00054134481 0.0 0.0035704519 -0.0005577043 0.0 0.0068897502 -0.00056984311 0.0 0.013527228999999998 -0.0005738528599999999 0.0 0.024483144 -0.00056749611 0.0 0.036964044 -0.00055137137 0.0 0.044241257 0.00047986538 0.0 0.0015381433 0.00048304329000000004 0.0 0.0021416228 0.00048822210999999996 0.0 0.0035760859000000004 0.00049483776 0.0 0.0068886853 0.0005014803 0.0 0.013516731 0.0005070116 0.0 0.024464628 0.00051101285 0.0 0.03695051 0.00051458454 0.0 0.044247098 0.0013803735 0.0 0.0015252614000000001 0.0014008613 0.0 0.002123263 0.001425646 0.0 0.0035473944 0.0014516995 0.0 0.0068403473 0.0014741232999999998 0.0 0.013434241000000001 0.0014880638 0.0 0.024331592000000003 0.0014908337 0.0 0.036764447 0.0014839547 0.0 0.044030327 0.0023031824 0.0 0.0014927242 0.0023394495 0.0 0.0020781183 0.0023819066000000002 0.0 0.0034742490000000004 0.0024251689 0.0 0.006705096 0.0024614604 0.0 0.013177602 0.0024832179999999997 0.0 0.02387942 0.0024858746 0.0 0.036094118 0.0024703902 0.0 0.043234877000000005 0.0032460869 0.0 0.0014423465 0.003296803 0.0 0.0020078376 0.0033555152000000004 0.0 0.0033576288 0.0034145052 0.0 0.0064827539 0.0034634478000000004 0.0 0.012746128 0.0034925351 0.0 0.023105584 0.0034956094 0.0 0.034937125 0.0034730958 0.0 0.041859827999999995 0.0041430220000000005 0.0 0.0013759626 0.0042067342 0.0 0.001914535 0.0042802086 0.0 0.0032003417 0.0043535833 0.0 0.0061788387 0.0044141212 0.0 0.012150632 0.0044499998999999995 0.0 0.022032175 0.0044537378 0.0 0.033328958 0.004425623 0.0 0.039949223 0.0049138311 0.0 0.0012958146000000002 0.0049889307 0.0 0.0018011752 0.00507562 0.0 0.0030074765000000004 0.005161714699999999 0.0 0.0058035008 0.0052326126 0.0 0.011412473000000001 0.0052746655 0.0 0.020700492 0.005278775 0.0 0.031333003 0.0052468716 0.0 0.037579559 0.0054487372 0.0 0.001209995 0.0055454769 0.0 0.0016758781 0.005662289399999999 0.0 0.0027876240000000003 0.0057722847 0.0 0.0053720991000000004 0.005854986600000001 0.0 0.010563689 0.0059024384 0.0 0.019168973 0.005892961800000001 0.0 0.029035525 0.005872828 0.0 0.03485702 0.0056267912 0.0 0.0011361695 0.005760445699999999 0.0 0.0015590782 0.005937130200000001 0.0 0.002557663 0.0061150379 0.0 0.0049039144 0.0062433053 0.0 0.009639706500000001 0.006299071 0.0 0.017504076 0.0062839673 0.0 0.026541105 0.006272214 0.0 0.031901494 0.0055801836 0.0 0.0010590444 0.0057317684 0.0 0.0014431172 0.0059459312 0.0 0.0023256319 0.0061819688 0.0 0.0044202353 0.006378555699999999 0.0 0.0086822035 0.0064845271 0.0 0.015781741999999998 0.0065114191000000005 0.0 0.023966525 0.0065041315 0.0 0.028835706000000003 0.00542111 0.0 0.0009813105 0.0055782194 0.0 0.0013226767 0.0058077751 0.0 0.0021001331 0.0060866536 0.0 0.003947455 0.0063599972 0.0 0.0077449814 0.0065377662 0.0 0.014088614 0.006640391 0.0 0.02140872 0.0067024641000000005 0.0 0.025777342 0.0052118301 0.0 0.00090872496 0.0053557972 0.0 0.0012148226 0.0055907168 0.0 0.0018901622 0.0059170192 0.0 0.0035193269 0.006288209 0.0 0.006889829399999999 0.0065609599 0.0 0.012510943 0.0068035223999999995 0.0 0.018967928000000002 0.0070364745 0.0 0.022829263 0.0049640317 0.0 0.0008493638000000001 0.0051112147 0.0 0.0011239382000000002 0.005335414300000001 0.0 0.0017276409 0.0057114367 0.0 0.0031778809999999996 0.0062101134 0.0 0.0061810706000000005 0.0066391588 0.0 0.011131916 0.00710771 0.0 0.01673099 0.0075811883 0.0 0.020051034 0.0046834070000000005 0.0 0.0007916850200000001 0.0048364 0.0 0.00105908 0.0050709364 0.0 0.0016183960999999998 0.0055055479 0.0 0.0029634328000000005 0.006146264300000001 0.0 0.005671314 0.006813323100000001 0.0 0.010017565 0.007590596999999999 0.0 0.014758671999999999 0.0083932979 0.0 0.017501445 0.004375062 0.0 0.0007390613900000001 0.004539506 0.0 0.0010137281 0.0048149722 0.0 0.001576168 0.005326000500000001 0.0 0.0028887975 0.0061160843000000005 0.0 0.0053958562 0.0070831762 0.0 0.009204919399999999 0.0082122181 0.0 0.013088048 0.0094120549 0.0 0.015213046000000001 0.0040676296 0.0 0.0006998087599999999 0.004246817 0.0 0.0009914204699999999 0.0045873607 0.0 0.0016120643 0.0051926342 0.0 0.0029661714000000002 0.0061388826 0.0 0.005353956500000001 0.007380308100000001 0.0 0.008677261 0.008808490799999999 0.0 0.011715923 0.010347026 0.0 0.013194121000000001 0.0037657968 0.0 0.00066876196 0.0039945915 0.0 0.0010166755 0.0044152676 0.0 0.0017473642000000002 0.0051258686 0.0 0.0031895605 0.0062144659 0.0 0.005504765500000001 0.0076035126 0.0 0.0083361138 0.0091238618 0.0 0.010570318 0.0035100214 0.0 0.0006698105099999999 0.0038044921 0.0 0.0011145563 0.0043220324 0.0 0.0019904322 0.005154114699999999 0.0 0.0035470538 0.0063396962 0.0 0.0057564513 0.0077321594999999995 0.0 0.008039385100000001 0.0091673182 0.0 0.009524243 0.0033270849 0.0 0.00073966151 0.0037102655 0.0 0.0013153689000000002 0.0043563521000000004 0.0 0.0023681032 0.0053160121 0.0 0.0040045376 0.0065189958999999995 0.0 0.005989261 0.0077800234 0.0 0.007693802 0.0032578346 0.0 0.00091713545 0.0037820865 0.0 0.0016612630999999999 0.0045899902000000005 0.0 0.0028678970000000003 0.0056302552 0.0 0.0044695185 0.006755556899999999 0.0 0.0060959822 0.0078259325 0.0 0.0072532371 0.0034151294 0.0 0.0012611323 0.0041380068 0.0 0.0021510923 0.0050543249 0.0 0.0033967196999999997 0.0060428549 0.0 0.0048357155 0.006978263100000001 0.0 0.0060633896 0.0039541945 0.0 0.0017433189 0.0048232879 0.0 0.0026689337 0.0056840959 0.0 0.0038314890000000004 0.006431291800000001 0.0 0.0050400322999999995 0.0048114279999999995 0.0 0.0022515004999999998 0.0055764015000000005 0.0 0.0031455813000000003 0.0062109367 0.0 0.0041302935999999995 0.0067155818 0.0 0.0050984379 0.0055401362 0.0 0.0027384069 0.0059958263 0.0 0.0035429245 0.0057930863 0.0 0.0031525278000000003 
Acec 3 2975 float
0.0 0.0 0.0 0.0 0.0 0.0 0.0 0.0 0.0 0.0 0.0 0.0 0.0 0.0 0.0 0.0 0.0 0.0 0.0 0.0 0.0 0.0 0.0 0.0 0.0 0.0 0.0 0.0 0.0 0.0 0.0 0.0 0.0 0.0 0.0 0.0 0.0 0.0 0.0 0.0 0.0 0.0 0.0 0.0 0.0 0.0 0.0 0.0 0.0 0.0 0.0 0.0 0.0 0.0 0.0 0.0 0.0 0.0 0.0 0.0 0.0 0.0 0.0 0.0 0.0 0.0 0.0 0.0 0.0 0.0 0.0 0.0 0.0 0.0 0.0 0.0 0.0 0.0 0.0 0.0 0.0 0.0 0.0 0.0 0.0 0.0 0.0 0.0 0.0 0.0 0.0 0.0 0.0 0.0 0.0 0.0 0.0 0.0 0.0 0.0 0.0 0.0 0.0 0.0 0.0 0.0 0.0 0.0 0.0 0.0 0.0 0.0 0.0 0.0 0.0 0.0 0.0 0.0 0.0 0.0 0.0 0.0 0.0 0.0 0.0 0.0 0.0 0.0 0.0 0.0 0.0 0.0 0.0 0.0 0.0 0.0 0.0 0.0 0.0 0.0 0.0 0.0 0.0 0.0 0.0 0.0 0.0 0.0 0.0 0.0 0.0 0.0 0.0 0.0 0.0 0.0 0.0 0.0 0.0 0.0 0.0 0.0 0.0 0.0 0.0 0.0 0.0 0.0 0.0 0.0 0.0 0.0 0.0 0.0 0.0 0.0 0.0 0.0 0.0 0.0 0.0 0.0 0.0 0.0 0.0 0.0 0.0 0.0 0.0 0.0 0.0 0.0 0.0 0.0 0.0 0.0 0.0 0.0 0.0 0.0 0.0 0.0 0.0 0.0 0.0 0.0 0.0 0.0 0.0 0.0 0.0 0.0 0.0 0.0 0.0 0.0 0.0 0.0 0.0 0.0 0.0 0.0 0.0 0.0 0.0 0.0 0.0 0.0 0.0 0.0 0.0 0.0 0.0 0.0 0.0 0.0 0.0 0.0 0.0 0.0 0.0 0.0 0.0 0.0 0.0 0.0 0.0 0.0 0.0 0.0 0.0 0.0 0.0 0.0 0.0 0.0 0.0 0.0 0.0 0.0 0.0 0.0 0.0 0.0 0.0 0.0 0.0 0.0 0.0 0.0 0.0 0.0 0.0 0.0 0.0 0.0 0.0 0.0 0.0 0.0 0.0 0.0 0.0 0.0 0.0 0.0 0.0 0.0 0.0 0.0 0.0 0.0 0.0 0.0 0.0 0.0 0.0 0.0 0.0 0.0 0.0 0.0 0.0 0.0 0.0 0.0 0.0 0.0 0.0 0.0 0.0 0.0 0.0 0.0 0.0 0.0 0.0 0.0 0.0 0.0 0.0 0.0 0.0 0.0 0.0 0.0 0.0 0.0 0.0 0.0 0.0 0.0 0.0 0.0 0.0 0.0 0.0 0.0 0.0 0.0 0.0 0.0 0.0 0.0 0.0 0.0 0.0 0.0 0.0 0.0 0.0 0.0 0.0 0.0 0.0 0.0 0.0 0.0 0.0 0.0 0.0 0.0 0.0 0.0 0.0 0.0 0.0 0.0 0.0 0.0 0.0 0.0 0.0 0.0 0.0 0.0 0.0 0.0 0.0 0.0 0.0 0.0 0.0 0.0 0.0 0.0 0.0 0.0 0.0 0.0 0.0 0.0 0.0 0.0 0.0 0.0 0.0 0.0 0.0 0.0 0.0 0.0 0.0 0.0 0.0 0.0 0.0 0.0 0.0 0.0 0.0 0.0 0.0 0.0 0.0 0.0 0.0 0.0 0.0 0.0 0.0 0.0 0.0 0.0 0.0 0.0 0.0 0.0 0.0 0.0 0.0 0.0 0.0 0.0 0.0 0.0 0.0 0.0 0.0 0.0 0.0 0.0 0.0 0.0 0.0 0.0 0.0 0.0 0.0 0.0 0.0 0.0 0.0 0.0 0.0 0.0 0.0 0.0 0.0 0.0 0.0 0.0 0.0 0.0 0.0 0.0 0.0 0.0 0.0 0.0 0.0 0.0 0.0 0.0 0.0 0.0 0.0 0.0 0.0 0.0 0.0 0.0 0.0 0.0 0.0 0.0 0.0 0.0 0.0 0.0 0.0 0.0 0.0 0.0 0.0 0.0 0.0 0.0 0.0 0.0 0.0 0.0 0.0 0.0 0.0 0.0 0.0 0.0 0.0 0.0 0.0 0.0 0.0 0.0 0.0 0.0 0.0 0.0 0.0 0.0 0.0 0.0 0.0 0.0 0.0 0.0 0.0 0.0 0.0 0.0 0.0 0.0 0.0 0.0 0.0 0.0 0.0 0.0 0.0 0.0 0.0 0.0 0.0 0.0 0.0 0.0 0.0 0.0 0.0 0.0 0.0 0.0 0.0 0.0 0.0 0.0 0.0 0.0 0.0 0.0 0.0 0.0 0.0 0.0 0.0 0.0 0.0 0.0 0.0 0.0 0.0 0.0 0.0 0.0 0.0 0.0 0.0 0.0 0.0 0.0 0.0 0.0 0.0 0.0 0.0 0.0 0.0 0.0 0.0 0.0 0.0 0.0 0.0 0.0 0.0 0.0 0.0 0.0 0.0 0.0 0.0 0.0 0.0 0.0 0.0 0.0 0.0 0.0 0.0 0.0 0.0 0.0 0.0 0.0 0.0 0.0 0.0 0.0 0.0 0.0 0.0 0.0 0.0 0.0 0.0 0.0 0.0 0.0 0.0 0.0 0.0 0.0 0.0 0.0 0.0 0.0 0.0 0.0 0.0 0.0 0.0 0.0 0.0 0.0 0.0 0.0 0.0 0.0 0.0 0.0 0.0 0.0 0.0 0.0 0.0 0.0 0.0 0.0 0.0 0.0 0.0 0.0 0.0 0.0 0.0 0.0 0.0 0.0 0.0 0.0 0.0 0.0 0.0 0.0 0.0 0.0 0.0 0.0 0.0 0.0 0.0 0.0 0.0 0.0 0.0 0.0 0.0 0.0 0.0 0.0 0.0 0.0 0.0 0.0 0.0 0.0 0.0 0.0 0.0 0.0 0.0 0.0 0.0 0.0 0.0 0.0 0.0 0.0 0.0 0.0 0.0 0.0 0.0 0.0 0.0 0.0 0.0 0.0 0.0 0.0 0.0 0.0 0.0 0.0 0.0 0.0 0.0 0.0 0.0 0.0 0.0 0.0 0.0 0.0 0.0 0.0 0.0 0.0 0.0 0.0 0.0 0.0 0.0 0.0 0.0 0.0 0.0 0.0 0.0 0.0 0.0 0.0 0.0 0.0 0.0 0.0 0.0 0.0 0.0 0.0 0.0 0.0 0.0 0.0 0.0 0.0 0.0 0.0 0.0 0.0 0.0 0.0 0.0 0.0 0.0 0.0 0.0 0.0 0.0 0.0 0.0 0.0 0.0 0.0 0.0 0.0 0.0 0.0 0.0 0.0 0.0 0.0 0.0 0.0 0.0 0.0 0.0 0.0 0.0 0.0 0.0 0.0 0.0 0.0 0.0 0.0 0.0 0.0 0.0 0.0 0.0 0.0 0.0 0.0 0.0 0.0 0.0 0.0 0.0 0.0 0.0 0.0 0.0 0.0 0.0 0.0 0.0 0.0 0.0 0.0 0.0 0.0 0.0 0.0 0.0 0.0 0.0 0.0 0.0 0.0 0.0 0.0 0.0 0.0 0.0 0.0 0.0 0.0 0.0 0.0 0.0 0.0 0.0 0.0 0.0 0.0 0.0 0.0 0.0 0.0 0.0 0.0 0.0 0.0 0.0 0.0 0.0 0.0 0.0 0.0 0.0 0.0 0.0 0.0 0.0 0.0 0.0 0.0 0.0 0.0 0.0 0.0 0.0 0.0 0.0 0.0 0.0 0.0 0.0 0.0 0.0 0.0 0.0 0.0 0.0 0.0 0.0 0.0 0.0 0.0 0.0 0.0 0.0 0.0 0.0 0.0 0.0 0.0 0.0 0.0 0.0 0.0 0.0 0.0 0.0 0.0 0.0 0.0 0.0 0.0 0.0 0.0 0.0 0.0 0.0 0.0 0.0 0.0 0.0 0.0 0.0 0.0 0.0 0.0 0.0 0.0 0.0 0.0 0.0 0.0 0.0 0.0 0.0 0.0 0.0 0.0 0.0 0.0 0.0 0.0 0.0 0.0 0.0 0.0 0.0 0.0 0.0 0.0 0.0 0.0 0.0 0.0 0.0 0.0 0.0 0.0 0.0 0.0 0.0 0.0 0.0 0.0 0.0 0.0 0.0 0.0 0.0 0.0 0.0 0.0 0.0 0.0 0.0 0.0 0.0 0.0 0.0 0.0 0.0 0.0 0.0 0.0 0.0 0.0 0.0 0.0 0.0 0.0 0.0 0.0 0.0 0.0 0.0 0.0 0.0 0.0 0.0 0.0 0.0 0.0 0.0 0.0 0.0 0.0 0.0 0.0 0.0 0.0 0.0 0.0 0.0 0.0 0.0 0.0 0.0 0.0 0.0 0.0 0.0 0.0 0.0 0.0 0.0 0.0 0.0 0.0 0.0 0.0 0.0 0.0 0.0 0.0 0.0 0.0 0.0 0.0 0.0 0.0 0.0 0.0 0.0 0.0 0.0 0.0 0.0 0.0 0.0 0.0 0.0 0.0 0.0 0.0 0.0 0.0 0.0 0.0 0.0 0.0 0.0 0.0 0.0 0.0 0.0 0.0 0.0 0.0 0.0 0.0 0.0 0.0 0.0 0.0 0.0 0.0 0.0 0.0 0.0 0.0 0.0 0.0 0.0 0.0 0.0 0.0 0.0 0.0 0.0 0.0 0.0 0.0 0.0 0.0 0.0 0.0 0.0 0.0 0.0 0.0 0.0 0.0 0.0 0.0 0.0 0.0 0.0 0.0 0.0 0.0 0.0 0.0 0.0 0.0 0.0 0.0 0.0 0.0 0.0 0.0 0.0 0.0 0.0 0.0 0.0 0.0 0.0 0.0 0.0 0.0 0.0 0.0 0.0 0.0 0.0 0.0 0.0 0.0 0.0 0.0 0.0 0.0 0.0 0.0 0.0 0.0 0.0 0.0 0.0 0.0 0.0 0.0 0.0 0.0 0.0 0.0 0.0 0.0 0.0 0.0 0.0 0.0 0.0 0.0 0.0 0.0 0.0 0.0 0.0 0.0 0.0 0.0 0.0 0.0 0.0 0.0 0.0 0.0 0.0 0.0 0.0 0.0 0.0 0.0 0.0 0.0 0.0 0.0 0.0 0.0 0.0 0.0 0.0 0.0 0.0 0.0 0.0 0.0 0.0 0.0 0.0 0.0 0.0 0.0 0.0 0.0 0.0 0.0 0.0 0.0 0.0 0.0 0.0 0.0 0.0 0.0 0.0 0.0 0.0 0.0 0.0 0.0 0.0 0.0 0.0 0.0 0.0 0.0 0.0 0.0 0.0 0.0 0.0 0.0 0.0 0.0 0.0 0.0 0.0 0.0 0.0 0.0 0.0 0.0 0.0 0.0 0.0 0.0 0.0 0.0 0.0 0.0 0.0 0.0 0.0 0.0 0.0 0.0 0.0 0.0 0.0 0.0 0.0 0.0 0.0 0.0 0.0 0.0 0.0 0.0 0.0 0.0 0.0 0.0 0.0 0.0 0.0 0.0 0.0 0.0 0.0 0.0 0.0 0.0 0.0 0.0 0.0 0.0 0.0 0.0 0.0 0.0 0.0 0.0 0.0 0.0 0.0 0.0 0.0 0.0 0.0 0.0 0.0 0.0 0.0 0.0 0.0 0.0 0.0 0.0 0.0 0.0 0.0 0.0 0.0 0.0 0.0 0.0 0.0 0.0 0.0 0.0 0.0 0.0 0.0 0.0 0.0 0.0 0.0 0.0 0.0 0.0 0.0 0.0 0.0 0.0 0.0 0.0 0.0 0.0 0.0 0.0 0.0 0.0 0.0 0.0 0.0 0.0 0.0 0.0 0.0 0.0 0.0 0.0 0.0 0.0 0.0 0.0 0.0 0.0 0.0 0.0 0.0 0.0 0.0 0.0 0.0 0.0 0.0 0.0 0.0 0.0 0.0 0.0 0.0 0.0 0.0 0.0 0.0 0.0 0.0 0.0 0.0 0.0 0.0 0.0 0.0 0.0 0.0 0.0 0.0 0.0 0.0 0.0 0.0 0.0 0.0 0.0 0.0 0.0 0.0 0.0 0.0 0.0 0.0 0.0 0.0 0.0 0.0 0.0 0.0 0.0 0.0 0.0 0.0 0.0 0.0 0.0 0.0 0.0 0.0 0.0 0.0 0.0 0.0 0.0 0.0 0.0 0.0 0.0 0.0 0.0 0.0 0.0 0.0 0.0 0.0 0.0 0.0 0.0 0.0 0.0 0.0 0.0 0.0 0.0 0.0 0.0 0.0 0.0 0.0 0.0 0.0 0.0 0.0 0.0 0.0 0.0 0.0 0.0 0.0 0.0 0.0 0.0 0.0 0.0 0.0 0.0 0.0 0.0 0.0 0.0 0.0 0.0 0.0 0.0 0.0 0.0 0.0 0.0 0.0 0.0 0.0 0.0 0.0 0.0 0.0 0.0 0.0 0.0 0.0 0.0 0.0 0.0 0.0 0.0 0.0 0.0 0.0 0.0 0.0 0.0 0.0 0.0 0.0 0.0 0.0 0.0 0.0 0.0 0.0 0.0 0.0 0.0 0.0 0.0 0.0 0.0 0.0 0.0 0.0 0.0 0.0 0.0 0.0 0.0 0.0 0.0 0.0 0.0 0.0 0.0 0.0 0.0 0.0 0.0 0.0 0.0 0.0 0.0 0.0 0.0 0.0 0.0 0.0 0.0 0.0 0.0 0.0 0.0 0.0 0.0 0.0 0.0 0.0 0.0 0.0 0.0 0.0 0.0 0.0 0.0 0.0 0.0 0.0 0.0 0.0 0.0 0.0 0.0 0.0 0.0 0.0 0.0 0.0 0.0 0.0 0.0 0.0 0.0 0.0 0.0 0.0 0.0 0.0 0.0 0.0 0.0 0.0 0.0 0.0 0.0 0.0 0.0 0.0 0.0 0.0 0.0 0.0 0.0 0.0 0.0 0.0 0.0 0.0 0.0 0.0 0.0 0.0 0.0 0.0 0.0 0.0 0.0 0.0 0.0 0.0 0.0 0.0 0.0 0.0 0.0 0.0 0.0 0.0 0.0 0.0 0.0 0.0 0.0 0.0 0.0 0.0 0.0 0.0 0.0 0.0 0.0 0.0 0.0 0.0 0.0 0.0 0.0 0.0 0.0 0.0 0.0 0.0 0.0 0.0 0.0 0.0 0.0 0.0 0.0 0.0 0.0 0.0 0.0 0.0 0.0 0.0 0.0 0.0 0.0 0.0 0.0 0.0 0.0 0.0 0.0 0.0 0.0 0.0 0.0 0.0 0.0 0.0 0.0 0.0 0.0 0.0 0.0 0.0 0.0 0.0 0.0 0.0 0.0 0.0 0.0 0.0 0.0 0.0 0.0 0.0 0.0 0.0 0.0 0.0 0.0 0.0 0.0 0.0 0.0 0.0 0.0 0.0 0.0 0.0 0.0 0.0 0.0 0.0 0.0 0.0 0.0 0.0 0.0 0.0 0.0 0.0 0.0 0.0 0.0 0.0 0.0 0.0 0.0 0.0 0.0 0.0 0.0 0.0 0.0 0.0 0.0 0.0 0.0 0.0 0.0 0.0 0.0 0.0 0.0 0.0 0.0 0.0 0.0 0.0 0.0 0.0 0.0 0.0 0.0 0.0 0.0 0.0 0.0 0.0 0.0 0.0 0.0 0.0 0.0 0.0 0.0 0.0 0.0 0.0 0.0 0.0 0.0 0.0 0.0 0.0 0.0 0.0 0.0 0.0 0.0 0.0 0.0 0.0 0.0 0.0 0.0 0.0 0.0 0.0 0.0 0.0 0.0 0.0 0.0 0.0 0.0 0.0 0.0 0.0 0.0 0.0 0.0 0.0 0.0 0.0 0.0 0.0 0.0 0.0 0.0 0.0 0.0 0.0 0.0 0.0 0.0 0.0 0.0 0.0 0.0 0.0 0.0 0.0 0.0 0.0 0.0 0.0 0.0 0.0 0.0 0.0 0.0 0.0 0.0 0.0 0.0 0.0 0.0 0.0 0.0 0.0 0.0 0.0 0.0 0.0 0.0 0.0 0.0 0.0 0.0 0.0 0.0 0.0 0.0 0.0 0.0 0.0 0.0 0.0 0.0 0.0 0.0 0.0 0.0 0.0 0.0 0.0 0.0 0.0 0.0 0.0 0.0 0.0 0.0 0.0 0.0 0.0 0.0 0.0 0.0 0.0 0.0 0.0 0.0 0.0 0.0 0.0 0.0 0.0 0.0 0.0 0.0 0.0 0.0 0.0 0.0 0.0 0.0 0.0 0.0 0.0 0.0 0.0 0.0 0.0 0.0 0.0 0.0 0.0 0.0 0.0 0.0 0.0 0.0 0.0 0.0 0.0 0.0 0.0 0.0 0.0 0.0 0.0 0.0 0.0 0.0 0.0 0.0 0.0 0.0 0.0 0.0 0.0 0.0 0.0 0.0 0.0 0.0 0.0 0.0 0.0 0.0 0.0 0.0 0.0 0.0 0.0 0.0 0.0 0.0 0.0 0.0 0.0 0.0 0.0 0.0 0.0 0.0 0.0 0.0 0.0 0.0 0.0 0.0 0.0 0.0 0.0 0.0 0.0 0.0 0.0 0.0 0.0 0.0 0.0 0.0 0.0 0.0 0.0 0.0 0.0 0.0 0.0 0.0 0.0 0.0 0.0 0.0 0.0 0.0 0.0 0.0 0.0 0.0 0.0 0.0 0.0 0.0 0.0 0.0 0.0 0.0 0.0 0.0 0.0 0.0 0.0 0.0 0.0 0.0 0.0 0.0 0.0 0.0 0.0 0.0 0.0 0.0 0.0 0.0 0.0 0.0 0.0 0.0 0.0 0.0 0.0 0.0 0.0 0.0 0.0 0.0 0.0 0.0 0.0 0.0 0.0 0.0 0.0 0.0 0.0 0.0 0.0 0.0 0.0 0.0 0.0 0.0 0.0 0.0 0.0 0.0 0.0 0.0 0.0 0.0 0.0 0.0 0.0 0.0 0.0 0.0 0.0 0.0 0.0 0.0 0.0 0.0 0.0 0.0 0.0 0.0 0.0 0.0 0.0 0.0 0.0 0.0 0.0 0.0 0.0 0.0 0.0 0.0 0.0 0.0 0.0 0.0 0.0 0.0 0.0 0.0 0.0 0.0 0.0 0.0 0.0 0.0 0.0 0.0 0.0 0.0 0.0 0.0 0.0 0.0 0.0 0.0 0.0 0.0 0.0 0.0 0.0 0.0 0.0 0.0 0.0 0.0 0.0 0.0 0.0 0.0 0.0 0.0 0.0 0.0 0.0 0.0 0.0 0.0 0.0 0.0 0.0 0.0 0.0 0.0 0.0 0.0 0.0 0.0 0.0 0.0 0.0 0.0 0.0 0.0 0.0 0.0 0.0 0.0 0.0 0.0 0.0 0.0 0.0 0.0 0.0 0.0 0.0 0.0 0.0 0.0 0.0 0.0 0.0 0.0 0.0 0.0 0.0 0.0 0.0 0.0 0.0 0.0 0.0 0.0 0.0 0.0 0.0 0.0 0.0 0.0 0.0 0.0 0.0 0.0 0.0 0.0 0.0 0.0 0.0 0.0 0.0 0.0 0.0 0.0 0.0 0.0 0.0 0.0 0.0 0.0 0.0 0.0 0.0 0.0 0.0 0.0 0.0 0.0 0.0 0.0 0.0 0.0 0.0 0.0 0.0 0.0 0.0 0.0 0.0 0.0 0.0 0.0 0.0 0.0 0.0 0.0 0.0 0.0 0.0 0.0 0.0 0.0 0.0 0.0 0.0 0.0 0.0 0.0 0.0 0.0 0.0 0.0 0.0 0.0 0.0 0.0 0.0 0.0 0.0 0.0 0.0 0.0 0.0 0.0 0.0 0.0 0.0 0.0 0.0 0.0 0.0 0.0 0.0 0.0 0.0 0.0 0.0 0.0 0.0 0.0 0.0 0.0 0.0 0.0 0.0 0.0 0.0 0.0 0.0 0.0 0.0 0.0 0.0 0.0 0.0 0.0 0.0 0.0 0.0 0.0 0.0 0.0 0.0 0.0 0.0 0.0 0.0 0.0 0.0 0.0 0.0 0.0 0.0 0.0 0.0 0.0 0.0 0.0 0.0 0.0 0.0 0.0 0.0 0.0 0.0 0.0 0.0 0.0 0.0 0.0 0.0 0.0 0.0 0.0 0.0 0.0 0.0 0.0 0.0 0.0 0.0 0.0 0.0 0.0 0.0 0.0 0.0 0.0 0.0 0.0 0.0 0.0 0.0 0.0 0.0 0.0 0.0 0.0 0.0 0.0 0.0 0.0 0.0 0.0 0.0 0.0 0.0 0.0 0.0 0.0 0.0 0.0 0.0 0.0 0.0 0.0 0.0 0.0 0.0 0.0 0.0 0.0 0.0 0.0 0.0 0.0 0.0 0.0 0.0 0.0 0.0 0.0 0.0 0.0 0.0 0.0 0.0 0.0 0.0 0.0 0.0 0.0 0.0 0.0 0.0 0.0 0.0 0.0 0.0 0.0 0.0 0.0 0.0 0.0 0.0 0.0 0.0 0.0 0.0 0.0 0.0 0.0 0.0 0.0 0.0 0.0 0.0 0.0 0.0 0.0 0.0 0.0 0.0 0.0 0.0 0.0 0.0 0.0 0.0 0.0 0.0 0.0 0.0 0.0 0.0 0.0 0.0 0.0 0.0 0.0 0.0 0.0 0.0 0.0 0.0 0.0 0.0 0.0 0.0 0.0 0.0 0.0 0.0 0.0 0.0 0.0 0.0 0.0 0.0 0.0 0.0 0.0 0.0 0.0 0.0 0.0 0.0 0.0 0.0 0.0 0.0 0.0 0.0 0.0 0.0 0.0 0.0 0.0 0.0 0.0 0.0 0.0 0.0 0.0 0.0 0.0 0.0 0.0 0.0 0.0 0.0 0.0 0.0 0.0 0.0 0.0 0.0 0.0 0.0 0.0 0.0 0.0 0.0 0.0 0.0 0.0 0.0 0.0 0.0 0.0 0.0 0.0 0.0 0.0 0.0 0.0 0.0 0.0 0.0 0.0 0.0 0.0 0.0 0.0 0.0 0.0 0.0 0.0 0.0 0.0 0.0 0.0 0.0 0.0 0.0 0.0 0.0 0.0 0.0 0.0 0.0 0.0 0.0 0.0 0.0 0.0 0.0 0.0 0.0 0.0 0.0 0.0 0.0 0.0 0.0 0.0 0.0 0.0 0.0 0.0 0.0 0.0 0.0 0.0 0.0 0.0 0.0 0.0 0.0 0.0 0.0 0.0 0.0 0.0 0.0 0.0 0.0 0.0 0.0 0.0 0.0 0.0 0.0 0.0 0.0 0.0 0.0 0.0 0.0 0.0 0.0 0.0 0.0 0.0 0.0 0.0 0.0 0.0 0.0 0.0 0.0 0.0 0.0 0.0 0.0 0.0 0.0 0.0 0.0 0.0 0.0 0.0 0.0 0.0 0.0 0.0 0.0 0.0 0.0 0.0 0.0 0.0 0.0 0.0 0.0 0.0 0.0 0.0 0.0 0.0 0.0 0.0 0.0 0.0 0.0 0.0 0.0 0.0 0.0 0.0 0.0 0.0 0.0 0.0 0.0 0.0 0.0 0.0 0.0 0.0 0.0 0.0 0.0 0.0 0.0 0.0 0.0 0.0 0.0 0.0 0.0 0.0 0.0 0.0 0.0 0.0 0.0 0.0 0.0 0.0 0.0 0.0 0.0 0.0 0.0 0.0 0.0 0.0 0.0 0.0 0.0 0.0 0.0 0.0 0.0 0.0 0.0 0.0 0.0 0.0 0.0 0.0 0.0 0.0 0.0 0.0 0.0 0.0 0.0 0.0 0.0 0.0 0.0 0.0 0.0 0.0 0.0 0.0 0.0 0.0 0.0 0.0 0.0 0.0 0.0 0.0 0.0 0.0 0.0 0.0 0.0 0.0 0.0 0.0 0.0 0.0 0.0 0.0 0.0 0.0 0.0 0.0 0.0 0.0 0.0 0.0 0.0 0.0 0.0 0.0 0.0 0.0 0.0 0.0 0.0 0.0 0.0 0.0 0.0 0.0 0.0 0.0 0.0 0.0 0.0 0.0 0.0 0.0 0.0 0.0 0.0 0.0 0.0 0.0 0.0 0.0 0.0 0.0 0.0 0.0 0.0 0.0 0.0 0.0 0.0 0.0 0.0 0.0 0.0 0.0 0.0 0.0 0.0 0.0 0.0 0.0 0.0 0.0 0.0 0.0 0.0 0.0 0.0 0.0 0.0 0.0 0.0 0.0 0.0 0.0 0.0 0.0 0.0 0.0 0.0 0.0 0.0 0.0 0.0 0.0 0.0 0.0 0.0 0.0 0.0 0.0 0.0 0.0 0.0 0.0 0.0 0.0 0.0 0.0 0.0 0.0 0.0 0.0 0.0 0.0 0.0 0.0 0.0 0.0 0.0 0.0 0.0 0.0 0.0 0.0 0.0 0.0 0.0 0.0 0.0 0.0 0.0 0.0 0.0 0.0 0.0 0.0 0.0 0.0 0.0 0.0 0.0 0.0 0.0 0.0 0.0 0.0 0.0 0.0 0.0 0.0 0.0 0.0 0.0 0.0 0.0 0.0 0.0 0.0 0.0 0.0 0.0 0.0 0.0 0.0 0.0 0.0 0.0 0.0 0.0 0.0 0.0 0.0 0.0 0.0 0.0 0.0 0.0 0.0 0.0 0.0 0.0 0.0 0.0 0.0 0.0 0.0 0.0 0.0 0.0 0.0 0.0 0.0 0.0 0.0 0.0 0.0 0.0 0.0 0.0 0.0 0.0 0.0 0.0 0.0 0.0 0.0 0.0 0.0 0.0 0.0 0.0 0.0 0.0 0.0 0.0 0.0 0.0 0.0 0.0 0.0 0.0 0.0 0.0 0.0 0.0 0.0 0.0 0.0 0.0 0.0 0.0 0.0 0.0 0.0 0.0 0.0 0.0 0.0 0.0 0.0 0.0 0.0 0.0 0.0 0.0 0.0 0.0 0.0 0.0 0.0 0.0 0.0 0.0 0.0 0.0 0.0 0.0 0.0 0.0 0.0 0.0 0.0 0.0 0.0 0.0 0.0 0.0 0.0 0.0 0.0 0.0 0.0 0.0 0.0 0.0 0.0 0.0 0.0 0.0 0.0 0.0 0.0 0.0 0.0 0.0 0.0 0.0 0.0 0.0 0.0 0.0 0.0 0.0 0.0 0.0 0.0 0.0 0.0 0.0 0.0 0.0 0.0 0.0 0.0 0.0 0.0 0.0 0.0 0.0 0.0 0.0 0.0 0.0 0.0 0.0 0.0 0.0 0.0 0.0 0.0 0.0 0.0 0.0 0.0 0.0 0.0 0.0 0.0 0.0 0.0 0.0 0.0 0.0 0.0 0.0 0.0 0.0 0.0 0.0 0.0 0.0 0.0 0.0 0.0 0.0 0.0 0.0 0.0 0.0 0.0 0.0 0.0 0.0 0.0 0.0 0.0 0.0 0.0 0.0 0.0 0.0 0.0 0.0 0.0 0.0 -6.443559e-05 0.0 -2.0261559e-05 -7.9641635e-05 0.0 -1.8907489e-05 -9.270544299999999e-05 0.0 -1.7005181e-05 -0.00010378029 0.0 -1.4793116e-05 -0.00011299603999999999 0.0 -1.2565889999999999e-05 -8.825669599999999e-05 0.0 -3.8242844e-05 -0.0001202181 0.0 -3.7625003e-05 -0.00014851576 0.0 -3.5103366999999996e-05 -0.00017250987000000002 0.0 -3.1595217e-05 -0.00019268539000000002 0.0 -2.7519859999999998e-05 -0.00020938148 0.0 -2.3420005e-05 -0.00016175906 0.0 -6.8973954e-05 -0.00021914361000000001 0.0 -6.8106354e-05 -0.00026950784 0.0 -6.3303356e-05 -0.00031202888999999997 0.0 -5.687224599999999e-05 -0.00034758265 0.0 -4.9519633e-05 -0.00037686361000000007 0.0 -4.2156691e-05 -0.00028869879000000003 0.0 -0.00012175511999999998 -0.00038941781000000005 0.0 -0.00011997797 -0.00047683130999999994 0.0 -0.00011127628 -0.00055004534 0.0 -9.9791745e-05 -0.00061084121 0.0 -8.685247300000001e-05 -0.0006606649799999999 0.0 -7.3921576e-05 -0.0005043718799999999 0.0 -0.00021063515 -0.00067737018 0.0 -0.0002066382 -0.0008258642 0.0 -0.000191064 -0.00094906881 0.0 -0.00017098036 -0.0010504856 0.0 -0.00014873694 -0.001133122 0.0 -0.00012654715 -0.0008662298199999999 0.0 -0.00035798986000000005 -0.0011575916000000001 0.0 -0.00034904771 -0.0014047548 0.0 -0.00032134542999999997 -0.0016077333 0.0 -0.00028676397 -0.0017732743 0.0 -0.00024918569 -0.0019072582 0.0 -0.00021186656000000002 -0.0014667973999999999 0.0 -0.0005996178400000001 -0.0019491217 0.0 -0.00058026292 -0.0023531625 0.0 -0.00053128955 -0.0026812856 0.0 -0.00047238034000000005 -0.0029462329 0.0 -0.00040943178 -0.0031587616999999998 0.0 -0.00034744141 -0.0024562397 0.0 -0.00099175726 -0.0032399164 0.0 -0.0009513085800000001 -0.0038868089 0.0 -0.00086550007 -0.0044062552000000005 0.0 -0.0007663620599999999 -0.0048222328 0.0 -0.0006617869400000001 -0.0051532146 0.0 -0.0005596511799999999 -0.0040709325 0.0 -0.0016170085999999998 -0.0053154938 0.0 -0.0015361144 -0.006326561800000001 0.0 -0.0013890445 -0.0071305279 0.0 -0.0012256082 -0.0077708084 0.0 -0.0010545286 -0.0082774926 0.0 -0.0008879752699999998 -0.0066729756000000005 0.0 -0.0025921981 -0.0086022001 0.0 -0.0024381095999999997 -0.010143586999999999 0.0 -0.0021945173 -0.011361943999999999 0.0 -0.0019293125 -0.012326205 0.0 -0.0016567524 -0.013088144 0.0 -0.0013889559 -0.010803038999999999 0.0 -0.0041040834 -0.013730049 0.0 -0.0038109994 -0.016029721 0.0 -0.0034083594 -0.017837515 0.0 -0.0029849338 -0.019256527 0.0 -0.002563637 -0.020380028 0.0 -0.0021389601999999997 -0.01719258 0.0 -0.0069847098 -0.021591867999999997 0.0 -0.006181723 -0.024970318999999998 0.0 -0.0053535672 -0.027599899 0.0 -0.0046013766 -0.029641815 0.0 -0.0039217477 -0.031261545 0.0 -0.0032434883 -0.027679365 0.0 -0.012459643000000001 -0.033744127 0.0 -0.010435118 -0.03845495 0.0 -0.0085645337 -0.042145144 0.0 -0.0070948154 -0.044990234000000004 0.0 -0.0059353039 -0.047259819 0.0 -0.0048415139 -0.044303797 0.0 -0.02109273 -0.052379197999999995 0.0 -0.017242134 -0.05863991 0.0 -0.01355441 -0.063543566 0.0 -0.011138021000000001 -0.06739343 0.0 -0.0089655481 -0.070480965 0.0 -0.0071320594 -0.069363169 0.0 -0.034948956 -0.08019217099999999 0.0 -0.02803313 -0.088356614 0.0 -0.02127656 -0.094784416 0.0 -0.016391376000000003 -0.09980385 0.0 -0.013018772 -0.10386836 0.0 -0.010292358 -0.10655116 0.0 -0.052983037999999996 -0.12095119 0.0 -0.042117315999999995 -0.13152033 0.0 -0.031497363 -0.13977961 0.0 -0.023902245 -0.14624012 0.0 -0.018725388 -0.15147127 0.0 -0.014668391999999999 -0.16016747 0.0 -0.079281881 -0.17941591 0.0 -0.062240607999999996 -0.19317515 0.0 -0.045863759000000004 -0.20381136 0.0 -0.034305993 -0.21204259 0.0 -0.02657464 -0.21869652 0.0 -0.020625558000000002 -0.23657633 0.0 -0.11766231 -0.26232168 0.0 -0.091284916 -0.28031233 0.0 -0.066216543 -0.29394001 0.0 -0.048788581 -0.30430165 0.0 -0.037338644 -0.31256244 0.0 -0.028739177 -0.34476453 0.0 -0.16809244 -0.37904227 0.0 -0.12864837 -0.40230966 0.0 -0.09220837800000001 -0.4193517 0.0 -0.067498676 -0.43194288 0.0 -0.051506914 -0.44175076 0.0 -0.039685905 -0.49736127 0.0 -0.23960136 -0.54210281 0.0 -0.18033041 -0.57106906 0.0 -0.12739907 -0.5912261 0.0 -0.092597894 -0.60550529 0.0 -0.07054626900000001 -0.61633784 0.0 -0.054663867000000005 -0.7114014 0.0 -0.33454785 -0.7676267 0.0 -0.24750297 -0.80140448 0.0 -0.17266689 -0.82304156 0.0 -0.12518679 -0.83732885 0.0 -0.09579863400000001 -0.84791064 0.0 -0.075238094 -1.0094019 0.0 -0.46653306 -1.0764486999999998 0.0 -0.33727881 -1.1120173999999998 0.0 -0.23119104 -1.1314440000000001 0.0 -0.16775148 -1.1425627 0.0 -0.1294771 -1.1505506 0.0 -0.1040225 -1.4224941 0.0 -0.64138514 -1.4963568 0.0 -0.45066825 -1.5271312 0.0 -0.30547655 -1.5377424 0.0 -0.22389382 -1.5408344999999999 0.0 -0.17578924 -1.542984 0.0 -0.14495495 -1.9936643 0.0 -0.87019593 -2.0635033 0.0 -0.5947845 -2.0770199000000003 0.0 -0.40076268 -2.0685365 0.0 -0.30066288 -2.0573606 0.0 -0.24209352 -2.0499625 0.0 -0.20475671 -2.7821977 0.0 -1.1744968 -2.8228120999999997 0.0 -0.7800917 -2.7971675 0.0 -0.52776343 -2.7543149 0.0 -0.41045704 -2.7221959 0.0 -0.34205624 -2.7021112 0.0 -0.29512593 -3.8658848 0.0 -1.5815749 -3.8258159 0.0 -1.0262335999999999 -3.7230229 0.0 -0.71009529 -3.6246940999999997 0.0 -0.57753307 -3.5657813999999997 0.0 -0.49745125 -3.5323405 0.0 -0.43020767 -5.341114 0.0 -2.1456437000000004 -5.1230283 0.0 -1.3770965 -4.8804498 0.0 -0.99252135 -4.7001386 0.0 -0.84390509 -4.6048388 0.0 -0.74574471 -4.568539599999999 0.0 -0.62560773 -7.3017497 0.0 -2.9691164 -6.742031599999999 0.0 -1.9330648000000001 -6.269741099999999 0.0 -1.4630261999999998 -5.9871273 0.0 -1.2524732 -5.8734722 0.0 -1.0692528000000001 -5.8277655 0.0 -0.88544542 -9.7935009 0.0 -4.2752109 -8.649333 0.0 -2.871578 -7.8613601 0.0 -2.2168574 -7.5157413 0.0 -1.7922615000000002 -7.3792233 0.0 -1.4753251 -7.3003048999999995 0.0 -1.2092446000000001 -12.725042 0.0 -6.3820882 -10.757468 0.0 -4.506145500000001 -9.738391900000002 0.0 -3.2503581 -9.295352900000001 0.0 -2.4828892000000002 -9.0627203 0.0 -1.9802101000000003 -8.922697099999999 0.0 -1.5982319 -15.760420000000002 0.0 -9.957448 -13.223579999999998 0.0 -7.1747627000000005 -11.91876 0.0 -4.8533468 -11.196057000000001 0.0 -3.4569154 -10.827200999999999 0.0 -2.6096623 -10.597013 0.0 -2.0468383 -18.437970999999997 0.0 -15.859105 -15.427961999999999 0.0 -11.927835 -13.923289000000002 0.0 -7.9411054000000005 -13.125919 0.0 -5.0507207 -12.553699 0.0 -3.4732077000000006 -12.180833 0.0 -2.5603812 -20.140532999999998 0.0 -25.045801 -16.870483 0.0 -19.866276 -15.479813 0.0 -13.356271 -14.772485000000001 0.0 -8.0199432 -14.164519 0.0 -4.8703961 -13.652967000000002 0.0 -3.2801080000000002 -20.48229 0.0 -36.250659999999996 -17.55759 0.0 -30.001808 -16.456966 0.0 -20.527916 -15.947397 0.0 -12.062469 -15.348579 0.0 -6.9321427 -14.765557000000001 0.0 -4.314556099999999 -18.959909 0.0 -46.122974 -16.897892000000002 0.0 -39.024212 -16.157795 0.0 -26.980375 -15.93825 0.0 -15.847276999999998 -15.522489000000002 0.0 -8.895598399999999 -14.9846 0.0 -5.2811685 -15.165544 0.0 -52.593216000000005 -14.385921 0.0 -44.947163 -14.034059 0.0 -31.38105 -13.869242999999999 0.0 -18.516697 -13.583467 0.0 -10.376158 -13.234960999999998 0.0 -6.0920057 -10.638775 0.0 -56.36330400000001 -10.445774 0.0 -48.213799 -10.234976 0.0 -33.763088 -10.016648 0.0 -19.999689 -9.7498732 0.0 -11.276817 -9.4708681 0.0 -6.665449099999999 -6.5535059 0.0 -58.448364 -6.472532299999999 0.0 -49.907619 -6.3595066 0.0 -34.968151 -6.2076731 0.0 -20.786704999999998 -6.0254722 0.0 -11.799897999999999 -5.8325887000000005 0.0 -7.037495599999999 -3.3548822 0.0 -59.527252000000004 -3.3318202000000006 0.0 -50.739552 -3.2832446 0.0 -35.545372 -3.205565 0.0 -21.182356 -3.104775 0.0 -12.086849 -2.9940173999999997 0.0 -7.2611103 -0.9903717 0.0 -59.991634 -1.0013735000000001 0.0 -51.064785 -0.99758476 0.0 -35.758476 -0.97816008 0.0 -21.334646 -0.94570994 0.0 -12.210381 -0.90570164 0.0 -7.3691754000000005 0.86158818 0.0 -60.035591000000004 0.8281973 0.0 -51.057705 0.79799098 0.0 -35.731353999999996 0.77054197 0.0 -21.319344 0.74666458 0.0 -12.212685 0.72747982 0.0 -7.3843937 2.5466826 0.0 -59.75631 2.4916002999999995 0.0 -50.809681 2.4292314 0.0 -35.534088 2.359906 0.0 -21.179741 2.2872875 0.0 -12.118506 2.2169447 0.0 -7.3207854999999995 4.254090799999999 0.0 -58.712902 4.172874 0.0 -49.907348999999996 4.0755634 0.0 -34.879974 3.9650211000000004 0.0 -20.77198 3.8470049 0.0 -11.873771000000001 3.7298796000000003 0.0 -7.1667595 5.9828954 0.0 -56.885868 5.8714542000000005 0.0 -48.331016999999996 5.7372389 0.0 -33.756237 5.5856404 0.0 -20.091013 5.4241943 0.0 -11.47762 5.2631717 0.0 -6.924797099999999 7.6224484 0.0 -54.33744 7.4799085000000005 0.0 -46.130627000000004 7.309711900000001 0.0 -32.193523 7.119098700000001 0.0 -19.152328 6.9170218 0.0 -10.939344 6.7154503 0.0 -6.6007133 9.0371265 0.0 -51.171574 8.8664417 0.0 -43.394756 8.664292300000001 0.0 -30.252275 8.4391069 0.0 -17.989345999999998 8.2011051 0.0 -10.276005 7.963876700000001 0.0 -6.2044983 10.119232 0.0 -47.531760999999996 9.8937769 0.0 -40.23885 9.6984749 0.0 -28.016521 9.445344 0.0 -16.650648 9.171422 0.0 -9.5135164 8.8759975 0.0 -5.7529097 10.815381 0.0 -43.581562 10.555595 0.0 -36.812996000000005 10.356722999999999 0.0 -25.585257000000002 10.076511 0.0 -15.191675 9.698905900000002 0.0 -8.6853342 9.2602797 0.0 -5.278881500000001 11.226476 0.0 -39.486771000000005 10.955057 0.0 -33.282661 10.670975 0.0 -23.067277999999998 10.291357000000001 0.0 -13.67695 9.7779903 0.0 -7.8283496 9.239717500000001 0.0 -4.7943444 11.586897 0.0 -35.415524 11.187584 0.0 -29.774368 10.769654 0.0 -20.588638 10.265606 0.0 -12.188199000000001 9.623432199999998 0.0 -6.985173700000001 9.0253611 0.0 -4.3199167 12.180182 0.0 -31.513765000000003 11.476692 0.0 -26.431686 10.82012 0.0 -18.272327 10.164019999999999 0.0 -10.818757000000002 9.3704977 0.0 -6.2086277 8.7078648 0.0 -3.8685943999999997 13.123378 0.0 -27.866457 12.005206 0.0 -23.379215 10.962992999999999 0.0 -16.242216 10.056617999999999 0.0 -9.6653128 9.069726 0.0 -5.5639901 8.3409348 0.0 -3.4915872 14.528751000000002 0.0 -24.562943 12.837989 0.0 -20.709591 11.267809 0.0 -14.596714000000002 9.970130900000001 0.0 -8.8090086 8.7708549 0.0 -5.1157069 7.9650373 0.0 -3.1971257 16.289953 0.0 -21.645666000000002 13.911181 0.0 -18.485477 11.737392 0.0 -13.395832 9.9370451 0.0 -8.3043385 8.5155745 0.0 -4.8792758 7.6059155 0.0 -3.0063066000000003 17.906473000000002 0.0 -19.101854 14.952545 0.0 -16.706970000000002 12.262753 0.0 -12.626731 9.9930191 0.0 -8.153010400000001 8.3346338 0.0 -4.872863300000001 7.2920245999999995 0.0 -2.9394255 15.533919000000001 0.0 -15.285731 12.677907000000001 0.0 -12.161008 10.149542 0.0 -8.303064299999999 8.263091099999999 0.0 -5.0894675000000005 7.059595599999999 0.0 -3.0292962 15.658960999999998 0.0 -14.037675 12.948203 0.0 -11.812529 10.40525 0.0 -8.628957699999999 8.3440542 0.0 -5.5193954000000005 6.9424958 0.0 -3.2859065999999997 13.092941999999999 0.0 -11.450202 10.746458 0.0 -8.977403599999999 8.635303500000001 0.0 -6.1322703 7.0146871 0.0 -3.7574925 13.235870000000002 0.0 -10.986717 11.196893 0.0 -9.202591900000002 9.167762800000002 0.0 -6.8094125 7.3869758 0.0 -4.4523187 11.637804 0.0 -9.276803 9.8798075 0.0 -7.3945079 8.129099799999999 0.0 -5.2375708 10.590878 0.0 -7.791500099999999 9.188647300000001 0.0 -5.9215026 11.143819 0.0 -7.997304400000001 10.12757 0.0 -6.4546589999999995 -0.00012055614 0.0 -1.0414287999999998e-05 -0.00012664846000000002 0.0 -8.4176845e-06 -0.00013146148000000001 0.0 -6.6657835e-06 -0.00013520195 0.0 -5.1459001e-06 -0.00013804639 0.0 -3.8744515e-06 -0.00014015607 0.0 -2.8179472000000003e-06 -0.00014166101999999999 0.0 -1.9463776e-06 -0.00014266331 0.0 -1.2170013e-06 -0.00014323583 0.0 -5.8406744e-07 -0.0002230286 0.0 -1.945801e-05 -0.00023400053 0.0 -1.5772854e-05 -0.00024265884999999997 0.0 -1.2536309000000002e-05 -0.00024939052000000003 0.0 -9.7144475e-06 -0.00025451474 0.0 -7.3494407e-06 -0.00025832388 0.0 -5.370061900000001e-06 -0.00026104841 0.0 -3.7270986e-06 -0.00026286853 0.0 -2.3395837e-06 -0.00026391051 0.0 -1.1259463999999999e-06 -0.00040071242 0.0 -3.5065142999999995e-05 -0.00041983832000000004 0.0 -2.847295e-05 -0.00043491373 0.0 -2.2679109e-05 -0.00044662584000000003 0.0 -1.763766e-05 -0.00045554707000000004 0.0 -1.339305e-05 -0.00046218645999999996 0.0 -9.8253395e-06 -0.00046694308 0.0 -6.847422400000001e-06 -0.0004701277099999999 0.0 -4.3126355999999996e-06 -0.00047195356 0.0 -2.0805826e-06 -0.0007010983 0.0 -6.1489576e-05 -0.00073341327 0.0 -5.001311e-05 -0.0007588531599999999 0.0 -3.9889965000000004e-05 -0.00077858975 0.0 -3.110712e-05 -0.0007936242599999999 0.0 -2.3676768000000003e-05 -0.00080481364 0.0 -1.742431e-05 -0.00081283692 0.0 -1.2180943e-05 -0.0008182133900000001 0.0 -7.6907872e-06 -0.00082129985 0.0 -3.7172736000000003e-06 -0.0011998914 0.0 -0.00010523691 -0.0012530417 0.0 -8.570357e-05 -0.0012948122 0.0 -6.8404079e-05 -0.0013271529000000002 0.0 -5.344291599999999e-05 -0.0013517715 0.0 -4.0732302e-05 -0.0013700782000000001 0.0 -3.0038593e-05 -0.0013832032999999998 0.0 -2.103758e-05 -0.0013919994 0.0 -1.3306872000000001e-05 -0.0013970467000000001 0.0 -6.4401684e-06 -0.0020149597 0.0 -0.00017611595000000002 -0.0021003201 0.0 -0.00014353839 -0.0021672668 0.0 -0.0001145837 -0.0022189678 0.0 -8.9622263e-05 -0.0022582789 0.0 -6.834142600000001e-05 -0.0022874698 0.0 -5.0458922e-05 -0.0023083799 0.0 -3.5367138e-05 -0.0023223779 0.0 -2.2394557e-05 -0.0023304098 0.0 -1.0846415999999999e-05 -0.003328244 0.0 -0.00028849934 -0.0034618308 0.0 -0.00023524575 -0.0035665499 0.0 -0.00018779805 -0.0036473670000000003 0.0 -0.00014698851999999998 -0.0037087685999999996 0.0 -0.00011207848999999999 -0.003754291 0.0 -8.2797917e-05 -0.0037868673 0.0 -5.8041591e-05 -0.0038086504 0.0 -3.6769343e-05 -0.0038211441 0.0 -1.7814187e-05 -0.0054150061 0.0 -0.00046329781999999997 -0.0056196013 0.0 -0.00037737461000000004 -0.0057792678000000005 0.0 -0.00030133437000000004 -0.0059025898 0.0 -0.00023611187999999998 -0.0059965984 0.0 -0.00018004327000000002 -0.0060662879 0.0 -0.00013306031 -0.0061161168999999994 0.0 -9.3266812e-05 -0.0061494144999999995 0.0 -5.9101574e-05 -0.0061684949 0.0 -2.8635763000000003e-05 -0.008675629300000001 0.0 -0.0007320155900000001 -0.0089848181 0.0 -0.00059462758 -0.0092252493 0.0 -0.00047449244000000005 -0.0094109429 0.0 -0.00037245356 -0.009553295600000001 0.0 -0.00028447218999999997 -0.009659388100000001 0.0 -0.00021036542999999997 -0.009735264799999999 0.0 -0.00014735965000000001 -0.0097857509 0.0 -9.334971400000001e-05 -0.0098145623 0.0 -4.5222998e-05 -0.013684122 0.0 -0.0011409702000000001 -0.014146011000000002 0.0 -0.0009246043600000001 -0.014505125 0.0 -0.0007372505499999999 -0.014782812 0.0 -0.00057993818 -0.014996678999999999 0.0 -0.00044439238 -0.015157263 0.0 -0.00032940335 -0.015272876000000001 0.0 -0.00023071772999999998 -0.015349865 0.0 -0.0001459356 -0.01539362 0.0 -7.0521317e-05 -0.021253694 0.0 -0.0017543262 -0.021930836000000002 0.0 -0.0014199389999999998 -0.022457812 0.0 -0.0011319506 -0.022865836 0.0 -0.00089285796 -0.023181577999999998 0.0 -0.0006869403299999999 -0.0234203 0.0 -0.00051125995 -0.023593586 0.0 -0.00035884642 -0.023709743999999998 0.0 -0.00022698175999999999 -0.023776092999999998 0.0 -0.00010949928 -0.032511529 0.0 -0.0026543094000000002 -0.033479139 0.0 -0.0021478764 -0.034232326 0.0 -0.0017125746 -0.034815057999999996 0.0 -0.0013551773 -0.03526748 0.0 -0.0010470486 -0.035611339 0.0 -0.0007832286099999999 -0.03586293 0.0 -0.0005519572900000001 -0.036033109 0.0 -0.00034997867999999997 -0.036131198999999996 0.0 -0.00016910133000000002 -0.048999954000000005 0.0 -0.0039449125 -0.050343659000000006 0.0 -0.0031886839 -0.051385876 0.0 -0.0025447282999999997 -0.052190296 0.0 -0.0020204589 -0.052815743 0.0 -0.0015669324 -0.053291809 0.0 -0.0011777339 -0.053641673 0.0 -0.0008338152000000001 -0.053879961 0.0 -0.00053094263 -0.054018400999999994 0.0 -0.00025738194 -0.072840407 0.0 -0.0057549947 -0.074646272 0.0 -0.0046429415 -0.076039217 0.0 -0.0037057311 -0.07710848 0.0 -0.0029511009 -0.07793973400000001 0.0 -0.0022966363 -0.078572564 0.0 -0.0017326275 -0.079038359 0.0 -0.0012314005999999999 -0.079356685 0.0 -0.00078741205 -0.07954254 0.0 -0.00038299413 -0.10696928 0.0 -0.008252521 -0.10932172 0.0 -0.0066401548999999995 -0.11111924 0.0 -0.0052983812 -0.11248896 0.0 -0.004226875 -0.11355229 0.0 -0.0032972728000000002 -0.11436126 0.0 -0.0024941275 -0.11495878 0.0 -0.0017783629 -0.11536925 0.0 -0.001141254 -0.11560977 0.0 -0.0005567209400000001 -0.15543528 0.0 -0.011682656999999999 -0.15841135 0.0 -0.0093692699 -0.16066529 0.0 -0.0074616037 -0.16236471 0.0 -0.005952145 -0.16367728 0.0 -0.0046496615 -0.16467936 0.0 -0.0035250706 -0.16542642 0.0 -0.0025221601 -0.1659441 0.0 -0.0016243634 -0.16624965 0.0 -0.0007942726400000001 -0.22366156 0.0 -0.016338741 -0.22734073 0.0 -0.013069496000000002 -0.23010764 0.0 -0.010401514 -0.23218052 0.0 -0.0082879672 -0.23378062 0.0 -0.0064807576 -0.23501074 0.0 -0.004926099000000001 -0.23593742 0.0 -0.0035369601 -0.23658583 0.0 -0.0022852491 -0.2369708 0.0 -0.0011195971 -0.31863123 0.0 -0.022708183 -0.32308212 0.0 -0.018136777 -0.32641113 0.0 -0.014462039 -0.32891655 0.0 -0.011518718 -0.33086944 0.0 -0.0090178316 -0.33238819 0.0 -0.006865307199999999 -0.33354211 0.0 -0.0049409796 -0.33435583 0.0 -0.0031986681 -0.33484215 0.0 -0.0015689057 -0.44886029 0.0 -0.031459883 -0.45405251 0.0 -0.02520832 -0.45793745 0.0 -0.020186896 -0.46092084 0.0 -0.016093541 -0.463294 0.0 -0.012614158 -0.46517655 0.0 -0.0096031716 -0.46662402 0.0 -0.0069139125 -0.46765369 0.0 -0.0044768340999999994 -0.46827182 0.0 -0.0021960873000000003 -0.62410706 0.0 -0.043656226 -0.6298191 0.0 -0.035212874 -0.6341511 0.0 -0.028369104 -0.6376071 0.0 -0.022664096 -0.64045596 0.0 -0.017768884 -0.64278227 0.0 -0.01350936 -0.64460564 0.0 -0.009709198 -0.6459142 0.0 -0.0062766639 -0.6467033 0.0 -0.0030756064 -0.85546988 0.0 -0.060840372000000004 -0.86117125 0.0 -0.049549252 -0.86567408 0.0 -0.040172826 -0.86948651 0.0 -0.03215652 -0.87279975 0.0 -0.025163144 -0.87560773 0.0 -0.019077776 -0.87786555 0.0 -0.013657003999999999 -0.87950891 0.0 -0.0088029997 -0.88050622 0.0 -0.0043038926 -1.1564535 0.0 -0.085392669 -1.1612103999999999 0.0 -0.07030423 -1.1653183999999999 0.0 -0.057229577999999996 -1.1691302 0.0 -0.045820702000000005 -1.1727268 0.0 -0.035670474 -1.1759411 0.0 -0.02689342 -1.1786252000000002 0.0 -0.019151019 -1.1806288 0.0 -0.012286838999999999 -1.1818620000000002 0.0 -0.0059970807999999995 -1.5451351 0.0 -0.12099052 -1.5475502 0.0 -0.10049613 -1.5502653 0.0 -0.081749395 -1.5533079 0.0 -0.06522657700000001 -1.5567007 0.0 -0.050342649 -1.5600595 0.0 -0.037583321 -1.5630313999999998 0.0 -0.026657577999999998 -1.565365 0.0 -0.017003054 -1.5668302 0.0 -0.0082877809 -2.046344 0.0 -0.17304359 -2.0446327 0.0 -0.14430597 -2.0444663 0.0 -0.11660074 -2.0455837 0.0 -0.091788165 -2.0477464 0.0 -0.070410788 -2.0506648999999997 0.0 -0.051966645 -2.0535975 0.0 -0.036692172 -2.0561216 0.0 -0.023251165 -2.0577714 0.0 -0.011320283 -2.6914398999999998 0.0 -0.2495631 -2.6838648 0.0 -0.20724343 -2.6789553 0.0 -0.16519356 -2.6763401 0.0 -0.12801625 -2.6758053 0.0 -0.09738895300000001 -2.6773407000000002 0.0 -0.071062945 -2.6797111 0.0 -0.049697738 -2.6821425 0.0 -0.031371642000000005 -2.6838689 0.0 -0.015230223000000001 -3.5144307999999995 0.0 -0.36037746 -3.5003252000000002 0.0 -0.29251567 -3.4876862 0.0 -0.23189697 -3.4789331 0.0 -0.17716929 -3.474021 0.0 -0.13274378 -3.4728439 0.0 -0.096175745 -3.4739735 0.0 -0.06650487299999999 -3.4759393 0.0 -0.041758236000000004 -3.4775987 0.0 -0.020172782 -4.5452251 0.0 -0.51210243 -4.5214114 0.0 -0.41083586 -4.498837 0.0 -0.32166043 -4.4813366 0.0 -0.24326667 -4.4700136 0.0 -0.17962356 -4.4647441 0.0 -0.12876192 -4.4638995999999995 0.0 -0.087967344 -4.4650135 0.0 -0.054899078 -4.466442099999999 0.0 -0.026341693 -5.7918434 0.0 -0.71960229 -5.757192099999999 0.0 -0.56948733 -5.7217765 0.0 -0.44061396 -5.6926030999999995 0.0 -0.32997626 -5.672860099999999 0.0 -0.24055444 -5.6622453 0.0 -0.17056699 -5.6585155 0.0 -0.11508492 -5.6584244 0.0 -0.07124824099999999 -5.6594481 0.0 -0.033892266000000004 -7.241849900000001 0.0 -0.97627044 -7.183678200000001 0.0 -0.76974076 -7.1306343 0.0 -0.59174788 -7.0865431 0.0 -0.43967915 -7.056033599999999 0.0 -0.31625634 -7.038441199999999 0.0 -0.22239456 -7.0310864 0.0 -0.14828745 -7.029304499999999 0.0 -0.09091384 -7.029760799999999 0.0 -0.042994927999999995 -8.8151951 0.0 -1.2914459999999999 -8.728547099999998 0.0 -1.0041304 -8.6456499 0.0 -0.76991385 -8.581675500000001 0.0 -0.57246578 -8.5383005 0.0 -0.40755552 -8.5123377 0.0 -0.28259385 -8.5005159 0.0 -0.18716714 -8.4967346 0.0 -0.11319224 -8.4964046 0.0 -0.053391427000000005 -10.420917999999999 0.0 -1.6103853000000001 -10.269828 0.0 -1.2790229 -10.154697 0.0 -0.9615826 -10.060894000000001 0.0 -0.71281523 -9.998956699999999 0.0 -0.50946444 -9.9634552 0.0 -0.34915072 -9.946253800000001 0.0 -0.22925887 -9.940310499999999 0.0 -0.13723817 -9.939003900000001 0.0 -0.064082332 -11.923964 0.0 -1.9796078999999998 -11.708785 0.0 -1.5299104 -11.536392 0.0 -1.1703139999999999 -11.414213 0.0 -0.85021859 -11.326435 0.0 -0.60395694 -11.276808 0.0 -0.40921393 -11.251163 0.0 -0.26419547 -11.239467999999999 0.0 -0.15648499 -11.235513000000001 0.0 -0.072616674 -13.261804000000001 0.0 -2.4350932000000003 -12.985985000000001 0.0 -1.8599061000000001 -12.767698 0.0 -1.3917774 -12.601194 0.0 -1.0013119000000001 -12.492167 0.0 -0.6841749 -12.426506 0.0 -0.4443523 -12.386722 0.0 -0.27716291 -12.366383 0.0 -0.16172387 -12.357109 0.0 -0.07282040299999999 -14.279116 0.0 -3.0146134 -13.930432000000001 0.0 -2.267302 -13.676425 0.0 -1.685239 -13.493901000000001 0.0 -1.1958518 -13.362407000000001 0.0 -0.79351848 -13.271539 0.0 -0.49718922 -13.213362 0.0 -0.29531446 -13.179522 0.0 -0.16393004 -13.161001 0.0 -0.07124757799999999 -14.503519 0.0 -3.5660343 -14.152360999999999 0.0 -2.6567477999999998 -13.898112 0.0 -1.9750425 -13.712188000000001 0.0 -1.3742409 -13.581045000000001 0.0 -0.89266759 -13.493948999999999 0.0 -0.54177827 -13.439575 0.0 -0.30847016 -13.406795 0.0 -0.1606738 -13.390346 0.0 -0.06790070200000001 -12.898725 0.0 -4.039722 -12.620125999999999 0.0 -2.9958503 -12.406713 0.0 -2.222379 -12.254158 0.0 -1.5343752 -12.152247000000001 0.0 -0.97567439 -12.089551 0.0 -0.56825483 -12.054211 0.0 -0.30270731 -12.036087 0.0 -0.14598551 -12.02794 0.0 -0.057315242 -9.2108011 0.0 -4.4402857000000004 -8.991176600000001 0.0 -3.2992561 -8.8200655 0.0 -2.4487181000000002 -8.696188900000001 0.0 -1.6900022000000001 -8.6137094 0.0 -1.073272 -8.5636349 0.0 -0.62352121 -8.536010699999999 0.0 -0.33083922 -8.522247300000002 0.0 -0.15870297 -8.516243 0.0 -0.062010903 -5.6509237 0.0 -4.7257462 -5.495636900000001 0.0 -3.525064 -5.372610099999999 0.0 -2.6193757 -5.2826262 0.0 -1.8087807 -5.2224894 0.0 -1.1487399 -5.1859698 0.0 -0.66709214 -5.1658578 0.0 -0.35366195 -5.155832299999999 0.0 -0.16943085 -5.151473999999999 0.0 -0.066128597 -2.8869221 0.0 -4.9097672 -2.792798 0.0 -3.6761538999999996 -2.7164302000000005 0.0 -2.735503 -2.6599369 0.0 -1.8901279 -2.622072 0.0 -1.2004584999999999 -2.5991275000000003 0.0 -0.69689476 -2.58652 0.0 -0.36924046 -2.5802549999999997 0.0 -0.17679068 -2.5775237 0.0 -0.068971165 -0.86356777 0.0 -5.006239900000001 -0.8237533 0.0 -3.7588255 -0.78995335 0.0 -2.8002789 -0.76449579 0.0 -1.9357681 -0.74744898 0.0 -1.229432 -0.73718387 0.0 -0.71351653 -0.73158562 0.0 -0.3779012 -0.72883803 0.0 -0.18086733 -0.72763473 0.0 -0.07051658599999999 0.71410215 0.0 -5.0277195 0.70623332 0.0 -3.7808318 0.70199347 0.0 -2.8187672999999998 0.69947457 0.0 -1.9489843 0.69775409 0.0 -1.2377274 0.69659728 0.0 -0.71816337 0.69584852 0.0 -0.38027668 0.69545615 0.0 -0.18198764 0.69528913 0.0 -0.070949599 2.1547308 0.0 -4.983559099999999 2.1042566000000003 0.0 -3.7491046999999997 2.0658884 0.0 -2.7960597999999997 2.0383627 0.0 -1.9333633999999997 2.0199428 0.0 -1.2276502 2.0085907 0.0 -0.71219015 2.0022302 0.0 -0.37706009 1.9990278000000001 0.0 -0.18042341 1.9976109 0.0 -0.07035443200000001 3.6230054 0.0 -4.876792900000001 3.5335631000000003 0.0 -3.6691325 3.4643357000000004 0.0 -2.7367547 3.4143746 0.0 -1.8922607 3.3810556000000003 0.0 -1.2013811 3.3606627000000002 0.0 -0.69685572 3.3492947 0.0 -0.36890909 3.3435411 0.0 -0.17652567 3.341011 0.0 -0.068848833 5.114839099999999 0.0 -4.7116408 4.9896388 0.0 -3.5453641000000005 4.892466099999999 0.0 -2.6447055 4.8224769 0.0 -1.8285139 4.7758722 0.0 -1.160759 4.747433200000001 0.0 -0.67321986 4.7316108 0.0 -0.35639027 4.7236142 0.0 -0.17053735 4.720057 0.0 -0.06653477299999999 6.5292926 0.0 -4.4929833 6.371985 0.0 -3.3822693999999998 6.250085400000001 0.0 -2.5235762999999998 6.1625266 0.0 -1.7448173999999999 6.104333400000001 0.0 -1.1075594 6.0688949 0.0 -0.64232326 6.0491905 0.0 -0.34004921 6.0392303 0.0 -0.16274309 6.0348063 0.0 -0.063476592 7.7441568 0.0 -4.227622 7.5587506 0.0 -3.185288 7.415576 0.0 -2.377697 7.312858599999999 0.0 -1.6442671000000002 7.244730000000001 0.0 -1.0438139000000002 7.2029576 0.0 -0.60542792 7.1796274 0.0 -0.32064208 7.167707000000001 0.0 -0.15354881 7.162408800000001 0.0 -0.05995011 8.5876999 0.0 -3.9326974999999997 8.353151299999999 0.0 -2.9711742 8.1728907 0.0 -2.2212636000000003 8.0402632 0.0 -1.5410062 7.946612400000001 0.0 -0.98396641 7.8854618 0.0 -0.57706517 7.8463187 0.0 -0.31182623 7.823759599999999 0.0 -0.15359601 7.8133531000000005 0.0 -0.062064786 8.859359699999999 0.0 -3.6443538999999996 8.555308300000002 0.0 -2.7687633 8.333631500000001 0.0 -2.0759392 8.1700649 0.0 -1.4474584 8.0496473 0.0 -0.93793386 7.9700169999999995 0.0 -0.56618929 7.9166832 0.0 -0.32314673 7.882003299999999 0.0 -0.16948594 7.8632765 0.0 -0.07225245200000001 8.7827425 0.0 -3.3469224000000004 8.458156599999999 0.0 -2.548588 8.2205429 0.0 -1.9163294999999998 8.0479546 0.0 -1.3501682 7.9268308 0.0 -0.89158237 7.8357811 0.0 -0.54553246 7.775960400000001 0.0 -0.31519979 7.743653299999999 0.0 -0.17032769 7.726239200000001 0.0 -0.074714415 8.554162 0.0 -3.0410473 8.2197351 0.0 -2.3360388 7.980181699999999 0.0 -1.7647066999999999 7.8046837 0.0 -1.2516425 7.6780996 0.0 -0.826276 7.600459599999999 0.0 -0.51784283 7.5536928 0.0 -0.30756319 7.5265164 0.0 -0.1719508 7.5130539 0.0 -0.0781321 8.2355738 0.0 -2.7598755 7.9197893 0.0 -2.1304252 7.6796265 0.0 -1.6140261999999999 7.5075974 0.0 -1.1490512 7.392002099999999 0.0 -0.77469999 7.322606599999999 0.0 -0.50219786 7.280974400000001 0.0 -0.31174099 7.258072900000001 0.0 -0.18122637 7.2476606 0.0 -0.081017427 7.8865018 0.0 -2.5025477 7.5642648 0.0 -1.9465446 7.332821400000001 0.0 -1.4727163 7.1618977 0.0 -1.0603646 7.0496898 0.0 -0.73576313 6.979593799999999 0.0 -0.49116945 6.9417849 0.0 -0.31511509 6.921435799999999 0.0 -0.18231104 6.911154700000001 0.0 -0.08380560599999999 7.4962387 0.0 -2.2951517000000003 7.1730485 0.0 -1.7713400000000001 6.939972900000001 0.0 -1.3515012 6.7711792 0.0 -0.98994774 6.6535606 0.0 -0.69803709 6.5845447 0.0 -0.47469252 6.545709099999999 0.0 -0.30710396 6.5237894 0.0 -0.18212467 6.513618900000001 0.0 -0.085083373 7.082592999999999 0.0 -2.1277863999999997 6.7471304000000005 0.0 -1.6160246 6.515321299999999 0.0 -1.2420168 6.3357224 0.0 -0.9215011 6.2182746 0.0 -0.66036141 6.145975099999999 0.0 -0.45715049 6.101870099999999 0.0 -0.30027807 6.077819799999999 0.0 -0.17970866 6.0656147 0.0 -0.085699596 6.6794772 0.0 -2.0013018 6.3309717 0.0 -1.4881318000000001 6.077103599999999 0.0 -1.1334212 5.8954926 0.0 -0.85672641 5.7703385 0.0 -0.62478775 5.688446 0.0 -0.43953428 5.6387954 0.0 -0.29223359 5.610055 0.0 -0.17807911 5.5951023 0.0 -0.08466664 6.337839099999999 0.0 -1.9456699 5.9216652000000005 0.0 -1.3750461 5.6599994 0.0 -1.0364507 5.4652267 0.0 -0.79055613 5.332183799999999 0.0 -0.58383173 5.243097799999999 0.0 -0.42306495 5.1831116999999995 0.0 -0.28622353 5.1469941 0.0 -0.17701377 5.1281867 0.0 -0.08400400699999999 6.0831327 0.0 -1.9993982 5.5780654 0.0 -1.3125783000000002 5.2776265 0.0 -0.94703346 5.0705352 0.0 -0.71940821 4.926158 0.0 -0.54095358 4.8262081 0.0 -0.3967635 4.7599397 0.0 -0.27807429 4.7153606 0.0 -0.17468777 4.692039 0.0 -0.083300903 5.958499 0.0 -2.2109377 5.3312945 0.0 -1.3492146999999999 4.9562397 0.0 -0.88755149 4.7198095 0.0 -0.65070921 4.5684891 0.0 -0.48789504 4.455938300000001 0.0 -0.36191773 4.3820847999999994 0.0 -0.25812933 4.3345261 0.0 -0.16659507 4.307210400000001 0.0 -0.080085814 6.0610809 0.0 -2.6558402 5.2323961 0.0 -1.5441354999999999 4.7481518 0.0 -0.93133616 4.4520373 0.0 -0.61100531 4.2572408 0.0 -0.43242326 4.1404729 0.0 -0.31896591 4.055553 0.0 -0.22165787 4.0029159 0.0 -0.14423545 3.9747623999999995 0.0 -0.069952928 6.5952387 0.0 -3.3640883 5.438251 0.0 -2.0112123 4.7114434 0.0 -1.1617088 4.2963758 0.0 -0.68191379 4.0367117 0.0 -0.4277828 3.875026 0.0 -0.28016439 3.7770779 0.0 -0.18506049 3.7159885999999998 0.0 -0.1161763 3.6822755 0.0 -0.056032415 7.681664 0.0 -4.1462593 6.236609 0.0 -2.73401 5.111608 0.0 -1.7050802999999999 4.391065599999999 0.0 -0.99530548 3.9604623 0.0 -0.57298851 3.7218955 0.0 -0.33039829 3.5769875 0.0 -0.1875318 3.4965214999999996 0.0 -0.10043826 3.4563667999999996 0.0 -0.043172989 8.9454718 0.0 -4.9017944 7.617487400000001 0.0 -3.5106571000000004 6.2928643 0.0 -2.4109974 5.1539278 0.0 -1.6058909 4.3416805 0.0 -1.0112654 3.8532032999999997 0.0 -0.58768803 3.5752992999999993 0.0 -0.31598839 3.4269676 0.0 -0.15640919 3.3553714999999995 0.0 -0.064477362 9.728120800000001 0.0 -5.589695 8.855979 0.0 -4.2972813 7.8326144 0.0 -3.1661463 6.7353062999999995 0.0 -2.2649603 5.718173999999999 0.0 -1.568202 4.901567 0.0 -1.0342802 4.3303785 0.0 -0.63071746 3.9823656 0.0 -0.34376866 3.8034661 0.0 -0.14886603 9.391559599999999 0.0 -5.0187445 8.8930864 0.0 -3.9380641000000005 8.2234898 0.0 -3.0048277000000003 7.467585099999999 0.0 -2.1910191 6.7451043 0.0 -1.501164 6.1713977 0.0 -0.94062543 5.787911900000001 0.0 -0.52481049 5.5748496 0.0 -0.22979702 8.8351326 0.0 -3.7848911 8.581392300000001 0.0 -2.8979132 8.2542248 0.0 -2.0602746 7.9589663 0.0 -1.3079187 7.748936200000001 0.0 -0.73182738 7.626852499999999 0.0 -0.32031825 8.5890045 0.0 -2.6892164000000003 8.6132889 0.0 -1.7200613 8.6238985 0.0 -0.96205842 8.6249838 0.0 -0.41961068 -0.00014342171 0.0 1.3258460000000001e-11 -0.00014323565 0.0 5.8407403e-07 -0.0001426633 0.0 1.2170008e-06 -0.00014166093000000002 0.0 1.9463791e-06 -0.00014015603000000002 0.0 2.8179433999999996e-06 -0.00013804639 0.0 3.8744488e-06 -0.0001352019 0.0 5.1459042e-06 -0.00013146151000000003 0.0 6.6657863e-06 -0.00026424936 0.0 9.0080617e-12 -0.00026391036 0.0 1.1259602e-06 -0.00026286821 0.0 2.3395787000000003e-06 -0.00026104841 0.0 3.7270997e-06 -0.00025832403 0.0 5.3700554999999996e-06 -0.00025451466000000003 0.0 7.3494475e-06 -0.00024939055 0.0 9.7144539e-06 -0.00024265889 0.0 1.2536296e-05 -0.00047254845000000003 0.0 -2.0272867000000002e-11 -0.00047195359 0.0 2.0805735e-06 -0.00047012720999999995 0.0 4.3126274e-06 -0.00046694295999999993 0.0 6.847412400000001e-06 -0.00046218629 0.0 9.825324000000001e-06 -0.00045554700999999995 0.0 1.3393059e-05 -0.00044662589999999996 0.0 1.7637723000000002e-05 -0.00043491364000000003 0.0 2.2679103e-05 -0.00082230545 0.0 2.6501551000000002e-11 -0.00082129985 0.0 3.7173472000000005e-06 -0.00081821362 0.0 7.6907845e-06 -0.0008128371000000001 0.0 1.2180891e-05 -0.0008048138099999999 0.0 1.7424289000000002e-05 -0.0007936240299999999 0.0 2.3676772e-05 -0.00077858957 0.0 3.1107233e-05 -0.0007588531 0.0 3.9889961e-05 -0.0013986926000000002 0.0 1.4808185e-10 -0.0013970472 0.0 6.4401584000000005e-06 -0.0013919984 0.0 1.3306782e-05 -0.0013832031 0.0 2.1037657e-05 -0.0013700781 0.0 3.0038607000000003e-05 -0.0013517711 0.0 4.0732313e-05 -0.0013271528 0.0 5.3443095e-05 -0.0012948132 0.0 6.8404137e-05 -0.0023330282 0.0 2.2580315e-10 -0.0023304105 0.0 1.0846421e-05 -0.0023223773999999997 0.0 2.239453e-05 -0.0023083808 0.0 3.5367148999999996e-05 -0.0022874707 0.0 5.045889e-05 -0.0022582784 0.0 6.8341331e-05 -0.002218968 0.0 8.962237900000001e-05 -0.0021672668 0.0 0.00011458375 -0.0038252114 0.0 -3.8687631e-10 -0.0038211434 0.0 1.7813879999999998e-05 -0.0038086518 0.0 3.6769467e-05 -0.0037868656 0.0 5.8041544000000004e-05 -0.003754291 0.0 8.279788000000001e-05 -0.0037087685999999996 0.0 0.00011207839 -0.0036473675 0.0 0.00014698837 -0.0035665513 0.0 0.00018779778000000002 -0.006174710999999999 0.0 -1.4493251e-10 -0.0061684968 0.0 2.8634857e-05 -0.0061494149 0.0 5.910176e-05 -0.006116112700000001 0.0 9.3266855e-05 -0.0060662865 0.0 0.00013306015 -0.005996599799999999 0.0 0.00018004335 -0.0059025907 0.0 0.00023611129 -0.005779271 0.0 0.00030133332 -0.0098239304 0.0 -2.3993119e-10 -0.0098145595 0.0 4.5221881e-05 -0.0097857527 0.0 9.334939399999999e-05 -0.0097352723 0.0 0.00014735961 -0.0096593844 0.0 0.00021036531000000002 -0.0095533011 0.0 0.00028447094 -0.0094109504 0.0 0.00037245275 -0.0092252418 0.0 0.00047449049000000004 -0.015407728999999998 0.0 -1.3587775e-09 -0.015393614 0.0 7.0522401e-05 -0.015349856 0.0 0.00014593668 -0.015272873000000001 0.0 0.00023071810000000002 -0.015157261000000002 0.0 0.00032940300000000003 -0.014996676 0.0 0.00044439142 -0.014782807 0.0 0.00057993806 -0.014505127 0.0 0.0007372500800000001 -0.023797618 0.0 1.0292718e-09 -0.023776112000000002 0.0 0.00010950021 -0.02370974 0.0 0.0002269809 -0.023593577 0.0 0.00035884514 -0.02342031 0.0 0.0005112594200000001 -0.023181574 0.0 0.0006869405 -0.022865853999999998 0.0 0.00089285924 -0.022457814 0.0 0.0011319475999999999 -0.036163192000000004 0.0 -2.5238167e-09 -0.036131211 0.0 0.00016910631999999997 -0.036033139 0.0 0.00034998302000000003 -0.035862926 0.0 0.00055195647 -0.035611324 0.0 0.00078322843 -0.035267502 0.0 0.0010470499 -0.034815039 0.0 0.0013551709 -0.034232326 0.0 0.0017125716 -0.054063778 0.0 -2.4315021e-09 -0.054018416 0.0 0.00025738354 -0.053879932 0.0 0.00053094333 -0.053641655 0.0 0.0008338141499999999 -0.05329180099999999 0.0 0.0011777336 -0.05281575 0.0 0.0015669343 -0.052190248 0.0 0.0020204643 -0.051385902000000004 0.0 0.0025447323 -0.079603665 0.0 -3.518231e-09 -0.079542533 0.0 0.00038298557 -0.079356737 0.0 0.0007874076299999999 -0.079038367 0.0 0.0012313988000000001 -0.078572556 0.0 0.0017326266000000001 -0.077939786 0.0 0.0022966471 -0.07710842799999999 0.0 0.0029510907 -0.076039217 0.0 0.0037057374 -0.115689 0.0 3.624379e-09 -0.11560972 0.0 0.0005567153599999999 -0.11536925 0.0 0.0011412425 -0.1149588 0.0 0.0017783551000000002 -0.11436128 0.0 0.0024941217 -0.11355229 0.0 0.0032972782 -0.11248896 0.0 0.0042268732 -0.11111919 0.0 0.0052983859 -0.16635033 0.0 -9.8881472e-09 -0.16624962 0.0 0.00079425838 -0.16594429 0.0 0.0016243227 -0.16542637 0.0 0.0025221505 -0.16467933 0.0 0.0035250755 -0.16367717 0.0 0.0046496767999999996 -0.16236459 0.0 0.0059521329000000005 -0.16066517 0.0 0.0074616042 -0.23709846 0.0 -1.5246634e-08 -0.2369709 0.0 0.0011195856 -0.23658574 0.0 0.0022853049 -0.23593752 0.0 0.0035369394 -0.23501071 0.0 0.0049260808000000005 -0.23378058 0.0 0.0064807567000000005 -0.23218073 0.0 0.0082879746 -0.23010781 0.0 0.010401505 -0.33500355 0.0 5.7419355999999994e-08 -0.33484218 0.0 0.0015689856 -0.3343558 0.0 0.0031986846999999996 -0.3335422 0.0 0.0049409471 -0.33238801 0.0 0.0068652965000000005 -0.33086947 0.0 0.0090178493 -0.32891676 0.0 0.011518737 -0.3264111 0.0 0.01446206 -0.46847746 0.0 -1.7809356e-07 -0.46827188 0.0 0.0021959378 -0.46765363 0.0 0.0044767344 -0.46662408 0.0 0.0069139111 -0.46517655 0.0 0.009603167 -0.46329409 0.0 0.012614113 -0.46092096 0.0 0.016093528 -0.45793733 0.0 0.020186858000000002 -0.64696652 0.0 2.5132977000000003e-08 -0.64670342 0.0 0.0030757906 -0.64591414 0.0 0.0062767277 -0.6446054 0.0 0.0097091328 -0.64278209 0.0 0.013509316 -0.64045584 0.0 0.017768882 -0.63760722 0.0 0.022664148 -0.63415158 0.0 0.028369186 -0.88083982 0.0 -7.949609e-08 -0.88050622 0.0 0.0043040537 -0.87950873 0.0 0.0088029578 -0.87786579 0.0 0.013656861999999999 -0.87560743 0.0 0.019077793 -0.87279999 0.0 0.025163078999999998 -0.86948639 0.0 0.032156389 -0.86567378 0.0 0.040172819 -1.1822772 0.0 9.4486268e-09 -1.1818608999999998 0.0 0.0059972409999999995 -1.1806295 0.0 0.012286921999999999 -1.1786252000000002 0.0 0.019151038000000002 -1.1759421 0.0 0.026893366000000002 -1.172727 0.0 0.035670411 -1.1691294 0.0 0.045820709 -1.1653191999999999 0.0 0.057229847 -1.5673325 0.0 -1.0899452999999999e-07 -1.5668303 0.0 0.008287766 -1.5653641999999999 0.0 0.017003331 -1.5630322 0.0 0.026657497999999998 -1.5600592 0.0 0.037583303 -1.5567011999999998 0.0 0.050342627 -1.5533072 0.0 0.065226696 -1.550266 0.0 0.081749305 -2.0583515 0.0 2.6741702000000004e-07 -2.0577707 0.0 0.011319626999999999 -2.0561218 0.0 0.023251003 -2.0535978999999998 0.0 0.036692302999999996 -2.0506661 0.0 0.051966794000000004 -2.0477461999999997 0.0 0.070410885 -2.0455846999999996 0.0 0.091787785 -2.0444667 0.0 0.11660072 -2.6845002 0.0 1.2344991999999998e-07 -2.6838686000000003 0.0 0.015229817 -2.682142 0.0 0.031371992 -2.6797101000000003 0.0 0.04969791 -2.6773388 0.0 0.071063116 -2.6758037 0.0 0.097388856 -2.6763382 0.0 0.12801588 -2.6789544 0.0 0.165194 -3.4782364 0.0 7.2742853e-07 -3.4775983999999998 0.0 0.020173591 -3.4759406999999998 0.0 0.041758098 -3.4739735 0.0 0.066505745 -3.4728458 0.0 0.0961757 -3.4740202000000004 0.0 0.132743 -3.4789314 0.0 0.17716874 -3.4876859 0.0 0.2318968 -4.4670401 0.0 -2.068906e-07 -4.4664388 0.0 0.026340595 -4.4650126 0.0 0.05489929 -4.4638968 0.0 0.087967336 -4.4647508 0.0 0.12876193 -4.4700136 0.0 0.17962329 -4.4813366 0.0 0.24326572 -4.4988379 0.0 0.32166135 -5.6599569 0.0 -1.5221091000000002e-06 -5.6594477 0.0 0.033889972000000004 -5.658422900000001 0.0 0.07124931400000001 -5.6585121 0.0 0.11508515 -5.662246700000001 0.0 0.17056669 -5.6728587 0.0 0.24055414 -5.6926041 0.0 0.32997602 -5.7217807999999994 0.0 0.44061333 -7.0301213 0.0 1.8044536000000003e-06 -7.0297637 0.0 0.042996957999999995 -7.029304 0.0 0.09091251300000001 -7.0310912 0.0 0.1482874 -7.0384378 0.0 0.22239372 -7.056034599999999 0.0 0.3162562 -7.086549300000001 0.0 0.43967938 -7.1306367 0.0 0.5917483 -8.4965954 0.0 2.252491e-06 -8.4964056 0.0 0.053392243 -8.4967365 0.0 0.11319427 -8.5005207 0.0 0.18716602 -8.5123329 0.0 0.28259316 -8.538307199999998 0.0 0.40755588 -8.5816774 0.0 0.57246631 -8.6456442 0.0 0.76991642 -9.939011599999999 0.0 6.1009487e-06 -9.939003 0.0 0.064076416 -9.9403 0.0 0.13723625 -9.9462481 0.0 0.22926083 -9.963453300000001 0.0 0.34915027 -9.998963400000001 0.0 0.50946712 -10.060896000000001 0.0 0.71281582 -10.154699 0.0 0.96158129 -11.234511 0.0 -2.4650653e-06 -11.235517 0.0 0.072615638 -11.239453999999999 0.0 0.15648505 -11.251161 0.0 0.26419029 -11.276798 0.0 0.4092108 -11.326433999999999 0.0 0.60395992 -11.414216999999999 0.0 0.85021907 -11.536391 0.0 1.1703193 -12.354346000000001 0.0 -6.379850699999999e-07 -12.357113 0.0 0.072831295 -12.366386 0.0 0.16172332 -12.38672 0.0 0.27716243 -12.426508 0.0 0.44434869 -12.49217 0.0 0.68417656 -12.601185000000001 0.0 1.001321 -12.767697 0.0 1.3917873 -13.155748999999998 0.0 1.3019308000000001e-05 -13.161001999999998 0.0 0.071231581 -13.179533 0.0 0.16392601 -13.213359 0.0 0.29530838 -13.271544 0.0 0.49718529 -13.362398 0.0 0.79352486 -13.493894000000001 0.0 1.1958472 -13.676425 0.0 1.6852341 -13.385159 0.0 -2.5422777999999997e-06 -13.390357999999999 0.0 0.067910001 -13.406787 0.0 0.16066326 -13.439573999999999 0.0 0.30848154 -13.493951999999998 0.0 0.54177278 -13.581039 0.0 0.89266187 -13.712188000000001 0.0 1.3742502 -13.898101 0.0 1.975055 -12.025656 0.0 -1.1748023000000001e-05 -12.027938 0.0 0.057326492 -12.036085 0.0 0.14597532 -12.054207 0.0 0.3027049 -12.089554 0.0 0.56825471 -12.152246 0.0 0.97567904 -12.254154 0.0 1.5343831 -12.406716000000001 0.0 2.2223637000000003 -8.514596899999999 0.0 6.1898318e-06 -8.5162449 0.0 0.062025502 -8.522250199999998 0.0 0.15869501 -8.5360117 0.0 0.33084324 -8.563633 0.0 0.62352622 -8.613712300000001 0.0 1.0732713 -8.696188900000001 0.0 1.6899970000000002 -8.8200665 0.0 2.448719 -5.1502614 0.0 -4.121859100000001e-06 -5.151467299999999 0.0 0.06614165799999999 -5.1558269999999995 0.0 0.16943458 -5.1658497 0.0 0.35366383 -5.1859708 0.0 0.66708404 -5.222487 0.0 1.1487446000000001 -5.2826265999999995 0.0 1.8087756999999998 -5.3726144 0.0 2.6194119 -2.5767691000000004 0.0 -9.3916024e-06 -2.5775228 0.0 0.068961509 -2.5802591 0.0 0.17678183 -2.5865195 0.0 0.36924767 -2.5991206 0.0 0.69689345 -2.6220701 0.0 1.2004682 -2.659936 0.0 1.8901252 -2.7164371 0.0 2.7355072 -0.72730464 0.0 6.6838693e-06 -0.72763819 0.0 0.07051803200000001 -0.72882676 0.0 0.18086031 -0.73159003 0.0 0.3779088 -0.73717988 0.0 0.7135129 -0.74744266 0.0 1.2294357 -0.7645151 0.0 1.9357688000000002 -0.78994447 0.0 2.8002846000000003 0.69524807 0.0 -9.161478400000002e-06 0.69528657 0.0 0.070953593 0.69546044 0.0 0.18197586 0.6958549 0.0 0.38027972 0.69659609 0.0 0.71816534 0.69776392 0.0 1.2377305 0.69947511 0.0 1.948982 0.70199418 0.0 2.8187737 1.9972221999999997 0.0 -1.2885052e-05 1.9976201 0.0 0.070342317 1.9990351000000002 0.0 0.18042009 2.0022302 0.0 0.37707278 2.0085895000000002 0.0 0.71218908 2.019937 0.0 1.2276534 2.0383622999999997 0.0 1.9333470000000001 2.065887 0.0 2.7960390999999998 3.3403150999999998 0.0 6.8276131e-06 3.3410046 0.0 0.06884256799999999 3.3435509 0.0 0.17651938 3.349297 0.0 0.36891466 3.3606625 0.0 0.69684899 3.3810501000000004 0.0 1.2013713 3.414392 0.0 1.8922541000000002 3.4643222999999996 0.0 2.7367465 4.719077599999999 0.0 1.108725e-05 4.7200632 0.0 0.066496968 4.7236028 0.0 0.17053808 4.7316098 0.0 0.35639566 4.7474375 0.0 0.67322409 4.7758703 0.0 1.1607593 4.8224711 0.0 1.8285136999999998 4.8924704000000006 0.0 2.6447055 6.0335792999999995 0.0 1.2005911999999998e-06 6.0348101 0.0 0.063458301 6.039224099999999 0.0 0.16273317 6.0491843 0.0 0.34004024 6.0688992 0.0 0.64231861 6.1043358 0.0 1.1075594 6.1625137 0.0 1.7448078000000002 6.2500767999999995 0.0 2.5235839 7.160924900000001 0.0 -2.3083820000000002e-05 7.162409299999999 0.0 0.059947673 7.167701200000001 0.0 0.15354501 7.1796265 0.0 0.32063428 7.202958099999999 0.0 0.60542899 7.2447195 0.0 1.0438155 7.3128652999999995 0.0 1.6442693 7.415568400000001 0.0 2.3776927000000003 7.8092947 0.0 1.5495751999999998e-06 7.8133717 0.0 0.062075287 7.8237495 0.0 0.15360083 7.846324000000001 0.0 0.31182501 7.8854660999999995 0.0 0.57706434 7.9466128 0.0 0.98397195 8.0402718 0.0 1.5410093999999999 8.172885899999999 0.0 2.2212582000000003 7.8571196 0.0 -5.403620900000001e-06 7.8632755 0.0 0.072240293 7.8820062 0.0 0.16948892 7.9166822 0.0 0.32314736 7.9700246 0.0 0.56619239 8.049642599999999 0.0 0.93793625 8.1700668 0.0 1.4474528 8.3336191 0.0 2.0759304 7.7210517 0.0 -1.357228e-06 7.726248299999999 0.0 0.074713565 7.743659 0.0 0.17034212 7.7759643 0.0 0.31520185 7.835798700000001 0.0 0.54552758 7.926827900000001 0.0 0.89159793 8.047961200000001 0.0 1.3501681 8.2205477 0.0 1.9163389 7.509303999999999 0.0 8.771021400000001e-07 7.513043400000001 0.0 0.07813903700000001 7.5265241 0.0 0.1719733 7.5536928 0.0 0.30756369 7.6004605 0.0 0.51783681 7.6781068 0.0 0.82627594 7.8046869999999995 0.0 1.2516392 7.9801869000000005 0.0 1.764709 7.2441802 0.0 -2.4466281e-06 7.247655900000001 0.0 0.08101449200000001 7.2580709 0.0 0.18122856 7.280974900000001 0.0 0.31173944 7.3225926999999995 0.0 0.50219798 7.391986800000001 0.0 0.77469504 7.5075898 0.0 1.1490366 7.6796284 0.0 1.6140205 6.908912700000001 0.0 -1.0076183e-06 6.9111466 0.0 0.083806351 6.921433400000001 0.0 0.18230726 6.941780099999999 0.0 0.31511298 6.979595699999999 0.0 0.49117285 7.049694099999999 0.0 0.73576224 7.161889100000001 0.0 1.0603592 7.3328195 0.0 1.472715 6.5105519 0.0 1.4256802e-06 6.5136127 0.0 0.08508949699999999 6.5237942 0.0 0.18212694 6.5456977 0.0 0.3071017 6.5845418 0.0 0.47469246 6.6535592 0.0 0.69803697 6.771191099999999 0.0 0.98994803 6.9399815 0.0 1.3514951000000002 6.062523400000001 0.0 -7.4945274e-06 6.0656147 0.0 0.08569241300000001 6.077817 0.0 0.17971164 6.1018753 0.0 0.3002837 6.1459708 0.0 0.45715228 6.2182779 0.0 0.66036171 6.3357186 0.0 0.92149615 6.515317400000001 0.0 1.2420176 5.5912008 0.0 3.0887240000000004e-06 5.5951023 0.0 0.08467488699999999 5.610053099999999 0.0 0.17808525 5.6387873 0.0 0.29223081 5.688445099999999 0.0 0.43953252 5.7703404 0.0 0.62478483 5.895501599999999 0.0 0.85673308 6.077098400000001 0.0 1.1334215 5.122906200000001 0.0 2.6076377e-06 5.1281824 0.0 0.08401332800000001 5.146993599999999 0.0 0.17701006 5.1831093 0.0 0.28621912 5.243084 0.0 0.42306542 5.3321824 0.0 0.58382964 5.4652233 0.0 0.79055643 5.6600022 0.0 1.0364463 4.6846552 0.0 -7.180118700000001e-06 4.6920380999999995 0.0 0.083303504 4.7153559000000005 0.0 0.17468932 4.7599349 0.0 0.27807656 4.826206200000001 0.0 0.39676183 4.926156 0.0 0.54095542 5.0705333 0.0 0.71940625 5.2776308 0.0 0.94703001 4.2983804 0.0 -4.6843342999999997e-07 4.3072080999999995 0.0 0.080090418 4.3345165 0.0 0.16659348 4.3820901 0.0 0.25812933 4.455935500000001 0.0 0.36191645 4.5684843 0.0 0.48790091 4.7198124 0.0 0.65070742 4.9562392 0.0 0.8875497 3.9665225 0.0 -2.7952519e-06 3.9747627 0.0 0.069956444 4.0029159 0.0 0.14423421 4.0555539 0.0 0.22165827 4.140479099999999 0.0 0.31896505 4.2572432000000004 0.0 0.43242183 4.4520359 0.0 0.61100423 4.7481518 0.0 0.93133616 3.6748426 0.0 -1.6664490000000001e-06 3.6822751000000005 0.0 0.05603122 3.7159939 0.0 0.11617975 3.7770791 0.0 0.18505889 3.8750273999999996 0.0 0.28016603 4.0367112 0.0 0.42778316 4.2963748 0.0 0.6819135 4.7114405999999995 0.0 1.161708 3.4420552000000004 0.0 -6.6235225e-07 3.4563693999999994 0.0 0.043175798 3.4965219 0.0 0.10044013 3.5769862999999997 0.0 0.18753064 3.7218945 0.0 0.33039835 3.9604627999999997 0.0 0.57298714 4.391065599999999 0.0 0.99530631 5.1116095 0.0 1.7050824 3.3327832 0.0 2.1935302e-06 3.3553742999999994 0.0 0.064477965 3.4269667 0.0 0.15640841 3.5753038 0.0 0.31598759 3.8532059000000003 0.0 0.58768761 4.341682 0.0 1.0112664 5.1539278 0.0 1.6058919 6.292863400000001 0.0 2.4109976000000004 3.7481023999999996 0.0 -1.4021498e-06 3.8034651 0.0 0.14886436 3.982367 0.0 0.34376985 4.330379 0.0 0.63071656 4.901568900000001 0.0 1.0342796 5.718177799999999 0.0 1.5682021000000002 6.7353119999999995 0.0 2.264961 7.8326178 0.0 3.1661451 5.5079465 0.0 -4.7095818e-07 5.574852 0.0 0.22979711 5.7879138 0.0 0.52481043 6.1714005 0.0 0.94062656 6.7451062 0.0 1.5011635 7.4675841 0.0 2.1910179 8.2234898 0.0 3.0048277000000003 8.8930874 0.0 3.9380642999999997 7.587285499999999 0.0 -5.9301965e-07 7.626852499999999 0.0 0.32031855 7.7489429 0.0 0.73182786 7.958971000000001 0.0 1.3079181 8.2542267 0.0 2.0602744 8.581399900000001 0.0 2.897912 8.835130699999999 0.0 3.7848902 8.625824900000001 0.0 2.9893271999999996e-07 8.624985699999998 0.0 0.41961065 8.6238995 0.0 0.9620592 8.6132879 0.0 1.7200616999999998 8.589007400000002 0.0 2.6892158999999998 -0.00012664845 0.0 8.4176863e-06 -0.00012055616000000001 0.0 1.0414295e-05 -0.00011299604999999999 0.0 1.2565892e-05 -0.00010378026 0.0 1.4793112e-05 -9.270549300000001e-05 0.0 1.7005174e-05 -7.9641613e-05 0.0 1.8907489e-05 -6.4435604e-05 0.0 2.0261563e-05 -0.00023400046000000003 0.0 1.5772845999999998e-05 -0.00022302862000000002 0.0 1.9458021e-05 -0.00020938150000000003 0.0 2.3420007000000002e-05 -0.00019268539000000002 0.0 2.7519834e-05 -0.00017250983000000002 0.0 3.1595187e-05 -0.00014851576999999998 0.0 3.5103352e-05 -0.00012021808000000001 0.0 3.7624995e-05 -8.825670400000001e-05 0.0 3.8242833e-05 -0.0004198381200000001 0.0 2.8472954e-05 -0.00040071254 0.0 3.5065084e-05 -0.00037686370000000004 0.0 4.2156676e-05 -0.00034758265 0.0 4.9519604e-05 -0.00031202892 0.0 5.687224599999999e-05 -0.00026950784 0.0 6.3303349e-05 -0.00021914367000000002 0.0 6.810632499999999e-05 -0.00016175909 0.0 6.8973954e-05 -0.00073341338 0.0 5.0013183e-05 -0.00070109835 0.0 6.1489518e-05 -0.0006606652199999999 0.0 7.392156799999999e-05 -0.00061084144 0.0 8.685247300000001e-05 -0.0005500454 0.0 9.979171599999999e-05 -0.00047683127999999995 0.0 0.00011127631000000002 -0.00038941781000000005 0.0 0.00011997799 -0.00028869882 0.0 0.00012175518 -0.0012530412 0.0 8.5703708e-05 -0.0011998913000000001 0.0 0.00010523691 -0.0011331216 0.0 0.00012654718 -0.0010504859 0.0 0.00014873683999999998 -0.0009490689300000001 0.0 0.00017098033 -0.0008258645 0.0 0.00019106394 -0.00067737023 0.0 0.00020663823 -0.00050437218 0.0 0.00021063515 -0.002100321 0.0 0.00014353848 -0.0020149597 0.0 0.00017611578000000002 -0.0019072578 0.0 0.00021186651000000003 -0.0017732743 0.0 0.00024918569 -0.0016077336999999999 0.0 0.00028676382 -0.0014047551000000002 0.0 0.00032134529 -0.0011575919 0.0 0.00034904774 -0.0008662299400000001 0.0 0.00035798992 -0.0034618312 0.0 0.00023524521 -0.0033282437 0.0 0.00028849879000000003 -0.0031587619 0.0 0.00034744127 -0.0029462334 0.0 0.00040943178 -0.0026812865000000003 0.0 0.00047238027999999997 -0.0023531617999999997 0.0 0.00053128932 -0.0019491229 0.0 0.00058026297 -0.0014667977 0.0 0.0005996179 -0.0056196027 0.0 0.00037737525000000003 -0.0054150061 0.0 0.00046329814000000005 -0.005153214099999999 0.0 0.00055965059 -0.0048222332000000005 0.0 0.0006617867599999999 -0.0044062560999999995 0.0 0.00076636218 -0.0038868103 0.0 0.0008654999499999999 -0.0032399171 0.0 0.0009513088699999999 -0.0024562398999999997 0.0 0.0009917570300000001 -0.008984814399999999 0.0 0.000594627 -0.0086756302 0.0 0.00073201349 -0.0082774945 0.0 0.0008879748599999998 -0.007770810699999999 0.0 0.0010545286 -0.0071305310999999994 0.0 0.0012256078 -0.0063265631999999995 0.0 0.0013890445999999999 -0.0053154933 0.0 0.0015361155 -0.0040709344 0.0 0.0016170095000000002 -0.014146013 0.0 0.00092460046 -0.013684129 0.0 0.00114097 -0.013088145 0.0 0.001388954 -0.012326212 0.0 0.0016567523000000002 -0.011361946999999999 0.0 0.0019293118 -0.010143594 0.0 0.0021945178 -0.008602199100000001 0.0 0.0024381094 -0.0066729779 0.0 0.0025921995 -0.02193084 0.0 0.0014199389000000002 -0.021253703 0.0 0.0017543287 -0.020380026000000002 0.0 0.0021389574 -0.019256528000000002 0.0 0.0025636365 -0.017837524 0.0 0.002984935 -0.016029729 0.0 0.0034083577 -0.013730053 0.0 0.0038109990000000002 -0.010803038999999999 0.0 0.0041040853 -0.033479162 0.0 0.0021478715 -0.032511551 0.0 0.0026543128999999997 -0.031261552000000005 0.0 0.0032434885 -0.029641811 0.0 0.0039217481 -0.027599899 0.0 0.0046013766 -0.02497031 0.0 0.0053535672 -0.021591878999999998 0.0 0.0061817262 -0.017192584 0.0 0.0069847098 -0.05034367 0.0 0.0031886778000000003 -0.048999957999999996 0.0 0.0039449073 -0.04725983 0.0 0.0048415135 -0.044990237999999995 0.0 0.0059353043 -0.042145152000000005 0.0 0.007094820999999999 -0.038454954 0.0 0.0085645393 -0.033744141 0.0 0.010435116999999999 -0.027679392999999997 0.0 0.012459643999999999 -0.07464622 0.0 0.0046429434 -0.0728404 0.0 0.0057550003 -0.07048098 0.0 0.0071320635999999995 -0.067393489 0.0 0.008965544399999999 -0.063543566 0.0 0.01113802 -0.058639906 0.0 0.013554407 -0.052379195 0.0 0.017242132 -0.044303805 0.0 0.021092727999999998 -0.10932168 0.0 0.006640144200000001 -0.10696931 0.0 0.0082524912 -0.1038683 0.0 0.010292336 -0.09980376099999999 0.0 0.013018762 -0.094784416 0.0 0.016391374 -0.088356622 0.0 0.02127656 -0.08019216400000001 0.0 0.028033127999999997 -0.069363169 0.0 0.034948967000000004 -0.15841138 0.0 0.009369294200000001 -0.15543531 0.0 0.011682645 -0.15147139 0.0 0.014668401999999999 -0.14624004 0.0 0.018725391 -0.13977961 0.0 0.02390225 -0.13152033 0.0 0.031497367000000005 -0.12095117 0.0 0.042117324000000005 -0.10655119 0.0 0.05298303099999999 -0.22734086 0.0 0.013069468999999998 -0.22366159 0.0 0.016338743 -0.21869668 0.0 0.020625528 -0.21204256 0.0 0.02657461 -0.20381127 0.0 0.034306001 -0.19317524 0.0 0.04586377 -0.17941591 0.0 0.062240593 -0.16016752 0.0 0.079281881 -0.32308224 0.0 0.018136775 -0.31863132 0.0 0.02270823 -0.3125625 0.0 0.028739253 -0.30430168 0.0 0.037338622 -0.29394016 0.0 0.048788581 -0.28031233 0.0 0.066216581 -0.26232171 0.0 0.09128490800000001 -0.23657636 0.0 0.1176623 -0.45405272 0.0 0.025208432000000003 -0.44886023 0.0 0.031459905 -0.44175091 0.0 0.039685901 -0.43194282 0.0 0.051506895999999996 -0.41935158 0.0 0.067498654 -0.40230978 0.0 0.09220835599999999 -0.37904227 0.0 0.12864842 -0.34476456 0.0 0.1680924 -0.62981921 0.0 0.035212744 -0.62410718 0.0 0.043656033 -0.61633831 0.0 0.054663785 -0.60550535 0.0 0.07054626900000001 -0.59122634 0.0 0.092597894 -0.57106918 0.0 0.12739903 -0.54210293 0.0 0.18033046 -0.49736133 0.0 0.23960134 -0.86117113 0.0 0.049548867999999996 -0.85546964 0.0 0.060840063 -0.84791088 0.0 0.07523807099999999 -0.83732945 0.0 0.09579860400000001 -0.82304174 0.0 0.12518676 -0.8014043 0.0 0.17266697 -0.76762676 0.0 0.24750297 -0.71140158 0.0 0.33454815 -1.1612098999999998 0.0 0.070304126 -1.1564534 0.0 0.085392386 -1.1505501 0.0 0.10402221 -1.1425629 0.0 0.1294772 -1.1314448000000001 0.0 0.16775143 -1.1120174999999999 0.0 0.23119096 -1.0764489 0.0 0.33727881 -1.0094018 0.0 0.46653312 -1.54755 0.0 0.10049564 -1.5451358999999998 0.0 0.12099045 -1.5429837 0.0 0.1449555 -1.5408341 0.0 0.17578919 -1.5377423000000001 0.0 0.2238939 -1.5271313 0.0 0.30547675 -1.496357 0.0 0.45066825 -1.4224944 0.0 0.6413852 -2.0446327 0.0 0.14430617 -2.0463438000000003 0.0 0.17304352 -2.0499623 0.0 0.20475677 -2.0573604 0.0 0.24209322 -2.0685358 0.0 0.30066296 -2.0770197 0.0 0.40076268 -2.0635033 0.0 0.59478486 -1.9936645 0.0 0.8701961 -2.6838646 0.0 0.20724288 -2.6914398999999998 0.0 0.24956293 -2.7021124 0.0 0.29512602 -2.7221956 0.0 0.34205583 -2.7543144 0.0 0.41045699 -2.7971692000000004 0.0 0.52776355 -2.822813 0.0 0.78009158 -2.7821972 0.0 1.1744968999999998 -3.5003252000000002 0.0 0.29251567 -3.5144290999999996 0.0 0.36037734 -3.5323424 0.0 0.43020731 -3.5657815999999998 0.0 0.49745101 -3.6246943 0.0 0.57753295 -3.7230244 0.0 0.71009594 -3.8258156999999997 0.0 1.0262332 -3.865885 0.0 1.5815742 -4.5214114 0.0 0.41083363 -4.5452294 0.0 0.5121029 -4.568538200000001 0.0 0.62560767 -4.6048403 0.0 0.74574447 -4.7001367 0.0 0.84390509 -4.8804526 0.0 0.99252176 -5.1230292 0.0 1.3770971 -5.341113099999999 0.0 2.1456437000000004 -5.7571945 0.0 0.56948781 -5.791842 0.0 0.71959835 -5.8277645 0.0 0.88544708 -5.873476 0.0 1.0692526000000002 -5.9871264 0.0 1.2524735 -6.269741099999999 0.0 1.4630268999999998 -6.742031599999999 0.0 1.9330653000000002 -7.3017492 0.0 2.9691155 -7.183681 0.0 0.76974285 -7.2418509 0.0 0.97627097 -7.3003105999999995 0.0 1.2092435 -7.379222400000001 0.0 1.4753252000000001 -7.5157413 0.0 1.7922611000000002 -7.861363900000001 0.0 2.2168584 -8.649332000000001 0.0 2.8715763 -9.7935019 0.0 4.275211799999999 -8.728546099999999 0.0 1.0041295 -8.815192199999998 0.0 1.2914478 -8.9227009 0.0 1.598231 -9.062723199999999 0.0 1.9802108 -9.2953548 0.0 2.4828889 -9.738391900000002 0.0 3.2503583 -10.757475999999999 0.0 4.5061483 -12.725042 0.0 6.3820891 -10.269827000000001 0.0 1.2790215 -10.420917 0.0 1.6103823 -10.597013 0.0 2.0468328000000002 -10.827200999999999 0.0 2.6096599 -11.196059 0.0 3.4569137000000003 -11.918766 0.0 4.8533497 -13.223582 0.0 7.1747622 -15.760416000000001 0.0 9.9574461 -11.708793 0.0 1.5299104 -11.923961 0.0 1.9796112000000001 -12.180836 0.0 2.5603808999999997 -12.553708 0.0 3.4732089 -13.125924 0.0 5.0507207 -13.923291 0.0 7.941104400000001 -15.427964000000001 0.0 11.927838000000001 -18.437979000000002 0.0 15.859104 -12.985985000000001 0.0 1.8599072 -13.261816 0.0 2.4351043999999997 -13.652967000000002 0.0 3.2801006 -14.164518 0.0 4.8704004 -14.772482 0.0 8.0199432 -15.479811999999999 0.0 13.356272 -16.870480999999998 0.0 19.866266 -20.140532999999998 0.0 25.045804999999998 -13.930434 0.0 2.2672956 -14.279105 0.0 3.0146184 -14.765556 0.0 4.3145542 -15.348573000000002 0.0 6.9321394 -15.947407 0.0 12.062469 -16.456964000000003 0.0 20.527932999999997 -17.557575 0.0 30.001812 -20.482294 0.0 36.250659999999996 -14.152363000000001 0.0 2.6567662 -14.503523000000001 0.0 3.5660233 -14.984601999999999 0.0 5.2811656 -15.5225 0.0 8.8955965 -15.938258 0.0 15.847268 -16.157797 0.0 26.980379 -16.897892000000002 0.0 39.024208 -18.959908 0.0 46.122971 -12.620139 0.0 2.9958465 -12.898726 0.0 4.0397153 -13.234963 0.0 6.0920057 -13.583473999999999 0.0 10.37616 -13.869235 0.0 18.516693 -14.034056 0.0 31.381058000000003 -14.385925 0.0 44.947159 -15.165557000000002 0.0 52.59320400000001 -8.9911795 0.0 3.2992644 -9.210802099999999 0.0 4.440277099999999 -9.47087 0.0 6.665435799999999 -9.7498655 0.0 11.276802 -10.016649000000001 0.0 19.999689 -10.234975 0.0 33.763115 -10.445771 0.0 48.213778999999995 -10.638776 0.0 56.36328100000001 -5.4956403 0.0 3.5250556000000004 -5.6509222999999995 0.0 4.7257527999999995 -5.8325849000000005 0.0 7.037482700000001 -6.0254693 0.0 11.799895 -6.207671599999999 0.0 20.786697 -6.3595085 0.0 34.968143 -6.4725418 0.0 49.907646 -6.5535097 0.0 58.448364 -2.7927895 0.0 3.6761513 -2.8869267000000005 0.0 4.9097648000000005 -2.9940243 0.0 7.2611046 -3.1047707 0.0 12.086849 -3.205579 0.0 21.182362 -3.2832407999999997 0.0 35.545398999999996 -3.3318229 0.0 50.739559 -3.3548741 0.0 59.527252000000004 -0.82375431 0.0 3.7588234 -0.86356926 0.0 5.006228 -0.90571535 0.0 7.369181200000001 -0.94570136 0.0 12.210383 -0.9781571 0.0 21.334646 -0.99759579 0.0 35.758453 -1.0013604 0.0 51.064789000000005 -0.99036604 0.0 59.991631000000005 0.70623481 0.0 3.7808230000000003 0.71410072 0.0 5.0277152 0.72747457 0.0 7.3843818 0.74666852 0.0 12.212686 0.77053851 0.0 21.319342000000002 0.79799211 0.0 35.73135 0.82820302 0.0 51.057724 0.86158806 0.0 60.035594999999994 2.1042466 0.0 3.7490977999999995 2.1547232000000003 0.0 4.983549099999999 2.2169499 0.0 7.3207803 2.2872833999999997 0.0 12.118505 2.3599197999999997 0.0 21.179745 2.4292297 0.0 35.534073 2.4915952999999997 0.0 50.8097 2.5466964 0.0 59.756306 3.5335717000000004 0.0 3.6691277 3.6230016000000003 0.0 4.8767953 3.7298769999999997 0.0 7.166777099999999 3.8470016000000005 0.0 11.873768 3.9650202000000005 0.0 20.771975 4.0755639 0.0 34.879974 4.1728592 0.0 49.907356 4.2540951 0.0 58.712920999999994 4.9896564 0.0 3.5453539 5.1148276 0.0 4.7116199 5.2631769 0.0 6.9248061000000005 5.4241972 0.0 11.477611 5.5856476 0.0 20.091015 5.7372298 0.0 33.756245 5.871449 0.0 48.33102 5.9828806 0.0 56.885868 6.3719835 0.0 3.3822663 6.5292997 0.0 4.4929776 6.7154474 0.0 6.6007261 6.917022200000001 0.0 10.93934 7.1190929 0.0 19.152332 7.309702400000001 0.0 32.193531 7.4798985 0.0 46.130634 7.622436500000001 0.0 54.337452 7.5587559 0.0 3.1852810000000003 7.7441454 0.0 4.2276305999999995 7.9638796 0.0 6.2044992 8.201108900000001 0.0 10.276005 8.4391155 0.0 17.989349 8.6642885 0.0 30.252287 8.8664351 0.0 43.394753 9.0371199 0.0 51.17157 8.3531599 0.0 2.9711738 8.5876951 0.0 3.9326856 8.8760004 0.0 5.7529106 9.1714296 0.0 9.513514500000001 9.4453506 0.0 16.65065 9.6984739 0.0 28.016515999999996 9.8937712 0.0 40.238846 10.119223 0.0 47.531754 8.555316 0.0 2.7687664 8.8593559 0.0 3.6443657999999997 9.2602882 0.0 5.2788792 9.6989069 0.0 8.6853266 10.076489 0.0 15.191678 10.356717 0.0 25.585258 10.555585 0.0 36.812969 10.815389999999999 0.0 43.58157 8.4581575 0.0 2.5486042 8.7827368 0.0 3.3469195 9.239728 0.0 4.7943382 9.778010400000001 0.0 7.828350500000001 10.291358 0.0 13.676951 10.670966 0.0 23.06728 10.955061 0.0 33.282677 11.226473 0.0 39.486755 8.2197285 0.0 2.3360441 8.5541735 0.0 3.0410452 9.0253677 0.0 4.3199195999999995 9.6234388 0.0 6.985177999999999 10.265614 0.0 12.188198 10.769667 0.0 20.588644 11.187578 0.0 29.77437 11.586896000000001 0.0 35.415531 7.9197993 0.0 2.1304244999999997 8.2355671 0.0 2.7598759999999998 8.7078648 0.0 3.8685915 9.370505300000001 0.0 6.2086287 10.164032 0.0 10.818753 10.820122 0.0 18.272329 11.476693 0.0 26.431697999999997 12.180174000000001 0.0 31.513759999999998 7.5642843 0.0 1.9465327000000001 7.886508500000001 0.0 2.5025449 8.340925200000001 0.0 3.49159 9.069729800000001 0.0 5.563993900000001 10.056623 0.0 9.6653118 10.962984 0.0 16.242214 12.005206 0.0 23.37921 13.123372 0.0 27.866451 7.173050900000001 0.0 1.7713419 7.4962406 0.0 2.295156 7.9650512 0.0 3.1971252 8.770852099999999 0.0 5.115708799999999 9.9701376 0.0 8.8090076 11.267805000000001 0.0 14.596716 12.837997 0.0 20.709591 14.528757999999998 0.0 24.562943 6.7471399000000005 0.0 1.6160305 7.0826058000000005 0.0 2.1277926 7.605920299999999 0.0 3.0063058999999996 8.515564900000001 0.0 4.879277200000001 9.937047 0.0 8.3043385 11.737396 0.0 13.395829999999998 13.911179999999998 0.0 18.485476000000002 16.289959 0.0 21.645666000000002 6.3309832 0.0 1.4881335 6.6794720000000005 0.0 2.0012932 7.2920179 0.0 2.9394155 8.3346319 0.0 4.8728657 9.9930201 0.0 8.1530085 12.262749000000001 0.0 12.626727 14.952547000000001 0.0 16.706968 17.906473000000002 0.0 19.101860000000002 5.9216666 0.0 1.3750438999999999 6.337835299999999 0.0 1.9456705 7.0595984 0.0 3.0292912 8.2630863 0.0 5.0894637000000005 10.149543 0.0 8.303067200000001 12.677903 0.0 12.161007000000001 15.533920000000002 0.0 15.285734 5.5780606 0.0 1.3125812 6.0831351 0.0 1.9993948000000001 6.942497299999999 0.0 3.2859056000000004 8.3440619 0.0 5.5193949 10.405252 0.0 8.628953 12.948199 0.0 11.812531 15.658959 0.0 14.037672 5.331297900000001 0.0 1.3492148000000002 5.9584947 0.0 2.2109362999999997 7.0146928 0.0 3.7574913999999997 8.6353025 0.0 6.1322703 10.74646 0.0 8.9774017 13.092941999999999 0.0 11.450204 5.2323937 0.0 1.5441346000000002 6.0610795 0.0 2.655838 7.386976700000001 0.0 4.4523177 9.167763699999998 0.0 6.8094134 11.196896 0.0 9.2025881 13.235868 0.0 10.986719 5.4382443 0.0 2.0112126 6.595237299999999 0.0 3.364089 8.129105599999999 0.0 5.2375684 9.879811300000002 0.0 7.394505499999999 11.637804 0.0 9.276803999999998 6.236609 0.0 2.7340117000000004 7.6816664 0.0 4.1462579 9.1886435 0.0 5.9215031 10.590878 0.0 7.791503 7.6174879 0.0 3.5106564 8.9454765 0.0 4.901794000000001 10.127571000000001 0.0 6.454658 11.143819 0.0 7.997305900000001 8.855981800000002 0.0 4.297278400000001 9.7281179 0.0 5.5896945 9.3915644 0.0 5.0187478 
StrainDot 3 2975 float
0.0 0.0 0.0 0.0 0.0 0.0 0.0 0.0 0.0 0.0 0.0 0.0 0.0 0.0 0.0 0.0 0.0 0.0 0.0 0.0 0.0 0.0 0.0 0.0 0.0 0.0 0.0 0.0 0.0 0.0 0.0 0.0 0.0 0.0 0.0 0.0 0.0 0.0 0.0 -1.5912358e-12 0.0 -3.147913e-13 0.0 0.0 0.0 -8.4520871e-12 0.0 -2.6086761000000003e-12 -6.2379893e-11 0.0 -1.4927889e-11 -1.6851435e-11 0.0 -6.5185275e-12 -1.2316989e-10 0.0 -4.5565367e-11 -4.2849829000000005e-10 0.0 -1.2010293e-10 -1.4961472e-10 0.0 -6.858842e-11 -5.9972788e-10 0.0 -2.5647877999999997e-10 -1.6306543e-09 0.0 -5.2125132e-10 -5.9251465e-10 0.0 -3.1479722e-10 -1.8915181e-09 0.0 -9.211458300000001e-10 -4.6057393e-09 0.0 -1.6577344e-09 -1.6370207e-09 0.0 -9.9925634e-10 -4.7142081e-09 0.0 -2.5932665e-09 -1.0879899e-08 0.0 -4.3785353e-09 -3.7233452e-09 0.0 -2.5810329e-09 -1.0231217999999999e-08 0.0 -6.2829915e-09 -2.3015728e-08 0.0 -1.0241864000000001e-08 -7.6007227e-09 0.0 -5.8702034e-09 -2.0469863999999997e-08 0.0 -1.3789104999999999e-08 -4.5493362e-08 0.0 -2.2028472999999996e-08 -1.4636688e-08 0.0 -1.2298214e-08 -3.9080408e-08 0.0 -2.8291105000000002e-08 -8.6303316e-08 0.0 -4.463506900000001e-08 -2.7325656000000005e-08 0.0 -2.4397025e-08 -7.2598091e-08 0.0 -5.5381772000000006e-08 -1.5960545000000002e-07 0.0 -8.6628603e-08 -5.0253255999999996e-08 0.0 -4.6600075e-08 -1.3276295e-07 0.0 -1.0478444e-07 -2.9031952000000003e-07 0.0 -1.6284189999999998e-07 -9.2495952e-08 0.0 -8.6562494e-08 -2.4255203e-07 0.0 -1.9321675e-07 -5.264074599999999e-07 0.0 -2.9883151e-07 -1.7386157e-07 0.0 -1.5779754e-07 -4.5123525e-07 0.0 -3.5021264e-07 -9.6862664e-07 0.0 -5.398334200000001e-07 -3.3872988e-07 0.0 -2.8638601e-07 -8.6616438e-07 0.0 -6.3129926e-07 -1.8304005e-06 0.0 -9.6952954e-07 -6.864521500000001e-07 0.0 -5.291966e-07 -1.7142103e-06 0.0 -1.1469306e-06 -3.5441328e-06 0.0 -1.7474573000000001e-06 -1.4231878999999997e-06 0.0 -1.0253004e-06 -3.4131224e-06 0.0 -2.1279698e-06 -6.8607828e-06 0.0 -3.1827853e-06 -2.8849365e-06 0.0 -2.139335e-06 -6.5038571e-06 0.0 -4.0688551e-06 -1.2682528e-05 0.0 -5.8679748e-06 -1.1414457999999999e-05 0.0 -7.981408999999999e-06 -2.1654612e-05 0.0 -1.0900318e-05 0.0 0.0 0.0 0.0 0.0 0.0 0.0 0.0 0.0 0.0 0.0 0.0 0.0 0.0 0.0 0.0 0.0 0.0 0.0 0.0 0.0 0.0 0.0 0.0 0.0 0.0 0.0 0.0 0.0 0.0 0.0 0.0 0.0 0.0 0.0 0.0 0.0 0.0 0.0 0.0 0.0 0.0 0.0 0.0 0.0 0.0 0.0 0.0 0.0 0.0 0.0 0.0 0.0 0.0 0.0 0.0 0.0 0.0 0.0 0.0 0.0 0.0 0.0 0.0 0.0 0.0 0.0 0.0 0.0 0.0 0.0 0.0 0.0 0.0 0.0 -3.3232750999999996e-13 0.0 -2.1337622000000003e-14 -2.2092542999999998e-12 0.0 -7.126734000000001e-14 -5.411314599999999e-12 0.0 -6.1679787e-14 -8.301736e-12 0.0 -2.3782644e-15 -1.0007887e-11 0.0 2.0278501e-14 -1.1242955e-11 0.0 2.1286932e-14 -1.2251063000000001e-11 0.0 2.0463205e-14 -1.4878428e-11 0.0 -2.0021912e-12 -5.2082439e-11 0.0 -4.3014472e-12 -1.16904e-10 0.0 -5.436544400000001e-12 -2.0057106e-10 0.0 -4.485190900000001e-12 -2.8654895e-10 0.0 -1.9073334e-12 -3.6011447e-10 0.0 8.5873377e-13 -4.1475565e-10 0.0 2.3531886000000004e-12 -4.5412463e-10 0.0 2.5109897000000002e-12 -2.0460834e-10 0.0 -3.2495267e-11 -4.669416e-10 0.0 -4.5161555e-11 -8.482086699999999e-10 0.0 -4.6202018e-11 -1.3053766e-09 0.0 -3.4547469e-11 -1.7704137e-09 0.0 -1.4603464000000003e-11 -2.1841704e-09 0.0 5.617601e-12 -2.5187474e-09 0.0 1.9145848e-11 -2.775999e-09 0.0 2.4441702e-11 -1.0449306e-09 0.0 -1.9183485e-10 -2.0476141e-09 0.0 -2.2692988999999999e-10 -3.4152658e-09 0.0 -2.1151703999999998e-10 -5.0057265e-09 0.0 -1.4849487e-10 -6.6078827e-09 0.0 -5.710489e-11 -8.0452063e-09 0.0 3.1525775e-11 -9.2348182e-09 0.0 9.1420788e-11 -1.0177455e-08 0.0 1.175815e-10 -3.5144891e-09 0.0 -7.2875966e-10 -6.4230745e-09 0.0 -7.9824936e-10 -1.027485e-08 0.0 -7.083033e-10 -1.4678273000000002e-08 0.0 -4.7723309e-10 -1.9082206e-08 0.0 -1.6697378e-10 -2.3036032000000006e-08 0.0 1.2661154e-10 -2.6332899e-08 0.0 3.2437614e-10 -2.8974801000000002e-08 0.0 4.1131401000000003e-10 -9.3476578e-09 0.0 -2.1660143e-09 -1.6483797e-08 0.0 -2.276388e-09 -2.5784138999999996e-08 0.0 -1.9622137e-09 -3.6308214999999996e-08 0.0 -1.284415e-09 -4.6764985e-08 0.0 -4.1243481e-10 -5.612689700000001e-08 0.0 3.9839843e-10 -6.3942409e-08 0.0 9.412906e-10 -7.022868700000002e-08 0.0 1.1782266e-09 -2.1419945e-08 0.0 -5.5147114e-09 -3.7077154e-08 0.0 -5.6620091e-09 -5.7298529e-08 0.0 -4.79239e-09 -8.0005485e-08 0.0 -3.0675262e-09 -1.0241268e-07 0.0 -9.096832699999999e-10 -1.2238128999999998e-07 0.0 1.0648533e-09 -1.3902117e-07 0.0 2.375506e-09 -1.5240530999999998e-07 0.0 2.9411955e-09 -4.4636241e-08 0.0 -1.2639457e-08 -7.6525538e-08 0.0 -1.2803402e-08 -1.1744109e-07 0.0 -1.0701405000000001e-08 -1.6306203e-07 0.0 -6.7196928e-09 -2.0776172e-07 0.0 -1.8485516e-09 -2.4739992000000003e-07 0.0 2.5371942e-09 -2.8032483e-07 0.0 5.4212106e-09 -3.0674735e-07 0.0 6.6509069e-09 -8.754781800000001e-08 0.0 -2.6870861e-08 -1.4929009e-07 0.0 -2.70028e-08 -2.2804875e-07 0.0 -2.2336145e-08 -1.6528873999999998e-07 0.0 -5.404333999999999e-08 -2.8077389e-07 0.0 -5.402581099999999e-08 -3.0453404e-07 0.0 -1.0430922e-07 -5.156416e-07 0.0 -1.038383e-07 -5.5142954e-07 0.0 -1.9519516e-07 -9.3028541e-07 0.0 -1.9363453e-07 -9.9232591e-07 0.0 -3.5689169e-07 -1.6620273e-06 0.0 -3.5280908000000004e-07 -1.8037188e-06 0.0 -6.4283239e-07 -2.9811151000000003e-06 0.0 -6.3297477e-07 -3.3476488e-06 0.0 -1.1514086e-06 -5.4202237e-06 0.0 -1.1286107e-06 -6.332932599999999e-06 0.0 -2.0700315e-06 -9.9803647e-06 0.0 -2.0206367e-06 -1.1968524e-05 0.0 -3.761759e-06 -1.8336004e-05 0.0 -3.6662466e-06 -2.1762316e-05 0.0 -6.9137509e-06 -3.2695996e-05 0.0 -6.7617457e-06 -3.6898108999999996e-05 0.0 -1.2740468e-05 -5.5152799e-05 0.0 -1.2552798e-05 0.0 0.0 0.0 0.0 0.0 0.0 0.0 0.0 0.0 0.0 0.0 0.0 0.0 0.0 0.0 0.0 0.0 0.0 0.0 0.0 0.0 0.0 0.0 0.0 0.0 0.0 0.0 0.0 0.0 0.0 0.0 0.0 0.0 0.0 0.0 0.0 0.0 0.0 0.0 0.0 0.0 0.0 0.0 0.0 0.0 0.0 0.0 0.0 0.0 0.0 0.0 0.0 0.0 0.0 0.0 0.0 0.0 0.0 0.0 0.0 0.0 0.0 0.0 0.0 0.0 0.0 0.0 0.0 0.0 0.0 0.0 0.0 0.0 0.0 0.0 0.0 0.0 0.0 0.0 0.0 0.0 -1.3054487e-11 0.0 1.8609399e-14 -1.3679341e-11 0.0 1.6136596e-14 -1.4153192999999999e-11 0.0 1.3406537e-14 -1.450354e-11 0.0 1.0737708000000001e-14 -1.4755926e-11 0.0 8.3461028e-15 -1.4932529e-11 0.0 6.3423862e-15 -1.5051477e-11 0.0 4.781426e-15 -1.5126704999999998e-11 0.0 3.67728e-15 -1.5167992000000002e-11 0.0 3.0224425000000002e-15 -4.849694e-10 0.0 2.3125436000000002e-12 -5.0916243e-10 0.0 2.02763e-12 -5.2769045e-10 0.0 1.7059686000000003e-12 -5.415365400000001e-10 0.0 1.384472e-12 -5.516196900000001e-10 0.0 1.0903494e-12 -5.5875127e-10 0.0 8.405430200000001e-13 -5.6360433e-10 0.0 6.4374043e-13 -5.667021900000001e-10 0.0 5.031676e-13 -5.684142e-10 0.0 4.1925396e-13 -2.971102e-09 0.0 2.369439e-11 -3.1225256e-09 0.0 2.0961851999999998e-11 -3.2391942e-09 0.0 1.77899e-11 -3.326978e-09 0.0 1.4573923999999998e-11 -3.3913801e-09 0.0 1.1594886e-11 -3.4372767e-09 0.0 9.0377133e-12 -3.4687422e-09 0.0 7.0057241e-12 -3.4889573e-09 0.0 5.5449425e-12 -3.500187e-09 0.0 4.6687636e-12 -1.0909632e-08 0.0 1.1891386e-10 -1.1474458000000001e-08 0.0 1.0700093e-10 -1.1909563999999999e-08 0.0 9.1416243e-11 -1.2238553000000001e-08 0.0 7.542660899999999e-11 -1.2481242999999999e-08 0.0 6.0488274e-11 -1.2655205e-08 0.0 4.7568699e-11 -1.2775155e-08 0.0 3.7237945e-11 -1.2852618e-08 0.0 2.9774735e-11 -1.2895826000000001e-08 0.0 2.5282979e-11 -3.1053517e-08 0.0 4.178009e-10 -3.2671959e-08 0.0 3.812568e-10 -3.3918223e-08 0.0 3.2765762000000003e-10 -3.4863529000000006e-08 0.0 2.7183463999999997e-10 -3.5563811e-08 0.0 2.1938006e-10 -3.6068101e-08 0.0 1.7378654e-10 -3.6417464999999994e-08 0.0 1.3716926000000002e-10 -3.664405999999999e-08 0.0 1.1062328000000001e-10 -3.6770867e-08 0.0 9.4606573e-11 -7.5201811e-08 0.0 1.1931399e-09 -7.9098129e-08 0.0 1.0920268e-09 -8.2109928e-08 0.0 9.4368102e-10 -8.439894800000001e-08 0.0 7.8626933e-10 -8.6100357e-08 0.0 6.3784455e-10 -8.7330413e-08 0.0 5.084418400000001e-10 -8.8186042e-08 0.0 4.0422141e-10 -8.874314300000002e-08 0.0 3.284889e-10 -8.9055831e-08 0.0 2.8271641e-10 -1.6300834e-07 0.0 2.9666258e-09 -1.7133866e-07 0.0 2.712883e-09 -1.7779917000000002e-07 0.0 2.3509354e-09 -1.8271989e-07 0.0 1.9654656e-09 -1.8638771e-07 0.0 1.601457e-09 -1.8904871e-07 0.0 1.2836608e-09 -1.9090670000000003e-07 0.0 1.02732e-09 -1.9212084e-07 0.0 8.4078761e-10 -1.9280428e-07 0.0 7.2793083e-10 -3.2765467e-07 0.0 6.6833192e-09 -3.4408578000000005e-07 0.0 6.1012728e-09 -3.5684942999999997e-07 0.0 5.2924585e-09 -3.6658840999999995e-07 0.0 4.4369646e-09 -3.7386494e-07 0.0 3.6293457e-09 -3.7916069999999996e-07 0.0 2.924285e-09 -3.8287216999999997e-07 0.0 2.355327e-09 -3.8530581e-07 0.0 1.9410606e-09 -3.866798e-07 0.0 1.6902891e-09 0.0 0.0 0.0 0.0 0.0 0.0 0.0 0.0 0.0 0.0 0.0 0.0 0.0 0.0 0.0 0.0 0.0 0.0 0.0 0.0 0.0 0.0 0.0 0.0 0.0 0.0 0.0 0.0 0.0 0.0 0.0 0.0 0.0 0.0 0.0 0.0 0.0 0.0 0.0 0.0 0.0 0.0 0.0 0.0 0.0 0.0 0.0 0.0 0.0 0.0 0.0 0.0 0.0 0.0 0.0 0.0 0.0 0.0 0.0 0.0 0.0 0.0 0.0 0.0 0.0 0.0 0.0 0.0 0.0 0.0 0.0 0.0 -1.518112e-11 0.0 2.8058379e-15 -1.5167997e-11 0.0 3.0224732e-15 -1.5126709e-11 0.0 3.677308e-15 -1.5051479e-11 0.0 4.781420900000001e-15 -1.4932526e-11 0.0 6.3423688e-15 -1.4755926e-11 0.0 8.3461036e-15 -1.4503539000000001e-11 0.0 1.0737723000000002e-14 -1.4153188000000001e-11 0.0 1.3406533000000002e-14 -5.6896066e-10 0.0 3.9139810000000004e-13 -5.6841432e-10 0.0 4.1925559e-13 -5.667021900000001e-10 0.0 5.0316939e-13 -5.636045e-10 0.0 6.4374092e-13 -5.5875121e-10 0.0 8.405427499999999e-13 -5.516196400000001e-10 0.0 1.0903493e-12 -5.415365400000001e-10 0.0 1.3844714e-12 -5.276905e-10 0.0 1.7059682e-12 -3.503781e-09 0.0 4.3771753e-12 -3.500187e-09 0.0 4.668774e-12 -3.4889573e-09 0.0 5.5449569000000005e-12 -3.4687415e-09 0.0 7.0057341e-12 -3.4372765e-09 0.0 9.0377159e-12 -3.3913801e-09 0.0 1.1594885000000001e-11 -3.3269778e-09 0.0 1.4573917999999998e-11 -3.2391938e-09 0.0 1.7789896e-11 -1.2909680000000002e-08 0.0 2.3785394e-11 -1.289582e-08 0.0 2.5283017000000002e-11 -1.2852615e-08 0.0 2.9774787e-11 -1.2775155e-08 0.0 3.7238008e-11 -1.2655203000000002e-08 0.0 4.756873e-11 -1.2481241e-08 0.0 6.0488295e-11 -1.2238549999999998e-08 0.0 7.5426582e-11 -1.1909563e-08 0.0 9.141622900000001e-11 -3.6811606e-08 0.0 8.925962099999999e-11 -3.6770864e-08 0.0 9.4606684e-11 -3.6644057e-08 0.0 1.1062347e-10 -3.6417468e-08 0.0 1.3716941e-10 -3.6068101e-08 0.0 1.7378668e-10 -3.5563808e-08 0.0 2.1938007000000002e-10 -3.4863536000000005e-08 0.0 2.7183467e-10 -3.3918212e-08 0.0 3.2765757e-10 -8.915647199999999e-08 0.0 2.6742203e-10 -8.905581e-08 0.0 2.8271666e-10 -8.8743136e-08 0.0 3.2848918e-10 -8.818602e-08 0.0 4.0422188e-10 -8.733041999999999e-08 0.0 5.0844234e-10 -8.6100357e-08 0.0 6.3784472e-10 -8.439894099999998e-08 0.0 7.8626955e-10 -8.2109928e-08 0.0 9.4368091e-10 -1.9302468999999998e-07 0.0 6.901995099999999e-10 -1.9280435e-07 0.0 7.2793144e-10 -1.9212084e-07 0.0 8.407883800000001e-10 -1.9090672000000002e-07 0.0 1.0273205e-09 -1.8904868e-07 0.0 1.2836616e-09 -1.8638767e-07 0.0 1.6014573e-09 -1.8271982000000002e-07 0.0 1.9654653e-09 -1.7779914999999998e-07 0.0 2.350935e-09 -3.8712344e-07 0.0 1.6064239e-09 -3.8667972e-07 0.0 1.6902902e-09 -3.8530581e-07 0.0 1.9410629e-09 -3.8287203000000004e-07 0.0 2.3553284e-09 -3.7916061e-07 0.0 2.9242853e-09 -3.7386494e-07 0.0 3.6293453e-09 -3.6658840999999995e-07 0.0 4.4369632e-09 -3.5684942999999997e-07 0.0 5.2924571e-09 0.0 0.0 0.0 0.0 0.0 0.0 0.0 0.0 0.0 0.0 0.0 0.0 0.0 0.0 0.0 0.0 0.0 0.0 0.0 0.0 0.0 0.0 0.0 0.0 0.0 0.0 0.0 0.0 0.0 0.0 0.0 0.0 0.0 0.0 0.0 0.0 0.0 0.0 0.0 0.0 0.0 0.0 0.0 0.0 0.0 0.0 0.0 0.0 0.0 0.0 0.0 0.0 0.0 0.0 0.0 0.0 0.0 0.0 0.0 0.0 0.0 0.0 0.0 0.0 0.0 0.0 0.0 0.0 0.0 0.0 0.0 0.0 0.0 0.0 0.0 0.0 0.0 0.0 0.0 0.0 0.0 -1.3679337e-11 0.0 1.6136574e-14 -1.3054489e-11 0.0 1.8609399e-14 -1.2251066000000001e-11 0.0 2.0463223e-14 -1.1242953999999999e-11 0.0 2.1286932e-14 -1.0007883e-11 0.0 2.0278492e-14 -8.3017369e-12 0.0 -2.3782889e-15 -5.4113142e-12 0.0 -6.1679801e-14 -2.2092542999999998e-12 0.0 -7.1267306e-14 -3.3232754e-13 0.0 -2.1337605e-14 -5.0916232e-10 0.0 2.0276289e-12 -4.8496945e-10 0.0 2.312544e-12 -4.5412463e-10 0.0 2.5109897000000002e-12 -4.1475558999999997e-10 0.0 2.3531882e-12 -3.6011444e-10 0.0 8.587326300000001e-13 -2.865489e-10 0.0 -1.9073337e-12 -2.0057103e-10 0.0 -4.4851917e-12 -1.1690403e-10 0.0 -5.4365427000000005e-12 -5.2082428999999996e-11 0.0 -4.3014455e-12 -3.1225256e-09 0.0 2.0961849e-11 -2.9711023e-09 0.0 2.3694392e-11 -2.7759988e-09 0.0 2.4441689999999998e-11 -2.5187465e-09 0.0 1.9145843e-11 -2.18417e-09 0.0 5.6175971e-12 -1.7704131e-09 0.0 -1.4603468e-11 -1.3053767e-09 0.0 -3.4547473e-11 -8.482086099999999e-10 0.0 -4.6202001e-11 -4.6694165e-10 0.0 -4.5161545e-11 -1.1474455999999999e-08 0.0 1.0700092e-10 -1.0909632e-08 0.0 1.1891384e-10 -1.0177450000000002e-08 0.0 1.1758143e-10 -9.2348174e-09 0.0 9.142078100000001e-11 -8.0452036e-09 0.0 3.1525751e-11 -6.6078827e-09 0.0 -5.7104911e-11 -5.0057261e-09 0.0 -1.4849488e-10 -3.4152661e-09 0.0 -2.1151703999999998e-10 -2.0476145e-09 0.0 -2.2692988e-10 -3.2671959e-08 0.0 3.8125667000000004e-10 -3.1053514e-08 0.0 4.1780088e-10 -2.8974799e-08 0.0 4.1131376e-10 -2.6332895e-08 0.0 3.2437594e-10 -2.3036026e-08 0.0 1.2661147e-10 -1.9082199e-08 0.0 -1.6697382e-10 -1.4678271000000001e-08 0.0 -4.7723309e-10 -1.0274849e-08 0.0 -7.0830308e-10 -6.4230741e-09 0.0 -7.9824919e-10 -7.9098115e-08 0.0 1.0920264e-09 -7.5201797e-08 0.0 1.1931394e-09 -7.0228694e-08 0.0 1.1782265e-09 -6.3942394e-08 0.0 9.412908199999999e-10 -5.6126883e-08 0.0 3.9839826e-10 -4.6764985e-08 0.0 -4.1243489e-10 -3.6308208e-08 0.0 -1.2844152e-09 -2.5784136e-08 0.0 -1.9622137e-09 -1.6483796000000002e-08 0.0 -2.2763877e-09 -1.7133864000000001e-07 0.0 2.7128835e-09 -1.6300830999999999e-07 0.0 2.9666247e-09 -1.5240529000000001e-07 0.0 2.9411964e-09 -1.3902117e-07 0.0 2.3755069e-09 -1.2238128e-07 0.0 1.0648535e-09 -1.0241268e-07 0.0 -9.0968344e-10 -8.0005456e-08 0.0 -3.0675269e-09 -5.7298517999999994e-08 0.0 -4.7923905e-09 -3.7077157e-08 0.0 -5.6620086e-09 -3.4408581e-07 0.0 6.1012737e-09 -3.2765473e-07 0.0 6.6833197e-09 -3.0674732000000004e-07 0.0 6.65091e-09 -2.8032477e-07 0.0 5.4212079e-09 -2.4739992000000003e-07 0.0 2.5371945e-09 -2.0776176e-07 0.0 -1.8485521e-09 -1.6306201000000002e-07 0.0 -6.7196946e-09 -1.1744113000000001e-07 0.0 -1.0701402e-08 -7.6525538e-08 0.0 -1.2803402e-08 -2.2804875e-07 0.0 -2.2336145e-08 -1.4929009e-07 0.0 -2.70028e-08 -2.8077391999999997e-07 0.0 -5.402581099999999e-08 -5.1564149e-07 0.0 -1.0383832e-07 -9.3028581e-07 0.0 -1.9363457999999999e-07 -1.6620273999999998e-06 0.0 -3.5280910999999994e-07 -2.9811154e-06 0.0 -6.329750600000001e-07 -5.420224599999999e-06 0.0 -1.1286112e-06 -9.9803665e-06 0.0 -2.0206378e-06 -1.8336008e-05 0.0 -3.6662479000000003e-06 -3.2696011e-05 0.0 -6.7617475e-06 -5.5152813999999996e-05 0.0 -1.2552797000000001e-05 0.0 0.0 0.0 0.0 0.0 0.0 0.0 0.0 0.0 0.0 0.0 0.0 0.0 0.0 0.0 0.0 0.0 0.0 0.0 0.0 0.0 0.0 0.0 0.0 0.0 0.0 0.0 0.0 0.0 0.0 0.0 0.0 0.0 0.0 0.0 0.0 0.0 0.0 0.0 0.0 0.0 0.0 0.0 0.0 0.0 -1.4878428e-11 0.0 -2.0021894e-12 -1.5912360000000001e-12 0.0 -3.14791e-13 0.0 0.0 0.0 0.0 0.0 0.0 -2.0460834e-10 0.0 -3.2495253000000004e-11 -6.2379914e-11 0.0 -1.4927877e-11 -8.452088e-12 0.0 -2.6086746e-12 0.0 0.0 0.0 -1.0449307e-09 0.0 -1.9183477e-10 -4.284984e-10 0.0 -1.2010288999999998e-10 -1.2316988e-10 0.0 -4.5565347e-11 -1.6851437e-11 0.0 -6.518524400000001e-12 -3.5144903e-09 0.0 -7.2875961e-10 -1.6306543e-09 0.0 -5.2125115e-10 -5.997278200000001e-10 0.0 -2.564787e-10 -1.4961478e-10 0.0 -6.8588399e-11 -9.3476595e-09 0.0 -2.1660138e-09 -4.6057402e-09 0.0 -1.6577344e-09 -1.8915176e-09 0.0 -9.2114533e-10 -5.9251476e-10 0.0 -3.1479712999999997e-10 -2.1419952e-08 0.0 -5.51471e-09 -1.0879901e-08 0.0 -4.3785358e-09 -4.7142086e-09 0.0 -2.5932665e-09 -1.6370215e-09 0.0 -9.9925612e-10 -4.4636252e-08 0.0 -1.2639457e-08 -2.301573e-08 0.0 -1.0241864999999998e-08 -1.0231219000000001e-08 0.0 -6.2829901e-09 -3.7233463e-09 0.0 -2.5810327e-09 -8.754783900000001e-08 0.0 -2.6870857999999997e-08 -4.5493375999999997e-08 0.0 -2.2028472999999996e-08 -2.0469862e-08 0.0 -1.37891e-08 -7.6007245e-09 0.0 -5.8702021e-09 -1.6528878e-07 0.0 -5.404333999999999e-08 -8.6303331e-08 0.0 -4.463506900000001e-08 -3.9080408e-08 0.0 -2.8291096000000002e-08 -1.4636693999999999e-08 0.0 -1.2298212e-08 -3.0453407000000003e-07 0.0 -1.0430922e-07 -1.5960545999999998e-07 0.0 -8.662862400000001e-08 -7.2598105e-08 0.0 -5.5381772000000006e-08 -2.7325667e-08 0.0 -2.439702e-08 -5.5142988e-07 0.0 -1.9519514e-07 -2.9031963e-07 0.0 -1.6284189000000002e-07 -1.3276295e-07 0.0 -1.0478442e-07 -5.0253274e-08 0.0 -4.660007099999999e-08 -9.9232602e-07 0.0 -3.5689172e-07 -5.2640763e-07 0.0 -2.9883148e-07 -2.4255209e-07 0.0 -1.9321670999999998e-07 -9.2495966e-08 0.0 -8.656248699999998e-08 -1.803719e-06 0.0 -6.4283245e-07 -9.6862686e-07 0.0 -5.398334200000001e-07 -4.5123537e-07 0.0 -3.5021264e-07 -1.7386159e-07 0.0 -1.577975e-07 -3.3476483e-06 0.0 -1.1514082e-06 -1.8304006999999999e-06 0.0 -9.6952965e-07 -8.6616456e-07 0.0 -6.3129932e-07 -3.3872993000000003e-07 0.0 -2.8638601e-07 -6.3329312000000005e-06 0.0 -2.0700313e-06 -3.5441331000000003e-06 0.0 -1.7474574999999998e-06 -1.7142103e-06 0.0 -1.1469307e-06 -6.864521500000001e-07 0.0 -5.2919654e-07 -1.1968526e-05 0.0 -3.7617599e-06 -6.860784200000001e-06 0.0 -3.1827851e-06 -3.4131226000000002e-06 0.0 -2.1279702000000005e-06 -1.4231878e-06 0.0 -1.0253003000000002e-06 -2.176232e-05 0.0 -6.9137523e-06 -1.2682529e-05 0.0 -5.867975199999999e-06 -6.503856599999999e-06 0.0 -4.0688551e-06 -2.8849367000000003e-06 0.0 -2.1393355e-06 -3.6898108999999996e-05 0.0 -1.2740472e-05 -2.1654609e-05 0.0 -1.0900318e-05 -1.1414457999999999e-05 0.0 -7.981408999999999e-06 0.0 0.0 0.0 0.0 0.0 0.0 0.0 0.0 0.0 0.0 0.0 0.0 0.0 0.0 0.0 0.0 0.0 0.0 0.0 0.0 0.0 0.0 0.0 0.0 0.0 0.0 0.0 0.0 0.0 0.0 0.0 0.0 0.0 0.0 0.0 0.0 0.0 0.0 0.0 0.0 0.0 0.0 0.0 0.0 0.0 0.0 0.0 0.0 0.0 0.0 0.0 0.0 0.0 0.0 0.0 0.0 0.0 0.0 0.0 0.0 0.0 0.0 0.0 0.0 0.0 0.0 0.0 0.0 0.0 0.0 0.0 0.0 0.0 0.0 0.0 0.0 0.0 0.0 0.0 0.0 0.0 0.0 0.0 0.0 0.0 0.0 0.0 0.0 0.0 0.0 0.0 0.0 0.0 0.0 0.0 0.0 0.0 0.0 0.0 0.0 0.0 0.0 0.0 0.0 0.0 0.0 0.0 0.0 0.0 0.0 0.0 0.0 0.0 0.0 0.0 0.0 0.0 0.0 0.0 0.0 0.0 0.0 0.0 0.0 0.0 0.0 0.0 0.0 0.0 0.0 0.0 0.0 0.0 0.0 0.0 0.0 0.0 0.0 0.0 0.0 0.0 0.0 0.0 0.0 0.0 0.0 0.0 0.0 0.0 0.0 0.0 0.0 0.0 0.0 0.0 0.0 0.0 0.0 0.0 0.0 0.0 0.0 0.0 0.0 0.0 0.0 0.0 0.0 0.0 0.0 0.0 0.0 0.0 0.0 0.0 0.0 0.0 0.0 0.0 0.0 0.0 0.0 0.0 0.0 0.0 0.0 0.0 0.0 0.0 0.0 0.0 0.0 0.0 0.0 0.0 0.0 0.0 0.0 0.0 0.0 0.0 0.0 0.0 0.0 0.0 0.0 0.0 0.0 0.0 0.0 0.0 0.0 0.0 0.0 0.0 0.0 0.0 0.0 0.0 0.0 0.0 0.0 0.0 0.0 0.0 0.0 0.0 0.0 0.0 0.0 0.0 0.0 0.0 0.0 0.0 0.0 0.0 0.0 0.0 0.0 0.0 0.0 0.0 0.0 0.0 0.0 0.0 0.0 0.0 0.0 0.0 0.0 0.0 0.0 0.0 0.0 0.0 0.0 0.0 0.0 0.0 0.0 0.0 0.0 0.0 0.0 0.0 0.0 0.0 0.0 0.0 0.0 0.0 0.0 0.0 0.0 0.0 0.0 0.0 0.0 0.0 0.0 0.0 0.0 0.0 0.0 0.0 0.0 0.0 0.0 0.0 0.0 0.0 0.0 0.0 0.0 0.0 0.0 0.0 0.0 0.0 0.0 0.0 0.0 0.0 0.0 0.0 0.0 0.0 0.0 0.0 0.0 0.0 0.0 0.0 0.0 0.0 0.0 0.0 0.0 0.0 0.0 0.0 0.0 0.0 0.0 0.0 0.0 0.0 0.0 0.0 0.0 0.0 0.0 0.0 0.0 0.0 0.0 0.0 0.0 0.0 0.0 0.0 0.0 0.0 0.0 0.0 0.0 0.0 0.0 0.0 0.0 0.0 0.0 0.0 0.0 0.0 0.0 0.0 0.0 0.0 0.0 0.0 0.0 0.0 0.0 0.0 0.0 0.0 0.0 0.0 0.0 0.0 0.0 0.0 0.0 0.0 0.0 0.0 0.0 0.0 0.0 0.0 0.0 0.0 0.0 0.0 0.0 0.0 0.0 0.0 0.0 0.0 0.0 0.0 0.0 0.0 0.0 0.0 0.0 0.0 0.0 0.0 0.0 0.0 0.0 0.0 0.0 0.0 0.0 0.0 0.0 0.0 0.0 0.0 0.0 0.0 0.0 0.0 0.0 0.0 0.0 0.0 0.0 0.0 0.0 0.0 0.0 0.0 0.0 0.0 0.0 0.0 0.0 0.0 0.0 0.0 0.0 0.0 0.0 0.0 0.0 0.0 0.0 0.0 0.0 0.0 0.0 0.0 0.0 0.0 0.0 0.0 0.0 0.0 0.0 0.0 0.0 0.0 0.0 0.0 0.0 0.0 0.0 0.0 0.0 0.0 0.0 0.0 0.0 0.0 0.0 0.0 0.0 0.0 0.0 0.0 0.0 0.0 0.0 0.0 0.0 0.0 0.0 0.0 0.0 0.0 0.0 0.0 0.0 0.0 0.0 0.0 0.0 0.0 0.0 0.0 0.0 0.0 0.0 0.0 0.0 0.0 0.0 0.0 0.0 0.0 0.0 0.0 0.0 0.0 0.0 0.0 0.0 0.0 0.0 0.0 0.0 0.0 0.0 0.0 0.0 0.0 0.0 0.0 0.0 0.0 0.0 0.0 0.0 0.0 0.0 0.0 0.0 0.0 0.0 0.0 0.0 0.0 0.0 0.0 0.0 0.0 0.0 0.0 0.0 0.0 0.0 0.0 0.0 0.0 0.0 0.0 0.0 0.0 0.0 0.0 0.0 0.0 0.0 0.0 0.0 0.0 0.0 0.0 0.0 0.0 0.0 0.0 0.0 0.0 0.0 0.0 0.0 0.0 0.0 0.0 0.0 0.0 0.0 0.0 0.0 0.0 0.0 0.0 0.0 0.0 0.0 0.0 0.0 0.0 0.0 0.0 0.0 0.0 0.0 0.0 0.0 0.0 0.0 0.0 0.0 0.0 0.0 0.0 0.0 0.0 0.0 0.0 0.0 0.0 0.0 0.0 0.0 0.0 0.0 0.0 0.0 0.0 0.0 0.0 0.0 0.0 0.0 0.0 0.0 0.0 0.0 0.0 0.0 0.0 0.0 0.0 0.0 0.0 0.0 0.0 0.0 0.0 0.0 0.0 0.0 0.0 0.0 0.0 0.0 0.0 0.0 0.0 0.0 0.0 0.0 0.0 0.0 0.0 0.0 0.0 0.0 0.0 0.0 0.0 0.0 0.0 0.0 0.0 0.0 0.0 0.0 0.0 0.0 0.0 0.0 0.0 0.0 0.0 0.0 0.0 0.0 0.0 0.0 0.0 0.0 0.0 0.0 0.0 0.0 0.0 0.0 0.0 0.0 0.0 0.0 0.0 0.0 0.0 0.0 0.0 0.0 0.0 0.0 0.0 0.0 0.0 0.0 0.0 0.0 0.0 0.0 0.0 0.0 0.0 0.0 0.0 0.0 0.0 0.0 0.0 0.0 0.0 0.0 0.0 0.0 0.0 0.0 0.0 0.0 0.0 0.0 0.0 0.0 0.0 0.0 0.0 0.0 0.0 0.0 0.0 0.0 0.0 0.0 0.0 0.0 0.0 0.0 0.0 0.0 0.0 0.0 0.0 0.0 0.0 0.0 0.0 0.0 0.0 0.0 0.0 0.0 0.0 0.0 0.0 0.0 0.0 0.0 0.0 0.0 0.0 0.0 0.0 0.0 0.0 0.0 0.0 0.0 0.0 0.0 0.0 0.0 0.0 0.0 0.0 0.0 0.0 0.0 0.0 0.0 0.0 0.0 0.0 0.0 0.0 0.0 0.0 0.0 0.0 0.0 0.0 0.0 0.0 0.0 0.0 0.0 0.0 0.0 0.0 0.0 0.0 0.0 0.0 0.0 0.0 0.0 0.0 0.0 0.0 0.0 0.0 0.0 0.0 0.0 0.0 0.0 0.0 0.0 0.0 0.0 0.0 0.0 0.0 0.0 0.0 0.0 0.0 0.0 0.0 0.0 0.0 0.0 0.0 0.0 0.0 0.0 0.0 0.0 0.0 0.0 0.0 0.0 0.0 0.0 0.0 0.0 0.0 0.0 0.0 0.0 0.0 0.0 0.0 0.0 0.0 0.0 0.0 0.0 0.0 0.0 0.0 0.0 0.0 0.0 0.0 0.0 0.0 0.0 0.0 0.0 0.0 0.0 0.0 0.0 0.0 0.0 0.0 0.0 0.0 0.0 0.0 0.0 0.0 0.0 0.0 0.0 0.0 0.0 0.0 0.0 0.0 0.0 0.0 0.0 0.0 0.0 0.0 0.0 0.0 0.0 0.0 0.0 0.0 0.0 0.0 0.0 0.0 0.0 0.0 0.0 0.0 0.0 0.0 0.0 0.0 0.0 0.0 0.0 0.0 0.0 0.0 0.0 0.0 0.0 0.0 0.0 0.0 0.0 0.0 0.0 0.0 0.0 0.0 0.0 0.0 0.0 0.0 0.0 0.0 0.0 0.0 0.0 0.0 0.0 0.0 0.0 0.0 0.0 0.0 0.0 0.0 0.0 0.0 0.0 0.0 0.0 0.0 0.0 0.0 0.0 0.0 0.0 0.0 0.0 0.0 0.0 0.0 0.0 0.0 0.0 0.0 0.0 0.0 0.0 0.0 0.0 0.0 0.0 0.0 0.0 0.0 0.0 0.0 0.0 0.0 0.0 0.0 0.0 0.0 0.0 0.0 0.0 0.0 0.0 0.0 0.0 0.0 0.0 0.0 0.0 0.0 0.0 0.0 0.0 0.0 0.0 0.0 0.0 0.0 0.0 0.0 0.0 0.0 0.0 0.0 0.0 0.0 0.0 0.0 0.0 0.0 0.0 0.0 0.0 0.0 0.0 0.0 0.0 0.0 0.0 0.0 0.0 0.0 0.0 0.0 0.0 0.0 0.0 0.0 0.0 0.0 0.0 0.0 0.0 0.0 0.0 0.0 0.0 0.0 0.0 0.0 0.0 0.0 0.0 0.0 0.0 0.0 0.0 0.0 0.0 0.0 0.0 0.0 0.0 0.0 0.0 0.0 0.0 0.0 0.0 0.0 0.0 0.0 0.0 0.0 0.0 0.0 0.0 0.0 0.0 0.0 0.0 0.0 0.0 0.0 0.0 0.0 0.0 0.0 0.0 0.0 0.0 0.0 0.0 0.0 0.0 0.0 0.0 0.0 0.0 0.0 0.0 0.0 0.0 0.0 0.0 0.0 0.0 0.0 0.0 0.0 0.0 0.0 0.0 0.0 0.0 0.0 0.0 0.0 0.0 0.0 0.0 0.0 0.0 0.0 0.0 0.0 0.0 0.0 0.0 0.0 0.0 0.0 0.0 0.0 0.0 0.0 0.0 0.0 0.0 0.0 0.0 0.0 0.0 0.0 0.0 0.0 0.0 0.0 0.0 0.0 0.0 0.0 0.0 0.0 0.0 0.0 0.0 0.0 0.0 0.0 0.0 0.0 0.0 0.0 0.0 0.0 0.0 0.0 0.0 0.0 0.0 0.0 0.0 0.0 0.0 0.0 0.0 0.0 0.0 0.0 0.0 0.0 0.0 0.0 0.0 0.0 0.0 0.0 0.0 0.0 0.0 0.0 0.0 0.0 0.0 0.0 0.0 0.0 0.0 0.0 0.0 0.0 0.0 0.0 0.0 0.0 0.0 0.0 0.0 0.0 0.0 0.0 0.0 0.0 0.0 0.0 0.0 0.0 0.0 0.0 0.0 0.0 0.0 0.0 0.0 0.0 0.0 0.0 0.0 0.0 0.0 0.0 0.0 0.0 0.0 0.0 0.0 0.0 0.0 0.0 0.0 0.0 0.0 0.0 0.0 0.0 0.0 0.0 0.0 0.0 0.0 0.0 0.0 0.0 0.0 0.0 0.0 0.0 0.0 0.0 0.0 0.0 0.0 0.0 0.0 0.0 0.0 0.0 0.0 0.0 0.0 0.0 0.0 0.0 0.0 0.0 0.0 0.0 0.0 0.0 0.0 0.0 0.0 0.0 0.0 0.0 0.0 0.0 0.0 0.0 0.0 0.0 0.0 0.0 0.0 0.0 0.0 0.0 0.0 0.0 0.0 0.0 0.0 0.0 0.0 0.0 0.0 0.0 0.0 0.0 0.0 0.0 0.0 0.0 0.0 0.0 0.0 0.0 0.0 0.0 0.0 0.0 0.0 0.0 0.0 0.0 0.0 0.0 0.0 0.0 0.0 0.0 0.0 0.0 0.0 0.0 0.0 0.0 0.0 0.0 0.0 0.0 0.0 0.0 0.0 0.0 0.0 0.0 0.0 0.0 0.0 0.0 0.0 0.0 0.0 0.0 0.0 0.0 0.0 0.0 0.0 0.0 0.0 0.0 0.0 0.0 0.0 0.0 0.0 0.0 0.0 0.0 0.0 0.0 0.0 0.0 0.0 0.0 0.0 0.0 0.0 0.0 0.0 0.0 0.0 0.0 0.0 0.0 0.0 0.0 0.0 0.0 0.0 0.0 0.0 0.0 0.0 0.0 0.0 0.0 0.0 0.0 0.0 0.0 0.0 0.0 0.0 0.0 0.0 -3.1513565000000005e-07 0.0 -1.3718233999999998e-08 -3.9998605e-07 0.0 -3.5465775e-09 -4.7490741e-07 0.0 5.5435141e-09 -5.368758000000001e-07 0.0 1.1478608e-08 -5.8640461e-07 0.0 1.3981769e-08 -4.2742639000000004e-07 0.0 -4.3475257e-08 -5.8872951e-07 0.0 -2.6809654999999996e-08 -7.4509569e-07 0.0 -6.5876997e-09 -8.8243394e-07 0.0 1.1345160000000001e-08 -9.9538477e-07 0.0 2.2995302000000005e-08 -1.0851636e-06 0.0 2.7863511e-08 -7.827507599999999e-07 0.0 -8.293869799999999e-08 -1.0754003e-06 0.0 -5.0732453e-08 -1.3575676000000001e-06 0.0 -1.1986901000000002e-08 -1.6038118e-06 0.0 2.2177986e-08 -1.8049393999999998e-06 0.0 4.4275851e-08 -1.9637446e-06 0.0 5.3429836999999994e-08 -1.4079348999999999e-06 0.0 -1.5370739999999998e-07 -1.928775e-06 0.0 -9.346456399999999e-08 -2.4280217999999998e-06 0.0 -2.1317387000000002e-08 -2.8606298e-06 0.0 4.2001567e-08 -3.2112113999999997e-06 0.0 8.2774967e-08 -3.4858992e-06 0.0 9.9511794e-08 -2.5004522000000003e-06 0.0 -2.7806884999999996e-07 -3.4066138000000002e-06 0.0 -1.679241e-07 -4.2692577e-06 0.0 -3.6636241000000005e-08 -5.0122376e-06 0.0 7.792847599999999e-08 -5.6104259e-06 0.0 1.5125981e-07 -6.0752213e-06 0.0 1.8101395e-07 -4.4376952e-06 0.0 -4.928379e-07 -5.9695521e-06 0.0 -2.9407204e-07 -7.410007099999999e-06 0.0 -5.9153827e-08 -8.642158699999998e-06 0.0 1.4380592e-07 -9.6322192e-06 0.0 2.7216523999999997e-07 -1.0400076e-05 0.0 3.231066e-07 -7.955111000000001e-06 0.0 -8.581959e-07 -1.0462871e-05 0.0 -5.0064551e-07 -1.2762100000000001e-05 0.0 -8.4350319e-08 -1.4709439e-05 0.0 2.6904597999999997e-07 -1.6276366e-05 0.0 4.871351400000001e-07 -1.7500983e-05 0.0 5.6938927e-07 -1.4429781e-05 0.0 -1.4709526e-06 -1.8377263e-05 0.0 -8.240223799999999e-07 -2.1853761e-05 0.0 -8.837142199999999e-08 -2.4759638e-05 0.0 5.1808786e-07 -2.7113121e-05 0.0 8.7623391e-07 -2.8983238999999997e-05 0.0 9.9750889e-07 -2.6207872000000004e-05 0.0 -2.4798064e-06 -3.2124855e-05 0.0 -1.2963788999999999e-06 -3.7072296e-05 0.0 4.3430646e-09 -4.1166032999999995e-05 0.0 1.0293902e-06 -4.4535649e-05 0.0 1.5930038000000003e-06 -4.7280642e-05 0.0 1.7459776999999999e-06 -4.6616289e-05 0.0 -4.0815412e-06 -5.5105844e-05 0.0 -1.9008689e-06 -6.1813e-05 0.0 3.9054668999999997e-07 -6.7367866e-05 0.0 2.0831981e-06 -7.206406e-05 0.0 2.9171429e-06 -7.5998738e-05 0.0 3.0520564e-06 -7.9209123e-05 0.0 -6.4222622000000004e-06 -9.1413393e-05 0.0 -2.4529911e-06 -0.00010056177 0.0 1.5128653e-06 -0.00010817881000000001 0.0 4.2042352e-06 -0.00011476596000000002 0.0 5.325663099999999e-06 -0.00012038298999999999 0.0 5.297920299999999e-06 -0.0001276385 0.0 -8.905026300000001e-06 -0.00014613505 0.0 -2.2211784e-06 -0.00015949317 0.0 4.2680467e-06 -0.00017048897 0.0 8.280972000000001e-06 -0.0001799602 0.0 9.5642636e-06 -0.00018799816999999998 0.0 9.058016099999999e-06 -0.00020041529 0.0 -9.425916699999999e-06 -0.00022826112 0.0 6.032996700000001e-07 -0.00024843664 0.0 1.0222616e-05 -0.00026470624 0.0 1.5651145e-05 -0.00027835157000000003 0.0 1.6694989000000002e-05 -0.0002897048 0.0 1.5138683000000001e-05 -0.00031550805 0.0 -5.7470652e-06 -0.00035464726 0.0 8.5030442e-06 -0.0003836049299999999 0.0 2.1522501000000002e-05 -0.00040663881000000003 0.0 2.8084490999999997e-05 -0.00042548025000000003 0.0 2.8123155000000002e-05 -0.00044093322 0.0 2.4627361e-05 -0.00050224108 0.0 7.5014705e-06 -0.00055177341 0.0 2.5857883999999998e-05 -0.00058918499 0.0 4.1261235e-05 -0.00061894319 0.0 4.7881559999999996e-05 -0.00064319238 0.0 4.5690649e-05 -0.0006632240799999999 0.0 3.897975e-05 -0.00079979887 0.0 2.6777303e-05 -0.00085440505 0.0 5.1794650000000004e-05 -0.0008971223699999999 0.0 7.0878858e-05 -0.00093198847 0.0 7.7450612e-05 -0.0009612293800000001 0.0 7.180278e-05 -0.00098617293 0.0 6.0217302e-05 -0.0012502675 0.0 6.3882217e-05 -0.0013028533 0.0 9.4202893e-05 -0.0013471351999999998 0.0 0.00011548398 -0.0013856132999999998 0.0 0.0001209734 -0.0014196732999999999 0.0 0.00010999502000000001 -0.0014500309 0.0 9.1203889e-05 -0.0018980355 0.0 0.00011531653 -0.0019461917000000001 0.0 0.00015328705 -0.0019914194 0.0 0.00017926662 -0.002033547 0.0 0.00018385141 -0.0020726861 0.0 0.00016525682 -0.0021087504 0.0 0.0001359938 -0.0028086237 0.0 0.00019632113 -0.0028566727 0.0 0.00024054751 -0.0029041592 0.0 0.00027137069 -0.0029494294 0.0 0.00027429042 -0.0029922661 0.0 0.00024467157 -0.0030326867 0.0 0.00020039473000000002 -0.0040957984000000005 0.0 0.00032963839 -0.0041427719 0.0 0.00037181464999999994 -0.0041877679 0.0 0.00040414176 -0.0042298869 0.0 0.00040390593 -0.0042706621 0.0 0.00035856544999999997 -0.0043116044 0.0 0.00029315727 -0.0059120702 0.0 0.00052901701 -0.0059438087 0.0 0.00055371871 -0.005971441 0.0 0.0005908990900000001 -0.0059965262 0.0 0.00058970228 -0.006024065 0.0 0.00052328379 -0.0060581504 0.0 0.00042828850999999994 -0.008439268 0.0 0.0008103546000000001 -0.0084298719 0.0 0.00081003556 -0.0084143057 0.0 0.0008588613699999999 -0.0083989399 0.0 0.000862038 -0.008394600799999999 0.0 0.0007669059599999999 -0.0084092747 0.0 0.0006293371 -0.011888003999999999 0.0 0.0011834846 -0.011796858 0.0 0.0011555054 -0.011698493 0.0 0.0012506281 -0.011607343000000001 0.0 0.0012755767 -0.01154297 0.0 0.0011398477 -0.011518603999999998 0.0 0.0009367269199999999 -0.016461761999999998 0.0 0.0017110629999999999 -0.016232638 0.0 0.0016475512 -0.015997211 0.0 0.0018608606 -0.015782168 0.0 0.0019360889000000002 -0.015618534 0.0 0.0017339185999999999 -0.015525946 0.0 0.0014199973000000002 -0.022270428 0.0 0.0023902473 -0.021836134 0.0 0.0023828889 -0.021399473999999998 0.0 0.0028695655 -0.021003736000000002 0.0 0.0030417178999999996 -0.020692457 0.0 0.0027154328 -0.020491429 0.0 0.0021986112 -0.029183358 0.0 0.0032875114 -0.028482068 0.0 0.0035697019 -0.027785709 0.0 0.0046257647 -0.027157222999999998 0.0 0.0049558822 -0.026649846 0.0 0.0043815742 -0.026292829 0.0 0.0034788169 -0.036655959 0.0 0.0046949801 -0.035661884 0.0 0.0056981468000000006 -0.034681287000000005 0.0 0.007770659399999999 -0.033796299 0.0 0.0082970094 -0.033062182 0.0 0.007223734599999999 -0.032507554 0.0 0.00560892 -0.043592781 0.0 0.0070848665 -0.042353611 0.0 0.0096810348 -0.041133307 0.0 0.013334315 -0.040025566 0.0 0.013928303000000001 -0.039077982000000004 0.0 0.01197442 -0.038314525 0.0 0.009129731 -0.048326369 0.0 0.011986048000000001 -0.046989842999999996 0.0 0.017058797 -0.045668133 0.0 0.022337173999999998 -0.04445368400000001 0.0 0.022905147 -0.043377507 0.0 0.019589351 -0.042454335999999995 0.0 0.014764919 -0.048821155 0.0 0.02242206 -0.047626749 0.0 0.030364647999999998 -0.046432447 0.0 0.036274035 -0.045312092000000005 0.0 0.036404021 -0.044273235 0.0 0.031047262000000003 -0.043316279000000006 0.0 0.023285518999999998 -0.043192532 0.0 0.044919337999999996 -0.042410452 0.0 0.053295836 -0.041616295 0.0 0.056983720999999994 -0.040842045 0.0 0.055454664 -0.040059857000000004 0.0 0.047077652000000005 -0.039253298 0.0 0.035252683 -0.030479947 0.0 0.08961124699999999 -0.030322015 0.0 0.09388274 -0.030148512000000002 0.0 0.08825314 -0.029931428 0.0 0.080830783 -0.029604631 0.0 0.067778774 -0.029135638999999998 0.0 0.050700235999999996 -0.011347274 0.0 0.16689248 -0.011878171000000002 0.0 0.15930773 -0.012385901999999999 0.0 0.13231976 -0.012787581000000001 0.0 0.11270177 -0.012999803999999998 0.0 0.092422925 -0.012982998 0.0 0.068912536 0.011669235 0.0 0.26361194 0.010581911999999999 0.0 0.24028875 0.0095298821 0.0 0.18395716 0.0086309873 0.0 0.14783379 0.0079573756 0.0 0.11895865 0.0075389012 0.0 0.088397592 0.034547005 0.0 0.34448409 0.033184394 0.0 0.31043842 0.03186477 0.0 0.2308113 0.030718928 0.0 0.18108195 0.029786583 0.0 0.14439087 0.029074957999999998 0.0 0.10716183 0.05291535 0.0 0.39150903 0.05158899 0.0 0.35605401 0.05030011400000001 0.0 0.26570046 0.04916599 0.0 0.20845515 0.048196815 0.0 0.16625704 0.047379106 0.0 0.12346856 0.06373556 0.0 0.41396111 0.062657453 0.0 0.38143766 0.061599489 0.0 0.28874603 0.060639865999999994 0.0 0.22879219 0.059776191 0.0 0.18322317 0.058989300999999994 0.0 0.13624533 0.066496052 0.0 0.42338318 0.06573024400000001 0.0 0.39471981 0.064967044 0.0 0.30309418 0.064233549 0.0 0.24266519 0.06352192200000001 0.0 0.19511154 0.062822193 0.0 0.14522493 0.063070528 0.0 0.4266375 0.062583268 0.0 0.40120006 0.062079344 0.0 0.31129014 0.061544582 0.0 0.25109872 0.060969293 0.0 0.20244104 0.060359679000000006 0.0 0.15074778 0.056492519000000005 0.0 0.42726922 0.056206077 0.0 0.40370211 0.055879015 0.0 0.31504756 0.055478748 0.0 0.25518113 0.054999169 0.0 0.20601712 0.054461282 0.0 0.15342253 0.049500324000000005 0.0 0.42642468 0.049328733 0.0 0.40342855 0.049094517000000004 0.0 0.31539789 0.048767034 0.0 0.25579694 0.048346404 0.0 0.20658393 0.047861572000000005 0.0 0.15382636 0.043603618 0.0 0.42531261 0.043476738 0.0 0.40146658 0.043274682 0.0 0.31311625 0.042978365 0.0 0.25355428 0.042592008 0.0 0.20464358 0.042144336 0.0 0.15233977 0.0389552 0.0 0.41814259 0.038826585 0.0 0.39418674 0.038619667 0.0 0.30701423 0.038326152 0.0 0.24838023 0.037951197 0.0 0.20038344 0.03751877 0.0 0.14913803 0.034870759 0.0 0.40479979 0.034708223999999996 0.0 0.38155752 0.034465861 0.0 0.29715514 0.034141619 0.0 0.24039133 0.033740877999999995 0.0 0.19391406 0.033285096 0.0 0.14430106 0.030570675 0.0 0.38576111 0.030338176 0.0 0.36395055 0.030016787000000003 0.0 0.28377905 0.029607282999999998 0.0 0.22975834 0.029119482000000002 0.0 0.18536645 0.028581372 0.0 0.13792078 0.025725367000000002 0.0 0.36187837 0.025365632000000003 0.0 0.34204563 0.024895614 0.0 0.26731986 0.024319462000000003 0.0 0.21678254 0.023660712 0.0 0.1749718 0.022967219 0.0 0.13016696 0.020621145 0.0 0.33431068 0.020044532 0.0 0.31677258 0.019323593 0.0 0.24840364 0.018473322 0.0 0.20191595 0.017544296 0.0 0.16308442 0.016619056 0.0 0.12130953 0.015984837 0.0 0.30427992 0.01507006 0.0 0.28921252 0.013967608999999999 0.0 0.22775228 0.012717575 0.0 0.18571483 0.01141426 0.0 0.15016459 0.010187394 0.0 0.11170881 0.012561438999999999 0.0 0.27298534 0.011185233000000001 0.0 0.26059437 0.009578432900000001 0.0 0.20621911 0.0078185163 0.0 0.16881751 0.006050649599999999 0.0 0.13673893 0.0044574616 0.0 0.10178263 0.010667912 0.0 0.24147883 0.0087562175 0.0 0.2320015 0.0065802336 0.0 0.18476897 0.0042635794 0.0 0.15194246 0.0019958338 0.0 0.12336953 -9.949943100000001e-08 0.0 0.091968723 0.01008909 0.0 0.21061344 0.0076107993 0.0 0.20446815 0.0048793769 0.0 0.16431721 0.0020572578 0.0 0.13576965 -0.00065131002 0.0 0.11058106 -0.0030144288000000003 0.0 0.08267672400000001 0.010343296 0.0 0.18069735 0.0072067413 0.0 0.17883691 0.0039701629 0.0 0.14562431 0.00079569494 0.0 0.12084102 -0.0021787421 0.0 0.098777495 -0.0047649089 0.0 0.07422848 0.011243617 0.0 0.15215792 0.0070394767 0.0 0.15556324 0.0032591601 0.0 0.12920405 -6.8882975e-05 0.0 0.10748815 -0.00302783 0.0 0.088184394 -0.005583068399999999 0.0 0.066792428 0.013379914 0.0 0.12536141 0.0070552034 0.0 0.1347919 0.0024330204000000003 0.0 0.11530056 -0.0009431759199999999 0.0 0.095881261 -0.0035712015999999997 0.0 0.07883983900000001 -0.005775338499999999 0.0 0.060384683 0.01732688 0.0 0.10072971 0.0076176454 0.0 0.11624858 0.0016543494 0.0 0.10376231 -0.0018496064 0.0 0.086081848 -0.0039396989 0.0 0.070703864 -0.0055029802 0.0 0.05489796 0.008645139599999999 0.0 0.098898351 0.0013826947 0.0 0.093766868 -0.0024104004 0.0 0.07811033 -0.0040052887 0.0 0.06374896299999999 -0.0047865184 0.0 0.05018490900000001 0.01019241 0.0 0.08159402 0.0021704144 0.0 0.08398217 -0.0020369245 0.0 0.071770862 -0.0034798590999999997 0.0 0.058077488 -0.0036104789 0.0 0.046129838 0.0044218116 0.0 0.073554181 -9.413361800000001e-05 0.0 0.066344827 -0.0019287660000000002 0.0 0.05386015 -0.0019149189000000001 0.0 0.042802818 0.0085705323 0.0 0.062505998 0.0038279882 0.0 0.060733728 0.0012302556 0.0 0.050888851 0.00059162144 0.0 0.040417865 0.0093429377 0.0 0.054756567 0.0063446085 0.0 0.048410628 0.0046399352000000005 0.0 0.03893673 0.012715053999999998 0.0 0.04574753 0.010926203 0.0 0.037795275 0.0189484 0.0 0.043394089000000004 0.017821871 0.0 0.036673877 -6.2547525e-07 0.0 1.4005448999999998e-08 -6.561381300000001e-07 0.0 1.2764058e-08 -6.799596700000001e-07 0.0 1.1075012e-08 -6.9815388e-07 0.0 9.3052988e-09 -7.117708399999999e-07 0.0 7.6384312e-09 -7.217071199999999e-07 0.0 6.1852568e-09 -7.286932900000001e-07 0.0 5.013447e-09 -7.3328982e-07 0.0 4.1604271e-09 -7.3589206e-07 0.0 3.6440426e-09 -1.1556739e-06 0.0 2.7839348999999997e-08 -1.2108663e-06 0.0 2.5333485000000002e-08 -1.2537016e-06 0.0 2.198137e-08 -1.286417e-06 0.0 1.8500534e-08 -1.3109221000000001e-06 0.0 1.5233288e-08 -1.3288328999999998e-06 0.0 1.2392153999999999e-08 -1.3414566e-06 0.0 1.0105726000000002e-08 -1.3497845e-06 0.0 8.4436262e-09 -1.35451e-06 0.0 7.4382283e-09 -2.0877953e-06 0.0 5.3264895000000004e-08 -2.184559e-06 0.0 4.8401727e-08 -2.2595227000000003e-06 0.0 4.1989189000000004e-08 -2.3167286e-06 0.0 3.5382675999999996e-08 -2.3595755e-06 0.0 2.9205883999999996e-08 -2.3909186e-06 0.0 2.3852435e-08 -2.4130347000000005e-06 0.0 1.9557563000000002e-08 -2.4276512e-06 0.0 1.644386e-08 -2.4359567e-06 0.0 1.4564052e-08 -3.6991199999999996e-06 0.0 9.8987321e-08 -3.8647463e-06 0.0 8.981567800000002e-08 -3.9927472e-06 0.0 7.788070599999999e-08 -4.0902904999999995e-06 0.0 6.567145e-08 -4.1633002e-06 0.0 5.430314e-08 -4.2167053e-06 0.0 4.448681400000001e-08 -4.2544148e-06 0.0 3.6641165e-08 -4.279354e-06 0.0 3.0973801e-08 -4.2935367e-06 0.0 2.7562412999999998e-08 -6.4333713e-06 0.0 1.7959019e-07 -6.710206400000001e-06 0.0 1.6265635999999998e-07 -6.9235316e-06 0.0 1.4092187e-07 -7.085792700000001e-06 0.0 1.1884489e-07 -7.2071189e-06 0.0 9.837828e-08 -7.2958173e-06 0.0 8.077499599999999e-08 -7.3584515e-06 0.0 6.6762695e-08 -7.3998881e-06 0.0 5.66815e-08 -7.4234636e-06 0.0 5.0633815e-08 -1.0988133000000001e-05 0.0 3.1919518e-07 -1.1440127999999999e-05 0.0 2.8830004e-07 -1.1787270000000001e-05 0.0 2.4938893e-07 -1.2050764999999999e-05 0.0 2.1021575999999998e-07 -1.224753e-05 0.0 1.7409057e-07 -1.2391289e-05 0.0 1.4315214000000002e-07 -1.2492784999999999e-05 0.0 1.1862663000000002e-07 -1.2559935e-05 0.0 1.0105186999999999e-07 -1.2598144e-05 0.0 9.0543367e-08 -1.8442764e-05 0.0 5.578503399999999e-07 -1.9164021e-05 0.0 5.013275800000001e-07 -1.971607e-05 0.0 4.3240169e-07 -2.0134245e-05 0.0 3.6398685999999996e-07 -2.0446126999999998e-05 0.0 3.0137865999999997e-07 -2.0673899000000003e-05 0.0 2.4804051999999997e-07 -2.0834703e-05 0.0 2.0593986999999998e-07 -2.0941134e-05 0.0 1.7588207999999999e-07 -2.1001717e-05 0.0 1.5796095e-07 -3.0444162000000002e-05 0.0 9.627762e-07 -3.1568827e-05 0.0 8.575175300000001e-07 -3.2427521e-05 0.0 7.357821800000001e-07 -3.30769e-05 0.0 6.1774938e-07 -3.3560962e-05 0.0 5.1103814e-07 -3.3914486000000004e-05 0.0 4.2078767e-07 -3.4164263e-05 0.0 3.4990012e-07 -3.4329713999999996e-05 0.0 2.9946392e-07 -3.4423985e-05 0.0 2.6946286999999996e-07 -4.9474260000000006e-05 0.0 1.6471931e-06 -5.1184619e-05 0.0 1.4464968e-06 -5.2491934000000004e-05 0.0 1.2308425e-06 -5.3479795e-05 0.0 1.0289707e-06 -5.42163e-05 0.0 8.4985112e-07 -5.4754808e-05 0.0 6.999019300000001e-07 -5.5135926e-05 0.0 5.8283086e-07 -5.5388819999999995e-05 0.0 4.9982435e-07 -5.5533077e-05 0.0 4.5054352e-07 -7.9212572e-05 0.0 2.7965592999999994e-06 -8.1751758e-05 0.0 2.4096603e-06 -8.370000400000001e-05 0.0 2.0269222e-06 -8.5172622e-05 0.0 1.6841726e-06 -8.6271961e-05 0.0 1.3877808999999998e-06 -8.707763499999999e-05 0.0 1.1431006000000002e-06 -8.7649321e-05 0.0 9.534643900000001e-07 -8.8029738e-05 0.0 8.1950856e-07 -8.8247223e-05 0.0 7.4010825e-07 -0.00012502252 0.0 4.700109e-06 -0.00012871395 0.0 3.9624897e-06 -0.00013155462999999998 0.0 3.2876137e-06 -0.00013370473999999998 0.0 2.711344e-06 -0.00013531381 0.0 2.228006e-06 -0.00013649683000000002 0.0 1.8358349999999998e-06 -0.00013733952 0.0 1.5345327000000001e-06 -0.00013790226 0.0 1.3225224e-06 -0.00013822492 0.0 1.197034e-06 -0.00019461478 0.0 7.7846225e-06 -0.00019987412 0.0 6.420365900000001e-06 -0.00020392361 0.0 5.250822099999999e-06 -0.00020699452 0.0 4.2962392e-06 -0.00020930012 0.0 3.5207449e-06 -0.00021100261 0.0 2.903342e-06 -0.0002122209 0.0 2.4335106e-06 -0.00021303803 0.0 2.1041776e-06 -0.00021350812999999997 0.0 1.9094548e-06 -0.0002989551 0.0 1.2650047e-05 -0.00030627933999999996 0.0 1.0228451999999999e-05 -0.00031191646000000003 0.0 8.2538227e-06 -0.00031620060000000003 0.0 6.7041542e-06 -0.00031942924 0.0 5.482470400000001e-06 -0.00032182527000000004 0.0 4.527687e-06 -0.00032354884999999996 0.0 3.8077585e-06 -0.00032471048 0.0 3.3047609e-06 -0.00032538099999999997 0.0 3.0074843e-06 -0.0004534793 0.0 2.0117091e-05 -0.00046341950999999993 0.0 1.6002939e-05 -0.00047107625999999995 0.0 1.2768612000000001e-05 -0.00047690810999999995 0.0 1.0311726000000001e-05 -0.0004813217400000001 0.0 8.424402e-06 -0.00048461417 0.0 6.9726980000000005e-06 -0.00048699553 0.0 5.8860501e-06 -0.0004886082599999999 0.0 5.128250900000001e-06 -0.0004895422 0.0 4.6801342e-06 -0.00067968591 0.0 3.1309683e-05 -0.00069283409 0.0 2.4596888e-05 -0.00070297974 0.0 1.9458581e-05 -0.00071072602 0.0 1.5658106e-05 -0.00071661553 0.0 1.2797586e-05 -0.00072103215 0.0 1.0622118e-05 -0.00072424312 0.0 8.9999594e-06 -0.00072642643 0.0 7.868131400000001e-06 -0.00072769471 0.0 7.1974982e-06 -0.0010071989 0.0 4.7794703e-05 -0.0010241736 0.0 3.7208123e-05 -0.0010372949000000001 0.0 2.927567e-05 -0.0010473487 0.0 2.3531968e-05 -0.0010550295 0.0 1.9267547e-05 -0.001060818 0.0 1.6040223000000002e-05 -0.0010650430000000001 0.0 1.3630909e-05 -0.0010679261000000001 0.0 1.1943542e-05 -0.0010696047 0.0 1.0939965e-05 -0.0014762820000000002 0.0 7.1792361e-05 -0.0014976424 0.0 5.5561809999999994e-05 -0.0015142271 0.0 4.3626886e-05 -0.0015270045000000002 0.0 3.5118937e-05 -0.0015368139999999998 0.0 2.8836976e-05 -0.0015442362 0.0 2.4067373999999998e-05 -0.0015496681 0.0 2.0480691e-05 -0.0015533801999999999 0.0 1.7950153e-05 -0.0015555432999999998 0.0 1.6436859e-05 -0.0021404803 0.0 0.00010648466 -0.0021666242000000003 0.0 8.2217011e-05 -0.0021871382 0.0 6.465335200000001e-05 -0.0022030666 0.0 5.2242143e-05 -0.0022153567999999998 0.0 4.3038603e-05 -0.0022246731 0.0 3.5964116e-05 -0.0022314896 0.0 3.0573024999999995e-05 -0.0022361451 0.0 2.6729953e-05 -0.0022388569 0.0 2.441677e-05 -0.0030693344 0.0 0.0001565874 -0.0031003708 0.0 0.00012108325000000001 -0.0031251914 0.0 9.568048000000001e-05 -0.0031446730999999998 0.0 7.7730132e-05 -0.0031597514000000003 0.0 6.4215965e-05 -0.0031711569 0.0 5.3611566e-05 -0.0031794717 0.0 4.538853e-05 -0.0031851314 0.0 3.9459959e-05 -0.0031884185 0.0 3.5869281e-05 -0.0043513672 0.0 0.00022937874 -0.0043868665 0.0 0.00017827257 -0.0044161552 0.0 0.00014189957 -0.0044394243 0.0 0.00011592905000000001 -0.0044574066999999995 0.0 9.5885407e-05 -0.0044708918 0.0 7.975458e-05 -0.004480635300000001 0.0 6.702196e-05 -0.0044872207 0.0 5.7751553e-05 -0.0044910321 0.0 5.2112347e-05 -0.0060972366 0.0 0.00033646793 -0.006135831600000001 0.0 0.00026341109 -0.0061692405 0.0 0.00021130052000000002 -0.0061960871999999995 0.0 0.00017333339 -0.0062166111999999996 0.0 0.00014313596 -0.0062317052 0.0 0.00011824628999999999 -0.006242410699999999 0.0 9.8327735e-05 -0.0062495689 0.0 8.373844300000001e-05 -0.0062536891 0.0 7.4848991e-05 -0.0084408289 0.0 0.0004967109400000001 -0.0084794862 0.0 0.00039145519 -0.0085155861 0.0 0.00031575223 -0.0085448455 0.0 0.00025921308999999997 -0.0085666263 0.0 0.00021297474 -0.0085820248 0.0 0.00017421494999999998 -0.0085925702 0.0 0.00014300032 -0.0085994722 0.0 0.00012011491000000002 -0.0086034145 0.0 0.00010618756000000002 -0.011530869 0.0 0.00074060768 -0.011563356 0.0 0.0005849705799999999 -0.011598526999999999 0.0 0.0004719874400000001 -0.011627262 0.0 0.00038595719 -0.011647501000000001 0.0 0.00031442076 -0.011660664 0.0 0.00025407251 -0.01166899 0.0 0.00020553019 -0.011674176000000001 0.0 0.00017008343999999997 -0.011677096999999999 0.0 0.00014859201 -0.015499411000000001 0.0 0.0011167509 -0.015513615 0.0 0.0008766475900000001 -0.015539957 0.0 0.00070210197 -0.015562098 0.0 0.0005688082299999999 -0.015575753999999999 0.0 0.00045808712999999995 -0.015582558 0.0 0.00036517199 -0.015585532 0.0 0.00029098263 -0.015586865 0.0 0.00023718682000000002 -0.015587542 0.0 0.00020474206000000003 -0.020394713000000002 0.0 0.0017022884 -0.020368317 0.0 0.0013127081 -0.020370491 0.0 0.0010334111 -0.020374941 0.0 0.00082464423 -0.020373758 0.0 0.00065501395 -0.020368205 0.0 0.00051498885 -0.020361656000000002 0.0 0.00040446050000000005 -0.020356422 0.0 0.00032498183999999996 -0.020353349 0.0 0.00027729952 -0.026081677999999997 0.0 0.0026228609 -0.025978269 0.0 0.0019603455 -0.02592987 0.0 0.0014991682999999998 -0.025898326 0.0 0.0011703304 -0.025869882 0.0 0.00091475627 -0.025843799 0.0 0.00070967217 -0.025822535 0.0 0.00055020547 -0.025807634 0.0 0.00043644008 -0.025799142 0.0 0.00036850129 -0.032133017 0.0 0.0040886286 -0.031905558 0.0 0.0029258926 -0.031769015 0.0 0.0021445518 -0.03167516 0.0 0.0016229548 -0.031602599 0.0 0.0012439449 -0.031545736 0.0 0.00095249829 -0.031503759 0.0 0.00073035277 -0.031475797 0.0 0.0005731007499999999 -0.031460177 0.0 0.0004794684099999999 -0.037744738 0.0 0.0064368457999999995 -0.037351791 0.0 0.0043824352000000006 -0.037088428 0.0 0.0030409121000000002 -0.03690308 0.0 0.0022050354000000003 -0.036767572000000005 0.0 0.0016472645 -0.036669049 0.0 0.0012434806 -0.03660037 0.0 0.00094418414 -0.036556214 0.0 0.00073421712 -0.036531958999999996 0.0 0.00060940621 -0.041704696 0.0 0.010139416 -0.041137308 0.0 0.0065848189 -0.04072798 0.0 0.004298635800000001 -0.040432915 0.0 0.0029526956 -0.040221772999999995 0.0 0.0021311848 -0.040074553 0.0 0.0015805992 -0.039975859 0.0 0.0011883433 -0.039914005 0.0 0.00091649673 -0.039880451000000004 0.0 0.00075508741 -0.042470429000000004 0.0 0.015726412 -0.041775413 0.0 0.009837496099999999 -0.041242413 0.0 0.0060595749 -0.040847737 0.0 0.0039175274 -0.040566325 0.0 0.0027073560999999998 -0.040374207999999995 0.0 0.0019619996 -0.040248536 0.0 0.0014578606 -0.040171251 0.0 0.0011145481 -0.04012977 0.0 0.00091099308 -0.03845783 0.0 0.023603806 -0.037742384 0.0 0.014394502 -0.037158616 0.0 0.0084532937 -0.036713097 0.0 0.0051526478 -0.036393244 0.0 0.0033906341999999996 -0.036176428 0.0 0.0023871954 -0.036036514 0.0 0.0017475137 -0.035951458 0.0 0.0013219527 -0.03590611 0.0 0.001070296 -0.028561829 0.0 0.033826575 -0.027971191 0.0 0.020315991999999998 -0.027448744 0.0 0.011523354 -0.027034162999999996 0.0 0.0066816206 -0.026732082999999997 0.0 0.0041891439 -0.026526939 0.0 0.0028553999 -0.026395232999999997 0.0 0.0020525639 -0.026315721 0.0 0.0015325848 -0.026273522999999997 0.0 0.0012264075999999999 -0.012766538000000001 0.0 0.045918718 -0.012436678999999999 0.0 0.027348148 -0.012092779 0.0 0.015159246000000001 -0.01180023 0.0 0.0084640058 -0.011581164 0.0 0.0050894148 -0.011431171 0.0 0.0033606237 -0.011335076999999999 0.0 0.0023681789 -0.011277405 0.0 0.0017416895000000002 -0.011246958999999999 0.0 0.0013746788000000001 0.0073596076 0.0 0.058873847 0.0073584071 0.0 0.034911431 0.0074479613 0.0 0.019079229 0.007553195600000001 0.0 0.010380719 0.0076394742 0.0 0.0060463557 0.0076995580000000004 0.0 0.0038862864000000002 0.0077373637 0.0 0.0026874992 0.007759315 0.0 0.0019458935000000001 0.0077705667 0.0 0.0015133271 0.028579941 0.0 0.071390525 0.028276781 0.0 0.042242259000000004 0.028110851 0.0 0.022896708999999998 0.028016739 0.0 0.012258483999999998 0.027957132000000003 0.0 0.0069892425 0.027916717999999997 0.0 0.0044048508 0.027888875 0.0 0.0030000946000000002 0.02787059 0.0 0.0021420785 0.027860247999999997 0.0 0.0016427557 0.046716007999999996 0.0 0.082285278 0.046214517000000004 0.0 0.048633069 0.045857839000000004 0.0 0.026245487999999997 0.045604165999999995 0.0 0.01392691 0.045424026 0.0 0.0078439415 0.045299585999999996 0.0 0.0048847855 0.045216937 0.0 0.0032930113 0.045165338 0.0 0.002326197 0.045137255999999994 0.0 0.0017635054999999998 0.058288142 0.0 0.090816051 0.057700552 0.0 0.053636853 0.057239372000000004 0.0 0.028888306000000002 0.056889139000000005 0.0 0.015269666000000001 0.056633394000000004 0.0 0.008554642099999999 0.056455784 0.0 0.0052986005 0.056338612 0.0 0.0035525903 0.05626633 0.0 0.0024923082 0.056227595 0.0 0.0018740003 0.06215423 0.0 0.09678915099999999 0.061558217 0.0 0.057137016 0.061063625 0.0 0.030756291 0.060675208 0.0 0.016244825 0.060387697000000004 0.0 0.0090940753 0.060187273 0.0 0.0056277304 0.060055446 0.0 0.0037663977 0.0599747 0.0 0.0026325965000000002 0.059931688 0.0 0.0019694888 0.059749339000000005 0.0 0.10044007 0.059185090999999995 0.0 0.05927543 0.058702402 0.0 0.031914368 0.058316726 0.0 0.016871976 0.058029107999999996 0.0 0.0094606737 0.057828028 0.0 0.0058635706000000004 0.057695899 0.0 0.0039252602 0.05761537 0.0 0.0027394358 0.057572804000000005 0.0 0.0020438479 0.053908980999999995 0.0 0.10219317 0.053390837999999996 0.0 0.060304388 0.05294168 0.0 0.032485876000000004 0.052580117999999995 0.0 0.017199634 0.052309349000000005 0.0 0.0096673286 0.052119538 0.0 0.0060051992 0.051994838 0.0 0.0040242685999999995 0.051919173 0.0 0.0028074221000000004 0.051879387 0.0 0.0020919109 0.047359269 0.0 0.10244268 0.0468859 0.0 0.060453411 0.046474293 0.0 0.032583982000000004 0.046142332 0.0 0.017275058 0.04589295400000001 0.0 0.0097300466 0.045717645 0.0 0.0060561174 0.045602359 0.0 0.0040626554 0.045532547 0.0 0.0028343936 0.045495975999999994 0.0 0.0021109853 0.041678645 0.0 0.10143988 0.041238672999999997 0.0 0.059864882 0.040856197000000004 0.0 0.032279316 0.040547732 0.0 0.01712985 0.040315598 0.0 0.009662255600000001 0.040151887000000004 0.0 0.006022248399999999 0.040043913 0.0 0.004043268 0.039978243 0.0 0.0028216755 0.039943725 0.0 0.002101528 0.037067458 0.0 0.099297717 0.03663988 0.0 0.058600757 0.036268886 0.0 0.031604192999999996 0.035970527999999995 0.0 0.016781408 0.035746068 0.0 0.009474829799999999 0.035587389 0.0 0.0059114634 0.035482015 0.0 0.0039720936 0.035417303 0.0 0.0027738371999999996 0.035382904 0.0 0.0020671645 0.032812085 0.0 0.096063279 0.032366671 0.0 0.056686882 0.031983968 0.0 0.030574726 0.031678818 0.0 0.016242458 0.031450365 0.0 0.0091791088 0.031288747 0.0 0.0057338113 0.031180713 0.0 0.0038577074 0.031113541 0.0 0.0026980762 0.031077353 0.0 0.002014142 0.028038262999999997 0.0 0.09179440900000001 0.027540217999999998 0.0 0.054157976 0.027122436 0.0 0.029213563999999997 0.026795527000000003 0.0 0.015530073 0.026553731 0.0 0.0087893987 0.026383438999999998 0.0 0.005501599100000001 0.026269253 0.0 0.0037105982 0.026197603 0.0 0.0026033313 0.026158584 0.0 0.0019504082000000001 0.022301564 0.0 0.086605877 0.021720197000000004 0.0 0.051085255999999996 0.021252383 0.0 0.027563216 0.020898079 0.0 0.014671017 0.020641899 0.0 0.0083244285 0.020463727 0.0 0.0052291784 0.020344645 0.0 0.0035422603000000003 0.020269713999999998 0.0 0.0024991205 0.020228678 0.0 0.0018842601999999999 0.015785689 0.0 0.080684721 0.015104152 0.0 0.047585372 0.014587538 0.0 0.025690678999999998 0.01421504 0.0 0.013703368999999998 0.013955598999999999 0.0 0.0078073097 0.013779565 0.0 0.0049320539 0.013663435 0.0 0.0033639269 0.013590774 0.0 0.0023939507 0.013551048000000001 0.0 0.0018225792 0.0091537405 0.0 0.074284941 0.0083693787 0.0 0.043816954000000005 0.0078183804 0.0 0.023685399 0.0074477158 0.0 0.012675046 0.0072040590000000005 0.0 0.0072641051 0.007045669 0.0 0.0046253940000000006 0.0069440147 0.0 0.0031849353000000004 0.0068814246999999995 0.0 0.0022936151 0.0068475333999999995 0.0 0.0017690345 0.0031898067999999997 0.0 0.06770566900000001 0.0022946752 0.0 0.03996953 0.0017168071 0.0 0.021653798999999998 0.0013609587 0.0 0.011641133 0.0011456793 0.0 0.0067222984999999996 0.0010147785 0.0 0.0043229838 0.00093430461 0.0 0.0030120728000000005 0.0008859260699999999 0.0 0.0022008549 0.00086010405 0.0 0.0017240008 -0.0015450435 0.0 0.061266303 -0.0025846429999999997 0.0 0.036249697000000004 -0.0032095796999999995 0.0 0.019713828 -0.0035622052 0.0 0.010662091 -0.0037566028000000002 0.0 0.0062103872 -0.0038657733 0.0 0.004037502199999999 -0.0039298916 0.0 0.0028504191 -0.003967927800000001 0.0 0.0021168007999999997 -0.0039882241 0.0 0.0016864926000000001 -0.0048499438 0.0 0.055275958 -0.0060848095 0.0 0.03286583 -0.006806880699999999 0.0 0.017988486 -0.0071957908 0.0 0.0098025901 -0.0073988927000000005 0.0 0.0057585891 -0.0075079068 0.0 0.0037813589 -0.0075709154 0.0 0.0027040907 -0.0076088854 0.0 0.0020417962 -0.0076296921 0.0 0.0016551424 -0.0068281111 0.0 0.049983412000000005 -0.0082827825 0.0 0.030006478 -0.0091654006 0.0 0.016597129 -0.0096485624 0.0 0.009128782 -0.0099048754 0.0 0.005398668299999999 -0.010044759 0.0 0.0035670344 -0.010126884000000001 0.0 0.0025763141 -0.010177176 0.0 0.0019754453 -0.010205261 0.0 0.0016283549 -0.0077211005000000004 0.0 0.045534387 -0.009358734799999999 0.0 0.027801827999999997 -0.010450653 0.0 0.015643558000000002 -0.01109321 0.0 0.0087053692 -0.011455498 0.0 0.0051649921 -0.011662246000000001 0.0 0.0034091440000000002 -0.011785408 0.0 0.0024711832 -0.011860286999999999 0.0 0.001917334 -0.011901729 0.0 0.0016042771 -0.0077526341 0.0 0.041951275999999996 -0.009463665100000001 0.0 0.026295565 -0.010776583999999999 0.0 0.0152016 -0.011645021 0.0 0.008593657099999999 -0.01217474 0.0 0.0050987005 -0.012492211000000001 0.0 0.0033300102 -0.012682932 0.0 0.0023977265 -0.012796496999999999 0.0 0.0018689873 -0.012857811 0.0 0.0015811067000000001 -0.0070616589 0.0 0.039135695 -0.0086769965 0.0 0.025431687 -0.010158764 0.0 0.015285165 -0.011305558 0.0 0.0088471975 -0.012078448 0.0 0.0052509159 -0.012569064 0.0 0.0033665325 -0.012869582 0.0 0.0023766891 -0.01304619 0.0 0.0018388113 -0.01313914 0.0 0.0015602179000000001 -0.005713613199999999 0.0 0.036903728 -0.0070311353000000005 0.0 0.025060156 -0.008556097700000001 0.0 0.015820531000000002 -0.0099707358 0.0 0.0094952071 -0.011064498 0.0 0.0056798258 -0.01181458 0.0 0.0035736756 -0.012295118999999998 0.0 0.0024480685 -0.012582326000000001 0.0 0.0018508756 -0.012732928999999999 0.0 0.0015546639999999999 -0.0038121694 0.0 0.035029914 -0.0046336288 0.0 0.024950352000000002 -0.0059936075 0.0 0.016642006 -0.0075412388 0.0 0.010490431000000001 -0.0089485683 0.0 0.0064348695 -0.010036113000000001 0.0 0.0040211835999999996 -0.010783977 0.0 0.002675073 -0.011251858 0.0 0.0019540679999999998 -0.011503646999999999 0.0 0.0016012398999999998 -0.0015328981 0.0 0.033335105 -0.0017310664000000002 0.0 0.024843412000000002 -0.0026811257 0.0 0.017507793 -0.004104394 0.0 0.011679725 -0.0056371489000000006 0.0 0.0074939937 -0.0069971378 0.0 0.0047720219 -0.0080432417 0.0 0.0031405361 -0.0087474762 0.0 0.0022263278 -0.0091425795 0.0 0.001769374 0.00099631341 0.0 0.031833738 0.0013262578 0.0 0.024550347 0.00098782789 0.0 0.018170584 -2.3513517e-06 0.0 0.012837002 -0.0013361815 0.0 0.0087179001 -0.0026977140999999995 0.0 0.005806345 -0.0038692555 0.0 0.0039095711 -0.0047395737 0.0 0.0027636869 -0.0052650236 0.0 0.0021600414000000003 0.0041501895 0.0 0.030760575 0.0043634796 0.0 0.024134073 0.0045441566 0.0 0.01851069 0.0042362790999999995 0.0 0.013753356999999999 0.0034568112 0.0 0.009906848900000001 0.0024489546 0.0 0.006998656800000001 0.0014534489 0.0 0.0049533695 0.00063650153 0.0 0.00362048 0.0001066124 0.0 0.0028712919 0.0092164082 0.0 0.030134747000000003 0.008168634000000001 0.0 0.023857646 0.0079581533 0.0 0.018702943 0.00808137 0.0 0.014410952 0.0080171097 0.0 0.010930235 0.0076732743 0.0 0.008199921800000001 0.0071591046 0.0 0.0061677508 0.0066437824 0.0 0.0047587133 0.0062730429 0.0 0.0039221109 0.01627133 0.0 0.029926926 0.014298577 0.0 0.023900192 0.012749846 0.0 0.018988427 0.012046445 0.0 0.015049338999999998 0.011997947 0.0 0.011878335 0.012164508000000001 0.0 0.009368775400000001 0.012252353999999998 0.0 0.0074550044 0.012217114 0.0 0.0060795848 0.01214016 0.0 0.005232011 0.021135362 0.0 0.030322892999999997 0.020990659 0.0 0.024510099 0.019817367 0.0 0.019662773 0.018261148 0.0 0.015859295 0.017183846000000003 0.0 0.012882188000000001 0.016779047 0.0 0.010559348999999999 0.01678272 0.0 0.008779985799999999 0.016911225 0.0 0.0074820044 0.017015204 0.0 0.0066685178 0.022533344 0.0 0.02601487 0.0246723 0.0 0.021085358999999998 0.025166752 0.0 0.017246982 0.024619922000000002 0.0 0.014195253 0.02386589 0.0 0.011842903 0.023443123 0.0 0.010098028 0.023358102999999998 0.0 0.0088619227 0.023401527000000002 0.0 0.008095593199999999 0.024949906 0.0 0.01977608 0.028102548999999998 0.0 0.016270204 0.02988092 0.0 0.01348386 0.031040115 0.0 0.011467318999999998 0.031889497999999995 0.0 0.010166258000000001 0.032431262999999995 0.0 0.0094143823 0.024499221 0.0 0.015936494 0.028205695 0.0 0.013026346000000001 0.030924367 0.0 0.011386621000000001 0.032546725 0.0 0.010568003999999999 -7.367336800000001e-07 0.0 3.4713379e-09 -7.358919399999999e-07 0.0 3.6440451e-09 -7.332897700000001e-07 0.0 4.1604307e-09 -7.286929000000001e-07 0.0 5.0134488e-09 -7.217072399999999e-07 0.0 6.1852554e-09 -7.117706099999999e-07 0.0 7.6384294e-09 -6.981539399999999e-07 0.0 9.3052961e-09 -6.799596700000001e-07 0.0 1.1075006999999999e-08 -1.3560406000000001e-06 0.0 7.1020656e-09 -1.35451e-06 0.0 7.4382314e-09 -1.3497851e-06 0.0 8.4436325e-09 -1.3414563999999998e-06 0.0 1.0105727e-08 -1.3288333e-06 0.0 1.2392147e-08 -1.3109216999999997e-06 0.0 1.5233287e-08 -1.2864172e-06 0.0 1.850052e-08 -1.2537012e-06 0.0 2.1981363999999997e-08 -2.4386504e-06 0.0 1.3936136999999999e-08 -2.4359581e-06 0.0 1.456405e-08 -2.4276508e-06 0.0 1.6443854e-08 -2.413035e-06 0.0 1.9557557e-08 -2.3909181000000003e-06 0.0 2.3852415000000004e-08 -2.3595757999999997e-06 0.0 2.9205853999999997e-08 -2.3167277000000003e-06 0.0 3.538266599999999e-08 -2.2595225e-06 0.0 4.1989178000000003e-08 -4.2981387e-06 0.0 2.6424794999999998e-08 -4.2935358e-06 0.0 2.7562422999999998e-08 -4.2793527e-06 0.0 3.0973801e-08 -4.2544129e-06 0.0 3.664114299999999e-08 -4.2167057e-06 0.0 4.448676799999999e-08 -4.1633011e-06 0.0 5.4303126e-08 -4.0902887000000006e-06 0.0 6.567145e-08 -3.9927477000000006e-06 0.0 7.7880671e-08 -7.4311115e-06 0.0 4.862098300000001e-08 -7.4234617000000006e-06 0.0 5.0633815e-08 -7.399887599999999e-06 0.0 5.6681489999999994e-08 -7.3584515e-06 0.0 6.6762659e-08 -7.2958187e-06 0.0 8.077496e-08 -7.207118e-06 0.0 9.8378187e-08 -7.0857923e-06 0.0 1.1884485e-07 -6.9235311000000004e-06 0.0 1.4092183e-07 -1.2610546e-05 0.0 8.705247e-08 -1.2598145e-05 0.0 9.054340199999998e-08 -1.2559931999999999e-05 0.0 1.0105186999999999e-07 -1.2492784e-05 0.0 1.1862657999999999e-07 -1.2391293e-05 0.0 1.4315206e-07 -1.224753e-05 0.0 1.7409054000000002e-07 -1.2050768e-05 0.0 2.1021573e-07 -1.1787270000000001e-05 0.0 2.4938895999999997e-07 -2.102138e-05 0.0 1.5201704000000002e-07 -2.1001712999999998e-05 0.0 1.5796095e-07 -2.0941134e-05 0.0 1.7588201999999998e-07 -2.0834705e-05 0.0 2.0593982999999997e-07 -2.0673897e-05 0.0 2.4804048999999997e-07 -2.0446121e-05 0.0 3.013788e-07 -2.0134235e-05 0.0 3.6398685999999996e-07 -1.9716068e-05 0.0 4.3240178e-07 -3.4454583999999997e-05 0.0 2.5952454e-07 -3.4423973999999997e-05 0.0 2.6946282e-07 -3.4329707e-05 0.0 2.9946392e-07 -3.4164255e-05 0.0 3.4989984e-07 -3.3914483e-05 0.0 4.2078753000000004e-07 -3.3560951e-05 0.0 5.1103802e-07 -3.3076925000000003e-05 0.0 6.1774944e-07 -3.2427524e-05 0.0 7.357826300000001e-07 -5.5579982e-05 0.0 4.3423233e-07 -5.5533088e-05 0.0 4.5054327e-07 -5.5388795e-05 0.0 4.9982413e-07 -5.5135915e-05 0.0 5.8283024e-07 -5.4754819e-05 0.0 6.999013599999999e-07 -5.4216285e-05 0.0 8.4985084e-07 -5.3479816e-05 0.0 1.0289709000000001e-06 -5.2491931e-05 0.0 1.2308424e-06 -8.831797500000001e-05 0.0 7.1384312e-07 -8.8247209e-05 0.0 7.4010779e-07 -8.8029701e-05 0.0 8.195083299999999e-07 -8.764931399999999e-05 0.0 9.53464e-07 -8.707762000000001e-05 0.0 1.1431000000000001e-06 -8.627197500000001e-05 0.0 1.3877802e-06 -8.517268700000001e-05 0.0 1.6841724e-06 -8.3699982e-05 0.0 2.0269226e-06 -0.00013833006000000002 0.0 1.1555377e-06 -0.00013822486 0.0 1.1970334e-06 -0.00013790223999999998 0.0 1.3225217e-06 -0.00013733951000000002 0.0 1.5345317e-06 -0.00013649681999999998 0.0 1.8358346e-06 -0.00013531378999999998 0.0 2.2280062e-06 -0.00013370477 0.0 2.7113425999999997e-06 -0.00013155458 0.0 3.2876128e-06 -0.00021366151000000002 0.0 1.8450701999999998e-06 -0.00021350798 0.0 1.9094543000000003e-06 -0.00021303792999999998 0.0 2.1041782999999997e-06 -0.00021222085 0.0 2.43351e-06 -0.00021100261 0.0 2.9033422e-06 -0.00020930011 0.0 3.5207449e-06 -0.00020699453 0.0 4.2962388e-06 -0.00020392363 0.0 5.2508203e-06 -0.00032560027 0.0 2.9091634e-06 -0.00032538082000000004 0.0 3.0074841000000003e-06 -0.00032471033 0.0 3.3047609e-06 -0.00032354884999999996 0.0 3.8077594e-06 -0.00032182521 0.0 4.527691099999999e-06 -0.00031942929 0.0 5.4824709e-06 -0.00031620062999999996 0.0 6.704155599999999e-06 -0.00031191652 0.0 8.2538227e-06 -0.00048984832 0.0 4.531807900000001e-06 -0.0004895423200000001 0.0 4.6801374000000004e-06 -0.0004886082 0.0 5.1282555000000005e-06 -0.00048699572999999995 0.0 5.8860519e-06 -0.00048461434 0.0 6.972700700000001e-06 -0.00048132165 0.0 8.4244066e-06 -0.000476908 0.0 1.0311731e-05 -0.00047107635 0.0 1.2768612000000001e-05 -0.0007281110700000001 0.0 6.9751968e-06 -0.00072769466 0.0 7.1975028e-06 -0.00072642602 0.0 7.868136900000001e-06 -0.0007242429400000001 0.0 8.9999676e-06 -0.00072103221 0.0 1.0622122999999999e-05 -0.0007166157000000001 0.0 1.2797594e-05 -0.00071072625 0.0 1.5658105000000002e-05 -0.00070297957 0.0 1.9458586e-05 -0.0010701561 0.0 1.060656e-05 -0.0010696049000000001 0.0 1.0939972e-05 -0.0010679261000000001 0.0 1.1943553e-05 -0.0010650430000000001 0.0 1.3630920000000002e-05 -0.0010608181 0.0 1.6040234e-05 -0.0010550293 0.0 1.9267560000000002e-05 -0.0010473488 0.0 2.3531975000000003e-05 -0.0010372946 0.0 2.9275681e-05 -0.0015562542999999999 0.0 1.5932716e-05 -0.0015555429000000001 0.0 1.6436866999999998e-05 -0.0015533804999999998 0.0 1.7950171e-05 -0.0015496684 0.0 2.0480707e-05 -0.0015442366 0.0 2.4067383e-05 -0.0015368139999999998 0.0 2.8836981e-05 -0.0015270035 0.0 3.511893e-05 -0.0015142270000000002 0.0 4.3626899999999994e-05 -0.0022397474 0.0 2.3643786e-05 -0.0022388559 0.0 2.4416768000000002e-05 -0.0022361446 0.0 2.6729962e-05 -0.0022314908 0.0 3.0573039e-05 -0.0022246721 0.0 3.5964113e-05 -0.0022153575 0.0 4.3038621e-05 -0.0022030664 0.0 5.2242143e-05 -0.0021871375 0.0 6.4653388e-05 -0.0031894988 0.0 3.4666165e-05 -0.0031884182000000002 0.0 3.5869296e-05 -0.0031851302 0.0 3.9459969999999996e-05 -0.0031794711999999998 0.0 4.5388555e-05 -0.0031711584999999996 0.0 5.3611584e-05 -0.0031597521 0.0 6.4215928e-05 -0.0031446724 0.0 7.7730139e-05 -0.0031251924 0.0 9.5680422e-05 -0.0044922823999999995 0.0 5.0219744e-05 -0.0044910335 0.0 5.2112358000000005e-05 -0.0044872211 0.0 5.77516e-05 -0.0044806362 0.0 6.7021967e-05 -0.0044708932 0.0 7.9754616e-05 -0.0044574039 0.0 9.5885327e-05 -0.0044394238 0.0 0.000115929 -0.0044161552 0.0 0.00014189963 -0.0062550376 0.0 7.1865594e-05 -0.0062536937 0.0 7.4849006e-05 -0.0062495684 0.0 8.373848e-05 -0.006242413100000001 0.0 9.8327735e-05 -0.0062317038 0.0 0.00011824633999999998 -0.0062166117 0.0 0.00014313591000000001 -0.0061960871999999995 0.0 0.00017333331999999998 -0.0061692405 0.0 0.0002113005 -0.0086047063 0.0 0.00010151949000000001 -0.0086034192 0.0 0.00010618758999999998 -0.008599466600000001 0.0 0.00012011495000000001 -0.0085925711 0.0 0.00014300038 -0.0085820267 0.0 0.00017421506 -0.008566631 0.0 0.00021297478999999999 -0.0085448502 0.0 0.00025921303 -0.0085155908 0.0 0.00031575214 -0.011678057 0.0 0.00014140418 -0.011677102 0.0 0.00014859212 -0.011674175 0.0 0.00017008353 -0.011668989 0.0 0.00020553035 -0.011660664 0.0 0.00025407248 -0.011647504 0.0 0.00031442064 -0.011627266 0.0 0.00038595697999999995 -0.011598535 0.0 0.00047198732 -0.015587769 0.0 0.00019392025000000002 -0.015587543999999998 0.0 0.00020474203999999997 -0.015586865 0.0 0.00023718688 -0.015585532 0.0 0.00029098272 -0.015582553 0.0 0.00036517184 -0.015575756000000001 0.0 0.00045808704000000004 -0.015562098 0.0 0.00056880794 -0.015539958000000001 0.0 0.00070210174 -0.020352358 0.0 0.00026143563 -0.020353347 0.0 0.0002772997 -0.02035642 0.0 0.00032498216 -0.020361647 0.0 0.00040446056 -0.020368202 0.0 0.00051498885 -0.020373753999999997 0.0 0.0006550142400000001 -0.020374948 0.0 0.00082464365 -0.020370515 0.0 0.0010334107 -0.025796434 0.0 0.00034594274 -0.02579915 0.0 0.00036850152999999997 -0.025807642999999998 0.0 0.00043644043 -0.025822556 0.0 0.00055020588 -0.025843795 0.0 0.00070967234 -0.025869872000000002 0.0 0.0009147564999999999 -0.025898317 0.0 0.0011703307 -0.025929862999999997 0.0 0.0014991679000000001 -0.031455215 0.0 0.00044842163 -0.031460188 0.0 0.00047946877999999996 -0.031475808 0.0 0.0005731011599999999 -0.031503748 0.0 0.00073035329 -0.031545727999999995 0.0 0.00095249852 -0.031602602 0.0 0.0012439454 -0.031675149 0.0 0.0016229547 -0.031769019 0.0 0.0021445525 -0.036524277 0.0 0.00056802633 -0.036531955 0.0 0.00060940685 -0.036556222 0.0 0.00073421828 -0.036600377 0.0 0.0009441853599999999 -0.036669031 0.0 0.0012434816 -0.036767561000000004 0.0 0.0016472643 -0.036903082999999996 0.0 0.002205034 -0.037088443 0.0 0.0030409126 -0.039869907999999996 0.0 0.00070151628 -0.039880469 0.0 0.00075508811 -0.039914012 0.0 0.0009164984199999999 -0.039975863 0.0 0.0011883449000000001 -0.040074561 0.0 0.0015806009 -0.040221772999999995 0.0 0.0021311853 -0.040432919 0.0 0.0029526951 -0.040727999 0.0 0.0042986362 -0.040116746 0.0 0.0008433148 -0.040129766000000004 0.0 0.0009109939 -0.040171258 0.0 0.0011145495 -0.040248539 0.0 0.0014578622 -0.040374205 0.0 0.0019620019 -0.040566325 0.0 0.0027073575 -0.040847719 0.0 0.0039175306 -0.041242421 0.0 0.006059574399999999 -0.035891939 0.0 0.00098645338 -0.035906091 0.0 0.0010702967 -0.035951458 0.0 0.0013219542 -0.036036503 0.0 0.0017475160999999998 -0.036176447 0.0 0.0023871979 -0.036393244 0.0 0.0033906365000000004 -0.036713127000000005 0.0 0.0051526506 -0.037158616 0.0 0.0084532918 -0.026260328 0.0 0.0011242061 -0.026273533999999998 0.0 0.0012264079 -0.026315726 0.0 0.0015325873 -0.026395246 0.0 0.0020525667000000003 -0.026526922 0.0 0.0028554017 -0.026732085 0.0 0.0041891434 -0.027034171 0.0 0.0066816178 -0.027448744 0.0 0.011523358999999999 -0.011237473000000001 0.0 0.0012519934 -0.011246963 0.0 0.0013746785 -0.011277411999999999 0.0 0.0017416904 -0.01133508 0.0 0.0023681822 -0.011431183999999999 0.0 0.0033606249 -0.011581165 0.0 0.0050894176 -0.011800235 0.0 0.0084640086 -0.012092783000000001 0.0 0.015159242 0.007774019599999999 0.0 0.0013685582999999999 0.0077705663 0.0 0.0015133268 0.007759310300000001 0.0 0.001945895 0.0077373651 0.0 0.0026875027000000003 0.0076995604 0.0 0.0038862887 0.007639478000000001 0.0 0.0060463585 0.0075531937 0.0 0.010380715 0.0074479617 0.0 0.019079218000000002 0.027856916000000002 0.0 0.0014754301999999999 0.027860253999999997 0.0 0.0016427542999999998 0.027870594 0.0 0.0021420773 0.027888877000000003 0.0 0.0030000953000000005 0.027916708999999998 0.0 0.004404850300000001 0.027957127999999998 0.0 0.006989245799999999 0.028016752000000002 0.0 0.012258483 0.028110853999999998 0.0 0.022896696 0.045128401 0.0 0.001574665 0.045137255999999994 0.0 0.0017635028 0.045165326 0.0 0.0023261937 0.045216933 0.0 0.0032930095 0.045299605 0.0 0.0048847883 0.04542401099999999 0.0 0.0078439359 0.045604165999999995 0.0 0.013926909 0.04585785 0.0 0.02624548 0.056215405 0.0 0.0016661626 0.056227572 0.0 0.0018739973000000002 0.05626634900000001 0.0 0.0024923042 0.056338615999999994 0.0 0.0035525882000000003 0.056455784 0.0 0.0052985977 0.056633417 0.0 0.0085546291 0.056889147 0.0 0.015269652 0.057239375999999995 0.0 0.028888288999999998 0.059918257999999995 0.0 0.0017462536 0.059931684000000006 0.0 0.0019694841 0.059974682 0.0 0.0026325912 0.06005542 0.0 0.0037663897999999996 0.06018728 0.0 0.0056277257 0.060387712 0.0 0.0090940725 0.060675245 0.0 0.016244823000000002 0.061063673 0.0 0.030756276000000003 0.057559568 0.0 0.0018093820999999998 0.057572793 0.0 0.0020438428 0.057615392 0.0 0.0027394273999999997 0.057695895 0.0 0.0039252527 0.057828035 0.0 0.005863565500000001 0.058029107999999996 0.0 0.0094606653 0.058316745 0.0 0.016871972 0.058702409000000004 0.0 0.031914361 0.051867113 0.0 0.0018505143 0.051879365 0.0 0.002091907 0.051919173 0.0 0.0028074121 0.051994845 0.0 0.0040242621 0.052119557000000004 0.0 0.0060051893999999995 0.052309364000000004 0.0 0.009667314599999999 0.052580111 0.0 0.017199632 0.052941657999999996 0.0 0.03248588 0.045484672999999996 0.0 0.0018667871 0.045495953 0.0 0.0021109795 0.045532554 0.0 0.0028343843 0.045602392 0.0 0.0040626489 0.045717638 0.0 0.0060561098999999995 0.045892965 0.0 0.0097300448 0.046142332 0.0 0.017275063 0.046474325999999996 0.0 0.032583978 0.039933056 0.0 0.001858359 0.039943714 0.0 0.0021015222 0.039978251 0.0 0.0028216694 0.040043917000000005 0.0 0.0040432652 0.040151875 0.0 0.006022244699999999 0.040315602 0.0 0.0096622491 0.040547714 0.0 0.017129857 0.040856212 0.0 0.03227932 0.035372213 0.0 0.0018285207000000002 0.035382897 0.0 0.0020671603 0.035417277000000004 0.0 0.0027738349 0.035481997 0.0 0.0039720922 0.035587377999999996 0.0 0.0059114629 0.035746064 0.0 0.0094748326 0.035970538999999996 0.0 0.016781405 0.036268901 0.0 0.031604171 0.031065986 0.0 0.0017831948000000002 0.031077353 0.0 0.0020141410999999997 0.031113535 0.0 0.002698075 0.031180685 0.0 0.0038577083 0.031288738999999996 0.0 0.0057338094 0.031450346000000004 0.0 0.0091791078 0.031678818 0.0 0.016242452 0.031983968 0.0 0.030574726 0.026146216 0.0 0.001729985 0.026158572999999997 0.0 0.0019504077 0.026197609 0.0 0.0026033323 0.026269246 0.0 0.0037105966 0.026383432000000002 0.0 0.005501592099999999 0.026553715 0.0 0.0087893903 0.02679552 0.0 0.015530061000000001 0.027122432000000002 0.0 0.029213559 0.020215629 0.0 0.0016767829999999998 0.020228681999999998 0.0 0.0018842610000000001 0.020269709 0.0 0.0024991203 0.020344647 0.0 0.0035422597999999997 0.020463705 0.0 0.0052291742 0.02064188 0.0 0.0083244229 0.020898072 0.0 0.014671007 0.021252407 0.0 0.027563207000000003 0.013538423999999999 0.0 0.0016299154000000001 0.013551046 0.0 0.0018225791 0.013590776 0.0 0.0023939514 0.013663433999999999 0.0 0.0033639239000000003 0.01377956 0.0 0.0049320497 0.013955598999999999 0.0 0.0078073037 0.014215054 0.0 0.01370336 0.014587545 0.0 0.025690664 0.0068368241000000005 0.0 0.0015923206 0.006847539000000001 0.0 0.0017690329000000001 0.0068814275 0.0 0.0022936133 0.0069440147 0.0 0.0031849323 0.0070456755 0.0 0.004625388 0.0072040614000000005 0.0 0.0072640972 0.007447718199999999 0.0 0.01267504 0.0078183934 0.0 0.023685387999999998 0.0008520091699999999 0.0 0.0015635629 0.00086010655 0.0 0.0017239985999999998 0.00088593189 0.0 0.0022008528 0.00093431148 0.0 0.0030120669 0.0010147862 0.0 0.0043229773 0.0011456847 0.0 0.0067222887 0.0013609652999999999 0.0 0.011641123 0.0017168118 0.0 0.021653794 -0.0039945929 0.0 0.0015419485 -0.0039882185 0.0 0.0016864922 -0.0039679222 0.0 0.0021167975 -0.0039298842 0.0 0.0028504159 -0.0038657668 0.0 0.0040374976 -0.0037565958 0.0 0.0062103802 -0.0035622015000000003 0.0 0.010662079 -0.0032095776 0.0 0.019713812 -0.0076363385 0.0 0.0015256022 -0.0076296865 0.0 0.0016551409 -0.007608876600000001 0.0 0.0020417932 -0.007570910300000001 0.0 0.0027040862 -0.007507900200000001 0.0 0.0037813534000000005 -0.0073988861 0.0 0.005758584000000001 -0.007195788000000001 0.0 0.0098025873 -0.0068068826 0.0 0.017988492 -0.010214367 0.0 0.0015126629999999998 -0.010205256999999999 0.0 0.0016283534 -0.010177171 0.0 0.0019754414000000002 -0.010126876 0.0 0.0025763114 -0.010044754 0.0 0.00356703 -0.009904874499999999 0.0 0.0053986614 -0.0096485624 0.0 0.009128774499999999 -0.0091653997 0.0 0.01659712 -0.011915118 0.0 0.0015009997 -0.011901723000000001 0.0 0.0016042760999999998 -0.011860278 0.0 0.0019173315 -0.011785408 0.0 0.0024711816 -0.011662238 0.0 0.0034091412 -0.011455493999999998 0.0 0.0051649916 -0.011093219 0.0 0.0087053636 -0.010450659000000001 0.0 0.015643554 -0.012877349 0.0 0.0014879248000000001 -0.012857815 0.0 0.0015811053 -0.012796493999999999 0.0 0.0018689842999999999 -0.012682921000000002 0.0 0.0023977232999999997 -0.012492211999999999 0.0 0.0033300074 -0.01217474 0.0 0.0050986963 -0.01164503 0.0 0.008593650500000001 -0.010776589 0.0 0.01520159 -0.01316822 0.0 0.0014726137 -0.013139136000000001 0.0 0.0015602163 -0.013046186999999999 0.0 0.0018388091 -0.012869583 0.0 0.0023766868 -0.012569063 0.0 0.0033665306 -0.012078446000000001 0.0 0.005250916800000001 -0.011305569 0.0 0.008847190100000001 -0.01015876 0.0 0.015285162 -0.012779655 0.0 0.0014642871 -0.012732933 0.0 0.0015546625 -0.012582323999999999 0.0 0.0018508733 -0.01229511 0.0 0.0024480673 -0.011814578000000001 0.0 0.0035736734999999996 -0.0110645 0.0 0.0056798253 -0.0099707413 0.0 0.0094951997 -0.0085561015 0.0 0.015820529 -0.011582563 0.0 0.0014951628 -0.011503641 0.0 0.0016012383 -0.011251853999999999 0.0 0.0019540661 -0.010783982 0.0 0.0026750707 -0.010036114 0.0 0.0040211827000000006 -0.0089485748 0.0 0.006434866700000001 -0.0075412458 0.0 0.010490436 -0.0059936093 0.0 0.016642001 -0.0092689665 0.0 0.0016309791 -0.0091425776 0.0 0.001769374 -0.0087474734 0.0 0.0022263252 -0.0080432473 0.0 0.0031405346999999998 -0.0069971401 0.0 0.0047720196 -0.0056371461 0.0 0.007493994699999999 -0.0041043949 0.0 0.01167973 -0.0026811282 0.0 0.01750778 -0.0054401713 0.0 0.001972005 -0.0052650203 0.0 0.0021600407 -0.0047395718 0.0 0.0027636851 -0.0038692546 0.0 0.0039095697 -0.0026977162 0.0 0.005806346899999999 -0.0013361778 0.0 0.0087178973 -2.3465836000000003e-06 0.0 0.012837002 0.00098783185 0.0 0.01817059 -7.6653116e-05 0.0 0.0026299183000000003 0.0001066131 0.0 0.0028712924 0.00063650316 0.0 0.0036204809000000004 0.0014534495999999999 0.0 0.0049533681 0.0024489574 0.0 0.0069986563 0.0034568142 0.0 0.0099068526 0.004236287 0.0 0.01375336 0.0045441622 0.0 0.018510688 0.0061397525 0.0 0.0036463181 0.006273044300000001 0.0 0.0039221123 0.006643780500000001 0.0 0.0047587133 0.007159105 0.0 0.006167751700000001 0.0076732808 0.0 0.0081999181 0.0080171227 0.0 0.010930236000000001 0.0080813775 0.0 0.014410952 0.0079581579 0.0 0.018702941 0.012104384 0.0 0.0049469653 0.012140163 0.0 0.0052320114 0.012217117 0.0 0.0060795839 0.01225237 0.0 0.0074550072 0.012164513 0.0 0.0093687735 0.011997952 0.0 0.011878327 0.012046461999999999 0.0 0.015049338 0.012749857 0.0 0.018988425 0.017051298 0.0 0.0063912687 0.017015204 0.0 0.0066685164 0.016911233 0.0 0.0074820076 0.016782725 0.0 0.008779984000000001 0.016779058 0.0 0.010559351000000002 0.017183874 0.0 0.012882194 0.018261183 0.0 0.015859293 0.019817401000000002 0.0 0.019662773 0.023430534 0.0 0.007833788199999999 0.023401545 0.0 0.0080955969 0.023358122999999998 0.0 0.0088619189 0.023443136 0.0 0.010098033000000001 0.023865901000000002 0.0 0.011842903 0.024619937 0.0 0.014195248999999998 0.02516678 0.0 0.017246984 0.024672311000000002 0.0 0.021085361 0.03261485 0.0 0.0091638751 0.032431256 0.0 0.0094143879 0.031889508999999996 0.0 0.010166259 0.031040125 0.0 0.011467318999999998 0.02988093 0.0 0.013483853 0.028102579 0.0 0.016270192 0.024949882000000003 0.0 0.019776082 0.033080574 0.0 0.010315288 0.032546736 0.0 0.010568002 0.03092438 0.0 0.011386625 0.028205674 0.0 0.013026351 0.024499222999999997 0.0 0.015936496 -6.561379000000001e-07 0.0 1.2764058999999998e-08 -6.2547537e-07 0.0 1.4005451e-08 -5.864045e-07 0.0 1.3981776000000002e-08 -5.3687575e-07 0.0 1.1478611999999998e-08 -4.7490749e-07 0.0 5.5435141e-09 -3.9998611e-07 0.0 -3.5465766e-09 -3.1513579e-07 0.0 -1.3718235000000001e-08 -1.210866e-06 0.0 2.5333481e-08 -1.1556738e-06 0.0 2.7839345e-08 -1.0851636e-06 0.0 2.7863527000000002e-08 -9.9538477e-07 0.0 2.2995294999999997e-08 -8.824342800000001e-07 0.0 1.134517e-08 -7.4509546e-07 0.0 -6.5876975e-09 -5.887296800000001e-07 0.0 -2.6809654999999996e-08 -4.2742646999999996e-07 0.0 -4.3475243e-08 -2.1845582999999997e-06 0.0 4.8401745e-08 -2.0877947e-06 0.0 5.326492e-08 -1.963745e-06 0.0 5.3429858000000004e-08 -1.8049398e-06 0.0 4.4275847000000006e-08 -1.6038121999999998e-06 0.0 2.2177982000000003e-08 -1.3575678e-06 0.0 -1.1986899e-08 -1.0754006000000002e-06 0.0 -5.0732453e-08 -7.8275087e-07 0.0 -8.2938712e-08 -3.8647481e-06 0.0 8.981569300000003e-08 -3.6991199999999996e-06 0.0 9.8987371e-08 -3.4858997e-06 0.0 9.951180099999999e-08 -3.2112118e-06 0.0 8.277494599999999e-08 -2.8606305e-06 0.0 4.2001574000000004e-08 -2.4280237000000003e-06 0.0 -2.1317382e-08 -1.9287753999999998e-06 0.0 -9.346456399999999e-08 -1.4079356999999998e-06 0.0 -1.5370742000000003e-07 -6.7102092e-06 0.0 1.6265641999999999e-07 -6.4333713e-06 0.0 1.7959029999999999e-07 -6.0752232e-06 0.0 1.8101395999999997e-07 -5.6104277e-06 0.0 1.5125987e-07 -5.0122389e-06 0.0 7.792848299999999e-08 -4.2692586e-06 0.0 -3.663620500000001e-08 -3.406615e-06 0.0 -1.679241e-07 -2.5004529e-06 0.0 -2.7806882e-07 -1.144013e-05 0.0 2.8830013e-07 -1.0988136999999999e-05 0.0 3.1919518e-07 -1.0400079e-05 0.0 3.2310671999999995e-07 -9.632221e-06 0.0 2.7216521e-07 -8.6421605e-06 0.0 1.4380598000000002e-07 -7.4100089e-06 0.0 -5.915379799999999e-08 -5.9695535e-06 0.0 -2.9407209e-07 -4.4376952e-06 0.0 -4.9283784e-07 -1.9164021e-05 0.0 5.0132741e-07 -1.8442761e-05 0.0 5.5785046e-07 -1.7500985e-05 0.0 5.693893900000001e-07 -1.627637e-05 0.0 4.871351400000001e-07 -1.4709446000000001e-05 0.0 2.6904621e-07 -1.2762101e-05 0.0 -8.435023300000001e-08 -1.0462872999999999e-05 0.0 -5.0064563e-07 -7.955109099999999e-06 0.0 -8.581958500000001e-07 -3.1568845e-05 0.0 8.5751788e-07 -3.0444160000000003e-05 0.0 9.6277677e-07 -2.8983242e-05 0.0 9.975083199999999e-07 -2.7113134e-05 0.0 8.762343699999999e-07 -2.4759654e-05 0.0 5.1808792e-07 -2.1853761e-05 0.0 -8.8371223e-08 -1.8377265999999998e-05 0.0 -8.2402215e-07 -1.4429782e-05 0.0 -1.4709528e-06 -5.1184647999999996e-05 0.0 1.4464972e-06 -4.9474274e-05 0.0 1.6471938e-06 -4.7280639e-05 0.0 1.7459786e-06 -4.4535656e-05 0.0 1.5930045e-06 -4.1166051e-05 0.0 1.0293907e-06 -3.7072296e-05 0.0 4.3433488e-09 -3.2124863e-05 0.0 -1.2963788999999999e-06 -2.6207883e-05 0.0 -2.4798069e-06 -8.1751838e-05 0.0 2.4096601e-06 -7.921257899999999e-05 0.0 2.7965598e-06 -7.5998774e-05 0.0 3.0520569e-06 -7.2064067e-05 0.0 2.9171432999999995e-06 -6.7367881e-05 0.0 2.0831988e-06 -6.1813022e-05 0.0 3.9054726e-07 -5.5105869000000006e-05 0.0 -1.9008685e-06 -4.66163e-05 0.0 -4.0815421000000005e-06 -0.000128714 0.0 3.9624915e-06 -0.0001250225 0.0 4.7001108e-06 -0.00012038298999999999 0.0 5.297921700000001e-06 -0.00011476598999999998 0.0 5.325664e-06 -0.00010817881000000001 0.0 4.2042352e-06 -0.00010056179 0.0 1.5128683000000002e-06 -9.1413451e-05 0.0 -2.4529916e-06 -7.9209138e-05 0.0 -6.4222613e-06 -0.00019987416000000002 0.0 6.4203655e-06 -0.00019461476999999998 0.0 7.7846225e-06 -0.00018799814 0.0 9.0580143e-06 -0.00017996023 0.0 9.5642599e-06 -0.00017048897 0.0 8.2809674e-06 -0.00015949321000000003 0.0 4.2680485e-06 -0.00014613508 0.0 -2.2211771000000004e-06 -0.00012763852 0.0 -8.90503e-06 -0.00030627943 0.0 1.0228454e-05 -0.00029895507 0.0 1.2650047999999999e-05 -0.00028970487999999996 0.0 1.5138678999999999e-05 -0.00027835162 0.0 1.6694981e-05 -0.00026470632 0.0 1.5651138e-05 -0.00024843682 0.0 1.0222618e-05 -0.00022826123 0.0 6.0330422e-07 -0.00020041528000000003 0.0 -9.425911199999999e-06 -0.00046341986 0.0 1.6002939e-05 -0.00045347927 0.0 2.011709e-05 -0.00044093325 0.0 2.4627356e-05 -0.00042548042 0.0 2.8123155000000002e-05 -0.00040663886 0.0 2.8084472000000002e-05 -0.00038360502 0.0 2.1522498999999997e-05 -0.00035464737 0.0 8.5030388e-06 -0.00031550811000000004 0.0 -5.7470569999999994e-06 -0.0006928342 0.0 2.4596868e-05 -0.0006796862599999999 0.0 3.1309672e-05 -0.0006632242 0.0 3.8979742000000004e-05 -0.00064319232 0.0 4.5690649e-05 -0.0006189432499999999 0.0 4.7881553000000004e-05 -0.0005891851 0.0 4.126121e-05 -0.00055177358 0.0 2.5857877e-05 -0.0005022413099999999 0.0 7.5014818e-06 -0.0010241736 0.0 3.720813e-05 -0.0010071988 0.0 4.7794696e-05 -0.00098617305 0.0 6.0217288e-05 -0.0009612293800000001 0.0 7.1802744e-05 -0.00093198847 0.0 7.745059e-05 -0.0008971227199999999 0.0 7.0878821e-05 -0.0008544052800000001 0.0 5.1794636e-05 -0.00079979905 0.0 2.6777319e-05 -0.0014976420000000002 0.0 5.5561832e-05 -0.001476283 0.0 7.1792369e-05 -0.0014500314000000002 0.0 9.120380900000001e-05 -0.0014196739 0.0 0.00010999502000000001 -0.0013856145999999998 0.0 0.00012097333999999999 -0.0013471357999999998 0.0 0.0001154839 -0.0013028536 0.0 9.4202907e-05 -0.0012502681 0.0 6.388212900000001e-05 -0.0021666258 0.0 8.221703299999999e-05 -0.0021404806 0.0 0.00010648466 -0.0021087516 0.0 0.00013599376 -0.0020726858999999998 0.0 0.00016525683 -0.0020335477 0.0 0.00018385133999999998 -0.0019914196 0.0 0.00017926659 -0.0019461928 0.0 0.00015328698 -0.0018980361 0.0 0.00011531652 -0.0031003709999999998 0.0 0.00012108326000000001 -0.0030693358 0.0 0.00015658741 -0.0030326883 0.0 0.00020039473999999998 -0.0029922670000000003 0.0 0.0002446716 -0.0029494299 0.0 0.00027429027 -0.0029041598999999998 0.0 0.00027137069 -0.0028566748 0.0 0.00024054747000000002 -0.0028086244 0.0 0.00019632120999999998 -0.0043868669 0.0 0.00017827259 -0.0043513672 0.0 0.00022937875 -0.0043116071999999995 0.0 0.00029315738 -0.004270664 0.0 0.00035856542000000004 -0.0042298869 0.0 0.00040390604 -0.0041877697 0.0 0.00040414164 -0.0041427743 0.0 0.00037181459 -0.0040958012 0.0 0.00032963837 -0.0061358307 0.0 0.00026341099999999996 -0.0060972376 0.0 0.00033646775 -0.0060581522999999995 0.0 0.00042828867999999997 -0.0060240636 0.0 0.00052328373 -0.005996528100000001 0.0 0.00058970222 -0.0059714419999999995 0.0 0.00059089926 -0.005943810999999999 0.0 0.00055371865 -0.0059120734 0.0 0.00052901689 -0.0084794853 0.0 0.00039145522000000007 -0.008440830699999999 0.0 0.00049671117 -0.0084092757 0.0 0.0006293368599999999 -0.0083946018 0.0 0.00076690613 -0.008398940799999999 0.0 0.0008620383500000001 -0.0084143067 0.0 0.00085886184 -0.0084298747 0.0 0.00081003545 -0.0084392698 0.0 0.00081035466 -0.01156336 0.0 0.0005849705200000001 -0.011530872 0.0 0.00074060803 -0.011518601000000002 0.0 0.0009367271000000001 -0.01154297 0.0 0.001139848 -0.011607348 0.0 0.0012755772 -0.011698493999999999 0.0 0.0012506285000000001 -0.01179686 0.0 0.0011555054 -0.011888006999999999 0.0 0.0011834848 -0.015513619 0.0 0.00087664725 -0.01549941 0.0 0.0011167513000000001 -0.015525946 0.0 0.0014199971 -0.015618542 0.0 0.0017339187 -0.01578217 0.0 0.0019360884 -0.015997214 0.0 0.0018608613 -0.016232638 0.0 0.0016475513 -0.016461758 0.0 0.0017110635999999999 -0.020368321 0.0 0.0013127084 -0.020394713000000002 0.0 0.0017022897 -0.020491431 0.0 0.0021986121 -0.020692471 0.0 0.0027154341999999997 -0.021003742000000002 0.0 0.0030417182 -0.021399477000000004 0.0 0.0028695662 -0.021836137000000002 0.0 0.0023828879999999997 -0.022270432000000003 0.0 0.0023902478 -0.025978284 0.0 0.0019603455 -0.026081682999999998 0.0 0.0026228619 -0.026292846 0.0 0.0034788181 -0.026649852999999998 0.0 0.0043815756 -0.027157236 0.0 0.0049558855 -0.027785711 0.0 0.0046257656 -0.028482068 0.0 0.0035697009999999998 -0.029183371 0.0 0.0032875123 -0.031905569 0.0 0.0029258952 -0.032133035 0.0 0.0040886318 -0.03250755 0.0 0.0056089205000000005 -0.033062197 0.0 0.0072237351 -0.033796314 0.0 0.0082970159 -0.034681298 0.0 0.0077706645 -0.035661884 0.0 0.0056981472 -0.03665597 0.0 0.004694981 -0.037351798 0.0 0.004382432 -0.037744753 0.0 0.0064368485 -0.038314521000000004 0.0 0.0091297301 -0.039077993 0.0 0.011974425 -0.040025572999999995 0.0 0.013928302 -0.041133299 0.0 0.013334324 -0.042353623 0.0 0.0096810311 -0.043592803 0.0 0.0070848754 -0.041137322999999996 0.0 0.0065848203000000004 -0.041704728999999996 0.0 0.010139415 -0.042454358 0.0 0.014764932 -0.043377522 0.0 0.019589351 -0.044453714000000005 0.0 0.022905143 -0.04566814 0.0 0.022337167 -0.04698984 0.0 0.017058797 -0.048326392 0.0 0.011986046 -0.041775398 0.0 0.0098374998 -0.042470429000000004 0.0 0.015726406000000002 -0.043316285999999996 0.0 0.023285512 -0.044273239000000006 0.0 0.03104726 -0.045312092000000005 0.0 0.036404021 -0.046432462 0.0 0.036274031 -0.047626771 0.0 0.030364657000000003 -0.04882115099999999 0.0 0.022422064 -0.037742365 0.0 0.0143945 -0.038457859 0.0 0.023603795 -0.039253328 0.0 0.03525269 -0.040059853 0.0 0.047077633 -0.040842052999999996 0.0 0.055454649 -0.041616321 0.0 0.056983739000000005 -0.042410467 0.0 0.053295851 -0.043192532 0.0 0.044919323 -0.027971195 0.0 0.020315986 -0.028561827 0.0 0.033826571 -0.029135643 0.0 0.050700221 -0.029604636 0.0 0.067778781 -0.029931435 0.0 0.080830745 -0.030148517000000003 0.0 0.08825316300000001 -0.030322019 0.0 0.09388274 -0.030479972999999997 0.0 0.089611284 -0.012436692 0.0 0.02734814 -0.012766543 0.0 0.045918744000000004 -0.012983 0.0 0.06891254299999999 -0.012999812 0.0 0.092422925 -0.012787571999999999 0.0 0.11270171 -0.012385903 0.0 0.13231973 -0.011878165 0.0 0.15930767 -0.011347258999999998 0.0 0.16689244 0.007358411800000001 0.0 0.034911431 0.0073596044 0.0 0.058873829 0.0075389035 0.0 0.088397585 0.0079573812 0.0 0.11895858 0.0086309901 0.0 0.14783375 0.0095298849 0.0 0.18395717 0.010581913 0.0 0.24028878 0.011669243999999999 0.0 0.26361206 0.028276779 0.0 0.042242233 0.028579947999999997 0.0 0.07139050200000001 0.029074972 0.0 0.10716181 0.029786602000000002 0.0 0.14439088 0.030718932 0.0 0.1810818 0.031864773 0.0 0.23081136 0.033184394 0.0 0.31043842 0.034547016 0.0 0.34448406 0.046214528 0.0 0.048633046 0.046715997 0.0 0.082285255 0.04737911400000001 0.0 0.12346854 0.048196822 0.0 0.16625701 0.049165997999999995 0.0 0.20845516 0.050300132000000004 0.0 0.26570031 0.051589015999999994 0.0 0.35605401 0.052915372 0.0 0.39150918 0.057700593 0.0 0.053636841 0.058288164 0.0 0.09081604300000001 0.058989331 0.0 0.13624528 0.059776191 0.0 0.18322304 0.060639884000000005 0.0 0.22879209 0.061599482000000004 0.0 0.28874624 0.062657431 0.0 0.38143754 0.06373556 0.0 0.41396114 0.061558202 0.0 0.057137016 0.062154237 0.0 0.09678915099999999 0.062822245 0.0 0.14522494 0.063521929 0.0 0.19511142 0.064233549 0.0 0.24266514 0.06496702900000001 0.0 0.30309412 0.06573024400000001 0.0 0.39471984 0.06649605900000001 0.0 0.42338324 0.059185102999999996 0.0 0.059275407 0.05974935 0.0 0.10044 0.060359735 0.0 0.1507477 0.060969293 0.0 0.2024411 0.061544586 0.0 0.25109869 0.062079336 0.0 0.31129 0.06258329 0.0 0.40120009 0.063070558 0.0 0.42663741 0.053390846 0.0 0.060304395999999996 0.05390903 0.0 0.10219306 0.054461297 0.0 0.15342245 0.054999184000000007 0.0 0.20601712 0.055478748 0.0 0.25518107 0.055879023 0.0 0.31504741 0.056206077 0.0 0.40370202 0.056492537 0.0 0.42726925 0.046885915 0.0 0.060453385 0.04735925 0.0 0.10244271 0.047861575999999996 0.0 0.1538263 0.048346408 0.0 0.2065839 0.048767055999999996 0.0 0.25579688 0.049094513 0.0 0.31539789 0.049328733 0.0 0.40342867 0.049500339000000004 0.0 0.42642471 0.041238695 0.0 0.059864864000000004 0.041678637000000004 0.0 0.10143986 0.042144347 0.0 0.15233976 0.042592037 0.0 0.20464362 0.042978369 0.0 0.25355425 0.043274675 0.0 0.31311613 0.043476742 0.0 0.40146643 0.04360364 0.0 0.42531249 0.036639895 0.0 0.05860075 0.037067454 0.0 0.09929765800000001 0.037518788 0.0 0.14913799 0.037951231 0.0 0.20038337 0.03832614 0.0 0.24838018 0.038619664 0.0 0.30701429 0.0388266 0.0 0.39418671 0.038955215 0.0 0.41814238 0.0323667 0.0 0.056686904 0.0328121 0.0 0.096063286 0.033285092999999995 0.0 0.1443011 0.033740893 0.0 0.19391397 0.034141615 0.0 0.2403914 0.034465868 0.0 0.29715523 0.034708239 0.0 0.3815574 0.034870766 0.0 0.40479976 0.027540231000000002 0.0 0.054158013 0.028038276 0.0 0.09179448300000001 0.028581394 0.0 0.13792072 0.02911949 0.0 0.18536642 0.029607279 0.0 0.22975841 0.030016799 0.0 0.28377917 0.030338177 0.0 0.36395052 0.030570671 0.0 0.38576126 0.021720212000000003 0.0 0.051085252000000005 0.02230157 0.0 0.086605839 0.022967234 0.0 0.13016701 0.023660729 0.0 0.1749717 0.024319472 0.0 0.21678255 0.024895612 0.0 0.26731989 0.025365645 0.0 0.34204566 0.025725385 0.0 0.36187828 0.015104158000000001 0.0 0.047585364000000005 0.015785698 0.0 0.080684721 0.016619049 0.0 0.12130954 0.017544298 0.0 0.16308443 0.018473323 0.0 0.20191596 0.019323603999999998 0.0 0.24840361 0.020044537 0.0 0.31677261 0.020621145 0.0 0.33431074 0.0083693936 0.0 0.043816969000000004 0.0091537414 0.0 0.074284978 0.010187399 0.0 0.1117088 0.011414265 0.0 0.15016454 0.012717576000000001 0.0 0.18571478 0.013967617 0.0 0.22775239 0.015070065 0.0 0.28921252 0.015984843999999998 0.0 0.30428013 0.0022946782 0.0 0.039969503999999996 0.0031898087 0.0 0.06770560099999999 0.0044574598 0.0 0.10178261 0.0060506561 0.0 0.1367389 0.007818511700000001 0.0 0.16881754 0.0095784385 0.0 0.20621908 0.011185233000000001 0.0 0.26059431 0.012561441000000001 0.0 0.27298546 -0.0025846432000000003 0.0 0.03624972 -0.0015450467999999998 0.0 0.061266255 -1.0426084e-07 0.0 0.09196873800000001 0.0019958292000000002 0.0 0.12336955 0.0042635803 0.0 0.15194233 0.0065802308 0.0 0.18476893 0.0087562185 0.0 0.23200145 0.010667916000000001 0.0 0.24147893 -0.0060848119 0.0 0.032865833 -0.0048499475 0.0 0.055275954 -0.0030144325 0.0 0.08267669400000001 -0.00065131421 0.0 0.11058104 0.0020572520000000003 0.0 0.13576962 0.0048793713 0.0 0.16431725 0.0076107946 0.0 0.20446806 0.010089086 0.0 0.21061346 -0.0082827918 0.0 0.030006472000000003 -0.0068281149 0.0 0.049983393 -0.0047649145 0.0 0.074228451 -0.0021787474 0.0 0.098777443 0.0007956892999999999 0.0 0.12084101 0.0039701597 0.0 0.14562432 0.0072067352 0.0 0.17883688 0.010343291 0.0 0.18069738 -0.0093587413 0.0 0.027801827 -0.007721107 0.0 0.045534387 -0.0055830735 0.0 0.066792428 -0.0030278352 0.0 0.08818438599999999 -6.8887581e-05 0.0 0.10748815 0.003259158 0.0 0.12920402 0.0070394748 0.0 0.15556324 0.011243613000000001 0.0 0.15215792 -0.0094636744 0.0 0.026295557999999997 -0.0077526388 0.0 0.041951265 -0.0057753427 0.0 0.060384683 -0.0035712066999999998 0.0 0.078839816 -0.00094317843 0.0 0.095881231 0.0024330183 0.0 0.11530048 0.007055196 0.0 0.13479191 0.013379914 0.0 0.12536144 -0.008677002 0.0 0.025431681 -0.0070616635 0.0 0.039135691 -0.005502984399999999 0.0 0.054897923 -0.0039397045 0.0 0.070703879 -0.0018496082999999999 0.0 0.08608184 0.0016543486 0.0 0.10376226 0.0076176389 0.0 0.11624851 0.01732689 0.0 0.10072972 -0.0070311390000000005 0.0 0.025060166000000002 -0.0057136165 0.0 0.036903757999999995 -0.0047865217 0.0 0.050184924000000006 -0.0040052887 0.0 0.06374894099999999 -0.0024104062 0.0 0.0781103 0.0013827061999999999 0.0 0.09376685300000001 0.008645151700000001 0.0 0.098898418 -0.0046336269 0.0 0.024950342 -0.0038121706 0.0 0.035029903 -0.0036104848 0.0 0.046129812 -0.0034798604999999997 0.0 0.058077484000000006 -0.0020369194 0.0 0.071770839 0.0021704054 0.0 0.08398220699999999 0.010192406999999999 0.0 0.081593975 -0.0017310649 0.0 0.0248434 -0.0015328941 0.0 0.033335107999999995 -0.0019149173 0.0 0.042802822000000004 -0.0019287725 0.0 0.053860139 -9.4125491e-05 0.0 0.066344835 0.0044218278 0.0 0.07355418799999999 0.0013262621 0.0 0.024550343 0.00099631806 0.0 0.031833723 0.00059162657 0.0 0.040417846 0.0012302571 0.0 0.050888848 0.0038279884 0.0 0.060733706 0.0085705388 0.0 0.062505983 0.0043634856 0.0 0.024134073 0.0041501885 0.0 0.030760556 0.0046399492 0.0 0.038936727000000004 0.0063446187 0.0 0.048410620999999994 0.0093429284 0.0 0.054756559 0.0081686424 0.0 0.023857659 0.0092164241 0.0 0.030134756000000002 0.010926211000000002 0.0 0.037795268 0.012715053999999998 0.0 0.045747545 0.01429859 0.0 0.023900185 0.016271347 0.0 0.029926931 0.01782188 0.0 0.03667387 0.018948406 0.0 0.0433941 0.020990698 0.0 0.024510091 0.02113534 0.0 0.030322887000000003 0.02253335 0.0 0.026014872 
Force 3 2975 float
0.0 0.0 0.0 0.0 0.0 0.0 0.0 0.0 0.0 0.0 0.0 0.0 0.0 0.0 0.0 0.0 0.0 0.0 0.0 0.0 0.0 0.0 0.0 0.0 0.0 0.0 0.0 0.0 0.0 0.0 0.0 0.0 0.0 0.0 0.0 0.0 0.0 0.0 0.0 0.0 0.0 0.0 0.0 0.0 0.0 0.0 0.0 0.0 0.0 0.0 0.0 0.0 0.0 0.0 0.0 0.0 0.0 0.0 0.0 0.0 0.0 0.0 0.0 0.0 0.0 0.0 0.0 0.0 0.0 0.0 0.0 0.0 0.0 0.0 0.0 0.0 0.0 0.0 0.0 0.0 0.0 0.0 0.0 0.0 0.0 0.0 0.0 0.0 0.0 0.0 0.0 0.0 0.0 0.0 0.0 0.0 0.0 0.0 0.0 0.0 0.0 0.0 0.0 0.0 0.0 0.0 0.0 0.0 0.0 0.0 0.0 0.0 0.0 0.0 0.0 0.0 0.0 0.0 0.0 0.0 0.0 0.0 0.0 0.0 0.0 0.0 0.0 0.0 0.0 0.0 0.0 0.0 0.0 0.0 0.0 0.0 0.0 0.0 0.0 0.0 0.0 0.0 0.0 0.0 0.0 0.0 0.0 0.0 0.0 0.0 0.0 0.0 0.0 0.0 0.0 0.0 0.0 0.0 0.0 0.0 0.0 0.0 0.0 0.0 0.0 0.0 0.0 0.0 0.0 0.0 0.0 0.0 0.0 0.0 0.0 0.0 0.0 0.0 0.0 0.0 0.0 0.0 0.0 0.0 0.0 0.0 0.0 0.0 0.0 0.0 0.0 0.0 0.0 0.0 0.0 0.0 0.0 0.0 0.0 0.0 0.0 0.0 0.0 0.0 0.0 0.0 0.0 0.0 0.0 0.0 0.0 0.0 0.0 0.0 0.0 0.0 0.0 0.0 0.0 0.0 0.0 0.0 0.0 0.0 0.0 0.0 0.0 0.0 0.0 0.0 0.0 0.0 0.0 0.0 0.0 0.0 0.0 0.0 0.0 0.0 0.0 0.0 0.0 0.0 0.0 0.0 0.0 0.0 0.0 0.0 0.0 0.0 0.0 0.0 0.0 0.0 0.0 0.0 0.0 0.0 0.0 0.0 0.0 0.0 0.0 0.0 0.0 0.0 0.0 0.0 0.0 0.0 0.0 0.0 0.0 0.0 0.0 0.0 0.0 0.0 0.0 0.0 0.0 0.0 0.0 0.0 0.0 0.0 0.0 0.0 0.0 0.0 0.0 0.0 0.0 0.0 0.0 0.0 0.0 0.0 0.0 0.0 0.0 0.0 0.0 0.0 0.0 0.0 0.0 0.0 0.0 0.0 0.0 0.0 0.0 0.0 0.0 0.0 0.0 0.0 0.0 0.0 0.0 0.0 0.0 0.0 0.0 0.0 0.0 0.0 0.0 0.0 0.0 0.0 0.0 0.0 0.0 0.0 0.0 0.0 0.0 0.0 0.0 0.0 0.0 0.0 0.0 0.0 0.0 0.0 0.0 0.0 0.0 0.0 0.0 0.0 0.0 0.0 0.0 0.0 0.0 0.0 0.0 0.0 0.0 0.0 0.0 0.0 0.0 0.0 0.0 0.0 0.0 0.0 0.0 0.0 0.0 0.0 0.0 0.0 0.0 0.0 0.0 0.0 0.0 0.0 0.0 0.0 0.0 0.0 0.0 0.0 0.0 0.0 0.0 0.0 0.0 0.0 0.0 0.0 0.0 0.0 0.0 0.0 0.0 0.0 0.0 0.0 0.0 0.0 0.0 0.0 0.0 0.0 0.0 0.0 0.0 0.0 0.0 0.0 0.0 0.0 0.0 0.0 0.0 0.0 0.0 0.0 0.0 0.0 0.0 0.0 0.0 0.0 0.0 0.0 0.0 0.0 0.0 0.0 0.0 0.0 0.0 0.0 0.0 0.0 0.0 0.0 0.0 0.0 0.0 0.0 0.0 0.0 0.0 0.0 0.0 0.0 0.0 0.0 0.0 0.0 0.0 0.0 0.0 0.0 0.0 0.0 0.0 0.0 0.0 0.0 0.0 0.0 0.0 0.0 0.0 0.0 0.0 0.0 0.0 0.0 0.0 0.0 0.0 0.0 0.0 0.0 0.0 0.0 0.0 0.0 0.0 0.0 0.0 0.0 0.0 0.0 0.0 0.0 0.0 0.0 0.0 0.0 0.0 0.0 0.0 0.0 0.0 0.0 0.0 0.0 0.0 0.0 0.0 0.0 0.0 0.0 0.0 0.0 0.0 0.0 0.0 0.0 0.0 0.0 0.0 0.0 0.0 0.0 0.0 0.0 0.0 0.0 0.0 0.0 0.0 0.0 0.0 0.0 0.0 0.0 0.0 0.0 0.0 0.0 0.0 0.0 0.0 0.0 0.0 0.0 0.0 0.0 0.0 0.0 0.0 0.0 0.0 0.0 0.0 0.0 0.0 0.0 0.0 0.0 0.0 0.0 0.0 0.0 0.0 0.0 0.0 0.0 0.0 0.0 0.0 0.0 0.0 0.0 0.0 0.0 0.0 0.0 0.0 0.0 0.0 0.0 0.0 0.0 0.0 0.0 0.0 0.0 0.0 0.0 0.0 0.0 0.0 0.0 0.0 0.0 0.0 0.0 0.0 0.0 0.0 0.0 0.0 0.0 0.0 0.0 0.0 0.0 0.0 0.0 0.0 0.0 0.0 0.0 0.0 0.0 0.0 0.0 0.0 0.0 0.0 0.0 0.0 0.0 0.0 0.0 0.0 0.0 0.0 0.0 0.0 0.0 0.0 0.0 0.0 0.0 0.0 0.0 0.0 0.0 0.0 0.0 0.0 0.0 0.0 0.0 0.0 0.0 0.0 0.0 0.0 0.0 0.0 0.0 0.0 0.0 0.0 0.0 0.0 0.0 0.0 0.0 0.0 0.0 0.0 0.0 0.0 0.0 0.0 0.0 0.0 0.0 0.0 0.0 0.0 0.0 0.0 0.0 0.0 0.0 0.0 0.0 0.0 0.0 0.0 0.0 0.0 0.0 0.0 0.0 0.0 0.0 0.0 0.0 0.0 0.0 0.0 0.0 0.0 0.0 0.0 0.0 0.0 0.0 0.0 0.0 0.0 0.0 0.0 0.0 0.0 0.0 0.0 0.0 0.0 0.0 0.0 0.0 0.0 0.0 0.0 0.0 0.0 0.0 0.0 0.0 0.0 0.0 0.0 0.0 0.0 0.0 0.0 0.0 0.0 0.0 0.0 0.0 0.0 0.0 0.0 0.0 0.0 0.0 0.0 0.0 0.0 0.0 0.0 0.0 0.0 0.0 0.0 0.0 0.0 0.0 0.0 0.0 0.0 0.0 0.0 0.0 0.0 0.0 0.0 0.0 0.0 0.0 0.0 0.0 0.0 0.0 0.0 0.0 0.0 0.0 0.0 0.0 0.0 0.0 0.0 0.0 0.0 0.0 0.0 0.0 0.0 0.0 0.0 0.0 0.0 0.0 0.0 0.0 0.0 0.0 0.0 0.0 0.0 0.0 0.0 0.0 0.0 0.0 0.0 0.0 0.0 0.0 0.0 0.0 0.0 0.0 0.0 0.0 0.0 0.0 0.0 0.0 0.0 0.0 0.0 0.0 0.0 0.0 0.0 0.0 0.0 0.0 0.0 0.0 0.0 0.0 0.0 0.0 0.0 0.0 0.0 0.0 0.0 0.0 0.0 0.0 0.0 0.0 0.0 0.0 0.0 0.0 0.0 0.0 0.0 0.0 0.0 0.0 0.0 0.0 0.0 0.0 0.0 0.0 0.0 0.0 0.0 0.0 0.0 0.0 0.0 0.0 0.0 0.0 0.0 0.0 0.0 0.0 0.0 0.0 0.0 0.0 0.0 0.0 0.0 0.0 0.0 0.0 0.0 0.0 0.0 0.0 0.0 0.0 0.0 0.0 0.0 0.0 0.0 0.0 0.0 0.0 0.0 0.0 0.0 0.0 0.0 0.0 0.0 0.0 0.0 0.0 0.0 0.0 0.0 0.0 0.0 0.0 0.0 0.0 0.0 0.0 0.0 0.0 0.0 0.0 0.0 0.0 0.0 0.0 0.0 0.0 0.0 0.0 0.0 0.0 0.0 0.0 0.0 0.0 0.0 0.0 0.0 0.0 0.0 0.0 0.0 0.0 0.0 0.0 0.0 0.0 0.0 0.0 0.0 0.0 0.0 0.0 0.0 0.0 0.0 0.0 0.0 0.0 0.0 0.0 0.0 0.0 0.0 0.0 0.0 0.0 0.0 0.0 0.0 0.0 0.0 0.0 0.0 0.0 0.0 0.0 0.0 0.0 0.0 0.0 0.0 0.0 0.0 0.0 0.0 0.0 0.0 0.0 0.0 0.0 0.0 0.0 0.0 0.0 0.0 0.0 0.0 0.0 0.0 0.0 0.0 0.0 0.0 0.0 0.0 0.0 0.0 0.0 0.0 0.0 0.0 0.0 0.0 0.0 0.0 0.0 0.0 0.0 0.0 0.0 0.0 0.0 0.0 0.0 0.0 0.0 0.0 0.0 0.0 0.0 0.0 0.0 0.0 0.0 0.0 0.0 0.0 0.0 0.0 0.0 0.0 0.0 0.0 0.0 0.0 0.0 0.0 0.0 0.0 0.0 0.0 0.0 0.0 0.0 0.0 0.0 0.0 0.0 0.0 0.0 0.0 0.0 0.0 0.0 0.0 0.0 0.0 0.0 0.0 0.0 0.0 0.0 0.0 0.0 0.0 0.0 0.0 0.0 0.0 0.0 0.0 0.0 0.0 0.0 0.0 0.0 0.0 0.0 0.0 0.0 0.0 0.0 0.0 0.0 0.0 0.0 0.0 0.0 0.0 0.0 0.0 0.0 0.0 0.0 0.0 0.0 0.0 0.0 0.0 0.0 0.0 0.0 0.0 0.0 0.0 0.0 0.0 0.0 0.0 0.0 0.0 0.0 0.0 0.0 0.0 0.0 0.0 0.0 0.0 0.0 0.0 0.0 0.0 0.0 0.0 0.0 0.0 0.0 0.0 0.0 0.0 0.0 0.0 0.0 0.0 0.0 0.0 0.0 0.0 0.0 0.0 0.0 0.0 0.0 0.0 0.0 0.0 0.0 0.0 0.0 0.0 0.0 0.0 0.0 0.0 0.0 0.0 0.0 0.0 0.0 0.0 0.0 0.0 0.0 0.0 0.0 0.0 0.0 0.0 0.0 0.0 0.0 0.0 0.0 0.0 0.0 0.0 0.0 0.0 0.0 0.0 0.0 0.0 0.0 0.0 0.0 0.0 0.0 0.0 0.0 0.0 0.0 0.0 0.0 0.0 0.0 0.0 0.0 0.0 0.0 0.0 0.0 0.0 0.0 0.0 0.0 0.0 0.0 0.0 0.0 0.0 0.0 0.0 0.0 0.0 0.0 0.0 0.0 0.0 0.0 0.0 0.0 0.0 0.0 0.0 0.0 0.0 0.0 0.0 0.0 0.0 0.0 0.0 0.0 0.0 0.0 0.0 0.0 0.0 0.0 0.0 0.0 0.0 0.0 0.0 0.0 0.0 0.0 0.0 0.0 0.0 0.0 0.0 0.0 0.0 0.0 0.0 0.0 0.0 0.0 0.0 0.0 0.0 0.0 0.0 0.0 0.0 0.0 0.0 0.0 0.0 0.0 0.0 0.0 0.0 0.0 0.0 0.0 0.0 0.0 0.0 0.0 0.0 0.0 0.0 0.0 0.0 0.0 0.0 0.0 0.0 0.0 0.0 0.0 0.0 0.0 0.0 0.0 0.0 0.0 0.0 0.0 0.0 0.0 0.0 0.0 0.0 0.0 0.0 0.0 0.0 0.0 0.0 0.0 0.0 0.0 0.0 0.0 0.0 0.0 0.0 0.0 0.0 0.0 0.0 0.0 0.0 0.0 0.0 0.0 0.0 0.0 0.0 0.0 0.0 0.0 0.0 0.0 0.0 0.0 0.0 0.0 0.0 0.0 0.0 0.0 0.0 0.0 0.0 0.0 0.0 0.0 0.0 0.0 0.0 0.0 0.0 0.0 0.0 0.0 0.0 0.0 0.0 0.0 0.0 0.0 0.0 0.0 0.0 0.0 0.0 0.0 0.0 0.0 0.0 0.0 0.0 0.0 0.0 0.0 0.0 0.0 0.0 0.0 0.0 0.0 0.0 0.0 0.0 0.0 0.0 0.0 0.0 0.0 0.0 0.0 0.0 0.0 0.0 0.0 0.0 0.0 0.0 0.0 0.0 0.0 0.0 0.0 0.0 0.0 0.0 0.0 0.0 0.0 0.0 0.0 0.0 0.0 0.0 0.0 0.0 0.0 0.0 0.0 0.0 0.0 0.0 0.0 0.0 0.0 0.0 0.0 0.0 0.0 0.0 0.0 0.0 0.0 0.0 0.0 0.0 0.0 0.0 0.0 0.0 0.0 0.0 0.0 0.0 0.0 0.0 0.0 0.0 0.0 0.0 0.0 0.0 0.0 0.0 0.0 0.0 0.0 0.0 0.0 0.0 0.0 0.0 0.0 0.0 0.0 0.0 0.0 0.0 0.0 0.0 0.0 0.0 0.0 0.0 0.0 0.0 0.0 0.0 0.0 0.0 0.0 0.0 0.0 0.0 0.0 0.0 0.0 0.0 0.0 0.0 0.0 0.0 0.0 0.0 0.0 0.0 0.0 0.0 0.0 0.0 0.0 0.0 0.0 0.0 0.0 0.0 0.0 0.0 0.0 0.0 0.0 0.0 0.0 0.0 0.0 0.0 0.0 0.0 0.0 0.0 0.0 0.0 0.0 0.0 0.0 0.0 0.0 0.0 0.0 0.0 0.0 0.0 0.0 0.0 0.0 0.0 0.0 0.0 0.0 0.0 0.0 0.0 0.0 0.0 0.0 0.0 0.0 0.0 0.0 0.0 0.0 0.0 0.0 0.0 0.0 0.0 0.0 0.0 0.0 0.0 0.0 0.0 0.0 0.0 0.0 0.0 0.0 0.0 0.0 0.0 0.0 0.0 0.0 0.0 0.0 0.0 0.0 0.0 0.0 0.0 0.0 0.0 0.0 0.0 0.0 0.0 0.0 0.0 0.0 0.0 0.0 0.0 0.0 0.0 0.0 0.0 0.0 0.0 0.0 0.0 0.0 0.0 0.0 0.0 0.0 0.0 0.0 0.0 0.0 0.0 0.0 0.0 0.0 0.0 0.0 0.0 0.0 0.0 0.0 0.0 0.0 0.0 0.0 0.0 0.0 0.0 0.0 0.0 0.0 0.0 0.0 0.0 0.0 0.0 0.0 0.0 0.0 0.0 0.0 0.0 0.0 0.0 0.0 0.0 0.0 0.0 0.0 0.0 0.0 0.0 0.0 0.0 0.0 0.0 0.0 0.0 0.0 0.0 0.0 0.0 0.0 0.0 0.0 0.0 0.0 0.0 0.0 0.0 0.0 0.0 0.0 0.0 0.0 0.0 0.0 0.0 0.0 0.0 0.0 0.0 0.0 0.0 0.0 0.0 0.0 0.0 0.0 0.0 0.0 0.0 0.0 0.0 0.0 0.0 0.0 0.0 0.0 0.0 0.0 0.0 0.0 0.0 0.0 0.0 0.0 0.0 0.0 0.0 0.0 0.0 0.0 0.0 0.0 0.0 0.0 0.0 0.0 0.0 0.0 0.0 0.0 0.0 0.0 0.0 0.0 0.0 0.0 0.0 0.0 0.0 0.0 0.0 0.0 0.0 0.0 0.0 0.0 0.0 0.0 0.0 0.0 0.0 0.0 0.0 0.0 0.0 0.0 0.0 0.0 0.0 0.0 0.0 0.0 0.0 0.0 0.0 0.0 0.0 0.0 0.0 0.0 0.0 0.0 0.0 0.0 0.0 0.0 0.0 0.0 0.0 0.0 0.0 0.0 0.0 0.0 0.0 0.0 0.0 0.0 0.0 0.0 0.0 0.0 0.0 0.0 0.0 0.0 0.0 0.0 0.0 0.0 0.0 0.0 0.0 0.0 0.0 0.0 0.0 0.0 0.0 0.0 0.0 0.0 0.0 0.0 0.0 0.0 0.0 0.0 0.0 0.0 0.0 0.0 0.0 0.0 0.0 0.0 0.0 0.0 0.0 0.0 0.0 0.0 0.0 0.0 0.0 0.0 0.0 0.0 0.0 0.0 0.0 0.0 0.0 0.0 0.0 0.0 0.0 0.0 0.0 0.0 0.0 0.0 0.0 0.0 0.0 0.0 0.0 0.0 0.0 0.0 0.0 0.0 0.0 0.0 0.0 0.0 0.0 0.0 0.0 0.0 0.0 0.0 0.0 0.0 0.0 0.0 0.0 0.0 0.0 0.0 0.0 0.0 0.0 0.0 0.0 0.0 0.0 0.0 0.0 0.0 0.0 0.0 0.0 0.0 0.0 0.0 0.0 0.0 0.0 0.0 0.0 0.0 0.0 0.0 0.0 0.0 0.0 0.0 0.0 0.0 0.0 0.0 0.0 0.0 0.0 0.0 0.0 0.0 0.0 0.0 0.0 0.0 0.0 0.0 0.0 0.0 0.0 0.0 0.0 0.0 0.0 0.0 0.0 0.0 0.0 0.0 0.0 0.0 0.0 0.0 0.0 0.0 0.0 0.0 0.0 0.0 0.0 0.0 0.0 0.0 0.0 0.0 0.0 0.0 0.0 0.0 0.0 0.0 0.0 0.0 0.0 0.0 0.0 0.0 0.0 0.0 0.0 0.0 0.0 0.0 0.0 0.0 0.0 0.0 0.0 0.0 0.0 0.0 0.0 0.0 0.0 0.0 0.0 0.0 0.0 0.0 0.0 0.0 0.0 0.0 0.0 0.0 0.0 0.0 0.0 0.0 0.0 0.0 0.0 0.0 0.0 0.0 0.0 0.0 0.0 0.0 0.0 0.0 0.0 0.0 0.0 0.0 0.0 0.0 0.0 0.0 0.0 0.0 0.0 0.0 0.0 0.0 0.0 0.0 0.0 0.0 0.0 0.0 0.0 0.0 0.0 0.0 0.0 0.0 0.0 0.0 0.0 0.0 0.0 0.0 0.0 0.0 0.0 0.0 0.0 0.0 0.0 0.0 0.0 0.0 0.0 0.0 0.0 0.0 0.0 0.0 0.0 0.0 0.0 0.0 0.0 0.0 0.0 0.0 0.0 0.0 0.0 0.0 0.0 0.0 0.0 0.0 0.0 0.0 0.0 0.0 0.0 0.0 0.0 0.0 0.0 0.0 0.0 0.0 0.0 0.0 0.0 0.0 0.0 0.0 0.0 0.0 0.0 0.0 0.0 0.0 0.0 0.0 0.0 0.0 0.0 0.0 0.0 0.0 0.0 0.0 0.0 0.0 0.0 0.0 0.0 0.0 0.0 0.0 0.0 0.0 0.0 0.0 0.0 0.0 0.0 0.0 0.0 0.0 0.0 0.0 0.0 0.0 0.0 0.0 0.0 0.0 0.0 0.0 0.0 0.0 0.0 0.0 0.0 0.0 0.0 0.0 0.0 0.0 0.0 0.0 0.0 0.0 0.0 0.0 0.0 0.0 0.0 0.0 0.0 0.0 0.0 0.0 0.0 0.0 0.0 0.0 0.0 0.0 0.0 0.0 0.0 0.0 0.0 0.0 0.0 0.0 0.0 0.0 0.0 0.0 0.0 0.0 0.0 0.0 0.0 0.0 0.0 0.0 0.0 0.0 0.0 0.0 0.0 0.0 0.0 0.0 0.0 0.0 0.0 0.0 0.0 0.0 0.0 0.0 0.0 0.0 0.0 0.0 0.0 0.0 0.0 0.0 0.0 0.0 0.0 0.0 0.0 0.0 0.0 0.0 0.0 0.0 0.0 0.0 0.0 0.0 0.0 0.0 0.0 0.0 0.0 0.0 0.0 0.0 0.0 0.0 0.0 0.0 0.0 0.0 0.0 0.0 0.0 0.0 0.0 0.0 0.0 0.0 0.0 0.0 0.0 0.0 0.0 0.0 0.0 0.0 0.0 0.0 0.0 0.0 0.0 0.0 0.0 0.0 0.0 0.0 0.0 0.0 0.0 0.0 0.0 0.0 0.0 0.0 0.0 0.0 0.0 0.0 0.0 0.0 0.0 0.0 0.0 0.0 0.0 0.0 0.0 0.0 0.0 0.0 0.0 0.0 0.0 0.0 0.0 0.0 0.0 0.0 0.0 0.0 0.0 0.0 0.0 0.0 0.0 0.0 0.0 0.0 0.0 0.0 0.0 0.0 0.0 0.0 0.0 0.0 0.0 0.0 0.0 0.0 0.0 0.0 0.0 0.0 0.0 0.0 0.0 0.0 0.0 0.0 0.0 0.0 0.0 0.0 0.0 0.0 0.0 0.0 0.0 0.0 0.0 0.0 0.0 0.0 0.0 0.0 0.0 0.0 0.0 0.0 0.0 0.0 0.0 0.0 0.0 0.0 0.0 0.0 0.0 0.0 0.0 0.0 0.0 0.0 0.0 0.0 0.0 0.0 0.0 0.0 0.0 0.0 0.0 0.0 0.0 0.0 0.0 0.0 0.0 0.0 0.0 0.0 0.0 0.0 0.0 0.0 0.0 0.0 0.0 0.0 0.0 0.0 0.0 0.0 0.0 0.0 0.0 0.0 0.0 0.0 0.0 0.0 0.0 0.0 0.0 0.0 0.0 0.0 0.0 0.0 0.0 0.0 0.0 0.0 0.0 0.0 0.0 0.0 0.0 0.0 0.0 0.0 0.0 0.0 0.0 0.0 0.0 0.0 0.0 0.0 0.0 0.0 0.0 0.0 0.0 0.0 0.0 0.0 0.0 0.0 0.0 0.0 0.0 0.0 0.0 0.0 0.0 0.0 0.0 0.0 0.0 0.0 0.0 0.0 0.0 0.0 0.0 0.0 0.0 0.0 0.0 0.0 0.0 0.0 0.0 0.0 0.0 0.0 0.0 0.0 0.0 0.0 0.0 0.0 0.0 0.0 0.0 0.0 0.0 0.0 0.0 0.0 0.0 0.0 0.0 0.0 0.0 0.0 0.0 0.0 0.0 0.0 0.0 0.0 0.0 0.0 0.0 0.0 0.0 0.0 0.0 0.0 0.0 0.0 0.0 0.0 0.0 0.0 0.0 0.0 0.0 0.0 0.0 0.0 0.0 0.0 0.0 0.0 0.0 0.0 0.0 0.0 0.0 0.0 0.0 0.0 0.0 0.0 0.0 0.0 0.0 0.0 0.0 0.0 0.0 0.0 0.0 0.0 0.0 0.0 0.0 0.0 0.0 0.0 0.0 0.0 0.0 0.0 0.0 0.0 0.0 0.0 0.0 0.0 0.0 0.0 0.0 0.0 0.0 0.0 0.0 0.0 0.0 0.0 0.0 0.0 0.0 0.0 0.0 0.0 0.0 0.0 0.0 0.0 0.0 0.0 0.0 0.0 0.0 0.0 0.0 0.0 0.0 0.0 0.0 0.0 0.0 0.0 0.0 0.0 0.0 0.0 0.0 0.0 0.0 0.0 0.0 0.0 0.0 0.0 0.0 0.0 0.0 0.0 0.0 0.0 0.0 0.0 0.0 0.0 0.0 0.0 0.0 0.0 0.0 0.0 0.0 0.0 0.0 0.0 0.0 0.0 0.0 0.0 0.0 0.0 0.0 0.0 0.0 0.0 0.0 0.0 0.0 0.0 0.0 0.0 0.0 0.0 0.0 0.0 0.0 0.0 0.0 0.0 0.0 0.0 0.0 0.0 0.0 0.0 0.0 0.0 0.0 0.0 0.0 0.0 0.0 0.0 0.0 0.0 0.0 0.0 0.0 0.0 0.0 0.0 0.0 0.0 0.0 0.0 0.0 0.0 0.0 0.0 0.0 0.0 0.0 0.0 0.0 0.0 0.0 0.0 0.0 0.0 0.0 0.0 0.0 0.0 0.0 0.0 0.0 0.0 0.0 0.0 0.0 0.0 0.0 0.0 0.0 0.0 0.0 0.0 0.0 0.0 0.0 0.0 0.0 0.0 0.0 0.0 0.0 0.0 0.0 0.0 0.0 0.0 0.0 0.0 0.0 0.0 0.0 0.0 0.0 0.0 0.0 0.0 0.0 0.0 0.0 0.0 0.0 0.0 0.0 0.0 0.0 0.0 0.0 0.0 0.0 0.0 0.0 0.0 0.0 0.0 0.0 0.0 0.0 0.0 0.0 0.0 0.0 0.0 0.0 0.0 0.0 0.0 0.0 0.0 0.0 0.0 0.0 0.0 0.0 0.0 0.0 0.0 0.0 0.0 0.0 0.0 0.0 0.0 0.0 0.0 0.0 0.0 0.0 0.0 0.0 0.0 0.0 0.0 0.0 0.0 0.0 0.0 0.0 0.0 0.0 0.0 0.0 0.0 0.0 0.0 0.0 0.0 0.0 0.0 0.0 0.0 0.0 0.0 0.0 0.0 0.0 0.0 0.0 0.0 0.0 0.0 0.0 0.0 0.0 0.0 0.0 0.0 0.0 0.0 0.0 0.0 0.0 0.0 0.0 0.0 0.0 0.0 0.0 0.0 0.0 0.0 0.0 0.0 0.0 0.0 0.0 0.0 0.0 0.0 0.0 0.0 0.0 0.0 0.0 0.0 0.0 0.0 0.0 0.0 0.0 0.0 0.0 0.0 0.0 0.0 0.0 0.0 0.0 0.0 0.0 0.0 0.0 0.0 0.0 0.0 0.0 0.0 0.0 0.0 0.0 0.0 0.0 0.0 0.0 0.0 0.0 0.0 0.0 0.0 0.0 0.0 0.0 0.0 0.0 0.0 0.0 0.0 0.0 0.0 0.0 0.0 0.0 0.0 0.0 0.0 0.0 0.0 0.0 0.0 0.0 0.0 0.0 0.0 0.0 0.0 0.0 0.0 0.0 0.0 0.0 0.0 0.0 0.0 0.0 0.0 0.0 0.0 0.0 0.0 0.0 0.0 0.0 0.0 0.0 0.0 0.0 0.0 0.0 0.0 0.0 0.0 0.0 0.0 0.0 0.0 0.0 0.0 0.0 0.0 0.0 0.0 0.0 0.0 0.0 0.0 0.0 0.0 0.0 0.0 0.0 0.0 0.0 0.0 0.0 0.0 0.0 0.0 0.0 0.0 0.0 0.0 0.0 0.0 0.0 0.0 0.0 0.0 0.0 0.0 0.0 0.0 0.0 0.0 0.0 0.0 0.0 0.0 0.0 0.0 0.0 0.0 0.0 0.0 0.0 0.0 0.0 0.0 0.0 0.0 0.0 0.0 0.0 0.0 0.0 0.0 0.0 0.0 0.0 0.0 0.0 0.0 0.0 0.0 0.0 0.0 0.0 0.0 0.0 0.0 0.0 0.0 0.0 0.0 0.0 0.0 0.0 0.0 0.0 0.0 0.0 0.0 0.0 0.0 0.0 0.0 0.0 0.0 0.0 0.0 0.0 0.0 0.0 0.0 0.0 0.0 0.0 0.0 0.0 0.0 0.0 0.0 0.0 0.0 0.0 0.0 0.0 0.0 0.0 0.0 0.0 0.0 0.0 0.0 0.0 0.0 0.0 0.0 0.0 0.0 0.0 0.0 0.0 0.0 0.0 0.0 0.0 0.0 0.0 0.0 0.0 0.0 0.0 0.0 0.0 0.0 0.0 0.0 0.0 0.0 0.0 0.0 0.0 0.0 0.0 -2.5774236644355903e-05 0.0 -8.10462380261559e-06 -3.185665479641635e-05 0.0 -7.5629957890748905e-06 -3.708217812705443e-05 0.0 -6.80207257005181e-06 -4.15121170378029e-05 0.0 -5.91724654793116e-06 -4.51984171299604e-05 0.0 -5.0263561256589e-06 -3.530267928256696e-05 0.0 -1.529713798242844e-05 -4.8087241202181e-05 0.0 -1.5050001576250032e-05 -5.9406305485157603e-05 0.0 -1.404134715103367e-05 -6.900394972509871e-05 0.0 -1.263808711595217e-05 -7.707415792685391e-05 0.0 -1.10079442751986e-05 -8.37525940938148e-05 0.0 -9.36800223420005e-06 -6.47036256175906e-05 0.0 -2.758958228973954e-05 -8.765744619143611e-05 0.0 -2.724254228106354e-05 -0.00010780313869507841 0.0 -2.5321343033033562e-05 -0.0001248115591202889 0.0 -2.2748898968722457e-05 -0.0001390330634758265 0.0 -1.980785369519633e-05 -0.00015074544776863614 0.0 -1.686267682156691e-05 -0.00011547951888698793 0.0 -4.870204921755119e-05 -0.00015576712789417812 0.0 -4.79911891997797e-05 -0.0001907325287683131 0.0 -4.45105131127628e-05 -0.0002200181415004534 0.0 -3.991669899791745e-05 -0.00024433649010841213 0.0 -3.474099006852473e-05 -0.00026426599860664976 0.0 -2.9568631139215762e-05 -0.00020174875704371878 0.0 -8.42540621063515e-05 -0.00027094807877370183 0.0 -8.2655282066382e-05 -0.00033034568825864204 0.0 -7.642560191064001e-05 -0.0003796275334906881 0.0 -6.83921457098036e-05 -0.00042019425050485604 0.0 -5.94947774873694e-05 -0.00045324881133122004 0.0 -5.06188612654715e-05 -0.00034649193666229817 0.0 -0.00014319594757989862 -0.00046303665157591605 0.0 -0.0001396190874904771 -0.000561901934047548 0.0 -0.0001285381752134543 -0.000643093336077333 0.0 -0.00011470559086763971 -0.000709309737732743 0.0 -9.967427849185689e-05 -0.000762903299072582 0.0 -8.474662611866561e-05 -0.000586718974667974 0.0 -0.00023984714199617844 -0.0007796486994912171 0.0 -0.00023210517380262922 -0.000941265023531625 0.0 -0.0002125158253128955 -0.001072514266812856 0.0 -0.00018895214072380342 -0.001178493189462329 0.0 -0.0001637727160943178 -0.0012635047115876169 0.0 -0.0001389765674744141 -0.000982495904562397 0.0 -0.0003967029139175726 -0.001295966592399164 0.0 -0.0003805234415130858 -0.001554723598868089 0.0 -0.0003462000366550007 -0.0017625021240625523 0.0 -0.0003065448316636206 -0.0019288931682223283 0.0 -0.0002647147826178694 -0.0020612858915321462 0.0 -0.00022386047759651178 -0.001628373040709325 0.0 -0.0006468034561700859 -0.0021261975731549383 0.0 -0.000614445775361144 -0.0025306247832656186 0.0 -0.0005556178138904451 -0.002852211231305279 0.0 -0.0004902432922560821 -0.0031083234377080843 0.0 -0.00042181145054528605 -0.003310997122774926 0.0 -0.00035519011687975264 -0.0026691903067297563 0.0 -0.0010368792659219811 -0.0034408801260220013 0.0 -0.0009752438643810959 -0.00405743490143587 0.0 -0.0008778069419451731 -0.004544777713619439 0.0 -0.0007717250192931251 -0.00493048212326205 0.0 -0.000662700976567524 -0.00523525773088144 0.0 -0.0005555823738895591 -0.004321215708030389 0.0 -0.001641633401040834 -0.00549201973730049 0.0 -0.001524399798109994 -0.006411888560297211 0.0 -0.001363343794083594 -0.007135006178375151 0.0 -0.0011939735498493382 -0.00770261099256527 0.0 -0.0010254548256363701 -0.00815201140380028 0.0 -0.000855584101389602 -0.0068770321719258 0.0 -0.002793883989847098 -0.00863674741591868 0.0 -0.00247268926181723 -0.00998812784970319 0.0 -0.002141426933535672 -0.01103995987599899 0.0 -0.001840550686013766 -0.01185672629641815 0.0 -0.0015686991192174773 -0.012504618312615451 0.0 -0.0012973953524348832 -0.01107174627679365 0.0 -0.004983857324596431 -0.01349765113744127 0.0 -0.00417404730435118 -0.015381980384549502 0.0 -0.003425813565645337 -0.01685805802145144 0.0 -0.002837926230948154 -0.017996094049902343 0.0 -0.002374121619353039 -0.018903928072598192 0.0 -0.0019366056084151391 -0.01772151924303797 0.0 -0.0084370922109273 -0.02095167972379198 0.0 -0.00689685377242134 -0.023455964586399102 0.0 -0.0054217641355441 -0.02541742703543566 0.0 -0.004455208511380211 -0.026957372673934304 0.0 -0.003586219329655481 -0.028192386704809655 0.0 -0.002852823831320594 -0.027745268293631692 0.0 -0.013979582749489562 -0.03207686920192171 0.0 -0.0112132522803313 -0.035342646483566144 0.0 -0.0085106242127656 -0.03791376734784416 0.0 -0.006556550563913762 -0.039921540998038504 0.0 -0.00520750893018772 -0.041547345038683604 0.0 -0.00411694330292358 -0.042620465065511606 0.0 -0.021193215729830378 -0.0483804772095119 0.0 -0.01684692682117316 -0.052608133315203295 0.0 -0.01259894551497363 -0.0559118453977961 0.0 -0.00956089823902245 -0.0584960494624012 0.0 -0.00749015538725388 -0.0605885095147127 0.0 -0.005867356946683919 -0.0640669896016747 0.0 -0.03171275319281881 -0.07176636579415911 0.0 -0.02489624382240608 -0.0772700619317515 0.0 -0.018345504058637593 -0.0815245460381136 0.0 -0.013722397543059931 -0.0848170381204259 0.0 -0.0106298562657464 -0.0874786101869652 0.0 -0.00825022340625558 -0.09463053436576331 0.0 -0.047064925176623106 -0.10492867462321681 0.0 -0.03651396731284916 -0.1121249348031233 0.0 -0.026486617862165433 -0.1175760069394001 0.0 -0.01951543288788581 -0.1217206630430165 0.0 -0.01493545797338644 -0.1250249791256244 0.0 -0.011495671087391772 -0.13790581544764532 0.0 -0.0672369776809244 -0.15161691179042272 0.0 -0.051459349286483706 -0.1609238680230966 0.0 -0.03688335212208378 -0.167740684193517 0.0 -0.026999471074986757 -0.1727771563194288 0.0 -0.02060276611506914 -0.1767003084175076 0.0 -0.015874362396859052 -0.1989445129736127 0.0 -0.09584054639601361 -0.21684112942102812 0.0 -0.0721321658033041 -0.2284276297106906 0.0 -0.050959629273990704 -0.236490445912261 0.0 -0.037039158525978944 -0.2422021220550529 0.0 -0.028218508305462693 -0.24653514216337843 0.0 -0.02186554734663867 -0.284560567114014 0.0 -0.1338191433454785 -0.30705068767626703 0.0 -0.0990011904750297 -0.32056180001404483 0.0 -0.0690667577266689 -0.3292166322304156 0.0 -0.0500747172518679 -0.33493154837328853 0.0 -0.03831945455798635 -0.3391642644791064 0.0 -0.030095238352380944 -0.40376077009401906 0.0 -0.18661322866533062 -0.4305794907644869 0.0 -0.1349115273727881 -0.4448069711201739 0.0 -0.0924764183119104 -0.4525776113144401 0.0 -0.06710059367751481 -0.45702509142562703 0.0 -0.051790841294771 -0.46022025150550605 0.0 -0.041609001040225004 -0.568997654224941 0.0 -0.2565540624138514 -0.598542734963568 0.0 -0.1802673045066825 -0.610852495271312 0.0 -0.12219062305476551 -0.615096975377424 0.0 -0.0895575302389382 -0.616333815408345 0.0 -0.07031569775789241 -0.61719361542984 0.0 -0.057981981449549504 -0.7974659791763591 0.0 -0.3480784851254709 -0.825401588255429 0.0 -0.23791387732198502 -0.8308082300125871 0.0 -0.1603051240991484 -0.827414868909745 0.0 -0.12026519108617441 -0.822944507456878 0.0 -0.0968374394721576 -0.8199852664951249 0.0 -0.0819027106183723 -1.1128802485230342 0.0 -0.46979921328865604 -1.129126025581082 0.0 -0.31203700763851405 -1.118868090895325 0.0 -0.2111055778277377 -1.101727116812258 0.0 -0.1641829883919568 -1.088879503322278 0.0 -0.13682263966362082 -1.080845452760032 0.0 -0.1180504782453348 -1.54635739929632 0.0 -0.63263138341741 -1.53032980323431 0.0 -0.41049436361023994 -1.489212399029923 0.0 -0.28403873378290234 -1.44988090222469 0.0 -0.231013747779763 -1.4263157692032598 0.0 -0.198980947706125 -1.4129392731362351 0.0 -0.1720834422806729 -2.1364586857293 0.0 -0.8582627368270652 -2.049224178801033 0.0 -0.550842056512215 -1.9521918771020101 0.0 -0.3970109716773075 -1.88006695533957 0.0 -0.3375641035674705 -1.8419468018550598 0.0 -0.2982997110745395 -1.8274273070343956 0.0 -0.2502446622754023 -2.920747122320559 0.0 -1.187665770183108 -2.6968564632053993 0.0 -0.7732384849212001 -2.5079371933171495 0.0 -0.5852199896702999 -2.3948900159412694 0.0 -0.500997458649996 -2.3494272337734663 0.0 -0.4277081022207841 -2.3311440804757497 0.0 -0.35418392339523 -3.917571452460723 0.0 -1.710159047934423 -3.45988430384751 0.0 -1.1486813664676598 -3.144681377960947 0.0 -0.8867816884987779 -3.006427820000511 0.0 -0.716935910808405 -2.951818235031051 0.0 -0.590155813929497 -2.9202494963266026 0.0 -0.483718965503162 -5.0906104232093 0.0 -2.55313300441453 -4.3034890358822 0.0 -1.8026684116875753 -3.8958110559821355 0.0 -1.300294869205365 -3.7185747882127855 0.0 -0.9932715067811801 -3.625510895901995 0.0 -0.7921764168011651 -3.5694950838197146 0.0 -0.639367317518135 -6.306071228319201 0.0 -3.98418166142048 -5.291028615049199 0.0 -2.8707713608483982 -4.7689433094576 0.0 -1.941924810159568 -4.479774835843321 0.0 -1.3831836171037042 -4.332187676248739 0.0 -1.0441800106261019 -4.24008468334962 0.0 -0.818982455256342 -7.380542786778399 0.0 -6.348247484092 -6.1756650801648 0.0 -4.774597843284 -5.573358087728261 0.0 -3.1787477805418365 -5.2541793668776 0.0 -2.02175500929128 -5.0251255708005695 0.0 -1.390291803712311 -4.8758705139032 0.0 -1.02489601470048 -8.068317660333 0.0 -10.033372926401 -6.75833185416851 0.0 -7.95844943588772 -6.20122810321861 0.0 -5.3505351181828695 -5.917871377135901 0.0 -3.212796784666608 -5.67431962604786 0.0 -1.951085255832334 -5.469391004399971 0.0 -1.31401424969828 -8.213211901161 0.0 -14.536184778993999 -7.040433815931 0.0 -12.0304519915472 -6.599092620191441 0.0 -8.231506280289441 -6.39476059726539 0.0 -4.83693993865803 -6.15464004647373 0.0 -2.779725932237149 -5.920853104497881 0.0 -1.7300974747661237 -7.60864049036077 0.0 -18.50922003435022 -6.781150927248281 0.0 -15.66047832409708 -6.4841473701925 0.0 -10.827264958062498 -6.396043632375 0.0 -6.359536031015499 -6.229198119433501 0.0 -3.5698169813175995 -6.013342007362 0.0 -2.119340682367695 -6.08852960329912 0.0 -21.114663117175684 -5.7755329669752 0.0 -18.0449914662056 -5.634270086579029 0.0 -12.598586859328499 -5.56810121422431 0.0 -7.43392000912549 -5.45336998164238 0.0 -4.16572798108012 -5.3134544834767095 0.0 -2.445764290505327 -4.271950950109501 0.0 -22.632424322735524 -4.1944519768509005 0.0 -19.36002679428465 -4.109806713112319 0.0 -13.557409975148161 -4.02213782598792 0.0 -8.03078091941481 -3.915015661557228 0.0 -4.52815275254193 -3.8029824777662493 0.0 -2.6764796918397384 -2.631720789504491 0.0 -23.47137196463436 -2.5992038573810268 0.0 -20.04162664703931 -2.5538158103318316 0.0 -14.04231845311252 -2.4928429729890262 0.0 -8.3474098355543 -2.419675564195846 0.0 -4.738537313408139 -2.342218482626941 0.0 -2.8260782841975076 -1.3472721128257439 0.0 -23.90528244859104 -1.3380108475181103 0.0 -20.376270896673603 -1.318503489978192 0.0 -14.27450669821344 -1.2873082950849 0.0 -8.50652617814376 -1.24683258971475 0.0 -4.85390317822101 -1.2023539446475258 0.0 -2.915956537769547 -0.39772297485431996 0.0 -24.0920163014064 -0.402141213356805 0.0 -20.50708811417955 -0.4006196348069532 0.0 -14.360231000695322 -0.3928188565735632 0.0 -8.56777067320284 -0.3797871914067294 0.0 -4.90356092270331 -0.3637203049848456 0.0 -2.9593837590653163 0.3460051368950274 0.0 -24.109688787198632 0.332595720579108 0.0 -20.5042617086418 0.32046511785910203 0.0 -14.349350879724598 0.3094418957943621 0.0 -8.56163386460592 0.2998529316158046 0.0 -4.9044905815009505 0.2921485263414234 0.0 -2.9654977060118193 1.022719667717748 0.0 -23.9974755814638 1.0005990735486758 0.0 -20.40460491833452 0.975552414356088 0.0 -14.270096023104959 0.9477121018415201 0.0 -8.50554931406972 0.91854917961725 0.0 -4.86665700944316 0.890300361264383 0.0 -2.9399461228730948 1.7082865699840075 0.0 -23.576944331180517 1.6756728870092399 0.0 -20.04095776239774 1.6365966475075862 0.0 -14.006517114554459 1.59220656098352 0.0 -8.341262759136 1.544815713469827 0.0 -4.768069835040331 1.497782499687108 0.0 -2.877907093453185 2.402208725187396 0.0 -22.84040072795832 2.3574638397701344 0.0 -19.40552051258709 2.303574510773586 0.0 -13.55355920995938 2.2427054465202723 0.0 -8.06679647354484 2.177882790233724 0.0 -4.6084099662216005 2.1132300166720053 0.0 -2.780393634333315 3.0599576675325837 0.0 -21.8132360413344 3.002736637413465 0.0 -18.51869228076183 2.9344124263697373 0.0 -12.92377527763029 2.857892405947741 0.0 -7.688514382785601 2.7767704072857056 0.0 -4.39149211504848 2.6958515100585507 0.0 -2.6497914692732607 3.6270479192657845 0.0 -20.53769536171206 3.5585436276980724 0.0 -17.41647186822564 3.4774107687456186 0.0 -12.1417402854765 3.3870324318454474 0.0 -7.220017361041979 3.291510743509266 0.0 -4.1242711129083 3.1962989669106214 0.0 -2.4901730970406293 4.06029903564864 0.0 -19.071918041900968 3.969836130448713 0.0 -16.1456683521645 3.89147232003042 0.0 -11.2415113818618 3.7899043261948804 0.0 -6.6810020777589605 3.67999428238494 0.0 -3.817258213325628 3.5614561851256505 0.0 -2.3083305097296782 4.33841109359445 0.0 -17.4820223214489 4.23420223915275 0.0 -14.766924090316202 4.154428338386039 0.0 -10.26310317710436 4.04202501680229 0.0 -6.09388809252825 3.890555293925179 0.0 -3.483977811488964 3.714607666217574 0.0 -2.1175357898697302 4.50201457424236 0.0 -15.834890533037314 4.39317044690206 0.0 -13.346932170180379 4.2792485707405 0.0 -9.250384000747239 4.127014461574641 0.0 -5.484696570164 3.921145714029765 0.0 -3.13930557713548 3.70528915173365 0.0 -1.922616388974552 4.64521852365984 0.0 -14.198179901825279 4.485132855828479 0.0 -11.93662511748096 4.317582612790019 0.0 -8.25403912231794 4.11550844394378 0.0 -4.88628103406337 3.8580595673096516 0.0 -2.8003747168920423 3.618291272450526 0.0 -1.7318660960084222 4.88172535063136 0.0 -12.6304800284872 4.59977253747768 0.0 -10.59362256842244 4.336623053301199 0.0 -7.32341180187077 4.0736627825696 0.0 -4.33607644854736 3.755625012017296 0.0 -2.488371293279696 3.49004646746076 0.0 -1.55050342763228 5.2584069869889 0.0 -11.165812048652851 4.81036695255648 0.0 -9.3678195286872 4.3927628710992295 0.0 -6.508095315683759 4.0295870709494395 0.0 -3.8727949590570243 3.6341489644263 0.0 -2.229435471368505 3.34212958205874 0.0 -1.39904424974736 5.8201806022849505 0.0 -9.83985233029535 5.14286527138838 0.0 -8.29620872385522 4.5138552144527795 0.0 -5.84740596887788 3.9940093138101322 0.0 -3.528866646458328 3.5135821072600053 0.0 -2.0493391390874054 3.190773631534885 0.0 -1.280760402749465 6.52438486095364 0.0 -8.66943296617608 5.57164890005428 0.0 -7.40372708787476 4.7010115336632 0.0 -5.365243039937201 3.9799443628261884 0.0 -3.32601944214538 3.4106228145730597 0.0 -1.954227440799704 3.04628993968814 0.0 -1.2040735334488082 7.170572263792861 0.0 -7.64925758855028 5.98768459218825 0.0 -6.690236802574501 4.91056818054246 0.0 -5.05632164921442 4.001662427984589 0.0 -3.264838690506217 3.3375690164017024 0.0 -1.9513175937305074 2.9200607704071717 0.0 -1.17708065467641 6.21958140140166 0.0 -6.120210117899339 5.07607016424156 0.0 -4.86911048297664 4.06374548471736 0.0 -3.3244396701292436 3.3084354130884535 0.0 -2.03775733644795 2.826571291840583 0.0 -1.212891241730868 6.268891065293289 0.0 -5.61982722768075 5.183669216514669 0.0 -4.72901474795281 4.165626235172501 0.0 -3.454507347474953 3.340449396527838 0.0 -2.2096286279071062 2.779351270676536 0.0 -1.3154762994648719 5.24110847955318 0.0 -4.5835191811585805 4.30180960908534 0.0 -3.5936567258828274 3.4567142362289105 0.0 -2.454749395480278 2.807980859508033 0.0 -1.504125111973275 5.2979211554652 0.0 -4.39765277412132 4.48177991323428 0.0 -3.6835210917093244 3.669579774212605 0.0 -2.725603064716125 2.956784286377694 0.0 -1.782129294386691 4.65799136608836 0.0 -3.71300876685177 3.95435955812565 0.0 -2.959626793538298 3.2536444747196818 0.0 -2.096319852583572 4.2387775701498 0.0 -3.1183850726729094 3.6775640390964304 0.0 -2.36995765624566 4.459936782229611 0.0 -3.2006506972382365 4.0532177831854 0.0 -2.58325922636898 -4.82224572055614e-05 0.0 -4.1657153041428794e-06 -5.0659385266484606e-05 0.0 -3.3670738841768453e-06 -5.258459331461481e-05 0.0 -2.666313466657835e-06 -5.40807813520195e-05 0.0 -2.058360091459001e-06 -5.52185573804639e-05 0.0 -1.5497806387445149e-06 -5.60624294015607e-05 0.0 -1.1271789081794722e-06 -5.66644094166102e-05 0.0 -7.785510594637761e-07 -5.70653254266331e-05 0.0 -4.86800532170013e-07 -5.7294333432358307e-05 0.0 -2.3362698184067442e-07 -8.9211442230286e-05 0.0 -7.7832041945801e-06 -9.36002143400053e-05 0.0 -6.309141757728541e-06 -9.70635424265885e-05 0.0 -5.014523725363091e-06 -9.975621049390522e-05 0.0 -3.885779097144475e-06 -0.00010180589854514739 0.0 -2.939776353494407e-06 -0.0001033295545832388 0.0 -2.148024813700619e-06 -0.0001044193666104841 0.0 -1.490839477270986e-06 -0.0001051474146286853 0.0 -9.358335033958371e-07 -0.0001055642066391051 0.0 -4.5037857125946397e-07 -0.00016028497200712422 0.0 -1.4026057550651428e-05 -0.00016793533219838322 0.0 -1.13891802847295e-05 -0.00017396549634913732 0.0 -9.07164382679109e-06 -0.0001786503404662584 0.0 -7.0550641763766e-06 -0.00018221883255547071 0.0 -5.357220133930501e-06 -0.0001848745886218646 0.0 -3.930135898253395e-06 -0.0001867772366694308 0.0 -2.7389690284742244e-06 -0.00018805108870127707 0.0 -1.7250542831263558e-06 -0.0001887814287195356 0.0 -8.322330608058261e-07 -0.000280439327010983 0.0 -2.459583101489576e-05 -0.00029336531533413274 0.0 -2.00052445001311e-05 -0.00030354127158853156 0.0 -1.5955986398899653e-05 -0.00031143590778589755 0.0 -1.24428483110712e-05 -0.0003174497119362426 0.0 -9.470707436767682e-06 -0.0003219254640481364 0.0 -6.9697241742431e-06 -0.0003251347761283692 0.0 -4.87237732180943e-06 -0.00032728536418213396 0.0 -3.076314956907872e-06 -0.0003285199482129985 0.0 -1.4869094771727361e-06 -0.00047995657199891397 0.0 -4.2094765052369106e-05 -0.000501216692530417 0.0 -3.4281428857035705e-05 -0.000517924892948122 0.0 -2.7361632284040793e-05 -0.000530861173271529 0.0 -2.137716693442916e-05 -0.000540708613517715 0.0 -1.6292921207323022e-05 -0.000548031293700782 0.0 -1.2015437500385931e-05 -0.000553281333832033 0.0 -8.4150322103758e-06 -0.000556799773919994 0.0 -5.322748933068721e-06 -0.000558818693970467 0.0 -2.5760674244016844e-06 -0.000805983900149597 0.0 -7.04463817611595e-05 -0.0008401280610032011 0.0 -5.741535743538391e-05 -0.000866906741672668 0.0 -4.5833481145837005e-05 -0.000887587142189678 0.0 -3.584890609622263e-05 -0.0009033115825827892 0.0 -2.7336571083414266e-05 -0.000914987942874698 0.0 -2.0183569304589222e-05 -0.000923351983083799 0.0 -1.414685555367138e-05 -0.000928951183223779 0.0 -8.957823023945571e-06 -0.0009321639433040981 0.0 -4.33856650846416e-06 -0.0013312976332824401 0.0 -0.0001153997388849934 -0.001384732354618308 0.0 -9.40983023524575e-05 -0.0014266199956654991 0.0 -7.51192218779805e-05 -0.00145894683647367 0.0 -5.879540946988519e-05 -0.001483507477087686 0.0 -4.48313971207849e-05 -0.00150171643754291 0.0 -3.311916762797917e-05 -0.001514746957868673 0.0 -2.321663698041591e-05 -0.001523460198086504 0.0 -1.470773756769343e-05 -0.001528457678211441 0.0 -7.12567497814187e-06 -0.002166002494150061 0.0 -0.0001853191326329782 -0.002247840576196013 0.0 -0.0001509498477737461 -0.0023117071777926782 0.0 -0.00012053375101334372 -0.002361035979025898 0.0 -9.44447543611188e-05 -0.002398639419965984 0.0 -7.201730980043272e-05 -0.002426515220662879 0.0 -5.3224125330603105e-05 -0.0024464468211611687 0.0 -3.7306725732668126e-05 -0.0024597658614941447 0.0 -2.364063019101574e-05 -0.002467398021684949 0.0 -1.1454305486357631e-05 -0.0034702518067562934 0.0 -0.0002928062433201559 -0.003593927329848181 0.0 -0.0002378510379462758 -0.003690099812252493 0.0 -0.00018979698074492442 -0.0037643772541094294 0.0 -0.0001489814277245356 -0.0038213183355329567 0.0 -0.00011378887884472189 -0.0038637553365938816 0.0 -8.41461741036543e-05 -0.0038941060173526476 0.0 -5.894386147359651e-05 -0.003914300457857509 0.0 -3.733988653349715e-05 -0.003925825018145623 0.0 -1.808919965222998e-05 -0.00547364893684122 0.0 -0.0004563880914097021 -0.005658404541460111 0.0 -0.00036984175324604365 -0.00580205014505125 0.0 -0.0002949002273725055 -0.00591312494782812 0.0 -0.00023197527779938182 -0.00599867174996679 0.0 -0.0001777569564439238 -0.006062905351572631 0.0 -0.0001317613432940335 -0.006109150552728761 0.0 -9.22870943071773e-05 -0.006139946153498651 0.0 -5.8374241459356e-05 -0.0061574481539362 0.0 -2.8208527505213174e-05 -0.00850147781253694 0.0 -0.000701730497543262 -0.008772334619308361 0.0 -0.00056797561419939 -0.00898312502457812 0.0 -0.000452780251319506 -0.00914633462865836 0.0 -0.0003571431929285796 -0.00927263143181578 0.0 -0.0002747761388694033 -0.009368120234203001 0.0 -0.00020450398511259952 -0.009437434635935861 0.0 -0.00014353857158846422 -0.00948389783709744 0.0 -9.07927062698176e-05 -0.00951043743776093 0.0 -4.37997130949928e-05 -0.01300461192511529 0.0 -0.0010617237865430942 -0.013391655934791389 0.0 -0.000859150581478764 -0.013692930742323261 0.0 -0.000685029857125746 -0.01392602354815058 0.0 -0.0005420709335517731 -0.0141069923526748 0.0 -0.000418819450470486 -0.01424453595611339 0.0 -0.0003132914518322861 -0.014345172358629301 0.0 -0.00022078292151957296 -0.014413243960331092 0.0 -0.0001399914754997868 -0.014452479961311989 0.0 -6.764053369101331e-05 -0.019599982089999544 0.0 -0.001577965039449125 -0.020137464103436593 0.0 -0.001275473591886839 -0.02055435091385876 0.0 -0.001017891345447283 -0.02087611892190296 0.0 -0.0008081835802045891 -0.02112629772815743 0.0 -0.000626772975669324 -0.021316724132918092 0.0 -0.000471093571777339 -0.02145666973641673 0.0 -0.00033352608833815207 -0.02155198493879961 0.0 -0.00021237705730942633 -0.02160736094018401 0.0 -0.0001029527785738194 -0.02913616352840407 0.0 -0.002301997937549947 -0.02985850954646272 0.0 -0.001857176646429415 -0.030415687560392174 0.0 -0.001482292477057311 -0.030843392771084797 0.0 -0.0011804403895110092 -0.031175894379397346 0.0 -0.000918654542966363 -0.03142902638572564 0.0 -0.000693051017326275 -0.03161534439038359 0.0 -0.000492560252314006 -0.03174267479356685 0.0 -0.00031496482787412054 -0.0318170167954254 0.0 -0.00015319765582994132 -0.042787713069692805 0.0 -0.00330100848252521 -0.0437286890932172 0.0 -0.0026560620264015487 -0.0444476971111924 0.0 -0.002119352532983812 -0.0449955851248896 0.0 -0.00169075004226875 -0.045420917135522904 0.0 -0.001318909152972728 -0.045744505143612606 0.0 -0.000997651024941275 -0.0459835131495878 0.0 -0.000711345177783629 -0.0461477011536925 0.0 -0.00045650161141254 -0.046243909156097704 0.0 -0.00022268838156720944 -0.0621741135543528 0.0 -0.00467306291682657 -0.0633645415841135 0.0 -0.003747708053692699 -0.06426611760665289 0.0 -0.002984641554616037 -0.0649458856236471 0.0 -0.00238085805952145 -0.0654709136367728 0.0 -0.001859864646496615 -0.0658717456467936 0.0 -0.0014100282752507061 -0.0661705696542642 0.0 -0.001008864065221601 -0.066377641659441 0.0 -0.000649745376243634 -0.0664998616624965 0.0 -0.00031770906394272644 -0.08946462623661561 0.0 -0.0065354965633874105 -0.0909362942734073 0.0 -0.005227798530694961 -0.09204305830107641 0.0 -0.004160605704015141 -0.0928722103218052 0.0 -0.0033151869628796717 -0.0935122503378062 0.0 -0.0025923031048075765 -0.0940042983501074 0.0 -0.0019704396492609905 -0.09437497035937421 0.0 -0.001414784075369601 -0.0946343343658583 0.0 -0.000914099662852491 -0.09478832236970801 0.0 -0.000447838851195971 -0.1274524951863123 0.0 -0.009083273427081831 -0.1292328512308212 0.0 -0.00725471098136777 -0.1305644552641113 0.0 -0.00578481574462039 -0.1315666232891655 0.0 -0.0046074873151871806 -0.1323477793086944 0.0 -0.003607132730178316 -0.1329552793238819 0.0 -0.002746122948653072 -0.1334168473354211 0.0 -0.001976391889409796 -0.1337423353435583 0.0 -0.001279467271986681 -0.1339368633484215 0.0 -0.000627562295689057 -0.1795441204886029 0.0 -0.01258395351459883 -0.18162100854052513 0.0 -0.0100833282520832 -0.1831749845793745 0.0 -0.00807475860186896 -0.1843683406092084 0.0 -0.00643741656093541 -0.18531760463294 0.0 -0.0050456633261415805 -0.18607062465176552 0.0 -0.003841268736031716 -0.1866496126662402 0.0 -0.002765565069139125 -0.1870614806765369 0.0 -0.0017907336847683409 -0.18730873268271822 0.0 -0.0008784349419608731 -0.24964283024107062 0.0 -0.01746249083656226 -0.251927646298191 0.0 -0.01408514995212874 -0.25366044634151097 0.0 -0.01134764188369104 -0.255042846376071 0.0 -0.00906563862664096 -0.25618239040455965 0.0 -0.0071075537776888395 -0.2571129144278227 0.0 -0.0054037441350936 -0.2578422624460564 0.0 -0.0038836792970919805 -0.258365686459142 0.0 -0.002510665622766639 -0.258681326467033 0.0 -0.001230242590756064 -0.3421879605546988 0.0 -0.024336149408403722 -0.3444685086117125 0.0 -0.01981970129549252 -0.3462696406567408 0.0 -0.01606913080172826 -0.3477946126948651 0.0 -0.012862608321565201 -0.34911990872799753 0.0 -0.01006525785163144 -0.35024310075607734 0.0 -0.007631110590777761 -0.35114622877865553 0.0 -0.00546280173657004 -0.3518035727950891 0.0 -0.003521199968029997 -0.3522024968050622 0.0 -0.0017215570830389263 -0.462581411564535 0.0 -0.034157068453926694 -0.464484171612104 0.0 -0.028121692703042298 -0.46612737165318396 0.0 -0.02289183177229578 -0.46765209169130195 0.0 -0.018328281258207024 -0.469090731727268 0.0 -0.01426818995670474 -0.470376451759411 0.0 -0.010757368268934201 -0.4714500917862521 0.0 -0.00766040779151019 -0.47225153180628804 0.0 -0.00491473572286839 -0.4727448118186201 0.0 -0.002398832379970808 -0.6180540554513511 0.0 -0.04839620920990521 -0.6190200954755021 0.0 -0.040198453004961304 -0.620106135502653 0.0 -0.03269975881749395 -0.621323175533079 0.0 -0.026090631452265773 -0.622680295567007 0.0 -0.02013706010342649 -0.6240238156005949 0.0 -0.015033328775833212 -0.625212575630314 0.0 -0.01066303146657578 -0.62614601565365 0.0 -0.006801221770030541 -0.626732095668302 0.0 -0.003315112442877809 -0.8185379069516 0.0 -0.0692174619565385 -0.817853386694905 0.0 -0.0577224096458955 -0.817786826669945 0.0 -0.046640313490110996 -0.818233786837555 0.0 -0.03671527976822475 -0.819098826207032 0.0 -0.02816432435340244 -0.8202662265864369 0.0 -0.02078666475566385 -0.821439266967675 0.0 -0.014676873569982362 -0.82244894841824 0.0 -0.00930046948767475 -0.82310886866571 0.0 -0.00452811489804245 -1.076577090404758 0.0 -0.09982534481650202 -1.07354712773916 0.0 -0.0828974652595435 -1.071583325529885 0.0 -0.066077498337102 -1.070537083772639 0.0 -0.0512065499263375 -1.070323243838226 0.0 -0.03895562210336027 -1.0709374044830942 0.0 -0.028425207846436904 -1.071885565478662 0.0 -0.01987911607304996 -1.07285812649985 0.0 -0.012548669976089643 -1.073548687224938 0.0 -0.006092095596693661 -1.4057753775547959 0.0 -0.1441512975283902 -1.40013323029268 0.0 -0.117006531264103 -1.395077514286994 0.0 -0.09275898975036391 -1.391576266671797 0.0 -0.07086787013728231 -1.38961142239827 0.0 -0.0530976274870886 -1.389140477188876 0.0 -0.038470378787625804 -1.38959231813774 0.0 -0.02660200506409332 -1.3903788483453698 0.0 -0.0167033319824124 -1.39104260983883 0.0 -0.0080691309555038 -1.8181013121582479 0.0 -0.2048422420140264 -1.80857563745793 0.0 -0.164335350547857 -1.79954595711576 0.0 -0.1286649697178664 -1.7925458881548657 0.0 -0.09730727859934168 -1.788016525633728 0.0 -0.0718498694664288 -1.7859087125653679 0.0 -0.0515050873295616 -1.7855710443879957 0.0 -0.03518715839803344 -1.786016607183885 0.0 -0.021959768996685777 -1.7865880507696705 0.0 -0.010536743317649429 -2.3167748332267983 0.0 -0.2878455718268163 -2.3029142617486498 0.0 -0.22779863366764497 -2.288747619893955 0.0 -0.17624843477232122 -2.2770780711420566 0.0 -0.1319926389464022 -2.2691809135906498 0.0 -0.09622333960386 -2.26493492459445 0.0 -0.06822790468543499 -2.26344298035075 0.0 -0.04603471605197999 -2.2634065397586003 0.0 -0.028499759513566494 -2.263816196196093 0.0 -0.013557127716496982 -2.8968664751177533 0.0 -0.3905252314445868 -2.8735967788581545 0.0 -0.3079097513710772 -2.852378292181221 0.0 -0.23670948983546358 -2.834741041907957 0.0 -0.1758793411947505 -2.822536920588 0.0 -0.12650807048595003 -2.8154994415677637 0.0 -0.08896170923296319 -2.8125578149445922 0.0 -0.059317579478998496 -2.811845023707885 0.0 -0.0363671297196152 -2.8120273408139997 0.0 -0.01719872361124 -3.526489268851415 0.0 -0.5166386459558999 -3.4918260267222143 0.0 -0.40169900268316 -3.458663020198338 0.0 -0.308001433383687 -3.4330705351620754 0.0 -0.229013017528637 -3.415718511718325 0.0 -0.163041220465008 -3.405331925183574 0.0 -0.11305071452528699 -3.400602909066735 0.0 -0.07487558734708101 -3.39909021266909 0.0 -0.045282176417996 -3.39895819727459 0.0 -0.02135906151006955 -4.169625421639319 0.0 -0.644348557921122 -4.10917117903272 0.0 -0.5117635892249459 -4.06310508120972 0.0 -0.384749160714776 -4.02557235234156 0.0 -0.2852121573108702 -4.000789954031958 0.0 -0.20384728873648558 -3.9865855657536082 0.0 -0.1397024619154688 -3.979703226384116 0.0 -0.0917312470566734 -3.9773245918959796 0.0 -0.0549118408814092 -3.9768017941109646 0.0 -0.025640671382412324 -4.77304796142668 0.0 -0.7924179787459229 -4.68691387990045 0.0 -0.6124084000828479 -4.6179069682368 0.0 -0.46846545918559995 -4.56899954502881 0.0 -0.34033431397197833 -4.533863196724 0.0 -0.24175816509537598 -4.51399764673896 0.0 -0.1638043954488541 -4.50373220020031 0.0 -0.1057549024386239 -4.49905046713912 0.0 -0.0626394298519966 -4.4974673188444205 0.0 -0.029067753125129166 -5.312691148495761 0.0 -0.9755006249076081 -5.20219818740545 0.0 -0.745080187768917 -5.11475182043612 0.0 -0.557547334710756 -5.048049783486539 0.0 -0.40112645833382904 -5.00437384283698 0.0 -0.274081108064406 -4.97806961172046 0.0 -0.17800793574059298 -4.96213210511702 0.0 -0.11103171396424809 -4.95398428320853 0.0 -0.06478672949072169 -4.95026948108246 0.0 -0.02917192189297882 -5.72579514767092 0.0 -1.208832449979658 -5.58597562924288 0.0 -0.90916733351368 -5.48412155923975 0.0 -0.67576545276793 -5.41093069686684 0.0 -0.479525617797512 -5.358202807351881 0.0 -0.31819364185072324 -5.32176596984893 0.0 -0.1993683378824214 -5.29843633480236 0.0 -0.1184183756606788 -5.28486759757848 0.0 -0.06573444444083361 -5.27744084623084 0.0 -0.028569626150185518 -5.82028349487293 0.0 -1.431054806660421 -5.6793636978415 0.0 -1.0661568772616998 -5.577333192767999 0.0 -0.7925875178137499 -5.50272120131636 0.0 -0.551484893304123 -5.4500933226361505 0.0 -0.35822881608835727 -5.41514116498656 0.0 -0.2174163999117088 -5.3933208004879996 0.0 -0.1237895194050304 -5.380166139284801 0.0 -0.064478627310272 -5.37356513189824 0.0 -0.027248649489610883 -5.1784658302965 0.0 -1.6218317966230802 -5.06661599355986 0.0 -1.202747345334833 -4.98093721176282 0.0 -0.89222103064206 -4.91969078200012 0.0 -0.616007360731728 -4.87877572751676 0.0 -0.39170505108164116 -4.85360582205814 0.0 -0.22813791441060619 -4.83941819359687 0.0 -0.1215282579132527 -4.83214193011179 0.0 -0.0586089735027467 -4.8288704228134 0.0 -0.02301041382565862 -3.6985532461837525 0.0 -1.7829755426722111 -3.610364075817618 0.0 -1.324800549503403 -3.54165549441453 0.0 -0.9832711461312061 -3.4919134328596146 0.0 -0.6786123727995721 -3.4587939221761617 0.0 -0.43096725209256 -3.438686745556527 0.0 -0.2503719676793283 -3.4275941237336394 0.0 -0.132846900762744 -3.4220677521953795 0.0 -0.0637264205903331 -3.4196567541708895 0.0 -0.02490018230764269 -2.269266124745569 0.0 -1.897738553044894 -2.2069070907353603 0.0 -1.4155754607616 -2.15750267734144 0.0 -1.05187422510208 -2.12136744668928 0.0 -0.72636002433408 -2.09721804731136 0.0 -0.46130453609856004 -2.082552555274026 0.0 -0.2678871058524518 -2.074475936568852 0.0 -0.14202156415436298 -2.07045026237312 0.0 -0.06803909193023999 -2.0687000806655997 0.0 -0.026555551663116798 -1.1593457662973399 0.0 -1.97169082491888 -1.1215469019492 0.0 -1.4762897343930599 -1.0908787899319863 0.0 -1.0985381485212902 -1.06819182396126 0.0 -0.75904776877266 -1.0529859116109601 0.0 -0.482086642919655 -1.043771578764675 0.0 -0.2798627400456612 -1.038708668808 0.0 -0.14828157782528398 -1.0361928136846499 0.0 -0.07099656124779241 -1.0350958860739798 0.0 -0.027697812884991 -0.3467997057920265 0.0 -2.0104531280090554 -0.330810684107883 0.0 -1.5095048907205049 -0.317236955050758 0.0 -1.124562547305972 -0.3070134897031629 0.0 -0.777384162752631 -0.3001676696281998 0.0 -0.49372699445832 -0.2960452649021715 0.0 -0.28654071084860855 -0.29379706676370904 0.0 -0.15176113506234 -0.2926936854719244 0.0 -0.0726344170036884 -0.2922104310215985 0.0 -0.028318716987617697 0.28677614673909146 0.0 -2.019080918738295 0.28361614716846845 0.0 -1.518343751053866 0.2819134452983448 0.0 -1.1319883090042318 0.2809018386818946 0.0 -0.7826921762604541 0.28021093242982287 0.0 -0.497058711397794 0.2797463693217168 0.0 -0.28840709130725967 0.2794457166864924 0.0 -0.1527152624852316 0.279288124005516 0.0 -0.0730843872295776 0.2792210296117653 0.0 -0.02849263598198619 0.8653158209369639 0.0 -2.001341668204853 0.8450459460137781 0.0 -1.505598570020501 0.829637705466572 0.0 -1.1228663836920338 0.818583691808641 0.0 -0.7764171457708219 0.81118640512064 0.0 -0.49301057063776005 0.806627589161881 0.0 -0.2860076090760245 0.804073283408666 0.0 -0.1514231203827947 0.802787235339474 0.0 -0.07245602612651031 0.802218224126247 0.0 -0.028253554032194563 1.454865533351118 0.0 -1.9583404163574933 1.41894890583792 0.0 -1.473388587924 1.3911496256361693 0.0 -1.098979892844399 1.37108719037472 0.0 -0.7598622619262401 1.3577074046822522 0.0 -0.48243040289408706 1.349518266292878 0.0 -0.27983157105016077 1.344953296517358 0.0 -0.1481402925549426 1.342642862835054 0.0 -0.0708862023358038 1.34162686793454 0.0 -0.02764715356481562 2.0536727548097877 0.0 -1.8917835248053438 2.0034029474416557 0.0 -1.4235084286449422 1.9643868820721815 0.0 -1.06188263443341 1.9362853350084779 0.0 -0.7341714066954179 1.917572959807164 0.0 -0.46605938727858004 1.9061544848299803 0.0 -0.270306290021229 1.8998014491282962 0.0 -0.1430951910502074 1.8965907133112039 0.0 -0.068472898206357 1.8951624526193398 0.0 -0.026714551028335257 2.62112052720252 0.0 -1.80366411454866 2.5579707416374498 0.0 -1.3577788029217979 2.5090353454905183 0.0 -1.0130648988799709 2.473885725933522 0.0 -0.7004397936749579 2.4505246378326784 0.0 -0.44461883382109796 2.43629838243498 0.0 -0.257854377959052 2.428388062682385 0.0 -0.1365094126707657 2.4243896383011507 0.0 -0.0653316137159253 2.4226136669890708 0.0 -0.02548205388350064 3.108114466341984 0.0 -1.6967545254798602 3.03370152980976 0.0 -1.2784140646848 2.97623912877144 0.0 -0.95428795386393 2.935013093352318 0.0 -0.6599259922061731 2.907669487608 0.0 -0.41893429123944004 2.890904367665688 0.0 -0.2429882716836696 2.881541015916684 0.0 -0.1286895897896928 2.87675676742962 0.0 -0.061626762686904604 2.874630336661008 0.0 -0.0240609562654626 3.445777743642429 0.0 -1.5779780006027249 3.3516661241059222 0.0 -1.192170901412682 3.2793373316738967 0.0 -0.8912724902791561 3.226120875062976 0.0 -0.618322080603216 3.1885441345328043 0.0 -0.39481230079660107 3.164007718618878 0.0 -0.2315449238529207 3.1483017176677768 0.0 -0.12511893705297328 3.1392502102841036 0.0 -0.061629744693497406 3.135074412090201 0.0 -0.024903229124568056 3.5537849896903824 0.0 -1.4618720342667209 3.4318198208741375 0.0 -1.1106434086365868 3.3428981046147306 0.0 -0.8327285910080641 3.2772858298570107 0.0 -0.580623894875976 3.228982068263928 0.0 -0.3762365607195696 3.19704017666814 0.0 -0.2271174462650718 3.1756457320715517 0.0 -0.1296249335779128 3.1617344672600876 0.0 -0.0679864645849584 3.15422299485063 0.0 -0.028982873174145846 3.5220338796308748 0.0 -1.3421746208881202 3.3918689835036315 0.0 -1.02202843926176 3.296581973427895 0.0 -0.7684817610827249 3.2273710362032304 0.0 -0.54144114365191 3.1787982666805403 0.0 -0.3575401776405935 3.142285739058305 0.0 -0.218768090554673 3.1182965885050202 0.0 -0.1264006475463145 3.1053408744154147 0.0 -0.0683043929409595 3.0983572829107846 0.0 -0.029961789411550803 3.42938629987092 0.0 -1.219163951755818 3.295313666085366 0.0 -0.936524168783208 3.1992765496242237 0.0 -0.7074757160322239 3.128918455788642 0.0 -0.50178680761905 3.078170323041948 0.0 -0.33125622150587997 3.0470442428487474 0.0 -0.20760455247364287 3.028295309732064 0.0 -0.12330289176218968 3.017400445293624 0.0 -0.06893553310912799 3.012003293233374 0.0 -0.031323366721386 3.3007560475250237 0.0 -1.10613734613624 3.174191994624464 0.0 -0.853858399362496 3.0779363200199255 0.0 -0.64688951506219 3.00898835555963 0.0 -0.46053104562344 2.9626592973443335 0.0 -0.31049397673007456 2.934845878956566 0.0 -0.2012771408260286 2.918159786592512 0.0 -0.1249434444997552 2.9089810376117926 0.0 -0.0726341662736976 2.904808300931924 0.0 -0.03247118035159458 3.16004280056709 0.0 -1.002745963040385 3.0309258678531843 0.0 -0.779961111497568 2.9381885734070705 0.0 -0.590102767882815 2.869701147507885 0.0 -0.42487754459223004 2.824740346955796 0.0 -0.2948129432749626 2.79665378870169 0.0 -0.19680671147897252 2.781504138670245 0.0 -0.1262634811678545 2.7733504567737897 0.0 -0.07305021973315201 2.7692309223007356 0.0 -0.0335800724584203 3.002974557585637 0.0 -0.9194320560922671 2.873504937826325 0.0 -0.7095942870830001 2.780135238609918 0.0 -0.5414078938469039 2.7125169178776636 0.0 -0.39657051057883075 2.6653992101736517 0.0 -0.2796318573183078 2.637751618694674 0.0 -0.1901605988052984 2.6221941775305213 0.0 -0.1230250540477832 2.613413202263348 0.0 -0.0729586729203514 2.6093389262032383 0.0 -0.03408417970869766 2.8366909680768395 0.0 -0.8522122424480318 2.702332869630752 0.0 -0.647243514770648 2.6094896439522435 0.0 -0.497447451626784 2.53755724240004 0.0 -0.369075796342435 2.490517723500648 0.0 -0.2644852312441908 2.4615606256345877 0.0 -0.1830960307947812 2.443895872747188 0.0 -0.1202661354507516 2.4342633456784237 0.0 -0.0719761721035208 2.4293746453745544 0.0 -0.03432404396560872 2.674768524140988 0.0 -0.8014128803294219 2.535211153803294 0.0 -0.595916158919076 2.4335507343269516 0.0 -0.453873781839384 2.360825368510932 0.0 -0.3430725097681062 2.3107079323100703 0.0 -0.25019364287470497 2.2779144229957202 0.0 -0.1760096651727096 2.2580320477652283 0.0 -0.1170237195790938 2.2465230747201 0.0 -0.07131103522882021 2.240535328507386 0.0 -0.0339044020814448 2.5375888907588275 0.0 -0.7790210899048919 2.370958415815572 0.0 -0.550550734095771 2.266190972167716 0.0 -0.41498153152399797 2.188206159951036 0.0 -0.3165284604668004 2.1349371817742755 0.0 -0.2337586465561446 2.0992686182964237 0.0 -0.169389739980846 2.0752509588768357 0.0 -0.1146002034039924 2.060790247295874 0.0 -0.07087403711091779 2.053259852353437 0.0 -0.033634121591149764 2.435314592840703 0.0 -0.800436856055998 2.2331166779253677 0.0 -0.525476179037436 2.11283929317338 0.0 -0.3791343525802632 2.029932433673928 0.0 -0.2880070842482869 1.97213262568462 0.0 -0.21656475575872622 1.9321187936630089 0.0 -0.158839859182515 1.905589118763124 0.0 -0.1113239609383668 1.8877422285537342 0.0 -0.0699343079383753 1.87840582585788 0.0 -0.03334859354204476 2.38518887766471 0.0 -0.885039002481933 2.1341187344254053 0.0 -0.5400910356822629 1.9839841892195131 0.0 -0.3552871188369321 1.8893412531890401 0.0 -0.2604791049899472 1.828767374537166 0.0 -0.19530451136471041 1.783713126355809 0.0 -0.1448757505600779 1.7541499477071356 0.0 -0.1033292534003856 1.7351119248067859 0.0 -0.0666880498357182 1.7241773137783922 0.0 -0.03205836976393722 2.426068427567337 0.0 -1.0630529709451861 2.094370820679273 0.0 -0.618071008495515 1.9005425310599278 0.0 -0.37278588750975356 1.7820167919895078 0.0 -0.2445670709934876 1.70404534929192 0.0 -0.173086015037874 1.657306797849897 0.0 -0.1276724624680863 1.6233157937547 0.0 -0.08872297345911301 1.6022469871763638 0.0 -0.05773311780208199 1.5909777483717598 0.0 -0.0280000514952672 2.639721799911033 0.0 -1.346464870533897 2.17664125516656 0.0 -0.8049808045046879 1.8857391548280062 0.0 -0.46496998577299203 1.7196097633085219 0.0 -0.2729336691214761 1.6156799716367518 0.0 -0.171218594127168 1.55096605891212 0.0 -0.1121348501418618 1.511762436327024 0.0 -0.07406982451441439 1.487311765628874 0.0 -0.046499167913817 1.473818212315545 0.0 -0.022426783033214853 3.0744259301222394 0.0 -1.6594538767811877 2.49607222002363 0.0 -1.0942302796707 2.04581442274104 0.0 -0.6824228050491389 1.7574324965928956 0.0 -0.39835027620379676 1.5850924995406679 0.0 -0.22932671004695157 1.48961088625905 0.0 -0.132235010248239 1.4316147024555 0.0 -0.07505569478728799 1.39940965307565 0.0 -0.040198314405366004 1.383338677324884 0.0 -0.01727908782696957 3.5801223731842877 0.0 -1.961777331877504 3.048642013125628 0.0 -1.4050219142781621 2.518506363118946 0.0 -0.964920265857828 2.062685502268916 0.0 -0.642703585730398 1.737610827907295 0.0 -0.40472478546682605 1.5421143440214269 0.0 -0.2352022642752057 1.4308927712146458 0.0 -0.1264636790096858 1.3715280189344718 0.0 -0.0625974947950618 1.3428738971034397 0.0 -0.025804882226569917 3.8932595116941924 0.0 -2.2370336135443 3.5442230164571997 0.0 -1.7198011977728398 3.1346655446579197 0.0 -1.2671132790548398 2.695515583402029 0.0 -0.9064525817388489 2.2884521183831996 0.0 -0.6276051041736 1.9616404440556 0.0 -0.41392596914535995 1.7330469222737999 0.0 -0.25241741637072795 1.5937699126770482 0.0 -0.13757856567194782 1.52217299678948 0.0 -0.059577197495004 3.7585044998098995 0.0 -2.008502803586125 3.559015133759008 0.0 -1.5760141191941022 3.291042427127756 0.0 -1.202532706602094 2.988529199888722 0.0 -0.8768463258442021 2.699392224782946 0.0 -0.60076616305608 2.469794717247494 0.0 -0.3764385040235946 2.316323789357975 0.0 -0.2100292893006225 2.231055869141424 0.0 -0.0919648110654338 3.5357819870984937 0.0 -1.514697105339359 3.4342364701009562 0.0 -1.159732459571504 3.3033049416243676 0.0 -0.824512953328236 3.185143771346258 0.0 -0.523423387372842 3.1010908693249783 0.0 -0.2928741632999922 3.0522334987657245 0.0 -0.1281899830783425 3.43725518336625 0.0 -1.0762042341570002 3.446973876511917 0.0 -0.688355683402089 3.451219759178205 0.0 -0.3850085931076026 3.4516538293815002 0.0 -0.1679250470559 -5.7368685434217106e-05 0.0 5.303384132584601e-12 -5.72942614323565e-05 0.0 2.336296178407403e-07 -5.706532142663301e-05 0.0 4.868003321700081e-07 -5.666437341660931e-05 0.0 7.785516594637911e-07 -5.606241340156031e-05 0.0 1.1271773881794339e-06 -5.52185573804639e-05 0.0 1.5497795587444879e-06 -5.4080761352019004e-05 0.0 2.058361731459042e-06 -5.258460531461511e-05 0.0 2.666314586657863e-06 -0.0001056997466424936 0.0 3.603224770080617e-12 -0.0001055641466391036 0.0 4.50384091259602e-07 -0.00010514728662868211 0.0 9.358315033957872e-07 -0.0001044193666104841 0.0 1.490839917270997e-06 -0.0001033296145832403 0.0 2.148022253700555e-06 -0.00010180586654514661 0.0 2.9397790734944754e-06 -9.975622249390551e-05 0.0 3.885781657144539e-06 -9.706355842658891e-05 0.0 5.01451852536296e-06 -0.00018901938472548453 0.0 -8.10914700272867e-12 -0.0001887814407195359 0.0 8.322294208057351e-07 -0.0001880508887012721 0.0 1.7250510031262742e-06 -0.00018677718866942958 0.0 2.7389650284741243e-06 -0.00018487452062186291 0.0 3.930129698253241e-06 -0.00018221880855547008 0.0 5.35722373393059e-06 -0.000178650364466259 0.0 7.055089376377231e-06 -0.0001739654603491364 0.0 9.07164142679103e-06 -0.00032892218822305454 0.0 1.0600620665015511e-11 -0.0003285199482129985 0.0 1.4869389171734723e-06 -0.00032728545618213625 0.0 3.0763138769078453e-06 -0.00032513484812837106 0.0 4.87235652180891e-06 -0.0003219255320481381 0.0 6.969715774242891e-06 -0.0003174496199362403 0.0 9.47070903676772e-06 -0.0003114358357858957 0.0 1.2442893511072331e-05 -0.000303541247588531 0.0 1.595598479889961e-05 -0.0005594770539869261 0.0 5.92327414808185e-11 -0.0005588188939704721 0.0 2.5760634244015843e-06 -0.000556799373919984 0.0 5.32271293306782e-06 -0.000553281253832031 0.0 8.41506301037657e-06 -0.000548031253700781 0.0 1.2015443100386072e-05 -0.000540708453517711 0.0 1.629292560732313e-05 -0.000530861133271528 0.0 2.1377238534430952e-05 -0.000517925292948132 0.0 2.736165548404137e-05 -0.0009332113033302821 0.0 9.03212622580315e-11 -0.000932164223304105 0.0 4.3385685084642104e-06 -0.0009289509832237739 0.0 8.9578122239453e-06 -0.000923352343083808 0.0 1.414685995367149e-05 -0.000914988302874707 0.0 2.01835565045889e-05 -0.000903311382582784 0.0 2.733653308341331e-05 -0.0008875872221896801 0.0 3.5848952496223794e-05 -0.000866906741672668 0.0 4.58335011458375e-05 -0.001530084598252114 0.0 -1.5475052786876312e-10 -0.001528457398211434 0.0 7.125552178138799e-06 -0.001523460758086518 0.0 1.470778716769467e-05 -0.0015147462778686562 0.0 2.3216618180415443e-05 -0.00150171643754291 0.0 3.311915282797881e-05 -0.001483507477087686 0.0 4.48313571207839e-05 -0.0014589470364736751 0.0 5.8795349469883704e-05 -0.0014266205556655131 0.0 7.51191138779778e-05 -0.00246988446174711 0.0 -5.79730054493251e-11 -0.002467398781684968 0.0 1.1453943086348571e-05 -0.002459766021494149 0.0 2.36407045910176e-05 -0.0024464451411611273 0.0 3.730674293266855e-05 -0.0024265146606628654 0.0 5.3224061330601504e-05 -0.002398639979965998 0.0 7.20173418004335e-05 -0.002361036339025907 0.0 9.444451836111291e-05 -0.00231170845779271 0.0 0.0001205333310133332 -0.003929572258239304 0.0 -9.59724783993119e-11 -0.003925823898145595 0.0 1.8088752852218812e-05 -0.0039143011778575276 0.0 3.7339758533493933e-05 -0.003894109017352723 0.0 5.894384547359611e-05 -0.003863753856593844 0.0 8.41461261036531e-05 -0.003821320535533011 0.0 0.00011378837884470939 -0.003764380254109504 0.0 0.0001489811037245275 -0.0036900968122524185 0.0 0.00018979620074490494 -0.00616309175407729 0.0 -5.43511013587775e-10 -0.00615744575393614 0.0 2.820896110522401e-05 -0.00613994255349856 0.0 5.83746734593668e-05 -0.00610914935272873 0.0 9.228724230718101e-05 -0.0060629045515726105 0.0 0.00013176120329403 -0.005998670549966761 0.0 0.0001777565724439142 -0.00591312294782807 0.0 0.0002319752297993806 -0.00580205094505127 0.0 0.0002949000393725008 -0.00951904743797618 0.0 4.11708730292718e-10 -0.009510445037761122 0.0 4.3800085095002104e-05 -0.009483896237097401 0.0 9.079236226980901e-05 -0.009437431035935771 0.0 0.0001435380595884514 -0.0093681242342031 0.0 0.00020450377311259424 -0.00927262983181574 0.0 0.00027477620686940503 -0.00914634182865854 0.0 0.0003571437049285924 -0.00898312582457814 0.0 0.00045277905131947595 -0.014465277161631922 0.0 -1.009526705238167e-09 -0.014452484761312112 0.0 6.764252969106319e-05 -0.01441325596033139 0.0 0.00013999321149983022 -0.014345170758629263 0.0 0.0002207825935195647 -0.014244529956113241 0.0 0.0003132913798322843 -0.01410700115267502 0.0 0.00041881997047049906 -0.01392601594815039 0.0 0.000542068373551709 -0.013692930742323261 0.0 0.000685028657125716 -0.02162551174063778 0.0 -9.72600864315021e-10 -0.02160736694018416 0.0 0.0001029534185738354 -0.02155197333879932 0.0 0.0002123773373094333 -0.02145666253641655 0.0 0.0003335256683381415 -0.021316720932918008 0.0 0.00047109345177733604 -0.0211263005281575 0.0 0.000626773735669343 -0.02087609972190248 0.0 0.0008081857402046431 -0.020554361313859022 0.0 0.0010178929454473231 -0.03184146679603665 0.0 -1.40729243518231e-09 -0.03181701399542533 0.0 0.0001531942318298557 -0.03174269559356737 0.0 0.00031496305987407626 -0.03161534759038367 0.0 0.0004925595323139881 -0.03142902318572556 0.0 0.0006930506573262661 -0.03117591517939786 0.0 0.000918658862966471 -0.030843371971084277 0.0 0.0011804363095109071 -0.030415687560392174 0.0 0.001482294997057374 -0.04627560115689 0.0 1.44975163624379e-09 -0.0462438891560972 0.0 0.00022268614956715357 -0.0461477011536925 0.0 0.000456497011412425 -0.045983521149588 0.0 0.0007113420577835511 -0.0457445131436128 0.0 0.000997648704941217 -0.045420917135522904 0.0 0.001318911312972782 -0.0449955851248896 0.0 0.0016907493222687322 -0.04444767711119191 0.0 0.002119354412983859 -0.0665401336635033 0.0 -3.955258978881472e-09 -0.0664998496624962 0.0 0.00031770335994258384 -0.0663777176594429 0.0 0.000649729096243227 -0.0661705496542637 0.0 0.0010088602252215052 -0.0658717336467933 0.0 0.0014100302352507551 -0.0654708696367717 0.0 0.001859870766496768 -0.0649458376236459 0.0 0.002380853219521329 -0.0642660696066517 0.0 0.002984641754616042 -0.0948393863709846 0.0 -6.09865375246634e-09 -0.09478836236970901 0.0 0.000447834251195856 -0.0946342983658574 0.0 0.000914121982853049 -0.0943750103593752 0.0 0.001414775795369394 -0.0940042863501071 0.0 0.0019704323692608084 -0.0935122343378058 0.0 0.0025923027448075675 -0.09287229432180731 0.0 0.003315189922879746 -0.0920431263010781 0.0 0.00416060210401505 -0.1340014233500355 0.0 2.2967742974193558e-08 -0.1339368753484218 0.0 0.000627594255689856 -0.133742323343558 0.0 0.0012794739119868469 -0.133416883335422 0.0 0.001976378889409471 -0.1329552073238801 0.0 0.002746118668652965 -0.1323477913086947 0.0 0.0036071398101784934 -0.13156670728916758 0.0 0.00460749491518737 -0.130564443264111 0.0 0.0057848241446206 -0.1873909886847746 0.0 -7.12374257809356e-08 -0.1873087566827188 0.0 0.0008783751419593781 -0.18706145667653631 0.0 0.001790693804767344 -0.18664963666624082 0.0 0.002765564509139111 -0.18607062465176552 0.0 0.0038412668960316697 -0.1853176406329409 0.0 0.00504564532614113 -0.1843683886092096 0.0 0.00643741136093528 -0.1831749365793733 0.0 0.00807474340186858 -0.2587866144696652 0.0 1.0053191051329772e-08 -0.2586813744670342 0.0 0.001230316270757906 -0.25836566245914144 0.0 0.002510691142767277 -0.257842166446054 0.0 0.0038836532170913284 -0.2571128424278209 0.0 0.00540372653509316 -0.2561823424045584 0.0 0.00710755297768882 -0.25504289437607225 0.0 0.00906565942664148 -0.2536606383415158 0.0 0.01134767468369186 -0.35233593680839825 0.0 -3.17984367949609e-08 -0.3522024968050622 0.0 0.001721621523040537 -0.3518035007950873 0.0 0.003521183208029578 -0.3511463247786579 0.0 0.00546274493656862 -0.3502429807560743 0.0 0.00763111739077793 -0.3491200047279999 0.0 0.01006523185163079 -0.3477945646948639 0.0 0.01286255592156389 -0.3462695206567378 0.0 0.01606912800172819 -0.47291089182277196 0.0 3.779450814486268e-09 -0.47274437181860895 0.0 0.0023988964599724097 -0.472251811806295 0.0 0.004914768922869219 -0.4714500917862521 0.0 0.007660415391510381 -0.47037685175942107 0.0 0.010757346668933661 -0.4690908117272701 0.0 0.01426816475670411 -0.46765177169129407 0.0 0.018328284058207092 -0.46612769165319196 0.0 0.02289193937229847 -0.626933015673325 0.0 -4.35978130899453e-08 -0.626732135668303 0.0 0.00331510648287766 -0.626145695653642 0.0 0.006801332570033311 -0.6252128956303221 0.0 0.01066299946657498 -0.624023695600592 0.0 0.01503332157583303 -0.622680495567012 0.0 0.02013705130342627 -0.6213228955330721 0.0 0.02609067905226696 -0.62010641550266 0.0 0.032699722817493046 -0.823340908752725 0.0 1.0696684811255301e-07 -0.8231085886656049 0.0 0.0045278524979440495 -0.8224490284182701 0.0 0.00930040468765045 -0.8214394269677269 0.0 0.014676925969999388 -0.820266706586593 0.0 0.020786724355683222 -0.819098746207006 0.0 0.028164363153415053 -0.8182341868377049 0.0 0.03671512776816775 -0.817786986670005 0.0 0.046640305490108 -1.073801207490084 0.0 4.93800198489664e-08 -1.0735485672248122 0.0 0.0060919331965231405 -1.07285792649964 0.0 0.012548809976236641 -1.0718851654782422 0.0 0.0198791848731222 -1.070936644482296 0.0 0.02842527624650872 -1.070322603837554 0.0 0.03895558330331952 -1.070536323771898 0.0 0.0512064019261932 -1.07158296552948 0.0 0.06607767433730001 -1.39129769041276 0.0 2.90972066685677e-07 -1.3910424898385598 0.0 0.008069454556231901 -1.3903794083466299 0.0 0.0167032767822882 -1.38959231813774 0.0 0.026602353864825803 -1.3891412371904721 0.0 0.038470360787588004 -1.3896111023975741 0.0 0.05309731548641 -1.391575586670318 0.0 0.0708676501368038 -1.395077394286733 0.0 0.092758921750216 -1.786827252270651 0.0 -8.2756759295406e-08 -1.7865867307613879 0.0 0.01053630411489345 -1.7860162471816257 0.0 0.0219598537972179 -1.7855699243809677 0.0 0.03518715519801335 -1.785911392581984 0.0 0.051505091329586396 -1.788016525633728 0.0 0.0718497614657592 -1.7925458881548657 0.0 0.0973068985969572 -1.799546317117992 0.0 0.12866533772014802 -2.264019719518557 0.0 -6.088535793724231e-07 -2.2638160361934814 0.0 0.013556210101517162 -2.26340593974885 0.0 0.028500188720541 -2.26344162032865 0.0 0.046034808053475 -2.26493548460355 0.0 0.06822778468348499 -2.26918035358155 0.0 0.09622321960190999 -2.277078471148527 0.0 0.13199254294484938 -2.2887493399217758 0.0 0.1762481827682451 -2.8121715471227504 0.0 7.218130179380002e-07 -2.8120285008647503 0.0 0.017199535646764998 -2.81184482369912 0.0 0.036366598896352895 -2.812559735028736 0.0 0.059317559478122006 -2.8154980815083657 0.0 0.0889613732182884 -2.8225373206055 0.0 0.1265080144835 -2.834743522016271 0.0 0.1758794331987686 -2.852379252223149 0.0 0.23670965784280099 -3.3990345261754102 0.0 9.0110147870515e-07 -3.3989585973212395 0.0 0.02135938794813595 -3.399090972757725 0.0 0.0452829885126955 -3.4006048292906548 0.0 0.074875139294833 -3.4053300049597985 0.0 0.11305043849311922 -3.415721192030879 0.0 0.16304136448180198 -3.43307129525071 0.0 0.2290132295533615 -3.458660739932604 0.0 0.3080024615035004 -3.976804875040816 0.0 2.441116230565012e-06 -3.97680143400228 0.0 0.02563830426799616 -3.9773203906280004 0.0 0.05491107264955 -3.9797009456954417 0.0 0.09173203129348059 -3.9865848055241075 0.0 0.1397022818611133 -4.000792634840916 0.0 0.20384836106006882 -4.02557315258304 0.0 0.2852123933821068 -4.06310588145124 0.0 0.3847486365565804 -4.49706622792374 0.0 -9.86741827059202e-07 -4.4974689200057805 0.0 0.02906733842433692 -4.49904486307436 0.0 0.062639453869417 -4.50373139961957 0.0 0.1057528289345073 -4.51399364383526 0.0 0.163803142539996 -4.533862796433599 0.0 0.241759357960768 -4.569001146190289 0.0 0.3403345061113559 -4.6179065679464 0.0 0.46846758072472 -4.94916262068524 0.0 -2.555774187479658e-07 -4.9502710834862205 0.0 0.029176285238417303 -4.95398548501126 0.0 0.0647865091602212 -4.9621313039152 0.0 0.1110315216758113 -4.97807041292228 0.0 0.17800648957130788 -5.0043750446398 0.0 0.2740817730619664 -5.04804617807835 0.0 0.40113010380210995 -5.11475141983518 0.0 0.5575513006600621 -5.275334842339159 0.0 5.2206232511387205e-06 -5.277441247221679 0.0 0.028563211499718043 -5.28487200847772 0.0 0.0657328284477484 -5.29843513183002 0.0 0.11841593763673638 -5.32176797480328 0.0 0.1993667619883023 -5.3581991984343205 0.0 0.3181962001722824 -5.410927889930961 0.0 0.479523773239648 -5.48412155923975 0.0 0.6757634879126669 -5.37148358132896 0.0 -1.020219742020032e-06 -5.37356994751552 0.0 0.02725238119170144 -5.38016292887328 0.0 0.0644743975930944 -5.3933203991865595 0.0 0.1237940862154176 -5.415142368890879 0.0 0.21741419676680318 -5.45009091482733 0.0 0.3582265206439489 -5.50272120131636 0.0 0.551488625407794 -5.5773287784515 0.0 0.7925925340825 -4.82795346279816 0.0 -4.7164918341155305e-06 -4.82886961987118 0.0 0.02301493037564612 -4.83214112716945 0.0 0.058604882511524396 -4.83941658771219 0.0 0.12152729036773299 -4.85360702647156 0.0 0.22813786623406943 -4.878775326045679 0.0 0.3917069179221632 -4.91968917611556 0.0 0.616010532353734 -4.98093841617624 0.0 0.8922148881336182 -3.4189957705677863 0.0 2.485497433792314e-06 -3.419657517106827 0.0 0.02490604446645546 -3.4220689166765452 0.0 0.06372322429030229 -3.4275945252788396 0.0 0.132848514974448 -3.4386859826205893 0.0 0.2503739794209306 -3.458795086657329 0.0 0.430966971010899 -3.4919134328596146 0.0 0.6786102847642201 -3.54165589595979 0.0 0.98327150752194 -2.068212977040318 0.0 -1.6552329713112674e-06 -2.0686973901171197 0.0 0.026560796626355198 -2.0704481340288 0.0 0.068040589802752 -2.074472683816698 0.0 0.1420223191141222 -2.082552956848396 0.0 0.2678838531000548 -2.0972170835328 0.0 0.46130642349824 -2.1213676073190397 0.0 0.7263580164620799 -2.15750440411136 0.0 1.0518887620953599 -1.03479284973114 0.0 -3.7715304064449597e-06 -1.03509552464712 0.0 0.0276939351763686 -1.0361944601849131 0.0 0.0709930072167369 -1.0387084680153 0.0 0.14828447325601798 -1.043768807825622 0.0 0.2798622139688265 -1.0529851485986432 0.0 0.48209053829832604 -1.0681914625344 0.0 0.7590466844920799 -1.090881560871453 0.0 1.098539835180096 -0.29207789217918717 0.0 2.684171596574964e-06 -0.2922118205210955 0.0 0.028319297685962405 -0.2926891595584848 0.0 0.0726315978455388 -0.2937988377731835 0.0 0.15176418714216 -0.29604366256026604 0.0 0.286539253078905 -0.3001651315824966 0.0 0.493728480339507 -0.307021244396601 0.0 0.777384443865288 -0.3172333889361756 0.0 1.1245648363660081 0.2792045403341667 0.0 -3.6791563699751046e-06 0.2792200015418517 0.0 0.02849423993168733 0.27928984682592956 0.0 0.07307965650126239 0.279448278829863 0.0 0.1527164833184364 0.2797458914298429 0.0 0.2884078824391854 0.2802148800576552 0.0 0.49705995632620503 0.2809020555403758 0.0 0.78269125260396 0.2819137304271312 0.0 1.131990879179208 0.8020621265480259 0.0 -5.17449295716916e-06 0.802221918743483 0.0 0.02824868878351911 0.802790166937933 0.0 0.0724546928515947 0.804073283408666 0.0 0.1514282165450474 0.8066271072552851 0.0 0.2860071793759764 0.8111840759056 0.0 0.49301185572191997 0.8185835311731089 0.0 0.7764105597140101 0.82963714324221 0.0 1.122858070803253 1.3413474201454139 0.0 2.741717755141134e-06 1.341624297930444 0.0 0.027644637771743516 1.342646798153826 0.0 0.0708836765036532 1.34495422011258 0.0 0.1481425292616324 1.34951818598025 0.0 0.2798288685302286 1.3577051960848172 0.0 0.482426467575021 1.3710941775743999 0.0 0.7598596116091201 1.391144244689691 0.0 1.0989766000264052 1.8947692111593117 0.0 4.4516707960949994e-06 1.895164941997584 0.0 0.02669937184373616 1.896586136067336 0.0 0.0684731913105696 1.899801047615676 0.0 0.1430973552032292 1.9061562113343753 0.0 0.2703079884197385 1.917572196933186 0.0 0.466059507732366 1.9362830062352818 0.0 0.7341713263928938 1.9643886085764481 0.0 1.06188263443341 2.4221210999004805 0.0 4.819655354285039e-07 2.4226151924617167 0.0 0.025474711141351167 2.4243871493720968 0.0 0.0653276314294389 2.428385573753331 0.0 0.13650581175244078 2.43630010862784 0.0 0.257852511262122 2.450525601289086 0.0 0.44461883382109796 2.473880547355329 0.0 0.7004359398493261 2.509031893105056 0.0 1.013067949825263 2.8740347739005343 0.0 -9.2646833085012e-06 2.874630537335838 0.0 0.02405997817634118 2.876754439601592 0.0 0.061625237558196606 2.88154065470199 0.0 0.1286864592623448 2.8909045683405026 0.0 0.24298870112777368 2.9076652734372 0.0 0.4189349333988 2.935015782394839 0.0 0.659926875175359 2.976236078513796 0.0 0.9542862280602631 3.1334459965007366 0.0 6.217604013223919e-07 3.135081875260407 0.0 0.024907442605768767 3.13924615770213 0.0 0.0616316786979642 3.1483038442700404 0.0 0.1251184475332071 3.1640094439754307 0.0 0.23154459081898138 3.188544295031088 0.0 0.3948145236978345 3.2261243257758236 0.0 0.618323364589392 3.2793354056944883 0.0 0.891270323552322 3.1517530207834437 0.0 -2.167572769891851e-06 3.1542225937172104 0.0 0.02897799579289206 3.161735630546832 0.0 0.06798765996237119 3.1756453309381922 0.0 0.1296251862919296 3.1970432252821324 0.0 0.2271186897786738 3.228980182937135 0.0 0.3762375194283 3.277286592010452 0.0 0.580621648528992 3.3428931305603222 0.0 0.8327250610339679 3.0962770045257844 0.0 -5.4427220663456e-07 3.0983609321702157 0.0 0.0299614485466588 3.10534316021545 0.0 0.068310179624206 3.118298152473465 0.0 0.1264014736424675 3.1422927969671854 0.0 0.218766133589029 3.1787971037296456 0.0 0.3575464174736715 3.2273736829190605 0.0 0.5414411035501551 3.2965838983121345 0.0 0.768485530647695 3.01049994834864 0.0 3.516325810176924e-07 3.0119990837554447 0.0 0.03132614778313843 3.017403532244106 0.0 0.068944553418978 3.028295309732064 0.0 0.12330309221350469 3.0470446036611145 0.0 0.2076021390398103 3.078173209540884 0.0 0.3312561974517222 3.12891977876742 0.0 0.5017854846402721 3.199278634318368 0.0 0.70747663810848 2.9034133825757076 0.0 -9.805902906343738e-07 2.904806417206986 0.0 0.032470004025489684 2.908980236026832 0.0 0.07263504400922881 2.9181599869887527 0.0 0.1249428232714112 2.934840307940677 0.0 0.2012771889211298 2.962653165218472 0.0 0.31049199280700157 3.0089853095370103 0.0 0.46052519405367004 3.0779370815255804 0.0 0.6468872305452251 2.7683325752086354 0.0 -4.0374262700791503e-07 2.7692276767113304 0.0 0.03358037097250755 2.7733494951176705 0.0 0.073048705124763 2.781502215358005 0.0 0.126262635711849 2.796654550012785 0.0 0.1968080738251425 2.8247420699228813 0.0 0.2948125866608448 2.8696977015734553 0.0 0.42487538086596 2.9381878120959755 0.0 0.59010224698575 2.608110293916098 0.0 5.71123809865084e-07 2.609336442499234 0.0 0.034086632967297734 2.613415125130964 0.0 0.0729595822764948 2.622189610719934 0.0 0.12302414869761398 2.637750456962156 0.0 0.1901605747694532 2.665398649337264 0.0 0.2796318092466174 2.7125216849869616 0.0 0.3965706267520826 2.78013868374773 0.0 0.5414054502026421 2.42813671269589 0.0 -3.0016770119592904e-06 2.4293746453745544 0.0 0.03432116706047367 2.4342622242339598 0.0 0.0719773656408432 2.443897955429764 0.0 0.12026839035515599 2.4615589034163037 0.0 0.18309674771820642 2.490519045203052 0.0 0.2644853513989548 2.53755572043981 0.0 0.36907381378897747 2.609488081940312 0.0 0.49744777203948803 2.238972989140656 0.0 1.2368666149336802e-06 2.240535328507386 0.0 0.03390770455812234 2.246522313873042 0.0 0.071313493966155 2.258028804154086 0.0 0.1170226063397142 2.2779140625944816 0.0 0.1760089603880664 2.310708693157128 0.0 0.2501924735729106 2.360828972523312 0.0 0.3430751807417256 2.4335486520086884 0.0 0.45387390197313005 2.051145608219082 0.0 1.044064522630047e-06 2.0532581306888638 0.0 0.033637853599402086 2.0607900471023037 0.0 0.0708725516746284 2.075249997947844 0.0 0.1145984376969696 2.09926309295472 0.0 0.16938992816277362 2.134936621232448 0.0 0.2337578097472728 2.188204798634964 0.0 0.3165285805829244 2.266192093251708 0.0 0.41497976982058193 1.875449662800728 0.0 -2.874480750426243e-06 1.8784054655528517 0.0 0.033349634823575676 1.8877403469609513 0.0 0.0699349284636548 1.905587197136308 0.0 0.11132486970771518 1.9321180330191183 0.0 0.1588391906165687 1.9721318250068398 0.0 0.2165654923822838 2.029931673030037 0.0 0.2880062995840625 2.1128410146307357 0.0 0.3791329714109892 1.7206427916989042 0.0 -1.8751402382169178e-07 1.7241763930878626 0.0 0.03206021274619614 1.7351080819242901 0.0 0.0666874133583048 1.754152069298832 0.0 0.1033292534003856 1.7837120055151652 0.0 0.1448752381757835 1.8287654530959179 0.0 0.1953068611272366 1.8893424140599682 0.0 0.2604783884523744 1.983983989069368 0.0 0.355286402299413 1.587679683418425 0.0 -1.118855282345367e-06 1.59097786845273 0.0 0.028001458844235605 1.6022469871763638 0.0 0.057732621467331595 1.62331615399761 0.0 0.088723133567073 1.6573092795234627 0.0 0.1276721182359465 1.7040463099396803 0.0 0.173085442651917 1.782016231611564 0.0 0.2445666387019308 1.9005425310599278 0.0 0.37278588750975356 1.470843219436734 0.0 -6.669905296589101e-07 1.4738180522169093 0.0 0.0224263047385398 1.4873138869358011 0.0 0.0465005487645525 1.5117629166228959 0.0 0.07406918411991839 1.5509666192573879 0.0 0.1121355065463186 1.6156797715134719 0.0 0.1712187382159296 1.719609363061932 0.0 0.27293355304996497 1.8857380341375538 0.0 0.46496966557572 1.3776106548463203 0.0 -2.65092644900475e-07 1.3833397179206217 0.0 0.01728021207059574 1.3994098131672899 0.0 0.040199062833783 1.4316142221805077 0.0 0.07505523052146239 1.48961048602995 0.0 0.132235034261985 1.5850926996552477 0.0 0.22932616173300235 1.7574324965928956 0.0 0.3983506083939996 2.045815023084735 0.0 0.682423645530312 1.3338338943835042 0.0 8.778863650998441e-07 1.3428750177086877 0.0 0.0258051235569144 1.371527658739874 0.0 0.0625971826264102 1.430894572187636 0.0 0.1264633588367098 1.5421153845835212 0.0 0.23520209618440593 1.73761142823158 0.0 0.404725185683016 2.062685502268916 0.0 0.642703985946618 2.5185060029243482 0.0 0.9649203459010722 1.5000160675763197 0.0 -5.611498845786399e-07 1.5221725965826798 0.0 0.059576529149648 1.59377047296661 0.0 0.1375790419180755 1.7330471223771997 0.0 0.25241705618460797 1.9616412044485203 0.0 0.41392572902128 2.2884536391690395 0.0 0.62760514419428 2.69551786458096 0.0 0.9064528618836301 3.13466690536104 0.0 1.26711279880668 2.20428140104823 0.0 -1.8847756724679959e-07 2.2310568296218802 0.0 0.0919648470834509 2.31632454973845 0.0 0.21002926528860752 2.46979583780811 0.0 0.3764389562498432 2.6993929851633642 0.0 0.6007659629559701 2.9885287996885017 0.0 0.876845845603938 3.291042427127756 0.0 1.202532706602094 3.5590155339592284 0.0 1.5760141992341459 3.036398955899495 0.0 -2.373239080153085e-07 3.0522334987657245 0.0 0.12819010313704948 3.1010935506361013 0.0 0.29287435539392337 3.1851456522658603 0.0 0.523423147255446 3.303305701996122 0.0 0.8245128732891039 3.4342395115884283 0.0 1.1597319793366399 3.5357812267266824 0.0 1.514696745163238 3.4519906900679973 0.0 1.196306415165816e-07 3.4516545897472493 0.0 0.167925035050125 3.451220159370735 0.0 0.385008905257776 3.446973476319387 0.0 0.688355843479101 3.4372563439245005 0.0 1.07620403406075 -5.06593812664845e-05 0.0 3.3670746041768636e-06 -4.822246520556161e-05 0.0 4.16571810414295e-06 -4.51984211299605e-05 0.0 5.02635692565892e-06 -4.1512105037802605e-05 0.0 5.91724494793112e-06 -3.708219812705494e-05 0.0 6.80206977005174e-06 -3.185664599641613e-05 0.0 7.5629957890748905e-06 -2.5774242244356042e-05 0.0 8.104625402615631e-06 -9.360018634000461e-05 0.0 6.30913855772846e-06 -8.921145023028621e-05 0.0 7.78320859458021e-06 -8.375260209381501e-05 0.0 9.36800303420007e-06 -7.707415792685391e-05 0.0 1.100793387519834e-05 -6.900393372509831e-05 0.0 1.2638075115951872e-05 -5.9406309485157696e-05 0.0 1.4041341151033521e-05 -4.808723320218081e-05 0.0 1.5049998376249951e-05 -3.5302682482567044e-05 0.0 1.529713358242833e-05 -0.00016793525219838124 0.0 1.1389181884729541e-05 -0.0001602850200071254 0.0 1.4026033950650841e-05 -0.00015074548376863703 0.0 1.686267082156676e-05 -0.0001390330634758265 0.0 1.980784209519604e-05 -0.0001248115711202892 0.0 2.2748898968722457e-05 -0.00010780313869507841 0.0 2.5321340233033492e-05 -8.765747019143671e-05 0.0 2.7242530681063246e-05 -6.470363761759091e-05 0.0 2.758958228973954e-05 -0.0002933653593341338 0.0 2.000527370013183e-05 -0.00028043934701098354 0.0 2.459580781489518e-05 -0.0002642660946066522 0.0 2.956862793921568e-05 -0.0002443365821084144 0.0 3.474099006852473e-05 -0.00022001816550045402 0.0 3.991668739791716e-05 -0.00019073251676831278 0.0 4.4510525112763106e-05 -0.00015576712789417812 0.0 4.79911971997799e-05 -0.00011547953088698822 0.0 4.87020732175518e-05 -0.000501216492530412 0.0 3.428148405703708e-05 -0.00047995653199891305 0.0 4.2094765052369106e-05 -0.000453248651331216 0.0 5.0618873265471805e-05 -0.000420194370504859 0.0 5.94947374873684e-05 -0.00037962758149068937 0.0 6.83921337098033e-05 -0.000330345808258645 0.0 7.64255779106394e-05 -0.0002709480987737023 0.0 8.26552940663823e-05 -0.00020174887704372182 0.0 8.42540621063515e-05 -0.00084012842100321 0.0 5.74153934353848e-05 -0.000805983900149597 0.0 7.044631376115781e-05 -0.000762903139072578 0.0 8.474660611866511e-05 -0.000709309737732743 0.0 9.967427849185689e-05 -0.0006430934960773369 0.0 0.00011470553086763821 -0.0005619020540475511 0.0 0.0001285381192134529 -0.00046303677157591904 0.0 0.00013961909949047739 -0.00034649198466229944 0.0 0.0001431959715798992 -0.001384732514618312 0.0 9.40980863524521e-05 -0.0013312975132824371 0.0 0.00011539951888498791 -0.001263504791587619 0.0 0.0001389765114744127 -0.001178493389462334 0.0 0.0001637727160943178 -0.0010725146268128652 0.0 0.00018895211672380279 -0.0009412647435316179 0.0 0.00021251573331289322 -0.000779649179491229 0.0 0.00023210519380262973 -0.000586719094667977 0.0 0.000239847165996179 -0.002247841136196027 0.0 0.0001509501037737525 -0.002166002494150061 0.0 0.00018531926063298143 -0.002061285691532141 0.0 0.00022386024159650592 -0.0019288933282223322 0.0 0.0002647147106178676 -0.0017625024840625609 0.0 0.0003065448796636218 -0.001554724158868103 0.0 0.0003461999886549995 -0.001295966872399171 0.0 0.00038052355751308866 -0.000982495984562399 0.0 0.0003967028219175704 -0.0035939258498481437 0.0 0.00023785080594627002 -0.003470252166756302 0.0 0.0002928054033201349 -0.003310997882774945 0.0 0.0003551899528797486 -0.003108324357708107 0.0 0.00042181145054528605 -0.002852212511305311 0.0 0.000490243132256078 -0.002530625343265632 0.0 0.000555617853890446 -0.002126197373154933 0.0 0.0006144462153611551 -0.0016283738007093441 0.0 0.0006468038161700951 -0.00565840534146013 0.0 0.0003698401932460046 -0.00547365173684129 0.0 0.0004563880114097 -0.00523525813088145 0.0 0.00055558161388954 -0.00493048492326212 0.0 0.0006627009365675231 -0.00454477891361947 0.0 0.000771724739293118 -0.00405743770143594 0.0 0.0008778071419451779 -0.0034408797260219916 0.0 0.000975243784381094 -0.002669191226729779 0.0 0.0010368798259219952 -0.0087723362193084 0.0 0.0005679755741993891 -0.00850148141253703 0.0 0.000701731497543287 -0.008152010603800261 0.0 0.000855582981389574 -0.007702611392565281 0.0 0.001025454625636365 -0.0071350097783752404 0.0 0.0011939740298493502 -0.00641189176029729 0.0 0.0013633431140835772 -0.00549202133730053 0.0 0.0015243996381099903 -0.004321215708030389 0.0 0.001641634161040853 -0.013391665134791621 0.0 0.0008591486214787151 -0.01300462072511551 0.0 0.001061725186543129 -0.012504621112615523 0.0 0.001297395432434885 -0.011856724696418111 0.0 0.001568699279217481 -0.01103995987599899 0.0 0.001840550686013766 -0.0099881242497031 0.0 0.002141426933535672 -0.008636751815918789 0.0 0.002472690541817262 -0.00687703377192584 0.0 0.002793883989847098 -0.0201374685034367 0.0 0.0012754711518867781 -0.01959998368999958 0.0 0.001577962959449073 -0.018903932472598303 0.0 0.0019366054484151352 -0.01799609564990238 0.0 0.0023741217793530433 -0.016858061221451524 0.0 0.00283792847094821 -0.01538198198454954 0.0 0.0034258158056453933 -0.01349765673744141 0.0 0.00417404690435117 -0.011071757476793929 0.0 0.00498385772459644 -0.0298584887464622 0.0 0.0018571774064294342 -0.029136160728404 0.0 0.002302000177550003 -0.0281923927048098 0.0 0.002852825511320636 -0.02695739627393489 0.0 0.0035862178496554437 -0.02541742703543566 0.0 0.004455208111380201 -0.02345596298639906 0.0 0.00542176293554407 -0.020951678523791952 0.0 0.006896852972421321 -0.01772152244303805 0.0 0.008437091410927279 -0.043728673093216805 0.0 0.0026560577464014423 -0.042787725069693104 0.0 0.003300996562524912 -0.041547321038683 0.0 0.00411693450292336 -0.039921505398037606 0.0 0.0052075049301876205 -0.03791376734784416 0.0 0.0065565497639137405 -0.03534264968356622 0.0 0.0085106242127656 -0.032076866401921644 0.0 0.011213251480331279 -0.027745268293631692 0.0 0.013979587149489672 -0.0633645535841138 0.0 0.0037477177736929424 -0.0621741255543531 0.0 0.00467305811682645 -0.060588557514713905 0.0 0.00586736094668402 -0.0584960174624004 0.0 0.007490156587253911 -0.0559118453977961 0.0 0.0095609002390225 -0.052608133315203295 0.0 0.012598947114973672 -0.0483804692095117 0.0 0.016846930021173243 -0.042620477065511905 0.0 0.02119321292983031 -0.0909363462734086 0.0 0.00522778773069469 -0.0894646382366159 0.0 0.00653549736338743 -0.08747867418696681 0.0 0.00825021140625528 -0.0848170261204256 0.0 0.0106298442657461 -0.0815245100381127 0.0 0.013722400743060012 -0.07727009793175241 0.0 0.0183455084586377 -0.07176636579415911 0.0 0.02489623782240593 -0.0640670096016752 0.0 0.03171275319281881 -0.1292328992308224 0.0 0.007254710181367751 -0.1274525311863132 0.0 0.0090832922270823 -0.125025003125625 0.0 0.01149570148739253 -0.12172067504301681 0.0 0.014935449173386222 -0.1175760669394016 0.0 0.01951543288788581 -0.1121249348031233 0.0 0.02648663306216581 -0.1049286866232171 0.0 0.03651396411284909 -0.09463054636576361 0.0 0.047064921176623004 -0.18162109254052722 0.0 0.010083373052084321 -0.1795440964886023 0.0 0.012583962314599052 -0.1767003684175091 0.0 0.015874360796859013 -0.1727771323194282 0.0 0.02060275891506896 -0.1677406361935158 0.0 0.026999462274986542 -0.1609239160230978 0.0 0.03688334332208356 -0.15161691179042272 0.0 0.05145936928648421 -0.1379058274476456 0.0 0.06723696168092401 -0.2519276902981921 0.0 0.014085097952127439 -0.24964287824107181 0.0 0.01746241363656033 -0.24653533016338308 0.0 0.021865514546637852 -0.24220214605505352 0.0 0.028218508305462693 -0.2364905419122634 0.0 0.037039158525978944 -0.22842767771069178 0.0 0.050959613273990303 -0.2168411774210293 0.0 0.0721321858033046 -0.1989445369736133 0.0 0.0958405383960134 -0.3444684606117113 0.0 0.01981954769548868 -0.3421878645546964 0.0 0.024336025808400632 -0.3391643604791088 0.0 0.030095229152380706 -0.3349317883732945 0.0 0.03831944255798605 -0.3292167042304174 0.0 0.05007470525186761 -0.320561728014043 0.0 0.0690667897266697 -0.3070507116762676 0.0 0.0990011904750297 -0.2845606391140158 0.0 0.1338192633454815 -0.4644839716120989 0.0 0.02812165110304126 -0.462581371564534 0.0 0.034156955253923864 -0.46022005150550105 0.0 0.0416088850402221 -0.457025171425629 0.0 0.051790881294771995 -0.45257793131444807 0.0 0.0671005736775143 -0.44480701112017496 0.0 0.0924763863119096 -0.430579570764489 0.0 0.1349115273727881 -0.403760730094018 0.0 0.18661325266533121 -0.6190200154755 0.0 0.0401982570049564 -0.618054375451359 0.0 0.0483961812099045 -0.617193495429837 0.0 0.057982201449554994 -0.6163336554083411 0.0 0.07031567775789191 -0.615096935377423 0.0 0.089557562238939 -0.610852535271313 0.0 0.12219070305476751 -0.59854281496357 0.0 0.1802673045066825 -0.568997774224944 0.0 0.256554086413852 -0.817853386694905 0.0 0.0577224896459255 -0.8185378269515701 0.0 0.069217433956528 -0.8199851864950989 0.0 0.0819027346183801 -0.8229444274568519 0.0 0.0968373194721186 -0.8274145889096539 0.0 0.1202652230861848 -0.830808150012561 0.0 0.1603051240991484 -0.825401588255429 0.0 0.2379140213220318 -0.797466059176385 0.0 0.348078553125493 -1.07354704773907 0.0 0.082897245259296 -1.076577090404758 0.0 0.0998252768164306 -1.080845932760464 0.0 0.1180505142453672 -1.0888793833221522 0.0 0.1368224756634486 -1.101726916812048 0.0 0.16418296839193583 -1.1188687708959881 0.0 0.21110562582778447 -1.1291263855814602 0.0 0.3120369596384636 -1.112880048522824 0.0 0.469799253288698 -1.40013323029268 0.0 0.117006531264103 -1.405774697553317 0.0 0.1441512495282858 -1.412940033137888 0.0 0.1720832982803597 -1.4263158492034398 0.0 0.198980851705909 -1.44988098222487 0.0 0.23101369977965502 -1.489212999031228 0.0 0.2840389937834678 -1.5303297232341297 0.0 0.41049420360988004 -1.5463574792965 0.0 0.63263110341678 -1.80857563745793 0.0 0.1643344585423935 -1.818103032168912 0.0 0.204842430015192 -1.8274267470308823 0.0 0.2502446382752517 -1.8419474018587352 0.0 0.29829961507395153 -1.880066195334915 0.0 0.3375641035674705 -1.95219299710887 0.0 0.39701113567831203 -2.049224538803292 0.0 0.550842296513721 -2.136458325727095 0.0 0.8582627368270652 -2.3029152217642497 0.0 0.227798825670765 -2.31677427321774 0.0 0.2878439958013245 -2.33114368046925 0.0 0.35418458740602 -2.3494287537982803 0.0 0.4277080222194781 -2.3948896559353923 0.0 0.500997578651955 -2.5079371933171495 0.0 0.5852202696748499 -2.6968564632053993 0.0 0.77323868492445 -2.9207469223173237 0.0 1.187665410177285 -2.87359789890707 0.0 0.3079105874075895 -2.896866875135223 0.0 0.3905254434538459 -2.9202517764261815 0.0 0.48371852548394495 -2.9518178750153283 0.0 0.590155853931244 -3.006427820000511 0.0 0.716935750801417 -3.1446828980273334 0.0 0.886782088516248 -3.45988390383004 0.0 1.148680686437961 -3.917571852478193 0.0 1.7101594079501456 -3.4918256266755647 0.0 0.40169864264117494 -3.5264881087161295 0.0 0.51663936603987 -3.5694966039969853 0.0 0.63936695747615 -3.6255120560372798 0.0 0.7921766968338201 -3.7185755483014202 0.0 0.993271386767185 -3.8958110559821355 0.0 1.300294949214695 -4.3034922362554 0.0 1.8026695318181951 -5.0906104232093 0.0 2.553133364456515 -4.10917077891198 0.0 0.51176302905591 -4.16962502151858 0.0 0.6443473575589019 -4.24008468334962 0.0 0.8189802545922721 -4.332187676248739 0.0 1.044179050336326 -4.47977563608484 0.0 1.383182936898412 -4.76894571018216 0.0 1.941925970509772 -5.29102941529068 0.0 2.8707711607880277 -6.306069627836161 0.0 3.9841809011910363 -4.68691708222341 0.0 0.6124084000828479 -4.77304676055557 0.0 0.792419299704144 -4.8758717147744 0.0 1.02489589461336 -5.02512917341444 0.0 1.390292284060827 -5.2541813683296 0.0 2.02175500929128 -5.573358888308941 0.0 3.1787473802514965 -6.1756658807456 0.0 4.774599044155201 -7.3805459891016 0.0 6.3482470838016 -5.20219818740545 0.0 0.745080628429984 -5.31269595570704 0.0 0.9755051116381359 -5.469391004399971 0.0 1.314011285251546 -5.67431922544692 0.0 1.9510869784163762 -5.91787017533308 0.0 3.212796784666608 -6.20122770261764 0.0 5.350535518783841 -6.758331052966569 0.0 7.95844542987802 -8.068317660333 0.0 10.033374528804998 -5.585976431224561 0.0 0.9091647671723041 -5.72579073677135 0.0 1.208834454934008 -5.92085270350704 0.0 1.730096712883528 -6.15463764052851 0.0 2.779724608967278 -6.39476460717409 0.0 4.83693993865803 -6.599091818209762 0.0 8.23151309713372 -7.0404278010675 0.0 12.0304535955108 -8.2132135051246 0.0 14.536184778993999 -5.6793645004445 0.0 1.0661642612092999 -5.82028510007881 0.0 1.431050392344251 -6.013342809964939 0.0 2.119339518593432 -6.22920253375 0.0 3.5698162188447498 -6.396046842786999 0.0 6.359532419301999 -6.484148172795499 0.0 10.827266563268498 -6.781150927248281 0.0 15.66047671889072 -7.608640089059239 0.0 18.50921883044563 -5.06662121268429 0.0 1.202745819744615 -5.17846623176764 0.0 1.621829106766442 -5.313455286418931 0.0 2.445764290505327 -5.453372791940359 0.0 4.1657287840224 -5.56809800245495 0.0 7.43391840324081 -5.63426888216552 0.0 12.598590071097862 -5.77553457286 0.0 18.044989860320797 -6.08853482242511 0.0 21.114658299520922 -3.6103652402987847 0.0 1.324803882328812 -3.6985536477289824 0.0 1.7829720893832326 -3.8029832407022996 0.0 2.6764743512873816 -3.915012569658495 0.0 4.52814672936258 -4.02213822753321 0.0 8.03078091941481 -4.109806311567 0.0 13.5574208168718 -4.19445077221485 0.0 19.36001876337765 -4.27195135165488 0.0 22.632415087191784 -2.20690845608832 0.0 1.4155720875366402 -2.269265562541451 0.0 1.897741203435736 -2.342216956644107 0.0 2.8260731038873614 -2.419674399629999 0.0 4.738536108684849 -2.492842370627336 0.0 8.347406622958621 -2.5538165733234197 0.0 14.04231524051636 -2.599207672338682 0.0 20.04163748955054 -2.6317223154875533 0.0 23.47137196463436 -1.1215434884733 0.0 1.47628869027102 -1.1593476135901801 0.0 1.9716898611139202 -1.2023567155874069 0.0 2.915954248732254 -1.246830862897143 0.0 4.85390317822101 -1.2873139172813401 0.0 8.50652858765652 -1.3185019639532158 0.0 14.274517541022478 -1.338011931799095 0.0 20.37627370777245 -1.3472688599830318 0.0 23.90528244859104 -0.3308110897132881 0.0 1.5095040473825339 -0.346800304160307 0.0 2.0104483490946 -0.36372581077743904 0.0 2.9593860882846483 -0.3797837457687336 0.0 4.90356172588233 -0.392817659836734 0.0 8.56777067320284 -0.4006240643399103 0.0 14.360221764135211 -0.402135952532652 0.0 20.50708972053807 -0.39772070185718394 0.0 24.092015096637603 0.2836167455373747 0.0 1.5183402170630103 0.2867755724656632 0.0 2.019079191902112 0.29214641799460594 0.0 2.9654929270923662 0.29985451387989237 0.0 4.90449098309082 0.30944050629320424 0.0 8.561633061426061 0.320465571655689 0.0 14.349349273365 0.33259801767367925 0.0 20.504269338851042 0.3460050887042358 0.0 24.109690393558346 0.8450419301254781 0.0 1.505595799057574 0.8653127688618562 0.0 2.0013376523165527 0.8903024495266109 0.0 2.9399440346108667 0.9185475331029239 0.0 4.8666566078543 0.9477176437686159 0.0 8.505550920425401 0.975551731654924 0.0 14.27008999927116 1.000597065604076 0.0 20.404612548524 1.022725209645672 0.0 23.99747397510788 1.4189523592814401 0.0 1.47338666042064 1.4548640074110721 0.0 1.9583413801091012 1.4977814556227098 0.0 2.8779141609660326 1.5448143883111682 0.0 4.76806863035064 1.5922061995766403 0.0 8.34126075132 1.636596848289231 0.0 14.006517114554459 1.675666943872992 0.0 20.04096057334056 1.7082882967060258 0.0 23.576951960882457 2.003410014063768 0.0 1.4235043332162178 2.053668137413968 0.0 1.8917751331903319 2.113232104537785 0.0 2.7803972479471653 2.177883954620496 0.0 4.60840635260748 2.242708337411568 0.0 8.066797276570199 2.3035708570076516 0.0 13.5535624220613 2.35746175190373 0.0 19.405521717125403 2.402202782798844 0.0 22.84040072795832 2.5579701394771948 0.0 1.3577775584572709 2.6211233774279403 0.0 1.8036618263395199 2.695850345882058 0.0 2.649796607707437 2.776770567861774 0.0 4.3914905092878 2.8578900775945804 0.0 7.688515988546401 2.9344086126875526 0.0 12.92377848915213 3.002732623010565 0.0 18.51869509084386 3.0599528903934905 0.0 21.81324085861752 3.03370365696264 0.0 1.2784112552376 3.108109890956202 0.0 1.6967579770866779 3.196300130824548 0.0 2.490173458255296 3.2915122686379745 0.0 4.1242711129083 3.387035883452265 0.0 7.220018565090871 3.47740924361691 0.0 12.14174510167242 3.558540978790119 0.0 17.41647066417657 3.627045270357831 0.0 20.5376937563133 3.3516695748190286 0.0 1.1921707409143978 3.4457758176630207 0.0 1.577973225778776 3.5614573487382963 0.0 2.308330870850844 3.679997331852792 0.0 3.8172574509586656 3.7899069744169616 0.0 6.6810028802504995 3.8914719187846196 0.0 11.241509375632798 3.969833843347824 0.0 16.14566674718142 4.06029542443671 0.0 19.07191523318058 3.4318229096012396 0.0 1.110644652150096 3.553783465383501 0.0 1.4618768077540618 3.714611075851644 0.0 2.117534867262864 3.8905556950585987 0.0 3.483974762874972 4.0420161918677096 0.0 6.093889295928419 4.15442593158516 0.0 10.263103578237839 4.234198227818251 0.0 14.766913259713052 4.338414703795499 0.0 17.4820255305165 3.3918693444194004 0.0 1.022034935745584 3.52203159383084 0.0 1.3421734579372249 3.7052933624182396 0.0 1.922613902665556 3.9211537744825207 0.0 3.1393059380512756 4.12701486259216 0.0 5.4846969711815206 4.27924496158228 0.0 9.2503848027824 4.39317205097238 0.0 13.34693858646166 4.5020133711895305 0.0 15.834884116755552 3.2953110201278104 0.0 0.9365262935673061 3.42939091025151 0.0 1.219163109860232 3.6182939184080825 0.0 1.7318672586261359 3.8580622132672087 0.0 2.80037644077348 4.1155116511648195 0.0 4.88628063316074 4.317587824524209 0.0 8.254041527733719 4.48513045041216 0.0 11.9366259192864 4.645218122757121 0.0 14.198182708144321 3.174196002549264 0.0 0.8538581188077599 3.300753362215408 0.0 1.1061375465324799 3.49004646746076 0.0 1.5505022653341751 3.7556280580401444 0.0 2.488371694072176 4.07366759207936 0.0 4.33607484537744 4.33662385488622 0.0 7.32341260345579 4.5997729382702195 0.0 10.593627377932918 4.881722144291521 0.0 12.6304780245248 3.030933681309744 0.0 0.779956343285616 3.1600454851904254 0.0 1.0027448411082451 3.3421257354342604 0.0 1.3990453716795002 3.6341504870484904 0.0 2.2294369939906953 4.02958907439984 0.0 3.872794558366944 4.39275926488824 0.0 6.50809451430354 4.81036695255648 0.0 9.3678175252368 5.2584045828486 0.0 11.165809644512551 2.8735058992602056 0.0 0.709595048218155 3.002975318720906 0.0 0.91943377866156 3.19077919983944 0.0 1.28076020245074 3.513580985587145 0.0 2.04933990022256 3.9940119978132476 0.0 3.528866245860848 4.5138536120631 0.0 5.84740677007272 5.14286847616774 0.0 8.29620872385522 5.820183406467099 0.0 9.83985233029535 2.702336674531612 0.0 0.64724587781434 2.836696094680104 0.0 0.8522147256464879 3.0462918621643635 0.0 1.2040732530876919 3.410618969620612 0.0 1.9542280015219362 3.9799451238063597 0.0 3.32601944214538 4.7010131357266 0.0 5.365242238905499 5.571648499538399 0.0 7.403726687358881 6.5243872640489196 0.0 8.66943296617608 2.535215758930224 0.0 0.59591683967697 2.6747664418228805 0.0 0.8014094364956281 2.9200580874201782 0.0 1.17707665021821 3.337568255554701 0.0 1.9513185548004033 4.00166282843038 0.0 3.2648379296592154 4.91056657875918 0.0 5.05632004743114 5.98768539307995 0.0 6.6902360016828 7.170572263792861 0.0 7.649259991225201 2.370958976357526 0.0 0.550549853244129 2.5375873692879236 0.0 0.77902133013714 2.8265724129245755 0.0 1.2128892397951678 3.3084334912301814 0.0 2.0377558149768182 4.0637458851044395 0.0 3.3244408312517764 5.076068562693241 0.0 4.869110082589561 6.2195818017888005 0.0 6.120211319060759 2.233114756298552 0.0 0.5254773400203039 2.4353155536540387 0.0 0.8004354949037721 2.779351871184916 0.0 1.315475899125952 3.340452479137291 0.0 2.209628427737661 4.165627035850281 0.0 3.45450546588217 5.18366761515911 0.0 4.72901554863059 6.26889026461551 0.0 5.6198260266640805 2.1341200954463915 0.0 0.5400910757122921 2.3851871563734632 0.0 0.8850384420615269 2.807983141219344 0.0 1.5041246716430219 3.45671383592865 0.0 2.454749395480278 4.3018104096858005 0.0 3.5936559653123905 5.24110847955318 0.0 4.58351998175916 2.094369860031441 0.0 0.6180706482525781 2.426067867189435 0.0 1.06305209035134 2.956784646620631 0.0 1.782128894116761 3.6695801344555403 0.0 2.725603424959062 4.48178111404416 0.0 3.6835195706834756 5.29792035492528 0.0 4.39765357466124 2.176638573514608 0.0 0.8049809245786559 2.6397212395658065 0.0 1.34646515070651 3.2536467961499036 0.0 2.096318891991756 3.9543610790628065 0.0 2.9596258329464096 4.65799136608836 0.0 3.7130091670983596 2.49607222002363 0.0 1.0942309600601192 3.074426890672224 0.0 1.659453316460364 3.67756251822585 0.0 2.3699578563602097 4.2387775701498 0.0 3.1183862333373 3.0486422132337383 0.0 1.405021634126808 3.5801242542002396 0.0 1.9617771717910402 4.05321818340162 0.0 2.5832588261527603 4.459936782229611 0.0 3.2006512975625214 3.5442241370362404 0.0 1.7198000371731201 3.8932583510946466 0.0 2.23703341344093 3.7585064207711 0.0 2.00850412424695 
TENSORS Ellispoids float
0.01 0.0 0.0 0.0 0.01 0.0 0.0 0.0 0.01 0.01 0.0 0.0 0.0 0.01 0.0 0.0 0.0 0.01 0.01 0.0 0.0 0.0 0.01 0.0 0.0 0.0 0.01 0.01 0.0 0.0 0.0 0.01 0.0 0.0 0.0 0.01 0.01 0.0 0.0 0.0 0.01 0.0 0.0 0.0 0.01 0.01 0.0 0.0 0.0 0.01 0.0 0.0 0.0 0.01 0.01 0.0 0.0 0.0 0.01 0.0 0.0 0.0 0.01 0.01 0.0 0.0 0.0 0.01 0.0 0.0 0.0 0.01 0.01 0.0 0.0 0.0 0.01 0.0 0.0 0.0 0.01 0.01 0.0 0.0 0.0 0.01 0.0 0.0 0.0 0.01 0.01 0.0 0.0 0.0 0.01 0.0 0.0 0.0 0.01 0.01 0.0 0.0 0.0 0.01 0.0 0.0 0.0 0.01 0.01 0.0 0.0 0.0 0.01 0.0 0.0 0.0 0.01 0.01 0.0 0.0 0.0 0.01 0.0 0.0 0.0 0.01 0.01 0.0 0.0 0.0 0.01 0.0 0.0 0.0 0.01 0.01 0.0 0.0 0.0 0.01 0.0 0.0 0.0 0.01 0.01 0.0 0.0 0.0 0.01 0.0 0.0 0.0 0.01 0.01 0.0 0.0 0.0 0.01 0.0 0.0 0.0 0.01 0.01 0.0 0.0 0.0 0.01 0.0 0.0 0.0 0.01 0.01 0.0 0.0 0.0 0.01 0.0 0.0 0.0 0.01 0.01 0.0 0.0 0.0 0.01 0.0 0.0 0.0 0.01 0.01 0.0 0.0 0.0 0.01 0.0 0.0 0.0 0.01 0.01 0.0 0.0 0.0 0.01 0.0 0.0 0.0 0.01 0.01 0.0 0.0 0.0 0.01 0.0 0.0 0.0 0.01 0.01 0.0 0.0 0.0 0.01 0.0 0.0 0.0 0.01 0.01 0.0 0.0 0.0 0.01 0.0 0.0 0.0 0.01 0.01 0.0 0.0 0.0 0.01 0.0 0.0 0.0 0.01 0.01 0.0 0.0 0.0 0.01 0.0 0.0 0.0 0.01 0.01 0.0 0.0 0.0 0.01 0.0 0.0 0.0 0.01 0.01 0.0 0.0 0.0 0.01 0.0 0.0 0.0 0.01 0.01 0.0 0.0 0.0 0.01 0.0 0.0 0.0 0.01 0.01 0.0 0.0 0.0 0.01 0.0 0.0 0.0 0.01 0.01 0.0 0.0 0.0 0.01 0.0 0.0 0.0 0.01 0.01 0.0 0.0 0.0 0.01 0.0 0.0 0.0 0.01 0.01 0.0 0.0 0.0 0.01 0.0 0.0 0.0 0.01 0.01 0.0 0.0 0.0 0.01 0.0 0.0 0.0 0.01 0.01 0.0 0.0 0.0 0.01 0.0 0.0 0.0 0.01 0.01 0.0 0.0 0.0 0.01 0.0 0.0 0.0 0.01 0.01 0.0 0.0 0.0 0.01 0.0 0.0 0.0 0.01 0.01 0.0 0.0 0.0 0.01 0.0 0.0 0.0 0.01 0.01 0.0 0.0 0.0 0.01 0.0 0.0 0.0 0.01 0.01 0.0 0.0 0.0 0.01 0.0 0.0 0.0 0.01 0.01 0.0 0.0 0.0 0.01 0.0 0.0 0.0 0.01 0.01 0.0 0.0 0.0 0.01 0.0 0.0 0.0 0.01 0.01 0.0 0.0 0.0 0.01 0.0 0.0 0.0 0.01 0.01 0.0 0.0 0.0 0.01 0.0 0.0 0.0 0.01 0.01 0.0 0.0 0.0 0.01 0.0 0.0 0.0 0.01 0.01 0.0 0.0 0.0 0.01 0.0 0.0 0.0 0.01 0.01 0.0 0.0 0.0 0.01 0.0 0.0 0.0 0.01 0.01 0.0 0.0 0.0 0.01 0.0 0.0 0.0 0.01 0.01 0.0 0.0 0.0 0.01 0.0 0.0 0.0 0.01 0.01 0.0 0.0 0.0 0.01 0.0 0.0 0.0 0.01 0.01 0.0 0.0 0.0 0.01 0.0 0.0 0.0 0.01 0.01 0.0 0.0 0.0 0.01 0.0 0.0 0.0 0.01 0.01 0.0 0.0 0.0 0.01 0.0 0.0 0.0 0.01 0.01 0.0 0.0 0.0 0.01 0.0 0.0 0.0 0.01 0.01 0.0 0.0 0.0 0.01 0.0 0.0 0.0 0.01 0.01 0.0 0.0 0.0 0.01 0.0 0.0 0.0 0.01 0.01 0.0 0.0 0.0 0.01 0.0 0.0 0.0 0.01 0.01 0.0 0.0 0.0 0.01 0.0 0.0 0.0 0.01 0.01 0.0 0.0 0.0 0.01 0.0 0.0 0.0 0.01 0.01 0.0 0.0 0.0 0.01 0.0 0.0 0.0 0.01 0.01 0.0 0.0 0.0 0.01 0.0 0.0 0.0 0.01 0.01 0.0 0.0 0.0 0.01 0.0 0.0 0.0 0.01 0.01 0.0 0.0 0.0 0.01 0.0 0.0 0.0 0.01 0.01 0.0 0.0 0.0 0.01 0.0 0.0 0.0 0.01 0.01 0.0 0.0 0.0 0.01 0.0 0.0 0.0 0.01 0.01 0.0 0.0 0.0 0.01 0.0 0.0 0.0 0.01 0.01 0.0 0.0 0.0 0.01 0.0 0.0 0.0 0.01 0.01 0.0 0.0 0.0 0.01 0.0 0.0 0.0 0.01 0.01 0.0 0.0 0.0 0.01 0.0 0.0 0.0 0.01 0.01 0.0 0.0 0.0 0.01 0.0 0.0 0.0 0.01 0.01 0.0 0.0 0.0 0.01 0.0 0.0 0.0 0.01 0.01 0.0 0.0 0.0 0.01 0.0 0.0 0.0 0.01 0.01 0.0 0.0 0.0 0.01 0.0 0.0 0.0 0.01 0.01 0.0 0.0 0.0 0.01 0.0 0.0 0.0 0.01 0.01 0.0 0.0 0.0 0.01 0.0 0.0 0.0 0.01 0.01 0.0 0.0 0.0 0.01 0.0 0.0 0.0 0.01 0.01 0.0 0.0 0.0 0.01 0.0 0.0 0.0 0.01 0.01 0.0 0.0 0.0 0.01 0.0 0.0 0.0 0.01 0.01 0.0 0.0 0.0 0.01 0.0 0.0 0.0 0.01 0.01 0.0 0.0 0.0 0.01 0.0 0.0 0.0 0.01 0.01 0.0 0.0 0.0 0.01 0.0 0.0 0.0 0.01 0.01 0.0 0.0 0.0 0.01 0.0 0.0 0.0 0.01 0.01 0.0 0.0 0.0 0.01 0.0 0.0 0.0 0.01 0.01 0.0 0.0 0.0 0.01 0.0 0.0 0.0 0.01 0.01 0.0 0.0 0.0 0.01 0.0 0.0 0.0 0.01 0.01 0.0 0.0 0.0 0.01 0.0 0.0 0.0 0.01 0.01 0.0 0.0 0.0 0.01 0.0 0.0 0.0 0.01 0.01 0.0 0.0 0.0 0.01 0.0 0.0 0.0 0.01 0.01 0.0 0.0 0.0 0.01 0.0 0.0 0.0 0.01 0.01 0.0 0.0 0.0 0.01 0.0 0.0 0.0 0.01 0.01 0.0 0.0 0.0 0.01 0.0 0.0 0.0 0.01 0.01 0.0 0.0 0.0 0.01 0.0 0.0 0.0 0.01 0.01 0.0 0.0 0.0 0.01 0.0 0.0 0.0 0.01 0.01 0.0 0.0 0.0 0.01 0.0 0.0 0.0 0.01 0.01 0.0 0.0 0.0 0.01 0.0 0.0 0.0 0.01 0.01 0.0 0.0 0.0 0.01 0.0 0.0 0.0 0.01 0.01 0.0 0.0 0.0 0.01 0.0 0.0 0.0 0.01 0.01 0.0 0.0 0.0 0.01 0.0 0.0 0.0 0.01 0.01 0.0 0.0 0.0 0.01 0.0 0.0 0.0 0.01 0.01 0.0 0.0 0.0 0.01 0.0 0.0 0.0 0.01 0.01 0.0 0.0 0.0 0.01 0.0 0.0 0.0 0.01 0.01 0.0 0.0 0.0 0.01 0.0 0.0 0.0 0.01 0.01 0.0 0.0 0.0 0.01 0.0 0.0 0.0 0.01 0.01 0.0 0.0 0.0 0.01 0.0 0.0 0.0 0.01 0.01 0.0 0.0 0.0 0.01 0.0 0.0 0.0 0.01 0.01 0.0 0.0 0.0 0.01 0.0 0.0 0.0 0.01 0.01 0.0 0.0 0.0 0.01 0.0 0.0 0.0 0.01 0.01 0.0 0.0 0.0 0.01 0.0 0.0 0.0 0.01 0.01 0.0 0.0 0.0 0.01 0.0 0.0 0.0 0.01 0.01 0.0 0.0 0.0 0.01 0.0 0.0 0.0 0.01 0.01 0.0 0.0 0.0 0.01 0.0 0.0 0.0 0.01 0.01 0.0 0.0 0.0 0.01 0.0 0.0 0.0 0.01 0.01 0.0 0.0 0.0 0.01 0.0 0.0 0.0 0.01 0.01 0.0 0.0 0.0 0.01 0.0 0.0 0.0 0.01 0.01 0.0 0.0 0.0 0.01 0.0 0.0 0.0 0.01 0.01 0.0 0.0 0.0 0.01 0.0 0.0 0.0 0.01 0.01 0.0 0.0 0.0 0.01 0.0 0.0 0.0 0.01 0.01 0.0 0.0 0.0 0.01 0.0 0.0 0.0 0.01 0.01 0.0 0.0 0.0 0.01 0.0 0.0 0.0 0.01 0.01 0.0 0.0 0.0 0.01 0.0 0.0 0.0 0.01 0.01 0.0 0.0 0.0 0.01 0.0 0.0 0.0 0.01 0.01 0.0 0.0 0.0 0.01 0.0 0.0 0.0 0.01 0.01 0.0 0.0 0.0 0.01 0.0 0.0 0.0 0.01 0.01 0.0 0.0 0.0 0.01 0.0 0.0 0.0 0.01 0.01 0.0 0.0 0.0 0.01 0.0 0.0 0.0 0.01 0.01 0.0 0.0 0.0 0.01 0.0 0.0 0.0 0.01 0.01 0.0 0.0 0.0 0.01 0.0 0.0 0.0 0.01 0.01 0.0 0.0 0.0 0.01 0.0 0.0 0.0 0.01 0.01 0.0 0.0 0.0 0.01 0.0 0.0 0.0 0.01 0.01 0.0 0.0 0.0 0.01 0.0 0.0 0.0 0.01 0.01 0.0 0.0 0.0 0.01 0.0 0.0 0.0 0.01 0.01 0.0 0.0 0.0 0.01 0.0 0.0 0.0 0.01 0.01 0.0 0.0 0.0 0.01 0.0 0.0 0.0 0.01 0.01 0.0 0.0 0.0 0.01 0.0 0.0 0.0 0.01 0.01 0.0 0.0 0.0 0.01 0.0 0.0 0.0 0.01 0.01 0.0 0.0 0.0 0.01 0.0 0.0 0.0 0.01 0.01 0.0 0.0 0.0 0.01 0.0 0.0 0.0 0.01 0.01 0.0 0.0 0.0 0.01 0.0 0.0 0.0 0.01 0.01 0.0 0.0 0.0 0.01 0.0 0.0 0.0 0.01 0.01 0.0 0.0 0.0 0.01 0.0 0.0 0.0 0.01 0.01 0.0 0.0 0.0 0.01 0.0 0.0 0.0 0.01 0.01 0.0 0.0 0.0 0.01 0.0 0.0 0.0 0.01 0.01 0.0 0.0 0.0 0.01 0.0 0.0 0.0 0.01 0.01 0.0 0.0 0.0 0.01 0.0 0.0 0.0 0.01 0.01 0.0 0.0 0.0 0.01 0.0 0.0 0.0 0.01 0.01 0.0 0.0 0.0 0.01 0.0 0.0 0.0 0.01 0.01 0.0 0.0 0.0 0.01 0.0 0.0 0.0 0.01 0.01 0.0 0.0 0.0 0.01 0.0 0.0 0.0 0.01 0.01 0.0 0.0 0.0 0.01 0.0 0.0 0.0 0.01 0.01 0.0 0.0 0.0 0.01 0.0 0.0 0.0 0.01 0.01 0.0 0.0 0.0 0.01 0.0 0.0 0.0 0.01 0.01 0.0 0.0 0.0 0.01 0.0 0.0 0.0 0.01 0.01 0.0 0.0 0.0 0.01 0.0 0.0 0.0 0.01 0.01 0.0 0.0 0.0 0.01 0.0 0.0 0.0 0.01 0.01 0.0 0.0 0.0 0.01 0.0 0.0 0.0 0.01 0.01 0.0 0.0 0.0 0.01 0.0 0.0 0.0 0.01 0.01 0.0 0.0 0.0 0.01 0.0 0.0 0.0 0.01 0.01 0.0 0.0 0.0 0.01 0.0 0.0 0.0 0.01 0.01 0.0 0.0 0.0 0.01 0.0 0.0 0.0 0.01 0.01 0.0 0.0 0.0 0.01 0.0 0.0 0.0 0.01 0.01 0.0 0.0 0.0 0.01 0.0 0.0 0.0 0.01 0.01 0.0 0.0 0.0 0.01 0.0 0.0 0.0 0.01 0.01 0.0 0.0 0.0 0.01 0.0 0.0 0.0 0.01 0.01 0.0 0.0 0.0 0.01 0.0 0.0 0.0 0.01 0.01 0.0 0.0 0.0 0.01 0.0 0.0 0.0 0.01 0.01 0.0 0.0 0.0 0.01 0.0 0.0 0.0 0.01 0.01 0.0 0.0 0.0 0.01 0.0 0.0 0.0 0.01 0.01 0.0 0.0 0.0 0.01 0.0 0.0 0.0 0.01 0.01 0.0 0.0 0.0 0.01 0.0 0.0 0.0 0.01 0.01 0.0 0.0 0.0 0.01 0.0 0.0 0.0 0.01 0.01 0.0 0.0 0.0 0.01 0.0 0.0 0.0 0.01 0.01 0.0 0.0 0.0 0.01 0.0 0.0 0.0 0.01 0.01 0.0 0.0 0.0 0.01 0.0 0.0 0.0 0.01 0.01 0.0 0.0 0.0 0.01 0.0 0.0 0.0 0.01 0.01 0.0 0.0 0.0 0.01 0.0 0.0 0.0 0.01 0.01 0.0 0.0 0.0 0.01 0.0 0.0 0.0 0.01 0.01 0.0 0.0 0.0 0.01 0.0 0.0 0.0 0.01 0.01 0.0 0.0 0.0 0.01 0.0 0.0 0.0 0.01 0.01 0.0 0.0 0.0 0.01 0.0 0.0 0.0 0.01 0.01 0.0 0.0 0.0 0.01 0.0 0.0 0.0 0.01 0.01 0.0 0.0 0.0 0.01 0.0 0.0 0.0 0.01 0.01 0.0 0.0 0.0 0.01 0.0 0.0 0.0 0.01 0.01 0.0 0.0 0.0 0.01 0.0 0.0 0.0 0.01 0.01 0.0 0.0 0.0 0.01 0.0 0.0 0.0 0.01 0.01 0.0 0.0 0.0 0.01 0.0 0.0 0.0 0.01 0.01 0.0 0.0 0.0 0.01 0.0 0.0 0.0 0.01 0.01 0.0 0.0 0.0 0.01 0.0 0.0 0.0 0.01 0.01 0.0 0.0 0.0 0.01 0.0 0.0 0.0 0.01 0.01 0.0 0.0 0.0 0.01 0.0 0.0 0.0 0.01 0.01 0.0 0.0 0.0 0.01 0.0 0.0 0.0 0.01 0.01 0.0 0.0 0.0 0.01 0.0 0.0 0.0 0.01 0.01 0.0 0.0 0.0 0.01 0.0 0.0 0.0 0.01 0.01 0.0 0.0 0.0 0.01 0.0 0.0 0.0 0.01 0.01 0.0 0.0 0.0 0.01 0.0 0.0 0.0 0.01 0.01 0.0 0.0 0.0 0.01 0.0 0.0 0.0 0.01 0.01 0.0 0.0 0.0 0.01 0.0 0.0 0.0 0.01 0.01 0.0 0.0 0.0 0.01 0.0 0.0 0.0 0.01 0.01 0.0 0.0 0.0 0.01 0.0 0.0 0.0 0.01 0.01 0.0 0.0 0.0 0.01 0.0 0.0 0.0 0.01 0.01 0.0 0.0 0.0 0.01 0.0 0.0 0.0 0.01 0.01 0.0 0.0 0.0 0.01 0.0 0.0 0.0 0.01 0.01 0.0 0.0 0.0 0.01 0.0 0.0 0.0 0.01 0.01 0.0 0.0 0.0 0.01 0.0 0.0 0.0 0.01 0.01 0.0 0.0 0.0 0.01 0.0 0.0 0.0 0.01 0.01 0.0 0.0 0.0 0.01 0.0 0.0 0.0 0.01 0.01 0.0 0.0 0.0 0.01 0.0 0.0 0.0 0.01 0.01 0.0 0.0 0.0 0.01 0.0 0.0 0.0 0.01 0.01 0.0 0.0 0.0 0.01 0.0 0.0 0.0 0.01 0.01 0.0 0.0 0.0 0.01 0.0 0.0 0.0 0.01 0.01 0.0 0.0 0.0 0.01 0.0 0.0 0.0 0.01 0.01 0.0 0.0 0.0 0.01 0.0 0.0 0.0 0.01 0.01 0.0 0.0 0.0 0.01 0.0 0.0 0.0 0.01 0.01 0.0 0.0 0.0 0.01 0.0 0.0 0.0 0.01 0.01 0.0 0.0 0.0 0.01 0.0 0.0 0.0 0.01 0.01 0.0 0.0 0.0 0.01 0.0 0.0 0.0 0.01 0.01 0.0 0.0 0.0 0.01 0.0 0.0 0.0 0.01 0.01 0.0 0.0 0.0 0.01 0.0 0.0 0.0 0.01 0.01 0.0 0.0 0.0 0.01 0.0 0.0 0.0 0.01 0.01 0.0 0.0 0.0 0.01 0.0 0.0 0.0 0.01 0.01 0.0 0.0 0.0 0.01 0.0 0.0 0.0 0.01 0.01 0.0 0.0 0.0 0.01 0.0 0.0 0.0 0.01 0.01 0.0 0.0 0.0 0.01 0.0 0.0 0.0 0.01 0.01 0.0 0.0 0.0 0.01 0.0 0.0 0.0 0.01 0.01 0.0 0.0 0.0 0.01 0.0 0.0 0.0 0.01 0.01 0.0 0.0 0.0 0.01 0.0 0.0 0.0 0.01 0.01 0.0 0.0 0.0 0.01 0.0 0.0 0.0 0.01 0.01 0.0 0.0 0.0 0.01 0.0 0.0 0.0 0.01 0.01 0.0 0.0 0.0 0.01 0.0 0.0 0.0 0.01 0.01 0.0 0.0 0.0 0.01 0.0 0.0 0.0 0.01 0.01 0.0 0.0 0.0 0.01 0.0 0.0 0.0 0.01 0.01 0.0 0.0 0.0 0.01 0.0 0.0 0.0 0.01 0.01 0.0 0.0 0.0 0.01 0.0 0.0 0.0 0.01 0.01 0.0 0.0 0.0 0.01 0.0 0.0 0.0 0.01 0.01 0.0 0.0 0.0 0.01 0.0 0.0 0.0 0.01 0.01 0.0 0.0 0.0 0.01 0.0 0.0 0.0 0.01 0.01 0.0 0.0 0.0 0.01 0.0 0.0 0.0 0.01 0.01 0.0 0.0 0.0 0.01 0.0 0.0 0.0 0.01 0.01 0.0 0.0 0.0 0.01 0.0 0.0 0.0 0.01 0.01 0.0 0.0 0.0 0.01 0.0 0.0 0.0 0.01 0.01 0.0 0.0 0.0 0.01 0.0 0.0 0.0 0.01 0.01 0.0 0.0 0.0 0.01 0.0 0.0 0.0 0.01 0.01 0.0 0.0 0.0 0.01 0.0 0.0 0.0 0.01 0.01 0.0 0.0 0.0 0.01 0.0 0.0 0.0 0.01 0.01 0.0 0.0 0.0 0.01 0.0 0.0 0.0 0.01 0.01 0.0 0.0 0.0 0.01 0.0 0.0 0.0 0.01 0.01 0.0 0.0 0.0 0.01 0.0 0.0 0.0 0.01 0.01 0.0 0.0 0.0 0.01 0.0 0.0 0.0 0.01 0.01 0.0 0.0 0.0 0.01 0.0 0.0 0.0 0.01 0.01 0.0 0.0 0.0 0.01 0.0 0.0 0.0 0.01 0.01 0.0 0.0 0.0 0.01 0.0 0.0 0.0 0.01 0.01 0.0 0.0 0.0 0.01 0.0 0.0 0.0 0.01 0.01 0.0 0.0 0.0 0.01 0.0 0.0 0.0 0.01 0.01 0.0 0.0 0.0 0.01 0.0 0.0 0.0 0.01 0.01 0.0 0.0 0.0 0.01 0.0 0.0 0.0 0.01 0.01 0.0 0.0 0.0 0.01 0.0 0.0 0.0 0.01 0.01 0.0 0.0 0.0 0.01 0.0 0.0 0.0 0.01 0.01 0.0 0.0 0.0 0.01 0.0 0.0 0.0 0.01 0.01 0.0 0.0 0.0 0.01 0.0 0.0 0.0 0.01 0.01 0.0 0.0 0.0 0.01 0.0 0.0 0.0 0.01 0.01 0.0 0.0 0.0 0.01 0.0 0.0 0.0 0.01 0.01 0.0 0.0 0.0 0.01 0.0 0.0 0.0 0.01 0.01 0.0 0.0 0.0 0.01 0.0 0.0 0.0 0.01 0.01 0.0 0.0 0.0 0.01 0.0 0.0 0.0 0.01 0.01 0.0 0.0 0.0 0.01 0.0 0.0 0.0 0.01 0.01 0.0 0.0 0.0 0.01 0.0 0.0 0.0 0.01 0.01 0.0 0.0 0.0 0.01 0.0 0.0 0.0 0.01 0.01 0.0 0.0 0.0 0.01 0.0 0.0 0.0 0.01 0.01 0.0 0.0 0.0 0.01 0.0 0.0 0.0 0.01 0.01 0.0 0.0 0.0 0.01 0.0 0.0 0.0 0.01 0.01 0.0 0.0 0.0 0.01 0.0 0.0 0.0 0.01 0.01 0.0 0.0 0.0 0.01 0.0 0.0 0.0 0.01 0.01 0.0 0.0 0.0 0.01 0.0 0.0 0.0 0.01 0.01 0.0 0.0 0.0 0.01 0.0 0.0 0.0 0.01 0.01 0.0 0.0 0.0 0.01 0.0 0.0 0.0 0.01 0.01 0.0 0.0 0.0 0.01 0.0 0.0 0.0 0.01 0.01 0.0 0.0 0.0 0.01 0.0 0.0 0.0 0.01 0.01 0.0 0.0 0.0 0.01 0.0 0.0 0.0 0.01 0.01 0.0 0.0 0.0 0.01 0.0 0.0 0.0 0.01 0.01 0.0 0.0 0.0 0.01 0.0 0.0 0.0 0.01 0.01 0.0 0.0 0.0 0.01 0.0 0.0 0.0 0.01 0.01 0.0 0.0 0.0 0.01 0.0 0.0 0.0 0.01 0.01 0.0 0.0 0.0 0.01 0.0 0.0 0.0 0.01 0.01 0.0 0.0 0.0 0.01 0.0 0.0 0.0 0.01 0.01 0.0 0.0 0.0 0.01 0.0 0.0 0.0 0.01 0.01 0.0 0.0 0.0 0.01 0.0 0.0 0.0 0.01 0.01 0.0 0.0 0.0 0.01 0.0 0.0 0.0 0.01 0.01 0.0 0.0 0.0 0.01 0.0 0.0 0.0 0.01 0.01 0.0 0.0 0.0 0.01 0.0 0.0 0.0 0.01 0.01 0.0 0.0 0.0 0.01 0.0 0.0 0.0 0.01 0.01 0.0 0.0 0.0 0.01 0.0 0.0 0.0 0.01 0.01 0.0 0.0 0.0 0.01 0.0 0.0 0.0 0.01 0.01 0.0 0.0 0.0 0.01 0.0 0.0 0.0 0.01 0.01 0.0 0.0 0.0 0.01 0.0 0.0 0.0 0.01 0.01 0.0 0.0 0.0 0.01 0.0 0.0 0.0 0.01 0.01 0.0 0.0 0.0 0.01 0.0 0.0 0.0 0.01 0.01 0.0 0.0 0.0 0.01 0.0 0.0 0.0 0.01 0.01 0.0 0.0 0.0 0.01 0.0 0.0 0.0 0.01 0.01 0.0 0.0 0.0 0.01 0.0 0.0 0.0 0.01 0.01 0.0 0.0 0.0 0.01 0.0 0.0 0.0 0.01 0.01 0.0 0.0 0.0 0.01 0.0 0.0 0.0 0.01 0.01 0.0 0.0 0.0 0.01 0.0 0.0 0.0 0.01 0.01 0.0 0.0 0.0 0.01 0.0 0.0 0.0 0.01 0.01 0.0 0.0 0.0 0.01 0.0 0.0 0.0 0.01 0.01 0.0 0.0 0.0 0.01 0.0 0.0 0.0 0.01 0.01 0.0 0.0 0.0 0.01 0.0 0.0 0.0 0.01 0.01 0.0 0.0 0.0 0.01 0.0 0.0 0.0 0.01 0.01 0.0 0.0 0.0 0.01 0.0 0.0 0.0 0.01 0.01 0.0 0.0 0.0 0.01 0.0 0.0 0.0 0.01 0.01 0.0 0.0 0.0 0.01 0.0 0.0 0.0 0.01 0.01 0.0 0.0 0.0 0.01 0.0 0.0 0.0 0.01 0.01 0.0 0.0 0.0 0.01 0.0 0.0 0.0 0.01 0.01 0.0 0.0 0.0 0.01 0.0 0.0 0.0 0.01 0.01 0.0 0.0 0.0 0.01 0.0 0.0 0.0 0.01 0.01 0.0 0.0 0.0 0.01 0.0 0.0 0.0 0.01 0.01 0.0 0.0 0.0 0.01 0.0 0.0 0.0 0.01 0.01 0.0 0.0 0.0 0.01 0.0 0.0 0.0 0.01 0.01 0.0 0.0 0.0 0.01 0.0 0.0 0.0 0.01 0.01 0.0 0.0 0.0 0.01 0.0 0.0 0.0 0.01 0.01 0.0 0.0 0.0 0.01 0.0 0.0 0.0 0.01 0.01 0.0 0.0 0.0 0.01 0.0 0.0 0.0 0.01 0.01 0.0 0.0 0.0 0.01 0.0 0.0 0.0 0.01 0.01 0.0 0.0 0.0 0.01 0.0 0.0 0.0 0.01 0.01 0.0 0.0 0.0 0.01 0.0 0.0 0.0 0.01 0.01 0.0 0.0 0.0 0.01 0.0 0.0 0.0 0.01 0.01 0.0 0.0 0.0 0.01 0.0 0.0 0.0 0.01 0.01 0.0 0.0 0.0 0.01 0.0 0.0 0.0 0.01 0.01 0.0 0.0 0.0 0.01 0.0 0.0 0.0 0.01 0.01 0.0 0.0 0.0 0.01 0.0 0.0 0.0 0.01 0.01 0.0 0.0 0.0 0.01 0.0 0.0 0.0 0.01 0.01 0.0 0.0 0.0 0.01 0.0 0.0 0.0 0.01 0.01 0.0 0.0 0.0 0.01 0.0 0.0 0.0 0.01 0.01 0.0 0.0 0.0 0.01 0.0 0.0 0.0 0.01 0.01 0.0 0.0 0.0 0.01 0.0 0.0 0.0 0.01 0.01 0.0 0.0 0.0 0.01 0.0 0.0 0.0 0.01 0.01 0.0 0.0 0.0 0.01 0.0 0.0 0.0 0.01 0.01 0.0 0.0 0.0 0.01 0.0 0.0 0.0 0.01 0.01 0.0 0.0 0.0 0.01 0.0 0.0 0.0 0.01 0.01 0.0 0.0 0.0 0.01 0.0 0.0 0.0 0.01 0.01 0.0 0.0 0.0 0.01 0.0 0.0 0.0 0.01 0.01 0.0 0.0 0.0 0.01 0.0 0.0 0.0 0.01 0.01 0.0 0.0 0.0 0.01 0.0 0.0 0.0 0.01 0.01 0.0 0.0 0.0 0.01 0.0 0.0 0.0 0.01 0.01 0.0 0.0 0.0 0.01 0.0 0.0 0.0 0.01 0.01 0.0 0.0 0.0 0.01 0.0 0.0 0.0 0.01 0.01 0.0 0.0 0.0 0.01 0.0 0.0 0.0 0.01 0.01 0.0 0.0 0.0 0.01 0.0 0.0 0.0 0.01 0.01 0.0 0.0 0.0 0.01 0.0 0.0 0.0 0.01 0.01 0.0 0.0 0.0 0.01 0.0 0.0 0.0 0.01 0.01 0.0 0.0 0.0 0.01 0.0 0.0 0.0 0.01 0.01 0.0 0.0 0.0 0.01 0.0 0.0 0.0 0.01 0.01 0.0 0.0 0.0 0.01 0.0 0.0 0.0 0.01 0.01 0.0 0.0 0.0 0.01 0.0 0.0 0.0 0.01 0.01 0.0 0.0 0.0 0.01 0.0 0.0 0.0 0.01 0.01 0.0 0.0 0.0 0.01 0.0 0.0 0.0 0.01 0.01 0.0 0.0 0.0 0.01 0.0 0.0 0.0 0.01 0.01 0.0 0.0 0.0 0.01 0.0 0.0 0.0 0.01 0.01 0.0 0.0 0.0 0.01 0.0 0.0 0.0 0.01 0.01 0.0 0.0 0.0 0.01 0.0 0.0 0.0 0.01 0.01 0.0 0.0 0.0 0.01 0.0 0.0 0.0 0.01 0.01 0.0 0.0 0.0 0.01 0.0 0.0 0.0 0.01 0.01 0.0 0.0 0.0 0.01 0.0 0.0 0.0 0.01 0.01 0.0 0.0 0.0 0.01 0.0 0.0 0.0 0.01 0.01 0.0 0.0 0.0 0.01 0.0 0.0 0.0 0.01 0.01 0.0 0.0 0.0 0.01 0.0 0.0 0.0 0.01 0.01 0.0 0.0 0.0 0.01 0.0 0.0 0.0 0.01 0.01 0.0 0.0 0.0 0.01 0.0 0.0 0.0 0.01 0.01 0.0 0.0 0.0 0.01 0.0 0.0 0.0 0.01 0.01 0.0 0.0 0.0 0.01 0.0 0.0 0.0 0.01 0.01 0.0 0.0 0.0 0.01 0.0 0.0 0.0 0.01 0.01 0.0 0.0 0.0 0.01 0.0 0.0 0.0 0.01 0.01 0.0 0.0 0.0 0.01 0.0 0.0 0.0 0.01 0.01 0.0 0.0 0.0 0.01 0.0 0.0 0.0 0.01 0.01 0.0 0.0 0.0 0.01 0.0 0.0 0.0 0.01 0.01 0.0 0.0 0.0 0.01 0.0 0.0 0.0 0.01 0.01 0.0 0.0 0.0 0.01 0.0 0.0 0.0 0.01 0.01 0.0 0.0 0.0 0.01 0.0 0.0 0.0 0.01 0.01 0.0 0.0 0.0 0.01 0.0 0.0 0.0 0.01 0.01 0.0 0.0 0.0 0.01 0.0 0.0 0.0 0.01 0.01 0.0 0.0 0.0 0.01 0.0 0.0 0.0 0.01 0.01 0.0 0.0 0.0 0.01 0.0 0.0 0.0 0.01 0.01 0.0 0.0 0.0 0.01 0.0 0.0 0.0 0.01 0.01 0.0 0.0 0.0 0.01 0.0 0.0 0.0 0.01 0.01 0.0 0.0 0.0 0.01 0.0 0.0 0.0 0.01 0.01 0.0 0.0 0.0 0.01 0.0 0.0 0.0 0.01 0.01 0.0 0.0 0.0 0.01 0.0 0.0 0.0 0.01 0.01 0.0 0.0 0.0 0.01 0.0 0.0 0.0 0.01 0.01 0.0 0.0 0.0 0.01 0.0 0.0 0.0 0.01 0.01 0.0 0.0 0.0 0.01 0.0 0.0 0.0 0.01 0.01 0.0 0.0 0.0 0.01 0.0 0.0 0.0 0.01 0.01 0.0 0.0 0.0 0.01 0.0 0.0 0.0 0.01 0.01 0.0 0.0 0.0 0.01 0.0 0.0 0.0 0.01 0.01 0.0 0.0 0.0 0.01 0.0 0.0 0.0 0.01 0.01 0.0 0.0 0.0 0.01 0.0 0.0 0.0 0.01 0.01 0.0 0.0 0.0 0.01 0.0 0.0 0.0 0.01 0.01 0.0 0.0 0.0 0.01 0.0 0.0 0.0 0.01 0.01 0.0 0.0 0.0 0.01 0.0 0.0 0.0 0.01 0.01 0.0 0.0 0.0 0.01 0.0 0.0 0.0 0.01 0.01 0.0 0.0 0.0 0.01 0.0 0.0 0.0 0.01 0.01 0.0 0.0 0.0 0.01 0.0 0.0 0.0 0.01 0.01 0.0 0.0 0.0 0.01 0.0 0.0 0.0 0.01 0.01 0.0 0.0 0.0 0.01 0.0 0.0 0.0 0.01 0.01 0.0 0.0 0.0 0.01 0.0 0.0 0.0 0.01 0.01 0.0 0.0 0.0 0.01 0.0 0.0 0.0 0.01 0.01 0.0 0.0 0.0 0.01 0.0 0.0 0.0 0.01 0.01 0.0 0.0 0.0 0.01 0.0 0.0 0.0 0.01 0.01 0.0 0.0 0.0 0.01 0.0 0.0 0.0 0.01 0.01 0.0 0.0 0.0 0.01 0.0 0.0 0.0 0.01 0.01 0.0 0.0 0.0 0.01 0.0 0.0 0.0 0.01 0.01 0.0 0.0 0.0 0.01 0.0 0.0 0.0 0.01 0.01 0.0 0.0 0.0 0.01 0.0 0.0 0.0 0.01 0.01 0.0 0.0 0.0 0.01 0.0 0.0 0.0 0.01 0.01 0.0 0.0 0.0 0.01 0.0 0.0 0.0 0.01 0.01 0.0 0.0 0.0 0.01 0.0 0.0 0.0 0.01 0.01 0.0 0.0 0.0 0.01 0.0 0.0 0.0 0.01 0.01 0.0 0.0 0.0 0.01 0.0 0.0 0.0 0.01 0.01 0.0 0.0 0.0 0.01 0.0 0.0 0.0 0.01 0.01 0.0 0.0 0.0 0.01 0.0 0.0 0.0 0.01 0.01 0.0 0.0 0.0 0.01 0.0 0.0 0.0 0.01 0.01 0.0 0.0 0.0 0.01 0.0 0.0 0.0 0.01 0.01 0.0 0.0 0.0 0.01 0.0 0.0 0.0 0.01 0.01 0.0 0.0 0.0 0.01 0.0 0.0 0.0 0.01 0.01 0.0 0.0 0.0 0.01 0.0 0.0 0.0 0.01 0.01 0.0 0.0 0.0 0.01 0.0 0.0 0.0 0.01 0.01 0.0 0.0 0.0 0.01 0.0 0.0 0.0 0.01 0.01 0.0 0.0 0.0 0.01 0.0 0.0 0.0 0.01 0.01 0.0 0.0 0.0 0.01 0.0 0.0 0.0 0.01 0.01 0.0 0.0 0.0 0.01 0.0 0.0 0.0 0.01 0.01 0.0 0.0 0.0 0.01 0.0 0.0 0.0 0.01 0.01 0.0 0.0 0.0 0.01 0.0 0.0 0.0 0.01 0.01 0.0 0.0 0.0 0.01 0.0 0.0 0.0 0.01 0.01 0.0 0.0 0.0 0.01 0.0 0.0 0.0 0.01 0.01 0.0 0.0 0.0 0.01 0.0 0.0 0.0 0.01 0.01 0.0 0.0 0.0 0.01 0.0 0.0 0.0 0.01 0.01 0.0 0.0 0.0 0.01 0.0 0.0 0.0 0.01 0.01 0.0 0.0 0.0 0.01 0.0 0.0 0.0 0.01 0.01 0.0 0.0 0.0 0.01 0.0 0.0 0.0 0.01 0.01 0.0 0.0 0.0 0.01 0.0 0.0 0.0 0.01 0.01 0.0 0.0 0.0 0.01 0.0 0.0 0.0 0.01 0.01 0.0 0.0 0.0 0.01 0.0 0.0 0.0 0.01 0.01 0.0 0.0 0.0 0.01 0.0 0.0 0.0 0.01 0.01 0.0 0.0 0.0 0.01 0.0 0.0 0.0 0.01 0.01 0.0 0.0 0.0 0.01 0.0 0.0 0.0 0.01 0.01 0.0 0.0 0.0 0.01 0.0 0.0 0.0 0.01 0.01 0.0 0.0 0.0 0.01 0.0 0.0 0.0 0.01 0.01 0.0 0.0 0.0 0.01 0.0 0.0 0.0 0.01 0.01 0.0 0.0 0.0 0.01 0.0 0.0 0.0 0.01 0.01 0.0 0.0 0.0 0.01 0.0 0.0 0.0 0.01 0.01 0.0 0.0 0.0 0.01 0.0 0.0 0.0 0.01 0.01 0.0 0.0 0.0 0.01 0.0 0.0 0.0 0.01 0.01 0.0 0.0 0.0 0.01 0.0 0.0 0.0 0.01 0.01 0.0 0.0 0.0 0.01 0.0 0.0 0.0 0.01 0.01 0.0 0.0 0.0 0.01 0.0 0.0 0.0 0.01 0.01 0.0 0.0 0.0 0.01 0.0 0.0 0.0 0.01 0.01 0.0 0.0 0.0 0.01 0.0 0.0 0.0 0.01 0.01 0.0 0.0 0.0 0.01 0.0 0.0 0.0 0.01 0.01 0.0 0.0 0.0 0.01 0.0 0.0 0.0 0.01 0.01 0.0 0.0 0.0 0.01 0.0 0.0 0.0 0.01 0.01 0.0 0.0 0.0 0.01 0.0 0.0 0.0 0.01 0.01 0.0 0.0 0.0 0.01 0.0 0.0 0.0 0.01 0.01 0.0 0.0 0.0 0.01 0.0 0.0 0.0 0.01 0.01 0.0 0.0 0.0 0.01 0.0 0.0 0.0 0.01 0.01 0.0 0.0 0.0 0.01 0.0 0.0 0.0 0.01 0.01 0.0 0.0 0.0 0.01 0.0 0.0 0.0 0.01 0.01 0.0 0.0 0.0 0.01 0.0 0.0 0.0 0.01 0.01 0.0 0.0 0.0 0.01 0.0 0.0 0.0 0.01 0.01 0.0 0.0 0.0 0.01 0.0 0.0 0.0 0.01 0.01 0.0 0.0 0.0 0.01 0.0 0.0 0.0 0.01 0.01 0.0 0.0 0.0 0.01 0.0 0.0 0.0 0.01 0.01 0.0 0.0 0.0 0.01 0.0 0.0 0.0 0.01 0.01 0.0 0.0 0.0 0.01 0.0 0.0 0.0 0.01 0.01 0.0 0.0 0.0 0.01 0.0 0.0 0.0 0.01 0.01 0.0 0.0 0.0 0.01 0.0 0.0 0.0 0.01 0.01 0.0 0.0 0.0 0.01 0.0 0.0 0.0 0.01 0.01 0.0 0.0 0.0 0.01 0.0 0.0 0.0 0.01 0.01 0.0 0.0 0.0 0.01 0.0 0.0 0.0 0.01 0.01 0.0 0.0 0.0 0.01 0.0 0.0 0.0 0.01 0.01 0.0 0.0 0.0 0.01 0.0 0.0 0.0 0.01 0.01 0.0 0.0 0.0 0.01 0.0 0.0 0.0 0.01 0.01 0.0 0.0 0.0 0.01 0.0 0.0 0.0 0.01 0.01 0.0 0.0 0.0 0.01 0.0 0.0 0.0 0.01 0.01 0.0 0.0 0.0 0.01 0.0 0.0 0.0 0.01 0.01 0.0 0.0 0.0 0.01 0.0 0.0 0.0 0.01 0.01 0.0 0.0 0.0 0.01 0.0 0.0 0.0 0.01 0.01 0.0 0.0 0.0 0.01 0.0 0.0 0.0 0.01 0.01 0.0 0.0 0.0 0.01 0.0 0.0 0.0 0.01 0.01 0.0 0.0 0.0 0.01 0.0 0.0 0.0 0.01 0.01 0.0 0.0 0.0 0.01 0.0 0.0 0.0 0.01 0.01 0.0 0.0 0.0 0.01 0.0 0.0 0.0 0.01 0.01 0.0 0.0 0.0 0.01 0.0 0.0 0.0 0.01 0.01 0.0 0.0 0.0 0.01 0.0 0.0 0.0 0.01 0.01 0.0 0.0 0.0 0.01 0.0 0.0 0.0 0.01 0.01 0.0 0.0 0.0 0.01 0.0 0.0 0.0 0.01 0.01 0.0 0.0 0.0 0.01 0.0 0.0 0.0 0.01 0.01 0.0 0.0 0.0 0.01 0.0 0.0 0.0 0.01 0.01 0.0 0.0 0.0 0.01 0.0 0.0 0.0 0.01 0.01 0.0 0.0 0.0 0.01 0.0 0.0 0.0 0.01 0.01 0.0 0.0 0.0 0.01 0.0 0.0 0.0 0.01 0.01 0.0 0.0 0.0 0.01 0.0 0.0 0.0 0.01 0.01 0.0 0.0 0.0 0.01 0.0 0.0 0.0 0.01 0.01 0.0 0.0 0.0 0.01 0.0 0.0 0.0 0.01 0.01 0.0 0.0 0.0 0.01 0.0 0.0 0.0 0.01 0.01 0.0 0.0 0.0 0.01 0.0 0.0 0.0 0.01 0.01 0.0 0.0 0.0 0.01 0.0 0.0 0.0 0.01 0.01 0.0 0.0 0.0 0.01 0.0 0.0 0.0 0.01 0.01 0.0 0.0 0.0 0.01 0.0 0.0 0.0 0.01 0.01 0.0 0.0 0.0 0.01 0.0 0.0 0.0 0.01 0.01 0.0 0.0 0.0 0.01 0.0 0.0 0.0 0.01 0.01 0.0 0.0 0.0 0.01 0.0 0.0 0.0 0.01 0.01 0.0 0.0 0.0 0.01 0.0 0.0 0.0 0.01 0.01 0.0 0.0 0.0 0.01 0.0 0.0 0.0 0.01 0.01 0.0 0.0 0.0 0.01 0.0 0.0 0.0 0.01 0.01 0.0 0.0 0.0 0.01 0.0 0.0 0.0 0.01 0.01 0.0 0.0 0.0 0.01 0.0 0.0 0.0 0.01 0.01 0.0 0.0 0.0 0.01 0.0 0.0 0.0 0.01 0.01 0.0 0.0 0.0 0.01 0.0 0.0 0.0 0.01 0.01 0.0 0.0 0.0 0.01 0.0 0.0 0.0 0.01 0.01 0.0 0.0 0.0 0.01 0.0 0.0 0.0 0.01 0.01 0.0 0.0 0.0 0.01 0.0 0.0 0.0 0.01 0.01 0.0 0.0 0.0 0.01 0.0 0.0 0.0 0.01 0.01 0.0 0.0 0.0 0.01 0.0 0.0 0.0 0.01 0.01 0.0 0.0 0.0 0.01 0.0 0.0 0.0 0.01 0.01 0.0 0.0 0.0 0.01 0.0 0.0 0.0 0.01 0.01 0.0 0.0 0.0 0.01 0.0 0.0 0.0 0.01 0.01 0.0 0.0 0.0 0.01 0.0 0.0 0.0 0.01 0.01 0.0 0.0 0.0 0.01 0.0 0.0 0.0 0.01 0.01 0.0 0.0 0.0 0.01 0.0 0.0 0.0 0.01 0.01 0.0 0.0 0.0 0.01 0.0 0.0 0.0 0.01 0.01 0.0 0.0 0.0 0.01 0.0 0.0 0.0 0.01 0.01 0.0 0.0 0.0 0.01 0.0 0.0 0.0 0.01 0.01 0.0 0.0 0.0 0.01 0.0 0.0 0.0 0.01 0.01 0.0 0.0 0.0 0.01 0.0 0.0 0.0 0.01 0.01 0.0 0.0 0.0 0.01 0.0 0.0 0.0 0.01 0.01 0.0 0.0 0.0 0.01 0.0 0.0 0.0 0.01 0.01 0.0 0.0 0.0 0.01 0.0 0.0 0.0 0.01 0.01 0.0 0.0 0.0 0.01 0.0 0.0 0.0 0.01 0.01 0.0 0.0 0.0 0.01 0.0 0.0 0.0 0.01 0.01 0.0 0.0 0.0 0.01 0.0 0.0 0.0 0.01 0.01 0.0 0.0 0.0 0.01 0.0 0.0 0.0 0.01 0.01 0.0 0.0 0.0 0.01 0.0 0.0 0.0 0.01 0.01 0.0 0.0 0.0 0.01 0.0 0.0 0.0 0.01 0.01 0.0 0.0 0.0 0.01 0.0 0.0 0.0 0.01 0.01 0.0 0.0 0.0 0.01 0.0 0.0 0.0 0.01 0.01 0.0 0.0 0.0 0.01 0.0 0.0 0.0 0.01 0.01 0.0 0.0 0.0 0.01 0.0 0.0 0.0 0.01 0.01 0.0 0.0 0.0 0.01 0.0 0.0 0.0 0.01 0.01 0.0 0.0 0.0 0.01 0.0 0.0 0.0 0.01 0.01 0.0 0.0 0.0 0.01 0.0 0.0 0.0 0.01 0.01 0.0 0.0 0.0 0.01 0.0 0.0 0.0 0.01 0.01 0.0 0.0 0.0 0.01 0.0 0.0 0.0 0.01 0.01 0.0 0.0 0.0 0.01 0.0 0.0 0.0 0.01 0.01 0.0 0.0 0.0 0.01 0.0 0.0 0.0 0.01 0.01 0.0 0.0 0.0 0.01 0.0 0.0 0.0 0.01 0.01 0.0 0.0 0.0 0.01 0.0 0.0 0.0 0.01 0.01 0.0 0.0 0.0 0.01 0.0 0.0 0.0 0.01 0.01 0.0 0.0 0.0 0.01 0.0 0.0 0.0 0.01 0.01 0.0 0.0 0.0 0.01 0.0 0.0 0.0 0.01 0.01 0.0 0.0 0.0 0.01 0.0 0.0 0.0 0.01 0.01 0.0 0.0 0.0 0.01 0.0 0.0 0.0 0.01 0.01 0.0 0.0 0.0 0.01 0.0 0.0 0.0 0.01 0.01 0.0 0.0 0.0 0.01 0.0 0.0 0.0 0.01 0.01 0.0 0.0 0.0 0.01 0.0 0.0 0.0 0.01 0.01 0.0 0.0 0.0 0.01 0.0 0.0 0.0 0.01 0.01 0.0 0.0 0.0 0.01 0.0 0.0 0.0 0.01 0.01 0.0 0.0 0.0 0.01 0.0 0.0 0.0 0.01 0.01 0.0 0.0 0.0 0.01 0.0 0.0 0.0 0.01 0.01 0.0 0.0 0.0 0.01 0.0 0.0 0.0 0.01 0.01 0.0 0.0 0.0 0.01 0.0 0.0 0.0 0.01 0.01 0.0 0.0 0.0 0.01 0.0 0.0 0.0 0.01 0.01 0.0 0.0 0.0 0.01 0.0 0.0 0.0 0.01 0.01 0.0 0.0 0.0 0.01 0.0 0.0 0.0 0.01 0.01 0.0 0.0 0.0 0.01 0.0 0.0 0.0 0.01 0.01 0.0 0.0 0.0 0.01 0.0 0.0 0.0 0.01 0.01 0.0 0.0 0.0 0.01 0.0 0.0 0.0 0.01 0.01 0.0 0.0 0.0 0.01 0.0 0.0 0.0 0.01 0.01 0.0 0.0 0.0 0.01 0.0 0.0 0.0 0.01 0.01 0.0 0.0 0.0 0.01 0.0 0.0 0.0 0.01 0.01 0.0 0.0 0.0 0.01 0.0 0.0 0.0 0.01 0.01 0.0 0.0 0.0 0.01 0.0 0.0 0.0 0.01 0.01 0.0 0.0 0.0 0.01 0.0 0.0 0.0 0.01 0.01 0.0 0.0 0.0 0.01 0.0 0.0 0.0 0.01 0.01 0.0 0.0 0.0 0.01 0.0 0.0 0.0 0.01 0.01 0.0 0.0 0.0 0.01 0.0 0.0 0.0 0.01 0.01 0.0 0.0 0.0 0.01 0.0 0.0 0.0 0.01 0.01 0.0 0.0 0.0 0.01 0.0 0.0 0.0 0.01 0.01 0.0 0.0 0.0 0.01 0.0 0.0 0.0 0.01 0.01 0.0 0.0 0.0 0.01 0.0 0.0 0.0 0.01 0.01 0.0 0.0 0.0 0.01 0.0 0.0 0.0 0.01 0.01 0.0 0.0 0.0 0.01 0.0 0.0 0.0 0.01 0.01 0.0 0.0 0.0 0.01 0.0 0.0 0.0 0.01 0.01 0.0 0.0 0.0 0.01 0.0 0.0 0.0 0.01 0.01 0.0 0.0 0.0 0.01 0.0 0.0 0.0 0.01 0.01 0.0 0.0 0.0 0.01 0.0 0.0 0.0 0.01 0.01 0.0 0.0 0.0 0.01 0.0 0.0 0.0 0.01 0.01 0.0 0.0 0.0 0.01 0.0 0.0 0.0 0.01 0.01 0.0 0.0 0.0 0.01 0.0 0.0 0.0 0.01 0.01 0.0 0.0 0.0 0.01 0.0 0.0 0.0 0.01 0.01 0.0 0.0 0.0 0.01 0.0 0.0 0.0 0.01 0.01 0.0 0.0 0.0 0.01 0.0 0.0 0.0 0.01 0.01 0.0 0.0 0.0 0.01 0.0 0.0 0.0 0.01 0.01 0.0 0.0 0.0 0.01 0.0 0.0 0.0 0.01 0.01 0.0 0.0 0.0 0.01 0.0 0.0 0.0 0.01 0.01 0.0 0.0 0.0 0.01 0.0 0.0 0.0 0.01 0.01 0.0 0.0 0.0 0.01 0.0 0.0 0.0 0.01 0.01 0.0 0.0 0.0 0.01 0.0 0.0 0.0 0.01 0.01 0.0 0.0 0.0 0.01 0.0 0.0 0.0 0.01 0.01 0.0 0.0 0.0 0.01 0.0 0.0 0.0 0.01 0.01 0.0 0.0 0.0 0.01 0.0 0.0 0.0 0.01 0.01 0.0 0.0 0.0 0.01 0.0 0.0 0.0 0.01 0.01 0.0 0.0 0.0 0.01 0.0 0.0 0.0 0.01 0.01 0.0 0.0 0.0 0.01 0.0 0.0 0.0 0.01 0.01 0.0 0.0 0.0 0.01 0.0 0.0 0.0 0.01 0.01 0.0 0.0 0.0 0.01 0.0 0.0 0.0 0.01 0.01 0.0 0.0 0.0 0.01 0.0 0.0 0.0 0.01 0.01 0.0 0.0 0.0 0.01 0.0 0.0 0.0 0.01 0.01 0.0 0.0 0.0 0.01 0.0 0.0 0.0 0.01 0.01 0.0 0.0 0.0 0.01 0.0 0.0 0.0 0.01 0.01 0.0 0.0 0.0 0.01 0.0 0.0 0.0 0.01 0.01 0.0 0.0 0.0 0.01 0.0 0.0 0.0 0.01 0.01 0.0 0.0 0.0 0.01 0.0 0.0 0.0 0.01 0.01 0.0 0.0 0.0 0.01 0.0 0.0 0.0 0.01 0.01 0.0 0.0 0.0 0.01 0.0 0.0 0.0 0.01 0.01 0.0 0.0 0.0 0.01 0.0 0.0 0.0 0.01 0.01 0.0 0.0 0.0 0.01 0.0 0.0 0.0 0.01 0.01 0.0 0.0 0.0 0.01 0.0 0.0 0.0 0.01 0.01 0.0 0.0 0.0 0.01 0.0 0.0 0.0 0.01 0.01 0.0 0.0 0.0 0.01 0.0 0.0 0.0 0.01 0.01 0.0 0.0 0.0 0.01 0.0 0.0 0.0 0.01 0.01 0.0 0.0 0.0 0.01 0.0 0.0 0.0 0.01 0.01 0.0 0.0 0.0 0.01 0.0 0.0 0.0 0.01 0.01 0.0 0.0 0.0 0.01 0.0 0.0 0.0 0.01 0.01 0.0 0.0 0.0 0.01 0.0 0.0 0.0 0.01 0.01 0.0 0.0 0.0 0.01 0.0 0.0 0.0 0.01 0.01 0.0 0.0 0.0 0.01 0.0 0.0 0.0 0.01 0.01 0.0 0.0 0.0 0.01 0.0 0.0 0.0 0.01 0.01 0.0 0.0 0.0 0.01 0.0 0.0 0.0 0.01 0.01 0.0 0.0 0.0 0.01 0.0 0.0 0.0 0.01 0.01 0.0 0.0 0.0 0.01 0.0 0.0 0.0 0.01 0.01 0.0 0.0 0.0 0.01 0.0 0.0 0.0 0.01 0.01 0.0 0.0 0.0 0.01 0.0 0.0 0.0 0.01 0.01 0.0 0.0 0.0 0.01 0.0 0.0 0.0 0.01 0.01 0.0 0.0 0.0 0.01 0.0 0.0 0.0 0.01 0.01 0.0 0.0 0.0 0.01 0.0 0.0 0.0 0.01 0.01 0.0 0.0 0.0 0.01 0.0 0.0 0.0 0.01 0.01 0.0 0.0 0.0 0.01 0.0 0.0 0.0 0.01 0.01 0.0 0.0 0.0 0.01 0.0 0.0 0.0 0.01 0.01 0.0 0.0 0.0 0.01 0.0 0.0 0.0 0.01 0.01 0.0 0.0 0.0 0.01 0.0 0.0 0.0 0.01 0.01 0.0 0.0 0.0 0.01 0.0 0.0 0.0 0.01 0.01 0.0 0.0 0.0 0.01 0.0 0.0 0.0 0.01 0.01 0.0 0.0 0.0 0.01 0.0 0.0 0.0 0.01 0.01 0.0 0.0 0.0 0.01 0.0 0.0 0.0 0.01 0.01 0.0 0.0 0.0 0.01 0.0 0.0 0.0 0.01 0.01 0.0 0.0 0.0 0.01 0.0 0.0 0.0 0.01 0.01 0.0 0.0 0.0 0.01 0.0 0.0 0.0 0.01 0.01 0.0 0.0 0.0 0.01 0.0 0.0 0.0 0.01 0.01 0.0 0.0 0.0 0.01 0.0 0.0 0.0 0.01 0.01 0.0 0.0 0.0 0.01 0.0 0.0 0.0 0.01 0.01 0.0 0.0 0.0 0.01 0.0 0.0 0.0 0.01 0.01 0.0 0.0 0.0 0.01 0.0 0.0 0.0 0.01 0.01 0.0 0.0 0.0 0.01 0.0 0.0 0.0 0.01 0.01 0.0 0.0 0.0 0.01 0.0 0.0 0.0 0.01 0.01 0.0 0.0 0.0 0.01 0.0 0.0 0.0 0.01 0.01 0.0 0.0 0.0 0.01 0.0 0.0 0.0 0.01 0.01 0.0 0.0 0.0 0.01 0.0 0.0 0.0 0.01 0.01 0.0 0.0 0.0 0.01 0.0 0.0 0.0 0.01 0.01 0.0 0.0 0.0 0.01 0.0 0.0 0.0 0.01 0.01 0.0 0.0 0.0 0.01 0.0 0.0 0.0 0.01 0.01 0.0 0.0 0.0 0.01 0.0 0.0 0.0 0.01 0.01 0.0 0.0 0.0 0.01 0.0 0.0 0.0 0.01 0.01 0.0 0.0 0.0 0.01 0.0 0.0 0.0 0.01 0.01 0.0 0.0 0.0 0.01 0.0 0.0 0.0 0.01 0.01 0.0 0.0 0.0 0.01 0.0 0.0 0.0 0.01 0.01 0.0 0.0 0.0 0.01 0.0 0.0 0.0 0.01 0.01 0.0 0.0 0.0 0.01 0.0 0.0 0.0 0.01 0.01 0.0 0.0 0.0 0.01 0.0 0.0 0.0 0.01 0.01 0.0 0.0 0.0 0.01 0.0 0.0 0.0 0.01 0.01 0.0 0.0 0.0 0.01 0.0 0.0 0.0 0.01 0.01 0.0 0.0 0.0 0.01 0.0 0.0 0.0 0.01 0.01 0.0 0.0 0.0 0.01 0.0 0.0 0.0 0.01 0.01 0.0 0.0 0.0 0.01 0.0 0.0 0.0 0.01 0.01 0.0 0.0 0.0 0.01 0.0 0.0 0.0 0.01 0.01 0.0 0.0 0.0 0.01 0.0 0.0 0.0 0.01 0.01 0.0 0.0 0.0 0.01 0.0 0.0 0.0 0.01 0.01 0.0 0.0 0.0 0.01 0.0 0.0 0.0 0.01 0.01 0.0 0.0 0.0 0.01 0.0 0.0 0.0 0.01 0.01 0.0 0.0 0.0 0.01 0.0 0.0 0.0 0.01 0.01 0.0 0.0 0.0 0.01 0.0 0.0 0.0 0.01 0.01 0.0 0.0 0.0 0.01 0.0 0.0 0.0 0.01 0.01 0.0 0.0 0.0 0.01 0.0 0.0 0.0 0.01 0.01 0.0 0.0 0.0 0.01 0.0 0.0 0.0 0.01 0.01 0.0 0.0 0.0 0.01 0.0 0.0 0.0 0.01 0.01 0.0 0.0 0.0 0.01 0.0 0.0 0.0 0.01 0.01 0.0 0.0 0.0 0.01 0.0 0.0 0.0 0.01 0.01 0.0 0.0 0.0 0.01 0.0 0.0 0.0 0.01 0.01 0.0 0.0 0.0 0.01 0.0 0.0 0.0 0.01 0.01 0.0 0.0 0.0 0.01 0.0 0.0 0.0 0.01 0.01 0.0 0.0 0.0 0.01 0.0 0.0 0.0 0.01 0.01 0.0 0.0 0.0 0.01 0.0 0.0 0.0 0.01 0.01 0.0 0.0 0.0 0.01 0.0 0.0 0.0 0.01 0.01 0.0 0.0 0.0 0.01 0.0 0.0 0.0 0.01 0.01 0.0 0.0 0.0 0.01 0.0 0.0 0.0 0.01 0.01 0.0 0.0 0.0 0.01 0.0 0.0 0.0 0.01 0.01 0.0 0.0 0.0 0.01 0.0 0.0 0.0 0.01 0.01 0.0 0.0 0.0 0.01 0.0 0.0 0.0 0.01 0.01 0.0 0.0 0.0 0.01 0.0 0.0 0.0 0.01 0.01 0.0 0.0 0.0 0.01 0.0 0.0 0.0 0.01 0.01 0.0 0.0 0.0 0.01 0.0 0.0 0.0 0.01 0.01 0.0 0.0 0.0 0.01 0.0 0.0 0.0 0.01 0.01 0.0 0.0 0.0 0.01 0.0 0.0 0.0 0.01 0.01 0.0 0.0 0.0 0.01 0.0 0.0 0.0 0.01 0.01 0.0 0.0 0.0 0.01 0.0 0.0 0.0 0.01 0.01 0.0 0.0 0.0 0.01 0.0 0.0 0.0 0.01 0.01 0.0 0.0 0.0 0.01 0.0 0.0 0.0 0.01 0.01 0.0 0.0 0.0 0.01 0.0 0.0 0.0 0.01 0.01 0.0 0.0 0.0 0.01 0.0 0.0 0.0 0.01 0.01 0.0 0.0 0.0 0.01 0.0 0.0 0.0 0.01 0.01 0.0 0.0 0.0 0.01 0.0 0.0 0.0 0.01 0.01 0.0 0.0 0.0 0.01 0.0 0.0 0.0 0.01 0.01 0.0 0.0 0.0 0.01 0.0 0.0 0.0 0.01 0.01 0.0 0.0 0.0 0.01 0.0 0.0 0.0 0.01 0.01 0.0 0.0 0.0 0.01 0.0 0.0 0.0 0.01 0.01 0.0 0.0 0.0 0.01 0.0 0.0 0.0 0.01 0.01 0.0 0.0 0.0 0.01 0.0 0.0 0.0 0.01 0.01 0.0 0.0 0.0 0.01 0.0 0.0 0.0 0.01 0.01 0.0 0.0 0.0 0.01 0.0 0.0 0.0 0.01 0.01 0.0 0.0 0.0 0.01 0.0 0.0 0.0 0.01 0.01 0.0 0.0 0.0 0.01 0.0 0.0 0.0 0.01 0.01 0.0 0.0 0.0 0.01 0.0 0.0 0.0 0.01 0.01 0.0 0.0 0.0 0.01 0.0 0.0 0.0 0.01 0.01 0.0 0.0 0.0 0.01 0.0 0.0 0.0 0.01 0.01 0.0 0.0 0.0 0.01 0.0 0.0 0.0 0.01 0.01 0.0 0.0 0.0 0.01 0.0 0.0 0.0 0.01 0.01 0.0 0.0 0.0 0.01 0.0 0.0 0.0 0.01 0.01 0.0 0.0 0.0 0.01 0.0 0.0 0.0 0.01 0.01 0.0 0.0 0.0 0.01 0.0 0.0 0.0 0.01 0.01 0.0 0.0 0.0 0.01 0.0 0.0 0.0 0.01 0.01 0.0 0.0 0.0 0.01 0.0 0.0 0.0 0.01 0.01 0.0 0.0 0.0 0.01 0.0 0.0 0.0 0.01 0.01 0.0 0.0 0.0 0.01 0.0 0.0 0.0 0.01 0.01 0.0 0.0 0.0 0.01 0.0 0.0 0.0 0.01 0.01 0.0 0.0 0.0 0.01 0.0 0.0 0.0 0.01 0.01 0.0 0.0 0.0 0.01 0.0 0.0 0.0 0.01 0.01 0.0 0.0 0.0 0.01 0.0 0.0 0.0 0.01 0.01 0.0 0.0 0.0 0.01 0.0 0.0 0.0 0.01 0.01 0.0 0.0 0.0 0.01 0.0 0.0 0.0 0.01 0.01 0.0 0.0 0.0 0.01 0.0 0.0 0.0 0.01 0.01 0.0 0.0 0.0 0.01 0.0 0.0 0.0 0.01 0.01 0.0 0.0 0.0 0.01 0.0 0.0 0.0 0.01 0.01 0.0 0.0 0.0 0.01 0.0 0.0 0.0 0.01 0.01 0.0 0.0 0.0 0.01 0.0 0.0 0.0 0.01 0.01 0.0 0.0 0.0 0.01 0.0 0.0 0.0 0.01 0.01 0.0 0.0 0.0 0.01 0.0 0.0 0.0 0.01 0.01 0.0 0.0 0.0 0.01 0.0 0.0 0.0 0.01 0.01 0.0 0.0 0.0 0.01 0.0 0.0 0.0 0.01 0.01 0.0 0.0 0.0 0.01 0.0 0.0 0.0 0.01 0.01 0.0 0.0 0.0 0.01 0.0 0.0 0.0 0.01 0.01 0.0 0.0 0.0 0.01 0.0 0.0 0.0 0.01 0.01 0.0 0.0 0.0 0.01 0.0 0.0 0.0 0.01 0.01 0.0 0.0 0.0 0.01 0.0 0.0 0.0 0.01 0.01 0.0 0.0 0.0 0.01 0.0 0.0 0.0 0.01 0.01 0.0 0.0 0.0 0.01 0.0 0.0 0.0 0.01 0.01 0.0 0.0 0.0 0.01 0.0 0.0 0.0 0.01 0.01 0.0 0.0 0.0 0.01 0.0 0.0 0.0 0.01 0.01 0.0 0.0 0.0 0.01 0.0 0.0 0.0 0.01 0.01 0.0 0.0 0.0 0.01 0.0 0.0 0.0 0.01 0.01 0.0 0.0 0.0 0.01 0.0 0.0 0.0 0.01 0.01 0.0 0.0 0.0 0.01 0.0 0.0 0.0 0.01 0.01 0.0 0.0 0.0 0.01 0.0 0.0 0.0 0.01 0.01 0.0 0.0 0.0 0.01 0.0 0.0 0.0 0.01 0.01 0.0 0.0 0.0 0.01 0.0 0.0 0.0 0.01 0.01 0.0 0.0 0.0 0.01 0.0 0.0 0.0 0.01 0.01 0.0 0.0 0.0 0.01 0.0 0.0 0.0 0.01 0.01 0.0 0.0 0.0 0.01 0.0 0.0 0.0 0.01 0.01 0.0 0.0 0.0 0.01 0.0 0.0 0.0 0.01 0.01 0.0 0.0 0.0 0.01 0.0 0.0 0.0 0.01 0.01 0.0 0.0 0.0 0.01 0.0 0.0 0.0 0.01 0.01 0.0 0.0 0.0 0.01 0.0 0.0 0.0 0.01 0.01 0.0 0.0 0.0 0.01 0.0 0.0 0.0 0.01 0.01 0.0 0.0 0.0 0.01 0.0 0.0 0.0 0.01 0.01 0.0 0.0 0.0 0.01 0.0 0.0 0.0 0.01 0.01 0.0 0.0 0.0 0.01 0.0 0.0 0.0 0.01 0.01 0.0 0.0 0.0 0.01 0.0 0.0 0.0 0.01 0.01 0.0 0.0 0.0 0.01 0.0 0.0 0.0 0.01 0.01 0.0 0.0 0.0 0.01 0.0 0.0 0.0 0.01 0.01 0.0 0.0 0.0 0.01 0.0 0.0 0.0 0.01 0.01 0.0 0.0 0.0 0.01 0.0 0.0 0.0 0.01 0.01 0.0 0.0 0.0 0.01 0.0 0.0 0.0 0.01 0.01 0.0 0.0 0.0 0.01 0.0 0.0 0.0 0.01 0.01 0.0 0.0 0.0 0.01 0.0 0.0 0.0 0.01 0.01 0.0 0.0 0.0 0.01 0.0 0.0 0.0 0.01 0.01 0.0 0.0 0.0 0.01 0.0 0.0 0.0 0.01 0.01 0.0 0.0 0.0 0.01 0.0 0.0 0.0 0.01 0.01 0.0 0.0 0.0 0.01 0.0 0.0 0.0 0.01 0.01 0.0 0.0 0.0 0.01 0.0 0.0 0.0 0.01 0.01 0.0 0.0 0.0 0.01 0.0 0.0 0.0 0.01 0.01 0.0 0.0 0.0 0.01 0.0 0.0 0.0 0.01 0.01 0.0 0.0 0.0 0.01 0.0 0.0 0.0 0.01 0.01 0.0 0.0 0.0 0.01 0.0 0.0 0.0 0.01 0.01 0.0 0.0 0.0 0.01 0.0 0.0 0.0 0.01 0.01 0.0 0.0 0.0 0.01 0.0 0.0 0.0 0.01 0.01 0.0 0.0 0.0 0.01 0.0 0.0 0.0 0.01 0.01 0.0 0.0 0.0 0.01 0.0 0.0 0.0 0.01 0.01 0.0 0.0 0.0 0.01 0.0 0.0 0.0 0.01 0.01 0.0 0.0 0.0 0.01 0.0 0.0 0.0 0.01 0.01 0.0 0.0 0.0 0.01 0.0 0.0 0.0 0.01 0.01 0.0 0.0 0.0 0.01 0.0 0.0 0.0 0.01 0.01 0.0 0.0 0.0 0.01 0.0 0.0 0.0 0.01 0.01 0.0 0.0 0.0 0.01 0.0 0.0 0.0 0.01 0.01 0.0 0.0 0.0 0.01 0.0 0.0 0.0 0.01 0.01 0.0 0.0 0.0 0.01 0.0 0.0 0.0 0.01 0.01 0.0 0.0 0.0 0.01 0.0 0.0 0.0 0.01 0.01 0.0 0.0 0.0 0.01 0.0 0.0 0.0 0.01 0.01 0.0 0.0 0.0 0.01 0.0 0.0 0.0 0.01 0.01 0.0 0.0 0.0 0.01 0.0 0.0 0.0 0.01 0.01 0.0 0.0 0.0 0.01 0.0 0.0 0.0 0.01 0.01 0.0 0.0 0.0 0.01 0.0 0.0 0.0 0.01 0.01 0.0 0.0 0.0 0.01 0.0 0.0 0.0 0.01 0.01 0.0 0.0 0.0 0.01 0.0 0.0 0.0 0.01 0.01 0.0 0.0 0.0 0.01 0.0 0.0 0.0 0.01 0.01 0.0 0.0 0.0 0.01 0.0 0.0 0.0 0.01 0.01 0.0 0.0 0.0 0.01 0.0 0.0 0.0 0.01 0.01 0.0 0.0 0.0 0.01 0.0 0.0 0.0 0.01 0.01 0.0 0.0 0.0 0.01 0.0 0.0 0.0 0.01 0.01 0.0 0.0 0.0 0.01 0.0 0.0 0.0 0.01 0.01 0.0 0.0 0.0 0.01 0.0 0.0 0.0 0.01 0.01 0.0 0.0 0.0 0.01 0.0 0.0 0.0 0.01 0.01 0.0 0.0 0.0 0.01 0.0 0.0 0.0 0.01 0.01 0.0 0.0 0.0 0.01 0.0 0.0 0.0 0.01 0.01 0.0 0.0 0.0 0.01 0.0 0.0 0.0 0.01 0.01 0.0 0.0 0.0 0.01 0.0 0.0 0.0 0.01 0.01 0.0 0.0 0.0 0.01 0.0 0.0 0.0 0.01 0.01 0.0 0.0 0.0 0.01 0.0 0.0 0.0 0.01 0.01 0.0 0.0 0.0 0.01 0.0 0.0 0.0 0.01 0.01 0.0 0.0 0.0 0.01 0.0 0.0 0.0 0.01 0.01 0.0 0.0 0.0 0.01 0.0 0.0 0.0 0.01 0.01 0.0 0.0 0.0 0.01 0.0 0.0 0.0 0.01 0.01 0.0 0.0 0.0 0.01 0.0 0.0 0.0 0.01 0.01 0.0 0.0 0.0 0.01 0.0 0.0 0.0 0.01 0.01 0.0 0.0 0.0 0.01 0.0 0.0 0.0 0.01 0.01 0.0 0.0 0.0 0.01 0.0 0.0 0.0 0.01 0.01 0.0 0.0 0.0 0.01 0.0 0.0 0.0 0.01 0.01 0.0 0.0 0.0 0.01 0.0 0.0 0.0 0.01 0.01 0.0 0.0 0.0 0.01 0.0 0.0 0.0 0.01 0.01 0.0 0.0 0.0 0.01 0.0 0.0 0.0 0.01 0.01 0.0 0.0 0.0 0.01 0.0 0.0 0.0 0.01 0.01 0.0 0.0 0.0 0.01 0.0 0.0 0.0 0.01 0.01 0.0 0.0 0.0 0.01 0.0 0.0 0.0 0.01 0.01 0.0 0.0 0.0 0.01 0.0 0.0 0.0 0.01 0.01 0.0 0.0 0.0 0.01 0.0 0.0 0.0 0.01 0.01 0.0 0.0 0.0 0.01 0.0 0.0 0.0 0.01 0.01 0.0 0.0 0.0 0.01 0.0 0.0 0.0 0.01 0.01 0.0 0.0 0.0 0.01 0.0 0.0 0.0 0.01 0.01 0.0 0.0 0.0 0.01 0.0 0.0 0.0 0.01 0.01 0.0 0.0 0.0 0.01 0.0 0.0 0.0 0.01 0.01 0.0 0.0 0.0 0.01 0.0 0.0 0.0 0.01 0.01 0.0 0.0 0.0 0.01 0.0 0.0 0.0 0.01 0.01 0.0 0.0 0.0 0.01 0.0 0.0 0.0 0.01 0.01 0.0 0.0 0.0 0.01 0.0 0.0 0.0 0.01 0.01 0.0 0.0 0.0 0.01 0.0 0.0 0.0 0.01 0.01 0.0 0.0 0.0 0.01 0.0 0.0 0.0 0.01 0.01 0.0 0.0 0.0 0.01 0.0 0.0 0.0 0.01 0.01 0.0 0.0 0.0 0.01 0.0 0.0 0.0 0.01 0.01 0.0 0.0 0.0 0.01 0.0 0.0 0.0 0.01 0.01 0.0 0.0 0.0 0.01 0.0 0.0 0.0 0.01 0.01 0.0 0.0 0.0 0.01 0.0 0.0 0.0 0.01 0.01 0.0 0.0 0.0 0.01 0.0 0.0 0.0 0.01 0.01 0.0 0.0 0.0 0.01 0.0 0.0 0.0 0.01 0.01 0.0 0.0 0.0 0.01 0.0 0.0 0.0 0.01 0.01 0.0 0.0 0.0 0.01 0.0 0.0 0.0 0.01 0.01 0.0 0.0 0.0 0.01 0.0 0.0 0.0 0.01 0.01 0.0 0.0 0.0 0.01 0.0 0.0 0.0 0.01 0.01 0.0 0.0 0.0 0.01 0.0 0.0 0.0 0.01 0.01 0.0 0.0 0.0 0.01 0.0 0.0 0.0 0.01 0.01 0.0 0.0 0.0 0.01 0.0 0.0 0.0 0.01 0.01 0.0 0.0 0.0 0.01 0.0 0.0 0.0 0.01 0.01 0.0 0.0 0.0 0.01 0.0 0.0 0.0 0.01 0.01 0.0 0.0 0.0 0.01 0.0 0.0 0.0 0.01 0.01 0.0 0.0 0.0 0.01 0.0 0.0 0.0 0.01 0.01 0.0 0.0 0.0 0.01 0.0 0.0 0.0 0.01 0.01 0.0 0.0 0.0 0.01 0.0 0.0 0.0 0.01 0.01 0.0 0.0 0.0 0.01 0.0 0.0 0.0 0.01 0.01 0.0 0.0 0.0 0.01 0.0 0.0 0.0 0.01 0.01 0.0 0.0 0.0 0.01 0.0 0.0 0.0 0.01 0.01 0.0 0.0 0.0 0.01 0.0 0.0 0.0 0.01 0.01 0.0 0.0 0.0 0.01 0.0 0.0 0.0 0.01 0.01 0.0 0.0 0.0 0.01 0.0 0.0 0.0 0.01 0.01 0.0 0.0 0.0 0.01 0.0 0.0 0.0 0.01 0.01 0.0 0.0 0.0 0.01 0.0 0.0 0.0 0.01 0.01 0.0 0.0 0.0 0.01 0.0 0.0 0.0 0.01 0.01 0.0 0.0 0.0 0.01 0.0 0.0 0.0 0.01 0.01 0.0 0.0 0.0 0.01 0.0 0.0 0.0 0.01 0.01 0.0 0.0 0.0 0.01 0.0 0.0 0.0 0.01 0.01 0.0 0.0 0.0 0.01 0.0 0.0 0.0 0.01 0.01 0.0 0.0 0.0 0.01 0.0 0.0 0.0 0.01 0.01 0.0 0.0 0.0 0.01 0.0 0.0 0.0 0.01 0.01 0.0 0.0 0.0 0.01 0.0 0.0 0.0 0.01 0.01 0.0 0.0 0.0 0.01 0.0 0.0 0.0 0.01 0.01 0.0 0.0 0.0 0.01 0.0 0.0 0.0 0.01 0.01 0.0 0.0 0.0 0.01 0.0 0.0 0.0 0.01 0.01 0.0 0.0 0.0 0.01 0.0 0.0 0.0 0.01 0.01 0.0 0.0 0.0 0.01 0.0 0.0 0.0 0.01 0.01 0.0 0.0 0.0 0.01 0.0 0.0 0.0 0.01 0.01 0.0 0.0 0.0 0.01 0.0 0.0 0.0 0.01 0.01 0.0 0.0 0.0 0.01 0.0 0.0 0.0 0.01 0.01 0.0 0.0 0.0 0.01 0.0 0.0 0.0 0.01 0.01 0.0 0.0 0.0 0.01 0.0 0.0 0.0 0.01 0.01 0.0 0.0 0.0 0.01 0.0 0.0 0.0 0.01 0.01 0.0 0.0 0.0 0.01 0.0 0.0 0.0 0.01 0.01 0.0 0.0 0.0 0.01 0.0 0.0 0.0 0.01 0.01 0.0 0.0 0.0 0.01 0.0 0.0 0.0 0.01 0.01 0.0 0.0 0.0 0.01 0.0 0.0 0.0 0.01 0.01 0.0 0.0 0.0 0.01 0.0 0.0 0.0 0.01 0.01 0.0 0.0 0.0 0.01 0.0 0.0 0.0 0.01 0.01 0.0 0.0 0.0 0.01 0.0 0.0 0.0 0.01 0.01 0.0 0.0 0.0 0.01 0.0 0.0 0.0 0.01 0.01 0.0 0.0 0.0 0.01 0.0 0.0 0.0 0.01 0.01 0.0 0.0 0.0 0.01 0.0 0.0 0.0 0.01 0.01 0.0 0.0 0.0 0.01 0.0 0.0 0.0 0.01 0.01 0.0 0.0 0.0 0.01 0.0 0.0 0.0 0.01 0.01 0.0 0.0 0.0 0.01 0.0 0.0 0.0 0.01 0.01 0.0 0.0 0.0 0.01 0.0 0.0 0.0 0.01 0.01 0.0 0.0 0.0 0.01 0.0 0.0 0.0 0.01 0.01 0.0 0.0 0.0 0.01 0.0 0.0 0.0 0.01 0.01 0.0 0.0 0.0 0.01 0.0 0.0 0.0 0.01 0.01 0.0 0.0 0.0 0.01 0.0 0.0 0.0 0.01 0.01 0.0 0.0 0.0 0.01 0.0 0.0 0.0 0.01 0.01 0.0 0.0 0.0 0.01 0.0 0.0 0.0 0.01 0.01 0.0 0.0 0.0 0.01 0.0 0.0 0.0 0.01 0.01 0.0 0.0 0.0 0.01 0.0 0.0 0.0 0.01 0.01 0.0 0.0 0.0 0.01 0.0 0.0 0.0 0.01 0.01 0.0 0.0 0.0 0.01 0.0 0.0 0.0 0.01 0.01 0.0 0.0 0.0 0.01 0.0 0.0 0.0 0.01 0.01 0.0 0.0 0.0 0.01 0.0 0.0 0.0 0.01 0.01 0.0 0.0 0.0 0.01 0.0 0.0 0.0 0.01 0.01 0.0 0.0 0.0 0.01 0.0 0.0 0.0 0.01 0.01 0.0 0.0 0.0 0.01 0.0 0.0 0.0 0.01 0.01 0.0 0.0 0.0 0.01 0.0 0.0 0.0 0.01 0.01 0.0 0.0 0.0 0.01 0.0 0.0 0.0 0.01 0.01 0.0 0.0 0.0 0.01 0.0 0.0 0.0 0.01 0.01 0.0 0.0 0.0 0.01 0.0 0.0 0.0 0.01 0.01 0.0 0.0 0.0 0.01 0.0 0.0 0.0 0.01 0.01 0.0 0.0 0.0 0.01 0.0 0.0 0.0 0.01 0.01 0.0 0.0 0.0 0.01 0.0 0.0 0.0 0.01 0.01 0.0 0.0 0.0 0.01 0.0 0.0 0.0 0.01 0.01 0.0 0.0 0.0 0.01 0.0 0.0 0.0 0.01 0.01 0.0 0.0 0.0 0.01 0.0 0.0 0.0 0.01 0.01 0.0 0.0 0.0 0.01 0.0 0.0 0.0 0.01 0.01 0.0 0.0 0.0 0.01 0.0 0.0 0.0 0.01 0.01 0.0 0.0 0.0 0.01 0.0 0.0 0.0 0.01 0.01 0.0 0.0 0.0 0.01 0.0 0.0 0.0 0.01 0.01 0.0 0.0 0.0 0.01 0.0 0.0 0.0 0.01 0.01 0.0 0.0 0.0 0.01 0.0 0.0 0.0 0.01 0.01 0.0 0.0 0.0 0.01 0.0 0.0 0.0 0.01 0.01 0.0 0.0 0.0 0.01 0.0 0.0 0.0 0.01 0.01 0.0 0.0 0.0 0.01 0.0 0.0 0.0 0.01 0.01 0.0 0.0 0.0 0.01 0.0 0.0 0.0 0.01 0.01 0.0 0.0 0.0 0.01 0.0 0.0 0.0 0.01 0.01 0.0 0.0 0.0 0.01 0.0 0.0 0.0 0.01 0.01 0.0 0.0 0.0 0.01 0.0 0.0 0.0 0.01 0.01 0.0 0.0 0.0 0.01 0.0 0.0 0.0 0.01 0.01 0.0 0.0 0.0 0.01 0.0 0.0 0.0 0.01 0.01 0.0 0.0 0.0 0.01 0.0 0.0 0.0 0.01 0.01 0.0 0.0 0.0 0.01 0.0 0.0 0.0 0.01 0.01 0.0 0.0 0.0 0.01 0.0 0.0 0.0 0.01 0.01 0.0 0.0 0.0 0.01 0.0 0.0 0.0 0.01 0.01 0.0 0.0 0.0 0.01 0.0 0.0 0.0 0.01 0.01 0.0 0.0 0.0 0.01 0.0 0.0 0.0 0.01 0.01 0.0 0.0 0.0 0.01 0.0 0.0 0.0 0.01 0.01 0.0 0.0 0.0 0.01 0.0 0.0 0.0 0.01 0.01 0.0 0.0 0.0 0.01 0.0 0.0 0.0 0.01 0.01 0.0 0.0 0.0 0.01 0.0 0.0 0.0 0.01 0.01 0.0 0.0 0.0 0.01 0.0 0.0 0.0 0.01 0.01 0.0 0.0 0.0 0.01 0.0 0.0 0.0 0.01 0.01 0.0 0.0 0.0 0.01 0.0 0.0 0.0 0.01 0.01 0.0 0.0 0.0 0.01 0.0 0.0 0.0 0.01 0.01 0.0 0.0 0.0 0.01 0.0 0.0 0.0 0.01 0.01 0.0 0.0 0.0 0.01 0.0 0.0 0.0 0.01 0.01 0.0 0.0 0.0 0.01 0.0 0.0 0.0 0.01 0.01 0.0 0.0 0.0 0.01 0.0 0.0 0.0 0.01 0.01 0.0 0.0 0.0 0.01 0.0 0.0 0.0 0.01 0.01 0.0 0.0 0.0 0.01 0.0 0.0 0.0 0.01 0.01 0.0 0.0 0.0 0.01 0.0 0.0 0.0 0.01 0.01 0.0 0.0 0.0 0.01 0.0 0.0 0.0 0.01 0.01 0.0 0.0 0.0 0.01 0.0 0.0 0.0 0.01 0.01 0.0 0.0 0.0 0.01 0.0 0.0 0.0 0.01 0.01 0.0 0.0 0.0 0.01 0.0 0.0 0.0 0.01 0.01 0.0 0.0 0.0 0.01 0.0 0.0 0.0 0.01 0.01 0.0 0.0 0.0 0.01 0.0 0.0 0.0 0.01 0.01 0.0 0.0 0.0 0.01 0.0 0.0 0.0 0.01 0.01 0.0 0.0 0.0 0.01 0.0 0.0 0.0 0.01 0.01 0.0 0.0 0.0 0.01 0.0 0.0 0.0 0.01 0.01 0.0 0.0 0.0 0.01 0.0 0.0 0.0 0.01 0.01 0.0 0.0 0.0 0.01 0.0 0.0 0.0 0.01 0.01 0.0 0.0 0.0 0.01 0.0 0.0 0.0 0.01 0.01 0.0 0.0 0.0 0.01 0.0 0.0 0.0 0.01 0.01 0.0 0.0 0.0 0.01 0.0 0.0 0.0 0.01 0.01 0.0 0.0 0.0 0.01 0.0 0.0 0.0 0.01 0.01 0.0 0.0 0.0 0.01 0.0 0.0 0.0 0.01 0.01 0.0 0.0 0.0 0.01 0.0 0.0 0.0 0.01 0.01 0.0 0.0 0.0 0.01 0.0 0.0 0.0 0.01 0.01 0.0 0.0 0.0 0.01 0.0 0.0 0.0 0.01 0.01 0.0 0.0 0.0 0.01 0.0 0.0 0.0 0.01 0.01 0.0 0.0 0.0 0.01 0.0 0.0 0.0 0.01 0.01 0.0 0.0 0.0 0.01 0.0 0.0 0.0 0.01 0.01 0.0 0.0 0.0 0.01 0.0 0.0 0.0 0.01 0.01 0.0 0.0 0.0 0.01 0.0 0.0 0.0 0.01 0.01 0.0 0.0 0.0 0.01 0.0 0.0 0.0 0.01 0.01 0.0 0.0 0.0 0.01 0.0 0.0 0.0 0.01 0.01 0.0 0.0 0.0 0.01 0.0 0.0 0.0 0.01 0.01 0.0 0.0 0.0 0.01 0.0 0.0 0.0 0.01 0.01 0.0 0.0 0.0 0.01 0.0 0.0 0.0 0.01 0.01 0.0 0.0 0.0 0.01 0.0 0.0 0.0 0.01 0.01 0.0 0.0 0.0 0.01 0.0 0.0 0.0 0.01 0.01 0.0 0.0 0.0 0.01 0.0 0.0 0.0 0.01 0.01 0.0 0.0 0.0 0.01 0.0 0.0 0.0 0.01 0.01 0.0 0.0 0.0 0.01 0.0 0.0 0.0 0.01 0.01 0.0 0.0 0.0 0.01 0.0 0.0 0.0 0.01 0.01 0.0 0.0 0.0 0.01 0.0 0.0 0.0 0.01 0.01 0.0 0.0 0.0 0.01 0.0 0.0 0.0 0.01 0.01 0.0 0.0 0.0 0.01 0.0 0.0 0.0 0.01 0.01 0.0 0.0 0.0 0.01 0.0 0.0 0.0 0.01 0.01 0.0 0.0 0.0 0.01 0.0 0.0 0.0 0.01 0.01 0.0 0.0 0.0 0.01 0.0 0.0 0.0 0.01 0.01 0.0 0.0 0.0 0.01 0.0 0.0 0.0 0.01 0.01 0.0 0.0 0.0 0.01 0.0 0.0 0.0 0.01 0.01 0.0 0.0 0.0 0.01 0.0 0.0 0.0 0.01 0.01 0.0 0.0 0.0 0.01 0.0 0.0 0.0 0.01 0.01 0.0 0.0 0.0 0.01 0.0 0.0 0.0 0.01 0.01 0.0 0.0 0.0 0.01 0.0 0.0 0.0 0.01 0.01 0.0 0.0 0.0 0.01 0.0 0.0 0.0 0.01 0.009999999999999998 0.0 0.0 0.0 0.01 0.0 0.0 0.0 0.009999999999999998 0.009999999999999998 0.0 0.0 0.0 0.01 0.0 0.0 0.0 0.009999999999999998 0.01 0.0 0.0 0.0 0.01 0.0 0.0 0.0 0.01 0.01 0.0 0.0 0.0 0.01 0.0 0.0 0.0 0.01 0.009999999999999998 0.0 0.0 0.0 0.01 0.0 0.0 0.0 0.009999999999999998 0.01 0.0 0.0 0.0 0.01 0.0 0.0 0.0 0.01 0.009999999999999998 0.0 0.0 0.0 0.01 0.0 0.0 0.0 0.009999999999999998 0.01 0.0 0.0 0.0 0.01 0.0 0.0 0.0 0.01 0.01 0.0 0.0 0.0 0.01 0.0 0.0 0.0 0.01 0.01 0.0 0.0 0.0 0.01 0.0 0.0 0.0 0.01 0.009999999999999998 0.0 0.0 0.0 0.01 0.0 0.0 0.0 0.009999999999999998 0.01 0.0 0.0 0.0 0.01 0.0 0.0 0.0 0.01 0.01 0.0 0.0 0.0 0.01 0.0 0.0 0.0 0.01 0.009999999999999998 0.0 0.0 0.0 0.01 0.0 0.0 0.0 0.009999999999999998 0.01 0.0 0.0 0.0 0.01 0.0 0.0 0.0 0.01 0.01 0.0 0.0 0.0 0.01 0.0 0.0 0.0 0.01 0.01 0.0 2.0816681711721685e-17 0.0 0.01 0.0 2.0816681711721685e-17 0.0 0.01 0.01 0.0 5.204170427930421e-18 0.0 0.01 0.0 5.204170427930421e-18 0.0 0.01 0.01 0.0 0.0 0.0 0.01 0.0 0.0 0.0 0.01 0.009999999999999998 0.0 0.0 0.0 0.01 0.0 0.0 0.0 0.009999999999999998 0.009999999999999998 0.0 0.0 0.0 0.01 0.0 0.0 0.0 0.009999999999999998 0.009999999999999998 0.0 0.0 0.0 0.01 0.0 0.0 0.0 0.009999999999999998 0.009999999999999998 0.0 3.196228004487267e-15 0.0 0.01 0.0 3.196228004487267e-15 0.0 0.009999999999999998 0.009999999999999998 0.0 1.889113865338743e-15 0.0 0.01 0.0 1.889113865338743e-15 0.0 0.009999999999999998 0.009999999999999998 0.0 7.034303695085953e-16 0.0 0.01 0.0 7.034303695085953e-16 0.0 0.009999999999999998 0.009999999999999998 0.0 8.239936510889834e-17 0.0 0.01 0.0 8.239936510889834e-17 0.0 0.009999999999999998 0.009999999999999998 0.0 0.0 0.0 0.01 0.0 0.0 0.0 0.009999999999999998 0.01 0.0 0.0 0.0 0.01 0.0 0.0 0.0 0.01 0.01 0.0 4.1272540940440194e-14 0.0 0.01 0.0 4.1272540940440194e-14 0.0 0.01 0.009999999999999998 0.0 2.7712207528729493e-14 0.0 0.01 0.0 2.7712207528729493e-14 0.0 0.009999999999999998 0.009999999999999998 0.0 1.3824011380059176e-14 0.0 0.01 0.0 1.3824011380059176e-14 0.0 0.009999999999999998 0.009999999999999998 0.0 4.208439152719734e-15 0.0 0.01 0.0 4.208439152719734e-15 0.0 0.01 0.009999999999999998 0.0 5.299580219109146e-16 0.0 0.01 0.0 5.299580219109146e-16 0.0 0.009999999999999998 0.009999999999999998 0.0 0.0 0.0 0.01 0.0 0.0 0.0 0.009999999999999998 0.01 0.0 2.519703196091072e-13 0.0 0.01 0.0 2.519703196091072e-13 0.0 0.01 0.009999999999999998 0.0 1.8371502236158577e-13 0.0 0.01 0.0 1.8371502236158577e-13 0.0 0.009999999999999998 0.009999999999999998 0.0 1.0028783359317117e-13 0.0 0.01 0.0 1.0028783359317117e-13 0.0 0.009999999999999998 0.009999999999999998 0.0 3.869300713166268e-14 0.0 0.01 0.0 3.869300713166268e-14 0.0 0.009999999999999998 0.009999999999999998 0.0 8.833211939673902e-15 0.0 0.01 0.0 8.833211939673902e-15 0.0 0.01 0.01 0.0 7.337880303381894e-16 0.0 0.01 0.0 7.337880303381894e-16 0.0 0.01 0.009999999999999998 0.0 1.0629015029239852e-12 0.0 0.01 0.0 1.0629015029239852e-12 0.0 0.009999999999999998 0.009999999999999998 0.0 7.997595641295874e-13 0.0 0.01 0.0 7.997595641295874e-13 0.0 0.009999999999999998 0.009999999999999998 0.0 4.539198877884232e-13 0.0 0.01 0.0 4.539198877884232e-13 0.0 0.009999999999999998 0.009999999999999998 0.0 1.9105203530322967e-13 0.0 0.01 0.0 1.9105203530322967e-13 0.0 0.009999999999999998 0.009999999999999998 0.0 5.422051696513108e-14 0.0 0.01 0.0 5.422051696513108e-14 0.0 0.009999999999999998 0.009999999999999998 0.0 8.146261443187086e-15 0.0 0.01 0.0 8.146261443187086e-15 0.0 0.01 0.009999999999999998 0.0 3.516423263683066e-12 0.0 0.01 0.0 3.516423263683066e-12 0.0 0.009999999999999998 0.01 0.0 2.6423568194600122e-12 0.0 0.01 0.0 2.6423568194600122e-12 0.0 0.01 0.009999999999999998 0.0 1.50742959781347e-12 0.0 0.01 0.0 1.50742959781347e-12 0.0 0.009999999999999998 0.009999999999999998 0.0 6.529403753785523e-13 0.0 0.01 0.0 6.529403753785523e-13 0.0 0.009999999999999998 0.009999999999999998 0.0 2.0341714423999235e-13 0.0 0.01 0.0 2.0341714423999235e-13 0.0 0.009999999999999998 0.009999999999999998 0.0 3.891765382180168e-14 0.0 0.01 0.0 3.891765382180168e-14 0.0 0.009999999999999998 0.01 0.0 9.454109370365948e-12 0.0 0.01 0.0 9.454109370365948e-12 0.0 0.01 0.01 0.0 6.982435463154246e-12 0.0 0.01 0.0 6.982435463154246e-12 0.0 0.01 0.009999999999999998 0.0 3.921385785532472e-12 0.0 0.01 0.0 3.921385785532472e-12 0.0 0.009999999999999998 0.009999999999999998 0.0 1.695917711819206e-12 0.0 0.01 0.0 1.695917711819206e-12 0.0 0.009999999999999998 0.01 0.0 5.461013585783547e-13 0.0 0.01 0.0 5.461013585783547e-13 0.0 0.01 0.009999999999999998 0.0 1.1610851169407965e-13 0.0 0.01 0.0 1.1610851169407965e-13 0.0 0.009999999999999998 0.009999999999999998 0.0 2.0540238780675235e-11 0.0 0.01 0.0 2.0540238780675235e-11 0.0 0.009999999999999998 0.009999999999999998 0.0 1.4908117275391763e-11 0.0 0.01 0.0 1.4908117275391763e-11 0.0 0.009999999999999998 0.009999999500000037 0.0 8.17684884645703e-12 0.0 0.01 0.0 8.17684884645703e-12 0.0 0.009999999999999997 0.009999999500000035 0.0 3.4726239895796485e-12 0.0 0.01 0.0 3.4726239895796485e-12 0.0 0.009999999999999998 0.009999999500000035 0.0 1.1174972148271685e-12 0.0 0.01 0.0 1.1174972182153003e-12 0.0 0.009999999999999997 0.009999999500000037 0.0 2.4593820581545476e-13 0.0 0.01 0.0 2.4593820581545476e-13 0.0 0.009999999999999998 0.009999999500000035 0.0 3.56597128128161e-11 0.0 0.01 0.0 3.5659712704395885e-11 0.0 0.009999999999999997 0.009999999500000035 0.0 2.5660505079301565e-11 0.0 0.01 0.0 2.5660505187721783e-11 0.0 0.01 0.009999999500000035 0.0 1.3745133991497488e-11 0.0 0.01 0.0 1.3745133991497488e-11 0.0 0.01 0.00999999950000004 0.0 5.675180066015174e-12 0.0 0.01 0.0 5.675180066015174e-12 0.0 0.010000000000000002 0.009999999500000039 0.0 1.782880077296281e-12 0.0 0.01 0.0 1.7828800705200175e-12 0.0 0.010000000000000004 0.009999999500000035 0.0 3.8647351716992497e-13 0.0 0.01 0.0 3.8647351716992497e-13 0.0 0.009999999999999998 0.009999999500000037 0.0 4.992747925161578e-11 0.0 0.01 0.0 4.992747925161578e-11 0.0 0.01 0.009999999500000035 0.0 3.57064901734469e-11 0.0 0.01 0.0 3.57064901734469e-11 0.0 0.009999999999999997 0.009999999500000035 0.0 1.8633064112916903e-11 0.0 0.01 0.0 1.8633064058706794e-11 0.0 0.009999999999999998 0.009999999500000037 0.0 7.396914976148458e-12 0.0 0.01 0.0 7.396914976148458e-12 0.0 0.01 0.009999999000000148 0.0 2.2165646630710554e-12 0.0 0.01 0.0 2.2165646630710554e-12 0.0 0.009999999999999997 0.009999999000000152 0.0 4.5054851708736625e-13 0.0 0.01 0.0 4.5054851708736625e-13 0.0 0.010000000000000002 0.00999999900000015 0.0 5.7349621471018686e-11 0.0 0.01 0.0 5.734962136259847e-11 0.0 0.01 0.009999998500000341 0.0 4.023981993971082e-11 0.0 0.01 0.0 4.023981988550071e-11 0.0 0.010000000000000004 0.00999999850000034 0.0 2.0217533485029915e-11 0.0 0.01 0.0 2.0217533485029915e-11 0.0 0.010000000000000002 0.009999998500000336 0.0 7.574116301593131e-12 0.0 0.01 0.0 7.574116301593131e-12 0.0 0.009999999999999998 0.00999999850000034 0.0 2.0971919760835256e-12 0.0 0.01 0.0 2.0971919777775915e-12 0.0 0.010000000000000002 0.00999999850000034 0.0 3.729664409547729e-13 0.0 0.01 0.0 3.729664409547729e-13 0.0 0.010000000000000004 0.009999998000000598 0.0 5.351114397509488e-11 0.0 0.01 0.0 5.3511144029304986e-11 0.0 0.01 0.009999998000000603 0.0 3.605264665366287e-11 0.0 0.01 0.0 3.605264668076792e-11 0.0 0.010000000000000002 0.009999998000000601 0.0 1.705399191277105e-11 0.0 0.01 0.0 1.7053991885665996e-11 0.0 0.010000000000000004 0.0099999980000006 0.0 5.848442749241487e-12 0.0 0.01 0.0 5.848442752629619e-12 0.0 0.01 0.009999998000000601 0.0 1.416243475439857e-12 0.0 0.01 0.0 1.416243474592824e-12 0.0 0.010000000000000002 0.009999997500000938 0.0 1.9296501760410998e-13 0.0 0.01 0.0 1.9296501739235174e-13 0.0 0.01 0.00999999750000094 0.0 3.8191832644552184e-11 0.0 0.01 0.0 3.819183267165724e-11 0.0 0.010000000000000002 0.009999997000001353 0.0 2.4121040139769324e-11 0.0 0.01 0.0 2.4121040139769324e-11 0.0 0.01 0.00999999650000184 0.0 1.0366672554022391e-11 0.0 0.01 0.0 1.0366672550634259e-11 0.0 0.010000000000000002 0.009999996500001837 0.0 3.092139628927456e-12 0.0 0.01 0.0 3.09213962723339e-12 0.0 0.01 0.009999996500001839 0.0 5.830963441716451e-13 0.0 0.01 0.0 5.830963439598869e-13 0.0 0.010000000000000002 0.009999996500001839 0.0 4.300755545164372e-14 0.0 0.01 0.0 4.300755545164372e-14 0.0 0.010000000000000004 0.009999995500003038 0.0 1.8337489119941812e-11 0.0 0.01 0.0 1.8337489119941812e-11 0.0 0.01 0.009999995500003038 0.0 1.0394863264015551e-11 0.0 0.01 0.0 1.0394863264015551e-11 0.0 0.01000000050000004 0.009999995000003748 0.0 3.83412831292954e-12 0.0 0.01 0.0 3.8341283120825074e-12 0.0 0.010000000500000036 0.009999994500004536 0.0 8.70101347471685e-13 0.0 0.01 0.0 8.701013478952014e-13 0.0 0.010000000500000038 0.009999994000005404 0.0 8.856135692604279e-14 0.0 0.01 0.0 8.856135689957301e-14 0.0 0.01000000050000004 0.0099999940000054 0.0 -4.306049024860031e-18 0.0 0.01 0.0 -4.306049024860031e-18 0.0 0.01 0.00999999250000844 0.0 4.131780061284709e-12 0.0 0.01 0.0 4.131780060437676e-12 0.0 0.01000000050000004 0.009999992000009601 0.0 1.975094678448628e-12 0.0 0.01 0.0 1.975094678448628e-12 0.0 0.010000000500000042 0.0099999920000096 0.0 5.143044714573124e-13 0.0 0.01 0.0 5.143044713514332e-13 0.0 0.010000000500000036 0.009999992000009603 0.0 4.431215915057271e-14 0.0 0.01 0.0 4.431215914395526e-14 0.0 0.01000000050000004 0.009999992000009601 0.0 2.0968219409870855e-17 0.0 0.01 0.0 2.0968219409870855e-17 0.0 0.010000000500000038 0.009999992000009601 0.0 1.479154885609026e-17 0.0 0.01 0.0 1.479154885609026e-17 0.0 0.010000000500000038 0.009999989500016541 0.0 8.282097075560582e-14 0.0 0.01 0.0 8.282097075560582e-14 0.0 0.010000000500000042 0.009999988500019838 0.0 1.5316380730376398e-14 0.0 0.01 0.0 1.5316380728722037e-14 0.0 0.01000000050000004 0.00999998850001984 0.0 -2.091701698811496e-16 0.0 0.01 0.0 -2.091701698811496e-16 0.0 0.010000000500000042 0.009999988500019836 0.0 -8.564973368920759e-17 0.0 0.01 0.0 -8.564973368920759e-17 0.0 0.010000000500000038 0.0099999880000216 0.0 -2.0139528759722567e-17 0.0 0.01 0.0 -2.0139528759722567e-17 0.0 0.010000000500000038 0.0099999880000216 0.0 -1.2276746822708154e-17 0.0 0.01 0.0 -1.2276746822708154e-17 0.0 0.010000000500000038 0.009999983500040837 0.0 -9.09785634717939e-16 0.0 0.01 0.0 -9.09785634717939e-16 0.0 0.01000000100000015 0.009999983000043348 0.0 -6.512883808503549e-16 0.0 0.01 0.0 -6.512883808503549e-16 0.0 0.010000001450000313 0.009999982500045938 0.0 -3.6249763228520176e-16 0.0 0.01 0.0 -3.6249763225935237e-16 0.0 0.010000001450000314 0.009999982500045938 0.0 -9.318884563956311e-17 0.0 0.01 0.0 -9.318884563956311e-17 0.0 0.010000001450000314 0.009999982500045938 0.0 2.4597119280169326e-17 0.0 0.01 0.0 2.4597119280169326e-17 0.0 0.010000001450000314 0.009999982500045938 0.0 3.419389167865968e-17 0.0 0.01 0.0 3.419389167865968e-17 0.0 0.010000001450000314 0.009999975500090035 0.0 -1.3581791058721888e-15 0.0 0.01 0.0 -1.3581791058721888e-15 0.0 0.010000001950000567 0.00999997550009004 0.0 -1.3105997668906326e-15 0.0 0.01 0.0 -1.3105997668906326e-15 0.0 0.010000001950000573 0.009999975000093751 0.0 -6.211466023991627e-16 0.0 0.01 0.0 -6.211466023733133e-16 0.0 0.010000001950000571 0.0099999740001014 0.0 -1.5439906300335565e-16 0.0 0.01 0.0 -1.5439906300335565e-16 0.0 0.01000000195000057 0.0099999740001014 0.0 3.2336033347469694e-18 0.0 0.01 0.0 3.2336033347469694e-18 0.0 0.01000000195000057 0.0099999740001014 0.0 1.7524894463809116e-17 0.0 0.01 0.0 1.7524894463809116e-17 0.0 0.010000001450000314 0.009999963500199837 0.0 -2.3580903560184853e-15 0.0 0.01 0.0 -2.3580903562252804e-15 0.0 0.010000002450000902 0.00999996300020535 0.0 -2.4025399487917867e-15 0.0 0.01 0.0 -2.4025399487917867e-15 0.0 0.010000002450000902 0.009999963000205348 0.0 -1.3309941417769755e-15 0.0 0.01 0.0 -1.3309941417769755e-15 0.0 0.010000003400001733 0.00999996300020535 0.0 -3.9934382226572054e-16 0.0 0.01 0.0 -3.9934382226572054e-16 0.0 0.010000003900002283 0.009999963000205348 0.0 4.9079468825544375e-17 0.0 0.01 0.0 4.9079468825544375e-17 0.0 0.010000002950001304 0.009999963000205348 0.0 1.3244965864312066e-16 0.0 0.01 0.0 1.3244965864312066e-16 0.0 0.01000000195000057 0.009999946500429334 0.0 -2.158506640750154e-15 0.0 0.01 0.0 -2.158506640750154e-15 0.0 0.010000003900002281 0.009999947000421344 0.0 -4.90828205045824e-15 0.0 0.01 0.0 -4.908282050665035e-15 0.0 0.01000000390000228 0.009999947000421349 0.0 -2.884788431114585e-15 0.0 0.01 0.0 -2.8847884310111875e-15 0.0 0.010000005350004297 0.009999947500413437 0.0 -9.757302491849897e-16 0.0 0.01 0.0 -9.757302491849897e-16 0.0 0.010000005350004297 0.009999947500413433 0.0 -2.1387667792443364e-16 0.0 0.01 0.0 -2.1387667792443364e-16 0.0 0.010000004900003601 0.009999947000421346 0.0 7.80236153584282e-17 0.0 0.01 0.0 7.80236153584282e-17 0.0 0.010000003900002281 0.009999924000866392 0.0 -3.704866065667906e-15 0.0 0.01 0.0 -3.704866065667906e-15 0.0 0.010000005850005137 0.009999925000843743 0.0 -1.0455348120349672e-14 0.0 0.01 0.0 -1.0455348120349672e-14 0.0 0.010000006850007041 0.009999925500832531 0.0 -7.138913610928691e-15 0.0 0.01 0.0 -7.138913610721896e-15 0.0 0.010000008300010339 0.00999992600082139 0.0 -2.8144249249901018e-15 0.0 0.01 0.0 -2.8144249250418005e-15 0.0 0.010000008800011617 0.009999926500810328 0.0 -6.923530768733914e-16 0.0 0.01 0.0 -6.923530768733914e-16 0.0 0.010000007800009127 0.00999992700079934 0.0 -9.113773385432207e-17 0.0 0.01 0.0 -9.113773385432207e-17 0.0 0.010000006350006049 0.009999893001717318 0.0 -8.345516945130776e-15 0.0 0.01 0.0 -8.345516944923981e-15 0.0 0.010000008300010334 0.009999895001653722 0.0 -2.4613932175743828e-14 0.0 0.01 0.0 -2.4613932176157418e-14 0.0 0.010000010250015762 0.009999897001591321 0.0 -1.7686938951569444e-14 0.0 0.01 0.0 -1.768693895177624e-14 0.0 0.010000013650027947 0.009999898501545309 0.0 -7.675838579126422e-15 0.0 0.01 0.0 -7.675838579126422e-15 0.0 0.010000015150034427 0.009999900001499975 0.0 -2.1777484958675882e-15 0.0 0.01 0.0 -2.1777484958158895e-15 0.0 0.010000013200026137 0.009999900501485012 0.0 -6.487416163513085e-16 0.0 0.01 0.0 -6.487416163513085e-16 0.0 0.01000000975001426 0.009999857003067278 0.0 -1.751491817256392e-14 0.0 0.01 0.0 -1.751491817256392e-14 0.0 0.010000012700024196 0.009999860002939932 0.0 -6.314801113713942e-14 0.0 0.01 0.0 -6.314801113631224e-14 0.0 0.010000016600041337 0.009999863002815287 0.0 -4.641790042989412e-14 0.0 0.01 0.0 -4.641790042906694e-14 0.0 0.010000022450075603 0.009999864502753978 0.0 -2.0364991619666187e-14 0.0 0.01 0.0 -2.0364991619872982e-14 0.0 0.010000024400089309 0.009999867002653292 0.0 -5.847217705893524e-15 0.0 0.01 0.0 -5.847217705893524e-15 0.0 0.010000021500069338 0.009999868502593781 0.0 -2.0496644242323163e-15 0.0 0.01 0.0 -2.0496644242323163e-15 0.0 0.010000016600041337 0.009999816505050683 0.0 -6.156570095485728e-14 0.0 0.01 0.0 -6.156570095485728e-14 0.0 0.01000001955005733 0.009999821004806009 0.0 -1.6942763011984678e-13 0.0 0.01 0.0 -1.6942763011984678e-13 0.0 0.010000028300120136 0.00999982500459362 0.0 -1.2455438005286348e-13 0.0 0.01 0.0 -1.2455438005286348e-13 0.0 0.010000039050228742 0.009999828004437479 0.0 -5.30502945097525e-14 0.0 0.01 0.0 -5.3050294508925317e-14 0.0 0.010000042500270943 0.009999831504258719 0.0 -1.512523972920756e-14 0.0 0.01 0.0 -1.512523972920756e-14 0.0 0.010000036150196026 0.009999833504158222 0.0 -3.706060695883481e-15 0.0 0.01 0.0 -3.7060606958576314e-15 0.0 0.010000027350112205 0.009999779007325883 0.0 -2.0704555254828565e-13 0.0 0.01 0.0 -2.0704555254994e-13 0.0 0.010000031750151211 0.009999784006998148 0.0 -4.5205359326861616e-13 0.0 0.01 0.0 -4.5205359326861616e-13 0.0 0.0100000508003871 0.009999789506646305 0.0 -3.251372931147243e-13 0.0 0.01 0.0 -3.251372931147243e-13 0.0 0.010000069800730817 0.009999793506396118 0.0 -1.3188443423172516e-13 0.0 0.01 0.0 -1.3188443423172516e-13 0.0 0.010000072250783018 0.009999797506150732 0.0 -3.321899643007181e-14 0.0 0.01 0.0 -3.32189964302786e-14 0.0 0.010000061500567346 0.009999800505969842 0.0 -5.487652977584912e-15 0.0 0.01 0.0 -5.487652977584912e-15 0.0 0.010000046400322947 0.00999975200922522 0.0 -5.758894392427908e-13 0.0 0.01 0.0 -5.75889439239482e-13 0.0 0.010000058600515097 0.009999758008784247 0.0 -1.1231096285600168e-12 0.0 0.01 0.0 -1.1231096285533993e-12 0.0 0.010000090801236717 0.009999763008425021 0.0 -7.957690140116837e-13 0.0 0.01 0.0 -7.957690140116837e-13 0.0 0.010000118152093958 0.009999767508108126 0.0 -3.1468062971412815e-13 0.0 0.01 0.0 -3.1468062971412815e-13 0.0 0.010000120102163647 0.009999772507763148 0.0 -6.846043165318667e-14 0.0 0.01 0.0 -6.846043165318667e-14 0.0 0.01000010155154689 0.009999776007526119 0.0 -7.695284322089786e-16 0.0 0.01 0.0 -7.695284322089786e-16 0.0 0.010000075700859585 0.009999748009525201 0.0 -1.3779109430709377e-12 0.0 0.01 0.0 -1.3779109430643203e-12 0.0 0.010000117702078037 0.009999753009150973 0.0 -2.474079204371231e-12 0.0 0.01 0.0 -2.474079204357996e-12 0.0 0.010000164554061617 0.009999758008784247 0.0 -1.7311100491005472e-12 0.0 0.01 0.0 -1.7311100491005472e-12 0.0 0.010000193855636857 0.009999762508460604 0.0 -6.803245483847613e-13 0.0 0.01 0.0 -6.803245483847613e-13 0.0 0.010000192405552845 0.009999766508178022 0.0 -1.3242849168324826e-13 0.0 0.01 0.0 -1.3242849168242107e-13 0.0 0.010000163103990352 0.009999770507900236 0.0 1.337123909040001e-14 0.0 0.01 0.0 1.337123909040001e-14 0.0 0.010000120602181698 0.009999776507492562 0.0 -2.732651163834919e-12 0.0 0.01 0.0 -2.7326511638216843e-12 0.0 0.010000241708763187 0.00999978050722677 0.0 -4.623689646497777e-12 0.0 0.01 0.0 -4.623689646524247e-12 0.0 0.010000291012702764 0.009999783007063095 0.0 -3.231509026402736e-12 0.0 0.01 0.0 -3.231509026415971e-12 0.0 0.010000305664014001 0.009999786006869153 0.0 -1.280369506871329e-12 0.0 0.01 0.0 -1.280369506871329e-12 0.0 0.010000293962961627 0.009999789006677915 0.0 -2.445824745882712e-13 0.0 0.01 0.0 -2.445824745882712e-13 0.0 0.010000248059229703 0.009999792506458218 0.0 4.2571379422110256e-14 0.0 0.01 0.0 4.257137942231705e-14 0.0 0.010000183605056502 0.009999843003697254 0.0 -4.458229577108438e-12 0.0 0.01 0.0 -4.458229577095203e-12 0.0 0.010000487835695227 0.009999843503673741 0.0 -7.2490896715776884e-12 0.0 0.01 0.0 -7.2490896715644535e-12 0.0 0.01000051028905658 0.009999843503673745 0.0 -5.060807386350874e-12 0.0 0.01 0.0 -5.0608073863376394e-12 0.0 0.01000047318358329 0.009999844503626946 0.0 -2.0323504919228283e-12 0.0 0.01 0.0 -2.0323504919228283e-12 0.0 0.010000429227633877 0.009999845503580447 0.0 -3.994665814317232e-13 0.0 0.01 0.0 -3.9946658143006886e-13 0.0 0.010000356469059625 0.009999847503488353 0.0 6.882853261482537e-14 0.0 0.01 0.0 6.882853261503217e-14 0.0 0.01000026366042716 0.00999994150051333 0.0 -5.884816509092209e-12 0.0 0.01 0.0 -5.884816509092209e-12 0.0 0.010000908823879114 0.009999939500549037 0.0 -9.350258445166898e-12 0.0 0.01 0.0 -9.350258445166898e-12 0.0 0.010000859460788233 0.009999937000595347 0.0 -6.499271917471851e-12 0.0 0.01 0.0 -6.499271917458616e-12 0.0 0.010000706124784795 0.009999935500624033 0.0 -2.6470227449390446e-12 0.0 0.01 0.0 -2.6470227449258097e-12 0.0 0.010000597203493547 0.00999993450064353 0.0 -5.377692680293987e-13 0.0 0.01 0.0 -5.377692680277443e-13 0.0 0.01000048538533755 0.009999934500643536 0.0 8.682543474500362e-14 0.0 0.01 0.0 8.682543474500362e-14 0.0 0.010000358419268739 0.010000059550531936 0.0 -6.183883768503752e-12 0.0 0.01 0.0 -6.183883768516987e-12 0.0 0.010001431457301849 0.010000055200457063 0.0 -9.627290561147976e-12 0.0 0.01 0.0 -9.627290561147976e-12 0.0 0.010001286398180476 0.010000051250393991 0.0 -6.72293202573407e-12 0.0 0.01 0.0 -6.72293202573407e-12 0.0 0.010000975742792526 0.01000004685032924 0.0 -2.781998718187772e-12 0.0 0.01 0.0 -2.781998718201007e-12 0.0 0.010000781341564655 0.01000004445029637 0.0 -5.937319768046703e-13 0.0 0.01 0.0 -5.937319768046703e-13 0.0 0.010000624558506126 0.010000042500270938 0.0 7.922738523942844e-14 0.0 0.01 0.0 7.922738523942844e-14 0.0 0.010000459481666571 0.010000175804635981 0.0 -5.221225272912202e-12 0.0 0.01 0.0 -5.22122527291882e-12 0.0 0.010001866722567905 0.010000169904330024 0.0 -7.993951895398045e-12 0.0 0.01 0.0 -7.993951895398045e-12 0.0 0.01000165471061949 0.010000164054036973 0.0 -5.612212304535594e-12 0.0 0.01 0.0 -5.612212304535594e-12 0.0 0.010001220423378636 0.010000159653823323 0.0 -2.347650354828815e-12 0.0 0.01 0.0 -2.347650354825506e-12 0.0 0.01000095523685419 0.010000156253662207 0.0 -5.199548151567938e-13 0.0 0.01 0.0 -5.199548151584482e-13 0.0 0.010000756935934127 0.010000152853504557 0.0 5.099254801332727e-14 0.0 0.01 0.0 5.0992548013120474e-14 0.0 0.010000556196399724 0.010000266110621851 0.0 -3.5868041124924023e-12 0.0 0.01 0.0 -3.5868041124990197e-12 0.0 0.010002123726340519 0.010000260760199029 0.0 -5.403073958018522e-12 0.0 0.01 0.0 -5.403073958031757e-12 0.0 0.010001896539392853 0.01000025535978096 0.0 -3.804758228876477e-12 0.0 0.01 0.0 -3.804758228876477e-12 0.0 0.010001402144846402 0.010000251009450548 0.0 -1.595713074708704e-12 0.0 0.01 0.0 -1.595713074708704e-12 0.0 0.010001098330923127 0.010000247559192533 0.0 -3.568931699742638e-13 0.0 0.01 0.0 -3.568931699734366e-13 0.0 0.010000871213838813 0.01000024365890516 0.0 2.6561023935993727e-14 0.0 0.01 0.0 2.6561023936200522e-14 0.0 0.010000640661561826 0.010000318365202815 0.0 -1.8642992381537906e-12 0.0 0.01 0.0 -1.8642992381537906e-12 0.0 0.010002248308006098 0.01000031351474311 0.0 -2.9567114490477425e-12 0.0 0.01 0.0 -2.9567114490510512e-12 0.0 0.010002033319990443 0.010000309564373921 0.0 -2.083896916688464e-12 0.0 0.01 0.0 -2.083896916688464e-12 0.0 0.010001524298452046 0.010000305664014005 0.0 -8.650672820300684e-13 0.0 0.01 0.0 -8.650672820300684e-13 0.0 0.010001205317883665 0.01000030276374933 0.0 -1.8733605272008654e-13 0.0 0.01 0.0 -1.8733605272008654e-13 0.0 0.010000959588103731 0.010000299313437743 0.0 1.2937090380200563e-14 0.0 0.01 0.0 1.2937090380252262e-14 0.0 0.010000706624890755 0.010000329116246912 0.0 -6.428751933983388e-13 0.0 0.01 0.0 -6.428751933983388e-13 0.0 0.010002303045358448 0.010000326165956943 0.0 -1.2278088780833234e-12 0.0 0.01 0.0 -1.2278088780824962e-12 0.0 0.010002106115171376 0.010000323765722957 0.0 -8.733732570982499e-13 0.0 0.01 0.0 -8.733732570990771e-13 0.0 0.010001601434606797 0.010000320315389633 0.0 -3.5312712499480315e-13 0.0 0.01 0.0 -3.5312712499563033e-13 0.0 0.010001278545159864 0.0100003178651551 0.0 -7.20111468185459e-14 0.0 0.01 0.0 -7.20111468185459e-14 0.0 0.010001022106683962 0.010000315464927093 0.0 5.452682921186227e-15 0.0 0.01 0.0 5.452682921186227e-15 0.0 0.010000752534937804 0.010000310564466944 0.0 -8.42738356756469e-14 0.0 0.01 0.0 -8.42738356756469e-14 0.0 0.010002322608926318 0.01000030861428583 0.0 -3.2623237916096493e-13 0.0 0.01 0.0 -3.2623237916096493e-13 0.0 0.010002142788534684 0.010000306664105861 0.0 -2.422891969805651e-13 0.0 0.01 0.0 -2.422891969801515e-13 0.0 0.010001645906261961 0.010000304713927023 0.0 -9.494371421510258e-14 0.0 0.01 0.0 -9.494371421489578e-14 0.0 0.010001323512706526 0.01000030226370395 0.0 -1.712589131699666e-14 0.0 0.01 0.0 -1.712589131699666e-14 0.0 0.010001060718744775 0.010000300313527692 0.0 2.1494016464707005e-15 0.0 0.01 0.0 2.1494016464707005e-15 0.0 0.010000781341564657 0.010000276361455928 0.0 4.361685996938064e-14 0.0 0.01 0.0 4.361685996935479e-14 0.0 0.010002326961960871 0.01000027491133602 0.0 -1.4562227035350157e-14 0.0 0.01 0.0 -1.4562227035350157e-14 0.0 0.010002157447986486 0.010000274411294823 0.0 -1.8418406324217574e-14 0.0 0.01 0.0 -1.8418406324217574e-14 0.0 0.010001666416449038 0.010000272461134855 0.0 -6.89766018192707e-15 0.0 0.01 0.0 -6.89766018192707e-15 0.0 0.010001345471495325 0.010000271011016647 0.0 -8.430952371105894e-16 0.0 0.01 0.0 -8.430952371105894e-16 0.0 0.010001079274699943 0.010000269060858671 0.0 2.102350314052675e-16 0.0 0.01 0.0 2.102350314052675e-16 0.0 0.010000794994792459 0.010000241208726968 0.0 6.811483680528356e-16 0.0 0.01 0.0 6.811483680528356e-16 0.0 0.010002322108577886 0.010000240708690822 0.0 -4.0231725820477044e-15 0.0 0.01 0.0 -4.0231725820477044e-15 0.0 0.010002155496724677 0.010000240258658356 0.0 -5.124225586730253e-15 0.0 0.01 0.0 -5.124225586730253e-15 0.0 0.010001668867674956 0.010000238758550576 0.0 -2.989197002462364e-15 0.0 0.01 0.0 -2.989197002462364e-15 0.0 0.010001348922889862 0.010000237308447027 0.0 -8.017383643693583e-16 0.0 0.01 0.0 -8.017383643693583e-16 0.0 0.010001082225656509 0.010000235858344112 0.0 8.991894871197304e-17 0.0 0.01 0.0 8.991894871197304e-17 0.0 0.01000079694525814 0.010000212406767307 0.0 -9.160733203458901e-14 0.0 0.01 0.0 -9.160733203469241e-14 0.0 0.010002315253811891 0.01000021190673548 0.0 -1.4040870526829299e-13 0.0 0.01 0.0 -1.404087052681896e-13 0.0 0.010002145240110873 0.01000021095667522 0.0 -1.0022793683869282e-13 0.0 0.01 0.0 -1.0022793683879622e-13 0.0 0.010001656661588226 0.010000209456580625 0.0 -4.2233575289404926e-14 0.0 0.01 0.0 -4.2233575289404926e-14 0.0 0.01000133671797448 0.010000208506521066 0.0 -8.1097164658309e-15 0.0 0.01 0.0 -8.1097164658309e-15 0.0 0.010001072422488837 0.010000207056430678 0.0 1.4338653037611324e-15 0.0 0.01 0.0 1.4338653037611324e-15 0.0 0.01000079014363918 0.010000189955412325 0.0 -2.432145691821503e-13 0.0 0.01 0.0 -2.432145691817367e-13 0.0 0.010002275676569947 0.010000188955355484 0.0 -3.9755298127696977e-13 0.0 0.01 0.0 -3.975529812765562e-13 0.0 0.010002105664887018 0.01000018800530177 0.0 -2.832886480178504e-13 0.0 0.01 0.0 -2.832886480174368e-13 0.0 0.010001624395713511 0.010000187005245513 0.0 -1.1616905501779933e-13 0.0 0.01 0.0 -1.1616905501779933e-13 0.0 0.010001309357117521 0.010000185555164477 0.0 -2.4101613563829383e-14 0.0 0.01 0.0 -2.410161356388108e-14 0.0 0.010001049965340932 0.010000184105084079 0.0 2.936167805182425e-15 0.0 0.01 0.0 2.936167805182425e-15 0.0 0.0100007730396293 0.010000169454307116 0.0 -4.826695809594891e-13 0.0 0.01 0.0 -4.826695809603163e-13 0.0 0.01000220237735631 0.010000168954281739 0.0 -7.874768938796184e-13 0.0 0.01 0.0 -7.874768938796184e-13 0.0 0.010002038222983635 0.010000167954231198 0.0 -5.552310533784197e-13 0.0 0.01 0.0 -5.552310533784197e-13 0.0 0.010001571670444569 0.010000166504158454 0.0 -2.2877479070027897e-13 0.0 0.01 0.0 -2.2877479070027897e-13 0.0 0.010001267340882235 0.010000165054086338 0.0 -4.787598795222192e-14 0.0 0.01 0.0 -4.787598795222192e-14 0.0 0.010001015304605586 0.01000016405403697 0.0 4.468257120195502e-15 0.0 0.01 0.0 4.468257120195502e-15 0.0 0.010000748133947288 0.010000148953327997 0.0 -8.222639870226914e-13 0.0 0.01 0.0 -8.222639870226914e-13 0.0 0.010002097809936387 0.01000014795328346 0.0 -1.2781478075003484e-12 0.0 0.01 0.0 -1.2781478075011756e-12 0.0 0.010001943416383321 0.010000146953239225 0.0 -8.96235126524457e-13 0.0 0.01 0.0 -8.962351265236298e-13 0.0 0.010001500837809516 0.010000145003153826 0.0 -3.7234897013779756e-13 0.0 0.01 0.0 -3.7234897013779756e-13 0.0 0.010001210669822727 0.010000143053069569 0.0 -7.985282637236001e-14 0.0 0.01 0.0 -7.985282637236001e-14 0.0 0.010000971341507322 0.010000141102986453 0.0 5.83375706909433e-15 0.0 0.01 0.0 5.83375706909433e-15 0.0 0.010000714426553505 0.01000012550236259 0.0 -1.1907374126692699e-12 0.0 0.01 0.0 -1.1907374126692699e-12 0.0 0.010001967380435605 0.01000012355228974 0.0 -1.8025930343142698e-12 0.0 0.01 0.0 -1.8025930343126154e-12 0.0 0.010001826650375871 0.010000121602218028 0.0 -1.2545352022752407e-12 0.0 0.01 0.0 -1.2545352022735864e-12 0.0 0.010001413399598301 0.01000011915212955 0.0 -5.216426776971526e-13 0.0 0.01 0.0 -5.216426776979797e-13 0.0 0.010001142795867512 0.010000116702042873 0.0 -1.1550663121725937e-13 0.0 0.01 0.0 -1.1550663121705258e-13 0.0 0.010000916626015087 0.010000113751940898 0.0 6.7357757167346475e-15 0.0 0.01 0.0 6.7357757167346475e-15 0.0 0.01000067436820974 0.01000010060151808 0.0 -1.5113532466089867e-12 0.0 0.01 0.0 -1.5113532466089867e-12 0.0 0.010001816895046214 0.01000009765143035 0.0 -2.256435971018937e-12 0.0 0.01 0.0 -2.256435971018937e-12 0.0 0.01000169132899232 0.010000094251332482 0.0 -1.5647885102007531e-12 0.0 0.01 0.0 -1.5647885102007531e-12 0.0 0.010001313258651955 0.010000090351224488 0.0 -6.446262127509363e-13 0.0 0.01 0.0 -6.446262127509363e-13 0.0 0.010001064619988228 0.010000086451121059 0.0 -1.4057377598583595e-13 0.0 0.01 0.0 -1.4057377598583595e-13 0.0 0.010000854609541142 0.010000082501020953 0.0 8.070144164829731e-15 0.0 0.01 0.0 8.070144164829731e-15 0.0 0.010000628959333503 0.01000007765090444 0.0 -1.7134624508312002e-12 0.0 0.01 0.0 -1.7134624508312002e-12 0.0 0.010001652759651893 0.010000073250804842 0.0 -5.240006747275317e-12 0.0 0.01 0.0 -5.240006747275317e-12 0.0 0.010001543807427633 0.01000006835070077 0.0 -2.420235617616876e-12 0.0 0.01 0.0 -2.420235617616876e-12 0.0 0.010001203817341545 0.010000062500585946 0.0 -7.172349970905588e-13 0.0 0.01 0.0 -7.172349970922132e-13 0.0 0.010000978643642763 0.010000056150472928 0.0 -1.5689791896368288e-13 0.0 0.01 0.0 -1.568979189632693e-13 0.0 0.010000786692823104 0.010000050800387102 0.0 7.424490004832291e-15 0.0 0.01 0.0 7.424490004832291e-15 0.0 0.01000057915030838 0.010000061050559075 0.0 -1.7467862501200946e-12 0.0 0.01 0.0 -1.746786250121749e-12 0.0 0.010001482279507758 0.010000054700448817 0.0 -9.407838103493154e-11 0.0 0.01 0.0 -9.407838103503742e-11 0.0 0.010001390890132496 0.010000046400322949 0.0 -7.658629258232083e-11 0.0 0.01 0.0 -7.65862925824267e-11 0.0 0.01000108952803484 0.010000038100217743 0.0 -2.5838418334667856e-11 0.0 0.01 0.0 -2.5838418334667856e-11 0.0 0.010000889268605736 0.010000029800133209 0.0 -2.2992940050052706e-12 0.0 0.01 0.0 -2.2992940050052706e-12 0.0 0.010000715876864616 0.010000022450075603 0.0 5.8998355621489865e-15 0.0 0.01 0.0 5.8998355621489865e-15 0.0 0.010000527391718372 0.010000051750401712 0.0 1.757077041513702e-12 0.0 0.01 0.0 1.7570770415153564e-12 0.0 0.010001309807294342 0.010000042950276738 0.0 -4.4897240710797364e-10 0.0 0.01 0.0 -4.4897240710755013e-10 0.0 0.010001237029498474 0.010000031750151238 0.0 -4.218543607486871e-10 0.0 0.01 0.0 -4.218543607486871e-10 0.0 0.010000977193217356 0.010000020000060004 0.0 -1.938557582307129e-10 0.0 0.01 0.0 -1.938557582307129e-10 0.0 0.010000800396084834 0.010000009750014261 0.0 -4.6377004822360684e-11 0.0 0.01 0.0 -4.6377004822254805e-11 0.0 0.010000645562507264 0.009999999999999998 0.0 -3.89245248637343e-12 0.0 0.01 0.0 -3.89245248637343e-12 0.0 0.010000477084139219 0.01000004930036458 0.0 9.860697747266598e-11 0.0 0.01 0.0 9.860697747277186e-11 0.0 0.01000114129535354 0.010000036600201137 0.0 -1.1607469680983057e-09 0.0 0.01 0.0 -1.1607469680983057e-09 0.0 0.010001090528362084 0.010000023450082699 0.0 -1.1966681839258665e-09 0.0 0.01 0.0 -1.1966681839241725e-09 0.0 0.010000868763199524 0.010000009300013029 0.0 -6.094741990229918e-10 0.0 0.01 0.0 -6.094741990212977e-10 0.0 0.010000715426768055 0.009999996000002408 0.0 -1.7489940785241656e-10 0.0 0.01 0.0 -1.7489940785241656e-10 0.0 0.010000579150308385 0.009999984500036042 0.0 -2.3208421971710265e-11 0.0 0.01 0.0 -2.3208421971816144e-11 0.0 0.01000042872756953 0.010000050800387123 0.0 4.003889365551794e-10 0.0 0.01 0.0 4.003889365551794e-10 0.0 0.01000097769336398 0.010000034650180711 0.0 -2.0266372249076845e-09 0.0 0.01 0.0 -2.0266372249042963e-09 0.0 0.010000953236282206 0.010000019550058125 0.0 -2.3018236080759626e-09 0.0 0.01 0.0 -2.3018236080691863e-09 0.0 0.010000769638843271 0.010000003400001957 0.0 -1.215176303162493e-09 0.0 0.01 0.0 -1.215176303162493e-09 0.0 0.010000635810633356 0.009999988500019857 0.0 -3.4289378033278275e-10 0.0 0.01 0.0 -3.4289378033278275e-10 0.0 0.010000517140112335 0.00999997450009754 0.0 -3.384113813354188e-11 0.0 0.01 0.0 -3.384113813364776e-11 0.0 0.01000038477220631 0.010000055650464626 0.0 7.610253162139435e-10 0.0 0.01 0.0 7.610253162156376e-10 0.0 0.010000822351428245 0.010000034200176344 0.0 -2.4473733418811042e-09 0.0 0.01 0.0 -2.447373341874328e-09 0.0 0.010000828703001816 0.010000016100040456 0.0 -3.236776014884724e-09 0.0 0.01 0.0 -3.236776014884724e-09 0.0 0.010000682219808805 0.009999999000000585 0.0 -1.7089259072243772e-09 0.0 0.01 0.0 -1.7089259072243772e-09 0.0 0.010000565948041388 0.009999984000038415 0.0 -3.5693849998183816e-10 0.0 0.01 0.0 -3.569384999826852e-10 0.0 0.01000046148194289 0.009999970500130536 0.0 6.842396064666449e-11 0.0 0.01 0.0 6.842396064624097e-11 0.0 0.010000346718031175 0.010000066400661372 0.0 3.4755993893778153e-10 0.0 0.01 0.0 3.4755993893608746e-10 0.0 0.010000675868513585 0.010000035150185764 0.0 -1.7017891929023833e-09 0.0 0.01 0.0 -1.7017891929023833e-09 0.0 0.010000717827284442 0.010000012200023863 0.0 -3.1995699104764037e-09 0.0 0.01 0.0 -3.19956991048318e-09 0.0 0.010000607955438516 0.009999995000004161 0.0 -1.6552609225910795e-09 0.0 0.01 0.0 -1.6552609225910795e-09 0.0 0.010000503938090892 0.009999982000048598 0.0 4.177401936203041e-11 0.0 0.01 0.0 4.1774019362242167e-11 0.0 0.01000041162541393 0.009999969500139564 0.0 4.5150094368964614e-10 0.0 0.01 0.0 4.515009436879521e-10 0.0 0.010000312514649229 0.01000008690113374 0.0 -2.5597587743639923e-09 0.0 0.01 0.0 -2.559758774377545e-09 0.0 0.010000542044069565 0.01000003855022292 0.0 8.898695072489144e-11 0.0 0.01 0.0 8.898695072489144e-11 0.0 0.010000619707600867 0.010000009300013329 0.0 -1.5511099984762014e-09 0.0 0.01 0.0 -1.5511099984829777e-09 0.0 0.010000546894861186 0.00999999100001222 0.0 -6.730070863887524e-10 0.0 0.01 0.0 -6.730070863870583e-10 0.0 0.010000451680600531 0.009999980000060162 0.0 1.0362235201200238e-09 0.0 0.01 0.0 1.036223520123412e-09 0.0 0.010000369170442176 0.009999972000117843 0.0 1.2800912943712476e-09 0.0 0.01 0.0 1.2800912943712476e-09 0.0 0.010000284212116262 0.010000044450296525 0.0 1.0088223255932136e-09 0.0 0.01 0.0 1.0088223255932136e-09 0.0 0.010000526391560445 0.010000008800011909 0.0 1.3984241964624098e-09 0.0 0.01 0.0 1.3984241964624098e-09 0.0 0.010000493686556849 0.009999989500016824 0.0 1.3812738505809981e-09 0.0 0.01 0.0 1.3812738505809981e-09 0.0 0.010000408224996073 0.00999998100005518 0.0 2.620892075022303e-09 0.0 0.01 0.0 2.620892075022303e-09 0.0 0.010000331566490751 0.009999975500091064 0.0 2.616671109932807e-09 0.0 0.01 0.0 2.616671109932807e-09 0.0 0.010000259310086933 0.010000053200424831 0.0 -1.3915103063951231e-09 0.0 0.01 0.0 -1.3915103063951231e-09 0.0 0.010000434578327395 0.010000013200028421 0.0 3.903030291798888e-09 0.0 0.01 0.0 3.903030291825993e-09 0.0 0.010000441929295781 0.009999992000012234 0.0 4.190439356865612e-09 0.0 0.01 0.0 4.19043935685206e-09 0.0 0.010000374020985343 0.009999984000041602 0.0 4.619655761444255e-09 0.0 0.01 0.0 4.619655761498465e-09 0.0 0.010000301763661847 0.009999983000046194 0.0 4.35545112416379e-09 0.0 0.01 0.0 4.355451124190895e-09 0.0 0.01000023875855342 0.010000024400090804 0.0 3.158981586108252e-09 0.0 0.01 0.0 3.158981586108252e-09 0.0 0.010000387222491526 0.01000000195000712 0.0 6.60905914777422e-09 0.0 0.01 0.0 6.60905914777422e-09 0.0 0.010000345717933855 0.009999992500015348 0.0 6.7877482381540136e-09 0.0 0.01 0.0 6.7877482381540136e-09 0.0 0.01000027931170873 0.009999992500014281 0.0 6.2425546378734424e-09 0.0 0.01 0.0 6.2425546378734424e-09 0.0 0.010000220707312386 0.010000046850330789 0.0 -3.215516889754945e-09 0.0 0.01 0.0 -3.2155168897684975e-09 0.0 0.010000328616199127 0.01000002245008152 0.0 6.280405717972457e-09 0.0 0.01 0.0 6.280405717999562e-09 0.0 0.010000316415023053 0.010000009300023888 0.0 8.530601549585834e-09 0.0 0.01 0.0 8.530601549640044e-09 0.0 0.010000262710363063 0.010000005350013899 0.0 8.001936982492998e-09 0.0 0.01 0.0 8.001936982492998e-09 0.0 0.010000207506468267 0.0100000508003871 0.0 5.989476874995167e-11 0.0 0.01 0.0 5.989476875037519e-11 0.0 0.01000028466215442 0.010000035150194675 0.0 7.89315501777436e-09 0.0 0.01 0.0 7.89315501777436e-09 0.0 0.01000024950934727 0.010000026850120884 0.0 9.217196414532808e-09 0.0 0.01 0.0 9.217196414641228e-09 0.0 0.010000200206024951 0.010000067850690783 0.0 1.2424934947553e-09 0.0 0.01 0.0 1.2424934947553e-09 0.0 0.01000023635837976 0.010000058600525113 0.0 8.171500320472945e-09 0.0 0.01 0.0 8.171500320364525e-09 0.0 0.010000193355617828 0.010000100601546534 0.0 -1.3773745412238789e-08 0.0 0.01 0.0 -1.3773745412238789e-08 0.0 0.010000225107629244 0.01000009325130458 0.0 1.2248005709961877e-09 0.0 0.01 0.0 1.2248005709961877e-09 0.0 0.010000188005301993 0.009999999999999998 0.0 0.0 0.0 0.01 0.0 0.0 0.0 0.009999999999999998 0.01 0.0 0.0 0.0 0.01 0.0 0.0 0.0 0.01 0.009999999999999998 0.0 0.0 0.0 0.01 0.0 0.0 0.0 0.009999999999999998 0.009999999999999998 0.0 0.0 0.0 0.01 0.0 0.0 0.0 0.009999999999999998 0.009999999999999998 0.0 0.0 0.0 0.01 0.0 0.0 0.0 0.009999999999999998 0.009999999999999998 0.0 0.0 0.0 0.01 0.0 0.0 0.0 0.009999999999999998 0.009999999999999998 0.0 0.0 0.0 0.01 0.0 0.0 0.0 0.009999999999999998 0.009999999999999998 0.0 0.0 0.0 0.01 0.0 0.0 0.0 0.009999999999999998 0.009999999999999998 0.0 0.0 0.0 0.01 0.0 0.0 0.0 0.009999999999999998 0.009999999999999998 0.0 0.0 0.0 0.01 0.0 0.0 0.0 0.009999999999999998 0.01 0.0 0.0 0.0 0.01 0.0 0.0 0.0 0.01 0.009999999999999998 0.0 0.0 0.0 0.01 0.0 0.0 0.0 0.009999999999999998 0.009999999999999998 0.0 0.0 0.0 0.01 0.0 0.0 0.0 0.009999999999999998 0.009999999999999998 0.0 0.0 0.0 0.01 0.0 0.0 0.0 0.009999999999999998 0.01 0.0 0.0 0.0 0.01 0.0 0.0 0.0 0.01 0.009999999999999998 0.0 0.0 0.0 0.01 0.0 0.0 0.0 0.009999999999999998 0.009999999999999998 0.0 0.0 0.0 0.01 0.0 0.0 0.0 0.009999999999999998 0.009999999999999998 0.0 0.0 0.0 0.01 0.0 0.0 0.0 0.009999999999999998 0.009999999999999998 0.0 0.0 0.0 0.01 0.0 0.0 0.0 0.009999999999999998 0.009999999999999998 0.0 0.0 0.0 0.01 0.0 0.0 0.0 0.009999999999999998 0.01 0.0 0.0 0.0 0.01 0.0 0.0 0.0 0.01 0.01 0.0 0.0 0.0 0.01 0.0 0.0 0.0 0.01 0.009999999999999998 0.0 0.0 0.0 0.01 0.0 0.0 0.0 0.009999999999999998 0.009999999999999998 0.0 0.0 0.0 0.01 0.0 0.0 0.0 0.009999999999999998 0.009999999999999998 0.0 0.0 0.0 0.01 0.0 0.0 0.0 0.009999999999999998 0.009999999999999998 0.0 0.0 0.0 0.01 0.0 0.0 0.0 0.009999999999999998 0.01 0.0 0.0 0.0 0.01 0.0 0.0 0.0 0.01 0.009999999999999998 0.0 0.0 0.0 0.01 0.0 0.0 0.0 0.009999999999999998 0.009999999999999998 0.0 0.0 0.0 0.01 0.0 0.0 0.0 0.009999999999999998 0.009999999999999998 0.0 0.0 0.0 0.01 0.0 0.0 0.0 0.009999999999999998 0.009999999999999998 0.0 0.0 0.0 0.01 0.0 0.0 0.0 0.009999999999999998 0.009999999999999998 0.0 0.0 0.0 0.01 0.0 0.0 0.0 0.009999999999999998 0.009999999999999998 0.0 0.0 0.0 0.01 0.0 0.0 0.0 0.009999999999999998 0.009999999999999998 0.0 0.0 0.0 0.01 0.0 0.0 0.0 0.009999999999999998 0.009999999999999998 0.0 0.0 0.0 0.01 0.0 0.0 0.0 0.009999999999999998 0.009999999999999998 0.0 0.0 0.0 0.01 0.0 0.0 0.0 0.009999999999999998 0.009999999999999998 0.0 0.0 0.0 0.01 0.0 0.0 0.0 0.009999999999999998 0.009999999999999998 0.0 0.0 0.0 0.01 0.0 0.0 0.0 0.009999999999999998 0.009999999999999998 0.0 0.0 0.0 0.01 0.0 0.0 0.0 0.009999999999999998 0.01 0.0 0.0 0.0 0.01 0.0 0.0 0.0 0.01 0.009999999999999998 0.0 0.0 0.0 0.01 0.0 0.0 0.0 0.009999999999999998 0.01 0.0 0.0 0.0 0.01 0.0 0.0 0.0 0.01 0.009999999999999998 0.0 0.0 0.0 0.01 0.0 0.0 0.0 0.009999999999999998 0.009999999999999998 0.0 0.0 0.0 0.01 0.0 0.0 0.0 0.009999999999999998 0.01 0.0 0.0 0.0 0.01 0.0 0.0 0.0 0.01 0.009999999999999998 0.0 0.0 0.0 0.01 0.0 0.0 0.0 0.009999999999999998 0.01 0.0 0.0 0.0 0.01 0.0 0.0 0.0 0.01 0.01 0.0 0.0 0.0 0.01 0.0 0.0 0.0 0.01 0.009999999999999998 0.0 0.0 0.0 0.01 0.0 0.0 0.0 0.009999999999999998 0.009999999999999998 0.0 0.0 0.0 0.01 0.0 0.0 0.0 0.009999999999999998 0.01 0.0 0.0 0.0 0.01 0.0 0.0 0.0 0.01 0.009999999999999998 0.0 0.0 0.0 0.01 0.0 0.0 0.0 0.009999999999999998 0.009999999999999998 0.0 0.0 0.0 0.01 0.0 0.0 0.0 0.009999999999999998 0.009999999999999998 0.0 0.0 0.0 0.01 0.0 0.0 0.0 0.009999999999999998 0.009999999999999998 0.0 0.0 0.0 0.01 0.0 0.0 0.0 0.009999999999999998 0.009999999999999998 0.0 0.0 0.0 0.01 0.0 0.0 0.0 0.009999999999999998 0.009999999999999998 0.0 0.0 0.0 0.01 0.0 0.0 0.0 0.009999999999999998 0.009999999999999998 0.0 0.0 0.0 0.01 0.0 0.0 0.0 0.009999999999999998 0.01 0.0 0.0 0.0 0.01 0.0 0.0 0.0 0.01 0.01 0.0 0.0 0.0 0.01 0.0 0.0 0.0 0.01 0.01 0.0 0.0 0.0 0.01 0.0 0.0 0.0 0.01 0.009999999999999998 0.0 0.0 0.0 0.01 0.0 0.0 0.0 0.009999999999999998 0.009999999999999998 0.0 0.0 0.0 0.01 0.0 0.0 0.0 0.009999999999999998 0.01 0.0 2.220446049250313e-16 0.0 0.01 0.0 2.220446049250313e-16 0.0 0.01 0.009999999999999998 0.0 0.0 0.0 0.01 0.0 0.0 0.0 0.009999999999999998 0.009999999999999998 0.0 0.0 0.0 0.01 0.0 0.0 0.0 0.009999999999999998 0.009999999999999998 0.0 0.0 0.0 0.01 0.0 0.0 0.0 0.009999999999999998 0.01 0.0 0.0 0.0 0.01 0.0 0.0 0.0 0.01 0.009999999999999998 0.0 0.0 0.0 0.01 0.0 0.0 0.0 0.009999999999999998 0.01 0.0 0.0 0.0 0.01 0.0 0.0 0.0 0.01 0.01 0.0 0.0 0.0 0.01 0.0 0.0 0.0 0.01 0.009999999999999998 0.0 0.0 0.0 0.01 0.0 0.0 0.0 0.009999999999999998 0.009999999999999998 0.0 2.742597815519332e-15 0.0 0.01 0.0 2.742597815519332e-15 0.0 0.009999999999999998 0.009999999999999998 0.0 0.0 0.0 0.01 0.0 0.0 0.0 0.009999999999999998 0.009999999999999998 0.0 0.0 0.0 0.01 0.0 0.0 0.0 0.009999999999999998 0.009999999999999998 0.0 0.0 0.0 0.01 0.0 0.0 0.0 0.009999999999999998 0.01 0.0 0.0 0.0 0.01 0.0 0.0 0.0 0.01 0.01 0.0 0.0 0.0 0.01 0.0 0.0 0.0 0.01 0.01 0.0 0.0 0.0 0.01 0.0 0.0 0.0 0.01 0.01 0.0 0.0 0.0 0.01 0.0 0.0 0.0 0.01 0.009999999999999998 0.0 0.0 0.0 0.01 0.0 0.0 0.0 0.009999999999999998 0.009999999999999998 0.0 1.1310397063368782e-14 0.0 0.01 0.0 1.1310397063368782e-14 0.0 0.009999999999999998 0.01 0.0 4.683753385137379e-17 0.0 0.01 0.0 4.683753385137379e-17 0.0 0.009999999999999998 0.009999999999999998 0.0 0.0 0.0 0.01 0.0 0.0 0.0 0.009999999999999998 0.009999999999999998 0.0 0.0 0.0 0.01 0.0 0.0 0.0 0.009999999999999998 0.01 0.0 0.0 0.0 0.01 0.0 0.0 0.0 0.01 0.009999999999999998 0.0 0.0 0.0 0.01 0.0 0.0 0.0 0.009999999999999998 0.01 0.0 0.0 0.0 0.01 0.0 0.0 0.0 0.01 0.009999999999999998 0.0 0.0 0.0 0.01 0.0 0.0 0.0 0.009999999999999998 0.01 0.0 0.0 0.0 0.01 0.0 0.0 0.0 0.01 0.009999999500000039 0.0 2.6965879916761033e-14 0.0 0.01 0.0 2.696588012851927e-14 0.0 0.01 0.00999999950000004 0.0 2.7986813459559745e-16 0.0 0.01 0.0 2.7986813376841684e-16 0.0 0.010000000000000004 0.009999999500000037 0.0 1.137341899768293e-12 0.0 0.01 0.0 1.137341899768293e-12 0.0 0.01 0.009999999500000037 0.0 -1.129934399769802e-13 0.0 0.01 0.0 -1.129934399769802e-13 0.0 0.01 0.009999999500000037 0.0 -1.115410399772761e-12 0.0 0.01 0.0 -1.115410399772761e-12 0.0 0.01 0.009999999500000037 0.0 -1.4186366997109856e-13 0.0 0.01 0.0 -1.4186366997109856e-13 0.0 0.01 0.009999999500000037 0.0 -1.6221638996695218e-12 0.0 0.01 0.0 -1.6221638996695218e-12 0.0 0.01 0.009999999500000037 0.0 2.1431496995633833e-13 0.0 0.01 0.0 2.1431496995633833e-13 0.0 0.01 0.009999999500000037 0.0 1.1135773997731346e-14 0.0 0.01 0.0 1.1135773997731346e-14 0.0 0.01 0.00999999950000004 0.0 4.2044135968741724e-14 0.0 0.01 0.0 4.2044135968741724e-14 0.0 0.010000000000000004 0.00999999950000004 0.0 4.34628439127467e-16 0.0 0.01 0.0 4.3462843747310577e-16 0.0 0.010000000000000004 0.009999999500000037 0.0 1.4775215996989891e-12 0.0 0.01 0.0 1.4775215996989891e-12 0.0 0.01 0.009999999500000037 0.0 -1.6913716996554222e-12 0.0 0.01 0.0 -1.6913716996554222e-12 0.0 0.01 0.009999999500000037 0.0 -3.5503535992766978e-12 0.0 0.01 0.0 -3.5503535992766978e-12 0.0 0.01 0.009999999500000037 0.0 -2.7641943994368596e-14 0.0 0.01 0.0 -2.7641943994368596e-14 0.0 0.01 0.009999999500000037 0.0 -2.782952599433038e-12 0.0 0.01 0.0 -2.782952599433038e-12 0.0 0.01 0.009999999500000037 0.0 1.169273599761788e-12 0.0 0.01 0.0 1.169273599761788e-12 0.0 0.01 0.009999999500000037 0.0 2.8917206994108793e-13 0.0 0.01 0.0 2.8917206994108793e-13 0.0 0.01 0.009999999000000152 0.0 4.287750659219417e-14 0.0 0.01 0.0 4.287750653925461e-14 0.0 0.010000000000000004 0.00999999900000015 0.0 1.7676111845151804e-16 0.0 0.01 0.0 1.767611186583132e-16 0.0 0.01 0.00999999900000015 0.0 2.1639646495591425e-12 0.0 0.01 0.0 2.1639646495591425e-12 0.0 0.01 0.00999999900000015 0.0 -2.3018571495310496e-12 0.0 0.01 0.0 -2.3018571495310496e-12 0.0 0.01 0.00999999900000015 0.0 -2.123888499567307e-12 0.0 0.01 0.0 -2.123888499567307e-12 0.0 0.01 0.00999999900000015 0.0 -4.174602899149521e-13 0.0 0.01 0.0 -4.174602899149521e-13 0.0 0.01 0.00999999900000015 0.0 -1.56704984968075e-12 0.0 0.01 0.0 -1.56704984968075e-12 0.0 0.01 0.00999999900000015 0.0 7.971395998376013e-13 0.0 0.01 0.0 7.971395998376013e-13 0.0 0.01 0.00999999900000015 0.0 -1.0283604997904954e-13 0.0 0.01 0.0 -1.0283604997904954e-13 0.0 0.01 0.00999999850000034 0.0 2.5307984790789694e-14 0.0 0.01 0.0 2.5307984790789694e-14 0.0 0.010000000000000002 0.0099999980000006 0.0 2.477738874495218e-12 0.0 0.01 0.0 2.477738874495218e-12 0.0 0.01 0.0099999980000006 0.0 2.3870212495136998e-12 0.0 0.01 0.0 2.3870212495136998e-12 0.0 0.01 0.0099999980000006 0.0 -2.313176499528744e-12 0.0 0.01 0.0 -2.313176499528744e-12 0.0 0.01 0.0099999980000006 0.0 -8.052039498359583e-13 0.0 0.01 0.0 -8.052039498359583e-13 0.0 0.01 0.0099999980000006 0.0 -3.457585749295597e-13 0.0 0.01 0.0 -3.457585749295597e-13 0.0 0.01 0.0099999980000006 0.0 -3.3762727493121627e-13 0.0 0.01 0.0 -3.3762727493121627e-13 0.0 0.01 0.0099999980000006 0.0 2.4455960495017664e-13 0.0 0.01 0.0 2.4455960495017664e-13 0.0 0.01 0.0099999980000006 0.0 1.0009754997960745e-13 0.0 0.01 0.0 1.0009754997960745e-13 0.0 0.01 0.00999999750000094 0.0 5.003101621179742e-15 0.0 0.01 0.0 5.003101624488465e-15 0.0 0.010000000000000002 0.009999997500000938 0.0 3.404341000544937e-12 0.0 0.01 0.0 3.404341000544937e-12 0.0 0.01 0.009999997500000938 0.0 2.58166800041325e-12 0.0 0.01 0.0 2.58166800041325e-12 0.0 0.01 0.009999997500000938 0.0 -1.4995361802400326e-12 0.0 0.01 0.0 -1.4995361802400326e-12 0.0 0.01 0.009999997500000938 0.0 -1.787430120286116e-12 0.0 0.01 0.0 -1.787430120286116e-12 0.0 0.01 0.009999997500000938 0.0 2.0922682003349117e-13 0.0 0.01 0.0 2.0922682003349117e-13 0.0 0.01 0.009999997500000938 0.0 1.942812200310988e-14 0.0 0.01 0.0 1.942812200310988e-14 0.0 0.01 0.009999997500000938 0.0 1.3925766402229114e-13 0.0 0.01 0.0 1.3925766402229114e-13 0.0 0.01 0.009999997500000938 0.0 4.2466274006797625e-13 0.0 0.01 0.0 4.2466274006797625e-13 0.0 0.01 0.009999996500001837 0.0 3.1680917144635364e-12 0.0 0.01 0.0 3.1680917144635364e-12 0.0 0.01 0.0099999960000024 0.0 2.8664184810181915e-18 0.0 0.01 0.0 2.8664184810181915e-18 0.0 0.01 0.0099999960000024 0.0 8.268848125195532e-13 0.0 0.01 0.0 8.268848125195532e-13 0.0 0.01 0.0099999960000024 0.0 -7.186416625169938e-13 0.0 0.01 0.0 -7.186416625169938e-13 0.0 0.01 0.0099999960000024 0.0 -1.868867250044193e-12 0.0 0.01 0.0 -1.868867250044193e-12 0.0 0.01 0.0099999960000024 0.0 -1.7973805000425022e-13 0.0 0.01 0.0 -1.7973805000425022e-13 0.0 0.01 0.0099999960000024 0.0 -8.431249125199374e-14 0.0 0.01 0.0 -8.431249125199374e-14 0.0 0.01 0.0099999960000024 0.0 -1.846032875043653e-14 0.0 0.01 0.0 -1.846032875043653e-14 0.0 0.01 0.0099999960000024 0.0 -3.4811576250823183e-14 0.0 0.01 0.0 -3.4811576250823183e-14 0.0 0.01 0.0099999940000054 0.0 -2.805791250279003e-12 0.0 0.01 0.0 -2.805791250279003e-12 0.0 0.01 0.0099999940000054 0.0 -2.8469081669497577e-12 0.0 0.01 0.0 -2.8469081669497577e-12 0.0 0.01 0.0099999940000054 0.0 -2.3409381668994446e-12 0.0 0.01 0.0 -2.3409381668994446e-12 0.0 0.01 0.0099999940000054 0.0 8.806810834209066e-13 0.0 0.01 0.0 8.806810834209066e-13 0.0 0.01 0.0099999940000054 0.0 -2.331622833565185e-12 0.0 0.01 0.0 -2.331622833565185e-12 0.0 0.01 0.0099999940000054 0.0 -8.612460000856405e-13 0.0 0.01 0.0 -8.612460000856405e-13 0.0 0.01 0.0099999940000054 0.0 2.1370930002125083e-13 0.0 0.01 0.0 2.1370930002125083e-13 0.0 0.01 0.0099999940000054 0.0 4.777711667141753e-13 0.0 0.01 0.0 4.777711667141753e-13 0.0 0.01 0.0099999940000054 0.0 -9.827210834310534e-14 0.0 0.01 0.0 -9.827210834310534e-14 0.0 0.01 0.009999991500010838 0.0 -4.101287727902283e-18 0.0 0.01 0.0 -4.101287727902283e-18 0.0 0.010000000500000038 0.00999999100001215 0.0 1.198856681505129e-17 0.0 0.01 0.0 1.198856681505129e-17 0.0 0.01 0.00999999100001215 0.0 2.438961107714821e-18 0.0 0.01 0.0 2.438961107714821e-18 0.0 0.01 0.00999999100001215 0.0 -1.4426168888865564e-12 0.0 0.01 0.0 -1.4426168888865564e-12 0.0 0.01 0.00999999100001215 0.0 -1.256321222220191e-12 0.0 0.01 0.0 -1.256321222220191e-12 0.0 0.01 0.00999999100001215 0.0 -7.045114999988609e-13 0.0 0.01 0.0 -7.045114999988609e-13 0.0 0.01 0.00999999100001215 0.0 7.945736666653821e-13 0.0 0.01 0.0 7.945736666653821e-13 0.0 0.01 0.00999999100001215 0.0 2.658131444440147e-16 0.0 0.01 0.0 2.658131444440147e-16 0.0 0.01 0.00999999100001215 0.0 3.7334727777717415e-13 0.0 0.01 0.0 3.7334727777717415e-13 0.0 0.01 0.009999987500023438 0.0 8.422997839232375e-18 0.0 0.01 0.0 8.422997839232375e-18 0.0 0.010000000500000038 0.009999987500023438 0.0 -1.3392650894118145e-17 0.0 0.01 0.0 -1.3392650894118145e-17 0.0 0.010000000500000038 0.009999987500023438 0.0 -7.184057569649229e-18 0.0 0.01 0.0 -7.184057569649229e-18 0.0 0.010000000500000038 0.009999987500023438 0.0 -5.804124617495805e-18 0.0 0.01 0.0 -5.804124617495805e-18 0.0 0.01 0.009999987500023438 0.0 -3.2527817012239962e-18 0.0 0.01 0.0 -3.2527817012239962e-18 0.0 0.01 0.009999987500023438 0.0 -9.64193920014031e-13 0.0 0.01 0.0 -9.64193920014031e-13 0.0 0.01 0.009999987500023438 0.0 -6.49740760009455e-13 0.0 0.01 0.0 -6.49740760009455e-13 0.0 0.01 0.009999987500023438 0.0 -2.74601436003996e-13 0.0 0.01 0.0 -2.74601436003996e-13 0.0 0.01 0.009999987500023438 0.0 2.9579123600430433e-13 0.0 0.01 0.0 2.9579123600430433e-13 0.0 0.01 0.009999982000048601 0.0 2.7036494529509533e-17 0.0 0.01 0.0 2.7036494529509533e-17 0.0 0.010000000500000038 0.009999982000048601 0.0 -1.1002428118297678e-17 0.0 0.01 0.0 -1.1002428118297678e-17 0.0 0.010000000500000038 0.009999981500051337 0.0 1.1511273996475286e-12 0.0 0.01 0.0 1.1511273996475286e-12 0.0 0.010000000500000038 0.009999981500051337 0.0 -8.485850588582753e-18 0.0 0.01 0.0 -8.485850588582753e-18 0.0 0.010000000500000038 0.009999981500051337 0.0 -4.941599308017668e-18 0.0 0.01 0.0 -4.941599308017668e-18 0.0 0.010000000500000038 0.009999981500051337 0.0 -6.905201621572738e-13 0.0 0.01 0.0 -6.905201621572738e-13 0.0 0.01 0.009999981500051337 0.0 1.1740044324241212e-13 0.0 0.01 0.0 1.1740044324241212e-13 0.0 0.01 0.009999981500051337 0.0 -4.315096216185669e-13 0.0 0.01 0.0 -4.315096216185669e-13 0.0 0.01 0.009999981500051337 0.0 5.227088648611644e-13 0.0 0.01 0.0 5.227088648611644e-13 0.0 0.01 0.0099999740001014 0.0 2.629195317956494e-17 0.0 0.01 0.0 2.629195317956494e-17 0.0 0.010000001450000314 0.0099999740001014 0.0 7.193754423067551e-13 0.0 0.01 0.0 7.193754423067551e-13 0.0 0.01000000100000015 0.009999973000109349 0.0 -1.8284901318053135e-17 0.0 0.01 0.0 -1.8284901318053135e-17 0.0 0.010000000500000038 0.009999973000109349 0.0 -6.5391745069276724e-18 0.0 0.01 0.0 -6.5391745069276724e-18 0.0 0.010000000500000038 0.009999973000109349 0.0 -6.714183311574677e-18 0.0 0.01 0.0 -6.714183311574677e-18 0.0 0.010000000500000038 0.009999973000109349 0.0 -2.9741108759625367e-13 0.0 0.01 0.0 -2.9741108759625367e-13 0.0 0.010000000500000038 0.009999973000109349 0.0 4.10251475055858e-13 0.0 0.01 0.0 4.10251475055858e-13 0.0 0.010000000500000038 0.009999973000109349 0.0 2.5254791217955574e-18 0.0 0.01 0.0 2.5254791217955574e-18 0.0 0.01 0.009999973000109349 0.0 1.8897881481450923e-13 0.0 0.01 0.0 1.8897881481450923e-13 0.0 0.01 0.009999962500210936 0.0 5.622093618457643e-13 0.0 0.01 0.0 5.622093618457643e-13 0.0 0.01000000195000057 0.009999962500210936 0.0 3.368558034367511e-17 0.0 0.01 0.0 3.368558034367511e-17 0.0 0.010000001450000314 0.009999962000216599 0.0 -2.2438089483142254e-18 0.0 0.01 0.0 -2.2438089483142254e-18 0.0 0.010000001450000314 0.009999962000216599 0.0 -5.4372718232666436e-18 0.0 0.01 0.0 -5.4372718232666436e-18 0.0 0.01000000100000015 0.009999961500222337 0.0 -5.370336389101485e-18 0.0 0.01 0.0 -5.370336389101485e-18 0.0 0.010000000500000038 0.009999961500222337 0.0 -3.9600305826412994e-13 0.0 0.01 0.0 -3.9600305826412994e-13 0.0 0.010000000500000038 0.009999961500222337 0.0 -8.060761428728734e-14 0.0 0.01 0.0 -8.060761428728734e-14 0.0 0.010000000500000038 0.009999961500222337 0.0 9.158010799573536e-18 0.0 0.01 0.0 9.158010799573536e-18 0.0 0.010000000500000038 0.009999961500222337 0.0 4.760703058577291e-13 0.0 0.01 0.0 4.760703058577291e-13 0.0 0.010000000500000038 0.009999947000421346 0.0 8.715601656303435e-17 0.0 0.01 0.0 8.715601656303435e-17 0.0 0.010000003400001733 0.009999947000421346 0.0 -1.744726389774755e-17 0.0 0.01 0.0 -1.744726389774755e-17 0.0 0.01000000195000057 0.009999947000421346 0.0 -4.091735517435913e-17 0.0 0.01 0.0 -4.091735517435913e-17 0.0 0.01000000195000057 0.009999946500429334 0.0 -2.587974394340955e-17 0.0 0.01 0.0 -2.587974394340955e-17 0.0 0.010000001450000314 0.009999946500429334 0.0 3.1662387795354424e-18 0.0 0.01 0.0 3.1662387795354424e-18 0.0 0.010000001450000314 0.009999946500429334 0.0 -8.119998946033534e-18 0.0 0.01 0.0 -8.119998946033534e-18 0.0 0.010000000500000038 0.009999946500429334 0.0 2.747233509559338e-18 0.0 0.01 0.0 2.747233509559338e-18 0.0 0.010000000500000038 0.009999946500429334 0.0 8.164776090112337e-18 0.0 0.01 0.0 8.164776090112337e-18 0.0 0.010000000500000038 0.009999946500429334 0.0 4.9986895603781926e-18 0.0 0.01 0.0 4.9986895603781926e-18 0.0 0.010000000500000038 0.00999992700079934 0.0 -3.1561177603201396e-17 0.0 0.01 0.0 -3.1561177603201396e-17 0.0 0.010000004900003601 0.00999992700079934 0.0 -1.775306348980092e-16 0.0 0.01 0.0 -1.775306348980092e-16 0.0 0.010000003900002281 0.00999992700079934 0.0 -1.4066035200906715e-16 0.0 0.01 0.0 -1.4066035200906715e-16 0.0 0.010000002950001304 0.009999926000821389 0.0 -6.195246045056629e-17 0.0 0.01 0.0 -6.195246045056629e-17 0.0 0.01000000195000057 0.009999926000821389 0.0 -2.576628059862503e-17 0.0 0.01 0.0 -2.576628059862503e-17 0.0 0.010000001450000314 0.009999926000821389 0.0 -1.203076707543721e-17 0.0 0.01 0.0 -1.203076707543721e-17 0.0 0.010000001450000314 0.009999926000821389 0.0 -6.612577538670999e-18 0.0 0.01 0.0 -6.612577538670999e-18 0.0 0.010000001450000314 0.009999926000821389 0.0 5.702214133246643e-18 0.0 0.01 0.0 5.702214133246643e-18 0.0 0.010000000500000038 0.009999926000821389 0.0 3.0715156866119022e-18 0.0 0.01 0.0 3.0715156866119022e-18 0.0 0.010000000500000038 0.009999900501485012 0.0 -4.0923656596845233e-16 0.0 0.01 0.0 -4.0923656596845233e-16 0.0 0.010000007800009127 0.009999900001499975 0.0 -4.738603273892247e-16 0.0 0.01 0.0 -4.738603273892247e-16 0.0 0.010000005350004294 0.009999900001499975 0.0 -3.7526312873454714e-16 0.0 0.01 0.0 -3.7526312873454714e-16 0.0 0.010000004400002904 0.009999900001499975 0.0 -1.8548193985271617e-16 0.0 0.01 0.0 -1.8548193985271617e-16 0.0 0.010000002950001304 0.009999900001499975 0.0 -9.109445206336318e-17 0.0 0.01 0.0 -9.109445206336318e-17 0.0 0.0100000024500009 0.009999900001499975 0.0 -1.7638379583880924e-17 0.0 0.01 0.0 -1.7638379583880924e-17 0.0 0.01000000195000057 0.009999900001499975 0.0 1.604049715089127e-14 0.0 0.01 0.0 1.604049715089127e-14 0.0 0.010000001450000314 0.009999900001499975 0.0 9.915521423869469e-18 0.0 0.01 0.0 9.915521423869469e-18 0.0 0.010000001450000314 0.009999900001499975 0.0 8.506266692163072e-14 0.0 0.01 0.0 8.506266692163072e-14 0.0 0.01000000100000015 0.009999869002574097 0.0 -1.4674353403228304e-15 0.0 0.01 0.0 -1.4674353403228304e-15 0.0 0.010000011700020534 0.009999869002574097 0.0 -1.555977579030348e-15 0.0 0.01 0.0 -1.555977579030348e-15 0.0 0.010000008800011617 0.009999869002574095 0.0 -1.0047657134525073e-15 0.0 0.01 0.0 -1.0047657134525073e-15 0.0 0.010000006350006049 0.009999869002574095 0.0 -5.01274718415458e-16 0.0 0.01 0.0 -5.01274718415458e-16 0.0 0.010000004900003601 0.00999986850259378 0.0 -2.3549900990058633e-16 0.0 0.01 0.0 -2.3549900990058633e-16 0.0 0.010000003400001733 0.009999869002574095 0.0 -6.859588730324934e-17 0.0 0.01 0.0 -6.859588730324934e-17 0.0 0.0100000024500009 0.009999869002574095 0.0 -7.425137768127405e-18 0.0 0.01 0.0 -7.425137768127405e-18 0.0 0.01000000195000057 0.009999869002574095 0.0 -2.899365258188873e-18 0.0 0.01 0.0 -2.899365258188873e-18 0.0 0.010000001450000314 0.009999869002574095 0.0 3.278068599069687e-18 0.0 0.01 0.0 3.278068599069687e-18 0.0 0.010000001450000314 0.009999834504108426 0.0 -2.8458665472567737e-15 0.0 0.01 0.0 -2.8458665472567737e-15 0.0 0.010000019550057332 0.009999836004034294 0.0 -3.0052888706723136e-15 0.0 0.01 0.0 -3.0052888706723136e-15 0.0 0.01000001320002614 0.009999836004034292 0.0 -2.1957474978716453e-15 0.0 0.01 0.0 -2.1957474978716453e-15 0.0 0.010000009300012975 0.00999983650400973 0.0 -1.1273167109754385e-15 0.0 0.01 0.0 -1.1273167109754385e-15 0.0 0.010000006850007037 0.00999983650400973 0.0 -4.692795275539811e-16 0.0 0.01 0.0 -4.692795275539811e-16 0.0 0.010000005350004294 0.00999983650400973 0.0 -1.467735102443954e-16 0.0 0.01 0.0 -1.467735102443954e-16 0.0 0.010000003400001733 0.00999983650400973 0.0 -4.593827124925081e-17 0.0 0.01 0.0 -4.593827124925081e-17 0.0 0.0100000024500009 0.00999983650400973 0.0 -8.994718536047031e-18 0.0 0.01 0.0 -8.994718536047031e-18 0.0 0.01000000195000057 0.00999983650400973 0.0 4.788751613784584e-14 0.0 0.01 0.0 4.788751613784584e-14 0.0 0.01000000195000057 0.00999980200588041 0.0 -3.730894461668895e-15 0.0 0.01 0.0 -3.730894461668895e-15 0.0 0.010000031750151215 0.00999980350579165 0.0 -5.027007787867011e-15 0.0 0.01 0.0 -5.0270077878411615e-15 0.0 0.010000020500063038 0.009999804005762211 0.0 -3.856103226559864e-15 0.0 0.01 0.0 -3.8561032265081655e-15 0.0 0.010000013650027948 0.009999804505732852 0.0 -2.1510065726811387e-15 0.0 0.01 0.0 -2.1510065726811387e-15 0.0 0.010000009300012975 0.009999805005703565 0.0 -9.247338018122695e-16 0.0 0.01 0.0 -9.247338018122695e-16 0.0 0.010000006850007037 0.009999806005645217 0.0 -2.9398718108680695e-16 0.0 0.01 0.0 -2.9398718108680695e-16 0.0 0.010000004900003601 0.009999806005645217 0.0 -7.512883707411915e-17 0.0 0.01 0.0 -7.512883707411915e-17 0.0 0.010000003400001733 0.009999806005645217 0.0 -1.660271746419934e-17 0.0 0.01 0.0 -1.660271746419934e-17 0.0 0.0100000024500009 0.009999806505616157 0.0 1.9543923995330377e-14 0.0 0.01 0.0 1.9543923995330377e-14 0.0 0.01000000195000057 0.009999778507359065 0.0 5.802568427325955e-16 0.0 0.01 0.0 5.802568427325955e-16 0.0 0.0100000508003871 0.009999780507226774 0.0 -5.222634918948254e-15 0.0 0.01 0.0 -5.222634918896555e-15 0.0 0.010000031750151211 0.009999782007128342 0.0 -5.1049286572167766e-15 0.0 0.01 0.0 -5.1049286572167766e-15 0.0 0.010000019050054437 0.009999783007063095 0.0 -2.999631651846075e-15 0.0 0.01 0.0 -2.999631651846075e-15 0.0 0.010000012200022328 0.009999783507030584 0.0 -1.360610960366319e-15 0.0 0.01 0.0 -1.360610960366319e-15 0.0 0.010000008800011615 0.009999784506965788 0.0 -4.755840848058051e-16 0.0 0.01 0.0 -4.755840848058051e-16 0.0 0.010000006350006049 0.00999978550690129 0.0 -1.3895026557933824e-16 0.0 0.01 0.0 -1.3895026557933824e-16 0.0 0.010000003900002281 0.00999978550690129 0.0 -3.5978684239594575e-17 0.0 0.01 0.0 -3.5978684239594575e-17 0.0 0.010000003400001733 0.00999978550690129 0.0 -7.07987280784166e-18 0.0 0.01 0.0 -7.07987280784166e-18 0.0 0.0100000024500009 0.009999773507695051 0.0 1.3728624466990135e-14 0.0 0.01 0.0 1.3728624466938436e-14 0.0 0.010000079100938537 0.009999776507492559 0.0 -2.2856805573890254e-15 0.0 0.01 0.0 -2.2856805573890254e-15 0.0 0.010000047350336307 0.009999778507359067 0.0 -5.562636003526608e-15 0.0 0.01 0.0 -5.562636003500759e-15 0.0 0.010000027350112206 0.009999780507226776 0.0 -3.572278260450175e-15 0.0 0.01 0.0 -3.572278260450175e-15 0.0 0.010000016100038884 0.009999781007193887 0.0 -1.6355611321020073e-15 0.0 0.01 0.0 -1.6355611321020073e-15 0.0 0.010000011250018984 0.009999781507161076 0.0 -5.841037394908174e-16 0.0 0.01 0.0 -5.841037394908174e-16 0.0 0.010000007800009127 0.00999978200712834 0.0 -1.71895801978293e-16 0.0 0.01 0.0 -1.71895801978293e-16 0.0 0.010000005350004294 0.00999978250709568 0.0 -5.3423268325804634e-17 0.0 0.01 0.0 -5.3423268325804634e-17 0.0 0.010000003900002281 0.00999978250709568 0.0 -8.584447732074419e-18 0.0 0.01 0.0 -8.584447732074419e-18 0.0 0.010000002950001304 0.00999979600624219 0.0 3.947643804912122e-14 0.0 0.01 0.0 3.947643804912122e-14 0.0 0.010000119652147465 0.009999798506090134 0.0 5.722799877585045e-15 0.0 0.01 0.0 5.7227998775591956e-15 0.0 0.010000070300741324 0.009999801505910143 0.0 -4.541531779117079e-15 0.0 0.01 0.0 -4.5415317790653804e-15 0.0 0.010000039050228738 0.009999803005821161 0.0 -3.553196802607002e-15 0.0 0.01 0.0 -3.553196802607002e-15 0.0 0.010000021950072274 0.009999803505791648 0.0 -1.5916261384690388e-15 0.0 0.01 0.0 -1.5916261384690388e-15 0.0 0.010000013200026137 0.00999980450573285 0.0 -5.641152443369776e-16 0.0 0.01 0.0 -5.641152443369776e-16 0.0 0.010000009300012973 0.009999805005703565 0.0 -1.4931852467806596e-16 0.0 0.01 0.0 -1.4931852467806596e-16 0.0 0.010000006350006049 0.009999805505674354 0.0 -3.501967191785456e-17 0.0 0.01 0.0 -3.501967191785456e-17 0.0 0.010000004400002904 0.009999805505674354 0.0 -3.2038878011881023e-18 0.0 0.01 0.0 -3.2038878011881023e-18 0.0 0.010000003900002281 0.009999850503352456 0.0 7.503776224038077e-14 0.0 0.01 0.0 7.503776224038077e-14 0.0 0.010000172354455808 0.009999852503263356 0.0 1.6334305094228002e-14 0.0 0.01 0.0 1.63343050943314e-14 0.0 0.010000100601518078 0.009999854503175462 0.0 -2.800561846909271e-15 0.0 0.01 0.0 -2.800561846909271e-15 0.0 0.010000054200440651 0.009999856503088767 0.0 -3.0797509633122867e-15 0.0 0.01 0.0 -3.0797509633122867e-15 0.0 0.010000028800124421 0.009999858003024527 0.0 -1.3483055385231144e-15 0.0 0.01 0.0 -1.3483055385231144e-15 0.0 0.010000016600041335 0.009999858503003266 0.0 -4.1587483868862692e-16 0.0 0.01 0.0 -4.1587483868862692e-16 0.0 0.010000010750017335 0.009999859502960968 0.0 -1.2902716172441224e-16 0.0 0.01 0.0 -1.2902716172441224e-16 0.0 0.010000007800009127 0.009999859502960968 0.0 -2.6833197714628838e-17 0.0 0.01 0.0 -2.6833197714628838e-17 0.0 0.010000004900003601 0.009999859502960968 0.0 -1.827940590361906e-14 0.0 0.01 0.0 -1.827940590361906e-14 0.0 0.010000004400002904 0.009999935500624033 0.0 1.0186477030555581e-13 0.0 0.01 0.0 1.0186477030514222e-13 0.0 0.010000234358238312 0.009999936500604831 0.0 2.654448018198459e-14 0.0 0.01 0.0 2.654448018198459e-14 0.0 0.010000135752764273 0.009999938000576594 0.0 -6.560908161180855e-16 0.0 0.01 0.0 -6.560908161180855e-16 0.0 0.010000070800751906 0.009999939000558148 0.0 -2.5386814990152446e-15 0.0 0.01 0.0 -2.538681498963546e-15 0.0 0.010000037100206466 0.009999940500531034 0.0 -9.892137873066224e-16 0.0 0.01 0.0 -9.892137873066224e-16 0.0 0.010000021000066152 0.009999941000522145 0.0 -2.542872199058354e-16 0.0 0.01 0.0 -2.542872199058354e-16 0.0 0.010000012200022326 0.009999941500513332 0.0 -3.6124261194278125e-17 0.0 0.01 0.0 -3.6124261194278125e-17 0.0 0.010000008800011615 0.009999942000504594 0.0 -1.0957548285077264e-17 0.0 0.01 0.0 -1.0957548285077264e-17 0.0 0.010000005850005133 0.009999942000504594 0.0 -1.1874194327249247e-13 0.0 0.01 0.0 -1.1874194327249247e-13 0.0 0.010000004400002904 0.01000004150025834 0.0 1.0165930969542576e-13 0.0 0.01 0.0 1.0165930969542576e-13 0.0 0.010000300813572777 0.010000041500258338 0.0 2.8060236809909144e-14 0.0 0.01 0.0 2.8060236809495554e-14 0.0 0.010000173354507662 0.010000042000264601 0.0 -3.24372139593936e-16 0.0 0.01 0.0 -3.24372139593936e-16 0.0 0.010000090351224488 0.010000042950276705 0.0 -2.1035325780457233e-15 0.0 0.01 0.0 -2.1035325780457233e-15 0.0 0.010000045400309176 0.01000004345028319 0.0 -7.184558659702313e-16 0.0 0.01 0.0 -7.184558659702313e-16 0.0 0.010000024900093003 0.010000043450283188 0.0 -1.2508361071945554e-16 0.0 0.01 0.0 -1.2508361071945554e-16 0.0 0.010000014150030033 0.010000043950289743 0.0 1.4632310863340795e-17 0.0 0.01 0.0 1.4632310863340795e-17 0.0 0.01000000975001426 0.010000043950289743 0.0 7.504941687937632e-18 0.0 0.01 0.0 7.504941687937632e-18 0.0 0.010000006850007037 0.010000043950289743 0.0 2.5221603907680763e-13 0.0 0.01 0.0 2.5221603907680763e-13 0.0 0.010000004900003601 0.010000150903415708 0.0 8.16271235959347e-14 0.0 0.01 0.0 8.16271235959347e-14 0.0 0.010000364769957597 0.010000150403393113 0.0 2.0865897344339215e-14 0.0 0.01 0.0 2.0865897343925625e-14 0.0 0.010000209956612086 0.01000014940334814 0.0 -6.1154115230736e-16 0.0 0.01 0.0 -6.1154115230736e-16 0.0 0.010000107901746394 0.010000148953327997 0.0 -1.9176067840396855e-15 0.0 0.01 0.0 -1.9176067840913843e-15 0.0 0.01000005420044065 0.010000148953327997 0.0 -5.356967928162494e-16 0.0 0.01 0.0 -5.356967928162494e-16 0.0 0.010000028300120135 0.010000148953327997 0.0 -5.911142288381123e-17 0.0 0.01 0.0 -5.911142288381123e-17 0.0 0.010000016600041335 0.010000148953327997 0.0 1.7704545112622754e-17 0.0 0.01 0.0 1.7704545112622754e-17 0.0 0.010000010750017335 0.010000148453305692 0.0 7.257031542647266e-18 0.0 0.01 0.0 7.257031542647266e-18 0.0 0.010000007300007994 0.010000148453305692 0.0 -1.382071039903922e-13 0.0 0.01 0.0 -1.382071039903922e-13 0.0 0.010000005350004294 0.010000241708763187 0.0 4.751441305415304e-14 0.0 0.01 0.0 4.751441305415304e-14 0.0 0.01000041947639259 0.010000239758622352 0.0 9.842729576073659e-15 0.0 0.01 0.0 9.842729589308549e-15 0.0 0.010000241208726966 0.010000238308518376 0.0 -1.9419314791205417e-15 0.0 0.01 0.0 -1.9419314791205417e-15 0.0 0.010000124502325089 0.010000237808482661 0.0 -1.5029903765242673e-15 0.0 0.01 0.0 -1.5029903765242673e-15 0.0 0.010000061500567344 0.010000237308447027 0.0 -4.113297502340617e-16 0.0 0.01 0.0 -4.113297502340617e-16 0.0 0.010000031750151211 0.010000236358379528 0.0 -6.373228680772322e-17 0.0 0.01 0.0 -6.373228680772322e-17 0.0 0.010000018550051615 0.010000236358379528 0.0 1.545619458772034e-17 0.0 0.01 0.0 1.545619458772034e-17 0.0 0.010000011700020532 0.010000235858344112 0.0 9.262533523428315e-18 0.0 0.01 0.0 9.262533523428315e-18 0.0 0.010000007800009127 0.010000235858344112 0.0 4.423535157500355e-18 0.0 0.01 0.0 4.423535157500355e-18 0.0 0.010000006350006049 0.01000029686321864 0.0 2.0413630847603882e-14 0.0 0.01 0.0 2.0413630848017472e-14 0.0 0.01000046293214394 0.010000294463005762 0.0 2.1562258366737064e-15 0.0 0.01 0.0 2.1562258366737064e-15 0.0 0.010000265610581975 0.01000029346291757 0.0 -2.3246872433896454e-15 0.0 0.01 0.0 -2.3246872433896454e-15 0.0 0.010000136702803098 0.010000292012790223 0.0 -1.1629744457535152e-15 0.0 0.01 0.0 -1.1629744457535152e-15 0.0 0.010000067400681422 0.010000291512746456 0.0 -3.207130534409307e-16 0.0 0.01 0.0 -3.207130534409307e-16 0.0 0.010000034200175447 0.010000290562663508 0.0 -6.023299674356093e-17 0.0 0.01 0.0 -6.023299674356093e-17 0.0 0.01000001955005733 0.01000029006261996 0.0 4.09610621497844e-18 0.0 0.01 0.0 4.09610621497844e-18 0.0 0.010000012700024194 0.01000029006261996 0.0 4.9412496816349666e-14 0.0 0.01 0.0 4.9412496816349666e-14 0.0 0.010000008800011615 0.010000289562576488 0.0 -4.646004539184385e-14 0.0 0.01 0.0 -4.646004539184385e-14 0.0 0.010000006350006049 0.010000313514743108 0.0 5.744271460469903e-15 0.0 0.01 0.0 5.744271460469903e-15 0.0 0.010000493686556557 0.01000031106451357 0.0 -9.534252847022676e-16 0.0 0.01 0.0 -9.534252846505688e-16 0.0 0.010000283212030905 0.010000309114332162 0.0 -1.5758008029064948e-15 0.0 0.01 0.0 -1.5758008029064948e-15 0.0 0.010000145503175616 0.01000030761419339 0.0 -6.99512856680753e-16 0.0 0.01 0.0 -6.99512856680753e-16 0.0 0.010000071300762562 0.010000306664105856 0.0 -2.1457187329148615e-16 0.0 0.01 0.0 -2.1457187329148615e-16 0.0 0.010000036150196024 0.010000305664014003 0.0 -4.519981018248725e-17 0.0 0.01 0.0 -4.519981018248725e-17 0.0 0.01000002100006615 0.010000305213972766 0.0 -1.324807823020034e-17 0.0 0.01 0.0 -1.324807823020034e-17 0.0 0.010000013200026137 0.010000305213972766 0.0 3.4443381789255657e-18 0.0 0.01 0.0 3.4443381789255657e-18 0.0 0.010000008800011615 0.010000305213972766 0.0 -2.92278590886553e-18 0.0 0.01 0.0 -2.92278590886553e-18 0.0 0.010000006850007037 0.010000298363352571 0.0 5.063960177924939e-16 0.0 0.01 0.0 5.063960177924939e-16 0.0 0.010000512239355686 0.0100002964131786 0.0 -1.1893720199129747e-15 0.0 0.01 0.0 -1.189372021567336e-15 0.0 0.01000029396296163 0.010000294463005759 0.0 -8.273890590882484e-16 0.0 0.01 0.0 -8.273890590882484e-16 0.0 0.01000015040339311 0.010000293462917568 0.0 -3.5023631094304517e-16 0.0 0.01 0.0 -3.5023631094304517e-16 0.0 0.01000007375081587 0.010000292012790223 0.0 -9.818455924421398e-17 0.0 0.01 0.0 -9.818455924421398e-17 0.0 0.010000037600212066 0.010000291512746456 0.0 -2.270141283324827e-17 0.0 0.01 0.0 -2.270141283324827e-17 0.0 0.010000021500069338 0.010000291012702767 0.0 -6.449227214426512e-18 0.0 0.01 0.0 -6.449227214426512e-18 0.0 0.010000013650027948 0.010000291012702767 0.0 -4.817482648517268e-14 0.0 0.01 0.0 -4.817482648517268e-14 0.0 0.010000009300012973 0.010000291012702767 0.0 2.63655978598045e-14 0.0 0.01 0.0 2.63655978598045e-14 0.0 0.010000006850007037 0.010000267610741943 0.0 -4.474643661350245e-16 0.0 0.01 0.0 -4.474643661350245e-16 0.0 0.010000520540641563 0.010000265160546145 0.0 -3.6191375249049276e-16 0.0 0.01 0.0 -3.6191375249049276e-16 0.0 0.010000298863397369 0.010000263660427156 0.0 -2.2077539771778482e-16 0.0 0.01 0.0 -2.2077539771778482e-16 0.0 0.010000153303525224 0.010000262710352148 0.0 -7.21740481280313e-17 0.0 0.01 0.0 -7.21740481280313e-17 0.0 0.010000075200848266 0.01000026126023818 0.0 -2.4710549085970792e-17 0.0 0.01 0.0 -2.4710549085970792e-17 0.0 0.010000039050228738 0.010000260760199027 0.0 -8.96139950866804e-18 0.0 0.01 0.0 -8.96139950866804e-18 0.0 0.01000002195007227 0.01000026026015995 0.0 -4.600800469383253e-18 0.0 0.01 0.0 -4.600800469383253e-18 0.0 0.010000014150030033 0.01000026026015995 0.0 6.63753655743588e-15 0.0 0.01 0.0 6.63753655743588e-15 0.0 0.010000009300012973 0.010000259760120948 0.0 -5.056329284060974e-14 0.0 0.01 0.0 -5.056329284060974e-14 0.0 0.010000006850007037 0.010000233908206702 0.0 3.149820799907986e-16 0.0 0.01 0.0 3.149820799907986e-16 0.0 0.010000522490946665 0.010000232408101778 0.0 1.3722677937944794e-16 0.0 0.01 0.0 1.3722677937944794e-16 0.0 0.010000299313437743 0.010000230457966386 0.0 3.439792709312596e-17 0.0 0.01 0.0 3.439792709312596e-17 0.0 0.010000153803548257 0.010000230007935302 0.0 4.0513089219027484e-18 0.0 0.01 0.0 4.0513089219027484e-18 0.0 0.010000075700859585 0.01000022900786645 0.0 -3.3470822991271257e-15 0.0 0.01 0.0 -3.3470822991271257e-15 0.0 0.010000039050228738 0.010000228057801316 0.0 5.61845216756329e-15 0.0 0.01 0.0 5.61845216756329e-15 0.0 0.01000002195007227 0.010000228057801316 0.0 -6.310026226503824e-15 0.0 0.01 0.0 -6.310026226503824e-15 0.0 0.010000014150030033 0.010000227557767144 0.0 -1.261762089820176e-15 0.0 0.01 0.0 -1.261762089820176e-15 0.0 0.010000009300012973 0.010000227557767144 0.0 1.0259607843427448e-15 0.0 0.01 0.0 1.0259607843427448e-15 0.0 0.010000006850007037 0.010000205106310117 0.0 1.7569998334261704e-15 0.0 0.01 0.0 1.7569998334261704e-15 0.0 0.010000517140112318 0.010000204106248734 0.0 3.709161662087156e-16 0.0 0.01 0.0 3.709161662087156e-16 0.0 0.010000296413178596 0.010000202656160261 0.0 -3.8444099248516844e-17 0.0 0.01 0.0 -3.8444099248516844e-17 0.0 0.010000151853458851 0.010000201656099612 0.0 -3.754966283652456e-17 0.0 0.01 0.0 -3.754966283652456e-17 0.0 0.010000075200848266 0.010000200706042276 0.0 -1.135380295901783e-17 0.0 0.01 0.0 -1.135380295901783e-17 0.0 0.010000038550222917 0.010000200206012206 0.0 -4.002279616025553e-18 0.0 0.01 0.0 -4.002279616025553e-18 0.0 0.01000002195007227 0.010000200206012206 0.0 -2.785651715780541e-18 0.0 0.01 0.0 -2.785651715780541e-18 0.0 0.010000014150030033 0.010000199705982213 0.0 -3.879640425285832e-15 0.0 0.01 0.0 -3.879640425285832e-15 0.0 0.010000009300012973 0.010000199705982213 0.0 2.3088674617882008e-14 0.0 0.01 0.0 2.3088674617882008e-14 0.0 0.010000006850007037 0.010000182154976946 0.0 3.1829539772948952e-15 0.0 0.01 0.0 3.1829539772948952e-15 0.0 0.010000505888385872 0.010000181154922448 0.0 5.156323831713861e-16 0.0 0.01 0.0 5.156323831713861e-16 0.0 0.010000290562663508 0.010000179704843957 0.0 -2.5181986597990275e-16 0.0 0.01 0.0 -2.5181986597990275e-16 0.0 0.010000149403348138 0.010000178704790197 0.0 -1.6880753462714817e-16 0.0 0.01 0.0 -1.6880753462714817e-16 0.0 0.010000073250804846 0.0100001777547394 0.0 -5.54748278120509e-17 0.0 0.01 0.0 -5.54748278120509e-17 0.0 0.010000037100206463 0.010000177254712774 0.0 -7.35118265714089e-18 0.0 0.01 0.0 -7.35118265714089e-18 0.0 0.010000021500069338 0.010000177254712774 0.0 -7.731679242000746e-14 0.0 0.01 0.0 -7.731679242000746e-14 0.0 0.010000014150030033 0.010000176754686223 0.0 -9.310282770246741e-14 0.0 0.01 0.0 -9.310282770246741e-14 0.0 0.010000009300012973 0.010000176754686223 0.0 -4.953553128327147e-14 0.0 0.01 0.0 -4.953553128327147e-14 0.0 0.010000006850007037 0.010000162103941569 0.0 6.099681405964503e-15 0.0 0.01 0.0 6.099681405938653e-15 0.0 0.010000489785981196 0.010000160153847306 0.0 9.354835176124645e-16 0.0 0.01 0.0 9.354835176124645e-16 0.0 0.010000280761823637 0.010000158703777955 0.0 -4.760348478688708e-16 0.0 0.01 0.0 -4.760348477654733e-16 0.0 0.010000144053112635 0.010000157703730491 0.0 -2.855586774849498e-16 0.0 0.01 0.0 -2.855586774849498e-16 0.0 0.010000070800751906 0.010000157253709232 0.0 -7.373469901716102e-17 0.0 0.01 0.0 -7.373469901716102e-17 0.0 0.010000036600200936 0.010000156253662204 0.0 9.193916534583444e-14 0.0 0.01 0.0 9.193916534583444e-14 0.0 0.01000002100006615 0.010000155753638804 0.0 3.991897484219178e-18 0.0 0.01 0.0 3.991897484219178e-18 0.0 0.010000013650027948 0.010000155753638804 0.0 1.8311101699845232e-14 0.0 0.01 0.0 1.8311101699845232e-14 0.0 0.010000009300012973 0.010000155753638804 0.0 1.3226125245245787e-14 0.0 0.01 0.0 1.3226125245245787e-14 0.0 0.010000006850007037 0.010000139152904479 0.0 8.989136493835206e-15 0.0 0.01 0.0 8.989136493835206e-15 0.0 0.010000468282891278 0.010000137202823643 0.0 1.552804156729323e-15 0.0 0.01 0.0 1.552804156729323e-15 0.0 0.01000026856081835 0.010000135252743946 0.0 -5.691124933697912e-16 0.0 0.01 0.0 -5.691124933697912e-16 0.0 0.010000138202864951 0.010000134752723697 0.0 -3.2671439882134885e-16 0.0 0.01 0.0 -3.2671439882134885e-16 0.0 0.01000006785069055 0.010000133302665394 0.0 -5.077214788390137e-17 0.0 0.01 0.0 -5.077214788390137e-17 0.0 0.010000035150185329 0.010000132802645435 0.0 2.4077994867349642e-17 0.0 0.01 0.0 2.4077994867349642e-17 0.0 0.01000002000006 0.010000132802645435 0.0 1.9985574684240834e-17 0.0 0.01 0.0 1.9985574684240834e-17 0.0 0.010000013200026137 0.01000013185260772 0.0 4.5021690346002855e-18 0.0 0.01 0.0 4.5021690346002855e-18 0.0 0.010000008800011615 0.01000013185260772 0.0 3.6016353821234344e-18 0.0 0.01 0.0 3.6016353821234344e-18 0.0 0.010000006850007037 0.010000110851843194 0.0 1.2794793342391132e-14 0.0 0.01 0.0 1.2794793342391132e-14 0.0 0.0100004419292935 0.010000108901778916 0.0 2.0582957073356305e-15 0.0 0.01 0.0 2.0582957073356305e-15 0.0 0.010000253409632143 0.010000106951715776 0.0 -7.249289537399958e-16 0.0 0.01 0.0 -7.249289537399958e-16 0.0 0.010000130352548724 0.01000010595168384 0.0 -2.3682575824370327e-16 0.0 0.01 0.0 -2.3682575824370327e-16 0.0 0.010000064450623077 0.010000104501638067 0.0 7.012472342207504e-17 0.0 0.01 0.0 7.012472342207504e-17 0.0 0.010000033200165338 0.010000103501606865 0.0 9.314514723876559e-17 0.0 0.01 0.0 9.314514723876559e-17 0.0 0.010000019050054435 0.010000103501606865 0.0 4.5751360514758715e-17 0.0 0.01 0.0 4.5751360514758715e-17 0.0 0.010000012200022326 0.010000103051592922 0.0 2.157336744751931e-17 0.0 0.01 0.0 2.157336744751931e-17 0.0 0.010000008800011615 0.010000103051592922 0.0 7.139974666989822e-18 0.0 0.01 0.0 7.139974666989822e-18 0.0 0.010000006350006049 0.010000079100938536 0.0 1.5545531225597278e-14 0.0 0.01 0.0 1.5545531225597278e-14 0.0 0.01000041162541393 0.010000076150869836 0.0 2.347720148912646e-15 0.0 0.01 0.0 2.347720148912646e-15 0.0 0.01000023635837953 0.010000074200825859 0.0 -4.438502507998563e-16 0.0 0.01 0.0 -4.438502507998563e-16 0.0 0.01000012160221803 0.010000072750793895 0.0 -7.510958555284696e-18 0.0 0.01 0.0 -7.510958555284696e-18 0.0 0.010000059550531935 0.010000071800773296 0.0 2.6146595161656515e-16 0.0 0.01 0.0 2.6146595161656515e-16 0.0 0.010000031250146485 0.010000071300762562 0.0 1.943688796065598e-16 0.0 0.01 0.0 1.943688796065598e-16 0.0 0.010000018550051615 0.010000070800751906 0.0 8.176174680352738e-17 0.0 0.01 0.0 8.176174680352738e-17 0.0 0.010000011700020532 0.010000070800751906 0.0 1.3505998248632182e-17 0.0 0.01 0.0 1.3505998248632182e-17 0.0 0.010000008300010334 0.010000070800751906 0.0 7.232188694428419e-18 0.0 0.01 0.0 7.232188694428419e-18 0.0 0.010000006350006049 0.010000046400322947 0.0 1.4806907106968854e-14 0.0 0.01 0.0 1.4806907106865457e-14 0.0 0.010000378921536143 0.010000042000264603 0.0 2.3239172886311336e-15 0.0 0.01 0.0 2.3239172886311336e-15 0.0 0.010000217307083151 0.010000040050240602 0.0 -3.5661275772842965e-16 0.0 0.01 0.0 -3.5661275772842965e-16 0.0 0.01000011180187492 0.01000003855022292 0.0 2.98200208550569e-16 0.0 0.01 0.0 2.98200208550569e-16 0.0 0.010000055650464546 0.010000038100217747 0.0 4.580367064428436e-16 0.0 0.01 0.0 4.580367064428436e-16 0.0 0.010000028800124421 0.010000036600200938 0.0 2.843790356722147e-16 0.0 0.01 0.0 2.843790356722147e-16 0.0 0.010000017100043864 0.010000036600200936 0.0 1.164162955834221e-16 0.0 0.01 0.0 1.164162955834221e-16 0.0 0.010000011250018984 0.010000036150196024 0.0 1.2797814909634534e-17 0.0 0.01 0.0 1.2797814909634534e-17 0.0 0.010000007300007994 0.010000036150196024 0.0 1.229908140687425e-17 0.0 0.01 0.0 1.229908140687425e-17 0.0 0.010000006350006049 0.010000016100038884 0.0 1.3144029828947921e-14 0.0 0.01 0.0 1.314402982899962e-14 0.0 0.010000345717927309 0.010000012200022326 0.0 1.6216374911266737e-15 0.0 0.01 0.0 1.6216374911266737e-15 0.0 0.010000198255895654 0.010000009300012973 0.0 -8.261072100090183e-18 0.0 0.01 0.0 -8.261072100090183e-18 0.0 0.010000102551577501 0.010000007800009128 0.0 5.948242784950014e-16 0.0 0.01 0.0 5.948242784950014e-16 0.0 0.010000050800387102 0.010000006850007037 0.0 6.871990253317002e-16 0.0 0.01 0.0 6.87199025383399e-16 0.0 0.010000027350112205 0.01000000685000704 0.0 3.6970120772585704e-16 0.0 0.01 0.0 3.6970120772585704e-16 0.0 0.010000016100038884 0.010000005850005132 0.0 1.391738264831117e-16 0.0 0.01 0.0 1.3917382658650928e-16 0.0 0.010000010750017333 0.010000005850005132 0.0 5.11717809180551e-17 0.0 0.01 0.0 5.11717809180551e-17 0.0 0.010000007300007992 0.010000005850005132 0.0 1.5612511283791264e-17 0.0 0.01 0.0 1.5612511283791264e-17 0.0 0.010000005850005132 0.009999992500008442 0.0 8.072922838525418e-15 0.0 0.01 0.0 8.07292283847372e-15 0.0 0.010000312514649203 0.00999998700002535 0.0 3.9445039828413825e-16 0.0 0.01 0.0 3.9445039828413825e-16 0.0 0.010000179704843957 0.009999984500036039 0.0 5.239124601466144e-16 0.0 0.01 0.0 5.239124601466144e-16 0.0 0.010000093251304354 0.009999982500045941 0.0 1.137909659648114e-15 0.0 0.01 0.0 1.137909659648114e-15 0.0 0.010000046850329243 0.009999981500051337 0.0 8.609651411349961e-16 0.0 0.01 0.0 8.609651410832973e-16 0.0 0.010000025400096774 0.009999981000054153 0.0 4.387689365839988e-16 0.0 0.01 0.0 4.387689365839988e-16 0.0 0.01000001515003443 0.009999981000054151 0.0 1.6089268382576678e-16 0.0 0.01 0.0 1.6089268382576678e-16 0.0 0.01000001025001576 0.009999980500057038 0.0 8.456581524613454e-17 0.0 0.01 0.0 8.456581524613454e-17 0.0 0.010000007300007994 0.009999980500057038 0.0 1.8219765194782942e-17 0.0 0.01 0.0 1.8219765194782942e-17 0.0 0.010000005850005133 0.009999975000093751 0.0 -5.903073844146097e-13 0.0 0.01 0.0 -5.903073844146097e-13 0.0 0.010000281761908019 0.00999996900014415 0.0 -3.375503964030602e-16 0.0 0.01 0.0 -3.375503964030602e-16 0.0 0.0100001635540124 0.009999965000183752 0.0 1.7389178593905606e-15 0.0 0.01 0.0 1.7389178593905606e-15 0.0 0.010000085451095273 0.00999996300020535 0.0 1.9630799021080663e-15 0.0 0.01 0.0 1.9630799021080663e-15 0.0 0.010000042950276709 0.009999962000216599 0.0 1.1317495800206693e-15 0.0 0.01 0.0 1.1317495799689705e-15 0.0 0.010000023450082485 0.009999961500222337 0.0 4.70290787537722e-16 0.0 0.01 0.0 4.70290787537722e-16 0.0 0.010000014650032193 0.009999961500222337 0.0 9.285596152003994e-17 0.0 0.01 0.0 9.285596152003994e-17 0.0 0.01000001025001576 0.009999961000228147 0.0 4.5091653090260644e-17 0.0 0.01 0.0 4.5091653090260644e-17 0.0 0.010000007300007994 0.009999960500234035 0.0 1.5028895142401198e-17 0.0 0.01 0.0 1.5028895142401198e-17 0.0 0.010000005850005133 0.00999996450018904 0.0 4.004546561686668e-12 0.0 0.01 0.0 4.004546561686668e-12 0.0 0.010000255859819307 0.009999956500283838 0.0 2.2226952579080178e-13 0.0 0.01 0.0 2.2226952579245614e-13 0.0 0.01000014940334814 0.009999952000345598 0.0 4.421742277902138e-15 0.0 0.01 0.0 4.421742277902138e-15 0.0 0.010000079100938536 0.009999950000374996 0.0 3.2477259156823856e-15 0.0 0.01 0.0 3.2477259156823856e-15 0.0 0.01000004100025215 0.009999948000405597 0.0 1.511461450485211e-15 0.0 0.01 0.0 1.5114614504593616e-15 0.0 0.0100000224500756 0.009999947000421346 0.0 4.829473294305302e-16 0.0 0.01 0.0 4.829473294305302e-16 0.0 0.010000013650027948 0.009999947000421346 0.0 8.567241920313297e-17 0.0 0.01 0.0 8.567241920313297e-17 0.0 0.01000000975001426 0.009999947000421346 0.0 2.1843633762431573e-17 0.0 0.01 0.0 2.1843633762431573e-17 0.0 0.010000007300007994 0.009999947000421346 0.0 1.2048868784557901e-17 0.0 0.01 0.0 1.2048868784557901e-17 0.0 0.010000005850005133 0.009999959500246033 0.0 4.8933671241580074e-11 0.0 0.01 0.0 4.893367124200359e-11 0.0 0.010000232908136676 0.009999950500367538 0.0 4.996061635481767e-12 0.0 0.01 0.0 4.9960616354288275e-12 0.0 0.010000139152904477 0.009999945000453748 0.0 9.27047209041955e-15 0.0 0.01 0.0 9.270472090316153e-15 0.0 0.010000075200848267 0.009999941500513334 0.0 5.6247175120658785e-15 0.0 0.01 0.0 5.6247175120658785e-15 0.0 0.010000039550234634 0.009999939500549036 0.0 2.1094011025117336e-15 0.0 0.01 0.0 2.109401102408336e-15 0.0 0.010000021950072274 0.009999938000576594 0.0 5.252274907978079e-16 0.0 0.01 0.0 5.252274907978079e-16 0.0 0.010000013650027948 0.00999993750058593 0.0 5.039265786815619e-17 0.0 0.01 0.0 5.039265786815619e-17 0.0 0.010000009300012973 0.00999993750058593 0.0 -1.9293712946135637e-17 0.0 0.01 0.0 -1.9293712946135637e-17 0.0 0.010000006850007037 0.009999937000595344 0.0 9.430897653968366e-18 0.0 0.01 0.0 9.430897653968366e-18 0.0 0.010000005850005133 0.009999959500246042 0.0 2.1670170235541376e-10 0.0 0.01 0.0 2.167017023537197e-10 0.0 0.010000214856924332 0.009999950000375 0.0 3.413952259356027e-11 0.0 0.01 0.0 3.413952259356027e-11 0.0 0.010000131352587982 0.009999942500495936 0.0 5.282892877543035e-13 0.0 0.01 0.0 5.28289287747686e-13 0.0 0.01000007375081587 0.009999938000576592 0.0 9.572935263669966e-15 0.0 0.01 0.0 9.572935263876761e-15 0.0 0.010000039550234631 0.009999935500624032 0.0 3.4723408879426852e-15 0.0 0.01 0.0 3.4723408879426852e-15 0.0 0.010000021950072272 0.009999933000673344 0.0 7.638743355630372e-16 0.0 0.01 0.0 7.638743355630372e-16 0.0 0.010000013200026138 0.00999993250068343 0.0 2.1080404468591607e-17 0.0 0.01 0.0 2.1080404468591607e-17 0.0 0.010000009300012973 0.00999993150070383 0.0 -8.679684234789492e-17 0.0 0.01 0.0 -8.679684234789492e-17 0.0 0.010000006850007037 0.00999993150070383 0.0 -7.89682138231285e-18 0.0 0.01 0.0 -7.89682138231285e-18 0.0 0.010000006350006049 0.009999963500199896 0.0 6.428108325881902e-10 0.0 0.01 0.0 6.428108325881902e-10 0.0 0.010000200706042335 0.009999954000317399 0.0 1.5131551007065808e-10 0.0 0.01 0.0 1.5131551007065808e-10 0.0 0.010000127952455735 0.009999946000437396 0.0 1.0764657925513068e-11 0.0 0.01 0.0 1.076465792540719e-11 0.0 0.010000074700837027 0.009999940000539996 0.0 1.6552070827744158e-14 0.0 0.01 0.0 1.6552070827744158e-14 0.0 0.010000041000252154 0.00999993550062403 0.0 6.16174055948243e-15 0.0 0.01 0.0 6.1617405592756345e-15 0.0 0.010000023450082485 0.009999933000673342 0.0 1.5921595588117407e-15 0.0 0.01 0.0 1.592159558760042e-15 0.0 0.010000013650027948 0.00999993150070383 0.0 1.0160553774689227e-16 0.0 0.01 0.0 1.0160553774689227e-16 0.0 0.010000009300012973 0.00999993000073499 0.0 -9.530022370558708e-17 0.0 0.01 0.0 -9.530022370558708e-17 0.0 0.010000007300007994 0.00999993000073499 0.0 -2.1204297462705067e-17 0.0 0.01 0.0 -2.1204297462705067e-17 0.0 0.010000005850005133 0.009999970000135326 0.0 1.4798656840968663e-09 0.0 0.01 0.0 1.4798656841104188e-09 0.0 0.010000188505330332 0.009999963500199868 0.0 4.862972786128406e-10 0.0 0.01 0.0 4.862972786128406e-10 0.0 0.010000126002381485 0.009999955000303746 0.0 8.013374787253796e-11 0.0 0.01 0.0 8.013374787253796e-11 0.0 0.010000078100914954 0.009999947500413435 0.0 3.7078411013348146e-12 0.0 0.01 0.0 3.7078411013348146e-12 0.0 0.010000045400309177 0.009999941500513332 0.0 1.1642732067495067e-14 0.0 0.01 0.0 1.1642732067495067e-14 0.0 0.010000025900100622 0.009999937500585932 0.0 3.672678762904033e-15 0.0 0.01 0.0 3.672678762800635e-15 0.0 0.010000015600036506 0.009999934500643534 0.0 7.656709470768581e-16 0.0 0.01 0.0 7.656709470768581e-16 0.0 0.010000009750014261 0.009999933000673342 0.0 2.08041026998101e-17 0.0 0.01 0.0 2.08041026998101e-17 0.0 0.010000007300007994 0.00999993250068343 0.0 2.1581058978123663e-13 0.0 0.01 0.0 2.1581058978123663e-13 0.0 0.010000005850005133 0.009999981000055353 0.0 2.834082003393178e-09 0.0 0.01 0.0 2.834082003393178e-09 0.0 0.010000179204818242 0.00999997600008663 0.0 1.2430774531062673e-09 0.0 0.01 0.0 1.2430774531333724e-09 0.0 0.010000126452398722 0.009999968500148856 0.0 3.526173989910485e-10 0.0 0.01 0.0 3.526173989910485e-10 0.0 0.010000083001033383 0.009999960500234037 0.0 5.547940404167738e-11 0.0 0.01 0.0 5.547940404167738e-11 0.0 0.010000050800387104 0.009999953000331348 0.0 3.283412450515228e-12 0.0 0.01 0.0 3.283412450515228e-12 0.0 0.01000003025013726 0.009999947000421349 0.0 8.34259738985887e-15 0.0 0.01 0.0 8.34259738985887e-15 0.0 0.010000018550051618 0.009999943000487347 0.0 2.708268364570696e-15 0.0 0.01 0.0 2.7082683646223948e-15 0.0 0.010000011250018986 0.009999941000522147 0.0 6.920304352305614e-16 0.0 0.01 0.0 6.920304352305614e-16 0.0 0.010000007800009128 0.009999939000558145 0.0 1.6031505582335337e-16 0.0 0.01 0.0 1.6031505582335337e-16 0.0 0.010000006350006049 0.009999993500009552 0.0 4.630212434221948e-09 0.0 0.01 0.0 4.630212434276158e-09 0.0 0.010000170404358764 0.009999992000010612 0.0 2.5938747617360904e-09 0.0 0.01 0.0 2.5938747617631954e-09 0.0 0.010000126002382462 0.009999986500027515 0.0 1.0794560658202758e-09 0.0 0.01 0.0 1.0794560658202758e-09 0.0 0.010000087401146008 0.009999979000066163 0.0 3.232938530802593e-10 0.0 0.01 0.0 3.232938530802593e-10 0.0 0.010000057150489938 0.009999970500130535 0.0 6.576605560254501e-11 0.0 0.01 0.0 6.576605560254501e-11 0.0 0.010000036150196023 0.009999963500199837 0.0 7.775006530981579e-12 0.0 0.01 0.0 7.775006531405095e-12 0.0 0.010000021950072272 0.009999958000264599 0.0 3.264384263095645e-13 0.0 0.01 0.0 3.2643842631618195e-13 0.0 0.010000014150030032 0.009999953500324335 0.0 2.3135636965335722e-15 0.0 0.01 0.0 2.3135636964818734e-15 0.0 0.01000000975001426 0.009999952000345598 0.0 5.395656559663296e-16 0.0 0.01 0.0 5.395656559663296e-16 0.0 0.010000007300007996 0.010000006850013472 0.0 6.548563439505006e-09 0.0 0.01 0.0 6.548563439559216e-09 0.0 0.010000163103996783 0.010000008300013328 0.0 4.46713685026091e-09 0.0 0.01 0.0 4.4671368503693305e-09 0.0 0.010000124002309438 0.010000005850006042 0.0 2.459144885934208e-09 0.0 0.01 0.0 2.459144885934208e-09 0.0 0.010000091301251282 0.010000001000000326 0.0 1.0896270921678143e-09 0.0 0.01 0.0 1.0896270921407093e-09 0.0 0.01000006350060502 0.009999994000005426 0.0 3.885448422827646e-10 0.0 0.01 0.0 3.885448422963171e-10 0.0 0.010000042500270966 0.00999998650002734 0.0 1.0989843397766759e-10 0.0 0.01 0.0 1.0989843397766759e-10 0.0 0.010000028300120138 0.009999981000054147 0.0 2.270989926364856e-11 0.0 0.01 0.0 2.270989926364856e-11 0.0 0.010000018050048869 0.009999975500090038 0.0 3.0691160676696836e-12 0.0 0.01 0.0 3.0691160675638045e-12 0.0 0.010000012700024194 0.00999997250011344 0.0 1.202955047071113e-13 0.0 0.01 0.0 1.202955047071113e-13 0.0 0.01000000975001426 0.010000023950096209 0.0 8.234212688215323e-09 0.0 0.01 0.0 8.234212688323743e-09 0.0 0.010000156753695848 0.010000024900099264 0.0 6.459987878610837e-09 0.0 0.01 0.0 6.459987878502417e-09 0.0 0.01000012255225908 0.010000024900095866 0.0 4.3679140378401204e-09 0.0 0.01 0.0 4.3679140378401204e-09 0.0 0.010000093751321241 0.010000023450083434 0.0 2.5159173327581746e-09 0.0 0.01 0.0 2.5159173327581746e-09 0.0 0.010000068850712005 0.01000001905005467 0.0 1.2334807628425204e-09 0.0 0.01 0.0 1.2334807628425204e-09 0.0 0.01000004885035818 0.010000014150030075 0.0 5.104992024267986e-10 0.0 0.01 0.0 5.104992024267986e-10 0.0 0.01000003420017549 0.01000000880001162 0.0 1.7088295944825242e-10 0.0 0.01 0.0 1.708829594346999e-10 0.0 0.010000023950086043 0.010000004400002906 0.0 4.2243815237053613e-11 0.0 0.01 0.0 4.2243815237053613e-11 0.0 0.010000017100043864 0.010000001950000571 0.0 5.658917741547436e-12 0.0 0.01 0.0 5.658917741547436e-12 0.0 0.010000013650027948 0.010000049800385043 0.0 9.32261771187555e-09 0.0 0.01 0.0 9.32261771187555e-09 0.0 0.010000153803561292 0.010000044900312413 0.0 8.1684053930553e-09 0.0 0.01 0.0 8.16840539283846e-09 0.0 0.010000121102209837 0.010000043450289148 0.0 6.304614694457172e-09 0.0 0.01 0.0 6.304614694457172e-09 0.0 0.010000094751352618 0.010000043950292522 0.0 4.302949200077344e-09 0.0 0.01 0.0 4.3029491998605035e-09 0.0 0.010000072250785795 0.010000043450284178 0.0 2.5655238706026595e-09 0.0 0.01 0.0 2.5655238710363404e-09 0.0 0.010000054700449807 0.010000041500258594 0.0 1.3104490166615523e-09 0.0 0.01 0.0 1.3104490166615523e-09 0.0 0.010000041000252407 0.010000039050228783 0.0 5.523609833413268e-10 0.0 0.01 0.0 5.523609832329066e-10 0.0 0.01000003075014188 0.010000036150196028 0.0 1.7731127514592632e-10 0.0 0.01 0.0 1.7731127514592632e-10 0.0 0.010000023450082489 0.01000003420017545 0.0 3.320048169085056e-11 0.0 0.01 0.0 3.320048169423869e-11 0.0 0.010000019050054439 0.01000008545110465 0.0 7.907840164590382e-09 0.0 0.01 0.0 7.907840164373542e-09 0.0 0.01000015285351394 0.010000075700871764 0.0 9.010567990743248e-09 0.0 0.01 0.0 9.010567990526408e-09 0.0 0.010000121102212003 0.010000067850699621 0.0 7.776340772702728e-09 0.0 0.01 0.0 7.776340772269047e-09 0.0 0.010000095701382864 0.010000064450628236 0.0 5.864702290643564e-09 0.0 0.01 0.0 5.864702290643564e-09 0.0 0.010000075700864745 0.010000064450625373 0.0 3.912942180342438e-09 0.0 0.01 0.0 3.9129421820771615e-09 0.0 0.010000059550534231 0.010000064950633549 0.0 2.2599090983982384e-09 0.0 0.01 0.0 2.2599090983982384e-09 0.0 0.010000046850330008 0.010000065450642743 0.0 1.0868807004036328e-09 0.0 0.01 0.0 1.0868807004036328e-09 0.0 0.010000037600212246 0.010000064950632806 0.0 4.020457390673058e-10 0.0 0.01 0.0 4.0204573908085833e-10 0.0 0.010000029800133231 0.010000064950632786 0.0 8.57496685487927e-11 0.0 0.01 0.0 8.57496685487927e-11 0.0 0.010000025900100627 0.010000110851843193 0.0 5.731681891734948e-11 0.0 0.01 0.0 5.731681891734948e-11 0.0 0.01000015480359455 0.010000109851816218 0.0 6.392929746776993e-09 0.0 0.01 0.0 6.392929746776993e-09 0.0 0.01000012400231258 0.01000010350161599 0.0 7.798460079089242e-09 0.0 0.01 0.0 7.79846007822188e-09 0.0 0.010000099601497173 0.010000096201394979 0.0 6.7273809006146434e-09 0.0 0.01 0.0 6.727380901048324e-09 0.0 0.010000079600957227 0.010000090801240204 0.0 4.822226797344606e-09 0.0 0.01 0.0 4.8222267971277655e-09 0.0 0.010000064450626565 0.010000088851185479 0.0 2.959510259580543e-09 0.0 0.01 0.0 2.9595102596889633e-09 0.0 0.010000053200425851 0.01000008885118451 0.0 1.5192858141260118e-09 0.0 0.01 0.0 1.5192858141260118e-09 0.0 0.010000043950290088 0.01000009035122454 0.0 6.021567568436628e-10 0.0 0.01 0.0 6.021567568301103e-10 0.0 0.01000003760021212 0.010000090351224492 0.0 1.361153073459469e-10 0.0 0.01 0.0 1.361153073459469e-10 0.0 0.010000032700160399 0.010000117702079408 0.0 -3.024098953023635e-09 0.0 0.01 0.0 -3.024098953023635e-09 0.0 0.010000132302626925 0.010000128402474684 0.0 3.312236429792517e-09 0.0 0.01 0.0 3.3122364295756768e-09 0.0 0.010000106951717424 0.010000130852572597 0.0 5.3430125154969865e-09 0.0 0.01 0.0 5.3430125154969865e-09 0.0 0.010000086901137037 0.010000127952459054 0.0 4.704859565959549e-09 0.0 0.01 0.0 4.7048595658511286e-09 0.0 0.010000071300765884 0.010000124502326544 0.0 3.1205637400283023e-09 0.0 0.01 0.0 3.1205637399740922e-09 0.0 0.010000059100525387 0.010000122552253228 0.0 1.645006850788805e-09 0.0 0.01 0.0 1.645006850788805e-09 0.0 0.010000050300379924 0.010000122552252888 0.0 6.614384193761062e-10 0.0 0.01 0.0 6.614384193761062e-10 0.0 0.010000043950289809 0.010000122552252825 0.0 1.5147271576544967e-10 0.0 0.01 0.0 1.514727157688378e-10 0.0 0.010000040550246652 0.010000130352549007 0.0 -1.3755572461789621e-09 0.0 0.01 0.0 -1.375557246124752e-09 0.0 0.01000009960148833 0.010000146003197763 0.0 1.3800538579478768e-09 0.0 0.01 0.0 1.3800538579207718e-09 0.0 0.010000082051010129 0.010000154303571818 0.0 1.7404127947032253e-09 0.0 0.01 0.0 1.7404127947032253e-09 0.0 0.010000067850691003 0.010000160653871548 0.0 1.0948606928706936e-09 0.0 0.01 0.0 1.094860692884246e-09 0.0 0.01000005760049785 0.010000164554061648 0.0 4.6092191889802623e-10 0.0 0.01 0.0 4.609219188844737e-10 0.0 0.010000050800387128 0.010000167504208558 0.0 1.0638945567788716e-10 0.0 0.01 0.0 1.0638945567788716e-10 0.0 0.010000046850329245 0.010000127952456875 0.0 -2.7596134635245184e-09 0.0 0.01 0.0 -2.7596134635245184e-09 0.0 0.01000008105098652 0.010000146003197579 0.0 -8.247118133401137e-10 0.0 0.01 0.0 -8.247118133401137e-10 0.0 0.010000065900651533 0.01000016015384731 0.0 -1.8274393152553246e-10 0.0 0.01 0.0 -1.8274393152553246e-10 0.0 0.01000005715048992 0.010000168454256433 0.0 -2.5009074486364902e-11 0.0 0.01 0.0 -2.5009074486788418e-11 0.0 0.010000053200424542 0.009999999999999998 0.0 0.0 0.0 0.01 0.0 0.0 0.0 0.009999999999999998 0.009999999999999998 0.0 0.0 0.0 0.01 0.0 0.0 0.0 0.009999999999999998 0.009999999999999998 0.0 0.0 0.0 0.01 0.0 0.0 0.0 0.009999999999999998 0.009999999999999998 0.0 0.0 0.0 0.01 0.0 0.0 0.0 0.009999999999999998 0.009999999999999998 0.0 0.0 0.0 0.01 0.0 0.0 0.0 0.009999999999999998 0.009999999999999998 0.0 0.0 0.0 0.01 0.0 0.0 0.0 0.009999999999999998 0.009999999999999998 0.0 0.0 0.0 0.01 0.0 0.0 0.0 0.009999999999999998 0.009999999999999998 0.0 0.0 0.0 0.01 0.0 0.0 0.0 0.009999999999999998 0.009999999999999998 0.0 0.0 0.0 0.01 0.0 0.0 0.0 0.009999999999999998 0.01 0.0 0.0 0.0 0.01 0.0 0.0 0.0 0.01 0.009999999999999998 0.0 0.0 0.0 0.01 0.0 0.0 0.0 0.009999999999999998 0.009999999999999998 0.0 0.0 0.0 0.01 0.0 0.0 0.0 0.009999999999999998 0.009999999999999998 0.0 0.0 0.0 0.01 0.0 0.0 0.0 0.009999999999999998 0.01 0.0 0.0 0.0 0.01 0.0 0.0 0.0 0.01 0.009999999999999998 0.0 0.0 0.0 0.01 0.0 0.0 0.0 0.009999999999999998 0.01 0.0 0.0 0.0 0.01 0.0 0.0 0.0 0.01 0.009999999999999998 0.0 0.0 0.0 0.01 0.0 0.0 0.0 0.009999999999999998 0.009999999999999998 0.0 0.0 0.0 0.01 0.0 0.0 0.0 0.009999999999999998 0.009999999999999998 0.0 0.0 0.0 0.01 0.0 0.0 0.0 0.009999999999999998 0.009999999999999998 0.0 0.0 0.0 0.01 0.0 0.0 0.0 0.009999999999999998 0.01 0.0 0.0 0.0 0.01 0.0 0.0 0.0 0.01 0.009999999999999998 0.0 0.0 0.0 0.01 0.0 0.0 0.0 0.009999999999999998 0.01 0.0 0.0 0.0 0.01 0.0 0.0 0.0 0.01 0.01 0.0 0.0 0.0 0.01 0.0 0.0 0.0 0.01 0.009999999999999998 0.0 0.0 0.0 0.01 0.0 0.0 0.0 0.009999999999999998 0.009999999999999998 0.0 0.0 0.0 0.01 0.0 0.0 0.0 0.009999999999999998 0.009999999999999998 0.0 0.0 0.0 0.01 0.0 0.0 0.0 0.009999999999999998 0.009999999999999998 0.0 0.0 0.0 0.01 0.0 0.0 0.0 0.009999999999999998 0.009999999999999998 0.0 0.0 0.0 0.01 0.0 0.0 0.0 0.009999999999999998 0.009999999999999998 0.0 0.0 0.0 0.01 0.0 0.0 0.0 0.009999999999999998 0.009999999999999998 0.0 0.0 0.0 0.01 0.0 0.0 0.0 0.009999999999999998 0.009999999999999998 0.0 0.0 0.0 0.01 0.0 0.0 0.0 0.009999999999999998 0.009999999999999998 0.0 0.0 0.0 0.01 0.0 0.0 0.0 0.009999999999999998 0.01 0.0 0.0 0.0 0.01 0.0 0.0 0.0 0.01 0.009999999999999998 0.0 0.0 0.0 0.01 0.0 0.0 0.0 0.009999999999999998 0.009999999999999998 0.0 0.0 0.0 0.01 0.0 0.0 0.0 0.009999999999999998 0.009999999999999998 0.0 0.0 0.0 0.01 0.0 0.0 0.0 0.009999999999999998 0.01 0.0 0.0 0.0 0.01 0.0 0.0 0.0 0.01 0.01 0.0 0.0 0.0 0.01 0.0 0.0 0.0 0.01 0.01 0.0 0.0 0.0 0.01 0.0 0.0 0.0 0.01 0.009999999999999998 0.0 0.0 0.0 0.01 0.0 0.0 0.0 0.009999999999999998 0.009999999999999998 0.0 0.0 0.0 0.01 0.0 0.0 0.0 0.009999999999999998 0.009999999999999998 0.0 0.0 0.0 0.01 0.0 0.0 0.0 0.009999999999999998 0.01 0.0 0.0 0.0 0.01 0.0 0.0 0.0 0.01 0.009999999999999998 0.0 0.0 0.0 0.01 0.0 0.0 0.0 0.009999999999999998 0.009999999999999998 0.0 0.0 0.0 0.01 0.0 0.0 0.0 0.009999999999999998 0.01 0.0 0.0 0.0 0.01 0.0 0.0 0.0 0.01 0.009999999999999998 0.0 0.0 0.0 0.01 0.0 0.0 0.0 0.009999999999999998 0.009999999999999998 0.0 0.0 0.0 0.01 0.0 0.0 0.0 0.009999999999999998 0.01 0.0 0.0 0.0 0.01 0.0 0.0 0.0 0.01 0.009999999999999998 0.0 0.0 0.0 0.01 0.0 0.0 0.0 0.009999999999999998 0.009999999999999998 0.0 0.0 0.0 0.01 0.0 0.0 0.0 0.009999999999999998 0.01 0.0 0.0 0.0 0.01 0.0 0.0 0.0 0.01 0.01 0.0 0.0 0.0 0.01 0.0 0.0 0.0 0.01 0.009999999999999998 0.0 0.0 0.0 0.01 0.0 0.0 0.0 0.009999999999999998 0.01 0.0 0.0 0.0 0.01 0.0 0.0 0.0 0.01 0.009999999999999998 0.0 0.0 0.0 0.01 0.0 0.0 0.0 0.009999999999999998 0.009999999999999998 0.0 0.0 0.0 0.01 0.0 0.0 0.0 0.009999999999999998 0.01 0.0 0.0 0.0 0.01 0.0 0.0 0.0 0.01 0.009999999999999998 0.0 0.0 0.0 0.01 0.0 0.0 0.0 0.009999999999999998 0.009999999999999998 0.0 0.0 0.0 0.01 0.0 0.0 0.0 0.009999999999999998 0.009999999999999998 0.0 0.0 0.0 0.01 0.0 0.0 0.0 0.009999999999999998 0.01 0.0 0.0 0.0 0.01 0.0 0.0 0.0 0.01 0.01 0.0 0.0 0.0 0.01 0.0 0.0 0.0 0.01 0.009999999999999998 0.0 0.0 0.0 0.01 0.0 0.0 0.0 0.009999999999999998 0.009999999999999998 0.0 0.0 0.0 0.01 0.0 0.0 0.0 0.009999999999999998 0.009999999999999998 0.0 0.0 0.0 0.01 0.0 0.0 0.0 0.009999999999999998 0.009999999999999998 0.0 0.0 0.0 0.01 0.0 0.0 0.0 0.009999999999999998 0.01 0.0 0.0 0.0 0.01 0.0 0.0 0.0 0.01 0.01 0.0 0.0 0.0 0.01 0.0 0.0 0.0 0.01 0.009999999999999998 0.0 0.0 0.0 0.01 0.0 0.0 0.0 0.009999999999999998 0.01 0.0 0.0 0.0 0.01 0.0 0.0 0.0 0.01 0.009999999999999998 0.0 0.0 0.0 0.01 0.0 0.0 0.0 0.009999999999999998 0.009999999999999998 0.0 0.0 0.0 0.01 0.0 0.0 0.0 0.009999999999999998 0.01 0.0 0.0 0.0 0.01 0.0 0.0 0.0 0.01 0.01 0.0 0.0 0.0 0.01 0.0 0.0 0.0 0.01 0.009999999999999998 0.0 0.0 0.0 0.01 0.0 0.0 0.0 0.009999999999999998 0.01 0.0 0.0 0.0 0.01 0.0 0.0 0.0 0.01 0.009999999999999998 0.0 0.0 0.0 0.01 0.0 0.0 0.0 0.009999999999999998 0.009999999999999998 0.0 0.0 0.0 0.01 0.0 0.0 0.0 0.009999999999999998 0.009999999500000037 0.0 -5.2629685989277915e-19 0.0 0.01 0.0 -5.2629685989277915e-19 0.0 0.01 0.009999999500000037 0.0 6.673262298640478e-13 0.0 0.01 0.0 6.673262298640478e-13 0.0 0.01 0.009999999500000037 0.0 -2.2986539995317027e-13 0.0 0.01 0.0 -2.2986539995317027e-13 0.0 0.01 0.009999999500000037 0.0 1.4937444996956841e-13 0.0 0.01 0.0 1.4937444996956841e-13 0.0 0.01 0.009999999500000037 0.0 5.774539098823572e-14 0.0 0.01 0.0 5.774539098823572e-14 0.0 0.01 0.009999999500000037 0.0 1.6697932996598183e-12 0.0 0.01 0.0 1.6697932996598183e-12 0.0 0.01 0.009999999500000037 0.0 6.89177559859596e-12 0.0 0.01 0.0 6.89177559859596e-12 0.0 0.01 0.009999999500000037 0.0 4.687146899045102e-12 0.0 0.01 0.0 4.687146899045102e-12 0.0 0.01 0.009999999500000037 0.0 -3.06287179937601e-19 0.0 0.01 0.0 -3.06287179937601e-19 0.0 0.01 0.009999999500000037 0.0 1.862380999620583e-13 0.0 0.01 0.0 1.862380999620583e-13 0.0 0.01 0.009999999500000037 0.0 -2.6448852994611655e-13 0.0 0.01 0.0 -2.6448852994611655e-13 0.0 0.01 0.009999999500000037 0.0 1.6885184996560035e-13 0.0 0.01 0.0 1.6885184996560035e-13 0.0 0.01 0.009999999500000037 0.0 -1.7070479996522284e-12 0.0 0.01 0.0 -1.7070479996522284e-12 0.0 0.01 0.009999999500000037 0.0 2.385848699513939e-12 0.0 0.01 0.0 2.385848699513939e-12 0.0 0.01 0.009999999500000037 0.0 5.887191998800621e-13 0.0 0.01 0.0 5.887191998800621e-13 0.0 0.01 0.009999999500000037 0.0 -2.1449196995630224e-13 0.0 0.01 0.0 -2.1449196995630224e-13 0.0 0.01 0.00999999900000015 0.0 -2.107538199570638e-18 0.0 0.01 0.0 -2.107538199570638e-18 0.0 0.01 0.00999999900000015 0.0 1.1400614497677388e-13 0.0 0.01 0.0 1.1400614497677388e-13 0.0 0.01 0.00999999900000015 0.0 -6.575749998660345e-13 0.0 0.01 0.0 -6.575749998660345e-13 0.0 0.01 0.00999999900000015 0.0 3.6110074992643416e-13 0.0 0.01 0.0 3.6110074992643416e-13 0.0 0.01 0.00999999900000015 0.0 -2.2522111495411644e-12 0.0 0.01 0.0 -2.2522111495411644e-12 0.0 0.01 0.00999999900000015 0.0 1.1253187997707425e-12 0.0 0.01 0.0 1.1253187997707425e-12 0.0 0.01 0.00999999900000015 0.0 2.0931282995735733e-12 0.0 0.01 0.0 2.0931282995735733e-12 0.0 0.01 0.00999999900000015 0.0 8.636821498240449e-12 0.0 0.01 0.0 8.636821498240449e-12 0.0 0.01 0.0099999980000006 0.0 1.5920604746756545e-19 0.0 0.01 0.0 1.5920604746756545e-19 0.0 0.01 0.0099999980000006 0.0 4.238438999136517e-13 0.0 0.01 0.0 4.238438999136517e-13 0.0 0.01 0.0099999980000006 0.0 -6.939592498586219e-13 0.0 0.01 0.0 -6.939592498586219e-13 0.0 0.01 0.0099999980000006 0.0 4.0838822491680037e-13 0.0 0.01 0.0 4.0838822491680037e-13 0.0 0.01 0.0099999980000006 0.0 -1.5777636746785673e-12 0.0 0.01 0.0 -1.5777636746785673e-12 0.0 0.01 0.0099999980000006 0.0 -5.399118498900055e-13 0.0 0.01 0.0 -5.399118498900055e-13 0.0 0.01 0.0099999980000006 0.0 4.847795249012375e-12 0.0 0.01 0.0 4.847795249012375e-12 0.0 0.01 0.0099999980000006 0.0 4.9101319989996754e-12 0.0 0.01 0.0 4.9101319989996754e-12 0.0 0.01 0.009999997500000938 0.0 -3.810796800609998e-19 0.0 0.01 0.0 -3.810796800609998e-19 0.0 0.01 0.009999997500000938 0.0 2.3288386003727796e-13 0.0 0.01 0.0 2.3288386003727796e-13 0.0 0.01 0.009999997500000938 0.0 -2.92588920046835e-13 0.0 0.01 0.0 -2.92588920046835e-13 0.0 0.01 0.009999997500000938 0.0 1.7466098602795819e-13 0.0 0.01 0.0 1.7466098602795819e-13 0.0 0.01 0.009999997500000938 0.0 -6.341083201015024e-13 0.0 0.01 0.0 -6.341083201015024e-13 0.0 0.01 0.009999997500000938 0.0 -3.261330400522045e-12 0.0 0.01 0.0 -3.261330400522045e-12 0.0 0.01 0.009999997500000938 0.0 2.3256414003722682e-12 0.0 0.01 0.0 2.3256414003722682e-12 0.0 0.01 0.009999997500000938 0.0 3.298465200527989e-12 0.0 0.01 0.0 3.298465200527989e-12 0.0 0.01 0.0099999960000024 0.0 -5.000585000118248e-18 0.0 0.01 0.0 -5.000585000118248e-18 0.0 0.01 0.0099999960000024 0.0 4.514557250106755e-13 0.0 0.01 0.0 4.514557250106755e-13 0.0 0.01 0.0099999960000024 0.0 3.2157216250760416e-13 0.0 0.01 0.0 3.2157216250760416e-13 0.0 0.01 0.0099999960000024 0.0 -2.2539433750532986e-13 0.0 0.01 0.0 -2.2539433750532986e-13 0.0 0.01 0.0099999960000024 0.0 8.123157125192088e-13 0.0 0.01 0.0 8.123157125192088e-13 0.0 0.01 0.0099999960000024 0.0 -3.066340375072509e-12 0.0 0.01 0.0 -3.066340375072509e-12 0.0 0.01 0.0099999960000024 0.0 3.348083250079172e-12 0.0 0.01 0.0 3.348083250079172e-12 0.0 0.01 0.0099999960000024 0.0 5.456777625129035e-12 0.0 0.01 0.0 5.456777625129035e-12 0.0 0.01 0.0099999940000054 0.0 -6.002706667263565e-19 0.0 0.01 0.0 -6.002706667263565e-19 0.0 0.01 0.0099999940000054 0.0 3.084065000306674e-13 0.0 0.01 0.0 3.084065000306674e-13 0.0 0.01 0.0099999940000054 0.0 -5.414108583871703e-13 0.0 0.01 0.0 -5.414108583871703e-13 0.0 0.01 0.0099999940000054 0.0 6.448247250641202e-13 0.0 0.01 0.0 6.448247250641202e-13 0.0 0.01 0.0099999940000054 0.0 -1.788180250177813e-12 0.0 0.01 0.0 -1.788180250177813e-12 0.0 0.01 0.0099999940000054 0.0 -2.544906659468451e-18 0.0 0.01 0.0 -2.544906659468451e-18 0.0 0.01 0.0099999940000054 0.0 -1.7968554168453424e-13 0.0 0.01 0.0 -1.7968554168453424e-13 0.0 0.01 0.0099999940000054 0.0 -4.201618769033886e-18 0.0 0.01 0.0 -4.201618769033886e-18 0.0 0.01 0.00999999100001215 0.0 8.30369166665324e-19 0.0 0.01 0.0 8.30369166665324e-19 0.0 0.01 0.00999999100001215 0.0 1.8347221666637e-13 0.0 0.01 0.0 1.8347221666637e-13 0.0 0.01 0.00999999100001215 0.0 -3.2613991111058377e-13 0.0 0.01 0.0 -3.2613991111058377e-13 0.0 0.01 0.00999999100001215 0.0 -7.454174444432393e-13 0.0 0.01 0.0 -7.454174444432393e-13 0.0 0.01 0.00999999100001215 0.0 4.339614444437428e-14 0.0 0.01 0.0 4.339614444437428e-14 0.0 0.01 0.00999999100001215 0.0 -1.861658388885879e-12 0.0 0.01 0.0 -1.861658388885879e-12 0.0 0.01 0.00999999100001215 0.0 1.92284388888578e-12 0.0 0.01 0.0 1.92284388888578e-12 0.0 0.01 0.00999999100001215 0.0 1.1254299444426246e-12 0.0 0.01 0.0 1.1254299444426246e-12 0.0 0.01 0.009999987500023438 0.0 7.5304860001095835e-19 0.0 0.01 0.0 7.5304860001095835e-19 0.0 0.01 0.009999987500023438 0.0 2.7114346000394567e-13 0.0 0.01 0.0 2.7114346000394567e-13 0.0 0.01 0.009999987500023438 0.0 7.571797600110184e-15 0.0 0.01 0.0 7.571797600110184e-15 0.0 0.01 0.009999987500023438 0.0 -7.768966800113055e-13 0.0 0.01 0.0 -7.768966800113055e-13 0.0 0.01 0.009999987500023438 0.0 1.3551528400197202e-14 0.0 0.01 0.0 1.3551528400197202e-14 0.0 0.01 0.009999987500023438 0.0 -7.18017553671751e-18 0.0 0.01 0.0 -7.18017553671751e-18 0.0 0.01 0.009999987500023438 0.0 -6.265332252664943e-18 0.0 0.01 0.0 -6.265332252664943e-18 0.0 0.01 0.009999987500023438 0.0 -1.5593390932846267e-17 0.0 0.01 0.0 -1.5593390932846267e-17 0.0 0.010000000500000038 0.009999981500051337 0.0 -4.127172432403214e-18 0.0 0.01 0.0 -4.127172432403214e-18 0.0 0.01 0.009999981500051337 0.0 1.4100374594494773e-13 0.0 0.01 0.0 1.4100374594494773e-13 0.0 0.01 0.009999981500051337 0.0 -6.496952702656708e-13 0.0 0.01 0.0 -6.496952702656708e-13 0.0 0.01 0.009999981500051337 0.0 -5.633805135095251e-13 0.0 0.01 0.0 -5.633805135095251e-13 0.0 0.01 0.009999981500051337 0.0 -5.246653513476372e-13 0.0 0.01 0.0 -5.246653513476372e-13 0.0 0.01 0.009999981500051337 0.0 -6.540526340980125e-18 0.0 0.01 0.0 -6.540526340980125e-18 0.0 0.010000000500000038 0.009999981500051337 0.0 -8.0323683130405e-18 0.0 0.01 0.0 -8.0323683130405e-18 0.0 0.010000000500000038 0.009999981500051337 0.0 -6.671317487854626e-18 0.0 0.01 0.0 -6.671317487854626e-18 0.0 0.010000000500000038 0.009999973000109349 0.0 -7.029039259247894e-19 0.0 0.01 0.0 -7.029039259247894e-19 0.0 0.01 0.009999973000109349 0.0 -2.9991157407358915e-13 0.0 0.01 0.0 -2.9991157407358915e-13 0.0 0.01 0.009999973000109349 0.0 -4.3907609259188267e-13 0.0 0.01 0.0 -4.3907609259188267e-13 0.0 0.01 0.009999973000109349 0.0 6.522981235205462e-13 0.0 0.01 0.0 6.522981235205462e-13 0.0 0.010000000500000038 0.009999973000109349 0.0 -6.6139848761188e-13 0.0 0.01 0.0 -6.6139848761188e-13 0.0 0.010000000500000038 0.009999973000109349 0.0 -7.259014145941539e-18 0.0 0.01 0.0 -7.259014145941539e-18 0.0 0.010000000500000038 0.009999973000109349 0.0 -1.6236768458998317e-17 0.0 0.01 0.0 -1.6236768458998317e-17 0.0 0.010000000500000038 0.009999973000109349 0.0 -2.531492387312276e-17 0.0 0.01 0.0 -2.531492387312276e-17 0.0 0.010000000500000038 0.009999961500222337 0.0 -9.990418576505525e-19 0.0 0.01 0.0 -9.990418576505525e-19 0.0 0.010000000500000038 0.009999961500222337 0.0 -2.990423482872923e-13 0.0 0.01 0.0 -2.990423482872923e-13 0.0 0.010000000500000038 0.009999961500222337 0.0 3.76351031640382e-13 0.0 0.01 0.0 3.76351031640382e-13 0.0 0.010000000500000038 0.009999961500222337 0.0 3.389393502823879e-13 0.0 0.01 0.0 3.389393502823879e-13 0.0 0.010000000500000038 0.009999961500222337 0.0 4.9538706129823005e-18 0.0 0.01 0.0 4.9538706129823005e-18 0.0 0.010000000500000038 0.009999961500222337 0.0 1.4130381475836856e-13 0.0 0.01 0.0 1.4130381475836856e-13 0.0 0.010000000500000038 0.009999962000216599 0.0 -7.984566686045577e-18 0.0 0.01 0.0 -7.984566686045577e-18 0.0 0.01000000100000015 0.009999962000216599 0.0 -2.6261940519160605e-17 0.0 0.01 0.0 -2.6261940519160605e-17 0.0 0.010000001450000314 0.009999946500429334 0.0 2.034713990621301e-18 0.0 0.01 0.0 2.034713990621301e-18 0.0 0.010000000500000038 0.009999946500429334 0.0 -3.146810990668799e-13 0.0 0.01 0.0 -3.146810990668799e-13 0.0 0.010000000500000038 0.009999946500429334 0.0 -1.843455832910554e-13 0.0 0.01 0.0 -1.843455832910554e-13 0.0 0.010000000500000038 0.009999946500429334 0.0 -1.9146162068388282e-13 0.0 0.01 0.0 -1.9146162068388282e-13 0.0 0.010000000500000038 0.009999946500429334 0.0 -2.288534406176031e-18 0.0 0.01 0.0 -2.288534406176031e-18 0.0 0.010000000500000038 0.009999946500429334 0.0 4.549374830687335e-18 0.0 0.01 0.0 4.549374830687335e-18 0.0 0.010000001450000314 0.009999946500429334 0.0 -1.5206427275643183e-17 0.0 0.01 0.0 -1.5206427275643183e-17 0.0 0.010000001450000314 0.009999947000421346 0.0 -7.727893323752986e-17 0.0 0.01 0.0 -7.727893323752986e-17 0.0 0.01000000195000057 0.009999926000821389 0.0 1.0214873665020316e-18 0.0 0.01 0.0 1.0214873665020316e-18 0.0 0.010000000500000038 0.009999926000821389 0.0 -1.3934816132865395e-13 0.0 0.01 0.0 -1.3934816132865395e-13 0.0 0.010000000500000038 0.009999926000821389 0.0 -5.197038702770214e-18 0.0 0.01 0.0 -5.197038702770214e-18 0.0 0.010000000500000038 0.009999926000821389 0.0 -3.590321378320322e-18 0.0 0.01 0.0 -3.590321378320322e-18 0.0 0.010000001450000314 0.009999926000821389 0.0 -8.950812092964072e-18 0.0 0.01 0.0 -8.950812092964072e-18 0.0 0.010000001450000314 0.009999926000821389 0.0 -2.470855310945207e-17 0.0 0.01 0.0 -2.470855310945207e-17 0.0 0.010000001450000314 0.009999926000821389 0.0 -7.798948213011417e-17 0.0 0.01 0.0 -7.798948213011417e-17 0.0 0.01000000195000057 0.00999992700079934 0.0 -1.5485320787803354e-16 0.0 0.01 0.0 -1.5485320787803354e-16 0.0 0.010000002950001304 0.009999900001499975 0.0 4.698433518482002e-18 0.0 0.01 0.0 4.698433518482002e-18 0.0 0.010000000500000038 0.009999900001499975 0.0 2.8541974652420692e-18 0.0 0.01 0.0 2.8541974652420692e-18 0.0 0.01000000100000015 0.009999900001499975 0.0 -2.1383216506161226e-14 0.0 0.01 0.0 -2.1383216506161226e-14 0.0 0.010000001450000314 0.009999900001499975 0.0 -1.640375053032456e-13 0.0 0.01 0.0 -1.640375053032456e-13 0.0 0.010000001450000314 0.009999900001499975 0.0 -1.5321234163286985e-17 0.0 0.01 0.0 -1.5321234163286985e-17 0.0 0.01000000195000057 0.009999900001499975 0.0 -7.372660619789508e-17 0.0 0.01 0.0 -7.372660619789508e-17 0.0 0.0100000024500009 0.009999900001499975 0.0 -2.1881037967264248e-16 0.0 0.01 0.0 -2.1881037967264248e-16 0.0 0.010000002950001304 0.009999900001499975 0.0 -3.3833100834332656e-16 0.0 0.01 0.0 -3.3833100834332656e-16 0.0 0.010000004400002904 0.009999869002574095 0.0 1.148075515666676e-18 0.0 0.01 0.0 1.148075515666676e-18 0.0 0.010000001450000314 0.009999869002574095 0.0 -2.374699453746974e-18 0.0 0.01 0.0 -2.374699453746974e-18 0.0 0.010000001450000314 0.009999869002574095 0.0 -4.741211566586184e-18 0.0 0.01 0.0 -4.741211566586184e-18 0.0 0.010000001450000314 0.009999869002574095 0.0 -1.0846025548418956e-17 0.0 0.01 0.0 -1.0846025548418956e-17 0.0 0.01000000195000057 0.009999869002574095 0.0 -5.73274595859807e-17 0.0 0.01 0.0 -5.73274595859807e-17 0.0 0.0100000024500009 0.00999986850259378 0.0 -2.2019278401024504e-16 0.0 0.01 0.0 -2.2019278401024504e-16 0.0 0.010000003400001733 0.009999869002574095 0.0 -4.443450402376013e-16 0.0 0.01 0.0 -4.443450402376013e-16 0.0 0.010000004900003601 0.009999869002574095 0.0 -9.483412184435874e-16 0.0 0.01 0.0 -9.483412184435874e-16 0.0 0.010000006350006049 0.00999983650400973 0.0 -3.44483984477032e-18 0.0 0.01 0.0 -3.44483984477032e-18 0.0 0.010000001450000314 0.00999983650400973 0.0 2.3864142713641678e-18 0.0 0.01 0.0 2.3864142713641678e-18 0.0 0.01000000195000057 0.00999983650400973 0.0 -5.051408092014566e-18 0.0 0.01 0.0 -5.051408092014566e-18 0.0 0.01000000195000057 0.00999983650400973 0.0 -3.291518035358307e-17 0.0 0.01 0.0 -3.291518035358307e-17 0.0 0.0100000024500009 0.00999983650400973 0.0 -1.5187554271896178e-16 0.0 0.01 0.0 -1.5187554271896178e-16 0.0 0.010000003400001733 0.00999983650400973 0.0 -4.615188366552959e-16 0.0 0.01 0.0 -4.615188366552959e-16 0.0 0.010000005350004294 0.00999983650400973 0.0 -1.0568210174341119e-15 0.0 0.01 0.0 -1.0568210174341119e-15 0.0 0.010000006850007037 0.009999836004034292 0.0 -1.9969617606900155e-15 0.0 0.01 0.0 -1.9969617606900155e-15 0.0 0.010000009300012975 0.009999806505616157 0.0 9.17708083791588e-20 0.0 0.01 0.0 9.17708083791588e-20 0.0 0.01000000195000057 0.009999806505616157 0.0 -8.581552453686307e-14 0.0 0.01 0.0 -8.581552453686307e-14 0.0 0.01000000195000057 0.009999806005645217 0.0 -1.4123286204126477e-17 0.0 0.01 0.0 -1.4123286204126477e-17 0.0 0.0100000024500009 0.009999806005645217 0.0 -7.552460575955793e-17 0.0 0.01 0.0 -7.552460575955793e-17 0.0 0.010000003400001733 0.009999806005645217 0.0 -2.877679724937604e-16 0.0 0.01 0.0 -2.877679724937604e-16 0.0 0.010000004900003601 0.009999805005703565 0.0 -8.89419448460199e-16 0.0 0.01 0.0 -8.89419448460199e-16 0.0 0.010000006850007037 0.009999804505732852 0.0 -1.9990013181611977e-15 0.0 0.01 0.0 -1.9990013181611977e-15 0.0 0.010000009300012975 0.009999804005762215 0.0 -3.777990063127634e-15 0.0 0.01 0.0 -3.777990063127634e-15 0.0 0.010000013650027952 0.00999978550690129 0.0 -2.603114719348838e-18 0.0 0.01 0.0 -2.603114719348838e-18 0.0 0.0100000024500009 0.00999978550690129 0.0 -4.071020161523115e-18 0.0 0.01 0.0 -4.071020161523115e-18 0.0 0.0100000024500009 0.00999978550690129 0.0 -3.345034579918287e-17 0.0 0.01 0.0 -3.345034579918287e-17 0.0 0.010000003400001733 0.00999978550690129 0.0 -1.363576274812501e-16 0.0 0.01 0.0 -1.363576274812501e-16 0.0 0.010000003900002281 0.009999784506965788 0.0 -4.863871608899425e-16 0.0 0.01 0.0 -4.863871608899425e-16 0.0 0.010000006350006049 0.009999783507030584 0.0 -1.3858846229728384e-15 0.0 0.01 0.0 -1.3858846229728384e-15 0.0 0.010000008800011615 0.009999783007063095 0.0 -2.995143389720546e-15 0.0 0.01 0.0 -2.995143389720546e-15 0.0 0.010000012200022328 0.009999782007128342 0.0 -5.173094123027796e-15 0.0 0.01 0.0 -5.173094123001947e-15 0.0 0.010000019050054437 0.00999978250709568 0.0 2.7534102021429465e-18 0.0 0.01 0.0 2.7534102021429465e-18 0.0 0.010000002950001304 0.00999978250709568 0.0 -7.649127832882534e-18 0.0 0.01 0.0 -7.649127832882534e-18 0.0 0.010000002950001304 0.00999978250709568 0.0 -4.1268821252838315e-17 0.0 0.01 0.0 -4.1268821252838315e-17 0.0 0.010000003900002281 0.00999978200712834 0.0 -1.8331397276963413e-16 0.0 0.01 0.0 -1.8331397276963413e-16 0.0 0.010000005350004294 0.009999781507161076 0.0 -5.916848998912982e-16 0.0 0.01 0.0 -5.916848998912982e-16 0.0 0.010000007800009127 0.009999781007193887 0.0 -1.6169558118917525e-15 0.0 0.01 0.0 -1.6169558118917525e-15 0.0 0.010000011250018984 0.009999780507226776 0.0 -3.5987894016157405e-15 0.0 0.01 0.0 -3.5987894016157405e-15 0.0 0.010000016100038884 0.009999778507359067 0.0 -5.532203389793759e-15 0.0 0.01 0.0 -5.53220338976791e-15 0.0 0.010000027350112206 0.009999805505674354 0.0 -1.995812920995127e-18 0.0 0.01 0.0 -1.995812920995127e-18 0.0 0.010000002950001304 0.009999805505674354 0.0 -1.0680383648979003e-17 0.0 0.01 0.0 -1.0680383648979003e-17 0.0 0.010000003900002281 0.009999805505674354 0.0 -3.9121034468241824e-17 0.0 0.01 0.0 -3.9121034468241824e-17 0.0 0.010000004400002904 0.009999805005703565 0.0 -1.7562325032277318e-16 0.0 0.01 0.0 -1.7562325032277318e-16 0.0 0.010000006350006049 0.00999980450573285 0.0 -5.675821475049837e-16 0.0 0.01 0.0 -5.675821475049837e-16 0.0 0.010000009300012973 0.009999803505791648 0.0 -1.5418701065084306e-15 0.0 0.01 0.0 -1.5418701065084306e-15 0.0 0.010000013200026137 0.009999803005821161 0.0 -3.5443045861032413e-15 0.0 0.01 0.0 -3.5443045861032413e-15 0.0 0.010000021950072274 0.009999801505910143 0.0 -4.648133279496839e-15 0.0 0.01 0.0 -4.648133279470989e-15 0.0 0.010000039050228738 0.009999859502960968 0.0 -1.572473120198306e-18 0.0 0.01 0.0 -1.572473120198306e-18 0.0 0.010000003900002281 0.009999859502960968 0.0 -3.493329583885906e-18 0.0 0.01 0.0 -3.493329583885906e-18 0.0 0.010000004400002904 0.009999859502960968 0.0 -1.7674670498484457e-17 0.0 0.01 0.0 -1.7674670498484457e-17 0.0 0.010000004900003601 0.009999859502960968 0.0 -1.1078332986722681e-16 0.0 0.01 0.0 -1.1078332986722681e-16 0.0 0.010000007800009127 0.009999858503003266 0.0 -4.2352831358670787e-16 0.0 0.01 0.0 -4.2352831358670787e-16 0.0 0.010000010750017335 0.009999858003024527 0.0 -1.339023263127423e-15 0.0 0.01 0.0 -1.339023263127423e-15 0.0 0.010000016600041335 0.009999856503088767 0.0 -3.1028889652340397e-15 0.0 0.01 0.0 -3.1028889652340397e-15 0.0 0.010000028800124421 0.009999854503175462 0.0 -2.8210525162947147e-15 0.0 0.01 0.0 -2.8210525162947147e-15 0.0 0.010000054200440651 0.009999942000504594 0.0 -2.360848715063367e-17 0.0 0.01 0.0 -2.360848715063367e-17 0.0 0.010000004400002904 0.009999942000504594 0.0 -3.1034431924484413e-13 0.0 0.01 0.0 -3.1034431924484413e-13 0.0 0.010000004400002904 0.009999942000504594 0.0 -8.931095636814798e-18 0.0 0.01 0.0 -8.931095636814798e-18 0.0 0.010000005850005133 0.009999941500513332 0.0 -5.097235500228739e-17 0.0 0.01 0.0 -5.097235500228739e-17 0.0 0.010000008800011615 0.009999941000522145 0.0 -2.483128768477747e-16 0.0 0.01 0.0 -2.483128768477747e-16 0.0 0.010000012200022326 0.009999940500531034 0.0 -9.514700552960055e-16 0.0 0.01 0.0 -9.514700552960055e-16 0.0 0.010000021000066152 0.009999939000558148 0.0 -2.5395487958712537e-15 0.0 0.01 0.0 -2.5395487958712537e-15 0.0 0.010000037100206466 0.009999938000576594 0.0 -7.869768889052084e-16 0.0 0.01 0.0 -7.869768889052084e-16 0.0 0.010000070800751906 0.010000043950289743 0.0 6.979458823101246e-17 0.0 0.01 0.0 6.979458823101246e-17 0.0 0.010000004400002904 0.010000043950289743 0.0 1.5745023079852648e-13 0.0 0.01 0.0 1.5745023079852648e-13 0.0 0.010000004900003601 0.010000043950289743 0.0 1.130567864949199e-17 0.0 0.01 0.0 1.130567864949199e-17 0.0 0.010000006850007037 0.010000043950289743 0.0 -4.360839485731649e-13 0.0 0.01 0.0 -4.360839485731649e-13 0.0 0.01000000975001426 0.010000043450283188 0.0 -1.2609125443111711e-16 0.0 0.01 0.0 -1.2609125443111711e-16 0.0 0.010000014150030033 0.01000004345028319 0.0 -7.358519943420316e-16 0.0 0.01 0.0 -7.358519942903328e-16 0.0 0.010000024900093003 0.010000042950276707 0.0 -2.212239969241895e-15 0.0 0.01 0.0 -2.212239969241895e-15 0.0 0.010000045400309177 0.010000042000264601 0.0 -6.575685043759562e-17 0.0 0.01 0.0 -6.575685043759562e-17 0.0 0.010000090351224488 0.010000148453305692 0.0 1.0471480226828249e-17 0.0 0.01 0.0 1.0471480226828249e-17 0.0 0.010000004900003601 0.010000148453305692 0.0 2.993114951281436e-18 0.0 0.01 0.0 2.993114951281436e-18 0.0 0.010000005350004294 0.010000148453305692 0.0 5.5236040453318534e-18 0.0 0.01 0.0 5.5236040453318534e-18 0.0 0.010000007300007994 0.010000148953327997 0.0 2.6512171099535742e-17 0.0 0.01 0.0 2.6512171099535742e-17 0.0 0.010000010750017335 0.010000148953327997 0.0 -6.011503780664481e-17 0.0 0.01 0.0 -6.011503780664481e-17 0.0 0.010000016600041335 0.010000148953327997 0.0 -5.619553909651266e-16 0.0 0.01 0.0 -5.619553909651266e-16 0.0 0.010000028300120135 0.010000148953327997 0.0 -1.8844236228716266e-15 0.0 0.01 0.0 -1.8844236229233253e-15 0.0 0.01000005420044065 0.010000149403348138 0.0 -1.3703893898991322e-15 0.0 0.01 0.0 -1.3703893898991322e-15 0.0 0.010000107901746392 0.010000235858344112 0.0 -6.5223948127020404e-18 0.0 0.01 0.0 -6.5223948127020404e-18 0.0 0.010000005350004294 0.010000235858344112 0.0 5.563349117085008e-18 0.0 0.01 0.0 5.563349117085008e-18 0.0 0.010000006350006049 0.010000235858344112 0.0 1.2094308517977843e-17 0.0 0.01 0.0 1.2094308517977843e-17 0.0 0.010000007800009127 0.010000236358379528 0.0 2.4308529961694554e-17 0.0 0.01 0.0 2.4308529961694554e-17 0.0 0.010000011700020532 0.010000236358379528 0.0 -5.6393046191316e-17 0.0 0.01 0.0 -5.6393046191316e-17 0.0 0.010000018550051615 0.010000237308447027 0.0 -4.264797416494993e-16 0.0 0.01 0.0 -4.264797416494993e-16 0.0 0.010000031750151211 0.010000237808482661 0.0 -1.5577317341421365e-15 0.0 0.01 0.0 -1.5577317341421365e-15 0.0 0.010000061500567344 0.010000238308518376 0.0 -1.9833446328219073e-15 0.0 0.01 0.0 -1.9833446328219073e-15 0.0 0.010000124502325089 0.010000289562576488 0.0 3.200263675546954e-18 0.0 0.01 0.0 3.200263675546954e-18 0.0 0.010000005350004294 0.010000289562576488 0.0 -4.3736509057885265e-14 0.0 0.01 0.0 -4.3736509057885265e-14 0.0 0.010000006350006049 0.01000029006261996 0.0 -3.1638426064049407e-14 0.0 0.01 0.0 -3.1638426064049407e-14 0.0 0.010000008800011615 0.01000029006261996 0.0 1.4895633483931745e-14 0.0 0.01 0.0 1.4895633483931745e-14 0.0 0.010000012700024194 0.010000290562663508 0.0 -5.439802532954173e-17 0.0 0.01 0.0 -5.439802532954173e-17 0.0 0.01000001955005733 0.010000291512746456 0.0 -3.212691906108678e-16 0.0 0.01 0.0 -3.212691906108678e-16 0.0 0.010000034200175447 0.010000292012790223 0.0 -1.0760746109940706e-15 0.0 0.01 0.0 -1.0760746109940706e-15 0.0 0.010000067400681422 0.01000029346291757 0.0 -2.141308711444717e-15 0.0 0.01 0.0 -2.141308711444717e-15 0.0 0.010000136702803098 0.010000305213972766 0.0 -2.759976560300344e-19 0.0 0.01 0.0 -2.759976560300344e-19 0.0 0.010000005850005133 0.010000305213972766 0.0 -5.884477132929008e-14 0.0 0.01 0.0 -5.884477132929008e-14 0.0 0.010000006850007037 0.010000305213972766 0.0 3.536326861620155e-18 0.0 0.01 0.0 3.536326861620155e-18 0.0 0.010000008800011615 0.010000305213972766 0.0 -8.683480224296959e-18 0.0 0.01 0.0 -8.683480224296959e-18 0.0 0.010000013200026137 0.010000305664014003 0.0 -4.789008199962835e-17 0.0 0.01 0.0 -4.789008199962835e-17 0.0 0.01000002100006615 0.010000306664105856 0.0 -2.0178573582626834e-16 0.0 0.01 0.0 -2.0178573582626834e-16 0.0 0.010000036150196024 0.01000030761419339 0.0 -7.598959885383759e-16 0.0 0.01 0.0 -7.598959885383759e-16 0.0 0.010000071300762562 0.010000309114332162 0.0 -1.6604626259367129e-15 0.0 0.01 0.0 -1.6604626259367129e-15 0.0 0.010000145503175616 0.010000291012702767 0.0 5.010721256628753e-19 0.0 0.01 0.0 5.010721256628753e-19 0.0 0.010000006350006049 0.010000291012702767 0.0 -2.7504166297649662e-14 0.0 0.01 0.0 -2.7504166297649662e-14 0.0 0.010000006850007037 0.010000291012702767 0.0 3.963945806586855e-18 0.0 0.01 0.0 3.963945806586855e-18 0.0 0.010000009300012973 0.010000291012702767 0.0 -2.6310764339822905e-18 0.0 0.01 0.0 -2.6310764339822905e-18 0.0 0.010000013650027948 0.010000291512746456 0.0 -2.1366079639158955e-17 0.0 0.01 0.0 -2.1366079639158955e-17 0.0 0.010000021500069338 0.010000292012790223 0.0 -1.0718717433325613e-16 0.0 0.01 0.0 -1.0718717433325613e-16 0.0 0.010000037600212066 0.010000293462917568 0.0 -3.525931407598465e-16 0.0 0.01 0.0 -3.525931407598465e-16 0.0 0.01000007375081587 0.010000294463005759 0.0 -8.408228054800365e-16 0.0 0.01 0.0 -8.408228054800365e-16 0.0 0.01000015040339311 0.010000259760120948 0.0 -5.9121983082999206e-18 0.0 0.01 0.0 -5.9121983082999206e-18 0.0 0.010000006350006049 0.010000259760120948 0.0 -5.079776117045707e-14 0.0 0.01 0.0 -5.079776117045707e-14 0.0 0.010000006850007037 0.01000026026015995 0.0 -6.3336610008732e-14 0.0 0.01 0.0 -6.3336610008732e-14 0.0 0.010000009300012973 0.01000026026015995 0.0 2.891355777574212e-14 0.0 0.01 0.0 2.891355777574212e-14 0.0 0.010000014150030033 0.010000260760199027 0.0 -8.573907577039905e-18 0.0 0.01 0.0 -8.573907577039905e-18 0.0 0.01000002195007227 0.01000026126023818 0.0 -2.233955378441777e-17 0.0 0.01 0.0 -2.233955378441777e-17 0.0 0.010000039050228738 0.010000262710352148 0.0 -6.785365914934746e-17 0.0 0.01 0.0 -6.785365914934746e-17 0.0 0.010000075200848266 0.010000263660427156 0.0 -2.3217839088064335e-16 0.0 0.01 0.0 -2.3217839088064335e-16 0.0 0.010000153303525224 0.010000227557767144 0.0 -1.4573246821829675e-17 0.0 0.01 0.0 -1.4573246821829675e-17 0.0 0.010000006350006049 0.010000227557767144 0.0 2.4215299777352783e-15 0.0 0.01 0.0 2.4215299777352783e-15 0.0 0.010000006850007037 0.010000227557767144 0.0 -3.366081710069556e-16 0.0 0.01 0.0 -3.366081710069556e-16 0.0 0.010000009300012973 0.010000228057801316 0.0 -1.7943548531815965e-14 0.0 0.01 0.0 -1.7943548531815965e-14 0.0 0.010000014150030033 0.010000228057801316 0.0 4.444638091763086e-15 0.0 0.01 0.0 4.444638091763086e-15 0.0 0.01000002195007227 0.01000022900786645 0.0 -1.6865080335765515e-14 0.0 0.01 0.0 -1.6865080335765515e-14 0.0 0.010000039050228738 0.010000230007935302 0.0 3.337915209385133e-18 0.0 0.01 0.0 3.337915209385133e-18 0.0 0.010000075700859585 0.010000230457966386 0.0 3.534310406928665e-17 0.0 0.01 0.0 3.534310406928665e-17 0.0 0.010000153803548257 0.010000199705982213 0.0 -2.405151798794419e-17 0.0 0.01 0.0 -2.405151798794419e-17 0.0 0.010000006350006049 0.010000199705982213 0.0 -3.464643285901348e-14 0.0 0.01 0.0 -3.464643285901348e-14 0.0 0.010000006850007037 0.010000199705982213 0.0 5.077144690223248e-14 0.0 0.01 0.0 5.077144690223248e-14 0.0 0.010000009300012973 0.010000200206012206 0.0 8.004022344232265e-14 0.0 0.01 0.0 8.004022344232265e-14 0.0 0.010000014150030033 0.010000200206012206 0.0 -4.8360653998887925e-18 0.0 0.01 0.0 -4.8360653998887925e-18 0.0 0.01000002195007227 0.010000200706042276 0.0 -1.2528176104315102e-17 0.0 0.01 0.0 -1.2528176104315102e-17 0.0 0.010000038550222917 0.010000201656099612 0.0 -4.2180401138929917e-17 0.0 0.01 0.0 -4.2180401138929917e-17 0.0 0.010000075200848266 0.010000202656160261 0.0 7.546810298173326e-18 0.0 0.01 0.0 7.546810298173326e-18 0.0 0.010000151853458851 0.010000176754686223 0.0 -3.615338856774353e-18 0.0 0.01 0.0 -3.615338856774353e-18 0.0 0.010000006350006049 0.010000176754686223 0.0 -7.945887138055383e-14 0.0 0.01 0.0 -7.945887138055383e-14 0.0 0.010000006850007037 0.010000176754686223 0.0 -2.402618537811611e-14 0.0 0.01 0.0 -2.402618537811611e-14 0.0 0.010000009300012973 0.010000177254712774 0.0 5.884350447768405e-14 0.0 0.01 0.0 5.884350447768405e-14 0.0 0.010000014150030033 0.010000177254712774 0.0 -1.463118069208403e-17 0.0 0.01 0.0 -1.463118069208403e-17 0.0 0.010000021500069338 0.0100001777547394 0.0 -5.685984244813114e-17 0.0 0.01 0.0 -5.685984244813114e-17 0.0 0.010000037100206463 0.010000178704790197 0.0 -1.8417963557881075e-16 0.0 0.01 0.0 -1.8417963557881075e-16 0.0 0.010000073250804846 0.010000179704843959 0.0 -2.867508453324749e-16 0.0 0.01 0.0 -2.867508453324749e-16 0.0 0.01000014940334814 0.010000155753638804 0.0 -8.797103979722875e-18 0.0 0.01 0.0 -8.797103979722875e-18 0.0 0.010000006350006049 0.010000155753638804 0.0 -6.794122182511559e-14 0.0 0.01 0.0 -6.794122182511559e-14 0.0 0.010000006850007037 0.010000155753638804 0.0 2.9363252961737597e-18 0.0 0.01 0.0 2.9363252961737597e-18 0.0 0.010000009300012973 0.010000155753638804 0.0 2.9377011470396734e-18 0.0 0.01 0.0 2.9377011470396734e-18 0.0 0.010000013650027948 0.010000156253662204 0.0 -6.0694473713867005e-18 0.0 0.01 0.0 -6.0694473713867005e-18 0.0 0.01000002100006615 0.010000157253709232 0.0 -8.865866796695358e-17 0.0 0.01 0.0 -8.865866796695358e-17 0.0 0.010000036600200936 0.010000157703730491 0.0 -2.585648172691591e-16 0.0 0.01 0.0 -2.585648172691591e-16 0.0 0.010000070800751906 0.010000158703777955 0.0 -5.595331096519452e-16 0.0 0.01 0.0 -5.595331096519452e-16 0.0 0.010000144053112635 0.01000013185260772 0.0 -3.82470244149153e-19 0.0 0.01 0.0 -3.82470244149153e-19 0.0 0.010000005350004294 0.01000013185260772 0.0 -1.1463052652193754e-13 0.0 0.01 0.0 -1.1463052652193754e-13 0.0 0.010000006850007037 0.01000013185260772 0.0 3.4536971644487564e-18 0.0 0.01 0.0 3.4536971644487564e-18 0.0 0.010000008800011615 0.010000132802645435 0.0 1.775703937925744e-17 0.0 0.01 0.0 1.775703937925744e-17 0.0 0.010000013200026137 0.010000132802645435 0.0 2.466098972945671e-17 0.0 0.01 0.0 2.466098972945671e-17 0.0 0.01000002000006 0.010000133302665394 0.0 -5.296930340006848e-17 0.0 0.01 0.0 -5.296930340006848e-17 0.0 0.010000035150185329 0.010000134752723697 0.0 -3.164373914992946e-16 0.0 0.01 0.0 -3.164373914992946e-16 0.0 0.01000006785069055 0.010000135252743948 0.0 -5.790698516333753e-16 0.0 0.01 0.0 -5.790698516333753e-16 0.0 0.010000138202864953 0.010000103051592922 0.0 3.0592107973945904e-17 0.0 0.01 0.0 3.0592107973945904e-17 0.0 0.010000005350004294 0.010000103051592922 0.0 2.3880343876703725e-18 0.0 0.01 0.0 2.3880343876703725e-18 0.0 0.010000006350006049 0.010000103051592922 0.0 1.5894585671417967e-17 0.0 0.01 0.0 1.5894585671417967e-17 0.0 0.010000008800011615 0.010000103501606865 0.0 5.0766646055231275e-17 0.0 0.01 0.0 5.0766646055231275e-17 0.0 0.010000012200022326 0.010000103501606865 0.0 1.0047634200425602e-16 0.0 0.01 0.0 1.0047634200425602e-16 0.0 0.010000019050054435 0.010000104501638067 0.0 8.5074937219735e-17 0.0 0.01 0.0 8.5074937219735e-17 0.0 0.010000033200165338 0.01000010595168384 0.0 -2.143998550375787e-16 0.0 0.01 0.0 -2.143998550375787e-16 0.0 0.010000064450623077 0.010000106951715779 0.0 -6.303381868110931e-16 0.0 0.01 0.0 -6.303381867593943e-16 0.0 0.010000130352548727 0.010000070300741322 0.0 1.4479663635777997e-17 0.0 0.01 0.0 1.4479663635777997e-17 0.0 0.010000005350004294 0.010000070800751906 0.0 -8.071953147318823e-14 0.0 0.01 0.0 -8.071953147318823e-14 0.0 0.010000006350006049 0.010000070800751906 0.0 2.111043697527219e-17 0.0 0.01 0.0 2.111043697527219e-17 0.0 0.010000008300010334 0.010000070800751906 0.0 9.085201429701284e-17 0.0 0.01 0.0 9.085201429701284e-17 0.0 0.010000011700020532 0.010000071300762562 0.0 2.002682691151307e-16 0.0 0.01 0.0 2.002682691151307e-16 0.0 0.010000018550051615 0.010000071800773296 0.0 2.6013738107210694e-16 0.0 0.01 0.0 2.6013738107210694e-16 0.0 0.010000031250146485 0.010000072750793895 0.0 -4.7748371569047826e-17 0.0 0.01 0.0 -4.7748371569047826e-17 0.0 0.010000059550531935 0.010000074200825859 0.0 -4.714389110872442e-16 0.0 0.01 0.0 -4.714389110872442e-16 0.0 0.01000012160221803 0.010000036150196024 0.0 6.674338635805892e-19 0.0 0.01 0.0 6.674338635805892e-19 0.0 0.010000005350004294 0.010000036150196024 0.0 4.3278694900221346e-18 0.0 0.01 0.0 4.3278694900221346e-18 0.0 0.010000006350006049 0.010000036150196024 0.0 2.3616743420688607e-17 0.0 0.01 0.0 2.3616743420688607e-17 0.0 0.010000007300007994 0.010000036600200936 0.0 1.0564852829180525e-16 0.0 0.01 0.0 1.0564852829180525e-16 0.0 0.010000011250018984 0.010000036600200938 0.0 2.891240289138832e-16 0.0 0.01 0.0 2.891240289138832e-16 0.0 0.010000017100043864 0.010000038100217741 0.0 4.808093898890255e-16 0.0 0.01 0.0 4.808093898890255e-16 0.0 0.010000028800124416 0.01000003855022292 0.0 3.0534317949212165e-16 0.0 0.01 0.0 3.0534317949212165e-16 0.0 0.010000055650464546 0.010000040050240602 0.0 -3.301874058229496e-16 0.0 0.01 0.0 -3.301874058229496e-16 0.0 0.01000011180187492 0.010000005850005133 0.0 1.8530632771091939e-16 0.0 0.01 0.0 1.8530632771091939e-16 0.0 0.010000004900003601 0.010000005850005132 0.0 -2.6020852139652106e-18 0.0 0.01 0.0 -2.6020852139652106e-18 0.0 0.010000005850005132 0.010000005850005135 0.0 3.495005990191254e-17 0.0 0.01 0.0 3.495005990191254e-17 0.0 0.010000007300007996 0.010000005850005137 0.0 1.2594677359818174e-16 0.0 0.01 0.0 1.2594677359818174e-16 0.0 0.010000010750017338 0.01000000685000704 0.0 3.7269765806939817e-16 0.0 0.01 0.0 3.7269765806939817e-16 0.0 0.010000016100038884 0.010000006850007037 0.0 6.773895250339232e-16 0.0 0.01 0.0 6.773895250339232e-16 0.0 0.010000027350112205 0.010000007800009128 0.0 6.713466511348624e-16 0.0 0.01 0.0 6.713466511348624e-16 0.0 0.010000050800387102 0.010000009300012973 0.0 -1.0222881514443521e-16 0.0 0.01 0.0 -1.0222881514443521e-16 0.0 0.010000102551577501 0.009999980500057038 0.0 -1.424268218369301e-17 0.0 0.01 0.0 -1.424268218369301e-17 0.0 0.010000004900003601 0.009999980500057038 0.0 7.61022391798428e-18 0.0 0.01 0.0 7.61022391798428e-18 0.0 0.010000005850005133 0.009999980500057038 0.0 6.625841874486067e-17 0.0 0.01 0.0 6.625841874486067e-17 0.0 0.010000007300007994 0.009999981000054151 0.0 1.5063576229075464e-16 0.0 0.01 0.0 1.5063576229075464e-16 0.0 0.01000001025001576 0.009999981000054153 0.0 4.313674158921814e-16 0.0 0.01 0.0 4.313674158921814e-16 0.0 0.01000001515003443 0.009999981500051339 0.0 9.1506554712773e-16 0.0 0.01 0.0 9.150655470760312e-16 0.0 0.010000025400096776 0.009999982500045938 0.0 1.2084111200600268e-15 0.0 0.01 0.0 1.208411120008328e-15 0.0 0.01000004685032924 0.009999984500036039 0.0 5.195812596378279e-16 0.0 0.01 0.0 5.195812596378279e-16 0.0 0.010000093251304354 0.009999960500234035 0.0 1.4369073482364054e-17 0.0 0.01 0.0 1.4369073482364054e-17 0.0 0.010000004900003601 0.009999960500234035 0.0 2.902385450307514e-18 0.0 0.01 0.0 2.902385450307514e-18 0.0 0.010000005850005133 0.009999961000228147 0.0 1.451459648350369e-17 0.0 0.01 0.0 1.451459648350369e-17 0.0 0.010000007300007994 0.009999961500222337 0.0 1.4441432804063865e-16 0.0 0.01 0.0 1.4441432804063865e-16 0.0 0.01000001025001576 0.009999961500222337 0.0 4.516585941809945e-16 0.0 0.01 0.0 4.516585941809945e-16 0.0 0.010000014650032193 0.009999962000216602 0.0 1.1103961265922952e-15 0.0 0.01 0.0 1.1103961265922952e-15 0.0 0.010000023450082489 0.009999963000205352 0.0 1.985356121986954e-15 0.0 0.01 0.0 1.985356121986954e-15 0.0 0.01000004295027671 0.009999965000183752 0.0 1.5853165470057003e-15 0.0 0.01 0.0 1.5853165470057003e-15 0.0 0.010000085451095273 0.009999946500429334 0.0 7.480473271610978e-18 0.0 0.01 0.0 7.480473271610978e-18 0.0 0.010000004900003601 0.009999947000421346 0.0 -1.916343856848679e-13 0.0 0.01 0.0 -1.916343856848679e-13 0.0 0.010000005850005133 0.009999947000421346 0.0 -1.4604456887052973e-17 0.0 0.01 0.0 -1.4604456887052973e-17 0.0 0.010000007300007994 0.009999947000421346 0.0 9.720926935804392e-17 0.0 0.01 0.0 9.720926935804392e-17 0.0 0.01000000975001426 0.009999947000421346 0.0 4.572683809845693e-16 0.0 0.01 0.0 4.572683809845693e-16 0.0 0.010000013650027948 0.009999948000405599 0.0 1.5527745673931375e-15 0.0 0.01 0.0 1.5527745673414387e-15 0.0 0.010000022450075603 0.009999950000374996 0.0 3.2678619885332077e-15 0.0 0.01 0.0 3.2678619885332077e-15 0.0 0.01000004100025215 0.009999952000345596 0.0 3.973974839007454e-15 0.0 0.01 0.0 3.9739748390591525e-15 0.0 0.010000079100938534 0.009999936500604831 0.0 1.424966267065848e-17 0.0 0.01 0.0 1.424966267065848e-17 0.0 0.010000005350004294 0.009999937000595344 0.0 -2.1100959112752474e-17 0.0 0.01 0.0 -2.1100959112752474e-17 0.0 0.010000005850005133 0.00999993750058593 0.0 -5.2282808570730394e-17 0.0 0.01 0.0 -5.2282808570730394e-17 0.0 0.010000006850007037 0.00999993750058593 0.0 2.2921077590623738e-17 0.0 0.01 0.0 2.2921077590623738e-17 0.0 0.010000009300012973 0.009999938000576594 0.0 5.282984185191493e-16 0.0 0.01 0.0 5.282984185191493e-16 0.0 0.010000013650027948 0.009999939500549036 0.0 2.142938758548747e-15 0.0 0.01 0.0 2.142938758548747e-15 0.0 0.010000021950072274 0.009999941500513334 0.0 5.69473031320448e-15 0.0 0.01 0.0 5.694730312997685e-15 0.0 0.010000039550234634 0.009999945000453744 0.0 9.828078279887723e-15 0.0 0.01 0.0 9.828078280094518e-15 0.0 0.010000075200848264 0.00999993150070383 0.0 -2.0541044164882183e-17 0.0 0.01 0.0 -2.0541044164882183e-17 0.0 0.010000005350004294 0.00999993150070383 0.0 -3.3524987964649417e-17 0.0 0.01 0.0 -3.3524987964649417e-17 0.0 0.010000006350006049 0.00999993150070383 0.0 -1.0790370216404836e-16 0.0 0.01 0.0 -1.0790370216404836e-16 0.0 0.010000006850007037 0.00999993250068343 0.0 2.913809712449616e-17 0.0 0.01 0.0 2.913809712449616e-17 0.0 0.010000009300012973 0.009999933000673344 0.0 7.721170690429967e-16 0.0 0.01 0.0 7.721170690429967e-16 0.0 0.010000013200026138 0.009999935500624032 0.0 3.499759262916318e-15 0.0 0.01 0.0 3.4997592629680166e-15 0.0 0.010000021950072272 0.009999938000576594 0.0 9.658271976085362e-15 0.0 0.01 0.0 9.658271976498952e-15 0.0 0.010000039550234633 0.009999942500495932 0.0 5.285324883504275e-13 0.0 0.01 0.0 5.285324883504275e-13 0.0 0.010000073750815866 0.00999992950074553 0.0 7.027536527671417e-18 0.0 0.01 0.0 7.027536527671417e-18 0.0 0.010000005850005133 0.00999993000073499 0.0 -4.186372716801102e-17 0.0 0.01 0.0 -4.186372716801102e-17 0.0 0.010000005850005133 0.00999993000073499 0.0 -1.2191868835838406e-16 0.0 0.01 0.0 -1.2191868835838406e-16 0.0 0.010000007300007994 0.00999993150070383 0.0 1.219387371872549e-16 0.0 0.01 0.0 1.219387371872549e-16 0.0 0.010000009300012973 0.009999933000673342 0.0 1.5787873658180025e-15 0.0 0.01 0.0 1.578787365792153e-15 0.0 0.010000013650027948 0.00999993550062403 0.0 6.151744120967408e-15 0.0 0.01 0.0 6.151744120967408e-15 0.0 0.010000023450082485 0.009999940000539997 0.0 1.671250037032091e-14 0.0 0.01 0.0 1.6712500370527705e-14 0.0 0.010000041000252155 0.009999946000437398 0.0 1.0765237427339097e-11 0.0 0.01 0.0 1.0765237427339097e-11 0.0 0.010000074700837027 0.00999993200069359 0.0 -1.0303090658351288e-17 0.0 0.01 0.0 -1.0303090658351288e-17 0.0 0.010000005850005133 0.00999993250068343 0.0 -3.407271391379265e-17 0.0 0.01 0.0 -3.407271391379265e-17 0.0 0.010000005850005133 0.009999933000673342 0.0 4.2099481499996656e-17 0.0 0.01 0.0 4.2099481499996656e-17 0.0 0.010000007300007994 0.009999934500643534 0.0 8.039306771323955e-16 0.0 0.01 0.0 8.039306771323955e-16 0.0 0.010000009750014261 0.009999937500585932 0.0 3.689479394750472e-15 0.0 0.01 0.0 3.689479394647074e-15 0.0 0.010000015600036506 0.009999941500513334 0.0 1.1819159704980707e-14 0.0 0.01 0.0 1.1819159704773912e-14 0.0 0.010000025900100623 0.009999947500413438 0.0 3.7086032504634465e-12 0.0 0.01 0.0 3.708603250516386e-12 0.0 0.010000045400309177 0.009999955000303746 0.0 8.013380787211678e-11 0.0 0.01 0.0 8.013380787211678e-11 0.0 0.010000078100914954 0.009999939000558145 0.0 3.3038560838780017e-18 0.0 0.01 0.0 3.3038560838780017e-18 0.0 0.010000005850005133 0.009999939000558145 0.0 9.611479210147006e-17 0.0 0.01 0.0 9.611479210147006e-17 0.0 0.010000006350006049 0.009999941000522147 0.0 6.382203484880292e-16 0.0 0.01 0.0 6.382203484880292e-16 0.0 0.010000007800009128 0.009999943000487347 0.0 2.750334425862373e-15 0.0 0.01 0.0 2.7503344259657707e-15 0.0 0.010000011250018986 0.009999947000421346 0.0 8.423037474082564e-15 0.0 0.01 0.0 8.42303747428936e-15 0.0 0.010000018550051615 0.009999953000331347 0.0 3.283748949705997e-12 0.0 0.01 0.0 3.283748949705997e-12 0.0 0.010000030250137262 0.009999960500234039 0.0 5.548016404283634e-11 0.0 0.01 0.0 5.5480164041989306e-11 0.0 0.010000050800387104 0.009999968500148856 0.0 3.5261774899183855e-10 0.0 0.01 0.0 3.526177489986148e-10 0.0 0.010000083001033382 0.009999951500352836 0.0 8.916032123803095e-18 0.0 0.01 0.0 8.916032123803095e-18 0.0 0.010000006850007037 0.009999952000345596 0.0 4.328573274335067e-16 0.0 0.01 0.0 4.328573274335067e-16 0.0 0.010000007300007994 0.009999953500324336 0.0 2.2421995898818492e-15 0.0 0.01 0.0 2.242199589933548e-15 0.0 0.010000009750014261 0.009999958000264599 0.0 3.2649936105907915e-13 0.0 0.01 0.0 3.264993610524617e-13 0.0 0.010000014150030037 0.00999996350019984 0.0 7.774838531525612e-12 0.0 0.01 0.0 7.77483853173737e-12 0.0 0.010000021950072276 0.009999970500130538 0.0 6.57659106023629e-11 0.0 0.01 0.0 6.576591060405697e-11 0.0 0.010000036150196028 0.009999979000066161 0.0 3.232939430758159e-10 0.0 0.01 0.0 3.2329394308259216e-10 0.0 0.010000057150489936 0.009999986500027513 0.0 1.0794563658325694e-09 0.0 0.01 0.0 1.0794563658054644e-09 0.0 0.010000087401146007 0.0099999720001176 0.0 5.085490616557767e-19 0.0 0.01 0.0 5.085490616557767e-19 0.0 0.010000008800011615 0.00999997250011344 0.0 1.2015530008144284e-13 0.0 0.01 0.0 1.2015530009467773e-13 0.0 0.010000009750014263 0.00999997550009004 0.0 3.0689234679417084e-12 0.0 0.01 0.0 3.0689234678358293e-12 0.0 0.010000012700024196 0.00999998100005415 0.0 2.2709759265196006e-11 0.0 0.01 0.0 2.270975926350194e-11 0.0 0.010000018050048869 0.00999998650002734 0.0 1.0989858397365002e-10 0.0 0.01 0.0 1.0989858397703815e-10 0.0 0.010000028300120135 0.009999994000005423 0.0 3.8854504729184287e-10 0.0 0.01 0.0 3.8854504727829035e-10 0.0 0.01000004250027096 0.010000001000000328 0.0 1.0896290921142467e-09 0.0 0.01 0.0 1.0896290921413518e-09 0.0 0.01000006350060502 0.010000005850006037 0.0 2.459144685898907e-09 0.0 0.01 0.0 2.459144685898907e-09 0.0 0.010000091301251275 0.01000000100000015 0.0 8.124239822353081e-19 0.0 0.01 0.0 8.124239822353081e-19 0.0 0.010000012200022326 0.010000001950000567 0.0 5.658845742052853e-12 0.0 0.01 0.0 5.658845742052853e-12 0.0 0.010000013650027947 0.010000004400002907 0.0 4.224383673136168e-11 0.0 0.01 0.0 4.2243836738137946e-11 0.0 0.010000017100043864 0.010000008800011617 0.0 1.7088291948184984e-10 0.0 0.01 0.0 1.708829194682973e-10 0.0 0.010000023950086043 0.010000014150030073 0.0 5.104994023536792e-10 0.0 0.01 0.0 5.104994022994691e-10 0.0 0.010000034200175485 0.010000019050054659 0.0 1.2334816630555842e-09 0.0 0.01 0.0 1.2334816630555842e-09 0.0 0.010000048850358177 0.010000023450083434 0.0 2.5159182328628182e-09 0.0 0.01 0.0 2.5159182328628182e-09 0.0 0.010000068850712005 0.010000024900095867 0.0 4.367916337866609e-09 0.0 0.01 0.0 4.367916337975029e-09 0.0 0.010000093751321245 0.010000033200165338 0.0 1.4237719098280623e-16 0.0 0.01 0.0 1.4237719098280623e-16 0.0 0.01000001805004887 0.010000034200175447 0.0 3.320041618809868e-11 0.0 0.01 0.0 3.320041619148681e-11 0.0 0.010000019050054433 0.01000003615019603 0.0 1.7731110015569568e-10 0.0 0.01 0.0 1.7731110018280073e-10 0.0 0.01000002345008249 0.01000003905022878 0.0 5.523608830526258e-10 0.0 0.01 0.0 5.523608829442056e-10 0.0 0.010000030750141881 0.010000041500258596 0.0 1.3104493670756945e-09 0.0 0.01 0.0 1.3104493670756945e-09 0.0 0.01000004100025241 0.010000043450284173 0.0 2.565525070597624e-09 0.0 0.01 0.0 2.565525070597624e-09 0.0 0.010000054700449804 0.010000043950292517 0.0 4.3029515504108135e-09 0.0 0.01 0.0 4.3029515504108135e-09 0.0 0.010000072250785795 0.010000043450289148 0.0 6.304617694444584e-09 0.0 0.01 0.0 6.304617694444584e-09 0.0 0.010000094751352617 0.010000064950632782 0.0 -9.026028966813143e-18 0.0 0.01 0.0 -9.026028966813143e-18 0.0 0.010000024900093002 0.010000064950632784 0.0 8.574963354939132e-11 0.0 0.01 0.0 8.574963354939132e-11 0.0 0.010000025900100625 0.010000064950632806 0.0 4.0204657905293893e-10 0.0 0.01 0.0 4.0204657905293893e-10 0.0 0.010000029800133233 0.010000065450642736 0.0 1.0868814003645554e-09 0.0 0.01 0.0 1.0868814003103452e-09 0.0 0.01000003760021224 0.010000064950633547 0.0 2.259910498536924e-09 0.0 0.01 0.0 2.259910498536924e-09 0.0 0.010000046850330005 0.010000064450625377 0.0 3.912943530824664e-09 0.0 0.01 0.0 3.912943529957302e-09 0.0 0.010000059550534233 0.010000064450628236 0.0 5.864705790448177e-09 0.0 0.01 0.0 5.864705791315539e-09 0.0 0.010000075700864744 0.010000067850699623 0.0 7.776341272303089e-09 0.0 0.01 0.0 7.77634127273677e-09 0.0 0.010000095701382865 0.010000090801236714 0.0 1.0865415912121274e-16 0.0 0.01 0.0 1.0865415912121274e-16 0.0 0.010000032250156011 0.01000009035122449 0.0 1.3611574235157541e-10 0.0 0.01 0.0 1.3611574235157541e-10 0.0 0.010000032700160397 0.010000090351224546 0.0 6.021577068758164e-10 0.0 0.01 0.0 6.02157706889369e-10 0.0 0.010000037600212123 0.01000008885118451 0.0 1.5192880641165703e-09 0.0 0.01 0.0 1.5192880640623602e-09 0.0 0.010000043950290088 0.01000008885118548 0.0 2.959512609697172e-09 0.0 0.01 0.0 2.959512609588752e-09 0.0 0.010000053200425855 0.010000090801240202 0.0 4.822231897431625e-09 0.0 0.01 0.0 4.822231897431625e-09 0.0 0.010000064450626565 0.010000096201394975 0.0 6.727383900818895e-09 0.0 0.01 0.0 6.727383899951533e-09 0.0 0.010000079600957223 0.010000103501615986 0.0 7.798467078698468e-09 0.0 0.01 0.0 7.79846707956583e-09 0.0 0.01000009960149717 0.010000122552252822 0.0 -7.670944796512286e-19 0.0 0.01 0.0 -7.670944796512286e-19 0.0 0.010000039550234633 0.010000122552252827 0.0 1.5147280077367625e-10 0.0 0.01 0.0 1.5147280077706438e-10 0.0 0.010000040550246652 0.010000122552252886 0.0 6.614397694246514e-10 0.0 0.01 0.0 6.614397693975463e-10 0.0 0.010000043950289809 0.010000122552253226 0.0 1.645009200878329e-09 0.0 0.01 0.0 1.645009200905434e-09 0.0 0.010000050300379919 0.010000124502326548 0.0 3.12056579003777e-09 0.0 0.01 0.0 3.12056579003777e-09 0.0 0.010000059100525389 0.010000127952459052 0.0 4.704864215994246e-09 0.0 0.01 0.0 4.704864215994246e-09 0.0 0.010000071300765882 0.010000130852572595 0.0 5.343017515620566e-09 0.0 0.01 0.0 5.343017515186885e-09 0.0 0.01000008690113704 0.010000128402474683 0.0 3.3122394796532284e-09 0.0 0.01 0.0 3.312239479436388e-09 0.0 0.010000106951717422 0.01000016845425643 0.0 4.287981738183269e-17 0.0 0.01 0.0 4.287981738183269e-17 0.0 0.010000045900316024 0.010000167504208556 0.0 1.0638887065933555e-10 0.0 0.01 0.0 1.0638887065764148e-10 0.0 0.010000046850329243 0.010000164554061651 0.0 4.6092267890342035e-10 0.0 0.01 0.0 4.6092267890342035e-10 0.0 0.010000050800387135 0.010000160653871545 0.0 1.0948618929198682e-09 0.0 0.01 0.0 1.0948618929334207e-09 0.0 0.010000057600497847 0.010000154303571823 0.0 1.7404138446446091e-09 0.0 0.01 0.0 1.7404138446988193e-09 0.0 0.01000006785069101 0.010000146003197763 0.0 1.3800550579970514e-09 0.0 0.01 0.0 1.3800550579970514e-09 0.0 0.010000082051010132 0.010000130352549009 0.0 -1.3755539460843895e-09 0.0 0.01 0.0 -1.3755539460843895e-09 0.0 0.010000099601488332 0.010000170904381147 0.0 -4.0633199366582094e-17 0.0 0.01 0.0 -4.0633199366582094e-17 0.0 0.010000051750401712 0.010000168454256431 0.0 -2.500954550232863e-11 0.0 0.01 0.0 -2.5009545501905112e-11 0.0 0.010000053200424542 0.01000016015384731 0.0 -1.827430414870284e-10 0.0 0.01 0.0 -1.827430414870284e-10 0.0 0.01000005715048993 0.010000146003197579 0.0 -8.247122133700577e-10 0.0 0.01 0.0 -8.247122133700577e-10 0.0 0.01000006590065153 0.010000127952456875 0.0 -2.759614613646183e-09 0.0 0.01 0.0 -2.759614613646183e-09 0.0 0.01000008105098652 0.01 0.0 0.0 0.0 0.01 0.0 0.0 0.0 0.01 0.01 0.0 0.0 0.0 0.01 0.0 0.0 0.0 0.01 0.009999999999999998 0.0 0.0 0.0 0.01 0.0 0.0 0.0 0.009999999999999998 0.009999999999999998 0.0 0.0 0.0 0.01 0.0 0.0 0.0 0.009999999999999998 0.009999999999999998 0.0 0.0 0.0 0.01 0.0 0.0 0.0 0.009999999999999998 0.009999999999999998 0.0 0.0 0.0 0.01 0.0 0.0 0.0 0.009999999999999998 0.01 0.0 0.0 0.0 0.01 0.0 0.0 0.0 0.01 0.009999999999999998 0.0 0.0 0.0 0.01 0.0 0.0 0.0 0.009999999999999998 0.009999999999999998 0.0 0.0 0.0 0.01 0.0 0.0 0.0 0.009999999999999998 0.01 0.0 0.0 0.0 0.01 0.0 0.0 0.0 0.01 0.01 0.0 0.0 0.0 0.01 0.0 0.0 0.0 0.01 0.01 0.0 0.0 0.0 0.01 0.0 0.0 0.0 0.01 0.009999999999999998 0.0 0.0 0.0 0.01 0.0 0.0 0.0 0.009999999999999998 0.01 0.0 0.0 0.0 0.01 0.0 0.0 0.0 0.01 0.009999999999999998 0.0 0.0 0.0 0.01 0.0 0.0 0.0 0.009999999999999998 0.01 0.0 0.0 0.0 0.01 0.0 0.0 0.0 0.01 0.009999999999999998 0.0 0.0 0.0 0.01 0.0 0.0 0.0 0.009999999999999998 0.01 0.0 0.0 0.0 0.01 0.0 0.0 0.0 0.01 0.009999999999999998 0.0 0.0 0.0 0.01 0.0 0.0 0.0 0.009999999999999998 0.009999999999999998 0.0 0.0 0.0 0.01 0.0 0.0 0.0 0.009999999999999998 0.009999999999999998 0.0 0.0 0.0 0.01 0.0 0.0 0.0 0.009999999999999998 0.009999999999999998 0.0 0.0 0.0 0.01 0.0 0.0 0.0 0.009999999999999998 0.009999999999999998 0.0 0.0 0.0 0.01 0.0 0.0 0.0 0.009999999999999998 0.009999999999999998 0.0 0.0 0.0 0.01 0.0 0.0 0.0 0.009999999999999998 0.01 0.0 0.0 0.0 0.01 0.0 0.0 0.0 0.01 0.009999999999999998 0.0 0.0 0.0 0.01 0.0 0.0 0.0 0.009999999999999998 0.01 0.0 0.0 0.0 0.01 0.0 0.0 0.0 0.01 0.009999999999999998 0.0 0.0 0.0 0.01 0.0 0.0 0.0 0.009999999999999998 0.009999999999999998 0.0 0.0 0.0 0.01 0.0 0.0 0.0 0.009999999999999998 0.01 0.0 5.204170427930421e-18 0.0 0.01 0.0 5.204170427930421e-18 0.0 0.01 0.01 0.0 2.0816681711721685e-17 0.0 0.01 0.0 2.0816681711721685e-17 0.0 0.01 0.01 0.0 0.0 0.0 0.01 0.0 0.0 0.0 0.01 0.009999999999999998 0.0 0.0 0.0 0.01 0.0 0.0 0.0 0.009999999999999998 0.01 0.0 0.0 0.0 0.01 0.0 0.0 0.0 0.01 0.009999999999999998 0.0 0.0 0.0 0.01 0.0 0.0 0.0 0.009999999999999998 0.009999999999999998 0.0 8.239936510889834e-17 0.0 0.01 0.0 8.239936510889834e-17 0.0 0.009999999999999998 0.009999999999999998 0.0 7.034303695085953e-16 0.0 0.01 0.0 7.034303695085953e-16 0.0 0.009999999999999998 0.01 0.0 1.889113865338743e-15 0.0 0.01 0.0 1.889113865338743e-15 0.0 0.01 0.009999999999999998 0.0 3.196228004487267e-15 0.0 0.01 0.0 3.196228004487267e-15 0.0 0.009999999999999998 0.01 0.0 0.0 0.0 0.01 0.0 0.0 0.0 0.01 0.01 0.0 0.0 0.0 0.01 0.0 0.0 0.0 0.01 0.009999999999999998 0.0 0.0 0.0 0.01 0.0 0.0 0.0 0.009999999999999998 0.009999999999999998 0.0 5.299580219109146e-16 0.0 0.01 0.0 5.299580219109146e-16 0.0 0.009999999999999998 0.009999999999999998 0.0 4.208439152719734e-15 0.0 0.01 0.0 4.208439152719734e-15 0.0 0.01 0.009999999999999998 0.0 1.3824011380059176e-14 0.0 0.01 0.0 1.3824011380059176e-14 0.0 0.009999999999999998 0.009999999999999998 0.0 2.7712207528729493e-14 0.0 0.01 0.0 2.7712207528729493e-14 0.0 0.009999999999999998 0.009999999999999998 0.0 4.1272540940440194e-14 0.0 0.01 0.0 4.1272540940440194e-14 0.0 0.009999999999999998 0.009999999999999998 0.0 0.0 0.0 0.01 0.0 0.0 0.0 0.009999999999999998 0.009999999999999998 0.0 0.0 0.0 0.01 0.0 0.0 0.0 0.009999999999999998 0.009999999999999998 0.0 7.337880303381894e-16 0.0 0.01 0.0 7.337880303381894e-16 0.0 0.009999999999999998 0.009999999999999998 0.0 8.833211939673902e-15 0.0 0.01 0.0 8.833211939673902e-15 0.0 0.009999999999999998 0.01 0.0 3.869300713166268e-14 0.0 0.01 0.0 3.869300713166268e-14 0.0 0.01 0.009999999999999998 0.0 1.0028783359317117e-13 0.0 0.01 0.0 1.0028783359317117e-13 0.0 0.009999999999999998 0.01 0.0 1.8371588972332376e-13 0.0 0.01 0.0 1.8371588972332376e-13 0.0 0.01 0.009999999999999998 0.0 2.519703196091072e-13 0.0 0.01 0.0 2.519703196091072e-13 0.0 0.009999999999999998 0.009999999999999998 0.0 0.0 0.0 0.01 0.0 0.0 0.0 0.009999999999999998 0.009999999999999998 0.0 2.229119666630197e-16 0.0 0.01 0.0 2.229119666630197e-16 0.0 0.009999999999999998 0.009999999999999998 0.0 8.147128804925075e-15 0.0 0.01 0.0 8.147128804925075e-15 0.0 0.009999999999999998 0.01 0.0 5.422051696513108e-14 0.0 0.01 0.0 5.422051696513108e-14 0.0 0.01 0.01 0.0 1.9105203530322967e-13 0.0 0.01 0.0 1.9105203530322967e-13 0.0 0.01 0.01 0.0 4.539198877884232e-13 0.0 0.01 0.0 4.539198877884232e-13 0.0 0.01 0.01 0.0 7.997595641295874e-13 0.0 0.01 0.0 7.997595641295874e-13 0.0 0.009999999999999998 0.01 0.0 1.0629015029239852e-12 0.0 0.01 0.0 1.0629015029239852e-12 0.0 0.01 0.01 0.0 0.0 0.0 0.01 0.0 0.0 0.0 0.01 0.009999999999999998 0.0 2.742597815519332e-15 0.0 0.01 0.0 2.742597815519332e-15 0.0 0.009999999999999998 0.009999999999999998 0.0 3.891765382180168e-14 0.0 0.01 0.0 3.891765382180168e-14 0.0 0.009999999999999998 0.01 0.0 2.0341714423999235e-13 0.0 0.01 0.0 2.0341714423999235e-13 0.0 0.01 0.009999999999999998 0.0 6.529403753785523e-13 0.0 0.01 0.0 6.529403753785523e-13 0.0 0.009999999999999998 0.009999999999999998 0.0 1.50742959781347e-12 0.0 0.01 0.0 1.50742959781347e-12 0.0 0.009999999999999998 0.01 0.0 2.6423568194600122e-12 0.0 0.01 0.0 2.6423568194600122e-12 0.0 0.01 0.009999999999999998 0.0 3.516424998406542e-12 0.0 0.01 0.0 3.516424998406542e-12 0.0 0.009999999999999998 0.01 0.0 4.683753385137379e-17 0.0 0.01 0.0 4.683753385137379e-17 0.0 0.009999999999999998 0.009999999999999998 0.0 1.1310397063368782e-14 0.0 0.01 0.0 1.1310397063368782e-14 0.0 0.009999999999999998 0.009999999999999998 0.0 1.1610851169407965e-13 0.0 0.01 0.0 1.1610851169407965e-13 0.0 0.009999999999999998 0.009999999999999998 0.0 5.461030933018307e-13 0.0 0.01 0.0 5.461030933018307e-13 0.0 0.009999999999999998 0.009999999999999998 0.0 1.69591597709573e-12 0.0 0.01 0.0 1.69591597709573e-12 0.0 0.009999999999999998 0.01 0.0 3.921389254979424e-12 0.0 0.01 0.0 3.921389254979424e-12 0.0 0.01 0.01 0.0 6.982437197877722e-12 0.0 0.01 0.0 6.982437197877722e-12 0.0 0.01 0.01 0.0 9.454114574536376e-12 0.0 0.01 0.0 9.454114574536376e-12 0.0 0.01 0.009999999500000039 0.0 2.80069809500744e-16 0.0 0.01 0.0 2.80069809500744e-16 0.0 0.010000000000000002 0.00999999950000004 0.0 2.696648745114245e-14 0.0 0.01 0.0 2.696648745114245e-14 0.0 0.01 0.009999999500000037 0.0 2.459383210119356e-13 0.0 0.01 0.0 2.459383210119356e-13 0.0 0.009999999999999998 0.009999999500000035 0.0 1.1174982143260462e-12 0.0 0.01 0.0 1.1174982143260462e-12 0.0 0.009999999999999997 0.009999999500000039 0.0 3.472623095112856e-12 0.0 0.01 0.0 3.472623095112856e-12 0.0 0.010000000000000004 0.009999999500000037 0.0 8.176850364340071e-12 0.0 0.01 0.0 8.176850364340071e-12 0.0 0.009999999999999997 0.009999999999999998 0.0 1.490812334692393e-11 0.0 0.01 0.0 1.490812334692393e-11 0.0 0.01 0.009999999999999998 0.0 2.0540243117483925e-11 0.0 0.01 0.0 2.0540243117483925e-11 0.0 0.009999999999999998 0.009999999500000039 0.0 4.3457342665364854e-16 0.0 0.01 0.0 4.3457342665364854e-16 0.0 0.010000000000000002 0.009999999500000037 0.0 4.2044664834938166e-14 0.0 0.01 0.0 4.2044664940817285e-14 0.0 0.01 0.009999999500000039 0.0 3.8647459798396566e-13 0.0 0.01 0.0 3.8647459459583387e-13 0.0 0.010000000000000002 0.009999999500000039 0.0 1.7828812157085622e-12 0.0 0.01 0.0 1.7828812224848258e-12 0.0 0.010000000000000002 0.009999999500000039 0.0 5.675179063128165e-12 0.0 0.01 0.0 5.675179049575638e-12 0.0 0.009999999999999998 0.00999999950000004 0.0 1.3745135997271507e-11 0.0 0.01 0.0 1.3745135997271507e-11 0.0 0.010000000000000004 0.009999999500000035 0.0 2.566050724770591e-11 0.0 0.01 0.0 2.566050724770591e-11 0.0 0.01 0.009999999500000035 0.0 3.56597128128161e-11 0.0 0.01 0.0 3.5659712704395885e-11 0.0 0.009999999999999997 0.009999999000000148 0.0 1.7731879845062246e-16 0.0 0.01 0.0 1.7731879845062246e-16 0.0 0.009999999999999998 0.009999999000000152 0.0 4.287908403223975e-14 0.0 0.01 0.0 4.287908408517931e-14 0.0 0.01 0.00999999900000015 0.0 4.5055039241831147e-13 0.0 0.01 0.0 4.5055039241831147e-13 0.0 0.009999999999999998 0.009999999000000152 0.0 2.2165633145946034e-12 0.0 0.01 0.0 2.2165633145946034e-12 0.0 0.010000000000000002 0.009999999500000039 0.0 7.396912970374439e-12 0.0 0.01 0.0 7.396912970374439e-12 0.0 0.010000000000000002 0.009999999500000039 0.0 1.8633060101368865e-11 0.0 0.01 0.0 1.8633060101368865e-11 0.0 0.010000000000000002 0.009999999500000035 0.0 3.57064901734469e-11 0.0 0.01 0.0 3.57064901734469e-11 0.0 0.009999999999999997 0.009999999500000037 0.0 4.992750093565923e-11 0.0 0.01 0.0 4.992750093565923e-11 0.0 0.009999999999999998 0.0099999980000006 0.0 -6.072805998762807e-14 0.0 0.01 0.0 -6.072805998762807e-14 0.0 0.01 0.009999998500000343 0.0 2.5310787808100615e-14 0.0 0.01 0.0 2.5310787781630836e-14 0.0 0.010000000000000004 0.00999999850000034 0.0 3.729685458316468e-13 0.0 0.01 0.0 3.729685462551633e-13 0.0 0.010000000000000002 0.00999999850000034 0.0 2.0971890250207374e-12 0.0 0.01 0.0 2.0971890250207374e-12 0.0 0.01 0.009999998500000334 0.0 7.57411230359762e-12 0.0 0.01 0.0 7.57411230359762e-12 0.0 0.009999999999999998 0.009999998500000338 0.0 2.0217527955598835e-11 0.0 0.01 0.0 2.0217527955598835e-11 0.0 0.009999999999999998 0.009999998500000341 0.0 4.023981647026387e-11 0.0 0.01 0.0 4.023981641605376e-11 0.0 0.010000000000000002 0.009999999000000148 0.0 5.734964651608887e-11 0.0 0.01 0.0 5.734964640766865e-11 0.0 0.01 0.009999997500000938 0.0 7.911325601266375e-13 0.0 0.01 0.0 7.911325601266375e-13 0.0 0.01 0.009999997500000938 0.0 5.0058461204254096e-15 0.0 0.01 0.0 5.005846123734132e-15 0.0 0.01 0.009999997500000942 0.0 1.9296548738975835e-13 0.0 0.01 0.0 1.9296548749563747e-13 0.0 0.009999999999999998 0.0099999980000006 0.0 1.4162451745879491e-12 0.0 0.01 0.0 1.4162451745879491e-12 0.0 0.01 0.009999998000000601 0.0 5.848434749862333e-12 0.0 0.01 0.0 5.8484347464742015e-12 0.0 0.010000000000000002 0.0099999980000006 0.0 1.7053982900340492e-11 0.0 0.01 0.0 1.7053982900340492e-11 0.0 0.010000000000000002 0.0099999980000006 0.0 3.6052650150214874e-11 0.0 0.01 0.0 3.605265017731993e-11 0.0 0.01 0.0099999980000006 0.0 5.3511168911744844e-11 0.0 0.01 0.0 5.3511168911744844e-11 0.0 0.009999999999999998 0.0099999960000024 0.0 4.267684338774414e-18 0.0 0.01 0.0 4.267684338774414e-18 0.0 0.01 0.009999996500001837 0.0 7.437512095751417e-18 0.0 0.01 0.0 7.437512095751417e-18 0.0 0.01 0.009999996500001837 0.0 4.3012635955261353e-14 0.0 0.01 0.0 4.3012635928791574e-14 0.0 0.01 0.009999996500001836 0.0 5.830952938507905e-13 0.0 0.01 0.0 5.830952940625488e-13 0.0 0.009999999999999998 0.009999996500001834 0.0 3.092132576531137e-12 0.0 0.01 0.0 3.092132578225203e-12 0.0 0.009999999999999998 0.009999996500001843 0.0 1.0366660549871462e-11 0.0 0.01 0.0 1.0366660549871462e-11 0.0 0.010000000000000002 0.009999997000001348 0.0 2.4121038133995305e-11 0.0 0.01 0.0 2.4121038133995305e-11 0.0 0.009999999999999997 0.009999997500000942 0.0 3.8191858177513346e-11 0.0 0.01 0.0 3.8191858177513346e-11 0.0 0.010000000000000004 0.0099999940000054 0.0 -3.801583679058225e-18 0.0 0.01 0.0 -3.801583679058225e-18 0.0 0.01 0.0099999940000054 0.0 4.339466694284376e-18 0.0 0.01 0.0 4.339466694284376e-18 0.0 0.01 0.0099999940000054 0.0 -3.2283355836543527e-12 0.0 0.01 0.0 -3.2283355836543527e-12 0.0 0.01 0.0099999940000054 0.0 8.855758191195512e-14 0.0 0.01 0.0 8.855758191195512e-14 0.0 0.010000000500000038 0.009999994500004538 0.0 8.70094847552606e-13 0.0 0.01 0.0 8.700948473408477e-13 0.0 0.010000000500000038 0.009999995000003748 0.0 3.834134212514018e-12 0.0 0.01 0.0 3.834134212514018e-12 0.0 0.010000000500000036 0.009999995500003037 0.0 1.0394871761450078e-11 0.0 0.01 0.0 1.0394871761450078e-11 0.0 0.010000000500000036 0.00999999550000304 0.0 1.83375401181015e-11 0.0 0.01 0.0 1.8337540111325237e-11 0.0 0.010000000000000002 0.00999999100001215 0.0 2.149268499996525e-13 0.0 0.01 0.0 2.149268499996525e-13 0.0 0.01 0.009999991500010838 0.0 9.598659981027346e-18 0.0 0.01 0.0 9.598659981027346e-18 0.0 0.010000000500000038 0.009999992000009601 0.0 1.0009153240695517e-17 0.0 0.01 0.0 1.0009153240695517e-17 0.0 0.010000000500000038 0.009999992000009601 0.0 1.3524578784659821e-17 0.0 0.01 0.0 1.3524578784659821e-17 0.0 0.010000000500000038 0.009999992000009603 0.0 4.428488517936204e-14 0.0 0.01 0.0 4.4284885172744596e-14 0.0 0.010000000500000038 0.009999992000009603 0.0 5.143228213673234e-13 0.0 0.01 0.0 5.143228213673234e-13 0.0 0.01000000050000004 0.009999992000009603 0.0 1.9751074284120665e-12 0.0 0.01 0.0 1.97510742798855e-12 0.0 0.010000000500000038 0.009999992500008438 0.0 4.1318473614405005e-12 0.0 0.01 0.0 4.1318473614405005e-12 0.0 0.010000000500000038 0.009999987500023438 0.0 -9.666110867980452e-13 0.0 0.01 0.0 -9.666110867980452e-13 0.0 0.010000000500000038 0.009999987500023438 0.0 4.656337218745676e-18 0.0 0.01 0.0 4.656337218745676e-18 0.0 0.010000000500000038 0.0099999880000216 0.0 -1.1213978156820689e-17 0.0 0.01 0.0 -1.1213978156820689e-17 0.0 0.010000000500000038 0.0099999880000216 0.0 -4.7012222906689295e-17 0.0 0.01 0.0 -4.7012222906689295e-17 0.0 0.010000000500000038 0.009999988500019836 0.0 -7.606755450155678e-17 0.0 0.01 0.0 -7.606755450155678e-17 0.0 0.010000000500000038 0.00999998850001984 0.0 -2.1179630056343748e-16 0.0 0.01 0.0 -2.1179630056343748e-16 0.0 0.010000000500000042 0.00999998850001984 0.0 1.5362679652189353e-14 0.0 0.01 0.0 1.5362679653843714e-14 0.0 0.010000000500000042 0.009999989500016541 0.0 8.298553050341848e-14 0.0 0.01 0.0 8.298553050341848e-14 0.0 0.010000000500000038 0.009999982000048601 0.0 -1.0844279533724053e-17 0.0 0.01 0.0 -1.0844279533724053e-17 0.0 0.010000000500000038 0.009999982000048601 0.0 2.27653737399661e-17 0.0 0.01 0.0 2.27653737399661e-17 0.0 0.010000000500000038 0.009999982500045938 0.0 2.865080802174751e-17 0.0 0.01 0.0 2.865080802174751e-17 0.0 0.010000001450000314 0.009999982500045938 0.0 -1.167338089601014e-17 0.0 0.01 0.0 -1.167338089601014e-17 0.0 0.010000001450000314 0.009999982500045938 0.0 -1.2926900377854987e-16 0.0 0.01 0.0 -1.2926900377854987e-16 0.0 0.010000001450000314 0.009999982500045941 0.0 -3.2596172022106876e-16 0.0 0.01 0.0 -3.2596172022106876e-16 0.0 0.010000001450000318 0.009999983000043348 0.0 -5.282171178964971e-16 0.0 0.01 0.0 -5.282171179998947e-16 0.0 0.010000001450000313 0.009999983500040839 0.0 -8.319526157490873e-16 0.0 0.01 0.0 -8.319526157490873e-16 0.0 0.010000001000000152 0.0099999740001014 0.0 -2.4829746388802342e-17 0.0 0.01 0.0 -2.4829746388802342e-17 0.0 0.01000000100000015 0.0099999740001014 0.0 -1.6443182348077555e-13 0.0 0.01 0.0 -1.6443182348077555e-13 0.0 0.010000001450000314 0.0099999740001014 0.0 3.920873111271151e-17 0.0 0.01 0.0 3.920873111271151e-17 0.0 0.010000001450000314 0.0099999740001014 0.0 -5.684686492297631e-17 0.0 0.01 0.0 -5.684686492297631e-17 0.0 0.01000000195000057 0.0099999740001014 0.0 -2.0157276781842186e-16 0.0 0.01 0.0 -2.0157276781842186e-16 0.0 0.01000000195000057 0.009999975000093751 0.0 -5.756707096309654e-16 0.0 0.01 0.0 -5.75670709605116e-16 0.0 0.010000001950000571 0.00999997550009004 0.0 -1.2899223367957336e-15 0.0 0.01 0.0 -1.2899223367957336e-15 0.0 0.010000001950000573 0.00999997550009004 0.0 -1.6307333841446426e-15 0.0 0.01 0.0 -1.6307333839378475e-15 0.0 0.010000001950000573 0.009999962500210936 0.0 -7.500083942966824e-18 0.0 0.01 0.0 -7.500083942966824e-18 0.0 0.010000001450000314 0.009999962500210936 0.0 7.81242883991612e-18 0.0 0.01 0.0 7.81242883991612e-18 0.0 0.01000000195000057 0.009999963000205348 0.0 1.143587837563789e-16 0.0 0.01 0.0 1.143587837563789e-16 0.0 0.01000000195000057 0.009999963000205348 0.0 -2.5678499845881358e-17 0.0 0.01 0.0 -2.5678499845881358e-17 0.0 0.010000002950001304 0.00999996300020535 0.0 -4.2616365410439827e-16 0.0 0.01 0.0 -4.2616365410439827e-16 0.0 0.010000003900002283 0.00999996300020535 0.0 -1.3909293396810927e-15 0.0 0.01 0.0 -1.3909293397327915e-15 0.0 0.010000003400001735 0.009999963000205347 0.0 -2.502941528467446e-15 0.0 0.01 0.0 -2.5029415285708437e-15 0.0 0.010000002450000899 0.009999963500199834 0.0 -2.1391483743596157e-15 0.0 0.01 0.0 -2.1391483743596157e-15 0.0 0.010000002450000899 0.009999947000421346 0.0 -3.8650637032970117e-17 0.0 0.01 0.0 -3.8650637032970117e-17 0.0 0.01000000195000057 0.009999947000421346 0.0 -5.86364637465824e-17 0.0 0.01 0.0 -5.86364637465824e-17 0.0 0.010000003400001733 0.009999947000421346 0.0 -5.0814195755646474e-17 0.0 0.01 0.0 -5.0814195755646474e-17 0.0 0.010000003900002281 0.009999947500413433 0.0 -1.4898712123607306e-16 0.0 0.01 0.0 -1.4898712123607306e-16 0.0 0.010000004900003601 0.009999947500413437 0.0 -1.0522030083071915e-15 0.0 0.01 0.0 -1.0522030083071915e-15 0.0 0.010000005350004297 0.009999947000421344 0.0 -2.9639736650816416e-15 0.0 0.01 0.0 -2.9639736650816416e-15 0.0 0.010000005350004292 0.009999947000421346 0.0 -4.47534398924052e-15 0.0 0.01 0.0 -4.4753439891371226e-15 0.0 0.010000003900002281 0.009999946500429336 0.0 -2.001878206035392e-15 0.0 0.01 0.0 -2.001878206035392e-15 0.0 0.010000003900002283 0.00999992700079934 0.0 -1.7137541369650525e-16 0.0 0.01 0.0 -1.7137541369650525e-16 0.0 0.010000003900002281 0.00999992700079934 0.0 -2.3331115672753323e-18 0.0 0.01 0.0 -2.3331115672753323e-18 0.0 0.010000004900003601 0.00999992700079934 0.0 -2.3505545504124357e-16 0.0 0.01 0.0 -2.3505545504124357e-16 0.0 0.010000006350006049 0.00999992650081033 0.0 -8.021011953092634e-16 0.0 0.01 0.0 -8.021011953092634e-16 0.0 0.010000007800009128 0.009999926000821387 0.0 -2.953091068855271e-15 0.0 0.01 0.0 -2.953091068855271e-15 0.0 0.010000008800011614 0.00999992550083253 0.0 -6.899811985183662e-15 0.0 0.01 0.0 -6.899811985080264e-15 0.0 0.010000008300010337 0.00999992500084374 0.0 -9.754765781873368e-15 0.0 0.01 0.0 -9.754765781873368e-15 0.0 0.010000006850007037 0.009999924000866387 0.0 -4.193098178257867e-15 0.0 0.01 0.0 -4.193098178257867e-15 0.0 0.010000005850005132 0.009999900001499975 0.0 -3.6753231197744104e-16 0.0 0.01 0.0 -3.6753231197744104e-16 0.0 0.010000005350004294 0.009999900501485012 0.0 -4.939272660548003e-16 0.0 0.01 0.0 -4.939272660548003e-16 0.0 0.010000007800009127 0.009999900501485012 0.0 -9.68813307400844e-16 0.0 0.01 0.0 -9.68813307400844e-16 0.0 0.01000000975001426 0.009999900001499976 0.0 -2.5560944698182923e-15 0.0 0.01 0.0 -2.5560944697665935e-15 0.0 0.010000013200026138 0.009999898501545309 0.0 -7.688501415114059e-15 0.0 0.01 0.0 -7.688501415217457e-15 0.0 0.010000015150034427 0.009999897001591325 0.0 -1.7467460893077335e-14 0.0 0.01 0.0 -1.746746089328413e-14 0.0 0.01000001365002795 0.009999895001653722 0.0 -2.3349708143381615e-14 0.0 0.01 0.0 -2.3349708143795205e-14 0.0 0.010000010250015762 0.00999989300171732 0.0 -6.884180080030024e-15 0.0 0.01 0.0 -6.884180080030024e-15 0.0 0.010000008300010335 0.009999869002574097 0.0 -1.7159442468201025e-15 0.0 0.01 0.0 -1.7159442468201025e-15 0.0 0.010000008800011617 0.009999869002574097 0.0 -1.5810251076601672e-15 0.0 0.01 0.0 -1.5810251076601672e-15 0.0 0.010000011700020534 0.009999868502593783 0.0 -2.4858027074206305e-15 0.0 0.01 0.0 -2.4858027074206305e-15 0.0 0.010000016600041338 0.009999867002653292 0.0 -6.569954618137256e-15 0.0 0.01 0.0 -6.5699546181889546e-15 0.0 0.010000021500069338 0.009999864502753978 0.0 -2.0585310948345018e-14 0.0 0.01 0.0 -2.0585310948345018e-14 0.0 0.010000024400089309 0.009999863002815286 0.0 -4.656964132211733e-14 0.0 0.01 0.0 -4.6569641322530923e-14 0.0 0.0100000224500756 0.009999860002939934 0.0 -6.158876999809179e-14 0.0 0.01 0.0 -6.158876999809179e-14 0.0 0.010000016600041338 0.009999857003067275 0.0 -1.698618500661685e-14 0.0 0.01 0.0 -1.698618500661685e-14 0.0 0.010000012700024192 0.009999836004034292 0.0 -2.8358589031586382e-15 0.0 0.01 0.0 -2.8358589031586382e-15 0.0 0.010000013200026138 0.009999834504108428 0.0 -3.3081439268900818e-15 0.0 0.01 0.0 -3.3081439268900818e-15 0.0 0.010000019550057334 0.009999833504158223 0.0 -4.297718646598776e-15 0.0 0.01 0.0 -4.2977186465729265e-15 0.0 0.010000027350112206 0.00999983150425872 0.0 -1.5229879151823518e-14 0.0 0.01 0.0 -1.5229879151823518e-14 0.0 0.010000036150196028 0.009999828004437477 0.0 -5.28191289998711e-14 0.0 0.01 0.0 -5.281912899945751e-14 0.0 0.010000042500270942 0.009999825004593616 0.0 -1.240566252028663e-13 0.0 0.01 0.0 -1.240566252028663e-13 0.0 0.010000039050228738 0.009999821004806009 0.0 -1.6779518201924364e-13 0.0 0.01 0.0 -1.6779518202255236e-13 0.0 0.010000028300120136 0.009999816505050685 0.0 -6.210855260452194e-14 0.0 0.01 0.0 -6.210855260493553e-14 0.0 0.010000019550057332 0.00999980350579165 0.0 -4.811010690163995e-15 0.0 0.01 0.0 -4.811010690112296e-15 0.0 0.010000020500063038 0.00999980200588041 0.0 -3.873373408644242e-15 0.0 0.01 0.0 -3.873373408644242e-15 0.0 0.010000031750151215 0.009999800505969842 0.0 -5.79384044608525e-15 0.0 0.01 0.0 -5.7938404460335516e-15 0.0 0.010000046400322947 0.009999797506150734 0.0 -3.231090313605981e-14 0.0 0.01 0.0 -3.231090313605981e-14 0.0 0.010000061500567347 0.00999979350639612 0.0 -1.3231531555508547e-13 0.0 0.01 0.0 -1.3231531555508547e-13 0.0 0.01000007225078302 0.009999789506646307 0.0 -3.244054535579498e-13 0.0 0.01 0.0 -3.244054535579498e-13 0.0 0.010000069800730815 0.00999978400699815 0.0 -4.505886345695253e-13 0.0 0.01 0.0 -4.5058863456621657e-13 0.0 0.010000050800387102 0.009999779007325885 0.0 -2.0836110020406073e-13 0.0 0.01 0.0 -2.0836110020406073e-13 0.0 0.010000031750151215 0.009999780507226774 0.0 -5.006999991704042e-15 0.0 0.01 0.0 -5.006999991652343e-15 0.0 0.010000031750151211 0.009999778507359065 0.0 1.1277309748506873e-16 0.0 0.01 0.0 1.1277309748506873e-16 0.0 0.0100000508003871 0.009999776007526119 0.0 -1.0480735361084e-15 0.0 0.01 0.0 -1.0480735361084e-15 0.0 0.010000075700859585 0.009999772507763146 0.0 -6.809697851952785e-14 0.0 0.01 0.0 -6.809697851952785e-14 0.0 0.010000101551546889 0.009999767508108125 0.0 -3.1589355926547765e-13 0.0 0.01 0.0 -3.1589355926547765e-13 0.0 0.010000120102163647 0.00999976300842502 0.0 -7.952604730788777e-13 0.0 0.01 0.0 -7.952604730788777e-13 0.0 0.010000118152093956 0.00999975800878425 0.0 -1.1254101763776542e-12 0.0 0.01 0.0 -1.1254101763842717e-12 0.0 0.010000090801236717 0.009999752009225222 0.0 -5.816722749557616e-13 0.0 0.01 0.0 -5.816722749557616e-13 0.0 0.010000058600515102 0.009999776507492559 0.0 -2.0477804432267853e-15 0.0 0.01 0.0 -2.0477804432267853e-15 0.0 0.010000047350336307 0.009999773507695047 0.0 1.4079516708933254e-14 0.0 0.01 0.0 1.4079516708881555e-14 0.0 0.010000079100938534 0.009999770507900237 0.0 1.3920131624671903e-14 0.0 0.01 0.0 1.3920131624671903e-14 0.0 0.0100001206021817 0.009999766508178026 0.0 -1.336475838103978e-13 0.0 0.01 0.0 -1.336475838103978e-13 0.0 0.010000163103990356 0.009999762508460604 0.0 -6.81598389766105e-13 0.0 0.01 0.0 -6.815983897694138e-13 0.0 0.010000192405552845 0.009999758008784247 0.0 -1.7351777197286488e-12 0.0 0.01 0.0 -1.7351777197220313e-12 0.0 0.010000193855636857 0.009999753009150975 0.0 -2.4734948616195597e-12 0.0 0.01 0.0 -2.47349486159309e-12 0.0 0.01000016455406162 0.009999748009525203 0.0 -1.3855524891328332e-12 0.0 0.01 0.0 -1.3855524891328332e-12 0.0 0.010000117702078036 0.009999798506090132 0.0 5.3239442269308904e-15 0.0 0.01 0.0 5.323944226879192e-15 0.0 0.010000070300741322 0.009999796006242187 0.0 3.990056618310668e-14 0.0 0.01 0.0 3.9900566183313476e-14 0.0 0.010000119652147461 0.009999792506458213 0.0 4.271440790962748e-14 0.0 0.01 0.0 4.271440790962748e-14 0.0 0.010000183605056497 0.009999789006677917 0.0 -2.455146847716547e-13 0.0 0.01 0.0 -2.4551468477000036e-13 0.0 0.010000248059229704 0.009999786006869158 0.0 -1.2807987620163349e-12 0.0 0.01 0.0 -1.2807987620163349e-12 0.0 0.01000029396296163 0.009999783007063095 0.0 -3.2308937682322743e-12 0.0 0.01 0.0 -3.2308937682322743e-12 0.0 0.010000305664014003 0.009999780507226776 0.0 -4.621936577717531e-12 0.0 0.01 0.0 -4.621936577704296e-12 0.0 0.010000291012702769 0.009999776507492559 0.0 -2.735935572806568e-12 0.0 0.01 0.0 -2.7359355727999504e-12 0.0 0.010000241708763189 0.00999985250326336 0.0 1.6215572429517643e-14 0.0 0.01 0.0 1.6215572429517643e-14 0.0 0.010000100601518081 0.009999850503352458 0.0 7.54121035239049e-14 0.0 0.01 0.0 7.541210352307772e-14 0.0 0.01000017235445581 0.009999847503488351 0.0 7.20983521342398e-14 0.0 0.01 0.0 7.20983521342398e-14 0.0 0.010000263660427158 0.009999845503580448 0.0 -3.9834755253181004e-13 0.0 0.01 0.0 -3.9834755253181004e-13 0.0 0.010000356469059626 0.009999844503626943 0.0 -2.0313263498787824e-12 0.0 0.01 0.0 -2.0313263498787824e-12 0.0 0.010000429227633873 0.009999843503673743 0.0 -5.0599038434152555e-12 0.0 0.01 0.0 -5.05990384342849e-12 0.0 0.010000473183583289 0.009999843503673743 0.0 -7.2532533925126955e-12 0.0 0.01 0.0 -7.2532533925126955e-12 0.0 0.010000510289056581 0.009999843003697256 0.0 -4.449737205694555e-12 0.0 0.01 0.0 -4.449737205694555e-12 0.0 0.01000048783569523 0.00999993650060483 0.0 2.5877878957430638e-14 0.0 0.01 0.0 2.5877878957430638e-14 0.0 0.010000135752764271 0.00999993550062403 0.0 1.0114984209079114e-13 0.0 0.01 0.0 1.0114984208996396e-13 0.0 0.010000234358238309 0.009999934500643534 0.0 8.806541422404051e-14 0.0 0.01 0.0 8.806541422404051e-14 0.0 0.010000358419268737 0.00999993450064353 0.0 -5.409029653849632e-13 0.0 0.01 0.0 -5.409029653849632e-13 0.0 0.010000485385337552 0.00999993550062403 0.0 -2.6474586797627114e-12 0.0 0.01 0.0 -2.6474586797627114e-12 0.0 0.010000597203493543 0.009999937000595344 0.0 -6.496537153692007e-12 0.0 0.01 0.0 -6.496537153678772e-12 0.0 0.010000706124784793 0.009999939500549036 0.0 -9.345534879128892e-12 0.0 0.01 0.0 -9.345534879155362e-12 0.0 0.010000859460788235 0.009999941500513334 0.0 -5.879820371914888e-12 0.0 0.01 0.0 -5.879820371928123e-12 0.0 0.010000908823879115 0.010000041500258341 0.0 2.7833340997486643e-14 0.0 0.01 0.0 2.7833340997486643e-14 0.0 0.010000173354507666 0.010000041500258343 0.0 1.0289300303938579e-13 0.0 0.01 0.0 1.0289300303938579e-13 0.0 0.01000030081357278 0.010000042500270938 0.0 7.771320623290882e-14 0.0 0.01 0.0 7.771320623290882e-14 0.0 0.010000459481666571 0.010000044450296371 0.0 -5.929831016617036e-13 0.0 0.01 0.0 -5.929831016617036e-13 0.0 0.010000624558506126 0.010000046850329243 0.0 -2.7785897447361885e-12 0.0 0.01 0.0 -2.778589744742806e-12 0.0 0.010000781341564655 0.010000051250393991 0.0 -6.719489995557788e-12 0.0 0.01 0.0 -6.719489995557788e-12 0.0 0.010000975742792524 0.01000005520045706 0.0 -9.634061423488073e-12 0.0 0.01 0.0 -9.634061423488073e-12 0.0 0.010001286398180476 0.01000005955053194 0.0 -6.178278015017438e-12 0.0 0.01 0.0 -6.17827801501082e-12 0.0 0.010001431457301852 0.01000015040339311 0.0 2.0693306015231436e-14 0.0 0.01 0.0 2.0693306015231436e-14 0.0 0.010000209956612082 0.010000150903415706 0.0 8.062062574614283e-14 0.0 0.01 0.0 8.062062574614283e-14 0.0 0.010000364769957595 0.010000152853504555 0.0 5.2277009614532043e-14 0.0 0.01 0.0 5.2277009614532043e-14 0.0 0.010000556196399722 0.010000156253662204 0.0 -5.175892411607718e-13 0.0 0.01 0.0 -5.175892411591174e-13 0.0 0.010000756935934128 0.010000159653823325 0.0 -2.347889594834535e-12 0.0 0.01 0.0 -2.3478895948279177e-12 0.0 0.010000955236854191 0.010000164054036973 0.0 -5.6103224121212454e-12 0.0 0.01 0.0 -5.610322412127863e-12 0.0 0.010001220423378636 0.010000169904330024 0.0 -8.007951226041339e-12 0.0 0.01 0.0 -8.007951226047956e-12 0.0 0.010001654710619487 0.010000175804635983 0.0 -5.22290228659088e-12 0.0 0.01 0.0 -5.222902286584262e-12 0.0 0.01000186672256791 0.010000239758622355 0.0 9.90461103710809e-15 0.0 0.01 0.0 9.90461105034298e-15 0.0 0.01000024120872697 0.010000241708763189 0.0 4.698971751973042e-14 0.0 0.01 0.0 4.698971751973042e-14 0.0 0.010000419476392592 0.01000024365890516 0.0 2.885026457081796e-14 0.0 0.01 0.0 2.8850264570611165e-14 0.0 0.010000640661561826 0.01000024755919253 0.0 -3.555227000156288e-13 0.0 0.01 0.0 -3.555227000156288e-13 0.0 0.010000871213838807 0.010000251009450544 0.0 -1.5961680167697275e-12 0.0 0.01 0.0 -1.596168016776345e-12 0.0 0.010001098330923124 0.010000255359780963 0.0 -3.802598091910561e-12 0.0 0.01 0.0 -3.802598091910561e-12 0.0 0.010001402144846405 0.010000260760199029 0.0 -5.405227154608226e-12 0.0 0.01 0.0 -5.405227154608226e-12 0.0 0.010001896539392853 0.010000266110621853 0.0 -3.5923876634882373e-12 0.0 0.01 0.0 -3.5923876634882373e-12 0.0 0.01000212372634052 0.010000294463005762 0.0 2.469540657032777e-15 0.0 0.01 0.0 2.469540657032777e-15 0.0 0.010000265610581975 0.01000029686321864 0.0 2.035662485134518e-14 0.0 0.01 0.0 2.0356624851551975e-14 0.0 0.01000046293214394 0.010000299313437743 0.0 1.350274622336097e-14 0.0 0.01 0.0 1.350274622341267e-14 0.0 0.010000706624890755 0.010000302763749329 0.0 -1.8641797390334508e-13 0.0 0.01 0.0 -1.8641797390334508e-13 0.0 0.01000095958810373 0.010000305664014005 0.0 -8.652385708425333e-13 0.0 0.01 0.0 -8.652385708441877e-13 0.0 0.010001205317883661 0.010000309564373923 0.0 -2.0833697216979532e-12 0.0 0.01 0.0 -2.083369721701262e-12 0.0 0.010001524298452047 0.010000313514743108 0.0 -2.9590780819358647e-12 0.0 0.01 0.0 -2.959078081932556e-12 0.0 0.01000203331999044 0.010000318365202815 0.0 -1.8700429988306975e-12 0.0 0.01 0.0 -1.8700429988340062e-12 0.0 0.010002248308006096 0.010000311064513568 0.0 -1.005567532423136e-15 0.0 0.01 0.0 -1.005567532423136e-15 0.0 0.010000283212030904 0.010000313514743108 0.0 5.7062218537933216e-15 0.0 0.01 0.0 5.7062218537933216e-15 0.0 0.010000493686556557 0.010000315464927093 0.0 5.647277591767414e-15 0.0 0.01 0.0 5.647277591767414e-15 0.0 0.010000752534937804 0.010000317865155098 0.0 -7.142529408196048e-14 0.0 0.01 0.0 -7.142529408196048e-14 0.0 0.01000102210668396 0.010000320315389638 0.0 -3.542178165278207e-13 0.0 0.01 0.0 -3.542178165282343e-13 0.0 0.01000127854515987 0.01000032376572296 0.0 -8.758620756619556e-13 0.0 0.01 0.0 -8.758620756611284e-13 0.0 0.010001601434606799 0.01000032616595694 0.0 -1.2257444751178912e-12 0.0 0.01 0.0 -1.225744475117064e-12 0.0 0.010002106115171374 0.010000329116246914 0.0 -6.392866269878845e-13 0.0 0.01 0.0 -6.392866269882981e-13 0.0 0.010002303045358452 0.010000296413178594 0.0 -1.0755922463584258e-15 0.0 0.01 0.0 -1.0755922447040645e-15 0.0 0.010000293962961624 0.010000298363352571 0.0 4.467812798132604e-16 0.0 0.01 0.0 4.467812798132604e-16 0.0 0.010000512239355686 0.010000300313527692 0.0 1.811282743599099e-15 0.0 0.01 0.0 1.811282743599099e-15 0.0 0.010000781341564657 0.01000030226370395 0.0 -1.6532361989750612e-14 0.0 0.01 0.0 -1.6532361989724762e-14 0.0 0.010001060718744775 0.010000304713927021 0.0 -9.440063660151146e-14 0.0 0.01 0.0 -9.440063660130466e-14 0.0 0.010001323512706524 0.01000030666410586 0.0 -2.42081001016705e-13 0.0 0.01 0.0 -2.4208100101629143e-13 0.0 0.01000164590626196 0.010000308614285832 0.0 -3.281174021018071e-13 0.0 0.01 0.0 -3.281174021018071e-13 0.0 0.010002142788534684 0.010000310564466944 0.0 -8.472166750284915e-14 0.0 0.01 0.0 -8.472166750284915e-14 0.0 0.010002322608926318 0.010000265160546145 0.0 -4.3614296720193037e-16 0.0 0.01 0.0 -4.3614296720193037e-16 0.0 0.010000298863397369 0.010000267610741943 0.0 -4.155442627616731e-16 0.0 0.01 0.0 -4.155442627616731e-16 0.0 0.010000520540641563 0.010000269060858671 0.0 -9.959609953972273e-18 0.0 0.01 0.0 -9.959609953972273e-18 0.0 0.010000794994792459 0.010000271011016647 0.0 -7.003758346846123e-16 0.0 0.01 0.0 -7.003758346846123e-16 0.0 0.010001079274699943 0.010000272461134855 0.0 -6.718171129827045e-15 0.0 0.01 0.0 -6.718171129827045e-15 0.0 0.010001345471495325 0.010000274411294823 0.0 -1.7959396725807608e-14 0.0 0.01 0.0 -1.7959396725807608e-14 0.0 0.010001666416449038 0.01000027491133602 0.0 -1.4938474270585293e-14 0.0 0.01 0.0 -1.4938474270585293e-14 0.0 0.010002157447986486 0.010000276361455928 0.0 4.421351188790359e-14 0.0 0.01 0.0 4.421351188785189e-14 0.0 0.010002326961960871 0.010000232408101778 0.0 1.5167224146363985e-16 0.0 0.01 0.0 1.5167224146363985e-16 0.0 0.010000299313437743 0.010000233908206702 0.0 2.9695959032411067e-16 0.0 0.01 0.0 2.9695959032411067e-16 0.0 0.010000522490946665 0.010000235858344112 0.0 2.387559190004224e-16 0.0 0.01 0.0 2.387559190004224e-16 0.0 0.01000079694525814 0.010000237308447027 0.0 -8.342885060573685e-16 0.0 0.01 0.0 -8.342885060573685e-16 0.0 0.010001082225656509 0.010000238758550576 0.0 -3.084950552170981e-15 0.0 0.01 0.0 -3.084950552170981e-15 0.0 0.010001348922889862 0.010000240258658356 0.0 -5.089346600732736e-15 0.0 0.01 0.0 -5.089346600732736e-15 0.0 0.010001668867674956 0.010000240708690822 0.0 -3.939284188732671e-15 0.0 0.01 0.0 -3.939284188732671e-15 0.0 0.010002155496724677 0.010000241208726968 0.0 8.824373389882495e-16 0.0 0.01 0.0 8.824373389882495e-16 0.0 0.010002322108577886 0.010000204106248734 0.0 4.176182623210396e-16 0.0 0.01 0.0 4.176182623210396e-16 0.0 0.010000296413178596 0.010000205106310117 0.0 1.5466129424953733e-15 0.0 0.01 0.0 1.5466129424953733e-15 0.0 0.010000517140112318 0.010000207056430678 0.0 1.6019718963551746e-15 0.0 0.01 0.0 1.6019718963551746e-15 0.0 0.01000079014363918 0.010000208506521066 0.0 -8.352917187363258e-15 0.0 0.01 0.0 -8.352917187363258e-15 0.0 0.010001072422488837 0.010000209456580625 0.0 -4.2180719532955065e-14 0.0 0.01 0.0 -4.2180719533006764e-14 0.0 0.01000133671797448 0.01000021095667522 0.0 -1.0008785260388924e-13 0.0 0.01 0.0 -1.0008785260388924e-13 0.0 0.010001656661588226 0.01000021190673548 0.0 -1.40071476067886e-13 0.0 0.01 0.0 -1.400714760677826e-13 0.0 0.010002145240110873 0.010000212406767307 0.0 -9.21630926852625e-14 0.0 0.01 0.0 -9.21630926852108e-14 0.0 0.010002315253811891 0.010000181154922448 0.0 6.360259015182324e-16 0.0 0.01 0.0 6.360259015182324e-16 0.0 0.010000290562663508 0.010000182154976946 0.0 3.3789078995058874e-15 0.0 0.01 0.0 3.3789078995058874e-15 0.0 0.010000505888385872 0.010000184105084079 0.0 3.1123724004469253e-15 0.0 0.01 0.0 3.1123724004469253e-15 0.0 0.0100007730396293 0.010000185555164484 0.0 -2.3340809585762977e-14 0.0 0.01 0.0 -2.3340809585762977e-14 0.0 0.010001049965340939 0.010000187005245513 0.0 -1.1636093807897337e-13 0.0 0.01 0.0 -1.1636093807897337e-13 0.0 0.010001309357117521 0.010000188005301768 0.0 -2.827187481188478e-13 0.0 0.01 0.0 -2.8271874811843423e-13 0.0 0.01000162439571351 0.010000188955355484 0.0 -3.9732425257210337e-13 0.0 0.01 0.0 -3.9732425257210337e-13 0.0 0.010002105664887018 0.010000189955412325 0.0 -2.4194549996664703e-13 0.0 0.01 0.0 -2.4194549996644024e-13 0.0 0.010002275676569947 0.010000160153847306 0.0 1.0414801776346634e-15 0.0 0.01 0.0 1.0414801776346634e-15 0.0 0.010000280761823637 0.010000162103941569 0.0 6.126535031620871e-15 0.0 0.01 0.0 6.126535031595022e-15 0.0 0.010000489785981196 0.01000016405403697 0.0 5.034967354094215e-15 0.0 0.01 0.0 5.034967354094215e-15 0.0 0.010000748133947288 0.010000165054086338 0.0 -4.7286509597295094e-14 0.0 0.01 0.0 -4.728650959739849e-14 0.0 0.010001015304605586 0.010000166504158452 0.0 -2.2839043304783995e-13 0.0 0.01 0.0 -2.2839043304783995e-13 0.0 0.010001267340882233 0.010000167954231197 0.0 -5.549804880086632e-13 0.0 0.01 0.0 -5.549804880086632e-13 0.0 0.010001571670444567 0.010000168954281735 0.0 -7.86643217944629e-13 0.0 0.01 0.0 -7.86643217944629e-13 0.0 0.010002038222983631 0.010000169454307121 0.0 -4.860544448532096e-13 0.0 0.01 0.0 -4.860544448540368e-13 0.0 0.010002202377356315 0.010000137202823643 0.0 1.419760009396407e-15 0.0 0.01 0.0 1.419760009396407e-15 0.0 0.01000026856081835 0.010000139152904479 0.0 9.135351315399979e-15 0.0 0.01 0.0 9.135351315399979e-15 0.0 0.010000468282891278 0.010000141102986453 0.0 6.992151210532563e-15 0.0 0.01 0.0 6.992151210532563e-15 0.0 0.010000714426553505 0.010000143053069569 0.0 -7.989336814812887e-14 0.0 0.01 0.0 -7.989336814812887e-14 0.0 0.010000971341507322 0.01000014500315383 0.0 -3.7071006691987176e-13 0.0 0.01 0.0 -3.7071006691987176e-13 0.0 0.01000121066982273 0.010000146953239227 0.0 -8.941248550374825e-13 0.0 0.01 0.0 -8.941248550374825e-13 0.0 0.01000150083780952 0.01000014795328346 0.0 -1.280901471116418e-12 0.0 0.01 0.0 -1.280901471115591e-12 0.0 0.010001943416383323 0.010000148953327999 0.0 -8.225545349134726e-13 0.0 0.01 0.0 -8.225545349134726e-13 0.0 0.010002097809936389 0.010000108901778916 0.0 1.969363124320097e-15 0.0 0.01 0.0 1.969363124320097e-15 0.0 0.010000253409632143 0.010000110851843193 0.0 1.2576156214734899e-14 0.0 0.01 0.0 1.2576156214734899e-14 0.0 0.010000441929293499 0.010000113751940898 0.0 7.762917632239712e-15 0.0 0.01 0.0 7.762917632239712e-15 0.0 0.01000067436820974 0.010000116702042875 0.0 -1.1485935590242704e-13 0.0 0.01 0.0 -1.1485935590242704e-13 0.0 0.010000916626015089 0.010000119152129552 0.0 -5.213624746644239e-13 0.0 0.01 0.0 -5.213624746652511e-13 0.0 0.010001142795867512 0.01000012160221803 0.0 -1.2567952725571965e-12 0.0 0.01 0.0 -1.2567952725571965e-12 0.0 0.010001413399598305 0.010000123552289736 0.0 -1.8048888557443099e-12 0.0 0.01 0.0 -1.8048888557443099e-12 0.0 0.010001826650375868 0.01000012550236259 0.0 -1.1789970779682339e-12 0.0 0.01 0.0 -1.1789970779674067e-12 0.0 0.01000196738043561 0.010000076150869838 0.0 2.6473467438340925e-15 0.0 0.01 0.0 2.6473467438340925e-15 0.0 0.010000236358379532 0.010000079100938536 0.0 1.555451488681436e-14 0.0 0.01 0.0 1.555451488671096e-14 0.0 0.01000041162541393 0.010000082501020953 0.0 8.232691010239271e-15 0.0 0.01 0.0 8.232691010239271e-15 0.0 0.010000628959333503 0.010000086451121055 0.0 -1.421456928505165e-13 0.0 0.01 0.0 -1.421456928509301e-13 0.0 0.010000854609541138 0.010000090351224488 0.0 -6.443336620747395e-13 0.0 0.01 0.0 -6.443336620747395e-13 0.0 0.010001064619988226 0.010000094251332482 0.0 -1.5650742705231773e-12 0.0 0.01 0.0 -1.565074270521523e-12 0.0 0.01000131325865195 0.01000009765143035 0.0 -2.257964131001978e-12 0.0 0.01 0.0 -2.2579641310036322e-12 0.0 0.01000169132899232 0.01000010060151808 0.0 -1.5109873914052811e-12 0.0 0.01 0.0 -1.5109873914052811e-12 0.0 0.010001816895046214 0.010000042000264603 0.0 2.4866103665707273e-15 0.0 0.01 0.0 2.4866103665707273e-15 0.0 0.010000217307083151 0.010000046400322947 0.0 1.4843366432809914e-14 0.0 0.01 0.0 1.4843366432809914e-14 0.0 0.010000378921536143 0.010000050800387102 0.0 8.111232391879373e-15 0.0 0.01 0.0 8.111232391879373e-15 0.0 0.01000057915030838 0.010000056150472928 0.0 -1.558845608617023e-13 0.0 0.01 0.0 -1.558845608621159e-13 0.0 0.010000786692823104 0.010000062500585943 0.0 -7.166761598293815e-13 0.0 0.01 0.0 -7.166761598293815e-13 0.0 0.010000978643642765 0.010000068350700764 0.0 -2.419463320269221e-12 0.0 0.01 0.0 -2.4194633202659122e-12 0.0 0.010001203817341545 0.010000073250804844 0.0 -5.242679395422604e-12 0.0 0.01 0.0 -5.2426793954159865e-12 0.0 0.010001543807427633 0.010000077650904441 0.0 -1.718333864984533e-12 0.0 0.01 0.0 -1.718333864984533e-12 0.0 0.010001652759651895 0.010000012200022326 0.0 1.6172662031318822e-15 0.0 0.01 0.0 1.6172662031318822e-15 0.0 0.010000198255895654 0.010000016100038884 0.0 1.309645724720479e-14 0.0 0.01 0.0 1.309645724720479e-14 0.0 0.010000345717927309 0.010000022450075603 0.0 6.6980828939684204e-15 0.0 0.01 0.0 6.6980828939684204e-15 0.0 0.010000527391718372 0.01000002980013321 0.0 -2.2990320257085583e-12 0.0 0.01 0.0 -2.299032025701941e-12 0.0 0.01000071587686462 0.010000038100217745 0.0 -2.5837274175585837e-11 0.0 0.01 0.0 -2.5837274175532897e-11 0.0 0.010000889268605737 0.01000004640032295 0.0 -7.658669765147565e-11 0.0 0.01 0.0 -7.658669765136977e-11 0.0 0.010001089528034841 0.01000005470044882 0.0 -9.408009140578677e-11 0.0 0.01 0.0 -9.408009140578677e-11 0.0 0.010001390890132496 0.010000061050559075 0.0 -1.7365020197973745e-12 0.0 0.01 0.0 -1.7365020197973745e-12 0.0 0.010001482279507758 0.00999998700002535 0.0 5.055851922208616e-16 0.0 0.01 0.0 5.055851922208616e-16 0.0 0.010000179704843957 0.009999992500008442 0.0 7.9695276081507e-15 0.0 0.01 0.0 7.9695276081507e-15 0.0 0.010000312514649203 0.010000000000000004 0.0 -3.8922123692088445e-12 0.0 0.01 0.0 -3.89221236919561e-12 0.0 0.010000477084139222 0.010000009750014261 0.0 -4.637747386844341e-11 0.0 0.01 0.0 -4.637747386844341e-11 0.0 0.010000645562507264 0.010000020000060008 0.0 -1.9385677335523096e-10 0.0 0.01 0.0 -1.9385677335523096e-10 0.0 0.010000800396084836 0.010000031750151238 0.0 -4.2185657108201e-10 0.0 0.01 0.0 -4.2185657108201e-10 0.0 0.010000977193217355 0.010000042950276736 0.0 -4.4897196702353557e-10 0.0 0.01 0.0 -4.4897196702353557e-10 0.0 0.010001237029498473 0.010000051750401714 0.0 1.7496281204584212e-12 0.0 0.01 0.0 1.7496281204584212e-12 0.0 0.01000130980729434 0.00999996900014415 0.0 -3.80940164107001e-16 0.0 0.01 0.0 -3.80940164107001e-16 0.0 0.0100001635540124 0.009999975000093753 0.0 -5.905994456596185e-13 0.0 0.01 0.0 -5.905994456596185e-13 0.0 0.01000028176190802 0.009999984500036042 0.0 -2.320737040656427e-11 0.0 0.01 0.0 -2.320737040656427e-11 0.0 0.01000042872756953 0.009999996000002407 0.0 -1.748985927826811e-10 0.0 0.01 0.0 -1.7489859278225757e-10 0.0 0.010000579150308386 0.01000000930001303 0.0 -6.094724488310002e-10 0.0 0.01 0.0 -6.094724488310002e-10 0.0 0.010000715426768055 0.010000023450082702 0.0 -1.1966657335984635e-09 0.0 0.01 0.0 -1.1966657335984635e-09 0.0 0.01000086876319953 0.010000036600201136 0.0 -1.1607517189011248e-09 0.0 0.01 0.0 -1.1607517189011248e-09 0.0 0.010001090528362082 0.01000004930036458 0.0 9.861512892800932e-11 0.0 0.01 0.0 9.86151289281152e-11 0.0 0.010001141295353537 0.009999956500283838 0.0 2.2229252116036785e-13 0.0 0.01 0.0 2.2229252115705913e-13 0.0 0.01000014940334814 0.009999964500189038 0.0 4.004543411597607e-12 0.0 0.01 0.0 4.004543411571137e-12 0.0 0.010000255859819304 0.00999997450009754 0.0 -3.384098912562338e-11 0.0 0.01 0.0 -3.38409891255175e-11 0.0 0.01000038477220631 0.009999988500019857 0.0 -3.428932552943282e-10 0.0 0.01 0.0 -3.4289325529517523e-10 0.0 0.010000517140112339 0.010000003400001954 0.0 -1.215174052951706e-09 0.0 0.01 0.0 -1.215174052951706e-09 0.0 0.010000635810633356 0.010000019550058126 0.0 -2.301825008234977e-09 0.0 0.01 0.0 -2.301825008234977e-09 0.0 0.01000076963884327 0.010000034650180713 0.0 -2.026636074735198e-09 0.0 0.01 0.0 -2.026636074738586e-09 0.0 0.010000953236282209 0.010000050800387123 0.0 4.0039077183840686e-10 0.0 0.01 0.0 4.0039077183840686e-10 0.0 0.010000977693363982 0.009999950500367536 0.0 4.995448177216614e-12 0.0 0.01 0.0 4.995448177216614e-12 0.0 0.010000139152904477 0.009999959500246035 0.0 4.8934002751640905e-11 0.0 0.01 0.0 4.893400275121739e-11 0.0 0.010000232908136678 0.009999970500130538 0.0 6.842455567460444e-11 0.0 0.01 0.0 6.84245556748162e-11 0.0 0.010000346718031176 0.009999984000038417 0.0 -3.5693826496492365e-10 0.0 0.01 0.0 -3.5693826496492365e-10 0.0 0.010000461481942889 0.009999999000000587 0.0 -1.7089257072094052e-09 0.0 0.01 0.0 -1.7089257072094052e-09 0.0 0.010000565948041388 0.010000016100040452 0.0 -3.2367727145326533e-09 0.0 0.01 0.0 -3.2367727145394295e-09 0.0 0.010000682219808802 0.010000034200176344 0.0 -2.4473737919469786e-09 0.0 0.01 0.0 -2.4473737919402023e-09 0.0 0.010000828703001818 0.010000055650464627 0.0 7.610284666344062e-10 0.0 0.01 0.0 7.610284666310181e-10 0.0 0.010000822351428247 0.009999950000374996 0.0 3.41397480961772e-11 0.0 0.01 0.0 3.41397480961772e-11 0.0 0.010000131352587977 0.009999959500246042 0.0 2.167023673728391e-10 0.0 0.01 0.0 2.167023673728391e-10 0.0 0.010000214856924334 0.009999969500139564 0.0 4.515008236803241e-10 0.0 0.01 0.0 4.515008236803241e-10 0.0 0.010000312514649229 0.0099999820000486 0.0 4.177412836881797e-11 0.0 0.01 0.0 4.177412836881797e-11 0.0 0.01000041162541393 0.00999999500000416 0.0 -1.655260472545534e-09 0.0 0.01 0.0 -1.6552604725523102e-09 0.0 0.010000503938090889 0.010000012200023863 0.0 -3.1995687603682916e-09 0.0 0.01 0.0 -3.199568760375068e-09 0.0 0.010000607955438515 0.010000035150185762 0.0 -1.7017903430342123e-09 0.0 0.01 0.0 -1.7017903430308241e-09 0.0 0.01000071782728444 0.010000066400661372 0.0 3.4756174413778685e-10 0.0 0.01 0.0 3.475617441369398e-10 0.0 0.010000675868513583 0.009999954000317399 0.0 1.5131609507735124e-10 0.0 0.01 0.0 1.5131609507565717e-10 0.0 0.010000127952455733 0.009999963500199898 0.0 6.428108825970154e-10 0.0 0.01 0.0 6.428108825936273e-10 0.0 0.01000020070604234 0.009999972000117848 0.0 1.280090944356905e-09 0.0 0.01 0.0 1.2800909443501287e-09 0.0 0.010000284212116264 0.009999980000060159 0.0 1.0362252702154537e-09 0.0 0.01 0.0 1.0362252702120656e-09 0.0 0.010000369170442178 0.00999999100001222 0.0 -6.730064863489185e-10 0.0 0.01 0.0 -6.730064863472244e-10 0.0 0.010000451680600531 0.010000009300013333 0.0 -1.5511071982394879e-09 0.0 0.01 0.0 -1.551107198242876e-09 0.0 0.010000546894861186 0.010000038550222919 0.0 8.898630566144474e-11 0.0 0.01 0.0 8.898630566123298e-11 0.0 0.010000619707600867 0.010000086901133739 0.0 -2.5597603745040973e-09 0.0 0.01 0.0 -2.5597603745040973e-09 0.0 0.010000542044069562 0.009999963500199868 0.0 4.862972536118161e-10 0.0 0.01 0.0 4.862972536152043e-10 0.0 0.010000126002381485 0.009999970000135326 0.0 1.4798656840968663e-09 0.0 0.01 0.0 1.4798656841104188e-09 0.0 0.010000188505330332 0.009999975500091062 0.0 2.616671359949828e-09 0.0 0.01 0.0 2.616671359949828e-09 0.0 0.010000259310086934 0.009999981000055181 0.0 2.620894425111827e-09 0.0 0.01 0.0 2.620894425111827e-09 0.0 0.010000331566490753 0.00999998950001682 0.0 1.3812750006620051e-09 0.0 0.01 0.0 1.3812750006620051e-09 0.0 0.010000408224996071 0.010000008800011909 0.0 1.3984325971013996e-09 0.0 0.01 0.0 1.3984325970980115e-09 0.0 0.01000049368655685 0.010000044450296525 0.0 1.0088252758496264e-09 0.0 0.01 0.0 1.0088252758530146e-09 0.0 0.010000526391560446 0.009999976000086631 0.0 1.2430759530990092e-09 0.0 0.01 0.0 1.2430759530854566e-09 0.0 0.010000126452398724 0.009999981000055355 0.0 2.8340831534335274e-09 0.0 0.01 0.0 2.8340831534335274e-09 0.0 0.010000179204818245 0.009999983000046198 0.0 4.355449274108308e-09 0.0 0.01 0.0 4.355449274081203e-09 0.0 0.010000238758553423 0.0099999840000416 0.0 4.6196576116081575e-09 0.0 0.01 0.0 4.6196576116081575e-09 0.0 0.010000301763661849 0.009999992000012229 0.0 4.190440756936535e-09 0.0 0.01 0.0 4.190440756936535e-09 0.0 0.010000374020985338 0.010000013200028421 0.0 3.903031441879895e-09 0.0 0.01 0.0 3.9030314418934476e-09 0.0 0.010000441929295783 0.01000005320042483 0.0 -1.3915142566857386e-09 0.0 0.01 0.0 -1.3915142566857386e-09 0.0 0.010000434578327399 0.00999999200001061 0.0 2.593873561714021e-09 0.0 0.01 0.0 2.593873561714021e-09 0.0 0.010000126002382459 0.009999993500009555 0.0 4.630211934242116e-09 0.0 0.01 0.0 4.630211934133696e-09 0.0 0.010000170404358764 0.009999992500014283 0.0 6.242556137921358e-09 0.0 0.01 0.0 6.242556137921358e-09 0.0 0.010000220707312385 0.009999992500015346 0.0 6.78774473796993e-09 0.0 0.01 0.0 6.787744737997035e-09 0.0 0.010000279311708729 0.010000001950007123 0.0 6.609060647849241e-09 0.0 0.01 0.0 6.609060647849241e-09 0.0 0.010000345717933859 0.0100000244000908 0.0 3.1589876365255808e-09 0.0 0.01 0.0 3.1589876365120282e-09 0.0 0.010000387222491525 0.010000008300013328 0.0 4.46713685026091e-09 0.0 0.01 0.0 4.4671368503693305e-09 0.0 0.010000124002309438 0.01000000685001347 0.0 6.548562439599552e-09 0.0 0.01 0.0 6.548562439545342e-09 0.0 0.010000163103996783 0.0100000053500139 0.0 8.001937982615292e-09 0.0 0.01 0.0 8.001937982561082e-09 0.0 0.010000207506468267 0.010000009300023888 0.0 8.530601549585834e-09 0.0 0.01 0.0 8.530601549640044e-09 0.0 0.010000262710363063 0.010000022450081518 0.0 6.280404717958583e-09 0.0 0.01 0.0 6.280404717931478e-09 0.0 0.010000316415023053 0.010000046850330789 0.0 -3.215515689719323e-09 0.0 0.01 0.0 -3.2155156897328754e-09 0.0 0.010000328616199131 0.010000024900099262 0.0 6.4599808784595106e-09 0.0 0.01 0.0 6.4599808784595106e-09 0.0 0.01000012255225908 0.010000023950096207 0.0 8.23420418807029e-09 0.0 0.01 0.0 8.23420418796187e-09 0.0 0.01000015675369585 0.01000002685012088 0.0 9.217205414928722e-09 0.0 0.01 0.0 9.217205414820302e-09 0.0 0.01000020020602495 0.010000035150194674 0.0 7.893150517739034e-09 0.0 0.01 0.0 7.893150517684824e-09 0.0 0.01000024950934727 0.010000050800387099 0.0 5.989367369559306e-11 0.0 0.01 0.0 5.989367369559306e-11 0.0 0.010000284662154421 0.010000044900312411 0.0 8.168408892859913e-09 0.0 0.01 0.0 8.168408892859913e-09 0.0 0.010000121102209833 0.010000049800385043 0.0 9.322626212129002e-09 0.0 0.01 0.0 9.322626212237423e-09 0.0 0.010000153803561293 0.010000058600525113 0.0 8.171500320472945e-09 0.0 0.01 0.0 8.171500320364525e-09 0.0 0.010000193355617828 0.010000067850690781 0.0 1.2424900446071467e-09 0.0 0.01 0.0 1.2424900446071467e-09 0.0 0.010000236358379757 0.010000075700871766 0.0 9.010566990892005e-09 0.0 0.01 0.0 9.010566990458324e-09 0.0 0.010000121102212007 0.010000085451104652 0.0 7.907843664611836e-09 0.0 0.01 0.0 7.907843664394995e-09 0.0 0.01000015285351394 0.01000009325130458 0.0 1.2248023210340193e-09 0.0 0.01 0.0 1.2248023210340193e-09 0.0 0.01000018800530199 0.010000100601546534 0.0 -1.3773736911876916e-08 0.0 0.01 0.0 -1.3773736911876916e-08 0.0 0.010000225107629244 0.010000109851816218 0.0 6.392934746250051e-09 0.0 0.01 0.0 6.392934746250051e-09 0.0 0.010000124002312578 0.010000110851843191 0.0 5.732066407254145e-11 0.0 0.01 0.0 5.7320664070847384e-11 0.0 0.010000154803594547 0.010000117702079406 0.0 -3.024097303084769e-09 0.0 0.01 0.0 -3.024097303084769e-09 0.0 0.010000132302626925 
