# vtk DataFile Version 3.0
Test VTK file for Force data
ASCII
DATASET POLYDATA
POINTS 2975 float
-0.22 0.0099999998 -0.38
-0.22 0.0099999998 -0.36000001
-0.2 0.0099999998 -0.40000001
-0.2 0.0099999998 -0.38
-0.2 0.0099999998 -0.36000001
-0.18000001 0.0099999998 -0.40000001
-0.18000001 0.0099999998 -0.38
-0.18000001 0.0099999998 -0.36000001
-0.16 0.0099999998 -0.40000001
-0.16 0.0099999998 -0.38
-0.16 0.0099999998 -0.36000001
-0.14 0.0099999998 -0.40000001
-0.14 0.0099999998 -0.38
-0.14 0.0099999998 -0.36000001
-0.12 0.0099999998 -0.40000001
-0.12 0.0099999998 -0.38
-0.12 0.0099999998 -0.36000001
-0.1 0.0099999998 -0.40000001
-0.1 0.0099999998 -0.38
-0.1 0.0099999998 -0.36000001
-0.079999998 0.0099999998 -0.40000001
-0.079999998 0.0099999998 -0.38
-0.079999998 0.0099999998 -0.36000001
-0.059999999000000005 0.0099999998 -0.40000001
-0.059999999000000005 0.0099999998 -0.38
-0.059999999000000005 0.0099999998 -0.36000001
-0.039999999 0.0099999998 -0.40000001
-0.039999999 0.0099999998 -0.38
-0.039999999 0.0099999998 -0.36000001
-0.02 0.0099999998 -0.40000001
-0.02 0.0099999998 -0.38
-0.02 0.0099999998 -0.36000001
0.0 0.0099999998 -0.40000001
0.0 0.0099999998 -0.38
0.0 0.0099999998 -0.36000001
0.02 0.0099999998 -0.40000001
0.02 0.0099999998 -0.38
0.02 0.0099999998 -0.36000001
0.039999999 0.0099999998 -0.40000001
0.039999999 0.0099999998 -0.38
0.039999999 0.0099999998 -0.36000001
0.059999999000000005 0.0099999998 -0.40000001
0.059999999000000005 0.0099999998 -0.38
0.059999999000000005 0.0099999998 -0.36000001
0.079999998 0.0099999998 -0.40000001
0.079999998 0.0099999998 -0.38
0.079999998 0.0099999998 -0.36000001
0.1 0.0099999998 -0.40000001
0.1 0.0099999998 -0.38
0.1 0.0099999998 -0.36000001
0.12 0.0099999998 -0.40000001
0.12 0.0099999998 -0.38
0.12 0.0099999998 -0.36000001
0.14 0.0099999998 -0.40000001
0.14 0.0099999998 -0.38
0.14 0.0099999998 -0.36000001
0.16 0.0099999998 -0.40000001
0.16 0.0099999998 -0.38
0.16 0.0099999998 -0.36000001
0.18000001 0.0099999998 -0.40000001
0.18000001 0.0099999998 -0.38
0.18000001 0.0099999998 -0.36000001
0.2 0.0099999998 -0.38
0.2 0.0099999998 -0.36000001
-0.22 0.0099999998 -0.34
-0.22 0.0099999998 -0.31999999
-0.22 0.0099999998 -0.30000001
-0.22 0.0099999998 -0.28
-0.22 0.0099999998 -0.25999999
-0.22 0.0099999998 -0.23999999
-0.22 0.0099999998 -0.22
-0.22 0.0099999998 -0.2
-0.2 0.0099999998 -0.34
-0.2 0.0099999998 -0.31999999
-0.2 0.0099999998 -0.30000001
-0.2 0.0099999998 -0.28
-0.2 0.0099999998 -0.25999999
-0.2 0.0099999998 -0.23999999
-0.2 0.0099999998 -0.22
-0.2 0.0099999998 -0.2
-0.18000001 0.0099999998 -0.34
-0.18000001 0.0099999998 -0.31999999
-0.18000001 0.0099999998 -0.30000001
-0.18000001 0.0099999998 -0.28
-0.18000001 0.0099999998 -0.25999999
-0.18000001 0.0099999998 -0.23999999
-0.18000001 0.0099999998 -0.22
-0.18000001 0.0099999998 -0.2
-0.16 0.0099999998 -0.34
-0.16 0.0099999998 -0.31999999
-0.16 0.0099999998 -0.30000001
-0.16 0.0099999998 -0.28
-0.16 0.0099999998 -0.25999999
-0.16 0.0099999998 -0.23999999
-0.16 0.0099999998 -0.22
-0.16 0.0099999998 -0.2
-0.14 0.0099999998 -0.34
-0.14 0.0099999998 -0.31999999
-0.14 0.0099999998 -0.30000001
-0.14 0.0099999998 -0.28
-0.14 0.0099999998 -0.25999999
-0.14 0.0099999998 -0.23999999
-0.14 0.0099999998 -0.22
-0.14 0.0099999998 -0.2
-0.12 0.0099999998 -0.34
-0.12 0.0099999998 -0.31999999
-0.12 0.0099999998 -0.30000001
-0.12 0.0099999998 -0.28
-0.12 0.0099999998 -0.25999999
-0.12 0.0099999998 -0.23999999
-0.12 0.0099999998 -0.22
-0.12 0.0099999998 -0.2
-0.1 0.0099999998 -0.34
-0.1 0.0099999998 -0.31999999
-0.1 0.0099999998 -0.30000001
-0.1 0.0099999998 -0.28
-0.1 0.0099999998 -0.25999999
-0.1 0.0099999998 -0.23999999
-0.1 0.0099999998 -0.22
-0.1 0.0099999998 -0.2
-0.079999998 0.0099999998 -0.34
-0.079999998 0.0099999998 -0.31999999
-0.079999998 0.0099999998 -0.30000001
-0.079999998 0.0099999998 -0.28
-0.079999998 0.0099999998 -0.25999999
-0.079999998 0.0099999998 -0.23999999
-0.079999998 0.0099999998 -0.22
-0.079999998 0.0099999998 -0.2
-0.059999999000000005 0.0099999998 -0.34
-0.059999999000000005 0.0099999998 -0.31999999
-0.059999999000000005 0.0099999998 -0.30000001
-0.059999999000000005 0.0099999998 -0.28
-0.059999999000000005 0.0099999998 -0.25999999
-0.059999999000000005 0.0099999998 -0.23999999
-0.059999999000000005 0.0099999998 -0.22
-0.059999999000000005 0.0099999998 -0.2
-0.039999999 0.0099999998 -0.34
-0.039999999 0.0099999998 -0.31999999
-0.039999999 0.0099999998 -0.30000001
-0.039999999 0.0099999998 -0.28
-0.039999999 0.0099999998 -0.25999999
-0.039999999 0.0099999998 -0.23999999
-0.039999999 0.0099999998 -0.22
-0.039999999 0.0099999998 -0.2
-0.02 0.0099999998 -0.34
-0.02 0.0099999998 -0.31999999
-0.02 0.0099999998 -0.30000001
-0.02 0.0099999998 -0.28
-0.02 0.0099999998 -0.25999999
-0.02 0.0099999998 -0.23999999
-0.02 0.0099999998 -0.22
-0.02 0.0099999998 -0.2
0.0 0.0099999998 -0.34
0.0 0.0099999998 -0.31999999
0.0 0.0099999998 -0.30000001
0.02 0.0099999998 -0.34
0.02 0.0099999998 -0.31999999
0.039999999 0.0099999998 -0.34
0.039999999 0.0099999998 -0.31999999
0.059999999000000005 0.0099999998 -0.34
0.059999999000000005 0.0099999998 -0.31999999
0.079999998 0.0099999998 -0.34
0.079999998 0.0099999998 -0.31999999
0.1 0.0099999998 -0.34
0.1 0.0099999998 -0.31999999
0.12 0.0099999998 -0.34
0.12 0.0099999998 -0.31999999
0.14 0.0099999998 -0.34
0.14 0.0099999998 -0.31999999
0.16 0.0099999998 -0.34
0.16 0.0099999998 -0.31999999
0.18000001 0.0099999998 -0.34
0.18000001 0.0099999998 -0.31999999
0.2 0.0099999998 -0.34
0.2 0.0099999998 -0.31999999
-0.22 0.0099999998 -0.18000001
-0.22 0.0099999998 -0.16
-0.22 0.0099999998 -0.14
-0.22 0.0099999998 -0.12
-0.22 0.0099999998 -0.1
-0.22 0.0099999998 -0.079999998
-0.22 0.0099999998 -0.059999999000000005
-0.22 0.0099999998 -0.039999999
-0.22 0.0099999998 -0.02
-0.2 0.0099999998 -0.18000001
-0.2 0.0099999998 -0.16
-0.2 0.0099999998 -0.14
-0.2 0.0099999998 -0.12
-0.2 0.0099999998 -0.1
-0.2 0.0099999998 -0.079999998
-0.2 0.0099999998 -0.059999999000000005
-0.2 0.0099999998 -0.039999999
-0.2 0.0099999998 -0.02
-0.18000001 0.0099999998 -0.18000001
-0.18000001 0.0099999998 -0.16
-0.18000001 0.0099999998 -0.14
-0.18000001 0.0099999998 -0.12
-0.18000001 0.0099999998 -0.1
-0.18000001 0.0099999998 -0.079999998
-0.18000001 0.0099999998 -0.059999999000000005
-0.18000001 0.0099999998 -0.039999999
-0.18000001 0.0099999998 -0.02
-0.16 0.0099999998 -0.18000001
-0.16 0.0099999998 -0.16
-0.16 0.0099999998 -0.14
-0.16 0.0099999998 -0.12
-0.16 0.0099999998 -0.1
-0.16 0.0099999998 -0.079999998
-0.16 0.0099999998 -0.059999999000000005
-0.16 0.0099999998 -0.039999999
-0.16 0.0099999998 -0.02
-0.14 0.0099999998 -0.18000001
-0.14 0.0099999998 -0.16
-0.14 0.0099999998 -0.14
-0.14 0.0099999998 -0.12
-0.14 0.0099999998 -0.1
-0.14 0.0099999998 -0.079999998
-0.14 0.0099999998 -0.059999999000000005
-0.14 0.0099999998 -0.039999999
-0.14 0.0099999998 -0.02
-0.12 0.0099999998 -0.18000001
-0.12 0.0099999998 -0.16
-0.12 0.0099999998 -0.14
-0.12 0.0099999998 -0.12
-0.12 0.0099999998 -0.1
-0.12 0.0099999998 -0.079999998
-0.12 0.0099999998 -0.059999999000000005
-0.12 0.0099999998 -0.039999999
-0.12 0.0099999998 -0.02
-0.1 0.0099999998 -0.18000001
-0.1 0.0099999998 -0.16
-0.1 0.0099999998 -0.14
-0.1 0.0099999998 -0.12
-0.1 0.0099999998 -0.1
-0.1 0.0099999998 -0.079999998
-0.1 0.0099999998 -0.059999999000000005
-0.1 0.0099999998 -0.039999999
-0.1 0.0099999998 -0.02
-0.079999998 0.0099999998 -0.18000001
-0.079999998 0.0099999998 -0.16
-0.079999998 0.0099999998 -0.14
-0.079999998 0.0099999998 -0.12
-0.079999998 0.0099999998 -0.1
-0.079999998 0.0099999998 -0.079999998
-0.079999998 0.0099999998 -0.059999999000000005
-0.079999998 0.0099999998 -0.039999999
-0.079999998 0.0099999998 -0.02
-0.059999999000000005 0.0099999998 -0.18000001
-0.059999999000000005 0.0099999998 -0.16
-0.059999999000000005 0.0099999998 -0.14
-0.059999999000000005 0.0099999998 -0.12
-0.059999999000000005 0.0099999998 -0.1
-0.059999999000000005 0.0099999998 -0.079999998
-0.059999999000000005 0.0099999998 -0.059999999000000005
-0.059999999000000005 0.0099999998 -0.039999999
-0.059999999000000005 0.0099999998 -0.02
-0.039999999 0.0099999998 -0.18000001
-0.039999999 0.0099999998 -0.16
-0.039999999 0.0099999998 -0.14
-0.039999999 0.0099999998 -0.12
-0.039999999 0.0099999998 -0.1
-0.039999999 0.0099999998 -0.079999998
-0.039999999 0.0099999998 -0.059999999000000005
-0.039999999 0.0099999998 -0.039999999
-0.039999999 0.0099999998 -0.02
-0.02 0.0099999998 -0.18000001
-0.02 0.0099999998 -0.16
-0.02 0.0099999998 -0.14
-0.02 0.0099999998 -0.12
-0.02 0.0099999998 -0.1
-0.02 0.0099999998 -0.079999998
-0.02 0.0099999998 -0.059999999000000005
-0.02 0.0099999998 -0.039999999
-0.02 0.0099999998 -0.02
-0.22 0.0099999998 0.0
-0.22 0.0099999998 0.02
-0.22 0.0099999998 0.039999999
-0.22 0.0099999998 0.059999999000000005
-0.22 0.0099999998 0.079999998
-0.22 0.0099999998 0.1
-0.22 0.0099999998 0.12
-0.22 0.0099999998 0.14
-0.2 0.0099999998 0.0
-0.2 0.0099999998 0.02
-0.2 0.0099999998 0.039999999
-0.2 0.0099999998 0.059999999000000005
-0.2 0.0099999998 0.079999998
-0.2 0.0099999998 0.1
-0.2 0.0099999998 0.12
-0.2 0.0099999998 0.14
-0.18000001 0.0099999998 0.0
-0.18000001 0.0099999998 0.02
-0.18000001 0.0099999998 0.039999999
-0.18000001 0.0099999998 0.059999999000000005
-0.18000001 0.0099999998 0.079999998
-0.18000001 0.0099999998 0.1
-0.18000001 0.0099999998 0.12
-0.18000001 0.0099999998 0.14
-0.16 0.0099999998 0.0
-0.16 0.0099999998 0.02
-0.16 0.0099999998 0.039999999
-0.16 0.0099999998 0.059999999000000005
-0.16 0.0099999998 0.079999998
-0.16 0.0099999998 0.1
-0.16 0.0099999998 0.12
-0.16 0.0099999998 0.14
-0.14 0.0099999998 0.0
-0.14 0.0099999998 0.02
-0.14 0.0099999998 0.039999999
-0.14 0.0099999998 0.059999999000000005
-0.14 0.0099999998 0.079999998
-0.14 0.0099999998 0.1
-0.14 0.0099999998 0.12
-0.14 0.0099999998 0.14
-0.12 0.0099999998 0.0
-0.12 0.0099999998 0.02
-0.12 0.0099999998 0.039999999
-0.12 0.0099999998 0.059999999000000005
-0.12 0.0099999998 0.079999998
-0.12 0.0099999998 0.1
-0.12 0.0099999998 0.12
-0.12 0.0099999998 0.14
-0.1 0.0099999998 0.0
-0.1 0.0099999998 0.02
-0.1 0.0099999998 0.039999999
-0.1 0.0099999998 0.059999999000000005
-0.1 0.0099999998 0.079999998
-0.1 0.0099999998 0.1
-0.1 0.0099999998 0.12
-0.1 0.0099999998 0.14
-0.079999998 0.0099999998 0.0
-0.079999998 0.0099999998 0.02
-0.079999998 0.0099999998 0.039999999
-0.079999998 0.0099999998 0.059999999000000005
-0.079999998 0.0099999998 0.079999998
-0.079999998 0.0099999998 0.1
-0.079999998 0.0099999998 0.12
-0.079999998 0.0099999998 0.14
-0.059999999000000005 0.0099999998 0.0
-0.059999999000000005 0.0099999998 0.02
-0.059999999000000005 0.0099999998 0.039999999
-0.059999999000000005 0.0099999998 0.059999999000000005
-0.059999999000000005 0.0099999998 0.079999998
-0.059999999000000005 0.0099999998 0.1
-0.059999999000000005 0.0099999998 0.12
-0.059999999000000005 0.0099999998 0.14
-0.039999999 0.0099999998 0.0
-0.039999999 0.0099999998 0.02
-0.039999999 0.0099999998 0.039999999
-0.039999999 0.0099999998 0.059999999000000005
-0.039999999 0.0099999998 0.079999998
-0.039999999 0.0099999998 0.1
-0.039999999 0.0099999998 0.12
-0.039999999 0.0099999998 0.14
-0.02 0.0099999998 0.0
-0.02 0.0099999998 0.02
-0.02 0.0099999998 0.039999999
-0.02 0.0099999998 0.059999999000000005
-0.02 0.0099999998 0.079999998
-0.02 0.0099999998 0.1
-0.02 0.0099999998 0.12
-0.02 0.0099999998 0.14
-0.22 0.0099999998 0.16
-0.22 0.0099999998 0.18000001
-0.22 0.0099999998 0.2
-0.22 0.0099999998 0.22
-0.22 0.0099999998 0.23999999
-0.22 0.0099999998 0.25999999
-0.22 0.0099999998 0.28
-0.22 0.0099999998 0.30000001
-0.22 0.0099999998 0.31999999
-0.2 0.0099999998 0.16
-0.2 0.0099999998 0.18000001
-0.2 0.0099999998 0.2
-0.2 0.0099999998 0.22
-0.2 0.0099999998 0.23999999
-0.2 0.0099999998 0.25999999
-0.2 0.0099999998 0.28
-0.2 0.0099999998 0.30000001
-0.2 0.0099999998 0.31999999
-0.18000001 0.0099999998 0.16
-0.18000001 0.0099999998 0.18000001
-0.18000001 0.0099999998 0.2
-0.18000001 0.0099999998 0.22
-0.18000001 0.0099999998 0.23999999
-0.18000001 0.0099999998 0.25999999
-0.18000001 0.0099999998 0.28
-0.18000001 0.0099999998 0.30000001
-0.18000001 0.0099999998 0.31999999
-0.16 0.0099999998 0.16
-0.16 0.0099999998 0.18000001
-0.16 0.0099999998 0.2
-0.16 0.0099999998 0.22
-0.16 0.0099999998 0.23999999
-0.16 0.0099999998 0.25999999
-0.16 0.0099999998 0.28
-0.16 0.0099999998 0.30000001
-0.16 0.0099999998 0.31999999
-0.14 0.0099999998 0.16
-0.14 0.0099999998 0.18000001
-0.14 0.0099999998 0.2
-0.14 0.0099999998 0.22
-0.14 0.0099999998 0.23999999
-0.14 0.0099999998 0.25999999
-0.14 0.0099999998 0.28
-0.14 0.0099999998 0.30000001
-0.14 0.0099999998 0.31999999
-0.12 0.0099999998 0.16
-0.12 0.0099999998 0.18000001
-0.12 0.0099999998 0.2
-0.12 0.0099999998 0.22
-0.12 0.0099999998 0.23999999
-0.12 0.0099999998 0.25999999
-0.12 0.0099999998 0.28
-0.12 0.0099999998 0.30000001
-0.12 0.0099999998 0.31999999
-0.1 0.0099999998 0.16
-0.1 0.0099999998 0.18000001
-0.1 0.0099999998 0.2
-0.1 0.0099999998 0.22
-0.1 0.0099999998 0.23999999
-0.1 0.0099999998 0.25999999
-0.1 0.0099999998 0.28
-0.1 0.0099999998 0.30000001
-0.1 0.0099999998 0.31999999
-0.079999998 0.0099999998 0.16
-0.079999998 0.0099999998 0.18000001
-0.079999998 0.0099999998 0.2
-0.079999998 0.0099999998 0.22
-0.079999998 0.0099999998 0.23999999
-0.079999998 0.0099999998 0.25999999
-0.079999998 0.0099999998 0.28
-0.079999998 0.0099999998 0.30000001
-0.079999998 0.0099999998 0.31999999
-0.059999999000000005 0.0099999998 0.16
-0.059999999000000005 0.0099999998 0.18000001
-0.059999999000000005 0.0099999998 0.2
-0.059999999000000005 0.0099999998 0.22
-0.059999999000000005 0.0099999998 0.23999999
-0.059999999000000005 0.0099999998 0.25999999
-0.059999999000000005 0.0099999998 0.28
-0.059999999000000005 0.0099999998 0.30000001
-0.059999999000000005 0.0099999998 0.31999999
-0.039999999 0.0099999998 0.16
-0.039999999 0.0099999998 0.18000001
-0.039999999 0.0099999998 0.2
-0.039999999 0.0099999998 0.22
-0.039999999 0.0099999998 0.23999999
-0.039999999 0.0099999998 0.25999999
-0.039999999 0.0099999998 0.28
-0.039999999 0.0099999998 0.30000001
-0.039999999 0.0099999998 0.31999999
-0.02 0.0099999998 0.16
-0.02 0.0099999998 0.18000001
-0.02 0.0099999998 0.2
-0.02 0.0099999998 0.22
-0.02 0.0099999998 0.23999999
-0.02 0.0099999998 0.25999999
-0.02 0.0099999998 0.28
-0.02 0.0099999998 0.30000001
-0.02 0.0099999998 0.31999999
0.0 0.0099999998 0.30000001
0.0 0.0099999998 0.31999999
0.02 0.0099999998 0.31999999
0.039999999 0.0099999998 0.31999999
0.059999999000000005 0.0099999998 0.31999999
0.079999998 0.0099999998 0.31999999
0.1 0.0099999998 0.31999999
0.12 0.0099999998 0.31999999
0.14 0.0099999998 0.31999999
0.16 0.0099999998 0.31999999
0.18000001 0.0099999998 0.31999999
0.2 0.0099999998 0.31999999
-0.22 0.0099999998 0.34
-0.22 0.0099999998 0.36000001
-0.22 0.0099999998 0.38
-0.2 0.0099999998 0.34
-0.2 0.0099999998 0.36000001
-0.2 0.0099999998 0.38
-0.2 0.0099999998 0.40000001
-0.18000001 0.0099999998 0.34
-0.18000001 0.0099999998 0.36000001
-0.18000001 0.0099999998 0.38
-0.18000001 0.0099999998 0.40000001
-0.16 0.0099999998 0.34
-0.16 0.0099999998 0.36000001
-0.16 0.0099999998 0.38
-0.16 0.0099999998 0.40000001
-0.14 0.0099999998 0.34
-0.14 0.0099999998 0.36000001
-0.14 0.0099999998 0.38
-0.14 0.0099999998 0.40000001
-0.12 0.0099999998 0.34
-0.12 0.0099999998 0.36000001
-0.12 0.0099999998 0.38
-0.12 0.0099999998 0.40000001
-0.1 0.0099999998 0.34
-0.1 0.0099999998 0.36000001
-0.1 0.0099999998 0.38
-0.1 0.0099999998 0.40000001
-0.079999998 0.0099999998 0.34
-0.079999998 0.0099999998 0.36000001
-0.079999998 0.0099999998 0.38
-0.079999998 0.0099999998 0.40000001
-0.059999999000000005 0.0099999998 0.34
-0.059999999000000005 0.0099999998 0.36000001
-0.059999999000000005 0.0099999998 0.38
-0.059999999000000005 0.0099999998 0.40000001
-0.039999999 0.0099999998 0.34
-0.039999999 0.0099999998 0.36000001
-0.039999999 0.0099999998 0.38
-0.039999999 0.0099999998 0.40000001
-0.02 0.0099999998 0.34
-0.02 0.0099999998 0.36000001
-0.02 0.0099999998 0.38
-0.02 0.0099999998 0.40000001
0.0 0.0099999998 0.34
0.0 0.0099999998 0.36000001
0.0 0.0099999998 0.38
0.0 0.0099999998 0.40000001
0.02 0.0099999998 0.34
0.02 0.0099999998 0.36000001
0.02 0.0099999998 0.38
0.02 0.0099999998 0.40000001
0.039999999 0.0099999998 0.34
0.039999999 0.0099999998 0.36000001
0.039999999 0.0099999998 0.38
0.039999999 0.0099999998 0.40000001
0.059999999000000005 0.0099999998 0.34
0.059999999000000005 0.0099999998 0.36000001
0.059999999000000005 0.0099999998 0.38
0.059999999000000005 0.0099999998 0.40000001
0.079999998 0.0099999998 0.34
0.079999998 0.0099999998 0.36000001
0.079999998 0.0099999998 0.38
0.079999998 0.0099999998 0.40000001
0.1 0.0099999998 0.34
0.1 0.0099999998 0.36000001
0.1 0.0099999998 0.38
0.1 0.0099999998 0.40000001
0.12 0.0099999998 0.34
0.12 0.0099999998 0.36000001
0.12 0.0099999998 0.38
0.12 0.0099999998 0.40000001
0.14 0.0099999998 0.34
0.14 0.0099999998 0.36000001
0.14 0.0099999998 0.38
0.14 0.0099999998 0.40000001
0.16 0.0099999998 0.34
0.16 0.0099999998 0.36000001
0.16 0.0099999998 0.38
0.16 0.0099999998 0.40000001
0.18000001 0.0099999998 0.34
0.18000001 0.0099999998 0.36000001
0.18000001 0.0099999998 0.38
0.18000001 0.0099999998 0.40000001
0.2 0.0099999998 0.34
0.2 0.0099999998 0.36000001
0.2 0.0099999998 0.38
1.92 0.0099999998 -0.36000001
1.92 0.0099999998 -0.34
1.92 0.0099999998 -0.31999999
1.9400001 0.0099999998 -0.38
1.9400001 0.0099999998 -0.36000001
1.9400001 0.0099999998 -0.34
1.9400001 0.0099999998 -0.31999999
1.9400001 0.0099999998 -0.30000001
1.9400001 0.0099999998 -0.28
1.9400001 0.0099999998 -0.25999999
1.9400001 0.0099999998 -0.23999999
1.9400001 0.0099999998 -0.22
1.96 0.0099999998 -0.38
1.96 0.0099999998 -0.36000001
1.96 0.0099999998 -0.34
1.96 0.0099999998 -0.31999999
1.96 0.0099999998 -0.30000001
1.96 0.0099999998 -0.28
1.96 0.0099999998 -0.25999999
1.96 0.0099999998 -0.23999999
1.96 0.0099999998 -0.22
1.96 0.0099999998 -0.2
1.96 0.0099999998 -0.18000001
1.96 0.0099999998 -0.16
1.96 0.0099999998 -0.14
1.96 0.0099999998 -0.12
1.98 0.0099999998 -0.38
1.98 0.0099999998 -0.36000001
1.98 0.0099999998 -0.34
1.98 0.0099999998 -0.31999999
1.98 0.0099999998 -0.30000001
1.98 0.0099999998 -0.28
1.98 0.0099999998 -0.25999999
1.98 0.0099999998 -0.23999999
1.98 0.0099999998 -0.22
1.98 0.0099999998 -0.2
1.98 0.0099999998 -0.18000001
1.98 0.0099999998 -0.16
1.98 0.0099999998 -0.14
1.98 0.0099999998 -0.12
1.98 0.0099999998 -0.1
1.98 0.0099999998 -0.079999998
1.98 0.0099999998 -0.059999999000000005
1.98 0.0099999998 -0.039999999
1.98 0.0099999998 -0.02
2.0 0.0099999998 -0.38
2.0 0.0099999998 -0.36000001
2.0 0.0099999998 -0.34
2.0 0.0099999998 -0.31999999
2.0 0.0099999998 -0.30000001
2.0 0.0099999998 -0.28
2.0 0.0099999998 -0.25999999
2.0 0.0099999998 -0.23999999
2.0 0.0099999998 -0.22
2.0 0.0099999998 -0.2
2.0 0.0099999998 -0.18000001
2.0 0.0099999998 -0.16
2.0 0.0099999998 -0.14
2.0 0.0099999998 -0.12
2.0 0.0099999998 -0.1
2.0 0.0099999998 -0.079999998
2.0 0.0099999998 -0.059999999000000005
2.0 0.0099999998 -0.039999999
2.0 0.0099999998 -0.02
2.0 0.0099999998 0.0
2.0 0.0099999998 0.02
2.0 0.0099999998 0.039999999
2.0 0.0099999998 0.059999999000000005
2.0 0.0099999998 0.079999998
2.02 0.0099999998 -0.40000001
2.02 0.0099999998 -0.38
2.02 0.0099999998 -0.36000001
2.02 0.0099999998 -0.34
2.02 0.0099999998 -0.31999999
2.02 0.0099999998 -0.30000001
2.02 0.0099999998 -0.28
2.02 0.0099999998 -0.25999999
2.02 0.0099999998 -0.23999999
2.02 0.0099999998 -0.22
2.02 0.0099999998 -0.2
2.02 0.0099999998 -0.18000001
2.02 0.0099999998 -0.16
2.02 0.0099999998 -0.14
2.02 0.0099999998 -0.12
2.02 0.0099999998 -0.1
2.02 0.0099999998 -0.079999998
2.02 0.0099999998 -0.059999999000000005
2.02 0.0099999998 -0.039999999
2.02 0.0099999998 -0.02
2.02 0.0099999998 0.0
2.02 0.0099999998 0.02
2.02 0.0099999998 0.039999999
2.02 0.0099999998 0.059999999000000005
2.02 0.0099999998 0.079999998
2.02 0.0099999998 0.1
2.02 0.0099999998 0.12
2.02 0.0099999998 0.14
2.02 0.0099999998 0.16
2.02 0.0099999998 0.18000001
2.04 0.0099999998 -0.40000001
2.04 0.0099999998 -0.38
2.04 0.0099999998 -0.36000001
2.04 0.0099999998 -0.34
2.04 0.0099999998 -0.31999999
2.04 0.0099999998 -0.30000001
2.04 0.0099999998 -0.28
2.04 0.0099999998 -0.25999999
2.04 0.0099999998 -0.23999999
2.04 0.0099999998 -0.22
2.04 0.0099999998 -0.2
2.04 0.0099999998 -0.18000001
2.04 0.0099999998 -0.16
2.04 0.0099999998 -0.14
2.04 0.0099999998 -0.12
2.04 0.0099999998 -0.1
2.04 0.0099999998 -0.079999998
2.04 0.0099999998 -0.059999999000000005
2.04 0.0099999998 -0.039999999
2.04 0.0099999998 -0.02
2.04 0.0099999998 0.0
2.04 0.0099999998 0.02
2.04 0.0099999998 0.039999999
2.04 0.0099999998 0.059999999000000005
2.04 0.0099999998 0.079999998
2.04 0.0099999998 0.1
2.04 0.0099999998 0.12
2.04 0.0099999998 0.14
2.04 0.0099999998 0.16
2.04 0.0099999998 0.18000001
2.04 0.0099999998 0.2
2.04 0.0099999998 0.22
2.04 0.0099999998 0.23999999
2.04 0.0099999998 0.25999999
2.04 0.0099999998 0.28
2.0599998999999998 0.0099999998 -0.40000001
2.0599998999999998 0.0099999998 -0.38
2.0599998999999998 0.0099999998 -0.36000001
2.0599998999999998 0.0099999998 -0.34
2.0599998999999998 0.0099999998 -0.31999999
2.0599998999999998 0.0099999998 -0.30000001
2.0599998999999998 0.0099999998 -0.28
2.0599998999999998 0.0099999998 -0.25999999
2.0599998999999998 0.0099999998 -0.23999999
2.0599998999999998 0.0099999998 -0.22
2.0599998999999998 0.0099999998 -0.2
2.0599998999999998 0.0099999998 -0.18000001
2.0599998999999998 0.0099999998 -0.16
2.0599998999999998 0.0099999998 -0.14
2.0599998999999998 0.0099999998 -0.12
2.0599998999999998 0.0099999998 -0.1
2.0599998999999998 0.0099999998 -0.079999998
2.0599998999999998 0.0099999998 -0.059999999000000005
2.0599998999999998 0.0099999998 -0.039999999
2.0599998999999998 0.0099999998 -0.02
2.0599998999999998 0.0099999998 0.0
2.0599998999999998 0.0099999998 0.02
2.0599998999999998 0.0099999998 0.039999999
2.0599998999999998 0.0099999998 0.059999999000000005
2.0599998999999998 0.0099999998 0.079999998
2.0599998999999998 0.0099999998 0.1
2.0599998999999998 0.0099999998 0.12
2.0599998999999998 0.0099999998 0.14
2.0599998999999998 0.0099999998 0.16
2.0599998999999998 0.0099999998 0.18000001
2.0599998999999998 0.0099999998 0.2
2.0599998999999998 0.0099999998 0.22
2.0599998999999998 0.0099999998 0.23999999
2.0599998999999998 0.0099999998 0.25999999
2.0599998999999998 0.0099999998 0.28
2.0599998999999998 0.0099999998 0.30000001
2.0599998999999998 0.0099999998 0.31999999
2.0599998999999998 0.0099999998 0.34
2.0599998999999998 0.0099999998 0.36000001
2.0599998999999998 0.0099999998 0.38
2.0799999 0.0099999998 -0.40000001
2.0799999 0.0099999998 -0.38
2.0799999 0.0099999998 -0.36000001
2.0799999 0.0099999998 -0.34
2.0799999 0.0099999998 -0.31999999
2.0799999 0.0099999998 -0.30000001
2.0799999 0.0099999998 -0.28
2.0799999 0.0099999998 -0.25999999
2.0799999 0.0099999998 -0.23999999
2.0799999 0.0099999998 -0.22
2.0799999 0.0099999998 -0.2
2.0799999 0.0099999998 -0.18000001
2.0799999 0.0099999998 -0.16
2.0799999 0.0099999998 -0.14
2.0799999 0.0099999998 -0.12
2.0799999 0.0099999998 -0.1
2.0799999 0.0099999998 -0.079999998
2.0799999 0.0099999998 -0.059999999000000005
2.0799999 0.0099999998 -0.039999999
2.0799999 0.0099999998 -0.02
2.0799999 0.0099999998 0.0
2.0799999 0.0099999998 0.02
2.0799999 0.0099999998 0.039999999
2.0799999 0.0099999998 0.059999999000000005
2.0799999 0.0099999998 0.079999998
2.0799999 0.0099999998 0.1
2.0799999 0.0099999998 0.12
2.0799999 0.0099999998 0.14
2.0799999 0.0099999998 0.16
2.0799999 0.0099999998 0.18000001
2.0799999 0.0099999998 0.2
2.0799999 0.0099999998 0.22
2.0799999 0.0099999998 0.23999999
2.0799999 0.0099999998 0.25999999
2.0799999 0.0099999998 0.28
2.0799999 0.0099999998 0.30000001
2.0799999 0.0099999998 0.31999999
2.0799999 0.0099999998 0.34
2.0799999 0.0099999998 0.36000001
2.0799999 0.0099999998 0.38
2.0799999 0.0099999998 0.40000001
2.0999999 0.0099999998 -0.40000001
2.0999999 0.0099999998 -0.38
2.0999999 0.0099999998 -0.36000001
2.0999999 0.0099999998 -0.34
2.0999999 0.0099999998 -0.31999999
2.0999999 0.0099999998 -0.30000001
2.0999999 0.0099999998 -0.28
2.0999999 0.0099999998 -0.25999999
2.0999999 0.0099999998 -0.23999999
2.0999999 0.0099999998 -0.22
2.0999999 0.0099999998 -0.2
2.0999999 0.0099999998 -0.18000001
2.0999999 0.0099999998 -0.16
2.0999999 0.0099999998 -0.14
2.0999999 0.0099999998 -0.12
2.0999999 0.0099999998 -0.1
2.0999999 0.0099999998 -0.079999998
2.0999999 0.0099999998 -0.059999999000000005
2.0999999 0.0099999998 -0.039999999
2.0999999 0.0099999998 -0.02
2.0999999 0.0099999998 0.0
2.0999999 0.0099999998 0.02
2.0999999 0.0099999998 0.039999999
2.0999999 0.0099999998 0.059999999000000005
2.0999999 0.0099999998 0.079999998
2.0999999 0.0099999998 0.1
2.0999999 0.0099999998 0.12
2.0999999 0.0099999998 0.14
2.0999999 0.0099999998 0.16
2.0999999 0.0099999998 0.18000001
2.0999999 0.0099999998 0.2
2.0999999 0.0099999998 0.22
2.0999999 0.0099999998 0.23999999
2.0999999 0.0099999998 0.25999999
2.0999999 0.0099999998 0.28
2.0999999 0.0099999998 0.30000001
2.0999999 0.0099999998 0.31999999
2.0999999 0.0099999998 0.34
2.0999999 0.0099999998 0.36000001
2.0999999 0.0099999998 0.38
2.0999999 0.0099999998 0.40000001
2.1199999 0.0099999998 -0.41999999
2.1199999 0.0099999998 -0.40000001
2.1199999 0.0099999998 -0.38
2.1199999 0.0099999998 -0.36000001
2.1199999 0.0099999998 -0.34
2.1199999 0.0099999998 -0.31999999
2.1199999 0.0099999998 -0.30000001
2.1199999 0.0099999998 -0.28
2.1199999 0.0099999998 -0.25999999
2.1199999 0.0099999998 -0.23999999
2.1199999 0.0099999998 -0.22
2.1199999 0.0099999998 -0.2
2.1199999 0.0099999998 -0.18000001
2.1199999 0.0099999998 -0.16
2.1199999 0.0099999998 -0.14
2.1199999 0.0099999998 -0.12
2.1199999 0.0099999998 -0.1
2.1199999 0.0099999998 -0.079999998
2.1199999 0.0099999998 -0.059999999000000005
2.1199999 0.0099999998 -0.039999999
2.1199999 0.0099999998 -0.02
2.1199999 0.0099999998 0.0
2.1199999 0.0099999998 0.02
2.1199999 0.0099999998 0.039999999
2.1199999 0.0099999998 0.059999999000000005
2.1199999 0.0099999998 0.079999998
2.1199999 0.0099999998 0.1
2.1199999 0.0099999998 0.12
2.1199999 0.0099999998 0.14
2.1199999 0.0099999998 0.16
2.1199999 0.0099999998 0.18000001
2.1199999 0.0099999998 0.2
2.1199999 0.0099999998 0.22
2.1199999 0.0099999998 0.23999999
2.1199999 0.0099999998 0.25999999
2.1199999 0.0099999998 0.28
2.1199999 0.0099999998 0.30000001
2.1199999 0.0099999998 0.31999999
2.1199999 0.0099999998 0.34
2.1199999 0.0099999998 0.36000001
2.1199999 0.0099999998 0.38
2.1199999 0.0099999998 0.40000001
2.1400001 0.0099999998 -0.38
2.1400001 0.0099999998 -0.36000001
2.1400001 0.0099999998 -0.34
2.1400001 0.0099999998 -0.31999999
2.1400001 0.0099999998 -0.30000001
2.1400001 0.0099999998 -0.28
2.1400001 0.0099999998 -0.25999999
2.1400001 0.0099999998 -0.23999999
2.1400001 0.0099999998 -0.22
2.1400001 0.0099999998 -0.2
2.1400001 0.0099999998 -0.18000001
2.1400001 0.0099999998 -0.16
2.1400001 0.0099999998 -0.14
2.1400001 0.0099999998 -0.12
2.1400001 0.0099999998 -0.1
2.1400001 0.0099999998 -0.079999998
2.1400001 0.0099999998 -0.059999999000000005
2.1400001 0.0099999998 -0.039999999
2.1400001 0.0099999998 -0.02
2.1400001 0.0099999998 0.0
2.1400001 0.0099999998 0.02
2.1400001 0.0099999998 0.039999999
2.1400001 0.0099999998 0.059999999000000005
2.1400001 0.0099999998 0.079999998
2.1400001 0.0099999998 0.1
2.1400001 0.0099999998 0.12
2.1400001 0.0099999998 0.14
2.1400001 0.0099999998 0.16
2.1400001 0.0099999998 0.18000001
2.1400001 0.0099999998 0.2
2.1400001 0.0099999998 0.22
2.1400001 0.0099999998 0.23999999
2.1400001 0.0099999998 0.25999999
2.1400001 0.0099999998 0.28
2.1400001 0.0099999998 0.30000001
2.1400001 0.0099999998 0.31999999
2.1400001 0.0099999998 0.34
2.1400001 0.0099999998 0.36000001
2.1400001 0.0099999998 0.38
2.1400001 0.0099999998 0.40000001
2.1600001 0.0099999998 -0.28
2.1600001 0.0099999998 -0.25999999
2.1600001 0.0099999998 -0.23999999
2.1600001 0.0099999998 -0.22
2.1600001 0.0099999998 -0.2
2.1600001 0.0099999998 -0.18000001
2.1600001 0.0099999998 -0.16
2.1600001 0.0099999998 -0.14
2.1600001 0.0099999998 -0.12
2.1600001 0.0099999998 -0.1
2.1600001 0.0099999998 -0.079999998
2.1600001 0.0099999998 -0.059999999000000005
2.1600001 0.0099999998 -0.039999999
2.1600001 0.0099999998 -0.02
2.1600001 0.0099999998 0.0
2.1600001 0.0099999998 0.02
2.1600001 0.0099999998 0.039999999
2.1600001 0.0099999998 0.059999999000000005
2.1600001 0.0099999998 0.079999998
2.1600001 0.0099999998 0.1
2.1600001 0.0099999998 0.12
2.1600001 0.0099999998 0.14
2.1600001 0.0099999998 0.16
2.1600001 0.0099999998 0.18000001
2.1600001 0.0099999998 0.2
2.1600001 0.0099999998 0.22
2.1600001 0.0099999998 0.23999999
2.1600001 0.0099999998 0.25999999
2.1600001 0.0099999998 0.28
2.1600001 0.0099999998 0.30000001
2.1600001 0.0099999998 0.31999999
2.1600001 0.0099999998 0.34
2.1600001 0.0099999998 0.36000001
2.1600001 0.0099999998 0.38
2.1600001 0.0099999998 0.40000001
2.1800001 0.0099999998 -0.18000001
2.1800001 0.0099999998 -0.16
2.1800001 0.0099999998 -0.14
2.1800001 0.0099999998 -0.12
2.1800001 0.0099999998 -0.1
2.1800001 0.0099999998 -0.079999998
2.1800001 0.0099999998 -0.059999999000000005
2.1800001 0.0099999998 -0.039999999
2.1800001 0.0099999998 -0.02
2.1800001 0.0099999998 0.0
2.1800001 0.0099999998 0.02
2.1800001 0.0099999998 0.039999999
2.1800001 0.0099999998 0.059999999000000005
2.1800001 0.0099999998 0.079999998
2.1800001 0.0099999998 0.1
2.1800001 0.0099999998 0.12
2.1800001 0.0099999998 0.14
2.1800001 0.0099999998 0.16
2.1800001 0.0099999998 0.18000001
2.1800001 0.0099999998 0.2
2.1800001 0.0099999998 0.22
2.1800001 0.0099999998 0.23999999
2.1800001 0.0099999998 0.25999999
2.1800001 0.0099999998 0.28
2.1800001 0.0099999998 0.30000001
2.1800001 0.0099999998 0.31999999
2.1800001 0.0099999998 0.34
2.1800001 0.0099999998 0.36000001
2.1800001 0.0099999998 0.38
2.1800001 0.0099999998 0.40000001
2.2 0.0099999998 -0.079999998
2.2 0.0099999998 -0.059999999000000005
2.2 0.0099999998 -0.039999999
2.2 0.0099999998 -0.02
2.2 0.0099999998 0.0
2.2 0.0099999998 0.02
2.2 0.0099999998 0.039999999
2.2 0.0099999998 0.059999999000000005
2.2 0.0099999998 0.079999998
2.2 0.0099999998 0.1
2.2 0.0099999998 0.12
2.2 0.0099999998 0.14
2.2 0.0099999998 0.16
2.2 0.0099999998 0.18000001
2.2 0.0099999998 0.2
2.2 0.0099999998 0.22
2.2 0.0099999998 0.23999999
2.2 0.0099999998 0.25999999
2.2 0.0099999998 0.28
2.2 0.0099999998 0.30000001
2.2 0.0099999998 0.31999999
2.2 0.0099999998 0.34
2.2 0.0099999998 0.36000001
2.2 0.0099999998 0.38
2.22 0.0099999998 0.02
2.22 0.0099999998 0.039999999
2.22 0.0099999998 0.059999999000000005
2.22 0.0099999998 0.079999998
2.22 0.0099999998 0.1
2.22 0.0099999998 0.12
2.22 0.0099999998 0.14
2.22 0.0099999998 0.16
2.22 0.0099999998 0.18000001
2.22 0.0099999998 0.2
2.22 0.0099999998 0.22
2.22 0.0099999998 0.23999999
2.22 0.0099999998 0.25999999
2.22 0.0099999998 0.28
2.22 0.0099999998 0.30000001
2.22 0.0099999998 0.31999999
2.22 0.0099999998 0.34
2.22 0.0099999998 0.36000001
2.22 0.0099999998 0.38
2.24 0.0099999998 0.12
2.24 0.0099999998 0.14
2.24 0.0099999998 0.16
2.24 0.0099999998 0.18000001
2.24 0.0099999998 0.2
2.24 0.0099999998 0.22
2.24 0.0099999998 0.23999999
2.24 0.0099999998 0.25999999
2.24 0.0099999998 0.28
2.24 0.0099999998 0.30000001
2.24 0.0099999998 0.31999999
2.24 0.0099999998 0.34
2.24 0.0099999998 0.36000001
2.24 0.0099999998 0.38
2.26 0.0099999998 0.22
2.26 0.0099999998 0.23999999
2.26 0.0099999998 0.25999999
2.26 0.0099999998 0.28
2.26 0.0099999998 0.30000001
2.26 0.0099999998 0.31999999
2.26 0.0099999998 0.34
2.26 0.0099999998 0.36000001
2.26 0.0099999998 0.38
2.28 0.0099999998 0.31999999
2.28 0.0099999998 0.34
2.28 0.0099999998 0.36000001
-1.0173615999999999e-05 0.0099999998 -0.28000402
-1.2458605e-05 0.0099999998 -0.26000389
-1.4410477e-05 0.0099999998 -0.24000357
-1.5960468e-05 0.0099999998 -0.22000313
-1.7116030000000002e-05 0.0099999998 -0.20000266
0.019990146 0.0099999998 -0.30000523
0.019986041 0.0099999998 -0.28000486
0.019982498 0.0099999998 -0.26000485
0.019979609 0.0099999998 -0.24000457
0.019977396 0.0099999998 -0.2200041
0.019975791 0.0099999998 -0.20000353
0.039986372 0.0099999998 -0.30000564
0.039980739 0.0099999998 -0.2800054
0.03997587 0.0099999998 -0.26000533
0.039971884 0.0099999998 -0.24000503
0.039968882000000004 0.0099999998 -0.22000459
0.03996674 0.0099999998 -0.20000401
0.059981737 0.0099999998 -0.30000585
0.059974354 0.0099999998 -0.28000548
0.059968084000000005 0.0099999998 -0.26000547
0.059962995 0.0099999998 -0.24000521
0.059959184000000006 0.0099999998 -0.2200048
0.059956506 0.0099999998 -0.20000421
0.07997634299999999 0.0099999998 -0.300006
0.079967044 0.0099999998 -0.28000543
0.07995931099999999 0.0099999998 -0.26000535
0.079953127 0.0099999998 -0.24000514
0.079948559 0.0099999998 -0.22000477
0.0799454 0.0099999998 -0.20000421
0.09997008 0.0099999998 -0.30000621
0.099958688 0.0099999998 -0.28000522
0.09994944900000001 0.0099999998 -0.26000509
0.0999422 0.0099999998 -0.24000487
0.099936947 0.0099999998 -0.22000454
0.099933371 0.0099999998 -0.20000404
0.11996271 0.0099999998 -0.30000672
0.11994903 0.0099999998 -0.28000507
0.11993826 0.0099999998 -0.26000473
0.11992998 0.0099999998 -0.24000449
0.11992408 0.0099999998 -0.22000425
0.11992013 0.0099999998 -0.20000383
0.1399539 0.0099999998 -0.30000773
0.13993776 0.0099999998 -0.28000522
0.13992545 0.0099999998 -0.26000455
0.13991611 0.0099999998 -0.24000421
0.1399096 0.0099999998 -0.22000405
0.13990533 0.0099999998 -0.20000373
0.15994298 0.0099999998 -0.30000892
0.15992457 0.0099999998 -0.28000569
0.1599108 0.0099999998 -0.26000479
0.15990037 0.0099999998 -0.24000432
0.15989323 0.0099999998 -0.2200042
0.1598887 0.0099999998 -0.20000395
0.17992871 0.0099999998 -0.30000898
0.17990901 0.0099999998 -0.28000626
0.17989394 0.0099999998 -0.26000538
0.17988253 0.0099999998 -0.24000499
0.17987478 0.0099999998 -0.22000492
0.17987004 0.0099999998 -0.20000476
0.19990994 0.0099999998 -0.30000779
0.19989029 0.0099999998 -0.28000671
0.19987443 0.0099999998 -0.26000628
0.19986227 0.0099999998 -0.2400063
0.19985408 0.0099999998 -0.22000642
0.19984922 0.0099999998 -0.20000634
0.21988909 0.0099999998 -0.30001172
0.21986826 0.0099999998 -0.2800093
0.21985199 0.0099999998 -0.26000857
0.21983932 0.0099999998 -0.24000868
0.21983087 0.0099999998 -0.22000891
0.21982607 0.0099999998 -0.20000891
0.23986486 0.0099999998 -0.30003008
0.23984286 0.0099999998 -0.28002122
0.23982602 0.0099999998 -0.2600157
0.23981324 0.0099999998 -0.24001375
0.23980492 0.0099999998 -0.2200132
0.23980032 0.0099999998 -0.20001285
0.25983346 0.0099999998 -0.3000465
0.25981218 0.0099999998 -0.28003636
0.2597957 0.0099999998 -0.26002723
0.25978354 0.0099999998 -0.24002223
0.25977588 0.0099999998 -0.22001991
0.25977165 0.0099999998 -0.20001833
0.27979603 0.0099999998 -0.30005807
0.27977628 0.0099999998 -0.28004882
0.2797612 0.0099999998 -0.26003936
0.27975032 0.0099999998 -0.24003264
0.27974349 0.0099999998 -0.22002845
0.27973977 0.0099999998 -0.20002528
0.29975536 0.0099999998 -0.30006763
0.29973748 0.0099999998 -0.28005928
0.29972368 0.0099999998 -0.26005057
0.29971385 0.0099999998 -0.24004322
0.29970768 0.0099999998 -0.22003765
0.29970437 0.0099999998 -0.20003308
0.31971371 0.0099999998 -0.30007696
0.31969681 0.0099999998 -0.2800689
0.31968361 0.0099999998 -0.2600607
0.31967413 0.0099999998 -0.24005321
0.31966823 0.0099999998 -0.22004682
0.31966525 0.0099999998 -0.20004123
0.33967143 0.0099999998 -0.30008653
0.33965409 0.0099999998 -0.28007844
0.33964053 0.0099999998 -0.26007023
0.33963084 0.0099999998 -0.24006265
0.33962488 0.0099999998 -0.22005571
0.33962205 0.0099999998 -0.20004936
0.35962719 0.0099999998 -0.30009663
0.35960826 0.0099999998 -0.28008813
0.35959363 0.0099999998 -0.26007959
0.35958338 0.0099999998 -0.24007177
0.35957718 0.0099999998 -0.22006436
0.35957444 0.0099999998 -0.20005731
0.37957919 0.0099999998 -0.30010733
0.37955821 0.0099999998 -0.2800982
0.3795422 0.0099999998 -0.26008907
0.3795312 0.0099999998 -0.24008082
0.37952474 0.0099999998 -0.22007285
0.37952206 0.0099999998 -0.20006511
0.39952651 0.0099999998 -0.3001186
0.39950329 0.0099999998 -0.28010869
0.3994858 0.0099999998 -0.26009884
0.39947394 0.0099999998 -0.24009
0.39946714 0.0099999998 -0.22008134
0.39946452 0.0099999998 -0.20007282
0.4194687 0.0099999998 -0.30013055
0.41944307 0.0099999998 -0.28011975
0.41942391 0.0099999998 -0.26010901
0.41941112 0.0099999998 -0.24009939
0.41940397 0.0099999998 -0.22008991
0.41940135 0.0099999998 -0.20008051
0.4394052 0.0099999998 -0.30014336
0.43937695 0.0099999998 -0.28013146
0.43935603 0.0099999998 -0.26011968
0.43934223 0.0099999998 -0.24010901
0.43933469 0.0099999998 -0.22009856
0.43933213 0.0099999998 -0.2000882
0.45933527 0.0099999998 -0.30015719
0.45930418 0.0099999998 -0.28014401
0.45928144 0.0099999998 -0.26013073
0.4592666 0.0099999998 -0.24011874
0.45925868 0.0099999998 -0.22010726
0.45925623 0.0099999998 -0.200096
0.47925761 0.0099999998 -0.30017245
0.47922373 0.0099999998 -0.28015745
0.4791992 0.0099999998 -0.26014212
0.47918341 0.0099999998 -0.2401285
0.47917524 0.0099999998 -0.22011612
0.47917306 0.0099999998 -0.20010419
0.49917039 0.0099999998 -0.30018952
0.49913421 0.0099999998 -0.28017208
0.49910828 0.0099999998 -0.26015377
0.49909183 0.0099999998 -0.24013841
0.49908376 0.0099999998 -0.2201256
0.49908206 0.0099999998 -0.20011345
0.51907098 0.0099999998 -0.30020908
0.51903403 0.0099999998 -0.28018823
0.5190078 0.0099999998 -0.26016605
0.51899141 0.0099999998 -0.24014924
0.51898384 0.0099999998 -0.22013679
0.51898295 0.0099999998 -0.20012498
0.53895688 0.0099999998 -0.30023211
0.53892231 0.0099999998 -0.28020686
0.53889763 0.0099999998 -0.26018003
0.53888249 0.0099999998 -0.24016267
0.53887606 0.0099999998 -0.22015147
0.53887624 0.0099999998 -0.20014054
0.55882818 0.0099999998 -0.30026013
0.55880046 0.0099999998 -0.28022972
0.55878001 0.0099999998 -0.26019809
0.55876762 0.0099999998 -0.24018128
0.55876303 0.0099999998 -0.22017218
0.5587644 0.0099999998 -0.20016201
0.57869005 0.0099999998 -0.30029574
0.57867402 0.0099999998 -0.28026021
0.57866037 0.0099999998 -0.26022419
0.57865208 0.0099999998 -0.24020815
0.57865012 0.0099999998 -0.22020106
0.57865244 0.0099999998 -0.20019078
0.59855413 0.0099999998 -0.30034333
0.59855247 0.0099999998 -0.28030407
0.5985474 0.0099999998 -0.26026464
0.59854323 0.0099999998 -0.24024585
0.59854293 0.0099999998 -0.22023715
0.59854621 0.0099999998 -0.20022532
0.61843574 0.0099999998 -0.30040967
0.61844599 0.0099999998 -0.28036988
0.6184451 0.0099999998 -0.26032436
0.61844414 0.0099999998 -0.24029569
0.61844647 0.0099999998 -0.22028045
0.61845076 0.0099999998 -0.20026344
0.638349 0.0099999998 -0.30049959
0.63836128 0.0099999998 -0.28046316
0.63836175 0.0099999998 -0.26041687
0.63836104 0.0099999998 -0.24036852
0.63836432 0.0099999998 -0.22033286
0.63837135 0.0099999998 -0.20030618
0.65830725 0.0099999998 -0.30060557
0.65831429 0.0099999998 -0.28057694
0.65831512 0.0099999998 -0.26054293
0.65831339 0.0099999998 -0.24048391
0.65831256 0.0099999998 -0.22041447
0.65831763 0.0099999998 -0.20036371
0.67834371 0.0099999998 -0.30070323
0.67832065 0.0099999998 -0.28068265
0.67831552 0.0099999998 -0.26066712
0.6783123 0.0099999998 -0.24062319
0.67830312 0.0099999998 -0.22053257
0.67830223 0.0099999998 -0.20045339
0.69861716 0.0099999998 -0.30077928
0.69845259 0.0099999998 -0.28076336
0.69839579 0.0099999998 -0.26076689
0.69838959 0.0099999998 -0.24075651
0.69837373 0.0099999998 -0.22068572
0.69836098 0.0099999998 -0.20059502
0.71908498 0.0099999998 -0.30083469
0.71891892 0.0099999998 -0.28081831
0.71876496 0.0099999998 -0.26082852
0.71865934 0.0099999998 -0.24084422
0.71860784 0.0099999998 -0.22081555
0.71858817 0.0099999998 -0.2007616
0.73945552 0.0099999998 -0.30087575
0.73935223 0.0099999998 -0.28085238
0.73925394 0.0099999998 -0.26084563
0.73917544 0.0099999998 -0.24084951
0.73912323 0.0099999998 -0.22082396
0.73909628 0.0099999998 -0.20077673
0.75969732 0.0099999998 -0.30090731
0.75964159 0.0099999998 -0.28087425
0.75959003 0.0099999998 -0.26084951
0.75954515 0.0099999998 -0.24083626
0.75951219 0.0099999998 -0.22080603
0.75949132 0.0099999998 -0.20075476
0.77985132 0.0099999998 -0.30092821
0.77983022 0.0099999998 -0.280889
0.77981234 0.0099999998 -0.26085716
0.77979481 0.0099999998 -0.24082533
0.77977973 0.0099999998 -0.22078601
0.77976799 0.0099999998 -0.20072787
0.79997993 0.0099999998 -0.30093849
0.799986 0.0099999998 -0.28089616
0.79999304 0.0099999998 -0.26086324
0.79999727 0.0099999998 -0.24082506
0.79999709 0.0099999998 -0.2207773
0.79999387 0.0099999998 -0.20071197
0.82013059 0.0099999998 -0.30093923
0.82016242 0.0099999998 -0.2808958
0.82019037 0.0099999998 -0.26086512
0.82021242 0.0099999998 -0.24083295
0.82022363 0.0099999998 -0.22078243
0.82022536 0.0099999998 -0.20070739
0.84031695 0.0099999998 -0.30092937
0.84037596 0.0099999998 -0.2808862
0.84042454 0.0099999998 -0.26085758
0.84046203 0.0099999998 -0.2408333
0.84048194 0.0099999998 -0.2207856
0.84048414 0.0099999998 -0.20070715
0.86052531 0.0099999998 -0.30091053
0.86061281 0.0099999998 -0.28086874
0.86068243 0.0099999998 -0.26084197
0.86073482 0.0099999998 -0.24082303
0.86076117 0.0099999998 -0.22077949
0.86076051 0.0099999998 -0.20070408
0.88073289 0.0099999998 -0.30088487
0.88084745 0.0099999998 -0.28084525
0.88093728 0.0099999998 -0.26081946
0.88100445 0.0099999998 -0.24080306
0.88103634 0.0099999998 -0.22076263
0.88103217 0.0099999998 -0.20069288
0.90092182 0.0099999998 -0.30085409
0.90105802 0.0099999998 -0.28081739
0.9011656 0.0099999998 -0.26079109
0.90124333 0.0099999998 -0.24077219
0.90128326 0.0099999998 -0.22073334
0.90127861 0.0099999998 -0.20067105
0.92108226 0.0099999998 -0.30081922
0.92123115 0.0099999998 -0.28078616
0.92135024 0.0099999998 -0.26075676
0.92143667 0.0099999998 -0.24073204
0.92148489 0.0099999998 -0.22069138
0.92147911 0.0099999998 -0.20063871
0.94121057 0.0099999998 -0.30078098
0.94136286 0.0099999998 -0.28075159
0.9414891 0.0099999998 -0.26071933
0.94158155 0.0099999998 -0.24068546
0.94161111 0.0099999998 -0.22064963
0.94157904 0.0099999998 -0.20060371
0.96131676 0.0099999998 -0.30073935
0.96146756 0.0099999998 -0.28071335
0.9615947 0.0099999998 -0.26067883
0.96166956 0.0099999998 -0.24064556
0.96166217 0.0099999998 -0.22061768
0.9616164 0.0099999998 -0.20056985
0.98141605 0.0099999998 -0.30069458
0.98156035 0.0099999998 -0.28067082
0.98167479 0.0099999998 -0.26063609
0.98171061 0.0099999998 -0.2406133
0.9816792 0.0099999998 -0.22058704
0.98162442 0.0099999998 -0.20053706
1.0015198 0.0099999998 -0.30064705
1.0016466 0.0099999998 -0.28062424
1.0017312 0.0099999998 -0.26059276
1.0017267 0.0099999998 -0.24057868
1.0016804 0.0099999998 -0.22055101
1.0016199000000001 0.0099999998 -0.20050457
1.0216364 0.0099999998 -0.30059776
1.0217321 0.0099999998 -0.28057405
1.021765 0.0099999998 -0.26054952
1.0217328 0.0099999998 -0.2405387
1.0216745999999999 0.0099999998 -0.22051315
1.0216098 0.0099999998 -0.20047346
1.0417762 0.0099999998 -0.30054742
1.0418167999999999 0.0099999998 -0.28052482
1.0417863 0.0099999998 -0.26050636
1.0417331 0.0099999998 -0.24049526
1.0416665 0.0099999998 -0.22047313
1.0415963 0.0099999998 -0.20043865
1.0619117 0.0099999998 -0.30050045
1.0618722 0.0099999998 -0.28048226
1.0618049999999999 0.0099999998 -0.26046365
1.0617317 0.0099999998 -0.24045199
1.061658 0.0099999998 -0.22043218
1.0615815 0.0099999998 -0.20040235
1.0819647 0.0099999998 -0.30045739
1.0819017 0.0099999998 -0.28044125
1.0818135 0.0099999998 -0.26041988
1.0817288 0.0099999998 -0.24040696
1.0816497999999999 0.0099999998 -0.22039118
1.0815668999999999 0.0099999998 -0.2003639
1.1019063999999998 0.0099999998 -0.28040236
1.1018112 0.0099999998 -0.26037675
1.1017237 0.0099999998 -0.24036035
1.1016411 0.0099999998 -0.22034763
1.1015538999999999 0.0099999998 -0.20032533
1.1218901000000001 0.0099999998 -0.28036758
1.1218045 0.0099999998 -0.26034093
1.1217158 0.0099999998 -0.24031709
1.1216321000000002 0.0099999998 -0.2203045
1.1215427 0.0099999998 -0.20028637
1.1417935 0.0099999998 -0.26031482
1.1417071 0.0099999998 -0.24028528
1.1416245 0.0099999998 -0.22026752
1.1415347 0.0099999998 -0.20025139
1.1617695 0.0099999998 -0.26029381
1.1617005 0.0099999998 -0.24026713
1.1616182 0.0099999998 -0.22024032
1.1615316 0.0099999998 -0.20022364
1.1816845 0.0099999998 -0.24025676
1.1816131 0.0099999998 -0.22022781
1.1815326000000002 0.0099999998 -0.20020655
1.2015988000000002 0.0099999998 -0.22022352
1.201534 0.0099999998 -0.20020139
1.2215465 0.0099999998 -0.22020949
1.2215183 0.0099999998 -0.20020051
-1.7932431e-05 0.0099999998 -0.18000221
-1.8483523e-05 0.0099999998 -0.16000178
-1.8824005e-05 0.0099999998 -0.14000142
-1.9011586e-05 0.0099999998 -0.1200011
-1.9099401e-05 0.0099999998 -0.10000082
-1.9123221e-05 0.0099999998 -0.080000602
-1.9113825999999998e-05 0.0099999998 -0.060000412
-1.9093095e-05 0.0099999998 -0.040000256
-1.907504e-05 0.0099999998 -0.020000122
0.019974684 0.0099999998 -0.18000294
0.019973968999999998 0.0099999998 -0.1600024
0.01997355 0.0099999998 -0.14000192
0.019973326 0.0099999998 -0.1200015
0.019973239 0.0099999998 -0.10000114
0.019973231 0.0099999998 -0.08000084
0.019973263 0.0099999998 -0.060000587
0.019973306 0.0099999998 -0.040000368
0.019973338 0.0099999998 -0.020000178
0.039965305 0.0099999998 -0.18000339
0.039964408 0.0099999998 -0.1600028
0.03996389 0.0099999998 -0.14000227
0.039963637 0.0099999998 -0.12000178
0.039963555 0.0099999998 -0.10000137
0.039963569 0.0099999998 -0.080001019
0.039963633 0.0099999998 -0.060000714000000004
0.039963703999999996 0.0099999998 -0.040000454
0.039963756 0.0099999998 -0.020000219
0.059954755 0.0099999998 -0.18000358
0.059953682 0.0099999998 -0.16000299
0.059953082000000005 0.0099999998 -0.14000243
0.059952807000000004 0.0099999998 -0.12000193
0.05995274 0.0099999998 -0.10000149
0.059952788 0.0099999998 -0.080001116
0.059952889 0.0099999998 -0.060000788
0.059952992999999996 0.0099999998 -0.040000502
0.059953067 0.0099999998 -0.020000245
0.079943374 0.0099999998 -0.1800036
0.079942159 0.0099999998 -0.16000301
0.07994150400000001 0.0099999998 -0.14000246
0.079941235 0.0099999998 -0.12000196
0.079941198 0.0099999998 -0.10000153
0.079941295 0.0099999998 -0.08000115299999999
0.079941444 0.0099999998 -0.060000822
0.079941586 0.0099999998 -0.040000523999999996
0.079941683 0.0099999998 -0.020000257
0.09993112800000001 0.0099999998 -0.18000349
0.09992981699999999 0.0099999998 -0.16000293
0.099929154 0.0099999998 -0.14000241
0.09992890800000001 0.0099999998 -0.12000195
0.09992893 0.0099999998 -0.10000153
0.09992908699999999 0.0099999998 -0.080001161
0.099929295 0.0099999998 -0.060000829000000006
0.09992948199999999 0.0099999998 -0.040000536
0.099929616 0.0099999998 -0.020000261999999998
0.11991773 0.0099999998 -0.18000337
0.11991637 0.0099999998 -0.16000287
0.11991573 0.0099999998 -0.1400024
0.11991555 0.0099999998 -0.12000195
0.11991566 0.0099999998 -0.10000155
0.1199159 0.0099999998 -0.080001183
0.11991617 0.0099999998 -0.060000859000000004
0.11991642 0.0099999998 -0.040000558
0.11991658 0.0099999998 -0.020000275
0.13990282 0.0099999998 -0.18000337
0.13990146 0.0099999998 -0.16000293
0.13990089 0.0099999998 -0.1400025
0.1399008 0.0099999998 -0.12000208
0.13990101 0.0099999998 -0.10000167
0.13990135 0.0099999998 -0.080001302
0.13990173 0.0099999998 -0.060000952
0.13990204 0.0099999998 -0.040000625
0.13990223 0.0099999998 -0.020000308999999997
0.15988611 0.0099999998 -0.18000367
0.15988481 0.0099999998 -0.16000329
0.15988435 0.0099999998 -0.14000288
0.15988441 0.0099999998 -0.12000243
0.15988475 0.0099999998 -0.100002
0.15988521 0.0099999998 -0.08000157
0.15988567 0.0099999998 -0.060001161
0.15988606 0.0099999998 -0.040000767
0.15988632 0.0099999998 -0.020000381
0.17986746 0.0099999998 -0.18000449
0.17986627 0.0099999998 -0.16000412
0.17986594 0.0099999998 -0.14000367
0.17986615 0.0099999998 -0.12000315
0.17986666 0.0099999998 -0.10000261
0.17986727 0.0099999998 -0.08000206900000001
0.17986785 0.0099999998 -0.060001541
0.17986833 0.0099999998 -0.04000102
0.17986864 0.0099999998 -0.02000051
0.19984671 0.0099999998 -0.18000607
0.19984566 0.0099999998 -0.16000563
0.19984551 0.0099999998 -0.14000504
0.19984591 0.0099999998 -0.12000434
0.19984658 0.0099999998 -0.10000361
0.19984736 0.0099999998 -0.080002867
0.19984807 0.0099999998 -0.060002133
0.19984865 0.0099999998 -0.040001418
0.19984904 0.0099999998 -0.020000705
0.21982369 0.0099999998 -0.18000855
0.21982281 0.0099999998 -0.16000791
0.21982284 0.0099999998 -0.14000706
0.21982343 0.0099999998 -0.12000608
0.21982431 0.0099999998 -0.10000505
0.21982525 0.0099999998 -0.080003999
0.21982613 0.0099999998 -0.060002979000000005
0.21982683 0.0099999998 -0.040001973999999996
0.21982728 0.0099999998 -0.020000985
0.23979813 0.0099999998 -0.18001206
0.23979746 0.0099999998 -0.16001104
0.23979768 0.0099999998 -0.14000979
0.23979849 0.0099999998 -0.1200084
0.23979957 0.0099999998 -0.10000695
0.23980072 0.0099999998 -0.080005512
0.23980175 0.0099999998 -0.0600041
0.23980258 0.0099999998 -0.040002715
0.23980311 0.0099999998 -0.020001352
0.25976974 0.0099999998 -0.18001674
0.25976929 0.0099999998 -0.16001505
0.25976974 0.0099999998 -0.14001322
0.25977078 0.0099999998 -0.12001128
0.25977209 0.0099999998 -0.10000933
0.25977343 0.0099999998 -0.08000739700000001
0.25977466 0.0099999998 -0.060005497000000005
0.25977561 0.0099999998 -0.040003639
0.25977623 0.0099999998 -0.020001814
0.27973819 0.0099999998 -0.18002254
0.27973801 0.0099999998 -0.16001993
0.27973872 0.0099999998 -0.14001735
0.27974001 0.0099999998 -0.12001473
0.27974156 0.0099999998 -0.10001215
0.27974313 0.0099999998 -0.080009617
0.27974454 0.0099999998 -0.060007144000000005
0.27974564 0.0099999998 -0.040004726000000004
0.27974632 0.0099999998 -0.020002352
0.29970315 0.0099999998 -0.18002915
0.29970327 0.0099999998 -0.16002554
0.29970431 0.0099999998 -0.14002207
0.29970586 0.0099999998 -0.12001866
0.29970768 0.0099999998 -0.10001535
0.2997095 0.0099999998 -0.080012128
0.29971111 0.0099999998 -0.060008999
0.29971233 0.0099999998 -0.040005956
0.29971313 0.0099999998 -0.020002965
0.31966433 0.0099999998 -0.18003623
0.31966481 0.0099999998 -0.16003159
0.31966615 0.0099999998 -0.14002718
0.31966802 0.0099999998 -0.12002294
0.31967014 0.0099999998 -0.10001884
0.3196722 0.0099999998 -0.080014892
0.31967399 0.0099999998 -0.060011062999999996
0.31967536 0.0099999998 -0.040007327
0.31967625 0.0099999998 -0.02000365
0.33962139 0.0099999998 -0.18004341
0.33962223 0.0099999998 -0.16003783
0.33962393 0.0099999998 -0.14003253
0.33962616 0.0099999998 -0.12002744
0.33962855 0.0099999998 -0.10002255
0.33963084 0.0099999998 -0.080017842
0.33963281 0.0099999998 -0.060013268
0.33963436 0.0099999998 -0.040008798
0.33963531 0.0099999998 -0.020004386000000002
0.35957408 0.0099999998 -0.18005055
0.35957524 0.0099999998 -0.1600441
0.3595773 0.0099999998 -0.14003794
0.35957983 0.0099999998 -0.12003204
0.35958251 0.0099999998 -0.10002636
0.35958505 0.0099999998 -0.080020875
0.35958722 0.0099999998 -0.060015541
0.35958889 0.0099999998 -0.0400103
0.35958993 0.0099999998 -0.020005133
0.37952194 0.0099999998 -0.18005756
0.37952343 0.0099999998 -0.1600503
0.37952584 0.0099999998 -0.14004333
0.3795287 0.0099999998 -0.12003662
0.37953165 0.0099999998 -0.10003015
0.37953442 0.0099999998 -0.080023892
0.37953678 0.0099999998 -0.060017783
0.37953857 0.0099999998 -0.040011793
0.3795397 0.0099999998 -0.020005878
0.39946464 0.0099999998 -0.18006445
0.39946645 0.0099999998 -0.16005637
0.39946923 0.0099999998 -0.14004858
0.39947242 0.0099999998 -0.12004108
0.39947563 0.0099999998 -0.10003384
0.39947861 0.0099999998 -0.08002682
0.39948115 0.0099999998 -0.060019974000000004
0.39948305 0.0099999998 -0.04001325
0.39948425 0.0099999998 -0.020006606
0.41940174 0.0099999998 -0.18007125
0.41940394 0.0099999998 -0.1600623
0.41940707 0.0099999998 -0.14005369
0.41941056 0.0099999998 -0.12004539
0.41941407 0.0099999998 -0.1000374
0.41941726 0.0099999998 -0.080029659
0.41941994 0.0099999998 -0.060022108
0.41942197 0.0099999998 -0.040014677
0.41942322 0.0099999998 -0.020007323
0.43933284 0.0099999998 -0.18007801
0.43933544 0.0099999998 -0.16006817
0.43933898 0.0099999998 -0.14005873
0.43934286 0.0099999998 -0.12004966
0.43934664 0.0099999998 -0.10004094
0.43935004 0.0099999998 -0.080032498
0.4393529 0.0099999998 -0.06002425
0.43935502 0.0099999998 -0.040016117999999996
0.43935636 0.0099999998 -0.020008046
0.45925736 0.0099999998 -0.18008494
0.45926046 0.0099999998 -0.16007425
0.45926452 0.0099999998 -0.140064
0.45926881 0.0099999998 -0.12005416
0.45927292 0.0099999998 -0.10004468
0.45927656 0.0099999998 -0.080035515
0.45927957 0.0099999998 -0.060026540999999996
0.4592818 0.0099999998 -0.040017672000000004
0.4592832 0.0099999998 -0.02000883
0.47917476 0.0099999998 -0.18009248
0.47917852 0.0099999998 -0.16008106
0.47918314 0.0099999998 -0.14007001
0.47918794 0.0099999998 -0.12005934
0.47919241 0.0099999998 -0.10004903
0.47919634 0.0099999998 -0.080039039
0.47919953 0.0099999998 -0.060029227000000004
0.47920188 0.0099999998 -0.040019486
0.47920334 0.0099999998 -0.020009751
0.49908447 0.0099999998 -0.18010142
0.49908897 0.0099999998 -0.16008945
0.49909434 0.0099999998 -0.14007759
0.4990997 0.0099999998 -0.12006593
0.49910465 0.0099999998 -0.10005457
0.49910888 0.0099999998 -0.080043495
0.49911228 0.0099999998 -0.060032602000000004
0.49911478 0.0099999998 -0.040021766
0.4991163 0.0099999998 -0.0200109
0.51898623 0.0099999998 -0.18011299
0.51899159 0.0099999998 -0.16010053
0.51899767 0.0099999998 -0.14008771
0.51900375 0.0099999998 -0.12007477
0.51900917 0.0099999998 -0.10006196
0.51901376 0.0099999998 -0.08004941
0.5190174 0.0099999998 -0.060037039
0.51902008 0.0099999998 -0.040024731
0.51902175 0.0099999998 -0.020012394
0.53888047 0.0099999998 -0.18012859
0.53888667 0.0099999998 -0.16011545
0.53889352 0.0099999998 -0.14010136
0.5389002 0.0099999998 -0.12008665
0.53890616 0.0099999998 -0.10007185
0.53891116 0.0099999998 -0.080057263
0.53891516 0.0099999998 -0.060042895
0.53891802 0.0099999998 -0.040028617
0.53891975 0.0099999998 -0.020014323
0.55876946 0.0099999998 -0.18014972
0.55877626 0.0099999998 -0.16013534
0.55878365 0.0099999998 -0.14011934
0.5587908 0.0099999998 -0.12010226
0.55879724 0.0099999998 -0.10008483
0.55880266 0.0099999998 -0.080067553
0.55880702 0.0099999998 -0.060050528
0.55881011 0.0099999998 -0.040033657
0.55881202 0.0099999998 -0.02001683
0.57865793 0.0099999998 -0.1801772
0.57866484 0.0099999998 -0.16016056
0.57867235 0.0099999998 -0.1401417
0.57867974 0.0099999998 -0.1201215
0.57868654 0.0099999998 -0.10010072
0.57869232 0.0099999998 -0.080080077
0.57869697 0.0099999998 -0.060059800999999996
0.5787003 0.0099999998 -0.040039793
0.57870239 0.0099999998 -0.020019893
0.59855193 0.0099999998 -0.18020937
0.59855908 0.0099999998 -0.16019014
0.59856671 0.0099999998 -0.1401682
0.59857422 0.0099999998 -0.1201443
0.59858114 0.0099999998 -0.10011952
0.59858721 0.0099999998 -0.080094889
0.5985921 0.0099999998 -0.060070772
0.59859574 0.0099999998 -0.040047076
0.598598 0.0099999998 -0.020023534
0.61845773 0.0099999998 -0.1802444
0.6184656 0.0099999998 -0.16022249
0.61847329 0.0099999998 -0.14019719
0.61848086 0.0099999998 -0.12016931
0.61848783 0.0099999998 -0.10014037
0.61849403 0.0099999998 -0.080111563
0.61849928 0.0099999998 -0.060083225
0.61850321 0.0099999998 -0.040055361
0.61850566 0.0099999998 -0.020027701000000002
0.63838035 0.0099999998 -0.18028177
0.63838869 0.0099999998 -0.16025592
0.63839626 0.0099999998 -0.14022662
0.63840359 0.0099999998 -0.1201947
0.63841063 0.0099999998 -0.10016147
0.63841718 0.0099999998 -0.080128238
0.63842273 0.0099999998 -0.060095631
0.63842696 0.0099999998 -0.040063612
0.63842952 0.0099999998 -0.0200318
0.65832573 0.0099999998 -0.18032651
0.65833366 0.0099999998 -0.16029356
0.65834069 0.0099999998 -0.1402591
0.65834743 0.0099999998 -0.12022183
0.65835404 0.0099999998 -0.10018354
0.65836048 0.0099999998 -0.080145791
0.6583662 0.0099999998 -0.060108997000000004
0.65837055 0.0099999998 -0.040072665
0.65837324 0.0099999998 -0.020036336000000002
0.67830783 0.0099999998 -0.180398
0.67831397 0.0099999998 -0.16035327
0.67831886 0.0099999998 -0.14031021
0.67832345 0.0099999998 -0.12026562
0.67832851 0.0099999998 -0.1002206
0.67833376 0.0099999998 -0.080176562
0.67833853 0.0099999998 -0.060133255999999996
0.67834216 0.0099999998 -0.040089883
0.67834431 0.0099999998 -0.020045435
0.698358 0.0099999998 -0.18051949
0.69835728 0.0099999998 -0.16045707
0.69835478 0.0099999998 -0.1403974
0.69835228 0.0099999998 -0.12033847
0.69835234 0.0099999998 -0.1002818
0.69835407 0.0099999998 -0.080227114
0.69835603 0.0099999998 -0.060172521
0.69835752 0.0099999998 -0.040116802
0.69835836 0.0099999998 -0.020059092
0.7185778 0.0099999998 -0.18069454
0.71857178 0.0099999998 -0.16062523
0.71856457 0.0099999998 -0.14054817
0.71855789 0.0099999998 -0.12046646
0.71855468 0.0099999998 -0.10038619
0.7185545 0.0099999998 -0.080309264
0.71855575 0.0099999998 -0.060234416
0.71855754 0.0099999998 -0.040158778
0.71855903 0.0099999998 -0.020080493999999997
0.73908317 0.0099999998 -0.18071145
0.73907399 0.0099999998 -0.16064265
0.73906571 0.0099999998 -0.14056507
0.73905867 0.0099999998 -0.12048163
0.73905325 0.0099999998 -0.10040056
0.73904961 0.0099999998 -0.080322906
0.73904759 0.0099999998 -0.060246237
0.73904675 0.0099999998 -0.040167529
0.73904657 0.0099999998 -0.020085162
0.75947791 0.0099999998 -0.18068998
0.75946641 0.0099999998 -0.1606278
0.75945568 0.0099999998 -0.14055631
0.75944591 0.0099999998 -0.12047777
0.75943756 0.0099999998 -0.10040022
0.75943089 0.0099999998 -0.080324769
0.75942612 0.0099999998 -0.060249057
0.75942296 0.0099999998 -0.04017017
0.75942129 0.0099999998 -0.020086728
0.77975863 0.0099999998 -0.18066666
0.77974963 0.0099999998 -0.1606099
0.77974051 0.0099999998 -0.14054303
0.77973157 0.0099999998 -0.12046822
0.77972329 0.0099999998 -0.10039364
0.77971613 0.0099999998 -0.080320522
0.77971053 0.0099999998 -0.060246575999999996
0.77970654 0.0099999998 -0.040168911
0.77970421 0.0099999998 -0.020086229
0.79998916 0.0099999998 -0.18065085
0.79998356 0.0099999998 -0.1605961
0.79997724 0.0099999998 -0.14053114
0.79997057 0.0099999998 -0.12045798
0.79996395 0.0099999998 -0.10038497
0.79995787 0.0099999998 -0.08031350400000001
0.79995286 0.0099999998 -0.060241315999999996
0.79994917 0.0099999998 -0.040165436
0.7999469 0.0099999998 -0.020084508
0.82022238 0.0099999998 -0.18064377
0.82021785 0.0099999998 -0.1605882
0.82021296 0.0099999998 -0.14052284
0.82020789 0.0099999998 -0.12044948
0.82020289 0.0099999998 -0.10037671
0.8201983 0.0099999998 -0.08030607599999999
0.82019448 0.0099999998 -0.060235262000000005
0.82019156 0.0099999998 -0.04016117
0.82018971 0.0099999998 -0.020082311999999998
0.84047842 0.0099999998 -0.18064119
0.84047139 0.0099999998 -0.16058382
0.84046513 0.0099999998 -0.14051701
0.84045988 0.0099999998 -0.12044264
0.84045553 0.0099999998 -0.10036948
0.84045196 0.0099999998 -0.08029921400000001
0.84044909 0.0099999998 -0.060229447
0.84044701 0.0099999998 -0.040156946
0.8404457 0.0099999998 -0.020080083999999998
0.86074859 0.0099999998 -0.1806373
0.86073589 0.0099999998 -0.16057856
0.86072582 0.0099999998 -0.14051059
0.86071855 0.0099999998 -0.12043555
0.86071348 0.0099999998 -0.10036232
0.86070997 0.0099999998 -0.080292568
0.86070758 0.0099999998 -0.060223862999999996
0.86070591 0.0099999998 -0.040152896
0.86070496 0.0099999998 -0.020077944
0.88101262 0.0099999998 -0.18062712
0.88099283 0.0099999998 -0.16056818
0.88097769 0.0099999998 -0.14050025
0.8809672 0.0099999998 -0.12042578
0.8809604 0.0099999998 -0.10035349
0.88095611 0.0099999998 -0.080284983
0.88095349 0.0099999998 -0.060217797999999996
0.88095182 0.0099999998 -0.04014862
0.88095093 0.0099999998 -0.020075724
0.90125233 0.0099999998 -0.18060786
0.90122598 0.0099999998 -0.16055004
0.90120578 0.0099999998 -0.14048369
0.90119171 0.0099999998 -0.12041132
0.90118241 0.0099999998 -0.10034133
0.90117657 0.0099999998 -0.080275163
0.90117294 0.0099999998 -0.060210306
0.90117073 0.0099999998 -0.040143523
0.90116954 0.0099999998 -0.020073127
0.92144167 0.0099999998 -0.18057957
0.92140454 0.0099999998 -0.16052373
0.92137563 0.0099999998 -0.14046009
0.92135435 0.0099999998 -0.12039124
0.92133886 0.0099999998 -0.100325
0.92132771 0.0099999998 -0.080262467
0.92132002 0.0099999998 -0.060200997
0.92131501 0.0099999998 -0.040137377
0.92131221 0.0099999998 -0.020070057
0.94153053 0.0099999998 -0.18054685
0.94148713 0.0099999998 -0.16049232
0.94145226 0.0099999998 -0.14043166
0.94142491 0.0099999998 -0.12036714
0.94140369 0.0099999998 -0.10030546
0.94138747 0.0099999998 -0.08024720099999999
0.94137543 0.0099999998 -0.06018963099999999
0.94136715 0.0099999998 -0.040129747
0.94136232 0.0099999998 -0.020066181000000002
0.96156377 0.0099999998 -0.18051466
0.96151745 0.0099999998 -0.16046126
0.96147901 0.0099999998 -0.14040339
0.96144766 0.0099999998 -0.12034309
0.96142256 0.0099999998 -0.10028566
0.96140277 0.0099999998 -0.08023124200000001
0.96138787 0.0099999998 -0.060177378
0.96137744 0.0099999998 -0.04012138
0.96137136 0.0099999998 -0.020061994
0.98156899 0.0099999998 -0.18048556
0.98152059 0.0099999998 -0.16043414
0.98147994 0.0099999998 -0.14037868
0.98144656 0.0099999998 -0.12032168
0.9814195 0.0099999998 -0.10026756
0.98139805 0.0099999998 -0.080216393
0.98138177 0.0099999998 -0.060165763
0.98137033 0.0099999998 -0.040113172999999995
0.98136353 0.0099999998 -0.02005762
1.0015621 0.0099999998 -0.18045631
1.0015119000000001 0.0099999998 -0.16040875
1.0014693000000001 0.0099999998 -0.14035676
1.0014343 0.0099999998 -0.12030339
1.0014061 0.0099999998 -0.10025219
1.0013836999999999 0.0099999998 -0.080203667
1.0013663000000002 0.0099999998 -0.060155574
1.0013539 0.0099999998 -0.040105924
1.0013465 0.0099999998 -0.02005385
1.021549 0.0099999998 -0.18042903
1.0214965 0.0099999998 -0.16038376
1.0214522 0.0099999998 -0.14033508
1.0214158000000002 0.0099999998 -0.12028494
1.0213866 0.0099999998 -0.10023618
1.0213633 0.0099999998 -0.080189943
1.0213453000000001 0.0099999998 -0.060144689
1.0213321 0.0099999998 -0.040098336
1.0213243 0.0099999998 -0.020049881000000002
1.0415323 0.0099999998 -0.18040055
1.0414765 0.0099999998 -0.16035882
1.0414301 0.0099999998 -0.14031464
1.0413921 0.0099999998 -0.12026766
1.0413616 0.0099999998 -0.10022162
1.0413374 0.0099999998 -0.080177434
1.0413187 0.0099999998 -0.060134299
1.0413049 0.0099999998 -0.040090527
1.0412966000000001 0.0099999998 -0.020045688
1.0615126 0.0099999998 -0.18036959
1.061453 0.0099999998 -0.16033258
1.0614039 0.0099999998 -0.14029302
1.0613638 0.0099999998 -0.12025086
1.0613318999999999 0.0099999998 -0.10020793
1.0613066 0.0099999998 -0.080165841
1.061287 0.0099999998 -0.060124595
1.0612728999999999 0.0099999998 -0.040083528
1.0612641999999999 0.0099999998 -0.020041944
1.0814914 0.0099999998 -0.18033549
1.0814278 0.0099999998 -0.16030575
1.0813749 0.0099999998 -0.14027095
1.0813327 0.0099999998 -0.120234
1.0812986999999998 0.0099999998 -0.10019471
1.081272 0.0099999998 -0.080155142
1.0812515 0.0099999998 -0.060115878
1.0812368 0.0099999998 -0.040077124
1.0812278 0.0099999998 -0.020038622
1.1014715 0.0099999998 -0.1802998
1.1014021999999999 0.0099999998 -0.16027474
1.1013458 0.0099999998 -0.14024788
1.1012998999999999 0.0099999998 -0.12021611
1.1012638000000001 0.0099999998 -0.10018172
1.1012353000000001 0.0099999998 -0.08014486700000001
1.1012137 0.0099999998 -0.060107879
1.1011983 0.0099999998 -0.04007132
1.1011891000000003 0.0099999998 -0.020035548
1.1214549999999999 0.0099999998 -0.18026373
1.1213790000000001 0.0099999998 -0.16024168
1.1213178999999998 0.0099999998 -0.14022051
1.1212683 0.0099999998 -0.12019604
1.1212291 0.0099999998 -0.10016691
1.1211985 0.0099999998 -0.080134496
1.1211753999999998 0.0099999998 -0.060100149000000005
1.1211593999999998 0.0099999998 -0.040066283
1.1211499 0.0099999998 -0.02003298
1.1414427 0.0099999998 -0.18022983
1.1413606 0.0099999998 -0.16020894
1.1412931999999998 0.0099999998 -0.14019041
1.1412396 0.0099999998 -0.12017196
1.1411966 0.0099999998 -0.10014946
1.1411635 0.0099999998 -0.080122113
1.1411388999999998 0.0099999998 -0.060092032000000004
1.141122 0.0099999998 -0.040061176000000004
1.1411120000000001 0.0099999998 -0.02003051
1.1614361999999998 0.0099999998 -0.1802018
1.1613485000000001 0.0099999998 -0.16017982
1.1612744 0.0099999998 -0.14016131
1.1612149 0.0099999998 -0.12014492
1.1611685 0.0099999998 -0.10012803
1.1611322 0.0099999998 -0.080107078
1.1611055000000001 0.0099999998 -0.060081981
1.1610875 0.0099999998 -0.040055163
1.1610770000000001 0.0099999998 -0.020027712
1.1814396 0.0099999998 -0.18018422
1.1813446 0.0099999998 -0.16015887
1.1812627 0.0099999998 -0.14013712
1.1811968000000002 0.0099999998 -0.12011984
1.1811453 0.0099999998 -0.10010449
1.181106 0.0099999998 -0.08008860799999999
1.1810770000000002 0.0099999998 -0.060069572
1.1810577 0.0099999998 -0.040047634
1.1810465 0.0099999998 -0.020024078
1.2014483 0.0099999998 -0.1801759
1.2013551000000002 0.0099999998 -0.16015129
1.2012627 0.0099999998 -0.14012437
1.2011867 0.0099999998 -0.12010147
1.2011291000000002 0.0099999998 -0.10008428
1.2010856 0.0099999998 -0.080069557
1.2010543 0.0099999998 -0.060055073
1.2010333999999998 0.0099999998 -0.04003847
1.2010214 0.0099999998 -0.02001971
1.2214483999999999 0.0099999998 -0.18017443
1.2213675 0.0099999998 -0.16014963
1.2212796000000001 0.0099999998 -0.14012596
1.2211933000000001 0.0099999998 -0.12009869
1.2211238000000002 0.0099999998 -0.10007459
1.2210733999999999 0.0099999998 -0.08005625
1.2210381000000001 0.0099999998 -0.060041975
1.221015 0.0099999998 -0.040029362
1.2210017 0.0099999998 -0.020015323999999998
1.2414193999999998 0.0099999998 -0.18016998
1.241359 0.0099999998 -0.16014722
1.2412901 0.0099999998 -0.14012782
1.2412145 0.0099999998 -0.12010588
1.2411412 0.0099999998 -0.10008258
1.2410787 0.0099999998 -0.080058575
1.2410344 0.0099999998 -0.060039021
1.241006 0.0099999998 -0.040024523
1.2409902 0.0099999998 -0.020012461000000002
1.2613164 0.0099999998 -0.16013935
1.2612691 0.0099999998 -0.14012259
1.2612113 0.0099999998 -0.12010374
1.2611546999999999 0.0099999998 -0.10008784
1.2611004 0.0099999998 -0.080067918
1.2610565 0.0099999998 -0.060048461
1.261024 0.0099999998 -0.040029965
1.2610046 0.0099999998 -0.020014049
1.281173 0.0099999998 -0.12009552
1.2811316000000001 0.0099999998 -0.10008195
1.2810887 0.0099999998 -0.080063827
1.2810552 0.0099999998 -0.060046822
1.2810298999999998 0.0099999998 -0.040029179
1.2810149 0.0099999998 -0.02001342
1.3010476999999998 0.0099999998 -0.080056898
1.3010205 0.0099999998 -0.060038894
1.3010002 0.0099999998 -0.040023614
1.3009879999999998 0.0099999998 -0.020010836
-1.9068102e-05 0.0099999998 1.2899961000000001e-13
-1.9075046999999998e-05 0.0099999998 0.020000122
-1.909309e-05 0.0099999998 0.040000256
-1.9113817e-05 0.0099999998 0.060000412
-1.9123219e-05 0.0099999998 0.080000602
-1.9099407e-05 0.0099999998 0.10000082
-1.9011586e-05 0.0099999998 0.1200011
-1.8824008e-05 0.0099999998 0.14000142
0.019973351 0.0099999998 -5.1903913e-13
0.019973338 0.0099999998 0.020000178
0.019973306 0.0099999998 0.040000368
0.019973263 0.0099999998 0.060000587
0.019973231 0.0099999998 0.08000084
0.019973239 0.0099999998 0.10000114
0.019973326 0.0099999998 0.1200015
0.01997355 0.0099999998 0.14000192
0.039963774 0.0099999998 -3.6470444e-13
0.039963756 0.0099999998 0.020000219
0.039963703999999996 0.0099999998 0.040000454
0.039963633 0.0099999998 0.060000714000000004
0.039963569 0.0099999998 0.080001019
0.039963555 0.0099999998 0.10000137
0.039963637 0.0099999998 0.12000178
0.03996389 0.0099999998 0.14000227
0.059953094000000005 0.0099999998 -2.3051632e-12
0.059953067 0.0099999998 0.020000245
0.059952992999999996 0.0099999998 0.040000502
0.059952889 0.0099999998 0.060000788
0.059952788 0.0099999998 0.080001116
0.05995274 0.0099999998 0.10000149
0.059952807000000004 0.0099999998 0.12000193
0.059953082000000005 0.0099999998 0.14000243
0.07994172 0.0099999998 -2.8955553e-12
0.079941683 0.0099999998 0.020000257
0.079941586 0.0099999998 0.040000523999999996
0.079941444 0.0099999998 0.060000822
0.079941295 0.0099999998 0.08000115299999999
0.079941198 0.0099999998 0.10000153
0.079941235 0.0099999998 0.12000196
0.07994150400000001 0.0099999998 0.14000246
0.099929661 0.0099999998 -5.1011349e-13
0.099929616 0.0099999998 0.020000261999999998
0.09992948199999999 0.0099999998 0.040000536
0.099929295 0.0099999998 0.060000829000000006
0.09992908699999999 0.0099999998 0.080001161
0.09992893 0.0099999998 0.10000153
0.09992890800000001 0.0099999998 0.12000195
0.099929154 0.0099999998 0.14000241
0.11991664 0.0099999998 -2.1651944e-13
0.11991658 0.0099999998 0.020000275
0.11991642 0.0099999998 0.040000558
0.11991617 0.0099999998 0.060000859000000004
0.1199159 0.0099999998 0.080001183
0.11991566 0.0099999998 0.10000155
0.11991555 0.0099999998 0.12000195
0.11991573 0.0099999998 0.1400024
0.13990231 0.0099999998 8.4161416e-13
0.13990223 0.0099999998 0.020000308999999997
0.13990204 0.0099999998 0.040000625
0.13990173 0.0099999998 0.060000952
0.13990135 0.0099999998 0.080001302
0.13990101 0.0099999998 0.10000167
0.1399008 0.0099999998 0.12000208
0.13990089 0.0099999998 0.1400025
0.1598864 0.0099999998 -2.0464253e-12
0.15988632 0.0099999998 0.020000381
0.15988606 0.0099999998 0.040000767
0.15988567 0.0099999998 0.060001161
0.15988521 0.0099999998 0.08000157
0.15988475 0.0099999998 0.100002
0.15988441 0.0099999998 0.12000243
0.15988435 0.0099999998 0.14000288
0.17986874 0.0099999998 2.3525255e-12
0.17986864 0.0099999998 0.02000051
0.17986833 0.0099999998 0.04000102
0.17986785 0.0099999998 0.060001541
0.17986727 0.0099999998 0.08000206900000001
0.17986666 0.0099999998 0.10000261
0.17986615 0.0099999998 0.12000315
0.17986594 0.0099999998 0.14000367
0.19984916 0.0099999998 -1.7438994e-12
0.19984904 0.0099999998 0.020000705
0.19984865 0.0099999998 0.040001418
0.19984807 0.0099999998 0.060002133
0.19984736 0.0099999998 0.080002867
0.19984658 0.0099999998 0.10000361
0.19984591 0.0099999998 0.12000434
0.19984551 0.0099999998 0.14000504
0.21982743 0.0099999998 -2.6328521e-12
0.21982728 0.0099999998 0.020000985
0.21982683 0.0099999998 0.040001973999999996
0.21982613 0.0099999998 0.060002979000000005
0.21982525 0.0099999998 0.080003999
0.21982431 0.0099999998 0.10000505
0.21982343 0.0099999998 0.12000608
0.21982284 0.0099999998 0.14000706
0.23980328 0.0099999998 3.6161306000000006e-12
0.23980311 0.0099999998 0.020001352
0.23980258 0.0099999998 0.040002715
0.23980175 0.0099999998 0.0600041
0.23980072 0.0099999998 0.080005512
0.23979957 0.0099999998 0.10000695
0.23979849 0.0099999998 0.1200084
0.23979768 0.0099999998 0.14000979
0.25977644 0.0099999998 -5.040006200000001e-12
0.25977623 0.0099999998 0.020001814
0.25977561 0.0099999998 0.040003639
0.25977466 0.0099999998 0.060005497000000005
0.25977343 0.0099999998 0.08000739700000001
0.25977209 0.0099999998 0.10000933
0.25977078 0.0099999998 0.12001128
0.25976974 0.0099999998 0.14001322
0.27974656 0.0099999998 -2.4056965e-12
0.27974632 0.0099999998 0.020002352
0.27974564 0.0099999998 0.040004726000000004
0.27974454 0.0099999998 0.060007144000000005
0.27974313 0.0099999998 0.080009617
0.27974156 0.0099999998 0.10001215
0.27974001 0.0099999998 0.12001473
0.27973872 0.0099999998 0.14001735
0.2997134 0.0099999998 -7.4502808e-12
0.29971313 0.0099999998 0.020002965
0.29971233 0.0099999998 0.040005956
0.29971111 0.0099999998 0.060008999
0.2997095 0.0099999998 0.080012128
0.29970768 0.0099999998 0.10001535
0.29970586 0.0099999998 0.12001866
0.29970431 0.0099999998 0.14002207
0.31967655 0.0099999998 -8.5741683e-12
0.31967625 0.0099999998 0.02000365
0.31967536 0.0099999998 0.040007327
0.31967399 0.0099999998 0.060011062999999996
0.3196722 0.0099999998 0.080014892
0.31967014 0.0099999998 0.10001884
0.31966802 0.0099999998 0.12002294
0.31966615 0.0099999998 0.14002718
0.33963564 0.0099999998 -3.4819062000000007e-12
0.33963531 0.0099999998 0.020004386000000002
0.33963436 0.0099999998 0.040008798
0.33963281 0.0099999998 0.060013268
0.33963084 0.0099999998 0.080017842
0.33962855 0.0099999998 0.10002255
0.33962616 0.0099999998 0.12002744
0.33962393 0.0099999998 0.14003253
0.35959026 0.0099999998 -8.2872355e-12
0.35958993 0.0099999998 0.020005133
0.35958889 0.0099999998 0.0400103
0.35958722 0.0099999998 0.060015541
0.35958505 0.0099999998 0.080020875
0.35958251 0.0099999998 0.10002636
0.35957983 0.0099999998 0.12003204
0.3595773 0.0099999998 0.14003794
0.37954006 0.0099999998 -1.0229911999999999e-11
0.3795397 0.0099999998 0.020005878
0.37953857 0.0099999998 0.040011793
0.37953678 0.0099999998 0.060017783
0.37953442 0.0099999998 0.080023892
0.37953165 0.0099999998 0.10003015
0.3795287 0.0099999998 0.12003662
0.37952584 0.0099999998 0.14004333
0.39948463 0.0099999998 -2.1460377e-12
0.39948425 0.0099999998 0.020006606
0.39948305 0.0099999998 0.04001325
0.39948115 0.0099999998 0.060019974000000004
0.39947861 0.0099999998 0.08002682
0.39947563 0.0099999998 0.10003384
0.39947242 0.0099999998 0.12004108
0.39946923 0.0099999998 0.14004858
0.41942367 0.0099999998 -1.108687e-11
0.41942322 0.0099999998 0.020007323
0.41942197 0.0099999998 0.040014677
0.41941994 0.0099999998 0.060022108
0.41941726 0.0099999998 0.080029659
0.41941407 0.0099999998 0.1000374
0.41941056 0.0099999998 0.12004539
0.41940707 0.0099999998 0.14005369
0.4393568 0.0099999998 4.2925893e-12
0.43935636 0.0099999998 0.020008046
0.43935502 0.0099999998 0.040016117999999996
0.4393529 0.0099999998 0.06002425
0.43935004 0.0099999998 0.080032498
0.43934664 0.0099999998 0.10004094
0.43934286 0.0099999998 0.12004966
0.43933898 0.0099999998 0.14005873
0.45928368 0.0099999998 7.075339e-12
0.4592832 0.0099999998 0.02000883
0.4592818 0.0099999998 0.040017672000000004
0.45927957 0.0099999998 0.060026540999999996
0.45927656 0.0099999998 0.080035515
0.45927292 0.0099999998 0.10004468
0.45926881 0.0099999998 0.12005416
0.45926452 0.0099999998 0.140064
0.47920385 0.0099999998 2.7503041e-12
0.47920334 0.0099999998 0.020009751
0.47920188 0.0099999998 0.040019486
0.47919953 0.0099999998 0.060029227000000004
0.47919634 0.0099999998 0.080039039
0.47919241 0.0099999998 0.10004903
0.47918794 0.0099999998 0.12005934
0.47918314 0.0099999998 0.14007001
0.49911684 0.0099999998 -5.9950621e-12
0.4991163 0.0099999998 0.0200109
0.49911478 0.0099999998 0.040021766
0.49911228 0.0099999998 0.060032602000000004
0.49910888 0.0099999998 0.080043495
0.49910465 0.0099999998 0.10005457
0.4990997 0.0099999998 0.12006593
0.49909434 0.0099999998 0.14007759
0.51902229 0.0099999998 -1.9218207e-11
0.51902175 0.0099999998 0.020012394
0.51902008 0.0099999998 0.040024731
0.5190174 0.0099999998 0.060037039
0.51901376 0.0099999998 0.08004941
0.51900917 0.0099999998 0.10006196
0.51900375 0.0099999998 0.12007477
0.51899767 0.0099999998 0.14008771
0.53892034 0.0099999998 6.3397807e-12
0.53891975 0.0099999998 0.020014323
0.53891802 0.0099999998 0.040028617
0.53891516 0.0099999998 0.060042895
0.53891116 0.0099999998 0.080057263
0.53890616 0.0099999998 0.10007185
0.5389002 0.0099999998 0.12008665
0.53889352 0.0099999998 0.14010136
0.55881268 0.0099999998 -1.4307723000000001e-11
0.55881202 0.0099999998 0.02001683
0.55881011 0.0099999998 0.040033657
0.55880702 0.0099999998 0.060050528
0.55880266 0.0099999998 0.080067553
0.55879724 0.0099999998 0.10008483
0.5587908 0.0099999998 0.12010226
0.55878365 0.0099999998 0.14011934
0.57870311 0.0099999998 -9.2728117e-12
0.57870239 0.0099999998 0.020019893
0.5787003 0.0099999998 0.040039793
0.57869697 0.0099999998 0.060059800999999996
0.57869232 0.0099999998 0.080080077
0.57868654 0.0099999998 0.10010072
0.57867974 0.0099999998 0.1201215
0.57867235 0.0099999998 0.1401417
0.59859878 0.0099999998 1.2136694e-11
0.598598 0.0099999998 0.020023534
0.59859574 0.0099999998 0.040047076
0.5985921 0.0099999998 0.060070772
0.59858721 0.0099999998 0.080094889
0.59858114 0.0099999998 0.10011952
0.59857422 0.0099999998 0.1201443
0.59856671 0.0099999998 0.1401682
0.61850649 0.0099999998 4.5942291e-12
0.61850566 0.0099999998 0.020027703
0.61850321 0.0099999998 0.040055361
0.61849928 0.0099999998 0.060083225
0.61849403 0.0099999998 0.080111563
0.61848783 0.0099999998 0.10014037
0.61848086 0.0099999998 0.12016931
0.61847329 0.0099999998 0.14019719
0.63843042 0.0099999998 4.3406962e-11
0.63842952 0.0099999998 0.0200318
0.63842696 0.0099999998 0.040063612
0.63842273 0.0099999998 0.060095631
0.63841718 0.0099999998 0.080128238
0.63841063 0.0099999998 0.10016147
0.63840359 0.0099999998 0.1201947
0.63839626 0.0099999998 0.14022662
0.65837413 0.0099999998 1.5240434e-11
0.65837324 0.0099999998 0.020036336000000002
0.65837055 0.0099999998 0.040072665
0.6583662 0.0099999998 0.060108997000000004
0.65836048 0.0099999998 0.080145791
0.65835404 0.0099999998 0.10018354
0.65834743 0.0099999998 0.12022183
0.65834069 0.0099999998 0.1402591
0.67834502 0.0099999998 3.7235982e-11
0.67834431 0.0099999998 0.020045435
0.67834216 0.0099999998 0.040089883
0.67833853 0.0099999998 0.060133255999999996
0.67833376 0.0099999998 0.080176562
0.67832851 0.0099999998 0.1002206
0.67832345 0.0099999998 0.12026561
0.67831886 0.0099999998 0.14031021
0.6983586 0.0099999998 7.5291537e-11
0.69835836 0.0099999998 0.020059092
0.69835752 0.0099999998 0.040116802
0.69835603 0.0099999998 0.060172524000000005
0.69835407 0.0099999998 0.080227114
0.69835234 0.0099999998 0.1002818
0.69835228 0.0099999998 0.12033847
0.69835478 0.0099999998 0.1403974
0.71855962 0.0099999998 6.655914500000001e-12
0.71855903 0.0099999998 0.020080493999999997
0.71855754 0.0099999998 0.040158778
0.71855575 0.0099999998 0.060234416
0.7185545 0.0099999998 0.080309264
0.71855468 0.0099999998 0.10038619
0.71855789 0.0099999998 0.12046646
0.71856457 0.0099999998 0.14054817
0.73904657 0.0099999998 9.2388444e-11
0.73904657 0.0099999998 0.020085162
0.73904675 0.0099999998 0.040167529
0.73904759 0.0099999998 0.06024624
0.73904961 0.0099999998 0.080322906
0.73905325 0.0099999998 0.10040056
0.73905867 0.0099999998 0.12048163
0.73906571 0.0099999998 0.14056507
0.75942075 0.0099999998 1.9878685e-10
0.75942129 0.0099999998 0.020086728
0.75942296 0.0099999998 0.04017017
0.75942612 0.0099999998 0.060249057
0.75943089 0.0099999998 0.080324769
0.75943756 0.0099999998 0.10040022
0.75944591 0.0099999998 0.12047777
0.75945568 0.0099999998 0.14055631
0.77970344 0.0099999998 -1.3542786e-10
0.77970421 0.0099999998 0.020086229
0.77970654 0.0099999998 0.040168911
0.77971053 0.0099999998 0.060246575999999996
0.77971613 0.0099999998 0.080320522
0.77972329 0.0099999998 0.10039364
0.77973157 0.0099999998 0.12046822
0.77974051 0.0099999998 0.14054303
0.79994613 0.0099999998 -2.2874917e-10
0.7999469 0.0099999998 0.020084508
0.79994917 0.0099999998 0.040165436
0.79995286 0.0099999998 0.060241315999999996
0.79995787 0.0099999998 0.08031350400000001
0.79996395 0.0099999998 0.10038497
0.79997057 0.0099999998 0.12045798
0.79997724 0.0099999998 0.14053114
0.82018912 0.0099999998 8.3253099e-11
0.82018971 0.0099999998 0.020082311999999998
0.82019156 0.0099999998 0.04016117
0.82019448 0.0099999998 0.060235262000000005
0.8201983 0.0099999998 0.08030607599999999
0.82020289 0.0099999998 0.10037671
0.82020789 0.0099999998 0.12044948
0.82021296 0.0099999998 0.14052284
0.84044522 0.0099999998 3.2699798e-10
0.8404457 0.0099999998 0.020080083999999998
0.84044701 0.0099999998 0.040156946
0.84044909 0.0099999998 0.060229447
0.84045196 0.0099999998 0.08029921400000001
0.84045553 0.0099999998 0.10036948
0.84045988 0.0099999998 0.12044264
0.84046513 0.0099999998 0.14051701
0.8607046 0.0099999998 2.7743792999999996e-10
0.86070496 0.0099999998 0.020077944
0.86070591 0.0099999998 0.040152896
0.86070758 0.0099999998 0.060223862999999996
0.86070997 0.0099999998 0.080292568
0.86071348 0.0099999998 0.10036232
0.86071855 0.0099999998 0.12043555
0.86072582 0.0099999998 0.14051059
0.88095063 0.0099999998 -6.4228317e-11
0.88095093 0.0099999998 0.020075724
0.88095182 0.0099999998 0.04014862
0.88095349 0.0099999998 0.060217797999999996
0.88095611 0.0099999998 0.080284983
0.8809604 0.0099999998 0.10035349
0.8809672 0.0099999998 0.12042578
0.88097769 0.0099999998 0.14050025
0.90116918 0.0099999998 -9.3303844e-11
0.90116954 0.0099999998 0.020073127
0.90117073 0.0099999998 0.040143523
0.90117294 0.0099999998 0.060210306
0.90117657 0.0099999998 0.080275163
0.90118241 0.0099999998 0.10034133
0.90119171 0.0099999998 0.12041132
0.90120578 0.0099999998 0.14048369
0.92131132 0.0099999998 1.6334356e-11
0.92131221 0.0099999998 0.020070057
0.92131501 0.0099999998 0.040137377
0.92132002 0.0099999998 0.060200997
0.92132771 0.0099999998 0.080262467
0.92133886 0.0099999998 0.100325
0.92135435 0.0099999998 0.12039124
0.92137563 0.0099999998 0.14046009
0.94136077 0.0099999998 1.6812563999999998e-10
0.94136232 0.0099999998 0.020066181000000002
0.94136715 0.0099999998 0.040129747
0.94137543 0.0099999998 0.06018963099999999
0.94138747 0.0099999998 0.08024720099999999
0.94140369 0.0099999998 0.10030546
0.94142491 0.0099999998 0.12036714
0.94145226 0.0099999998 0.14043166
0.96136934 0.0099999998 4.6558146e-11
0.96137136 0.0099999998 0.020061994
0.96137744 0.0099999998 0.04012138
0.96138787 0.0099999998 0.060177378
0.96140277 0.0099999998 0.08023124200000001
0.96142256 0.0099999998 0.10028566
0.96144766 0.0099999998 0.12034308
0.96147901 0.0099999998 0.14040339
0.98136127 0.0099999998 -4.745938e-11
0.98136353 0.0099999998 0.02005762
0.98137033 0.0099999998 0.040113172999999995
0.98138177 0.0099999998 0.060165763
0.98139805 0.0099999998 0.080216393
0.9814195 0.0099999998 0.10026756
0.98144656 0.0099999998 0.12032168
0.98147994 0.0099999998 0.14037868
1.001344 0.0099999998 8.5826387e-13
1.0013465 0.0099999998 0.02005385
1.0013539 0.0099999998 0.040105924
1.0013663000000002 0.0099999998 0.060155574
1.0013836999999999 0.0099999998 0.080203667
1.0014061 0.0099999998 0.10025219
1.0014343 0.0099999998 0.12030339
1.0014693000000001 0.0099999998 0.14035676
1.0213215 0.0099999998 3.1630771000000004e-11
1.0213243 0.0099999998 0.020049881000000002
1.0213321 0.0099999998 0.040098336
1.0213453000000001 0.0099999998 0.060144689
1.0213633 0.0099999998 0.080189943
1.0213866 0.0099999998 0.10023618
1.0214158000000002 0.0099999998 0.12028494
1.0214522 0.0099999998 0.14033508
1.0412939 0.0099999998 1.8967983e-11
1.0412966000000001 0.0099999998 0.020045688
1.0413049 0.0099999998 0.040090527
1.0413187 0.0099999998 0.060134299
1.0413374 0.0099999998 0.080177434
1.0413616 0.0099999998 0.10022162
1.0413921 0.0099999998 0.12026766
1.0414301 0.0099999998 0.14031464
1.0612613000000002 0.0099999998 5.0325737e-11
1.0612641999999999 0.0099999998 0.020041944
1.0612728999999999 0.0099999998 0.040083528
1.061287 0.0099999998 0.060124595
1.0613066 0.0099999998 0.080165841
1.0613318999999999 0.0099999998 0.10020793
1.0613638 0.0099999998 0.12025086
1.0614039 0.0099999998 0.14029302
1.0812248 0.0099999998 1.9877539e-11
1.0812278 0.0099999998 0.020038622
1.0812368 0.0099999998 0.040077124
1.0812515 0.0099999998 0.060115878
1.081272 0.0099999998 0.080155142
1.0812986999999998 0.0099999998 0.10019471
1.0813327 0.0099999998 0.120234
1.0813749 0.0099999998 0.14027095
1.101186 0.0099999998 -5.3384064000000004e-12
1.1011891000000003 0.0099999998 0.020035548
1.1011983 0.0099999998 0.04007132
1.1012137 0.0099999998 0.060107879
1.1012353000000001 0.0099999998 0.08014486700000001
1.1012638000000001 0.0099999998 0.10018172
1.1012998999999999 0.0099999998 0.12021611
1.1013458 0.0099999998 0.14024788
1.1211467 0.0099999998 -1.4387718e-11
1.1211499 0.0099999998 0.02003298
1.1211593999999998 0.0099999998 0.040066283
1.1211753999999998 0.0099999998 0.060100149000000005
1.1211985 0.0099999998 0.080134496
1.1212291 0.0099999998 0.10016691
1.1212683 0.0099999998 0.12019604
1.1213178999999998 0.0099999998 0.14022051
1.1411088 0.0099999998 1.3971825e-11
1.1411120000000001 0.0099999998 0.02003051
1.141122 0.0099999998 0.040061176000000004
1.1411388999999998 0.0099999998 0.060092032000000004
1.1411635 0.0099999998 0.080122113
1.1411966 0.0099999998 0.10014946
1.1412396 0.0099999998 0.12017196
1.1412931999999998 0.0099999998 0.14019041
1.1610736000000001 0.0099999998 1.9805324e-11
1.1610770000000001 0.0099999998 0.020027712
1.1610875 0.0099999998 0.040055163
1.1611055000000001 0.0099999998 0.060081981
1.1611322 0.0099999998 0.080107078
1.1611685 0.0099999998 0.10012803
1.1612149 0.0099999998 0.12014492
1.1612744 0.0099999998 0.14016131
1.1810428999999998 0.0099999998 2.1850698e-11
1.1810465 0.0099999998 0.020024078
1.1810577 0.0099999998 0.040047634
1.1810770000000002 0.0099999998 0.060069572
1.181106 0.0099999998 0.08008860799999999
1.1811453 0.0099999998 0.10010449
1.1811968000000002 0.0099999998 0.12011984
1.1812627 0.0099999998 0.14013712
1.2010176000000001 0.0099999998 3.1430261e-11
1.2010214 0.0099999998 0.02001971
1.2010333999999998 0.0099999998 0.04003847
1.2010543 0.0099999998 0.060055073
1.2010856 0.0099999998 0.080069557
1.2011291000000002 0.0099999998 0.10008428
1.2011867 0.0099999998 0.12010147
1.2012627 0.0099999998 0.14012437
1.2209975 0.0099999998 3.6659609e-11
1.2210017 0.0099999998 0.020015325
1.221015 0.0099999998 0.040029362
1.2210381000000001 0.0099999998 0.060041975
1.2210733999999999 0.0099999998 0.08005625
1.2211238000000002 0.0099999998 0.10007459
1.2211933000000001 0.0099999998 0.12009869
1.2212796000000001 0.0099999998 0.14012596
1.240985 0.0099999998 4.6505626e-11
1.2409902 0.0099999998 0.020012463
1.241006 0.0099999998 0.040024523
1.2410344 0.0099999998 0.060039021
1.2410787 0.0099999998 0.080058575
1.2411412 0.0099999998 0.10008258
1.2412145 0.0099999998 0.12010588
1.2412901 0.0099999998 0.14012782
1.2609981000000001 0.0099999998 3.6907762e-11
1.2610046 0.0099999998 0.020014049
1.261024 0.0099999998 0.040029965
1.2610565 0.0099999998 0.060048461
1.2611004 0.0099999998 0.080067918
1.2611546999999999 0.0099999998 0.10008784
1.2612113 0.0099999998 0.12010374
1.2612691 0.0099999998 0.14012259
1.28101 0.0099999998 3.3341596999999996e-11
1.2810149 0.0099999998 0.02001342
1.2810298999999998 0.0099999998 0.040029179
1.2810552 0.0099999998 0.060046822
1.2810887 0.0099999998 0.080063827
1.2811316000000001 0.0099999998 0.10008195
1.281173 0.0099999998 0.12009552
1.3009838 0.0099999998 2.7907314e-11
1.3009879999999998 0.0099999998 0.020010836
1.3010002 0.0099999998 0.040023614
1.3010205 0.0099999998 0.060038894
1.3010476999999998 0.0099999998 0.080056898
-1.8483523e-05 0.0099999998 0.16000178
-1.7932431e-05 0.0099999998 0.18000221
-1.7116025e-05 0.0099999998 0.20000266
-1.5960472e-05 0.0099999998 0.22000313
-1.4410476000000001e-05 0.0099999998 0.24000357
-1.2458605e-05 0.0099999998 0.26000389
-1.0173615999999999e-05 0.0099999998 0.28000402
0.019973968999999998 0.0099999998 0.1600024
0.019974684 0.0099999998 0.18000294
0.019975791 0.0099999998 0.20000353
0.019977396 0.0099999998 0.2200041
0.019979609 0.0099999998 0.24000457
0.019982498 0.0099999998 0.26000485
0.019986041 0.0099999998 0.28000486
0.019990146 0.0099999998 0.30000523
0.039964408 0.0099999998 0.1600028
0.039965305 0.0099999998 0.18000339
0.03996674 0.0099999998 0.20000401
0.039968882000000004 0.0099999998 0.22000459
0.039971884 0.0099999998 0.24000503
0.03997587 0.0099999998 0.26000533
0.039980739 0.0099999998 0.2800054
0.039986372 0.0099999998 0.30000564
0.059953682 0.0099999998 0.16000299
0.059954755 0.0099999998 0.18000358
0.059956506 0.0099999998 0.20000421
0.059959184000000006 0.0099999998 0.2200048
0.059962995 0.0099999998 0.24000521
0.059968084000000005 0.0099999998 0.26000547
0.059974354 0.0099999998 0.28000548
0.059981737 0.0099999998 0.30000585
0.079942159 0.0099999998 0.16000301
0.079943374 0.0099999998 0.1800036
0.0799454 0.0099999998 0.20000421
0.079948559 0.0099999998 0.22000477
0.079953127 0.0099999998 0.24000514
0.07995931099999999 0.0099999998 0.26000535
0.079967044 0.0099999998 0.28000543
0.07997634299999999 0.0099999998 0.300006
0.09992981699999999 0.0099999998 0.16000293
0.09993112800000001 0.0099999998 0.18000349
0.099933371 0.0099999998 0.20000404
0.099936947 0.0099999998 0.22000454
0.0999422 0.0099999998 0.24000487
0.09994944900000001 0.0099999998 0.26000509
0.099958688 0.0099999998 0.28000522
0.09997008 0.0099999998 0.30000621
0.11991637 0.0099999998 0.16000287
0.11991773 0.0099999998 0.18000337
0.11992013 0.0099999998 0.20000383
0.11992408 0.0099999998 0.22000425
0.11992998 0.0099999998 0.24000449
0.11993826 0.0099999998 0.26000473
0.11994903 0.0099999998 0.28000507
0.11996271 0.0099999998 0.30000672
0.13990146 0.0099999998 0.16000293
0.13990282 0.0099999998 0.18000337
0.13990533 0.0099999998 0.20000373
0.1399096 0.0099999998 0.22000405
0.13991611 0.0099999998 0.24000421
0.13992545 0.0099999998 0.26000455
0.13993776 0.0099999998 0.28000522
0.1399539 0.0099999998 0.30000773
0.15988481 0.0099999998 0.16000329
0.15988611 0.0099999998 0.18000367
0.1598887 0.0099999998 0.20000395
0.15989323 0.0099999998 0.2200042
0.15990037 0.0099999998 0.24000432
0.1599108 0.0099999998 0.26000479
0.15992457 0.0099999998 0.28000569
0.15994298 0.0099999998 0.30000892
0.17986627 0.0099999998 0.16000412
0.17986746 0.0099999998 0.18000449
0.17987004 0.0099999998 0.20000476
0.17987478 0.0099999998 0.22000492
0.17988253 0.0099999998 0.24000499
0.17989394 0.0099999998 0.26000538
0.17990901 0.0099999998 0.28000626
0.17992871 0.0099999998 0.30000898
0.19984566 0.0099999998 0.16000563
0.19984671 0.0099999998 0.18000607
0.19984922 0.0099999998 0.20000634
0.19985408 0.0099999998 0.22000642
0.19986227 0.0099999998 0.2400063
0.19987443 0.0099999998 0.26000628
0.19989029 0.0099999998 0.28000671
0.19990994 0.0099999998 0.30000779
0.21982281 0.0099999998 0.16000791
0.21982369 0.0099999998 0.18000855
0.21982607 0.0099999998 0.20000891
0.21983087 0.0099999998 0.22000891
0.21983932 0.0099999998 0.24000868
0.21985199 0.0099999998 0.26000857
0.21986826 0.0099999998 0.2800093
0.21988909 0.0099999998 0.30001172
0.23979746 0.0099999998 0.16001104
0.23979813 0.0099999998 0.18001206
0.23980032 0.0099999998 0.20001285
0.23980492 0.0099999998 0.2200132
0.23981324 0.0099999998 0.24001375
0.23982602 0.0099999998 0.2600157
0.23984286 0.0099999998 0.28002122
0.23986486 0.0099999998 0.30003008
0.25976929 0.0099999998 0.16001505
0.25976974 0.0099999998 0.18001674
0.25977165 0.0099999998 0.20001833
0.25977588 0.0099999998 0.22001991
0.25978354 0.0099999998 0.24002223
0.2597957 0.0099999998 0.26002723
0.25981218 0.0099999998 0.28003636
0.25983346 0.0099999998 0.3000465
0.27973801 0.0099999998 0.16001993
0.27973819 0.0099999998 0.18002254
0.27973977 0.0099999998 0.20002528
0.27974349 0.0099999998 0.22002845
0.27975032 0.0099999998 0.24003264
0.2797612 0.0099999998 0.26003936
0.27977628 0.0099999998 0.28004882
0.27979603 0.0099999998 0.30005807
0.29970327 0.0099999998 0.16002554
0.29970315 0.0099999998 0.18002915
0.29970437 0.0099999998 0.20003308
0.29970768 0.0099999998 0.22003765
0.29971385 0.0099999998 0.24004322
0.29972368 0.0099999998 0.26005057
0.29973748 0.0099999998 0.28005928
0.29975536 0.0099999998 0.30006763
0.31966481 0.0099999998 0.16003159
0.31966433 0.0099999998 0.18003623
0.31966525 0.0099999998 0.20004123
0.31966823 0.0099999998 0.22004682
0.31967413 0.0099999998 0.24005321
0.31968361 0.0099999998 0.2600607
0.31969681 0.0099999998 0.2800689
0.31971371 0.0099999998 0.30007696
0.33962223 0.0099999998 0.16003783
0.33962139 0.0099999998 0.18004341
0.33962205 0.0099999998 0.20004936
0.33962488 0.0099999998 0.22005571
0.33963084 0.0099999998 0.24006265
0.33964053 0.0099999998 0.26007023
0.33965409 0.0099999998 0.28007844
0.33967143 0.0099999998 0.30008653
0.35957524 0.0099999998 0.1600441
0.35957408 0.0099999998 0.18005055
0.35957444 0.0099999998 0.20005731
0.35957718 0.0099999998 0.22006436
0.35958338 0.0099999998 0.24007177
0.35959363 0.0099999998 0.26007959
0.35960826 0.0099999998 0.28008813
0.35962719 0.0099999998 0.30009663
0.37952343 0.0099999998 0.1600503
0.37952194 0.0099999998 0.18005756
0.37952206 0.0099999998 0.20006511
0.37952474 0.0099999998 0.22007285
0.3795312 0.0099999998 0.24008082
0.3795422 0.0099999998 0.26008907
0.37955821 0.0099999998 0.2800982
0.37957919 0.0099999998 0.30010733
0.39946645 0.0099999998 0.16005637
0.39946464 0.0099999998 0.18006445
0.39946452 0.0099999998 0.20007282
0.39946714 0.0099999998 0.22008134
0.39947394 0.0099999998 0.24009
0.3994858 0.0099999998 0.26009884
0.39950329 0.0099999998 0.28010869
0.39952651 0.0099999998 0.3001186
0.41940394 0.0099999998 0.1600623
0.41940174 0.0099999998 0.18007125
0.41940135 0.0099999998 0.20008051
0.41940397 0.0099999998 0.22008991
0.41941112 0.0099999998 0.24009939
0.41942391 0.0099999998 0.26010901
0.41944307 0.0099999998 0.28011975
0.4194687 0.0099999998 0.30013055
0.43933544 0.0099999998 0.16006817
0.43933284 0.0099999998 0.18007801
0.43933213 0.0099999998 0.2000882
0.43933469 0.0099999998 0.22009856
0.43934223 0.0099999998 0.24010901
0.43935603 0.0099999998 0.26011968
0.43937695 0.0099999998 0.28013146
0.4394052 0.0099999998 0.30014336
0.45926046 0.0099999998 0.16007425
0.45925736 0.0099999998 0.18008494
0.45925623 0.0099999998 0.200096
0.45925868 0.0099999998 0.22010726
0.4592666 0.0099999998 0.24011874
0.45928144 0.0099999998 0.26013073
0.45930418 0.0099999998 0.28014401
0.45933527 0.0099999998 0.30015719
0.47917852 0.0099999998 0.16008106
0.47917476 0.0099999998 0.18009248
0.47917306 0.0099999998 0.20010419
0.47917524 0.0099999998 0.22011612
0.47918341 0.0099999998 0.2401285
0.4791992 0.0099999998 0.26014212
0.47922373 0.0099999998 0.28015745
0.47925761 0.0099999998 0.30017245
0.49908897 0.0099999998 0.16008945
0.49908447 0.0099999998 0.18010142
0.49908206 0.0099999998 0.20011345
0.49908376 0.0099999998 0.2201256
0.49909183 0.0099999998 0.24013841
0.49910828 0.0099999998 0.26015377
0.49913421 0.0099999998 0.28017208
0.49917039 0.0099999998 0.30018952
0.51899159 0.0099999998 0.16010053
0.51898623 0.0099999998 0.18011299
0.51898295 0.0099999998 0.20012498
0.51898384 0.0099999998 0.22013679
0.51899141 0.0099999998 0.24014924
0.5190078 0.0099999998 0.26016605
0.51903403 0.0099999998 0.28018823
0.51907098 0.0099999998 0.30020908
0.53888667 0.0099999998 0.16011545
0.53888047 0.0099999998 0.18012859
0.53887624 0.0099999998 0.20014054
0.53887606 0.0099999998 0.22015147
0.53888249 0.0099999998 0.24016267
0.53889763 0.0099999998 0.26018003
0.53892231 0.0099999998 0.28020686
0.53895688 0.0099999998 0.30023211
0.55877626 0.0099999998 0.16013534
0.55876946 0.0099999998 0.18014972
0.5587644 0.0099999998 0.20016201
0.55876303 0.0099999998 0.22017218
0.55876762 0.0099999998 0.24018128
0.55878001 0.0099999998 0.26019809
0.55880046 0.0099999998 0.28022972
0.55882818 0.0099999998 0.30026013
0.57866484 0.0099999998 0.16016056
0.57865793 0.0099999998 0.1801772
0.57865244 0.0099999998 0.20019078
0.57865012 0.0099999998 0.22020106
0.57865208 0.0099999998 0.24020815
0.57866037 0.0099999998 0.26022419
0.57867402 0.0099999998 0.28026024
0.57869005 0.0099999998 0.30029574
0.59855908 0.0099999998 0.16019014
0.59855193 0.0099999998 0.18020937
0.59854621 0.0099999998 0.20022532
0.59854293 0.0099999998 0.22023715
0.59854323 0.0099999998 0.24024585
0.5985474 0.0099999998 0.26026464
0.59855247 0.0099999998 0.28030407
0.59855413 0.0099999998 0.30034333
0.6184656 0.0099999998 0.16022249
0.61845773 0.0099999998 0.1802444
0.61845076 0.0099999998 0.20026344
0.61844647 0.0099999998 0.22028045
0.61844414 0.0099999998 0.24029569
0.6184451 0.0099999998 0.26032436
0.61844599 0.0099999998 0.28036988
0.61843574 0.0099999998 0.30040967
0.63838869 0.0099999998 0.16025592
0.63838035 0.0099999998 0.18028177
0.63837135 0.0099999998 0.20030618
0.63836432 0.0099999998 0.22033286
0.63836104 0.0099999998 0.24036852
0.63836175 0.0099999998 0.26041687
0.63836128 0.0099999998 0.28046316
0.638349 0.0099999998 0.30049959
0.65833366 0.0099999998 0.16029356
0.65832573 0.0099999998 0.18032651
0.65831763 0.0099999998 0.20036371
0.65831256 0.0099999998 0.22041447
0.65831339 0.0099999998 0.24048391
0.65831512 0.0099999998 0.26054293
0.65831429 0.0099999998 0.28057694
0.65830725 0.0099999998 0.30060557
0.67831397 0.0099999998 0.16035327
0.67830783 0.0099999998 0.180398
0.67830223 0.0099999998 0.20045339
0.67830312 0.0099999998 0.22053257
0.6783123 0.0099999998 0.24062319
0.67831552 0.0099999998 0.26066712
0.67832065 0.0099999998 0.28068265
0.67834371 0.0099999998 0.30070323
0.69835728 0.0099999998 0.16045707
0.698358 0.0099999998 0.18051949
0.69836098 0.0099999998 0.20059502
0.69837373 0.0099999998 0.22068572
0.69838959 0.0099999998 0.24075651
0.69839579 0.0099999998 0.26076689
0.69845259 0.0099999998 0.28076336
0.69861716 0.0099999998 0.30077928
0.71857178 0.0099999998 0.16062523
0.7185778 0.0099999998 0.18069454
0.71858817 0.0099999998 0.2007616
0.71860784 0.0099999998 0.22081555
0.71865934 0.0099999998 0.24084422
0.71876496 0.0099999998 0.26082852
0.71891892 0.0099999998 0.28081831
0.71908498 0.0099999998 0.30083469
0.73907399 0.0099999998 0.16064265
0.73908317 0.0099999998 0.18071145
0.73909628 0.0099999998 0.20077673
0.73912323 0.0099999998 0.22082396
0.73917544 0.0099999998 0.24084951
0.73925394 0.0099999998 0.26084563
0.73935223 0.0099999998 0.28085238
0.73945552 0.0099999998 0.30087575
0.75946641 0.0099999998 0.1606278
0.75947791 0.0099999998 0.18068998
0.75949132 0.0099999998 0.20075476
0.75951219 0.0099999998 0.22080603
0.75954515 0.0099999998 0.24083626
0.75959003 0.0099999998 0.26084951
0.75964159 0.0099999998 0.28087425
0.75969732 0.0099999998 0.30090731
0.77974963 0.0099999998 0.1606099
0.77975863 0.0099999998 0.18066666
0.77976799 0.0099999998 0.20072787
0.77977973 0.0099999998 0.22078601
0.77979481 0.0099999998 0.24082533
0.77981234 0.0099999998 0.26085716
0.77983022 0.0099999998 0.280889
0.77985132 0.0099999998 0.30092821
0.79998356 0.0099999998 0.1605961
0.79998916 0.0099999998 0.18065085
0.79999387 0.0099999998 0.20071197
0.79999709 0.0099999998 0.2207773
0.79999727 0.0099999998 0.24082506
0.79999304 0.0099999998 0.26086324
0.799986 0.0099999998 0.28089616
0.79997993 0.0099999998 0.30093849
0.82021785 0.0099999998 0.1605882
0.82022238 0.0099999998 0.18064377
0.82022536 0.0099999998 0.20070739
0.82022363 0.0099999998 0.22078243
0.82021242 0.0099999998 0.24083295
0.82019037 0.0099999998 0.26086512
0.82016242 0.0099999998 0.2808958
0.82013059 0.0099999998 0.30093923
0.84047139 0.0099999998 0.16058382
0.84047842 0.0099999998 0.18064119
0.84048414 0.0099999998 0.20070715
0.84048194 0.0099999998 0.2207856
0.84046203 0.0099999998 0.2408333
0.84042454 0.0099999998 0.26085758
0.84037596 0.0099999998 0.2808862
0.84031695 0.0099999998 0.30092937
0.86073589 0.0099999998 0.16057856
0.86074859 0.0099999998 0.1806373
0.86076051 0.0099999998 0.20070408
0.86076117 0.0099999998 0.22077949
0.86073482 0.0099999998 0.24082303
0.86068243 0.0099999998 0.26084197
0.86061281 0.0099999998 0.28086874
0.86052531 0.0099999998 0.30091053
0.88099283 0.0099999998 0.16056818
0.88101262 0.0099999998 0.18062712
0.88103217 0.0099999998 0.20069288
0.88103634 0.0099999998 0.22076263
0.88100445 0.0099999998 0.24080306
0.88093728 0.0099999998 0.26081946
0.88084745 0.0099999998 0.28084525
0.88073289 0.0099999998 0.30088487
0.90122598 0.0099999998 0.16055004
0.90125233 0.0099999998 0.18060786
0.90127861 0.0099999998 0.20067105
0.90128326 0.0099999998 0.22073334
0.90124333 0.0099999998 0.24077219
0.9011656 0.0099999998 0.26079109
0.90105802 0.0099999998 0.28081739
0.90092182 0.0099999998 0.30085409
0.92140454 0.0099999998 0.16052373
0.92144167 0.0099999998 0.18057957
0.92147911 0.0099999998 0.20063871
0.92148489 0.0099999998 0.22069138
0.92143667 0.0099999998 0.24073204
0.92135024 0.0099999998 0.26075676
0.92123115 0.0099999998 0.28078616
0.92108226 0.0099999998 0.30081922
0.94148713 0.0099999998 0.16049232
0.94153053 0.0099999998 0.18054685
0.94157904 0.0099999998 0.20060371
0.94161111 0.0099999998 0.22064963
0.94158155 0.0099999998 0.24068546
0.9414891 0.0099999998 0.26071933
0.94136286 0.0099999998 0.28075159
0.94121057 0.0099999998 0.30078098
0.96151745 0.0099999998 0.16046126
0.96156377 0.0099999998 0.18051466
0.9616164 0.0099999998 0.20056985
0.96166217 0.0099999998 0.22061768
0.96166956 0.0099999998 0.24064556
0.9615947 0.0099999998 0.26067883
0.96146756 0.0099999998 0.28071335
0.96131676 0.0099999998 0.30073935
0.98152059 0.0099999998 0.16043414
0.98156899 0.0099999998 0.18048556
0.98162442 0.0099999998 0.20053706
0.9816792 0.0099999998 0.22058704
0.98171061 0.0099999998 0.2406133
0.98167479 0.0099999998 0.26063609
0.98156035 0.0099999998 0.28067082
0.98141605 0.0099999998 0.30069458
1.0015119000000001 0.0099999998 0.16040875
1.0015621 0.0099999998 0.18045631
1.0016199000000001 0.0099999998 0.20050457
1.0016804 0.0099999998 0.22055101
1.0017267 0.0099999998 0.24057868
1.0017312 0.0099999998 0.26059276
1.0016466 0.0099999998 0.28062424
1.0015198 0.0099999998 0.30064705
1.0214965 0.0099999998 0.16038376
1.021549 0.0099999998 0.18042903
1.0216098 0.0099999998 0.20047346
1.0216745999999999 0.0099999998 0.22051315
1.0217328 0.0099999998 0.2405387
1.021765 0.0099999998 0.26054952
1.0217321 0.0099999998 0.28057405
1.0216364 0.0099999998 0.30059776
1.0414765 0.0099999998 0.16035882
1.0415323 0.0099999998 0.18040055
1.0415963 0.0099999998 0.20043865
1.0416665 0.0099999998 0.22047313
1.0417331 0.0099999998 0.24049526
1.0417863 0.0099999998 0.26050636
1.0418167999999999 0.0099999998 0.28052482
1.0417762 0.0099999998 0.30054742
1.061453 0.0099999998 0.16033258
1.0615126 0.0099999998 0.18036959
1.0615815 0.0099999998 0.20040235
1.061658 0.0099999998 0.22043218
1.0617317 0.0099999998 0.24045199
1.0618049999999999 0.0099999998 0.26046365
1.0618722 0.0099999998 0.28048226
1.0619117 0.0099999998 0.30050045
1.0814278 0.0099999998 0.16030575
1.0814914 0.0099999998 0.18033549
1.0815668999999999 0.0099999998 0.2003639
1.0816497999999999 0.0099999998 0.22039118
1.0817288 0.0099999998 0.24040696
1.0818135 0.0099999998 0.26041988
1.0819017 0.0099999998 0.28044125
1.0819647 0.0099999998 0.30045739
1.1014021999999999 0.0099999998 0.16027474
1.1014715 0.0099999998 0.1802998
1.1015538999999999 0.0099999998 0.20032533
1.1016411 0.0099999998 0.22034763
1.1017237 0.0099999998 0.24036035
1.1018112 0.0099999998 0.26037675
1.1019063999999998 0.0099999998 0.28040236
1.1213790000000001 0.0099999998 0.16024168
1.1214549999999999 0.0099999998 0.18026373
1.1215427 0.0099999998 0.20028637
1.1216321000000002 0.0099999998 0.2203045
1.1217158 0.0099999998 0.24031709
1.1218045 0.0099999998 0.26034093
1.1218901000000001 0.0099999998 0.28036758
1.1413606 0.0099999998 0.16020894
1.1414427 0.0099999998 0.18022983
1.1415347 0.0099999998 0.20025139
1.1416245 0.0099999998 0.22026752
1.1417071 0.0099999998 0.24028528
1.1417935 0.0099999998 0.26031482
1.1613485000000001 0.0099999998 0.16017982
1.1614361999999998 0.0099999998 0.1802018
1.1615316 0.0099999998 0.20022364
1.1616182 0.0099999998 0.22024032
1.1617005 0.0099999998 0.24026713
1.1617695 0.0099999998 0.26029381
1.1813446 0.0099999998 0.16015887
1.1814396 0.0099999998 0.18018422
1.1815326000000002 0.0099999998 0.20020655
1.1816131 0.0099999998 0.22022781
1.1816845 0.0099999998 0.24025676
1.2013551000000002 0.0099999998 0.16015129
1.2014483 0.0099999998 0.1801759
1.201534 0.0099999998 0.20020139
1.2015988000000002 0.0099999998 0.22022352
1.2213675 0.0099999998 0.16014963
1.2214483999999999 0.0099999998 0.18017443
1.2215183 0.0099999998 0.20020051
1.2215465 0.0099999998 0.22020949
1.241359 0.0099999998 0.16014722
1.2414193999999998 0.0099999998 0.18016998
1.2613164 0.0099999998 0.16013935
VERTICES 2975 5950
1 0
1 1
1 2
1 3
1 4
1 5
1 6
1 7
1 8
1 9
1 10
1 11
1 12
1 13
1 14
1 15
1 16
1 17
1 18
1 19
1 20
1 21
1 22
1 23
1 24
1 25
1 26
1 27
1 28
1 29
1 30
1 31
1 32
1 33
1 34
1 35
1 36
1 37
1 38
1 39
1 40
1 41
1 42
1 43
1 44
1 45
1 46
1 47
1 48
1 49
1 50
1 51
1 52
1 53
1 54
1 55
1 56
1 57
1 58
1 59
1 60
1 61
1 62
1 63
1 64
1 65
1 66
1 67
1 68
1 69
1 70
1 71
1 72
1 73
1 74
1 75
1 76
1 77
1 78
1 79
1 80
1 81
1 82
1 83
1 84
1 85
1 86
1 87
1 88
1 89
1 90
1 91
1 92
1 93
1 94
1 95
1 96
1 97
1 98
1 99
1 100
1 101
1 102
1 103
1 104
1 105
1 106
1 107
1 108
1 109
1 110
1 111
1 112
1 113
1 114
1 115
1 116
1 117
1 118
1 119
1 120
1 121
1 122
1 123
1 124
1 125
1 126
1 127
1 128
1 129
1 130
1 131
1 132
1 133
1 134
1 135
1 136
1 137
1 138
1 139
1 140
1 141
1 142
1 143
1 144
1 145
1 146
1 147
1 148
1 149
1 150
1 151
1 152
1 153
1 154
1 155
1 156
1 157
1 158
1 159
1 160
1 161
1 162
1 163
1 164
1 165
1 166
1 167
1 168
1 169
1 170
1 171
1 172
1 173
1 174
1 175
1 176
1 177
1 178
1 179
1 180
1 181
1 182
1 183
1 184
1 185
1 186
1 187
1 188
1 189
1 190
1 191
1 192
1 193
1 194
1 195
1 196
1 197
1 198
1 199
1 200
1 201
1 202
1 203
1 204
1 205
1 206
1 207
1 208
1 209
1 210
1 211
1 212
1 213
1 214
1 215
1 216
1 217
1 218
1 219
1 220
1 221
1 222
1 223
1 224
1 225
1 226
1 227
1 228
1 229
1 230
1 231
1 232
1 233
1 234
1 235
1 236
1 237
1 238
1 239
1 240
1 241
1 242
1 243
1 244
1 245
1 246
1 247
1 248
1 249
1 250
1 251
1 252
1 253
1 254
1 255
1 256
1 257
1 258
1 259
1 260
1 261
1 262
1 263
1 264
1 265
1 266
1 267
1 268
1 269
1 270
1 271
1 272
1 273
1 274
1 275
1 276
1 277
1 278
1 279
1 280
1 281
1 282
1 283
1 284
1 285
1 286
1 287
1 288
1 289
1 290
1 291
1 292
1 293
1 294
1 295
1 296
1 297
1 298
1 299
1 300
1 301
1 302
1 303
1 304
1 305
1 306
1 307
1 308
1 309
1 310
1 311
1 312
1 313
1 314
1 315
1 316
1 317
1 318
1 319
1 320
1 321
1 322
1 323
1 324
1 325
1 326
1 327
1 328
1 329
1 330
1 331
1 332
1 333
1 334
1 335
1 336
1 337
1 338
1 339
1 340
1 341
1 342
1 343
1 344
1 345
1 346
1 347
1 348
1 349
1 350
1 351
1 352
1 353
1 354
1 355
1 356
1 357
1 358
1 359
1 360
1 361
1 362
1 363
1 364
1 365
1 366
1 367
1 368
1 369
1 370
1 371
1 372
1 373
1 374
1 375
1 376
1 377
1 378
1 379
1 380
1 381
1 382
1 383
1 384
1 385
1 386
1 387
1 388
1 389
1 390
1 391
1 392
1 393
1 394
1 395
1 396
1 397
1 398
1 399
1 400
1 401
1 402
1 403
1 404
1 405
1 406
1 407
1 408
1 409
1 410
1 411
1 412
1 413
1 414
1 415
1 416
1 417
1 418
1 419
1 420
1 421
1 422
1 423
1 424
1 425
1 426
1 427
1 428
1 429
1 430
1 431
1 432
1 433
1 434
1 435
1 436
1 437
1 438
1 439
1 440
1 441
1 442
1 443
1 444
1 445
1 446
1 447
1 448
1 449
1 450
1 451
1 452
1 453
1 454
1 455
1 456
1 457
1 458
1 459
1 460
1 461
1 462
1 463
1 464
1 465
1 466
1 467
1 468
1 469
1 470
1 471
1 472
1 473
1 474
1 475
1 476
1 477
1 478
1 479
1 480
1 481
1 482
1 483
1 484
1 485
1 486
1 487
1 488
1 489
1 490
1 491
1 492
1 493
1 494
1 495
1 496
1 497
1 498
1 499
1 500
1 501
1 502
1 503
1 504
1 505
1 506
1 507
1 508
1 509
1 510
1 511
1 512
1 513
1 514
1 515
1 516
1 517
1 518
1 519
1 520
1 521
1 522
1 523
1 524
1 525
1 526
1 527
1 528
1 529
1 530
1 531
1 532
1 533
1 534
1 535
1 536
1 537
1 538
1 539
1 540
1 541
1 542
1 543
1 544
1 545
1 546
1 547
1 548
1 549
1 550
1 551
1 552
1 553
1 554
1 555
1 556
1 557
1 558
1 559
1 560
1 561
1 562
1 563
1 564
1 565
1 566
1 567
1 568
1 569
1 570
1 571
1 572
1 573
1 574
1 575
1 576
1 577
1 578
1 579
1 580
1 581
1 582
1 583
1 584
1 585
1 586
1 587
1 588
1 589
1 590
1 591
1 592
1 593
1 594
1 595
1 596
1 597
1 598
1 599
1 600
1 601
1 602
1 603
1 604
1 605
1 606
1 607
1 608
1 609
1 610
1 611
1 612
1 613
1 614
1 615
1 616
1 617
1 618
1 619
1 620
1 621
1 622
1 623
1 624
1 625
1 626
1 627
1 628
1 629
1 630
1 631
1 632
1 633
1 634
1 635
1 636
1 637
1 638
1 639
1 640
1 641
1 642
1 643
1 644
1 645
1 646
1 647
1 648
1 649
1 650
1 651
1 652
1 653
1 654
1 655
1 656
1 657
1 658
1 659
1 660
1 661
1 662
1 663
1 664
1 665
1 666
1 667
1 668
1 669
1 670
1 671
1 672
1 673
1 674
1 675
1 676
1 677
1 678
1 679
1 680
1 681
1 682
1 683
1 684
1 685
1 686
1 687
1 688
1 689
1 690
1 691
1 692
1 693
1 694
1 695
1 696
1 697
1 698
1 699
1 700
1 701
1 702
1 703
1 704
1 705
1 706
1 707
1 708
1 709
1 710
1 711
1 712
1 713
1 714
1 715
1 716
1 717
1 718
1 719
1 720
1 721
1 722
1 723
1 724
1 725
1 726
1 727
1 728
1 729
1 730
1 731
1 732
1 733
1 734
1 735
1 736
1 737
1 738
1 739
1 740
1 741
1 742
1 743
1 744
1 745
1 746
1 747
1 748
1 749
1 750
1 751
1 752
1 753
1 754
1 755
1 756
1 757
1 758
1 759
1 760
1 761
1 762
1 763
1 764
1 765
1 766
1 767
1 768
1 769
1 770
1 771
1 772
1 773
1 774
1 775
1 776
1 777
1 778
1 779
1 780
1 781
1 782
1 783
1 784
1 785
1 786
1 787
1 788
1 789
1 790
1 791
1 792
1 793
1 794
1 795
1 796
1 797
1 798
1 799
1 800
1 801
1 802
1 803
1 804
1 805
1 806
1 807
1 808
1 809
1 810
1 811
1 812
1 813
1 814
1 815
1 816
1 817
1 818
1 819
1 820
1 821
1 822
1 823
1 824
1 825
1 826
1 827
1 828
1 829
1 830
1 831
1 832
1 833
1 834
1 835
1 836
1 837
1 838
1 839
1 840
1 841
1 842
1 843
1 844
1 845
1 846
1 847
1 848
1 849
1 850
1 851
1 852
1 853
1 854
1 855
1 856
1 857
1 858
1 859
1 860
1 861
1 862
1 863
1 864
1 865
1 866
1 867
1 868
1 869
1 870
1 871
1 872
1 873
1 874
1 875
1 876
1 877
1 878
1 879
1 880
1 881
1 882
1 883
1 884
1 885
1 886
1 887
1 888
1 889
1 890
1 891
1 892
1 893
1 894
1 895
1 896
1 897
1 898
1 899
1 900
1 901
1 902
1 903
1 904
1 905
1 906
1 907
1 908
1 909
1 910
1 911
1 912
1 913
1 914
1 915
1 916
1 917
1 918
1 919
1 920
1 921
1 922
1 923
1 924
1 925
1 926
1 927
1 928
1 929
1 930
1 931
1 932
1 933
1 934
1 935
1 936
1 937
1 938
1 939
1 940
1 941
1 942
1 943
1 944
1 945
1 946
1 947
1 948
1 949
1 950
1 951
1 952
1 953
1 954
1 955
1 956
1 957
1 958
1 959
1 960
1 961
1 962
1 963
1 964
1 965
1 966
1 967
1 968
1 969
1 970
1 971
1 972
1 973
1 974
1 975
1 976
1 977
1 978
1 979
1 980
1 981
1 982
1 983
1 984
1 985
1 986
1 987
1 988
1 989
1 990
1 991
1 992
1 993
1 994
1 995
1 996
1 997
1 998
1 999
1 1000
1 1001
1 1002
1 1003
1 1004
1 1005
1 1006
1 1007
1 1008
1 1009
1 1010
1 1011
1 1012
1 1013
1 1014
1 1015
1 1016
1 1017
1 1018
1 1019
1 1020
1 1021
1 1022
1 1023
1 1024
1 1025
1 1026
1 1027
1 1028
1 1029
1 1030
1 1031
1 1032
1 1033
1 1034
1 1035
1 1036
1 1037
1 1038
1 1039
1 1040
1 1041
1 1042
1 1043
1 1044
1 1045
1 1046
1 1047
1 1048
1 1049
1 1050
1 1051
1 1052
1 1053
1 1054
1 1055
1 1056
1 1057
1 1058
1 1059
1 1060
1 1061
1 1062
1 1063
1 1064
1 1065
1 1066
1 1067
1 1068
1 1069
1 1070
1 1071
1 1072
1 1073
1 1074
1 1075
1 1076
1 1077
1 1078
1 1079
1 1080
1 1081
1 1082
1 1083
1 1084
1 1085
1 1086
1 1087
1 1088
1 1089
1 1090
1 1091
1 1092
1 1093
1 1094
1 1095
1 1096
1 1097
1 1098
1 1099
1 1100
1 1101
1 1102
1 1103
1 1104
1 1105
1 1106
1 1107
1 1108
1 1109
1 1110
1 1111
1 1112
1 1113
1 1114
1 1115
1 1116
1 1117
1 1118
1 1119
1 1120
1 1121
1 1122
1 1123
1 1124
1 1125
1 1126
1 1127
1 1128
1 1129
1 1130
1 1131
1 1132
1 1133
1 1134
1 1135
1 1136
1 1137
1 1138
1 1139
1 1140
1 1141
1 1142
1 1143
1 1144
1 1145
1 1146
1 1147
1 1148
1 1149
1 1150
1 1151
1 1152
1 1153
1 1154
1 1155
1 1156
1 1157
1 1158
1 1159
1 1160
1 1161
1 1162
1 1163
1 1164
1 1165
1 1166
1 1167
1 1168
1 1169
1 1170
1 1171
1 1172
1 1173
1 1174
1 1175
1 1176
1 1177
1 1178
1 1179
1 1180
1 1181
1 1182
1 1183
1 1184
1 1185
1 1186
1 1187
1 1188
1 1189
1 1190
1 1191
1 1192
1 1193
1 1194
1 1195
1 1196
1 1197
1 1198
1 1199
1 1200
1 1201
1 1202
1 1203
1 1204
1 1205
1 1206
1 1207
1 1208
1 1209
1 1210
1 1211
1 1212
1 1213
1 1214
1 1215
1 1216
1 1217
1 1218
1 1219
1 1220
1 1221
1 1222
1 1223
1 1224
1 1225
1 1226
1 1227
1 1228
1 1229
1 1230
1 1231
1 1232
1 1233
1 1234
1 1235
1 1236
1 1237
1 1238
1 1239
1 1240
1 1241
1 1242
1 1243
1 1244
1 1245
1 1246
1 1247
1 1248
1 1249
1 1250
1 1251
1 1252
1 1253
1 1254
1 1255
1 1256
1 1257
1 1258
1 1259
1 1260
1 1261
1 1262
1 1263
1 1264
1 1265
1 1266
1 1267
1 1268
1 1269
1 1270
1 1271
1 1272
1 1273
1 1274
1 1275
1 1276
1 1277
1 1278
1 1279
1 1280
1 1281
1 1282
1 1283
1 1284
1 1285
1 1286
1 1287
1 1288
1 1289
1 1290
1 1291
1 1292
1 1293
1 1294
1 1295
1 1296
1 1297
1 1298
1 1299
1 1300
1 1301
1 1302
1 1303
1 1304
1 1305
1 1306
1 1307
1 1308
1 1309
1 1310
1 1311
1 1312
1 1313
1 1314
1 1315
1 1316
1 1317
1 1318
1 1319
1 1320
1 1321
1 1322
1 1323
1 1324
1 1325
1 1326
1 1327
1 1328
1 1329
1 1330
1 1331
1 1332
1 1333
1 1334
1 1335
1 1336
1 1337
1 1338
1 1339
1 1340
1 1341
1 1342
1 1343
1 1344
1 1345
1 1346
1 1347
1 1348
1 1349
1 1350
1 1351
1 1352
1 1353
1 1354
1 1355
1 1356
1 1357
1 1358
1 1359
1 1360
1 1361
1 1362
1 1363
1 1364
1 1365
1 1366
1 1367
1 1368
1 1369
1 1370
1 1371
1 1372
1 1373
1 1374
1 1375
1 1376
1 1377
1 1378
1 1379
1 1380
1 1381
1 1382
1 1383
1 1384
1 1385
1 1386
1 1387
1 1388
1 1389
1 1390
1 1391
1 1392
1 1393
1 1394
1 1395
1 1396
1 1397
1 1398
1 1399
1 1400
1 1401
1 1402
1 1403
1 1404
1 1405
1 1406
1 1407
1 1408
1 1409
1 1410
1 1411
1 1412
1 1413
1 1414
1 1415
1 1416
1 1417
1 1418
1 1419
1 1420
1 1421
1 1422
1 1423
1 1424
1 1425
1 1426
1 1427
1 1428
1 1429
1 1430
1 1431
1 1432
1 1433
1 1434
1 1435
1 1436
1 1437
1 1438
1 1439
1 1440
1 1441
1 1442
1 1443
1 1444
1 1445
1 1446
1 1447
1 1448
1 1449
1 1450
1 1451
1 1452
1 1453
1 1454
1 1455
1 1456
1 1457
1 1458
1 1459
1 1460
1 1461
1 1462
1 1463
1 1464
1 1465
1 1466
1 1467
1 1468
1 1469
1 1470
1 1471
1 1472
1 1473
1 1474
1 1475
1 1476
1 1477
1 1478
1 1479
1 1480
1 1481
1 1482
1 1483
1 1484
1 1485
1 1486
1 1487
1 1488
1 1489
1 1490
1 1491
1 1492
1 1493
1 1494
1 1495
1 1496
1 1497
1 1498
1 1499
1 1500
1 1501
1 1502
1 1503
1 1504
1 1505
1 1506
1 1507
1 1508
1 1509
1 1510
1 1511
1 1512
1 1513
1 1514
1 1515
1 1516
1 1517
1 1518
1 1519
1 1520
1 1521
1 1522
1 1523
1 1524
1 1525
1 1526
1 1527
1 1528
1 1529
1 1530
1 1531
1 1532
1 1533
1 1534
1 1535
1 1536
1 1537
1 1538
1 1539
1 1540
1 1541
1 1542
1 1543
1 1544
1 1545
1 1546
1 1547
1 1548
1 1549
1 1550
1 1551
1 1552
1 1553
1 1554
1 1555
1 1556
1 1557
1 1558
1 1559
1 1560
1 1561
1 1562
1 1563
1 1564
1 1565
1 1566
1 1567
1 1568
1 1569
1 1570
1 1571
1 1572
1 1573
1 1574
1 1575
1 1576
1 1577
1 1578
1 1579
1 1580
1 1581
1 1582
1 1583
1 1584
1 1585
1 1586
1 1587
1 1588
1 1589
1 1590
1 1591
1 1592
1 1593
1 1594
1 1595
1 1596
1 1597
1 1598
1 1599
1 1600
1 1601
1 1602
1 1603
1 1604
1 1605
1 1606
1 1607
1 1608
1 1609
1 1610
1 1611
1 1612
1 1613
1 1614
1 1615
1 1616
1 1617
1 1618
1 1619
1 1620
1 1621
1 1622
1 1623
1 1624
1 1625
1 1626
1 1627
1 1628
1 1629
1 1630
1 1631
1 1632
1 1633
1 1634
1 1635
1 1636
1 1637
1 1638
1 1639
1 1640
1 1641
1 1642
1 1643
1 1644
1 1645
1 1646
1 1647
1 1648
1 1649
1 1650
1 1651
1 1652
1 1653
1 1654
1 1655
1 1656
1 1657
1 1658
1 1659
1 1660
1 1661
1 1662
1 1663
1 1664
1 1665
1 1666
1 1667
1 1668
1 1669
1 1670
1 1671
1 1672
1 1673
1 1674
1 1675
1 1676
1 1677
1 1678
1 1679
1 1680
1 1681
1 1682
1 1683
1 1684
1 1685
1 1686
1 1687
1 1688
1 1689
1 1690
1 1691
1 1692
1 1693
1 1694
1 1695
1 1696
1 1697
1 1698
1 1699
1 1700
1 1701
1 1702
1 1703
1 1704
1 1705
1 1706
1 1707
1 1708
1 1709
1 1710
1 1711
1 1712
1 1713
1 1714
1 1715
1 1716
1 1717
1 1718
1 1719
1 1720
1 1721
1 1722
1 1723
1 1724
1 1725
1 1726
1 1727
1 1728
1 1729
1 1730
1 1731
1 1732
1 1733
1 1734
1 1735
1 1736
1 1737
1 1738
1 1739
1 1740
1 1741
1 1742
1 1743
1 1744
1 1745
1 1746
1 1747
1 1748
1 1749
1 1750
1 1751
1 1752
1 1753
1 1754
1 1755
1 1756
1 1757
1 1758
1 1759
1 1760
1 1761
1 1762
1 1763
1 1764
1 1765
1 1766
1 1767
1 1768
1 1769
1 1770
1 1771
1 1772
1 1773
1 1774
1 1775
1 1776
1 1777
1 1778
1 1779
1 1780
1 1781
1 1782
1 1783
1 1784
1 1785
1 1786
1 1787
1 1788
1 1789
1 1790
1 1791
1 1792
1 1793
1 1794
1 1795
1 1796
1 1797
1 1798
1 1799
1 1800
1 1801
1 1802
1 1803
1 1804
1 1805
1 1806
1 1807
1 1808
1 1809
1 1810
1 1811
1 1812
1 1813
1 1814
1 1815
1 1816
1 1817
1 1818
1 1819
1 1820
1 1821
1 1822
1 1823
1 1824
1 1825
1 1826
1 1827
1 1828
1 1829
1 1830
1 1831
1 1832
1 1833
1 1834
1 1835
1 1836
1 1837
1 1838
1 1839
1 1840
1 1841
1 1842
1 1843
1 1844
1 1845
1 1846
1 1847
1 1848
1 1849
1 1850
1 1851
1 1852
1 1853
1 1854
1 1855
1 1856
1 1857
1 1858
1 1859
1 1860
1 1861
1 1862
1 1863
1 1864
1 1865
1 1866
1 1867
1 1868
1 1869
1 1870
1 1871
1 1872
1 1873
1 1874
1 1875
1 1876
1 1877
1 1878
1 1879
1 1880
1 1881
1 1882
1 1883
1 1884
1 1885
1 1886
1 1887
1 1888
1 1889
1 1890
1 1891
1 1892
1 1893
1 1894
1 1895
1 1896
1 1897
1 1898
1 1899
1 1900
1 1901
1 1902
1 1903
1 1904
1 1905
1 1906
1 1907
1 1908
1 1909
1 1910
1 1911
1 1912
1 1913
1 1914
1 1915
1 1916
1 1917
1 1918
1 1919
1 1920
1 1921
1 1922
1 1923
1 1924
1 1925
1 1926
1 1927
1 1928
1 1929
1 1930
1 1931
1 1932
1 1933
1 1934
1 1935
1 1936
1 1937
1 1938
1 1939
1 1940
1 1941
1 1942
1 1943
1 1944
1 1945
1 1946
1 1947
1 1948
1 1949
1 1950
1 1951
1 1952
1 1953
1 1954
1 1955
1 1956
1 1957
1 1958
1 1959
1 1960
1 1961
1 1962
1 1963
1 1964
1 1965
1 1966
1 1967
1 1968
1 1969
1 1970
1 1971
1 1972
1 1973
1 1974
1 1975
1 1976
1 1977
1 1978
1 1979
1 1980
1 1981
1 1982
1 1983
1 1984
1 1985
1 1986
1 1987
1 1988
1 1989
1 1990
1 1991
1 1992
1 1993
1 1994
1 1995
1 1996
1 1997
1 1998
1 1999
1 2000
1 2001
1 2002
1 2003
1 2004
1 2005
1 2006
1 2007
1 2008
1 2009
1 2010
1 2011
1 2012
1 2013
1 2014
1 2015
1 2016
1 2017
1 2018
1 2019
1 2020
1 2021
1 2022
1 2023
1 2024
1 2025
1 2026
1 2027
1 2028
1 2029
1 2030
1 2031
1 2032
1 2033
1 2034
1 2035
1 2036
1 2037
1 2038
1 2039
1 2040
1 2041
1 2042
1 2043
1 2044
1 2045
1 2046
1 2047
1 2048
1 2049
1 2050
1 2051
1 2052
1 2053
1 2054
1 2055
1 2056
1 2057
1 2058
1 2059
1 2060
1 2061
1 2062
1 2063
1 2064
1 2065
1 2066
1 2067
1 2068
1 2069
1 2070
1 2071
1 2072
1 2073
1 2074
1 2075
1 2076
1 2077
1 2078
1 2079
1 2080
1 2081
1 2082
1 2083
1 2084
1 2085
1 2086
1 2087
1 2088
1 2089
1 2090
1 2091
1 2092
1 2093
1 2094
1 2095
1 2096
1 2097
1 2098
1 2099
1 2100
1 2101
1 2102
1 2103
1 2104
1 2105
1 2106
1 2107
1 2108
1 2109
1 2110
1 2111
1 2112
1 2113
1 2114
1 2115
1 2116
1 2117
1 2118
1 2119
1 2120
1 2121
1 2122
1 2123
1 2124
1 2125
1 2126
1 2127
1 2128
1 2129
1 2130
1 2131
1 2132
1 2133
1 2134
1 2135
1 2136
1 2137
1 2138
1 2139
1 2140
1 2141
1 2142
1 2143
1 2144
1 2145
1 2146
1 2147
1 2148
1 2149
1 2150
1 2151
1 2152
1 2153
1 2154
1 2155
1 2156
1 2157
1 2158
1 2159
1 2160
1 2161
1 2162
1 2163
1 2164
1 2165
1 2166
1 2167
1 2168
1 2169
1 2170
1 2171
1 2172
1 2173
1 2174
1 2175
1 2176
1 2177
1 2178
1 2179
1 2180
1 2181
1 2182
1 2183
1 2184
1 2185
1 2186
1 2187
1 2188
1 2189
1 2190
1 2191
1 2192
1 2193
1 2194
1 2195
1 2196
1 2197
1 2198
1 2199
1 2200
1 2201
1 2202
1 2203
1 2204
1 2205
1 2206
1 2207
1 2208
1 2209
1 2210
1 2211
1 2212
1 2213
1 2214
1 2215
1 2216
1 2217
1 2218
1 2219
1 2220
1 2221
1 2222
1 2223
1 2224
1 2225
1 2226
1 2227
1 2228
1 2229
1 2230
1 2231
1 2232
1 2233
1 2234
1 2235
1 2236
1 2237
1 2238
1 2239
1 2240
1 2241
1 2242
1 2243
1 2244
1 2245
1 2246
1 2247
1 2248
1 2249
1 2250
1 2251
1 2252
1 2253
1 2254
1 2255
1 2256
1 2257
1 2258
1 2259
1 2260
1 2261
1 2262
1 2263
1 2264
1 2265
1 2266
1 2267
1 2268
1 2269
1 2270
1 2271
1 2272
1 2273
1 2274
1 2275
1 2276
1 2277
1 2278
1 2279
1 2280
1 2281
1 2282
1 2283
1 2284
1 2285
1 2286
1 2287
1 2288
1 2289
1 2290
1 2291
1 2292
1 2293
1 2294
1 2295
1 2296
1 2297
1 2298
1 2299
1 2300
1 2301
1 2302
1 2303
1 2304
1 2305
1 2306
1 2307
1 2308
1 2309
1 2310
1 2311
1 2312
1 2313
1 2314
1 2315
1 2316
1 2317
1 2318
1 2319
1 2320
1 2321
1 2322
1 2323
1 2324
1 2325
1 2326
1 2327
1 2328
1 2329
1 2330
1 2331
1 2332
1 2333
1 2334
1 2335
1 2336
1 2337
1 2338
1 2339
1 2340
1 2341
1 2342
1 2343
1 2344
1 2345
1 2346
1 2347
1 2348
1 2349
1 2350
1 2351
1 2352
1 2353
1 2354
1 2355
1 2356
1 2357
1 2358
1 2359
1 2360
1 2361
1 2362
1 2363
1 2364
1 2365
1 2366
1 2367
1 2368
1 2369
1 2370
1 2371
1 2372
1 2373
1 2374
1 2375
1 2376
1 2377
1 2378
1 2379
1 2380
1 2381
1 2382
1 2383
1 2384
1 2385
1 2386
1 2387
1 2388
1 2389
1 2390
1 2391
1 2392
1 2393
1 2394
1 2395
1 2396
1 2397
1 2398
1 2399
1 2400
1 2401
1 2402
1 2403
1 2404
1 2405
1 2406
1 2407
1 2408
1 2409
1 2410
1 2411
1 2412
1 2413
1 2414
1 2415
1 2416
1 2417
1 2418
1 2419
1 2420
1 2421
1 2422
1 2423
1 2424
1 2425
1 2426
1 2427
1 2428
1 2429
1 2430
1 2431
1 2432
1 2433
1 2434
1 2435
1 2436
1 2437
1 2438
1 2439
1 2440
1 2441
1 2442
1 2443
1 2444
1 2445
1 2446
1 2447
1 2448
1 2449
1 2450
1 2451
1 2452
1 2453
1 2454
1 2455
1 2456
1 2457
1 2458
1 2459
1 2460
1 2461
1 2462
1 2463
1 2464
1 2465
1 2466
1 2467
1 2468
1 2469
1 2470
1 2471
1 2472
1 2473
1 2474
1 2475
1 2476
1 2477
1 2478
1 2479
1 2480
1 2481
1 2482
1 2483
1 2484
1 2485
1 2486
1 2487
1 2488
1 2489
1 2490
1 2491
1 2492
1 2493
1 2494
1 2495
1 2496
1 2497
1 2498
1 2499
1 2500
1 2501
1 2502
1 2503
1 2504
1 2505
1 2506
1 2507
1 2508
1 2509
1 2510
1 2511
1 2512
1 2513
1 2514
1 2515
1 2516
1 2517
1 2518
1 2519
1 2520
1 2521
1 2522
1 2523
1 2524
1 2525
1 2526
1 2527
1 2528
1 2529
1 2530
1 2531
1 2532
1 2533
1 2534
1 2535
1 2536
1 2537
1 2538
1 2539
1 2540
1 2541
1 2542
1 2543
1 2544
1 2545
1 2546
1 2547
1 2548
1 2549
1 2550
1 2551
1 2552
1 2553
1 2554
1 2555
1 2556
1 2557
1 2558
1 2559
1 2560
1 2561
1 2562
1 2563
1 2564
1 2565
1 2566
1 2567
1 2568
1 2569
1 2570
1 2571
1 2572
1 2573
1 2574
1 2575
1 2576
1 2577
1 2578
1 2579
1 2580
1 2581
1 2582
1 2583
1 2584
1 2585
1 2586
1 2587
1 2588
1 2589
1 2590
1 2591
1 2592
1 2593
1 2594
1 2595
1 2596
1 2597
1 2598
1 2599
1 2600
1 2601
1 2602
1 2603
1 2604
1 2605
1 2606
1 2607
1 2608
1 2609
1 2610
1 2611
1 2612
1 2613
1 2614
1 2615
1 2616
1 2617
1 2618
1 2619
1 2620
1 2621
1 2622
1 2623
1 2624
1 2625
1 2626
1 2627
1 2628
1 2629
1 2630
1 2631
1 2632
1 2633
1 2634
1 2635
1 2636
1 2637
1 2638
1 2639
1 2640
1 2641
1 2642
1 2643
1 2644
1 2645
1 2646
1 2647
1 2648
1 2649
1 2650
1 2651
1 2652
1 2653
1 2654
1 2655
1 2656
1 2657
1 2658
1 2659
1 2660
1 2661
1 2662
1 2663
1 2664
1 2665
1 2666
1 2667
1 2668
1 2669
1 2670
1 2671
1 2672
1 2673
1 2674
1 2675
1 2676
1 2677
1 2678
1 2679
1 2680
1 2681
1 2682
1 2683
1 2684
1 2685
1 2686
1 2687
1 2688
1 2689
1 2690
1 2691
1 2692
1 2693
1 2694
1 2695
1 2696
1 2697
1 2698
1 2699
1 2700
1 2701
1 2702
1 2703
1 2704
1 2705
1 2706
1 2707
1 2708
1 2709
1 2710
1 2711
1 2712
1 2713
1 2714
1 2715
1 2716
1 2717
1 2718
1 2719
1 2720
1 2721
1 2722
1 2723
1 2724
1 2725
1 2726
1 2727
1 2728
1 2729
1 2730
1 2731
1 2732
1 2733
1 2734
1 2735
1 2736
1 2737
1 2738
1 2739
1 2740
1 2741
1 2742
1 2743
1 2744
1 2745
1 2746
1 2747
1 2748
1 2749
1 2750
1 2751
1 2752
1 2753
1 2754
1 2755
1 2756
1 2757
1 2758
1 2759
1 2760
1 2761
1 2762
1 2763
1 2764
1 2765
1 2766
1 2767
1 2768
1 2769
1 2770
1 2771
1 2772
1 2773
1 2774
1 2775
1 2776
1 2777
1 2778
1 2779
1 2780
1 2781
1 2782
1 2783
1 2784
1 2785
1 2786
1 2787
1 2788
1 2789
1 2790
1 2791
1 2792
1 2793
1 2794
1 2795
1 2796
1 2797
1 2798
1 2799
1 2800
1 2801
1 2802
1 2803
1 2804
1 2805
1 2806
1 2807
1 2808
1 2809
1 2810
1 2811
1 2812
1 2813
1 2814
1 2815
1 2816
1 2817
1 2818
1 2819
1 2820
1 2821
1 2822
1 2823
1 2824
1 2825
1 2826
1 2827
1 2828
1 2829
1 2830
1 2831
1 2832
1 2833
1 2834
1 2835
1 2836
1 2837
1 2838
1 2839
1 2840
1 2841
1 2842
1 2843
1 2844
1 2845
1 2846
1 2847
1 2848
1 2849
1 2850
1 2851
1 2852
1 2853
1 2854
1 2855
1 2856
1 2857
1 2858
1 2859
1 2860
1 2861
1 2862
1 2863
1 2864
1 2865
1 2866
1 2867
1 2868
1 2869
1 2870
1 2871
1 2872
1 2873
1 2874
1 2875
1 2876
1 2877
1 2878
1 2879
1 2880
1 2881
1 2882
1 2883
1 2884
1 2885
1 2886
1 2887
1 2888
1 2889
1 2890
1 2891
1 2892
1 2893
1 2894
1 2895
1 2896
1 2897
1 2898
1 2899
1 2900
1 2901
1 2902
1 2903
1 2904
1 2905
1 2906
1 2907
1 2908
1 2909
1 2910
1 2911
1 2912
1 2913
1 2914
1 2915
1 2916
1 2917
1 2918
1 2919
1 2920
1 2921
1 2922
1 2923
1 2924
1 2925
1 2926
1 2927
1 2928
1 2929
1 2930
1 2931
1 2932
1 2933
1 2934
1 2935
1 2936
1 2937
1 2938
1 2939
1 2940
1 2941
1 2942
1 2943
1 2944
1 2945
1 2946
1 2947
1 2948
1 2949
1 2950
1 2951
1 2952
1 2953
1 2954
1 2955
1 2956
1 2957
1 2958
1 2959
1 2960
1 2961
1 2962
1 2963
1 2964
1 2965
1 2966
1 2967
1 2968
1 2969
1 2970
1 2971
1 2972
1 2973
1 2974
POINT_DATA 2975
SCALARS Idp unsigned_int
LOOKUP_TABLE default
0 1 39 40 41 80 81 82 121 122 123 162 163 164 203 204 205 244 245 246 285 286 287 326 327 328 367 368 369 408 409 410 449 450 451 461 462 463 471 472 473 481 482 483 491 492 493 501 502 503 511 512 513 521 522 523 531 532 533 541 542 543 551 552 2 3 4 5 6 7 8 9 42 43 44 45 46 47 48 49 83 84 85 86 87 88 89 90 124 125 126 127 128 129 130 131 165 166 167 168 169 170 171 172 206 207 208 209 210 211 212 213 247 248 249 250 251 252 253 254 288 289 290 291 292 293 294 295 329 330 331 332 333 334 335 336 370 371 372 373 374 375 376 377 411 412 413 414 415 416 417 418 452 453 454 464 465 474 475 484 485 494 495 504 505 514 515 524 525 534 535 544 545 553 554 10 11 12 13 14 15 16 17 18 50 51 52 53 54 55 56 57 58 91 92 93 94 95 96 97 98 99 132 133 134 135 136 137 138 139 140 173 174 175 176 177 178 179 180 181 214 215 216 217 218 219 220 221 222 255 256 257 258 259 260 261 262 263 296 297 298 299 300 301 302 303 304 337 338 339 340 341 342 343 344 345 378 379 380 381 382 383 384 385 386 419 420 421 422 423 424 425 426 427 19 20 21 22 23 24 25 26 59 60 61 62 63 64 65 66 100 101 102 103 104 105 106 107 141 142 143 144 145 146 147 148 182 183 184 185 186 187 188 189 223 224 225 226 227 228 229 230 264 265 266 267 268 269 270 271 305 306 307 308 309 310 311 312 346 347 348 349 350 351 352 353 387 388 389 390 391 392 393 394 428 429 430 431 432 433 434 435 27 28 29 30 31 32 33 34 35 67 68 69 70 71 72 73 74 75 108 109 110 111 112 113 114 115 116 149 150 151 152 153 154 155 156 157 190 191 192 193 194 195 196 197 198 231 232 233 234 235 236 237 238 239 272 273 274 275 276 277 278 279 280 313 314 315 316 317 318 319 320 321 354 355 356 357 358 359 360 361 362 395 396 397 398 399 400 401 402 403 436 437 438 439 440 441 442 443 444 455 456 466 476 486 496 506 516 526 536 546 555 36 37 38 76 77 78 79 117 118 119 120 158 159 160 161 199 200 201 202 240 241 242 243 281 282 283 284 322 323 324 325 363 364 365 366 404 405 406 407 445 446 447 448 457 458 459 460 467 468 469 470 477 478 479 480 487 488 489 490 497 498 499 500 507 508 509 510 517 518 519 520 527 528 529 530 537 538 539 540 547 548 549 550 556 557 558 559 560 561 562 563 564 565 566 567 568 569 570 571 572 573 574 575 576 577 578 579 580 581 582 583 584 585 586 587 588 589 590 591 592 593 594 595 596 597 598 599 600 601 602 603 604 605 606 607 608 609 610 611 612 613 614 615 616 617 618 619 620 621 622 623 624 625 626 627 628 629 630 631 632 633 634 635 636 637 638 639 640 641 642 643 644 645 646 647 648 649 650 651 652 653 654 655 656 657 658 659 660 661 662 663 664 665 666 667 668 669 670 671 672 673 674 675 676 677 678 679 680 681 682 683 684 685 686 687 688 689 690 691 692 693 694 695 696 697 698 699 700 701 702 703 704 705 706 707 708 709 710 711 712 713 714 715 716 717 718 719 720 721 722 723 724 725 726 727 728 729 730 731 732 733 734 735 736 737 738 739 740 741 742 743 744 745 746 747 748 749 750 751 752 753 754 755 756 757 758 759 760 761 762 763 764 765 766 767 768 769 770 771 772 773 774 775 776 777 778 779 780 781 782 783 784 785 786 787 788 789 790 791 792 793 794 795 796 797 798 799 800 801 802 803 804 805 806 807 808 809 810 811 812 813 814 815 816 817 818 819 820 821 822 823 824 825 826 827 828 829 830 831 832 833 834 835 836 837 838 839 840 841 842 843 844 845 846 847 848 849 850 851 852 853 854 855 856 857 858 859 860 861 862 863 864 865 866 867 868 869 870 871 872 873 874 875 876 877 878 879 880 881 882 883 884 885 886 887 888 889 890 891 892 893 894 895 896 897 898 899 900 901 902 903 904 905 906 907 908 909 910 911 912 913 914 915 916 917 918 919 920 921 922 923 924 925 926 927 928 929 930 931 932 933 934 935 936 937 938 939 940 941 942 943 944 945 946 947 948 949 950 951 952 953 954 955 956 957 958 959 960 961 962 963 964 965 966 967 968 969 970 971 972 973 974 975 976 977 978 979 980 981 982 983 984 985 986 987 988 989 990 991 992 993 994 995 996 997 998 999 1000 1001 1002 1003 1004 1005 1006 1007 1008 1009 1010 1011 1012 1013 1014 1015 1016 1017 1018 1019 1020 1021 1022 1023 1024 1025 1026 1027 1028 1029 1030 1031 1032 1033 1034 1035 1060 1061 1062 1063 1064 1065 1091 1092 1093 1094 1095 1096 1122 1123 1124 1125 1126 1127 1153 1154 1155 1156 1157 1158 1184 1185 1186 1187 1188 1189 1215 1216 1217 1218 1219 1220 1246 1247 1248 1249 1250 1251 1277 1278 1279 1280 1281 1282 1308 1309 1310 1311 1312 1313 1339 1340 1341 1342 1343 1344 1370 1371 1372 1373 1374 1375 1401 1402 1403 1404 1405 1406 1432 1433 1434 1435 1436 1437 1463 1464 1465 1466 1467 1468 1494 1495 1496 1497 1498 1499 1525 1526 1527 1528 1529 1530 1556 1557 1558 1559 1560 1561 1587 1588 1589 1590 1591 1592 1618 1619 1620 1621 1622 1623 1649 1650 1651 1652 1653 1654 1680 1681 1682 1683 1684 1685 1711 1712 1713 1714 1715 1716 1742 1743 1744 1745 1746 1747 1773 1774 1775 1776 1777 1778 1804 1805 1806 1807 1808 1809 1835 1836 1837 1838 1839 1840 1866 1867 1868 1869 1870 1871 1897 1898 1899 1900 1901 1902 1928 1929 1930 1931 1932 1933 1959 1960 1961 1962 1963 1964 1990 1991 1992 1993 1994 1995 2021 2022 2023 2024 2025 2026 2052 2053 2054 2055 2056 2057 2083 2084 2085 2086 2087 2088 2114 2115 2116 2117 2118 2119 2145 2146 2147 2148 2149 2150 2176 2177 2178 2179 2180 2181 2207 2208 2209 2210 2211 2212 2238 2239 2240 2241 2242 2243 2269 2270 2271 2272 2273 2274 2300 2301 2302 2303 2304 2305 2331 2332 2333 2334 2335 2336 2362 2363 2364 2365 2366 2367 2393 2394 2395 2396 2397 2398 2424 2425 2426 2427 2428 2429 2455 2456 2457 2458 2459 2460 2486 2487 2488 2489 2490 2491 2517 2518 2519 2520 2521 2522 2548 2549 2550 2551 2552 2553 2579 2580 2581 2582 2583 2584 2610 2611 2612 2613 2614 2615 2641 2642 2643 2644 2645 2646 2672 2673 2674 2675 2676 2677 2703 2704 2705 2706 2707 2708 2734 2735 2736 2737 2738 2763 2764 2765 2766 2767 2792 2793 2794 2795 2819 2820 2821 2822 2846 2847 2848 2871 2872 2894 2895 1036 1037 1038 1039 1040 1041 1042 1043 1044 1066 1067 1068 1069 1070 1071 1072 1073 1074 1097 1098 1099 1100 1101 1102 1103 1104 1105 1128 1129 1130 1131 1132 1133 1134 1135 1136 1159 1160 1161 1162 1163 1164 1165 1166 1167 1190 1191 1192 1193 1194 1195 1196 1197 1198 1221 1222 1223 1224 1225 1226 1227 1228 1229 1252 1253 1254 1255 1256 1257 1258 1259 1260 1283 1284 1285 1286 1287 1288 1289 1290 1291 1314 1315 1316 1317 1318 1319 1320 1321 1322 1345 1346 1347 1348 1349 1350 1351 1352 1353 1376 1377 1378 1379 1380 1381 1382 1383 1384 1407 1408 1409 1410 1411 1412 1413 1414 1415 1438 1439 1440 1441 1442 1443 1444 1445 1446 1469 1470 1471 1472 1473 1474 1475 1476 1477 1500 1501 1502 1503 1504 1505 1506 1507 1508 1531 1532 1533 1534 1535 1536 1537 1538 1539 1562 1563 1564 1565 1566 1567 1568 1569 1570 1593 1594 1595 1596 1597 1598 1599 1600 1601 1624 1625 1626 1627 1628 1629 1630 1631 1632 1655 1656 1657 1658 1659 1660 1661 1662 1663 1686 1687 1688 1689 1690 1691 1692 1693 1694 1717 1718 1719 1720 1721 1722 1723 1724 1725 1748 1749 1750 1751 1752 1753 1754 1755 1756 1779 1780 1781 1782 1783 1784 1785 1786 1787 1810 1811 1812 1813 1814 1815 1816 1817 1818 1841 1842 1843 1844 1845 1846 1847 1848 1849 1872 1873 1874 1875 1876 1877 1878 1879 1880 1903 1904 1905 1906 1907 1908 1909 1910 1911 1934 1935 1936 1937 1938 1939 1940 1941 1942 1965 1966 1967 1968 1969 1970 1971 1972 1973 1996 1997 1998 1999 2000 2001 2002 2003 2004 2027 2028 2029 2030 2031 2032 2033 2034 2035 2058 2059 2060 2061 2062 2063 2064 2065 2066 2089 2090 2091 2092 2093 2094 2095 2096 2097 2120 2121 2122 2123 2124 2125 2126 2127 2128 2151 2152 2153 2154 2155 2156 2157 2158 2159 2182 2183 2184 2185 2186 2187 2188 2189 2190 2213 2214 2215 2216 2217 2218 2219 2220 2221 2244 2245 2246 2247 2248 2249 2250 2251 2252 2275 2276 2277 2278 2279 2280 2281 2282 2283 2306 2307 2308 2309 2310 2311 2312 2313 2314 2337 2338 2339 2340 2341 2342 2343 2344 2345 2368 2369 2370 2371 2372 2373 2374 2375 2376 2399 2400 2401 2402 2403 2404 2405 2406 2407 2430 2431 2432 2433 2434 2435 2436 2437 2438 2461 2462 2463 2464 2465 2466 2467 2468 2469 2492 2493 2494 2495 2496 2497 2498 2499 2500 2523 2524 2525 2526 2527 2528 2529 2530 2531 2554 2555 2556 2557 2558 2559 2560 2561 2562 2585 2586 2587 2588 2589 2590 2591 2592 2593 2616 2617 2618 2619 2620 2621 2622 2623 2624 2647 2648 2649 2650 2651 2652 2653 2654 2655 2678 2679 2680 2681 2682 2683 2684 2685 2686 2709 2710 2711 2712 2713 2714 2715 2716 2717 2739 2740 2741 2742 2743 2744 2745 2746 2747 2768 2769 2770 2771 2772 2773 2774 2775 2776 2796 2797 2798 2799 2800 2801 2802 2803 2804 2823 2824 2825 2826 2827 2828 2829 2830 2831 2849 2850 2851 2852 2853 2854 2855 2856 2857 2873 2874 2875 2876 2877 2878 2879 2880 2881 2896 2897 2898 2899 2900 2901 2902 2903 2904 2917 2918 2919 2920 2921 2922 2923 2924 2925 2936 2937 2938 2939 2940 2941 2942 2943 2953 2954 2955 2956 2957 2958 2966 2967 2968 2969 1045 1046 1047 1048 1049 1050 1051 1052 1075 1076 1077 1078 1079 1080 1081 1082 1106 1107 1108 1109 1110 1111 1112 1113 1137 1138 1139 1140 1141 1142 1143 1144 1168 1169 1170 1171 1172 1173 1174 1175 1199 1200 1201 1202 1203 1204 1205 1206 1230 1231 1232 1233 1234 1235 1236 1237 1261 1262 1263 1264 1265 1266 1267 1268 1292 1293 1294 1295 1296 1297 1298 1299 1323 1324 1325 1326 1327 1328 1329 1330 1354 1355 1356 1357 1358 1359 1360 1361 1385 1386 1387 1388 1389 1390 1391 1392 1416 1417 1418 1419 1420 1421 1422 1423 1447 1448 1449 1450 1451 1452 1453 1454 1478 1479 1480 1481 1482 1483 1484 1485 1509 1510 1511 1512 1513 1514 1515 1516 1540 1541 1542 1543 1544 1545 1546 1547 1571 1572 1573 1574 1575 1576 1577 1578 1602 1603 1604 1605 1606 1607 1608 1609 1633 1634 1635 1636 1637 1638 1639 1640 1664 1665 1666 1667 1668 1669 1670 1671 1695 1696 1697 1698 1699 1700 1701 1702 1726 1727 1728 1729 1730 1731 1732 1733 1757 1758 1759 1760 1761 1762 1763 1764 1788 1789 1790 1791 1792 1793 1794 1795 1819 1820 1821 1822 1823 1824 1825 1826 1850 1851 1852 1853 1854 1855 1856 1857 1881 1882 1883 1884 1885 1886 1887 1888 1912 1913 1914 1915 1916 1917 1918 1919 1943 1944 1945 1946 1947 1948 1949 1950 1974 1975 1976 1977 1978 1979 1980 1981 2005 2006 2007 2008 2009 2010 2011 2012 2036 2037 2038 2039 2040 2041 2042 2043 2067 2068 2069 2070 2071 2072 2073 2074 2098 2099 2100 2101 2102 2103 2104 2105 2129 2130 2131 2132 2133 2134 2135 2136 2160 2161 2162 2163 2164 2165 2166 2167 2191 2192 2193 2194 2195 2196 2197 2198 2222 2223 2224 2225 2226 2227 2228 2229 2253 2254 2255 2256 2257 2258 2259 2260 2284 2285 2286 2287 2288 2289 2290 2291 2315 2316 2317 2318 2319 2320 2321 2322 2346 2347 2348 2349 2350 2351 2352 2353 2377 2378 2379 2380 2381 2382 2383 2384 2408 2409 2410 2411 2412 2413 2414 2415 2439 2440 2441 2442 2443 2444 2445 2446 2470 2471 2472 2473 2474 2475 2476 2477 2501 2502 2503 2504 2505 2506 2507 2508 2532 2533 2534 2535 2536 2537 2538 2539 2563 2564 2565 2566 2567 2568 2569 2570 2594 2595 2596 2597 2598 2599 2600 2601 2625 2626 2627 2628 2629 2630 2631 2632 2656 2657 2658 2659 2660 2661 2662 2663 2687 2688 2689 2690 2691 2692 2693 2694 2718 2719 2720 2721 2722 2723 2724 2725 2748 2749 2750 2751 2752 2753 2754 2755 2777 2778 2779 2780 2781 2782 2783 2784 2805 2806 2807 2808 2809 2810 2811 2812 2832 2833 2834 2835 2836 2837 2838 2839 2858 2859 2860 2861 2862 2863 2864 2865 2882 2883 2884 2885 2886 2887 2888 2889 2905 2906 2907 2908 2909 2910 2911 2912 2926 2927 2928 2929 2930 2931 2932 2933 2944 2945 2946 2947 2948 2949 2950 2951 2959 2960 2961 2962 2963 2964 2965 2970 2971 2972 2973 2974 1053 1054 1055 1056 1057 1058 1059 1083 1084 1085 1086 1087 1088 1089 1090 1114 1115 1116 1117 1118 1119 1120 1121 1145 1146 1147 1148 1149 1150 1151 1152 1176 1177 1178 1179 1180 1181 1182 1183 1207 1208 1209 1210 1211 1212 1213 1214 1238 1239 1240 1241 1242 1243 1244 1245 1269 1270 1271 1272 1273 1274 1275 1276 1300 1301 1302 1303 1304 1305 1306 1307 1331 1332 1333 1334 1335 1336 1337 1338 1362 1363 1364 1365 1366 1367 1368 1369 1393 1394 1395 1396 1397 1398 1399 1400 1424 1425 1426 1427 1428 1429 1430 1431 1455 1456 1457 1458 1459 1460 1461 1462 1486 1487 1488 1489 1490 1491 1492 1493 1517 1518 1519 1520 1521 1522 1523 1524 1548 1549 1550 1551 1552 1553 1554 1555 1579 1580 1581 1582 1583 1584 1585 1586 1610 1611 1612 1613 1614 1615 1616 1617 1641 1642 1643 1644 1645 1646 1647 1648 1672 1673 1674 1675 1676 1677 1678 1679 1703 1704 1705 1706 1707 1708 1709 1710 1734 1735 1736 1737 1738 1739 1740 1741 1765 1766 1767 1768 1769 1770 1771 1772 1796 1797 1798 1799 1800 1801 1802 1803 1827 1828 1829 1830 1831 1832 1833 1834 1858 1859 1860 1861 1862 1863 1864 1865 1889 1890 1891 1892 1893 1894 1895 1896 1920 1921 1922 1923 1924 1925 1926 1927 1951 1952 1953 1954 1955 1956 1957 1958 1982 1983 1984 1985 1986 1987 1988 1989 2013 2014 2015 2016 2017 2018 2019 2020 2044 2045 2046 2047 2048 2049 2050 2051 2075 2076 2077 2078 2079 2080 2081 2082 2106 2107 2108 2109 2110 2111 2112 2113 2137 2138 2139 2140 2141 2142 2143 2144 2168 2169 2170 2171 2172 2173 2174 2175 2199 2200 2201 2202 2203 2204 2205 2206 2230 2231 2232 2233 2234 2235 2236 2237 2261 2262 2263 2264 2265 2266 2267 2268 2292 2293 2294 2295 2296 2297 2298 2299 2323 2324 2325 2326 2327 2328 2329 2330 2354 2355 2356 2357 2358 2359 2360 2361 2385 2386 2387 2388 2389 2390 2391 2392 2416 2417 2418 2419 2420 2421 2422 2423 2447 2448 2449 2450 2451 2452 2453 2454 2478 2479 2480 2481 2482 2483 2484 2485 2509 2510 2511 2512 2513 2514 2515 2516 2540 2541 2542 2543 2544 2545 2546 2547 2571 2572 2573 2574 2575 2576 2577 2578 2602 2603 2604 2605 2606 2607 2608 2609 2633 2634 2635 2636 2637 2638 2639 2640 2664 2665 2666 2667 2668 2669 2670 2671 2695 2696 2697 2698 2699 2700 2701 2702 2726 2727 2728 2729 2730 2731 2732 2733 2756 2757 2758 2759 2760 2761 2762 2785 2786 2787 2788 2789 2790 2791 2813 2814 2815 2816 2817 2818 2840 2841 2842 2843 2844 2845 2866 2867 2868 2869 2870 2890 2891 2892 2893 2913 2914 2915 2916 2934 2935 2952 
FIELD FieldData 12
Idp 1 2975 float
0 1 39 40 41 80 81 82 121 122 123 162 163 164 203 204 205 244 245 246 285 286 287 326 327 328 367 368 369 408 409 410 449 450 451 461 462 463 471 472 473 481 482 483 491 492 493 501 502 503 511 512 513 521 522 523 531 532 533 541 542 543 551 552 2 3 4 5 6 7 8 9 42 43 44 45 46 47 48 49 83 84 85 86 87 88 89 90 124 125 126 127 128 129 130 131 165 166 167 168 169 170 171 172 206 207 208 209 210 211 212 213 247 248 249 250 251 252 253 254 288 289 290 291 292 293 294 295 329 330 331 332 333 334 335 336 370 371 372 373 374 375 376 377 411 412 413 414 415 416 417 418 452 453 454 464 465 474 475 484 485 494 495 504 505 514 515 524 525 534 535 544 545 553 554 10 11 12 13 14 15 16 17 18 50 51 52 53 54 55 56 57 58 91 92 93 94 95 96 97 98 99 132 133 134 135 136 137 138 139 140 173 174 175 176 177 178 179 180 181 214 215 216 217 218 219 220 221 222 255 256 257 258 259 260 261 262 263 296 297 298 299 300 301 302 303 304 337 338 339 340 341 342 343 344 345 378 379 380 381 382 383 384 385 386 419 420 421 422 423 424 425 426 427 19 20 21 22 23 24 25 26 59 60 61 62 63 64 65 66 100 101 102 103 104 105 106 107 141 142 143 144 145 146 147 148 182 183 184 185 186 187 188 189 223 224 225 226 227 228 229 230 264 265 266 267 268 269 270 271 305 306 307 308 309 310 311 312 346 347 348 349 350 351 352 353 387 388 389 390 391 392 393 394 428 429 430 431 432 433 434 435 27 28 29 30 31 32 33 34 35 67 68 69 70 71 72 73 74 75 108 109 110 111 112 113 114 115 116 149 150 151 152 153 154 155 156 157 190 191 192 193 194 195 196 197 198 231 232 233 234 235 236 237 238 239 272 273 274 275 276 277 278 279 280 313 314 315 316 317 318 319 320 321 354 355 356 357 358 359 360 361 362 395 396 397 398 399 400 401 402 403 436 437 438 439 440 441 442 443 444 455 456 466 476 486 496 506 516 526 536 546 555 36 37 38 76 77 78 79 117 118 119 120 158 159 160 161 199 200 201 202 240 241 242 243 281 282 283 284 322 323 324 325 363 364 365 366 404 405 406 407 445 446 447 448 457 458 459 460 467 468 469 470 477 478 479 480 487 488 489 490 497 498 499 500 507 508 509 510 517 518 519 520 527 528 529 530 537 538 539 540 547 548 549 550 556 557 558 559 560 561 562 563 564 565 566 567 568 569 570 571 572 573 574 575 576 577 578 579 580 581 582 583 584 585 586 587 588 589 590 591 592 593 594 595 596 597 598 599 600 601 602 603 604 605 606 607 608 609 610 611 612 613 614 615 616 617 618 619 620 621 622 623 624 625 626 627 628 629 630 631 632 633 634 635 636 637 638 639 640 641 642 643 644 645 646 647 648 649 650 651 652 653 654 655 656 657 658 659 660 661 662 663 664 665 666 667 668 669 670 671 672 673 674 675 676 677 678 679 680 681 682 683 684 685 686 687 688 689 690 691 692 693 694 695 696 697 698 699 700 701 702 703 704 705 706 707 708 709 710 711 712 713 714 715 716 717 718 719 720 721 722 723 724 725 726 727 728 729 730 731 732 733 734 735 736 737 738 739 740 741 742 743 744 745 746 747 748 749 750 751 752 753 754 755 756 757 758 759 760 761 762 763 764 765 766 767 768 769 770 771 772 773 774 775 776 777 778 779 780 781 782 783 784 785 786 787 788 789 790 791 792 793 794 795 796 797 798 799 800 801 802 803 804 805 806 807 808 809 810 811 812 813 814 815 816 817 818 819 820 821 822 823 824 825 826 827 828 829 830 831 832 833 834 835 836 837 838 839 840 841 842 843 844 845 846 847 848 849 850 851 852 853 854 855 856 857 858 859 860 861 862 863 864 865 866 867 868 869 870 871 872 873 874 875 876 877 878 879 880 881 882 883 884 885 886 887 888 889 890 891 892 893 894 895 896 897 898 899 900 901 902 903 904 905 906 907 908 909 910 911 912 913 914 915 916 917 918 919 920 921 922 923 924 925 926 927 928 929 930 931 932 933 934 935 936 937 938 939 940 941 942 943 944 945 946 947 948 949 950 951 952 953 954 955 956 957 958 959 960 961 962 963 964 965 966 967 968 969 970 971 972 973 974 975 976 977 978 979 980 981 982 983 984 985 986 987 988 989 990 991 992 993 994 995 996 997 998 999 1000 1001 1002 1003 1004 1005 1006 1007 1008 1009 1010 1011 1012 1013 1014 1015 1016 1017 1018 1019 1020 1021 1022 1023 1024 1025 1026 1027 1028 1029 1030 1031 1032 1033 1034 1035 1060 1061 1062 1063 1064 1065 1091 1092 1093 1094 1095 1096 1122 1123 1124 1125 1126 1127 1153 1154 1155 1156 1157 1158 1184 1185 1186 1187 1188 1189 1215 1216 1217 1218 1219 1220 1246 1247 1248 1249 1250 1251 1277 1278 1279 1280 1281 1282 1308 1309 1310 1311 1312 1313 1339 1340 1341 1342 1343 1344 1370 1371 1372 1373 1374 1375 1401 1402 1403 1404 1405 1406 1432 1433 1434 1435 1436 1437 1463 1464 1465 1466 1467 1468 1494 1495 1496 1497 1498 1499 1525 1526 1527 1528 1529 1530 1556 1557 1558 1559 1560 1561 1587 1588 1589 1590 1591 1592 1618 1619 1620 1621 1622 1623 1649 1650 1651 1652 1653 1654 1680 1681 1682 1683 1684 1685 1711 1712 1713 1714 1715 1716 1742 1743 1744 1745 1746 1747 1773 1774 1775 1776 1777 1778 1804 1805 1806 1807 1808 1809 1835 1836 1837 1838 1839 1840 1866 1867 1868 1869 1870 1871 1897 1898 1899 1900 1901 1902 1928 1929 1930 1931 1932 1933 1959 1960 1961 1962 1963 1964 1990 1991 1992 1993 1994 1995 2021 2022 2023 2024 2025 2026 2052 2053 2054 2055 2056 2057 2083 2084 2085 2086 2087 2088 2114 2115 2116 2117 2118 2119 2145 2146 2147 2148 2149 2150 2176 2177 2178 2179 2180 2181 2207 2208 2209 2210 2211 2212 2238 2239 2240 2241 2242 2243 2269 2270 2271 2272 2273 2274 2300 2301 2302 2303 2304 2305 2331 2332 2333 2334 2335 2336 2362 2363 2364 2365 2366 2367 2393 2394 2395 2396 2397 2398 2424 2425 2426 2427 2428 2429 2455 2456 2457 2458 2459 2460 2486 2487 2488 2489 2490 2491 2517 2518 2519 2520 2521 2522 2548 2549 2550 2551 2552 2553 2579 2580 2581 2582 2583 2584 2610 2611 2612 2613 2614 2615 2641 2642 2643 2644 2645 2646 2672 2673 2674 2675 2676 2677 2703 2704 2705 2706 2707 2708 2734 2735 2736 2737 2738 2763 2764 2765 2766 2767 2792 2793 2794 2795 2819 2820 2821 2822 2846 2847 2848 2871 2872 2894 2895 1036 1037 1038 1039 1040 1041 1042 1043 1044 1066 1067 1068 1069 1070 1071 1072 1073 1074 1097 1098 1099 1100 1101 1102 1103 1104 1105 1128 1129 1130 1131 1132 1133 1134 1135 1136 1159 1160 1161 1162 1163 1164 1165 1166 1167 1190 1191 1192 1193 1194 1195 1196 1197 1198 1221 1222 1223 1224 1225 1226 1227 1228 1229 1252 1253 1254 1255 1256 1257 1258 1259 1260 1283 1284 1285 1286 1287 1288 1289 1290 1291 1314 1315 1316 1317 1318 1319 1320 1321 1322 1345 1346 1347 1348 1349 1350 1351 1352 1353 1376 1377 1378 1379 1380 1381 1382 1383 1384 1407 1408 1409 1410 1411 1412 1413 1414 1415 1438 1439 1440 1441 1442 1443 1444 1445 1446 1469 1470 1471 1472 1473 1474 1475 1476 1477 1500 1501 1502 1503 1504 1505 1506 1507 1508 1531 1532 1533 1534 1535 1536 1537 1538 1539 1562 1563 1564 1565 1566 1567 1568 1569 1570 1593 1594 1595 1596 1597 1598 1599 1600 1601 1624 1625 1626 1627 1628 1629 1630 1631 1632 1655 1656 1657 1658 1659 1660 1661 1662 1663 1686 1687 1688 1689 1690 1691 1692 1693 1694 1717 1718 1719 1720 1721 1722 1723 1724 1725 1748 1749 1750 1751 1752 1753 1754 1755 1756 1779 1780 1781 1782 1783 1784 1785 1786 1787 1810 1811 1812 1813 1814 1815 1816 1817 1818 1841 1842 1843 1844 1845 1846 1847 1848 1849 1872 1873 1874 1875 1876 1877 1878 1879 1880 1903 1904 1905 1906 1907 1908 1909 1910 1911 1934 1935 1936 1937 1938 1939 1940 1941 1942 1965 1966 1967 1968 1969 1970 1971 1972 1973 1996 1997 1998 1999 2000 2001 2002 2003 2004 2027 2028 2029 2030 2031 2032 2033 2034 2035 2058 2059 2060 2061 2062 2063 2064 2065 2066 2089 2090 2091 2092 2093 2094 2095 2096 2097 2120 2121 2122 2123 2124 2125 2126 2127 2128 2151 2152 2153 2154 2155 2156 2157 2158 2159 2182 2183 2184 2185 2186 2187 2188 2189 2190 2213 2214 2215 2216 2217 2218 2219 2220 2221 2244 2245 2246 2247 2248 2249 2250 2251 2252 2275 2276 2277 2278 2279 2280 2281 2282 2283 2306 2307 2308 2309 2310 2311 2312 2313 2314 2337 2338 2339 2340 2341 2342 2343 2344 2345 2368 2369 2370 2371 2372 2373 2374 2375 2376 2399 2400 2401 2402 2403 2404 2405 2406 2407 2430 2431 2432 2433 2434 2435 2436 2437 2438 2461 2462 2463 2464 2465 2466 2467 2468 2469 2492 2493 2494 2495 2496 2497 2498 2499 2500 2523 2524 2525 2526 2527 2528 2529 2530 2531 2554 2555 2556 2557 2558 2559 2560 2561 2562 2585 2586 2587 2588 2589 2590 2591 2592 2593 2616 2617 2618 2619 2620 2621 2622 2623 2624 2647 2648 2649 2650 2651 2652 2653 2654 2655 2678 2679 2680 2681 2682 2683 2684 2685 2686 2709 2710 2711 2712 2713 2714 2715 2716 2717 2739 2740 2741 2742 2743 2744 2745 2746 2747 2768 2769 2770 2771 2772 2773 2774 2775 2776 2796 2797 2798 2799 2800 2801 2802 2803 2804 2823 2824 2825 2826 2827 2828 2829 2830 2831 2849 2850 2851 2852 2853 2854 2855 2856 2857 2873 2874 2875 2876 2877 2878 2879 2880 2881 2896 2897 2898 2899 2900 2901 2902 2903 2904 2917 2918 2919 2920 2921 2922 2923 2924 2925 2936 2937 2938 2939 2940 2941 2942 2943 2953 2954 2955 2956 2957 2958 2966 2967 2968 2969 1045 1046 1047 1048 1049 1050 1051 1052 1075 1076 1077 1078 1079 1080 1081 1082 1106 1107 1108 1109 1110 1111 1112 1113 1137 1138 1139 1140 1141 1142 1143 1144 1168 1169 1170 1171 1172 1173 1174 1175 1199 1200 1201 1202 1203 1204 1205 1206 1230 1231 1232 1233 1234 1235 1236 1237 1261 1262 1263 1264 1265 1266 1267 1268 1292 1293 1294 1295 1296 1297 1298 1299 1323 1324 1325 1326 1327 1328 1329 1330 1354 1355 1356 1357 1358 1359 1360 1361 1385 1386 1387 1388 1389 1390 1391 1392 1416 1417 1418 1419 1420 1421 1422 1423 1447 1448 1449 1450 1451 1452 1453 1454 1478 1479 1480 1481 1482 1483 1484 1485 1509 1510 1511 1512 1513 1514 1515 1516 1540 1541 1542 1543 1544 1545 1546 1547 1571 1572 1573 1574 1575 1576 1577 1578 1602 1603 1604 1605 1606 1607 1608 1609 1633 1634 1635 1636 1637 1638 1639 1640 1664 1665 1666 1667 1668 1669 1670 1671 1695 1696 1697 1698 1699 1700 1701 1702 1726 1727 1728 1729 1730 1731 1732 1733 1757 1758 1759 1760 1761 1762 1763 1764 1788 1789 1790 1791 1792 1793 1794 1795 1819 1820 1821 1822 1823 1824 1825 1826 1850 1851 1852 1853 1854 1855 1856 1857 1881 1882 1883 1884 1885 1886 1887 1888 1912 1913 1914 1915 1916 1917 1918 1919 1943 1944 1945 1946 1947 1948 1949 1950 1974 1975 1976 1977 1978 1979 1980 1981 2005 2006 2007 2008 2009 2010 2011 2012 2036 2037 2038 2039 2040 2041 2042 2043 2067 2068 2069 2070 2071 2072 2073 2074 2098 2099 2100 2101 2102 2103 2104 2105 2129 2130 2131 2132 2133 2134 2135 2136 2160 2161 2162 2163 2164 2165 2166 2167 2191 2192 2193 2194 2195 2196 2197 2198 2222 2223 2224 2225 2226 2227 2228 2229 2253 2254 2255 2256 2257 2258 2259 2260 2284 2285 2286 2287 2288 2289 2290 2291 2315 2316 2317 2318 2319 2320 2321 2322 2346 2347 2348 2349 2350 2351 2352 2353 2377 2378 2379 2380 2381 2382 2383 2384 2408 2409 2410 2411 2412 2413 2414 2415 2439 2440 2441 2442 2443 2444 2445 2446 2470 2471 2472 2473 2474 2475 2476 2477 2501 2502 2503 2504 2505 2506 2507 2508 2532 2533 2534 2535 2536 2537 2538 2539 2563 2564 2565 2566 2567 2568 2569 2570 2594 2595 2596 2597 2598 2599 2600 2601 2625 2626 2627 2628 2629 2630 2631 2632 2656 2657 2658 2659 2660 2661 2662 2663 2687 2688 2689 2690 2691 2692 2693 2694 2718 2719 2720 2721 2722 2723 2724 2725 2748 2749 2750 2751 2752 2753 2754 2755 2777 2778 2779 2780 2781 2782 2783 2784 2805 2806 2807 2808 2809 2810 2811 2812 2832 2833 2834 2835 2836 2837 2838 2839 2858 2859 2860 2861 2862 2863 2864 2865 2882 2883 2884 2885 2886 2887 2888 2889 2905 2906 2907 2908 2909 2910 2911 2912 2926 2927 2928 2929 2930 2931 2932 2933 2944 2945 2946 2947 2948 2949 2950 2951 2959 2960 2961 2962 2963 2964 2965 2970 2971 2972 2973 2974 1053 1054 1055 1056 1057 1058 1059 1083 1084 1085 1086 1087 1088 1089 1090 1114 1115 1116 1117 1118 1119 1120 1121 1145 1146 1147 1148 1149 1150 1151 1152 1176 1177 1178 1179 1180 1181 1182 1183 1207 1208 1209 1210 1211 1212 1213 1214 1238 1239 1240 1241 1242 1243 1244 1245 1269 1270 1271 1272 1273 1274 1275 1276 1300 1301 1302 1303 1304 1305 1306 1307 1331 1332 1333 1334 1335 1336 1337 1338 1362 1363 1364 1365 1366 1367 1368 1369 1393 1394 1395 1396 1397 1398 1399 1400 1424 1425 1426 1427 1428 1429 1430 1431 1455 1456 1457 1458 1459 1460 1461 1462 1486 1487 1488 1489 1490 1491 1492 1493 1517 1518 1519 1520 1521 1522 1523 1524 1548 1549 1550 1551 1552 1553 1554 1555 1579 1580 1581 1582 1583 1584 1585 1586 1610 1611 1612 1613 1614 1615 1616 1617 1641 1642 1643 1644 1645 1646 1647 1648 1672 1673 1674 1675 1676 1677 1678 1679 1703 1704 1705 1706 1707 1708 1709 1710 1734 1735 1736 1737 1738 1739 1740 1741 1765 1766 1767 1768 1769 1770 1771 1772 1796 1797 1798 1799 1800 1801 1802 1803 1827 1828 1829 1830 1831 1832 1833 1834 1858 1859 1860 1861 1862 1863 1864 1865 1889 1890 1891 1892 1893 1894 1895 1896 1920 1921 1922 1923 1924 1925 1926 1927 1951 1952 1953 1954 1955 1956 1957 1958 1982 1983 1984 1985 1986 1987 1988 1989 2013 2014 2015 2016 2017 2018 2019 2020 2044 2045 2046 2047 2048 2049 2050 2051 2075 2076 2077 2078 2079 2080 2081 2082 2106 2107 2108 2109 2110 2111 2112 2113 2137 2138 2139 2140 2141 2142 2143 2144 2168 2169 2170 2171 2172 2173 2174 2175 2199 2200 2201 2202 2203 2204 2205 2206 2230 2231 2232 2233 2234 2235 2236 2237 2261 2262 2263 2264 2265 2266 2267 2268 2292 2293 2294 2295 2296 2297 2298 2299 2323 2324 2325 2326 2327 2328 2329 2330 2354 2355 2356 2357 2358 2359 2360 2361 2385 2386 2387 2388 2389 2390 2391 2392 2416 2417 2418 2419 2420 2421 2422 2423 2447 2448 2449 2450 2451 2452 2453 2454 2478 2479 2480 2481 2482 2483 2484 2485 2509 2510 2511 2512 2513 2514 2515 2516 2540 2541 2542 2543 2544 2545 2546 2547 2571 2572 2573 2574 2575 2576 2577 2578 2602 2603 2604 2605 2606 2607 2608 2609 2633 2634 2635 2636 2637 2638 2639 2640 2664 2665 2666 2667 2668 2669 2670 2671 2695 2696 2697 2698 2699 2700 2701 2702 2726 2727 2728 2729 2730 2731 2732 2733 2756 2757 2758 2759 2760 2761 2762 2785 2786 2787 2788 2789 2790 2791 2813 2814 2815 2816 2817 2818 2840 2841 2842 2843 2844 2845 2866 2867 2868 2869 2870 2890 2891 2892 2893 2913 2914 2915 2916 2934 2935 2952 
Rhop 1 2975 float
1000.0 1000.0 1000.0 1000.0 1000.0 1000.0 1000.0 1000.0 1000.0 1000.0 1000.0 1000.0 1000.0 1000.0 1000.0 1000.0 1000.0 1000.0 1000.0004 1000.0015 1000.0005 1000.0021 1000.005 1000.0019 1000.0057 1000.0121 1000.0046 1000.0118 1000.0232 1000.0084 1000.0203 1000.0373 1000.0128 1000.0293 1000.053 1000.0172 1000.0385 1000.0682 1000.021 1000.0464 1000.0815 1000.0244 1000.0533 1000.0932 1000.0274 1000.0605 1000.1056 1000.0317 1000.0694 1000.1217 1000.0381 1000.0836 1000.1468 1000.049 1000.1068 1000.1874 1000.0686 1000.1444 1000.2491 1000.1013 1000.1996 1000.3331 1000.2737 1000.4353 1000.0 1000.0 1000.0 1000.0 1000.0 1000.0 1000.0 1000.0 1000.0 1000.0 1000.0 1000.0 1000.0 1000.0 1000.0 1000.0 1000.0 1000.0 1000.0 1000.0 1000.0 1000.0 1000.0 1000.0 1000.0 1000.0 1000.0 1000.0 1000.0 1000.0 1000.0 1000.0 1000.0 1000.0 1000.0003 1000.0005 1000.0009 1000.0011 1000.0013 1000.0014 1000.0006 1000.0015 1000.0027 1000.004 1000.0051 1000.0062 1000.0071 1000.0078 1000.0033 1000.0059 1000.0093 1000.0132 1000.017 1000.0203 1000.0228 1000.0249 1000.0096 1000.016 1000.0238 1000.0325 1000.041 1000.0483 1000.0541 1000.0588 1000.0214 1000.0335 1000.0487 1000.065 1000.0806 1000.0942 1000.1052 1000.1136 1000.0387 1000.0591 1000.0838 1000.1102 1000.1352 1000.1564 1000.1738 1000.1873 1000.0605 1000.0906 1000.1263 1000.1638 1000.1984 1000.2277 1000.2515 1000.27 1000.0842 1000.1237 1000.1695 1000.1064 1000.1541 1000.1259 1000.1804 1000.1434 1000.2043 1000.1622 1000.2305 1000.1874 1000.2661 1000.2263 1000.3187 1000.2869 1000.3984 1000.3767 1000.5125 1000.4962 1000.6608 1000.6356 1000.8342 1000.0 1000.0 1000.0 1000.0 1000.0 1000.0 1000.0 1000.0 1000.0 1000.0 1000.0 1000.0 1000.0 1000.0 1000.0 1000.0 1000.0 1000.0 1000.0 1000.0 1000.0 1000.0 1000.0 1000.0 1000.0 1000.0 1000.0 1000.0 1000.0 1000.0 1000.0 1000.0 1000.0 1000.0 1000.0 1000.0 1000.0015 1000.0015 1000.0015 1000.0016 1000.0016 1000.0016 1000.0016 1000.0016 1000.0016 1000.0083 1000.0085 1000.0087 1000.0089 1000.009 1000.009 1000.009 1000.009 1000.009 1000.0261 1000.0273 1000.028 1000.0282 1000.0287 1000.029 1000.0291 1000.0291 1000.0291 1000.0621 1000.0648 1000.0663 1000.0674 1000.0684 1000.0687 1000.0689 1000.0691 1000.0691 1000.1201 1000.1249 1000.1282 1000.1307 1000.1318 1000.1326 1000.1332 1000.1334 1000.1335 1000.1976 1000.2052 1000.2106 1000.2142 1000.2167 1000.218 1000.2188 1000.2191 1000.2193 1000.2841 1000.2944 1000.3018 1000.3068 1000.3101 1000.3121 1000.3132 1000.3137 1000.314 1000.0 1000.0 1000.0 1000.0 1000.0 1000.0 1000.0 1000.0 1000.0 1000.0 1000.0 1000.0 1000.0 1000.0 1000.0 1000.0 1000.0 1000.0 1000.0 1000.0 1000.0 1000.0 1000.0 1000.0 1000.0 1000.0 1000.0 1000.0 1000.0 1000.0 1000.0 1000.0 1000.0016 1000.0016 1000.0016 1000.0016 1000.0016 1000.0016 1000.0016 1000.0015 1000.009 1000.009 1000.009 1000.009 1000.009 1000.009 1000.0089 1000.0087 1000.0291 1000.0291 1000.0291 1000.0291 1000.029 1000.0287 1000.0282 1000.028 1000.0691 1000.0691 1000.0691 1000.0689 1000.0687 1000.0684 1000.0674 1000.0663 1000.1335 1000.1335 1000.1334 1000.1332 1000.1326 1000.1318 1000.1307 1000.1282 1000.2193 1000.2193 1000.2191 1000.2188 1000.218 1000.2167 1000.2142 1000.2106 1000.314 1000.314 1000.3137 1000.3132 1000.3121 1000.3101 1000.3068 1000.3018 1000.0 1000.0 1000.0 1000.0 1000.0 1000.0 1000.0 1000.0 1000.0 1000.0 1000.0 1000.0 1000.0 1000.0 1000.0 1000.0 1000.0 1000.0 1000.0 1000.0 1000.0 1000.0 1000.0 1000.0 1000.0 1000.0 1000.0 1000.0 1000.0 1000.0 1000.0 1000.0 1000.0 1000.0 1000.0 1000.0 1000.0015 1000.0015 1000.0014 1000.0013 1000.0011 1000.0009 1000.0005 1000.0003 1000.0 1000.0085 1000.0083 1000.0078 1000.0071 1000.0062 1000.0051 1000.004 1000.0027 1000.0015 1000.0273 1000.0261 1000.0249 1000.0228 1000.0203 1000.017 1000.0132 1000.0093 1000.0059 1000.0648 1000.0621 1000.0588 1000.0541 1000.0483 1000.041 1000.0325 1000.0238 1000.016 1000.1249 1000.1201 1000.1136 1000.1052 1000.0942 1000.0806 1000.065 1000.0487 1000.0335 1000.2052 1000.1976 1000.1873 1000.1738 1000.1564 1000.1352 1000.1102 1000.0838 1000.0591 1000.2944 1000.2841 1000.27 1000.2515 1000.2277 1000.1984 1000.1638 1000.1263 1000.0906 1000.1695 1000.1237 1000.1541 1000.1804 1000.2043 1000.2305 1000.2661 1000.3187 1000.3984 1000.5125 1000.6608 1000.8342 1000.0 1000.0 1000.0 1000.0 1000.0 1000.0 1000.0 1000.0 1000.0 1000.0 1000.0 1000.0 1000.0 1000.0 1000.0 1000.0 1000.0 1000.0 1000.0 1000.0006 1000.0 1000.0 1000.0 1000.0033 1000.0015 1000.0004 1000.0 1000.0096 1000.005 1000.0021 1000.0005 1000.0214 1000.0121 1000.0057 1000.0019 1000.0387 1000.0232 1000.0118 1000.0046 1000.0605 1000.0373 1000.0203 1000.0084 1000.0842 1000.053 1000.0293 1000.0128 1000.1064 1000.0682 1000.0385 1000.0172 1000.1259 1000.0815 1000.0464 1000.021 1000.1434 1000.0932 1000.0533 1000.0244 1000.1622 1000.1056 1000.0605 1000.0274 1000.1874 1000.1217 1000.0694 1000.0317 1000.2263 1000.1468 1000.0836 1000.0381 1000.2869 1000.1874 1000.1068 1000.049 1000.3767 1000.2491 1000.1444 1000.0686 1000.4962 1000.3331 1000.1996 1000.1013 1000.6356 1000.4353 1000.2737 1000.0 1000.0 1000.0 1000.0 1000.0 1000.0 1000.0 1000.0 1000.0 1000.0 1000.0 1000.0 1000.0 1000.0 1000.0 1000.0 1000.0 1000.0 1000.0 1000.0 1000.0 1000.0 1000.0 1000.0 1000.0 1000.0 1000.0 1000.0 1000.0 1000.0 1000.0 1000.0 1000.0 1000.0 1000.0 1000.0 1000.0 1000.0 1000.0 1000.0 1000.0 1000.0 1000.0 1000.0 1000.0 1000.0 1000.0 1000.0 1000.0 1000.0 1000.0 1000.0 1000.0 1000.0 1000.0 1000.0 1000.0 1000.0 1000.0 1000.0 1000.0 1000.0 1000.0 1000.0 1000.0 1000.0 1000.0 1000.0 1000.0 1000.0 1000.0 1000.0 1000.0 1000.0 1000.0 1000.0 1000.0 1000.0 1000.0 1000.0 1000.0 1000.0 1000.0 1000.0 1000.0 1000.0 1000.0 1000.0 1000.0 1000.0 1000.0 1000.0 1000.0 1000.0 1000.0 1000.0 1000.0 1000.0 1000.0 1000.0 1000.0 1000.0 1000.0 1000.0 1000.0 1000.0 1000.0 1000.0 1000.0 1000.0 1000.0 1000.0 1000.0 1000.0 1000.0 1000.0 1000.0 1000.0 1000.0 1000.0 1000.0 1000.0 1000.0 1000.0 1000.0 1000.0 1000.0 1000.0 1000.0 1000.0 1000.0 1000.0 1000.0 1000.0 1000.0 1000.0 1000.0 1000.0 1000.0 1000.0 1000.0 1000.0 1000.0 1000.0 1000.0 1000.0 1000.0 1000.0 1000.0 1000.0 1000.0 1000.0 1000.0 1000.0 1000.0 1000.0 1000.0 1000.0 1000.0 1000.0 1000.0 1000.0 1000.0 1000.0 1000.0 1000.0 1000.0 1000.0 1000.0 1000.0 1000.0 1000.0 1000.0 1000.0 1000.0 1000.0 1000.0 1000.0 1000.0 1000.0 1000.0 1000.0 1000.0 1000.0 1000.0 1000.0 1000.0 1000.0 1000.0 1000.0 1000.0 1000.0 1000.0 1000.0 1000.0 1000.0 1000.0 1000.0 1000.0 1000.0 1000.0 1000.0 1000.0 1000.0 1000.0 1000.0 1000.0 1000.0 1000.0 1000.0 1000.0 1000.0 1000.0 1000.0 1000.0 1000.0 1000.0 1000.0 1000.0 1000.0 1000.0 1000.0 1000.0 1000.0 1000.0 1000.0 1000.0 1000.0 1000.0 1000.0 1000.0 1000.0 1000.0 1000.0 1000.0 1000.0 1000.0 1000.0 1000.0 1000.0 1000.0 1000.0 1000.0 1000.0 1000.0 1000.0 1000.0 1000.0 1000.0 1000.0 1000.0 1000.0 1000.0 1000.0 1000.0 1000.0 1000.0 1000.0 1000.0 1000.0 1000.0 1000.0 1000.0 1000.0 1000.0 1000.0 1000.0 1000.0 1000.0 1000.0 1000.0 1000.0 1000.0 1000.0 1000.0 1000.0 1000.0 1000.0 1000.0 1000.0 1000.0 1000.0 1000.0 1000.0 1000.0 1000.0 1000.0 1000.0 1000.0 1000.0 1000.0 1000.0 1000.0 1000.0 1000.0 1000.0 1000.0 1000.0 1000.0 1000.0 1000.0 1000.0 1000.0 1000.0 1000.0 1000.0 1000.0 1000.0 1000.0 1000.0 1000.0 1000.0 1000.0 1000.0 1000.0 1000.0 1000.0 1000.0 1000.0 1000.0 1000.0 1000.0 1000.0 1000.0 1000.0 1000.0 1000.0 1000.0 1000.0 1000.0 1000.0 1000.0 1000.0 1000.0 1000.0 1000.0 1000.0 1000.0 1000.0 1000.0 1000.0 1000.0 1000.0 1000.0 1000.0 1000.0 1000.0 1000.0 1000.0 1000.0 1000.0 1000.0 1000.0 1000.0 1000.0 1000.0 1000.0 1000.0 1000.0 1000.0 1000.0 1000.0 1000.0 1000.0 1000.0 1000.0 1000.0 1000.0 1000.0 1000.0 1000.0 1000.0 1000.0 1000.0 1000.0 1000.0 1000.0 1000.0 1000.0 1000.0 1000.0 1000.0 1000.0 1000.0 1000.0 1000.0 1000.0 1000.0 1000.0 1000.0 1000.0 1000.0 1000.0 1000.0 1000.0 1000.0 1000.0 1000.0 1000.0 1000.0 1000.0 1000.0 1000.0 1000.0 1000.0 1000.0 1000.0 1000.0 1000.0 1000.0 1000.0 1000.0 1000.0 1000.0 1000.0 1000.0 1000.0 1000.0 1000.0 1000.0 1000.0 1000.0 1000.0 1000.0 1000.0 1000.0 1000.0 1000.0 1000.0 1000.0 1000.0 1000.0 1000.0 1000.0 1000.0 1000.0 1000.0 1000.0 1000.0 1000.0 1000.0 1000.0 1000.0 1000.0 1000.0 1000.0 1000.0 1000.0 1000.0 1000.0 1000.0 1000.0 1000.0 1000.0 1000.0 1000.0 1000.0 1000.0 1000.0 1000.0 1000.0 1000.0 1000.0 1000.0 1000.0 1000.0 1000.0 1000.0 1000.0 1000.0 1000.0 1000.0 1000.2158 1000.2584 1000.2941 1000.3225 1000.3446 1000.2053 1000.2606 1000.3087 1000.3483 1000.3798 1000.4039 1000.238 1000.2992 1000.3521 1000.395 1000.4278 1000.4528 1000.2687 1000.3364 1000.394 1000.4398 1000.4745 1000.4993 1000.3034 1000.3777 1000.4405 1000.4896 1000.5257 1000.5501 1000.352 1000.4331 1000.4992 1000.5499 1000.5866 1000.6111 1000.431 1000.5153 1000.5797 1000.6269 1000.6608 1000.684 1000.5595 1000.6406 1000.6909 1000.7255 1000.7509 1000.7687 1000.7563 1000.8192 1000.8381 1000.847 1000.8556 1000.8646 1001.0296 1001.0457 1001.0144 1000.9857 1000.9719 1000.969 1001.3507 1001.2906 1001.1984 1001.1295 1001.093 1001.079 1001.5956 1001.4982 1001.3618 1001.2637 1001.2122 1001.1914 1001.6021 1001.581 1001.4737 1001.3776 1001.3252 1001.3043 1001.5502 1001.5776 1001.5359 1001.4724 1001.4341 1001.4201 1001.5576 1001.59 1001.5907 1001.5651 1001.5477 1001.5429 1001.6294 1001.6553 1001.6733 1001.6744 1001.674 1001.6773 1001.7501 1001.7723 1001.7959 1001.8094 1001.8189 1001.8275 1001.9078 1001.9286 1001.9525 1001.9698 1001.9836 1001.9958 1002.0894 1002.111 1002.135 1002.1532 1002.1697 1002.1843 1002.2904 1002.3155 1002.3406 1002.3594 1002.3781 1002.3945 1002.5156 1002.5437 1002.57 1002.5894 1002.6097 1002.627 1002.7697 1002.7984 1002.8251 1002.8445 1002.8651 1002.8826 1003.0554 1003.0827 1003.1083 1003.1263 1003.1454 1003.1608 1003.3758 1003.3985 1003.4219 1003.4363 1003.4503 1003.4614 1003.7241 1003.7419 1003.7619 1003.7667 1003.7705 1003.7736 1004.0851 1004.0987 1004.1129 1004.0993 1004.0862 1004.0765 1004.4329 1004.4457 1004.4491 1004.4034 1004.3663 1004.3421 1004.733 1004.7473 1004.7307 1004.6379 1004.5729 1004.5352 1004.9676 1004.9855 1004.9369 1004.7878 1004.6978 1004.6546 1005.1964 1005.22 1005.1368 1004.9392 1004.8398 1004.8075 1005.6996 1005.7358 1005.6408 1005.4396 1005.3596 1005.3616 1007.1567 1007.2271 1007.2149 1007.084 1007.0518 1007.1086 1010.2661 1010.4135 1010.558 1010.6266 1010.6902 1010.8066 1014.1115 1014.3318 1014.6115 1014.9353 1015.1597 1015.3325 1016.2838 1016.531 1016.8284 1017.2558 1017.6129 1017.8136 1016.2182 1016.3909 1016.546 1016.8749 1017.2278 1017.4102 1015.3788 1015.4124 1015.3202 1015.388 1015.5687 1015.6359 1014.9905 1014.9218 1014.6809 1014.4559 1014.3306 1014.1705 1015.283 1015.1736 1014.8427 1014.3966 1014.0181 1013.6669 1015.9761 1015.8271 1015.4203 1014.9042 1014.3953 1013.942 1016.657 1016.485 1016.0377 1015.5189 1014.9993 1014.5362 1017.0635 1016.8959 1016.4442 1015.9459 1015.4933 1015.0923 1016.8794 1016.7355 1016.3101 1015.848 1015.4812 1015.171 1016.291 1016.1845 1015.8091 1015.4088 1015.1357 1014.9238 1015.5579 1015.5004 1015.2086 1014.9032 1014.7356 1014.6262 1014.8225 1014.8278 1014.6675 1014.5002 1014.4521 1014.4517 1014.0802 1014.1697 1014.1917 1014.1934 1014.2804 1014.3876 1013.2499 1013.4414 1013.6594 1013.8567 1014.0619 1014.2736 1012.2609 1012.5555 1012.9631 1013.3082 1013.6245 1013.9289 1011.1216 1011.5114 1012.0556 1012.476 1012.8959 1013.2639 1009.9217 1010.3736 1010.9687 1011.4296 1011.9125 1012.3038 1008.7674 1009.2472 1009.8086 1010.2839 1010.7731 1011.1537 1007.6864 1008.1785 1008.6981 1009.1548 1009.6017 1009.944 1006.5604 1007.1656 1007.7095 1008.1216 1008.4961 1008.7802 1005.5905 1006.2984 1006.9009 1007.2435 1007.5138 1007.7287 1005.5659 1006.2509 1006.5317 1006.6841 1006.8171 1004.924 1005.6172 1005.9425 1006.0045 1006.0564 1004.885 1005.3514 1005.4313 1005.435 1004.1526 1004.6077 1004.8801 1004.9048 1003.7792 1004.1881 1004.3541 1003.3914 1003.6306 1003.1508 1002.8967 1000.3615 1000.3742 1000.3829 1000.3891 1000.3928 1000.3952 1000.3966 1000.3971 1000.3974 1000.4219 1000.4355 1000.4449 1000.4513 1000.455 1000.4576 1000.4587 1000.4595 1000.4597 1000.471 1000.4843 1000.4935 1000.4993 1000.503 1000.5048 1000.5059 1000.5063 1000.5065 1000.517 1000.5293 1000.5372 1000.5421 1000.5452 1000.5464 1000.5469 1000.5468 1000.5468 1000.5671 1000.578 1000.5847 1000.5878 1000.5895 1000.5897 1000.5897 1000.5894 1000.5891 1000.6266 1000.6359 1000.6405 1000.642 1000.6422 1000.6415 1000.6403 1000.6395 1000.6388 1000.6978 1000.7047 1000.7071 1000.7068 1000.7048 1000.7028 1000.7007 1000.6991 1000.6979 1000.7797 1000.7839 1000.7836 1000.781 1000.7774 1000.7737 1000.7707 1000.7682 1000.7668 1000.8705 1000.872 1000.8691 1000.8638 1000.8584 1000.8533 1000.8489 1000.8458 1000.844 1000.9695 1000.9675 1000.9618 1000.9543 1000.9471 1000.9404 1000.9354 1000.9314 1000.9293 1001.0745 1001.0696 1001.0619 1001.0527 1001.0436 1001.0361 1001.0302 1001.026 1001.0234 1001.1837 1001.1776 1001.1687 1001.1583 1001.1484 1001.1401 1001.1338 1001.1291 1001.1264 1001.2972 1001.2913 1001.2825 1001.272 1001.2619 1001.2535 1001.2468 1001.2419 1001.2392 1001.416 1001.4116 1001.4041 1001.3945 1001.3847 1001.3765 1001.3701 1001.3656 1001.3627 1001.5426 1001.541 1001.5351 1001.5269 1001.5184 1001.5105 1001.5048 1001.5004 1001.498 1001.681 1001.6813 1001.678 1001.6716 1001.6647 1001.6581 1001.6527 1001.6489 1001.6468 1001.8339 1001.8367 1001.8353 1001.8306 1001.8251 1001.8199 1001.8152 1001.812 1001.8102 1002.0048 1002.0094 1002.0093 1002.0065 1002.002 1001.998 1001.9942 1001.9914 1001.9899 1002.1951 1002.2009 1002.2021 1002.1999 1002.1965 1002.1934 1002.1906 1002.1885 1002.1872 1002.4064 1002.4127 1002.4143 1002.4126 1002.41 1002.4075 1002.4052 1002.4036 1002.4024 1002.6395 1002.6456 1002.6468 1002.6453 1002.6426 1002.6404 1002.6383 1002.6367 1002.6359 1002.8944 1002.8994 1002.8997 1002.8966 1002.8937 1002.891 1002.8889 1002.8874 1002.8863 1003.1703 1003.1732 1003.1706 1003.166 1003.1609 1003.1573 1003.1545 1003.1525 1003.1511 1003.4666 1003.4647 1003.4575 1003.4487 1003.441 1003.4351 1003.4311 1003.428 1003.4264 1003.771 1003.7618 1003.7479 1003.7327 1003.7205 1003.7117 1003.7055 1003.7016 1003.6993 1004.0636 1004.0438 1004.0198 1003.9973 1003.9789 1003.9661 1003.9581 1003.9527 1003.9502 1004.3168 1004.2851 1004.2496 1004.2169 1004.192 1004.1753 1004.1647 1004.1583 1004.1554 1004.5 1004.4579 1004.4116 1004.3694 1004.3377 1004.317 1004.3051 1004.298 1004.2947 1004.6175 1004.572 1004.5204 1004.4727 1004.4368 1004.4139 1004.4011 1004.3947 1004.3917 1004.7839 1004.7488 1004.704 1004.6599 1004.6258 1004.6047 1004.5944 1004.5901 1004.5881 1005.3724 1005.3671 1005.3456 1005.3193 1005.2981 1005.2857 1005.2814 1005.2813 1005.2821 1007.1751 1007.2186 1007.239 1007.246 1007.2495 1007.2547 1007.2624 1007.2692 1007.2743 1010.9346 1011.0369 1011.1086 1011.1591 1011.1971 1011.2275 1011.251 1011.2682 1011.2786 1015.5021 1015.649 1015.7645 1015.8547 1015.9267 1015.9831 1016.0245 1016.0518 1016.0665 1017.9786 1018.128 1018.2565 1018.3665 1018.46 1018.5337 1018.587 1018.6204 1018.6371 1017.517 1017.6122 1017.7078 1017.8044 1017.8948 1017.97 1018.0236 1018.0555 1018.0706 1015.636 1015.6293 1015.6494 1015.6979 1015.759 1015.8153 1015.8549 1015.8756 1015.8828 1014.0012 1013.8673 1013.7945 1013.7755 1013.7885 1013.8088 1013.8211 1013.8212 1013.8151 1013.358 1013.1231 1012.9727 1012.8923 1012.8548 1012.8336 1012.8118 1012.7857 1012.7629 1013.5617 1013.278 1013.0875 1012.9703 1012.8978 1012.8431 1012.7914 1012.7418 1012.7031 1014.1575 1013.8816 1013.6962 1013.5773 1013.4962 1013.4283 1013.3614 1013.2974 1013.2493 1014.7682 1014.5444 1014.4022 1014.3146 1014.2534 1014.1964 1014.1334 1014.07 1014.0212 1014.9293 1014.7807 1014.7028 1014.6682 1014.6493 1014.6237 1014.5831 1014.5341 1014.4935 1014.773 1014.7042 1014.6964 1014.7231 1014.7562 1014.7744 1014.7676 1014.7435 1014.7173 1014.5675 1014.5746 1014.6313 1014.7147 1014.7994 1014.8623 1014.8934 1014.8969 1014.8884 1014.4842 1014.5594 1014.6683 1014.7955 1014.9203 1015.0198 1015.0827 1015.1118 1015.1191 1014.5057 1014.635 1014.7775 1014.9294 1015.0762 1015.1965 1015.2791 1015.3234 1015.3409 1014.4619 1014.6261 1014.7816 1014.9371 1015.0847 1015.2084 1015.2952 1015.3449 1015.3661 1014.1653 1014.3449 1014.4958 1014.6379 1014.7714 1014.8841 1014.9639 1015.0101 1015.0302 1013.5249 1013.7039 1013.8392 1013.9594 1014.0712 1014.1666 1014.2347 1014.2734 1014.2903 1012.5689 1012.738 1012.8544 1012.9526 1013.0439 1013.1221 1013.1784 1013.2105 1013.2242 1011.4065 1011.5628 1011.6638 1011.7466 1011.8229 1011.8887 1011.9364 1011.9644 1011.9771 1010.1705 1010.314 1010.4089 1010.4852 1010.554 1010.6129 1010.6559 1010.6829 1010.6959 1008.97 1009.1014 1009.1991 1009.2797 1009.3492 1009.4063 1009.4485 1009.4754 1009.4897 1007.8729 1007.9877 1008.0923 1008.1857 1008.2642 1008.3259 1008.37 1008.3989 1008.4147 1006.9095 1006.9985 1007.1031 1007.212 1007.307 1007.3802 1007.4316 1007.4645 1007.4824 1006.094 1006.1451 1006.2333 1006.3468 1006.4588 1006.5504 1006.6157 1006.6575 1006.6803 1005.4326 1005.4394 1005.4915 1005.5873 1005.7017 1005.8081 1005.891 1005.9471 1005.9781 1004.9128 1004.8934 1004.8972 1004.9513 1005.0426 1005.1448 1005.2356 1005.3032 1005.3439 1004.4526 1004.4866 1004.4671 1004.4666 1004.5084 1004.5788 1004.656 1004.7217 1004.765 1003.9207 1004.089 1004.1595 1004.1471 1004.1302 1004.1448 1004.183 1004.2275 1004.2618 1003.2668 1003.5682 1003.7766 1003.8934 1003.8984 1003.8674 1003.8517 1003.8568 1003.8693 1002.8495 1003.0576 1003.2518 1003.4643 1003.603 1003.6599 1003.6516 1003.631 1003.6213 1002.9823 1002.9532 1003.0768 1003.1645 1003.2701 1003.3248 1003.3542 1003.3657 1003.144 1003.07 1003.1153 1003.1002 1003.0881 1003.0736 1003.4382 1003.3962 1003.3559 1003.3238 1000.3974 1000.3974 1000.3971 1000.3966 1000.3952 1000.3928 1000.3891 1000.3829 1000.4597 1000.4597 1000.4595 1000.4587 1000.4576 1000.455 1000.4513 1000.4449 1000.5065 1000.5065 1000.5063 1000.5059 1000.5048 1000.503 1000.4993 1000.4935 1000.5468 1000.5468 1000.5468 1000.5469 1000.5464 1000.5452 1000.5421 1000.5372 1000.5889 1000.5891 1000.5894 1000.5897 1000.5897 1000.5895 1000.5878 1000.5847 1000.6385 1000.6388 1000.6395 1000.6403 1000.6415 1000.6422 1000.642 1000.6405 1000.6974 1000.6979 1000.6991 1000.7007 1000.7028 1000.7048 1000.7068 1000.7071 1000.7661 1000.7668 1000.7682 1000.7707 1000.7737 1000.7774 1000.781 1000.7836 1000.8434 1000.844 1000.8458 1000.8489 1000.8533 1000.8584 1000.8638 1000.8691 1000.9285 1000.9293 1000.9314 1000.9354 1000.9404 1000.9471 1000.9543 1000.9618 1001.0224 1001.0234 1001.026 1001.0302 1001.0361 1001.0436 1001.0527 1001.0619 1001.1254 1001.1264 1001.1291 1001.1338 1001.1401 1001.1484 1001.1583 1001.1687 1001.2382 1001.2392 1001.2419 1001.2468 1001.2535 1001.2619 1001.272 1001.2825 1001.3619 1001.3627 1001.3656 1001.3701 1001.3765 1001.3847 1001.3945 1001.4041 1001.4973 1001.498 1001.5004 1001.5048 1001.5105 1001.5184 1001.5269 1001.5351 1001.6459 1001.6468 1001.6489 1001.6527 1001.6581 1001.6647 1001.6716 1001.678 1001.8095 1001.8102 1001.812 1001.8152 1001.8199 1001.8251 1001.8306 1001.8353 1001.9896 1001.9899 1001.9914 1001.9942 1001.998 1002.002 1002.0065 1002.0093 1002.1867 1002.1872 1002.1885 1002.1906 1002.1934 1002.1965 1002.1999 1002.2021 1002.4021 1002.4024 1002.4036 1002.4052 1002.4075 1002.41 1002.4126 1002.4143 1002.6359 1002.6359 1002.6367 1002.6383 1002.6404 1002.6426 1002.6453 1002.6468 1002.886 1002.8863 1002.8874 1002.8889 1002.891 1002.8937 1002.8966 1002.8996 1003.1508 1003.1511 1003.1525 1003.1545 1003.1573 1003.1609 1003.166 1003.1706 1003.4258 1003.4264 1003.428 1003.4311 1003.4351 1003.441 1003.4487 1003.4575 1003.6985 1003.6993 1003.7016 1003.7055 1003.7117 1003.7205 1003.7327 1003.7479 1003.9491 1003.9502 1003.9527 1003.9581 1003.9661 1003.9789 1003.9973 1004.0198 1004.1541 1004.1554 1004.1583 1004.1647 1004.1753 1004.192 1004.2169 1004.2496 1004.2936 1004.2947 1004.298 1004.3051 1004.3171 1004.3377 1004.3694 1004.4116 1004.3906 1004.3917 1004.3947 1004.4011 1004.4139 1004.4368 1004.4727 1004.5204 1004.5876 1004.5881 1004.5901 1004.5944 1004.6047 1004.6258 1004.6599 1004.704 1005.2824 1005.2821 1005.2813 1005.2814 1005.2857 1005.2981 1005.3193 1005.3457 1007.2758 1007.2743 1007.2692 1007.2624 1007.2547 1007.2495 1007.246 1007.239 1011.2816 1011.2786 1011.2682 1011.251 1011.2275 1011.1971 1011.1591 1011.1086 1016.071 1016.0665 1016.0518 1016.0245 1015.9831 1015.9268 1015.8547 1015.7645 1018.6425 1018.6371 1018.6204 1018.587 1018.5337 1018.46 1018.3665 1018.2565 1018.0746 1018.0706 1018.0555 1018.0236 1017.97 1017.8948 1017.8045 1017.7078 1015.8839 1015.8828 1015.8756 1015.8549 1015.8152 1015.759 1015.6979 1015.6494 1013.8116 1013.8151 1013.8212 1013.8211 1013.8088 1013.7885 1013.7755 1013.7945 1012.7539 1012.7629 1012.7857 1012.8118 1012.8336 1012.8548 1012.8923 1012.9727 1012.6884 1012.7031 1012.7418 1012.7914 1012.8431 1012.8978 1012.9703 1013.0875 1013.2315 1013.2493 1013.2974 1013.3614 1013.4283 1013.4962 1013.5773 1013.6962 1014.0029 1014.0212 1014.07 1014.1334 1014.1964 1014.2534 1014.3146 1014.4022 1014.4778 1014.4935 1014.5341 1014.5831 1014.6237 1014.6493 1014.6682 1014.7028 1014.7066 1014.7173 1014.7435 1014.7676 1014.7744 1014.7562 1014.7231 1014.6964 1014.8835 1014.8883 1014.8969 1014.8934 1014.8623 1014.7994 1014.7147 1014.6313 1015.1191 1015.1191 1015.1118 1015.0827 1015.0198 1014.9203 1014.7955 1014.6683 1015.3449 1015.3409 1015.3234 1015.2791 1015.1965 1015.0762 1014.9294 1014.7775 1015.3715 1015.3661 1015.3449 1015.2952 1015.2084 1015.0847 1014.9371 1014.7816 1015.0352 1015.0302 1015.0101 1014.9639 1014.8841 1014.7714 1014.6379 1014.4958 1014.2946 1014.2903 1014.2734 1014.2347 1014.1666 1014.0712 1013.9594 1013.8392 1013.2276 1013.2242 1013.2105 1013.1784 1013.1221 1013.0439 1012.9526 1012.8544 1011.9804 1011.9771 1011.9644 1011.9364 1011.8887 1011.8229 1011.7466 1011.6638 1010.6996 1010.6959 1010.6829 1010.6559 1010.6129 1010.554 1010.4852 1010.4089 1009.4943 1009.4897 1009.4754 1009.4485 1009.4063 1009.3492 1009.2797 1009.1991 1008.4197 1008.4147 1008.3989 1008.37 1008.3259 1008.2642 1008.1857 1008.0923 1007.488 1007.4824 1007.4645 1007.4316 1007.3802 1007.307 1007.212 1007.1031 1006.6874 1006.6803 1006.6575 1006.6157 1006.5504 1006.4588 1006.3468 1006.2333 1005.9882 1005.9781 1005.9471 1005.891 1005.8081 1005.7017 1005.5873 1005.4915 1005.3572 1005.3439 1005.3032 1005.2356 1005.1448 1005.0426 1004.9513 1004.8972 1004.7799 1004.765 1004.7217 1004.656 1004.5788 1004.5084 1004.4666 1004.4671 1004.2742 1004.2618 1004.2275 1004.183 1004.1448 1004.1302 1004.1471 1004.1595 1003.875 1003.8693 1003.8568 1003.8517 1003.8674 1003.8984 1003.8934 1003.7766 1003.6192 1003.6213 1003.631 1003.6515 1003.6599 1003.603 1003.4643 1003.2518 1003.3697 1003.3657 1003.3542 1003.3248 1003.2701 1003.1645 1003.0768 1002.9532 1003.0662 1003.0736 1003.0881 1003.1002 1003.1153 1003.0701 1003.144 1003.3112 1003.3238 1003.3559 1003.3962 1003.4382 1000.3742 1000.3615 1000.3446 1000.3225 1000.2941 1000.2584 1000.2158 1000.4355 1000.4219 1000.4039 1000.3798 1000.3483 1000.3087 1000.2606 1000.2053 1000.4843 1000.471 1000.4528 1000.4278 1000.395 1000.3521 1000.2992 1000.238 1000.5293 1000.517 1000.4993 1000.4745 1000.4398 1000.394 1000.3364 1000.2687 1000.578 1000.5671 1000.5501 1000.5257 1000.4896 1000.4405 1000.3777 1000.3034 1000.6359 1000.6266 1000.6111 1000.5866 1000.5499 1000.4992 1000.4331 1000.352 1000.7047 1000.6978 1000.684 1000.6608 1000.6269 1000.5797 1000.5153 1000.431 1000.7839 1000.7797 1000.7687 1000.7509 1000.7255 1000.6909 1000.6406 1000.5595 1000.872 1000.8705 1000.8646 1000.8556 1000.847 1000.8381 1000.8192 1000.7563 1000.9675 1000.9695 1000.969 1000.9719 1000.9857 1001.0144 1001.0457 1001.0296 1001.0696 1001.0745 1001.079 1001.093 1001.1295 1001.1984 1001.2906 1001.3507 1001.1776 1001.1837 1001.1914 1001.2122 1001.2637 1001.3618 1001.4982 1001.5956 1001.2913 1001.2972 1001.3043 1001.3252 1001.3776 1001.4737 1001.581 1001.6021 1001.4116 1001.416 1001.4201 1001.4341 1001.4724 1001.5359 1001.5776 1001.5502 1001.541 1001.5426 1001.5429 1001.5477 1001.5651 1001.5907 1001.59 1001.5576 1001.6813 1001.681 1001.6773 1001.674 1001.6744 1001.6733 1001.6553 1001.6294 1001.8367 1001.8339 1001.8275 1001.8189 1001.8094 1001.7959 1001.7723 1001.7501 1002.0094 1002.0048 1001.9958 1001.9836 1001.9698 1001.9525 1001.9286 1001.9078 1002.2009 1002.1951 1002.1843 1002.1697 1002.1532 1002.135 1002.111 1002.0894 1002.4127 1002.4064 1002.3945 1002.3781 1002.3594 1002.3406 1002.3155 1002.2904 1002.6456 1002.6395 1002.627 1002.6097 1002.5894 1002.57 1002.5437 1002.5156 1002.8994 1002.8944 1002.8826 1002.8651 1002.8445 1002.8251 1002.7984 1002.7697 1003.1732 1003.1703 1003.1608 1003.1454 1003.1263 1003.1083 1003.0827 1003.0554 1003.4647 1003.4666 1003.4614 1003.4503 1003.4363 1003.4219 1003.3985 1003.3758 1003.7618 1003.771 1003.7736 1003.7705 1003.7667 1003.7619 1003.7419 1003.7241 1004.0438 1004.0636 1004.0765 1004.0862 1004.0993 1004.1129 1004.0988 1004.0851 1004.2851 1004.3168 1004.3421 1004.3663 1004.4034 1004.4491 1004.4457 1004.4329 1004.4579 1004.5 1004.5352 1004.5729 1004.6379 1004.7307 1004.7473 1004.733 1004.572 1004.6175 1004.6546 1004.6978 1004.7878 1004.9369 1004.9855 1004.9676 1004.7488 1004.7839 1004.8075 1004.8398 1004.9392 1005.1368 1005.22 1005.1964 1005.3671 1005.3724 1005.3616 1005.3596 1005.4396 1005.6408 1005.7358 1005.6996 1007.2186 1007.1751 1007.1086 1007.0518 1007.084 1007.215 1007.2271 1007.1567 1011.0369 1010.9346 1010.8066 1010.6902 1010.6266 1010.558 1010.4135 1010.2661 1015.649 1015.5021 1015.3325 1015.1597 1014.9353 1014.6115 1014.3318 1014.1115 1018.128 1017.9787 1017.8136 1017.6129 1017.2558 1016.8284 1016.531 1016.2838 1017.6122 1017.517 1017.4101 1017.2278 1016.8749 1016.546 1016.3909 1016.2182 1015.6293 1015.636 1015.6359 1015.5687 1015.388 1015.3202 1015.4124 1015.3788 1013.8673 1014.0012 1014.1705 1014.3306 1014.4559 1014.6809 1014.9218 1014.9905 1013.1231 1013.358 1013.6669 1014.0181 1014.3966 1014.8427 1015.1736 1015.283 1013.278 1013.5618 1013.942 1014.3953 1014.9042 1015.4203 1015.8271 1015.976 1013.8816 1014.1575 1014.5362 1014.9993 1015.5189 1016.0377 1016.485 1016.657 1014.5444 1014.7682 1015.0923 1015.4933 1015.9459 1016.4442 1016.8959 1017.0635 1014.7807 1014.9293 1015.171 1015.4812 1015.848 1016.3101 1016.7355 1016.8794 1014.7042 1014.773 1014.9237 1015.1357 1015.4088 1015.8091 1016.1845 1016.291 1014.5746 1014.5675 1014.6262 1014.7356 1014.9032 1015.2086 1015.5004 1015.5579 1014.5594 1014.4842 1014.4517 1014.4521 1014.5002 1014.6675 1014.8278 1014.8225 1014.635 1014.5057 1014.3876 1014.2804 1014.1934 1014.1917 1014.1697 1014.0802 1014.6261 1014.4619 1014.2736 1014.062 1013.8567 1013.6594 1013.4414 1013.2499 1014.3449 1014.1653 1013.9289 1013.6245 1013.3082 1012.9631 1012.5555 1012.2609 1013.7039 1013.5249 1013.2639 1012.8959 1012.476 1012.0556 1011.5114 1011.1216 1012.738 1012.5689 1012.3038 1011.9125 1011.4296 1010.9687 1010.3736 1009.9217 1011.5628 1011.4065 1011.1537 1010.7731 1010.2839 1009.8086 1009.2472 1008.7674 1010.314 1010.1705 1009.9441 1009.6017 1009.1548 1008.6981 1008.1785 1007.6864 1009.1014 1008.97 1008.7802 1008.4961 1008.1216 1007.7095 1007.1656 1006.5604 1007.9877 1007.8729 1007.7287 1007.5138 1007.2435 1006.9009 1006.2984 1005.5905 1006.9985 1006.9095 1006.8171 1006.6841 1006.5317 1006.2509 1005.5659 1006.1451 1006.094 1006.0564 1006.0045 1005.9425 1005.6172 1004.924 1005.4394 1005.4326 1005.435 1005.4313 1005.3514 1004.885 1004.8934 1004.9128 1004.9048 1004.8801 1004.6077 1004.1526 1004.4866 1004.4526 1004.3541 1004.1881 1003.7792 1004.089 1003.9207 1003.6306 1003.3914 1003.5682 1003.2668 1002.8967 1003.1508 1003.0576 1002.8495 1002.9823 
Mass 1 2975 float
0.40000001 0.40000001 0.40000001 0.40000001 0.40000001 0.40000001 0.40000001 0.40000001 0.40000001 0.40000001 0.40000001 0.40000001 0.40000001 0.40000001 0.40000001 0.40000001 0.40000001 0.40000001 0.40000001 0.40000001 0.40000001 0.40000001 0.40000001 0.40000001 0.40000001 0.40000001 0.40000001 0.40000001 0.40000001 0.40000001 0.40000001 0.40000001 0.40000001 0.40000001 0.40000001 0.40000001 0.40000001 0.40000001 0.40000001 0.40000001 0.40000001 0.40000001 0.40000001 0.40000001 0.40000001 0.40000001 0.40000001 0.40000001 0.40000001 0.40000001 0.40000001 0.40000001 0.40000001 0.40000001 0.40000001 0.40000001 0.40000001 0.40000001 0.40000001 0.40000001 0.40000001 0.40000001 0.40000001 0.40000001 0.40000001 0.40000001 0.40000001 0.40000001 0.40000001 0.40000001 0.40000001 0.40000001 0.40000001 0.40000001 0.40000001 0.40000001 0.40000001 0.40000001 0.40000001 0.40000001 0.40000001 0.40000001 0.40000001 0.40000001 0.40000001 0.40000001 0.40000001 0.40000001 0.40000001 0.40000001 0.40000001 0.40000001 0.40000001 0.40000001 0.40000001 0.40000001 0.40000001 0.40000001 0.40000001 0.40000001 0.40000001 0.40000001 0.40000001 0.40000001 0.40000001 0.40000001 0.40000001 0.40000001 0.40000001 0.40000001 0.40000001 0.40000001 0.40000001 0.40000001 0.40000001 0.40000001 0.40000001 0.40000001 0.40000001 0.40000001 0.40000001 0.40000001 0.40000001 0.40000001 0.40000001 0.40000001 0.40000001 0.40000001 0.40000001 0.40000001 0.40000001 0.40000001 0.40000001 0.40000001 0.40000001 0.40000001 0.40000001 0.40000001 0.40000001 0.40000001 0.40000001 0.40000001 0.40000001 0.40000001 0.40000001 0.40000001 0.40000001 0.40000001 0.40000001 0.40000001 0.40000001 0.40000001 0.40000001 0.40000001 0.40000001 0.40000001 0.40000001 0.40000001 0.40000001 0.40000001 0.40000001 0.40000001 0.40000001 0.40000001 0.40000001 0.40000001 0.40000001 0.40000001 0.40000001 0.40000001 0.40000001 0.40000001 0.40000001 0.40000001 0.40000001 0.40000001 0.40000001 0.40000001 0.40000001 0.40000001 0.40000001 0.40000001 0.40000001 0.40000001 0.40000001 0.40000001 0.40000001 0.40000001 0.40000001 0.40000001 0.40000001 0.40000001 0.40000001 0.40000001 0.40000001 0.40000001 0.40000001 0.40000001 0.40000001 0.40000001 0.40000001 0.40000001 0.40000001 0.40000001 0.40000001 0.40000001 0.40000001 0.40000001 0.40000001 0.40000001 0.40000001 0.40000001 0.40000001 0.40000001 0.40000001 0.40000001 0.40000001 0.40000001 0.40000001 0.40000001 0.40000001 0.40000001 0.40000001 0.40000001 0.40000001 0.40000001 0.40000001 0.40000001 0.40000001 0.40000001 0.40000001 0.40000001 0.40000001 0.40000001 0.40000001 0.40000001 0.40000001 0.40000001 0.40000001 0.40000001 0.40000001 0.40000001 0.40000001 0.40000001 0.40000001 0.40000001 0.40000001 0.40000001 0.40000001 0.40000001 0.40000001 0.40000001 0.40000001 0.40000001 0.40000001 0.40000001 0.40000001 0.40000001 0.40000001 0.40000001 0.40000001 0.40000001 0.40000001 0.40000001 0.40000001 0.40000001 0.40000001 0.40000001 0.40000001 0.40000001 0.40000001 0.40000001 0.40000001 0.40000001 0.40000001 0.40000001 0.40000001 0.40000001 0.40000001 0.40000001 0.40000001 0.40000001 0.40000001 0.40000001 0.40000001 0.40000001 0.40000001 0.40000001 0.40000001 0.40000001 0.40000001 0.40000001 0.40000001 0.40000001 0.40000001 0.40000001 0.40000001 0.40000001 0.40000001 0.40000001 0.40000001 0.40000001 0.40000001 0.40000001 0.40000001 0.40000001 0.40000001 0.40000001 0.40000001 0.40000001 0.40000001 0.40000001 0.40000001 0.40000001 0.40000001 0.40000001 0.40000001 0.40000001 0.40000001 0.40000001 0.40000001 0.40000001 0.40000001 0.40000001 0.40000001 0.40000001 0.40000001 0.40000001 0.40000001 0.40000001 0.40000001 0.40000001 0.40000001 0.40000001 0.40000001 0.40000001 0.40000001 0.40000001 0.40000001 0.40000001 0.40000001 0.40000001 0.40000001 0.40000001 0.40000001 0.40000001 0.40000001 0.40000001 0.40000001 0.40000001 0.40000001 0.40000001 0.40000001 0.40000001 0.40000001 0.40000001 0.40000001 0.40000001 0.40000001 0.40000001 0.40000001 0.40000001 0.40000001 0.40000001 0.40000001 0.40000001 0.40000001 0.40000001 0.40000001 0.40000001 0.40000001 0.40000001 0.40000001 0.40000001 0.40000001 0.40000001 0.40000001 0.40000001 0.40000001 0.40000001 0.40000001 0.40000001 0.40000001 0.40000001 0.40000001 0.40000001 0.40000001 0.40000001 0.40000001 0.40000001 0.40000001 0.40000001 0.40000001 0.40000001 0.40000001 0.40000001 0.40000001 0.40000001 0.40000001 0.40000001 0.40000001 0.40000001 0.40000001 0.40000001 0.40000001 0.40000001 0.40000001 0.40000001 0.40000001 0.40000001 0.40000001 0.40000001 0.40000001 0.40000001 0.40000001 0.40000001 0.40000001 0.40000001 0.40000001 0.40000001 0.40000001 0.40000001 0.40000001 0.40000001 0.40000001 0.40000001 0.40000001 0.40000001 0.40000001 0.40000001 0.40000001 0.40000001 0.40000001 0.40000001 0.40000001 0.40000001 0.40000001 0.40000001 0.40000001 0.40000001 0.40000001 0.40000001 0.40000001 0.40000001 0.40000001 0.40000001 0.40000001 0.40000001 0.40000001 0.40000001 0.40000001 0.40000001 0.40000001 0.40000001 0.40000001 0.40000001 0.40000001 0.40000001 0.40000001 0.40000001 0.40000001 0.40000001 0.40000001 0.40000001 0.40000001 0.40000001 0.40000001 0.40000001 0.40000001 0.40000001 0.40000001 0.40000001 0.40000001 0.40000001 0.40000001 0.40000001 0.40000001 0.40000001 0.40000001 0.40000001 0.40000001 0.40000001 0.40000001 0.40000001 0.40000001 0.40000001 0.40000001 0.40000001 0.40000001 0.40000001 0.40000001 0.40000001 0.40000001 0.40000001 0.40000001 0.40000001 0.40000001 0.40000001 0.40000001 0.40000001 0.40000001 0.40000001 0.40000001 0.40000001 0.40000001 0.40000001 0.40000001 0.40000001 0.40000001 0.40000001 0.40000001 0.40000001 0.40000001 0.40000001 0.40000001 0.40000001 0.40000001 0.40000001 0.40000001 0.40000001 0.40000001 0.40000001 0.40000001 0.40000001 0.40000001 0.40000001 0.40000001 0.40000001 0.40000001 0.40000001 0.40000001 0.40000001 0.40000001 0.40000001 0.40000001 0.40000001 0.40000001 0.40000001 0.40000001 0.40000001 0.40000001 0.40000001 0.40000001 0.40000001 0.40000001 0.40000001 0.40000001 0.40000001 0.40000001 0.40000001 0.40000001 0.40000001 0.40000001 0.40000001 0.40000001 0.40000001 0.40000001 0.40000001 0.40000001 0.40000001 0.40000001 0.40000001 0.40000001 0.40000001 0.40000001 0.40000001 0.40000001 0.40000001 0.40000001 0.40000001 0.40000001 0.40000001 0.40000001 0.40000001 0.40000001 0.40000001 0.40000001 0.40000001 0.40000001 0.40000001 0.40000001 0.40000001 0.40000001 0.40000001 0.40000001 0.40000001 0.40000001 0.40000001 0.40000001 0.40000001 0.40000001 0.40000001 0.40000001 0.40000001 0.40000001 0.40000001 0.40000001 0.40000001 0.40000001 0.40000001 0.40000001 0.40000001 0.40000001 0.40000001 0.40000001 0.40000001 0.40000001 0.40000001 0.40000001 0.40000001 0.40000001 0.40000001 0.40000001 0.40000001 0.40000001 0.40000001 0.40000001 0.40000001 0.40000001 0.40000001 0.40000001 0.40000001 0.40000001 0.40000001 0.40000001 0.40000001 0.40000001 0.40000001 0.40000001 0.40000001 0.40000001 0.40000001 0.40000001 0.40000001 0.40000001 0.40000001 0.40000001 0.40000001 0.40000001 0.40000001 0.40000001 0.40000001 0.40000001 0.40000001 0.40000001 0.40000001 0.40000001 0.40000001 0.40000001 0.40000001 0.40000001 0.40000001 0.40000001 0.40000001 0.40000001 0.40000001 0.40000001 0.40000001 0.40000001 0.40000001 0.40000001 0.40000001 0.40000001 0.40000001 0.40000001 0.40000001 0.40000001 0.40000001 0.40000001 0.40000001 0.40000001 0.40000001 0.40000001 0.40000001 0.40000001 0.40000001 0.40000001 0.40000001 0.40000001 0.40000001 0.40000001 0.40000001 0.40000001 0.40000001 0.40000001 0.40000001 0.40000001 0.40000001 0.40000001 0.40000001 0.40000001 0.40000001 0.40000001 0.40000001 0.40000001 0.40000001 0.40000001 0.40000001 0.40000001 0.40000001 0.40000001 0.40000001 0.40000001 0.40000001 0.40000001 0.40000001 0.40000001 0.40000001 0.40000001 0.40000001 0.40000001 0.40000001 0.40000001 0.40000001 0.40000001 0.40000001 0.40000001 0.40000001 0.40000001 0.40000001 0.40000001 0.40000001 0.40000001 0.40000001 0.40000001 0.40000001 0.40000001 0.40000001 0.40000001 0.40000001 0.40000001 0.40000001 0.40000001 0.40000001 0.40000001 0.40000001 0.40000001 0.40000001 0.40000001 0.40000001 0.40000001 0.40000001 0.40000001 0.40000001 0.40000001 0.40000001 0.40000001 0.40000001 0.40000001 0.40000001 0.40000001 0.40000001 0.40000001 0.40000001 0.40000001 0.40000001 0.40000001 0.40000001 0.40000001 0.40000001 0.40000001 0.40000001 0.40000001 0.40000001 0.40000001 0.40000001 0.40000001 0.40000001 0.40000001 0.40000001 0.40000001 0.40000001 0.40000001 0.40000001 0.40000001 0.40000001 0.40000001 0.40000001 0.40000001 0.40000001 0.40000001 0.40000001 0.40000001 0.40000001 0.40000001 0.40000001 0.40000001 0.40000001 0.40000001 0.40000001 0.40000001 0.40000001 0.40000001 0.40000001 0.40000001 0.40000001 0.40000001 0.40000001 0.40000001 0.40000001 0.40000001 0.40000001 0.40000001 0.40000001 0.40000001 0.40000001 0.40000001 0.40000001 0.40000001 0.40000001 0.40000001 0.40000001 0.40000001 0.40000001 0.40000001 0.40000001 0.40000001 0.40000001 0.40000001 0.40000001 0.40000001 0.40000001 0.40000001 0.40000001 0.40000001 0.40000001 0.40000001 0.40000001 0.40000001 0.40000001 0.40000001 0.40000001 0.40000001 0.40000001 0.40000001 0.40000001 0.40000001 0.40000001 0.40000001 0.40000001 0.40000001 0.40000001 0.40000001 0.40000001 0.40000001 0.40000001 0.40000001 0.40000001 0.40000001 0.40000001 0.40000001 0.40000001 0.40000001 0.40000001 0.40000001 0.40000001 0.40000001 0.40000001 0.40000001 0.40000001 0.40000001 0.40000001 0.40000001 0.40000001 0.40000001 0.40000001 0.40000001 0.40000001 0.40000001 0.40000001 0.40000001 0.40000001 0.40000001 0.40000001 0.40000001 0.40000001 0.40000001 0.40000001 0.40000001 0.40000001 0.40000001 0.40000001 0.40000001 0.40000001 0.40000001 0.40000001 0.40000001 0.40000001 0.40000001 0.40000001 0.40000001 0.40000001 0.40000001 0.40000001 0.40000001 0.40000001 0.40000001 0.40000001 0.40000001 0.40000001 0.40000001 0.40000001 0.40000001 0.40000001 0.40000001 0.40000001 0.40000001 0.40000001 0.40000001 0.40000001 0.40000001 0.40000001 0.40000001 0.40000001 0.40000001 0.40000001 0.40000001 0.40000001 0.40000001 0.40000001 0.40000001 0.40000001 0.40000001 0.40000001 0.40000001 0.40000001 0.40000001 0.40000001 0.40000001 0.40000001 0.40000001 0.40000001 0.40000001 0.40000001 0.40000001 0.40000001 0.40000001 0.40000001 0.40000001 0.40000001 0.40000001 0.40000001 0.40000001 0.40000001 0.40000001 0.40000001 0.40000001 0.40000001 0.40000001 0.40000001 0.40000001 0.40000001 0.40000001 0.40000001 0.40000001 0.40000001 0.40000001 0.40000001 0.40000001 0.40000001 0.40000001 0.40000001 0.40000001 0.40000001 0.40000001 0.40000001 0.40000001 0.40000001 0.40000001 0.40000001 0.40000001 0.40000001 0.40000001 0.40000001 0.40000001 0.40000001 0.40000001 0.40000001 0.40000001 0.40000001 0.40000001 0.40000001 0.40000001 0.40000001 0.40000001 0.40000001 0.40000001 0.40000001 0.40000001 0.40000001 0.40000001 0.40000001 0.40000001 0.40000001 0.40000001 0.40000001 0.40000001 0.40000001 0.40000001 0.40000001 0.40000001 0.40000001 0.40000001 0.40000001 0.40000001 0.40000001 0.40000001 0.40000001 0.40000001 0.40000001 0.40000001 0.40000001 0.40000001 0.40000001 0.40000001 0.40000001 0.40000001 0.40000001 0.40000001 0.40000001 0.40000001 0.40000001 0.40000001 0.40000001 0.40000001 0.40000001 0.40000001 0.40000001 0.40000001 0.40000001 0.40000001 0.40000001 0.40000001 0.40000001 0.40000001 0.40000001 0.40000001 0.40000001 0.40000001 0.40000001 0.40000001 0.40000001 0.40000001 0.40000001 0.40000001 0.40000001 0.40000001 0.40000001 0.40000001 0.40000001 0.40000001 0.40000001 0.40000001 0.40000001 0.40000001 0.40000001 0.40000001 0.40000001 0.40000001 0.40000001 0.40000001 0.40000001 0.40000001 0.40000001 0.40000001 0.40000001 0.40000001 0.40000001 0.40000001 0.40000001 0.40000001 0.40000001 0.40000001 0.40000001 0.40000001 0.40000001 0.40000001 0.40000001 0.40000001 0.40000001 0.40000001 0.40000001 0.40000001 0.40000001 0.40000001 0.40000001 0.40000001 0.40000001 0.40000001 0.40000001 0.40000001 0.40000001 0.40000001 0.40000001 0.40000001 0.40000001 0.40000001 0.40000001 0.40000001 0.40000001 0.40000001 0.40000001 0.40000001 0.40000001 0.40000001 0.40000001 0.40000001 0.40000001 0.40000001 0.40000001 0.40000001 0.40000001 0.40000001 0.40000001 0.40000001 0.40000001 0.40000001 0.40000001 0.40000001 0.40000001 0.40000001 0.40000001 0.40000001 0.40000001 0.40000001 0.40000001 0.40000001 0.40000001 0.40000001 0.40000001 0.40000001 0.40000001 0.40000001 0.40000001 0.40000001 0.40000001 0.40000001 0.40000001 0.40000001 0.40000001 0.40000001 0.40000001 0.40000001 0.40000001 0.40000001 0.40000001 0.40000001 0.40000001 0.40000001 0.40000001 0.40000001 0.40000001 0.40000001 0.40000001 0.40000001 0.40000001 0.40000001 0.40000001 0.40000001 0.40000001 0.40000001 0.40000001 0.40000001 0.40000001 0.40000001 0.40000001 0.40000001 0.40000001 0.4000009 0.40000105 0.40000102 0.4000009 0.40000099 0.40000108 0.40000269 0.40000263 0.40000287 0.4000026 0.40000272 0.40000269 0.40000668 0.40000677 0.40000677 0.4000068 0.40000671 0.40000686 0.4000183 0.40001833 0.40001816 0.40001827 0.40001824 0.40001827 0.40004918 0.40004918 0.40004918 0.40004912 0.40004924 0.40004921 0.40013221 0.40013218 0.40013218 0.40013221 0.40013242 0.40013233 0.40035227 0.40035248 0.40035251 0.40035248 0.40035266 0.40035281 0.4009113 0.40091172 0.40091211 0.40091243 0.40091285 0.40091294 0.40219674 0.40219784 0.40219876 0.40219945 0.40220025 0.4022007 0.40457711 0.40457916 0.40458032 0.40458128 0.40458232 0.40458322 0.40762308 0.4076249 0.40762535 0.40762529 0.40762556 0.40762615 0.41010416 0.41010424 0.41010353 0.41010201 0.41010064 0.41010019 0.41148669 0.41148481 0.41148341 0.4114812 0.41147891 0.41147768 0.41209739 0.41209683 0.41209608 0.41209379 0.41209173 0.4120906 0.41233721 0.41233748 0.41233778 0.41233692 0.4123359 0.41233528 0.41242519 0.41242614 0.41242683 0.41242695 0.41242701 0.41242683 0.4124552 0.41245645 0.41245717 0.41245776 0.41245821 0.41245851 0.41246307 0.4124645 0.4124651 0.41246572 0.41246644 0.41246679 0.41244543 0.41244689 0.41244769 0.41244817 0.41244847 0.41244861 0.41224316 0.41224444 0.41224492 0.41224512 0.41224509 0.41224504 0.41184497 0.41184559 0.41184571 0.41184568 0.41184527 0.41184521 0.41127306 0.41127294 0.41127262 0.41127217 0.4112713 0.41127101 0.41055855 0.41055772 0.41055694 0.41055581 0.41055471 0.41055423 0.40973914 0.40973783 0.40973619 0.40973476 0.40973336 0.40973258 0.40885463 0.40885279 0.40885094 0.40884903 0.40884817 0.40884757 0.40794441 0.40794227 0.40794015 0.40793851 0.40793791 0.40793756 0.40704322 0.40704095 0.40703905 0.40703803 0.40703759 0.40703726 0.40618035 0.40617847 0.40617681 0.40617618 0.40617603 0.40617594 0.40537849 0.4053773 0.40537667 0.4053764 0.4053762 0.40537637 0.40465412 0.4046537 0.4046537 0.40465391 0.40465397 0.40465412 0.4040173 0.4040173 0.40401748 0.40401787 0.40401819 0.40401864 0.40347126 0.40347129 0.40347144 0.40347201 0.40347233 0.40347302 0.40301368 0.40301362 0.40301418 0.40301472 0.40301511 0.40263861 0.40263873 0.40263909 0.40263939 0.40263987 0.40233818 0.40233815 0.40233859 0.40233901 0.40210262 0.40210259 0.40210268 0.40210304 0.40192166 0.40192169 0.40192184 0.40178573 0.40178561 0.40168521 0.40168551 0.40000001 0.40000001 0.40000001 0.40000001 0.40000001 0.40000001 0.40000001 0.40000001 0.40000001 0.40000001 0.40000001 0.40000001 0.40000001 0.40000001 0.40000001 0.40000001 0.40000001 0.40000001 0.40000001 0.40000001 0.40000001 0.40000001 0.40000001 0.40000001 0.40000001 0.40000001 0.40000001 0.40000001 0.40000001 0.40000001 0.40000001 0.40000001 0.40000001 0.40000001 0.40000001 0.40000001 0.40000001 0.40000001 0.40000001 0.40000001 0.40000001 0.40000001 0.40000001 0.40000001 0.40000001 0.40000001 0.40000001 0.40000001 0.40000001 0.40000001 0.40000001 0.40000001 0.40000001 0.40000001 0.40000001 0.40000001 0.40000001 0.40000001 0.40000001 0.40000001 0.40000001 0.40000001 0.40000001 0.40000001 0.40000001 0.40000001 0.40000001 0.40000001 0.40000001 0.40000001 0.40000001 0.40000001 0.40000001 0.40000001 0.40000001 0.40000001 0.40000001 0.40000001 0.40000001 0.40000001 0.40000001 0.40000001 0.40000001 0.40000001 0.40000001 0.40000001 0.40000001 0.40000001 0.40000001 0.40000001 0.40000001 0.40000001 0.40000001 0.40000001 0.40000001 0.40000001 0.40000001 0.40000001 0.40000001 0.40000001 0.40000001 0.40000001 0.40000001 0.40000001 0.40000001 0.40000001 0.40000001 0.40000001 0.40000001 0.40000001 0.40000001 0.40000001 0.40000001 0.40000001 0.40000001 0.40000001 0.40000001 0.40000001 0.40000001 0.40000001 0.40000001 0.40000001 0.40000001 0.40000001 0.40000001 0.40000001 0.40000001 0.40000001 0.40000001 0.40000001 0.40000001 0.40000001 0.40000001 0.40000001 0.40000001 0.40000001 0.40000001 0.40000001 0.40000001 0.40000001 0.40000001 0.40000001 0.40000001 0.40000001 0.40000001 0.40000001 0.40000001 0.40000001 0.40000001 0.40000001 0.40000001 0.40000001 0.40000001 0.40000001 0.40000001 0.40000001 0.40000001 0.40000001 0.40000001 0.40000001 0.40000001 0.40000001 0.40000001 0.40000001 0.40000001 0.40000001 0.40000001 0.40000001 0.40000001 0.40000001 0.40000001 0.40000001 0.40000001 0.40000001 0.40000001 0.40000001 0.40000001 0.40000001 0.40000001 0.40000001 0.40000001 0.40000001 0.40000001 0.40000001 0.40000001 0.40000001 0.40000001 0.40000001 0.40000001 0.40000001 0.40000001 0.40000001 0.40000001 0.40000001 0.40000001 0.40000001 0.40000001 0.40000001 0.40000001 0.40000001 0.40000001 0.40000001 0.40000001 0.40000001 0.40000001 0.40000001 0.40000001 0.40000102 0.40000096 0.40000108 0.40000099 0.40000096 0.40000093 0.40000093 0.40000093 0.40000096 0.40000281 0.40000278 0.40000281 0.40000275 0.4000029 0.4000026 0.40000296 0.40000269 0.40000272 0.4000068 0.40000659 0.40000674 0.40000659 0.40000659 0.40000668 0.40000665 0.40000677 0.40000677 0.40001824 0.40001833 0.40001842 0.40001827 0.40001833 0.40001822 0.40001839 0.40001833 0.40001827 0.40004909 0.40004933 0.40004894 0.40004915 0.40004927 0.40004933 0.40004927 0.40004933 0.40004921 0.40013221 0.40013251 0.40013239 0.40013245 0.40013257 0.40013245 0.40013266 0.40013281 0.40013263 0.40035295 0.40035284 0.40035304 0.40035307 0.40035322 0.40035325 0.40035337 0.40035346 0.40035334 0.40091309 0.40091345 0.40091366 0.40091383 0.40091398 0.40091446 0.40091464 0.40091455 0.40091479 0.40220124 0.40220201 0.40220267 0.40220287 0.40220356 0.40220395 0.4022043 0.40220439 0.40220472 0.40458417 0.40458497 0.40458587 0.40458658 0.40458748 0.40458816 0.40458861 0.40458897 0.40458924 0.4076266 0.40762743 0.40762815 0.40762851 0.40762925 0.40762982 0.40763044 0.40763083 0.40763086 0.41009992 0.41009977 0.41009971 0.41009969 0.41009977 0.41009983 0.4101001 0.41010016 0.41010016 0.41147685 0.41147605 0.41147533 0.41147485 0.4114742 0.4114742 0.4114739 0.41147378 0.41147357 0.41208962 0.41208863 0.41208795 0.41208717 0.41208649 0.41208634 0.41208568 0.41208532 0.41208515 0.41233447 0.41233394 0.41233307 0.41233242 0.41233173 0.41233122 0.41233072 0.41233033 0.41233033 0.41242638 0.41242597 0.41242555 0.41242492 0.4124243 0.41242376 0.41242328 0.41242307 0.4124229 0.4124583 0.41245809 0.41245776 0.41245714 0.41245675 0.41245618 0.41245583 0.41245574 0.41245544 0.41246673 0.41246647 0.41246608 0.41246548 0.41246504 0.41246471 0.41246441 0.4124642 0.4124639 0.4124487 0.41244814 0.41244769 0.41244724 0.41244671 0.41244644 0.4124462 0.41244593 0.41244584 0.41224492 0.41224432 0.41224378 0.41224334 0.41224292 0.41224268 0.41224211 0.41224197 0.41224197 0.41184479 0.41184407 0.41184345 0.41184306 0.41184255 0.4118422 0.4118419 0.41184163 0.41184169 0.41127044 0.41126966 0.41126937 0.4112688 0.41126829 0.41126785 0.41126755 0.41126755 0.41126737 0.41055363 0.41055301 0.41055262 0.41055223 0.4105517 0.41055125 0.4105511 0.41055104 0.41055116 0.40973222 0.40973201 0.40973157 0.40973136 0.40973115 0.40973097 0.40973061 0.4097307 0.40973055 0.4088473 0.40884724 0.40884715 0.40884709 0.40884706 0.40884697 0.40884694 0.40884694 0.40884697 0.40793753 0.40793741 0.40793747 0.40793765 0.40793771 0.40793774 0.40793782 0.40793794 0.40793777 0.40703735 0.4070375 0.40703776 0.40703791 0.40703806 0.4070383 0.40703827 0.40703836 0.40703848 0.40617612 0.40617633 0.40617666 0.40617678 0.40617719 0.40617728 0.4061774 0.40617749 0.40617761 0.40537658 0.40537688 0.40537709 0.40537751 0.40537772 0.40537801 0.40537801 0.40537819 0.40537828 0.40465465 0.40465489 0.40465495 0.40465522 0.40465549 0.40465569 0.40465587 0.40465596 0.40465593 0.40401894 0.40401924 0.40401947 0.40401977 0.4040198 0.40402001 0.40402022 0.40402028 0.40402025 0.4034732 0.40347371 0.40347394 0.40347403 0.40347406 0.40347427 0.40347427 0.40347451 0.40347448 0.40301543 0.403016 0.40301612 0.40301612 0.40301621 0.40301642 0.40301645 0.40301657 0.40301666 0.40264031 0.40264079 0.40264076 0.40264112 0.40264106 0.40264121 0.4026413 0.40264118 0.40264115 0.40233955 0.40233967 0.40233999 0.40234008 0.40234002 0.40234017 0.40234014 0.40234017 0.40234008 0.40210336 0.40210375 0.40210402 0.40210402 0.40210396 0.40210402 0.40210393 0.40210396 0.40210396 0.40192211 0.40192202 0.40192249 0.40192258 0.40192258 0.40192264 0.40192249 0.40192273 0.40192258 0.40178561 0.40178567 0.40178579 0.40178594 0.40178603 0.40178609 0.40178615 0.401786 0.40178603 0.40168527 0.40168527 0.40168518 0.40168527 0.40168542 0.40168542 0.40168539 0.40168551 0.40168551 0.40161294 0.40161279 0.40161294 0.40161288 0.40161273 0.4016127 0.40161273 0.4016127 0.40161288 0.4015615 0.40156156 0.4015615 0.4015615 0.40156138 0.4015615 0.40156159 0.40156147 0.40152574 0.40152583 0.4015258 0.40152586 0.40152586 0.40152586 0.40150127 0.40150133 0.40150157 0.40150151 0.40000001 0.40000001 0.40000001 0.40000001 0.40000001 0.40000001 0.40000001 0.40000001 0.40000001 0.40000001 0.40000001 0.40000001 0.40000001 0.40000001 0.40000001 0.40000001 0.40000001 0.40000001 0.40000001 0.40000001 0.40000001 0.40000001 0.40000001 0.40000001 0.40000001 0.40000001 0.40000001 0.40000001 0.40000001 0.40000001 0.40000001 0.40000001 0.40000001 0.40000001 0.40000001 0.40000001 0.40000001 0.40000001 0.40000001 0.40000001 0.40000001 0.40000001 0.40000001 0.40000001 0.40000001 0.40000001 0.40000001 0.40000001 0.40000001 0.40000001 0.40000001 0.40000001 0.40000001 0.40000001 0.40000001 0.40000001 0.40000001 0.40000001 0.40000001 0.40000001 0.40000001 0.40000001 0.40000001 0.40000001 0.40000001 0.40000001 0.40000001 0.40000001 0.40000001 0.40000001 0.40000001 0.40000001 0.40000001 0.40000001 0.40000001 0.40000001 0.40000001 0.40000001 0.40000001 0.40000001 0.40000001 0.40000001 0.40000001 0.40000001 0.40000001 0.40000001 0.40000001 0.40000001 0.40000001 0.40000001 0.40000001 0.40000001 0.40000001 0.40000001 0.40000001 0.40000001 0.40000001 0.40000001 0.40000001 0.40000001 0.40000001 0.40000001 0.40000001 0.40000001 0.40000001 0.40000001 0.40000001 0.40000001 0.40000001 0.40000001 0.40000001 0.40000001 0.40000001 0.40000001 0.40000001 0.40000001 0.40000001 0.40000001 0.40000001 0.40000001 0.40000001 0.40000001 0.40000001 0.40000001 0.40000001 0.40000001 0.40000001 0.40000001 0.40000001 0.40000001 0.40000001 0.40000001 0.40000001 0.40000001 0.40000001 0.40000001 0.40000001 0.40000001 0.40000001 0.40000001 0.40000001 0.40000001 0.40000001 0.40000001 0.40000001 0.40000001 0.40000001 0.40000001 0.40000001 0.40000001 0.40000001 0.40000001 0.40000001 0.40000001 0.40000001 0.40000001 0.40000001 0.40000001 0.40000001 0.40000001 0.40000001 0.40000001 0.40000001 0.40000001 0.40000001 0.40000001 0.40000001 0.40000001 0.40000001 0.40000001 0.40000001 0.40000001 0.40000001 0.40000001 0.40000001 0.40000001 0.40000001 0.40000001 0.40000001 0.40000001 0.40000001 0.40000001 0.40000001 0.40000001 0.40000105 0.40000096 0.40000093 0.40000093 0.40000093 0.40000096 0.40000099 0.40000108 0.40000284 0.40000272 0.40000269 0.40000296 0.4000026 0.4000029 0.40000275 0.40000281 0.4000068 0.40000677 0.40000677 0.40000665 0.40000668 0.40000659 0.40000659 0.40000674 0.4000183 0.40001827 0.40001833 0.40001839 0.40001822 0.40001833 0.40001827 0.40001842 0.40004924 0.40004921 0.40004933 0.40004927 0.4000493 0.40004927 0.40004915 0.40004894 0.40013257 0.40013263 0.40013281 0.40013266 0.40013245 0.40013257 0.40013245 0.40013239 0.40035343 0.40035334 0.40035346 0.40035337 0.40035325 0.40035322 0.40035307 0.40035304 0.40091485 0.40091479 0.40091455 0.40091464 0.40091446 0.40091398 0.40091383 0.40091366 0.40220466 0.40220472 0.40220439 0.4022043 0.40220395 0.40220356 0.40220287 0.40220267 0.40458941 0.40458924 0.40458897 0.40458861 0.40458816 0.40458748 0.40458658 0.40458587 0.40763095 0.40763086 0.40763083 0.40763044 0.40762982 0.40762928 0.40762851 0.40762815 0.41010037 0.41010016 0.41010016 0.4101001 0.41009983 0.41009977 0.41009969 0.41009971 0.41147366 0.41147357 0.41147378 0.4114739 0.4114742 0.4114742 0.41147482 0.41147533 0.41208538 0.41208515 0.41208532 0.41208568 0.41208628 0.41208649 0.41208717 0.41208792 0.41233009 0.41233033 0.41233033 0.41233072 0.41233122 0.41233173 0.41233242 0.41233307 0.4124226 0.4124229 0.41242307 0.41242328 0.41242376 0.4124243 0.41242492 0.41242555 0.41245547 0.41245544 0.41245574 0.41245583 0.41245618 0.41245675 0.41245717 0.41245776 0.41246402 0.4124639 0.4124642 0.41246441 0.41246471 0.41246504 0.41246548 0.41246608 0.41244584 0.41244584 0.41244593 0.4124462 0.41244644 0.41244671 0.41244724 0.41244769 0.41224185 0.41224197 0.41224197 0.41224211 0.41224268 0.41224292 0.41224334 0.41224378 0.41184166 0.41184169 0.41184163 0.4118419 0.4118422 0.41184255 0.41184306 0.41184345 0.41126746 0.41126737 0.41126752 0.41126755 0.41126785 0.41126829 0.4112688 0.41126937 0.41055125 0.41055116 0.41055104 0.4105511 0.41055125 0.4105517 0.41055223 0.41055262 0.40973061 0.40973055 0.4097307 0.40973061 0.40973097 0.40973115 0.40973136 0.40973157 0.40884694 0.40884697 0.40884694 0.40884694 0.40884697 0.40884706 0.40884709 0.40884715 0.40793794 0.40793777 0.40793794 0.40793782 0.40793774 0.40793771 0.40793765 0.40793747 0.40703845 0.40703848 0.40703836 0.40703827 0.4070383 0.40703806 0.40703791 0.40703776 0.4061777 0.40617761 0.40617749 0.4061774 0.40617728 0.40617719 0.40617678 0.40617666 0.4053781 0.40537828 0.40537819 0.40537801 0.40537801 0.40537772 0.40537751 0.40537709 0.40465599 0.40465593 0.40465596 0.40465587 0.40465569 0.40465549 0.40465522 0.40465495 0.40402028 0.40402025 0.40402028 0.40402022 0.40402001 0.4040198 0.40401977 0.40401947 0.40347466 0.40347448 0.40347451 0.40347427 0.40347427 0.40347406 0.40347403 0.40347394 0.40301636 0.40301666 0.40301657 0.40301645 0.40301642 0.40301621 0.40301612 0.40301612 0.40264127 0.40264115 0.40264118 0.4026413 0.40264121 0.40264106 0.40264112 0.40264076 0.4023402 0.40234008 0.40234017 0.40234014 0.40234017 0.40234002 0.40234008 0.40233999 0.40210402 0.40210396 0.40210396 0.40210393 0.40210402 0.40210396 0.40210402 0.40210402 0.40192249 0.40192258 0.40192273 0.40192249 0.40192264 0.40192258 0.40192258 0.40192249 0.401786 0.40178603 0.401786 0.40178615 0.40178609 0.40178603 0.40178594 0.40178579 0.40168542 0.40168551 0.40168551 0.40168539 0.40168542 0.40168542 0.40168527 0.40168518 0.40161294 0.40161288 0.4016127 0.4016127 0.4016127 0.40161273 0.40161288 0.40161294 0.40156144 0.40156147 0.40156159 0.4015615 0.40156138 0.4015615 0.4015615 0.40156156 0.40152594 0.40152586 0.40152586 0.40152586 0.4015258 0.4015258 0.40152574 0.40150154 0.40150151 0.40150157 0.40150133 0.40150127 0.40000001 0.40000001 0.40000001 0.40000001 0.40000001 0.40000001 0.40000001 0.40000001 0.40000001 0.40000001 0.40000001 0.40000001 0.40000001 0.40000001 0.40000001 0.40000001 0.40000001 0.40000001 0.40000001 0.40000001 0.40000001 0.40000001 0.40000001 0.40000001 0.40000001 0.40000001 0.40000001 0.40000001 0.40000001 0.40000001 0.40000001 0.40000001 0.40000001 0.40000001 0.40000001 0.40000001 0.40000001 0.40000001 0.40000001 0.40000001 0.40000001 0.40000001 0.40000001 0.40000001 0.40000001 0.40000001 0.40000001 0.40000001 0.40000001 0.40000001 0.40000001 0.40000001 0.40000001 0.40000001 0.40000001 0.40000001 0.40000001 0.40000001 0.40000001 0.40000001 0.40000001 0.40000001 0.40000001 0.40000001 0.40000001 0.40000001 0.40000001 0.40000001 0.40000001 0.40000001 0.40000001 0.40000001 0.40000001 0.40000001 0.40000001 0.40000001 0.40000001 0.40000001 0.40000001 0.40000001 0.40000001 0.40000001 0.40000001 0.40000001 0.40000001 0.40000001 0.40000001 0.40000001 0.40000001 0.40000001 0.40000001 0.40000001 0.40000001 0.40000001 0.40000001 0.40000001 0.40000001 0.40000001 0.40000001 0.40000001 0.40000001 0.40000001 0.40000001 0.40000001 0.40000001 0.40000001 0.40000001 0.40000001 0.40000001 0.40000001 0.40000001 0.40000001 0.40000001 0.40000001 0.40000001 0.40000001 0.40000001 0.40000001 0.40000001 0.40000001 0.40000001 0.40000001 0.40000001 0.40000001 0.40000001 0.40000001 0.40000001 0.40000001 0.40000001 0.40000001 0.40000001 0.40000001 0.40000001 0.40000001 0.40000001 0.40000001 0.40000001 0.40000001 0.40000001 0.40000001 0.40000001 0.40000001 0.40000001 0.40000001 0.40000001 0.40000001 0.40000001 0.40000001 0.40000001 0.40000001 0.40000001 0.40000001 0.40000001 0.40000001 0.40000001 0.40000001 0.40000001 0.40000001 0.40000001 0.40000001 0.40000001 0.40000001 0.40000001 0.40000001 0.40000001 0.40000001 0.40000001 0.40000001 0.40000001 0.40000001 0.40000001 0.40000001 0.40000001 0.40000001 0.40000001 0.40000001 0.40000001 0.40000001 0.40000001 0.40000001 0.40000001 0.40000001 0.40000001 0.40000096 0.40000102 0.40000108 0.40000099 0.4000009 0.40000102 0.40000105 0.4000009 0.40000278 0.40000281 0.40000269 0.40000272 0.4000026 0.40000287 0.40000263 0.40000269 0.40000659 0.4000068 0.40000686 0.40000671 0.4000068 0.40000677 0.40000674 0.40000668 0.40001833 0.40001824 0.40001827 0.40001824 0.40001827 0.40001816 0.40001833 0.4000183 0.40004933 0.40004909 0.40004921 0.40004924 0.40004912 0.40004918 0.40004918 0.40004918 0.40013251 0.40013221 0.40013233 0.40013242 0.40013221 0.40013218 0.40013218 0.40013221 0.40035284 0.40035295 0.40035281 0.40035266 0.40035248 0.40035251 0.40035248 0.40035227 0.40091345 0.40091309 0.40091294 0.40091285 0.40091243 0.40091211 0.40091172 0.4009113 0.40220201 0.40220124 0.4022007 0.40220025 0.40219945 0.40219867 0.40219784 0.40219674 0.40458497 0.40458417 0.40458322 0.40458232 0.40458128 0.40458032 0.40457916 0.40457711 0.40762743 0.4076266 0.40762615 0.40762556 0.40762529 0.40762535 0.4076249 0.40762308 0.41009977 0.41009995 0.41010019 0.41010064 0.41010201 0.41010353 0.41010424 0.41010416 0.41147605 0.41147685 0.41147771 0.41147891 0.4114812 0.41148341 0.41148481 0.41148669 0.41208863 0.41208962 0.4120906 0.41209173 0.41209379 0.41209608 0.41209683 0.41209739 0.41233394 0.41233447 0.41233528 0.4123359 0.41233692 0.41233778 0.41233748 0.41233721 0.41242597 0.41242638 0.41242683 0.41242701 0.41242695 0.41242683 0.41242614 0.41242519 0.41245812 0.41245842 0.41245851 0.41245821 0.41245776 0.41245723 0.41245645 0.41245517 0.41246647 0.41246673 0.41246679 0.41246644 0.41246572 0.4124651 0.4124645 0.41246307 0.41244814 0.4124487 0.41244861 0.41244847 0.41244817 0.41244769 0.41244689 0.41244543 0.41224432 0.41224492 0.41224504 0.41224509 0.41224512 0.41224492 0.41224444 0.41224316 0.41184407 0.41184479 0.41184524 0.41184527 0.41184568 0.41184571 0.41184559 0.41184497 0.41126961 0.41127044 0.41127101 0.4112713 0.41127217 0.41127262 0.41127294 0.41127306 0.41055301 0.41055363 0.41055423 0.41055471 0.41055581 0.41055694 0.41055772 0.41055855 0.40973201 0.40973222 0.40973258 0.40973336 0.40973476 0.40973619 0.40973783 0.40973914 0.40884724 0.4088473 0.40884757 0.40884811 0.40884903 0.40885094 0.40885279 0.40885463 0.40793741 0.40793753 0.40793756 0.40793791 0.40793851 0.40794015 0.40794227 0.40794441 0.4070375 0.40703735 0.40703726 0.40703759 0.40703803 0.40703905 0.40704095 0.40704322 0.40617633 0.40617612 0.40617594 0.40617603 0.40617618 0.40617681 0.40617847 0.40618035 0.40537688 0.40537658 0.40537637 0.4053762 0.4053764 0.40537667 0.4053773 0.40537849 0.40465489 0.40465465 0.40465412 0.40465397 0.40465391 0.4046537 0.4046537 0.40465412 0.40401924 0.40401894 0.40401864 0.40401819 0.40401787 0.40401748 0.4040173 0.4040173 0.40347371 0.4034732 0.40347302 0.40347233 0.40347201 0.40347144 0.40347129 0.40347126 0.403016 0.40301543 0.40301511 0.40301472 0.40301418 0.40301362 0.40301368 0.40264079 0.40264031 0.40263987 0.40263939 0.40263909 0.40263873 0.40263861 0.40233967 0.40233955 0.40233901 0.40233859 0.40233815 0.40233818 0.40210375 0.40210336 0.40210304 0.40210268 0.40210259 0.40210262 0.40192202 0.40192211 0.40192184 0.40192169 0.40192166 0.40178567 0.40178561 0.40178561 0.40178573 0.40168527 0.40168527 0.40168551 0.40168521 0.40161279 0.40161294 0.4015615 
Press 1 2975 float
0.0 0.0 0.0 0.0 0.0 0.0 0.0 0.0 0.0 0.0 0.0 0.0 0.0 0.0 0.0 0.0 0.0 0.0 0.3950505 1.1851515 0.3950505 1.6789646 4.1480303 1.580202 4.7406058 10.073788 3.7529797999999994 9.777500199999999 19.258710999999998 6.913383500000001 16.789645999999998 30.912701000000002 10.666364 24.295605 43.949368 14.221817999999999 31.900328000000002 56.492222 17.382220999999998 38.418659000000005 67.553635 20.147575 44.146893 77.23236800000001 22.715403 50.072651 87.503685 26.270859 57.479847 100.83664 31.60404 69.232597 121.57678999999999 40.591438000000004 88.49131 155.25485 56.788509 119.60153999999999 206.41388 83.948227 165.32863 275.94277999999997 226.75898999999998 360.68109 0.0 0.0 0.0 0.0 0.0 0.0 0.0 0.0 0.0 0.0 0.0 0.0 0.0 0.0 0.0 0.0 0.0 0.0 0.0 0.0 0.0 0.0 0.0 0.0 0.0 0.0 0.0 0.0 0.0 0.0 0.0 0.0 0.0 0.0 0.29628786 0.49381313 0.79010099 0.88886362 1.0863888000000002 1.1851515 0.49381313 1.1851515 2.2715403999999997 3.2591665 4.2467928 5.1356564 5.9257574 6.4195704000000005 2.7653534 4.938131299999999 7.7034845 10.962651 14.123054999999999 16.789645999999998 18.863660999999997 20.641388 7.999772500000001 13.234192000000002 19.752525 26.962196000000002 33.974342 39.998863 44.838229999999996 48.689972 17.777273 27.752296 40.393913 53.825630000000004 66.763535 78.022476 87.207397 94.12078100000001 32.097854999999996 48.986263 69.430122 91.256668 111.99682 129.57657 143.99591 155.15608 50.072651 75.059593 104.68839 135.69984 164.341 188.63661000000002 208.29037 223.69734 69.825172 102.41684000000001 140.44044 88.19502299999999 127.70007 104.29333000000001 149.42786 118.81143999999999 169.27913999999998 134.31717 190.90816 155.25485 220.43817 187.45146 264.09125 237.62287999999998 330.0647 312.0899 424.58050999999995 411.05005 547.44122 526.50354 691.1408700000001 0.0 0.0 0.0 0.0 0.0 0.0 0.0 0.0 0.0 0.0 0.0 0.0 0.0 0.0 0.0 0.0 0.0 0.0 0.0 0.0 0.0 0.0 0.0 0.0 0.0 0.0 0.0 0.0 0.0 0.0 0.0 0.0 0.0 0.0 0.0 0.0 1.1851515 1.2839141 1.2839141 1.2839141 1.2839141 1.2839141 1.2839141 1.2839141 1.2839141 6.913383500000001 7.1109089999999995 7.2096715 7.407197 7.407197 7.407197 7.5059595 7.5059595 7.5059595 21.629015 22.61664 23.110454999999998 23.406742 23.801792000000003 23.999317 24.09808 24.09808 24.09808 51.455326 53.726868 54.912018 55.899646999999995 56.689747 56.986034 57.084796999999995 57.282322 57.282322 99.552727 103.50323 106.26858999999999 108.24383999999999 109.1327 109.9228 110.41661 110.51536999999999 110.61413999999999 163.64967 169.97047 174.41478999999998 177.47644 179.55045 180.53807 181.22942 181.5257 181.72322 235.35133 243.94367999999997 250.06697000000003 254.215 256.88159 258.56055 259.4494 259.84445 260.14075 0.0 0.0 0.0 0.0 0.0 0.0 0.0 0.0 0.0 0.0 0.0 0.0 0.0 0.0 0.0 0.0 0.0 0.0 0.0 0.0 0.0 0.0 0.0 0.0 0.0 0.0 0.0 0.0 0.0 0.0 0.0 0.0 1.2839141 1.2839141 1.2839141 1.2839141 1.2839141 1.2839141 1.2839141 1.2839141 7.5059595 7.5059595 7.5059595 7.5059595 7.407197 7.407197 7.407197 7.2096715 24.09808 24.09808 24.09808 24.09808 23.999317 23.801792000000003 23.406742 23.110454999999998 57.282322 57.282322 57.282322 57.084796999999995 56.986034 56.689747 55.899646999999995 54.912018 110.61413999999999 110.61413999999999 110.51536999999999 110.41661 109.9228 109.1327 108.24383999999999 106.26858999999999 181.72322 181.72322 181.5257 181.22942 180.53807 179.55045 177.47644 174.41478999999998 260.14075 260.14075 259.84445 259.4494 258.56055 256.88159 254.215 250.06697000000003 0.0 0.0 0.0 0.0 0.0 0.0 0.0 0.0 0.0 0.0 0.0 0.0 0.0 0.0 0.0 0.0 0.0 0.0 0.0 0.0 0.0 0.0 0.0 0.0 0.0 0.0 0.0 0.0 0.0 0.0 0.0 0.0 0.0 0.0 0.0 0.0 1.2839141 1.1851515 1.1851515 1.0863888000000002 0.88886362 0.79010099 0.49381313 0.29628786 0.0 7.1109089999999995 6.913383500000001 6.4195704000000005 5.9257574 5.1356564 4.2467928 3.2591665 2.2715403999999997 1.1851515 22.61664 21.629015 20.641388 18.863660999999997 16.789645999999998 14.123054999999999 10.962651 7.7034845 4.938131299999999 53.726868 51.455326 48.689972 44.838229999999996 39.998863 33.974342 26.962196000000002 19.752525 13.234192000000002 103.50323 99.552727 94.12078100000001 87.207397 78.022476 66.763535 53.825630000000004 40.393913 27.752296 169.97047 163.64967 155.15608 143.99591 129.57657 111.99682 91.256668 69.430122 48.986263 243.94367999999997 235.35133 223.69734 208.29037 188.63661000000002 164.341 135.69984 104.68839 75.059593 140.44044 102.41684000000001 127.70007 149.42786 169.27913999999998 190.90816 220.43817 264.09125 330.0647 424.58050999999995 547.44122 691.1408700000001 0.0 0.0 0.0 0.0 0.0 0.0 0.0 0.0 0.0 0.0 0.0 0.0 0.0 0.0 0.0 0.0 0.0 0.0 0.0 0.49381313 0.0 0.0 0.0 2.7653534 1.1851515 0.3950505 0.0 7.999772500000001 4.1480303 1.6789646 0.3950505 17.777273 10.073788 4.7406058 1.580202 32.097854999999996 19.258710999999998 9.777500199999999 3.7529797999999994 50.072651 30.912701000000002 16.789645999999998 6.913383500000001 69.825172 43.949368 24.295605 10.666364 88.19502299999999 56.492222 31.900328000000002 14.221817999999999 104.29333000000001 67.553635 38.418659000000005 17.382220999999998 118.81143999999999 77.23236800000001 44.146893 20.147575 134.31717 87.503685 50.072651 22.715403 155.25485 100.83664 57.479847 26.270859 187.45146 121.57678999999999 69.232597 31.60404 237.62287999999998 155.25485 88.49131 40.591438000000004 312.0899 206.41388 119.60153999999999 56.788509 411.05005 275.94277999999997 165.32863 83.948227 526.50354 360.68109 226.75898999999998 0.0 0.0 0.0 0.0 0.0 0.0 0.0 0.0 0.0 0.0 0.0 0.0 0.0 0.0 0.0 0.0 0.0 0.0 0.0 0.0 0.0 0.0 0.0 0.0 0.0 0.0 0.0 0.0 0.0 0.0 0.0 0.0 0.0 0.0 0.0 0.0 0.0 0.0 0.0 0.0 0.0 0.0 0.0 0.0 0.0 0.0 0.0 0.0 0.0 0.0 0.0 0.0 0.0 0.0 0.0 0.0 0.0 0.0 0.0 0.0 0.0 0.0 0.0 0.0 0.0 0.0 0.0 0.0 0.0 0.0 0.0 0.0 0.0 0.0 0.0 0.0 0.0 0.0 0.0 0.0 0.0 0.0 0.0 0.0 0.0 0.0 0.0 0.0 0.0 0.0 0.0 0.0 0.0 0.0 0.0 0.0 0.0 0.0 0.0 0.0 0.0 0.0 0.0 0.0 0.0 0.0 0.0 0.0 0.0 0.0 0.0 0.0 0.0 0.0 0.0 0.0 0.0 0.0 0.0 0.0 0.0 0.0 0.0 0.0 0.0 0.0 0.0 0.0 0.0 0.0 0.0 0.0 0.0 0.0 0.0 0.0 0.0 0.0 0.0 0.0 0.0 0.0 0.0 0.0 0.0 0.0 0.0 0.0 0.0 0.0 0.0 0.0 0.0 0.0 0.0 0.0 0.0 0.0 0.0 0.0 0.0 0.0 0.0 0.0 0.0 0.0 0.0 0.0 0.0 0.0 0.0 0.0 0.0 0.0 0.0 0.0 0.0 0.0 0.0 0.0 0.0 0.0 0.0 0.0 0.0 0.0 0.0 0.0 0.0 0.0 0.0 0.0 0.0 0.0 0.0 0.0 0.0 0.0 0.0 0.0 0.0 0.0 0.0 0.0 0.0 0.0 0.0 0.0 0.0 0.0 0.0 0.0 0.0 0.0 0.0 0.0 0.0 0.0 0.0 0.0 0.0 0.0 0.0 0.0 0.0 0.0 0.0 0.0 0.0 0.0 0.0 0.0 0.0 0.0 0.0 0.0 0.0 0.0 0.0 0.0 0.0 0.0 0.0 0.0 0.0 0.0 0.0 0.0 0.0 0.0 0.0 0.0 0.0 0.0 0.0 0.0 0.0 0.0 0.0 0.0 0.0 0.0 0.0 0.0 0.0 0.0 0.0 0.0 0.0 0.0 0.0 0.0 0.0 0.0 0.0 0.0 0.0 0.0 0.0 0.0 0.0 0.0 0.0 0.0 0.0 0.0 0.0 0.0 0.0 0.0 0.0 0.0 0.0 0.0 0.0 0.0 0.0 0.0 0.0 0.0 0.0 0.0 0.0 0.0 0.0 0.0 0.0 0.0 0.0 0.0 0.0 0.0 0.0 0.0 0.0 0.0 0.0 0.0 0.0 0.0 0.0 0.0 0.0 0.0 0.0 0.0 0.0 0.0 0.0 0.0 0.0 0.0 0.0 0.0 0.0 0.0 0.0 0.0 0.0 0.0 0.0 0.0 0.0 0.0 0.0 0.0 0.0 0.0 0.0 0.0 0.0 0.0 0.0 0.0 0.0 0.0 0.0 0.0 0.0 0.0 0.0 0.0 0.0 0.0 0.0 0.0 0.0 0.0 0.0 0.0 0.0 0.0 0.0 0.0 0.0 0.0 0.0 0.0 0.0 0.0 0.0 0.0 0.0 0.0 0.0 0.0 0.0 0.0 0.0 0.0 0.0 0.0 0.0 0.0 0.0 0.0 0.0 0.0 0.0 0.0 0.0 0.0 0.0 0.0 0.0 0.0 0.0 0.0 0.0 0.0 0.0 0.0 0.0 0.0 0.0 0.0 0.0 0.0 0.0 0.0 0.0 0.0 0.0 0.0 0.0 0.0 0.0 0.0 0.0 0.0 0.0 0.0 0.0 0.0 0.0 0.0 0.0 0.0 0.0 0.0 0.0 0.0 0.0 0.0 0.0 0.0 0.0 0.0 0.0 0.0 0.0 0.0 0.0 0.0 0.0 0.0 0.0 0.0 0.0 0.0 0.0 0.0 0.0 0.0 0.0 0.0 0.0 0.0 0.0 0.0 0.0 0.0 178.76035 214.0186 243.6474 267.15289 285.52274 170.06923999999998 215.8951 255.69643 288.58437999999995 314.65771 334.60776 197.22896 247.89417999999998 291.74478 327.20056 354.45905 375.19922 222.61096 278.70813 326.41046 364.33533 393.07526 413.61786 251.35088 312.88 364.92789 405.6181 435.54318 455.78952000000004 291.64603 358.80463 413.61786 455.59198 486.01086 506.2572 357.02689 426.95084 480.28265 519.39264 547.44122 566.69995 463.59177 530.65155 572.3294099999999 601.06934 622.10577 636.82141 626.64886 678.69678 694.40002 701.80719 708.81934 716.32532 853.01276 866.3457599999999 840.37115 816.66815 805.21167 802.84137 1119.0793 1069.2042 992.8606599999999 935.77588 905.45575 893.9992699999999 1321.9377 1241.2487 1128.1654 1046.9825 1004.3171 987.0336900000001 1327.2709 1309.7899 1220.9036 1141.3009 1097.9441 1080.5619 1284.3091 1307.0244 1272.4575 1219.817 1188.1143 1176.5591 1290.4324 1317.2958 1317.8883 1296.6544 1282.2351 1278.2845 1349.8872 1371.3187 1386.3307 1387.2195 1386.8245 1389.5898 1449.9337 1468.3036 1487.8586 1499.0188 1506.9198 1514.0306 1580.5966 1597.7813 1617.6326 1631.9531 1643.4095 1653.4834 1731.0118 1748.8879 1768.8379 1783.8499 1797.5779 1809.6268 1897.5251 1918.364 1939.203 1954.7086 1970.2144 1983.7449 2084.0874 2107.3953 2129.2219 2145.3201 2162.1096 2176.4304 2294.6482 2318.45 2340.5728 2356.6711 2373.6582 2388.1763 2531.2822 2553.9976 2575.1328 2590.0459 2605.8479 2618.687 2796.7542 2815.6177 2834.9751 2846.9253 2858.4805 2867.6655 3085.3359 3100.1504 3116.6436 3120.5942 3123.7546 3126.3223 3384.3848 3395.6438 3407.3965 3396.1375 3385.2737 3377.2739 3672.5681 3683.1357 3685.9998 3648.0752 3617.3601 3597.3113 3921.2444 3932.9973 3919.2693 3842.4326 3788.5085 3757.2998 4115.499 4130.4121 4090.1174 3966.5664 3892.0015 3856.2495 4305.1079 4324.6626 4255.7271 4091.981 4009.6138 3982.8496 4721.9595 4751.9829 4673.2705 4506.4629 4440.293 4441.9722 5929.0801 5987.3486 5977.2749 5868.8359 5842.1709 5889.2793 8504.9795 8627.0469 8746.8418 8803.7275 8856.3662 8952.7559 11690.544 11873.148000000001 12104.836000000001 12373.063999999998 12559.026000000002 12702.128 13490.025 13694.85 13941.248 14295.293 14591.07 14757.377 13435.443000000001 13578.542 13707.024 13979.49 14271.903999999999 14422.901000000002 12739.763 12767.516000000001 12691.184 12747.375 12897.085 12952.781 12417.572 12360.695 12161.127 11974.788999999999 11871.007 11738.386999999999 12659.277 12568.73 12294.62 11925.021 11611.511 11320.71 13232.493 13109.173 12772.183 12344.748 11923.239 11547.74 13795.242 13652.776000000002 13282.347 12852.68 12422.321000000002 12038.763 14130.188 13991.39 13617.348999999998 13204.713 12829.982 12497.9 13975.464 13856.226999999999 13504.056999999999 13121.393999999998 12817.788999999999 12560.971000000001 13485.268 13397.133 13086.283000000001 12754.915 12528.938 12353.489 12874.505 12826.832 12585.42 12332.669 12193.964 12103.505 12260.935 12265.233999999999 12132.676000000001 11994.208999999999 11954.458 11954.065 11640.486 11714.445 11732.633999999998 11733.98 11805.906 11894.507 10945.926000000001 11104.111 11284.17 11447.01 11616.577 11791.393 10118.801 10361.813 10698.198 10982.962 11243.87 11495.165 9166.2031 9487.3721 9935.7891 10282.181999999999 10628.333 10931.671 8162.4077 8534.084 9023.5723 9402.7119 9800.1387 10122.068000000001 7195.2202 7588.896 8049.5479 8439.6396 8841.3096 9153.6738 6287.4688 6689.9531 7115.0513 7488.6987 7854.377 8134.5483 5342.9453 5835.9185 6279.0405 6614.8032 6919.8975 7151.5059 4526.7354 5100.1162 5588.1382 5865.7354 6084.7373 6258.9653 4472.6631 5023.3091 5249.2114 5371.936 5478.9673 3917.4885 4469.1104 4728.1821 4777.8262 4819.3335 3836.3413 4202.9424 4265.9307 4269.1147 3207.1089 3558.8567 3769.5383 3788.9998 2857.8679 3167.3418 3293.2415 2498.3682 2674.7844 2248.3901 2067.2085 299.54703 310.01587 317.22556000000003 322.36121 325.42285 327.3981 328.58325 328.9783 329.2746 349.52094 360.87863 368.58212000000003 373.91528 376.97693 379.05096000000003 380.03857 380.72992 380.82867000000005 390.21112 401.17377 408.87726000000004 413.71664 416.6795 418.2597 419.0498 419.54364000000004 419.6424 428.3335 438.50604000000004 445.12314000000003 449.07364 451.64148 452.62912 453.12292 453.02417 453.02417 469.91257 478.89995999999996 484.33190999999994 486.9985 488.38115999999997 488.5787 488.47995 488.28240999999997 488.0849 519.19513 526.79987 530.65155 531.9354900000001 532.0342400000001 531.44165 530.4540400000001 529.7627 529.26892 578.15637 583.88464 585.8598599999999 585.5636 583.9834 582.20569 580.5267299999999 579.14404 578.2551900000001 645.90753 649.4630099999999 649.2655 647.09271 644.03107 641.06818 638.50037 636.42633 635.33997 721.16467 722.4486099999999 720.07831 715.63397 711.18964 706.94287 703.28864 700.72083 699.23938 803.23645 801.55743 796.81683 790.69354 784.66907 779.13837 774.9903 771.63239 769.85468 890.1475199999999 886.09827 879.7774699999999 872.0739699999999 864.56799 858.34595 853.5065900000001 850.0499300000001 847.87714 980.71283 975.6759599999999 968.2687400000001 959.6763900000001 951.47913 944.56573 939.3313 935.3808 933.20801 1074.7349 1069.7968 1062.4883 1053.7972 1045.5011 1038.489 1032.9583 1028.9091 1026.6375 1173.1024 1169.5469 1163.2261 1155.3251 1147.2266 1140.412 1135.0787 1131.3258 1128.9554 1277.9883 1276.6056 1271.7662 1264.9515 1257.9395 1251.4211 1246.6805 1243.0262 1241.051 1392.6515 1392.9478 1390.1824 1384.8492 1379.2197 1373.7878 1369.2448 1366.0844 1364.3065 1519.3639 1521.7341 1520.5491 1516.5985 1512.0554 1507.7098 1503.8582 1501.1915 1499.7101 1660.8905 1664.7423 1664.7423 1662.2732 1658.619 1655.2611 1652.1995 1649.8291 1648.644 1818.6143 1823.3549 1824.4413 1822.5648 1819.7007 1817.2316 1814.8613 1813.1824 1812.0959 1993.6211 1998.8556 2000.2382 1998.7568 1996.6827 1994.51 1992.6335 1991.3496 1990.3619 2186.7017 2191.8372 2192.825 2191.6396 2189.3682 2187.5906 2185.8127 2184.4302 2183.8374 2397.9539 2402.1018 2402.2993 2399.7314 2397.3613 2395.0896 2393.312 2392.1267 2391.238 2626.4893 2628.9583 2626.7856 2622.9338 2618.687 2615.7241 2613.4526 2611.7737 2610.6873 2872.011 2870.4309 2864.4063 2857.1968 2850.876 2845.9377 2842.5798 2840.012 2838.728 3124.1497 3116.5449 3104.9897 3092.4468 3082.373 3075.0647 3069.929 3066.6699 3064.7935 3366.6077 3350.2131 3330.3618 3311.6958 3296.3877 3285.8201 3279.2031 3274.7588 3272.6848 3576.3738 3550.103 3520.7708 3493.6111 3472.97 3459.1431 3450.3533 3445.0203 3442.6499 3728.165 3693.2034 3654.8835 3619.9219 3593.6511 3576.5654 3566.5903 3560.8623 3558.0969 3825.436 3787.8079 3745.0439 3705.4404 3675.812 3656.751 3646.1836 3640.9492 3638.3813 3963.3936 3934.259 3897.1245 3860.583 3832.3372 3814.8564 3806.2642 3802.7087 3801.1287 4450.8608 4446.4165 4428.6396 4406.8135 4389.3325 4379.0615 4375.5059 4375.4072 4376.0986 5944.2891 5980.3364 5997.2246 6003.0513 6005.9155 6010.2607 6016.5815 6022.2109 6026.4575 9058.8232 9143.5596 9203.0127 9244.7881 9276.292 9301.4756 9321.0303 9335.252 9343.7451 12842.661 12964.332 13060.028 13134.788 13194.438 13241.151000000002 13275.42 13298.036 13310.184 14894.155 15017.898000000001 15124.358 15215.511999999999 15292.837 15353.968 15398.112 15425.765 15439.688999999998 14511.386 14590.291000000001 14669.493 14749.483999999999 14824.438999999998 14886.655 14931.096000000001 14957.463 14970.005 12952.783000000001 12947.253 12963.844 13004.135 13054.696000000002 13101.308 13134.192 13151.276000000002 13157.201000000001 11598.163 11487.169 11426.934 11411.133999999998 11421.896999999999 11438.783000000001 11448.954 11449.053 11443.918 11064.766000000001 10870.241000000002 10745.626 10679.072 10647.969 10630.393 10612.322 10590.697 10571.837 11232.768999999998 10997.773000000001 10839.993 10742.934 10682.803 10637.582 10594.729 10553.655 10521.565 11725.101999999999 11496.643999999998 11343.122 11244.688999999998 11177.455 11121.278999999999 11065.794 11012.876 10972.989 12229.49 12044.101 11926.333999999999 11853.777 11803.136 11755.95 11703.729 11651.311000000002 11610.937 12360.808 12237.828000000001 12173.278 12144.559 12128.964 12107.843 12074.186000000002 12033.62 12000.063 12228.663 12171.729 12165.218 12187.421 12214.755 12229.756000000001 12224.131000000001 12204.198 12182.588 12054.876 12060.698999999999 12107.758 12176.715 12246.756000000001 12298.843 12324.591999999999 12327.453000000001 12320.448999999999 11980.992 12043.221000000001 12133.255 12238.473999999998 12341.817 12424.156 12476.124 12500.184 12506.298 11992.088 12099.031 12216.913 12342.476999999999 12463.9 12563.346000000001 12631.546999999999 12668.211000000001 12682.7 11947.015 12082.742 12211.177 12339.61 12461.538 12563.868 12635.469 12676.54 12694.071000000002 11690.386999999999 11838.581 11963.059 12080.448999999999 12190.653999999999 12283.638 12349.466999999999 12387.646 12404.276000000002 11146.784 11294.296999999999 11405.846000000001 11505.008 11597.191 11675.811000000002 11731.926000000001 11763.866000000002 11777.825 10340.239 10479.359 10575.223 10655.975 10731.228000000001 10795.491000000002 10841.8 10868.294 10879.581 9361.2578 9489.5879 9572.5137 9640.46 9703.2119 9757.1523 9796.4092 9819.418 9829.7998 8319.9297 8437.3311 8515.0293 8577.5029 8633.9189 8682.0361 8717.3691 8739.334 8750.0752 7306.208 7413.3193 7493.0317 7558.6494 7615.417 7661.8799 7696.3887 7718.2637 7730.0298 6375.8413 6468.9463 6553.8262 6629.5137 6693.2134 6743.1875 6779.0527 6802.4507 6815.3125 5553.4185 5625.1602 5709.4258 5797.0234 5873.4834 5932.3911 5973.7466 6000.2334 6014.6313 4849.4551 4890.3623 4960.7373 5051.1963 5140.3975 5213.4473 5265.4141 5298.7651 5316.9155 4267.5308 4273.1255 4314.2637 4389.7339 4479.7856 4563.4419 4628.6216 4672.7949 4697.1821 3795.5093 3780.8083 3783.9255 3825.9575 3896.6877 3975.8618 4046.0686 4098.373 4129.9204 3368.0859 3394.1648 3379.7908 3379.6013 3411.4685 3464.9395 3523.4243 3573.2124 3606.0977 2888.9153 3013.3501 3065.7678 3056.8779 3044.7412 3055.6543 3083.9167 3116.8813 3142.1604 2331.6458 2547.1814 2696.3406 2780.0786 2783.9893 2762.0967 2751.1108 2754.7974 2763.8013 1958.8711 2102.126 2235.9456 2382.4595 2478.1699 2517.6802 2512.0825 2498.1196 2491.4739 1964.2743 1945.3247 2027.0217 2085.0925 2154.8706 2191.2244 2210.7141 2218.4326 1975.8013 1929.4746 1958.1509 1948.8691 1941.3458 1932.2745 2055.8857 2030.9346 2006.8722 1987.7574 329.2746 329.2746 328.9783 328.58325 327.3981 325.42285 322.36121 317.22556000000003 380.82867000000005 380.82867000000005 380.72992 380.03857 379.05096000000003 376.97693 373.91528 368.58212000000003 419.6424 419.6424 419.54364000000004 419.0498 418.2597 416.6795 413.71664 408.87726000000004 453.02417 453.02417 453.02417 453.12292 452.62912 451.64148 449.07364 445.12314000000003 487.88735999999994 488.0849 488.28240999999997 488.47995 488.5787 488.38115999999997 486.9985 484.33190999999994 528.9726 529.26892 529.7627 530.4540400000001 531.44165 532.0342400000001 531.9354900000001 530.65155 577.86011 578.2551900000001 579.14404 580.5267299999999 582.20569 583.9834 585.5636 585.8598599999999 634.64862 635.33997 636.42633 638.50037 641.06818 644.03107 647.09271 649.2655 698.74554 699.23938 700.72083 703.28864 706.94287 711.18964 715.63397 720.07831 769.26208 769.85468 771.63239 774.9903 779.13837 784.66907 790.69354 796.81683 847.08704 847.87714 850.0499300000001 853.5065900000001 858.34595 864.56799 872.0739699999999 879.7774699999999 932.41791 933.20801 935.3808 939.3313 944.56573 951.47913 959.6763900000001 968.2687400000001 1025.8474 1026.6375 1028.9091 1032.9583 1038.489 1045.5011 1053.7972 1062.4883 1128.3629 1128.9554 1131.3258 1135.0787 1140.412 1147.2266 1155.3251 1163.2261 1240.4585 1241.051 1243.0262 1246.6805 1251.4211 1257.9395 1264.9515 1271.7662 1363.6152 1364.3065 1366.0844 1369.2448 1373.7878 1379.2197 1384.8492 1390.1824 1499.1176 1499.7101 1501.1915 1503.8582 1507.7098 1512.0554 1516.5985 1520.5491 1648.3477 1648.644 1649.8291 1652.1995 1655.2611 1658.619 1662.2732 1664.7423 1811.6022 1812.0959 1813.1824 1814.8613 1817.2316 1819.7007 1822.5648 1824.4413 1990.0657 1990.3619 1991.3496 1992.6335 1994.51 1996.6827 1998.7568 2000.2382 2183.7388 2183.8374 2184.4302 2185.8127 2187.5906 2189.3682 2191.6396 2192.825 2390.9417 2391.238 2392.1267 2393.312 2395.0896 2397.3613 2399.7314 2402.2993 2610.2922 2610.6873 2611.7737 2613.4526 2615.7241 2618.687 2622.9338 2626.7856 2838.2344 2838.728 2840.012 2842.5798 2845.9377 2850.876 2857.1968 2864.4063 3064.2009 3064.7935 3066.6699 3069.929 3075.0647 3082.373 3092.4468 3104.9897 3271.697 3272.6848 3274.7588 3279.2031 3285.8201 3296.3877 3311.6958 3330.3618 3441.5635 3442.6499 3445.0203 3450.3533 3459.1431 3472.97 3493.6111 3520.7708 3557.1094 3558.0969 3560.8623 3566.5903 3576.5654 3593.6511 3619.9219 3654.8835 3637.4924 3638.3813 3640.9492 3646.1836 3656.751 3675.812 3705.4404 3745.0439 3800.7334 3801.1287 3802.7087 3806.2642 3814.8564 3832.3372 3860.583 3897.1245 4376.2959 4376.0986 4375.4072 4375.5059 4379.0615 4389.3325 4406.8135 4428.7383 6027.7417 6026.4575 6022.2109 6016.5815 6010.2607 6005.9155 6003.0513 5997.2246 9346.3125 9343.7451 9335.252 9321.0303 9301.4756 9276.292 9244.7881 9203.0127 13314.035 13310.184 13298.036 13275.42 13241.151000000002 13194.438 13134.788 13060.028 15444.133 15439.688999999998 15425.765 15398.112 15353.968 15292.837 15215.511999999999 15124.358 14973.362 14970.005 14957.463 14931.096000000001 14886.655 14824.438999999998 14749.583 14669.493 13158.188 13157.201000000001 13151.276000000002 13134.192 13101.308 13054.696000000002 13004.135 12963.942 11441.055 11443.918 11449.053 11448.954 11438.783000000001 11421.896999999999 11411.133999999998 11426.934 10564.431999999999 10571.837 10590.697 10612.322 10630.393 10647.969 10679.072 10745.626 10509.421 10521.565 10553.655 10594.729 10637.582 10682.803 10742.934 10839.993 10958.278 10972.989 11012.876 11065.794 11121.278999999999 11177.455 11244.688999999998 11343.122 11595.733999999999 11610.937 11651.311000000002 11703.729 11755.95 11803.136 11853.777 11926.333999999999 11987.034 12000.063 12033.62 12074.186000000002 12107.843 12128.964 12144.559 12173.278 12173.707 12182.588 12204.198 12224.131000000001 12229.756000000001 12214.755 12187.421 12165.218 12316.403999999999 12320.351 12327.453000000001 12324.591999999999 12298.843 12246.756000000001 12176.715 12107.758 12506.198999999999 12506.298 12500.184 12476.124 12424.156 12341.817 12238.473999999998 12133.255 12685.952 12682.7 12668.211000000001 12631.546999999999 12563.346000000001 12463.9 12342.476999999999 12216.913 12698.604 12694.071000000002 12676.54 12635.469 12563.868 12461.538 12339.61 12211.177 12408.41 12404.276000000002 12387.646 12349.466999999999 12283.638 12190.653999999999 12080.448999999999 11963.059 11781.266000000001 11777.825 11763.866000000002 11731.926000000001 11675.811000000002 11597.191 11505.008 11405.846000000001 10882.33 10879.581 10868.294 10841.8 10795.491000000002 10731.228000000001 10655.975 10575.223 9832.543 9829.7998 9819.418 9796.4092 9757.1523 9703.2119 9640.46 9572.5137 8753.1025 8750.0752 8739.334 8717.3691 8682.0361 8633.9189 8577.5029 8515.0293 7733.7251 7730.0298 7718.2637 7696.3887 7661.8799 7615.417 7558.6494 7493.0317 6819.2773 6815.3125 6802.4507 6779.0527 6743.1875 6693.2134 6629.5137 6553.8262 6019.1426 6014.6313 6000.2334 5973.7466 5932.3911 5873.4834 5797.0234 5709.4258 5322.6182 5316.9155 5298.7651 5265.4141 5213.4473 5140.3975 5051.1963 4960.7373 4705.1548 4697.1821 4672.7949 4628.6216 4563.4419 4479.7856 4389.7339 4314.2637 4140.252 4129.9204 4098.373 4046.0686 3975.8618 3896.6877 3825.9575 3783.9255 3617.3899 3606.0977 3573.2124 3523.4243 3464.9395 3411.4685 3379.6013 3379.7908 3151.3186 3142.1604 3116.8813 3083.9167 3055.6543 3044.7412 3056.8779 3065.7678 2767.9089 2763.8013 2754.7974 2751.1108 2762.0967 2783.9893 2780.0786 2696.3406 2490.105 2491.4739 2498.1196 2512.0825 2517.6802 2478.1699 2382.4595 2235.9456 2221.0583 2218.4326 2210.7141 2191.2244 2154.8706 2085.0925 2027.0217 1945.3247 1927.651 1932.2745 1941.3458 1948.8691 1958.1509 1929.5496 1975.8013 1980.2208 1987.7574 2006.8722 2030.9346 2055.8857 310.01587 299.54703 285.52274 267.15289 243.6474 214.0186 178.76035 360.87863 349.52094 334.60776 314.65771 288.58437999999995 255.69643 215.8951 170.06923999999998 401.17377 390.21112 375.19922 354.45905 327.20056 291.74478 247.89417999999998 197.22896 438.50604000000004 428.3335 413.61786 393.07526 364.33533 326.41046 278.70813 222.61096 478.89995999999996 469.91257 455.78952000000004 435.54318 405.6181 364.92789 312.88 251.35088 526.79987 519.19513 506.2572 486.01086 455.59198 413.61786 358.80463 291.64603 583.88464 578.15637 566.69995 547.44122 519.39264 480.28265 426.95084 357.02689 649.4630099999999 645.90753 636.82141 622.10577 601.06934 572.3294099999999 530.65155 463.59177 722.4486099999999 721.16467 716.32532 708.81934 701.80719 694.40002 678.69678 626.64886 801.55743 803.23645 802.84137 805.21167 816.66815 840.37115 866.3457599999999 853.01276 886.09827 890.1475199999999 893.9992699999999 905.45575 935.77588 992.8606599999999 1069.2042 1119.0793 975.6759599999999 980.71283 987.0336900000001 1004.3171 1046.9825 1128.1654 1241.2487 1321.9377 1069.7968 1074.7349 1080.5619 1097.9441 1141.3009 1220.9036 1309.7899 1327.2709 1169.5469 1173.1024 1176.5591 1188.1143 1219.817 1272.4575 1307.0244 1284.3091 1276.6056 1277.9883 1278.2845 1282.2351 1296.6544 1317.8883 1317.2958 1290.4324 1392.9478 1392.6515 1389.5898 1386.8245 1387.2195 1386.3307 1371.3187 1349.8872 1521.7341 1519.3639 1514.0306 1506.9198 1499.0188 1487.8586 1468.3036 1449.9337 1664.7423 1660.8905 1653.4834 1643.4095 1631.9531 1617.6326 1597.7813 1580.5966 1823.3549 1818.6143 1809.6268 1797.5779 1783.8499 1768.8379 1748.8879 1731.0118 1998.8556 1993.6211 1983.7449 1970.2144 1954.7086 1939.203 1918.364 1897.5251 2191.8372 2186.7017 2176.4304 2162.1096 2145.3201 2129.2219 2107.3953 2084.0874 2402.1018 2397.9539 2388.1763 2373.6582 2356.6711 2340.5728 2318.45 2294.6482 2628.9583 2626.4893 2618.687 2605.8479 2590.0459 2575.1328 2553.9976 2531.2822 2870.4309 2872.011 2867.6655 2858.4805 2846.9253 2834.9751 2815.6177 2796.7542 3116.5449 3124.1497 3126.3223 3123.7546 3120.5942 3116.6436 3100.1504 3085.3359 3350.2131 3366.6077 3377.2739 3385.2737 3396.1375 3407.3965 3395.7424 3384.3848 3550.103 3576.3738 3597.3113 3617.3601 3648.0752 3685.9998 3683.1357 3672.5681 3693.2034 3728.165 3757.2998 3788.5085 3842.4326 3919.2693 3932.9973 3921.2444 3787.8079 3825.436 3856.2495 3892.0015 3966.5664 4090.1174 4130.4121 4115.499 3934.259 3963.3936 3982.8496 4009.6138 4091.981 4255.7271 4324.6626 4305.1079 4446.4165 4450.8608 4441.9722 4440.293 4506.4629 4673.2705 4751.9829 4721.9595 5980.3364 5944.2891 5889.2793 5842.1709 5868.8359 5977.3735 5987.3486 5929.0801 9143.5596 9058.8232 8952.7559 8856.3662 8803.7275 8746.8418 8627.0469 8504.9795 12964.431 12842.661 12702.128 12559.026000000002 12373.063999999998 12104.836000000001 11873.148000000001 11690.544 15017.898000000001 14894.155 14757.377 14591.07 14295.293 13941.248 13694.85 13490.025 14590.291000000001 14511.386 14422.803 14271.903999999999 13979.49 13707.024 13578.542 13435.443000000001 12947.253 12952.783000000001 12952.781 12897.085 12747.375 12691.184 12767.516000000001 12739.763 11487.169 11598.163 11738.386999999999 11871.007 11974.788999999999 12161.127 12360.695 12417.572 10870.241000000002 11064.766000000001 11320.71 11611.511 11925.021 12294.62 12568.73 12659.277 10997.773000000001 11232.768999999998 11547.74 11923.239 12344.748 12772.183 13109.173 13232.493 11496.643999999998 11725.101999999999 12038.763 12422.321000000002 12852.68 13282.347 13652.776000000002 13795.242 12044.101 12229.49 12497.9 12829.982 13204.713 13617.348999999998 13991.39 14130.188 12237.828000000001 12360.808 12560.971000000001 12817.788999999999 13121.393999999998 13504.056999999999 13856.226999999999 13975.464 12171.729 12228.663 12353.391000000001 12528.938 12754.915 13086.283000000001 13397.133 13485.268 12060.798 12054.876 12103.505 12193.964 12332.669 12585.42 12826.832 12874.505 12043.221000000001 11980.992 11954.065 11954.458 11994.208999999999 12132.676000000001 12265.233999999999 12260.935 12099.031 11992.088 11894.507 11805.906 11733.98 11732.633999999998 11714.445 11640.486 12082.742 11947.015 11791.393 11616.577 11447.01 11284.17 11104.111 10945.926000000001 11838.581 11690.386999999999 11495.165 11243.87 10982.962 10698.198 10361.813 10118.801 11294.296999999999 11146.784 10931.671 10628.333 10282.181999999999 9935.7891 9487.3721 9166.2031 10479.359 10340.239 10122.068000000001 9800.1387 9402.7119 9023.5723 8534.084 8162.4077 9489.5879 9361.2578 9153.6738 8841.3096 8439.6396 8049.5479 7588.896 7195.2202 8437.3311 8319.9297 8134.5483 7854.377 7488.6987 7115.0513 6689.9531 6287.4688 7413.3193 7306.208 7151.5059 6919.8975 6614.8032 6279.0405 5835.9185 5342.9453 6468.9463 6375.8413 6258.9653 6084.7373 5865.7354 5588.1382 5100.1162 4526.7354 5625.1602 5553.4185 5478.9673 5371.936 5249.2114 5023.3091 4472.6631 4890.3623 4849.4551 4819.3335 4777.8262 4728.1821 4469.1104 3917.4885 4273.1255 4267.5308 4269.1147 4265.9307 4202.9424 3836.3413 3780.8083 3795.5093 3788.9998 3769.5383 3558.8567 3207.1089 3394.1648 3368.0859 3293.2415 3167.3418 2857.8679 3013.3501 2888.9153 2674.7844 2498.3682 2547.1814 2331.6458 2067.2085 2248.3901 2102.126 1958.8711 1964.2743 
Type 1 2975 float
0 0 0 0 0 0 0 0 0 0 0 0 0 0 0 0 0 0 0 0 0 0 0 0 0 0 0 0 0 0 0 0 0 0 0 0 0 0 0 0 0 0 0 0 0 0 0 0 0 0 0 0 0 0 0 0 0 0 0 0 0 0 0 0 0 0 0 0 0 0 0 0 0 0 0 0 0 0 0 0 0 0 0 0 0 0 0 0 0 0 0 0 0 0 0 0 0 0 0 0 0 0 0 0 0 0 0 0 0 0 0 0 0 0 0 0 0 0 0 0 0 0 0 0 0 0 0 0 0 0 0 0 0 0 0 0 0 0 0 0 0 0 0 0 0 0 0 0 0 0 0 0 0 0 0 0 0 0 0 0 0 0 0 0 0 0 0 0 0 0 0 0 0 0 0 0 0 0 0 0 0 0 0 0 0 0 0 0 0 0 0 0 0 0 0 0 0 0 0 0 0 0 0 0 0 0 0 0 0 0 0 0 0 0 0 0 0 0 0 0 0 0 0 0 0 0 0 0 0 0 0 0 0 0 0 0 0 0 0 0 0 0 0 0 0 0 0 0 0 0 0 0 0 0 0 0 0 0 0 0 0 0 0 0 0 0 0 0 0 0 0 0 0 0 0 0 0 0 0 0 0 0 0 0 0 0 0 0 0 0 0 0 0 0 0 0 0 0 0 0 0 0 0 0 0 0 0 0 0 0 0 0 0 0 0 0 0 0 0 0 0 0 0 0 0 0 0 0 0 0 0 0 0 0 0 0 0 0 0 0 0 0 0 0 0 0 0 0 0 0 0 0 0 0 0 0 0 0 0 0 0 0 0 0 0 0 0 0 0 0 0 0 0 0 0 0 0 0 0 0 0 0 0 0 0 0 0 0 0 0 0 0 0 0 0 0 0 0 0 0 0 0 0 0 0 0 0 0 0 0 0 0 0 0 0 0 0 0 0 0 0 0 0 0 0 0 0 0 0 0 0 0 0 0 0 0 0 0 0 0 0 0 0 0 0 0 0 0 0 0 0 0 0 0 0 0 0 0 0 0 0 0 0 0 0 0 0 0 0 0 0 0 0 0 0 0 0 0 0 0 0 0 0 0 0 0 0 0 0 0 0 0 0 0 0 0 0 0 0 0 0 0 0 0 0 0 0 0 0 0 0 0 0 0 0 0 0 0 0 0 0 0 0 0 0 0 0 0 0 0 0 0 0 0 0 0 0 0 0 0 0 0 0 0 0 0 0 0 0 0 0 0 0 0 0 0 0 0 0 0 0 0 0 0 0 0 0 0 0 0 0 0 0 0 0 0 0 0 0 0 0 0 0 0 0 0 0 0 0 0 0 0 0 0 0 0 0 0 0 0 0 0 0 0 0 0 0 0 0 0 0 0 0 0 0 0 0 0 0 0 0 0 0 0 0 0 0 0 0 0 0 0 0 0 0 0 0 0 0 0 0 0 0 0 0 0 0 0 0 0 0 0 0 0 0 0 0 0 0 0 0 0 0 0 0 0 0 0 0 0 0 0 0 0 0 0 0 0 0 0 0 0 0 0 0 0 0 0 0 0 0 0 0 0 0 0 0 0 0 0 0 0 0 0 0 0 0 0 0 0 0 0 0 0 0 0 0 0 0 0 0 0 0 0 0 0 0 0 0 0 0 0 0 0 0 0 0 0 0 0 0 0 0 0 0 0 0 0 0 0 0 0 0 0 0 0 0 0 0 0 0 0 0 0 0 0 0 0 0 0 0 0 0 0 0 0 0 0 0 0 0 0 0 0 0 0 0 0 0 0 0 0 0 0 0 0 0 0 0 0 0 0 0 0 0 0 0 0 0 0 0 0 0 0 0 0 0 0 0 0 0 0 0 0 0 0 0 0 0 0 0 0 0 0 0 0 0 0 0 0 0 0 0 0 0 0 0 0 0 0 0 0 0 0 0 0 0 0 0 0 0 0 0 0 0 0 0 0 0 0 0 0 0 0 0 0 0 0 0 0 0 0 0 0 0 0 0 0 0 0 0 0 0 0 0 0 0 0 0 0 0 0 0 0 0 0 0 0 0 0 0 0 0 0 0 0 0 0 0 0 0 0 0 0 0 0 0 0 0 0 0 0 0 0 0 0 0 0 0 0 0 0 0 0 0 0 0 0 0 0 0 0 0 0 0 0 0 0 0 0 0 0 0 0 0 0 0 0 0 0 0 0 0 0 0 0 0 0 0 0 0 0 0 0 0 0 0 0 0 0 0 0 0 0 0 0 0 0 0 0 0 0 0 0 0 0 0 0 0 0 0 0 0 0 0 0 0 0 0 0 0 0 0 0 0 0 0 0 0 0 0 3 3 3 3 3 3 3 3 3 3 3 3 3 3 3 3 3 3 3 3 3 3 3 3 3 3 3 3 3 3 3 3 3 3 3 3 3 3 3 3 3 3 3 3 3 3 3 3 3 3 3 3 3 3 3 3 3 3 3 3 3 3 3 3 3 3 3 3 3 3 3 3 3 3 3 3 3 3 3 3 3 3 3 3 3 3 3 3 3 3 3 3 3 3 3 3 3 3 3 3 3 3 3 3 3 3 3 3 3 3 3 3 3 3 3 3 3 3 3 3 3 3 3 3 3 3 3 3 3 3 3 3 3 3 3 3 3 3 3 3 3 3 3 3 3 3 3 3 3 3 3 3 3 3 3 3 3 3 3 3 3 3 3 3 3 3 3 3 3 3 3 3 3 3 3 3 3 3 3 3 3 3 3 3 3 3 3 3 3 3 3 3 3 3 3 3 3 3 3 3 3 3 3 3 3 3 3 3 3 3 3 3 3 3 3 3 3 3 3 3 3 3 3 3 3 3 3 3 3 3 3 3 3 3 3 3 3 3 3 3 3 3 3 3 3 3 3 3 3 3 3 3 3 3 3 3 3 3 3 3 3 3 3 3 3 3 3 3 3 3 3 3 3 3 3 3 3 3 3 3 3 3 3 3 3 3 3 3 3 3 3 3 3 3 3 3 3 3 3 3 3 3 3 3 3 3 3 3 3 3 3 3 3 3 3 3 3 3 3 3 3 3 3 3 3 3 3 3 3 3 3 3 3 3 3 3 3 3 3 3 3 3 3 3 3 3 3 3 3 3 3 3 3 3 3 3 3 3 3 3 3 3 3 3 3 3 3 3 3 3 3 3 3 3 3 3 3 3 3 3 3 3 3 3 3 3 3 3 3 3 3 3 3 3 3 3 3 3 3 3 3 3 3 3 3 3 3 3 3 3 3 3 3 3 3 3 3 3 3 3 3 3 3 3 3 3 3 3 3 3 3 3 3 3 3 3 3 3 3 3 3 3 3 3 3 3 3 3 3 3 3 3 3 3 3 3 3 3 3 3 3 3 3 3 3 3 3 3 3 3 3 3 3 3 3 3 3 3 3 3 3 3 3 3 3 3 3 3 3 3 3 3 3 3 3 3 3 3 3 3 3 3 3 3 3 3 3 3 3 3 3 3 3 3 3 3 3 3 3 3 3 3 3 3 3 3 3 3 3 3 3 3 3 3 3 3 3 3 3 3 3 3 3 3 3 3 3 3 3 3 3 3 3 3 3 3 3 3 3 3 3 3 3 3 3 3 3 3 3 3 3 3 3 3 3 3 3 3 3 3 3 3 3 3 3 3 3 3 3 3 3 3 3 3 3 3 3 3 3 3 3 3 3 3 3 3 3 3 3 3 3 3 3 3 3 3 3 3 3 3 3 3 3 3 3 3 3 3 3 3 3 3 3 3 3 3 3 3 3 3 3 3 3 3 3 3 3 3 3 3 3 3 3 3 3 3 3 3 3 3 3 3 3 3 3 3 3 3 3 3 3 3 3 3 3 3 3 3 3 3 3 3 3 3 3 3 3 3 3 3 3 3 3 3 3 3 3 3 3 3 3 3 3 3 3 3 3 3 3 3 3 3 3 3 3 3 3 3 3 3 3 3 3 3 3 3 3 3 3 3 3 3 3 3 3 3 3 3 3 3 3 3 3 3 3 3 3 3 3 3 3 3 3 3 3 3 3 3 3 3 3 3 3 3 3 3 3 3 3 3 3 3 3 3 3 3 3 3 3 3 3 3 3 3 3 3 3 3 3 3 3 3 3 3 3 3 3 3 3 3 3 3 3 3 3 3 3 3 3 3 3 3 3 3 3 3 3 3 3 3 3 3 3 3 3 3 3 3 3 3 3 3 3 3 3 3 3 3 3 3 3 3 3 3 3 3 3 3 3 3 3 3 3 3 3 3 3 3 3 3 3 3 3 3 3 3 3 3 3 3 3 3 3 3 3 3 3 3 3 3 3 3 3 3 3 3 3 3 3 3 3 3 3 3 3 3 3 3 3 3 3 3 3 3 3 3 3 3 3 3 3 3 3 3 3 3 3 3 3 3 3 3 3 3 3 3 3 3 3 3 3 3 3 3 3 3 3 3 3 3 3 3 3 3 3 3 3 3 3 3 3 3 3 3 3 3 3 3 3 3 3 3 3 3 3 3 3 3 3 3 3 3 3 3 3 3 3 3 3 3 3 3 3 3 3 3 3 3 3 3 3 3 3 3 3 3 3 3 3 3 3 3 3 3 3 3 3 3 3 3 3 3 3 3 3 3 3 3 3 3 3 3 3 3 3 3 3 3 3 3 3 3 3 3 3 3 3 3 3 3 3 3 3 3 3 3 3 3 3 3 3 3 3 3 3 3 3 3 3 3 3 3 3 3 3 3 3 3 3 3 3 3 3 3 3 3 3 3 3 3 3 3 3 3 3 3 3 3 3 3 3 3 3 3 3 3 3 3 3 3 3 3 3 3 3 3 3 3 3 3 3 3 3 3 3 3 3 3 3 3 3 3 3 3 3 3 3 3 3 3 3 3 3 3 3 3 3 3 3 3 3 3 3 3 3 3 3 3 3 3 3 3 3 3 3 3 3 3 3 3 3 3 3 3 3 3 3 3 3 3 3 3 3 3 3 3 3 3 3 3 3 3 3 3 3 3 3 3 3 3 3 3 3 3 3 3 3 3 3 3 3 3 3 3 3 3 3 3 3 3 3 3 3 3 3 3 3 3 3 3 3 3 3 3 3 3 3 3 3 3 3 3 3 3 3 3 3 3 3 3 3 3 3 3 3 3 3 3 3 3 3 3 3 3 3 3 3 3 3 3 3 3 3 3 3 3 3 3 3 3 3 3 3 3 3 3 3 3 3 3 3 3 3 3 3 3 3 3 3 3 3 3 3 3 3 3 3 3 3 3 3 3 3 3 3 3 3 3 3 3 3 3 3 3 3 3 3 3 3 3 3 3 3 3 3 3 3 3 3 3 3 3 3 3 3 3 3 3 3 3 3 3 3 3 3 3 3 3 3 3 3 3 3 3 3 3 3 3 3 3 3 3 3 3 3 3 3 3 3 3 3 3 3 3 3 3 3 3 3 3 3 3 3 3 3 3 3 3 3 3 3 3 3 3 3 3 3 3 3 3 3 3 3 3 3 3 3 3 3 3 3 3 3 3 3 3 3 3 3 3 3 3 3 3 3 3 3 3 3 3 3 3 3 3 3 3 3 3 3 3 3 3 3 3 3 3 3 3 3 3 3 3 3 3 3 3 3 3 3 3 3 3 3 3 3 3 3 3 3 3 3 3 3 3 3 3 3 3 3 3 3 3 3 3 3 3 3 3 3 3 3 3 3 3 3 3 3 3 3 3 3 3 3 3 3 3 3 3 3 3 3 3 3 3 3 3 3 3 3 3 3 3 3 3 3 3 3 3 3 3 3 3 3 3 3 3 3 3 3 3 3 3 3 3 3 3 3 3 3 3 3 3 3 3 3 3 3 3 3 3 3 3 3 3 3 3 3 3 3 3 3 3 3 3 3 3 3 3 3 3 3 3 3 3 3 3 3 3 3 3 3 3 3 3 3 3 3 3 3 3 3 3 3 3 3 3 3 3 3 3 3 3 3 3 3 3 3 3 3 3 3 3 3 3 3 3 3 3 3 3 3 3 3 3 3 3 3 3 3 3 3 3 3 3 3 3 3 3 3 3 3 3 3 3 3 3 3 3 3 3 3 3 3 3 3 3 3 3 3 3 3 3 3 3 3 3 3 3 3 3 3 3 3 3 3 3 3 3 3 3 3 3 3 3 3 3 3 3 3 3 3 3 3 3 3 3 3 3 3 3 3 3 3 3 3 3 3 3 3 3 3 3 3 3 3 3 3 3 3 3 3 3 3 3 3 3 3 3 3 3 3 3 3 3 3 3 3 3 3 3 3 3 3 3 3 3 3 3 3 3 3 3 3 3 3 3 3 3 3 3 3 3 3 3 3 3 3 3 3 3 3 3 3 3 3 3 3 3 3 3 3 3 3 3 3 3 3 3 3 3 3 3 3 3 3 3 3 3 3 3 3 3 3 3 3 3 3 3 3 3 3 3 3 3 3 3 3 3 3 3 3 3 3 3 3 3 3 3 3 3 3 3 3 3 3 3 3 3 3 3 3 3 3 3 3 3 3 3 3 3 3 3 3 3 3 3 3 3 3 3 3 3 3 3 3 3 3 3 3 3 3 3 3 3 3 3 3 3 3 3 3 3 3 3 3 3 3 3 3 3 3 3 3 3 3 3 3 3 3 3 3 3 3 3 3 3 3 3 3 3 3 3 3 3 3 3 3 3 3 3 3 3 3 3 3 3 3 3 3 3 3 3 3 3 
CellOffSpring 1 2975 float
0 0 0 0 0 0 0 0 0 0 0 0 0 0 0 0 0 0 0 0 0 0 0 0 0 0 0 0 0 0 0 0 0 0 0 0 0 0 0 0 0 0 0 0 0 0 0 0 0 0 0 0 0 0 0 0 0 0 0 0 0 0 0 0 0 0 0 0 0 0 0 0 0 0 0 0 0 0 0 0 0 0 0 0 0 0 0 0 0 0 0 0 0 0 0 0 0 0 0 0 0 0 0 0 0 0 0 0 0 0 0 0 0 0 0 0 0 0 0 0 0 0 0 0 0 0 0 0 0 0 0 0 0 0 0 0 0 0 0 0 0 0 0 0 0 0 0 0 0 0 0 0 0 0 0 0 0 0 0 0 0 0 0 0 0 0 0 0 0 0 0 0 0 0 0 0 0 0 0 0 0 0 0 0 0 0 0 0 0 0 0 0 0 0 0 0 0 0 0 0 0 0 0 0 0 0 0 0 0 0 0 0 0 0 0 0 0 0 0 0 0 0 0 0 0 0 0 0 0 0 0 0 0 0 0 0 0 0 0 0 0 0 0 0 0 0 0 0 0 0 0 0 0 0 0 0 0 0 0 0 0 0 0 0 0 0 0 0 0 0 0 0 0 0 0 0 0 0 0 0 0 0 0 0 0 0 0 0 0 0 0 0 0 0 0 0 0 0 0 0 0 0 0 0 0 0 0 0 0 0 0 0 0 0 0 0 0 0 0 0 0 0 0 0 0 0 0 0 0 0 0 0 0 0 0 0 0 0 0 0 0 0 0 0 0 0 0 0 0 0 0 0 0 0 0 0 0 0 0 0 0 0 0 0 0 0 0 0 0 0 0 0 0 0 0 0 0 0 0 0 0 0 0 0 0 0 0 0 0 0 0 0 0 0 0 0 0 0 0 0 0 0 0 0 0 0 0 0 0 0 0 0 0 0 0 0 0 0 0 0 0 0 0 0 0 0 0 0 0 0 0 0 0 0 0 0 0 0 0 0 0 0 0 0 0 0 0 0 0 0 0 0 0 0 0 0 0 0 0 0 0 0 0 0 0 0 0 0 0 0 0 0 0 0 0 0 0 0 0 0 0 0 0 0 0 0 0 0 0 0 0 0 0 0 0 0 0 0 0 0 0 0 0 0 0 0 0 0 0 0 0 0 0 0 0 0 0 0 0 0 0 0 0 0 0 0 0 0 0 0 0 0 0 0 0 0 0 0 0 0 0 0 0 0 0 0 0 0 0 0 0 0 0 0 0 0 0 0 0 0 0 0 0 0 0 0 0 0 0 0 0 0 0 0 0 0 0 0 0 0 0 0 0 0 0 0 0 0 0 0 0 0 0 0 0 0 0 0 0 0 0 0 0 0 0 0 0 0 0 0 0 0 0 0 0 0 0 0 0 0 0 0 0 0 0 0 0 0 0 0 0 0 0 0 0 0 0 0 0 0 0 0 0 0 0 0 0 0 0 0 0 0 0 0 0 0 0 0 0 0 0 0 0 0 0 0 0 0 0 0 0 0 0 0 0 0 0 0 0 0 0 0 0 0 0 0 0 0 0 0 0 0 0 0 0 0 0 0 0 0 0 0 0 0 0 0 0 0 0 0 0 0 0 0 0 0 0 0 0 0 0 0 0 0 0 0 0 0 0 0 0 0 0 0 0 0 0 0 0 0 0 0 0 0 0 0 0 0 0 0 0 0 0 0 0 0 0 0 0 0 0 0 0 0 0 0 0 0 0 0 0 0 0 0 0 0 0 0 0 0 0 0 0 0 0 0 0 0 0 0 0 0 0 0 0 0 0 0 0 0 0 0 0 0 0 0 0 0 0 0 0 0 0 0 0 0 0 0 0 0 0 0 0 0 0 0 0 0 0 0 0 0 0 0 0 0 0 0 0 0 0 0 0 0 0 0 0 0 0 0 0 0 0 0 0 0 0 0 0 0 0 0 0 0 0 0 0 0 0 0 0 0 0 0 0 0 0 0 0 0 0 0 0 0 0 0 0 0 0 0 0 0 0 0 0 0 0 0 0 0 0 0 0 0 0 0 0 0 0 0 0 0 0 0 0 0 0 0 0 0 0 0 0 0 0 0 0 0 0 0 0 0 0 0 0 0 0 0 0 0 0 0 0 0 0 0 0 0 0 0 0 0 0 0 0 0 0 0 0 0 0 0 0 0 0 0 0 0 0 0 0 0 0 0 0 0 0 0 0 0 0 0 0 0 0 0 0 0 0 0 0 0 0 0 0 0 0 0 0 0 0 0 0 0 0 0 0 0 0 0 0 0 0 0 0 0 0 0 0 0 0 0 0 0 0 0 0 0 0 0 0 0 0 0 0 0 0 0 0 0 0 0 0 0 0 0 0 0 0 0 0 0 0 0 0 0 0 0 0 0 0 0 0 0 0 0 0 0 0 0 0 0 0 0 0 0 0 0 0 0 0 0 0 0 0 0 0 0 0 0 0 0 0 0 0 0 0 0 0 0 0 0 0 0 0 0 0 0 0 0 0 0 0 0 0 0 0 0 0 0 0 0 0 0 0 0 0 0 0 0 0 0 0 0 0 0 0 0 0 0 0 0 0 0 0 0 0 0 0 0 0 0 0 0 0 0 0 0 0 0 0 0 0 0 0 0 0 0 0 0 0 0 0 0 0 0 0 0 0 0 0 0 0 0 0 0 0 0 0 0 0 0 0 0 0 0 0 0 0 0 0 0 0 0 0 0 0 0 0 0 0 0 0 0 0 0 0 0 0 0 0 0 0 0 0 0 0 0 0 0 0 0 0 0 0 0 0 0 0 0 0 0 0 0 0 0 0 0 0 0 0 0 0 0 0 0 0 0 0 0 0 0 0 0 0 0 0 0 0 0 0 0 0 0 0 0 0 0 0 0 0 0 0 0 0 0 0 0 0 0 0 0 0 0 0 0 0 0 0 0 0 0 0 0 0 0 0 0 0 0 0 0 0 0 0 0 0 0 0 0 0 0 0 0 0 0 0 0 0 0 0 0 0 0 0 0 0 0 0 0 0 0 0 0 0 0 0 0 0 0 0 0 0 0 0 0 0 0 0 0 0 0 0 0 0 0 0 0 0 0 0 0 0 0 0 0 0 0 0 0 0 0 0 0 0 0 0 0 0 0 0 0 0 0 0 0 0 0 0 0 0 0 0 0 0 0 0 0 0 0 0 0 0 0 0 0 0 0 0 0 0 0 0 0 0 0 0 0 0 0 0 0 0 0 0 0 0 0 0 0 0 0 0 0 0 0 0 0 0 0 0 0 0 0 0 0 0 0 0 0 0 0 0 0 0 0 0 0 0 0 0 0 0 0 0 0 0 0 0 0 0 0 0 0 0 0 0 0 0 0 0 0 0 0 0 0 0 0 0 0 0 0 0 0 0 0 0 0 0 0 0 0 0 0 0 0 0 0 0 0 0 0 0 0 0 0 0 0 0 0 0 0 0 0 0 0 0 0 0 0 0 0 0 0 0 0 0 0 0 0 0 0 0 0 0 0 0 0 0 0 0 0 0 0 0 0 0 0 0 0 0 0 0 0 0 0 0 0 0 0 0 0 0 0 0 0 0 0 0 0 0 0 0 0 0 0 0 0 0 0 0 0 0 0 0 0 0 0 0 0 0 0 0 0 0 0 0 0 0 0 0 0 0 0 0 0 0 0 0 0 0 0 0 0 0 0 0 0 0 0 0 0 0 0 0 0 0 0 0 0 0 0 0 0 0 0 0 0 0 0 0 0 0 0 0 0 0 0 0 0 0 0 0 0 0 0 0 0 0 0 0 0 0 0 0 0 0 0 0 0 0 0 0 0 0 0 0 0 0 0 0 0 0 0 0 0 0 0 0 0 0 0 0 0 0 0 0 0 0 0 0 0 0 0 0 0 0 0 0 0 0 0 0 0 0 0 0 0 0 0 0 0 0 0 0 0 0 0 0 0 0 0 0 0 0 0 0 0 0 0 0 0 0 0 0 0 0 0 0 0 0 0 0 0 0 0 0 0 0 0 0 0 0 0 0 0 0 0 0 0 0 0 0 0 0 0 0 0 0 0 0 0 0 0 0 0 0 0 0 0 0 0 0 0 0 0 0 0 0 0 0 0 0 0 0 0 0 0 0 0 0 0 0 0 0 0 0 0 0 0 0 0 0 0 0 0 0 0 0 0 0 0 0 0 0 0 0 0 0 0 0 0 0 0 0 0 0 0 0 0 0 0 0 0 0 0 0 0 0 0 0 0 0 0 0 0 0 0 0 0 0 0 0 0 0 0 0 0 0 0 0 0 0 0 0 0 0 0 0 0 0 0 0 0 0 0 0 0 0 0 0 0 0 0 0 0 0 0 0 0 0 0 0 0 0 0 0 0 0 0 0 0 0 0 0 0 0 0 0 0 0 0 0 0 0 0 0 0 0 0 0 0 0 0 0 0 0 0 0 0 0 0 0 0 0 0 0 0 0 0 0 0 0 0 0 0 0 0 0 0 0 0 0 0 0 0 0 0 0 0 0 0 0 0 0 0 0 0 0 0 0 0 0 0 0 0 0 0 0 0 0 0 0 0 0 0 0 0 0 0 0 0 0 0 0 0 0 0 0 0 0 0 0 0 0 0 0 0 0 0 0 0 0 0 0 0 0 0 0 0 0 0 0 0 0 0 0 0 0 0 0 0 0 0 0 0 0 0 0 0 0 0 0 0 0 0 0 0 0 0 0 0 0 0 0 0 0 0 0 0 0 0 0 0 0 0 0 0 0 0 0 0 0 0 0 0 0 0 0 0 0 0 0 0 0 0 0 0 0 0 0 0 0 0 0 0 0 0 0 0 0 0 0 0 0 0 0 0 0 0 0 0 0 0 0 0 0 0 0 0 0 0 0 0 0 0 0 0 0 0 0 0 0 0 0 0 0 0 0 0 0 0 0 0 0 0 0 0 0 0 0 0 0 0 0 0 0 0 0 0 0 0 0 0 0 0 0 0 0 0 0 0 0 0 0 0 0 0 0 0 0 0 0 0 0 0 0 0 0 0 0 0 0 0 0 0 0 0 0 0 0 0 0 0 0 0 0 0 0 0 0 0 0 0 0 0 0 0 0 0 0 0 0 0 0 0 0 0 0 0 0 0 0 0 0 0 0 0 0 0 0 0 0 0 0 0 0 0 0 0 0 0 0 0 0 0 0 0 0 0 0 0 0 0 0 0 0 0 0 0 0 0 0 0 0 0 0 0 0 0 0 0 0 0 0 0 0 0 0 0 0 0 0 0 0 0 0 0 0 0 0 0 0 0 0 0 0 0 0 0 0 0 0 0 0 0 0 0 0 0 0 0 0 0 0 0 0 0 0 0 0 0 0 0 0 0 0 0 0 0 0 0 0 0 0 0 0 0 0 0 0 0 0 0 0 0 0 0 0 0 0 0 0 0 0 0 0 0 0 0 0 0 0 0 0 0 0 0 0 0 0 0 0 0 0 0 0 0 0 0 0 0 0 0 0 0 0 0 0 0 0 0 0 0 0 0 0 0 0 0 0 0 0 0 0 0 0 0 0 0 0 0 0 0 0 0 0 0 0 0 0 0 0 0 0 0 0 0 0 0 0 0 0 0 0 0 0 0 0 0 0 0 0 0 0 0 0 0 0 0 0 0 0 0 0 0 0 0 0 0 0 0 0 0 0 0 0 0 0 0 0 0 0 0 0 0 0 0 0 0 0 0 0 0 0 0 0 0 0 0 0 0 0 0 0 0 0 0 0 0 0 0 0 0 0 0 0 0 0 0 0 0 0 0 0 0 0 0 0 0 0 0 0 0 0 0 0 0 0 0 0 0 0 0 0 0 0 0 0 0 0 0 0 0 0 0 0 0 0 0 0 0 0 0 0 0 0 0 0 0 0 0 0 0 0 0 0 0 0 0 0 0 0 0 0 0 0 0 0 0 0 0 0 0 0 0 0 0 0 0 0 0 0 0 0 0 0 0 0 0 0 0 0 0 0 0 0 0 0 0 0 0 0 0 0 0 0 0 0 0 0 0 0 0 0 0 0 0 0 0 0 0 0 0 0 0 0 0 0 0 0 0 0 0 0 0 0 0 0 0 0 0 0 0 0 0 0 0 0 0 0 0 0 0 0 0 0 0 0 0 0 0 0 0 0 0 0 0 0 0 0 0 0 0 0 0 0 0 0 0 0 0 0 0 0 0 0 0 0 0 0 0 0 0 0 0 0 0 0 0 0 0 0 0 0 0 0 0 0 0 0 0 0 0 0 0 0 0 0 0 0 0 0 0 0 0 0 0 0 0 0 0 0 0 0 0 0 0 0 0 0 0 0 0 0 0 0 0 0 0 0 0 0 0 0 0 0 0 0 0 0 0 0 0 0 0 0 0 0 0 0 0 0 0 0 0 0 0 0 0 0 0 0 0 0 0 0 0 0 0 0 0 0 0 0 0 0 0 0 0 0 0 0 0 0 0 0 0 0 0 0 0 0 0 0 0 0 0 0 0 0 0 0 0 0 0 0 0 0 0 0 0 0 0 0 0 0 0 0 0 0 0 0 0 0 0 0 0 0 0 0 0 0 0 0 0 0 0 0 0 0 0 0 0 0 0 0 0 0 0 0 0 0 0 0 0 0 0 0 0 0 0 0 0 0 0 0 0 0 0 0 0 0 0 0 0 0 0 0 0 0 0 0 0 0 0 0 0 0 0 0 0 0 0 0 
GradVel 1 2975 float
0.0 0.0 0.0 0.0 0.0 0.0 0.0 0.0 0.0 0.0 0.0 0.0 0.0 -3.0776685e-06 -5.5185145e-15 -1.6123064e-05 -0.00010841014 -2.9253217e-05 -0.00021308080000000001 -0.0006698952099999999 -0.00024490183999999996 -0.0009297037 -0.0022299523 -0.0008659614300000001 -0.0025265897 -0.0052975806999999995 -0.0020256154000000003 -0.005168648400000001 -0.010039181999999999 -0.0036654859000000003 -0.0086830724 -0.016104061 -0.0055386256 -0.01258334 -0.022673864 -0.0073265303 -0.016276686999999998 -0.028797912999999998 -0.008803871500000001 -0.019358148999999998 -0.033880986 -0.0099538453 -0.021813115 -0.037984684 -0.010981946999999999 -0.02406818 -0.041909136 -0.012271366 -0.026911467 -0.047027834000000004 -0.01435389 -0.031419668 -0.055115215 -0.018032156 -0.039039195 -0.068305597 -0.024508823 -0.051351264 -0.08842193300000001 -0.035267383 -0.069086671 -0.11518028 -0.09227635 -0.1466835 0.0 0.0 0.0 0.0 0.0 0.0 0.0 0.0 0.0 0.0 0.0 0.0 0.0 0.0 0.0 0.0 0.0 0.0 0.0 0.0 0.0 0.0 0.0 0.0 0.0 -5.487455e-07 -3.4812856e-06 -8.241379e-06 -1.2361842999999998e-05 -1.4729953000000001e-05 -1.6409027000000002e-05 -1.7713526e-05 -2.6383024e-05 -8.552422500000001e-05 -0.00018213136000000003 -0.00030163664000000003 -0.00042018874 -0.00051808142 -0.0005887468 -0.0006382486900000001 -0.00032377778999999996 -0.0006847957799999999 -0.0011800984 -0.0017536675 -0.0023216147 -0.0028136214000000002 -0.003200812 -0.0034887686 -0.0014626262 -0.0026262302000000003 -0.0041254819 -0.0058122459 -0.007469403100000001 -0.0089223133 -0.010099246999999999 -0.011006257 -0.0042232675 -0.0069826175 -0.010432347 -0.014245411000000001 -0.017960062 -0.021219416 -0.023887493 -0.0259794 -0.009276484100000001 -0.014612468 -0.021166325 -0.028317435 -0.035209727 -0.041222744 -0.046154663 -0.050053604 -0.016756734 -0.025588148999999998 -0.036299378 -0.047830034 -0.058776252 -0.068230011 -0.07596747599999999 -0.08210641099999999 -0.026056977000000002 -0.038929906 -0.054315079 -0.070573337 -0.085690886 -0.098607101 -0.10914324 -0.11750647 -0.035904169 -0.052718334000000006 -0.072300091 -0.044879511 -0.064909779 -0.052226352999999996 -0.074689195 -0.058234032000000005 -0.082843371 -0.064210542 -0.091175564 -0.072217032 -0.10233606 -0.08474172699999999 -0.11932039 -0.10453618 -0.14513168 -0.13369295 -0.18181716 -0.1713912 -0.22844127 -0.21402951 -0.28097829 0.0 0.0 0.0 0.0 0.0 0.0 0.0 0.0 0.0 0.0 0.0 0.0 0.0 0.0 0.0 0.0 0.0 0.0 0.0 0.0 0.0 0.0 0.0 0.0 0.0 0.0 0.0 -1.8677487e-05 -1.9357152e-05 -1.9813097e-05 -2.0101535e-05 -2.0272215e-05 -2.0364811e-05 -2.0408652e-05 -2.0425574e-05 -2.0430209e-05 -0.0006750388400000001 -0.0007017155900000001 -0.0007201745200000001 -0.0007323361900000001 -0.0007399224000000001 -0.0007443584599999999 -0.0007467605199999999 -0.00074793678 -0.00074843201 -0.0036982953999999996 -0.0038508789 -0.003958554 -0.0040311520000000005 -0.0040777936 -0.004106207299999999 -0.0041224723999999996 -0.0041310899 -0.004135094099999999 -0.011683428999999999 -0.012178157 -0.012531066 -0.012772887 -0.012931363000000001 -0.013030385 -0.013089005 -0.01312137 -0.013137098 -0.027570691 -0.028748608999999998 -0.029595287999999997 -0.030181775 -0.030571301000000002 -0.030818785 -0.030968379 -0.031053037999999998 -0.031095212 -0.053054117000000005 -0.055300232000000005 -0.056927636 -0.05806331 -0.058824497999999996 -0.059313573 -0.059613335999999996 -0.059785675 -0.059872858 -0.08686327199999999 -0.090452954 -0.09307023099999999 -0.094906829 -0.096144959 -0.096946955 -0.09744326800000001 -0.097731844 -0.097879417 -0.12400681 -0.12893608 -0.13254532 -0.1350859 -0.13680577 -0.13792634 -0.13862519 -0.13903499 -0.13924626 0.0 0.0 0.0 0.0 0.0 0.0 0.0 0.0 0.0 0.0 0.0 0.0 0.0 0.0 0.0 0.0 0.0 0.0 0.0 0.0 0.0 0.0 0.0 0.0 -2.0430813e-05 -2.0430212e-05 -2.0425576e-05 -2.0408653999999997e-05 -2.0364809e-05 -2.0272209e-05 -2.0101542999999998e-05 -1.98131e-05 -0.00074856228 -0.00074843201 -0.00074793684 -0.00074676058 -0.00074435852 -0.00073992234 -0.0007323360799999999 -0.0007201744 -0.0041362387 -0.0041350937 -0.004131089 -0.0041224714 -0.0041062082 -0.004077795 -0.0040311528999999995 -0.0039585545 -0.013141736999999999 -0.0131371 -0.013121368999999999 -0.013089006 -0.013030389 -0.012931367 -0.012772887 -0.012531071999999999 -0.031107863 -0.031095216000000002 -0.031053046 -0.03096839 -0.030818785 -0.030571312000000003 -0.030181777000000003 -0.029595299 -0.0598993 -0.059872866 -0.059785679 -0.059613343 -0.05931358 -0.058824497999999996 -0.058063317 -0.056927625 -0.097924411 -0.097879395 -0.09773187300000001 -0.09744329 -0.09694697 -0.096144959 -0.094906807 -0.093070261 -0.13931106 -0.1392463 -0.13903508 -0.13862516 -0.13792637 -0.13680576 -0.1350859 -0.13254528 0.0 0.0 0.0 0.0 0.0 0.0 0.0 0.0 0.0 0.0 0.0 0.0 0.0 0.0 0.0 0.0 0.0 0.0 0.0 0.0 0.0 0.0 0.0 0.0 0.0 0.0 0.0 -1.9357149e-05 -1.8677487e-05 -1.7713524e-05 -1.6409025e-05 -1.4729955e-05 -1.2361848e-05 -8.2413835e-06 -3.481287e-06 -5.4874573e-07 -0.00070171553 -0.0006750389 -0.0006382486900000001 -0.0005887468 -0.00051808148 -0.00042018882 -0.00030163676 -0.00018213144 -8.5524262e-05 -0.0038508787 -0.0036982952000000004 -0.0034887686 -0.003200813 -0.0028136226 -0.0023216151 -0.001753668 -0.0011800982000000002 -0.00068479584 -0.012178158 -0.011683431000000001 -0.01100625 -0.010099243 -0.0089223124 -0.0074694036 -0.0058122473 -0.0041254838 -0.0026262305 -0.028748597999999997 -0.027570689 -0.02597939 -0.023887487000000002 -0.021219414 -0.017960063999999998 -0.014245411000000001 -0.010432348000000001 -0.006982618 -0.055300239 -0.053054132000000004 -0.050053604 -0.046154659 -0.041222744 -0.035209734 -0.02831744 -0.021166325 -0.014612468 -0.09045294699999999 -0.08686327199999999 -0.08210641099999999 -0.07596752799999999 -0.068229996 -0.058776262999999995 -0.047830038 -0.036299385 -0.025588155 -0.12893616 -0.12400679 -0.11750644 -0.10914326 -0.098607086 -0.085690871 -0.070573367 -0.054315105 -0.038929891 -0.072300121 -0.052718334000000006 -0.064909779 -0.074689195 -0.082843401 -0.09117559300000001 -0.10233607 -0.11932041 -0.14513171 -0.18181719 -0.22844131 -0.28097838 0.0 0.0 0.0 0.0 0.0 0.0 0.0 0.0 0.0 0.0 0.0 0.0 0.0 0.0 0.0 -2.6383026e-05 -3.0776693999999997e-06 0.0 0.0 -0.0003237779 -0.0001084102 -1.6123064e-05 -5.5185157999999996e-15 -0.001462626 -0.00066989561 -0.00021308081000000003 -2.9253222e-05 -0.004223268 -0.0022299525 -0.00092970359 -0.00024490183999999996 -0.0092764851 -0.0052975826 -0.002526589 -0.0008659615400000001 -0.016756736 -0.010039184 -0.005168648 -0.0020256159 -0.026056972999999997 -0.016104065 -0.0086830715 -0.0036654875 -0.035904177 -0.022673868 -0.01258334 -0.005538626600000001 -0.044879504 -0.028797912999999998 -0.016276689 -0.0073265312 -0.052226352999999996 -0.033880994 -0.019358151 -0.0088038724 -0.058234050999999995 -0.037984687999999996 -0.021813124 -0.0099538472 -0.064210549 -0.041909136 -0.02406818 -0.010981946999999999 -0.072217062 -0.047027845 -0.026911471 -0.012271368000000001 -0.084741756 -0.055115223 -0.031419676 -0.014353892 -0.10453622 -0.068305641 -0.039039217 -0.018032166999999998 -0.13369298 -0.088421971 -0.051351285999999996 -0.024508837999999998 -0.17139125 -0.11518031 -0.069086686 -0.035267401000000004 -0.21402963 -0.14668357 -0.092276409 0.0 0.0 0.0 0.0 0.0 0.0 0.0 0.0 0.0 0.0 0.0 0.0 0.0 0.0 0.0 0.0 0.0 0.0 0.0 0.0 0.0 0.0 0.0 0.0 0.0 0.0 0.0 0.0 0.0 0.0 0.0 0.0 0.0 0.0 0.0 0.0 0.0 0.0 0.0 0.0 0.0 0.0 0.0 0.0 0.0 0.0 0.0 0.0 0.0 0.0 0.0 0.0 0.0 0.0 0.0 0.0 0.0 0.0 0.0 0.0 0.0 0.0 0.0 0.0 0.0 0.0 0.0 0.0 0.0 0.0 0.0 0.0 0.0 0.0 0.0 0.0 0.0 0.0 0.0 0.0 0.0 0.0 0.0 0.0 0.0 0.0 0.0 0.0 0.0 0.0 0.0 0.0 0.0 0.0 0.0 0.0 0.0 0.0 0.0 0.0 0.0 0.0 0.0 0.0 0.0 0.0 0.0 0.0 0.0 0.0 0.0 0.0 0.0 0.0 0.0 0.0 0.0 0.0 0.0 0.0 0.0 0.0 0.0 0.0 0.0 0.0 0.0 0.0 0.0 0.0 0.0 0.0 0.0 0.0 0.0 0.0 0.0 0.0 0.0 0.0 0.0 0.0 0.0 0.0 0.0 0.0 0.0 0.0 0.0 0.0 0.0 0.0 0.0 0.0 0.0 0.0 0.0 0.0 0.0 0.0 0.0 0.0 0.0 0.0 0.0 0.0 0.0 0.0 0.0 0.0 0.0 0.0 0.0 0.0 0.0 0.0 0.0 0.0 0.0 0.0 0.0 0.0 0.0 0.0 0.0 0.0 0.0 0.0 0.0 0.0 0.0 0.0 0.0 0.0 0.0 0.0 0.0 0.0 0.0 0.0 0.0 0.0 0.0 0.0 0.0 0.0 0.0 0.0 0.0 0.0 0.0 0.0 0.0 0.0 0.0 0.0 0.0 0.0 0.0 0.0 0.0 0.0 0.0 0.0 0.0 0.0 0.0 0.0 0.0 0.0 0.0 0.0 0.0 0.0 0.0 0.0 0.0 0.0 0.0 0.0 0.0 0.0 0.0 0.0 0.0 0.0 0.0 0.0 0.0 0.0 0.0 0.0 0.0 0.0 0.0 0.0 0.0 0.0 0.0 0.0 0.0 0.0 0.0 0.0 0.0 0.0 0.0 0.0 0.0 0.0 0.0 0.0 0.0 0.0 0.0 0.0 0.0 0.0 0.0 0.0 0.0 0.0 0.0 0.0 0.0 0.0 0.0 0.0 0.0 0.0 0.0 0.0 0.0 0.0 0.0 0.0 0.0 0.0 0.0 0.0 0.0 0.0 0.0 0.0 0.0 0.0 0.0 0.0 0.0 0.0 0.0 0.0 0.0 0.0 0.0 0.0 0.0 0.0 0.0 0.0 0.0 0.0 0.0 0.0 0.0 0.0 0.0 0.0 0.0 0.0 0.0 0.0 0.0 0.0 0.0 0.0 0.0 0.0 0.0 0.0 0.0 0.0 0.0 0.0 0.0 0.0 0.0 0.0 0.0 0.0 0.0 0.0 0.0 0.0 0.0 0.0 0.0 0.0 0.0 0.0 0.0 0.0 0.0 0.0 0.0 0.0 0.0 0.0 0.0 0.0 0.0 0.0 0.0 0.0 0.0 0.0 0.0 0.0 0.0 0.0 0.0 0.0 0.0 0.0 0.0 0.0 0.0 0.0 0.0 0.0 0.0 0.0 0.0 0.0 0.0 0.0 0.0 0.0 0.0 0.0 0.0 0.0 0.0 0.0 0.0 0.0 0.0 0.0 0.0 0.0 0.0 0.0 0.0 0.0 0.0 0.0 0.0 0.0 0.0 0.0 0.0 0.0 0.0 0.0 0.0 0.0 0.0 0.0 0.0 0.0 0.0 0.0 0.0 0.0 0.0 0.0 0.0 0.0 0.0 0.0 0.0 0.0 0.0 0.0 0.0 0.0 0.0 0.0 0.0 0.0 0.0 0.0 0.0 0.0 0.0 0.0 0.0 0.0 0.0 0.0 0.0 0.0 0.0 0.0 0.0 0.0 0.0 0.0 0.0 0.0 0.0 0.0 -0.09213978099999999 -0.11055128 -0.12607765 -0.13867573 -0.14863728 -0.08644972699999999 -0.10981051 -0.1303423 -0.1474573 -0.16116975 -0.17188393 -0.098465234 -0.12395754 -0.14615187 -0.1643218 -0.1785693 -0.18945844 -0.10885274 -0.1364083 -0.16017728 -0.17927338 -0.19385515 -0.20466271 -0.11988799 -0.14953184 -0.17482729 -0.19484812 -0.20978014 -0.22045574 -0.13569984 -0.16702886 -0.19306764 -0.21336448 -0.22833982 -0.23881622 -0.16213629 -0.19399861 -0.21846302 -0.23704129 -0.25079754 -0.26051489 -0.20612395 -0.23583516 -0.25430015 -0.267441 -0.27759504 -0.28532332 -0.27381939 -0.29570892 -0.30164772 -0.30454016 -0.30814016 -0.31235793 -0.36755991 -0.3706657 -0.35716563 -0.34584674 -0.340772 -0.34048274 -0.47736296 -0.4489105 -0.4125053 -0.38624471 -0.37269443 -0.36818081 -0.55457413 -0.50936949 -0.45690095 -0.42000249 -0.40088561 -0.3938885 -0.53695452 -0.51793408 -0.47882286 -0.44290507 -0.42366591 -0.41686243 -0.49895674 -0.49351403 -0.4779782 -0.45520672 -0.44178659 -0.43766689 -0.47845969 -0.47487622 -0.47177929 -0.46350786 -0.45817387 -0.45785213 -0.47580135 -0.47193837 -0.47337765 -0.47485918 -0.47615597 -0.47913435 -0.48426941 -0.48182514 -0.485971 -0.49230209 -0.4975006 -0.5026502 -0.50202245 -0.50145274 -0.5069834 -0.51518023 -0.52233696 -0.5289492 -0.52510679 -0.52594584 -0.53266436 -0.54181385 -0.55033565 -0.558249 -0.5502702 -0.55260617 -0.56086653 -0.5712893 -0.58122957 -0.59041315 -0.57737988 -0.5810734 -0.59108019 -0.60313547 -0.61461675 -0.62512004 -0.60711223 -0.61140734 -0.62309277 -0.63700032 -0.65018237 -0.66208255 -0.63967341 -0.64375919 -0.65684408 -0.67278743 -0.68776816 -0.70107877 -0.67497098 -0.67811131 -0.69231552 -0.7103985 -0.72705209 -0.74160278 -0.71207052 -0.71366656 -0.72890717 -0.74897242 -0.76672977 -0.7821005 -0.74794346 -0.7478174 -0.76432353 -0.78562951 -0.80343544 -0.81897449 -0.7765469 -0.77515554 -0.79319972 -0.81421149 -0.83068633 -0.84571487 -0.78783572 -0.78635216 -0.80621886 -0.82437986 -0.8384158 -0.85252649 -0.7659421 -0.76662779 -0.78842366 -0.80162561 -0.81291473 -0.82655478 -0.68589056 -0.69209224 -0.71604276 -0.72485703 -0.73542738 -0.7508924 -0.5100472 -0.52585822 -0.55441225 -0.56374371 -0.57825541 -0.59935075 -0.18948206 -0.22469559 -0.26214796 -0.28116697 -0.30399719 -0.33403751 0.310453 0.24917153 0.19708145 0.15599303 0.12084128 0.082615331 0.96913266 0.88427198 0.82309651 0.75754809 0.704898 0.66337305 1.7007897 1.584602 1.5268073 1.4652941000000002 1.4065201 1.3720335 2.3013551 2.2018838 2.1844992999999997 2.1613202 2.1283004 2.1138798999999997 2.658782 2.6076759999999997 2.6371846000000003 2.6877112000000003 2.712333 2.7455808999999998 2.8046241000000003 2.7385857000000002 2.8215809 2.9337744999999997 3.0302339 3.1252812999999997 2.7950432000000003 2.6718431000000002 2.7935288 2.9439056 3.0962252999999995 3.2374766 2.7024531 2.5592799 2.7061069 2.8570778 3.0353307999999997 3.1955204 2.6456461 2.4937207999999997 2.6466227000000004 2.7978023999999997 2.9705305 3.1256025000000003 2.6606252 2.5005229 2.6442242 2.8029289 2.9580889 3.091644 2.7107617999999998 2.5483375 2.6772782999999998 2.8334861 2.9706799999999998 3.0816429 2.7261961 2.5696769 2.684073 2.8261056 2.9448090000000002 3.0362654 2.6537732999999997 2.5120723 2.607285 2.7262452 2.8216598 2.8941103999999997 2.4867383999999997 2.3645568 2.4282765 2.5110996 2.5784369 2.627965 2.2635658 2.1534693 2.1642599 2.2020487999999996 2.2347933999999996 2.2563028 2.0171535 1.9056504 1.8705759999999998 1.8486688000000002 1.8422228999999999 1.8322479 1.7739383999999998 1.6513784 1.5781322 1.5024418 1.4565846000000002 1.4139339 1.552454 1.4133511 1.3047963 1.1981857 1.1164896 1.0453336 1.3501097 1.1983918 1.0655121 0.94358891 0.83441234 0.74702108 1.1590612 0.99751902 0.86586338 0.72947919 0.60923392 0.51945448 0.99040532 0.81219 0.68223786 0.54480225 0.43104506 0.35053355 0.7908814 0.63336569 0.50692856 0.38595855 0.29122639 0.22596738 0.60432613 0.47458664 0.34286401 0.249033 0.18137184 0.13319708 0.34278196 0.21104074 0.13323104 0.09432263699999999 0.063906491 0.23878972 0.12216266 0.043904483 0.024825952999999998 0.011722788 0.082090549 -0.0068082511 -0.031968862 -0.028597519 0.067760229 -0.014883086 -0.07024952 -0.060978755 0.019125432 -0.065041393 -0.07932134 -0.014924854 -0.0542024 -0.027761772 0.0035218969 -0.15637015 -0.16224276 -0.16654997 -0.16958466 -0.17164476 -0.17299393 -0.17384106 -0.17434196 -0.17460206 -0.18012951 -0.18636152 -0.19091444 -0.19410846 -0.19627549 -0.19769777 -0.19859444 -0.19912685 -0.19940455 -0.19767548 -0.20378563 -0.20817973 -0.21121666 -0.21325935 -0.21459259 -0.21542975 -0.21592499 -0.21618235 -0.21256107 -0.21824588 -0.22219162 -0.22482896 -0.22656031 -0.22766721 -0.22834799 -0.22874194 -0.22894265 -0.22792378 -0.23302574 -0.23634587 -0.23842558 -0.23971434 -0.24049215 -0.24094132 -0.24118315 -0.24129751 -0.24578673 -0.25020805 -0.25280237 -0.25423056 -0.25499222 -0.25537252 -0.25553855 -0.25559282 -0.25560054 -0.26681092 -0.27044234 -0.2722435 -0.27296162 -0.27314597 -0.27308953 -0.2729443 -0.27279294 -0.27268371 -0.29048663 -0.29321188 -0.29415688 -0.2941286 -0.29371533 -0.2932128 -0.29275468 -0.29239878 -0.29217437 -0.31579933 -0.31749362 -0.31756714 -0.31680194 -0.315815 -0.31489691 -0.31415555 -0.31362003 -0.31329638 -0.34184304 -0.34249917 -0.34180927 -0.34041411 -0.33895037 -0.33770132 -0.33674592 -0.3360813 -0.33568978 -0.36770114 -0.36757031 -0.3663891 -0.36460042 -0.36284879 -0.36141443 -0.36035293 -0.35963458 -0.3592189 -0.39248791 -0.39209786 -0.39084235 -0.38901418 -0.38724655 -0.38582587 -0.38479841 -0.38411874 -0.38373318 -0.41580141 -0.41579813 -0.41494581 -0.41348428 -0.4120158 -0.41083494 -0.40999702 -0.40945727 -0.4091585 -0.43797794 -0.4388735 -0.43883818 -0.43810928 -0.43723172 -0.43650514 -0.43600485 -0.43570089 -0.43554246 -0.45993707 -0.46197012 -0.46301228 -0.4632602 -0.46318108 -0.46307042 -0.46302363 -0.46303135 -0.46305642 -0.48281252 -0.48599929 -0.48819044 -0.48950133 -0.4903155 -0.4909032 -0.4913747 -0.49173868 -0.49197143 -0.50759774 -0.51186633 -0.51512414 -0.5174526 -0.5191496 -0.52044713 -0.52145082 -0.52218205 -0.52262872 -0.53501546 -0.5402348 -0.54441428 -0.54764676 -0.55015743 -0.55212694 -0.55364549 -0.55473495 -0.55539215 -0.56535482 -0.57142228 -0.57640505 -0.58043635 -0.58368534 -0.58628201 -0.58828831 -0.58972007 -0.59057778 -0.59854186 -0.605434 -0.61118132 -0.61596811 -0.61991882 -0.62311435 -0.62558788 -0.62734461 -0.6283915 -0.63432014 -0.64209348 -0.64864796 -0.65421182 -0.65887117 -0.66266209 -0.66558969 -0.6676544 -0.66887689 -0.67242718 -0.68116611 -0.68859947 -0.69498545 -0.70037341 -0.70476246 -0.70813125 -0.7104845 -0.71186346 -0.71258277 -0.72231829 -0.73065495 -0.73786533 -0.74397278 -0.74893934 -0.75272626 -0.75534344 -0.75685966 -0.75413674 -0.76476473 -0.77390504 -0.78184712 -0.78860033 -0.79409266 -0.79826164 -0.80111742 -0.80275536 -0.79533362 -0.80656278 -0.81624448 -0.82470405 -0.83195627 -0.8378917 -0.84240294 -0.84548378 -0.8472417 -0.83239412 -0.84375751 -0.85356063 -0.86220932 -0.86975217 -0.87603229 -0.88086176 -0.88417995 -0.88607693 -0.85878325 -0.86977005 -0.87921184 -0.88766086 -0.89525276 -0.90177679 -0.90692103 -0.91052151 -0.9126057 -0.86501253 -0.87537253 -0.88416052 -0.89213264 -0.89958256 -0.90628141 -0.91177022 -0.91572762 -0.91807139 -0.8389585 -0.84914434 -0.85764605 -0.8653723 -0.87281221 -0.87980318 -0.8857764 -0.89024013 -0.89295852 -0.7650274 -0.77662361 -0.78636456 -0.79519814 -0.80366981 -0.81170261 -0.8187145 -0.82409179 -0.82744199 -0.61872232 -0.63463765 -0.64829397 -0.66080672 -0.67258441 -0.68346006 -0.69284397 -0.70005614 -0.70458055 -0.36196932 -0.38546306 -0.4060455 -0.42520639 -0.44315988 -0.45938915 -0.47311273 -0.48354909 -0.49007341 0.046234332 0.01434122 -0.01448445 -0.042010575999999994 -0.068150818 -0.09176094800000001 -0.11158593 -0.12656555 -0.13589293 0.62522584 0.58994901 0.55608505 0.52200514 0.48843682 0.4575417 0.43140045 0.41159821 0.39926296 1.3455899 1.3191338 1.2897162 1.256126 1.2202848 1.1857985 1.1559283999999999 1.1330316 1.1186893999999998 2.1141012000000003 2.1129107000000005 2.1021905 2.0806869999999997 2.0520201 2.0214927 1.9936866000000002 1.9718322 1.9579772000000002 2.7873919 2.8251839 2.8469152 2.8500577999999996 2.8397346000000003 2.8227642000000004 2.8048534 2.7898679 2.7801093999999997 3.2187095 3.2997341000000002 3.3575573 3.3908443 3.4054480000000003 3.4087398 3.4067019999999997 3.4032004000000002 3.4004083 3.3675379999999997 3.4784162000000003 3.5620464999999997 3.6189342000000004 3.6550732000000004 3.6774394999999998 3.6912705999999997 3.6996765 3.7042462999999994 3.339597 3.4601092 3.5529008 3.6201079 3.6675477 3.7013495 3.7255905 3.7422452000000006 3.7520513999999996 3.2623057 3.3740256 3.4596522000000003 3.5226227999999997 3.5686866999999998 3.6032953 3.6295295 3.6483464 3.6596982000000002 3.2081127 3.2999012000000003 3.3674517 3.4152009 3.4492097000000004 3.4748101000000005 3.4947214 3.5093845999999997 3.5183532 3.1747593999999997 3.2438404999999997 3.2895625 3.3169858 3.3328437999999996 3.3430313999999997 3.3506818 3.3564448 3.3600006000000002 3.1085773 3.1576202 3.1831775 3.1903872000000004 3.1867793 3.1792814999999996 3.1720622000000005 3.1666179 3.1632377999999997 2.9482422 2.9806564 2.9895002999999996 2.9792892999999996 2.9580936 2.9339128 2.9121995 2.8956394 2.8853242000000003 2.6630845 2.6799705 2.6746277999999997 2.6502154 2.6147412999999995 2.5769012000000004 2.5432332000000004 2.5174793999999996 2.5014379 2.2695800999999998 2.2704389 2.2526245 2.2173657 2.1719046000000004 2.1249599 2.0835602 2.0520012 2.0324120999999997 1.8215363000000002 1.8063527 1.7780855 1.7357821 1.6853148999999998 1.6347171999999999 1.5907704 1.5576415000000001 1.5372578000000001 1.3807383 1.3519379999999999 1.316559 1.2715468 1.2211243 1.1721514 1.1305623 1.099812 1.0811826 0.9957329 0.95837998 0.92038774 0.87686568 0.83050001 0.78688437 0.75088847 0.72499621 0.70965642 0.69019473 0.65069401 0.6145494 0.57564521 0.53552079 0.49877834 0.46937633 0.44891232 0.43712091 0.46423584 0.42817503 0.39704609 0.36425805 0.33074215 0.30052745 0.27696425 0.26104629 0.25210324 0.30349094 0.27431095 0.24940489 0.22264028 0.19485807 0.16981356 0.15049362 0.13760838 0.13043861 0.189908 0.16845396 0.14916527 0.12716945 0.1036917 0.082235917 0.065498486 0.054205999000000005 0.047862455 0.1082165 0.09365809 0.078600585 0.059731081 0.03908588 0.019872844 0.0044794977000000005 -0.006194144499999999 -0.012307525 0.04794082 0.039046793999999996 0.027291133999999998 0.010542451999999999 -0.0084377676 -0.026375055 -0.041137576 -0.05166328 -0.057797194 0.0023724139 -0.0021229237 -0.010320514 -0.024535163999999998 -0.041993156 -0.05917275 -0.073633417 -0.084147125 -0.09035220699999999 -0.032865345 -0.034927681 -0.038806766 -0.048798651 -0.063319787 -0.079001978 -0.09297882 -0.10341616 -0.10965456 -0.060830668 -0.062863424 -0.06325084 -0.06744858599999999 -0.076730147 -0.088828996 -0.10078567 -0.1103885 -0.11638002 -0.081868455 -0.086982146 -0.08759819 -0.08678050300000001 -0.08913663 -0.09516388199999999 -0.10293202 -0.11011654 -0.11501111 -0.08787626 -0.10279785 -0.10952771 -0.11039641 -0.10702422 -0.10593987 -0.10755248 -0.1108519 -0.11371508 -0.05737178 -0.09956613199999999 -0.11663082 -0.13078855 -0.13051169 -0.12573719 -0.12165643 -0.11998563 -0.12018192 -0.026489824 -0.069454685 -0.097987831 -0.13076474 -0.14332902 -0.14769271 -0.14357913 -0.13944608 -0.13745719 -0.089390278 -0.085289672 -0.12019198 -0.13766672 -0.15739033 -0.16116035 -0.15880996 -0.15737665 -0.16358775 -0.1597257 -0.17858672 -0.18074378 -0.1797792 -0.17721909 -0.25657254 -0.24227192 -0.23020327 -0.22506107 -0.17468216 -0.17460203 -0.17434193 -0.17384109 -0.17299388 -0.17164481 -0.16958469 -0.16654997 -0.19949034 -0.19940455 -0.19912691 -0.19859441 -0.1976978 -0.19627546 -0.19410852 -0.19091438 -0.21626149 -0.21618231 -0.21592495 -0.21542968 -0.21459267 -0.21325947 -0.2112167 -0.20817976 -0.2290038 -0.22894274 -0.22874197 -0.22834794 -0.2276673 -0.22656041 -0.22482899 -0.22219169 -0.24133062 -0.2412976 -0.24118313 -0.24094135 -0.24049219 -0.23971426 -0.23842549 -0.23634575 -0.25559887 -0.25560054 -0.25559285 -0.25553861 -0.25537264 -0.25499228 -0.25423053 -0.2528024 -0.27264425 -0.27268374 -0.27279297 -0.27294427 -0.27308953 -0.27314612 -0.27296168 -0.27224347 -0.29209769 -0.29217449 -0.29239872 -0.29275453 -0.29321292 -0.29371542 -0.29412851 -0.29415706 -0.31318808 -0.31329641 -0.31362 -0.31415561 -0.314897 -0.31581515 -0.31680214 -0.31756717 -0.33556008 -0.33568949 -0.33608127 -0.33674577 -0.33770144 -0.33895057 -0.34041432 -0.34180936 -0.35908318 -0.35921896 -0.35963458 -0.36035299 -0.36141434 -0.36284891 -0.3646003 -0.36638874 -0.38360804 -0.38373306 -0.38411868 -0.38479841 -0.38582587 -0.38724652 -0.38901389 -0.39084205 -0.40906277 -0.40915823 -0.40945721 -0.40999717 -0.41083509 -0.41201583 -0.41348433 -0.41494572 -0.43549359 -0.43554258 -0.43570083 -0.43600485 -0.43650505 -0.43723148 -0.43810937 -0.43883789 -0.46306801 -0.46305609 -0.46303123 -0.46302333 -0.46307024 -0.46318141 -0.46325991 -0.46301231 -0.49205151 -0.49197114 -0.49173847 -0.49137455 -0.49090317 -0.49031562 -0.48950085 -0.48819014 -0.52277946 -0.52262884 -0.52218217 -0.52145112 -0.52044713 -0.51914966 -0.51745254 -0.51512396 -0.55561173 -0.55539197 -0.55473518 -0.55364579 -0.5521273 -0.55015779 -0.54764688 -0.5444144 -0.59086335 -0.59057772 -0.58971936 -0.58828837 -0.58628207 -0.58368564 -0.58043677 -0.57640523 -0.62873906 -0.62839168 -0.62734449 -0.62558812 -0.62311447 -0.6199187 -0.61596829 -0.61118156 -0.6692794 -0.66887647 -0.66765511 -0.66558969 -0.66266215 -0.65887105 -0.65421188 -0.64864814 -0.71231568 -0.71186256 -0.7104848 -0.70813137 -0.70476222 -0.70037389 -0.69498569 -0.68860006 -0.75735384 -0.75685978 -0.75534368 -0.75272626 -0.74893963 -0.74397248 -0.73786521 -0.73065519 -0.80328524 -0.80275524 -0.8011173 -0.79826164 -0.79409266 -0.78859973 -0.78184712 -0.77390456 -0.84780812 -0.84724176 -0.84548354 -0.8424027 -0.8378917 -0.83195603 -0.82470393 -0.81624371 -0.88668871 -0.88607687 -0.88417995 -0.8808617 -0.87603307 -0.86975175 -0.8622086 -0.85356128 -0.9132812 -0.91260529 -0.91052115 -0.90692121 -0.90177655 -0.89525282 -0.88766044 -0.87921196 -0.91884184 -0.91807181 -0.91572756 -0.91177034 -0.90628207 -0.89958262 -0.8921324 -0.88416058 -0.89386749 -0.89295888 -0.89024043 -0.88577598 -0.8798033 -0.87281281 -0.86537236 -0.85764569 -0.82857645 -0.82744217 -0.82409191 -0.81871516 -0.81170261 -0.80366975 -0.79519796 -0.78636384 -0.70612109 -0.70458055 -0.7000562 -0.69284433 -0.68346071 -0.67258424 -0.66080654 -0.64829385 -0.49229339 -0.4900735 -0.48354939 -0.473113 -0.45938918 -0.44316012 -0.42520636 -0.40604562 -0.13906039 -0.13589329 -0.12656567 -0.11158611 -0.091761485 -0.068151042 -0.042010635 -0.014484465 0.39507484 0.39926282 0.41159797 0.43139991 0.45754156 0.48843664 0.5220052 0.55608499 1.1138108999999998 1.1186897 1.1330316 1.1559281000000001 1.1857984 1.2202848 1.2561263999999999 1.2897156 1.9532422999999999 1.9579779 1.9718305 1.9936851999999998 2.0214913 2.0520201 2.0806861 2.1021886000000003 2.776741 2.7801087000000004 2.7898664 2.8048515 2.8227634 2.8397341 2.8500582999999997 2.8469136 3.3993797 3.4004083 3.4031994 3.4067027999999997 3.4087403 3.4054477 3.3908453 3.3575583 3.7057045 3.7042464999999996 3.699677 3.6912699 3.6774397000000003 3.6550733999999996 3.6189337 3.5620472000000003 3.7552941 3.7520528 3.7422457000000002 3.7255937999999995 3.7013502000000003 3.6675477 3.6201077000000006 3.5528996 3.6634858 3.6596977999999996 3.6483476 3.6295302000000005 3.6032951 3.5686877 3.5226233000000002 3.4596524 3.5213585 3.5183525 3.5093851000000003 3.4947209000000004 3.4748104 3.4492099 3.4152013999999995 3.3674513999999998 3.3611866999999997 3.3600006000000002 3.3564443999999996 3.3506824999999996 3.3430321000000003 3.332844 3.316987 3.2895637000000004 3.1620803 3.1632395 3.1666174 3.1720612 3.179281 3.1867785 3.1903867999999997 3.1831775 2.8818127999999996 2.8853237999999997 2.8956385 2.9121992999999997 2.9339128 2.9580933999999997 2.9792881 2.9894991 2.4959898 2.5014365 2.5174792 2.5432324 2.5769 2.6147408 2.650214 2.6746267999999995 2.0257758999999997 2.0324116 2.0520017 2.08356 2.1249595 2.1719041 2.2173653 2.2526245 1.5303879999999999 1.5372576999999998 1.5576404 1.5907706 1.6347166000000002 1.6853143 1.7357812 1.7780851000000002 1.074959 1.0811821000000001 1.0998118000000001 1.1305618 1.1721511999999998 1.2211239 1.2715468 1.3165599 0.70459557 0.70965636 0.72499609 0.75088829 0.78688383 0.83050007 0.87686551 0.92038804 0.43329185 0.43712085 0.44891226 0.46937668 0.4987784 0.53552079 0.57564539 0.61455011 0.24924091 0.25210336 0.26104638 0.27696446 0.30052757 0.3307423 0.36425838 0.39704642 0.1281556 0.13043889 0.13760865 0.15049392 0.16981384 0.19485825 0.22264048 0.24940512 0.045832247 0.047862455 0.054205939 0.06549879900000001 0.082236141 0.10369185 0.12716961 0.14916559 -0.014282613999999999 -0.012307495 -0.006194174300000001 0.0044797361 0.019872844 0.039086178 0.059731215 0.078601003 -0.059791475999999996 -0.057797283 -0.05166328 -0.041137516 -0.026374996 -0.0084376335 0.010542631 0.027291417000000002 -0.09238117900000001 -0.090352297 -0.084146976 -0.073633432 -0.059172109 -0.041992947 -0.02453512 -0.01032041 -0.11170918 -0.10965472 -0.10341631 -0.092978835 -0.079002008 -0.06331980200000001 -0.048798651 -0.038806722 -0.11839749 -0.11638001 -0.11038858 -0.1007859 -0.088829264 -0.076730251 -0.067448705 -0.06325112299999999 -0.1167357 -0.11501119 -0.11011671 -0.10293223 -0.09516421 -0.08913694300000001 -0.08678060800000001 -0.08759836900000001 -0.11481705 -0.11371531 -0.11085208 -0.1075528 -0.10594007 -0.10702452 -0.11039698 -0.10952808 -0.1204433 -0.12018196 -0.11998577 -0.12165657 -0.12573759 -0.13051195 -0.13078883 -0.11663097 -0.13687259 -0.13745737 -0.13944656 -0.14357987 -0.14769295 -0.14332968 -0.1307655 -0.097988188 -0.15674929 -0.15737674 -0.15881017 -0.16116107 -0.15739107 -0.1376678 -0.12019268 -0.085290127 -0.17636357 -0.17721918 -0.17977974 -0.18074456 -0.17858747 -0.15972644 -0.16358791 -0.22384176 -0.22506103 -0.23020393 -0.24227245 -0.25657362 -0.16224273 -0.15637016 -0.14863729 -0.13867578 -0.12607762 -0.11055132 -0.092139766 -0.18636155 -0.18012954 -0.17188391 -0.16116972 -0.14745726 -0.13034229 -0.10981049 -0.086449742 -0.20378548 -0.19767541 -0.18945843 -0.1785693 -0.16432181 -0.14615187 -0.1239576 -0.098465249 -0.21824583 -0.21256123 -0.20466268 -0.19385515 -0.17927335 -0.16017731 -0.13640833 -0.10885276 -0.23302588 -0.22792374 -0.22045587 -0.20978017 -0.19484808 -0.17482729 -0.14953186 -0.11988801 -0.25020802 -0.24578674 -0.23881613 -0.22833979 -0.21336456 -0.19306764 -0.1670289 -0.13569981 -0.27044255 -0.26681089 -0.26051477 -0.2507976 -0.23704134 -0.21846303 -0.19399866 -0.16213633 -0.29321182 -0.29048654 -0.28532329 -0.27759507 -0.26744089 -0.25430021 -0.23583513 -0.20612395 -0.31749368 -0.31579912 -0.3123579 -0.30813992 -0.30454007 -0.30164778 -0.29570898 -0.27381945 -0.34249905 -0.34184298 -0.34048283 -0.34077176 -0.34584662 -0.35716555 -0.37066585 -0.36756 -0.36757028 -0.36770082 -0.36818045 -0.37269413 -0.38624471 -0.41250515 -0.4489105 -0.47736305 -0.39209759 -0.39248753 -0.39388847 -0.40088552 -0.42000234 -0.45690063 -0.50936943 -0.55457413 -0.41579813 -0.41580102 -0.4168624 -0.42366573 -0.44290483 -0.47882262 -0.51793402 -0.53695434 -0.43887329 -0.43797767 -0.43766674 -0.44178623 -0.45520645 -0.47797781 -0.49351394 -0.49895674 -0.46196997 -0.45993701 -0.45785192 -0.45817363 -0.4635075 -0.47177902 -0.47487622 -0.47845966 -0.48599926 -0.48281232 -0.47913405 -0.47615606 -0.47485915 -0.47337741 -0.47193849 -0.47580126 -0.51186645 -0.5075978 -0.50265032 -0.49750051 -0.49230212 -0.48597118 -0.48182511 -0.48426956 -0.5402351 -0.53501511 -0.52894932 -0.52233678 -0.51518017 -0.50698382 -0.50145292 -0.50202239 -0.57142246 -0.565355 -0.55824888 -0.55033606 -0.54181403 -0.53266418 -0.52594602 -0.52510726 -0.60543424 -0.59854203 -0.59041309 -0.58123004 -0.57128942 -0.56086648 -0.55260628 -0.55027026 -0.64209366 -0.6343205 -0.62512016 -0.61461699 -0.60313582 -0.59108055 -0.58107328 -0.57738012 -0.68116593 -0.6724273 -0.66208285 -0.65018272 -0.6370002 -0.62309301 -0.6114074 -0.60711223 -0.72231817 -0.71258336 -0.70107913 -0.68776757 -0.67278761 -0.65684384 -0.64375943 -0.63967335 -0.76476461 -0.75413698 -0.74160308 -0.72705209 -0.71039855 -0.69231564 -0.67811155 -0.67497098 -0.80656266 -0.79533356 -0.78210092 -0.76672971 -0.7489723 -0.72890705 -0.71366668 -0.71207064 -0.84375763 -0.83239442 -0.81897479 -0.80343539 -0.78562951 -0.76432317 -0.74781573 -0.74794316 -0.86976969 -0.85878247 -0.84571493 -0.83068639 -0.81421155 -0.7931996 -0.7751556 -0.77654696 -0.87537169 -0.86501318 -0.85252637 -0.83841574 -0.82437968 -0.80621904 -0.78635216 -0.78783566 -0.84914416 -0.83895838 -0.8265546 -0.81291497 -0.80162513 -0.78842366 -0.76662761 -0.76594198 -0.77662343 -0.76502764 -0.75089288 -0.73542732 -0.72485685 -0.71604276 -0.6920926 -0.68589103 -0.63463771 -0.61872202 -0.59935063 -0.5782553 -0.56374449 -0.55441219 -0.52585804 -0.5100472 -0.38546312 -0.36196917 -0.33403736 -0.30399716 -0.28116709 -0.2621482 -0.22469537 -0.1894819 0.014341533 0.046234697000000005 0.082615487 0.12084133 0.15599319 0.19708164 0.24917178 0.31045285 0.58994889 0.62522584 0.66337299 0.70489788 0.75754839 0.82309663 0.88427168 0.96913248 1.3191335 1.3455896 1.3720335 1.4065199 1.4652942 1.5268073 1.5846025 1.7007897 2.1129107000000005 2.1141009 2.1138793999999996 2.1283002 2.1613197 2.1845002 2.2018828 2.3013542 2.8251846 2.7873909 2.7455802000000005 2.712332 2.6877122000000004 2.6371857999999997 2.6076759999999997 2.6587832000000002 3.2997339 3.2187104 3.1252816 3.0302355 2.9337744999999997 2.8215804 2.7385869 2.8046229 3.4784144999999995 3.3675370000000004 3.2374763 3.0962264999999998 2.9439037 2.7935293 2.6718428 2.7950435000000002 3.4601087999999995 3.3395987000000003 3.1955221000000003 3.0353327 2.8570773999999997 2.7061076 2.5592802000000003 2.7024376 3.3740233999999996 3.2623083999999998 3.125603 2.9705317000000004 2.7978015 2.6466215 2.4937193 2.6456461 3.2999017 3.2081112999999997 3.0916426 2.9580877 2.8029268 2.6442229999999998 2.5005219 2.6606259 3.2438395 3.1747582000000003 3.0816402000000003 2.9706792999999996 2.8334837000000004 2.6772764 2.5483358 2.7107634999999997 3.157619 3.1085742 3.0362656 2.9448058999999995 2.8261051 2.6840711 2.5696754 2.7261961 2.9806566 2.9482418999999997 2.8941102 2.8216572 2.7262456000000004 2.6072843 2.5120726 2.6537726000000004 2.6799698 2.663084 2.6279624 2.5784369 2.5110989 2.4282763 2.3645563 2.4867382 2.270438 2.2695806 2.2563026 2.2347937 2.2020492999999997 2.1642609 2.1534698 2.2635658 1.8063525000000002 1.8215383 1.8322474999999998 1.842224 1.8486691000000002 1.8705764999999999 1.9056516 2.0171544999999997 1.3519386 1.3807392 1.4139342 1.4565854999999999 1.5024426000000002 1.5781333 1.6513805000000001 1.7739396 0.95838034 0.99573332 1.045334 1.1164906 1.1981861999999999 1.3047961000000001 1.4133518999999999 1.5524547 0.65069437 0.69019526 0.74702144 0.83441335 0.94358969 1.0655125 1.1983921999999998 1.3501096000000001 0.42817539 0.46423632 0.51945508 0.60923427 0.72947955 0.86586368 0.99751955 1.1590616000000002 0.27431118 0.3034912 0.35053366 0.43104511 0.54480249 0.68223751 0.81218958 0.99040526 0.16845426 0.18990815 0.22596742 0.29122627 0.38595867 0.50692868 0.63336527 0.79088145 0.09365828300000001 0.10821658 0.13319705 0.18137187 0.24903293 0.34286374 0.47458649 0.60432559 0.039046912999999996 0.047940805999999996 0.063906431 0.09432245800000001 0.13323076 0.21104045 0.34278089 -0.0021228939 0.0023723692 0.011722624 0.0248257 0.043904461 0.12216243 0.23878974 -0.034927636 -0.03286545 -0.028597489 -0.031969115 -0.006808496999999999 0.082089752 -0.06286357299999999 -0.060830891 -0.060978919000000006 -0.070249729 -0.014882982 0.067760184 -0.086982474 -0.08186838 -0.079321459 -0.06504154200000001 0.019124635 -0.10279797 -0.08787623 -0.05420243 -0.014925063 -0.099566221 -0.057372242000000004 0.0035211593 -0.0277621 -0.069454484 -0.02648963 -0.089390472 
VonMises3D 1 2975 float
0.0 0.0 0.0 0.0 0.0 0.0 0.0 0.0 0.0 0.0 0.0 0.0 0.0 0.013640029 8.6297983e-12 0.1000572 0.56106329 0.21089162 1.4945302 3.8883786 1.9599116 7.1222414999999994 14.134398000000001 7.5313897 20.901722 36.370323 19.061359 46.082882 74.63691700000001 37.261551000000004 83.340492 129.57637 60.606899 129.51912 196.61052 85.653587 178.17342 266.34766 108.57347 222.27261000000001 328.44876 126.99708999999999 257.49844 376.82565 141.01459 283.81094 412.82675 162.01856999999998 305.30075 450.0874 304.44442999999995 367.92059 525.3262900000001 886.81073 761.62146 691.11469 2451.7368 2019.6793 937.8920300000001 5827.3979 4675.0732 1116.3252 8746.8252 1354.2213 0.0 0.0 0.0 0.0 0.0 0.0 0.0 0.0 0.0 0.0 0.0 0.0 0.0 0.0 0.0 0.0 0.0 0.0 0.0 0.0 0.0 0.0 0.0 0.0 0.0 0.0008698125 0.0027159653000000004 0.0015795634 0.0018715321 0.0033661155 0.0037893602000000004 0.0040289531 0.08504463699999999 0.18061934 0.22050932 0.16432035 0.032428514 0.11072174 0.19678319 0.21973281 1.221889 1.7000822 1.7400929 1.2789688 0.43724638 0.49273881 1.1982043 1.5519546999999998 6.1940227 7.3943772 7.0439572 5.0954337 1.955043 1.4705961 4.191699 5.752112400000001 19.643316 21.79748 20.000999 14.309307999999998 5.7427888 3.4920917 10.954603 15.443545 47.08923 50.258362 45.17783 32.069065 13.118093 7.032756299999999 23.370048999999998 33.414879 92.971436 97.217438 86.41851 60.862868999999996 24.910444000000002 12.564706 42.717106 61.394588 158.07117 163.58025 144.38128999999998 100.51437 40.39901 20.442017 68.683159 98.542854 237.1019 243.84251 212.81941 318.43887 325.29291 388.86215 392.73523 441.3013 439.75861 478.93917999999996 470.29391 545.95087 549.37366 877.1514900000001 1079.5297 1922.8038 2735.0422 4105.2813 6216.79 7499.2559 11942.098999999998 11144.743 18846.389 0.0 0.0 0.0 0.0 0.0 0.0 0.0 0.0 0.0 0.0 0.0 0.0 0.0 0.0 0.0 0.0 0.0 0.0 0.0 0.0 0.0 0.0 0.0 0.0 0.0 0.0 0.0 0.0041403691 0.0041630059 0.0041289921 0.004071054 0.004000294000000001 0.0039257049 0.0038588033 0.0038059389000000003 0.0037722043 0.22238557 0.21776834 0.20928028 0.19922812 0.18905757 0.17967409 0.17166282 0.16555572 0.16174541 1.6187376 1.5739911 1.4919392 1.3950615 1.2976164 1.2084268 1.1333808 1.0766364 1.0413014999999999 6.2761564000000005 6.1589975 5.810293700000001 5.384859099999999 4.952085 4.555228700000001 4.2217765 3.9705424 3.8144602999999995 17.192369 17.126066 16.166521 14.927419 13.644979000000001 12.461045 11.464688 10.714172999999999 10.248384 37.563751 37.714741 35.736484999999995 32.956093 30.026474 27.299332 24.996704 23.260721 22.183352 69.320633 69.837952 66.359398 61.182857999999996 55.639423 50.436932 46.027824 42.698807 40.631962 111.35576 112.31531000000001 106.86078 98.561539 89.542511 81.014473 73.759865 68.27310899999999 64.864525 0.0 0.0 0.0 0.0 0.0 0.0 0.0 0.0 0.0 0.0 0.0 0.0 0.0 0.0 0.0 0.0 0.0 0.0 0.0 0.0 0.0 0.0 0.0 0.0 0.0037607178 0.0037722043 0.0038059375 0.0038588031 0.0039257049 0.004000295 0.004071055 0.0041289921 0.1604484 0.16174541 0.16555569 0.17166281 0.17967415 0.18905762 0.19922815 0.20928033 1.0293196 1.0413013 1.0766361999999998 1.1333805000000001 1.2084267 1.2976165000000002 1.3950619 1.4919393 3.7615182000000003 3.8144593 3.970542 4.2217765 4.555228700000001 4.952086 5.38486 5.8102956 10.090501 10.248384 10.714172 11.464688 12.461047 13.644984 14.927425 16.166523 21.818197 22.18335 23.260723000000002 24.996704 27.299337 30.026476000000002 32.9561 35.736492 39.931461 40.631969 42.698818 46.027832000000004 50.436939 55.63943100000001 61.182880000000004 66.359421 63.70923199999999 64.864525 68.27310200000001 73.759865 81.014465 89.542519 98.561554 106.8608 0.0 0.0 0.0 0.0 0.0 0.0 0.0 0.0 0.0 0.0 0.0 0.0 0.0 0.0 0.0 0.0 0.0 0.0 0.0 0.0 0.0 0.0 0.0 0.0 0.0 0.0 0.0 0.0041630063 0.0041403691 0.0040289531 0.0037893595 0.0033661157 0.0018715319 0.001579562 0.0027159646 0.00086981239 0.21776834 0.22238562 0.21973285 0.19678319 0.11072174 0.032428532999999996 0.16432041 0.22050934 0.18061931 1.5739913 1.6187379 1.5519546999999998 1.1982043 0.49273881 0.4372465 1.2789692 1.7400930000000001 1.7000822 6.158999 6.2761564000000005 5.752112400000001 4.1916995 1.4705957 1.9550432 5.0954350999999996 7.0439582 7.3943782 17.126072 17.192373 15.443545 10.954602000000001 3.4920917 5.7427907 14.309311 20.000999 21.797482000000002 37.714745 37.563755 33.414879 23.370048999999998 7.0327568 13.118093 32.069077 45.177837 50.258358 69.837959 69.32064100000001 61.3946 42.71711 12.564713000000001 24.910446 60.862868999999996 86.418533 97.217438 112.31533999999999 111.35578000000001 98.54287 68.683174 20.44203 40.39901 100.51438 144.38128999999998 163.58025 212.81944 243.84247000000002 325.29291 392.73517000000004 439.75858 470.29385 549.37366 1079.5299 2735.0422 6216.7925 11942.098999999998 18846.389 0.0 0.0 0.0 0.0 0.0 0.0 0.0 0.0 0.0 0.0 0.0 0.0 0.0 0.0 0.0 0.0850446 0.013640023000000001 0.0 0.0 1.2218888 0.56106311 0.10005718 8.629796499999999e-12 6.1940217 3.8883772000000003 1.4945298 0.21089162 19.643314 14.134397 7.122241000000001 1.9599116 47.089233 36.370323 20.901714000000002 7.531388799999999 92.971436 74.636909 46.082874 19.061354 158.07118 129.57635 83.340492 37.261542999999996 237.10187000000002 196.6105 129.5191 60.606899 318.4389 266.34763 178.17342 85.653587 388.86221 328.44872999999995 222.27261000000001 108.57347 441.3013 376.82565 257.49847 126.99708999999999 478.93924000000004 412.82675 283.811 141.01459 545.95099 450.08743 305.30075 162.01859 877.15155 525.32623 367.92068 304.44449 1922.8042 691.11475 761.62128 886.81085 4105.2817 937.8923300000001 2019.6799 2451.7366 7499.2559 1116.3254 4675.0732 5827.3984 11144.743999999999 1354.2214 8746.8252 0.0 0.0 0.0 0.0 0.0 0.0 0.0 0.0 0.0 0.0 0.0 0.0 0.0 0.0 0.0 0.0 0.0 0.0 0.0 0.0 0.0 0.0 0.0 0.0 0.0 0.0 0.0 0.0 0.0 0.0 0.0 0.0 0.0 0.0 0.0 0.0 0.0 0.0 0.0 0.0 0.0 0.0 0.0 0.0 0.0 0.0 0.0 0.0 0.0 0.0 0.0 0.0 0.0 0.0 0.0 0.0 0.0 0.0 0.0 0.0 0.0 0.0 0.0 0.0 0.0 0.0 0.0 0.0 0.0 0.0 0.0 0.0 0.0 0.0 0.0 0.0 0.0 0.0 0.0 0.0 0.0 0.0 0.0 0.0 0.0 0.0 0.0 0.0 0.0 0.0 0.0 0.0 0.0 0.0 0.0 0.0 0.0 0.0 0.0 0.0 0.0 0.0 0.0 0.0 0.0 0.0 0.0 0.0 0.0 0.0 0.0 0.0 0.0 0.0 0.0 0.0 0.0 0.0 0.0 0.0 0.0 0.0 0.0 0.0 0.0 0.0 0.0 0.0 0.0 0.0 0.0 0.0 0.0 0.0 0.0 0.0 0.0 0.0 0.0 0.0 0.0 0.0 0.0 0.0 0.0 0.0 0.0 0.0 0.0 0.0 0.0 0.0 0.0 0.0 0.0 0.0 0.0 0.0 0.0 0.0 0.0 0.0 0.0 0.0 0.0 0.0 0.0 0.0 0.0 0.0 0.0 0.0 0.0 0.0 0.0 0.0 0.0 0.0 0.0 0.0 0.0 0.0 0.0 0.0 0.0 0.0 0.0 0.0 0.0 0.0 0.0 0.0 0.0 0.0 0.0 0.0 0.0 0.0 0.0 0.0 0.0 0.0 0.0 0.0 0.0 0.0 0.0 0.0 0.0 0.0 0.0 0.0 0.0 0.0 0.0 0.0 0.0 0.0 0.0 0.0 0.0 0.0 0.0 0.0 0.0 0.0 0.0 0.0 0.0 0.0 0.0 0.0 0.0 0.0 0.0 0.0 0.0 0.0 0.0 0.0 0.0 0.0 0.0 0.0 0.0 0.0 0.0 0.0 0.0 0.0 0.0 0.0 0.0 0.0 0.0 0.0 0.0 0.0 0.0 0.0 0.0 0.0 0.0 0.0 0.0 0.0 0.0 0.0 0.0 0.0 0.0 0.0 0.0 0.0 0.0 0.0 0.0 0.0 0.0 0.0 0.0 0.0 0.0 0.0 0.0 0.0 0.0 0.0 0.0 0.0 0.0 0.0 0.0 0.0 0.0 0.0 0.0 0.0 0.0 0.0 0.0 0.0 0.0 0.0 0.0 0.0 0.0 0.0 0.0 0.0 0.0 0.0 0.0 0.0 0.0 0.0 0.0 0.0 0.0 0.0 0.0 0.0 0.0 0.0 0.0 0.0 0.0 0.0 0.0 0.0 0.0 0.0 0.0 0.0 0.0 0.0 0.0 0.0 0.0 0.0 0.0 0.0 0.0 0.0 0.0 0.0 0.0 0.0 0.0 0.0 0.0 0.0 0.0 0.0 0.0 0.0 0.0 0.0 0.0 0.0 0.0 0.0 0.0 0.0 0.0 0.0 0.0 0.0 0.0 0.0 0.0 0.0 0.0 0.0 0.0 0.0 0.0 0.0 0.0 0.0 0.0 0.0 0.0 0.0 0.0 0.0 0.0 0.0 0.0 0.0 0.0 0.0 0.0 0.0 0.0 0.0 0.0 0.0 0.0 0.0 0.0 0.0 0.0 0.0 0.0 0.0 0.0 0.0 0.0 0.0 0.0 0.0 0.0 0.0 0.0 0.0 0.0 0.0 0.0 0.0 0.0 0.0 0.0 0.0 0.0 0.0 0.0 0.0 0.0 0.0 0.0 0.0 0.0 0.0 0.0 0.0 0.0 0.0 0.0 0.0 0.0 0.0 0.0 0.0 0.0 0.0 0.0 0.0 0.0 0.0 0.0 0.0 0.0 0.0 0.0 0.0 0.0 0.0 0.0 0.0 0.0 0.0 0.0 0.0 0.0 0.0 0.0 0.0 0.0 0.0 0.0 0.0 142.41648999999998 56.605598 30.167706 98.084389 139.98558 256.34073 181.22394 69.701881 40.542225 126.00003999999998 178.50787 306.14108 209.7049 76.953354 51.161171 149.21603000000002 208.907 338.5242 225.45172000000002 77.226097 62.143097 166.76276000000001 229.28685 354.86725 229.12177000000003 70.92474399999999 73.49385799999999 179.02667 240.41447000000002 411.41312 257.63037 84.12808199999999 86.81324000000001 187.1954 244.73392 919.737 620.31384 297.81549 143.08784 195.98175 246.86569 2471.0176 1737.1838 907.94299 368.29761 228.08712999999997 256.22098 5524.2319 3864.4136 2047.1226 830.1239 337.69745 289.69237999999996 9964.6377 6843.811 3593.8379 1465.1892 540.00531 370.04251 14141.066 9647.5195 5006.4878 2048.0771 776.3380099999999 516.02954 15956.097 10796.788 5560.5669 2302.6379 992.2641 740.49695 14819.796999999999 9746.3926 4959.915 2171.6558 1229.3992 1052.9429 10805.562 7069.9067 3697.0542 2010.7269 1585.9971 1445.7213 6626.9771 4574.458 2890.4478 2247.1929 2054.0703 1887.2382 4499.4106 3686.7136 3032.7668 2735.0933 2541.5488 2339.1833 4160.0947 3812.4595 3453.3977 3204.3909 2992.8066 2778.2424 4280.1167 4066.0037 3810.7744 3605.4956 3406.623 3199.231 4482.4653 4319.0547 4130.7637 3977.6743 3802.9929 3608.6353 4769.5317 4622.3516 4472.5308 4358.3315 4202.6123 4018.2356 5145.1436 4998.688 4864.8335 4770.7427 4621.4043 4438.0869 5607.4849 5455.2148 5319.7095 5223.9795 5065.0405 4871.4688 6156.3159 5989.9023 5830.2529 5710.1309 5527.2236 5313.6187 6792.0405 6586.8179 6368.4043 6206.3809 5992.8013 5754.7808 7494.6836 7204.9009 6884.5942 6682.2241 6446.7603 6188.2876 8215.8311 7774.5566 7320.1733 7120.0396 6891.8682 6624.6167 8878.7822 8221.3174 7645.8989 7547.7788 7374.1455 7111.5142 9385.3662 8489.2803 7898.9756 8064.5137 8003.9663 7753.1211 9672.9121 8611.2773 8214.6484 8838.6084 8951.9854 8708.2539 9813.5703 8775.2988 8827.0117 10051.08 10385.206 10147.787 10202.439 9443.3984 10052.354 11763.815 12353.552 12165.638 11784.635 11460.976999999999 12033.576000000001 13859.926000000001 14750.979 14711.844 15505.986 15453.978000000001 15512.067 16391.266 17313.316000000003 17568.482 20359.836 20608.248 20337.683999999997 19672.063000000002 19900.039 20398.959 23278.73 23859.699 24012.385 22847.23 22228.767999999996 22847.896 23476.164 24366.972999999998 25606.507999999998 25094.553 24195.042999999998 24728.57 22318.627 23076.617000000002 25230.906000000003 25850.767999999996 25387.718999999997 26010.67 21554.396 21522.756 22994.857000000004 24379.252 25033.129 26365.322 22134.105 21069.097999999998 21625.527000000002 23350.553 24794.316000000003 26578.604 23366.908 21752.369 21957.916 23289.705 24976.486 26883.09 24529.517999999996 22756.588 22983.577999999998 23993.232000000004 25489.683999999997 27263.734 25214.701 23486.041 23929.365 24947.529 26071.189 27564.73 24958.017999999996 23416.775 24132.142999999996 25376.783 26315.112999999998 27612.984 24010.174 22727.904 23703.205 25171.869 26083.332000000002 27315.885 22799.007999999998 21807.525 22901.836 24485.672000000002 25435.494 26678.112999999998 21623.48 20952.273 21927.667999999998 23426.115 24460.596 25760.933999999997 20551.15 20191.475 20781.348 22098.74 23219.674 24628.0 19471.664 19389.238 19568.043 20539.584 21889.452999999998 23339.852000000003 18207.215 18388.218999999997 18172.262 19125.842 20559.424 21902.717 16635.078 16945.826 16593.484 17863.576 19090.197 20293.693 14701.225 15072.715 14988.192 16464.322 17440.111 18524.014 12486.628 12866.146 13473.534 14945.418 15748.208999999999 16667.398 10038.634 10767.656 12109.705 13478.53 14138.662 14814.785 8276.084 9733.2852 11106.613000000001 12345.469 12800.368 13118.108999999999 9708.6025 9084.2217 10673.743 11762.09 12000.308 11759.941 7652.6055 10495.253999999999 11724.166000000001 11833.746000000001 10967.605 6388.168 9633.7354 11661.027 12069.926000000001 10843.277 6967.811 10754.752 12137.356000000002 11209.886999999999 5658.8174 8150.3779 11137.979 11439.235 4552.3618 8264.3115 10571.151000000002 4034.2256 7664.5981 6523.6577 3533.0459 158.02615 159.42427 151.81912 140.16556 127.33458999999999 115.11089 104.67141 96.761147 91.84333000000001 201.11285 202.94525 193.60933 179.18626 163.07103 147.58051 134.2851 124.18695 117.90268999999999 234.43452000000002 236.62018999999998 226.46527000000003 210.55861000000002 192.4407 174.81454 159.58205 147.97276000000002 140.7364 255.54297999999997 257.89621 248.07269 232.31502000000003 213.86986000000002 195.61548 179.67874 167.46421999999998 159.82916 265.48523 267.99051000000003 259.75043 245.83222999999998 228.81606000000002 211.50457999999998 196.13353 184.23448 176.75731000000002 267.81216 271.07629 265.77676 255.36487999999997 241.42882000000003 226.47914 212.77379 201.96031000000002 195.09416000000002 268.0733 273.35042999999996 272.51151 267.24652000000003 257.84692 246.39522999999997 235.15701 225.94266000000002 219.96868999999998 274.84893999999997 282.9187 287.94162 289.23862 285.496 278.28198 269.92654 262.50723 257.49765 301.4841 310.95111 321.90109 330.26926000000003 332.5968 329.76624 324.22189 318.42953 314.23208999999997 366.28806000000003 372.37369 386.4075 400.35825 407.82785 408.6059 405.16937 400.42099 396.64914 489.62323 484.03952000000004 494.65839000000005 509.87335 519.62433 521.9954799999999 519.19952 514.46454 510.50003 688.05396 660.27325 658.22339 667.76672 674.96857 675.64142 671.27032 665.117 660.15161 967.5451699999999 907.7136800000001 883.49316 879.34924 878.01959 872.8662699999999 864.2131300000001 854.9694199999999 848.09741 1318.9636 1222.05 1169.12 1144.526 1129.012 1113.9247 1098.274 1084.2941 1074.6514 1720.3208 1588.9017 1505.9501 1457.4124 1423.8962 1395.766 1370.9725 1350.9574 1337.8749 2145.7236 1988.7203 1879.7292 1807.6952 1755.0317 1712.4358 1677.3842 1650.6396 1633.7731 2574.9744 2403.4021 2275.4204 2183.3652 2112.8738 2056.1448 2010.8606 1977.3771 1956.7366 2997.7693 2821.0249 2681.1172 2573.6655 2488.0862 2418.7634 2364.1226 2324.4185 2300.2944 3413.8389 3236.9324 3089.9092 2971.084 2873.3335 2793.3594 2730.6223 2685.5063 2658.365 3828.5769 3651.7717 3499.5823 3372.0161 3264.4751 3175.6812 3106.1887 3056.6167 3027.0544 4247.6533 4068.2275 3911.1106 3776.6636 3661.4927 3565.7578 3490.9985 3438.0886 3406.8176 4673.1675 4488.4282 4327.4951 4189.2144 4069.6777 3969.7119 3891.7051 3836.8569 3804.7168 5102.7397 4913.605 4754.1885 4618.9932 4501.27 4401.6338 4323.3638 4268.3618 4236.293 5532.2935 5346.6792 5201.4727 5082.5249 4977.1616 4884.9292 4810.5083 4757.4453 4726.3584 5962.7529 5797.3037 5687.7817 5605.3652 5527.5801 5452.2256 5386.5674 5337.4819 5307.9858 6410.3467 6288.2085 6242.3994 6222.0449 6190.3179 6142.6689 6090.7388 6047.1118 6019.2246 6920.5698 6862.3799 6906.772 6973.4121 7005.8833 6996.1685 6962.0439 6924.416 6897.4448 7583.3735 7591.9712 7736.3047 7903.2178 8011.4673 8046.458 8032.4116 8000.3936 7973.2354 8536.9678 8584.3604 8805.0527 9059.2334 9239.3896 9318.7588 9324.6445 9297.6416 9269.6543 9941.5605 9972.7334 10209.624 10503.448 10728.108 10840.261999999999 10862.722 10840.833999999999 10813.018 11915.645 11877.684 12056.643 12320.187 12540.893 12661.913 12693.787 12678.059 12653.628 14467.992 14349.83 14422.136 14594.913 14761.31 14862.72 14895.601999999999 14888.961000000001 14873.697 17452.5 17317.906000000003 17298.721 17366.053 17453.975 17519.217 17550.865 17561.213 17564.645 20568.816000000003 20565.178 20554.016 20570.396 20603.564 20644.453 20688.221 20732.557 20769.5 23433.854 23755.916 23921.354 24004.846 24057.039 24118.838 24207.0 24311.701 24401.221 25716.197 26519.904 27037.852000000003 27329.285 27500.527000000002 27649.375 27826.093999999997 28021.892999999996 28183.326 27283.584 28581.854 29542.371 30140.218999999997 30515.73 30815.428 31124.52 31440.093999999997 31689.996 28145.289 29881.836 31220.545 32119.705 32725.875 33210.395 33679.051 34130.488 34476.012 28626.775 30563.596 32110.119 33216.027 34009.949 34662.301 35281.062999999995 35858.586 36290.691 28940.762000000002 30854.097999999998 32430.873 33614.316 34506.871 35264.449 35985.863 36651.941 37144.844 29170.033 30935.205 32421.504 33570.414 34463.93 35244.156 35999.434 36699.516 37217.0 29287.014 30884.506 32236.539 33285.984 34106.895 34836.359 35558.738 36238.383 36744.469 29206.658 30685.772999999997 31920.218999999997 32854.762 33567.129 34200.012 34842.609 35462.074 35930.395 28854.709 30280.375 31438.007999999998 32272.827999999998 32872.988 33393.844 33936.457 34477.562999999995 34895.941 28207.877 29619.908 30731.994 31488.406000000003 31989.432 32405.088 32850.73 33314.902 33684.242 27291.617000000002 28694.076 29767.951 30458.205 30876.182 31204.021 31568.568 31968.343999999997 32296.691000000003 26152.025 27526.965 28552.566000000003 29179.295 29526.941000000003 29784.461 30084.862999999998 30433.266 30728.326 24828.428 26153.592 27118.896 27683.18 27970.639 28170.811 28417.91 28721.285 28985.373 23332.057 24595.605 25500.553 26011.678 26252.215 26406.257999999998 26605.666 26863.766 27093.867000000002 21652.986 22857.311 23717.131 24196.807 24411.73 24534.767999999996 24692.525 24903.359 25094.547000000002 19788.049 20938.242 21774.324 22251.852000000003 22470.326 22584.682 22712.582000000002 22878.201 23028.107000000004 17777.654 18852.758 19677.244 20178.561 20431.574 20565.346 20682.85 20813.307 20925.576 15702.573999999999 16648.303 17446.906000000003 17983.242 18294.625 18475.805 18607.754 18721.605 18807.363 13675.488000000001 14413.466 15138.786 15697.533000000001 16073.196000000002 16319.133 16488.406000000003 16608.752 16685.188000000002 11833.112 12272.065 12852.746000000001 13391.71 13811.731000000002 14119.053999999998 14336.572 14482.264 14566.575 10348.697 10358.306 10719.328000000001 11170.492 11589.364 11930.765 12187.765 12363.587 12464.916000000001 9457.8936 8836.5615 8867.3359 9156.0332 9507.5332 9836.8242 10104.996 10297.803 10412.423 9348.6113 7959.0254 7438.6353 7457.8833 7671.2905 7929.6138 8167.6982 8351.4033 8465.1084 9819.5781 7937.7769 6674.8921 6196.5625 6167.2988 6295.1885 6456.1411 6597.9922 6692.0801 10174.312 8471.8545 6739.0518 5591.5405 5101.7505 4997.8745 5036.1821 5106.0156 5161.4961 9344.8975 8779.0449 7189.4722 5650.7915 4607.5254 4105.23 3944.1204 3917.4272 3923.8557 6336.5137 7659.8208 7154.9141 5798.248 4493.4097 3610.907 3185.0862 3035.9583 2991.356 2775.4114 4380.4043 5501.5913 5224.0493 4242.9624 3272.189 2679.498 2426.6777 2340.9141 2419.4744 2563.7563 3213.8704 3179.8643 2669.5969 2188.2808 1931.7681 1838.2599 1845.4458 1815.7983 1781.0022 1627.5049 1485.7377 1405.3354 1652.1162 1494.5458 1402.8776 1344.6077 90.176331 91.843338 96.761147 104.67142 115.11091 127.33458 140.1656 151.81915 115.7718 117.90268 124.18698 134.2851 147.58051 163.07106000000002 179.18628 193.60936 138.28101999999998 140.73639 147.97278 159.58208 174.81458999999998 192.44073 210.55867 226.46532000000002 157.23547 159.82918 167.46421999999998 179.67874 195.61553999999998 213.86992 232.31502000000003 248.07272000000003 174.2117 176.75732 184.23453 196.13353999999998 211.50457999999998 228.81606000000002 245.83229 259.75043 192.74643999999998 195.09419 201.96036 212.77382999999998 226.47914 241.42882999999998 255.36487999999997 265.77679 217.90757999999997 219.96867000000003 225.94272 235.15701 246.39522999999997 257.84689 267.24655 272.51151 255.73906000000002 257.49771 262.5072 269.92661 278.28201 285.496 289.23865 287.94165 312.716 314.23212 318.42953 324.22189 329.7662 332.59677 330.26923 321.90109 395.23987 396.64907999999997 400.42099 405.16934 408.60577 407.82779 400.35822 386.40767999999997 508.99084000000005 510.50003 514.46448 519.1994599999999 521.99542 519.62427 509.87323 494.65851 658.28046 660.15143 665.117 671.2701400000001 675.6413 674.96838 667.76672 658.2235099999999 845.57874 848.09729 854.9696 864.2130099999999 872.86609 878.01953 879.34918 883.49316 1071.2179 1074.6514 1084.2942 1098.2738 1113.9249 1129.0116 1144.526 1169.1202 1333.3236 1337.8746 1350.9574 1370.9725 1395.7661 1423.8961 1457.412 1505.9501 1628.0049 1633.7734 1650.6399 1677.3844 1712.4357 1755.0313 1807.6951 1879.7289 1949.7594 1956.7368 1977.3768 2010.8606 2056.1443 2112.8735 2183.3645 2275.4199 2292.2026 2300.2947 2324.4189 2364.1228 2418.7634 2488.0854 2573.6646 2681.1155 2649.3152 2658.3652 2685.5068 2730.6221 2793.3584 2873.3325 2971.0825 3089.9077 3017.2495 3027.054 3056.6172 3106.1887 3175.6809 3264.4736 3372.0142 3499.5793 3396.5073 3406.8184 3438.0898 3490.9988 3565.7573 3661.4915 3776.6614 3911.1091 3794.1833 3804.7175 3836.8579 3891.7058 3969.7126 4069.6758 4189.2124 4327.4927 4225.8306 4236.2944 4268.3623 4323.3647 4401.6353 4501.27 4618.9917 4754.187 4716.2124 4726.3589 4757.4473 4810.5103 4884.9297 4977.1616 5082.5229 5201.4712 5298.2568 5307.9873 5337.4829 5386.5684 5452.2256 5527.5811 5605.3633 5687.7793 6009.7729 6019.2261 6047.1133 6090.7393 6142.6694 6190.3179 6222.043 6242.3984 6887.8647 6897.4468 6924.416 6962.0464 6996.1689 7005.8843 6973.4121 6906.771 7963.0063 7973.2363 8000.395 8032.4136 8046.4585 8011.4673 7903.2168 7736.3032 9258.5176 9269.6533 9297.6426 9324.6455 9318.7598 9239.3896 9059.2334 8805.0518 10801.471000000001 10813.018 10840.833 10862.723999999998 10840.264 10728.108 10503.448 10209.624 12643.202 12653.631000000001 12678.061000000002 12693.787 12661.913 12540.892 12320.186000000002 12056.639 14867.044 14873.697 14888.961000000001 14895.6 14862.72 14761.309 14594.909 14422.136 17565.854 17564.648 17561.211 17550.863 17519.217 17453.975 17366.053 17298.711 20784.438000000002 20769.5 20732.555 20688.225 20644.453 20603.566000000003 20570.396 20554.016 24436.994 24401.221 24311.707000000002 24207.0 24118.836 24057.037 24004.846 23921.347999999998 28246.652000000002 28183.32 28021.896 27826.088 27649.375 27500.52 27329.281000000003 27037.846 31786.346 31689.994 31440.093999999997 31124.516 30815.424 30515.725 30140.213 29542.369 34607.199 34476.004 34130.488 33679.047 33210.391 32725.875 32119.713 31220.547000000002 36453.008 36290.691 35858.578 35281.059 34662.305 34009.961 33216.027 32110.125 37328.957 37144.84 36651.941 35985.863 35264.445 34506.875 33614.316 32430.873 37410.098 37216.992 36699.508 35999.43 35244.152 34463.937999999995 33570.414 32421.512000000002 36933.949 36744.465 36238.375 35558.73 34836.355 34106.895 33285.992 32236.537 36106.992 35930.391 35462.074 34842.605 34200.008 33567.141 32854.758 31920.215 35055.363 34895.941 34477.559 33936.453 33393.844 32872.996 32272.838 31438.007999999998 33826.785 33684.242 33314.898 32850.723 32405.088 31989.43 31488.412 30731.998 32425.119 32296.689 31968.334 31568.564 31204.01 30876.17 30458.211 29767.951 30845.142999999996 30728.313 30433.262000000002 30084.862999999998 29784.457000000002 29526.941000000003 29179.295 28552.566000000003 29091.031000000003 28985.362999999998 28721.279 28417.9 28170.805 27970.631 27683.18 27118.896 27186.76 27093.862999999998 26863.76 26605.66 26406.256 26252.215 26011.676 25500.555 25172.227000000003 25094.542999999998 24903.361 24692.525 24534.764 24411.729 24196.807 23717.135 23089.121 23028.107000000004 22878.195 22712.577999999998 22584.676 22470.322 22251.854 21774.326 20970.635 20925.572 20813.311 20682.85 20565.342 20431.574 20178.561 19677.246 18840.098 18807.357 18721.605 18607.752 18475.799 18294.625 17983.242 17446.912 16711.965 16685.186 16608.752 16488.404 16319.133 16073.197 15697.533000000001 15138.786 14594.298999999999 14566.577 14482.265 14336.573 14119.052 13811.729 13391.711000000001 12852.747 12497.893 12464.915 12363.587 12187.763 11930.765 11589.363000000001 11170.492 10719.331 10450.288 10412.42 10297.8 10104.997 9836.8242 9507.5342 9156.0332 8867.334 8503.4199 8465.1045 8351.4004 8167.6963 7929.6128 7671.2915 7457.8828 7438.6343 6724.7939 6692.0796 6597.9907 6456.1392 6295.187 6167.2983 6196.5615 6674.8916 5182.0542 5161.4951 5106.0151 5036.1802 4997.8745 5101.7515 5591.5405 6739.0532 3928.5437 3923.854 3917.4258 3944.1196 4105.229 4607.5244 5650.7915 7189.4741 2981.2756 2991.3555 3035.9573 3185.0847 3610.9055 4493.4092 5798.248 7154.9155 2320.3691 2340.9131 2426.676 2679.4961 3272.1882 4242.9624 5224.0498 5501.5918 1816.6487 1838.2588 1931.7668 2188.2791 2669.5959 3179.8633 3213.8701 2563.7563 1380.2762 1405.3347 1485.7362 1627.5045 1781.0012 1815.7972 1845.4449 1323.7919 1344.6077 1402.8767 1494.5446 1652.1149 159.42427 158.02618 139.9856 98.084419 30.167741999999997 56.605591000000004 142.41652 202.94528 201.11288000000002 178.5079 126.00008000000001 40.542263 69.701851 181.22392 256.34076 236.62027 234.43452000000002 208.90707 149.21608999999998 51.161228 76.953323 209.70486 306.14111 257.89624 255.54311 229.287 166.76286000000002 62.143204000000004 77.226021 225.45167999999998 338.52407999999997 267.99062999999995 265.48532 240.41457999999997 179.02678999999998 73.493988 70.92465200000001 229.12175 354.86722000000003 271.07632 267.81229 244.7341 187.19557 86.813385 84.127922 257.63025 411.41321 273.35049 268.07349 246.86591 195.98201 143.08789 297.81546000000003 620.31403 919.7370599999999 282.91882000000004 274.84918 256.22125 228.08745 368.29761 907.9431800000001 1737.1846 2471.0176 310.95129 301.48441 289.69268999999997 337.69763 830.12402 2047.1227 3864.4138 5524.2324 372.37396 366.28854 370.043 540.00568 1465.1895 3593.8386 6843.8125 9964.6387 484.03983 489.62366 516.03021 776.33826 2048.0771 5006.4868 9647.5205 14141.068000000001 660.27362 688.05463 740.4975 992.2647699999999 2302.6379 5560.5664 10796.788999999999 15956.1 907.71411 967.54565 1052.9435 1229.3998 2171.656 4959.9146 9746.3936 14819.798999999999 1222.0505 1318.964 1445.7219 1585.9977 2010.7275 3697.0547 7069.9067 10805.563 1588.9019 1720.3213 1887.2388 2054.0708 2247.1934 2890.448 4574.459 6626.9761 1988.7203 2145.7239 2339.1838 2541.5493 2735.0938 3032.7668 3686.7146 4499.4106 2403.4006 2574.9739 2778.2419 2992.8066 3204.3911 3453.3979 3812.4595 4160.0947 2821.0234 2997.7686 3199.2302 3406.623 3605.4966 3810.7744 4066.0042 4280.1162 3236.9312 3413.8374 3608.635 3802.9934 3977.6746 4130.7632 4319.0542 4482.4644 3651.7698 3828.5757 4018.2349 4202.6128 4358.332 4472.5317 4622.3516 4769.5317 4068.2258 4247.6514 4438.0859 4621.4048 4770.7441 4864.834 4998.689 5145.1431 4488.4258 4673.1655 4871.4678 5065.0405 5223.98 5319.7104 5455.2153 5607.4849 4913.603 5102.7388 5313.6182 5527.2246 5710.1323 5830.2544 5989.9033 6156.3154 5346.6772 5532.292 5754.7813 5992.8013 6206.3833 6368.4058 6586.8179 6792.0405 5797.3018 5962.7529 6188.2861 6446.7603 6682.2246 6884.5977 7204.9019 7494.686 6288.2075 6410.3472 6624.6172 6891.8691 7120.041 7320.1748 7774.6006 8215.8311 6862.3784 6920.5698 7111.5156 7374.147 7547.7827 7645.9019 8221.3174 8878.7832 7591.9712 7583.373 7753.123 8003.9688 8064.5151 7898.9756 8489.2813 9385.3672 8584.3604 8536.9658 8708.2549 8951.9883 8838.6084 8214.6504 8611.2783 9672.9121 9972.7344 9941.5605 10147.785 10385.206 10051.081 8827.0127 8775.2998 9813.5703 11877.685 11915.645 12165.636 12353.552 11763.815 10052.351999999999 9443.3975 10202.440999999999 14349.829 14467.988000000001 14711.844 14750.979 13859.925 12033.579 11460.978000000001 11784.633999999998 17317.908 17452.498 17568.482 17313.316000000003 16391.264 15512.067 15453.978000000001 15505.985 20565.172 20568.818 20398.951 19900.037 19672.063000000002 20337.682 20608.248 20359.836 23755.908 23433.847999999998 22847.895 22228.764 22847.222999999998 24012.382999999998 23859.699 23278.732000000004 26519.897999999997 25716.193 24728.566000000003 24195.047000000002 25094.547000000002 25606.5 24366.971 23476.164 28581.847999999998 27283.576 26010.667999999998 25387.715 25850.762000000002 25230.906000000003 23076.611 22318.632999999998 29881.836 28145.287 26365.324 25033.121 24379.254 22994.857000000004 21522.756 21554.397999999997 30563.592 28626.771 26578.607000000004 24794.316000000003 23350.553 21625.52 21069.093999999997 22134.107000000004 30854.1 28940.76 26883.086 24976.49 23289.701 21957.908 21752.369 23366.737999999998 30935.205 29170.039 27263.734 25489.683999999997 23993.23 22983.574 22756.588 24529.521 30884.502 29287.017999999996 27564.727000000003 26071.183999999997 24947.516 23929.359 23486.037 25214.701 30685.771 29206.662 27612.98 26315.097999999998 25376.772999999997 24132.137000000002 23416.775 24958.022999999997 30280.379 28854.705 27315.882999999998 26083.32 25171.867000000002 23703.193 22727.902000000002 24010.172000000002 29619.912 28207.875 26678.109 25435.494 24485.672000000002 22901.832000000002 21807.525 22799.012000000002 28694.074 27291.617000000002 25760.936 24460.596 23426.115 21927.674 20952.277 21623.484 27526.967 26152.027000000002 24627.998 23219.676 22098.746 20781.352 20191.479 20551.15 26153.593999999997 24828.433999999997 23339.854 21889.461 20539.588 19568.045 19389.246 19471.666 24595.607000000004 23332.061 21902.717 20559.43 19125.842 18172.264 18388.223 18207.215 22857.314 21652.986 20293.701 19090.199 17863.586 16593.492 16945.83 16635.074 20938.246 19788.058999999997 18524.016 17440.115 16464.334 14988.198999999999 15072.721000000001 14701.223 18852.762 17777.658 16667.404 15748.215 14945.419 13473.538 12866.143999999998 12486.624 16648.303 15702.573999999999 14814.792 14138.665 13478.534 12109.705 10767.659 10038.631 14413.466999999999 13675.492 13118.113000000001 12800.371000000001 12345.473 11106.614 9733.2871 8276.0811 12272.068000000001 11833.115 11759.942 12000.311000000002 11762.093 10673.739 9084.2207 9708.5996 10358.306 10348.698 10967.604 11833.748 11724.166000000001 10495.253999999999 7652.6025 8836.5625 9457.8955 10843.278999999999 12069.923999999999 11661.026000000002 9633.7344 6388.1655 7959.0254 9348.6104 11209.888 12137.355 10754.755 6967.8105 7937.7773 9819.5781 11439.233999999999 11137.978000000001 8150.3745 5658.8145 8471.8564 10174.313 10571.146 8264.3105 4552.3633 8779.0439 9344.8955 7664.6001 4034.2253 7659.8213 6336.5127 3533.0459 6523.6563 4380.4058 2775.4116 2419.4739 
Vel 3 2975 float
0.0 0.0 0.0 0.0 0.0 0.0 0.0 0.0 0.0 0.0 0.0 0.0 0.0 0.0 0.0 0.0 0.0 0.0 0.0 0.0 0.0 0.0 0.0 0.0 0.0 0.0 0.0 0.0 0.0 0.0 0.0 0.0 0.0 0.0 0.0 0.0 0.0 0.0 0.0 0.0 0.0 0.0 0.0 0.0 0.0 0.0 0.0 0.0 0.0 0.0 0.0 0.0 0.0 0.0 0.0 0.0 0.0 0.0 0.0 0.0 0.0 0.0 0.0 0.0 0.0 0.0 0.0 0.0 0.0 0.0 0.0 0.0 0.0 0.0 0.0 0.0 0.0 0.0 0.0 0.0 0.0 0.0 0.0 0.0 0.0 0.0 0.0 0.0 0.0 0.0 0.0 0.0 0.0 0.0 0.0 0.0 0.0 0.0 0.0 0.0 0.0 0.0 0.0 0.0 0.0 0.0 0.0 0.0 0.0 0.0 0.0 0.0 0.0 0.0 0.0 0.0 0.0 0.0 0.0 0.0 0.0 0.0 0.0 0.0 0.0 0.0 0.0 0.0 0.0 0.0 0.0 0.0 0.0 0.0 0.0 0.0 0.0 0.0 0.0 0.0 0.0 0.0 0.0 0.0 0.0 0.0 0.0 0.0 0.0 0.0 0.0 0.0 0.0 0.0 0.0 0.0 0.0 0.0 0.0 0.0 0.0 0.0 0.0 0.0 0.0 0.0 0.0 0.0 0.0 0.0 0.0 0.0 0.0 0.0 0.0 0.0 0.0 0.0 0.0 0.0 0.0 0.0 0.0 0.0 0.0 0.0 0.0 0.0 0.0 0.0 0.0 0.0 0.0 0.0 0.0 0.0 0.0 0.0 0.0 0.0 0.0 0.0 0.0 0.0 0.0 0.0 0.0 0.0 0.0 0.0 0.0 0.0 0.0 0.0 0.0 0.0 0.0 0.0 0.0 0.0 0.0 0.0 0.0 0.0 0.0 0.0 0.0 0.0 0.0 0.0 0.0 0.0 0.0 0.0 0.0 0.0 0.0 0.0 0.0 0.0 0.0 0.0 0.0 0.0 0.0 0.0 0.0 0.0 0.0 0.0 0.0 0.0 0.0 0.0 0.0 0.0 0.0 0.0 0.0 0.0 0.0 0.0 0.0 0.0 0.0 0.0 0.0 0.0 0.0 0.0 0.0 0.0 0.0 0.0 0.0 0.0 0.0 0.0 0.0 0.0 0.0 0.0 0.0 0.0 0.0 0.0 0.0 0.0 0.0 0.0 0.0 0.0 0.0 0.0 0.0 0.0 0.0 0.0 0.0 0.0 0.0 0.0 0.0 0.0 0.0 0.0 0.0 0.0 0.0 0.0 0.0 0.0 0.0 0.0 0.0 0.0 0.0 0.0 0.0 0.0 0.0 0.0 0.0 0.0 0.0 0.0 0.0 0.0 0.0 0.0 0.0 0.0 0.0 0.0 0.0 0.0 0.0 0.0 0.0 0.0 0.0 0.0 0.0 0.0 0.0 0.0 0.0 0.0 0.0 0.0 0.0 0.0 0.0 0.0 0.0 0.0 0.0 0.0 0.0 0.0 0.0 0.0 0.0 0.0 0.0 0.0 0.0 0.0 0.0 0.0 0.0 0.0 0.0 0.0 0.0 0.0 0.0 0.0 0.0 0.0 0.0 0.0 0.0 0.0 0.0 0.0 0.0 0.0 0.0 0.0 0.0 0.0 0.0 0.0 0.0 0.0 0.0 0.0 0.0 0.0 0.0 0.0 0.0 0.0 0.0 0.0 0.0 0.0 0.0 0.0 0.0 0.0 0.0 0.0 0.0 0.0 0.0 0.0 0.0 0.0 0.0 0.0 0.0 0.0 0.0 0.0 0.0 0.0 0.0 0.0 0.0 0.0 0.0 0.0 0.0 0.0 0.0 0.0 0.0 0.0 0.0 0.0 0.0 0.0 0.0 0.0 0.0 0.0 0.0 0.0 0.0 0.0 0.0 0.0 0.0 0.0 0.0 0.0 0.0 0.0 0.0 0.0 0.0 0.0 0.0 0.0 0.0 0.0 0.0 0.0 0.0 0.0 0.0 0.0 0.0 0.0 0.0 0.0 0.0 0.0 0.0 0.0 0.0 0.0 0.0 0.0 0.0 0.0 0.0 0.0 0.0 0.0 0.0 0.0 0.0 0.0 0.0 0.0 0.0 0.0 0.0 0.0 0.0 0.0 0.0 0.0 0.0 0.0 0.0 0.0 0.0 0.0 0.0 0.0 0.0 0.0 0.0 0.0 0.0 0.0 0.0 0.0 0.0 0.0 0.0 0.0 0.0 0.0 0.0 0.0 0.0 0.0 0.0 0.0 0.0 0.0 0.0 0.0 0.0 0.0 0.0 0.0 0.0 0.0 0.0 0.0 0.0 0.0 0.0 0.0 0.0 0.0 0.0 0.0 0.0 0.0 0.0 0.0 0.0 0.0 0.0 0.0 0.0 0.0 0.0 0.0 0.0 0.0 0.0 0.0 0.0 0.0 0.0 0.0 0.0 0.0 0.0 0.0 0.0 0.0 0.0 0.0 0.0 0.0 0.0 0.0 0.0 0.0 0.0 0.0 0.0 0.0 0.0 0.0 0.0 0.0 0.0 0.0 0.0 0.0 0.0 0.0 0.0 0.0 0.0 0.0 0.0 0.0 0.0 0.0 0.0 0.0 0.0 0.0 0.0 0.0 0.0 0.0 0.0 0.0 0.0 0.0 0.0 0.0 0.0 0.0 0.0 0.0 0.0 0.0 0.0 0.0 0.0 0.0 0.0 0.0 0.0 0.0 0.0 0.0 0.0 0.0 0.0 0.0 0.0 0.0 0.0 0.0 0.0 0.0 0.0 0.0 0.0 0.0 0.0 0.0 0.0 0.0 0.0 0.0 0.0 0.0 0.0 0.0 0.0 0.0 0.0 0.0 0.0 0.0 0.0 0.0 0.0 0.0 0.0 0.0 0.0 0.0 0.0 0.0 0.0 0.0 0.0 0.0 0.0 0.0 0.0 0.0 0.0 0.0 0.0 0.0 0.0 0.0 0.0 0.0 0.0 0.0 0.0 0.0 0.0 0.0 0.0 0.0 0.0 0.0 0.0 0.0 0.0 0.0 0.0 0.0 0.0 0.0 0.0 0.0 0.0 0.0 0.0 0.0 0.0 0.0 0.0 0.0 0.0 0.0 0.0 0.0 0.0 0.0 0.0 0.0 0.0 0.0 0.0 0.0 0.0 0.0 0.0 0.0 0.0 0.0 0.0 0.0 0.0 0.0 0.0 0.0 0.0 0.0 0.0 0.0 0.0 0.0 0.0 0.0 0.0 0.0 0.0 0.0 0.0 0.0 0.0 0.0 0.0 0.0 0.0 0.0 0.0 0.0 0.0 0.0 0.0 0.0 0.0 0.0 0.0 0.0 0.0 0.0 0.0 0.0 0.0 0.0 0.0 0.0 0.0 0.0 0.0 0.0 0.0 0.0 0.0 0.0 0.0 0.0 0.0 0.0 0.0 0.0 0.0 0.0 0.0 0.0 0.0 0.0 0.0 0.0 0.0 0.0 0.0 0.0 0.0 0.0 0.0 0.0 0.0 0.0 0.0 0.0 0.0 0.0 0.0 0.0 0.0 0.0 0.0 0.0 0.0 0.0 0.0 0.0 0.0 0.0 0.0 0.0 0.0 0.0 0.0 0.0 0.0 0.0 0.0 0.0 0.0 0.0 0.0 0.0 0.0 0.0 0.0 0.0 0.0 0.0 0.0 0.0 0.0 0.0 0.0 0.0 0.0 0.0 0.0 0.0 0.0 0.0 0.0 0.0 0.0 0.0 0.0 0.0 0.0 0.0 0.0 0.0 0.0 0.0 0.0 0.0 0.0 0.0 0.0 0.0 0.0 0.0 0.0 0.0 0.0 0.0 0.0 0.0 0.0 0.0 0.0 0.0 0.0 0.0 0.0 0.0 0.0 0.0 0.0 0.0 0.0 0.0 0.0 0.0 0.0 0.0 0.0 0.0 0.0 0.0 0.0 0.0 0.0 0.0 0.0 0.0 0.0 0.0 0.0 0.0 0.0 0.0 0.0 0.0 0.0 0.0 0.0 0.0 0.0 0.0 0.0 0.0 0.0 0.0 0.0 0.0 0.0 0.0 0.0 0.0 0.0 0.0 0.0 0.0 0.0 0.0 0.0 0.0 0.0 0.0 0.0 0.0 0.0 0.0 0.0 0.0 0.0 0.0 0.0 0.0 0.0 0.0 0.0 0.0 0.0 0.0 0.0 0.0 0.0 0.0 0.0 0.0 0.0 0.0 0.0 0.0 0.0 0.0 0.0 0.0 0.0 0.0 0.0 0.0 0.0 0.0 0.0 0.0 0.0 0.0 0.0 0.0 0.0 0.0 0.0 0.0 0.0 0.0 0.0 0.0 0.0 0.0 0.0 0.0 0.0 0.0 0.0 0.0 0.0 0.0 0.0 0.0 0.0 0.0 0.0 0.0 0.0 0.0 0.0 0.0 0.0 0.0 0.0 0.0 0.0 0.0 0.0 0.0 0.0 0.0 0.0 0.0 0.0 0.0 0.0 0.0 0.0 0.0 0.0 0.0 0.0 0.0 0.0 0.0 0.0 0.0 0.0 0.0 0.0 0.0 0.0 0.0 0.0 0.0 0.0 0.0 0.0 0.0 0.0 0.0 0.0 0.0 0.0 0.0 0.0 0.0 0.0 0.0 0.0 0.0 0.0 0.0 0.0 0.0 0.0 0.0 0.0 0.0 0.0 0.0 0.0 0.0 0.0 0.0 0.0 0.0 0.0 0.0 0.0 0.0 0.0 0.0 0.0 0.0 0.0 0.0 0.0 0.0 0.0 0.0 0.0 0.0 0.0 0.0 0.0 0.0 0.0 0.0 0.0 0.0 0.0 0.0 0.0 0.0 0.0 0.0 0.0 0.0 0.0 0.0 0.0 0.0 0.0 0.0 0.0 0.0 0.0 0.0 0.0 0.0 0.0 0.0 0.0 0.0 0.0 0.0 0.0 0.0 0.0 0.0 0.0 0.0 0.0 0.0 0.0 0.0 0.0 0.0 0.0 0.0 0.0 0.0 0.0 0.0 0.0 0.0 0.0 0.0 0.0 0.0 0.0 0.0 0.0 0.0 0.0 0.0 0.0 0.0 0.0 0.0 0.0 0.0 0.0 0.0 0.0 0.0 0.0 0.0 0.0 0.0 0.0 0.0 0.0 0.0 0.0 0.0 0.0 0.0 0.0 0.0 0.0 0.0 0.0 0.0 0.0 0.0 0.0 0.0 0.0 0.0 0.0 0.0 0.0 0.0 0.0 0.0 0.0 0.0 0.0 0.0 0.0 0.0 0.0 0.0 0.0 0.0 0.0 0.0 0.0 0.0 0.0 0.0 0.0 0.0 0.0 0.0 0.0 0.0 0.0 0.0 0.0 0.0 0.0 0.0 0.0 0.0 0.0 0.0 0.0 0.0 0.0 0.0 0.0 0.0 0.0 0.0 0.0 0.0 0.0 0.0 0.0 0.0 0.0 0.0 0.0 0.0 0.0 0.0 0.0 0.0 0.0 0.0 0.0 0.0 0.0 0.0 0.0 0.0 0.0 0.0 0.0 0.0 0.0 0.0 0.0 0.0 0.0 0.0 0.0 0.0 0.0 0.0 0.0 0.0 0.0 0.0 0.0 0.0 0.0 0.0 0.0 0.0 0.0 0.0 0.0 0.0 0.0 0.0 0.0 0.0 0.0 0.0 0.0 0.0 0.0 0.0 0.0 0.0 0.0 0.0 0.0 0.0 0.0 0.0 0.0 0.0 0.0 0.0 0.0 0.0 0.0 0.0 0.0 0.0 0.0 0.0 0.0 0.0 0.0 0.0 0.0 0.0 0.0 0.0 0.0 0.0 0.0 0.0 0.0 0.0 0.0 0.0 0.0 0.0 0.0 0.0 0.0 0.0 0.0 0.0 0.0 0.0 0.0 0.0 0.0 0.0 0.0 0.0 0.0 0.0 0.0 0.0 0.0 0.0 0.0 0.0 0.0 0.0 0.0 0.0 0.0 0.0 0.0 0.0 0.0 0.0 0.0 0.0 0.0 0.0 0.0 0.0 0.0 0.0 0.0 0.0 0.0 0.0 0.0 0.0 0.0 0.0 0.0 0.0 0.0 0.0 0.0 0.0 0.0 0.0 0.0 0.0 0.0 0.0 0.0 0.0 0.0 0.0 0.0 0.0 0.0 0.0 0.0 0.0 0.0 0.0 0.0 0.0 0.0 0.0 0.0 0.0 0.0 0.0 0.0 0.0 0.0 0.0 0.0 0.0 0.0 0.0 0.0 0.0 0.0 0.0 0.0 0.0 0.0 0.0 0.0 0.0 0.0 0.0 0.0 0.0 0.0 0.0 0.0 0.0 0.0 0.0 0.0 0.0 0.0 0.0 0.0 0.0 0.0 0.0 0.0 0.0 0.0 0.0 0.0 0.0 0.0 0.0 0.0 0.0 0.0 0.0 0.0 0.0 0.0 0.0 0.0 0.0 0.0 0.0 0.0 0.0 0.0 0.0 0.0 0.0 0.0 0.0 0.0 0.0 0.0 0.0 0.0 0.0 0.0 0.0 0.0 0.0 0.0 0.0 0.0 0.0 0.0 0.0 0.0 0.0 0.0 0.0 0.0 0.0 0.0 0.0 0.0 0.0 0.0 0.0 0.0 0.0 0.0 0.0 0.0 0.0 0.0 0.0 0.0 0.0 0.0 0.0 0.0 0.0 0.0 0.0 0.0 0.0 0.0 0.0 0.0 0.0 0.0 0.0 0.0 0.0 0.0 0.0 0.0 0.0 0.0 0.0 0.0 0.0 0.0 0.0 0.0 0.0 0.0 0.0 0.0 0.0 0.0 0.0 0.0 0.0 0.0 0.0 0.0 0.0 0.0 0.0 0.0 0.0 0.0 0.0 0.0 0.0 0.0 0.0 0.0 0.0 0.0 0.0 0.0 0.0 0.0 0.0 0.0 0.0 0.0 0.0 0.0 0.0 0.0 0.0 0.0 0.0 0.0 0.0 0.0 0.0 0.0 0.0 0.0 0.0 0.0 0.0 0.0 0.0 0.0 0.0 0.0 0.0 0.0 0.0 0.0 0.0 0.0 0.0 0.0 0.0 0.0 0.0 0.0 0.0 0.0 0.0 0.0 0.0 0.0 0.0 0.0 0.0 0.0 0.0 0.0 0.0 0.0 0.0 0.0 0.0 0.0 0.0 0.0 0.0 0.0 0.0 0.0 0.0 0.0 0.0 0.0 0.0 0.0 0.0 0.0 0.0 0.0 0.0 0.0 0.0 0.0 0.0 0.0 0.0 0.0 0.0 0.0 0.0 0.0 0.0 0.0 0.0 0.0 0.0 0.0 0.0 0.0 0.0 0.0 0.0 0.0 0.0 0.0 0.0 0.0 0.0 0.0 0.0 0.0 0.0 0.0 0.0 0.0 0.0 0.0 0.0 0.0 0.0 0.0 0.0 0.0 0.0 0.0 0.0 0.0 0.0 0.0 0.0 0.0 0.0 0.0 0.0 0.0 0.0 0.0 0.0 0.0 0.0 0.0 0.0 0.0 0.0 0.0 0.0 0.0 0.0 0.0 0.0 0.0 0.0 0.0 0.0 0.0 0.0 0.0 0.0 0.0 0.0 0.0 0.0 0.0 0.0 0.0 0.0 0.0 0.0 0.0 0.0 0.0 0.0 0.0 0.0 0.0 0.0 0.0 0.0 0.0 0.0 0.0 0.0 0.0 0.0 0.0 0.0 0.0 0.0 0.0 0.0 0.0 0.0 0.0 0.0 0.0 0.0 0.0 0.0 0.0 0.0 0.0 0.0 0.0 0.0 0.0 0.0 0.0 0.0 0.0 0.0 0.0 0.0 0.0 0.0 0.0 0.0 0.0 0.0 0.0 0.0 0.0 0.0 0.0 0.0 0.0 0.0 0.0 0.0 0.0 0.0 0.0 0.0 0.0 0.0 0.0 0.0 0.0 0.0 0.0 0.0 0.0 0.0 0.0 0.0 0.0 0.0 0.0 0.0 0.0 0.0 0.0 0.0 0.0 0.0 0.0 0.0 0.0 0.0 0.0 0.0 0.0 0.0 0.0 0.0 0.0 0.0 0.0 0.0 0.0 0.0 0.0 0.0 0.0 0.0 0.0 0.0 0.0 0.0 0.0 0.0 0.0 0.0 0.0 0.0 0.0 0.0 0.0 0.0 0.0 0.0 0.0 0.0 0.0 0.0 0.0 0.0 0.0 0.0 0.0 0.0 0.0 0.0 0.0 0.0 0.0 0.0 0.0 0.0 0.0 0.0 0.0 0.0 0.0 0.0 0.0 0.0 0.0 0.0 0.0 0.0 0.0 0.0 0.0 0.0 0.0 0.0 0.0 0.0 0.0 0.0 0.0 0.0 0.0 0.0 0.0 0.0 0.0 0.0 0.0 0.0 0.0 0.0 0.0 0.0 0.0 0.0 0.0 0.0 0.0 0.0 0.0 0.0 0.0 0.0 0.0 0.0 0.0 0.0 0.0 0.0 0.0 0.0 0.0 0.0 0.0 0.0 0.0 0.0 0.0 0.0 0.0 0.0 0.0 0.0 0.0 0.0 0.0 0.0 0.0 0.0 0.0 0.0 0.0 0.0 0.0 0.0 0.0 0.0 0.0 0.0 0.0 0.0 0.0 0.0 0.0 0.0 0.0 0.0 0.0 0.0 0.0 0.0 0.0 0.0 0.0 0.0 0.0 0.0 0.0 0.0 0.0 0.0 0.0 0.0 0.0 0.0 0.0 0.0 0.0 0.0 0.0 0.0 0.0 0.0 0.0 0.0 0.0 0.0 0.0 0.0 0.0 0.0 0.0 0.0 0.0 0.0 0.0 0.0 0.0 0.0 0.0 0.0 0.0 0.0 0.0 0.0 0.0 0.0 0.0 0.0 0.0 0.0 0.0 0.0 0.0 0.0 0.0 0.0 0.0 0.0 0.0 0.0 0.0 0.0 0.0 0.0 0.0 0.0 0.0 0.0 0.0 0.0 0.0 0.0 0.0 0.0 0.0 0.0 0.0 0.0 0.0 0.0 0.0 0.0 0.0 0.0 0.0 0.0 0.0 0.0 0.0 0.0 0.0 0.0 0.0 0.0 0.0 0.0 0.0 0.0 0.0 0.0 0.0 0.0 0.0 0.0 0.0 0.0 0.0 0.0 0.0 0.0 0.0 0.0 0.0 0.0 0.0 0.0 0.0 0.0 0.0 0.0 0.0 0.0 0.0 0.0 0.0 0.0 0.0 0.0 0.0 0.0 0.0 0.0 0.0 0.0 0.0 0.0 0.0 0.0 0.0 0.0 0.0 0.0 0.0 0.0 0.0 0.0 0.0 0.0 0.0 0.0 0.0 0.0 0.0 0.0 0.0 0.0 0.0 0.0 0.0 0.0 0.0 0.0 0.0 0.0 0.0 0.0 0.0 0.0 0.0 0.0 0.0 0.0 0.0 0.0 0.0 0.0 0.0 0.0 0.0 0.0 0.0 0.0 0.0 0.0 0.0 0.0 0.0 0.0 0.0 0.0 0.0 0.0 0.0 0.0 0.0 0.0 0.0 0.0 0.0 0.0 0.0 0.0 0.0 0.0 0.0 0.0 0.0 0.0 0.0 0.0 0.0 0.0 0.0 0.0 0.0 0.0 0.0 0.0 0.0 0.0 0.0 0.0 0.0 0.0 0.0 0.0 0.0 0.0 0.0 0.0 0.0 0.0 0.0 0.0 0.0 0.0 0.0 0.0 0.0 0.0 0.0 0.0 0.0 0.0 0.0 0.0 0.0 0.0 0.0 0.0 0.0 0.0 0.0 0.0 0.0 0.0 0.0 0.0 0.0 0.0 0.0 0.0 0.0 0.0 0.0 0.0 0.0 0.0 0.0 0.0 0.0 0.0 0.0 0.0 0.0 0.0 0.0 0.0 0.0 0.0 0.0 0.0 0.0 0.0 0.0 0.0 0.0 0.0 0.0 0.0 0.0 0.0 0.0 0.0 0.0 0.0 0.0 0.0 0.0 0.0 0.0 0.0 0.0 0.0 0.0 0.0 0.0 0.0 0.0 0.0 0.0 0.0 0.0 0.0 0.0 0.0 0.0 0.0 0.0 0.0 0.0 0.0 0.0 0.0 0.0 0.0 0.0 0.0 0.0 0.0 0.0 0.0 0.0 0.0 0.0 0.0 0.0 0.0 0.0 0.0 0.0 0.0 0.0 0.0 0.0 0.0 0.0 0.0 0.0 0.0 0.0 0.0 0.0 0.0 0.0 0.0 0.0 0.0 0.0 0.0 0.0 0.0 0.0 0.0 0.0 0.0 0.0 0.0 0.0 0.0 0.0 0.0 0.0 0.0 0.0 0.0 0.0 0.0 0.0 0.0 0.0 0.0 0.0 0.0 0.0 0.0 0.0 0.0 0.0 0.0 0.0 0.0 0.0 0.0 0.0 0.0 0.0 0.0 0.0 0.0 0.0 0.0 0.0 0.0 0.0 0.0 0.0 0.0 0.0 0.0 0.0 0.0 0.0 0.0 0.0 0.0 0.0 0.0 0.0 0.0 0.0 0.0 0.0 0.0 0.0 0.0 0.0 0.0 0.0 0.0 0.0 0.0 0.0 0.0 0.0 0.0 0.0 0.0 0.0 0.0 0.0 0.0 0.0 0.0 0.0 0.0 0.0 0.0 0.0 0.0 0.0 0.0 0.0 0.0 0.0 0.0 0.0 0.0 0.0 0.0 0.0 0.0 0.0 0.0 0.0 0.0 0.0 0.0 0.0 0.0 0.0 0.0 0.0 0.0 0.0 0.0 0.0 0.0 0.0 0.0 0.0 0.0 0.0 0.0 0.0 0.0 0.0 0.0 0.0 0.0 0.0 0.0 0.0 0.0 0.0 0.0 0.0 0.0 0.0 0.0 0.0 0.0 0.0 0.0 0.0 0.0 0.0 0.0 0.0 0.0 0.0 0.0 0.0 0.0 0.0 0.0 0.0 0.0 0.0 0.0 0.0 0.0 0.0 0.0 0.0 0.0 0.0 0.0 0.0 0.0 0.0 0.0 0.0 0.0 0.0 0.0 0.0 0.0 0.0 0.0 0.0 0.0 0.0 0.0 0.0 0.0 0.0 0.0 0.0 0.0 0.0 0.0 0.0 0.0 0.0 0.0 0.0 0.0 0.0 0.0 0.0 0.0 0.0 0.0 0.0 0.0 0.0 0.0 0.0 0.0 0.0 0.0 0.0 0.0 0.0 0.0 0.0 0.0 0.0 0.0 0.0 0.0 0.0 0.0 0.0 0.0 0.0 0.0 0.0 0.0 0.0 0.0 0.0 0.0 0.0 0.0 0.0 0.0 0.0 0.0 0.0 0.0 0.0 0.0 0.0 0.0 0.0 0.0 0.0 0.0 0.0 0.0 0.0 0.0 0.0 0.0 0.0 0.0 0.0 0.0 0.0 0.0 0.0 0.0 0.0 0.0 0.0 0.0 0.0 0.0 0.0 0.0 0.0 0.0 0.0 0.0 0.0 0.0 0.0 0.0 0.0 0.0 0.0 0.0 0.0 0.0 0.0 0.0 0.0 0.0 0.0 0.0 0.0 0.0 0.0 0.0 0.0 0.0 0.0 0.0 0.0 0.0 0.0 0.0 0.0 0.0 0.0 0.0 0.0 0.0 0.0 0.0 0.0 0.0 0.0 0.0 0.0 0.0 0.0 0.0 0.0 0.0 0.0 0.0 0.0 0.0 0.0 0.0 0.0 0.0 0.0 0.0 0.0 0.0 0.0 0.0 0.0 0.0 0.0 0.0 0.0 0.0 0.0 0.0 0.0 0.0 0.0 0.0 0.0 0.0 0.0 0.0 0.0 0.0 0.0 0.0 0.0 0.0 0.0 0.0 0.0 0.0 0.0 0.0 0.0 0.0 0.0 0.0 0.0 0.0 0.0 0.0 0.0 0.0 0.0 0.0 0.0 0.0 0.0 0.0 0.0 0.0 0.0 0.0 0.0 0.0 0.0 0.0 0.0 0.0 0.0 0.0 0.0 0.0 0.0 0.0 0.0 0.0 0.0 0.0 0.0 0.0 0.0 0.0 0.0 0.0 0.0 0.0 0.0 0.0 0.0 0.0 0.0 0.0 0.0 0.0 0.0 0.0 0.0 0.0 0.0 0.0 0.0 0.0 0.0 0.0 0.0 0.0 0.0 0.0 0.0 0.0 0.0 0.0 0.0 0.0 0.0 0.0 0.0 0.0 0.0 0.0 0.0 0.0 0.0 0.0 0.0 0.0 0.0 0.0 0.0 0.0 0.0 0.0 0.0 0.0 0.0 0.0 0.0 0.0 0.0 0.0 0.0 0.0 0.0 0.0 0.0 0.0 0.0 0.0 0.0 0.0 0.0 0.0 0.0 0.0 0.0 0.0 0.0 0.0 0.0 0.0 0.0 0.0 0.0 0.0 0.0 0.0 0.0 0.0 0.0 0.0 0.0 0.0 0.0 0.0 0.0 0.0 0.0 0.0 0.0 0.0 0.0 0.0 0.0 0.0 0.0 0.0 0.0 0.0 0.0 0.0 0.0 0.0 0.0 0.0 0.0 0.0 0.0 0.0 0.0 0.0 0.0 0.0 0.0 0.0 0.0 0.0 0.0 0.0 0.0 0.0 0.0 0.0 0.0 0.0 0.0 0.0 0.0 0.0 0.0 0.0 0.0 0.0 0.0 0.0 0.0 0.0 0.0 0.0 0.0 0.0 0.0 0.0 0.0 0.0 0.0 0.0 0.0 0.0 0.0 0.0 0.0 0.0 0.0 0.0 0.0 0.0 0.0 0.0 0.0 0.0 0.0 0.0 0.0 0.0 0.0 0.0 0.0 0.0 0.0 0.0 0.0 0.0 0.0 0.0 0.0 0.0 0.0 0.0 0.0 0.0 0.0 0.0 0.0 0.0 0.0 0.0 0.0 0.0 0.0 0.0 0.0 0.0 0.0 0.0 0.0 0.0 0.0 0.0 0.0 0.0 0.0 0.0 0.0 0.0 0.0 0.0 0.0 0.0 0.0 0.0 0.0 0.0 0.0 0.0 0.0 0.0 0.0 0.0 0.0 0.0 0.0 0.0 0.0 0.0 0.0 0.0 0.0 0.0 0.0 0.0 0.0 0.0 0.0 0.0 0.0 0.0 0.0 0.0 0.0 0.0 0.0 0.0 0.0 0.0 0.0 0.0 0.0 0.0 0.0 0.0 0.0 0.0 0.0 0.0 0.0 0.0 0.0 0.0 0.0 0.0 0.0 0.0 0.0 0.0 0.0 0.0 0.0 0.0 0.0 0.0 0.0 0.0 0.0 0.0 0.0 0.0 0.0 0.0 0.0 0.0 0.0 0.0 0.0 0.0 0.0 0.0 0.0 0.0 0.0 0.0 0.0 0.0 0.0 0.0 0.0 0.0 0.0 0.0 0.0 0.0 0.0 0.0 0.0 0.0 0.0 0.0 0.0 0.0 0.0 0.0 0.0 0.0 0.0 0.0 0.0 0.0 0.0 0.0 0.0 0.0 0.0 0.0 0.0 0.0 0.0 0.0 0.0 0.0 0.0 0.0 0.0 0.0 0.0 0.0 0.0 0.0 0.0 0.0 0.0 -0.004612165 0.0 -0.0018721482 -0.005677888199999999 0.0 -0.0018257567000000002 -0.0065975995 0.0 -0.0016923947 -0.007340936899999999 0.0 -0.0015087257999999999 -0.0079034083 0.0 -0.0013136579999999999 -0.0043828711 0.0 -0.0024096328 -0.0062636137 0.0 -0.0022272663 -0.0079003777 0.0 -0.0022469421 -0.0092474716 0.0 -0.0021505801 -0.010297629 0.0 -0.0019662667 -0.01107298 0.0 -0.0017417155 -0.0060097771 0.0 -0.0025588793 -0.0085693784 0.0 -0.0024246895 -0.010799523 0.0 -0.0024171064 -0.012644358 0.0 -0.0023324073 -0.014056477 0.0 -0.0021808557 -0.015087211000000001 0.0 -0.0019583509 -0.0079896282 0.0 -0.0025758104999999997 -0.01130852 0.0 -0.0023987212 -0.014145787 0.0 -0.0024181848999999997 -0.016476853 0.0 -0.0023641779999999998 -0.01825103 0.0 -0.0022429836 -0.019534407 0.0 -0.0020360306 -0.010248398 0.0 -0.0025486248 -0.014369867 0.0 -0.0022632298 -0.017822912 0.0 -0.0022903099 -0.020621791 0.0 -0.0022644666 -0.022724481 0.0 -0.0021805963 -0.024231213999999997 0.0 -0.0020036495000000003 -0.012807546000000001 0.0 -0.0025412943 -0.017778544 0.0 -0.0020650920999999997 -0.021837641 0.0 -0.0020634744 -0.025074076 0.0 -0.0020600604 -0.027473096000000002 0.0 -0.0020240038 -0.029168008 0.0 -0.0018943724 -0.015729463 0.0 -0.0026702199 -0.021609209 0.0 -0.0018926417999999999 -0.02626453 0.0 -0.0017997216 -0.029911496 0.0 -0.0018079535000000001 -0.032587092000000005 0.0 -0.0018181066 -0.034449235 0.0 -0.0017514748 -0.019123519 0.0 -0.0030426985999999997 -0.025955636 0.0 -0.0018566243 -0.031192948999999998 0.0 -0.0016105719 -0.035244171 0.0 -0.0015992270000000002 -0.038182512 0.0 -0.0016459776 -0.040200144 0.0 -0.0016436795 -0.0232458 0.0 -0.0034751787 -0.030882913999999997 0.0 -0.0019946904 -0.036640603 0.0 -0.0016356141000000001 -0.041129328 0.0 -0.0015513179 -0.044329482999999996 0.0 -0.0016296245999999999 -0.046498227999999996 0.0 -0.0016647035999999998 -0.028669477000000002 0.0 -0.0032557148999999997 -0.036559954 0.0 -0.0021105383 -0.042721674 0.0 -0.0018101111 -0.047601542999999996 0.0 -0.001742531 -0.051066365 0.0 -0.0018579547 -0.05335743 0.0 -0.0019368859 -0.035845932000000004 0.0 -0.0023307598000000002 -0.043260272999999995 0.0 -0.0021197104 -0.049588464000000006 0.0 -0.0020840582000000002 -0.05472593 0.0 -0.0022102287 -0.058408565999999995 0.0 -0.0023932736 -0.060782444000000005 0.0 -0.0025253394 -0.04348664 0.0 -0.0035118158 -0.050957989 0.0 -0.0030077395000000003 -0.05729562 0.0 -0.0028673427000000004 -0.062578328 0.0 -0.0030613695 -0.066365667 0.0 -0.0033352429 -0.068763778 0.0 -0.0035326744 -0.05157426 0.0 -0.010249115999999999 -0.059387515999999994 0.0 -0.0076520639000000005 -0.065937415 0.0 -0.0055720098 -0.071173936 0.0 -0.005028489000000001 -0.074950621 0.0 -0.0050248858 -0.077343144 0.0 -0.005097304 -0.061651904 0.0 -0.015678976 -0.069222569 0.0 -0.013097611 -0.075624071 0.0 -0.010038036 -0.080660939 0.0 -0.0083963498 -0.08422979 0.0 -0.00767317 -0.08655437099999999 0.0 -0.0073015876 -0.073305242 0.0 -0.019178355 -0.080419295 0.0 -0.017081749 -0.08629614099999999 0.0 -0.014433176 -0.09088299400000001 0.0 -0.01233791 -0.09418714800000001 0.0 -0.0110041 -0.096444272 0.0 -0.010054616 -0.08555044199999999 0.0 -0.021830093 -0.09196686 0.0 -0.020143418 -0.09733893699999999 0.0 -0.018168116 -0.10161729 0.0 -0.016115397 -0.10477349 0.0 -0.014462013999999999 -0.10702145 0.0 -0.013050711999999999 -0.09736655699999999 0.0 -0.024324056 -0.10338703 0.0 -0.022895452 -0.10855921 0.0 -0.021313073 -0.11277862 0.0 -0.019443169 -0.11596908 0.0 -0.017687006 -0.11829831 0.0 -0.016020915 -0.10864233 0.0 -0.026742155 -0.11474369 0.0 -0.0254639 -0.12005676 0.0 -0.024069207000000002 -0.12444307 0.0 -0.022351793999999998 -0.12781543 0.0 -0.020585958 -0.13029942 0.0 -0.018784206 -0.11977243 0.0 -0.029105896000000003 -0.12635061 0.0 -0.027910208 -0.13204697 0.0 -0.026567837 -0.13673455 0.0 -0.024939497999999997 -0.14036119 0.0 -0.023167199 -0.14304626 0.0 -0.021267455 -0.13128351 0.0 -0.031356689 -0.13848858 0.0 -0.030206714 -0.14466779 0.0 -0.02887249 -0.1497227 0.0 -0.027270639 -0.15364401 0.0 -0.025465576 -0.15656158 0.0 -0.023488104 -0.14334063 0.0 -0.033444657999999995 -0.15122248 0.0 -0.032326002 -0.15794522 0.0 -0.030999772000000002 -0.16342522 0.0 -0.029387053 -0.16768794 0.0 -0.027522976 -0.17086986 0.0 -0.025465375 -0.15592591 0.0 -0.035301112 -0.16454226 0.0 -0.034236766 -0.17187919 0.0 -0.032931041 -0.17784697 0.0 -0.031299591 -0.18250503 0.0 -0.029349782 -0.18599221 0.0 -0.027194111 -0.16900983 0.0 -0.036875248 -0.1784393 0.0 -0.035892237 -0.18646994 0.0 -0.03462581 -0.19299713 0.0 -0.032962047 -0.19811338 0.0 -0.030900165 -0.20195796 0.0 -0.02862427 -0.18259563 0.0 -0.038118515 -0.19293496 0.0 -0.037226364 -0.20174183 0.0 -0.036003087 -0.20890871 0.0 -0.034268804 -0.21455006 0.0 -0.032076415 -0.21880005 0.0 -0.029689347 -0.1967701 0.0 -0.038980845 -0.20810674 0.0 -0.038166228999999996 -0.21776421 0.0 -0.036938805 -0.22565642 0.0 -0.035053227 -0.2318745 0.0 -0.03275894 -0.2365721 0.0 -0.030311183999999998 -0.21176414 0.0 -0.039427865 -0.22411865 0.0 -0.038634021 -0.23466347 0.0 -0.037276637 -0.24334124 0.0 -0.0351489 -0.25015754 0.0 -0.032852646 -0.25532687 0.0 -0.030443469 -0.22797015 0.0 -0.039440843999999996 -0.24120948 0.0 -0.03855297 -0.25259313 0.0 -0.036874224 -0.26204377 0.0 -0.034468386000000004 -0.26943517 0.0 -0.032348383 -0.27508664 0.0 -0.030085748 -0.2458024 0.0 -0.039034456 -0.25955138 0.0 -0.037882935 -0.27159694 0.0 -0.035642922 -0.28169656 0.0 -0.033106618 -0.28961617 0.0 -0.031331208 -0.29572234 0.0 -0.029368037000000003 -0.26528364 0.0 -0.038272392 -0.2789399 0.0 -0.036672309 -0.29132858 0.0 -0.033691547999999995 -0.30184832 0.0 -0.03126312 -0.31024116 0.0 -0.030044364 -0.31675753 0.0 -0.028507425 -0.28560176 0.0 -0.037296005 -0.29848048 0.0 -0.035132069 -0.31081313 0.0 -0.031426728 -0.32148647 0.0 -0.029294696000000002 -0.3300935 0.0 -0.028879332999999997 -0.33712825 0.0 -0.02771673 -0.30502459 0.0 -0.03646268 -0.31669024 0.0 -0.033776581 -0.32853556 0.0 -0.029572884 -0.33927271 0.0 -0.027572401 -0.34818867 0.0 -0.027526177000000002 -0.35550779 0.0 -0.026897086 -0.32149091 0.0 -0.036636423 -0.33223209 0.0 -0.033369709 -0.34401149 0.0 -0.028949267999999997 -0.35469806 0.0 -0.026314331 -0.36366519 0.0 -0.025918737 -0.37127993 0.0 -0.025199261 -0.33331978 0.0 -0.038405258 -0.34435174 0.0 -0.034962535 -0.35628983 0.0 -0.030932377999999996 -0.36714277 0.0 -0.026746331 -0.3760995 0.0 -0.024369301 -0.38352329 0.0 -0.022884144 -0.33693177 0.0 -0.041661084 -0.35011786 0.0 -0.038508162 -0.36245278 0.0 -0.036613427000000004 -0.3734746 0.0 -0.032112744 -0.38316053 0.0 -0.025682319 -0.39112297 0.0 -0.021294103999999998 -0.32212138 0.0 -0.04521947 -0.3449572 0.0 -0.041476034 -0.35933959 0.0 -0.041669532999999995 -0.37097481 0.0 -0.040732075 -0.38255101 0.0 -0.032637361000000004 -0.39195782 0.0 -0.024280632000000003 -0.24988413 0.0 -0.045157305999999994 -0.30641294 0.0 -0.041125655 -0.33899716 0.0 -0.043993939 -0.35279959 0.0 -0.048971869 -0.36454916 0.0 -0.047928739000000005 -0.37703416 0.0 -0.039672367 -0.1513167 0.0 -0.043276019000000006 -0.19696561 0.0 -0.038808841000000004 -0.24607363 0.0 -0.04024801 -0.28461459 0.0 -0.048909377000000004 -0.30734184 0.0 -0.054754372999999995 -0.32138854 0.0 -0.057643097000000004 -0.086121932 0.0 -0.044582527000000004 -0.11236172 0.0 -0.035886295 -0.14145151 0.0 -0.034893472 -0.16697839 0.0 -0.04008444 -0.18618122 0.0 -0.045269944000000006 -0.19962721 0.0 -0.048586360999999995 -0.053602826 0.0 -0.046900965 -0.06707363599999999 0.0 -0.032651465 -0.081550002 0.0 -0.02922228 -0.095027156 0.0 -0.029353252000000003 -0.10602811 0.0 -0.03303593 -0.1146417 0.0 -0.035309162000000005 -0.037526045 0.0 -0.0471805 -0.043159742 0.0 -0.03050329 -0.048443627 0.0 -0.026544586000000002 -0.053366181 0.0 -0.021060487000000003 -0.057663637999999996 0.0 -0.02317021 -0.061440323 0.0 -0.02241195 -0.020086741 0.0 -0.046697747000000005 -0.019985743 0.0 -0.028818978 -0.018910164 0.0 -0.024619158 -0.017690759 0.0 -0.018956132 -0.017083017 0.0 -0.019289779 -0.017184587 0.0 -0.016490277 0.0090680728 0.0 -0.046132535 0.015415479 0.0 -0.027742535 0.022515452999999998 0.0 -0.022845857 0.028824156 0.0 -0.021040687000000002 0.032873262 0.0 -0.022746084 0.034753881 0.0 -0.018272275 0.050069243 0.0 -0.045907117000000004 0.064284347 0.0 -0.027866589 0.078438386 0.0 -0.022772174 0.08979195400000001 0.0 -0.023693712000000002 0.09651924699999999 0.0 -0.027398272999999997 0.09877196 0.0 -0.02448849 0.09665931800000001 0.0 -0.046202436 0.12000784 0.0 -0.029427834 0.14223863 0.0 -0.0249727 0.15918303 0.0 -0.026982561000000002 0.1682369 0.0 -0.031748354 0.17006746 0.0 -0.03161744 0.14222752 0.0 -0.047041912000000005 0.17486279 0.0 -0.03243915 0.20547403 0.0 -0.028865897999999997 0.22834975 0.0 -0.031341743 0.23976035 0.0 -0.0359932 0.24147063 0.0 -0.037642773 0.1833249 0.0 -0.048452392000000004 0.22439241 0.0 -0.036724497 0.26253164 0.0 -0.03386442 0.28989431 0.0 -0.035699818 0.30510488 0.0 -0.039650481 0.30792066 0.0 -0.042024143 0.21970779 0.0 -0.050770693 0.26724228 0.0 -0.042235799000000004 0.30963528 0.0 -0.038672496 0.34148335 0.0 -0.038783561 0.36076558 0.0 -0.041882437 0.36590269 0.0 -0.044377055 0.25261387 0.0 -0.053673979000000004 0.30232322 0.0 -0.047691707 0.34743908 0.0 -0.044774010999999996 0.3842628 0.0 -0.04221729900000001 0.40388545 0.0 -0.04436427 0.40641895 0.0 -0.047048509 0.28441712 0.0 -0.056505769000000004 0.33447853 0.0 -0.052094485999999995 0.38037732 0.0 -0.05077197 0.41751769 0.0 -0.047163393 0.43187606 0.0 -0.049553964000000006 0.43147215 0.0 -0.051271934000000005 0.31673032 0.0 -0.059221163 0.36603415 0.0 -0.055957042 0.4104661 0.0 -0.055404842 0.44080365 0.0 -0.054026168 0.44707882 0.0 -0.057460122 0.44314718 0.0 -0.056598645 0.35008049 0.0 -0.061675057 0.39714238 0.0 -0.059050242999999995 0.43766558 0.0 -0.05900071900000001 0.45407918 0.0 -0.060763280999999995 0.45494556 0.0 -0.063316919 0.44860899 0.0 -0.060063429 0.3848871 0.0 -0.06352134 0.42748374 0.0 -0.060499568 0.45652029 0.0 -0.062198132 0.46243465 0.0 -0.064672276 0.45922583 0.0 -0.065986291 0.45059639 0.0 -0.06159657599999999 0.42111346 0.0 -0.06500265 0.45506531 0.0 -0.060462568 0.46722358 0.0 -0.062697083 0.46657082 0.0 -0.06455968299999999 0.46045125 0.0 -0.065047078 0.4507027 0.0 -0.060902022 0.45724055 0.0 -0.060946267 0.47052234 0.0 -0.058645792 0.47230572 0.0 -0.060255215 0.4679468 0.0 -0.061557825999999996 0.46042997 0.0 -0.062052049000000005 0.44992977 0.0 -0.058660042 0.47075701 0.0 -0.057182107 0.47660044 0.0 -0.056330424000000004 0.4728218 0.0 -0.055937442999999996 0.46731505 0.0 -0.05655102099999999 0.45962462 0.0 -0.0574762 0.44856086 0.0 -0.054855812000000004 0.47686067 0.0 -0.053454142 0.47064373 0.0 -0.051719394 0.46485654 0.0 -0.050433483 0.45776254 0.0 -0.051459312 0.4467411 0.0 -0.050095256 0.47263452 0.0 -0.050194159 0.46725905 0.0 -0.04776258 0.46073902 0.0 -0.044658065 0.45443743 0.0 -0.044790275 0.44445392 0.0 -0.044563979000000004 0.46329385 0.0 -0.04407005 0.45633522 0.0 -0.040136021 0.44973519 0.0 -0.038016949 0.44142675 0.0 -0.038608391 0.45677805 0.0 -0.040682882000000004 0.45195758 0.0 -0.036560681 0.44453326 0.0 -0.03235469 0.43735451 0.0 -0.032405663 0.44627437 0.0 -0.034249882999999995 0.43939602 0.0 -0.029118856000000002 0.43256482 0.0 -0.026962892999999998 0.43302616 0.0 -0.027736972999999998 0.42723975 0.0 -0.024083311 0.41937456 0.0 -0.026626319 0.41953072 0.0 -0.023284698 -0.0083120288 0.0 -0.0011253619 -0.008599814 0.0 -0.00094005541 -0.00879128 0.0 -0.0007732982 -0.0089101093 0.0 -0.0006271809099999999 -0.0089810528 0.0 -0.00049156166 -0.009018695 0.0 -0.00037229463 -0.0090358648 0.0 -0.00026765582000000003 -0.0090424456 0.0 -0.00017188159 -0.0090440242 0.0 -8.3830178e-05 -0.011626136 0.0 -0.001498024 -0.012002796000000001 0.0 -0.0012666507 -0.012246841999999999 0.0 -0.0010559089 -0.012398633999999999 0.0 -0.0008594066 -0.012485446 0.0 -0.00068129401 -0.01252953 0.0 -0.0005222517099999999 -0.012548267 0.0 -0.00037767367999999997 -0.012553887 0.0 -0.00024436705 -0.012554072 0.0 -0.00011994503 -0.015803656 0.0 -0.0017150192000000002 -0.016283475 0.0 -0.0014707881 -0.016591778 0.0 -0.0012394877 -0.016780889 0.0 -0.0010201745 -0.016886998 0.0 -0.00081763044 -0.016939171 0.0 -0.0006331171599999999 -0.016960206999999998 0.0 -0.00046066872999999997 -0.016964791 0.0 -0.00030027566000000004 -0.016963441 0.0 -0.00014820401000000002 -0.020411858 0.0 -0.0018046829 -0.020992864 0.0 -0.0015661021 -0.021365242000000003 0.0 -0.0013300673999999998 -0.021590482 0.0 -0.0011068607000000001 -0.02171528 0.0 -0.0008970092199999999 -0.021776244 0.0 -0.0006986744099999999 -0.021799199 0.0 -0.00051256135 -0.021802919 0.0 -0.00033634261 -0.021800201 0.0 -0.00016678905 -0.025250137000000002 0.0 -0.0017939046 -0.025919212 0.0 -0.001572354 -0.026346092999999998 0.0 -0.0013464018 -0.026601523 0.0 -0.0011318796000000001 -0.026742178999999998 0.0 -0.0009251657199999999 -0.026809515 0.0 -0.00072689087 -0.026833685 0.0 -0.00053763413 -0.026836421000000003 0.0 -0.00035498652000000004 -0.026832433 0.0 -0.00017633615000000002 -0.030304594 0.0 -0.001722134 -0.031046562000000003 0.0 -0.0015232948000000002 -0.031514261 0.0 -0.0013203317000000001 -0.031791612999999996 0.0 -0.0011215053 -0.03194242 0.0 -0.00092564989 -0.032013036 0.0 -0.00073507952 -0.032036994 0.0 -0.00054824573 -0.032038152 0.0 -0.00036395032999999997 -0.032032557 0.0 -0.00018156116000000002 -0.03568415 0.0 -0.0016327217000000002 -0.036482476 0.0 -0.0014700736 -0.036978807 0.0 -0.001295852 -0.037269291 0.0 -0.0011144527 -0.037424076 0.0 -0.0009317636099999999 -0.037494343 0.0 -0.00074825599 -0.037516173 0.0 -0.00056318846 -0.037514663999999996 0.0 -0.00037668739 -0.037506994 0.0 -0.00018875764 -0.041519508 0.0 -0.0015849043 -0.042359989 0.0 -0.0014684922 -0.042874586 0.0 -0.0013235913000000001 -0.043170039 0.0 -0.0011590929 -0.043323506 0.0 -0.00098306965 -0.043390024000000006 0.0 -0.0007979951299999999 -0.043407477 0.0 -0.0006060244599999999 -0.043402147 0.0 -0.00040807034 -0.043391842 0.0 -0.00020541142 -0.047886967999999995 0.0 -0.0016613773 -0.04875714 0.0 -0.0015908603 -0.049282234 0.0 -0.0014681267000000002 -0.049577769 0.0 -0.0013079914 -0.04972655 0.0 -0.001122442 -0.049786869000000004 0.0 -0.0009186848800000001 -0.049798284000000005 0.0 -0.00070161844 -0.049788005999999996 0.0 -0.00047421304 -0.049774475 0.0 -0.00023923976000000003 -0.054798514000000006 0.0 -0.001960546 -0.055687565 0.0 -0.0019164478 -0.056219053 0.0 -0.0017980514 -0.056513954000000005 0.0 -0.0016159831 -0.056657784 0.0 -0.001392687 -0.056711473 0.0 -0.0011418593 -0.056716301 0.0 -0.0008726679400000001 -0.056700502 0.0 -0.0005898762 -0.056683339000000006 0.0 -0.00029761979 -0.062249977000000005 0.0 -0.0025741027 -0.063151054 0.0 -0.0025277554999999998 -0.063691236 0.0 -0.0023765995000000002 -0.063989908 0.0 -0.0021324796 -0.064132832 0.0 -0.0018318448 -0.064181961 0.0 -0.001496044 -0.064180613 0.0 -0.0011393229 -0.06415911 0.0 -0.0007684979400000001 -0.064138018 0.0 -0.00038716436000000003 -0.070252635 0.0 -0.0035656502 -0.07116642599999999 0.0 -0.0034818656 -0.07172585299999999 0.0 -0.0032373255 -0.072037108 0.0 -0.0028824727000000003 -0.072185636 0.0 -0.0024555519 -0.07223355 0.0 -0.001993682 -0.07222785799999999 0.0 -0.0015113194 -0.072202072 0.0 -0.001017067 -0.072177865 0.0 -0.00051202305 -0.078831322 0.0 -0.0050388095 -0.079781666 0.0 -0.0047696568 -0.080367461 0.0 -0.0043749614 -0.080701776 0.0 -0.0038573269 -0.080861248 0.0 -0.0032729364000000003 -0.080913417 0.0 -0.0026521015 -0.080907404 0.0 -0.0020090013 -0.080879621 0.0 -0.0013469062 -0.080853403 0.0 -0.0006742011200000001 -0.088051505 0.0 -0.0069231801 -0.08903724 0.0 -0.0064162822 -0.089664936 0.0 -0.005787224499999999 -0.09003102800000001 0.0 -0.0050606462 -0.09021221800000001 0.0 -0.0042736473999999995 -0.090275779 0.0 -0.0034514833 -0.09027408099999999 0.0 -0.0026079931 -0.090246454 0.0 -0.0017469996 -0.090219669 0.0 -0.0008787873699999999 -0.09795814 0.0 -0.0092318384 -0.098988362 0.0 -0.00838234 -0.099661954 0.0 -0.0074767512 -0.10006858 0.0 -0.00649013 -0.10028147 0.0 -0.0054501328 -0.10036658 0.0 -0.00438073 -0.10037736 0.0 -0.0032955448 -0.1003552 0.0 -0.0021997474 -0.10033108 0.0 -0.0010997825 -0.10858531 0.0 -0.011792526999999999 -0.10967641 0.0 -0.010586463999999999 -0.11040429 0.0 -0.0093596652 -0.11086001 0.0 -0.0080827894 -0.1111132 0.0 -0.0067677493000000005 -0.11122899 0.0 -0.0054263603 -0.11126118 0.0 -0.0040690945 -0.11125427 0.0 -0.0027129810999999998 -0.11123775 0.0 -0.0013566015 -0.11995678 0.0 -0.014428566 -0.12112533 0.0 -0.012879858000000001 -0.1219261 0.0 -0.011333905 -0.1224436 0.0 -0.0097673731 -0.12275021 0.0 -0.008168050100000001 -0.12290969 0.0 -0.0065486352 -0.12297461 0.0 -0.0049206102 -0.12298927 0.0 -0.0032855789000000002 -0.12298576 0.0 -0.0016456022 -0.13208592 0.0 -0.016957738 -0.13336183 0.0 -0.015139335 -0.13425672 0.0 -0.013321073000000001 -0.13485633 0.0 -0.011476155 -0.13523608 0.0 -0.0096052149 -0.13545468 0.0 -0.0077123237 -0.13556571 0.0 -0.005804266800000001 -0.13561362 0.0 -0.0038843942 -0.13562864 0.0 -0.0019446274 -0.14499265 0.0 -0.019287918 -0.14640753 0.0 -0.01727391 -0.14742516 0.0 -0.015226076000000002 -0.14813636 0.0 -0.013150587 -0.14861231 0.0 -0.01102452 -0.14891194 0.0 -0.008864888000000001 -0.14908619 0.0 -0.0066809426 -0.14917825 0.0 -0.0044666720000000005 -0.14922103 0.0 -0.0022382094 -0.15870093 0.0 -0.02139047 -0.16028757 0.0 -0.019223483 -0.16146526 0.0 -0.017000491 -0.1623207 0.0 -0.01471416 -0.16292208 0.0 -0.012361711000000001 -0.16332705 0.0 -0.0099592693 -0.16358347 0.0 -0.0075031524 -0.16373558 0.0 -0.0050213048 -0.16381352 0.0 -0.0025162196 -0.17323571 0.0 -0.023256497 -0.17502965 0.0 -0.020951105 -0.17640287 0.0 -0.018577261 -0.17743945 0.0 -0.016107542 -0.1782003 0.0 -0.013557441000000002 -0.17873655 0.0 -0.01093178 -0.1790982 0.0 -0.0082500093 -0.17932512 0.0 -0.005523748199999999 -0.1794475 0.0 -0.0027695063000000002 -0.18862478 0.0 -0.024858121 -0.19065982 0.0 -0.022421815 -0.19226728 0.0 -0.019894868 -0.19351956 0.0 -0.017268801 -0.19447105 0.0 -0.014558508999999999 -0.19516689 0.0 -0.011753617 -0.19565545 0.0 -0.0088852579 -0.1959728 0.0 -0.005957088399999999 -0.19614972 0.0 -0.0029884672 -0.20489226 0.0 -0.026158061 -0.20720603 0.0 -0.02358037 -0.20907801 0.0 -0.020912973 -0.21057612 0.0 -0.018158033 -0.21174644 0.0 -0.015322855 -0.2126292 0.0 -0.012392571000000002 -0.21326636 0.0 -0.0093850549 -0.21369086 0.0 -0.0063033635 -0.2139322 0.0 -0.0031652083 -0.2220744 0.0 -0.027097992999999997 -0.22469619 0.0 -0.024384361 -0.22685789 0.0 -0.021597678 -0.22862232 0.0 -0.01875177 -0.23003368 0.0 -0.015837288 -0.23112623 0.0 -0.012832885 -0.23193215 0.0 -0.009737745899999999 -0.23248002 0.0 -0.0065533998 -0.23279589 0.0 -0.0032955171 -0.2402138 0.0 -0.027639365 -0.24316639 0.0 -0.024823587 -0.24562852 0.0 -0.021958655 -0.24767065 0.0 -0.019062061 -0.24933805 0.0 -0.016113639 -0.25065708 0.0 -0.013080482 -0.25164914 0.0 -0.009948744399999999 -0.25233403 0.0 -0.0067076324 -0.25273374 0.0 -0.0033790390000000003 -0.25935942 0.0 -0.027767835 -0.26265112 0.0 -0.024934968 -0.26541314 0.0 -0.022050092 -0.26773524 0.0 -0.019139623 -0.26966453 0.0 -0.016189612 -0.2712197 0.0 -0.013163338 -0.27240935 0.0 -0.010032751 -0.27324292 0.0 -0.0067791166 -0.27373362 0.0 -0.0034202761 -0.27951533 0.0 -0.027541701000000002 -0.28314626 0.0 -0.024808162999999998 -0.28621328 0.0 -0.02197076 -0.2888138 0.0 -0.019064931 -0.29100254 0.0 -0.016122073 -0.29279587 0.0 -0.013122641 -0.29418805 0.0 -0.010016217 -0.29517624 0.0 -0.0067820121 -0.29576495 0.0 -0.0034278323999999997 -0.30054367 0.0 -0.027082017000000003 -0.30453026 0.0 -0.0245397 -0.30791926 0.0 -0.021796633 -0.31080773 0.0 -0.018921025 -0.31325331 0.0 -0.015977342 -0.31527877 0.0 -0.012990848999999999 -0.31687266 0.0 -0.0099242069 -0.31801894 0.0 -0.0067255427 -0.31870866 0.0 -0.0034006871000000004 -0.32198888 0.0 -0.026547302999999998 -0.32637697 0.0 -0.024194906000000002 -0.33013558 0.0 -0.021575099 -0.33334687 0.0 -0.018735183 -0.33606455 0.0 -0.015787762 -0.33832332 0.0 -0.012803935 -0.34011593 0.0 -0.0097571202 -0.34142143 0.0 -0.0066078361 -0.34221303 0.0 -0.0033379882 -0.34283134 0.0 -0.026060406 -0.34770951 0.0 -0.023869649 -0.3519311 0.0 -0.021307762999999997 -0.35553443 0.0 -0.018499926 -0.35857457 0.0 -0.01555089 -0.3610923 0.0 -0.012553567 -0.36309516 0.0 -0.0095212366 -0.36456275 0.0 -0.0064244177 -0.36546105 0.0 -0.0032401131 -0.36176991 0.0 -0.025385311 -0.36717781 0.0 -0.023305636 -0.3718949 0.0 -0.020843368 -0.37593529 0.0 -0.018090175 -0.37931728 0.0 -0.015151493 -0.3821114 0.0 -0.012166696999999999 -0.38432744 0.0 -0.009179688100000001 -0.38595507 0.0 -0.006156614499999999 -0.38695616 0.0 -0.0030953921000000002 -0.37778521 0.0 -0.023895996 -0.38361475 0.0 -0.021974545 -0.38875481 0.0 -0.019687869 -0.39315671 0.0 -0.017066171 -0.39686596 0.0 -0.014196351000000001 -0.39987841 0.0 -0.011323402 -0.40227336 0.0 -0.008461830200000001 -0.40402848 0.0 -0.0056445859 -0.40511262 0.0 -0.0028248576000000003 -0.39004421 0.0 -0.021426957000000003 -0.39617816 0.0 -0.019544968 -0.40167373 0.0 -0.01747117 -0.40636721 0.0 -0.015116678 -0.4103345 0.0 -0.01247915 -0.4135555 0.0 -0.0098167546 -0.41607136 0.0 -0.0072489553 -0.41792718 0.0 -0.0047672233 -0.41907519 0.0 -0.0023681379 -0.39800811 0.0 -0.018509207 -0.40436518 0.0 -0.016323721 -0.41012979 0.0 -0.014310728 -0.4150905 0.0 -0.012198232 -0.41921142 0.0 -0.009990864399999999 -0.42256737 0.0 -0.007728178499999999 -0.42518753 0.0 -0.0055188634 -0.4270677 0.0 -0.0034937490999999996 -0.42822352 0.0 -0.0016921295 -0.39951473 0.0 -0.018778887 -0.40649113 0.0 -0.014911013999999998 -0.41284421 0.0 -0.012056028 -0.41837424 0.0 -0.0096942428 -0.42295676 0.0 -0.007495163000000001 -0.42658281 0.0 -0.005468831899999999 -0.42935055 0.0 -0.0036415819 -0.43132541 0.0 -0.0021330193 -0.43252513 0.0 -0.00095417735 -0.38773748 0.0 -0.030181846000000002 -0.39720365 0.0 -0.022381892 -0.40572438 0.0 -0.016471362 -0.4129234 0.0 -0.012370782 -0.41872805 0.0 -0.0094041945 -0.4232215 0.0 -0.006897049000000001 -0.42668208 0.0 -0.0045602899 -0.42912576 0.0 -0.0025971397 -0.43055764 0.0 -0.0011289907 -0.33425751 0.0 -0.057571158 -0.34672087 0.0 -0.052434061 -0.35906264 0.0 -0.04419508900000001 -0.37059382 0.0 -0.03638133 -0.38025436 0.0 -0.029416066 -0.38782012 0.0 -0.02294334 -0.39363092 0.0 -0.016840478 -0.39780286 0.0 -0.011045673999999998 -0.40027547 0.0 -0.005456634300000001 -0.21038584 0.0 -0.048487529 -0.22060412 0.0 -0.042305898 -0.23082933 0.0 -0.034731213 -0.24052672 0.0 -0.028116288 -0.24918503 0.0 -0.02266356 -0.2565141 0.0 -0.017818531000000002 -0.26235366 0.0 -0.013153515 -0.26660323 0.0 -0.0086073 -0.26918966 0.0 -0.004234657199999999 -0.1221116 0.0 -0.031657115 -0.12977928 0.0 -0.025998247999999998 -0.13773179 0.0 -0.020927846 -0.14552929 0.0 -0.016845077 -0.15274674 0.0 -0.013675544 -0.15907104 0.0 -0.010831825 -0.16425712 0.0 -0.0079768784 -0.16811147 0.0 -0.0051557910999999994 -0.17048807 0.0 -0.0025001001 -0.065160818 0.0 -0.018056291999999998 -0.069332883 0.0 -0.014017025 -0.073998131 0.0 -0.010567841000000001 -0.078893423 0.0 -0.0080096731 -0.083701037 0.0 -0.0062382934 -0.08812435699999999 0.0 -0.0047316560999999995 -0.091888204 0.0 -0.0032521125 -0.09475958300000001 0.0 -0.0019064151 -0.096559405 0.0 -0.0008384679700000001 -0.017814612 0.0 -0.012059056 -0.018928063999999998 0.0 -0.0084800078 -0.020515235 0.0 -0.0054693501 -0.022481009 0.0 -0.0032557598 -0.024660357999999997 0.0 -0.0018273689 -0.026846397999999997 0.0 -0.00079166226 -0.028817959 0.0 3.4550267000000002e-06 -0.030381883 0.0 0.00043237268 -0.031385761 0.0 0.00038729739 0.035551134 0.0 -0.013124028000000001 0.036048654 0.0 -0.009140515699999999 0.036433786 0.0 -0.0056609279 0.036650956 0.0 -0.0028698533 0.036666986 0.0 -0.0009233885800000001 0.036522914 0.0 0.00041800027000000003 0.036296915 0.0 0.0012442857000000002 0.036066207999999995 0.0 0.0014310470000000002 0.035896577 0.0 0.0009003457400000001 0.099217765 0.0 -0.018795246 0.0996788 0.0 -0.014136611 0.10066538 0.0 -0.0097854054 0.10200628 0.0 -0.0059819263 0.10345598 0.0 -0.0030669584000000004 0.10483566 0.0 -0.0009324532 0.10601955 0.0 0.00047423547999999997 0.10691778 0.0 0.0010539726 0.1074743 0.0 0.0007763737799999999 0.16899469 0.0 -0.026279349 0.1682522 0.0 -0.021040147000000002 0.168777 0.0 -0.015869711 0.17033257 0.0 -0.011096088 0.17247494 0.0 -0.0071925414 0.17479427 0.0 -0.0041245967 0.17694628 0.0 -0.0018511041 0.17866357 0.0 -0.00045989855 0.17976263 0.0 5.3620281999999996e-05 0.23865761 0.0 -0.033286151 0.23632883 0.0 -0.027714785 0.23592892 0.0 -0.022030126 0.23719348 0.0 -0.016630428 0.23951796 0.0 -0.012022776 0.24230003 0.0 -0.008169415400000001 0.24501134 0.0 -0.0050123036 0.24723627 0.0 -0.0026354929 0.24868366 0.0 -0.0010556496 0.30405334 0.0 -0.038495429 0.30047274 0.0 -0.032771885 0.29923874 0.0 -0.026914714 0.30008224 0.0 -0.021316741 0.30230519 0.0 -0.016416319 0.30519286 0.0 -0.012098136 0.30811208 0.0 -0.008252281700000001 0.31055835 0.0 -0.0049555929999999995 0.31216979 0.0 -0.0022676035 0.36124572 0.0 -0.041547325 0.35620585 0.0 -0.035641529 0.35375091 0.0 -0.029819885 0.35355502 0.0 -0.024370421 0.35487634 0.0 -0.019578675 0.35700923 0.0 -0.015181925 0.35935032 0.0 -0.010970873999999999 0.36140305 0.0 -0.006993135 0.36279413 0.0 -0.0033604736 0.40061015 0.0 -0.043280713 0.39487386 0.0 -0.036856599 0.39135927 0.0 -0.03105467 0.38974583 0.0 -0.025923872 0.38944095 0.0 -0.021482415 0.38989812 0.0 -0.017265044 0.39064988 0.0 -0.012938077 0.39138833 0.0 -0.0085275816 0.39190072 0.0 -0.0041979966 0.42478356 0.0 -0.045347202999999996 0.41854089 0.0 -0.038343109 0.41389596 0.0 -0.032424822 0.41059902 0.0 -0.027537693999999998 0.40834215 0.0 -0.023374073 0.406793 0.0 -0.019252352 0.40576535 0.0 -0.014777798 0.40509406 0.0 -0.009965999100000001 0.40473467 0.0 -0.0050088665000000004 0.43560132 0.0 -0.049252607000000004 0.42878082 0.0 -0.041805737 0.42325792 0.0 -0.035489056 0.4188849 0.0 -0.030354032000000003 0.41546822 0.0 -0.025942643999999997 0.41278991 0.0 -0.021519833999999998 0.41079175 0.0 -0.016632171 0.40939108 0.0 -0.011253188999999999 0.40856931 0.0 -0.0056517222 0.43987671 0.0 -0.052333288 0.43244976 0.0 -0.044833239000000004 0.42629945 0.0 -0.03825476 0.42127621 0.0 -0.032725789 0.41721404 0.0 -0.027800307000000003 0.41389796 0.0 -0.023045471 0.4113197 0.0 -0.017879788 0.40948626 0.0 -0.012200082 0.40842381 0.0 -0.006186478299999999 0.44106123 0.0 -0.054298628 0.43284822 0.0 -0.046849959000000004 0.42619717 0.0 -0.040005624 0.4206804 0.0 -0.03399438 0.41614786 0.0 -0.028604942999999997 0.41245365 0.0 -0.023302071 0.40955654 0.0 -0.017857641 0.40744951 0.0 -0.012164251000000001 0.40617257 0.0 -0.006142374599999999 0.44052386 0.0 -0.054377582 0.43168813 0.0 -0.04742581 0.42445749 0.0 -0.040714096 0.41850665 0.0 -0.034410387 0.41353142 0.0 -0.028573005 0.40945843 0.0 -0.023090694 0.40631485 0.0 -0.017601665 0.4040792 0.0 -0.011753185 0.40275827 0.0 -0.005819944200000001 0.43889782 0.0 -0.05308634 0.42923912 0.0 -0.046709705 0.42136922 0.0 -0.040350255 0.41491494 0.0 -0.034109823 0.40964478 0.0 -0.028216194 0.40537405 0.0 -0.022581711 0.40199262 0.0 -0.017052067 0.39955437 0.0 -0.01149961 0.39812154 0.0 -0.005813258199999999 0.43654647 0.0 -0.050480622999999995 0.42591655 0.0 -0.045201532999999995 0.41724971 0.0 -0.039579038 0.41027558 0.0 -0.033738878 0.40460342 0.0 -0.027882382 0.39999443 0.0 -0.02212208 0.39637589 0.0 -0.016483111 0.39377737 0.0 -0.010989905 0.39224085 0.0 -0.0055474141 0.43384966 0.0 -0.046581484000000006 0.42214271 0.0 -0.042535394000000004 0.41252953 0.0 -0.038180225 0.40477875 0.0 -0.033071101 0.39853448 0.0 -0.027540383999999998 0.39348581 0.0 -0.021759722000000002 0.38956529 0.0 -0.016040929 0.38680425 0.0 -0.010571587 0.38518858 0.0 -0.005331248 0.4311201 0.0 -0.041974597 0.41823283 0.0 -0.038807377000000004 0.40767249 0.0 -0.035543364 0.39884934 0.0 -0.031572007 0.39186582 0.0 -0.026779532 0.38623694 0.0 -0.021267518 0.38195708 0.0 -0.015641053999999998 0.37905458 0.0 -0.010416221 0.37728646 0.0 -0.0052068573 0.42845681 0.0 -0.03707622 0.41471964 0.0 -0.034293495 0.40292805 0.0 -0.031800166 0.39327136 0.0 -0.028930627 0.38512582 0.0 -0.025104726 0.37885347 0.0 -0.020390196 0.37414229 0.0 -0.015211876000000001 0.37097326 0.0 -0.010200979 0.36904049 0.0 -0.0050747544 0.42565829 0.0 -0.031906758 0.411897 0.0 -0.029722374 0.39894971 0.0 -0.027384836 0.38803712 0.0 -0.025131202999999998 0.37915504 0.0 -0.022330917000000002 0.37189609 0.0 -0.018626733 0.36674494 0.0 -0.014365525 0.36316264 0.0 -0.009735284399999999 0.36106017 0.0 -0.0048966189 0.42212015 0.0 -0.02643262 0.40922236 0.0 -0.025045583 0.39580008 0.0 -0.022944107999999998 0.38376376 0.0 -0.020821212 0.37382874 0.0 -0.018523573999999998 0.36614388 0.0 -0.015901245 0.36029026 0.0 -0.012683284 0.35635659 0.0 -0.0088332621 0.35406557 0.0 -0.0045103445 0.41759771 0.0 -0.02152756 0.40607885 0.0 -0.020354215 0.39314258 0.0 -0.018835643 0.38018471 0.0 -0.016529644 0.36958525 0.0 -0.014467281 0.36111882 0.0 -0.012267805 0.35508165 0.0 -0.01006447 0.35079986 0.0 -0.0072858213 0.34836724 0.0 -0.0038149271 0.41161335 0.0 -0.019109491 0.40130135 0.0 -0.016204378999999998 0.39007071 0.0 -0.015146917 0.37717614 0.0 -0.012944354 0.36604062 0.0 -0.010791761 0.35697323 0.0 -0.0087493993 0.3503089 0.0 -0.0067939307 0.3459799 0.0 -0.0050316812 0.34342709 0.0 -0.002783716 0.40121806 0.0 -0.01879533 0.39385787 0.0 -0.014536678999999999 0.38456044 0.0 -0.012179681999999999 0.37322384 0.0 -0.0098791122 0.36276275 0.0 -0.0081890468 0.3530581 0.0 -0.0059560076 0.34606844 0.0 -0.0042323433 0.34127861 0.0 -0.0027956238 0.33850905 0.0 -0.0015266881 0.38026038 0.0 -0.013693435 0.37478215 0.0 -0.010622622 0.36590615 0.0 -0.0074434364000000005 0.35699868 0.0 -0.005874833100000001 0.34792399 0.0 -0.0037155334999999998 0.34103873 0.0 -0.002267705 0.3362453 0.0 -0.0013718078 0.33323708 0.0 -0.0005237815200000001 0.35273892 0.0 -0.0056582713 0.3464933 0.0 -0.0035932410999999997 0.33918422 0.0 -0.001156027 0.33338973 0.0 4.2936012e-05 0.32895005 0.0 0.0006247506200000001 0.32641977 0.0 0.00038811745000000004 0.32633585 0.0 0.00054467208 0.32245833 0.0 0.0017537581 0.31947586 0.0 0.0014710197 0.31749144 0.0 0.00081471622 -0.0090440409 0.0 1.183884e-09 -0.009044016700000001 0.0 8.383098599999999e-05 -0.0090424446 0.0 0.00017187987000000002 -0.0090358565 0.0 0.00026765506000000003 -0.0090186913 0.0 0.00037229381 -0.0089810519 0.0 0.00049156108 -0.0089101065 0.0 0.00062717969 -0.0087912763 0.0 0.0007732983800000001 -0.012553498 0.0 8.0028706e-10 -0.012554069 0.0 0.00011994412 -0.012553894 0.0 0.00024436723 -0.012548272 0.0 0.00037767217000000004 -0.012529523999999998 0.0 0.0005222512400000001 -0.012485452 0.0 0.0006812936 -0.01239863 0.0 0.00085940561 -0.012246843 0.0 0.001055907 -0.016962286 0.0 -3.3152139e-10 -0.016963441 0.0 0.00014820456 -0.016964799 0.0 0.00030027467 -0.016960206000000002 0.0 0.0004606678 -0.016939169 0.0 0.00063311623 -0.016887004 0.0 0.00081762939 -0.016780891000000003 0.0 0.0010201748 -0.01659178 0.0 0.0012394855 -0.021798533999999998 0.0 5.0446392e-10 -0.021800198 0.0 0.00016678468 -0.021802925 0.0 0.00033634226000000004 -0.021799199 0.0 0.00051255972 -0.021776246000000003 0.0 0.0006986730099999999 -0.021715282000000002 0.0 0.00089700898 -0.021590492000000003 0.0 0.00110686 -0.021365242000000003 0.0 0.0013300673999999998 -0.026830167000000002 0.0 -1.177502e-09 -0.026832435 0.0 0.00017633487000000002 -0.026836417999999997 0.0 0.00035498370000000003 -0.026833685 0.0 0.0005376325 -0.026809515 0.0 0.0007268886 -0.026742177000000002 0.0 0.0009251656599999999 -0.026601527000000003 0.0 0.0011318785 -0.026346095 0.0 0.0013464032999999998 -0.032029643999999996 0.0 -2.2217157e-09 -0.032032557 0.0 0.00018155835 -0.03203816 0.0 0.00036394873 -0.032036997000000005 0.0 0.00054824486 -0.032013044 0.0 0.00073507708 -0.031942412 0.0 0.0009256485499999999 -0.031791612999999996 0.0 0.0011215045 -0.031514272 0.0 0.0013203287 -0.037503306 0.0 1.5266697e-09 -0.037507005 0.0 0.00018875624 -0.037514675 0.0 0.00037668698 -0.037516166000000004 0.0 0.0005631869400000001 -0.03749435 0.0 0.0007482541800000001 -0.037424076 0.0 0.0009317608800000001 -0.037269298 0.0 0.0011144505 -0.036978818 0.0 0.0012958525 -0.043387227 0.0 -2.6394336e-09 -0.043391842 0.0 0.00020540964 -0.043402135 0.0 0.00040807002 -0.043407481 0.0 0.0006060219 -0.043390020999999994 0.0 0.0007979942599999999 -0.043323494000000004 0.0 0.00098306744 -0.043170039 0.0 0.0011590883 -0.04287457099999999 0.0 0.0013235901000000002 -0.049768735 0.0 -1.6728731e-10 -0.049774472 0.0 0.00023922879 -0.049788005999999996 0.0 0.00047420671999999996 -0.049798284000000005 0.0 0.0007016171000000001 -0.049786872999999995 0.0 0.0009186833 -0.04972655 0.0 0.001122439 -0.049577765 0.0 0.001307991 -0.049282238 0.0 0.0014681157000000001 -0.05667631 0.0 5.946912400000001e-10 -0.056683335 0.0 0.00029761766 -0.056700497999999995 0.0 0.00058987283 -0.056716293 0.0 0.00087266538 -0.056711476 0.0 0.0011418571 -0.056657787 0.0 0.0013926813 -0.056513943 0.0 0.0016159801000000002 -0.056219067000000005 0.0 0.0017980388000000001 -0.064129584 0.0 -5.978273e-09 -0.06413801 0.0 0.00038716701 -0.064159118 0.0 0.0007684952000000001 -0.064180605 0.0 0.0011393209 -0.064181954 0.0 0.0014960401000000002 -0.064132832 0.0 0.0018318372 -0.063989915 0.0 0.0021324744000000002 -0.063691236 0.0 0.0023765934 -0.072168253 0.0 -2.8419878e-09 -0.07217788 0.0 0.0005120218799999999 -0.07220206400000001 0.0 0.0010170643 -0.072227865 0.0 0.0015113162 -0.072233543 0.0 0.0019936766 -0.072185636 0.0 0.0024555437 -0.072037108 0.0 0.0028824552 -0.07172586 0.0 0.0032373157 -0.080842882 0.0 -2.74913e-09 -0.080853403 0.0 0.0006741936699999999 -0.080879621 0.0 0.0013469082999999998 -0.08090741900000001 0.0 0.0020090004 -0.080913417 0.0 0.0026520960999999997 -0.08086125599999999 0.0 0.0032729240999999996 -0.080701768 0.0 0.0038573169 -0.08036745299999999 0.0 0.0043749474 -0.09020874599999999 0.0 2.1759765e-09 -0.09021968400000001 0.0 0.00087878539 -0.090246461 0.0 0.0017469951000000001 -0.090274088 0.0 0.0026079912 -0.09027577199999999 0.0 0.0034514784 -0.090212196 0.0 0.0042736377 -0.09003101300000001 0.0 0.0050606332 -0.08966494400000001 0.0 0.0057872194 -0.10032151 0.0 -2.2974114e-09 -0.10033108 0.0 0.0010997811 -0.10035521 0.0 0.0021997432 -0.10037734 0.0 0.0032955427 -0.10036657 0.0 0.0043807253 -0.10028146 0.0 0.005450125300000001 -0.10006856 0.0 0.0064901188 -0.099661961 0.0 0.0074767442000000005 -0.11122945 0.0 -6.5052341e-09 -0.11123775 0.0 0.0013566023999999999 -0.11125429 0.0 0.0027129762 -0.11126119 0.0 0.0040690904 -0.11122899 0.0 0.0054263552 -0.11111321 0.0 0.0067677451 -0.11085998 0.0 0.0080827847 -0.11040428 0.0 0.009359663399999999 -0.12298302 0.0 -3.8294794e-09 -0.12298577 0.0 0.0016456002 -0.12298929 0.0 0.0032855726000000003 -0.12297462 0.0 0.0049206070000000005 -0.12290969 0.0 0.0065486329 -0.1227502 0.0 0.0081680473 -0.12244359 0.0 0.0097673703 -0.12192607 0.0 0.011333905 -0.13563178 0.0 5.3409758999999996e-11 -0.13562864 0.0 0.0019446255 -0.13561359 0.0 0.0038843888 -0.1355657 0.0 0.0058042617000000005 -0.1354547 0.0 0.0077123209 -0.13523605 0.0 0.0096052121 -0.13485631 0.0 0.011476152 -0.13425672 0.0 0.013321072 -0.14923295 0.0 1.6210686000000002e-10 -0.149221 0.0 0.0022382089 -0.14917822 0.0 0.0044666724 -0.14908619 0.0 0.0066809379 -0.14891194 0.0 0.0088648861 -0.14861229 0.0 0.011024518999999998 -0.14813635 0.0 0.013150585 -0.14742514 0.0 0.015226073 -0.16383737 0.0 2.1455091e-09 -0.16381353 0.0 0.0025162161 -0.16373558 0.0 0.0050213081 -0.16358347 0.0 0.00750315 -0.16332705 0.0 0.0099592693 -0.16292208 0.0 0.012361712 -0.16232069 0.0 0.014714157 -0.16146527 0.0 0.017000485 -0.1794861 0.0 -1.1450688e-08 -0.1794475 0.0 0.0027695022999999997 -0.1793251 0.0 0.0055237515 -0.17909819 0.0 0.0082500093 -0.17873651 0.0 0.010931782 -0.1782003 0.0 0.013557441000000002 -0.17743942 0.0 0.016107542 -0.17640284 0.0 0.018577261 -0.19620611 0.0 -5.1796194e-09 -0.19614971 0.0 0.0029884646999999995 -0.1959728 0.0 0.0059570898 -0.19565547 0.0 0.0088852635 -0.1951669 0.0 0.011753622 -0.19447103 0.0 0.014558511000000001 -0.19351958 0.0 0.017268809 -0.19226727 0.0 0.019894874 -0.21400982 0.0 -4.8015609e-09 -0.21393223 0.0 0.0031652069 -0.21369085 0.0 0.0063033574 -0.21326634 0.0 0.0093850577 -0.21262921 0.0 0.012392573999999998 -0.21174642 0.0 0.015322858 -0.21057615 0.0 0.018158033 -0.20907804 0.0 0.020912966 -0.23289829 0.0 -1.6474778e-09 -0.23279586 0.0 0.0032955194 -0.23248003 0.0 0.006553408199999999 -0.23193212 0.0 0.0097377477 -0.23112625 0.0 0.012832885 -0.23003364 0.0 0.015837291 -0.22862233 0.0 0.018751772 -0.22685787 0.0 0.021597674 -0.25286445 0.0 4.1491179e-09 -0.25273374 0.0 0.0033790332 -0.25233409 0.0 0.006707629200000001 -0.25164917 0.0 0.0099487426 -0.25065711 0.0 0.013080481000000001 -0.24933805 0.0 0.016113637 -0.24767068 0.0 0.019062059 -0.24562855 0.0 0.021958652999999998 -0.27389553 0.0 -3.5864427e-09 -0.27373362 0.0 0.0034202645000000003 -0.27324295 0.0 0.0067791087 -0.27240938 0.0 0.010032749 -0.27121973 0.0 0.013163336000000001 -0.26966459 0.0 0.016189606999999998 -0.26773521 0.0 0.019139618 -0.26541319 0.0 0.022050097999999997 -0.29596001 0.0 -6.1632699e-09 -0.29576492 0.0 0.003427827 -0.29517624 0.0 0.0067820088 -0.29418802 0.0 0.010016212 -0.29279587 0.0 0.013122632 -0.29100257 0.0 0.016122069 -0.2888138 0.0 0.019064933 -0.28621316 0.0 0.021970757999999996 -0.31893829 0.0 4.6104343e-09 -0.31870869 0.0 0.0034006942999999998 -0.31801894 0.0 0.0067255395 -0.31687272 0.0 0.009924200400000001 -0.3152788 0.0 0.012990843 -0.31325331 0.0 0.015977338 -0.3108077 0.0 0.018921031 -0.30791932 0.0 0.021796636 -0.34247866 0.0 -1.1081642e-09 -0.34221312 0.0 0.0033379872 -0.34142148 0.0 0.0066078352 -0.34011593 0.0 0.0097571155 -0.33832332 0.0 0.012803934 -0.33606461 0.0 0.015787762 -0.33334687 0.0 0.018735182 -0.33013558 0.0 0.021575099 -0.36576384 0.0 -3.8489052e-09 -0.36546099 0.0 0.0032401113 -0.36456272 0.0 0.0064244177 -0.36309513 0.0 0.009521232900000001 -0.36109236 0.0 0.012553561000000001 -0.35857454 0.0 0.015550886000000002 -0.35553452 0.0 0.018499923999999997 -0.35193104 0.0 0.021307759 -0.38729471 0.0 4.353212e-10 -0.38695616 0.0 0.0030953926 -0.38595513 0.0 0.0061566141 -0.38432747 0.0 0.0091796797 -0.38211143 0.0 0.012166683999999999 -0.37931728 0.0 0.015151481999999999 -0.37593532 0.0 0.018090166 -0.37189493 0.0 0.020843368 -0.40548006 0.0 2.7001621e-09 -0.40511259 0.0 0.0028248606 -0.40402845 0.0 0.005644584499999999 -0.40227339 0.0 0.008461824599999999 -0.39987844 0.0 0.011323391 -0.39686596 0.0 0.014196338999999999 -0.39315674 0.0 0.01706616 -0.38875476 0.0 0.019687867 -0.4194642 0.0 4.1927737e-09 -0.41907525 0.0 0.0023681456 -0.41792715 0.0 0.0047672242 -0.41607127 0.0 0.0072489479 -0.41355544 0.0 0.0098167397 -0.41033453 0.0 0.012479128999999999 -0.40636718 0.0 0.01511666 -0.40167373 0.0 0.01747117 -0.42863178 0.0 1.0888158e-08 -0.42822352 0.0 0.0016921388 -0.4270677 0.0 0.0034937490999999996 -0.42518753 0.0 0.0055188597 -0.42256734 0.0 0.0077281576000000005 -0.41921148 0.0 0.0099908439 -0.41509047 0.0 0.01219822 -0.41012979 0.0 0.014310723000000001 -0.43293092 0.0 1.3665305000000002e-08 -0.43252513 0.0 0.00095419935 -0.43132532 0.0 0.0021330248999999997 -0.42935061 0.0 0.0036415705 -0.42658272 0.0 0.0054688109 -0.42295682 0.0 0.0074951476 -0.41837424 0.0 0.0096942373 -0.41284424 0.0 0.012056035 -0.43104705 0.0 2.6434453e-08 -0.43055764 0.0 0.0011290389 -0.42912579 0.0 0.0025971632 -0.42668208 0.0 0.0045603071 -0.42322147 0.0 0.0068970299 -0.41872808 0.0 0.0094041582 -0.4129234 0.0 0.012370767 -0.40572438 0.0 0.016471369 -0.40108246 0.0 4.015325700000001e-08 -0.40027538 0.0 0.005456670699999999 -0.3978028 0.0 0.011045733 -0.39363107 0.0 0.016840465 -0.38782007 0.0 0.022943355 -0.38025439 0.0 0.029416072999999997 -0.37059385 0.0 0.036381323 -0.35906267 0.0 0.044195052 -0.27005887 0.0 2.1576589e-08 -0.26918954 0.0 0.004234652 -0.26660323 0.0 0.0086073577 -0.26235363 0.0 0.013153561999999999 -0.25651416 0.0 0.017818563 -0.24918498 0.0 0.022663542999999998 -0.24052685 0.0 0.028116329 -0.23082942 0.0 0.034731213 -0.17129183 0.0 1.8275697e-08 -0.17048813 0.0 0.0025001382 -0.16811137 0.0 0.0051557831 -0.16425703 0.0 0.007976880300000001 -0.15907098 0.0 0.010831815 -0.15274683 0.0 0.013675538000000001 -0.14552936 0.0 0.01684507 -0.13773178 0.0 0.020927867 -0.09717257300000001 0.0 -6.7766635e-08 -0.09655945699999999 0.0 0.0008384476 -0.094759531 0.0 0.0019063889 -0.091888256 0.0 0.0032521074 -0.088124201 0.0 0.0047316556 -0.08370102900000001 0.0 0.006238321800000001 -0.078893572 0.0 0.008009728 -0.073998332 0.0 0.010567928999999998 -0.031731717 0.0 -8.4385379e-09 -0.031385645 0.0 -0.00038728226 -0.030381821 0.0 -0.00043240612 -0.028818011 0.0 -3.4730956000000004e-06 -0.026846336000000002 0.0 0.00079167442 -0.024660368999999998 0.0 0.0018273594 -0.022481015 0.0 0.0032558115 -0.020515276000000002 0.0 0.0054694037 0.035834484 0.0 3.4953782e-08 0.035896577 0.0 -0.00090038561 0.036066219 0.0 -0.0014310774 0.036296919 0.0 -0.0012442413 0.036522936 0.0 -0.00041806487999999995 0.036667001 0.0 0.0009234114 0.036650962999999995 0.0 0.0028698612 0.036433827 0.0 0.0056609963 0.10766234 0.0 6.8354176e-08 0.10747445 0.0 -0.0007763477000000001 0.10691778 0.0 -0.001053954 0.10601952 0.0 -0.00047426390999999994 0.10483566 0.0 0.0009324190300000001 0.10345599 0.0 0.0030669007000000002 0.10200642 0.0 0.0059819091 0.10066545 0.0 0.0097855302 0.18013977 0.0 9.592742599999999e-08 0.17976266 0.0 -5.3593572000000005e-05 0.1786637 0.0 0.0004599235 0.17694631 0.0 0.0018510852 0.17479433 0.0 0.0041245297 0.17247497 0.0 0.007192509200000001 0.17033263 0.0 0.011096074 0.16877703 0.0 0.015869727 0.24918427 0.0 6.667419e-08 0.24868365 0.0 0.0010557445 0.24723619 0.0 0.0026354587 0.2450113 0.0 0.0050122393 0.24230012 0.0 0.008169359499999999 0.23951811 0.0 0.012022762 0.23719341 0.0 0.016630433 0.235929 0.0 0.022030149 0.3127307 0.0 3.655407e-08 0.31216979 0.0 0.002267709 0.31055823 0.0 0.0049556345 0.30811217 0.0 0.008252291 0.30519289 0.0 0.012098082 0.30230516 0.0 0.016416272 0.30008221 0.0 0.021316726 0.29923886 0.0 0.02691471 0.36328399 0.0 1.4864556e-08 0.3627941 0.0 0.0033605221999999995 0.36140305 0.0 0.006993116800000001 0.35935023 0.0 0.010970855 0.35700923 0.0 0.015181852 0.35487631 0.0 0.019578656 0.35355505 0.0 0.02437043 0.35375097 0.0 0.0298199 0.39208999 0.0 3.5461301e-08 0.39190063 0.0 0.0041980161 0.39138824 0.0 0.0085275676 0.39064983 0.0 0.012938058 0.38989806 0.0 0.017265044 0.38944098 0.0 0.021482375 0.3897458 0.0 0.025923828 0.39135936 0.0 0.031054655 0.40460861 0.0 -6.8167592e-09 0.40473473 0.0 0.0050088768 0.40509409 0.0 0.0099659897 0.40576532 0.0 0.014777773000000001 0.406793 0.0 0.019252338 0.40834218 0.0 0.023374077000000004 0.41059899 0.0 0.027537664 0.41389596 0.0 0.032424815 0.40829888 0.0 -3.6515759e-09 0.40856925 0.0 0.0056516798 0.40939102 0.0 0.011253175 0.41079172 0.0 0.016632166 0.41278988 0.0 0.021519833999999998 0.41546816 0.0 0.025942631 0.41888481 0.0 0.030354034 0.42325795 0.0 0.035489067 0.40807691 0.0 -1.1923500000000001e-08 0.40842381 0.0 0.0061864723 0.4094862 0.0 0.012200076 0.41131967 0.0 0.017879793 0.41389799 0.0 0.023045471 0.41721407 0.0 0.027800331 0.42127621 0.0 0.032725789 0.42629945 0.0 0.038254764 0.40574926 0.0 -3.2678209e-09 0.40617266 0.0 0.006142368100000001 0.40744954 0.0 0.012164231000000001 0.40955657 0.0 0.017857648 0.41245359 0.0 0.023302084 0.41614783 0.0 0.02860496 0.42068037 0.0 0.033994377 0.42619717 0.0 0.040005609 0.40230918 0.0 -5.8289285e-09 0.40275827 0.0 0.00581994 0.40407923 0.0 0.011753182 0.40631485 0.0 0.017601671 0.4094584 0.0 0.023090707000000002 0.41353139 0.0 0.028573003 0.41850671 0.0 0.034410395 0.42445746 0.0 0.040714073999999996 0.397706 0.0 -4.7999951e-09 0.39812151 0.0 0.0058132568 0.3995544 0.0 0.011499609 0.40199259 0.0 0.017052069 0.40537408 0.0 0.022581713 0.40964481 0.0 0.028216194 0.41491497 0.0 0.03410982 0.42136922 0.0 0.040350243 0.39170942 0.0 -3.0320382e-09 0.39224088 0.0 0.0055474127000000005 0.39377743 0.0 0.010989908999999999 0.39637595 0.0 0.016483121 0.39999443 0.0 0.022122088999999998 0.40460348 0.0 0.027882392000000002 0.41027555 0.0 0.033738866 0.41724971 0.0 0.039579034 0.38463315 0.0 -2.3410129e-09 0.38518858 0.0 0.0053312476 0.38680425 0.0 0.010571589 0.38956526 0.0 0.016040931 0.3934859 0.0 0.021759723999999998 0.39853454 0.0 0.027540382000000002 0.40477875 0.0 0.033071097 0.41252959 0.0 0.038180228 0.37669173 0.0 -1.0437881e-09 0.3772864 0.0 0.0052068559000000006 0.37905458 0.0 0.010416223 0.38195714 0.0 0.015641062 0.38623688 0.0 0.021267526000000002 0.39186579 0.0 0.026779538 0.39884937 0.0 0.031572014 0.40767255 0.0 0.035543375 0.36840343 0.0 7.5081213e-10 0.36904052 0.0 0.0050747572 0.37097326 0.0 0.010200981 0.37414226 0.0 0.015211881000000002 0.3788535 0.0 0.020390188 0.38512582 0.0 0.02510472 0.39327136 0.0 0.028930634 0.40292805 0.0 0.031800181000000004 0.3603763 0.0 6.0309397e-09 0.3610602 0.0 0.0048966208 0.36316267 0.0 0.0097352872 0.36674497 0.0 0.014365527 0.37189609 0.0 0.018626733 0.3791551 0.0 0.022330914 0.38803709 0.0 0.025131235 0.39894977 0.0 0.027384842000000003 0.35331428 0.0 5.3226548e-09 0.35406557 0.0 0.004510356599999999 0.35635659 0.0 0.0088332631 0.36029032 0.0 0.012683284 0.36614394 0.0 0.015901247 0.37382877 0.0 0.018523572 0.38376373 0.0 0.02082121 0.39580011 0.0 0.022944115 0.34755272 0.0 1.3834676999999999e-08 0.34836718 0.0 0.0038149464 0.35079986 0.0 0.0072858281999999995 0.35508165 0.0 0.010064469 0.36111888 0.0 0.0122678 0.36958525 0.0 0.014467276999999999 0.38018471 0.0 0.016529638 0.39314261 0.0 0.01883564 0.34257379 0.0 1.7031342000000002e-08 0.34342712 0.0 0.00278375 0.3459799 0.0 0.0050317040000000006 0.35030884 0.0 0.0067939357999999995 0.3569732 0.0 0.00874939 0.36604065 0.0 0.010791745 0.37717611 0.0 0.01294433 0.39007068 0.0 0.015146921 0.33767369 0.0 1.3086523000000002e-08 0.33850911 0.0 0.0015267198999999998 0.34127864 0.0 0.0027956332 0.34606826 0.0 0.0042322562 0.35305804 0.0 0.005955989 0.36276275 0.0 0.0081890142 0.37322384 0.0 0.009879089 0.3845605 0.0 0.012179646 0.33225253 0.0 1.4378124e-08 0.33323708 0.0 0.0005238002 0.3362453 0.0 0.0013718149 0.34103873 0.0 0.0022676864000000002 0.34792393 0.0 0.0037155007 0.35699862 0.0 0.005874790699999999 0.36590609 0.0 0.0074434168999999994 0.37478212 0.0 0.010622603999999999 0.32557684 0.0 7.4119075e-09 0.3264198 0.0 -0.00038810589 0.32895005 0.0 -0.00062474847 0.33338967 0.0 -4.2963202e-05 0.33918419 0.0 0.0011559897 0.34649357 0.0 0.0035933207 0.35273889 0.0 0.005658255 0.31679085 0.0 4.8090008e-09 0.31749141 0.0 -0.00081469992 0.31947586 0.0 -0.0014710209 0.32245833 0.0 -0.0017537685000000001 0.32633579 0.0 -0.00054470904 -0.008599815 0.0 0.0009400555900000001 -0.0083120242 0.0 0.001125361 -0.007903404499999999 0.0 0.0013136584 -0.0073409392 0.0 0.0015087262 -0.0065976018 0.0 0.0016923945 -0.0056778863 0.0 0.0018257571 -0.0046121641 0.0 0.0018721469 -0.012002803999999999 0.0 0.0012666497 -0.011626136 0.0 0.0014980227 -0.011072982 0.0 0.0017417148000000002 -0.010297624 0.0 0.0019662654999999998 -0.0092474725 0.0 0.0021505796 -0.0079003759 0.0 0.0022469428 -0.0062636146 0.0 0.0022272652 -0.004382873 0.0 0.002409633 -0.016283479 0.0 0.0014707878 -0.015803651999999998 0.0 0.0017150203 -0.015087214 0.0 0.0019583504 -0.014056476000000002 0.0 0.0021808555 -0.012644358 0.0 0.002332408 -0.010799523 0.0 0.0024171039 -0.0085693803 0.0 0.0024246916 -0.006009780300000001 0.0 0.0025588805 -0.02099286 0.0 0.0015660995000000002 -0.02041186 0.0 0.0018046791 -0.019534409 0.0 0.0020360281 -0.018251035 0.0 0.0022429824 -0.016476857 0.0 0.0023641777 -0.014145788000000001 0.0 0.0024181821 -0.011308526999999999 0.0 0.0023987226 -0.0079896301 0.0 0.0025758103 -0.025919217999999997 0.0 0.0015723517999999999 -0.025250135 0.0 0.0017939028 -0.024231213999999997 0.0 0.0020036501999999997 -0.022724481 0.0 0.0021805979999999997 -0.020621791 0.0 0.0022644659 -0.017822914 0.0 0.0022903103 -0.014369866 0.0 0.0022632291 -0.0102484 0.0 0.0025486208 -0.031046567 0.0 0.0015232939 -0.030304594 0.0 0.0017221328 -0.029168008 0.0 0.0018943724 -0.0274731 0.0 0.0020240048999999997 -0.025074078 0.0 0.0020600599 -0.021837642 0.0 0.0020634749 -0.017778546 0.0 0.0020650891 -0.012807546999999999 0.0 0.0025412927 -0.036482472 0.0 0.0014700698000000001 -0.035684157 0.0 0.0016327226999999999 -0.034449238 0.0 0.0017514706 -0.032587104 0.0 0.0018181076 -0.029911496 0.0 0.0018079525 -0.026264533 0.0 0.0017997214000000001 -0.021609213 0.0 0.0018926408 -0.015729465 0.0 0.0026702216999999998 -0.042359993 0.0 0.0014684894 -0.041519519 0.0 0.0015849017000000001 -0.040200163 0.0 0.0016436781 -0.038182519 0.0 0.0016459816000000001 -0.035244178 0.0 0.0015992279999999998 -0.031192953 0.0 0.0016105707999999998 -0.02595564 0.0 0.0018566232 -0.019123524 0.0 0.0030427 -0.048757147 0.0 0.0015908554 -0.04788697099999999 0.0 0.0016613696 -0.046498232 0.0 0.0016647016 -0.044329491 0.0 0.0016296233999999999 -0.041129343 0.0 0.0015513195000000002 -0.036640611000000003 0.0 0.0016356186 -0.030882921 0.0 0.0019946906 -0.023245804 0.0 0.0034751771000000003 -0.055687565 0.0 0.0019164432000000002 -0.054798535999999995 0.0 0.0019605388000000002 -0.053357441 0.0 0.001936889 -0.051066373 0.0 0.0018579535999999998 -0.047601555 0.0 0.0017425373999999999 -0.042721681 0.0 0.0018101168 -0.036559958 0.0 0.0021105378 -0.028669484 0.0 0.003255717 -0.06315106200000001 0.0 0.0025277538 -0.062249980999999996 0.0 0.0025740998999999997 -0.060782459000000004 0.0 0.0025253415 -0.05840857 0.0 0.0023932802 -0.054725949 0.0 0.0022102420000000003 -0.049588464000000006 0.0 0.0020840694 -0.043260257999999996 0.0 0.0021197145999999997 -0.035845939 0.0 0.0023307705 -0.071166418 0.0 0.0034818534999999998 -0.070252635 0.0 0.0035656447999999996 -0.068763778 0.0 0.0035326779 -0.066365682 0.0 0.0033352505 -0.062578335 0.0 0.0030613846999999997 -0.057295632 0.0 0.0028673592 -0.050957989 0.0 0.0030077561 -0.043486650999999994 0.0 0.0035118253 -0.079781666 0.0 0.0047696363 -0.078831315 0.0 0.0050387988 -0.077343144 0.0 0.0050973184 -0.074950606 0.0 0.005024896500000001 -0.071173944 0.0 0.0050285114 -0.065937415 0.0 0.0055720308 -0.059387527 0.0 0.0076520871 -0.051574256 0.0 0.010249129000000001 -0.08903721699999999 0.0 0.0064162640000000005 -0.08805149 0.0 0.006923174 -0.08655437099999999 0.0 0.007301584399999999 -0.084229775 0.0 0.0076731816000000005 -0.08066092400000001 0.0 0.0083963685 -0.075624079 0.0 0.010038061 -0.069222569 0.0 0.013097636999999999 -0.061651904 0.0 0.015678992 -0.09898834699999999 0.0 0.0083823279 -0.097958133 0.0 0.0092318309 -0.09644425699999999 0.0 0.010054614 -0.094187133 0.0 0.011004111 -0.090882987 0.0 0.012337923 -0.086296149 0.0 0.014433197 -0.080419295 0.0 0.017081764 -0.073305242 0.0 0.019178366000000002 -0.1096764 0.0 0.010586455 -0.1085853 0.0 0.011792522 -0.10702143 0.0 0.013050711000000001 -0.10477348 0.0 0.014462022 -0.10161726 0.0 0.016115408 -0.097338915 0.0 0.018168131 -0.091966845 0.0 0.020143425 -0.085550427 0.0 0.021830097000000003 -0.12112531 0.0 0.01287985 -0.11995679 0.0 0.014428563 -0.11829831 0.0 0.016020915 -0.11596908 0.0 0.017687017 -0.11277863 0.0 0.019443177 -0.1085592 0.0 0.021313081 -0.10338704 0.0 0.022895457 -0.09736654900000001 0.0 0.024324058 -0.1333618 0.0 0.015139323 -0.1320859 0.0 0.016957732 -0.13029943 0.0 0.018784198999999998 -0.12781543 0.0 0.02058596 -0.12444307 0.0 0.022351796 -0.12005676 0.0 0.024069208999999998 -0.11474369 0.0 0.0254639 -0.10864233 0.0 0.026742158 -0.14640754 0.0 0.017273916 -0.1449926 0.0 0.019287918 -0.14304622 0.0 0.021267451 -0.1403612 0.0 0.023167197 -0.13673455 0.0 0.024939496000000002 -0.13204698 0.0 0.026567837 -0.12635061 0.0 0.027910206 -0.11977245 0.0 0.0291059 -0.16028757 0.0 0.019223476 -0.15870094 0.0 0.021390462000000002 -0.15656155 0.0 0.023488097000000003 -0.153644 0.0 0.025465569 -0.14972268 0.0 0.027270634 -0.1446678 0.0 0.028872482 -0.13848859 0.0 0.030206706 -0.13128352 0.0 0.031356689 -0.17502964 0.0 0.0209511 -0.17323574 0.0 0.023256496 -0.17086986 0.0 0.025465368999999998 -0.167688 0.0 0.027522968 -0.16342522 0.0 0.029387037999999997 -0.15794519 0.0 0.030999765 -0.1512225 0.0 0.032325987 -0.14334066 0.0 0.03344465 -0.19065982 0.0 0.022421801 -0.18862478 0.0 0.024858112999999998 -0.1859922 0.0 0.0271941 -0.18250507 0.0 0.029349772000000003 -0.17784697 0.0 0.031299584 -0.17187922 0.0 0.03293103 -0.16454229 0.0 0.034236759 -0.15592594 0.0 0.035301112 -0.20720603 0.0 0.023580359 -0.20489228 0.0 0.02615805 -0.20195799 0.0 0.028624265 -0.1981134 0.0 0.03090016 -0.19299714 0.0 0.032962039 -0.18646997 0.0 0.034625795 -0.17843933 0.0 0.035892232999999996 -0.16900983 0.0 0.036875252000000004 -0.22469617 0.0 0.024384361 -0.2220744 0.0 0.027097991000000002 -0.21880007 0.0 0.029689336 -0.21455006 0.0 0.032076402999999996 -0.20890872 0.0 0.034268796000000004 -0.20174183 0.0 0.036003076 -0.19293498 0.0 0.037226364 -0.18259564 0.0 0.038118519 -0.2431664 0.0 0.024823591000000002 -0.2402138 0.0 0.027639357000000003 -0.23657213 0.0 0.03031118 -0.2318745 0.0 0.032758933 -0.22565639 0.0 0.035053216 -0.21776421 0.0 0.036938797999999995 -0.20810676 0.0 0.038166221 -0.1967701 0.0 0.038980857 -0.26265112 0.0 0.024934979 -0.25935942 0.0 0.027767839 -0.25532687 0.0 0.030443465 -0.25015751 0.0 0.032852642 -0.24334127 0.0 0.035148893 -0.23466346 0.0 0.037276626 -0.22411864 0.0 0.038634416 -0.21176413 0.0 0.039427883999999996 -0.28314626 0.0 0.024808168 -0.27951536 0.0 0.027541697 -0.27508664 0.0 0.030085757 -0.26943514 0.0 0.032348391000000004 -0.26204377 0.0 0.034468386000000004 -0.25259313 0.0 0.036874216 -0.24120945 0.0 0.03855297 -0.22797012 0.0 0.039440852 -0.30453029 0.0 0.024539707 -0.30054367 0.0 0.027082019 -0.29572237 0.0 0.029368047 -0.28961608 0.0 0.031331219 -0.28169653 0.0 0.033106618 -0.27159691 0.0 0.035642929 -0.25955135 0.0 0.037882935 -0.24580234 0.0 0.039034463 -0.32637697 0.0 0.0241949 -0.32198888 0.0 0.026547308999999998 -0.31675753 0.0 0.028507438 -0.31024122 0.0 0.030044377 -0.30184838 0.0 0.031263132 -0.29132855 0.0 0.033691555 -0.2789399 0.0 0.036672316 -0.26528364 0.0 0.038272402999999997 -0.34770954 0.0 0.02386966 -0.34283143 0.0 0.026060418999999998 -0.33712825 0.0 0.027716743 -0.3300935 0.0 0.028879348 -0.3214865 0.0 0.029294711 -0.3108131 0.0 0.031426739 -0.29848045 0.0 0.03513208 -0.28560174 0.0 0.037296012 -0.36717787 0.0 0.023305647000000002 -0.36176988 0.0 0.025385326 -0.35550779 0.0 0.026897106 -0.34818864 0.0 0.027526196 -0.33927271 0.0 0.027572421 -0.32853553 0.0 0.029572908 -0.31669021 0.0 0.033776604 -0.30502456 0.0 0.03646268 -0.38361469 0.0 0.021974557999999998 -0.37778524 0.0 0.023896014 -0.37127993 0.0 0.025199281 -0.36366525 0.0 0.025918754 -0.35469809 0.0 0.026314353999999998 -0.34401146 0.0 0.028949258999999998 -0.33223206 0.0 0.03336972 -0.32149091 0.0 0.036636427 -0.39617816 0.0 0.019544985 -0.39004421 0.0 0.021426987 -0.38352334 0.0 0.022884178999999998 -0.37609947 0.0 0.024369325 -0.36714277 0.0 0.026746349 -0.35628977 0.0 0.030932385 -0.34435171 0.0 0.034962539 -0.33331975 0.0 0.038405254 -0.40436515 0.0 0.016323743 -0.39800814 0.0 0.018509246 -0.39112297 0.0 0.021294139 -0.38316056 0.0 0.025682339 -0.37347466 0.0 0.032112762 -0.36245275 0.0 0.03661342 -0.35011786 0.0 0.038508151000000004 -0.33693177 0.0 0.041661073 -0.40649113 0.0 0.014911038 -0.39951476 0.0 0.018778937 -0.39195785 0.0 0.02428068 -0.38255107 0.0 0.032637332000000005 -0.37097478 0.0 0.04073206 -0.35933957 0.0 0.041669529 -0.34495714 0.0 0.041476049 -0.32212132 0.0 0.04521946599999999 -0.39720371 0.0 0.022381876000000002 -0.38773754 0.0 0.030181829 -0.37703422 0.0 0.039672307999999996 -0.3645491 0.0 0.047928720999999994 -0.35279965 0.0 0.048971832 -0.33899713 0.0 0.043993935 -0.30641288 0.0 0.041125637 -0.24988411 0.0 0.045157298 -0.34672102 0.0 0.052434068 -0.33425742 0.0 0.057571162 -0.32138848 0.0 0.057643085999999996 -0.30734184 0.0 0.054754343 -0.28461465 0.0 0.048909351 -0.24607359 0.0 0.040247981 -0.19696562 0.0 0.038808849 -0.15131667 0.0 0.043276008 -0.22060418 0.0 0.042305935 -0.21038589 0.0 0.04848754 -0.19962725 0.0 0.048586342000000005 -0.18618131 0.0 0.045269918 -0.16697834 0.0 0.04008441 -0.14145145 0.0 0.034893446 -0.11236156 0.0 0.035886295 -0.08612172300000001 0.0 0.044582530999999995 -0.12977937 0.0 0.025998192000000003 -0.12211163 0.0 0.031657144 -0.11464173 0.0 0.035309177000000004 -0.10602804 0.0 0.033035897 -0.095027186 0.0 0.029353222 -0.081549965 0.0 0.029222283999999998 -0.067073606 0.0 0.032651499 -0.053602733 0.0 0.046900976 -0.06933294200000001 0.0 0.014016998000000001 -0.06516079599999999 0.0 0.018056346 -0.061440259000000004 0.0 0.022411992999999998 -0.057663515 0.0 0.023170192000000003 -0.05336609900000001 0.0 0.021060457 -0.048443541 0.0 0.026544823999999998 -0.043159772 0.0 0.030503343999999998 -0.037526026000000004 0.0 0.047179695 -0.018928112 0.0 0.0084800152 -0.017814458999999998 0.0 0.012058998999999999 -0.017184544 0.0 0.016490296 -0.017082922 0.0 0.019289805 -0.017690564 0.0 0.018956093 -0.018910081999999998 0.0 0.024619158 -0.019985833999999997 0.0 0.028818974 -0.020086844 0.0 0.046697732 0.036048703 0.0 0.0091405846 0.035551433 0.0 0.013124024 0.034754131 0.0 0.018272255 0.032873433 0.0 0.022745997 0.02882429 0.0 0.021040602000000002 0.022515524 0.0 0.022845868 0.015415352 0.0 0.027742537 0.0090679135 0.0 0.046132560999999996 0.099678911 0.0 0.014136648 0.099218026 0.0 0.018795253999999997 0.09877204099999999 0.0 0.024488499 0.096519403 0.0 0.027398206 0.089791849 0.0 0.023693677000000003 0.07843839400000001 0.0 0.022772161000000003 0.064284243 0.0 0.027866573999999998 0.050069112 0.0 0.045907135999999994 0.16825238 0.0 0.021040201 0.16899474 0.0 0.026279367999999997 0.17006749 0.0 0.031617343 0.16823687 0.0 0.031748295 0.15918286 0.0 0.026982482999999998 0.14223857 0.0 0.024972662000000003 0.12000772 0.0 0.029427823 0.096659169 0.0 0.046202451 0.23632874 0.0 0.027714834 0.23865765 0.0 0.033286162 0.24147049 0.0 0.037642773 0.23976034 0.0 0.035993166 0.22834972 0.0 0.031341698 0.20547388 0.0 0.028865883 0.17486276 0.0 0.032439124 0.14222747 0.0 0.047041923 0.30047283 0.0 0.032771859 0.30405328 0.0 0.038495388 0.30792049 0.0 0.042024158 0.30510491 0.0 0.039650507 0.28989419 0.0 0.035699829 0.26253149 0.0 0.033864431 0.22439232 0.0 0.036724497 0.18332478 0.0 0.048452366 0.35620591 0.0 0.035641491000000004 0.36124566 0.0 0.041547384 0.36590272 0.0 0.044377096 0.36076558 0.0 0.041882493 0.34148324 0.0 0.038783617 0.30963525 0.0 0.038672532999999995 0.26724222 0.0 0.042235848 0.21970767 0.0 0.050770678 0.39487383 0.0 0.036856602999999995 0.40061009 0.0 0.043280690999999996 0.40641874 0.0 0.047048584000000004 0.4038853 0.0 0.044364426 0.3842628 0.0 0.04221737 0.34743902 0.0 0.044774115 0.30232322 0.0 0.04769171 0.25261384 0.0 0.053674001 0.41854089 0.0 0.03834312 0.4247835 0.0 0.045347202999999996 0.43147218 0.0 0.051271955999999994 0.43187612 0.0 0.049554009 0.41751766 0.0 0.047163453 0.38037738 0.0 0.050772011 0.33447865 0.0 0.052094512 0.28441715 0.0 0.056505781 0.42878082 0.0 0.041805718 0.43560141 0.0 0.049252644000000005 0.44314724 0.0 0.056598670999999996 0.44707879 0.0 0.05746014 0.44080371 0.0 0.054026186 0.4104661 0.0 0.055404872 0.36603421 0.0 0.055957053 0.31673044 0.0 0.059221193 0.43244979 0.0 0.044833232 0.43987674 0.0 0.05233329900000001 0.44860902 0.0 0.060063444 0.45494565 0.0 0.063316941 0.45407924 0.0 0.06076331099999999 0.43766561 0.0 0.059000742 0.39714238 0.0 0.059050269 0.35008052 0.0 0.061675083 0.43284824 0.0 0.046849950999999994 0.44106129 0.0 0.054298612999999996 0.45059642 0.0 0.06159658 0.45922589 0.0 0.065986313 0.46243471 0.0 0.064672299 0.45652032 0.0 0.062198155 0.42748377 0.0 0.060499597 0.38488716 0.0 0.063521363 0.43168816 0.0 0.047425807 0.44052392 0.0 0.054377592999999995 0.45070279 0.0 0.060902078 0.46045128 0.0 0.065047085 0.46657082 0.0 0.064559706 0.46722364 0.0 0.062697083 0.45506543 0.0 0.060462564 0.42111355 0.0 0.065002687 0.42923918 0.0 0.046709698 0.43889791 0.0 0.053086367 0.44992977 0.0 0.058660067999999996 0.46043 0.0 0.062052064000000004 0.46794692 0.0 0.061557882 0.4723058 0.0 0.06025525599999999 0.47052243 0.0 0.058645815 0.45724058 0.0 0.060946297 0.42591664 0.0 0.045201535999999994 0.43654647 0.0 0.05048063 0.44856092 0.0 0.054855830999999994 0.45962465 0.0 0.057476234 0.46731514 0.0 0.056551047 0.47282186 0.0 0.055937465 0.47660047 0.0 0.05633045 0.47075701 0.0 0.057182129000000005 0.42214274 0.0 0.042535417 0.43384969 0.0 0.04658149599999999 0.4467411 0.0 0.050095271 0.45776257 0.0 0.051459327 0.46485656 0.0 0.050433498 0.47064376 0.0 0.051719408 0.47686058 0.0 0.053454138 0.41823295 0.0 0.038807373 0.43112022 0.0 0.041974597 0.44445401 0.0 0.044563979000000004 0.45443749 0.0 0.044790268 0.46073902 0.0 0.044658076 0.46725905 0.0 0.047762595 0.47263455 0.0 0.050194178 0.4147197 0.0 0.034293495 0.42845687 0.0 0.037076227 0.44142678 0.0 0.038608397999999995 0.44973513 0.0 0.038016945 0.45633525 0.0 0.040136024 0.46329385 0.0 0.044070030999999996 0.41189703 0.0 0.02972238 0.42565829 0.0 0.031906735 0.43735451 0.0 0.032405667 0.44453335 0.0 0.032354675 0.45195758 0.0 0.036560683999999996 0.45677805 0.0 0.040682886 0.40922233 0.0 0.025045572000000002 0.42212012 0.0 0.026432628 0.43256482 0.0 0.026962895 0.43939602 0.0 0.029118843 0.4462744 0.0 0.034249861 0.40607885 0.0 0.02035423 0.41759768 0.0 0.021527555 0.42723975 0.0 0.024083313 0.43302613 0.0 0.027736952999999998 0.40130135 0.0 0.016204374 0.41161335 0.0 0.019109473000000002 0.41953069 0.0 0.023284679 0.41937456 0.0 0.026626311 0.39385787 0.0 0.014536673 0.40121803 0.0 0.01879533 0.38026041 0.0 0.013693433 
Acec 3 2975 float
0.0 0.0 0.0 0.0 0.0 0.0 0.0 0.0 0.0 0.0 0.0 0.0 0.0 0.0 0.0 0.0 0.0 0.0 0.0 0.0 0.0 0.0 0.0 0.0 0.0 0.0 0.0 0.0 0.0 0.0 0.0 0.0 0.0 0.0 0.0 0.0 0.0 0.0 0.0 0.0 0.0 0.0 0.0 0.0 0.0 0.0 0.0 0.0 0.0 0.0 0.0 0.0 0.0 0.0 0.0 0.0 0.0 0.0 0.0 0.0 0.0 0.0 0.0 0.0 0.0 0.0 0.0 0.0 0.0 0.0 0.0 0.0 0.0 0.0 0.0 0.0 0.0 0.0 0.0 0.0 0.0 0.0 0.0 0.0 0.0 0.0 0.0 0.0 0.0 0.0 0.0 0.0 0.0 0.0 0.0 0.0 0.0 0.0 0.0 0.0 0.0 0.0 0.0 0.0 0.0 0.0 0.0 0.0 0.0 0.0 0.0 0.0 0.0 0.0 0.0 0.0 0.0 0.0 0.0 0.0 0.0 0.0 0.0 0.0 0.0 0.0 0.0 0.0 0.0 0.0 0.0 0.0 0.0 0.0 0.0 0.0 0.0 0.0 0.0 0.0 0.0 0.0 0.0 0.0 0.0 0.0 0.0 0.0 0.0 0.0 0.0 0.0 0.0 0.0 0.0 0.0 0.0 0.0 0.0 0.0 0.0 0.0 0.0 0.0 0.0 0.0 0.0 0.0 0.0 0.0 0.0 0.0 0.0 0.0 0.0 0.0 0.0 0.0 0.0 0.0 0.0 0.0 0.0 0.0 0.0 0.0 0.0 0.0 0.0 0.0 0.0 0.0 0.0 0.0 0.0 0.0 0.0 0.0 0.0 0.0 0.0 0.0 0.0 0.0 0.0 0.0 0.0 0.0 0.0 0.0 0.0 0.0 0.0 0.0 0.0 0.0 0.0 0.0 0.0 0.0 0.0 0.0 0.0 0.0 0.0 0.0 0.0 0.0 0.0 0.0 0.0 0.0 0.0 0.0 0.0 0.0 0.0 0.0 0.0 0.0 0.0 0.0 0.0 0.0 0.0 0.0 0.0 0.0 0.0 0.0 0.0 0.0 0.0 0.0 0.0 0.0 0.0 0.0 0.0 0.0 0.0 0.0 0.0 0.0 0.0 0.0 0.0 0.0 0.0 0.0 0.0 0.0 0.0 0.0 0.0 0.0 0.0 0.0 0.0 0.0 0.0 0.0 0.0 0.0 0.0 0.0 0.0 0.0 0.0 0.0 0.0 0.0 0.0 0.0 0.0 0.0 0.0 0.0 0.0 0.0 0.0 0.0 0.0 0.0 0.0 0.0 0.0 0.0 0.0 0.0 0.0 0.0 0.0 0.0 0.0 0.0 0.0 0.0 0.0 0.0 0.0 0.0 0.0 0.0 0.0 0.0 0.0 0.0 0.0 0.0 0.0 0.0 0.0 0.0 0.0 0.0 0.0 0.0 0.0 0.0 0.0 0.0 0.0 0.0 0.0 0.0 0.0 0.0 0.0 0.0 0.0 0.0 0.0 0.0 0.0 0.0 0.0 0.0 0.0 0.0 0.0 0.0 0.0 0.0 0.0 0.0 0.0 0.0 0.0 0.0 0.0 0.0 0.0 0.0 0.0 0.0 0.0 0.0 0.0 0.0 0.0 0.0 0.0 0.0 0.0 0.0 0.0 0.0 0.0 0.0 0.0 0.0 0.0 0.0 0.0 0.0 0.0 0.0 0.0 0.0 0.0 0.0 0.0 0.0 0.0 0.0 0.0 0.0 0.0 0.0 0.0 0.0 0.0 0.0 0.0 0.0 0.0 0.0 0.0 0.0 0.0 0.0 0.0 0.0 0.0 0.0 0.0 0.0 0.0 0.0 0.0 0.0 0.0 0.0 0.0 0.0 0.0 0.0 0.0 0.0 0.0 0.0 0.0 0.0 0.0 0.0 0.0 0.0 0.0 0.0 0.0 0.0 0.0 0.0 0.0 0.0 0.0 0.0 0.0 0.0 0.0 0.0 0.0 0.0 0.0 0.0 0.0 0.0 0.0 0.0 0.0 0.0 0.0 0.0 0.0 0.0 0.0 0.0 0.0 0.0 0.0 0.0 0.0 0.0 0.0 0.0 0.0 0.0 0.0 0.0 0.0 0.0 0.0 0.0 0.0 0.0 0.0 0.0 0.0 0.0 0.0 0.0 0.0 0.0 0.0 0.0 0.0 0.0 0.0 0.0 0.0 0.0 0.0 0.0 0.0 0.0 0.0 0.0 0.0 0.0 0.0 0.0 0.0 0.0 0.0 0.0 0.0 0.0 0.0 0.0 0.0 0.0 0.0 0.0 0.0 0.0 0.0 0.0 0.0 0.0 0.0 0.0 0.0 0.0 0.0 0.0 0.0 0.0 0.0 0.0 0.0 0.0 0.0 0.0 0.0 0.0 0.0 0.0 0.0 0.0 0.0 0.0 0.0 0.0 0.0 0.0 0.0 0.0 0.0 0.0 0.0 0.0 0.0 0.0 0.0 0.0 0.0 0.0 0.0 0.0 0.0 0.0 0.0 0.0 0.0 0.0 0.0 0.0 0.0 0.0 0.0 0.0 0.0 0.0 0.0 0.0 0.0 0.0 0.0 0.0 0.0 0.0 0.0 0.0 0.0 0.0 0.0 0.0 0.0 0.0 0.0 0.0 0.0 0.0 0.0 0.0 0.0 0.0 0.0 0.0 0.0 0.0 0.0 0.0 0.0 0.0 0.0 0.0 0.0 0.0 0.0 0.0 0.0 0.0 0.0 0.0 0.0 0.0 0.0 0.0 0.0 0.0 0.0 0.0 0.0 0.0 0.0 0.0 0.0 0.0 0.0 0.0 0.0 0.0 0.0 0.0 0.0 0.0 0.0 0.0 0.0 0.0 0.0 0.0 0.0 0.0 0.0 0.0 0.0 0.0 0.0 0.0 0.0 0.0 0.0 0.0 0.0 0.0 0.0 0.0 0.0 0.0 0.0 0.0 0.0 0.0 0.0 0.0 0.0 0.0 0.0 0.0 0.0 0.0 0.0 0.0 0.0 0.0 0.0 0.0 0.0 0.0 0.0 0.0 0.0 0.0 0.0 0.0 0.0 0.0 0.0 0.0 0.0 0.0 0.0 0.0 0.0 0.0 0.0 0.0 0.0 0.0 0.0 0.0 0.0 0.0 0.0 0.0 0.0 0.0 0.0 0.0 0.0 0.0 0.0 0.0 0.0 0.0 0.0 0.0 0.0 0.0 0.0 0.0 0.0 0.0 0.0 0.0 0.0 0.0 0.0 0.0 0.0 0.0 0.0 0.0 0.0 0.0 0.0 0.0 0.0 0.0 0.0 0.0 0.0 0.0 0.0 0.0 0.0 0.0 0.0 0.0 0.0 0.0 0.0 0.0 0.0 0.0 0.0 0.0 0.0 0.0 0.0 0.0 0.0 0.0 0.0 0.0 0.0 0.0 0.0 0.0 0.0 0.0 0.0 0.0 0.0 0.0 0.0 0.0 0.0 0.0 0.0 0.0 0.0 0.0 0.0 0.0 0.0 0.0 0.0 0.0 0.0 0.0 0.0 0.0 0.0 0.0 0.0 0.0 0.0 0.0 0.0 0.0 0.0 0.0 0.0 0.0 0.0 0.0 0.0 0.0 0.0 0.0 0.0 0.0 0.0 0.0 0.0 0.0 0.0 0.0 0.0 0.0 0.0 0.0 0.0 0.0 0.0 0.0 0.0 0.0 0.0 0.0 0.0 0.0 0.0 0.0 0.0 0.0 0.0 0.0 0.0 0.0 0.0 0.0 0.0 0.0 0.0 0.0 0.0 0.0 0.0 0.0 0.0 0.0 0.0 0.0 0.0 0.0 0.0 0.0 0.0 0.0 0.0 0.0 0.0 0.0 0.0 0.0 0.0 0.0 0.0 0.0 0.0 0.0 0.0 0.0 0.0 0.0 0.0 0.0 0.0 0.0 0.0 0.0 0.0 0.0 0.0 0.0 0.0 0.0 0.0 0.0 0.0 0.0 0.0 0.0 0.0 0.0 0.0 0.0 0.0 0.0 0.0 0.0 0.0 0.0 0.0 0.0 0.0 0.0 0.0 0.0 0.0 0.0 0.0 0.0 0.0 0.0 0.0 0.0 0.0 0.0 0.0 0.0 0.0 0.0 0.0 0.0 0.0 0.0 0.0 0.0 0.0 0.0 0.0 0.0 0.0 0.0 0.0 0.0 0.0 0.0 0.0 0.0 0.0 0.0 0.0 0.0 0.0 0.0 0.0 0.0 0.0 0.0 0.0 0.0 0.0 0.0 0.0 0.0 0.0 0.0 0.0 0.0 0.0 0.0 0.0 0.0 0.0 0.0 0.0 0.0 0.0 0.0 0.0 0.0 0.0 0.0 0.0 0.0 0.0 0.0 0.0 0.0 0.0 0.0 0.0 0.0 0.0 0.0 0.0 0.0 0.0 0.0 0.0 0.0 0.0 0.0 0.0 0.0 0.0 0.0 0.0 0.0 0.0 0.0 0.0 0.0 0.0 0.0 0.0 0.0 0.0 0.0 0.0 0.0 0.0 0.0 0.0 0.0 0.0 0.0 0.0 0.0 0.0 0.0 0.0 0.0 0.0 0.0 0.0 0.0 0.0 0.0 0.0 0.0 0.0 0.0 0.0 0.0 0.0 0.0 0.0 0.0 0.0 0.0 0.0 0.0 0.0 0.0 0.0 0.0 0.0 0.0 0.0 0.0 0.0 0.0 0.0 0.0 0.0 0.0 0.0 0.0 0.0 0.0 0.0 0.0 0.0 0.0 0.0 0.0 0.0 0.0 0.0 0.0 0.0 0.0 0.0 0.0 0.0 0.0 0.0 0.0 0.0 0.0 0.0 0.0 0.0 0.0 0.0 0.0 0.0 0.0 0.0 0.0 0.0 0.0 0.0 0.0 0.0 0.0 0.0 0.0 0.0 0.0 0.0 0.0 0.0 0.0 0.0 0.0 0.0 0.0 0.0 0.0 0.0 0.0 0.0 0.0 0.0 0.0 0.0 0.0 0.0 0.0 0.0 0.0 0.0 0.0 0.0 0.0 0.0 0.0 0.0 0.0 0.0 0.0 0.0 0.0 0.0 0.0 0.0 0.0 0.0 0.0 0.0 0.0 0.0 0.0 0.0 0.0 0.0 0.0 0.0 0.0 0.0 0.0 0.0 0.0 0.0 0.0 0.0 0.0 0.0 0.0 0.0 0.0 0.0 0.0 0.0 0.0 0.0 0.0 0.0 0.0 0.0 0.0 0.0 0.0 0.0 0.0 0.0 0.0 0.0 0.0 0.0 0.0 0.0 0.0 0.0 0.0 0.0 0.0 0.0 0.0 0.0 0.0 0.0 0.0 0.0 0.0 0.0 0.0 0.0 0.0 0.0 0.0 0.0 0.0 0.0 0.0 0.0 0.0 0.0 0.0 0.0 0.0 0.0 0.0 0.0 0.0 0.0 0.0 0.0 0.0 0.0 0.0 0.0 0.0 0.0 0.0 0.0 0.0 0.0 0.0 0.0 0.0 0.0 0.0 0.0 0.0 0.0 0.0 0.0 0.0 0.0 0.0 0.0 0.0 0.0 0.0 0.0 0.0 0.0 0.0 0.0 0.0 0.0 0.0 0.0 0.0 0.0 0.0 0.0 0.0 0.0 0.0 0.0 0.0 0.0 0.0 0.0 0.0 0.0 0.0 0.0 0.0 0.0 0.0 0.0 0.0 0.0 0.0 0.0 0.0 0.0 0.0 0.0 0.0 0.0 0.0 0.0 0.0 0.0 0.0 0.0 0.0 0.0 0.0 0.0 0.0 0.0 0.0 0.0 0.0 0.0 0.0 0.0 0.0 0.0 0.0 0.0 0.0 0.0 0.0 0.0 0.0 0.0 0.0 0.0 0.0 0.0 0.0 0.0 0.0 0.0 0.0 0.0 0.0 0.0 0.0 0.0 0.0 0.0 0.0 0.0 0.0 0.0 0.0 0.0 0.0 0.0 0.0 0.0 0.0 0.0 0.0 0.0 0.0 0.0 0.0 0.0 0.0 0.0 0.0 0.0 0.0 0.0 0.0 0.0 0.0 0.0 0.0 0.0 0.0 0.0 0.0 0.0 0.0 0.0 0.0 0.0 0.0 0.0 0.0 0.0 0.0 0.0 0.0 0.0 0.0 0.0 0.0 0.0 0.0 0.0 0.0 0.0 0.0 0.0 0.0 0.0 0.0 0.0 0.0 0.0 0.0 0.0 0.0 0.0 0.0 0.0 0.0 0.0 0.0 0.0 0.0 0.0 0.0 0.0 0.0 0.0 0.0 0.0 0.0 0.0 0.0 0.0 0.0 0.0 0.0 0.0 0.0 0.0 0.0 0.0 0.0 0.0 0.0 0.0 0.0 0.0 0.0 0.0 0.0 0.0 0.0 0.0 0.0 0.0 0.0 0.0 0.0 0.0 0.0 0.0 0.0 0.0 0.0 0.0 0.0 0.0 0.0 0.0 0.0 0.0 0.0 0.0 0.0 0.0 0.0 0.0 0.0 0.0 0.0 0.0 0.0 0.0 0.0 0.0 0.0 0.0 0.0 0.0 0.0 0.0 0.0 0.0 0.0 0.0 0.0 0.0 0.0 0.0 0.0 0.0 0.0 0.0 0.0 0.0 0.0 0.0 0.0 0.0 0.0 0.0 0.0 0.0 0.0 0.0 0.0 0.0 0.0 0.0 0.0 0.0 0.0 0.0 0.0 0.0 0.0 0.0 0.0 0.0 0.0 0.0 0.0 0.0 0.0 0.0 0.0 0.0 0.0 0.0 0.0 0.0 0.0 0.0 0.0 0.0 0.0 0.0 0.0 0.0 0.0 0.0 0.0 0.0 0.0 0.0 0.0 0.0 0.0 0.0 0.0 0.0 0.0 0.0 0.0 0.0 0.0 0.0 0.0 0.0 0.0 0.0 0.0 0.0 0.0 0.0 0.0 0.0 0.0 0.0 0.0 0.0 0.0 0.0 0.0 0.0 0.0 0.0 0.0 0.0 0.0 0.0 0.0 0.0 0.0 0.0 0.0 0.0 0.0 0.0 0.0 0.0 0.0 0.0 0.0 0.0 0.0 0.0 0.0 0.0 0.0 0.0 0.0 0.0 0.0 0.0 0.0 0.0 0.0 0.0 0.0 0.0 0.0 0.0 0.0 0.0 0.0 0.0 0.0 0.0 0.0 0.0 0.0 0.0 0.0 0.0 0.0 0.0 0.0 0.0 0.0 0.0 0.0 0.0 0.0 0.0 0.0 0.0 0.0 0.0 0.0 0.0 0.0 0.0 0.0 0.0 0.0 0.0 0.0 0.0 0.0 0.0 0.0 0.0 0.0 0.0 0.0 0.0 0.0 0.0 0.0 0.0 0.0 0.0 0.0 0.0 0.0 0.0 0.0 0.0 0.0 0.0 0.0 0.0 0.0 0.0 0.0 0.0 0.0 0.0 0.0 0.0 0.0 0.0 0.0 0.0 0.0 0.0 0.0 0.0 0.0 0.0 0.0 0.0 0.0 0.0 0.0 0.0 0.0 0.0 0.0 0.0 0.0 0.0 0.0 0.0 0.0 0.0 0.0 0.0 0.0 0.0 0.0 0.0 0.0 0.0 0.0 0.0 0.0 0.0 0.0 0.0 0.0 0.0 0.0 0.0 0.0 0.0 0.0 0.0 0.0 0.0 0.0 0.0 0.0 0.0 0.0 0.0 0.0 0.0 0.0 0.0 0.0 0.0 0.0 0.0 0.0 0.0 0.0 0.0 0.0 0.0 0.0 0.0 0.0 0.0 0.0 0.0 0.0 0.0 0.0 0.0 0.0 0.0 0.0 0.0 0.0 0.0 0.0 0.0 0.0 0.0 0.0 0.0 0.0 0.0 0.0 0.0 0.0 0.0 0.0 0.0 0.0 0.0 0.0 0.0 0.0 0.0 0.0 0.0 0.0 0.0 0.0 0.0 0.0 0.0 0.0 0.0 0.0 0.0 0.0 0.0 0.0 0.0 0.0 0.0 0.0 0.0 0.0 0.0 0.0 0.0 0.0 0.0 0.0 0.0 0.0 0.0 0.0 0.0 0.0 0.0 0.0 0.0 0.0 0.0 0.0 0.0 0.0 0.0 0.0 0.0 0.0 0.0 0.0 0.0 0.0 0.0 0.0 0.0 0.0 0.0 0.0 0.0 0.0 0.0 0.0 0.0 0.0 0.0 0.0 0.0 0.0 0.0 0.0 0.0 0.0 0.0 0.0 0.0 0.0 0.0 0.0 0.0 0.0 0.0 0.0 0.0 0.0 0.0 0.0 0.0 0.0 0.0 0.0 0.0 0.0 0.0 0.0 0.0 0.0 0.0 0.0 0.0 0.0 0.0 0.0 0.0 0.0 0.0 0.0 0.0 0.0 0.0 0.0 0.0 0.0 0.0 0.0 0.0 0.0 0.0 0.0 0.0 0.0 0.0 0.0 0.0 0.0 0.0 0.0 0.0 0.0 0.0 0.0 0.0 0.0 0.0 0.0 0.0 0.0 0.0 0.0 0.0 0.0 0.0 0.0 0.0 0.0 0.0 0.0 0.0 0.0 0.0 0.0 0.0 0.0 0.0 0.0 0.0 0.0 0.0 0.0 0.0 0.0 0.0 0.0 0.0 0.0 0.0 0.0 0.0 0.0 0.0 0.0 0.0 0.0 0.0 0.0 0.0 0.0 0.0 0.0 0.0 0.0 0.0 0.0 0.0 0.0 0.0 0.0 0.0 0.0 0.0 0.0 0.0 0.0 0.0 0.0 0.0 0.0 0.0 0.0 0.0 0.0 0.0 0.0 0.0 0.0 0.0 0.0 0.0 0.0 0.0 0.0 0.0 0.0 0.0 0.0 0.0 0.0 0.0 0.0 0.0 0.0 0.0 0.0 0.0 0.0 0.0 0.0 0.0 0.0 0.0 0.0 0.0 0.0 0.0 0.0 0.0 0.0 0.0 0.0 0.0 0.0 0.0 0.0 0.0 0.0 0.0 0.0 0.0 0.0 0.0 0.0 0.0 0.0 0.0 0.0 0.0 0.0 0.0 0.0 0.0 0.0 0.0 0.0 0.0 0.0 0.0 0.0 0.0 0.0 0.0 0.0 0.0 0.0 0.0 0.0 0.0 0.0 0.0 0.0 0.0 0.0 0.0 0.0 0.0 0.0 0.0 0.0 0.0 0.0 0.0 0.0 0.0 0.0 0.0 0.0 0.0 0.0 0.0 0.0 0.0 0.0 0.0 0.0 0.0 0.0 0.0 0.0 0.0 0.0 0.0 0.0 0.0 0.0 0.0 0.0 0.0 0.0 0.0 0.0 0.0 0.0 0.0 0.0 0.0 0.0 0.0 0.0 0.0 0.0 0.0 0.0 0.0 0.0 0.0 0.0 0.0 0.0 0.0 0.0 0.0 0.0 0.0 0.0 0.0 0.0 0.0 0.0 0.0 0.0 0.0 0.0 0.0 0.0 0.0 0.0 0.0 0.0 0.0 0.0 0.0 0.0 0.0 0.0 0.0 0.0 0.0 0.0 0.0 0.0 0.0 0.0 0.0 0.0 0.0 0.0 0.0 0.0 0.0 0.0 0.0 0.0 0.0 0.0 0.0 0.0 0.0 0.0 0.0 0.0 0.0 0.0 0.0 0.0 0.0 0.0 0.0 0.0 0.0 0.0 0.0 0.0 0.0 0.0 0.0 0.0 0.0 0.0 0.0 0.0 0.0 0.0 0.0 0.0 0.0 0.0 0.0 0.0 0.0 0.0 0.0 0.0 0.0 0.0 0.0 0.0 0.0 0.0 0.0 0.0 0.0 0.0 0.0 0.0 0.0 0.0 0.0 0.0 0.0 0.0 0.0 0.0 0.0 0.0 0.0 0.0 0.0 0.0 0.0 0.0 0.0 0.0 0.0 0.0 0.0 0.0 0.0 0.0 0.0 0.0 0.0 0.0 0.0 0.0 0.0 0.0 0.0 0.0 0.0 0.0 0.0 0.0 0.0 0.0 0.0 0.0 0.0 0.0 0.0 0.0 0.0 0.0 0.0 0.0 0.0 0.0 0.0 0.0 0.0 0.0 0.0 0.0 0.0 0.0 0.0 0.0 0.0 0.0 0.0 0.0 0.0 0.0 0.0 0.0 0.0 0.0 0.0 0.0 0.0 0.0 0.0 0.0 0.0 0.0 0.0 0.0 0.0 0.0 0.0 0.0 0.0 0.0 0.0 0.0 0.0 0.0 0.0 0.0 0.0 0.0 0.0 0.0 0.0 0.0 0.0 0.0 0.0 0.0 0.0 0.0 0.0 0.0 0.0 0.0 0.0 0.0 0.0 0.0 0.0 0.0 0.0 0.0 0.0 0.0 0.0 0.0 0.0 0.0 0.0 0.0 0.0 0.0 0.0 0.0 0.0 0.0 0.0 0.0 0.0 0.0 0.0 0.0 0.0 0.0 0.0 0.0 0.0 0.0 0.0 0.0 0.0 0.0 0.0 0.0 0.0 0.0 0.0 0.0 0.0 0.0 0.0 0.0 0.0 0.0 0.0 0.0 0.0 0.0 0.0 0.0 0.0 0.0 0.0 0.0 0.0 0.0 0.0 0.0 0.0 0.0 0.0 0.0 0.0 0.0 0.0 0.0 0.0 0.0 0.0 0.0 0.0 0.0 0.0 0.0 0.0 0.0 0.0 0.0 0.0 0.0 0.0 0.0 0.0 0.0 0.0 0.0 0.0 0.0 0.0 0.0 0.0 0.0 0.0 0.0 0.0 0.0 0.0 0.0 0.0 0.0 0.0 0.0 0.0 0.0 0.0 0.0 0.0 0.0 0.0 0.0 0.0 0.0 0.0 0.0 0.0 0.0 0.0 0.0 0.0 0.0 0.0 0.0 0.0 0.0 0.0 0.0 0.0 0.0 0.0 0.0 0.0 0.0 0.0 0.0 0.0 0.0 0.0 0.0 0.0 0.0 0.0 0.0 0.0 0.0 0.0 0.0 0.0 0.0 0.0 0.0 0.0 0.0 0.0 0.0 0.0 0.0 0.0 0.0 0.0 0.0 0.0 0.0 0.0 0.0 0.0 0.0 0.0 0.0 0.0 0.0 0.0 0.0 0.0 0.0 0.0 0.0 0.0 0.0 0.0 0.0 0.0 0.0 0.0 0.0 0.0 0.0 0.0 0.0 0.0 0.0 0.0 0.0 0.0 0.0 0.0 0.0 0.0 0.0 0.0 0.0 0.0 0.0 0.0 0.0 0.0 0.0 0.0 0.0 0.0 0.0 0.0 0.0 0.0 0.0 0.0 0.0 0.0 0.0 0.0 0.0 0.0 0.0 0.0 0.0 0.0 0.0 0.0 0.0 0.0 0.0 0.0 0.0 0.0 0.0 0.0 0.0 0.0 0.0 0.0 0.0 0.0 0.0 0.0 0.0 0.0 0.0 0.0 0.0 0.0 0.0 0.0 0.0 0.0 0.0 0.0 0.0 0.0 0.0 0.0 0.0 0.0 0.0 0.0 0.0 0.0 0.0 0.0 0.0 0.0 0.0 0.0 0.0 0.0 0.0 0.0 0.0 0.0 0.0 0.0 0.0 0.0 0.0 0.0 0.0 0.0 0.0 0.0 0.0 0.0 0.0 0.0 0.0 0.0 0.0 0.0 0.0 0.0 0.0 0.0 0.0 0.0 0.0 0.0 0.0 0.0 0.0 0.0 0.0 0.0 0.0 0.0 0.0 0.0 0.0 0.0 0.0 0.0 0.0 0.0 0.0 0.0 0.0 0.0 0.0 0.0 0.0 0.0 0.0 0.0 0.0 0.0 0.0 0.0 0.0 0.0 0.0 0.0 0.0 0.0 0.0 0.0 0.0 0.0 0.0 0.0 0.0 0.0 0.0 0.0 0.0 0.0 0.0 0.0 0.0 0.0 0.0 0.0 0.0 0.0 0.0 0.0 0.0 0.0 0.0 0.0 0.0 0.0 0.0 0.0 0.0 0.0 0.0 0.0 0.0 0.0 0.0 0.0 0.0 0.0 0.0 0.0 0.0 0.0 0.0 0.0 0.0 0.0 0.0 0.0 0.0 0.0 0.0 0.0 0.0 0.0 0.0 0.0 0.0 0.0 0.0 0.0 0.0 0.0 0.0 0.0 0.0 0.0 0.0 0.0 0.0 0.0 0.0 0.0 0.0 0.0 0.0 0.0 0.0 0.0 0.0 0.0 0.0 0.0 0.0 0.0 0.0 0.0 0.0 0.0 0.0 0.0 0.0 0.0 0.0 0.0 0.0 0.0 0.0 0.0 0.0 0.0 0.0 0.0 0.0 0.0 0.0 0.0 0.0 0.0 0.0 0.0 0.0 0.0 0.0 0.0 0.0 0.0 0.0 0.0 0.0 0.0 0.0 0.0 0.0 0.0 0.0 0.0 0.0 0.0 0.0 0.0 0.0 0.0 0.0 0.0 0.0 0.0 0.0 0.0 0.0 0.0 0.0 0.0 0.0 0.0 0.0 0.0 0.0 0.0 0.0 0.0 0.0 0.0 0.0 0.0 0.0 0.0 0.0 0.0 0.0 0.0 0.0 0.0 0.0 0.0 0.0 0.0 0.0 0.0 0.0 0.0 0.0 0.0 0.0 0.0 0.0 0.0 0.0 0.0 0.0 0.0 0.0 0.0 0.0 0.0 0.0 0.0 0.0 0.0 0.0 0.0 0.0 0.0 0.0 0.0 0.0 0.0 0.0 0.0 0.0 0.0 0.0 0.0 0.0 0.0 0.0 0.0 0.0 0.0 0.0 0.0 0.0 0.0 0.0 0.0 0.0 0.0 0.0 0.0 0.0 0.0 0.0 0.0 0.0 0.0 0.0 0.0 0.0 0.0 0.0 0.0 0.0 0.0 0.0 0.0 0.0 0.0 0.0 0.0 0.0 0.0 0.0 0.0 0.0 0.0 0.0 0.0 0.0 0.0 0.0 0.0 0.0 0.0 0.0 0.0 0.0 0.0 0.0 0.0 0.0 0.0 0.0 0.0 0.0 0.0 0.0 0.0 0.0 0.0 0.0 0.0 0.0 0.0 0.0 0.0 0.0 0.0 0.0 0.0 0.0 0.0 0.0 0.0 0.0 0.0 0.0 0.0 0.0 0.0 0.0 0.0 0.0 0.0 0.0 0.0 0.0 0.0 0.0 0.0 0.0 0.0 0.0 0.0 0.0 0.0 0.0 0.0 0.0 0.0 0.0 0.0 0.0 0.0 0.0 0.0 0.0 0.0 0.0 0.0 0.0 0.0 0.0 0.0 0.0 0.0 0.0 0.0 0.0 0.0 0.0 0.0 0.0 0.0 0.0 0.0 0.0 0.0 0.0 0.0 0.0 0.0 0.0 0.0 0.0 0.0 0.0 0.0 0.0 0.0 0.0 0.0 0.0 0.0 0.0 0.0 0.0 0.0 0.0 0.0 0.0 0.0 0.0 0.0 0.0 0.0 0.0 0.0 0.0 0.0 0.0 0.0 0.0 0.0 0.0 0.0 0.0 0.0 0.0 0.0 0.0 0.0 0.0 0.0 0.0 0.0 0.0 0.0 0.0 0.0 0.0 0.0 0.0 0.0 0.0 0.0 0.0 0.0 0.0 0.0 0.0 0.0 0.0 0.0 -2.7397412999999995 0.0 -1.1417232 -3.1877289 0.0 -1.0545454 -3.5639 0.0 -0.94880247 -3.8863583 0.0 -0.83909488 -4.1547756 0.0 -0.74013686 -2.5683336 0.0 -1.4631348 -3.3483601000000003 0.0 -1.2254181 -3.9023762000000004 0.0 -1.1488819 -4.3229370000000005 0.0 -1.0542936 -4.6744518 0.0 -0.95291805 -4.9735241 0.0 -0.8570894 -3.289216 0.0 -1.4518576 -4.180356 0.0 -1.2147511999999998 -4.7652493 0.0 -1.103025 -5.2005882 0.0 -1.0111694 -5.5668106 0.0 -0.93352246 -5.8956985 0.0 -0.8548398 -4.1616707 0.0 -1.3780031000000001 -5.1521196 0.0 -1.1063309 -5.7311697 0.0 -1.0056095 -6.1492319 0.0 -0.92848873 -6.517314900000001 0.0 -0.87426829 -6.874476400000001 0.0 -0.81224382 -5.1687430999999995 0.0 -1.2980098999999998 -6.257886900000001 0.0 -0.97531319 -6.8259315 0.0 -0.8856926 -7.220582 0.0 -0.82894707 -7.5885910999999995 0.0 -0.79722738 -7.972055 0.0 -0.7573725 -6.330081 0.0 -1.2459526 -7.5314693 0.0 -0.8375721 -8.0814075 0.0 -0.74859333 -8.453022 0.0 -0.71260118 -8.822792100000001 0.0 -0.70814657 -9.2307262 0.0 -0.69364542 -7.662273399999999 0.0 -1.2840672 -8.988867800000001 0.0 -0.72587204 -9.5154238 0.0 -0.60121536 -9.844764699999999 0.0 -0.58904028 -10.21348 0.0 -0.60898805 -10.644686 0.0 -0.62332356 -9.1973057 0.0 -1.4640942 -10.625217 0.0 -0.69532776 -11.100267 0.0 -0.49451351 -11.370673 0.0 -0.49134827 -11.732892999999999 0.0 -0.51753378 -12.182663 0.0 -0.55979252 -11.047115 0.0 -1.6697959999999998 -12.438997 0.0 -0.74523735 -12.792317 0.0 -0.48150063 -13.006464 0.0 -0.45117378 -13.349167999999999 0.0 -0.48130131 -13.81714 0.0 -0.5228374 -13.513641 0.0 -1.4769669 -14.484126999999999 0.0 -0.7674427 -14.607117 0.0 -0.53693008 -14.73908 0.0 -0.48102665 -15.057682999999999 0.0 -0.51293778 -15.526822 0.0 -0.56633949 -16.820625 0.0 -0.8687973 -16.873281 0.0 -0.7122345 -16.605331 0.0 -0.61158371 -16.552341000000002 0.0 -0.60816002 -16.829365 0.0 -0.62935472 -17.296688 0.0 -0.69554341 -20.204681 0.0 -1.3279610000000002 -19.5506 0.0 -1.0408173 -18.799297 0.0 -0.82753372 -18.525651999999997 0.0 -0.78927994 -18.660448000000002 0.0 -0.86113906 -19.103491 0.0 -0.92684007 -23.469288 0.0 -4.2875748 -22.32094 0.0 -2.8427734 -21.1581 0.0 -1.7023125 -20.527756 0.0 -1.3380303 -20.520594 0.0 -1.3191223 -20.930359 0.0 -1.3254164 -27.350433000000002 0.0 -6.4908943 -25.389882999999998 0.0 -4.7757721 -23.668986999999998 0.0 -3.157897 -22.614347 0.0 -2.3888001 -22.41876 0.0 -2.0349128 -22.760666 0.0 -1.9222534 -31.718823999999998 0.0 -7.808289500000001 -28.799564 0.0 -6.0128241 -26.299471 0.0 -4.4726524 -24.768518 0.0 -3.4798684 -24.311518 0.0 -2.9428153 -24.602301 0.0 -2.6367145 -36.206406 0.0 -8.7571239 -32.174644 0.0 -6.8258905 -28.820843 0.0 -5.4632449 -26.842361 0.0 -4.433198 -26.176026999999998 0.0 -3.8036613 -26.431760999999998 0.0 -3.3986322999999996 -40.344448 0.0 -9.5744076 -35.258259 0.0 -7.5775814 -31.198690000000003 0.0 -6.2159986 -28.82452 0.0 -5.1810737 -27.9874 0.0 -4.5275779 -28.240576 0.0 -4.0575733 -44.064648 0.0 -10.345578 -38.137577 0.0 -8.2257576 -33.462115999999995 0.0 -6.8079152 -30.737697999999998 0.0 -5.7441754000000005 -29.771697999999997 0.0 -5.0674629 -30.022634999999998 0.0 -4.6124082 -47.545464 0.0 -11.047371 -40.91021 0.0 -8.7987938 -35.680248 0.0 -7.2679089999999995 -32.613331 0.0 -6.1590009000000006 -31.51766 0.0 -5.4702764 -31.785559000000003 0.0 -4.9876566 -51.012695 0.0 -11.613533 -43.670879 0.0 -9.265267399999999 -37.88306 0.0 -7.600263099999999 -34.457542 0.0 -6.4607139 -33.21286 0.0 -5.7575582999999995 -33.51173 0.0 -5.2312121 -54.48591999999999 0.0 -12.057518 -46.42503 0.0 -9.5893021 -40.045567 0.0 -7.850039 -36.260857 0.0 -6.648825200000001 -34.87669 0.0 -5.9111709999999995 -35.19558 0.0 -5.3549432999999995 -57.941807 0.0 -12.31803 -49.148571000000004 0.0 -9.7484913 -42.154666999999996 0.0 -7.9752121 -38.005501 0.0 -6.7235341 -36.492424 0.0 -5.9377093 -36.830818 0.0 -5.3498383 -61.34385699999999 0.0 -12.361434 -51.793129 0.0 -9.7427292 -44.184483 0.0 -7.9535952000000005 -39.670414 0.0 -6.6678238 -38.042846999999995 0.0 -5.8263267999999995 -38.40575 0.0 -5.2073669 -64.658539 0.0 -12.147524 -54.339775 0.0 -9.526354800000002 -46.1166 0.0 -7.7459202000000005 -41.235572999999995 0.0 -6.4524669999999995 -39.503966999999996 0.0 -5.5499964 -39.9077 0.0 -4.9016967000000005 -67.884621 0.0 -11.630282000000001 -56.78455400000001 0.0 -9.0518112 -47.944092 0.0 -7.309280900000001 -42.698879 0.0 -6.0132308 -40.882343 0.0 -5.0354981 -41.3232 0.0 -4.4118943 -71.07204399999999 0.0 -10.763319000000001 -59.154175 0.0 -8.2731714 -49.680820000000004 0.0 -6.586545 -44.089420000000004 0.0 -5.2402120000000005 -42.178844 0.0 -4.2270517 -42.65818 0.0 -3.6829994 -74.330261 0.0 -9.5022974 -61.504242000000005 0.0 -7.125627499999999 -51.35754 0.0 -5.4867805999999995 -45.4198 0.0 -4.0607691 -43.38942 0.0 -3.1056461 -43.916405 0.0 -2.6461957000000003 -77.77409399999999 0.0 -7.8331574999999996 -63.88429300000001 0.0 -5.5447474 -53.01055899999999 0.0 -3.9069772000000005 -46.699268 0.0 -2.4433131 -44.530605 0.0 -1.6042933000000001 -45.117752 0.0 -1.1973236999999999 -81.449799 0.0 -5.7135997000000005 -66.293724 0.0 -3.4763057 -54.62230699999999 0.0 -1.7874929 -47.894740999999996 0.0 -0.35383227 -45.576645 0.0 0.33710238 -46.22015 0.0 0.65733051 -85.196182 0.0 -3.089468 -68.616478 0.0 -0.89648432 -56.100586 0.0 0.90932387 -48.919846 0.0 2.2499595 -46.464897 0.0 2.8033414 -47.138268 0.0 2.9296615000000004 -88.63336899999999 0.0 0.07194531700000001 -70.708618 0.0 2.2602147999999995 -57.346214 0.0 4.1915741 -49.676807000000004 0.0 5.396656 -47.045952 0.0 5.671156900000001 -47.683693 0.0 5.5046792 -91.52711500000001 0.0 3.5868034 -72.385849 0.0 5.9186478 -58.355796999999995 0.0 7.947446799999999 -50.149155 0.0 8.9238768 -47.272129 0.0 8.9084644 -47.841873 0.0 8.4755669 -93.621567 0.0 7.391814200000001 -73.743759 0.0 9.7250071 -58.850327 0.0 12.258549 -50.352051 0.0 12.968050999999999 -47.266506 0.0 12.868928 -47.746464 0.0 12.077430999999999 -93.578194 0.0 11.371328 -73.94498399999999 0.0 13.985298 -59.200802 0.0 16.618559 -50.483917 0.0 17.762991 -47.011314 0.0 17.448233 -47.333694 0.0 16.224928 -86.185905 0.0 16.243301000000002 -71.795601 0.0 18.602196 -58.022346 0.0 21.655113 -49.493065 0.0 22.843203 -46.378857 0.0 22.690214 -46.810604 0.0 21.289671 -57.72864499999999 0.0 21.245638 -56.607136 0.0 24.299826 -51.779812 0.0 27.446964 -46.200264000000004 0.0 28.679953 -43.474361 0.0 27.803459000000004 -44.139431 0.0 25.581177 -29.856058 0.0 26.936859000000002 -28.814020000000003 0.0 30.687527000000003 -28.271307 0.0 34.658318 -28.316225 0.0 36.129761 -29.239325 0.0 36.593544 -31.280369 0.0 35.323318 -15.894445999999999 0.0 30.862759000000004 -14.26286 0.0 34.470573 -13.154245000000001 0.0 40.454842 -12.86972 0.0 42.413731 -13.357779999999998 0.0 42.862083 -14.770647 0.0 42.411770000000004 -12.515032000000001 0.0 34.932666999999995 -10.667778 0.0 36.143703 -9.151124000000001 0.0 45.34903 -8.316781 0.0 48.638405 -8.273408900000002 0.0 48.963165000000004 -8.966916099999999 0.0 46.905499 -12.337178 0.0 38.574192 -10.804780000000001 0.0 37.21365 -9.466911300000001 0.0 48.910088 -8.559289 0.0 53.883835 -8.1719332 0.0 53.424828000000005 -8.2536697 0.0 49.426521 -9.0022125 0.0 40.757785999999996 -8.2617168 0.0 38.732642999999996 -7.6497116 0.0 51.226859999999995 -7.2265253 0.0 56.090149 -7.0006609 0.0 54.597832 -6.9342504 0.0 51.024757 0.029657811 0.0 41.559391 -0.27518344 0.0 39.596184 -0.69828928 0.0 52.546486 -1.1613386 0.0 55.960148 -1.577631 0.0 54.099701 -1.8918613999999998 0.0 49.95615 13.281794 0.0 40.98428 11.963258999999999 0.0 39.70369 10.501366 0.0 51.650776 9.045094500000001 0.0 54.558418 7.7377305 0.0 53.290645999999995 6.688204300000001 0.0 47.227996999999995 27.454978999999998 0.0 38.812328 25.376728 0.0 38.249481 23.11973 0.0 48.790417 20.838082999999997 0.0 51.519238 18.690860999999998 0.0 51.151226 16.856873 0.0 45.10733 40.062252 0.0 35.378654 37.559703999999996 0.0 35.463024 34.857616 0.0 44.818401 32.068596 0.0 47.464985 29.253975 0.0 47.190514 26.897478000000003 0.0 42.612152 50.501709000000005 0.0 31.468958 48.00985 0.0 31.972752000000003 45.034439 0.0 39.975563 41.77985 0.0 42.249912 38.648937 0.0 42.802559 36.32563 0.0 39.391212 59.743931 0.0 27.05595 57.495158999999994 0.0 27.744381 53.537304000000006 0.0 35.237061 49.785126 0.0 38.019077 47.273478999999995 0.0 38.117138 45.606128999999996 0.0 35.651112 69.401596 0.0 21.492008 66.114464 0.0 23.550159 61.266548 0.0 29.852987 58.071495 0.0 32.829807 56.234168999999994 0.0 33.437962 55.770382 0.0 31.301434999999998 80.560364 0.0 15.597517000000002 75.51003299999999 0.0 19.852203 69.308662 0.0 24.221985 66.77239200000001 0.0 27.651615000000003 66.00729399999999 0.0 29.036007 66.375015 0.0 26.320539 92.975052 0.0 10.480303 86.229675 0.0 15.31695 78.489517 0.0 18.865326 75.432159 0.0 22.458139000000003 73.574883 0.0 23.381128 73.572151 0.0 20.05521 106.74368 0.0 5.5288544 97.920654 0.0 10.451986999999999 88.908905 0.0 14.138764000000002 82.40451 0.0 17.076914000000002 78.587379 0.0 17.442039 78.340866 0.0 14.694552999999999 122.3469 0.0 0.75215942 110.35841 0.0 5.3895488 99.044289 0.0 9.69627 88.422958 0.0 11.869328999999999 82.934242 0.0 12.122636 81.08749399999999 0.0 11.084617 139.93431 0.0 -3.9219307999999997 124.10489 0.0 1.6914023 107.62076 0.0 5.767891400000001 93.437263 0.0 7.5811496 85.95740500000001 0.0 8.4112425 82.82974200000001 0.0 8.495198199999999 160.83777 0.0 -5.9344168 137.73466000000002 0.0 -0.13843833 114.77949 0.0 2.6958518 98.242271 0.0 4.736600900000001 88.585411 0.0 5.7584085 84.476692 0.0 6.2639332 178.44208 0.0 -7.503538099999999 150.02475 0.0 -3.0719168 123.37675 0.0 -0.12318072 104.22128000000001 0.0 2.1070626 92.348877 0.0 3.6254169999999997 86.651901 0.0 4.263199299999999 163.93743999999998 0.0 -6.063571499999999 134.16881 0.0 -2.841238 112.06183999999999 0.0 -0.15571302 97.80994399999999 0.0 1.5574131000000002 89.82466099999999 0.0 2.4983079 178.76805 0.0 -8.7410021 147.52298000000002 0.0 -5.426653900000001 122.53728999999998 0.0 -2.3835577999999997 105.25468000000001 0.0 -0.33600631 94.529358 0.0 0.77720881 163.73219 0.0 -7.522711800000001 135.96194 0.0 -4.4050174 114.96516000000001 0.0 -1.7988776999999998 101.2761 0.0 -0.59718913 181.20818 0.0 -9.446355800000001 152.60497 0.0 -6.116675900000001 128.14883 0.0 -3.195354 110.80721000000001 0.0 -1.5415448999999999 171.44267 0.0 -7.8042989 145.01933 0.0 -4.545853599999999 124.04932 0.0 -2.257653 164.56976 0.0 -6.0337062 141.53951 0.0 -3.4272584999999998 183.86398 0.0 -8.4145174 162.07466000000002 0.0 -4.8695693 -4.3719997 0.0 -0.65034056 -4.5402336 0.0 -0.56054544 -4.662702599999999 0.0 -0.4761709 -4.7474155 0.0 -0.39870691 -4.8053894 0.0 -0.32367879 -4.8438873 0.0 -0.25229245 -4.8685246 0.0 -0.18568668 -4.8834858 0.0 -0.12195277 -4.891573 0.0 -0.059794083 -5.2234154 0.0 -0.75990033 -5.4186668 0.0 -0.66517389 -5.561552 0.0 -0.57472777 -5.6631317 0.0 -0.48671001 -5.7343998 0.0 -0.39952636 -5.7833480999999995 0.0 -0.31448746 -5.8149776 0.0 -0.23501235 -5.8353367 0.0 -0.15496814 -5.8465595 0.0 -0.076193638 -6.1797009 0.0 -0.77426767 -6.4052334 0.0 -0.69349158 -6.574264500000001 0.0 -0.60865688 -6.6974105999999995 0.0 -0.52326822 -6.7859383 0.0 -0.43428606 -6.8479023 0.0 -0.34854561 -6.890852000000001 0.0 -0.26078224 -6.918548599999999 0.0 -0.17325382 -6.934076299999999 0.0 -0.085768014 -7.192667999999999 0.0 -0.75135875 -7.4522257 0.0 -0.6823197 -7.649186099999999 0.0 -0.60827988 -7.7954988 0.0 -0.52968812 -7.903707499999999 0.0 -0.44561994 -7.9818716 0.0 -0.36050704 -8.0371904 0.0 -0.27204552 -8.073678999999998 0.0 -0.18193397 -8.094180099999999 0.0 -0.091959305 -8.3266621 0.0 -0.71238458 -8.620657000000001 0.0 -0.65667027 -8.847000099999999 0.0 -0.59183687 -9.0179834 0.0 -0.51976115 -9.146526300000001 0.0 -0.44403419 -9.2421837 0.0 -0.36158425 -9.3109159 0.0 -0.27506956 -9.3569174 0.0 -0.1862271 -9.3834877 0.0 -0.093757391 -9.622138 0.0 -0.66537493 -9.9509592 0.0 -0.62188798 -10.206579 0.0 -0.56670326 -10.402106 0.0 -0.50495118 -10.551966 0.0 -0.43445265 -10.665358 0.0 -0.35736245 -10.748072 0.0 -0.2750282 -10.804478 0.0 -0.18642086 -10.837252000000001 0.0 -0.09416648 -11.071222 0.0 -0.61648864 -11.434372999999999 0.0 -0.58706319 -11.719097 0.0 -0.54393893 -11.939466 0.0 -0.49048406 -12.110778 0.0 -0.42666233 -12.242187 0.0 -0.35495776 -12.339703 0.0 -0.27457103 -12.40686 0.0 -0.18737622 -12.446161 0.0 -0.09497822800000001 -12.642942 0.0 -0.57551759 -13.039659 0.0 -0.56473422 -13.353126999999999 0.0 -0.53486794 -13.598545999999999 0.0 -0.4894982 -13.791734 0.0 -0.43104261 -13.941987 0.0 -0.36165246 -14.054942 0.0 -0.28161108 -14.133534 0.0 -0.19312122 -14.179762 0.0 -0.098332666 -14.307746 0.0 -0.55862701 -14.736541 0.0 -0.57693815 -15.079920000000001 0.0 -0.55749899 -15.351632 0.0 -0.51757747 -15.568198 0.0 -0.45985115 -15.738929 0.0 -0.38752928 -15.868357999999999 0.0 -0.30294934 -15.959152 0.0 -0.2081572 -16.012815 0.0 -0.10628299 -16.043646 0.0 -0.60707527 -16.503721 0.0 -0.63786417 -16.878042 0.0 -0.63413817 -17.179479999999998 0.0 -0.59201264 -17.422411 0.0 -0.52658957 -17.615894 0.0 -0.4437632 -17.763796 0.0 -0.34635931 -17.868085999999998 0.0 -0.23755726 -17.930070999999998 0.0 -0.1209957 -17.830579999999998 0.0 -0.74375629 -18.320225 0.0 -0.78401875 -18.730589000000002 0.0 -0.77827537 -19.06617 0.0 -0.72450459 -19.340246 0.0 -0.64030647 -19.55979 0.0 -0.53413433 -19.728226 0.0 -0.41310668 -19.847279 0.0 -0.28133333 -19.91766 0.0 -0.1440499 -19.646107 0.0 -0.99558401 -20.174417000000002 0.0 -1.0279521999999999 -20.625866000000002 0.0 -1.0039474 -21.00173 0.0 -0.92529333 -21.313091 0.0 -0.80196637 -21.562336 0.0 -0.6615954 -21.753345 0.0 -0.5093407 -21.889464999999998 0.0 -0.34857774 -21.970620999999998 0.0 -0.17716606 -21.482982999999997 0.0 -1.4082395 -22.065001000000002 0.0 -1.361966 -22.563011 0.0 -1.2932106 -22.988638 0.0 -1.1577678 -23.338589000000002 0.0 -0.99962497 -23.620035 0.0 -0.82642311 -23.835089 0.0 -0.64192009 -23.990524 0.0 -0.43554249 -24.083469 0.0 -0.21743375 -23.348013 0.0 -1.8813898999999998 -23.976217000000002 0.0 -1.7976067999999998 -24.537523 0.0 -1.6470796000000003 -25.013149 0.0 -1.4569005 -25.408648 0.0 -1.2434938 -25.728144 0.0 -1.0126613000000002 -25.974157 0.0 -0.77613258 -26.149878 0.0 -0.52253997 -26.254757 0.0 -0.26531804 -25.224871 0.0 -2.4645696 -25.923168 0.0 -2.2596412 -26.537360999999997 0.0 -2.0605776000000002 -27.071987 0.0 -1.8079557000000002 -27.515296999999997 0.0 -1.5323919 -27.877454999999998 0.0 -1.2375106000000002 -28.158308 0.0 -0.9281227 -28.357165999999996 0.0 -0.61928999 -28.476484000000003 0.0 -0.31452051 -27.109816 0.0 -3.0760329 -27.877769 0.0 -2.7652077999999998 -28.567799 0.0 -2.4728091 -29.157365999999996 0.0 -2.160027 -29.653510999999998 0.0 -1.8312206999999998 -30.059994 0.0 -1.4739246000000001 -30.376783000000003 0.0 -1.1116438 -30.602476 0.0 -0.74005133 -30.73913 0.0 -0.36460313 -28.982853000000002 0.0 -3.6619115 -29.837107 0.0 -3.2596828999999996 -30.602459000000003 0.0 -2.8781397 -31.255909000000003 0.0 -2.5055416 -31.809633 0.0 -2.1171367 -32.266533 0.0 -1.7044696 -32.621704 0.0 -1.281305 -32.875248 0.0 -0.85484666 -33.027496 0.0 -0.42796773 -30.847956 0.0 -4.1448588 -31.791097999999998 0.0 -3.6784267 -32.635738 0.0 -3.2405247999999998 -33.356815000000005 0.0 -2.8236485 -33.973644 0.0 -2.3725777000000003 -34.482929 0.0 -1.9051943999999998 -34.879913 0.0 -1.4317218999999999 -35.164074 0.0 -0.95854896 -35.333462 0.0 -0.47896132 -32.691437 0.0 -4.497001200000001 -33.728088 0.0 -4.0063267 -34.658485 0.0 -3.5332255 -35.453125 0.0 -3.0781433999999996 -36.134144 0.0 -2.5874169 -36.700089 0.0 -2.0697348 -37.14035 0.0 -1.5528836000000001 -37.454151 0.0 -1.0356501 -37.641865 0.0 -0.51785672 -34.500027 0.0 -4.728714 -35.636295000000004 0.0 -4.2318406 -36.655506 0.0 -3.7467627999999995 -37.532097 0.0 -3.2629905 -38.285175 0.0 -2.7367928 -38.907406 0.0 -2.1920599999999997 -39.390831 0.0 -1.6379893 -39.734984999999995 0.0 -1.087736 -39.940265999999994 0.0 -0.54269677 -36.270138 0.0 -4.8393197 -37.50555 0.0 -4.3469892 -38.611323999999996 0.0 -3.8796544 -39.582825 0.0 -3.3644741000000002 -40.414944 0.0 -2.8108322999999995 -41.094982 0.0 -2.2441668999999997 -41.620964 0.0 -1.6777543999999998 -41.993652000000004 0.0 -1.1101513 -42.215832 0.0 -0.5527119 -38.003273 0.0 -4.8176737 -39.333183 0.0 -4.3473248 -40.543095 0.0 -3.8752396 -41.607174 0.0 -3.3512421000000003 -42.514423 0.0 -2.7958977000000003 -43.250972999999995 0.0 -2.2262449 -43.817935999999996 0.0 -1.662536 -44.216885 0.0 -1.1015551000000001 -44.454449 0.0 -0.54610538 -39.671703 0.0 -4.6869197 -41.103657 0.0 -4.239784200000001 -42.424091 0.0 -3.7588401 -43.587902 0.0 -3.2260183999999996 -44.570698 0.0 -2.6836922000000003 -45.36137 0.0 -2.1305931 -45.966179 0.0 -1.5887917999999999 -46.389198 0.0 -1.0525374 -46.640034 0.0 -0.52148283 -41.270953999999996 0.0 -4.4107885 -42.819351 0.0 -3.9681861000000005 -44.257896 0.0 -3.4806275 -45.515064 0.0 -2.9692059 -46.568123 0.0 -2.4612694 -47.40992 0.0 -1.9517308 -48.047816999999995 0.0 -1.4522814 -48.49218 0.0 -0.96387845 -48.753723 0.0 -0.47765666 -42.79195 0.0 -3.9705074000000002 -44.474209 0.0 -3.5190725 -46.030327 0.0 -3.0342352000000004 -47.373936 0.0 -2.5692387 -48.491199 0.0 -2.1249943 -49.378521 0.0 -1.6863091000000001 -50.045712 0.0 -1.2577381 -50.506737 0.0 -0.83490598 -50.776623 0.0 -0.41499695 -44.249508 0.0 -3.2661653 -46.071915000000004 0.0 -2.8335626 -47.733406 0.0 -2.4091463 -49.152775 0.0 -2.0193374 -50.324546999999995 0.0 -1.6674927 -51.250721 0.0 -1.3344865 -51.942196 0.0 -1.0048861999999998 -52.416595 0.0 -0.6700173 -52.691745999999995 0.0 -0.33499989 -45.645317 0.0 -2.2623813 -47.600063 0.0 -1.9121896 -49.358738 0.0 -1.5980888999999998 -50.84478 0.0 -1.3242473999999997 -52.057884 0.0 -1.0932024 -53.013489 0.0 -0.89467263 -53.724734999999995 0.0 -0.69548708 -54.209648 0.0 -0.47872254 -54.489628 0.0 -0.2463277 -46.968796000000005 0.0 -0.923401 -49.045139 0.0 -0.72651881 -50.891762 0.0 -0.58800024 -52.435131000000005 0.0 -0.48821062 -53.678879 0.0 -0.40822443 -54.654258999999996 0.0 -0.36997283 -55.37779200000001 0.0 -0.33161023 -55.873714 0.0 -0.26120102 -56.159954000000006 0.0 -0.14588037 -48.186363 0.0 0.74457085 -50.364075 0.0 0.73031193 -52.289615999999995 0.0 0.65020114 -53.889526000000004 0.0 0.5107795 -55.156788 0.0 0.38419399 -56.144142 0.0 0.21822329 -56.875717 0.0 0.084699191 -57.38381999999999 0.0 -0.014213827 -57.676678 0.0 -0.026493195 -49.181252 0.0 2.7275257 -51.46566 0.0 2.4742710999999997 -53.477589 0.0 2.1160978999999998 -55.10775 0.0 1.7113496 -56.41143 0.0 1.2797841 -57.409924 0.0 0.87361473 -58.153816000000006 0.0 0.54150075 -58.674308999999994 0.0 0.27743626 -58.976963 0.0 0.11441138 -49.847763 0.0 5.1007337999999995 -52.182091 0.0 4.4591455 -54.212212 0.0 3.7493267 -55.92919499999999 0.0 2.9283595 -57.248535 0.0 2.1674416 -58.323254000000006 0.0 1.5696555 -59.094803000000006 0.0 0.97292489 -59.649151 0.0 0.58224219 -59.964172 0.0 0.26102582 -50.06588 0.0 7.7891617 -52.465813 0.0 6.8256741 -54.562565 0.0 5.6433601 -56.351864 0.0 4.4082279 -57.734814 0.0 3.2207779999999997 -58.843376 0.0 2.2025669 -59.670212 0.0 1.4419383 -60.262558 0.0 0.84666079 -60.606705000000005 0.0 0.37459975 -49.974537 0.0 10.966969 -52.320789000000005 0.0 9.5916176 -54.428782999999996 0.0 7.9348974000000005 -56.165939 0.0 6.1411223 -57.642139 0.0 4.6686182 -58.753822 0.0 3.2508721 -59.653679000000004 0.0 2.0858722 -60.292759 0.0 1.2027143999999999 -60.702099 0.0 0.54510701 -49.339462 0.0 14.620753 -51.658478 0.0 12.717802 -53.785759 0.0 10.435497 -55.552486 0.0 8.244336099999998 -56.983608 0.0 6.1272449 -58.19149 0.0 4.3275723 -59.179508 0.0 2.9217237999999996 -59.868706 0.0 1.7961223000000002 -60.267155 0.0 0.86502689 -48.753639 0.0 19.377008 -51.069614 0.0 17.087116 -52.986771 0.0 14.236464000000002 -54.76080699999999 0.0 11.239613 -56.22500600000001 0.0 8.4895964 -57.416176 0.0 6.0354333 -58.393005 0.0 4.1394663000000005 -59.106235999999996 0.0 2.6245813 -59.542235999999995 0.0 1.2869306 -46.832684 0.0 23.791504 -49.680164000000005 0.0 21.657405999999998 -51.841541 0.0 18.952301000000002 -53.583977000000004 0.0 15.633663 -55.164413 0.0 12.409945 -56.35849399999999 0.0 9.5719357 -57.236686999999996 0.0 7.0983133 -57.834297 0.0 4.8011775000000005 -58.188061 0.0 2.4394865 -34.242641 0.0 30.659281 -38.149196999999994 0.0 24.762152 -42.009201000000004 0.0 20.758169 -45.414349 0.0 17.371944 -48.460460999999995 0.0 13.922304 -51.016731 0.0 10.867407 -53.030262 0.0 8.257392900000001 -54.529976 0.0 5.6912642 -55.449721999999994 0.0 2.9460287 -17.14864 0.0 37.054398 -19.980461 0.0 31.425953000000003 -22.924421 0.0 27.368648999999998 -25.771189 0.0 22.840771 -28.377089 0.0 18.434814000000003 -30.661459000000004 0.0 14.548955 -32.56451 0.0 11.080838 -34.015244 0.0 7.6499023 -34.932144 0.0 3.9547483999999997 -10.247893 0.0 41.356148 -11.919197 0.0 37.741474 -13.773804 0.0 33.084548999999996 -15.646834 0.0 27.694881 -17.431469 0.0 22.500187 -19.054983 0.0 17.889260999999998 -20.448994 0.0 13.696477 -21.535187 0.0 9.475879699999998 -22.231054 0.0 4.899890900000001 -8.6889181 0.0 45.780277000000005 -9.3608761 0.0 41.761761 -10.180392 0.0 36.576382 -11.070580999999999 0.0 30.714515999999996 -11.974885 0.0 25.115676999999998 -12.844114 0.0 20.123095000000003 -13.623542 0.0 15.506439000000002 -14.249906 0.0 10.77104 -14.659269 0.0 5.5799475 -6.9633884 0.0 47.220486 -7.0425067 0.0 42.946327000000004 -7.1594695999999995 0.0 37.562298 -7.308343400000001 0.0 31.601662 -7.4874568 0.0 25.971548000000002 -7.6869693 0.0 20.950348 -7.8869619 0.0 16.25 -8.0608196 0.0 11.342924 -8.180625 0.0 5.8928905 -2.0586677 0.0 46.056793 -2.0601752 0.0 41.708221 -1.9194988999999998 0.0 36.354427 -1.6860005 0.0 30.554651 -1.4123549 0.0 25.161367000000002 -1.1390281999999998 0.0 20.387885999999998 -0.89539546 0.0 15.901922 -0.70550036 0.0 11.127373 -0.58539981 0.0 5.6325574000000005 5.9889727 0.0 43.206528000000006 5.6737962 0.0 38.854248 5.7111883 0.0 33.636833 6.0130134 0.0 28.113853000000002 6.4785237 0.0 23.084621 7.014284599999999 0.0 18.715281 7.535702199999999 0.0 14.647345000000001 7.968153999999999 0.0 10.322345 8.2526102 0.0 5.3172293 15.515167000000002 0.0 39.530296 14.748098 0.0 35.216286 14.527132 0.0 30.162781 14.739265 0.0 24.924595 15.244001999999998 0.0 20.270632 15.898267 0.0 16.349789 16.568422 0.0 12.797244000000001 17.139116 0.0 9.0488644 17.519844 0.0 4.7502108 25.12837 0.0 35.773106 24.02659 0.0 31.430288 23.61445 0.0 26.550903 23.755876999999998 0.0 21.562216 24.278589 0.0 17.233809 25.002228 0.0 13.730248000000001 25.759264 0.0 10.699726 26.409044 0.0 7.5780993 26.84403 0.0 3.9912483999999995 34.60503 0.0 32.174587 33.463669 0.0 27.866229999999998 33.075146000000004 0.0 23.197964000000002 33.281105 0.0 18.436117000000003 33.889114 0.0 14.375404999999999 34.700947 0.0 11.223156 35.537017999999996 0.0 8.6589136 36.248123 0.0 6.1274929 36.722424 0.0 3.2358377000000003 44.536204999999995 0.0 28.595185999999998 43.713974 0.0 24.685083 43.591949 0.0 20.302954 44.011497 0.0 15.781953 44.778389000000004 0.0 11.951478 45.703903000000004 0.0 9.077939 46.620083 0.0 6.8891597 47.38707 0.0 4.8528385 47.89566 0.0 2.5658929 55.43366999999999 0.0 25.082853 55.170292 0.0 21.928648000000003 55.482941000000004 0.0 17.925457 56.193264 0.0 13.689866 57.130095999999995 0.0 10.07693 58.144057999999994 0.0 7.416109599999999 59.105208999999995 0.0 5.4983463 59.889637 0.0 3.8327187999999994 60.405384 0.0 2.0223451 66.643013 0.0 21.98679 67.02823599999999 0.0 19.435318 67.731827 0.0 15.879382000000001 68.556046 0.0 11.963111999999999 69.373932 0.0 8.5483894 70.06546800000001 0.0 6.0325203 70.63221 0.0 4.2978115 71.00018299999999 0.0 2.9164302 71.271866 0.0 1.5057913 73.896568 0.0 17.756764999999998 74.537964 0.0 15.744929999999998 75.29849200000001 0.0 12.741521 75.900818 0.0 9.3639116 76.387619 0.0 6.371767500000001 76.480179 0.0 4.2361898 76.613152 0.0 2.8604336 76.512619 0.0 1.9221504 76.399971 0.0 0.99487168 78.136215 0.0 13.365588 78.632141 0.0 11.942234 79.110252 0.0 9.6178131 79.405922 0.0 6.977966800000001 79.60015899999999 0.0 4.7312746 79.441727 0.0 3.046952 79.174408 0.0 1.902524 78.967163 0.0 1.2085876 78.829773 0.0 0.60747308 80.738022 0.0 10.523575 80.889297 0.0 9.238229800000001 81.22103100000001 0.0 7.4885674 81.417587 0.0 5.4965124 81.204483 0.0 3.6212093999999997 81.013649 0.0 2.2807462000000003 80.713768 0.0 1.5462893999999998 80.365013 0.0 0.9644416 80.06660500000001 0.0 0.50528198 82.049194 0.0 8.2653122 82.295265 0.0 7.4265422999999995 82.493988 0.0 6.2186537 82.634537 0.0 4.759909599999999 82.486023 0.0 3.4095321000000003 81.900124 0.0 2.3868728 81.491959 0.0 1.5108504999999999 81.18401300000001 0.0 0.96174473 81.054939 0.0 0.52253127 83.30249 0.0 6.2449335999999995 83.25808 0.0 5.881115 83.41967 0.0 5.2292261 83.388245 0.0 4.2980279999999995 83.123436 0.0 3.4042814 82.836235 0.0 2.4777848999999996 82.48288000000001 0.0 1.7235871999999999 82.24323299999999 0.0 1.0491297 82.098839 0.0 0.46705747 84.56231700000001 0.0 4.6094871 84.025322 0.0 4.7492619000000005 84.003738 0.0 4.275490799999999 84.01479300000001 0.0 3.7341495000000005 83.854851 0.0 3.0456302 83.596397 0.0 2.3952897 83.32154799999999 0.0 1.7323339 83.09725999999999 0.0 1.0829594999999999 82.983253 0.0 0.49428925 86.129181 0.0 3.2195978 84.69426 0.0 3.5459682999999997 84.43795 0.0 3.3761117 84.422096 0.0 3.0345581000000004 84.323654 0.0 2.6128342 84.104919 0.0 2.120476 83.890068 0.0 1.5950383999999997 83.702156 0.0 1.0087687 83.579941 0.0 0.47286445 88.65074200000001 0.0 1.6923508999999999 85.852623 0.0 2.278738 84.84634399999999 0.0 2.4844272000000003 84.619843 0.0 2.3379841 84.444839 0.0 2.0709638999999997 84.28067800000001 0.0 1.8009373 84.086929 0.0 1.3817658000000002 83.95446 0.0 0.86215973 83.838821 0.0 0.43198508 92.719505 0.0 0.21387221 87.827271 0.0 1.0781844999999999 85.72139 0.0 1.4152088 84.784447 0.0 1.6251388999999998 84.44925699999999 0.0 1.539687 84.190506 0.0 1.3359032 84.077827 0.0 1.0388379 83.934753 0.0 0.69584721 83.826607 0.0 0.3557575 99.244766 0.0 -0.89027828 91.787666 0.0 -0.11943259 87.65392299999999 0.0 0.48826885 85.709587 0.0 0.72821045 84.644676 0.0 0.99714667 84.18026 0.0 0.89445764 83.958 0.0 0.67595261 83.80896800000001 0.0 0.48700029 83.688484 0.0 0.2420041 108.9637 0.0 -1.4954921 98.56710799999999 0.0 -0.93792862 91.92498 0.0 -0.35277417 88.138237 0.0 0.038538866 85.890938 0.0 0.30160815 84.678612 0.0 0.4847382 84.15947 0.0 0.32471383 83.82048 0.0 0.26789439 83.69465600000001 0.0 0.13994126 122.95415 0.0 -1.7747927 109.38213 0.0 -1.1338141000000002 99.75045 0.0 -0.88431001 93.230537 0.0 -0.4899281 89.113037 0.0 -0.14417459 86.78248599999999 0.0 -0.046465005999999996 85.41886099999999 0.0 0.05784221 84.73449699999999 0.0 0.055666618 84.38975500000001 0.0 0.02786156 141.63556 0.0 -2.6219282 124.71901000000001 0.0 -1.2413927 112.14121000000002 0.0 -0.9474144 102.5773 0.0 -0.62391251 95.906418 0.0 -0.40956411 91.69695300000001 0.0 -0.28354433 89.074608 0.0 -0.13184483 87.595726 0.0 -0.066886045 86.922119 0.0 -0.085021645 162.64087 0.0 -4.4720316 144.56326 0.0 -2.2611024 129.2738 0.0 -1.1877698 116.70553999999998 0.0 -0.49720028 107.52673 0.0 -0.33916885 100.96699 0.0 -0.29481253 96.576355 0.0 -0.17376119 94.015762 0.0 -0.099290073 92.829132 0.0 -0.13235773 165.26978 0.0 -3.8531972999999997 149.71361000000002 0.0 -2.275903 135.69579 0.0 -1.0870975 124.28698 0.0 -0.58076495 115.39208 0.0 -0.13690743 109.3566 0.0 0.050756194000000004 105.68858 0.0 -0.011894442 103.72026 0.0 -0.030621916000000002 156.00635 0.0 -1.8545698 144.08199 0.0 -0.93609905 134.24553 0.0 -0.10603222 127.28493999999999 0.0 0.28379893 122.91548 0.0 0.21989346 120.51858999999999 0.0 0.07773867200000001 154.44366000000002 0.0 -0.51377439 147.89063000000002 0.0 -0.056748472 143.45279 0.0 0.089340784 140.93735 0.0 0.08880946 -4.8939724 0.0 4.5042279e-06 -4.8915424000000005 0.0 0.059797734000000005 -4.8834763 0.0 0.12194645 -4.8685207 0.0 0.18568763 -4.8438873 0.0 0.25228959 -4.8053856 0.0 0.32367808 -4.7474136 0.0 0.39870536 -4.6626873 0.0 0.47617245 -5.8497105000000005 0.0 4.6868972e-06 -5.8465519 0.0 0.076193079 -5.8353577 0.0 0.15496862 -5.814991 0.0 0.23501179 -5.7833252 0.0 0.31448737 -5.734396 0.0 0.39952683 -5.663106900000001 0.0 0.48671055 -5.561554 0.0 0.57472295 -6.938720699999999 0.0 -1.092033e-06 -6.934072500000001 0.0 0.085774377 -6.918558099999999 0.0 0.17324832 -6.890850099999999 0.0 0.26078361 -6.8478966 0.0 0.34854484 -6.785951600000001 0.0 0.43428424 -6.6974144 0.0 0.52327156 -6.574270200000001 0.0 0.60865074 -8.1009388 0.0 6.2198177999999995e-06 -8.0942011 0.0 0.09195067 -8.073719 0.0 0.1819399 -8.0371943 0.0 0.27204171 -7.981876400000001 0.0 0.36050683 -7.903716999999999 0.0 0.44562161 -7.7955179 0.0 0.52968645 -7.6491833 0.0 0.6082834 -9.3921642 0.0 5.0370545e-07 -9.383497199999999 0.0 0.093741134 -9.356926 0.0 0.18622555 -9.3109035 0.0 0.27506828 -9.2421856 0.0 0.3615799 -9.1465244 0.0 0.44403595 -9.0179977 0.0 0.51976329 -8.847000099999999 0.0 0.59184796 -10.847994 0.0 -6.591978e-06 -10.837254 0.0 0.09415881300000001 -10.804478 0.0 0.18642271 -10.748056 0.0 0.27502301 -10.665349 0.0 0.35735866 -10.551974000000001 0.0 0.43444508 -10.402092 0.0 0.50496 -10.206596000000001 0.0 0.56670368 -12.459078 0.0 -1.9842973e-06 -12.446174000000001 0.0 0.094976738 -12.406866 0.0 0.18737702 -12.339691 0.0 0.27457252 -12.242168 0.0 0.35495654 -12.110771000000002 0.0 0.4266611 -11.939486 0.0 0.49048752 -11.719122 0.0 0.54394114 -14.195032000000001 0.0 -1.3524545e-05 -14.179776 0.0 0.098338149 -14.133529000000001 0.0 0.19312768 -14.054960000000001 0.0 0.28160647 -13.942025 0.0 0.36164999 -13.791726 0.0 0.43103907 -13.598538000000001 0.0 0.48949355 -13.353138000000001 0.0 0.53486526 -16.030582 0.0 5.057339e-06 -16.012826999999998 0.0 0.10627616 -15.959145000000001 0.0 0.20814189 -15.868360999999998 0.0 0.30294621 -15.7389 0.0 0.38752541 -15.568189000000002 0.0 0.45985338 -15.351602 0.0 0.51758385 -15.079914000000002 0.0 0.55749142 -17.950518 0.0 5.7542729000000005e-06 -17.93005 0.0 0.12100922 -17.86808 0.0 0.23755628 -17.763771 0.0 0.34634551 -17.615873 0.0 0.44376397 -17.422382 0.0 0.52657974 -17.179447 0.0 0.59202766 -16.878035 0.0 0.6341188 -19.941053 0.0 -2.4333349e-06 -19.917662 0.0 0.14405809 -19.847298000000002 0.0 0.28134114 -19.728209 0.0 0.41311663 -19.559778 0.0 0.53413159 -19.340219 0.0 0.64030415 -19.066164 0.0 0.72451103 -18.730564 0.0 0.77830154 -21.997738000000002 0.0 -9.9142489e-06 -21.970659 0.0 0.1771595 -21.889442000000003 0.0 0.34858614 -21.753395 0.0 0.50933397 -21.562265 0.0 0.66159391 -21.313074 0.0 0.80197328 -21.001755 0.0 0.92529422 -20.625853 0.0 1.0039676 -24.11393 0.0 -1.4754223e-05 -24.083466 0.0 0.21741249 -23.990505 0.0 0.43554381 -23.835138 0.0 0.64192176 -23.620022 0.0 0.82641858 -23.338632999999998 0.0 0.99962133 -22.988638 0.0 1.1577895 -22.56304 0.0 1.293224 -26.287823 0.0 1.437941e-05 -26.254759000000004 0.0 0.26531574 -26.149847 0.0 0.52254331 -25.974224 0.0 0.77612776 -25.728168 0.0 1.0126587 -25.408689000000003 0.0 1.243494 -25.013157 0.0 1.4569056 -24.537557999999997 0.0 1.6471118999999999 -28.516997999999997 0.0 -7.8753619e-06 -28.476435 0.0 0.31454214 -28.35722 0.0 0.61929935 -28.158285 0.0 0.9281171 -27.87746 0.0 1.2375103 -27.515303000000003 0.0 1.5323858999999997 -27.072014000000003 0.0 1.8079557000000002 -26.537394 0.0 2.0605698 -30.782203999999997 0.0 -8.934379400000001e-06 -30.739086 0.0 0.36461669 -30.602551000000002 0.0 0.74004787 -30.376771999999995 0.0 1.1116329 -30.059938 0.0 1.4739227 -29.653502000000003 0.0 1.8312166 -29.157387 0.0 2.1600161 -28.567789 0.0 2.4728231 -33.078635999999996 0.0 -1.7648880999999998e-05 -33.027546 0.0 0.42795444 -32.875237 0.0 0.8548342 -32.621758 0.0 1.2813036 -32.266575 0.0 1.7044598999999998 -31.809611999999998 0.0 2.1171336 -31.25589 0.0 2.5055337000000004 -30.602493 0.0 2.8781592999999996 -35.390071999999996 0.0 2.9922821e-06 -35.333473 0.0 0.47895196 -35.164063 0.0 0.95853776 -34.879913 0.0 1.4317086 -34.482887 0.0 1.9051791 -33.973568 0.0 2.3725667 -33.356853 0.0 2.8236315 -32.635742 0.0 3.2405310000000003 -37.70433 0.0 6.6729795e-06 -37.64175 0.0 0.51784527 -37.454117 0.0 1.0356566999999999 -37.140373 0.0 1.5528667999999999 -36.700108 0.0 2.0697281000000003 -36.134147999999996 0.0 2.5874031000000004 -35.453078999999995 0.0 3.0781313999999997 -34.658398 0.0 3.5332031 -40.008587 0.0 -3.2479611e-06 -39.940296000000004 0.0 0.54269606 -39.734947 0.0 1.0877407 -39.390881 0.0 1.6379727 -38.907425 0.0 2.1920403999999998 -38.285259 0.0 2.7367772999999995 -37.532143 0.0 3.2629728 -36.655529 0.0 3.7467482000000003 -42.289478 0.0 -3.1787970999999995e-05 -42.215851 0.0 0.55270982 -41.993721 0.0 1.1101425 -41.620884000000004 0.0 1.6777244999999998 -41.09499 0.0 2.2441494 -40.415005 0.0 2.8108065 -39.582840000000004 0.0 3.3644462 -38.61132 0.0 3.8796635000000004 -44.532837 0.0 1.0417692e-05 -44.454516999999996 0.0 0.54611528 -44.216827 0.0 1.1015472 -43.817875 0.0 1.6625243000000003 -43.250969 0.0 2.2262207999999997 -42.51432 0.0 2.7958654999999997 -41.607208 0.0 3.3512296999999998 -40.543011 0.0 3.8752877999999997 -46.722279 0.0 -1.7857827e-05 -46.640167 0.0 0.52144831 -46.38921 0.0 1.0525004 -45.966167 0.0 1.5887717 -45.361336 0.0 2.1305687 -44.57056 0.0 2.6836672000000004 -43.587959000000005 0.0 3.2260051 -42.424046000000004 0.0 3.7588534 -48.839531 0.0 -4.3412329e-06 -48.753799 0.0 0.47766468 -48.492165 0.0 0.96388203 -48.047924 0.0 1.4522829 -47.409915999999996 0.0 1.9517069 -46.568069 0.0 2.4612505000000002 -45.515071999999996 0.0 2.969208 -44.25795 0.0 3.4806376000000006 -50.86488 0.0 -5.0647868e-06 -50.776638 0.0 0.41497248 -50.506741 0.0 0.83487415 -50.045681 0.0 1.2577231000000002 -49.378582 0.0 1.6863016 -48.491146 0.0 2.1249902 -47.373917 0.0 2.569241 -46.030231 0.0 3.034255 -52.781799 0.0 -4.2119921999999996e-05 -52.691894999999995 0.0 0.33496839 -52.416527 0.0 0.66997147 -51.942173 0.0 1.0048726000000001 -51.250957 0.0 1.3344795 -50.324478000000006 0.0 1.6674918 -49.152798 0.0 2.0193601 -47.733437 0.0 2.4091904 -54.581203 0.0 -3.3370073999999996e-05 -54.489479 0.0 0.24629112 -54.209648 0.0 0.47870216 -53.724757999999994 0.0 0.69544971 -53.013495999999996 0.0 0.8946541 -52.058006 0.0 1.0932076000000002 -50.844833 0.0 1.3242778999999998 -49.359058000000005 0.0 1.5981313999999998 -56.252731000000004 0.0 -2.3850444e-05 -56.159843 0.0 0.14585924 -55.87366899999999 0.0 0.26115659 -55.377777 0.0 0.33156019 -54.65416 0.0 0.36995092 -53.679005000000004 0.0 0.40822768 -52.435238 0.0 0.48823944 -50.892132000000004 0.0 0.58800536 -57.77088199999999 0.0 -3.1734176e-05 -57.676731000000004 0.0 0.026449606 -57.383892 0.0 0.01415929 -56.87574 0.0 -0.08474976599999999 -56.143947999999995 0.0 -0.2182586 -55.156898 0.0 -0.38421258 -53.889404000000006 0.0 -0.51077813 -52.289677000000005 0.0 -0.650186 -59.077659999999995 0.0 -3.3670221e-05 -58.97698199999999 0.0 -0.11445934 -58.674335 0.0 -0.27748477 -58.153812 0.0 -0.54155099 -57.409992 0.0 -0.8736614 -56.411392000000006 0.0 -1.2798212 -55.107780000000005 0.0 -1.7113558 -53.47756999999999 0.0 -2.1160822 -60.071971999999995 0.0 -2.2817578e-05 -59.964188 0.0 -0.26105967 -59.649097 0.0 -0.58228993 -59.094688 0.0 -0.97298986 -58.323215000000005 0.0 -1.5697192 -57.248478000000006 0.0 -2.1674767000000004 -55.929237 0.0 -2.9283702000000003 -54.212227 0.0 -3.7493062000000004 -60.727821 0.0 -1.7083424999999998e-05 -60.606708999999995 0.0 -0.37464425 -60.26264200000001 0.0 -0.84671175 -59.670448 0.0 -1.4419936000000002 -58.84333 0.0 -2.2026348 -57.734825 0.0 -3.2208159 -56.351948 0.0 -4.4082127 -54.562408 0.0 -5.6433249000000005 -60.858996999999995 0.0 -2.9395462000000003e-05 -60.702164 0.0 -0.54516292 -60.29267900000001 0.0 -1.2027763999999999 -59.653564 0.0 -2.0859294 -58.75392900000001 0.0 -3.250917 -57.641998 0.0 -4.6686525 -56.165771 0.0 -6.1411023 -54.428627 0.0 -7.9348545 -60.408749 0.0 -3.2543964999999996e-05 -60.267151 0.0 -0.86508441 -59.868614 0.0 -1.7961897 -59.179581000000006 0.0 -2.9217880000000003 -58.19165 0.0 -4.3276124000000005 -56.98379499999999 0.0 -6.1272454000000005 -55.552486 0.0 -8.2442951 -53.785778 0.0 -10.435429 -59.68936899999999 0.0 -2.9985457999999998e-05 -59.54229 0.0 -1.2869893000000001 -59.106297 0.0 -2.6246593 -58.393046999999996 0.0 -4.1395425999999995 -57.416171999999996 0.0 -6.0354867 -56.225014 0.0 -8.4896212 -54.760864 0.0 -11.239582 -52.986729000000004 0.0 -14.236434 -58.290443 0.0 -3.4294935e-05 -58.187965000000005 0.0 -2.4395065 -57.834274 0.0 -4.801243299999999 -57.23660699999999 0.0 -7.098391099999999 -56.358368000000006 0.0 -9.5720186 -55.164494 0.0 -12.409984 -53.583927 0.0 -15.63367 -51.841663 0.0 -18.952261 -55.766018 0.0 2.5229353999999997e-05 -55.449703 0.0 -2.9460742000000004 -54.529926 0.0 -5.6912856 -53.030196999999994 0.0 -8.2574701 -51.016684999999995 0.0 -10.867475 -48.460471999999996 0.0 -13.922360000000001 -45.414336999999996 0.0 -17.371944 -42.009182 0.0 -20.758112 -35.247074 0.0 -7.1842805e-06 -34.932125 0.0 -3.9547714999999997 -34.015202 0.0 -7.6499238 -32.564537 0.0 -11.080885 -30.661417 0.0 -14.548995999999999 -28.37715 0.0 -18.43486 -25.77117 0.0 -22.840773000000002 -22.92437 0.0 -27.368608000000002 -22.471501999999997 0.0 -4.9011898e-05 -22.231091 0.0 -4.8999758 -21.535114 0.0 -9.475941699999998 -20.448985999999998 0.0 -13.696512 -19.054910999999997 0.0 -17.889315 -17.431479 0.0 -22.500242 -15.646828 0.0 -27.694881 -13.773692 0.0 -33.084545 -14.802006 0.0 1.1109804999999999e-05 -14.659359 0.0 -5.579903599999999 -14.249945 0.0 -10.771065 -13.623475 0.0 -15.506483 -12.844032 0.0 -20.123144 -11.974771 0.0 -25.115675 -11.070583000000001 0.0 -30.714509999999997 -10.180314 0.0 -36.576347 -8.2232161 0.0 -1.2679084e-05 -8.1806803 0.0 -5.8928719 -8.0608959 0.0 -11.342955 -7.8868752 0.0 -16.250019 -7.686942599999999 0.0 -20.950360999999997 -7.4874148 0.0 -25.971615 -7.3082981 0.0 -31.601664000000003 -7.1593852 0.0 -37.562248 -0.54457313 0.0 -0.00011436589 -0.58541298 0.0 -5.632473 -0.70553529 0.0 -11.127425 -0.89539343 0.0 -15.901941 -1.13896 0.0 -20.387932 -1.4123647 0.0 -25.161428 -1.6859449 0.0 -30.554598 -1.9194688000000002 0.0 -36.354374 8.3517656 0.0 -9.3973184e-05 8.252701799999999 0.0 -5.317235 7.9682645999999995 0.0 -10.322379 7.5357928 0.0 -14.647398999999998 7.014235 0.0 -18.715317000000002 6.478608599999999 0.0 -23.084652 6.0130663 0.0 -28.113844 5.7112927 0.0 -33.636848 17.653307 0.0 7.9587917e-06 17.519817 0.0 -4.7502937 17.139172 0.0 -9.048853900000001 16.56851 0.0 -12.797265 15.898214999999999 0.0 -16.349819 15.243996 0.0 -20.270649 14.739263000000001 0.0 -24.924614000000002 14.527207 0.0 -30.162781 26.996439000000002 0.0 3.3694785e-05 26.843946000000003 0.0 -3.9912257000000007 26.409021000000003 0.0 -7.5781307 25.759275 0.0 -10.699779 25.002083 0.0 -13.730251999999998 24.278593 0.0 -17.233854 23.755804 0.0 -21.562243 23.614372 0.0 -26.550896 36.888802 0.0 2.5533489e-05 36.722408 0.0 -3.235888 36.248160999999996 0.0 -6.1274953000000005 35.537014 0.0 -8.6589174 34.701065 0.0 -11.223158999999999 33.889099 0.0 -14.375420000000002 33.281124 0.0 -18.436131 33.075169 0.0 -23.197973 48.073303 0.0 -1.0060758e-05 47.895466 0.0 -2.5659243999999997 47.387081 0.0 -4.852871400000001 46.620102 0.0 -6.889165400000001 45.703823 0.0 -9.077957199999998 44.778313 0.0 -11.951507000000001 44.011475 0.0 -15.781948000000002 43.59203 0.0 -20.302951999999998 60.583752000000004 0.0 8.2857732e-06 60.405395999999996 0.0 -2.0223386000000003 59.889591 0.0 -3.8327196000000003 59.105247 0.0 -5.4983525 58.144009 0.0 -7.416111 57.130138 0.0 -10.076934 56.19329499999999 0.0 -13.689839000000001 55.482943999999996 0.0 -17.925449 71.301674 0.0 -3.0914234e-05 71.271889 0.0 -1.5058242 71.000137 0.0 -2.9164507 70.63205 0.0 -4.2978258 70.065414 0.0 -6.032515 69.374039 0.0 -8.5483885 68.55606800000001 0.0 -11.963103 67.73185 0.0 -15.879389999999999 76.371849 0.0 3.7841964999999997e-06 76.399979 0.0 -0.99490398 76.512566 0.0 -1.9221650000000001 76.613152 0.0 -2.8604564999999997 76.480278 0.0 -4.2361937 76.387695 0.0 -6.371767500000001 75.900764 0.0 -9.3639212 75.298546 0.0 -12.741521 78.803749 0.0 -1.4781952e-05 78.829689 0.0 -0.60745716 78.96729300000001 0.0 -1.2085911 79.17443100000001 0.0 -1.9025223000000002 79.441696 0.0 -3.0469513 79.60022 0.0 -4.7312517 79.405876 0.0 -6.9779506 79.110161 0.0 -9.617803599999998 79.94569399999999 0.0 -1.7741128000000002e-05 80.066833 0.0 -0.50529838 80.36500500000001 0.0 -0.96444297 80.71386 0.0 -1.5462835 81.013695 0.0 -2.2807589 81.204277 0.0 -3.6211862999999997 81.417847 0.0 -5.4965353 81.22123 0.0 -7.488601200000001 80.98278 0.0 6.64033e-07 81.05477900000001 0.0 -0.52255201 81.183975 0.0 -0.9617548 81.491783 0.0 -1.5108335 81.900314 0.0 -2.3868861 82.485962 0.0 -3.4095464 82.634636 0.0 -4.7599483 82.49398000000001 0.0 -6.218644599999999 82.051376 0.0 7.0407696e-06 82.098862 0.0 -0.46706149 82.243179 0.0 -1.0491214 82.482895 0.0 -1.7235965 82.83622 0.0 -2.4777807999999997 83.123474 0.0 -3.4042687000000007 83.388489 0.0 -4.2980585 83.41969300000001 0.0 -5.2292509 82.92448399999999 0.0 -1.571796e-06 82.983131 0.0 -0.49428242 83.09724399999999 0.0 -1.0829582 83.321396 0.0 -1.732298 83.596222 0.0 -2.3952708 83.854935 0.0 -3.0456374 84.014839 0.0 -3.7341402 84.003632 0.0 -4.2754917 83.542686 0.0 -4.0058294e-06 83.580162 0.0 -0.47286147 83.702263 0.0 -1.0087711 83.889954 0.0 -1.5950302 84.105011 0.0 -2.1204688999999997 84.323814 0.0 -2.6128266 84.422066 0.0 -3.0345619 84.437759 0.0 -3.3761001000000004 83.796127 0.0 -3.2724201e-06 83.838737 0.0 -0.43198892 83.954636 0.0 -0.86216849 84.087021 0.0 -1.3817718 84.280663 0.0 -1.8009328999999998 84.44493100000001 0.0 -2.0709633999999997 84.61996500000001 0.0 -2.3380039 84.84616899999999 0.0 -2.4844152999999998 83.792183 0.0 3.5398458999999996e-06 83.82672099999999 0.0 -0.35575286 83.93480699999999 0.0 -0.69585288 84.077736 0.0 -1.0388453000000002 84.19046 0.0 -1.3358933000000002 84.449287 0.0 -1.5396856 84.784309 0.0 -1.6250986 85.721252 0.0 -1.4151793 83.661087 0.0 2.3486642e-05 83.688599 0.0 -0.24198827 83.809158 0.0 -0.48701188 83.957993 0.0 -0.67596525 84.18029 0.0 -0.89446431 84.644508 0.0 -0.99714512 85.70938100000001 0.0 -0.7281884 87.653938 0.0 -0.48826542 83.61261 0.0 1.5549762e-05 83.694496 0.0 -0.13992965 83.82045 0.0 -0.26790386 84.159447 0.0 -0.32473284 84.678619 0.0 -0.48477075 85.890854 0.0 -0.30160177 88.138145 0.0 -0.038504526000000004 91.92495 0.0 0.35278004 84.27986899999999 0.0 1.3403427e-05 84.389656 0.0 -0.027854435 84.734589 0.0 -0.055664599 85.418869 0.0 -0.057852707999999996 86.78250899999999 0.0 0.046419963 89.112999 0.0 0.14413242 93.230598 0.0 0.48993582 99.750496 0.0 0.88430965 86.719604 0.0 9.622017400000002e-06 86.922028 0.0 0.08504305 87.595673 0.0 0.066876873 89.074387 0.0 0.13184388 91.696976 0.0 0.28351977 95.906334 0.0 0.40953416 102.57723 0.0 0.62393701 112.141 0.0 0.94744956 92.422989 0.0 -9.596464199999998e-06 92.82911700000001 0.0 0.13236488 94.01571700000001 0.0 0.099277802 96.576111 0.0 0.17370498 100.96687 0.0 0.29479143 107.52673 0.0 0.33910745 116.70557 0.0 0.49717712 129.27376 0.0 1.1877984 103.119 0.0 3.6774436000000003e-06 103.72025 0.0 0.030618351000000002 105.68853999999999 0.0 0.011865467 109.35654 0.0 -0.050818830999999995 115.39204 0.0 0.13687003 124.28698999999999 0.0 0.58070314 135.69582 0.0 1.0870917 149.71362 0.0 2.275944 119.7375 0.0 -4.6973582e-06 120.51861000000001 0.0 -0.077752247 122.91548999999999 0.0 -0.21992505 127.28491000000001 0.0 -0.28384322 134.24539 0.0 0.10598761 144.08311 0.0 0.93653023 156.0062 0.0 1.8545926 140.12392 0.0 -1.3394783e-05 140.93736 0.0 -0.088800691 143.4529 0.0 -0.089374229 147.89073 0.0 0.056691825 154.44383 0.0 0.51371557 -4.5402508 0.0 0.56054211 -4.3719883 0.0 0.6503365 -4.1547813 0.0 0.74013758 -3.8863468 0.0 0.83909559 -3.5639076000000003 0.0 0.94880247 -3.1877079 0.0 1.0545440000000001 -2.7397366 0.0 1.1417193 -5.4186726 0.0 0.66517162 -5.2234097 0.0 0.75989139 -4.9735241 0.0 0.85708547 -4.6744385 0.0 0.95291638 -4.3229485 0.0 1.0542917 -3.9023608999999997 0.0 1.1488843 -3.3483657999999994 0.0 1.2254143 -2.5683403 0.0 1.4631329 -6.4052372 0.0 0.69349742 -6.1796856 0.0 0.77426964 -5.8956738 0.0 0.85484016 -5.5668087 0.0 0.93352365 -5.200580599999999 0.0 1.0111713 -4.7652472999999995 0.0 1.1030207 -4.1803484 0.0 1.2147551 -3.2892227 0.0 1.4518633 -7.452201799999999 0.0 0.68232501 -7.192681299999999 0.0 0.75134802 -6.8744688 0.0 0.81223434 -6.5173005999999996 0.0 0.87426424 -6.1492443 0.0 0.92848825 -5.7311831 0.0 1.0056 -5.152132 0.0 1.1063366000000001 -4.1616888 0.0 1.3779974 -8.620662699999999 0.0 0.65668052 -8.3266678 0.0 0.71237826 -7.9720516 0.0 0.75738114 -7.5885973 0.0 0.79723358 -7.2205777 0.0 0.82894754 -6.825943 0.0 0.88569832 -6.2578735 0.0 0.97530937 -5.168756500000001 0.0 1.2980061 -9.9509706 0.0 0.6218785 -9.6221428 0.0 0.66536438 -9.2307234 0.0 0.69364387 -8.822800599999999 0.0 0.70815015 -8.4530296 0.0 0.71260023 -8.0814238 0.0 0.7485981 -7.5314817 0.0 0.83757401 -6.330080000000001 0.0 1.2459526 -11.434361 0.0 0.58705008 -11.071251 0.0 0.61650634 -10.64467 0.0 0.6233229 -10.213493 0.0 0.60899043 -9.844764699999999 0.0 0.58903551 -9.5154161 0.0 0.60120773 -8.9888754 0.0 0.72587013 -7.662267699999999 0.0 1.2840691 -13.039658 0.0 0.56474078 -12.642957000000001 0.0 0.57551241 -12.182678999999998 0.0 0.55979115 -11.732885000000001 0.0 0.51754332 -11.370672 0.0 0.49134779 -11.100267 0.0 0.49451065 -10.625224000000001 0.0 0.69531631 -9.197319 0.0 1.4640961000000001 -14.736506 0.0 0.57693779 -14.307720000000002 0.0 0.55863887 -13.817139000000001 0.0 0.52282739 -13.349127 0.0 0.48129582 -13.006496 0.0 0.4511652 -12.792303 0.0 0.48150253 -12.438995 0.0 0.74524117 -11.04711 0.0 1.6697883999999998 -16.503685 0.0 0.6378544 -16.043638 0.0 0.60706091 -15.526826999999999 0.0 0.56633711 -15.05769 0.0 0.5129149 -14.739082999999999 0.0 0.48102665 -14.607109 0.0 0.53694344 -14.484135 0.0 0.76741791 -13.51366 0.0 1.4769669 -18.320192000000002 0.0 0.78405768 -17.830545 0.0 0.74377179 -17.296692 0.0 0.69554627 -16.82934 0.0 0.6293366 -16.552343 0.0 0.60815716 -16.605324 0.0 0.61157799 -16.873272 0.0 0.71226501 -16.820621 0.0 0.86880875 -20.174385 0.0 1.0279601 -19.646079999999998 0.0 0.99558526 -19.103464000000002 0.0 0.92683864 -18.660429 0.0 0.86111593 -18.525654 0.0 0.78926945 -18.799284 0.0 0.827528 -19.55057 0.0 1.0408287 -20.204681 0.0 1.3279648000000002 -22.065002 0.0 1.3619602 -21.482981 0.0 1.4082781999999998 -20.930403 0.0 1.3254006999999999 -20.520515 0.0 1.3191028 -20.527752 0.0 1.3380299 -21.158070000000002 0.0 1.7022991000000003 -22.320923 0.0 2.8427752999999996 -23.469279999999998 0.0 4.2875670999999995 -23.976233999999998 0.0 1.7975873 -23.348017000000002 0.0 1.8814023999999998 -22.76067 0.0 1.9222467 -22.418732000000002 0.0 2.0349068999999997 -22.614313 0.0 2.3887987 -23.668974 0.0 3.1578999 -25.389889 0.0 4.7757874000000005 -27.350471000000002 0.0 6.4909115 -25.923143 0.0 2.2596481 -25.224867 0.0 2.4645702999999997 -24.602346 0.0 2.6367116000000004 -24.311548000000002 0.0 2.9428325 -24.76848 0.0 3.4798605000000005 -26.299446000000003 0.0 4.4726529 -28.799545000000002 0.0 6.0128355 -31.718821000000002 0.0 7.808300999999999 -27.877783 0.0 2.7652068 -27.109866999999998 0.0 3.0760243 -26.431793 0.0 3.3986301 -26.176057999999998 0.0 3.8036802000000005 -26.842377000000003 0.0 4.4332056 -28.820807000000002 0.0 5.4632477999999995 -32.174644 0.0 6.825898599999999 -36.20639 0.0 8.7571239 -29.837082000000002 0.0 3.2596757000000003 -28.982864000000003 0.0 3.6619172 -28.240591 0.0 4.0575862 -27.987432000000002 0.0 4.527593599999999 -28.82452 0.0 5.181076 -31.198694 0.0 6.216009099999999 -35.258286 0.0 7.577589 -40.344448 0.0 9.574421899999999 -31.791039 0.0 3.6784174 -30.847986 0.0 4.1448641 -30.022655 0.0 4.6124129 -29.771734000000002 0.0 5.067483900000001 -30.73773 0.0 5.744175 -33.46212 0.0 6.8079247 -38.137584999999994 0.0 8.225769999999999 -44.064640000000004 0.0 10.345583 -33.72818 0.0 4.006334799999999 -32.691444 0.0 4.497022599999999 -31.785559000000003 0.0 4.987660400000001 -31.517668 0.0 5.4702972999999995 -32.613281 0.0 6.1590104000000006 -35.680275 0.0 7.267913799999999 -40.910233000000005 0.0 8.798794699999998 -47.545521 0.0 11.047385 -35.636390999999996 0.0 4.2318501 -34.499905 0.0 4.7287230000000005 -33.511787 0.0 5.231236 -33.212852000000005 0.0 5.757576 -34.457561 0.0 6.460714299999999 -37.883086999999996 0.0 7.600263099999999 -43.67083 0.0 9.2652597 -51.012695 0.0 11.613536 -37.505516 0.0 4.346995400000001 -36.270252 0.0 4.8393512 -35.195675 0.0 5.3549919 -34.876754999999996 0.0 5.9111876 -36.260738 0.0 6.6488314 -40.045528000000004 0.0 7.850038099999999 -46.425076000000004 0.0 9.5893011 -54.48599599999999 0.0 12.057528 -39.333248 0.0 4.347335299999999 -38.003197 0.0 4.8177023000000005 -36.830807 0.0 5.3498521 -36.492481 0.0 5.937747 -38.005565999999995 0.0 6.7235394 -42.154671 0.0 7.975203 -49.148590000000006 0.0 9.7484865 -57.941776000000004 0.0 12.318017 -41.103539000000005 0.0 4.2397985 -39.671745 0.0 4.6869635999999995 -38.40575 0.0 5.2074055999999995 -38.042915 0.0 5.8263221 -39.67033 0.0 6.66782 -44.184528 0.0 7.9535837 -51.793205 0.0 9.7427416 -61.343894999999996 0.0 12.361453 -42.819278999999995 0.0 3.9681952000000003 -41.270859 0.0 4.4108067 -39.907806 0.0 4.9016981 -39.503994 0.0 5.5499892 -41.235622 0.0 6.452453599999999 -46.116603999999995 0.0 7.745901600000001 -54.339957999999996 0.0 9.5263567 -64.658569 0.0 12.147546 -44.474171000000005 0.0 3.5190985 -42.791908 0.0 3.9705029 -41.32333 0.0 4.4119247999999995 -40.882529999999996 0.0 5.0354890999999995 -42.698833 0.0 6.0132017 -47.944057 0.0 7.309245599999999 -56.784523 0.0 9.051815 -67.884659 0.0 11.630312 -46.071877 0.0 2.8335828999999997 -44.249355 0.0 3.2661632999999997 -42.658188 0.0 3.6830022000000007 -42.178757 0.0 4.2270255 -44.089493 0.0 5.2401776 -49.680832 0.0 6.5865178 -59.154129000000005 0.0 8.273930499999999 -71.072029 0.0 10.763354 -47.600113 0.0 1.9122025000000002 -45.645496 0.0 2.2623658 -43.916401 0.0 2.6462088 -43.389469 0.0 3.1056472999999998 -45.419823 0.0 4.060758600000001 -51.357418 0.0 5.4867454 -61.504242000000005 0.0 7.1256285 -74.330185 0.0 9.5023088 -49.045349 0.0 0.7265746 -46.968928999999996 0.0 0.92342514 -45.117607 0.0 1.1973344 -44.53051 0.0 1.6042981 -46.699211 0.0 2.4433107000000005 -53.010475 0.0 3.9069865 -63.88405600000001 0.0 5.5447583 -77.773979 0.0 7.8331661 -50.363941 0.0 -0.73030043 -48.18634 0.0 -0.74453455 -46.220234000000005 0.0 -0.65728116 -45.576675 0.0 -0.33706206 -47.894690999999995 0.0 0.35384908 -54.622314 0.0 1.7875221000000001 -66.293785 0.0 3.4763322 -81.449791 0.0 5.7136278 -51.465675 0.0 -2.4742048 -49.181232 0.0 -2.7274742 -47.138138 0.0 -2.9296147999999995 -46.464821 0.0 -2.8033009 -48.919701 0.0 -2.2499452 -56.100758 0.0 -0.90930814 -68.616676 0.0 0.89650613 -85.196198 0.0 3.0894961 -52.182091 0.0 -4.4590610999999996 -49.847626 0.0 -5.100684200000001 -47.683571 0.0 -5.5046635 -47.045871999999996 0.0 -5.6711183 -49.676601 0.0 -5.3966413 -57.346279 0.0 -4.1915483 -70.708511 0.0 -2.2602012000000005 -88.633484 0.0 -0.07194317900000001 -52.465679 0.0 -6.825611099999999 -50.06583 0.0 -7.789112599999999 -47.841896000000006 0.0 -8.475533500000001 -47.271961 0.0 -8.9084654 -50.149184999999996 0.0 -8.923858599999999 -58.355658999999996 0.0 -7.9474086999999995 -72.385986 0.0 -5.918621099999999 -91.527107 0.0 -3.5867934 -52.320686 0.0 -9.5915651 -49.974564 0.0 -10.96693 -47.746497999999995 0.0 -12.07738 -47.266396 0.0 -12.868924 -50.35199 0.0 -12.968086999999999 -58.850207999999995 0.0 -12.258546 -73.743752 0.0 -9.724994699999998 -93.62146 0.0 -7.391793300000001 -51.658546 0.0 -12.717744 -49.339603000000004 0.0 -14.620728 -47.333748 0.0 -16.22485 -47.011269 0.0 -17.448202 -50.484016 0.0 -17.763002 -59.200756000000005 0.0 -16.618576 -73.944916 0.0 -13.985285999999999 -93.578125 0.0 -11.371314 -51.069702 0.0 -17.087044 -48.753741999999995 0.0 -19.376944 -46.810534999999994 0.0 -21.289631 -46.378834000000005 0.0 -22.690157 -49.49313 0.0 -22.84318 -58.022369 0.0 -21.655092 -71.79563900000001 0.0 -18.60218 -86.185905 0.0 -16.243301000000002 -49.680119 0.0 -21.657335 -46.832546 0.0 -23.791432999999998 -44.139441999999995 0.0 -25.58115 -43.474334999999996 0.0 -27.803385 -46.200309999999995 0.0 -28.679924 -51.779751 0.0 -27.446946999999998 -56.607155000000006 0.0 -24.299812 -57.72855 0.0 -21.245638 -38.149227 0.0 -24.762102 -34.24258 0.0 -30.659187 -31.2803 0.0 -35.32328 -29.239234999999997 0.0 -36.593486999999996 -28.316141 0.0 -36.129749 -28.271221 0.0 -34.658253 -28.813976 0.0 -30.687538 -29.856071000000004 0.0 -26.936885999999998 -19.980522 0.0 -31.425909000000004 -17.148575 0.0 -37.054328999999996 -14.770646 0.0 -42.411732 -13.357767 0.0 -42.862057 -12.869634 0.0 -42.413734000000005 -13.154202 0.0 -40.454853 -14.262772 0.0 -34.470562 -15.894414999999999 0.0 -30.862713 -11.919107 0.0 -37.741405 -10.247632000000001 0.0 -41.356094 -8.966836 0.0 -46.905518 -8.2734833 0.0 -48.963165000000004 -8.316777199999999 0.0 -48.638451 -9.151127800000001 0.0 -45.348995 -10.667809 0.0 -36.143639 -12.514892 0.0 -34.932606 -9.360816 0.0 -41.7617 -8.6890163 0.0 -45.780235 -8.253673599999999 0.0 -49.426528999999995 -8.1719322 0.0 -53.424854 -8.559271800000001 0.0 -53.883865 -9.466942800000002 0.0 -48.909286 -10.804829 0.0 -37.213589 -12.337121 0.0 -38.574123 -7.0425067 0.0 -42.94635 -6.9632359 0.0 -47.220504999999996 -6.9341784 0.0 -51.024723 -7.0006104 0.0 -54.597828 -7.226563499999999 0.0 -56.090199 -7.6496668 0.0 -51.226845000000004 -8.2618265 0.0 -38.732555 -9.0023651 0.0 -40.757702 -2.0602441000000002 0.0 -41.708228999999996 -2.0586776999999996 0.0 -46.056808000000004 -1.8918096000000002 0.0 -49.956134999999996 -1.5776529 0.0 -54.099728000000006 -1.1613163999999998 0.0 -55.960136 -0.69825411 0.0 -52.546473999999996 -0.27527004 0.0 -39.59613 0.029566973 0.0 -41.559326 5.6738504999999995 0.0 -38.854244 5.9890742 0.0 -43.206512 6.688200999999999 0.0 -47.228001 7.737660400000001 0.0 -53.290676 9.045156500000001 0.0 -54.558453 10.501298 0.0 -51.650787 11.963057000000001 0.0 -39.703644 13.2817 0.0 -40.984291 14.748025 0.0 -35.21627 15.515165 0.0 -39.53022 16.856796 0.0 -45.107307 18.69088 0.0 -51.151234 20.837831 0.0 -51.519279 23.119711 0.0 -48.790421 25.376656 0.0 -38.249428 27.454884000000003 0.0 -38.812271 24.026604000000003 0.0 -31.430329999999998 25.128279 0.0 -35.773071 26.897421 0.0 -42.612175 29.253918 0.0 -47.190498 32.068531 0.0 -47.464985 34.857487 0.0 -44.818401 37.559708 0.0 -35.463017 40.062164 0.0 -35.378662 33.463642 0.0 -27.866243 34.604877 0.0 -32.174549 36.325634 0.0 -39.391209 38.648872 0.0 -42.802578000000004 41.77969 0.0 -42.249939000000005 45.034335999999996 0.0 -39.975533 48.009785 0.0 -31.97274 50.501736 0.0 -31.468971000000003 43.714069 0.0 -24.685067999999998 44.536133 0.0 -28.595194 45.605984 0.0 -35.6511 47.273445 0.0 -38.117119 49.785046 0.0 -38.019062 53.537304000000006 0.0 -35.237019000000004 57.495121 0.0 -27.744345000000003 59.743938 0.0 -27.055922 55.17023100000001 0.0 -21.928658 55.433578000000004 0.0 -25.08287 55.770355 0.0 -31.301434999999998 56.234085 0.0 -33.437832 58.07154499999999 0.0 -32.829762 61.266415 0.0 -29.852957 66.114548 0.0 -23.550154 69.40164200000001 0.0 -21.492002 67.02825899999999 0.0 -19.435328 66.64295200000001 0.0 -21.986811 66.375 0.0 -26.320538 66.007347 0.0 -29.036005 66.77243 0.0 -27.651594 69.308594 0.0 -24.221945 75.509987 0.0 -19.852210999999997 80.560257 0.0 -15.597517000000002 74.537766 0.0 -15.744936 73.896461 0.0 -17.756752 73.572197 0.0 -20.055223 73.574722 0.0 -23.38114 75.432159 0.0 -22.458128 78.489502 0.0 -18.865303 86.22979000000001 0.0 -15.316918 92.975098 0.0 -10.480253 78.632263 0.0 -11.942224000000001 78.136269 0.0 -13.365601000000002 78.340851 0.0 -14.694552 78.587479 0.0 -17.442010999999997 82.404465 0.0 -17.076889 88.90892 0.0 -14.138751999999998 97.920837 0.0 -10.451962 106.74368 0.0 -5.5288515 80.889374 0.0 -9.2382898 80.738167 0.0 -10.523574 81.08740999999999 0.0 -11.084612 82.93433399999999 0.0 -12.12261 88.42289699999999 0.0 -11.869287 99.044312 0.0 -9.6962519 110.35857 0.0 -5.3895087 122.34688999999999 0.0 -0.75213021 82.295174 0.0 -7.426551299999999 82.049149 0.0 -8.2653122 82.829758 0.0 -8.4951963 85.95742 0.0 -8.4112024 93.437363 0.0 -7.5811229 107.62075 0.0 -5.767818900000001 124.10495 0.0 -1.6913904 139.93431 0.0 3.9219546000000003 83.25824 0.0 -5.8811712 83.302452 0.0 -6.2449045 84.476822 0.0 -6.2639971 88.585449 0.0 -5.7584229 98.242264 0.0 -4.736582299999999 114.77958000000001 0.0 -2.6958392000000004 137.73463 0.0 0.13848314 160.83772 0.0 5.9344554 84.025391 0.0 -4.749292400000001 84.56240799999999 0.0 -4.609496599999999 86.651833 0.0 -4.2631969000000005 92.348801 0.0 -3.6254065000000004 104.22134 0.0 -2.1070297000000004 123.37671999999999 0.0 0.12321699 150.02469 0.0 3.0719423 178.44208 0.0 7.5035605 84.69426 0.0 -3.5459931000000005 86.12921899999999 0.0 -3.2195953999999998 89.82473 0.0 -2.4983058 97.809998 0.0 -1.5574336000000002 112.06203000000001 0.0 0.15568961 134.16879 0.0 2.8412807 163.93738000000002 0.0 6.0635772 85.852715 0.0 -2.2787616 88.650902 0.0 -1.692364 94.529472 0.0 -0.77721792 105.25483999999999 0.0 0.33597475 122.53724 0.0 2.3835831 147.52303999999998 0.0 5.426660099999999 178.76803999999998 0.0 8.7410126 87.827248 0.0 -1.0781661 92.719543 0.0 -0.21386874 101.27611999999999 0.0 0.59717447 114.96513999999999 0.0 1.7988551 135.96198 0.0 4.4050236 163.73238 0.0 7.522681200000001 91.787651 0.0 0.11944456 99.24494200000001 0.0 0.89024502 110.80721000000001 0.0 1.541541 128.1488 0.0 3.1953239 152.60493 0.0 6.1166835 181.20808 0.0 9.446372 98.567184 0.0 0.93791884 108.96358000000001 0.0 1.4955221 124.04938999999999 0.0 2.2576318 145.01921000000002 0.0 4.5458794000000005 171.44278 0.0 7.8042507 109.38206000000001 0.0 1.1338164 122.95401000000001 0.0 1.7748238999999997 141.53941 0.0 3.4272747000000003 164.56961 0.0 6.0337477 124.71888 0.0 1.2414167 141.63565 0.0 2.6219277 162.07475 0.0 4.8695393 183.86403 0.0 8.414514500000001 144.5632 0.0 2.2611296000000003 162.64078999999998 0.0 4.4720721 165.26973999999998 0.0 3.8532317000000003 
StrainDot 3 2975 float
0.0 0.0 0.0 0.0 0.0 0.0 0.0 0.0 0.0 0.0 0.0 0.0 0.0 0.0 0.0 0.0 0.0 0.0 0.0 0.0 0.0 0.0 0.0 0.0 0.0 0.0 0.0 0.0 0.0 0.0 0.0 0.0 0.0 0.0 0.0 0.0 0.0 0.0 0.0 -2.4003446e-06 0.0 -6.773238399999999e-07 -3.8234123e-15 0.0 -1.6951021e-15 -1.1207596000000002e-05 0.0 -4.9154683e-06 -8.0690224e-05 0.0 -2.7719914e-05 -1.8954455e-05 0.0 -1.0298760999999999e-05 -0.00014002346 0.0 -7.3057337e-05 -0.00047885992999999996 0.0 -0.00019103529 -0.00014965271000000002 0.0 -9.524913200000001e-05 -0.00058333599 0.0 -0.00034636773999999996 -0.0015388613 0.0 -0.00069109106 -0.00050193537 0.0 -0.00036402608 -0.0015158955 0.0 -0.0010106943 -0.0035301039 0.0 -0.0017674769000000001 -0.0011103393 0.0 -0.0009152762400000001 -0.0029556653000000002 0.0 -0.0022129833 -0.0064384728 0.0 -0.0036007090999999997 -0.0018909228 0.0 -0.0017745630999999999 -0.0047148997 0.0 -0.0039681732 -0.0099080736 0.0 -0.006195988 -0.0026822025 0.0 -0.0028564234000000004 -0.0064820331 0.0 -0.0061013065000000005 -0.013374723 0.0 -0.0092991423 -0.0033432727000000002 0.0 -0.0039832578 -0.0079965703 0.0 -0.008280118000000001 -0.016372071999999998 0.0 -0.012425841000000002 -0.0038403116999999997 0.0 -0.0049635596 -0.0092053777 0.0 -0.010152771 -0.018822273 0.0 -0.015058713999999999 -0.0042709443 0.0 -0.005682901 -0.010304018 0.0 -0.011509097 -0.021083927000000002 0.0 -0.016900757 -0.0048388364 0.0 -0.0061431103 -0.011718608 0.0 -0.012349571 -0.02393095 0.0 -0.017978186 -0.0058295084 0.0 -0.0064418577 -0.014049213 0.0 -0.012862253 -0.028428046000000002 0.0 -0.01859979 -0.007602633 0.0 -0.006751256999999999 -0.018006932 0.0 -0.013412735 -0.035778005 0.0 -0.019337211 -0.010622844 0.0 -0.007409312800000001 -0.024404369 0.0 -0.014634824 -0.047226924 0.0 -0.021078668999999998 -0.015368141 0.0 -0.009140681500000001 -0.033739496 0.0 -0.017611766 -0.063260362 0.0 -0.025161574 -0.021810628 0.0 -0.013456756 -0.044932749 0.0 -0.024153925 -0.081605688 0.0 -0.0335746 -0.055287212 0.0 -0.036989141 -0.097668849 0.0 -0.049014647 0.0 0.0 0.0 0.0 0.0 0.0 0.0 0.0 0.0 0.0 0.0 0.0 0.0 0.0 0.0 0.0 0.0 0.0 0.0 0.0 0.0 0.0 0.0 0.0 0.0 0.0 0.0 0.0 0.0 0.0 0.0 0.0 0.0 0.0 0.0 0.0 0.0 0.0 0.0 0.0 0.0 0.0 0.0 0.0 0.0 0.0 0.0 0.0 0.0 0.0 0.0 0.0 0.0 0.0 0.0 0.0 0.0 0.0 0.0 0.0 0.0 0.0 0.0 0.0 0.0 0.0 0.0 0.0 0.0 0.0 0.0 0.0 0.0 0.0 0.0 -5.0270876e-07 0.0 -4.6036739000000003e-08 -3.3256842e-06 0.0 -1.5560138e-07 -8.0993277e-06 0.0 -1.4205128e-07 -1.2342318e-05 0.0 -1.9524894e-08 -1.4761454000000002e-05 0.0 3.1500427000000005e-08 -1.6446652999999998e-05 0.0 3.7626435e-08 -1.7752183e-05 0.0 3.8656474000000004e-08 -2.2098069e-05 0.0 -4.2849551e-06 -7.6232849e-05 0.0 -9.2913779e-06 -0.00017003067 0.0 -1.2100683e-05 -0.00029101633 0.0 -1.0620304000000002e-05 -0.00041472739999999996 0.0 -5.461343799999999e-06 -0.00051853718 0.0 4.5577463e-07 -0.0005926796 0.0 3.9328024e-06 -0.0006428925 0.0 4.6437949e-06 -0.00026278797000000003 0.0 -6.0989827e-05 -0.00059760927 0.0 -8.7186534e-05 -0.0010859132 0.0 -9.4185278e-05 -0.0016755968 0.0 -7.8070676e-05 -0.0022778686 0.0 -4.3746175e-05 -0.0028092677 0.0 -4.3537275e-06 -0.0032265102 0.0 2.5698105999999997e-05 -0.0035291708 0.0 4.0402199e-05 -0.0011543806 0.0 -0.00030824551 -0.0022490558 0.0 -0.00037717447 -0.0037492062 0.0 -0.00037627562000000004 -0.0055103763 0.0 -0.00030186973 -0.0072985939 0.0 -0.00017080911 -0.0088988151 0.0 -2.3498114e-05 -0.010193943 0.0 9.469637e-05 -0.011168731999999999 0.0 0.00016247596000000002 -0.0032511007 0.0 -0.00097216712 -0.0058791437 0.0 -0.0011034738 -0.0093756784 0.0 -0.0010566683 -0.01341428 0.0 -0.00083113043 -0.017490894 0.0 -0.00046916875999999995 -0.021150701 0.0 -6.8715155e-05 -0.024146384 0.0 0.00025889126 -0.026437297000000002 0.0 0.0004578974 -0.0069618388 0.0 -0.0023146456 -0.012088736999999999 0.0 -0.002523731 -0.01880479 0.0 -0.0023615351 -0.026485601 0.0 -0.0018318329000000001 -0.034184292000000005 0.0 -0.0010254339 -0.041074991 0.0 -0.00014775107 -0.046728387 0.0 0.0005737242199999999 -0.051078215 0.0 0.0010246123 -0.012222957 0.0 -0.004533777 -0.020750642 0.0 -0.004837507800000001 -0.031832963 0.0 -0.0044664163 -0.044408478 0.0 -0.0034215574 -0.056890771 0.0 -0.0018854820000000002 -0.067979403 0.0 -0.00025060424 -0.077051893 0.0 0.0010844157 -0.08403606699999999 0.0 0.0019296568 -0.018420679 0.0 -0.007636296999999999 -0.030874275 0.0 -0.008055632 -0.046943475 0.0 -0.007371603000000001 -0.06500873 0.0 -0.0055646077 -0.082698219 0.0 -0.0029926677000000003 -0.098264411 0.0 -0.0003426866 -0.11093497 0.0 0.0017917319 -0.1206564 0.0 0.0031499297 -0.024578662999999997 0.0 -0.011325507 -0.040853478 0.0 -0.011864854 -0.06157553599999999 0.0 -0.010724557 -0.029878851 0.0 -0.015000662 -0.049305163 0.0 -0.015604618 -0.034225248 0.0 -0.018001106 -0.056172132 0.0 -0.018517058 -0.038249724 0.0 -0.019984309 -0.062547877 0.0 -0.020295495 -0.043177415 0.0 -0.021033128999999998 -0.070094235 0.0 -0.02108133 -0.050644666 0.0 -0.021572366000000003 -0.080983847 0.0 -0.021352215 -0.06241874 0.0 -0.022322984 -0.097444415 0.0 -0.021875968 -0.080201 0.0 -0.024335173999999998 -0.12140132 0.0 -0.02373036 -0.10456213 0.0 -0.029130816 -0.15336464 0.0 -0.028452519 -0.13244179 0.0 -0.038949411 -0.19006903 0.0 -0.038372226 -0.15725373 0.0 -0.056775775 -0.22418004 0.0 -0.056798249 0.0 0.0 0.0 0.0 0.0 0.0 0.0 0.0 0.0 0.0 0.0 0.0 0.0 0.0 0.0 0.0 0.0 0.0 0.0 0.0 0.0 0.0 0.0 0.0 0.0 0.0 0.0 0.0 0.0 0.0 0.0 0.0 0.0 0.0 0.0 0.0 0.0 0.0 0.0 0.0 0.0 0.0 0.0 0.0 0.0 0.0 0.0 0.0 0.0 0.0 0.0 0.0 0.0 0.0 0.0 0.0 0.0 0.0 0.0 0.0 0.0 0.0 0.0 0.0 0.0 0.0 0.0 0.0 0.0 0.0 0.0 0.0 0.0 0.0 0.0 0.0 0.0 0.0 0.0 0.0 0.0 -1.8714667e-05 0.0 3.7180644e-08 -1.9391526e-05 0.0 3.437421e-08 -1.9843912e-05 0.0 3.0815747999999995e-08 -2.012909e-05 0.0 2.755373e-08 -2.0296793e-05 0.0 2.4577616e-08 -2.0386509e-05 0.0 2.1698146e-08 -2.0427975e-05 0.0 1.9322904e-08 -2.0443145e-05 0.0 1.757178e-08 -2.0446645e-05 0.0 1.6436859e-08 -0.0006795972599999999 0.0 4.5584216e-06 -0.0007059776099999999 0.0 4.2620186e-06 -0.00072405365 0.0 3.8791395e-06 -0.00073581515 0.0 3.4789452e-06 -0.00074302114 0.0 3.0987512000000003e-06 -0.00074711803 0.0 2.7595815e-06 -0.0007492341099999999 0.0 2.4736041e-06 -0.00075019314 0.0 2.256379e-06 -0.0007505536200000001 0.0 2.1216206e-06 -0.00374094 0.0 4.264462e-05 -0.0038913733 0.0 4.0494484e-05 -0.0039957645 0.0 3.7210353e-05 -0.0040647411 0.0 3.3589135e-05 -0.0041078664 0.0 3.0072686e-05 -0.0041331155 0.0 2.6908288e-05 -0.0041467352 0.0 2.4262642999999998e-05 -0.0041533513 0.0 2.2261594e-05 -0.0041561075 0.0 2.1013278e-05 -0.011868723999999999 0.0 0.00018529459999999998 -0.012359183999999999 0.0 0.00018102703000000002 -0.012699166999999999 0.0 0.00016810081 -0.012925728999999999 0.0 0.00015284169 -0.013068995 0.0 0.00013763136 -0.013154207 0.0 0.00012382219 -0.013201253999999999 0.0 0.00011224963999999999 -0.013224891 0.0 0.00010352125 -0.013235181 0.0 9.808220100000001e-05 -0.028109027 0.0 0.0005383361099999999 -0.029290347999999997 0.0 0.00054173864 -0.030104276 0.0 0.0005089873999999999 -0.030648142000000003 0.0 0.00046636804000000005 -0.030993845 0.0 0.00042254524000000004 -0.031201042000000002 0.0 0.00038225699 -0.031316738999999996 0.0 0.00034835964 -0.031375803 0.0 0.00032276529 -0.031402044 0.0 0.00030683179 -0.054275572 0.0 0.0012214573 -0.056549065 0.0 0.0012488326 -0.058116399000000006 0.0 0.0011887624 -0.059161015 0.0 0.0010977036 -0.059825428 0.0 0.0010009278999999999 -0.060224194 0.0 0.00091062149 -0.06044751 0.0 0.0008341729400000001 -0.060562007 0.0 0.00077633082 -0.060613163 0.0 0.00074030348 -0.089178257 0.0 0.0023149841 -0.092840567 0.0 0.0023876159 -0.095366232 0.0 0.0022960012 -0.097043142 0.0 0.0021363108 -0.098105676 0.0 0.0019607136 -0.09874115900000001 0.0 0.001794206 -0.099095479 0.0 0.0016522129999999998 -0.099276297 0.0 0.0015444512 -0.099356674 0.0 0.001477255 -0.12779391 0.0 0.0037871033 -0.13286434 0.0 0.0039282544 -0.13635209 0.0 0.0038067738 -0.13865545 0.0 0.0035695576 -0.14010455 0.0 0.003298772 -0.14096384 0.0 0.0030375037 -0.14143805 0.0 0.0028128590999999996 -0.14167671 0.0 0.0026417228000000003 -0.14178109 0.0 0.0025348333 0.0 0.0 0.0 0.0 0.0 0.0 0.0 0.0 0.0 0.0 0.0 0.0 0.0 0.0 0.0 0.0 0.0 0.0 0.0 0.0 0.0 0.0 0.0 0.0 0.0 0.0 0.0 0.0 0.0 0.0 0.0 0.0 0.0 0.0 0.0 0.0 0.0 0.0 0.0 0.0 0.0 0.0 0.0 0.0 0.0 0.0 0.0 0.0 0.0 0.0 0.0 0.0 0.0 0.0 0.0 0.0 0.0 0.0 0.0 0.0 0.0 0.0 0.0 0.0 0.0 0.0 0.0 0.0 0.0 0.0 0.0 0.0 -2.0446858e-05 0.0 1.6044609e-08 -2.0446649e-05 0.0 1.6436843e-08 -2.0443147e-05 0.0 1.7571788000000002e-08 -2.0427977000000002e-05 0.0 1.9322925e-08 -2.0386506999999998e-05 0.0 2.1698165e-08 -2.0296788e-05 0.0 2.4577623000000002e-08 -2.0129097e-05 0.0 2.7553755e-08 -1.9843916e-05 0.0 3.0815826e-08 -0.0007506383099999999 0.0 2.0760173999999997e-06 -0.0007505536200000001 0.0 2.1216208e-06 -0.0007501932000000001 0.0 2.2563793e-06 -0.00074923417 0.0 2.4736057000000003e-06 -0.00074711809 0.0 2.7595831e-06 -0.00074302108 0.0 3.0987526000000003e-06 -0.00073581503 0.0 3.4789488999999998e-06 -0.00072405353 0.0 3.8791436e-06 -0.004156828400000001 0.0 2.0589856e-05 -0.0041561071000000005 0.0 2.1013275e-05 -0.004153350399999999 0.0 2.2261596e-05 -0.0041467343 0.0 2.4262647000000002e-05 -0.004133116500000001 0.0 2.6908305e-05 -0.0041078678000000006 0.0 3.0072708e-05 -0.0040647420000000005 0.0 3.3589160000000004e-05 -0.003995765 0.0 3.7210375e-05 -0.013237968999999999 0.0 9.623196099999999e-05 -0.013235183000000001 0.0 9.808223e-05 -0.01322489 0.0 0.00010352131 -0.013201255 0.0 0.00011224969 -0.013154211 0.0 0.00012382228000000001 -0.013068999 0.0 0.00013763153 -0.012925728999999999 0.0 0.00015284182 -0.012699173000000001 0.0 0.00016810096 -0.031409282000000004 0.0 0.0003014188 -0.031402047999999995 0.0 0.00030683188 -0.031375811 0.0 0.00032276523 -0.03131675 0.0 0.00034835961 -0.031201042000000002 0.0 0.00038225727999999996 -0.030993856 0.0 0.00042254562000000004 -0.030648146 0.0 0.00046636854000000006 -0.030104287 0.0 0.0005089876400000001 -0.060627367 0.0 0.00072806585 -0.06061317 0.0 0.0007403037700000001 -0.060562011 0.0 0.0007763305900000001 -0.060447518 0.0 0.0008341729400000001 -0.060224202000000004 0.0 0.0009106221300000001 -0.059825428 0.0 0.0010009286 -0.059161022 0.0 0.0010977049 -0.058116388 0.0 0.0011887628 -0.09937883199999999 0.0 0.0014544225 -0.09935665099999999 0.0 0.0014772544 -0.099276327 0.0 0.0015444510999999999 -0.099095501 0.0 0.0016522129999999998 -0.098741174 0.0 0.0017942067 -0.098105676 0.0 0.0019607139 -0.097043119 0.0 0.002136312 -0.095366262 0.0 0.0022960023 -0.14180955 0.0 0.0024984989000000003 -0.14178114 0.0 0.0025348323 -0.1416768 0.0 0.0026417226 -0.14143802 0.0 0.0028128587 -0.14096387 0.0 0.0030375032 -0.14010453 0.0 0.0032987732 -0.13865545 0.0 0.0035695594 -0.13635205 0.0 0.0038067745 0.0 0.0 0.0 0.0 0.0 0.0 0.0 0.0 0.0 0.0 0.0 0.0 0.0 0.0 0.0 0.0 0.0 0.0 0.0 0.0 0.0 0.0 0.0 0.0 0.0 0.0 0.0 0.0 0.0 0.0 0.0 0.0 0.0 0.0 0.0 0.0 0.0 0.0 0.0 0.0 0.0 0.0 0.0 0.0 0.0 0.0 0.0 0.0 0.0 0.0 0.0 0.0 0.0 0.0 0.0 0.0 0.0 0.0 0.0 0.0 0.0 0.0 0.0 0.0 0.0 0.0 0.0 0.0 0.0 0.0 0.0 0.0 0.0 0.0 0.0 0.0 0.0 0.0 0.0 0.0 0.0 -1.9391522e-05 0.0 3.4374267e-08 -1.8714667e-05 0.0 3.7180587e-08 -1.7752182e-05 0.0 3.8656388e-08 -1.6446651e-05 0.0 3.7626428e-08 -1.4761456e-05 0.0 3.1500487999999994e-08 -1.2342322999999998e-05 0.0 -1.952484e-08 -8.0993323e-06 0.0 -1.4205132999999999e-07 -3.3256856e-06 0.0 -1.5560144e-07 -5.0270899e-07 0.0 -4.6036764e-08 -0.0007059775500000001 0.0 4.2620218e-06 -0.00067959732 0.0 4.5584216e-06 -0.0006428925 0.0 4.6437926e-06 -0.0005926796 0.0 3.9328019999999995e-06 -0.00051853724 0.0 4.5577696e-07 -0.00041472749 0.0 -5.4613442e-06 -0.00029101645 0.0 -1.0620306e-05 -0.00017003075 0.0 -1.2100687e-05 -7.6232878e-05 0.0 -9.2913851e-06 -0.0038913733 0.0 4.0494499e-05 -0.0037409398 0.0 4.264462e-05 -0.0035291708 0.0 4.0402192e-05 -0.0032265109000000004 0.0 2.5698089e-05 -0.0028092689 0.0 -4.3537229e-06 -0.002277869 0.0 -4.3746153e-05 -0.0016755973000000001 0.0 -7.8070669e-05 -0.0010859129 0.0 -9.418525600000001e-05 -0.00059760932 0.0 -8.7186541e-05 -0.012359185 0.0 0.00018102716 -0.011868726000000001 0.0 0.00018529468999999997 -0.011168726 0.0 0.00016247589 -0.010193939 0.0 9.4696392e-05 -0.0088988142 0.0 -2.3498099999999998e-05 -0.007298594300000001 0.0 -0.00017080911 -0.0055103777 0.0 -0.00030186979 -0.0037492081 0.0 -0.0003762758 -0.002249056 0.0 -0.00037717458 -0.029290337000000003 0.0 0.0005417389299999999 -0.028109025 0.0 0.00053833623 -0.026437288 0.0 0.0004578974 -0.024146378 0.0 0.00025889129 -0.021150699 0.0 -6.8715111e-05 -0.017490895 0.0 -0.00046916867999999994 -0.01341428 0.0 -0.0008311304799999999 -0.0093756793 0.0 -0.0010566682 -0.0058791442 0.0 -0.0011034739 -0.056549072 0.0 0.0012488334 -0.054275591 0.0 0.0012214585 -0.051078215 0.0 0.0010246126 -0.046728384000000005 0.0 0.00057372416 -0.041074991 0.0 -0.00014775092 -0.034184299 0.0 -0.001025434 -0.026485607 0.0 -0.0018318332 -0.018804789 0.0 -0.0023615356 -0.012088736999999999 0.0 -0.0025237305 -0.09284056 0.0 0.0023876166 -0.089178257 0.0 0.0023149848000000002 -0.08403606699999999 0.0 0.0019296574 -0.077051945 0.0 0.0010844171 -0.067979395 0.0 -0.00025060363 -0.056890782 0.0 -0.0018854817999999999 -0.044408482 0.0 -0.0034215569 -0.031832971 0.0 -0.0044664163 -0.020750647 0.0 -0.0048375069 -0.13286442 0.0 0.0039282576 -0.12779389 0.0 0.0037871040000000003 -0.12065636 0.0 0.0031499299 -0.11093499 0.0 0.0017917312 -0.098264404 0.0 -0.00034268523 -0.082698204 0.0 -0.0029926660999999998 -0.065008759 0.0 -0.0055646063 -0.046943504000000004 0.0 -0.0073716026 -0.030874262000000003 0.0 -0.0080556292 -0.061575562 0.0 -0.010724557 -0.040853478 0.0 -0.011864858 -0.04930516 0.0 -0.015604617 -0.056172129 0.0 -0.018517062 -0.062547907 0.0 -0.020295495 -0.07009425799999999 0.0 -0.021081336000000003 -0.080983847 0.0 -0.021352222 -0.09744443 0.0 -0.021875979 -0.12140131 0.0 -0.023730395 -0.15336461 0.0 -0.028452575 -0.19006902 0.0 -0.038372297 -0.22418 0.0 -0.056798387 0.0 0.0 0.0 0.0 0.0 0.0 0.0 0.0 0.0 0.0 0.0 0.0 0.0 0.0 0.0 0.0 0.0 0.0 0.0 0.0 0.0 0.0 0.0 0.0 0.0 0.0 0.0 0.0 0.0 0.0 0.0 0.0 0.0 0.0 0.0 0.0 0.0 0.0 0.0 0.0 0.0 0.0 0.0 0.0 0.0 -2.2098071e-05 0.0 -4.2849551e-06 -2.4003452e-06 0.0 -6.7732412e-07 0.0 0.0 0.0 0.0 0.0 0.0 -0.00026278806 0.0 -6.0989838e-05 -8.0690283e-05 0.0 -2.7719914e-05 -1.1207594999999999e-05 0.0 -4.9154696e-06 -3.8234131e-15 0.0 -1.6951027e-15 -0.0011543805 0.0 -0.0003082456 -0.00047886034000000006 0.0 -0.00019103529 -0.00014002349 0.0 -7.3057323e-05 -1.8954459e-05 0.0 -1.0298763e-05 -0.0032511007 0.0 -0.0009721674099999999 -0.0015388615 0.0 -0.000691091 -0.00058333593 0.0 -0.00034636765 -0.00014965271000000002 0.0 -9.524913200000001e-05 -0.006961839300000001 0.0 -0.0023146456 -0.0035301051 0.0 -0.0017674773 -0.0015158951 0.0 -0.0010106938 -0.00050193543 0.0 -0.00036402611000000004 -0.012222958999999999 0.0 -0.004533777 -0.0064384751 0.0 -0.0036007096000000003 -0.0029556653000000002 0.0 -0.0022129826000000003 -0.0011103392 0.0 -0.0009152765899999999 -0.018420678 0.0 -0.0076362952000000005 -0.0099080773 0.0 -0.0061959871 -0.0047148983 0.0 -0.0039681732 -0.0018909242 0.0 -0.0017745633 -0.024578676 0.0 -0.011325502 -0.013374722 0.0 -0.0092991451 -0.0064820331 0.0 -0.006101306999999999 -0.0026822029999999998 0.0 -0.0028564238 -0.029878843999999998 0.0 -0.015000661 -0.016372071999999998 0.0 -0.012425841000000002 -0.0079965703 0.0 -0.0082801189 -0.0033432734 0.0 -0.0039832578 -0.034225248 0.0 -0.018001106 -0.018822275 0.0 -0.01505872 -0.0092053795 0.0 -0.010152771 -0.0038403131 0.0 -0.0049635591 -0.03824975 0.0 -0.019984299 -0.021083928999999998 0.0 -0.016900758999999998 -0.010304025999999999 0.0 -0.011509097 -0.0042709466 0.0 -0.0056829001 -0.043177417999999995 0.0 -0.021033134 -0.023930946 0.0 -0.01797819 -0.011718609 0.0 -0.012349572 -0.0048388364 0.0 -0.0061431108 -0.050644685 0.0 -0.021572376 -0.028428052000000002 0.0 -0.018599793 -0.014049216000000002 0.0 -0.012862256 -0.005829509300000001 0.0 -0.0064418586 -0.062418747999999996 0.0 -0.022323012000000003 -0.035778005 0.0 -0.01933722 -0.018006936 0.0 -0.013412741 -0.0076026339 0.0 -0.0067512584 -0.080201022 0.0 -0.024335202 -0.047226954 0.0 -0.021078685 -0.024404379 0.0 -0.014634838999999998 -0.010622847 0.0 -0.007409319300000001 -0.10456212 0.0 -0.029130857000000003 -0.063260354 0.0 -0.025161617 -0.0337395 0.0 -0.017611785 -0.015368146999999999 0.0 -0.0091406908 -0.13244177 0.0 -0.038949477999999996 -0.08160565 0.0 -0.033574656 -0.044932727 0.0 -0.024153961 -0.021810625 0.0 -0.013456777 -0.15725373 0.0 -0.056775894 -0.097668856 0.0 -0.049014717 -0.055287212 0.0 -0.036989197 0.0 0.0 0.0 0.0 0.0 0.0 0.0 0.0 0.0 0.0 0.0 0.0 0.0 0.0 0.0 0.0 0.0 0.0 0.0 0.0 0.0 0.0 0.0 0.0 0.0 0.0 0.0 0.0 0.0 0.0 0.0 0.0 0.0 0.0 0.0 0.0 0.0 0.0 0.0 0.0 0.0 0.0 0.0 0.0 0.0 0.0 0.0 0.0 0.0 0.0 0.0 0.0 0.0 0.0 0.0 0.0 0.0 0.0 0.0 0.0 0.0 0.0 0.0 0.0 0.0 0.0 0.0 0.0 0.0 0.0 0.0 0.0 0.0 0.0 0.0 0.0 0.0 0.0 0.0 0.0 0.0 0.0 0.0 0.0 0.0 0.0 0.0 0.0 0.0 0.0 0.0 0.0 0.0 0.0 0.0 0.0 0.0 0.0 0.0 0.0 0.0 0.0 0.0 0.0 0.0 0.0 0.0 0.0 0.0 0.0 0.0 0.0 0.0 0.0 0.0 0.0 0.0 0.0 0.0 0.0 0.0 0.0 0.0 0.0 0.0 0.0 0.0 0.0 0.0 0.0 0.0 0.0 0.0 0.0 0.0 0.0 0.0 0.0 0.0 0.0 0.0 0.0 0.0 0.0 0.0 0.0 0.0 0.0 0.0 0.0 0.0 0.0 0.0 0.0 0.0 0.0 0.0 0.0 0.0 0.0 0.0 0.0 0.0 0.0 0.0 0.0 0.0 0.0 0.0 0.0 0.0 0.0 0.0 0.0 0.0 0.0 0.0 0.0 0.0 0.0 0.0 0.0 0.0 0.0 0.0 0.0 0.0 0.0 0.0 0.0 0.0 0.0 0.0 0.0 0.0 0.0 0.0 0.0 0.0 0.0 0.0 0.0 0.0 0.0 0.0 0.0 0.0 0.0 0.0 0.0 0.0 0.0 0.0 0.0 0.0 0.0 0.0 0.0 0.0 0.0 0.0 0.0 0.0 0.0 0.0 0.0 0.0 0.0 0.0 0.0 0.0 0.0 0.0 0.0 0.0 0.0 0.0 0.0 0.0 0.0 0.0 0.0 0.0 0.0 0.0 0.0 0.0 0.0 0.0 0.0 0.0 0.0 0.0 0.0 0.0 0.0 0.0 0.0 0.0 0.0 0.0 0.0 0.0 0.0 0.0 0.0 0.0 0.0 0.0 0.0 0.0 0.0 0.0 0.0 0.0 0.0 0.0 0.0 0.0 0.0 0.0 0.0 0.0 0.0 0.0 0.0 0.0 0.0 0.0 0.0 0.0 0.0 0.0 0.0 0.0 0.0 0.0 0.0 0.0 0.0 0.0 0.0 0.0 0.0 0.0 0.0 0.0 0.0 0.0 0.0 0.0 0.0 0.0 0.0 0.0 0.0 0.0 0.0 0.0 0.0 0.0 0.0 0.0 0.0 0.0 0.0 0.0 0.0 0.0 0.0 0.0 0.0 0.0 0.0 0.0 0.0 0.0 0.0 0.0 0.0 0.0 0.0 0.0 0.0 0.0 0.0 0.0 0.0 0.0 0.0 0.0 0.0 0.0 0.0 0.0 0.0 0.0 0.0 0.0 0.0 0.0 0.0 0.0 0.0 0.0 0.0 0.0 0.0 0.0 0.0 0.0 0.0 0.0 0.0 0.0 0.0 0.0 0.0 0.0 0.0 0.0 0.0 0.0 0.0 0.0 0.0 0.0 0.0 0.0 0.0 0.0 0.0 0.0 0.0 0.0 0.0 0.0 0.0 0.0 0.0 0.0 0.0 0.0 0.0 0.0 0.0 0.0 0.0 0.0 0.0 0.0 0.0 0.0 0.0 0.0 0.0 0.0 0.0 0.0 0.0 0.0 0.0 0.0 0.0 0.0 0.0 0.0 0.0 0.0 0.0 0.0 0.0 0.0 0.0 0.0 0.0 0.0 0.0 0.0 0.0 0.0 0.0 0.0 0.0 0.0 0.0 0.0 0.0 0.0 0.0 0.0 0.0 0.0 0.0 0.0 0.0 0.0 0.0 0.0 0.0 0.0 0.0 0.0 0.0 0.0 0.0 0.0 0.0 0.0 0.0 0.0 0.0 0.0 0.0 0.0 0.0 0.0 0.0 0.0 0.0 0.0 0.0 0.0 0.0 0.0 0.0 0.0 0.0 0.0 0.0 0.0 0.0 0.0 0.0 0.0 0.0 0.0 0.0 0.0 0.0 0.0 0.0 0.0 0.0 0.0 0.0 0.0 0.0 0.0 0.0 0.0 0.0 0.0 0.0 0.0 0.0 0.0 0.0 0.0 0.0 0.0 0.0 0.0 0.0 0.0 0.0 0.0 0.0 0.0 0.0 0.0 0.0 0.0 0.0 0.0 0.0 0.0 0.0 0.0 0.0 0.0 0.0 0.0 0.0 0.0 0.0 0.0 0.0 0.0 0.0 0.0 0.0 0.0 0.0 0.0 0.0 0.0 0.0 0.0 0.0 0.0 0.0 0.0 0.0 0.0 0.0 0.0 0.0 0.0 0.0 0.0 0.0 0.0 0.0 0.0 0.0 0.0 0.0 0.0 0.0 0.0 0.0 0.0 0.0 0.0 0.0 0.0 0.0 0.0 0.0 0.0 0.0 0.0 0.0 0.0 0.0 0.0 0.0 0.0 0.0 0.0 0.0 0.0 0.0 0.0 0.0 0.0 0.0 0.0 0.0 0.0 0.0 0.0 0.0 0.0 0.0 0.0 0.0 0.0 0.0 0.0 0.0 0.0 0.0 0.0 0.0 0.0 0.0 0.0 0.0 0.0 0.0 0.0 0.0 0.0 0.0 0.0 0.0 0.0 0.0 0.0 0.0 0.0 0.0 0.0 0.0 0.0 0.0 0.0 0.0 0.0 0.0 0.0 0.0 0.0 0.0 0.0 0.0 0.0 0.0 0.0 0.0 0.0 0.0 0.0 0.0 0.0 0.0 0.0 0.0 0.0 0.0 0.0 0.0 0.0 0.0 0.0 0.0 0.0 0.0 0.0 0.0 0.0 0.0 0.0 0.0 0.0 0.0 0.0 0.0 0.0 0.0 0.0 0.0 0.0 0.0 0.0 0.0 0.0 0.0 0.0 0.0 0.0 0.0 0.0 0.0 0.0 0.0 0.0 0.0 0.0 0.0 0.0 0.0 0.0 0.0 0.0 0.0 0.0 0.0 0.0 0.0 0.0 0.0 0.0 0.0 0.0 0.0 0.0 0.0 0.0 0.0 0.0 0.0 0.0 0.0 0.0 0.0 0.0 0.0 0.0 0.0 0.0 0.0 0.0 0.0 0.0 0.0 0.0 0.0 0.0 0.0 0.0 0.0 0.0 0.0 0.0 0.0 0.0 0.0 0.0 0.0 0.0 0.0 0.0 0.0 0.0 0.0 0.0 0.0 0.0 0.0 0.0 0.0 0.0 0.0 0.0 0.0 0.0 0.0 0.0 0.0 0.0 0.0 0.0 0.0 0.0 0.0 0.0 0.0 0.0 0.0 0.0 0.0 0.0 0.0 0.0 0.0 0.0 0.0 0.0 0.0 0.0 0.0 0.0 0.0 0.0 0.0 0.0 0.0 0.0 0.0 0.0 0.0 0.0 0.0 0.0 0.0 0.0 0.0 0.0 0.0 0.0 0.0 0.0 0.0 0.0 0.0 0.0 0.0 0.0 0.0 0.0 0.0 0.0 0.0 0.0 0.0 0.0 0.0 0.0 0.0 0.0 0.0 0.0 0.0 0.0 0.0 0.0 0.0 0.0 0.0 0.0 0.0 0.0 0.0 0.0 0.0 0.0 0.0 0.0 0.0 0.0 0.0 0.0 0.0 0.0 0.0 0.0 0.0 0.0 0.0 0.0 0.0 0.0 0.0 0.0 0.0 0.0 0.0 0.0 0.0 0.0 0.0 0.0 0.0 0.0 0.0 0.0 0.0 0.0 0.0 0.0 0.0 0.0 0.0 0.0 0.0 0.0 0.0 0.0 0.0 0.0 0.0 0.0 0.0 0.0 0.0 0.0 0.0 0.0 0.0 0.0 0.0 0.0 0.0 0.0 0.0 0.0 0.0 0.0 0.0 0.0 0.0 0.0 0.0 0.0 0.0 0.0 0.0 0.0 0.0 0.0 0.0 0.0 0.0 0.0 0.0 0.0 0.0 0.0 0.0 0.0 0.0 0.0 0.0 0.0 0.0 0.0 0.0 0.0 0.0 0.0 0.0 0.0 0.0 0.0 0.0 0.0 0.0 0.0 0.0 0.0 0.0 0.0 0.0 0.0 0.0 0.0 0.0 0.0 0.0 0.0 0.0 0.0 0.0 0.0 0.0 0.0 0.0 0.0 0.0 0.0 0.0 0.0 0.0 0.0 0.0 0.0 0.0 0.0 0.0 0.0 0.0 0.0 0.0 0.0 0.0 0.0 0.0 0.0 0.0 0.0 0.0 0.0 0.0 0.0 0.0 0.0 0.0 0.0 0.0 0.0 0.0 0.0 0.0 0.0 0.0 0.0 0.0 0.0 0.0 0.0 0.0 0.0 0.0 0.0 0.0 0.0 0.0 0.0 0.0 0.0 0.0 0.0 0.0 0.0 0.0 0.0 0.0 0.0 0.0 0.0 0.0 0.0 0.0 0.0 0.0 0.0 0.0 0.0 0.0 0.0 0.0 0.0 0.0 0.0 0.0 0.0 0.0 0.0 0.0 0.0 0.0 0.0 0.0 0.0 0.0 0.0 0.0 0.0 0.0 0.0 0.0 0.0 0.0 0.0 0.0 0.0 0.0 0.0 0.0 0.0 0.0 0.0 0.0 0.0 0.0 0.0 0.0 0.0 0.0 0.0 0.0 0.0 0.0 0.0 0.0 0.0 0.0 0.0 0.0 0.0 0.0 0.0 0.0 0.0 0.0 0.0 0.0 0.0 0.0 0.0 0.0 0.0 0.0 0.0 0.0 0.0 0.0 0.0 0.0 0.0 0.0 0.0 0.0 0.0 0.0 0.0 0.0 0.0 0.0 0.0 0.0 0.0 0.0 0.0 0.0 0.0 0.0 0.0 0.0 0.0 0.0 0.0 0.0 0.0 0.0 0.0 0.0 0.0 0.0 0.0 0.0 0.0 0.0 0.0 0.0 0.0 0.0 0.0 0.0 0.0 0.0 0.0 0.0 0.0 0.0 0.0 0.0 0.0 0.0 0.0 0.0 0.0 0.0 0.0 0.0 0.0 0.0 0.0 0.0 0.0 0.0 0.0 0.0 0.0 0.0 0.0 0.0 0.0 0.0 0.0 0.0 0.0 0.0 0.0 0.0 0.0 0.0 0.0 0.0 0.0 0.0 0.0 0.0 0.0 0.0 0.0 0.0 0.0 0.0 0.0 0.0 0.0 0.0 0.0 0.0 0.0 0.0 0.0 0.0 0.0 0.0 0.0 0.0 0.0 0.0 0.0 0.0 0.0 0.0 0.0 0.0 0.0 0.0 0.0 0.0 0.0 0.0 0.0 0.0 0.0 0.0 0.0 0.0 0.0 0.0 0.0 0.0 0.0 0.0 0.0 0.0 0.0 0.0 0.0 0.0 0.0 0.0 0.0 0.0 0.0 0.0 0.0 0.0 0.0 0.0 0.0 0.0 0.0 0.0 0.0 0.0 0.0 0.0 0.0 0.0 0.0 0.0 0.0 0.0 0.0 0.0 0.0 0.0 0.0 0.0 0.0 0.0 0.0 0.0 0.0 0.0 0.0 0.0 0.0 0.0 0.0 0.0 0.0 0.0 0.0 0.0 0.0 0.0 0.0 0.0 0.0 0.0 0.0 0.0 0.0 0.0 0.0 0.0 0.0 0.0 0.0 0.0 0.0 0.0 0.0 0.0 0.0 0.0 0.0 0.0 0.0 0.0 0.0 0.0 0.0 0.0 0.0 0.0 0.0 0.0 0.0 0.0 0.0 0.0 0.0 0.0 0.0 0.0 0.0 0.0 0.0 0.0 0.0 0.0 0.0 0.0 0.0 0.0 0.0 0.0 0.0 0.0 0.0 0.0 0.0 0.0 0.0 0.0 0.0 0.0 0.0 0.0 0.0 0.0 0.0 0.0 0.0 0.0 0.0 0.0 0.0 0.0 0.0 0.0 0.0 0.0 0.0 0.0 0.0 0.0 0.0 0.0 0.0 0.0 0.0 0.0 0.0 0.0 0.0 0.0 0.0 0.0 0.0 0.0 0.0 0.0 0.0 0.0 0.0 0.0 0.0 0.0 0.0 0.0 0.0 0.0 0.0 0.0 -0.084348544 0.0 -0.0077912388 -0.10640224 0.0 -0.0041490332 -0.1256834 0.0 -0.00039425142999999994 -0.14127235 0.0 0.0025966165 -0.15314439 0.0 0.004507103 -0.073673926 0.0 -0.012775803 -0.10001081 0.0 -0.0097996993 -0.12521686 0.0 -0.005125445300000001 -0.14703828 0.0 -0.00041901553 -0.16447577 0.0 0.0033060126000000003 -0.17758101 0.0 0.005697092 -0.083452448 0.0 -0.015012788999999999 -0.11273266 0.0 -0.011224872 -0.14037272 0.0 -0.005779151800000001 -0.16389319 0.0 -0.00042859558 -0.1823391 0.0 0.0037698011999999998 -0.19592784 0.0 0.0064694006 -0.092553049 0.0 -0.016299697 -0.12445017 0.0 -0.011958128 -0.15411597 0.0 -0.0060613067000000005 -0.17885146 0.0 -0.00042192125999999995 -0.19779107 0.0 0.0039359191 -0.21138655 0.0 0.0067238356 -0.10319878 0.0 -0.016689207 -0.13749713 0.0 -0.01203472 -0.16882727 0.0 -0.0060000340000000004 -0.19443867 0.0 -0.00040945364 -0.2135942 0.0 0.0038140521 -0.22694226 0.0 0.0064865164000000005 -0.11924414 0.0 -0.016455691 -0.15536784 0.0 -0.011661022 -0.18736517 0.0 -0.005702458299999999 -0.212947 0.0 -0.00041748816 -0.23178478 0.0 0.0034449601 -0.2446771 0.0 0.0058608805 -0.14615637 0.0 -0.015979921 -0.1828137 0.0 -0.011184899 -0.21312901 0.0 -0.005333999200000001 -0.23660514 0.0 -0.00043615187000000007 -0.25375181 0.0 0.002954267 -0.26555291 0.0 0.0050380183000000005 -0.19051439 0.0 -0.015609568999999998 -0.22478454 0.0 -0.011050633999999998 -0.24920627 0.0 -0.0050938828 -0.26706201 0.0 -0.00037899637000000003 -0.28021842 0.0 0.0026233729 -0.28970173 0.0 0.0043784096 -0.25798851 0.0 -0.015830878 -0.28400949 0.0 -0.011699448999999999 -0.29656398 0.0 -0.0050837398 -0.30452719 0.0 -1.2975419e-05 -0.3110666 0.0 0.0029264479 -0.31680393 0.0 0.0044460017 -0.34817263 0.0 -0.019387279 -0.35678887 0.0 -0.013876838 -0.35194939 0.0 -0.0052162353 -0.34702632 0.0 0.0011795796 -0.3453362 0.0 0.0045642098 -0.34646499 0.0 0.005982255600000001 -0.44553277 0.0 -0.031830187999999995 -0.43000117 0.0 -0.018909328 -0.40728769 0.0 -0.0052176216 -0.39032671 0.0 0.0040819836 -0.38113874 0.0 0.0084443223 -0.37800273 0.0 0.00982193 -0.51451916 0.0 -0.040054947 -0.48615694 0.0 -0.023212522000000003 -0.45350388 0.0 -0.0033970778000000004 -0.42989731 0.0 0.0098948283 -0.41635418 0.0 0.01546857 -0.41053388 0.0 0.016645379 -0.54559863 0.0 0.008644092800000001 -0.51867193 0.0 0.00073781982 -0.48721004 0.0 0.0083871828 -0.46373799 0.0 0.02083293 -0.44984525 0.0 0.026179342 -0.44345492 0.0 0.026592482 -0.55998415 0.0 0.061027404 -0.53690368 0.0 0.043389637 -0.51181394 0.0 0.03383575 -0.49300206 0.0 0.037795324 -0.48177996 0.0 0.039993361 -0.47659802 0.0 0.038931139 -0.567734 0.0 0.089274324 -0.5497601 0.0 0.074883886 -0.53249061 0.0 0.060711339 -0.52009052 0.0 0.056582655999999995 -0.512986 0.0 0.054812133 -0.51005512 0.0 0.052202992000000004 -0.57370442 0.0 0.09790307300000001 -0.56238383 0.0 0.090445459 -0.55304587 0.0 0.079668216 -0.54704672 0.0 0.07218754299999999 -0.54426205 0.0 0.06810609299999999 -0.54397267 0.0 0.064838327 -0.58255863 0.0 0.098289229 -0.57830316 0.0 0.096478008 -0.5757221 0.0 0.089751102 -0.57504404 0.0 0.082741939 -0.57611048 0.0 0.078609899 -0.57851875 0.0 0.075868562 -0.59784216 0.0 0.095819704 -0.59893286 0.0 0.097480096 -0.60115135 0.0 0.094167948 -0.60450345 0.0 0.08932319300000001 -0.60887271 0.0 0.086535759 -0.61400038 0.0 0.085051164 -0.61916298 0.0 0.094056159 -0.62356091 0.0 0.097615071 -0.62908167 0.0 0.09641730800000001 -0.6356163 0.0 0.09380246 -0.64298803 0.0 0.092652366 -0.650868 0.0 0.092619009 -0.64453191 0.0 0.09426172099999999 -0.65130568 0.0 0.098699488 -0.65946376 0.0 0.098597221 -0.66878897 0.0 0.097499676 -0.67894983 0.0 0.097720295 -0.68944371 0.0 0.099030569 -0.67347461 0.0 0.096094728 -0.68220204 0.0 0.10112863 -0.69258702 0.0 0.10150681 -0.70432991 0.0 0.10119442 -0.7169596 0.0 0.10234281 -0.72981447 0.0 0.10469443 -0.70606053 0.0 0.098948307 -0.71631461 0.0 0.10490729 -0.72849882 0.0 0.10540602 -0.74224311 0.0 0.10524278 -0.75696647 0.0 0.10678413 -0.77187675 0.0 0.10979421 -0.74229538 0.0 0.10262198 -0.75359243 0.0 0.10983326 -0.76708055 0.0 0.11023647 -0.78233492 0.0 0.1095475 -0.79870534 0.0 0.11093719 -0.81530029 0.0 0.11422149 -0.7820611 0.0 0.10709012 -0.79375505 0.0 0.11564372 -0.80788201 0.0 0.11556649 -0.82399774 0.0 0.11359923 -0.8414216 0.0 0.11436951 -0.85921216 0.0 0.11760937 -0.82432985 0.0 0.11225931 -0.83554673 0.0 0.12188017 -0.84941459 0.0 0.12050741 -0.86552101 0.0 0.11654861 -0.88321435 0.0 0.1164846 -0.90155268 0.0 0.11945218 -0.86584908 0.0 0.1179056 -0.87556529 0.0 0.12774789 -0.88810533 0.0 0.12378181 -0.9031707 0.0 0.11754119 -0.92020404 0.0 0.11676862 -0.9383139 0.0 0.11933939 -0.89981925 0.0 0.12327234 -0.90712035 0.0 0.13196479 -0.9173429 0.0 0.12414317 -0.93040317 0.0 0.11619172 -0.94589639 0.0 0.11521003 -0.96301955 0.0 0.11730469 -0.91490674 0.0 0.12707102 -0.91946322 0.0 0.13311103 -0.92697257 0.0 0.12075368 -0.9376021 0.0 0.11322226 -0.95110399 0.0 0.11268817 -0.96678317 0.0 0.1142567 -0.89382422 0.0 0.12788209 -0.89673042 0.0 0.13010263 -0.90265858 0.0 0.11423493 -0.91187185 0.0 0.11024627 -0.92409289 0.0 0.11117813 -0.93867797 0.0 0.11212318 -0.81041265 0.0 0.12452206 -0.81495553 0.0 0.12286332 -0.82292724 0.0 0.10688445 -0.83433276 0.0 0.10947572 -0.84842336 0.0 0.11299599 -0.86422688 0.0 0.1133345 -0.62859172 0.0 0.1185445 -0.64023137 0.0 0.11437313 -0.65596527 0.0 0.101553 -0.67537957 0.0 0.11163584 -0.69692504 0.0 0.11866964 -0.71878821 0.0 0.11943746 -0.30910993 0.0 0.11962787 -0.33383924 0.0 0.10914364 -0.36315715 0.0 0.10100918 -0.39621875 0.0 0.11505178 -0.43073714 0.0 0.12673995 -0.46394774 0.0 0.12991023 0.17259774 0.0 0.13785525 0.13094741 0.0 0.11822411 0.085052371 0.0 0.11202908 0.036098566 0.0 0.11989447 -0.013266505 0.0 0.13410778 -0.059763175 0.0 0.14237851 0.80041766 0.0 0.16871497 0.74424261 0.0 0.1400294 0.68488425 0.0 0.13821226 0.62448102 0.0 0.13306706 0.56537193 0.0 0.13952605 0.51046604 0.0 0.15290701 1.4952313999999998 0.0 0.2055583 1.4370462 0.0 0.1475558 1.3766905 0.0 0.1501168 1.318415 0.0 0.14687902 1.2636 0.0 0.14292015 1.2137611000000001 0.0 0.1582724 2.1154172000000004 0.0 0.18593782 2.079236 0.0 0.12264772 2.0412605 0.0 0.14323869 2.0077868000000003 0.0 0.15353347 1.9790697 0.0 0.14923061 1.95433 0.0 0.15954986 2.5004702 0.0 0.15831174 2.5164904999999997 0.0 0.091185622 2.5311406 0.0 0.10604409 2.547714 0.0 0.13999726 2.5676277 0.0 0.14470538 2.5883465 0.0 0.15723439 2.5953002 0.0 0.20932376 2.6642637000000002 0.0 0.074321948 2.7418237000000003 0.0 0.079757117 2.8228652000000003 0.0 0.11090911 2.9030364 0.0 0.12719749 2.9775839 0.0 0.14769737 2.4939052999999998 0.0 0.30113786 2.5996451 0.0 0.072197944 2.7213886 0.0 0.072140299 2.8496222 0.0 0.094283395 2.9758227 0.0 0.12040254 3.0924808999999995 0.0 0.14499559 2.3444929 0.0 0.35796013 2.4693607999999996 0.0 0.08991912 2.6122897000000003 0.0 0.093817346 2.7628767000000005 0.0 0.09420100599999999 2.9108021 0.0 0.12452861 3.0471497000000003 0.0 0.14837079 2.2595513 0.0 0.3860949 2.3894818 0.0 0.10423894 2.5355933 0.0 0.11102933 2.6880531000000003 0.0 0.10974931 2.8361821 0.0 0.13434838 2.9706392000000004 0.0 0.15496327 2.27212 0.0 0.38850516 2.3977685 0.0 0.10275435 2.5363729 0.0 0.10785124 2.6784713 0.0 0.12445759 2.8132906 0.0 0.14479825 2.9314401 0.0 0.16020383 2.3410213 0.0 0.36974058 2.4571152 0.0 0.091222234 2.5832393 0.0 0.094038941 2.709651 0.0 0.12383504 2.8253014 0.0 0.14537862 2.9208686000000004 0.0 0.16077414 2.3910463 0.0 0.33514968 2.4942097999999997 0.0 0.07546711 2.6048703 0.0 0.0792026 2.712955 0.0 0.11315057 2.8074517000000005 0.0 0.13735719 2.8794057 0.0 0.15685965 2.3620202999999997 0.0 0.29175299 2.4479352999999997 0.0 0.06413687 2.5384778999999997 0.0 0.068807222 2.6240306 0.0 0.10221452 2.6946721 0.0 0.12698768 2.7425593999999998 0.0 0.15155107 2.2384562000000003 0.0 0.24828219 2.3001671000000004 0.0 0.064389646 2.3627586 0.0 0.06551791 2.418232 0.0 0.09286756800000001 2.4588647 0.0 0.11957208 2.4792857 0.0 0.14867921 2.0452046000000004 0.0 0.21836114 2.0746088 0.0 0.078860573 2.1000965 0.0 0.064163543 2.1161811000000004 0.0 0.08586768800000001 2.1185005 0.0 0.11629295 2.1059064999999997 0.0 0.15039623 1.8224306000000001 0.0 0.19472286 1.8133075 0.0 0.092342891 1.7946198 0.0 0.075956248 1.7641818999999999 0.0 0.084487014 1.7229265 0.0 0.11929637 1.6746398 0.0 0.15760802 1.6024684 0.0 0.17147003 1.5533683999999999 0.0 0.098009989 1.4886296 0.0 0.089502618 1.4108142 0.0 0.091627628 1.3270878000000002 0.0 0.12949678 1.2451673 0.0 0.16876662 1.3969526 0.0 0.1555014 1.3136076 0.0 0.099743493 1.2088811000000002 0.0 0.095915206 1.090935 0.0 0.10725074 0.97243792 0.0 0.14405167 0.86477822 0.0 0.18055542 1.2010063 0.0 0.14910342 1.0965465 0.0 0.10184526 0.96477312 0.0 0.10073893 0.81902641 0.0 0.12456251 0.67923939 0.0 0.15517296 0.55809474 0.0 0.18892631 1.0066855 0.0 0.15237567 0.89828837 0.0 0.099230655 0.75251794 0.0 0.11334546 0.59349555 0.0 0.13598363 0.44825259 0.0 0.16098133 0.32720852 0.0 0.19224599 0.820512 0.0 0.16989332 0.71840626 0.0 0.09378372900000001 0.56260884 0.0 0.11962903 0.40507728 0.0 0.13972498 0.26907849 0.0 0.16196655 0.16018321 0.0 0.19035034 0.6786834 0.0 0.11219797 0.54745388 0.0 0.085911833 0.38939112 0.0 0.11753745 0.24576287 0.0 0.14019568 0.12988438 0.0 0.16134201 0.041042026 0.0 0.18492535 0.5225845 0.0 0.081741601 0.38580835 0.0 0.08877828 0.23217033 0.0 0.11069368 0.11142116 0.0 0.13761184 0.021163287000000003 0.0 0.16020855 -0.044581022000000005 0.0 0.17777811 0.24388053 0.0 0.09890142800000001 0.099604845 0.0 0.11143588 0.0023810407 0.0 0.13085 -0.062692299 0.0 0.15701494 -0.10684368 0.0 0.17075017 0.13059372 0.0 0.10819601 0.0059158336 0.0 0.11624683 -0.078317672 0.0 0.12222216 -0.12484837 0.0 0.14967433 -0.15230668 0.0 0.16402946 -0.039006114 0.0 0.12109666 -0.12430388 0.0 0.11749563 -0.16679931 0.0 0.13483045 -0.18482411 0.0 0.15622659 -0.05546283 0.0 0.12322306 -0.12975852 0.0 0.11487544 -0.18585792 0.0 0.1156084 -0.20458975 0.0 0.143611 -0.10435652 0.0 0.12348195 -0.1721251 0.0 0.10708371 -0.20487376 0.0 0.12555242 -0.13094717 0.0 0.11602232 -0.17145766 0.0 0.11725526 -0.15863752 0.0 0.13087575 -0.12382702 0.0 0.12734891 -0.16179533 0.0 0.0054251803000000005 -0.16789924 0.0 0.0056564822 -0.17207223 0.0 0.005522261800000001 -0.17480686 0.0 0.0052221958 -0.17650886 0.0 0.0048641013 -0.17750524 0.0 0.0045113061 -0.17804599 0.0 0.0042049238000000004 -0.17831236 0.0 0.0039703962 -0.17842567 0.0 0.0038236121 -0.18700421 0.0 0.0068746884 -0.19357517 0.0 0.0072136484 -0.19802096 0.0 0.007106528199999999 -0.20089877 0.0 0.0067903125 -0.2026622 0.0 0.0063867182 -0.20367487 0.0 0.0059770937 -0.20421061 0.0 0.0056161708 -0.20446485 0.0 0.0053379983 -0.20456801 0.0 0.0051634558 -0.20550716 0.0 0.0078316713 -0.21206997 0.0 0.0082843518 -0.21643853 0.0 0.0082588019 -0.21921396 0.0 0.0079973098 -0.22087646 0.0 0.0076171048 -0.2218034 0.0 0.0072108018000000005 -0.22227377 0.0 0.006844007900000001 -0.22248317 0.0 0.0065581817 -0.22256039 0.0 0.0063780383 -0.2207242 0.0 0.0081631215 -0.2269685 0.0 0.0087226192 -0.23102796 0.0 0.0088363448 -0.23353812 0.0 0.0087091671 -0.23499334 0.0 0.0084330318 -0.23576929 0.0 0.0081020696 -0.23613605 0.0 0.0077880654 -0.23627979 0.0 0.0075378482999999994 -0.23632124 0.0 0.0073785963 -0.2358274 0.0 0.0079036281 -0.24159016 0.0 0.0085644163 -0.24521947 0.0 0.0088735912 -0.24738383 0.0 0.0089582559 -0.24858144 0.0 0.0088670989 -0.24917594 0.0 0.008683783 -0.24942231 0.0 0.008480999599999999 -0.24949183 0.0 0.0083086845 -0.24949339 0.0 0.0081958799 -0.25299415 0.0 0.0072074196999999994 -0.25819772 0.0 0.007989686 -0.26135409 0.0 0.0085517149 -0.26315358 0.0 0.0089230323 -0.26408523 0.0 0.0090930294 -0.264496 0.0 0.0091234827 -0.26462185 0.0 0.0090832906 -0.26461741 0.0 0.0090246005 -0.26457968 0.0 0.0089791417 -0.27312741 0.0 0.0063164774 -0.27771527 0.0 0.007272932199999999 -0.28039718 0.0 0.0081536695 -0.28184873 0.0 0.0088871103 -0.28253454 0.0 0.0093885679 -0.28277898 0.0 0.0096894549 -0.28279683 0.0 0.0098525258 -0.28272656 0.0 0.0099336067 -0.28265351 0.0 0.0099698119 -0.29607847 0.0 0.0055918526 -0.29997849 0.0 0.006766619200000001 -0.30219141 0.0 0.0080345208 -0.30332977 0.0 0.0092011783 -0.30380979 0.0 0.010094472 -0.30392206 0.0 0.010709248999999999 -0.30385739 0.0 0.011102698999999999 -0.30373719 0.0 0.011338421000000001 -0.30363736 0.0 0.011462989 -0.32136682 0.0 0.005567495699999999 -0.32443315 0.0 0.006939535 -0.32618719 0.0 0.0086200535 -0.32706219 0.0 0.010260268000000001 -0.32739565 0.0 0.011580647 -0.32742798 0.0 0.012531074 -0.32731962 0.0 0.013164067 -0.32717574 0.0 0.013555713 -0.3270635 0.0 0.013767119 -0.34878737 0.0 0.0069443230000000005 -0.35089228 0.0 0.0083931163 -0.35222024 0.0 0.010410954 -0.35290435 0.0 0.012490234 -0.35317123 0.0 0.014220866 -0.35319385 0.0 0.015492535 -0.35309541 0.0 0.016349483 -0.35296366 0.0 0.016882351 -0.35285985 0.0 0.017170087 -0.37817612 0.0 0.010474986 -0.37934843 0.0 0.011778123 -0.38032278 0.0 0.013933679 -0.38091165 0.0 0.016311217 -0.38120779 0.0 0.018358998 -0.38130242 0.0 0.019887971 -0.3812764 0.0 0.020923452 -0.38120052 0.0 0.021565957 -0.38112998 0.0 0.021911082999999998 -0.40922037 0.0 0.016732458000000002 -0.40970191 0.0 0.017604047 -0.41045386 0.0 0.019611521 -0.41106844 0.0 0.022054264 -0.41149893 0.0 0.024252392 -0.41175249 0.0 0.025926625 -0.41186669 0.0 0.027068283 -0.41189426 0.0 0.02777552 -0.4118866 0.0 0.028153407999999998 -0.44162631 0.0 0.025824895 -0.4418174 0.0 0.026019281000000002 -0.44255114 0.0 0.027605314 -0.44334188 0.0 0.029857602 -0.44402337 0.0 0.032007579 -0.44452664 0.0 0.033691715 -0.44485188 0.0 0.034854867000000005 -0.44503507 0.0 0.035577804 -0.44512177 0.0 0.03596326 -0.47518617 0.0 0.037208222 -0.47555348 0.0 0.036679991 -0.47654691 0.0 0.037708741000000004 -0.47770095 0.0 0.03959167 -0.47876421 0.0 0.041532493999999996 -0.47961581 0.0 0.04311068 -0.48022822 0.0 0.044223375999999995 -0.48062354 0.0 0.044922635 -0.48083988 0.0 0.045297418 -0.50975794 0.0 0.049820863 -0.51078069 0.0 0.048810564 -0.51237506 0.0 0.049362767 -0.51411188 0.0 0.050851673 -0.51570475 0.0 0.052523669 -0.51701552 0.0 0.053945090999999994 -0.5180012 0.0 0.05497757 -0.51867247 0.0 0.0556411 -0.51905882 0.0 0.056002405 -0.54527241 0.0 0.062459901 -0.5474323 0.0 0.061433017 -0.54998499 0.0 0.061794537999999996 -0.55253536 0.0 0.06303402799999999 -0.55482167 0.0 0.064506158 -0.55671448 0.0 0.065811291 -0.55817086 0.0 0.066796146 -0.55919093 0.0 0.067452237 -0.55979198 0.0 0.067820534 -0.58179182 0.0 0.074194066 -0.5855276 0.0 0.073661238 -0.58934414 0.0 0.07422002400000001 -0.59292537 0.0 0.07547278 -0.59607118 0.0 0.076921605 -0.59868181 0.0 0.078234695 -0.60071528 0.0 0.079264469 -0.60216284 0.0 0.07998079799999999 -0.60302687 0.0 0.080398127 -0.61955267 0.0 0.084537238 -0.62514114 0.0 0.084906325 -0.63043451 0.0 0.086020224 -0.63522267 0.0 0.087575935 -0.63938296 0.0 0.08922555300000001 -0.64284289 0.0 0.09071592199999999 -0.64556253 0.0 0.09191702300000001 -0.64751774 0.0 0.092782825 -0.64869475 0.0 0.09330257800000001 -0.65879977 0.0 0.093444914 -0.66634345 0.0 0.09492115699999999 -0.6732251 0.0 0.096820079 -0.67934126 0.0 0.09890489300000001 -0.68463808 0.0 0.10095274 -0.68906248 0.0 0.10278045 -0.69256449 0.0 0.1042762 -0.69509947 0.0 0.1053794 -0.6966328 0.0 0.10605504 -0.6996724 0.0 0.10113055 -0.70914453 0.0 0.10371053 -0.7176407 0.0 0.10645939 -0.72514707 0.0 0.10917896 -0.73165631 0.0 0.11173747 -0.73712099 0.0 0.11400667 -0.74147332 0.0 0.11588546 -0.74463981 0.0 0.11729518 -0.74656314 0.0 0.11817163 -0.74216354 0.0 0.10784342 -0.75346637 0.0 0.1113729 -0.76354057 0.0 0.11489261 -0.77243608 0.0 0.11822426 -0.78017443 0.0 0.12130323 -0.78670365 0.0 0.12404154 -0.79193115 0.0 0.12634143 -0.79575199 0.0 0.12809756 -0.79808211 0.0 0.12920526 -0.78612608 0.0 0.11369888 -0.79911691 0.0 0.1179508 -0.81067759 0.0 0.12207814 -0.82089841 0.0 0.12591296 -0.82981682 0.0 0.12944344 -0.83737665 0.0 0.13261421 -0.84345633 0.0 0.13532507 -0.84791964 0.0 0.13743515 -0.85065025 0.0 0.13878679 -0.83117604 0.0 0.1185933 -0.84566218 0.0 0.12334387 -0.8585673 0.0 0.12791234 -0.86999309 0.0 0.13212779 -0.87998933 0.0 0.13601653 -0.88849074 0.0 0.1395514 -0.89535606 0.0 0.1426298 -0.90041584 0.0 0.14507237 -0.90352017 0.0 0.14666048 -0.87634903 0.0 0.12221228 -0.8920747 0.0 0.12730999 -0.9061377 0.0 0.13223267 -0.91861778 0.0 0.13677065 -0.92955989 0.0 0.14095953 -0.93888825 0.0 0.14479561 -0.94644421 0.0 0.14818259 -0.95202923 0.0 0.15091179 -0.95546395 0.0 0.15270859 -0.91946876 0.0 0.12413513 -0.93611187 0.0 0.12954906 -0.95112401 0.0 0.13487956 -0.964508 0.0 0.13980395 -0.97626776 0.0 0.14431152 -0.98630673 0.0 0.14841501 -0.99444854 0.0 0.15204558 -1.0004761 0.0 0.15499231 -1.004189 0.0 0.15694733 -0.95642579 0.0 0.12403163 -0.97360581 0.0 0.12984832 -0.98934507 0.0 0.13578445 -1.0034958 0.0 0.14128646 -1.0159652 0.0 0.14621304 -1.0266119 0.0 0.15057965 -1.0352404 0.0 0.15437865 -1.0416251 0.0 0.15744516 -1.045557 0.0 0.15948008 -0.98073494 0.0 0.12195167 -0.99804485 0.0 0.12827481 -1.014268 0.0 0.1350562 -1.0290384 0.0 0.14137755 -1.0421089 0.0 0.14685614 -1.0532594 0.0 0.15148258 -1.0622696000000003 0.0 0.15534857 -1.0689189 0.0 0.15839747 -1.0730053 0.0 0.16039962 -0.98368156 0.0 0.11866902 -1.0007854999999999 0.0 0.12541297 -1.0172472 0.0 0.13308667 -1.0324601999999998 0.0 0.14032754 -1.0459874 0.0 0.14640479 -1.0575073 0.0 0.15122585 -1.066771 0.0 0.15500081 -1.0735701000000002 0.0 0.1578425 -1.0777321000000002 0.0 0.1596607 -0.95486939 0.0 0.11591087 -0.9717536 0.0 0.12260929 -0.98838568 0.0 0.13073963 -1.003939 0.0 0.13856675 -1.0178047 0.0 0.14499255 -1.0295707 0.0 0.14976753 -1.0389629999999999 0.0 0.15318656 -1.0458015999999999 0.0 0.15556151 -1.0499613 0.0 0.15700281 -0.88110566 0.0 0.11607826 -0.89858496 0.0 0.12196133 -0.91593033 0.0 0.12956581 -0.93221277 0.0 0.13701461 -0.94668615 0.0 0.14301635 -0.9588719 0.0 0.14716929 -0.96849638 0.0 0.14978191 -0.97542727 0.0 0.15133545 -0.97960556 0.0 0.15216358 -0.73993921 0.0 0.12121692 -0.76031828 0.0 0.12568063 -0.77993327 0.0 0.13163929 -0.79817611 0.0 0.13736939 -0.81428665 0.0 0.14170226 -0.82772875 0.0 0.14426869 -0.83823228 0.0 0.14538832 -0.8457101 0.0 0.14565395 -0.8501724 0.0 0.14559187 -0.49395636 0.0 0.13198704 -0.52067298 0.0 0.13520992 -0.544949 0.0 0.1389035 -0.56699336 0.0 0.14178696 -0.58632916 0.0 0.14316928 -0.60241497 0.0 0.1430258 -0.61493856 0.0 0.14182582 -0.62381512 0.0 0.14026603 -0.62908983 0.0 0.13901642 -0.10086703 0.0 0.14710136 -0.13612004 0.0 0.15046126 -0.16680484 0.0 0.15232038 -0.19403952 0.0 0.15202895 -0.21783981 0.0 0.14968899 -0.2377439 0.0 0.14598295 -0.25335199 0.0 0.14176606 -0.26448178 0.0 0.13791624 -0.27112252 0.0 0.13522959 0.46201149 0.0 0.16321436 0.4206115 0.0 0.1693375 0.38500723 0.0 0.17107782 0.35359758 0.0 0.16840757 0.32597941 0.0 0.16245739 0.30257308 0.0 0.1549686 0.28393403 0.0 0.14746642 0.27045694 0.0 0.14114128 0.26233175 0.0 0.13693123 1.1696639 0.0 0.17592593 1.1312591 0.0 0.1878747 1.0975957 0.0 0.19212049 1.0673037 0.0 0.1888224 1.040022 0.0 0.18026276 1.0162845999999999 0.0 0.16951397 0.99689513 0.0 0.15903319 0.98257065 0.0 0.15046102 0.97380096 0.0 0.14488851 1.9322270000000001 0.0 0.18187423 1.9115744 0.0 0.20133634 1.8917499 0.0 0.21044053 1.8722762 0.0 0.20841086 1.8533654999999998 0.0 0.19865446 1.8358252 0.0 0.18566757 1.8207176 0.0 0.17296895 1.809106 0.0 0.16272612 1.8018063999999998 0.0 0.1561707 2.6059861 0.0 0.1814058 2.618608 0.0 0.20657593 2.6261477 0.0 0.22076748 2.6292984 0.0 0.22075932 2.628998 0.0 0.21073656 2.6263528 0.0 0.19641148 2.6225879 0.0 0.18226562 2.6189115000000003 0.0 0.17095648 2.6162972 0.0 0.1638121 3.0422976000000004 0.0 0.1764119 3.0951545 0.0 0.20457968 3.1370282000000005 0.0 0.22052911 3.1698619999999997 0.0 0.22098237 3.1950996 0.0 0.21034831 3.2138104 0.0 0.19492944 3.2269936 0.0 0.17970847 3.2355918999999997 0.0 0.16760841 3.2403948 0.0 0.16001342 3.194253 0.0 0.17328499 3.2793019 0.0 0.19911432 3.3494759 0.0 0.21257079 3.4079413 0.0 0.21099278 3.4565747000000004 0.0 0.19849841 3.4960434 0.0 0.1813959 3.5265186 0.0 0.1647521 3.5481105000000004 0.0 0.15156606 3.5609672 0.0 0.14327903 3.1659429 0.0 0.17365406 3.2658329 0.0 0.19427629 3.349824 0.0 0.20307682 3.4222207 0.0 0.19788726 3.4851572999999996 0.0 0.18239035 3.5386527 0.0 0.16269685 3.5817442 0.0 0.14384624 3.6133404000000002 0.0 0.12890488 3.6326098 0.0 0.11944148 3.0856953 0.0 0.17661047 3.1812625 0.0 0.192763 3.2620723 0.0 0.19757994 3.3336577000000003 0.0 0.18896501 3.3984178999999997 0.0 0.17026882 3.4557830999999997 0.0 0.14751214 3.5036720999999997 0.0 0.12585737 3.5397656000000004 0.0 0.10858078 3.5621883999999997 0.0 0.097509906 3.027997 0.0 0.18011561 3.10482 0.0 0.19508123 3.1687806 0.0 0.19867121 3.2267644 0.0 0.18843642 3.2816386 0.0 0.16757101 3.3325894 0.0 0.14222075 3.3768248999999995 0.0 0.1178965 3.4111297 0.0 0.09825491900000001 3.4328402999999996 0.0 0.085512862 2.9924581000000003 0.0 0.18230127 3.0438417999999996 0.0 0.19999853 3.0838217999999995 0.0 0.20574063 3.1205235 0.0 0.19646248 3.1575017000000005 0.0 0.17534205 3.1942096 0.0 0.14882186 3.2278051 0.0 0.12287654 3.254828 0.0 0.1016169 3.2723142999999997 0.0 0.087686241 2.9258502 0.0 0.18272704 2.9517592999999995 0.0 0.20586076 2.9669459 0.0 0.2162315 2.9802618 0.0 0.21012539 2.9959748 0.0 0.19080459 3.0142455000000004 0.0 0.16503602 3.0328665 0.0 0.13919571 3.0488622000000003 0.0 0.11775565 3.059607 0.0 0.10363077 2.7655423 0.0 0.18270001 2.768847 0.0 0.2118095 2.7620517999999996 0.0 0.22744855 2.7537985000000003 0.0 0.22549076 2.7486994 0.0 0.20939417 2.7477543 0.0 0.18615833 2.7498584 0.0 0.16234115 2.7531507 0.0 0.14248866 2.7558939 0.0 0.12943035 2.4786851000000003 0.0 0.18439935 2.4618464 0.0 0.21812418 2.436763 0.0 0.2378647 2.4106185 0.0 0.23959675 2.3875906000000002 0.0 0.22715074 2.3692806 0.0 0.20762073 2.3558109 0.0 0.18742226 2.3467269 0.0 0.17075245 2.3415136000000003 0.0 0.15992436 2.0800560000000003 0.0 0.18952422 2.0447773999999996 0.0 0.22566144 2.0052519 0.0 0.24737272 1.9659567999999998 0.0 0.25140905 1.9297378 0.0 0.24216665 1.8982477999999998 0.0 0.22671199 1.8725631999999999 0.0 0.21099699 1.8535203999999998 0.0 0.19848081 1.8417959 0.0 0.19061603 1.6230838 0.0 0.19845247 1.5713731000000002 0.0 0.23497958 1.5214564 0.0 0.25662911 1.4743389 0.0 0.26144323 1.4308108 0.0 0.25450405 1.3919475000000001 0.0 0.24276978 1.3592281000000002 0.0 0.23154223 1.3343121999999998 0.0 0.22332926 1.3186877000000001 0.0 0.21857011 1.170826 0.0 0.2099123 1.1063443000000002 0.0 0.24559361 1.0505377 0.0 0.26602128 1.0009396000000002 0.0 0.27060717 0.9560315 0.0 0.26509282 0.91585439 0.0 0.25629702 0.88170069 0.0 0.24886167 0.85544968 0.0 0.2443624 0.83888668 0.0 0.24229595 0.77451903 0.0 0.22121385 0.70267743 0.0 0.25570253 0.64554483 0.0 0.27484292 0.59783596 0.0 0.27902973 0.55605668 0.0 0.27444333 0.51914513 0.0 0.26773924 0.48785806 0.0 0.26303038 0.46381646 0.0 0.26117977 0.44864589 0.0 0.26101053 0.4611845 0.0 0.22901021 0.38802898 0.0 0.26266503 0.33329469 0.0 0.28125468 0.2900098 0.0 0.28563544 0.25349057 0.0 0.28203025 0.22193085 0.0 0.27684751 0.19554149 0.0 0.27383485 0.17544468 0.0 0.27346766 0.16283388 0.0 0.27428705 0.23334461 0.0 0.23089124 0.16427901 0.0 0.26389602 0.11411753 0.0 0.28292856 0.075724103 0.0 0.28853396 0.04425513 0.0 0.28648701 0.017774293 0.0 0.28275317 -0.0038358672 0.0 0.2808001 -0.019974006000000002 0.0 0.28102028 -0.029968869 0.0 0.2820721 0.07751672700000001 0.0 0.22597422 0.016524986999999998 0.0 0.25778595 -0.02848964 0.0 0.27789453 -0.06316068799999999 0.0 0.28580096 -0.09136583699999999 0.0 0.28622392 -0.11456691 0.0 0.28438047 -0.13292655 0.0 0.28342018 -0.14624766 0.0 0.28385603 -0.15432619 0.0 0.2847648 -0.025309427000000002 0.0 0.21521743 -0.075905554 0.0 0.24435951 -0.11616063 0.0 0.2653259 -0.14908107 0.0 0.27625051 -0.1763933 0.0 0.280085 -0.19865848 0.0 0.2808944 -0.21584217 0.0 0.28134066 -0.22795807 0.0 0.28216407 -0.23513813 0.0 0.28300059 -0.09270910199999999 0.0 0.2009256 -0.13181069 0.0 0.22546878 -0.16742873 0.0 0.24602932 -0.20016642 0.0 0.2598975 -0.22861837 0.0 0.26770425 -0.2520161 0.0 0.27188894 -0.26992869 0.0 0.27440819 -0.28235731 0.0 0.27616316 -0.28960702 0.0 0.27729949 -0.1378672 0.0 0.18580802 -0.16521606 0.0 0.20426285 -0.19525646 0.0 0.22254759 -0.22751877 0.0 0.23806122 -0.25800678 0.0 0.24956901 -0.28378141 0.0 0.25740635 -0.30371562 0.0 0.26257804 -0.31757066 0.0 0.26590738 -0.32562804 0.0 0.26783085 -0.16995777 0.0 0.17233019 -0.18633927 0.0 0.18421635 -0.20886566 0.0 0.19854514 -0.23796654 0.0 0.21343137 -0.26905471 0.0 0.22706155 -0.29717821 0.0 0.23800546 -0.31957316 0.0 0.24593975 -0.33540088 0.0 0.25125375 -0.34469488 0.0 0.25434268 -0.1948227 0.0 0.16195735 -0.20278524 0.0 0.16785756 -0.2163177 0.0 0.17751093 -0.23839675 0.0 0.1895981 -0.26603931 0.0 0.20271952 -0.29397032 0.0 0.21496834 -0.31788823 0.0 0.22490941 -0.33546495 0.0 0.23204879 -0.3459951 0.0 0.23634054 -0.21460162 0.0 0.15377095 -0.21924619 0.0 0.15638277 -0.22468399 0.0 0.16143315 -0.23700607 0.0 0.16955748 -0.25652647 0.0 0.17979632 -0.27952507 0.0 0.19069608 -0.3014397 0.0 0.20065403 -0.31889987 0.0 0.20851137 -0.32988551 0.0 0.21350549 -0.22550777 0.0 0.14363931 -0.23536047 0.0 0.14837833 -0.23805279 0.0 0.1504546 -0.24126743 0.0 0.15448692 -0.24967752 0.0 0.16054089 -0.26304722 0.0 0.16788334 -0.27829427 0.0 0.17536224 -0.29200041 0.0 0.18188387 -0.30135819 0.0 0.18634708 -0.21685104 0.0 0.12897478 -0.24258028 0.0 0.13978243 -0.25252137 0.0 0.14299366 -0.25380442 0.0 0.143408 -0.25221747 0.0 0.14519325 -0.25374621 0.0 0.14780635 -0.25863817 0.0 0.15108569 -0.26515955 0.0 0.15430765 -0.27046394 0.0 0.15674886 -0.17911743 0.0 0.12174565 -0.22634852 0.0 0.12678239 -0.25185293 0.0 0.13522211 -0.26526183 0.0 0.13447328 -0.26289594 0.0 0.13238426 -0.25597385 0.0 0.13023666 -0.25026461 0.0 0.12860818 -0.24768484 0.0 0.12769921 -0.24743453 0.0 0.12725261 -0.15723558 0.0 0.13074575 -0.18975174 0.0 0.12029706 -0.22236447 0.0 0.12437664 -0.25468555 0.0 0.12392081 -0.26422974 0.0 0.12090073 -0.26192239 0.0 0.11422967 -0.25168556 0.0 0.10810643 -0.2425513 0.0 0.10310521 -0.23734328 0.0 0.09988609 -0.21009538 0.0 0.1207051 -0.20102945 0.0 0.11573978 -0.22913405 0.0 0.10894208 -0.24430209 0.0 0.10663538 -0.25521779 0.0 0.097827472 -0.24995056 0.0 0.08879020800000001 -0.23986936 0.0 0.081059404 -0.23312987 0.0 0.075753227 -0.25753546 0.0 0.093947709 -0.24792358 0.0 0.088197879 -0.25576293 0.0 0.077176221 -0.24919674 0.0 0.068452947 -0.24047443 0.0 0.060695230999999995 -0.23249035 0.0 0.055271249 -0.31479996 0.0 0.058227427000000005 -0.29196799 0.0 0.049696073 -0.27392447 0.0 0.043721206 -0.26371616 0.0 0.038655091 -0.17845586 0.0 0.0037736996999999995 -0.17842564 0.0 0.0038236114000000003 -0.17831233 0.0 0.0039703972 -0.17804602 0.0 0.0042049228 -0.1775052 0.0 0.0045113056 -0.1765089 0.0 0.0048641013 -0.17480689 0.0 0.0052221986 -0.17207223 0.0 0.0055222656 -0.2045944 0.0 0.0051040663 -0.20456801 0.0 0.0051634558 -0.20446491 0.0 0.005338002 -0.20421058 0.0 0.0056161685 -0.2036749 0.0 0.0059770951000000004 -0.20266217 0.0 0.006386719200000001 -0.20089883 0.0 0.0067903139 -0.19802091 0.0 0.00710653 -0.22257814 0.0 0.006316646899999999 -0.22256035 0.0 0.0063780402 -0.22248313 0.0 0.006558183100000001 -0.22227368 0.0 0.0068440037 -0.22180347 0.0 0.0072108018000000005 -0.22087657 0.0 0.007617102 -0.21921401 0.0 0.0079973107 -0.21643856 0.0 0.008258802800000001 -0.23632792 0.0 0.0073241111999999995 -0.23632133 0.0 0.007378598199999999 -0.23627982 0.0 0.007537844100000001 -0.236136 0.0 0.007788064 -0.23576936 0.0 0.008102063100000001 -0.23499344 0.0 0.0084330337 -0.23353815 0.0 0.008709163399999999 -0.23102804 0.0 0.0088363504 -0.24948749 0.0 0.0081568677 -0.24949348 0.0 0.008195869599999999 -0.24949181 0.0 0.0083086798 -0.24942234 0.0 0.0084809931 -0.24917598 0.0 0.0086837811 -0.24858135 0.0 0.0088670896 -0.24738374 0.0 0.0089582549 -0.24521935 0.0 0.0088735903 -0.26456138 0.0 0.008962511099999999 -0.26457968 0.0 0.008979138900000001 -0.26461744 0.0 0.0090245903 -0.26462188 0.0 0.009083285 -0.26449612 0.0 0.0091234772 -0.26408529 0.0 0.009093022 -0.26315355 0.0 0.0089230342 -0.26135412 0.0 0.0085517215 -0.2826243 0.0 0.009980065699999999 -0.28265354 0.0 0.009969803499999999 -0.28272656 0.0 0.0099336021 -0.2827968 0.0 0.0098525165 -0.28277898 0.0 0.0096894465 -0.28253469 0.0 0.0093885614 -0.28184879 0.0 0.0088871112 -0.28039715 0.0 0.008153685400000001 -0.30359966 0.0 0.011501968999999999 -0.30363747 0.0 0.011462986000000001 -0.30373713 0.0 0.011338404 -0.30385721 0.0 0.011102682 -0.30392215 0.0 0.010709227 -0.30380988 0.0 0.010094462 -0.30332968 0.0 0.0092011793 -0.30219159 0.0 0.008034539399999999 -0.32702193 0.0 0.013833841000000001 -0.32706353 0.0 0.013767111 -0.32717571 0.0 0.013555698 -0.32731965 0.0 0.013164041000000001 -0.32742804 0.0 0.01253105 -0.3273958 0.0 0.011580633 -0.3270624 0.0 0.010260263 -0.32618725 0.0 0.0086200805 -0.35282084 0.0 0.017260758 -0.35285956 0.0 0.017170085 -0.3529636 0.0 0.016882332 -0.35309523 0.0 0.016349453 -0.35319394 0.0 0.015492501 -0.35317141 0.0 0.014220843 -0.35290456 0.0 0.012490234 -0.35222036 0.0 0.01041099 -0.38110256 0.0 0.022019399 -0.38113001 0.0 0.02191106 -0.38120049 0.0 0.021565927000000002 -0.38127643 0.0 0.020923423 -0.38130227 0.0 0.019887932 -0.38120788 0.0 0.01835897 -0.38091153 0.0 0.016311223 -0.38032246 0.0 0.013933723 -0.41187954 0.0 0.028271502 -0.41188645 0.0 0.028153386000000002 -0.41189417 0.0 0.027775498 -0.41186666 0.0 0.02706825 -0.41175246 0.0 0.025926575 -0.41149887 0.0 0.024252363 -0.41106814 0.0 0.022054257 -0.41045362 0.0 0.01961158 -0.44514623 0.0 0.036083449 -0.44512147 0.0 0.035963247999999996 -0.44503498 0.0 0.03557777 -0.44485199 0.0 0.034854829 -0.44452676 0.0 0.033691667 -0.44402337 0.0 0.032007537999999995 -0.44334194 0.0 0.029857598 -0.44255108 0.0 0.027605348999999998 -0.48090819 0.0 0.045414582 -0.48084 0.0 0.045297407000000005 -0.48062345 0.0 0.044922616 -0.48022816 0.0 0.044223312 -0.47961569 0.0 0.043110635 -0.47876391 0.0 0.041532431 -0.47770101 0.0 0.03959164 -0.47654667 0.0 0.037708774 -0.51918423 0.0 0.056116223 -0.51905847 0.0 0.05600239 -0.51867229 0.0 0.055641063 -0.51800084 0.0 0.054977505999999995 -0.51701528 0.0 0.053945038 -0.51570505 0.0 0.052523639000000004 -0.51411158 0.0 0.05085168 -0.51237512 0.0 0.049362816 -0.55999011 0.0 0.067938603 -0.55979162 0.0 0.06782049700000001 -0.55919069 0.0 0.067452222 -0.55817068 0.0 0.066796109 -0.55671442 0.0 0.065811247 -0.55482173 0.0 0.064506121 -0.55253488 0.0 0.06303402 -0.54998475 0.0 0.061794598 -0.60331416 0.0 0.080534719 -0.60302693 0.0 0.080398083 -0.60216296 0.0 0.079980791 -0.60071558 0.0 0.079264432 -0.59868175 0.0 0.07823462 -0.59607124 0.0 0.076921605 -0.59292531 0.0 0.07547275 -0.58934402 0.0 0.074220046 -0.64908731 0.0 0.093475603 -0.64869457 0.0 0.093302593 -0.64751798 0.0 0.092782825 -0.64556283 0.0 0.091917031 -0.64284319 0.0 0.090715885 -0.63938332 0.0 0.089225523 -0.63522279 0.0 0.087575905 -0.63043463 0.0 0.086020254 -0.69714594 0.0 0.10628259 -0.69663268 0.0 0.10605498 -0.69509882 0.0 0.10537946 -0.69256449 0.0 0.10427613 -0.68906248 0.0 0.10278039 -0.68463832 0.0 0.10095268 -0.67934161 0.0 0.09890486300000001 -0.67322528 0.0 0.096820056 -0.74720842 0.0 0.11846934 -0.74656332 0.0 0.11817162 -0.74463964 0.0 0.11729512 -0.74147362 0.0 0.11588547 -0.73712111 0.0 0.11400665 -0.73165613 0.0 0.11173744 -0.72514719 0.0 0.10917892 -0.71764088 0.0 0.10645934 -0.79886413 0.0 0.12958473 -0.79808176 0.0 0.12920529 -0.79575258 0.0 0.1280975 -0.79193109 0.0 0.1263414 -0.78670371 0.0 0.12404157 -0.78017426 0.0 0.12130318 -0.77243608 0.0 0.11822423 -0.76354069 0.0 0.11489256 -0.85156906 0.0 0.13925339 -0.8506493 0.0 0.13878676 -0.84792006 0.0 0.13743526 -0.84345645 0.0 0.13532507 -0.83737648 0.0 0.13261423 -0.82981724 0.0 0.12944335 -0.82089865 0.0 0.12591295 -0.81067812 0.0 0.12207803 -0.90456712 0.0 0.14721328 -0.90352029 0.0 0.14666054 -0.90041602 0.0 0.14507231 -0.89535606 0.0 0.14262982 -0.88849097 0.0 0.13955137 -0.87998897 0.0 0.13601647 -0.86999297 0.0 0.13212776 -0.85856748 0.0 0.12791227 -0.95662361 0.0 0.15333834 -0.95546389 0.0 0.15270866 -0.95202899 0.0 0.1509117 -0.94644439 0.0 0.14818272 -0.93888819 0.0 0.14479557 -0.92955923 0.0 0.14095952 -0.91861773 0.0 0.13677061 -0.90613711 0.0 0.13223256 -1.0054437 0.0 0.15763557 -1.0041891 0.0 0.15694736 -1.000476 0.0 0.15499245 -0.99444836 0.0 0.15204564 -0.98630679 0.0 0.14841506 -0.97626758 0.0 0.14431153 -0.96450788 0.0 0.13980395 -0.9511233 0.0 0.1348796 -1.0468860999999998 0.0 0.16019739 -1.045557 0.0 0.15948017 -1.0416251 0.0 0.15744518 -1.0352404 0.0 0.15437871 -1.0266126 0.0 0.15057956 -1.0159646999999998 0.0 0.14621301 -1.003495 0.0 0.14128637 -0.98934573 0.0 0.13578445 -1.0743842 0.0 0.16110303 -1.073005 0.0 0.16039969 -1.0689186000000002 0.0 0.15839744 -1.0622698 0.0 0.15534858 -1.0532591 0.0 0.15148258 -1.042109 0.0 0.14685616 -1.029038 0.0 0.14137751 -1.0142681999999998 0.0 0.1350562 -1.0791341 0.0 0.16029225 -1.0777326 0.0 0.15966076 -1.0735698999999999 0.0 0.15784235 -1.066771 0.0 0.15500067 -1.0575079 0.0 0.15122582 -1.0459872 0.0 0.14640465 -1.0324599 0.0 0.14032748 -1.0172472 0.0 0.13308662 -1.0513587 0.0 0.15749119 -1.0499616000000003 0.0 0.15700267 -1.0458018 0.0 0.15556136 -1.0389626 0.0 0.15318662 -1.0295707 0.0 0.14976743 -1.0178053 0.0 0.14499252 -1.0039392 0.0 0.13856681 -0.98838544 0.0 0.13073975 -0.98100168 0.0 0.1524252 -0.97960567 0.0 0.15216349 -0.97542721 0.0 0.15133531 -0.96849686 0.0 0.14978169 -0.95887184 0.0 0.14716923 -0.94668603 0.0 0.14301626 -0.93221259 0.0 0.13701461 -0.91592979 0.0 0.12956598 -0.85165489 0.0 0.14553377 -0.85017228 0.0 0.14559172 -0.8457101 0.0 0.1456539 -0.83823246 0.0 0.14538811 -0.82772923 0.0 0.1442685 -0.81428641 0.0 0.14170218 -0.79817605 0.0 0.1373695 -0.77993327 0.0 0.13163939 -0.63083738 0.0 0.13854399 -0.62908977 0.0 0.13901627 -0.62381518 0.0 0.14026579 -0.61493856 0.0 0.14182557 -0.60241479 0.0 0.14302561 -0.58632928 0.0 0.14316918 -0.56699336 0.0 0.14178698 -0.54494917 0.0 0.13890357 -0.27332738 0.0 0.13426699 -0.27112278 0.0 0.1352295 -0.26448166 0.0 0.137916 -0.25335184 0.0 0.14176573 -0.23774421 0.0 0.14598273 -0.21783985 0.0 0.14968881 -0.19403958 0.0 0.15202895 -0.166805 0.0 0.15232053 0.25961906 0.0 0.13545579 0.26233172 0.0 0.13693109 0.27045679 0.0 0.14114116 0.28393385 0.0 0.14746606 0.30257314 0.0 0.15496841 0.32597938 0.0 0.16245727 0.35359761 0.0 0.16840756 0.38500714 0.0 0.17107786 0.97085124 0.0 0.14295968 0.9738012 0.0 0.14488842 0.98257083 0.0 0.15046072 0.99689525 0.0 0.15903287 1.0162847 0.0 0.16951367 1.0400223 0.0 0.18026254 1.0673041 0.0 0.18882224 1.0975951000000002 0.0 0.19212052 1.7993186 0.0 0.15392379 1.8018074 0.0 0.1561705 1.8091046999999998 0.0 0.16272585 1.8207166000000001 0.0 0.17296861 1.8358240000000001 0.0 0.18566725 1.853366 0.0 0.19865413 1.8722755000000002 0.0 0.20841071 1.8917481 0.0 0.21044047 2.6153564 0.0 0.1613847 2.6162967999999998 0.0 0.16381197 2.6189103 0.0 0.17095624 2.6225862999999996 0.0 0.18226533 2.6263522999999998 0.0 0.19641125 2.6289976000000004 0.0 0.21073648 2.6292992 0.0 0.22075908 2.6261461 0.0 0.22076742 3.2419367 0.0 0.15744311 3.2403948 0.0 0.16001339 3.2355912 0.0 0.1676082 3.2269945 0.0 0.17970821 3.2138109 0.0 0.19492929 3.1950996 0.0 0.21034814 3.1698630000000003 0.0 0.22098224 3.1370294 0.0 0.22052895 3.5652361000000004 0.0 0.14046828 3.5609672 0.0 0.14327919 3.548111 0.0 0.15156604 3.5265178999999995 0.0 0.16475198 3.4960437000000004 0.0 0.18139596 3.4565748999999997 0.0 0.19849849 3.4079409 0.0 0.21099274 3.3494766000000005 0.0 0.21257067 3.6390851000000004 0.0 0.11620905 3.6326112999999998 0.0 0.11944142 3.6133409 0.0 0.1289048 3.5817474999999996 0.0 0.14384618 3.5386534 0.0 0.16269691 3.4851574999999997 0.0 0.18239032 3.4222205000000003 0.0 0.19788723 3.349823 0.0 0.20307665 3.5697904 0.0 0.093695395 3.5621879 0.0 0.097509906 3.539767 0.0 0.10858069 3.5036727999999995 0.0 0.12585732 3.4557829 0.0 0.14751217 3.3984189 0.0 0.17026888 3.3336585 0.0 0.18896489 3.2620728 0.0 0.19757964 3.4402692000000004 0.0 0.081089139 3.4328396 0.0 0.085512795 3.4111304 0.0 0.098254792 3.3768246 0.0 0.11789642 3.3325896 0.0 0.14222078 3.2816388999999995 0.0 0.1675711 3.2267648999999996 0.0 0.18843642 3.1687803 0.0 0.19867119 3.2783611000000006 0.0 0.08282569099999999 3.2723145000000002 0.0 0.08768598699999999 3.2548277000000003 0.0 0.10161664 3.2278061 0.0 0.12287634 3.1942103 0.0 0.14882173 3.1575019 0.0 0.1753421 3.1205244 0.0 0.19646254 3.0838229999999998 0.0 0.20574059 3.0633876 0.0 0.09869273 3.0596089 0.0 0.10363057 3.0488622000000003 0.0 0.11775529 3.0328657999999997 0.0 0.13919543 3.0142450000000003 0.0 0.16503589 2.9959741 0.0 0.19080451 2.9802612999999996 0.0 0.21012551 2.9669459 0.0 0.21623148 2.7569399 0.0 0.12487298 2.7558937 0.0 0.1294301 2.7531502 0.0 0.14248823 2.7498586 0.0 0.16234075 2.7477546000000004 0.0 0.18615824 2.7486992000000003 0.0 0.20939416 2.7537971000000003 0.0 0.22549094 2.7620504 0.0 0.22744869 2.3398168 0.0 0.15617304 2.3415127 0.0 0.1599239 2.3467271 0.0 0.17075214 2.3558106 0.0 0.18742184 2.3692796 0.0 0.20762047 2.3875898999999996 0.0 0.22715081 2.4106169 0.0 0.23959707 2.4367620999999997 0.0 0.23786478 1.8378346 0.0 0.18794119 1.8417959 0.0 0.19061577 1.8535211 0.0 0.19848059 1.8725631999999999 0.0 0.21099669 1.8982476000000001 0.0 0.22671175 1.9297373 0.0 0.24216674 1.9659561 0.0 0.25140911 2.0052516 0.0 0.24737278 1.313361 0.0 0.21702693 1.3186877000000001 0.0 0.21856998 1.3343114 0.0 0.22332905 1.3592287 0.0 0.23154189 1.3919469 0.0 0.24276975 1.4308103 0.0 0.254504 1.4743378 0.0 0.26144338 1.5214558 0.0 0.25662932 0.83322459 0.0 0.24173443 0.83888626 0.0 0.24229591 0.8554495 0.0 0.24436225 0.8817004 0.0 0.24886145 0.91585416 0.0 0.25629708 0.95603096 0.0 0.26509297 1.0009396000000002 0.0 0.27060723 1.0505383 0.0 0.26602161 0.44345996 0.0 0.26113558 0.44864589 0.0 0.26101044 0.46381643 0.0 0.26117969 0.48785803 0.0 0.26303026 0.51914465 0.0 0.26773918 0.55605674 0.0 0.27444333 0.59783566 0.0 0.27902985 0.64554495 0.0 0.2748431 0.15853427 0.0 0.27475759 0.16283391 0.0 0.27428693 0.17544469 0.0 0.27346757 0.19554168 0.0 0.273835 0.22193088 0.0 0.27684754 0.25349066 0.0 0.28203017 0.29000986 0.0 0.28563553 0.33329511 0.0 0.28125501 -0.03335467 0.0 0.28259557 -0.029968823999999998 0.0 0.28207219 -0.019973928000000002 0.0 0.28102031 -0.0038357771000000003 0.0 0.28080022 0.017774371 0.0 0.2827532 0.044255242 0.0 0.28648707 0.075724214 0.0 0.28853416 0.11411764 0.0 0.28292876 -0.15703334 0.0 0.28518894 -0.15432605 0.0 0.28476495 -0.14624757 0.0 0.28385621 -0.13292649 0.0 0.28342041 -0.11456671 0.0 0.28438056 -0.091365725 0.0 0.28622398 -0.063160576 0.0 0.28580105 -0.028489467 0.0 0.27789459 -0.23751491 0.0 0.28334716 -0.23513828 0.0 0.28300074 -0.22795804 0.0 0.28216398 -0.21584198 0.0 0.28134078 -0.19865835 0.0 0.28089449 -0.17639309 0.0 0.28008494 -0.1490809 0.0 0.27625051 -0.11616044 0.0 0.26532602 -0.29198459 0.0 0.27770197 -0.28960687 0.0 0.27729937 -0.28235739 0.0 0.27616322 -0.26992857 0.0 0.27440831 -0.25201601 0.0 0.27188885 -0.22861828 0.0 0.26770446 -0.20016643 0.0 0.25989765 -0.1674286 0.0 0.2460296 -0.32826161 0.0 0.26847014 -0.32562828 0.0 0.267831 -0.31757072 0.0 0.26590744 -0.30371562 0.0 0.2625781 -0.28378135 0.0 0.25740635 -0.25800669 0.0 0.24956906 -0.22751871 0.0 0.23806134 -0.19525634 0.0 0.22254775 -0.34774351 0.0 0.25536233 -0.34469485 0.0 0.25434256 -0.33540076 0.0 0.25125378 -0.31957319 0.0 0.24593976 -0.29717773 0.0 0.23800562 -0.26905459 0.0 0.22706164 -0.23796652 0.0 0.2134314 -0.2088656 0.0 0.19854519 -0.34948206 0.0 0.23777288 -0.34599525 0.0 0.23634052 -0.33546507 0.0 0.23204876 -0.31788823 0.0 0.22490939 -0.29397035 0.0 0.21496834 -0.26603934 0.0 0.20271954 -0.23839684 0.0 0.18959819 -0.21631762 0.0 0.1775109 -0.33361417 0.0 0.21521668 -0.32988557 0.0 0.21350557 -0.3188999 0.0 0.20851132 -0.30143988 0.0 0.20065399 -0.27952531 0.0 0.19069605 -0.25652656 0.0 0.17979631 -0.23700605 0.0 0.16955735 -0.22468413 0.0 0.16143301 -0.30466884 0.0 0.18793315 -0.30135819 0.0 0.18634701 -0.29200035 0.0 0.18188365 -0.27829435 0.0 0.17536213 -0.26304752 0.0 0.16788331 -0.24967781 0.0 0.16054086 -0.24126753 0.0 0.15448692 -0.23805289 0.0 0.15045452 -0.27247503 0.0 0.15765798 -0.27046412 0.0 0.15674882 -0.26515958 0.0 0.1543075 -0.25863838 0.0 0.15108559 -0.25374642 0.0 0.14780635 -0.25221765 0.0 0.14519313 -0.25380501 0.0 0.14340803 -0.25252166 0.0 0.14299358 -0.24757433 0.0 0.12713103 -0.2474345 0.0 0.12725253 -0.24768488 0.0 0.12769911 -0.25026459 0.0 0.12860802 -0.25597411 0.0 0.13023652 -0.26289612 0.0 0.13238417 -0.26526204 0.0 0.1344732 -0.25185314 0.0 0.13522217 -0.23563343 0.0 0.09876083599999999 -0.2373433 0.0 0.09988593300000001 -0.24255158 0.0 0.10310503 -0.25168607 0.0 0.1081062 -0.26192245 0.0 0.11422951 -0.26423028 0.0 0.1209006 -0.25468621 0.0 0.1239207 -0.22236468 0.0 0.12437649 -0.23069496 0.0 0.07394567099999999 -0.23312981 0.0 0.075753085 -0.23986939 0.0 0.08105921 -0.24995105 0.0 0.088789985 -0.25521827 0.0 0.09782718900000001 -0.24430297 0.0 0.10663517 -0.22913465 0.0 0.10894197 -0.20102972 0.0 0.11573959 -0.22960871 0.0 0.053245138 -0.23249033 0.0 0.055271140999999996 -0.24047478 0.0 0.060695037 -0.2491972 0.0 0.068452641 -0.25576341 0.0 0.077175938 -0.24792403 0.0 0.088197589 -0.25753549 0.0 0.093947574 -0.26054609 0.0 0.036704328 -0.26371598 0.0 0.038654961 -0.27392495 0.0 0.043721015999999994 -0.29196829 0.0 0.049695835 -0.31480074 0.0 0.058227126 -0.16789921 0.0 0.005656484 -0.16179535 0.0 0.0054251836 -0.1531444 0.0 0.0045071039 -0.1412724 0.0 0.0025966177 -0.12568337 0.0 -0.00039424864000000003 -0.10640229 0.0 -0.0041490295 -0.08434853 0.0 -0.007791236500000001 -0.1935752 0.0 0.0072136521 -0.18700424 0.0 0.006874689399999999 -0.17758101 0.0 0.005697099000000001 -0.16447574 0.0 0.0033060156 -0.14703825 0.0 -0.00041901181 -0.12521684 0.0 -0.005125445300000001 -0.10001079 0.0 -0.0097996984 -0.07367393400000001 0.0 -0.012775806 -0.21206984 0.0 0.0082843592 -0.20550708 0.0 0.007831675 -0.19592784 0.0 0.0064694085 -0.1823391 0.0 0.0037698072999999997 -0.16389322 0.0 -0.00042858953 -0.14037272 0.0 -0.0057791467000000004 -0.11273272 0.0 -0.011224871 -0.083452463 0.0 -0.015012783 -0.22696845 0.0 0.008722624699999999 -0.22072436 0.0 0.008163129 -0.21138653 0.0 0.0067238463 -0.19779108 0.0 0.0039359313 -0.17885144 0.0 -0.0004219152 -0.154116 0.0 -0.0060613002000000004 -0.12445021 0.0 -0.011958121 -0.092553064 0.0 -0.016299691 -0.24159031 0.0 0.0085644228 -0.23582739 0.0 0.0079036457 -0.22694241 0.0 0.0064865304 -0.21359424 0.0 0.0038140658 -0.19443864 0.0 -0.00040944619 -0.16882727 0.0 -0.006000030799999999 -0.13749714 0.0 -0.012034715 -0.1031988 0.0 -0.016689207 -0.25819772 0.0 0.0079897046 -0.25299418 0.0 0.0072074374 -0.24467704 0.0 0.0058609075 -0.23178478 0.0 0.0034449839000000003 -0.21294709 0.0 -0.0004174714 -0.18736519 0.0 -0.0057024499 -0.15536788 0.0 -0.011661023000000001 -0.11924412 0.0 -0.016455695 -0.2777155 0.0 0.0072729536 -0.27312741 0.0 0.0063165152 -0.26555282 0.0 0.0050380575 -0.2537519 0.0 0.0029542992999999997 -0.23660521 0.0 -0.0004361295099999999 -0.21312904 0.0 -0.0053339908 -0.18281376 0.0 -0.011184906000000001 -0.1461564 0.0 -0.015979931 -0.29997849 0.0 0.006766662 -0.29607844 0.0 0.0055919075 -0.28970176 0.0 0.0043784678 -0.28021848 0.0 0.0026234183000000003 -0.26706192 0.0 -0.00037896656000000004 -0.24920635 0.0 -0.0050938716 -0.22478449 0.0 -0.011050638 -0.19051437 0.0 -0.01560958 -0.32443327 0.0 0.0069395914 -0.3213667 0.0 0.0055675698 -0.31680399 0.0 0.0044460781 -0.31106645 0.0 0.002926518 -0.30452713 0.0 -1.2927455999999999e-05 -0.29656404 0.0 -0.0050837249 -0.28400952 0.0 -0.011699467 -0.25798854 0.0 -0.015830915 -0.35089225 0.0 0.0083931908 -0.3487874 0.0 0.006944428199999999 -0.3464652 0.0 0.0059823701 -0.34533608 0.0 0.0045643058000000005 -0.34702626 0.0 0.0011796502 -0.35194933 0.0 -0.0052162171 -0.35678899 0.0 -0.013876845 -0.34817266 0.0 -0.019387331 -0.37934849 0.0 0.01177821 -0.37817594 0.0 0.010475122 -0.37800252 0.0 0.0098220743 -0.38113859 0.0 0.008444461 -0.3903268 0.0 0.0040820776 -0.40728757 0.0 -0.0052175745 -0.43000114 0.0 -0.018909354 -0.4455328 0.0 -0.031830236 -0.40970173 0.0 0.01760415 -0.40922013 0.0 0.016732611 -0.41053402 0.0 0.016645545 -0.41635427 0.0 0.015468735 -0.42989731 0.0 0.0098949522 -0.45350364 0.0 -0.0033969990999999995 -0.48615691 0.0 -0.023212494 -0.51451916 0.0 -0.040054999 -0.44181755 0.0 0.026019415 -0.44162607 0.0 0.025825058999999997 -0.44345507 0.0 0.026592683 -0.44984525 0.0 0.02617953 -0.46373793 0.0 0.020833097 -0.48720995 0.0 0.0083873253 -0.51867199 0.0 0.00073793717 -0.54559851 0.0 0.0086441413 -0.47555339 0.0 0.036680099 -0.47518605 0.0 0.037208371000000004 -0.47659805 0.0 0.038931318 -0.48177978 0.0 0.039993539 -0.49300197 0.0 0.037795529 -0.51181376 0.0 0.033835944 -0.53690374 0.0 0.043389797 -0.55998421 0.0 0.061027464000000003 -0.51078063 0.0 0.04881065 -0.509758 0.0 0.049820993 -0.51005507 0.0 0.052203140999999995 -0.51298594 0.0 0.054812312 -0.52009034 0.0 0.05658283099999999 -0.53249049 0.0 0.060711462 -0.54976016 0.0 0.074883953 -0.567734 0.0 0.08927434699999999 -0.54743236 0.0 0.061433114000000004 -0.54527235 0.0 0.062460035 -0.54397255 0.0 0.064838491 -0.54426229 0.0 0.06810624900000001 -0.54704678 0.0 0.07218764 -0.55304575 0.0 0.079668351 -0.56238395 0.0 0.090445459 -0.57370436 0.0 0.097903103 -0.58552778 0.0 0.073661342 -0.58179194 0.0 0.074194103 -0.57851899 0.0 0.075868644 -0.57611054 0.0 0.07861004 -0.5750441 0.0 0.082741983 -0.57572234 0.0 0.08975114699999999 -0.5783031 0.0 0.09647799300000001 -0.58255869 0.0 0.09828913199999999 -0.62514138 0.0 0.08490628 -0.61955237 0.0 0.08453729 -0.6140005 0.0 0.08505119400000001 -0.60887259 0.0 0.08653581099999999 -0.60450345 0.0 0.08932326 -0.60115176 0.0 0.09416797 -0.59893298 0.0 0.097480074 -0.5978421 0.0 0.095819719 -0.66634363 0.0 0.09492117900000001 -0.65879995 0.0 0.093444951 -0.65086794 0.0 0.09261903199999999 -0.6429885 0.0 0.09265244 -0.63561654 0.0 0.093802489 -0.62908155 0.0 0.096417382 -0.62356108 0.0 0.09761507800000001 -0.61916345 0.0 0.09405618199999999 -0.70914471 0.0 0.10371048 -0.69967258 0.0 0.10113054 -0.68944365 0.0 0.09903056199999999 -0.67895025 0.0 0.097720221 -0.66878915 0.0 0.09749969800000001 -0.6594637 0.0 0.09859723599999999 -0.65130579 0.0 0.098699488 -0.64453197 0.0 0.09426171300000001 -0.75346655 0.0 0.11137289 -0.74216384 0.0 0.10784334 -0.72981465 0.0 0.10469448 -0.71695989 0.0 0.10234288 -0.70433027 0.0 0.10119443 -0.69258732 0.0 0.10150679 -0.68220186 0.0 0.10112855 -0.67347473 0.0 0.096094631 -0.79911661 0.0 0.11795068 -0.7861262 0.0 0.11369891 -0.77187711 0.0 0.10979426 -0.75696683 0.0 0.10678412 -0.74224305 0.0 0.10524282 -0.72849905 0.0 0.10540607 -0.71631467 0.0 0.1049073 -0.70606065 0.0 0.098948397 -0.845662 0.0 0.12334386 -0.83117664 0.0 0.11859327 -0.81530058 0.0 0.11422143 -0.7987048 0.0 0.11093723 -0.78233516 0.0 0.10954753 -0.76708037 0.0 0.1102365 -0.75359255 0.0 0.10983313 -0.74229532 0.0 0.10262198 -0.89207458 0.0 0.12730999 -0.87634921 0.0 0.12221225 -0.85921246 0.0 0.11760937 -0.8414216 0.0 0.11436952 -0.82399786 0.0 0.1135993 -0.80788219 0.0 0.11556657 -0.79375529 0.0 0.11564373 -0.78206104 0.0 0.10709007 -0.93611175 0.0 0.12954909 -0.91946864 0.0 0.12413508 -0.90155315 0.0 0.11945221 -0.88321435 0.0 0.11648462 -0.86552095 0.0 0.11654864 -0.84941459 0.0 0.12050752 -0.83554673 0.0 0.12188004 -0.82432985 0.0 0.11225922 -0.97360599 0.0 0.12984838 -0.95642614 0.0 0.12403171 -0.9383142 0.0 0.11933942 -0.9202041 0.0 0.11676871 -0.9031707 0.0 0.11754119 -0.88810509 0.0 0.1237819 -0.87556511 0.0 0.1277494 -0.86584878 0.0 0.11790559 -0.99804461 0.0 0.1282749 -0.98073423 0.0 0.12195174 -0.96301967 0.0 0.11730476 -0.94589657 0.0 0.11521018 -0.93040341 0.0 0.11619186 -0.9173429 0.0 0.1241433 -0.90712029 0.0 0.1319647 -0.89981925 0.0 0.1232723 -1.0007848 0.0 0.12541305 -0.98368222 0.0 0.11866906 -0.96678317 0.0 0.11425679 -0.95110404 0.0 0.11268828 -0.93760204 0.0 0.11322237 -0.92697269 0.0 0.12075365 -0.9194631 0.0 0.13311091 -0.91490662 0.0 0.12707098 -0.97175354 0.0 0.1226094 -0.95486933 0.0 0.11591095 -0.93867785 0.0 0.11212326 -0.92409313 0.0 0.11117817 -0.91187149 0.0 0.11024638 -0.90265858 0.0 0.11423491 -0.89673012 0.0 0.13010252 -0.89382392 0.0 0.12788191 -0.89858484 0.0 0.12196141 -0.88110602 0.0 0.1160784 -0.86422747 0.0 0.1133346 -0.84842336 0.0 0.11299604 -0.8343327 0.0 0.10947582 -0.82292724 0.0 0.10688446 -0.81495583 0.0 0.12286326 -0.81041288 0.0 0.12452186 -0.76031846 0.0 0.12568077 -0.73993909 0.0 0.12121709 -0.71878821 0.0 0.11943757 -0.69692504 0.0 0.11866974 -0.67538029 0.0 0.1116358 -0.65596521 0.0 0.10155304 -0.64023119 0.0 0.11437317 -0.62859154 0.0 0.11854432 -0.52067316 0.0 0.13521002 -0.49395633 0.0 0.13198717 -0.46394771 0.0 0.12991036 -0.4307372 0.0 0.12674002 -0.39621887 0.0 0.11505178 -0.36315712 0.0 0.10100893 -0.33383897 0.0 0.1091436 -0.30910978 0.0 0.11962788 -0.13611989 0.0 0.15046142 -0.10086688 0.0 0.14710158 -0.059763156 0.0 0.14237864 -0.013266571000000001 0.0 0.1341079 0.036098592 0.0 0.11989459 0.085052587 0.0 0.11202905 0.13094765 0.0 0.11822413 0.17259786 0.0 0.13785499 0.42061126 0.0 0.16933766 0.46201137 0.0 0.16321449 0.51046598 0.0 0.152907 0.56537175 0.0 0.13952614 0.62448126 0.0 0.13306715 0.68488443 0.0 0.13821223 0.74424243 0.0 0.14002924 0.80041778 0.0 0.16871469 1.1312588 0.0 0.18787473 1.1696636999999999 0.0 0.17592598 1.2137611000000001 0.0 0.15827239 1.2635998 0.0 0.14292014 1.3184153 0.0 0.14687899 1.3766906 0.0 0.15011671 1.4370466 0.0 0.14755587 1.4952313999999998 0.0 0.2055583 1.9115744 0.0 0.2013364 1.9322267 0.0 0.18187423 1.9543294999999998 0.0 0.15954988 1.9790696 0.0 0.14923055 2.0077865000000004 0.0 0.15353321 2.0412616999999997 0.0 0.14323863 2.0792353 0.0 0.12264761 2.1154165000000003 0.0 0.18593775 2.6186087000000002 0.0 0.20657589 2.6059854 0.0 0.18140562 2.588346 0.0 0.15723422 2.5676267000000004 0.0 0.14470525 2.5477152000000003 0.0 0.13999711 2.531142 0.0 0.10604371 2.5164902000000002 0.0 0.09118592 2.5004714 0.0 0.15831186 3.0951545 0.0 0.20457941 3.0422986 0.0 0.17641185 2.9775843999999996 0.0 0.14769721 2.9030383 0.0 0.12719725 2.8228655 0.0 0.1109089 2.7418237000000003 0.0 0.07975678900000001 2.6642648999999996 0.0 0.07432193299999999 2.5952990000000002 0.0 0.20932397 3.2793004999999997 0.0 0.1991142 3.1942522999999996 0.0 0.17328474 3.0924811 0.0 0.14499526 2.9758241 0.0 0.12040226 2.8496206 0.0 0.09428305199999999 2.7213893 0.0 0.072140045 2.5996447 0.0 0.072198197 2.4939052999999998 0.0 0.30113822 3.2658329 0.0 0.19427595 3.1659447999999997 0.0 0.17365377 3.0471517999999995 0.0 0.14837037 2.9108045 0.0 0.12452816 2.7628767000000005 0.0 0.09420058099999999 2.6122897000000003 0.0 0.093818061 2.4693606 0.0 0.089919463 2.3444927000000004 0.0 0.35794494 3.1812606 0.0 0.19276273 3.0856981 0.0 0.17661019 2.9706402 0.0 0.15496272 2.8361838 0.0 0.13434796 2.6880527 0.0 0.10974885 2.5355923 0.0 0.11102905 2.3894808 0.0 0.1042385 2.2595513 0.0 0.38609475 3.1048207000000003 0.0 0.19508094 3.0279960999999997 0.0 0.1801153 2.9314394 0.0 0.16020332 2.8132898999999996 0.0 0.14479777 2.6784699 0.0 0.12445699 2.5363717 0.0 0.10785122 2.3977675 0.0 0.10275429 2.27212 0.0 0.38850585 3.0438414000000003 0.0 0.19999824 2.9924574 0.0 0.1823009 2.9208665000000003 0.0 0.16077368 2.8253009 0.0 0.14537828 2.7096487999999996 0.0 0.12383473 2.5832374 0.0 0.09403888099999999 2.4571137000000003 0.0 0.09122201099999999 2.341022 0.0 0.36974156 2.9517583999999997 0.0 0.20586067 2.9258472999999996 0.0 0.18272676 2.8794062 0.0 0.15685937 2.8074489 0.0 0.13735694 2.7129548 0.0 0.11315025 2.6048689 0.0 0.079202279 2.4942086 0.0 0.075466946 2.391046 0.0 0.33515003 2.768847 0.0 0.21180962 2.765542 0.0 0.1826999 2.7425592 0.0 0.15155093 2.6946697 0.0 0.1269875 2.6240313 0.0 0.10221425 2.5384772 0.0 0.068807036 2.4479361 0.0 0.064136498 2.3620193 0.0 0.29175326 2.4618453999999996 0.0 0.2181243 2.4786847 0.0 0.18439935 2.4792833 0.0 0.14867911 2.4588647 0.0 0.11957206 2.4182312 0.0 0.092867613 2.3627586 0.0 0.065517724 2.3001668 0.0 0.064389519 2.2384567000000004 0.0 0.2482816 2.0447764 0.0 0.22566152 2.0800562 0.0 0.18952441 2.1059062 0.0 0.15039629 2.1185007000000002 0.0 0.11629303 2.1161816000000004 0.0 0.08586776300000001 2.1000973999999997 0.0 0.064163476 2.074609 0.0 0.078860708 2.0452054 0.0 0.21836051 1.5713725 0.0 0.23497999 1.6230855 0.0 0.19845279 1.6746393 0.0 0.15760821 1.7229275000000002 0.0 0.1192966 1.764182 0.0 0.084487133 1.7946198 0.0 0.07595665 1.8133091000000001 0.0 0.09234247400000001 1.8224316000000003 0.0 0.19472286 1.1063448 0.0 0.24559382 1.1708266 0.0 0.20991263 1.2451675 0.0 0.16876672 1.3270886 0.0 0.12949692 1.4108148999999999 0.0 0.091627687 1.4886308000000001 0.0 0.089502536 1.5533707 0.0 0.098009884 1.6024697 0.0 0.17146993 0.70267767 0.0 0.2557027 0.77451938 0.0 0.22121395 0.86477852 0.0 0.18055549 0.97243875 0.0 0.14405181 1.0909355 0.0 0.1072507 1.2088809999999999 0.0 0.095915087 1.3136089 0.0 0.099743061 1.3969536 0.0 0.1555011 0.38802922 0.0 0.26266518 0.46118489 0.0 0.22901039 0.55809504 0.0 0.18892641 0.67924029 0.0 0.15517305 0.81902725 0.0 0.12456246 0.96477365 0.0 0.10073885 1.0965468999999999 0.0 0.1018452 1.2010062 0.0 0.14910345 0.16427913 0.0 0.26389626 0.23334493 0.0 0.23089138 0.32720885 0.0 0.19224621 0.4482528 0.0 0.16098149 0.59349585 0.0 0.13598369 0.75251824 0.0 0.11334544 0.89828885 0.0 0.09923070699999999 1.006686 0.0 0.15237556 0.016525166 0.0 0.25778601 0.07751685400000001 0.0 0.22597435 0.16018325 0.0 0.1903504 0.26907849 0.0 0.16196661 0.40507752 0.0 0.13972495 0.56260872 0.0 0.1196288 0.71840614 0.0 0.093783431 0.82051182 0.0 0.16989343 -0.075905465 0.0 0.24435972 -0.025309322000000002 0.0 0.21521747 0.041041985 0.0 0.18492544 0.12988421 0.0 0.16134207 0.24576281 0.0 0.14019586 0.38939112 0.0 0.11753758 0.54745358 0.0 0.085911721 0.67868352 0.0 0.11219795 -0.13181056 0.0 0.22546884 -0.09270913900000001 0.0 0.20092572 -0.044581067 0.0 0.17777812 0.021163214 0.0 0.16020866 0.11142105 0.0 0.13761188 0.23217005 0.0 0.11069369 0.38580811 0.0 0.08877837699999999 0.5225839 0.0 0.081741713 -0.16521606 0.0 0.20426297 -0.13786723 0.0 0.18580803 -0.10684383 0.0 0.17075026 -0.062692493 0.0 0.15701495 0.0023806859 0.0 0.13085008 0.09960472599999999 0.0 0.11143573 0.24387972 0.0 0.09890118199999999 -0.18633939 0.0 0.1842165 -0.16995783 0.0 0.1723302 -0.15230694 0.0 0.16402957 -0.12484866 0.0 0.14967436 -0.07831777599999999 0.0 0.12222224 0.0059155799 0.0 0.11624685 0.13059354 0.0 0.10819621 -0.20278521 0.0 0.16785757 -0.19482285 0.0 0.1619574 -0.18482421 0.0 0.15622672 -0.16679959 0.0 0.13483047 -0.12430411 0.0 0.11749561 -0.039006766 0.0 0.12109652 -0.21924628 0.0 0.15638271 -0.21460177 0.0 0.15377088 -0.20458987 0.0 0.14361095 -0.18585816 0.0 0.11560843 -0.1297586 0.0 0.11487561 -0.055462915 0.0 0.1232231 -0.2353607 0.0 0.14837822 -0.22550766 0.0 0.14363928 -0.20487395 0.0 0.12555249 -0.17212509 0.0 0.10708354 -0.10435715 0.0 0.12348178 -0.24258053 0.0 0.13978256 -0.21685097 0.0 0.12897474 -0.17145762 0.0 0.11725519 -0.13094713 0.0 0.11602207 -0.22634864 0.0 0.12678242 -0.17911778 0.0 0.12174554 -0.12382765 0.0 0.12734881 -0.15863782 0.0 0.13087572 -0.18975154 0.0 0.12029705 -0.15723543 0.0 0.1307458 -0.21009561 0.0 0.12070514 
Force 3 2975 float
0.0 0.0 0.0 0.0 0.0 0.0 0.0 0.0 0.0 0.0 0.0 0.0 0.0 0.0 0.0 0.0 0.0 0.0 0.0 0.0 0.0 0.0 0.0 0.0 0.0 0.0 0.0 0.0 0.0 0.0 0.0 0.0 0.0 0.0 0.0 0.0 0.0 0.0 0.0 0.0 0.0 0.0 0.0 0.0 0.0 0.0 0.0 0.0 0.0 0.0 0.0 0.0 0.0 0.0 0.0 0.0 0.0 0.0 0.0 0.0 0.0 0.0 0.0 0.0 0.0 0.0 0.0 0.0 0.0 0.0 0.0 0.0 0.0 0.0 0.0 0.0 0.0 0.0 0.0 0.0 0.0 0.0 0.0 0.0 0.0 0.0 0.0 0.0 0.0 0.0 0.0 0.0 0.0 0.0 0.0 0.0 0.0 0.0 0.0 0.0 0.0 0.0 0.0 0.0 0.0 0.0 0.0 0.0 0.0 0.0 0.0 0.0 0.0 0.0 0.0 0.0 0.0 0.0 0.0 0.0 0.0 0.0 0.0 0.0 0.0 0.0 0.0 0.0 0.0 0.0 0.0 0.0 0.0 0.0 0.0 0.0 0.0 0.0 0.0 0.0 0.0 0.0 0.0 0.0 0.0 0.0 0.0 0.0 0.0 0.0 0.0 0.0 0.0 0.0 0.0 0.0 0.0 0.0 0.0 0.0 0.0 0.0 0.0 0.0 0.0 0.0 0.0 0.0 0.0 0.0 0.0 0.0 0.0 0.0 0.0 0.0 0.0 0.0 0.0 0.0 0.0 0.0 0.0 0.0 0.0 0.0 0.0 0.0 0.0 0.0 0.0 0.0 0.0 0.0 0.0 0.0 0.0 0.0 0.0 0.0 0.0 0.0 0.0 0.0 0.0 0.0 0.0 0.0 0.0 0.0 0.0 0.0 0.0 0.0 0.0 0.0 0.0 0.0 0.0 0.0 0.0 0.0 0.0 0.0 0.0 0.0 0.0 0.0 0.0 0.0 0.0 0.0 0.0 0.0 0.0 0.0 0.0 0.0 0.0 0.0 0.0 0.0 0.0 0.0 0.0 0.0 0.0 0.0 0.0 0.0 0.0 0.0 0.0 0.0 0.0 0.0 0.0 0.0 0.0 0.0 0.0 0.0 0.0 0.0 0.0 0.0 0.0 0.0 0.0 0.0 0.0 0.0 0.0 0.0 0.0 0.0 0.0 0.0 0.0 0.0 0.0 0.0 0.0 0.0 0.0 0.0 0.0 0.0 0.0 0.0 0.0 0.0 0.0 0.0 0.0 0.0 0.0 0.0 0.0 0.0 0.0 0.0 0.0 0.0 0.0 0.0 0.0 0.0 0.0 0.0 0.0 0.0 0.0 0.0 0.0 0.0 0.0 0.0 0.0 0.0 0.0 0.0 0.0 0.0 0.0 0.0 0.0 0.0 0.0 0.0 0.0 0.0 0.0 0.0 0.0 0.0 0.0 0.0 0.0 0.0 0.0 0.0 0.0 0.0 0.0 0.0 0.0 0.0 0.0 0.0 0.0 0.0 0.0 0.0 0.0 0.0 0.0 0.0 0.0 0.0 0.0 0.0 0.0 0.0 0.0 0.0 0.0 0.0 0.0 0.0 0.0 0.0 0.0 0.0 0.0 0.0 0.0 0.0 0.0 0.0 0.0 0.0 0.0 0.0 0.0 0.0 0.0 0.0 0.0 0.0 0.0 0.0 0.0 0.0 0.0 0.0 0.0 0.0 0.0 0.0 0.0 0.0 0.0 0.0 0.0 0.0 0.0 0.0 0.0 0.0 0.0 0.0 0.0 0.0 0.0 0.0 0.0 0.0 0.0 0.0 0.0 0.0 0.0 0.0 0.0 0.0 0.0 0.0 0.0 0.0 0.0 0.0 0.0 0.0 0.0 0.0 0.0 0.0 0.0 0.0 0.0 0.0 0.0 0.0 0.0 0.0 0.0 0.0 0.0 0.0 0.0 0.0 0.0 0.0 0.0 0.0 0.0 0.0 0.0 0.0 0.0 0.0 0.0 0.0 0.0 0.0 0.0 0.0 0.0 0.0 0.0 0.0 0.0 0.0 0.0 0.0 0.0 0.0 0.0 0.0 0.0 0.0 0.0 0.0 0.0 0.0 0.0 0.0 0.0 0.0 0.0 0.0 0.0 0.0 0.0 0.0 0.0 0.0 0.0 0.0 0.0 0.0 0.0 0.0 0.0 0.0 0.0 0.0 0.0 0.0 0.0 0.0 0.0 0.0 0.0 0.0 0.0 0.0 0.0 0.0 0.0 0.0 0.0 0.0 0.0 0.0 0.0 0.0 0.0 0.0 0.0 0.0 0.0 0.0 0.0 0.0 0.0 0.0 0.0 0.0 0.0 0.0 0.0 0.0 0.0 0.0 0.0 0.0 0.0 0.0 0.0 0.0 0.0 0.0 0.0 0.0 0.0 0.0 0.0 0.0 0.0 0.0 0.0 0.0 0.0 0.0 0.0 0.0 0.0 0.0 0.0 0.0 0.0 0.0 0.0 0.0 0.0 0.0 0.0 0.0 0.0 0.0 0.0 0.0 0.0 0.0 0.0 0.0 0.0 0.0 0.0 0.0 0.0 0.0 0.0 0.0 0.0 0.0 0.0 0.0 0.0 0.0 0.0 0.0 0.0 0.0 0.0 0.0 0.0 0.0 0.0 0.0 0.0 0.0 0.0 0.0 0.0 0.0 0.0 0.0 0.0 0.0 0.0 0.0 0.0 0.0 0.0 0.0 0.0 0.0 0.0 0.0 0.0 0.0 0.0 0.0 0.0 0.0 0.0 0.0 0.0 0.0 0.0 0.0 0.0 0.0 0.0 0.0 0.0 0.0 0.0 0.0 0.0 0.0 0.0 0.0 0.0 0.0 0.0 0.0 0.0 0.0 0.0 0.0 0.0 0.0 0.0 0.0 0.0 0.0 0.0 0.0 0.0 0.0 0.0 0.0 0.0 0.0 0.0 0.0 0.0 0.0 0.0 0.0 0.0 0.0 0.0 0.0 0.0 0.0 0.0 0.0 0.0 0.0 0.0 0.0 0.0 0.0 0.0 0.0 0.0 0.0 0.0 0.0 0.0 0.0 0.0 0.0 0.0 0.0 0.0 0.0 0.0 0.0 0.0 0.0 0.0 0.0 0.0 0.0 0.0 0.0 0.0 0.0 0.0 0.0 0.0 0.0 0.0 0.0 0.0 0.0 0.0 0.0 0.0 0.0 0.0 0.0 0.0 0.0 0.0 0.0 0.0 0.0 0.0 0.0 0.0 0.0 0.0 0.0 0.0 0.0 0.0 0.0 0.0 0.0 0.0 0.0 0.0 0.0 0.0 0.0 0.0 0.0 0.0 0.0 0.0 0.0 0.0 0.0 0.0 0.0 0.0 0.0 0.0 0.0 0.0 0.0 0.0 0.0 0.0 0.0 0.0 0.0 0.0 0.0 0.0 0.0 0.0 0.0 0.0 0.0 0.0 0.0 0.0 0.0 0.0 0.0 0.0 0.0 0.0 0.0 0.0 0.0 0.0 0.0 0.0 0.0 0.0 0.0 0.0 0.0 0.0 0.0 0.0 0.0 0.0 0.0 0.0 0.0 0.0 0.0 0.0 0.0 0.0 0.0 0.0 0.0 0.0 0.0 0.0 0.0 0.0 0.0 0.0 0.0 0.0 0.0 0.0 0.0 0.0 0.0 0.0 0.0 0.0 0.0 0.0 0.0 0.0 0.0 0.0 0.0 0.0 0.0 0.0 0.0 0.0 0.0 0.0 0.0 0.0 0.0 0.0 0.0 0.0 0.0 0.0 0.0 0.0 0.0 0.0 0.0 0.0 0.0 0.0 0.0 0.0 0.0 0.0 0.0 0.0 0.0 0.0 0.0 0.0 0.0 0.0 0.0 0.0 0.0 0.0 0.0 0.0 0.0 0.0 0.0 0.0 0.0 0.0 0.0 0.0 0.0 0.0 0.0 0.0 0.0 0.0 0.0 0.0 0.0 0.0 0.0 0.0 0.0 0.0 0.0 0.0 0.0 0.0 0.0 0.0 0.0 0.0 0.0 0.0 0.0 0.0 0.0 0.0 0.0 0.0 0.0 0.0 0.0 0.0 0.0 0.0 0.0 0.0 0.0 0.0 0.0 0.0 0.0 0.0 0.0 0.0 0.0 0.0 0.0 0.0 0.0 0.0 0.0 0.0 0.0 0.0 0.0 0.0 0.0 0.0 0.0 0.0 0.0 0.0 0.0 0.0 0.0 0.0 0.0 0.0 0.0 0.0 0.0 0.0 0.0 0.0 0.0 0.0 0.0 0.0 0.0 0.0 0.0 0.0 0.0 0.0 0.0 0.0 0.0 0.0 0.0 0.0 0.0 0.0 0.0 0.0 0.0 0.0 0.0 0.0 0.0 0.0 0.0 0.0 0.0 0.0 0.0 0.0 0.0 0.0 0.0 0.0 0.0 0.0 0.0 0.0 0.0 0.0 0.0 0.0 0.0 0.0 0.0 0.0 0.0 0.0 0.0 0.0 0.0 0.0 0.0 0.0 0.0 0.0 0.0 0.0 0.0 0.0 0.0 0.0 0.0 0.0 0.0 0.0 0.0 0.0 0.0 0.0 0.0 0.0 0.0 0.0 0.0 0.0 0.0 0.0 0.0 0.0 0.0 0.0 0.0 0.0 0.0 0.0 0.0 0.0 0.0 0.0 0.0 0.0 0.0 0.0 0.0 0.0 0.0 0.0 0.0 0.0 0.0 0.0 0.0 0.0 0.0 0.0 0.0 0.0 0.0 0.0 0.0 0.0 0.0 0.0 0.0 0.0 0.0 0.0 0.0 0.0 0.0 0.0 0.0 0.0 0.0 0.0 0.0 0.0 0.0 0.0 0.0 0.0 0.0 0.0 0.0 0.0 0.0 0.0 0.0 0.0 0.0 0.0 0.0 0.0 0.0 0.0 0.0 0.0 0.0 0.0 0.0 0.0 0.0 0.0 0.0 0.0 0.0 0.0 0.0 0.0 0.0 0.0 0.0 0.0 0.0 0.0 0.0 0.0 0.0 0.0 0.0 0.0 0.0 0.0 0.0 0.0 0.0 0.0 0.0 0.0 0.0 0.0 0.0 0.0 0.0 0.0 0.0 0.0 0.0 0.0 0.0 0.0 0.0 0.0 0.0 0.0 0.0 0.0 0.0 0.0 0.0 0.0 0.0 0.0 0.0 0.0 0.0 0.0 0.0 0.0 0.0 0.0 0.0 0.0 0.0 0.0 0.0 0.0 0.0 0.0 0.0 0.0 0.0 0.0 0.0 0.0 0.0 0.0 0.0 0.0 0.0 0.0 0.0 0.0 0.0 0.0 0.0 0.0 0.0 0.0 0.0 0.0 0.0 0.0 0.0 0.0 0.0 0.0 0.0 0.0 0.0 0.0 0.0 0.0 0.0 0.0 0.0 0.0 0.0 0.0 0.0 0.0 0.0 0.0 0.0 0.0 0.0 0.0 0.0 0.0 0.0 0.0 0.0 0.0 0.0 0.0 0.0 0.0 0.0 0.0 0.0 0.0 0.0 0.0 0.0 0.0 0.0 0.0 0.0 0.0 0.0 0.0 0.0 0.0 0.0 0.0 0.0 0.0 0.0 0.0 0.0 0.0 0.0 0.0 0.0 0.0 0.0 0.0 0.0 0.0 0.0 0.0 0.0 0.0 0.0 0.0 0.0 0.0 0.0 0.0 0.0 0.0 0.0 0.0 0.0 0.0 0.0 0.0 0.0 0.0 0.0 0.0 0.0 0.0 0.0 0.0 0.0 0.0 0.0 0.0 0.0 0.0 0.0 0.0 0.0 0.0 0.0 0.0 0.0 0.0 0.0 0.0 0.0 0.0 0.0 0.0 0.0 0.0 0.0 0.0 0.0 0.0 0.0 0.0 0.0 0.0 0.0 0.0 0.0 0.0 0.0 0.0 0.0 0.0 0.0 0.0 0.0 0.0 0.0 0.0 0.0 0.0 0.0 0.0 0.0 0.0 0.0 0.0 0.0 0.0 0.0 0.0 0.0 0.0 0.0 0.0 0.0 0.0 0.0 0.0 0.0 0.0 0.0 0.0 0.0 0.0 0.0 0.0 0.0 0.0 0.0 0.0 0.0 0.0 0.0 0.0 0.0 0.0 0.0 0.0 0.0 0.0 0.0 0.0 0.0 0.0 0.0 0.0 0.0 0.0 0.0 0.0 0.0 0.0 0.0 0.0 0.0 0.0 0.0 0.0 0.0 0.0 0.0 0.0 0.0 0.0 0.0 0.0 0.0 0.0 0.0 0.0 0.0 0.0 0.0 0.0 0.0 0.0 0.0 0.0 0.0 0.0 0.0 0.0 0.0 0.0 0.0 0.0 0.0 0.0 0.0 0.0 0.0 0.0 0.0 0.0 0.0 0.0 0.0 0.0 0.0 0.0 0.0 0.0 0.0 0.0 0.0 0.0 0.0 0.0 0.0 0.0 0.0 0.0 0.0 0.0 0.0 0.0 0.0 0.0 0.0 0.0 0.0 0.0 0.0 0.0 0.0 0.0 0.0 0.0 0.0 0.0 0.0 0.0 0.0 0.0 0.0 0.0 0.0 0.0 0.0 0.0 0.0 0.0 0.0 0.0 0.0 0.0 0.0 0.0 0.0 0.0 0.0 0.0 0.0 0.0 0.0 0.0 0.0 0.0 0.0 0.0 0.0 0.0 0.0 0.0 0.0 0.0 0.0 0.0 0.0 0.0 0.0 0.0 0.0 0.0 0.0 0.0 0.0 0.0 0.0 0.0 0.0 0.0 0.0 0.0 0.0 0.0 0.0 0.0 0.0 0.0 0.0 0.0 0.0 0.0 0.0 0.0 0.0 0.0 0.0 0.0 0.0 0.0 0.0 0.0 0.0 0.0 0.0 0.0 0.0 0.0 0.0 0.0 0.0 0.0 0.0 0.0 0.0 0.0 0.0 0.0 0.0 0.0 0.0 0.0 0.0 0.0 0.0 0.0 0.0 0.0 0.0 0.0 0.0 0.0 0.0 0.0 0.0 0.0 0.0 0.0 0.0 0.0 0.0 0.0 0.0 0.0 0.0 0.0 0.0 0.0 0.0 0.0 0.0 0.0 0.0 0.0 0.0 0.0 0.0 0.0 0.0 0.0 0.0 0.0 0.0 0.0 0.0 0.0 0.0 0.0 0.0 0.0 0.0 0.0 0.0 0.0 0.0 0.0 0.0 0.0 0.0 0.0 0.0 0.0 0.0 0.0 0.0 0.0 0.0 0.0 0.0 0.0 0.0 0.0 0.0 0.0 0.0 0.0 0.0 0.0 0.0 0.0 0.0 0.0 0.0 0.0 0.0 0.0 0.0 0.0 0.0 0.0 0.0 0.0 0.0 0.0 0.0 0.0 0.0 0.0 0.0 0.0 0.0 0.0 0.0 0.0 0.0 0.0 0.0 0.0 0.0 0.0 0.0 0.0 0.0 0.0 0.0 0.0 0.0 0.0 0.0 0.0 0.0 0.0 0.0 0.0 0.0 0.0 0.0 0.0 0.0 0.0 0.0 0.0 0.0 0.0 0.0 0.0 0.0 0.0 0.0 0.0 0.0 0.0 0.0 0.0 0.0 0.0 0.0 0.0 0.0 0.0 0.0 0.0 0.0 0.0 0.0 0.0 0.0 0.0 0.0 0.0 0.0 0.0 0.0 0.0 0.0 0.0 0.0 0.0 0.0 0.0 0.0 0.0 0.0 0.0 0.0 0.0 0.0 0.0 0.0 0.0 0.0 0.0 0.0 0.0 0.0 0.0 0.0 0.0 0.0 0.0 0.0 0.0 0.0 0.0 0.0 0.0 0.0 0.0 0.0 0.0 0.0 0.0 0.0 0.0 0.0 0.0 0.0 0.0 0.0 0.0 0.0 0.0 0.0 0.0 0.0 0.0 0.0 0.0 0.0 0.0 0.0 0.0 0.0 0.0 0.0 0.0 0.0 0.0 0.0 0.0 0.0 0.0 0.0 0.0 0.0 0.0 0.0 0.0 0.0 0.0 0.0 0.0 0.0 0.0 0.0 0.0 0.0 0.0 0.0 0.0 0.0 0.0 0.0 0.0 0.0 0.0 0.0 0.0 0.0 0.0 0.0 0.0 0.0 0.0 0.0 0.0 0.0 0.0 0.0 0.0 0.0 0.0 0.0 0.0 0.0 0.0 0.0 0.0 0.0 0.0 0.0 0.0 0.0 0.0 0.0 0.0 0.0 0.0 0.0 0.0 0.0 0.0 0.0 0.0 0.0 0.0 0.0 0.0 0.0 0.0 0.0 0.0 0.0 0.0 0.0 0.0 0.0 0.0 0.0 0.0 0.0 0.0 0.0 0.0 0.0 0.0 0.0 0.0 0.0 0.0 0.0 0.0 0.0 0.0 0.0 0.0 0.0 0.0 0.0 0.0 0.0 0.0 0.0 0.0 0.0 0.0 0.0 0.0 0.0 0.0 0.0 0.0 0.0 0.0 0.0 0.0 0.0 0.0 0.0 0.0 0.0 0.0 0.0 0.0 0.0 0.0 0.0 0.0 0.0 0.0 0.0 0.0 0.0 0.0 0.0 0.0 0.0 0.0 0.0 0.0 0.0 0.0 0.0 0.0 0.0 0.0 0.0 0.0 0.0 0.0 0.0 0.0 0.0 0.0 0.0 0.0 0.0 0.0 0.0 0.0 0.0 0.0 0.0 0.0 0.0 0.0 0.0 0.0 0.0 0.0 0.0 0.0 0.0 0.0 0.0 0.0 0.0 0.0 0.0 0.0 0.0 0.0 0.0 0.0 0.0 0.0 0.0 0.0 0.0 0.0 0.0 0.0 0.0 0.0 0.0 0.0 0.0 0.0 0.0 0.0 0.0 0.0 0.0 0.0 0.0 0.0 0.0 0.0 0.0 0.0 0.0 0.0 0.0 0.0 0.0 0.0 0.0 0.0 0.0 0.0 0.0 0.0 0.0 0.0 0.0 0.0 0.0 0.0 0.0 0.0 0.0 0.0 0.0 0.0 0.0 0.0 0.0 0.0 0.0 0.0 0.0 0.0 0.0 0.0 0.0 0.0 0.0 0.0 0.0 0.0 0.0 0.0 0.0 0.0 0.0 0.0 0.0 0.0 0.0 0.0 0.0 0.0 0.0 0.0 0.0 0.0 0.0 0.0 0.0 0.0 0.0 0.0 0.0 0.0 0.0 0.0 0.0 0.0 0.0 0.0 0.0 0.0 0.0 0.0 0.0 0.0 0.0 0.0 0.0 0.0 0.0 0.0 0.0 0.0 0.0 0.0 0.0 0.0 0.0 0.0 0.0 0.0 0.0 0.0 0.0 0.0 0.0 0.0 0.0 0.0 0.0 0.0 0.0 0.0 0.0 0.0 0.0 0.0 0.0 0.0 0.0 0.0 0.0 0.0 0.0 0.0 0.0 0.0 0.0 0.0 0.0 0.0 0.0 0.0 0.0 0.0 0.0 0.0 0.0 0.0 0.0 0.0 0.0 0.0 0.0 0.0 0.0 0.0 0.0 0.0 0.0 0.0 0.0 0.0 0.0 0.0 0.0 0.0 0.0 0.0 0.0 0.0 0.0 0.0 0.0 0.0 0.0 0.0 0.0 0.0 0.0 0.0 0.0 0.0 0.0 0.0 0.0 0.0 0.0 0.0 0.0 0.0 0.0 0.0 0.0 0.0 0.0 0.0 0.0 0.0 0.0 0.0 0.0 0.0 0.0 0.0 0.0 0.0 0.0 0.0 0.0 0.0 0.0 0.0 0.0 0.0 0.0 0.0 0.0 0.0 0.0 0.0 0.0 0.0 0.0 0.0 0.0 0.0 0.0 0.0 0.0 0.0 0.0 0.0 0.0 0.0 0.0 0.0 0.0 0.0 0.0 0.0 0.0 0.0 0.0 0.0 0.0 0.0 0.0 0.0 0.0 0.0 0.0 0.0 0.0 0.0 0.0 0.0 0.0 0.0 0.0 0.0 0.0 0.0 0.0 0.0 0.0 0.0 0.0 0.0 0.0 0.0 0.0 0.0 0.0 0.0 0.0 0.0 0.0 0.0 0.0 0.0 0.0 0.0 0.0 0.0 0.0 0.0 0.0 0.0 0.0 0.0 0.0 0.0 0.0 0.0 0.0 0.0 0.0 0.0 0.0 0.0 0.0 0.0 0.0 0.0 0.0 0.0 0.0 0.0 0.0 0.0 0.0 0.0 0.0 0.0 0.0 0.0 0.0 0.0 0.0 0.0 0.0 0.0 0.0 0.0 0.0 0.0 0.0 0.0 0.0 0.0 0.0 0.0 0.0 0.0 0.0 0.0 0.0 0.0 0.0 0.0 0.0 0.0 0.0 0.0 0.0 0.0 0.0 0.0 0.0 0.0 0.0 0.0 0.0 0.0 0.0 0.0 0.0 0.0 0.0 0.0 0.0 0.0 0.0 0.0 0.0 0.0 0.0 0.0 0.0 0.0 0.0 0.0 0.0 0.0 0.0 0.0 0.0 0.0 0.0 0.0 0.0 0.0 0.0 0.0 0.0 0.0 0.0 0.0 0.0 0.0 0.0 0.0 0.0 0.0 0.0 0.0 0.0 0.0 0.0 0.0 0.0 0.0 0.0 0.0 0.0 0.0 0.0 0.0 0.0 0.0 0.0 0.0 0.0 0.0 0.0 0.0 0.0 0.0 0.0 0.0 0.0 0.0 0.0 0.0 0.0 0.0 0.0 0.0 0.0 0.0 0.0 0.0 0.0 0.0 0.0 0.0 0.0 0.0 0.0 0.0 0.0 0.0 0.0 0.0 0.0 0.0 0.0 0.0 0.0 0.0 0.0 0.0 0.0 0.0 0.0 0.0 0.0 0.0 0.0 0.0 0.0 0.0 0.0 0.0 0.0 0.0 0.0 0.0 0.0 0.0 0.0 0.0 0.0 0.0 0.0 0.0 0.0 0.0 0.0 0.0 0.0 0.0 0.0 0.0 0.0 0.0 0.0 0.0 0.0 0.0 0.0 0.0 0.0 0.0 0.0 0.0 0.0 0.0 0.0 0.0 0.0 0.0 0.0 0.0 0.0 0.0 0.0 0.0 0.0 0.0 0.0 0.0 0.0 0.0 0.0 0.0 0.0 0.0 0.0 0.0 0.0 0.0 0.0 0.0 0.0 0.0 0.0 0.0 0.0 0.0 0.0 0.0 0.0 0.0 0.0 0.0 0.0 0.0 0.0 0.0 0.0 0.0 0.0 0.0 0.0 0.0 0.0 0.0 0.0 0.0 0.0 0.0 0.0 0.0 0.0 0.0 0.0 0.0 0.0 0.0 0.0 0.0 0.0 0.0 0.0 0.0 0.0 0.0 0.0 0.0 0.0 0.0 0.0 0.0 0.0 0.0 0.0 0.0 0.0 0.0 0.0 0.0 0.0 0.0 0.0 0.0 0.0 0.0 0.0 0.0 0.0 0.0 0.0 0.0 0.0 0.0 0.0 0.0 0.0 0.0 0.0 0.0 0.0 0.0 0.0 0.0 0.0 0.0 0.0 0.0 0.0 0.0 0.0 0.0 0.0 0.0 0.0 0.0 0.0 0.0 0.0 0.0 0.0 0.0 0.0 0.0 0.0 0.0 0.0 0.0 0.0 0.0 0.0 0.0 0.0 0.0 0.0 0.0 0.0 0.0 0.0 0.0 0.0 0.0 0.0 0.0 0.0 0.0 0.0 0.0 0.0 0.0 0.0 0.0 0.0 0.0 0.0 0.0 0.0 0.0 0.0 0.0 0.0 0.0 0.0 0.0 0.0 0.0 0.0 0.0 0.0 0.0 0.0 0.0 0.0 0.0 0.0 0.0 0.0 0.0 0.0 0.0 0.0 0.0 0.0 0.0 0.0 0.0 0.0 0.0 0.0 0.0 0.0 0.0 0.0 0.0 0.0 0.0 0.0 0.0 0.0 0.0 0.0 0.0 0.0 0.0 0.0 0.0 0.0 0.0 0.0 0.0 0.0 0.0 0.0 0.0 0.0 0.0 0.0 0.0 0.0 0.0 0.0 0.0 0.0 0.0 0.0 0.0 0.0 0.0 0.0 0.0 0.0 0.0 0.0 0.0 0.0 0.0 0.0 0.0 0.0 0.0 0.0 0.0 0.0 0.0 0.0 0.0 0.0 0.0 0.0 0.0 0.0 0.0 0.0 0.0 0.0 0.0 0.0 0.0 0.0 0.0 0.0 0.0 0.0 0.0 0.0 0.0 0.0 0.0 0.0 0.0 0.0 0.0 0.0 0.0 0.0 0.0 0.0 0.0 0.0 0.0 0.0 0.0 0.0 0.0 0.0 0.0 0.0 0.0 0.0 0.0 0.0 0.0 0.0 0.0 0.0 0.0 0.0 0.0 0.0 0.0 0.0 0.0 0.0 0.0 0.0 0.0 0.0 0.0 0.0 0.0 0.0 0.0 0.0 0.0 0.0 0.0 0.0 0.0 0.0 0.0 0.0 0.0 0.0 0.0 0.0 0.0 0.0 0.0 0.0 0.0 0.0 0.0 0.0 0.0 0.0 0.0 0.0 0.0 0.0 0.0 0.0 0.0 0.0 0.0 0.0 0.0 0.0 0.0 0.0 0.0 0.0 0.0 0.0 0.0 0.0 0.0 0.0 0.0 0.0 0.0 0.0 0.0 0.0 0.0 0.0 0.0 0.0 0.0 0.0 0.0 0.0 0.0 0.0 0.0 0.0 0.0 0.0 0.0 0.0 0.0 0.0 0.0 0.0 0.0 0.0 0.0 0.0 0.0 0.0 0.0 0.0 0.0 0.0 0.0 0.0 0.0 0.0 0.0 0.0 0.0 0.0 0.0 0.0 0.0 0.0 0.0 0.0 0.0 0.0 0.0 0.0 0.0 0.0 0.0 0.0 0.0 0.0 0.0 0.0 0.0 0.0 0.0 0.0 0.0 0.0 0.0 0.0 0.0 0.0 0.0 0.0 0.0 0.0 0.0 0.0 0.0 0.0 0.0 0.0 0.0 0.0 0.0 0.0 0.0 0.0 0.0 0.0 0.0 0.0 0.0 0.0 0.0 0.0 0.0 0.0 0.0 0.0 0.0 0.0 0.0 0.0 0.0 0.0 0.0 0.0 0.0 0.0 0.0 0.0 0.0 0.0 0.0 0.0 0.0 0.0 0.0 0.0 0.0 0.0 0.0 0.0 0.0 0.0 0.0 0.0 0.0 0.0 0.0 0.0 0.0 0.0 0.0 0.0 0.0 0.0 0.0 0.0 0.0 0.0 0.0 0.0 0.0 0.0 0.0 0.0 0.0 0.0 0.0 0.0 0.0 0.0 0.0 0.0 0.0 0.0 0.0 0.0 0.0 0.0 0.0 0.0 0.0 0.0 0.0 0.0 0.0 0.0 0.0 0.0 0.0 0.0 0.0 0.0 0.0 0.0 0.0 0.0 0.0 0.0 0.0 0.0 0.0 0.0 0.0 0.0 0.0 0.0 0.0 0.0 0.0 0.0 0.0 0.0 0.0 0.0 0.0 0.0 0.0 0.0 0.0 0.0 0.0 0.0 0.0 0.0 0.0 0.0 0.0 0.0 0.0 0.0 0.0 0.0 0.0 0.0 0.0 0.0 0.0 0.0 0.0 0.0 0.0 0.0 0.0 0.0 0.0 -1.095896547397413 0.0 -0.45668929141723197 -1.2750915918772892 0.0 -0.42181817054545406 -1.425560035639 0.0 -0.3795209974880247 -1.554543358863583 0.0 -0.3356379603909488 -1.661910281547756 0.0 -0.2960547514013686 -1.027333465683336 0.0 -0.585253934631348 -1.339344073483601 0.0 -0.490167252254181 -1.5609505190237623 0.0 -0.45955277148881896 -1.7291748432293703 0.0 -0.421717450542936 -1.869780766744518 0.0 -0.3811672295291805 -1.989409689735241 0.0 -0.34283576857089404 -1.31568643289216 0.0 -0.5807430545185761 -1.67214244180356 0.0 -0.48590049214751196 -1.906099767652493 0.0 -0.44121001103025 -2.0802353320058824 0.0 -0.404467770111694 -2.2267242956681064 0.0 -0.37340899333522465 -2.358279458956985 0.0 -0.34193592854839805 -1.664668321616707 0.0 -0.551201253780031 -2.060847891521196 0.0 -0.44253237106330895 -2.292467937311697 0.0 -0.40224381005609505 -2.459692821492319 0.0 -0.3713955012848873 -2.6069260251731494 0.0 -0.3497073247426829 -2.749790628744764 0.0 -0.3248975361224382 -2.067497291687431 0.0 -0.5192039729800989 -2.5031548225788693 0.0 -0.39012528575313193 -2.730372668259315 0.0 -0.354277048856926 -2.8882328722058204 0.0 -0.3315788362894707 -3.035436515885911 0.0 -0.31889095997227385 -3.18882207972055 0.0 -0.302949007573725 -2.53203246330081 0.0 -0.4983810524595261 -3.012587795314693 0.0 -0.33502884837572106 -3.232563080814075 0.0 -0.2994373394859333 -3.3812088845302206 0.0 -0.28504047912601177 -3.5291169282279213 0.0 -0.2832586350814657 -3.692290572307262 0.0 -0.2774581749364542 -3.0649094366227336 0.0 -0.513626892840672 -3.5955472098886787 0.0 -0.2903488232587204 -3.8061696151542384 0.0 -0.2404861500121536 -3.9379059784476467 0.0 -0.2356161178904028 -4.085392102134801 0.0 -0.24359522608988052 -4.257874506446861 0.0 -0.24932943023323562 -3.678922371973057 0.0 -0.585637694640942 -4.25008690625217 0.0 -0.2781311109532776 -4.440106911002671 0.0 -0.1978054089451351 -4.54826931370673 0.0 -0.1965393129134827 -4.69315731732893 0.0 -0.20701351717533784 -4.87306532182663 0.0 -0.2239170135979252 -4.41884611047115 0.0 -0.6679184166979599 -4.9755989243899705 0.0 -0.2980949474523735 -5.116926927923171 0.0 -0.1926002568150063 -5.20258573006464 0.0 -0.18046951651173782 -5.33966733349168 0.0 -0.1925205288130131 -5.5268561381714 0.0 -0.20913496522837402 -5.40545653513641 0.0 -0.590786774769669 -5.79365094484127 0.0 -0.30697708767442705 -5.8428469460711705 0.0 -0.2147720373693008 -5.8956321473908 0.0 -0.1924106648102665 -6.02307335057683 0.0 -0.2051751171293778 -6.21072895526822 0.0 -0.22653580166339488 -6.72825016820625 0.0 -0.347518928687973 -6.74931256873281 0.0 -0.284893807122345 -6.64213256605331 0.0 -0.2446334901158371 -6.620936565523411 0.0 -0.24326401408160023 -6.73174616829365 0.0 -0.2517418942935472 -6.91867537296688 0.0 -0.2782173709554341 -8.081872602046811 0.0 -0.5311844132796101 -7.820240195506 0.0 -0.41632693040817303 -7.51971898799297 0.0 -0.3310134962753372 -7.410260985256519 0.0 -0.3157119838927994 -7.464179386604481 0.0 -0.3444556326113906 -7.641396591034911 0.0 -0.3707360372684007 -9.387715434692879 0.0 -1.715029962875748 -8.928376223209401 0.0 -1.1371093884277341 -8.463240211581 0.0 -0.680925017023125 -8.21110260527756 0.0 -0.535212133380303 -8.20823780520594 0.0 -0.5276489331912231 -8.37214380930359 0.0 -0.530166573254164 -10.94017347350433 0.0 -2.596357784908943 -10.15595345389883 0.0 -1.9103088877577212 -9.46759503668987 0.0 -1.2631588315789701 -9.04573902614347 0.0 -0.955520063888001 -8.9675042241876 0.0 -0.8139651403491279 -9.10426662760666 0.0 -0.768901379222534 -12.68752991718824 0.0 -3.1233158780828956 -11.51982588799564 0.0 -2.405129700128241 -10.51978866299471 0.0 -1.7890610047265243 -9.90740744768518 0.0 -1.391947394798684 -9.72460744311518 0.0 -1.177126149428153 -9.84092064602301 0.0 -1.054685826367145 -14.482562762064061 0.0 -3.502849647571239 -12.86985792174644 0.0 -2.730356268258905 -11.52833748820843 0.0 -2.185298014632449 -10.736944668423611 0.0 -1.77327924433198 -10.47041106176027 0.0 -1.521464558036613 -10.572704664317609 0.0 -1.359452953986323 -16.137779603444482 0.0 -3.8297631357440762 -14.103303952582591 0.0 -3.031032635775814 -12.479476311986902 0.0 -2.486399502159986 -11.529808288245201 0.0 -2.072429531810737 -11.194960279874001 0.0 -1.811031205275779 -11.296230682405762 0.0 -1.6230293605757329 -17.625859640646482 0.0 -4.13823130345578 -15.25503118137577 0.0 -3.290303122257576 -13.384846734621158 0.0 -2.723166148079152 -12.295079507376979 0.0 -2.2976702174417545 -11.90867949771698 0.0 -2.026985210674629 -12.00905430022635 0.0 -1.844963326124082 -19.018186075454643 0.0 -4.41894851047371 -16.3640844091021 0.0 -3.5195176079879382 -14.27209955680248 0.0 -2.90716367267909 -13.045332726133312 0.0 -2.463600421590009 -12.6070643151766 0.0 -2.1881106147027642 -12.714223917855591 0.0 -1.9950626898765662 -20.405078510126952 0.0 -4.64541331613533 -17.46835203670879 0.0 -3.7061070526526736 -15.1532243788306 0.0 -3.040105316002631 -13.78301714457542 0.0 -2.5842856246071393 -13.285144332128601 0.0 -2.303023377575583 -13.4046923351173 0.0 -2.092484892312121 -21.794368544859196 0.0 -4.82300732057518 -18.5700124642503 0.0 -3.835720935893021 -16.01822720045567 0.0 -3.14001567850039 -14.50434316260857 0.0 -2.6595301464882524 -13.950676348766901 0.0 -2.36446845911171 -14.078232351955801 0.0 -2.141977373549433 -23.17672337941807 0.0 -4.9272121231803006 -19.659428891485714 0.0 -3.899396617484913 -16.86186722154667 0.0 -3.1900849197521213 -15.202200780055012 0.0 -2.689413707235341 -14.59696996492424 0.0 -2.375083779377093 -14.73232756830818 0.0 -2.1399353734983833 -24.537543413438566 0.0 -4.94457372361434 -20.71725211793129 0.0 -3.897091777427292 -17.67379364184483 0.0 -3.1814381595359524 -15.86816599670414 0.0 -2.667129586678238 -15.217139180428468 0.0 -2.330530778263268 -15.3623003840575 0.0 -2.0829468120736694 -25.863473792685102 0.0 -4.8590205327716 -21.73596705676375 0.0 -3.810551922672541 -18.446687038931998 0.0 -3.098375980838604 -16.494266312015696 0.0 -2.5809926072202996 -15.801625908927328 0.0 -2.220004054496436 -15.963123100316 0.0 -1.9606839738324362 -27.154031009630486 0.0 -4.6521440854585805 -22.713970943377024 0.0 -3.620748286263456 -19.177774399544038 0.0 -2.9237333376361834 -17.079662617085397 0.0 -2.40530795440008 -16.35304839997296 0.0 -2.014212936554832 -16.529391159408 0.0 -1.764769587995667 -28.429292361253918 0.0 -4.30539949897092 -23.66207047376475 0.0 -3.3093245693703786 -19.872664339151402 0.0 -2.63466259090965 -17.636067808056 0.0 -2.0961204334416004 -16.871820620043238 0.0 -1.6908490435169068 -17.0635646351148 0.0 -1.473225025375884 -29.733464643776298 0.0 -3.80109285204242 -24.60282417275586 0.0 -2.8503816127520745 -20.5439486529264 0.0 -2.194811879935696 -18.168749819746 0.0 -1.624381830251457 -17.3565594230208 0.0 -1.242315086984864 -17.56736435271935 0.0 -1.0585266259954391 -31.113462529942918 0.0 -3.13364823468585 -25.556859029529743 0.0 -2.218171650677132 -21.20683065929162 0.0 -1.5629830251386962 -18.68200106804416 0.0 -0.977445255539472 -17.8144346869902 0.0 -0.641796315402092 -18.04932104457592 0.0 -0.4789884002992769 -32.59068807792579 0.0 -2.286195275016337 -26.52625230443832 0.0 -1.390981778087426 -21.856142776539258 0.0 -0.715233430811522 -19.164228563707606 0.0 -0.14157968816441668 -18.2366932593309 0.0 0.13488559109715959 -18.494176312449497 0.0 0.2630191885463883 -34.10848485903314 0.0 -1.2368755268923601 -27.47077713616544 0.0 -0.3589097207931136 -22.46001041757086 0.0 0.3640500937574137 -19.585181667318082 0.0 0.9007768657245601 -18.60234511057602 0.0 1.122325186378124 -18.87193805233308 0.0 1.172898213873815 -35.5341191891697 0.0 0.028843690567382105 -28.347913661202963 0.0 0.9061466030374559 -22.99079165525154 0.0 1.6804528166523511 -19.91604940901101 0.0 2.16358647083408 -18.8613266972832 0.0 2.273639675576165 -19.11700955068742 0.0 2.206897121828848 -36.811907274605105 0.0 1.442600634500916 -29.113432114366155 0.0 2.380467360880752 -23.470629192211717 0.0 3.1964532481259673 -20.16996255896475 0.0 3.58917834082776 -19.012862101832248 0.0 3.5829866087960998 -19.2420348099111 0.0 3.4088789400768302 -37.87714301053137 0.0 2.9905588266929626 -29.83518807146244 0.0 3.9345352035120356 -23.80968412976464 0.0 4.95956767715568 -20.37149724420528 0.0 5.24663067268528 -19.12319265577392 0.0 5.20654074615296 -19.31741814873408 0.0 4.88632592330782 -38.14463165911752 0.0 4.6352157430502405 -30.141816708501597 0.0 5.7007556987202 -24.1317476355307 0.0 6.7741459288706505 -20.578521307460928 0.0 7.240644357642389 -19.16301319558584 0.0 7.112345747635479 -19.2944514504981 0.0 6.6137049346672 -35.3451981738648 0.0 6.661445312232161 -29.443680383448243 0.0 7.6288394529110395 -23.79516891348138 0.0 8.88083828384889 -20.297205437560653 0.0 9.36804346513803 -19.01999893816848 0.0 9.30527128313696 -19.19703759441476 0.0 8.73089812213749 -23.754569049235048 0.0 8.742297257558219 -23.292976601604156 0.0 9.999009284643058 -21.30653361091892 0.0 11.29397034086724 -19.0105400710368 0.0 11.8012614763836 -17.88878267722651 0.0 11.440537003549691 -18.162390664400082 0.0 10.526083363629361 -12.303603577488621 0.0 11.100609288698012 -11.874166301556603 0.0 12.646232597239411 -11.650494791176559 0.0 14.28255698719344 -11.66894047874275 0.0 14.888850142284191 -12.049284023282251 0.0 15.07989685379112 -12.890346029431399 0.0 14.5564073086108 -6.55387151813566 0.0 12.725863938962393 -5.8811117499928 0.0 14.21350920497604 -5.4239921808761 0.0 16.68105974053076 -5.3066607060624 0.0 17.48874720624852 -5.507892238301999 0.0 17.6735755696797 -6.09045886652616 0.0 17.487869058245604 -5.161514450456081 0.0 14.407111824681728 -4.39967050291692 0.0 14.906607913596421 -3.7741690622569206 0.0 18.7031566864749 -3.4300646216479502 0.0 20.05978902701475 -3.4121772951343896 0.0 20.19373174108665 -3.6981967819989627 0.0 19.34508626213817 -5.0885332194256 0.0 15.910126076198399 -4.456501201831 0.0 15.3490099705425 -3.9046954434390213 0.0 20.17331648093096 -3.53034516813264 0.0 22.2248058843096 -3.370580939911572 0.0 22.03550892643788 -3.404296306494147 0.0 20.38638920614371 -3.713080204542375 0.0 16.811081539963016 -3.4076648890536 0.0 15.9758402286735 -3.15523906006516 0.0 21.129291932585996 -2.9806939609627157 0.0 23.13526369219228 -2.8875376790701957 0.0 22.51977339675808 -2.860148003544216 0.0 21.04601773032003 0.01223222861075373 0.0 17.14098089153313 -0.1134985540075016 0.0 16.33132294666776 -0.2880078004877632 0.0 21.672676768317338 -0.47899198032036205 0.0 23.08066063552916 -0.65069149217457 0.0 22.31333890490747 -0.7802956047426539 0.0 20.6043446284515 5.47532872902904 0.0 16.8954890975248 4.93178700702996 0.0 16.3676254499836 4.32913478656072 0.0 21.292770020057922 3.7287960675638407 0.0 22.49144157542016 3.1898414063682448 0.0 21.968807156428138 2.7571790491816723 0.0 19.46950751238488 11.307195002605628 0.0 15.984662060790159 10.45129351542952 0.0 15.75288006963879 9.5217616168583 0.0 20.094123930561068 8.58207446303144 0.0 21.21797560719184 7.697742695077469 0.0 21.06639048280102 6.94242240062833 0.0 18.5772377963893 16.47652497053112 0.0 14.55028728926124 15.447289889609758 0.0 14.584982141770558 14.33598305927392 0.0 18.43258120348062 13.18892106577332 0.0 19.52102737996745 12.0313203284175 0.0 19.4081040404482 11.062152943512782 0.0 17.52514279131352 20.733908419561953 0.0 12.9198497664909 19.710814553542 0.0 13.126660163245441 18.48920147045666 0.0 16.412244820057218 17.152960158428503 0.0 17.34594684358872 15.867503121843269 0.0 17.572792197502892 14.9136410539149 0.0 16.17222871142676 24.47942690815934 0.0 11.085881684883 23.55794168416497 0.0 11.367922465633232 21.936170963831763 0.0 14.437899120937589 20.39869665317976 0.0 15.57773739001652 19.369521389559438 0.0 15.617863026323679 18.68631689898282 0.0 14.607422099628959 28.37516385398948 0.0 8.78710697879704 27.03108306575456 0.0 9.62854821209361 25.04888574035512 0.0 12.20542179675778 23.74247440139985 0.0 13.422434747037212 22.991237087120727 0.0 13.67104957222954 22.801585158671738 0.0 12.797515637262949 32.86415016136524 0.0 6.3629198700299705 30.803734269794905 0.0 8.09855275632081 28.2737859725793 0.0 9.88112019419775 27.239030101615924 0.0 11.280158622193651 26.926877559115535 0.0 11.844888010325372 27.0768616640634 0.0 10.737136457544839 37.84486454574744 0.0 4.2659362796956595 35.09900883019125 0.0 6.2346258791025 31.948298434638854 0.0 7.6789243729803 30.70375739800677 0.0 9.141316656026172 29.94774306085197 0.0 9.516997992601521 29.946606755346263 0.0 8.1632177271246 43.357185302688 0.0 2.24571201529104 39.77326142311938 0.0 4.24537208811989 36.11273541349305 0.0 5.742838058862841 33.4707490865718 0.0 6.936235694708521 31.920309610325372 0.0 7.084538156125171 31.820174887964043 0.0 5.96857387765482 49.596801578181 0.0 0.3049092499188758 44.736794278093 0.0 2.18480074076224 40.15024405733763 0.0 3.9306416440209 35.8445803913912 0.0 4.8115458604356 33.6195678718404 0.0 4.9142281156632 32.87095397011677 0.0 4.49344180230029 56.6249950708572 0.0 -1.5870254565748958 50.219502926593 0.0 0.68443219888351 43.549138730812004 0.0 2.3339985962081804 37.80975381264833 0.0 3.067741827934936 34.783005184147854 0.0 3.403642670257725 33.51739635883705 0.0 3.4376169518465836 64.981241573421 0.0 -2.39760705261064 55.647185449618014 0.0 -0.055931480303109 46.372920305485195 0.0 1.089171250689464 39.69163307338277 0.0 1.9136714066580833 35.79011741262609 0.0 2.326501779450615 34.13015821353888 0.0 2.530745772514848 71.9962508546208 0.0 -3.0274619716650055 60.5306794144275 0.0 -1.2394302340686718 49.77899498502 0.0 -0.0496999024786368 42.0503693263728 0.0 0.850140782417826 37.26021657607341 0.0 1.4627554442116097 34.96170418521102 0.0 1.7200858964328858 66.0690309841792 0.0 -2.4437022641581194 54.0718578091922 0.0 -1.14505761166156 45.1625105568912 0.0 -0.06275455507062361 39.41884719437567 0.0 0.627660404420832 36.20069563362771 0.0 1.006855833132369 71.9789191644105 0.0 -3.5194649355510808 59.39846531301541 0.0 -2.1849810344455474 49.33830293666609 0.0 -0.9597135435544019 42.3796801498452 0.0 -0.13528937569455088 38.06128841630346 0.0 0.3129352542212547 65.8757113320142 0.0 -3.026674174276524 54.702675410011 0.0 -1.77230655143381 46.254920373524406 0.0 -0.7237579174004429 40.747325810660996 0.0 -0.24027248334696127 72.8642839434316 0.0 -3.7984044166321964 61.3628536838723 0.0 -2.459531221580581 51.5289879818644 0.0 -1.28486040694872 44.55591599491841 0.0 -0.619859890586496 68.9065225212322 0.0 -3.136716769024174 58.2864141962677 0.0 -1.8270771614045838 49.858130945148794 0.0 -0.90740004784152 66.12178115752481 0.0 -2.424257050172526 56.868538364451105 0.0 -1.377023147050185 73.8554414177358 0.0 -3.379987188867654 65.10304246017661 0.0 -1.9560354277508432 -1.7487999237199972 0.0 -0.2601362305034056 -1.8160934854023358 0.0 -0.2242181816054544 -1.8650810866270258 0.0 -0.190468364761709 -1.898966247474155 0.0 -0.15948276798706912 -1.922155808053894 0.0 -0.1294715192367879 -1.9375549684388729 0.0 -0.10091698252292451 -1.947409888685246 0.0 -0.0742746738568668 -1.953394368834858 0.0 -0.048781109219527705 -1.9566292489157302 0.0 -0.02391763379794083 -2.0893662122341543 0.0 -0.3039601395990033 -2.1674667741866678 0.0 -0.2660695626517389 -2.22462085561552 0.0 -0.2298911137472777 -2.265252736631317 0.0 -0.1946840088671001 -2.2937599773439983 0.0 -0.15981054799526362 -2.313339297833481 0.0 -0.1257949871448746 -2.325991098149776 0.0 -0.09400494235012351 -2.334134738353367 0.0 -0.0619872575496814 -2.338623858465595 0.0 -0.03047745596193638 -2.4718804217970094 0.0 -0.3097070757426767 -2.562093424052334 0.0 -0.2773966389349158 -2.6297058657426455 0.0 -0.24346275808656878 -2.678964306974106 0.0 -0.20930729323268218 -2.714375387859383 0.0 -0.1737144283428606 -2.739160988479023 0.0 -0.13941824748545611 -2.7563408689085205 0.0 -0.1043128986078224 -2.767419509185486 0.0 -0.0693015297325382 -2.7736305893407627 0.0 -0.034307206457680144 -2.8770672719266797 0.0 -0.3005435075135875 -2.980890354522257 0.0 -0.272927886823197 -3.0596745164918606 0.0 -0.24331195808279882 -3.118199597954988 0.0 -0.2118752532968812 -3.1614830790370747 0.0 -0.1782479804561994 -3.192748719818716 0.0 -0.14420281960507042 -3.214876240371904 0.0 -0.1088182107204552 -3.2294716807367894 0.0 -0.0727735898193397 -3.237672120941801 0.0 -0.03678372291959305 -3.330664923266621 0.0 -0.2849538391238458 -3.4482628862065705 0.0 -0.2626681145667027 -3.5388001284700006 0.0 -0.2367347539183687 -3.6071934501798344 0.0 -0.20790446519761152 -3.6586106114652637 0.0 -0.1776136804403419 -3.696873572421837 0.0 -0.14463370361584252 -3.724366453109159 0.0 -0.1100278267506956 -3.742767053569174 0.0 -0.074490841862271 -3.753395173834877 0.0 -0.03750295733757391 -3.8488552962213802 0.0 -0.26614997865374934 -3.980383779509592 0.0 -0.2487551982188798 -4.08263170206579 0.0 -0.22668130966703262 -4.16084250402106 0.0 -0.20198047704951183 -4.22078650551966 0.0 -0.1737810643445265 -4.26614330665358 0.0 -0.1429449835736245 -4.29922890748072 0.0 -0.110011282750282 -4.32179130804478 0.0 -0.0745683458642086 -4.3349009083725205 0.0 -0.0376665929416648 -4.42848891071222 0.0 -0.24659546216488643 -4.57374931434373 0.0 -0.2348252818706319 -4.68763891719097 0.0 -0.21757557743938932 -4.77578651939466 0.0 -0.1961936289048406 -4.84431132110778 0.0 -0.1706649362666233 -4.89687492242187 0.0 -0.1419831075495776 -4.93588132339703 0.0 -0.1098284147457103 -4.9627441240686005 0.0 -0.07495048987376221 -4.97846452446161 0.0 -0.03799129214978229 -5.05717692642942 0.0 -0.23020704175517592 -5.21586373039659 0.0 -0.2258936936473422 -5.34125093353127 0.0 -0.21394718134867943 -5.439418535985459 0.0 -0.195799284894982 -5.516693737917341 0.0 -0.1724170483104261 -5.57679493941987 0.0 -0.1446609876165246 -5.621976940549421 0.0 -0.1126444348161108 -5.65341374133534 0.0 -0.07724848993121221 -5.67190494179762 0.0 -0.03933306738332666 -5.723098543077461 0.0 -0.22345080958627012 -5.894616547365411 0.0 -0.23077526576938154 -6.031968150799201 0.0 -0.2229996015749899 -6.14065295351632 0.0 -0.2070309931757747 -6.22727935568198 0.0 -0.18394046459851152 -6.295571757389291 0.0 -0.1550117158752928 -6.34734335868358 0.0 -0.12117973902949342 -6.38366095959152 0.0 -0.083262882081572 -6.40512616012815 0.0 -0.0425131970628299 -6.41745856043646 0.0 -0.2428301140707527 -6.60148856503721 0.0 -0.2551456743786417 -6.751216968780421 0.0 -0.2536552743413817 -6.8717921717948 0.0 -0.2368050619201264 -6.968964574224111 0.0 -0.2106358332658957 -7.04635777615894 0.0 -0.17750528443763203 -7.10551857763796 0.0 -0.13854372746359309 -7.14723457868086 0.0 -0.0950229063755726 -7.17202857930071 0.0 -0.048398281209957005 -7.1322321783058 0.0 -0.2975025234375629 -7.32809018320225 0.0 -0.3136075078401875 -7.492235787305891 0.0 -0.31131015578275373 -7.6264681906617 0.0 -0.28980184324504593 -7.736098593402461 0.0 -0.2561225944030647 -7.8239161955979 0.0 -0.2136537373413433 -7.89129059728226 0.0 -0.1652426761310668 -7.93891179847279 0.0 -0.1125333348133333 -7.967064199176601 0.0 -0.057619961440499 -7.85844299646107 0.0 -0.3982336139558401 -8.069767001744172 0.0 -0.411180890279522 -8.250346606258661 0.0 -0.401578970039474 -8.400692210017299 0.0 -0.37011734125293333 -8.525236613130911 0.0 -0.3207865560196637 -8.62493461562336 0.0 -0.26463816661595396 -8.70133821753345 0.0 -0.203736285093407 -8.755786218894649 0.0 -0.13943109948577742 -8.78824861970621 0.0 -0.0708664257716606 -8.593193414829829 0.0 -0.563295814082395 -8.826000620650012 0.0 -0.5447864136196601 -9.02520462563011 0.0 -0.5172842529321061 -9.195455429886382 0.0 -0.463107131577678 -9.335435833385892 0.0 -0.3998499979962497 -9.44801423620035 0.0 -0.3305692522642311 -9.53403583835089 0.0 -0.2567680424192009 -9.59620983990524 0.0 -0.17421700035542492 -9.633387840834692 0.0 -0.08697350217433751 -9.339205433480132 0.0 -0.752555978813899 -9.590487039762172 0.0 -0.719042737976068 -9.81500944537523 0.0 -0.6588318564707961 -10.00525985013149 0.0 -0.582760214569005 -10.16345945408648 0.0 -0.497397532434938 -10.29125785728144 0.0 -0.4050645301266131 -10.38966305974157 0.0 -0.3104530397613258 -10.45995146149878 0.0 -0.20901599322539968 -10.501903062547571 0.0 -0.1061272186531804 -10.08994865224871 0.0 -0.985827864645696 -10.369267459231681 0.0 -0.903856502596412 -10.61494466537361 0.0 -0.8242310606057761 -10.82879507071987 0.0 -0.7231822980795571 -11.00611907515297 0.0 -0.612956775323919 -11.15098227877455 0.0 -0.4950042523751061 -11.26332348158308 0.0 -0.371249089281227 -11.342866683571659 0.0 -0.24771600219289988 -11.390593884764842 0.0 -0.1258082071452051 -10.84392667109816 0.0 -1.230413190760329 -11.15110787877769 0.0 -1.106083147652078 -11.42711988567799 0.0 -0.9891236647280911 -11.662946691573659 0.0 -0.86401082160027 -11.861404696535109 0.0 -0.732488298312207 -12.023997900599941 0.0 -0.5895698547392461 -12.150713503767832 0.0 -0.444657531116438 -12.24099070602476 0.0 -0.2960205394005133 -12.2956523073913 0.0 -0.14584125564603131 -11.59314148982853 0.0 -1.4647646366191152 -11.93484309837107 0.0 -1.303873192596829 -12.240983906024592 0.0 -1.1512559087813972 -12.502363912559092 0.0 -1.002216665055416 -12.72385351809633 0.0 -0.8468547011713671 -12.906613522665332 0.0 -0.681787857044696 -13.048681926217041 0.0 -0.51252201281305 -13.150099528752481 0.0 -0.3419386725484666 -13.21099873027496 0.0 -0.1711870962796773 -12.33918270847956 0.0 -1.657943561448588 -12.71643951791098 0.0 -1.4713707167842671 -13.054295526357382 0.0 -1.296209952405248 -13.342726333568152 0.0 -1.1294594282364852 -13.589457939736441 0.0 -0.9490311037257771 -13.79317194482929 0.0 -0.762077779051944 -13.951965548799132 0.0 -0.572688774317219 -14.06562995164074 0.0 -0.3834195935854896 -14.13338515333462 0.0 -0.1915845327896132 -13.07657512691437 0.0 -1.7988005249700123 -13.49123553728088 0.0 -1.602530720063267 -13.86339434658485 0.0 -1.413290235332255 -14.181250354531251 0.0 -1.231257390781434 -14.45365796134144 0.0 -1.0349667858741691 -14.68003596700089 0.0 -0.827893940697348 -14.8561403714035 0.0 -0.621153455528836 -14.981660774541512 0.0 -0.41426005035650104 -15.056746376418651 0.0 -0.20714269317856723 -13.800011145000271 0.0 -1.8914856472871402 -14.254518356362953 0.0 -1.692736282318406 -14.662202766555062 0.0 -1.4987051574676278 -15.012839175320972 0.0 -1.305196232629905 -15.314070382851751 0.0 -1.094717147367928 -15.562962789074062 0.0 -0.8768240219205999 -15.75633279390831 0.0 -0.655195736379893 -15.893994397349848 0.0 -0.43509441087736006 -15.976106799402658 0.0 -0.21707871342696772 -14.508055562701381 0.0 -1.935727928393197 -15.0022203750555 0.0 -1.7387957234698923 -15.444529986113238 0.0 -1.5518617987965442 -15.83313039582825 0.0 -1.3457896736447412 -16.16597800414944 0.0 -1.1243329481083228 -16.43799321094982 0.0 -0.897666782441669 -16.648386016209642 0.0 -0.6711017767775439 -16.797461219936523 0.0 -0.44406053110151306 -16.88633322215832 0.0 -0.22108476552711903 -15.201309580032731 0.0 -1.9270695281767372 -15.73327359333183 0.0 -1.738929963473248 -16.21723840543095 0.0 -1.550095878752396 -16.64287001607174 0.0 -1.3404968735124212 -17.005769625144232 0.0 -1.1183591079589772 -17.300389632509727 0.0 -0.8904979822624491 -17.52717483817936 0.0 -0.66501441662536 -17.68675444216885 0.0 -0.4406220510155511 -17.78178004454449 0.0 -0.2184421574610538 -15.868681596717032 0.0 -1.874767926869197 -16.44146321103657 0.0 -1.6959137223978424 -16.969636824240908 0.0 -1.503536077588401 -17.435161235879022 0.0 -1.290407392260184 -17.82827964570698 0.0 -1.073476906836922 -18.1445484536137 0.0 -0.852237261305931 -18.386472059661788 0.0 -0.635516735887918 -18.55567966389198 0.0 -0.42101497052537407 -18.656014066400342 0.0 -0.20859313721482828 -16.50842369637308 0.0 -1.7643198990042699 -17.12778150657696 0.0 -1.5872782494586564 -17.70320619852768 0.0 -1.3922547590777001 -18.20607065991336 0.0 -1.187685299513841 -18.62729390539808 0.0 -0.984510122818624 -18.964012091225598 0.0 -0.7806941351096439 -19.219171484469808 0.0 -0.580913910621702 -19.3969170977274 0.0 -0.3855522764069585 -19.50153600357408 0.0 -0.19106312255039362 -17.1169002453795 0.0 -1.588214117125794 -17.78980723830102 0.0 -1.40763878302155 -18.41226014521887 0.0 -1.2137026062009122 -18.949704678324 0.0 -1.027702545406425 -19.3966202244771 0.0 -0.85000388248347 -19.7515367841546 0.0 -0.67452802440366 -20.018432935307523 0.0 -0.5030989629047761 -20.20283066312253 0.0 -0.3339646378970862 -20.310787312414558 0.0 -0.16599990879170398 -17.7001040966544 0.0 -1.30648832992404 -18.42906961391985 0.0 -1.133443713177534 -19.093684123156443 0.0 -0.9636747576460621 -19.66143391678725 0.0 -0.807748267433466 -20.130150438764726 0.0 -0.667008068776893 -20.500630754816278 0.0 -0.53380351436982 -20.777223815603403 0.0 -0.40196116249322994 -20.96699286034815 0.0 -0.268011456017121 -21.07705512312042 0.0 -0.13400222394925532 -18.25895937058208 0.0 -0.9049937858349121 -19.040897709154788 0.0 -0.764910890435368 -19.74440438795396 0.0 -0.6392649967975379 -20.3388409341306 0.0 -0.5297231539999979 -20.82410782101372 0.0 -0.437300998399992 -21.20636150576958 0.0 -0.3578853529353186 -21.49088199787665 0.0 -0.27820762200740123 -21.68485286284784 0.0 -0.19149779098415817 -21.796846725503563 0.0 -0.09853558040707901 -18.78982409819564 0.0 -0.36940572975509 -19.620474996706868 0.0 -0.2906433631728973 -20.35919544283228 0.0 -0.2352288727317456 -20.976629586688652 0.0 -0.19530824355197302 -21.47419635836833 0.0 -0.16330988521766612 -21.864399694596468 0.0 -0.14800738275970388 -22.153845263811842 0.0 -0.1326604304360321 -22.352241850311618 0.0 -0.10449329304631659 -22.466745231336343 0.0 -0.0583593267730077 -19.28091591905223 0.0 0.2979267797120785 -20.15230374357825 0.0 0.29222154563384434 -20.922769022262237 0.0 0.2601665361289246 -21.5629480677187 0.0 0.204379452744775 -22.07002733538516 0.0 0.1537285285972543 -22.465093091607898 0.0 0.08731821967476049 -22.75783193261722 0.0 0.03389091259467805 -22.961149145134197 0.0 -0.0056874185383638705 -23.078320857803142 0.0 -0.01060079179245285 -19.6898593228934 0.0 1.091972960195815 -20.6044231434744 0.0 0.9905814618149239 -21.40991532802056 0.0 0.8471862272026159 -22.0625568932925 0.0 0.685144066203272 -22.5844976453046 0.0 0.5123656853398021 -22.984249655653 0.0 0.3497544964033725 -23.28207621395992 0.0 0.2167916501200275 -23.490462621259137 0.0 0.1110725666204596 -23.61162412010642 0.0 0.0458049781170092 -19.984620693917673 0.0 2.044950949025442 -20.92050213102395 0.0 1.787731406456975 -21.73441632961592 0.0 1.503156289832722 -22.422787776266848 0.0 1.174019822761885 -22.9517380160193 0.0 0.8689576382735681 -23.382635882852842 0.0 0.62929758716853 -23.69197167061592 0.0 0.3900598320213896 -23.91421253104705 0.0 0.2334293655948645 -24.04052342490388 0.0 0.1046491118098778 -20.1365590176912 0.0 3.132810494300508 -21.10185544488413 0.0 2.7452998426249406 -21.94520932504855 0.0 2.269774499991467 -22.66488143064968 0.0 1.7730019129940728 -23.22114772673784 0.0 1.2954083775696799 -23.667038258535197 0.0 0.885881107319255 -23.9996158483116 0.0 0.5799537845946899 -24.23786538022962 0.0 0.34053068657886815 -24.3763028146476 0.0 0.15066578756082 -20.21890657327929 0.0 4.437062050280731 -21.168204847941333 0.0 3.8806243189474716 -22.021116523096207 0.0 3.2103473679397383 -22.72398517249862 0.0 2.484615668718734 -23.32128775981972 0.0 1.888864472620136 -23.771100735947517 0.0 1.315264361334336 -24.135199067996194 0.0 0.8439201340356419 -24.393785262268228 0.0 0.4866049803001679 -24.559416100814758 0.0 0.22054443089457237 -20.1120771408892 0.0 5.9598078348298005 -21.05741262485154 0.0 5.18412494450886 -21.924589437515852 0.0 4.25380233644055 -22.64477709497586 0.0 3.36062644038221 -23.228185391333998 0.0 2.497644243153325 -23.7205865942318 0.0 1.7640475176859858 -24.123368885023517 0.0 1.1909835581524717 -24.404330317805982 0.0 0.7321548239305091 -24.5667522224033 0.0 0.35261165509382536 -19.99386345360888 0.0 7.94650943063936 -20.94363695538878 0.0 7.00742234156332 -21.72985942093641 0.0 5.838369757825441 -22.45738997484983 0.0 4.609361807019971 -23.05786202884862 0.0 3.4815815310328277 -23.54636401685008 0.0 2.475130170306339 -23.946977189800503 0.0 1.6975955435766303 -24.239476840597757 0.0 1.076341211063008 -24.418280510357757 0.0 0.527770444968896 -19.2705652893654 0.0 9.7896531226824 -20.442197646072202 0.0 8.911503874126298 -21.33151519068353 0.0 7.79840430823433 -22.04845889847845 0.0 6.43285913787555 -22.698732707644602 0.0 5.106372190919 -23.190066231854797 0.0 3.9386045846089397 -23.551402822969298 0.0 2.92077065697287 -23.79729680023266 0.0 1.9755586543759502 -23.94284919104777 0.0 1.0037842191218052 -14.11103691748642 0.0 12.634371456763219 -15.720850327330108 0.0 10.20420129353176 -17.31148552122795 0.0 8.55419130896355 -18.714670556802332 0.0 7.15875524035848 -19.96990127727189 0.0 5.737193388072961 -21.02329795655454 0.0 4.47830997592038 -21.85301157684816 0.0 3.4027533682236726 -22.47100260955232 0.0 2.345286429061544 -22.8500070078283 0.0 1.2140146787438049 -7.0709753856208 0.0 15.27880556049906 -8.238622207146339 0.0 12.957987018744822 -9.45249688890247 0.0 11.28499906392243 -10.626296726647379 0.0 9.41799038109582 -11.70077419973397 0.0 7.601258748848221 -12.642676796449981 0.0 5.9989883648751 -13.427347854747198 0.0 4.56896991074336 -14.025516783550522 0.0 3.1542867398267593 -14.40358246312752 0.0 1.630662712838972 -4.226501412617339 0.0 17.05636641038424 -4.91578638434609 0.0 15.565564023679778 -5.6806686902922 0.0 13.644913317826948 -6.453144260703279 0.0 11.422059080834519 -7.1891614002967 0.0 9.2796238733441 -7.858727735596079 0.0 7.377956285241359 -8.43364117818032 0.0 5.64874596878456 -8.881607935564091 0.0 3.9080713968246785 -9.168595760736599 0.0 2.0208272146616104 -3.5838163883652303 0.0 18.8824552249491 -3.860969076932649 0.0 17.22497617709649 -4.1989816802419195 0.0 15.08621258862432 -4.566140177398339 0.0 12.668421425844238 -4.93912214872375 0.0 10.359130509469749 -5.29763419592452 0.0 8.2998948934771 -5.619109323149861 0.0 6.395721168089371 -5.87745552416044 0.0 4.4425772737696 -6.0462952454733605 0.0 2.3014797012894 -2.8721660430679323 0.0 19.47687944943078 -2.9047978785003488 0.0 17.71391989715569 -2.953038360791168 0.0 15.49317381185184 -3.0144393684858324 0.0 13.034594685627761 -3.0883141685102724 0.0 10.712355584681921 -3.1706035631034033 0.0 8.64127921221908 -3.2530910867759792 0.0 6.7025466625 -3.3247995076583203 0.0 4.6785500733208 -3.3742124919374996 0.0 2.43060459790295 -0.84909481659699 0.0 18.9960643990191 -0.8497154293141281 0.0 17.20247817415894 -0.7916928872625408 0.0 14.99429943742363 -0.69538625286362 0.0 12.60218147411324 -0.582521131857379 0.0 10.37772303825257 -0.46978812614960797 0.0 8.40891099982584 -0.369302454974252 0.0 6.5586873015964 -0.2909807520955348 0.0 4.58943970544189 -0.2414457163712904 0.0 2.323124868191216 2.468923571593684 0.0 17.81167167883776 2.338990256287584 0.0 16.01744304587136 2.354401853083774 0.0 13.866575183148742 2.478824727480756 0.0 11.589748660989022 2.670725527377204 0.0 9.51647156813332 2.8915874817867273 0.0 7.71523759639308 3.1065337752596416 0.0 6.03825240869795 3.28480750222338 0.0 4.255303837819651 3.402072286490094 0.0 2.191985081573721 6.389840694929931 0.0 16.28034645475784 6.073916705078861 0.0 14.50361855652402 5.9829041614854 0.0 12.42234378863445 6.0702639997509 0.0 10.265021474060699 6.278128655885099 0.0 8.348308772991599 6.5475772574674 0.0 6.733533071295801 6.8235703964818 0.0 5.2704412837236 7.058601470199081 0.0 3.726699064144972 7.2154021614963595 0.0 1.9563348437282517 10.3345557863828 0.0 14.71242104478664 9.8814075002594 0.0 12.92632385946208 9.711899974396502 0.0 10.919573149741112 9.7700510267376 0.0 8.8678666996608 9.98501378164281 0.0 7.08771915761661 10.282612554769798 0.0 5.646809574926801 10.5939493950832 0.0 4.4004500976913 10.861182823722201 0.0 3.116626332767715 11.0400736183011 0.0 1.641470232484708 14.2072206827589 0.0 13.209393486600812 13.738610033593691 0.0 11.4405646038523 13.579087847182521 0.0 9.523984898865681 13.663631874614149 0.0 7.5689889468909115 13.9132333641938 0.0 5.9018469609385 14.24651716703375 0.0 4.607680724744999 14.589761830619798 0.0 3.55492650328496 14.881704595697919 0.0 2.515648582687616 15.076433771211839 0.0 1.3284769213067322 18.247918145025096 0.0 11.71636904109292 17.911014432107738 0.0 10.114268674606828 17.86099770312993 0.0 8.31876121805778 18.032890521445918 0.0 6.46636106614608 18.34710082011735 0.0 4.8968928251397 18.726304508975915 0.0 3.7195127520708304 19.10167504584063 0.0 2.8226996062684173 19.415937362049 0.0 1.98835691559195 19.624315114413 0.0 1.051324709158095 22.663906308591 0.0 10.2550567253469 22.556221614194083 0.0 8.965467211731522 22.68404230146815 0.0 7.328772006897551 22.97445246400176 0.0 5.59706187658994 23.357471787117756 0.0 4.1199232043258 23.772021936804258 0.0 3.0320539391479113 24.16498383771046 0.0 2.247982059815322 24.48569482516078 0.0 1.5669953532604717 24.696558220086477 0.0 0.8268296664293469 27.18618611497789 0.0 8.9692368052287 27.34332499070876 0.0 7.928393287446379 27.63035014485769 0.0 6.477794918243541 27.966592298531896 0.0 4.880203795966799 28.30024295377572 0.0 3.487210396024274 28.582348667962325 0.0 2.460892697686122 28.813549769182202 0.0 1.75323985408093 28.963668392643015 0.0 1.189722527941788 29.07448607977882 0.0 0.614269145007401 30.078663212814803 0.0 7.227666570172749 30.33974652165 0.0 6.408776944874999 30.649329515057925 0.0 5.186280166832961 30.89451032601038 0.0 3.8114670070887557 31.092668245779137 0.0 2.59355188197105 31.130362043855705 0.0 1.7242914946693402 31.18448484932704 0.0 1.1643059439938719 31.14357095706484 0.0 0.782388946489344 31.097728067884077 0.0 0.4049510564222464 31.7370646401858 0.0 5.42878267535856 31.93851445142253 0.0 4.850652778121219 32.13273792911832 0.0 3.9065312014622458 32.25284171089116 0.0 2.8342880857709045 32.33176890617321 0.0 1.921735822146374 32.267424591362555 0.0 1.23760267565056 32.1588551879792 0.0 0.7727622517576 32.07468405976087 0.0 0.490901077813124 32.01888879398253 0.0 0.2467419637737388 32.72930323432476 0.0 4.2660108428734995 32.79065084325336 0.0 3.744964773047024 32.925145193579795 0.0 3.035693660880866 33.00485868826837 0.0 2.2281625103961242 32.91848817231876 0.0 1.467957610214568 32.84115181445849 0.0 0.9245643558710621 32.71958665144168 0.0 0.626831719856094 32.57822350926647 0.0 0.390963590168704 32.4572626203394 0.0 0.2048303399673944 33.2015878808521 0.0 3.3445970154317304 33.30118140609585 0.0 3.005186657486847 33.3816005894406 0.0 2.516409002040815 33.43849674933313 0.0 1.9261222663681117 33.37842205521627 0.0 1.379685882596229 33.14135118830556 0.0 0.965861659826232 32.97619956714932 0.0 0.6113745235174349 32.85159471716748 0.0 0.3891757369930908 32.79936172213827 0.0 0.2114453770159311 33.6557837091606 0.0 2.523071453442384 33.637866205459204 0.0 2.3760836126526 33.7031708609749 0.0 2.112709157432167 33.69049956560365 0.0 1.7364882840135598 33.5835139880328 0.0 1.3753970903717199 33.46749649306235 0.0 1.0010746800758488 33.3247513238336 0.0 0.6963640797331839 33.22793402476524 0.0 0.423869675150316 33.16959345748975 0.0 0.1887006757937675 34.1186286394044 0.0 1.85980451059572 33.90200840128462 0.0 1.916202318554649 33.89331914558772 0.0 1.7250491185097516 33.89778711132579 0.0 1.5066323473874852 33.83325718366506 0.0 1.2288327820526121 33.72899525420519 0.0 0.9664377631460191 33.61810075456996 0.0 0.698952155698753 33.527626260842595 0.0 0.43694655361234497 33.48162485288344 0.0 0.19943309811334 34.711388916262834 0.0 1.297547591794054 34.13314188816 0.0 1.4290819603927998 34.029854989754 0.0 1.360627438020604 34.02346557218752 0.0 1.2229758313765722 33.98379944843134 0.0 1.053014536642382 33.895663359769976 0.0 0.85458664621592 33.8090773956186 0.0 0.64282671358168 33.73335581272492 0.0 0.40655050139735904 33.68410866481707 0.0 0.19057225127173702 35.694362240610026 0.0 0.681408691004779 34.56776794829217 0.0 0.9175128685230202 34.16259643138143 0.0 1.000331655972672 34.07142835974416 0.0 0.941368536566192 34.00095948648934 0.0 0.8338550999177339 33.934874169540386 0.0 0.725131573606133 33.8568704055677 0.0 0.55635597800754 33.8035228406628 0.0 0.3471410110356814 33.75695930208415 0.0 0.17393496939404202 37.30472391792275 0.0 0.0860492487289055 35.336395231140564 0.0 0.43379639592911495 34.4891431953861 0.0 0.569395094439912 34.11218118873576 0.0 0.6538585150371119 33.977315750365136 0.0 0.61947769837374 33.87322249642602 0.0 0.537487520591544 33.827884686075784 0.0 0.41796618612330605 33.77032279092801 0.0 0.2799672847654257 33.72680376650856 0.0 0.1431355010106 39.90665387101376 0.0 -0.3579838877230208 36.9081647023475 0.0 -0.0480242923112125 35.24599480707046 0.0 0.196334867425777 34.46416948523974 0.0 0.292816349351009 34.03595941251696 0.0 0.4009566247078132 33.849220950645204 0.0 0.3596650127637128 33.75984175494 0.0 0.2718032009747573 33.69991791631328 0.0 0.1958247451301484 33.65147082279664 0.0 0.09731080694623599 43.794920217407004 0.0 -0.601071340320331 39.61629115291816 0.0 -0.3769741655662124 36.9467168548002 0.0 -0.1417878728140833 35.42474761169146 0.0 0.015489640452994278 34.52150739958004 0.0 0.121223125797027 34.03425128657568 0.0 0.194827257052848 33.8255837394803 0.0 0.1305097910910367 33.6893561515104 0.0 0.10767284458048469 33.63877207173248 0.0 0.0562455522676508 49.401208159781504 0.0 -0.713086167593047 43.9481723880771 0.0 -0.45555025782394704 40.0783133561055 0.0 -0.3553031959727579 37.45871894524978 0.0 -0.196846222190914 35.80437335747311 0.0 -0.0579273361429777 34.867995730419736 0.0 -0.01866899308256654 34.320115298575146 0.0 0.0232401988633915 34.04513461164199 0.0 0.022366067779748 33.90662463412266 0.0 0.0111943855820068 56.8929181602012 0.0 -1.053189936937614 50.0977892059827 0.0 -0.498649161875529 45.0454621242678 0.0 -0.38056232379859195 41.203790446370995 0.0 -0.2506164650357277 38.52420979502556 0.0 -0.1645159315422762 36.83332907852527 0.0 -0.11389562328466861 35.779968653577114 0.0 -0.052960141958033696 35.18593387213026 0.0 -0.026867155097707953 34.91535570079569 0.0 -0.03415196283286395 65.3186779648578 0.0 -1.796025758648904 58.0584541800954 0.0 -0.9080876433396959 51.918030882972 0.0 -0.477023721421212 46.870448031355195 0.0 -0.1996820363876064 43.1841035832729 0.0 -0.1362145277794605 40.549625464772994 0.0 -0.118400456167131 38.78629358499915 0.0 -0.0697847058839487 37.7579240193774 0.0 -0.0398761543007271 37.28137505042016 0.0 -0.0531565691355624 66.36598076147 0.0 -1.5472956875839499 60.11923078483161 0.0 -0.9139151590886799 54.490204976084996 0.0 -0.43653650274625005 49.90886611927 0.0 -0.233212844469425 46.337002885870405 0.0 -0.054976736523053404 43.913400330900004 0.0 0.020381733396931 42.440474229642206 0.0 -0.00477635104168278 41.650060074382196 0.0 -0.01229658160317652 62.640565128449005 0.0 -0.744657511326652 57.852640622801694 0.0 -0.3758679480134615 53.903043829674 0.0 -0.042574671961276 51.1081949985484 0.0 0.11395260943532981 49.3537438143128 0.0 0.08829291063487561 48.3913304957374 0.0 0.031214087130057924 62.00932563344821 0.0 -0.20628107007847532 59.3782846395379 0.0 -0.02278458698346776 57.59652040588029 0.0 0.03587046504103088 56.5865588403985 0.0 0.0356571322922846 -1.957589008939724 0.0 1.801691205042279e-06 -1.9566170089154242 0.0 0.023919094197977345 -1.953390568834763 0.0 0.048778581219464504 -1.9474083286852073 0.0 0.0742750538568763 -1.9375549684388729 0.0 0.1009158385228959 -1.9221542880538562 0.0 0.1294712352367808 -1.898965487474136 0.0 0.15948214798705362 -1.865074966626873 0.0 0.19046898476172452 -2.339884258497105 0.0 1.874758926868972e-06 -2.338620818465519 0.0 0.03047723236193079 -2.334143138353577 0.0 0.061987449549686206 -2.32599645814991 0.0 0.09400471835011791 -2.313330137833252 0.0 0.1257949511448737 -2.29375845734396 0.0 0.1598107359952683 -2.265242816631069 0.0 0.19468422486710552 -2.22462165561554 0.0 0.2298891857472295 -2.775488349387207 0.0 -4.3681321092033e-07 -2.7736290693407257 0.0 0.03430975165774377 -2.7674233091855807 0.0 0.0692993297324832 -2.7563401089085007 0.0 0.1043134466078361 -2.7391587084789664 0.0 0.13941793948544842 -2.7143807078595166 0.0 0.1737137003428424 -2.678965826974144 0.0 0.2093086292327156 -2.6297081457427023 0.0 0.2434603020865074 -3.2403756010093883 0.0 2.487927182198178e-06 -3.237680520942011 0.0 0.0367802689195067 -3.2294876807371904 0.0 0.072775961819399 -3.214877800371943 0.0 0.1088166867204171 -3.1927506398187644 0.0 0.1442027356050683 -3.1614868790371697 0.0 0.1782486484562161 -3.118207237955179 0.0 0.2118745852968645 -3.0596733964918332 0.0 0.24331336608283402 -3.7568657739216422 0.0 2.014821850370545e-07 -3.7533989738349716 0.0 0.03749645453741134 -3.74277049356926 0.0 0.0744902218622555 -3.7243614931090354 0.0 0.11002731475068281 -3.6968743324218556 0.0 0.144631963615799 -3.6586098514652443 0.0 0.1776143844403595 -3.6071991701799773 0.0 0.20790532119763291 -3.5388001284700006 0.0 0.2367391899184796 -4.33919770847994 0.0 -2.6367912659197802e-06 -4.33490170837254 0.0 0.03766352614158813 -4.32179130804478 0.0 0.0745690858642271 -4.29922250748056 0.0 0.11000920675023011 -4.26613970665349 0.0 0.1429434675735866 -4.22078970551974 0.0 0.1737780363444508 -4.16083690402092 0.0 0.20198400504959999 -4.082638502065961 0.0 0.22668147766703683 -4.98363132459078 0.0 -7.937189398429731e-07 -4.978469724461741 0.0 0.03799069614976738 -4.962746524068661 0.0 0.0749508098737702 -4.93587652339691 0.0 0.1098290107457252 -4.89686732242168 0.0 0.1419826195495654 -4.844308521107711 0.0 0.170664444266611 -4.775794519394861 0.0 0.1961950129048752 -4.68764891719122 0.0 0.21757646143941142 -5.678012941950321 0.0 -5.40981813524545e-06 -5.67191054179776 0.0 0.03933526058338149 -5.653411741335291 0.0 0.0772510739312768 -5.621984140549601 0.0 0.1126425908160647 -5.57681013942025 0.0 0.1446599996164999 -5.516690537917261 0.0 0.17241563231039073 -5.439415335985381 0.0 0.1957974248949355 -5.341255333531381 0.0 0.2139461093486526 -6.41223296030582 0.0 2.02293565057339e-06 -6.405130960128269 0.0 0.0425104650627616 -6.383658159591451 0.0 0.0832567580814189 -6.347344558683609 0.0 0.1211784870294621 -6.295560157389 0.0 0.15501016787525412 -6.227275755681891 0.0 0.1839413565985338 -6.14064095351602 0.0 0.2070335451758385 -6.0319657507991415 0.0 0.2229965735749142 -7.1802073795051795 0.0 2.3017092175427294e-06 -7.1720201793005005 0.0 0.0484036892100922 -7.1472321786808 0.0 0.0950225143755628 -7.10550857763771 0.0 0.1385382074634551 -7.04634937615873 0.0 0.17750559243763972 -6.96895297422382 0.0 0.2106319012657974 -6.87177897179447 0.0 0.2368110699202766 -6.751214168780351 0.0 0.253647526341188 -7.976421399410531 0.0 -9.73333984333349e-07 -7.96706499917662 0.0 0.0576232374405809 -7.938919398472981 0.0 0.1125364588134114 -7.891283797282091 0.0 0.1652466561311663 -7.823911395597781 0.0 0.2136526413413159 -7.7360877934021905 0.0 0.2561216664030415 -7.626465790661641 0.0 0.2898044192451103 -7.492225787305641 0.0 0.3113206237830154 -8.79909541997738 0.0 -3.965699659142489e-06 -8.788263819706591 0.0 0.070863801771595 -8.755777018894422 0.0 0.1394344594858614 -8.70135821753395 0.0 0.20373359309333972 -8.62490621562265 0.0 0.2646375706159391 -8.525229813130741 0.0 0.3207893200197328 -8.40070221001755 0.0 0.3701176972529422 -8.25034140625853 0.0 0.401587050039676 -9.6455722411393 0.0 -5.90168934754223e-06 -9.633386640834662 0.0 0.08696499817412491 -9.59620223990505 0.0 0.1742175283554381 -9.53405543835138 0.0 0.2567687104192176 -9.44800903620022 0.0 0.33056744026418583 -9.335453433386329 0.0 0.3998485419962133 -9.195455429886382 0.0 0.46311581157789505 -9.0252162256304 0.0 0.51728961293224 -10.51512946287823 0.0 5.751764143794101e-06 -10.501903862547591 0.0 0.10612629865315741 -10.45993906149847 0.0 0.2090173292254331 -10.38968985974224 0.0 0.31045111176127765 -10.29126745728168 0.0 0.40506349012658704 -10.163475854086892 0.0 0.4973976124349401 -10.005263050131571 0.0 0.5827622545690561 -9.81502344537558 0.0 0.6588447764711189 -11.40679948516998 0.0 -3.150144838753619e-06 -11.39057428476435 0.0 0.12581685914542143 -11.3428882835722 0.0 0.24771974619299353 -11.26331428158285 0.0 0.371246849281171 -11.150984278774601 0.0 0.49500413237510305 -11.006121475153032 0.0 0.6129543753238589 -10.828805870720142 0.0 0.7231822980795571 -10.61495786537394 0.0 0.824227940605698 -12.312881907822039 0.0 -3.5737518493437947e-06 -12.29563470739086 0.0 0.1458466796461669 -12.24102070602551 0.0 0.29601915540047874 -12.150709103767719 0.0 0.444653171116329 -12.02397550059938 0.0 0.589569094739227 -11.861401096535023 0.0 0.7324866583121661 -11.66295509157387 0.0 0.864006461600161 -11.42711588567789 0.0 0.9891292647282309 -13.231454730786359 0.0 -7.059552576488809e-06 -13.21101873027546 0.0 0.1711817802795444 -13.150095128752369 0.0 0.341933688548342 -13.048703526217581 0.0 0.5125214528130361 -12.906630322665752 0.0 0.6817839770445989 -12.72384511809612 0.0 0.846853461171336 -12.5023563125589 0.0 1.0022135050553371 -12.24099750602493 0.0 1.1512637487815929 -14.15602915390072 0.0 1.1969128699228211e-06 -14.13338955333473 0.0 0.19158078878951962 -14.06562555164063 0.0 0.3834151135853776 -13.951965548799132 0.0 0.5726834543170861 -13.79315514482887 0.0 0.7620716590517911 -13.58942753973568 0.0 0.9490267037256671 -13.342741533568532 0.0 1.129452628236315 -13.05429712635742 0.0 1.2962124324053101 -15.0817323770433 0.0 2.6691918667297953e-06 -15.056700376417501 0.0 0.2071381131784527 -14.98164717454117 0.0 0.414262690356567 -14.85614957140373 0.0 0.621146735528668 -14.68004356700108 0.0 0.8278912606972811 -14.453659561341478 0.0 1.0349612658740313 -14.181231954530789 0.0 1.2312525907813139 -13.86335954658398 0.0 1.4132812753320312 -16.00343520008587 0.0 -1.299184472479611e-06 -15.976118799402963 0.0 0.21707842942696062 -15.89397919734947 0.0 0.435096290877407 -15.75635279390881 0.0 0.655189096379727 -15.562970389074252 0.0 0.876816181920404 -15.314103982852592 0.0 1.0947109473677727 -15.01285757532143 0.0 1.3051891526297281 -14.662211966555292 0.0 1.498699317467482 -16.915791622894783 0.0 -1.2715188717879708e-05 -16.886340822158513 0.0 0.2210839335270982 -16.79748881993721 0.0 0.44405701110142504 -16.64835401620884 0.0 0.671089816777245 -16.437996410949903 0.0 0.897659782441494 -16.166002404150053 0.0 1.124322628108065 -15.833136395828403 0.0 1.3457785136444622 -15.4445283861132 0.0 1.5518654387966353 -17.813135245328372 0.0 4.16707690417692e-06 -17.78180724454517 0.0 0.2184461174611528 -17.68673124216827 0.0 0.440618891015472 -17.52715043817875 0.0 0.6650097366252431 -17.30038803250969 0.0 0.8904883422622079 -17.0057284251432 0.0 1.118346227958655 -16.64288361607208 0.0 1.340491913512297 -16.21720480543011 0.0 1.5501151587528779 -18.68891206722279 0.0 -7.143130978578271e-06 -18.65606726640167 0.0 0.2085793292144831 -18.5556844638921 0.0 0.421000170525004 -18.38646725966167 0.0 0.635508695887717 -18.14453485361336 0.0 0.852227501305687 -17.8282244457056 0.0 1.0734669068366722 -17.435184035879594 0.0 1.290402072260051 -16.969618824240463 0.0 1.5035413975885341 -19.53586368150755 0.0 -1.7364977182945453e-06 -19.50156640364704 0.0 0.1910663305580928 -19.39691109771345 0.0 0.38555370841028785 -19.21921428456932 0.0 0.580914510623097 -18.964010491221877 0.0 0.780684575087417 -18.627272305346242 0.0 0.9845025628004801 -18.20607385992128 0.0 1.18768613951592 -17.703227798586 0.0 1.3922587990886082 -20.3460964562592 0.0 -2.025929103994512e-06 -20.31079331245536 0.0 0.16599012072514557 -20.20283226313329 0.0 0.3339519058114635 -20.01842053521576 0.0 0.5030929628603761 -19.7515611843132 0.0 0.67452502438416 -19.3965990243234 0.0 0.85000224247158 -18.94969707827175 0.0 1.02770346541275 -18.41222174494911 0.0 1.21371052625655 -21.113078516233198 0.0 -1.68482552154696e-05 -21.07711472412915 0.0 0.13398962373600032 -20.96696565988779 0.0 0.2679931237068519 -20.77721461545045 0.0 0.40195572240279004 -20.50072515639276 0.0 0.53380071432306 -20.130122838310022 0.0 0.667007708770962 -19.66144311693882 0.0 0.8077573475830591 -19.09369652336538 0.0 0.9636923979432961 -21.8334800360149 0.0 -1.3348640272354199e-05 -21.796787122781332 0.0 0.09852094773876241 -21.68485286284784 0.0 0.1914896386105928 -21.490891198299618 0.0 0.2781926733201669 -21.206364305897118 0.0 0.357877940597702 -20.82415662324998 0.0 0.43730307849530803 -20.33886213509891 0.0 0.529735354557233 -19.74453239384836 0.0 0.6392819975803878 -22.50386228447444 0.0 -9.54135199586256e-06 -22.46670082587403 0.0 0.0583508737332004 -22.352223848091764 0.0 0.1044755188545847 -22.15383926307279 0.0 0.13264041197056128 -21.864358450087998 0.0 0.14799860658035602 -21.474246764576353 0.0 0.1633111853777936 -20.9766723919477 0.0 0.19531977296847602 -20.35934346094008 0.0 0.23523092098231843 -23.11601148582674 0.0 -1.269787739971232e-05 -23.07834206483253 0.0 0.01058335041124378 -22.96117795469652 0.0 0.0056655964953049 -22.7578411356684 0.0 -0.033911149303957555 -22.465015465912597 0.0 -0.08733234835157 -22.07007134996786 0.0 -0.15373596706173062 -21.562899251559802 0.0 -0.2043789045633185 -20.922793430338032 0.0 -0.26016047812454 -23.651943817373798 0.0 -1.347998846620803e-05 -23.611631726819876 0.0 -0.0458241790631956 -23.4904730304491 0.0 -0.11109198776680419 -23.28207461254644 0.0 -0.21681176387333628 -22.984276879674 0.0 -0.34977318088955 -22.584482431882243 0.0 -0.512380538444264 -22.0625689038846 0.0 -0.6851465483923059 -21.4099077213128 0.0 -0.8471799416598881 -24.083745643584198 0.0 -9.1479058612333e-06 -24.040529839540522 0.0 -0.10466268277551931 -23.914190881661348 0.0 -0.23344850525548147 -23.691925565432317 0.0 -0.3900858794455504 -23.3826202471889 0.0 -0.629323125419632 -22.951715163922444 0.0 -0.8689717103542661 -22.422804614647713 0.0 -1.1740241125398663 -21.73442234332082 0.0 -1.503148071102692 -24.42501259784586 0.0 -6.871033143760499e-06 -24.37630442346648 0.0 -0.15068368567086002 -24.237899165398385 0.0 -0.34055118291458253 -23.999710768526402 0.0 -0.5799760264924801 -23.6670197571535 0.0 -0.8859084169674598 -23.221152150977 0.0 -1.295423621084604 -22.66491521569076 0.0 -1.772995799510449 -21.945146179229358 0.0 -2.269760342457483 -24.622905689421767 0.0 -1.1893092627257421e-05 -24.559442399115362 0.0 -0.2205670514789808 -24.393752895150634 0.0 -0.48663006481630794 -24.13515254030604 0.0 -0.843943276504134 -23.77114402688064 0.0 -1.3152825273427198 -23.32123071298504 0.0 -1.8888783499707 -22.723917201953178 0.0 -2.4846075769871336 -22.02105340770049 0.0 -3.210330011205915 -24.62447574318155 0.0 -1.3265927369716747e-05 -24.56675059187986 0.0 -0.3526351020208926 -24.40429281576962 0.0 -0.732182298248451 -24.12339864204564 0.0 -1.19100972802672 -23.720651815003 0.0 -1.764063863641768 -23.228263327517595 0.0 -2.497644630785312 -22.64477709497586 0.0 -3.3606097276133013 -21.9245971824507 0.0 -4.25377461772635 -24.478632311966525 0.0 -1.2297047420419458e-05 -24.4183026557664 0.0 -0.527794517848288 -24.23950185670752 0.0 -1.0763731988754879 -23.9469944140047 0.0 -1.69762683421426 -23.54636237645076 0.0 -2.475152069637261 -23.05786530964678 0.0 -3.481591701507124 -22.45741335053216 0.0 -4.6093490939295805 -21.729842196748592 0.0 -5.8383574548341395 -23.984981924231384 0.0 -1.41114624239121e-05 -23.942809689585054 0.0 -1.003792448593205 -23.79728733633572 0.0 -1.9755857293506738 -23.551369905057296 0.0 -2.9208026696422897 -23.190014386105602 0.0 -3.93863869582012 -22.6987660370548 0.0 -5.1063882384128 -22.04843671721814 0.0 -6.432861549189401 -21.331565390673788 0.0 -7.79838784922113 -22.98036071861684 0.0 1.0396647930244519e-05 -22.84999917821045 0.0 -1.2140334286181302 -22.47098200528632 0.0 -2.3452952476873916 -21.852984791278956 0.0 -3.402785181238168 -21.0232759395818 0.0 -4.478337345743 -19.96990581022328 0.0 -5.737216464916401 -18.71466561175629 0.0 -7.15875524035848 -17.31147643128144 0.0 -8.55416719720704 -14.533429194656659 0.0 -2.962295025150245e-06 -14.403574628851251 0.0 -1.630672237669595 -14.025499465676662 0.0 -3.154295604928854 -13.42735898767664 0.0 -4.5689892902872 -12.64265947853874 0.0 -5.999005270455119 -11.7007993519695 0.0 -7.6012777161078 -10.6262888923314 0.0 -9.41799120576066 -9.4524758599159 0.0 -11.284982158266562 -9.267755280745199 0.0 -2.0213614404094798e-05 -9.1686110203839 0.0 -2.02086222936582 -8.88157782867998 0.0 -3.9080969670550183 -8.433637878794078 0.0 -5.64876040359936 -7.858698041085359 0.0 -7.3779785561244 -7.189165524539701 0.0 -9.2796465566806 -6.453141786153759 0.0 -11.422059080834519 -5.6806224986305995 0.0 -13.644911668124749 -6.10516834167282 0.0 4.58229984288335e-06 -6.04633236646296 0.0 -2.3014615944955836 -5.8774716099343 0.0 -4.4425875851631 -5.61908168860925 0.0 -6.39573931614589 -5.29760037451776 0.0 -8.29991510382992 -4.93907512865425 0.0 -10.35912968455625 -4.56614133443011 0.0 -12.668419872536699 -4.19894950853664 0.0 -15.08619815260272 -3.391780769934722 0.0 -5.2296659565576796e-06 -3.3742353011911703 0.0 -2.43059692607441 -3.32483097867678 0.0 -4.678562859711 -3.253055326111632 0.0 -6.70255449932379 -3.1705925502956456 0.0 -8.64128457426031 -3.088296844978592 0.0 -10.7123832198396 -3.014420683799588 0.0 -13.034595510558722 -2.9530035486540163 0.0 -15.49315318854784 -0.22460692204427918 0.0 -4.71697355683976e-05 -0.24145114828300318 0.0 -2.32309005776232 -0.2909951588318697 0.0 -4.589461152630251 -0.369301617708466 0.0 -6.5586951380742 -0.46975999730240003 0.0 -8.40892997236208 -0.5825251738351369 0.0 -10.37774819750188 -0.695363320797076 0.0 -12.60215961440952 -0.7916804725870721 0.0 -14.994277577696058 3.4429473017103605 0.0 -3.87396792225504e-05 3.4021100478545456 0.0 -2.19198743135295 3.284853096185262 0.0 -4.25531785404663 3.106571124394808 0.0 -6.038274669771889 2.8915670345497997 0.0 -7.7152524371295605 2.6707605268011116 0.0 -9.51648434766384 2.4788465351534423 0.0 -11.589744950798961 2.3544448913344063 0.0 -13.866581366805441 7.27036725936962 0.0 3.277761985322222e-06 7.215391041770729 0.0 -1.9563689854043531 7.058624533330359 0.0 -3.7266947398078574 6.823606638568999 0.0 -5.2704499324034995 6.547555841673 0.0 -6.7335454265617996 6.278126184829799 0.0 -8.34831577431495 6.07026317606478 0.0 -10.26502929907884 5.9829350497441505 0.0 -12.42234378863445 11.10275689657494 0.0 1.38575686421961e-05 11.040039071842022 0.0 -1.6414608967154094 10.86117257229792 0.0 -3.116639019224864 10.59395391902625 0.0 -4.400471894871449 10.282552920931549 0.0 -5.646811219998199 9.98501542671597 0.0 -7.08773766468966 9.7700210041152 0.0 -8.867877803918399 9.711867895385641 0.0 -10.919570270855521 15.1447437721025 0.0 1.048280582581125e-05 15.076427202393281 0.0 -1.3284975720300802 14.881720196637438 0.0 -2.515649568010112 14.589760188415399 0.0 -3.55492806337914 14.24656561208125 0.0 -4.607681956398749 13.913227205918302 0.0 -5.901853119214001 13.66363967510652 0.0 -7.5689946946221305 13.57909728989278 0.0 -9.52398859383926 19.69710376290483 0.0 -4.12220051240238e-06 19.6242356266863 0.0 -1.05133761567042 19.4159418690867 0.0 -1.9883703957319803 19.101682830722222 0.0 -2.8227019417328947 18.72627173049831 0.0 -3.7195202091744837 18.34706968054995 0.0 -4.89690470734305 18.032881507356 0.0 -6.466359017489281 17.8610308913871 0.0 -8.31876039859464 24.76948161891888 0.0 3.387613018354008e-06 24.696563126250116 0.0 -0.826827008924042 24.48567601820154 0.0 -1.566995680338024 24.16499937389418 0.0 -2.24798459466635 23.772001903302726 0.0 -3.0320545115336697 23.35748895869428 0.0 -4.11992483971404 22.974465138261547 0.0 -5.597050837718511 22.6840435280096 0.0 -7.32876873612035 29.086658010111563 0.0 -1.261108893463796e-05 29.074495462347528 0.0 -0.614282566160034 28.963649627497777 0.0 -1.189730890669558 28.813484499131004 0.0 -1.7532456875917561 28.58232663932436 0.0 -2.4608905356161 28.30028660311069 0.0 -3.487210028880335 27.966601273160204 0.0 -4.88020012452795 27.6303595274195 0.0 -6.4777981817433 31.08627904059405 0.0 1.5403134778554249e-06 31.09773132419192 0.0 -0.4049642037651504 31.14354938403176 0.0 -0.7823948892494 31.18448484932704 0.0 -1.1643152651702549 31.1304023406474 0.0 -1.7242930821187101 31.092699180671694 0.0 -2.59355188197105 30.89448834596324 0.0 -3.811470914652692 30.649351495096962 0.0 -5.186280166832961 32.008325520197296 0.0 -6.0040992648704e-06 32.018854675063295 0.0 -0.24673549742618764 32.07473686283457 0.0 -0.490902499434339 32.158864530059404 0.0 -0.7727615612560201 32.26741199986687 0.0 -1.237602391326464 32.3317936829818 0.0 -1.9217265206887229 32.25282302675928 0.0 -2.834281505707068 32.13270096704226 0.0 -3.9065273427839755 32.4082335369014 0.0 -7.191864760496801e-06 32.45735504658724 0.0 -0.2048369881711864 32.578220266240955 0.0 -0.39096414553682435 32.7196239462186 0.0 -0.626829328125835 32.84117046184695 0.0 -0.924569504171789 32.918404664508444 0.0 -1.467948245989236 33.00496408642097 0.0 -2.2281717935411027 32.9252258636207 0.0 -3.0357073626265083 32.7701670138522 0.0 2.6870493100767e-07 32.79929697718947 0.0 -0.2114537695799193 32.851579340241 0.0 -0.389179811878608 32.976128347716205 0.0 -0.6113676443676449 33.14142807288666 0.0 -0.965867041746909 33.37839737123138 0.0 -1.379691669169736 33.43853681019992 0.0 -1.9261379265251257 33.381597352201005 0.0 -2.5164053196807696 33.15041990590528 0.0 2.8446137052074882e-06 33.1696027499555 0.0 -0.18870229995517251 33.22791220767012 0.0 -0.423866321781992 33.3247573841369 0.0 -0.69636783712123 33.4674904327622 0.0 -1.001073023593808 33.5835293407852 0.0 -1.3753919593202601 33.69059814642753 0.0 -1.736500606616545 33.703180153422714 0.0 -2.112719177115023 33.45792798757544 0.0 -6.3417985668936e-07 33.48157562899688 0.0 -0.19943034238264162 33.52761980525044 0.0 -0.436946029095482 33.61803942648092 0.0 -0.69893767097246 33.72892464620794 0.0 -0.9664301374823161 33.8332910754861 0.0 -1.2288356870658441 33.89780567113117 0.0 -1.506628595079006 33.89327637735008 0.0 -1.7250494816362978 33.66906921634296 0.0 -1.614414783568984e-06 33.68419773149892 0.0 -0.1905710502820902 33.73339893549791 0.0 -0.406551468637127 33.8090314517433 0.0 -0.6428234088467901 33.895700437280624 0.0 -0.8545837847993378 33.983863931024935 0.0 -1.053011473719186 34.02345348170392 0.0 -1.222977362837828 34.02977801367508 0.0 -1.360622763033612 33.73977899636129 0.0 -1.317611385037527e-06 33.75692548022755 0.0 -0.173936515536058 33.80359370551048 0.0 -0.3471445381724182 33.8569074485673 0.0 -0.55635839385534 33.934868129922236 0.0 -0.725129801984809 34.00099652946687 0.0 -0.8338548985972039 34.071477481960805 0.0 -0.941376508860368 34.162525969248435 0.0 -1.000326864547628 33.7129636666566 0.0 1.4242223073751797e-06 33.72684963327767 0.0 -0.1431336341526288 33.77034451729719 0.0 -0.2799695660341896 33.82784807312304 0.0 -0.4179691634403421 33.8732039887782 0.0 -0.537483537423861 33.97732782056574 0.0 -0.6194771350977121 34.11212566580472 0.0 -0.653842300731888 34.489087672467484 0.0 -0.5693832254102069 33.64045940026974 0.0 9.44407316450084e-06 33.651517064752035 0.0 -0.0973044416405492 33.69999431606568 0.0 -0.1958294055150448 33.75983894021249 0.0 -0.2718082835684325 33.8492330137658 0.0 -0.35966769479752625 34.03589185905168 0.0 -0.4009560014466752 34.46408665181163 0.0 -0.29280748295736797 35.246000838630756 0.0 -0.1963334882089884 33.605788406598904 0.0 6.249799061947381e-06 33.63870776411968 0.0 -0.05624088594649699 33.689344093828495 0.0 -0.1076766507887378 33.825574495263034 0.0 -0.13051743163757162 34.03425410003416 0.0 -0.19484033963477998 34.52147363808332 0.0 -0.1212205615309666 35.4247106348141 0.0 -0.015475838431597081 36.9467047971255 0.0 0.1417902320990996 33.86247144603399 0.0 5.385309320622e-06 33.90658485730568 0.0 -0.01119152285654305 34.045171575954 0.0 -0.022365256573814 34.320118512864354 0.0 -0.0232444168143942 34.86800497149981 0.0 0.01865089543171467 35.80435808960397 0.0 0.05791039282609261 37.458743454192124 0.0 0.19684932397837082 40.078331838251835 0.0 0.35530305132987344 34.834000554973684 0.0 3.8650241005663085e-06 34.91531914741428 0.0 0.0341605609112055 35.18591258279823 0.0 0.026863470838210234 35.77987988110593 0.0 0.052959760356913195 36.83333831728992 0.0 0.1138857578907534 38.52417605345028 0.0 0.1645039010639472 41.2037623284021 0.0 0.2506263063248427 45.04537777038 0.0 0.38057644704952076 37.11826833587766 0.0 -3.854064200966747e-06 37.28136902622696 0.0 0.0531594406676544 37.757905946805906 0.0 0.0398712261112854 38.786192694209696 0.0 0.069762126021246 40.549577271249 0.0 0.11839198213916101 43.1841035832729 0.0 0.13618986875783848 46.8704600797416 0.0 0.1996727350333056 51.9180148184544 0.0 0.4770352075512959 41.40861413136 0.0 1.476719547534784e-06 41.6500560587675 0.0 0.01229515003653597 42.4404581671786 0.0 0.00476471579461253 43.91337623721 0.0 -0.0204068860046065 46.3369868234152 0.0 0.054961718127441404 49.908870134885 0.0 0.23318802395311 54.490217022930004 0.0 0.43653417368955 60.119234800447195 0.0 0.91393162311264 48.07771224075 0.0 -1.886111166771708e-06 48.39133852625461 0.0 -0.03121953784360742 49.3537478295714 0.0 -0.08830559483679301 51.10818295277261 0.0 -0.1139703930156692 53.90298761606199 0.0 0.042556759895338 57.853086009238 0.0 0.37604104982493397 62.64050489958801 0.0 0.7446666661135241 56.259969670836796 0.0 -5.37802600246582e-06 56.586562855413604 0.0 -0.03565361152554341 57.596564571052994 0.0 -0.03588389326103953 59.37832478967089 0.0 0.02276184313762725 62.0093938886641 0.0 0.2062574537737739 -1.816100365402508 0.0 0.2242168496054211 -1.748795363719883 0.0 0.260134606503365 -1.661912561547813 0.0 0.2960550394013758 -1.554538758863468 0.0 0.3356382443909559 -1.4255630756390762 0.0 0.3795209974880247 -1.275083191877079 0.0 0.4218176105454401 -1.0958946673973662 0.0 0.45668773141719304 -2.167469094186726 0.0 0.2660686546517162 -2.089363932234097 0.0 0.30395656359891393 -1.989409689735241 0.0 0.34283419657085473 -1.869775446744385 0.0 0.38116656152916384 -1.729179443229485 0.0 0.42171669054291705 -1.560944399023609 0.0 0.459553731488843 -1.3393463534836578 0.0 0.490165732254143 -1.0273361456834031 0.0 0.585253174631329 -2.5620949440523724 0.0 0.27739897493497423 -2.471874301796856 0.0 0.30970786374269643 -2.358269578956738 0.0 0.3419360725484016 -2.226723535668087 0.0 0.37340946933523655 -2.080232292005806 0.0 0.404468530111713 -1.9060989676524729 0.0 0.44120829103020703 -1.6721394018034839 0.0 0.48590205214755106 -1.315689112892227 0.0 0.5807453345186331 -2.980880794522018 0.0 0.27293001082325014 -2.877072591926813 0.0 0.30053921551348023 -2.749787588744688 0.0 0.32489374412234345 -2.606920305173006 0.0 0.3497057047426424 -2.4596977814924434 0.0 0.3713953092848825 -2.292473297311831 0.0 0.402240010056 -2.0608528515213203 0.0 0.4425346510633661 -1.6646755616168882 0.0 0.551198973779974 -3.448265166206627 0.0 0.26267221456680523 -3.3306672032666778 0.0 0.28495131112378264 -3.1888207197205163 0.0 0.3029524635738114 -3.0354389958859733 0.0 0.3188934399723358 -2.888231152205777 0.0 0.33157902428947544 -2.73037726825943 0.0 0.3542793368569832 -2.503149462578735 0.0 0.3901237577530937 -2.0675026516875654 0.0 0.5192024529800611 -3.980388339509706 0.0 0.248751406218785 -3.8488572162214285 0.0 0.2661457586536438 -3.6922894523072345 0.0 0.27745755493643875 -3.529120328228006 0.0 0.28326006708150153 -3.3812119245302963 0.0 0.2850400991260023 -3.232569600814238 0.0 0.29943924748598105 -3.012592755314817 0.0 0.3350296123757401 -2.5320320633008 0.0 0.4983810524595261 -4.573744514343611 0.0 0.23482003787050082 -4.42850051071251 0.0 0.24660254216506342 -4.2578681064467 0.0 0.249329166233229 -4.08539730213493 0.0 0.2435961780899043 -3.9379059784476467 0.0 0.23561420989035511 -3.806166535154161 0.0 0.24048309801207732 -3.595550249888754 0.0 0.29034805925870133 -3.064907156622677 0.0 0.513627652840691 -5.21586333039658 0.0 0.22589631764740783 -5.0571829264295705 0.0 0.2302049697551241 -4.87307172182679 0.0 0.2239164655979115 -4.6931541173288505 0.0 0.20701733317543322 -4.54826891370672 0.0 0.19653912091347792 -4.440106911002671 0.0 0.1978042649451065 -4.250089706252241 0.0 0.27812653095316314 -3.67892769197319 0.0 0.5856384546409611 -5.894602547365061 0.0 0.23077512176937792 -5.7230881430772005 0.0 0.22345555358638872 -5.526855738171391 0.0 0.2091309612282739 -5.33965093349127 0.0 0.19251833281295821 -5.20259853006496 0.0 0.180466084511652 -5.116921327923031 0.0 0.1926010168150253 -4.9755981243899505 0.0 0.2980964754524117 -4.4188441104711 0.0 0.6679153766978839 -6.6014741650368505 0.0 0.255141766378544 -6.417455360436381 0.0 0.24282437007060909 -6.21073095526827 0.0 0.2265348496633711 -6.0230761505769 0.0 0.205165965129149 -5.89563334739083 0.0 0.1924106648102665 -5.8428437460710905 0.0 0.21477738136943442 -5.7936541448413506 0.0 0.30696717167417914 -5.4054641351366 0.0 0.590786774769669 -7.328076983201921 0.0 0.3136230798405768 -7.13221817830545 0.0 0.29750872343771795 -6.91867697296692 0.0 0.27821851495546274 -6.731736168293399 0.0 0.251734646293366 -6.620937365523431 0.0 0.2432628700815716 -6.64212976605324 0.0 0.2446312021157799 -6.74930896873272 0.0 0.2849060111226501 -6.72824856820621 0.0 0.3475235086880875 -8.069754201743851 0.0 0.41118405027960103 -7.858432196460799 0.0 0.3982341139558526 -7.641385791034641 0.0 0.3707354652683864 -7.4641717866042905 0.0 0.3444463806111593 -7.41026178525654 0.0 0.31570778789269455 -7.51971378799284 0.0 0.33101120827528 -7.820228195505701 0.0 0.41633149040828704 -8.081872602046811 0.0 0.5311859332796481 -8.82600102065002 0.0 0.544784093619602 -8.59319261482981 0.0 0.5633112940827819 -8.372161409304029 0.0 0.5301602932540069 -8.20820620520515 0.0 0.527641133191028 -8.21110100527752 0.0 0.535211973380299 -8.4632282115807 0.0 0.6809196570229912 -8.928369423209231 0.0 1.1371101484277528 -9.387712234692799 0.0 1.715026882875671 -9.59049383976234 0.0 0.719034937975873 -9.339207033480172 0.0 0.752560978814024 -9.1042682276067 0.0 0.7688986992224671 -8.967493024187322 0.0 0.8139627803490689 -9.04572542614313 0.0 0.9555195038879871 -9.46758983668974 0.0 1.263159991578999 -10.15595585389889 0.0 1.9103150077578743 -10.94018867350471 0.0 2.596364664909115 -10.36925745923143 0.0 0.9038592625964811 -10.08994705224867 0.0 0.9858281446457029 -9.84093864602346 0.0 1.054684666367116 -9.72461944311548 0.0 1.177133029428325 -9.9073922476848 0.0 1.3919442347986053 -10.519778662994462 0.0 1.789061204726529 -11.51981828799545 0.0 2.405134260128355 -12.687528717188211 0.0 3.1233204780830097 -11.15111347877783 0.0 1.106082747652068 -10.84394707109867 0.0 1.230409750760243 -10.57271746431793 0.0 1.3594520739863012 -10.47042346176058 0.0 1.5214721180368023 -10.736951068423771 0.0 1.7732822843320561 -11.52832308820807 0.0 2.185299174632478 -12.86985792174644 0.0 2.7303595082589855 -14.4825563620639 0.0 3.502849647571239 -11.934833098370822 0.0 1.3038703125967572 -11.59314588982864 0.0 1.4647669166191721 -11.29623668240591 0.0 1.623034520575862 -11.194973079874321 0.0 1.8110374852759359 -11.529808288245201 0.0 2.07243045181076 -12.47947791198694 0.0 2.4864037021600907 -14.10331475258286 0.0 3.03103567577589 -16.137779603444482 0.0 3.8297688557442187 -12.71641591791039 0.0 1.471366996784174 -12.33919470847986 0.0 1.6579456814486413 -12.009062300226551 0.0 1.844965206124129 -11.908693897717342 0.0 2.0269936106748396 -12.2950923073773 0.0 2.29767005744175 -13.3848483346212 0.0 2.723169948079247 -15.255034381375848 0.0 3.2903080822576998 -17.625856440646402 0.0 4.13823330345583 -13.491272337281801 0.0 1.602533960063348 -13.076577926914439 0.0 1.7988090849702258 -12.714223917855591 0.0 1.9950642098766045 -12.60706751517668 0.0 2.188118974702973 -13.045312726132812 0.0 2.463604221590104 -14.27211035680275 0.0 2.9071655926791378 -16.364093609102333 0.0 3.5195179679879467 -19.018208875455212 0.0 4.41895411047385 -14.25455675636391 0.0 1.692740082318501 -13.79996234499905 0.0 1.8914892472872302 -13.40471513511787 0.0 2.0924944523123603 -13.285141132128523 0.0 2.30303045757576 -13.78302474457561 0.0 2.5842857846071428 -15.153235178830869 0.0 3.040105316002631 -17.4683324367083 0.0 3.706103972652597 -20.405078510126952 0.0 4.64541451613536 -15.00220677505516 0.0 1.7387982034699545 -14.50810116270252 0.0 1.9357405283935123 -14.078270351956752 0.0 2.141996813549919 -13.95070234876755 0.0 2.364475099111876 -14.504295562607382 0.0 2.659532626488314 -16.01821160045528 0.0 3.1400153185003807 -18.57003086425076 0.0 3.835720535893011 -21.794398944859957 0.0 4.82301132057528 -15.733299593332479 0.0 1.7389341634733528 -15.201279180031971 0.0 1.9270809681770233 -14.73232316830807 0.0 2.139940893498521 -14.59699276492481 0.0 2.37509885937747 -15.202226780055659 0.0 2.6894158272353943 -16.86186882154671 0.0 3.19008127975203 -19.659436491485902 0.0 3.8993946974848654 -23.176710979417763 0.0 4.92720692318017 -16.441416011035393 0.0 1.695919442397985 -15.868698396717452 0.0 1.8747854868696359 -15.3623003840575 0.0 2.082962292074056 -15.21716638042915 0.0 2.330528898263221 -15.8681323967033 0.0 2.6671280666782002 -17.67381164184528 0.0 3.1814335595358374 -20.717282517932052 0.0 3.8970967374274164 -24.53755861343895 0.0 4.94458132361453 -17.127752706507838 0.0 1.5872818894673921 -16.50838569627618 0.0 1.764327179022834 -15.963165500430481 0.0 1.960684533833948 -15.80163670895406 0.0 2.220001174489308 -16.494285912059798 0.0 2.5809872472082396 -18.446688638936077 0.0 3.098368540819632 -21.7360402569559 0.0 3.810552682674535 -25.8634857927121 0.0 4.8590293327914 -17.789792038195383 0.0 1.40764918309383 -17.11688344526148 0.0 1.588212317113149 -16.5294431597577 0.0 1.7647817880777117 -16.353123200481598 0.0 2.0142093365303517 -17.0796442169658 0.0 2.4052963143244197 -19.177760399443592 0.0 2.9237192175348716 -22.71395854329549 0.0 3.62074980627345 -27.15404620973271 0.0 4.65215608553928 -18.42905441366943 0.0 1.1334518333113108 -17.700042895614 0.0 1.30648752991044 -17.063567835169682 0.0 1.4732261453950923 -16.87178581945947 0.0 1.690838563341105 -17.636097008552397 0.0 2.09610667320768 -19.87266913923264 0.0 2.6346517107255063 -23.662050298829463 0.0 3.3096279662915697 -28.42928636115372 0.0 4.30541349920472 -19.040917710071287 0.0 0.7649160506718251 -18.259030973847043 0.0 0.904987585552192 -17.56736275264627 0.0 1.058531866234776 -17.35657902391456 0.0 1.242315567006752 -18.16875902016621 0.0 1.6243776300596222 -20.543899850710883 0.0 2.194797799296464 -24.60282417275586 0.0 2.850382012770405 -29.7334342423855 0.0 3.80109741225104 -19.62055900706617 0.0 0.29066568192501796 -18.78987730472461 0.0 0.3694153869401226 -18.04926303744047 0.0 0.47899268082582397 -17.8143966823124 0.0 0.641798235638444 -18.681978265244318 0.0 0.9774442954215842 -21.2067970551605 0.0 1.56298674559607 -25.556764217874083 0.0 2.218176011213194 -31.11341652428722 0.0 3.1336516751087977 -20.152250125821908 0.0 -0.2922169441099793 -19.2809067160114 0.0 -0.2979122549128555 -18.494209923565222 0.0 -0.2629994420159028 -18.2367052633035 0.0 -0.1348694577579852 -19.16420855709711 0.0 0.14158641438686678 -21.85614557746452 0.0 0.715245114671178 -26.5262767125013 0.0 1.390992381590196 -32.59068487686811 0.0 2.286206518731438 -20.604429148766997 0.0 -0.9905549184216319 -19.6898513158344 0.0 -1.09195234201889 -18.87188600646778 0.0 -1.172879517397588 -18.602314683773862 0.0 -1.122308972095394 -19.58512361620848 0.0 -0.900771140684096 -22.460079278202578 0.0 -0.36404379621243144 -27.47085640595648 0.0 0.3589184524807024 -34.10849126466946 0.0 1.236886776791147 -20.92050213102395 0.0 -1.787697569361795 -19.98456576882434 0.0 -2.0449310637361786 -19.11696063930874 0.0 -2.20689082749569 -18.861294624255198 0.0 -2.273624200340155 -19.91596682105043 0.0 -2.163580577421359 -22.99081771453869 0.0 -1.680442473119913 -28.347870763648924 0.0 -0.9061411506380642 -35.5341652939692 0.0 -0.028842833419022707 -21.10180154981479 0.0 -2.7452745038983104 -20.136538907629202 0.0 -3.132790746219624 -19.242044060527203 0.0 -3.4088655065734508 -19.01279453219025 0.0 -3.58298701099635 -20.16997462494825 0.0 -3.5891710207977696 -23.470568436773526 0.0 -3.1964372090864286 -29.11348721547024 0.0 -2.3804566221984236 -36.81190405703118 0.0 -1.442596612533516 -21.168163175689422 0.0 -3.8806030782365473 -20.21891749705188 0.0 -4.4370462714981 -19.31743190456356 0.0 -4.8863052895636 -19.12314815171872 0.0 -5.20653912782368 -20.3714725647472 0.0 -5.246645237611359 -23.809635984706556 0.0 -4.9595664634147205 -29.835185239408318 0.0 -3.934530186730451 -37.8770997207806 0.0 -2.9905503710313632 -21.05744034351678 0.0 -5.18410130211792 -20.112134616239803 0.0 -5.9597976441648 -19.2944734623102 0.0 -6.6136731398275 -19.162994852435638 0.0 -7.112333111243119 -20.57856166236464 0.0 -7.24064884152058 -24.131728884764602 0.0 -6.7741528585016 -30.141788990008404 0.0 -5.700750807221399 -38.144603533125 0.0 -4.635210036327121 -20.943673044168538 0.0 -7.007392814379879 -19.993907156512897 0.0 -7.9464837655528004 -19.197009297501648 0.0 -8.73088171812989 -19.01998950585376 0.0 -9.30524790740048 -20.2972320941913 0.0 -9.368034032791801 -23.795178345862567 0.0 -8.88082967167476 -29.443695967409365 0.0 -7.6288328912432 -35.3451981738648 0.0 -6.661445312232161 -20.442179129649947 0.0 -8.91147465932675 -19.2705085055601 0.0 -9.78962390782605 -18.16239651483782 0.0 -10.5260730211665 -17.888771978774848 0.0 -11.440506554110348 -19.010558999171998 0.0 -11.8012495434288 -21.30650851043091 0.0 -11.293963345649269 -23.29298441981555 0.0 -9.99900352385572 -23.754529957999498 0.0 -8.742297257558219 -15.720862689989012 0.0 -10.20418068910026 -14.111011780019599 0.0 -12.63433272033894 -12.890317595179999 0.0 -14.556391649167997 -12.049246935026549 0.0 -15.079873364562507 -11.66890586286439 0.0 -14.888845197158709 -11.65045935091368 0.0 -14.28253020094824 -11.874148169296081 0.0 -12.646237130304542 -12.303608934754692 0.0 -11.100620415327539 -8.23864735951668 0.0 -12.957968876051462 -7.07094858388025 0.0 -15.278777109420629 -6.09045845419088 0.0 -17.487853389504963 -5.5078868779353 0.0 -17.6735648489463 -5.30662524508728 0.0 -17.488748443259283 -5.42397445035156 0.0 -16.68106427624634 -5.881075464294559 0.0 -14.21350466926376 -6.55385873568215 0.0 -12.72584497145073 -4.91574926600879 0.0 -15.56553556628785 -4.2263937693321605 0.0 -17.05634413935972 -3.6981637466098807 0.0 -19.34509409824794 -3.412207979703933 0.0 -20.19373174108665 -3.4300630544255397 0.0 -20.059807998654453 -3.7741706294788746 0.0 -18.70314225153585 -4.39968328812726 0.0 -14.90658151832346 -5.16145671092948 0.0 -14.40708666674514 -3.8609445690259196 0.0 -17.224952270004 -3.5838579344522463 0.0 -18.8824433953287 -3.404297915082336 0.0 -20.386392505811788 -3.3705805274533622 0.0 -22.03551965035134 -3.5303380738591685 0.0 -22.2248182580424 -3.904709003856445 0.0 -20.17298862483778 -4.456521412197049 0.0 -15.348984810699049 -5.08850933936557 0.0 -15.91009645956591 -2.9047978785003488 0.0 -17.7139293838845 -2.872103141891607 0.0 -19.47688728629865 -2.8601183059353366 0.0 -21.046003706449174 -2.887516849514976 0.0 -22.51977174689232 -2.9807097171532195 0.0 -23.135284315478277 -3.15522058162868 0.0 -21.1292857456095 -3.40771013640925 0.0 -15.975803931797499 -3.713143146406857 0.0 -16.81104689306514 -0.8497438469909742 0.0 -17.202481473744058 -0.8490989410839899 0.0 -18.996070585749603 -0.780274239904656 0.0 -20.604338441722348 -0.650700524796063 0.0 -22.313350041016164 -0.4789828239709879 0.0 -23.08065568615112 -0.2879932947025059 0.0 -21.67267181894506 -0.1135342719081756 0.0 -16.3313006745357 0.01219476289278339 0.0 -17.14095408258018 2.33901264115416 0.0 -16.017441396894082 2.468965414453064 0.0 -17.81166508291904 2.75717768877304 0.0 -19.46950916136504 3.1898125079874364 0.0 -21.968819523780837 3.7288216267612806 0.0 -22.49145600399936 4.32910675390616 0.0 -21.29277455475204 4.93170373365308 0.0 -16.36760648673936 5.475289978172 0.0 -16.89549363219956 6.07388664046175 0.0 -14.503611967018902 6.38983987124035 0.0 -16.2803151545538 6.94239119425104 0.0 -18.57722967716868 7.6977505201376 0.0 -21.06639377756318 8.581970677920081 0.0 -21.217992492864717 9.52175379178981 0.0 -20.09412557794391 10.451263862547039 0.0 -15.752858241822521 11.30715587733348 0.0 -15.98463858562687 9.881412056704441 0.0 -12.9263395612713 10.33451836077276 0.0 -14.712406650321242 11.062129501065211 0.0 -17.52515225054675 12.031296885953399 0.0 -19.4080974601074 13.18889433308227 0.0 -19.52102737996745 14.335930005105938 0.0 -18.43258120348062 15.447291534701519 0.0 -14.58497926285998 16.476488778501842 0.0 -14.55029057944572 13.73859894866242 0.0 -11.44056994104143 14.20715786805351 0.0 -13.20937788556287 14.913642696131822 0.0 -16.17222747976407 15.867476435787118 0.0 -17.57279999804238 17.1528944694989 0.0 -17.345957928595592 18.489159183091836 0.0 -16.412232503349017 19.7107878672902 0.0 -13.126655236552802 20.733919504642802 0.0 -12.919855103752052 17.91105335664869 0.0 -10.114262528626679 18.24788864430526 0.0 -11.716372318950679 18.68625748775872 0.0 -14.607417182838 19.3695074586252 0.0 -15.61785524138984 20.39866387439896 0.0 -15.577731243995117 21.936170963831763 0.0 -14.43788191201761 23.55792611412743 0.0 -11.367907715071352 24.47942977633332 0.0 -11.08587021218708 22.556196674512442 0.0 -8.96547130020392 22.663868694639405 0.0 -10.255063675751 22.80157411978735 0.0 -12.797515637262949 22.99119936982935 0.0 -13.67099441569752 23.742494843851347 0.0 -13.422416348830861 25.0488313631801 0.0 -12.20540953122958 27.031117409388923 0.0 -9.62854616782966 28.375182661302464 0.0 -8.78710452566926 27.343334373269187 0.0 -7.928397366820479 27.186161230788564 0.0 -8.969245371916829 27.076855544999997 0.0 -10.73713604960728 26.92689917982477 0.0 -11.84488719444955 27.239045603279298 0.0 -11.280150055484938 28.2737582326491 0.0 -9.88110387659175 30.803715504450487 0.0 -8.098556019858968 32.864106511313366 0.0 -6.3629198700299705 30.339665928225003 0.0 -6.408779387099999 30.07861965981835 0.0 -7.2276612786872 29.946625479060224 0.0 -8.163223018608981 29.94767752779998 0.0 -9.5170028770526 30.70375739800677 0.0 -9.141312178607839 31.948292329053103 0.0 -7.67891501108215 35.099055639900506 0.0 -6.2346128537920995 37.84488326973556 0.0 -4.265915927534659 31.938564004934786 0.0 -4.85064871635792 31.737086573696278 0.0 -5.4287879556481204 31.820168795324943 0.0 -5.96857347147888 31.920350227928374 0.0 -7.0845267831963294 33.4707308086437 0.0 -6.9362255403040205 36.1127415061452 0.0 -5.742833184741119 39.77333575377939 0.0 -4.24536193365814 43.357185302688 0.0 -2.245710837368025 32.79068205727312 0.0 -3.744989095659824 32.72936201392886 0.0 -4.26601043749692 32.8709199185017 0.0 -4.49343977541844 33.619605166450796 0.0 -4.914217575882001 35.844555663430796 0.0 -4.811528834626801 40.15025338100104 0.0 -3.930634306703173 44.736859138461 0.0 -2.1847844851325102 49.596797524396095 0.0 -0.3048974088131829 33.30114458250086 0.0 -3.0051902993808564 33.20156967139285 0.0 -3.3445970154317304 33.51740283330296 0.0 -3.437616183003756 34.7830112539574 0.0 -3.403626443633528 37.809794278039334 0.0 -3.067731023675539 43.549134684275 0.0 -2.3339692588149306 50.219527205815 0.0 -0.68442738350448 56.6249950708572 0.0 1.5870350873429522 33.6379308485376 0.0 -2.3761063185338878 33.65576835644088 0.0 -2.52305969649123 34.13021073596208 0.0 -2.530771589305944 35.79013276531731 0.0 -2.3265075973125513 39.691630245257684 0.0 -1.9136638919257007 46.3729566670584 0.0 -1.0891661600692162 55.647173329099004 0.0 0.055949584318322004 64.98122137255599 0.0 2.3976226476784204 33.90203624097061 0.0 -1.9162146245028042 34.118665355465595 0.0 -1.8598083435911195 34.96167674904566 0.0 -1.7200849280976382 37.260185912176325 0.0 -1.4627512077521452 42.0503935346934 0.0 -0.8501275081886972 49.7789828808768 0.0 0.0497145363877656 60.530655206150094 0.0 1.239440522586567 71.9962508546208 0.0 3.02747100942123 34.13314188816 0.0 -1.4290919551896002 34.71140423084917 0.0 -1.297546624557022 36.2007234416703 0.0 -1.006854986800638 39.41886895717056 0.0 -0.6276686662225921 45.162587129585404 0.0 0.0627451205086698 54.0718497489198 0.0 1.145074820343134 66.0690068033584 0.0 2.443704561336096 34.567804991244856 0.0 -0.9175223708456641 35.69442666305962 0.0 -0.68141396559284 38.061334317248644 0.0 -0.31293892227047043 42.379744572147594 0.0 0.13527666839540248 49.338282804711596 0.0 0.959723730323379 59.39848947133919 0.0 2.1849835308056726 71.97891513802439 0.0 3.519469163256486 35.336385977328156 0.0 -0.433788992879187 37.30473920682565 0.0 -0.086047852610667 40.7473338574412 0.0 0.2402665850570747 46.254912326752596 0.0 0.7237488245483089 54.702691503537004 0.0 1.7723090459303399 65.8757877762684 0.0 3.0266618627282162 36.908158670791245 0.0 0.0480291054931 39.90672464120512 0.0 0.35797051376526723 44.55591599491841 0.0 0.61985832238464 51.528975918784 0.0 1.284848303658052 61.362837599768696 0.0 2.4595342775602647 72.8642437331696 0.0 3.79841093069464 39.616321698991676 0.0 0.3769702347688568 43.794871986753805 0.0 0.6010833979836311 49.85815907967759 0.0 0.9073915270985119 58.286365965664906 0.0 1.827087530984186 68.9065667326148 0.0 3.136697396400162 43.9481442630802 0.0 0.455551181930988 49.401151909796106 0.0 0.7130987033040789 56.868498185890104 0.0 1.3770296559770672 66.12172088966531 0.0 2.424273724280321 50.097736986897594 0.0 0.498658802322009 56.8929543118755 0.0 1.053189736094979 65.1030786118725 0.0 1.9560233771855429 73.8554615019963 0.0 3.3799860239805457 58.058430083328 0.0 0.9080985672075841 65.3186458358226 0.0 1.796042023972974 66.36596469901 0.0 1.5473095012995501 
TENSORS Ellispoids float
0.01 0.0 0.0 0.0 0.01 0.0 0.0 0.0 0.01 0.01 0.0 0.0 0.0 0.01 0.0 0.0 0.0 0.01 0.01 0.0 0.0 0.0 0.01 0.0 0.0 0.0 0.01 0.01 0.0 0.0 0.0 0.01 0.0 0.0 0.0 0.01 0.01 0.0 0.0 0.0 0.01 0.0 0.0 0.0 0.01 0.01 0.0 0.0 0.0 0.01 0.0 0.0 0.0 0.01 0.01 0.0 0.0 0.0 0.01 0.0 0.0 0.0 0.01 0.01 0.0 0.0 0.0 0.01 0.0 0.0 0.0 0.01 0.01 0.0 0.0 0.0 0.01 0.0 0.0 0.0 0.01 0.01 0.0 0.0 0.0 0.01 0.0 0.0 0.0 0.01 0.01 0.0 0.0 0.0 0.01 0.0 0.0 0.0 0.01 0.01 0.0 0.0 0.0 0.01 0.0 0.0 0.0 0.01 0.01 0.0 0.0 0.0 0.01 0.0 0.0 0.0 0.01 0.01 0.0 0.0 0.0 0.01 0.0 0.0 0.0 0.01 0.01 0.0 0.0 0.0 0.01 0.0 0.0 0.0 0.01 0.01 0.0 0.0 0.0 0.01 0.0 0.0 0.0 0.01 0.01 0.0 0.0 0.0 0.01 0.0 0.0 0.0 0.01 0.01 0.0 0.0 0.0 0.01 0.0 0.0 0.0 0.01 0.01 0.0 0.0 0.0 0.01 0.0 0.0 0.0 0.01 0.01 0.0 0.0 0.0 0.01 0.0 0.0 0.0 0.01 0.01 0.0 0.0 0.0 0.01 0.0 0.0 0.0 0.01 0.01 0.0 0.0 0.0 0.01 0.0 0.0 0.0 0.01 0.01 0.0 0.0 0.0 0.01 0.0 0.0 0.0 0.01 0.01 0.0 0.0 0.0 0.01 0.0 0.0 0.0 0.01 0.01 0.0 0.0 0.0 0.01 0.0 0.0 0.0 0.01 0.01 0.0 0.0 0.0 0.01 0.0 0.0 0.0 0.01 0.01 0.0 0.0 0.0 0.01 0.0 0.0 0.0 0.01 0.01 0.0 0.0 0.0 0.01 0.0 0.0 0.0 0.01 0.01 0.0 0.0 0.0 0.01 0.0 0.0 0.0 0.01 0.01 0.0 0.0 0.0 0.01 0.0 0.0 0.0 0.01 0.01 0.0 0.0 0.0 0.01 0.0 0.0 0.0 0.01 0.01 0.0 0.0 0.0 0.01 0.0 0.0 0.0 0.01 0.01 0.0 0.0 0.0 0.01 0.0 0.0 0.0 0.01 0.01 0.0 0.0 0.0 0.01 0.0 0.0 0.0 0.01 0.01 0.0 0.0 0.0 0.01 0.0 0.0 0.0 0.01 0.01 0.0 0.0 0.0 0.01 0.0 0.0 0.0 0.01 0.01 0.0 0.0 0.0 0.01 0.0 0.0 0.0 0.01 0.01 0.0 0.0 0.0 0.01 0.0 0.0 0.0 0.01 0.01 0.0 0.0 0.0 0.01 0.0 0.0 0.0 0.01 0.01 0.0 0.0 0.0 0.01 0.0 0.0 0.0 0.01 0.01 0.0 0.0 0.0 0.01 0.0 0.0 0.0 0.01 0.01 0.0 0.0 0.0 0.01 0.0 0.0 0.0 0.01 0.01 0.0 0.0 0.0 0.01 0.0 0.0 0.0 0.01 0.01 0.0 0.0 0.0 0.01 0.0 0.0 0.0 0.01 0.01 0.0 0.0 0.0 0.01 0.0 0.0 0.0 0.01 0.01 0.0 0.0 0.0 0.01 0.0 0.0 0.0 0.01 0.01 0.0 0.0 0.0 0.01 0.0 0.0 0.0 0.01 0.01 0.0 0.0 0.0 0.01 0.0 0.0 0.0 0.01 0.01 0.0 0.0 0.0 0.01 0.0 0.0 0.0 0.01 0.01 0.0 0.0 0.0 0.01 0.0 0.0 0.0 0.01 0.01 0.0 0.0 0.0 0.01 0.0 0.0 0.0 0.01 0.01 0.0 0.0 0.0 0.01 0.0 0.0 0.0 0.01 0.01 0.0 0.0 0.0 0.01 0.0 0.0 0.0 0.01 0.01 0.0 0.0 0.0 0.01 0.0 0.0 0.0 0.01 0.01 0.0 0.0 0.0 0.01 0.0 0.0 0.0 0.01 0.01 0.0 0.0 0.0 0.01 0.0 0.0 0.0 0.01 0.01 0.0 0.0 0.0 0.01 0.0 0.0 0.0 0.01 0.01 0.0 0.0 0.0 0.01 0.0 0.0 0.0 0.01 0.01 0.0 0.0 0.0 0.01 0.0 0.0 0.0 0.01 0.01 0.0 0.0 0.0 0.01 0.0 0.0 0.0 0.01 0.01 0.0 0.0 0.0 0.01 0.0 0.0 0.0 0.01 0.01 0.0 0.0 0.0 0.01 0.0 0.0 0.0 0.01 0.01 0.0 0.0 0.0 0.01 0.0 0.0 0.0 0.01 0.01 0.0 0.0 0.0 0.01 0.0 0.0 0.0 0.01 0.01 0.0 0.0 0.0 0.01 0.0 0.0 0.0 0.01 0.01 0.0 0.0 0.0 0.01 0.0 0.0 0.0 0.01 0.01 0.0 0.0 0.0 0.01 0.0 0.0 0.0 0.01 0.01 0.0 0.0 0.0 0.01 0.0 0.0 0.0 0.01 0.01 0.0 0.0 0.0 0.01 0.0 0.0 0.0 0.01 0.01 0.0 0.0 0.0 0.01 0.0 0.0 0.0 0.01 0.01 0.0 0.0 0.0 0.01 0.0 0.0 0.0 0.01 0.01 0.0 0.0 0.0 0.01 0.0 0.0 0.0 0.01 0.01 0.0 0.0 0.0 0.01 0.0 0.0 0.0 0.01 0.01 0.0 0.0 0.0 0.01 0.0 0.0 0.0 0.01 0.01 0.0 0.0 0.0 0.01 0.0 0.0 0.0 0.01 0.01 0.0 0.0 0.0 0.01 0.0 0.0 0.0 0.01 0.01 0.0 0.0 0.0 0.01 0.0 0.0 0.0 0.01 0.01 0.0 0.0 0.0 0.01 0.0 0.0 0.0 0.01 0.01 0.0 0.0 0.0 0.01 0.0 0.0 0.0 0.01 0.01 0.0 0.0 0.0 0.01 0.0 0.0 0.0 0.01 0.01 0.0 0.0 0.0 0.01 0.0 0.0 0.0 0.01 0.01 0.0 0.0 0.0 0.01 0.0 0.0 0.0 0.01 0.01 0.0 0.0 0.0 0.01 0.0 0.0 0.0 0.01 0.01 0.0 0.0 0.0 0.01 0.0 0.0 0.0 0.01 0.01 0.0 0.0 0.0 0.01 0.0 0.0 0.0 0.01 0.01 0.0 0.0 0.0 0.01 0.0 0.0 0.0 0.01 0.01 0.0 0.0 0.0 0.01 0.0 0.0 0.0 0.01 0.01 0.0 0.0 0.0 0.01 0.0 0.0 0.0 0.01 0.01 0.0 0.0 0.0 0.01 0.0 0.0 0.0 0.01 0.01 0.0 0.0 0.0 0.01 0.0 0.0 0.0 0.01 0.01 0.0 0.0 0.0 0.01 0.0 0.0 0.0 0.01 0.01 0.0 0.0 0.0 0.01 0.0 0.0 0.0 0.01 0.01 0.0 0.0 0.0 0.01 0.0 0.0 0.0 0.01 0.01 0.0 0.0 0.0 0.01 0.0 0.0 0.0 0.01 0.01 0.0 0.0 0.0 0.01 0.0 0.0 0.0 0.01 0.01 0.0 0.0 0.0 0.01 0.0 0.0 0.0 0.01 0.01 0.0 0.0 0.0 0.01 0.0 0.0 0.0 0.01 0.01 0.0 0.0 0.0 0.01 0.0 0.0 0.0 0.01 0.01 0.0 0.0 0.0 0.01 0.0 0.0 0.0 0.01 0.01 0.0 0.0 0.0 0.01 0.0 0.0 0.0 0.01 0.01 0.0 0.0 0.0 0.01 0.0 0.0 0.0 0.01 0.01 0.0 0.0 0.0 0.01 0.0 0.0 0.0 0.01 0.01 0.0 0.0 0.0 0.01 0.0 0.0 0.0 0.01 0.01 0.0 0.0 0.0 0.01 0.0 0.0 0.0 0.01 0.01 0.0 0.0 0.0 0.01 0.0 0.0 0.0 0.01 0.01 0.0 0.0 0.0 0.01 0.0 0.0 0.0 0.01 0.01 0.0 0.0 0.0 0.01 0.0 0.0 0.0 0.01 0.01 0.0 0.0 0.0 0.01 0.0 0.0 0.0 0.01 0.01 0.0 0.0 0.0 0.01 0.0 0.0 0.0 0.01 0.01 0.0 0.0 0.0 0.01 0.0 0.0 0.0 0.01 0.01 0.0 0.0 0.0 0.01 0.0 0.0 0.0 0.01 0.01 0.0 0.0 0.0 0.01 0.0 0.0 0.0 0.01 0.01 0.0 0.0 0.0 0.01 0.0 0.0 0.0 0.01 0.01 0.0 0.0 0.0 0.01 0.0 0.0 0.0 0.01 0.01 0.0 0.0 0.0 0.01 0.0 0.0 0.0 0.01 0.01 0.0 0.0 0.0 0.01 0.0 0.0 0.0 0.01 0.01 0.0 0.0 0.0 0.01 0.0 0.0 0.0 0.01 0.01 0.0 0.0 0.0 0.01 0.0 0.0 0.0 0.01 0.01 0.0 0.0 0.0 0.01 0.0 0.0 0.0 0.01 0.01 0.0 0.0 0.0 0.01 0.0 0.0 0.0 0.01 0.01 0.0 0.0 0.0 0.01 0.0 0.0 0.0 0.01 0.01 0.0 0.0 0.0 0.01 0.0 0.0 0.0 0.01 0.01 0.0 0.0 0.0 0.01 0.0 0.0 0.0 0.01 0.01 0.0 0.0 0.0 0.01 0.0 0.0 0.0 0.01 0.01 0.0 0.0 0.0 0.01 0.0 0.0 0.0 0.01 0.01 0.0 0.0 0.0 0.01 0.0 0.0 0.0 0.01 0.01 0.0 0.0 0.0 0.01 0.0 0.0 0.0 0.01 0.01 0.0 0.0 0.0 0.01 0.0 0.0 0.0 0.01 0.01 0.0 0.0 0.0 0.01 0.0 0.0 0.0 0.01 0.01 0.0 0.0 0.0 0.01 0.0 0.0 0.0 0.01 0.01 0.0 0.0 0.0 0.01 0.0 0.0 0.0 0.01 0.01 0.0 0.0 0.0 0.01 0.0 0.0 0.0 0.01 0.01 0.0 0.0 0.0 0.01 0.0 0.0 0.0 0.01 0.01 0.0 0.0 0.0 0.01 0.0 0.0 0.0 0.01 0.01 0.0 0.0 0.0 0.01 0.0 0.0 0.0 0.01 0.01 0.0 0.0 0.0 0.01 0.0 0.0 0.0 0.01 0.01 0.0 0.0 0.0 0.01 0.0 0.0 0.0 0.01 0.01 0.0 0.0 0.0 0.01 0.0 0.0 0.0 0.01 0.01 0.0 0.0 0.0 0.01 0.0 0.0 0.0 0.01 0.01 0.0 0.0 0.0 0.01 0.0 0.0 0.0 0.01 0.01 0.0 0.0 0.0 0.01 0.0 0.0 0.0 0.01 0.01 0.0 0.0 0.0 0.01 0.0 0.0 0.0 0.01 0.01 0.0 0.0 0.0 0.01 0.0 0.0 0.0 0.01 0.01 0.0 0.0 0.0 0.01 0.0 0.0 0.0 0.01 0.01 0.0 0.0 0.0 0.01 0.0 0.0 0.0 0.01 0.01 0.0 0.0 0.0 0.01 0.0 0.0 0.0 0.01 0.01 0.0 0.0 0.0 0.01 0.0 0.0 0.0 0.01 0.01 0.0 0.0 0.0 0.01 0.0 0.0 0.0 0.01 0.01 0.0 0.0 0.0 0.01 0.0 0.0 0.0 0.01 0.01 0.0 0.0 0.0 0.01 0.0 0.0 0.0 0.01 0.01 0.0 0.0 0.0 0.01 0.0 0.0 0.0 0.01 0.01 0.0 0.0 0.0 0.01 0.0 0.0 0.0 0.01 0.01 0.0 0.0 0.0 0.01 0.0 0.0 0.0 0.01 0.01 0.0 0.0 0.0 0.01 0.0 0.0 0.0 0.01 0.01 0.0 0.0 0.0 0.01 0.0 0.0 0.0 0.01 0.01 0.0 0.0 0.0 0.01 0.0 0.0 0.0 0.01 0.01 0.0 0.0 0.0 0.01 0.0 0.0 0.0 0.01 0.01 0.0 0.0 0.0 0.01 0.0 0.0 0.0 0.01 0.01 0.0 0.0 0.0 0.01 0.0 0.0 0.0 0.01 0.01 0.0 0.0 0.0 0.01 0.0 0.0 0.0 0.01 0.01 0.0 0.0 0.0 0.01 0.0 0.0 0.0 0.01 0.01 0.0 0.0 0.0 0.01 0.0 0.0 0.0 0.01 0.01 0.0 0.0 0.0 0.01 0.0 0.0 0.0 0.01 0.01 0.0 0.0 0.0 0.01 0.0 0.0 0.0 0.01 0.01 0.0 0.0 0.0 0.01 0.0 0.0 0.0 0.01 0.01 0.0 0.0 0.0 0.01 0.0 0.0 0.0 0.01 0.01 0.0 0.0 0.0 0.01 0.0 0.0 0.0 0.01 0.01 0.0 0.0 0.0 0.01 0.0 0.0 0.0 0.01 0.01 0.0 0.0 0.0 0.01 0.0 0.0 0.0 0.01 0.01 0.0 0.0 0.0 0.01 0.0 0.0 0.0 0.01 0.01 0.0 0.0 0.0 0.01 0.0 0.0 0.0 0.01 0.01 0.0 0.0 0.0 0.01 0.0 0.0 0.0 0.01 0.01 0.0 0.0 0.0 0.01 0.0 0.0 0.0 0.01 0.01 0.0 0.0 0.0 0.01 0.0 0.0 0.0 0.01 0.01 0.0 0.0 0.0 0.01 0.0 0.0 0.0 0.01 0.01 0.0 0.0 0.0 0.01 0.0 0.0 0.0 0.01 0.01 0.0 0.0 0.0 0.01 0.0 0.0 0.0 0.01 0.01 0.0 0.0 0.0 0.01 0.0 0.0 0.0 0.01 0.01 0.0 0.0 0.0 0.01 0.0 0.0 0.0 0.01 0.01 0.0 0.0 0.0 0.01 0.0 0.0 0.0 0.01 0.01 0.0 0.0 0.0 0.01 0.0 0.0 0.0 0.01 0.01 0.0 0.0 0.0 0.01 0.0 0.0 0.0 0.01 0.01 0.0 0.0 0.0 0.01 0.0 0.0 0.0 0.01 0.01 0.0 0.0 0.0 0.01 0.0 0.0 0.0 0.01 0.01 0.0 0.0 0.0 0.01 0.0 0.0 0.0 0.01 0.01 0.0 0.0 0.0 0.01 0.0 0.0 0.0 0.01 0.01 0.0 0.0 0.0 0.01 0.0 0.0 0.0 0.01 0.01 0.0 0.0 0.0 0.01 0.0 0.0 0.0 0.01 0.01 0.0 0.0 0.0 0.01 0.0 0.0 0.0 0.01 0.01 0.0 0.0 0.0 0.01 0.0 0.0 0.0 0.01 0.01 0.0 0.0 0.0 0.01 0.0 0.0 0.0 0.01 0.01 0.0 0.0 0.0 0.01 0.0 0.0 0.0 0.01 0.01 0.0 0.0 0.0 0.01 0.0 0.0 0.0 0.01 0.01 0.0 0.0 0.0 0.01 0.0 0.0 0.0 0.01 0.01 0.0 0.0 0.0 0.01 0.0 0.0 0.0 0.01 0.01 0.0 0.0 0.0 0.01 0.0 0.0 0.0 0.01 0.01 0.0 0.0 0.0 0.01 0.0 0.0 0.0 0.01 0.01 0.0 0.0 0.0 0.01 0.0 0.0 0.0 0.01 0.01 0.0 0.0 0.0 0.01 0.0 0.0 0.0 0.01 0.01 0.0 0.0 0.0 0.01 0.0 0.0 0.0 0.01 0.01 0.0 0.0 0.0 0.01 0.0 0.0 0.0 0.01 0.01 0.0 0.0 0.0 0.01 0.0 0.0 0.0 0.01 0.01 0.0 0.0 0.0 0.01 0.0 0.0 0.0 0.01 0.01 0.0 0.0 0.0 0.01 0.0 0.0 0.0 0.01 0.01 0.0 0.0 0.0 0.01 0.0 0.0 0.0 0.01 0.01 0.0 0.0 0.0 0.01 0.0 0.0 0.0 0.01 0.01 0.0 0.0 0.0 0.01 0.0 0.0 0.0 0.01 0.01 0.0 0.0 0.0 0.01 0.0 0.0 0.0 0.01 0.01 0.0 0.0 0.0 0.01 0.0 0.0 0.0 0.01 0.01 0.0 0.0 0.0 0.01 0.0 0.0 0.0 0.01 0.01 0.0 0.0 0.0 0.01 0.0 0.0 0.0 0.01 0.01 0.0 0.0 0.0 0.01 0.0 0.0 0.0 0.01 0.01 0.0 0.0 0.0 0.01 0.0 0.0 0.0 0.01 0.01 0.0 0.0 0.0 0.01 0.0 0.0 0.0 0.01 0.01 0.0 0.0 0.0 0.01 0.0 0.0 0.0 0.01 0.01 0.0 0.0 0.0 0.01 0.0 0.0 0.0 0.01 0.01 0.0 0.0 0.0 0.01 0.0 0.0 0.0 0.01 0.01 0.0 0.0 0.0 0.01 0.0 0.0 0.0 0.01 0.01 0.0 0.0 0.0 0.01 0.0 0.0 0.0 0.01 0.01 0.0 0.0 0.0 0.01 0.0 0.0 0.0 0.01 0.01 0.0 0.0 0.0 0.01 0.0 0.0 0.0 0.01 0.01 0.0 0.0 0.0 0.01 0.0 0.0 0.0 0.01 0.01 0.0 0.0 0.0 0.01 0.0 0.0 0.0 0.01 0.01 0.0 0.0 0.0 0.01 0.0 0.0 0.0 0.01 0.01 0.0 0.0 0.0 0.01 0.0 0.0 0.0 0.01 0.01 0.0 0.0 0.0 0.01 0.0 0.0 0.0 0.01 0.01 0.0 0.0 0.0 0.01 0.0 0.0 0.0 0.01 0.01 0.0 0.0 0.0 0.01 0.0 0.0 0.0 0.01 0.01 0.0 0.0 0.0 0.01 0.0 0.0 0.0 0.01 0.01 0.0 0.0 0.0 0.01 0.0 0.0 0.0 0.01 0.01 0.0 0.0 0.0 0.01 0.0 0.0 0.0 0.01 0.01 0.0 0.0 0.0 0.01 0.0 0.0 0.0 0.01 0.01 0.0 0.0 0.0 0.01 0.0 0.0 0.0 0.01 0.01 0.0 0.0 0.0 0.01 0.0 0.0 0.0 0.01 0.01 0.0 0.0 0.0 0.01 0.0 0.0 0.0 0.01 0.01 0.0 0.0 0.0 0.01 0.0 0.0 0.0 0.01 0.01 0.0 0.0 0.0 0.01 0.0 0.0 0.0 0.01 0.01 0.0 0.0 0.0 0.01 0.0 0.0 0.0 0.01 0.01 0.0 0.0 0.0 0.01 0.0 0.0 0.0 0.01 0.01 0.0 0.0 0.0 0.01 0.0 0.0 0.0 0.01 0.01 0.0 0.0 0.0 0.01 0.0 0.0 0.0 0.01 0.01 0.0 0.0 0.0 0.01 0.0 0.0 0.0 0.01 0.01 0.0 0.0 0.0 0.01 0.0 0.0 0.0 0.01 0.01 0.0 0.0 0.0 0.01 0.0 0.0 0.0 0.01 0.01 0.0 0.0 0.0 0.01 0.0 0.0 0.0 0.01 0.01 0.0 0.0 0.0 0.01 0.0 0.0 0.0 0.01 0.01 0.0 0.0 0.0 0.01 0.0 0.0 0.0 0.01 0.01 0.0 0.0 0.0 0.01 0.0 0.0 0.0 0.01 0.01 0.0 0.0 0.0 0.01 0.0 0.0 0.0 0.01 0.01 0.0 0.0 0.0 0.01 0.0 0.0 0.0 0.01 0.01 0.0 0.0 0.0 0.01 0.0 0.0 0.0 0.01 0.01 0.0 0.0 0.0 0.01 0.0 0.0 0.0 0.01 0.01 0.0 0.0 0.0 0.01 0.0 0.0 0.0 0.01 0.01 0.0 0.0 0.0 0.01 0.0 0.0 0.0 0.01 0.01 0.0 0.0 0.0 0.01 0.0 0.0 0.0 0.01 0.01 0.0 0.0 0.0 0.01 0.0 0.0 0.0 0.01 0.01 0.0 0.0 0.0 0.01 0.0 0.0 0.0 0.01 0.01 0.0 0.0 0.0 0.01 0.0 0.0 0.0 0.01 0.01 0.0 0.0 0.0 0.01 0.0 0.0 0.0 0.01 0.01 0.0 0.0 0.0 0.01 0.0 0.0 0.0 0.01 0.01 0.0 0.0 0.0 0.01 0.0 0.0 0.0 0.01 0.01 0.0 0.0 0.0 0.01 0.0 0.0 0.0 0.01 0.01 0.0 0.0 0.0 0.01 0.0 0.0 0.0 0.01 0.01 0.0 0.0 0.0 0.01 0.0 0.0 0.0 0.01 0.01 0.0 0.0 0.0 0.01 0.0 0.0 0.0 0.01 0.01 0.0 0.0 0.0 0.01 0.0 0.0 0.0 0.01 0.01 0.0 0.0 0.0 0.01 0.0 0.0 0.0 0.01 0.01 0.0 0.0 0.0 0.01 0.0 0.0 0.0 0.01 0.01 0.0 0.0 0.0 0.01 0.0 0.0 0.0 0.01 0.01 0.0 0.0 0.0 0.01 0.0 0.0 0.0 0.01 0.01 0.0 0.0 0.0 0.01 0.0 0.0 0.0 0.01 0.01 0.0 0.0 0.0 0.01 0.0 0.0 0.0 0.01 0.01 0.0 0.0 0.0 0.01 0.0 0.0 0.0 0.01 0.01 0.0 0.0 0.0 0.01 0.0 0.0 0.0 0.01 0.01 0.0 0.0 0.0 0.01 0.0 0.0 0.0 0.01 0.01 0.0 0.0 0.0 0.01 0.0 0.0 0.0 0.01 0.01 0.0 0.0 0.0 0.01 0.0 0.0 0.0 0.01 0.01 0.0 0.0 0.0 0.01 0.0 0.0 0.0 0.01 0.01 0.0 0.0 0.0 0.01 0.0 0.0 0.0 0.01 0.01 0.0 0.0 0.0 0.01 0.0 0.0 0.0 0.01 0.01 0.0 0.0 0.0 0.01 0.0 0.0 0.0 0.01 0.01 0.0 0.0 0.0 0.01 0.0 0.0 0.0 0.01 0.01 0.0 0.0 0.0 0.01 0.0 0.0 0.0 0.01 0.01 0.0 0.0 0.0 0.01 0.0 0.0 0.0 0.01 0.01 0.0 0.0 0.0 0.01 0.0 0.0 0.0 0.01 0.01 0.0 0.0 0.0 0.01 0.0 0.0 0.0 0.01 0.01 0.0 0.0 0.0 0.01 0.0 0.0 0.0 0.01 0.01 0.0 0.0 0.0 0.01 0.0 0.0 0.0 0.01 0.01 0.0 0.0 0.0 0.01 0.0 0.0 0.0 0.01 0.01 0.0 0.0 0.0 0.01 0.0 0.0 0.0 0.01 0.01 0.0 0.0 0.0 0.01 0.0 0.0 0.0 0.01 0.01 0.0 0.0 0.0 0.01 0.0 0.0 0.0 0.01 0.01 0.0 0.0 0.0 0.01 0.0 0.0 0.0 0.01 0.01 0.0 0.0 0.0 0.01 0.0 0.0 0.0 0.01 0.01 0.0 0.0 0.0 0.01 0.0 0.0 0.0 0.01 0.01 0.0 0.0 0.0 0.01 0.0 0.0 0.0 0.01 0.01 0.0 0.0 0.0 0.01 0.0 0.0 0.0 0.01 0.01 0.0 0.0 0.0 0.01 0.0 0.0 0.0 0.01 0.01 0.0 0.0 0.0 0.01 0.0 0.0 0.0 0.01 0.01 0.0 0.0 0.0 0.01 0.0 0.0 0.0 0.01 0.01 0.0 0.0 0.0 0.01 0.0 0.0 0.0 0.01 0.01 0.0 0.0 0.0 0.01 0.0 0.0 0.0 0.01 0.01 0.0 0.0 0.0 0.01 0.0 0.0 0.0 0.01 0.01 0.0 0.0 0.0 0.01 0.0 0.0 0.0 0.01 0.01 0.0 0.0 0.0 0.01 0.0 0.0 0.0 0.01 0.01 0.0 0.0 0.0 0.01 0.0 0.0 0.0 0.01 0.01 0.0 0.0 0.0 0.01 0.0 0.0 0.0 0.01 0.01 0.0 0.0 0.0 0.01 0.0 0.0 0.0 0.01 0.01 0.0 0.0 0.0 0.01 0.0 0.0 0.0 0.01 0.01 0.0 0.0 0.0 0.01 0.0 0.0 0.0 0.01 0.01 0.0 0.0 0.0 0.01 0.0 0.0 0.0 0.01 0.01 0.0 0.0 0.0 0.01 0.0 0.0 0.0 0.01 0.01 0.0 0.0 0.0 0.01 0.0 0.0 0.0 0.01 0.01 0.0 0.0 0.0 0.01 0.0 0.0 0.0 0.01 0.01 0.0 0.0 0.0 0.01 0.0 0.0 0.0 0.01 0.01 0.0 0.0 0.0 0.01 0.0 0.0 0.0 0.01 0.01 0.0 0.0 0.0 0.01 0.0 0.0 0.0 0.01 0.01 0.0 0.0 0.0 0.01 0.0 0.0 0.0 0.01 0.01 0.0 0.0 0.0 0.01 0.0 0.0 0.0 0.01 0.01 0.0 0.0 0.0 0.01 0.0 0.0 0.0 0.01 0.01 0.0 0.0 0.0 0.01 0.0 0.0 0.0 0.01 0.01 0.0 0.0 0.0 0.01 0.0 0.0 0.0 0.01 0.01 0.0 0.0 0.0 0.01 0.0 0.0 0.0 0.01 0.01 0.0 0.0 0.0 0.01 0.0 0.0 0.0 0.01 0.01 0.0 0.0 0.0 0.01 0.0 0.0 0.0 0.01 0.01 0.0 0.0 0.0 0.01 0.0 0.0 0.0 0.01 0.01 0.0 0.0 0.0 0.01 0.0 0.0 0.0 0.01 0.01 0.0 0.0 0.0 0.01 0.0 0.0 0.0 0.01 0.01 0.0 0.0 0.0 0.01 0.0 0.0 0.0 0.01 0.01 0.0 0.0 0.0 0.01 0.0 0.0 0.0 0.01 0.01 0.0 0.0 0.0 0.01 0.0 0.0 0.0 0.01 0.01 0.0 0.0 0.0 0.01 0.0 0.0 0.0 0.01 0.01 0.0 0.0 0.0 0.01 0.0 0.0 0.0 0.01 0.01 0.0 0.0 0.0 0.01 0.0 0.0 0.0 0.01 0.01 0.0 0.0 0.0 0.01 0.0 0.0 0.0 0.01 0.01 0.0 0.0 0.0 0.01 0.0 0.0 0.0 0.01 0.01 0.0 0.0 0.0 0.01 0.0 0.0 0.0 0.01 0.01 0.0 0.0 0.0 0.01 0.0 0.0 0.0 0.01 0.01 0.0 0.0 0.0 0.01 0.0 0.0 0.0 0.01 0.01 0.0 0.0 0.0 0.01 0.0 0.0 0.0 0.01 0.01 0.0 0.0 0.0 0.01 0.0 0.0 0.0 0.01 0.01 0.0 0.0 0.0 0.01 0.0 0.0 0.0 0.01 0.01 0.0 0.0 0.0 0.01 0.0 0.0 0.0 0.01 0.01 0.0 0.0 0.0 0.01 0.0 0.0 0.0 0.01 0.01 0.0 0.0 0.0 0.01 0.0 0.0 0.0 0.01 0.01 0.0 0.0 0.0 0.01 0.0 0.0 0.0 0.01 0.01 0.0 0.0 0.0 0.01 0.0 0.0 0.0 0.01 0.01 0.0 0.0 0.0 0.01 0.0 0.0 0.0 0.01 0.01 0.0 0.0 0.0 0.01 0.0 0.0 0.0 0.01 0.01 0.0 0.0 0.0 0.01 0.0 0.0 0.0 0.01 0.01 0.0 0.0 0.0 0.01 0.0 0.0 0.0 0.01 0.01 0.0 0.0 0.0 0.01 0.0 0.0 0.0 0.01 0.01 0.0 0.0 0.0 0.01 0.0 0.0 0.0 0.01 0.01 0.0 0.0 0.0 0.01 0.0 0.0 0.0 0.01 0.01 0.0 0.0 0.0 0.01 0.0 0.0 0.0 0.01 0.01 0.0 0.0 0.0 0.01 0.0 0.0 0.0 0.01 0.01 0.0 0.0 0.0 0.01 0.0 0.0 0.0 0.01 0.01 0.0 0.0 0.0 0.01 0.0 0.0 0.0 0.01 0.01 0.0 0.0 0.0 0.01 0.0 0.0 0.0 0.01 0.01 0.0 0.0 0.0 0.01 0.0 0.0 0.0 0.01 0.01 0.0 0.0 0.0 0.01 0.0 0.0 0.0 0.01 0.01 0.0 0.0 0.0 0.01 0.0 0.0 0.0 0.01 0.01 0.0 0.0 0.0 0.01 0.0 0.0 0.0 0.01 0.01 0.0 0.0 0.0 0.01 0.0 0.0 0.0 0.01 0.01 0.0 0.0 0.0 0.01 0.0 0.0 0.0 0.01 0.01 0.0 0.0 0.0 0.01 0.0 0.0 0.0 0.01 0.01 0.0 0.0 0.0 0.01 0.0 0.0 0.0 0.01 0.01 0.0 0.0 0.0 0.01 0.0 0.0 0.0 0.01 0.01 0.0 0.0 0.0 0.01 0.0 0.0 0.0 0.01 0.01 0.0 0.0 0.0 0.01 0.0 0.0 0.0 0.01 0.01 0.0 0.0 0.0 0.01 0.0 0.0 0.0 0.01 0.01 0.0 0.0 0.0 0.01 0.0 0.0 0.0 0.01 0.01 0.0 0.0 0.0 0.01 0.0 0.0 0.0 0.01 0.01 0.0 0.0 0.0 0.01 0.0 0.0 0.0 0.01 0.01 0.0 0.0 0.0 0.01 0.0 0.0 0.0 0.01 0.01 0.0 0.0 0.0 0.01 0.0 0.0 0.0 0.01 0.01 0.0 0.0 0.0 0.01 0.0 0.0 0.0 0.01 0.01 0.0 0.0 0.0 0.01 0.0 0.0 0.0 0.01 0.01 0.0 0.0 0.0 0.01 0.0 0.0 0.0 0.01 0.01 0.0 0.0 0.0 0.01 0.0 0.0 0.0 0.01 0.01 0.0 0.0 0.0 0.01 0.0 0.0 0.0 0.01 0.01 0.0 0.0 0.0 0.01 0.0 0.0 0.0 0.01 0.01 0.0 0.0 0.0 0.01 0.0 0.0 0.0 0.01 0.01 0.0 0.0 0.0 0.01 0.0 0.0 0.0 0.01 0.01 0.0 0.0 0.0 0.01 0.0 0.0 0.0 0.01 0.01 0.0 0.0 0.0 0.01 0.0 0.0 0.0 0.01 0.01 0.0 0.0 0.0 0.01 0.0 0.0 0.0 0.01 0.01 0.0 0.0 0.0 0.01 0.0 0.0 0.0 0.01 0.01 0.0 0.0 0.0 0.01 0.0 0.0 0.0 0.01 0.01 0.0 0.0 0.0 0.01 0.0 0.0 0.0 0.01 0.01 0.0 0.0 0.0 0.01 0.0 0.0 0.0 0.01 0.01 0.0 0.0 0.0 0.01 0.0 0.0 0.0 0.01 0.01 0.0 0.0 0.0 0.01 0.0 0.0 0.0 0.01 0.01 0.0 0.0 0.0 0.01 0.0 0.0 0.0 0.01 0.01 0.0 0.0 0.0 0.01 0.0 0.0 0.0 0.01 0.01 0.0 0.0 0.0 0.01 0.0 0.0 0.0 0.01 0.01 0.0 0.0 0.0 0.01 0.0 0.0 0.0 0.01 0.01 0.0 0.0 0.0 0.01 0.0 0.0 0.0 0.01 0.01 0.0 0.0 0.0 0.01 0.0 0.0 0.0 0.01 0.01 0.0 0.0 0.0 0.01 0.0 0.0 0.0 0.01 0.01 0.0 0.0 0.0 0.01 0.0 0.0 0.0 0.01 0.01 0.0 0.0 0.0 0.01 0.0 0.0 0.0 0.01 0.01 0.0 0.0 0.0 0.01 0.0 0.0 0.0 0.01 0.01 0.0 0.0 0.0 0.01 0.0 0.0 0.0 0.01 0.01 0.0 0.0 0.0 0.01 0.0 0.0 0.0 0.01 0.01 0.0 0.0 0.0 0.01 0.0 0.0 0.0 0.01 0.01 0.0 0.0 0.0 0.01 0.0 0.0 0.0 0.01 0.01 0.0 0.0 0.0 0.01 0.0 0.0 0.0 0.01 0.01 0.0 0.0 0.0 0.01 0.0 0.0 0.0 0.01 0.01 0.0 0.0 0.0 0.01 0.0 0.0 0.0 0.01 0.01 0.0 0.0 0.0 0.01 0.0 0.0 0.0 0.01 0.01 0.0 0.0 0.0 0.01 0.0 0.0 0.0 0.01 0.01 0.0 0.0 0.0 0.01 0.0 0.0 0.0 0.01 0.01 0.0 0.0 0.0 0.01 0.0 0.0 0.0 0.01 0.01 0.0 0.0 0.0 0.01 0.0 0.0 0.0 0.01 0.01 0.0 0.0 0.0 0.01 0.0 0.0 0.0 0.01 0.01 0.0 0.0 0.0 0.01 0.0 0.0 0.0 0.01 0.01 0.0 0.0 0.0 0.01 0.0 0.0 0.0 0.01 0.01 0.0 0.0 0.0 0.01 0.0 0.0 0.0 0.01 0.01 0.0 0.0 0.0 0.01 0.0 0.0 0.0 0.01 0.01 0.0 0.0 0.0 0.01 0.0 0.0 0.0 0.01 0.01 0.0 0.0 0.0 0.01 0.0 0.0 0.0 0.01 0.01 0.0 0.0 0.0 0.01 0.0 0.0 0.0 0.01 0.01 0.0 0.0 0.0 0.01 0.0 0.0 0.0 0.01 0.01 0.0 0.0 0.0 0.01 0.0 0.0 0.0 0.01 0.01 0.0 0.0 0.0 0.01 0.0 0.0 0.0 0.01 0.01 0.0 0.0 0.0 0.01 0.0 0.0 0.0 0.01 0.01 0.0 0.0 0.0 0.01 0.0 0.0 0.0 0.01 0.01 0.0 0.0 0.0 0.01 0.0 0.0 0.0 0.01 0.01 0.0 0.0 0.0 0.01 0.0 0.0 0.0 0.01 0.01 0.0 0.0 0.0 0.01 0.0 0.0 0.0 0.01 0.01 0.0 0.0 0.0 0.01 0.0 0.0 0.0 0.01 0.01 0.0 0.0 0.0 0.01 0.0 0.0 0.0 0.01 0.01 0.0 0.0 0.0 0.01 0.0 0.0 0.0 0.01 0.01 0.0 0.0 0.0 0.01 0.0 0.0 0.0 0.01 0.01 0.0 0.0 0.0 0.01 0.0 0.0 0.0 0.01 0.01 0.0 0.0 0.0 0.01 0.0 0.0 0.0 0.01 0.01 0.0 0.0 0.0 0.01 0.0 0.0 0.0 0.01 0.01 0.0 0.0 0.0 0.01 0.0 0.0 0.0 0.01 0.01 0.0 0.0 0.0 0.01 0.0 0.0 0.0 0.01 0.01 0.0 0.0 0.0 0.01 0.0 0.0 0.0 0.01 0.01 0.0 0.0 0.0 0.01 0.0 0.0 0.0 0.01 0.01 0.0 0.0 0.0 0.01 0.0 0.0 0.0 0.01 0.01 0.0 0.0 0.0 0.01 0.0 0.0 0.0 0.01 0.01 0.0 0.0 0.0 0.01 0.0 0.0 0.0 0.01 0.01 0.0 0.0 0.0 0.01 0.0 0.0 0.0 0.01 0.01 0.0 0.0 0.0 0.01 0.0 0.0 0.0 0.01 0.01 0.0 0.0 0.0 0.01 0.0 0.0 0.0 0.01 0.01 0.0 0.0 0.0 0.01 0.0 0.0 0.0 0.01 0.01 0.0 0.0 0.0 0.01 0.0 0.0 0.0 0.01 0.01 0.0 0.0 0.0 0.01 0.0 0.0 0.0 0.01 0.01 0.0 0.0 0.0 0.01 0.0 0.0 0.0 0.01 0.01 0.0 0.0 0.0 0.01 0.0 0.0 0.0 0.01 0.01 0.0 0.0 0.0 0.01 0.0 0.0 0.0 0.01 0.01 0.0 0.0 0.0 0.01 0.0 0.0 0.0 0.01 0.01 0.0 0.0 0.0 0.01 0.0 0.0 0.0 0.01 0.01 0.0 0.0 0.0 0.01 0.0 0.0 0.0 0.01 0.01 0.0 0.0 0.0 0.01 0.0 0.0 0.0 0.01 0.01 0.0 0.0 0.0 0.01 0.0 0.0 0.0 0.01 0.01 0.0 0.0 0.0 0.01 0.0 0.0 0.0 0.01 0.01 0.0 0.0 0.0 0.01 0.0 0.0 0.0 0.01 0.01 0.0 0.0 0.0 0.01 0.0 0.0 0.0 0.01 0.01 0.0 0.0 0.0 0.01 0.0 0.0 0.0 0.01 0.01 0.0 0.0 0.0 0.01 0.0 0.0 0.0 0.01 0.01 0.0 0.0 0.0 0.01 0.0 0.0 0.0 0.01 0.01 0.0 0.0 0.0 0.01 0.0 0.0 0.0 0.01 0.01 0.0 0.0 0.0 0.01 0.0 0.0 0.0 0.01 0.01 0.0 0.0 0.0 0.01 0.0 0.0 0.0 0.01 0.01 0.0 0.0 0.0 0.01 0.0 0.0 0.0 0.01 0.01 0.0 0.0 0.0 0.01 0.0 0.0 0.0 0.01 0.01 0.0 0.0 0.0 0.01 0.0 0.0 0.0 0.01 0.01 0.0 0.0 0.0 0.01 0.0 0.0 0.0 0.01 0.01 0.0 0.0 0.0 0.01 0.0 0.0 0.0 0.01 0.01 0.0 0.0 0.0 0.01 0.0 0.0 0.0 0.01 0.01 0.0 0.0 0.0 0.01 0.0 0.0 0.0 0.01 0.01 0.0 0.0 0.0 0.01 0.0 0.0 0.0 0.01 0.01 0.0 0.0 0.0 0.01 0.0 0.0 0.0 0.01 0.01 0.0 0.0 0.0 0.01 0.0 0.0 0.0 0.01 0.01 0.0 0.0 0.0 0.01 0.0 0.0 0.0 0.01 0.01 0.0 0.0 0.0 0.01 0.0 0.0 0.0 0.01 0.01 0.0 0.0 0.0 0.01 0.0 0.0 0.0 0.01 0.01 0.0 0.0 0.0 0.01 0.0 0.0 0.0 0.01 0.01 0.0 0.0 0.0 0.01 0.0 0.0 0.0 0.01 0.01 0.0 0.0 0.0 0.01 0.0 0.0 0.0 0.01 0.01 0.0 0.0 0.0 0.01 0.0 0.0 0.0 0.01 0.01 0.0 0.0 0.0 0.01 0.0 0.0 0.0 0.01 0.01 0.0 0.0 0.0 0.01 0.0 0.0 0.0 0.01 0.01 0.0 0.0 0.0 0.01 0.0 0.0 0.0 0.01 0.01 0.0 0.0 0.0 0.01 0.0 0.0 0.0 0.01 0.01 0.0 0.0 0.0 0.01 0.0 0.0 0.0 0.01 0.01 0.0 0.0 0.0 0.01 0.0 0.0 0.0 0.01 0.01 0.0 0.0 0.0 0.01 0.0 0.0 0.0 0.01 0.01 0.0 0.0 0.0 0.01 0.0 0.0 0.0 0.01 0.01 0.0 0.0 0.0 0.01 0.0 0.0 0.0 0.01 0.01 0.0 0.0 0.0 0.01 0.0 0.0 0.0 0.01 0.01 0.0 0.0 0.0 0.01 0.0 0.0 0.0 0.01 0.01 0.0 0.0 0.0 0.01 0.0 0.0 0.0 0.01 0.01 0.0 0.0 0.0 0.01 0.0 0.0 0.0 0.01 0.01 0.0 0.0 0.0 0.01 0.0 0.0 0.0 0.01 0.01 0.0 0.0 0.0 0.01 0.0 0.0 0.0 0.01 0.01 0.0 0.0 0.0 0.01 0.0 0.0 0.0 0.01 0.01 0.0 0.0 0.0 0.01 0.0 0.0 0.0 0.01 0.01 0.0 0.0 0.0 0.01 0.0 0.0 0.0 0.01 0.01 0.0 0.0 0.0 0.01 0.0 0.0 0.0 0.01 0.01 0.0 0.0 0.0 0.01 0.0 0.0 0.0 0.01 0.01 0.0 0.0 0.0 0.01 0.0 0.0 0.0 0.01 0.01 0.0 0.0 0.0 0.01 0.0 0.0 0.0 0.01 0.01 0.0 0.0 0.0 0.01 0.0 0.0 0.0 0.01 0.01 0.0 0.0 0.0 0.01 0.0 0.0 0.0 0.01 0.01 0.0 0.0 0.0 0.01 0.0 0.0 0.0 0.01 0.01 0.0 0.0 0.0 0.01 0.0 0.0 0.0 0.01 0.01 0.0 0.0 0.0 0.01 0.0 0.0 0.0 0.01 0.01 0.0 0.0 0.0 0.01 0.0 0.0 0.0 0.01 0.01 0.0 0.0 0.0 0.01 0.0 0.0 0.0 0.01 0.01 0.0 0.0 0.0 0.01 0.0 0.0 0.0 0.01 0.01 0.0 0.0 0.0 0.01 0.0 0.0 0.0 0.01 0.01 0.0 0.0 0.0 0.01 0.0 0.0 0.0 0.01 0.01 0.0 0.0 0.0 0.01 0.0 0.0 0.0 0.01 0.01 0.0 0.0 0.0 0.01 0.0 0.0 0.0 0.01 0.01 0.0 0.0 0.0 0.01 0.0 0.0 0.0 0.01 0.01 0.0 0.0 0.0 0.01 0.0 0.0 0.0 0.01 0.01 0.0 0.0 0.0 0.01 0.0 0.0 0.0 0.01 0.01 0.0 0.0 0.0 0.01 0.0 0.0 0.0 0.01 0.01 0.0 0.0 0.0 0.01 0.0 0.0 0.0 0.01 0.01 0.0 0.0 0.0 0.01 0.0 0.0 0.0 0.01 0.01 0.0 0.0 0.0 0.01 0.0 0.0 0.0 0.01 0.01 0.0 0.0 0.0 0.01 0.0 0.0 0.0 0.01 0.01 0.0 0.0 0.0 0.01 0.0 0.0 0.0 0.01 0.01 0.0 0.0 0.0 0.01 0.0 0.0 0.0 0.01 0.01 0.0 0.0 0.0 0.01 0.0 0.0 0.0 0.01 0.01 0.0 0.0 0.0 0.01 0.0 0.0 0.0 0.01 0.01 0.0 0.0 0.0 0.01 0.0 0.0 0.0 0.01 0.01 0.0 0.0 0.0 0.01 0.0 0.0 0.0 0.01 0.01 0.0 0.0 0.0 0.01 0.0 0.0 0.0 0.01 0.01 0.0 0.0 0.0 0.01 0.0 0.0 0.0 0.01 0.01 0.0 0.0 0.0 0.01 0.0 0.0 0.0 0.01 0.01 0.0 0.0 0.0 0.01 0.0 0.0 0.0 0.01 0.01 0.0 0.0 0.0 0.01 0.0 0.0 0.0 0.01 0.01 0.0 0.0 0.0 0.01 0.0 0.0 0.0 0.01 0.01 0.0 0.0 0.0 0.01 0.0 0.0 0.0 0.01 0.01 0.0 0.0 0.0 0.01 0.0 0.0 0.0 0.01 0.01 0.0 0.0 0.0 0.01 0.0 0.0 0.0 0.01 0.01 0.0 0.0 0.0 0.01 0.0 0.0 0.0 0.01 0.01 0.0 0.0 0.0 0.01 0.0 0.0 0.0 0.01 0.01 0.0 0.0 0.0 0.01 0.0 0.0 0.0 0.01 0.01 0.0 0.0 0.0 0.01 0.0 0.0 0.0 0.01 0.01 0.0 0.0 0.0 0.01 0.0 0.0 0.0 0.01 0.01 0.0 0.0 0.0 0.01 0.0 0.0 0.0 0.01 0.01 0.0 0.0 0.0 0.01 0.0 0.0 0.0 0.01 0.01 0.0 0.0 0.0 0.01 0.0 0.0 0.0 0.01 0.01 0.0 0.0 0.0 0.01 0.0 0.0 0.0 0.01 0.01 0.0 0.0 0.0 0.01 0.0 0.0 0.0 0.01 0.01 0.0 0.0 0.0 0.01 0.0 0.0 0.0 0.01 0.01 0.0 0.0 0.0 0.01 0.0 0.0 0.0 0.01 0.01 0.0 0.0 0.0 0.01 0.0 0.0 0.0 0.01 0.01 0.0 0.0 0.0 0.01 0.0 0.0 0.0 0.01 0.01 0.0 0.0 0.0 0.01 0.0 0.0 0.0 0.01 0.01 0.0 0.0 0.0 0.01 0.0 0.0 0.0 0.01 0.01 0.0 0.0 0.0 0.01 0.0 0.0 0.0 0.01 0.01 0.0 0.0 0.0 0.01 0.0 0.0 0.0 0.01 0.01 0.0 0.0 0.0 0.01 0.0 0.0 0.0 0.01 0.01 0.0 0.0 0.0 0.01 0.0 0.0 0.0 0.01 0.01 0.0 0.0 0.0 0.01 0.0 0.0 0.0 0.01 0.01 0.0 0.0 0.0 0.01 0.0 0.0 0.0 0.01 0.01 0.0 0.0 0.0 0.01 0.0 0.0 0.0 0.01 0.01 0.0 0.0 0.0 0.01 0.0 0.0 0.0 0.01 0.01 0.0 0.0 0.0 0.01 0.0 0.0 0.0 0.01 0.01 0.0 0.0 0.0 0.01 0.0 0.0 0.0 0.01 0.01 0.0 0.0 0.0 0.01 0.0 0.0 0.0 0.01 0.01 0.0 0.0 0.0 0.01 0.0 0.0 0.0 0.01 0.01 0.0 0.0 0.0 0.01 0.0 0.0 0.0 0.01 0.01 0.0 0.0 0.0 0.01 0.0 0.0 0.0 0.01 0.01 0.0 0.0 0.0 0.01 0.0 0.0 0.0 0.01 0.01 0.0 0.0 0.0 0.01 0.0 0.0 0.0 0.01 0.01 0.0 0.0 0.0 0.01 0.0 0.0 0.0 0.01 0.01 0.0 0.0 0.0 0.01 0.0 0.0 0.0 0.01 0.01 0.0 0.0 0.0 0.01 0.0 0.0 0.0 0.01 0.01 0.0 0.0 0.0 0.01 0.0 0.0 0.0 0.01 0.01 0.0 0.0 0.0 0.01 0.0 0.0 0.0 0.01 0.01 0.0 0.0 0.0 0.01 0.0 0.0 0.0 0.01 0.01 0.0 0.0 0.0 0.01 0.0 0.0 0.0 0.01 0.01 0.0 0.0 0.0 0.01 0.0 0.0 0.0 0.01 0.01 0.0 0.0 0.0 0.01 0.0 0.0 0.0 0.01 0.01 0.0 0.0 0.0 0.01 0.0 0.0 0.0 0.01 0.01 0.0 0.0 0.0 0.01 0.0 0.0 0.0 0.01 0.01 0.0 0.0 0.0 0.01 0.0 0.0 0.0 0.01 0.01 0.0 0.0 0.0 0.01 0.0 0.0 0.0 0.01 0.01 0.0 0.0 0.0 0.01 0.0 0.0 0.0 0.01 0.01 0.0 0.0 0.0 0.01 0.0 0.0 0.0 0.01 0.01 0.0 0.0 0.0 0.01 0.0 0.0 0.0 0.01 0.01 0.0 0.0 0.0 0.01 0.0 0.0 0.0 0.01 0.01 0.0 0.0 0.0 0.01 0.0 0.0 0.0 0.01 0.01 0.0 0.0 0.0 0.01 0.0 0.0 0.0 0.01 0.01 0.0 0.0 0.0 0.01 0.0 0.0 0.0 0.01 0.01 0.0 0.0 0.0 0.01 0.0 0.0 0.0 0.01 0.01 0.0 0.0 0.0 0.01 0.0 0.0 0.0 0.01 0.01 0.0 0.0 0.0 0.01 0.0 0.0 0.0 0.01 0.01 0.0 0.0 0.0 0.01 0.0 0.0 0.0 0.01 0.01 0.0 0.0 0.0 0.01 0.0 0.0 0.0 0.01 0.01 0.0 0.0 0.0 0.01 0.0 0.0 0.0 0.01 0.01 0.0 0.0 0.0 0.01 0.0 0.0 0.0 0.01 0.01 0.0 0.0 0.0 0.01 0.0 0.0 0.0 0.01 0.01 0.0 0.0 0.0 0.01 0.0 0.0 0.0 0.01 0.01 0.0 0.0 0.0 0.01 0.0 0.0 0.0 0.01 0.01 0.0 0.0 0.0 0.01 0.0 0.0 0.0 0.01 0.01 0.0 0.0 0.0 0.01 0.0 0.0 0.0 0.01 0.01 0.0 0.0 0.0 0.01 0.0 0.0 0.0 0.01 0.01 0.0 0.0 0.0 0.01 0.0 0.0 0.0 0.01 0.01 0.0 0.0 0.0 0.01 0.0 0.0 0.0 0.01 0.01 0.0 0.0 0.0 0.01 0.0 0.0 0.0 0.01 0.01 0.0 0.0 0.0 0.01 0.0 0.0 0.0 0.01 0.01 0.0 0.0 0.0 0.01 0.0 0.0 0.0 0.01 0.01 0.0 0.0 0.0 0.01 0.0 0.0 0.0 0.01 0.01 0.0 0.0 0.0 0.01 0.0 0.0 0.0 0.01 0.01 0.0 0.0 0.0 0.01 0.0 0.0 0.0 0.01 0.01 0.0 0.0 0.0 0.01 0.0 0.0 0.0 0.01 0.01 0.0 0.0 0.0 0.01 0.0 0.0 0.0 0.01 0.01 0.0 0.0 0.0 0.01 0.0 0.0 0.0 0.01 0.01 0.0 0.0 0.0 0.01 0.0 0.0 0.0 0.01 0.01 0.0 0.0 0.0 0.01 0.0 0.0 0.0 0.01 0.01 0.0 0.0 0.0 0.01 0.0 0.0 0.0 0.01 0.01 0.0 0.0 0.0 0.01 0.0 0.0 0.0 0.01 0.01 0.0 0.0 0.0 0.01 0.0 0.0 0.0 0.01 0.01 0.0 0.0 0.0 0.01 0.0 0.0 0.0 0.01 0.01 0.0 0.0 0.0 0.01 0.0 0.0 0.0 0.01 0.01 0.0 0.0 0.0 0.01 0.0 0.0 0.0 0.01 0.01 0.0 0.0 0.0 0.01 0.0 0.0 0.0 0.01 0.01 0.0 0.0 0.0 0.01 0.0 0.0 0.0 0.01 0.01 0.0 0.0 0.0 0.01 0.0 0.0 0.0 0.01 0.01 0.0 0.0 0.0 0.01 0.0 0.0 0.0 0.01 0.01 0.0 0.0 0.0 0.01 0.0 0.0 0.0 0.01 0.01 0.0 0.0 0.0 0.01 0.0 0.0 0.0 0.01 0.01 0.0 0.0 0.0 0.01 0.0 0.0 0.0 0.01 0.01 0.0 0.0 0.0 0.01 0.0 0.0 0.0 0.01 0.01 0.0 0.0 0.0 0.01 0.0 0.0 0.0 0.01 0.01 0.0 0.0 0.0 0.01 0.0 0.0 0.0 0.01 0.01 0.0 0.0 0.0 0.01 0.0 0.0 0.0 0.01 0.01 0.0 0.0 0.0 0.01 0.0 0.0 0.0 0.01 0.01 0.0 0.0 0.0 0.01 0.0 0.0 0.0 0.01 0.01 0.0 0.0 0.0 0.01 0.0 0.0 0.0 0.01 0.01 0.0 0.0 0.0 0.01 0.0 0.0 0.0 0.01 0.01 0.0 0.0 0.0 0.01 0.0 0.0 0.0 0.01 0.01 0.0 0.0 0.0 0.01 0.0 0.0 0.0 0.01 0.01 0.0 0.0 0.0 0.01 0.0 0.0 0.0 0.01 0.01 0.0 0.0 0.0 0.01 0.0 0.0 0.0 0.01 0.01 0.0 0.0 0.0 0.01 0.0 0.0 0.0 0.01 0.01 0.0 0.0 0.0 0.01 0.0 0.0 0.0 0.01 0.01 0.0 0.0 0.0 0.01 0.0 0.0 0.0 0.01 0.01 0.0 0.0 0.0 0.01 0.0 0.0 0.0 0.01 0.01 0.0 0.0 0.0 0.01 0.0 0.0 0.0 0.01 0.01 0.0 0.0 0.0 0.01 0.0 0.0 0.0 0.01 0.01 0.0 0.0 0.0 0.01 0.0 0.0 0.0 0.01 0.01 0.0 0.0 0.0 0.01 0.0 0.0 0.0 0.01 0.01 0.0 0.0 0.0 0.01 0.0 0.0 0.0 0.01 0.01 0.0 0.0 0.0 0.01 0.0 0.0 0.0 0.01 0.01 0.0 0.0 0.0 0.01 0.0 0.0 0.0 0.01 0.01 0.0 0.0 0.0 0.01 0.0 0.0 0.0 0.01 0.01 0.0 0.0 0.0 0.01 0.0 0.0 0.0 0.01 0.01 0.0 0.0 0.0 0.01 0.0 0.0 0.0 0.01 0.01 0.0 0.0 0.0 0.01 0.0 0.0 0.0 0.01 0.01 0.0 0.0 0.0 0.01 0.0 0.0 0.0 0.01 0.01 0.0 0.0 0.0 0.01 0.0 0.0 0.0 0.01 0.01 0.0 0.0 0.0 0.01 0.0 0.0 0.0 0.01 0.01 0.0 0.0 0.0 0.01 0.0 0.0 0.0 0.01 0.01 0.0 0.0 0.0 0.01 0.0 0.0 0.0 0.01 0.01 0.0 0.0 0.0 0.01 0.0 0.0 0.0 0.01 0.01 0.0 0.0 0.0 0.01 0.0 0.0 0.0 0.01 0.01 0.0 0.0 0.0 0.01 0.0 0.0 0.0 0.01 0.01 0.0 0.0 0.0 0.01 0.0 0.0 0.0 0.01 0.01 0.0 0.0 0.0 0.01 0.0 0.0 0.0 0.01 0.01 0.0 0.0 0.0 0.01 0.0 0.0 0.0 0.01 0.01 0.0 0.0 0.0 0.01 0.0 0.0 0.0 0.01 0.01 0.0 0.0 0.0 0.01 0.0 0.0 0.0 0.01 0.01 0.0 0.0 0.0 0.01 0.0 0.0 0.0 0.01 0.01 0.0 0.0 0.0 0.01 0.0 0.0 0.0 0.01 0.01 0.0 0.0 0.0 0.01 0.0 0.0 0.0 0.01 0.01 0.0 0.0 0.0 0.01 0.0 0.0 0.0 0.01 0.01 0.0 0.0 0.0 0.01 0.0 0.0 0.0 0.01 0.01 0.0 0.0 0.0 0.01 0.0 0.0 0.0 0.01 0.01 0.0 0.0 0.0 0.01 0.0 0.0 0.0 0.01 0.01 0.0 0.0 0.0 0.01 0.0 0.0 0.0 0.01 0.01 0.0 0.0 0.0 0.01 0.0 0.0 0.0 0.01 0.01 0.0 0.0 0.0 0.01 0.0 0.0 0.0 0.01 0.01 0.0 0.0 0.0 0.01 0.0 0.0 0.0 0.01 0.01 0.0 0.0 0.0 0.01 0.0 0.0 0.0 0.01 0.01 0.0 0.0 0.0 0.01 0.0 0.0 0.0 0.01 0.01 0.0 0.0 0.0 0.01 0.0 0.0 0.0 0.01 0.01 0.0 0.0 0.0 0.01 0.0 0.0 0.0 0.01 0.01 0.0 0.0 0.0 0.01 0.0 0.0 0.0 0.01 0.01 0.0 0.0 0.0 0.01 0.0 0.0 0.0 0.01 0.01 0.0 0.0 0.0 0.01 0.0 0.0 0.0 0.01 0.01 0.0 0.0 0.0 0.01 0.0 0.0 0.0 0.01 0.01 0.0 0.0 0.0 0.01 0.0 0.0 0.0 0.01 0.01 0.0 0.0 0.0 0.01 0.0 0.0 0.0 0.01 0.01 0.0 0.0 0.0 0.01 0.0 0.0 0.0 0.01 0.01 0.0 0.0 0.0 0.01 0.0 0.0 0.0 0.01 0.01 0.0 0.0 0.0 0.01 0.0 0.0 0.0 0.01 0.01 0.0 0.0 0.0 0.01 0.0 0.0 0.0 0.01 0.01 0.0 0.0 0.0 0.01 0.0 0.0 0.0 0.01 0.01 0.0 0.0 0.0 0.01 0.0 0.0 0.0 0.01 0.01 0.0 0.0 0.0 0.01 0.0 0.0 0.0 0.01 0.01 0.0 0.0 0.0 0.01 0.0 0.0 0.0 0.01 0.01 0.0 0.0 0.0 0.01 0.0 0.0 0.0 0.01 0.01 0.0 0.0 0.0 0.01 0.0 0.0 0.0 0.01 0.01 0.0 0.0 0.0 0.01 0.0 0.0 0.0 0.01 0.01 0.0 0.0 0.0 0.01 0.0 0.0 0.0 0.01 0.01 0.0 0.0 0.0 0.01 0.0 0.0 0.0 0.01 0.01 0.0 0.0 0.0 0.01 0.0 0.0 0.0 0.01 0.01 0.0 0.0 0.0 0.01 0.0 0.0 0.0 0.01 0.01 0.0 0.0 0.0 0.01 0.0 0.0 0.0 0.01 0.01 0.0 0.0 0.0 0.01 0.0 0.0 0.0 0.01 0.01 0.0 0.0 0.0 0.01 0.0 0.0 0.0 0.01 0.01 0.0 0.0 0.0 0.01 0.0 0.0 0.0 0.01 0.01 0.0 0.0 0.0 0.01 0.0 0.0 0.0 0.01 0.01 0.0 0.0 0.0 0.01 0.0 0.0 0.0 0.01 0.01 0.0 0.0 0.0 0.01 0.0 0.0 0.0 0.01 0.01 0.0 0.0 0.0 0.01 0.0 0.0 0.0 0.01 0.01 0.0 0.0 0.0 0.01 0.0 0.0 0.0 0.01 0.01 0.0 0.0 0.0 0.01 0.0 0.0 0.0 0.01 0.01 0.0 0.0 0.0 0.01 0.0 0.0 0.0 0.01 0.01 0.0 0.0 0.0 0.01 0.0 0.0 0.0 0.01 0.01 0.0 0.0 0.0 0.01 0.0 0.0 0.0 0.01 0.01 0.0 0.0 0.0 0.01 0.0 0.0 0.0 0.01 0.01 0.0 0.0 0.0 0.01 0.0 0.0 0.0 0.01 0.01 0.0 0.0 0.0 0.01 0.0 0.0 0.0 0.01 0.01 0.0 0.0 0.0 0.01 0.0 0.0 0.0 0.01 0.01 0.0 0.0 0.0 0.01 0.0 0.0 0.0 0.01 0.01 0.0 0.0 0.0 0.01 0.0 0.0 0.0 0.01 0.01 0.0 0.0 0.0 0.01 0.0 0.0 0.0 0.01 0.01 0.0 0.0 0.0 0.01 0.0 0.0 0.0 0.01 0.01 0.0 0.0 0.0 0.01 0.0 0.0 0.0 0.01 0.01 0.0 0.0 0.0 0.01 0.0 0.0 0.0 0.01 0.01 0.0 0.0 0.0 0.01 0.0 0.0 0.0 0.01 0.01 0.0 0.0 0.0 0.01 0.0 0.0 0.0 0.01 0.01 0.0 0.0 0.0 0.01 0.0 0.0 0.0 0.01 0.01 0.0 0.0 0.0 0.01 0.0 0.0 0.0 0.01 0.01 0.0 0.0 0.0 0.01 0.0 0.0 0.0 0.01 0.01 0.0 0.0 0.0 0.01 0.0 0.0 0.0 0.01 0.01 0.0 0.0 0.0 0.01 0.0 0.0 0.0 0.01 0.01 0.0 0.0 0.0 0.01 0.0 0.0 0.0 0.01 0.01 0.0 0.0 0.0 0.01 0.0 0.0 0.0 0.01 0.01 0.0 0.0 0.0 0.01 0.0 0.0 0.0 0.01 0.01 0.0 0.0 0.0 0.01 0.0 0.0 0.0 0.01 0.01 0.0 0.0 0.0 0.01 0.0 0.0 0.0 0.01 0.01 0.0 0.0 0.0 0.01 0.0 0.0 0.0 0.01 0.01 0.0 0.0 0.0 0.01 0.0 0.0 0.0 0.01 0.01 0.0 0.0 0.0 0.01 0.0 0.0 0.0 0.01 0.01 0.0 0.0 0.0 0.01 0.0 0.0 0.0 0.01 0.01 0.0 0.0 0.0 0.01 0.0 0.0 0.0 0.01 0.01 0.0 0.0 0.0 0.01 0.0 0.0 0.0 0.01 0.01 0.0 0.0 0.0 0.01 0.0 0.0 0.0 0.01 0.01 0.0 0.0 0.0 0.01 0.0 0.0 0.0 0.01 0.01 0.0 0.0 0.0 0.01 0.0 0.0 0.0 0.01 0.01 0.0 0.0 0.0 0.01 0.0 0.0 0.0 0.01 0.01 0.0 0.0 0.0 0.01 0.0 0.0 0.0 0.01 0.01 0.0 0.0 0.0 0.01 0.0 0.0 0.0 0.01 0.01 0.0 0.0 0.0 0.01 0.0 0.0 0.0 0.01 0.01 0.0 0.0 0.0 0.01 0.0 0.0 0.0 0.01 0.01 0.0 0.0 0.0 0.01 0.0 0.0 0.0 0.01 0.01 0.0 0.0 0.0 0.01 0.0 0.0 0.0 0.01 0.01 0.0 0.0 0.0 0.01 0.0 0.0 0.0 0.01 0.01 0.0 0.0 0.0 0.01 0.0 0.0 0.0 0.01 0.01 0.0 0.0 0.0 0.01 0.0 0.0 0.0 0.01 0.01 0.0 0.0 0.0 0.01 0.0 0.0 0.0 0.01 0.01 0.0 0.0 0.0 0.01 0.0 0.0 0.0 0.01 0.01 0.0 0.0 0.0 0.01 0.0 0.0 0.0 0.01 0.01 0.0 0.0 0.0 0.01 0.0 0.0 0.0 0.01 0.01 0.0 0.0 0.0 0.01 0.0 0.0 0.0 0.01 0.01 0.0 0.0 0.0 0.01 0.0 0.0 0.0 0.01 0.01 0.0 0.0 0.0 0.01 0.0 0.0 0.0 0.01 0.01 0.0 0.0 0.0 0.01 0.0 0.0 0.0 0.01 0.01 0.0 0.0 0.0 0.01 0.0 0.0 0.0 0.01 0.01 0.0 0.0 0.0 0.01 0.0 0.0 0.0 0.01 0.01 0.0 0.0 0.0 0.01 0.0 0.0 0.0 0.01 0.01 0.0 0.0 0.0 0.01 0.0 0.0 0.0 0.01 0.01 0.0 0.0 0.0 0.01 0.0 0.0 0.0 0.01 0.01 0.0 0.0 0.0 0.01 0.0 0.0 0.0 0.01 0.01 0.0 0.0 0.0 0.01 0.0 0.0 0.0 0.01 0.01 0.0 0.0 0.0 0.01 0.0 0.0 0.0 0.01 0.01 0.0 0.0 0.0 0.01 0.0 0.0 0.0 0.01 0.01 0.0 0.0 0.0 0.01 0.0 0.0 0.0 0.01 0.01 0.0 0.0 0.0 0.01 0.0 0.0 0.0 0.01 0.01 0.0 0.0 0.0 0.01 0.0 0.0 0.0 0.01 0.01 0.0 0.0 0.0 0.01 0.0 0.0 0.0 0.01 0.01 0.0 0.0 0.0 0.01 0.0 0.0 0.0 0.01 0.01 0.0 0.0 0.0 0.01 0.0 0.0 0.0 0.01 0.01 0.0 0.0 0.0 0.01 0.0 0.0 0.0 0.01 0.01 0.0 0.0 0.0 0.01 0.0 0.0 0.0 0.01 0.01 0.0 0.0 0.0 0.01 0.0 0.0 0.0 0.01 0.01 0.0 0.0 0.0 0.01 0.0 0.0 0.0 0.01 0.01 0.0 0.0 0.0 0.01 0.0 0.0 0.0 0.01 0.01 0.0 0.0 0.0 0.01 0.0 0.0 0.0 0.01 0.01 0.0 0.0 0.0 0.01 0.0 0.0 0.0 0.01 0.01 0.0 0.0 0.0 0.01 0.0 0.0 0.0 0.01 0.01 0.0 0.0 0.0 0.01 0.0 0.0 0.0 0.01 0.01 0.0 0.0 0.0 0.01 0.0 0.0 0.0 0.01 0.01 0.0 0.0 0.0 0.01 0.0 0.0 0.0 0.01 0.01 0.0 0.0 0.0 0.01 0.0 0.0 0.0 0.01 0.01 0.0 0.0 0.0 0.01 0.0 0.0 0.0 0.01 0.01 0.0 0.0 0.0 0.01 0.0 0.0 0.0 0.01 0.01 0.0 0.0 0.0 0.01 0.0 0.0 0.0 0.01 0.01 0.0 0.0 0.0 0.01 0.0 0.0 0.0 0.01 0.01 0.0 0.0 0.0 0.01 0.0 0.0 0.0 0.01 0.01 0.0 0.0 0.0 0.01 0.0 0.0 0.0 0.01 0.01 0.0 0.0 0.0 0.01 0.0 0.0 0.0 0.01 0.01 0.0 0.0 0.0 0.01 0.0 0.0 0.0 0.01 0.01 0.0 0.0 0.0 0.01 0.0 0.0 0.0 0.01 0.01 0.0 0.0 0.0 0.01 0.0 0.0 0.0 0.01 0.01 0.0 0.0 0.0 0.01 0.0 0.0 0.0 0.01 0.01 0.0 0.0 0.0 0.01 0.0 0.0 0.0 0.01 0.01 0.0 0.0 0.0 0.01 0.0 0.0 0.0 0.01 0.01 0.0 0.0 0.0 0.01 0.0 0.0 0.0 0.01 0.01 0.0 0.0 0.0 0.01 0.0 0.0 0.0 0.01 0.01 0.0 0.0 0.0 0.01 0.0 0.0 0.0 0.01 0.01 0.0 0.0 0.0 0.01 0.0 0.0 0.0 0.01 0.01 0.0 0.0 0.0 0.01 0.0 0.0 0.0 0.01 0.01 0.0 0.0 0.0 0.01 0.0 0.0 0.0 0.01 0.01 0.0 0.0 0.0 0.01 0.0 0.0 0.0 0.01 0.01 0.0 0.0 0.0 0.01 0.0 0.0 0.0 0.01 0.01 0.0 0.0 0.0 0.01 0.0 0.0 0.0 0.01 0.01 0.0 0.0 0.0 0.01 0.0 0.0 0.0 0.01 0.01 0.0 0.0 0.0 0.01 0.0 0.0 0.0 0.01 0.01 0.0 0.0 0.0 0.01 0.0 0.0 0.0 0.01 0.01 0.0 0.0 0.0 0.01 0.0 0.0 0.0 0.01 0.01 0.0 0.0 0.0 0.01 0.0 0.0 0.0 0.01 0.01 0.0 0.0 0.0 0.01 0.0 0.0 0.0 0.01 0.01 0.0 0.0 0.0 0.01 0.0 0.0 0.0 0.01 0.01 0.0 0.0 0.0 0.01 0.0 0.0 0.0 0.01 0.01 0.0 0.0 0.0 0.01 0.0 0.0 0.0 0.01 0.01 0.0 0.0 0.0 0.01 0.0 0.0 0.0 0.01 0.01 0.0 0.0 0.0 0.01 0.0 0.0 0.0 0.01 0.01 0.0 0.0 0.0 0.01 0.0 0.0 0.0 0.01 0.01 0.0 0.0 0.0 0.01 0.0 0.0 0.0 0.01 0.01 0.0 0.0 0.0 0.01 0.0 0.0 0.0 0.01 0.01 0.0 0.0 0.0 0.01 0.0 0.0 0.0 0.01 0.01 0.0 0.0 0.0 0.01 0.0 0.0 0.0 0.01 0.01 0.0 0.0 0.0 0.01 0.0 0.0 0.0 0.01 0.01 0.0 0.0 0.0 0.01 0.0 0.0 0.0 0.01 0.01 0.0 0.0 0.0 0.01 0.0 0.0 0.0 0.01 0.01 0.0 0.0 0.0 0.01 0.0 0.0 0.0 0.01 0.01 0.0 0.0 0.0 0.01 0.0 0.0 0.0 0.01 0.01 0.0 0.0 0.0 0.01 0.0 0.0 0.0 0.01 0.01 0.0 0.0 0.0 0.01 0.0 0.0 0.0 0.01 0.01 0.0 0.0 0.0 0.01 0.0 0.0 0.0 0.01 0.01 0.0 0.0 0.0 0.01 0.0 0.0 0.0 0.01 0.01 0.0 0.0 0.0 0.01 0.0 0.0 0.0 0.01 0.01 0.0 0.0 0.0 0.01 0.0 0.0 0.0 0.01 0.01 0.0 0.0 0.0 0.01 0.0 0.0 0.0 0.01 0.01 0.0 0.0 0.0 0.01 0.0 0.0 0.0 0.01 0.01 0.0 0.0 0.0 0.01 0.0 0.0 0.0 0.01 0.01 0.0 0.0 0.0 0.01 0.0 0.0 0.0 0.01 0.01 0.0 0.0 0.0 0.01 0.0 0.0 0.0 0.01 0.01 0.0 0.0 0.0 0.01 0.0 0.0 0.0 0.01 0.01 0.0 0.0 0.0 0.01 0.0 0.0 0.0 0.01 0.01 0.0 0.0 0.0 0.01 0.0 0.0 0.0 0.01 0.01 0.0 0.0 0.0 0.01 0.0 0.0 0.0 0.01 0.01 0.0 0.0 0.0 0.01 0.0 0.0 0.0 0.01 0.01 0.0 0.0 0.0 0.01 0.0 0.0 0.0 0.01 0.01 0.0 0.0 0.0 0.01 0.0 0.0 0.0 0.01 0.01 0.0 0.0 0.0 0.01 0.0 0.0 0.0 0.01 0.01 0.0 0.0 0.0 0.01 0.0 0.0 0.0 0.01 0.01 0.0 0.0 0.0 0.01 0.0 0.0 0.0 0.01 0.01 0.0 0.0 0.0 0.01 0.0 0.0 0.0 0.01 0.01 0.0 0.0 0.0 0.01 0.0 0.0 0.0 0.01 0.01 0.0 0.0 0.0 0.01 0.0 0.0 0.0 0.01 0.01 0.0 0.0 0.0 0.01 0.0 0.0 0.0 0.01 0.01 0.0 0.0 0.0 0.01 0.0 0.0 0.0 0.01 0.01 0.0 0.0 0.0 0.01 0.0 0.0 0.0 0.01 0.01 0.0 0.0 0.0 0.01 0.0 0.0 0.0 0.01 0.01 0.0 0.0 0.0 0.01 0.0 0.0 0.0 0.01 0.01 0.0 0.0 0.0 0.01 0.0 0.0 0.0 0.01 0.01 0.0 0.0 0.0 0.01 0.0 0.0 0.0 0.01 0.01 0.0 0.0 0.0 0.01 0.0 0.0 0.0 0.01 0.01 0.0 0.0 0.0 0.01 0.0 0.0 0.0 0.01 0.01 0.0 0.0 0.0 0.01 0.0 0.0 0.0 0.01 0.01 0.0 0.0 0.0 0.01 0.0 0.0 0.0 0.01 0.01 0.0 0.0 0.0 0.01 0.0 0.0 0.0 0.01 0.01 0.0 0.0 0.0 0.01 0.0 0.0 0.0 0.01 0.01 0.0 0.0 0.0 0.01 0.0 0.0 0.0 0.01 0.01 0.0 0.0 0.0 0.01 0.0 0.0 0.0 0.01 0.01 0.0 0.0 0.0 0.01 0.0 0.0 0.0 0.01 0.01 0.0 0.0 0.0 0.01 0.0 0.0 0.0 0.01 0.01 0.0 0.0 0.0 0.01 0.0 0.0 0.0 0.01 0.01 0.0 0.0 0.0 0.01 0.0 0.0 0.0 0.01 0.01 0.0 0.0 0.0 0.01 0.0 0.0 0.0 0.01 0.01 0.0 0.0 0.0 0.01 0.0 0.0 0.0 0.01 0.01 0.0 0.0 0.0 0.01 0.0 0.0 0.0 0.01 0.01 0.0 0.0 0.0 0.01 0.0 0.0 0.0 0.01 0.01 0.0 0.0 0.0 0.01 0.0 0.0 0.0 0.01 0.01 0.0 0.0 0.0 0.01 0.0 0.0 0.0 0.01 0.01 0.0 0.0 0.0 0.01 0.0 0.0 0.0 0.01 0.01 0.0 0.0 0.0 0.01 0.0 0.0 0.0 0.01 0.01 0.0 0.0 0.0 0.01 0.0 0.0 0.0 0.01 0.01 0.0 0.0 0.0 0.01 0.0 0.0 0.0 0.01 0.01 0.0 0.0 0.0 0.01 0.0 0.0 0.0 0.01 0.01 0.0 0.0 0.0 0.01 0.0 0.0 0.0 0.01 0.01 0.0 0.0 0.0 0.01 0.0 0.0 0.0 0.01 0.01 0.0 0.0 0.0 0.01 0.0 0.0 0.0 0.01 0.01 0.0 0.0 0.0 0.01 0.0 0.0 0.0 0.01 0.01 0.0 0.0 0.0 0.01 0.0 0.0 0.0 0.01 0.01 0.0 0.0 0.0 0.01 0.0 0.0 0.0 0.01 0.01 0.0 0.0 0.0 0.01 0.0 0.0 0.0 0.01 0.01 0.0 0.0 0.0 0.01 0.0 0.0 0.0 0.01 0.01 0.0 0.0 0.0 0.01 0.0 0.0 0.0 0.01 0.01 0.0 0.0 0.0 0.01 0.0 0.0 0.0 0.01 0.01 0.0 0.0 0.0 0.01 0.0 0.0 0.0 0.01 0.01 0.0 0.0 0.0 0.01 0.0 0.0 0.0 0.01 0.01 0.0 0.0 0.0 0.01 0.0 0.0 0.0 0.01 0.01 0.0 0.0 0.0 0.01 0.0 0.0 0.0 0.01 0.01 0.0 0.0 0.0 0.01 0.0 0.0 0.0 0.01 0.01 0.0 0.0 0.0 0.01 0.0 0.0 0.0 0.01 0.01 0.0 0.0 0.0 0.01 0.0 0.0 0.0 0.01 0.01 0.0 0.0 0.0 0.01 0.0 0.0 0.0 0.01 0.01 0.0 0.0 0.0 0.01 0.0 0.0 0.0 0.01 0.01 0.0 0.0 0.0 0.01 0.0 0.0 0.0 0.01 0.01 0.0 0.0 0.0 0.01 0.0 0.0 0.0 0.01 0.01 0.0 0.0 0.0 0.01 0.0 0.0 0.0 0.01 0.01 0.0 0.0 0.0 0.01 0.0 0.0 0.0 0.01 0.01 0.0 0.0 0.0 0.01 0.0 0.0 0.0 0.01 0.01 0.0 0.0 0.0 0.01 0.0 0.0 0.0 0.01 0.01 0.0 0.0 0.0 0.01 0.0 0.0 0.0 0.01 0.01 0.0 0.0 0.0 0.01 0.0 0.0 0.0 0.01 0.01 0.0 0.0 0.0 0.01 0.0 0.0 0.0 0.01 0.01 0.0 0.0 0.0 0.01 0.0 0.0 0.0 0.01 0.01 0.0 0.0 0.0 0.01 0.0 0.0 0.0 0.01 0.01 0.0 0.0 0.0 0.01 0.0 0.0 0.0 0.01 0.01 0.0 0.0 0.0 0.01 0.0 0.0 0.0 0.01 0.01 0.0 0.0 0.0 0.01 0.0 0.0 0.0 0.01 0.01 0.0 0.0 0.0 0.01 0.0 0.0 0.0 0.01 0.01 0.0 0.0 0.0 0.01 0.0 0.0 0.0 0.01 0.01 0.0 0.0 0.0 0.01 0.0 0.0 0.0 0.01 0.01 0.0 0.0 0.0 0.01 0.0 0.0 0.0 0.01 0.01 0.0 0.0 0.0 0.01 0.0 0.0 0.0 0.01 0.01 0.0 0.0 0.0 0.01 0.0 0.0 0.0 0.01 0.01 0.0 0.0 0.0 0.01 0.0 0.0 0.0 0.01 0.01 0.0 0.0 0.0 0.01 0.0 0.0 0.0 0.01 0.01 0.0 0.0 0.0 0.01 0.0 0.0 0.0 0.01 0.01 0.0 0.0 0.0 0.01 0.0 0.0 0.0 0.01 0.01 0.0 0.0 0.0 0.01 0.0 0.0 0.0 0.01 0.01 0.0 0.0 0.0 0.01 0.0 0.0 0.0 0.01 0.01 0.0 0.0 0.0 0.01 0.0 0.0 0.0 0.01 0.01 0.0 0.0 0.0 0.01 0.0 0.0 0.0 0.01 0.01 0.0 0.0 0.0 0.01 0.0 0.0 0.0 0.01 0.01 0.0 0.0 0.0 0.01 0.0 0.0 0.0 0.01 0.01 0.0 0.0 0.0 0.01 0.0 0.0 0.0 0.01 0.01 0.0 0.0 0.0 0.01 0.0 0.0 0.0 0.01 0.01 0.0 0.0 0.0 0.01 0.0 0.0 0.0 0.01 0.01 0.0 0.0 0.0 0.01 0.0 0.0 0.0 0.01 0.01 0.0 0.0 0.0 0.01 0.0 0.0 0.0 0.01 0.01 0.0 0.0 0.0 0.01 0.0 0.0 0.0 0.01 0.01 0.0 0.0 0.0 0.01 0.0 0.0 0.0 0.01 0.01 0.0 0.0 0.0 0.01 0.0 0.0 0.0 0.01 0.01 0.0 0.0 0.0 0.01 0.0 0.0 0.0 0.01 0.01 0.0 0.0 0.0 0.01 0.0 0.0 0.0 0.01 0.01 0.0 0.0 0.0 0.01 0.0 0.0 0.0 0.01 0.01 0.0 0.0 0.0 0.01 0.0 0.0 0.0 0.01 0.01 0.0 0.0 0.0 0.01 0.0 0.0 0.0 0.01 0.01 0.0 0.0 0.0 0.01 0.0 0.0 0.0 0.01 0.01 0.0 0.0 0.0 0.01 0.0 0.0 0.0 0.01 0.01 0.0 0.0 0.0 0.01 0.0 0.0 0.0 0.01 0.01 0.0 0.0 0.0 0.01 0.0 0.0 0.0 0.01 0.01 0.0 0.0 0.0 0.01 0.0 0.0 0.0 0.01 0.01 0.0 0.0 0.0 0.01 0.0 0.0 0.0 0.01 0.01 0.0 0.0 0.0 0.01 0.0 0.0 0.0 0.01 0.01 0.0 0.0 0.0 0.01 0.0 0.0 0.0 0.01 0.01 0.0 0.0 0.0 0.01 0.0 0.0 0.0 0.01 0.01 0.0 0.0 0.0 0.01 0.0 0.0 0.0 0.01 0.01 0.0 0.0 0.0 0.01 0.0 0.0 0.0 0.01 0.01 0.0 0.0 0.0 0.01 0.0 0.0 0.0 0.01 0.01 0.0 0.0 0.0 0.01 0.0 0.0 0.0 0.01 0.01 0.0 0.0 0.0 0.01 0.0 0.0 0.0 0.01 0.01 0.0 0.0 0.0 0.01 0.0 0.0 0.0 0.01 0.01 0.0 0.0 0.0 0.01 0.0 0.0 0.0 0.01 0.01 0.0 0.0 0.0 0.01 0.0 0.0 0.0 0.01 0.01 0.0 0.0 0.0 0.01 0.0 0.0 0.0 0.01 0.01 0.0 0.0 0.0 0.01 0.0 0.0 0.0 0.01 0.01 0.0 0.0 0.0 0.01 0.0 0.0 0.0 0.01 0.01 0.0 0.0 0.0 0.01 0.0 0.0 0.0 0.01 0.01 0.0 0.0 0.0 0.01 0.0 0.0 0.0 0.01 0.01 0.0 0.0 0.0 0.01 0.0 0.0 0.0 0.01 0.01 0.0 0.0 0.0 0.01 0.0 0.0 0.0 0.01 0.01 0.0 0.0 0.0 0.01 0.0 0.0 0.0 0.01 0.01 0.0 0.0 0.0 0.01 0.0 0.0 0.0 0.01 0.01 0.0 0.0 0.0 0.01 0.0 0.0 0.0 0.01 0.01 0.0 0.0 0.0 0.01 0.0 0.0 0.0 0.01 0.01 0.0 0.0 0.0 0.01 0.0 0.0 0.0 0.01 0.01 0.0 0.0 0.0 0.01 0.0 0.0 0.0 0.01 0.01 0.0 0.0 0.0 0.01 0.0 0.0 0.0 0.01 0.01 0.0 0.0 0.0 0.01 0.0 0.0 0.0 0.01 0.01 0.0 0.0 0.0 0.01 0.0 0.0 0.0 0.01 0.01 0.0 0.0 0.0 0.01 0.0 0.0 0.0 0.01 0.01 0.0 0.0 0.0 0.01 0.0 0.0 0.0 0.01 0.01 0.0 0.0 0.0 0.01 0.0 0.0 0.0 0.01 0.01 0.0 0.0 0.0 0.01 0.0 0.0 0.0 0.01 0.01 0.0 0.0 0.0 0.01 0.0 0.0 0.0 0.01 0.01 0.0 0.0 0.0 0.01 0.0 0.0 0.0 0.01 0.01 0.0 0.0 0.0 0.01 0.0 0.0 0.0 0.01 0.01 0.0 0.0 0.0 0.01 0.0 0.0 0.0 0.01 0.01 0.0 0.0 0.0 0.01 0.0 0.0 0.0 0.01 0.01 0.0 0.0 0.0 0.01 0.0 0.0 0.0 0.01 0.01 0.0 0.0 0.0 0.01 0.0 0.0 0.0 0.01 0.01 0.0 0.0 0.0 0.01 0.0 0.0 0.0 0.01 0.01 0.0 0.0 0.0 0.01 0.0 0.0 0.0 0.01 0.01 0.0 0.0 0.0 0.01 0.0 0.0 0.0 0.01 0.01 0.0 0.0 0.0 0.01 0.0 0.0 0.0 0.01 0.01 0.0 0.0 0.0 0.01 0.0 0.0 0.0 0.01 0.01 0.0 0.0 0.0 0.01 0.0 0.0 0.0 0.01 0.01 0.0 0.0 0.0 0.01 0.0 0.0 0.0 0.01 0.01 0.0 0.0 0.0 0.01 0.0 0.0 0.0 0.01 0.01 0.0 0.0 0.0 0.01 0.0 0.0 0.0 0.01 0.01 0.0 0.0 0.0 0.01 0.0 0.0 0.0 0.01 0.01 0.0 0.0 0.0 0.01 0.0 0.0 0.0 0.01 0.01 0.0 0.0 0.0 0.01 0.0 0.0 0.0 0.01 0.01 0.0 0.0 0.0 0.01 0.0 0.0 0.0 0.01 0.01 0.0 0.0 0.0 0.01 0.0 0.0 0.0 0.01 0.01 0.0 0.0 0.0 0.01 0.0 0.0 0.0 0.01 0.01 0.0 0.0 0.0 0.01 0.0 0.0 0.0 0.01 0.01 0.0 0.0 0.0 0.01 0.0 0.0 0.0 0.01 0.01 0.0 0.0 0.0 0.01 0.0 0.0 0.0 0.01 0.01 0.0 0.0 0.0 0.01 0.0 0.0 0.0 0.01 0.01 0.0 0.0 0.0 0.01 0.0 0.0 0.0 0.01 0.01 0.0 0.0 0.0 0.01 0.0 0.0 0.0 0.01 0.01 0.0 0.0 0.0 0.01 0.0 0.0 0.0 0.01 0.01 0.0 0.0 0.0 0.01 0.0 0.0 0.0 0.01 0.01 0.0 0.0 0.0 0.01 0.0 0.0 0.0 0.01 0.01 0.0 0.0 0.0 0.01 0.0 0.0 0.0 0.01 0.01 0.0 0.0 0.0 0.01 0.0 0.0 0.0 0.01 0.01 0.0 0.0 0.0 0.01 0.0 0.0 0.0 0.01 0.01 0.0 0.0 0.0 0.01 0.0 0.0 0.0 0.01 0.01 0.0 0.0 0.0 0.01 0.0 0.0 0.0 0.01 0.01 0.0 0.0 0.0 0.01 0.0 0.0 0.0 0.01 0.009998012092923336 0.0 4.35668080275673e-12 0.0 0.01 0.0 4.356680802753421e-12 0.0 0.009999829504360413 0.009997496440485474 0.0 1.9446185173722233e-12 0.0 0.01 0.0 1.9446185173738776e-12 0.0 0.009999917001033337 0.009997053802523588 0.0 4.862287035255218e-13 0.0 0.01 0.0 4.86228703525315e-13 0.0 0.010000005850005133 0.00999669963458106 0.0 7.45970315837175e-15 0.0 0.01 0.0 7.45970315837175e-15 0.0 0.010000076150869834 0.009996436405786058 0.0 2.217318258646953e-14 0.0 0.01 0.0 2.217318258646953e-14 0.0 0.010000117702078034 0.00999823646661722 0.0 4.4675418551865e-12 0.0 0.01 0.0 4.467541855193117e-12 0.0 0.009999709512657926 0.00999760985719057 0.0 1.6137103993906565e-12 0.0 0.01 0.0 1.6137103993914837e-12 0.0 0.009999786006869155 0.009997014337659439 0.0 -9.444481470041419e-13 0.0 0.01 0.0 -9.444481470037283e-13 0.0 0.009999899001530128 0.009996505332758827 0.0 -2.0902788418627145e-12 0.0 0.01 0.0 -2.0902788418627145e-12 0.0 0.010000012200022324 0.009996102779433644 0.0 -1.9410955848366624e-12 0.0 0.01 0.0 -1.9410955848366624e-12 0.0 0.010000100601518076 0.009995807637859514 0.0 -1.2669423720851149e-12 0.0 0.01 0.0 -1.2669423720842877e-12 0.0 0.010000154303571368 0.0099979666203631 0.0 3.0061550923103656e-12 0.0 0.01 0.0 3.006155092307057e-12 0.0 0.009999654017956364 0.009997258128091638 0.0 8.07520199800344e-13 0.0 0.01 0.0 8.075201998007576e-13 0.0 0.009999751509262455 0.009996592242713273 0.0 -1.5738733744892014e-12 0.0 0.01 0.0 -1.5738733744892014e-12 0.0 0.009999888001881565 0.009996032861976948 0.0 -2.7954325318382878e-12 0.0 0.01 0.0 -2.7954325318374606e-12 0.0 0.010000019050054439 0.009995600904509735 0.0 -2.6902317152170154e-12 0.0 0.01 0.0 -2.6902317152170154e-12 0.0 0.010000120602181698 0.009995292825710681 0.0 -1.958681409139577e-12 0.0 0.01 0.0 -1.958681409139577e-12 0.0 0.01000018115492245 0.009997697295611393 0.0 2.5458120911513675e-11 0.0 0.01 0.0 2.5458120911513675e-11 0.0 0.009999617022001946 0.009996905936576905 0.0 1.0153794756916497e-11 0.0 0.01 0.0 1.0153794756909879e-11 0.0 0.009999733010692877 0.009996177193195633 0.0 2.74767942312116e-12 0.0 0.01 0.0 2.7476794231219873e-12 0.0 0.009999883002053308 0.009995575937581986 0.0 4.1017780100142584e-13 0.0 0.01 0.0 4.1017780100121905e-13 0.0 0.010000025900100623 0.009995123069988265 0.0 -9.132708314658611e-13 0.0 0.01 0.0 -9.132708314658611e-13 0.0 0.010000134302705532 0.009994809543923662 0.0 -1.2887540196909255e-12 0.0 0.01 0.0 -1.2887540196900983e-12 0.0 0.010000198755925428 0.009997370537475412 0.0 2.1733462416367286e-09 0.0 0.01 0.0 2.1733462416333404e-09 0.0 0.009999598024239689 0.009996498340102628 0.0 1.2269193349617323e-09 0.0 0.01 0.0 1.2269193349617323e-09 0.0 0.00999972451138474 0.009995710261857658 0.0 4.339445893518906e-10 0.0 0.01 0.0 4.339445893516788e-10 0.0 0.00999988700191534 0.009995072144958107 0.0 5.403399131093678e-11 0.0 0.01 0.0 5.403399131093678e-11 0.0 0.010000033700170356 0.009994605368449452 0.0 3.938329582332618e-12 0.0 0.01 0.0 3.938329582333445e-12 0.0 0.010000142603050287 0.009994294885965413 0.0 9.227016013543182e-13 0.0 0.01 0.0 9.227016013543182e-13 0.0 0.010000204106248734 0.009996888952449295 0.0 1.9020804074447234e-08 0.0 0.01 0.0 1.9020804074447234e-08 0.0 0.009999592025022194 0.00999594646602533 0.0 1.2081071887409215e-08 0.0 0.01 0.0 1.2081071887422767e-08 0.0 0.009999727011200747 0.009995115081701476 0.0 5.604374040430135e-09 0.0 0.01 0.0 5.604374040428441e-09 0.0 0.009999894501674222 0.009994461604474146 0.0 1.5650470707357871e-09 0.0 0.01 0.0 1.5650470707353636e-09 0.0 0.010000040050240968 0.009993994913493847 0.0 1.8457634500379381e-10 0.0 0.01 0.0 1.8457634500379381e-10 0.0 0.010000145003153835 0.009993688979378391 0.0 4.555171783692593e-12 0.0 0.01 0.0 4.5551717836917656e-12 0.0 0.010000203606218156 0.009996103279790265 0.0 7.920475869681136e-08 0.0 0.01 0.0 7.920475869683846e-08 0.0 0.00999958852633958 0.009995118077747523 0.0 5.4390267715018854e-08 0.0 0.01 0.0 5.43902677150053e-08 0.0 0.009999731511257381 0.00999430536813455 0.0 2.7511364116488508e-08 0.0 0.01 0.0 2.7511364116481732e-08 0.0 0.009999904001495993 0.009993686983177218 0.0 9.66299403508019e-09 0.0 0.01 0.0 9.662994035076802e-09 0.0 0.010000048350364681 0.009993249341866304 0.0 1.9714540216608996e-09 0.0 0.01 0.0 1.971454021661323e-09 0.0 0.01000014650322 0.009992968423419755 0.0 1.4868303321067797e-10 0.0 0.01 0.0 1.4868303321070444e-10 0.0 0.010000198755925435 0.00999482752376277 0.0 2.2811492185958408e-07 0.0 0.01 0.0 2.2811492185958408e-07 0.0 0.009999579534331919 0.009993870144768028 0.0 1.6088556375939284e-07 0.0 0.01 0.0 1.6088556375939284e-07 0.0 0.009999728014982863 0.009993181980230588 0.0 8.46723206029661e-08 0.0 0.01 0.0 8.46723206029661e-08 0.0 0.009999913002211718 0.009992689025533782 0.0 3.2526465325682344e-08 0.0 0.01 0.0 3.252646532567557e-08 0.0 0.010000061050717924 0.009992346295863841 0.0 8.2578880057574e-09 0.0 0.01 0.0 8.2578880057574e-09 0.0 0.010000153803558497 0.00999211882673409 0.0 1.087600375982885e-09 0.0 0.01 0.0 1.087600375982885e-09 0.0 0.010000199705982392 0.009992883643239948 0.0 5.136027215833089e-07 0.0 0.01 0.0 5.136027215834173e-07 0.0 0.009999557069040335 0.009992106375672053 0.0 3.5951855451233283e-07 0.0 0.01 0.0 3.5951855451238704e-07 0.0 0.009999711031935825 0.00999170084830417 0.0 1.907891942308634e-07 0.0 0.01 0.0 1.907891942308905e-07 0.0 0.00999992550629864 0.009991450976250009 0.0 7.604220035393311e-08 0.0 0.01 0.0 7.604220035393311e-08 0.0 0.010000088852052521 0.009991269446776866 0.0 2.1436374679906082e-08 0.0 0.01 0.0 2.143637467990947e-08 0.0 0.010000184555177968 0.009991140786772669 0.0 3.628026003527124e-09 0.0 0.01 0.0 3.628026003526277e-09 0.0 0.010000224607569032 0.00999025588971322 0.0 9.262467309451884e-07 0.0 0.01 0.0 9.262467309451884e-07 0.0 0.009999459672672118 0.00998988841824604 0.0 6.364651217705651e-07 0.0 0.01 0.0 6.364651217705651e-07 0.0 0.009999665077677333 0.009989920775953396 0.0 3.345593857963106e-07 0.0 0.01 0.0 3.345593857963106e-07 0.0 0.009999945017265807 0.00999000201669946 0.0 1.348778303656578e-07 0.0 0.01 0.0 1.348778303656578e-07 0.0 0.010000151856191311 0.009990033918479987 0.0 4.002958245748206e-08 0.0 0.01 0.0 4.002958245747528e-08 0.0 0.010000255860059978 0.009990029930198353 0.0 7.686956835667943e-09 0.0 0.01 0.0 7.68695683566879e-09 0.0 0.010000291512755333 0.009987336852936787 0.0 1.3116511600429204e-06 0.0 0.01 0.0 1.3116511600429204e-06 0.0 0.009999174860697081 0.009987540943781186 0.0 8.959935049817312e-07 0.0 0.01 0.0 8.959935049817312e-07 0.0 0.009999566148870619 0.009988037033778823 0.0 4.6546369759621967e-07 0.0 0.01 0.0 4.654636975962739e-07 0.0 0.009999991532561208 0.009988440579268183 0.0 1.8770119017451695e-07 0.0 0.01 0.0 1.8770119017451695e-07 0.0 0.01000027396655077 0.009988678755139152 0.0 5.702544303867014e-08 0.0 0.01 0.0 5.702544303867014e-08 0.0 0.010000403824948342 0.009988795359787693 0.0 1.1644356976354115e-08 0.0 0.01 0.0 1.1644356976354115e-08 0.0 0.010000427277403703 0.009985030508526489 0.0 1.4767280996468013e-06 0.0 0.01 0.0 1.4767280996468013e-06 0.0 0.009999036966979936 0.009985525139944202 0.0 1.0011680340751925e-06 0.0 0.01 0.0 1.0011680340751925e-06 0.0 0.009999514685992552 0.009986289289258847 0.0 5.1600029534111e-07 0.0 0.01 0.0 5.1600029534111e-07 0.0 0.01000011479198691 0.00998687688415133 0.0 2.070306230463417e-07 0.0 0.01 0.0 2.070306230463146e-07 0.0 0.010000501994236861 0.009987245443969702 0.0 6.317314729015514e-08 0.0 0.01 0.0 6.317314729015514e-08 0.0 0.010000649013776907 0.009987448171896656 0.0 1.3091043858439667e-08 0.0 0.01 0.0 1.3091043858437973e-08 0.0 0.010000652413866771 0.009983543992111864 0.0 1.3700387949869665e-06 0.0 0.01 0.0 1.3700387949869665e-06 0.0 0.010000458313641295 0.009984010553960561 0.0 9.024486853905986e-07 0.0 0.01 0.0 9.024486853905986e-07 0.0 0.010000204728703232 0.00998475546174161 0.0 4.563173328769594e-07 0.0 0.01 0.0 4.563173328769052e-07 0.0 0.010000527423016355 0.009985358722845016 0.0 1.8054965634863615e-07 0.0 0.01 0.0 1.8054965634863615e-07 0.0 0.01000088782311862 0.009985755992109704 0.0 5.4224460414031026e-08 0.0 0.01 0.0 5.422446041402425e-08 0.0 0.010001010903710054 0.009985996967766461 0.0 1.0858383677520151e-08 0.0 0.01 0.0 1.0858383677520151e-08 0.0 0.010000977193235047 0.00998235047981547 0.0 9.768834532856508e-07 0.0 0.01 0.0 9.768834532856508e-07 0.0 0.01000217420226748 0.009982753778922717 0.0 6.378034356632691e-07 0.0 0.01 0.0 6.378034356632691e-07 0.0 0.01000149989852201 0.009983349195074265 0.0 3.172062837809408e-07 0.0 0.01 0.0 3.172062837809679e-07 0.0 0.010001320576663584 0.009983848716284377 0.0 1.2231264269670788e-07 0.0 0.01 0.0 1.2231264269670788e-07 0.0 0.010001453419050673 0.009984201020376237 0.0 3.510979491961144e-08 0.0 0.01 0.0 3.510979491960805e-08 0.0 0.010001479828604328 0.009984440888378823 0.0 6.32196726045671e-09 0.0 0.01 0.0 6.3219672604571335e-09 0.0 0.010001383086892503 0.009981183286385241 0.0 5.311728065937268e-07 0.0 0.01 0.0 5.311728065937268e-07 0.0 0.010003273599157479 0.009981503960243446 0.0 3.444241588227521e-07 0.0 0.01 0.0 3.444241588227521e-07 0.0 0.010002626051885904 0.00998192214402652 0.0 1.6828683540975593e-07 0.0 0.01 0.0 1.6828683540972883e-07 0.0 0.010002202381614953 0.009982281702781433 0.0 6.188965003882347e-08 0.0 0.01 0.0 6.188965003882347e-08 0.0 0.010002097360229105 0.009982557243870996 0.0 1.6048508622680736e-08 0.0 0.01 0.0 1.6048508622680736e-08 0.0 0.010001996697899909 0.009982768640510715 0.0 2.2473133555632065e-09 0.0 0.01 0.0 2.2473133555632065e-09 0.0 0.010001832553615616 0.009979915179645726 0.0 2.1844106291878974e-07 0.0 0.01 0.0 2.184410629188033e-07 0.0 0.010003829856216185 0.009980127895326709 0.0 1.3880720674767634e-07 0.0 0.01 0.0 1.3880720674767634e-07 0.0 0.010003358143707489 0.009980374426648947 0.0 6.448833155754514e-08 0.0 0.01 0.0 6.448833155754514e-08 0.0 0.010002927085297823 0.00998060208825118 0.0 2.1369971357442755e-08 0.0 0.01 0.0 2.1369971357442755e-08 0.0 0.010002688583952618 0.009980796955506407 0.0 4.373997236926046e-09 0.0 0.01 0.0 4.373997236926046e-09 0.0 0.010002496534594518 0.009980971450979502 0.0 2.967470863405049e-10 0.0 0.01 0.0 2.967470863405049e-10 0.0 0.010002291787602903 0.009978443901283838 0.0 6.341731387310347e-08 0.0 0.01 0.0 6.341731387310686e-08 0.0 0.010004100170936711 0.009978541269931132 0.0 3.733378494367453e-08 0.0 0.01 0.0 3.7333784943669447e-08 0.0 0.010003782895672234 0.00997865503617577 0.0 1.5211036880741564e-08 0.0 0.01 0.0 1.5211036880741564e-08 0.0 0.01000342951346278 0.00997877625879283 0.0 3.786419209488443e-09 0.0 0.01 0.0 3.786419209488231e-09 0.0 0.010003172408990672 0.009978900466907416 0.0 3.1897754863172386e-10 0.0 0.01 0.0 3.1897754863172386e-10 0.0 0.010002952457035856 0.009979034616883159 0.0 -5.63235151774469e-11 0.0 0.01 0.0 -5.632351517745021e-11 0.0 0.010002732069222623 0.00997671210227003 0.0 9.225259857149159e-09 0.0 0.01 0.0 9.225259857149159e-09 0.0 0.010004262023191489 0.00997672054302482 0.0 4.310471645783932e-09 0.0 0.01 0.0 4.310471645783932e-09 0.0 0.010004045403472763 0.009976742886326424 0.0 9.688186997129422e-10 0.0 0.01 0.0 9.688186997129422e-10 0.0 0.010003782394895069 0.00997678558728087 0.0 -1.5025099107472314e-10 0.0 0.01 0.0 -1.5025099107472975e-10 0.0 0.010003566356928468 0.00997685013627632 0.0 -1.4209030433902178e-10 0.0 0.01 0.0 -1.4209030433902178e-10 0.0 0.010003362545246518 0.009976942493171593 0.0 -4.943601012576867e-11 0.0 0.01 0.0 -4.9436010125765364e-11 0.0 0.01000315434185342 0.009974720184495888 0.0 -1.7907881694651848e-10 0.0 0.01 0.0 -1.7907881694653172e-10 0.0 0.010004448766969157 0.00997466510479792 0.0 -5.300561653303858e-10 0.0 0.01 0.0 -5.300561653303858e-10 0.0 0.010004285953836319 0.009974621438658739 0.0 -4.814816399974624e-10 0.0 0.01 0.0 -4.814816399974888e-10 0.0 0.010004091359514414 0.009974599109604599 0.0 -2.9395380199356253e-10 0.0 0.01 0.0 -2.9395380199356253e-10 0.0 0.010003931517309488 0.009974612507019065 0.0 -1.3520526418410698e-10 0.0 0.01 0.0 -1.3520526418410036e-10 0.0 0.010003752110694231 0.009974663119960932 0.0 -4.468895927544158e-11 0.0 0.01 0.0 -4.468895927544158e-11 0.0 0.01000355609597379 0.009972451259562722 0.0 -3.805007857043155e-10 0.0 0.01 0.0 -3.8050078570432874e-10 0.0 0.01000471818709402 0.009972344647273982 0.0 -6.249536592552808e-10 0.0 0.01 0.0 -6.249536592553073e-10 0.0 0.01000457393622122 0.009972248451213079 0.0 -5.207575826416982e-10 0.0 0.01 0.0 -5.207575826417247e-10 0.0 0.010004418927313023 0.009972180520620311 0.0 -3.083777456085567e-10 0.0 0.01 0.0 -3.083777456085567e-10 0.0 0.01000430112335881 0.0099721527537704 0.0 -1.3613047846084445e-10 0.0 0.01 0.0 -1.3613047846085107e-10 0.0 0.010004140770477806 0.009972173083048472 0.0 -4.16402014033044e-11 0.0 0.01 0.0 -4.164020140330274e-11 0.0 0.010003957447970195 0.009969852381914779 0.0 -4.465872737972473e-10 0.0 0.01 0.0 -4.465872737972473e-10 0.0 0.01000508197134162 0.009969718106437334 0.0 -7.154195132198846e-10 0.0 0.01 0.0 -7.154195132198581e-10 0.0 0.010004935801917712 0.009969590772712377 0.0 -5.825955708542674e-10 0.0 0.01 0.0 -5.825955708542674e-10 0.0 0.010004797400050218 0.009969495647199076 0.0 -3.357298220513716e-10 0.0 0.01 0.0 -3.357298220513716e-10 0.0 0.010004699110171416 0.00996944560830844 0.0 -1.4162826580095328e-10 0.0 0.01 0.0 -1.4162826580095328e-10 0.0 0.010004548000766273 0.009969454030643237 0.0 -3.898853984065544e-11 0.0 0.01 0.0 -3.898853984065544e-11 0.0 0.010004363704626752 0.009966883732458938 0.0 -5.02938922254583e-10 0.0 0.01 0.0 -5.029389222545565e-10 0.0 0.010005524574769019 0.009966744626604506 0.0 -8.199610246781139e-10 0.0 0.01 0.0 -8.199610246781403e-10 0.0 0.010005374930378052 0.009966618891804654 0.0 -6.593736804535512e-10 0.0 0.01 0.0 -6.593736804535247e-10 0.0 0.010005235058007374 0.009966522366348603 0.0 -3.713787465462443e-10 0.0 0.01 0.0 -3.713787465462443e-10 0.0 0.01000513675522911 0.009966480787016396 0.0 -1.5004464551424572e-10 0.0 0.01 0.0 -1.5004464551424572e-10 0.0 0.010004975410745052 0.009966496626700624 0.0 -3.6902769686653934e-11 0.0 0.01 0.0 -3.690276968665559e-11 0.0 0.010004782728987744 0.009963519103831477 0.0 -5.283779009147058e-10 0.0 0.01 0.0 -5.283779009147322e-10 0.0 0.010006057249098562 0.00996340783243966 0.0 -9.314441139250772e-10 0.0 0.01 0.0 -9.314441139250772e-10 0.0 0.01000589385654012 0.009963316839938865 0.0 -7.492652531112165e-10 0.0 0.01 0.0 -7.492652531112165e-10 0.0 0.010005730972845676 0.009963259476382628 0.0 -4.1629929261886854e-10 0.0 0.01 0.0 -4.1629929261886854e-10 0.0 0.010005604808562973 0.009963254531294837 0.0 -1.6361442853471707e-10 0.0 0.01 0.0 -1.6361442853472368e-10 0.0 0.010005419953201748 0.009963307444116037 0.0 -3.8051504919438266e-11 0.0 0.01 0.0 -3.805150491943661e-11 0.0 0.010005207665143663 0.009959751798229595 0.0 -5.036242177081817e-10 0.0 0.01 0.0 -5.036242177081949e-10 0.0 0.01000667222184589 0.009959719195245442 0.0 -1.0523862893326896e-09 0.0 0.01 0.0 -1.052386289332663e-09 0.0 0.010006474031540282 0.009959705363773027 0.0 -8.60535304283038e-10 0.0 0.01 0.0 -8.60535304283038e-10 0.0 0.010006250004504549 0.0099597315448229 0.0 -4.79059584434062e-10 0.0 0.01 0.0 -4.79059584434062e-10 0.0 0.010006080741819854 0.009959804161268314 0.0 -1.895882609768313e-10 0.0 0.01 0.0 -1.8958826097683792e-10 0.0 0.010005865506592144 0.009959928650298756 0.0 -4.768104556934592e-11 0.0 0.01 0.0 -4.768104556934592e-11 0.0 0.010005627296408305 0.009955663116707968 0.0 -4.195731716314664e-10 0.0 0.01 0.0 -4.1957317163145317e-10 0.0 0.010007353803818276 0.009955762287350903 0.0 -1.2006415882036668e-09 0.0 0.01 0.0 -1.2006415882036933e-09 0.0 0.010007071443731736 0.009955886624880997 0.0 -1.0158744482164905e-09 0.0 0.01 0.0 -1.0158744482164905e-09 0.0 0.010006744617348568 0.009956046987701054 0.0 -5.776656678448571e-10 0.0 0.01 0.0 -5.776656678448836e-10 0.0 0.010006534248886104 0.009956243381033465 0.0 -2.3993591917717524e-10 0.0 0.01 0.0 -2.3993591917717524e-10 0.0 0.01000629548999286 0.009956470382781716 0.0 -7.320155569024222e-11 0.0 0.01 0.0 -7.320155569024057e-11 0.0 0.010006039667234123 0.009951493232532737 0.0 -2.836336457102456e-10 0.0 0.01 0.0 -2.836336457102456e-10 0.0 0.010008053167591232 0.009951781509203343 0.0 -1.4164894659977084e-09 0.0 0.01 0.0 -1.4164894659977084e-09 0.0 0.010007621003109477 0.009952098888902736 0.0 -1.2585133266226064e-09 0.0 0.01 0.0 -1.25851332662258e-09 0.0 0.010007155122046273 0.00995244143677865 0.0 -7.420556958818851e-10 0.0 0.01 0.0 -7.420556958818851e-10 0.0 0.010006945729778543 0.009952802752218758 0.0 -3.308051440078686e-10 0.0 0.01 0.0 -3.308051440078554e-10 0.0 0.01000671671107587 0.00995315917694256 0.0 -1.223245209610564e-10 0.0 0.01 0.0 -1.223245209610531e-10 0.0 0.010006449584209109 0.009947708045874066 0.0 -1.2859765746684258e-10 0.0 0.01 0.0 -1.2859765746684258e-10 0.0 0.010008697834703345 0.009948222431793306 0.0 -1.7701893041661889e-09 0.0 0.01 0.0 -1.7701893041661889e-09 0.0 0.01000804925816419 0.0099487713621865 0.0 -1.6659497996398757e-09 0.0 0.01 0.0 -1.6659497996399287e-09 0.0 0.01000745803505452 0.009949325800263515 0.0 -1.0241960682205822e-09 0.0 0.01 0.0 -1.0241960682205822e-09 0.0 0.010007348442011184 0.009949868510595409 0.0 -4.834927455296703e-10 0.0 0.01 0.0 -4.834927455296835e-10 0.0 0.01000717175774556 0.009950367468768848 0.0 -1.9826004892614142e-10 0.0 0.01 0.0 -1.9826004892614142e-10 0.0 0.01000691586777417 0.009945048786971791 0.0 -6.588687552041934e-12 0.0 0.01 0.0 -6.588687552042348e-12 0.0 0.010009190855263523 0.00994578116183178 0.0 -2.3563962033145147e-09 0.0 0.01 0.0 -2.3563962033145147e-09 0.0 0.01000829886926628 0.00994654666401229 0.0 -2.362192697716113e-09 0.0 0.01 0.0 -2.36219269771606e-09 0.0 0.010007689510201253 0.009947300039538311 0.0 -1.5138198827852564e-09 0.0 0.01 0.0 -1.5138198827853094e-09 0.0 0.01000784762813395 0.009948002392834925 0.0 -7.342462636890633e-10 0.0 0.01 0.0 -7.342462636890633e-10 0.0 0.010007788890581204 0.009948624643640928 0.0 -2.9801947057576784e-10 0.0 0.01 0.0 -2.9801947057577446e-10 0.0 0.010007540770916142 0.009944542760793044 0.0 9.48560447059624e-12 0.0 0.01 0.0 9.48560447059624e-12 0.0 0.010009476854613676 0.00994540683855043 0.0 -3.2741847996905677e-09 0.0 0.01 0.0 -3.2741847996905677e-09 0.0 0.01000841440843936 0.009946295248882334 0.0 -3.503833432674679e-09 0.0 0.01 0.0 -3.503833432674679e-09 0.0 0.010007996381102563 0.009947143543795695 0.0 -2.3339694340405863e-09 0.0 0.01 0.0 -2.3339694340405334e-09 0.0 0.010008621486702856 0.009947920189632857 0.0 -1.139500055727947e-09 0.0 0.01 0.0 -1.1395000557279206e-09 0.0 0.010008739944657365 0.009948588211182783 0.0 -4.18698053526065e-10 0.0 0.01 0.0 -4.1869805352605176e-10 0.0 0.010008498621722206 0.009947601732993515 0.0 -2.689387491793741e-10 0.0 0.01 0.0 -2.689387491793741e-10 0.0 0.010009643832609513 0.009948393255103575 0.0 -4.703665920896645e-09 0.0 0.01 0.0 -4.703665920896645e-09 0.0 0.010008597976083751 0.009949176595115062 0.0 -5.299863104455369e-09 0.0 0.01 0.0 -5.299863104455369e-09 0.0 0.01000862835444578 0.009949896584237072 0.0 -3.612894742692815e-09 0.0 0.01 0.0 -3.612894742692603e-09 0.0 0.010009868087679894 0.009950541358306976 0.0 -1.7367955924969874e-09 0.0 0.01 0.0 -1.7367955924969345e-09 0.0 0.010010209463716701 0.00995109707777554 0.0 -5.468502944146864e-10 0.0 0.01 0.0 -5.468502944146996e-10 0.0 0.010009971946149089 0.009956012940792961 0.0 -1.1133731253243425e-09 0.0 0.01 0.0 -1.113373125324316e-09 0.0 0.01001010073313716 0.009956420046279106 0.0 -7.033555548083848e-09 0.0 0.01 0.0 -7.033555548083848e-09 0.0 0.010009326982689689 0.009956766495364153 0.0 -8.139771233675143e-09 0.0 0.01 0.0 -8.139771233675355e-09 0.0 0.010009918537125748 0.009957024628370658 0.0 -5.5865642929812475e-09 0.0 0.01 0.0 -5.586564292981459e-09 0.0 0.010011657051397083 0.009957224041225963 0.0 -2.5957319101366462e-09 0.0 0.01 0.0 -2.5957319101365933e-09 0.0 0.010012257851459679 0.009957399277760771 0.0 -6.576056767819468e-10 0.0 0.01 0.0 -6.576056767819468e-10 0.0 0.010012066705721492 0.0099716415876723 0.0 -2.608806737755167e-09 0.0 0.01 0.0 -2.608806737755167e-09 0.0 0.010011832969789214 0.009971319856129344 0.0 -1.053224087738574e-08 0.0 0.01 0.0 -1.0532240877386163e-08 0.0 0.010011482145734604 0.009970886633563781 0.0 -1.2297884764964585e-08 0.0 0.01 0.0 -1.2297884764964585e-08 0.0 0.010012034389195582 0.009970344441388002 0.0 -8.5845905768303e-09 0.0 0.01 0.0 -8.584590576830723e-09 0.0 0.010013885316865156 0.009969769140391507 0.0 -3.947556575753183e-09 0.0 0.01 0.0 -3.947556575753183e-09 0.0 0.010014791051684966 0.009969266267187275 0.0 -8.482426156609079e-10 0.0 0.01 0.0 -8.482426156609344e-10 0.0 0.010014746404450735 0.009995676805121378 0.0 -4.001330427615097e-09 0.0 0.01 0.0 -4.001330427615097e-09 0.0 0.01001582362900336 0.009994366264455452 0.0 -1.4222224629245475e-08 0.0 0.01 0.0 -1.4222224629245475e-08 0.0 0.010015721547524186 0.00999291703242235 0.0 -1.7278108253713922e-08 0.0 0.01 0.0 -1.727810825371477e-08 0.0 0.010015745610762376 0.009991366693005758 0.0 -1.2624951030884598e-08 0.0 0.01 0.0 -1.2624951030885445e-08 0.0 0.010016622404004707 0.00998982754291756 0.0 -6.111124370598455e-09 0.0 0.01 0.0 -6.111124370598455e-09 0.0 0.010017554415678457 0.009988447549746537 0.0 -1.4664907102799002e-09 0.0 0.01 0.0 -1.4664907102799002e-09 0.0 0.010017806749376239 0.010027540606402366 0.0 -3.118269596612856e-09 0.0 0.01 0.0 -3.118269596612856e-09 0.0 0.01002103790327131 0.010025216158565931 0.0 -1.567633192365843e-08 0.0 0.01 0.0 -1.567633192365843e-08 0.0 0.010021218694423854 0.010022759614957348 0.0 -2.1237890809473726e-08 0.0 0.01 0.0 -2.1237890809473726e-08 0.0 0.010020905222066336 0.01002025225742044 0.0 -1.6833197157353763e-08 0.0 0.01 0.0 -1.6833197156920082e-08 0.0 0.010020198733968212 0.01001781604890288 0.0 -9.045317246428352e-09 0.0 0.01 0.0 -9.045317246428352e-09 0.0 0.010020409009577297 0.010015624944691362 0.0 -2.9260050074867133e-09 0.0 0.01 0.0 -2.9260050074884073e-09 0.0 0.010020906681113235 0.010063840529403888 0.0 -9.800189951299665e-12 0.0 0.01 0.0 -9.800189951299665e-12 0.0 0.010024345920846865 0.01006089851146249 0.0 -1.2165477017850465e-08 0.0 0.01 0.0 -1.2165477017850465e-08 0.0 0.010024817682861996 0.010057809962552735 0.0 -2.1124835653880725e-08 0.0 0.01 0.0 -2.112483565387903e-08 0.0 0.010024932787627732 0.010054758004470378 0.0 -1.9015690687392757e-08 0.0 0.01 0.0 -1.901569068739191e-08 0.0 0.010023714943881481 0.010051858118452049 0.0 -1.1646984935833545e-08 0.0 0.01 0.0 -1.1646984935833545e-08 0.0 0.01002305407924933 0.010049243210493436 0.0 -4.990554226093202e-09 0.0 0.01 0.0 -4.990554226093202e-09 0.0 0.01002367022749777 0.010098103695492619 0.0 -1.00396417733032e-08 0.0 0.01 0.0 -1.0039641773302988e-08 0.0 0.010024815718301064 0.010095479651458508 0.0 -8.702574626578473e-09 0.0 0.01 0.0 -8.702574626578473e-09 0.0 0.01002560092661755 0.010092636254345878 0.0 -1.6253634618505897e-08 0.0 0.01 0.0 -1.625363461850632e-08 0.0 0.010026836645605526 0.010089868959449362 0.0 -1.736711509371474e-08 0.0 0.01 0.0 -1.736711509371474e-08 0.0 0.010026297219082393 0.01008727437087288 0.0 -1.2081743593166383e-08 0.0 0.01 0.0 -1.2081743593165959e-08 0.0 0.0100253524370573 0.010084916658101479 0.0 -6.31378615607268e-09 0.0 0.01 0.0 -6.31378615607268e-09 0.0 0.010025876443137386 0.010122473527637179 0.0 -1.700057391481408e-08 0.0 0.01 0.0 -1.700057391481408e-08 0.0 0.010023822154724473 0.010121410675059981 0.0 -2.0110471744565255e-08 0.0 0.01 0.0 -2.0110471744565678e-08 0.0 0.01002448171061363 0.010120073329599882 0.0 -1.645940580021086e-08 0.0 0.01 0.0 -1.6459405800211072e-08 0.0 0.01002664864535046 0.010118677356434038 0.0 -1.3402552142153828e-08 0.0 0.01 0.0 -1.3402552142153828e-08 0.0 0.010027298374743993 0.010117330478950436 0.0 -9.551176599177561e-09 0.0 0.01 0.0 -9.551176599177561e-09 0.0 0.010026815476121873 0.010116008932308658 0.0 -5.550327537007892e-09 0.0 0.01 0.0 -5.550327537007892e-09 0.0 0.010027439678605025 0.010132757813789417 0.0 -8.547037237774489e-10 0.0 0.01 0.0 -8.547037237774356e-10 0.0 0.010023222241135311 0.010133639268458193 0.0 -1.334063103599281e-08 0.0 0.01 0.0 -1.3340631035993022e-08 0.0 0.010023007861387942 0.010134517414109626 0.0 -1.2842228872033743e-08 0.0 0.01 0.0 -1.2842228872033743e-08 0.0 0.010024492539742717 0.010135276836368388 0.0 -9.155794244854673e-09 0.0 0.01 0.0 -9.155794244854673e-09 0.0 0.010025929100222401 0.010135815770571845 0.0 -5.743157894207879e-09 0.0 0.01 0.0 -5.743157894207879e-09 0.0 0.01002660479691054 0.010136020184062598 0.0 -3.227764051542271e-09 0.0 0.01 0.0 -3.227764051542324e-09 0.0 0.01002797142391299 0.010131224049585417 0.0 9.906022788858655e-09 0.0 0.01 0.0 9.906022788858549e-09 0.0 0.010023944628044904 0.010133697752341327 0.0 -1.5047496581232409e-09 0.0 0.01 0.0 -1.5047496581232673e-09 0.0 0.010022574260155435 0.010136423424117738 0.0 -4.158384660429385e-09 0.0 0.01 0.0 -4.158384660429279e-09 0.0 0.010023136699038628 0.01013905665430958 0.0 -3.240969683800582e-09 0.0 0.01 0.0 -3.240969683800529e-09 0.0 0.010024922460719121 0.010141297716275113 0.0 -1.9183041903489715e-09 0.0 0.01 0.0 -1.9183041903489715e-09 0.0 0.01002642567962758 0.010142930861087637 0.0 -9.983273171380575e-10 0.0 0.01 0.0 -9.983273171380443e-10 0.0 0.010028268364873782 0.010123761190173056 0.0 5.795320605198241e-09 0.0 0.01 0.0 5.795320605198347e-09 0.0 0.010025235806478678 0.01012723947829801 0.0 1.6118772270955206e-09 0.0 0.01 0.0 1.6118772270954941e-09 0.0 0.010023267001823677 0.010131074777224866 0.0 -1.2364125132457898e-11 0.0 0.01 0.0 -1.2364125132457898e-11 0.0 0.010023486282474976 0.010134827981026096 0.0 -2.3995922733648065e-10 0.0 0.01 0.0 -2.3995922733648065e-10 0.0 0.010024857981634867 0.010138115223931297 0.0 -1.0429034604431267e-10 0.0 0.01 0.0 -1.0429034604431433e-10 0.0 0.010026623041804211 0.010140637254544426 0.0 8.045730732697553e-12 0.0 0.01 0.0 8.045730732697656e-12 0.0 0.010028596800499893 0.010116019025596976 0.0 -5.08952950188644e-11 0.0 0.01 0.0 -5.08952950188644e-11 0.0 0.010026427645127529 0.010119906360588309 0.0 9.131166651789342e-11 0.0 0.01 0.0 9.131166651789342e-11 0.0 0.010024283467493025 0.010124121927527433 0.0 9.678714141341355e-11 0.0 0.01 0.0 9.678714141341355e-11 0.0 0.010024530416886142 0.010128229102404362 0.0 7.803099848766806e-11 0.0 0.01 0.0 7.80309984876664e-11 0.0 0.010025576288433194 0.010131824273150368 0.0 7.678326916219643e-11 0.0 0.01 0.0 7.678326916219726e-11 0.0 0.010027147751255181 0.010134578931864913 0.0 8.20170600097589e-11 0.0 0.01 0.0 8.201706000976055e-11 0.0 0.010028988363347638 0.010110887819524893 0.0 1.7787297164526691e-10 0.0 0.01 0.0 1.7787297164527022e-10 0.0 0.01002713938348408 0.010114691939137648 0.0 -4.355063250595801e-10 0.0 0.01 0.0 -4.355063250595801e-10 0.0 0.010025030163710175 0.010118727966725706 0.0 -5.237820279485819e-10 0.0 0.01 0.0 -5.237820279485819e-10 0.0 0.01002549511978587 0.010122599652727852 0.0 -4.019184056537527e-10 0.0 0.01 0.0 -4.019184056537461e-10 0.0 0.01002657430496335 0.010125912020777103 0.0 -2.513522729001022e-10 0.0 0.01 0.0 -2.513522729000989e-10 0.0 0.010027764150650964 0.010128338195399555 0.0 -1.119527592849703e-10 0.0 0.01 0.0 -1.1195275928496864e-10 0.0 0.010029310514157808 0.010108014759626732 0.0 2.373869907346557e-09 0.0 0.01 0.0 2.373869907346557e-09 0.0 0.01002690554804092 0.0101113825026181 0.0 -6.158446628890568e-10 0.0 0.01 0.0 -6.158446628890568e-10 0.0 0.010024988351565595 0.010114873345109712 0.0 -1.3138556817264054e-09 0.0 0.01 0.0 -1.3138556817264319e-09 0.0 0.010025725883737365 0.01011813006753271 0.0 -1.0704363003030797e-09 0.0 0.01 0.0 -1.0704363003031062e-09 0.0 0.010027051271118068 0.010120771817916797 0.0 -6.447878198367692e-10 0.0 0.01 0.0 -6.447878198367559e-10 0.0 0.010028047761792714 0.010122499872421411 0.0 -2.8908162657519187e-10 0.0 0.01 0.0 -2.890816265751985e-10 0.0 0.010029394701159416 0.010105019189646038 0.0 1.6630011664151702e-09 0.0 0.01 0.0 1.6630011664151967e-09 0.0 0.010025966993664561 0.010107716254814093 0.0 -2.473210105087294e-09 0.0 0.01 0.0 -2.473210105087294e-09 0.0 0.010024329703009812 0.010110430621392023 0.0 -3.0047330420863974e-09 0.0 0.01 0.0 -3.0047330420863974e-09 0.0 0.01002533127697834 0.010112827479783655 0.0 -2.2082960619288327e-09 0.0 0.01 0.0 -2.2082960619288857e-09 0.0 0.010026887856048442 0.01011456155639049 0.0 -1.2035715056516911e-09 0.0 0.01 0.0 -1.2035715056516911e-09 0.0 0.010027854248151648 0.010115379170579768 0.0 -4.67916996327283e-10 0.0 0.01 0.0 -4.679169963272697e-10 0.0 0.010029139574156682 0.010099452488002586 0.0 -2.391528053368417e-09 0.0 0.01 0.0 -2.391528053368364e-09 0.0 0.010024750284192446 0.010101309558111511 0.0 -6.088567014048637e-09 0.0 0.01 0.0 -6.088567014048637e-09 0.0 0.010023443029428383 0.010103044779354116 0.0 -5.669120109863463e-09 0.0 0.01 0.0 -5.669120109863569e-09 0.0 0.010024563358287452 0.010104377860339573 0.0 -3.907979569631577e-09 0.0 0.01 0.0 -3.907979569631683e-09 0.0 0.010026233721317522 0.010105015165481264 0.0 -2.006004496425218e-09 0.0 0.01 0.0 -2.006004496425218e-09 0.0 0.010027238840336215 0.010104794978757218 0.0 -6.838871867180587e-10 0.0 0.01 0.0 -6.838871867180719e-10 0.0 0.01002853179663017 0.010090363543000297 0.0 -7.699854977772955e-09 0.0 0.01 0.0 -7.699854977773167e-09 0.0 0.010023564985340844 0.01009118485930805 0.0 -1.029910320460394e-08 0.0 0.01 0.0 -1.0299103204604152e-08 0.0 0.010022632755041163 0.010091732309382035 0.0 -8.554162920261239e-09 0.0 0.01 0.0 -8.554162920261239e-09 0.0 0.01002362153370976 0.010091772958040087 0.0 -5.702106577475744e-09 0.0 0.01 0.0 -5.702106577475744e-09 0.0 0.010025193991760821 0.010091128135939346 0.0 -2.7815112037730498e-09 0.0 0.01 0.0 -2.7815112037730498e-09 0.0 0.01002627902631407 0.010089763672672338 0.0 -8.338292730576748e-10 0.0 0.01 0.0 -8.338292730576748e-10 0.0 0.010027636596507261 0.010078623164617589 0.0 -1.1766532487208453e-08 0.0 0.01 0.0 -1.1766532487208876e-08 0.0 0.010022513299744025 0.010078222279083334 0.0 -1.3682304048415709e-08 0.0 0.01 0.0 -1.3682304048415709e-08 0.0 0.010021945077198889 0.010077369174526759 0.0 -1.064855025847262e-08 0.0 0.01 0.0 -1.064855025847262e-08 0.0 0.010022504943566334 0.01007591090338102 0.0 -6.718922711818858e-09 0.0 0.01 0.0 -6.718922711818858e-09 0.0 0.01002388167859246 0.010073832663341732 0.0 -3.0369720255735992e-09 0.0 0.01 0.0 -3.0369720255734933e-09 0.0 0.010025055755017154 0.01007127437798383 0.0 -7.630394297635542e-10 0.0 0.01 0.0 -7.630394297635277e-10 0.0 0.010026529499952837 0.01006611928015914 0.0 -1.2983124630523601e-08 0.0 0.01 0.0 -1.2983124630523601e-08 0.0 0.010021496365953028 0.010064373142742453 0.0 -1.544794643887949e-08 0.0 0.01 0.0 -1.544794643887949e-08 0.0 0.010021242797289599 0.01006200210887035 0.0 -1.1105479699785861e-08 0.0 0.01 0.0 -1.1105479699786285e-08 0.0 0.01002136074783933 0.010058982618492847 0.0 -6.356512096563091e-09 0.0 0.01 0.0 -6.356512096563303e-09 0.0 0.010022350106426978 0.01005549170541048 0.0 -2.612736774540923e-09 0.0 0.01 0.0 -2.612736774540923e-09 0.0 0.010023767063283425 0.010051869036560778 0.0 -5.043795218107966e-10 0.0 0.01 0.0 -5.043795218107966e-10 0.0 0.01002529439833796 0.010054675159280472 0.0 -1.0999338318050191e-08 0.0 0.01 0.0 -1.0999338318049768e-08 0.0 0.010020337272913162 0.010051602745995336 0.0 -2.1639626382488203e-08 0.0 0.01 0.0 -2.163962638248651e-08 0.0 0.010020379026940252 0.010047768304650585 0.0 -1.507032829670295e-08 0.0 0.01 0.0 -1.5070328296701256e-08 0.0 0.010020071015577921 0.010043326814020571 0.0 -7.053557971033369e-09 0.0 0.01 0.0 -7.053557971033369e-09 0.0 0.010021026582144063 0.010038664996789267 0.0 -2.02476158966503e-09 0.0 0.01 0.0 -2.024761589665242e-09 0.0 0.010022539828197995 0.010034233591847682 0.0 -2.3673531307520496e-10 0.0 0.01 0.0 -2.367353130751785e-10 0.0 0.010023960340396779 0.010045182332095792 0.0 -6.60601152579905e-09 0.0 0.01 0.0 -6.606011525798627e-09 0.0 0.01001891779737741 0.010041019061511154 0.0 -4.507042379733135e-08 0.0 0.01 0.0 -4.507042379733135e-08 0.0 0.010019101943872575 0.010035996635153388 0.0 -3.396768284931855e-08 0.0 0.01 0.0 -3.396768284931516e-08 0.0 0.010018629580349332 0.010030474692179199 0.0 -1.6906788747227325e-08 0.0 0.01 0.0 -1.6906788747227325e-08 0.0 0.01001994330208864 0.010025012985407143 0.0 -4.370189857875475e-09 0.0 0.01 0.0 -4.370189857875475e-09 0.0 0.01002124279725694 0.010020099486410571 0.0 -2.274361532050852e-10 0.0 0.01 0.0 -2.2743615320497932e-10 0.0 0.01002252658910343 0.010037529568033162 0.0 7.661743205136319e-09 0.0 0.01 0.0 7.661743205136319e-09 0.0 0.010017169618364123 0.010032706158069742 0.0 -8.27058976023918e-08 0.0 0.01 0.0 -8.27058976023918e-08 0.0 0.01001740518687058 0.01002692182942389 0.0 -6.514641097631307e-08 0.0 0.01 0.0 -6.514641097629952e-08 0.0 0.010017210830793492 0.010020755842554083 0.0 -3.4357503201406375e-08 0.0 0.01 0.0 -3.435750320137927e-08 0.0 0.010018794050167848 0.010014941621224219 0.0 -7.357741424108595e-09 0.0 0.01 0.0 -7.357741424106901e-09 0.0 0.010019829324773157 0.01000991999143509 0.0 1.0773960283506535e-09 0.0 0.01 0.0 1.0773960283508652e-09 0.0 0.010020997097054396 0.010031183810565086 0.0 3.53131728979187e-08 0.0 0.01 0.0 3.531317289791531e-08 0.0 0.01001513438844293 0.010026116607754432 0.0 -9.300118066678459e-08 0.0 0.01 0.0 -9.300118066678459e-08 0.0 0.010015363936474933 0.010019917247799064 0.0 -7.838260946565708e-08 0.0 0.01 0.0 -7.838260946568419e-08 0.0 0.010015957566395877 0.010013582322061074 0.0 -3.361013955739895e-08 0.0 0.01 0.0 -3.361013955739895e-08 0.0 0.010017580904958544 0.010007894588856883 0.0 7.193932145168023e-09 0.0 0.01 0.0 7.193932145168023e-09 0.0 0.010018437114026477 0.010003138677103587 0.0 1.3600509061750617e-08 0.0 0.01 0.0 1.3600509061752311e-08 0.0 0.010019443259427894 0.010026259321878237 0.0 1.6151495300588983e-08 0.0 0.01 0.0 1.6151495300588983e-08 0.0 0.010012835219244351 0.010020703266769557 0.0 3.6778116901028794e-09 0.0 0.01 0.0 3.6778116901020323e-09 0.0 0.010013471021455774 0.010014073604329295 0.0 -1.4349499727420991e-08 0.0 0.01 0.0 -1.4349499727393886e-08 0.0 0.010014951415030901 0.010008023295843473 0.0 3.3877598168599425e-08 0.0 0.01 0.0 3.3877598168599425e-08 0.0 0.01001648351673047 0.010002921680730976 0.0 7.29977893879465e-08 0.0 0.01 0.0 7.29977893879465e-08 0.0 0.010017178916895296 0.00999878722114194 0.0 5.6707984111702446e-08 0.0 0.01 0.0 5.6707984111702446e-08 0.0 0.01001794121833491 0.010023626427553497 0.0 -2.504212458611158e-07 0.0 0.01 0.0 -2.504212458611158e-07 0.0 0.010010839859292695 0.010015877088932965 0.0 2.0923185143435687e-07 0.0 0.01 0.0 2.0923185143457371e-07 0.0 0.010012593104594266 0.010008857961411112 0.0 1.9661895443089062e-07 0.0 0.01 0.0 1.9661895443089062e-07 0.0 0.010014237403702777 0.010003358648351095 0.0 2.1682127114924462e-07 0.0 0.01 0.0 2.1682127114927173e-07 0.0 0.010015670565198358 0.009999183107700572 0.0 2.2520234190339695e-07 0.0 0.01 0.0 2.2520234190339695e-07 0.0 0.010016154769913816 0.009995943473226677 0.0 1.5456592437790187e-07 0.0 0.01 0.0 1.5456592437788832e-07 0.0 0.010016604267457532 0.010021046371331397 0.0 -8.779604749474448e-07 0.0 0.01 0.0 -8.779604749474448e-07 0.0 0.010009527864758887 0.010011664953413314 0.0 4.046120912776924e-07 0.0 0.01 0.0 4.04612091276825e-07 0.0 0.010011896218823165 0.010004165243247284 0.0 5.318334340276417e-07 0.0 0.01 0.0 5.318334340277502e-07 0.0 0.010013439687562652 0.009999298615424118 0.0 5.272650055582456e-07 0.0 0.01 0.0 5.272650055581913e-07 0.0 0.010014933325692192 0.009996189214439453 0.0 4.834273910807123e-07 0.0 0.01 0.0 4.834273910807123e-07 0.0 0.010015381651565599 0.009993977461296558 0.0 3.295043054842299e-07 0.0 0.01 0.0 3.295043054842299e-07 0.0 0.010015485110409004 0.010008387505810016 0.0 3.1745795011175505e-07 0.0 0.01 0.0 3.1745795011175505e-07 0.0 0.010011107343648903 0.010000382931218958 0.0 8.540704114996583e-07 0.0 0.01 0.0 8.540704114996583e-07 0.0 0.010012333438643219 0.009996014010036728 0.0 9.152479982005215e-07 0.0 0.01 0.0 9.152479982006299e-07 0.0 0.010013941325236312 0.009993809857731288 0.0 8.379983238710051e-07 0.0 0.01 0.0 8.379983238709508e-07 0.0 0.010014650387315334 0.009992568844943884 0.0 5.967530182934507e-07 0.0 0.01 0.0 5.967530182935049e-07 0.0 0.010014596901603211 0.010006342492766794 0.0 -3.0359596152752365e-07 0.0 0.01 0.0 -3.035959615273068e-07 0.0 0.010010243281029172 0.009998383537321423 0.0 9.847197321141742e-07 0.0 0.01 0.0 9.847197321141742e-07 0.0 0.010011327964428872 0.009993923785803304 0.0 1.2734982170019282e-06 0.0 0.01 0.0 1.2734982170019282e-06 0.0 0.01001257813433462 0.009992151483797453 0.0 1.249470551390212e-06 0.0 0.01 0.0 1.2494705513903205e-06 0.0 0.010013756116201861 0.00999158028471385 0.0 9.625193948101154e-07 0.0 0.01 0.0 9.625193948101154e-07 0.0 0.010013829574371302 0.009998746294412494 0.0 6.254124227772192e-07 0.0 0.01 0.0 6.254124227772192e-07 0.0 0.010010787488927081 0.009993555051572825 0.0 1.4503912697476752e-06 0.0 0.01 0.0 1.4503912697476752e-06 0.0 0.010011355577990745 0.009991478310204222 0.0 1.642552898045756e-06 0.0 0.01 0.0 1.642552898045756e-06 0.0 0.010012658699689498 0.009991012928694143 0.0 1.4114954067727782e-06 0.0 0.01 0.0 1.4114954067727782e-06 0.0 0.010013101199477249 0.010000632907509676 0.0 -5.627453868904068e-07 0.0 0.01 0.0 -5.627453868902984e-07 0.0 0.010010337354437513 0.00999552072507126 0.0 1.193714032778027e-06 0.0 0.01 0.0 1.1937140327779186e-06 0.0 0.010010924840025883 0.0099922280830093 0.0 1.8491994691109898e-06 0.0 0.01 0.0 1.8491994691109898e-06 0.0 0.010011519385798855 0.00999115327720973 0.0 1.8677931510366168e-06 0.0 0.01 0.0 1.8677931510365084e-06 0.0 0.01001236326199334 0.009999107619485435 0.0 1.148886675002128e-08 0.0 0.01 0.0 1.148886675002128e-08 0.0 0.010011091174894172 0.00999503356510575 0.0 1.5553963917214024e-06 0.0 0.01 0.0 1.5553963917215108e-06 0.0 0.010011096905963269 0.009992711654633675 0.0 2.1270194349623083e-06 0.0 0.01 0.0 2.1270194349623083e-06 0.0 0.010011774841595038 0.009999343572281433 0.0 2.2585221969180762e-07 0.0 0.01 0.0 2.2585221969180762e-07 0.0 0.010011336656497597 0.009996541267822892 0.0 1.775528602247561e-06 0.0 0.01 0.0 1.7755286022477779e-06 0.0 0.01001175898018412 0.010000201296408261 0.0 -1.985244578682748e-06 0.0 0.01 0.0 -1.9852445786825313e-06 0.0 0.010010382937982407 0.010001038720556767 0.0 2.4158672047019524e-07 0.0 0.01 0.0 2.4158672047016813e-07 0.0 0.010012079008899675 0.00999624961086831 0.0 1.0175518067200432e-13 0.0 0.01 0.0 1.0175518067200432e-13 0.0 0.0100001367028031 0.009996120259027057 0.0 9.062230322198197e-14 0.0 0.01 0.0 9.062230322195612e-14 0.0 0.010000136702803098 0.009996042350688598 0.0 4.946484323131882e-14 0.0 0.01 0.0 4.946484323131882e-14 0.0 0.010000128902492337 0.00999599440800111 0.0 2.6942179275646834e-14 0.0 0.01 0.0 2.6942179275646834e-14 0.0 0.010000115702008011 0.009995970436916047 0.0 1.5790258469142035e-14 0.0 0.01 0.0 1.5790258469142035e-14 0.0 0.010000103501606865 0.009995959949620561 0.0 8.406414500747055e-15 0.0 0.01 0.0 8.406414500747055e-15 0.0 0.010000088851184166 0.009995956953256486 0.0 3.4417334608318595e-15 0.0 0.01 0.0 3.4417334608318595e-15 0.0 0.010000078600926707 0.009995959450226362 0.0 1.3337428779435222e-15 0.0 0.01 0.0 1.3337428779435222e-15 0.0 0.010000069800730815 0.009995961947198108 0.0 6.715666496611296e-16 0.0 0.01 0.0 6.715666496611296e-16 0.0 0.010000065900651429 0.009995604399894553 0.0 -6.892035990252892e-13 0.0 0.01 0.0 -6.892035990248756e-13 0.0 0.010000175804635983 0.009995468082603902 0.0 -3.56131700843413e-13 0.0 0.01 0.0 -3.561317008435164e-13 0.0 0.010000177754739398 0.009995385196428508 0.0 -1.6896239655764253e-13 0.0 0.01 0.0 -1.6896239655764253e-13 0.0 0.010000167504208552 0.009995338261797803 0.0 -6.237247450985478e-14 0.0 0.01 0.0 -6.237247450985478e-14 0.0 0.01000015235348167 0.009995316292623362 0.0 -1.651944226130138e-14 0.0 0.01 0.0 -1.651944226130138e-14 0.0 0.010000135252743948 0.009995307804572036 0.0 -9.665622424941716e-16 0.0 0.01 0.0 -9.665622424941716e-16 0.0 0.010000118652111716 0.009995309302461876 0.0 2.2836252690905156e-15 0.0 0.01 0.0 2.2836252690905156e-15 0.0 0.010000105451667985 0.009995312797540786 0.0 1.683856020379482e-15 0.0 0.01 0.0 1.683856020379482e-15 0.0 0.010000094751346656 0.009995316791921173 0.0 4.069891431128744e-16 0.0 0.01 0.0 4.069891431128744e-16 0.0 0.010000087401145831 0.009995083128722307 0.0 -1.2291632096373652e-12 0.0 0.01 0.0 -1.2291632096373652e-12 0.0 0.010000207056430682 0.009994949828212907 0.0 -7.096311870851358e-13 0.0 0.01 0.0 -7.096311870851358e-13 0.0 0.010000209956612084 0.00999486995031339 0.0 -3.5209289259095014e-13 0.0 0.01 0.0 -3.5209289259095014e-13 0.0 0.010000197755865952 0.009994829013632144 0.0 -1.3719744524486986e-13 0.0 0.01 0.0 -1.3719744524486986e-13 0.0 0.010000181154922452 0.009994812539256022 0.0 -4.1841125941379595e-14 0.0 0.01 0.0 -4.1841125941379595e-14 0.0 0.01000016310399035 0.009994809543923662 0.0 -8.619460387509266e-15 0.0 0.01 0.0 -8.619460387509266e-15 0.0 0.010000144053112635 0.00999481453614576 0.0 -4.648140218395919e-16 0.0 0.01 0.0 -4.648140218395919e-16 0.0 0.010000128902492335 0.009994823522164385 0.0 9.116691588000876e-16 0.0 0.01 0.0 9.116691588000876e-16 0.0 0.010000115702008011 0.009994828514407425 0.0 2.253667142671054e-16 0.0 0.01 0.0 2.253667142671054e-16 0.0 0.010000108401762615 0.009994606866023511 0.0 -1.1410762455149957e-12 0.0 0.01 0.0 -1.1410762455158229e-12 0.0 0.010000225107600786 0.009994480572976408 0.0 -7.893518564856553e-13 0.0 0.01 0.0 -7.893518564856553e-13 0.0 0.01000022705773305 0.009994411687877673 0.0 -4.141257151409356e-13 0.0 0.01 0.0 -4.141257151407288e-13 0.0 0.010000217307083151 0.009994380240806134 0.0 -1.6485384662442925e-13 0.0 0.01 0.0 -1.6485384662453265e-13 0.0 0.010000200706042274 0.009994373751764828 0.0 -5.194192882082296e-14 0.0 0.01 0.0 -5.194192882082296e-14 0.0 0.010000181154922448 0.009994378743333943 0.0 -1.2165797605817741e-14 0.0 0.01 0.0 -1.2165797605817741e-14 0.0 0.01000016310399035 0.009994387728177194 0.0 -1.614642268862921e-15 0.0 0.01 0.0 -1.614642268862921e-15 0.0 0.010000146503219415 0.009994397711364785 0.0 1.277488908906823e-16 0.0 0.01 0.0 1.277488908906823e-16 0.0 0.010000134752723697 0.009994408692905687 0.0 -2.9475166264775878e-18 0.0 0.01 0.0 -2.9475166264775878e-18 0.0 0.010000127452436577 0.009994100724327118 0.0 -3.55444744031609e-13 0.0 0.01 0.0 -3.554447440315056e-13 0.0 0.010000231958070436 0.0099939899224998 0.0 -5.875401432154628e-13 0.0 0.01 0.0 -5.875401432158764e-13 0.0 0.010000232908136675 0.009993932526605787 0.0 -3.6926004745533274e-13 0.0 0.01 0.0 -3.6926004745522935e-13 0.0 0.01000022605766508 0.009993912563048366 0.0 -1.6095639900151434e-13 0.0 0.01 0.0 -1.6095639900146264e-13 0.0 0.010000211906735484 0.009993914060311018 0.0 -5.2679433403716195e-14 0.0 0.01 0.0 -5.2679433403716195e-14 0.0 0.010000193855636856 0.0099939290329746 0.0 -1.3306856548798068e-14 0.0 0.01 0.0 -1.3306856548798068e-14 0.0 0.010000175304609648 0.009993943506613366 0.0 -2.3849685564264854e-15 0.0 0.01 0.0 -2.3849685564264854e-15 0.0 0.010000160153847306 0.009993959976692592 0.0 -7.10154108792945e-17 0.0 0.01 0.0 -7.10154108792945e-17 0.0 0.010000148953327997 0.009993971455886872 0.0 3.9381187389010864e-18 0.0 0.01 0.0 3.9381187389010864e-18 0.0 0.010000140602965323 0.00999350882577602 0.0 9.973986639851222e-13 0.0 0.01 0.0 9.973986639855358e-13 0.0 0.01000022705773305 0.009993414511016556 0.0 -1.498254873654238e-13 0.0 0.01 0.0 -1.4982548736539796e-13 0.0 0.010000230007935304 0.0099933730932094 0.0 -2.7206771525607085e-13 0.0 0.01 0.0 -2.7206771525607085e-13 0.0 0.010000225107600787 0.009993367105135311 0.0 -1.501584299513393e-13 0.0 0.01 0.0 -1.501584299513393e-13 0.0 0.010000215806985699 0.009993381077324927 0.0 -5.616409499145045e-14 0.0 0.01 0.0 -5.616409499145045e-14 0.0 0.0100002011560694 0.009993403532752451 0.0 -1.5524791681634534e-14 0.0 0.01 0.0 -1.5524791681634534e-14 0.0 0.010000187505273603 0.009993428483405016 0.0 -3.066967611028815e-15 0.0 0.01 0.0 -3.066967611028815e-15 0.0 0.010000174304557206 0.00999344694700823 0.0 -6.019999234563703e-16 0.0 0.01 0.0 -6.019999234563703e-16 0.0 0.0100001635540124 0.009993460420513002 0.0 -2.928486229352184e-17 0.0 0.01 0.0 -2.928486229352184e-17 0.0 0.010000156253662204 0.009992808265602518 0.0 2.7974830302682e-12 0.0 0.01 0.0 2.7974830302682e-12 0.0 0.010000220207273472 0.009992731931408828 0.0 3.98293198459638e-13 0.0 0.01 0.0 3.98293198459638e-13 0.0 0.010000227557767144 0.009992706985973146 0.0 -1.7748226112000733e-13 0.0 0.01 0.0 -1.7748226111990394e-13 0.0 0.010000226557699029 0.00999271596630847 0.0 -1.5717584392358208e-13 0.0 0.01 0.0 -1.5717584392353038e-13 0.0 0.010000221707372907 0.009992742907459716 0.0 -7.008024499996359e-14 0.0 0.01 0.0 -7.008024499996359e-14 0.0 0.010000214856924329 0.009992774837995216 0.0 -2.2364190878361033e-14 0.0 0.01 0.0 -2.2364190878361033e-14 0.0 0.010000203106187652 0.009992805770993377 0.0 -5.195420123988194e-15 0.0 0.01 0.0 -5.195420123988194e-15 0.0 0.010000190455440853 0.009992830717168881 0.0 -6.09732279320129e-16 0.0 0.01 0.0 -6.09732279320129e-16 0.0 0.010000183605056499 0.00999284618389152 0.0 6.496152872052746e-17 0.0 0.01 0.0 6.496152872052746e-17 0.0 0.0100001777547394 0.009991989635181834 0.0 2.956934854994094e-11 0.0 0.01 0.0 2.956934854994094e-11 0.0 0.010000219757243774 0.009991937760447428 0.0 8.920242902480238e-13 0.0 0.01 0.0 8.92024290247817e-13 0.0 0.010000230007935304 0.00999193526649017 0.0 -1.464743342996818e-13 0.0 0.01 0.0 -1.464743342996818e-13 0.0 0.010000235358308773 0.009991959208556956 0.0 -2.024373774539789e-13 0.0 0.01 0.0 -2.024373774539789e-13 0.0 0.010000239758622355 0.009991997117181352 0.0 -1.0158110315816577e-13 0.0 0.01 0.0 -1.0158110315816577e-13 0.0 0.010000237308447029 0.009992039515496088 0.0 -3.5471584147507414e-14 0.0 0.01 0.0 -3.5471584147507414e-14 0.0 0.010000231458035675 0.009992077923847119 0.0 -1.0082933768208566e-14 0.0 0.01 0.0 -1.0082933768208566e-14 0.0 0.01000022265743623 0.009992108850373743 0.0 -2.5617892421422972e-15 0.0 0.01 0.0 -2.5617892421422972e-15 0.0 0.010000216307018106 0.009992127306663549 0.0 -5.084103385596487e-16 0.0 0.01 0.0 -5.084103385596487e-16 0.0 0.010000212906799203 0.009991063992122688 0.0 2.2543478240153063e-10 0.0 0.01 0.0 2.2543478240153063e-10 0.0 0.010000237808482672 0.009991039557833302 0.0 1.2893931076032808e-12 0.0 0.01 0.0 1.2893931076032808e-12 0.0 0.010000250009375392 0.009991056512219139 0.0 -1.950267686169178e-13 0.0 0.01 0.0 -1.950267686168661e-13 0.0 0.010000263210391594 0.009991097402563615 0.0 -2.971196393663974e-13 0.0 0.01 0.0 -2.971196393663974e-13 0.0 0.01000027491133602 0.009991147768190146 0.0 -1.52950234530213e-13 0.0 0.01 0.0 -1.52950234530213e-13 0.0 0.010000277861580633 0.009991199630621348 0.0 -5.77688728102104e-14 0.0 0.01 0.0 -5.77688728102104e-14 0.0 0.01000027786158063 0.009991245509599102 0.0 -1.7778508073962025e-14 0.0 0.01 0.0 -1.7778508073962025e-14 0.0 0.010000274411294821 0.009991281914020295 0.0 -3.480663817932855e-15 0.0 0.01 0.0 -3.480663817932855e-15 0.0 0.010000268560818348 0.009991303856603361 0.0 -9.283408445304513e-16 0.0 0.01 0.0 -9.283408445304513e-16 0.0 0.010000266110621853 0.009990019461580435 0.0 6.652521983777638e-10 0.0 0.01 0.0 6.652521983777638e-10 0.0 0.010000296863218712 0.009990031425707766 0.0 3.842842573854465e-12 0.0 0.01 0.0 3.842842573854465e-12 0.0 0.010000305664014005 0.009990070807930752 0.0 -3.0974357839227566e-13 0.0 0.01 0.0 -3.0974357839232736e-13 0.0 0.010000322765625973 0.00999012763879504 0.0 -4.178586223741838e-13 0.0 0.01 0.0 -4.178586223741838e-13 0.0 0.010000341317473847 0.009990191450044155 0.0 -2.2149140378835967e-13 0.0 0.01 0.0 -2.2149140378830797e-13 0.0 0.010000350118386576 0.009990251772739888 0.0 -8.448868689432913e-14 0.0 0.01 0.0 -8.448868689432913e-14 0.0 0.010000355018904868 0.009990305116860563 0.0 -2.497265990437627e-14 0.0 0.01 0.0 -2.497265990437627e-14 0.0 0.010000352068591971 0.009990346496533338 0.0 -7.743055375893117e-15 0.0 0.01 0.0 -7.743055375893117e-15 0.0 0.010000348668234583 0.009990372919966878 0.0 -1.2379538044925554e-15 0.0 0.01 0.0 -1.2379538044925554e-15 0.0 0.010000345217875484 0.00998885216886745 0.0 1.1607079654500216e-09 0.0 0.01 0.0 1.1607079654500216e-09 0.0 0.010000417026085364 0.00998890200220904 0.0 1.1982271646084636e-11 0.0 0.01 0.0 1.1982271646084636e-11 0.0 0.010000413125599504 0.009988965789974881 0.0 -3.866993739793916e-13 0.0 0.01 0.0 -3.866993739794433e-13 0.0 0.010000426777319278 0.0099890395461025 0.0 -5.067170256517674e-13 0.0 0.01 0.0 -5.067170256517157e-13 0.0 0.010000446329879776 0.009989115297339623 0.0 -2.72596802532403e-13 0.0 0.01 0.0 -2.725968025323513e-13 0.0 0.010000459981735536 0.009989184072981718 0.0 -1.0726894748140508e-13 0.0 0.01 0.0 -1.0726894748140508e-13 0.0 0.010000465832547975 0.0099892448758194 0.0 -3.1252641469744976e-14 0.0 0.01 0.0 -3.1252641469744976e-14 0.0 0.010000465832547973 0.009989293219851533 0.0 -8.37369691545966e-15 0.0 0.01 0.0 -8.37369691545966e-15 0.0 0.010000461481942871 0.00998932212692772 0.0 -9.482126509740823e-16 0.0 0.01 0.0 -9.482126509740823e-16 0.0 0.010000457081336593 0.009987564235758365 0.0 1.3286823433525966e-09 0.0 0.01 0.0 1.3286823433525966e-09 0.0 0.01000061335642657 0.00998764892011735 0.0 1.3352407043699032e-11 0.0 0.01 0.0 1.3352407043697378e-11 0.0 0.010000588902016758 0.009987737093768646 0.0 -2.8951364893932356e-13 0.0 0.01 0.0 -2.8951364893932356e-13 0.0 0.010000587951849044 0.009987826764283619 0.0 -4.3032536077365346e-13 0.0 0.01 0.0 -4.3032536077370516e-13 0.0 0.010000605054909288 0.00998791494264521 0.0 -2.490834590607797e-13 0.0 0.01 0.0 -2.49083459060728e-13 0.0 0.010000614806693443 0.009987993657505866 0.0 -1.0187877427486761e-13 0.0 0.01 0.0 -1.0187877427486761e-13 0.0 0.010000617257146254 0.009988059918926174 0.0 -2.843051433124419e-14 0.0 0.01 0.0 -2.843051433124419e-14 0.0 0.010000615756868808 0.009988112729724318 0.0 -5.6799711046182975e-15 0.0 0.01 0.0 -5.6799711046182975e-15 0.0 0.010000611856150612 0.009988142623000212 0.0 -2.172197275924644e-15 0.0 0.01 0.0 -2.172197275924644e-15 0.0 0.010000607005263836 0.009986150823172446 0.0 9.867479649017802e-10 0.0 0.01 0.0 9.86747964901992e-10 0.0 0.010000899071234972 0.009986266841835418 0.0 4.002095049795355e-12 0.0 0.01 0.0 4.002095049795355e-12 0.0 0.010000837505200495 0.009986376391065898 0.0 5.2274403976958626e-14 0.0 0.01 0.0 5.2274403976958626e-14 0.0 0.01000081649998995 0.009986482458074134 0.0 -1.2650642866717518e-13 0.0 0.01 0.0 -1.2650642866717518e-13 0.0 0.01000081649998995 0.00998657906664701 0.0 -1.0883900484786848e-13 0.0 0.01 0.0 -1.0883900484786848e-13 0.0 0.010000819450713917 0.009986666713963522 0.0 -5.054271169822314e-14 0.0 0.01 0.0 -5.054271169822314e-14 0.0 0.010000815999867501 0.009986741415202555 0.0 -1.1822917615335303e-14 0.0 0.01 0.0 -1.1822917615335303e-14 0.0 0.01000081064856201 0.009986794703110789 0.0 -3.6086416138469085e-15 0.0 0.01 0.0 -3.6086416138469085e-15 0.0 0.010000802846674069 0.009986830560874951 0.0 -1.5352838908457607e-16 0.0 0.01 0.0 -1.5352838908457607e-16 0.0 0.010000797445377728 0.009984611593479195 0.0 4.134132608897289e-10 0.0 0.01 0.0 4.134132608897818e-10 0.0 0.010001254135889105 0.009984750951077672 0.0 -5.032554428825521e-13 0.0 0.01 0.0 -5.032554428825521e-13 0.0 0.010001156450575761 0.009984876377905504 0.0 5.14364648658175e-13 0.0 0.01 0.0 5.14364648658175e-13 0.0 0.010001105633336735 0.00998499434316394 0.0 3.3405733280802514e-13 0.0 0.01 0.0 3.340573328079993e-13 0.0 0.010001083676127643 0.009985100863909323 0.0 1.359488919542951e-13 0.0 0.01 0.0 1.359488919542951e-13 0.0 0.010001072922649753 0.009985195939042641 0.0 4.8632650869037124e-14 0.0 0.01 0.0 4.8632650869037124e-14 0.0 0.010001060718744773 0.009985272100663536 0.0 2.4247359634416253e-14 0.0 0.01 0.0 2.4247359634416253e-14 0.0 0.010001046564271593 0.009985330840881785 0.0 1.2800597680228163e-14 0.0 0.01 0.0 1.2800597680228163e-14 0.0 0.010001035810913413 0.009985367678496705 0.0 1.8819138892331593e-15 0.0 0.01 0.0 1.8819138892331593e-15 0.0 0.010001025557743733 0.009982939259857373 0.0 4.6084202474477307e-11 0.0 0.01 0.0 4.6084202474474e-11 0.0 0.010001661564027528 0.009983091481586234 0.0 -1.056090316727714e-12 0.0 0.01 0.0 -1.056090316727714e-12 0.0 0.0100015286504444 0.009983230278055059 0.0 8.316161905189668e-13 0.0 0.01 0.0 8.316161905189151e-13 0.0 0.01000144661384321 0.009983358135121976 0.0 7.565388655629925e-13 0.0 0.01 0.0 7.565388655629925e-13 0.0 0.01000140264505679 0.009983472563899929 0.0 4.010816988461678e-13 0.0 0.01 0.0 4.010816988461678e-13 0.0 0.01000137088184604 0.009983571572843714 0.0 1.8276474336197357e-13 0.0 0.01 0.0 1.8276474336197357e-13 0.0 0.010001346471899172 0.009983654165472446 0.0 7.401445838090526e-14 0.0 0.01 0.0 7.401445838090526e-14 0.0 0.010001324012905113 0.009983715862508527 0.0 2.8182615889826015e-14 0.0 0.01 0.0 2.8182615889826015e-14 0.0 0.010001304955391848 0.009983753677386338 0.0 4.770706189766461e-15 0.0 0.01 0.0 4.770706189766461e-15 0.0 0.01000129225044353 0.009981130543149754 0.0 -1.4839440677145673e-11 0.0 0.01 0.0 -1.4839440677145673e-11 0.0 0.01000209440779791 0.009981285665340652 0.0 -1.5338002334346758e-12 0.0 0.01 0.0 -1.5338002334345724e-12 0.0 0.010001933160421932 0.009981428364255442 0.0 8.468431503273283e-13 0.0 0.01 0.0 8.468431503273283e-13 0.0 0.010001826200129257 0.009981561621729893 0.0 1.0017453586925155e-12 0.0 0.01 0.0 1.0017453586925155e-12 0.0 0.010001755812323305 0.009981682453083486 0.0 6.396500233091245e-13 0.0 0.01 0.0 6.396500233091762e-13 0.0 0.01000170598645919 0.009981785884229872 0.0 3.21831679791641e-13 0.0 0.01 0.0 3.21831679791641e-13 0.0 0.010001665966224064 0.009981871913546112 0.0 1.411089494684793e-13 0.0 0.01 0.0 1.411089494684793e-13 0.0 0.01000163174930399 0.009981936064021557 0.0 5.1297212353882664e-14 0.0 0.01 0.0 5.1297212353882664e-14 0.0 0.010001608287905315 0.009981974853281152 0.0 1.1055491118888498e-14 0.0 0.01 0.0 1.1055491118888498e-14 0.0 0.010001592180174948 0.009979176722387961 0.0 -1.3526954198090412e-11 0.0 0.01 0.0 -1.3526954198091239e-11 0.0 0.010002523905193163 0.009979319330868137 0.0 -1.8589330555888686e-12 0.0 0.01 0.0 -1.8589330555888686e-12 0.0 0.010002352379793335 0.00997946293931375 0.0 5.892505253802131e-13 0.0 0.01 0.0 5.892505253802131e-13 0.0 0.010002224842268278 0.009979598602813401 0.0 1.061903902160723e-12 0.0 0.01 0.0 1.0619039021606196e-12 0.0 0.010002133482568011 0.009979722344676192 0.0 8.129589000716484e-13 0.0 0.01 0.0 8.129589000716484e-13 0.0 0.01000206754103217 0.009979830684704712 0.0 4.688764533076387e-13 0.0 0.01 0.0 4.68876453307587e-13 0.0 0.010002011856972451 0.009979917160470581 0.0 2.260043363132605e-13 0.0 0.01 0.0 2.260043363132605e-13 0.0 0.010001969831882817 0.00997998127326534 0.0 8.07665519276599e-14 0.0 0.01 0.0 8.07665519276599e-14 0.0 0.010001938563558632 0.009980018548714043 0.0 2.010074638186708e-14 0.0 0.01 0.0 2.010074638186708e-14 0.0 0.010001918051697253 0.00997705620491505 0.0 -1.1772404197481481e-11 0.0 0.01 0.0 -1.1772404197481481e-11 0.0 0.010002949054025186 0.009977186307835952 0.0 -1.9566180824005385e-12 0.0 0.01 0.0 -1.956618082400642e-12 0.0 0.010002770701092428 0.00997732336832641 0.0 3.847382460450908e-13 0.0 0.01 0.0 3.847382460450908e-13 0.0 0.010002632389056122 0.009977459441212371 0.0 1.1303650097117702e-12 0.0 0.01 0.0 1.1303650097117185e-12 0.0 0.010002526857428695 0.009977585090098325 0.0 1.0005812309450424e-12 0.0 0.01 0.0 1.0005812309450424e-12 0.0 0.01000244374549202 0.009977694353857855 0.0 6.331996871938587e-13 0.0 0.01 0.0 6.331996871938587e-13 0.0 0.010002377797819576 0.009977783257474376 0.0 3.172192008734277e-13 0.0 0.01 0.0 3.172192008734277e-13 0.0 0.01000232601129767 0.009977846832467508 0.0 1.257346882591862e-13 0.0 0.01 0.0 1.257346882591862e-13 0.0 0.010002288385266466 0.009977886567455333 0.0 2.436228512166855e-14 0.0 0.01 0.0 2.436228512166855e-14 0.0 0.010002262967921864 0.009974748965241574 0.0 -9.724465185227018e-12 0.0 0.01 0.0 -9.724465185227018e-12 0.0 0.010003361043733196 0.009974866571912024 0.0 -1.4272709786476217e-12 0.0 0.01 0.0 -1.4272709786476217e-12 0.0 0.010003184620625586 0.009975002048042693 0.0 5.16613222565059e-13 0.0 0.01 0.0 5.166132225650331e-13 0.0 0.010003040936532055 0.00997513802597346 0.0 1.3315629581411335e-12 0.0 0.01 0.0 1.3315629581411335e-12 0.0 0.010002923131205045 0.009975264083474801 0.0 1.2525027566303576e-12 0.0 0.01 0.0 1.2525027566303576e-12 0.0 0.010002830301137394 0.009975373767314855 0.0 8.247056465483279e-13 0.0 0.01 0.0 8.247056465483279e-13 0.0 0.010002751635307993 0.009975461119929417 0.0 4.209656476079652e-13 0.0 0.01 0.0 4.209656476079652e-13 0.0 0.010002691986628768 0.009975526139558379 0.0 1.6423538172655749e-13 0.0 0.01 0.0 1.6423538172655749e-13 0.0 0.010002647050660752 0.009975564854139808 0.0 3.6037781078058764e-14 0.0 0.01 0.0 3.6037781078058764e-14 0.0 0.010002621630581788 0.009972242005184767 0.0 -7.212140381897748e-12 0.0 0.01 0.0 -7.212140381897748e-12 0.0 0.010003767728297265 0.009972352581093935 0.0 -3.2394956472937797e-13 0.0 0.01 0.0 -3.2394956472937797e-13 0.0 0.010003592284749743 0.009972486467162582 0.0 1.0127012899260875e-12 0.0 0.01 0.0 1.0127012899260875e-12 0.0 0.0100034441785381 0.009972624821765518 0.0 1.668452145235303e-12 0.0 0.01 0.0 1.668452145235303e-12 0.0 0.010003320002631036 0.009972755743251457 0.0 1.5265422167283265e-12 0.0 0.01 0.0 1.5265422167283265e-12 0.0 0.010003217352037313 0.009972867328133357 0.0 1.0059639872534066e-12 0.0 0.01 0.0 1.0059639872534583e-12 0.0 0.0100031303692685 0.009972953623010369 0.0 5.166416668227149e-13 0.0 0.01 0.0 5.166416668227149e-13 0.0 0.010003066359807963 0.00997301760169281 0.0 1.9673406854077847e-13 0.0 0.01 0.0 1.9673406854077847e-13 0.0 0.01000301696476245 0.009973057279013686 0.0 4.3271254553128835e-14 0.0 0.01 0.0 4.3271254553128835e-14 0.0 0.010002990591010454 0.0099695194283221 0.0 -4.237748674391457e-12 0.0 0.01 0.0 -4.237748674391457e-12 0.0 0.010004176464972725 0.009969633381898128 0.0 1.0270513724883018e-12 0.0 0.01 0.0 1.0270513724883018e-12 0.0 0.010003999948659078 0.009969772608744447 0.0 1.4287607530930146e-12 0.0 0.01 0.0 1.4287607530930146e-12 0.0 0.010003847419256749 0.009969918282934562 0.0 1.8950375317299594e-12 0.0 0.01 0.0 1.8950375317299594e-12 0.0 0.010003717872358897 0.009970054053064762 0.0 1.7025457886189712e-12 0.0 0.01 0.0 1.7025457886188678e-12 0.0 0.010003607901604242 0.00997016802497459 0.0 1.1289575206024674e-12 0.0 0.01 0.0 1.1289575206024674e-12 0.0 0.010003516504000753 0.009970259700868858 0.0 5.816566223822337e-13 0.0 0.01 0.0 5.816566223822337e-13 0.0 0.01000344462900326 0.009970322141033779 0.0 2.2070334029178906e-13 0.0 0.01 0.0 2.2070334029178906e-13 0.0 0.0100033933264185 0.009970361786191817 0.0 4.79841752312353e-14 0.0 0.01 0.0 4.79841752312353e-14 0.0 0.010003364997719717 0.00996657582625464 0.0 -1.7960390045235704e-12 0.0 0.01 0.0 -1.796039004523467e-12 0.0 0.010004588606365074 0.00996670502457929 0.0 1.5296610520353716e-12 0.0 0.01 0.0 1.5296610520354233e-12 0.0 0.010004406210493677 0.009966856999920878 0.0 1.0895130653983625e-12 0.0 0.01 0.0 1.0895130653984142e-12 0.0 0.010004253712572074 0.00996701591316919 0.0 1.5946250268082697e-12 0.0 0.01 0.0 1.5946250268083214e-12 0.0 0.010004119243828258 0.009967159981281068 0.0 1.6064280209857152e-12 0.0 0.01 0.0 1.6064280209857152e-12 0.0 0.010004005805686944 0.009967282270800279 0.0 1.1263817775279315e-12 0.0 0.01 0.0 1.1263817775279315e-12 0.0 0.010003910993184295 0.009967376837846662 0.0 5.957028488902686e-13 0.0 0.01 0.0 5.957028488902686e-13 0.0 0.010003837658013007 0.00996744417518527 0.0 2.2402344262619664e-13 0.0 0.01 0.0 2.2402344262619664e-13 0.0 0.010003785348244918 0.00996748230060707 0.0 4.881299929270624e-14 0.0 0.01 0.0 4.881299929270624e-14 0.0 0.010003755064017397 0.009963420195743422 0.0 -1.85487249851789e-12 0.0 0.01 0.0 -1.854872498517838e-12 0.0 0.010004999847272706 0.009963574493647383 0.0 -2.488556302736707e-13 0.0 0.01 0.0 -2.488556302736707e-13 0.0 0.010004817428908517 0.00996375303318103 0.0 -8.830226218709473e-13 0.0 0.01 0.0 -8.830226218709215e-13 0.0 0.010004663910781756 0.009963928614658845 0.0 3.761459942672517e-13 0.0 0.01 0.0 3.761459942672517e-13 0.0 0.010004535333522814 0.009964088377139082 0.0 1.063503496038093e-12 0.0 0.01 0.0 1.0635034960379895e-12 0.0 0.010004424334479196 0.00996422094131545 0.0 9.431000018752232e-13 0.0 0.01 0.0 9.431000018751715e-13 0.0 0.010004328008127616 0.009964322346589106 0.0 5.396368408942352e-13 0.0 0.01 0.0 5.396368408942352e-13 0.0 0.010004252711295571 0.009964391106072572 0.0 2.1516437236668805e-13 0.0 0.01 0.0 2.1516437236668805e-13 0.0 0.010004204299935156 0.009964434143308096 0.0 4.4603253716496935e-14 0.0 0.01 0.0 4.4603253716496935e-14 0.0 0.01000417401190264 0.009960095631010532 0.0 -8.06236017349104e-12 0.0 0.01 0.0 -8.06236017349104e-12 0.0 0.01000541113889696 0.009960291275901437 0.0 -6.3654415528101265e-12 0.0 0.01 0.0 -6.365441552810333e-12 0.0 0.010005232153451685 0.00996050076705069 0.0 -5.6784841073882615e-12 0.0 0.01 0.0 -5.6784841073882615e-12 0.0 0.010005091786304626 0.009960699894712184 0.0 -2.322093911816684e-12 0.0 0.01 0.0 -2.322093911816684e-12 0.0 0.010004981269486382 0.009960874820675 0.0 -1.2666391826703378e-13 0.0 0.01 0.0 -1.2666391826703378e-13 0.0 0.010004881522063606 0.009961019116823632 0.0 5.244310974878047e-13 0.0 0.01 0.0 5.244310974878047e-13 0.0 0.010004794445803735 0.009961130308202263 0.0 4.1315074709324183e-13 0.0 0.01 0.0 4.1315074709324183e-13 0.0 0.010004726498858188 0.009961205426263274 0.0 1.7321482007554318e-13 0.0 0.01 0.0 1.7321482007554318e-13 0.0 0.0100046756271803 0.009961250399073598 0.0 3.953651898423576e-14 0.0 0.01 0.0 3.953651898423576e-14 0.0 0.010004648739608902 0.009956713193141401 0.0 -2.5025514721081152e-11 0.0 0.01 0.0 -2.5025514721080325e-11 0.0 0.010005819025220276 0.009956961944125499 0.0 -2.01154173433585e-11 0.0 0.01 0.0 -2.01154173433585e-11 0.0 0.010005658599340796 0.00995720429684313 0.0 -1.5396977125162275e-11 0.0 0.01 0.0 -1.539697712516269e-11 0.0 0.010005558330824121 0.009957426427910894 0.0 -7.614896997564383e-12 0.0 0.01 0.0 -7.614896997564383e-12 0.0 0.01000548300620907 0.009957616485180785 0.0 -2.3979576130744134e-12 0.0 0.01 0.0 -2.3979576130744134e-12 0.0 0.010005413092064762 0.00995777347575623 0.0 -2.481527922883429e-13 0.0 0.01 0.0 -2.481527922883429e-13 0.0 0.010005345082433803 0.009957892457836619 0.0 2.1897289639386602e-13 0.0 0.01 0.0 2.1897289639386602e-13 0.0 0.010005284435839885 0.009957974908501949 0.0 1.3631961682890933e-13 0.0 0.01 0.0 1.3631961682890933e-13 0.0 0.010005238463351598 0.009958026256058943 0.0 3.5841559961709523e-14 0.0 0.01 0.0 3.5841559961709523e-14 0.0 0.01000521157124209 0.009953497396802395 0.0 -5.7919651409371457e-11 0.0 0.01 0.0 -5.7919651409371457e-11 0.0 0.01000623973528947 0.009953802613121562 0.0 -4.619093934740234e-11 0.0 0.01 0.0 -4.619093934740069e-11 0.0 0.010006127226839153 0.009954077282502251 0.0 -3.381967817129104e-11 0.0 0.01 0.0 -3.381967817129021e-11 0.0 0.010006092012373846 0.009954315479206577 0.0 -1.7847183676322493e-11 0.0 0.01 0.0 -1.784718367632208e-11 0.0 0.010006081242732525 0.009954516702168665 0.0 -6.891306773756771e-12 0.0 0.01 0.0 -6.891306773756771e-12 0.0 0.010006055295553455 0.009954683410825744 0.0 -1.7964448300003407e-12 0.0 0.01 0.0 -1.7964448300003407e-12 0.0 0.010006017627421055 0.009954811653953816 0.0 -1.7226413199202067e-13 0.0 0.01 0.0 -1.7226413199202067e-13 0.0 0.010005970693122625 0.009954900440561345 0.0 7.969700435169142e-14 0.0 0.01 0.0 7.969700435169142e-14 0.0 0.010005930571583223 0.009954955686760573 0.0 2.9199563960948855e-14 0.0 0.01 0.0 2.9199563960948855e-14 0.0 0.010005906128235256 0.009950802948692324 0.0 -1.0564580524127511e-10 0.0 0.01 0.0 -1.0564580524127511e-10 0.0 0.010006728935697935 0.009951164085703398 0.0 -8.6034963218411e-11 0.0 0.01 0.0 -8.60349632184077e-11 0.0 0.010006680538481142 0.009951463174356403 0.0 -6.455365335206017e-11 0.0 0.01 0.0 -6.455365335206348e-11 0.0 0.010006737753485935 0.009951710053676018 0.0 -3.636684635287029e-11 0.0 0.01 0.0 -3.636684635287029e-11 0.0 0.010006815060432175 0.009951915061245754 0.0 -1.569637620371813e-11 0.0 0.01 0.0 -1.569637620371813e-11 0.0 0.010006857647655288 0.0099520836106126 0.0 -5.147817887753294e-12 0.0 0.01 0.0 -5.147817887753501e-12 0.0 0.010006853739628629 0.00995221421761907 0.0 -1.174889238828581e-12 0.0 0.01 0.0 -1.174889238828555e-12 0.0 0.01000682678438995 0.009952309342184617 0.0 -1.3036732536167346e-13 0.0 0.01 0.0 -1.3036732536167346e-13 0.0 0.010006794017534404 0.009952366516811022 0.0 3.679088162412655e-15 0.0 0.01 0.0 3.679088162412655e-15 0.0 0.010006770068874168 0.009949136217312818 0.0 -1.5061830696497482e-10 0.0 0.01 0.0 -1.5061830696497482e-10 0.0 0.010007377806780557 0.009949538047541173 0.0 -1.2585615946555372e-10 0.0 0.01 0.0 -1.258561594655504e-10 0.0 0.010007397851140286 0.009949840929707035 0.0 -1.0252655473859822e-10 0.0 0.01 0.0 -1.0252655473860153e-10 0.0 0.010007554952980993 0.009950080792608465 0.0 -6.353325554287348e-11 0.0 0.01 0.0 -6.353325554287182e-11 0.0 0.010007736518806248 0.009950277818234632 0.0 -3.051789839193004e-11 0.0 0.01 0.0 -3.051789839193087e-11 0.0 0.010007855446520632 0.009950440373187548 0.0 -1.1568376900510831e-11 0.0 0.01 0.0 -1.1568376900511245e-11 0.0 0.010007897545842675 0.009950569437642007 0.0 -3.4005648515926755e-12 0.0 0.01 0.0 -3.4005648515926755e-12 0.0 0.010007889677238542 0.009950663529779729 0.0 -7.634526573842222e-13 0.0 0.01 0.0 -7.634526573842222e-13 0.0 0.010007864718349512 0.00995072264662423 0.0 -1.1624507675258248e-13 0.0 0.01 0.0 -1.1624507675258248e-13 0.0 0.01000783830623456 0.009949123414699017 0.0 -1.574726475249055e-10 0.0 0.01 0.0 -1.574726475249055e-10 0.0 0.010008333655909757 0.009949517856380239 0.0 -1.2620951810413435e-10 0.0 0.01 0.0 -1.2620951810413435e-10 0.0 0.010008393355448782 0.00994979808128189 0.0 -1.2076089023478854e-10 0.0 0.01 0.0 -1.2076089023478854e-10 0.0 0.01000862685055577 0.009950010851326067 0.0 -8.702694089455683e-11 0.0 0.01 0.0 -8.702694089456013e-11 0.0 0.010008895154505325 0.009950178811394513 0.0 -4.760935232818442e-11 0.0 0.01 0.0 -4.760935232818442e-11 0.0 0.010009087572603645 0.009950318209933619 0.0 -2.0372453716411607e-11 0.0 0.01 0.0 -2.0372453716411607e-11 0.0 0.010009175713625031 0.00995043199894988 0.0 -6.9881131257389845e-12 0.0 0.01 0.0 -6.9881131257389845e-12 0.0 0.010009188448640892 0.009950519683192579 0.0 -1.9515738229270177e-12 0.0 0.01 0.0 -1.9515738229270694e-12 0.0 0.010009165886638145 0.009950574363865726 0.0 -3.708000308369354e-13 0.0 0.01 0.0 -3.708000308369354e-13 0.0 0.01000913801024102 0.009951540537755281 0.0 -8.527001148003818e-11 0.0 0.01 0.0 -8.527001148003653e-11 0.0 0.010009767241237236 0.009951854444707595 0.0 -3.481774427767929e-11 0.0 0.01 0.0 -3.4817744277680117e-11 0.0 0.010009807860272403 0.00995205453277139 0.0 -7.475686462685288e-11 0.0 0.01 0.0 -7.475686462685123e-11 0.0 0.010010058104494807 0.009952194010161076 0.0 -7.959212892152513e-11 0.0 0.01 0.0 -7.959212892152513e-11 0.0 0.010010365694898049 0.009952300470348148 0.0 -5.4870797516492455e-11 0.0 0.01 0.0 -5.4870797516492455e-11 0.0 0.01001060329065496 0.009952389682672919 0.0 -2.743686286068517e-11 0.0 0.01 0.0 -2.7436862860686e-11 0.0 0.010010722772051455 0.009952471503820242 0.0 -1.0899079139528749e-11 0.0 0.01 0.0 -1.0899079139529162e-11 0.0 0.01001074970862475 0.009952535582031397 0.0 -3.6304541333825975e-12 0.0 0.01 0.0 -3.630454133382701e-12 0.0 0.010010730145728671 0.009952580930436414 0.0 -8.002003367811828e-13 0.0 0.01 0.0 -8.002003367811828e-13 0.0 0.010010704162367113 0.009957553296101608 0.0 1.1122836153821263e-10 0.0 0.01 0.0 1.1122836153821263e-10 0.0 0.010011813400540753 0.009957652029566473 0.0 1.9292912829650148e-10 0.0 0.01 0.0 1.929291282965081e-10 0.0 0.010011781036267967 0.009957686093293262 0.0 7.868869318616284e-11 0.0 0.01 0.0 7.868869318615953e-11 0.0 0.010011968251621836 0.009957683131216186 0.0 -7.395261006547877e-12 0.0 0.01 0.0 -7.395261006547877e-12 0.0 0.010012242645713052 0.009957675726035056 0.0 -3.3210135620498384e-11 0.0 0.01 0.0 -3.321013562049921e-11 0.0 0.010012470538422708 0.009957676219713286 0.0 -2.4637932200781137e-11 0.0 0.01 0.0 -2.4637932200781964e-11 0.0 0.010012597514685452 0.009957690042733476 0.0 -1.2355613826811552e-11 0.0 0.01 0.0 -1.2355613826811552e-11 0.0 0.010012633751485195 0.009957710777371702 0.0 -5.191527374998421e-12 0.0 0.01 0.0 -5.191527374998421e-12 0.0 0.010012617088531189 0.009957728550021845 0.0 -1.36211341046507e-12 0.0 0.01 0.0 -1.36211341046507e-12 0.0 0.010012592596147396 0.00996888036980551 0.0 4.15480982420154e-10 0.0 0.01 0.0 4.15480982420154e-10 0.0 0.01001449580846002 0.009968585156365646 0.0 5.674208953648285e-10 0.0 0.01 0.0 5.67420895364802e-10 0.0 0.010014375689757306 0.009968329094807868 0.0 3.647191765374985e-10 0.0 0.01 0.0 3.647191765374985e-10 0.0 0.010014451667347435 0.00996810128099644 0.0 1.623196922544555e-10 0.0 0.01 0.0 1.623196922544555e-10 0.0 0.01001462823529994 0.009967913098758689 0.0 4.5027649902544345e-11 0.0 0.01 0.0 4.5027649902544345e-11 0.0 0.010014795471238626 0.009967769988349485 0.0 4.106992687745589e-12 0.0 0.01 0.0 4.106992687745589e-12 0.0 0.0100148984786843 0.009967673924611974 0.0 -4.2492517497032305e-12 0.0 0.01 0.0 -4.2492517497032305e-12 0.0 0.010014931827460905 0.00996762044703373 0.0 -4.260906106745473e-12 0.0 0.01 0.0 -4.260906106745473e-12 0.0 0.010014921983510268 0.009967592718257949 0.0 -1.6216655281585578e-12 0.0 0.01 0.0 -1.6216655281586095e-12 0.0 0.010014905811368657 0.009987338089262098 0.0 5.792256422507054e-10 0.0 0.01 0.0 5.792256422507583e-10 0.0 0.010017681535188951 0.009986491919614772 0.0 9.432948330577424e-10 0.0 0.01 0.0 9.432948330576894e-10 0.0 0.01001754114606176 0.00998583415761798 0.0 7.17048427345785e-10 0.0 0.01 0.0 7.170484273458115e-10 0.0 0.010017515159892474 0.009985294501471967 0.0 4.199098942189166e-10 0.0 0.01 0.0 4.199098942189431e-10 0.0 0.010017580452411771 0.009984859454962415 0.0 1.969350475365751e-10 0.0 0.01 0.0 1.969350475365751e-10 0.0 0.010017663891977531 0.009984519023442748 0.0 7.764900769529404e-11 0.0 0.01 0.0 7.764900769529404e-11 0.0 0.010017722803577257 0.009984272182599285 0.0 2.4351116093626166e-11 0.0 0.01 0.0 2.4351116093624512e-11 0.0 0.0100177478362952 0.009984109456814336 0.0 3.552773307314162e-12 0.0 0.01 0.0 3.552773307314162e-12 0.0 0.010017752259766873 0.00998401590553084 0.0 -6.134959497348323e-13 0.0 0.01 0.0 -6.134959497348323e-13 0.0 0.010017751757099345 0.01001380684178305 0.0 1.1541826533093224e-10 0.0 0.01 0.0 1.1541826533093224e-10 0.0 0.010021069803913846 0.01001238918581492 0.0 9.44411690661474e-10 0.0 0.01 0.0 9.44411690661474e-10 0.0 0.010021059489003649 0.010011289087791727 0.0 8.963492661685155e-10 0.0 0.01 0.0 8.963492661685155e-10 0.0 0.010021038356116101 0.010010409280439708 0.0 6.409169735144731e-10 0.0 0.01 0.0 6.40916973514579e-10 0.0 0.010021044293437609 0.01000969277429038 0.0 3.76496027087057e-10 0.0 0.01 0.0 3.764960270869511e-10 0.0 0.010021066885545762 0.010009125776787763 0.0 1.8801960115062913e-10 0.0 0.01 0.0 1.880196011506556e-10 0.0 0.010021093905706536 0.01000869833600919 0.0 7.632838565745476e-11 0.0 0.01 0.0 7.632838565744152e-11 0.0 0.01002112631006096 0.010008402678898928 0.0 2.0917014923778208e-11 0.0 0.01 0.0 2.0917014923778208e-11 0.0 0.010021161733814269 0.010008231853366578 0.0 2.477855744960343e-12 0.0 0.01 0.0 2.477855744960343e-12 0.0 0.010021192679588013 0.010047021485864038 0.0 -1.1787425575390598e-09 0.0 0.01 0.0 -1.1787425575390598e-09 0.0 0.010024261357271127 0.010045228350573485 0.0 2.6264027460879436e-10 0.0 0.01 0.0 2.6264027460879436e-10 0.0 0.010024582045366088 0.010043801716964682 0.0 6.273025157529418e-10 0.0 0.01 0.0 6.273025157529418e-10 0.0 0.010024741418700816 0.010042642312458569 0.0 6.212963711827592e-10 0.0 0.01 0.0 6.212963711827592e-10 0.0 0.010024810277989309 0.01004169042197229 0.0 4.5977328225992825e-10 0.0 0.01 0.0 4.5977328225992825e-10 0.0 0.010024847201659642 0.010040921218404015 0.0 2.74244927058666e-10 0.0 0.01 0.0 2.74244927058666e-10 0.0 0.01002488850829551 0.010040327086002169 0.0 1.2777481513519555e-10 0.0 0.01 0.0 1.2777481513519555e-10 0.0 0.010024959839005506 0.010039906565352717 0.0 4.089555760633515e-11 0.0 0.01 0.0 4.089555760633515e-11 0.0 0.010025052329396577 0.010039659995809743 0.0 6.575137249707237e-12 0.0 0.01 0.0 6.575137249707237e-12 0.0 0.010025133487289539 0.010082838889536299 0.0 -2.5453174937679957e-09 0.0 0.01 0.0 -2.5453174937680486e-09 0.0 0.01002687948892822 0.010081062011103247 0.0 -7.616070031200931e-10 0.0 0.01 0.0 -7.616070031200931e-10 0.0 0.010027698154638501 0.01007958057983821 0.0 -4.033204567836122e-12 0.0 0.01 0.0 -4.033204567836329e-12 0.0 0.01002821809130211 0.01007832874041747 0.0 3.076685605491249e-10 0.0 0.01 0.0 3.0766856054909844e-10 0.0 0.010028498816096524 0.010077270265245639 0.0 3.505088612292224e-10 0.0 0.01 0.0 3.505088612292224e-10 0.0 0.010028651971571928 0.010076390904208294 0.0 2.570205134345201e-10 0.0 0.01 0.0 2.5702051343451347e-10 0.0 0.010028779514034702 0.010075697114342936 0.0 1.3387157177330384e-10 0.0 0.01 0.0 1.3387157177330053e-10 0.0 0.010028936616322719 0.010075195684136415 0.0 4.603049192394684e-11 0.0 0.01 0.0 4.603049192394353e-11 0.0 0.01002911642302566 0.01007488959536713 0.0 7.974914615395343e-12 0.0 0.01 0.0 7.97491461539493e-12 0.0 0.010029269606799555 0.010114688369067822 0.0 -2.7541125655652575e-09 0.0 0.01 0.0 -2.7541125655652575e-09 0.0 0.010028739117497926 0.010113401216862949 0.0 -1.2579827685089809e-09 0.0 0.01 0.0 -1.2579827685089544e-09 0.0 0.010030067214002078 0.010112203327099773 0.0 -4.859545328040266e-10 0.0 0.01 0.0 -4.859545328040266e-10 0.0 0.010031046839727905 0.010111111919388434 0.0 -6.689910043301496e-11 0.0 0.01 0.0 -6.68991004330133e-11 0.0 0.01003164321275148 0.010110137947924454 0.0 1.0779548012035944e-10 0.0 0.01 0.0 1.0779548012036275e-10 0.0 0.010032000098188021 0.010109289834492398 0.0 1.2246165702733452e-10 0.0 0.01 0.0 1.2246165702733783e-10 0.0 0.010032278162066 0.010108598265482945 0.0 7.024262684440759e-11 0.0 0.01 0.0 7.024262684440759e-11 0.0 0.010032567609321873 0.01010808534921768 0.0 2.238771717471844e-11 0.0 0.01 0.0 2.238771717471844e-11 0.0 0.01003286738252149 0.01010776969560986 0.0 2.831253111964994e-12 0.0 0.01 0.0 2.831253111964994e-12 0.0 0.010033108503085657 0.010135849300613493 0.0 -1.7055772361598826e-09 0.0 0.01 0.0 -1.7055772361598826e-09 0.0 0.01002980063433044 0.010135364813368452 0.0 -9.212549140153932e-10 0.0 0.01 0.0 -9.212549140153932e-10 0.0 0.010031582591442906 0.010134697390576573 0.0 -5.018951729780871e-10 0.0 0.01 0.0 -5.018951729780871e-10 0.0 0.010032949740281884 0.010133958392679861 0.0 -2.424902769825734e-10 0.0 0.01 0.0 -2.424902769825734e-10 0.0 0.01003385176876351 0.010133222157670112 0.0 -9.555294225101364e-11 0.0 0.01 0.0 -9.555294225101364e-11 0.0 0.01003444621735109 0.010132541426169026 0.0 -3.55818801599272e-11 0.0 0.01 0.0 -3.55818801599272e-11 0.0 0.010034911979599648 0.010131955272621052 0.0 -2.1616962172160445e-11 0.0 0.01 0.0 -2.1616962172160445e-11 0.0 0.010035361484738402 0.010131509406363098 0.0 -1.6105056599710286e-11 0.0 0.01 0.0 -1.6105056599710493e-11 0.0 0.010035797758533428 0.01013122711723597 0.0 -5.955441329147725e-12 0.0 0.01 0.0 -5.955441329147622e-12 0.0 0.01003613734657685 0.010143865440063064 0.0 -5.250712900925312e-10 0.0 0.01 0.0 -5.250712900925246e-10 0.0 0.010030377106792809 0.010144180938352761 0.0 -3.362577997685449e-10 0.0 0.01 0.0 -3.362577997685449e-10 0.0 0.01003236494817393 0.010144072846210876 0.0 -2.5749556875810567e-10 0.0 0.01 0.0 -2.57495568758109e-10 0.0 0.010033944505486357 0.010143733925896197 0.0 -1.9621911816418076e-10 0.0 0.01 0.0 -1.9621911816417745e-10 0.0 0.010035060477369979 0.01014330434859583 0.0 -1.4148012711871959e-10 0.0 0.01 0.0 -1.4148012711872124e-10 0.0 0.010035843142765307 0.010142863556326343 0.0 -9.812874604389536e-11 0.0 0.01 0.0 -9.812874604389371e-11 0.0 0.010036477424037625 0.010142465702992277 0.0 -6.388008603798993e-11 0.0 0.01 0.0 -6.388008603799075e-11 0.0 0.010037079720938313 0.01014214833036417 0.0 -3.394308295193056e-11 0.0 0.01 0.0 -3.394308295193015e-11 0.0 0.010037644099842941 0.010141943545893668 0.0 -9.82545889675592e-12 0.0 0.01 0.0 -9.825458896755713e-12 0.0 0.010038068331535544 0.0101422721146647 0.0 2.8585014646035793e-11 0.0 0.01 0.0 2.8585014646035793e-11 0.0 0.010030717608250974 0.010143102050785141 0.0 -1.024548019278847e-11 0.0 0.01 0.0 -1.024548019278847e-11 0.0 0.01003268394055136 0.010143364461085286 0.0 -5.559769656713985e-11 0.0 0.01 0.0 -5.559769656713985e-11 0.0 0.010034293756067954 0.010143317602473013 0.0 -7.878416703866505e-11 0.0 0.01 0.0 -7.878416703866505e-11 0.0 0.010035483876208322 0.010143138209912946 0.0 -7.994629369574634e-11 0.0 0.01 0.0 -7.994629369574634e-11 0.0 0.010036364903500409 0.010142922669661231 0.0 -6.650639353919798e-11 0.0 0.01 0.0 -6.650639353919798e-11 0.0 0.010037105910219868 0.010142717890454506 0.0 -4.579631986837006e-11 0.0 0.01 0.0 -4.579631986837006e-11 0.0 0.010037811024979847 0.010142550737208638 0.0 -2.3947740696519544e-11 0.0 0.01 0.0 -2.394774069652037e-11 0.0 0.010038463938503371 0.010142438680296505 0.0 -6.718778724304686e-12 0.0 0.01 0.0 -6.718778724304686e-12 0.0 0.010038950039740152 0.010136358331747974 0.0 7.50121876059422e-11 0.0 0.01 0.0 7.501218760594303e-11 0.0 0.010030956656147108 0.010137263123920574 0.0 4.9398593427916675e-11 0.0 0.01 0.0 4.939859342791502e-11 0.0 0.01003276826302598 0.010137567327666496 0.0 1.7994411954112306e-11 0.0 0.01 0.0 1.7994411954112306e-11 0.0 0.010034280470340986 0.01013757800654895 0.0 -5.325691765767102e-12 0.0 0.01 0.0 -5.325691765767102e-12 0.0 0.010035435010043127 0.010137484398176733 0.0 -1.6444032583606784e-11 0.0 0.01 0.0 -1.644403258360637e-11 0.0 0.010036315518996912 0.010137381624692148 0.0 -1.746834803919755e-11 0.0 0.01 0.0 -1.7468348039197758e-11 0.0 0.0100370757773963 0.010137298699759649 0.0 -1.2842987830231232e-11 0.0 0.01 0.0 -1.2842987830231025e-11 0.0 0.010037814008570619 0.010137236142787257 0.0 -6.727338192314827e-12 0.0 0.01 0.0 -6.727338192314827e-12 0.0 0.010038500507451158 0.010137196504872088 0.0 -1.8618120151058363e-12 0.0 0.01 0.0 -1.8618120151058363e-12 0.0 0.010039009782964452 0.010129764053224381 0.0 -1.4312837295787512e-11 0.0 0.01 0.0 -1.4312837295787512e-11 0.0 0.010031090695968789 0.010130324407996131 0.0 2.721085984000513e-11 0.0 0.01 0.0 2.721085984000513e-11 0.0 0.010032729787477417 0.010130340677917262 0.0 2.927135879973126e-11 0.0 0.01 0.0 2.9271358799730845e-11 0.0 0.010034105336051964 0.010130141701645124 0.0 1.8390306455104572e-11 0.0 0.01 0.0 1.8390306455104572e-11 0.0 0.010035157694179767 0.010129925949350067 0.0 9.397759868435205e-12 0.0 0.01 0.0 9.397759868435205e-12 0.0 0.010035961609630325 0.010129770653653003 0.0 5.007129580528234e-12 0.0 0.01 0.0 5.007129580528234e-12 0.0 0.010036668960286472 0.010129683341939954 0.0 3.0653807806197702e-12 0.0 0.01 0.0 3.0653807806197185e-12 0.0 0.010037370544693391 0.01012963766010403 0.0 1.6705087097383767e-12 0.0 0.01 0.0 1.6705087097383767e-12 0.0 0.01003803475109824 0.010129619418724468 0.0 4.910734714295167e-13 0.0 0.01 0.0 4.910734714295167e-13 0.0 0.01003853161413209 0.010123232787076804 0.0 -7.923384532640424e-11 0.0 0.01 0.0 -7.923384532640424e-11 0.0 0.010031043357496338 0.010123165925549913 0.0 8.447716721858917e-12 0.0 0.01 0.0 8.44771672185871e-12 0.0 0.010032566094619015 0.010122658412469582 0.0 3.006448056170392e-11 0.0 0.01 0.0 3.006448056170475e-11 0.0 0.0100338251503643 0.010122047164125774 0.0 2.5611135747172465e-11 0.0 0.01 0.0 2.5611135747172878e-11 0.0 0.010034758991853736 0.0101215271171962 0.0 1.5701986085633308e-11 0.0 0.01 0.0 1.5701986085633515e-11 0.0 0.01003545325265418 0.010121159606946843 0.0 8.256685346576216e-12 0.0 0.01 0.0 8.256685346576216e-12 0.0 0.010036058852632463 0.010120932816746307 0.0 4.058485317541668e-12 0.0 0.01 0.0 4.058485317541668e-12 0.0 0.010036680334517913 0.010120807738754027 0.0 1.7356715256092768e-12 0.0 0.01 0.0 1.7356715256093285e-12 0.0 0.010037279684834984 0.010120748026403887 0.0 4.382748469768664e-13 0.0 0.01 0.0 4.382748469768664e-13 0.0 0.010037737447439028 0.010115257351555154 0.0 -1.1835393311863432e-10 0.0 0.01 0.0 -1.1835393311863432e-10 0.0 0.010030734866361394 0.010114441318992246 0.0 -4.056874932702675e-12 0.0 0.01 0.0 -4.056874932702675e-12 0.0 0.010032208643928836 0.01011331179351014 0.0 2.7116690294063685e-11 0.0 0.01 0.0 2.711669029406327e-11 0.0 0.01003339307296397 0.0101121962956344 0.0 2.976313130780749e-11 0.0 0.01 0.0 2.976313130780666e-11 0.0 0.010034231116600666 0.010111271423894065 0.0 2.0341890959113746e-11 0.0 0.01 0.0 2.0341890959114573e-11 0.0 0.010034809818578353 0.010110585029287095 0.0 9.433646330897046e-12 0.0 0.01 0.0 9.433646330896839e-12 0.0 0.010035302766720999 0.010110122808551303 0.0 2.6862368634925403e-12 0.0 0.01 0.0 2.6862368634925403e-12 0.0 0.010035820450572401 0.010109833158421762 0.0 1.7354704470177097e-13 0.0 0.01 0.0 1.7354704470177097e-13 0.0 0.01003634069135489 0.010109678784969753 0.0 -1.2844579807326201e-13 0.0 0.01 0.0 -1.2844579807326201e-13 0.0 0.010036749440124093 0.010103765378986445 0.0 -1.3361256176200983e-10 0.0 0.01 0.0 -1.3361256176201314e-10 0.0 0.010030124326567542 0.010102205975716845 0.0 -5.37660906042005e-12 0.0 0.01 0.0 -5.3766090604199464e-12 0.0 0.010031593443636262 0.010100478245119835 0.0 1.9403086178191134e-11 0.0 0.01 0.0 1.9403086178191548e-11 0.0 0.010032737714818019 0.010098874066255998 0.0 2.7682069709233162e-11 0.0 0.01 0.0 2.7682069709233162e-11 0.0 0.010033498625002128 0.010097542647383913 0.0 2.39298401241367e-11 0.0 0.01 0.0 2.3929840124135873e-11 0.0 0.01003398051995043 0.010096514748047737 0.0 1.3502004137903415e-11 0.0 0.01 0.0 1.3502004137903828e-11 0.0 0.01003436725790647 0.010095779079980768 0.0 4.852499272189225e-12 0.0 0.01 0.0 4.852499272189225e-12 0.0 0.010034787133394106 0.010095287249233547 0.0 8.455472056105502e-13 0.0 0.01 0.0 8.455472056105502e-13 0.0 0.010035234196296195 0.010095008902827066 0.0 -3.816957020971446e-14 0.0 0.01 0.0 -3.816957020971446e-14 0.0 0.010035594901576182 0.010087824213113876 0.0 -1.0058607806490802e-10 0.0 0.01 0.0 -1.0058607806490802e-10 0.0 0.010029238081741691 0.010085598350783431 0.0 5.507047818407093e-12 0.0 0.01 0.0 5.5070478184072994e-12 0.0 0.010030704790881589 0.010083392005145391 0.0 1.1615216474091575e-12 0.0 0.01 0.0 1.1615216474092092e-12 0.0 0.010031815239901423 0.010081418203060537 0.0 1.1009228078275833e-11 0.0 0.01 0.0 1.1009228078275833e-11 0.0 0.010032515301980268 0.010079771112472335 0.0 1.9013957355564152e-11 0.0 0.01 0.0 1.9013957355563325e-11 0.0 0.010032912272551424 0.010078468220144066 0.0 1.603182937227381e-11 0.0 0.01 0.0 1.603182937227381e-11 0.0 0.010033216015638296 0.010077493621135627 0.0 8.851359156230988e-12 0.0 0.01 0.0 8.851359156231402e-12 0.0 0.010033556806305683 0.010076819044669458 0.0 3.343187475922627e-12 0.0 0.01 0.0 3.34318747592242e-12 0.0 0.010033943040670627 0.010076422876009957 0.0 6.744104424318281e-13 0.0 0.01 0.0 6.744104424318281e-13 0.0 0.010034263699080396 0.010068499707788057 0.0 -2.470274296334387e-11 0.0 0.01 0.0 -2.4702742963344696e-11 0.0 0.010028131463190513 0.010065769194647665 0.0 -4.776305012565534e-12 0.0 0.01 0.0 -4.776305012565741e-12 0.0 0.010029577508754906 0.010063278701283231 0.0 -4.965945854060864e-11 0.0 0.01 0.0 -4.965945854060864e-11 0.0 0.010030645195805475 0.010061128724375331 0.0 -3.400534556955254e-11 0.0 0.01 0.0 -3.400534556955254e-11 0.0 0.010031282882919523 0.010059339477931526 0.0 -5.763062294541708e-12 0.0 0.01 0.0 -5.763062294541708e-12 0.0 0.010031617066207112 0.010057904331693245 0.0 7.217751910449734e-12 0.0 0.01 0.0 7.217751910449734e-12 0.0 0.010031852241028797 0.010056802132770838 0.0 7.73864537573881e-12 0.0 0.01 0.0 7.738645375739223e-12 0.0 0.0100321322614691 0.010056018468988171 0.0 4.1618835589357075e-12 0.0 0.01 0.0 4.161883558935501e-12 0.0 0.010032473396109623 0.01005555179528577 0.0 1.0830262514747321e-12 0.0 0.01 0.0 1.0830262514747321e-12 0.0 0.010032765788863215 0.010048437063234278 0.0 1.912699015625705e-11 0.0 0.01 0.0 1.9126990156255397e-11 0.0 0.010026866686265403 0.010045410504832831 0.0 -7.923278395844503e-11 0.0 0.01 0.0 -7.923278395844503e-11 0.0 0.010028270785285329 0.010042856435230332 0.0 -1.4360744138805648e-10 0.0 0.01 0.0 -1.4360744138804325e-10 0.0 0.01002928584862541 0.010040737334315783 0.0 -1.0658391688642925e-10 0.0 0.01 0.0 -1.0658391688644249e-10 0.0 0.010029865662876501 0.010039000424302554 0.0 -5.0728695143234975e-11 0.0 0.01 0.0 -5.072869514322836e-11 0.0 0.010030140118465033 0.010037593735699377 0.0 -1.6111007724170133e-11 0.0 0.01 0.0 -1.6111007724163516e-11 0.0 0.010030322916368652 0.01003649814925729 0.0 -2.0642749761916834e-12 0.0 0.01 0.0 -2.0642749761916834e-12 0.0 0.01003055699098699 0.010035706436004111 0.0 1.078702263512496e-12 0.0 0.01 0.0 1.078702263512496e-12 0.0 0.010030857088628291 0.010035227778944429 0.0 5.258796064527422e-13 0.0 0.01 0.0 5.258796064523286e-13 0.0 0.010031125670345335 0.010030380588330492 0.0 -2.4919056588020494e-11 0.0 0.01 0.0 -2.4919056588013876e-11 0.0 0.01002548771343385 0.010027260012475234 0.0 -1.974486836695894e-10 0.0 0.01 0.0 -1.974486836695894e-10 0.0 0.010026840577051884 0.010024810781720078 0.0 -2.3870355634808874e-10 0.0 0.01 0.0 -2.3870355634808874e-10 0.0 0.010027803022861704 0.01002288149551093 0.0 -1.7005218258537414e-10 0.0 0.01 0.0 -1.7005218258542708e-10 0.0 0.010028330388476113 0.010021332719088021 0.0 -9.077286134011863e-11 0.0 0.01 0.0 -9.077286134011863e-11 0.0 0.010028564777489077 0.01002008228313712 0.0 -3.884826314482305e-11 0.0 0.01 0.0 -3.884826314482305e-11 0.0 0.010028704672395024 0.010019098524049872 0.0 -1.2559661666639006e-11 0.0 0.01 0.0 -1.2559661666637352e-11 0.0 0.010028898739622151 0.010018382111360481 0.0 -2.3242993965181562e-12 0.0 0.01 0.0 -2.3242993965177426e-12 0.0 0.010029159295616916 0.010017946144276741 0.0 -6.361103644850659e-14 0.0 0.01 0.0 -6.361103644850659e-14 0.0 0.010029398686096988 0.010016067441608 0.0 -9.439294447280503e-11 0.0 0.01 0.0 -9.43929444728315e-11 0.0 0.010023994786996919 0.010012995990537366 0.0 -2.6121005204482665e-10 0.0 0.01 0.0 -2.612100520448002e-10 0.0 0.010025305179755896 0.010010741883452566 0.0 -2.5852874050260374e-10 0.0 0.01 0.0 -2.5852874050260374e-10 0.0 0.010026233721315267 0.010009054282175238 0.0 -1.7585615949681498e-10 0.0 0.01 0.0 -1.7585615949681498e-10 0.0 0.010026737704703264 0.0100077423823995 0.0 -9.615722400280953e-11 0.0 0.01 0.0 -9.615722400280953e-11 0.0 0.010026950862145648 0.0100066937148795 0.0 -4.250577798071389e-11 0.0 0.01 0.0 -4.2505777980710584e-11 0.0 0.01002706357041625 0.010005868912580203 0.0 -1.2586908279431593e-11 0.0 0.01 0.0 -1.2586908279431593e-11 0.0 0.010027219634296418 0.01000526735883943 0.0 -8.13353598173164e-13 0.0 0.01 0.0 -8.13353598173164e-13 0.0 0.01002743917447325 0.010004898146426888 0.0 6.712769626329848e-13 0.0 0.01 0.0 6.712769626329848e-13 0.0 0.010027643503464597 0.010005921255040138 0.0 2.811584329911907e-10 0.0 0.01 0.0 2.811584329911907e-10 0.0 0.01002238992243538 0.010002985236213425 0.0 -1.7977757828988468e-10 0.0 0.01 0.0 -1.7977757828987144e-10 0.0 0.010023667760056145 0.010000922977767474 0.0 -1.6096731893430493e-10 0.0 0.01 0.0 -1.6096731893430493e-10 0.0 0.0100245909104341 0.009999444546282758 0.0 -1.1156319617532298e-10 0.0 0.01 0.0 -1.1156319617530975e-10 0.0 0.010025106434439553 0.009998326420224161 0.0 -6.598656216316506e-11 0.0 0.01 0.0 -6.598656216316506e-11 0.0 0.010025328808312226 0.009997450974960648 0.0 -2.8160391372911692e-11 0.0 0.01 0.0 -2.8160391372911692e-11 0.0 0.010025437532052818 0.00999677206360895 0.0 -2.9296372897745262e-12 0.0 0.01 0.0 -2.9296372897745262e-12 0.0 0.010025567924595679 0.009996277080052424 0.0 5.307711130924838e-12 0.0 0.01 0.0 5.307711130924838e-12 0.0 0.010025745081194224 0.009995974931481362 0.0 2.652253350755612e-12 0.0 0.01 0.0 2.652253350755819e-12 0.0 0.010025909448188942 0.009999396554629076 0.0 4.273986032703073e-09 0.0 0.01 0.0 4.273986032703073e-09 0.0 0.010020700348722388 0.009996638695515049 0.0 1.83115993130172e-10 0.0 0.01 0.0 1.8311599313015877e-10 0.0 0.010021927361093589 0.009994711697880722 0.0 2.7954792672123556e-11 0.0 0.01 0.0 2.7954792672123556e-11 0.0 0.010022866291654992 0.009993346146960768 0.0 -9.018682511387702e-12 0.0 0.01 0.0 -9.018682511387289e-12 0.0 0.010023425808922378 0.009992326840650346 0.0 -2.666965852190973e-11 0.0 0.01 0.0 -2.6669658521911384e-11 0.0 0.010023694801260937 0.009991546232024901 0.0 -1.4986299320918038e-11 0.0 0.01 0.0 -1.4986299320916384e-11 0.0 0.01002383101773397 0.009990954787198787 0.0 3.753408826041704e-12 0.0 0.01 0.0 3.753408826041497e-12 0.0 0.01002395590869622 0.009990537447949283 0.0 9.693690495918654e-12 0.0 0.01 0.0 9.693690495918654e-12 0.0 0.010024098531826887 0.00999028617212173 0.0 4.1635367781143144e-12 0.0 0.01 0.0 4.163536778114108e-12 0.0 0.010024226907922568 0.009995513521142944 0.0 2.0332035004894892e-08 0.0 0.01 0.0 2.0332035004893198e-08 0.0 0.010018989503620469 0.009992988880269608 0.0 2.364973983539152e-09 0.0 0.01 0.0 2.364973983539152e-09 0.0 0.01002011030138013 0.009991113858575646 0.0 2.5053731437021154e-10 0.0 0.01 0.0 2.505373143702248e-10 0.0 0.010021052645958645 0.00998974728929409 0.0 9.819339832262733e-11 0.0 0.01 0.0 9.819339832262733e-11 0.0 0.010021676728927615 0.00998871712426026 0.0 3.1823308242997717e-12 0.0 0.01 0.0 3.1823308242997717e-12 0.0 0.01002202812253674 0.009987943339563897 0.0 -1.6716946983896186e-11 0.0 0.01 0.0 -1.671694698389536e-11 0.0 0.010022226735159434 0.009987373952879663 0.0 -3.410410418032533e-12 0.0 0.01 0.0 -3.410410418032533e-12 0.0 0.010022372203998675 0.009986984952882326 0.0 5.927419516321113e-12 0.0 0.01 0.0 5.9274195163213195e-12 0.0 0.010022499557352049 0.009986753865572039 0.0 3.3456871779879598e-12 0.0 0.01 0.0 3.3456871779879598e-12 0.0 0.010022600789113097 0.009993330678500896 0.0 6.249582259105718e-08 0.0 0.01 0.0 6.249582259105718e-08 0.0 0.01001735316615424 0.00999111884528055 0.0 1.1136601343863068e-08 0.0 0.01 0.0 1.113660134386222e-08 0.0 0.010018276030200083 0.009989265808200825 0.0 6.538602272388182e-10 0.0 0.01 0.0 6.538602272388447e-10 0.0 0.010019171189592078 0.009987794382985724 0.0 2.176458346349707e-10 0.0 0.01 0.0 2.1764583463494423e-10 0.0 0.010019853417608351 0.009986662231942488 0.0 4.206985635424719e-11 0.0 0.01 0.0 4.206985635424719e-11 0.0 0.010020302863987305 0.009985810259553345 0.0 -2.1905191063142006e-11 0.0 0.01 0.0 -2.1905191063140352e-11 0.0 0.010020592734906698 0.009985196436825355 0.0 -2.090999889862647e-11 0.0 0.01 0.0 -2.090999889862647e-11 0.0 0.010020792218140045 0.009984787782275004 0.0 -6.180956675574776e-12 0.0 0.01 0.0 -6.180956675574776e-12 0.0 0.0100209352094171 0.009984556847447618 0.0 -2.447413014748089e-13 0.0 0.01 0.0 -2.447413014748089e-13 0.0 0.010021027588458036 0.009992164721825503 0.0 1.5183641783693403e-07 0.0 0.01 0.0 1.5183641783692047e-07 0.0 0.010015887887139814 0.009990391366871725 0.0 3.94307398981605e-08 0.0 0.01 0.0 3.943073989815881e-08 0.0 0.010016536528494751 0.009988606501396277 0.0 3.92314315207933e-09 0.0 0.01 0.0 3.923143152079118e-09 0.0 0.010017293305553805 0.009986988439236151 0.0 3.8464565364086873e-10 0.0 0.01 0.0 3.8464565364086873e-10 0.0 0.010017986913232505 0.009985681312540576 0.0 1.370565044499832e-10 0.0 0.01 0.0 1.370565044499898e-10 0.0 0.010018521530281007 0.009984687244022903 0.0 7.75445938180586e-12 0.0 0.01 0.0 7.75445938180586e-12 0.0 0.01001891090842834 0.009983979082874557 0.0 -2.61393819318644e-11 0.0 0.01 0.0 -2.6139381931866055e-11 0.0 0.01001918542116015 0.009983511868605433 0.0 -1.7372190623862873e-11 0.0 0.01 0.0 -1.7372190623862873e-11 0.0 0.010019369129495987 0.00998324968017317 0.0 -4.496875722689474e-12 0.0 0.01 0.0 -4.496875722689474e-12 0.0 0.010019478162380649 0.009991597117946116 0.0 3.141026085926675e-07 0.0 0.01 0.0 3.141026085926675e-07 0.0 0.010014667471973845 0.009990390371349384 0.0 1.1059140114356265e-07 0.0 0.01 0.0 1.1059140114356265e-07 0.0 0.010015005408726725 0.009988824262592108 0.0 2.1703687172751175e-08 0.0 0.01 0.0 2.1703687172751175e-08 0.0 0.010015542510569336 0.009987132877103191 0.0 1.7485063218197981e-09 0.0 0.01 0.0 1.7485063218197981e-09 0.0 0.010016157224195788 0.009985625553217302 0.0 3.155006000430107e-10 0.0 0.01 0.0 3.155006000429842e-10 0.0 0.01001672692509828 0.009984441883712506 0.0 1.135166794325379e-10 0.0 0.01 0.0 1.135166794325379e-10 0.0 0.0100171882641205 0.009983583513819904 0.0 1.546681291795675e-11 0.0 0.01 0.0 1.546681291795758e-11 0.0 0.010017539688418151 0.009983022831709213 0.0 -9.202681652840738e-12 0.0 0.01 0.0 -9.202681652841152e-12 0.0 0.010017778247781309 0.009982705468801686 0.0 -4.5612741248127466e-12 0.0 0.01 0.0 -4.56127412481316e-12 0.0 0.010017916686376803 0.009991342306992444 0.0 5.809636598189593e-07 0.0 0.01 0.0 5.809636598189593e-07 0.0 0.01001371180105285 0.009990781273889731 0.0 2.640632651041433e-07 0.0 0.01 0.0 2.640632651041433e-07 0.0 0.010013779891001296 0.00998963713169132 0.0 8.360256807907765e-08 0.0 0.01 0.0 8.360256807908443e-08 0.0 0.010014054474859731 0.009988080345682394 0.0 1.58122297249824e-08 0.0 0.01 0.0 1.5812229724984095e-08 0.0 0.010014488928672571 0.009986464033046488 0.0 1.575247979389477e-09 0.0 0.01 0.0 1.575247979389477e-09 0.0 0.01001499706948011 0.009985080455465142 0.0 2.9160810068118923e-10 0.0 0.01 0.0 2.91608100681176e-10 0.0 0.010015473339685358 0.009984041781154675 0.0 1.2080414816334917e-10 0.0 0.01 0.0 1.2080414816334917e-10 0.0 0.01001586577872268 0.009983344204930715 0.0 3.430628621469483e-11 0.0 0.01 0.0 3.430628621469483e-11 0.0 0.010016148883909224 0.009982949706224072 0.0 5.139223335182598e-12 0.0 0.01 0.0 5.1392233351828045e-12 0.0 0.010016318658054331 0.009991188802082523 0.0 9.754163835092792e-07 0.0 0.01 0.0 9.754163835092792e-07 0.0 0.01001296576552876 0.009991231092485573 0.0 5.470914826694148e-07 0.0 0.01 0.0 5.47091482669469e-07 0.0 0.010012867588477496 0.0099906775611514 0.0 2.414126392597703e-07 0.0 0.01 0.0 2.414126392597432e-07 0.0 0.010012913178252623 0.009989522989148578 0.0 7.971611413378214e-08 0.0 0.01 0.0 7.971611413378892e-08 0.0 0.010013117566464664 0.009988051947609633 0.0 1.8626062364552827e-08 0.0 0.01 0.0 1.8626062364552827e-08 0.0 0.010013453852350572 0.009986601974246835 0.0 2.8541699782932867e-09 0.0 0.01 0.0 2.8541699782932867e-09 0.0 0.010013849016257218 0.009985407005589642 0.0 3.6598089340339373e-10 0.0 0.01 0.0 3.6598089340339373e-10 0.0 0.010014219722674298 0.009984559833571573 0.0 1.0394316999526792e-10 0.0 0.01 0.0 1.0394316999528115e-10 0.0 0.01001451002011419 0.009984071637893705 0.0 2.3696692948275366e-11 0.0 0.01 0.0 2.369669294827702e-11 0.0 0.010014691512777937 0.009991098230021036 0.0 1.4819603101812098e-06 0.0 0.01 0.0 1.4819603101813182e-06 0.0 0.01001235523886458 0.009991460098492177 0.0 9.88059406490955e-07 0.0 0.01 0.0 9.88059406490955e-07 0.0 0.010012198229404579 0.00999152932066097 0.0 5.513705932658208e-07 0.0 0.01 0.0 5.51370593265875e-07 0.0 0.01001210007188864 0.0099909981792575 0.0 2.546635162484971e-07 0.0 0.01 0.0 2.5466351624851065e-07 0.0 0.010012095168337573 0.0099899736008827 0.0 9.644486285202784e-08 0.0 0.01 0.0 9.644486285203461e-08 0.0 0.01001221474499865 0.009988741043330671 0.0 2.9421784441407842e-08 0.0 0.01 0.0 2.9421784441406148e-08 0.0 0.010012434755205829 0.009987581670603901 0.0 6.716186096413027e-09 0.0 0.01 0.0 6.716186096413027e-09 0.0 0.010012692072486139 0.009986674184012164 0.0 1.074896600872859e-09 0.0 0.01 0.0 1.074896600872859e-09 0.0 0.010012923961212358 0.009986113478969346 0.0 7.816827700566092e-11 0.0 0.01 0.0 7.816827700566092e-11 0.0 0.010013083732888561 0.009991586736003834 0.0 2.0103595934035457e-06 0.0 0.01 0.0 2.0103595934035457e-06 0.0 0.01001192916683862 0.009991487743348355 0.0 1.5534151258618034e-06 0.0 0.01 0.0 1.5534151258618034e-06 0.0 0.010011703976690078 0.009991883552794461 0.0 1.034347490142906e-06 0.0 0.01 0.0 1.0343474901430144e-06 0.0 0.010011511707608136 0.009992034081828357 0.0 5.960884405570212e-07 0.0 0.01 0.0 5.960884405570212e-07 0.0 0.01001137046696184 0.009991693374646483 0.0 2.961794987381373e-07 0.0 0.01 0.0 2.961794987381102e-07 0.0 0.01001129597420186 0.00999098121780799 0.0 1.2524659846280348e-07 0.0 0.01 0.0 1.2524659846281704e-07 0.0 0.010011307703094966 0.009990133621324941 0.0 4.303107973064303e-08 0.0 0.01 0.0 4.303107973064303e-08 0.0 0.010011387120766584 0.009989373960952095 0.0 1.0949787973205755e-08 0.0 0.01 0.0 1.0949787973205755e-08 0.0 0.010011495391283718 0.00998885765049868 0.0 1.5086074237013329e-09 0.0 0.01 0.0 1.508607423701227e-09 0.0 0.010011582592434811 0.009993694262873698 0.0 2.2998713200856214e-06 0.0 0.01 0.0 2.2998713200854046e-06 0.0 0.01001172011361149 0.009992233234712952 0.0 2.1237905668694892e-06 0.0 0.01 0.0 2.1237905668692724e-06 0.0 0.010011513679439329 0.009991934164305266 0.0 1.6225064519756862e-06 0.0 0.01 0.0 1.6225064519756862e-06 0.0 0.010011118509872399 0.009992359442945672 0.0 1.0868726370554666e-06 0.0 0.01 0.0 1.0868726370554666e-06 0.0 0.010010823874976612 0.009992738478547305 0.0 6.397720219676541e-07 0.0 0.01 0.0 6.397720219675999e-07 0.0 0.010010617998656272 0.009992751404708554 0.0 3.2409824599961183e-07 0.0 0.01 0.0 3.2409824599958473e-07 0.0 0.01001046170996336 0.009992469018679536 0.0 1.3602205884747872e-07 0.0 0.01 0.0 1.3602205884749227e-07 0.0 0.01001036424316366 0.009992068945516248 0.0 4.357580874060602e-08 0.0 0.01 0.0 4.357580874060602e-08 0.0 0.010010317696574655 0.009991740244825152 0.0 8.1523262567639e-09 0.0 0.01 0.0 8.1523262567639e-09 0.0 0.010010304004032928 0.009997670299680118 0.0 1.7995565154461674e-06 0.0 0.01 0.0 1.7995565154461674e-06 0.0 0.010011757989475607 0.009994940147762447 0.0 2.316605876964738e-06 0.0 0.01 0.0 2.316605876964521e-06 0.0 0.010011484406569982 0.009993248023210473 0.0 2.126738141358447e-06 0.0 0.01 0.0 2.126738141358447e-06 0.0 0.01001110755635724 0.009992646505134465 0.0 1.6039053489854283e-06 0.0 0.01 0.0 1.6039053489854283e-06 0.0 0.010010550257906746 0.009993025968759504 0.0 1.052988860006875e-06 0.0 0.01 0.0 1.052988860006875e-06 0.0 0.01001012587528799 0.00999363812981264 0.0 5.979362960448946e-07 0.0 0.01 0.0 5.979362960448404e-07 0.0 0.010009827020126311 0.00999402387341786 0.0 2.831831174187542e-07 0.0 0.01 0.0 2.831831174187542e-07 0.0 0.010009599266225083 0.009994141653666647 0.0 1.0356156996298496e-07 0.0 0.01 0.0 1.0356156996298496e-07 0.0 0.010009430825921707 0.00999412368379716 0.0 2.1912384363461607e-08 0.0 0.01 0.0 2.1912384363461607e-08 0.0 0.01000932552869362 0.01000030371386057 0.0 1.2871616416301309e-08 0.0 0.01 0.0 1.2871616416301309e-08 0.0 0.01001147968729459 0.009998466661978836 0.0 1.4366046221677125e-06 0.0 0.01 0.0 1.4366046221677125e-06 0.0 0.010011244345614265 0.009996656282208439 0.0 2.007900489038421e-06 0.0 0.01 0.0 2.0079004890386377e-06 0.0 0.01001111972300461 0.009995014259028968 0.0 1.8760837187953988e-06 0.0 0.01 0.0 1.8760837187956157e-06 0.0 0.010010645902996516 0.009994225793806785 0.0 1.387268411122476e-06 0.0 0.01 0.0 1.387268411122476e-06 0.0 0.010010053027335918 0.009994224115899935 0.0 8.480882545272919e-07 0.0 0.01 0.0 8.480882545271835e-07 0.0 0.010009493108474718 0.009994710228026227 0.0 4.3054429658891417e-07 0.0 0.01 0.0 4.3054429658891417e-07 0.0 0.010009092965040094 0.009995184984188556 0.0 1.6926295932776555e-07 0.0 0.01 0.0 1.6926295932773844e-07 0.0 0.01000882366913613 0.009995455100513567 0.0 3.8139054712184566e-08 0.0 0.01 0.0 3.8139054712184566e-08 0.0 0.010008653820561922 0.00999867230705973 0.0 -5.331804875258477e-07 0.0 0.01 0.0 -5.331804875257935e-07 0.0 0.0100105082829552 0.009998869263992903 0.0 6.940685320563087e-07 0.0 0.01 0.0 6.940685320564171e-07 0.0 0.010010604817568712 0.00999788540781168 0.0 1.257221855313368e-06 0.0 0.01 0.0 1.257221855313368e-06 0.0 0.010010360565487968 0.009997300326340643 0.0 1.245942698187611e-06 0.0 0.01 0.0 1.2459426981878277e-06 0.0 0.010010067665616199 0.009996837120437668 0.0 8.917531947118295e-07 0.0 0.01 0.0 8.917531947120463e-07 0.0 0.01000947892953506 0.009996852523347706 0.0 4.949430069538002e-07 0.0 0.01 0.0 4.949430069538002e-07 0.0 0.010008921160554888 0.009996992363640092 0.0 2.035736009473911e-07 0.0 0.01 0.0 2.03573600947364e-07 0.0 0.010008495169141008 0.009997130236135222 0.0 4.6959984161512494e-08 0.0 0.01 0.0 4.6959984161512494e-08 0.0 0.010008238219398245 0.009997073293265085 0.0 -2.2986430234269556e-07 0.0 0.01 0.0 -2.2986430234272267e-07 0.0 0.010009610995860375 0.009997815227093977 0.0 2.6966722778401704e-07 0.0 0.01 0.0 2.6966722778401704e-07 0.0 0.010009606586148054 0.009997823232390237 0.0 3.7815348393361323e-07 0.0 0.01 0.0 3.78153483933559e-07 0.0 0.010009150265201917 0.00999844587350395 0.0 2.7252830114908415e-07 0.0 0.01 0.0 2.7252830114908415e-07 0.0 0.010008676841202295 0.009998995653750887 0.0 1.2717262246199996e-07 0.0 0.01 0.0 1.2717262246202707e-07 0.0 0.010008246040796647 0.009999417551035786 0.0 3.1085774256004557e-08 0.0 0.01 0.0 3.1085774256004557e-08 0.0 0.01000797437861998 0.009994446151528637 0.0 -3.769020619384493e-07 0.0 0.01 0.0 -3.769020619384493e-07 0.0 0.010008703771447405 0.009995287835404083 0.0 -1.325529547578061e-07 0.0 0.01 0.0 -1.325529547578061e-07 0.0 0.010008276867282524 0.00999599590638197 0.0 -3.488427287912617e-08 0.0 0.01 0.0 -3.488427287912617e-08 0.0 0.010007971421596021 0.009996513324388513 0.0 -5.401093774690857e-09 0.0 0.01 0.0 -5.401093774691704e-09 0.0 0.010007776160910996 0.009995962446592684 0.0 -1.8496867586283543e-18 0.0 0.01 0.0 -1.8496867586283543e-18 0.0 0.010000062500585943 0.009995961947198108 0.0 4.0261403911005733e-16 0.0 0.01 0.0 4.0261403911005733e-16 0.0 0.010000065900651429 0.009995959450226362 0.0 1.5524219597537142e-15 0.0 0.01 0.0 1.5524219597537142e-15 0.0 0.010000069800730815 0.009995956953256486 0.0 3.789916046465666e-15 0.0 0.01 0.0 3.789916046465666e-15 0.0 0.010000078600926707 0.009995959949620561 0.0 7.986414060777329e-15 0.0 0.01 0.0 7.986414060777329e-15 0.0 0.010000088851184166 0.009995970436916047 0.0 1.5910083365195668e-14 0.0 0.01 0.0 1.5910083365195668e-14 0.0 0.010000103501606865 0.00999599440800111 0.0 2.7558929219775583e-14 0.0 0.01 0.0 2.7558929219775583e-14 0.0 0.010000115702008011 0.009996042350688598 0.0 4.958403224345642e-14 0.0 0.01 0.0 4.958403224345642e-14 0.0 0.010000128902492337 0.009995318289815052 0.0 3.3356396450623944e-18 0.0 0.01 0.0 3.3356396450623944e-18 0.0 0.010000086901132759 0.009995316791921173 0.0 5.436534867878217e-16 0.0 0.01 0.0 5.436534867878217e-16 0.0 0.010000087401145831 0.009995312797540786 0.0 1.2652810435303432e-15 0.0 0.01 0.0 1.2652810435303432e-15 0.0 0.010000094751346656 0.009995309302461876 0.0 2.221704783853404e-15 0.0 0.01 0.0 2.221704783853404e-15 0.0 0.010000105451667985 0.009995307804572036 0.0 -1.071324926972707e-15 0.0 0.01 0.0 -1.071324926972707e-15 0.0 0.010000118652111716 0.009995316292623362 0.0 -1.5755135549578743e-14 0.0 0.01 0.0 -1.5755135549578743e-14 0.0 0.010000135252743948 0.009995338261797803 0.0 -6.027899143959554e-14 0.0 0.01 0.0 -6.027899143959554e-14 0.0 0.01000015235348167 0.009995385196428508 0.0 -1.7131287759705677e-13 0.0 0.01 0.0 -1.7131287759700507e-13 0.0 0.010000167504208552 0.00999482901363214 0.0 -8.164695821970909e-19 0.0 0.01 0.0 -8.164695821970909e-19 0.0 0.010000107401730244 0.009994828514407425 0.0 1.9553858325353401e-16 0.0 0.01 0.0 1.9553858325353401e-16 0.0 0.010000108401762615 0.009994823522164385 0.0 7.039174754800994e-16 0.0 0.01 0.0 7.039174754800994e-16 0.0 0.010000115702008011 0.00999481453614576 0.0 -5.098537662551908e-16 0.0 0.01 0.0 -5.098537662551908e-16 0.0 0.010000128902492335 0.009994809543923662 0.0 -8.47833478804255e-15 0.0 0.01 0.0 -8.47833478804255e-15 0.0 0.010000144053112635 0.009994812539256022 0.0 -4.2342795594335083e-14 0.0 0.01 0.0 -4.2342795594335083e-14 0.0 0.01000016310399035 0.009994829013632144 0.0 -1.3663715989396353e-13 0.0 0.01 0.0 -1.3663715989396353e-13 0.0 0.010000181154922452 0.00999486995031339 0.0 -3.5245736275495943e-13 0.0 0.01 0.0 -3.524573627550628e-13 0.0 0.010000197755865952 0.00999441218703993 0.0 -1.4956778660343367e-18 0.0 0.01 0.0 -1.4956778660343367e-18 0.0 0.010000124002306448 0.009994408692905687 0.0 9.346070946510775e-17 0.0 0.01 0.0 9.346070946510775e-17 0.0 0.010000127452436577 0.009994397711364785 0.0 9.531255780973627e-17 0.0 0.01 0.0 9.531255780973627e-17 0.0 0.010000134752723697 0.009994387728177194 0.0 -1.752743509604508e-15 0.0 0.01 0.0 -1.752743509604508e-15 0.0 0.010000146503219415 0.009994378743333943 0.0 -1.2135008332626446e-14 0.0 0.01 0.0 -1.2135008332626446e-14 0.0 0.01000016310399035 0.009994373751764828 0.0 -5.1782304294360376e-14 0.0 0.01 0.0 -5.1782304294360376e-14 0.0 0.010000181154922448 0.009994380240806134 0.0 -1.6508204599150286e-13 0.0 0.01 0.0 -1.6508204599160625e-13 0.0 0.010000200706042274 0.009994411687877675 0.0 -4.1674701171416964e-13 0.0 0.01 0.0 -4.1674701171416964e-13 0.0 0.010000217307083153 0.0099939744504658 0.0 9.43025092607318e-19 0.0 0.01 0.0 9.43025092607318e-19 0.0 0.010000138202864953 0.009993971455886872 0.0 4.397714850970695e-17 0.0 0.01 0.0 4.397714850970695e-17 0.0 0.010000140602965323 0.009993959976692592 0.0 -2.358277402848523e-16 0.0 0.01 0.0 -2.358277402848523e-16 0.0 0.010000148953327997 0.009993943506613366 0.0 -2.3725925112831e-15 0.0 0.01 0.0 -2.3725925112831e-15 0.0 0.010000160153847306 0.0099939290329746 0.0 -1.3114651662880206e-14 0.0 0.01 0.0 -1.3114651662880206e-14 0.0 0.010000175304609648 0.009993914060311018 0.0 -5.265344639002321e-14 0.0 0.01 0.0 -5.265344639002321e-14 0.0 0.010000193855636856 0.009993912563048366 0.0 -1.6123085192130206e-13 0.0 0.01 0.0 -1.6123085192130206e-13 0.0 0.010000211906735484 0.00999393252660579 0.0 -3.667576318804554e-13 0.0 0.01 0.0 -3.667576318804554e-13 0.0 0.010000226057665084 0.009993465410713784 0.0 2.5975006117585303e-19 0.0 0.01 0.0 2.5975006117585303e-19 0.0 0.010000154303571365 0.009993460420513002 0.0 -3.1003121126061216e-17 0.0 0.01 0.0 -3.1003121126061216e-17 0.0 0.010000156253662204 0.00999344694700823 0.0 -6.855343918911827e-16 0.0 0.01 0.0 -6.855343918911827e-16 0.0 0.0100001635540124 0.009993428483405016 0.0 -3.1567960876133458e-15 0.0 0.01 0.0 -3.1567960876133458e-15 0.0 0.010000174304557206 0.009993403532752451 0.0 -1.5460304230890083e-14 0.0 0.01 0.0 -1.5460304230890083e-14 0.0 0.010000187505273603 0.009993381077324927 0.0 -5.6061428911867656e-14 0.0 0.01 0.0 -5.6061428911867656e-14 0.0 0.0100002011560694 0.009993367105135311 0.0 -1.5135174529214108e-13 0.0 0.01 0.0 -1.5135174529211523e-13 0.0 0.010000215806985699 0.0099933730932094 0.0 -2.6965288120152513e-13 0.0 0.01 0.0 -2.6965288120157683e-13 0.0 0.010000225107600787 0.00999285266995787 0.0 -1.0651180319729742e-18 0.0 0.01 0.0 -1.0651180319729742e-18 0.0 0.010000175804635981 0.00999284618389152 0.0 -2.2858857430645745e-16 0.0 0.01 0.0 -2.2858857430645745e-16 0.0 0.0100001777547394 0.009992830717168881 0.0 -1.0633843641146105e-15 0.0 0.01 0.0 -1.0633843641146105e-15 0.0 0.010000183605056499 0.009992805770993377 0.0 -5.31460878812105e-15 0.0 0.01 0.0 -5.31460878812105e-15 0.0 0.010000190455440853 0.009992774837995216 0.0 -2.2496272621304244e-14 0.0 0.01 0.0 -2.2496272621304244e-14 0.0 0.010000203106187652 0.009992742907459716 0.0 -7.1029611178796e-14 0.0 0.01 0.0 -7.1029611178796e-14 0.0 0.010000214856924329 0.00999271596630847 0.0 -1.5970991184935569e-13 0.0 0.01 0.0 -1.5970991184932984e-13 0.0 0.010000221707372907 0.009992706985973146 0.0 -1.756374035159974e-13 0.0 0.01 0.0 -1.756374035159457e-13 0.0 0.010000226557699029 0.009992132294867537 0.0 -7.577277098350165e-19 0.0 0.01 0.0 -7.577277098350165e-19 0.0 0.010000210456643613 0.009992127306663549 0.0 -6.725515472579905e-16 0.0 0.01 0.0 -6.725515472579905e-16 0.0 0.010000212906799203 0.009992108850373743 0.0 -2.2888081863731683e-15 0.0 0.01 0.0 -2.2888081863731683e-15 0.0 0.010000216307018106 0.009992077923847119 0.0 -1.0615387679650434e-14 0.0 0.01 0.0 -1.0615387679650434e-14 0.0 0.01000022265743623 0.009992039515496088 0.0 -3.5702125584164354e-14 0.0 0.01 0.0 -3.5702125584164354e-14 0.0 0.010000231458035675 0.009991997117181352 0.0 -1.0065965264455084e-13 0.0 0.01 0.0 -1.0065965264455084e-13 0.0 0.010000237308447029 0.009991959208556958 0.0 -2.0421131444313687e-13 0.0 0.01 0.0 -2.0421131444313687e-13 0.0 0.010000239758622357 0.00999193526649017 0.0 -1.466089410463932e-13 0.0 0.01 0.0 -1.466089410463932e-13 0.0 0.010000235358308773 0.00999131133706245 0.0 -4.085561612297121e-18 0.0 0.01 0.0 -4.085561612297121e-18 0.0 0.010000263210391592 0.009991303856603361 0.0 -7.718578479518562e-16 0.0 0.01 0.0 -7.718578479518562e-16 0.0 0.010000266110621853 0.009991281914020295 0.0 -4.339292150064024e-15 0.0 0.01 0.0 -4.339292150064024e-15 0.0 0.010000268560818348 0.009991245509599102 0.0 -1.7166137427841223e-14 0.0 0.01 0.0 -1.7166137427841223e-14 0.0 0.010000274411294821 0.009991199630621348 0.0 -5.737560614409866e-14 0.0 0.01 0.0 -5.737560614409866e-14 0.0 0.01000027786158063 0.009991147768190146 0.0 -1.5346369336120365e-13 0.0 0.01 0.0 -1.5346369336120365e-13 0.0 0.010000277861580633 0.009991097402563615 0.0 -2.9495369576287696e-13 0.0 0.01 0.0 -2.9495369576287696e-13 0.0 0.01000027491133602 0.009991056512219139 0.0 -1.9484134533422917e-13 0.0 0.01 0.0 -1.9484134533417747e-13 0.0 0.010000263210391594 0.009990382392569578 0.0 -3.346031583723452e-19 0.0 0.01 0.0 -3.346031583723452e-19 0.0 0.010000346217979203 0.009990372919966878 0.0 -1.2385774351071251e-15 0.0 0.01 0.0 -1.2385774351071251e-15 0.0 0.010000345217875484 0.009990346496533338 0.0 -8.471216251864427e-15 0.0 0.01 0.0 -8.471216251864427e-15 0.0 0.010000348668234583 0.009990305116860563 0.0 -2.6035817041443872e-14 0.0 0.01 0.0 -2.6035817041443872e-14 0.0 0.010000352068591971 0.009990252271279115 0.0 -8.457006842026003e-14 0.0 0.01 0.0 -8.457006842026003e-14 0.0 0.010000355018904868 0.009990191450044155 0.0 -2.2078251085932687e-13 0.0 0.01 0.0 -2.2078251085930102e-13 0.0 0.010000350118386576 0.00999012763879504 0.0 -4.1845726539093914e-13 0.0 0.01 0.0 -4.1845726539093914e-13 0.0 0.010000341317473847 0.009990070807930754 0.0 -3.1734218454506325e-13 0.0 0.01 0.0 -3.1734218454506325e-13 0.0 0.010000322765625975 0.009989330599738987 0.0 1.4821325242845032e-19 0.0 0.01 0.0 1.4821325242845032e-19 0.0 0.010000457081336593 0.00998932212692772 0.0 -8.292085589784048e-16 0.0 0.01 0.0 -8.292085589784048e-16 0.0 0.010000457081336593 0.009989293219851533 0.0 -8.60463999502516e-15 0.0 0.01 0.0 -8.60463999502516e-15 0.0 0.010000461481942871 0.0099892448758194 0.0 -3.17601934900728e-14 0.0 0.01 0.0 -3.17601934900728e-14 0.0 0.010000465832547973 0.009989184072981718 0.0 -1.0533487949384882e-13 0.0 0.01 0.0 -1.0533487949384882e-13 0.0 0.010000465832547975 0.009989115297339623 0.0 -2.722435906568711e-13 0.0 0.01 0.0 -2.722435906568194e-13 0.0 0.010000459981735536 0.0099890395461025 0.0 -5.059742987373599e-13 0.0 0.01 0.0 -5.059742987373082e-13 0.0 0.010000446329879776 0.009988965789974881 0.0 -3.954993515435785e-13 0.0 0.01 0.0 -3.954993515435785e-13 0.0 0.010000426777319278 0.009988153085710185 0.0 -6.3273460071860775e-19 0.0 0.01 0.0 -6.3273460071860775e-19 0.0 0.010000606005081875 0.009988142623000212 0.0 -3.9386684743054277e-16 0.0 0.01 0.0 -3.9386684743054277e-16 0.0 0.010000607005263836 0.009988112729724318 0.0 -6.6222783321391e-15 0.0 0.01 0.0 -6.6222783321391e-15 0.0 0.010000611856150612 0.009988059918926174 0.0 -2.9446914563935864e-14 0.0 0.01 0.0 -2.9446914563935864e-14 0.0 0.010000615756868808 0.009987993657505866 0.0 -1.0308305362118926e-13 0.0 0.01 0.0 -1.0308305362118926e-13 0.0 0.010000617257146254 0.00998791494264521 0.0 -2.4932099471042693e-13 0.0 0.01 0.0 -2.4932099471037523e-13 0.0 0.010000614806693443 0.009987826764283619 0.0 -4.342118109088323e-13 0.0 0.01 0.0 -4.34211810908884e-13 0.0 0.010000605054909288 0.009987737093768646 0.0 -2.945503190264332e-13 0.0 0.01 0.0 -2.945503190263815e-13 0.0 0.010000587951849044 0.009986840023404907 0.0 8.473584707252742e-19 0.0 0.01 0.0 8.473584707252742e-19 0.0 0.010000794044566004 0.009986830560874951 0.0 3.300367516561834e-16 0.0 0.01 0.0 3.300367516561834e-16 0.0 0.010000797445377728 0.009986794703110789 0.0 -2.107089997663593e-15 0.0 0.01 0.0 -2.107089997663593e-15 0.0 0.010000802846674069 0.009986741415202555 0.0 -1.2621015265762974e-14 0.0 0.01 0.0 -1.2621015265762974e-14 0.0 0.01000081064856201 0.009986666713963522 0.0 -4.8633557221891376e-14 0.0 0.01 0.0 -4.8633557221891376e-14 0.0 0.010000815999867501 0.00998657906664701 0.0 -1.0988724487538798e-13 0.0 0.01 0.0 -1.0988724487538798e-13 0.0 0.010000819450713917 0.009986482458074134 0.0 -1.2951147321153249e-13 0.0 0.01 0.0 -1.2951147321153249e-13 0.0 0.01000081649998995 0.009986376391065898 0.0 4.718770970276175e-14 0.0 0.01 0.0 4.718770970276175e-14 0.0 0.01000081649998995 0.009985380123729017 0.0 6.126176133408003e-19 0.0 0.01 0.0 6.126176133408003e-19 0.0 0.010001022106683959 0.009985367678496705 0.0 2.793863928693025e-15 0.0 0.01 0.0 2.793863928693025e-15 0.0 0.010001025557743733 0.009985330840881785 0.0 1.1599107071571052e-14 0.0 0.01 0.0 1.1599107071571052e-14 0.0 0.010001035810913413 0.009985272100663536 0.0 2.1707873976132863e-14 0.0 0.01 0.0 2.1707873976132863e-14 0.0 0.010001046564271593 0.009985195939042641 0.0 4.886075419866447e-14 0.0 0.01 0.0 4.886075419866447e-14 0.0 0.010001060718744773 0.009985100863909323 0.0 1.32952538624422e-13 0.0 0.01 0.0 1.32952538624422e-13 0.0 0.010001072922649753 0.00998499434316394 0.0 3.29696622623131e-13 0.0 0.01 0.0 3.296966226230793e-13 0.0 0.010001083676127643 0.009984876377905504 0.0 5.057473051500693e-13 0.0 0.01 0.0 5.05747305150121e-13 0.0 0.010001105633336735 0.009983766614153705 0.0 3.4915075583443693e-19 0.0 0.01 0.0 3.4915075583443693e-19 0.0 0.010001287348547279 0.009983753677386338 0.0 5.944962146936767e-15 0.0 0.01 0.0 5.944962146936767e-15 0.0 0.01000129225044353 0.009983715862508527 0.0 2.871710632434654e-14 0.0 0.01 0.0 2.871710632434654e-14 0.0 0.010001304955391848 0.009983654165472446 0.0 7.527604941904759e-14 0.0 0.01 0.0 7.527604941904759e-14 0.0 0.010001324012905113 0.009983571572843714 0.0 1.8138329551214458e-13 0.0 0.01 0.0 1.8138329551214458e-13 0.0 0.010001346471899172 0.009983472563899929 0.0 4.0024158807317076e-13 0.0 0.01 0.0 4.0024158807311906e-13 0.0 0.01000137088184604 0.009983358135121976 0.0 7.600463299440384e-13 0.0 0.01 0.0 7.600463299440384e-13 0.0 0.01000140264505679 0.009983230278055059 0.0 8.355349630065005e-13 0.0 0.01 0.0 8.355349630064488e-13 0.0 0.01000144661384321 0.00998198778313484 0.0 1.6420544281811315e-18 0.0 0.01 0.0 1.6420544281811315e-18 0.0 0.01000158482667174 0.009981974853281152 0.0 1.2163633971816093e-14 0.0 0.01 0.0 1.2163633971816093e-14 0.0 0.010001592180174948 0.009981936064021557 0.0 5.297693611665906e-14 0.0 0.01 0.0 5.297693611665906e-14 0.0 0.010001608287905315 0.009981871913546112 0.0 1.4255088774281966e-13 0.0 0.01 0.0 1.4255088774281966e-13 0.0 0.01000163174930399 0.00998178588422987 0.0 3.204776889541465e-13 0.0 0.01 0.0 3.204776889541465e-13 0.0 0.010001665966224062 0.009981682453083486 0.0 6.356139549720342e-13 0.0 0.01 0.0 6.356139549720859e-13 0.0 0.01000170598645919 0.009981561621729893 0.0 1.004832763588719e-12 0.0 0.01 0.0 1.004832763588719e-12 0.0 0.010001755812323305 0.009981428364255442 0.0 8.461814166497773e-13 0.0 0.01 0.0 8.461814166497773e-13 0.0 0.010001826200129257 0.009980033459010475 0.0 -1.0275042389250169e-18 0.0 0.01 0.0 -1.0275042389250169e-18 0.0 0.010001911197761946 0.009980018548714043 0.0 1.8491947200327013e-14 0.0 0.01 0.0 1.8491947200327013e-14 0.0 0.010001918051697253 0.00997998127326534 0.0 8.105888197794642e-14 0.0 0.01 0.0 8.105888197794642e-14 0.0 0.010001938563558632 0.009979917160470581 0.0 2.2331299838559537e-13 0.0 0.01 0.0 2.2331299838559537e-13 0.0 0.010001969831882817 0.009979830684704712 0.0 4.700030864243033e-13 0.0 0.01 0.0 4.700030864242516e-13 0.0 0.010002011856972451 0.009979722344676192 0.0 8.156602011896658e-13 0.0 0.01 0.0 8.156602011896658e-13 0.0 0.01000206754103217 0.0099795986028134 0.0 1.0490265858235324e-12 0.0 0.01 0.0 1.049026585823429e-12 0.0 0.01000213348256801 0.00997946293931375 0.0 5.980598104430012e-13 0.0 0.01 0.0 5.980598104430012e-13 0.0 0.010002224842268278 0.009977899481428588 0.0 -4.445540639921215e-19 0.0 0.01 0.0 -4.445540639921215e-19 0.0 0.010002255162634456 0.009977886567455333 0.0 2.7472773722304504e-14 0.0 0.01 0.0 2.7472773722304504e-14 0.0 0.010002262967921864 0.009977846832467508 0.0 1.210729505528629e-13 0.0 0.01 0.0 1.210729505528629e-13 0.0 0.010002288385266466 0.009977783257474376 0.0 3.169931822524406e-13 0.0 0.01 0.0 3.169931822524406e-13 0.0 0.01000232601129767 0.009977694353857855 0.0 6.358015363154328e-13 0.0 0.01 0.0 6.358015363153811e-13 0.0 0.010002377797819576 0.009977585090098325 0.0 9.972882755271749e-13 0.0 0.01 0.0 9.972882755272783e-13 0.0 0.01000244374549202 0.009977459441212371 0.0 1.1311569749215278e-12 0.0 0.01 0.0 1.1311569749214244e-12 0.0 0.010002526857428695 0.00997732336832641 0.0 3.969555599472235e-13 0.0 0.01 0.0 3.969555599472235e-13 0.0 0.010002632389056122 0.009975577262754885 0.0 1.3235354305728243e-18 0.0 0.01 0.0 1.3235354305728243e-18 0.0 0.010002612823670499 0.009975564854139808 0.0 3.5047331583217483e-14 0.0 0.01 0.0 3.5047331583217483e-14 0.0 0.010002621630581788 0.009975526139558379 0.0 1.6339954235732494e-13 0.0 0.01 0.0 1.6339954235732494e-13 0.0 0.010002647050660752 0.009975461119929417 0.0 4.215746552309089e-13 0.0 0.01 0.0 4.215746552309089e-13 0.0 0.010002691986628768 0.009975373767314855 0.0 8.232704713581615e-13 0.0 0.01 0.0 8.232704713581615e-13 0.0 0.010002751635307993 0.009975264083474801 0.0 1.2531392581651936e-12 0.0 0.01 0.0 1.2531392581651936e-12 0.0 0.010002830301137394 0.00997513802597346 0.0 1.3262882748324772e-12 0.0 0.01 0.0 1.3262882748323738e-12 0.0 0.010002923131205045 0.009975002048042693 0.0 5.337319494560911e-13 0.0 0.01 0.0 5.337319494560394e-13 0.0 0.010003040936532055 0.009973071166187873 0.0 1.0552363959627678e-19 0.0 0.01 0.0 1.0552363959627678e-19 0.0 0.010002980331827418 0.009973057279013686 0.0 4.3455020402805466e-14 0.0 0.01 0.0 4.3455020402805466e-14 0.0 0.010002990591010454 0.00997301760169281 0.0 1.9732537013982406e-13 0.0 0.01 0.0 1.9732537013982406e-13 0.0 0.01000301696476245 0.009972953623010369 0.0 5.13321702579687e-13 0.0 0.01 0.0 5.13321702579687e-13 0.0 0.010003066359807963 0.009972867328133357 0.0 1.0078887817942985e-12 0.0 0.01 0.0 1.0078887817942985e-12 0.0 0.0100031303692685 0.009972755743251458 0.0 1.5286080438466902e-12 0.0 0.01 0.0 1.5286080438466902e-12 0.0 0.010003217352037313 0.009972624821765518 0.0 1.657954215722725e-12 0.0 0.01 0.0 1.657954215722725e-12 0.0 0.010003320002631036 0.009972486467162582 0.0 9.971939873279214e-13 0.0 0.01 0.0 9.971939873280248e-13 0.0 0.0100034441785381 0.009970373679831447 0.0 -7.698341517000147e-19 0.0 0.01 0.0 -7.698341517000147e-19 0.0 0.01000335423688131 0.009970361786191817 0.0 4.7483595944059386e-14 0.0 0.01 0.0 4.7483595944059386e-14 0.0 0.010003364997719717 0.009970322141033779 0.0 2.2103908123762673e-13 0.0 0.01 0.0 2.2103908123762673e-13 0.0 0.0100033933264185 0.009970259700868858 0.0 5.792810802128718e-13 0.0 0.01 0.0 5.792810802128718e-13 0.0 0.01000344462900326 0.00997016802497459 0.0 1.1309855329236403e-12 0.0 0.01 0.0 1.1309855329236403e-12 0.0 0.010003516504000753 0.009970054053064762 0.0 1.6994377675221328e-12 0.0 0.01 0.0 1.699437767521926e-12 0.0 0.010003607901604242 0.009969918282934562 0.0 1.8940108086166705e-12 0.0 0.01 0.0 1.8940108086168773e-12 0.0 0.010003717872358897 0.009969772608744447 0.0 1.442615852608572e-12 0.0 0.01 0.0 1.442615852608572e-12 0.0 0.010003847419256749 0.009967496659645577 0.0 -1.268037360541197e-19 0.0 0.01 0.0 -1.268037360541197e-19 0.0 0.010003744802482027 0.00996748230060707 0.0 4.772138376554057e-14 0.0 0.01 0.0 4.772138376554057e-14 0.0 0.010003755064017397 0.00996744417518527 0.0 2.2285801437141877e-13 0.0 0.01 0.0 2.2285801437141877e-13 0.0 0.010003785348244918 0.009967376837846662 0.0 5.896850479701558e-13 0.0 0.01 0.0 5.896850479701558e-13 0.0 0.010003837658013007 0.009967282270800279 0.0 1.126691383761097e-12 0.0 0.01 0.0 1.1266913837611488e-12 0.0 0.010003910993184295 0.009967159981281068 0.0 1.6070051138229001e-12 0.0 0.01 0.0 1.6070051138229518e-12 0.0 0.010004005805686944 0.00996701591316919 0.0 1.6060862298874353e-12 0.0 0.01 0.0 1.6060862298874353e-12 0.0 0.010004119243828258 0.009966856999920878 0.0 1.0842183133773263e-12 0.0 0.01 0.0 1.0842183133773263e-12 0.0 0.010004253712572074 0.009964447005118894 0.0 -1.7348066334691585e-18 0.0 0.01 0.0 -1.7348066334691585e-18 0.0 0.010004164700265284 0.009964434143308096 0.0 4.434621242172333e-14 0.0 0.01 0.0 4.434621242172333e-14 0.0 0.01000417401190264 0.009964391106072572 0.0 2.0972193917671767e-13 0.0 0.01 0.0 2.0972193917671767e-13 0.0 0.010004204299935156 0.009964322346589106 0.0 5.423884575092421e-13 0.0 0.01 0.0 5.423884575092421e-13 0.0 0.010004252711295571 0.00996422094131545 0.0 9.46888243184787e-13 0.0 0.01 0.0 9.468882431847354e-13 0.0 0.010004328008127616 0.009964088377139082 0.0 1.0587994225279723e-12 0.0 0.01 0.0 1.0587994225279723e-12 0.0 0.010004424334479196 0.009963928614658845 0.0 3.7799739331824536e-13 0.0 0.01 0.0 3.7799739331824536e-13 0.0 0.010004535333522814 0.00996375303318103 0.0 -9.146231251875686e-13 0.0 0.01 0.0 -9.146231251875428e-13 0.0 0.010004663910781756 0.00996126621383298 0.0 -1.6332232122746274e-18 0.0 0.01 0.0 -1.6332232122746274e-18 0.0 0.010004639927342168 0.009961250399073598 0.0 3.9288033725197227e-14 0.0 0.01 0.0 3.9288033725197227e-14 0.0 0.010004648739608902 0.009961205426263274 0.0 1.7715261060532524e-13 0.0 0.01 0.0 1.7715261060532524e-13 0.0 0.0100046756271803 0.009961130308202263 0.0 4.171973179189724e-13 0.0 0.01 0.0 4.171973179189724e-13 0.0 0.010004726498858188 0.009961019116823632 0.0 5.254325846112389e-13 0.0 0.01 0.0 5.254325846112389e-13 0.0 0.010004794445803735 0.009960874820675 0.0 -1.286197484486197e-13 0.0 0.01 0.0 -1.286197484486197e-13 0.0 0.010004881522063606 0.009960699894712184 0.0 -2.321686967926895e-12 0.0 0.01 0.0 -2.321686967926895e-12 0.0 0.010004981269486382 0.00996050076705069 0.0 -5.678019020701694e-12 0.0 0.01 0.0 -5.678019020701694e-12 0.0 0.010005091786304626 0.009958043042932555 0.0 3.2823458212049657e-19 0.0 0.01 0.0 3.2823458212049657e-19 0.0 0.010005204259830815 0.009958026256058943 0.0 3.429414178089697e-14 0.0 0.01 0.0 3.429414178089697e-14 0.0 0.01000521157124209 0.009957974908501949 0.0 1.4310578114100115e-13 0.0 0.01 0.0 1.4310578114100115e-13 0.0 0.010005238463351598 0.009957892457836619 0.0 2.1994223651398743e-13 0.0 0.01 0.0 2.1994223651398743e-13 0.0 0.010005284435839885 0.00995777347575623 0.0 -2.4467703177803913e-13 0.0 0.01 0.0 -2.4467703177803913e-13 0.0 0.010005345082433803 0.009957616485180785 0.0 -2.401992855871035e-12 0.0 0.01 0.0 -2.401992855871035e-12 0.0 0.010005413092064762 0.009957426427910894 0.0 -7.614247631378292e-12 0.0 0.01 0.0 -7.614247631378292e-12 0.0 0.01000548300620907 0.009957204296843129 0.0 -1.5382081313852495e-11 0.0 0.01 0.0 -1.5382081313852495e-11 0.0 0.01000555833082412 0.009954970485005835 0.0 2.0808296008664986e-19 0.0 0.01 0.0 2.0808296008664986e-19 0.0 0.010005899266098052 0.009954955686760573 0.0 3.090154554720991e-14 0.0 0.01 0.0 3.090154554720991e-14 0.0 0.010005906128235256 0.009954900440561345 0.0 7.466461375851193e-14 0.0 0.01 0.0 7.466461375851193e-14 0.0 0.010005930571583223 0.009954811653953816 0.0 -1.7296068906419823e-13 0.0 0.01 0.0 -1.7296068906419823e-13 0.0 0.010005970693122625 0.00995468390405905 0.0 -1.7947124397796527e-12 0.0 0.01 0.0 -1.7947124397797044e-12 0.0 0.010006017627421055 0.009954516702168665 0.0 -6.889983647691633e-12 0.0 0.01 0.0 -6.889983647691633e-12 0.0 0.010006055295553455 0.009954315479206574 0.0 -1.785495174171793e-11 0.0 0.01 0.0 -1.7854951741717103e-11 0.0 0.010006081242732523 0.009954077282502251 0.0 -3.38167418250319e-11 0.0 0.01 0.0 -3.38167418250319e-11 0.0 0.010006092012373844 0.009952385739536064 0.0 7.871581330202046e-19 0.0 0.01 0.0 7.871581330202046e-19 0.0 0.010006763204959317 0.009952366516811022 0.0 6.449353593904948e-15 0.0 0.01 0.0 6.449353593904948e-15 0.0 0.010006770068874168 0.009952309342184617 0.0 -1.3112665674431348e-13 0.0 0.01 0.0 -1.3112665674431348e-13 0.0 0.010006794017534404 0.00995221421761907 0.0 -1.172424083759053e-12 0.0 0.01 0.0 -1.1724240837590013e-12 0.0 0.01000682678438995 0.0099520836106126 0.0 -5.142775152361396e-12 0.0 0.01 0.0 -5.142775152361603e-12 0.0 0.010006853739628629 0.009951915061245757 0.0 -1.5693979125356096e-11 0.0 0.01 0.0 -1.5693979125355683e-11 0.0 0.010006857647655295 0.00995170906809331 0.0 -3.636238683978228e-11 0.0 0.01 0.0 -3.636238683978228e-11 0.0 0.01000681506043218 0.009951462681601684 0.0 -6.456168781183133e-11 0.0 0.01 0.0 -6.456168781183133e-11 0.0 0.010006737753485935 0.0099507438304166 0.0 4.837331479947969e-19 0.0 0.01 0.0 4.837331479947969e-19 0.0 0.010007829986712251 0.00995072264662423 0.0 -1.1275088405844439e-13 0.0 0.01 0.0 -1.1275088405844439e-13 0.0 0.01000783830623456 0.009950663529779729 0.0 -7.603810454475124e-13 0.0 0.01 0.0 -7.603810454475124e-13 0.0 0.010007864718349512 0.009950569437642007 0.0 -3.4052764921392524e-12 0.0 0.01 0.0 -3.4052764921392524e-12 0.0 0.010007889677238542 0.009950440373187548 0.0 -1.1568507081397405e-11 0.0 0.01 0.0 -1.1568507081397819e-11 0.0 0.010007897545842675 0.009950277818234628 0.0 -3.052268114985711e-11 0.0 0.01 0.0 -3.052268114985711e-11 0.0 0.01000785544652063 0.009950080792608468 0.0 -6.354985478931227e-11 0.0 0.01 0.0 -6.354985478931227e-11 0.0 0.010007736518806248 0.009949840929707037 0.0 -1.0252949084541504e-10 0.0 0.01 0.0 -1.0252949084541504e-10 0.0 0.010007554952980995 0.009950593576208136 0.0 3.412052374209615e-19 0.0 0.01 0.0 3.412052374209615e-19 0.0 0.010009128183365185 0.009950574363865726 0.0 -3.6715710267142963e-13 0.0 0.01 0.0 -3.6715710267142963e-13 0.0 0.01000913801024102 0.009950519683192579 0.0 -1.94700598646931e-12 0.0 0.01 0.0 -1.9470059864693615e-12 0.0 0.010009165886638145 0.00995043199894988 0.0 -6.9890638274945036e-12 0.0 0.01 0.0 -6.9890638274945036e-12 0.0 0.010009188448640892 0.009950318209933619 0.0 -2.0372900483046695e-11 0.0 0.01 0.0 -2.0372900483047108e-11 0.0 0.010009175713625031 0.009950178811394515 0.0 -4.7606069525774535e-11 0.0 0.01 0.0 -4.7606069525774535e-11 0.0 0.010009087572603652 0.009950010851326067 0.0 -8.702734836537266e-11 0.0 0.01 0.0 -8.702734836537431e-11 0.0 0.010008895154505325 0.00994979808128189 0.0 -1.2079710779707863e-10 0.0 0.01 0.0 -1.2079710779707533e-10 0.0 0.010008626850555766 0.009952595225170838 0.0 2.856632376492944e-19 0.0 0.01 0.0 2.856632376492944e-19 0.0 0.010010692926381532 0.009952580930436414 0.0 -7.975695234978706e-13 0.0 0.01 0.0 -7.975695234978706e-13 0.0 0.010010704162367113 0.009952535582031397 0.0 -3.630875147791002e-12 0.0 0.01 0.0 -3.630875147791002e-12 0.0 0.010010730145728671 0.009952471503820242 0.0 -1.091597827648904e-11 0.0 0.01 0.0 -1.091597827648904e-11 0.0 0.01001074970862475 0.009952389682672919 0.0 -2.7441931126508093e-11 0.0 0.01 0.0 -2.7441931126506438e-11 0.0 0.010010722772051457 0.009952300470348147 0.0 -5.486340393751269e-11 0.0 0.01 0.0 -5.486340393751434e-11 0.0 0.010010603290654957 0.009952194010161071 0.0 -7.956700597210572e-11 0.0 0.01 0.0 -7.956700597210737e-11 0.0 0.010010365694898047 0.009952054532771391 0.0 -7.472395790878752e-11 0.0 0.01 0.0 -7.472395790878421e-11 0.0 0.010010058104494804 0.009957734474259704 0.0 2.661859317983702e-18 0.0 0.01 0.0 2.661859317983702e-18 0.0 0.010012582809281996 0.009957728550021845 0.0 -1.3617844841326613e-12 0.0 0.01 0.0 -1.3617844841326613e-12 0.0 0.010012592596147396 0.0099577107773717 0.0 -5.1748630187392236e-12 0.0 0.01 0.0 -5.1748630187392236e-12 0.0 0.010012617088531189 0.009957690042733476 0.0 -1.2356747746984534e-11 0.0 0.01 0.0 -1.2356747746984534e-11 0.0 0.010012633751485195 0.009957676219713286 0.0 -2.4638345346820287e-11 0.0 0.01 0.0 -2.4638345346821114e-11 0.0 0.010012597514685452 0.009957675726035054 0.0 -3.318373758555016e-11 0.0 0.01 0.0 -3.318373758555181e-11 0.0 0.010012470538422705 0.009957683131216184 0.0 -7.364344359798274e-12 0.0 0.01 0.0 -7.364344359798481e-12 0.0 0.010012242645713052 0.009957686093293266 0.0 7.869464094221978e-11 0.0 0.01 0.0 7.869464094221647e-11 0.0 0.010011968251621838 0.009967585290946586 0.0 -1.0338884901622827e-19 0.0 0.01 0.0 -1.0338884901622827e-19 0.0 0.0100148984786843 0.009967592718257949 0.0 -1.6244251897167736e-12 0.0 0.01 0.0 -1.6244251897168253e-12 0.0 0.010014905811368657 0.00996762044703373 0.0 -4.265733738591806e-12 0.0 0.01 0.0 -4.265733738591806e-12 0.0 0.010014921983510268 0.009967673924611974 0.0 -4.271003453709774e-12 0.0 0.01 0.0 -4.271003453709774e-12 0.0 0.010014931827460907 0.009967769988349485 0.0 4.097502807540382e-12 0.0 0.01 0.0 4.097502807540382e-12 0.0 0.010014898478684298 0.009967913098758692 0.0 4.499923105423407e-11 0.0 0.01 0.0 4.499923105423407e-11 0.0 0.010014795471238626 0.00996810128099644 0.0 1.6227359238719172e-10 0.0 0.01 0.0 1.6227359238719834e-10 0.0 0.010014628235299942 0.009968329094807868 0.0 3.647641696444282e-10 0.0 0.01 0.0 3.647641696444282e-10 0.0 0.010014451667347433 0.009983986546893581 0.0 3.201126258076775e-18 0.0 0.01 0.0 3.201126258076775e-18 0.0 0.010017752712167715 0.009984015905530837 0.0 -6.189827230833064e-13 0.0 0.01 0.0 -6.189827230833064e-13 0.0 0.010017751757099342 0.009984109456814336 0.0 3.5403091477567514e-12 0.0 0.01 0.0 3.5403091477567514e-12 0.0 0.010017752259766873 0.009984272182599282 0.0 2.4336348702669382e-11 0.0 0.01 0.0 2.433634870267021e-11 0.0 0.010017747836295197 0.009984519023442748 0.0 7.763664860827846e-11 0.0 0.01 0.0 7.763664860827846e-11 0.0 0.010017722803577257 0.009984859454962417 0.0 1.969500681397001e-10 0.0 0.01 0.0 1.969500681397001e-10 0.0 0.010017663891977537 0.009985294501471967 0.0 4.1987067251396277e-10 0.0 0.01 0.0 4.198706725139363e-10 0.0 0.01001758045241177 0.009985834157617982 0.0 7.169930998361142e-10 0.0 0.01 0.0 7.169930998360877e-10 0.0 0.010017515159892475 0.010008174061380024 0.0 4.31804172827311e-18 0.0 0.01 0.0 4.31804172827311e-18 0.0 0.010021204454152824 0.01000823185336658 0.0 2.494996713351278e-12 0.0 0.01 0.0 2.4949967133508646e-12 0.0 0.010021192679588014 0.010008402678898928 0.0 2.0841341388072632e-11 0.0 0.01 0.0 2.084134138807594e-11 0.0 0.010021161733814267 0.010008698336009189 0.0 7.630053646057125e-11 0.0 0.01 0.0 7.630053646059772e-11 0.0 0.010021126310060958 0.010009125776787765 0.0 1.8804620636839035e-10 0.0 0.01 0.0 1.8804620636841682e-10 0.0 0.01002109390570654 0.010009692774290379 0.0 3.7644588648284744e-10 0.0 0.01 0.0 3.764458864827945e-10 0.0 0.010021066885545762 0.01001040928043971 0.0 6.409363647046385e-10 0.0 0.01 0.0 6.409363647046385e-10 0.0 0.010021044293437607 0.010011289087791727 0.0 8.964722606021553e-10 0.0 0.01 0.0 8.964722606020494e-10 0.0 0.010021038356116101 0.010039577472692206 0.0 1.538822077501452e-17 0.0 0.01 0.0 1.538822077501452e-17 0.0 0.01002516794598544 0.01003965999580974 0.0 6.586519145894537e-12 0.0 0.01 0.0 6.586519145895364e-12 0.0 0.010025133487289539 0.010039906565352717 0.0 4.089344566315834e-11 0.0 0.01 0.0 4.089344566315503e-11 0.0 0.01002505232939658 0.01004032708600217 0.0 1.2777208356164618e-10 0.0 0.01 0.0 1.2777208356167265e-10 0.0 0.010024959839005507 0.01004092121840402 0.0 2.7425568252230574e-10 0.0 0.01 0.0 2.7425568252230574e-10 0.0 0.010024888508295512 0.010041690421972286 0.0 4.597425374805837e-10 0.0 0.01 0.0 4.597425374805837e-10 0.0 0.010024847201659639 0.010042642312458574 0.0 6.211720721691969e-10 0.0 0.01 0.0 6.211720721691969e-10 0.0 0.010024810277989307 0.010043801716964687 0.0 6.273585377154387e-10 0.0 0.01 0.0 6.273585377154387e-10 0.0 0.010024741418700819 0.010074788713885141 0.0 2.2776157639673676e-18 0.0 0.01 0.0 2.2776157639673676e-18 0.0 0.010029328723389493 0.010074890106684945 0.0 7.959818439305053e-12 0.0 0.01 0.0 7.95981843930526e-12 0.0 0.010029269606799562 0.010075195684136416 0.0 4.6035092618144744e-11 0.0 0.01 0.0 4.6035092618144744e-11 0.0 0.010029116423025662 0.010075697114342936 0.0 1.3387106896897115e-10 0.0 0.01 0.0 1.3387106896896453e-10 0.0 0.010028936616322719 0.010076390904208296 0.0 2.5702607011907674e-10 0.0 0.01 0.0 2.5702607011909e-10 0.0 0.010028779514034705 0.010077270265245636 0.0 3.5054860053392127e-10 0.0 0.01 0.0 3.5054860053392127e-10 0.0 0.010028651971571927 0.010078328740417468 0.0 3.0755432071894243e-10 0.0 0.01 0.0 3.0755432071894243e-10 0.0 0.010028498816096524 0.010079580579838208 0.0 -3.887422507527364e-12 0.0 0.01 0.0 -3.887422507527157e-12 0.0 0.010028218091302108 0.010107663279555675 0.0 6.253031641505534e-19 0.0 0.01 0.0 6.253031641505534e-19 0.0 0.010033202229194819 0.01010776969560986 0.0 2.8457167588067717e-12 0.0 0.01 0.0 2.84571675880672e-12 0.0 0.010033108503085657 0.010108085349217678 0.0 2.2367286792810166e-11 0.0 0.01 0.0 2.2367286792810166e-11 0.0 0.010032867382521488 0.010108598265482948 0.0 7.025111381071399e-11 0.0 0.01 0.0 7.025111381071399e-11 0.0 0.010032567609321875 0.010109289834492398 0.0 1.2247265703147724e-10 0.0 0.01 0.0 1.2247265703147724e-10 0.0 0.010032278162066002 0.010110137947924452 0.0 1.0777825861084231e-10 0.0 0.01 0.0 1.0777825861084231e-10 0.0 0.010032000098188018 0.010111111919388436 0.0 -6.692339252757818e-11 0.0 0.01 0.0 -6.692339252757652e-11 0.0 0.010031643212751478 0.010112203327099773 0.0 -4.859749854087826e-10 0.0 0.01 0.0 -4.859749854087959e-10 0.0 0.010031046839727904 0.010131131137028744 0.0 1.9802152195291127e-18 0.0 0.01 0.0 1.9802152195291127e-18 0.0 0.010036263709016856 0.01013122711723597 0.0 -5.9489185630052054e-12 0.0 0.01 0.0 -5.948918563005102e-12 0.0 0.01003613734657685 0.0101315094063631 0.0 -1.607537069712431e-11 0.0 0.01 0.0 -1.6075370697124104e-11 0.0 0.010035797758533431 0.010131955272621057 0.0 -2.1596539485286762e-11 0.0 0.01 0.0 -2.1596539485286762e-11 0.0 0.010035361484738404 0.010132541426169026 0.0 -3.556431966222704e-11 0.0 0.01 0.0 -3.556431966222704e-11 0.0 0.010034911979599647 0.01013322215767011 0.0 -9.554320178227442e-11 0.0 0.01 0.0 -9.554320178227607e-11 0.0 0.010034446217351087 0.010133958392679861 0.0 -2.424890517098892e-10 0.0 0.01 0.0 -2.424890517098892e-10 0.0 0.010033851768763508 0.010134697390576571 0.0 -5.018962444231294e-10 0.0 0.01 0.0 -5.018962444231294e-10 0.0 0.010032949740281877 0.010141873235594377 0.0 1.1664876500505694e-19 0.0 0.01 0.0 1.1664876500505694e-19 0.0 0.010038229360483927 0.010141943545893668 0.0 -9.836704071407193e-12 0.0 0.01 0.0 -9.836704071406986e-12 0.0 0.010038068331535544 0.010142148330364168 0.0 -3.3960246230737125e-11 0.0 0.01 0.0 -3.3960246230737125e-11 0.0 0.010037644099842938 0.010142465702992275 0.0 -6.386687729687702e-11 0.0 0.01 0.0 -6.386687729687702e-11 0.0 0.010037079720938312 0.01014286355632635 0.0 -9.812530530580994e-11 0.0 0.01 0.0 -9.812530530580994e-11 0.0 0.010036477424037626 0.010143304348595832 0.0 -1.4147213149328487e-10 0.0 0.01 0.0 -1.4147213149328652e-10 0.0 0.010035843142765313 0.010143733925896197 0.0 -1.9622801198464646e-10 0.0 0.01 0.0 -1.9622801198464977e-10 0.0 0.010035060477369974 0.010144072846210876 0.0 -2.5746499341193614e-10 0.0 0.01 0.0 -2.5746499341193945e-10 0.0 0.010033944505486357 0.010142399972486959 0.0 9.023267854037036e-19 0.0 0.01 0.0 9.023267854037036e-19 0.0 0.010039132307968691 0.010142438680296505 0.0 -6.7181535503194525e-12 0.0 0.01 0.0 -6.7181535503194525e-12 0.0 0.010038950039740152 0.010142551258897549 0.0 -2.3939172436435313e-11 0.0 0.01 0.0 -2.3939172436435727e-11 0.0 0.010038463938503371 0.010142717890454506 0.0 -4.5797967607813357e-11 0.0 0.01 0.0 -4.5797967607813357e-11 0.0 0.010037811024979847 0.010142922669661231 0.0 -6.651285971034775e-11 0.0 0.01 0.0 -6.651285971034858e-11 0.0 0.010037105910219868 0.010143138209912944 0.0 -7.993986398503631e-11 0.0 0.01 0.0 -7.993986398503797e-11 0.0 0.010036364903500409 0.010143317602473013 0.0 -7.878630833794248e-11 0.0 0.01 0.0 -7.878630833794165e-11 0.0 0.010035483876208322 0.010143364461085285 0.0 -5.558573917671402e-11 0.0 0.01 0.0 -5.558573917671402e-11 0.0 0.010034293756067954 0.010137183743749984 0.0 -1.8675483759838998e-18 0.0 0.01 0.0 -1.8675483759838998e-18 0.0 0.010039201464235354 0.010137196504872088 0.0 -1.8600827833433127e-12 0.0 0.01 0.0 -1.8600827833433644e-12 0.0 0.010039009782964452 0.010137236142787257 0.0 -6.7300205508198e-12 0.0 0.01 0.0 -6.7300205508198e-12 0.0 0.010038500507451158 0.010137298699759649 0.0 -1.2844678902721851e-11 0.0 0.01 0.0 -1.2844678902721645e-11 0.0 0.010037814008570619 0.01013738162469215 0.0 -1.7469958890492067e-11 0.0 0.01 0.0 -1.746995889049248e-11 0.0 0.0100370757773963 0.010137483877269286 0.0 -1.6438423399780756e-11 0.0 0.01 0.0 -1.643842339978055e-11 0.0 0.010036315518996912 0.01013757800654895 0.0 -5.321430783844826e-12 0.0 0.01 0.0 -5.321430783844826e-12 0.0 0.010035435010043127 0.010137567327666496 0.0 1.8001082138735437e-11 0.0 0.01 0.0 1.8001082138735644e-11 0.0 0.010034280470340988 0.010129614325707316 0.0 6.41175010880085e-19 0.0 0.01 0.0 6.41175010880085e-19 0.0 0.01003871982836471 0.010129619418724468 0.0 4.918505556219073e-13 0.0 0.01 0.0 4.918505556219073e-13 0.0 0.01003853161413209 0.01012963766010403 0.0 1.6684519178194936e-12 0.0 0.01 0.0 1.6684519178194936e-12 0.0 0.01003803475109824 0.010129683341939954 0.0 3.067301847233314e-12 0.0 0.01 0.0 3.067301847233262e-12 0.0 0.010037370544693391 0.010129770653653003 0.0 5.0075355834962505e-12 0.0 0.01 0.0 5.0075355834962505e-12 0.0 0.010036668960286472 0.010129925949350067 0.0 9.396910618170141e-12 0.0 0.01 0.0 9.396910618170141e-12 0.0 0.010035961609630325 0.010130141701645124 0.0 1.8401498450363895e-11 0.0 0.01 0.0 1.8401498450363895e-11 0.0 0.010035157694179767 0.010130340677917262 0.0 2.9268609198038527e-11 0.0 0.01 0.0 2.9268609198038527e-11 0.0 0.010034105336051964 0.010120729781174374 0.0 -1.3045805953057723e-18 0.0 0.01 0.0 -1.3045805953057723e-18 0.0 0.010037912266275303 0.010120748026403887 0.0 4.3805666861714234e-13 0.0 0.01 0.0 4.3805666861714234e-13 0.0 0.010037737447439028 0.01012080773875403 0.0 1.7406369167961879e-12 0.0 0.01 0.0 1.7406369167962137e-12 0.0 0.010037279684834984 0.010120932816746307 0.0 4.058594249117319e-12 0.0 0.01 0.0 4.058594249117422e-12 0.0 0.010036680334517913 0.010121159606946843 0.0 8.257849330021617e-12 0.0 0.01 0.0 8.257849330021824e-12 0.0 0.010036058852632463 0.010121527117196199 0.0 1.5694610362968544e-11 0.0 0.01 0.0 1.5694610362968544e-11 0.0 0.01003545325265418 0.010122047164125774 0.0 2.560898706925331e-11 0.0 0.01 0.0 2.5608987069253725e-11 0.0 0.010034758991853736 0.010122658412469584 0.0 3.00476000953801e-11 0.0 0.01 0.0 3.004760009537969e-11 0.0 0.010033825150364304 0.010109629860187479 0.0 2.769194998616757e-18 0.0 0.01 0.0 2.769194998616757e-18 0.0 0.010036905956708683 0.010109678784969753 0.0 -1.2969024917094628e-13 0.0 0.01 0.0 -1.2969024917094628e-13 0.0 0.010036749440124093 0.010109833158421762 0.0 1.7505416344335801e-13 0.0 0.01 0.0 1.7505416344335801e-13 0.0 0.01003634069135489 0.010110122808551303 0.0 2.6847112885397484e-12 0.0 0.01 0.0 2.6847112885398e-12 0.0 0.010035820450572401 0.010110585029287095 0.0 9.436831950524417e-12 0.0 0.01 0.0 9.436831950524417e-12 0.0 0.010035302766720999 0.010111271423894065 0.0 2.03431291644252e-11 0.0 0.01 0.0 2.0343129164425613e-11 0.0 0.010034809818578353 0.0101121962956344 0.0 2.975491724377818e-11 0.0 0.01 0.0 2.975491724377818e-11 0.0 0.010034231116600664 0.010113311276320088 0.0 2.7108898012562903e-11 0.0 0.01 0.0 2.710889801256249e-11 0.0 0.01003339307296397 0.010094916520160454 0.0 -4.726436483815836e-19 0.0 0.01 0.0 -4.726436483815836e-19 0.0 0.01003573311991647 0.010095008902827066 0.0 -3.9775121066963054e-14 0.0 0.01 0.0 -3.9775121066963054e-14 0.0 0.010035594901576182 0.010095287249233547 0.0 8.517773470350057e-13 0.0 0.01 0.0 8.517773470350057e-13 0.0 0.010035234196296195 0.010095779079980768 0.0 4.850139954397783e-12 0.0 0.01 0.0 4.850139954397783e-12 0.0 0.010034787133394106 0.010096514748047737 0.0 1.3495832151754274e-11 0.0 0.01 0.0 1.3495832151754274e-11 0.0 0.010034367257906468 0.010097542647383911 0.0 2.3923117350962255e-11 0.0 0.01 0.0 2.3923117350961427e-11 0.0 0.01003398051995043 0.010098874066255996 0.0 2.7663134548541254e-11 0.0 0.01 0.0 2.7663134548541254e-11 0.0 0.010033498625002125 0.010100478245119835 0.0 1.9425632776907745e-11 0.0 0.01 0.0 1.9425632776907745e-11 0.0 0.010032737714818014 0.010076294990629238 0.0 4.218170669192637e-18 0.0 0.01 0.0 4.218170669192637e-18 0.0 0.010034389990760872 0.010076422876009957 0.0 6.758685228107793e-13 0.0 0.01 0.0 6.758685228107793e-13 0.0 0.010034263699080396 0.010076819044669458 0.0 3.3468455017997106e-12 0.0 0.01 0.0 3.3468455017996072e-12 0.0 0.010033943040670627 0.010077493621135627 0.0 8.852643299509105e-12 0.0 0.01 0.0 8.852643299509519e-12 0.0 0.010033556806305683 0.010078468220144063 0.0 1.6035833672693203e-11 0.0 0.01 0.0 1.6035833672693203e-11 0.0 0.010033216015638294 0.010079771112472338 0.0 1.9026749016509842e-11 0.0 0.01 0.0 1.902674901651067e-11 0.0 0.010032912272551426 0.010081418203060537 0.0 1.1012175852995076e-11 0.0 0.01 0.0 1.1012175852995076e-11 0.0 0.010032515301980268 0.010083392005145391 0.0 1.1268951903117679e-12 0.0 0.01 0.0 1.1268951903118196e-12 0.0 0.010031815239901423 0.010055395421508479 0.0 -4.646728897321126e-18 0.0 0.01 0.0 -4.646728897321126e-18 0.0 0.010032882177481658 0.01005555179528577 0.0 1.0863895349972034e-12 0.0 0.01 0.0 1.0863895349972034e-12 0.0 0.010032765334425355 0.01005601846898817 0.0 4.15410696194918e-12 0.0 0.01 0.0 4.15410696194918e-12 0.0 0.010032473396109621 0.010056802132770833 0.0 7.742113725295887e-12 0.0 0.01 0.0 7.742113725295473e-12 0.0 0.010032132261469099 0.010057904331693247 0.0 7.223702289829747e-12 0.0 0.01 0.0 7.223702289829747e-12 0.0 0.010031852241028798 0.010059339477931526 0.0 -5.764944231866221e-12 0.0 0.01 0.0 -5.764944231866221e-12 0.0 0.010031617066207112 0.01006112872437533 0.0 -3.4004677902300416e-11 0.0 0.01 0.0 -3.400467790230207e-11 0.0 0.010031282882919523 0.010063278701283231 0.0 -4.967911225086489e-11 0.0 0.01 0.0 -4.967911225086489e-11 0.0 0.010030645195805474 0.010035068864987513 0.0 1.5380200615172168e-17 0.0 0.01 0.0 1.5380200615172168e-17 0.0 0.010031233119167106 0.010035227778944429 0.0 5.256369573184938e-13 0.0 0.01 0.0 5.25636957318287e-13 0.0 0.010031125670345335 0.01003570643600411 0.0 1.0766804101250987e-12 0.0 0.01 0.0 1.0766804101250987e-12 0.0 0.01003085708862829 0.01003649814925729 0.0 -2.0824111754404423e-12 0.0 0.01 0.0 -2.082411175440856e-12 0.0 0.010030556990986995 0.010037593735699379 0.0 -1.610724060682504e-11 0.0 0.01 0.0 -1.610724060682835e-11 0.0 0.010030322916368654 0.010039000424302552 0.0 -5.073801109191046e-11 0.0 0.01 0.0 -5.073801109191046e-11 0.0 0.010030140118465036 0.01004073733431578 0.0 -1.065936138552538e-10 0.0 0.01 0.0 -1.0659361385524057e-10 0.0 0.0100298656628765 0.010042856435230334 0.0 -1.4360442397245263e-10 0.0 0.01 0.0 -1.4360442397245263e-10 0.0 0.010029285848625412 0.010017798404968538 0.0 -2.6565313003421148e-17 0.0 0.01 0.0 -2.6565313003421148e-17 0.0 0.010029494729573853 0.010017946144276741 0.0 -5.878564256392368e-14 0.0 0.01 0.0 -5.878564256392368e-14 0.0 0.010029398686096988 0.010018382111360477 0.0 -2.331272181453949e-12 0.0 0.01 0.0 -2.331272181453949e-12 0.0 0.010029159295616914 0.010019098524049868 0.0 -1.255406355788643e-11 0.0 0.01 0.0 -1.2554063557888084e-11 0.0 0.010028898739622151 0.010020082283137118 0.0 -3.88546617401533e-11 0.0 0.01 0.0 -3.8854661740159916e-11 0.0 0.010028704672395026 0.010021332719088021 0.0 -9.077159188625546e-11 0.0 0.01 0.0 -9.077159188628193e-11 0.0 0.010028564777489079 0.010022881495510933 0.0 -1.7003356026490854e-10 0.0 0.01 0.0 -1.7003356026490854e-10 0.0 0.010028330388476113 0.010024810781720076 0.0 -2.386959566855826e-10 0.0 0.01 0.0 -2.386959566857944e-10 0.0 0.010027803022861709 0.010004772965005862 0.0 -2.3745576214219355e-18 0.0 0.01 0.0 -2.3745576214219355e-18 0.0 0.010027725732645596 0.010004898146426888 0.0 6.792363177051739e-13 0.0 0.01 0.0 6.792363177051739e-13 0.0 0.010027643503464597 0.01000526735883943 0.0 -8.080157592725153e-13 0.0 0.01 0.0 -8.080157592725153e-13 0.0 0.01002743917447325 0.010005868912580202 0.0 -1.2583979799139784e-11 0.0 0.01 0.0 -1.2583979799139784e-11 0.0 0.010027219634296416 0.010006693714879502 0.0 -4.250133205327253e-11 0.0 0.01 0.0 -4.250133205327253e-11 0.0 0.010027063570416246 0.010007742382399498 0.0 -9.615163000264651e-11 0.0 0.01 0.0 -9.615163000263989e-11 0.0 0.010026950862145646 0.01000905428217524 0.0 -1.7580023038288013e-10 0.0 0.01 0.0 -1.758002303829066e-10 0.0 0.010026737704703264 0.010010741883452568 0.0 -2.5849402873023926e-10 0.0 0.01 0.0 -2.5849402873023926e-10 0.0 0.01002623372131527 0.009995874554300302 0.0 4.053696542364474e-18 0.0 0.01 0.0 4.053696542364474e-18 0.0 0.010025976366313494 0.00999597493148136 0.0 2.659458769899238e-12 0.0 0.01 0.0 2.659458769899238e-12 0.0 0.010025909448188939 0.009996277080052426 0.0 5.3107651840886846e-12 0.0 0.01 0.0 5.3107651840886846e-12 0.0 0.010025745081194224 0.009996772063608952 0.0 -2.9504478345716584e-12 0.0 0.01 0.0 -2.9504478345718652e-12 0.0 0.010025567924595679 0.009997450974960652 0.0 -2.816331186549173e-11 0.0 0.01 0.0 -2.816331186549173e-11 0.0 0.01002543753205282 0.009998326420224158 0.0 -6.597289382806633e-11 0.0 0.01 0.0 -6.597289382806302e-11 0.0 0.010025328808312226 0.009999445046199481 0.0 -1.1157838024650268e-10 0.0 0.01 0.0 -1.1157838024649606e-10 0.0 0.010025106434439553 0.010000922977767477 0.0 -1.6096244032457693e-10 0.0 0.01 0.0 -1.6096244032457693e-10 0.0 0.010024590910434103 0.009990200922130668 0.0 -7.274833534668139e-18 0.0 0.01 0.0 -7.274833534668139e-18 0.0 0.010024277071126712 0.00999028617212173 0.0 4.164368481302745e-12 0.0 0.01 0.0 4.164368481302745e-12 0.0 0.010024226907922568 0.009990537447949286 0.0 9.689844085448256e-12 0.0 0.01 0.0 9.689844085447843e-12 0.0 0.01002409853182689 0.009990954787198785 0.0 3.7398669568094224e-12 0.0 0.01 0.0 3.7398669568094224e-12 0.0 0.010023955908696218 0.0099915462320249 0.0 -1.5001654103959166e-11 0.0 0.01 0.0 -1.5001654103959993e-11 0.0 0.010023831017733967 0.009992326840650347 0.0 -2.6672486293012418e-11 0.0 0.01 0.0 -2.6672486293012418e-11 0.0 0.01002369480126094 0.009993346146960768 0.0 -9.047775950815782e-12 0.0 0.01 0.0 -9.047775950815368e-12 0.0 0.01002342580892238 0.00999471169788072 0.0 2.8082271702870974e-11 0.0 0.01 0.0 2.8082271702872628e-11 0.0 0.010022866291654992 0.009986678666049117 0.0 1.9956564247940894e-18 0.0 0.01 0.0 1.9956564247940894e-18 0.0 0.010022639651648211 0.009986753865572039 0.0 3.3478342742106026e-12 0.0 0.01 0.0 3.3478342742106026e-12 0.0 0.010022600789113097 0.009986984952882324 0.0 5.91815190230711e-12 0.0 0.01 0.0 5.91815190230711e-12 0.0 0.010022499557352049 0.009987373952879663 0.0 -3.4010959211179584e-12 0.0 0.01 0.0 -3.4010959211179584e-12 0.0 0.010022372203998674 0.009987943339563895 0.0 -1.6724312164970603e-11 0.0 0.01 0.0 -1.672431216497143e-11 0.0 0.010022226735159429 0.009988717124260258 0.0 3.210317679864686e-12 0.0 0.01 0.0 3.210317679864686e-12 0.0 0.010022028122536736 0.009989747289294087 0.0 9.8208108426357e-11 0.0 0.01 0.0 9.8208108426357e-11 0.0 0.010021676728927611 0.009991113858575644 0.0 2.503772433146842e-10 0.0 0.01 0.0 2.503772433146842e-10 0.0 0.010021052645958642 0.009984481199867735 0.0 -6.106774765968742e-19 0.0 0.01 0.0 -6.106774765968742e-19 0.0 0.010021060495334829 0.009984556847447618 0.0 -2.4261137244844175e-13 0.0 0.01 0.0 -2.4261137244844175e-13 0.0 0.010021027588458036 0.009984787782275005 0.0 -6.172566531922717e-12 0.0 0.01 0.0 -6.172566531922717e-12 0.0 0.010020935209417107 0.009985196436825357 0.0 -2.090115951889645e-11 0.0 0.01 0.0 -2.090115951889645e-11 0.0 0.01002079221814005 0.009985810259553344 0.0 -2.1919365082250525e-11 0.0 0.01 0.0 -2.1919365082251353e-11 0.0 0.010020592734906696 0.009986662231942485 0.0 4.202890433013724e-11 0.0 0.01 0.0 4.202890433013724e-11 0.0 0.010020302863987304 0.009987794382985724 0.0 2.177228425135961e-10 0.0 0.01 0.0 2.177228425135961e-10 0.0 0.010019853417608353 0.009989265808200825 0.0 6.538391506818926e-10 0.0 0.01 0.0 6.538391506818926e-10 0.0 0.010019171189592073 0.009983165605145 0.0 6.406100974211041e-19 0.0 0.01 0.0 6.406100974211041e-19 0.0 0.010019513518365346 0.00998324968017317 0.0 -4.5001402866984616e-12 0.0 0.01 0.0 -4.5001402866984616e-12 0.0 0.010019478162380649 0.009983511868605433 0.0 -1.735097009237966e-11 0.0 0.01 0.0 -1.735097009237966e-11 0.0 0.010019369129495985 0.00998397908287456 0.0 -2.612219888448055e-11 0.0 0.01 0.0 -2.6122198884479722e-11 0.0 0.010019185421160152 0.009984687244022903 0.0 7.754603958963254e-12 0.0 0.01 0.0 7.754603958963254e-12 0.0 0.010018910908428342 0.009985681312540578 0.0 1.370559240873864e-10 0.0 0.01 0.0 1.3705592408739302e-10 0.0 0.010018521530281009 0.009986988439236151 0.0 3.8461577149425074e-10 0.0 0.01 0.0 3.846157714942772e-10 0.0 0.010017986913232505 0.009988606501396274 0.0 3.9231389483786915e-09 0.0 0.01 0.0 3.92313894837848e-09 0.0 0.010017293305553803 0.009982605490832493 0.0 1.4128619272584392e-19 0.0 0.01 0.0 1.4128619272584392e-19 0.0 0.010017959867926368 0.009982705468801686 0.0 -4.564549460157774e-12 0.0 0.01 0.0 -4.564549460157774e-12 0.0 0.010017916686376803 0.009983022831709215 0.0 -9.19148287490636e-12 0.0 0.01 0.0 -9.19148287490636e-12 0.0 0.010017778247781314 0.009983584011361511 0.0 1.546991607973817e-11 0.0 0.01 0.0 1.5469916079739e-11 0.0 0.010017539688418153 0.009984441883712508 0.0 1.1351408881306631e-10 0.0 0.01 0.0 1.135140888130597e-10 0.0 0.010017188264120498 0.009985625553217303 0.0 3.154955882991322e-10 0.0 0.01 0.0 3.1549558829914543e-10 0.0 0.010016726925098281 0.009987132877103191 0.0 1.7484433910376197e-09 0.0 0.01 0.0 1.7484433910377256e-09 0.0 0.010016157224195788 0.00998882426259211 0.0 2.1703806750614953e-08 0.0 0.01 0.0 2.170380675061326e-08 0.0 0.010015542510569334 0.009982824849416136 0.0 -9.614678127590685e-19 0.0 0.01 0.0 -9.614678127590685e-19 0.0 0.010016375083867747 0.00998294970622407 0.0 5.1297789243297965e-12 0.0 0.01 0.0 5.1297789243297965e-12 0.0 0.01001631865805433 0.009983344204930715 0.0 3.4313550623211473e-11 0.0 0.01 0.0 3.4313550623211473e-11 0.0 0.010016148883909223 0.009984041781154673 0.0 1.2080140503946664e-10 0.0 0.01 0.0 1.2080140503946664e-10 0.0 0.010015865326577427 0.00998508045546514 0.0 2.9161229100990404e-10 0.0 0.01 0.0 2.9161229100990404e-10 0.0 0.01001547333968536 0.009986464033046491 0.0 1.5752440285399257e-09 0.0 0.01 0.0 1.575244028539714e-09 0.0 0.010014997069480114 0.009988080345682398 0.0 1.58122072163888e-08 0.0 0.01 0.0 1.58122072163888e-08 0.0 0.010014488928672573 0.009989637131691318 0.0 8.360257808458997e-08 0.0 0.01 0.0 8.360257808458997e-08 0.0 0.010014054474859733 0.009983910414684955 0.0 2.6501886763614315e-18 0.0 0.01 0.0 2.6501886763614315e-18 0.0 0.010014753787022587 0.009984071637893704 0.0 2.3682360174938187e-11 0.0 0.01 0.0 2.3682360174938187e-11 0.0 0.010014691512777934 0.009984559833571577 0.0 1.0396231723767472e-10 0.0 0.01 0.0 1.039623172376681e-10 0.0 0.010014510020114194 0.00998540700558964 0.0 3.6597984346653623e-10 0.0 0.01 0.0 3.659798434665627e-10 0.0 0.010014219722674297 0.009986601974246837 0.0 2.8541622778009315e-09 0.0 0.01 0.0 2.8541622778009315e-09 0.0 0.010013849016257213 0.009988051947609633 0.0 1.8626062364552827e-08 0.0 0.01 0.0 1.8626062364552827e-08 0.0 0.010013453852350572 0.00998952298914858 0.0 7.971609412592203e-08 0.0 0.01 0.0 7.971609412590848e-08 0.0 0.010013117566464665 0.009990677561151405 0.0 2.4141268428388117e-07 0.0 0.01 0.0 2.4141268428388117e-07 0.0 0.010012913178252628 0.009985926266346768 0.0 -6.580193781024492e-19 0.0 0.01 0.0 -6.580193781024492e-19 0.0 0.010013137644378787 0.009986113478969346 0.0 7.817598604923067e-11 0.0 0.01 0.0 7.817598604923067e-11 0.0 0.01001308373288856 0.009986674184012164 0.0 1.074913949767168e-09 0.0 0.01 0.0 1.074913949767274e-09 0.0 0.010012923961212356 0.0099875816706039 0.0 6.71619859688757e-09 0.0 0.01 0.0 6.7161985968871465e-09 0.0 0.010012692072486139 0.00998874104333067 0.0 2.9421793943055832e-08 0.0 0.01 0.0 2.9421793943057526e-08 0.0 0.010012434755205827 0.009989973600882702 0.0 9.644486785365575e-08 0.0 0.01 0.0 9.644486785365575e-08 0.0 0.010012214744998648 0.009990998179257497 0.0 2.5466345622080356e-07 0.0 0.01 0.0 2.5466345622079e-07 0.0 0.010012095168337568 0.00999152932066096 0.0 5.513705432388894e-07 0.0 0.01 0.0 5.513705432388352e-07 0.0 0.010012100071888633 0.009988674768224083 0.0 3.186313876688511e-18 0.0 0.01 0.0 3.186313876688511e-18 0.0 0.010011615908097057 0.009988857650498678 0.0 1.5085866223814107e-09 0.0 0.01 0.0 1.5085866223813048e-09 0.0 0.010011582592434811 0.009989373960952093 0.0 1.0949795474166158e-08 0.0 0.01 0.0 1.0949795474167005e-08 0.0 0.010011495391283718 0.009990133621324941 0.0 4.303107973064303e-08 0.0 0.01 0.0 4.303107973064303e-08 0.0 0.010011387120766584 0.00999098121780799 0.0 1.2524661346793116e-07 0.0 0.01 0.0 1.2524661346793116e-07 0.0 0.010011307703094966 0.009991693374646492 0.0 2.961795887782817e-07 0.0 0.01 0.0 2.961795887782817e-07 0.0 0.010011295974201865 0.009992034081828402 0.0 5.960886906840887e-07 0.0 0.01 0.0 5.96088690684143e-07 0.0 0.01001137046696188 0.009991883552794605 0.0 1.0343479403711938e-06 0.0 0.01 0.0 1.0343479403711938e-06 0.0 0.010011511707608278 0.009991619546583784 0.0 5.323326865594628e-18 0.0 0.01 0.0 5.323326865594628e-18 0.0 0.01001030495696275 0.009991740244825156 0.0 8.152322255544582e-09 0.0 0.01 0.0 8.152322255543735e-09 0.0 0.01001030400403293 0.009992068945516245 0.0 4.3575779230093335e-08 0.0 0.01 0.0 4.357577923008995e-08 0.0 0.010010317696574653 0.009992469018679534 0.0 1.3602202883479747e-07 0.0 0.01 0.0 1.3602202883479747e-07 0.0 0.010010364243163662 0.009992751404708546 0.0 3.24098185970807e-07 0.0 0.01 0.0 3.24098185970807e-07 0.0 0.010010461709963355 0.00999273847854728 0.0 6.397718718922809e-07 0.0 0.01 0.0 6.397718718922809e-07 0.0 0.01001061799865624 0.009992359442945672 0.0 1.0868726370554666e-06 0.0 0.01 0.0 1.0868726370554666e-06 0.0 0.010010823874976612 0.009991934164305433 0.0 1.6225068021354745e-06 0.0 0.01 0.0 1.622506802135366e-06 0.0 0.010011118509872569 0.009994100225211525 0.0 4.959667743855051e-18 0.0 0.01 0.0 4.959667743855051e-18 0.0 0.01000929078177315 0.009994123683797158 0.0 2.191235284719862e-08 0.0 0.01 0.0 2.191235284719862e-08 0.0 0.010009325528693616 0.009994141653666647 0.0 1.0356157496569708e-07 0.0 0.01 0.0 1.0356157496568352e-07 0.0 0.010009430825921711 0.009994023873417864 0.0 2.8318314743499976e-07 0.0 0.01 0.0 2.8318314743502686e-07 0.0 0.010009599266225085 0.009993638129812665 0.0 5.979364461227072e-07 0.0 0.01 0.0 5.97936446122653e-07 0.0 0.010009827020126337 0.009993025968759457 0.0 1.0529887099362725e-06 0.0 0.01 0.0 1.0529887099362725e-06 0.0 0.010010125875287944 0.009992646505134537 0.0 1.6039054990572236e-06 0.0 0.01 0.0 1.6039054990572236e-06 0.0 0.01001055025790682 0.009993248023210919 0.0 2.126738841814633e-06 0.0 0.01 0.0 2.126738841814633e-06 0.0 0.010011107556357684 0.009995536490217451 0.0 -2.433700817947991e-17 0.0 0.01 0.0 -2.433700817947991e-17 0.0 0.010008592612273102 0.009995455100513568 0.0 3.8139032198330043e-08 0.0 0.01 0.0 3.8139032198330043e-08 0.0 0.01000865382056192 0.009995184984188553 0.0 1.6926286927374337e-07 0.0 0.01 0.0 1.6926286927368916e-07 0.0 0.010008823669136128 0.009994710228026173 0.0 4.3054388135260096e-07 0.0 0.01 0.0 4.3054388135260096e-07 0.0 0.010009092965040042 0.00999422411589986 0.0 8.48087954360391e-07 0.0 0.01 0.0 8.48087954360391e-07 0.0 0.010009493108474644 0.00999422579380668 0.0 1.3872681609624488e-06 0.0 0.01 0.0 1.3872681609624488e-06 0.0 0.010010053027335817 0.009995014259028968 0.0 1.8760837187953988e-06 0.0 0.01 0.0 1.8760837187956157e-06 0.0 0.010010645902996516 0.00999665628220829 0.0 2.0079002387473135e-06 0.0 0.01 0.0 2.0079002387470967e-06 0.0 0.01001111972300446 0.009997178694414079 0.0 1.3142586848933753e-17 0.0 0.01 0.0 1.3142586848933753e-17 0.0 0.010008153511131736 0.009997130236135222 0.0 4.695991710760612e-08 0.0 0.01 0.0 4.695991710760612e-08 0.0 0.010008238219398247 0.009996992363640081 0.0 2.0357346583633898e-07 0.0 0.01 0.0 2.0357346583633898e-07 0.0 0.010008495169140997 0.009996852523347697 0.0 4.949429469019019e-07 0.0 0.01 0.0 4.949429469018477e-07 0.0 0.010008921160554879 0.009996837120437549 0.0 8.91752744286e-07 0.0 0.01 0.0 8.91752744286e-07 0.0 0.010009478929534943 0.00999730032634055 0.0 1.2459424479117909e-06 0.0 0.01 0.0 1.2459424479116825e-06 0.0 0.010010067665616105 0.009997885407811774 0.0 1.25722210562269e-06 0.0 0.01 0.0 1.25722210562269e-06 0.0 0.010010360565488064 0.009998869263992977 0.0 6.94068882553826e-07 0.0 0.01 0.0 6.940688825537175e-07 0.0 0.010010604817568786 0.009999577026837458 0.0 -2.411798563289099e-17 0.0 0.01 0.0 -2.411798563289099e-17 0.0 0.010007883813386385 0.009999417551035788 0.0 3.108577775986815e-08 0.0 0.01 0.0 3.108577775986815e-08 0.0 0.010007974378619977 0.009998995653750892 0.0 1.271726825271798e-07 0.0 0.01 0.0 1.271726825271798e-07 0.0 0.010008246040796651 0.009998445873503937 0.0 2.7252809092472236e-07 0.0 0.01 0.0 2.7252809092466815e-07 0.0 0.010008676841202277 0.009997823232390221 0.0 3.7815336380796986e-07 0.0 0.01 0.0 3.781533638080783e-07 0.0 0.010009150265201902 0.009997815227093962 0.0 2.696670225558757e-07 0.0 0.01 0.0 2.696670225558486e-07 0.0 0.01000960658614804 0.009997073293265093 0.0 -2.2986436240283385e-07 0.0 0.01 0.0 -2.2986436240280675e-07 0.0 0.01000961099586038 0.009996705628647755 0.0 -2.1838808668926882e-17 0.0 0.01 0.0 -2.1838808668926882e-17 0.0 0.010007709606548919 0.009996513324388511 0.0 -5.401068258296813e-09 0.0 0.01 0.0 -5.401068258296813e-09 0.0 0.010007776160910992 0.00999599590638197 0.0 -3.4884295392502966e-08 0.0 0.01 0.0 -3.488429539249958e-08 0.0 0.01000797142159602 0.009995287835404078 0.0 -1.3255286470971993e-07 0.0 0.01 0.0 -1.3255286470971993e-07 0.0 0.010008276867282517 0.009994446151528606 0.0 -3.769018568419301e-07 0.0 0.01 0.0 -3.769018568419301e-07 0.0 0.01000870377144738 0.009996120259027057 0.0 8.637428952958721e-14 0.0 0.01 0.0 8.637428952953551e-14 0.0 0.010000136702803098 0.00999624961086831 0.0 9.672510360609846e-14 0.0 0.01 0.0 9.672510360604676e-14 0.0 0.0100001367028031 0.009996436405786058 0.0 2.441053858299975e-14 0.0 0.01 0.0 2.441053858299975e-14 0.0 0.010000117702078034 0.00999669963458106 0.0 9.980089181673103e-15 0.0 0.01 0.0 9.980089181673103e-15 0.0 0.010000076150869834 0.009997053802523592 0.0 4.787419218837953e-13 0.0 0.01 0.0 4.787419218837953e-13 0.0 0.010000005850005133 0.009997496440485474 0.0 1.9394213844513606e-12 0.0 0.01 0.0 1.9394213844513606e-12 0.0 0.009999917001033337 0.009998012092923336 0.0 4.361415019595464e-12 0.0 0.01 0.0 4.361415019602081e-12 0.0 0.009999829504360415 0.009995468082603907 0.0 -3.517665335672213e-13 0.0 0.01 0.0 -3.517665335671179e-13 0.0 0.010000177754739404 0.009995604399894555 0.0 -6.917328471484079e-13 0.0 0.01 0.0 -6.917328471482011e-13 0.0 0.010000175804635985 0.009995807637859514 0.0 -1.2799364470507795e-12 0.0 0.01 0.0 -1.2799364470507795e-12 0.0 0.010000154303571365 0.009996102779433642 0.0 -1.944866036474839e-12 0.0 0.01 0.0 -1.944866036474839e-12 0.0 0.01000010060151808 0.00999650533275883 0.0 -2.09104424185334e-12 0.0 0.01 0.0 -2.0910442418549944e-12 0.0 0.010000012200022328 0.009997014337659435 0.0 -9.493313351908925e-13 0.0 0.01 0.0 -9.493313351908925e-13 0.0 0.009999899001530125 0.00999760985719057 0.0 1.6227845037219685e-12 0.0 0.01 0.0 1.6227845037236228e-12 0.0 0.009999786006869155 0.009998236466617218 0.0 4.468264682431829e-12 0.0 0.01 0.0 4.468264682431829e-12 0.0 0.009999709512657924 0.009994949828212907 0.0 -7.088500545955087e-13 0.0 0.01 0.0 -7.088500545955087e-13 0.0 0.010000209956612084 0.009995083128722307 0.0 -1.2328925232497895e-12 0.0 0.01 0.0 -1.2328925232489623e-12 0.0 0.010000207056430682 0.009995292825710683 0.0 -1.9646443583288813e-12 0.0 0.01 0.0 -1.9646443583288813e-12 0.0 0.01000018115492245 0.009995600904509738 0.0 -2.6923308672442332e-12 0.0 0.01 0.0 -2.692330867243406e-12 0.0 0.010000120602181698 0.009996032861976948 0.0 -2.7995839220291266e-12 0.0 0.01 0.0 -2.7995839220282994e-12 0.0 0.010000019050054439 0.009996592242713268 0.0 -1.5855225213702642e-12 0.0 0.01 0.0 -1.585522521369437e-12 0.0 0.009999888001881565 0.009997258128091638 0.0 8.2082018183698e-13 0.0 0.01 0.0 8.208201818365664e-13 0.0 0.009999751509262456 0.009997966620363102 0.0 3.0009342061802208e-12 0.0 0.01 0.0 3.0009342061802208e-12 0.0 0.009999654017956366 0.009994480572976406 0.0 -7.921989946023242e-13 0.0 0.01 0.0 -7.921989946023242e-13 0.0 0.010000227057733046 0.009994606866023513 0.0 -1.1392846853407822e-12 0.0 0.01 0.0 -1.1392846853411958e-12 0.0 0.010000225107600787 0.009994809543923663 0.0 -1.291562365469397e-12 0.0 0.01 0.0 -1.2915623654689834e-12 0.0 0.010000198755925432 0.009995123069988267 0.0 -9.14600584871254e-13 0.0 0.01 0.0 -9.14600584871254e-13 0.0 0.010000134302705533 0.009995575937581987 0.0 4.1568249227913083e-13 0.0 0.01 0.0 4.1568249227892403e-13 0.0 0.010000025900100625 0.009996177193195633 0.0 2.7486908251072553e-12 0.0 0.01 0.0 2.7486908251072553e-12 0.0 0.009999883002053308 0.009996905936576903 0.0 1.0149448449049836e-11 0.0 0.01 0.0 1.0149448449049836e-11 0.0 0.009999733010692876 0.009997697295611395 0.0 2.5469796206664952e-11 0.0 0.01 0.0 2.5469796206638482e-11 0.0 0.00999961702200195 0.0099939899224998 0.0 -5.865848217385271e-13 0.0 0.01 0.0 -5.865848217387339e-13 0.0 0.010000232908136675 0.009994100724327116 0.0 -3.6154144715250397e-13 0.0 0.01 0.0 -3.6154144715250397e-13 0.0 0.010000231958070434 0.009994294885965411 0.0 9.149941660013201e-13 0.0 0.01 0.0 9.149941660011133e-13 0.0 0.010000204106248734 0.00999460536844945 0.0 3.9418388157530374e-12 0.0 0.01 0.0 3.941838815753865e-12 0.0 0.010000142603050285 0.009995072144958107 0.0 5.402416852682933e-11 0.0 0.01 0.0 5.402416852682933e-11 0.0 0.010000033700170356 0.00999571026185766 0.0 4.339510750664388e-10 0.0 0.01 0.0 4.3395107506622704e-10 0.0 0.009999887001915345 0.009996498340102626 0.0 1.2269331771152876e-09 0.0 0.01 0.0 1.226933177115711e-09 0.0 0.009999724511384738 0.00999737053747541 0.0 2.1733480907909676e-09 0.0 0.01 0.0 2.1733480907909676e-09 0.0 0.009999598024239687 0.009993414511016556 0.0 -1.4734926008490257e-13 0.0 0.01 0.0 -1.4734926008485087e-13 0.0 0.010000230007935304 0.00999350882577602 0.0 9.822917210439732e-13 0.0 0.01 0.0 9.822917210439732e-13 0.0 0.01000022705773305 0.009993688979378397 0.0 4.5270736963907365e-12 0.0 0.01 0.0 4.5270736963907365e-12 0.0 0.010000203606218158 0.009993994913493847 0.0 1.8457346253950406e-10 0.0 0.01 0.0 1.8457346253950406e-10 0.0 0.010000145003153832 0.009994461604474147 0.0 1.5650476702398727e-09 0.0 0.01 0.0 1.5650476702402962e-09 0.0 0.010000040050240968 0.00999511508170148 0.0 5.604366546040166e-09 0.0 0.01 0.0 5.604366546040166e-09 0.0 0.009999894501674222 0.009995946466025333 0.0 1.2081064392278939e-08 0.0 0.01 0.0 1.2081064392272163e-08 0.0 0.009999727011200749 0.009996888952449297 0.0 1.9020843053859922e-08 0.0 0.01 0.0 1.9020843053859922e-08 0.0 0.009999592025022194 0.00999273193140883 0.0 4.058068907203596e-13 0.0 0.01 0.0 4.058068907205664e-13 0.0 0.010000227557767145 0.00999280826560252 0.0 2.7989564879494725e-12 0.0 0.01 0.0 2.798956487951127e-12 0.0 0.010000220207273472 0.009992968423419757 0.0 1.4867227424818336e-10 0.0 0.01 0.0 1.4867227424818336e-10 0.0 0.010000198755925439 0.009993249341866302 0.0 1.9714598159164068e-09 0.0 0.01 0.0 1.9714598159164068e-09 0.0 0.010000146503219998 0.00999368698317722 0.0 9.662986542125095e-09 0.0 0.01 0.0 9.662986542125095e-09 0.0 0.010000048350364683 0.00999430536813455 0.0 2.7511364116488508e-08 0.0 0.01 0.0 2.7511364116481732e-08 0.0 0.009999904001495993 0.009995118077747526 0.0 5.43902876995754e-08 0.0 0.01 0.0 5.4390287699561846e-08 0.0 0.009999731511257387 0.009996103279790265 0.0 7.920475869681136e-08 0.0 0.01 0.0 7.920475869683846e-08 0.0 0.00999958852633958 0.009991937760447428 0.0 8.943699814806785e-13 0.0 0.01 0.0 8.943699814806785e-13 0.0 0.010000230007935304 0.009991989635181837 0.0 2.9571225354379384e-11 0.0 0.01 0.0 2.9571225354379384e-11 0.0 0.01000021975724378 0.009992118826734089 0.0 1.087603772065984e-09 0.0 0.01 0.0 1.0876037720661957e-09 0.0 0.01000019970598239 0.009992346295863843 0.0 8.257891501819821e-09 0.0 0.01 0.0 8.257891501821515e-09 0.0 0.010000153803558499 0.009992689025533784 0.0 3.252646182947593e-08 0.0 0.01 0.0 3.252646182947593e-08 0.0 0.010000061050717924 0.00999318198023059 0.0 8.467234058223715e-08 0.0 0.01 0.0 8.467234058221005e-08 0.0 0.009999913002211716 0.009993870144768033 0.0 1.6088563868730393e-07 0.0 0.01 0.0 1.6088563868730393e-07 0.0 0.009999728014982867 0.009994827523762776 0.0 2.2811496182598666e-07 0.0 0.01 0.0 2.2811496182587824e-07 0.0 0.009999579534331922 0.009991039557833299 0.0 1.2991655739573504e-12 0.0 0.01 0.0 1.2991655739575572e-12 0.0 0.010000250009375388 0.009991063992122688 0.0 2.2544255724527332e-10 0.0 0.01 0.0 2.2544255724532626e-10 0.0 0.010000237808482668 0.009991140786772667 0.0 3.6280327447845245e-09 0.0 0.01 0.0 3.6280327447853715e-09 0.0 0.01000022460756903 0.009991269446776864 0.0 2.143637268247703e-08 0.0 0.01 0.0 2.143637268247703e-08 0.0 0.01000018455517797 0.009991450976250009 0.0 7.604220035393311e-08 0.0 0.01 0.0 7.604220035393311e-08 0.0 0.010000088852052521 0.009991700848304173 0.0 1.9078920921204376e-07 0.0 0.01 0.0 1.9078920921204376e-07 0.0 0.009999925506298643 0.009992106375672058 0.0 3.595186094449538e-07 0.0 0.01 0.0 3.5951860944489957e-07 0.0 0.009999711031935829 0.009992883643239948 0.0 5.136027215833089e-07 0.0 0.01 0.0 5.136027215834173e-07 0.0 0.009999557069040335 0.009990031425707766 0.0 3.847590083474062e-12 0.0 0.01 0.0 3.847590083473235e-12 0.0 0.010000305664014005 0.009990019461580433 0.0 6.652657286979395e-10 0.0 0.01 0.0 6.652657286979395e-10 0.0 0.010000296863218707 0.009990029930198352 0.0 7.686983796474238e-09 0.0 0.01 0.0 7.686983796473391e-09 0.0 0.010000291512755333 0.009990033918479987 0.0 4.002958994656113e-08 0.0 0.01 0.0 4.002958994654758e-08 0.0 0.01000025586005998 0.009990002016699463 0.0 1.3487784534350422e-07 0.0 0.01 0.0 1.3487784534350422e-07 0.0 0.01000015185619131 0.009989920775953396 0.0 3.3455944570514847e-07 0.0 0.01 0.0 3.3455944570514847e-07 0.0 0.009999945017265805 0.009989888418246069 0.0 6.364652715354227e-07 0.0 0.01 0.0 6.364652715355312e-07 0.0 0.009999665077677359 0.009990255889713261 0.0 9.262468807136239e-07 0.0 0.01 0.0 9.262468807138408e-07 0.0 0.009999459672672158 0.009988902002209041 0.0 1.1985020733497674e-11 0.0 0.01 0.0 1.1985020733499329e-11 0.0 0.010000413125599503 0.009988852168867452 0.0 1.1607175000797805e-09 0.0 0.01 0.0 1.1607175000799922e-09 0.0 0.010000417026085366 0.009988795359787691 0.0 1.1644378441600484e-08 0.0 0.01 0.0 1.1644378441600484e-08 0.0 0.0100004272774037 0.00998867875513915 0.0 5.702543804685426e-08 0.0 0.01 0.0 5.702543804686781e-08 0.0 0.010000403824948342 0.009988440579268183 0.0 1.8770116022532929e-07 0.0 0.01 0.0 1.8770116022532929e-07 0.0 0.01000027396655077 0.009988037033778818 0.0 4.654636377041327e-07 0.0 0.01 0.0 4.654636377040243e-07 0.0 0.009999991532561205 0.009987540943781228 0.0 8.959936546919451e-07 0.0 0.01 0.0 8.959936546918366e-07 0.0 0.009999566148870664 0.009987336852936865 0.0 1.311651359638252e-06 0.0 0.01 0.0 1.3116513596384688e-06 0.0 0.00999917486069716 0.00998764892011735 0.0 1.334960549471807e-11 0.0 0.01 0.0 1.334960549471807e-11 0.0 0.010000588902016758 0.009987564235758363 0.0 1.328677701597646e-09 0.0 0.01 0.0 1.328677701597646e-09 0.0 0.010000613356426566 0.009987448171896656 0.0 1.3091027387884008e-08 0.0 0.01 0.0 1.3091027387885702e-08 0.0 0.01000065241386677 0.0099872454439697 0.0 6.317315727201152e-08 0.0 0.01 0.0 6.317315727201152e-08 0.0 0.010000649013776909 0.009986876884151334 0.0 2.0703065298953915e-07 0.0 0.01 0.0 2.0703065298953915e-07 0.0 0.010000501994236867 0.009986289289258838 0.0 5.160002454429819e-07 0.0 0.01 0.0 5.160002454430361e-07 0.0 0.0100001147919869 0.009985525139944202 0.0 1.0011680340751925e-06 0.0 0.01 0.0 1.0011680340751925e-06 0.0 0.009999514685992552 0.009985030508526423 0.0 1.4767279500054343e-06 0.0 0.01 0.0 1.4767279500052174e-06 0.0 0.009999036966979872 0.009986266841835418 0.0 3.9943184701074494e-12 0.0 0.01 0.0 3.994318470107036e-12 0.0 0.0100008375052005 0.00998615082317245 0.0 9.867450705348247e-10 0.0 0.01 0.0 9.867450705347188e-10 0.0 0.010000899071234977 0.009985996967766463 0.0 1.0858384675567214e-08 0.0 0.01 0.0 1.0858384675567214e-08 0.0 0.010000977193235049 0.009985755992109706 0.0 5.422447039418656e-08 0.0 0.01 0.0 5.4224470394179786e-08 0.0 0.010001010903710052 0.009985358722845016 0.0 1.8054965634863615e-07 0.0 0.01 0.0 1.8054965634863615e-07 0.0 0.01000088782311862 0.0099847554617416 0.0 4.5631727300932123e-07 0.0 0.01 0.0 4.5631727300932123e-07 0.0 0.010000527423016346 0.009984010553960579 0.0 9.024487352721385e-07 0.0 0.01 0.0 9.024487352721385e-07 0.0 0.010000204728703244 0.009983543992111904 0.0 1.3700388947470105e-06 0.0 0.01 0.0 1.370038894746902e-06 0.0 0.010000458313641334 0.009984750951077674 0.0 -5.325040378439734e-13 0.0 0.01 0.0 -5.325040378439734e-13 0.0 0.010001156450575763 0.009984611593479194 0.0 4.1340196488851984e-10 0.0 0.01 0.0 4.1340196488851984e-10 0.0 0.010001254135889108 0.009984440888378819 0.0 6.321910880595264e-09 0.0 0.01 0.0 6.321910880595688e-09 0.0 0.010001383086892503 0.009984201020376237 0.0 3.510979491961144e-08 0.0 0.01 0.0 3.510979491960805e-08 0.0 0.010001479828604328 0.009983848716284383 0.0 1.2231268759749074e-07 0.0 0.01 0.0 1.2231268759749074e-07 0.0 0.010001453419050677 0.009983349195074265 0.0 3.172062538498864e-07 0.0 0.01 0.0 3.172062538498593e-07 0.0 0.01000132057666358 0.009982753778922717 0.0 6.378034356632691e-07 0.0 0.01 0.0 6.378034356632691e-07 0.0 0.01000149989852201 0.00998235047981547 0.0 9.768834532856508e-07 0.0 0.01 0.0 9.768834532856508e-07 0.0 0.01000217420226748 0.009983091481586236 0.0 -1.0813857775753433e-12 0.0 0.01 0.0 -1.0813857775753433e-12 0.0 0.010001528650444402 0.009982939259857373 0.0 4.606947008287227e-11 0.0 0.01 0.0 4.6069470082868964e-11 0.0 0.010001661564027532 0.009982768640510717 0.0 2.2472777879092328e-09 0.0 0.01 0.0 2.2472777879094445e-09 0.0 0.010001832553615617 0.009982557243870996 0.0 1.6048493657436455e-08 0.0 0.01 0.0 1.604849365743476e-08 0.0 0.010001996697899909 0.00998228170278144 0.0 6.18896699919517e-08 0.0 0.01 0.0 6.188966999194493e-08 0.0 0.010002097360229107 0.009981922144026515 0.0 1.6828679051691486e-07 0.0 0.01 0.0 1.682867905169013e-07 0.0 0.010002202381614953 0.009981503960243446 0.0 3.444241588227521e-07 0.0 0.01 0.0 3.444241588227521e-07 0.0 0.010002626051885904 0.009981183286385253 0.0 5.311728564771369e-07 0.0 0.01 0.0 5.31172856477164e-07 0.0 0.01000327359915749 0.009981285665340652 0.0 -1.5296150948275048e-12 0.0 0.01 0.0 -1.5296150948275048e-12 0.0 0.010001933160421932 0.009981130543149752 0.0 -1.4873105251826502e-11 0.0 0.01 0.0 -1.4873105251828157e-11 0.0 0.010002094407797908 0.009980971450979507 0.0 2.967724574812104e-10 0.0 0.01 0.0 2.9677245748118395e-10 0.0 0.010002291787602905 0.009980796955506407 0.0 4.373984718380056e-09 0.0 0.01 0.0 4.373984718380056e-09 0.0 0.01000249653459452 0.009980602088251184 0.0 2.1369984324858186e-08 0.0 0.01 0.0 2.1369984324858186e-08 0.0 0.010002688583952625 0.009980374426648947 0.0 6.448831659512487e-08 0.0 0.01 0.0 6.448831659512826e-08 0.0 0.010002927085297821 0.009980127895326707 0.0 1.3880717682202264e-07 0.0 0.01 0.0 1.3880717682201587e-07 0.0 0.010003358143707487 0.009979915179645726 0.0 2.1844106291878974e-07 0.0 0.01 0.0 2.184410629188033e-07 0.0 0.010003829856216185 0.009979319330868134 0.0 -1.8731366967919936e-12 0.0 0.01 0.0 -1.8731366967919936e-12 0.0 0.010002352379793333 0.009979176722387965 0.0 -1.3550427084874355e-11 0.0 0.01 0.0 -1.3550427084874355e-11 0.0 0.010002523905193168 0.009979034616883152 0.0 -5.634654201914747e-11 0.0 0.01 0.0 -5.634654201915078e-11 0.0 0.010002732069222621 0.009978900466907416 0.0 3.189671869183377e-10 0.0 0.01 0.0 3.189671869183377e-10 0.0 0.010002952457035856 0.00997877625879283 0.0 3.786417813280202e-09 0.0 0.01 0.0 3.78641781327999e-09 0.0 0.010003172408990674 0.009978655036175768 0.0 1.5211029400900233e-08 0.0 0.01 0.0 1.5211029400900233e-08 0.0 0.010003429513462777 0.009978541269931133 0.0 3.733380738399643e-08 0.0 0.01 0.0 3.7333807383994734e-08 0.0 0.010003782895672237 0.009978443901283838 0.0 6.34172939254945e-08 0.0 0.01 0.0 6.341729392549789e-08 0.0 0.010004100170936711 0.00997718630783595 0.0 -1.945555394963779e-12 0.0 0.01 0.0 -1.9455553949639857e-12 0.0 0.010002770701092427 0.009977056204915048 0.0 -1.1776548728299424e-11 0.0 0.01 0.0 -1.1776548728300251e-11 0.0 0.01000294905402518 0.009976942493171593 0.0 -4.9455745022134444e-11 0.0 0.01 0.0 -4.945574502213775e-11 0.0 0.01000315434185342 0.009976850136276317 0.0 -1.42080119664025e-10 0.0 0.01 0.0 -1.42080119664025e-10 0.0 0.010003362545246518 0.00997678558728087 0.0 -1.502369326400597e-10 0.0 0.01 0.0 -1.502369326400597e-10 0.0 0.010003566356928464 0.009976742886326424 0.0 9.687813591425652e-10 0.0 0.01 0.0 9.687813591425652e-10 0.0 0.01000378239489507 0.009976720543024821 0.0 4.310479971685182e-09 0.0 0.01 0.0 4.310479971685394e-09 0.0 0.010004045403472765 0.009976712102270026 0.0 9.225254871424717e-09 0.0 0.01 0.0 9.22525487142514e-09 0.0 0.01000426202319149 0.009974866571912022 0.0 -1.4158896279894515e-12 0.0 0.01 0.0 -1.4158896279894515e-12 0.0 0.010003184620625584 0.009974748965241574 0.0 -9.726248808518055e-12 0.0 0.01 0.0 -9.726248808518469e-12 0.0 0.010003361043733196 0.009974663119960933 0.0 -4.4716437689019174e-11 0.0 0.01 0.0 -4.4716437689019174e-11 0.0 0.010003556095973795 0.009974612507019061 0.0 -1.3520862822872082e-10 0.0 0.01 0.0 -1.3520862822872082e-10 0.0 0.010003752110694228 0.009974599109604597 0.0 -2.9397585073955465e-10 0.0 0.01 0.0 -2.9397585073955465e-10 0.0 0.010003931517309486 0.009974621438658736 0.0 -4.814669022210207e-10 0.0 0.01 0.0 -4.814669022210207e-10 0.0 0.01000409135951441 0.009974665104797923 0.0 -5.30068426482016e-10 0.0 0.01 0.0 -5.300684264820425e-10 0.0 0.01000428595383632 0.00997472018449589 0.0 -1.7905622777758444e-10 0.0 0.01 0.0 -1.7905622777758444e-10 0.0 0.010004448766969161 0.009972352581093935 0.0 -3.330429545955966e-13 0.0 0.01 0.0 -3.330429545955966e-13 0.0 0.010003592284749743 0.009972242005184767 0.0 -7.216690944403522e-12 0.0 0.01 0.0 -7.216690944403522e-12 0.0 0.010003767728297265 0.009972173083048475 0.0 -4.1606405866664255e-11 0.0 0.01 0.0 -4.1606405866664255e-11 0.0 0.010003957447970198 0.009972152753770403 0.0 -1.361543482560658e-10 0.0 0.01 0.0 -1.3615434825605918e-10 0.0 0.010004140770477806 0.009972180520620308 0.0 -3.083662313833775e-10 0.0 0.01 0.0 -3.0836623138336424e-10 0.0 0.010004301123358806 0.00997224845121308 0.0 -5.20724947298765e-10 0.0 0.01 0.0 -5.207249472987914e-10 0.0 0.010004418927313024 0.009972344647273987 0.0 -6.249408537600181e-10 0.0 0.01 0.0 -6.249408537600181e-10 0.0 0.01000457393622122 0.00997245125956272 0.0 -3.8047688785681217e-10 0.0 0.01 0.0 -3.804768878568254e-10 0.0 0.01000471818709402 0.009969633381898128 0.0 1.0377075525793239e-12 0.0 0.01 0.0 1.0377075525793239e-12 0.0 0.010003999948659078 0.009969519428322098 0.0 -4.258037339429911e-12 0.0 0.01 0.0 -4.258037339429704e-12 0.0 0.01000417646497272 0.009969454030643232 0.0 -3.899127555161664e-11 0.0 0.01 0.0 -3.8991275551618295e-11 0.0 0.01000436370462675 0.009969445608308444 0.0 -1.416688219293414e-10 0.0 0.01 0.0 -1.4166882192934801e-10 0.0 0.010004548000766273 0.009969495647199074 0.0 -3.357352409877974e-10 0.0 0.01 0.0 -3.3573524098778415e-10 0.0 0.010004699110171414 0.009969590772712372 0.0 -5.826075247377345e-10 0.0 0.01 0.0 -5.826075247377345e-10 0.0 0.010004797400050214 0.009969718106437334 0.0 -7.155030443139199e-10 0.0 0.01 0.0 -7.155030443139199e-10 0.0 0.010004935801917712 0.009969852381914774 0.0 -4.4650327593424494e-10 0.0 0.01 0.0 -4.465032759342185e-10 0.0 0.010005081971341619 0.009966705024579291 0.0 1.5376289177419255e-12 0.0 0.01 0.0 1.5376289177419772e-12 0.0 0.010004406210493678 0.00996657582625464 0.0 -1.7759443182402702e-12 0.0 0.01 0.0 -1.7759443182402185e-12 0.0 0.010004588606365074 0.009966496626700625 0.0 -3.6920696103246566e-11 0.0 0.01 0.0 -3.6920696103246566e-11 0.0 0.010004782728987742 0.009966480787016393 0.0 -1.5004861344704868e-10 0.0 0.01 0.0 -1.5004861344704868e-10 0.0 0.010004975410745052 0.0099665223663486 0.0 -3.714003692020002e-10 0.0 0.01 0.0 -3.714003692020002e-10 0.0 0.010005136755229106 0.009966618891804654 0.0 -6.593953385943099e-10 0.0 0.01 0.0 -6.593953385942569e-10 0.0 0.010005235058007374 0.009966744626604507 0.0 -8.199936376622361e-10 0.0 0.01 0.0 -8.199936376622096e-10 0.0 0.01000537493037805 0.009966883732458937 0.0 -5.029207478187495e-10 0.0 0.01 0.0 -5.029207478187495e-10 0.0 0.010005524574769022 0.009963574493647383 0.0 -2.6249847471586636e-13 0.0 0.01 0.0 -2.6249847471586636e-13 0.0 0.010004817428908517 0.009963420195743424 0.0 -1.906513650209243e-12 0.0 0.01 0.0 -1.9065136502091396e-12 0.0 0.010004999847272707 0.009963307444116035 0.0 -3.806652363326455e-11 0.0 0.01 0.0 -3.806652363326455e-11 0.0 0.010005207665143666 0.009963254531294837 0.0 -1.636065656674627e-10 0.0 0.01 0.0 -1.6360656566746932e-10 0.0 0.010005419953201748 0.009963259476382626 0.0 -4.162848056204408e-10 0.0 0.01 0.0 -4.162848056204408e-10 0.0 0.010005604808562973 0.009963316839938867 0.0 -7.492697819781421e-10 0.0 0.01 0.0 -7.492697819781421e-10 0.0 0.010005730972845678 0.009963407832439658 0.0 -9.314605379145974e-10 0.0 0.01 0.0 -9.314605379145974e-10 0.0 0.010005893856540118 0.009963519103831475 0.0 -5.28328278511992e-10 0.0 0.01 0.0 -5.28328278511992e-10 0.0 0.010006057249098562 0.009960291275901437 0.0 -6.385949918487314e-12 0.0 0.01 0.0 -6.385949918487314e-12 0.0 0.010005232153451686 0.009960095631010532 0.0 -8.069630741686905e-12 0.0 0.01 0.0 -8.069630741687112e-12 0.0 0.010005410638084886 0.009959928650298757 0.0 -4.766313461652261e-11 0.0 0.01 0.0 -4.7663134616520955e-11 0.0 0.010005627296408309 0.009959804161268314 0.0 -1.8957822792775318e-10 0.0 0.01 0.0 -1.8957822792775318e-10 0.0 0.010005865506592144 0.0099597315448229 0.0 -4.790641011433384e-10 0.0 0.01 0.0 -4.790641011433119e-10 0.0 0.010006080741819854 0.009959705363773023 0.0 -8.605078452864797e-10 0.0 0.01 0.0 -8.605078452865062e-10 0.0 0.010006250004504547 0.009959719195245444 0.0 -1.05237957357781e-09 0.0 0.01 0.0 -1.0523795735778365e-09 0.0 0.010006474031540284 0.009959751798229595 0.0 -5.0366083227537e-10 0.0 0.01 0.0 -5.036608322753568e-10 0.0 0.010006672221845892 0.009956961944125497 0.0 -2.014159967733503e-11 0.0 0.01 0.0 -2.01415996773342e-11 0.0 0.010005658599340798 0.009956713193141405 0.0 -2.5005804651197298e-11 0.0 0.01 0.0 -2.500580465119647e-11 0.0 0.010005819025220275 0.009956470382781711 0.0 -7.317467773994552e-11 0.0 0.01 0.0 -7.317467773994718e-11 0.0 0.01000603966723412 0.009956243381033467 0.0 -2.3996260333351023e-10 0.0 0.01 0.0 -2.3996260333352346e-10 0.0 0.010006295489992862 0.009956046987701054 0.0 -5.776708883658929e-10 0.0 0.01 0.0 -5.776708883659061e-10 0.0 0.010006534248886098 0.009955886624880998 0.0 -1.0158377551426358e-09 0.0 0.01 0.0 -1.0158377551426623e-09 0.0 0.010006744617348566 0.0099557622873509 0.0 -1.2006519301953467e-09 0.0 0.01 0.0 -1.2006519301953731e-09 0.0 0.010007071443731733 0.009955663116707963 0.0 -4.195229270727826e-10 0.0 0.01 0.0 -4.1952292707276936e-10 0.0 0.010007353803818274 0.009953802613121565 0.0 -4.620973963356485e-11 0.0 0.01 0.0 -4.6209739633563195e-11 0.0 0.010006127226839155 0.009953497396802397 0.0 -5.789766503984841e-11 0.0 0.01 0.0 -5.7897665039846755e-11 0.0 0.010006239735289467 0.00995315917694256 0.0 -1.2232453587014653e-10 0.0 0.01 0.0 -1.2232453587014322e-10 0.0 0.01000644958420911 0.00995280275221876 0.0 -3.307939524045159e-10 0.0 0.01 0.0 -3.3079395240450265e-10 0.0 0.010006716711075872 0.009952441436778649 0.0 -7.420772636337198e-10 0.0 0.01 0.0 -7.420772636337198e-10 0.0 0.010006945729778543 0.009952098888902734 0.0 -1.2585148671449857e-09 0.0 0.01 0.0 -1.2585148671449857e-09 0.0 0.010007155122046273 0.009951781509203337 0.0 -1.4164091582983535e-09 0.0 0.01 0.0 -1.4164091582983535e-09 0.0 0.010007621003109477 0.009951493232532733 0.0 -2.8372202084173054e-10 0.0 0.01 0.0 -2.8372202084173716e-10 0.0 0.01000805316759123 0.0099511640857034 0.0 -8.606253768951514e-11 0.0 0.01 0.0 -8.606253768951514e-11 0.0 0.010006680538481144 0.009950802948692324 0.0 -1.0562527192497626e-10 0.0 0.01 0.0 -1.0562527192497295e-10 0.0 0.010006728935697935 0.009950367468768843 0.0 -1.9823727583826348e-10 0.0 0.01 0.0 -1.9823727583826348e-10 0.0 0.01000691586777417 0.009949868510595412 0.0 -4.834402660344137e-10 0.0 0.01 0.0 -4.834402660343873e-10 0.0 0.010007171757745563 0.009949325800263515 0.0 -1.0242120138700036e-09 0.0 0.01 0.0 -1.0242120138700036e-09 0.0 0.010007348442011184 0.0099487713621865 0.0 -1.6659455278840573e-09 0.0 0.01 0.0 -1.6659455278840573e-09 0.0 0.01000745803505452 0.009948222431793306 0.0 -1.7701790220908933e-09 0.0 0.01 0.0 -1.7701790220908933e-09 0.0 0.01000804925816419 0.009947708045874065 0.0 -1.2845057622210857e-10 0.0 0.01 0.0 -1.2845057622211519e-10 0.0 0.010008697834703345 0.009949538047541171 0.0 -1.258486979983159e-10 0.0 0.01 0.0 -1.2584869799832252e-10 0.0 0.010007397851140284 0.00994913621731282 0.0 -1.506645531960842e-10 0.0 0.01 0.0 -1.506645531960842e-10 0.0 0.010007377806780557 0.009948624643640927 0.0 -2.9800897507344823e-10 0.0 0.01 0.0 -2.9800897507344823e-10 0.0 0.01000754077091614 0.009948002392834929 0.0 -7.342230189361628e-10 0.0 0.01 0.0 -7.342230189361363e-10 0.0 0.010007788890581204 0.009947300039538311 0.0 -1.5138257927354056e-09 0.0 0.01 0.0 -1.5138257927354586e-09 0.0 0.01000784762813395 0.00994654666401229 0.0 -2.3621968688725812e-09 0.0 0.01 0.0 -2.3621968688725283e-09 0.0 0.010007689510201251 0.009945781161831781 0.0 -2.356392280536694e-09 0.0 0.01 0.0 -2.356392280536747e-09 0.0 0.010008298869266281 0.009945048786971795 0.0 -6.699285612466867e-12 0.0 0.01 0.0 -6.699285612466867e-12 0.0 0.010009190855263528 0.009949517856380236 0.0 -1.26198498163397e-10 0.0 0.01 0.0 -1.2619849816340031e-10 0.0 0.010008393355448779 0.009949123414699017 0.0 -1.574724040893173e-10 0.0 0.01 0.0 -1.574724040893206e-10 0.0 0.010008333655909757 0.00994858821118278 0.0 -4.187017545330312e-10 0.0 0.01 0.0 -4.187017545330312e-10 0.0 0.010008498621722208 0.009947920189632859 0.0 -1.139420178758663e-09 0.0 0.01 0.0 -1.1394201787586366e-09 0.0 0.010008739944657365 0.009947143543795698 0.0 -2.333943507329806e-09 0.0 0.01 0.0 -2.333943507329859e-09 0.0 0.010008621486702859 0.009946295248882334 0.0 -3.5037846694804553e-09 0.0 0.01 0.0 -3.503784669480561e-09 0.0 0.010007996381102563 0.009945406838550427 0.0 -3.27413509656887e-09 0.0 0.01 0.0 -3.2741350965689757e-09 0.0 0.010008414408439359 0.009944542760793047 0.0 9.55395442344826e-12 0.0 0.01 0.0 9.553954423448053e-12 0.0 0.01000947685461368 0.009951854444707598 0.0 -3.47857445473705e-11 0.0 0.01 0.0 -3.47857445473705e-11 0.0 0.010009807860272406 0.00995154053775528 0.0 -8.525476059824307e-11 0.0 0.01 0.0 -8.525476059824638e-11 0.0 0.010009767241237236 0.00995109707777554 0.0 -5.469016921979811e-10 0.0 0.01 0.0 -5.469016921979944e-10 0.0 0.010009971946149087 0.009950541358306975 0.0 -1.7367780962241865e-09 0.0 0.01 0.0 -1.7367780962242395e-09 0.0 0.010010209463716696 0.00994989658423707 0.0 -3.6129243626674626e-09 0.0 0.01 0.0 -3.6129243626674626e-09 0.0 0.010009868087679894 0.009949176595115062 0.0 -5.299851180457792e-09 0.0 0.01 0.0 -5.299851180457686e-09 0.0 0.010008628354445779 0.009948393255103577 0.0 -4.703574763192227e-09 0.0 0.01 0.0 -4.703574763192121e-09 0.0 0.010008597976083753 0.009947601732993515 0.0 -2.689316947519298e-10 0.0 0.01 0.0 -2.689316947519298e-10 0.0 0.010009643832609513 0.009957652029566472 0.0 1.929275903921687e-10 0.0 0.01 0.0 1.929275903921687e-10 0.0 0.010011781036267963 0.009957553296101608 0.0 1.1125515763462351e-10 0.0 0.01 0.0 1.1125515763462351e-10 0.0 0.010011813400540751 0.009957399277760768 0.0 -6.575477438054683e-10 0.0 0.01 0.0 -6.575477438054948e-10 0.0 0.01001206670572149 0.009957224041225963 0.0 -2.5957845177741837e-09 0.0 0.01 0.0 -2.5957845177741837e-09 0.0 0.01001225785145968 0.009957024628370661 0.0 -5.58656080944962e-09 0.0 0.01 0.0 -5.586560809449832e-09 0.0 0.010011657051397085 0.009956766495364151 0.0 -8.139704568878554e-09 0.0 0.01 0.0 -8.139704568878342e-09 0.0 0.010009918537125748 0.009956420046279104 0.0 -7.033488892673019e-09 0.0 0.01 0.0 -7.033488892673019e-09 0.0 0.010009326982689687 0.00995601294079296 0.0 -1.113446549760191e-09 0.0 0.01 0.0 -1.1134465497602176e-09 0.0 0.010010100733137154 0.009968585156365648 0.0 5.674280769027815e-10 0.0 0.01 0.0 5.67428076902808e-10 0.0 0.010014375689757302 0.00996888036980551 0.0 4.1547125681366165e-10 0.0 0.01 0.0 4.154712568136352e-10 0.0 0.010014495808460016 0.009969266267187278 0.0 -8.480396053870648e-10 0.0 0.01 0.0 -8.480396053870648e-10 0.0 0.010014746404450738 0.009969769140391509 0.0 -3.947600722902553e-09 0.0 0.01 0.0 -3.947600722902342e-09 0.0 0.010014791051684969 0.009970344441388003 0.0 -8.584567631413337e-09 0.0 0.01 0.0 -8.584567631413337e-09 0.0 0.010013885316865154 0.009970886633563783 0.0 -1.2297939623718335e-08 0.0 0.01 0.0 -1.2297939623718758e-08 0.0 0.010012034389195583 0.009971319856129344 0.0 -1.0532127670844074e-08 0.0 0.01 0.0 -1.0532127670844921e-08 0.0 0.010011482145734602 0.009971641587672301 0.0 -2.608831429764337e-09 0.0 0.01 0.0 -2.608831429764337e-09 0.0 0.01001183246801221 0.009986491919614772 0.0 9.43300086209068e-10 0.0 0.01 0.0 9.43300086209068e-10 0.0 0.010017541146061758 0.009987338089262098 0.0 5.792245914647768e-10 0.0 0.01 0.0 5.792245914647768e-10 0.0 0.010017681535188953 0.009988447549746537 0.0 -1.466496765931363e-09 0.0 0.01 0.0 -1.4664967659314689e-09 0.0 0.01001780674937624 0.00998982754291756 0.0 -6.111011746413964e-09 0.0 0.01 0.0 -6.111011746414388e-09 0.0 0.010017554415678457 0.009991366693005758 0.0 -1.2624839898168003e-08 0.0 0.01 0.0 -1.2624839898168003e-08 0.0 0.010016622404004707 0.00999291703242235 0.0 -1.7278192362689674e-08 0.0 0.01 0.0 -1.727819236269052e-08 0.0 0.010015745610762376 0.00999436626445545 0.0 -1.4222073901740827e-08 0.0 0.01 0.0 -1.4222073901740827e-08 0.0 0.010015721547524184 0.009995676805121378 0.0 -4.001415824587878e-09 0.0 0.01 0.0 -4.001415824587878e-09 0.0 0.010015823629003358 0.010012389185814919 0.0 9.442569167620633e-10 0.0 0.01 0.0 9.442569167620633e-10 0.0 0.01002105948900365 0.010013806841783048 0.0 1.1536127825488653e-10 0.0 0.01 0.0 1.1536127825486006e-10 0.0 0.010021069803913846 0.010015624944691364 0.0 -2.925871377915546e-09 0.0 0.01 0.0 -2.925871377915546e-09 0.0 0.010020906681113237 0.010017816048902882 0.0 -9.045264947713948e-09 0.0 0.01 0.0 -9.045264947713948e-09 0.0 0.010020409009577298 0.010020252257420441 0.0 -1.6833153895518677e-08 0.0 0.01 0.0 -1.6833153895084996e-08 0.0 0.010020198733968214 0.01002275961495735 0.0 -2.1237684967131856e-08 0.0 0.01 0.0 -2.1237684967118304e-08 0.0 0.010020905222066336 0.010025216158565926 0.0 -1.5676199002118715e-08 0.0 0.01 0.0 -1.5676199002118715e-08 0.0 0.01002121869442385 0.01002754060640237 0.0 -3.1181086797558614e-09 0.0 0.01 0.0 -3.1181086797550143e-09 0.0 0.010021037903271312 0.010045228350573485 0.0 2.6253261024547264e-10 0.0 0.01 0.0 2.6253261024547264e-10 0.0 0.010024582045366092 0.01004702148586404 0.0 -1.1787992593789045e-09 0.0 0.01 0.0 -1.1787992593789045e-09 0.0 0.010024261357271127 0.01004924321049344 0.0 -4.990495842365256e-09 0.0 0.01 0.0 -4.990495842364832e-09 0.0 0.010023670227497774 0.010051858118452054 0.0 -1.1647177078046839e-08 0.0 0.01 0.0 -1.1647177078046839e-08 0.0 0.010023054079249333 0.010054758004470378 0.0 -1.9015792374532402e-08 0.0 0.01 0.0 -1.9015792374531555e-08 0.0 0.010023714943881481 0.01005780996255274 0.0 -2.1124837678795147e-08 0.0 0.01 0.0 -2.11248376787943e-08 0.0 0.010024932787627736 0.01006089851146249 0.0 -1.216564414735235e-08 0.0 0.01 0.0 -1.2165644147352773e-08 0.0 0.010024817682861998 0.010063840529403885 0.0 -9.887464645757868e-12 0.0 0.01 0.0 -9.887464645757868e-12 0.0 0.010024345920846863 0.010081062011103245 0.0 -7.617678466137642e-10 0.0 0.01 0.0 -7.617678466137377e-10 0.0 0.0100276981546385 0.0100828388895363 0.0 -2.5453707600692056e-09 0.0 0.01 0.0 -2.5453707600692056e-09 0.0 0.01002687948892822 0.010084916658101482 0.0 -6.313940693511197e-09 0.0 0.01 0.0 -6.313940693511197e-09 0.0 0.01002587644313739 0.010087274370872883 0.0 -1.2081650031921273e-08 0.0 0.01 0.0 -1.2081650031921273e-08 0.0 0.0100253524370573 0.010089868959449362 0.0 -1.7367094234841892e-08 0.0 0.01 0.0 -1.736709423484147e-08 0.0 0.010026297219082395 0.010092636254345876 0.0 -1.6253665158699786e-08 0.0 0.01 0.0 -1.6253665158699786e-08 0.0 0.010026836645605521 0.010095479651458503 0.0 -8.702564444101494e-09 0.0 0.01 0.0 -8.702564444101282e-09 0.0 0.010025600926617542 0.010098103695492617 0.0 -1.0039598995276604e-08 0.0 0.01 0.0 -1.003959899527618e-08 0.0 0.010024815718301064 0.010113401216862945 0.0 -1.2580851879225322e-09 0.0 0.01 0.0 -1.2580851879225587e-09 0.0 0.01003006721400208 0.01011468836906782 0.0 -2.754067358367918e-09 0.0 0.01 0.0 -2.754067358367918e-09 0.0 0.010028739117497928 0.010116008932308658 0.0 -5.5502340576351875e-09 0.0 0.01 0.0 -5.5502340576351875e-09 0.0 0.010027439678605025 0.010117330478950432 0.0 -9.551206740414697e-09 0.0 0.01 0.0 -9.551206740414697e-09 0.0 0.010026815476121867 0.010118677356434042 0.0 -1.340248315617462e-08 0.0 0.01 0.0 -1.3402483156174831e-08 0.0 0.010027298374743995 0.010120073329599882 0.0 -1.6459329651809777e-08 0.0 0.01 0.0 -1.645932965180999e-08 0.0 0.010026648645350461 0.010121410675059983 0.0 -2.011056116926525e-08 0.0 0.01 0.0 -2.011056116926525e-08 0.0 0.01002448171061363 0.010122473527637179 0.0 -1.7000606109586034e-08 0.0 0.01 0.0 -1.7000606109586034e-08 0.0 0.010023822154724471 0.010135364813368448 0.0 -9.213210905092012e-10 0.0 0.01 0.0 -9.213210905092144e-10 0.0 0.010031582591442902 0.010135849300613488 0.0 -1.7054507515101489e-09 0.0 0.01 0.0 -1.7054507515101753e-09 0.0 0.01002980063433044 0.010136020184062596 0.0 -3.2277175282490667e-09 0.0 0.01 0.0 -3.227717528249014e-09 0.0 0.010027971423912988 0.010135815770571849 0.0 -5.743052882819034e-09 0.0 0.01 0.0 -5.743052882819034e-09 0.0 0.010026604796910539 0.010135276836368388 0.0 -9.155711275254384e-09 0.0 0.01 0.0 -9.155711275254278e-09 0.0 0.010025929100222401 0.01013451741410963 0.0 -1.284227955907463e-08 0.0 0.01 0.0 -1.2842279559074419e-08 0.0 0.010024492539742717 0.010133639268458191 0.0 -1.3340518949612408e-08 0.0 0.01 0.0 -1.334051894961262e-08 0.0 0.010023007861387939 0.010132757813789419 0.0 -8.551182491744296e-10 0.0 0.01 0.0 -8.551182491744428e-10 0.0 0.010023222241135315 0.010144180938352763 0.0 -3.3626138792171825e-10 0.0 0.01 0.0 -3.3626138792171825e-10 0.0 0.010032364948173932 0.010143865440063064 0.0 -5.251717648418444e-10 0.0 0.01 0.0 -5.25171764841851e-10 0.0 0.010030377106792812 0.010142930861087635 0.0 -9.983247012612678e-10 0.0 0.01 0.0 -9.983247012612678e-10 0.0 0.010028268364873786 0.010141297716275118 0.0 -1.918317109173775e-09 0.0 0.01 0.0 -1.918317109173775e-09 0.0 0.010026425679627582 0.01013905665430958 0.0 -3.2409606149097714e-09 0.0 0.01 0.0 -3.2409606149097714e-09 0.0 0.010024922460719123 0.01013642342411774 0.0 -4.15835317056005e-09 0.0 0.01 0.0 -4.15835317056005e-09 0.0 0.010023136699038628 0.010133697752341327 0.0 -1.504682103017256e-09 0.0 0.01 0.0 -1.5046821030172824e-09 0.0 0.010022574260155431 0.010131224049585422 0.0 9.90609800863793e-09 0.0 0.01 0.0 9.90609800863793e-09 0.0 0.010023944628044908 0.010143102572559128 0.0 -1.0243092739117992e-11 0.0 0.01 0.0 -1.0243092739118095e-11 0.0 0.01003268394055136 0.010142272114664702 0.0 2.8559608142947133e-11 0.0 0.01 0.0 2.8559608142947133e-11 0.0 0.010030717608250975 0.010140637254544426 0.0 8.009466198295454e-12 0.0 0.01 0.0 8.009466198295558e-12 0.0 0.010028596800499893 0.010138115223931293 0.0 -1.0422947494935711e-10 0.0 0.01 0.0 -1.0422947494935545e-10 0.0 0.010026623041804208 0.010134827981026096 0.0 -2.399592878352795e-10 0.0 0.01 0.0 -2.399592878352828e-10 0.0 0.010024857528270722 0.010131074777224866 0.0 -1.2325887788761131e-11 0.0 0.01 0.0 -1.2325887788760925e-11 0.0 0.010023486282474976 0.01012723947829801 0.0 1.6119322479160282e-09 0.0 0.01 0.0 1.6119322479160282e-09 0.0 0.01002326700182368 0.010123761190173053 0.0 5.7955516828680825e-09 0.0 0.01 0.0 5.795551682868188e-09 0.0 0.010025235806478676 0.010137263123920576 0.0 4.9415571295311006e-11 0.0 0.01 0.0 4.9415571295311006e-11 0.0 0.010032768263025982 0.010136358331747974 0.0 7.500989104195709e-11 0.0 0.01 0.0 7.500989104195709e-11 0.0 0.010030956656147106 0.010134578931864912 0.0 8.203152849271973e-11 0.0 0.01 0.0 8.203152849271973e-11 0.0 0.010028988363347632 0.010131824273150368 0.0 7.678438018117643e-11 0.0 0.01 0.0 7.67843801811756e-11 0.0 0.010027147751255181 0.010128229102404362 0.0 7.802495140172169e-11 0.0 0.01 0.0 7.802495140172003e-11 0.0 0.010025576288433192 0.010124121927527435 0.0 9.678228494675634e-11 0.0 0.01 0.0 9.678228494675469e-11 0.0 0.010024530416886146 0.010119906360588309 0.0 9.128961739606848e-11 0.0 0.01 0.0 9.128961739606848e-11 0.0 0.010024283467493024 0.010116019025596976 0.0 -5.086073889076109e-11 0.0 0.01 0.0 -5.086073889076192e-11 0.0 0.01002642764512753 0.010130324407996131 0.0 2.7213275358221485e-11 0.0 0.01 0.0 2.721327535822107e-11 0.0 0.010032729787477417 0.010129764053224381 0.0 -1.4318096941321037e-11 0.0 0.01 0.0 -1.4318096941321037e-11 0.0 0.010031090695968789 0.010128338195399558 0.0 -1.1196583301656041e-10 0.0 0.01 0.0 -1.1196583301656041e-10 0.0 0.010029310514157811 0.010125912020777101 0.0 -2.513486354935412e-10 0.0 0.01 0.0 -2.513486354935412e-10 0.0 0.010027764150650962 0.010122599652727856 0.0 -4.019252205959653e-10 0.0 0.01 0.0 -4.019252205959653e-10 0.0 0.010026574304963353 0.010118727966725704 0.0 -5.238272912992691e-10 0.0 0.01 0.0 -5.238272912992625e-10 0.0 0.010025495119785873 0.010114691939137645 0.0 -4.356113160267384e-10 0.0 0.01 0.0 -4.356113160267384e-10 0.0 0.010025030163710173 0.010110888336343228 0.0 1.7803763391014224e-10 0.0 0.01 0.0 1.7803763391013893e-10 0.0 0.010027138879402148 0.010123165925549913 0.0 8.44560012218838e-12 0.0 0.01 0.0 8.44560012218838e-12 0.0 0.010032566094619015 0.010123232787076804 0.0 -7.921461794091469e-11 0.0 0.01 0.0 -7.921461794091304e-11 0.0 0.010031043357496338 0.010122499872421416 0.0 -2.890777241583095e-10 0.0 0.01 0.0 -2.890777241583161e-10 0.0 0.010029394701159416 0.010120771817916797 0.0 -6.448017762266537e-10 0.0 0.01 0.0 -6.448017762266404e-10 0.0 0.01002804776179271 0.010118130067532706 0.0 -1.0704377309545258e-09 0.0 0.01 0.0 -1.0704377309545126e-09 0.0 0.010027051271118068 0.010114873345109712 0.0 -1.3138431720451176e-09 0.0 0.01 0.0 -1.313843172045091e-09 0.0 0.010025725883737362 0.0101113825026181 0.0 -6.157245432302755e-10 0.0 0.01 0.0 -6.157245432302755e-10 0.0 0.010024988351565591 0.010108014759626733 0.0 2.3735803343539247e-09 0.0 0.01 0.0 2.3735803343539247e-09 0.0 0.010026905548040924 0.010114441318992246 0.0 -4.0557802877984725e-12 0.0 0.01 0.0 -4.0557802877984725e-12 0.0 0.010032208643928836 0.010115257351555152 0.0 -1.1833001266811965e-10 0.0 0.01 0.0 -1.183300126681213e-10 0.0 0.010030734866361397 0.010115379170579773 0.0 -4.678985273396927e-10 0.0 0.01 0.0 -4.678985273396927e-10 0.0 0.010029139574156685 0.010114561556390487 0.0 -1.2035806478707262e-09 0.0 0.01 0.0 -1.2035806478707526e-09 0.0 0.010027854248151646 0.010112826962667904 0.0 -2.2082968628025607e-09 0.0 0.01 0.0 -2.2082968628026136e-09 0.0 0.010026887856048444 0.010110430621392026 0.0 -3.004791718903096e-09 0.0 0.01 0.0 -3.004791718903096e-09 0.0 0.010025331276978343 0.01010771625481409 0.0 -2.4733723206524727e-09 0.0 0.01 0.0 -2.4733723206524198e-09 0.0 0.010024329703009812 0.01010501918964604 0.0 1.663211539899043e-09 0.0 0.01 0.0 1.6632115398990165e-09 0.0 0.010025966993664563 0.010102205460228764 0.0 -5.3811346748536294e-12 0.0 0.01 0.0 -5.381134674853423e-12 0.0 0.010031593443636262 0.01010376486325961 0.0 -1.3357886994424968e-10 0.0 0.01 0.0 -1.3357886994424637e-10 0.0 0.010030124326567542 0.01010479497875722 0.0 -6.838965213091154e-10 0.0 0.01 0.0 -6.838965213091154e-10 0.0 0.010028532300922202 0.010105015165481268 0.0 -2.006001385610904e-09 0.0 0.01 0.0 -2.006001385610957e-09 0.0 0.010027238840336215 0.010104377860339572 0.0 -3.907916654806335e-09 0.0 0.01 0.0 -3.9079166548064405e-09 0.0 0.010026233721317519 0.010103044779354113 0.0 -5.669079340558667e-09 0.0 0.01 0.0 -5.669079340558667e-09 0.0 0.010024563358287452 0.010101309558111508 0.0 -6.0884574931182146e-09 0.0 0.01 0.0 -6.088457493118109e-09 0.0 0.010023443029428383 0.010099452488002583 0.0 -2.3917469759262065e-09 0.0 0.01 0.0 -2.3917469759262065e-09 0.0 0.010024750284192448 0.010085598350783426 0.0 5.543204290378163e-12 0.0 0.01 0.0 5.543204290378163e-12 0.0 0.010030704790881582 0.010087824213113874 0.0 -1.0058875955963946e-10 0.0 0.01 0.0 -1.0058875955964277e-10 0.0 0.01002923808174169 0.010089763672672333 0.0 -8.338181801908484e-10 0.0 0.01 0.0 -8.338181801908484e-10 0.0 0.010027636596507258 0.010091128135939346 0.0 -2.7814867791288235e-09 0.0 0.01 0.0 -2.7814867791287706e-09 0.0 0.010026279026314072 0.010091772958040089 0.0 -5.702103137338779e-09 0.0 0.01 0.0 -5.702103137338779e-09 0.0 0.010025193538351086 0.010091732309382038 0.0 -8.554148676945257e-09 0.0 0.01 0.0 -8.554148676945257e-09 0.0 0.01002362153370976 0.010091184859308057 0.0 -1.0298967924139512e-08 0.0 0.01 0.0 -1.02989679241393e-08 0.0 0.010022632755041167 0.0100903635430003 0.0 -7.699612384069744e-09 0.0 0.01 0.0 -7.699612384069744e-09 0.0 0.010023564985340846 0.010065769194647665 0.0 -4.7890505940925394e-12 0.0 0.01 0.0 -4.7890505940925394e-12 0.0 0.010029577508754908 0.010068499707788054 0.0 -2.4660203111000907e-11 0.0 0.01 0.0 -2.4660203111000907e-11 0.0 0.010028131463190515 0.010071274377983833 0.0 -7.629873232557487e-10 0.0 0.01 0.0 -7.629873232557752e-10 0.0 0.010026529499952842 0.010073832663341734 0.0 -3.0369627900309622e-09 0.0 0.01 0.0 -3.036962790031174e-09 0.0 0.010025055755017154 0.010075910903381021 0.0 -6.718896828551127e-09 0.0 0.01 0.0 -6.718896828551339e-09 0.0 0.010023881678592464 0.010077369174526762 0.0 -1.0648405615140834e-08 0.0 0.01 0.0 -1.064840561514041e-08 0.0 0.010022504943566336 0.010078222279083336 0.0 -1.368218985140242e-08 0.0 0.01 0.0 -1.368218985140242e-08 0.0 0.010021945077198887 0.010078623164617585 0.0 -1.1766491877948944e-08 0.0 0.01 0.0 -1.1766491877949367e-08 0.0 0.010022513299744023 0.01004541050483283 0.0 -7.926562926537433e-11 0.0 0.01 0.0 -7.926562926537433e-11 0.0 0.010028270785285329 0.010048437063234281 0.0 1.9144107520518985e-11 0.0 0.01 0.0 1.9144107520518985e-11 0.0 0.010026866686265403 0.010051869036560773 0.0 -5.044400568932678e-10 0.0 0.01 0.0 -5.044400568932678e-10 0.0 0.01002529439833796 0.010055491705410476 0.0 -2.6127480575706695e-09 0.0 0.01 0.0 -2.6127480575706695e-09 0.0 0.010023767063283427 0.010058982618492848 0.0 -6.356509059834991e-09 0.0 0.01 0.0 -6.356509059834991e-09 0.0 0.010022350106426976 0.01006200210887035 0.0 -1.1105413884144672e-08 0.0 0.01 0.0 -1.1105413884144672e-08 0.0 0.010021360747839334 0.010064373142742455 0.0 -1.544804063747327e-08 0.0 0.01 0.0 -1.544804063747327e-08 0.0 0.0100212427972896 0.01006611928015914 0.0 -1.2982741644701861e-08 0.0 0.01 0.0 -1.2982741644702284e-08 0.0 0.010021496365953023 0.010027260012475229 0.0 -1.974900525740801e-10 0.0 0.01 0.0 -1.9749005257323307e-10 0.0 0.010026840577051877 0.010030380588330497 0.0 -2.492774902667099e-11 0.0 0.01 0.0 -2.4927749026677606e-11 0.0 0.010025487713433855 0.010034233591847682 0.0 -2.3677522442657587e-10 0.0 0.01 0.0 -2.3677522442657587e-10 0.0 0.01002396034039678 0.010038664996789267 0.0 -2.0247155698010936e-09 0.0 0.01 0.0 -2.0247155698013054e-09 0.0 0.010022539828197995 0.010043326814020571 0.0 -7.0535781646655965e-09 0.0 0.01 0.0 -7.0535781646655965e-09 0.0 0.010021026582144064 0.010047768304650588 0.0 -1.5070306072156765e-08 0.0 0.01 0.0 -1.5070306072156765e-08 0.0 0.010020071015577925 0.01005160274599533 0.0 -2.163947223071734e-08 0.0 0.01 0.0 -2.163947223071734e-08 0.0 0.010020379026940246 0.010054675159280475 0.0 -1.0999258426283771e-08 0.0 0.01 0.0 -1.0999258426283771e-08 0.0 0.010020337272913158 0.010012995990537366 0.0 -2.6117167744659134e-10 0.0 0.01 0.0 -2.6117167744659134e-10 0.0 0.0100253051797559 0.010016067441607998 0.0 -9.441786864470633e-11 0.0 0.01 0.0 -9.441786864470633e-11 0.0 0.010023994786996919 0.01002009948641057 0.0 -2.274210118037858e-10 0.0 0.01 0.0 -2.2742101180399755e-10 0.0 0.010022526589103424 0.010025012985407145 0.0 -4.370146585926815e-09 0.0 0.01 0.0 -4.370146585928509e-09 0.0 0.010021243300450173 0.010030474692179197 0.0 -1.6906779678997624e-08 0.0 0.01 0.0 -1.6906779678990848e-08 0.0 0.010019943302088639 0.010035996635153392 0.0 -3.396775443256759e-08 0.0 0.01 0.0 -3.396775443256759e-08 0.0 0.010018629580349334 0.010041019061511156 0.0 -4.507051057501315e-08 0.0 0.01 0.0 -4.507051057501315e-08 0.0 0.01001910194387258 0.010045182332095793 0.0 -6.605952966539619e-09 0.0 0.01 0.0 -6.6059529665400426e-09 0.0 0.010018917797377406 0.010002985236213425 0.0 -1.7976701117789093e-10 0.0 0.01 0.0 -1.7976701117790417e-10 0.0 0.010023667760056143 0.010005921255040138 0.0 2.811554553859898e-10 0.0 0.01 0.0 2.811554553859898e-10 0.0 0.01002238992243538 0.010009919991435088 0.0 1.0774496261150197e-09 0.0 0.01 0.0 1.077449626114808e-09 0.0 0.010020997097054396 0.01001494162122422 0.0 -7.35776806256295e-09 0.0 0.01 0.0 -7.3577680625612555e-09 0.0 0.010019829324773157 0.010020755842554087 0.0 -3.4357536900551195e-08 0.0 0.01 0.0 -3.4357536900551195e-08 0.0 0.010018794050167852 0.01002692182942389 0.0 -6.514647137434296e-08 0.0 0.01 0.0 -6.514647137435652e-08 0.0 0.010017210830793492 0.010032706158069747 0.0 -8.270598828050108e-08 0.0 0.01 0.0 -8.270598828049431e-08 0.0 0.010017405186870582 0.010037529568033162 0.0 7.661819326144145e-09 0.0 0.01 0.0 7.661819326144145e-09 0.0 0.010017169618364125 0.009996638695515045 0.0 1.8316765156308058e-10 0.0 0.01 0.0 1.8316765156308058e-10 0.0 0.010021927361093589 0.009999396554629076 0.0 4.274036033015174e-09 0.0 0.01 0.0 4.274036033015598e-09 0.0 0.010020700348722388 0.010003138677103587 0.0 1.3600479963448209e-08 0.0 0.01 0.0 1.3600479963449903e-08 0.0 0.010019443259427897 0.010007894588856881 0.0 7.1939577460061705e-09 0.0 0.01 0.0 7.1939577460070176e-09 0.0 0.010018437114026477 0.010013582322061077 0.0 -3.361017673061213e-08 0.0 0.01 0.0 -3.3610176730639236e-08 0.0 0.010017580904958549 0.010019917247799064 0.0 -7.838260946565708e-08 0.0 0.01 0.0 -7.838260946568419e-08 0.0 0.010015957566395877 0.010026116607754435 0.0 -9.300120582267379e-08 0.0 0.01 0.0 -9.300120582267379e-08 0.0 0.010015363936474932 0.010031183810565092 0.0 3.531331941096264e-08 0.0 0.01 0.0 3.5313319410966025e-08 0.0 0.010015134388442936 0.009992988880269608 0.0 2.365006146534983e-09 0.0 0.01 0.0 2.365006146534877e-09 0.0 0.01002011030138013 0.009995513521142942 0.0 2.0332074089690337e-08 0.0 0.01 0.0 2.0332074089690337e-08 0.0 0.010018989503620465 0.00999878722114194 0.0 5.6707989124250304e-08 0.0 0.01 0.0 5.6707989124250304e-08 0.0 0.010017941218334908 0.010002921680730982 0.0 7.299783452370984e-08 0.0 0.01 0.0 7.299783452370306e-08 0.0 0.010017178916895299 0.010008023295843474 0.0 3.3877590640997294e-08 0.0 0.01 0.0 3.3877590640997294e-08 0.0 0.01001648351673047 0.0100140736043293 0.0 -1.4349663438100119e-08 0.0 0.01 0.0 -1.4349663438073014e-08 0.0 0.010014951415030905 0.010020703266769555 0.0 3.6780765933382674e-09 0.0 0.01 0.0 3.6780765933391144e-09 0.0 0.01001347102145577 0.010026259321878239 0.0 1.615155515013455e-08 0.0 0.01 0.0 1.6151555150137938e-08 0.0 0.010012835219244353 0.009991118845280549 0.0 1.1136533248240001e-08 0.0 0.01 0.0 1.1136533248241695e-08 0.0 0.010018276030200082 0.009993330678500898 0.0 6.249584763107566e-08 0.0 0.01 0.0 6.249584763107227e-08 0.0 0.010017353166154245 0.009995943473226677 0.0 1.545658492367824e-07 0.0 0.01 0.0 1.545658492367824e-07 0.0 0.01001660426745753 0.009999183107700572 0.0 2.2520234190339695e-07 0.0 0.01 0.0 2.2520234190339695e-07 0.0 0.010016154769913816 0.010003358648351097 0.0 2.1682125737285682e-07 0.0 0.01 0.0 2.1682125737285682e-07 0.0 0.010015671067552669 0.010008857961411103 0.0 1.9661877882380316e-07 0.0 0.01 0.0 1.9661877882380316e-07 0.0 0.010014237403702764 0.010015877088932966 0.0 2.0923183637034347e-07 0.0 0.01 0.0 2.092318363704519e-07 0.0 0.010012593104594266 0.010023626427553497 0.0 -2.504212458611158e-07 0.0 0.01 0.0 -2.504212458611158e-07 0.0 0.010010839859292695 0.009990391366871723 0.0 3.943081047120247e-08 0.0 0.01 0.0 3.943081047120417e-08 0.0 0.010016536528494746 0.009992164721825502 0.0 1.5183646289119925e-07 0.0 0.01 0.0 1.5183646289117214e-07 0.0 0.010015887887139814 0.009993977461296561 0.0 3.295043355268216e-07 0.0 0.01 0.0 3.295043355268216e-07 0.0 0.010015485110409011 0.009996189214439488 0.0 4.834275964362474e-07 0.0 0.01 0.0 4.834275964363016e-07 0.0 0.010015381651565632 0.009999298615424123 0.0 5.272650556650284e-07 0.0 0.01 0.0 5.272650556651368e-07 0.0 0.010014933325692199 0.010004165243247194 0.0 5.31832882574336e-07 0.0 0.01 0.0 5.31832882574336e-07 0.0 0.010013439687562563 0.010011664953413282 0.0 4.0461182533937934e-07 0.0 0.01 0.0 4.0461182533937934e-07 0.0 0.010011896218823134 0.010021046371331332 0.0 -8.779602237991672e-07 0.0 0.01 0.0 -8.779602237992757e-07 0.0 0.010009527864758824 0.009990390371349389 0.0 1.1059150122421198e-07 0.0 0.01 0.0 1.1059150122421198e-07 0.0 0.010015005408726728 0.009991597117946132 0.0 3.141027887614001e-07 0.0 0.01 0.0 3.141027887614001e-07 0.0 0.010014667471973862 0.009992568844943869 0.0 5.96752918186191e-07 0.0 0.01 0.0 5.96752918186191e-07 0.0 0.010014596901603192 0.009993809857731325 0.0 8.379984740611952e-07 0.0 0.01 0.0 8.379984740610868e-07 0.0 0.01001465038731537 0.009996014010036728 0.0 9.152479982005215e-07 0.0 0.01 0.0 9.152479982006299e-07 0.0 0.010013941325236312 0.010000382931218924 0.0 8.540702612135163e-07 0.0 0.01 0.0 8.540702612134079e-07 0.0 0.01001233343864318 0.010008388007069222 0.0 3.1745779343543383e-07 0.0 0.01 0.0 3.1745779343543383e-07 0.0 0.010011107343648892 0.00999078127388974 0.0 2.640633551654703e-07 0.0 0.01 0.0 2.6406335516548386e-07 0.0 0.010013779891001303 0.009991342306992444 0.0 5.809636598189593e-07 0.0 0.01 0.0 5.809636598189593e-07 0.0 0.01001371180105285 0.009991580284713822 0.0 9.625192947293644e-07 0.0 0.01 0.0 9.625192947293102e-07 0.0 0.010013829574371276 0.009992151483797361 0.0 1.249470301169361e-06 0.0 0.01 0.0 1.249470301169361e-06 0.0 0.01001375611620177 0.009993923785803244 0.0 1.2734980668557567e-06 0.0 0.01 0.0 1.2734980668559735e-06 0.0 0.01001257813433456 0.009998383537321338 0.0 9.847194316774154e-07 0.0 0.01 0.0 9.847194316771985e-07 0.0 0.010011327964428787 0.010006342492766739 0.0 -3.0359536504621747e-07 0.0 0.01 0.0 -3.0359536504621747e-07 0.0 0.010010243281029117 0.0099912310924856 0.0 5.470916327613221e-07 0.0 0.01 0.0 5.470916327613221e-07 0.0 0.010012867588477522 0.009991188802082432 0.0 9.754160833231338e-07 0.0 0.01 0.0 9.754160833230796e-07 0.0 0.01001296576552867 0.009991012928694035 0.0 1.4114951566192562e-06 0.0 0.01 0.0 1.4114951566191478e-06 0.0 0.010013101199477143 0.009991478310204051 0.0 1.642552547829264e-06 0.0 0.01 0.0 1.6425525478291556e-06 0.0 0.010012658699689326 0.009993555051572869 0.0 1.450391369821379e-06 0.0 0.01 0.0 1.4503913698212705e-06 0.0 0.010011355577990788 0.009998746294412442 0.0 6.254121223480498e-07 0.0 0.01 0.0 6.254121223480498e-07 0.0 0.010010787488927026 0.009991460098492232 0.0 9.880596066002526e-07 0.0 0.01 0.0 9.880596066002526e-07 0.0 0.010012198229404634 0.009991098230021036 0.0 1.4819603101812098e-06 0.0 0.01 0.0 1.4819603101813182e-06 0.0 0.01001235523886458 0.009991153277209786 0.0 1.8677932510891785e-06 0.0 0.01 0.0 1.86779325108907e-06 0.0 0.010012363261993399 0.009992228083008719 0.0 1.8491984185224457e-06 0.0 0.01 0.0 1.8491984185223373e-06 0.0 0.010011519385798272 0.009995520725071136 0.0 1.193713682439996e-06 0.0 0.01 0.0 1.193713682439996e-06 0.0 0.010010924840025763 0.010000632907509603 0.0 -5.627449361496166e-07 0.0 0.01 0.0 -5.627449361496166e-07 0.0 0.010010337354437437 0.009991487743348473 0.0 1.5534153759808478e-06 0.0 0.01 0.0 1.5534153759808478e-06 0.0 0.010011703976690196 0.009991586736003834 0.0 2.0103595934035457e-06 0.0 0.01 0.0 2.0103595934035457e-06 0.0 0.01001192916683862 0.009992711654633073 0.0 2.1270184843243025e-06 0.0 0.01 0.0 2.1270184843243025e-06 0.0 0.010011774841594432 0.009995033565105638 0.0 1.555396141491661e-06 0.0 0.01 0.0 1.5553961414914441e-06 0.0 0.01001109690596315 0.009999107619485435 0.0 1.148871201365284e-08 0.0 0.01 0.0 1.1488712013651146e-08 0.0 0.010011091174894168 0.009992233234712952 0.0 2.1237905668694892e-06 0.0 0.01 0.0 2.1237905668692724e-06 0.0 0.010011513679439329 0.00999369426287304 0.0 2.299870369315126e-06 0.0 0.01 0.0 2.2998703693149092e-06 0.0 0.01001172011361083 0.009996541267823213 0.0 1.7755292029940101e-06 0.0 0.01 0.0 1.775529202994227e-06 0.0 0.010011758980184441 0.009999343572281423 0.0 2.2585206945150023e-07 0.0 0.01 0.0 2.2585206945147313e-07 0.0 0.010011336656497588 0.009994940147762798 0.0 2.316606377445688e-06 0.0 0.01 0.0 2.316606377445905e-06 0.0 0.010011484406570334 0.00999767029967985 0.0 1.7995560147390528e-06 0.0 0.01 0.0 1.7995560147392696e-06 0.0 0.010011757989475338 0.010001038720556766 0.0 2.415866904111508e-07 0.0 0.01 0.0 2.415866904111237e-07 0.0 0.010012079008899675 0.010000201296407996 0.0 -1.985244127967979e-06 0.0 0.01 0.0 -1.985244127967979e-06 0.0 0.01001038293798214 0.009998466661979032 0.0 1.4366050728226339e-06 0.0 0.01 0.0 1.4366050728228507e-06 0.0 0.01001124434561446 0.010000303713860568 0.0 1.287160439508436e-08 0.0 0.01 0.0 1.287160439508436e-08 0.0 0.010011479687294588 0.009998672307059702 0.0 -5.331803373192861e-07 0.0 0.01 0.0 -5.331803373192861e-07 0.0 0.010010508282955174 
