# vtk DataFile Version 3.0
Test VTK file for Force data
ASCII
DATASET POLYDATA
POINTS 2975 float
-0.22 0.0099999998 -0.38
-0.22 0.0099999998 -0.36000001
-0.2 0.0099999998 -0.40000001
-0.2 0.0099999998 -0.38
-0.2 0.0099999998 -0.36000001
-0.18000001 0.0099999998 -0.40000001
-0.18000001 0.0099999998 -0.38
-0.18000001 0.0099999998 -0.36000001
-0.16 0.0099999998 -0.40000001
-0.16 0.0099999998 -0.38
-0.16 0.0099999998 -0.36000001
-0.14 0.0099999998 -0.40000001
-0.14 0.0099999998 -0.38
-0.14 0.0099999998 -0.36000001
-0.12 0.0099999998 -0.40000001
-0.12 0.0099999998 -0.38
-0.12 0.0099999998 -0.36000001
-0.1 0.0099999998 -0.40000001
-0.1 0.0099999998 -0.38
-0.1 0.0099999998 -0.36000001
-0.079999998 0.0099999998 -0.40000001
-0.079999998 0.0099999998 -0.38
-0.079999998 0.0099999998 -0.36000001
-0.059999999000000005 0.0099999998 -0.40000001
-0.059999999000000005 0.0099999998 -0.38
-0.059999999000000005 0.0099999998 -0.36000001
-0.039999999 0.0099999998 -0.40000001
-0.039999999 0.0099999998 -0.38
-0.039999999 0.0099999998 -0.36000001
-0.02 0.0099999998 -0.40000001
-0.02 0.0099999998 -0.38
-0.02 0.0099999998 -0.36000001
0.0 0.0099999998 -0.40000001
0.0 0.0099999998 -0.38
0.0 0.0099999998 -0.36000001
0.02 0.0099999998 -0.40000001
0.02 0.0099999998 -0.38
0.02 0.0099999998 -0.36000001
0.039999999 0.0099999998 -0.40000001
0.039999999 0.0099999998 -0.38
0.039999999 0.0099999998 -0.36000001
0.059999999000000005 0.0099999998 -0.40000001
0.059999999000000005 0.0099999998 -0.38
0.059999999000000005 0.0099999998 -0.36000001
0.079999998 0.0099999998 -0.40000001
0.079999998 0.0099999998 -0.38
0.079999998 0.0099999998 -0.36000001
0.1 0.0099999998 -0.40000001
0.1 0.0099999998 -0.38
0.1 0.0099999998 -0.36000001
0.12 0.0099999998 -0.40000001
0.12 0.0099999998 -0.38
0.12 0.0099999998 -0.36000001
0.14 0.0099999998 -0.40000001
0.14 0.0099999998 -0.38
0.14 0.0099999998 -0.36000001
0.16 0.0099999998 -0.40000001
0.16 0.0099999998 -0.38
0.16 0.0099999998 -0.36000001
0.18000001 0.0099999998 -0.40000001
0.18000001 0.0099999998 -0.38
0.18000001 0.0099999998 -0.36000001
0.2 0.0099999998 -0.38
0.2 0.0099999998 -0.36000001
-0.22 0.0099999998 -0.34
-0.22 0.0099999998 -0.31999999
-0.22 0.0099999998 -0.30000001
-0.22 0.0099999998 -0.28
-0.22 0.0099999998 -0.25999999
-0.22 0.0099999998 -0.23999999
-0.22 0.0099999998 -0.22
-0.22 0.0099999998 -0.2
-0.2 0.0099999998 -0.34
-0.2 0.0099999998 -0.31999999
-0.2 0.0099999998 -0.30000001
-0.2 0.0099999998 -0.28
-0.2 0.0099999998 -0.25999999
-0.2 0.0099999998 -0.23999999
-0.2 0.0099999998 -0.22
-0.2 0.0099999998 -0.2
-0.18000001 0.0099999998 -0.34
-0.18000001 0.0099999998 -0.31999999
-0.18000001 0.0099999998 -0.30000001
-0.18000001 0.0099999998 -0.28
-0.18000001 0.0099999998 -0.25999999
-0.18000001 0.0099999998 -0.23999999
-0.18000001 0.0099999998 -0.22
-0.18000001 0.0099999998 -0.2
-0.16 0.0099999998 -0.34
-0.16 0.0099999998 -0.31999999
-0.16 0.0099999998 -0.30000001
-0.16 0.0099999998 -0.28
-0.16 0.0099999998 -0.25999999
-0.16 0.0099999998 -0.23999999
-0.16 0.0099999998 -0.22
-0.16 0.0099999998 -0.2
-0.14 0.0099999998 -0.34
-0.14 0.0099999998 -0.31999999
-0.14 0.0099999998 -0.30000001
-0.14 0.0099999998 -0.28
-0.14 0.0099999998 -0.25999999
-0.14 0.0099999998 -0.23999999
-0.14 0.0099999998 -0.22
-0.14 0.0099999998 -0.2
-0.12 0.0099999998 -0.34
-0.12 0.0099999998 -0.31999999
-0.12 0.0099999998 -0.30000001
-0.12 0.0099999998 -0.28
-0.12 0.0099999998 -0.25999999
-0.12 0.0099999998 -0.23999999
-0.12 0.0099999998 -0.22
-0.12 0.0099999998 -0.2
-0.1 0.0099999998 -0.34
-0.1 0.0099999998 -0.31999999
-0.1 0.0099999998 -0.30000001
-0.1 0.0099999998 -0.28
-0.1 0.0099999998 -0.25999999
-0.1 0.0099999998 -0.23999999
-0.1 0.0099999998 -0.22
-0.1 0.0099999998 -0.2
-0.079999998 0.0099999998 -0.34
-0.079999998 0.0099999998 -0.31999999
-0.079999998 0.0099999998 -0.30000001
-0.079999998 0.0099999998 -0.28
-0.079999998 0.0099999998 -0.25999999
-0.079999998 0.0099999998 -0.23999999
-0.079999998 0.0099999998 -0.22
-0.079999998 0.0099999998 -0.2
-0.059999999000000005 0.0099999998 -0.34
-0.059999999000000005 0.0099999998 -0.31999999
-0.059999999000000005 0.0099999998 -0.30000001
-0.059999999000000005 0.0099999998 -0.28
-0.059999999000000005 0.0099999998 -0.25999999
-0.059999999000000005 0.0099999998 -0.23999999
-0.059999999000000005 0.0099999998 -0.22
-0.059999999000000005 0.0099999998 -0.2
-0.039999999 0.0099999998 -0.34
-0.039999999 0.0099999998 -0.31999999
-0.039999999 0.0099999998 -0.30000001
-0.039999999 0.0099999998 -0.28
-0.039999999 0.0099999998 -0.25999999
-0.039999999 0.0099999998 -0.23999999
-0.039999999 0.0099999998 -0.22
-0.039999999 0.0099999998 -0.2
-0.02 0.0099999998 -0.34
-0.02 0.0099999998 -0.31999999
-0.02 0.0099999998 -0.30000001
-0.02 0.0099999998 -0.28
-0.02 0.0099999998 -0.25999999
-0.02 0.0099999998 -0.23999999
-0.02 0.0099999998 -0.22
-0.02 0.0099999998 -0.2
0.0 0.0099999998 -0.34
0.0 0.0099999998 -0.31999999
0.0 0.0099999998 -0.30000001
0.02 0.0099999998 -0.34
0.02 0.0099999998 -0.31999999
0.039999999 0.0099999998 -0.34
0.039999999 0.0099999998 -0.31999999
0.059999999000000005 0.0099999998 -0.34
0.059999999000000005 0.0099999998 -0.31999999
0.079999998 0.0099999998 -0.34
0.079999998 0.0099999998 -0.31999999
0.1 0.0099999998 -0.34
0.1 0.0099999998 -0.31999999
0.12 0.0099999998 -0.34
0.12 0.0099999998 -0.31999999
0.14 0.0099999998 -0.34
0.14 0.0099999998 -0.31999999
0.16 0.0099999998 -0.34
0.16 0.0099999998 -0.31999999
0.18000001 0.0099999998 -0.34
0.18000001 0.0099999998 -0.31999999
0.2 0.0099999998 -0.34
0.2 0.0099999998 -0.31999999
-0.22 0.0099999998 -0.18000001
-0.22 0.0099999998 -0.16
-0.22 0.0099999998 -0.14
-0.22 0.0099999998 -0.12
-0.22 0.0099999998 -0.1
-0.22 0.0099999998 -0.079999998
-0.22 0.0099999998 -0.059999999000000005
-0.22 0.0099999998 -0.039999999
-0.22 0.0099999998 -0.02
-0.2 0.0099999998 -0.18000001
-0.2 0.0099999998 -0.16
-0.2 0.0099999998 -0.14
-0.2 0.0099999998 -0.12
-0.2 0.0099999998 -0.1
-0.2 0.0099999998 -0.079999998
-0.2 0.0099999998 -0.059999999000000005
-0.2 0.0099999998 -0.039999999
-0.2 0.0099999998 -0.02
-0.18000001 0.0099999998 -0.18000001
-0.18000001 0.0099999998 -0.16
-0.18000001 0.0099999998 -0.14
-0.18000001 0.0099999998 -0.12
-0.18000001 0.0099999998 -0.1
-0.18000001 0.0099999998 -0.079999998
-0.18000001 0.0099999998 -0.059999999000000005
-0.18000001 0.0099999998 -0.039999999
-0.18000001 0.0099999998 -0.02
-0.16 0.0099999998 -0.18000001
-0.16 0.0099999998 -0.16
-0.16 0.0099999998 -0.14
-0.16 0.0099999998 -0.12
-0.16 0.0099999998 -0.1
-0.16 0.0099999998 -0.079999998
-0.16 0.0099999998 -0.059999999000000005
-0.16 0.0099999998 -0.039999999
-0.16 0.0099999998 -0.02
-0.14 0.0099999998 -0.18000001
-0.14 0.0099999998 -0.16
-0.14 0.0099999998 -0.14
-0.14 0.0099999998 -0.12
-0.14 0.0099999998 -0.1
-0.14 0.0099999998 -0.079999998
-0.14 0.0099999998 -0.059999999000000005
-0.14 0.0099999998 -0.039999999
-0.14 0.0099999998 -0.02
-0.12 0.0099999998 -0.18000001
-0.12 0.0099999998 -0.16
-0.12 0.0099999998 -0.14
-0.12 0.0099999998 -0.12
-0.12 0.0099999998 -0.1
-0.12 0.0099999998 -0.079999998
-0.12 0.0099999998 -0.059999999000000005
-0.12 0.0099999998 -0.039999999
-0.12 0.0099999998 -0.02
-0.1 0.0099999998 -0.18000001
-0.1 0.0099999998 -0.16
-0.1 0.0099999998 -0.14
-0.1 0.0099999998 -0.12
-0.1 0.0099999998 -0.1
-0.1 0.0099999998 -0.079999998
-0.1 0.0099999998 -0.059999999000000005
-0.1 0.0099999998 -0.039999999
-0.1 0.0099999998 -0.02
-0.079999998 0.0099999998 -0.18000001
-0.079999998 0.0099999998 -0.16
-0.079999998 0.0099999998 -0.14
-0.079999998 0.0099999998 -0.12
-0.079999998 0.0099999998 -0.1
-0.079999998 0.0099999998 -0.079999998
-0.079999998 0.0099999998 -0.059999999000000005
-0.079999998 0.0099999998 -0.039999999
-0.079999998 0.0099999998 -0.02
-0.059999999000000005 0.0099999998 -0.18000001
-0.059999999000000005 0.0099999998 -0.16
-0.059999999000000005 0.0099999998 -0.14
-0.059999999000000005 0.0099999998 -0.12
-0.059999999000000005 0.0099999998 -0.1
-0.059999999000000005 0.0099999998 -0.079999998
-0.059999999000000005 0.0099999998 -0.059999999000000005
-0.059999999000000005 0.0099999998 -0.039999999
-0.059999999000000005 0.0099999998 -0.02
-0.039999999 0.0099999998 -0.18000001
-0.039999999 0.0099999998 -0.16
-0.039999999 0.0099999998 -0.14
-0.039999999 0.0099999998 -0.12
-0.039999999 0.0099999998 -0.1
-0.039999999 0.0099999998 -0.079999998
-0.039999999 0.0099999998 -0.059999999000000005
-0.039999999 0.0099999998 -0.039999999
-0.039999999 0.0099999998 -0.02
-0.02 0.0099999998 -0.18000001
-0.02 0.0099999998 -0.16
-0.02 0.0099999998 -0.14
-0.02 0.0099999998 -0.12
-0.02 0.0099999998 -0.1
-0.02 0.0099999998 -0.079999998
-0.02 0.0099999998 -0.059999999000000005
-0.02 0.0099999998 -0.039999999
-0.02 0.0099999998 -0.02
-0.22 0.0099999998 0.0
-0.22 0.0099999998 0.02
-0.22 0.0099999998 0.039999999
-0.22 0.0099999998 0.059999999000000005
-0.22 0.0099999998 0.079999998
-0.22 0.0099999998 0.1
-0.22 0.0099999998 0.12
-0.22 0.0099999998 0.14
-0.2 0.0099999998 0.0
-0.2 0.0099999998 0.02
-0.2 0.0099999998 0.039999999
-0.2 0.0099999998 0.059999999000000005
-0.2 0.0099999998 0.079999998
-0.2 0.0099999998 0.1
-0.2 0.0099999998 0.12
-0.2 0.0099999998 0.14
-0.18000001 0.0099999998 0.0
-0.18000001 0.0099999998 0.02
-0.18000001 0.0099999998 0.039999999
-0.18000001 0.0099999998 0.059999999000000005
-0.18000001 0.0099999998 0.079999998
-0.18000001 0.0099999998 0.1
-0.18000001 0.0099999998 0.12
-0.18000001 0.0099999998 0.14
-0.16 0.0099999998 0.0
-0.16 0.0099999998 0.02
-0.16 0.0099999998 0.039999999
-0.16 0.0099999998 0.059999999000000005
-0.16 0.0099999998 0.079999998
-0.16 0.0099999998 0.1
-0.16 0.0099999998 0.12
-0.16 0.0099999998 0.14
-0.14 0.0099999998 0.0
-0.14 0.0099999998 0.02
-0.14 0.0099999998 0.039999999
-0.14 0.0099999998 0.059999999000000005
-0.14 0.0099999998 0.079999998
-0.14 0.0099999998 0.1
-0.14 0.0099999998 0.12
-0.14 0.0099999998 0.14
-0.12 0.0099999998 0.0
-0.12 0.0099999998 0.02
-0.12 0.0099999998 0.039999999
-0.12 0.0099999998 0.059999999000000005
-0.12 0.0099999998 0.079999998
-0.12 0.0099999998 0.1
-0.12 0.0099999998 0.12
-0.12 0.0099999998 0.14
-0.1 0.0099999998 0.0
-0.1 0.0099999998 0.02
-0.1 0.0099999998 0.039999999
-0.1 0.0099999998 0.059999999000000005
-0.1 0.0099999998 0.079999998
-0.1 0.0099999998 0.1
-0.1 0.0099999998 0.12
-0.1 0.0099999998 0.14
-0.079999998 0.0099999998 0.0
-0.079999998 0.0099999998 0.02
-0.079999998 0.0099999998 0.039999999
-0.079999998 0.0099999998 0.059999999000000005
-0.079999998 0.0099999998 0.079999998
-0.079999998 0.0099999998 0.1
-0.079999998 0.0099999998 0.12
-0.079999998 0.0099999998 0.14
-0.059999999000000005 0.0099999998 0.0
-0.059999999000000005 0.0099999998 0.02
-0.059999999000000005 0.0099999998 0.039999999
-0.059999999000000005 0.0099999998 0.059999999000000005
-0.059999999000000005 0.0099999998 0.079999998
-0.059999999000000005 0.0099999998 0.1
-0.059999999000000005 0.0099999998 0.12
-0.059999999000000005 0.0099999998 0.14
-0.039999999 0.0099999998 0.0
-0.039999999 0.0099999998 0.02
-0.039999999 0.0099999998 0.039999999
-0.039999999 0.0099999998 0.059999999000000005
-0.039999999 0.0099999998 0.079999998
-0.039999999 0.0099999998 0.1
-0.039999999 0.0099999998 0.12
-0.039999999 0.0099999998 0.14
-0.02 0.0099999998 0.0
-0.02 0.0099999998 0.02
-0.02 0.0099999998 0.039999999
-0.02 0.0099999998 0.059999999000000005
-0.02 0.0099999998 0.079999998
-0.02 0.0099999998 0.1
-0.02 0.0099999998 0.12
-0.02 0.0099999998 0.14
-0.22 0.0099999998 0.16
-0.22 0.0099999998 0.18000001
-0.22 0.0099999998 0.2
-0.22 0.0099999998 0.22
-0.22 0.0099999998 0.23999999
-0.22 0.0099999998 0.25999999
-0.22 0.0099999998 0.28
-0.22 0.0099999998 0.30000001
-0.22 0.0099999998 0.31999999
-0.2 0.0099999998 0.16
-0.2 0.0099999998 0.18000001
-0.2 0.0099999998 0.2
-0.2 0.0099999998 0.22
-0.2 0.0099999998 0.23999999
-0.2 0.0099999998 0.25999999
-0.2 0.0099999998 0.28
-0.2 0.0099999998 0.30000001
-0.2 0.0099999998 0.31999999
-0.18000001 0.0099999998 0.16
-0.18000001 0.0099999998 0.18000001
-0.18000001 0.0099999998 0.2
-0.18000001 0.0099999998 0.22
-0.18000001 0.0099999998 0.23999999
-0.18000001 0.0099999998 0.25999999
-0.18000001 0.0099999998 0.28
-0.18000001 0.0099999998 0.30000001
-0.18000001 0.0099999998 0.31999999
-0.16 0.0099999998 0.16
-0.16 0.0099999998 0.18000001
-0.16 0.0099999998 0.2
-0.16 0.0099999998 0.22
-0.16 0.0099999998 0.23999999
-0.16 0.0099999998 0.25999999
-0.16 0.0099999998 0.28
-0.16 0.0099999998 0.30000001
-0.16 0.0099999998 0.31999999
-0.14 0.0099999998 0.16
-0.14 0.0099999998 0.18000001
-0.14 0.0099999998 0.2
-0.14 0.0099999998 0.22
-0.14 0.0099999998 0.23999999
-0.14 0.0099999998 0.25999999
-0.14 0.0099999998 0.28
-0.14 0.0099999998 0.30000001
-0.14 0.0099999998 0.31999999
-0.12 0.0099999998 0.16
-0.12 0.0099999998 0.18000001
-0.12 0.0099999998 0.2
-0.12 0.0099999998 0.22
-0.12 0.0099999998 0.23999999
-0.12 0.0099999998 0.25999999
-0.12 0.0099999998 0.28
-0.12 0.0099999998 0.30000001
-0.12 0.0099999998 0.31999999
-0.1 0.0099999998 0.16
-0.1 0.0099999998 0.18000001
-0.1 0.0099999998 0.2
-0.1 0.0099999998 0.22
-0.1 0.0099999998 0.23999999
-0.1 0.0099999998 0.25999999
-0.1 0.0099999998 0.28
-0.1 0.0099999998 0.30000001
-0.1 0.0099999998 0.31999999
-0.079999998 0.0099999998 0.16
-0.079999998 0.0099999998 0.18000001
-0.079999998 0.0099999998 0.2
-0.079999998 0.0099999998 0.22
-0.079999998 0.0099999998 0.23999999
-0.079999998 0.0099999998 0.25999999
-0.079999998 0.0099999998 0.28
-0.079999998 0.0099999998 0.30000001
-0.079999998 0.0099999998 0.31999999
-0.059999999000000005 0.0099999998 0.16
-0.059999999000000005 0.0099999998 0.18000001
-0.059999999000000005 0.0099999998 0.2
-0.059999999000000005 0.0099999998 0.22
-0.059999999000000005 0.0099999998 0.23999999
-0.059999999000000005 0.0099999998 0.25999999
-0.059999999000000005 0.0099999998 0.28
-0.059999999000000005 0.0099999998 0.30000001
-0.059999999000000005 0.0099999998 0.31999999
-0.039999999 0.0099999998 0.16
-0.039999999 0.0099999998 0.18000001
-0.039999999 0.0099999998 0.2
-0.039999999 0.0099999998 0.22
-0.039999999 0.0099999998 0.23999999
-0.039999999 0.0099999998 0.25999999
-0.039999999 0.0099999998 0.28
-0.039999999 0.0099999998 0.30000001
-0.039999999 0.0099999998 0.31999999
-0.02 0.0099999998 0.16
-0.02 0.0099999998 0.18000001
-0.02 0.0099999998 0.2
-0.02 0.0099999998 0.22
-0.02 0.0099999998 0.23999999
-0.02 0.0099999998 0.25999999
-0.02 0.0099999998 0.28
-0.02 0.0099999998 0.30000001
-0.02 0.0099999998 0.31999999
0.0 0.0099999998 0.30000001
0.0 0.0099999998 0.31999999
0.02 0.0099999998 0.31999999
0.039999999 0.0099999998 0.31999999
0.059999999000000005 0.0099999998 0.31999999
0.079999998 0.0099999998 0.31999999
0.1 0.0099999998 0.31999999
0.12 0.0099999998 0.31999999
0.14 0.0099999998 0.31999999
0.16 0.0099999998 0.31999999
0.18000001 0.0099999998 0.31999999
0.2 0.0099999998 0.31999999
-0.22 0.0099999998 0.34
-0.22 0.0099999998 0.36000001
-0.22 0.0099999998 0.38
-0.2 0.0099999998 0.34
-0.2 0.0099999998 0.36000001
-0.2 0.0099999998 0.38
-0.2 0.0099999998 0.40000001
-0.18000001 0.0099999998 0.34
-0.18000001 0.0099999998 0.36000001
-0.18000001 0.0099999998 0.38
-0.18000001 0.0099999998 0.40000001
-0.16 0.0099999998 0.34
-0.16 0.0099999998 0.36000001
-0.16 0.0099999998 0.38
-0.16 0.0099999998 0.40000001
-0.14 0.0099999998 0.34
-0.14 0.0099999998 0.36000001
-0.14 0.0099999998 0.38
-0.14 0.0099999998 0.40000001
-0.12 0.0099999998 0.34
-0.12 0.0099999998 0.36000001
-0.12 0.0099999998 0.38
-0.12 0.0099999998 0.40000001
-0.1 0.0099999998 0.34
-0.1 0.0099999998 0.36000001
-0.1 0.0099999998 0.38
-0.1 0.0099999998 0.40000001
-0.079999998 0.0099999998 0.34
-0.079999998 0.0099999998 0.36000001
-0.079999998 0.0099999998 0.38
-0.079999998 0.0099999998 0.40000001
-0.059999999000000005 0.0099999998 0.34
-0.059999999000000005 0.0099999998 0.36000001
-0.059999999000000005 0.0099999998 0.38
-0.059999999000000005 0.0099999998 0.40000001
-0.039999999 0.0099999998 0.34
-0.039999999 0.0099999998 0.36000001
-0.039999999 0.0099999998 0.38
-0.039999999 0.0099999998 0.40000001
-0.02 0.0099999998 0.34
-0.02 0.0099999998 0.36000001
-0.02 0.0099999998 0.38
-0.02 0.0099999998 0.40000001
0.0 0.0099999998 0.34
0.0 0.0099999998 0.36000001
0.0 0.0099999998 0.38
0.0 0.0099999998 0.40000001
0.02 0.0099999998 0.34
0.02 0.0099999998 0.36000001
0.02 0.0099999998 0.38
0.02 0.0099999998 0.40000001
0.039999999 0.0099999998 0.34
0.039999999 0.0099999998 0.36000001
0.039999999 0.0099999998 0.38
0.039999999 0.0099999998 0.40000001
0.059999999000000005 0.0099999998 0.34
0.059999999000000005 0.0099999998 0.36000001
0.059999999000000005 0.0099999998 0.38
0.059999999000000005 0.0099999998 0.40000001
0.079999998 0.0099999998 0.34
0.079999998 0.0099999998 0.36000001
0.079999998 0.0099999998 0.38
0.079999998 0.0099999998 0.40000001
0.1 0.0099999998 0.34
0.1 0.0099999998 0.36000001
0.1 0.0099999998 0.38
0.1 0.0099999998 0.40000001
0.12 0.0099999998 0.34
0.12 0.0099999998 0.36000001
0.12 0.0099999998 0.38
0.12 0.0099999998 0.40000001
0.14 0.0099999998 0.34
0.14 0.0099999998 0.36000001
0.14 0.0099999998 0.38
0.14 0.0099999998 0.40000001
0.16 0.0099999998 0.34
0.16 0.0099999998 0.36000001
0.16 0.0099999998 0.38
0.16 0.0099999998 0.40000001
0.18000001 0.0099999998 0.34
0.18000001 0.0099999998 0.36000001
0.18000001 0.0099999998 0.38
0.18000001 0.0099999998 0.40000001
0.2 0.0099999998 0.34
0.2 0.0099999998 0.36000001
0.2 0.0099999998 0.38
1.92 0.0099999998 -0.36000001
1.92 0.0099999998 -0.34
1.92 0.0099999998 -0.31999999
1.9400001 0.0099999998 -0.38
1.9400001 0.0099999998 -0.36000001
1.9400001 0.0099999998 -0.34
1.9400001 0.0099999998 -0.31999999
1.9400001 0.0099999998 -0.30000001
1.9400001 0.0099999998 -0.28
1.9400001 0.0099999998 -0.25999999
1.9400001 0.0099999998 -0.23999999
1.9400001 0.0099999998 -0.22
1.96 0.0099999998 -0.38
1.96 0.0099999998 -0.36000001
1.96 0.0099999998 -0.34
1.96 0.0099999998 -0.31999999
1.96 0.0099999998 -0.30000001
1.96 0.0099999998 -0.28
1.96 0.0099999998 -0.25999999
1.96 0.0099999998 -0.23999999
1.96 0.0099999998 -0.22
1.96 0.0099999998 -0.2
1.96 0.0099999998 -0.18000001
1.96 0.0099999998 -0.16
1.96 0.0099999998 -0.14
1.96 0.0099999998 -0.12
1.98 0.0099999998 -0.38
1.98 0.0099999998 -0.36000001
1.98 0.0099999998 -0.34
1.98 0.0099999998 -0.31999999
1.98 0.0099999998 -0.30000001
1.98 0.0099999998 -0.28
1.98 0.0099999998 -0.25999999
1.98 0.0099999998 -0.23999999
1.98 0.0099999998 -0.22
1.98 0.0099999998 -0.2
1.98 0.0099999998 -0.18000001
1.98 0.0099999998 -0.16
1.98 0.0099999998 -0.14
1.98 0.0099999998 -0.12
1.98 0.0099999998 -0.1
1.98 0.0099999998 -0.079999998
1.98 0.0099999998 -0.059999999000000005
1.98 0.0099999998 -0.039999999
1.98 0.0099999998 -0.02
2.0 0.0099999998 -0.38
2.0 0.0099999998 -0.36000001
2.0 0.0099999998 -0.34
2.0 0.0099999998 -0.31999999
2.0 0.0099999998 -0.30000001
2.0 0.0099999998 -0.28
2.0 0.0099999998 -0.25999999
2.0 0.0099999998 -0.23999999
2.0 0.0099999998 -0.22
2.0 0.0099999998 -0.2
2.0 0.0099999998 -0.18000001
2.0 0.0099999998 -0.16
2.0 0.0099999998 -0.14
2.0 0.0099999998 -0.12
2.0 0.0099999998 -0.1
2.0 0.0099999998 -0.079999998
2.0 0.0099999998 -0.059999999000000005
2.0 0.0099999998 -0.039999999
2.0 0.0099999998 -0.02
2.0 0.0099999998 0.0
2.0 0.0099999998 0.02
2.0 0.0099999998 0.039999999
2.0 0.0099999998 0.059999999000000005
2.0 0.0099999998 0.079999998
2.02 0.0099999998 -0.40000001
2.02 0.0099999998 -0.38
2.02 0.0099999998 -0.36000001
2.02 0.0099999998 -0.34
2.02 0.0099999998 -0.31999999
2.02 0.0099999998 -0.30000001
2.02 0.0099999998 -0.28
2.02 0.0099999998 -0.25999999
2.02 0.0099999998 -0.23999999
2.02 0.0099999998 -0.22
2.02 0.0099999998 -0.2
2.02 0.0099999998 -0.18000001
2.02 0.0099999998 -0.16
2.02 0.0099999998 -0.14
2.02 0.0099999998 -0.12
2.02 0.0099999998 -0.1
2.02 0.0099999998 -0.079999998
2.02 0.0099999998 -0.059999999000000005
2.02 0.0099999998 -0.039999999
2.02 0.0099999998 -0.02
2.02 0.0099999998 0.0
2.02 0.0099999998 0.02
2.02 0.0099999998 0.039999999
2.02 0.0099999998 0.059999999000000005
2.02 0.0099999998 0.079999998
2.02 0.0099999998 0.1
2.02 0.0099999998 0.12
2.02 0.0099999998 0.14
2.02 0.0099999998 0.16
2.02 0.0099999998 0.18000001
2.04 0.0099999998 -0.40000001
2.04 0.0099999998 -0.38
2.04 0.0099999998 -0.36000001
2.04 0.0099999998 -0.34
2.04 0.0099999998 -0.31999999
2.04 0.0099999998 -0.30000001
2.04 0.0099999998 -0.28
2.04 0.0099999998 -0.25999999
2.04 0.0099999998 -0.23999999
2.04 0.0099999998 -0.22
2.04 0.0099999998 -0.2
2.04 0.0099999998 -0.18000001
2.04 0.0099999998 -0.16
2.04 0.0099999998 -0.14
2.04 0.0099999998 -0.12
2.04 0.0099999998 -0.1
2.04 0.0099999998 -0.079999998
2.04 0.0099999998 -0.059999999000000005
2.04 0.0099999998 -0.039999999
2.04 0.0099999998 -0.02
2.04 0.0099999998 0.0
2.04 0.0099999998 0.02
2.04 0.0099999998 0.039999999
2.04 0.0099999998 0.059999999000000005
2.04 0.0099999998 0.079999998
2.04 0.0099999998 0.1
2.04 0.0099999998 0.12
2.04 0.0099999998 0.14
2.04 0.0099999998 0.16
2.04 0.0099999998 0.18000001
2.04 0.0099999998 0.2
2.04 0.0099999998 0.22
2.04 0.0099999998 0.23999999
2.04 0.0099999998 0.25999999
2.04 0.0099999998 0.28
2.0599998999999998 0.0099999998 -0.40000001
2.0599998999999998 0.0099999998 -0.38
2.0599998999999998 0.0099999998 -0.36000001
2.0599998999999998 0.0099999998 -0.34
2.0599998999999998 0.0099999998 -0.31999999
2.0599998999999998 0.0099999998 -0.30000001
2.0599998999999998 0.0099999998 -0.28
2.0599998999999998 0.0099999998 -0.25999999
2.0599998999999998 0.0099999998 -0.23999999
2.0599998999999998 0.0099999998 -0.22
2.0599998999999998 0.0099999998 -0.2
2.0599998999999998 0.0099999998 -0.18000001
2.0599998999999998 0.0099999998 -0.16
2.0599998999999998 0.0099999998 -0.14
2.0599998999999998 0.0099999998 -0.12
2.0599998999999998 0.0099999998 -0.1
2.0599998999999998 0.0099999998 -0.079999998
2.0599998999999998 0.0099999998 -0.059999999000000005
2.0599998999999998 0.0099999998 -0.039999999
2.0599998999999998 0.0099999998 -0.02
2.0599998999999998 0.0099999998 0.0
2.0599998999999998 0.0099999998 0.02
2.0599998999999998 0.0099999998 0.039999999
2.0599998999999998 0.0099999998 0.059999999000000005
2.0599998999999998 0.0099999998 0.079999998
2.0599998999999998 0.0099999998 0.1
2.0599998999999998 0.0099999998 0.12
2.0599998999999998 0.0099999998 0.14
2.0599998999999998 0.0099999998 0.16
2.0599998999999998 0.0099999998 0.18000001
2.0599998999999998 0.0099999998 0.2
2.0599998999999998 0.0099999998 0.22
2.0599998999999998 0.0099999998 0.23999999
2.0599998999999998 0.0099999998 0.25999999
2.0599998999999998 0.0099999998 0.28
2.0599998999999998 0.0099999998 0.30000001
2.0599998999999998 0.0099999998 0.31999999
2.0599998999999998 0.0099999998 0.34
2.0599998999999998 0.0099999998 0.36000001
2.0599998999999998 0.0099999998 0.38
2.0799999 0.0099999998 -0.40000001
2.0799999 0.0099999998 -0.38
2.0799999 0.0099999998 -0.36000001
2.0799999 0.0099999998 -0.34
2.0799999 0.0099999998 -0.31999999
2.0799999 0.0099999998 -0.30000001
2.0799999 0.0099999998 -0.28
2.0799999 0.0099999998 -0.25999999
2.0799999 0.0099999998 -0.23999999
2.0799999 0.0099999998 -0.22
2.0799999 0.0099999998 -0.2
2.0799999 0.0099999998 -0.18000001
2.0799999 0.0099999998 -0.16
2.0799999 0.0099999998 -0.14
2.0799999 0.0099999998 -0.12
2.0799999 0.0099999998 -0.1
2.0799999 0.0099999998 -0.079999998
2.0799999 0.0099999998 -0.059999999000000005
2.0799999 0.0099999998 -0.039999999
2.0799999 0.0099999998 -0.02
2.0799999 0.0099999998 0.0
2.0799999 0.0099999998 0.02
2.0799999 0.0099999998 0.039999999
2.0799999 0.0099999998 0.059999999000000005
2.0799999 0.0099999998 0.079999998
2.0799999 0.0099999998 0.1
2.0799999 0.0099999998 0.12
2.0799999 0.0099999998 0.14
2.0799999 0.0099999998 0.16
2.0799999 0.0099999998 0.18000001
2.0799999 0.0099999998 0.2
2.0799999 0.0099999998 0.22
2.0799999 0.0099999998 0.23999999
2.0799999 0.0099999998 0.25999999
2.0799999 0.0099999998 0.28
2.0799999 0.0099999998 0.30000001
2.0799999 0.0099999998 0.31999999
2.0799999 0.0099999998 0.34
2.0799999 0.0099999998 0.36000001
2.0799999 0.0099999998 0.38
2.0799999 0.0099999998 0.40000001
2.0999999 0.0099999998 -0.40000001
2.0999999 0.0099999998 -0.38
2.0999999 0.0099999998 -0.36000001
2.0999999 0.0099999998 -0.34
2.0999999 0.0099999998 -0.31999999
2.0999999 0.0099999998 -0.30000001
2.0999999 0.0099999998 -0.28
2.0999999 0.0099999998 -0.25999999
2.0999999 0.0099999998 -0.23999999
2.0999999 0.0099999998 -0.22
2.0999999 0.0099999998 -0.2
2.0999999 0.0099999998 -0.18000001
2.0999999 0.0099999998 -0.16
2.0999999 0.0099999998 -0.14
2.0999999 0.0099999998 -0.12
2.0999999 0.0099999998 -0.1
2.0999999 0.0099999998 -0.079999998
2.0999999 0.0099999998 -0.059999999000000005
2.0999999 0.0099999998 -0.039999999
2.0999999 0.0099999998 -0.02
2.0999999 0.0099999998 0.0
2.0999999 0.0099999998 0.02
2.0999999 0.0099999998 0.039999999
2.0999999 0.0099999998 0.059999999000000005
2.0999999 0.0099999998 0.079999998
2.0999999 0.0099999998 0.1
2.0999999 0.0099999998 0.12
2.0999999 0.0099999998 0.14
2.0999999 0.0099999998 0.16
2.0999999 0.0099999998 0.18000001
2.0999999 0.0099999998 0.2
2.0999999 0.0099999998 0.22
2.0999999 0.0099999998 0.23999999
2.0999999 0.0099999998 0.25999999
2.0999999 0.0099999998 0.28
2.0999999 0.0099999998 0.30000001
2.0999999 0.0099999998 0.31999999
2.0999999 0.0099999998 0.34
2.0999999 0.0099999998 0.36000001
2.0999999 0.0099999998 0.38
2.0999999 0.0099999998 0.40000001
2.1199999 0.0099999998 -0.41999999
2.1199999 0.0099999998 -0.40000001
2.1199999 0.0099999998 -0.38
2.1199999 0.0099999998 -0.36000001
2.1199999 0.0099999998 -0.34
2.1199999 0.0099999998 -0.31999999
2.1199999 0.0099999998 -0.30000001
2.1199999 0.0099999998 -0.28
2.1199999 0.0099999998 -0.25999999
2.1199999 0.0099999998 -0.23999999
2.1199999 0.0099999998 -0.22
2.1199999 0.0099999998 -0.2
2.1199999 0.0099999998 -0.18000001
2.1199999 0.0099999998 -0.16
2.1199999 0.0099999998 -0.14
2.1199999 0.0099999998 -0.12
2.1199999 0.0099999998 -0.1
2.1199999 0.0099999998 -0.079999998
2.1199999 0.0099999998 -0.059999999000000005
2.1199999 0.0099999998 -0.039999999
2.1199999 0.0099999998 -0.02
2.1199999 0.0099999998 0.0
2.1199999 0.0099999998 0.02
2.1199999 0.0099999998 0.039999999
2.1199999 0.0099999998 0.059999999000000005
2.1199999 0.0099999998 0.079999998
2.1199999 0.0099999998 0.1
2.1199999 0.0099999998 0.12
2.1199999 0.0099999998 0.14
2.1199999 0.0099999998 0.16
2.1199999 0.0099999998 0.18000001
2.1199999 0.0099999998 0.2
2.1199999 0.0099999998 0.22
2.1199999 0.0099999998 0.23999999
2.1199999 0.0099999998 0.25999999
2.1199999 0.0099999998 0.28
2.1199999 0.0099999998 0.30000001
2.1199999 0.0099999998 0.31999999
2.1199999 0.0099999998 0.34
2.1199999 0.0099999998 0.36000001
2.1199999 0.0099999998 0.38
2.1199999 0.0099999998 0.40000001
2.1400001 0.0099999998 -0.38
2.1400001 0.0099999998 -0.36000001
2.1400001 0.0099999998 -0.34
2.1400001 0.0099999998 -0.31999999
2.1400001 0.0099999998 -0.30000001
2.1400001 0.0099999998 -0.28
2.1400001 0.0099999998 -0.25999999
2.1400001 0.0099999998 -0.23999999
2.1400001 0.0099999998 -0.22
2.1400001 0.0099999998 -0.2
2.1400001 0.0099999998 -0.18000001
2.1400001 0.0099999998 -0.16
2.1400001 0.0099999998 -0.14
2.1400001 0.0099999998 -0.12
2.1400001 0.0099999998 -0.1
2.1400001 0.0099999998 -0.079999998
2.1400001 0.0099999998 -0.059999999000000005
2.1400001 0.0099999998 -0.039999999
2.1400001 0.0099999998 -0.02
2.1400001 0.0099999998 0.0
2.1400001 0.0099999998 0.02
2.1400001 0.0099999998 0.039999999
2.1400001 0.0099999998 0.059999999000000005
2.1400001 0.0099999998 0.079999998
2.1400001 0.0099999998 0.1
2.1400001 0.0099999998 0.12
2.1400001 0.0099999998 0.14
2.1400001 0.0099999998 0.16
2.1400001 0.0099999998 0.18000001
2.1400001 0.0099999998 0.2
2.1400001 0.0099999998 0.22
2.1400001 0.0099999998 0.23999999
2.1400001 0.0099999998 0.25999999
2.1400001 0.0099999998 0.28
2.1400001 0.0099999998 0.30000001
2.1400001 0.0099999998 0.31999999
2.1400001 0.0099999998 0.34
2.1400001 0.0099999998 0.36000001
2.1400001 0.0099999998 0.38
2.1400001 0.0099999998 0.40000001
2.1600001 0.0099999998 -0.28
2.1600001 0.0099999998 -0.25999999
2.1600001 0.0099999998 -0.23999999
2.1600001 0.0099999998 -0.22
2.1600001 0.0099999998 -0.2
2.1600001 0.0099999998 -0.18000001
2.1600001 0.0099999998 -0.16
2.1600001 0.0099999998 -0.14
2.1600001 0.0099999998 -0.12
2.1600001 0.0099999998 -0.1
2.1600001 0.0099999998 -0.079999998
2.1600001 0.0099999998 -0.059999999000000005
2.1600001 0.0099999998 -0.039999999
2.1600001 0.0099999998 -0.02
2.1600001 0.0099999998 0.0
2.1600001 0.0099999998 0.02
2.1600001 0.0099999998 0.039999999
2.1600001 0.0099999998 0.059999999000000005
2.1600001 0.0099999998 0.079999998
2.1600001 0.0099999998 0.1
2.1600001 0.0099999998 0.12
2.1600001 0.0099999998 0.14
2.1600001 0.0099999998 0.16
2.1600001 0.0099999998 0.18000001
2.1600001 0.0099999998 0.2
2.1600001 0.0099999998 0.22
2.1600001 0.0099999998 0.23999999
2.1600001 0.0099999998 0.25999999
2.1600001 0.0099999998 0.28
2.1600001 0.0099999998 0.30000001
2.1600001 0.0099999998 0.31999999
2.1600001 0.0099999998 0.34
2.1600001 0.0099999998 0.36000001
2.1600001 0.0099999998 0.38
2.1600001 0.0099999998 0.40000001
2.1800001 0.0099999998 -0.18000001
2.1800001 0.0099999998 -0.16
2.1800001 0.0099999998 -0.14
2.1800001 0.0099999998 -0.12
2.1800001 0.0099999998 -0.1
2.1800001 0.0099999998 -0.079999998
2.1800001 0.0099999998 -0.059999999000000005
2.1800001 0.0099999998 -0.039999999
2.1800001 0.0099999998 -0.02
2.1800001 0.0099999998 0.0
2.1800001 0.0099999998 0.02
2.1800001 0.0099999998 0.039999999
2.1800001 0.0099999998 0.059999999000000005
2.1800001 0.0099999998 0.079999998
2.1800001 0.0099999998 0.1
2.1800001 0.0099999998 0.12
2.1800001 0.0099999998 0.14
2.1800001 0.0099999998 0.16
2.1800001 0.0099999998 0.18000001
2.1800001 0.0099999998 0.2
2.1800001 0.0099999998 0.22
2.1800001 0.0099999998 0.23999999
2.1800001 0.0099999998 0.25999999
2.1800001 0.0099999998 0.28
2.1800001 0.0099999998 0.30000001
2.1800001 0.0099999998 0.31999999
2.1800001 0.0099999998 0.34
2.1800001 0.0099999998 0.36000001
2.1800001 0.0099999998 0.38
2.1800001 0.0099999998 0.40000001
2.2 0.0099999998 -0.079999998
2.2 0.0099999998 -0.059999999000000005
2.2 0.0099999998 -0.039999999
2.2 0.0099999998 -0.02
2.2 0.0099999998 0.0
2.2 0.0099999998 0.02
2.2 0.0099999998 0.039999999
2.2 0.0099999998 0.059999999000000005
2.2 0.0099999998 0.079999998
2.2 0.0099999998 0.1
2.2 0.0099999998 0.12
2.2 0.0099999998 0.14
2.2 0.0099999998 0.16
2.2 0.0099999998 0.18000001
2.2 0.0099999998 0.2
2.2 0.0099999998 0.22
2.2 0.0099999998 0.23999999
2.2 0.0099999998 0.25999999
2.2 0.0099999998 0.28
2.2 0.0099999998 0.30000001
2.2 0.0099999998 0.31999999
2.2 0.0099999998 0.34
2.2 0.0099999998 0.36000001
2.2 0.0099999998 0.38
2.22 0.0099999998 0.02
2.22 0.0099999998 0.039999999
2.22 0.0099999998 0.059999999000000005
2.22 0.0099999998 0.079999998
2.22 0.0099999998 0.1
2.22 0.0099999998 0.12
2.22 0.0099999998 0.14
2.22 0.0099999998 0.16
2.22 0.0099999998 0.18000001
2.22 0.0099999998 0.2
2.22 0.0099999998 0.22
2.22 0.0099999998 0.23999999
2.22 0.0099999998 0.25999999
2.22 0.0099999998 0.28
2.22 0.0099999998 0.30000001
2.22 0.0099999998 0.31999999
2.22 0.0099999998 0.34
2.22 0.0099999998 0.36000001
2.22 0.0099999998 0.38
2.24 0.0099999998 0.12
2.24 0.0099999998 0.14
2.24 0.0099999998 0.16
2.24 0.0099999998 0.18000001
2.24 0.0099999998 0.2
2.24 0.0099999998 0.22
2.24 0.0099999998 0.23999999
2.24 0.0099999998 0.25999999
2.24 0.0099999998 0.28
2.24 0.0099999998 0.30000001
2.24 0.0099999998 0.31999999
2.24 0.0099999998 0.34
2.24 0.0099999998 0.36000001
2.24 0.0099999998 0.38
2.26 0.0099999998 0.22
2.26 0.0099999998 0.23999999
2.26 0.0099999998 0.25999999
2.26 0.0099999998 0.28
2.26 0.0099999998 0.30000001
2.26 0.0099999998 0.31999999
2.26 0.0099999998 0.34
2.26 0.0099999998 0.36000001
2.26 0.0099999998 0.38
2.28 0.0099999998 0.31999999
2.28 0.0099999998 0.34
2.28 0.0099999998 0.36000001
-8.2231162e-07 0.0099999998 -0.28000033
-9.9790634e-07 0.0099999998 -0.26000029
-1.1459506e-06 0.0099999998 -0.24000028
-1.261028e-06 0.0099999998 -0.22000024
-1.3465646999999998e-06 0.0099999998 -0.2000002
0.019999166999999998 0.0099999998 -0.30000043
0.019998843 0.0099999998 -0.28000039
0.019998565 0.0099999998 -0.26000038
0.019998342 0.0099999998 -0.24000037
0.019998174 0.0099999998 -0.22000031
0.019998053000000002 0.0099999998 -0.20000027
0.039998822 0.0099999998 -0.30000049
0.039998367 0.0099999998 -0.28000048
0.03999798 0.0099999998 -0.26000047
0.039997662999999996 0.0099999998 -0.24000043
0.039997432 0.0099999998 -0.22000037
0.039997267999999996 0.0099999998 -0.20000032
0.059998385999999994 0.0099999998 -0.30000055
0.059997771 0.0099999998 -0.28000054
0.059997257000000005 0.0099999998 -0.26000053
0.059996843 0.0099999998 -0.24000047
0.059996542 0.0099999998 -0.22000042
0.059996333 0.0099999998 -0.20000035
0.07999785200000001 0.0099999998 -0.30000061
0.079997048 0.0099999998 -0.28000057
0.079996392 0.0099999998 -0.26000056
0.079995871 0.0099999998 -0.24000052
0.079995498 0.0099999998 -0.22000045
0.079995245 0.0099999998 -0.20000038
0.09999719300000001 0.0099999998 -0.3000007
0.099996172 0.0099999998 -0.28000063
0.099995352 0.0099999998 -0.26000059
0.09999471900000001 0.0099999998 -0.24000055
0.099994272 0.0099999998 -0.22000048
0.099993981 0.0099999998 -0.20000041
0.11999636 0.0099999998 -0.30000082
0.11999509 0.0099999998 -0.28000069
0.11999409 0.0099999998 -0.26000065
0.11999334 0.0099999998 -0.24000058
0.11999283 0.0099999998 -0.22000051
0.1199925 0.0099999998 -0.20000042
0.13999531 0.0099999998 -0.300001
0.13999374 0.0099999998 -0.28000081
0.13999256 0.0099999998 -0.26000071
0.13999169 0.0099999998 -0.24000062
0.13999109 0.0099999998 -0.22000055
0.13999073 0.0099999998 -0.20000046
0.15999395 0.0099999998 -0.3000012
0.15999208 0.0099999998 -0.28000093
0.15999068 0.0099999998 -0.2600008
0.15998968 0.0099999998 -0.24000071
0.15998903 0.0099999998 -0.22000062
0.15998864 0.0099999998 -0.20000052
0.17999215 0.0099999998 -0.30000138
0.17999001 0.0099999998 -0.2800011
0.17998841 0.0099999998 -0.26000097
0.17998727 0.0099999998 -0.24000086
0.17998655 0.0099999998 -0.22000076
0.17998615 0.0099999998 -0.20000064
0.19998977 0.0099999998 -0.3000015
0.1999874 0.0099999998 -0.28000131
0.19998564 0.0099999998 -0.26000118
0.19998437 0.0099999998 -0.24000108
0.1999836 0.0099999998 -0.22000098
0.19998319 0.0099999998 -0.20000085
0.2199869 0.0099999998 -0.30000234
0.21998419 0.0099999998 -0.28000179
0.21998225 0.0099999998 -0.26000157
0.2199809 0.0099999998 -0.24000143
0.21998009 0.0099999998 -0.22000131
0.2199797 0.0099999998 -0.20000115
0.23998313 0.0099999998 -0.3000049
0.23998018 0.0099999998 -0.28000334
0.23997813 0.0099999998 -0.26000252
0.2399767 0.0099999998 -0.24000208
0.23997591 0.0099999998 -0.22000183
0.23997557 0.0099999998 -0.20000158
0.25997797 0.0099999998 -0.30000767
0.25997505 0.0099999998 -0.28000554
0.25997302 0.0099999998 -0.26000401
0.25997165 0.0099999998 -0.24000314
0.25997096 0.0099999998 -0.22000264
0.25997069 0.0099999998 -0.20000219
0.27997151 0.0099999998 -0.30001003
0.27996877 0.0099999998 -0.28000775
0.27996686 0.0099999998 -0.26000577
0.27996564 0.0099999998 -0.24000451
0.2799651 0.0099999998 -0.22000366
0.27996495 0.0099999998 -0.200003
0.29996398 0.0099999998 -0.3000122
0.29996142 0.0099999998 -0.28000981
0.29995966 0.0099999998 -0.26000762
0.29995862 0.0099999998 -0.24000603
0.2999582 0.0099999998 -0.22000487
0.29995823 0.0099999998 -0.20000394
0.31995562 0.0099999998 -0.30001447
0.31995308 0.0099999998 -0.28001186
0.31995139 0.0099999998 -0.2600095
0.31995046 0.0099999998 -0.24000765
0.31995016 0.0099999998 -0.2200062
0.31995034 0.0099999998 -0.20000499
0.33994636 0.0099999998 -0.30001691
0.33994365 0.0099999998 -0.28001407
0.33994186 0.0099999998 -0.26001146
0.33994097 0.0099999998 -0.24000937
0.33994079 0.0099999998 -0.22000764
0.33994114 0.0099999998 -0.20000617
0.35993588 0.0099999998 -0.30001968
0.35993281 0.0099999998 -0.28001651
0.35993087 0.0099999998 -0.26001361
0.35992995 0.0099999998 -0.24001123
0.35992989 0.0099999998 -0.22000921
0.35993046 0.0099999998 -0.20000744
0.37992382 0.0099999998 -0.3000229
0.3799203 0.0099999998 -0.28001928
0.37991813 0.0099999998 -0.26001599
0.37991717 0.0099999998 -0.24001327
0.37991723 0.0099999998 -0.22001091
0.37991804 0.0099999998 -0.20000881
0.39990976 0.0099999998 -0.3000266
0.39990574 0.0099999998 -0.2800225
0.39990336 0.0099999998 -0.26001871
0.3999024 0.0099999998 -0.24001555
0.39990261 0.0099999998 -0.22001278
0.39990368 0.0099999998 -0.2000103
0.41989341 0.0099999998 -0.30003098
0.41988885 0.0099999998 -0.2800262
0.41988623 0.0099999998 -0.26002178
0.41988528 0.0099999998 -0.2400181
0.41988569 0.0099999998 -0.22001486
0.41988713 0.0099999998 -0.20001198
0.43987435 0.0099999998 -0.3000361
0.43986923 0.0099999998 -0.28003055
0.43986636 0.0099999998 -0.26002532
0.43986547 0.0099999998 -0.24002096
0.43986619 0.0099999998 -0.22001719
0.43986809 0.0099999998 -0.20001391
0.45985204 0.0099999998 -0.30004224
0.45984635 0.0099999998 -0.28003564
0.45984331 0.0099999998 -0.26002932
0.45984256 0.0099999998 -0.24002418
0.4598437 0.0099999998 -0.22001991
0.45984623 0.0099999998 -0.20001626
0.47982574 0.0099999998 -0.30004963
0.47981957 0.0099999998 -0.28004169
0.4798165 0.0099999998 -0.26003391
0.47981611 0.0099999998 -0.2400279
0.47981787 0.0099999998 -0.2200232
0.47982118 0.0099999998 -0.20001931
0.49979448 0.0099999998 -0.30005863
0.49978819 0.0099999998 -0.28004885
0.49978542 0.0099999998 -0.26003921
0.49978569 0.0099999998 -0.24003243
0.49978828 0.0099999998 -0.22002749
0.49979261 0.0099999998 -0.20002356
0.51975703 0.0099999998 -0.30006969
0.51975143 0.0099999998 -0.28005749
0.51974964 0.0099999998 -0.26004568
0.51975101 0.0099999998 -0.24003839
0.51975477 0.0099999998 -0.22003353
0.51976031 0.0099999998 -0.20002972
0.53971231 0.0099999998 -0.30008346
0.53970897 0.0099999998 -0.28006825
0.53970903 0.0099999998 -0.26005417
0.53971219 0.0099999998 -0.24004681
0.5397175 0.0099999998 -0.22004233
0.53972441 0.0099999998 -0.2000387
0.55966026 0.0099999998 -0.30010086
0.55966121 0.0099999998 -0.28008232
0.55966455 0.0099999998 -0.26006615
0.55967009 0.0099999998 -0.24005896
0.5596773 0.0099999998 -0.22005507
0.55968571 0.0099999998 -0.2000514
0.5796029 0.0099999998 -0.30012351
0.57961041 0.0099999998 -0.28010178
0.57961816 0.0099999998 -0.26008359
0.57962662 0.0099999998 -0.24007632
0.57963592 0.0099999998 -0.22007267
0.57964575 0.0099999998 -0.20006838
0.59954524 0.0099999998 -0.30015391
0.59956032 0.0099999998 -0.28012991
0.59957284 0.0099999998 -0.26010925
0.59958422 0.0099999998 -0.24010012
0.59959543 0.0099999998 -0.22009508
0.59960657 0.0099999998 -0.20008919
0.61949408 0.0099999998 -0.30019575
0.61951518 0.0099999998 -0.28017116
0.61953074 0.0099999998 -0.26014617
0.61954457 0.0099999998 -0.24013148
0.61955768 0.0099999998 -0.22012223
0.61957014 0.0099999998 -0.20011321
0.63945591 0.0099999998 -0.30025175
0.6394791 0.0099999998 -0.2802285
0.63949633 0.0099999998 -0.26020202
0.63951057 0.0099999998 -0.24017558
0.6395244 0.0099999998 -0.22015546
0.63953853 0.0099999998 -0.20014116
0.65943515 0.0099999998 -0.30031717
0.65945745 0.0099999998 -0.28029567
0.65947604 0.0099999998 -0.26027581
0.65948999 0.0099999998 -0.24024019
0.65950257 0.0099999998 -0.22020362
0.65951663 0.0099999998 -0.20017791
0.67944193 0.0099999998 -0.30037841
0.6794557 0.0099999998 -0.28035754
0.67947423 0.0099999998 -0.26034746
0.67948723 0.0099999998 -0.24031451
0.67949694 0.0099999998 -0.22026548
0.67950922 0.0099999998 -0.20022681
0.69952238 0.0099999998 -0.30042478
0.699498 0.0099999998 -0.28040546
0.69950384 0.0099999998 -0.26040599
0.69951397 0.0099999998 -0.24038091
0.6995191 0.0099999998 -0.22033206
0.69952786 0.0099999998 -0.20028621
0.71966892 0.0099999998 -0.30045947
0.71963608 0.0099999998 -0.28043836
0.71961325 0.0099999998 -0.2604416
0.71960163 0.0099999998 -0.24042609
0.71959931 0.0099999998 -0.22038552
0.71960586 0.0099999998 -0.20034119
0.73979884 0.0099999998 -0.30048493
0.73977625 0.0099999998 -0.28045788
0.73975945 0.0099999998 -0.26045379
0.7397483 0.0099999998 -0.24043722
0.73974407 0.0099999998 -0.22039941
0.73974687 0.0099999998 -0.20035733
0.75989562 0.0099999998 -0.3005029
0.75988209 0.0099999998 -0.2804707
0.75987226 0.0099999998 -0.26045844
0.75986463 0.0099999998 -0.2404391
0.75986075 0.0099999998 -0.22040273
0.75986081 0.0099999998 -0.20036298
0.77996391 0.0099999998 -0.30051446
0.77995825 0.0099999998 -0.28047904
0.77995431 0.0099999998 -0.2604607
0.77995032 0.0099999998 -0.24043874
0.7799474 0.0099999998 -0.22040251
0.77994603 0.0099999998 -0.20036373
0.80001748 0.0099999998 -0.30052021
0.80001861 0.0099999998 -0.28048348
0.80001926 0.0099999998 -0.26046214
0.80001879 0.0099999998 -0.24043837
0.80001712 0.0099999998 -0.22040114
0.80001509 0.0099999998 -0.20036159
0.82006943 0.0099999998 -0.30052033
0.8200767 0.0099999998 -0.28048384
0.82008082 0.0099999998 -0.26046261
0.82008326 0.0099999998 -0.24043785
0.82008284 0.0099999998 -0.22039883
0.82008022 0.0099999998 -0.20035729
0.84012622 0.0099999998 -0.30051357
0.84013891 0.0099999998 -0.28047797
0.84014577 0.0099999998 -0.26045772
0.84015054 0.0099999998 -0.24043302
0.84015113 0.0099999998 -0.22039293
0.8401475 0.0099999998 -0.20035037
0.86018664 0.0099999998 -0.30050042
0.8602044 0.0099999998 -0.28046593
0.8602134 0.0099999998 -0.26044655
0.86021996 0.0099999998 -0.24042246
0.86022127 0.0099999998 -0.22038254
0.86021602 0.0099999998 -0.20034027
0.88024586 0.0099999998 -0.30048174
0.88026804 0.0099999998 -0.28044847
0.88027859 0.0099999998 -0.26042947
0.88028681 0.0099999998 -0.24040607
0.88028842 0.0099999998 -0.22036749
0.88028139 0.0099999998 -0.20032661
0.90029883 0.0099999998 -0.3004584
0.9003244 0.0099999998 -0.28042653
0.90033537 0.0099999998 -0.26040712
0.90034461 0.0099999998 -0.240384
0.90034676 0.0099999998 -0.22034734
0.90033859 0.0099999998 -0.2003094
0.92034149 0.0099999998 -0.3004314
0.92036855 0.0099999998 -0.28040096
0.92037994 0.0099999998 -0.26038092
0.92038906 0.0099999998 -0.24035743
0.92039168 0.0099999998 -0.22032282
0.92038101 0.0099999998 -0.20028922
0.94037163 0.0099999998 -0.30040166
0.94039977 0.0099999998 -0.2803728
0.94041157 0.0099999998 -0.2603527
0.94041896 0.0099999998 -0.24032842
0.94041276 0.0099999998 -0.22029753
0.94039351 0.0099999998 -0.20026754
0.96039295 0.0099999998 -0.30037007
0.96042097 0.0099999998 -0.280343
0.96043193 0.0099999998 -0.26032311
0.96043175 0.0099999998 -0.24030061
0.9604153 0.0099999998 -0.22027348
0.96039319 0.0099999998 -0.20024519
0.98041123 0.0099999998 -0.30033788
0.98043698 0.0099999998 -0.28031236
0.98044342 0.0099999998 -0.2602936
0.98043323 0.0099999998 -0.2402743
0.9804126 0.0099999998 -0.22024934
0.98038894 0.0099999998 -0.20022327
1.0004318 0.0099999998 -0.3003062
1.0004507 0.0099999998 -0.28028172
1.0004481 0.0099999998 -0.26026526
1.0004314 0.0099999998 -0.24024867
1.0004072 0.0099999998 -0.22022517
1.0003825000000002 0.0099999998 -0.20020282
1.0204589 0.0099999998 -0.30027595
1.0204640999999999 0.0099999998 -0.28025252
1.0204511 0.0099999998 -0.2602385
1.0204289 0.0099999998 -0.24022396
1.0204011999999998 0.0099999998 -0.22020316
1.0203754999999999 0.0099999998 -0.20018423
1.0404966999999998 0.0099999998 -0.30024764
1.0404806999999998 0.0099999998 -0.28022707
1.040455 0.0099999998 -0.26021427
1.0404265 0.0099999998 -0.24020146
1.0403957 0.0099999998 -0.22018334
1.0403677 0.0099999998 -0.20016631
1.0605346000000002 0.0099999998 -0.30022222
1.0604993 0.0099999998 -0.28020653
1.0604619 0.0099999998 -0.26019445
1.0604252 0.0099999998 -0.24018227
1.0603911 0.0099999998 -0.2201654
1.0603601999999999 0.0099999998 -0.20014955
1.0805563999999999 0.0099999998 -0.30020198
1.0805128000000002 0.0099999998 -0.28018931
1.0804681999999999 0.0099999998 -0.26017696
1.0804251 0.0099999998 -0.24016498
1.0803875 0.0099999998 -0.22014958
1.0803535 0.0099999998 -0.20013404
1.1005181999999998 0.0099999998 -0.28017375
1.1004715 0.0099999998 -0.2601606
1.1004267 0.0099999998 -0.24014935
1.1003853000000001 0.0099999998 -0.22013514
1.1003484 0.0099999998 -0.20012008
1.1205157 0.0099999998 -0.28016078
1.1204733 0.0099999998 -0.26014769
1.1204290000000001 0.0099999998 -0.24013574
1.1203855 0.0099999998 -0.22012255
1.1203452 0.0099999998 -0.20010768
1.1404727 0.0099999998 -0.26013938
1.1404315 0.0099999998 -0.24012637
1.1403888 0.0099999998 -0.22011383
1.1403451999999998 0.0099999998 -0.20009835
1.1604674 0.0099999998 -0.26013336
1.1604341999999999 0.0099999998 -0.24012242
1.1603943 0.0099999998 -0.22010913
1.1603506000000001 0.0099999998 -0.20009395
1.1804322 0.0099999998 -0.24012019
1.1803993 0.0099999998 -0.22010829
1.1803595 0.0099999998 -0.20009422
1.2003996000000001 0.0099999998 -0.22010832
1.2003683 0.0099999998 -0.20009689
1.2203875 0.0099999998 -0.22010347
1.2203701 0.0099999998 -0.20009878
-1.4061185e-06 0.0099999998 -0.18000016
-1.4455096e-06 0.0099999998 -0.16000012
-1.4689513e-06 0.0099999998 -0.14000009
-1.4812491e-06 0.0099999998 -0.12000007
-1.4861196e-06 0.0099999998 -0.10000005
-1.4864854e-06 0.0099999998 -0.080000035
-1.484724e-06 0.0099999998 -0.060000020999999994
-1.4823855000000001e-06 0.0099999998 -0.040000014
-1.4805837e-06 0.0099999998 -0.020000005
0.019997971 0.0099999998 -0.18000022
0.019997921000000002 0.0099999998 -0.16000018
0.019997893 0.0099999998 -0.14000013
0.019997878 0.0099999998 -0.12000009
0.019997876 0.0099999998 -0.10000007
0.019997878 0.0099999998 -0.08000005
0.019997881999999998 0.0099999998 -0.060000032
0.019997887 0.0099999998 -0.040000018
0.019997891 0.0099999998 -0.020000009
0.03999716 0.0099999998 -0.18000026
0.039997097 0.0099999998 -0.16000021
0.039997064 0.0099999998 -0.14000015
0.039997052000000005 0.0099999998 -0.12000012
0.039997049 0.0099999998 -0.10000008
0.039997056 0.0099999998 -0.080000058
0.039997067000000004 0.0099999998 -0.06000004
0.039997075 0.0099999998 -0.040000021000000004
0.039997078 0.0099999998 -0.020000011
0.059996203 0.0099999998 -0.18000029
0.059996124000000005 0.0099999998 -0.16000022
0.059996087000000003 0.0099999998 -0.14000018
0.059996075999999995 0.0099999998 -0.12000013
0.059996083 0.0099999998 -0.10000009
0.059996095 0.0099999998 -0.080000065
0.059996109000000006 0.0099999998 -0.060000042999999996
0.059996124000000005 0.0099999998 -0.040000025
0.059996132 0.0099999998 -0.020000013
0.079995096 0.0099999998 -0.18000031
0.079995006 0.0099999998 -0.16000023
0.079994969 0.0099999998 -0.14000018
0.079994969 0.0099999998 -0.12000014
0.07999497700000001 0.0099999998 -0.1000001
0.079994999 0.0099999998 -0.080000065
0.079995021 0.0099999998 -0.060000042999999996
0.079995044 0.0099999998 -0.040000025
0.079995058 0.0099999998 -0.020000013
0.09999381 0.0099999998 -0.18000032
0.099993728 0.0099999998 -0.16000025
0.099993698 0.0099999998 -0.14000019
0.099993698 0.0099999998 -0.12000014
0.099993728 0.0099999998 -0.1000001
0.099993758 0.0099999998 -0.080000073
0.09999378800000001 0.0099999998 -0.060000047
0.09999381800000001 0.0099999998 -0.040000029
0.09999383199999999 0.0099999998 -0.020000013
0.11999232 0.0099999998 -0.18000035
0.11999223 0.0099999998 -0.16000026
0.11999221 0.0099999998 -0.14000021
0.11999223 0.0099999998 -0.12000015
0.11999228 0.0099999998 -0.10000011
0.11999232 0.0099999998 -0.080000073
0.11999237 0.0099999998 -0.060000047
0.11999241 0.0099999998 -0.040000029
0.11999243 0.0099999998 -0.020000013
0.13999055 0.0099999998 -0.18000038
0.13999048 0.0099999998 -0.16000029
0.13999048 0.0099999998 -0.14000022
0.13999052 0.0099999998 -0.12000017
0.13999058 0.0099999998 -0.10000012
0.13999066 0.0099999998 -0.08000008
0.13999072 0.0099999998 -0.060000055
0.13999076 0.0099999998 -0.040000033
0.13999079 0.0099999998 -0.020000016000000002
0.15998846 0.0099999998 -0.18000044
0.1599884 0.0099999998 -0.16000035
0.15998843 0.0099999998 -0.14000027
0.15998851 0.0099999998 -0.12000021
0.1599886 0.0099999998 -0.10000015
0.15998869 0.0099999998 -0.080000103
0.15998878 0.0099999998 -0.060000069
0.15998884 0.0099999998 -0.04000004
0.15998888 0.0099999998 -0.02000002
0.17998599 0.0099999998 -0.18000054
0.17998596 0.0099999998 -0.16000044
0.17998601 0.0099999998 -0.14000034
0.17998613 0.0099999998 -0.12000027
0.17998625 0.0099999998 -0.1000002
0.17998639 0.0099999998 -0.08000014
0.17998649 0.0099999998 -0.060000092000000005
0.17998658 0.0099999998 -0.040000055
0.17998664 0.0099999998 -0.020000026
0.19998305 0.0099999998 -0.18000072
0.19998308 0.0099999998 -0.16000059
0.19998318 0.0099999998 -0.14000046
0.19998334 0.0099999998 -0.12000035
0.19998352 0.0099999998 -0.10000026
0.19998369 0.0099999998 -0.080000192
0.19998382 0.0099999998 -0.060000129000000006
0.19998394 0.0099999998 -0.040000077
0.199984 0.0099999998 -0.020000037
0.2199796 0.0099999998 -0.18000098
0.21997967 0.0099999998 -0.1600008
0.21997985 0.0099999998 -0.14000064
0.21998006 0.0099999998 -0.1200005
0.2199803 0.0099999998 -0.10000037
0.21998051 0.0099999998 -0.080000266
0.2199807 0.0099999998 -0.060000177
0.21998084 0.0099999998 -0.040000111
0.21998093 0.0099999998 -0.020000054
0.23997554 0.0099999998 -0.18000133
0.23997568 0.0099999998 -0.1600011
0.23997593 0.0099999998 -0.14000088
0.23997623 0.0099999998 -0.12000068
0.23997653 0.0099999998 -0.1000005
0.23997679 0.0099999998 -0.080000363
0.23997703 0.0099999998 -0.060000245
0.2399772 0.0099999998 -0.040000152000000004
0.2399773 0.0099999998 -0.020000072
0.25997075 0.0099999998 -0.18000183
0.25997099 0.0099999998 -0.16000147
0.25997132 0.0099999998 -0.14000118
0.25997171 0.0099999998 -0.1200009
0.2599721 0.0099999998 -0.10000067
0.25997245 0.0099999998 -0.080000482
0.25997275 0.0099999998 -0.060000326
0.25997296 0.0099999998 -0.0400002
0.25997308 0.0099999998 -0.020000096000000002
0.27996513 0.0099999998 -0.18000244
0.27996549 0.0099999998 -0.16000195
0.27996597 0.0099999998 -0.14000154
0.27996644 0.0099999998 -0.12000117
0.27996695 0.0099999998 -0.10000087
0.27996737 0.0099999998 -0.080000617
0.27996773 0.0099999998 -0.06000042
0.27996799 0.0099999998 -0.04000026
0.27996817 0.0099999998 -0.020000122
0.29995856 0.0099999998 -0.18000317
0.29995906 0.0099999998 -0.1600025
0.29995969 0.0099999998 -0.14000195
0.29996032 0.0099999998 -0.12000148
0.29996094 0.0099999998 -0.10000109
0.29996148 0.0099999998 -0.080000773
0.29996192 0.0099999998 -0.060000524000000006
0.29996225 0.0099999998 -0.040000323
0.29996243 0.0099999998 -0.020000152
0.31995085 0.0099999998 -0.18000399
0.31995156 0.0099999998 -0.16000314
0.31995237 0.0099999998 -0.14000243
0.31995317 0.0099999998 -0.12000182
0.31995392 0.0099999998 -0.10000134
0.3199546 0.0099999998 -0.080000944
0.31995514 0.0099999998 -0.060000635999999996
0.31995556 0.0099999998 -0.04000039
0.3199558 0.0099999998 -0.020000184
0.33994186 0.0099999998 -0.18000491
0.33994281 0.0099999998 -0.16000383
0.33994383 0.0099999998 -0.14000294
0.33994484 0.0099999998 -0.1200022
0.33994579 0.0099999998 -0.1000016
0.33994663 0.0099999998 -0.080001123
0.33994728 0.0099999998 -0.060000751
0.33994779 0.0099999998 -0.040000457
0.33994809 0.0099999998 -0.020000216
0.35993144 0.0099999998 -0.18000589
0.35993263 0.0099999998 -0.16000459
0.35993394 0.0099999998 -0.14000349
0.35993519 0.0099999998 -0.12000259
0.35993639 0.0099999998 -0.10000187
0.35993737 0.0099999998 -0.08000131
0.3599382 0.0099999998 -0.060000874
0.3599388 0.0099999998 -0.040000532000000005
0.35993916 0.0099999998 -0.020000251
0.37991932 0.0099999998 -0.18000697
0.37992087 0.0099999998 -0.16000539
0.37992248 0.0099999998 -0.1400041
0.37992406 0.0099999998 -0.12000303
0.37992549 0.0099999998 -0.10000218
0.37992671 0.0099999998 -0.08000152599999999
0.37992769 0.0099999998 -0.060001019
0.37992844 0.0099999998 -0.040000617999999995
0.37992886 0.0099999998 -0.020000292
0.39990532 0.0099999998 -0.18000814
0.39990726 0.0099999998 -0.1600063
0.39990929 0.0099999998 -0.14000478
0.3999112 0.0099999998 -0.12000354
0.39991295 0.0099999998 -0.10000256
0.39991444 0.0099999998 -0.080001801
0.39991564 0.0099999998 -0.060001205999999994
0.3999165 0.0099999998 -0.040000737
0.39991704 0.0099999998 -0.02000035
0.41988921 0.0099999998 -0.18000948
0.41989166 0.0099999998 -0.16000737
0.41989413 0.0099999998 -0.14000562
0.41989648 0.0099999998 -0.1200042
0.41989863 0.0099999998 -0.10000307
0.41990042 0.0099999998 -0.080002189
0.41990185 0.0099999998 -0.060001489000000005
0.41990289 0.0099999998 -0.040000923
0.41990352 0.0099999998 -0.020000441
0.43987074 0.0099999998 -0.18001109
0.43987375 0.0099999998 -0.16000871
0.43987682 0.0099999998 -0.14000675
0.43987969 0.0099999998 -0.12000514
0.43988225 0.0099999998 -0.10000384
0.43988442 0.0099999998 -0.080002792
0.43988612 0.0099999998 -0.060001942999999995
0.43988737 0.0099999998 -0.040001225
0.43988812 0.0099999998 -0.020000594
0.4598496 0.0099999998 -0.18001316
0.45985332 0.0099999998 -0.16001056
0.45985705 0.0099999998 -0.14000838
0.45986053 0.0099999998 -0.12000654
0.4598636 0.0099999998 -0.10000502
0.4598662 0.0099999998 -0.08000376099999999
0.45986822 0.0099999998 -0.060002680999999995
0.45986968 0.0099999998 -0.040001724
0.45987058 0.0099999998 -0.020000843
0.47982541 0.0099999998 -0.18001603
0.47983 0.0099999998 -0.16001323
0.47983453 0.0099999998 -0.1400108
0.4798387 0.0099999998 -0.12000869
0.47984236 0.0099999998 -0.10000687
0.4798454 0.0099999998 -0.080005281
0.47984779 0.0099999998 -0.060003843
0.47984952 0.0099999998 -0.040002513999999996
0.47985056 0.0099999998 -0.020001243999999998
0.49979785 0.0099999998 -0.18002018
0.49980345 0.0099999998 -0.16001718
0.49980888 0.0099999998 -0.14001445
0.49981382 0.0099999998 -0.12001195
0.49981815 0.0099999998 -0.10000966
0.49982169 0.0099999998 -0.080007568
0.49982449 0.0099999998 -0.060005601
0.49982649 0.0099999998 -0.040003706
0.49982768 0.0099999998 -0.020001845
0.51976675 0.0099999998 -0.18002628
0.51977336 0.0099999998 -0.160023
0.5197798 0.0099999998 -0.14001982
0.51978558 0.0099999998 -0.12001672
0.51979059 0.0099999998 -0.10001374
0.51979476 0.0099999998 -0.080010898
0.51979792 0.0099999998 -0.060008135
0.51980025 0.0099999998 -0.040005416
0.51980162 0.0099999998 -0.02000271
0.5397321 0.0099999998 -0.18003505
0.53973985 0.0099999998 -0.16003129
0.5397473 0.0099999998 -0.14002736
0.53975397 0.0099999998 -0.12002335
0.5397597 0.0099999998 -0.10001936
0.5397644 0.0099999998 -0.080015436
0.5397681 0.0099999998 -0.060011577
0.53977066 0.0099999998 -0.040007729
0.53977221 0.0099999998 -0.020003872
0.55969459 0.0099999998 -0.18004721
0.55970347 0.0099999998 -0.16004258
0.55971187 0.0099999998 -0.14003755
0.55971944 0.0099999998 -0.12003223
0.55972594 0.0099999998 -0.10002684
0.55973125 0.0099999998 -0.08002145599999999
0.55973536 0.0099999998 -0.060016092
0.55973828 0.0099999998 -0.040010735
0.55974001 0.0099999998 -0.020005373
0.57965583 0.0099999998 -0.18006322
0.57966572 0.0099999998 -0.16005711
0.57967502 0.0099999998 -0.14005041
0.57968342 0.0099999998 -0.12004334
0.57969064 0.0099999998 -0.10003608
0.57969654 0.0099999998 -0.08002881
0.57970107 0.0099999998 -0.060021572
0.57970428 0.0099999998 -0.040014386
0.57970625 0.0099999998 -0.020007201999999998
0.59961772 0.0099999998 -0.1800822
0.59962875 0.0099999998 -0.16007444
0.59963912 0.0099999998 -0.14006592
0.5996483 0.0099999998 -0.12005669
0.59965616 0.0099999998 -0.10004712
0.59966254 0.0099999998 -0.08003753400000001
0.59966749 0.0099999998 -0.06002808
0.59967107 0.0099999998 -0.040018737
0.59967327 0.0099999998 -0.020009389
0.61958271 0.0099999998 -0.18010414
0.61959499 0.0099999998 -0.1600946
0.6196062 0.0099999998 -0.14008386
0.61961609 0.0099999998 -0.12007205
0.61962444 0.0099999998 -0.10005982
0.61963135 0.0099999998 -0.080047645
0.61963677 0.0099999998 -0.06003561599999999
0.61964071 0.0099999998 -0.040023755
0.61964309 0.0099999998 -0.020011907
0.63955271 0.0099999998 -0.18012922
0.63956594 0.0099999998 -0.16011716
0.63957781 0.0099999998 -0.14010359
0.63958818 0.0099999998 -0.12008863
0.63959712 0.0099999998 -0.10007321
0.63960463 0.0099999998 -0.080058083
0.63961047 0.0099999998 -0.060043365
0.6396147 0.0099999998 -0.040028956
0.63961726 0.0099999998 -0.020014523
0.65953106 0.0099999998 -0.18015975
0.65954471 0.0099999998 -0.16014397
0.65955669 0.0099999998 -0.14012694
0.65956718 0.0099999998 -0.12010816
0.65957636 0.0099999998 -0.10008906
0.65958416 0.0099999998 -0.080070555
0.65959036 0.0099999998 -0.060052745
0.65959483 0.0099999998 -0.040035237
0.65959746 0.0099999998 -0.02001768
0.67952317 0.0099999998 -0.18020065
0.67953658 0.0099999998 -0.16017973
0.67954826 0.0099999998 -0.14015819
0.67955846 0.0099999998 -0.12013479
0.6795674 0.0099999998 -0.10011101
0.67957509 0.0099999998 -0.08008799
0.67958128 0.0099999998 -0.060065869
0.67958581 0.0099999998 -0.040044147999999995
0.67958856 0.0099999998 -0.0200222
0.69954002 0.0099999998 -0.18025263
0.69955218 0.0099999998 -0.16022553
0.69956231 0.0099999998 -0.1401972
0.69957089 0.0099999998 -0.12016657
0.69957882 0.0099999998 -0.10013602
0.69958609 0.0099999998 -0.080106996
0.69959205 0.0099999998 -0.060079600999999996
0.69959641 0.0099999998 -0.040053125
0.69959903 0.0099999998 -0.020026699
0.71961683 0.0099999998 -0.18030348
0.71962875 0.0099999998 -0.16027158
0.71963996 0.0099999998 -0.14023633
0.71965015 0.0099999998 -0.12019776
0.71965927 0.0099999998 -0.10016008
0.71966696 0.0099999998 -0.080125093
0.7196731 0.0099999998 -0.060092688
0.71967763 0.0099999998 -0.040061712
0.71968043 0.0099999998 -0.020030968
0.73975354 0.0099999998 -0.18032081
0.73976135 0.0099999998 -0.16028865
0.73976922 0.0099999998 -0.14025205
0.73977649 0.0099999998 -0.12021164
0.73978299 0.0099999998 -0.10017197
0.73978853 0.0099999998 -0.080134884
0.739793 0.0099999998 -0.060100269000000005
0.73979634 0.0099999998 -0.040066916
0.73979843 0.0099999998 -0.02003363
0.75986344 0.0099999998 -0.18032856
0.75986719 0.0099999998 -0.16029748
0.7598713 0.0099999998 -0.14026107
0.75987536 0.0099999998 -0.12022016
0.75987911 0.0099999998 -0.10017958
0.75988239 0.0099999998 -0.080141343
0.75988513 0.0099999998 -0.060105387
0.75988722 0.0099999998 -0.040070496000000004
0.75988853 0.0099999998 -0.020035475
0.77994603 0.0099999998 -0.18033081
0.7799468 0.0099999998 -0.16030091
0.77994794 0.0099999998 -0.14026506
0.77994931 0.0099999998 -0.12022422
0.77995068 0.0099999998 -0.1001834
0.77995193 0.0099999998 -0.080144726
0.77995312 0.0099999998 -0.060108166
0.77995408 0.0099999998 -0.040072493
0.77995467 0.0099999998 -0.020036526000000002
0.80001318 0.0099999998 -0.18032937
0.80001169 0.0099999998 -0.1603003
0.8000105 0.0099999998 -0.14026505
0.80000961 0.0099999998 -0.12022458
0.80000895 0.0099999998 -0.10018399
0.80000854 0.0099999998 -0.080145434
0.8000083 0.0099999998 -0.06010887
0.80000824 0.0099999998 -0.040073067000000004
0.80000824 0.0099999998 -0.02003685
0.82007664 0.0099999998 -0.18032517
0.82007307 0.0099999998 -0.16029656
0.82006979 0.0099999998 -0.14026184
0.82006687 0.0099999998 -0.12022193
0.82006449 0.0099999998 -0.1001819
0.82006264 0.0099999998 -0.080143891
0.82006127 0.0099999998 -0.060107823
0.82006031 0.0099999998 -0.04007243
0.82005978 0.0099999998 -0.020036552
0.84014195 0.0099999998 -0.18031834
0.84013623 0.0099999998 -0.16029006
0.84013087 0.0099999998 -0.14025591
0.84012616 0.0099999998 -0.12021676
0.84012222 0.0099999998 -0.10017761
0.84011906 0.0099999998 -0.080140509
0.84011662 0.0099999998 -0.060105328
0.84011489 0.0099999998 -0.040070787000000004
0.84011388 0.0099999998 -0.020035734
0.86020827 0.0099999998 -0.18030865
0.86020017 0.0099999998 -0.16028084
0.86019272 0.0099999998 -0.14024746
0.86018628 0.0099999998 -0.12020937
0.86018091 0.0099999998 -0.1001714
0.86017656 0.0099999998 -0.080135539
0.86017323 0.0099999998 -0.060101595
0.86017084 0.0099999998 -0.040068283999999996
0.86016941 0.0099999998 -0.020034477
0.88027126 0.0099999998 -0.18029591
0.88026083 0.0099999998 -0.16026889
0.88025141 0.0099999998 -0.14023659
0.8802433 0.0099999998 -0.1201999
0.88023663 0.0099999998 -0.10016347
0.8802312 0.0099999998 -0.080129169
0.88022709 0.0099999998 -0.060096778
0.88022411 0.0099999998 -0.040065039
0.88022226 0.0099999998 -0.020032836000000002
0.90032625 0.0099999998 -0.18028016
0.90031368 0.0099999998 -0.16025431
0.90030241 0.0099999998 -0.14022347
0.90029281 0.0099999998 -0.12018855
0.90028489 0.0099999998 -0.10015399
0.90027851 0.0099999998 -0.080121554
0.90027356 0.0099999998 -0.060091019
0.90027004 0.0099999998 -0.040061146
0.9002679 0.0099999998 -0.020030867
0.9203642 0.0099999998 -0.18026197
0.92034781 0.0099999998 -0.16023754
0.92033362 0.0099999998 -0.14020845
0.92032164 0.0099999998 -0.12017566
0.92031163 0.0099999998 -0.10014335
0.92030346 0.0099999998 -0.08011315
0.92029715 0.0099999998 -0.060084755999999996
0.92029262 0.0099999998 -0.04005697
0.92028987 0.0099999998 -0.020028772
0.940373 0.0099999998 -0.1802424
0.94035488 0.0099999998 -0.16021942
0.94033951 0.0099999998 -0.14019223
0.94032663 0.0099999998 -0.12016184
0.94031596 0.0099999998 -0.10013202
0.94030726 0.0099999998 -0.080104224
0.94030058 0.0099999998 -0.060078107
0.94029582 0.0099999998 -0.040052522
0.94029295 0.0099999998 -0.020026525
0.96037203 0.0099999998 -0.18022241
0.96035343 0.0099999998 -0.16020088
0.9603377 0.0099999998 -0.14017567
0.96032459 0.0099999998 -0.12014773
0.96031368 0.0099999998 -0.10012039
0.96030492 0.0099999998 -0.080094926
0.96029812 0.0099999998 -0.060071047
0.96029335 0.0099999998 -0.04004772
0.96029055 0.0099999998 -0.020024091
0.98036712 0.0099999998 -0.18020292
0.98034817 0.0099999998 -0.16018294
0.98033226 0.0099999998 -0.14015967
0.98031896 0.0099999998 -0.12013406
0.98030806 0.0099999998 -0.10010909
0.98029929 0.0099999998 -0.08008589599999999
0.98029268 0.0099999998 -0.060064211
0.98028797 0.0099999998 -0.040043067
0.98028511 0.0099999998 -0.020021705
1.0003604 0.0099999998 -0.18018454
1.0003412 0.0099999998 -0.16016644
1.0003247 0.0099999998 -0.14014515
1.0003114 0.0099999998 -0.12012188
1.0003004999999998 0.0099999998 -0.1000991
1.0002919 0.0099999998 -0.080077909
1.0002853999999999 0.0099999998 -0.060058065
1.0002806999999998 0.0099999998 -0.040038839
1.0002779 0.0099999998 -0.020019533
1.0203526 0.0099999998 -0.18016732
1.0203328999999999 0.0099999998 -0.16015087
1.0203161 0.0099999998 -0.14013164
1.0203024 0.0099999998 -0.12011059
1.0202916 0.0099999998 -0.1000898
1.0202831 0.0099999998 -0.080070473
1.0202767 0.0099999998 -0.06005244
1.0202721 0.0099999998 -0.040034982999999996
1.0202693 0.0099999998 -0.020017555
1.0403440000000002 0.0099999998 -0.1801516
1.0403234000000001 0.0099999998 -0.1601361
1.0403062 0.0099999998 -0.14011908
1.0402923000000002 0.0099999998 -0.12010021
1.0402813 0.0099999998 -0.10008147
1.0402728 0.0099999998 -0.080063857
1.0402665 0.0099999998 -0.060047384
1.040262 0.0099999998 -0.040031485
1.0402592 0.0099999998 -0.020015756000000003
1.0603347 0.0099999998 -0.18013635
1.0603131000000001 0.0099999998 -0.16012228
1.0602953000000002 0.0099999998 -0.14010715
1.060281 0.0099999998 -0.12009066
1.06027 0.0099999998 -0.1000739
1.0602615 0.0099999998 -0.080057949
1.0602552 0.0099999998 -0.060042839
1.0602508 0.0099999998 -0.040028352
1.0602479999999999 0.0099999998 -0.020014131
1.0803254999999998 0.0099999998 -0.18012129
1.080303 0.0099999998 -0.16010943
1.0802842 0.0099999998 -0.1400959
1.0802696000000003 0.0099999998 -0.12008189
1.0802583000000001 0.0099999998 -0.10006711
1.0802497 0.0099999998 -0.080052674
1.0802433 0.0099999998 -0.060038887
1.0802389 0.0099999998 -0.040025633
1.0802363000000001 0.0099999998 -0.02001274
1.1003174999999998 0.0099999998 -0.18010721
1.1002929 0.0099999998 -0.16009609
1.1002737 0.0099999998 -0.14008535
1.1002584 0.0099999998 -0.12007322
1.1002466999999998 0.0099999998 -0.10006084
1.1002379999999998 0.0099999998 -0.080047935
1.1002315 0.0099999998 -0.0600354
1.1002271000000001 0.0099999998 -0.040023277999999995
1.1002245000000002 0.0099999998 -0.020011533
1.1203116000000002 0.0099999998 -0.1800946
1.1202847 0.0099999998 -0.16008364
1.1202638999999999 0.0099999998 -0.14007413
1.1202482 0.0099999998 -0.12006473
1.1202359 0.0099999998 -0.10005417
1.120227 0.0099999998 -0.080043361
1.1202203000000002 0.0099999998 -0.060032137
1.1202159 0.0099999998 -0.040021211
1.1202133 0.0099999998 -0.020010509
1.1403081 0.0099999998 -0.1800842
1.1402787 0.0099999998 -0.16007277
1.1402562 0.0099999998 -0.14006366
1.140239 0.0099999998 -0.12005564
1.1402265 0.0099999998 -0.10004752
1.1402169 0.0099999998 -0.080038264
1.1402103000000001 0.0099999998 -0.060028806
1.1402056 0.0099999998 -0.040019099
1.140203 0.0099999998 -0.020009534
1.1603088 0.0099999998 -0.18007773
1.1602757 0.0099999998 -0.16006467
1.1602507 0.0099999998 -0.14005479
1.1602321000000002 0.0099999998 -0.12004717
1.1602181999999999 0.0099999998 -0.10004023
1.1602083 0.0099999998 -0.08003308599999999
1.1602013 0.0099999998 -0.060025007000000005
1.1601967 0.0099999998 -0.040016759
1.160194 0.0099999998 -0.02000846
1.1803173 0.0099999998 -0.18007775
1.1802783000000001 0.0099999998 -0.16006155
1.1802487 0.0099999998 -0.14004925
1.1802275 0.0099999998 -0.12004048
1.1802123 0.0099999998 -0.10003382
1.1802013 0.0099999998 -0.08002754299999999
1.1801938 0.0099999998 -0.060021065
1.180189 0.0099999998 -0.040014256
1.1801861999999999 0.0099999998 -0.020007158
1.20033 0.0099999998 -0.18008181
1.2002903 0.0099999998 -0.16006586
1.2002542 0.0099999998 -0.1400502
1.2002273 0.0099999998 -0.120038
1.200209 0.0099999998 -0.10002963
1.2001966 0.0099999998 -0.080023475
1.2001882 0.0099999998 -0.060017642
1.2001826999999998 0.0099999998 -0.040011786
1.2001796999999998 0.0099999998 -0.020005923000000002
1.2203401000000003 0.0099999998 -0.18008645
1.2203063 0.0099999998 -0.16007273
1.2202705 0.0099999998 -0.14005816
1.2202376 0.0099999998 -0.1200438
1.2202125 0.0099999998 -0.10003152
1.2201959 0.0099999998 -0.080022715
1.2201853999999999 0.0099999998 -0.060016215
1.2201790000000001 0.0099999998 -0.040010712999999996
1.2201754999999999 0.0099999998 -0.020005363999999998
1.2403376 0.0099999998 -0.18008694
1.2403138 0.0099999998 -0.16007699
1.2402868999999999 0.0099999998 -0.140066
1.2402587999999999 0.0099999998 -0.12005405
1.2402309 0.0099999998 -0.10004172
1.2402073 0.0099999998 -0.080030091
1.240191 0.0099999998 -0.060020223
1.2401812 0.0099999998 -0.040012553
1.2401763000000001 0.0099999998 -0.020006076
1.2603067 0.0099999998 -0.16007638
1.2602893999999998 0.0099999998 -0.14006896
1.2602704 0.0099999998 -0.12006025
1.2602512 0.0099999998 -0.10005069
1.2602332 0.0099999998 -0.08003974
1.2602175 0.0099999998 -0.060028374
1.2602062 0.0099999998 -0.040017746
1.2601997999999999 0.0099999998 -0.020008424
1.2802651000000003 0.0099999998 -0.12006155
1.2802531000000001 0.0099999998 -0.10005452
1.2802411 0.0099999998 -0.080044463
1.2802325 0.0099999998 -0.060032569
1.2802271 0.0099999998 -0.040020254
1.2802242 0.0099999998 -0.020009408
1.3002332 0.0099999998 -0.080046408
1.3002266000000002 0.0099999998 -0.06003461400000001
1.3002225 0.0099999998 -0.040021826
1.3002206 0.0099999998 -0.020010203
-1.4799143e-06 0.0099999998 -3.7821729e-14
-1.4805836000000003e-06 0.0099999998 0.020000005
-1.4823853e-06 0.0099999998 0.040000014
-1.4847243e-06 0.0099999998 0.060000020999999994
-1.4864855e-06 0.0099999998 0.080000035
-1.48612e-06 0.0099999998 0.10000005
-1.4812488e-06 0.0099999998 0.12000007
-1.4689516e-06 0.0099999998 0.14000009
0.019997893 0.0099999998 -1.9705542e-14
0.019997891 0.0099999998 0.020000009
0.019997887 0.0099999998 0.040000018
0.019997881999999998 0.0099999998 0.060000032
0.019997878 0.0099999998 0.08000005
0.019997876 0.0099999998 0.10000007
0.019997878 0.0099999998 0.12000009
0.019997893 0.0099999998 0.14000013
0.039997082 0.0099999998 5.510574399999999e-15
0.039997078 0.0099999998 0.020000011
0.039997075 0.0099999998 0.040000021000000004
0.039997067000000004 0.0099999998 0.06000004
0.039997056 0.0099999998 0.080000058
0.039997049 0.0099999998 0.10000008
0.039997052000000005 0.0099999998 0.12000012
0.039997064 0.0099999998 0.14000015
0.059996136 0.0099999998 -3.0264236e-14
0.059996132 0.0099999998 0.020000013
0.059996124000000005 0.0099999998 0.040000025
0.059996109000000006 0.0099999998 0.060000042999999996
0.059996095 0.0099999998 0.080000065
0.059996083 0.0099999998 0.10000009
0.059996075999999995 0.0099999998 0.12000013
0.059996087000000003 0.0099999998 0.14000018
0.079995058 0.0099999998 1.7897654e-13
0.079995058 0.0099999998 0.020000013
0.079995044 0.0099999998 0.040000025
0.079995021 0.0099999998 0.060000042999999996
0.079994999 0.0099999998 0.080000065
0.07999497700000001 0.0099999998 0.1000001
0.079994969 0.0099999998 0.12000014
0.079994969 0.0099999998 0.14000018
0.09999384 0.0099999998 -3.3048526e-13
0.09999383199999999 0.0099999998 0.020000013
0.09999381800000001 0.0099999998 0.040000029
0.09999378800000001 0.0099999998 0.060000047
0.099993758 0.0099999998 0.080000073
0.099993728 0.0099999998 0.1000001
0.099993698 0.0099999998 0.12000014
0.099993698 0.0099999998 0.14000019
0.11999244 0.0099999998 -1.1748075e-13
0.11999243 0.0099999998 0.020000013
0.11999241 0.0099999998 0.040000029
0.11999237 0.0099999998 0.060000047
0.11999232 0.0099999998 0.080000073
0.11999228 0.0099999998 0.10000011
0.11999223 0.0099999998 0.12000015
0.11999221 0.0099999998 0.14000021
0.13999081 0.0099999998 -8.6664759e-14
0.13999079 0.0099999998 0.020000016000000002
0.13999076 0.0099999998 0.040000033
0.13999072 0.0099999998 0.060000055
0.13999066 0.0099999998 0.08000008
0.13999058 0.0099999998 0.10000012
0.13999052 0.0099999998 0.12000017
0.13999048 0.0099999998 0.14000022
0.1599889 0.0099999998 -5.3387300999999994e-14
0.15998888 0.0099999998 0.02000002
0.15998884 0.0099999998 0.04000004
0.15998878 0.0099999998 0.060000069
0.15998869 0.0099999998 0.080000103
0.1599886 0.0099999998 0.10000015
0.15998851 0.0099999998 0.12000021
0.15998843 0.0099999998 0.14000027
0.17998666 0.0099999998 3.8028496e-14
0.17998664 0.0099999998 0.020000026
0.17998658 0.0099999998 0.040000055
0.17998649 0.0099999998 0.060000092000000005
0.17998639 0.0099999998 0.08000014
0.17998625 0.0099999998 0.1000002
0.17998613 0.0099999998 0.12000027
0.17998601 0.0099999998 0.14000034
0.19998403 0.0099999998 2.1119418999999997e-13
0.199984 0.0099999998 0.020000037
0.19998394 0.0099999998 0.040000077
0.19998382 0.0099999998 0.060000129000000006
0.19998369 0.0099999998 0.080000192
0.19998352 0.0099999998 0.10000026
0.19998334 0.0099999998 0.12000035
0.19998318 0.0099999998 0.14000046
0.21998094 0.0099999998 -8.5271438e-13
0.21998093 0.0099999998 0.020000054
0.21998084 0.0099999998 0.040000111
0.2199807 0.0099999998 0.060000177
0.21998051 0.0099999998 0.080000266
0.2199803 0.0099999998 0.10000037
0.21998006 0.0099999998 0.1200005
0.21997985 0.0099999998 0.14000064
0.23997734 0.0099999998 -7.9361891e-13
0.2399773 0.0099999998 0.020000072
0.2399772 0.0099999998 0.040000152000000004
0.23997703 0.0099999998 0.060000245
0.23997679 0.0099999998 0.080000363
0.23997653 0.0099999998 0.1000005
0.23997623 0.0099999998 0.12000068
0.23997593 0.0099999998 0.14000088
0.25997314 0.0099999998 -1.0792983e-12
0.25997308 0.0099999998 0.020000096000000002
0.25997296 0.0099999998 0.0400002
0.25997275 0.0099999998 0.060000326
0.25997245 0.0099999998 0.080000482
0.2599721 0.0099999998 0.10000067
0.25997171 0.0099999998 0.1200009
0.25997132 0.0099999998 0.14000118
0.27996823 0.0099999998 -4.193694e-13
0.27996817 0.0099999998 0.020000122
0.27996799 0.0099999998 0.04000026
0.27996773 0.0099999998 0.06000042
0.27996737 0.0099999998 0.080000617
0.27996695 0.0099999998 0.10000087
0.27996644 0.0099999998 0.12000117
0.27996597 0.0099999998 0.14000154
0.29996252 0.0099999998 -8.491435600000001e-13
0.29996243 0.0099999998 0.020000152
0.29996225 0.0099999998 0.040000323
0.29996192 0.0099999998 0.060000524000000006
0.29996148 0.0099999998 0.080000773
0.29996094 0.0099999998 0.10000109
0.29996032 0.0099999998 0.12000148
0.29995969 0.0099999998 0.14000195
0.31995589 0.0099999998 -7.6272613e-14
0.3199558 0.0099999998 0.020000184
0.31995556 0.0099999998 0.04000039
0.31995514 0.0099999998 0.060000635999999996
0.3199546 0.0099999998 0.080000944
0.31995392 0.0099999998 0.10000134
0.31995317 0.0099999998 0.12000182
0.31995237 0.0099999998 0.14000243
0.33994818 0.0099999998 6.2422432e-14
0.33994809 0.0099999998 0.020000216
0.33994779 0.0099999998 0.040000457
0.33994728 0.0099999998 0.060000751
0.33994663 0.0099999998 0.080001123
0.33994579 0.0099999998 0.1000016
0.33994484 0.0099999998 0.1200022
0.33994383 0.0099999998 0.14000294
0.35993928 0.0099999998 -2.2014187e-12
0.35993916 0.0099999998 0.020000251
0.3599388 0.0099999998 0.040000532000000005
0.3599382 0.0099999998 0.060000874
0.35993737 0.0099999998 0.08000131
0.35993639 0.0099999998 0.10000187
0.35993519 0.0099999998 0.12000259
0.35993394 0.0099999998 0.14000349
0.37992901 0.0099999998 3.7424068e-13
0.37992886 0.0099999998 0.020000292
0.37992844 0.0099999998 0.040000617999999995
0.37992769 0.0099999998 0.060001019
0.37992671 0.0099999998 0.08000152599999999
0.37992549 0.0099999998 0.10000218
0.37992406 0.0099999998 0.12000303
0.37992248 0.0099999998 0.1400041
0.39991722 0.0099999998 -1.565373e-12
0.39991704 0.0099999998 0.02000035
0.3999165 0.0099999998 0.040000737
0.39991564 0.0099999998 0.060001205999999994
0.39991444 0.0099999998 0.080001801
0.39991295 0.0099999998 0.10000256
0.3999112 0.0099999998 0.12000354
0.39990929 0.0099999998 0.14000478
0.41990373 0.0099999998 -5.3824957000000005e-12
0.41990352 0.0099999998 0.020000441
0.41990289 0.0099999998 0.040000923
0.41990185 0.0099999998 0.060001489000000005
0.41990042 0.0099999998 0.080002189
0.41989863 0.0099999998 0.10000307
0.41989648 0.0099999998 0.1200042
0.41989413 0.0099999998 0.14000562
0.43988836 0.0099999998 -4.2923415000000005e-13
0.43988812 0.0099999998 0.020000594
0.43988737 0.0099999998 0.040001225
0.43988612 0.0099999998 0.060001942999999995
0.43988442 0.0099999998 0.080002792
0.43988225 0.0099999998 0.10000384
0.43987969 0.0099999998 0.12000514
0.43987682 0.0099999998 0.14000675
0.45987087 0.0099999998 5.5785194e-12
0.45987058 0.0099999998 0.020000843
0.45986968 0.0099999998 0.040001724
0.45986822 0.0099999998 0.060002680999999995
0.4598662 0.0099999998 0.08000376099999999
0.4598636 0.0099999998 0.10000502
0.45986053 0.0099999998 0.12000654
0.45985705 0.0099999998 0.14000838
0.47985092 0.0099999998 -1.7979603e-12
0.47985056 0.0099999998 0.020001243999999998
0.47984952 0.0099999998 0.040002513999999996
0.47984779 0.0099999998 0.060003843
0.4798454 0.0099999998 0.080005281
0.47984236 0.0099999998 0.10000687
0.4798387 0.0099999998 0.12000869
0.47983453 0.0099999998 0.1400108
0.49982807 0.0099999998 1.9659825e-12
0.49982768 0.0099999998 0.020001845
0.49982649 0.0099999998 0.040003706
0.49982449 0.0099999998 0.060005601
0.49982169 0.0099999998 0.080007568
0.49981815 0.0099999998 0.10000966
0.49981382 0.0099999998 0.12001195
0.49980888 0.0099999998 0.14001445
0.51980209 0.0099999998 -1.4787895000000001e-12
0.51980162 0.0099999998 0.02000271
0.51980025 0.0099999998 0.040005416
0.51979792 0.0099999998 0.060008135
0.51979476 0.0099999998 0.080010898
0.51979059 0.0099999998 0.10001374
0.51978558 0.0099999998 0.12001672
0.5197798 0.0099999998 0.14001982
0.53977275 0.0099999998 2.2790361e-12
0.53977221 0.0099999998 0.020003872
0.53977066 0.0099999998 0.040007729
0.5397681 0.0099999998 0.060011577
0.5397644 0.0099999998 0.080015436
0.5397597 0.0099999998 0.10001936
0.53975397 0.0099999998 0.12002335
0.5397473 0.0099999998 0.14002736
0.5597406 0.0099999998 -4.572257099999999e-12
0.55974001 0.0099999998 0.020005373
0.55973828 0.0099999998 0.040010735
0.55973536 0.0099999998 0.060016092
0.55973125 0.0099999998 0.08002145599999999
0.55972594 0.0099999998 0.10002684
0.55971944 0.0099999998 0.12003223
0.55971187 0.0099999998 0.14003755
0.57970691 0.0099999998 -2.5262282e-13
0.57970625 0.0099999998 0.020007201999999998
0.57970428 0.0099999998 0.040014386
0.57970107 0.0099999998 0.060021572
0.57969654 0.0099999998 0.08002881
0.57969064 0.0099999998 0.10003608
0.57968342 0.0099999998 0.12004334
0.57967502 0.0099999998 0.14005041
0.59967399 0.0099999998 7.3423195e-12
0.59967327 0.0099999998 0.020009389
0.59967107 0.0099999998 0.040018737
0.59966749 0.0099999998 0.06002808
0.59966254 0.0099999998 0.08003753400000001
0.59965616 0.0099999998 0.10004712
0.5996483 0.0099999998 0.12005669
0.59963912 0.0099999998 0.14006592
0.61964387 0.0099999998 -2.6256629e-12
0.61964309 0.0099999998 0.020011907
0.61964071 0.0099999998 0.040023755
0.61963677 0.0099999998 0.06003561599999999
0.61963135 0.0099999998 0.080047645
0.61962444 0.0099999998 0.10005982
0.61961609 0.0099999998 0.12007205
0.6196062 0.0099999998 0.14008386
0.6396181 0.0099999998 1.6512060999999997e-11
0.63961726 0.0099999998 0.020014523
0.6396147 0.0099999998 0.040028956
0.63961047 0.0099999998 0.060043365
0.63960463 0.0099999998 0.080058083
0.63959712 0.0099999998 0.10007321
0.63958818 0.0099999998 0.12008863
0.63957781 0.0099999998 0.14010359
0.65959835 0.0099999998 -3.1841641e-12
0.65959746 0.0099999998 0.02001768
0.65959483 0.0099999998 0.040035237
0.65959036 0.0099999998 0.060052745
0.65958416 0.0099999998 0.080070555
0.65957636 0.0099999998 0.10008906
0.65956718 0.0099999998 0.12010816
0.65955669 0.0099999998 0.14012694
0.67958945 0.0099999998 -4.1919016000000005e-12
0.67958856 0.0099999998 0.0200222
0.67958581 0.0099999998 0.040044147999999995
0.67958128 0.0099999998 0.060065869
0.67957509 0.0099999998 0.08008799
0.6795674 0.0099999998 0.10011101
0.67955846 0.0099999998 0.12013479
0.67954826 0.0099999998 0.14015819
0.69959992 0.0099999998 2.0803163e-11
0.69959903 0.0099999998 0.020026699
0.69959641 0.0099999998 0.040053125
0.69959205 0.0099999998 0.060079600999999996
0.69958609 0.0099999998 0.080106996
0.69957882 0.0099999998 0.10013602
0.69957089 0.0099999998 0.12016657
0.69956231 0.0099999998 0.1401972
0.71968138 0.0099999998 -1.014179e-11
0.71968043 0.0099999998 0.020030968
0.71967763 0.0099999998 0.040061712
0.7196731 0.0099999998 0.060092688
0.71966696 0.0099999998 0.080125093
0.71965927 0.0099999998 0.10016008
0.71965015 0.0099999998 0.12019776
0.71963996 0.0099999998 0.14023633
0.73979914 0.0099999998 4.1823614e-11
0.73979843 0.0099999998 0.020033628
0.73979634 0.0099999998 0.040066916
0.739793 0.0099999998 0.060100269000000005
0.73978853 0.0099999998 0.080134884
0.73978299 0.0099999998 0.10017197
0.73977649 0.0099999998 0.12021164
0.73976922 0.0099999998 0.14025205
0.75988901 0.0099999998 9.3766307e-11
0.75988853 0.0099999998 0.020035475
0.75988722 0.0099999998 0.040070496000000004
0.75988513 0.0099999998 0.060105387
0.75988239 0.0099999998 0.080141343
0.75987911 0.0099999998 0.10017958
0.75987536 0.0099999998 0.12022016
0.7598713 0.0099999998 0.14026107
0.77995491 0.0099999998 -9.868561699999999e-12
0.77995467 0.0099999998 0.020036526000000002
0.77995408 0.0099999998 0.040072493
0.77995312 0.0099999998 0.060108166
0.77995193 0.0099999998 0.080144726
0.77995068 0.0099999998 0.1001834
0.77994931 0.0099999998 0.12022422
0.77994794 0.0099999998 0.14026506
0.80000824 0.0099999998 -1.0488167e-10
0.80000824 0.0099999998 0.02003685
0.80000824 0.0099999998 0.040073067000000004
0.8000083 0.0099999998 0.06010887
0.80000854 0.0099999998 0.080145434
0.80000895 0.0099999998 0.10018399
0.80000961 0.0099999998 0.12022458
0.8000105 0.0099999998 0.14026505
0.8200596 0.0099999998 2.2416588e-11
0.82005978 0.0099999998 0.020036552
0.82006031 0.0099999998 0.04007243
0.82006127 0.0099999998 0.060107823
0.82006264 0.0099999998 0.080143891
0.82006449 0.0099999998 0.1001819
0.82006687 0.0099999998 0.12022193
0.82006979 0.0099999998 0.14026184
0.84011358 0.0099999998 9.7480669e-11
0.84011388 0.0099999998 0.020035734
0.84011489 0.0099999998 0.040070787000000004
0.84011662 0.0099999998 0.060105328
0.84011906 0.0099999998 0.080140509
0.84012222 0.0099999998 0.10017761
0.84012616 0.0099999998 0.12021676
0.84013087 0.0099999998 0.14025591
0.86016893 0.0099999998 5.2657669999999995e-11
0.86016941 0.0099999998 0.020034477
0.86017084 0.0099999998 0.040068283999999996
0.86017323 0.0099999998 0.060101595
0.86017656 0.0099999998 0.080135539
0.86018091 0.0099999998 0.1001714
0.86018628 0.0099999998 0.12020937
0.86019272 0.0099999998 0.14024746
0.88022166 0.0099999998 -9.3641192e-11
0.88022226 0.0099999998 0.020032836000000002
0.88022411 0.0099999998 0.040065039
0.88022709 0.0099999998 0.060096778
0.8802312 0.0099999998 0.080129169
0.88023663 0.0099999998 0.10016347
0.8802433 0.0099999998 0.1201999
0.88025141 0.0099999998 0.14023659
0.90026718 0.0099999998 -1.1634793999999999e-10
0.9002679 0.0099999998 0.020030867
0.90027004 0.0099999998 0.040061146
0.90027356 0.0099999998 0.060091019
0.90027851 0.0099999998 0.080121554
0.90028489 0.0099999998 0.10015399
0.90029281 0.0099999998 0.12018855
0.90030241 0.0099999998 0.14022347
0.92028898 0.0099999998 -1.611937e-11
0.92028987 0.0099999998 0.020028772
0.92029262 0.0099999998 0.04005697
0.92029715 0.0099999998 0.060084755999999996
0.92030346 0.0099999998 0.08011315
0.92031163 0.0099999998 0.10014335
0.92032164 0.0099999998 0.12017566
0.92033362 0.0099999998 0.14020845
0.94029206 0.0099999998 5.2177825e-11
0.94029295 0.0099999998 0.020026525
0.94029582 0.0099999998 0.040052522
0.94030058 0.0099999998 0.060078107
0.94030726 0.0099999998 0.080104224
0.94031596 0.0099999998 0.10013202
0.94032663 0.0099999998 0.12016184
0.94033951 0.0099999998 0.14019223
0.9602896 0.0099999998 8.4565228e-12
0.96029055 0.0099999998 0.020024091
0.96029335 0.0099999998 0.04004772
0.96029812 0.0099999998 0.060071047
0.96030492 0.0099999998 0.080094926
0.96031368 0.0099999998 0.10012039
0.96032459 0.0099999998 0.12014773
0.9603377 0.0099999998 0.14017567
0.98028421 0.0099999998 -1.8941569e-11
0.98028511 0.0099999998 0.020021705
0.98028797 0.0099999998 0.040043067
0.98029268 0.0099999998 0.060064211
0.98029929 0.0099999998 0.08008589599999999
0.98030806 0.0099999998 0.10010909
0.98031896 0.0099999998 0.12013406
0.98033226 0.0099999998 0.14015967
1.0002769 0.0099999998 6.780510900000001e-13
1.0002779 0.0099999998 0.020019533
1.0002806999999998 0.0099999998 0.040038839
1.0002853999999999 0.0099999998 0.060058065
1.0002919 0.0099999998 0.080077909
1.0003004999999998 0.0099999998 0.1000991
1.0003114 0.0099999998 0.12012188
1.0003247 0.0099999998 0.14014515
1.0202683000000001 0.0099999998 1.4975568e-11
1.0202693 0.0099999998 0.020017555
1.0202721 0.0099999998 0.040034982999999996
1.0202767 0.0099999998 0.06005244
1.0202831 0.0099999998 0.080070473
1.0202916 0.0099999998 0.1000898
1.0203024 0.0099999998 0.12011059
1.0203161 0.0099999998 0.14013164
1.0402583 0.0099999998 1.183542e-11
1.0402592 0.0099999998 0.020015756000000003
1.040262 0.0099999998 0.040031485
1.0402665 0.0099999998 0.060047384
1.0402728 0.0099999998 0.080063857
1.0402813 0.0099999998 0.10008147
1.0402923000000002 0.0099999998 0.12010021
1.0403062 0.0099999998 0.14011908
1.0602472 0.0099999998 2.4404198999999998e-11
1.0602479999999999 0.0099999998 0.020014131
1.0602508 0.0099999998 0.040028352
1.0602552 0.0099999998 0.060042839
1.0602615 0.0099999998 0.080057949
1.06027 0.0099999998 0.1000739
1.060281 0.0099999998 0.12009066
1.0602953000000002 0.0099999998 0.14010715
1.0802355 0.0099999998 4.5397240999999995e-12
1.0802363000000001 0.0099999998 0.02001274
1.0802389 0.0099999998 0.040025633
1.0802433 0.0099999998 0.060038887
1.0802497 0.0099999998 0.080052674
1.0802583000000001 0.0099999998 0.10006711
1.0802696000000003 0.0099999998 0.12008189
1.0802842 0.0099999998 0.1400959
1.1002237 0.0099999998 -7.4209033e-12
1.1002245000000002 0.0099999998 0.020011533
1.1002271000000001 0.0099999998 0.040023277999999995
1.1002315 0.0099999998 0.0600354
1.1002379999999998 0.0099999998 0.080047935
1.1002466999999998 0.0099999998 0.10006084
1.1002584 0.0099999998 0.12007322
1.1002737 0.0099999998 0.14008535
1.1202124 0.0099999998 -1.2752192999999999e-11
1.1202133 0.0099999998 0.020010509
1.1202159 0.0099999998 0.040021211
1.1202203000000002 0.0099999998 0.060032137
1.120227 0.0099999998 0.080043361
1.1202359 0.0099999998 0.10005417
1.1202482 0.0099999998 0.12006473
1.1202638999999999 0.0099999998 0.14007413
1.1402021999999998 0.0099999998 4.2434723e-12
1.140203 0.0099999998 0.020009534
1.1402056 0.0099999998 0.040019099
1.1402103000000001 0.0099999998 0.060028806
1.1402169 0.0099999998 0.080038264
1.1402265 0.0099999998 0.10004752
1.140239 0.0099999998 0.12005564
1.1402562 0.0099999998 0.14006366
1.1601931 0.0099999998 6.498484e-12
1.160194 0.0099999998 0.02000846
1.1601967 0.0099999998 0.040016759
1.1602013 0.0099999998 0.060025007000000005
1.1602083 0.0099999998 0.08003308599999999
1.1602181999999999 0.0099999998 0.10004023
1.1602321000000002 0.0099999998 0.12004717
1.1602507 0.0099999998 0.14005479
1.1801853 0.0099999998 2.9333356e-12
1.1801861999999999 0.0099999998 0.020007158
1.180189 0.0099999998 0.040014256
1.1801938 0.0099999998 0.060021065
1.1802013 0.0099999998 0.08002754299999999
1.1802123 0.0099999998 0.10003382
1.1802275 0.0099999998 0.12004048
1.1802487 0.0099999998 0.14004925
1.2001787 0.0099999998 2.0622707e-12
1.2001796999999998 0.0099999998 0.020005923000000002
1.2001826999999998 0.0099999998 0.040011786
1.2001882 0.0099999998 0.060017642
1.2001966 0.0099999998 0.080023475
1.200209 0.0099999998 0.10002963
1.2002273 0.0099999998 0.120038
1.2002542 0.0099999998 0.1400502
1.2201743 0.0099999998 4.2100562e-13
1.2201754999999999 0.0099999998 0.020005363999999998
1.2201790000000001 0.0099999998 0.040010712999999996
1.2201853999999999 0.0099999998 0.060016215
1.2201959 0.0099999998 0.080022715
1.2202125 0.0099999998 0.10003152
1.2202376 0.0099999998 0.1200438
1.2202705 0.0099999998 0.14005816
1.2401748 0.0099999998 -8.348016799999999e-13
1.2401763000000001 0.0099999998 0.020006076
1.2401812 0.0099999998 0.040012553
1.240191 0.0099999998 0.060020223
1.2402073 0.0099999998 0.080030091
1.2402309 0.0099999998 0.10004172
1.2402587999999999 0.0099999998 0.12005405
1.2402868999999999 0.0099999998 0.140066
1.2601978 0.0099999998 -5.8757014e-13
1.2601997999999999 0.0099999998 0.020008424
1.2602062 0.0099999998 0.040017746
1.2602175 0.0099999998 0.060028374
1.2602332 0.0099999998 0.08003974
1.2602512 0.0099999998 0.10005069
1.2602704 0.0099999998 0.12006026
1.2602893999999998 0.0099999998 0.14006896
1.2802233 0.0099999998 4.6771905e-12
1.2802242 0.0099999998 0.020009408
1.2802271 0.0099999998 0.040020254
1.2802325 0.0099999998 0.060032569
1.2802411 0.0099999998 0.080044463
1.2802531000000001 0.0099999998 0.10005452
1.2802651000000003 0.0099999998 0.12006155
1.3002201 0.0099999998 2.4644968999999997e-12
1.3002206 0.0099999998 0.020010203
1.3002225 0.0099999998 0.040021826
1.3002266000000002 0.0099999998 0.06003461400000001
1.3002332 0.0099999998 0.080046408
-1.4455099999999998e-06 0.0099999998 0.16000012
-1.4061195e-06 0.0099999998 0.18000016
-1.3465648000000002e-06 0.0099999998 0.2000002
-1.2610278000000001e-06 0.0099999998 0.22000024
-1.1459506e-06 0.0099999998 0.24000028
-9.9790634e-07 0.0099999998 0.26000029
-8.2231162e-07 0.0099999998 0.28000033
0.019997921000000002 0.0099999998 0.16000018
0.019997971 0.0099999998 0.18000022
0.019998053000000002 0.0099999998 0.20000027
0.019998174 0.0099999998 0.22000031
0.019998342 0.0099999998 0.24000037
0.019998565 0.0099999998 0.26000038
0.019998843 0.0099999998 0.28000039
0.019999166999999998 0.0099999998 0.30000043
0.039997097 0.0099999998 0.16000021
0.03999716 0.0099999998 0.18000026
0.039997267999999996 0.0099999998 0.20000032
0.039997432 0.0099999998 0.22000037
0.039997662999999996 0.0099999998 0.24000043
0.03999798 0.0099999998 0.26000047
0.039998367 0.0099999998 0.28000048
0.039998822 0.0099999998 0.30000049
0.059996124000000005 0.0099999998 0.16000022
0.059996203 0.0099999998 0.18000029
0.059996333 0.0099999998 0.20000035
0.059996542 0.0099999998 0.22000042
0.059996843 0.0099999998 0.24000047
0.059997257000000005 0.0099999998 0.26000053
0.059997771 0.0099999998 0.28000054
0.059998385999999994 0.0099999998 0.30000055
0.079995006 0.0099999998 0.16000023
0.079995096 0.0099999998 0.18000031
0.079995245 0.0099999998 0.20000038
0.079995498 0.0099999998 0.22000045
0.079995871 0.0099999998 0.24000052
0.079996392 0.0099999998 0.26000056
0.079997048 0.0099999998 0.28000057
0.07999785200000001 0.0099999998 0.30000061
0.099993728 0.0099999998 0.16000025
0.09999381 0.0099999998 0.18000032
0.099993981 0.0099999998 0.20000041
0.099994272 0.0099999998 0.22000048
0.09999471900000001 0.0099999998 0.24000055
0.099995352 0.0099999998 0.26000059
0.099996172 0.0099999998 0.28000063
0.09999719300000001 0.0099999998 0.3000007
0.11999223 0.0099999998 0.16000026
0.11999232 0.0099999998 0.18000035
0.1199925 0.0099999998 0.20000042
0.11999283 0.0099999998 0.22000051
0.11999334 0.0099999998 0.24000058
0.11999409 0.0099999998 0.26000065
0.11999509 0.0099999998 0.28000069
0.11999636 0.0099999998 0.30000082
0.13999048 0.0099999998 0.16000029
0.13999055 0.0099999998 0.18000038
0.13999073 0.0099999998 0.20000046
0.13999109 0.0099999998 0.22000055
0.13999169 0.0099999998 0.24000062
0.13999256 0.0099999998 0.26000071
0.13999374 0.0099999998 0.28000081
0.13999531 0.0099999998 0.300001
0.1599884 0.0099999998 0.16000035
0.15998846 0.0099999998 0.18000044
0.15998864 0.0099999998 0.20000052
0.15998903 0.0099999998 0.22000062
0.15998968 0.0099999998 0.24000071
0.15999068 0.0099999998 0.2600008
0.15999208 0.0099999998 0.28000093
0.15999395 0.0099999998 0.3000012
0.17998596 0.0099999998 0.16000044
0.17998599 0.0099999998 0.18000054
0.17998615 0.0099999998 0.20000064
0.17998655 0.0099999998 0.22000076
0.17998727 0.0099999998 0.24000086
0.17998841 0.0099999998 0.26000097
0.17999001 0.0099999998 0.2800011
0.17999215 0.0099999998 0.30000138
0.19998308 0.0099999998 0.16000059
0.19998305 0.0099999998 0.18000072
0.19998319 0.0099999998 0.20000085
0.1999836 0.0099999998 0.22000098
0.19998437 0.0099999998 0.24000108
0.19998564 0.0099999998 0.26000118
0.1999874 0.0099999998 0.28000131
0.19998977 0.0099999998 0.3000015
0.21997967 0.0099999998 0.1600008
0.2199796 0.0099999998 0.18000098
0.2199797 0.0099999998 0.20000115
0.21998009 0.0099999998 0.22000131
0.2199809 0.0099999998 0.24000143
0.21998225 0.0099999998 0.26000157
0.21998419 0.0099999998 0.28000179
0.2199869 0.0099999998 0.30000234
0.23997568 0.0099999998 0.1600011
0.23997554 0.0099999998 0.18000133
0.23997557 0.0099999998 0.20000158
0.23997591 0.0099999998 0.22000183
0.2399767 0.0099999998 0.24000208
0.23997813 0.0099999998 0.26000252
0.23998018 0.0099999998 0.28000334
0.23998313 0.0099999998 0.3000049
0.25997099 0.0099999998 0.16000147
0.25997075 0.0099999998 0.18000183
0.25997069 0.0099999998 0.20000219
0.25997096 0.0099999998 0.22000264
0.25997165 0.0099999998 0.24000314
0.25997302 0.0099999998 0.26000401
0.25997505 0.0099999998 0.28000554
0.25997797 0.0099999998 0.30000767
0.27996549 0.0099999998 0.16000195
0.27996513 0.0099999998 0.18000244
0.27996495 0.0099999998 0.200003
0.2799651 0.0099999998 0.22000366
0.27996564 0.0099999998 0.24000451
0.27996686 0.0099999998 0.26000577
0.27996877 0.0099999998 0.28000775
0.27997151 0.0099999998 0.30001003
0.29995906 0.0099999998 0.1600025
0.29995856 0.0099999998 0.18000317
0.29995823 0.0099999998 0.20000394
0.2999582 0.0099999998 0.22000487
0.29995862 0.0099999998 0.24000603
0.29995966 0.0099999998 0.26000762
0.29996142 0.0099999998 0.28000981
0.29996398 0.0099999998 0.3000122
0.31995156 0.0099999998 0.16000314
0.31995085 0.0099999998 0.18000399
0.31995034 0.0099999998 0.20000499
0.31995016 0.0099999998 0.2200062
0.31995046 0.0099999998 0.24000765
0.31995139 0.0099999998 0.2600095
0.31995308 0.0099999998 0.28001186
0.31995562 0.0099999998 0.30001447
0.33994281 0.0099999998 0.16000383
0.33994186 0.0099999998 0.18000491
0.33994114 0.0099999998 0.20000617
0.33994079 0.0099999998 0.22000764
0.33994097 0.0099999998 0.24000937
0.33994186 0.0099999998 0.26001146
0.33994365 0.0099999998 0.28001407
0.33994636 0.0099999998 0.30001691
0.35993263 0.0099999998 0.16000459
0.35993144 0.0099999998 0.18000589
0.35993046 0.0099999998 0.20000744
0.35992989 0.0099999998 0.22000921
0.35992995 0.0099999998 0.24001123
0.35993087 0.0099999998 0.26001361
0.35993281 0.0099999998 0.28001651
0.35993588 0.0099999998 0.30001968
0.37992087 0.0099999998 0.16000539
0.37991932 0.0099999998 0.18000697
0.37991804 0.0099999998 0.20000881
0.37991723 0.0099999998 0.22001091
0.37991717 0.0099999998 0.24001327
0.37991813 0.0099999998 0.26001599
0.3799203 0.0099999998 0.28001928
0.37992382 0.0099999998 0.3000229
0.39990726 0.0099999998 0.1600063
0.39990532 0.0099999998 0.18000814
0.39990368 0.0099999998 0.2000103
0.39990261 0.0099999998 0.22001278
0.3999024 0.0099999998 0.24001555
0.39990336 0.0099999998 0.26001871
0.39990574 0.0099999998 0.2800225
0.39990976 0.0099999998 0.3000266
0.41989166 0.0099999998 0.16000737
0.41988921 0.0099999998 0.18000948
0.41988713 0.0099999998 0.20001198
0.41988569 0.0099999998 0.22001486
0.41988528 0.0099999998 0.2400181
0.41988623 0.0099999998 0.26002178
0.41988885 0.0099999998 0.2800262
0.41989341 0.0099999998 0.30003098
0.43987375 0.0099999998 0.16000871
0.43987074 0.0099999998 0.18001109
0.43986809 0.0099999998 0.20001391
0.43986619 0.0099999998 0.22001719
0.43986547 0.0099999998 0.24002096
0.43986636 0.0099999998 0.26002532
0.43986923 0.0099999998 0.28003055
0.43987435 0.0099999998 0.3000361
0.45985332 0.0099999998 0.16001056
0.4598496 0.0099999998 0.18001316
0.45984623 0.0099999998 0.20001626
0.4598437 0.0099999998 0.22001991
0.45984256 0.0099999998 0.24002418
0.45984331 0.0099999998 0.26002932
0.45984635 0.0099999998 0.28003564
0.45985204 0.0099999998 0.30004224
0.47983 0.0099999998 0.16001323
0.47982541 0.0099999998 0.18001603
0.47982118 0.0099999998 0.20001931
0.47981787 0.0099999998 0.2200232
0.47981611 0.0099999998 0.2400279
0.4798165 0.0099999998 0.26003391
0.47981957 0.0099999998 0.28004169
0.47982574 0.0099999998 0.30004963
0.49980345 0.0099999998 0.16001718
0.49979785 0.0099999998 0.18002018
0.49979261 0.0099999998 0.20002356
0.49978828 0.0099999998 0.22002749
0.49978569 0.0099999998 0.24003243
0.49978542 0.0099999998 0.26003921
0.49978819 0.0099999998 0.28004885
0.49979448 0.0099999998 0.30005863
0.51977336 0.0099999998 0.160023
0.51976675 0.0099999998 0.18002628
0.51976031 0.0099999998 0.20002972
0.51975477 0.0099999998 0.22003353
0.51975101 0.0099999998 0.24003839
0.51974964 0.0099999998 0.26004568
0.51975143 0.0099999998 0.28005749
0.51975703 0.0099999998 0.30006969
0.53973985 0.0099999998 0.16003129
0.5397321 0.0099999998 0.18003505
0.53972441 0.0099999998 0.2000387
0.5397175 0.0099999998 0.22004233
0.53971219 0.0099999998 0.24004681
0.53970903 0.0099999998 0.26005417
0.53970897 0.0099999998 0.28006825
0.53971231 0.0099999998 0.30008346
0.55970347 0.0099999998 0.16004258
0.55969459 0.0099999998 0.18004721
0.55968571 0.0099999998 0.2000514
0.5596773 0.0099999998 0.22005507
0.55967009 0.0099999998 0.24005896
0.55966455 0.0099999998 0.26006615
0.55966121 0.0099999998 0.28008232
0.55966026 0.0099999998 0.30010086
0.57966572 0.0099999998 0.16005711
0.57965583 0.0099999998 0.18006322
0.57964575 0.0099999998 0.20006838
0.57963592 0.0099999998 0.22007267
0.57962662 0.0099999998 0.24007632
0.57961816 0.0099999998 0.26008359
0.57961041 0.0099999998 0.28010178
0.5796029 0.0099999998 0.30012351
0.59962875 0.0099999998 0.16007444
0.59961772 0.0099999998 0.1800822
0.59960657 0.0099999998 0.20008919
0.59959543 0.0099999998 0.22009508
0.59958422 0.0099999998 0.24010012
0.59957284 0.0099999998 0.26010925
0.59956032 0.0099999998 0.28012991
0.59954524 0.0099999998 0.30015391
0.61959499 0.0099999998 0.1600946
0.61958271 0.0099999998 0.18010414
0.61957014 0.0099999998 0.20011321
0.61955768 0.0099999998 0.22012223
0.61954457 0.0099999998 0.24013148
0.61953074 0.0099999998 0.26014617
0.61951518 0.0099999998 0.28017116
0.61949408 0.0099999998 0.30019575
0.63956594 0.0099999998 0.16011716
0.63955271 0.0099999998 0.18012922
0.63953853 0.0099999998 0.20014116
0.6395244 0.0099999998 0.22015546
0.63951057 0.0099999998 0.24017558
0.63949633 0.0099999998 0.26020202
0.6394791 0.0099999998 0.2802285
0.63945591 0.0099999998 0.30025175
0.65954471 0.0099999998 0.16014397
0.65953106 0.0099999998 0.18015975
0.65951663 0.0099999998 0.20017791
0.65950257 0.0099999998 0.22020362
0.65948999 0.0099999998 0.24024019
0.65947604 0.0099999998 0.26027581
0.65945745 0.0099999998 0.28029567
0.65943515 0.0099999998 0.30031717
0.67953658 0.0099999998 0.16017973
0.67952317 0.0099999998 0.18020065
0.67950922 0.0099999998 0.20022681
0.67949694 0.0099999998 0.22026548
0.67948723 0.0099999998 0.24031451
0.67947423 0.0099999998 0.26034746
0.6794557 0.0099999998 0.28035754
0.67944193 0.0099999998 0.30037841
0.69955218 0.0099999998 0.16022553
0.69954002 0.0099999998 0.18025263
0.69952786 0.0099999998 0.20028621
0.6995191 0.0099999998 0.22033206
0.69951397 0.0099999998 0.24038091
0.69950384 0.0099999998 0.26040599
0.699498 0.0099999998 0.28040546
0.69952238 0.0099999998 0.30042478
0.71962875 0.0099999998 0.16027158
0.71961683 0.0099999998 0.18030348
0.71960586 0.0099999998 0.20034119
0.71959931 0.0099999998 0.22038552
0.71960163 0.0099999998 0.24042609
0.71961325 0.0099999998 0.2604416
0.71963608 0.0099999998 0.28043836
0.71966892 0.0099999998 0.30045947
0.73976135 0.0099999998 0.16028865
0.73975354 0.0099999998 0.18032081
0.73974687 0.0099999998 0.20035733
0.73974407 0.0099999998 0.22039941
0.7397483 0.0099999998 0.24043722
0.73975945 0.0099999998 0.26045379
0.73977625 0.0099999998 0.28045788
0.73979884 0.0099999998 0.30048493
0.75986719 0.0099999998 0.16029748
0.75986344 0.0099999998 0.18032856
0.75986081 0.0099999998 0.20036298
0.75986075 0.0099999998 0.22040273
0.75986463 0.0099999998 0.2404391
0.75987226 0.0099999998 0.26045844
0.75988209 0.0099999998 0.2804707
0.75989562 0.0099999998 0.3005029
0.7799468 0.0099999998 0.16030091
0.77994603 0.0099999998 0.18033081
0.77994603 0.0099999998 0.20036373
0.7799474 0.0099999998 0.22040251
0.77995032 0.0099999998 0.24043874
0.77995431 0.0099999998 0.2604607
0.77995825 0.0099999998 0.28047904
0.77996391 0.0099999998 0.30051446
0.80001169 0.0099999998 0.1603003
0.80001318 0.0099999998 0.18032937
0.80001509 0.0099999998 0.20036159
0.80001712 0.0099999998 0.22040114
0.80001879 0.0099999998 0.24043837
0.80001926 0.0099999998 0.26046214
0.80001861 0.0099999998 0.28048348
0.80001748 0.0099999998 0.30052021
0.82007307 0.0099999998 0.16029656
0.82007664 0.0099999998 0.18032517
0.82008022 0.0099999998 0.20035729
0.82008284 0.0099999998 0.22039883
0.82008326 0.0099999998 0.24043785
0.82008082 0.0099999998 0.26046261
0.8200767 0.0099999998 0.28048384
0.82006943 0.0099999998 0.30052033
0.84013623 0.0099999998 0.16029006
0.84014195 0.0099999998 0.18031834
0.8401475 0.0099999998 0.20035037
0.84015113 0.0099999998 0.22039293
0.84015054 0.0099999998 0.24043302
0.84014577 0.0099999998 0.26045772
0.84013891 0.0099999998 0.28047797
0.84012622 0.0099999998 0.30051357
0.86020017 0.0099999998 0.16028084
0.86020827 0.0099999998 0.18030865
0.86021602 0.0099999998 0.20034027
0.86022127 0.0099999998 0.22038254
0.86021996 0.0099999998 0.24042246
0.8602134 0.0099999998 0.26044655
0.8602044 0.0099999998 0.28046593
0.86018664 0.0099999998 0.30050042
0.88026083 0.0099999998 0.16026889
0.88027126 0.0099999998 0.18029591
0.88028139 0.0099999998 0.20032661
0.88028842 0.0099999998 0.22036749
0.88028681 0.0099999998 0.24040607
0.88027859 0.0099999998 0.26042947
0.88026804 0.0099999998 0.28044847
0.88024586 0.0099999998 0.30048174
0.90031368 0.0099999998 0.16025431
0.90032625 0.0099999998 0.18028016
0.90033859 0.0099999998 0.2003094
0.90034676 0.0099999998 0.22034734
0.90034461 0.0099999998 0.240384
0.90033537 0.0099999998 0.26040712
0.9003244 0.0099999998 0.28042653
0.90029883 0.0099999998 0.3004584
0.92034781 0.0099999998 0.16023754
0.9203642 0.0099999998 0.18026197
0.92038101 0.0099999998 0.20028922
0.92039168 0.0099999998 0.22032282
0.92038906 0.0099999998 0.24035744
0.92037994 0.0099999998 0.26038092
0.92036855 0.0099999998 0.28040096
0.92034149 0.0099999998 0.3004314
0.94035488 0.0099999998 0.16021942
0.940373 0.0099999998 0.1802424
0.94039351 0.0099999998 0.20026754
0.94041276 0.0099999998 0.22029753
0.94041896 0.0099999998 0.24032842
0.94041157 0.0099999998 0.2603527
0.94039977 0.0099999998 0.2803728
0.94037163 0.0099999998 0.30040166
0.96035343 0.0099999998 0.16020088
0.96037203 0.0099999998 0.18022241
0.96039319 0.0099999998 0.20024519
0.9604153 0.0099999998 0.22027348
0.96043175 0.0099999998 0.24030061
0.96043193 0.0099999998 0.26032311
0.96042097 0.0099999998 0.280343
0.96039295 0.0099999998 0.30037007
0.98034817 0.0099999998 0.16018294
0.98036712 0.0099999998 0.18020292
0.98038894 0.0099999998 0.20022327
0.9804126 0.0099999998 0.22024934
0.98043323 0.0099999998 0.2402743
0.98044342 0.0099999998 0.2602936
0.98043698 0.0099999998 0.28031236
0.98041123 0.0099999998 0.30033788
1.0003412 0.0099999998 0.16016644
1.0003604 0.0099999998 0.18018454
1.0003825000000002 0.0099999998 0.20020282
1.0004072 0.0099999998 0.22022517
1.0004314 0.0099999998 0.24024867
1.0004481 0.0099999998 0.26026526
1.0004507 0.0099999998 0.28028172
1.0004318 0.0099999998 0.3003062
1.0203328999999999 0.0099999998 0.16015087
1.0203526 0.0099999998 0.18016732
1.0203754999999999 0.0099999998 0.20018423
1.0204011999999998 0.0099999998 0.22020316
1.0204289 0.0099999998 0.24022396
1.0204511 0.0099999998 0.2602385
1.0204640999999999 0.0099999998 0.28025252
1.0204589 0.0099999998 0.30027595
1.0403234000000001 0.0099999998 0.1601361
1.0403440000000002 0.0099999998 0.1801516
1.0403677 0.0099999998 0.20016631
1.0403957 0.0099999998 0.22018334
1.0404265 0.0099999998 0.24020146
1.040455 0.0099999998 0.26021427
1.0404806999999998 0.0099999998 0.28022707
1.0404966999999998 0.0099999998 0.30024764
1.0603131000000001 0.0099999998 0.16012228
1.0603347 0.0099999998 0.18013635
1.0603601999999999 0.0099999998 0.20014955
1.0603911 0.0099999998 0.2201654
1.0604252 0.0099999998 0.24018227
1.0604619 0.0099999998 0.26019445
1.0604993 0.0099999998 0.28020653
1.0605346000000002 0.0099999998 0.30022222
1.080303 0.0099999998 0.16010943
1.0803254999999998 0.0099999998 0.18012129
1.0803535 0.0099999998 0.20013404
1.0803875 0.0099999998 0.22014958
1.0804251 0.0099999998 0.24016498
1.0804681999999999 0.0099999998 0.26017696
1.0805128000000002 0.0099999998 0.28018931
1.0805563999999999 0.0099999998 0.30020198
1.1002929 0.0099999998 0.16009609
1.1003174999999998 0.0099999998 0.18010721
1.1003484 0.0099999998 0.20012008
1.1003853000000001 0.0099999998 0.22013514
1.1004267 0.0099999998 0.24014935
1.1004715 0.0099999998 0.2601606
1.1005181999999998 0.0099999998 0.28017375
1.1202847 0.0099999998 0.16008364
1.1203116000000002 0.0099999998 0.1800946
1.1203452 0.0099999998 0.20010768
1.1203855 0.0099999998 0.22012255
1.1204290000000001 0.0099999998 0.24013574
1.1204733 0.0099999998 0.26014769
1.1205157 0.0099999998 0.28016078
1.1402787 0.0099999998 0.16007277
1.1403081 0.0099999998 0.1800842
1.1403451999999998 0.0099999998 0.20009835
1.1403888 0.0099999998 0.22011383
1.1404315 0.0099999998 0.24012637
1.1404727 0.0099999998 0.26013938
1.1602757 0.0099999998 0.16006467
1.1603088 0.0099999998 0.18007773
1.1603506000000001 0.0099999998 0.20009395
1.1603943 0.0099999998 0.22010913
1.1604341999999999 0.0099999998 0.24012242
1.1604674 0.0099999998 0.26013336
1.1802783000000001 0.0099999998 0.16006155
1.1803173 0.0099999998 0.18007775
1.1803595 0.0099999998 0.20009422
1.1803993 0.0099999998 0.22010829
1.1804322 0.0099999998 0.24012019
1.2002903 0.0099999998 0.16006586
1.20033 0.0099999998 0.18008181
1.2003683 0.0099999998 0.20009689
1.2003996000000001 0.0099999998 0.22010832
1.2203063 0.0099999998 0.16007273
1.2203401000000003 0.0099999998 0.18008645
1.2203701 0.0099999998 0.20009878
1.2203875 0.0099999998 0.22010347
1.2403138 0.0099999998 0.16007699
1.2403376 0.0099999998 0.18008694
1.2603067 0.0099999998 0.16007638
VERTICES 2975 5950
1 0
1 1
1 2
1 3
1 4
1 5
1 6
1 7
1 8
1 9
1 10
1 11
1 12
1 13
1 14
1 15
1 16
1 17
1 18
1 19
1 20
1 21
1 22
1 23
1 24
1 25
1 26
1 27
1 28
1 29
1 30
1 31
1 32
1 33
1 34
1 35
1 36
1 37
1 38
1 39
1 40
1 41
1 42
1 43
1 44
1 45
1 46
1 47
1 48
1 49
1 50
1 51
1 52
1 53
1 54
1 55
1 56
1 57
1 58
1 59
1 60
1 61
1 62
1 63
1 64
1 65
1 66
1 67
1 68
1 69
1 70
1 71
1 72
1 73
1 74
1 75
1 76
1 77
1 78
1 79
1 80
1 81
1 82
1 83
1 84
1 85
1 86
1 87
1 88
1 89
1 90
1 91
1 92
1 93
1 94
1 95
1 96
1 97
1 98
1 99
1 100
1 101
1 102
1 103
1 104
1 105
1 106
1 107
1 108
1 109
1 110
1 111
1 112
1 113
1 114
1 115
1 116
1 117
1 118
1 119
1 120
1 121
1 122
1 123
1 124
1 125
1 126
1 127
1 128
1 129
1 130
1 131
1 132
1 133
1 134
1 135
1 136
1 137
1 138
1 139
1 140
1 141
1 142
1 143
1 144
1 145
1 146
1 147
1 148
1 149
1 150
1 151
1 152
1 153
1 154
1 155
1 156
1 157
1 158
1 159
1 160
1 161
1 162
1 163
1 164
1 165
1 166
1 167
1 168
1 169
1 170
1 171
1 172
1 173
1 174
1 175
1 176
1 177
1 178
1 179
1 180
1 181
1 182
1 183
1 184
1 185
1 186
1 187
1 188
1 189
1 190
1 191
1 192
1 193
1 194
1 195
1 196
1 197
1 198
1 199
1 200
1 201
1 202
1 203
1 204
1 205
1 206
1 207
1 208
1 209
1 210
1 211
1 212
1 213
1 214
1 215
1 216
1 217
1 218
1 219
1 220
1 221
1 222
1 223
1 224
1 225
1 226
1 227
1 228
1 229
1 230
1 231
1 232
1 233
1 234
1 235
1 236
1 237
1 238
1 239
1 240
1 241
1 242
1 243
1 244
1 245
1 246
1 247
1 248
1 249
1 250
1 251
1 252
1 253
1 254
1 255
1 256
1 257
1 258
1 259
1 260
1 261
1 262
1 263
1 264
1 265
1 266
1 267
1 268
1 269
1 270
1 271
1 272
1 273
1 274
1 275
1 276
1 277
1 278
1 279
1 280
1 281
1 282
1 283
1 284
1 285
1 286
1 287
1 288
1 289
1 290
1 291
1 292
1 293
1 294
1 295
1 296
1 297
1 298
1 299
1 300
1 301
1 302
1 303
1 304
1 305
1 306
1 307
1 308
1 309
1 310
1 311
1 312
1 313
1 314
1 315
1 316
1 317
1 318
1 319
1 320
1 321
1 322
1 323
1 324
1 325
1 326
1 327
1 328
1 329
1 330
1 331
1 332
1 333
1 334
1 335
1 336
1 337
1 338
1 339
1 340
1 341
1 342
1 343
1 344
1 345
1 346
1 347
1 348
1 349
1 350
1 351
1 352
1 353
1 354
1 355
1 356
1 357
1 358
1 359
1 360
1 361
1 362
1 363
1 364
1 365
1 366
1 367
1 368
1 369
1 370
1 371
1 372
1 373
1 374
1 375
1 376
1 377
1 378
1 379
1 380
1 381
1 382
1 383
1 384
1 385
1 386
1 387
1 388
1 389
1 390
1 391
1 392
1 393
1 394
1 395
1 396
1 397
1 398
1 399
1 400
1 401
1 402
1 403
1 404
1 405
1 406
1 407
1 408
1 409
1 410
1 411
1 412
1 413
1 414
1 415
1 416
1 417
1 418
1 419
1 420
1 421
1 422
1 423
1 424
1 425
1 426
1 427
1 428
1 429
1 430
1 431
1 432
1 433
1 434
1 435
1 436
1 437
1 438
1 439
1 440
1 441
1 442
1 443
1 444
1 445
1 446
1 447
1 448
1 449
1 450
1 451
1 452
1 453
1 454
1 455
1 456
1 457
1 458
1 459
1 460
1 461
1 462
1 463
1 464
1 465
1 466
1 467
1 468
1 469
1 470
1 471
1 472
1 473
1 474
1 475
1 476
1 477
1 478
1 479
1 480
1 481
1 482
1 483
1 484
1 485
1 486
1 487
1 488
1 489
1 490
1 491
1 492
1 493
1 494
1 495
1 496
1 497
1 498
1 499
1 500
1 501
1 502
1 503
1 504
1 505
1 506
1 507
1 508
1 509
1 510
1 511
1 512
1 513
1 514
1 515
1 516
1 517
1 518
1 519
1 520
1 521
1 522
1 523
1 524
1 525
1 526
1 527
1 528
1 529
1 530
1 531
1 532
1 533
1 534
1 535
1 536
1 537
1 538
1 539
1 540
1 541
1 542
1 543
1 544
1 545
1 546
1 547
1 548
1 549
1 550
1 551
1 552
1 553
1 554
1 555
1 556
1 557
1 558
1 559
1 560
1 561
1 562
1 563
1 564
1 565
1 566
1 567
1 568
1 569
1 570
1 571
1 572
1 573
1 574
1 575
1 576
1 577
1 578
1 579
1 580
1 581
1 582
1 583
1 584
1 585
1 586
1 587
1 588
1 589
1 590
1 591
1 592
1 593
1 594
1 595
1 596
1 597
1 598
1 599
1 600
1 601
1 602
1 603
1 604
1 605
1 606
1 607
1 608
1 609
1 610
1 611
1 612
1 613
1 614
1 615
1 616
1 617
1 618
1 619
1 620
1 621
1 622
1 623
1 624
1 625
1 626
1 627
1 628
1 629
1 630
1 631
1 632
1 633
1 634
1 635
1 636
1 637
1 638
1 639
1 640
1 641
1 642
1 643
1 644
1 645
1 646
1 647
1 648
1 649
1 650
1 651
1 652
1 653
1 654
1 655
1 656
1 657
1 658
1 659
1 660
1 661
1 662
1 663
1 664
1 665
1 666
1 667
1 668
1 669
1 670
1 671
1 672
1 673
1 674
1 675
1 676
1 677
1 678
1 679
1 680
1 681
1 682
1 683
1 684
1 685
1 686
1 687
1 688
1 689
1 690
1 691
1 692
1 693
1 694
1 695
1 696
1 697
1 698
1 699
1 700
1 701
1 702
1 703
1 704
1 705
1 706
1 707
1 708
1 709
1 710
1 711
1 712
1 713
1 714
1 715
1 716
1 717
1 718
1 719
1 720
1 721
1 722
1 723
1 724
1 725
1 726
1 727
1 728
1 729
1 730
1 731
1 732
1 733
1 734
1 735
1 736
1 737
1 738
1 739
1 740
1 741
1 742
1 743
1 744
1 745
1 746
1 747
1 748
1 749
1 750
1 751
1 752
1 753
1 754
1 755
1 756
1 757
1 758
1 759
1 760
1 761
1 762
1 763
1 764
1 765
1 766
1 767
1 768
1 769
1 770
1 771
1 772
1 773
1 774
1 775
1 776
1 777
1 778
1 779
1 780
1 781
1 782
1 783
1 784
1 785
1 786
1 787
1 788
1 789
1 790
1 791
1 792
1 793
1 794
1 795
1 796
1 797
1 798
1 799
1 800
1 801
1 802
1 803
1 804
1 805
1 806
1 807
1 808
1 809
1 810
1 811
1 812
1 813
1 814
1 815
1 816
1 817
1 818
1 819
1 820
1 821
1 822
1 823
1 824
1 825
1 826
1 827
1 828
1 829
1 830
1 831
1 832
1 833
1 834
1 835
1 836
1 837
1 838
1 839
1 840
1 841
1 842
1 843
1 844
1 845
1 846
1 847
1 848
1 849
1 850
1 851
1 852
1 853
1 854
1 855
1 856
1 857
1 858
1 859
1 860
1 861
1 862
1 863
1 864
1 865
1 866
1 867
1 868
1 869
1 870
1 871
1 872
1 873
1 874
1 875
1 876
1 877
1 878
1 879
1 880
1 881
1 882
1 883
1 884
1 885
1 886
1 887
1 888
1 889
1 890
1 891
1 892
1 893
1 894
1 895
1 896
1 897
1 898
1 899
1 900
1 901
1 902
1 903
1 904
1 905
1 906
1 907
1 908
1 909
1 910
1 911
1 912
1 913
1 914
1 915
1 916
1 917
1 918
1 919
1 920
1 921
1 922
1 923
1 924
1 925
1 926
1 927
1 928
1 929
1 930
1 931
1 932
1 933
1 934
1 935
1 936
1 937
1 938
1 939
1 940
1 941
1 942
1 943
1 944
1 945
1 946
1 947
1 948
1 949
1 950
1 951
1 952
1 953
1 954
1 955
1 956
1 957
1 958
1 959
1 960
1 961
1 962
1 963
1 964
1 965
1 966
1 967
1 968
1 969
1 970
1 971
1 972
1 973
1 974
1 975
1 976
1 977
1 978
1 979
1 980
1 981
1 982
1 983
1 984
1 985
1 986
1 987
1 988
1 989
1 990
1 991
1 992
1 993
1 994
1 995
1 996
1 997
1 998
1 999
1 1000
1 1001
1 1002
1 1003
1 1004
1 1005
1 1006
1 1007
1 1008
1 1009
1 1010
1 1011
1 1012
1 1013
1 1014
1 1015
1 1016
1 1017
1 1018
1 1019
1 1020
1 1021
1 1022
1 1023
1 1024
1 1025
1 1026
1 1027
1 1028
1 1029
1 1030
1 1031
1 1032
1 1033
1 1034
1 1035
1 1036
1 1037
1 1038
1 1039
1 1040
1 1041
1 1042
1 1043
1 1044
1 1045
1 1046
1 1047
1 1048
1 1049
1 1050
1 1051
1 1052
1 1053
1 1054
1 1055
1 1056
1 1057
1 1058
1 1059
1 1060
1 1061
1 1062
1 1063
1 1064
1 1065
1 1066
1 1067
1 1068
1 1069
1 1070
1 1071
1 1072
1 1073
1 1074
1 1075
1 1076
1 1077
1 1078
1 1079
1 1080
1 1081
1 1082
1 1083
1 1084
1 1085
1 1086
1 1087
1 1088
1 1089
1 1090
1 1091
1 1092
1 1093
1 1094
1 1095
1 1096
1 1097
1 1098
1 1099
1 1100
1 1101
1 1102
1 1103
1 1104
1 1105
1 1106
1 1107
1 1108
1 1109
1 1110
1 1111
1 1112
1 1113
1 1114
1 1115
1 1116
1 1117
1 1118
1 1119
1 1120
1 1121
1 1122
1 1123
1 1124
1 1125
1 1126
1 1127
1 1128
1 1129
1 1130
1 1131
1 1132
1 1133
1 1134
1 1135
1 1136
1 1137
1 1138
1 1139
1 1140
1 1141
1 1142
1 1143
1 1144
1 1145
1 1146
1 1147
1 1148
1 1149
1 1150
1 1151
1 1152
1 1153
1 1154
1 1155
1 1156
1 1157
1 1158
1 1159
1 1160
1 1161
1 1162
1 1163
1 1164
1 1165
1 1166
1 1167
1 1168
1 1169
1 1170
1 1171
1 1172
1 1173
1 1174
1 1175
1 1176
1 1177
1 1178
1 1179
1 1180
1 1181
1 1182
1 1183
1 1184
1 1185
1 1186
1 1187
1 1188
1 1189
1 1190
1 1191
1 1192
1 1193
1 1194
1 1195
1 1196
1 1197
1 1198
1 1199
1 1200
1 1201
1 1202
1 1203
1 1204
1 1205
1 1206
1 1207
1 1208
1 1209
1 1210
1 1211
1 1212
1 1213
1 1214
1 1215
1 1216
1 1217
1 1218
1 1219
1 1220
1 1221
1 1222
1 1223
1 1224
1 1225
1 1226
1 1227
1 1228
1 1229
1 1230
1 1231
1 1232
1 1233
1 1234
1 1235
1 1236
1 1237
1 1238
1 1239
1 1240
1 1241
1 1242
1 1243
1 1244
1 1245
1 1246
1 1247
1 1248
1 1249
1 1250
1 1251
1 1252
1 1253
1 1254
1 1255
1 1256
1 1257
1 1258
1 1259
1 1260
1 1261
1 1262
1 1263
1 1264
1 1265
1 1266
1 1267
1 1268
1 1269
1 1270
1 1271
1 1272
1 1273
1 1274
1 1275
1 1276
1 1277
1 1278
1 1279
1 1280
1 1281
1 1282
1 1283
1 1284
1 1285
1 1286
1 1287
1 1288
1 1289
1 1290
1 1291
1 1292
1 1293
1 1294
1 1295
1 1296
1 1297
1 1298
1 1299
1 1300
1 1301
1 1302
1 1303
1 1304
1 1305
1 1306
1 1307
1 1308
1 1309
1 1310
1 1311
1 1312
1 1313
1 1314
1 1315
1 1316
1 1317
1 1318
1 1319
1 1320
1 1321
1 1322
1 1323
1 1324
1 1325
1 1326
1 1327
1 1328
1 1329
1 1330
1 1331
1 1332
1 1333
1 1334
1 1335
1 1336
1 1337
1 1338
1 1339
1 1340
1 1341
1 1342
1 1343
1 1344
1 1345
1 1346
1 1347
1 1348
1 1349
1 1350
1 1351
1 1352
1 1353
1 1354
1 1355
1 1356
1 1357
1 1358
1 1359
1 1360
1 1361
1 1362
1 1363
1 1364
1 1365
1 1366
1 1367
1 1368
1 1369
1 1370
1 1371
1 1372
1 1373
1 1374
1 1375
1 1376
1 1377
1 1378
1 1379
1 1380
1 1381
1 1382
1 1383
1 1384
1 1385
1 1386
1 1387
1 1388
1 1389
1 1390
1 1391
1 1392
1 1393
1 1394
1 1395
1 1396
1 1397
1 1398
1 1399
1 1400
1 1401
1 1402
1 1403
1 1404
1 1405
1 1406
1 1407
1 1408
1 1409
1 1410
1 1411
1 1412
1 1413
1 1414
1 1415
1 1416
1 1417
1 1418
1 1419
1 1420
1 1421
1 1422
1 1423
1 1424
1 1425
1 1426
1 1427
1 1428
1 1429
1 1430
1 1431
1 1432
1 1433
1 1434
1 1435
1 1436
1 1437
1 1438
1 1439
1 1440
1 1441
1 1442
1 1443
1 1444
1 1445
1 1446
1 1447
1 1448
1 1449
1 1450
1 1451
1 1452
1 1453
1 1454
1 1455
1 1456
1 1457
1 1458
1 1459
1 1460
1 1461
1 1462
1 1463
1 1464
1 1465
1 1466
1 1467
1 1468
1 1469
1 1470
1 1471
1 1472
1 1473
1 1474
1 1475
1 1476
1 1477
1 1478
1 1479
1 1480
1 1481
1 1482
1 1483
1 1484
1 1485
1 1486
1 1487
1 1488
1 1489
1 1490
1 1491
1 1492
1 1493
1 1494
1 1495
1 1496
1 1497
1 1498
1 1499
1 1500
1 1501
1 1502
1 1503
1 1504
1 1505
1 1506
1 1507
1 1508
1 1509
1 1510
1 1511
1 1512
1 1513
1 1514
1 1515
1 1516
1 1517
1 1518
1 1519
1 1520
1 1521
1 1522
1 1523
1 1524
1 1525
1 1526
1 1527
1 1528
1 1529
1 1530
1 1531
1 1532
1 1533
1 1534
1 1535
1 1536
1 1537
1 1538
1 1539
1 1540
1 1541
1 1542
1 1543
1 1544
1 1545
1 1546
1 1547
1 1548
1 1549
1 1550
1 1551
1 1552
1 1553
1 1554
1 1555
1 1556
1 1557
1 1558
1 1559
1 1560
1 1561
1 1562
1 1563
1 1564
1 1565
1 1566
1 1567
1 1568
1 1569
1 1570
1 1571
1 1572
1 1573
1 1574
1 1575
1 1576
1 1577
1 1578
1 1579
1 1580
1 1581
1 1582
1 1583
1 1584
1 1585
1 1586
1 1587
1 1588
1 1589
1 1590
1 1591
1 1592
1 1593
1 1594
1 1595
1 1596
1 1597
1 1598
1 1599
1 1600
1 1601
1 1602
1 1603
1 1604
1 1605
1 1606
1 1607
1 1608
1 1609
1 1610
1 1611
1 1612
1 1613
1 1614
1 1615
1 1616
1 1617
1 1618
1 1619
1 1620
1 1621
1 1622
1 1623
1 1624
1 1625
1 1626
1 1627
1 1628
1 1629
1 1630
1 1631
1 1632
1 1633
1 1634
1 1635
1 1636
1 1637
1 1638
1 1639
1 1640
1 1641
1 1642
1 1643
1 1644
1 1645
1 1646
1 1647
1 1648
1 1649
1 1650
1 1651
1 1652
1 1653
1 1654
1 1655
1 1656
1 1657
1 1658
1 1659
1 1660
1 1661
1 1662
1 1663
1 1664
1 1665
1 1666
1 1667
1 1668
1 1669
1 1670
1 1671
1 1672
1 1673
1 1674
1 1675
1 1676
1 1677
1 1678
1 1679
1 1680
1 1681
1 1682
1 1683
1 1684
1 1685
1 1686
1 1687
1 1688
1 1689
1 1690
1 1691
1 1692
1 1693
1 1694
1 1695
1 1696
1 1697
1 1698
1 1699
1 1700
1 1701
1 1702
1 1703
1 1704
1 1705
1 1706
1 1707
1 1708
1 1709
1 1710
1 1711
1 1712
1 1713
1 1714
1 1715
1 1716
1 1717
1 1718
1 1719
1 1720
1 1721
1 1722
1 1723
1 1724
1 1725
1 1726
1 1727
1 1728
1 1729
1 1730
1 1731
1 1732
1 1733
1 1734
1 1735
1 1736
1 1737
1 1738
1 1739
1 1740
1 1741
1 1742
1 1743
1 1744
1 1745
1 1746
1 1747
1 1748
1 1749
1 1750
1 1751
1 1752
1 1753
1 1754
1 1755
1 1756
1 1757
1 1758
1 1759
1 1760
1 1761
1 1762
1 1763
1 1764
1 1765
1 1766
1 1767
1 1768
1 1769
1 1770
1 1771
1 1772
1 1773
1 1774
1 1775
1 1776
1 1777
1 1778
1 1779
1 1780
1 1781
1 1782
1 1783
1 1784
1 1785
1 1786
1 1787
1 1788
1 1789
1 1790
1 1791
1 1792
1 1793
1 1794
1 1795
1 1796
1 1797
1 1798
1 1799
1 1800
1 1801
1 1802
1 1803
1 1804
1 1805
1 1806
1 1807
1 1808
1 1809
1 1810
1 1811
1 1812
1 1813
1 1814
1 1815
1 1816
1 1817
1 1818
1 1819
1 1820
1 1821
1 1822
1 1823
1 1824
1 1825
1 1826
1 1827
1 1828
1 1829
1 1830
1 1831
1 1832
1 1833
1 1834
1 1835
1 1836
1 1837
1 1838
1 1839
1 1840
1 1841
1 1842
1 1843
1 1844
1 1845
1 1846
1 1847
1 1848
1 1849
1 1850
1 1851
1 1852
1 1853
1 1854
1 1855
1 1856
1 1857
1 1858
1 1859
1 1860
1 1861
1 1862
1 1863
1 1864
1 1865
1 1866
1 1867
1 1868
1 1869
1 1870
1 1871
1 1872
1 1873
1 1874
1 1875
1 1876
1 1877
1 1878
1 1879
1 1880
1 1881
1 1882
1 1883
1 1884
1 1885
1 1886
1 1887
1 1888
1 1889
1 1890
1 1891
1 1892
1 1893
1 1894
1 1895
1 1896
1 1897
1 1898
1 1899
1 1900
1 1901
1 1902
1 1903
1 1904
1 1905
1 1906
1 1907
1 1908
1 1909
1 1910
1 1911
1 1912
1 1913
1 1914
1 1915
1 1916
1 1917
1 1918
1 1919
1 1920
1 1921
1 1922
1 1923
1 1924
1 1925
1 1926
1 1927
1 1928
1 1929
1 1930
1 1931
1 1932
1 1933
1 1934
1 1935
1 1936
1 1937
1 1938
1 1939
1 1940
1 1941
1 1942
1 1943
1 1944
1 1945
1 1946
1 1947
1 1948
1 1949
1 1950
1 1951
1 1952
1 1953
1 1954
1 1955
1 1956
1 1957
1 1958
1 1959
1 1960
1 1961
1 1962
1 1963
1 1964
1 1965
1 1966
1 1967
1 1968
1 1969
1 1970
1 1971
1 1972
1 1973
1 1974
1 1975
1 1976
1 1977
1 1978
1 1979
1 1980
1 1981
1 1982
1 1983
1 1984
1 1985
1 1986
1 1987
1 1988
1 1989
1 1990
1 1991
1 1992
1 1993
1 1994
1 1995
1 1996
1 1997
1 1998
1 1999
1 2000
1 2001
1 2002
1 2003
1 2004
1 2005
1 2006
1 2007
1 2008
1 2009
1 2010
1 2011
1 2012
1 2013
1 2014
1 2015
1 2016
1 2017
1 2018
1 2019
1 2020
1 2021
1 2022
1 2023
1 2024
1 2025
1 2026
1 2027
1 2028
1 2029
1 2030
1 2031
1 2032
1 2033
1 2034
1 2035
1 2036
1 2037
1 2038
1 2039
1 2040
1 2041
1 2042
1 2043
1 2044
1 2045
1 2046
1 2047
1 2048
1 2049
1 2050
1 2051
1 2052
1 2053
1 2054
1 2055
1 2056
1 2057
1 2058
1 2059
1 2060
1 2061
1 2062
1 2063
1 2064
1 2065
1 2066
1 2067
1 2068
1 2069
1 2070
1 2071
1 2072
1 2073
1 2074
1 2075
1 2076
1 2077
1 2078
1 2079
1 2080
1 2081
1 2082
1 2083
1 2084
1 2085
1 2086
1 2087
1 2088
1 2089
1 2090
1 2091
1 2092
1 2093
1 2094
1 2095
1 2096
1 2097
1 2098
1 2099
1 2100
1 2101
1 2102
1 2103
1 2104
1 2105
1 2106
1 2107
1 2108
1 2109
1 2110
1 2111
1 2112
1 2113
1 2114
1 2115
1 2116
1 2117
1 2118
1 2119
1 2120
1 2121
1 2122
1 2123
1 2124
1 2125
1 2126
1 2127
1 2128
1 2129
1 2130
1 2131
1 2132
1 2133
1 2134
1 2135
1 2136
1 2137
1 2138
1 2139
1 2140
1 2141
1 2142
1 2143
1 2144
1 2145
1 2146
1 2147
1 2148
1 2149
1 2150
1 2151
1 2152
1 2153
1 2154
1 2155
1 2156
1 2157
1 2158
1 2159
1 2160
1 2161
1 2162
1 2163
1 2164
1 2165
1 2166
1 2167
1 2168
1 2169
1 2170
1 2171
1 2172
1 2173
1 2174
1 2175
1 2176
1 2177
1 2178
1 2179
1 2180
1 2181
1 2182
1 2183
1 2184
1 2185
1 2186
1 2187
1 2188
1 2189
1 2190
1 2191
1 2192
1 2193
1 2194
1 2195
1 2196
1 2197
1 2198
1 2199
1 2200
1 2201
1 2202
1 2203
1 2204
1 2205
1 2206
1 2207
1 2208
1 2209
1 2210
1 2211
1 2212
1 2213
1 2214
1 2215
1 2216
1 2217
1 2218
1 2219
1 2220
1 2221
1 2222
1 2223
1 2224
1 2225
1 2226
1 2227
1 2228
1 2229
1 2230
1 2231
1 2232
1 2233
1 2234
1 2235
1 2236
1 2237
1 2238
1 2239
1 2240
1 2241
1 2242
1 2243
1 2244
1 2245
1 2246
1 2247
1 2248
1 2249
1 2250
1 2251
1 2252
1 2253
1 2254
1 2255
1 2256
1 2257
1 2258
1 2259
1 2260
1 2261
1 2262
1 2263
1 2264
1 2265
1 2266
1 2267
1 2268
1 2269
1 2270
1 2271
1 2272
1 2273
1 2274
1 2275
1 2276
1 2277
1 2278
1 2279
1 2280
1 2281
1 2282
1 2283
1 2284
1 2285
1 2286
1 2287
1 2288
1 2289
1 2290
1 2291
1 2292
1 2293
1 2294
1 2295
1 2296
1 2297
1 2298
1 2299
1 2300
1 2301
1 2302
1 2303
1 2304
1 2305
1 2306
1 2307
1 2308
1 2309
1 2310
1 2311
1 2312
1 2313
1 2314
1 2315
1 2316
1 2317
1 2318
1 2319
1 2320
1 2321
1 2322
1 2323
1 2324
1 2325
1 2326
1 2327
1 2328
1 2329
1 2330
1 2331
1 2332
1 2333
1 2334
1 2335
1 2336
1 2337
1 2338
1 2339
1 2340
1 2341
1 2342
1 2343
1 2344
1 2345
1 2346
1 2347
1 2348
1 2349
1 2350
1 2351
1 2352
1 2353
1 2354
1 2355
1 2356
1 2357
1 2358
1 2359
1 2360
1 2361
1 2362
1 2363
1 2364
1 2365
1 2366
1 2367
1 2368
1 2369
1 2370
1 2371
1 2372
1 2373
1 2374
1 2375
1 2376
1 2377
1 2378
1 2379
1 2380
1 2381
1 2382
1 2383
1 2384
1 2385
1 2386
1 2387
1 2388
1 2389
1 2390
1 2391
1 2392
1 2393
1 2394
1 2395
1 2396
1 2397
1 2398
1 2399
1 2400
1 2401
1 2402
1 2403
1 2404
1 2405
1 2406
1 2407
1 2408
1 2409
1 2410
1 2411
1 2412
1 2413
1 2414
1 2415
1 2416
1 2417
1 2418
1 2419
1 2420
1 2421
1 2422
1 2423
1 2424
1 2425
1 2426
1 2427
1 2428
1 2429
1 2430
1 2431
1 2432
1 2433
1 2434
1 2435
1 2436
1 2437
1 2438
1 2439
1 2440
1 2441
1 2442
1 2443
1 2444
1 2445
1 2446
1 2447
1 2448
1 2449
1 2450
1 2451
1 2452
1 2453
1 2454
1 2455
1 2456
1 2457
1 2458
1 2459
1 2460
1 2461
1 2462
1 2463
1 2464
1 2465
1 2466
1 2467
1 2468
1 2469
1 2470
1 2471
1 2472
1 2473
1 2474
1 2475
1 2476
1 2477
1 2478
1 2479
1 2480
1 2481
1 2482
1 2483
1 2484
1 2485
1 2486
1 2487
1 2488
1 2489
1 2490
1 2491
1 2492
1 2493
1 2494
1 2495
1 2496
1 2497
1 2498
1 2499
1 2500
1 2501
1 2502
1 2503
1 2504
1 2505
1 2506
1 2507
1 2508
1 2509
1 2510
1 2511
1 2512
1 2513
1 2514
1 2515
1 2516
1 2517
1 2518
1 2519
1 2520
1 2521
1 2522
1 2523
1 2524
1 2525
1 2526
1 2527
1 2528
1 2529
1 2530
1 2531
1 2532
1 2533
1 2534
1 2535
1 2536
1 2537
1 2538
1 2539
1 2540
1 2541
1 2542
1 2543
1 2544
1 2545
1 2546
1 2547
1 2548
1 2549
1 2550
1 2551
1 2552
1 2553
1 2554
1 2555
1 2556
1 2557
1 2558
1 2559
1 2560
1 2561
1 2562
1 2563
1 2564
1 2565
1 2566
1 2567
1 2568
1 2569
1 2570
1 2571
1 2572
1 2573
1 2574
1 2575
1 2576
1 2577
1 2578
1 2579
1 2580
1 2581
1 2582
1 2583
1 2584
1 2585
1 2586
1 2587
1 2588
1 2589
1 2590
1 2591
1 2592
1 2593
1 2594
1 2595
1 2596
1 2597
1 2598
1 2599
1 2600
1 2601
1 2602
1 2603
1 2604
1 2605
1 2606
1 2607
1 2608
1 2609
1 2610
1 2611
1 2612
1 2613
1 2614
1 2615
1 2616
1 2617
1 2618
1 2619
1 2620
1 2621
1 2622
1 2623
1 2624
1 2625
1 2626
1 2627
1 2628
1 2629
1 2630
1 2631
1 2632
1 2633
1 2634
1 2635
1 2636
1 2637
1 2638
1 2639
1 2640
1 2641
1 2642
1 2643
1 2644
1 2645
1 2646
1 2647
1 2648
1 2649
1 2650
1 2651
1 2652
1 2653
1 2654
1 2655
1 2656
1 2657
1 2658
1 2659
1 2660
1 2661
1 2662
1 2663
1 2664
1 2665
1 2666
1 2667
1 2668
1 2669
1 2670
1 2671
1 2672
1 2673
1 2674
1 2675
1 2676
1 2677
1 2678
1 2679
1 2680
1 2681
1 2682
1 2683
1 2684
1 2685
1 2686
1 2687
1 2688
1 2689
1 2690
1 2691
1 2692
1 2693
1 2694
1 2695
1 2696
1 2697
1 2698
1 2699
1 2700
1 2701
1 2702
1 2703
1 2704
1 2705
1 2706
1 2707
1 2708
1 2709
1 2710
1 2711
1 2712
1 2713
1 2714
1 2715
1 2716
1 2717
1 2718
1 2719
1 2720
1 2721
1 2722
1 2723
1 2724
1 2725
1 2726
1 2727
1 2728
1 2729
1 2730
1 2731
1 2732
1 2733
1 2734
1 2735
1 2736
1 2737
1 2738
1 2739
1 2740
1 2741
1 2742
1 2743
1 2744
1 2745
1 2746
1 2747
1 2748
1 2749
1 2750
1 2751
1 2752
1 2753
1 2754
1 2755
1 2756
1 2757
1 2758
1 2759
1 2760
1 2761
1 2762
1 2763
1 2764
1 2765
1 2766
1 2767
1 2768
1 2769
1 2770
1 2771
1 2772
1 2773
1 2774
1 2775
1 2776
1 2777
1 2778
1 2779
1 2780
1 2781
1 2782
1 2783
1 2784
1 2785
1 2786
1 2787
1 2788
1 2789
1 2790
1 2791
1 2792
1 2793
1 2794
1 2795
1 2796
1 2797
1 2798
1 2799
1 2800
1 2801
1 2802
1 2803
1 2804
1 2805
1 2806
1 2807
1 2808
1 2809
1 2810
1 2811
1 2812
1 2813
1 2814
1 2815
1 2816
1 2817
1 2818
1 2819
1 2820
1 2821
1 2822
1 2823
1 2824
1 2825
1 2826
1 2827
1 2828
1 2829
1 2830
1 2831
1 2832
1 2833
1 2834
1 2835
1 2836
1 2837
1 2838
1 2839
1 2840
1 2841
1 2842
1 2843
1 2844
1 2845
1 2846
1 2847
1 2848
1 2849
1 2850
1 2851
1 2852
1 2853
1 2854
1 2855
1 2856
1 2857
1 2858
1 2859
1 2860
1 2861
1 2862
1 2863
1 2864
1 2865
1 2866
1 2867
1 2868
1 2869
1 2870
1 2871
1 2872
1 2873
1 2874
1 2875
1 2876
1 2877
1 2878
1 2879
1 2880
1 2881
1 2882
1 2883
1 2884
1 2885
1 2886
1 2887
1 2888
1 2889
1 2890
1 2891
1 2892
1 2893
1 2894
1 2895
1 2896
1 2897
1 2898
1 2899
1 2900
1 2901
1 2902
1 2903
1 2904
1 2905
1 2906
1 2907
1 2908
1 2909
1 2910
1 2911
1 2912
1 2913
1 2914
1 2915
1 2916
1 2917
1 2918
1 2919
1 2920
1 2921
1 2922
1 2923
1 2924
1 2925
1 2926
1 2927
1 2928
1 2929
1 2930
1 2931
1 2932
1 2933
1 2934
1 2935
1 2936
1 2937
1 2938
1 2939
1 2940
1 2941
1 2942
1 2943
1 2944
1 2945
1 2946
1 2947
1 2948
1 2949
1 2950
1 2951
1 2952
1 2953
1 2954
1 2955
1 2956
1 2957
1 2958
1 2959
1 2960
1 2961
1 2962
1 2963
1 2964
1 2965
1 2966
1 2967
1 2968
1 2969
1 2970
1 2971
1 2972
1 2973
1 2974
POINT_DATA 2975
SCALARS Idp unsigned_int
LOOKUP_TABLE default
0 1 39 40 41 80 81 82 121 122 123 162 163 164 203 204 205 244 245 246 285 286 287 326 327 328 367 368 369 408 409 410 449 450 451 461 462 463 471 472 473 481 482 483 491 492 493 501 502 503 511 512 513 521 522 523 531 532 533 541 542 543 551 552 2 3 4 5 6 7 8 9 42 43 44 45 46 47 48 49 83 84 85 86 87 88 89 90 124 125 126 127 128 129 130 131 165 166 167 168 169 170 171 172 206 207 208 209 210 211 212 213 247 248 249 250 251 252 253 254 288 289 290 291 292 293 294 295 329 330 331 332 333 334 335 336 370 371 372 373 374 375 376 377 411 412 413 414 415 416 417 418 452 453 454 464 465 474 475 484 485 494 495 504 505 514 515 524 525 534 535 544 545 553 554 10 11 12 13 14 15 16 17 18 50 51 52 53 54 55 56 57 58 91 92 93 94 95 96 97 98 99 132 133 134 135 136 137 138 139 140 173 174 175 176 177 178 179 180 181 214 215 216 217 218 219 220 221 222 255 256 257 258 259 260 261 262 263 296 297 298 299 300 301 302 303 304 337 338 339 340 341 342 343 344 345 378 379 380 381 382 383 384 385 386 419 420 421 422 423 424 425 426 427 19 20 21 22 23 24 25 26 59 60 61 62 63 64 65 66 100 101 102 103 104 105 106 107 141 142 143 144 145 146 147 148 182 183 184 185 186 187 188 189 223 224 225 226 227 228 229 230 264 265 266 267 268 269 270 271 305 306 307 308 309 310 311 312 346 347 348 349 350 351 352 353 387 388 389 390 391 392 393 394 428 429 430 431 432 433 434 435 27 28 29 30 31 32 33 34 35 67 68 69 70 71 72 73 74 75 108 109 110 111 112 113 114 115 116 149 150 151 152 153 154 155 156 157 190 191 192 193 194 195 196 197 198 231 232 233 234 235 236 237 238 239 272 273 274 275 276 277 278 279 280 313 314 315 316 317 318 319 320 321 354 355 356 357 358 359 360 361 362 395 396 397 398 399 400 401 402 403 436 437 438 439 440 441 442 443 444 455 456 466 476 486 496 506 516 526 536 546 555 36 37 38 76 77 78 79 117 118 119 120 158 159 160 161 199 200 201 202 240 241 242 243 281 282 283 284 322 323 324 325 363 364 365 366 404 405 406 407 445 446 447 448 457 458 459 460 467 468 469 470 477 478 479 480 487 488 489 490 497 498 499 500 507 508 509 510 517 518 519 520 527 528 529 530 537 538 539 540 547 548 549 550 556 557 558 559 560 561 562 563 564 565 566 567 568 569 570 571 572 573 574 575 576 577 578 579 580 581 582 583 584 585 586 587 588 589 590 591 592 593 594 595 596 597 598 599 600 601 602 603 604 605 606 607 608 609 610 611 612 613 614 615 616 617 618 619 620 621 622 623 624 625 626 627 628 629 630 631 632 633 634 635 636 637 638 639 640 641 642 643 644 645 646 647 648 649 650 651 652 653 654 655 656 657 658 659 660 661 662 663 664 665 666 667 668 669 670 671 672 673 674 675 676 677 678 679 680 681 682 683 684 685 686 687 688 689 690 691 692 693 694 695 696 697 698 699 700 701 702 703 704 705 706 707 708 709 710 711 712 713 714 715 716 717 718 719 720 721 722 723 724 725 726 727 728 729 730 731 732 733 734 735 736 737 738 739 740 741 742 743 744 745 746 747 748 749 750 751 752 753 754 755 756 757 758 759 760 761 762 763 764 765 766 767 768 769 770 771 772 773 774 775 776 777 778 779 780 781 782 783 784 785 786 787 788 789 790 791 792 793 794 795 796 797 798 799 800 801 802 803 804 805 806 807 808 809 810 811 812 813 814 815 816 817 818 819 820 821 822 823 824 825 826 827 828 829 830 831 832 833 834 835 836 837 838 839 840 841 842 843 844 845 846 847 848 849 850 851 852 853 854 855 856 857 858 859 860 861 862 863 864 865 866 867 868 869 870 871 872 873 874 875 876 877 878 879 880 881 882 883 884 885 886 887 888 889 890 891 892 893 894 895 896 897 898 899 900 901 902 903 904 905 906 907 908 909 910 911 912 913 914 915 916 917 918 919 920 921 922 923 924 925 926 927 928 929 930 931 932 933 934 935 936 937 938 939 940 941 942 943 944 945 946 947 948 949 950 951 952 953 954 955 956 957 958 959 960 961 962 963 964 965 966 967 968 969 970 971 972 973 974 975 976 977 978 979 980 981 982 983 984 985 986 987 988 989 990 991 992 993 994 995 996 997 998 999 1000 1001 1002 1003 1004 1005 1006 1007 1008 1009 1010 1011 1012 1013 1014 1015 1016 1017 1018 1019 1020 1021 1022 1023 1024 1025 1026 1027 1028 1029 1030 1031 1032 1033 1034 1035 1060 1061 1062 1063 1064 1065 1091 1092 1093 1094 1095 1096 1122 1123 1124 1125 1126 1127 1153 1154 1155 1156 1157 1158 1184 1185 1186 1187 1188 1189 1215 1216 1217 1218 1219 1220 1246 1247 1248 1249 1250 1251 1277 1278 1279 1280 1281 1282 1308 1309 1310 1311 1312 1313 1339 1340 1341 1342 1343 1344 1370 1371 1372 1373 1374 1375 1401 1402 1403 1404 1405 1406 1432 1433 1434 1435 1436 1437 1463 1464 1465 1466 1467 1468 1494 1495 1496 1497 1498 1499 1525 1526 1527 1528 1529 1530 1556 1557 1558 1559 1560 1561 1587 1588 1589 1590 1591 1592 1618 1619 1620 1621 1622 1623 1649 1650 1651 1652 1653 1654 1680 1681 1682 1683 1684 1685 1711 1712 1713 1714 1715 1716 1742 1743 1744 1745 1746 1747 1773 1774 1775 1776 1777 1778 1804 1805 1806 1807 1808 1809 1835 1836 1837 1838 1839 1840 1866 1867 1868 1869 1870 1871 1897 1898 1899 1900 1901 1902 1928 1929 1930 1931 1932 1933 1959 1960 1961 1962 1963 1964 1990 1991 1992 1993 1994 1995 2021 2022 2023 2024 2025 2026 2052 2053 2054 2055 2056 2057 2083 2084 2085 2086 2087 2088 2114 2115 2116 2117 2118 2119 2145 2146 2147 2148 2149 2150 2176 2177 2178 2179 2180 2181 2207 2208 2209 2210 2211 2212 2238 2239 2240 2241 2242 2243 2269 2270 2271 2272 2273 2274 2300 2301 2302 2303 2304 2305 2331 2332 2333 2334 2335 2336 2362 2363 2364 2365 2366 2367 2393 2394 2395 2396 2397 2398 2424 2425 2426 2427 2428 2429 2455 2456 2457 2458 2459 2460 2486 2487 2488 2489 2490 2491 2517 2518 2519 2520 2521 2522 2548 2549 2550 2551 2552 2553 2579 2580 2581 2582 2583 2584 2610 2611 2612 2613 2614 2615 2641 2642 2643 2644 2645 2646 2672 2673 2674 2675 2676 2677 2703 2704 2705 2706 2707 2708 2734 2735 2736 2737 2738 2763 2764 2765 2766 2767 2792 2793 2794 2795 2819 2820 2821 2822 2846 2847 2848 2871 2872 2894 2895 1036 1037 1038 1039 1040 1041 1042 1043 1044 1066 1067 1068 1069 1070 1071 1072 1073 1074 1097 1098 1099 1100 1101 1102 1103 1104 1105 1128 1129 1130 1131 1132 1133 1134 1135 1136 1159 1160 1161 1162 1163 1164 1165 1166 1167 1190 1191 1192 1193 1194 1195 1196 1197 1198 1221 1222 1223 1224 1225 1226 1227 1228 1229 1252 1253 1254 1255 1256 1257 1258 1259 1260 1283 1284 1285 1286 1287 1288 1289 1290 1291 1314 1315 1316 1317 1318 1319 1320 1321 1322 1345 1346 1347 1348 1349 1350 1351 1352 1353 1376 1377 1378 1379 1380 1381 1382 1383 1384 1407 1408 1409 1410 1411 1412 1413 1414 1415 1438 1439 1440 1441 1442 1443 1444 1445 1446 1469 1470 1471 1472 1473 1474 1475 1476 1477 1500 1501 1502 1503 1504 1505 1506 1507 1508 1531 1532 1533 1534 1535 1536 1537 1538 1539 1562 1563 1564 1565 1566 1567 1568 1569 1570 1593 1594 1595 1596 1597 1598 1599 1600 1601 1624 1625 1626 1627 1628 1629 1630 1631 1632 1655 1656 1657 1658 1659 1660 1661 1662 1663 1686 1687 1688 1689 1690 1691 1692 1693 1694 1717 1718 1719 1720 1721 1722 1723 1724 1725 1748 1749 1750 1751 1752 1753 1754 1755 1756 1779 1780 1781 1782 1783 1784 1785 1786 1787 1810 1811 1812 1813 1814 1815 1816 1817 1818 1841 1842 1843 1844 1845 1846 1847 1848 1849 1872 1873 1874 1875 1876 1877 1878 1879 1880 1903 1904 1905 1906 1907 1908 1909 1910 1911 1934 1935 1936 1937 1938 1939 1940 1941 1942 1965 1966 1967 1968 1969 1970 1971 1972 1973 1996 1997 1998 1999 2000 2001 2002 2003 2004 2027 2028 2029 2030 2031 2032 2033 2034 2035 2058 2059 2060 2061 2062 2063 2064 2065 2066 2089 2090 2091 2092 2093 2094 2095 2096 2097 2120 2121 2122 2123 2124 2125 2126 2127 2128 2151 2152 2153 2154 2155 2156 2157 2158 2159 2182 2183 2184 2185 2186 2187 2188 2189 2190 2213 2214 2215 2216 2217 2218 2219 2220 2221 2244 2245 2246 2247 2248 2249 2250 2251 2252 2275 2276 2277 2278 2279 2280 2281 2282 2283 2306 2307 2308 2309 2310 2311 2312 2313 2314 2337 2338 2339 2340 2341 2342 2343 2344 2345 2368 2369 2370 2371 2372 2373 2374 2375 2376 2399 2400 2401 2402 2403 2404 2405 2406 2407 2430 2431 2432 2433 2434 2435 2436 2437 2438 2461 2462 2463 2464 2465 2466 2467 2468 2469 2492 2493 2494 2495 2496 2497 2498 2499 2500 2523 2524 2525 2526 2527 2528 2529 2530 2531 2554 2555 2556 2557 2558 2559 2560 2561 2562 2585 2586 2587 2588 2589 2590 2591 2592 2593 2616 2617 2618 2619 2620 2621 2622 2623 2624 2647 2648 2649 2650 2651 2652 2653 2654 2655 2678 2679 2680 2681 2682 2683 2684 2685 2686 2709 2710 2711 2712 2713 2714 2715 2716 2717 2739 2740 2741 2742 2743 2744 2745 2746 2747 2768 2769 2770 2771 2772 2773 2774 2775 2776 2796 2797 2798 2799 2800 2801 2802 2803 2804 2823 2824 2825 2826 2827 2828 2829 2830 2831 2849 2850 2851 2852 2853 2854 2855 2856 2857 2873 2874 2875 2876 2877 2878 2879 2880 2881 2896 2897 2898 2899 2900 2901 2902 2903 2904 2917 2918 2919 2920 2921 2922 2923 2924 2925 2936 2937 2938 2939 2940 2941 2942 2943 2953 2954 2955 2956 2957 2958 2966 2967 2968 2969 1045 1046 1047 1048 1049 1050 1051 1052 1075 1076 1077 1078 1079 1080 1081 1082 1106 1107 1108 1109 1110 1111 1112 1113 1137 1138 1139 1140 1141 1142 1143 1144 1168 1169 1170 1171 1172 1173 1174 1175 1199 1200 1201 1202 1203 1204 1205 1206 1230 1231 1232 1233 1234 1235 1236 1237 1261 1262 1263 1264 1265 1266 1267 1268 1292 1293 1294 1295 1296 1297 1298 1299 1323 1324 1325 1326 1327 1328 1329 1330 1354 1355 1356 1357 1358 1359 1360 1361 1385 1386 1387 1388 1389 1390 1391 1392 1416 1417 1418 1419 1420 1421 1422 1423 1447 1448 1449 1450 1451 1452 1453 1454 1478 1479 1480 1481 1482 1483 1484 1485 1509 1510 1511 1512 1513 1514 1515 1516 1540 1541 1542 1543 1544 1545 1546 1547 1571 1572 1573 1574 1575 1576 1577 1578 1602 1603 1604 1605 1606 1607 1608 1609 1633 1634 1635 1636 1637 1638 1639 1640 1664 1665 1666 1667 1668 1669 1670 1671 1695 1696 1697 1698 1699 1700 1701 1702 1726 1727 1728 1729 1730 1731 1732 1733 1757 1758 1759 1760 1761 1762 1763 1764 1788 1789 1790 1791 1792 1793 1794 1795 1819 1820 1821 1822 1823 1824 1825 1826 1850 1851 1852 1853 1854 1855 1856 1857 1881 1882 1883 1884 1885 1886 1887 1888 1912 1913 1914 1915 1916 1917 1918 1919 1943 1944 1945 1946 1947 1948 1949 1950 1974 1975 1976 1977 1978 1979 1980 1981 2005 2006 2007 2008 2009 2010 2011 2012 2036 2037 2038 2039 2040 2041 2042 2043 2067 2068 2069 2070 2071 2072 2073 2074 2098 2099 2100 2101 2102 2103 2104 2105 2129 2130 2131 2132 2133 2134 2135 2136 2160 2161 2162 2163 2164 2165 2166 2167 2191 2192 2193 2194 2195 2196 2197 2198 2222 2223 2224 2225 2226 2227 2228 2229 2253 2254 2255 2256 2257 2258 2259 2260 2284 2285 2286 2287 2288 2289 2290 2291 2315 2316 2317 2318 2319 2320 2321 2322 2346 2347 2348 2349 2350 2351 2352 2353 2377 2378 2379 2380 2381 2382 2383 2384 2408 2409 2410 2411 2412 2413 2414 2415 2439 2440 2441 2442 2443 2444 2445 2446 2470 2471 2472 2473 2474 2475 2476 2477 2501 2502 2503 2504 2505 2506 2507 2508 2532 2533 2534 2535 2536 2537 2538 2539 2563 2564 2565 2566 2567 2568 2569 2570 2594 2595 2596 2597 2598 2599 2600 2601 2625 2626 2627 2628 2629 2630 2631 2632 2656 2657 2658 2659 2660 2661 2662 2663 2687 2688 2689 2690 2691 2692 2693 2694 2718 2719 2720 2721 2722 2723 2724 2725 2748 2749 2750 2751 2752 2753 2754 2755 2777 2778 2779 2780 2781 2782 2783 2784 2805 2806 2807 2808 2809 2810 2811 2812 2832 2833 2834 2835 2836 2837 2838 2839 2858 2859 2860 2861 2862 2863 2864 2865 2882 2883 2884 2885 2886 2887 2888 2889 2905 2906 2907 2908 2909 2910 2911 2912 2926 2927 2928 2929 2930 2931 2932 2933 2944 2945 2946 2947 2948 2949 2950 2951 2959 2960 2961 2962 2963 2964 2965 2970 2971 2972 2973 2974 1053 1054 1055 1056 1057 1058 1059 1083 1084 1085 1086 1087 1088 1089 1090 1114 1115 1116 1117 1118 1119 1120 1121 1145 1146 1147 1148 1149 1150 1151 1152 1176 1177 1178 1179 1180 1181 1182 1183 1207 1208 1209 1210 1211 1212 1213 1214 1238 1239 1240 1241 1242 1243 1244 1245 1269 1270 1271 1272 1273 1274 1275 1276 1300 1301 1302 1303 1304 1305 1306 1307 1331 1332 1333 1334 1335 1336 1337 1338 1362 1363 1364 1365 1366 1367 1368 1369 1393 1394 1395 1396 1397 1398 1399 1400 1424 1425 1426 1427 1428 1429 1430 1431 1455 1456 1457 1458 1459 1460 1461 1462 1486 1487 1488 1489 1490 1491 1492 1493 1517 1518 1519 1520 1521 1522 1523 1524 1548 1549 1550 1551 1552 1553 1554 1555 1579 1580 1581 1582 1583 1584 1585 1586 1610 1611 1612 1613 1614 1615 1616 1617 1641 1642 1643 1644 1645 1646 1647 1648 1672 1673 1674 1675 1676 1677 1678 1679 1703 1704 1705 1706 1707 1708 1709 1710 1734 1735 1736 1737 1738 1739 1740 1741 1765 1766 1767 1768 1769 1770 1771 1772 1796 1797 1798 1799 1800 1801 1802 1803 1827 1828 1829 1830 1831 1832 1833 1834 1858 1859 1860 1861 1862 1863 1864 1865 1889 1890 1891 1892 1893 1894 1895 1896 1920 1921 1922 1923 1924 1925 1926 1927 1951 1952 1953 1954 1955 1956 1957 1958 1982 1983 1984 1985 1986 1987 1988 1989 2013 2014 2015 2016 2017 2018 2019 2020 2044 2045 2046 2047 2048 2049 2050 2051 2075 2076 2077 2078 2079 2080 2081 2082 2106 2107 2108 2109 2110 2111 2112 2113 2137 2138 2139 2140 2141 2142 2143 2144 2168 2169 2170 2171 2172 2173 2174 2175 2199 2200 2201 2202 2203 2204 2205 2206 2230 2231 2232 2233 2234 2235 2236 2237 2261 2262 2263 2264 2265 2266 2267 2268 2292 2293 2294 2295 2296 2297 2298 2299 2323 2324 2325 2326 2327 2328 2329 2330 2354 2355 2356 2357 2358 2359 2360 2361 2385 2386 2387 2388 2389 2390 2391 2392 2416 2417 2418 2419 2420 2421 2422 2423 2447 2448 2449 2450 2451 2452 2453 2454 2478 2479 2480 2481 2482 2483 2484 2485 2509 2510 2511 2512 2513 2514 2515 2516 2540 2541 2542 2543 2544 2545 2546 2547 2571 2572 2573 2574 2575 2576 2577 2578 2602 2603 2604 2605 2606 2607 2608 2609 2633 2634 2635 2636 2637 2638 2639 2640 2664 2665 2666 2667 2668 2669 2670 2671 2695 2696 2697 2698 2699 2700 2701 2702 2726 2727 2728 2729 2730 2731 2732 2733 2756 2757 2758 2759 2760 2761 2762 2785 2786 2787 2788 2789 2790 2791 2813 2814 2815 2816 2817 2818 2840 2841 2842 2843 2844 2845 2866 2867 2868 2869 2870 2890 2891 2892 2893 2913 2914 2915 2916 2934 2935 2952 
FIELD FieldData 12
Idp 1 2975 float
0 1 39 40 41 80 81 82 121 122 123 162 163 164 203 204 205 244 245 246 285 286 287 326 327 328 367 368 369 408 409 410 449 450 451 461 462 463 471 472 473 481 482 483 491 492 493 501 502 503 511 512 513 521 522 523 531 532 533 541 542 543 551 552 2 3 4 5 6 7 8 9 42 43 44 45 46 47 48 49 83 84 85 86 87 88 89 90 124 125 126 127 128 129 130 131 165 166 167 168 169 170 171 172 206 207 208 209 210 211 212 213 247 248 249 250 251 252 253 254 288 289 290 291 292 293 294 295 329 330 331 332 333 334 335 336 370 371 372 373 374 375 376 377 411 412 413 414 415 416 417 418 452 453 454 464 465 474 475 484 485 494 495 504 505 514 515 524 525 534 535 544 545 553 554 10 11 12 13 14 15 16 17 18 50 51 52 53 54 55 56 57 58 91 92 93 94 95 96 97 98 99 132 133 134 135 136 137 138 139 140 173 174 175 176 177 178 179 180 181 214 215 216 217 218 219 220 221 222 255 256 257 258 259 260 261 262 263 296 297 298 299 300 301 302 303 304 337 338 339 340 341 342 343 344 345 378 379 380 381 382 383 384 385 386 419 420 421 422 423 424 425 426 427 19 20 21 22 23 24 25 26 59 60 61 62 63 64 65 66 100 101 102 103 104 105 106 107 141 142 143 144 145 146 147 148 182 183 184 185 186 187 188 189 223 224 225 226 227 228 229 230 264 265 266 267 268 269 270 271 305 306 307 308 309 310 311 312 346 347 348 349 350 351 352 353 387 388 389 390 391 392 393 394 428 429 430 431 432 433 434 435 27 28 29 30 31 32 33 34 35 67 68 69 70 71 72 73 74 75 108 109 110 111 112 113 114 115 116 149 150 151 152 153 154 155 156 157 190 191 192 193 194 195 196 197 198 231 232 233 234 235 236 237 238 239 272 273 274 275 276 277 278 279 280 313 314 315 316 317 318 319 320 321 354 355 356 357 358 359 360 361 362 395 396 397 398 399 400 401 402 403 436 437 438 439 440 441 442 443 444 455 456 466 476 486 496 506 516 526 536 546 555 36 37 38 76 77 78 79 117 118 119 120 158 159 160 161 199 200 201 202 240 241 242 243 281 282 283 284 322 323 324 325 363 364 365 366 404 405 406 407 445 446 447 448 457 458 459 460 467 468 469 470 477 478 479 480 487 488 489 490 497 498 499 500 507 508 509 510 517 518 519 520 527 528 529 530 537 538 539 540 547 548 549 550 556 557 558 559 560 561 562 563 564 565 566 567 568 569 570 571 572 573 574 575 576 577 578 579 580 581 582 583 584 585 586 587 588 589 590 591 592 593 594 595 596 597 598 599 600 601 602 603 604 605 606 607 608 609 610 611 612 613 614 615 616 617 618 619 620 621 622 623 624 625 626 627 628 629 630 631 632 633 634 635 636 637 638 639 640 641 642 643 644 645 646 647 648 649 650 651 652 653 654 655 656 657 658 659 660 661 662 663 664 665 666 667 668 669 670 671 672 673 674 675 676 677 678 679 680 681 682 683 684 685 686 687 688 689 690 691 692 693 694 695 696 697 698 699 700 701 702 703 704 705 706 707 708 709 710 711 712 713 714 715 716 717 718 719 720 721 722 723 724 725 726 727 728 729 730 731 732 733 734 735 736 737 738 739 740 741 742 743 744 745 746 747 748 749 750 751 752 753 754 755 756 757 758 759 760 761 762 763 764 765 766 767 768 769 770 771 772 773 774 775 776 777 778 779 780 781 782 783 784 785 786 787 788 789 790 791 792 793 794 795 796 797 798 799 800 801 802 803 804 805 806 807 808 809 810 811 812 813 814 815 816 817 818 819 820 821 822 823 824 825 826 827 828 829 830 831 832 833 834 835 836 837 838 839 840 841 842 843 844 845 846 847 848 849 850 851 852 853 854 855 856 857 858 859 860 861 862 863 864 865 866 867 868 869 870 871 872 873 874 875 876 877 878 879 880 881 882 883 884 885 886 887 888 889 890 891 892 893 894 895 896 897 898 899 900 901 902 903 904 905 906 907 908 909 910 911 912 913 914 915 916 917 918 919 920 921 922 923 924 925 926 927 928 929 930 931 932 933 934 935 936 937 938 939 940 941 942 943 944 945 946 947 948 949 950 951 952 953 954 955 956 957 958 959 960 961 962 963 964 965 966 967 968 969 970 971 972 973 974 975 976 977 978 979 980 981 982 983 984 985 986 987 988 989 990 991 992 993 994 995 996 997 998 999 1000 1001 1002 1003 1004 1005 1006 1007 1008 1009 1010 1011 1012 1013 1014 1015 1016 1017 1018 1019 1020 1021 1022 1023 1024 1025 1026 1027 1028 1029 1030 1031 1032 1033 1034 1035 1060 1061 1062 1063 1064 1065 1091 1092 1093 1094 1095 1096 1122 1123 1124 1125 1126 1127 1153 1154 1155 1156 1157 1158 1184 1185 1186 1187 1188 1189 1215 1216 1217 1218 1219 1220 1246 1247 1248 1249 1250 1251 1277 1278 1279 1280 1281 1282 1308 1309 1310 1311 1312 1313 1339 1340 1341 1342 1343 1344 1370 1371 1372 1373 1374 1375 1401 1402 1403 1404 1405 1406 1432 1433 1434 1435 1436 1437 1463 1464 1465 1466 1467 1468 1494 1495 1496 1497 1498 1499 1525 1526 1527 1528 1529 1530 1556 1557 1558 1559 1560 1561 1587 1588 1589 1590 1591 1592 1618 1619 1620 1621 1622 1623 1649 1650 1651 1652 1653 1654 1680 1681 1682 1683 1684 1685 1711 1712 1713 1714 1715 1716 1742 1743 1744 1745 1746 1747 1773 1774 1775 1776 1777 1778 1804 1805 1806 1807 1808 1809 1835 1836 1837 1838 1839 1840 1866 1867 1868 1869 1870 1871 1897 1898 1899 1900 1901 1902 1928 1929 1930 1931 1932 1933 1959 1960 1961 1962 1963 1964 1990 1991 1992 1993 1994 1995 2021 2022 2023 2024 2025 2026 2052 2053 2054 2055 2056 2057 2083 2084 2085 2086 2087 2088 2114 2115 2116 2117 2118 2119 2145 2146 2147 2148 2149 2150 2176 2177 2178 2179 2180 2181 2207 2208 2209 2210 2211 2212 2238 2239 2240 2241 2242 2243 2269 2270 2271 2272 2273 2274 2300 2301 2302 2303 2304 2305 2331 2332 2333 2334 2335 2336 2362 2363 2364 2365 2366 2367 2393 2394 2395 2396 2397 2398 2424 2425 2426 2427 2428 2429 2455 2456 2457 2458 2459 2460 2486 2487 2488 2489 2490 2491 2517 2518 2519 2520 2521 2522 2548 2549 2550 2551 2552 2553 2579 2580 2581 2582 2583 2584 2610 2611 2612 2613 2614 2615 2641 2642 2643 2644 2645 2646 2672 2673 2674 2675 2676 2677 2703 2704 2705 2706 2707 2708 2734 2735 2736 2737 2738 2763 2764 2765 2766 2767 2792 2793 2794 2795 2819 2820 2821 2822 2846 2847 2848 2871 2872 2894 2895 1036 1037 1038 1039 1040 1041 1042 1043 1044 1066 1067 1068 1069 1070 1071 1072 1073 1074 1097 1098 1099 1100 1101 1102 1103 1104 1105 1128 1129 1130 1131 1132 1133 1134 1135 1136 1159 1160 1161 1162 1163 1164 1165 1166 1167 1190 1191 1192 1193 1194 1195 1196 1197 1198 1221 1222 1223 1224 1225 1226 1227 1228 1229 1252 1253 1254 1255 1256 1257 1258 1259 1260 1283 1284 1285 1286 1287 1288 1289 1290 1291 1314 1315 1316 1317 1318 1319 1320 1321 1322 1345 1346 1347 1348 1349 1350 1351 1352 1353 1376 1377 1378 1379 1380 1381 1382 1383 1384 1407 1408 1409 1410 1411 1412 1413 1414 1415 1438 1439 1440 1441 1442 1443 1444 1445 1446 1469 1470 1471 1472 1473 1474 1475 1476 1477 1500 1501 1502 1503 1504 1505 1506 1507 1508 1531 1532 1533 1534 1535 1536 1537 1538 1539 1562 1563 1564 1565 1566 1567 1568 1569 1570 1593 1594 1595 1596 1597 1598 1599 1600 1601 1624 1625 1626 1627 1628 1629 1630 1631 1632 1655 1656 1657 1658 1659 1660 1661 1662 1663 1686 1687 1688 1689 1690 1691 1692 1693 1694 1717 1718 1719 1720 1721 1722 1723 1724 1725 1748 1749 1750 1751 1752 1753 1754 1755 1756 1779 1780 1781 1782 1783 1784 1785 1786 1787 1810 1811 1812 1813 1814 1815 1816 1817 1818 1841 1842 1843 1844 1845 1846 1847 1848 1849 1872 1873 1874 1875 1876 1877 1878 1879 1880 1903 1904 1905 1906 1907 1908 1909 1910 1911 1934 1935 1936 1937 1938 1939 1940 1941 1942 1965 1966 1967 1968 1969 1970 1971 1972 1973 1996 1997 1998 1999 2000 2001 2002 2003 2004 2027 2028 2029 2030 2031 2032 2033 2034 2035 2058 2059 2060 2061 2062 2063 2064 2065 2066 2089 2090 2091 2092 2093 2094 2095 2096 2097 2120 2121 2122 2123 2124 2125 2126 2127 2128 2151 2152 2153 2154 2155 2156 2157 2158 2159 2182 2183 2184 2185 2186 2187 2188 2189 2190 2213 2214 2215 2216 2217 2218 2219 2220 2221 2244 2245 2246 2247 2248 2249 2250 2251 2252 2275 2276 2277 2278 2279 2280 2281 2282 2283 2306 2307 2308 2309 2310 2311 2312 2313 2314 2337 2338 2339 2340 2341 2342 2343 2344 2345 2368 2369 2370 2371 2372 2373 2374 2375 2376 2399 2400 2401 2402 2403 2404 2405 2406 2407 2430 2431 2432 2433 2434 2435 2436 2437 2438 2461 2462 2463 2464 2465 2466 2467 2468 2469 2492 2493 2494 2495 2496 2497 2498 2499 2500 2523 2524 2525 2526 2527 2528 2529 2530 2531 2554 2555 2556 2557 2558 2559 2560 2561 2562 2585 2586 2587 2588 2589 2590 2591 2592 2593 2616 2617 2618 2619 2620 2621 2622 2623 2624 2647 2648 2649 2650 2651 2652 2653 2654 2655 2678 2679 2680 2681 2682 2683 2684 2685 2686 2709 2710 2711 2712 2713 2714 2715 2716 2717 2739 2740 2741 2742 2743 2744 2745 2746 2747 2768 2769 2770 2771 2772 2773 2774 2775 2776 2796 2797 2798 2799 2800 2801 2802 2803 2804 2823 2824 2825 2826 2827 2828 2829 2830 2831 2849 2850 2851 2852 2853 2854 2855 2856 2857 2873 2874 2875 2876 2877 2878 2879 2880 2881 2896 2897 2898 2899 2900 2901 2902 2903 2904 2917 2918 2919 2920 2921 2922 2923 2924 2925 2936 2937 2938 2939 2940 2941 2942 2943 2953 2954 2955 2956 2957 2958 2966 2967 2968 2969 1045 1046 1047 1048 1049 1050 1051 1052 1075 1076 1077 1078 1079 1080 1081 1082 1106 1107 1108 1109 1110 1111 1112 1113 1137 1138 1139 1140 1141 1142 1143 1144 1168 1169 1170 1171 1172 1173 1174 1175 1199 1200 1201 1202 1203 1204 1205 1206 1230 1231 1232 1233 1234 1235 1236 1237 1261 1262 1263 1264 1265 1266 1267 1268 1292 1293 1294 1295 1296 1297 1298 1299 1323 1324 1325 1326 1327 1328 1329 1330 1354 1355 1356 1357 1358 1359 1360 1361 1385 1386 1387 1388 1389 1390 1391 1392 1416 1417 1418 1419 1420 1421 1422 1423 1447 1448 1449 1450 1451 1452 1453 1454 1478 1479 1480 1481 1482 1483 1484 1485 1509 1510 1511 1512 1513 1514 1515 1516 1540 1541 1542 1543 1544 1545 1546 1547 1571 1572 1573 1574 1575 1576 1577 1578 1602 1603 1604 1605 1606 1607 1608 1609 1633 1634 1635 1636 1637 1638 1639 1640 1664 1665 1666 1667 1668 1669 1670 1671 1695 1696 1697 1698 1699 1700 1701 1702 1726 1727 1728 1729 1730 1731 1732 1733 1757 1758 1759 1760 1761 1762 1763 1764 1788 1789 1790 1791 1792 1793 1794 1795 1819 1820 1821 1822 1823 1824 1825 1826 1850 1851 1852 1853 1854 1855 1856 1857 1881 1882 1883 1884 1885 1886 1887 1888 1912 1913 1914 1915 1916 1917 1918 1919 1943 1944 1945 1946 1947 1948 1949 1950 1974 1975 1976 1977 1978 1979 1980 1981 2005 2006 2007 2008 2009 2010 2011 2012 2036 2037 2038 2039 2040 2041 2042 2043 2067 2068 2069 2070 2071 2072 2073 2074 2098 2099 2100 2101 2102 2103 2104 2105 2129 2130 2131 2132 2133 2134 2135 2136 2160 2161 2162 2163 2164 2165 2166 2167 2191 2192 2193 2194 2195 2196 2197 2198 2222 2223 2224 2225 2226 2227 2228 2229 2253 2254 2255 2256 2257 2258 2259 2260 2284 2285 2286 2287 2288 2289 2290 2291 2315 2316 2317 2318 2319 2320 2321 2322 2346 2347 2348 2349 2350 2351 2352 2353 2377 2378 2379 2380 2381 2382 2383 2384 2408 2409 2410 2411 2412 2413 2414 2415 2439 2440 2441 2442 2443 2444 2445 2446 2470 2471 2472 2473 2474 2475 2476 2477 2501 2502 2503 2504 2505 2506 2507 2508 2532 2533 2534 2535 2536 2537 2538 2539 2563 2564 2565 2566 2567 2568 2569 2570 2594 2595 2596 2597 2598 2599 2600 2601 2625 2626 2627 2628 2629 2630 2631 2632 2656 2657 2658 2659 2660 2661 2662 2663 2687 2688 2689 2690 2691 2692 2693 2694 2718 2719 2720 2721 2722 2723 2724 2725 2748 2749 2750 2751 2752 2753 2754 2755 2777 2778 2779 2780 2781 2782 2783 2784 2805 2806 2807 2808 2809 2810 2811 2812 2832 2833 2834 2835 2836 2837 2838 2839 2858 2859 2860 2861 2862 2863 2864 2865 2882 2883 2884 2885 2886 2887 2888 2889 2905 2906 2907 2908 2909 2910 2911 2912 2926 2927 2928 2929 2930 2931 2932 2933 2944 2945 2946 2947 2948 2949 2950 2951 2959 2960 2961 2962 2963 2964 2965 2970 2971 2972 2973 2974 1053 1054 1055 1056 1057 1058 1059 1083 1084 1085 1086 1087 1088 1089 1090 1114 1115 1116 1117 1118 1119 1120 1121 1145 1146 1147 1148 1149 1150 1151 1152 1176 1177 1178 1179 1180 1181 1182 1183 1207 1208 1209 1210 1211 1212 1213 1214 1238 1239 1240 1241 1242 1243 1244 1245 1269 1270 1271 1272 1273 1274 1275 1276 1300 1301 1302 1303 1304 1305 1306 1307 1331 1332 1333 1334 1335 1336 1337 1338 1362 1363 1364 1365 1366 1367 1368 1369 1393 1394 1395 1396 1397 1398 1399 1400 1424 1425 1426 1427 1428 1429 1430 1431 1455 1456 1457 1458 1459 1460 1461 1462 1486 1487 1488 1489 1490 1491 1492 1493 1517 1518 1519 1520 1521 1522 1523 1524 1548 1549 1550 1551 1552 1553 1554 1555 1579 1580 1581 1582 1583 1584 1585 1586 1610 1611 1612 1613 1614 1615 1616 1617 1641 1642 1643 1644 1645 1646 1647 1648 1672 1673 1674 1675 1676 1677 1678 1679 1703 1704 1705 1706 1707 1708 1709 1710 1734 1735 1736 1737 1738 1739 1740 1741 1765 1766 1767 1768 1769 1770 1771 1772 1796 1797 1798 1799 1800 1801 1802 1803 1827 1828 1829 1830 1831 1832 1833 1834 1858 1859 1860 1861 1862 1863 1864 1865 1889 1890 1891 1892 1893 1894 1895 1896 1920 1921 1922 1923 1924 1925 1926 1927 1951 1952 1953 1954 1955 1956 1957 1958 1982 1983 1984 1985 1986 1987 1988 1989 2013 2014 2015 2016 2017 2018 2019 2020 2044 2045 2046 2047 2048 2049 2050 2051 2075 2076 2077 2078 2079 2080 2081 2082 2106 2107 2108 2109 2110 2111 2112 2113 2137 2138 2139 2140 2141 2142 2143 2144 2168 2169 2170 2171 2172 2173 2174 2175 2199 2200 2201 2202 2203 2204 2205 2206 2230 2231 2232 2233 2234 2235 2236 2237 2261 2262 2263 2264 2265 2266 2267 2268 2292 2293 2294 2295 2296 2297 2298 2299 2323 2324 2325 2326 2327 2328 2329 2330 2354 2355 2356 2357 2358 2359 2360 2361 2385 2386 2387 2388 2389 2390 2391 2392 2416 2417 2418 2419 2420 2421 2422 2423 2447 2448 2449 2450 2451 2452 2453 2454 2478 2479 2480 2481 2482 2483 2484 2485 2509 2510 2511 2512 2513 2514 2515 2516 2540 2541 2542 2543 2544 2545 2546 2547 2571 2572 2573 2574 2575 2576 2577 2578 2602 2603 2604 2605 2606 2607 2608 2609 2633 2634 2635 2636 2637 2638 2639 2640 2664 2665 2666 2667 2668 2669 2670 2671 2695 2696 2697 2698 2699 2700 2701 2702 2726 2727 2728 2729 2730 2731 2732 2733 2756 2757 2758 2759 2760 2761 2762 2785 2786 2787 2788 2789 2790 2791 2813 2814 2815 2816 2817 2818 2840 2841 2842 2843 2844 2845 2866 2867 2868 2869 2870 2890 2891 2892 2893 2913 2914 2915 2916 2934 2935 2952 
Rhop 1 2975 float
1000.0 1000.0 1000.0 1000.0 1000.0 1000.0 1000.0 1000.0 1000.0 1000.0 1000.0 1000.0 1000.0 1000.0 1000.0 1000.0 1000.0 1000.0 1000.0 1000.0 1000.0 1000.0001 1000.0003 1000.0001 1000.0004 1000.001 1000.0003 1000.0009 1000.002 1000.0006 1000.0017 1000.0031 1000.0011 1000.0025 1000.0046 1000.0015 1000.0034 1000.006 1000.002 1000.0043 1000.0077 1000.0024 1000.0053 1000.0093 1000.0029 1000.0064 1000.0113 1000.0037 1000.0079 1000.014 1000.0047 1000.0103 1000.0179 1000.0063 1000.014 1000.0245 1000.0094 1000.02 1000.0344 1000.0146 1000.0291 1000.0485 1000.0421 1000.0665 1000.0 1000.0 1000.0 1000.0 1000.0 1000.0 1000.0 1000.0 1000.0 1000.0 1000.0 1000.0 1000.0 1000.0 1000.0 1000.0 1000.0 1000.0 1000.0 1000.0 1000.0 1000.0 1000.0 1000.0 1000.0 1000.0 1000.0 1000.0 1000.0 1000.0 1000.0 1000.0 1000.0 1000.0 1000.0 1000.0 1000.0 1000.0 1000.0 1000.0 1000.0 1000.0 1000.0002 1000.0002 1000.0003 1000.0004 1000.0005 1000.0005 1000.0002 1000.0004 1000.0007 1000.001 1000.0013 1000.0016 1000.0017 1000.002 1000.0008 1000.0013 1000.002 1000.0026 1000.0033 1000.0038 1000.0042 1000.0046 1000.0017 1000.0027 1000.004 1000.0053 1000.0065 1000.0076 1000.0085 1000.009 1000.0032 1000.0048 1000.0068 1000.009 1000.011 1000.0126 1000.0141 1000.0151 1000.0051 1000.0077 1000.0107 1000.0137 1000.0166 1000.0189 1000.0208 1000.0222 1000.0073 1000.0107 1000.0146 1000.0096 1000.0139 1000.0119 1000.017 1000.0144 1000.0204 1000.0173 1000.0247 1000.0214 1000.0304 1000.0277 1000.0388 1000.0374 1000.0514 1000.0517 1000.0698 1000.0718 1000.095 1000.0968 1000.1262 1000.0 1000.0 1000.0 1000.0 1000.0 1000.0 1000.0 1000.0 1000.0 1000.0 1000.0 1000.0 1000.0 1000.0 1000.0 1000.0 1000.0 1000.0 1000.0 1000.0 1000.0 1000.0 1000.0 1000.0 1000.0 1000.0 1000.0 1000.0 1000.0 1000.0 1000.0 1000.0 1000.0 1000.0 1000.0 1000.0 1000.0 1000.0 1000.0 1000.0 1000.0 1000.0 1000.0 1000.0 1000.0 1000.0006 1000.0006 1000.0006 1000.0006 1000.0006 1000.0006 1000.0006 1000.0006 1000.0006 1000.002 1000.002 1000.0021 1000.0021 1000.0022 1000.0022 1000.0022 1000.0022 1000.0022 1000.0048 1000.0051 1000.0051 1000.0053 1000.0054 1000.0054 1000.0054 1000.0054 1000.0054 1000.0095 1000.0099 1000.0101 1000.0104 1000.0104 1000.0104 1000.0105 1000.0105 1000.0105 1000.0158 1000.0165 1000.0168 1000.0172 1000.0174 1000.0175 1000.0175 1000.0175 1000.0176 1000.0234 1000.0241 1000.0245 1000.025 1000.0253 1000.0254 1000.0255 1000.0255 1000.0256 1000.0 1000.0 1000.0 1000.0 1000.0 1000.0 1000.0 1000.0 1000.0 1000.0 1000.0 1000.0 1000.0 1000.0 1000.0 1000.0 1000.0 1000.0 1000.0 1000.0 1000.0 1000.0 1000.0 1000.0 1000.0 1000.0 1000.0 1000.0 1000.0 1000.0 1000.0 1000.0 1000.0 1000.0 1000.0 1000.0 1000.0 1000.0 1000.0 1000.0 1000.0006 1000.0006 1000.0006 1000.0006 1000.0006 1000.0006 1000.0006 1000.0006 1000.0022 1000.0022 1000.0022 1000.0022 1000.0022 1000.0022 1000.0021 1000.0021 1000.0054 1000.0054 1000.0054 1000.0054 1000.0054 1000.0054 1000.0053 1000.0051 1000.0105 1000.0105 1000.0105 1000.0105 1000.0104 1000.0104 1000.0104 1000.0101 1000.0176 1000.0176 1000.0175 1000.0175 1000.0175 1000.0174 1000.0172 1000.0168 1000.0256 1000.0256 1000.0255 1000.0255 1000.0254 1000.0253 1000.025 1000.0245 1000.0 1000.0 1000.0 1000.0 1000.0 1000.0 1000.0 1000.0 1000.0 1000.0 1000.0 1000.0 1000.0 1000.0 1000.0 1000.0 1000.0 1000.0 1000.0 1000.0 1000.0 1000.0 1000.0 1000.0 1000.0 1000.0 1000.0 1000.0 1000.0 1000.0 1000.0 1000.0 1000.0 1000.0 1000.0 1000.0 1000.0 1000.0 1000.0 1000.0 1000.0 1000.0 1000.0 1000.0 1000.0 1000.0006 1000.0006 1000.0005 1000.0005 1000.0004 1000.0003 1000.0002 1000.0002 1000.0 1000.002 1000.002 1000.002 1000.0017 1000.0016 1000.0013 1000.001 1000.0007 1000.0004 1000.0051 1000.0048 1000.0046 1000.0042 1000.0038 1000.0033 1000.0026 1000.002 1000.0013 1000.0099 1000.0095 1000.009 1000.0085 1000.0076 1000.0065 1000.0053 1000.004 1000.0027 1000.0165 1000.0158 1000.0151 1000.0141 1000.0126 1000.011 1000.009 1000.0068 1000.0048 1000.0241 1000.0234 1000.0222 1000.0208 1000.0189 1000.0166 1000.0137 1000.0107 1000.0077 1000.0146 1000.0107 1000.0139 1000.017 1000.0204 1000.0247 1000.0304 1000.0388 1000.0514 1000.0698 1000.095 1000.1262 1000.0 1000.0 1000.0 1000.0 1000.0 1000.0 1000.0 1000.0 1000.0 1000.0 1000.0 1000.0 1000.0 1000.0 1000.0 1000.0 1000.0 1000.0 1000.0 1000.0 1000.0 1000.0 1000.0 1000.0002 1000.0 1000.0 1000.0 1000.0008 1000.0003 1000.0001 1000.0 1000.0017 1000.001 1000.0004 1000.0001 1000.0032 1000.002 1000.0009 1000.0003 1000.0051 1000.0031 1000.0017 1000.0006 1000.0073 1000.0046 1000.0025 1000.0011 1000.0096 1000.006 1000.0034 1000.0015 1000.0119 1000.0077 1000.0043 1000.002 1000.0144 1000.0093 1000.0053 1000.0024 1000.0173 1000.0113 1000.0064 1000.0029 1000.0214 1000.014 1000.0079 1000.0037 1000.0277 1000.0179 1000.0103 1000.0047 1000.0374 1000.0245 1000.014 1000.0063 1000.0517 1000.0344 1000.02 1000.0094 1000.0718 1000.0485 1000.0291 1000.0146 1000.0968 1000.0665 1000.0421 1000.0 1000.0 1000.0 1000.0 1000.0 1000.0 1000.0 1000.0 1000.0 1000.0 1000.0 1000.0 1000.0 1000.0 1000.0 1000.0 1000.0 1000.0 1000.0 1000.0 1000.0 1000.0 1000.0 1000.0 1000.0 1000.0 1000.0 1000.0 1000.0 1000.0 1000.0 1000.0 1000.0 1000.0 1000.0 1000.0 1000.0 1000.0 1000.0 1000.0 1000.0 1000.0 1000.0 1000.0 1000.0 1000.0 1000.0 1000.0 1000.0 1000.0 1000.0 1000.0 1000.0 1000.0 1000.0 1000.0 1000.0 1000.0 1000.0 1000.0 1000.0 1000.0 1000.0 1000.0 1000.0 1000.0 1000.0 1000.0 1000.0 1000.0 1000.0 1000.0 1000.0 1000.0 1000.0 1000.0 1000.0 1000.0 1000.0 1000.0 1000.0 1000.0 1000.0 1000.0 1000.0 1000.0 1000.0 1000.0 1000.0 1000.0 1000.0 1000.0 1000.0 1000.0 1000.0 1000.0 1000.0 1000.0 1000.0 1000.0 1000.0 1000.0 1000.0 1000.0 1000.0 1000.0 1000.0 1000.0 1000.0 1000.0 1000.0 1000.0 1000.0 1000.0 1000.0 1000.0 1000.0 1000.0 1000.0 1000.0 1000.0 1000.0 1000.0 1000.0 1000.0 1000.0 1000.0 1000.0 1000.0 1000.0 1000.0 1000.0 1000.0 1000.0 1000.0 1000.0 1000.0 1000.0 1000.0 1000.0 1000.0 1000.0 1000.0 1000.0 1000.0 1000.0 1000.0 1000.0 1000.0 1000.0 1000.0 1000.0 1000.0 1000.0 1000.0 1000.0 1000.0 1000.0 1000.0 1000.0 1000.0 1000.0 1000.0 1000.0 1000.0 1000.0 1000.0 1000.0 1000.0 1000.0 1000.0 1000.0 1000.0 1000.0 1000.0 1000.0 1000.0 1000.0 1000.0 1000.0 1000.0 1000.0 1000.0 1000.0 1000.0 1000.0 1000.0 1000.0 1000.0 1000.0 1000.0 1000.0 1000.0 1000.0 1000.0 1000.0 1000.0 1000.0 1000.0 1000.0 1000.0 1000.0 1000.0 1000.0 1000.0 1000.0 1000.0 1000.0 1000.0 1000.0 1000.0 1000.0 1000.0 1000.0 1000.0 1000.0 1000.0 1000.0 1000.0 1000.0 1000.0 1000.0 1000.0 1000.0 1000.0 1000.0 1000.0 1000.0 1000.0 1000.0 1000.0 1000.0 1000.0 1000.0 1000.0 1000.0 1000.0 1000.0 1000.0 1000.0 1000.0 1000.0 1000.0 1000.0 1000.0 1000.0 1000.0 1000.0 1000.0 1000.0 1000.0 1000.0 1000.0 1000.0 1000.0 1000.0 1000.0 1000.0 1000.0 1000.0 1000.0 1000.0 1000.0 1000.0 1000.0 1000.0 1000.0 1000.0 1000.0 1000.0 1000.0 1000.0 1000.0 1000.0 1000.0 1000.0 1000.0 1000.0 1000.0 1000.0 1000.0 1000.0 1000.0 1000.0 1000.0 1000.0 1000.0 1000.0 1000.0 1000.0 1000.0 1000.0 1000.0 1000.0 1000.0 1000.0 1000.0 1000.0 1000.0 1000.0 1000.0 1000.0 1000.0 1000.0 1000.0 1000.0 1000.0 1000.0 1000.0 1000.0 1000.0 1000.0 1000.0 1000.0 1000.0 1000.0 1000.0 1000.0 1000.0 1000.0 1000.0 1000.0 1000.0 1000.0 1000.0 1000.0 1000.0 1000.0 1000.0 1000.0 1000.0 1000.0 1000.0 1000.0 1000.0 1000.0 1000.0 1000.0 1000.0 1000.0 1000.0 1000.0 1000.0 1000.0 1000.0 1000.0 1000.0 1000.0 1000.0 1000.0 1000.0 1000.0 1000.0 1000.0 1000.0 1000.0 1000.0 1000.0 1000.0 1000.0 1000.0 1000.0 1000.0 1000.0 1000.0 1000.0 1000.0 1000.0 1000.0 1000.0 1000.0 1000.0 1000.0 1000.0 1000.0 1000.0 1000.0 1000.0 1000.0 1000.0 1000.0 1000.0 1000.0 1000.0 1000.0 1000.0 1000.0 1000.0 1000.0 1000.0 1000.0 1000.0 1000.0 1000.0 1000.0 1000.0 1000.0 1000.0 1000.0 1000.0 1000.0 1000.0 1000.0 1000.0 1000.0 1000.0 1000.0 1000.0 1000.0 1000.0 1000.0 1000.0 1000.0 1000.0 1000.0 1000.0 1000.0 1000.0 1000.0 1000.0 1000.0 1000.0 1000.0 1000.0 1000.0 1000.0 1000.0 1000.0 1000.0 1000.0 1000.0 1000.0 1000.0 1000.0 1000.0 1000.0 1000.0 1000.0 1000.0 1000.0 1000.0 1000.0 1000.0 1000.0 1000.0 1000.0 1000.0 1000.0 1000.0 1000.0 1000.0 1000.0 1000.0 1000.0 1000.0 1000.0 1000.0 1000.0 1000.0 1000.0 1000.0 1000.0 1000.0 1000.0 1000.0 1000.0 1000.0 1000.0 1000.0 1000.0 1000.0 1000.0 1000.0186 1000.0221 1000.0251 1000.0275 1000.0292 1000.0184 1000.0234 1000.0275 1000.0309 1000.0336 1000.0355 1000.0225 1000.0281 1000.033 1000.0369 1000.0397 1000.0418 1000.0268 1000.0336 1000.0391 1000.0434 1000.0466 1000.0488 1000.0324 1000.04 1000.0463 1000.0513 1000.0549 1000.057 1000.0397 1000.0488 1000.056 1000.0612 1000.0649 1000.0673 1000.0515 1000.0613 1000.069 1000.0739 1000.0775 1000.0801 1000.07 1000.0801 1000.0863 1000.0905 1000.0933 1000.0952 1000.0981 1000.1069 1000.1098 1000.1114 1000.1124 1000.1135 1000.1378 1000.1414 1000.1389 1000.136 1000.1347 1000.1344 1000.1854 1000.1815 1000.1716 1000.1639 1000.1598 1000.1584 1000.2267 1000.2199 1000.2046 1000.1932 1000.1876 1000.1853 1000.2435 1000.2474 1000.2344 1000.2234 1000.2174 1000.2151 1000.2527 1000.2667 1000.2621 1000.2544 1000.2503 1000.249 1000.2728 1000.2896 1000.2927 1000.2894 1000.2878 1000.2874 1000.3087 1000.3246 1000.3308 1000.3309 1000.3309 1000.3312 1000.3589 1000.3727 1000.3791 1000.3804 1000.3813 1000.3822 1000.4205 1000.4321 1000.4376 1000.4387 1000.4399 1000.4408 1000.4911 1000.5015 1000.5061 1000.5068 1000.5078 1000.5086 1000.572 1000.5823 1000.5859 1000.5858 1000.5864 1000.5867 1000.666 1000.6762 1000.6786 1000.6774 1000.6772 1000.6765 1000.7759 1000.7852 1000.7866 1000.7837 1000.7816 1000.7791 1000.9033 1000.9118 1000.9119 1000.9059 1000.9008 1000.8952 1001.0505 1001.0582 1001.0567 1001.046 1001.0356 1001.0256 1001.2155 1001.2242 1001.2203 1001.201 1001.1827 1001.1665 1001.3926 1001.4042 1001.3957 1001.3627 1001.3335 1001.309 1001.5749 1001.5925 1001.5748 1001.5208 1001.4782 1001.4453 1001.7534 1001.778 1001.7432 1001.6621 1001.6052 1001.5654 1001.9373 1001.9675 1001.907 1001.7958 1001.7274 1001.6857 1002.1956 1002.2272 1002.1388 1002.0027 1001.9305 1001.895 1002.7518 1002.78 1002.6823 1002.5405 1002.4766 1002.4585 1004.0875 1004.117 1004.0629 1003.9541 1003.9138 1003.9227 1006.6593 1006.7114 1006.7421 1006.7437 1006.7548 1006.7974 1009.8348 1009.9363 1010.0282 1010.1848 1010.2863 1010.371 1012.0143 1012.1697 1012.267 1012.5167 1012.7082 1012.8336 1012.7689 1012.9091 1012.9427 1013.2161 1013.4504 1013.6011 1012.7709 1012.9014 1012.8621 1013.0703 1013.2884 1013.4368 1012.6936 1012.8547 1012.7856 1012.8947 1013.0367 1013.1432 1012.7962 1012.9778 1012.9007 1012.9293 1013.0018 1013.0661 1013.0576 1013.2454 1013.1743 1013.1577 1013.1883 1013.2247 1013.3664 1013.5497 1013.4899 1013.4633 1013.4817 1013.5081 1013.618 1013.7927 1013.7413 1013.733 1013.7634 1013.7952 1013.5732 1013.7397 1013.6951 1013.7086 1013.7592 1013.8052 1013.2551 1013.4177 1013.3833 1013.4168 1013.4896 1013.5543 1012.7443 1012.9069 1012.8903 1012.9443 1013.0391 1013.1248 1012.105 1012.2722 1012.2845 1012.3606 1012.4764 1012.5832 1011.3679 1011.5448 1011.5915 1011.6943 1011.8297 1011.9532 1010.5385 1010.7283 1010.8082 1010.9393 1011.0875 1011.225 1009.6204 1009.8231 1009.9315 1010.0781 1010.2379 1010.3847 1008.6328 1008.8473 1008.9716 1009.1227 1009.2932 1009.4438 1007.6248 1007.8473 1007.9656 1008.1176 1008.2924 1008.4421 1006.6515 1006.873 1006.9743 1007.1188 1007.2885 1007.4329 1005.736 1005.9523 1006.0506 1006.1797 1006.3346 1006.4684 1004.8618 1005.0938 1005.2151 1005.3369 1005.4724 1005.5879 1004.0364 1004.3325 1004.499 1004.6151 1004.7229 1004.8134 1003.6921 1003.9114 1004.0114 1004.0912 1004.1524 1003.1506 1003.395 1003.5062 1003.5676 1003.6043 1002.8973 1003.0507 1003.117 1003.157 1002.44 1002.5806 1002.6977 1002.7712 1002.1401 1002.2695 1002.3912 1001.8663 1001.9835 1001.6861 1001.6227 1000.0306 1000.0316 1000.0322 1000.0328 1000.0329 1000.0331 1000.0333 1000.0333 1000.0333 1000.0369 1000.0381 1000.0389 1000.0395 1000.0397 1000.0399 1000.0399 1000.04 1000.0399 1000.0433 1000.0444 1000.0453 1000.0457 1000.0461 1000.0461 1000.0461 1000.0461 1000.0461 1000.0504 1000.0514 1000.0521 1000.0524 1000.0527 1000.0527 1000.0526 1000.0525 1000.0525 1000.0586 1000.0595 1000.0601 1000.0602 1000.0603 1000.0601 1000.0601 1000.0601 1000.0599 1000.0687 1000.0696 1000.07 1000.07 1000.0699 1000.0698 1000.0695 1000.0693 1000.0692 1000.0813 1000.0819 1000.0821 1000.0819 1000.0814 1000.0811 1000.0806 1000.0804 1000.0802 1000.0964 1000.0966 1000.0963 1000.0959 1000.0953 1000.0947 1000.0942 1000.0939 1000.0937 1000.1138 1000.114 1000.1134 1000.1126 1000.1117 1000.111 1000.11 1000.1096 1000.1094 1000.1343 1000.1339 1000.133 1000.1317 1000.1306 1000.1295 1000.1286 1000.1279 1000.1276 1000.1578 1000.1569 1000.1556 1000.1542 1000.1525 1000.1513 1000.1503 1000.1495 1000.149 1000.1843 1000.1832 1000.1816 1000.1796 1000.1778 1000.1763 1000.1751 1000.1743 1000.1737 1000.2142 1000.213 1000.2112 1000.209 1000.207 1000.2054 1000.204 1000.203 1000.2023 1000.2484 1000.2471 1000.2452 1000.243 1000.2407 1000.2387 1000.2372 1000.2361 1000.2355 1000.287 1000.2861 1000.2841 1000.2817 1000.2792 1000.2768 1000.2753 1000.274 1000.2733 1000.3314 1000.3302 1000.3284 1000.3259 1000.3234 1000.321 1000.319 1000.3176 1000.3169 1000.3822 1000.3812 1000.3792 1000.3764 1000.3735 1000.371 1000.3688 1000.3673 1000.3665 1000.4409 1000.4398 1000.4374 1000.4344 1000.431 1000.4283 1000.4258 1000.4239 1000.4229 1000.5084 1000.5068 1000.5039 1000.5001 1000.4962 1000.4928 1000.4899 1000.4879 1000.4866 1000.5859 1000.5834 1000.5796 1000.5746 1000.5699 1000.5656 1000.562 1000.5594 1000.5577 1000.6746 1000.6707 1000.6652 1000.6589 1000.6525 1000.647 1000.6423 1000.6389 1000.637 1000.7753 1000.7693 1000.7616 1000.7529 1000.7444 1000.7371 1000.7311 1000.7267 1000.7238 1000.8882 1000.8793 1000.8683 1000.8565 1000.8452 1000.8356 1000.8278 1000.822 1000.8183 1001.0146 1001.0012 1000.9856 1000.9695 1000.9547 1000.942 1000.9319 1000.9244 1000.92 1001.1494 1001.1304 1001.1092 1001.0876 1001.0683 1001.0522 1001.0394 1001.0302 1001.0247 1001.285 1001.2589 1001.2307 1001.2035 1001.1791 1001.1589 1001.1437 1001.1324 1001.1262 1001.4141 1001.3808 1001.3453 1001.3113 1001.2819 1001.258 1001.2399 1001.2272 1001.2199 1001.5289 1001.49 1001.4484 1001.4085 1001.3744 1001.3474 1001.3273 1001.3132 1001.3051 1001.6489 1001.6086 1001.5642 1001.5207 1001.4836 1001.4544 1001.4332 1001.4188 1001.4104 1001.8663 1001.8318 1001.7906 1001.7484 1001.7113 1001.6823 1001.6617 1001.6481 1001.64 1002.4477 1002.429 1002.3989 1002.364 1002.332 1002.3065 1002.2887 1002.2772 1002.2708 1003.9402 1003.9463 1003.9368 1003.9172 1003.8956 1003.8781 1003.8665 1003.8594 1003.8558 1006.8495 1006.8879 1006.9056 1006.9077 1006.9031 1006.8987 1006.8965 1006.897 1006.8979 1010.4573 1010.5289 1010.5761 1010.6031 1010.6196 1010.6325 1010.6448 1010.6553 1010.6624 1012.946 1013.0428 1013.1156 1013.1674 1013.2071 1013.24 1013.269 1013.2921 1013.3069 1013.7265 1013.8366 1013.9263 1013.9985 1014.0596 1014.1134 1014.1605 1014.1977 1014.2216 1013.5593 1013.6699 1013.7673 1013.8536 1013.9325 1014.0052 1014.0696 1014.1203 1014.1526 1013.2426 1013.3425 1013.4388 1013.5314 1013.6216 1013.7075 1013.7845 1013.8454 1013.8843 1013.1405 1013.2255 1013.3142 1013.4052 1013.4982 1013.5895 1013.6727 1013.7386 1013.7809 1013.2805 1013.3522 1013.431 1013.5156 1013.605 1013.695 1013.7778 1013.8443 1013.8865 1013.5555 1013.6195 1013.6904 1013.7676 1013.8505 1013.9353 1014.0138 1014.077 1014.1174 1013.8444 1013.9075 1013.9752 1014.0469 1014.1235 1014.202 1014.275 1014.3336 1014.371 1013.8636 1013.9323 1014.0006 1014.0696 1014.1418 1014.215 1014.2828 1014.337 1014.3715 1013.6266 1013.7036 1013.7755 1013.8446 1013.9141 1013.9835 1014.047 1014.0977 1014.1295 1013.213 1013.2994 1013.3755 1013.4446 1013.5119 1013.5776 1013.6373 1013.6844 1013.7142 1012.6865 1012.7807 1012.8586 1012.9252 1012.9886 1013.0496 1013.1046 1013.1481 1013.1754 1012.0685 1012.1656 1012.2401 1012.3006 1012.3571 1012.4106 1012.4595 1012.4979 1012.5219 1011.3455 1011.4395 1011.5062 1011.5571 1011.6031 1011.6481 1011.6891 1011.7222 1011.7424 1010.5052 1010.5925 1010.6489 1010.689 1010.7247 1010.7606 1010.794 1010.8214 1010.8383 1009.5622 1009.6424 1009.6902 1009.7213 1009.7482 1009.7766 1009.8043 1009.8267 1009.8411 1008.5582 1008.6343 1008.6774 1008.7032 1008.7253 1008.7485 1008.7715 1008.7909 1008.8033 1007.5465 1007.623 1007.6664 1007.6924 1007.7132 1007.734 1007.7546 1007.7715 1007.7828 1006.5773 1006.6565 1006.7064 1006.7377 1006.7608 1006.7813 1006.8005 1006.8163 1006.8264 1005.6868 1005.7684 1005.8284 1005.8698 1005.8992 1005.9221 1005.9409 1005.9558 1005.9651 1004.8954 1004.9741 1005.0443 1005.0993 1005.1392 1005.1675 1005.188 1005.2028 1005.2116 1004.2097 1004.2777 1004.3522 1004.4211 1004.475 1004.5134 1004.5392 1004.5558 1004.5649 1003.6334 1003.6811 1003.7495 1003.8255 1003.894 1003.9463 1003.9819 1004.0041 1004.0159 1003.1663 1003.1872 1003.2372 1003.3076 1003.382 1003.4467 1003.4947 1003.5261 1003.5432 1002.7976 1002.7998 1002.8216 1002.8715 1002.9376 1003.0037 1003.0592 1003.0989 1003.1223 1002.4741 1002.5044 1002.5076 1002.5264 1002.567 1002.6191 1002.6695 1002.7097 1002.7355 1002.1318 1002.2289 1002.2709 1002.2759 1002.2823 1002.304 1002.3346 1002.3641 1002.385 1001.767 1001.9036 1002.0118 1002.0676 1002.0778 1002.0712 1002.0713 1002.0786 1002.0872 1001.5526 1001.6124 1001.6947 1001.7778 1001.8442 1001.8758 1001.8786 1001.8718 1001.8674 1001.5451 1001.511 1001.515 1001.5359 1001.5651 1001.5917 1001.6057 1001.6091 1001.5026 1001.4291 1001.4004 1001.36 1001.3184 1001.2857 1001.5231 1001.4811 1001.432 1001.3872 1000.0333 1000.0333 1000.0333 1000.0333 1000.0331 1000.0329 1000.0328 1000.0322 1000.0399 1000.0399 1000.04 1000.0399 1000.0399 1000.0397 1000.0395 1000.0389 1000.0461 1000.0461 1000.0461 1000.0461 1000.0461 1000.0461 1000.0457 1000.0453 1000.0525 1000.0525 1000.0525 1000.0526 1000.0527 1000.0527 1000.0524 1000.0521 1000.0599 1000.0599 1000.0601 1000.0601 1000.0601 1000.0603 1000.0602 1000.0601 1000.0692 1000.0692 1000.0693 1000.0695 1000.0698 1000.0699 1000.07 1000.07 1000.0801 1000.0802 1000.0804 1000.0806 1000.0811 1000.0814 1000.0819 1000.0821 1000.0934 1000.0937 1000.0939 1000.0942 1000.0947 1000.0953 1000.0959 1000.0963 1000.1092 1000.1094 1000.1096 1000.11 1000.111 1000.1117 1000.1126 1000.1134 1000.1274 1000.1276 1000.1279 1000.1286 1000.1295 1000.1306 1000.1317 1000.133 1000.1489 1000.149 1000.1495 1000.1503 1000.1513 1000.1525 1000.1542 1000.1556 1000.1736 1000.1737 1000.1743 1000.1751 1000.1763 1000.1778 1000.1796 1000.1816 1000.2021 1000.2023 1000.203 1000.204 1000.2054 1000.207 1000.209 1000.2112 1000.2352 1000.2355 1000.2361 1000.2372 1000.2387 1000.2407 1000.243 1000.2452 1000.2731 1000.2733 1000.274 1000.2753 1000.2768 1000.2792 1000.2817 1000.2841 1000.3166 1000.3169 1000.3176 1000.319 1000.321 1000.3234 1000.3259 1000.3284 1000.3661 1000.3665 1000.3673 1000.3688 1000.371 1000.3735 1000.3764 1000.3792 1000.4226 1000.4229 1000.4239 1000.4258 1000.4283 1000.431 1000.4344 1000.4374 1000.486 1000.4866 1000.4879 1000.4899 1000.4928 1000.4962 1000.5001 1000.5039 1000.5572 1000.5577 1000.5594 1000.562 1000.5656 1000.5699 1000.5746 1000.5796 1000.6364 1000.637 1000.6389 1000.6423 1000.647 1000.6525 1000.6589 1000.6652 1000.723 1000.7238 1000.7267 1000.7311 1000.7371 1000.7444 1000.7529 1000.7615 1000.8171 1000.8183 1000.822 1000.8278 1000.8356 1000.8452 1000.8565 1000.8683 1000.9185 1000.92 1000.9244 1000.9319 1000.942 1000.9547 1000.9695 1000.9856 1001.0229 1001.0247 1001.0302 1001.0394 1001.0522 1001.0683 1001.0876 1001.1092 1001.1239 1001.1262 1001.1324 1001.1437 1001.1589 1001.1791 1001.2035 1001.2307 1001.2173 1001.2199 1001.2272 1001.2399 1001.258 1001.2819 1001.3113 1001.3453 1001.3024 1001.3051 1001.3132 1001.3273 1001.3474 1001.3744 1001.4085 1001.4484 1001.4075 1001.4104 1001.4188 1001.4332 1001.4544 1001.4836 1001.5207 1001.5642 1001.6373 1001.64 1001.6481 1001.6617 1001.6823 1001.7113 1001.7484 1001.7906 1002.2687 1002.2708 1002.2772 1002.2887 1002.3065 1002.332 1002.364 1002.3989 1003.8547 1003.8558 1003.8594 1003.8665 1003.8781 1003.8956 1003.9172 1003.9368 1006.8983 1006.8979 1006.897 1006.8965 1006.8987 1006.9031 1006.9077 1006.9056 1010.6649 1010.6624 1010.6553 1010.6448 1010.6325 1010.6196 1010.6031 1010.5761 1013.3123 1013.3069 1013.2921 1013.269 1013.24 1013.2071 1013.1674 1013.1156 1014.2297 1014.2216 1014.1977 1014.1605 1014.1134 1014.0596 1013.9985 1013.9263 1014.1637 1014.1526 1014.1203 1014.0696 1014.0052 1013.9325 1013.8536 1013.7673 1013.8976 1013.8843 1013.8454 1013.7845 1013.7075 1013.6216 1013.5314 1013.4388 1013.7953 1013.7809 1013.7386 1013.6727 1013.5895 1013.4982 1013.4052 1013.3142 1013.9009 1013.8865 1013.8443 1013.7778 1013.695 1013.605 1013.5156 1013.431 1014.1313 1014.1174 1014.077 1014.0138 1013.9353 1013.8505 1013.7676 1013.6904 1014.3839 1014.371 1014.3336 1014.275 1014.202 1014.1235 1014.0469 1013.9752 1014.3833 1014.3715 1014.337 1014.2828 1014.215 1014.1418 1014.0696 1014.0006 1014.1405 1014.1295 1014.0977 1014.047 1013.9835 1013.9141 1013.8446 1013.7755 1013.7245 1013.7142 1013.6844 1013.6373 1013.5776 1013.5119 1013.4446 1013.3755 1013.1843 1013.1754 1013.1481 1013.1046 1013.0496 1012.9886 1012.9252 1012.8586 1012.5301 1012.5219 1012.4979 1012.4595 1012.4106 1012.3571 1012.3006 1012.2401 1011.7493 1011.7424 1011.7222 1011.6891 1011.6481 1011.6031 1011.5571 1011.5062 1010.8441 1010.8383 1010.8214 1010.794 1010.7606 1010.7247 1010.689 1010.6489 1009.8461 1009.8411 1009.8267 1009.8043 1009.7766 1009.7482 1009.7213 1009.6902 1008.8075 1008.8033 1008.7909 1008.7715 1008.7485 1008.7253 1008.7032 1008.6774 1007.7867 1007.7828 1007.7715 1007.7546 1007.734 1007.7132 1007.6924 1007.6664 1006.83 1006.8264 1006.8163 1006.8005 1006.7813 1006.7608 1006.7377 1006.7064 1005.9684 1005.9651 1005.9558 1005.9409 1005.9221 1005.8992 1005.8698 1005.8284 1005.2145 1005.2116 1005.2028 1005.188 1005.1675 1005.1392 1005.0993 1005.0443 1004.5678 1004.5649 1004.5558 1004.5392 1004.5134 1004.475 1004.4211 1004.3522 1004.0196 1004.0159 1004.0041 1003.9819 1003.9463 1003.894 1003.8255 1003.7495 1003.549 1003.5432 1003.5261 1003.4947 1003.4467 1003.382 1003.3076 1003.2372 1003.1299 1003.1223 1003.0989 1003.0592 1003.0037 1002.9376 1002.8715 1002.8216 1002.7441 1002.7355 1002.7097 1002.6695 1002.6191 1002.567 1002.5264 1002.5076 1002.3924 1002.385 1002.3641 1002.3346 1002.304 1002.2823 1002.2759 1002.2709 1002.0906 1002.0872 1002.0786 1002.0713 1002.0712 1002.0778 1002.0676 1002.0118 1001.8658 1001.8674 1001.8718 1001.8785 1001.8758 1001.8442 1001.7778 1001.6947 1001.6093 1001.6091 1001.6057 1001.5917 1001.5651 1001.5359 1001.515 1001.511 1001.2738 1001.2857 1001.3184 1001.36 1001.4004 1001.4291 1001.5026 1001.3691 1001.3872 1001.432 1001.4811 1001.5231 1000.0316 1000.0306 1000.0292 1000.0275 1000.0251 1000.0221 1000.0186 1000.0381 1000.0369 1000.0355 1000.0336 1000.0309 1000.0275 1000.0234 1000.0184 1000.0444 1000.0433 1000.0418 1000.0397 1000.0369 1000.033 1000.0281 1000.0225 1000.0514 1000.0504 1000.0488 1000.0466 1000.0434 1000.0391 1000.0336 1000.0268 1000.0595 1000.0586 1000.057 1000.0549 1000.0513 1000.0463 1000.04 1000.0324 1000.0696 1000.0687 1000.0673 1000.0649 1000.0612 1000.056 1000.0488 1000.0397 1000.0819 1000.0813 1000.0801 1000.0775 1000.0739 1000.069 1000.0613 1000.0515 1000.0966 1000.0964 1000.0952 1000.0933 1000.0905 1000.0863 1000.0801 1000.07 1000.114 1000.1138 1000.1135 1000.1124 1000.1114 1000.1098 1000.1069 1000.0981 1000.1339 1000.1343 1000.1344 1000.1347 1000.136 1000.1389 1000.1414 1000.1378 1000.1569 1000.1578 1000.1584 1000.1598 1000.1639 1000.1716 1000.1815 1000.1854 1000.1832 1000.1843 1000.1853 1000.1876 1000.1932 1000.2046 1000.2199 1000.2267 1000.213 1000.2142 1000.2151 1000.2174 1000.2234 1000.2344 1000.2474 1000.2435 1000.2471 1000.2484 1000.249 1000.2503 1000.2544 1000.2621 1000.2667 1000.2527 1000.2861 1000.287 1000.2874 1000.2878 1000.2894 1000.2927 1000.2896 1000.2728 1000.3302 1000.3314 1000.3312 1000.3309 1000.3309 1000.3308 1000.3246 1000.3087 1000.3812 1000.3822 1000.3822 1000.3813 1000.3804 1000.3791 1000.3727 1000.3589 1000.4398 1000.4409 1000.4408 1000.4399 1000.4387 1000.4376 1000.4321 1000.4205 1000.5068 1000.5084 1000.5086 1000.5078 1000.5068 1000.5061 1000.5015 1000.4911 1000.5834 1000.5859 1000.5867 1000.5864 1000.5858 1000.5859 1000.5823 1000.572 1000.6707 1000.6746 1000.6765 1000.6772 1000.6774 1000.6786 1000.6762 1000.666 1000.7693 1000.7753 1000.7791 1000.7816 1000.7837 1000.7866 1000.7852 1000.7759 1000.8793 1000.8882 1000.8952 1000.9008 1000.9059 1000.9119 1000.9118 1000.9033 1001.0012 1001.0146 1001.0256 1001.0356 1001.046 1001.0567 1001.0582 1001.0505 1001.1304 1001.1494 1001.1665 1001.1827 1001.201 1001.2203 1001.2242 1001.2155 1001.2589 1001.285 1001.309 1001.3335 1001.3627 1001.3957 1001.4042 1001.3926 1001.3808 1001.4141 1001.4453 1001.4782 1001.5208 1001.5748 1001.5925 1001.5749 1001.49 1001.5289 1001.5654 1001.6052 1001.6621 1001.7432 1001.778 1001.7534 1001.6086 1001.6489 1001.6857 1001.7274 1001.7958 1001.907 1001.9675 1001.9373 1001.8318 1001.8663 1001.895 1001.9305 1002.0027 1002.1388 1002.2272 1002.1956 1002.429 1002.4477 1002.4585 1002.4766 1002.5405 1002.6823 1002.78 1002.7518 1003.9463 1003.9402 1003.9227 1003.9138 1003.9541 1004.0629 1004.117 1004.0875 1006.8879 1006.8495 1006.7974 1006.7548 1006.7437 1006.7421 1006.7114 1006.6593 1010.5289 1010.4573 1010.371 1010.2863 1010.1848 1010.0282 1009.9363 1009.8348 1013.0428 1012.946 1012.8336 1012.7082 1012.5167 1012.267 1012.1697 1012.0143 1013.8366 1013.7265 1013.6011 1013.4504 1013.2161 1012.9427 1012.9091 1012.7689 1013.6699 1013.5593 1013.4368 1013.2884 1013.0703 1012.8621 1012.9014 1012.7709 1013.3425 1013.2426 1013.1432 1013.0367 1012.8947 1012.7856 1012.8547 1012.6936 1013.2255 1013.1405 1013.0661 1013.0018 1012.9293 1012.9007 1012.9778 1012.7962 1013.3522 1013.2805 1013.2247 1013.1883 1013.1577 1013.1743 1013.2454 1013.0576 1013.6195 1013.5555 1013.5081 1013.4817 1013.4633 1013.4899 1013.5497 1013.3664 1013.9075 1013.8444 1013.7952 1013.7634 1013.733 1013.7413 1013.7927 1013.618 1013.9323 1013.8636 1013.8052 1013.7592 1013.7086 1013.6951 1013.7397 1013.5732 1013.7036 1013.6266 1013.5543 1013.4896 1013.4168 1013.3833 1013.4177 1013.2551 1013.2994 1013.213 1013.1248 1013.0391 1012.9443 1012.8903 1012.9069 1012.7443 1012.7807 1012.6865 1012.5832 1012.4764 1012.3606 1012.2845 1012.2722 1012.105 1012.1656 1012.0685 1011.9532 1011.8297 1011.6943 1011.5915 1011.5448 1011.3679 1011.4395 1011.3455 1011.225 1011.0875 1010.9393 1010.8082 1010.7283 1010.5385 1010.5925 1010.5052 1010.3847 1010.2379 1010.0781 1009.9315 1009.8231 1009.6204 1009.6424 1009.5622 1009.4438 1009.2932 1009.1227 1008.9716 1008.8473 1008.6328 1008.6343 1008.5582 1008.4421 1008.2924 1008.1176 1007.9656 1007.8473 1007.6248 1007.623 1007.5465 1007.4329 1007.2885 1007.1188 1006.9743 1006.873 1006.6515 1006.6565 1006.5773 1006.4684 1006.3346 1006.1797 1006.0506 1005.9523 1005.736 1005.7684 1005.6868 1005.5879 1005.4724 1005.3369 1005.2151 1005.0938 1004.8618 1004.9741 1004.8954 1004.8134 1004.7229 1004.6151 1004.499 1004.3325 1004.0364 1004.2777 1004.2097 1004.1524 1004.0912 1004.0114 1003.9114 1003.6921 1003.6811 1003.6334 1003.6043 1003.5676 1003.5062 1003.395 1003.1506 1003.1872 1003.1663 1003.157 1003.117 1003.0507 1002.8973 1002.7998 1002.7976 1002.7712 1002.6977 1002.5806 1002.44 1002.5044 1002.4741 1002.3912 1002.2695 1002.1401 1002.2289 1002.1318 1001.9835 1001.8663 1001.9036 1001.767 1001.6227 1001.6861 1001.6124 1001.5526 1001.5451 
Mass 1 2975 float
0.40000001 0.40000001 0.40000001 0.40000001 0.40000001 0.40000001 0.40000001 0.40000001 0.40000001 0.40000001 0.40000001 0.40000001 0.40000001 0.40000001 0.40000001 0.40000001 0.40000001 0.40000001 0.40000001 0.40000001 0.40000001 0.40000001 0.40000001 0.40000001 0.40000001 0.40000001 0.40000001 0.40000001 0.40000001 0.40000001 0.40000001 0.40000001 0.40000001 0.40000001 0.40000001 0.40000001 0.40000001 0.40000001 0.40000001 0.40000001 0.40000001 0.40000001 0.40000001 0.40000001 0.40000001 0.40000001 0.40000001 0.40000001 0.40000001 0.40000001 0.40000001 0.40000001 0.40000001 0.40000001 0.40000001 0.40000001 0.40000001 0.40000001 0.40000001 0.40000001 0.40000001 0.40000001 0.40000001 0.40000001 0.40000001 0.40000001 0.40000001 0.40000001 0.40000001 0.40000001 0.40000001 0.40000001 0.40000001 0.40000001 0.40000001 0.40000001 0.40000001 0.40000001 0.40000001 0.40000001 0.40000001 0.40000001 0.40000001 0.40000001 0.40000001 0.40000001 0.40000001 0.40000001 0.40000001 0.40000001 0.40000001 0.40000001 0.40000001 0.40000001 0.40000001 0.40000001 0.40000001 0.40000001 0.40000001 0.40000001 0.40000001 0.40000001 0.40000001 0.40000001 0.40000001 0.40000001 0.40000001 0.40000001 0.40000001 0.40000001 0.40000001 0.40000001 0.40000001 0.40000001 0.40000001 0.40000001 0.40000001 0.40000001 0.40000001 0.40000001 0.40000001 0.40000001 0.40000001 0.40000001 0.40000001 0.40000001 0.40000001 0.40000001 0.40000001 0.40000001 0.40000001 0.40000001 0.40000001 0.40000001 0.40000001 0.40000001 0.40000001 0.40000001 0.40000001 0.40000001 0.40000001 0.40000001 0.40000001 0.40000001 0.40000001 0.40000001 0.40000001 0.40000001 0.40000001 0.40000001 0.40000001 0.40000001 0.40000001 0.40000001 0.40000001 0.40000001 0.40000001 0.40000001 0.40000001 0.40000001 0.40000001 0.40000001 0.40000001 0.40000001 0.40000001 0.40000001 0.40000001 0.40000001 0.40000001 0.40000001 0.40000001 0.40000001 0.40000001 0.40000001 0.40000001 0.40000001 0.40000001 0.40000001 0.40000001 0.40000001 0.40000001 0.40000001 0.40000001 0.40000001 0.40000001 0.40000001 0.40000001 0.40000001 0.40000001 0.40000001 0.40000001 0.40000001 0.40000001 0.40000001 0.40000001 0.40000001 0.40000001 0.40000001 0.40000001 0.40000001 0.40000001 0.40000001 0.40000001 0.40000001 0.40000001 0.40000001 0.40000001 0.40000001 0.40000001 0.40000001 0.40000001 0.40000001 0.40000001 0.40000001 0.40000001 0.40000001 0.40000001 0.40000001 0.40000001 0.40000001 0.40000001 0.40000001 0.40000001 0.40000001 0.40000001 0.40000001 0.40000001 0.40000001 0.40000001 0.40000001 0.40000001 0.40000001 0.40000001 0.40000001 0.40000001 0.40000001 0.40000001 0.40000001 0.40000001 0.40000001 0.40000001 0.40000001 0.40000001 0.40000001 0.40000001 0.40000001 0.40000001 0.40000001 0.40000001 0.40000001 0.40000001 0.40000001 0.40000001 0.40000001 0.40000001 0.40000001 0.40000001 0.40000001 0.40000001 0.40000001 0.40000001 0.40000001 0.40000001 0.40000001 0.40000001 0.40000001 0.40000001 0.40000001 0.40000001 0.40000001 0.40000001 0.40000001 0.40000001 0.40000001 0.40000001 0.40000001 0.40000001 0.40000001 0.40000001 0.40000001 0.40000001 0.40000001 0.40000001 0.40000001 0.40000001 0.40000001 0.40000001 0.40000001 0.40000001 0.40000001 0.40000001 0.40000001 0.40000001 0.40000001 0.40000001 0.40000001 0.40000001 0.40000001 0.40000001 0.40000001 0.40000001 0.40000001 0.40000001 0.40000001 0.40000001 0.40000001 0.40000001 0.40000001 0.40000001 0.40000001 0.40000001 0.40000001 0.40000001 0.40000001 0.40000001 0.40000001 0.40000001 0.40000001 0.40000001 0.40000001 0.40000001 0.40000001 0.40000001 0.40000001 0.40000001 0.40000001 0.40000001 0.40000001 0.40000001 0.40000001 0.40000001 0.40000001 0.40000001 0.40000001 0.40000001 0.40000001 0.40000001 0.40000001 0.40000001 0.40000001 0.40000001 0.40000001 0.40000001 0.40000001 0.40000001 0.40000001 0.40000001 0.40000001 0.40000001 0.40000001 0.40000001 0.40000001 0.40000001 0.40000001 0.40000001 0.40000001 0.40000001 0.40000001 0.40000001 0.40000001 0.40000001 0.40000001 0.40000001 0.40000001 0.40000001 0.40000001 0.40000001 0.40000001 0.40000001 0.40000001 0.40000001 0.40000001 0.40000001 0.40000001 0.40000001 0.40000001 0.40000001 0.40000001 0.40000001 0.40000001 0.40000001 0.40000001 0.40000001 0.40000001 0.40000001 0.40000001 0.40000001 0.40000001 0.40000001 0.40000001 0.40000001 0.40000001 0.40000001 0.40000001 0.40000001 0.40000001 0.40000001 0.40000001 0.40000001 0.40000001 0.40000001 0.40000001 0.40000001 0.40000001 0.40000001 0.40000001 0.40000001 0.40000001 0.40000001 0.40000001 0.40000001 0.40000001 0.40000001 0.40000001 0.40000001 0.40000001 0.40000001 0.40000001 0.40000001 0.40000001 0.40000001 0.40000001 0.40000001 0.40000001 0.40000001 0.40000001 0.40000001 0.40000001 0.40000001 0.40000001 0.40000001 0.40000001 0.40000001 0.40000001 0.40000001 0.40000001 0.40000001 0.40000001 0.40000001 0.40000001 0.40000001 0.40000001 0.40000001 0.40000001 0.40000001 0.40000001 0.40000001 0.40000001 0.40000001 0.40000001 0.40000001 0.40000001 0.40000001 0.40000001 0.40000001 0.40000001 0.40000001 0.40000001 0.40000001 0.40000001 0.40000001 0.40000001 0.40000001 0.40000001 0.40000001 0.40000001 0.40000001 0.40000001 0.40000001 0.40000001 0.40000001 0.40000001 0.40000001 0.40000001 0.40000001 0.40000001 0.40000001 0.40000001 0.40000001 0.40000001 0.40000001 0.40000001 0.40000001 0.40000001 0.40000001 0.40000001 0.40000001 0.40000001 0.40000001 0.40000001 0.40000001 0.40000001 0.40000001 0.40000001 0.40000001 0.40000001 0.40000001 0.40000001 0.40000001 0.40000001 0.40000001 0.40000001 0.40000001 0.40000001 0.40000001 0.40000001 0.40000001 0.40000001 0.40000001 0.40000001 0.40000001 0.40000001 0.40000001 0.40000001 0.40000001 0.40000001 0.40000001 0.40000001 0.40000001 0.40000001 0.40000001 0.40000001 0.40000001 0.40000001 0.40000001 0.40000001 0.40000001 0.40000001 0.40000001 0.40000001 0.40000001 0.40000001 0.40000001 0.40000001 0.40000001 0.40000001 0.40000001 0.40000001 0.40000001 0.40000001 0.40000001 0.40000001 0.40000001 0.40000001 0.40000001 0.40000001 0.40000001 0.40000001 0.40000001 0.40000001 0.40000001 0.40000001 0.40000001 0.40000001 0.40000001 0.40000001 0.40000001 0.40000001 0.40000001 0.40000001 0.40000001 0.40000001 0.40000001 0.40000001 0.40000001 0.40000001 0.40000001 0.40000001 0.40000001 0.40000001 0.40000001 0.40000001 0.40000001 0.40000001 0.40000001 0.40000001 0.40000001 0.40000001 0.40000001 0.40000001 0.40000001 0.40000001 0.40000001 0.40000001 0.40000001 0.40000001 0.40000001 0.40000001 0.40000001 0.40000001 0.40000001 0.40000001 0.40000001 0.40000001 0.40000001 0.40000001 0.40000001 0.40000001 0.40000001 0.40000001 0.40000001 0.40000001 0.40000001 0.40000001 0.40000001 0.40000001 0.40000001 0.40000001 0.40000001 0.40000001 0.40000001 0.40000001 0.40000001 0.40000001 0.40000001 0.40000001 0.40000001 0.40000001 0.40000001 0.40000001 0.40000001 0.40000001 0.40000001 0.40000001 0.40000001 0.40000001 0.40000001 0.40000001 0.40000001 0.40000001 0.40000001 0.40000001 0.40000001 0.40000001 0.40000001 0.40000001 0.40000001 0.40000001 0.40000001 0.40000001 0.40000001 0.40000001 0.40000001 0.40000001 0.40000001 0.40000001 0.40000001 0.40000001 0.40000001 0.40000001 0.40000001 0.40000001 0.40000001 0.40000001 0.40000001 0.40000001 0.40000001 0.40000001 0.40000001 0.40000001 0.40000001 0.40000001 0.40000001 0.40000001 0.40000001 0.40000001 0.40000001 0.40000001 0.40000001 0.40000001 0.40000001 0.40000001 0.40000001 0.40000001 0.40000001 0.40000001 0.40000001 0.40000001 0.40000001 0.40000001 0.40000001 0.40000001 0.40000001 0.40000001 0.40000001 0.40000001 0.40000001 0.40000001 0.40000001 0.40000001 0.40000001 0.40000001 0.40000001 0.40000001 0.40000001 0.40000001 0.40000001 0.40000001 0.40000001 0.40000001 0.40000001 0.40000001 0.40000001 0.40000001 0.40000001 0.40000001 0.40000001 0.40000001 0.40000001 0.40000001 0.40000001 0.40000001 0.40000001 0.40000001 0.40000001 0.40000001 0.40000001 0.40000001 0.40000001 0.40000001 0.40000001 0.40000001 0.40000001 0.40000001 0.40000001 0.40000001 0.40000001 0.40000001 0.40000001 0.40000001 0.40000001 0.40000001 0.40000001 0.40000001 0.40000001 0.40000001 0.40000001 0.40000001 0.40000001 0.40000001 0.40000001 0.40000001 0.40000001 0.40000001 0.40000001 0.40000001 0.40000001 0.40000001 0.40000001 0.40000001 0.40000001 0.40000001 0.40000001 0.40000001 0.40000001 0.40000001 0.40000001 0.40000001 0.40000001 0.40000001 0.40000001 0.40000001 0.40000001 0.40000001 0.40000001 0.40000001 0.40000001 0.40000001 0.40000001 0.40000001 0.40000001 0.40000001 0.40000001 0.40000001 0.40000001 0.40000001 0.40000001 0.40000001 0.40000001 0.40000001 0.40000001 0.40000001 0.40000001 0.40000001 0.40000001 0.40000001 0.40000001 0.40000001 0.40000001 0.40000001 0.40000001 0.40000001 0.40000001 0.40000001 0.40000001 0.40000001 0.40000001 0.40000001 0.40000001 0.40000001 0.40000001 0.40000001 0.40000001 0.40000001 0.40000001 0.40000001 0.40000001 0.40000001 0.40000001 0.40000001 0.40000001 0.40000001 0.40000001 0.40000001 0.40000001 0.40000001 0.40000001 0.40000001 0.40000001 0.40000001 0.40000001 0.40000001 0.40000001 0.40000001 0.40000001 0.40000001 0.40000001 0.40000001 0.40000001 0.40000001 0.40000001 0.40000001 0.40000001 0.40000001 0.40000001 0.40000001 0.40000001 0.40000001 0.40000001 0.40000001 0.40000001 0.40000001 0.40000001 0.40000001 0.40000001 0.40000001 0.40000001 0.40000001 0.40000001 0.40000001 0.40000001 0.40000001 0.40000001 0.40000001 0.40000001 0.40000001 0.40000001 0.40000001 0.40000001 0.40000001 0.40000001 0.40000001 0.40000001 0.40000001 0.40000001 0.40000001 0.40000001 0.40000001 0.40000001 0.40000001 0.40000001 0.40000001 0.40000001 0.40000001 0.40000001 0.40000001 0.40000001 0.40000001 0.40000001 0.40000001 0.40000001 0.40000001 0.40000001 0.40000001 0.40000001 0.40000001 0.40000001 0.40000001 0.40000001 0.40000001 0.40000001 0.40000001 0.40000001 0.40000001 0.40000001 0.40000001 0.40000001 0.40000001 0.40000001 0.40000001 0.40000001 0.40000001 0.40000001 0.40000001 0.40000001 0.40000001 0.40000001 0.40000001 0.40000001 0.40000001 0.40000001 0.40000001 0.40000001 0.40000001 0.40000001 0.40000001 0.40000001 0.40000001 0.40000001 0.40000001 0.40000001 0.40000001 0.40000001 0.40000001 0.40000001 0.40000001 0.40000001 0.40000001 0.40000001 0.40000001 0.40000001 0.40000001 0.40000001 0.40000001 0.40000001 0.40000001 0.40000001 0.40000001 0.40000001 0.40000001 0.40000001 0.40000001 0.40000001 0.40000001 0.40000001 0.40000001 0.40000001 0.40000001 0.40000001 0.40000001 0.40000001 0.40000001 0.40000001 0.40000001 0.40000001 0.40000001 0.40000001 0.40000001 0.40000001 0.40000001 0.40000001 0.40000001 0.40000001 0.40000001 0.40000001 0.40000001 0.40000001 0.40000001 0.40000001 0.40000001 0.40000001 0.40000001 0.40000001 0.40000001 0.40000001 0.40000001 0.40000001 0.40000001 0.40000001 0.40000001 0.40000001 0.40000001 0.40000001 0.40000001 0.40000001 0.40000001 0.40000001 0.40000001 0.40000001 0.40000001 0.40000001 0.40000001 0.40000001 0.40000001 0.40000001 0.40000001 0.40000001 0.40000001 0.40000001 0.40000001 0.40000001 0.40000001 0.40000001 0.40000001 0.40000001 0.40000001 0.40000001 0.40000001 0.40000001 0.40000001 0.40000001 0.40000001 0.40000001 0.40000001 0.40000001 0.40000001 0.40000001 0.40000001 0.40000001 0.40000001 0.40000001 0.40000001 0.40000001 0.40000001 0.40000001 0.40000001 0.40000001 0.40000001 0.40000001 0.40000001 0.40000001 0.40000001 0.40000001 0.40000001 0.40000001 0.40000001 0.40000001 0.40000001 0.40000001 0.40000001 0.40000001 0.40000001 0.40000001 0.40000001 0.40000001 0.40000001 0.40000001 0.40000001 0.40000001 0.40000001 0.40000001 0.40000001 0.40000001 0.40000001 0.40000001 0.40000001 0.40000001 0.40000001 0.40000001 0.40000001 0.40000001 0.40000001 0.40000001 0.40000001 0.40000001 0.40000001 0.40000001 0.40000001 0.40000001 0.40000001 0.40000001 0.40000001 0.40000001 0.40000001 0.40000001 0.40000001 0.40000001 0.40000001 0.40000001 0.40000001 0.40000001 0.40000001 0.40000001 0.40000001 0.40000001 0.40000001 0.40000001 0.40000001 0.40000001 0.40000001 0.40000001 0.40000001 0.40000001 0.40000001 0.40000001 0.40000001 0.40000001 0.40000001 0.40000001 0.40000001 0.40000001 0.40000001 0.40000001 0.40000001 0.40000001 0.40000001 0.40000001 0.40000001 0.40000001 0.40000001 0.40000001 0.40000001 0.40000001 0.40000001 0.40000001 0.40000001 0.40000001 0.40000001 0.40000001 0.40000001 0.40000001 0.40000001 0.40000001 0.40000001 0.40000001 0.40000001 0.40000001 0.40000001 0.40000001 0.40000001 0.40000001 0.40000001 0.40000001 0.40000001 0.40000001 0.40000001 0.40000001 0.40000001 0.40000001 0.40000001 0.40000001 0.40000001 0.40000001 0.40000001 0.40000001 0.40000001 0.40000001 0.40000001 0.40000001 0.40000001 0.40000001 0.40000001 0.40000001 0.40000001 0.40000001 0.40000001 0.40000001 0.40000001 0.40000001 0.40000001 0.40000001 0.40000001 0.40000001 0.40000001 0.40000001 0.40000001 0.40000001 0.40000001 0.40000054 0.40000066 0.40000066 0.40000054 0.40000063 0.40000069 0.40000179 0.4000017 0.40000185 0.40000173 0.40000176 0.40000176 0.40000415 0.40000424 0.40000418 0.40000424 0.40000412 0.40000424 0.40001148 0.40001145 0.40001136 0.40001151 0.40001145 0.40001148 0.40003091 0.40003088 0.40003091 0.40003097 0.400031 0.40003097 0.40008318 0.40008324 0.40008315 0.40008327 0.40008342 0.40008327 0.40022191 0.400222 0.40022209 0.40022212 0.40022209 0.40022227 0.40057421 0.40057451 0.40057459 0.40057486 0.40057504 0.40057498 0.40138176 0.4013823 0.40138277 0.4013831 0.4013834 0.40138352 0.40286544 0.40286633 0.4028669 0.40286735 0.40286776 0.402868 0.40473866 0.40473962 0.40473992 0.40473998 0.40474015 0.40474039 0.40624112 0.40624163 0.40624145 0.40624085 0.40624034 0.40624025 0.40706661 0.40706673 0.40706626 0.40706536 0.40706447 0.40706387 0.40742832 0.40742856 0.40742829 0.40742701 0.40742618 0.40742567 0.40757057 0.40757087 0.40757081 0.40756989 0.40756911 0.40756842 0.40762374 0.4076241 0.40762424 0.40762347 0.40762293 0.40762225 0.40764275 0.40764326 0.40764335 0.40764269 0.40764219 0.40764156 0.40764832 0.4076488 0.40764877 0.40764821 0.40764782 0.40764716 0.4076384 0.40763882 0.40763891 0.40763843 0.4076378 0.40763724 0.40751442 0.40751487 0.40751478 0.40751421 0.40751368 0.40751311 0.40727067 0.40727106 0.40727103 0.40727046 0.40726984 0.40726942 0.40692127 0.40692142 0.40692136 0.40692079 0.40692019 0.40691969 0.40648481 0.40648493 0.40648484 0.40648419 0.40648368 0.40648335 0.40598419 0.40598416 0.40598395 0.40598351 0.40598291 0.40598258 0.40544322 0.40544316 0.40544304 0.40544248 0.40544218 0.40544188 0.4048858 0.40488565 0.40488553 0.40488508 0.40488485 0.4048847 0.40433332 0.40433308 0.40433297 0.4043327 0.40433261 0.40433234 0.4038038 0.40380377 0.40380353 0.40380338 0.40380335 0.40380314 0.40331143 0.40331155 0.4033117 0.40331158 0.40331146 0.40331149 0.40286672 0.40286681 0.40286693 0.40286702 0.40286702 0.40286699 0.40247515 0.40247524 0.40247527 0.40247542 0.40247554 0.40247551 0.40213898 0.40213916 0.40213904 0.40213928 0.40213925 0.40213943 0.40185714 0.40185708 0.40185723 0.40185735 0.40185741 0.4016259 0.40162596 0.40162602 0.40162602 0.4016262 0.40144059 0.40144053 0.40144068 0.40144068 0.40129513 0.40129516 0.40129516 0.4012953 0.40118343 0.40118343 0.40118352 0.40109944 0.40109938 0.40103742 0.40103754 0.40000001 0.40000001 0.40000001 0.40000001 0.40000001 0.40000001 0.40000001 0.40000001 0.40000001 0.40000001 0.40000001 0.40000001 0.40000001 0.40000001 0.40000001 0.40000001 0.40000001 0.40000001 0.40000001 0.40000001 0.40000001 0.40000001 0.40000001 0.40000001 0.40000001 0.40000001 0.40000001 0.40000001 0.40000001 0.40000001 0.40000001 0.40000001 0.40000001 0.40000001 0.40000001 0.40000001 0.40000001 0.40000001 0.40000001 0.40000001 0.40000001 0.40000001 0.40000001 0.40000001 0.40000001 0.40000001 0.40000001 0.40000001 0.40000001 0.40000001 0.40000001 0.40000001 0.40000001 0.40000001 0.40000001 0.40000001 0.40000001 0.40000001 0.40000001 0.40000001 0.40000001 0.40000001 0.40000001 0.40000001 0.40000001 0.40000001 0.40000001 0.40000001 0.40000001 0.40000001 0.40000001 0.40000001 0.40000001 0.40000001 0.40000001 0.40000001 0.40000001 0.40000001 0.40000001 0.40000001 0.40000001 0.40000001 0.40000001 0.40000001 0.40000001 0.40000001 0.40000001 0.40000001 0.40000001 0.40000001 0.40000001 0.40000001 0.40000001 0.40000001 0.40000001 0.40000001 0.40000001 0.40000001 0.40000001 0.40000001 0.40000001 0.40000001 0.40000001 0.40000001 0.40000001 0.40000001 0.40000001 0.40000001 0.40000001 0.40000001 0.40000001 0.40000001 0.40000001 0.40000001 0.40000001 0.40000001 0.40000001 0.40000001 0.40000001 0.40000001 0.40000001 0.40000001 0.40000001 0.40000001 0.40000001 0.40000001 0.40000001 0.40000001 0.40000001 0.40000001 0.40000001 0.40000001 0.40000001 0.40000001 0.40000001 0.40000001 0.40000001 0.40000001 0.40000001 0.40000001 0.40000001 0.40000001 0.40000001 0.40000001 0.40000001 0.40000001 0.40000001 0.40000001 0.40000001 0.40000001 0.40000001 0.40000001 0.40000001 0.40000001 0.40000001 0.40000001 0.40000001 0.40000001 0.40000001 0.40000001 0.40000001 0.40000001 0.40000001 0.40000001 0.40000001 0.40000001 0.40000001 0.40000001 0.40000001 0.40000001 0.40000001 0.40000001 0.40000001 0.40000001 0.40000001 0.40000001 0.40000001 0.40000001 0.40000001 0.40000001 0.40000001 0.40000001 0.40000001 0.40000001 0.40000001 0.40000001 0.40000001 0.40000001 0.40000001 0.40000001 0.40000001 0.40000001 0.40000001 0.40000001 0.40000001 0.40000001 0.40000001 0.40000001 0.40000001 0.40000001 0.40000001 0.40000001 0.40000001 0.40000001 0.40000001 0.40000001 0.40000001 0.4000006 0.4000006 0.40000069 0.40000066 0.40000057 0.40000057 0.40000054 0.40000057 0.4000006 0.40000185 0.40000185 0.40000182 0.40000176 0.40000185 0.40000173 0.40000182 0.40000182 0.40000173 0.40000418 0.40000412 0.40000412 0.40000412 0.40000412 0.40000409 0.40000409 0.40000418 0.40000424 0.40001142 0.40001163 0.40001157 0.40001151 0.40001148 0.40001148 0.4000116 0.40001154 0.40001145 0.40003082 0.40003103 0.40003076 0.40003088 0.40003091 0.40003097 0.400031 0.40003097 0.40003094 0.40008327 0.40008333 0.4000833 0.40008336 0.40008336 0.4000833 0.40008342 0.40008351 0.40008342 0.40022227 0.40022218 0.40022227 0.4002223 0.40022233 0.4002223 0.40022236 0.40022245 0.40022233 0.40057498 0.40057522 0.40057522 0.40057519 0.40057531 0.40057546 0.40057561 0.40057543 0.40057555 0.40138361 0.40138391 0.40138423 0.40138417 0.40138438 0.40138441 0.4013845 0.40138456 0.40138456 0.40286839 0.40286854 0.40286878 0.40286902 0.40286922 0.40286937 0.40286937 0.40286952 0.40286952 0.40474036 0.40474069 0.40474078 0.40474081 0.4047409 0.40474105 0.40474111 0.40474117 0.40474114 0.40623999 0.40623984 0.40623966 0.40623948 0.40623942 0.40623933 0.40623933 0.40623918 0.40623909 0.40706345 0.4070628 0.4070625 0.40706217 0.40706179 0.40706164 0.40706143 0.40706131 0.40706107 0.40742496 0.40742421 0.40742382 0.40742326 0.40742278 0.4074226 0.40742213 0.40742189 0.4074218 0.40756759 0.40756708 0.40756628 0.4075658 0.40756536 0.40756491 0.40756446 0.40756422 0.40756416 0.40762138 0.40762076 0.40762013 0.40761957 0.407619 0.40761855 0.40761811 0.40761799 0.40761781 0.40764081 0.40764019 0.40763953 0.40763894 0.40763849 0.40763795 0.40763763 0.40763742 0.40763718 0.40764651 0.40764579 0.40764514 0.40764454 0.40764406 0.40764371 0.40764335 0.40764305 0.40764272 0.40763667 0.4076359 0.4076353 0.40763474 0.4076342 0.40763384 0.40763351 0.40763322 0.40763304 0.40751258 0.40751189 0.4075112 0.40751082 0.40751031 0.40750998 0.40750954 0.4075093 0.40750909 0.40726882 0.40726814 0.40726757 0.40726718 0.4072668 0.40726641 0.40726614 0.40726584 0.40726572 0.40691918 0.40691853 0.40691829 0.40691781 0.40691745 0.40691718 0.40691689 0.40691668 0.4069165 0.40648288 0.40648231 0.40648207 0.40648174 0.40648133 0.40648106 0.406481 0.4064807 0.40648073 0.40598217 0.40598196 0.4059816 0.4059813 0.40598115 0.40598094 0.40598071 0.40598065 0.4059805 0.40544155 0.40544134 0.40544114 0.4054409 0.40544084 0.40544066 0.40544054 0.40544051 0.40544048 0.40488455 0.40488422 0.40488413 0.40488395 0.40488389 0.40488383 0.40488374 0.40488377 0.40488356 0.40433231 0.4043321 0.40433204 0.40433201 0.40433192 0.40433198 0.40433177 0.40433171 0.40433177 0.40380305 0.40380311 0.40380293 0.40380287 0.40380296 0.40380287 0.40380284 0.40380284 0.4038029 0.40331146 0.40331131 0.40331128 0.40331131 0.40331125 0.40331137 0.40331125 0.40331125 0.40331122 0.40286702 0.40286687 0.40286678 0.40286681 0.40286684 0.40286678 0.40286684 0.40286678 0.40286678 0.40247554 0.40247554 0.40247548 0.40247551 0.40247539 0.40247548 0.40247548 0.40247545 0.40247542 0.40213946 0.40213948 0.40213954 0.40213948 0.40213934 0.4021394 0.40213937 0.40213946 0.40213931 0.40185732 0.4018575 0.40185747 0.40185738 0.40185729 0.40185738 0.40185735 0.40185735 0.40185744 0.40162617 0.40162641 0.40162626 0.40162638 0.40162629 0.40162626 0.40162638 0.40162623 0.4016262 0.40144092 0.4014408 0.40144092 0.40144086 0.40144077 0.40144086 0.40144083 0.4014408 0.40144074 0.40129533 0.40129545 0.40129548 0.40129539 0.40129527 0.40129539 0.40129527 0.4012953 0.40129527 0.40118355 0.4011834 0.40118363 0.40118361 0.40118355 0.40118355 0.40118343 0.40118358 0.40118355 0.40109938 0.40109941 0.40109941 0.40109938 0.40109941 0.40109935 0.4010995 0.40109941 0.40109938 0.40103745 0.40103742 0.40103734 0.40103742 0.40103748 0.40103742 0.4010374 0.40103745 0.40103745 0.40099281 0.40099266 0.40099275 0.40099272 0.40099272 0.40099269 0.4009926 0.4009926 0.40099266 0.40096113 0.40096104 0.40096107 0.40096113 0.40096101 0.4009611 0.40096113 0.40096104 0.40093917 0.40093914 0.40093899 0.40093914 0.40093914 0.40093908 0.40092403 0.40092412 0.40092418 0.40092412 0.40000001 0.40000001 0.40000001 0.40000001 0.40000001 0.40000001 0.40000001 0.40000001 0.40000001 0.40000001 0.40000001 0.40000001 0.40000001 0.40000001 0.40000001 0.40000001 0.40000001 0.40000001 0.40000001 0.40000001 0.40000001 0.40000001 0.40000001 0.40000001 0.40000001 0.40000001 0.40000001 0.40000001 0.40000001 0.40000001 0.40000001 0.40000001 0.40000001 0.40000001 0.40000001 0.40000001 0.40000001 0.40000001 0.40000001 0.40000001 0.40000001 0.40000001 0.40000001 0.40000001 0.40000001 0.40000001 0.40000001 0.40000001 0.40000001 0.40000001 0.40000001 0.40000001 0.40000001 0.40000001 0.40000001 0.40000001 0.40000001 0.40000001 0.40000001 0.40000001 0.40000001 0.40000001 0.40000001 0.40000001 0.40000001 0.40000001 0.40000001 0.40000001 0.40000001 0.40000001 0.40000001 0.40000001 0.40000001 0.40000001 0.40000001 0.40000001 0.40000001 0.40000001 0.40000001 0.40000001 0.40000001 0.40000001 0.40000001 0.40000001 0.40000001 0.40000001 0.40000001 0.40000001 0.40000001 0.40000001 0.40000001 0.40000001 0.40000001 0.40000001 0.40000001 0.40000001 0.40000001 0.40000001 0.40000001 0.40000001 0.40000001 0.40000001 0.40000001 0.40000001 0.40000001 0.40000001 0.40000001 0.40000001 0.40000001 0.40000001 0.40000001 0.40000001 0.40000001 0.40000001 0.40000001 0.40000001 0.40000001 0.40000001 0.40000001 0.40000001 0.40000001 0.40000001 0.40000001 0.40000001 0.40000001 0.40000001 0.40000001 0.40000001 0.40000001 0.40000001 0.40000001 0.40000001 0.40000001 0.40000001 0.40000001 0.40000001 0.40000001 0.40000001 0.40000001 0.40000001 0.40000001 0.40000001 0.40000001 0.40000001 0.40000001 0.40000001 0.40000001 0.40000001 0.40000001 0.40000001 0.40000001 0.40000001 0.40000001 0.40000001 0.40000001 0.40000001 0.40000001 0.40000001 0.40000001 0.40000001 0.40000001 0.40000001 0.40000001 0.40000001 0.40000001 0.40000001 0.40000001 0.40000001 0.40000001 0.40000001 0.40000001 0.40000001 0.40000001 0.40000001 0.40000001 0.40000001 0.40000001 0.40000001 0.40000001 0.40000001 0.40000001 0.40000001 0.40000001 0.40000001 0.40000063 0.4000006 0.40000057 0.40000054 0.40000057 0.40000057 0.40000066 0.40000069 0.40000182 0.40000173 0.40000182 0.40000182 0.40000173 0.40000185 0.40000176 0.40000182 0.40000424 0.40000424 0.40000418 0.40000409 0.40000409 0.40000412 0.40000412 0.40000412 0.40001148 0.40001145 0.40001154 0.4000116 0.40001148 0.40001148 0.40001151 0.40001157 0.40003103 0.40003094 0.40003097 0.400031 0.40003097 0.40003091 0.40003088 0.40003076 0.40008336 0.40008342 0.40008351 0.40008342 0.4000833 0.40008336 0.40008336 0.4000833 0.40022236 0.40022233 0.40022245 0.40022236 0.4002223 0.40022233 0.4002223 0.40022227 0.40057555 0.40057555 0.40057543 0.40057561 0.40057546 0.40057531 0.40057519 0.40057522 0.4013845 0.40138456 0.40138456 0.4013845 0.40138441 0.40138438 0.40138417 0.40138423 0.40286967 0.40286952 0.40286952 0.40286937 0.40286937 0.40286922 0.40286902 0.40286878 0.4047412 0.40474114 0.40474117 0.40474111 0.40474105 0.4047409 0.40474081 0.40474078 0.40623924 0.40623909 0.40623918 0.40623933 0.40623933 0.40623942 0.40623948 0.40623966 0.4070611 0.40706107 0.40706131 0.40706143 0.40706164 0.40706179 0.40706217 0.4070625 0.4074218 0.4074218 0.40742189 0.40742213 0.4074226 0.40742278 0.40742326 0.40742382 0.40756395 0.40756416 0.40756422 0.40756446 0.40756491 0.40756536 0.4075658 0.40756628 0.40761754 0.40761781 0.40761799 0.40761811 0.40761855 0.407619 0.40761957 0.40762013 0.40763712 0.40763718 0.40763742 0.40763763 0.40763795 0.40763849 0.40763894 0.40763953 0.40764269 0.40764272 0.40764305 0.40764335 0.40764371 0.40764406 0.40764454 0.40764514 0.40763286 0.40763304 0.40763322 0.40763351 0.40763384 0.4076342 0.40763474 0.4076353 0.40750894 0.40750909 0.4075093 0.40750954 0.40750998 0.40751031 0.40751082 0.4075112 0.40726575 0.40726572 0.40726584 0.40726614 0.40726641 0.4072668 0.40726718 0.40726757 0.4069165 0.4069165 0.40691668 0.40691689 0.40691718 0.40691745 0.40691781 0.40691829 0.40648073 0.40648073 0.4064807 0.406481 0.40648106 0.40648133 0.40648174 0.40648207 0.40598056 0.4059805 0.40598065 0.40598071 0.40598094 0.40598115 0.4059813 0.4059816 0.40544042 0.40544048 0.40544051 0.40544054 0.40544066 0.40544084 0.4054409 0.40544114 0.40488362 0.40488356 0.40488377 0.40488374 0.40488383 0.40488389 0.40488395 0.40488413 0.40433177 0.40433177 0.40433171 0.40433177 0.40433198 0.40433192 0.40433201 0.40433204 0.40380287 0.4038029 0.40380284 0.40380284 0.40380287 0.40380296 0.40380287 0.40380293 0.40331113 0.40331122 0.40331125 0.40331125 0.40331137 0.40331125 0.40331131 0.40331128 0.40286675 0.40286678 0.40286678 0.40286684 0.40286678 0.40286684 0.40286681 0.40286678 0.40247539 0.40247542 0.40247545 0.40247548 0.40247548 0.40247539 0.40247551 0.40247548 0.40213948 0.40213931 0.40213946 0.40213937 0.4021394 0.40213934 0.40213948 0.40213954 0.40185723 0.40185744 0.40185735 0.40185735 0.40185738 0.40185729 0.40185738 0.40185747 0.40162617 0.4016262 0.40162623 0.40162638 0.40162626 0.40162629 0.40162638 0.40162626 0.40144083 0.40144074 0.4014408 0.40144083 0.40144086 0.40144077 0.40144086 0.40144092 0.40129536 0.40129527 0.4012953 0.40129527 0.40129539 0.40129527 0.40129539 0.40129548 0.4011834 0.40118355 0.40118358 0.40118343 0.40118355 0.40118355 0.40118361 0.40118363 0.40109935 0.40109938 0.40109941 0.4010995 0.40109935 0.40109941 0.40109938 0.40109941 0.40103737 0.40103745 0.40103745 0.4010374 0.40103742 0.40103748 0.40103742 0.40103734 0.40099269 0.40099266 0.4009926 0.4009926 0.40099269 0.40099272 0.40099272 0.40099275 0.40096104 0.40096104 0.40096113 0.4009611 0.40096101 0.40096113 0.40096107 0.40096104 0.40093914 0.40093908 0.40093914 0.40093914 0.40093899 0.40093914 0.40093917 0.40092418 0.40092412 0.40092418 0.40092412 0.40092403 0.40000001 0.40000001 0.40000001 0.40000001 0.40000001 0.40000001 0.40000001 0.40000001 0.40000001 0.40000001 0.40000001 0.40000001 0.40000001 0.40000001 0.40000001 0.40000001 0.40000001 0.40000001 0.40000001 0.40000001 0.40000001 0.40000001 0.40000001 0.40000001 0.40000001 0.40000001 0.40000001 0.40000001 0.40000001 0.40000001 0.40000001 0.40000001 0.40000001 0.40000001 0.40000001 0.40000001 0.40000001 0.40000001 0.40000001 0.40000001 0.40000001 0.40000001 0.40000001 0.40000001 0.40000001 0.40000001 0.40000001 0.40000001 0.40000001 0.40000001 0.40000001 0.40000001 0.40000001 0.40000001 0.40000001 0.40000001 0.40000001 0.40000001 0.40000001 0.40000001 0.40000001 0.40000001 0.40000001 0.40000001 0.40000001 0.40000001 0.40000001 0.40000001 0.40000001 0.40000001 0.40000001 0.40000001 0.40000001 0.40000001 0.40000001 0.40000001 0.40000001 0.40000001 0.40000001 0.40000001 0.40000001 0.40000001 0.40000001 0.40000001 0.40000001 0.40000001 0.40000001 0.40000001 0.40000001 0.40000001 0.40000001 0.40000001 0.40000001 0.40000001 0.40000001 0.40000001 0.40000001 0.40000001 0.40000001 0.40000001 0.40000001 0.40000001 0.40000001 0.40000001 0.40000001 0.40000001 0.40000001 0.40000001 0.40000001 0.40000001 0.40000001 0.40000001 0.40000001 0.40000001 0.40000001 0.40000001 0.40000001 0.40000001 0.40000001 0.40000001 0.40000001 0.40000001 0.40000001 0.40000001 0.40000001 0.40000001 0.40000001 0.40000001 0.40000001 0.40000001 0.40000001 0.40000001 0.40000001 0.40000001 0.40000001 0.40000001 0.40000001 0.40000001 0.40000001 0.40000001 0.40000001 0.40000001 0.40000001 0.40000001 0.40000001 0.40000001 0.40000001 0.40000001 0.40000001 0.40000001 0.40000001 0.40000001 0.40000001 0.40000001 0.40000001 0.40000001 0.40000001 0.40000001 0.40000001 0.40000001 0.40000001 0.40000001 0.40000001 0.40000001 0.40000001 0.40000001 0.40000001 0.40000001 0.40000001 0.40000001 0.40000001 0.40000001 0.40000001 0.40000001 0.40000001 0.40000001 0.40000001 0.40000001 0.40000001 0.40000001 0.40000001 0.40000001 0.40000001 0.4000006 0.4000006 0.40000069 0.40000063 0.40000054 0.40000066 0.40000066 0.40000054 0.40000185 0.40000185 0.40000176 0.40000176 0.40000173 0.40000185 0.4000017 0.40000179 0.40000412 0.40000418 0.40000424 0.40000412 0.40000424 0.40000418 0.40000424 0.40000415 0.40001163 0.40001142 0.40001148 0.40001145 0.40001151 0.40001136 0.40001145 0.40001148 0.40003103 0.40003082 0.40003097 0.400031 0.40003097 0.40003091 0.40003088 0.40003091 0.40008333 0.40008327 0.40008327 0.40008342 0.40008327 0.40008315 0.40008324 0.40008318 0.40022218 0.40022227 0.40022227 0.40022209 0.40022212 0.40022209 0.400222 0.40022191 0.40057522 0.40057498 0.40057498 0.40057504 0.40057486 0.40057459 0.40057451 0.40057421 0.40138391 0.40138361 0.40138352 0.4013834 0.4013831 0.40138277 0.4013823 0.40138176 0.40286854 0.40286839 0.402868 0.40286776 0.40286735 0.4028669 0.40286633 0.40286544 0.40474069 0.40474036 0.40474039 0.40474015 0.40473998 0.40473992 0.40473962 0.40473866 0.40623984 0.40623999 0.40624025 0.40624034 0.40624085 0.40624145 0.40624163 0.40624112 0.4070628 0.40706345 0.40706387 0.40706447 0.40706536 0.40706626 0.40706673 0.40706661 0.40742421 0.40742496 0.40742567 0.40742618 0.40742701 0.40742829 0.40742856 0.40742832 0.40756708 0.40756759 0.40756842 0.40756911 0.40756989 0.40757081 0.40757087 0.40757057 0.40762076 0.40762138 0.40762225 0.40762293 0.40762347 0.40762424 0.4076241 0.40762374 0.40764019 0.4076409 0.40764156 0.40764219 0.40764269 0.40764335 0.40764326 0.40764275 0.40764579 0.40764651 0.40764716 0.40764782 0.40764821 0.40764877 0.4076488 0.40764832 0.4076359 0.40763667 0.40763724 0.4076378 0.40763843 0.40763891 0.40763882 0.4076384 0.40751189 0.40751258 0.40751311 0.40751368 0.40751421 0.40751478 0.40751487 0.40751442 0.40726814 0.40726882 0.40726942 0.40726984 0.40727046 0.40727103 0.40727106 0.40727067 0.40691853 0.40691918 0.40691969 0.40692019 0.40692079 0.40692136 0.40692142 0.40692127 0.40648231 0.40648288 0.40648335 0.40648368 0.40648419 0.40648484 0.40648493 0.40648481 0.40598196 0.40598217 0.40598258 0.40598291 0.40598351 0.40598395 0.40598416 0.40598419 0.40544134 0.40544155 0.40544188 0.40544218 0.40544248 0.40544304 0.40544316 0.40544322 0.40488422 0.40488455 0.4048847 0.40488485 0.40488508 0.40488553 0.40488565 0.4048858 0.4043321 0.40433231 0.40433234 0.40433261 0.4043327 0.40433297 0.40433308 0.40433332 0.40380311 0.40380305 0.40380314 0.40380335 0.40380338 0.40380353 0.40380377 0.4038038 0.40331131 0.40331146 0.40331149 0.40331146 0.40331158 0.4033117 0.40331155 0.40331143 0.40286687 0.40286702 0.40286699 0.40286702 0.40286702 0.40286693 0.40286681 0.40286672 0.40247554 0.40247554 0.40247551 0.40247554 0.40247542 0.40247527 0.40247524 0.40247515 0.40213948 0.40213946 0.40213943 0.40213925 0.40213928 0.40213904 0.40213916 0.40213898 0.4018575 0.40185732 0.40185741 0.40185735 0.40185723 0.40185708 0.40185714 0.40162641 0.40162617 0.4016262 0.40162602 0.40162602 0.40162596 0.4016259 0.4014408 0.40144092 0.40144068 0.40144068 0.40144053 0.40144059 0.40129545 0.40129533 0.4012953 0.40129516 0.40129516 0.40129513 0.4011834 0.40118355 0.40118352 0.40118343 0.40118343 0.40109941 0.40109938 0.40109938 0.40109944 0.40103742 0.40103745 0.40103754 0.40103742 0.40099266 0.40099281 0.40096113 
Press 1 2975 float
0.0 0.0 0.0 0.0 0.0 0.0 0.0 0.0 0.0 0.0 0.0 0.0 0.0 0.0 0.0 0.0 0.0 0.0 0.0 0.0 0.0 0.09876262400000001 0.29628786 0.09876262400000001 0.3950505 0.79010099 0.29628786 0.69133836 1.580202 0.49381313 1.3826767 2.5678282 0.88886362 2.0740151 3.7529797999999994 1.1851515 2.8641162000000002 5.0368938 1.580202 3.5554544999999997 6.4195704000000005 1.9752525 4.4443183 7.7034845 2.3703029 5.3331819000000005 9.3824492 3.0616415 6.617095900000001 11.555227 3.8517422999999997 8.4935856 14.913157 5.2344189000000005 11.65399 20.3451 7.802247500000001 16.592121 28.443635999999998 12.147802 24.09808 40.196388 34.863205 55.109543 0.0 0.0 0.0 0.0 0.0 0.0 0.0 0.0 0.0 0.0 0.0 0.0 0.0 0.0 0.0 0.0 0.0 0.0 0.0 0.0 0.0 0.0 0.0 0.0 0.0 0.0 0.0 0.0 0.0 0.0 0.0 0.0 0.0 0.0 0.0 0.0 0.0 0.0 0.0 0.0 0.0 0.0 0.19752525 0.19752525 0.29628786 0.3950505 0.3950505 0.49381313 0.19752525 0.3950505 0.59257573 0.88886362 1.0863888000000002 1.2839141 1.3826767 1.580202 0.69133836 1.0863888000000002 1.580202 2.1727777 2.7653534 3.160404 3.4566917 3.7529797999999994 1.3826767 2.2715403999999997 3.3579292 4.4443183 5.3331819000000005 6.222045400000001 7.0121465 7.5059595 2.6665909 3.950505 5.6294694000000005 7.407197 9.1849241 10.468838 11.65399 12.444091 4.2467928 6.4195704000000005 8.8886366 11.357700999999999 13.728004 15.703257999999998 17.283459 18.369848 6.0245199000000005 8.8886366 12.04904 7.90101 11.456465 9.8762627 14.123054999999999 11.950277 16.888409 14.32058 20.443863 17.777273 25.184469 22.91293 32.097854999999996 30.912701000000002 42.566691999999996 42.86298 57.874897 59.553864000000004 78.713814 80.195251 104.58962 0.0 0.0 0.0 0.0 0.0 0.0 0.0 0.0 0.0 0.0 0.0 0.0 0.0 0.0 0.0 0.0 0.0 0.0 0.0 0.0 0.0 0.0 0.0 0.0 0.0 0.0 0.0 0.0 0.0 0.0 0.0 0.0 0.0 0.0 0.0 0.0 0.0 0.0 0.0 0.0 0.0 0.0 0.0 0.0 0.0 0.49381313 0.49381313 0.49381313 0.49381313 0.49381313 0.49381313 0.49381313 0.49381313 0.49381313 1.580202 1.6789646 1.6789646 1.6789646 1.7777272000000002 1.7777272000000002 1.7777272000000002 1.7777272000000002 1.7777272000000002 3.950505 4.1480303 4.1480303 4.4443183 4.4443183 4.4443183 4.4443183 4.543080799999999 4.543080799999999 7.802247500000001 8.197298 8.3948231 8.5923481 8.6911106 8.6911106 8.6911106 8.6911106 8.6911106 13.135429 13.728004 13.925529999999998 14.221817999999999 14.419343 14.518106 14.518106 14.518106 14.518106 19.456238 19.95005 20.3451 20.641388 20.937675 21.036438 21.135202 21.135202 21.233964999999998 0.0 0.0 0.0 0.0 0.0 0.0 0.0 0.0 0.0 0.0 0.0 0.0 0.0 0.0 0.0 0.0 0.0 0.0 0.0 0.0 0.0 0.0 0.0 0.0 0.0 0.0 0.0 0.0 0.0 0.0 0.0 0.0 0.0 0.0 0.0 0.0 0.0 0.0 0.0 0.0 0.49381313 0.49381313 0.49381313 0.49381313 0.49381313 0.49381313 0.49381313 0.49381313 1.7777272000000002 1.7777272000000002 1.7777272000000002 1.7777272000000002 1.7777272000000002 1.7777272000000002 1.6789646 1.6789646 4.543080799999999 4.543080799999999 4.543080799999999 4.4443183 4.4443183 4.4443183 4.4443183 4.1480303 8.6911106 8.6911106 8.6911106 8.6911106 8.6911106 8.6911106 8.5923481 8.3948231 14.518106 14.518106 14.518106 14.518106 14.518106 14.419343 14.221817999999999 13.925529999999998 21.233964999999998 21.233964999999998 21.135202 21.135202 21.036438 20.937675 20.641388 20.3451 0.0 0.0 0.0 0.0 0.0 0.0 0.0 0.0 0.0 0.0 0.0 0.0 0.0 0.0 0.0 0.0 0.0 0.0 0.0 0.0 0.0 0.0 0.0 0.0 0.0 0.0 0.0 0.0 0.0 0.0 0.0 0.0 0.0 0.0 0.0 0.0 0.0 0.0 0.0 0.0 0.0 0.0 0.0 0.0 0.0 0.49381313 0.49381313 0.49381313 0.3950505 0.3950505 0.29628786 0.19752525 0.19752525 0.0 1.6789646 1.580202 1.580202 1.3826767 1.2839141 1.0863888000000002 0.88886362 0.59257573 0.3950505 4.1480303 3.950505 3.7529797999999994 3.4566917 3.160404 2.7653534 2.1727777 1.580202 1.0863888000000002 8.197298 7.802247500000001 7.5059595 7.0121465 6.222045400000001 5.3331819000000005 4.4443183 3.3579292 2.2715403999999997 13.728004 13.135429 12.444091 11.65399 10.468838 9.1849241 7.407197 5.6294694000000005 3.950505 19.95005 19.456238 18.369848 17.283459 15.703257999999998 13.728004 11.357700999999999 8.8886366 6.4195704000000005 12.04904 8.8886366 11.456465 14.123054999999999 16.888409 20.443863 25.184469 32.097854999999996 42.566691999999996 57.874897 78.713814 104.58962 0.0 0.0 0.0 0.0 0.0 0.0 0.0 0.0 0.0 0.0 0.0 0.0 0.0 0.0 0.0 0.0 0.0 0.0 0.0 0.0 0.0 0.0 0.0 0.19752525 0.0 0.0 0.0 0.69133836 0.29628786 0.09876262400000001 0.0 1.3826767 0.79010099 0.3950505 0.09876262400000001 2.6665909 1.580202 0.69133836 0.29628786 4.2467928 2.5678282 1.3826767 0.49381313 6.0245199000000005 3.7529797999999994 2.0740151 0.88886362 7.90101 5.0368938 2.8641162000000002 1.1851515 9.8762627 6.4195704000000005 3.5554544999999997 1.580202 11.950277 7.7034845 4.4443183 1.9752525 14.32058 9.3824492 5.3331819000000005 2.3703029 17.777273 11.555227 6.617095900000001 3.0616415 22.91293 14.913157 8.4935856 3.8517422999999997 30.912701000000002 20.3451 11.65399 5.2344189000000005 42.86298 28.443635999999998 16.592121 7.802247500000001 59.553864000000004 40.196388 24.09808 12.147802 80.195251 55.109543 34.863205 0.0 0.0 0.0 0.0 0.0 0.0 0.0 0.0 0.0 0.0 0.0 0.0 0.0 0.0 0.0 0.0 0.0 0.0 0.0 0.0 0.0 0.0 0.0 0.0 0.0 0.0 0.0 0.0 0.0 0.0 0.0 0.0 0.0 0.0 0.0 0.0 0.0 0.0 0.0 0.0 0.0 0.0 0.0 0.0 0.0 0.0 0.0 0.0 0.0 0.0 0.0 0.0 0.0 0.0 0.0 0.0 0.0 0.0 0.0 0.0 0.0 0.0 0.0 0.0 0.0 0.0 0.0 0.0 0.0 0.0 0.0 0.0 0.0 0.0 0.0 0.0 0.0 0.0 0.0 0.0 0.0 0.0 0.0 0.0 0.0 0.0 0.0 0.0 0.0 0.0 0.0 0.0 0.0 0.0 0.0 0.0 0.0 0.0 0.0 0.0 0.0 0.0 0.0 0.0 0.0 0.0 0.0 0.0 0.0 0.0 0.0 0.0 0.0 0.0 0.0 0.0 0.0 0.0 0.0 0.0 0.0 0.0 0.0 0.0 0.0 0.0 0.0 0.0 0.0 0.0 0.0 0.0 0.0 0.0 0.0 0.0 0.0 0.0 0.0 0.0 0.0 0.0 0.0 0.0 0.0 0.0 0.0 0.0 0.0 0.0 0.0 0.0 0.0 0.0 0.0 0.0 0.0 0.0 0.0 0.0 0.0 0.0 0.0 0.0 0.0 0.0 0.0 0.0 0.0 0.0 0.0 0.0 0.0 0.0 0.0 0.0 0.0 0.0 0.0 0.0 0.0 0.0 0.0 0.0 0.0 0.0 0.0 0.0 0.0 0.0 0.0 0.0 0.0 0.0 0.0 0.0 0.0 0.0 0.0 0.0 0.0 0.0 0.0 0.0 0.0 0.0 0.0 0.0 0.0 0.0 0.0 0.0 0.0 0.0 0.0 0.0 0.0 0.0 0.0 0.0 0.0 0.0 0.0 0.0 0.0 0.0 0.0 0.0 0.0 0.0 0.0 0.0 0.0 0.0 0.0 0.0 0.0 0.0 0.0 0.0 0.0 0.0 0.0 0.0 0.0 0.0 0.0 0.0 0.0 0.0 0.0 0.0 0.0 0.0 0.0 0.0 0.0 0.0 0.0 0.0 0.0 0.0 0.0 0.0 0.0 0.0 0.0 0.0 0.0 0.0 0.0 0.0 0.0 0.0 0.0 0.0 0.0 0.0 0.0 0.0 0.0 0.0 0.0 0.0 0.0 0.0 0.0 0.0 0.0 0.0 0.0 0.0 0.0 0.0 0.0 0.0 0.0 0.0 0.0 0.0 0.0 0.0 0.0 0.0 0.0 0.0 0.0 0.0 0.0 0.0 0.0 0.0 0.0 0.0 0.0 0.0 0.0 0.0 0.0 0.0 0.0 0.0 0.0 0.0 0.0 0.0 0.0 0.0 0.0 0.0 0.0 0.0 0.0 0.0 0.0 0.0 0.0 0.0 0.0 0.0 0.0 0.0 0.0 0.0 0.0 0.0 0.0 0.0 0.0 0.0 0.0 0.0 0.0 0.0 0.0 0.0 0.0 0.0 0.0 0.0 0.0 0.0 0.0 0.0 0.0 0.0 0.0 0.0 0.0 0.0 0.0 0.0 0.0 0.0 0.0 0.0 0.0 0.0 0.0 0.0 0.0 0.0 0.0 0.0 0.0 0.0 0.0 0.0 0.0 0.0 0.0 0.0 0.0 0.0 0.0 0.0 0.0 0.0 0.0 0.0 0.0 0.0 0.0 0.0 0.0 0.0 0.0 0.0 0.0 0.0 0.0 0.0 0.0 0.0 0.0 0.0 0.0 0.0 0.0 0.0 0.0 0.0 0.0 0.0 0.0 0.0 0.0 0.0 0.0 0.0 0.0 0.0 0.0 0.0 0.0 0.0 0.0 0.0 0.0 0.0 0.0 0.0 0.0 0.0 0.0 0.0 0.0 0.0 0.0 0.0 0.0 0.0 0.0 0.0 0.0 0.0 0.0 0.0 0.0 0.0 0.0 0.0 0.0 0.0 0.0 0.0 0.0 0.0 0.0 0.0 0.0 0.0 15.406969 18.271085999999997 20.838913 22.814167 24.196842 15.308207000000001 19.357473000000002 22.814167 25.579519 27.851060999999998 29.431261 18.567373 23.30798 27.258484000000003 30.517651 32.887955 34.66568 22.22159 27.851060999999998 32.394141999999995 35.949596 38.616184000000004 40.492676 26.863434 33.184242 38.319897 42.467929999999996 45.430805 47.208534 32.887955 40.492676 46.418434000000005 50.665226000000004 53.825630000000004 55.800883999999996 42.665455 50.763988 57.183558999999995 61.232826 64.195709 66.368484 57.973659999999995 66.368484 71.504143 74.960831 77.331131 78.812576 81.281639 88.590073 90.960373 92.244293 93.133156 94.022018 114.16958999999999 117.13247 115.05846000000001 112.68816000000001 111.60177 111.30548 153.57588 150.31671 142.11942 135.79861 132.34192 131.25552 187.84651000000002 182.21704 169.47666999999998 160.09421 155.35361 153.47711 201.77203 205.0312 194.16731000000001 185.08116 180.14302 178.26654 209.37673999999998 220.93197999999998 217.179 210.75942999999998 207.40149 206.21634 226.06762999999998 239.89439 242.56099 239.79564 238.51172000000003 238.0179 255.69637999999998 268.93057000000005 274.06622000000004 274.16497999999996 274.16497999999996 274.46127 297.37421 308.7319 314.06506 315.15146 315.94156 316.6329 348.43442000000005 357.91565 362.5575 363.44635 364.43396 365.22406 406.90182000000004 415.49417 419.34592000000004 419.83972 420.72857999999997 421.32117 473.86279 482.35635 485.418 485.31924000000004 485.81305 486.01059000000004 551.78632 560.18115 562.25513 561.1687599999999 561.0700099999999 560.47742 642.84521 650.54865 651.73383 649.26477 647.58582 645.5117799999999 748.3233 755.4341400000001 755.4341400000001 750.49603 746.34802 741.70618 870.29443 876.7139900000001 875.43005 866.6402 858.04785 849.75183 1006.9808 1014.1905 1011.0301 995.0305800000001 979.9199199999999 966.38953 1153.7405 1163.3204 1156.3083 1128.9512 1104.7545 1084.4094 1304.7462 1319.363 1304.7462 1259.9082 1224.6501 1197.3918 1452.5905 1473.0342 1444.1957 1377.0376 1329.9282 1296.8429 1604.9763 1630.0618 1579.8907 1487.7461 1431.1556 1396.5891 1818.9867 1845.1584 1771.9763 1659.1908 1599.3414 1569.9105 2279.7971 2303.1045 2222.1206 2104.6938 2051.7581 2036.7465 3386.2939 3410.7864 3365.9492 3275.781 3242.4001 3249.8071 5516.9043 5560.1606 5585.542 5586.8257 5596.0107 5631.2676 8147.6699 8231.7129 8307.8564 8437.5254 8521.667 8591.7861 9953.1221 10081.803 10162.389000000001 10369.284 10527.888 10631.78 10577.942 10694.178 10722.026000000002 10948.471000000001 11142.524 11267.448999999999 10579.332 10687.466999999999 10654.878 10827.3 11008.017 11130.963 10514.952 10648.363000000001 10591.188 10681.542 10799.152 10887.434 10599.348 10749.833999999999 10685.947 10709.546999999999 10769.681999999999 10822.903999999999 10815.166000000001 10970.677 10911.83 10898.105 10923.382 10953.596000000001 11069.89 11221.733 11172.271 11150.155 11165.458 11187.277 11276.923 11421.641000000001 11378.995 11372.184 11397.257 11423.614 11237.945 11375.827 11338.913 11350.066 11392.014 11430.111 10972.162 11106.756000000001 11078.236 11105.963 11166.255 11219.839 10546.146 10680.697 10666.883999999998 10711.669 10790.094 10860.923999999999 10013.02 10151.359 10161.514000000001 10224.423 10320.171 10408.524 9398.168 9544.4141 9582.9443 9667.9932 9779.9492 9882.0547 8705.9932 8862.7637 8928.7402 9037.166 9159.4805 9273.1348 7939.5874 8106.9238 8196.4463 8317.3584 8449.1992 8570.418 7115.0513 7291.7905 7394.2617 7518.8501 7659.3613 7783.5649 6273.0391 6456.0332 6553.3242 6678.3809 6822.2729 6945.3745 5459.0601 5640.8389 5724.0117 5842.6094 5981.856 6100.458 4692.459 4869.3779 4949.8574 5055.5015 5182.2134 5291.7598 3960.1902 4149.0894 4247.979 4347.2578 4457.7031 4551.8325 3269.0488 3508.9197 3643.8499 3737.845 3825.2698 3898.5959 2967.6995 3143.9739 3224.4302 3288.6899 3337.9009 2507.342 2701.8921 2790.4788 2839.4094 2868.6973 2276.2698 2396.7817 2448.9316 2480.4805 1885.318 1993.978 2084.6033 2141.4348 1619.2599 1717.1873 1809.3639 1375.5758 1462.0162 1203.9449 1158.6958 25.381994 26.172096 26.665909000000003 27.159721 27.258484000000003 27.456009 27.554771000000002 27.554771000000002 27.554771000000002 30.616413 31.60404 32.196616999999996 32.69043 32.887955 33.08548 33.08548 33.08548 33.08548 35.949596 36.739697 37.529796999999995 37.826084 38.221134 38.221134 38.221134 38.221134 38.221134 41.677826 42.566691999999996 43.159267 43.356792 43.653079999999996 43.653079999999996 43.554317 43.455555 43.455555 48.591209 49.282551 49.776363 49.875126 49.973888 49.776363 49.776363 49.776363 49.677601 56.986034 57.677372 57.973659999999995 57.973659999999995 57.973659999999995 57.776134 57.578609 57.479847 57.381083999999994 67.35611 67.84992199999999 68.04744699999999 67.84992199999999 67.454872 67.158585 66.763535 66.56600999999999 66.467247 79.800201 79.997726 79.800201 79.405151 78.911339 78.516289 78.121239 77.726189 77.627426 94.219543 94.417068 93.92325600000001 93.33068100000001 92.540581 91.948006 91.15790600000001 90.86161 90.664085 111.30548 110.91042 110.21909 109.1327 108.24383999999999 107.25621000000001 106.56487 105.9723 105.77476999999999 130.76172 129.97162 128.88522 127.70007 126.3174 125.32977 124.53967 123.84833 123.45328 152.68701000000001 151.79816 150.41548 148.83528 147.25507 146.06992 145.08229 144.39096 143.89713999999998 177.47644 176.48882 175.00737 173.22964 171.55067 170.168 168.98285 168.19275 167.60017 205.72253 204.73491 203.15471000000002 201.37697 199.40171999999998 197.72276000000002 196.53761 195.64874 195.05617 237.72162000000003 237.03027000000003 235.35132000000002 233.37607000000003 231.30205 229.3268 228.04287999999997 227.05525 226.46267999999998 274.56003 273.57242 272.09097 270.01697 267.94293 265.96768 264.28873 263.10357999999997 262.51099 316.6329 315.8428 314.16385 311.8923 309.42322 307.34921 305.5715 304.28757 303.69501 365.22406 364.33521 362.35995 359.8909 357.02676 354.854 352.78 351.1998 350.4097 421.12363 419.83972 417.46942 414.30902000000003 411.04987 408.28452000000004 405.81543 404.13647000000003 403.14883 485.418 483.34399 480.18359000000004 476.03555 472.18380999999994 468.5296 465.56674000000004 463.39395 462.11005 558.8972200000001 555.63806 551.09497 545.8606 540.6261599999999 536.08307 532.13257 529.36725 527.78705 642.35138 637.3145099999999 630.99371 623.78406 616.7719099999999 610.64862 605.71051 602.05627 599.68597 735.87921 728.47198 719.38586 709.6084 700.22595 692.2262 685.80664 680.96729 677.9056400000001 840.5668900000001 829.40674 816.56763 803.23474 790.98816 780.4205900000001 772.0258200000001 765.80377 762.14954 952.1677199999999 936.46454 918.9835800000001 901.1076 885.1080900000001 871.6763900000001 861.1088300000001 853.50415 848.8623 1064.657 1042.9293 1019.6214 997.10364 976.85736 960.16656 947.52496 938.1425800000001 933.0069 1171.5161 1143.9615 1114.6292 1086.3832 1061.989 1042.2366 1027.2247 1016.6572 1010.6327 1266.7206 1234.4254 1199.9575 1166.8722 1138.6263 1116.2074 1099.6154 1087.9614 1081.2456 1366.0718 1332.6903 1295.9509 1259.8042 1229.188 1204.8927 1187.3131 1175.4617 1168.4496 1546.109 1517.567 1483.4944 1448.5328 1417.7192 1393.7202 1376.6345 1365.3757 1358.66 2027.8579 2012.3524 1987.366 1958.5277 1931.9611 1910.8263 1896.1108 1886.6298 1881.2968 3264.325 3269.3616 3261.5593 3245.2639 3227.2896 3212.8706 3203.2908 3197.3652 3194.4023 5674.5244 5706.3247 5721.04 5722.7188 5718.9663 5715.312 5713.4355 5713.9292 5714.6206 8663.2871 8722.6406 8761.749 8784.0684 8797.6973 8808.4619 8818.6338 8827.3242 8833.25 10724.907 10805.098 10865.438 10908.298999999999 10941.185 10968.442 10992.438999999998 11011.598999999998 11023.845 11371.241000000002 11462.49 11536.753999999999 11596.6 11647.162 11691.8 11730.808 11761.617 11781.468 11232.48 11324.123 11404.704 11476.3 11541.573999999999 11601.912 11655.238000000001 11697.208 11723.97 10969.69 11052.442 11132.231000000002 11208.86 11283.613000000001 11354.71 11418.601 11469.062 11501.253 10884.618999999999 10954.925 11028.489 11103.83 11180.851 11256.488000000001 11325.41 11380.016000000001 11414.971000000001 10999.805 11059.146 11124.51 11194.515 11268.567 11343.113000000001 11411.736 11466.732 11501.784 11226.572 11279.589 11338.332 11402.208999999999 11470.923999999999 11541.12 11606.083 11658.409 11691.878 11464.383999999998 11516.704 11572.775 11632.104 11695.578000000001 11760.533000000001 11820.947 11869.516000000001 11900.413999999999 11478.376 11535.228000000001 11591.883 11649.03 11708.743999999999 11769.346000000001 11825.506000000001 11870.413999999999 11898.938 11279.638 11343.385 11402.888 11460.123 11517.652 11575.083 11627.678999999998 11669.617 11695.964 10933.925 11005.545 11068.485 11125.603000000001 11181.34 11235.695 11285.12 11324.087 11348.749 10494.021 10571.925 10636.415 10691.54 10744.002 10794.392 10839.851999999999 10875.943000000001 10898.426000000001 9977.3613 10057.588 10119.287 10169.258 10215.877 10260.229 10300.638 10332.374 10352.185 9372.707 9450.416 9505.4727 9547.5293 9585.5479 9622.6787 9656.5586 9683.9375 9700.582 8669.8936 8741.9189 8788.5605 8821.624 8851.1436 8880.7617 8908.3125 8930.8447 8944.8174 7881.1416 7947.1787 7986.6855 8012.2393 8034.4512 8057.8398 8080.6392 8099.2104 8111.0034 7040.916 7103.6001 7139.1152 7160.3101 7178.4619 7197.5933 7216.5264 7232.4185 7242.6201 6193.7183 6256.4507 6292.1768 6313.5176 6330.5513 6347.6812 6364.5151 6378.4121 6387.7095 5380.9214 5445.6987 5486.5786 5512.1445 5531.0762 5547.8594 5563.5669 5576.5425 5584.7378 4632.3623 4698.9053 4747.771 4781.5815 4805.4829 4824.1377 4839.4883 4851.6323 4859.21 3964.9639 4028.719 4085.7109 4130.2427 4162.6035 4185.499 4202.2119 4214.0938 4221.2432 3384.0383 3438.696 3498.6177 3554.0308 3597.3638 3628.2346 3649.0398 3662.3674 3669.7505 2891.9028 2929.9001 2984.3982 3044.9614 3099.447 3141.1179 3169.5007 3187.1575 3196.5562 2487.8538 2504.2993 2543.5879 2598.9788 2657.4536 2708.3359 2746.0994 2770.7441 2784.1448 2161.97 2163.6951 2180.6052 2219.2461 2270.3159 2321.4702 2364.3279 2395.1108 2413.0828 1872.1473 1895.1464 1897.7383 1911.9493 1942.6575 1982.1082 2020.2887 2050.7942 2070.2888 1571.5039 1643.1301 1674.152 1677.9086 1682.6987 1698.7256 1721.3354 1743.0592 1758.5363 1261.8457 1359.3962 1436.7856 1476.7996 1484.1012 1479.4606 1479.4877 1484.6982 1490.8383 1067.8595 1109.0725 1165.7126 1223.0182 1268.7661 1290.4777 1292.4889 1287.8391 1284.8173 1018.117 995.69012 998.4039300000001 1012.1959 1031.4857 1049.043 1058.2627 1060.5565 944.5163 898.30981 880.2764900000001 854.89093 828.8236099999999 808.2211900000001 910.68567 885.68109 856.32166 829.52325 27.554771000000002 27.554771000000002 27.554771000000002 27.554771000000002 27.456009 27.258484000000003 27.159721 26.665909000000003 33.08548 33.08548 33.08548 33.08548 33.08548 32.887955 32.69043 32.196616999999996 38.221134 38.221134 38.221134 38.221134 38.221134 38.221134 37.826084 37.529796999999995 43.455555 43.455555 43.455555 43.554317 43.653079999999996 43.653079999999996 43.356792 43.159267 49.578838 49.677601 49.776363 49.776363 49.776363 49.973888 49.875126 49.776363 57.381083999999994 57.381083999999994 57.479847 57.578609 57.776134 57.973659999999995 57.973659999999995 57.973659999999995 66.368484 66.467247 66.56600999999999 66.763535 67.158585 67.454872 67.84992199999999 68.04744699999999 77.429893 77.627426 77.726189 78.121239 78.516289 78.911339 79.405151 79.800201 90.46656 90.664085 90.86161 91.15790600000001 91.948006 92.540581 93.33068100000001 93.92325600000001 105.57725 105.77476999999999 105.9723 106.56487 107.25621000000001 108.24383999999999 109.1327 110.21909 123.35452 123.45328 123.84833 124.53967 125.32977 126.3174 127.70007 128.88522 143.79838999999998 143.89713999999998 144.39096 145.08229 146.06992 147.25507 148.83528 150.41548 167.40265 167.60017 168.19275 168.98285 170.168 171.55067 173.22964 175.00737 194.85863999999998 195.05617 195.64874 196.53761 197.72276000000002 199.40171999999998 201.37697 203.15471000000002 226.26515 226.46267999999998 227.05525 228.04287999999997 229.3268 231.30205 233.37607000000003 235.35132000000002 262.31347999999997 262.51099 263.10357999999997 264.28873 265.96768 267.94293 270.01697 272.09097 303.29996 303.69501 304.28757 305.5715 307.34921 309.42322 311.8923 314.16385 350.1134 350.4097 351.1998 352.78 354.854 357.02676 359.8909 362.35995 402.65502999999995 403.14883 404.13647000000003 405.81543 408.28452000000004 411.04987 414.30902000000003 417.46942 461.61620999999997 462.11005 463.39395 465.56674000000004 468.5296 472.18380999999994 476.03555 480.18359000000004 527.1944599999999 527.78705 529.36725 532.13257 536.08307 540.6261599999999 545.8606 551.09497 598.99463 599.68597 602.05627 605.71051 610.64862 616.7719099999999 623.78406 630.8949 677.0167799999999 677.9056400000001 680.96729 685.80664 692.2262 700.22595 709.6084 719.38586 760.96442 762.14954 765.80377 772.0258200000001 780.4205900000001 790.98816 803.23474 816.56763 847.47968 848.8623 853.50415 861.1088300000001 871.6763900000001 885.1080900000001 901.1076 918.9835800000001 931.13043 933.0069 938.1425800000001 947.52496 960.16656 976.85736 997.10364 1019.6214 1008.4599 1010.6327 1016.6572 1027.2247 1042.2366 1061.989 1086.3832 1114.6292 1078.9741 1081.2456 1087.9614 1099.6154 1116.2074 1138.6263 1166.8722 1199.9575 1166.0793 1168.4496 1175.4617 1187.3131 1204.8927 1229.188 1259.8042 1295.9509 1356.4872 1358.66 1365.3757 1376.6345 1393.7202 1417.7192 1448.5328 1483.4944 1879.519 1881.2968 1886.6298 1896.1108 1910.8263 1931.9611 1958.5277 1987.366 3193.4148 3194.4023 3197.3652 3203.2908 3212.8706 3227.2896 3245.2639 3261.5593 5714.917 5714.6206 5713.9292 5713.4355 5715.312 5718.9663 5722.7188 5721.04 8835.3242 8833.25 8827.3242 8818.6338 8808.4619 8797.6973 8784.0684 8761.749 11028.388 11023.845 11011.598999999998 10992.438999999998 10968.442 10941.185 10908.298999999999 10865.438 11788.183 11781.468 11761.617 11730.808 11691.8 11647.162 11596.6 11536.753999999999 11733.153 11723.97 11697.208 11655.238000000001 11601.912 11541.573999999999 11476.3 11404.704 11512.214 11501.253 11469.062 11418.601 11354.71 11283.613000000001 11208.86 11132.231000000002 11427.018 11414.971000000001 11380.016000000001 11325.41 11256.488000000001 11180.851 11103.83 11028.489 11513.731000000002 11501.784 11466.732 11411.736 11343.113000000001 11268.567 11194.515 11124.51 11703.428999999998 11691.878 11658.409 11606.083 11541.12 11470.923999999999 11402.208999999999 11338.332 11911.075 11900.413999999999 11869.516000000001 11820.947 11760.533000000001 11695.578000000001 11632.104 11572.775 11908.71 11898.938 11870.413999999999 11825.506000000001 11769.346000000001 11708.743999999999 11649.03 11591.883 11705.042 11695.964 11669.617 11627.678999999998 11575.083 11517.652 11460.123 11402.888 11357.232 11348.749 11324.087 11285.12 11235.695 11181.34 11125.603000000001 11068.485 10905.821000000002 10898.426000000001 10875.943000000001 10839.851999999999 10794.392 10744.002 10691.54 10636.415 10358.984 10352.185 10332.374 10300.638 10260.229 10215.877 10169.258 10119.287 9706.2949 9700.582 9683.9375 9656.5586 9622.6787 9585.5479 9547.5293 9505.4727 8949.6377 8944.8174 8930.8447 8908.3125 8880.7617 8851.1436 8821.624 8788.5605 8115.1299 8111.0034 8099.2104 8080.6392 8057.8398 8034.4512 8012.2393 7986.6855 7246.1519 7242.6201 7232.4185 7216.5264 7197.5933 7178.4619 7160.3101 7139.1152 6390.8413 6387.7095 6378.4121 6364.5151 6347.6812 6330.5513 6313.5176 6292.1768 5587.665 5584.7378 5576.5425 5563.5669 5547.8594 5531.0762 5512.1445 5486.5786 4861.8325 4859.21 4851.6323 4839.4883 4824.1377 4805.4829 4781.5815 4747.771 4223.6582 4221.2432 4214.0938 4202.2119 4185.499 4162.6035 4130.2427 4085.7109 3672.052 3669.7505 3662.3674 3649.0398 3628.2346 3597.3638 3554.0308 3498.6177 3199.499 3196.5562 3187.1575 3169.5007 3141.1179 3099.447 3044.9614 2984.3982 2788.7366 2784.1448 2770.7441 2746.0994 2708.3359 2657.4536 2598.9788 2543.5879 2418.9814 2413.0828 2395.1108 2364.3279 2321.4702 2270.3159 2219.2461 2180.6052 2076.7866 2070.2888 2050.7942 2020.2887 1982.1082 1942.6575 1911.9493 1897.7383 1763.9882 1758.5363 1743.0592 1721.3354 1698.7256 1682.6987 1677.9086 1674.152 1493.3956 1490.8383 1484.6982 1479.4877 1479.4606 1484.1012 1476.7996 1436.7856 1283.6727 1284.8173 1287.8391 1292.4069 1290.4777 1268.7661 1223.0182 1165.7126 1060.7185 1060.5565 1058.2627 1049.043 1031.4857 1012.1959 998.4039300000001 995.69012 800.72906 808.2211900000001 828.8236099999999 854.89093 880.2764900000001 898.30981 944.5163 818.68927 829.52325 856.32166 885.68109 910.68567 26.172096 25.381994 24.196842 22.814167 20.838913 18.271085999999997 15.406969 31.60404 30.616413 29.431261 27.851060999999998 25.579519 22.814167 19.357473000000002 15.308207000000001 36.739697 35.949596 34.66568 32.887955 30.517651 27.258484000000003 23.30798 18.567373 42.566691999999996 41.677826 40.492676 38.616184000000004 35.949596 32.394141999999995 27.851060999999998 22.22159 49.282551 48.591209 47.208534 45.430805 42.467929999999996 38.319897 33.184242 26.863434 57.677372 56.986034 55.800883999999996 53.825630000000004 50.665226000000004 46.418434000000005 40.492676 32.887955 67.84992199999999 67.35611 66.368484 64.195709 61.232826 57.183558999999995 50.763988 42.665455 79.997726 79.800201 78.812576 77.331131 74.960831 71.504143 66.368484 57.973659999999995 94.417068 94.219543 94.022018 93.133156 92.244293 90.960373 88.590073 81.281639 110.91042 111.30548 111.30548 111.60177 112.68816000000001 115.05846000000001 117.13247 114.16958999999999 129.97162 130.76172 131.25552 132.34192 135.79861 142.11942 150.31671 153.57588 151.79816 152.68701000000001 153.47711 155.35361 160.09421 169.47666999999998 182.21704 187.84651000000002 176.48882 177.47644 178.26654 180.14302 185.08116 194.16731000000001 205.0312 201.77203 204.73491 205.72253 206.21634 207.40149 210.75942999999998 217.179 220.93197999999998 209.37673999999998 237.03027000000003 237.72162000000003 238.0179 238.51172000000003 239.79564 242.56099 239.89439 226.06762999999998 273.57242 274.56003 274.46127 274.16497999999996 274.16497999999996 274.06622000000004 268.93057000000005 255.69637999999998 315.8428 316.6329 316.6329 315.94156 315.15146 314.06506 308.7319 297.37421 364.33521 365.22406 365.22406 364.43396 363.44635 362.5575 357.91565 348.43442000000005 419.83972 421.12363 421.32117 420.72857999999997 419.83972 419.34592000000004 415.49417 406.90182000000004 483.34399 485.418 486.01059000000004 485.81305 485.31924000000004 485.418 482.35635 473.86279 555.63806 558.8972200000001 560.47742 561.0700099999999 561.1687599999999 562.25513 560.18115 551.78632 637.3145099999999 642.35138 645.5117799999999 647.58582 649.26477 651.73383 650.54865 642.84521 728.47198 735.87921 741.70618 746.34802 750.49603 755.4341400000001 755.4341400000001 748.3233 829.40674 840.5668900000001 849.75183 858.04785 866.6402 875.43005 876.7139900000001 870.29443 936.46454 952.1677199999999 966.38953 979.9199199999999 995.0305800000001 1011.0301 1014.1905 1006.9808 1042.9293 1064.657 1084.4094 1104.7545 1128.9512 1156.3083 1163.3204 1153.7405 1143.9615 1171.5161 1197.3918 1224.6501 1259.9082 1304.7462 1319.363 1304.7462 1234.4254 1266.7206 1296.8429 1329.9282 1377.0376 1444.1957 1473.0342 1452.5905 1332.6903 1366.0718 1396.5891 1431.1556 1487.7461 1579.8907 1630.0618 1604.9763 1517.567 1546.109 1569.9105 1599.3414 1659.1908 1771.9763 1845.1584 1818.9867 2012.3524 2027.8579 2036.7465 2051.7581 2104.6938 2222.1206 2303.1045 2279.7971 3269.3616 3264.325 3249.8071 3242.4001 3275.781 3365.9492 3410.7864 3386.2939 5706.3247 5674.5244 5631.2676 5596.0107 5586.8257 5585.542 5560.1606 5516.9043 8722.6406 8663.2871 8591.7861 8521.667 8437.5254 8307.8564 8231.7129 8147.6699 10805.098 10724.907 10631.78 10527.888 10369.284 10162.389000000001 10081.803 9953.1221 11462.49 11371.241000000002 11267.448999999999 11142.524 10948.471000000001 10722.026000000002 10694.178 10577.942 11324.123 11232.48 11130.963 11008.017 10827.3 10654.878 10687.466999999999 10579.332 11052.442 10969.69 10887.434 10799.152 10681.542 10591.188 10648.363000000001 10514.952 10954.925 10884.618999999999 10822.903999999999 10769.681999999999 10709.546999999999 10685.947 10749.833999999999 10599.348 11059.146 10999.805 10953.596000000001 10923.382 10898.105 10911.83 10970.677 10815.166000000001 11279.589 11226.572 11187.277 11165.458 11150.155 11172.271 11221.733 11069.89 11516.704 11464.383999999998 11423.614 11397.257 11372.184 11378.995 11421.641000000001 11276.923 11535.228000000001 11478.376 11430.111 11392.014 11350.066 11338.913 11375.827 11237.945 11343.385 11279.638 11219.74 11166.255 11105.963 11078.236 11106.756000000001 10972.162 11005.545 10933.925 10860.923999999999 10790.094 10711.669 10666.883999999998 10680.697 10546.146 10571.925 10494.021 10408.524 10320.171 10224.423 10161.514000000001 10151.359 10013.02 10057.588 9977.3613 9882.0547 9779.9492 9667.9932 9582.9443 9544.4141 9398.168 9450.416 9372.707 9273.1348 9159.4805 9037.166 8928.7402 8862.7637 8705.9932 8741.9189 8669.8936 8570.418 8449.1992 8317.3584 8196.4463 8106.9238 7939.5874 7947.1787 7881.1416 7783.5649 7659.3613 7518.8501 7394.2617 7291.7905 7115.0513 7103.6001 7040.916 6945.3745 6822.2729 6678.3809 6553.3242 6456.0332 6273.0391 6256.4507 6193.7183 6100.458 5981.856 5842.6094 5724.0117 5640.8389 5459.0601 5445.6987 5380.9214 5291.7598 5182.2134 5055.5015 4949.8574 4869.3779 4692.459 4698.9053 4632.3623 4551.8325 4457.7031 4347.2578 4247.979 4149.0894 3960.1902 4028.719 3964.9639 3898.5959 3825.2698 3737.845 3643.8499 3508.9197 3269.0488 3438.696 3384.0383 3337.9009 3288.6899 3224.4302 3143.9739 2967.6995 2929.9001 2891.9028 2868.6973 2839.4094 2790.4788 2701.8921 2507.342 2504.2993 2487.8538 2480.4805 2448.9316 2396.7817 2276.2698 2163.6951 2161.97 2141.4348 2084.6033 1993.978 1885.318 1895.1464 1872.1473 1809.3639 1717.1873 1619.2599 1643.1301 1571.5039 1462.0162 1375.5758 1359.3962 1261.8457 1158.6958 1203.9449 1109.0725 1067.8595 1018.117 
Type 1 2975 float
0 0 0 0 0 0 0 0 0 0 0 0 0 0 0 0 0 0 0 0 0 0 0 0 0 0 0 0 0 0 0 0 0 0 0 0 0 0 0 0 0 0 0 0 0 0 0 0 0 0 0 0 0 0 0 0 0 0 0 0 0 0 0 0 0 0 0 0 0 0 0 0 0 0 0 0 0 0 0 0 0 0 0 0 0 0 0 0 0 0 0 0 0 0 0 0 0 0 0 0 0 0 0 0 0 0 0 0 0 0 0 0 0 0 0 0 0 0 0 0 0 0 0 0 0 0 0 0 0 0 0 0 0 0 0 0 0 0 0 0 0 0 0 0 0 0 0 0 0 0 0 0 0 0 0 0 0 0 0 0 0 0 0 0 0 0 0 0 0 0 0 0 0 0 0 0 0 0 0 0 0 0 0 0 0 0 0 0 0 0 0 0 0 0 0 0 0 0 0 0 0 0 0 0 0 0 0 0 0 0 0 0 0 0 0 0 0 0 0 0 0 0 0 0 0 0 0 0 0 0 0 0 0 0 0 0 0 0 0 0 0 0 0 0 0 0 0 0 0 0 0 0 0 0 0 0 0 0 0 0 0 0 0 0 0 0 0 0 0 0 0 0 0 0 0 0 0 0 0 0 0 0 0 0 0 0 0 0 0 0 0 0 0 0 0 0 0 0 0 0 0 0 0 0 0 0 0 0 0 0 0 0 0 0 0 0 0 0 0 0 0 0 0 0 0 0 0 0 0 0 0 0 0 0 0 0 0 0 0 0 0 0 0 0 0 0 0 0 0 0 0 0 0 0 0 0 0 0 0 0 0 0 0 0 0 0 0 0 0 0 0 0 0 0 0 0 0 0 0 0 0 0 0 0 0 0 0 0 0 0 0 0 0 0 0 0 0 0 0 0 0 0 0 0 0 0 0 0 0 0 0 0 0 0 0 0 0 0 0 0 0 0 0 0 0 0 0 0 0 0 0 0 0 0 0 0 0 0 0 0 0 0 0 0 0 0 0 0 0 0 0 0 0 0 0 0 0 0 0 0 0 0 0 0 0 0 0 0 0 0 0 0 0 0 0 0 0 0 0 0 0 0 0 0 0 0 0 0 0 0 0 0 0 0 0 0 0 0 0 0 0 0 0 0 0 0 0 0 0 0 0 0 0 0 0 0 0 0 0 0 0 0 0 0 0 0 0 0 0 0 0 0 0 0 0 0 0 0 0 0 0 0 0 0 0 0 0 0 0 0 0 0 0 0 0 0 0 0 0 0 0 0 0 0 0 0 0 0 0 0 0 0 0 0 0 0 0 0 0 0 0 0 0 0 0 0 0 0 0 0 0 0 0 0 0 0 0 0 0 0 0 0 0 0 0 0 0 0 0 0 0 0 0 0 0 0 0 0 0 0 0 0 0 0 0 0 0 0 0 0 0 0 0 0 0 0 0 0 0 0 0 0 0 0 0 0 0 0 0 0 0 0 0 0 0 0 0 0 0 0 0 0 0 0 0 0 0 0 0 0 0 0 0 0 0 0 0 0 0 0 0 0 0 0 0 0 0 0 0 0 0 0 0 0 0 0 0 0 0 0 0 0 0 0 0 0 0 0 0 0 0 0 0 0 0 0 0 0 0 0 0 0 0 0 0 0 0 0 0 0 0 0 0 0 0 0 0 0 0 0 0 0 0 0 0 0 0 0 0 0 0 0 0 0 0 0 0 0 0 0 0 0 0 0 0 0 0 0 0 0 0 0 0 0 0 0 0 0 0 0 0 0 0 0 0 0 0 0 0 0 0 0 0 0 0 0 0 0 0 0 0 0 0 0 0 0 0 0 0 0 0 0 0 0 0 0 0 0 0 0 0 0 0 0 0 0 0 0 0 0 0 0 0 0 0 0 0 0 0 0 0 0 0 0 0 0 0 0 0 0 0 0 0 0 0 0 0 0 0 0 0 0 0 0 0 0 0 0 0 0 0 0 0 0 0 0 0 0 0 0 0 0 0 0 0 0 0 0 0 0 0 0 0 0 0 0 0 0 0 0 0 0 0 0 0 0 0 0 0 0 0 0 0 0 0 0 0 0 0 0 0 0 0 0 0 0 0 0 0 0 0 0 0 0 0 0 0 0 0 0 0 0 0 0 0 0 0 0 0 0 0 0 0 0 0 0 0 0 0 0 0 0 0 0 0 0 0 0 0 0 0 0 0 0 0 0 0 0 0 0 0 0 0 0 0 0 0 0 0 0 0 0 0 0 0 0 0 0 0 0 0 0 0 0 0 0 0 0 0 0 0 0 0 0 0 0 0 0 0 0 0 0 0 0 0 0 0 0 0 0 0 3 3 3 3 3 3 3 3 3 3 3 3 3 3 3 3 3 3 3 3 3 3 3 3 3 3 3 3 3 3 3 3 3 3 3 3 3 3 3 3 3 3 3 3 3 3 3 3 3 3 3 3 3 3 3 3 3 3 3 3 3 3 3 3 3 3 3 3 3 3 3 3 3 3 3 3 3 3 3 3 3 3 3 3 3 3 3 3 3 3 3 3 3 3 3 3 3 3 3 3 3 3 3 3 3 3 3 3 3 3 3 3 3 3 3 3 3 3 3 3 3 3 3 3 3 3 3 3 3 3 3 3 3 3 3 3 3 3 3 3 3 3 3 3 3 3 3 3 3 3 3 3 3 3 3 3 3 3 3 3 3 3 3 3 3 3 3 3 3 3 3 3 3 3 3 3 3 3 3 3 3 3 3 3 3 3 3 3 3 3 3 3 3 3 3 3 3 3 3 3 3 3 3 3 3 3 3 3 3 3 3 3 3 3 3 3 3 3 3 3 3 3 3 3 3 3 3 3 3 3 3 3 3 3 3 3 3 3 3 3 3 3 3 3 3 3 3 3 3 3 3 3 3 3 3 3 3 3 3 3 3 3 3 3 3 3 3 3 3 3 3 3 3 3 3 3 3 3 3 3 3 3 3 3 3 3 3 3 3 3 3 3 3 3 3 3 3 3 3 3 3 3 3 3 3 3 3 3 3 3 3 3 3 3 3 3 3 3 3 3 3 3 3 3 3 3 3 3 3 3 3 3 3 3 3 3 3 3 3 3 3 3 3 3 3 3 3 3 3 3 3 3 3 3 3 3 3 3 3 3 3 3 3 3 3 3 3 3 3 3 3 3 3 3 3 3 3 3 3 3 3 3 3 3 3 3 3 3 3 3 3 3 3 3 3 3 3 3 3 3 3 3 3 3 3 3 3 3 3 3 3 3 3 3 3 3 3 3 3 3 3 3 3 3 3 3 3 3 3 3 3 3 3 3 3 3 3 3 3 3 3 3 3 3 3 3 3 3 3 3 3 3 3 3 3 3 3 3 3 3 3 3 3 3 3 3 3 3 3 3 3 3 3 3 3 3 3 3 3 3 3 3 3 3 3 3 3 3 3 3 3 3 3 3 3 3 3 3 3 3 3 3 3 3 3 3 3 3 3 3 3 3 3 3 3 3 3 3 3 3 3 3 3 3 3 3 3 3 3 3 3 3 3 3 3 3 3 3 3 3 3 3 3 3 3 3 3 3 3 3 3 3 3 3 3 3 3 3 3 3 3 3 3 3 3 3 3 3 3 3 3 3 3 3 3 3 3 3 3 3 3 3 3 3 3 3 3 3 3 3 3 3 3 3 3 3 3 3 3 3 3 3 3 3 3 3 3 3 3 3 3 3 3 3 3 3 3 3 3 3 3 3 3 3 3 3 3 3 3 3 3 3 3 3 3 3 3 3 3 3 3 3 3 3 3 3 3 3 3 3 3 3 3 3 3 3 3 3 3 3 3 3 3 3 3 3 3 3 3 3 3 3 3 3 3 3 3 3 3 3 3 3 3 3 3 3 3 3 3 3 3 3 3 3 3 3 3 3 3 3 3 3 3 3 3 3 3 3 3 3 3 3 3 3 3 3 3 3 3 3 3 3 3 3 3 3 3 3 3 3 3 3 3 3 3 3 3 3 3 3 3 3 3 3 3 3 3 3 3 3 3 3 3 3 3 3 3 3 3 3 3 3 3 3 3 3 3 3 3 3 3 3 3 3 3 3 3 3 3 3 3 3 3 3 3 3 3 3 3 3 3 3 3 3 3 3 3 3 3 3 3 3 3 3 3 3 3 3 3 3 3 3 3 3 3 3 3 3 3 3 3 3 3 3 3 3 3 3 3 3 3 3 3 3 3 3 3 3 3 3 3 3 3 3 3 3 3 3 3 3 3 3 3 3 3 3 3 3 3 3 3 3 3 3 3 3 3 3 3 3 3 3 3 3 3 3 3 3 3 3 3 3 3 3 3 3 3 3 3 3 3 3 3 3 3 3 3 3 3 3 3 3 3 3 3 3 3 3 3 3 3 3 3 3 3 3 3 3 3 3 3 3 3 3 3 3 3 3 3 3 3 3 3 3 3 3 3 3 3 3 3 3 3 3 3 3 3 3 3 3 3 3 3 3 3 3 3 3 3 3 3 3 3 3 3 3 3 3 3 3 3 3 3 3 3 3 3 3 3 3 3 3 3 3 3 3 3 3 3 3 3 3 3 3 3 3 3 3 3 3 3 3 3 3 3 3 3 3 3 3 3 3 3 3 3 3 3 3 3 3 3 3 3 3 3 3 3 3 3 3 3 3 3 3 3 3 3 3 3 3 3 3 3 3 3 3 3 3 3 3 3 3 3 3 3 3 3 3 3 3 3 3 3 3 3 3 3 3 3 3 3 3 3 3 3 3 3 3 3 3 3 3 3 3 3 3 3 3 3 3 3 3 3 3 3 3 3 3 3 3 3 3 3 3 3 3 3 3 3 3 3 3 3 3 3 3 3 3 3 3 3 3 3 3 3 3 3 3 3 3 3 3 3 3 3 3 3 3 3 3 3 3 3 3 3 3 3 3 3 3 3 3 3 3 3 3 3 3 3 3 3 3 3 3 3 3 3 3 3 3 3 3 3 3 3 3 3 3 3 3 3 3 3 3 3 3 3 3 3 3 3 3 3 3 3 3 3 3 3 3 3 3 3 3 3 3 3 3 3 3 3 3 3 3 3 3 3 3 3 3 3 3 3 3 3 3 3 3 3 3 3 3 3 3 3 3 3 3 3 3 3 3 3 3 3 3 3 3 3 3 3 3 3 3 3 3 3 3 3 3 3 3 3 3 3 3 3 3 3 3 3 3 3 3 3 3 3 3 3 3 3 3 3 3 3 3 3 3 3 3 3 3 3 3 3 3 3 3 3 3 3 3 3 3 3 3 3 3 3 3 3 3 3 3 3 3 3 3 3 3 3 3 3 3 3 3 3 3 3 3 3 3 3 3 3 3 3 3 3 3 3 3 3 3 3 3 3 3 3 3 3 3 3 3 3 3 3 3 3 3 3 3 3 3 3 3 3 3 3 3 3 3 3 3 3 3 3 3 3 3 3 3 3 3 3 3 3 3 3 3 3 3 3 3 3 3 3 3 3 3 3 3 3 3 3 3 3 3 3 3 3 3 3 3 3 3 3 3 3 3 3 3 3 3 3 3 3 3 3 3 3 3 3 3 3 3 3 3 3 3 3 3 3 3 3 3 3 3 3 3 3 3 3 3 3 3 3 3 3 3 3 3 3 3 3 3 3 3 3 3 3 3 3 3 3 3 3 3 3 3 3 3 3 3 3 3 3 3 3 3 3 3 3 3 3 3 3 3 3 3 3 3 3 3 3 3 3 3 3 3 3 3 3 3 3 3 3 3 3 3 3 3 3 3 3 3 3 3 3 3 3 3 3 3 3 3 3 3 3 3 3 3 3 3 3 3 3 3 3 3 3 3 3 3 3 3 3 3 3 3 3 3 3 3 3 3 3 3 3 3 3 3 3 3 3 3 3 3 3 3 3 3 3 3 3 3 3 3 3 3 3 3 3 3 3 3 3 3 3 3 3 3 3 3 3 3 3 3 3 3 3 3 3 3 3 3 3 3 3 3 3 3 3 3 3 3 3 3 3 3 3 3 3 3 3 3 3 3 3 3 3 3 3 3 3 3 3 3 3 3 3 3 3 3 3 3 3 3 3 3 3 3 3 3 3 3 3 3 3 3 3 3 3 3 3 3 3 3 3 3 3 3 3 3 3 3 3 3 3 3 3 3 3 3 3 3 3 3 3 3 3 3 3 3 3 3 3 3 3 3 3 3 3 3 3 3 3 3 3 3 3 3 3 3 3 3 3 3 3 3 3 3 3 3 3 3 3 3 3 3 3 3 3 3 3 3 3 3 3 3 3 3 3 3 3 3 3 3 3 3 3 3 3 3 3 3 3 3 3 3 3 3 3 3 3 3 3 3 3 3 3 3 3 3 3 3 3 3 3 3 3 3 3 3 3 3 3 3 3 3 3 3 3 3 3 3 3 3 3 3 3 3 3 3 3 3 3 3 3 3 3 3 3 3 3 3 3 3 3 3 3 3 3 3 3 3 3 3 3 3 3 3 3 3 3 3 3 3 3 3 3 3 3 3 3 3 3 3 3 3 3 3 3 3 3 3 3 3 3 3 3 3 3 3 3 3 3 3 3 3 3 3 3 3 3 3 3 3 3 3 3 3 3 3 3 3 3 3 3 3 3 3 3 3 3 3 3 3 3 3 3 3 3 3 3 3 3 3 3 3 3 3 3 3 3 3 3 3 3 3 3 3 3 3 3 3 3 3 3 3 3 3 3 3 
CellOffSpring 1 2975 float
0 0 0 0 0 0 0 0 0 0 0 0 0 0 0 0 0 0 0 0 0 0 0 0 0 0 0 0 0 0 0 0 0 0 0 0 0 0 0 0 0 0 0 0 0 0 0 0 0 0 0 0 0 0 0 0 0 0 0 0 0 0 0 0 0 0 0 0 0 0 0 0 0 0 0 0 0 0 0 0 0 0 0 0 0 0 0 0 0 0 0 0 0 0 0 0 0 0 0 0 0 0 0 0 0 0 0 0 0 0 0 0 0 0 0 0 0 0 0 0 0 0 0 0 0 0 0 0 0 0 0 0 0 0 0 0 0 0 0 0 0 0 0 0 0 0 0 0 0 0 0 0 0 0 0 0 0 0 0 0 0 0 0 0 0 0 0 0 0 0 0 0 0 0 0 0 0 0 0 0 0 0 0 0 0 0 0 0 0 0 0 0 0 0 0 0 0 0 0 0 0 0 0 0 0 0 0 0 0 0 0 0 0 0 0 0 0 0 0 0 0 0 0 0 0 0 0 0 0 0 0 0 0 0 0 0 0 0 0 0 0 0 0 0 0 0 0 0 0 0 0 0 0 0 0 0 0 0 0 0 0 0 0 0 0 0 0 0 0 0 0 0 0 0 0 0 0 0 0 0 0 0 0 0 0 0 0 0 0 0 0 0 0 0 0 0 0 0 0 0 0 0 0 0 0 0 0 0 0 0 0 0 0 0 0 0 0 0 0 0 0 0 0 0 0 0 0 0 0 0 0 0 0 0 0 0 0 0 0 0 0 0 0 0 0 0 0 0 0 0 0 0 0 0 0 0 0 0 0 0 0 0 0 0 0 0 0 0 0 0 0 0 0 0 0 0 0 0 0 0 0 0 0 0 0 0 0 0 0 0 0 0 0 0 0 0 0 0 0 0 0 0 0 0 0 0 0 0 0 0 0 0 0 0 0 0 0 0 0 0 0 0 0 0 0 0 0 0 0 0 0 0 0 0 0 0 0 0 0 0 0 0 0 0 0 0 0 0 0 0 0 0 0 0 0 0 0 0 0 0 0 0 0 0 0 0 0 0 0 0 0 0 0 0 0 0 0 0 0 0 0 0 0 0 0 0 0 0 0 0 0 0 0 0 0 0 0 0 0 0 0 0 0 0 0 0 0 0 0 0 0 0 0 0 0 0 0 0 0 0 0 0 0 0 0 0 0 0 0 0 0 0 0 0 0 0 0 0 0 0 0 0 0 0 0 0 0 0 0 0 0 0 0 0 0 0 0 0 0 0 0 0 0 0 0 0 0 0 0 0 0 0 0 0 0 0 0 0 0 0 0 0 0 0 0 0 0 0 0 0 0 0 0 0 0 0 0 0 0 0 0 0 0 0 0 0 0 0 0 0 0 0 0 0 0 0 0 0 0 0 0 0 0 0 0 0 0 0 0 0 0 0 0 0 0 0 0 0 0 0 0 0 0 0 0 0 0 0 0 0 0 0 0 0 0 0 0 0 0 0 0 0 0 0 0 0 0 0 0 0 0 0 0 0 0 0 0 0 0 0 0 0 0 0 0 0 0 0 0 0 0 0 0 0 0 0 0 0 0 0 0 0 0 0 0 0 0 0 0 0 0 0 0 0 0 0 0 0 0 0 0 0 0 0 0 0 0 0 0 0 0 0 0 0 0 0 0 0 0 0 0 0 0 0 0 0 0 0 0 0 0 0 0 0 0 0 0 0 0 0 0 0 0 0 0 0 0 0 0 0 0 0 0 0 0 0 0 0 0 0 0 0 0 0 0 0 0 0 0 0 0 0 0 0 0 0 0 0 0 0 0 0 0 0 0 0 0 0 0 0 0 0 0 0 0 0 0 0 0 0 0 0 0 0 0 0 0 0 0 0 0 0 0 0 0 0 0 0 0 0 0 0 0 0 0 0 0 0 0 0 0 0 0 0 0 0 0 0 0 0 0 0 0 0 0 0 0 0 0 0 0 0 0 0 0 0 0 0 0 0 0 0 0 0 0 0 0 0 0 0 0 0 0 0 0 0 0 0 0 0 0 0 0 0 0 0 0 0 0 0 0 0 0 0 0 0 0 0 0 0 0 0 0 0 0 0 0 0 0 0 0 0 0 0 0 0 0 0 0 0 0 0 0 0 0 0 0 0 0 0 0 0 0 0 0 0 0 0 0 0 0 0 0 0 0 0 0 0 0 0 0 0 0 0 0 0 0 0 0 0 0 0 0 0 0 0 0 0 0 0 0 0 0 0 0 0 0 0 0 0 0 0 0 0 0 0 0 0 0 0 0 0 0 0 0 0 0 0 0 0 0 0 0 0 0 0 0 0 0 0 0 0 0 0 0 0 0 0 0 0 0 0 0 0 0 0 0 0 0 0 0 0 0 0 0 0 0 0 0 0 0 0 0 0 0 0 0 0 0 0 0 0 0 0 0 0 0 0 0 0 0 0 0 0 0 0 0 0 0 0 0 0 0 0 0 0 0 0 0 0 0 0 0 0 0 0 0 0 0 0 0 0 0 0 0 0 0 0 0 0 0 0 0 0 0 0 0 0 0 0 0 0 0 0 0 0 0 0 0 0 0 0 0 0 0 0 0 0 0 0 0 0 0 0 0 0 0 0 0 0 0 0 0 0 0 0 0 0 0 0 0 0 0 0 0 0 0 0 0 0 0 0 0 0 0 0 0 0 0 0 0 0 0 0 0 0 0 0 0 0 0 0 0 0 0 0 0 0 0 0 0 0 0 0 0 0 0 0 0 0 0 0 0 0 0 0 0 0 0 0 0 0 0 0 0 0 0 0 0 0 0 0 0 0 0 0 0 0 0 0 0 0 0 0 0 0 0 0 0 0 0 0 0 0 0 0 0 0 0 0 0 0 0 0 0 0 0 0 0 0 0 0 0 0 0 0 0 0 0 0 0 0 0 0 0 0 0 0 0 0 0 0 0 0 0 0 0 0 0 0 0 0 0 0 0 0 0 0 0 0 0 0 0 0 0 0 0 0 0 0 0 0 0 0 0 0 0 0 0 0 0 0 0 0 0 0 0 0 0 0 0 0 0 0 0 0 0 0 0 0 0 0 0 0 0 0 0 0 0 0 0 0 0 0 0 0 0 0 0 0 0 0 0 0 0 0 0 0 0 0 0 0 0 0 0 0 0 0 0 0 0 0 0 0 0 0 0 0 0 0 0 0 0 0 0 0 0 0 0 0 0 0 0 0 0 0 0 0 0 0 0 0 0 0 0 0 0 0 0 0 0 0 0 0 0 0 0 0 0 0 0 0 0 0 0 0 0 0 0 0 0 0 0 0 0 0 0 0 0 0 0 0 0 0 0 0 0 0 0 0 0 0 0 0 0 0 0 0 0 0 0 0 0 0 0 0 0 0 0 0 0 0 0 0 0 0 0 0 0 0 0 0 0 0 0 0 0 0 0 0 0 0 0 0 0 0 0 0 0 0 0 0 0 0 0 0 0 0 0 0 0 0 0 0 0 0 0 0 0 0 0 0 0 0 0 0 0 0 0 0 0 0 0 0 0 0 0 0 0 0 0 0 0 0 0 0 0 0 0 0 0 0 0 0 0 0 0 0 0 0 0 0 0 0 0 0 0 0 0 0 0 0 0 0 0 0 0 0 0 0 0 0 0 0 0 0 0 0 0 0 0 0 0 0 0 0 0 0 0 0 0 0 0 0 0 0 0 0 0 0 0 0 0 0 0 0 0 0 0 0 0 0 0 0 0 0 0 0 0 0 0 0 0 0 0 0 0 0 0 0 0 0 0 0 0 0 0 0 0 0 0 0 0 0 0 0 0 0 0 0 0 0 0 0 0 0 0 0 0 0 0 0 0 0 0 0 0 0 0 0 0 0 0 0 0 0 0 0 0 0 0 0 0 0 0 0 0 0 0 0 0 0 0 0 0 0 0 0 0 0 0 0 0 0 0 0 0 0 0 0 0 0 0 0 0 0 0 0 0 0 0 0 0 0 0 0 0 0 0 0 0 0 0 0 0 0 0 0 0 0 0 0 0 0 0 0 0 0 0 0 0 0 0 0 0 0 0 0 0 0 0 0 0 0 0 0 0 0 0 0 0 0 0 0 0 0 0 0 0 0 0 0 0 0 0 0 0 0 0 0 0 0 0 0 0 0 0 0 0 0 0 0 0 0 0 0 0 0 0 0 0 0 0 0 0 0 0 0 0 0 0 0 0 0 0 0 0 0 0 0 0 0 0 0 0 0 0 0 0 0 0 0 0 0 0 0 0 0 0 0 0 0 0 0 0 0 0 0 0 0 0 0 0 0 0 0 0 0 0 0 0 0 0 0 0 0 0 0 0 0 0 0 0 0 0 0 0 0 0 0 0 0 0 0 0 0 0 0 0 0 0 0 0 0 0 0 0 0 0 0 0 0 0 0 0 0 0 0 0 0 0 0 0 0 0 0 0 0 0 0 0 0 0 0 0 0 0 0 0 0 0 0 0 0 0 0 0 0 0 0 0 0 0 0 0 0 0 0 0 0 0 0 0 0 0 0 0 0 0 0 0 0 0 0 0 0 0 0 0 0 0 0 0 0 0 0 0 0 0 0 0 0 0 0 0 0 0 0 0 0 0 0 0 0 0 0 0 0 0 0 0 0 0 0 0 0 0 0 0 0 0 0 0 0 0 0 0 0 0 0 0 0 0 0 0 0 0 0 0 0 0 0 0 0 0 0 0 0 0 0 0 0 0 0 0 0 0 0 0 0 0 0 0 0 0 0 0 0 0 0 0 0 0 0 0 0 0 0 0 0 0 0 0 0 0 0 0 0 0 0 0 0 0 0 0 0 0 0 0 0 0 0 0 0 0 0 0 0 0 0 0 0 0 0 0 0 0 0 0 0 0 0 0 0 0 0 0 0 0 0 0 0 0 0 0 0 0 0 0 0 0 0 0 0 0 0 0 0 0 0 0 0 0 0 0 0 0 0 0 0 0 0 0 0 0 0 0 0 0 0 0 0 0 0 0 0 0 0 0 0 0 0 0 0 0 0 0 0 0 0 0 0 0 0 0 0 0 0 0 0 0 0 0 0 0 0 0 0 0 0 0 0 0 0 0 0 0 0 0 0 0 0 0 0 0 0 0 0 0 0 0 0 0 0 0 0 0 0 0 0 0 0 0 0 0 0 0 0 0 0 0 0 0 0 0 0 0 0 0 0 0 0 0 0 0 0 0 0 0 0 0 0 0 0 0 0 0 0 0 0 0 0 0 0 0 0 0 0 0 0 0 0 0 0 0 0 0 0 0 0 0 0 0 0 0 0 0 0 0 0 0 0 0 0 0 0 0 0 0 0 0 0 0 0 0 0 0 0 0 0 0 0 0 0 0 0 0 0 0 0 0 0 0 0 0 0 0 0 0 0 0 0 0 0 0 0 0 0 0 0 0 0 0 0 0 0 0 0 0 0 0 0 0 0 0 0 0 0 0 0 0 0 0 0 0 0 0 0 0 0 0 0 0 0 0 0 0 0 0 0 0 0 0 0 0 0 0 0 0 0 0 0 0 0 0 0 0 0 0 0 0 0 0 0 0 0 0 0 0 0 0 0 0 0 0 0 0 0 0 0 0 0 0 0 0 0 0 0 0 0 0 0 0 0 0 0 0 0 0 0 0 0 0 0 0 0 0 0 0 0 0 0 0 0 0 0 0 0 0 0 0 0 0 0 0 0 0 0 0 0 0 0 0 0 0 0 0 0 0 0 0 0 0 0 0 0 0 0 0 0 0 0 0 0 0 0 0 0 0 0 0 0 0 0 0 0 0 0 0 0 0 0 0 0 0 0 0 0 0 0 0 0 0 0 0 0 0 0 0 0 0 0 0 0 0 0 0 0 0 0 0 0 0 0 0 0 0 0 0 0 0 0 0 0 0 0 0 0 0 0 0 0 0 0 0 0 0 0 0 0 0 0 0 0 0 0 0 0 0 0 0 0 0 0 0 0 0 0 0 0 0 0 0 0 0 0 0 0 0 0 0 0 0 0 0 0 0 0 0 0 0 0 0 0 0 0 0 0 0 0 0 0 0 0 0 0 0 0 0 0 0 0 0 0 0 0 0 0 0 0 0 0 0 0 0 0 0 0 0 0 0 0 0 0 0 0 0 0 0 0 0 0 0 0 0 0 0 0 0 0 0 0 0 0 0 0 0 0 0 0 0 0 0 0 0 0 0 0 0 0 0 0 0 0 0 0 0 0 0 0 0 0 0 0 0 0 0 0 0 0 0 0 0 0 0 0 0 0 0 0 0 0 0 0 0 0 0 0 0 0 0 0 0 0 0 0 0 0 0 0 0 0 0 0 0 0 0 0 0 0 0 0 0 0 0 0 0 0 0 0 0 0 0 0 0 0 0 0 0 0 0 0 0 0 0 0 0 0 0 0 0 0 0 0 0 0 0 0 0 0 0 0 0 0 0 0 0 0 0 0 0 0 0 0 0 0 0 0 0 0 0 0 0 0 0 0 0 0 0 0 0 0 0 0 0 0 0 0 0 0 0 0 0 0 0 0 0 0 0 0 0 0 0 0 0 0 0 0 0 0 0 0 0 0 0 0 0 0 0 0 0 0 0 0 0 0 0 0 0 0 0 0 0 0 0 0 0 0 0 0 0 0 0 0 0 0 0 0 0 0 0 0 0 0 0 0 0 0 0 0 0 0 0 0 0 0 0 0 0 0 0 0 0 0 0 
GradVel 1 2975 float
0.0 0.0 0.0 0.0 0.0 0.0 0.0 0.0 0.0 0.0 0.0 0.0 0.0 -4.5431185e-07 -3.5965606e-19 -2.3931184e-06 -1.6148457000000002e-05 -4.3885366e-06 -3.1904517999999995e-05 -0.00010043435999999999 -3.6940684e-05 -0.00014018375 -0.00033678918 -0.00013159926 -0.00038437959000000004 -0.00080773997 -0.00031114015 -0.00079589325 -0.0015503147 -0.00057166727 -0.0013595442000000001 -0.002530328 -0.0008827465400000001 -0.0020163534 -0.0036483174 -0.0012039247000000001 -0.0026926037 -0.0047868006 -0.0015080879999999999 -0.0033415216 -0.005880223100000001 -0.0017983823000000002 -0.0039732167 -0.0069595147 -0.0021130622 -0.0046692388 -0.008178021800000001 -0.0025270074 -0.005588099799999999 -0.0098170079 -0.0031615116 -0.0069816853 -0.012300517 -0.0042310115 -0.009246733 -0.016233344 -0.0061047897 -0.01290514 -0.022275807 -0.0093149012 -0.018363189 -0.030655167999999997 -0.025834582999999998 -0.041080154 0.0 0.0 0.0 0.0 0.0 0.0 0.0 0.0 0.0 0.0 0.0 0.0 0.0 0.0 0.0 0.0 0.0 0.0 0.0 0.0 0.0 0.0 0.0 0.0 0.0 -8.1387761e-08 -5.172115e-07 -1.2203881e-06 -1.8177628000000001e-06 -2.1442709e-06 -2.3652453e-06 -2.5310047999999996e-06 -3.9092761e-06 -1.2682374e-05 -2.6959890000000002e-05 -4.4477063e-05 -6.1616047e-05 -7.5452037e-05 -8.507479699999999e-05 -9.149356599999999e-05 -4.8286121e-05 -0.00010205659 -0.00017540576 -0.0002595204 -0.00034160769 -0.00041125464 -0.00046450030999999997 -0.00050262077 -0.00021947574 -0.00039375501000000004 -0.00061683333 -0.00086518237 -0.0011055184 -0.0013119276 -0.0014746749 -0.0015959495 -0.0006385350099999999 -0.0010549924 -0.0015719584 -0.0021370857 -0.0026791046999999997 -0.0031448542 -0.0035161271 -0.0037980492 -0.0014164073 -0.0022299734 -0.0032217365000000004 -0.0042914510999999995 -0.0053058588 -0.0061720102 -0.0068636849 -0.0073935157 -0.0025921531 -0.0039569675 -0.0055992575 -0.007345986600000001 -0.0089761727 -0.010352756 -0.011448941 -0.012291526 -0.0041025532 -0.0061286702 -0.008530639100000001 -0.011037335 -0.013326643 -0.015236451000000002 -0.016750535 -0.017914077 -0.0057909638 -0.0085050613 -0.01164284 -0.007481147099999999 -0.010828727 -0.009095100699999999 -0.013025682 -0.010709643000000001 -0.015261028000000001 -0.012573313000000001 -0.017875154 -0.015112374 -0.0214191 -0.018932465 -0.026631717000000003 -0.024839725 -0.034423392000000004 -0.033654481 -0.045670025 -0.045573345999999994 -0.06061307 -0.059905945999999995 -0.078511894 0.0 0.0 0.0 0.0 0.0 0.0 0.0 0.0 0.0 0.0 0.0 0.0 0.0 0.0 0.0 0.0 0.0 0.0 0.0 0.0 0.0 0.0 0.0 0.0 0.0 0.0 0.0 -2.6479397e-06 -2.7246199000000003e-06 -2.7701396e-06 -2.7931312e-06 -2.8011717999999997e-06 -2.8003249e-06 -2.7952632999999996e-06 -2.7893942999999996e-06 -2.7849967000000003e-06 -9.605665399999999e-05 -9.918205599999999e-05 -0.00010116132 -0.00010228396000000001 -0.00010281233 -0.00010296678 -0.00010292111 -0.00010280263000000001 -0.00010269824 -0.0005290823200000001 -0.00054734573 -0.00055930373 -0.0005664566400000001 -0.0005701964299999999 -0.00057171594 -0.00057197001 -0.00057166989 -0.0005713024900000001 -0.0016828324 -0.0017431120999999998 -0.001783272 -0.0018080798999999999 -0.0018218021 -0.0018281513 -0.0018301327 -0.0018300079000000001 -0.0018293323999999998 -0.0040044608 -0.0041500865000000005 -0.0042481641 -0.0043098996 -0.0043451381 -0.0043625059 -0.004369026 -0.0043700403 -0.004369223 -0.007786470500000001 -0.008067417 -0.0082585225 -0.0083800824 -0.0084506115 -0.008486455300000001 -0.0085009858 -0.0085043833 -0.008503693199999999 -0.012920977 -0.013374873 -0.013685636999999999 -0.01388426 -0.014000161 -0.014059693 -0.014084431000000001 -0.014090821000000002 -0.014090247 -0.018785477 -0.019416269 -0.019848926 -0.020125015 -0.020285459 -0.020367308 -0.020400807 -0.020408971 -0.020407684 0.0 0.0 0.0 0.0 0.0 0.0 0.0 0.0 0.0 0.0 0.0 0.0 0.0 0.0 0.0 0.0 0.0 0.0 0.0 0.0 0.0 0.0 0.0 0.0 -2.7833918999999997e-06 -2.7849968999999998e-06 -2.7893934e-06 -2.7952622000000003e-06 -2.8003251e-06 -2.8011714e-06 -2.7931314e-06 -2.7701399e-06 -0.00010265805000000001 -0.00010269824 -0.00010280263000000001 -0.00010292108 -0.00010296677 -0.00010281232 -0.00010228399 -0.00010116133 -0.00057114928 -0.00057130243 -0.00057167001 -0.0005719699 -0.0005717158799999999 -0.00057019654 -0.00056645658 -0.00055930385 -0.001829009 -0.0018293323 -0.0018300076 -0.0018301322 -0.0018281516 -0.0018218019 -0.0018080794000000001 -0.0017832720999999998 -0.0043687182 -0.0043692226 -0.0043700403 -0.004369027 -0.0043625063 -0.00434514 -0.004309901 -0.0042481655 -0.0085030161 -0.008503693199999999 -0.0085043833 -0.0085009839 -0.0084864544 -0.0084506152 -0.0083800834 -0.0082585253 -0.014089325 -0.01409024 -0.01409082 -0.014084428999999999 -0.014059692 -0.014000161 -0.01388426 -0.013685638 -0.020406263 -0.020407686 -0.020408969 -0.020400807 -0.020367311000000003 -0.020285457 -0.020125007 -0.019848926 0.0 0.0 0.0 0.0 0.0 0.0 0.0 0.0 0.0 0.0 0.0 0.0 0.0 0.0 0.0 0.0 0.0 0.0 0.0 0.0 0.0 0.0 0.0 0.0 0.0 0.0 0.0 -2.7246199000000003e-06 -2.6479404e-06 -2.5310052999999997e-06 -2.3652447e-06 -2.1442702000000003e-06 -1.8177633e-06 -1.2203883999999998e-06 -5.1721162e-07 -8.1387761e-08 -9.918204900000001e-05 -9.605669799999999e-05 -9.149356599999999e-05 -8.5074789e-05 -7.5452037e-05 -6.1616047e-05 -4.4477074000000004e-05 -2.6959890999999998e-05 -1.2682372e-05 -0.0005473457900000001 -0.00052908243 -0.000502621 -0.00046450035999999993 -0.00041125464 -0.00034160778 -0.00025952042999999997 -0.00017540578999999997 -0.00010205661 -0.0017431112 -0.0016828319 -0.0015959492000000002 -0.001474675 -0.0013119276999999999 -0.0011055184 -0.0008651824900000001 -0.0006168333900000001 -0.00039375512000000004 -0.004150087 -0.0040044608 -0.0037980503000000004 -0.0035161262 -0.0031448548999999998 -0.0026791058 -0.0021370854 -0.0015719585 -0.0010549927 -0.0080674188 -0.0077864695 -0.0073935157 -0.006863684399999999 -0.0061720111 -0.0053058579000000005 -0.0042914525 -0.0032217361 -0.0022299748000000003 -0.013374871000000002 -0.012920976 -0.012291524 -0.01144894 -0.010352753000000001 -0.0089761736 -0.007345987900000001 -0.0055992598999999995 -0.0039569684 -0.019416258 -0.018785471 -0.017914079 -0.016750541 -0.01523645 -0.013326646999999999 -0.011037345 -0.0085306428 -0.0061286711 -0.011642843 -0.0085050622 -0.010828731000000001 -0.013025687 -0.015261031000000001 -0.017875152 -0.021419103999999998 -0.026631724 -0.034423396 -0.045670033 -0.06061306599999999 -0.078511909 0.0 0.0 0.0 0.0 0.0 0.0 0.0 0.0 0.0 0.0 0.0 0.0 0.0 0.0 0.0 -3.9092752e-06 -4.5431173e-07 0.0 0.0 -4.8286117999999994e-05 -1.6148455e-05 -2.3931179e-06 -3.5965601e-19 -0.00021947577000000002 -0.00010043438000000001 -3.1904517999999995e-05 -4.3885361e-06 -0.00063853507 -0.00033678906 -0.00014018374 -3.6940699e-05 -0.0014164073 -0.00080773991 -0.00038437949999999997 -0.00013159928 -0.0025921531 -0.0015503147 -0.0007958932000000001 -0.0003111402 -0.0041025542 -0.0025303282 -0.0013595439999999999 -0.00057166733 -0.0057909656000000006 -0.0036483174 -0.0020163526999999997 -0.0008827466499999999 -0.0074811475 -0.0047868015 -0.0026926037 -0.0012039247000000001 -0.0090951016 -0.0058802241 -0.0033415207 -0.0015080883 -0.010709647 -0.0069595147 -0.0039732167 -0.0017983826 -0.012573313000000001 -0.0081780208 -0.0046692407 -0.002113062 -0.015112376 -0.0098170089 -0.005588102199999999 -0.0025270078 -0.018932465 -0.01230052 -0.006981684399999999 -0.0031615118 -0.024839716 -0.016233341999999998 -0.0092467349 -0.004231012 -0.033654474 -0.022275811 -0.012905139 -0.0061047897 -0.045573354 -0.030655172 -0.018363191 -0.0093149012 -0.059905930999999996 -0.041080154 -0.025834586 0.0 0.0 0.0 0.0 0.0 0.0 0.0 0.0 0.0 0.0 0.0 0.0 0.0 0.0 0.0 0.0 0.0 0.0 0.0 0.0 0.0 0.0 0.0 0.0 0.0 0.0 0.0 0.0 0.0 0.0 0.0 0.0 0.0 0.0 0.0 0.0 0.0 0.0 0.0 0.0 0.0 0.0 0.0 0.0 0.0 0.0 0.0 0.0 0.0 0.0 0.0 0.0 0.0 0.0 0.0 0.0 0.0 0.0 0.0 0.0 0.0 0.0 0.0 0.0 0.0 0.0 0.0 0.0 0.0 0.0 0.0 0.0 0.0 0.0 0.0 0.0 0.0 0.0 0.0 0.0 0.0 0.0 0.0 0.0 0.0 0.0 0.0 0.0 0.0 0.0 0.0 0.0 0.0 0.0 0.0 0.0 0.0 0.0 0.0 0.0 0.0 0.0 0.0 0.0 0.0 0.0 0.0 0.0 0.0 0.0 0.0 0.0 0.0 0.0 0.0 0.0 0.0 0.0 0.0 0.0 0.0 0.0 0.0 0.0 0.0 0.0 0.0 0.0 0.0 0.0 0.0 0.0 0.0 0.0 0.0 0.0 0.0 0.0 0.0 0.0 0.0 0.0 0.0 0.0 0.0 0.0 0.0 0.0 0.0 0.0 0.0 0.0 0.0 0.0 0.0 0.0 0.0 0.0 0.0 0.0 0.0 0.0 0.0 0.0 0.0 0.0 0.0 0.0 0.0 0.0 0.0 0.0 0.0 0.0 0.0 0.0 0.0 0.0 0.0 0.0 0.0 0.0 0.0 0.0 0.0 0.0 0.0 0.0 0.0 0.0 0.0 0.0 0.0 0.0 0.0 0.0 0.0 0.0 0.0 0.0 0.0 0.0 0.0 0.0 0.0 0.0 0.0 0.0 0.0 0.0 0.0 0.0 0.0 0.0 0.0 0.0 0.0 0.0 0.0 0.0 0.0 0.0 0.0 0.0 0.0 0.0 0.0 0.0 0.0 0.0 0.0 0.0 0.0 0.0 0.0 0.0 0.0 0.0 0.0 0.0 0.0 0.0 0.0 0.0 0.0 0.0 0.0 0.0 0.0 0.0 0.0 0.0 0.0 0.0 0.0 0.0 0.0 0.0 0.0 0.0 0.0 0.0 0.0 0.0 0.0 0.0 0.0 0.0 0.0 0.0 0.0 0.0 0.0 0.0 0.0 0.0 0.0 0.0 0.0 0.0 0.0 0.0 0.0 0.0 0.0 0.0 0.0 0.0 0.0 0.0 0.0 0.0 0.0 0.0 0.0 0.0 0.0 0.0 0.0 0.0 0.0 0.0 0.0 0.0 0.0 0.0 0.0 0.0 0.0 0.0 0.0 0.0 0.0 0.0 0.0 0.0 0.0 0.0 0.0 0.0 0.0 0.0 0.0 0.0 0.0 0.0 0.0 0.0 0.0 0.0 0.0 0.0 0.0 0.0 0.0 0.0 0.0 0.0 0.0 0.0 0.0 0.0 0.0 0.0 0.0 0.0 0.0 0.0 0.0 0.0 0.0 0.0 0.0 0.0 0.0 0.0 0.0 0.0 0.0 0.0 0.0 0.0 0.0 0.0 0.0 0.0 0.0 0.0 0.0 0.0 0.0 0.0 0.0 0.0 0.0 0.0 0.0 0.0 0.0 0.0 0.0 0.0 0.0 0.0 0.0 0.0 0.0 0.0 0.0 0.0 0.0 0.0 0.0 0.0 0.0 0.0 0.0 0.0 0.0 0.0 0.0 0.0 0.0 0.0 0.0 0.0 0.0 0.0 0.0 0.0 0.0 0.0 0.0 0.0 0.0 0.0 0.0 0.0 0.0 0.0 0.0 0.0 0.0 0.0 0.0 0.0 0.0 0.0 0.0 0.0 0.0 0.0 0.0 0.0 0.0 0.0 0.0 0.0 0.0 0.0 0.0 0.0 0.0 0.0 0.0 0.0 0.0 0.0 0.0 0.0 0.0 0.0 0.0 0.0 0.0 0.0 0.0 0.0 0.0 0.0 0.0 0.0 0.0 0.0 0.0 0.0 0.0 0.0 0.0 0.0 0.0 0.0 -0.014787836 -0.017645446999999998 -0.019995565 -0.021845907 -0.023260141 -0.01443304 -0.018255333999999998 -0.021556545 -0.024234317000000002 -0.026310995 -0.027874637 -0.017193394 -0.02156263 -0.025292682 -0.028256485 -0.030498199 -0.032140903 -0.02006967 -0.025054218 -0.029257962000000002 -0.032524534 -0.034918796 -0.03660674 -0.02349266 -0.029177986 -0.033904042 -0.037504889 -0.040064823 -0.041784834 -0.028285018999999998 -0.034672413 -0.039825417 -0.043663032000000004 -0.046333427999999996 -0.048059467 -0.035741076000000004 -0.042658303 -0.047820090999999995 -0.051515757999999995 -0.054045780999999994 -0.055653050999999995 -0.047608238 -0.054498434000000005 -0.058758672000000005 -0.061542057000000004 -0.06343254400000001 -0.06465681599999999 -0.06571946299999999 -0.07130923900000001 -0.073190995 -0.07396706900000001 -0.074560136 -0.07506287099999999 -0.090853564 -0.092944026 -0.090749934 -0.088493399 -0.087260664 -0.0867927 -0.12055773 -0.11705916 -0.10982279 -0.10419419 -0.1010823 -0.0996641 -0.14490397 -0.13902612 -0.12799749 -0.11988802 -0.11549076 -0.11346379 -0.15082563 -0.15204026 -0.142855 -0.13476489 -0.13021448 -0.12811847 -0.15123336 -0.15814118 -0.15469661 -0.14901938 -0.14546916 -0.14379427 -0.15803742 -0.16551663 -0.16659898 -0.16396518 -0.16192231 -0.16085003 -0.17229539 -0.17872448 -0.18158983 -0.18110126 -0.18027912 -0.17968237 -0.19263498 -0.19783467 -0.2008601 -0.20119676 -0.2009743 -0.20061159 -0.21725997 -0.22146034 -0.22399631 -0.22427858 -0.22420949 -0.22390562 -0.24471509 -0.24850284 -0.2503798 -0.25028563 -0.25015604 -0.249805 -0.27507275 -0.27870926 -0.27990335 -0.27932027 -0.2790004 -0.27848721 -0.30890206 -0.312343 -0.31268919 -0.31151596 -0.310882 -0.31008244 -0.34684211 -0.34961045 -0.34886068 -0.34700644 -0.34591824 -0.34468612 -0.38922831 -0.39060384 -0.38856134 -0.38590288 -0.38414147 -0.38226989 -0.43586683 -0.43506324 -0.43171191 -0.42800805 -0.4252052 -0.42239445 -0.48558879 -0.48190996 -0.47748286 -0.47223279 -0.46781376 -0.46367151 -0.53542435 -0.52852845 -0.52339709 -0.51571095 -0.5089376 -0.50306875 -0.57967573 -0.56977391 -0.56421411 -0.55276573 -0.54304022 -0.53528488 -0.60994387 -0.59735823 -0.59124082 -0.57464188 -0.56175518 -0.55248606 -0.61414397 -0.59913182 -0.59222186 -0.56985182 -0.55436867 -0.54468948 -0.5744434 -0.55755043 -0.55002749 -0.52390718 -0.50833607 -0.50004375 -0.46441194 -0.44758129 -0.44259131 -0.41991353 -0.40711477 -0.4030202 -0.24838817 -0.23718426 -0.25120592 -0.23674202 -0.23087962 -0.23346601 0.10072203 0.091826349 0.052675277 0.043374985 0.036735907000000005 0.026996017 0.57078165 0.52713335 0.46289271 0.42666352 0.40041006 0.38332367 1.0993248 1.0026 0.92707491 0.88382137 0.83796394 0.81489122 1.5492487 1.4406695 1.3802893999999999 1.349293 1.295747 1.2689641 1.8767926 1.7907706 1.7373532999999999 1.7299209999999998 1.6888365 1.6666811000000001 2.0596082 1.9819504000000001 1.9079311999999997 1.929791 1.9214276000000001 1.9217256 2.0907240000000002 2.0379273999999996 1.9303843999999997 1.9756894 1.9954753 2.0162343999999996 2.0282495 1.9998266 1.8679183999999998 1.9250677999999999 1.9601107 1.9919941000000003 1.9358265 1.9261938000000003 1.7834892 1.8408717 1.8778881999999997 1.9106827000000002 1.8523698 1.8517683999999996 1.7118852999999998 1.7618051 1.7901943 1.8160629000000001 1.7774038 1.7783077 1.6464496 1.6876539000000002 1.7036195 1.7186046000000001 1.6949328999999997 1.6913842000000001 1.566478 1.5976458999999998 1.6003754 1.6027328 1.5825113000000002 1.5710298 1.4491553 1.4680886999999998 1.4571911 1.4464039 1.4308016000000001 1.4108167 1.2852385 1.2891436 1.2638843000000002 1.2407169 1.2513372999999999 1.2202582 1.0873754 1.0722795 1.0331662 0.99992388 1.0663638 1.0152364 0.87962961 0.84428334 0.79733491 0.75664127 0.89859366 0.82481527 0.68709767 0.64164251 0.58885318 0.54316568 0.76110518 0.66934937 0.53075987 0.48238367 0.42461535 0.37733567 0.65414464 0.54825437 0.41447696 0.36599201 0.30658418 0.26055291 0.57089078 0.44878322 0.32898295 0.28327477 0.22633223 0.18343349 0.4903532 0.3685368 0.26260567 0.22181322 0.17115527 0.13301764 0.4006131 0.30183697 0.20968994 0.17270342 0.13039422 0.09888038 0.34741318 0.25142133 0.16046785 0.12808549 0.098396115 0.074719362 0.21267411 0.11172038 0.085484058 0.071259819 0.057651274 0.18490568 0.08364439 0.04715839 0.047631294000000005 0.045002430999999996 0.09678062800000001 0.032731004 0.033407598999999996 0.036042042 0.12988882 0.069565944 0.039592646 0.036803424 0.13404714 0.08465918900000001 0.062615752 0.15516359 0.12762247 0.14926876 0.19755447 -0.024315901 -0.025078809 -0.025599806 -0.025928812000000002 -0.026116882999999997 -0.026210014 -0.026245473 -0.026251498999999998 -0.026247581000000002 -0.029026893999999998 -0.029849682000000002 -0.030402109 -0.030741161 -0.030926559 -0.031010572 -0.03103495 -0.03103105 -0.031020388 -0.033318672 -0.03413517 -0.034661144 -0.034963105 -0.035110041 -0.03515904 -0.035154462000000004 -0.035129078 -0.035105262000000005 -0.037763771 -0.038522337000000004 -0.038970605 -0.039190697999999996 -0.039263185 -0.039249565 -0.039195862000000005 -0.039135393 -0.039090604 -0.042889569 -0.043548554 -0.043874584 -0.043972634000000003 -0.04393665099999999 -0.04383321900000001 -0.043709975 -0.043600297999999996 -0.043526184 -0.049077882999999996 -0.049595099000000004 -0.049757667 -0.049696829000000005 -0.049520779 -0.049302042000000004 -0.049089823 -0.048917335 -0.048805952 -0.056526087 -0.056851953 -0.056809448 -0.056554034 -0.056208725999999994 -0.055851754 -0.05553342 -0.055286314 -0.055130646 -0.065269627 -0.06535095 -0.065060452 -0.06457653599999999 -0.06403613799999999 -0.063522071 -0.063084327 -0.062753603 -0.062548593 -0.075270861 -0.07505294700000001 -0.07447981099999999 -0.073740698 -0.072986595 -0.072302893 -0.071737774 -0.071318865 -0.071061902 -0.086493425 -0.085945614 -0.08507902199999999 -0.08407515300000001 -0.083101004 -0.082244977 -0.08155188 -0.081044935 -0.080736615 -0.098879077 -0.09802532900000001 -0.096889108 -0.095636435 -0.0944537 -0.09343448300000001 -0.092621081 -0.09203212 -0.09167628 -0.11236013 -0.11128589 -0.10993917 -0.10848131 -0.10712073 -0.10596082 -0.10504372 -0.10438462 -0.1039884 -0.12693977 -0.12576206 -0.12428607 -0.12268738 -0.12119637 -0.11993011 -0.11893424 -0.11822227 -0.11779597 -0.14273973 -0.14155903 -0.14003588 -0.13836712 -0.1368016 -0.13547128 -0.13442762 -0.13368408 -0.13324042 -0.15998802 -0.15885668 -0.1573495 -0.15567157 -0.1540854 -0.15273471 -0.15167664 -0.15092556 -0.15047869 -0.17896561 -0.17789301 -0.17643046 -0.17478226 -0.17321718 -0.17188498 -0.17084457 -0.170109 -0.16967307 -0.19996241 -0.19892582 -0.1974996 -0.19589251 -0.19437282 -0.19308698 -0.19208972 -0.19138929 -0.19097601 -0.22325318 -0.22219445 -0.22076504 -0.2191852 -0.2177147 -0.21648757 -0.21554714 -0.21489248 -0.21450868 -0.24905799 -0.24789591 -0.24640264 -0.24481206 -0.24337077 -0.24219257 -0.24130328 -0.24069038 -0.2403335 -0.27754009 -0.27618119 -0.27454334 -0.27287635 -0.27141199 -0.2702412 -0.26936913 -0.26877227 -0.26842508 -0.30882052 -0.30715472 -0.30526349 -0.30341357 -0.30182862 -0.30057889 -0.29965213 -0.29901531 -0.29864341 -0.34296909 -0.34085292 -0.33855096 -0.33635181 -0.3344861 -0.33301386 -0.33191299 -0.33114687 -0.33069295 -0.37990588 -0.37713605 -0.3741931 -0.37140188 -0.36902082 -0.36711949 -0.36567369 -0.36465088 -0.36403632 -0.419117 -0.41541088 -0.41151118 -0.40780094 -0.40459871 -0.40200162 -0.39999467 -0.39855468 -0.3976807 -0.45914808 -0.45415238 -0.44890544 -0.44388115 -0.43949699 -0.43589595 -0.4330799 -0.43103951 -0.42979318 -0.49698135 -0.49033198 -0.48332268 -0.47656453 -0.47061393 -0.46568316 -0.46179649 -0.45896149 -0.45722139 -0.52751905 -0.51899534 -0.50989455 -0.50102812 -0.4931514 -0.48657399 -0.48135549 -0.47752762 -0.47516921 -0.54339719 -0.53316343 -0.52192783 -0.51075768 -0.50068593 -0.49218789 -0.48538569 -0.4803614 -0.47725007 -0.53526545 -0.52409017 -0.51120925 -0.49791965 -0.48559794 -0.4749828 -0.46635252 -0.45989978 -0.45587116 -0.49192858 -0.48118234 -0.4677034 -0.45293102 -0.43855262 -0.42569375 -0.41494364 -0.40674469 -0.40155715 -0.39841264 -0.38980156 -0.37700719 -0.36158842 -0.34547526 -0.33022788 -0.31695336 -0.30654901 -0.29985285 -0.23441227 -0.22951485 -0.2184726 -0.2030672 -0.18546475 -0.16764303 -0.15136591 -0.13821214 -0.12959224 0.0200039 0.020706519 0.029749632 0.045064718 0.064205155 0.084839895 0.10455881 0.12097232 0.13191582 0.37218454 0.37032175 0.37859875 0.39467719 0.41585737 0.43962634 0.46309969 0.48310649 0.49664044 0.8034482 0.80291671 0.81335789 0.83206624 0.85625553 0.88350302 0.91076446 0.93431604 0.95040643 1.2615582 1.2673285 1.2837903 1.3074931 1.3357493 1.3665652 1.3971732 1.4236946000000001 1.4419016000000002 1.6670398999999998 1.6830068999999999 1.7084805 1.7388606 1.7716843999999998 1.8056898999999997 1.8388133999999998 1.8674124 1.8870776000000002 1.9382807 1.9667689999999998 2.0019120999999998 2.0392276999999996 2.0766454 2.1136661 2.1489482000000004 2.1791967999999997 2.1999664 2.0468406999999997 2.0858817 2.1294241 2.1732664 2.2155304 2.2561169 2.2941227000000004 2.3264298 2.3485353 2.0303192 2.0753150000000002 2.1241825 2.1729279 2.2195277 2.2638545 2.3050296 2.3398316 2.3635645 1.9495206000000003 1.9948226999999998 2.0448062 2.0956159 2.1448717 2.1920962000000004 2.2360797000000003 2.273247 2.2985671 1.8493192999999999 1.8898488999999998 1.936769 1.9863493000000003 2.0358036 2.0841701 2.1297426 2.1684542 2.1948819 1.7423136000000001 1.7746117 1.8153238 1.8608226000000003 1.9079778000000003 1.9553771 2.0008202 2.0397906000000003 2.066519 1.6150265 1.6374977 1.6703508000000002 1.7099593000000002 1.752949 1.7975416000000002 1.8411696 1.8790301999999999 1.9051622 1.4469508 1.4595703000000002 1.4844162 1.5176523000000002 1.5556517 1.5963535 1.6369861 1.67268 1.6974901999999998 1.2303985 1.2345181 1.2526551000000001 1.2804081 1.3137969999999999 1.3505194 1.3877561 1.4207895000000001 1.4438921999999998 0.98117661 0.97956753 0.99353182 1.0177691999999998 1.0478518 1.0812981000000002 1.1153877 1.1457443 1.1670364 0.73300552 0.72894526 0.74141192 0.76408869 0.79212749 0.82298285 0.85419238 0.88188666 0.90129054 0.51800847 0.5139575 0.52659655 0.54873019 0.57523167 0.60363787 0.63187289 0.65669882 0.67401838 0.35269946 0.34967551 0.36283815 0.38439509 0.40912774 0.43476853 0.4596906 0.48132744 0.49632478 0.23718856 0.23497246 0.24796581 0.26819149 0.29053599 0.31297544 0.33429316 0.35253012 0.36506563 0.1615531 0.15925625 0.17078628 0.18860711 0.20790869 0.22687888 0.24455853 0.25944582 0.26957166 0.11320948 0.1099615 0.11861551 0.13295248 0.14873555 0.16425377 0.17856745 0.19044103 0.19841219 0.08216314 0.07773719700000001 0.08246333900000001 0.09238211800000001 0.10430388 0.11651501 0.12789781 0.13727477 0.14349671 0.062507927 0.05784072 0.058579325999999994 0.063420698 0.071010292 0.07983452099999999 0.08855433800000001 0.095895946 0.10078056 0.051389344 0.048374600999999996 0.046506137 0.046430439000000004 0.049021645999999995 0.053879574000000006 0.059689297999999995 0.065049782 0.06877812700000001 0.045984514000000004 0.046985716 0.04528001 0.042064473 0.039817393 0.039919615 0.042047918 0.044916480999999994 0.047239453 0.042724705999999994 0.049316429 0.051002309 0.047975845999999996 0.043043092000000005 0.03895025 0.036873281 0.036545351000000004 0.036968172 0.039947994 0.049981832999999996 0.057263821 0.058191717000000004 0.054282598 0.048709325 0.043852717 0.040638968 0.039018214 0.049038857000000005 0.047959990999999993 0.057534561 0.064802401 0.066089839 0.063056782 0.058549120999999996 0.054496683 0.05187105400000001 0.086227186 0.062175781 0.05419939 0.061787814 0.07028058200000001 0.074132495 0.073945738 0.07209716 0.07040920099999999 0.14824621 0.1073525 0.075730622 0.061757274 0.064998887 0.075168878 0.082645655 0.086283013 0.087595411 0.17481588 0.15034355 0.1252346 0.09955617800000001 0.08157163099999999 0.077969685 0.083481103 0.09099534199999999 0.09583655 0.13875671 0.14284185 0.13226904 0.12610069 0.11891745 0.11495949 0.11126967 0.11077654 0.10974123 0.12379302 0.12396795 0.12701294 0.13104805 0.14210227 0.08267521900000001 0.085934132 0.08204513 0.081060916 -0.02624503 -0.026247576 -0.026251495 -0.026245473 -0.026210007999999996 -0.026116891 -0.02592881 -0.025599813 -0.031015482 -0.03102039 -0.03103105 -0.03103495 -0.031010572 -0.030926567000000002 -0.030741168 -0.030402109 -0.035095926 -0.035105269 -0.035129081 -0.035154462000000004 -0.035159051000000004 -0.035110041 -0.034963094 -0.034661137 -0.039074276 -0.039090604 -0.039135396 -0.039195843 -0.039249551 -0.039263181 -0.039190695 -0.038970608 -0.043500150999999994 -0.043526173 -0.043600284 -0.043709967 -0.043833240999999995 -0.043936644000000004 -0.043972649 -0.043874592000000004 -0.048767537 -0.048805952 -0.048917349000000006 -0.04908983 -0.049302042000000004 -0.049520775999999996 -0.049696847999999995 -0.049757689 -0.05507760900000001 -0.055130679 -0.055286333 -0.055533427999999996 -0.055851776 -0.05620873 -0.056554016 -0.056809474000000006 -0.062479198 -0.062548593 -0.062753662 -0.063084312 -0.063522041 -0.06403619099999999 -0.064576492 -0.065060467 -0.070975423 -0.071061917 -0.071318835 -0.071737811 -0.0723029 -0.07298661 -0.073740683 -0.074479848 -0.080633216 -0.080736637 -0.081044927 -0.08155185 -0.082244955 -0.083100989 -0.08407510800000001 -0.085078999 -0.091557272 -0.091676295 -0.092032135 -0.092621051 -0.093434468 -0.09445366300000001 -0.09563648699999999 -0.096889116 -0.10385628 -0.10398841 -0.10438467 -0.10504374 -0.10596082 -0.10712073 -0.10848136 -0.10993914 -0.11765406 -0.11779593 -0.11822227 -0.11893425 -0.11993013 -0.12119634 -0.12268735 -0.12428601 -0.13309313 -0.13324042 -0.13368413 -0.13442755 -0.13547127 -0.13680163 -0.1383671 -0.14003591 -0.15033065 -0.15047874 -0.15092552 -0.15167665 -0.15273468 -0.15408531 -0.1556716 -0.15734951 -0.16952892 -0.16967312 -0.17010896 -0.17084451 -0.17188497 -0.17321718 -0.17478229 -0.17643051 -0.19083986 -0.19097596 -0.19138923 -0.19208981 -0.193087 -0.19437274 -0.19589262 -0.19749948 -0.21438256 -0.21450874 -0.21489248 -0.21554716 -0.21648757 -0.21771473 -0.21918522 -0.22076507 -0.24021642 -0.24033354 -0.24069051 -0.24130324 -0.24219273 -0.2433708 -0.24481213 -0.24640262 -0.2683115 -0.26842514 -0.2687721 -0.2693691 -0.27024117 -0.27141219 -0.27287623 -0.27454343 -0.29852095 -0.2986435 -0.29901543 -0.2996521 -0.30057892 -0.30182874 -0.30341345 -0.30526349 -0.33054256 -0.33069298 -0.33114678 -0.33191302 -0.33301371 -0.33448592 -0.3363516 -0.33855107 -0.36383098 -0.36403617 -0.3646507 -0.36567372 -0.36711955 -0.36902073 -0.37140223 -0.37419316 -0.39738712 -0.39768076 -0.3985545 -0.39999473 -0.40200153 -0.40459871 -0.40780079 -0.41151103 -0.42937297 -0.42979333 -0.43103954 -0.43308008 -0.43589592 -0.43949699 -0.44388133 -0.44890511 -0.45663315 -0.45722148 -0.45896128 -0.46179667 -0.46568358 -0.47061414 -0.47656426 -0.48332274 -0.47437018 -0.47516891 -0.4775272 -0.48135543 -0.48657405 -0.49315065 -0.501028 -0.50989443 -0.47619268 -0.47725022 -0.48036131 -0.48538619 -0.4921878 -0.50068641 -0.51075763 -0.52192795 -0.45449585 -0.45587063 -0.45989957 -0.46635252 -0.47498298 -0.48559755 -0.49792007 -0.51120919 -0.39977485 -0.40155691 -0.40674493 -0.41494364 -0.42569357 -0.43855312 -0.45293093 -0.46770376 -0.29753363 -0.2998527 -0.30654883 -0.31695354 -0.3302283 -0.34547547 -0.36158782 -0.37700719 -0.12658137 -0.12959218 -0.13821197 -0.15136576 -0.167643 -0.18546441 -0.20306717 -0.21847291 0.13576883 0.13191596 0.12097232 0.1045588 0.084839746 0.06420514 0.045064673 0.029749407999999998 0.50143772 0.4966405 0.48310679 0.46309978 0.43962616 0.4158574 0.39467722 0.37859878 0.95613873 0.95040643 0.93431592 0.91076446 0.88350272 0.85625577 0.83206642 0.81335771 1.4484076000000001 1.4419017 1.4236950000000002 1.3971726999999998 1.3665651 1.3357493 1.3074928999999997 1.2837903 1.8941139999999999 1.8870769 1.8674130000000002 1.8388133000000002 1.8056898000000001 1.7716843 1.7388599999999999 1.7084806000000001 2.2073998 2.1999664 2.1791964 2.148948 2.1136652999999996 2.0766463 2.039228 2.0019120999999998 2.3564382 2.3485355 2.3264298 2.2941227000000004 2.2561171000000004 2.2155299 2.1732664 2.1294236 2.3720379 2.3635653999999997 2.3398309 2.3050289 2.2638542999999998 2.2195277 2.1729283 2.1241837 2.3076022000000003 2.2985667999999997 2.2732472 2.2360811000000003 2.1920957999999997 2.1448715 2.0956161 2.0448072 2.2043192000000005 2.1948822 2.1684542 2.1297426 2.0841701 2.0358033 1.9863495999999998 1.9367685000000001 2.0760827 2.0665195 2.0397901999999997 2.0008202 1.9553770000000001 1.9079783 1.8608220000000002 1.8153249 1.9145371999999998 1.9051623 1.8790305 1.84117 1.7975416000000002 1.752948 1.7099593999999998 1.6703512999999999 1.7064192999999999 1.6974900000000002 1.6726789 1.6369855 1.5963528 1.555652 1.5176519 1.4844177 1.4522312 1.4438921999999998 1.4207893999999999 1.3877563 1.3505192 1.3137975 1.2804084 1.2526549999999999 1.1747338 1.1670363000000001 1.1457443 1.1153876 1.0812981000000002 1.0478519 1.0177689 0.99353194 0.90830386 0.90129006 0.88188672 0.8541925 0.82298243 0.79212737 0.76408839 0.74141145 0.68026841 0.67401803 0.65669858 0.63187301 0.60363793 0.57523185 0.54873031 0.52659625 0.50172228 0.49632505 0.48132759 0.45969036 0.43476856 0.40912759 0.384395 0.36283773 0.36956081 0.36506596 0.35252994 0.33429334 0.31297556 0.29053587 0.26819152 0.24796581 0.27318412 0.26957166 0.25944608 0.24455854 0.22687884 0.20790851 0.18860705 0.1707862 0.20123558 0.19841205 0.19044101 0.1785678 0.16425358 0.14873566 0.1329526 0.11861563 0.14568321 0.14349674 0.13727507 0.12789753 0.11651516 0.10430391 0.09238204400000001 0.082463309 0.10249339 0.10078071 0.09589593099999999 0.088554084 0.07983472900000001 0.071010426 0.063420787 0.058579385 0.070108667 0.068778157 0.065049917 0.059689179 0.053879663 0.049021630999999996 0.046430603 0.046506211 0.048121139 0.047239602 0.04491663 0.042048141 0.039919838 0.039817452 0.042064682 0.045279995 0.037227407000000004 0.036968336 0.03654547 0.036873221 0.038950293999999996 0.043043240999999996 0.047975935 0.051002435 0.038547367 0.039018348 0.040638864 0.04385282099999999 0.048709258 0.054282695 0.058191739000000006 0.057263926 0.050974108 0.051871017 0.05449669099999999 0.058549150999999994 0.063056715 0.066089921 0.064802237 0.057534523 0.069755055 0.070409141 0.07209700299999999 0.073945709 0.074132502 0.07028053 0.061787769000000006 0.054199539000000005 0.087908946 0.087595403 0.086282909 0.082645573 0.075168759 0.06499873099999999 0.061757295999999996 0.075730525 0.09746751199999999 0.09583649 0.090995312 0.083480865 0.07796953599999999 0.081571586 0.09955622300000001 0.12523472 0.11161028 0.11077657 0.11126953 0.1149594 0.11891709 0.12610041 0.13226895 0.14284147 0.14822967 0.14210214 0.13104804 0.12701268 0.12396773 0.12379287 0.10974111 0.08346349 0.081060678 0.08204516 0.085934043 0.08267498 -0.025078811 -0.024315893999999998 -0.023260145 -0.021845909 -0.019995561000000002 -0.017645443 -0.014787834 -0.029849676000000002 -0.029026903 -0.027874634 -0.026310997000000003 -0.024234325 -0.021556554 -0.018255332 -0.014433043999999999 -0.03413517 -0.033318669 -0.032140903 -0.030498201000000003 -0.028256489 -0.025292682 -0.021562634 -0.017193394 -0.038522322000000005 -0.037763782 -0.036606751 -0.034918811 -0.032524541000000004 -0.02925797 -0.025054227999999998 -0.020069668 -0.04354855 -0.042889584 -0.041784838 -0.040064819 -0.037504893 -0.033904052999999996 -0.029177986 -0.02349266 -0.04959508 -0.049077868 -0.04805949 -0.046333432 -0.04366304 -0.039825417 -0.034672413 -0.028285025 -0.056851961 -0.056526106 -0.055653050999999995 -0.0540458 -0.051515757999999995 -0.047820088 -0.042658307 -0.035741072 -0.065350957 -0.065269679 -0.06465678700000001 -0.063432552 -0.061542079000000006 -0.058758669000000006 -0.054498437999999996 -0.04760823 -0.075052992 -0.075270846 -0.07506289299999999 -0.07456018 -0.07396706900000001 -0.073191009 -0.07130923900000001 -0.065719448 -0.085945569 -0.086493418 -0.0867927 -0.08726067800000001 -0.088493407 -0.09074997900000001 -0.09294401099999999 -0.090853617 -0.09802533699999999 -0.098879077 -0.09966415199999999 -0.10108227 -0.10419416 -0.10982282 -0.11705916 -0.12055771 -0.1112859 -0.11236012 -0.11346375 -0.11549083 -0.11988807 -0.12799752 -0.13902608 -0.144904 -0.12576216 -0.12693977 -0.12811852 -0.13021448 -0.13476487 -0.14285502 -0.15204024 -0.15082566 -0.14155914 -0.14273985 -0.14379436 -0.14546911 -0.14901933 -0.15469655 -0.1581412 -0.15123335 -0.15885675 -0.15998799 -0.16084999 -0.16192231 -0.1639653 -0.16659896 -0.16551657 -0.15803739 -0.17789301 -0.17896564 -0.17968246 -0.18027924 -0.18110125 -0.18158983 -0.17872459 -0.17229544 -0.19892585 -0.19996257 -0.20061162 -0.20097429 -0.20119673 -0.20086013 -0.1978346 -0.19263501 -0.22219455 -0.22325313 -0.22390553 -0.22420943 -0.22427864 -0.22399627 -0.22146048 -0.21725997 -0.24789602 -0.24905804 -0.24980502 -0.25015619 -0.25028577 -0.25037986 -0.24850294 -0.24471515 -0.27618125 -0.27754021 -0.27848744 -0.27900049 -0.27932027 -0.27990326 -0.27870929 -0.27507287 -0.30715466 -0.3088204 -0.31008258 -0.31088194 -0.31151611 -0.3126893 -0.31234306 -0.30890217 -0.34085295 -0.34296876 -0.34468621 -0.34591839 -0.3470065 -0.34886098 -0.34961045 -0.34684223 -0.37713608 -0.37990576 -0.38226989 -0.38414153 -0.38590288 -0.38856155 -0.3906039 -0.38922846 -0.41541091 -0.41911662 -0.42239451 -0.42520517 -0.42800817 -0.43171188 -0.43506318 -0.43586686 -0.45415196 -0.45914811 -0.46367151 -0.46781376 -0.47223288 -0.47748291 -0.48191017 -0.48558885 -0.49033213 -0.49698138 -0.50306875 -0.50893742 -0.51571077 -0.52339679 -0.52852839 -0.53542447 -0.51899534 -0.52751905 -0.53528488 -0.54304028 -0.55276543 -0.56421399 -0.56977391 -0.57967573 -0.53316301 -0.54339737 -0.55248606 -0.56175506 -0.5746417 -0.5912407 -0.59735799 -0.60994363 -0.52409035 -0.53526592 -0.54468936 -0.55436844 -0.56985188 -0.59222186 -0.59913188 -0.61414385 -0.48118213 -0.49192873 -0.50004339 -0.50833595 -0.52390766 -0.55002761 -0.55755019 -0.57444352 -0.38980144 -0.39841226 -0.40302032 -0.4071148 -0.41991377 -0.44259137 -0.44758135 -0.46441182 -0.22951506 -0.23441258 -0.23346622 -0.23087969 -0.23674205 -0.25120622 -0.23718427 -0.24838807 0.020706624 0.020004049 0.026995792999999997 0.036735624 0.043374717 0.052675158 0.091826484 0.10072196 0.37032166 0.37218451 0.38332328 0.40040982 0.42666355 0.46289277 0.52713311 0.57078165 0.80291677 0.80344814 0.8148911 0.83796376 0.88382137 0.92707455 1.0025998 1.0993249 1.2673291000000002 1.2615581 1.2689641999999999 1.2957469 1.3492933999999999 1.3802903 1.4406700000000001 1.5492483 1.6830057 1.66704 1.6666808000000002 1.6888366000000001 1.7299210999999999 1.7373536 1.7907706 1.8767936 1.9667689999999998 1.9382818 1.9217256999999999 1.9214275 1.929791 1.9079325 1.9819498 2.0596080000000003 2.0858827 2.0468421 2.0162351000000003 1.9954764999999999 1.9756900000000002 1.9303854 2.0379278999999997 2.0907240000000002 2.0753145 2.0303204 1.9919947 1.9601121 1.9250683000000002 1.8679189999999999 1.9998269 2.0282495 1.9948235 1.9495220000000002 1.9106828999999999 1.8778892 1.8408727999999999 1.7834904999999999 1.9261943 1.9358265 1.8898499 1.8493195 1.8160638 1.7901947 1.7618055000000001 1.7118855 1.8517685000000002 1.8523698 1.7746129000000002 1.7423148000000002 1.7186043000000002 1.7036194 1.6876543000000002 1.6464499 1.7783069999999999 1.7774037 1.6374983 1.6150267 1.6027329 1.6003741000000002 1.5976465 1.5664781 1.6913843000000002 1.6949325000000002 1.4595697 1.4469506 1.4464033 1.4571908000000002 1.4680893 1.4491553 1.5710301000000002 1.5825107 1.2345178999999997 1.2303983 1.2407171000000001 1.2638841 1.2891433 1.2852389 1.4108167 1.430801 0.97956705 0.98117596 0.99992323 1.0331656999999999 1.0722796 1.0873749 1.2202578000000002 1.2513372999999999 0.7289449 0.73300552 0.75664145 0.79733479 0.8442834 0.87962949 1.0152366 1.0663637 0.51395726 0.51800841 0.54316545 0.58885288 0.64164257 0.68709713 0.82481515 0.89859378 0.34967524 0.35269928 0.37733543 0.42461506 0.48238337 0.53075993 0.66934925 0.76110542 0.23497251 0.23718826 0.2605527 0.30658406 0.36599201 0.41447681 0.54825449 0.65414464 0.15925629 0.16155301 0.18343334 0.22633214 0.28327471 0.32898301 0.44878322 0.57089067 0.10996158 0.1132094 0.13301757 0.17115529 0.22181328 0.26260564 0.36853701 0.49035332 0.077737182 0.082163177 0.09888041 0.13039416 0.17270325 0.20968965 0.30183673 0.40061295 0.057840779 0.062507942 0.074719295 0.09839612199999999 0.12808552 0.16046785 0.25142092 0.34741312 0.048374727 0.05138940400000001 0.057651363 0.071259722 0.085484035 0.11172055 0.2126738 0.046985753 0.045984477 0.045002497999999995 0.047631234 0.047158584 0.083644129 0.18490529 0.049316480999999995 0.04272472099999999 0.036042012000000005 0.033407517000000005 0.032731116 0.09678032199999999 0.049981892 0.039948143 0.036803514 0.039592646 0.069565691 0.12988847 0.047960043 0.049038835 0.06261578200000001 0.084659383 0.13404737 0.062175750999999994 0.086227283 0.12762262 0.15516351 0.10735261 0.14824612 0.19755423 0.14926866 0.1503434 0.17481573 0.13875648 
VonMises3D 1 2975 float
0.0 0.0 0.0 0.0 0.0 0.0 0.0 0.0 0.0 0.0 0.0 0.0 0.0 0.0009802624099999999 2.4728373e-16 0.0072433511 0.040652096 0.015425052 0.10928561 0.28447694 0.14465784 0.52689093 1.0466586 0.56325936 1.5693643999999998 2.7349997000000004 1.4510192 3.5266193999999995 5.723194599999999 2.9033048 6.5360942 10.185718 4.868702900000001 10.484281 15.955817000000001 7.1605849 15.024757999999999 22.525793 9.553593600000001 19.748829 29.291227000000003 11.909203999999999 24.413128 35.911953000000004 14.258532 29.07275 42.581309999999995 17.535994 34.150887 50.518402 31.660688 43.556090999999995 63.052464 90.334808 83.941048 85.72753900000001 257.76114 218.42909 120.51923000000001 639.89484 521.8937400000001 157.72136 1020.3674 213.19179 0.0 0.0 0.0 0.0 0.0 0.0 0.0 0.0 0.0 0.0 0.0 0.0 0.0 0.0 0.0 0.0 0.0 0.0 0.0 0.0 0.0 0.0 0.0 0.0 0.0 6.2293009e-05 0.00019379935000000002 0.00010940347 0.00014150598 0.0002489636 0.00027861685 0.00029504296000000004 0.006111619499999999 0.012954175 0.015718317 0.011510523 0.0018547761999999999 0.0085592521 0.014782293 0.016378568 0.08843798900000001 0.12259824 0.12446126 0.08961824300000001 0.027210707 0.04108467 0.092340104 0.11740958 0.45248181 0.53777939 0.50733566 0.35831362 0.12222729 0.13233244 0.33170149 0.44280818 1.4523811000000002 1.6035653 1.4550662 1.0131934 0.3590467 0.33698475 0.89005548 1.2119306 3.535419 3.7518659 3.3304241 2.29408 0.82069314 0.72396976 1.9526708 2.6802111 7.1161761 7.392622 6.4794540000000005 4.4148297 1.5602258 1.3719838 3.682375 5.0536394 12.398314 12.734079 11.06358 7.4268579 2.5306695 2.3552032000000005 6.142435099999999 8.3747225 19.190931 19.569363 16.788525 26.855265000000003 27.185226 34.602203 34.648781 42.031208 41.595463 49.478928 48.387840000000004 60.567417000000006 60.264465 95.613091 113.05856000000001 203.73621 283.75717000000003 443.83612 666.3250099999999 843.2019 1336.137 1311.2362 2206.8198 0.0 0.0 0.0 0.0 0.0 0.0 0.0 0.0 0.0 0.0 0.0 0.0 0.0 0.0 0.0 0.0 0.0 0.0 0.0 0.0 0.0 0.0 0.0 0.0 0.0 0.0 0.0 0.00030139505 0.00030077959 0.00029630772999999995 0.00029025631000000003 0.00028349151 0.00027697181 0.00027133941000000004 0.00026698313999999997 0.00026426438 0.016444176 0.015930472 0.015108683999999999 0.014180238000000001 0.01327003 0.012451682 0.011770487 0.011261782 0.010947772 0.12111121 0.11627541 0.10847935 0.099595465 0.09086509 0.083040342 0.076577455 0.071768448 0.068808988 0.47559875 0.4597865 0.42605063 0.38662377 0.34741256 0.31211767 0.28295371 0.26128283 0.24795857 1.3229433000000002 1.2946981000000002 1.1979761 1.0805323 0.96214849 0.85489589 0.76606876 0.70003897 0.65944952 2.9442897 2.8963196 2.683691 2.4116559 2.1342025000000002 1.8812644 1.6711937 1.5148895 1.4187915 5.557621 5.470446599999999 5.069262 4.5418386 3.9992638 3.5022398999999997 3.0884682999999997 2.7803080000000002 2.5908029 9.1862478 9.024413099999999 8.3474827 7.457478 6.5368085 5.6908054 4.9853287 4.4595575 4.136184200000001 0.0 0.0 0.0 0.0 0.0 0.0 0.0 0.0 0.0 0.0 0.0 0.0 0.0 0.0 0.0 0.0 0.0 0.0 0.0 0.0 0.0 0.0 0.0 0.0 0.00026333815 0.00026426441000000005 0.00026698312 0.00027133941000000004 0.00027697184 0.00028349154 0.0002902564 0.00029630767000000003 0.010841395 0.010947773999999999 0.01126178 0.011770487 0.012451686000000002 0.013270031000000002 0.014180238000000001 0.015108683999999999 0.067810968 0.068808995 0.071768463 0.07657747 0.083040357 0.09086509 0.099595465 0.10847936 0.24346638 0.24795859 0.26128289 0.28295377 0.3121177 0.34741256 0.38662368 0.42605069 0.64576191 0.65944952 0.70003909 0.76606888 0.85489607 0.96214867 1.0805323 1.1979761 1.3863801000000002 1.4187915 1.5148896 1.6711941000000003 1.8812644 2.1342032000000004 2.4116559 2.6836912999999996 2.5268897999999997 2.5908029 2.7803085 3.088469 3.5022404000000003 3.9992638 4.5418386 5.0692635 4.0271316 4.136184200000001 4.4595585 4.9853292 5.6908059 6.5368094 7.457478999999999 8.3474846 0.0 0.0 0.0 0.0 0.0 0.0 0.0 0.0 0.0 0.0 0.0 0.0 0.0 0.0 0.0 0.0 0.0 0.0 0.0 0.0 0.0 0.0 0.0 0.0 0.0 0.0 0.0 0.00030077956 0.00030139516 0.00029504305 0.00027861688 0.0002489636 0.00014150598 0.00010940343999999999 0.00019379931000000001 6.2292966e-05 0.01593047 0.01644418 0.016378574 0.014782296 0.008559254 0.0018547769000000001 0.011510526 0.015718317 0.012954169 0.11627543 0.12111126 0.11740962 0.09234014900000001 0.041084692 0.027210707 0.08961824300000001 0.12446126 0.12259823 0.45978662 0.47559881 0.4428083 0.33170167 0.13233255 0.12222728 0.35831374 0.50733578 0.53777939 1.2946982 1.3229436 1.2119306 0.89005589 0.33698508 0.35904655 1.0131936 1.4550661 1.6035653 2.8963199 2.9442902 2.6802118 1.9526715000000001 0.72397059 0.82069278 2.2940805 3.3304242999999993 3.7518661 5.4704470999999995 5.557621 5.053640799999999 3.6823771 1.3719851 1.5602256 4.4148297 6.479456400000001 7.392624400000001 9.0244141 9.1862516 8.3747253 6.1424389 2.355206 2.5306678 7.4268579 11.063583 12.734084 16.788534 19.569366 27.185228000000002 34.648781 41.595463 48.387844 60.264472999999995 113.05856000000001 283.75717000000003 666.32513 1336.1372 2206.8203 0.0 0.0 0.0 0.0 0.0 0.0 0.0 0.0 0.0 0.0 0.0 0.0 0.0 0.0 0.0 0.0061116163 0.00098026206 0.0 0.0 0.08843796 0.040652081 0.0072433506 2.4728357000000004e-16 0.45248175 0.28447688 0.1092856 0.015425052 1.452381 1.0466584 0.52689093 0.14465784 3.5354184999999996 2.7349992000000003 1.5693641 0.5632593 7.116177099999999 5.7231941 3.5266184999999997 1.451019 12.398315 10.185719 6.5360942 2.9033048 19.190935 15.955819 10.48428 4.868702900000001 26.855268 22.525801 15.024757999999999 7.1605849 34.602215 29.291228999999998 19.748832999999998 9.5535946 42.031212 35.911953000000004 24.413132 11.909206 49.478935 42.581309999999995 29.072752 14.258534 60.567417000000006 50.518398 34.150890000000004 17.535994 95.613106 63.05246700000001 43.556098999999996 31.660690000000002 203.73623999999998 85.72753900000001 83.94104 90.334808 443.83627 120.51926 218.42911 257.76111000000003 843.20203 157.72137 521.89362 639.89496 1311.2365 213.19177000000002 1020.3676 0.0 0.0 0.0 0.0 0.0 0.0 0.0 0.0 0.0 0.0 0.0 0.0 0.0 0.0 0.0 0.0 0.0 0.0 0.0 0.0 0.0 0.0 0.0 0.0 0.0 0.0 0.0 0.0 0.0 0.0 0.0 0.0 0.0 0.0 0.0 0.0 0.0 0.0 0.0 0.0 0.0 0.0 0.0 0.0 0.0 0.0 0.0 0.0 0.0 0.0 0.0 0.0 0.0 0.0 0.0 0.0 0.0 0.0 0.0 0.0 0.0 0.0 0.0 0.0 0.0 0.0 0.0 0.0 0.0 0.0 0.0 0.0 0.0 0.0 0.0 0.0 0.0 0.0 0.0 0.0 0.0 0.0 0.0 0.0 0.0 0.0 0.0 0.0 0.0 0.0 0.0 0.0 0.0 0.0 0.0 0.0 0.0 0.0 0.0 0.0 0.0 0.0 0.0 0.0 0.0 0.0 0.0 0.0 0.0 0.0 0.0 0.0 0.0 0.0 0.0 0.0 0.0 0.0 0.0 0.0 0.0 0.0 0.0 0.0 0.0 0.0 0.0 0.0 0.0 0.0 0.0 0.0 0.0 0.0 0.0 0.0 0.0 0.0 0.0 0.0 0.0 0.0 0.0 0.0 0.0 0.0 0.0 0.0 0.0 0.0 0.0 0.0 0.0 0.0 0.0 0.0 0.0 0.0 0.0 0.0 0.0 0.0 0.0 0.0 0.0 0.0 0.0 0.0 0.0 0.0 0.0 0.0 0.0 0.0 0.0 0.0 0.0 0.0 0.0 0.0 0.0 0.0 0.0 0.0 0.0 0.0 0.0 0.0 0.0 0.0 0.0 0.0 0.0 0.0 0.0 0.0 0.0 0.0 0.0 0.0 0.0 0.0 0.0 0.0 0.0 0.0 0.0 0.0 0.0 0.0 0.0 0.0 0.0 0.0 0.0 0.0 0.0 0.0 0.0 0.0 0.0 0.0 0.0 0.0 0.0 0.0 0.0 0.0 0.0 0.0 0.0 0.0 0.0 0.0 0.0 0.0 0.0 0.0 0.0 0.0 0.0 0.0 0.0 0.0 0.0 0.0 0.0 0.0 0.0 0.0 0.0 0.0 0.0 0.0 0.0 0.0 0.0 0.0 0.0 0.0 0.0 0.0 0.0 0.0 0.0 0.0 0.0 0.0 0.0 0.0 0.0 0.0 0.0 0.0 0.0 0.0 0.0 0.0 0.0 0.0 0.0 0.0 0.0 0.0 0.0 0.0 0.0 0.0 0.0 0.0 0.0 0.0 0.0 0.0 0.0 0.0 0.0 0.0 0.0 0.0 0.0 0.0 0.0 0.0 0.0 0.0 0.0 0.0 0.0 0.0 0.0 0.0 0.0 0.0 0.0 0.0 0.0 0.0 0.0 0.0 0.0 0.0 0.0 0.0 0.0 0.0 0.0 0.0 0.0 0.0 0.0 0.0 0.0 0.0 0.0 0.0 0.0 0.0 0.0 0.0 0.0 0.0 0.0 0.0 0.0 0.0 0.0 0.0 0.0 0.0 0.0 0.0 0.0 0.0 0.0 0.0 0.0 0.0 0.0 0.0 0.0 0.0 0.0 0.0 0.0 0.0 0.0 0.0 0.0 0.0 0.0 0.0 0.0 0.0 0.0 0.0 0.0 0.0 0.0 0.0 0.0 0.0 0.0 0.0 0.0 0.0 0.0 0.0 0.0 0.0 0.0 0.0 0.0 0.0 0.0 0.0 0.0 0.0 0.0 0.0 0.0 0.0 0.0 0.0 0.0 0.0 0.0 0.0 0.0 0.0 0.0 0.0 0.0 0.0 0.0 0.0 0.0 0.0 0.0 0.0 0.0 0.0 0.0 0.0 0.0 0.0 0.0 0.0 0.0 0.0 0.0 0.0 0.0 0.0 0.0 0.0 0.0 0.0 0.0 0.0 0.0 0.0 0.0 0.0 0.0 0.0 0.0 0.0 0.0 0.0 0.0 0.0 0.0 0.0 0.0 0.0 0.0 0.0 0.0 0.0 0.0 0.0 0.0 0.0 0.0 0.0 0.0 0.0 0.0 0.0 0.0 0.0 10.804324000000001 3.5391176 3.6801293 9.189958599999999 12.400739999999999 21.223072 14.251427 4.3418841 5.2867966 12.537357 16.69993 26.723175 17.32601 4.7662287 7.165647 16.002565 20.963917000000002 31.654751 19.884447 4.7277794 9.3512974 19.555838 25.10305 36.152576 21.963287 4.2218637 11.898161 23.280067000000003 29.223925 44.653110999999996 26.53248 6.4147872999999995 15.036366000000001 27.389874 33.606528999999995 94.485741 62.205013 28.659826000000002 21.505184 32.558914 38.842583000000005 255.81015 178.30722 92.039299 43.12941 40.922176 46.199589 596.8646200000001 415.29132000000004 217.34996 92.223297 57.229477 57.951302 1137.7822 775.1021099999999 400.61023 166.27803 85.667274 77.33731800000001 1727.2916 1156.277 587.28381 243.91124 125.57231000000002 107.94335 2094.2007 1374.1207 688.97729 296.90448 175.78076000000001 152.99997 2061.1555 1315.0562 658.87262 324.92966 241.56947000000002 214.73713999999998 1620.0637 1031.1381 559.2054400000001 373.6283 329.60736 293.28479 1133.618 778.15204 544.51727 475.70605 437.43462999999997 386.38922 947.45782 762.2453 653.80157 608.87665 557.63708 491.2312 1011.4821 883.35291 800.95471 750.33765 686.2241799999999 606.47144 1139.0265 1026.0544 951.30524 898.1387900000001 824.6012599999999 732.40222 1286.8452 1179.2969 1111.9779 1058.6591 975.95917 870.11719 1465.7373 1358.4664 1294.0618 1237.5077 1142.9214 1020.6835 1685.0002 1572.0616 1503.1627 1437.5126 1326.668 1184.1782 1951.3257 1823.9656 1739.7074 1657.891 1525.9415 1359.1508 2267.9424 2112.5767 1997.0454 1893.2377 1736.9333 1543.0883 2636.2808 2427.1582 2261.0544 2134.9348 1955.1071 1734.4093 3044.7766 2744.2708 2511.4922 2375.0696 2179.657 1936.384 3466.8611 3028.0854 2729.5964 2616.3037 2421.678 2163.3328 3864.9546 3248.6609 2918.2927 2886.8108 2715.3357 2448.9299 4194.6929 3392.998 3121.5747 3249.0486 3125.2947 2853.1279 4441.6304 3510.188 3428.3779 3794.155 3741.7817 3459.2249 4681.481 3752.4973 3971.6101 4620.126 4654.8218 4355.0425 5191.1411 4436.1685 4909.2402 5786.3335 5910.2676 5597.3921 6546.4746 6060.6675 6420.8247 7288.7295 7485.3125 7180.9844 9334.2939 9032.9541 8986.7598 9194.1768 9289.0811 9020.7705 13016.053 12677.073 12489.044 11622.479 11258.34 10963.97 15858.868999999999 15367.605 15492.491000000002 14062.883 13170.579 12805.026000000002 16805.588 16557.84 17433.633 15914.735 14777.442 14353.38 16908.32 16530.172 17942.162 16916.324 15865.196000000002 15474.017 16908.593999999997 15864.608 17225.287 16806.098 16218.543 16082.649 17155.705 15512.181999999999 16606.086 16579.447 16341.925 16390.123 17640.123 15617.133 16386.994 16497.988 16405.797 16518.043 18185.936 16020.365 16530.42 16579.029 16455.039 16532.752 18618.648 16489.266 16881.418 16729.297 16458.992 16446.391 18603.936 16623.992 17010.488 16727.732 16330.685 16233.242 18168.242 16374.445 16796.07 16477.057 16015.806 15860.503999999999 17421.266 15815.627 16253.435 15957.15 15492.938999999998 15308.635 16453.984 15027.902 15420.903 15174.808 14759.57 14579.021999999999 15321.516000000001 14053.396999999999 14375.48 14172.165 13840.318000000001 13692.69 14035.976999999999 12930.636999999999 13199.622 13020.463 12805.495 12685.944 12607.535 11673.658000000001 11924.247 11848.115 11707.643999999998 11596.625 11108.418 10317.242 10632.49 10690.048 10567.138 10465.902 9560.6787 8886.0039 9403.8555 9554.7754 9433.207 9343.3867 7995.8833 7513.5303 8261.4297 8490.8057 8381.4922 8280.0039 6482.1001 6399.1919 7248.8477 7555.5796 7451.6626 7311.6377 5287.2793 5723.5854 6538.6084 6830.5728 6682.4893 6470.5054 5520.3525 5272.8271 6155.5327 6390.186 6158.6069 5797.2876 4466.4355 5906.519 6285.6724 5945.6567 5359.2529 3713.1812 5322.4653 6243.7988 5973.5107 5199.8608 3905.532 5756.0493 6018.0615 5251.3008 3143.3521 4388.8457 5610.9424 5294.2778 2600.2354 4229.7437 4915.7734 2236.1362 3608.4998 3191.1738 1799.5863 13.535978 13.251332999999999 12.222005000000001 10.886311 9.50173 8.2271519 7.163140299999999 6.3698487 5.8819140999999995 18.109410999999998 17.652172 16.232126 14.422026999999998 12.545847 10.816765 9.3721304 8.2947474 7.6320314 22.534616 21.850468 20.036171 17.772423 15.429648 13.268972 11.462314 10.114299 9.284942599999999 26.685041 25.713396 23.518518 20.845417 18.086775 15.541155999999999 13.410331 11.818901 10.839211 30.68331 29.373246999999996 26.815191 23.774603 20.648007999999997 17.759443 15.336504000000001 13.523426 12.405826 34.869419 33.199996999999996 30.289814 26.904596 23.430189000000002 20.209673000000002 17.497055 15.460151000000002 14.201553 39.831097 37.780097999999995 34.503665999999996 30.758989 26.90587 23.308918 20.257816000000002 17.954183999999998 16.525553 46.588367 43.974003 40.224178 36.021865999999996 31.674909999999997 27.574755 24.063841 21.394188 19.731023999999998 56.860969999999995 53.081512 48.489079 43.549084 38.449989 33.600456 29.411461 26.204525 24.197973 73.152939 66.963409 60.675231999999994 54.390579 48.050064 42.034115 36.82177 32.817394 30.305683000000002 98.46644599999999 87.908974 78.44624300000001 69.754395 61.362246999999996 53.537025 46.797787 41.630352 38.390903 135.65081999999998 118.20405 103.52093 90.876083 79.25808 68.720871 59.772926 52.961201 48.706169 186.60619 159.58569 137.33393999999998 118.82423 102.48163000000001 88.081245 76.068291 67.018173 61.396755000000006 251.74707 212.84796 180.74004 154.31348 131.5442 111.94448999999999 95.871147 83.89636999999999 76.506615 330.1474 277.81635 233.916 197.61397 166.67373999999998 140.45689 119.25481 103.61858000000001 94.031113 420.35785 353.69345 296.50214 248.60324 207.85539 173.64583000000002 146.26471999999998 126.24292 114.03788999999999 521.28339 439.57993 367.89258 306.94518999999997 254.9754 211.57217000000003 177.09622 152.06375 136.88383000000002 632.4585 534.8250099999999 447.51898 372.33936 308.06573 254.59372000000002 212.38734 181.93263000000002 163.55377 753.96863 639.0549900000001 535.0342400000001 444.80722000000003 367.66037 303.76825 253.65642999999997 217.72107999999997 196.13953999999998 885.9133300000001 752.0119 630.45673 525.05219 435.28809 361.41837000000004 303.89929 262.93002 238.45261000000002 1027.8575 873.48395 734.46307 614.9873 514.1340299999999 431.85309000000007 368.31842 323.4024 296.71982 1178.7821 1003.6733 849.05585 718.56317 609.91022 522.20587 455.09763 408.0304 380.2406 1337.9197 1144.2742 978.74786 842.91534 731.8634599999999 643.26074 576.05481 529.27094 501.81494000000004 1506.7527 1300.3445 1132.1703 999.62897 893.6663199999999 809.9940799999999 746.89813 703.1997700000001 677.67548 1692.21 1482.6735 1323.6295 1205.5886 1113.7131 1041.4504 986.78894 948.85333 926.70435 1910.9 1710.1875 1574.0153 1482.8469 1414.3445 1359.5819 1316.9548 1286.7087 1268.8376 2194.5146 2012.3572 1910.8757 1857.329 1819.8837 1787.0198 1758.3733 1736.3594 1722.7545 2595.1902 2432.0024 2368.4724 2357.0962 2354.2295 2344.5815 2329.3999 2314.2859 2303.7556 3185.0891 3026.1624 2988.5129 3012.0808 3039.9045 3050.2363 3044.9214 3033.2539 3023.3398 4043.783 3860.0005 3819.2832 3855.6001 3899.8071 3920.551 3917.644 3903.571 3890.4771 5232.1138 4990.21 4907.707 4922.7192 4958.3579 4972.4878 4959.8193 4934.5762 4912.9058 6762.2607 6439.7314 6281.0288 6238.8481 6235.4307 6220.0371 6180.9688 6132.8105 6095.4502 8572.3789 8172.144 7923.1621 7800.1367 7731.5044 7663.1636 7579.1113 7494.5972 7433.3569 10520.649 10078.409 9757.2041 9554.043 9408.877 9271.3154 9126.543 8993.374 8900.5498 12409.278999999999 11988.061000000002 11645.386 11390.846000000001 11178.483 10968.761999999999 10755.617 10566.401000000002 10437.134 14039.148000000001 13708.028999999999 13411.37 13153.957 12902.675 12633.982 12357.476999999999 12113.945 11948.896999999999 15271.903999999999 15079.138 14885.306999999999 14676.005 14425.222 14125.607 13805.283000000001 13520.791000000001 13327.933 16063.108 16025.901000000002 15958.233 15831.462 15618.051000000001 15321.378 14985.563 14681.476999999999 14474.128 16493.033 16572.111 16616.961 16580.426 16425.061 16157.386999999999 15831.763 15529.14 15320.964 16663.396 16799.9 16919.293 16956.004 16858.377 16630.152 16329.69 16042.731000000002 15843.548999999999 16656.857 16796.322 16945.432 17024.533 16968.4 16775.311 16502.855 16236.811000000002 16050.951000000001 16514.308999999997 16620.783 16762.711 16852.433999999997 16815.316000000003 16644.357 16393.926 16146.767 15973.768 16238.628 16298.073 16411.264 16488.305 16450.242 16286.78 16048.743 15814.617 15651.292 15814.412 15829.546 15907.663 15960.38 15908.841999999999 15741.823 15507.536 15280.428999999998 15123.226999999999 15228.338 15210.552 15257.688999999998 15284.538 15215.151000000002 15039.287 14803.848999999998 14580.003 14426.646 14481.544 14444.478000000001 14469.606000000002 14475.226 14389.653999999999 14204.855 13967.388 13745.851999999999 13595.666000000001 13592.345 13548.226999999999 13560.976 13552.252 13455.193000000001 13264.546 13026.962 12808.743 12662.098999999998 12591.373 12549.118 12557.457 12541.085 12438.127 12246.114 12011.586000000001 11798.485 11656.053999999998 11513.896 11479.162 11488.673999999999 11470.286 11367.1 11178.883999999998 10951.292 10745.501 10608.101 10396.376 10371.396999999999 10384.689 10368.229 10270.185 10091.578000000001 9875.7412 9680.1963 9549.1406 9276.7666 9257.6113 9272.9678 9259.6494 9171.1816 9008.4023 8810.2363 8629.0674 8506.5596 8195.7988 8168.0845 8177.9106 8164.9399 8088.2676 7946.9233 7772.8809 7611.4136 7500.7397 7190.981 7132.4912 7122.1396 7102.1094 7035.8691 6919.2646 6774.8828 6638.7031 6543.8101 6288.5562 6177.9336 6128.9082 6090.5786 6028.7539 5935.6255 5823.2534 5716.3979 5640.8164 5507.3257 5326.7925 5223.2642 5153.437 5085.7217 5008.8555 4925.2822 4847.8535 4793.0054 4876.3228 4592.7114 4427.252 4315.1953 4229.7529 4157.2993 4093.1086 4039.4341 4002.9136 4459.9243 3998.8401 3752.1868 3594.686 3482.6016 3402.1409 3344.3379 3303.8796 3279.2383 4322.0894 3613.239 3215.0793 2997.2395 2855.9836 2759.4724 2696.4263 2657.7246 2636.8025 4393.1436 3512.7673 2884.55 2536.6016 2348.2449 2232.5886 2158.5662 2113.821 2090.2314 4448.3174 3603.8601 2825.5171 2280.4915 1975.1523 1816.254 1727.5699 1675.3047 1647.0962 4078.3076 3638.6797 2900.8567 2240.3052 1780.3707 1521.9716 1395.8925 1333.9666 1302.8959 2821.3108 3189.7927 2832.3467 2236.3591 1703.8364 1346.1525 1159.0468 1077.8636 1044.0125 1313.4786 1885.4784 2212.6396 2016.2124 1592.9679 1217.2335 994.3576 896.3916 859.43195 1058.7236 1069.1271 1283.8269 1214.8064 986.6270800000001 793.92224 701.06958 668.69299 752.71661 702.70892 655.73541 559.07043 479.45395 438.04352 671.36499 561.66467 489.11322 444.87634 5.7173824 5.8819140999999995 6.3698511 7.1631427 8.2271538 9.5017309 10.886312 12.222008 7.4085851 7.6320314 8.2947493 9.3721342 10.816768 12.54585 14.422026999999998 16.232129999999998 9.005307199999999 9.2849436 10.114303 11.462317 13.268976 15.429651999999999 17.772425 20.036167000000003 10.5088 10.839213 11.818905 13.410333999999999 15.541162 18.086779 20.845419 23.518522 12.028661 12.405828999999999 13.523432000000001 15.336514000000001 17.759453 20.648020000000002 23.774607 26.815196999999998 13.776317 14.201557000000001 15.460157999999998 17.497066 20.209681 23.430198999999998 26.904604 30.289820000000002 16.04199 16.525558 17.954189000000003 20.25783 23.308931 26.90588 30.758996999999997 34.503665999999996 19.1668 19.731035000000002 21.394196 24.063854 27.57477 31.674927 36.021889 40.224194 23.51585 24.197985 26.204535999999997 29.411478000000002 33.600479 38.450005 43.549107 48.489105 29.450847999999997 30.305689 32.817413 36.821793 42.034145 48.050087 54.390617000000006 60.675247 37.288563 38.390915 41.630367 46.79781 53.53704499999999 61.362286 69.754425 78.446251 47.260326 48.706181 52.961227 59.772960999999995 68.72090899999999 79.25811800000001 90.876099 103.52094 59.491119 61.39677 67.018211 76.068321 88.08129100000001 102.48167 118.82426000000001 137.33397 74.00885799999999 76.506653 83.8964 95.871208 111.94453999999999 131.54425 154.31354 180.7401 90.80033900000001 94.031136 103.61864 119.2549 140.45696999999998 166.67377 197.61398 233.91605 109.93716 114.03793 126.24297 146.26478999999998 173.64588999999998 207.85551 248.60329 296.50214 131.7977 136.88388 152.06381000000002 177.09634 211.57227000000003 254.97545 306.94525 367.89261 157.41211 163.55382 181.93268 212.38747 254.59377999999998 308.06583 372.33936 447.5191 188.94673 196.13957 217.72116 253.65656 303.76831 367.66046 444.80728 535.0342400000001 230.31772 238.45265 262.93011 303.89938 361.41846 435.28820999999994 525.05237 630.4566 287.87964 296.71988 323.40252999999996 368.31857 431.85312000000005 514.13416 614.98737 734.46313 371.06487999999996 380.24057 408.0304 455.09775 522.20587 609.91022 718.56317 849.0560300000001 492.78076 501.81482 529.27112 576.05475 643.26093 731.86365 842.91534 978.74786 669.30249 677.67542 703.1997700000001 746.89813 809.9940799999999 893.6663800000001 999.6290300000001 1132.1704 919.44666 926.70428 948.85345 986.78894 1041.4502 1113.7131 1205.5887 1323.6295 1262.9561 1268.8379 1286.709 1316.9547 1359.5819 1414.3442 1482.847 1574.0151 1718.1901 1722.754 1736.359 1758.3734 1787.0195 1819.8839 1857.3285 1910.8756 2300.0488 2303.7556 2314.2861 2329.4001 2344.5818 2354.2292 2357.0962 2368.4727 3019.6106 3023.3396 3033.2539 3044.9211 3050.2363 3039.9048 3012.0811 2988.5137 3885.4119 3890.4766 3903.5706 3917.6443 3920.5515 3899.8074 3855.6001 3819.2832 4904.6816 4912.9063 4934.5752 4959.8193 4972.4883 4958.3574 4922.7178 4907.707 6081.6826 6095.4502 6132.8105 6180.9697 6220.0366 6235.4302 6238.8472 6281.0293 7411.2896 7433.3574 7494.5972 7579.1099 7663.1636 7731.5063 7800.1367 7923.1606 8867.5703 8900.5518 8993.375 9126.5439 9271.3174 9408.8789 9554.0439 9757.2041 10391.58 10437.134 10566.403 10755.618 10968.761999999999 11178.485 11390.848999999998 11645.386 11890.97 11948.899 12113.948999999999 12357.476 12633.983 12902.671999999999 13153.955 13411.371000000001 13260.296 13327.93 13520.793 13805.281 14125.605 14425.222 14676.007 14885.311000000002 14401.313 14474.126 14681.481000000002 14985.563 15321.378 15618.046999999999 15831.462 15958.238000000001 15247.702 15320.964 15529.139 15831.76 16157.389 16425.058999999997 16580.426 16616.965 15773.315 15843.546999999999 16042.729 16329.688999999998 16630.152 16858.375 16956.004 16919.291 15985.357 16050.944 16236.81 16502.85 16775.305 16968.4 17024.535 16945.436 15912.768 15973.764 16146.765 16393.924 16644.357 16815.314 16852.436 16762.711 15593.848 15651.288999999999 15814.618 16048.741000000002 16286.78 16450.246 16488.301 16411.268 15068.16 15123.229 15280.43 15507.538 15741.821000000002 15908.841999999999 15960.381000000001 15907.667 14373.181999999999 14426.646999999999 14580.003999999999 14803.847 15039.288 15215.148000000001 15284.541000000001 15257.691 13543.548999999999 13595.665 13745.851 13967.39 14204.855 14389.653 14475.226 14469.606000000002 12611.407 12662.095 12808.743999999999 13026.963 13264.546999999999 13455.193000000001 13552.252 13560.976 11606.923 11656.052 11798.487 12011.586000000001 12246.114 12438.128999999999 12541.086000000001 12557.456 10560.688999999998 10608.101 10745.5 10951.293 11178.885 11367.101 11470.283000000001 11488.676000000001 9503.7607 9549.1406 9680.1982 9875.7432 10091.58 10270.186 10368.229 10384.688 8463.8936 8506.5615 8629.0693 8810.2363 9008.4023 9171.1807 9259.6494 9272.9678 7461.8672 7500.7393 7611.416 7772.8813 7946.9238 8088.269 8164.938 8177.9116 6510.1348 6543.8091 6638.7021 6774.8833 6919.2646 7035.8706 7102.1089 7122.1396 5613.7173 5640.8174 5716.3994 5823.2534 5935.6255 6028.7529 6090.5786 6128.9082 4773.2329 4793.0059 4847.854 4925.2822 5008.856 5085.7212 5153.437 5223.2642 3989.9041 4002.9141 4039.4341 4093.1084 4157.2993 4229.7529 4315.1948 4427.252 3270.8804 3279.2371 3303.8792 3344.3381 3402.1409 3482.6016 3594.6855 3752.1863 2630.1873 2636.8018 2657.7246 2696.427 2759.4727 2855.9834 2997.2393 3215.0791 2082.9016 2090.2314 2113.821 2158.5662 2232.5884 2348.2451 2536.6013 2884.55 1638.1527 1647.0959 1675.3048 1727.5697 1816.2543 1975.1525 2280.4917 2825.5173 1293.1071 1302.8956 1333.9666 1395.8927 1521.9716 1780.3711 2240.3054 2900.8579 1034.2162 1044.0126 1077.8636 1159.0469 1346.1528 1703.8365 2236.3599 2832.3481 849.6229199999999 859.4317 896.3914800000001 994.35779 1217.2336 1592.9681 2016.2129 2212.6394 660.89911 668.69281 701.0697 793.92218 986.62695 1214.8065 1283.8271 1069.127 426.12979 438.0437 479.45383 559.07062 655.7355299999999 702.70886 752.71643 429.86584000000005 444.87656 489.11307 561.66467 671.36493 13.251334 13.535982999999998 12.400744 9.189964300000002 3.6801355000000004 3.539113 10.804325 17.652179999999998 18.109420999999998 16.699935999999997 12.537366 5.286805200000001 4.3418794 14.251427 21.223074 21.850471 22.53462 20.963926 16.002575 7.1656556 4.766221 17.326007999999998 26.723175 25.713402 26.685051 25.10306 19.555849 9.351310699999999 4.727767900000001 19.884447 31.654745000000002 29.373255 30.683322999999998 29.223938 23.280069 11.898172 4.2218528 21.963279999999997 36.152569 33.200001 34.869431 33.606548 27.389886999999998 15.036382000000001 6.414767299999999 26.532465000000002 44.653088000000004 37.780109 39.831103999999996 38.84259 32.558929 21.505198999999998 28.659819 62.205020999999995 94.485809 43.974003 46.588375 46.199604 40.922211 43.129417 92.039337 178.30723999999998 255.81015 53.08152 56.860973 57.951324 57.229496 92.22333499999999 217.34998 415.29126 596.86469 66.963417 73.152939 77.33734100000001 85.667282 166.27805 400.61023 775.10223 1137.7827 87.908997 98.466476 107.94338 125.57231000000002 243.91119 587.28394 1156.2776 1727.292 118.20406000000001 135.65085 152.99997 175.78078 296.90442 688.97736 1374.121 2094.2009 159.58572 186.60619 214.73712 241.56944 324.92963 658.87262 1315.0563 2061.1558 212.84797999999998 251.74712000000002 293.28472999999997 329.6073 373.6283 559.2054400000001 1031.1383 1620.0641 277.81644 330.14743 386.38925 437.43457 475.70609 544.51727 778.15204 1133.618 353.69342 420.35790999999995 491.2312 557.63715 608.87665 653.80164 762.2453 947.45795 439.57993 521.28345 606.47137 686.22424 750.33765 800.95477 883.35278 1011.482 534.8250099999999 632.4585599999999 732.4021 824.6012599999999 898.1387900000001 951.30524 1026.0544 1139.0265 639.05493 753.96863 870.1174300000001 975.95905 1058.6591 1111.978 1179.2969 1286.8453 752.0119 885.9135699999999 1020.6833 1142.9211 1237.5078 1294.062 1358.4664 1465.7375 873.48425 1027.8575 1184.178 1326.6682 1437.5128 1503.1627 1572.0616 1685.0004 1003.6736 1178.782 1359.1508 1525.9417 1657.8912 1739.7073 1823.9658 1951.3257 1144.2744 1337.9197 1543.0881 1736.9336 1893.2379 1997.0455 2112.5767 2267.9421 1300.3445 1506.7524 1734.4094 1955.1071 2134.9348 2261.0544 2427.1582 2636.2808 1482.6732 1692.21 1936.384 2179.657 2375.0696 2511.4927 2744.2708 3044.7776 1710.187 1910.9 2163.3333 2421.6782 2616.304 2729.5964 3028.0859 3466.8608 2012.3574 2194.5144 2448.9304 2715.3357 2886.811 2918.2922 3248.6611 3864.9551 2432.0027 2595.1902 2853.1287 3125.2952 3249.0491 3121.575 3392.9988 4194.6934 3026.1626 3185.0891 3459.2258 3741.7822 3794.1553 3428.3789 3510.188 4441.6313 3860.0005 4043.7834 4355.042 4654.8218 4620.126 3971.6101 3752.4978 4681.481 4990.2095 5232.1128 5597.3906 5910.2676 5786.334 4909.2393 4436.168 5191.1421 6439.7314 6762.2607 7180.9858 7485.3125 7288.7295 6420.8247 6060.6675 6546.4756 8172.144 8572.3789 9020.7705 9289.083 9194.1777 8986.7607 9032.9541 9334.2949 10078.407 10520.651000000002 10963.97 11258.34 11622.479 12489.043 12677.072 13016.052 11988.061000000002 12409.28 12805.026000000002 13170.58 14062.883999999998 15492.493999999999 15367.604 15858.866000000002 13708.032 14039.149 14353.385 14777.448 15914.735 17433.637 16557.84 16805.586 15079.138 15271.901000000002 15474.018 15865.198 16916.326 17942.164 16530.172 16908.32 16025.903 16063.112 16082.653999999999 16218.543 16806.104 17225.293 15864.605 16908.592 16572.109 16493.033 16390.125 16341.931 16579.451 16606.086 15512.183 17155.699 16799.906000000003 16663.4 16518.043 16405.797 16497.99 16386.994 15617.133 17640.113 16796.324 16656.865 16532.756 16455.041 16579.031000000003 16530.42 16020.362 18185.932 16620.785 16514.307 16446.393 16458.996 16729.293 16881.416 16489.26 18618.643 16298.073 16238.63 16233.247 16330.684 16727.729 17010.484 16623.99 18603.938000000002 15829.546999999999 15814.412 15860.51 16015.803999999998 16477.058999999997 16796.072 16374.448999999999 18168.24 15210.552 15228.338 15308.638 15492.943000000001 15957.15 16253.434 15815.627 17421.258 14444.476999999999 14481.541000000001 14579.023000000001 14759.573999999999 15174.806999999999 15420.903 15027.903999999999 16453.98 13548.228000000001 13592.345 13692.69 13840.319 14172.165 14375.483 14053.398000000001 15321.516000000001 12549.118999999999 12591.375 12685.941 12805.496000000001 13020.466999999999 13199.62 12930.636 14035.978000000001 11479.163999999999 11513.896 11596.624 11707.643 11848.113000000001 11924.245 11673.658000000001 12607.535 10371.396999999999 10396.376 10465.902 10567.136999999999 10690.048 10632.491000000002 10317.242 11108.42 9257.6123 9276.7666 9343.3848 9433.207 9554.7754 9403.8555 8886.0049 9560.6777 8168.0815 8195.7988 8280.002 8381.4912 8490.8037 8261.4307 7513.5313 7995.8818 7132.4897 7190.98 7311.6372 7451.6611 7555.5791 7248.8477 6399.1919 6482.1001 6177.9331 6288.5557 6470.5063 6682.4883 6830.5728 6538.6089 5723.5854 5287.2788 5326.7915 5507.3252 5797.2861 6158.6074 6390.187 6155.5317 5272.8252 5520.353 4592.7114 4876.3232 5359.252 5945.6572 6285.6743 5906.5205 4466.4351 3998.8403 4459.9248 5199.8594 5973.5093 6243.7993 5322.4639 3713.1797 3613.239 4322.0889 5251.3003 6018.0605 5756.0513 3905.5317 3512.7671 4393.144 5294.2778 5610.9424 4388.8442 3143.3508 3603.8606 4448.3179 4915.7725 4229.7446 2600.2363 3638.6804 4078.3066 3608.4998 2236.137 3189.793 2821.311 1799.5863 3191.1729 1885.479 1313.4784 1058.7235 
Vel 3 2975 float
0.0 0.0 0.0 0.0 0.0 0.0 0.0 0.0 0.0 0.0 0.0 0.0 0.0 0.0 0.0 0.0 0.0 0.0 0.0 0.0 0.0 0.0 0.0 0.0 0.0 0.0 0.0 0.0 0.0 0.0 0.0 0.0 0.0 0.0 0.0 0.0 0.0 0.0 0.0 0.0 0.0 0.0 0.0 0.0 0.0 0.0 0.0 0.0 0.0 0.0 0.0 0.0 0.0 0.0 0.0 0.0 0.0 0.0 0.0 0.0 0.0 0.0 0.0 0.0 0.0 0.0 0.0 0.0 0.0 0.0 0.0 0.0 0.0 0.0 0.0 0.0 0.0 0.0 0.0 0.0 0.0 0.0 0.0 0.0 0.0 0.0 0.0 0.0 0.0 0.0 0.0 0.0 0.0 0.0 0.0 0.0 0.0 0.0 0.0 0.0 0.0 0.0 0.0 0.0 0.0 0.0 0.0 0.0 0.0 0.0 0.0 0.0 0.0 0.0 0.0 0.0 0.0 0.0 0.0 0.0 0.0 0.0 0.0 0.0 0.0 0.0 0.0 0.0 0.0 0.0 0.0 0.0 0.0 0.0 0.0 0.0 0.0 0.0 0.0 0.0 0.0 0.0 0.0 0.0 0.0 0.0 0.0 0.0 0.0 0.0 0.0 0.0 0.0 0.0 0.0 0.0 0.0 0.0 0.0 0.0 0.0 0.0 0.0 0.0 0.0 0.0 0.0 0.0 0.0 0.0 0.0 0.0 0.0 0.0 0.0 0.0 0.0 0.0 0.0 0.0 0.0 0.0 0.0 0.0 0.0 0.0 0.0 0.0 0.0 0.0 0.0 0.0 0.0 0.0 0.0 0.0 0.0 0.0 0.0 0.0 0.0 0.0 0.0 0.0 0.0 0.0 0.0 0.0 0.0 0.0 0.0 0.0 0.0 0.0 0.0 0.0 0.0 0.0 0.0 0.0 0.0 0.0 0.0 0.0 0.0 0.0 0.0 0.0 0.0 0.0 0.0 0.0 0.0 0.0 0.0 0.0 0.0 0.0 0.0 0.0 0.0 0.0 0.0 0.0 0.0 0.0 0.0 0.0 0.0 0.0 0.0 0.0 0.0 0.0 0.0 0.0 0.0 0.0 0.0 0.0 0.0 0.0 0.0 0.0 0.0 0.0 0.0 0.0 0.0 0.0 0.0 0.0 0.0 0.0 0.0 0.0 0.0 0.0 0.0 0.0 0.0 0.0 0.0 0.0 0.0 0.0 0.0 0.0 0.0 0.0 0.0 0.0 0.0 0.0 0.0 0.0 0.0 0.0 0.0 0.0 0.0 0.0 0.0 0.0 0.0 0.0 0.0 0.0 0.0 0.0 0.0 0.0 0.0 0.0 0.0 0.0 0.0 0.0 0.0 0.0 0.0 0.0 0.0 0.0 0.0 0.0 0.0 0.0 0.0 0.0 0.0 0.0 0.0 0.0 0.0 0.0 0.0 0.0 0.0 0.0 0.0 0.0 0.0 0.0 0.0 0.0 0.0 0.0 0.0 0.0 0.0 0.0 0.0 0.0 0.0 0.0 0.0 0.0 0.0 0.0 0.0 0.0 0.0 0.0 0.0 0.0 0.0 0.0 0.0 0.0 0.0 0.0 0.0 0.0 0.0 0.0 0.0 0.0 0.0 0.0 0.0 0.0 0.0 0.0 0.0 0.0 0.0 0.0 0.0 0.0 0.0 0.0 0.0 0.0 0.0 0.0 0.0 0.0 0.0 0.0 0.0 0.0 0.0 0.0 0.0 0.0 0.0 0.0 0.0 0.0 0.0 0.0 0.0 0.0 0.0 0.0 0.0 0.0 0.0 0.0 0.0 0.0 0.0 0.0 0.0 0.0 0.0 0.0 0.0 0.0 0.0 0.0 0.0 0.0 0.0 0.0 0.0 0.0 0.0 0.0 0.0 0.0 0.0 0.0 0.0 0.0 0.0 0.0 0.0 0.0 0.0 0.0 0.0 0.0 0.0 0.0 0.0 0.0 0.0 0.0 0.0 0.0 0.0 0.0 0.0 0.0 0.0 0.0 0.0 0.0 0.0 0.0 0.0 0.0 0.0 0.0 0.0 0.0 0.0 0.0 0.0 0.0 0.0 0.0 0.0 0.0 0.0 0.0 0.0 0.0 0.0 0.0 0.0 0.0 0.0 0.0 0.0 0.0 0.0 0.0 0.0 0.0 0.0 0.0 0.0 0.0 0.0 0.0 0.0 0.0 0.0 0.0 0.0 0.0 0.0 0.0 0.0 0.0 0.0 0.0 0.0 0.0 0.0 0.0 0.0 0.0 0.0 0.0 0.0 0.0 0.0 0.0 0.0 0.0 0.0 0.0 0.0 0.0 0.0 0.0 0.0 0.0 0.0 0.0 0.0 0.0 0.0 0.0 0.0 0.0 0.0 0.0 0.0 0.0 0.0 0.0 0.0 0.0 0.0 0.0 0.0 0.0 0.0 0.0 0.0 0.0 0.0 0.0 0.0 0.0 0.0 0.0 0.0 0.0 0.0 0.0 0.0 0.0 0.0 0.0 0.0 0.0 0.0 0.0 0.0 0.0 0.0 0.0 0.0 0.0 0.0 0.0 0.0 0.0 0.0 0.0 0.0 0.0 0.0 0.0 0.0 0.0 0.0 0.0 0.0 0.0 0.0 0.0 0.0 0.0 0.0 0.0 0.0 0.0 0.0 0.0 0.0 0.0 0.0 0.0 0.0 0.0 0.0 0.0 0.0 0.0 0.0 0.0 0.0 0.0 0.0 0.0 0.0 0.0 0.0 0.0 0.0 0.0 0.0 0.0 0.0 0.0 0.0 0.0 0.0 0.0 0.0 0.0 0.0 0.0 0.0 0.0 0.0 0.0 0.0 0.0 0.0 0.0 0.0 0.0 0.0 0.0 0.0 0.0 0.0 0.0 0.0 0.0 0.0 0.0 0.0 0.0 0.0 0.0 0.0 0.0 0.0 0.0 0.0 0.0 0.0 0.0 0.0 0.0 0.0 0.0 0.0 0.0 0.0 0.0 0.0 0.0 0.0 0.0 0.0 0.0 0.0 0.0 0.0 0.0 0.0 0.0 0.0 0.0 0.0 0.0 0.0 0.0 0.0 0.0 0.0 0.0 0.0 0.0 0.0 0.0 0.0 0.0 0.0 0.0 0.0 0.0 0.0 0.0 0.0 0.0 0.0 0.0 0.0 0.0 0.0 0.0 0.0 0.0 0.0 0.0 0.0 0.0 0.0 0.0 0.0 0.0 0.0 0.0 0.0 0.0 0.0 0.0 0.0 0.0 0.0 0.0 0.0 0.0 0.0 0.0 0.0 0.0 0.0 0.0 0.0 0.0 0.0 0.0 0.0 0.0 0.0 0.0 0.0 0.0 0.0 0.0 0.0 0.0 0.0 0.0 0.0 0.0 0.0 0.0 0.0 0.0 0.0 0.0 0.0 0.0 0.0 0.0 0.0 0.0 0.0 0.0 0.0 0.0 0.0 0.0 0.0 0.0 0.0 0.0 0.0 0.0 0.0 0.0 0.0 0.0 0.0 0.0 0.0 0.0 0.0 0.0 0.0 0.0 0.0 0.0 0.0 0.0 0.0 0.0 0.0 0.0 0.0 0.0 0.0 0.0 0.0 0.0 0.0 0.0 0.0 0.0 0.0 0.0 0.0 0.0 0.0 0.0 0.0 0.0 0.0 0.0 0.0 0.0 0.0 0.0 0.0 0.0 0.0 0.0 0.0 0.0 0.0 0.0 0.0 0.0 0.0 0.0 0.0 0.0 0.0 0.0 0.0 0.0 0.0 0.0 0.0 0.0 0.0 0.0 0.0 0.0 0.0 0.0 0.0 0.0 0.0 0.0 0.0 0.0 0.0 0.0 0.0 0.0 0.0 0.0 0.0 0.0 0.0 0.0 0.0 0.0 0.0 0.0 0.0 0.0 0.0 0.0 0.0 0.0 0.0 0.0 0.0 0.0 0.0 0.0 0.0 0.0 0.0 0.0 0.0 0.0 0.0 0.0 0.0 0.0 0.0 0.0 0.0 0.0 0.0 0.0 0.0 0.0 0.0 0.0 0.0 0.0 0.0 0.0 0.0 0.0 0.0 0.0 0.0 0.0 0.0 0.0 0.0 0.0 0.0 0.0 0.0 0.0 0.0 0.0 0.0 0.0 0.0 0.0 0.0 0.0 0.0 0.0 0.0 0.0 0.0 0.0 0.0 0.0 0.0 0.0 0.0 0.0 0.0 0.0 0.0 0.0 0.0 0.0 0.0 0.0 0.0 0.0 0.0 0.0 0.0 0.0 0.0 0.0 0.0 0.0 0.0 0.0 0.0 0.0 0.0 0.0 0.0 0.0 0.0 0.0 0.0 0.0 0.0 0.0 0.0 0.0 0.0 0.0 0.0 0.0 0.0 0.0 0.0 0.0 0.0 0.0 0.0 0.0 0.0 0.0 0.0 0.0 0.0 0.0 0.0 0.0 0.0 0.0 0.0 0.0 0.0 0.0 0.0 0.0 0.0 0.0 0.0 0.0 0.0 0.0 0.0 0.0 0.0 0.0 0.0 0.0 0.0 0.0 0.0 0.0 0.0 0.0 0.0 0.0 0.0 0.0 0.0 0.0 0.0 0.0 0.0 0.0 0.0 0.0 0.0 0.0 0.0 0.0 0.0 0.0 0.0 0.0 0.0 0.0 0.0 0.0 0.0 0.0 0.0 0.0 0.0 0.0 0.0 0.0 0.0 0.0 0.0 0.0 0.0 0.0 0.0 0.0 0.0 0.0 0.0 0.0 0.0 0.0 0.0 0.0 0.0 0.0 0.0 0.0 0.0 0.0 0.0 0.0 0.0 0.0 0.0 0.0 0.0 0.0 0.0 0.0 0.0 0.0 0.0 0.0 0.0 0.0 0.0 0.0 0.0 0.0 0.0 0.0 0.0 0.0 0.0 0.0 0.0 0.0 0.0 0.0 0.0 0.0 0.0 0.0 0.0 0.0 0.0 0.0 0.0 0.0 0.0 0.0 0.0 0.0 0.0 0.0 0.0 0.0 0.0 0.0 0.0 0.0 0.0 0.0 0.0 0.0 0.0 0.0 0.0 0.0 0.0 0.0 0.0 0.0 0.0 0.0 0.0 0.0 0.0 0.0 0.0 0.0 0.0 0.0 0.0 0.0 0.0 0.0 0.0 0.0 0.0 0.0 0.0 0.0 0.0 0.0 0.0 0.0 0.0 0.0 0.0 0.0 0.0 0.0 0.0 0.0 0.0 0.0 0.0 0.0 0.0 0.0 0.0 0.0 0.0 0.0 0.0 0.0 0.0 0.0 0.0 0.0 0.0 0.0 0.0 0.0 0.0 0.0 0.0 0.0 0.0 0.0 0.0 0.0 0.0 0.0 0.0 0.0 0.0 0.0 0.0 0.0 0.0 0.0 0.0 0.0 0.0 0.0 0.0 0.0 0.0 0.0 0.0 0.0 0.0 0.0 0.0 0.0 0.0 0.0 0.0 0.0 0.0 0.0 0.0 0.0 0.0 0.0 0.0 0.0 0.0 0.0 0.0 0.0 0.0 0.0 0.0 0.0 0.0 0.0 0.0 0.0 0.0 0.0 0.0 0.0 0.0 0.0 0.0 0.0 0.0 0.0 0.0 0.0 0.0 0.0 0.0 0.0 0.0 0.0 0.0 0.0 0.0 0.0 0.0 0.0 0.0 0.0 0.0 0.0 0.0 0.0 0.0 0.0 0.0 0.0 0.0 0.0 0.0 0.0 0.0 0.0 0.0 0.0 0.0 0.0 0.0 0.0 0.0 0.0 0.0 0.0 0.0 0.0 0.0 0.0 0.0 0.0 0.0 0.0 0.0 0.0 0.0 0.0 0.0 0.0 0.0 0.0 0.0 0.0 0.0 0.0 0.0 0.0 0.0 0.0 0.0 0.0 0.0 0.0 0.0 0.0 0.0 0.0 0.0 0.0 0.0 0.0 0.0 0.0 0.0 0.0 0.0 0.0 0.0 0.0 0.0 0.0 0.0 0.0 0.0 0.0 0.0 0.0 0.0 0.0 0.0 0.0 0.0 0.0 0.0 0.0 0.0 0.0 0.0 0.0 0.0 0.0 0.0 0.0 0.0 0.0 0.0 0.0 0.0 0.0 0.0 0.0 0.0 0.0 0.0 0.0 0.0 0.0 0.0 0.0 0.0 0.0 0.0 0.0 0.0 0.0 0.0 0.0 0.0 0.0 0.0 0.0 0.0 0.0 0.0 0.0 0.0 0.0 0.0 0.0 0.0 0.0 0.0 0.0 0.0 0.0 0.0 0.0 0.0 0.0 0.0 0.0 0.0 0.0 0.0 0.0 0.0 0.0 0.0 0.0 0.0 0.0 0.0 0.0 0.0 0.0 0.0 0.0 0.0 0.0 0.0 0.0 0.0 0.0 0.0 0.0 0.0 0.0 0.0 0.0 0.0 0.0 0.0 0.0 0.0 0.0 0.0 0.0 0.0 0.0 0.0 0.0 0.0 0.0 0.0 0.0 0.0 0.0 0.0 0.0 0.0 0.0 0.0 0.0 0.0 0.0 0.0 0.0 0.0 0.0 0.0 0.0 0.0 0.0 0.0 0.0 0.0 0.0 0.0 0.0 0.0 0.0 0.0 0.0 0.0 0.0 0.0 0.0 0.0 0.0 0.0 0.0 0.0 0.0 0.0 0.0 0.0 0.0 0.0 0.0 0.0 0.0 0.0 0.0 0.0 0.0 0.0 0.0 0.0 0.0 0.0 0.0 0.0 0.0 0.0 0.0 0.0 0.0 0.0 0.0 0.0 0.0 0.0 0.0 0.0 0.0 0.0 0.0 0.0 0.0 0.0 0.0 0.0 0.0 0.0 0.0 0.0 0.0 0.0 0.0 0.0 0.0 0.0 0.0 0.0 0.0 0.0 0.0 0.0 0.0 0.0 0.0 0.0 0.0 0.0 0.0 0.0 0.0 0.0 0.0 0.0 0.0 0.0 0.0 0.0 0.0 0.0 0.0 0.0 0.0 0.0 0.0 0.0 0.0 0.0 0.0 0.0 0.0 0.0 0.0 0.0 0.0 0.0 0.0 0.0 0.0 0.0 0.0 0.0 0.0 0.0 0.0 0.0 0.0 0.0 0.0 0.0 0.0 0.0 0.0 0.0 0.0 0.0 0.0 0.0 0.0 0.0 0.0 0.0 0.0 0.0 0.0 0.0 0.0 0.0 0.0 0.0 0.0 0.0 0.0 0.0 0.0 0.0 0.0 0.0 0.0 0.0 0.0 0.0 0.0 0.0 0.0 0.0 0.0 0.0 0.0 0.0 0.0 0.0 0.0 0.0 0.0 0.0 0.0 0.0 0.0 0.0 0.0 0.0 0.0 0.0 0.0 0.0 0.0 0.0 0.0 0.0 0.0 0.0 0.0 0.0 0.0 0.0 0.0 0.0 0.0 0.0 0.0 0.0 0.0 0.0 0.0 0.0 0.0 0.0 0.0 0.0 0.0 0.0 0.0 0.0 0.0 0.0 0.0 0.0 0.0 0.0 0.0 0.0 0.0 0.0 0.0 0.0 0.0 0.0 0.0 0.0 0.0 0.0 0.0 0.0 0.0 0.0 0.0 0.0 0.0 0.0 0.0 0.0 0.0 0.0 0.0 0.0 0.0 0.0 0.0 0.0 0.0 0.0 0.0 0.0 0.0 0.0 0.0 0.0 0.0 0.0 0.0 0.0 0.0 0.0 0.0 0.0 0.0 0.0 0.0 0.0 0.0 0.0 0.0 0.0 0.0 0.0 0.0 0.0 0.0 0.0 0.0 0.0 0.0 0.0 0.0 0.0 0.0 0.0 0.0 0.0 0.0 0.0 0.0 0.0 0.0 0.0 0.0 0.0 0.0 0.0 0.0 0.0 0.0 0.0 0.0 0.0 0.0 0.0 0.0 0.0 0.0 0.0 0.0 0.0 0.0 0.0 0.0 0.0 0.0 0.0 0.0 0.0 0.0 0.0 0.0 0.0 0.0 0.0 0.0 0.0 0.0 0.0 0.0 0.0 0.0 0.0 0.0 0.0 0.0 0.0 0.0 0.0 0.0 0.0 0.0 0.0 0.0 0.0 0.0 0.0 0.0 0.0 0.0 0.0 0.0 0.0 0.0 0.0 0.0 0.0 0.0 0.0 0.0 0.0 0.0 0.0 0.0 0.0 0.0 0.0 0.0 0.0 0.0 0.0 0.0 0.0 0.0 0.0 0.0 0.0 0.0 0.0 0.0 0.0 0.0 0.0 0.0 0.0 0.0 0.0 0.0 0.0 0.0 0.0 0.0 0.0 0.0 0.0 0.0 0.0 0.0 0.0 0.0 0.0 0.0 0.0 0.0 0.0 0.0 0.0 0.0 0.0 0.0 0.0 0.0 0.0 0.0 0.0 0.0 0.0 0.0 0.0 0.0 0.0 0.0 0.0 0.0 0.0 0.0 0.0 0.0 0.0 0.0 0.0 0.0 0.0 0.0 0.0 0.0 0.0 0.0 0.0 0.0 0.0 0.0 0.0 0.0 0.0 0.0 0.0 0.0 0.0 0.0 0.0 0.0 0.0 0.0 0.0 0.0 0.0 0.0 0.0 0.0 0.0 0.0 0.0 0.0 0.0 0.0 0.0 0.0 0.0 0.0 0.0 0.0 0.0 0.0 0.0 0.0 0.0 0.0 0.0 0.0 0.0 0.0 0.0 0.0 0.0 0.0 0.0 0.0 0.0 0.0 0.0 0.0 0.0 0.0 0.0 0.0 0.0 0.0 0.0 0.0 0.0 0.0 0.0 0.0 0.0 0.0 0.0 0.0 0.0 0.0 0.0 0.0 0.0 0.0 0.0 0.0 0.0 0.0 0.0 0.0 0.0 0.0 0.0 0.0 0.0 0.0 0.0 0.0 0.0 0.0 0.0 0.0 0.0 0.0 0.0 0.0 0.0 0.0 0.0 0.0 0.0 0.0 0.0 0.0 0.0 0.0 0.0 0.0 0.0 0.0 0.0 0.0 0.0 0.0 0.0 0.0 0.0 0.0 0.0 0.0 0.0 0.0 0.0 0.0 0.0 0.0 0.0 0.0 0.0 0.0 0.0 0.0 0.0 0.0 0.0 0.0 0.0 0.0 0.0 0.0 0.0 0.0 0.0 0.0 0.0 0.0 0.0 0.0 0.0 0.0 0.0 0.0 0.0 0.0 0.0 0.0 0.0 0.0 0.0 0.0 0.0 0.0 0.0 0.0 0.0 0.0 0.0 0.0 0.0 0.0 0.0 0.0 0.0 0.0 0.0 0.0 0.0 0.0 0.0 0.0 0.0 0.0 0.0 0.0 0.0 0.0 0.0 0.0 0.0 0.0 0.0 0.0 0.0 0.0 0.0 0.0 0.0 0.0 0.0 0.0 0.0 0.0 0.0 0.0 0.0 0.0 0.0 0.0 0.0 0.0 0.0 0.0 0.0 0.0 0.0 0.0 0.0 0.0 0.0 0.0 0.0 0.0 0.0 0.0 0.0 0.0 0.0 0.0 0.0 0.0 0.0 0.0 0.0 0.0 0.0 0.0 0.0 0.0 0.0 0.0 0.0 0.0 0.0 0.0 0.0 0.0 0.0 0.0 0.0 0.0 0.0 0.0 0.0 0.0 0.0 0.0 0.0 0.0 0.0 0.0 0.0 0.0 0.0 0.0 0.0 0.0 0.0 0.0 0.0 0.0 0.0 0.0 0.0 0.0 0.0 0.0 0.0 0.0 0.0 0.0 0.0 0.0 0.0 0.0 0.0 0.0 0.0 0.0 0.0 0.0 0.0 0.0 0.0 0.0 0.0 0.0 0.0 0.0 0.0 0.0 0.0 0.0 0.0 0.0 0.0 0.0 0.0 0.0 0.0 0.0 0.0 0.0 0.0 0.0 0.0 0.0 0.0 0.0 0.0 0.0 0.0 0.0 0.0 0.0 0.0 0.0 0.0 0.0 0.0 0.0 0.0 0.0 0.0 0.0 0.0 0.0 0.0 0.0 0.0 0.0 0.0 0.0 0.0 0.0 0.0 0.0 0.0 0.0 0.0 0.0 0.0 0.0 0.0 0.0 0.0 0.0 0.0 0.0 0.0 0.0 0.0 0.0 0.0 0.0 0.0 0.0 0.0 0.0 0.0 0.0 0.0 0.0 0.0 0.0 0.0 0.0 0.0 0.0 0.0 0.0 0.0 0.0 0.0 0.0 0.0 0.0 0.0 0.0 0.0 0.0 0.0 0.0 0.0 0.0 0.0 0.0 0.0 0.0 0.0 0.0 0.0 0.0 0.0 0.0 0.0 0.0 0.0 0.0 0.0 0.0 0.0 0.0 0.0 0.0 0.0 0.0 0.0 0.0 0.0 0.0 0.0 0.0 0.0 0.0 0.0 0.0 0.0 0.0 0.0 0.0 0.0 0.0 0.0 0.0 0.0 0.0 0.0 0.0 0.0 0.0 0.0 0.0 0.0 0.0 0.0 0.0 0.0 0.0 0.0 0.0 0.0 0.0 0.0 0.0 0.0 0.0 0.0 0.0 0.0 0.0 0.0 0.0 0.0 0.0 0.0 0.0 0.0 0.0 0.0 0.0 0.0 0.0 0.0 0.0 0.0 0.0 0.0 0.0 0.0 0.0 0.0 0.0 0.0 0.0 0.0 0.0 0.0 0.0 0.0 0.0 0.0 0.0 0.0 0.0 0.0 0.0 0.0 0.0 0.0 0.0 0.0 0.0 0.0 0.0 0.0 0.0 0.0 0.0 0.0 0.0 0.0 0.0 0.0 0.0 0.0 0.0 0.0 0.0 0.0 0.0 0.0 0.0 0.0 0.0 0.0 0.0 0.0 0.0 0.0 0.0 0.0 0.0 0.0 0.0 0.0 0.0 0.0 0.0 0.0 0.0 0.0 0.0 0.0 0.0 0.0 0.0 0.0 0.0 0.0 0.0 0.0 0.0 0.0 0.0 0.0 0.0 0.0 0.0 0.0 0.0 0.0 0.0 0.0 0.0 0.0 0.0 0.0 0.0 0.0 0.0 0.0 0.0 0.0 0.0 0.0 0.0 0.0 0.0 0.0 0.0 0.0 0.0 0.0 0.0 0.0 0.0 0.0 0.0 0.0 0.0 0.0 0.0 0.0 0.0 0.0 0.0 0.0 0.0 0.0 0.0 0.0 0.0 0.0 0.0 0.0 0.0 0.0 0.0 0.0 0.0 0.0 0.0 0.0 0.0 0.0 0.0 0.0 0.0 0.0 0.0 0.0 0.0 0.0 0.0 0.0 0.0 0.0 0.0 0.0 0.0 0.0 0.0 0.0 0.0 0.0 0.0 0.0 0.0 0.0 0.0 0.0 0.0 0.0 0.0 0.0 0.0 0.0 0.0 0.0 0.0 0.0 0.0 0.0 0.0 0.0 0.0 0.0 0.0 0.0 0.0 0.0 0.0 0.0 0.0 0.0 0.0 0.0 0.0 0.0 0.0 0.0 0.0 0.0 0.0 0.0 0.0 0.0 0.0 0.0 0.0 0.0 0.0 0.0 0.0 0.0 0.0 0.0 0.0 0.0 0.0 0.0 0.0 0.0 0.0 0.0 0.0 0.0 0.0 0.0 0.0 0.0 0.0 0.0 0.0 0.0 0.0 0.0 0.0 0.0 0.0 0.0 0.0 0.0 0.0 0.0 0.0 0.0 0.0 0.0 0.0 0.0 0.0 0.0 0.0 0.0 0.0 0.0 0.0 0.0 0.0 0.0 0.0 0.0 0.0 0.0 0.0 0.0 0.0 0.0 0.0 0.0 0.0 0.0 0.0 0.0 0.0 0.0 0.0 0.0 0.0 0.0 0.0 0.0 0.0 0.0 0.0 0.0 0.0 0.0 0.0 0.0 0.0 0.0 0.0 0.0 0.0 0.0 0.0 0.0 0.0 0.0 0.0 0.0 0.0 0.0 0.0 0.0 0.0 0.0 0.0 0.0 0.0 0.0 0.0 0.0 0.0 0.0 0.0 0.0 0.0 0.0 0.0 0.0 0.0 0.0 0.0 0.0 0.0 0.0 0.0 0.0 0.0 0.0 0.0 0.0 0.0 0.0 0.0 0.0 0.0 0.0 0.0 0.0 0.0 0.0 0.0 0.0 0.0 0.0 0.0 0.0 0.0 0.0 0.0 0.0 0.0 0.0 0.0 0.0 0.0 0.0 0.0 0.0 0.0 0.0 0.0 0.0 0.0 0.0 0.0 0.0 0.0 0.0 0.0 0.0 0.0 0.0 0.0 0.0 0.0 0.0 0.0 0.0 0.0 0.0 0.0 0.0 0.0 0.0 0.0 0.0 0.0 0.0 0.0 0.0 0.0 0.0 0.0 0.0 0.0 0.0 0.0 0.0 0.0 0.0 0.0 0.0 0.0 0.0 0.0 0.0 0.0 0.0 0.0 0.0 0.0 0.0 0.0 0.0 0.0 0.0 0.0 0.0 0.0 0.0 0.0 0.0 0.0 0.0 0.0 0.0 0.0 0.0 0.0 0.0 0.0 0.0 0.0 0.0 0.0 0.0 0.0 0.0 0.0 0.0 0.0 0.0 0.0 0.0 0.0 0.0 0.0 0.0 0.0 0.0 0.0 0.0 0.0 0.0 0.0 0.0 0.0 0.0 0.0 0.0 0.0 0.0 0.0 0.0 0.0 0.0 0.0 0.0 0.0 0.0 0.0 0.0 0.0 0.0 0.0 0.0 0.0 0.0 0.0 0.0 0.0 0.0 0.0 0.0 0.0 0.0 0.0 0.0 0.0 0.0 0.0 0.0 0.0 0.0 0.0 0.0 0.0 0.0 0.0 0.0 0.0 0.0 0.0 0.0 0.0 0.0 0.0 0.0 0.0 0.0 0.0 0.0 0.0 0.0 0.0 0.0 0.0 0.0 0.0 0.0 0.0 0.0 0.0 0.0 0.0 0.0 0.0 0.0 0.0 0.0 0.0 0.0 0.0 0.0 0.0 0.0 0.0 0.0 0.0 0.0 0.0 0.0 0.0 0.0 0.0 0.0 0.0 0.0 0.0 0.0 0.0 0.0 0.0 0.0 0.0 0.0 0.0 0.0 0.0 0.0 0.0 0.0 0.0 0.0 0.0 0.0 0.0 0.0 0.0 0.0 0.0 0.0 0.0 0.0 0.0 0.0 0.0 0.0 0.0 0.0 0.0 0.0 0.0 0.0 0.0 0.0 0.0 0.0 0.0 0.0 0.0 0.0 0.0 0.0 0.0 0.0 0.0 0.0 0.0 0.0 0.0 0.0 0.0 0.0 0.0 0.0 0.0 0.0 0.0 0.0 0.0 0.0 0.0 0.0 0.0 0.0 0.0 0.0 0.0 0.0 0.0 0.0 0.0 0.0 0.0 0.0 0.0 0.0 0.0 0.0 0.0 0.0 0.0 0.0 0.0 0.0 0.0 0.0 0.0 0.0 0.0 0.0 0.0 0.0 0.0 0.0 0.0 0.0 0.0 0.0 0.0 0.0 0.0 0.0 0.0 0.0 0.0 0.0 0.0 0.0 0.0 0.0 0.0 0.0 0.0 0.0 0.0 0.0 0.0 0.0 0.0 0.0 0.0 0.0 0.0 0.0 0.0 0.0 0.0 0.0 0.0 0.0 0.0 0.0 -0.00073425355 0.0 -0.00028142484 -0.0008931708300000001 0.0 -0.00027076568 -0.0010272052999999999 0.0 -0.00024427852000000004 -0.0011313347 0.0 -0.00021048898999999997 -0.0012079341 0.0 -0.00017355185000000002 -0.00073071284 0.0 -0.00037225091 -0.0010230073 0.0 -0.00034781167 -0.0012723713 0.0 -0.00034368172 -0.0014734467999999998 0.0 -0.00031766531 -0.0016244351 0.0 -0.00027852194 -0.0017318096 0.0 -0.00023199676 -0.0010237822 0.0 -0.00041516684 -0.0014294714000000002 0.0 -0.00039937149 -0.0017766587 0.0 -0.00038944854 -0.0020572492 0.0 -0.00036015676 -0.0022644231 0.0 -0.00031915706 -0.002408758 0.0 -0.00026741848 -0.0013886979 0.0 -0.00045014496 -0.0019297014000000002 0.0 -0.00042903863 -0.0023847753 0.0 -0.00041831074999999996 -0.0027489758 0.0 -0.00038696627999999995 -0.0030152833 0.0 -0.00034271457000000004 -0.0031968459999999997 0.0 -0.0002872078 -0.0018256654 0.0 -0.00048680349999999996 -0.0025214248000000002 0.0 -0.00044848687999999995 -0.0030946364 0.0 -0.00043357859000000003 -0.0035452913 0.0 -0.00039958123999999994 -0.0038696672 0.0 -0.00035251351 -0.0040854778999999996 0.0 -0.00029412613 -0.0023505697 0.0 -0.00053259282 -0.0032220008000000003 0.0 -0.00046303364999999996 -0.0039221685999999995 0.0 -0.0004382171599999999 -0.0044610724 0.0 -0.00040013233 -0.0048406501 0.0 -0.00035197922 -0.0050864983 0.0 -0.00029221627999999995 -0.0029905161 0.0 -0.00059796625 -0.0040603406 0.0 -0.00048214209000000004 -0.0048958627 0.0 -0.00043960410000000005 -0.005525386 0.0 -0.00039410125 -0.005956594399999999 0.0 -0.0003471883 -0.006227979 0.0 -0.0002880308 -0.0037831031 0.0 -0.00069688435 -0.0050721564000000005 0.0 -0.00051973079 -0.0060488786999999995 0.0 -0.00045300295 -0.0067721032999999995 0.0 -0.00039494940000000004 -0.007252852 0.0 -0.00034977699 -0.0075448508999999995 0.0 -0.00029208988 -0.0047865841 0.0 -0.0008158364200000001 -0.0062960987 0.0 -0.00058345532 -0.007418903100000001 0.0 -0.00049039832 -0.0082334513 0.0 -0.00042380404 -0.008762421999999999 0.0 -0.00037788198 -0.0090695387 0.0 -0.00032092939 -0.0060988427 0.0 -0.00088171638 -0.007780286500000001 0.0 -0.00066015357 -0.009039077 0.0 -0.0005609052599999999 -0.009940515300000001 0.0 -0.00049846043 -0.010517596 0.0 -0.00044791002 -0.010830496 0.0 -0.00039289352999999995 -0.0078148786 0.0 -0.00088324299 -0.009600225799999999 0.0 -0.0007359762700000001 -0.010960436 0.0 -0.00066172431 -0.011936258 0.0 -0.0006214966400000001 -0.012544935 0.0 -0.00058558077 -0.012856717 0.0 -0.0005260848599999999 -0.0098016812 0.0 -0.0013286459 -0.011789781000000001 0.0 -0.0010001113 -0.013230002 0.0 -0.0008838537 -0.014266632 0.0 -0.00083260512 -0.014886063 0.0 -0.0008025695599999999 -0.01517937 0.0 -0.00073791842 -0.012304781 0.0 -0.0030678036 -0.014428083000000001 0.0 -0.0020491919 -0.015920099 0.0 -0.0015221172 -0.016984737 0.0 -0.0012702453999999998 -0.017581832 0.0 -0.001164968 -0.017836228 0.0 -0.0010572489 -0.015642835 0.0 -0.0047778105 -0.017703971000000002 0.0 -0.0034894638 -0.019170001000000002 0.0 -0.0025288335 -0.020159569 0.0 -0.0020016598999999997 -0.020684846 0.0 -0.0017333982999999998 -0.020874688 0.0 -0.0015159069000000001 -0.019717444 0.0 -0.0060412553 -0.021611177999999998 0.0 -0.0048083663 -0.022954641 0.0 -0.0036765405 -0.023815488 0.0 -0.0029354836 -0.024235444 0.0 -0.0024671524 -0.024343202 0.0 -0.0021039755 -0.024258178 0.0 -0.0071255610999999995 -0.025990477 0.0 -0.0059451745 -0.027204966 0.0 -0.0048036417 -0.027947222999999997 0.0 -0.0039410478999999995 -0.028271105 0.0 -0.003299111 -0.028284905 0.0 -0.0027853904999999997 -0.029090876 0.0 -0.0081847636 -0.03074142 0.0 -0.0070125349 -0.031891786 0.0 -0.0058732117 -0.032565013 0.0 -0.0049472782 -0.032816846000000004 0.0 -0.0041829306 -0.032744046 0.0 -0.0035421306 -0.034178466 0.0 -0.009297973499999999 -0.035879809 0.0 -0.0080972202 -0.03706 0.0 -0.0069256132 -0.037716623 0.0 -0.0059605371 -0.037921209 0.0 -0.0051020491 -0.037769597 0.0 -0.004350225 -0.039654654 0.0 -0.010505795 -0.041525759 0.0 -0.0092348391 -0.042798325 0.0 -0.0080120396 -0.043477818 0.0 -0.0070012161 -0.043641794000000005 0.0 -0.0060656057 -0.043411612999999995 0.0 -0.0052033165 -0.045715507 0.0 -0.01182538 -0.047803439 0.0 -0.010460934 -0.04919368 0.0 -0.009170332 -0.049908295 0.0 -0.008102819300000001 -0.050034761 0.0 -0.0070834737 -0.049725905 0.0 -0.006104489300000001 -0.052470132999999995 0.0 -0.013287858 -0.054793593 0.0 -0.011803598 -0.05631011 0.0 -0.010435675 -0.057063837 0.0 -0.0092964098 -0.05715963599999999 0.0 -0.0081748376 -0.056772504 0.0 -0.0070654224 -0.059993002999999996 0.0 -0.014905634 -0.062564023 0.0 -0.013297973000000001 -0.064213529 0.0 -0.011843038 -0.065012127 0.0 -0.010605495 -0.065081865 0.0 -0.0093574375 -0.064615637 0.0 -0.008099665899999999 -0.06836453099999999 0.0 -0.016713146 -0.07119297200000001 0.0 -0.014984906000000001 -0.07298114900000001 0.0 -0.01342182 -0.073829979 0.0 -0.012043733000000001 -0.073875748 0.0 -0.010644358999999999 -0.073325969 0.0 -0.0092233652 -0.07768683900000001 0.0 -0.018766642 -0.08077921 0.0 -0.016915728999999997 -0.082706288 0.0 -0.015190345 -0.083608307 0.0 -0.013618187 -0.083626434 0.0 -0.012051468999999999 -0.08298195900000001 0.0 -0.010464998 -0.088112436 0.0 -0.021138603 -0.09145318 0.0 -0.019148929 -0.093504272 0.0 -0.017158659 -0.094450369 0.0 -0.015337654 -0.09442453099999999 0.0 -0.013613911000000001 -0.093666889 0.0 -0.011889686000000002 -0.099870473 0.0 -0.023920981 -0.10338228 0.0 -0.021749547 -0.10550456 0.0 -0.019345026 -0.10645737 0.0 -0.01724162 -0.10635036 0.0 -0.01541445 -0.1054522 0.0 -0.013615186000000001 -0.11326485 0.0 -0.027233969 -0.1167458 0.0 -0.024806582999999997 -0.11881622 0.0 -0.021828527 -0.1196907 0.0 -0.019470785 -0.11944266 0.0 -0.017622311 -0.11836674 0.0 -0.015825706000000002 -0.12857105 0.0 -0.031233868999999997 -0.13163473 0.0 -0.028444944 -0.13343698 0.0 -0.024764867000000003 -0.13408269 0.0 -0.022258512999999997 -0.13362703 0.0 -0.020517381 -0.1323306 0.0 -0.018779926000000002 -0.14575246 0.0 -0.036104727999999996 -0.1478567 0.0 -0.032904714 -0.1490871 0.0 -0.028459201 -0.14930837 0.0 -0.025926735 -0.14856866 0.0 -0.024431317999999997 -0.14704978 0.0 -0.022723466 -0.16410136 0.0 -0.042141207 -0.16466907 0.0 -0.038579281 -0.1650162 0.0 -0.033468387999999995 -0.16472462 0.0 -0.030878816 -0.163653 0.0 -0.029472167 -0.16187979 0.0 -0.027845914 -0.18205824 0.0 -0.049832318 -0.18081141 0.0 -0.046104415999999995 -0.18005691 0.0 -0.040586773 -0.17942454 0.0 -0.037274804 -0.17802775 0.0 -0.035780337 -0.17602481 0.0 -0.033983967999999996 -0.19776896 0.0 -0.06011821 -0.19492428 0.0 -0.056440365 -0.19401494 0.0 -0.049636859000000005 -0.1927793 0.0 -0.04549070400000001 -0.19093324 0.0 -0.043323811 -0.18875849 0.0 -0.040990759 -0.20917803 0.0 -0.073421814 -0.2062491 0.0 -0.069863565 -0.20536427 0.0 -0.062543325 -0.20398092 0.0 -0.056435451 -0.20197842 0.0 -0.052017596 -0.19940238 0.0 -0.048707865 -0.21503712 0.0 -0.089060247 -0.21294294 0.0 -0.085522234 -0.21230125 0.0 -0.07874850900000001 -0.21083134 0.0 -0.072048821 -0.20925717 0.0 -0.064072095 -0.20680334 0.0 -0.058171562999999996 -0.21332097 0.0 -0.10471559 -0.2140628 0.0 -0.10027752 -0.21397372 0.0 -0.094738431 -0.21210834 0.0 -0.091302544 -0.21116662 0.0 -0.081147015 -0.20930226 0.0 -0.072402991 -0.18398 0.0 -0.11605017 -0.20174511 0.0 -0.11161955 -0.20664231 0.0 -0.10841985 -0.2044896 0.0 -0.11117935 -0.20387536 0.0 -0.10401956 -0.20290928 0.0 -0.09406960800000001 -0.12475396 0.0 -0.12498195 -0.14516547 0.0 -0.12160386 -0.16222525 0.0 -0.11877469 -0.17287096 0.0 -0.12583698 -0.17757745 0.0 -0.12615867 -0.17811373 0.0 -0.12067534 -0.07463254799999999 0.0 -0.1329674 -0.087839767 0.0 -0.1298977 -0.099382631 0.0 -0.12199499 -0.10821004 0.0 -0.12708266 -0.11357173 0.0 -0.12831514 -0.11552062 0.0 -0.12451403 -0.039720431 0.0 -0.13897341 -0.047017067999999995 0.0 -0.13701338 -0.053368978 0.0 -0.1231917 -0.058781505 0.0 -0.12573493 -0.062569156 0.0 -0.12653458 -0.06458797299999999 0.0 -0.1235392 -0.016535932 0.0 -0.14298829 -0.019142341 0.0 -0.14200062 -0.021372292 0.0 -0.12423837 -0.023686681 0.0 -0.12482132 -0.025729205 0.0 -0.12488236 -0.027228383 0.0 -0.12170459 0.0018324791 0.0 -0.14510894 0.0030332741 0.0 -0.14479983 0.0040225876 0.0 -0.12566663 0.0043665896999999995 0.0 -0.12500113 0.0039831307 0.0 -0.12418757 0.003200829 0.0 -0.11997747 0.021382105 0.0 -0.14547306 0.025979185 0.0 -0.14540306 0.029534672999999997 0.0 -0.12688088 0.032063037 0.0 -0.12607007 0.033073429 0.0 -0.12428502 0.032807384 0.0 -0.11850176 0.044543002000000005 0.0 -0.14393699 0.052354261 0.0 -0.14377533 0.058182389 0.0 -0.12652028 0.062452812 0.0 -0.12616093 0.064519338 0.0 -0.12370661 0.06433326 0.0 -0.11686037 0.070286378 0.0 -0.14087512 0.081267722 0.0 -0.14044701 0.089174345 0.0 -0.12449945 0.09487547 0.0 -0.12454534 0.097668312 0.0 -0.1218273 0.09712734099999999 0.0 -0.11448964 0.096068196 0.0 -0.13658477 0.1100326 0.0 -0.13584176 0.11974309 0.0 -0.12101986 0.12669794 0.0 -0.12115916 0.12996553 0.0 -0.1183582 0.12886551 0.0 -0.11095679 0.11944634 0.0 -0.13131055 0.13598315 0.0 -0.13037793 0.14700881 0.0 -0.1163149 0.15484603 0.0 -0.11610362 0.1585107 0.0 -0.11291263 0.15711598 0.0 -0.10607614 0.13862704 0.0 -0.12529153 0.15688746 0.0 -0.12410066 0.16914782 0.0 -0.11075091 0.17712682 0.0 -0.10957336 0.18111742 0.0 -0.10564925 0.17896368 0.0 -0.09998193400000001 0.15283106 0.0 -0.11869743 0.17185891 0.0 -0.1166212 0.18523309 0.0 -0.10430013 0.1926446 0.0 -0.10162471 0.19248185 0.0 -0.098399512 0.18593515 0.0 -0.093513116 0.16338114 0.0 -0.11153005 0.18239129 0.0 -0.1084616 0.19601049 0.0 -0.09692125 0.19951358 0.0 -0.094402276 0.19426163 0.0 -0.09206948400000001 0.18667173 0.0 -0.086890243 0.17283902 0.0 -0.10384832 0.19097479 0.0 -0.1000654 0.20221797 0.0 -0.089257494 0.20036635 0.0 -0.087693125 0.19397117 0.0 -0.08559369300000001 0.18588962 0.0 -0.080412135 0.18313177 0.0 -0.09597864 0.19863814 0.0 -0.09156809 0.20440815 0.0 -0.081517145 0.2001082 0.0 -0.080962256 0.19273412 0.0 -0.078897581 0.18433543 0.0 -0.074429549 0.19573006 0.0 -0.08805890400000001 0.20584419 0.0 -0.082650155 0.20539747 0.0 -0.074078165 0.19951491 0.0 -0.074117087 0.19131431 0.0 -0.072391845 0.1825086 0.0 -0.068962149 0.21316445 0.0 -0.079425998 0.21367247 0.0 -0.073943883 0.20656879 0.0 -0.06725198 0.19898926 0.0 -0.067372397 0.18990776 0.0 -0.066049613 0.18039909 0.0 -0.063161969 0.22909613 0.0 -0.0689786 0.22018121 0.0 -0.06584905099999999 0.2086695 0.0 -0.061148912 0.19862327 0.0 -0.061003216 0.18865424 0.0 -0.059710871 0.17821735 0.0 -0.057189163 0.23509213 0.0 -0.060777951 0.2237882 0.0 -0.058942395999999994 0.210135 0.0 -0.055096608 0.19824955 0.0 -0.05454009 0.18751654 0.0 -0.05363689 0.17616956 0.0 -0.051142175 0.22486299 0.0 -0.052646618 0.2102866 0.0 -0.048818283 0.19784164 0.0 -0.047749557000000005 0.1864911 0.0 -0.047246888 0.17441194 0.0 -0.045212485 0.22308689 0.0 -0.04709639 0.21019883 0.0 -0.04345634599999999 0.19724067 0.0 -0.041112151 0.18561113 0.0 -0.040768102 0.17301837 0.0 -0.03921679 0.20965794 0.0 -0.039909627 0.19679937 0.0 -0.036327466 0.18519439 0.0 -0.035349317000000005 0.17221312 0.0 -0.033858318 0.20710047 0.0 -0.037217934 0.19718224 0.0 -0.034194164 0.18530087 0.0 -0.031616267 0.17245112 0.0 -0.029934377999999998 0.19588394 0.0 -0.033169076 0.18572587 0.0 -0.030107766 0.17370509 0.0 -0.02795447 0.18459037 0.0 -0.029696112 0.17514865 0.0 -0.027647178999999997 0.17813189 0.0 -0.027195037999999998 0.17374286 0.0 -0.027474962000000002 -0.001260396 0.0 -0.0001385043 -0.0012941505 0.0 -0.00010612620000000001 -0.0013131252 0.0 -7.9356214e-05 -0.0013218495000000001 0.0 -5.7189278000000005e-05 -0.0013238852 0.0 -3.9613999e-05 -0.001322037 0.0 -2.6396387e-05 -0.0013186004999999998 0.0 -1.6505988e-05 -0.0013150886999999999 0.0 -9.4762127e-06 -0.0013125917000000001 0.0 -4.2478596e-06 -0.001803054 0.0 -0.00018542352999999999 -0.001846196 0.0 -0.00014324543 -0.0018684415 0.0 -0.00010793427999999999 -0.0018769675 0.0 -7.8023739e-05 -0.0018764979999999999 0.0 -5.4719516e-05 -0.0018712732999999998 0.0 -3.6766134e-05 -0.0018644020999999998 0.0 -2.3387262e-05 -0.0018580516 0.0 -1.359706e-05 -0.001853692 0.0 -6.186399299999999e-06 -0.0025009196 0.0 -0.00021543978 -0.002554086 0.0 -0.00016768136000000003 -0.0025794770999999998 0.0 -0.00012638247 -0.0025864795 0.0 -9.1911934e-05 -0.0025820711 0.0 -6.4781234e-05 -0.002572037 0.0 -4.3635568999999995e-05 -0.0025603836 0.0 -2.7975964e-05 -0.0025501551999999998 0.0 -1.6279464e-05 -0.0025432738000000002 0.0 -7.4647910000000005e-06 -0.0033093253 0.0 -0.00023110901000000003 -0.0033709214 0.0 -0.00018019110000000002 -0.0033976419 0.0 -0.00013528155 -0.0034011571999999998 0.0 -9.839420099999999e-05 -0.0033909778999999998 0.0 -6.8930305e-05 -0.0033743796 0.0 -4.6404980999999995e-05 -0.0033566095 0.0 -2.958127e-05 -0.0033414728999999997 0.0 -1.7195947e-05 -0.0033314534999999996 0.0 -7.8568346e-06 -0.0042146547 0.0 -0.00023587398999999997 -0.0042813821 0.0 -0.00018310353 -0.0043061893 0.0 -0.00013648110000000002 -0.0043033836 0.0 -9.8890661e-05 -0.0042850031 0.0 -6.8544599e-05 -0.0042598164 0.0 -4.5785149000000004e-05 -0.0042343736 0.0 -2.8828455e-05 -0.0042132232 0.0 -1.6614968e-05 -0.0041993968 0.0 -7.532558799999999e-06 -0.005227462899999999 0.0 -0.00023397595 -0.005294926899999999 0.0 -0.00018029390999999999 -0.0053134048 0.0 -0.00013385006 -0.005300737 0.0 -9.603546599999999e-05 -0.0052710497 0.0 -6.6127621e-05 -0.0052348967 0.0 -4.3569893e-05 -0.0051999240999999995 0.0 -2.7178341e-05 -0.0051714796999999995 0.0 -1.5475614e-05 -0.0051530777000000005 0.0 -6.956519400000001e-06 -0.0063753859 0.0 -0.00023178957 -0.0064381518999999995 0.0 -0.00017857156999999998 -0.0064453064 0.0 -0.00013298812 -0.0064184661 0.0 -9.514948e-05 -0.0063738972 0.0 -6.5539294e-05 -0.0063239262 0.0 -4.3035474e-05 -0.0062772622 0.0 -2.6808530999999997e-05 -0.0062399944 0.0 -1.5272864e-05 -0.0062161116 0.0 -6.8473855e-06 -0.007692825 0.0 -0.00023837627999999996 -0.007744717900000001 0.0 -0.00018615615 -0.0077349459999999995 0.0 -0.00014105593 -0.007688988000000001 0.0 -0.00010252119 -0.007625474100000001 0.0 -7.1884337e-05 -0.007558350500000001 0.0 -4.8212449e-05 -0.007497449399999999 0.0 -3.0692776e-05 -0.0074495570999999995 0.0 -1.7870990999999998e-05 -0.0074191303 0.0 -8.149942e-06 -0.0092115263 0.0 -0.00026687825 -0.009245665699999999 0.0 -0.00021427080000000002 -0.009212945600000001 0.0 -0.00016741869 -0.0091425059 0.0 -0.00012594121999999998 -0.0090555036 0.0 -9.1440073e-05 -0.008967516 0.0 -6.3764055e-05 -0.0088894796 0.0 -4.2221229e-05 -0.0088289008 0.0 -2.5467809e-05 -0.0087906923 0.0 -1.1931177e-05 -0.010958002 0.0 -0.0003352343 -0.010967032 0.0 -0.00027757837000000004 -0.010905161000000002 0.0 -0.00022367892999999997 -0.010804728999999999 0.0 -0.00017402681 -0.010689378999999999 0.0 -0.00013092571 -0.010576463999999999 0.0 -9.4648152e-05 -0.010478076999999999 0.0 -6.4954082e-05 -0.010402507 0.0 -4.0369679e-05 -0.01035512 0.0 -1.9316356e-05 -0.012959521000000002 0.0 -0.00046128544 -0.012936205 0.0 -0.00039029080999999997 -0.012838759 0.0 -0.00032133947 -0.012702649 0.0 -0.00025559313 -0.012553846 0.0 -0.00019690444 -0.012411648 0.0 -0.00014579091999999998 -0.012289421000000002 0.0 -0.00010219200000000001 -0.012196297 0.0 -6.476471e-05 -0.012138201999999999 0.0 -3.1350828e-05 -0.015247645 0.0 -0.00065914157 -0.015185113 0.0 -0.0005627606299999999 -0.015045427 0.0 -0.0004688279 -0.01486758 0.0 -0.0003781651 -0.014680055 0.0 -0.00029464404 -0.014503861000000002 0.0 -0.00022112334 -0.014354013 0.0 -0.0001568817 -0.014240596000000001 0.0 -0.00010022413 -0.0141701 0.0 -4.8821697000000006e-05 -0.017860746 0.0 -0.0009362581800000002 -0.017749803 0.0 -0.00080403558 -0.017561128 0.0 -0.0006717843400000001 -0.017335204 0.0 -0.0005452092199999999 -0.017103039 0.0 -0.00042804793 -0.016887926 0.0 -0.00032296215 -0.016706398 0.0 -0.00023055747000000004 -0.016569698 0.0 -0.00014827609 -0.016485043 0.0 -7.2434304e-05 -0.020841541 0.0 -0.0013107322 -0.020672186999999998 0.0 -0.00111778 -0.020425379 0.0 -0.0009339132199999999 -0.020144358 0.0 -0.00075787632 -0.01986108 0.0 -0.00059741718 -0.019601623000000002 0.0 -0.00045236788 -0.019384168 0.0 -0.00032347694 -0.019221142 0.0 -0.00020820380000000001 -0.019120428999999998 0.0 -0.00010190174000000001 -0.024236498 0.0 -0.0017873320000000002 -0.02399708 0.0 -0.0015085076 -0.023681516 0.0 -0.0012567602999999999 -0.023336485 0.0 -0.00101614 -0.022995166 0.0 -0.00080032629 -0.022685632 0.0 -0.0006081922900000001 -0.02242782 0.0 -0.00043610318 -0.022235259 0.0 -0.00028055639 -0.022116482000000003 0.0 -0.0001372431 -0.028092967000000003 0.0 -0.0023525158999999998 -0.027770806000000002 0.0 -0.0019704672 -0.027375614 0.0 -0.0016313787 -0.026956353 0.0 -0.0013169588 -0.026549042999999998 0.0 -0.0010348675999999998 -0.026183169 0.0 -0.0007853533 -0.025880228999999998 0.0 -0.00056412374 -0.025654903 0.0 -0.00036372908 -0.025516281000000002 0.0 -0.00017825018 -0.032459382 0.0 -0.0029825976000000002 -0.032041658 0.0 -0.0024891363 -0.031555757000000004 0.0 -0.0020515332 -0.031052569 0.0 -0.0016547047 -0.030571242999999998 0.0 -0.0012980871 -0.030142437999999997 0.0 -0.00098290981 -0.02978914 0.0 -0.00070424908 -0.02952718 0.0 -0.00045416169 -0.029366588 0.0 -0.00022247990000000002 -0.037385523 0.0 -0.0036687369 -0.036862563 0.0 -0.0030582605 -0.036274988 0.0 -0.0025126482 -0.035678349 0.0 -0.0020223848999999998 -0.035114624 0.0 -0.0015827101999999998 -0.034615714 0.0 -0.0011951192 -0.034206424 0.0 -0.00085306383 -0.033903672999999995 0.0 -0.00054887793 -0.033718385 0.0 -0.00026812661 -0.042924482 0.0 -0.0043995692 -0.042289100999999996 0.0 -0.0036675448 -0.041590229 0.0 -0.0030049831 -0.040889657999999995 0.0 -0.0024091692 -0.040234993999999996 0.0 -0.0018801304999999998 -0.039658856 0.0 -0.0014166476999999999 -0.039187104 0.0 -0.0010072991 -0.038838722 0.0 -0.0006452708 -0.038625512 0.0 -0.00031442652 -0.049132459 0.0 -0.0051704124 -0.048377849 0.0 -0.0043072714 -0.047559328 0.0 -0.0035206696000000003 -0.046744943 0.0 -0.0028110428000000004 -0.04598904 0.0 -0.0021841973000000002 -0.04532684 0.0 -0.0016402311999999999 -0.044786077 0.0 -0.0011645394 -0.044386175 0.0 -0.00074292708 -0.044141296 0.0 -0.00036151392999999996 -0.0560688 0.0 -0.0059881634 -0.055188142 0.0 -0.0049826582 -0.054240249000000004 0.0 -0.0040619555 -0.053301590999999995 0.0 -0.0032317201 -0.052432291 0.0 -0.0025002242 -0.051673036 0.0 -0.0018700061999999999 -0.051054213 0.0 -0.0013253575 -0.050596032 0.0 -0.0008434455400000001 -0.05031497 0.0 -0.00041015132000000006 -0.063795321 0.0 -0.006864944499999999 -0.062778957 0.0 -0.005704495600000001 -0.061689191 0.0 -0.0046409001 -0.060612429 0.0 -0.0036837065000000003 -0.059616283 0.0 -0.0028418226 -0.05874721 0.0 -0.0021199747 -0.058038677999999996 0.0 -0.0014993292999999999 -0.057513915 0.0 -0.0009537073199999998 -0.057191264000000006 0.0 -0.00046392041 -0.072379097 0.0 -0.007822025600000001 -0.071212523 0.0 -0.0065005352 -0.06996423 0.0 -0.0052890992 -0.068732612 0.0 -0.0041984711 -0.067592874 0.0 -0.0032403057 -0.06659878 0.0 -0.00241821 -0.065787159 0.0 -0.0017107694 -0.065185726 0.0 -0.0010896942999999999 -0.064814828 0.0 -0.00052868074 -0.081893206 0.0 -0.0089063905 -0.080557518 0.0 -0.0074276058 -0.07913027 0.0 -0.0060676485 -0.077723548 0.0 -0.0048365216 -0.076419815 0.0 -0.003752335 -0.07528341599999999 0.0 -0.0028115918 -0.074353516 0.0 -0.0019977109 -0.073662765 0.0 -0.00127843 -0.073236145 0.0 -0.00062175264 -0.09241449800000001 0.0 -0.010203722 -0.09088773300000001 0.0 -0.008582809 -0.089259036 0.0 -0.0070751263 -0.08765458300000001 0.0 -0.0056922804 -0.086166844 0.0 -0.0044565299 -0.084865913 0.0 -0.0033721346000000004 -0.083800815 0.0 -0.0024154901 -0.083007976 0.0 -0.0015579017000000002 -0.082516961 0.0 -0.00076163065 -0.10401189 0.0 -0.01184961 -0.10227134 0.0 -0.010112155 -0.10042163 0.0 -0.0084498674 -0.098598219 0.0 -0.0068919822 -0.096905246 0.0 -0.0054663946 -0.095419295 0.0 -0.0041843229 -0.094198406 0.0 -0.0030336678 -0.093289711 0.0 -0.0019735543 -0.09272597699999999 0.0 -0.00097131793 -0.11671587 0.0 -0.01403455 -0.11474831 0.0 -0.012196501 -0.11266323 0.0 -0.01036323 -0.11060647 0.0 -0.008582833199999999 -0.10869013 0.0 -0.0069103208 -0.10700282 0.0 -0.0053610182 -0.10561115 0.0 -0.0039255526 -0.10457011 0.0 -0.0025751386 -0.10392462 0.0 -0.0012774466 -0.130457 0.0 -0.01696278 -0.12826486 0.0 -0.015019345 -0.12594418 0.0 -0.012995108 -0.12364747 0.0 -0.010940606 -0.12150022 0.0 -0.0089340378 -0.11960032 0.0 -0.0070169014 -0.11802571 0.0 -0.0051900558 -0.11684235 0.0 -0.0034287742 -0.11610582 0.0 -0.0017057866000000001 -0.14495729 0.0 -0.020837908999999998 -0.1425599 0.0 -0.018754074 -0.14003257 0.0 -0.016486753 -0.13751645 0.0 -0.014095861000000001 -0.13514294 0.0 -0.011667166000000001 -0.13302787 0.0 -0.0092733642 -0.13126375 0.0 -0.006924314 -0.12993036 0.0 -0.0046049352 -0.1290962 0.0 -0.0022993684 -0.15961118 0.0 -0.025848807999999997 -0.15706545 0.0 -0.02350775 -0.1543818 0.0 -0.02087217 -0.15168394 0.0 -0.018051425 -0.14911668 0.0 -0.01510447 -0.1468076 0.0 -0.012121203 -0.14486322 0.0 -0.0091201607 -0.14338869 0.0 -0.0061118305 -0.14246446 0.0 -0.003069612 -0.1736102 0.0 -0.031796232 -0.17090499 0.0 -0.029173337 -0.16807704 0.0 -0.026193161 -0.16523656 0.0 -0.022898326 -0.16252033 0.0 -0.019354578 -0.16006099 0.0 -0.015671076000000003 -0.15797362 0.0 -0.011884344 -0.15638289 0.0 -0.0080226529 -0.15538383 0.0 -0.00405586 -0.1860799 0.0 -0.03842064 -0.18317543 0.0 -0.035548218 -0.18023053 0.0 -0.032209475 -0.17731638 0.0 -0.028425649 -0.17454536 0.0 -0.024329833999999998 -0.17200989 0.0 -0.019959658 -0.16982952 0.0 -0.015275316 -0.16814744 0.0 -0.010357701 -0.16709957 0.0 -0.0052562873 -0.19639327 0.0 -0.045563772 -0.19336127 0.0 -0.042333115 -0.19039832 0.0 -0.038600005 -0.18750717 0.0 -0.034358993 -0.18470681 0.0 -0.029587554 -0.18209951 0.0 -0.02437613 -0.17986432 0.0 -0.01870795 -0.17815676 0.0 -0.012742008999999999 -0.17711709 0.0 -0.0064707161 -0.20382971 0.0 -0.053832042999999996 -0.20078111 0.0 -0.049924042 -0.19784348 0.0 -0.045778545999999996 -0.19499949 0.0 -0.040914346000000004 -0.19229253 0.0 -0.035373475 -0.18976805 0.0 -0.029347118 -0.18756628 0.0 -0.022785852000000002 -0.18590648 0.0 -0.015638096 -0.18493015 0.0 -0.0079563214 -0.20653203 0.0 -0.066229887 -0.20356941 0.0 -0.061314043 -0.20082258 0.0 -0.056457630999999994 -0.19823387 0.0 -0.050922174 -0.1957453 0.0 -0.044604052000000005 -0.19346312 0.0 -0.037567653 -0.19147907 0.0 -0.029594097000000003 -0.18998793 0.0 -0.020642012 -0.18905456 0.0 -0.010629456 -0.20084243 0.0 -0.086108185 -0.19843309 0.0 -0.079548411 -0.19655079 0.0 -0.07292711 -0.1950745 0.0 -0.065597191 -0.19341934 0.0 -0.057434332000000005 -0.19156872 0.0 -0.048320435 -0.18982866 0.0 -0.037995812000000004 -0.18845433 0.0 -0.026394018999999998 -0.18765095 0.0 -0.013593633 -0.17677957 0.0 -0.11227263 -0.17468604 0.0 -0.10471793 -0.17257631 0.0 -0.09557414800000001 -0.17019549 0.0 -0.08448611199999999 -0.16746691 0.0 -0.072515041 -0.16468433 0.0 -0.06000584 -0.16213441 0.0 -0.046695095 -0.1601043 0.0 -0.032233682 -0.15878543 0.0 -0.016526513 -0.11535486 0.0 -0.11753047 -0.1143521 0.0 -0.11054452 -0.11291981 0.0 -0.10131799 -0.11120655 0.0 -0.08992641400000001 -0.10933528 0.0 -0.077626504 -0.10743982 0.0 -0.064612269 -0.10567851 0.0 -0.050532147 -0.10423183 0.0 -0.034999464 -0.10327593 0.0 -0.017978262 -0.065336235 0.0 -0.11789528 -0.06546498099999999 0.0 -0.11199997 -0.06518735 0.0 -0.10353893 -0.064606033 0.0 -0.092613421 -0.063810199 0.0 -0.080496006 -0.06289275 0.0 -0.067392282 -0.061963692 0.0 -0.052951358 -0.061155457 0.0 -0.036796015 -0.060602196 0.0 -0.018937385 -0.028190068999999998 0.0 -0.11677477 -0.028834232999999997 0.0 -0.11171579 -0.029230276 0.0 -0.10391507 -0.029415483 0.0 -0.093455821 -0.029419014 0.0 -0.081621051 -0.029274546000000002 0.0 -0.06862478 -0.029033216 0.0 -0.054110530999999996 -0.028770134 0.0 -0.037699919 -0.028568411000000002 0.0 -0.019433251000000002 0.0023185123999999997 0.0 -0.11515395 0.0014469044 0.0 -0.11049898 0.00064160692 0.0 -0.10308457 -6.7888504e-05 0.0 -0.092952862 -0.00065352552 0.0 -0.081387714 -0.0010954953999999999 0.0 -0.068599597 -0.0013924972 0.0 -0.05421441 -0.0015671773999999998 0.0 -0.037840534 -0.0016525817000000002 0.0 -0.019527901 0.031884216 0.0 -0.11340934 0.03073727 0.0 -0.10875537 0.029547231 0.0 -0.10144819 0.028395124 0.0 -0.09148429300000001 0.027342089 0.0 -0.080139078 0.026438354 0.0 -0.067607559 0.0257177 0.0 -0.053489417000000004 0.025196886 0.0 -0.037372243 0.024882564 0.0 -0.019299483 0.06302263599999999 0.0 -0.11138492 0.061360549 0.0 -0.10652292 0.059658561 0.0 -0.099151976 0.058027562000000005 0.0 -0.089261904 0.05653245 0.0 -0.078112267 0.055225212 0.0 -0.065876618 0.054149725 0.0 -0.052128725 0.053344435999999995 0.0 -0.036434405 0.052843735 0.0 -0.018820746 0.095085271 0.0 -0.10871136 0.092658281 0.0 -0.1036085 0.090291224 0.0 -0.096143961 0.08810733300000001 0.0 -0.08633244 0.08615145800000001 0.0 -0.075410567 0.084456116 0.0 -0.063531265 0.08305821599999999 0.0 -0.050250594 0.082003489 0.0 -0.035118252 0.081342593 0.0 -0.018141281000000002 0.12590598 0.0 -0.10504536 0.12258457 0.0 -0.09979175800000001 0.11947232 0.0 -0.092314281 0.11669321 0.0 -0.08266805099999999 0.1142615 0.0 -0.072058886 0.11218165 0.0 -0.060624529 0.11047614 0.0 -0.047915675 0.10919057 0.0 -0.033475202 0.10838435 0.0 -0.017290425 0.15325625 0.0 -0.10022184 0.14906946 0.0 -0.09496361800000001 0.14523117 0.0 -0.087607764 0.14186101 0.0 -0.078253798 0.13894708 0.0 -0.068070143 0.13647191 0.0 -0.057186548 0.13445011 0.0 -0.045160886 0.13292958 0.0 -0.031538006 0.13197717 0.0 -0.016287105 0.17324126 0.0 -0.094375975 0.1673899 0.0 -0.089203745 0.16219985 0.0 -0.082068942 0.15769954 0.0 -0.073127382 0.15383536 0.0 -0.06349365400000001 0.15057658 0.0 -0.053281318 0.14795567 0.0 -0.042054571 0.14602935 0.0 -0.029362218 0.14485347 0.0 -0.01516196 0.17864485 0.0 -0.08808849 0.17200796 0.0 -0.08287169 0.16620567 0.0 -0.075961508 0.16122304 0.0 -0.06751190900000001 0.1569877 0.0 -0.058505278 0.15346532 0.0 -0.04902742400000001 0.15067157 0.0 -0.038654227 0.14864798 0.0 -0.026969478999999998 0.14741656 0.0 -0.013918054 0.17912681 0.0 -0.081729114 0.17228602 0.0 -0.076489575 0.16632703 0.0 -0.069819592 0.16118881 0.0 -0.06185884 0.15681656 0.0 -0.053440224 0.15318771 0.0 -0.044644564000000005 0.15031669 0.0 -0.035110127000000005 0.14824571 0.0 -0.024455462 0.14699626 0.0 -0.012619841000000001 0.17810391 0.0 -0.075704575 0.17107819 0.0 -0.07056050700000001 0.16493402 0.0 -0.064097978 0.15965258 0.0 -0.056547586 0.15517364 0.0 -0.048649747 0.1514558 0.0 -0.040494081 0.14851597 0.0 -0.031742467999999996 0.14637852 0.0 -0.022039535 0.14507948 0.0 -0.01133721 0.17636684 0.0 -0.069942996 0.16907971 0.0 -0.065201879 0.16263635 0.0 -0.059130173 0.15719086 0.0 -0.05208135 0.15262932 0.0 -0.044638194000000006 0.14884856 0.0 -0.036973007 0.14580704 0.0 -0.028796062 0.14357139 0.0 -0.019881735 0.14220612 0.0 -0.01019242 0.17410953 0.0 -0.064704575 0.16661544 0.0 -0.060084995 0.1599237 0.0 -0.054467387 0.15426166 0.0 -0.04789456 0.14955789 0.0 -0.040846314 0.14566804 0.0 -0.033624429 0.14255606 0.0 -0.026067359 0.14025086 0.0 -0.017928349 0.13882062 0.0 -0.0091633499 0.17157136 0.0 -0.059638160999999995 0.1635828 0.0 -0.055235963 0.1566329 0.0 -0.050075583 0.15072976 0.0 -0.043983243 0.14582925 0.0 -0.037420243 0.14181775 0.0 -0.030628646000000002 0.13861807 0.0 -0.023585565 0.13624458 0.0 -0.016111832 0.13477091 0.0 -0.0082008326 0.16876477 0.0 -0.054339398 0.16019307 0.0 -0.050469257000000003 0.15285271 0.0 -0.045832422000000005 0.14661987 0.0 -0.040368665 0.1415491 0.0 -0.034215417000000005 0.13741809 0.0 -0.027866383999999998 0.13413687 0.0 -0.021275218999999998 0.13171077 0.0 -0.014429746 0.13020213 0.0 -0.0073032356 0.16575898 0.0 -0.048561629 0.15671961 0.0 -0.045643717 0.14881568 0.0 -0.041603293 0.14230849 0.0 -0.036890998 0.13692342 0.0 -0.031399008 0.13264383 0.0 -0.025432668999999998 0.12931199 0.0 -0.019274563 0.12685077 0.0 -0.012972718999999999 0.12533332 0.0 -0.0065386952 0.16305871 0.0 -0.042790472999999996 0.1532106 0.0 -0.040242724 0.14492886 0.0 -0.037308294 0.13792565 0.0 -0.03327658 0.13231532 0.0 -0.028588918999999997 0.12780099 0.0 -0.023204926 0.12434879 0.0 -0.017532475 0.12186398 0.0 -0.011714098999999999 0.12034159 0.0 -0.0058633745999999995 0.16086493 0.0 -0.037059627000000005 0.15016912 0.0 -0.034786105 0.14122221 0.0 -0.032454941 0.13386515 0.0 -0.029543299 0.12783548 0.0 -0.025578761000000002 0.12315098 0.0 -0.020995712000000003 0.1195472 0.0 -0.015866026000000002 0.11700105 0.0 -0.010623306 0.11544812 0.0 -0.0053189657999999996 0.15935934 0.0 -0.031686712 0.14781292 0.0 -0.029547445 0.13808841 0.0 -0.02745215 0.13017999 0.0 -0.025268067 0.12383553 0.0 -0.022426317 0.11880962 0.0 -0.01855362 0.11510138 0.0 -0.014204801999999999 0.11247404 0.0 -0.0095087076 0.11089507 0.0 -0.0047923368 0.15875985 0.0 -0.027361438 0.14630724 0.0 -0.024903094 0.13577639 0.0 -0.022771097999999997 0.1271967 0.0 -0.020828929 0.12035505 0.0 -0.018728456 0.11509119 0.0 -0.015969031 0.11111929 0.0 -0.012303373000000001 0.10840809 0.0 -0.0083195604 0.10681699 0.0 -0.0042203688 0.16003653 0.0 -0.025180249 0.14614159 0.0 -0.021731876 0.1344206 0.0 -0.018966235 0.12503673 0.0 -0.01679571 0.11766642 0.0 -0.014936558 0.11196742 0.0 -0.012885622 0.10777161 0.0 -0.010228486 0.10494763 0.0 -0.0070071531999999995 0.10325909 0.0 -0.003535812 0.16242358 0.0 -0.024602662999999997 0.14855337 0.0 -0.021219917 0.13487057 0.0 -0.017178373 0.12400433 0.0 -0.013983094 0.11583725 0.0 -0.011681828 0.10970628 0.0 -0.0099067511 0.10514901 0.0 -0.007981125300000001 0.10204159 0.0 -0.005562332 0.10030527 0.0 -0.0028615955 0.16332504 0.0 -0.02459598 0.15134601 0.0 -0.021649782000000003 0.1381418 0.0 -0.018155701 0.12561733 0.0 -0.014012647 0.11558151 0.0 -0.01028763 0.1084858 0.0 -0.007767071899999999 0.10343783 0.0 -0.006054455899999999 0.099996559 0.0 -0.0043867351 0.097976454 0.0 -0.0023184428 0.15999641 0.0 -0.023240773 0.15084951 0.0 -0.020970598 0.14052914 0.0 -0.018894412 0.12957628 0.0 -0.016128793 0.118859 0.0 -0.012496502 0.11000007 0.0 -0.0086920774 0.10346721 0.0 -0.0057508987 0.099187396 0.0 -0.0038557737 0.09678239400000001 0.0 -0.0021298672 0.14597005 0.0 -0.019034505 0.13838908 0.0 -0.017530486 0.12979066 0.0 -0.015777405 0.12150021 0.0 -0.014181063 0.11382475 0.0 -0.011855164 0.10728028 0.0 -0.0090733618 0.10207649 0.0 -0.0061366074 0.09883753199999999 0.0 -0.0032401748 0.12567338 0.0 -0.013805244 0.11913139 0.0 -0.012784755 0.1125236 0.0 -0.011195526 0.10708711 0.0 -0.009516307199999999 0.10298185 0.0 -0.0069501735 0.10092924 0.0 -0.0035689272999999996 0.1084425 0.0 -0.0095243948 0.1034732 0.0 -0.0078366445 0.099258654 0.0 -0.0058492012 0.096638091 0.0 -0.0032465213 -0.0013116901000000002 0.0 -1.1151768e-10 -0.0013125914000000002 0.0 4.2477118e-06 -0.0013150888000000001 0.0 9.4762254e-06 -0.0013186014000000001 0.0 1.6505966e-05 -0.0013220373000000002 0.0 2.6396316e-05 -0.0013238858 0.0 3.9613874999999995e-05 -0.0013218487 0.0 5.7189267e-05 -0.0013131260999999998 0.0 7.935634500000001e-05 -0.0018521466 0.0 1.1019296999999999e-10 -0.0018536919 0.0 6.1861947e-06 -0.0018580514999999998 0.0 1.3596957999999999e-05 -0.0018644035 0.0 2.3387198e-05 -0.0018712742 0.0 3.6766e-05 -0.0018764971 0.0 5.4719471999999993e-05 -0.0018769689000000002 0.0 7.8023673e-05 -0.0018684404 0.0 0.00010793424999999999 -0.0025408587 0.0 2.8788008e-10 -0.0025432735999999997 0.0 7.4644222e-06 -0.0025501549 0.0 1.6279555e-05 -0.0025603832 0.0 2.797569e-05 -0.0025720375 0.0 4.3635475e-05 -0.00258207 0.0 6.478103e-05 -0.0025864807 0.0 9.191173e-05 -0.0025794770999999998 0.0 0.00012638242 -0.0033279555 0.0 -1.7967538999999998e-10 -0.0033314534999999996 0.0 7.856281599999999e-06 -0.0033414725 0.0 1.7195905e-05 -0.0033566102000000004 0.0 2.9581124e-05 -0.0033743791 0.0 4.6404926e-05 -0.0033909778999999998 0.0 6.8930305e-05 -0.0034011567 0.0 9.8394026e-05 -0.0033976419 0.0 0.00013528136 -0.0041945972 0.0 1.8589455e-10 -0.0041993973 0.0 7.532643799999999e-06 -0.0042132232 0.0 1.6614362e-05 -0.0042343726 0.0 2.8828255e-05 -0.0042598164 0.0 4.5785058e-05 -0.0042850026 0.0 6.8544548e-05 -0.0043033836 0.0 9.8890501e-05 -0.0043061906 0.0 0.00013648071000000003 -0.0051467246 0.0 -1.4601660000000002e-11 -0.0051530777000000005 0.0 6.956519900000001e-06 -0.0051714792 0.0 1.5474934e-05 -0.0051999240999999995 0.0 2.7177985e-05 -0.0052348967 0.0 4.3569813000000006e-05 -0.0052710511 0.0 6.6127555e-05 -0.005300737 0.0 9.6035597e-05 -0.0053134048 0.0 0.00013385020000000001 -0.0062079029 0.0 -1.8535243e-10 -0.006216110699999999 0.0 6.847447400000001e-06 -0.0062399944 0.0 1.5272877e-05 -0.0062772613 0.0 2.6808229e-05 -0.006323926600000001 0.0 4.3035208e-05 -0.0063738972 0.0 6.5539098e-05 -0.0064184666000000005 0.0 9.5149393e-05 -0.0064453073 0.0 0.00013298748999999999 -0.0074087139 0.0 1.9405376000000002e-10 -0.007419132199999999 0.0 8.1498292e-06 -0.007449558 0.0 1.7870636e-05 -0.007497449399999999 0.0 3.0692772e-05 -0.007558351800000001 0.0 4.8212049e-05 -0.0076254751 0.0 7.1884395e-05 -0.0076889856999999995 0.0 0.0001025208 -0.0077349464000000005 0.0 0.00014105582000000001 -0.0087776529 0.0 4.2116122000000003e-10 -0.0087906905 0.0 1.1930133000000001e-05 -0.0088288989 0.0 2.5466989e-05 -0.0088894796 0.0 4.222108e-05 -0.008967516 0.0 6.3763095e-05 -0.0090555027 0.0 9.144016100000001e-05 -0.0091425069 0.0 0.00012594077 -0.0092129465 0.0 0.00016741842000000002 -0.010338992 0.0 3.0825376e-10 -0.010355121 0.0 1.9317273e-05 -0.010402507 0.0 4.0369450000000004e-05 -0.010478076999999999 0.0 6.4953871e-05 -0.010576463999999999 0.0 9.464781e-05 -0.010689378000000001 0.0 0.00013092533 -0.01080473 0.0 0.00017402598000000003 -0.010905161000000002 0.0 0.00022367875 -0.012118475 0.0 -1.2342906e-09 -0.012138205 0.0 3.1349038e-05 -0.012196298000000001 0.0 6.4764201e-05 -0.012289421000000002 0.0 0.00010219103000000001 -0.012411648 0.0 0.00014579052 -0.012553846 0.0 0.00019690421999999999 -0.012702649 0.0 0.00025559345 -0.01283876 0.0 0.00032134043 -0.014146203000000001 0.0 5.2725035e-10 -0.0141701 0.0 4.8821246e-05 -0.014240596000000001 0.0 0.00010022391 -0.014354012 0.0 0.00015688187 -0.014503861000000002 0.0 0.00022112341 -0.014680054 0.0 0.00029464362999999995 -0.014867581000000001 0.0 0.0003781649 -0.015045428000000001 0.0 0.00046882799000000006 -0.016456382 0.0 6.3904576e-10 -0.016485043 0.0 7.243350400000001e-05 -0.016569698 0.0 0.00014827661 -0.016706398 0.0 0.00023055673 -0.016887926 0.0 0.00032296174 -0.017103036999999998 0.0 0.00042804808 -0.017335206000000002 0.0 0.00054520852 -0.01756113 0.0 0.00067178527 -0.019086376000000002 0.0 -1.0397729e-09 -0.019120432 0.0 0.00010190005999999999 -0.019221144 0.0 0.00020820188000000002 -0.019384166 0.0 0.00032347585999999997 -0.019601621 0.0 0.00045236739000000003 -0.019861083 0.0 0.0005974161299999999 -0.020144368 0.0 0.00075787678 -0.020425379 0.0 0.00093391235 -0.022076359 0.0 -5.9710192e-10 -0.022116484 0.0 0.00013724263000000002 -0.022235261 0.0 0.0002805554 -0.022427823 0.0 0.00043610248 -0.022685637999999998 0.0 0.0006081913 -0.02299517 0.0 0.0008003256500000001 -0.023336479 0.0 0.0010161403 -0.023681514 0.0 0.0012567596 -0.025469474 0.0 -6.882302e-10 -0.025516275 0.0 0.00017824926 -0.025654905 0.0 0.00036372701 -0.025880231 0.0 0.0005641235 -0.026183169 0.0 0.0007853526600000001 -0.026549042999999998 0.0 0.0010348669 -0.026956357 0.0 0.0013169587 -0.027375617999999997 0.0 0.0016313785000000001 -0.029312525 0.0 -9.7257591e-10 -0.029366594 0.0 0.00022247703999999998 -0.029527182000000003 0.0 0.00045416125999999995 -0.029789142 0.0 0.00070424774 -0.03014244 0.0 0.00098291005 -0.030571239 0.0 0.0012980879 -0.031052569 0.0 0.0016547045 -0.031555749 0.0 0.0020515341 -0.03365599 0.0 2.1447071e-09 -0.033718381 0.0 0.00026812733 -0.033903672999999995 0.0 0.00054887874 -0.034206428 0.0 0.000853064 -0.034615714 0.0 0.0011951207 -0.035114624 0.0 0.0015827122 -0.035678346 0.0 0.0020223863000000003 -0.036274992 0.0 0.0025126466 -0.038553807999999995 0.0 2.3636118e-10 -0.03862552 0.0 0.00031442818 -0.038838722 0.0 0.0006452729 -0.039187111000000004 0.0 0.0010073005 -0.039658852 0.0 0.00141665 -0.04023499 0.0 0.0018801345999999999 -0.040889642999999996 0.0 0.0024091722 -0.041590214 0.0 0.0030049845 -0.044058904 0.0 2.8993405e-09 -0.044141296 0.0 0.00036151271 -0.044386178 0.0 0.00074292836 -0.044786066 0.0 0.0011645428999999998 -0.045326835999999995 0.0 0.0016402375 -0.045989029 0.0 0.0021842034 -0.046744939000000006 0.0 0.0028110452000000004 -0.047559320999999995 0.0 0.0035206689 -0.050220415 0.0 2.6779465e-09 -0.050314974000000005 0.0 0.00041014803 -0.05059604 0.0 0.0008434454800000001 -0.051054206 0.0 0.0013253629000000002 -0.051673044 0.0 0.0018700133 -0.05243228 0.0 0.0025002335 -0.053301584000000006 0.0 0.0032317259000000003 -0.054240245 0.0 0.004061954600000001 -0.057082765 0.0 2.1245323e-09 -0.057191264000000006 0.0 0.00046392527 -0.057513915 0.0 0.00095371087 -0.058038682 0.0 0.0014993363 -0.058747213 0.0 0.0021199847 -0.059616286 0.0 0.0028418337 -0.060612433 0.0 0.0036837165000000002 -0.061689187 0.0 0.004640895900000001 -0.06468942 0.0 -4.3230658e-10 -0.064814821 0.0 0.00052867638 -0.065185726 0.0 0.0010897 -0.065787159 0.0 0.0017107778 -0.066598795 0.0 0.0024182179 -0.067592889 0.0 0.0032403159000000004 -0.068732642 0.0 0.0041984781 -0.069964238 0.0 0.0052890955 -0.07309179 0.0 1.3276041e-09 -0.073236153 0.0 0.0006217467 -0.073662765 0.0 0.0012784322 -0.074353524 0.0 0.0019977153 -0.07528341599999999 0.0 0.0028115966999999998 -0.076419838 0.0 0.0037523415000000004 -0.077723555 0.0 0.004836523 -0.07913027 0.0 0.0060676448 -0.082350761 0.0 -4.3108561e-09 -0.082516968 0.0 0.00076163223 -0.083007969 0.0 0.0015579028 -0.08380083 0.0 0.0024154929000000003 -0.084865913 0.0 0.0033721374 -0.086166851 0.0 0.0044565313 -0.08765459800000001 0.0 0.005692285 -0.089259066 0.0 0.007075131899999999 -0.092534788 0.0 -3.8014294e-09 -0.09272597 0.0 0.0009713105400000001 -0.093289703 0.0 0.001973555 -0.094198398 0.0 0.0030336691999999998 -0.095419325 0.0 0.0041843248 -0.09690525400000001 0.0 0.0054663927 -0.098598205 0.0 0.006891985400000001 -0.10042165 0.0 0.0084498655 -0.10370539 0.0 2.289583e-10 -0.10392462 0.0 0.0012774445 -0.10457012 0.0 0.0025751418 -0.10561116 0.0 0.0039255521 -0.10700284 0.0 0.0053610173 -0.10869011 0.0 0.006910321800000001 -0.11060648 0.0 0.008582833199999999 -0.11266324 0.0 0.010363227 -0.11585547 0.0 1.4344983e-09 -0.11610583 0.0 0.0017057889999999999 -0.11684236 0.0 0.0034287716 -0.11802574 0.0 0.0051900558 -0.11960031 0.0 0.0070169028000000005 -0.12150022 0.0 0.0089340406 -0.12364748 0.0 0.010940601999999999 -0.12594418 0.0 0.012995105 -0.12881199 0.0 -2.3132267e-09 -0.12909621 0.0 0.0022993679 -0.12993039 0.0 0.004604938 -0.13126378 0.0 0.0069243154000000005 -0.13302787 0.0 0.0092733633 -0.13514297 0.0 0.011667166999999999 -0.13751648 0.0 0.014095863 -0.14003259 0.0 0.016486757 -0.14214869 0.0 5.722478599999999e-10 -0.14246444 0.0 0.0030696145 -0.14338869 0.0 0.0061118305 -0.14486322 0.0 0.0091201626 -0.14680758 0.0 0.012121202 -0.14911668 0.0 0.015104468999999999 -0.15168397 0.0 0.018051425 -0.15438181 0.0 0.020872168 -0.15504041 0.0 1.9826611e-09 -0.1553838 0.0 0.0040558656 -0.15638284 0.0 0.0080226529 -0.15797363 0.0 0.011884343 -0.160061 0.0 0.015671074 -0.16252033 0.0 0.019354576000000002 -0.16523656 0.0 0.022898328 -0.16807704 0.0 0.026193166 -0.16674013 0.0 9.5530295e-10 -0.16709955 0.0 0.005256290500000001 -0.16814741 0.0 0.010357702 -0.16982949 0.0 0.015275314 -0.17200993 0.0 0.019959657 -0.17454536 0.0 0.024329832000000003 -0.17731637 0.0 0.028425649 -0.18023051 0.0 0.032209475 -0.17676452 0.0 1.2538906e-08 -0.17711711 0.0 0.0064707138 -0.17815676 0.0 0.012742014 -0.17986432 0.0 0.018707952 -0.18209951 0.0 0.024376132000000002 -0.18470682 0.0 0.029587552000000003 -0.18750717 0.0 0.034358989 -0.19039829 0.0 0.03860002 -0.1846071 0.0 -1.8516646e-09 -0.18493013 0.0 0.0079563214 -0.18590653 0.0 0.0156381 -0.18756627 0.0 0.022785862999999996 -0.18976806 0.0 0.029347114 -0.19229254 0.0 0.035373479 -0.19499947 0.0 0.040914353 -0.19784348 0.0 0.04577853900000001 -0.18872799 0.0 3.5227214e-09 -0.18905456 0.0 0.010629468999999999 -0.18998794 0.0 0.020642027 -0.19147904 0.0 0.029594107 -0.19346312 0.0 0.037567664 -0.19574532 0.0 0.044604044 -0.19823386 0.0 0.050922155 -0.20082258 0.0 0.056457639000000004 -0.18738319 0.0 -1.320974e-09 -0.18765095 0.0 0.013593631 -0.18845434 0.0 0.026394006 -0.18982868 0.0 0.037995826 -0.19156873 0.0 0.04832043900000001 -0.19341937 0.0 0.057434309 -0.1950745 0.0 0.06559720599999999 -0.19655082 0.0 0.07292711 -0.15832426 0.0 -4.1233528e-09 -0.15878537 0.0 0.016526508999999998 -0.16010433 0.0 0.032233696 -0.1621345 0.0 0.04669505400000001 -0.16468431 0.0 0.06000583599999999 -0.16746688 0.0 0.072515041 -0.17019549 0.0 0.084486119 -0.17257634 0.0 0.095574096 -0.10294122 0.0 1.0698831e-08 -0.10327592 0.0 0.017978225 -0.10423177 0.0 0.034999479 -0.10567846 0.0 0.05053214 -0.10743985 0.0 0.064612262 -0.10933521 0.0 0.07762645900000001 -0.11120655 0.0 0.08992644400000001 -0.11291984 0.0 0.10131799 -0.060405266 0.0 3.4529165e-08 -0.060602237 0.0 0.018937442 -0.061155465 0.0 0.036796015 -0.061963685 0.0 0.052951350999999994 -0.062892683 0.0 0.06739226 -0.063810214 0.0 0.080495998 -0.064606048 0.0 0.092613384 -0.065187357 0.0 0.10353892 -0.028492985 0.0 -6.7749761e-09 -0.028568415 0.0 0.019433243 -0.028770137999999997 0.0 0.037699908 -0.029033229 0.0 0.054110505 -0.029274518 0.0 0.06862475700000001 -0.029419014 0.0 0.08162099099999999 -0.029415464 0.0 0.093455836 -0.029230354 0.0 0.10391504 -0.0016774201 0.0 -3.6285502999999995e-08 -0.0016525267 0.0 0.019527907 -0.0015671342 0.0 0.037840527 -0.0013925529000000001 0.0 0.054214392 -0.001095459 0.0 0.068599597 -0.00065356173 0.0 0.081387691 -6.7845642e-05 0.0 0.09295284 0.00064155651 0.0 0.10308456 0.024777567 0.0 6.2026762e-09 0.02488257 0.0 0.019299429 0.025196882 0.0 0.037372235 0.025717696 0.0 0.053489420999999995 0.026438376 0.0 0.0676075 0.027342132999999998 0.0 0.080139078 0.028395113 0.0 0.091484234 0.029547276 0.0 0.10144818 0.052673575 0.0 3.443991000000001e-08 0.052843727 0.0 0.018820735 0.053344402 0.0 0.036434401 0.054149695 0.0 0.05212871400000001 0.055225167 0.0 0.06587660299999999 0.056532405 0.0 0.078112245 0.058027651 0.0 0.089261867 0.059658561 0.0 0.09915205099999999 0.081116818 0.0 2.560475e-08 0.08134256299999999 0.0 0.018141259 0.082003489 0.0 0.035118256 0.083058245 0.0 0.05025058599999999 0.084456176 0.0 0.06353125 0.086151473 0.0 0.075410545 0.088107325 0.0 0.086332411 0.090291262 0.0 0.096143961 0.10810872 0.0 -2.6053685e-08 0.10838439 0.0 0.017290406 0.10919058 0.0 0.033475175 0.1104762 0.0 0.047915664000000004 0.11218167 0.0 0.060624520999999994 0.11426156 0.0 0.072058901 0.11669328 0.0 0.082668029 0.1194724 0.0 0.092314295 0.13165186 0.0 -1.9090283e-08 0.13197714 0.0 0.016287126000000002 0.13292955 0.0 0.031538039 0.13445012 0.0 0.045160908 0.13647191 0.0 0.057186533 0.13894704 0.0 0.068070151 0.14186099 0.0 0.078253798 0.1452312 0.0 0.087607771 0.14445816 0.0 -6.0723697e-09 0.1448535 0.0 0.015161975 0.14602932 0.0 0.029362193999999998 0.14795563 0.0 0.042054579 0.15057658 0.0 0.053281296 0.15383539 0.0 0.063493647 0.15769956 0.0 0.073127426 0.16219983 0.0 0.082068987 0.14700192 0.0 3.0749149e-08 0.14741659 0.0 0.013918073000000001 0.14864798 0.0 0.026969491 0.1506716 0.0 0.038654231000000004 0.15346533 0.0 0.04902745 0.15698767 0.0 0.058505274 0.16122301 0.0 0.067511871 0.16620564 0.0 0.07596153 0.14657044 0.0 1.1644471000000001e-08 0.1469963 0.0 0.012619873 0.14824568 0.0 0.024455475 0.1503167 0.0 0.035110112 0.15318772 0.0 0.044644564000000005 0.15681656 0.0 0.053440254000000006 0.16118878 0.0 0.061858829000000004 0.16632703 0.0 0.069819607 0.14464304 0.0 -7.042837e-09 0.14507945 0.0 0.011337182 0.14637852 0.0 0.022039549 0.14851594 0.0 0.031742467999999996 0.1514558 0.0 0.040494099 0.15517364 0.0 0.048649754 0.15965259 0.0 0.056547593 0.16493399 0.0 0.064097986 0.14174522 0.0 5.4106932e-09 0.14220612 0.0 0.010192428 0.14357138 0.0 0.01988174 0.14580706 0.0 0.028796069 0.14884853 0.0 0.036973014 0.15262932 0.0 0.044638198 0.15719087 0.0 0.052081347 0.16263637 0.0 0.059130181 0.13833466 0.0 5.7615424e-09 0.13882059 0.0 0.009163344300000001 0.14025086 0.0 0.01792834 0.14255603 0.0 0.026067365 0.14566806 0.0 0.033624443999999996 0.14955789 0.0 0.040846311 0.15426169 0.0 0.04789456 0.15992372 0.0 0.05446739900000001 0.13426974 0.0 1.8248726e-10 0.13477096 0.0 0.008200842 0.13624455 0.0 0.016111819 0.13861805 0.0 0.023585565 0.14181779 0.0 0.030628651 0.14582923 0.0 0.037420239 0.15072976 0.0 0.043983243 0.15663293 0.0 0.050075568 0.12968965 0.0 1.1166933000000002e-08 0.13020213 0.0 0.0073032328 0.13171074 0.0 0.014429743 0.13413686 0.0 0.021275222000000003 0.13741808 0.0 0.02786638 0.14154914 0.0 0.034215424 0.14661987 0.0 0.040368676 0.1528527 0.0 0.045832429 0.1248178 0.0 5.9551972e-09 0.12533331 0.0 0.0065386929 0.12685078 0.0 0.012972733 0.12931199 0.0 0.019274559 0.13264385 0.0 0.02543267 0.13692342 0.0 0.031399015 0.1423085 0.0 0.036890995 0.14881571 0.0 0.04160329 0.11983014 0.0 -2.7538685e-09 0.12034158 0.0 0.0058633819999999994 0.12186398 0.0 0.011714098000000001 0.12434877 0.0 0.017532477 0.12780099 0.0 0.023204923 0.13231534 0.0 0.028588917000000002 0.13792564 0.0 0.033276584 0.14492886 0.0 0.037308298 0.11493566 0.0 -7.3848301e-09 0.11544812 0.0 0.0053189746 0.11700103 0.0 0.010623311000000002 0.11954719 0.0 0.01586603 0.12315098 0.0 0.020995708 0.1278355 0.0 0.025578761000000002 0.13386515 0.0 0.029543299 0.14122221 0.0 0.032454949 0.11035617 0.0 3.6715628e-09 0.11089506 0.0 0.0047923331 0.11247404 0.0 0.0095087187 0.1151014 0.0 0.014204801000000001 0.11880961 0.0 0.01855362 0.12383556 0.0 0.022426313 0.13017999 0.0 0.025268069 0.13808841 0.0 0.027452152 0.10625273 0.0 5.5800324e-09 0.10681699 0.0 0.0042203721000000005 0.10840808 0.0 0.008319566 0.11111928 0.0 0.012303372 0.11509119 0.0 0.015969027 0.12035506 0.0 0.018728456 0.12719673 0.0 0.020828921 0.13577642 0.0 0.022771094 0.10271551 0.0 6.0880334e-10 0.10325909 0.0 0.0035358246 0.10494763 0.0 0.007007156 0.10777164 0.0 0.010228488 0.11196744 0.0 0.012885621000000002 0.11766644 0.0 0.014936558 0.12503673 0.0 0.016795712 0.13442062 0.0 0.018966237 0.099722072 0.0 7.766138e-09 0.10030527 0.0 0.0028616043 0.1020416 0.0 0.005562339 0.10514901 0.0 0.007981125300000001 0.10970628 0.0 0.0099067511 0.11583726 0.0 0.011681828 0.12400433 0.0 0.013983096 0.13487057 0.0 0.017178381 0.09730784599999999 0.0 4.5460005e-09 0.097976439 0.0 0.0023184533 0.099996567 0.0 0.0043867431 0.10343786 0.0 0.0060544545 0.10848581 0.0 0.007767072900000001 0.11558151 0.0 0.010287624 0.12561736 0.0 0.014012641999999999 0.13814178 0.0 0.018155696000000002 0.09601704800000001 0.0 8.1602094e-09 0.09678239400000001 0.0 0.0021298816 0.099187396 0.0 0.0038557847 0.10346717 0.0 0.0057508731000000006 0.11000007 0.0 0.0086920736 0.11885901 0.0 0.012496493999999999 0.12957631 0.0 0.016128791 0.14052914 0.0 0.018894412 0.09782647300000001 0.0 6.6791199e-09 0.098837525 0.0 0.0032401886 0.10207648 0.0 0.006136613000000001 0.10728027 0.0 0.0090733664 0.11382473 0.0 0.011855148000000001 0.12150021 0.0 0.014181048 0.12979066 0.0 0.015777398 0.13838908 0.0 0.017530473 0.10042287 0.0 8.4027985e-09 0.10092924 0.0 0.0035689438 0.10298184 0.0 0.0069501838 0.10708709 0.0 0.0095163016 0.11252359 0.0 0.011195515 0.11913137 0.0 0.012784745 0.12567337 0.0 0.013805233 0.09585869300000001 0.0 6.6951857e-09 0.096638061 0.0 0.0032465239 0.099258654 0.0 0.005849211 0.10347318 0.0 0.0078366436 0.10844249 0.0 0.0095243873 -0.0012941498 0.0 0.00010612613999999999 -0.001260396 0.0 0.00013850431 -0.0012079341 0.0 0.00017355193 -0.0011313346 0.0 0.00021048894 -0.0010272051 0.0 0.00024427849 -0.0008931704800000001 0.0 0.00027076562000000003 -0.00073425379 0.0 0.00028142495999999997 -0.001846196 0.0 0.00014324553 -0.0018030544 0.0 0.00018542337 -0.0017318091 0.0 0.00023199685 -0.0016244346 0.0 0.00027852188 -0.0014734473 0.0 0.00031766525 -0.0012723713 0.0 0.00034368178 -0.0010230073 0.0 0.0003478117 -0.00073071336 0.0 0.00037225097 -0.002554086 0.0 0.00016768101999999998 -0.0025009189000000003 0.0 0.00021543966000000001 -0.002408758 0.0 0.00026741857000000006 -0.0022644233 0.0 0.00031915691 -0.0020572499 0.0 0.0003601567 -0.0017766582999999999 0.0 0.00038944866 -0.0014294717 0.0 0.00039937126 -0.0010237828999999999 0.0 0.00041516701 -0.0033709214 0.0 0.0001801912 -0.0033093251 0.0 0.00023110917999999997 -0.0031968462 0.0 0.00028720757 -0.0030152837 0.0 0.00034271445 -0.0027489759999999998 0.0 0.00038696636 -0.0023847758 0.0 0.00041831058 -0.0019297019000000001 0.0 0.00042903889000000004 -0.0013886982000000001 0.0 0.00045014513 -0.0042813810999999995 0.0 0.00018310279 -0.0042146551 0.0 0.00023587402999999997 -0.0040854778999999996 0.0 0.00029412628 -0.0038696670000000002 0.0 0.00035251331 -0.0035452913 0.0 0.00039958119 -0.0030946373 0.0 0.00043357859000000003 -0.0025214243 0.0 0.00044848677 -0.0018256654 0.0 0.00048680379 -0.0052949274 0.0 0.00018029363000000002 -0.005227462899999999 0.0 0.00023397581000000002 -0.0050864988 0.0 0.00029221637 -0.0048406501 0.0 0.00035197911 -0.0044610719 0.0 0.00040013209 -0.0039221696 0.0 0.00043821725 -0.0032220006 0.0 0.00046303324 -0.0023505697 0.0 0.00053259265 -0.0064381524 0.0 0.00017857063999999998 -0.0063753864 0.0 0.00023178929 -0.0062279799 0.0 0.00028803066 -0.0059565953 0.0 0.00034718837999999996 -0.005525386899999999 0.0 0.00039410142999999996 -0.0048958636 0.0 0.00043960407 -0.0040603406 0.0 0.00048214197 -0.0029905171000000003 0.0 0.0005979664299999999 -0.0077447168999999995 0.0 0.00018615539 -0.007692825 0.0 0.00023837519 -0.0075448508999999995 0.0 0.00029209037999999995 -0.0072528515 0.0 0.00034977667 -0.0067721042 0.0 0.00039494925000000005 -0.0060488805 0.0 0.00045300280999999995 -0.0050721555 0.0 0.00051972998 -0.0037831034999999996 0.0 0.00069688435 -0.0092456667 0.0 0.00021427081 -0.0092115263 0.0 0.00026687921 -0.0090695405 0.0 0.00032092998 -0.0087624248 0.0 0.00037788201 -0.0082334513 0.0 0.00042380404 -0.0074189040000000005 0.0 0.00049039844 -0.0062960992 0.0 0.0005834543299999999 -0.0047865841 0.0 0.00081583677 -0.010967033999999999 0.0 0.00027757819 -0.010958003999999999 0.0 0.00033523352 -0.010830495 0.0 0.00039289275000000003 -0.010517597 0.0 0.0004479101 -0.009940517099999999 0.0 0.00049846026 -0.0090390788 0.0 0.00056090596 -0.007780286500000001 0.0 0.00066015415 -0.0060988441000000004 0.0 0.00088171609 -0.012936207 0.0 0.00039028982 -0.012959522 0.0 0.00046128471 -0.012856718999999999 0.0 0.0005260859 -0.012544933999999999 0.0 0.00058558042 -0.011936259 0.0 0.00062149682 -0.010960437 0.0 0.0006617245399999999 -0.0096002277 0.0 0.00073597668 -0.0078148777 0.0 0.00088324241 -0.015185111999999999 0.0 0.0005627596400000001 -0.015247645 0.0 0.00065914087 -0.015179371 0.0 0.0007379178999999999 -0.014886065 0.0 0.0008025696700000001 -0.014266635 0.0 0.0008326046499999999 -0.013230005 0.0 0.000883853 -0.011789783 0.0 0.001000113 -0.0098016812 0.0 0.0013286467000000002 -0.017749805 0.0 0.0008040342900000001 -0.017860743999999998 0.0 0.0009362562599999999 -0.017836226 0.0 0.0010572489 -0.017581833999999998 0.0 0.0011649671 -0.016984733000000002 0.0 0.0012702453 -0.015920097 0.0 0.0015221169 -0.014428082 0.0 0.0020491916 -0.012304785 0.0 0.0030678029 -0.020672186999999998 0.0 0.0011177794 -0.020841541 0.0 0.0013107315 -0.020874692 0.0 0.0015159079 -0.020684848 0.0 0.0017333989000000002 -0.020159569 0.0 0.0020016592000000003 -0.019170005 0.0 0.0025288332 -0.017703973 0.0 0.0034894631 -0.015642835 0.0 0.0047778101 -0.023997081 0.0 0.0015085103 -0.024236495 0.0 0.0017873334 -0.024343206000000003 0.0 0.0021039771 -0.024235444 0.0 0.0024671522 -0.02381549 0.0 0.0029354838 -0.022954641 0.0 0.0036765407 -0.02161118 0.0 0.0048083653999999995 -0.019717441999999998 0.0 0.0060412543999999995 -0.027770806000000002 0.0 0.0019704653 -0.028092972999999997 0.0 0.0023525148000000003 -0.028284905 0.0 0.0027853890999999997 -0.028271109 0.0 0.0032991099 -0.027947222999999997 0.0 0.0039410475 -0.027204966 0.0 0.0048036417 -0.025990479 0.0 0.005945174 -0.02425818 0.0 0.0071255621 -0.032041661 0.0 0.0024891365 -0.032459389 0.0 0.0029825984999999997 -0.032744043 0.0 0.0035421306 -0.032816846000000004 0.0 0.0041829292 -0.032565009 0.0 0.0049472768 -0.031891786 0.0 0.0058732112 -0.030741422999999997 0.0 0.0070125349 -0.029090877999999997 0.0 0.0081847636 -0.036862552 0.0 0.003058257 -0.037385516 0.0 0.0036687347999999997 -0.037769597 0.0 0.004350221699999999 -0.037921216 0.0 0.005102047199999999 -0.037716623 0.0 0.005960535699999999 -0.037060004 0.0 0.0069256127 -0.035879817 0.0 0.0080972202 -0.034178473 0.0 0.009297974399999999 -0.042289089 0.0 0.0036675403999999997 -0.042924475 0.0 0.0043995632000000005 -0.043411600999999994 0.0 0.0052033132 -0.043641791 0.0 0.0060656015 -0.043477815 0.0 0.007001212299999999 -0.042798337 0.0 0.0080120368 -0.041525763 0.0 0.0092348382 -0.039654665 0.0 0.010505792 -0.048377842000000004 0.0 0.0043072635 -0.049132455 0.0 0.005170407199999999 -0.049725900999999996 0.0 0.0061044842 -0.05003475 0.0 0.0070834663 -0.049908299 0.0 0.0081028137 -0.049193684 0.0 0.009170328299999999 -0.047803439 0.0 0.010460931 -0.045715515 0.0 0.011825378000000001 -0.05518813400000001 0.0 0.0049826526 -0.056068789 0.0 0.0059881527 -0.056772511 0.0 0.007065413100000001 -0.05715964 0.0 0.0081748292 -0.05706384 0.0 0.0092964023 -0.05631011 0.0 0.010435671 -0.05479359599999999 0.0 0.011803593999999999 -0.052470135999999994 0.0 0.013287857 -0.062778965 0.0 0.0057044863000000005 -0.063795321 0.0 0.006864938 -0.064615659 0.0 0.0080996538 -0.065081872 0.0 0.009357427199999999 -0.06501215 0.0 0.010605488 -0.064213529 0.0 0.011843033000000001 -0.062564023 0.0 0.013297973999999999 -0.05999301 0.0 0.014905634 -0.07121253 0.0 0.006500528199999999 -0.072379105 0.0 0.007822019 -0.073325969 0.0 0.0092233531 -0.073875763 0.0 0.01064435 -0.07382999400000001 0.0 0.012043728 -0.072981127 0.0 0.013421816000000001 -0.07119297200000001 0.0 0.014984905 -0.068364538 0.0 0.016713148 -0.08055751 0.0 0.0074275965000000005 -0.081893235 0.0 0.0089063868 -0.082981981 0.0 0.01046499 -0.08362641900000001 0.0 0.012051461999999999 -0.083608292 0.0 0.013618183 -0.082706273 0.0 0.015190343 -0.080779225 0.0 0.016915727 -0.07768684599999999 0.0 0.018766643 -0.09088774 0.0 0.0085828025 -0.092414506 0.0 0.01020372 -0.093666889 0.0 0.01188968 -0.094424538 0.0 0.013613906 -0.094450369 0.0 0.01533765 -0.09350428699999999 0.0 0.017158657 -0.091453172 0.0 0.019148929 -0.088112451 0.0 0.021138603 -0.10227138 0.0 0.010112156 -0.10401189 0.0 0.011849607 -0.10545219 0.0 0.013615185 -0.10635036 0.0 0.015414448999999998 -0.10645737 0.0 0.01724162 -0.10550456 0.0 0.019345026 -0.10338228 0.0 0.021749545 -0.09987048800000001 0.0 0.023920981 -0.11474831 0.0 0.012196499 -0.11671586 0.0 0.014034554 -0.11836671 0.0 0.015825704 -0.11944265 0.0 0.017622311 -0.11969072 0.0 0.019470785 -0.11881622 0.0 0.021828523 -0.11674581 0.0 0.02480658 -0.11326484 0.0 0.027233967999999997 -0.12826486 0.0 0.015019346999999999 -0.130457 0.0 0.016962785 -0.13233061 0.0 0.01877993 -0.13362704 0.0 0.020517381 -0.1340827 0.0 0.022258515 -0.13343698 0.0 0.024764866 -0.13163471 0.0 0.028444942 -0.12857105 0.0 0.031233866000000002 -0.1425599 0.0 0.018754071 -0.1449573 0.0 0.020837905 -0.14704977 0.0 0.022723464 -0.14856866 0.0 0.024431314 -0.14930843 0.0 0.025926735 -0.14908713 0.0 0.028459201 -0.14785668 0.0 0.032904711 -0.14575246 0.0 0.036104724 -0.15706545 0.0 0.02350775 -0.15961118 0.0 0.025848811 -0.16187979 0.0 0.027845908 -0.16365302 0.0 0.029472165 -0.16472462 0.0 0.030878816 -0.16501623 0.0 0.033468392 -0.16466908 0.0 0.038579278 -0.16410138 0.0 0.042141202999999995 -0.17090498 0.0 0.029173341000000002 -0.1736102 0.0 0.031796232 -0.17602476 0.0 0.033983972 -0.17802775 0.0 0.035780337 -0.17942452 0.0 0.0372748 -0.1800569 0.0 0.040586777000000004 -0.18081141 0.0 0.046104415999999995 -0.18205826 0.0 0.049832318 -0.1831754 0.0 0.035548225 -0.18607992 0.0 0.038420644 -0.18875852 0.0 0.040990762 -0.19093326 0.0 0.043323804 -0.19277932 0.0 0.045490708 -0.19401492 0.0 0.04963685599999999 -0.19492428 0.0 0.056440360999999994 -0.19776899 0.0 0.060118224000000005 -0.19336127 0.0 0.042333119 -0.19639328 0.0 0.04556377599999999 -0.19940236 0.0 0.048707865 -0.20197842 0.0 0.052017599000000005 -0.20398092 0.0 0.056435455 -0.20536427 0.0 0.062543325 -0.2062491 0.0 0.069863565 -0.20917803 0.0 0.073421821 -0.20078111 0.0 0.049924052999999996 -0.20382972 0.0 0.053832062 -0.20680335 0.0 0.058171578 -0.20925723 0.0 0.064072102 -0.21083136 0.0 0.072048828 -0.21230127 0.0 0.078748524 -0.21294296 0.0 0.085522242 -0.21503711 0.0 0.089060254 -0.20356941 0.0 0.061314084000000005 -0.20653205 0.0 0.066229887 -0.20930226 0.0 0.07240299900000001 -0.21116664 0.0 0.081147015 -0.21210837 0.0 0.09130253599999999 -0.21397372 0.0 0.09473840900000001 -0.21406277 0.0 0.10027752 -0.21332097 0.0 0.10471559 -0.19843312 0.0 0.07954841900000001 -0.20084247 0.0 0.086108185 -0.20290934 0.0 0.09406963 -0.20387541 0.0 0.10401956 -0.20448963 0.0 0.11117934 -0.2066423 0.0 0.10841984 -0.20174511 0.0 0.11161955 -0.18398006 0.0 0.11605016 -0.17468607 0.0 0.10471791 -0.17677963 0.0 0.11227261 -0.17811374 0.0 0.12067537 -0.1775775 0.0 0.12615867 -0.17287096 0.0 0.12583698 -0.16222523 0.0 0.11877468 -0.14516553 0.0 0.12160386 -0.12475399 0.0 0.12498195 -0.11435214 0.0 0.11054451 -0.11535491 0.0 0.11753049 -0.11552064 0.0 0.12451404 -0.11357173 0.0 0.12831518 -0.10821003 0.0 0.12708271 -0.09938274300000001 0.0 0.12199499 -0.0878397 0.0 0.12989768 -0.07463263 0.0 0.1329674 -0.06546498099999999 0.0 0.11199991 -0.065336317 0.0 0.11789531 -0.064587958 0.0 0.12353925 -0.062569126 0.0 0.12653461 -0.058781531 0.0 0.12573496 -0.053369001 0.0 0.12319171 -0.047017070999999994 0.0 0.13701339 -0.039720452999999996 0.0 0.13897343 -0.028834241 0.0 0.11171573 -0.028190091 0.0 0.1167748 -0.027228323999999998 0.0 0.12170464 -0.025729157000000002 0.0 0.1248824 -0.023686679 0.0 0.12482136 -0.02137229 0.0 0.12423839 -0.019142351999999998 0.0 0.1420006 -0.016535899 0.0 0.14298831 0.0014469745000000001 0.0 0.11049897 0.0023185962 0.0 0.11515392 0.003200836 0.0 0.1199775 0.0039832457 0.0 0.12418763 0.0043666107 0.0 0.12500115 0.004022629000000001 0.0 0.12566666 0.0030332548 0.0 0.14479986 0.0018324573000000001 0.0 0.14510897 0.030737281 0.0 0.10875536 0.03188429 0.0 0.11340934 0.032807451 0.0 0.11850176 0.033073504 0.0 0.12428501 0.032063056 0.0 0.12607008 0.029534722000000003 0.0 0.12688085 0.025979174 0.0 0.14540304 0.021382103 0.0 0.14547308 0.061360609 0.0 0.1065229 0.063022688 0.0 0.1113849 0.064333282 0.0 0.11686041 0.06451939 0.0 0.1237066 0.06245281900000001 0.0 0.12616093 0.058182385 0.0 0.12652028 0.052354258 0.0 0.1437753 0.044543057999999996 0.0 0.14393698 0.09265837099999999 0.0 0.10360853 0.095085345 0.0 0.10871137 0.09712743 0.0 0.11448964 0.097668305 0.0 0.12182728 0.0948755 0.0 0.12454534 0.08917433 0.0 0.12449942 0.081267767 0.0 0.14044702 0.07028630400000001 0.0 0.1408751 0.12258452 0.0 0.09979177300000001 0.12590599 0.0 0.10504536 0.12886553 0.0 0.1109568 0.1299656 0.0 0.11835818 0.12669802 0.0 0.12115915 0.11974309 0.0 0.12101985 0.11003264 0.0 0.13584174 0.096068181 0.0 0.13658477 0.14906953 0.0 0.09496361 0.15325628 0.0 0.10022181 0.15711597 0.0 0.10607617 0.15851074 0.0 0.11291263 0.154846 0.0 0.11610361 0.14700881 0.0 0.1163149 0.13598315 0.0 0.13037792 0.11944629 0.0 0.13131052 0.16738993 0.0 0.089203715 0.17324132 0.0 0.09437602 0.17896371 0.0 0.09998193400000001 0.18111743 0.0 0.10564925 0.17712678 0.0 0.10957338 0.16914785 0.0 0.11075091 0.15688747 0.0 0.12410066 0.13862705 0.0 0.12529154 0.17200793 0.0 0.08287169 0.17864487 0.0 0.088088505 0.18593517 0.0 0.093513131 0.19248186 0.0 0.09839952 0.19264464 0.0 0.1016247 0.18523313 0.0 0.10430012 0.17185892 0.0 0.11662121 0.15283105 0.0 0.11869743 0.17228605 0.0 0.076489605 0.17912686 0.0 0.081729136 0.18667175 0.0 0.086890273 0.19426164 0.0 0.09206948400000001 0.19951355 0.0 0.094402283 0.1960105 0.0 0.09692125 0.18239129 0.0 0.10846158 0.16338116 0.0 0.11153007 0.17107818 0.0 0.070560522 0.17810394 0.0 0.075704597 0.1858896 0.0 0.080412149 0.19397119 0.0 0.085593686 0.20036635 0.0 0.087693147 0.20221794 0.0 0.089257523 0.1909748 0.0 0.1000654 0.172839 0.0 0.10384833 0.16907971 0.0 0.065201879 0.17636687 0.0 0.069943003 0.18433541 0.0 0.074429534 0.19273411 0.0 0.07889755799999999 0.20010823 0.0 0.080962285 0.20440815 0.0 0.081517152 0.19863813 0.0 0.091568112 0.18313172 0.0 0.09597864699999999 0.16661549 0.0 0.060084995 0.17410956 0.0 0.064704575 0.1825086 0.0 0.068962142 0.19131429 0.0 0.072391845 0.19951493 0.0 0.074117087 0.20539752 0.0 0.07407818 0.20584422 0.0 0.082650162 0.19573008 0.0 0.08805891099999999 0.16358282 0.0 0.055235970999999995 0.17157133 0.0 0.059638157000000004 0.18039908 0.0 0.06316197700000001 0.18990776 0.0 0.066049621 0.19898927 0.0 0.067372404 0.20656878 0.0 0.06725198 0.2136725 0.0 0.073943898 0.21316443 0.0 0.079426005 0.16019306 0.0 0.050469257000000003 0.16876478 0.0 0.054339398 0.17821735 0.0 0.057189167 0.18865423 0.0 0.059710875 0.19862328 0.0 0.061003216 0.20866945 0.0 0.061148889000000005 0.22018121 0.0 0.065849043 0.22909616 0.0 0.068978608 0.1567196 0.0 0.045643721 0.165759 0.0 0.048561625 0.17616956 0.0 0.051142164000000004 0.18751656 0.0 0.053636894000000004 0.19824955 0.0 0.054540094000000004 0.210135 0.0 0.055096604 0.2237882 0.0 0.058942385 0.23509213 0.0 0.060777958 0.1532106 0.0 0.04024272 0.16305873 0.0 0.042790475999999994 0.17441197 0.0 0.045212489 0.18649112 0.0 0.047246881 0.19784164 0.0 0.04774956 0.21028663 0.0 0.04881829 0.22486299 0.0 0.052646610999999996 0.15016913 0.0 0.034786098 0.16086492 0.0 0.037059631 0.17301835 0.0 0.039216805 0.1856111 0.0 0.040768094 0.19724068 0.0 0.041112162 0.21019883 0.0 0.043456335 0.22308686 0.0 0.047096387 0.14781293 0.0 0.029547431000000002 0.15935937 0.0 0.031686712 0.17221314 0.0 0.033858314 0.18519439 0.0 0.035349313 0.19679938 0.0 0.03632747 0.20965792 0.0 0.039909624 0.14630726 0.0 0.024903087 0.15875986 0.0 0.027361454 0.17245114 0.0 0.02993438 0.18530087 0.0 0.031616263 0.19718224 0.0 0.034194153 0.20710045 0.0 0.03721793 0.14614159 0.0 0.021731861 0.16003653 0.0 0.025180249 0.1737051 0.0 0.027954467 0.18572588 0.0 0.030107774 0.19588397 0.0 0.033169082999999995 0.14855337 0.0 0.021219903999999998 0.1624236 0.0 0.024602667999999998 0.17514867 0.0 0.027647186 0.18459035 0.0 0.029696112 0.15134603 0.0 0.021649787 0.16332506 0.0 0.024595972 0.17374285 0.0 0.027474957 0.17813191 0.0 0.02719504 0.15084952 0.0 0.02097059 0.15999641 0.0 0.023240771 0.14597005 0.0 0.019034499 
Acec 3 2975 float
0.0 0.0 0.0 0.0 0.0 0.0 0.0 0.0 0.0 0.0 0.0 0.0 0.0 0.0 0.0 0.0 0.0 0.0 0.0 0.0 0.0 0.0 0.0 0.0 0.0 0.0 0.0 0.0 0.0 0.0 0.0 0.0 0.0 0.0 0.0 0.0 0.0 0.0 0.0 0.0 0.0 0.0 0.0 0.0 0.0 0.0 0.0 0.0 0.0 0.0 0.0 0.0 0.0 0.0 0.0 0.0 0.0 0.0 0.0 0.0 0.0 0.0 0.0 0.0 0.0 0.0 0.0 0.0 0.0 0.0 0.0 0.0 0.0 0.0 0.0 0.0 0.0 0.0 0.0 0.0 0.0 0.0 0.0 0.0 0.0 0.0 0.0 0.0 0.0 0.0 0.0 0.0 0.0 0.0 0.0 0.0 0.0 0.0 0.0 0.0 0.0 0.0 0.0 0.0 0.0 0.0 0.0 0.0 0.0 0.0 0.0 0.0 0.0 0.0 0.0 0.0 0.0 0.0 0.0 0.0 0.0 0.0 0.0 0.0 0.0 0.0 0.0 0.0 0.0 0.0 0.0 0.0 0.0 0.0 0.0 0.0 0.0 0.0 0.0 0.0 0.0 0.0 0.0 0.0 0.0 0.0 0.0 0.0 0.0 0.0 0.0 0.0 0.0 0.0 0.0 0.0 0.0 0.0 0.0 0.0 0.0 0.0 0.0 0.0 0.0 0.0 0.0 0.0 0.0 0.0 0.0 0.0 0.0 0.0 0.0 0.0 0.0 0.0 0.0 0.0 0.0 0.0 0.0 0.0 0.0 0.0 0.0 0.0 0.0 0.0 0.0 0.0 0.0 0.0 0.0 0.0 0.0 0.0 0.0 0.0 0.0 0.0 0.0 0.0 0.0 0.0 0.0 0.0 0.0 0.0 0.0 0.0 0.0 0.0 0.0 0.0 0.0 0.0 0.0 0.0 0.0 0.0 0.0 0.0 0.0 0.0 0.0 0.0 0.0 0.0 0.0 0.0 0.0 0.0 0.0 0.0 0.0 0.0 0.0 0.0 0.0 0.0 0.0 0.0 0.0 0.0 0.0 0.0 0.0 0.0 0.0 0.0 0.0 0.0 0.0 0.0 0.0 0.0 0.0 0.0 0.0 0.0 0.0 0.0 0.0 0.0 0.0 0.0 0.0 0.0 0.0 0.0 0.0 0.0 0.0 0.0 0.0 0.0 0.0 0.0 0.0 0.0 0.0 0.0 0.0 0.0 0.0 0.0 0.0 0.0 0.0 0.0 0.0 0.0 0.0 0.0 0.0 0.0 0.0 0.0 0.0 0.0 0.0 0.0 0.0 0.0 0.0 0.0 0.0 0.0 0.0 0.0 0.0 0.0 0.0 0.0 0.0 0.0 0.0 0.0 0.0 0.0 0.0 0.0 0.0 0.0 0.0 0.0 0.0 0.0 0.0 0.0 0.0 0.0 0.0 0.0 0.0 0.0 0.0 0.0 0.0 0.0 0.0 0.0 0.0 0.0 0.0 0.0 0.0 0.0 0.0 0.0 0.0 0.0 0.0 0.0 0.0 0.0 0.0 0.0 0.0 0.0 0.0 0.0 0.0 0.0 0.0 0.0 0.0 0.0 0.0 0.0 0.0 0.0 0.0 0.0 0.0 0.0 0.0 0.0 0.0 0.0 0.0 0.0 0.0 0.0 0.0 0.0 0.0 0.0 0.0 0.0 0.0 0.0 0.0 0.0 0.0 0.0 0.0 0.0 0.0 0.0 0.0 0.0 0.0 0.0 0.0 0.0 0.0 0.0 0.0 0.0 0.0 0.0 0.0 0.0 0.0 0.0 0.0 0.0 0.0 0.0 0.0 0.0 0.0 0.0 0.0 0.0 0.0 0.0 0.0 0.0 0.0 0.0 0.0 0.0 0.0 0.0 0.0 0.0 0.0 0.0 0.0 0.0 0.0 0.0 0.0 0.0 0.0 0.0 0.0 0.0 0.0 0.0 0.0 0.0 0.0 0.0 0.0 0.0 0.0 0.0 0.0 0.0 0.0 0.0 0.0 0.0 0.0 0.0 0.0 0.0 0.0 0.0 0.0 0.0 0.0 0.0 0.0 0.0 0.0 0.0 0.0 0.0 0.0 0.0 0.0 0.0 0.0 0.0 0.0 0.0 0.0 0.0 0.0 0.0 0.0 0.0 0.0 0.0 0.0 0.0 0.0 0.0 0.0 0.0 0.0 0.0 0.0 0.0 0.0 0.0 0.0 0.0 0.0 0.0 0.0 0.0 0.0 0.0 0.0 0.0 0.0 0.0 0.0 0.0 0.0 0.0 0.0 0.0 0.0 0.0 0.0 0.0 0.0 0.0 0.0 0.0 0.0 0.0 0.0 0.0 0.0 0.0 0.0 0.0 0.0 0.0 0.0 0.0 0.0 0.0 0.0 0.0 0.0 0.0 0.0 0.0 0.0 0.0 0.0 0.0 0.0 0.0 0.0 0.0 0.0 0.0 0.0 0.0 0.0 0.0 0.0 0.0 0.0 0.0 0.0 0.0 0.0 0.0 0.0 0.0 0.0 0.0 0.0 0.0 0.0 0.0 0.0 0.0 0.0 0.0 0.0 0.0 0.0 0.0 0.0 0.0 0.0 0.0 0.0 0.0 0.0 0.0 0.0 0.0 0.0 0.0 0.0 0.0 0.0 0.0 0.0 0.0 0.0 0.0 0.0 0.0 0.0 0.0 0.0 0.0 0.0 0.0 0.0 0.0 0.0 0.0 0.0 0.0 0.0 0.0 0.0 0.0 0.0 0.0 0.0 0.0 0.0 0.0 0.0 0.0 0.0 0.0 0.0 0.0 0.0 0.0 0.0 0.0 0.0 0.0 0.0 0.0 0.0 0.0 0.0 0.0 0.0 0.0 0.0 0.0 0.0 0.0 0.0 0.0 0.0 0.0 0.0 0.0 0.0 0.0 0.0 0.0 0.0 0.0 0.0 0.0 0.0 0.0 0.0 0.0 0.0 0.0 0.0 0.0 0.0 0.0 0.0 0.0 0.0 0.0 0.0 0.0 0.0 0.0 0.0 0.0 0.0 0.0 0.0 0.0 0.0 0.0 0.0 0.0 0.0 0.0 0.0 0.0 0.0 0.0 0.0 0.0 0.0 0.0 0.0 0.0 0.0 0.0 0.0 0.0 0.0 0.0 0.0 0.0 0.0 0.0 0.0 0.0 0.0 0.0 0.0 0.0 0.0 0.0 0.0 0.0 0.0 0.0 0.0 0.0 0.0 0.0 0.0 0.0 0.0 0.0 0.0 0.0 0.0 0.0 0.0 0.0 0.0 0.0 0.0 0.0 0.0 0.0 0.0 0.0 0.0 0.0 0.0 0.0 0.0 0.0 0.0 0.0 0.0 0.0 0.0 0.0 0.0 0.0 0.0 0.0 0.0 0.0 0.0 0.0 0.0 0.0 0.0 0.0 0.0 0.0 0.0 0.0 0.0 0.0 0.0 0.0 0.0 0.0 0.0 0.0 0.0 0.0 0.0 0.0 0.0 0.0 0.0 0.0 0.0 0.0 0.0 0.0 0.0 0.0 0.0 0.0 0.0 0.0 0.0 0.0 0.0 0.0 0.0 0.0 0.0 0.0 0.0 0.0 0.0 0.0 0.0 0.0 0.0 0.0 0.0 0.0 0.0 0.0 0.0 0.0 0.0 0.0 0.0 0.0 0.0 0.0 0.0 0.0 0.0 0.0 0.0 0.0 0.0 0.0 0.0 0.0 0.0 0.0 0.0 0.0 0.0 0.0 0.0 0.0 0.0 0.0 0.0 0.0 0.0 0.0 0.0 0.0 0.0 0.0 0.0 0.0 0.0 0.0 0.0 0.0 0.0 0.0 0.0 0.0 0.0 0.0 0.0 0.0 0.0 0.0 0.0 0.0 0.0 0.0 0.0 0.0 0.0 0.0 0.0 0.0 0.0 0.0 0.0 0.0 0.0 0.0 0.0 0.0 0.0 0.0 0.0 0.0 0.0 0.0 0.0 0.0 0.0 0.0 0.0 0.0 0.0 0.0 0.0 0.0 0.0 0.0 0.0 0.0 0.0 0.0 0.0 0.0 0.0 0.0 0.0 0.0 0.0 0.0 0.0 0.0 0.0 0.0 0.0 0.0 0.0 0.0 0.0 0.0 0.0 0.0 0.0 0.0 0.0 0.0 0.0 0.0 0.0 0.0 0.0 0.0 0.0 0.0 0.0 0.0 0.0 0.0 0.0 0.0 0.0 0.0 0.0 0.0 0.0 0.0 0.0 0.0 0.0 0.0 0.0 0.0 0.0 0.0 0.0 0.0 0.0 0.0 0.0 0.0 0.0 0.0 0.0 0.0 0.0 0.0 0.0 0.0 0.0 0.0 0.0 0.0 0.0 0.0 0.0 0.0 0.0 0.0 0.0 0.0 0.0 0.0 0.0 0.0 0.0 0.0 0.0 0.0 0.0 0.0 0.0 0.0 0.0 0.0 0.0 0.0 0.0 0.0 0.0 0.0 0.0 0.0 0.0 0.0 0.0 0.0 0.0 0.0 0.0 0.0 0.0 0.0 0.0 0.0 0.0 0.0 0.0 0.0 0.0 0.0 0.0 0.0 0.0 0.0 0.0 0.0 0.0 0.0 0.0 0.0 0.0 0.0 0.0 0.0 0.0 0.0 0.0 0.0 0.0 0.0 0.0 0.0 0.0 0.0 0.0 0.0 0.0 0.0 0.0 0.0 0.0 0.0 0.0 0.0 0.0 0.0 0.0 0.0 0.0 0.0 0.0 0.0 0.0 0.0 0.0 0.0 0.0 0.0 0.0 0.0 0.0 0.0 0.0 0.0 0.0 0.0 0.0 0.0 0.0 0.0 0.0 0.0 0.0 0.0 0.0 0.0 0.0 0.0 0.0 0.0 0.0 0.0 0.0 0.0 0.0 0.0 0.0 0.0 0.0 0.0 0.0 0.0 0.0 0.0 0.0 0.0 0.0 0.0 0.0 0.0 0.0 0.0 0.0 0.0 0.0 0.0 0.0 0.0 0.0 0.0 0.0 0.0 0.0 0.0 0.0 0.0 0.0 0.0 0.0 0.0 0.0 0.0 0.0 0.0 0.0 0.0 0.0 0.0 0.0 0.0 0.0 0.0 0.0 0.0 0.0 0.0 0.0 0.0 0.0 0.0 0.0 0.0 0.0 0.0 0.0 0.0 0.0 0.0 0.0 0.0 0.0 0.0 0.0 0.0 0.0 0.0 0.0 0.0 0.0 0.0 0.0 0.0 0.0 0.0 0.0 0.0 0.0 0.0 0.0 0.0 0.0 0.0 0.0 0.0 0.0 0.0 0.0 0.0 0.0 0.0 0.0 0.0 0.0 0.0 0.0 0.0 0.0 0.0 0.0 0.0 0.0 0.0 0.0 0.0 0.0 0.0 0.0 0.0 0.0 0.0 0.0 0.0 0.0 0.0 0.0 0.0 0.0 0.0 0.0 0.0 0.0 0.0 0.0 0.0 0.0 0.0 0.0 0.0 0.0 0.0 0.0 0.0 0.0 0.0 0.0 0.0 0.0 0.0 0.0 0.0 0.0 0.0 0.0 0.0 0.0 0.0 0.0 0.0 0.0 0.0 0.0 0.0 0.0 0.0 0.0 0.0 0.0 0.0 0.0 0.0 0.0 0.0 0.0 0.0 0.0 0.0 0.0 0.0 0.0 0.0 0.0 0.0 0.0 0.0 0.0 0.0 0.0 0.0 0.0 0.0 0.0 0.0 0.0 0.0 0.0 0.0 0.0 0.0 0.0 0.0 0.0 0.0 0.0 0.0 0.0 0.0 0.0 0.0 0.0 0.0 0.0 0.0 0.0 0.0 0.0 0.0 0.0 0.0 0.0 0.0 0.0 0.0 0.0 0.0 0.0 0.0 0.0 0.0 0.0 0.0 0.0 0.0 0.0 0.0 0.0 0.0 0.0 0.0 0.0 0.0 0.0 0.0 0.0 0.0 0.0 0.0 0.0 0.0 0.0 0.0 0.0 0.0 0.0 0.0 0.0 0.0 0.0 0.0 0.0 0.0 0.0 0.0 0.0 0.0 0.0 0.0 0.0 0.0 0.0 0.0 0.0 0.0 0.0 0.0 0.0 0.0 0.0 0.0 0.0 0.0 0.0 0.0 0.0 0.0 0.0 0.0 0.0 0.0 0.0 0.0 0.0 0.0 0.0 0.0 0.0 0.0 0.0 0.0 0.0 0.0 0.0 0.0 0.0 0.0 0.0 0.0 0.0 0.0 0.0 0.0 0.0 0.0 0.0 0.0 0.0 0.0 0.0 0.0 0.0 0.0 0.0 0.0 0.0 0.0 0.0 0.0 0.0 0.0 0.0 0.0 0.0 0.0 0.0 0.0 0.0 0.0 0.0 0.0 0.0 0.0 0.0 0.0 0.0 0.0 0.0 0.0 0.0 0.0 0.0 0.0 0.0 0.0 0.0 0.0 0.0 0.0 0.0 0.0 0.0 0.0 0.0 0.0 0.0 0.0 0.0 0.0 0.0 0.0 0.0 0.0 0.0 0.0 0.0 0.0 0.0 0.0 0.0 0.0 0.0 0.0 0.0 0.0 0.0 0.0 0.0 0.0 0.0 0.0 0.0 0.0 0.0 0.0 0.0 0.0 0.0 0.0 0.0 0.0 0.0 0.0 0.0 0.0 0.0 0.0 0.0 0.0 0.0 0.0 0.0 0.0 0.0 0.0 0.0 0.0 0.0 0.0 0.0 0.0 0.0 0.0 0.0 0.0 0.0 0.0 0.0 0.0 0.0 0.0 0.0 0.0 0.0 0.0 0.0 0.0 0.0 0.0 0.0 0.0 0.0 0.0 0.0 0.0 0.0 0.0 0.0 0.0 0.0 0.0 0.0 0.0 0.0 0.0 0.0 0.0 0.0 0.0 0.0 0.0 0.0 0.0 0.0 0.0 0.0 0.0 0.0 0.0 0.0 0.0 0.0 0.0 0.0 0.0 0.0 0.0 0.0 0.0 0.0 0.0 0.0 0.0 0.0 0.0 0.0 0.0 0.0 0.0 0.0 0.0 0.0 0.0 0.0 0.0 0.0 0.0 0.0 0.0 0.0 0.0 0.0 0.0 0.0 0.0 0.0 0.0 0.0 0.0 0.0 0.0 0.0 0.0 0.0 0.0 0.0 0.0 0.0 0.0 0.0 0.0 0.0 0.0 0.0 0.0 0.0 0.0 0.0 0.0 0.0 0.0 0.0 0.0 0.0 0.0 0.0 0.0 0.0 0.0 0.0 0.0 0.0 0.0 0.0 0.0 0.0 0.0 0.0 0.0 0.0 0.0 0.0 0.0 0.0 0.0 0.0 0.0 0.0 0.0 0.0 0.0 0.0 0.0 0.0 0.0 0.0 0.0 0.0 0.0 0.0 0.0 0.0 0.0 0.0 0.0 0.0 0.0 0.0 0.0 0.0 0.0 0.0 0.0 0.0 0.0 0.0 0.0 0.0 0.0 0.0 0.0 0.0 0.0 0.0 0.0 0.0 0.0 0.0 0.0 0.0 0.0 0.0 0.0 0.0 0.0 0.0 0.0 0.0 0.0 0.0 0.0 0.0 0.0 0.0 0.0 0.0 0.0 0.0 0.0 0.0 0.0 0.0 0.0 0.0 0.0 0.0 0.0 0.0 0.0 0.0 0.0 0.0 0.0 0.0 0.0 0.0 0.0 0.0 0.0 0.0 0.0 0.0 0.0 0.0 0.0 0.0 0.0 0.0 0.0 0.0 0.0 0.0 0.0 0.0 0.0 0.0 0.0 0.0 0.0 0.0 0.0 0.0 0.0 0.0 0.0 0.0 0.0 0.0 0.0 0.0 0.0 0.0 0.0 0.0 0.0 0.0 0.0 0.0 0.0 0.0 0.0 0.0 0.0 0.0 0.0 0.0 0.0 0.0 0.0 0.0 0.0 0.0 0.0 0.0 0.0 0.0 0.0 0.0 0.0 0.0 0.0 0.0 0.0 0.0 0.0 0.0 0.0 0.0 0.0 0.0 0.0 0.0 0.0 0.0 0.0 0.0 0.0 0.0 0.0 0.0 0.0 0.0 0.0 0.0 0.0 0.0 0.0 0.0 0.0 0.0 0.0 0.0 0.0 0.0 0.0 0.0 0.0 0.0 0.0 0.0 0.0 0.0 0.0 0.0 0.0 0.0 0.0 0.0 0.0 0.0 0.0 0.0 0.0 0.0 0.0 0.0 0.0 0.0 0.0 0.0 0.0 0.0 0.0 0.0 0.0 0.0 0.0 0.0 0.0 0.0 0.0 0.0 0.0 0.0 0.0 0.0 0.0 0.0 0.0 0.0 0.0 0.0 0.0 0.0 0.0 0.0 0.0 0.0 0.0 0.0 0.0 0.0 0.0 0.0 0.0 0.0 0.0 0.0 0.0 0.0 0.0 0.0 0.0 0.0 0.0 0.0 0.0 0.0 0.0 0.0 0.0 0.0 0.0 0.0 0.0 0.0 0.0 0.0 0.0 0.0 0.0 0.0 0.0 0.0 0.0 0.0 0.0 0.0 0.0 0.0 0.0 0.0 0.0 0.0 0.0 0.0 0.0 0.0 0.0 0.0 0.0 0.0 0.0 0.0 0.0 0.0 0.0 0.0 0.0 0.0 0.0 0.0 0.0 0.0 0.0 0.0 0.0 0.0 0.0 0.0 0.0 0.0 0.0 0.0 0.0 0.0 0.0 0.0 0.0 0.0 0.0 0.0 0.0 0.0 0.0 0.0 0.0 0.0 0.0 0.0 0.0 0.0 0.0 0.0 0.0 0.0 0.0 0.0 0.0 0.0 0.0 0.0 0.0 0.0 0.0 0.0 0.0 0.0 0.0 0.0 0.0 0.0 0.0 0.0 0.0 0.0 0.0 0.0 0.0 0.0 0.0 0.0 0.0 0.0 0.0 0.0 0.0 0.0 0.0 0.0 0.0 0.0 0.0 0.0 0.0 0.0 0.0 0.0 0.0 0.0 0.0 0.0 0.0 0.0 0.0 0.0 0.0 0.0 0.0 0.0 0.0 0.0 0.0 0.0 0.0 0.0 0.0 0.0 0.0 0.0 0.0 0.0 0.0 0.0 0.0 0.0 0.0 0.0 0.0 0.0 0.0 0.0 0.0 0.0 0.0 0.0 0.0 0.0 0.0 0.0 0.0 0.0 0.0 0.0 0.0 0.0 0.0 0.0 0.0 0.0 0.0 0.0 0.0 0.0 0.0 0.0 0.0 0.0 0.0 0.0 0.0 0.0 0.0 0.0 0.0 0.0 0.0 0.0 0.0 0.0 0.0 0.0 0.0 0.0 0.0 0.0 0.0 0.0 0.0 0.0 0.0 0.0 0.0 0.0 0.0 0.0 0.0 0.0 0.0 0.0 0.0 0.0 0.0 0.0 0.0 0.0 0.0 0.0 0.0 0.0 0.0 0.0 0.0 0.0 0.0 0.0 0.0 0.0 0.0 0.0 0.0 0.0 0.0 0.0 0.0 0.0 0.0 0.0 0.0 0.0 0.0 0.0 0.0 0.0 0.0 0.0 0.0 0.0 0.0 0.0 0.0 0.0 0.0 0.0 0.0 0.0 0.0 0.0 0.0 0.0 0.0 0.0 0.0 0.0 0.0 0.0 0.0 0.0 0.0 0.0 0.0 0.0 0.0 0.0 0.0 0.0 0.0 0.0 0.0 0.0 0.0 0.0 0.0 0.0 0.0 0.0 0.0 0.0 0.0 0.0 0.0 0.0 0.0 0.0 0.0 0.0 0.0 0.0 0.0 0.0 0.0 0.0 0.0 0.0 0.0 0.0 0.0 0.0 0.0 0.0 0.0 0.0 0.0 0.0 0.0 0.0 0.0 0.0 0.0 0.0 0.0 0.0 0.0 0.0 0.0 0.0 0.0 0.0 0.0 0.0 0.0 0.0 0.0 0.0 0.0 0.0 0.0 0.0 0.0 0.0 0.0 0.0 0.0 0.0 0.0 0.0 0.0 0.0 0.0 0.0 0.0 0.0 0.0 0.0 0.0 0.0 0.0 0.0 0.0 0.0 0.0 0.0 0.0 0.0 0.0 0.0 0.0 0.0 0.0 0.0 0.0 0.0 0.0 0.0 0.0 0.0 0.0 0.0 0.0 0.0 0.0 0.0 0.0 0.0 0.0 0.0 0.0 0.0 0.0 0.0 0.0 0.0 0.0 0.0 0.0 0.0 0.0 0.0 0.0 0.0 0.0 0.0 0.0 0.0 0.0 0.0 0.0 0.0 0.0 0.0 0.0 0.0 0.0 0.0 0.0 0.0 0.0 0.0 0.0 0.0 0.0 0.0 0.0 0.0 0.0 0.0 0.0 0.0 0.0 0.0 0.0 0.0 0.0 0.0 0.0 0.0 0.0 0.0 0.0 0.0 0.0 0.0 0.0 0.0 0.0 0.0 0.0 0.0 0.0 0.0 0.0 0.0 0.0 0.0 0.0 0.0 0.0 0.0 0.0 0.0 0.0 0.0 0.0 0.0 0.0 0.0 0.0 0.0 0.0 0.0 0.0 0.0 0.0 0.0 0.0 0.0 0.0 0.0 0.0 0.0 0.0 0.0 0.0 0.0 0.0 0.0 0.0 0.0 0.0 0.0 0.0 0.0 0.0 0.0 0.0 0.0 0.0 0.0 0.0 0.0 0.0 0.0 0.0 0.0 0.0 0.0 0.0 0.0 0.0 0.0 0.0 0.0 0.0 0.0 0.0 0.0 0.0 0.0 0.0 0.0 0.0 0.0 0.0 0.0 0.0 0.0 0.0 0.0 0.0 0.0 0.0 0.0 0.0 0.0 0.0 0.0 0.0 0.0 0.0 0.0 0.0 0.0 0.0 0.0 0.0 0.0 0.0 0.0 0.0 0.0 0.0 0.0 0.0 0.0 0.0 0.0 0.0 0.0 0.0 0.0 0.0 0.0 0.0 0.0 0.0 0.0 0.0 0.0 0.0 0.0 0.0 0.0 0.0 0.0 0.0 0.0 0.0 0.0 0.0 0.0 0.0 0.0 0.0 0.0 0.0 0.0 0.0 0.0 0.0 0.0 0.0 0.0 0.0 0.0 0.0 0.0 0.0 0.0 0.0 0.0 0.0 0.0 0.0 0.0 0.0 0.0 0.0 0.0 0.0 0.0 0.0 0.0 0.0 0.0 0.0 0.0 0.0 0.0 0.0 0.0 0.0 0.0 0.0 0.0 0.0 0.0 0.0 0.0 0.0 0.0 0.0 0.0 0.0 0.0 0.0 0.0 0.0 0.0 0.0 0.0 0.0 0.0 0.0 0.0 0.0 0.0 0.0 0.0 0.0 0.0 0.0 0.0 0.0 0.0 0.0 0.0 0.0 0.0 0.0 0.0 0.0 0.0 0.0 0.0 0.0 0.0 0.0 0.0 0.0 0.0 0.0 0.0 0.0 0.0 0.0 0.0 0.0 0.0 0.0 0.0 0.0 0.0 0.0 0.0 0.0 0.0 0.0 0.0 0.0 0.0 0.0 0.0 0.0 0.0 0.0 0.0 0.0 0.0 0.0 0.0 0.0 0.0 0.0 0.0 0.0 0.0 0.0 0.0 0.0 0.0 0.0 0.0 0.0 0.0 0.0 0.0 0.0 0.0 0.0 0.0 0.0 0.0 0.0 0.0 0.0 0.0 0.0 0.0 0.0 0.0 0.0 0.0 0.0 0.0 0.0 0.0 0.0 0.0 0.0 0.0 0.0 0.0 0.0 0.0 0.0 0.0 0.0 0.0 0.0 0.0 0.0 0.0 0.0 0.0 0.0 0.0 0.0 0.0 0.0 0.0 0.0 0.0 0.0 0.0 0.0 0.0 0.0 0.0 0.0 0.0 0.0 0.0 0.0 0.0 0.0 0.0 0.0 0.0 0.0 0.0 0.0 0.0 0.0 0.0 0.0 0.0 0.0 0.0 0.0 0.0 0.0 0.0 0.0 0.0 0.0 0.0 0.0 0.0 0.0 0.0 0.0 0.0 0.0 0.0 0.0 0.0 0.0 0.0 0.0 0.0 0.0 0.0 0.0 0.0 0.0 0.0 0.0 0.0 0.0 0.0 0.0 0.0 0.0 0.0 0.0 0.0 0.0 0.0 0.0 0.0 0.0 0.0 0.0 0.0 0.0 0.0 0.0 0.0 0.0 0.0 0.0 0.0 0.0 0.0 0.0 0.0 0.0 0.0 0.0 0.0 0.0 0.0 0.0 0.0 0.0 0.0 0.0 0.0 0.0 0.0 0.0 0.0 0.0 0.0 0.0 0.0 0.0 0.0 0.0 0.0 0.0 0.0 0.0 0.0 0.0 0.0 0.0 0.0 0.0 0.0 0.0 0.0 0.0 0.0 0.0 0.0 0.0 0.0 0.0 0.0 0.0 0.0 0.0 0.0 0.0 0.0 0.0 0.0 0.0 0.0 0.0 0.0 0.0 0.0 0.0 0.0 0.0 0.0 0.0 0.0 0.0 0.0 0.0 0.0 0.0 0.0 0.0 0.0 0.0 0.0 0.0 0.0 0.0 0.0 0.0 0.0 0.0 0.0 0.0 0.0 0.0 0.0 0.0 0.0 0.0 0.0 0.0 0.0 0.0 0.0 0.0 0.0 0.0 0.0 0.0 0.0 0.0 0.0 0.0 0.0 0.0 0.0 0.0 0.0 0.0 0.0 0.0 0.0 0.0 0.0 0.0 0.0 0.0 0.0 0.0 0.0 0.0 0.0 0.0 0.0 0.0 0.0 0.0 0.0 0.0 0.0 0.0 0.0 0.0 0.0 0.0 0.0 0.0 0.0 0.0 0.0 0.0 0.0 0.0 0.0 0.0 0.0 0.0 0.0 0.0 0.0 0.0 0.0 0.0 0.0 0.0 0.0 0.0 0.0 0.0 0.0 0.0 0.0 0.0 0.0 0.0 0.0 0.0 0.0 0.0 0.0 0.0 0.0 0.0 0.0 0.0 0.0 0.0 0.0 0.0 0.0 0.0 0.0 0.0 0.0 0.0 0.0 0.0 0.0 0.0 0.0 0.0 0.0 0.0 0.0 0.0 0.0 0.0 0.0 0.0 0.0 0.0 0.0 0.0 0.0 0.0 0.0 0.0 0.0 0.0 0.0 0.0 0.0 0.0 0.0 0.0 0.0 0.0 0.0 0.0 0.0 0.0 0.0 0.0 0.0 0.0 0.0 0.0 0.0 0.0 0.0 0.0 0.0 0.0 0.0 0.0 0.0 0.0 0.0 0.0 0.0 0.0 0.0 0.0 0.0 0.0 0.0 0.0 0.0 0.0 0.0 0.0 0.0 0.0 0.0 0.0 0.0 0.0 0.0 0.0 0.0 0.0 0.0 0.0 0.0 0.0 0.0 0.0 0.0 0.0 0.0 0.0 0.0 0.0 0.0 0.0 0.0 0.0 0.0 0.0 0.0 0.0 0.0 0.0 0.0 0.0 0.0 0.0 0.0 0.0 0.0 0.0 0.0 0.0 0.0 0.0 0.0 0.0 0.0 0.0 0.0 0.0 0.0 0.0 0.0 0.0 0.0 0.0 0.0 0.0 0.0 0.0 0.0 0.0 0.0 0.0 0.0 0.0 0.0 0.0 0.0 0.0 0.0 0.0 0.0 -0.65923071 0.0 -0.25357395 -0.77523232 0.0 -0.23553103 -0.87109661 0.0 -0.20750755 -0.94711256 0.0 -0.17623118 -1.005224 0.0 -0.14453024 -0.64734793 0.0 -0.33211899 -0.85988498 0.0 -0.29111719 -1.0229349 0.0 -0.27499801 -1.1490718999999998 0.0 -0.24641782 -1.2453778 0.0 -0.21241829 -1.3175358999999998 0.0 -0.17591569 -0.86751008 0.0 -0.34922314 -1.1359538999999998 0.0 -0.31032085 -1.3380711 0.0 -0.2855649 -1.4933976999999998 0.0 -0.25471961 -1.610616 0.0 -0.22179201 -1.698257 0.0 -0.18492542 -1.1374426000000002 0.0 -0.3573041 -1.4685879 0.0 -0.30950451 -1.7074498 0.0 -0.28253603 -1.8883212 0.0 -0.25145674 -2.0252628 0.0 -0.21872658 -2.1273855999999998 0.0 -0.18285123 -1.4577141000000002 0.0 -0.36617756 -1.8591231 0.0 -0.30111861 -2.1362033 0.0 -0.27067661 -2.3407307 0.0 -0.24003386 -2.4960389 0.0 -0.20798567 -2.6109247000000004 0.0 -0.17359236 -1.8405538000000001 0.0 -0.381567 -2.3205271 0.0 -0.28908634 -2.6365485 0.0 -0.25199926 -2.8631672999999997 0.0 -0.22155744 -3.0339677000000003 0.0 -0.19195992 -3.1593494 0.0 -0.15996104 -2.3019602000000003 0.0 -0.41217089 -2.8678269 0.0 -0.27979326 -3.2208765 0.0 -0.23072124 -3.4675616999999996 0.0 -0.19799674 -3.6487613 0.0 -0.17298353 -3.7812127999999996 0.0 -0.1451574 -2.8634901000000004 0.0 -0.46772003 -3.5159404000000003 0.0 -0.28273153 -3.8983358999999997 0.0 -0.21686625 -4.1597176 0.0 -0.17841411 -4.346480400000001 0.0 -0.15904677 -4.4825706 0.0 -0.13544838 -3.5609059000000003 0.0 -0.53365088 -4.2792435 0.0 -0.30194902 -4.678058099999999 0.0 -0.22036862 -4.945663 0.0 -0.17550683 -5.1339220999999995 0.0 -0.15923709 -5.268128400000001 0.0 -0.14126648 -4.4633098 0.0 -0.54242516 -5.1795921 0.0 -0.32427263 -5.571916099999999 0.0 -0.23962045 -5.829268 0.0 -0.20156443 -6.0164194 0.0 -0.1860885 -6.1431894 0.0 -0.1738769 -5.6377811 0.0 -0.47910404 -6.257634599999999 0.0 -0.3389883 -6.5987253 0.0 -0.27264643 -6.828748200000001 0.0 -0.25268197 -6.9967445999999995 0.0 -0.25176024 -7.1111727 0.0 -0.24501343 -6.958005900000001 0.0 -0.70611572 -7.5230761 0.0 -0.45662308 -7.7715788 0.0 -0.37234688 -7.9503579 0.0 -0.35539246 -8.0848694 0.0 -0.36233634 -8.1762466 0.0 -0.36351988 -8.5321455 0.0 -1.8350258000000002 -8.986537 0.0 -1.0843171999999999 -9.1108694 0.0 -0.72074604 -9.2082825 0.0 -0.58601236 -9.2852507 0.0 -0.55640393 -9.343745199999999 0.0 -0.54365706 -10.581422 0.0 -2.8464807999999997 -10.747783 0.0 -1.9111080000000003 -10.676949 0.0 -1.2785659 -10.620141 0.0 -0.97861421 -10.608133 0.0 -0.86371803 -10.623322 0.0 -0.80505657 -13.022393 0.0 -3.5108666 -12.782888999999999 0.0 -2.5944548 -12.424995 0.0 -1.8773046999999998 -12.174557 0.0 -1.4620503999999999 -12.052817999999998 0.0 -1.2600493000000001 -12.021663 0.0 -1.1302967 -15.638369 0.0 -4.0493073 -14.959873000000002 0.0 -3.1421154 -14.292238000000001 0.0 -2.429096 -13.846488 0.0 -1.9607409 -13.623038000000001 0.0 -1.6821713 -13.539719 0.0 -1.4962178 -18.298857 0.0 -4.561864900000001 -17.203692999999998 0.0 -3.6199834 -16.241498999999997 0.0 -2.9108222 -15.618404 0.0 -2.4306188 -15.303268 0.0 -2.1098413 -15.176476000000001 0.0 -1.8863753 -20.962007999999997 0.0 -5.1005139 -19.504284 0.0 -4.0938244 -18.280334 0.0 -3.3443413 -17.490696 0.0 -2.8564239 -17.092454999999998 0.0 -2.5174625 -16.930723 0.0 -2.2725556 -23.698387 0.0 -5.6669011 -21.917006 0.0 -4.5672417 -20.431858 0.0 -3.7576370000000003 -19.478106 0.0 -3.2466468999999996 -18.992378 0.0 -2.916574 -18.798748 0.0 -2.6638832000000003 -26.608356 0.0 -6.2617273 -24.482641 0.0 -5.0446725 -22.713767999999998 0.0 -4.1597004 -21.577341 0.0 -3.6315934999999997 -20.997829 0.0 -3.303936 -20.775404 0.0 -3.0535386000000004 -29.726542 0.0 -6.8895988 -27.213798999999998 0.0 -5.5234742 -25.125731 0.0 -4.5594325 -23.782679 0.0 -4.016602 -23.104479 0.0 -3.6914504 -22.856821 0.0 -3.4448538 -33.065678000000005 0.0 -7.5301962 -30.110398999999997 0.0 -6.0064502 -27.662847999999997 0.0 -4.9639273 -26.09045 0.0 -4.4078498 -25.306054999999997 0.0 -4.0831299 -25.038065 0.0 -3.8374669999999997 -36.628708 0.0 -8.1852865 -33.170673 0.0 -6.4892011 -30.320677000000003 0.0 -5.384164299999999 -28.491682 0.0 -4.8065739 -27.5956 0.0 -4.4783883 -27.314095000000002 0.0 -4.2261714999999995 -40.422562 0.0 -8.8515091 -36.393913 0.0 -6.9676795 -33.090195 0.0 -5.8120012 -30.978975 0.0 -5.2035999 -29.966745 0.0 -4.8675699 -29.677584000000003 0.0 -4.5927844 -44.470692 0.0 -9.522067999999999 -39.787064 0.0 -7.4373837 -35.967709 0.0 -6.2335229000000005 -33.548386 0.0 -5.5828609 -32.415572999999995 0.0 -5.2378836 -32.129002 0.0 -4.9286251 -48.824936 0.0 -10.188381 -43.373543 0.0 -7.905000200000001 -38.956672999999995 0.0 -6.6372542 -36.201355 0.0 -5.926693 -34.939457 0.0 -5.571896099999999 -34.667621999999994 0.0 -5.2206945 -53.564930000000004 0.0 -10.830651 -47.187759 0.0 -8.3815203 -42.083359 0.0 -7.0511818 -38.946697 0.0 -6.2455039 -37.534702 0.0 -5.846292500000001 -37.290562 0.0 -5.44595 -58.807415 0.0 -11.541248 -51.23822 0.0 -8.850727099999999 -45.31638 0.0 -7.383215 -41.764862 0.0 -6.5015039 -40.176376 0.0 -6.0414667 -39.954215999999995 0.0 -5.556087000000001 -64.524742 0.0 -12.311299 -55.469784 0.0 -9.349141099999999 -48.596577 0.0 -7.6660013 -44.492832 0.0 -6.7399892999999995 -42.820786 0.0 -6.167997799999999 -42.627995 0.0 -5.620457599999999 -70.465073 0.0 -13.194398000000001 -59.687599 0.0 -9.955720900000001 -51.761692 0.0 -8.0001068 -47.14423 0.0 -6.8843069 -45.303028000000005 0.0 -6.2405987000000005 -45.198025 0.0 -5.5465636 -76.195374 0.0 -14.221534 -63.619243999999995 0.0 -10.796813 -54.451889 0.0 -8.7162066 -49.467194 0.0 -7.0376811 -47.61499 0.0 -6.071321 -47.57 0.0 -5.281203700000001 -81.145035 0.0 -15.916317999999999 -66.808807 0.0 -12.318489999999999 -56.934532 0.0 -9.469629300000001 -51.655415000000005 0.0 -6.976889599999999 -49.580555 0.0 -5.7458572 -49.564606 0.0 -4.876851599999999 -84.710243 0.0 -18.022537 -69.198746 0.0 -14.791070000000001 -58.974109999999996 0.0 -10.749153 -53.35720799999999 0.0 -7.398486099999999 -51.142959999999995 0.0 -5.4833407 -51.076640999999995 0.0 -4.321559 -85.869598 0.0 -20.059628 -70.054146 0.0 -18.965495999999998 -59.90184 0.0 -13.016078 -54.263732999999995 0.0 -8.586179699999999 -52.103806 0.0 -5.4181237 -52.12339 0.0 -3.5478954 -83.577866 0.0 -21.31776 -69.172005 0.0 -24.117125 -59.811642000000006 0.0 -15.986489 -54.302254000000005 0.0 -10.151582000000001 -52.414336999999996 0.0 -5.626916400000001 -52.495998 0.0 -2.9952276 -70.31435400000001 0.0 -23.480234 -65.307121 0.0 -27.106482 -58.300335 0.0 -17.426428 -52.86830500000001 0.0 -13.082322999999999 -50.918777 0.0 -8.2068586 -51.124321 0.0 -4.6958027 -46.116135 0.0 -23.565975 -46.039902000000005 0.0 -28.354103000000002 -46.339756 0.0 -19.597916 -46.520271 0.0 -15.646603 -46.275002 0.0 -12.91995 -46.793789000000004 0.0 -10.945558 -27.552073999999998 0.0 -23.033325 -27.356163000000002 0.0 -31.829765000000002 -27.561531 0.0 -20.171474 -28.179474 0.0 -14.430426 -29.180668 0.0 -11.283882 -30.512695 0.0 -9.836975099999998 -16.127085 0.0 -22.466387 -15.708575 0.0 -35.389503000000005 -15.59079 0.0 -20.486578 -15.861031 0.0 -13.282151999999998 -16.523160999999998 0.0 -9.323680900000001 -17.518181 0.0 -7.4939022 -9.3349609 0.0 -21.943224 -8.739956900000001 0.0 -37.534649 -8.3130388 0.0 -21.211264 -8.1680584 0.0 -12.989664 -8.3383856 0.0 -8.3423643 -8.7897062 0.0 -5.6842937000000004 -3.532829 0.0 -21.62245 -2.9329085 0.0 -38.363079 -2.3754487 0.0 -22.648331 -1.9537685000000002 0.0 -13.320196 -1.7143198 0.0 -7.9083433 -1.6571175 0.0 -4.8933601 4.0037212 0.0 -21.560213 4.3984375 0.0 -38.314377 4.8395572 0.0 -23.475504 5.2800703 0.0 -14.336739000000001 5.6826162 0.0 -8.4849997 6.025175099999999 0.0 -5.046883599999999 14.042383 0.0 -21.583265 14.078907999999998 0.0 -37.598438 14.202592000000001 0.0 -23.686451 14.411816 0.0 -15.291526000000001 14.698088 0.0 -9.4388771 15.042905 0.0 -5.7557092 25.718754 0.0 -21.673504 25.346783 0.0 -36.646076 25.064398 0.0 -23.616831 24.897517999999998 0.0 -15.999645999999998 24.872515 0.0 -10.391678 24.997156 0.0 -6.646955499999999 37.603027000000004 0.0 -21.914694 36.861216999999996 0.0 -35.667942 36.189705 0.0 -23.511827 35.622578000000004 0.0 -16.452326 35.21595 0.0 -11.121816 35.016315000000006 0.0 -7.4303818 48.491508 0.0 -22.39772 47.463024 0.0 -34.788696 46.478123 0.0 -23.571362 45.571686 0.0 -16.704926 44.821579 0.0 -11.532031 44.310547 0.0 -7.936057099999999 57.646999 0.0 -23.053444 55.888973 0.0 -33.517414 55.210609 0.0 -23.616289000000002 54.03849399999999 0.0 -16.703743 53.078762 0.0 -11.589874 52.30283 0.0 -8.1155357 65.23786899999999 0.0 -24.326519 61.772602 0.0 -31.776690999999996 61.508217 0.0 -22.821852 60.375595 0.0 -16.023447 58.394402 0.0 -11.53094 56.31377 0.0 -8.3764095 71.334091 0.0 -25.639181 66.784538 0.0 -30.445131 66.346352 0.0 -21.88205 63.837051 0.0 -15.689373000000002 59.807552 0.0 -11.563168 57.475311 0.0 -8.6753435 77.39580500000001 0.0 -26.554028000000002 71.634804 0.0 -29.293232 70.087265 0.0 -20.832254000000002 64.69281 0.0 -15.051720000000001 60.34370799999999 0.0 -11.323435 57.929916000000006 0.0 -8.8527308 83.50456199999999 0.0 -26.29174 76.748604 0.0 -28.416590000000003 72.06460600000001 0.0 -18.874810999999998 65.191452 0.0 -14.193295 60.648815 0.0 -11.22043 58.172337 0.0 -9.0893822 89.870598 0.0 -24.485308 82.342484 0.0 -26.57765 73.560204 0.0 -17.269419 65.59078199999999 0.0 -13.415201000000001 60.779217 0.0 -10.987875 58.235358999999995 0.0 -9.215127 100.61401 0.0 -24.204779000000002 88.70109599999999 0.0 -23.623945000000003 75.369843 0.0 -16.37985 66.414749 0.0 -12.841289 61.114162 0.0 -10.834902 58.327053 0.0 -9.065747300000002 111.26543999999998 0.0 -23.794098 93.506783 0.0 -20.900578 77.74445300000001 0.0 -15.456816 67.77906800000001 0.0 -12.161769999999999 61.753326 0.0 -10.36011 58.427792000000004 0.0 -8.9059944 117.06241999999999 0.0 -22.85746 97.97841600000001 0.0 -19.286023999999998 80.82040400000001 0.0 -14.579854999999998 69.681503 0.0 -11.571925 62.959328 0.0 -9.9623966 58.823326 0.0 -8.543125199999999 103.13148000000001 0.0 -18.017060999999998 84.844643 0.0 -13.549854000000002 72.15894300000001 0.0 -10.533706 64.628128 0.0 -9.2902088 59.550587 0.0 -8.10396 108.74508999999999 0.0 -16.95862 90.0755 0.0 -12.741095 75.520836 0.0 -9.3183498 66.85025 0.0 -8.2168446 60.806229 0.0 -7.3466125 96.651871 0.0 -12.411594000000001 80.433846 0.0 -8.609440800000002 69.78050999999999 0.0 -6.9798379 62.77460500000001 0.0 -6.4406877 103.55869 0.0 -12.365329 87.438278 0.0 -8.702424 74.315086 0.0 -6.1316767 65.627205 0.0 -5.433257599999999 95.2714 0.0 -9.5987186 81.111237 0.0 -6.4181309 70.358063 0.0 -4.9945269 89.120079 0.0 -7.615006 77.556961 0.0 -5.620694599999999 95.82785799999999 0.0 -8.247261 85.516525 0.0 -6.7960210000000005 -1.0466745000000002 0.0 -0.11523655 -1.0739753 0.0 -0.088244528 -1.0891867 0.0 -0.06587556 -1.095741 0.0 -0.04736279 -1.0966608999999998 0.0 -0.032632537 -1.0943489 0.0 -0.021601286 -1.0908067 0.0 -0.013390319 -1.0873518 0.0 -0.0076187691000000005 -1.0849407 0.0 -0.0033862417999999997 -1.3682613000000001 0.0 -0.14039221 -1.4000006 0.0 -0.10854651 -1.416177 0.0 -0.081813432 -1.421792 0.0 -0.059090462 -1.4204583 0.0 -0.041333873 -1.4155024999999999 0.0 -0.027661317999999997 -1.4093995000000001 0.0 -0.017504758999999998 -1.4038754 0.0 -0.010113364 -1.4001164 0.0 -0.0045893276 -1.7585134999999998 0.0 -0.14917088 -1.7948563000000002 0.0 -0.11651975 -1.8120584 0.0 -0.087995932 -1.8160253 0.0 -0.064064026 -1.8117888 0.0 -0.045106649000000006 -1.8035605 0.0 -0.030402621 -1.7942615000000002 0.0 -0.019450851 -1.7861813999999998 0.0 -0.011278915 -1.7807658 0.0 -0.0051633408 -2.1967981 0.0 -0.14775404 -2.2370455000000002 0.0 -0.11602464 -2.2544885 0.0 -0.087474704 -2.2560124 0.0 -0.063833684 -2.248132 0.0 -0.044755984000000006 -2.2358449 0.0 -0.03021146 -2.2228103 0.0 -0.019262473999999998 -2.2117197999999996 0.0 -0.01118862 -2.2043889 0.0 -0.0051092585 -2.6878519 0.0 -0.14034092 -2.7306275 0.0 -0.10988132 -2.7467752 0.0 -0.082588106 -2.7446612999999997 0.0 -0.060178243 -2.7320545 0.0 -0.041855868 -2.7148314 0.0 -0.028074988999999998 -2.6973531000000004 0.0 -0.017725835 -2.6827748 0.0 -0.010213174 -2.6732254 0.0 -0.0046423851 -3.2413385 0.0 -0.12974498 -3.2846105000000003 0.0 -0.10104896 -3.2974133 0.0 -0.076014318 -3.2900553 0.0 -0.055002511 -3.2713325 0.0 -0.03826458 -3.2481022 0.0 -0.025365152999999998 -3.2253458 0.0 -0.015960122 -3.2067012999999998 0.0 -0.0091276485 -3.1945825 0.0 -0.004125278400000001 -3.8652925000000002 0.0 -0.11941502 -3.9063709 0.0 -0.09367486800000001 -3.9136226 0.0 -0.071312979 -3.8990879 0.0 -0.051873427 -3.8726868999999997 0.0 -0.036419544 -3.8421847999999996 0.0 -0.024438937999999997 -3.8132328999999996 0.0 -0.015534463 -3.7898512 0.0 -0.009048407900000001 -3.7747641000000005 0.0 -0.0041249353 -4.5654683 0.0 -0.11497537 -4.6015501 0.0 -0.09295202 -4.6009307 0.0 -0.072967567 -4.5770898 0.0 -0.055187821 -4.541355599999999 0.0 -0.040307615 -4.5022721 0.0 -0.028292082000000003 -4.4661007 0.0 -0.018818101 -4.4372807 0.0 -0.011422301000000001 -4.4188241999999995 0.0 -0.0053725652 -5.3468385000000005 0.0 -0.12449081 -5.3749747 0.0 -0.10637708 -5.364168599999999 0.0 -0.08808697 -5.3291674 0.0 -0.070514135 -5.282506 0.0 -0.054358285 -5.2335415 0.0 -0.040421091 -5.189151799999999 0.0 -0.028392594 -5.154179599999999 0.0 -0.018020106 -5.1319265 0.0 -0.008740456800000001 -6.213334099999999 0.0 -0.16028045 -6.2309871 0.0 -0.14359067 -6.2081614 0.0 -0.12432354 -6.1604295 0.0 -0.10401843 -6.1014724000000005 0.0 -0.083699867 -6.0414677 0.0 -0.06471218200000001 -5.9879189 0.0 -0.047112484 -5.946132700000001 0.0 -0.030719411000000002 -5.9196591 0.0 -0.015166041000000002 -7.1689048 0.0 -0.23300312 -7.1742949000000005 0.0 -0.21375862 -7.1380525 0.0 -0.18946902 -7.0765285 0.0 -0.16189398 -7.004193300000001 0.0 -0.13329794 -6.932247599999999 0.0 -0.10504065 -6.8687391 0.0 -0.077735901 -6.8195143 0.0 -0.051381223 -6.7884922 0.0 -0.025561112999999996 -8.218461999999999 0.0 -0.35075763 -8.2107382 0.0 -0.32295635 -8.160324099999999 0.0 -0.28929919 -8.0844135 0.0 -0.24919499 -7.9981756 0.0 -0.20693922 -7.9135671 0.0 -0.16445468 -7.8395209 0.0 -0.12274418 -7.7824774 0.0 -0.08141014 -7.7466087 0.0 -0.040466882 -9.3689766 0.0 -0.51594281 -9.3469849 0.0 -0.47632757 -9.2826109 0.0 -0.42624071 -9.1923761 0.0 -0.36845866 -9.091898 0.0 -0.30819049 -8.9944296 0.0 -0.24583839 -8.9096518 0.0 -0.18355455 -8.8444538 0.0 -0.12268915 -8.8036737 0.0 -0.061474590999999995 -10.628244 0.0 -0.7385093 -10.591484 0.0 -0.67460483 -10.512785000000001 0.0 -0.60257781 -10.408574 0.0 -0.52147818 -10.294511 0.0 -0.43706375 -10.184280000000001 0.0 -0.35080793 -10.088816 0.0 -0.26169947 -10.015863000000001 0.0 -0.17387606 -9.970199599999999 0.0 -0.086443841 -12.002888 0.0 -1.0194086 -11.951753 0.0 -0.91990113 -11.85919 0.0 -0.82078654 -11.741389999999999 0.0 -0.70925206 -11.614302 0.0 -0.59204453 -11.492958 0.0 -0.47590604 -11.387713 0.0 -0.3592155 -11.307496 0.0 -0.23888519 -11.25714 0.0 -0.11967729 -13.498376 0.0 -1.3487053999999998 -13.433557 0.0 -1.2092443000000002 -13.329312 0.0 -1.0687229999999999 -13.198193 0.0 -0.92857718 -13.060182000000001 0.0 -0.77840531 -12.928265 0.0 -0.62292606 -12.815164999999999 0.0 -0.47102001 -12.728936000000001 0.0 -0.31570834 -12.675626 0.0 -0.15915605 -15.117578 0.0 -1.6969128 -15.040016 0.0 -1.5231011 -14.925301999999999 0.0 -1.3460447 -14.784841 0.0 -1.1723139 -14.639276999999998 0.0 -0.98595303 -14.501092000000002 0.0 -0.79257357 -14.382801 0.0 -0.59469414 -14.292029999999999 0.0 -0.40047857 -14.236245000000002 0.0 -0.19932202 -16.857773 0.0 -2.0586236 -16.772667000000002 0.0 -1.8576046000000002 -16.651747 0.0 -1.6507839 -16.507611999999998 0.0 -1.4375751 -16.359571 0.0 -1.2120978 -16.220102 0.0 -0.97782075 -16.099718 0.0 -0.73165059 -16.008205 0.0 -0.49169698 -15.951618 0.0 -0.24454494 -18.718647 0.0 -2.4374284999999998 -18.634415 0.0 -2.2166402 -18.515491 0.0 -1.9762981 -18.373028 0.0 -1.7211468999999997 -18.229029 0.0 -1.4504565 -18.093649 0.0 -1.1702286 -17.977107999999998 0.0 -0.87589866 -17.888374 0.0 -0.58460921 -17.832512 0.0 -0.29174715 -20.695598999999998 0.0 -2.81795 -20.620697 0.0 -2.5723822 -20.514591 0.0 -2.3008382000000003 -20.385502 0.0 -2.0072221999999997 -20.253505999999998 0.0 -1.6883453999999998 -20.129676999999997 0.0 -1.3601986000000001 -20.023808 0.0 -1.0211736999999999 -19.941612 0.0 -0.67756534 -19.888695000000002 0.0 -0.33994442 -22.785467 0.0 -3.1967044 -22.733759 0.0 -2.926127 -22.653114000000002 0.0 -2.6202729 -22.550398 0.0 -2.2850648999999996 -22.439238 0.0 -1.9167048999999998 -22.335410999999997 0.0 -1.5411854 -22.245752 0.0 -1.155286 -22.175320000000003 0.0 -0.76467466 -22.128076999999998 0.0 -0.38619795 -24.986385000000002 0.0 -3.5742702000000004 -24.973195999999998 0.0 -3.2690787 -24.932266000000002 0.0 -2.9230478 -24.86747 0.0 -2.5407748 -24.78956 0.0 -2.1234342999999996 -24.715 0.0 -1.7012212 -24.647457 0.0 -1.2700398000000002 -24.593946 0.0 -0.83770514 -24.554942999999998 0.0 -0.42595714 -27.297438 0.0 -3.9375849 -27.338178999999997 0.0 -3.5890348 -27.352407 0.0 -3.195132 -27.338137 0.0 -2.7627165000000002 -27.304756 0.0 -2.2952428 -27.268221 0.0 -1.8280256999999998 -27.230162 0.0 -1.3604143999999998 -27.198303000000003 0.0 -0.89765495 -27.171389 0.0 -0.44711792 -29.715544 0.0 -4.2743745 -29.82725 0.0 -3.8723171 -29.911554 0.0 -3.4233994 -29.960728000000003 0.0 -2.9364476 -29.979846999999996 0.0 -2.4283335 -29.991460999999997 0.0 -1.9121183000000002 -29.988203000000002 0.0 -1.4144803999999997 -29.981043 0.0 -0.94002098 -29.970347999999998 0.0 -0.46892002 -32.23896 0.0 -4.5712409 -32.438538 0.0 -4.106946499999999 -32.606747 0.0 -3.5971425000000004 -32.731922 0.0 -3.050596 -32.819546 0.0 -2.4921834 -32.873447 0.0 -1.9566058000000002 -32.910057 0.0 -1.4341701999999998 -32.930434999999996 0.0 -0.95130599 -32.936653 0.0 -0.47032711 -34.864323 0.0 -4.8178782 -35.163887 0.0 -4.3003082 -35.434017 0.0 -3.7084348 -35.643463 0.0 -3.1029963 -35.803406 0.0 -2.4973106 -35.915134 0.0 -1.9185566000000003 -35.983757000000004 0.0 -1.4031296 -36.030746 0.0 -0.91416842 -36.055031 0.0 -0.45035112 -37.58498 0.0 -4.9977942 -38.005905 0.0 -4.428486299999999 -38.379669 0.0 -3.7754722000000003 -38.688793 0.0 -3.0815721000000003 -38.920612 0.0 -2.4362733 -39.086205 0.0 -1.8401387999999999 -39.196075 0.0 -1.3064368 -39.263569 0.0 -0.83041936 -39.299908 0.0 -0.40599975 -40.376064 0.0 -5.0694051 -40.93671 0.0 -4.464161900000001 -41.433353000000004 0.0 -3.7614558 -41.835289 0.0 -3.0307949 -42.14349 0.0 -2.3361847 -42.363533000000004 0.0 -1.7153962999999999 -42.507542 0.0 -1.1836556 -42.593063 0.0 -0.73574716 -42.636581 0.0 -0.35061702 -43.188728000000005 0.0 -5.0543065 -43.898959999999995 0.0 -4.4060535000000005 -44.531597 0.0 -3.6687758 -45.041756 0.0 -2.8958871 -45.428703000000006 0.0 -2.1753127999999995 -45.697285 0.0 -1.5599313999999997 -45.868744 0.0 -1.0574746000000002 -45.967968 0.0 -0.64913642 -46.008041 0.0 -0.30007958 -45.915157 0.0 -4.9048576 -46.786861 0.0 -4.1996913000000005 -47.568878000000005 0.0 -3.4440041 -48.197578 0.0 -2.6778541000000002 -48.656601 0.0 -1.9670671999999998 -48.966682 0.0 -1.379069 -49.158611 0.0 -0.91593516 -49.251789 0.0 -0.54208392 -49.300323 0.0 -0.25442722 -48.391582 0.0 -4.6388416 -49.411640000000006 0.0 -3.9209559 -50.343365000000006 0.0 -3.1388762000000003 -51.088211 0.0 -2.3977721 -51.621002000000004 0.0 -1.7347965 -51.974106 0.0 -1.2135109 -52.169018 0.0 -0.77617949 -52.259468 0.0 -0.46418819 -52.3134 0.0 -0.22546278 -50.468895 0.0 -4.1664176 -51.616421 0.0 -3.4148116 -52.652088 0.0 -2.6531994 -53.476043999999995 0.0 -2.0026884 -54.062302 0.0 -1.4710295 -54.46536999999999 0.0 -1.0867312 -54.737255000000005 0.0 -0.78253698 -54.853367000000006 0.0 -0.47079101 -54.933903 0.0 -0.24211541 -52.02557 0.0 -3.4129504999999996 -53.265804 0.0 -2.6189055 -54.396416 0.0 -1.9440069 -55.302119999999995 0.0 -1.5050746000000002 -55.959412 0.0 -1.2037483 -56.451407999999994 0.0 -0.98609215 -56.762446999999995 0.0 -0.70905739 -56.895545999999996 0.0 -0.41400552 -57.022076 0.0 -0.204257 -53.133635999999996 0.0 -2.2845426 -54.494839 0.0 -1.3667684 -55.685233999999994 0.0 -0.78907722 -56.63841600000001 0.0 -0.62206358 -57.348735999999995 0.0 -0.48874348 -57.950481 0.0 -0.49030396 -58.298363 0.0 -0.38440752 -58.524685 0.0 -0.278575 -58.67609399999999 0.0 -0.096590914 -53.614799 0.0 -1.4670444999999999 -54.953037 0.0 -0.29310662 -56.189663 0.0 0.1005434 -57.18544 0.0 -0.024392703999999998 -57.904713 0.0 -0.31488389 -58.567326 0.0 -0.79932171 -59.081322 0.0 -1.0746946000000002 -59.520966 0.0 -1.0918225000000001 -59.797089 0.0 -0.66511214 -52.338024 0.0 -2.6154592 -53.751796999999996 0.0 -1.2153466 -55.025742 0.0 -0.78813219 -56.280818999999994 0.0 -1.342868 -57.359024 0.0 -2.2534799999999997 -58.43111 0.0 -3.126801 -59.28106700000001 0.0 -3.3040254 -59.87768199999999 0.0 -2.7119887 -60.351535999999996 0.0 -1.5356049999999999 -48.369690000000006 0.0 -9.0613976 -50.190979 0.0 -8.0957413 -52.21133 0.0 -7.883735700000001 -54.044403 0.0 -8.0338373 -55.258972 0.0 -8.048454300000001 -55.989712 0.0 -7.717436800000001 -56.29081 0.0 -6.7405467 -56.422478000000005 0.0 -5.0574937 -56.464180000000006 0.0 -2.7233706 -32.085243 0.0 -8.5014515 -33.732849 0.0 -7.881752499999999 -35.261536 0.0 -7.766067999999999 -36.535786 0.0 -7.9290652 -37.495556 0.0 -8.138395299999999 -38.142016999999996 0.0 -8.0035553 -38.522774 0.0 -7.1560202 -38.712505 0.0 -5.4371977 -38.788506 0.0 -2.9447978 -18.748022 0.0 -6.3210478 -20.07552 0.0 -6.0713710999999995 -21.355061 0.0 -6.3902264 -22.476851 0.0 -7.012567999999999 -23.380117000000002 0.0 -7.6347318 -24.047247 0.0 -7.818537700000001 -24.49482 0.0 -7.1705437000000005 -24.763192999999998 0.0 -5.5300479000000005 -24.899523000000002 0.0 -3.0182436000000004 -9.4530897 0.0 -4.601482900000001 -10.244883999999999 0.0 -4.5458388 -11.076553 0.0 -5.1326203 -11.867341999999999 0.0 -6.057285299999999 -12.558686999999999 0.0 -6.970069400000001 -13.116484 0.0 -7.403119099999999 -13.529057 0.0 -6.944716499999999 -13.803595000000001 0.0 -5.4275727 -13.957441000000001 0.0 -2.9829407000000003 -1.7605858 0.0 -3.6772072000000002 -1.9993792000000001 0.0 -3.6127827000000003 -2.3391123 0.0 -4.263706200000001 -2.7325432000000003 0.0 -5.2960500999999995 -3.1321106 0.0 -6.340858900000001 -3.4976491999999997 0.0 -6.917137599999999 -3.7988517 0.0 -6.5998182 -4.0193181000000004 0.0 -5.2110071 -4.152339 0.0 -2.8795203999999996 6.2903886 0.0 -3.5616364000000003 6.4577637 0.0 -3.3345964 6.5167918 0.0 -3.8779957 6.4782915 0.0 -4.8460264 6.3681293 0.0 -5.875232700000001 6.2190037 0.0 -6.4853864 6.0649681 0.0 -6.2431908 5.9341459 0.0 -4.9585195 5.8471947 0.0 -2.7490294 15.414804 0.0 -4.0225 15.768607999999999 0.0 -3.5722059999999995 16.061237 0.0 -3.9088928999999997 16.26803 0.0 -4.7026405 16.385883 0.0 -5.613186799999999 16.428179 0.0 -6.1715765 16.418694 0.0 -5.942439599999999 16.385199 0.0 -4.7251139 16.352989 0.0 -2.6220244999999998 25.253481 0.0 -4.745313200000001 25.593918 0.0 -4.0842924 25.9561 0.0 -4.1920662 26.284916 0.0 -4.7723489 26.546028000000003 0.0 -5.5169301 26.726340999999998 0.0 -5.9748049000000005 26.831834999999998 0.0 -5.715516099999999 26.881811 0.0 -4.532184099999999 26.899171999999997 0.0 -2.5122134999999997 35.036465 0.0 -5.447227 35.24184 0.0 -4.631022 35.560776000000004 0.0 -4.5434337 35.913921 0.0 -4.926384400000001 36.238754 0.0 -5.504961499999999 36.496265 0.0 -5.8496847 36.674335 0.0 -5.5415668 36.780479 0.0 -4.3729248 36.832916 0.0 -2.4184256 44.084759000000005 0.0 -5.944480400000001 44.124252 0.0 -5.0425057 44.352009 0.0 -4.8184719000000005 44.671177 0.0 -5.0488787 44.998775 0.0 -5.4895825 45.277854999999995 0.0 -5.7344289 45.482048 0.0 -5.3807292 45.611354999999996 0.0 -4.2244616 45.679001 0.0 -2.3305092 51.798687 0.0 -6.187106099999999 51.562785999999996 0.0 -5.2651687 51.531292 0.0 -4.957730799999999 51.554783 0.0 -5.073677099999999 51.661896 0.0 -5.402984099999999 51.752682 0.0 -5.557829900000001 51.834773999999996 0.0 -5.1684556 51.897696999999994 0.0 -4.0379601 51.940391999999996 0.0 -2.2226515 55.270270999999994 0.0 -6.4909658 54.726172999999996 0.0 -5.4494143 54.301441000000004 0.0 -5.0020647 54.001373 0.0 -4.988690900000001 53.824123 0.0 -5.1962667 53.73488199999999 0.0 -5.269359099999999 53.687706000000006 0.0 -4.8522099999999995 53.667244 0.0 -3.7698544999999997 53.660675 0.0 -2.067687 56.301883999999994 0.0 -6.8088102 55.602931999999996 0.0 -5.682894200000001 55.084885 0.0 -5.124155 54.70855699999999 0.0 -4.974947900000001 54.41692 0.0 -5.0382957 54.22084 0.0 -4.999126 54.093132 0.0 -4.5479889 54.01929499999999 0.0 -3.5193684000000003 53.977596 0.0 -1.9354827000000001 56.72515500000001 0.0 -7.2019715 56.03532 0.0 -6.096815599999999 55.434555 0.0 -5.384428 54.949806 0.0 -5.0865792999999995 54.579792000000005 0.0 -5.002521 54.277106999999994 0.0 -4.842524099999999 54.038502 0.0 -4.321898 53.869431000000006 0.0 -3.2922589999999996 53.773120999999996 0.0 -1.7874898000000001 56.867191000000005 0.0 -7.3665709 56.11000799999999 0.0 -6.387557 55.36874 0.0 -5.7335725 54.804623 0.0 -5.4136548 54.352203 0.0 -5.1981201 53.987728000000004 0.0 -4.8791151 53.668903 0.0 -4.2242775 53.424259 0.0 -3.1498845 53.274246 0.0 -1.6910759999999998 56.798565 0.0 -7.7839079 55.96056 0.0 -6.6529579 55.295364 0.0 -6.0272117 54.656075 0.0 -5.655213400000001 54.1129 0.0 -5.3090272 53.619774 0.0 -4.858470400000001 53.189327 0.0 -4.1449981 52.849785 0.0 -3.0632825 52.629604 0.0 -1.6340787 56.711437 0.0 -7.861945599999999 55.773830000000004 0.0 -6.999214200000001 54.968304 0.0 -6.3431587 54.325665 0.0 -5.8026562 53.652775 0.0 -5.369473 53.030209 0.0 -4.8144312000000005 52.469688 0.0 -4.023922 52.036213000000004 0.0 -2.9215589 51.753634999999996 0.0 -1.5430615 56.623638 0.0 -7.8625312 55.47916800000001 0.0 -7.082639200000001 54.577968999999996 0.0 -6.493378599999999 53.690281000000006 0.0 -6.0602193 52.915358999999995 0.0 -5.372370200000001 52.204407 0.0 -4.6746578 51.555820000000004 0.0 -3.8034244 51.033276 0.0 -2.7138784 50.689083000000004 0.0 -1.4191034 56.473263 0.0 -7.6029987000000006 55.057739 0.0 -6.9592222999999995 53.950012 0.0 -6.4550591 52.971687 0.0 -5.953012 52.046065999999996 0.0 -5.399951000000001 51.129261 0.0 -4.650089299999999 50.438835 0.0 -3.6194196000000005 49.843914 0.0 -2.5359675999999998 49.452713 0.0 -1.315796 56.483943999999994 0.0 -7.2190189 54.612915 0.0 -6.6068077 53.251816000000005 0.0 -6.1738496 52.093196999999996 0.0 -5.7829189 51.004417 0.0 -5.1755295 50.026501 0.0 -4.399114099999999 49.17131 0.0 -3.4887072999999997 48.523228 0.0 -2.3684316 48.096004 0.0 -1.2084851 56.84614200000001 0.0 -6.578124000000001 54.351677 0.0 -6.0647998 52.602421 0.0 -5.7234087 51.181263 0.0 -5.3585696 49.913532000000004 0.0 -4.8974328 48.796646 0.0 -4.1464343 47.868942 0.0 -3.2108119 47.178101 0.0 -2.1810141 46.677242 0.0 -1.1344743 57.786667 0.0 -5.799923400000001 54.402229000000005 0.0 -5.34553 52.073170000000005 0.0 -4.9802456 50.371883000000004 0.0 -4.724010900000001 48.877594 0.0 -4.3799028 47.595951 0.0 -3.8132885 46.563099 0.0 -2.973305 45.785599 0.0 -1.9644599999999999 45.318721999999994 0.0 -0.98609728 59.514904 0.0 -4.9845653 55.191929 0.0 -4.5308886 52.121574 0.0 -4.1943383 49.813122 0.0 -3.8611767 48.042763 0.0 -3.6489483999999996 46.541775 0.0 -3.2823398 45.358383 0.0 -2.6307971 44.506706 0.0 -1.7702508000000001 43.970211 0.0 -0.82775927 62.467918000000004 0.0 -4.268677200000001 56.861961 0.0 -3.7553964 52.828327 0.0 -3.3822083 49.817768 0.0 -2.9996624 47.496559000000005 0.0 -2.6640456 45.791453999999995 0.0 -2.4713607000000004 44.470222 0.0 -2.1297194999999998 43.459137 0.0 -1.4278623 42.863246999999994 0.0 -0.67823201 67.745705 0.0 -4.1556287 60.200111 0.0 -3.3199688999999997 54.452774 0.0 -2.6668184 50.710033 0.0 -2.2257998 47.772034000000005 0.0 -1.8004516 45.590485 0.0 -1.4132986 43.974808 0.0 -1.2464913999999998 42.859035 0.0 -0.93726331 42.235031 0.0 -0.48469397 74.66812900000001 0.0 -4.719451 65.614708 0.0 -3.3892024 58.283543 0.0 -2.5190713 52.553284 0.0 -1.7260153000000003 48.717793 0.0 -1.0660909 46.120518 0.0 -0.47280851 44.405727 0.0 -0.20230968 42.892044 0.0 -0.27561748 41.991383 0.0 -0.17075621 82.10593399999999 0.0 -5.5131803 72.377716 0.0 -3.6051121 64.057404 0.0 -2.5442691 56.972931 0.0 -1.6875468 51.308521 0.0 -0.90566766 47.61063 0.0 -0.10094349 45.620262 0.0 0.65775979 44.003464 0.0 0.61359227 42.975506 0.0 0.12282106 79.18364 0.0 -4.0693498 70.63649699999999 0.0 -2.5447588 62.558043999999995 0.0 -1.2684008999999998 55.994942 0.0 -0.65607858 50.837821999999996 0.0 -0.10001059 47.30838 0.0 0.13039307 45.038715 0.0 0.33066612 43.082896999999996 0.0 -0.14295162 68.794945 0.0 -1.1103418999999999 61.947708 0.0 -0.18607166 55.926567000000006 0.0 0.48819092 51.422352000000004 0.0 0.39853758 47.15279 0.0 -0.42952004 44.102379 0.0 -0.82002258 61.842098 0.0 0.78375947 57.355465 0.0 1.2128906000000002 53.32945600000001 0.0 0.82897103 49.896278 0.0 0.032894224 -1.0840738 0.0 -3.9578003e-07 -1.084938 0.0 0.0033862549 -1.0873518 0.0 0.0076186759 -1.0908108 0.0 0.0133904 -1.0943506 0.0 0.021601185 -1.0966618000000001 0.0 0.032632336 -1.0957428999999999 0.0 0.047362602999999996 -1.0891886 0.0 0.065875888 -1.3987886999999999 0.0 6.7462918e-07 -1.4001186 0.0 0.0045878901 -1.4038746000000002 0.0 0.01011274 -1.4094 0.0 0.017505033 -1.4154997 0.0 0.027661118999999998 -1.4204526000000002 0.0 0.041334014 -1.421798 0.0 0.059090249000000004 -1.4161766000000002 0.0 0.08181311200000001 -1.7788648999999999 0.0 1.3212034e-06 -1.7807636000000002 0.0 0.005162715 -1.7861786 0.0 0.011279421000000001 -1.7942598 0.0 0.019450335 -1.8035617 0.0 0.03040278 -1.8117862 0.0 0.045106455999999996 -1.8160279 0.0 0.064063802 -1.8120593999999997 0.0 0.08799658699999999 -2.201828 0.0 -1.1030684e-06 -2.2043884 0.0 0.0051075588 -2.2117195 0.0 0.011188215 -2.2228115 0.0 0.019262044 -2.2358446 0.0 0.030211653999999998 -2.2481322 0.0 0.044755897999999995 -2.2560119999999997 0.0 0.063833743 -2.2544897 0.0 0.08747377199999999 -2.6699048999999997 0.0 -8.8420165e-08 -2.6732235 0.0 0.0046422803 -2.6827741 0.0 0.010212172 -2.6973515 0.0 0.017725376 -2.7148323 0.0 0.028075207 -2.7320542000000003 0.0 0.041855972000000005 -2.7446599 0.0 0.060178943 -2.7467787 0.0 0.08258773400000001 -3.1903865000000002 0.0 1.4296810999999999e-06 -3.1945807999999998 0.0 0.0041283602 -3.206701 0.0 0.0091273971 -3.2253461 0.0 0.015959602 -3.2481046 0.0 0.025365202000000003 -3.2713332000000004 0.0 0.038264778 -3.2900565000000004 0.0 0.055002753 -3.2974131 0.0 0.076013498 -3.7695611000000007 0.0 -1.6318590000000001e-06 -3.7747622000000005 0.0 0.0041253841 -3.789849 0.0 0.0090472493 -3.8132341 0.0 0.015534253 -3.8421845 0.0 0.024439147 -3.8726871 0.0 0.036418959 -3.8990855000000004 0.0 0.05187314 -3.9136260000000003 0.0 0.071311526 -4.4124761 0.0 3.8119242e-07 -4.418829 0.0 0.0053721829 -4.4372826 0.0 0.011421296000000001 -4.4661031 0.0 0.018817535 -4.5022779 0.0 0.028292062000000003 -4.541360900000001 0.0 0.040308118 -4.577083099999999 0.0 0.05518534 -4.6009302000000005 0.0 0.072966695 -5.1242971 0.0 -2.2089171e-07 -5.131928 0.0 0.0087397816 -5.1541829 0.0 0.018019132 -5.1891513 0.0 0.028393431 -5.2335353 0.0 0.040419212999999996 -5.2825084 0.0 0.054358076 -5.329164 0.0 0.070511095 -5.3641667 0.0 0.088086419 -5.910611599999999 0.0 1.6602189e-06 -5.9196587 0.0 0.015170527 -5.9461336 0.0 0.030719092000000003 -5.987915 0.0 0.04711342599999999 -6.041474299999999 0.0 0.06471224099999999 -6.1014724000000005 0.0 0.08370129 -6.1604328 0.0 0.10401567 -6.2081513 0.0 0.12432526 -6.7779064 0.0 -5.211727099999999e-06 -6.788491199999999 0.0 0.025556309 -6.8195205 0.0 0.051381315999999996 -6.8687372 0.0 0.077733174 -6.9322433000000006 0.0 0.10503922 -7.0041928 0.0 0.13329911 -7.07653 0.0 0.1618951 -7.138054400000001 0.0 0.18946876 -7.7343454 0.0 2.2240188e-06 -7.746615400000001 0.0 0.040469758 -7.7824793 0.0 0.08141393200000001 -7.8395205 0.0 0.12274289 -7.913564200000001 0.0 0.16445532 -7.998162299999999 0.0 0.20693818 -8.0844116 0.0 0.24919617 -8.160324099999999 0.0 0.28929785 -8.789785400000001 0.0 1.2447299e-06 -8.803672800000001 0.0 0.061477326 -8.844447099999998 0.0 0.12269008 -8.9096537 0.0 0.1835545 -8.994437199999998 0.0 0.24583891 -9.091898 0.0 0.30819151 -9.1923761 0.0 0.36845881 -9.282604199999998 0.0 0.42624307 -9.9545021 0.0 2.5546162e-06 -9.9702129 0.0 0.086445853 -10.015872 0.0 0.17387189 -10.088817 0.0 0.2616953 -10.184277999999999 0.0 0.35080871 -10.294518 0.0 0.43706167 -10.408586999999999 0.0 0.52147961 -10.512801 0.0 0.60257721 -11.240163 0.0 1.5140629e-06 -11.257168 0.0 0.11968029 -11.307495 0.0 0.23888421 -11.387723 0.0 0.3592146 -11.492955 0.0 0.47590524 -11.614315 0.0 0.59204149 -11.74138 0.0 0.70924962 -11.859179 0.0 0.82078624 -12.657343 0.0 2.9897273999999997e-07 -12.675632 0.0 0.15915708 -12.728951 0.0 0.31570733 -12.815171000000001 0.0 0.4710198 -12.928253 0.0 0.62292594 -13.060162 0.0 0.77840507 -13.198182999999998 0.0 0.92858022 -13.329331 0.0 1.0687121000000002 -14.218167999999999 0.0 -4.3330965e-06 -14.236256 0.0 0.19932507 -14.292026000000002 0.0 0.40047973 -14.382809 0.0 0.59469354 -14.501088000000001 0.0 0.79257661 -14.639270000000002 0.0 0.98595679 -14.784851000000002 0.0 1.1723139999999999 -14.925293 0.0 1.3460524999999999 -15.932491 0.0 1.3773542e-05 -15.951617 0.0 0.24455716 -16.008173 0.0 0.49170703 -16.099712 0.0 0.73165417 -16.220108 0.0 0.97782975 -16.35955 0.0 1.2121063 -16.507578 0.0 1.4375823 -16.651745000000002 0.0 1.6507808999999998 -17.812815 0.0 6.409334700000001e-06 -17.832546 0.0 0.29174745 -17.888369 0.0 0.58461457 -17.977119000000002 0.0 0.87590867 -18.093641 0.0 1.1702417999999999 -18.229021 0.0 1.4504701 -18.372954999999997 0.0 1.7211596999999998 -18.515463 0.0 1.9763023999999998 -19.870226000000002 0.0 4.90196e-06 -19.888693 0.0 0.33995265 -19.941614 0.0 0.67758238 -20.023792 0.0 1.021188 -20.129639 0.0 1.3602237 -20.253492 0.0 1.6883743000000002 -20.385482999999997 0.0 2.0072353 -20.514547 0.0 2.3008444 -22.11212 0.0 7.7639488e-06 -22.128076999999998 0.0 0.38619453 -22.175320000000003 0.0 0.76467836 -22.245739 0.0 1.1553034 -22.335373 0.0 1.5412158999999999 -22.43919 0.0 1.9167393 -22.550364000000002 0.0 2.2850857 -22.653064999999998 0.0 2.6202803 -24.54215 0.0 2.0875243e-05 -24.554953 0.0 0.42597637 -24.593969 0.0 0.83772349 -24.647448999999998 0.0 1.270058 -24.715015 0.0 1.7012566000000002 -24.789516 0.0 2.1234756 -24.867495 0.0 2.5408132 -24.932259 0.0 2.9230304 -27.160477 0.0 -6.9658308e-06 -27.171415000000003 0.0 0.4471474 -27.198309000000002 0.0 0.89766896 -27.230171000000002 0.0 1.3604468 -27.268244 0.0 1.8280573 -27.304778999999996 0.0 2.2952787999999997 -27.338182 0.0 2.7627422999999998 -27.352409 0.0 3.1951403999999997 -29.966990000000003 0.0 -6.5641143e-07 -29.970340999999998 0.0 0.46892521 -29.981033 0.0 0.94003242 -29.988224 0.0 1.4144961999999999 -29.991429999999998 0.0 1.9121457 -29.979891 0.0 2.4283620999999997 -29.960712 0.0 2.936461 -29.911590999999998 0.0 3.4233894 -32.938251 0.0 -1.2135293999999999e-05 -32.936657000000004 0.0 0.47034115 -32.930393 0.0 0.95130336 -32.910061 0.0 1.4341754 -32.873451 0.0 1.9566150000000002 -32.819565000000004 0.0 2.4921917999999996 -32.731976 0.0 3.0506083999999998 -32.60675 0.0 3.5971467000000006 -36.061901 0.0 -1.1915157999999999e-05 -36.055027 0.0 0.45033619 -36.030712 0.0 0.91418058 -35.983779999999996 0.0 1.4031377 -35.915172999999996 0.0 1.9185648000000002 -35.803447999999996 0.0 2.4973142000000004 -35.643485999999996 0.0 3.1030078 -35.434093 0.0 3.7084482000000003 -39.311077000000004 0.0 -4.4234257e-06 -39.2999 0.0 0.40600768 -39.263493 0.0 0.83042812 -39.196129 0.0 1.3064381999999999 -39.086246 0.0 1.8401408 -38.920593 0.0 2.4362721 -38.688831 0.0 3.0815718 -38.379661999999996 0.0 3.7754669 -42.649734 0.0 1.0852651000000001e-05 -42.636573999999996 0.0 0.35063189 -42.593078999999996 0.0 0.73574668 -42.507529999999996 0.0 1.1836598999999999 -42.363525 0.0 1.7153995 -42.143372 0.0 2.33619 -41.835274 0.0 3.0308011 -41.433395000000004 0.0 3.7614596 -46.019527000000004 0.0 -4.0763333999999994e-06 -46.007961 0.0 0.30007204 -45.967964 0.0 0.64915276 -45.868763 0.0 1.057479 -45.6973 0.0 1.559936 -45.428699 0.0 2.1753068 -45.041821 0.0 2.8958964 -44.531631 0.0 3.6687958 -49.312588 0.0 -2.5078189e-06 -49.300216999999996 0.0 0.25442773 -49.25182 0.0 0.54209012 -49.158524 0.0 0.91593635 -48.966640000000005 0.0 1.3790702 -48.656609 0.0 1.9670558999999999 -48.197604999999996 0.0 2.6778517 -47.56884 0.0 3.4440107 -52.337013 0.0 4.778698e-06 -52.313266999999996 0.0 0.22547245 -52.25946 0.0 0.46418691 -52.169022 0.0 0.77618241 -51.974232 0.0 1.2135082 -51.621047999999995 0.0 1.7347933999999998 -51.088139 0.0 2.397759 -50.343323 0.0 3.1388791 -54.959553 0.0 -3.7657737000000003e-06 -54.933944999999994 0.0 0.2421203 -54.853409 0.0 0.4707962 -54.737225 0.0 0.78253049 -54.465382 0.0 1.0867288999999998 -54.062325 0.0 1.4710228 -53.476085999999995 0.0 2.0026951 -52.652042 0.0 2.6531963 -57.016697 0.0 3.1312811e-06 -57.022121 0.0 0.20426284 -56.89551899999999 0.0 0.41401383 -56.76236 0.0 0.70903879 -56.451427 0.0 0.98608577 -55.959389 0.0 1.2037458 -55.302009999999996 0.0 1.5050781000000002 -54.396564 0.0 1.9440432 -58.682281 0.0 -1.0883668e-05 -58.675948999999996 0.0 0.096605673 -58.524811 0.0 0.27860883 -58.298378 0.0 0.38440779 -57.950405 0.0 0.4902963 -57.348705 0.0 0.48871347 -56.638424 0.0 0.62205762 -55.685219 0.0 0.78907365 -59.866875 0.0 5.9444574e-07 -59.797134 0.0 0.66512191 -59.520874 0.0 1.0918229 -59.081318 0.0 1.0747056000000001 -58.567287 0.0 0.79932749 -57.90469399999999 0.0 0.31487495 -57.185393999999995 0.0 0.02438394 -56.189617000000005 0.0 -0.1005512 -60.588829000000004 0.0 2.3080676e-05 -60.351498 0.0 1.5355905 -59.877777 0.0 2.7119761000000002 -59.281032999999994 0.0 3.3040426 -58.431034 0.0 3.126796 -57.359127 0.0 2.2534885 -56.280861 0.0 1.342885 -55.025673 0.0 0.78815037 -56.467789 0.0 5.2350515e-06 -56.464142 0.0 2.7233787 -56.422501000000004 0.0 5.057487 -56.290829 0.0 6.7405515 -55.98967 0.0 7.717437299999999 -55.258953000000005 0.0 8.04846 -54.044368999999996 0.0 8.0338278 -52.211308 0.0 7.8837538 -38.8069 0.0 -5.7259022e-06 -38.788467 0.0 2.9448182999999997 -38.712478999999995 0.0 5.4371953 -38.522713 0.0 7.1560159 -38.141983 0.0 8.0035534 -37.495579 0.0 8.138405800000001 -36.535804999999996 0.0 7.929081 -35.261482 0.0 7.766075099999999 -24.940441 0.0 3.5849807000000003e-06 -24.89949 0.0 3.0182357000000004 -24.763172 0.0 5.5300322 -24.49486 0.0 7.170544099999999 -24.047209 0.0 7.818550599999999 -23.380085 0.0 7.6347337 -22.4769 0.0 7.012567999999999 -21.355024 0.0 6.3902388 -14.006634 0.0 -5.6702993e-06 -13.957422 0.0 2.9829409 -13.803524 0.0 5.4275742 -13.529051 0.0 6.944722200000001 -13.116462 0.0 7.4031286 -12.558637 0.0 6.9700875 -11.867334 0.0 6.057313400000001 -11.076622 0.0 5.1326361 -4.1966081 0.0 -1.6460981e-06 -4.1522713 0.0 2.8795104 -4.0192981 0.0 5.2110009 -3.7988839 0.0 6.5998292 -3.4976921 0.0 6.91714 -3.1322179 0.0 6.3408766 -2.7324696 0.0 5.2960682 -2.3392005 0.0 4.2637353 5.8168006 0.0 3.3971446000000005e-06 5.8472142 0.0 2.7490315 5.9341679 0.0 4.9585152 6.064988099999999 0.0 6.2431931 6.2189684000000005 0.0 6.4853835 6.3680577000000005 0.0 5.8752484 6.4782648 0.0 4.8460531 6.516768900000001 0.0 3.8780382000000007 16.340092000000002 0.0 3.4835829999999997e-06 16.353012 0.0 2.6220658 16.385216 0.0 4.7251043 16.418631 0.0 5.9424380999999995 16.428148 0.0 6.1715732 16.385822 0.0 5.6131902 16.268010999999998 0.0 4.7026544 16.061177999999998 0.0 3.9089410000000004 26.902687 0.0 4.0106795e-05 26.899272999999997 0.0 2.5122538 26.881796 0.0 4.532201799999999 26.831907 0.0 5.715507 26.726315999999997 0.0 5.9748000999999995 26.546 0.0 5.516942 26.284816999999997 0.0 4.7723751 25.956135 0.0 4.1921005 36.848103 0.0 2.717803e-05 36.832886 0.0 2.4184349 36.780518 0.0 4.3729277 36.674416 0.0 5.5415564 36.496227000000005 0.0 5.8496742 36.238747 0.0 5.5049667 35.913921 0.0 4.9263905999999995 35.560802 0.0 4.5434399 45.699515999999996 0.0 3.1306932000000004e-05 45.678982 0.0 2.3305363999999997 45.611313 0.0 4.2244573 45.482056 0.0 5.380725900000001 45.277840000000005 0.0 5.7344112 44.998771999999995 0.0 5.489574 44.671172999999996 0.0 5.0488691 44.352062 0.0 4.8185029 51.965427000000005 0.0 1.1246564000000002e-05 51.94043 0.0 2.2226944 51.897778 0.0 4.0379615 51.834763 0.0 5.1684427 51.752689000000004 0.0 5.5578151 51.662048 0.0 5.4029717 51.554749 0.0 5.0736742 51.531277 0.0 4.9577327 53.658787 0.0 1.1662167e-05 53.660725 0.0 2.067698 53.66724 0.0 3.7698591 53.687737 0.0 4.8522 53.734885999999996 0.0 5.2693553 53.824165 0.0 5.1962652 54.001208999999996 0.0 4.988689900000001 54.301403 0.0 5.0020666 53.960533 0.0 3.1846866e-06 53.977585 0.0 1.9355054 54.019245 0.0 3.5193809999999996 54.093284999999995 0.0 4.5479946 54.220989 0.0 4.9991226 54.416793999999996 0.0 5.0383019 54.708576 0.0 4.9749436 55.084872999999995 0.0 5.1241469 53.74359499999999 0.0 6.3396874e-07 53.773178 0.0 1.787498 53.86951800000001 0.0 3.2922672999999993 54.038444999999996 0.0 4.3219047 54.277039 0.0 4.842525 54.579742 0.0 5.0025105000000005 54.949771999999996 0.0 5.0865684 55.434467000000005 0.0 5.3844218 53.237671 0.0 -2.9050425e-06 53.274269 0.0 1.6910933000000001 53.424308999999994 0.0 3.1498775 53.668972 0.0 4.224278900000001 53.98767900000001 0.0 4.8791056 54.352244999999996 0.0 5.1981134 54.804660999999996 0.0 5.4136639 55.368835 0.0 5.7335652999999995 52.552746 0.0 -5.2414834000000005e-06 52.629528 0.0 1.6340785 52.849773 0.0 3.0632772 53.189285 0.0 4.144993299999999 53.619735999999996 0.0 4.8584547 54.112945999999994 0.0 5.3090224 54.656174 0.0 5.6552224 55.29541 0.0 6.0272136 51.65506 0.0 1.5353333e-05 51.753746 0.0 1.5430627000000001 52.036186 0.0 2.9215579 52.469715 0.0 4.023921 53.030285 0.0 4.814433599999999 53.652767000000004 0.0 5.3694649000000005 54.325680000000006 0.0 5.802650900000001 54.968394999999994 0.0 6.3431406 50.567772 0.0 7.6870929e-06 50.689091 0.0 1.4191203000000001 51.033218 0.0 2.7138748 51.55571 0.0 3.8034222 52.204407 0.0 4.6746483 52.91537099999999 0.0 5.372364 53.690365 0.0 6.0602098 54.57800699999999 0.0 6.4933643 49.311054 0.0 1.2737073e-05 49.452721000000004 0.0 1.3157854 49.843971 0.0 2.5359666 50.438969 0.0 3.6194167 51.129257 0.0 4.6500802000000006 52.046017 0.0 5.399952900000001 52.971638 0.0 5.9530139 53.95006899999999 0.0 6.455049 47.946899 0.0 2.9028452000000005e-06 48.096004 0.0 1.2084864 48.523262 0.0 2.3684206000000003 49.171329 0.0 3.4887006 50.026569 0.0 4.3991189 51.004448 0.0 5.175525700000001 52.093143 0.0 5.7829027 53.251759 0.0 6.1738605 46.518017 0.0 6.804541e-06 46.677203999999996 0.0 1.1344868000000001 47.178078 0.0 2.1810259999999997 47.868961 0.0 3.210808 48.796654 0.0 4.146435299999999 49.913502 0.0 4.8974400000000005 51.181228999999995 0.0 5.3585744 52.602408999999994 0.0 5.723414900000001 45.070992 0.0 5.3619150999999996e-06 45.318699 0.0 0.98610353 45.785561 0.0 1.9644732 46.563114 0.0 2.9733037999999996 47.595928 0.0 3.8132900999999997 48.877663 0.0 4.379889 50.371857 0.0 4.7240195 52.073246000000005 0.0 4.9802227 43.763294 0.0 9.5925279e-06 43.970271999999994 0.0 0.82776332 44.50666 0.0 1.7702619 45.358383 0.0 2.6307973999999996 46.541733 0.0 3.282346 48.042774 0.0 3.6489432 49.813137 0.0 3.8611705 52.121601 0.0 4.1943231 42.688053000000004 0.0 1.6715785000000002e-05 42.863265999999996 0.0 0.67826408 43.459164 0.0 1.4278773 44.470271999999994 0.0 2.1297269 45.791515000000004 0.0 2.4713515999999998 47.496548 0.0 2.6640458 49.817741 0.0 2.9996591 52.82832 0.0 3.3821919 41.925274 0.0 1.7563747e-05 42.235058 0.0 0.48472425 42.859066 0.0 0.93729222 43.974815 0.0 1.246501 45.590472999999996 0.0 1.4132975 47.772064 0.0 1.8004339 50.709998999999996 0.0 2.2257936000000003 54.452751 0.0 2.6668181 41.663544 0.0 1.7435537e-05 41.991383 0.0 0.17079975 42.892097 0.0 0.27564409 44.405807 0.0 0.20231338 46.120529 0.0 0.47279727 48.7178 0.0 1.0660548 52.553309999999996 0.0 1.7259903000000003 58.283519999999996 0.0 2.5190463 42.511565999999995 0.0 3.1110016e-05 42.975506 0.0 -0.12276962 44.003433 0.0 -0.61355233 45.619953 0.0 -0.65785801 47.610603000000005 0.0 0.10092127 51.308514 0.0 0.90563828 56.972939000000004 0.0 1.6875174 64.057411 0.0 2.5442524 42.235123 0.0 2.8525479e-05 43.082893 0.0 0.14300634 45.038685 0.0 -0.33063072 47.308331 0.0 -0.13039041 50.83778 0.0 0.09997171199999999 55.994942 0.0 0.65603411 62.558014 0.0 1.2683563 70.636513 0.0 2.5447154 43.398109000000005 0.0 3.1048316e-05 44.102385999999996 0.0 0.82006979 47.152737 0.0 0.42955101 51.422306 0.0 -0.3985379 55.926487 0.0 -0.48821497 61.947639 0.0 0.18603039 68.794914 0.0 1.1103077 48.243373999999996 0.0 2.6901296000000002e-05 49.896248 0.0 -0.032858307999999996 53.329403000000006 0.0 -0.82894194 57.35540400000001 0.0 -1.2128912 61.84206 0.0 -0.78378457 -1.0739703 0.0 0.08824487 -1.0466719 0.0 0.11523691 -1.0052221 0.0 0.14453071 -0.94711566 0.0 0.17623088 -0.87109685 0.0 0.20750773 -0.77523184 0.0 0.23553085 -0.65923166 0.0 0.25357497 -1.4000013 0.0 0.10854711 -1.3682598999999998 0.0 0.14039104 -1.3175364 0.0 0.17591608 -1.2453754 0.0 0.21241808 -1.1490733999999998 0.0 0.24641776 -1.022934 0.0 0.27499813 -0.85988593 0.0 0.29111779 -0.6473484 0.0 0.33211899 -1.7948554 0.0 0.11651871 -1.7585125 0.0 0.14917058 -1.698257 0.0 0.18492554 -1.6106162 0.0 0.22179186 -1.4933999 0.0 0.25471973 -1.3380697 0.0 0.28556514 -1.1359534 0.0 0.3103199 -0.86751151 0.0 0.34922338 -2.2370462000000004 0.0 0.1160259 -2.196799 0.0 0.14775518 -2.1273868 0.0 0.18285082 -2.0252626 0.0 0.21872681 -1.8883225 0.0 0.25145727 -1.7074502 0.0 0.2825346 -1.4685888 0.0 0.30950522 -1.1374440000000001 0.0 0.35730481 -2.7306258999999997 0.0 0.10988032 -2.6878528999999998 0.0 0.14034024 -2.6109232999999996 0.0 0.17359436 -2.4960382 0.0 0.20798615 -2.3407307 0.0 0.24003452 -2.1362064 0.0 0.27067626 -1.8591218999999997 0.0 0.30111933 -1.4577138 0.0 0.36617923 -3.2846123999999994 0.0 0.1010495 -3.2413392000000005 0.0 0.12974641 -3.1593471 0.0 0.15996039 -3.0339683999999996 0.0 0.19195965 -2.8631661 0.0 0.2215569 -2.6365485 0.0 0.25199986 -2.3205267999999997 0.0 0.28908634 -1.8405532999999998 0.0 0.381567 -3.9063722999999997 0.0 0.093675144 -3.8652916 0.0 0.11941449 -3.7812147000000005 0.0 0.1451571 -3.648757 0.0 0.17298409 -3.4675634 0.0 0.19799733 -3.2208791000000003 0.0 0.23072171 -2.8678242999999997 0.0 0.27979136 -2.3019619 0.0 0.41217184 -4.6015487 0.0 0.092951238 -4.5654659 0.0 0.11497521 -4.4825702000000005 0.0 0.13545054 -4.3464789 0.0 0.15904689 -4.159712799999999 0.0 0.17841351 -3.8983321 0.0 0.2168653 -3.515938 0.0 0.282727 -2.8634887000000004 0.0 0.46771955 -5.374972799999999 0.0 0.10637672 -5.3468366 0.0 0.12449252 -5.2681222000000005 0.0 0.14127 -5.133925 0.0 0.15923631 -4.9456611 0.0 0.17550695 -4.6780567 0.0 0.22037005 -4.2792406 0.0 0.30194569 -3.5609059000000003 0.0 0.53365231 -6.2309933 0.0 0.14358729 -6.213336900000001 0.0 0.1602802 -6.143187 0.0 0.17387614 -6.0164184999999994 0.0 0.18608844 -5.8292684999999995 0.0 0.20156527 -5.5719175000000005 0.0 0.23962212 -5.1795926 0.0 0.32427263 -4.4633102 0.0 0.5424242 -7.174299700000001 0.0 0.21375768 -7.1689067 0.0 0.23299931 -7.111172200000001 0.0 0.24501893 -6.996746099999999 0.0 0.25175983 -6.828746799999999 0.0 0.25268352 -6.5987253 0.0 0.27264786 -6.257643700000001 0.0 0.3389864 -5.6377802 0.0 0.47910118 -8.210741 0.0 0.32295504 -8.2184687 0.0 0.35075787 -8.176253299999999 0.0 0.36352062 -8.0848656 0.0 0.36233413 -7.9503598 0.0 0.3553921 -7.7715855 0.0 0.37234545 -7.5230803 0.0 0.45663261 -6.958009700000001 0.0 0.70611763 -9.346989599999999 0.0 0.47632623 -9.3689718 0.0 0.51594073 -9.343735699999998 0.0 0.54365849 -9.2852573 0.0 0.55640203 -9.2082739 0.0 0.58601153 -9.1108751 0.0 0.72074485 -8.986537 0.0 1.0843153 -8.5321493 0.0 1.8350277 -10.591493 0.0 0.67460561 -10.628242 0.0 0.73850715 -10.623324 0.0 0.80505651 -10.608139 0.0 0.8637194 -10.620138 0.0 0.97861385 -10.676952 0.0 1.2785649 -10.747791000000001 0.0 1.9111093999999997 -10.581421 0.0 2.8464812999999998 -11.951761 0.0 0.9199149 -12.002894 0.0 1.0194104 -12.021662 0.0 1.1303091 -12.052813 0.0 1.2600499 -12.174560000000001 0.0 1.4620508999999997 -12.425004 0.0 1.8773066000000003 -12.782895 0.0 2.5944555 -13.022386000000001 0.0 3.5108633 -13.433542000000001 0.0 1.2092432 -13.498366 0.0 1.3487095 -13.539725 0.0 1.4962163999999998 -13.623044 0.0 1.6821685000000002 -13.846480999999999 0.0 1.9607421000000003 -14.292233 0.0 2.429096 -14.959866 0.0 3.1421161 -15.638365 0.0 4.0493068999999995 -15.040001 0.0 1.5231052999999999 -15.117569 0.0 1.6969085 -15.17646 0.0 1.8863743999999998 -15.303266 0.0 2.1098377999999998 -15.618402 0.0 2.4306200000000002 -16.241503 0.0 2.9108214 -17.203697000000002 0.0 3.6199841 -18.298849 0.0 4.5618644 -16.772635 0.0 1.8576013999999998 -16.85774 0.0 2.0586157 -16.930717 0.0 2.2725406 -17.092470000000002 0.0 2.5174582 -17.490682999999997 0.0 2.8564203 -18.280342 0.0 3.3443417999999996 -19.504301 0.0 4.0938248999999995 -20.962015 0.0 5.1005144 -18.634375 0.0 2.2166245 -18.718636 0.0 2.4374132 -18.798706 0.0 2.663866 -18.992379999999997 0.0 2.9165558999999996 -19.478051999999998 0.0 3.2466373 -20.431862 0.0 3.7576337 -21.917026999999997 0.0 4.5672417 -23.698393 0.0 5.6668997 -20.620659 0.0 2.5723597999999996 -20.695562 0.0 2.8179357000000005 -20.775398000000003 0.0 3.0535185 -20.99781 0.0 3.3039172 -21.577326 0.0 3.6315744 -22.713797 0.0 4.1596923 -24.482634 0.0 5.0446787 -26.608368 0.0 6.2617254 -22.733728 0.0 2.9261212000000003 -22.785418 0.0 3.1966763 -22.856835999999998 0.0 3.4448256 -23.104469 0.0 3.6914184000000003 -23.782705 0.0 4.0165782 -25.125729 0.0 4.5594206 -27.213789000000002 0.0 5.5234685 -29.726551 0.0 6.889596000000001 -24.973238000000002 0.0 3.269047 -24.986378 0.0 3.574235 -25.038099 0.0 3.8374288 -25.306044 0.0 4.0831013 -26.09046 0.0 4.4078245 -27.662841999999998 0.0 4.9639139000000005 -30.110428000000002 0.0 6.0064483 -33.065704 0.0 7.5302005 -27.338226000000002 0.0 3.5890136 -27.297434000000003 0.0 3.9375465 -27.314097999999998 0.0 4.2261372 -27.59565 0.0 4.4783602 -28.491726 0.0 4.8065553 -30.320639 0.0 5.3841515 -33.170654 0.0 6.4891973 -36.628708 0.0 8.1852894 -29.827247999999997 0.0 3.8722939 -29.715527 0.0 4.2743568 -29.677621999999996 0.0 4.5927606 -29.966717 0.0 4.867546099999999 -30.978945 0.0 5.2035813 -33.090145 0.0 5.811993599999999 -36.393944 0.0 6.967680499999999 -40.422558 0.0 8.8515091 -32.438590999999995 0.0 4.1069179 -32.238953 0.0 4.5712419 -32.129021 0.0 4.9286156 -32.415592 0.0 5.237867400000001 -33.548363 0.0 5.5828514 -35.967696999999994 0.0 6.2335153 -39.787040999999995 0.0 7.437379400000001 -44.470703 0.0 9.5220623 -35.163933 0.0 4.300305799999999 -34.864384 0.0 4.8178654000000005 -34.667685999999996 0.0 5.220686 -34.939476 0.0 5.5718894 -36.201321 0.0 5.9266877000000004 -38.956696 0.0 6.6372542 -43.373562 0.0 7.904994500000001 -48.824902 0.0 10.188376 -38.00592 0.0 4.4284816 -37.584990999999995 0.0 4.9978166 -37.290596 0.0 5.445938099999999 -37.534657 0.0 5.8462895999999995 -38.946692999999996 0.0 6.245502 -42.083335999999996 0.0 7.051177 -47.18782 0.0 8.3815174 -53.564896 0.0 10.830653 -40.936690999999996 0.0 4.464161900000001 -40.376022 0.0 5.0694122 -39.954231 0.0 5.556098 -40.176418 0.0 6.0414653 -41.764854 0.0 6.5014992 -45.316322 0.0 7.3832145 -51.238129 0.0 8.8507233 -58.807426 0.0 11.541249 -43.898994 0.0 4.4060574 -43.188763 0.0 5.0543108 -42.627987 0.0 5.6204591 -42.820842999999996 0.0 6.1679930999999995 -44.49295 0.0 6.7399859 -48.596569 0.0 7.6659989 -55.469837 0.0 9.3491259 -64.524757 0.0 12.311291 -46.7868 0.0 4.199698000000001 -45.915092 0.0 4.9048824 -45.19812 0.0 5.5465679 -45.302933 0.0 6.2406015 -47.144271999999994 0.0 6.8843069 -51.761722999999996 0.0 8.0001125 -59.687630000000006 0.0 9.955719 -70.465034 0.0 13.194409 -49.411545000000004 0.0 3.9209726000000003 -48.391525 0.0 4.6388435 -47.569984000000005 0.0 5.2812142 -47.615017 0.0 6.0713253 -49.467079 0.0 7.037680099999999 -54.451817000000005 0.0 8.7162085 -63.619267 0.0 10.796821000000001 -76.195351 0.0 14.221521 -51.61639 0.0 3.4148233 -50.46907 0.0 4.1664181000000005 -49.564678 0.0 4.876870200000001 -49.580647 0.0 5.7458706 -51.655437 0.0 6.9768944 -56.93451700000001 0.0 9.4696589 -66.808861 0.0 12.318489999999999 -81.144989 0.0 15.916309 -53.265751 0.0 2.6189082000000004 -52.025696 0.0 3.4129633999999998 -51.076633 0.0 4.3215818 -51.142967 0.0 5.4833322 -53.35722 0.0 7.3985023000000005 -58.974079 0.0 10.749146000000001 -69.198769 0.0 14.791068 -84.710175 0.0 18.022517999999998 -54.494797 0.0 1.3667715 -53.133713 0.0 2.2845497000000003 -52.12336 0.0 3.5478954 -52.103909 0.0 5.4181123 -54.263626 0.0 8.5861645 -59.90188199999999 0.0 13.016105 -70.0541 0.0 18.965483 -85.86955999999999 0.0 20.059620000000002 -54.953049 0.0 0.29311481 -53.614727 0.0 1.467042 -52.496025 0.0 2.9952383 -52.414295 0.0 5.6269073 -54.30228 0.0 10.151586 -59.811519999999994 0.0 15.986479000000001 -69.171982 0.0 24.117147 -83.57785799999999 0.0 21.317781 -53.751839000000004 0.0 1.2153395 -52.338001 0.0 2.6154747000000005 -51.124237 0.0 4.6957903 -50.918785 0.0 8.206839599999999 -52.868176 0.0 13.082282000000001 -58.30025500000001 0.0 17.426401000000002 -65.307114 0.0 27.106482 -70.31440699999999 0.0 23.48023 -50.190952 0.0 8.095734599999998 -48.369686 0.0 9.0614109 -46.793853999999996 0.0 10.945547999999999 -46.274899 0.0 12.919921 -46.520283 0.0 15.646581 -46.33976 0.0 19.597883 -46.039955 0.0 28.35408 -46.116215000000004 0.0 23.565987 -33.732853000000006 0.0 7.8817558000000005 -32.085304 0.0 8.501449599999999 -30.512726 0.0 9.836975099999998 -29.180637 0.0 11.283866999999999 -28.179426 0.0 14.430394 -27.5616 0.0 20.171431 -27.356109999999997 0.0 31.829762 -27.552155 0.0 23.033329000000002 -20.075495 0.0 6.0713824999999995 -18.748005 0.0 6.321054900000001 -17.51812 0.0 7.4938974 -16.523123000000002 0.0 9.3236618 -15.860975 0.0 13.282110000000001 -15.590785 0.0 20.486572 -15.708544 0.0 35.389458000000005 -16.127104 0.0 22.466435999999998 -10.244845 0.0 4.5458403 -9.453161199999998 0.0 4.601494799999999 -8.789649 0.0 5.6842885 -8.3383274 0.0 8.3423405 -8.167939200000001 0.0 12.989625 -8.313019800000001 0.0 21.211222 -8.7399473 0.0 37.534611 -9.334912300000001 0.0 21.94331 -1.9993129 0.0 3.6128172999999997 -1.7605602999999999 0.0 3.6772177000000004 -1.657156 0.0 4.8933506 -1.7143019 0.0 7.9083109 -1.9537143 0.0 13.320142 -2.3754623 0.0 22.648277 -2.9328809 0.0 38.363049 -3.5329029999999997 0.0 21.622459 6.4579334 0.0 3.3346275999999997 6.2903757 0.0 3.5616553 6.025322900000001 0.0 5.0468731 5.6826854 0.0 8.484958599999999 5.280106099999999 0.0 14.336691 4.8395624 0.0 23.475454 4.3983989 0.0 38.314377 4.0036769 0.0 21.560246 15.768638000000001 0.0 3.572233 15.414879 0.0 4.0225263 15.042995000000001 0.0 5.7557082 14.698109 0.0 9.438839 14.41186 0.0 15.291481 14.202582000000001 0.0 23.686403 14.078957 0.0 37.598380999999996 14.042409 0.0 21.58322 25.594015 0.0 4.0843306 25.253607000000002 0.0 4.7453461 24.997314000000003 0.0 6.6469125999999985 24.872459 0.0 10.391630000000001 24.89752 0.0 15.999585 25.064417000000002 0.0 23.616761999999998 25.346832 0.0 36.646011 25.718687 0.0 21.6735 35.241817 0.0 4.6310606 35.036514000000004 0.0 5.447238400000001 35.016148 0.0 7.4303765 35.215977 0.0 11.121777 35.622543 0.0 16.452271 36.189659000000006 0.0 23.511774 36.861214000000004 0.0 35.667881 37.602932 0.0 21.914734 44.124249 0.0 5.042538599999999 44.084702 0.0 5.9444947 44.310574 0.0 7.936055199999999 44.821476000000004 0.0 11.531995 45.571678000000006 0.0 16.704884 46.478146 0.0 23.571304 47.463028 0.0 34.788654 48.491478 0.0 22.397743 51.562744 0.0 5.2651649 51.798687 0.0 6.1871247 52.302898 0.0 8.1155338 53.078701 0.0 11.589858 54.038433 0.0 16.70372 55.210575 0.0 23.616238 55.888935 0.0 33.517338 57.646923 0.0 23.053427 54.726158 0.0 5.4494205000000004 55.270359 0.0 6.490963 56.313816 0.0 8.3764143 58.394302 0.0 11.530935000000001 60.375572 0.0 16.023429999999998 61.508301 0.0 22.821831 61.772572 0.0 31.776678000000004 65.23784599999999 0.0 24.326508 55.602936 0.0 5.6829 56.301762 0.0 6.8088284 57.47525400000001 0.0 8.6753407 59.807472 0.0 11.563176 63.837017 0.0 15.689382 66.34626 0.0 21.88204 66.784554 0.0 30.445114 71.334152 0.0 25.639194 56.035258999999996 0.0 6.096816099999999 56.725166 0.0 7.2019652999999995 57.929939000000005 0.0 8.8527231 60.343761 0.0 11.323438000000001 64.692711 0.0 15.051723999999998 70.087166 0.0 20.832251 71.634888 0.0 29.293215000000004 77.395821 0.0 26.554024 56.110046 0.0 6.387568 56.867176 0.0 7.3665609 58.172428000000004 0.0 9.0893745 60.648838 0.0 11.220436999999999 65.19144399999999 0.0 14.1933 72.064613 0.0 18.874813 76.748558 0.0 28.416607 83.504478 0.0 26.291759000000003 55.960570999999995 0.0 6.6529679 56.79865600000001 0.0 7.7839012 58.23546999999999 0.0 9.215110800000001 60.779221 0.0 10.987877000000001 65.59078199999999 0.0 13.415203 73.560188 0.0 17.269436 82.34243000000001 0.0 26.57765 89.87056700000001 0.0 24.485313 55.7738 0.0 6.9992285 56.711414000000005 0.0 7.861947099999999 58.327011 0.0 9.0657415 61.114086 0.0 10.834911 66.41481800000001 0.0 12.841274 75.369812 0.0 16.379847 88.70105 0.0 23.623955 100.61397 0.0 24.204779000000002 55.479141000000006 0.0 7.082644500000001 56.623638 0.0 7.862538799999999 58.427811 0.0 8.905963900000001 61.753296 0.0 10.360135000000001 67.77903 0.0 12.161769999999999 77.744469 0.0 15.456807000000001 93.506737 0.0 20.900589 111.26553 0.0 23.7941 55.057705000000006 0.0 6.9592094 56.473243999999994 0.0 7.6030278 58.823402 0.0 8.543117500000001 62.959281999999995 0.0 9.9624052 69.681511 0.0 11.571936 80.820442 0.0 14.579851000000001 97.978424 0.0 19.286023999999998 117.06235 0.0 22.857456 54.612953000000005 0.0 6.6067743000000005 56.483849 0.0 7.2190385 59.550613 0.0 8.103949499999999 64.62812 0.0 9.290206900000001 72.15892 0.0 10.533692 84.84461999999999 0.0 13.549869000000001 103.13154 0.0 18.017035999999997 54.351738 0.0 6.0647879 56.846104000000004 0.0 6.5781074 60.806197999999995 0.0 7.3466163 66.850311 0.0 8.2168283 75.520729 0.0 9.3183966 90.075508 0.0 12.741126 108.74505 0.0 16.958605 54.402271 0.0 5.345511 57.78669 0.0 5.799933 62.774639 0.0 6.4406877 69.78053299999999 0.0 6.9798384 80.433838 0.0 8.6094446 96.651848 0.0 12.4116 55.191894999999995 0.0 4.530876200000001 59.514885 0.0 4.9845695 65.627274 0.0 5.4332294 74.315117 0.0 6.1316671 87.438293 0.0 8.702425999999999 103.55878 0.0 12.365317999999998 56.861954000000004 0.0 3.7553777999999998 62.467964 0.0 4.2686500999999994 70.358032 0.0 4.9945402 81.11122900000001 0.0 6.4181347 95.271423 0.0 9.598726300000001 60.200134 0.0 3.3199635 67.745712 0.0 4.1556602 77.55699200000001 0.0 5.6206974999999995 89.120064 0.0 7.6150036 65.6147 0.0 3.3891912000000004 74.66816700000001 0.0 4.7194332999999995 85.516487 0.0 6.7960009999999995 95.827866 0.0 8.2472677 72.37769300000001 0.0 3.6050977999999994 82.10595699999999 0.0 5.5131679 79.18363199999999 0.0 4.0693302000000005 
StrainDot 3 2975 float
0.0 0.0 0.0 0.0 0.0 0.0 0.0 0.0 0.0 0.0 0.0 0.0 0.0 0.0 0.0 0.0 0.0 0.0 0.0 0.0 0.0 0.0 0.0 0.0 0.0 0.0 0.0 0.0 0.0 0.0 0.0 0.0 0.0 0.0 0.0 0.0 0.0 0.0 0.0 -3.5853171000000003e-07 0.0 -9.578013000000001e-08 -2.5332923e-19 0.0 -1.0632684e-19 -1.6933063999999999e-06 0.0 -6.9981184e-07 -1.2200117e-05 0.0 -3.9483402e-06 -2.9088023e-06 0.0 -1.4797342e-06 -2.1413041e-05 0.0 -1.0491476e-05 -7.302672e-05 0.0 -2.7407645e-05 -2.3149183e-05 0.0 -1.3791503e-05 -8.998696299999999e-05 0.0 -5.0196781e-05 -0.00023674162 0.0 -0.00010004757 -7.832979500000001e-05 0.0 -5.326945800000001e-05 -0.00023618601000000003 0.0 -0.00014819356 -0.00054884003 0.0 -0.00025889992999999996 -0.00017526846000000002 0.0 -0.00013587168 -0.00046641755 0.0 -0.00032947573 -0.0010147386 0.0 -0.00053557614 -0.00030314759 0.0 -0.00026851968 -0.00075684133 0.0 -0.0006027029 -0.0015902067999999999 0.0 -0.00094012119 -0.0004394089 0.0 -0.00044333763 -0.0010651745 0.0 -0.00095117884 -0.0022003148 0.0 -0.0014480025 -0.00056464114 0.0 -0.00063928351 -0.0013570773999999999 0.0 -0.0013355264000000002 -0.0027852416999999997 0.0 -0.0020015589 -0.0006761619 0.0 -0.00083192607 -0.0016305620000000001 0.0 -0.0017109595000000001 -0.0033454122 0.0 -0.0025348109 -0.0007927324 0.0 -0.0010056498 -0.0019240133 0.0 -0.0020492033 -0.0039514484999999995 0.0 -0.0030080664000000003 -0.0009529519 0.0 -0.0011601102 -0.00231927 0.0 -0.002349969 -0.004752992199999999 0.0 -0.0034250290999999996 -0.0012163634 0.0 -0.0013106441 -0.0029444401 0.0 -0.0026436597 -0.0059815193999999995 0.0 -0.0038354888 -0.0016690610000000001 0.0 -0.0014924506 -0.0039784289 0.0 -0.0030032564000000003 -0.0079503786 0.0 -0.0043501393 -0.002440992 0.0 -0.0017900197 -0.0056673139 0.0 -0.0035794189000000003 -0.011060813000000001 0.0 -0.005172529699999999 -0.0037032692 0.0 -0.0024015203 -0.0082483599 0.0 -0.0046567805 -0.015631958999999997 0.0 -0.006643848000000001 -0.0055530155 0.0 -0.0037618859000000003 -0.011625778 0.0 -0.006737411 -0.021356909 0.0 -0.0092982594 -0.015230289 0.0 -0.010604295 -0.027194904 0.0 -0.01388525 0.0 0.0 0.0 0.0 0.0 0.0 0.0 0.0 0.0 0.0 0.0 0.0 0.0 0.0 0.0 0.0 0.0 0.0 0.0 0.0 0.0 0.0 0.0 0.0 0.0 0.0 0.0 0.0 0.0 0.0 0.0 0.0 0.0 0.0 0.0 0.0 0.0 0.0 0.0 0.0 0.0 0.0 0.0 0.0 0.0 0.0 0.0 0.0 0.0 0.0 0.0 0.0 0.0 0.0 0.0 0.0 0.0 0.0 0.0 0.0 0.0 0.0 0.0 0.0 0.0 0.0 0.0 0.0 0.0 0.0 0.0 0.0 0.0 0.0 0.0 -7.489416000000001e-08 0.0 -6.4935985e-09 -4.9529604e-07 0.0 -2.1915472e-08 -1.2006968e-06 0.0 -1.9691191000000002e-08 -1.8158410000000001e-06 0.0 -1.9218831e-09 -2.1498197e-06 0.0 5.5488609e-09 -2.3717571e-06 0.0 6.5117192e-09 -2.5376394e-06 0.0 6.6346009e-09 -3.3032094999999997e-06 0.0 -6.0606675e-07 -1.1372882e-05 0.0 -1.3094919e-06 -2.5269998999999998e-05 0.0 -1.6898912e-06 -4.3027641e-05 0.0 -1.4494217e-06 -6.0934741000000003e-05 0.0 -6.813027099999999e-07 -7.5640652e-05 0.0 1.8861542000000001e-07 -8.5770916e-05 0.0 6.9612122e-07 -9.228423e-05 0.0 7.9066518e-07 -3.9621911e-05 0.0 -8.664208499999999e-06 -8.975123600000001e-05 0.0 -1.2305353e-05 -0.00016229291000000002 0.0 -1.3112853000000001e-05 -0.00024898679 0.0 -1.0533607999999999e-05 -0.00033628521 0.0 -5.3224926e-06 -0.00041180273 0.0 5.4809084e-07 -0.00046943937000000003 0.0 4.9390600999999995e-06 -0.00050958677 0.0 6.966026400000001e-06 -0.00017542235 0.0 -4.4053384e-05 -0.0003403053 0.0 -5.3449716e-05 -0.00056441955 0.0 -5.2413776e-05 -0.0008247213 0.0 -4.0461095e-05 -0.0010852574 0.0 -2.0261094000000002e-05 -0.0013138915 0.0 1.9638751000000003e-06 -0.0014940216 0.0 1.9346733e-05 -0.0016246635 0.0 2.8713924999999998e-05 -0.0004984400599999999 0.0 -0.00014009497 -0.0008975619599999999 0.0 -0.00015743043 -0.0014242105 0.0 -0.00014774788 -0.00202594 0.0 -0.00011114572 -0.0026245832000000003 0.0 -5.4521460999999996e-05 -0.0031515380999999998 0.0 6.6839361e-06 -0.0035714215999999997 0.0 5.5294469e-05 -0.0038809399 0.0 8.28907e-05 -0.0010791172 0.0 -0.00033729011 -0.0018664015 0.0 -0.00036357186 -0.0028891884999999997 0.0 -0.00033254802000000003 -0.0040461109 0.0 -0.00024534037 -0.0051887324 0.0 -0.00011712638 -0.0061910394999999995 0.0 1.9029212e-05 -0.006991006 0.0 0.00012732101999999998 -0.0075837001 0.0 0.00019018429000000001 -0.001921739 0.0 -0.0006704141300000001 -0.0032507868 0.0 -0.00070618076 -0.0049635423 0.0 -0.0006357154299999999 -0.0068853777000000005 0.0 -0.00046060898000000003 -0.008764335 0.0 -0.00021183785 -0.01039912 0.0 4.6363944e-05 -0.011698703999999999 0.0 0.00024976257999999996 -0.012660021 0.0 0.00036849413 -0.0029515761 0.0 -0.0011509772 -0.0049318019 0.0 -0.0011968684 -0.0074655898 0.0 -0.0010650497 -0.010281594 0.0 -0.0007557408 -0.01299673 0.0 -0.00032991296000000004 -0.015334736000000002 0.0 9.8284385e-05 -0.017180501 0.0 0.00042996492 -0.018536756 0.0 0.0006226789 -0.0040406394 0.0 -0.0017503243 -0.0067002848 0.0 -0.0018047760000000001 -0.010060838 0.0 -0.0015820010999999998 -0.0050847190000000006 0.0 -0.002396428 -0.0083785737 0.0 -0.0024501532 -0.0060905814 0.0 -0.0030045196999999996 -0.009990667 0.0 -0.0030350159 -0.007180798299999999 0.0 -0.0035288455 -0.011742393 0.0 -0.0035186359000000003 -0.0085925702 0.0 -0.0039807432 -0.013955645 0.0 -0.0039195083 -0.010685543999999998 0.0 -0.0044268295 -0.017109838999999998 0.0 -0.0043092612 -0.013930778999999999 0.0 -0.005001686500000001 -0.02180827 0.0 -0.0048234467 -0.018901261000000003 0.0 -0.0059384638 -0.028734522000000002 0.0 -0.0056888708 -0.026035765 0.0 -0.0076187151 -0.038392637 0.0 -0.0072773872 -0.034938943 0.0 -0.010634405 -0.050424326 0.0 -0.010188744 -0.044117529 0.0 -0.015788415 -0.063232206 0.0 -0.015279688 0.0 0.0 0.0 0.0 0.0 0.0 0.0 0.0 0.0 0.0 0.0 0.0 0.0 0.0 0.0 0.0 0.0 0.0 0.0 0.0 0.0 0.0 0.0 0.0 0.0 0.0 0.0 0.0 0.0 0.0 0.0 0.0 0.0 0.0 0.0 0.0 0.0 0.0 0.0 0.0 0.0 0.0 0.0 0.0 0.0 0.0 0.0 0.0 0.0 0.0 0.0 0.0 0.0 0.0 0.0 0.0 0.0 0.0 0.0 0.0 0.0 0.0 0.0 0.0 0.0 0.0 0.0 0.0 0.0 0.0 0.0 0.0 0.0 0.0 0.0 0.0 0.0 0.0 0.0 0.0 0.0 -2.6541281000000004e-06 0.0 6.1883925e-09 -2.7300263999999997e-06 0.0 5.4065299e-09 -2.7746498e-06 0.0 4.5100763e-09 -2.7967806e-06 0.0 3.6492651e-09 -2.804019e-06 0.0 2.847131e-09 -2.8024737999999997e-06 0.0 2.1489128e-09 -2.7968463e-06 0.0 1.5829383e-09 -2.7905572999999997e-06 0.0 1.1630373e-09 -2.7859037e-06 0.0 9.069245900000001e-10 -9.6810079e-05 0.0 7.5342246e-07 -9.9853947e-05 0.0 6.7189302e-07 -0.00010173149 0.0 5.701655799999999e-07 -0.00010274923 0.0 4.6526503000000006e-07 -0.00010317950999999999 0.0 3.6718302000000003e-07 -0.00010324825999999999 0.0 2.8147676e-07 -0.00010313253000000001 0.0 2.1141693e-07 -0.00010296233 0.0 1.5969903e-07 -0.00010282624 0.0 1.2799967e-07 -0.00053613534 0.0 7.0530291e-06 -0.00055373355 0.0 6.387851e-06 -0.00056479214 0.0 5.4884258e-06 -0.00057098089 0.0 4.5242637e-06 -0.0005738008799999999 0.0 3.6044667000000003e-06 -0.0005745095 0.0 2.7935441000000003e-06 -0.0005741003 0.0 2.130304e-06 -0.0005733096 0.0 1.6396992e-06 -0.0005726413200000001 0.0 1.3388433999999999e-06 -0.0017137495 0.0 3.0917108e-05 -0.0017718109 0.0 2.8698802e-05 -0.0018081946 0.0 2.4922567e-05 -0.0018288054 0.0 2.0725494e-05 -0.0018384482999999998 0.0 1.664624e-05 -0.001841169 0.0 1.3017714e-05 -0.0018401715 0.0 1.003882e-05 -0.0018378410999999998 0.0 7.8332905e-06 -0.0018358122 0.0 6.4797982000000004e-06 -0.0040956195 0.0 9.1158734e-05 -0.0042367638 0.0 8.667705e-05 -0.004324202 0.0 7.6037875e-05 -0.0043736054 0.0 6.3705666e-05 -0.0043966514 0.0 5.1513118e-05 -0.0044030761 0.0 4.0570463e-05 -0.004400576 0.0 3.1549916e-05 -0.0043949005 0.0 2.4860039000000003e-05 -0.0043899752 0.0 2.0752132e-05 -0.0079971189 0.0 0.00021064852000000003 -0.0082699303 0.0 0.00020251349999999998 -0.0084379595 0.0 0.00017943697 -0.0085313227 0.0 0.00015124008 -0.008573565600000001 0.0 0.00012295437 -0.0085838167 0.0 9.736144399999999e-05 -0.0085771624 0.0 7.6176839e-05 -0.008564819599999999 0.0 6.0435908e-05 -0.0085544568 0.0 5.0763203000000004e-05 -0.013329281 0.0 0.00040830517999999996 -0.013768965 0.0 0.00039409331 -0.014036965 0.0 0.00035132767999999996 -0.014181693 0.0 0.00029743308999999996 -0.014242915 0.0 0.00024275457000000003 -0.014252646 0.0 0.00019295374 -0.014236013 0.0 0.0001515819 -0.014211607 0.0 0.00012078559999999999 -0.014192093000000001 0.0 0.0001018468 -0.019472741000000002 0.0 0.0006872647800000001 -0.020079779 0.0 0.00066351023 -0.020441951 0.0 0.00059302512 -0.020628598 0.0 0.000503583 -0.020697534 0.0 0.00041207572 -0.020695625 0.0 0.00032831733999999995 -0.020659339 0.0 0.00025853197 -0.020615477 0.0 0.00020650613999999997 -0.020582173 0.0 0.00017448937 0.0 0.0 0.0 0.0 0.0 0.0 0.0 0.0 0.0 0.0 0.0 0.0 0.0 0.0 0.0 0.0 0.0 0.0 0.0 0.0 0.0 0.0 0.0 0.0 0.0 0.0 0.0 0.0 0.0 0.0 0.0 0.0 0.0 0.0 0.0 0.0 0.0 0.0 0.0 0.0 0.0 0.0 0.0 0.0 0.0 0.0 0.0 0.0 0.0 0.0 0.0 0.0 0.0 0.0 0.0 0.0 0.0 0.0 0.0 0.0 0.0 0.0 0.0 0.0 0.0 0.0 0.0 0.0 0.0 0.0 0.0 0.0 -2.7842125e-06 0.0 8.2056972e-10 -2.7859039e-06 0.0 9.069168199999999e-10 -2.7905564e-06 0.0 1.1630354e-09 -2.7968450999999998e-06 0.0 1.5829413e-09 -2.8024740000000004e-06 0.0 2.1489202e-09 -2.8040185000000004e-06 0.0 2.8471359e-09 -2.7967808e-06 0.0 3.649262e-09 -2.7746498e-06 0.0 4.5100661e-09 -0.00010277535 0.0 1.1730124999999999e-07 -0.00010282624 0.0 1.2799944e-07 -0.00010296233 0.0 1.5969887e-07 -0.0001031325 0.0 2.1141714999999998e-07 -0.00010324825 0.0 2.8147721e-07 -0.0001031795 0.0 3.6718336e-07 -0.00010274924999999999 0.0 4.652648e-07 -0.00010173149 0.0 5.7016513e-07 -0.00057238684 0.0 1.237558e-06 -0.00057264126 0.0 1.3388421e-06 -0.00057330972 0.0 1.6396983e-06 -0.00057410018 0.0 2.130304e-06 -0.00057450944 0.0 2.7935457e-06 -0.00057380099 0.0 3.6044682000000002e-06 -0.00057098083 0.0 4.5242632e-06 -0.00056479225 0.0 5.4884254e-06 -0.0018350328 0.0 6.023829400000001e-06 -0.0018358120999999999 0.0 6.4797969e-06 -0.0018378409 0.0 7.833286e-06 -0.0018401710999999999 0.0 1.0038822e-05 -0.0018411693 0.0 1.3017719e-05 -0.0018384481 0.0 1.6646243e-05 -0.001828805 0.0 2.0725491000000002e-05 -0.0018081947 0.0 2.4922569e-05 -0.0043880856 0.0 1.9367391e-05 -0.0043899748 0.0 2.0752130000000003e-05 -0.0043949001 0.0 2.4860023999999998e-05 -0.0044005769 0.0 3.1549916e-05 -0.0044030766 0.0 4.0570473999999996e-05 -0.0043966533 0.0 5.1513143e-05 -0.0043736068 0.0 6.3705709e-05 -0.0043242034000000006 0.0 7.603789e-05 -0.0085505173 0.0 4.7501318e-05 -0.0085544568 0.0 5.0763181000000004e-05 -0.008564819599999999 0.0 6.0435905e-05 -0.0085771605 0.0 7.617681e-05 -0.0085838158 0.0 9.736143700000001e-05 -0.0085735694 0.0 0.00012295437 -0.0085313236 0.0 0.00015124014 -0.008437962299999999 0.0 0.00017943699 -0.014184783000000001 0.0 9.5459e-05 -0.014192086999999999 0.0 0.00010184676 -0.014211605 0.0 0.00012078555 -0.014236012 0.0 0.0001515818 -0.014252645 0.0 0.00019295372 -0.014242915 0.0 0.00024275458 -0.014181693 0.0 0.00029743303 -0.014036966000000001 0.0 0.00035132759 -0.020569952 0.0 0.00016368857 -0.020582175 0.0 0.00017448924999999998 -0.020615475 0.0 0.00020650604 -0.020659339 0.0 0.00025853195 -0.020695629 0.0 0.00032831737 -0.020697532 0.0 0.00041207561000000003 -0.02062859 0.0 0.000503583 -0.020441951 0.0 0.00059302495 0.0 0.0 0.0 0.0 0.0 0.0 0.0 0.0 0.0 0.0 0.0 0.0 0.0 0.0 0.0 0.0 0.0 0.0 0.0 0.0 0.0 0.0 0.0 0.0 0.0 0.0 0.0 0.0 0.0 0.0 0.0 0.0 0.0 0.0 0.0 0.0 0.0 0.0 0.0 0.0 0.0 0.0 0.0 0.0 0.0 0.0 0.0 0.0 0.0 0.0 0.0 0.0 0.0 0.0 0.0 0.0 0.0 0.0 0.0 0.0 0.0 0.0 0.0 0.0 0.0 0.0 0.0 0.0 0.0 0.0 0.0 0.0 0.0 0.0 0.0 0.0 0.0 0.0 0.0 0.0 0.0 -2.7300263999999997e-06 0.0 5.4065241e-09 -2.6541287999999996e-06 0.0 6.1883978e-09 -2.5376397999999996e-06 0.0 6.6346129e-09 -2.3717563999999997e-06 0.0 6.5117178e-09 -2.149819e-06 0.0 5.5488565e-09 -1.8158413999999999e-06 0.0 -1.9218849e-09 -1.2006971999999998e-06 0.0 -1.9691199999999998e-08 -4.9529615e-07 0.0 -2.191547e-08 -7.4894167e-08 0.0 -6.4935963e-09 -9.985394e-05 0.0 6.7189296e-07 -9.6810123e-05 0.0 7.534228e-07 -9.228423e-05 0.0 7.9066581e-07 -8.577090899999999e-05 0.0 6.9612167e-07 -7.5640652e-05 0.0 1.8861523e-07 -6.0934741000000003e-05 0.0 -6.813030500000001e-07 -4.3027652e-05 0.0 -1.4494218999999999e-06 -2.5270001000000003e-05 0.0 -1.6898911e-06 -1.1372881e-05 0.0 -1.3094914e-06 -0.00055373361 0.0 6.387850099999999e-06 -0.00053613546 0.0 7.0530286000000005e-06 -0.0005095869999999999 0.0 6.9660241e-06 -0.00046943943 0.0 4.9390615e-06 -0.00041180273 0.0 5.4809306e-07 -0.00033628529999999996 0.0 -5.322493099999999e-06 -0.00024898682 0.0 -1.0533611e-05 -0.00016229294 0.0 -1.3112853000000001e-05 -8.975125099999999e-05 0.0 -1.2305354e-05 -0.00177181 0.0 2.8698791000000002e-05 -0.0017137489999999999 0.0 3.0917097e-05 -0.0016246631 0.0 2.8713921e-05 -0.0014940217000000001 0.0 1.9346737e-05 -0.0013138916 0.0 1.9638771e-06 -0.0010852574 0.0 -2.0261081e-05 -0.00082472136 0.0 -4.0461106e-05 -0.00056441961 0.0 -5.2413794e-05 -0.00034030538999999996 0.0 -5.3449737999999995e-05 -0.0042367643 0.0 8.6677057e-05 -0.0040956195 0.0 9.1158734e-05 -0.0038809410999999998 0.0 8.289067e-05 -0.0035714207 0.0 5.5294466000000004e-05 -0.0031515388 0.0 6.6839507e-06 -0.0026245844 0.0 -5.4521453e-05 -0.0020259398000000003 0.0 -0.00011114572 -0.0014242107 0.0 -0.00014774784999999999 -0.0008975622500000001 0.0 -0.00015743040000000002 -0.0082699321 0.0 0.00020251358 -0.0079971179 0.0 0.00021064849999999997 -0.0075836997 0.0 0.00019018418999999998 -0.0069910055 0.0 0.00012732107 -0.0061910404 0.0 1.9029219e-05 -0.0051887315 0.0 -0.00011712631000000001 -0.0040461118 0.0 -0.00024534043 -0.002889188 0.0 -0.00033254811 -0.0018664028 0.0 -0.00036357195 -0.013768964 0.0 0.00039409324999999996 -0.013329281 0.0 0.00040830544 -0.012660018 0.0 0.00036849431000000003 -0.011698703000000001 0.0 0.00024976267000000003 -0.010399117 0.0 4.6363977e-05 -0.0087643359 0.0 -0.00021183782000000004 -0.0068853791 0.0 -0.00046060895 -0.0049635441999999995 0.0 -0.00063571549 -0.0032507877 0.0 -0.00070618058 -0.020079767 0.0 0.0006635102900000001 -0.019472737 0.0 0.0006872649499999999 -0.018536758 0.0 0.00062267901 -0.017180506 0.0 0.00042996517999999997 -0.015334735 0.0 9.828465399999998e-05 -0.012996734 0.0 -0.00032991293 -0.010281604 0.0 -0.00075574114 -0.0074655926 0.0 -0.0010650498 -0.0049318024 0.0 -0.0011968686 -0.010060842 0.0 -0.0015820010999999998 -0.0067002866 0.0 -0.0018047752999999999 -0.0083785765 0.0 -0.0024501539 -0.0099906716 0.0 -0.0030350154 -0.011742395 0.0 -0.0035186355999999998 -0.013955644 0.0 -0.0039195078 -0.017109843 0.0 -0.0043092612 -0.02180828 0.0 -0.0048234448999999995 -0.028734528999999998 0.0 -0.0056888684999999994 -0.038392644 0.0 -0.0072773886 -0.050424326 0.0 -0.010188741999999999 -0.06323222099999999 0.0 -0.015279683999999998 0.0 0.0 0.0 0.0 0.0 0.0 0.0 0.0 0.0 0.0 0.0 0.0 0.0 0.0 0.0 0.0 0.0 0.0 0.0 0.0 0.0 0.0 0.0 0.0 0.0 0.0 0.0 0.0 0.0 0.0 0.0 0.0 0.0 0.0 0.0 0.0 0.0 0.0 0.0 0.0 0.0 0.0 0.0 0.0 0.0 -3.303209e-06 0.0 -6.0606618e-07 -3.5853168e-07 0.0 -9.5780059e-08 0.0 0.0 0.0 0.0 0.0 0.0 -3.9621911e-05 0.0 -8.6642058e-06 -1.2200117e-05 0.0 -3.9483375e-06 -1.6933061999999998e-06 0.0 -6.9981172e-07 -2.5332923e-19 0.0 -1.0632677999999999e-19 -0.00017542239 0.0 -4.4053373e-05 -7.3026749e-05 0.0 -2.740763e-05 -2.1413042999999997e-05 0.0 -1.0491475000000001e-05 -2.9088023e-06 0.0 -1.4797338e-06 -0.00049844012 0.0 -0.00014009497 -0.00023674152999999997 0.0 -0.00010004752000000001 -8.998696299999999e-05 0.0 -5.019677e-05 -2.3149194000000002e-05 0.0 -1.3791504e-05 -0.0010791172 0.0 -0.00033729011 -0.0005488400900000001 0.0 -0.00025889979 -0.00023618601000000003 0.0 -0.00014819349 -7.8329824e-05 0.0 -5.326945800000001e-05 -0.0019217388000000001 0.0 -0.0006704142399999999 -0.0010147386999999999 0.0 -0.00053557608 -0.00046641749000000005 0.0 -0.0003294757 -0.00017526852999999999 0.0 -0.00013587167 -0.0029515766 0.0 -0.0011509773 -0.0015902072 0.0 -0.00094012095 -0.00075684121 0.0 -0.00060270273 -0.00030314774 0.0 -0.00026851962 -0.0040406417 0.0 -0.001750324 -0.0022003148 0.0 -0.0014480026 -0.001065174 0.0 -0.0009511787800000001 -0.00043940902 0.0 -0.0004433376 -0.0050847195 0.0 -0.0023964283 -0.0027852424 0.0 -0.0020015589 -0.0013570773 0.0 -0.0013355265 -0.0005646412 0.0 -0.00063928345 -0.006090581899999999 0.0 -0.0030045196999999996 -0.0033454124 0.0 -0.0025348116 -0.0016305617000000002 0.0 -0.001710959 -0.00067616213 0.0 -0.00083192613 -0.007180801600000001 0.0 -0.0035288455 -0.0039514476000000005 0.0 -0.0030080669 -0.0019240135 0.0 -0.0020492033 -0.00079273258 0.0 -0.00100565 -0.0085925702 0.0 -0.0039807432 -0.0047529927 0.0 -0.0034250278999999996 -0.0023192707000000003 0.0 -0.0023499699 -0.0009529519599999999 0.0 -0.00116011 -0.010685546 0.0 -0.00442683 -0.0059815206999999995 0.0 -0.0038354880999999998 -0.0029444415 0.0 -0.0026436603999999996 -0.0012163634 0.0 -0.0013106443 -0.013930778999999999 0.0 -0.005001686500000001 -0.0079503814 0.0 -0.0043501388 -0.0039784289 0.0 -0.0030032555 -0.0016690613 0.0 -0.0014924505 -0.018901255 0.0 -0.0059384615000000005 -0.011060813000000001 0.0 -0.0051725293 -0.005667315799999999 0.0 -0.0035794185999999998 -0.0024409925 0.0 -0.0017900195999999999 -0.02603576 0.0 -0.0076187146 -0.015631963000000002 0.0 -0.006643848000000001 -0.0082483599 0.0 -0.004656779099999999 -0.0037032696 0.0 -0.00240152 -0.034938946 0.0 -0.010634406 -0.02135691 0.0 -0.0092982603 -0.01162578 0.0 -0.0067374106 -0.0055530155 0.0 -0.0037618854999999997 -0.044117518 0.0 -0.015788411999999998 -0.027194906 0.0 -0.013885248999999999 -0.015230292 0.0 -0.010604295 0.0 0.0 0.0 0.0 0.0 0.0 0.0 0.0 0.0 0.0 0.0 0.0 0.0 0.0 0.0 0.0 0.0 0.0 0.0 0.0 0.0 0.0 0.0 0.0 0.0 0.0 0.0 0.0 0.0 0.0 0.0 0.0 0.0 0.0 0.0 0.0 0.0 0.0 0.0 0.0 0.0 0.0 0.0 0.0 0.0 0.0 0.0 0.0 0.0 0.0 0.0 0.0 0.0 0.0 0.0 0.0 0.0 0.0 0.0 0.0 0.0 0.0 0.0 0.0 0.0 0.0 0.0 0.0 0.0 0.0 0.0 0.0 0.0 0.0 0.0 0.0 0.0 0.0 0.0 0.0 0.0 0.0 0.0 0.0 0.0 0.0 0.0 0.0 0.0 0.0 0.0 0.0 0.0 0.0 0.0 0.0 0.0 0.0 0.0 0.0 0.0 0.0 0.0 0.0 0.0 0.0 0.0 0.0 0.0 0.0 0.0 0.0 0.0 0.0 0.0 0.0 0.0 0.0 0.0 0.0 0.0 0.0 0.0 0.0 0.0 0.0 0.0 0.0 0.0 0.0 0.0 0.0 0.0 0.0 0.0 0.0 0.0 0.0 0.0 0.0 0.0 0.0 0.0 0.0 0.0 0.0 0.0 0.0 0.0 0.0 0.0 0.0 0.0 0.0 0.0 0.0 0.0 0.0 0.0 0.0 0.0 0.0 0.0 0.0 0.0 0.0 0.0 0.0 0.0 0.0 0.0 0.0 0.0 0.0 0.0 0.0 0.0 0.0 0.0 0.0 0.0 0.0 0.0 0.0 0.0 0.0 0.0 0.0 0.0 0.0 0.0 0.0 0.0 0.0 0.0 0.0 0.0 0.0 0.0 0.0 0.0 0.0 0.0 0.0 0.0 0.0 0.0 0.0 0.0 0.0 0.0 0.0 0.0 0.0 0.0 0.0 0.0 0.0 0.0 0.0 0.0 0.0 0.0 0.0 0.0 0.0 0.0 0.0 0.0 0.0 0.0 0.0 0.0 0.0 0.0 0.0 0.0 0.0 0.0 0.0 0.0 0.0 0.0 0.0 0.0 0.0 0.0 0.0 0.0 0.0 0.0 0.0 0.0 0.0 0.0 0.0 0.0 0.0 0.0 0.0 0.0 0.0 0.0 0.0 0.0 0.0 0.0 0.0 0.0 0.0 0.0 0.0 0.0 0.0 0.0 0.0 0.0 0.0 0.0 0.0 0.0 0.0 0.0 0.0 0.0 0.0 0.0 0.0 0.0 0.0 0.0 0.0 0.0 0.0 0.0 0.0 0.0 0.0 0.0 0.0 0.0 0.0 0.0 0.0 0.0 0.0 0.0 0.0 0.0 0.0 0.0 0.0 0.0 0.0 0.0 0.0 0.0 0.0 0.0 0.0 0.0 0.0 0.0 0.0 0.0 0.0 0.0 0.0 0.0 0.0 0.0 0.0 0.0 0.0 0.0 0.0 0.0 0.0 0.0 0.0 0.0 0.0 0.0 0.0 0.0 0.0 0.0 0.0 0.0 0.0 0.0 0.0 0.0 0.0 0.0 0.0 0.0 0.0 0.0 0.0 0.0 0.0 0.0 0.0 0.0 0.0 0.0 0.0 0.0 0.0 0.0 0.0 0.0 0.0 0.0 0.0 0.0 0.0 0.0 0.0 0.0 0.0 0.0 0.0 0.0 0.0 0.0 0.0 0.0 0.0 0.0 0.0 0.0 0.0 0.0 0.0 0.0 0.0 0.0 0.0 0.0 0.0 0.0 0.0 0.0 0.0 0.0 0.0 0.0 0.0 0.0 0.0 0.0 0.0 0.0 0.0 0.0 0.0 0.0 0.0 0.0 0.0 0.0 0.0 0.0 0.0 0.0 0.0 0.0 0.0 0.0 0.0 0.0 0.0 0.0 0.0 0.0 0.0 0.0 0.0 0.0 0.0 0.0 0.0 0.0 0.0 0.0 0.0 0.0 0.0 0.0 0.0 0.0 0.0 0.0 0.0 0.0 0.0 0.0 0.0 0.0 0.0 0.0 0.0 0.0 0.0 0.0 0.0 0.0 0.0 0.0 0.0 0.0 0.0 0.0 0.0 0.0 0.0 0.0 0.0 0.0 0.0 0.0 0.0 0.0 0.0 0.0 0.0 0.0 0.0 0.0 0.0 0.0 0.0 0.0 0.0 0.0 0.0 0.0 0.0 0.0 0.0 0.0 0.0 0.0 0.0 0.0 0.0 0.0 0.0 0.0 0.0 0.0 0.0 0.0 0.0 0.0 0.0 0.0 0.0 0.0 0.0 0.0 0.0 0.0 0.0 0.0 0.0 0.0 0.0 0.0 0.0 0.0 0.0 0.0 0.0 0.0 0.0 0.0 0.0 0.0 0.0 0.0 0.0 0.0 0.0 0.0 0.0 0.0 0.0 0.0 0.0 0.0 0.0 0.0 0.0 0.0 0.0 0.0 0.0 0.0 0.0 0.0 0.0 0.0 0.0 0.0 0.0 0.0 0.0 0.0 0.0 0.0 0.0 0.0 0.0 0.0 0.0 0.0 0.0 0.0 0.0 0.0 0.0 0.0 0.0 0.0 0.0 0.0 0.0 0.0 0.0 0.0 0.0 0.0 0.0 0.0 0.0 0.0 0.0 0.0 0.0 0.0 0.0 0.0 0.0 0.0 0.0 0.0 0.0 0.0 0.0 0.0 0.0 0.0 0.0 0.0 0.0 0.0 0.0 0.0 0.0 0.0 0.0 0.0 0.0 0.0 0.0 0.0 0.0 0.0 0.0 0.0 0.0 0.0 0.0 0.0 0.0 0.0 0.0 0.0 0.0 0.0 0.0 0.0 0.0 0.0 0.0 0.0 0.0 0.0 0.0 0.0 0.0 0.0 0.0 0.0 0.0 0.0 0.0 0.0 0.0 0.0 0.0 0.0 0.0 0.0 0.0 0.0 0.0 0.0 0.0 0.0 0.0 0.0 0.0 0.0 0.0 0.0 0.0 0.0 0.0 0.0 0.0 0.0 0.0 0.0 0.0 0.0 0.0 0.0 0.0 0.0 0.0 0.0 0.0 0.0 0.0 0.0 0.0 0.0 0.0 0.0 0.0 0.0 0.0 0.0 0.0 0.0 0.0 0.0 0.0 0.0 0.0 0.0 0.0 0.0 0.0 0.0 0.0 0.0 0.0 0.0 0.0 0.0 0.0 0.0 0.0 0.0 0.0 0.0 0.0 0.0 0.0 0.0 0.0 0.0 0.0 0.0 0.0 0.0 0.0 0.0 0.0 0.0 0.0 0.0 0.0 0.0 0.0 0.0 0.0 0.0 0.0 0.0 0.0 0.0 0.0 0.0 0.0 0.0 0.0 0.0 0.0 0.0 0.0 0.0 0.0 0.0 0.0 0.0 0.0 0.0 0.0 0.0 0.0 0.0 0.0 0.0 0.0 0.0 0.0 0.0 0.0 0.0 0.0 0.0 0.0 0.0 0.0 0.0 0.0 0.0 0.0 0.0 0.0 0.0 0.0 0.0 0.0 0.0 0.0 0.0 0.0 0.0 0.0 0.0 0.0 0.0 0.0 0.0 0.0 0.0 0.0 0.0 0.0 0.0 0.0 0.0 0.0 0.0 0.0 0.0 0.0 0.0 0.0 0.0 0.0 0.0 0.0 0.0 0.0 0.0 0.0 0.0 0.0 0.0 0.0 0.0 0.0 0.0 0.0 0.0 0.0 0.0 0.0 0.0 0.0 0.0 0.0 0.0 0.0 0.0 0.0 0.0 0.0 0.0 0.0 0.0 0.0 0.0 0.0 0.0 0.0 0.0 0.0 0.0 0.0 0.0 0.0 0.0 0.0 0.0 0.0 0.0 0.0 0.0 0.0 0.0 0.0 0.0 0.0 0.0 0.0 0.0 0.0 0.0 0.0 0.0 0.0 0.0 0.0 0.0 0.0 0.0 0.0 0.0 0.0 0.0 0.0 0.0 0.0 0.0 0.0 0.0 0.0 0.0 0.0 0.0 0.0 0.0 0.0 0.0 0.0 0.0 0.0 0.0 0.0 0.0 0.0 0.0 0.0 0.0 0.0 0.0 0.0 0.0 0.0 0.0 0.0 0.0 0.0 0.0 0.0 0.0 0.0 0.0 0.0 0.0 0.0 0.0 0.0 0.0 0.0 0.0 0.0 0.0 0.0 0.0 0.0 0.0 0.0 0.0 0.0 0.0 0.0 0.0 0.0 0.0 0.0 0.0 0.0 0.0 0.0 0.0 0.0 0.0 0.0 0.0 0.0 0.0 0.0 0.0 0.0 0.0 0.0 0.0 0.0 0.0 0.0 0.0 0.0 0.0 0.0 0.0 0.0 0.0 0.0 0.0 0.0 0.0 0.0 0.0 0.0 0.0 0.0 0.0 0.0 0.0 0.0 0.0 0.0 0.0 0.0 0.0 0.0 0.0 0.0 0.0 0.0 0.0 0.0 0.0 0.0 0.0 0.0 0.0 0.0 0.0 0.0 0.0 0.0 0.0 0.0 0.0 0.0 0.0 0.0 0.0 0.0 0.0 0.0 0.0 0.0 0.0 0.0 0.0 0.0 0.0 0.0 0.0 0.0 0.0 0.0 0.0 0.0 0.0 0.0 0.0 0.0 0.0 0.0 0.0 0.0 0.0 0.0 0.0 0.0 0.0 0.0 0.0 0.0 0.0 0.0 0.0 0.0 0.0 0.0 0.0 0.0 0.0 0.0 0.0 0.0 0.0 0.0 0.0 0.0 0.0 0.0 0.0 0.0 0.0 0.0 0.0 0.0 0.0 0.0 0.0 0.0 0.0 0.0 0.0 0.0 0.0 0.0 0.0 0.0 0.0 0.0 0.0 0.0 0.0 0.0 0.0 0.0 0.0 0.0 0.0 0.0 0.0 0.0 0.0 0.0 0.0 0.0 0.0 0.0 0.0 0.0 0.0 0.0 0.0 0.0 0.0 0.0 0.0 0.0 0.0 0.0 0.0 0.0 0.0 0.0 0.0 0.0 0.0 0.0 0.0 0.0 0.0 0.0 0.0 0.0 0.0 0.0 0.0 0.0 0.0 0.0 0.0 0.0 0.0 0.0 0.0 0.0 0.0 0.0 0.0 0.0 0.0 0.0 0.0 0.0 0.0 0.0 0.0 0.0 0.0 0.0 0.0 0.0 0.0 0.0 0.0 0.0 0.0 0.0 0.0 0.0 0.0 0.0 0.0 0.0 0.0 0.0 0.0 0.0 0.0 0.0 0.0 0.0 0.0 0.0 0.0 0.0 0.0 0.0 0.0 0.0 0.0 0.0 0.0 0.0 0.0 0.0 0.0 0.0 0.0 0.0 0.0 0.0 0.0 0.0 0.0 0.0 0.0 0.0 0.0 0.0 0.0 0.0 0.0 0.0 0.0 0.0 0.0 0.0 0.0 0.0 0.0 0.0 0.0 0.0 0.0 0.0 0.0 0.0 0.0 0.0 0.0 0.0 0.0 0.0 0.0 0.0 0.0 0.0 0.0 0.0 0.0 0.0 0.0 0.0 0.0 0.0 0.0 0.0 0.0 0.0 0.0 0.0 0.0 0.0 0.0 0.0 0.0 0.0 0.0 0.0 0.0 0.0 0.0 0.0 0.0 0.0 0.0 0.0 0.0 0.0 0.0 0.0 0.0 0.0 0.0 0.0 0.0 0.0 0.0 0.0 0.0 0.0 0.0 0.0 0.0 0.0 0.0 0.0 0.0 0.0 0.0 0.0 0.0 0.0 0.0 0.0 0.0 0.0 0.0 0.0 0.0 0.0 0.0 0.0 0.0 0.0 0.0 0.0 0.0 0.0 0.0 0.0 0.0 0.0 0.0 0.0 0.0 0.0 0.0 0.0 0.0 0.0 0.0 0.0 0.0 0.0 0.0 0.0 0.0 0.0 0.0 0.0 0.0 0.0 0.0 0.0 0.0 0.0 0.0 0.0 0.0 0.0 0.0 0.0 0.0 0.0 0.0 0.0 0.0 0.0 0.0 0.0 0.0 0.0 0.0 0.0 0.0 0.0 0.0 0.0 0.0 0.0 0.0 0.0 0.0 0.0 0.0 0.0 0.0 0.0 0.0 0.0 0.0 0.0 0.0 0.0 0.0 0.0 0.0 0.0 0.0 0.0 0.0 0.0 0.0 0.0 0.0 0.0 0.0 0.0 0.0 0.0 0.0 0.0 0.0 0.0 0.0 0.0 0.0 0.0 0.0 0.0 0.0 0.0 0.0 0.0 -0.013716105 0.0 -0.0010717309 -0.017199211000000002 0.0 -0.00044623602 -0.020175582 0.0 0.00018001758000000002 -0.022503442999999998 0.0 0.00065753667 -0.024192546000000002 0.0 0.0009324046000000001 -0.012486027 0.0 -0.0019470139000000001 -0.016881494 0.0 -0.0013738408 -0.021022142999999997 0.0 -0.00053440192 -0.024520177 0.0 0.00028586033 -0.027214067 0.0 0.0009030716000000001 -0.029128421 0.0 0.0012537836 -0.014814741000000001 0.0 -0.0023786535000000003 -0.019944753 0.0 -0.0016178766 -0.024712237999999997 0.0 -0.0005804427200000001 -0.028665189 0.0 0.00040870294000000003 -0.03163882 0.0 0.0011406209 -0.03368865 0.0 0.0015477445000000002 -0.017351443 0.0 -0.0027182265000000004 -0.023263112000000002 0.0 -0.0017911062 -0.02867691 0.0 -0.00058105134 -0.033068538 0.0 0.00054400379 -0.036276333 0.0 0.001357538 -0.038401823 0.0 0.0017950821 -0.020520687 0.0 -0.0029719728 -0.027280778 0.0 -0.0018972078 -0.033363387 0.0 -0.00054065639 -0.038192517999999995 0.0 0.0006876303800000001 -0.041615855 0.0 0.0015510314000000002 -0.043779782999999996 0.0 0.0019949495 -0.025112782 0.0 -0.0031722379 -0.032714695 0.0 -0.0019577197 -0.039357442 0.0 -0.00046797574 -0.04450232900000001 0.0 0.0008392968400000001 -0.048060659000000006 0.0 0.0017272298 -0.050220352 0.0 0.0021608851 -0.032373879 0.0 -0.0033671972 -0.040654894 0.0 -0.0020034094 -0.047456454 0.0 -0.0003636368799999999 -0.052536800999999994 0.0 0.0010210417 -0.055964228 0.0 0.0019184444 -0.057981573 0.0 0.002328523 -0.044001835999999996 0.0 -0.0036064007 -0.052432187000000005 0.0 -0.0020662486 -0.058552444 0.0 -0.00020622765 -0.062838241 0.0 0.0012961844 -0.065640219 0.0 0.0022076748 -0.06723579 0.0 0.0025789717 -0.061762410999999996 0.0 -0.0039570499 -0.069144487 0.0 -0.0021647513 -0.073259577 0.0 6.858469e-05 -0.075757116 0.0 0.0017900479999999998 -0.077304408 0.0 0.0027442749 -0.07811743 0.0 0.0030545595000000003 -0.08613613199999999 0.0 -0.0047174348 -0.09062558400000001 0.0 -0.0023184395 -0.09134987 0.0 0.0005999342500000001 -0.091209888 0.0 0.0027164919 -0.09100966199999999 0.0 0.0037489971 -0.09074872699999999 0.0 0.0039560306 -0.11403733 0.0 -0.006520408199999999 -0.11445051 0.0 -0.0026086526999999997 -0.11141729 0.0 0.0015945025 -0.10856868 0.0 0.0043744911 -0.10658568 0.0 0.005503379300000001 -0.105183 0.0 0.0055188951 -0.13833717 0.0 -0.006566808100000001 -0.13683897 0.0 -0.0021871496 -0.13157269 0.0 0.0035752016 -0.12701587 0.0 0.007127848000000001 -0.12376409 0.0 0.0082733277 -0.12141421 0.0 0.0079504168 -0.15774794 0.0 0.006922298100000001 -0.15638907 0.0 0.0043488131 -0.15107693 0.0 0.0082219206 -0.14620392 0.0 0.011439022 -0.14242801 0.0 0.012213534 -0.13945927 0.0 0.011340795 -0.17627719 0.0 0.025043827999999997 -0.17506076 0.0 0.016919583000000002 -0.1707602 0.0 0.016063578000000002 -0.16644363 0.0 0.017424261 -0.16269648 0.0 0.017227327 -0.15939116 0.0 0.015596893 -0.19613129 0.0 0.038093861 -0.19498557 0.0 0.029468935 -0.19181637 0.0 0.025217397000000003 -0.18829212 0.0 0.024326935 -0.18479203 0.0 0.022869727000000003 -0.18130957 0.0 0.020459526999999998 -0.21828462 0.0 0.04598923 -0.21729878 0.0 0.038574292999999996 -0.21501343 0.0 0.033423602999999996 -0.21215381 0.0 0.03105255 -0.20890334 0.0 0.02862422 -0.20532137 0.0 0.025638996 -0.24317586 0.0 0.050540876 -0.24234709 0.0 0.044512428 -0.2406341 0.0 0.039773997 -0.23823425 0.0 0.037037496 -0.23519441 0.0 0.034220111 -0.23157567 0.0 0.030964075 -0.270778 0.0 0.053518035 -0.27009767 0.0 0.048637327 -0.26877996 0.0 0.044783644000000004 -0.26673791 0.0 0.04245932400000001 -0.26390633 0.0 0.039696835 -0.26031175 0.0 0.036406122 -0.30110019 0.0 0.0563851 -0.3007018 0.0 0.052198965 -0.29975399 0.0 0.049374197 -0.29803485 0.0 0.047749229000000004 -0.2954016 0.0 0.045245543 -0.2918359 0.0 0.042030900999999996 -0.33484739 0.0 0.05977463 -0.33476102 0.0 0.05605175 -0.33410117 0.0 0.054197825 -0.33259743 0.0 0.05327715400000001 -0.33006111 0.0 0.051060695 -0.32643673 0.0 0.047949534 -0.37286204 0.0 0.06395999299999999 -0.37289256 0.0 0.060549557000000004 -0.37230861 0.0 0.059619423 -0.37081209 0.0 0.059296142 -0.36818108 0.0 0.05729907 -0.36433035 0.0 0.054247900999999994 -0.41565344 0.0 0.068811312 -0.41552076 0.0 0.065910302 -0.41471741 0.0 0.06585671 -0.41293228 0.0 0.065925837 -0.40993014 0.0 0.064011909 -0.40561649 0.0 0.060930364 -0.463572 0.0 0.074343674 -0.46288878 0.0 0.072284952 -0.46146244 0.0 0.072901092 -0.45898962 0.0 0.073086739 -0.45525041 0.0 0.07110893 -0.45016861 0.0 0.06789872799999999 -0.51652706 0.0 0.08066020900000001 -0.51476967 0.0 0.079706438 -0.51218736 0.0 0.08047544200000001 -0.50851423 0.0 0.080506183 -0.5035854 0.0 0.07838019 -0.49737683 0.0 0.07498239 -0.57331991 0.0 0.08773113800000001 -0.56985211 0.0 0.08794215300000001 -0.5654791 0.0 0.08799623 -0.56002086 0.0 0.08778806800000001 -0.55340773 0.0 0.085593969 -0.54570276 0.0 0.082031257 -0.63071692 0.0 0.09529258300000001 -0.62491572 0.0 0.096387289 -0.61813986 0.0 0.094742782 -0.61035985 0.0 0.09464889800000001 -0.60163897 0.0 0.09270139 -0.59214765 0.0 0.089078881 -0.68259192 0.0 0.10291617 -0.67408186 0.0 0.10430796 -0.664545 0.0 0.10033092 -0.65417612 0.0 0.10141038 -0.64318705 0.0 0.10014682 -0.63185573 0.0 0.096570835 -0.71959805 0.0 0.10965422 -0.70855719 0.0 0.11119897 -0.69647104 0.0 0.10523023 -0.68379194 0.0 0.10915003 -0.67087078 0.0 0.10911559 -0.65805876 0.0 0.10557273 -0.72918302 0.0 0.11503903 -0.71672076 0.0 0.11758897 -0.70328826 0.0 0.1110664 -0.68950242 0.0 0.11965062 -0.67574245 0.0 0.12137378 -0.66238326 0.0 0.11769379 -0.69472742 0.0 0.12028401 -0.6832239 0.0 0.12567344 -0.67109227 0.0 0.12106479 -0.65884727 0.0 0.13494012 -0.64662194 0.0 0.13828585 -0.63462394 0.0 0.13458019 -0.59497601 0.0 0.13056406 -0.58805168 0.0 0.14047039 -0.58112442 0.0 0.13853312 -0.57435387 0.0 0.15444036 -0.56739402 0.0 0.16027924 -0.55995876 0.0 0.15693854 -0.40701738 0.0 0.15862921 -0.40878606 0.0 0.1716018 -0.4111895 0.0 0.15998356 -0.41403612 0.0 0.17729411 -0.4164151 0.0 0.18553548 -0.41731271 0.0 0.1838467 -0.11489534 0.0 0.21561737 -0.12865259 0.0 0.22047894 -0.14343056 0.0 0.19610584 -0.15878829 0.0 0.20216328 -0.17337145 0.0 0.21010736 -0.18546104 0.0 0.21245706 0.27752349 0.0 0.29325816 0.25096795 0.0 0.2761654 0.2232084 0.0 0.23968431 0.19506963 0.0 0.23159388 0.16810744 0.0 0.23230262 0.14439943 0.0 0.23892425 0.73371035 0.0 0.36561444 0.69799364 0.0 0.30460638 0.66052258 0.0 0.26655233 0.62307572 0.0 0.26074564 0.58721805 0.0 0.25074586 0.55485398 0.0 0.26003721 1.1779449 0.0 0.37130377 1.1432521 0.0 0.29741746 1.1050503999999999 0.0 0.27523896 1.0664892 0.0 0.28280383 1.0292108 0.0 0.2665363 0.99450892 0.0 0.27445516 1.5123627 0.0 0.36442983 1.4924673000000002 0.0 0.29830334 1.467783 0.0 0.26957029 1.4408104 0.0 0.28911054 1.4128118 0.0 0.2760247 1.3841633 0.0 0.28251779 1.6753827000000001 0.0 0.38422555 1.6764108 0.0 0.30553964 1.6748383000000002 0.0 0.23309287 1.6695499 0.0 0.260241 1.6594138999999999 0.0 0.26201364 1.6435481 0.0 0.2781775 1.6801863000000001 0.0 0.41053775 1.7000761000000002 0.0 0.33785135 1.7200431 0.0 0.21034132 1.7359708999999999 0.0 0.23971851 1.7443446 0.0 0.25113076 1.742775 0.0 0.27345955 1.5904531000000002 0.0 0.43779626 1.6233959 0.0 0.3764306 1.6578428 0.0 0.2100756 1.6883103 0.0 0.23675749 1.7099311000000001 0.0 0.25017953 1.7192615000000002 0.0 0.27273265 1.4763162 0.0 0.45951039 1.5153736 0.0 0.41082022 1.5559328000000001 0.0 0.22755642 1.5925008 0.0 0.24837087 1.6198801 0.0 0.25800815 1.6341826000000002 0.0 0.27650008 1.3809198999999999 0.0 0.47144979 1.4195571000000002 0.0 0.43221131 1.4588663999999998 0.0 0.25301901 1.4939803 0.0 0.26782477 1.5199722 0.0 0.27022213 1.5330179 0.0 0.28304505 1.309695 0.0 0.46770883 1.3427553 0.0 0.43555239 1.3753628999999998 0.0 0.27108675 1.4033525 0.0 0.2843014 1.4223336000000002 0.0 0.28128585 1.4289576000000002 0.0 0.28964701 1.2406687 0.0 0.45426431 1.2648113 0.0 0.42657292 1.2871639 0.0 0.2793141 1.3041751 0.0 0.29347074 1.3122152 0.0 0.28816023 1.3088303 0.0 0.29390249 1.1462667 0.0 0.43624461 1.1595851000000001 0.0 0.41144463 1.1694446000000003 0.0 0.27971083 1.172909 0.0 0.29517972 1.1674565000000001 0.0 0.28973463 1.1520121 0.0 0.29439175 1.0138056 0.0 0.41699606 1.0148933 0.0 0.39592335 1.0106355 0.0 0.27460301 0.99878615 0.0 0.29035735 0.97833294 0.0 0.28555137 0.95007038 0.0 0.29064658 0.85255963 0.0 0.3987776 0.84024394 0.0 0.38001433 0.82077235 0.0 0.26660308 0.79281282 0.0 0.27946663 0.75722021 0.0 0.27594596 0.71706319 0.0 0.2828607 0.68628585 0.0 0.38007802 0.66001034 0.0 0.35522598 0.62528437 0.0 0.25434521 0.58218765 0.0 0.26209566 0.53375643 0.0 0.26357844 0.48488432 0.0 0.27175698 0.53979927 0.0 0.35879439 0.50030088 0.0 0.32451442 0.45174795 0.0 0.23534971 0.396357 0.0 0.24528551 0.3390798 0.0 0.24977337 0.2853961 0.0 0.25776958 0.42613599 0.0 0.33496919 0.37634391 0.0 0.29300547 0.31716064 0.0 0.21359923 0.25337163 0.0 0.22901206 0.1913178 0.0 0.23329756 0.13602543 0.0 0.24131024 0.34416622 0.0 0.30997846 0.28880894 0.0 0.25944543 0.22277494 0.0 0.19170202 0.15466782 0.0 0.21132419 0.091607019 0.0 0.21497715 0.037331827000000005 0.0 0.22322108 0.28576851 0.0 0.28512225 0.22784176 0.0 0.22094145 0.15772828 0.0 0.17125468 0.089545339 0.0 0.19372943 0.029213976000000003 0.0 0.19711825 -0.021425097999999997 0.0 0.20485859 0.25161552 0.0 0.23873767 0.18234594 0.0 0.18619086 0.10745315 0.0 0.15515251 0.043388452 0.0 0.17842476 -0.010347313 0.0 0.18150258 -0.054476559 0.0 0.1874942 0.24573688 0.0 0.15487622 0.14532331 0.0 0.15651368 0.063335799 0.0 0.14635415 0.0049480102 0.0 0.16775541 -0.038914858999999996 0.0 0.16930908 -0.073797062 0.0 0.17267744 0.24050882 0.0 0.10690437 0.11435248 0.0 0.13706887 0.023287965 0.0 0.13717988 -0.030108278999999998 0.0 0.15819377 -0.062675633 0.0 0.16107175 -0.086567931 0.0 0.16128729 0.094444834 0.0 0.11822928 -0.0088059017 0.0 0.12052628 -0.059105664 0.0 0.14458972 -0.08235060400000001 0.0 0.15361042 -0.095619582 0.0 0.15327086 0.086209908 0.0 0.09869576199999999 -0.020009482 0.0 0.10365387 -0.07598783099999999 0.0 0.12314622 -0.095546231 0.0 0.14317752 -0.10169756 0.0 0.14669999 -0.0022782846 0.0 0.099058911 -0.072249562 0.0 0.10498057 -0.09744221 0.0 0.13084981 -0.10413022 0.0 0.14017226 0.032434721 0.0 0.097454101 -0.036483638 0.0 0.10604958 -0.080695108 0.0 0.12028775 -0.09787856 0.0 0.13468198 0.018635407 0.0 0.11541173 -0.036352302999999996 0.0 0.1210115 -0.071457267 0.0 0.13407302 0.026104225 0.0 0.12905936 -0.013907063 0.0 0.14152953 0.041254289 0.0 0.10801447 0.04940987 0.0 0.1481446 -0.025338568 0.0 0.0010226666 -0.026064375 0.0 0.00098556734 -0.026481189 0.0 0.00088138354 -0.026678677999999997 0.0 0.00074986625 -0.026731495 0.0 0.00061461137 -0.026700361000000002 0.0 0.00049034675 -0.026632039 0.0 0.00038656555 -0.026560597000000002 0.0 0.00030909810000000003 -0.026508978 0.0 0.00026139567 -0.030391539 0.0 0.0013646452 -0.031160846000000002 0.0 0.0013111641000000001 -0.031574257 0.0 0.0011721467999999998 -0.0317396 0.0 0.00099844008 -0.031745788 0.0 0.0008192291700000001 -0.031664632000000005 0.0 0.00065405987 -0.031550772000000005 0.0 0.00051582203 -0.031443566 0.0 0.00041251615 -0.031369254 0.0 0.00034886511 -0.034986712 0.0 0.0016680401 -0.035730517999999996 0.0 0.0015953472 -0.036085796 0.0 0.0014246498000000001 -0.036177561000000004 0.0 0.0012144576 -0.036107246 0.0 0.0009972062 -0.035955459 0.0 0.0007964169500000001 -0.035782479 0.0 0.00062801834 -0.035631087 0.0 0.0005020092400000001 -0.03552958 0.0 0.00042431755 -0.039673917 0.0 0.0019101476999999999 -0.040337682 0.0 0.0018153442 -0.040589157 0.0 0.0016185532 -0.04057147 0.0 0.0013807730999999999 -0.04039805 0.0 0.0011348656 -0.040156542999999996 0.0 0.0009069790199999998 -0.039911262999999995 0.0 0.0007153993400000001 -0.039707188 0.0 0.0005717934099999999 -0.039573766 0.0 0.0004831645099999999 -0.044981595 0.0 0.0020920245000000002 -0.045522407 0.0 0.0019738534 -0.045632396 0.0 0.0017578119 -0.045474783 0.0 0.0015021496 -0.045174479000000003 0.0 0.0012378265 -0.044825237000000004 0.0 0.00099201791 -0.044494621 0.0 0.00078464567 -0.044229072 0.0 0.00062877405 -0.044058595 0.0 0.0005324096400000001 -0.051312219000000006 0.0 0.0022343346 -0.05169097 0.0 0.0020958716000000002 -0.051625952 0.0 0.0018682858 -0.051301003 0.0 0.0016041745999999999 -0.05085139 0.0 0.0013306110999999998 -0.05037665 0.0 0.0010746075 -0.049947128 0.0 0.0008573047800000001 -0.049610544000000006 0.0 0.00069320772 -0.049397402 0.0 0.0005914488 -0.058903012000000005 0.0 0.0023769247 -0.059076563 0.0 0.0022246111 -0.058803093 0.0 0.0019936441 -0.05828359 0.0 0.0017295539 -0.05766228599999999 0.0 0.0014535581 -0.057043817000000004 0.0 0.0011920623 -0.05650112 0.0 0.0009676989300000001 -0.056083262 0.0 0.0007969476299999999 -0.055821177 0.0 0.0006905300500000001 -0.067859694 0.0 0.0025900656 -0.067774095 0.0 0.002423147 -0.06725426799999999 0.0 0.0021938192999999997 -0.06651137 0.0 0.0019348364000000002 -0.065695263 0.0 0.001659123 -0.064914435 0.0 0.0013923670999999999 -0.064243957 0.0 0.0011596303 -0.063734017 0.0 0.00098041759 -0.063416503 0.0 0.00086790824 -0.078262217 0.0 0.0029913547999999997 -0.07783784 0.0 0.0027848913 -0.07702758900000001 0.0 0.0025477801 -0.076029964 0.0 0.0022892684 -0.074995488 0.0 0.0020088942000000003 -0.074033439 0.0 0.0017305436 -0.073220402 0.0 0.0014826307999999998 -0.072607838 0.0 0.0012889697 -0.072228216 0.0 0.0011663166000000001 -0.090242319 0.0 0.0037488907 -0.08938621699999999 0.0 0.0034406043 -0.088235892 0.0 0.0031568728999999997 -0.08694987 0.0 0.002874715 -0.085672326 0.0 0.0025713253 -0.08451027400000001 0.0 0.002265299 -0.08354006 0.0 0.0019881802 -0.082813948 0.0 0.0017690127 -0.082365744 0.0 0.0016291284 -0.10393702 0.0 0.0050579482 -0.10257133 0.0 0.0045460048 -0.10102838 0.0 0.0041392747999999995 -0.099418141 0.0 0.0037817060999999997 -0.09787154199999999 0.0 0.0034178419 -0.0964894 0.0 0.0030549140999999998 -0.09534657699999999 0.0 0.0027254936 -0.094495878 0.0 0.0024637592000000003 -0.09397237 0.0 0.002296089 -0.11945098 0.0 0.0070908456 -0.11753234 0.0 0.0062464555 -0.11554942 0.0 0.0056102588 -0.11357936 0.0 0.0050980495 -0.11173602 0.0 0.0046152915 -0.11011223 0.0 0.0041514044 -0.10878018 0.0 0.0037364671000000003 -0.10779315 0.0 0.0034085382 -0.10718719 0.0 0.003198789 -0.1368753 0.0 0.0099355299 -0.13439631 0.0 0.0086342599 -0.13194083 0.0 0.0076547544 -0.1295801 0.0 0.0068927174 -0.12741266 0.0 0.0062162876 -0.12552424 0.0 0.0055941236 -0.12398507 0.0 0.0050508287 -0.12284891 0.0 0.0046266415000000005 -0.12215282 0.0 0.0043568444 -0.15629669 0.0 0.013556958000000001 -0.15327939 0.0 0.011720366000000001 -0.15034147 0.0 0.010305579 -0.14756873 0.0 0.0092016179 -0.14505224 0.0 0.008250646300000001 -0.14287584 0.0 0.0074045463 -0.14111026 0.0 0.0066826409 -0.13981071 0.0 0.0061266306 -0.13901594 0.0 0.005775526600000001 -0.17780122 0.0 0.017813213 -0.17429411 0.0 0.015437438999999999 -0.17088912 0.0 0.013539626 -0.16769405 0.0 0.012022482 -0.16480714 0.0 0.010721738 -0.16231896 0.0 0.0095842453 -0.16030595 0.0 0.0086293044 -0.1588275 0.0 0.0079019433 -0.15792431 0.0 0.0074456125 -0.20149183 0.0 0.022526221000000003 -0.19756788 0.0 0.019674866000000003 -0.19372548 0.0 0.017295012 -0.19010445 0.0 0.015322188999999998 -0.18682724 0.0 0.013610065 -0.18400256 0.0 0.01211758 -0.1817188 0.0 0.01087422 -0.18004267 0.0 0.0099336654 -0.17901944 0.0 0.0093463697 -0.22752137 0.0 0.027558966 -0.22325434 0.0 0.024328513 -0.21900009 0.0 0.021500482999999997 -0.21494626 0.0 0.019053746 -0.211256 0.0 0.01688318 -0.20806597 0.0 0.014978989 -0.20548347 0.0 0.013393738 -0.2035871 0.0 0.012197801999999999 -0.20242895 0.0 0.011452945 -0.2561034 0.0 0.032850225 -0.25153014 0.0 0.029335691 -0.24686648 0.0 0.026101442000000002 -0.24236013 0.0 0.023174927 -0.23822425 0.0 0.020509554 -0.23463207 0.0 0.018144507 -0.2317158 0.0 0.016168652 -0.22957018 0.0 0.014677704 -0.22825852 0.0 0.013749832 -0.28747186 0.0 0.038413871 -0.28257585 0.0 0.034679938 -0.27747282 0.0 0.031070193 -0.27247295 0.0 0.027660895 -0.2678439 0.0 0.024473127 -0.26380053 0.0 0.021607962999999997 -0.26050514 0.0 0.019201865 -0.25807381 0.0 0.017383423000000002 -0.25658509 0.0 0.016251592 -0.3218399 0.0 0.044299795999999995 -0.31655243 0.0 0.040371227999999995 -0.31094512 0.0 0.036401782 -0.30538771 0.0 0.032511361 -0.30020046 0.0 0.028788477000000003 -0.29564315 0.0 0.025401937000000003 -0.29191229 0.0 0.022543162000000002 -0.28915113 0.0 0.020378862 -0.28745627 0.0 0.019031206000000002 -0.35936269 0.0 0.050542165 -0.35357201 0.0 0.046417292 -0.34736809 0.0 0.042104591 -0.34116986 0.0 0.037756298 -0.33534664 0.0 0.03351802 -0.33020216 0.0 0.029623285 -0.3259722 0.0 0.026320066 -0.3228305 0.0 0.023815189 -0.32089826 0.0 0.022254853999999998 -0.40008992 0.0 0.057120819 -0.39365584 0.0 0.052802935 -0.38674855 0.0 0.048197601 -0.37982014 0.0 0.043468340999999994 -0.37328127 0.0 0.038795177 -0.36747712 0.0 0.034463249 -0.36268511 0.0 0.030772117999999998 -0.35911441 0.0 0.027967531 -0.35691249 0.0 0.026219548999999998 -0.44385761 0.0 0.063951723 -0.43662876 0.0 0.0594927 -0.42891806 0.0 0.054724969000000005 -0.42118785 0.0 0.049785964 -0.4138734 0.0 0.0448526 -0.40735769 0.0 0.040238194 -0.40195671 0.0 0.036283012 -0.39791909 0.0 0.033268217 -0.39542317 0.0 0.031386841 -0.49003732 0.0 0.070920318 -0.48187673 0.0 0.06646584700000001 -0.47330144 0.0 0.061790261 -0.46474686 0.0 0.056945931 -0.45664918 0.0 0.05205048599999999 -0.449415 0.0 0.047413375 -0.44339606 0.0 0.043401387 -0.43888089 0.0 0.040326215 -0.43608269 0.0 0.038401995 -0.53710955 0.0 0.077961475 -0.52793115 0.0 0.073778778 -0.51850474 0.0 0.06959929299999999 -0.50918865 0.0 0.065307491 -0.50038511 0.0 0.060888104000000005 -0.49250212 0.0 0.056606185 -0.48591888 0.0 0.052838989 -0.48096204 0.0 0.049922518 -0.47788173 0.0 0.048088557999999997 -0.58216172 0.0 0.085180379 -0.57197273 0.0 0.08164075 -0.56181461 0.0 0.078491934 -0.55191511 0.0 0.07535059 -0.54259437 0.0 0.071980454 -0.53423536 0.0 0.06855218099999999 -0.52722889 0.0 0.0654324 -0.52193177 0.0 0.062970273 -0.51862913 0.0 0.061407737000000004 -0.62052763 0.0 0.093008555 -0.60948682 0.0 0.090491481 -0.59884763 0.0 0.088953078 -0.58866757 0.0 0.087639436 -0.57914448 0.0 0.085993081 -0.5705992 0.0 0.084025204 -0.56341231 0.0 0.082056805 -0.55795556 0.0 0.08042796 -0.55454206 0.0 0.079372853 -0.64575756 0.0 0.10236035 -0.63425112 0.0 0.10108768 -0.62354529 0.0 0.10161745 -0.61352313 0.0 0.10276543 -0.60423601 0.0 0.10355005 -0.595918 0.0 0.10373011 -0.58890295 0.0 0.10351726 -0.58355564 0.0 0.10319424 -0.58019865 0.0 0.10294858 -0.64991105 0.0 0.11464562 -0.63863921 0.0 0.11454906 -0.62851053 0.0 0.11730126 -0.61925793 0.0 0.12133828 -0.61079586 0.0 0.12519792 -0.60324383 0.0 0.12826103 -0.59686339 0.0 0.13051088 -0.59197825 0.0 0.13207848 -0.58890003 0.0 0.13302885 -0.62339741 0.0 0.13146883 -0.61344272 0.0 0.13226038 -0.6047774 0.0 0.13707398 -0.59707123 0.0 0.14414021 -0.59012187 0.0 0.15156925 -0.58394325 0.0 0.15824951 -0.57870257 0.0 0.16375893 -0.57466292 0.0 0.16791824 -0.57210088 0.0 0.17054373 -0.55236673 0.0 0.15395407 -0.54533267 0.0 0.15553112 -0.53924334 0.0 0.16223617 -0.53392649 0.0 0.17233808 -0.52916318 0.0 0.18368793 -0.52489448 0.0 0.19466659 -0.52121651 0.0 0.20426315 -0.51833171 0.0 0.21178268 -0.51647675 0.0 0.2166239 -0.416457 0.0 0.18204473 -0.41452837 0.0 0.18501352 -0.41240469 0.0 0.19393209 -0.4103823 0.0 0.2073151 -0.40842628 0.0 0.22296153 -0.40650362 0.0 0.23886059 -0.40469491 0.0 0.25332901 -0.40317598 0.0 0.26496384 -0.40215468 0.0 0.27256244 -0.19403058 0.0 0.21403448 -0.19938906 0.0 0.22009557 -0.20272331 0.0 0.23247294 -0.20494643 0.0 0.25001115 -0.20640321 0.0 0.27060837 -0.20721932 0.0 0.29205921 -0.20753311 0.0 0.31209192 -0.20753597 0.0 0.32850829 -0.20743261 0.0 0.33934844 0.12554306 0.0 0.24664149 0.11176218 0.0 0.25855955 0.1019171 0.0 0.27668166 0.09464813 0.0 0.30002907 0.08921230599999999 0.0 0.32664508 0.085261658 0.0 0.35436469 0.08255269400000001 0.0 0.38054699 0.080851607 0.0 0.40225488 0.07993985 0.0 0.4167006 0.527632 0.0 0.2758162 0.50619137 0.0 0.29672533 0.48982897 0.0 0.32352892 0.47719848 0.0 0.35486776 0.46738729 0.0 0.38886824 0.45990345 0.0 0.42359957 0.45443422 0.0 0.45633024 0.45073953 0.0 0.48357651 0.44861963 0.0 0.50178683 0.96352744 0.0 0.29803073 0.93717444 0.0 0.33015406 0.91553926 0.0 0.36825114 0.89787024 0.0 0.40962282 0.88349015 0.0 0.45225909 0.87200421 0.0 0.49456099 0.86320716 0.0 0.533966 0.85699713 0.0 0.56669748 0.85330707 0.0 0.5885945 1.35548 0.0 0.31155998 1.3280778999999998 0.0 0.354929 1.3031831 0.0 0.40529737 1.2811655 0.0 0.45769519 1.2620542 0.0 0.5096302 1.245945 0.0 0.55974495 1.2330527 0.0 0.60576069 1.2236294 0.0 0.64378309 1.21789 0.0 0.66918749 1.6222792 0.0 0.31600156 1.5974376000000001 0.0 0.36933142 1.5714488000000002 0.0 0.43046319 1.5461242 0.0 0.49310341 1.5226626 0.0 0.55398279 1.5019902 0.0 0.61167586 1.4849086 0.0 0.66403949 1.4721308000000002 0.0 0.70706594 1.4642178999999997 0.0 0.73574853 1.7309830000000002 0.0 0.31585759 1.710994 0.0 0.37488765 1.6860971000000002 0.0 0.44332683 1.6594334 0.0 0.51383305 1.6333773999999999 0.0 0.58215284 1.6096700000000002 0.0 0.6464467 1.5896769 0.0 0.70444578 1.5745053 0.0 0.75192446 1.5650207 0.0 0.78351456 1.7153803 0.0 0.31493902 1.7001671999999999 0.0 0.37514782 1.6773488999999997 0.0 0.44683364 1.6509740000000002 0.0 0.52195388 1.6242336000000002 0.0 0.59529424 1.5994288 0.0 0.66442579 1.5782726999999999 0.0 0.72675699 1.5620987 0.0 0.77773285 1.5519372999999999 0.0 0.81162703 1.6341119 0.0 0.31540874 1.6214041000000001 0.0 0.37341872 1.6000065 0.0 0.44479975 1.5743928 0.0 0.52122319 1.5481017 0.0 0.59677017 1.5236193999999998 0.0 0.66847676 1.502713 0.0 0.73336679 1.4867229 0.0 0.78652406 1.4766732 0.0 0.82189387 1.5318589 0.0 0.31746045 1.5183642 0.0 0.37148476 1.4966596 0.0 0.44010931 1.4712621000000001 0.0 0.51508731 1.4456185 0.0 0.59018505 1.4220529 0.0 0.66211718 1.4021357 0.0 0.72760701 1.3870125 0.0 0.78144157 1.3775524 0.0 0.81732959 1.4224583 0.0 0.31985536 1.4051464 0.0 0.36946541 1.3812986999999999 0.0 0.4340252 1.3551792 0.0 0.50564337 1.3298226999999998 0.0 0.57815522 1.3071517 0.0 0.64822537 1.2883729 0.0 0.71244735 1.274316 0.0 0.76547468 1.2656034 0.0 0.80091566 1.294158 0.0 0.32086849 1.2710956 0.0 0.36640209 1.2439227 0.0 0.42642811 1.2164031000000002 0.0 0.49355608 1.1909652 0.0 0.56198376 1.1689848 0.0 0.62855679 1.1512234 0.0 0.68994612 1.1381638 0.0 0.74086642 1.130162 0.0 0.77500021 1.1278783000000001 0.0 0.31907246 1.0984942 0.0 0.36107612 1.06787 0.0 0.41654626 1.0390198 0.0 0.47863245 1.0135956 0.0 0.54205614 0.99235064 0.0 0.60400283 0.9755947 0.0 0.66139144 0.96348399 0.0 0.70919603 0.95614785 0.0 0.74134237 0.91665685 0.0 0.31374171 0.88182694 0.0 0.35269108 0.84888929 0.0 0.40376589 0.8197785 0.0 0.4606297 0.79522032 0.0 0.51857662 0.77530712 0.0 0.5752123 0.75992715 0.0 0.62782896 0.74897587 0.0 0.67181355 0.74240768 0.0 0.7014845 0.67630142 0.0 0.3048752 0.63840765 0.0 0.34115985 0.6054405 0.0 0.38809136 0.57797474 0.0 0.43979448 0.55573988 0.0 0.49211192 0.53820145 0.0 0.54309666 0.52489716 0.0 0.59049046 0.51553679 0.0 0.63020754 0.50996488 0.0 0.65707153 0.44006726 0.0 0.29293826 0.40204 0.0 0.32690528 0.37137881 0.0 0.37003314 0.34726417 0.0 0.41682452 0.32852125 0.0 0.46360624 0.31411994 0.0 0.50886291 0.30336502 0.0 0.55082732 0.29586715 0.0 0.58601952 0.29142869 0.0 0.60986185 0.23959903 0.0 0.27840945 0.2035117 0.0 0.31044579 0.17637132 0.0 0.35022524 0.1561898 0.0 0.3925404 0.14111689 0.0 0.43411478 0.12982164 0.0 0.47381622 0.12150197 0.0 0.51037091 0.11574429 0.0 0.54095453 0.11234985 0.0 0.56166852 0.09105302400000001 0.0 0.26164642 0.057499189000000006 0.0 0.29217631 0.033681586 0.0 0.32915658 0.016798617 0.0 0.36759648 0.004607314699999999 0.0 0.40452042 -0.004329950999999999 0.0 0.43909848 -0.010820695 0.0 0.47051129 -0.015270437 0.0 0.49659789 -0.01787788 0.0 0.51420265 -0.0058483337 0.0 0.2430369 -0.037382971 0.0 0.27235544 -0.059094753 0.0 0.30706057 -0.074105114 0.0 0.3422966 -0.084762275 0.0 0.37529826 -0.092447974 0.0 0.4054234 -0.09792365900000001 0.0 0.43221682 -0.10160845 0.0 0.45413858 -0.10373803 0.0 0.46880367 -0.061801512 0.0 0.22335461 -0.091994368 0.0 0.25125062 -0.11320584 0.0 0.28399211 -0.12801011 0.0 0.31661722 -0.13857073 0.0 0.34647942 -0.14610726 0.0 0.37298614 -0.15134315 0.0 0.39590168 -0.15476507 0.0 0.41421089 -0.15669619 0.0 0.42626786 -0.090528764 0.0 0.20373824 -0.11940426 0.0 0.22936577 -0.14137739 0.0 0.2599929 -0.15742058 0.0 0.29037306 -0.16906402 0.0 0.31779957 -0.17732114 0.0 0.34157491 -0.18292581 0.0 0.36149326 -0.1864797 0.0 0.37692073 -0.1884319 0.0 0.3868441 -0.10339601 0.0 0.18555915 -0.12991108 0.0 0.20764828 -0.15293758 0.0 0.23540092 -0.17115374 0.0 0.26353586 -0.18468304 0.0 0.28898692 -0.19427714 0.0 0.31079215 -0.20069821 0.0 0.32859603 -0.20468417 0.0 0.34195894 -0.20682718 0.0 0.35032389 -0.10762213 0.0 0.17013006 -0.12976032 0.0 0.18760104 -0.15264913 0.0 0.21122846 -0.17315008 0.0 0.23657078 -0.18907481 0.0 0.26008511 -0.20051599 0.0 0.28035051 -0.20817493 0.0 0.29672927 -0.21288621 0.0 0.30878216 -0.21538968 0.0 0.31617025 -0.10697799 0.0 0.15836734 -0.12242041 0.0 0.17079501 -0.14272721 0.0 0.18923335 -0.16422561 0.0 0.21065605 -0.18270949 0.0 0.23173113 -0.19651274 0.0 0.25039232 -0.20594679 0.0 0.26563609 -0.21180741 0.0 0.2768572 -0.21492562 0.0 0.28370374 -0.10419146 0.0 0.15017597 -0.11133696 0.0 0.15832268 -0.12600845 0.0 0.17128846 -0.14559293 0.0 0.1876574 -0.1653883 0.0 0.20520569 -0.18175213 0.0 0.22167175 -0.19351642 0.0 0.23556434 -0.20108013 0.0 0.24599661 -0.20520034 0.0 0.2524398 -0.10161442 0.0 0.14433913 -0.10073654 0.0 0.15005296 -0.10737713 0.0 0.15837944 -0.12141953 0.0 0.16939537 -0.13923451 0.0 0.1822776 -0.15652831 0.0 0.19547856 -0.17048153 0.0 0.20735481 -0.18009904 0.0 0.21664439 -0.18555669 0.0 0.22252487 -0.099717297 0.0 0.13966529 -0.09445256 0.0 0.14443439 -0.09256154300000001 0.0 0.14982536 -0.098186761 0.0 0.15637848 -0.11010753 0.0 0.16439013 -0.12472142 0.0 0.17343074 -0.13852705 0.0 0.18237977 -0.1492925 0.0 0.18993147 -0.15592235 0.0 0.19494057 -0.089943215 0.0 0.13898207 -0.09246770300000001 0.0 0.14042769 -0.08608564699999999 0.0 0.14362021 -0.08243504900000001 0.0 0.14723745 -0.085343078 0.0 0.15143292 -0.093441039 0.0 0.15649782 -0.10360149 0.0 0.16215061 -0.11299247 0.0 0.16748916 -0.11945432 0.0 0.17132537 -0.05686269 0.0 0.14308988 -0.079908699 0.0 0.14208448 -0.085305966 0.0 0.13950536 -0.078075245 0.0 0.13986306 -0.071331367 0.0 0.14161195 -0.070020862 0.0 0.14415336 -0.07335981 0.0 0.14730555 -0.078586228 0.0 0.15068339 -0.082972057 0.0 0.15338126 -0.00023404173 0.0 0.14848025 -0.039891571 0.0 0.14724407 -0.06652662200000001 0.0 0.14225724 -0.074747123 0.0 0.1365044 -0.069069169 0.0 0.13406806 -0.059761789 0.0 0.13493067 -0.054612055 0.0 0.13725771 -0.053588483 0.0 0.13987149 -0.054384492 0.0 0.1419799 0.035896629 0.0 0.13891925 0.0069397246 0.0 0.14340383 -0.020131044 0.0 0.14536566 -0.041573152 0.0 0.14112933 -0.053110249000000005 0.0 0.13468188 -0.053081933 0.0 0.13105161 -0.048267692 0.0 0.1317488 -0.043465391 0.0 0.13446073 -0.040908713 0.0 0.13674526 0.014170425 0.0 0.12458628 0.0090392875 0.0 0.13380256 -0.0050333654999999995 0.0 0.1373024 -0.012572461000000002 0.0 0.13867316 -0.017541897 0.0 0.13645935 -0.019872861000000002 0.0 0.13483235 -0.024023186000000002 0.0 0.13529286 -0.025799256 0.0 0.1365758 -0.010444161 0.0 0.1201854 -0.0062482841 0.0 0.1300413 -0.010195991 0.0 0.13416395 -0.009940529200000001 0.0 0.13695347 -0.0068047866 0.0 0.13785285 0.003445616 0.0 0.13865666 -0.043400601 0.0 0.12607582 -0.047466720999999996 0.0 0.13340086 -0.056366079000000006 0.0 0.13841121 -0.059999045 0.0 0.14105996 -0.026490331000000002 0.0 0.00024530076 -0.026508972000000002 0.0 0.00026139556 -0.026560592999999997 0.0 0.00030909799 -0.026632039 0.0 0.00038656546 -0.026700355 0.0 0.00049034663 -0.026731502 0.0 0.00061461126 -0.026678676000000002 0.0 0.00074986613 -0.026481196000000002 0.0 0.0008813837199999998 -0.031342867999999996 0.0 0.00032738578999999996 -0.031369254 0.0 0.00034886485 -0.031443566 0.0 0.00041251589 -0.031550772000000005 0.0 0.00051582197 -0.031664632000000005 0.0 0.00065405975 -0.031745795 0.0 0.00081922935 -0.031739607 0.0 0.00099843985 -0.031574257 0.0 0.0011721469 -0.035494017999999995 0.0 0.00039809314 -0.035529587 0.0 0.0004243174 -0.03563109 0.0 0.00050200918 -0.035782479 0.0 0.00062801782 -0.035955466 0.0 0.0007964167699999999 -0.036107246 0.0 0.0009972062 -0.03617755 0.0 0.0012144571 -0.036085783999999996 0.0 0.0014246497 -0.039527509 0.0 0.00045323389 -0.039573766 0.0 0.00048316456 -0.039707191 0.0 0.00057179324 -0.03991124 0.0 0.0007153991599999999 -0.040156528 0.0 0.0009069785000000001 -0.040398046 0.0 0.0011348651 -0.040571466 0.0 0.0013807733 -0.040589161 0.0 0.0016185538 -0.043999992 0.0 0.00049984077 -0.044058584000000005 0.0 0.00053240947 -0.044229057 0.0 0.00062877347 -0.044494614 0.0 0.0007846453200000001 -0.04482526 0.0 0.00099201722 -0.045174472 0.0 0.0012378265 -0.045474797000000004 0.0 0.0015021506 -0.045632402999999995 0.0 0.0017578113 -0.049324546 0.0 0.00055700954 -0.049397402 0.0 0.0005914486799999999 -0.049610555 0.0 0.00069320726 -0.049947135 0.0 0.0008573048399999999 -0.05037665 0.0 0.0010746072999999999 -0.050851386 0.0 0.0013306113 -0.051301025 0.0 0.0016041751999999999 -0.051625974000000005 0.0 0.0018682858 -0.055732038 0.0 0.00065442768 -0.05582121 0.0 0.0006905299400000001 -0.056083281 0.0 0.0007969472200000001 -0.056501128 0.0 0.0009676989300000001 -0.057043839000000006 0.0 0.0011920622 -0.05766228599999999 0.0 0.001453558 -0.058283567 0.0 0.0017295529999999998 -0.058803119 0.0 0.0019936438 -0.063308798 0.0 0.00082960032 -0.063416503 0.0 0.0008679083 -0.063734077 0.0 0.0009804181800000002 -0.064243942 0.0 0.0011596314 -0.064914405 0.0 0.0013923674 -0.06569531599999999 0.0 0.0016591237 -0.066511326 0.0 0.0019348369 -0.06725429 0.0 0.0021938202 -0.072099805 0.0 0.0011243823 -0.07222823099999999 0.0 0.0011663175 -0.072607808 0.0 0.0012889701 -0.07322044700000001 0.0 0.0014826324 -0.074033447 0.0 0.0017305457999999998 -0.074995503 0.0 0.0020088954000000003 -0.076029956 0.0 0.0022892701 -0.077027626 0.0 0.0025477784 -0.08221434799999999 0.0 0.0015811354000000001 -0.08236576599999999 0.0 0.0016291302 -0.082813941 0.0 0.0017690146 -0.08354003 0.0 0.0019881825 -0.084510259 0.0 0.0022653013 -0.08567231900000001 0.0 0.0025713273999999997 -0.086949825 0.0 0.0028747173 -0.08823587 0.0 0.0031568720000000002 -0.093795724 0.0 0.0022384507999999997 -0.093972385 0.0 0.0022960913 -0.0944959 0.0 0.0024637622 -0.095346548 0.0 0.0027254962 -0.096489385 0.0 0.0030549178 -0.097871505 0.0 0.0034178444 -0.099418193 0.0 0.0037817097999999997 -0.10102839 0.0 0.0041392776000000004 -0.10698298 0.0 0.003126693 -0.1071872 0.0 0.0031987894 -0.1077932 0.0 0.0034085393 -0.10878021 0.0 0.0037364715 -0.11011223 0.0 0.004151407199999999 -0.11173602 0.0 0.0046152947 -0.11357941 0.0 0.0050980519 -0.11554941 0.0 0.0056102616 -0.12191836 0.0 0.0042642923 -0.12215278 0.0 0.0043568476 -0.12284892 0.0 0.0046266443 -0.12398508 0.0 0.0050508338 -0.12552425 0.0 0.0055941278 -0.12741263 0.0 0.0062162899 -0.12958007 0.0 0.0068927165 -0.13194077 0.0 0.0076547554 -0.13874857 0.0 0.005655443299999999 -0.13901594 0.0 0.005775531800000001 -0.13981077 0.0 0.006126636600000001 -0.1411102 0.0 0.0066826474 -0.14287582 0.0 0.0074045509 -0.14505228 0.0 0.0082506491 -0.14756872 0.0 0.009201621600000001 -0.1503415 0.0 0.010305581 -0.15762065 0.0 0.007290012199999999 -0.15792435 0.0 0.0074456185 -0.15882747 0.0 0.0079019498 -0.16030596 0.0 0.0086293146 -0.16231893 0.0 0.0095842546 -0.16480705 0.0 0.010721743 -0.16769408 0.0 0.012022487 -0.17088915 0.0 0.013539636 -0.1786755 0.0 0.0091465907 -0.17901948 0.0 0.0093463715 -0.18004262 0.0 0.0099336701 -0.18171874 0.0 0.010874228 -0.18400256 0.0 0.012117596999999999 -0.18682724 0.0 0.013610064 -0.19010448 0.0 0.015322195 -0.19372553 0.0 0.017295013999999997 -0.20203981 0.0 0.011199947 -0.20242891 0.0 0.011452941000000001 -0.20358703 0.0 0.012197796 -0.20548356 0.0 0.013393749 -0.20806599 0.0 0.014978995 -0.21125594 0.0 0.016883193 -0.21494637 0.0 0.019053759 -0.21899997 0.0 0.021500485 -0.22781742 0.0 0.013434857 -0.22825858 0.0 0.013749839 -0.22957018 0.0 0.014677705 -0.23171583 0.0 0.016168671000000003 -0.23463209 0.0 0.018144513 -0.23822428 0.0 0.020509563 -0.24236014 0.0 0.02317493 -0.24686652 0.0 0.026101457 -0.25608382 0.0 0.015867399 -0.25658515 0.0 0.016251605 -0.25807396 0.0 0.017383441 -0.26050511 0.0 0.019201878000000002 -0.26380071 0.0 0.021607975 -0.26784393 0.0 0.024473134 -0.27247304 0.0 0.027660904 -0.27747282 0.0 0.031070206 -0.28688523 0.0 0.018573724 -0.28745633 0.0 0.01903121 -0.28915095 0.0 0.020378863 -0.29191226 0.0 0.022543173 -0.29564309 0.0 0.025401932999999998 -0.30020067 0.0 0.028788462 -0.30538759 0.0 0.032511361 -0.31094521 0.0 0.036401775 -0.3202461 0.0 0.021725146 -0.32089835 0.0 0.022254866 -0.32283065 0.0 0.023815218 -0.32597217 0.0 0.026320068 -0.33020222 0.0 0.029623298 -0.33534676 0.0 0.033518024 -0.34116974 0.0 0.037756298 -0.34736806 0.0 0.042104572 -0.35616869 0.0 0.025626114 -0.35691252 0.0 0.026219552 -0.35911432 0.0 0.027967557 -0.36268514 0.0 0.030772131 -0.36747697 0.0 0.034463253 -0.37328109 0.0 0.038795172999999995 -0.37981993 0.0 0.043468334000000004 -0.3867487 0.0 0.04819762 -0.39457893 0.0 0.030747939 -0.39542302 0.0 0.031386852 -0.39791894 0.0 0.033268242999999996 -0.40195677 0.0 0.036283035 -0.40735775 0.0 0.040238217 -0.41387331 0.0 0.044852585 -0.42118821 0.0 0.049785964 -0.42891812 0.0 0.054724962 -0.4351351 0.0 0.037747975 -0.43608278 0.0 0.038402021 -0.43888074 0.0 0.040326245 -0.44339612 0.0 0.043401394 -0.44941491 0.0 0.047413372 -0.45664921 0.0 0.05205049 -0.46474671 0.0 0.056945935 -0.47330132 0.0 0.061790284 -0.47683698 0.0 0.047464020999999995 -0.47788188 0.0 0.048088557999999997 -0.48096207 0.0 0.04992253 -0.48591909 0.0 0.052839022 -0.49250209 0.0 0.056606174 -0.50038511 0.0 0.060888107999999996 -0.50918883 0.0 0.06530749799999999 -0.51850444 0.0 0.069599316 -0.51750708 0.0 0.060873915 -0.51862925 0.0 0.061407786 -0.52193159 0.0 0.06297031 -0.52722901 0.0 0.065432347 -0.53423578 0.0 0.068552211 -0.54259461 0.0 0.071980476 -0.55191487 0.0 0.075350605 -0.56181467 0.0 0.078491911 -0.55338019 0.0 0.079010002 -0.55454183 0.0 0.079372905 -0.55795521 0.0 0.08042801200000001 -0.56341219 0.0 0.082056768 -0.57059926 0.0 0.084025189 -0.5791437 0.0 0.085993037 -0.58866751 0.0 0.087639496 -0.59884751 0.0 0.088953078 -0.57905334 0.0 0.10286067 -0.58019876 0.0 0.10294856 -0.58355552 0.0 0.1031942 -0.58890343 0.0 0.10351725 -0.59591788 0.0 0.10373009 -0.60423648 0.0 0.10355007 -0.61352301 0.0 0.10276539 -0.62354535 0.0 0.10161743 -0.58784741 0.0 0.13335156 -0.58889967 0.0 0.13302903 -0.59197807 0.0 0.1320785 -0.59686339 0.0 0.13051085 -0.60324401 0.0 0.12826103 -0.61079556 0.0 0.12519802 -0.61925834 0.0 0.12133829 -0.62851036 0.0 0.11730117 -0.57122177 0.0 0.17144693 -0.57210058 0.0 0.17054369 -0.57466316 0.0 0.16791824 -0.57870245 0.0 0.16375883 -0.58394313 0.0 0.15824957 -0.59012234 0.0 0.15156922 -0.59707111 0.0 0.14414018 -0.60477775 0.0 0.13707401 -0.51583588 0.0 0.21830225 -0.51647669 0.0 0.21662399 -0.51833153 0.0 0.21178271 -0.52121657 0.0 0.20426303 -0.52489483 0.0 0.19466653 -0.5291633 0.0 0.18368784 -0.53392589 0.0 0.17233805 -0.53924328 0.0 0.16223608 -0.40179428 0.0 0.27521291 -0.40215459 0.0 0.27256241 -0.40317571 0.0 0.26496375 -0.40469474 0.0 0.25332898 -0.40650353 0.0 0.23886053 -0.40842602 0.0 0.2229616 -0.4103823 0.0 0.20731513 -0.41240489 0.0 0.19393198 -0.20737901 0.0 0.34314784 -0.2074326 0.0 0.33934855 -0.20753597 0.0 0.32850829 -0.20753312 0.0 0.31209192 -0.20721935 0.0 0.29205909 -0.2064032 0.0 0.27060834 -0.20494656 0.0 0.25001124 -0.20272341 0.0 0.23247282 0.079655886 0.0 0.42178184 0.079939827 0.0 0.41670069 0.080851652 0.0 0.40225515 0.082552761 0.0 0.38054702 0.08526164300000001 0.0 0.35436451 0.089212216 0.0 0.3266452 0.09464810800000001 0.0 0.3000291 0.10191696 0.0 0.27668181 0.44793123 0.0 0.5082075 0.44861972 0.0 0.50178671 0.45073941 0.0 0.48357651 0.45443434 0.0 0.45633009 0.45990321 0.0 0.42359951 0.46738738 0.0 0.38886836 0.47719845 0.0 0.35486796 0.48982885 0.0 0.32352886 0.85208452 0.0 0.59632313 0.85330719 0.0 0.5885945 0.85699743 0.0 0.56669754 0.86320686 0.0 0.53396589 0.87200421 0.0 0.49456093 0.8834902 0.0 0.45225906 0.89787024 0.0 0.40962258 0.91553909 0.0 0.3682512 1.2159621999999999 0.0 0.67815185 1.2178898999999999 0.0 0.66918689 1.2236301 0.0 0.64378291 1.2330526000000002 0.0 0.60576063 1.2459447 0.0 0.55974507 1.2620541 0.0 0.5096302 1.2811649999999999 0.0 0.45769504 1.3031833000000002 0.0 0.40529734 1.4615381 0.0 0.74586189 1.4642181 0.0 0.73574823 1.4721308000000002 0.0 0.7070657 1.4849086 0.0 0.66403943 1.5019896000000001 0.0 0.61167574 1.5226635 0.0 0.55398297 1.5461241000000001 0.0 0.49310377 1.5714486 0.0 0.43046346 1.5617923999999999 0.0 0.79464567 1.5650208 0.0 0.78351474 1.5745056999999998 0.0 0.7519241 1.589677 0.0 0.70444578 1.6096704 0.0 0.64644676 1.633377 0.0 0.5821529 1.6594334 0.0 0.51383293 1.6860968 0.0 0.44332695 1.5484712 0.0 0.82356673 1.5519378000000001 0.0 0.81162751 1.5620979 0.0 0.77773303 1.5782723 0.0 0.72675645 1.5994285 0.0 0.66442567 1.6242334999999999 0.0 0.59529436 1.6509744999999998 0.0 0.5219537 1.6773499 0.0 0.44683385 1.4732438 0.0 0.83435833 1.476673 0.0 0.82189387 1.4867231 0.0 0.78652406 1.5027138999999998 0.0 0.73336709 1.5236191000000001 0.0 0.6684767 1.5481013000000001 0.0 0.59677011 1.5743928999999999 0.0 0.52122313 1.6000071000000002 0.0 0.44480023 1.3743313999999998 0.0 0.82998782 1.3775525 0.0 0.81732959 1.3870127 0.0 0.78144133 1.402136 0.0 0.72760653 1.4220532 0.0 0.66211683 1.4456183999999999 0.0 0.59018499 1.4712621000000001 0.0 0.51508754 1.496659 0.0 0.44010952 1.26265 0.0 0.81343281 1.2656037 0.0 0.80091584 1.2743156 0.0 0.7654745 1.2883729 0.0 0.71244723 1.3071518999999998 0.0 0.64822507 1.3298228 0.0 0.57815552 1.3551785 0.0 0.50564355 1.3812993 0.0 0.43402568 1.1274643 0.0 0.78707296 1.1301618999999998 0.0 0.77500039 1.1381642 0.0 0.74086636 1.1512243 0.0 0.6899457 1.1689847 0.0 0.62855697 1.1909643 0.0 0.56198364 1.2164031000000002 0.0 0.49355629 1.2439231000000002 0.0 0.42642817 0.9536888 0.0 0.75273055 0.95614803 0.0 0.74134201 0.96348345 0.0 0.70919555 0.97559398 0.0 0.66139156 0.9923501 0.0 0.60400265 1.0135956 0.0 0.54205644 1.0390193 0.0 0.47863254 1.0678713 0.0 0.41654629 0.74021727 0.0 0.71201396 0.7424075 0.0 0.70148474 0.74897599 0.0 0.67181337 0.75992727 0.0 0.62782907 0.77530682 0.0 0.5752123 0.79522079 0.0 0.51857668 0.8197785 0.0 0.46062988 0.84888911 0.0 0.40376595 0.50811416 0.0 0.6666196 0.50996512 0.0 0.65707123 0.51553684 0.0 0.63020754 0.52489692 0.0 0.59049064 0.53820127 0.0 0.54309678 0.55574 0.0 0.49211195 0.57797438 0.0 0.43979445 0.60544044 0.0 0.38809147 0.28995809 0.0 0.61834574 0.29142851 0.0 0.60986155 0.29586712 0.0 0.58601964 0.30336493 0.0 0.55082756 0.31411961 0.0 0.50886285 0.32852107 0.0 0.46360627 0.3472639 0.0 0.41682449 0.37137839 0.0 0.37003303 0.11122752 0.0 0.56904089 0.11234982 0.0 0.56166822 0.11574426 0.0 0.54095435 0.12150195 0.0 0.51037109 0.12982157 0.0 0.47381634 0.14111689 0.0 0.43411496 0.15618984 0.0 0.39254048 0.17637122 0.0 0.35022503 -0.018737681000000003 0.0 0.52045995 -0.017877907 0.0 0.51420295 -0.015270448999999998 0.0 0.49659804 -0.010820722 0.0 0.47051108 -0.0043299906 0.0 0.43909854 0.004607283 0.0 0.4045203 0.016798551999999998 0.0 0.36759645 0.033681467 0.0 0.32915625 -0.10443521 0.0 0.47399601 -0.10373798 0.0 0.46880394 -0.10160849 0.0 0.45413843 -0.097923614 0.0 0.43221694 -0.09244796599999999 0.0 0.40542352 -0.08476232 0.0 0.37529817 -0.074105188 0.0 0.34229672 -0.059094843 0.0 0.30706066 -0.15732008 0.0 0.4305042 -0.15669614 0.0 0.4262678 -0.15476495 0.0 0.41421103 -0.15134317 0.0 0.39590171 -0.14610724 0.0 0.37298608 -0.13857079 0.0 0.3464793 -0.1280102 0.0 0.31661725 -0.11320595 0.0 0.28399214 -0.18905284 0.0 0.39028841 -0.18843202 0.0 0.38684407 -0.18647972 0.0 0.37692073 -0.18292576 0.0 0.36149356 -0.17732112 0.0 0.3415747 -0.16906397 0.0 0.31779963 -0.15742058 0.0 0.29037318 -0.14137745 0.0 0.25999308 -0.20749961 0.0 0.35318282 -0.20682715 0.0 0.35032389 -0.20468393 0.0 0.341959 -0.2006982 0.0 0.32859573 -0.19427693 0.0 0.31079209 -0.18468307 0.0 0.28898698 -0.17115366 0.0 0.26353571 -0.15293755 0.0 0.23540086 -0.21616904 0.0 0.31866243 -0.21538962 0.0 0.31617033 -0.21288626 0.0 0.30878219 -0.20817494 0.0 0.29672903 -0.20051587 0.0 0.2803506 -0.18907474 0.0 0.26008517 -0.17314993 0.0 0.23657072 -0.15264903 0.0 0.21122842 -0.21589465 0.0 0.28600332 -0.21492559 0.0 0.28370374 -0.21180722 0.0 0.27685714 -0.2059467 0.0 0.26563588 -0.19651265 0.0 0.25039232 -0.18270946 0.0 0.23173109 -0.1642255 0.0 0.21065611 -0.14272717 0.0 0.18923338 -0.20649539 0.0 0.25461653 -0.20520028 0.0 0.25243989 -0.20107996 0.0 0.24599659 -0.19351621 0.0 0.23556435 -0.181752 0.0 0.22167183 -0.16538826 0.0 0.20520571 -0.14559279 0.0 0.18765748 -0.12600845 0.0 0.17128845 -0.18731011 0.0 0.22453752 -0.18555655 0.0 0.22252488 -0.18009885 0.0 0.21664432 -0.17048152 0.0 0.20735474 -0.15652816 0.0 0.19547845 -0.13923439 0.0 0.18227763 -0.12141953 0.0 0.16939546 -0.10737699 0.0 0.15837942 -0.15814684 0.0 0.19669421 -0.15592228 0.0 0.19494063 -0.14929244 0.0 0.1899313 -0.13852695 0.0 0.18237977 -0.12472138 0.0 0.17343064 -0.11010747 0.0 0.16439016 -0.098186724 0.0 0.15637846 -0.09256148300000001 0.0 0.14982541 -0.12174564 0.0 0.17271975 -0.11945432 0.0 0.17132534 -0.11299241 0.0 0.1674891 -0.10360141 0.0 0.16215056 -0.09344101699999999 0.0 0.15649773 -0.085343026 0.0 0.15143295 -0.082435064 0.0 0.1472373 -0.08608564 0.0 0.14362016 -0.084654041 0.0 0.1544091 -0.082972057 0.0 0.1533812 -0.078586251 0.0 0.15068325 -0.073359825 0.0 0.14730553 -0.070020869 0.0 0.14415337 -0.07133133 0.0 0.14161186 -0.078075245 0.0 0.13986301 -0.085305892 0.0 0.13950543 -0.05489435 0.0 0.1428033 -0.054384525999999996 0.0 0.14197993 -0.053588536 0.0 0.13987145 -0.054612108 0.0 0.13725768 -0.059761804 0.0 0.13493057 -0.069069192 0.0 0.13406792 -0.07474716 0.0 0.13650446 -0.066526689 0.0 0.14225721 -0.040116887999999996 0.0 0.1375844 -0.040908713 0.0 0.1367452 -0.043465387 0.0 0.1344607 -0.04826786 0.0 0.13174872 -0.053081989 0.0 0.13105153 -0.053110309 0.0 0.1346819 -0.041573118 0.0 0.14112934 -0.020131014 0.0 0.14536573 -0.025538522999999997 0.0 0.1371488 -0.025799232999999998 0.0 0.1365758 -0.024023267 0.0 0.1352928 -0.019872867 0.0 0.13483226 -0.017542157 0.0 0.13645925 -0.012572631 0.0 0.13867304 -0.0050334739 0.0 0.13730243 0.0090389363 0.0 0.13380253 0.0090400167 0.0 0.13918966 0.0034454865000000004 0.0 0.13865665 -0.0068047373 0.0 0.13785277 -0.0099407025 0.0 0.13695338 -0.010196069 0.0 0.1341638 -0.006248355400000001 0.0 0.13004123 -0.010444273 0.0 0.12018538 -0.058398797999999995 0.0 0.14186229 -0.059999200999999995 0.0 0.14105988 -0.056365989000000005 0.0 0.13841115 -0.047466729000000006 0.0 0.13340077 -0.043400768 0.0 0.12607574 -0.026064379 0.0 0.00098556769 -0.02533856 0.0 0.0010226665 -0.024192549 0.0 0.0009324051199999999 -0.022503445 0.0 0.00065753696 -0.02017558 0.0 0.00018001828000000002 -0.017199207 0.0 -0.00044623575999999996 -0.013716104 0.0 -0.001071731 -0.031160841 0.0 0.0013111643 -0.030391547999999997 0.0 0.0013646453 -0.029128417 0.0 0.0012537845 -0.027214069 0.0 0.0009030718400000001 -0.024520185 0.0 0.00028586073 -0.021022153999999998 0.0 -0.00053440122 -0.016881491999999998 0.0 -0.00137384 -0.012486029 0.0 -0.0019470146 -0.035730517999999996 0.0 0.0015953474 -0.034986708 0.0 0.0016680416 -0.03368865 0.0 0.0015477448 -0.031638822999999996 0.0 0.0011406216999999999 -0.028665192000000003 0.0 0.00040870352 -0.024712237999999997 0.0 -0.00058044249 -0.019944757 0.0 -0.0016178761 -0.01481474 0.0 -0.0023786532999999998 -0.040337667 0.0 0.0018153446 -0.039673928 0.0 0.001910148 -0.038401835 0.0 0.0017950827 -0.036276352000000005 0.0 0.0013575391 -0.033068545 0.0 0.00054400507 -0.02867692 0.0 -0.0005810499400000001 -0.023263121 0.0 -0.0017911058 -0.017351443 0.0 -0.0027182253999999996 -0.045522407 0.0 0.0019738546 -0.04498161 0.0 0.0020920252 -0.043779787 0.0 0.0019949501999999997 -0.041615851 0.0 0.0015510323999999999 -0.038192526 0.0 0.0006876309599999999 -0.033363397999999996 0.0 -0.00054065487 -0.02728078 0.0 -0.0018972075 -0.020520687 0.0 -0.0029719723 -0.051690951 0.0 0.0020958707 -0.05131220400000001 0.0 0.0022343355 -0.050220377999999996 0.0 0.0021608865 -0.048060662999999997 0.0 0.0017272318 -0.044502337 0.0 0.00083929754 -0.039357442 0.0 -0.00046797434 -0.032714695 0.0 -0.0019577192 -0.025112787 0.0 -0.0031722377000000003 -0.05907657 0.0 0.0022246109 -0.058903030999999995 0.0 0.0023769254 -0.057981577 0.0 0.0023285244 -0.055964245999999995 0.0 0.0019184455 -0.052536800999999994 0.0 0.0010210430000000001 -0.047456451 0.0 -0.0003636356 -0.040654897999999995 0.0 -0.002003409 -0.032373875 0.0 -0.0033671972 -0.067774102 0.0 0.0024231472 -0.067859747 0.0 0.0025900654 -0.06723576 0.0 0.0025789717 -0.065640226 0.0 0.0022076762 -0.062838264 0.0 0.0012961850999999999 -0.058552444 0.0 -0.00020622636999999999 -0.052432190999999996 0.0 -0.0020662472 -0.044001833 0.0 -0.0036063990999999998 -0.07783788400000001 0.0 0.0027848927 -0.078262202 0.0 0.0029913555 -0.078117453 0.0 0.0030545583000000003 -0.077304453 0.0 0.0027442758000000003 -0.075757116 0.0 0.0017900492999999998 -0.073259592 0.0 6.8585854e-05 -0.069144487 0.0 -0.0021647513 -0.0617624 0.0 -0.0039570499 -0.08938617300000001 0.0 0.0034406061999999998 -0.09024230400000001 0.0 0.0037488890999999996 -0.09074872699999999 0.0 0.0039560287 -0.091009676 0.0 0.0037489946 -0.09120990300000001 0.0 0.0027164929 -0.091349915 0.0 0.00059993565 -0.090625569 0.0 -0.0023184395 -0.086136177 0.0 -0.0047174357 -0.10257135 0.0 0.0045460071 -0.10393702 0.0 0.0050579449 -0.10518305 0.0 0.0055188951 -0.10658564 0.0 0.0055033802000000005 -0.10856865 0.0 0.0043744948 -0.11141732 0.0 0.0015945022 -0.11445051 0.0 -0.0026086494 -0.11403731 0.0 -0.0065204048999999995 -0.11753234 0.0 0.0062464493999999995 -0.11945096 0.0 0.007090847 -0.12141416 0.0 0.0079504093 -0.12376416 0.0 0.0082733305 -0.12701592 0.0 0.0071278503 -0.13157272 0.0 0.0035752025 -0.13683893 0.0 -0.0021871514999999998 -0.13833719 0.0 -0.006566801999999999 -0.13439643 0.0 0.0086342627 -0.1368753 0.0 0.009935528 -0.13945931 0.0 0.011340796 -0.14242803 0.0 0.012213537 -0.14620389 0.0 0.011439023999999999 -0.15107694 0.0 0.0082219271 -0.15638906 0.0 0.0043488173 -0.15774795 0.0 0.006922286 -0.1532795 0.0 0.011720365 -0.1562968 0.0 0.013556951000000001 -0.15939125 0.0 0.015596893 -0.16269645 0.0 0.017227337 -0.16644357 0.0 0.017424248 -0.17076014 0.0 0.016063582 -0.17506078 0.0 0.016919587 -0.17627718 0.0 0.025043838 -0.17429419 0.0 0.015437438999999999 -0.17780119 0.0 0.017813213 -0.18130952 0.0 0.020459533000000002 -0.18479204 0.0 0.022869737999999997 -0.18829224 0.0 0.024326935 -0.19181636 0.0 0.025217401 -0.19498551 0.0 0.029468942 -0.19613126 0.0 0.038093865 -0.19756787 0.0 0.019674858 -0.20149186 0.0 0.022526214 -0.20532145 0.0 0.025638981 -0.20890348 0.0 0.028624231 -0.21215379 0.0 0.031052539 -0.21501343 0.0 0.033423606 -0.21729887 0.0 0.038574286 -0.21828468 0.0 0.04598924099999999 -0.22325437 0.0 0.024328507000000003 -0.22752152 0.0 0.027558957999999998 -0.23157568 0.0 0.030964058 -0.2351944 0.0 0.034220113999999996 -0.23823424 0.0 0.037037499 -0.24063416 0.0 0.039774027 -0.24234705 0.0 0.044512447000000004 -0.24317589 0.0 0.050540876 -0.25153026 0.0 0.029335706 -0.25610337 0.0 0.032850232 -0.26031163 0.0 0.0364061 -0.26390627 0.0 0.039696842 -0.26673797 0.0 0.042459328 -0.2687799 0.0 0.044783637 -0.27009782 0.0 0.048637345 -0.27077803 0.0 0.053518049000000005 -0.28257594 0.0 0.034679927 -0.28747192 0.0 0.038413875 -0.29183593 0.0 0.042030912000000004 -0.29540172 0.0 0.045245524 -0.298035 0.0 0.04774921 -0.29975405 0.0 0.049374189000000006 -0.30070189 0.0 0.05219893900000001 -0.30110022 0.0 0.056385066 -0.31655246 0.0 0.040371221 -0.32183999 0.0 0.044299780999999996 -0.32643694 0.0 0.047949497 -0.3300612 0.0 0.051060706 -0.33259743 0.0 0.053277165 -0.33410108 0.0 0.054197817999999995 -0.33476099 0.0 0.056051700999999995 -0.33484751 0.0 0.05977463 -0.35357195 0.0 0.046417281 -0.3593626 0.0 0.050542197999999997 -0.36433053 0.0 0.054247937999999996 -0.36818099 0.0 0.05729904 -0.37081227 0.0 0.059296172 -0.3723087 0.0 0.059619400999999995 -0.37289265 0.0 0.060549575999999994 -0.37286222 0.0 0.063960038 -0.39365587 0.0 0.052802917000000005 -0.40008959 0.0 0.057120815 -0.40561655 0.0 0.060930356 -0.40993032 0.0 0.064011924 -0.41293237 0.0 0.065925859 -0.41471767 0.0 0.06585671 -0.41552076 0.0 0.065910295 -0.41565353 0.0 0.06881129 -0.43662879 0.0 0.059492718 -0.44385746 0.0 0.063951701 -0.45016864 0.0 0.067898743 -0.45525044 0.0 0.071108907 -0.45898962 0.0 0.073086746 -0.46146265 0.0 0.072901092 -0.46288884 0.0 0.072284922 -0.46357217 0.0 0.074343719 -0.48187673 0.0 0.066465832 -0.4900369 0.0 0.070920303 -0.49737689 0.0 0.074982375 -0.5035854 0.0 0.078380212 -0.50851434 0.0 0.080506168 -0.51218736 0.0 0.080475479 -0.51476961 0.0 0.079706438 -0.51652712 0.0 0.08066024599999999 -0.52793074 0.0 0.07377877099999999 -0.53710961 0.0 0.077961512 -0.5457027 0.0 0.082031198 -0.55340773 0.0 0.085593961 -0.56002092 0.0 0.087788045 -0.56547916 0.0 0.08799625900000001 -0.56985235 0.0 0.08794218300000001 -0.57331997 0.0 0.08773112300000001 -0.57197297 0.0 0.081640847 -0.58216178 0.0 0.08518040199999999 -0.59214765 0.0 0.08907888800000001 -0.60163879 0.0 0.09270135300000001 -0.61035973 0.0 0.094648965 -0.61813951 0.0 0.0947427 -0.62491566 0.0 0.096387289 -0.6307171 0.0 0.09529262 -0.60948682 0.0 0.09049145900000001 -0.62052763 0.0 0.0930086 -0.63185573 0.0 0.09657082 -0.64318711 0.0 0.10014683 -0.65417582 0.0 0.1014104 -0.66454494 0.0 0.10033092 -0.67408186 0.0 0.10430797 -0.68259186 0.0 0.10291614 -0.6342507 0.0 0.10108769 -0.64575773 0.0 0.10236038 -0.65805876 0.0 0.10557272 -0.67087072 0.0 0.10911566 -0.68379182 0.0 0.10915008 -0.69647092 0.0 0.10523023 -0.70855695 0.0 0.11119898 -0.71959782 0.0 0.10965416 -0.63863939 0.0 0.11454904 -0.64991152 0.0 0.11464562 -0.66238314 0.0 0.11769377 -0.67574221 0.0 0.12137376 -0.68950254 0.0 0.11965063 -0.70328832 0.0 0.11106644 -0.71672094 0.0 0.11758907 -0.72918284 0.0 0.11503896 -0.61344254 0.0 0.13226041 -0.62339753 0.0 0.1314688 -0.63462371 0.0 0.13458031 -0.64662176 0.0 0.13828583 -0.65884793 0.0 0.13494024 -0.67109239 0.0 0.1210648 -0.68322361 0.0 0.1256734 -0.69472742 0.0 0.1202839 -0.54533261 0.0 0.15553117 -0.55236632 0.0 0.15395406 -0.55995882 0.0 0.15693851 -0.56739402 0.0 0.1602792 -0.57435411 0.0 0.15444033 -0.58112448 0.0 0.1385331 -0.58805174 0.0 0.14047039 -0.59497589 0.0 0.13056406 -0.41452846 0.0 0.1850134 -0.41645733 0.0 0.18204474 -0.41731283 0.0 0.18384661 -0.41641521 0.0 0.18553552 -0.41403612 0.0 0.17729408 -0.41118971 0.0 0.15998347 -0.40878624 0.0 0.17160197 -0.4070175 0.0 0.15862943 -0.19938913 0.0 0.22009575 -0.19403045 0.0 0.2140345 -0.18546127 0.0 0.21245706 -0.17337175 0.0 0.21010737 -0.15878858 0.0 0.20216329 -0.14343072 0.0 0.19610588 -0.12865248 0.0 0.22047897 -0.11489551 0.0 0.21561746 0.11176211 0.0 0.25855955 0.125543 0.0 0.24664152 0.14439914 0.0 0.23892415 0.1681073 0.0 0.2323025 0.19506954 0.0 0.23159401 0.2232084 0.0 0.23968436 0.25096783 0.0 0.27616525 0.27752334 0.0 0.29325831 0.50619125 0.0 0.29672554 0.52763188 0.0 0.27581626 0.5548538 0.0 0.2600373 0.58721793 0.0 0.25074583 0.62307578 0.0 0.26074558 0.66052222 0.0 0.2665523 0.69799346 0.0 0.30460638 0.73371041 0.0 0.3656145 0.93717486 0.0 0.33015424 0.96352708 0.0 0.29803091 0.99450886 0.0 0.27445528 1.0292107 0.0 0.26653624 1.0664896000000001 0.0 0.2828038 1.1050513000000002 0.0 0.27523899 1.1432526 0.0 0.2974174 1.1779449 0.0 0.37130344 1.3280767 0.0 0.35492894 1.3554796 0.0 0.31156036 1.3841629 0.0 0.28251785 1.4128119 0.0 0.2760247 1.4408106 0.0 0.28911057 1.4677833 0.0 0.26957026 1.4924674 0.0 0.29830322 1.5123638000000001 0.0 0.36442977 1.5974373 0.0 0.36933178 1.6222796 0.0 0.3160021 1.643548 0.0 0.27817777 1.6594137999999998 0.0 0.26201364 1.6695497 0.0 0.26024121 1.6748397000000002 0.0 0.23309283 1.6764107 0.0 0.30553916 1.6753827000000001 0.0 0.38422528 1.7109951 0.0 0.37488762 1.7309841000000001 0.0 0.31585798 1.7427751 0.0 0.27346009 1.7443453000000002 0.0 0.25113112 1.7359712999999999 0.0 0.23971871 1.720044 0.0 0.21034129 1.7000765 0.0 0.33785141 1.6801865000000002 0.0 0.41053757 1.7001666000000002 0.0 0.37514788 1.7153808000000001 0.0 0.31493959 1.7192618000000002 0.0 0.27273297 1.7099322 0.0 0.25017983 1.6883105999999999 0.0 0.23675759 1.6578433999999997 0.0 0.21007568 1.6233968 0.0 0.37643015 1.5904536 0.0 0.43779597 1.6214043 0.0 0.37341914 1.6341127 0.0 0.31540933 1.6341825 0.0 0.27650049 1.6198807 0.0 0.25800848 1.5925016 0.0 0.24837108 1.555934 0.0 0.22755654 1.5153738 0.0 0.41082051 1.4763159 0.0 0.45951074 1.5183645000000001 0.0 0.37148538 1.5318587 0.0 0.31746072 1.5330184999999998 0.0 0.28304532 1.5199724 0.0 0.27022225 1.4939806 0.0 0.26782495 1.4588666000000001 0.0 0.25301892 1.4195577 0.0 0.43221077 1.3809198999999999 0.0 0.47144985 1.4051471000000002 0.0 0.36946577 1.4224591999999998 0.0 0.31985563 1.4289571 0.0 0.28964716 1.4223336000000002 0.0 0.28128576 1.4033527 0.0 0.28430158 1.3753632 0.0 0.27108669 1.3427551000000002 0.0 0.43555188 1.309695 0.0 0.46770868 1.2710959 0.0 0.36640242 1.2941582 0.0 0.32086849 1.3088301000000002 0.0 0.29390281 1.3122139 0.0 0.28816023 1.3041755 0.0 0.29347104 1.2871641 0.0 0.27931404 1.2648110000000001 0.0 0.42657334 1.2406687 0.0 0.45426384 1.0984935 0.0 0.36107627 1.1278781 0.0 0.31907251 1.1520115 0.0 0.29439178 1.1674562 0.0 0.28973466 1.1729094 0.0 0.2951799 1.1694446000000003 0.0 0.27971077 1.1595858 0.0 0.41144434 1.1462665 0.0 0.43624425 0.88182676 0.0 0.35269114 0.91665661 0.0 0.31374171 0.95007026 0.0 0.29064679 0.97833264 0.0 0.28555143 0.99878621 0.0 0.29035717 1.0106357 0.0 0.2746031 1.0148933 0.0 0.39592338 1.0138056 0.0 0.41699544 0.63840705 0.0 0.34115997 0.6763007 0.0 0.30487525 0.71706241 0.0 0.28286082 0.75721991 0.0 0.27594581 0.79281288 0.0 0.27946669 0.82077199 0.0 0.2666029 0.84024352 0.0 0.38001418 0.85255951 0.0 0.39877784 0.4020398 0.0 0.32690513 0.44006708 0.0 0.29293841 0.48488432 0.0 0.27175713 0.53375643 0.0 0.26357836 0.58218783 0.0 0.26209557 0.62528431 0.0 0.25434515 0.66001052 0.0 0.35522616 0.68628585 0.0 0.38007784 0.20351143 0.0 0.31044582 0.23959889 0.0 0.27840951 0.28539577 0.0 0.25776967 0.33907953 0.0 0.24977337 0.39635685 0.0 0.24528569 0.45174757 0.0 0.23534955 0.500301 0.0 0.32451412 0.53979903 0.0 0.35879475 0.057499073 0.0 0.29217616 0.091052786 0.0 0.26164651 0.13602531 0.0 0.24131012 0.19131751 0.0 0.23329754 0.25337115 0.0 0.22901222 0.31716055 0.0 0.21359938 0.37634388 0.0 0.29300538 0.4261362 0.0 0.33496922 -0.037383083 0.0 0.27235559 -0.0058484618 0.0 0.24303673 0.037331715 0.0 0.22322097 0.09160695199999999 0.0 0.21497712 0.15466769 0.0 0.21132433 0.22277473 0.0 0.19170208 0.28880876 0.0 0.25944576 0.34416607 0.0 0.30997854 -0.091994449 0.0 0.25125074 -0.061801568 0.0 0.22335458 -0.021425199 0.0 0.20485854 0.029213909 0.0 0.19711824 0.089545228 0.0 0.19372948 0.15772836 0.0 0.17125463 0.22784175 0.0 0.22094148 0.28576854 0.0 0.28512216 -0.11940431 0.0 0.22936589 -0.090528779 0.0 0.20373818 -0.054476610999999994 0.0 0.18749417 -0.010347338000000001 0.0 0.18150263 0.043388385 0.0 0.17842489 0.10745306 0.0 0.15515257 0.18234588 0.0 0.18619114 0.25161549 0.0 0.23873782 -0.12991101 0.0 0.20764819 -0.10339601 0.0 0.18555918 -0.073797047 0.0 0.17267746 -0.03891487 0.0 0.16930903 0.0049479697 0.0 0.16775528 0.063335665 0.0 0.14635399 0.14532317 0.0 0.15651357 0.24573678 0.0 0.15487619 -0.12976032 0.0 0.1876011 -0.10762219 0.0 0.17013013 -0.086567983 0.0 0.16128728 -0.06267561 0.0 0.16107173 -0.03010828 0.0 0.1581938 0.023287923999999998 0.0 0.13717993 0.11435229 0.0 0.13706861 0.24050865 0.0 0.10690447 -0.12242031 0.0 0.17079504 -0.1069779 0.0 0.15836731 -0.095619552 0.0 0.15327092 -0.082350627 0.0 0.15361035 -0.059105687000000004 0.0 0.14458972 -0.008805804 0.0 0.12052636 0.094444595 0.0 0.1182292 -0.11133686 0.0 0.15832262 -0.10419147 0.0 0.15017594 -0.1016975 0.0 0.14669999 -0.095546246 0.0 0.14317748 -0.07598764400000001 0.0 0.12314623 -0.020009538 0.0 0.10365367 0.086209491 0.0 0.09869579199999999 -0.1007365 0.0 0.15005298 -0.10161435 0.0 0.14433907 -0.10413022 0.0 0.14017223 -0.097442217 0.0 0.13084973 -0.072249494 0.0 0.10498061 -0.0022784024 0.0 0.099058725 -0.09445256 0.0 0.14443445 -0.099717192 0.0 0.13966534 -0.097878546 0.0 0.13468206 -0.080695085 0.0 0.12028773 -0.036483757 0.0 0.10604945 0.032434396000000004 0.0 0.097454086 -0.09246774 0.0 0.14042778 -0.08994329699999999 0.0 0.13898213 -0.071457192 0.0 0.13407297 -0.03635215 0.0 0.12101153 0.018635556 0.0 0.11541182 -0.079908744 0.0 0.14208449 -0.056862574000000006 0.0 0.14308986 -0.013907001 0.0 0.14152962 0.026104163 0.0 0.12905934 -0.039891526000000004 0.0 0.14724414 -0.00023411866000000003 0.0 0.14848024 0.049409613 0.0 0.14814462 0.041254196 0.0 0.10801446 0.0069395783 0.0 0.14340383 0.035896423999999996 0.0 0.13891931 0.014170233 0.0 0.12458625 
Force 3 2975 float
0.0 0.0 0.0 0.0 0.0 0.0 0.0 0.0 0.0 0.0 0.0 0.0 0.0 0.0 0.0 0.0 0.0 0.0 0.0 0.0 0.0 0.0 0.0 0.0 0.0 0.0 0.0 0.0 0.0 0.0 0.0 0.0 0.0 0.0 0.0 0.0 0.0 0.0 0.0 0.0 0.0 0.0 0.0 0.0 0.0 0.0 0.0 0.0 0.0 0.0 0.0 0.0 0.0 0.0 0.0 0.0 0.0 0.0 0.0 0.0 0.0 0.0 0.0 0.0 0.0 0.0 0.0 0.0 0.0 0.0 0.0 0.0 0.0 0.0 0.0 0.0 0.0 0.0 0.0 0.0 0.0 0.0 0.0 0.0 0.0 0.0 0.0 0.0 0.0 0.0 0.0 0.0 0.0 0.0 0.0 0.0 0.0 0.0 0.0 0.0 0.0 0.0 0.0 0.0 0.0 0.0 0.0 0.0 0.0 0.0 0.0 0.0 0.0 0.0 0.0 0.0 0.0 0.0 0.0 0.0 0.0 0.0 0.0 0.0 0.0 0.0 0.0 0.0 0.0 0.0 0.0 0.0 0.0 0.0 0.0 0.0 0.0 0.0 0.0 0.0 0.0 0.0 0.0 0.0 0.0 0.0 0.0 0.0 0.0 0.0 0.0 0.0 0.0 0.0 0.0 0.0 0.0 0.0 0.0 0.0 0.0 0.0 0.0 0.0 0.0 0.0 0.0 0.0 0.0 0.0 0.0 0.0 0.0 0.0 0.0 0.0 0.0 0.0 0.0 0.0 0.0 0.0 0.0 0.0 0.0 0.0 0.0 0.0 0.0 0.0 0.0 0.0 0.0 0.0 0.0 0.0 0.0 0.0 0.0 0.0 0.0 0.0 0.0 0.0 0.0 0.0 0.0 0.0 0.0 0.0 0.0 0.0 0.0 0.0 0.0 0.0 0.0 0.0 0.0 0.0 0.0 0.0 0.0 0.0 0.0 0.0 0.0 0.0 0.0 0.0 0.0 0.0 0.0 0.0 0.0 0.0 0.0 0.0 0.0 0.0 0.0 0.0 0.0 0.0 0.0 0.0 0.0 0.0 0.0 0.0 0.0 0.0 0.0 0.0 0.0 0.0 0.0 0.0 0.0 0.0 0.0 0.0 0.0 0.0 0.0 0.0 0.0 0.0 0.0 0.0 0.0 0.0 0.0 0.0 0.0 0.0 0.0 0.0 0.0 0.0 0.0 0.0 0.0 0.0 0.0 0.0 0.0 0.0 0.0 0.0 0.0 0.0 0.0 0.0 0.0 0.0 0.0 0.0 0.0 0.0 0.0 0.0 0.0 0.0 0.0 0.0 0.0 0.0 0.0 0.0 0.0 0.0 0.0 0.0 0.0 0.0 0.0 0.0 0.0 0.0 0.0 0.0 0.0 0.0 0.0 0.0 0.0 0.0 0.0 0.0 0.0 0.0 0.0 0.0 0.0 0.0 0.0 0.0 0.0 0.0 0.0 0.0 0.0 0.0 0.0 0.0 0.0 0.0 0.0 0.0 0.0 0.0 0.0 0.0 0.0 0.0 0.0 0.0 0.0 0.0 0.0 0.0 0.0 0.0 0.0 0.0 0.0 0.0 0.0 0.0 0.0 0.0 0.0 0.0 0.0 0.0 0.0 0.0 0.0 0.0 0.0 0.0 0.0 0.0 0.0 0.0 0.0 0.0 0.0 0.0 0.0 0.0 0.0 0.0 0.0 0.0 0.0 0.0 0.0 0.0 0.0 0.0 0.0 0.0 0.0 0.0 0.0 0.0 0.0 0.0 0.0 0.0 0.0 0.0 0.0 0.0 0.0 0.0 0.0 0.0 0.0 0.0 0.0 0.0 0.0 0.0 0.0 0.0 0.0 0.0 0.0 0.0 0.0 0.0 0.0 0.0 0.0 0.0 0.0 0.0 0.0 0.0 0.0 0.0 0.0 0.0 0.0 0.0 0.0 0.0 0.0 0.0 0.0 0.0 0.0 0.0 0.0 0.0 0.0 0.0 0.0 0.0 0.0 0.0 0.0 0.0 0.0 0.0 0.0 0.0 0.0 0.0 0.0 0.0 0.0 0.0 0.0 0.0 0.0 0.0 0.0 0.0 0.0 0.0 0.0 0.0 0.0 0.0 0.0 0.0 0.0 0.0 0.0 0.0 0.0 0.0 0.0 0.0 0.0 0.0 0.0 0.0 0.0 0.0 0.0 0.0 0.0 0.0 0.0 0.0 0.0 0.0 0.0 0.0 0.0 0.0 0.0 0.0 0.0 0.0 0.0 0.0 0.0 0.0 0.0 0.0 0.0 0.0 0.0 0.0 0.0 0.0 0.0 0.0 0.0 0.0 0.0 0.0 0.0 0.0 0.0 0.0 0.0 0.0 0.0 0.0 0.0 0.0 0.0 0.0 0.0 0.0 0.0 0.0 0.0 0.0 0.0 0.0 0.0 0.0 0.0 0.0 0.0 0.0 0.0 0.0 0.0 0.0 0.0 0.0 0.0 0.0 0.0 0.0 0.0 0.0 0.0 0.0 0.0 0.0 0.0 0.0 0.0 0.0 0.0 0.0 0.0 0.0 0.0 0.0 0.0 0.0 0.0 0.0 0.0 0.0 0.0 0.0 0.0 0.0 0.0 0.0 0.0 0.0 0.0 0.0 0.0 0.0 0.0 0.0 0.0 0.0 0.0 0.0 0.0 0.0 0.0 0.0 0.0 0.0 0.0 0.0 0.0 0.0 0.0 0.0 0.0 0.0 0.0 0.0 0.0 0.0 0.0 0.0 0.0 0.0 0.0 0.0 0.0 0.0 0.0 0.0 0.0 0.0 0.0 0.0 0.0 0.0 0.0 0.0 0.0 0.0 0.0 0.0 0.0 0.0 0.0 0.0 0.0 0.0 0.0 0.0 0.0 0.0 0.0 0.0 0.0 0.0 0.0 0.0 0.0 0.0 0.0 0.0 0.0 0.0 0.0 0.0 0.0 0.0 0.0 0.0 0.0 0.0 0.0 0.0 0.0 0.0 0.0 0.0 0.0 0.0 0.0 0.0 0.0 0.0 0.0 0.0 0.0 0.0 0.0 0.0 0.0 0.0 0.0 0.0 0.0 0.0 0.0 0.0 0.0 0.0 0.0 0.0 0.0 0.0 0.0 0.0 0.0 0.0 0.0 0.0 0.0 0.0 0.0 0.0 0.0 0.0 0.0 0.0 0.0 0.0 0.0 0.0 0.0 0.0 0.0 0.0 0.0 0.0 0.0 0.0 0.0 0.0 0.0 0.0 0.0 0.0 0.0 0.0 0.0 0.0 0.0 0.0 0.0 0.0 0.0 0.0 0.0 0.0 0.0 0.0 0.0 0.0 0.0 0.0 0.0 0.0 0.0 0.0 0.0 0.0 0.0 0.0 0.0 0.0 0.0 0.0 0.0 0.0 0.0 0.0 0.0 0.0 0.0 0.0 0.0 0.0 0.0 0.0 0.0 0.0 0.0 0.0 0.0 0.0 0.0 0.0 0.0 0.0 0.0 0.0 0.0 0.0 0.0 0.0 0.0 0.0 0.0 0.0 0.0 0.0 0.0 0.0 0.0 0.0 0.0 0.0 0.0 0.0 0.0 0.0 0.0 0.0 0.0 0.0 0.0 0.0 0.0 0.0 0.0 0.0 0.0 0.0 0.0 0.0 0.0 0.0 0.0 0.0 0.0 0.0 0.0 0.0 0.0 0.0 0.0 0.0 0.0 0.0 0.0 0.0 0.0 0.0 0.0 0.0 0.0 0.0 0.0 0.0 0.0 0.0 0.0 0.0 0.0 0.0 0.0 0.0 0.0 0.0 0.0 0.0 0.0 0.0 0.0 0.0 0.0 0.0 0.0 0.0 0.0 0.0 0.0 0.0 0.0 0.0 0.0 0.0 0.0 0.0 0.0 0.0 0.0 0.0 0.0 0.0 0.0 0.0 0.0 0.0 0.0 0.0 0.0 0.0 0.0 0.0 0.0 0.0 0.0 0.0 0.0 0.0 0.0 0.0 0.0 0.0 0.0 0.0 0.0 0.0 0.0 0.0 0.0 0.0 0.0 0.0 0.0 0.0 0.0 0.0 0.0 0.0 0.0 0.0 0.0 0.0 0.0 0.0 0.0 0.0 0.0 0.0 0.0 0.0 0.0 0.0 0.0 0.0 0.0 0.0 0.0 0.0 0.0 0.0 0.0 0.0 0.0 0.0 0.0 0.0 0.0 0.0 0.0 0.0 0.0 0.0 0.0 0.0 0.0 0.0 0.0 0.0 0.0 0.0 0.0 0.0 0.0 0.0 0.0 0.0 0.0 0.0 0.0 0.0 0.0 0.0 0.0 0.0 0.0 0.0 0.0 0.0 0.0 0.0 0.0 0.0 0.0 0.0 0.0 0.0 0.0 0.0 0.0 0.0 0.0 0.0 0.0 0.0 0.0 0.0 0.0 0.0 0.0 0.0 0.0 0.0 0.0 0.0 0.0 0.0 0.0 0.0 0.0 0.0 0.0 0.0 0.0 0.0 0.0 0.0 0.0 0.0 0.0 0.0 0.0 0.0 0.0 0.0 0.0 0.0 0.0 0.0 0.0 0.0 0.0 0.0 0.0 0.0 0.0 0.0 0.0 0.0 0.0 0.0 0.0 0.0 0.0 0.0 0.0 0.0 0.0 0.0 0.0 0.0 0.0 0.0 0.0 0.0 0.0 0.0 0.0 0.0 0.0 0.0 0.0 0.0 0.0 0.0 0.0 0.0 0.0 0.0 0.0 0.0 0.0 0.0 0.0 0.0 0.0 0.0 0.0 0.0 0.0 0.0 0.0 0.0 0.0 0.0 0.0 0.0 0.0 0.0 0.0 0.0 0.0 0.0 0.0 0.0 0.0 0.0 0.0 0.0 0.0 0.0 0.0 0.0 0.0 0.0 0.0 0.0 0.0 0.0 0.0 0.0 0.0 0.0 0.0 0.0 0.0 0.0 0.0 0.0 0.0 0.0 0.0 0.0 0.0 0.0 0.0 0.0 0.0 0.0 0.0 0.0 0.0 0.0 0.0 0.0 0.0 0.0 0.0 0.0 0.0 0.0 0.0 0.0 0.0 0.0 0.0 0.0 0.0 0.0 0.0 0.0 0.0 0.0 0.0 0.0 0.0 0.0 0.0 0.0 0.0 0.0 0.0 0.0 0.0 0.0 0.0 0.0 0.0 0.0 0.0 0.0 0.0 0.0 0.0 0.0 0.0 0.0 0.0 0.0 0.0 0.0 0.0 0.0 0.0 0.0 0.0 0.0 0.0 0.0 0.0 0.0 0.0 0.0 0.0 0.0 0.0 0.0 0.0 0.0 0.0 0.0 0.0 0.0 0.0 0.0 0.0 0.0 0.0 0.0 0.0 0.0 0.0 0.0 0.0 0.0 0.0 0.0 0.0 0.0 0.0 0.0 0.0 0.0 0.0 0.0 0.0 0.0 0.0 0.0 0.0 0.0 0.0 0.0 0.0 0.0 0.0 0.0 0.0 0.0 0.0 0.0 0.0 0.0 0.0 0.0 0.0 0.0 0.0 0.0 0.0 0.0 0.0 0.0 0.0 0.0 0.0 0.0 0.0 0.0 0.0 0.0 0.0 0.0 0.0 0.0 0.0 0.0 0.0 0.0 0.0 0.0 0.0 0.0 0.0 0.0 0.0 0.0 0.0 0.0 0.0 0.0 0.0 0.0 0.0 0.0 0.0 0.0 0.0 0.0 0.0 0.0 0.0 0.0 0.0 0.0 0.0 0.0 0.0 0.0 0.0 0.0 0.0 0.0 0.0 0.0 0.0 0.0 0.0 0.0 0.0 0.0 0.0 0.0 0.0 0.0 0.0 0.0 0.0 0.0 0.0 0.0 0.0 0.0 0.0 0.0 0.0 0.0 0.0 0.0 0.0 0.0 0.0 0.0 0.0 0.0 0.0 0.0 0.0 0.0 0.0 0.0 0.0 0.0 0.0 0.0 0.0 0.0 0.0 0.0 0.0 0.0 0.0 0.0 0.0 0.0 0.0 0.0 0.0 0.0 0.0 0.0 0.0 0.0 0.0 0.0 0.0 0.0 0.0 0.0 0.0 0.0 0.0 0.0 0.0 0.0 0.0 0.0 0.0 0.0 0.0 0.0 0.0 0.0 0.0 0.0 0.0 0.0 0.0 0.0 0.0 0.0 0.0 0.0 0.0 0.0 0.0 0.0 0.0 0.0 0.0 0.0 0.0 0.0 0.0 0.0 0.0 0.0 0.0 0.0 0.0 0.0 0.0 0.0 0.0 0.0 0.0 0.0 0.0 0.0 0.0 0.0 0.0 0.0 0.0 0.0 0.0 0.0 0.0 0.0 0.0 0.0 0.0 0.0 0.0 0.0 0.0 0.0 0.0 0.0 0.0 0.0 0.0 0.0 0.0 0.0 0.0 0.0 0.0 0.0 0.0 0.0 0.0 0.0 0.0 0.0 0.0 0.0 0.0 0.0 0.0 0.0 0.0 0.0 0.0 0.0 0.0 0.0 0.0 0.0 0.0 0.0 0.0 0.0 0.0 0.0 0.0 0.0 0.0 0.0 0.0 0.0 0.0 0.0 0.0 0.0 0.0 0.0 0.0 0.0 0.0 0.0 0.0 0.0 0.0 0.0 0.0 0.0 0.0 0.0 0.0 0.0 0.0 0.0 0.0 0.0 0.0 0.0 0.0 0.0 0.0 0.0 0.0 0.0 0.0 0.0 0.0 0.0 0.0 0.0 0.0 0.0 0.0 0.0 0.0 0.0 0.0 0.0 0.0 0.0 0.0 0.0 0.0 0.0 0.0 0.0 0.0 0.0 0.0 0.0 0.0 0.0 0.0 0.0 0.0 0.0 0.0 0.0 0.0 0.0 0.0 0.0 0.0 0.0 0.0 0.0 0.0 0.0 0.0 0.0 0.0 0.0 0.0 0.0 0.0 0.0 0.0 0.0 0.0 0.0 0.0 0.0 0.0 0.0 0.0 0.0 0.0 0.0 0.0 0.0 0.0 0.0 0.0 0.0 0.0 0.0 0.0 0.0 0.0 0.0 0.0 0.0 0.0 0.0 0.0 0.0 0.0 0.0 0.0 0.0 0.0 0.0 0.0 0.0 0.0 0.0 0.0 0.0 0.0 0.0 0.0 0.0 0.0 0.0 0.0 0.0 0.0 0.0 0.0 0.0 0.0 0.0 0.0 0.0 0.0 0.0 0.0 0.0 0.0 0.0 0.0 0.0 0.0 0.0 0.0 0.0 0.0 0.0 0.0 0.0 0.0 0.0 0.0 0.0 0.0 0.0 0.0 0.0 0.0 0.0 0.0 0.0 0.0 0.0 0.0 0.0 0.0 0.0 0.0 0.0 0.0 0.0 0.0 0.0 0.0 0.0 0.0 0.0 0.0 0.0 0.0 0.0 0.0 0.0 0.0 0.0 0.0 0.0 0.0 0.0 0.0 0.0 0.0 0.0 0.0 0.0 0.0 0.0 0.0 0.0 0.0 0.0 0.0 0.0 0.0 0.0 0.0 0.0 0.0 0.0 0.0 0.0 0.0 0.0 0.0 0.0 0.0 0.0 0.0 0.0 0.0 0.0 0.0 0.0 0.0 0.0 0.0 0.0 0.0 0.0 0.0 0.0 0.0 0.0 0.0 0.0 0.0 0.0 0.0 0.0 0.0 0.0 0.0 0.0 0.0 0.0 0.0 0.0 0.0 0.0 0.0 0.0 0.0 0.0 0.0 0.0 0.0 0.0 0.0 0.0 0.0 0.0 0.0 0.0 0.0 0.0 0.0 0.0 0.0 0.0 0.0 0.0 0.0 0.0 0.0 0.0 0.0 0.0 0.0 0.0 0.0 0.0 0.0 0.0 0.0 0.0 0.0 0.0 0.0 0.0 0.0 0.0 0.0 0.0 0.0 0.0 0.0 0.0 0.0 0.0 0.0 0.0 0.0 0.0 0.0 0.0 0.0 0.0 0.0 0.0 0.0 0.0 0.0 0.0 0.0 0.0 0.0 0.0 0.0 0.0 0.0 0.0 0.0 0.0 0.0 0.0 0.0 0.0 0.0 0.0 0.0 0.0 0.0 0.0 0.0 0.0 0.0 0.0 0.0 0.0 0.0 0.0 0.0 0.0 0.0 0.0 0.0 0.0 0.0 0.0 0.0 0.0 0.0 0.0 0.0 0.0 0.0 0.0 0.0 0.0 0.0 0.0 0.0 0.0 0.0 0.0 0.0 0.0 0.0 0.0 0.0 0.0 0.0 0.0 0.0 0.0 0.0 0.0 0.0 0.0 0.0 0.0 0.0 0.0 0.0 0.0 0.0 0.0 0.0 0.0 0.0 0.0 0.0 0.0 0.0 0.0 0.0 0.0 0.0 0.0 0.0 0.0 0.0 0.0 0.0 0.0 0.0 0.0 0.0 0.0 0.0 0.0 0.0 0.0 0.0 0.0 0.0 0.0 0.0 0.0 0.0 0.0 0.0 0.0 0.0 0.0 0.0 0.0 0.0 0.0 0.0 0.0 0.0 0.0 0.0 0.0 0.0 0.0 0.0 0.0 0.0 0.0 0.0 0.0 0.0 0.0 0.0 0.0 0.0 0.0 0.0 0.0 0.0 0.0 0.0 0.0 0.0 0.0 0.0 0.0 0.0 0.0 0.0 0.0 0.0 0.0 0.0 0.0 0.0 0.0 0.0 0.0 0.0 0.0 0.0 0.0 0.0 0.0 0.0 0.0 0.0 0.0 0.0 0.0 0.0 0.0 0.0 0.0 0.0 0.0 0.0 0.0 0.0 0.0 0.0 0.0 0.0 0.0 0.0 0.0 0.0 0.0 0.0 0.0 0.0 0.0 0.0 0.0 0.0 0.0 0.0 0.0 0.0 0.0 0.0 0.0 0.0 0.0 0.0 0.0 0.0 0.0 0.0 0.0 0.0 0.0 0.0 0.0 0.0 0.0 0.0 0.0 0.0 0.0 0.0 0.0 0.0 0.0 0.0 0.0 0.0 0.0 0.0 0.0 0.0 0.0 0.0 0.0 0.0 0.0 0.0 0.0 0.0 0.0 0.0 0.0 0.0 0.0 0.0 0.0 0.0 0.0 0.0 0.0 0.0 0.0 0.0 0.0 0.0 0.0 0.0 0.0 0.0 0.0 0.0 0.0 0.0 0.0 0.0 0.0 0.0 0.0 0.0 0.0 0.0 0.0 0.0 0.0 0.0 0.0 0.0 0.0 0.0 0.0 0.0 0.0 0.0 0.0 0.0 0.0 0.0 0.0 0.0 0.0 0.0 0.0 0.0 0.0 0.0 0.0 0.0 0.0 0.0 0.0 0.0 0.0 0.0 0.0 0.0 0.0 0.0 0.0 0.0 0.0 0.0 0.0 0.0 0.0 0.0 0.0 0.0 0.0 0.0 0.0 0.0 0.0 0.0 0.0 0.0 0.0 0.0 0.0 0.0 0.0 0.0 0.0 0.0 0.0 0.0 0.0 0.0 0.0 0.0 0.0 0.0 0.0 0.0 0.0 0.0 0.0 0.0 0.0 0.0 0.0 0.0 0.0 0.0 0.0 0.0 0.0 0.0 0.0 0.0 0.0 0.0 0.0 0.0 0.0 0.0 0.0 0.0 0.0 0.0 0.0 0.0 0.0 0.0 0.0 0.0 0.0 0.0 0.0 0.0 0.0 0.0 0.0 0.0 0.0 0.0 0.0 0.0 0.0 0.0 0.0 0.0 0.0 0.0 0.0 0.0 0.0 0.0 0.0 0.0 0.0 0.0 0.0 0.0 0.0 0.0 0.0 0.0 0.0 0.0 0.0 0.0 0.0 0.0 0.0 0.0 0.0 0.0 0.0 0.0 0.0 0.0 0.0 0.0 0.0 0.0 0.0 0.0 0.0 0.0 0.0 0.0 0.0 0.0 0.0 0.0 0.0 0.0 0.0 0.0 0.0 0.0 0.0 0.0 0.0 0.0 0.0 0.0 0.0 0.0 0.0 0.0 0.0 0.0 0.0 0.0 0.0 0.0 0.0 0.0 0.0 0.0 0.0 0.0 0.0 0.0 0.0 0.0 0.0 0.0 0.0 0.0 0.0 0.0 0.0 0.0 0.0 0.0 0.0 0.0 0.0 0.0 0.0 0.0 0.0 0.0 0.0 0.0 0.0 0.0 0.0 0.0 0.0 0.0 0.0 0.0 0.0 0.0 0.0 0.0 0.0 0.0 0.0 0.0 0.0 0.0 0.0 0.0 0.0 0.0 0.0 0.0 0.0 0.0 0.0 0.0 0.0 0.0 0.0 0.0 0.0 0.0 0.0 0.0 0.0 0.0 0.0 0.0 0.0 0.0 0.0 0.0 0.0 0.0 0.0 0.0 0.0 0.0 0.0 0.0 0.0 0.0 0.0 0.0 0.0 0.0 0.0 0.0 0.0 0.0 0.0 0.0 0.0 0.0 0.0 0.0 0.0 0.0 0.0 0.0 0.0 0.0 0.0 0.0 0.0 0.0 0.0 0.0 0.0 0.0 0.0 0.0 0.0 0.0 0.0 0.0 0.0 0.0 0.0 0.0 0.0 0.0 0.0 0.0 0.0 0.0 0.0 0.0 0.0 0.0 0.0 0.0 0.0 0.0 0.0 0.0 0.0 0.0 0.0 0.0 0.0 0.0 0.0 0.0 0.0 0.0 0.0 0.0 0.0 0.0 0.0 0.0 0.0 0.0 0.0 0.0 0.0 0.0 0.0 0.0 0.0 0.0 0.0 0.0 0.0 0.0 0.0 0.0 0.0 0.0 0.0 0.0 0.0 0.0 0.0 0.0 0.0 0.0 0.0 0.0 0.0 0.0 0.0 0.0 0.0 0.0 0.0 0.0 0.0 0.0 0.0 0.0 0.0 0.0 0.0 0.0 0.0 0.0 0.0 0.0 0.0 0.0 0.0 0.0 0.0 0.0 0.0 0.0 0.0 0.0 0.0 0.0 0.0 0.0 0.0 0.0 0.0 0.0 0.0 0.0 0.0 0.0 0.0 0.0 0.0 0.0 0.0 0.0 0.0 0.0 0.0 0.0 0.0 0.0 0.0 0.0 0.0 0.0 0.0 0.0 0.0 0.0 0.0 0.0 0.0 0.0 0.0 0.0 0.0 0.0 0.0 0.0 0.0 0.0 0.0 0.0 0.0 0.0 0.0 0.0 0.0 0.0 0.0 0.0 0.0 0.0 0.0 0.0 0.0 0.0 0.0 0.0 0.0 0.0 0.0 0.0 0.0 0.0 0.0 0.0 0.0 0.0 0.0 0.0 0.0 0.0 0.0 0.0 0.0 0.0 0.0 0.0 0.0 0.0 0.0 0.0 0.0 0.0 0.0 0.0 0.0 0.0 0.0 0.0 0.0 0.0 0.0 0.0 0.0 0.0 0.0 0.0 0.0 0.0 0.0 0.0 0.0 0.0 0.0 0.0 0.0 0.0 0.0 0.0 0.0 0.0 0.0 0.0 0.0 0.0 0.0 0.0 0.0 0.0 0.0 0.0 0.0 0.0 0.0 0.0 0.0 0.0 0.0 0.0 0.0 0.0 0.0 0.0 0.0 0.0 0.0 0.0 0.0 0.0 0.0 0.0 0.0 0.0 0.0 0.0 0.0 0.0 0.0 0.0 0.0 0.0 0.0 0.0 0.0 0.0 0.0 0.0 0.0 0.0 0.0 0.0 0.0 0.0 0.0 0.0 0.0 0.0 0.0 0.0 0.0 0.0 0.0 0.0 0.0 0.0 0.0 0.0 0.0 0.0 0.0 0.0 0.0 0.0 0.0 0.0 0.0 0.0 0.0 0.0 0.0 0.0 0.0 0.0 0.0 0.0 0.0 0.0 0.0 0.0 0.0 0.0 0.0 0.0 0.0 0.0 0.0 0.0 0.0 0.0 0.0 0.0 0.0 0.0 0.0 0.0 0.0 0.0 0.0 0.0 0.0 0.0 0.0 0.0 0.0 0.0 0.0 0.0 0.0 0.0 0.0 0.0 0.0 0.0 0.0 0.0 0.0 0.0 0.0 0.0 0.0 0.0 0.0 0.0 0.0 0.0 0.0 0.0 0.0 0.0 0.0 0.0 0.0 0.0 0.0 0.0 0.0 0.0 0.0 0.0 0.0 0.0 0.0 0.0 0.0 0.0 0.0 0.0 0.0 0.0 0.0 0.0 0.0 0.0 0.0 0.0 0.0 0.0 0.0 0.0 0.0 0.0 0.0 0.0 0.0 0.0 0.0 0.0 0.0 0.0 0.0 0.0 0.0 0.0 0.0 0.0 0.0 0.0 0.0 0.0 0.0 0.0 0.0 0.0 0.0 0.0 0.0 0.0 0.0 0.0 0.0 0.0 0.0 0.0 0.0 0.0 0.0 0.0 0.0 0.0 0.0 0.0 0.0 0.0 0.0 0.0 0.0 0.0 0.0 0.0 0.0 0.0 0.0 0.0 0.0 0.0 0.0 0.0 0.0 0.0 0.0 0.0 0.0 0.0 0.0 0.0 0.0 0.0 0.0 0.0 0.0 0.0 0.0 0.0 0.0 0.0 0.0 0.0 0.0 0.0 0.0 0.0 0.0 0.0 0.0 0.0 0.0 0.0 0.0 0.0 0.0 0.0 0.0 0.0 0.0 0.0 0.0 0.0 0.0 0.0 0.0 0.0 0.0 0.0 0.0 0.0 0.0 0.0 0.0 0.0 0.0 0.0 0.0 0.0 0.0 0.0 0.0 0.0 0.0 0.0 0.0 0.0 0.0 0.0 0.0 0.0 0.0 0.0 0.0 0.0 0.0 0.0 0.0 0.0 0.0 0.0 0.0 0.0 0.0 0.0 0.0 0.0 0.0 0.0 0.0 0.0 0.0 0.0 0.0 0.0 0.0 0.0 0.0 0.0 0.0 0.0 0.0 0.0 0.0 0.0 0.0 0.0 0.0 0.0 0.0 0.0 0.0 0.0 0.0 0.0 0.0 0.0 0.0 0.0 0.0 0.0 0.0 0.0 0.0 0.0 0.0 0.0 0.0 0.0 0.0 0.0 0.0 0.0 0.0 0.0 0.0 0.0 0.0 0.0 0.0 0.0 0.0 0.0 0.0 0.0 0.0 0.0 0.0 0.0 0.0 0.0 0.0 0.0 0.0 0.0 0.0 0.0 0.0 0.0 0.0 0.0 0.0 0.0 0.0 0.0 0.0 0.0 0.0 0.0 0.0 0.0 0.0 0.0 0.0 0.0 0.0 0.0 0.0 0.0 0.0 0.0 0.0 0.0 0.0 0.0 0.0 0.0 0.0 0.0 0.0 0.0 0.0 0.0 0.0 0.0 0.0 0.0 0.0 0.0 0.0 0.0 0.0 0.0 0.0 0.0 0.0 0.0 0.0 0.0 0.0 0.0 0.0 0.0 0.0 0.0 0.0 0.0 0.0 0.0 0.0 0.0 0.0 0.0 0.0 0.0 0.0 0.0 0.0 0.0 0.0 0.0 0.0 0.0 0.0 0.0 0.0 0.0 0.0 0.0 0.0 0.0 0.0 0.0 0.0 0.0 0.0 0.0 0.0 0.0 0.0 0.0 0.0 0.0 0.0 0.0 0.0 0.0 0.0 0.0 0.0 0.0 0.0 0.0 0.0 0.0 0.0 0.0 0.0 0.0 -0.2636922905923071 0.0 -0.1014295825357395 -0.3100929357523232 0.0 -0.0942124143553103 -0.34843865271096613 0.0 -0.08300302207507551 -0.37884503347112564 0.0 -0.0704924737623118 -0.40208961005224 0.0 -0.057812097445302406 -0.2589391784734793 0.0 -0.13284759932118992 -0.34395400059884984 0.0 -0.11644687891117192 -0.40917397022934904 0.0 -0.10999920674998011 -0.45962877149071896 0.0 -0.09856713046417821 -0.498151132453778 0.0 -0.08496731812418291 -0.5270143731753589 0.0 -0.07036627775915691 -0.3470040406751008 0.0 -0.1396892594922314 -0.45438157135953894 0.0 -0.1241283431032085 -0.535228453380711 0.0 -0.11422596285564901 -0.597359094933977 0.0 -0.1018878465471961 -0.6442464161061601 0.0 -0.08871680621792011 -0.67930281698257 0.0 -0.07397016984925421 -0.4549770513744261 0.0 -0.14292164357304102 -0.587435174685879 0.0 -0.12380180709504511 -0.682979937074498 0.0 -0.1130144148253603 -0.7553284988832121 0.0 -0.10058269851456741 -0.8101051402526281 0.0 -0.08749063418726581 -0.850954261273856 0.0 -0.0731404938285123 -0.5830856545771411 0.0 -0.1464710276617756 -0.743649258591231 0.0 -0.1204474470111861 -0.854481341362033 0.0 -0.1082706467067661 -0.9362923034073071 0.0 -0.0960135464003386 -0.998415584960389 0.0 -0.0831942700798567 -1.0443699061092473 0.0 -0.0694369457359236 -0.7362215384055381 0.0 -0.15262680381567 -0.928210863205271 0.0 -0.1156345388908634 -1.0546194263654851 0.0 -0.10079970651999261 -1.1452669486316729 0.0 -0.0886229782155744 -1.2135871103396771 0.0 -0.07678396991959921 -1.263739791593494 0.0 -0.0639844175996104 -0.9207841030196022 0.0 -0.1648683601217089 -1.147130788678269 0.0 -0.1119173067979326 -1.288350632208765 0.0 -0.0922884983072124 -1.387024714675617 0.0 -0.07919869797996741 -1.459504556487613 0.0 -0.0691934137298353 -1.512485157812128 0.0 -0.058062961451574 -1.1453960686349012 0.0 -0.18708801667720032 -1.4063761951594043 0.0 -0.11309261482731531 -1.559334398983359 0.0 -0.0867465021686625 -1.6638870815971758 0.0 -0.0713656457841411 -1.7385922034648045 0.0 -0.0636187095904677 -1.793028284825706 0.0 -0.0541793533544838 -1.4243623956090592 0.0 -0.21346035733650884 -1.711697442792435 0.0 -0.12077961101949021 -1.871223286780581 0.0 -0.0881474502036862 -1.97826524945663 0.0 -0.0702027337550683 -2.053568891339221 0.0 -0.0636948375923709 -2.1072514126812845 0.0 -0.0565065934126648 -1.785323964633098 0.0 -0.2169700694242516 -2.071836891795921 0.0 -0.1297090552427263 -2.2287664957191606 0.0 -0.0958481823962045 -2.33170725829268 0.0 -0.0806257740156443 -2.4065678201641942 0.0 -0.074435401860885 -2.457275821431894 0.0 -0.069550761738769 -2.255112496377811 0.0 -0.1916416207910404 -2.503053902576346 0.0 -0.135595323389883 -2.639490185987253 0.0 -0.1090585747264643 -2.7314993482874823 0.0 -0.1010727905268197 -2.798697909967446 0.0 -0.10070409851760241 -2.8444691511117273 0.0 -0.09800537445013431 -2.7832024295800593 0.0 -0.2824462950611572 -3.0092305152307612 0.0 -0.1826492365662308 -3.1086315977157883 0.0 -0.1489387557234688 -3.1801432395035794 0.0 -0.1421569875539246 -3.2339478408486944 0.0 -0.1449345396233634 -3.2704987217624666 0.0 -0.14540795563519882 -3.4128582853214553 0.0 -0.7340103383502581 -3.5946148898653703 0.0 -0.43372689084317195 -3.6443478511086944 0.0 -0.2882984232074604 -3.683313092082825 0.0 -0.2344049498601236 -3.7141003728525073 0.0 -0.2225615775640393 -3.737498173437452 0.0 -0.2174628294365706 -4.23256890581422 0.0 -1.138592348464808 -4.29911330747783 0.0 -0.7644432191110802 -4.27077970676949 0.0 -0.5114263727856591 -4.248056506201411 0.0 -0.39144569378614213 -4.24325330608133 0.0 -0.34548722063718035 -4.24932890623322 0.0 -0.3220226360505657 -5.20895733022393 0.0 -1.404346675108666 -5.1131557278288895 0.0 -1.037781945944548 -4.96999812424995 0.0 -0.7509218987730469 -4.869822921745571 0.0 -0.584820174620504 -4.82112732052818 0.0 -0.504019732600493 -4.8086653202166305 0.0 -0.452118691302967 -6.25534775638369 0.0 -1.619722960493073 -5.983949349598731 0.0 -1.256846191421154 -5.71689534292238 0.0 -0.97163842429096 -5.538595338464881 0.0 -0.784296379607409 -5.449215336230381 0.0 -0.672868536821713 -5.41588773539719 0.0 -0.598487134962178 -7.319542982988571 0.0 -1.8247460056186493 -6.8814773720369296 0.0 -1.4479933961998341 -6.49659976241499 0.0 -1.164328909108222 -6.24736175618404 0.0 -0.972247544306188 -6.12130735303268 0.0 -0.843936541098413 -6.07059055176476 0.0 -0.7545501388637531 -8.38480340962008 0.0 -2.040205611005139 -7.80171379504284 0.0 -1.637529800938244 -7.312133782803341 0.0 -1.3377365534434131 -6.9962785749069605 0.0 -1.142569588564239 -6.836982170924549 0.0 -1.006985025174625 -6.772289369307231 0.0 -0.9090222627255561 -9.47935503698387 0.0 -2.266760496669011 -8.766802619170061 0.0 -1.8268967256724171 -8.17274340431858 0.0 -1.5030548375763702 -7.79124259478106 0.0 -1.298658792466469 -7.59695138992378 0.0 -1.16662962916574 -7.51949938798748 0.0 -1.065553306638832 -10.64334266608356 0.0 -2.5046909826172734 -9.793056644826411 0.0 -2.017869050446725 -9.08550742713768 0.0 -1.6638802015970042 -8.630936615773411 0.0 -1.452637436315935 -8.39913180997829 0.0 -1.3215744330393602 -8.31016180775404 0.0 -1.2214154705353861 -11.89061709726542 0.0 -2.755839588895988 -10.885519872137989 0.0 -2.2093897352347422 -10.05029265125731 0.0 -1.823773045594325 -9.513071837826791 0.0 -1.60664084016602 -9.241791831044791 0.0 -1.476580196914504 -9.14272862856821 0.0 -1.377941554448538 -13.226271530656783 0.0 -3.012078555301962 -12.04415990110399 0.0 -2.402580140064502 -11.06513947662848 0.0 -1.9855709696392732 -10.4361802609045 0.0 -1.7631399640784982 -10.122422253060549 0.0 -1.6332520008312992 -10.01522625038065 0.0 -1.5349868383746699 -14.651483566287082 0.0 -3.2741146818528652 -13.26826953170673 0.0 -2.595680504892011 -12.128271103206773 0.0 -2.153665773841643 -11.39667308491682 0.0 -1.922629608065739 -11.038240275956001 0.0 -1.791355364783883 -10.925638273140951 0.0 -1.6904686422617148 -16.16904662818348 0.0 -3.540608419814914 -14.55758921998258 0.0 -2.78707639866847 -13.2360998395287 0.0 -2.324804315920792 -12.391606728646499 0.0 -2.0814427699439464 -11.98671687904935 0.0 -1.9470310265690371 -11.87105407753296 0.0 -1.8371169290212361 -17.788356402538682 0.0 -3.80884424450172 -15.914893238008801 0.0 -2.97496612355229 -14.38715014026165 0.0 -2.493420692017365 -13.41941243870778 0.0 -2.233154018349357 -12.966286251408478 0.0 -2.095162658675136 -12.851657347043519 0.0 -1.9714587143801758 -19.530177023484402 0.0 -4.07539468178115 -17.34960110382232 0.0 -3.1620335972008484 -15.582832038893137 0.0 -2.654929423722556 -14.4806954937452 0.0 -2.3707023291783202 -13.97592675056284 0.0 -2.228781396211932 -13.867195790717279 0.0 -2.08829993574468 -21.4265869253964 0.0 -4.33238473587348 -18.87564389984055 0.0 -3.352704088407435 -16.83382166695824 0.0 -2.820552821425248 -15.57912707648247 0.0 -2.498273445749889 -15.014310572337902 0.0 -2.338583940049125 -14.91665289565176 0.0 -2.178442519506 -23.52478373719765 0.0 -4.61685593997568 -20.496870236233597 0.0 -3.5405641504528473 -18.1279527293058 0.0 -2.95351421517565 -16.70723825777614 0.0 -2.600802911575783 -16.071795867656 0.0 -2.4167739654677 -15.982923782069518 0.0 -2.2226068720143903 -25.81526396803956 0.0 -4.92554365385082 -22.19253090482016 0.0 -3.7404346625051637 -19.44267160537755 0.0 -3.0670379480080947 -17.80083771812064 0.0 -2.6965569589090106 -17.13188650996812 0.0 -2.467713654376476 -17.05474763314365 0.0 -2.2486510555043515 -28.20166610434943 0.0 -5.28068716886018 -23.888290246978002 0.0 -3.984498530039801 -20.71617255417628 0.0 -3.2018194637192114 -18.8681636763676 0.0 -2.755251902248628 -18.13127254948852 0.0 -2.497625454565283 -18.08925616501675 0.0 -2.2198582746913718 -30.52190174570454 0.0 -5.69677974703814 -25.484247491870438 0.0 -4.32492807703663 -21.81204311090051 0.0 -3.4914908851502937 -19.81531431114284 0.0 -2.819118121357146 -19.0733765238496 0.0 -2.43201965242784 -19.0553517986 0.0 -2.1155180665034266 -32.570136963561595 0.0 -6.388519731559679 -26.815872613916103 0.0 -4.944423848727 -22.85254016281364 0.0 -3.8009460393071612 -20.7336106044865 0.0 -2.8004055760057596 -19.900811739787 0.0 -2.30629169885048 -19.89441602369312 0.0 -1.9574878617256317 -34.12682931870192 0.0 -7.26065729842128 -27.87784484162218 0.0 -5.958824087673101 -23.758716875958996 0.0 -4.3304779467357 -21.4958769903588 0.0 -2.9806084891188345 -20.6038497349696 0.0 -2.209061185125832 -20.577144206388 0.0 -1.741017831212 -34.754746029258676 0.0 -8.11890695681848 -28.353688431464523 0.0 -7.67608764415152 -24.244665929452797 0.0 -5.26812636843376 -21.962702209145338 0.0 -3.4751702000544054 -21.0885022560109 0.0 -2.192932199056555 -21.0964411967221 0.0 -1.435976567875206 -33.95276589104992 0.0 -8.6601506982912 -28.10054806156815 0.0 -9.797380170913751 -24.297968172960903 0.0 -6.49437447176905 -22.0597938218759 0.0 -4.123987300524701 -21.29281808375458 0.0 -2.285880431487576 -21.3259873515195 0.0 -1.2167820090309 -28.622625717119945 0.0 -9.55801925638674 -26.584356191184327 0.0 -11.03414698954386 -23.7320993251971 0.0 -7.0937108711192804 -21.520855607414802 0.0 -5.325360521631279 -20.72722497255319 0.0 -3.3407205463739422 -20.81086395738227 0.0 -1.9114916198184488 -18.7890194079432 0.0 -9.601445603412001 -18.757970974401122 0.0 -11.55227135538168 -18.880127546097242 0.0 -7.984745403443641 -18.953614917919708 0.0 -6.37484867694703 -18.85364729435236 0.0 -5.263925874291 -19.064990835163634 0.0 -4.4595013016738605 -11.229414504862179 0.0 -9.38770539924525 -11.14957515377181 0.0 -12.97288501294555 -11.23327551451011 0.0 -8.22130399707394 -11.48510511843786 0.0 -5.88140713747314 -11.893138885965481 0.0 -4.59896174408502 -12.4360108910919 0.0 -4.009240399086341 -6.5737827029979 0.0 -9.15783269322738 -6.403193746657499 0.0 -14.425614309822302 -6.355183924749601 0.0 -8.350825787450722 -6.46532849399757 0.0 -5.414116887307439 -6.735219299681729 0.0 -3.8005461268430376 -7.14080035512725 0.0 -3.0546812760439503 -3.8053291324184753 0.0 -8.944996175226 -3.5627845229754946 0.0 -15.300746681315742 -3.38875498511198 0.0 -8.6466307146944 -3.3296492982530954 0.0 -5.295141575156159 -3.3990777670484644 0.0 -3.4006996530298172 -3.5830495473096717 0.0 -2.317154351366172 -1.44015180669728 0.0 -8.814355416784 -1.1955966305347998 0.0 -15.638663118655199 -0.9683487407530991 0.0 -9.23256427470287 -0.7964502317793851 0.0 -5.4299540562491595 -0.698838729252836 0.0 -3.2238189060566063 -0.6755192426613 0.0 -1.994764347622316 1.6320705040140802 0.0 -8.7887707309792 1.79297387234375 0.0 -15.61842742931514 1.972791821890652 0.0 -9.569528862260642 2.152359567381629 0.0 -5.844205777279771 2.31644916601236 0.0 -3.4588066107086597 2.456085748280724 0.0 -2.057297701305264 5.722473563662859 0.0 -8.7954917181813 5.737364363361959 0.0 -15.32192257377306 5.787766154309761 0.0 -9.652578868245781 5.87301981190536 0.0 -6.23151413758446 5.98967192984384 0.0 -3.8464715420887274 6.13018099998455 0.0 -2.345526956347612 10.47449417314518 0.0 -8.82698249532768 10.32301117999998 0.0 -14.92488621736056 10.20800318978994 0.0 -9.61845108670593 10.140023608718279 0.0 -6.51618318625716 10.1298252044476 0.0 -4.23221703639152 10.18057722576952 0.0 -2.7071017112508096 15.301471502684292 0.0 -8.917555114141381 14.999618764568138 0.0 -14.514049607117638 14.7263639765988 0.0 -9.56746461892472 14.495567581596621 0.0 -6.6947934932575395 14.3300810650305 0.0 -4.52569147986504 14.248828044742352 0.0 -3.0235686586376422 19.71106141599348 0.0 -9.104332958633199 19.29300398822832 0.0 -14.141080658351282 18.89265239115532 0.0 -9.58140131115208 18.52416987064434 0.0 -6.79028831411994 18.21924037533072 0.0 -4.68758239875408 18.01149958489245 0.0 -3.225875075799285 23.40377019494581 0.0 -9.35933378905036 22.690037756667678 0.0 -13.60753916816224 22.41462112372555 0.0 -9.587834292561551 21.938737469233935 0.0 -6.78144421327793 21.549070255957417 0.0 -4.705290773053339 21.2340378647014 0.0 -3.294766121568106 26.450251673298176 0.0 -9.86302219475118 25.045278956302322 0.0 -12.88364201338356 24.93807848545968 0.0 -9.252961053310079 24.4788309682756 0.0 -6.49658608982856 23.67555364667636 0.0 -4.6751294510492 22.8319607786876 0.0 -3.3961472153298597 28.882160501807803 0.0 -10.3809403105298 27.040101078079697 0.0 -12.326796654270149 26.86267789308656 0.0 -8.8597254117365 25.846669501099083 0.0 -6.352393042254841 24.2151717203872 0.0 -4.6817515412048 23.270874051641698 0.0 -3.51251385039445 31.293702789722605 0.0 -10.736678300612962 28.964320936516323 0.0 -11.84422271771456 28.33859201662705 0.0 -8.423167131614381 26.157418537886997 0.0 -6.085902587244 24.398928952717874 0.0 -4.57843402771535 23.422938492283443 0.0 -3.579445359754072 33.719459452935595 0.0 -10.616704520612 30.99137563743708 0.0 -11.474726172544301 29.099942290859186 0.0 -7.62171530988283 26.32452866470776 0.0 -5.7313004943371 24.49019467053025 0.0 -4.5308472224405 23.49017234173818 0.0 -3.6703210730201077 36.24583939433514 0.0 -9.87520458347044 33.2096748528902 0.0 -10.7190732168575 29.6676909275868 0.0 -6.964958734902299 26.453521921855558 0.0 -5.410505911327581 24.512954745926823 0.0 -4.431535908547501 23.486989408974907 0.0 -3.71656660090923 40.5340361947472 0.0 -9.751299924054882 35.734727589023755 0.0 -9.517303361765451 30.364017263991993 0.0 -6.598899883360501 26.75631201367798 0.0 -5.17333183238878 24.620880324737243 0.0 -4.36502468073204 23.498044277680467 0.0 -3.6522903268516274 44.781574653815994 0.0 -9.5765331616647 37.634164929552924 0.0 -8.41196514668872 31.29021971217731 0.0 -6.22098619294032 27.27940886050856 0.0 -4.8948134886934 24.854203228646043 0.0 -4.1696908667094 23.51575538337392 0.0 -3.584444638197144 47.075362175131595 0.0 -9.191875649790799 39.400957908370565 0.0 -7.755665491099839 32.50103967697216 0.0 -5.8631288930392 28.021669445737842 0.0 -4.653525587714 25.318416942424 0.0 -4.00627069692655 23.65517878834418 0.0 -3.4355274983466355 41.444121596767204 0.0 -7.240284604665539 34.09542048962244 0.0 -5.44510476286632 28.997592953707894 0.0 -4.23304591479438 25.971288253540802 0.0 -3.7333386893146803 23.93084465579967 0.0 -3.2566363763436006 43.674844641830994 0.0 -6.811021020258 36.176659159980005 0.0 -5.1171545108262 30.33113278975272 0.0 -3.742491743141796 26.848799843505 0.0 -3.3000985936564917 24.4213746895998 0.0 -2.9505920612475 38.79998411884389 0.0 -4.98251761820046 32.28940576817838 0.0 -3.456178477755625 28.012735385146797 0.0 -2.8019908728657716 25.200280117931403 0.0 -2.5855540499556358 41.5575979661797 0.0 -4.962146308547769 35.08855776013448 0.0 -3.49224063146784 29.822284326783755 0.0 -2.460612182394772 26.335888918636503 0.0 -2.1803407385692797 38.221307032902004 0.0 -3.850846851552798 32.540484271202914 0.0 -2.5748477686509874 28.22649537472176 0.0 -2.0037218824766883 35.74601377965576 0.0 -3.05437464219664 31.108048971784182 0.0 -2.2544571192293477 38.43055693644636 0.0 -3.30746027350662 34.295336815348506 0.0 -2.7254595436283404 -0.41866981046674506 0.0 -0.0460946211523655 -0.42959013073975305 0.0 -0.035297812082445285 -0.435674690891867 0.0 -0.0263502246587556 -0.43829641095741007 0.0 -0.018945116473627902 -0.43866437096660893 0.0 -0.013053015126325371 -0.437739570943489 0.0 -0.00864051461601286 -0.43632269090806697 0.0 -0.00535612773390319 -0.43494073087351803 0.0 -0.0030475077161876913 -0.43397629084940703 0.0 -0.001354496753862418 -0.5473045336826131 0.0 -0.0561568854039221 -0.5600002540000061 0.0 -0.0434186050854651 -0.56647081416177 0.0 -0.032725373618134324 -0.56871681421792 0.0 -0.02363618539090462 -0.568183334204583 0.0 -0.016533549613338732 -0.566201014155025 0.0 -0.011064527476613179 -0.5637598140939951 0.0 -0.00700190377504759 -0.5615501740387541 0.0 -0.00404534570113364 -0.560046574001164 0.0 -0.0018357310858932762 -0.703405417585135 0.0 -0.059668353491708806 -0.7179425379485631 0.0 -0.0466079011651975 -0.7248233781205841 0.0 -0.03519837367995932 -0.726410138160253 0.0 -0.025625611040640258 -0.724715538117888 0.0 -0.018042660051066493 -0.721424218035605 0.0 -0.012161048704026211 -0.7177046179426151 0.0 -0.007780340594508511 -0.714472577861814 0.0 -0.00451156611278915 -0.7123063378076581 0.0 -0.002065336371633408 -0.8787192619679811 0.0 -0.059101617477540405 -0.8948182223704552 0.0 -0.0464098571602464 -0.901795422544885 0.0 -0.03498988247474704 -0.902404982560124 0.0 -0.02553347423833684 -0.89925282248132 0.0 -0.017902394047559844 -0.8943379823584491 0.0 -0.0120845843021146 -0.889124142228103 0.0 -0.00770498979262474 -0.8846879421171978 0.0 -0.0044754481118862 -0.881755582043889 0.0 -0.002043703451092585 -1.075140786878519 0.0 -0.05613636940340921 -1.092251027306275 0.0 -0.043952529098813205 -1.098710107467752 0.0 -0.033035243225881056 -1.0978645474466129 0.0 -0.02407129780178243 -1.092821827320545 0.0 -0.01674234761855868 -1.085932587148314 0.0 -0.01122999588074989 -1.0789412669735312 0.0 -0.00709033417725835 -1.073109946827748 0.0 -0.004085269702131741 -1.0692901867322542 0.0 -0.0018569540864238512 -1.296535432413385 0.0 -0.051897993297449804 -1.313844232846105 0.0 -0.040419585010489596 -1.3189653529741332 0.0 -0.03040572796014318 -1.3160221529005531 0.0 -0.02200100495002511 -1.308533032713325 0.0 -0.0153058323826458 -1.299240912481022 0.0 -0.01014606145365153 -1.290138352253458 0.0 -0.00638404895960122 -1.282680552067013 0.0 -0.003651059491276485 -1.277833031945825 0.0 -0.0016501114012527844 -1.5461170386529253 0.0 -0.0477660091941502 -1.5625483990637092 0.0 -0.037469948136748685 -1.565449079136226 0.0 -0.02852519231312979 -1.559635198990879 0.0 -0.02074937131873427 -1.549074798726869 0.0 -0.014567817964195439 -1.5368739584218478 0.0 -0.00977557544438938 -1.525293198132329 0.0 -0.00621378535534463 -1.5159405178985121 0.0 -0.0036193632504840797 -1.5099056777476412 0.0 -0.001649974161249353 -1.826187365654683 0.0 -0.0459901491497537 -1.840620086015501 0.0 -0.0371808089295202 -1.8403723260093072 0.0 -0.02918702752967567 -1.8308359657708984 0.0 -0.02207512895187821 -1.8165422854135558 0.0 -0.01612304640307615 -1.800908885022721 0.0 -0.011316833082920821 -1.7864403246610072 0.0 -0.00752724058818101 -1.7749123243728069 0.0 -0.00456892051422301 -1.767529724188242 0.0 -0.002149026133725652 -2.138735453468385 0.0 -0.049796325244908096 -2.149989933749747 0.0 -0.042550833063770804 -2.1456674936416857 0.0 -0.0352347888808697 -2.131667013291674 0.0 -0.02820565470514135 -2.11300245282506 0.0 -0.021743314543582852 -2.0934166523354154 0.0 -0.01616843680421091 -2.075660771891518 0.0 -0.01135703788392594 -2.0616718915417955 0.0 -0.00720804258020106 -2.052770651319265 0.0 -0.0034961828074045686 -2.4853337021333406 0.0 -0.0641121816028045 -2.4923949023098713 0.0 -0.057436269435906705 -2.483264622081614 0.0 -0.0497294172432354 -2.4641718616042954 0.0 -0.041607373040184296 -2.4405890210147243 0.0 -0.03347994763699867 -2.416587140414677 0.0 -0.025884873447121825 -2.395167619879189 0.0 -0.018844994071124842 -2.3784531394613273 0.0 -0.012287764707194112 -2.367863699196591 0.0 -0.006066416551660411 -2.867561991689048 0.0 -0.09320125033003121 -2.8697180317429494 0.0 -0.0855034501375862 -2.855221071380525 0.0 -0.0757876098946902 -2.830611470765285 0.0 -0.0647575936189398 -2.8016773900419336 0.0 -0.0533191773329794 -2.7728991093224757 0.0 -0.042016261050406505 -2.7474957086873912 0.0 -0.03109436117735901 -2.727805788195143 0.0 -0.020552489713812228 -2.7153969478849223 0.0 -0.010224445455611129 -3.28738488218462 0.0 -0.1403030555075763 -3.284295362107382 0.0 -0.12918254322956352 -3.2641297216032408 0.0 -0.1157196788929919 -3.233765480844135 0.0 -0.0996779984919499 -3.199270319981756 0.0 -0.08277569006939221 -3.165426919135671 0.0 -0.0657818736445468 -3.1358084383952094 0.0 -0.0490976732274418 -3.112991037824774 0.0 -0.032564056814101405 -3.098643557466087 0.0 -0.01618675320466882 -3.747590733689766 0.0 -0.2063771291594281 -3.7387940534698494 0.0 -0.1905310327632757 -3.713044452826109 0.0 -0.17049628826240712 -3.676950531923761 0.0 -0.1473834676845866 -3.6367592909189805 0.0 -0.1232761990819049 -3.597771929944296 0.0 -0.0983353584583839 -3.5638608090965183 0.0 -0.0734218218355455 -3.537781608444538 0.0 -0.0490756612268915 -3.521469568036737 0.0 -0.02458983701474591 -4.251297706282441 0.0 -0.295403727385093 -4.2365937059148395 0.0 -0.26984193874604834 -4.20511410512785 0.0 -0.2410311300257781 -4.16342970408574 0.0 -0.20859127721478182 -4.11780450294511 0.0 -0.17482550437063749 -4.0737121018428 0.0 -0.1403231755080793 -4.03552650088816 0.0 -0.1046797906169947 -4.006345300158631 0.0 -0.06955042573876061 -3.9880799397019957 0.0 -0.03457753726443841 -4.80115532002888 0.0 -0.407763450194086 -4.78070131951753 0.0 -0.3679604611990113 -4.7436761185919005 0.0 -0.3283146242078654 -4.6965561174139 0.0 -0.2837008310925206 -4.64572091614302 0.0 -0.23681781792044532 -4.59718331492958 0.0 -0.1903624207590604 -4.55508531387713 0.0 -0.143686203592155 -4.522998513074961 0.0 -0.09555407838885191 -4.5028561125714 0.0 -0.0478709171967729 -5.3993505349837605 0.0 -0.539482173487054 -5.37342293433557 0.0 -0.4836977320924431 -5.3317249332931205 0.0 -0.42748921068722995 -5.27927733198193 0.0 -0.37143088128577184 -5.224072930601821 0.0 -0.31136213178405314 -5.17130612928265 0.0 -0.24917043022926058 -5.12606612815165 0.0 -0.1884080087102001 -5.09157452728936 0.0 -0.1262833391570834 -5.07025052675626 0.0 -0.0636624215915605 -6.0470313511757805 0.0 -0.678765136969128 -6.01600655040016 0.0 -0.6092404552310111 -5.97012094925302 0.0 -0.538417893460447 -5.913936547848411 0.0 -0.46892557172313903 -5.85571094639277 0.0 -0.39438122185953034 -5.8004369450109206 0.0 -0.3170294359257357 -5.75312054382801 0.0 -0.2378776619469414 -5.7168121429203 0.0 -0.1601914320047857 -5.694498142362451 0.0 -0.0797288099932202 -6.743109368577731 0.0 -0.8234494605862361 -6.709066967726671 0.0 -0.7430418585760461 -6.6606989665174705 0.0 -0.6603135765078391 -6.603044965076119 0.0 -0.575030054375751 -6.54382856359571 0.0 -0.484839132120978 -6.488040962201021 0.0 -0.3911283097782075 -6.43988736099718 0.0 -0.2926602433165059 -6.403282160082051 0.0 -0.19667879691696982 -6.38064735951618 0.0 -0.0978179784454494 -7.4874589871864705 0.0 -0.974971424374285 -7.453766186344151 0.0 -0.8866561021664021 -7.406196585154911 0.0 -0.790519259762981 -7.349211383730281 0.0 -0.6884587772114689 -7.291611782290291 0.0 -0.580182614504565 -7.23745978093649 0.0 -0.468091451702286 -7.19084337977108 0.0 -0.35035947275898666 -7.15534977888374 0.0 -0.2338436898460921 -7.133004978325121 0.0 -0.11669886291747152 -8.27823980695599 0.0 -1.1271800281795001 -8.248279006206971 0.0 -1.028952905723822 -8.20583660514591 0.0 -0.9203353030083822 -8.15420100385502 0.0 -0.8028889000722219 -8.10140260253506 0.0 -0.675338176883454 -8.05187100129677 0.0 -0.5440794536019861 -8.00952340023808 0.0 -0.40846949021173695 -7.97664499941612 0.0 -0.2710261427756534 -7.955478198886951 0.0 -0.13597777139944422 -9.11418702785467 0.0 -1.278681791967044 -9.09350382733759 0.0 -1.17045082926127 -9.061245826531142 0.0 -1.048109186202729 -9.02015942550398 0.0 -0.9140259828506488 -8.97569542439238 0.0 -0.7666819791670489 -8.934164623354109 0.0 -0.616474175411854 -8.89830102245752 0.0 -0.46211441155286004 -8.870128221753202 0.0 -0.3058698716467466 -8.85123102128077 0.0 -0.1544791838619795 -9.994554249863851 0.0 -1.4297081157427023 -9.98927864973196 0.0 -1.3076315126907871 -9.972906649322661 0.0 -1.169219149230478 -9.946988248674701 0.0 -1.016309945407748 -9.915824247895602 0.0 -0.8493737412343428 -9.886000247150001 0.0 -0.680488497012212 -9.85898304647457 0.0 -0.5080159327003981 -9.83757864593946 0.0 -0.3350820643770514 -9.821977445549429 0.0 -0.17038286025957142 -10.918975472974381 0.0 -1.575033999375849 -10.935271873381788 0.0 -1.435613955890348 -10.94096307352407 0.0 -1.27805283195132 -10.93525507338137 0.0 -1.1050866276271651 -10.92190267304756 0.0 -0.9180971429524281 -10.90728867268221 0.0 -0.731210298280257 -10.892065072301621 0.0 -0.544165773604144 -10.879321471983031 0.0 -0.3590619889765495 -10.868555871713891 0.0 -0.1788471724711792 -11.8862354293264 0.0 -1.7097523646247001 -11.93091789635 0.0 -1.54892916339026 -11.964642238972258 0.0 -1.369362122145586 -11.984310974080481 0.0 -1.1745809780554162 -11.991955888512788 0.0 -0.971334784150095 -11.996601495132769 0.0 -0.7648484099074311 -11.995297393629622 0.0 -0.5657929238194159 -11.99243428919451 0.0 -0.3760089278119586 -11.988157182208798 0.0 -0.187568289352012 -12.895643642076 0.0 -1.828504816795665 -12.9754752112953 0.0 -1.6427861978510248 -13.04275814427954 0.0 -1.4388635467993502 -13.092826408182718 0.0 -1.22024376904896 -13.1278791161601 0.0 -0.99687797053929 -13.14943567106331 0.0 -0.7826457049280341 -13.16408269630374 0.0 -0.5736706901897639 -13.172233933391698 0.0 -0.38052412737690183 -13.17471818040969 0.0 -0.1881316576659003 -13.945874932870138 0.0 -1.927171418730876 -14.065699675214441 0.0 -1.720140997269784 -14.17375278815004 0.0 -1.483389198751376 -14.25753205106756 0.0 -1.2412113043447561 -14.321509910032722 0.0 -0.998934528919672 -14.36620049289806 0.0 -0.7674304868964941 -14.39364997356613 0.0 -0.561257578800064 -14.41244900851828 0.0 -0.3656711892239956 -14.42216527333144 0.0 -0.1801423574887488 -15.0344212204716 0.0 -1.9991747548097643 -15.20280400867515 0.0 -1.7714460232956688 -15.352311652770329 0.0 -1.5102325622133541 -15.475962508007429 0.0 -1.2326643088948712 -15.568691608625759 0.0 -0.9745372884174839 -15.634930709633398 0.0 -0.7360766447934239 -15.678884674470002 0.0 -0.52258987466688 -15.705880701586258 0.0 -0.33217732703941444 -15.7204131839466 0.0 -0.1624045486971375 -16.15166999029248 0.0 -2.027918279065182 -16.3759542661113 0.0 -1.7858032829437573 -16.57461568993828 0.0 -1.5046980223804078 -16.73540747372432 0.0 -1.2124115509465119 -16.8586986552759 0.0 -0.9345460914690771 -16.94672519861701 0.0 -0.6862116458234109 -17.004334533802 0.0 -0.47349893332360005 -17.03854430716111 0.0 -0.2943216500895452 -17.055951575816138 0.0 -0.14025765609059881 -17.27908752538056 0.0 -2.022143472102255 -17.563242100336797 0.0 -1.7627885564381554 -17.8163482820301 0.0 -1.46781592902414 -18.020457080780158 0.0 -1.158596241148656 -18.17526813668208 0.0 -0.8703064540750078 -18.2827205838405 0.0 -0.6241025022856198 -18.35132397062448 0.0 -0.42307805453113206 -18.39102598500768 0.0 -0.2597087773824342 -18.40705439078022 0.0 -0.12005686463856362 -18.37626836194639 0.0 -1.9630332426987518 -18.72513950477698 0.0 -1.680809607413034 -19.03812433451306 0.0 -1.378367138791307 -19.2897455215894 0.0 -1.07173692696643 -19.47345822210033 0.0 -0.7872642180505759 -19.597558093408598 0.0 -0.5519341670387 -19.67437530874196 0.0 -0.3665777313421776 -19.71167166046305 0.0 -0.21695415456800402 -19.73109014081259 0.0 -0.1018274548038226 -19.38445699181836 0.0 -1.8582038811431683 -19.7930785635608 0.0 -1.570637772252798 -20.1663045104153 0.0 -1.2573560243677642 -20.464669828085093 0.0 -0.9604880145341991 -20.678098878660624 0.0 -0.694916645774415 -20.81955141903876 0.0 -0.48610268698251397 -20.897636208450983 0.0 -0.3109185726762389 -20.93385886567124 0.0 -0.1859423838101717 -20.95546897737 0.0 -0.090314877103029 -20.25738726781095 0.0 -1.672331737055536 -20.71800088118611 0.0 -1.3706504319213562 -21.13371779977224 0.0 -1.064952398205462 -21.46443753582348 0.0 -0.8038474212026279 -21.69976356964276 0.0 -0.59044826381921 -21.861550402881697 0.0 -0.436196961540592 -21.9706857295475 0.0 -0.31409821444881 -22.017294577813523 0.0 -0.1889682424008056 -22.04962048473768 0.0 -0.0971813873120696 -20.959457624732302 0.0 -1.3749698730846949 -21.459116689406162 0.0 -1.0550746351829698 -21.91461775029248 0.0 -0.7831796881145819 -22.2795108883224 0.0 -0.6063479291288921 -22.54432466409864 0.0 -0.484953138697326 -22.74254317657296 0.0 -0.3972663232324455 -22.86785126254839 0.0 -0.2856575040031443 -22.92148130715792 0.0 -0.1667902051197504 -22.97245638752352 0.0 -0.08228891954664 -21.50532696274896 0.0 -0.924646594359336 -22.05627873829891 0.0 -0.553186785286196 -22.538085043642518 0.0 -0.3193717295030316 -22.923878368956963 0.0 -0.25177451724069977 -23.2113790225024 0.0 -0.19781447596433202 -23.45493852794505 0.0 -0.19844613958955798 -23.595744151802933 0.0 -0.1555855263371472 -23.68734948078145 0.0 -0.11275077143275 -23.74862917630716 0.0 -0.03909431664600196 -21.78047540961201 0.0 -0.5959721430095549 -22.324112958394082 0.0 -0.1190715864117408 -22.82646959263458 0.0 0.040844716631244005 -23.2309834091712 0.0 -0.009909279388753918 -23.523177024386463 0.0 -0.1279182488409438 -23.79235127413158 0.0 -0.32471591592485427 -24.001156664794262 0.0 -0.43658321425861807 -24.17974842064788 0.0 -0.44354107710555 -24.29191502000901 0.0 -0.2701945505015526 -21.3048966156228 0.0 -1.06465784528624 -21.8803569918516 0.0 -0.49472238996648 -22.398916102875 0.0 -0.320819059591875 -22.90979231151723 0.0 -0.54663076210356 -23.348666982092958 0.0 -0.9173056025291998 -23.7850634636204 0.0 -1.2728007430136399 -24.13103590494581 0.0 -1.344941304080322 -24.373887674683417 0.0 -1.103945672927197 -24.56676082030352 0.0 -0.62508501439735 -19.707019013462403 0.0 -3.691839554724096 -20.44901996820159 0.0 -3.298401003516873 -21.2721395158806 0.0 -3.2120217147643744 -22.01894685501378 0.0 -3.273172183075598 -22.51376399218216 0.0 -3.279123625608954 -22.8114740362912 0.0 -3.1442581663916807 -22.9341217096253 0.0 -2.746247893878471 -22.987752625243424 0.0 -2.060533641917093 -23.004737851124002 0.0 -1.10956055191908 -13.076905164074368 0.0 -3.4649160993568846 -13.748398767010922 0.0 -3.2123428517077 -14.37141305460608 0.0 -3.1651874449870396 -14.8907368497188 0.0 -3.2316158014901597 -15.28188977954016 0.0 -3.3169280102668077 -15.545347725823468 0.0 -3.261968295524523 -15.70051358301204 0.0 -2.916539508562092 -15.7778319045711 0.0 -2.2160072395862938 -15.80880486554496 0.0 -1.200194041726848 -7.642094599910359 0.0 -2.5765942272819635 -8.1831987197952 0.0 -2.474816902024036 -8.70475274097793 0.0 -2.6047849158974326 -9.16200433957407 0.0 -2.8584599527557595 -9.530179911423001 0.0 -3.1120617415842 -9.80210395363185 0.0 -3.1869810003943355 -9.9845322331902 0.0 -2.922843470666407 -10.093922956642068 0.0 -2.2541470096017213 -10.149489035304631 0.0 -1.2302898462785161 -3.853465142310657 0.0 -1.8757522165571494 -4.1762264602879595 0.0 -1.8530665921413723 -4.51524085894009 0.0 -2.092258926760459 -4.837590713497479 0.0 -2.4691853589695816 -5.11940420506263 0.0 -2.8412685654112066 -5.346776648967801 0.0 -3.0177922935298445 -5.514952731614909 0.0 -2.8309277750818946 -5.6268618525249 0.0 -2.212481732290434 -5.6895718892563805 0.0 -1.215957535055226 -0.7176966569255581 0.0 -1.4990006816268722 -0.815038513493568 0.0 -1.4727356578398332 -0.9535277610092221 0.0 -1.7380791108178684 -1.113906315794128 0.0 -2.158905906831454 -1.276786281353036 0.0 -2.584813465883134 -1.4257946961665318 0.0 -2.819727633844496 -1.5485766331411952 0.0 -2.6903720004389697 -1.6384470892042051 0.0 -2.124230827815655 -1.69267076432208 0.0 -1.173815528151488 2.564193061909962 0.0 -1.451853601846788 2.63241631783683 0.0 -1.35930120465076 2.6564743804305397 0.0 -1.5808079405682098 2.64077667124671 0.0 -1.9754087115971362 2.59586729270206 0.0 -2.39494578147834 2.5350763592052084 0.0 -2.6436629621157763 2.4722842346410308 0.0 -2.5449337794037077 2.418955001166798 0.0 -2.0212572702177902 2.383509751032888 0.0 -1.120595211371376 6.28172654823432 0.0 -1.63921935305 6.42589524874912 0.0 -1.4557164185293399 6.5451339633544 0.0 -1.59291763635048 6.6293982450846 0.0 -1.91637688632021 6.67741626095373 0.0 -2.287431492955908 6.69464689572642 0.0 -2.51497901608347 6.6907744393407595 0.0 -2.4216008278737835 6.6771209748507 0.0 -1.9255278578092703 6.663991666170011 0.0 -1.0684988179527048 10.28495540776242 0.0 -1.9326181074944242 10.423587379172519 0.0 -1.6634021689641358 10.571077773677 0.0 -1.7072926145531342 10.70498361585688 0.0 -1.943621078479102 10.8113158762704 0.0 -2.2468624676506797 10.88474095150581 0.0 -2.4333373420734095 10.927697869566899 0.0 -2.327736180154854 10.94804333763624 0.0 -1.8458037645211438 10.955110651983839 0.0 -1.0231384398712198 14.2570096078987 0.0 -2.21658114411386 14.340557727295202 0.0 -1.88444866463766 14.470330160993042 0.0 -1.8488062719323728 14.61401408183301 0.0 -2.0046335512661644 14.7461813688573 0.0 -2.240064895928175 14.8509572343327 0.0 -2.380337202013146 14.923406341018149 0.0 -2.2549571279832517 14.966590403489718 0.0 -1.779416041505664 14.987921263514 0.0 -0.9840972806624 17.91969980242592 0.0 -2.416329513095552 17.93572787998212 0.0 -2.049689365124167 18.02829642697863 0.0 -1.958622432148833 18.15801775480798 0.0 -2.052276999024938 18.29116191037075 0.0 -2.231412795744725 18.4045904949263 0.0 -2.330936737766634 18.487588353088 0.0 -2.1871641859452 18.5401355083485 0.0 -1.7171621082911197 18.56763367215073 0.0 -0.947307080887716 21.029343351410787 0.0 -2.5118547604982364 20.933560923340558 0.0 -2.137563508556652 20.9207563762272 0.0 -2.0127474825532796 20.9302778235579 0.0 -2.0598180248382296 20.9737559492604 0.0 -2.1935096983497147 21.01060248588108 0.0 -2.2563730071621064 21.04391835120954 0.0 -2.098293274091476 21.069460761563047 0.0 -1.6393336660720652 21.086786314356 0.0 -0.9023531672957501 22.408864343160047 0.0 -2.6317072349489896 22.188252914191818 0.0 -2.209417836007162 22.016038142682742 0.0 -2.0280428143217577 21.8943652703557 0.0 -2.0226193283178104 21.822497641383322 0.0 -2.106778735712028 21.786306023102117 0.0 -2.1364124312810056 21.767172512001242 0.0 -1.9672826425933998 21.758874777654437 0.0 -1.5284517311057948 21.756209829124 0.0 -0.83832400976976 22.795762967492198 0.0 -2.75678205386241 22.51274975253304 0.0 -2.3009141855095243 22.30299573937505 0.0 -2.07468903916015 22.150616656960146 0.0 -2.0142765567962053 22.0325342514188 0.0 -2.0399247619862733 21.953141365017203 0.0 -2.02406528153258 21.90142959247368 0.0 -1.841406755310486 21.871535812342145 0.0 -1.424935145810868 21.854641228721757 0.0 -0.783645125894412 22.93581295625805 0.0 -2.911989773149165 22.656878609772 0.0 -2.46513825486076 22.413966709642203 0.0 -2.17709675747312 22.21796550909006 0.0 -2.0566668323933928 22.06835209256064 0.0 -2.02267892077032 21.945970141981856 0.0 -1.9579873575507176 21.84948316180854 0.0 -1.74748066809946 21.781119152957015 0.0 -1.33116471123289 21.742181192354167 0.0 -0.722738914690946 22.963145170732552 0.0 -2.974643797461245 22.65739573252488 0.0 -2.57931538190227 22.3580594424082 0.0 -2.315233374867425 22.130264056668008 0.0 -2.186049345429276 21.94758045392088 0.0 -2.0990162828154957 21.80039951117936 0.0 -1.970200680440337 21.67165545108452 0.0 -1.7057752514481002 21.57286750909556 0.0 -1.27193230677198 21.5122950301134 0.0 -0.6828613929203999 22.9075121760549 0.0 -3.139339259654534 22.5695267619336 0.0 -2.6832131660238487 22.30124403290592 0.0 -2.430842465557976 22.043413207708248 0.0 -2.2808115246835543 21.824341340125002 0.0 -2.141190396316 21.62546451103038 0.0 -1.9594763531284483 21.45185395902875 0.0 -1.6717243649586249 21.314912850581248 0.0 -1.235456294178125 21.22610979735688 0.0 -0.6590422740730141 22.84716762410774 0.0 -3.167318595274112 22.4694283200121 0.0 -2.8197515172135543 22.14490363454112 0.0 -2.555447920497986 21.88600735967865 0.0 -2.337697592820722 21.614923921481 0.0 -2.16318261997532 21.364109542557017 0.0 -1.9395743950755362 21.13829740034592 0.0 -1.62110474054648 20.96366157470414 0.0 -1.1769990266233419 20.8498202857453 0.0 -0.62164821784697 22.78962928081452 0.0 -3.164476490486848 22.329008099550723 0.0 -2.8505890366451685 21.966294270700118 0.0 -2.6134256688567277 21.60902322751831 0.0 -2.439089853479343 21.29712975051501 0.0 -2.162246791469378 21.01099376544036 0.0 -1.881435141890744 20.749953401293602 0.0 -1.530785061033712 20.5396407230742 0.0 -1.09226943028528 20.40110996983986 0.0 -0.5711542369384279 22.71012748725798 0.0 -3.0574657915987022 22.14089053143572 0.0 -2.7985780369264037 21.69543300867448 0.0 -2.595834497146814 21.30200666490276 0.0 -2.39394115011376 20.92977063083644 0.0 -2.1715327311723405 20.561090340983398 0.0 -1.8699841210484196 20.28344133043395 0.0 -1.4555111177096522 20.04420466024644 0.0 -1.0198126412414958 19.88687988344803 0.0 -0.52913329554076 22.698486358870078 0.0 -2.901015588183348 21.9466094896125 0.0 -2.65499522530275 21.39964005066552 0.0 -2.4810075804165117 20.934035662243858 0.0 -2.323908637906482 20.49649679364993 0.0 -2.0798242591850546 20.10351862242738 0.0 -1.7678164665470577 19.7598523326285 0.0 -1.401962670503655 19.4994158175258 0.0 -0.9517716464322601 19.32773704166976 0.0 -0.48563872856414403 22.830898290736144 0.0 -2.6419467479050804 21.82906891098957 0.0 -2.435783771042718 21.12651361317546 0.0 -2.298671230632462 20.55574538251794 0.0 -2.152142910426048 20.04658667795628 0.0 -1.9669377659883118 19.59801443352396 0.0 -1.6653169002447181 19.22542988988996 0.0 -1.289546760257922 18.947962843189227 0.0 -0.8759524705598429 18.7468033309404 0.0 -0.45563460210665996 23.19793276421364 0.0 -2.328326585625528 21.8392743315432 0.0 -2.145913839624 20.9043012721164 0.0 -1.9992743754899518 20.221332031339383 0.0 -1.8964109983453743 19.62145897110738 0.0 -1.758271552557156 19.10695950195786 0.0 -1.53080981486811 18.69232910993217 0.0 -1.19360602704315 18.380207491039197 0.0 -0.7886143939679999 18.192781295534278 0.0 -0.3958596217951872 23.88305304059832 0.0 -2.000282776970049 22.14826998442305 0.0 -1.81822497963687 20.91615205668552 0.0 -1.683169001380884 19.98977622010758 0.0 -1.5494724096854129 19.27933354963101 0.0 -1.4643057333940679 18.67699974991725 0.0 -1.3171878301535218 18.20210455274841 0.0 -1.055726432559717 17.860331936281803 0.0 -0.71039332586124 17.645037695201967 0.0 -0.3321758797496529 25.0611011043489 0.0 -1.7125230729000602 22.8120748446474 0.0 -1.50660269609976 21.19385999268701 0.0 -1.356886603210129 19.986072008382482 0.0 -1.203415390413264 19.054838152404454 0.0 -1.06877127116988 18.370778075381697 0.0 -0.9914692589564852 17.84071619482146 0.0 -0.8544081739478849 17.43509216537046 0.0 -0.572834909261034 17.196029595986847 0.0 -0.2720955254954355 27.1727602731629 0.0 -1.6668200950802061 24.14622900403451 0.0 -1.331637567008349 21.84097552426334 0.0 -1.069659286817144 20.33976279607954 0.0 -0.8927669197841239 19.161334651899942 0.0 -0.7221600744935559 18.28631389968475 0.0 -0.5668731498159101 17.638273501396 0.0 -0.4999670772942999 17.190733651669348 0.0 -0.3759357606556471 16.94044474838078 0.0 -0.19441045085673858 29.944716050431055 0.0 -1.8926765944399502 26.313953210373356 0.0 -1.3591969863538078 23.373877050495622 0.0 -1.010241653422342 21.07583342788728 0.0 -0.6921967227925261 19.53766093588164 0.0 -0.42754240798693205 18.496053547783557 0.0 -0.1896139050044442 17.808357301189798 0.0 -0.081133748062032 17.2013159510478 0.0 -0.11053293135462601 16.84011716029335 0.0 -0.0684796350300645 32.923889192334535 0.0 -2.210745660533643 29.022932863564563 0.0 -1.4456234905771859 25.686554587821004 0.0 -1.020233463149025 22.845730568062322 0.0 -0.676693981459296 20.57434339496712 0.0 -0.36316613839943523 19.0915145962947 0.0 -0.040477601593088094 18.293387472061198 0.0 0.26375680836755394 17.6450634383664 0.0 0.246045959687202 17.23286246578596 0.0 0.0492503435534196 31.7495617719132 0.0 -1.631651094173274 28.322483299076875 0.0 -1.0203491349971519 25.083340259347075 0.0 -0.5085793820529629 22.45179521860446 0.0 -0.2630620088055954 20.383984455320217 0.0 -0.0401003471770959 18.968820084018 0.0 0.052282548779577005 18.05877406014795 0.0 0.1325842611279156 17.274563187332877 0.0 -0.0573180302248848 27.58258814849565 0.0 -0.44517955980222296 24.83726077049112 0.0 -0.07460341133877241 22.42314128714733 0.0 0.1957347743919708 20.61723358765728 0.0 0.1597893145828812 18.905399071200602 0.0 -0.1722113954503656 17.68236726207132 0.0 -0.3287790988044264 24.79398315381494 0.0 0.3142280052630641 22.9951893323158 0.0 0.48627709646127204 21.381068416646084 0.0 0.3323545304465054 20.00462134842536 0.0 0.01318808781028288 -0.4336295308407381 0.0 -1.5831201595780032e-07 -0.43397521084938 0.0 0.001354501993862549 -0.43494073087351803 0.0 0.003047470436186759 -0.43632433090810807 0.0 0.005356160133904 -0.43774025094350605 0.0 0.00864047421601185 -0.43866473096661807 0.0 0.01305293472632336 -0.438297170957429 0.0 0.01894504167362603 -0.435675450891886 0.0 0.02635035585875888 -0.559515493987887 0.0 2.698516787462918e-07 -0.560047454001186 0.0 0.0018351560858789011 -0.5615498540387461 0.0 0.0040450961011274005 -0.563760014094 0.0 0.00700201337505033 -0.566199894154997 0.0 0.01106444787661119 -0.5681810542045261 0.0 0.01653360601334014 -0.56871921421798 0.0 0.023636100190902492 -0.5664706541617661 0.0 0.03272524561813112 -0.7115459777886489 0.0 5.28481373212034e-07 -0.7123054578076361 0.0 0.0020650860516271503 -0.714471457861786 0.0 0.004511768512794211 -0.717703937942598 0.0 0.00778013419450335 -0.721424698035617 0.0 0.012161112304027801 -0.724714498117862 0.0 0.01804258285106456 -0.726411178160279 0.0 0.02562552144063802 -0.7248237781205938 0.0 0.03519863567996587 -0.88073122201828 0.0 -4.41227371030684e-07 -0.881755382043884 0.0 0.002043023571075588 -0.8846878221171951 0.0 0.0044752861118821504 -0.8891246222281151 0.0 0.00770481779262044 -0.894337862358446 0.0 0.01208466190211654 -0.8992529024813221 0.0 0.01790235964755898 -0.9024048225601199 0.0 0.02553349783833743 -0.901795902544897 0.0 0.03498950967473772 -1.0679619866990488 0.0 -3.536806688420165e-08 -1.069289426732235 0.0 0.0018569121664228031 -1.0731096668277411 0.0 0.00408486890212172 -1.0789406269735151 0.0 0.00709015057725376 -1.085932947148323 0.0 0.011230083080752072 -1.0928217073205422 0.0 0.016742389218559722 -1.097863987446599 0.0 0.02407157780178943 -1.0987115074677871 0.0 0.03303509442587735 -1.2761546319038652 0.0 5.718724542968109e-07 -1.277832351945808 0.0 0.0016513441212836022 -1.28268043206701 0.0 0.0036509589312739713 -1.290138472253461 0.0 0.00638384095959602 -1.2992418724810462 0.0 0.010146081053652022 -1.3085333127133323 0.0 0.015305911582647781 -1.3160226329005653 0.0 0.022001101750027532 -1.318965272974131 0.0 0.03040539996013498 -1.5078244776956113 0.0 -6.527436163185901e-07 -1.5099049177476223 0.0 0.001650153681253841 -1.51593963789849 0.0 0.0036188998104724934 -1.525293678132341 0.0 0.00621370135534253 -1.5368738384218452 0.0 0.00977565904439147 -1.549074878726871 0.0 0.014567583964189591 -1.5596342389908553 0.0 0.0207492565187314 -1.5654504391362603 0.0 0.028524611113115262 -1.7649904841247612 0.0 1.524769718119242e-07 -1.76753164418829 0.0 0.0021488732137218292 -1.774913084372826 0.0 0.004568518514212961 -1.786441284661031 0.0 0.007527014188175351 -1.8009112050227791 0.0 0.011316825082920623 -1.8165444054136095 0.0 0.01612324760308118 -1.830833285770831 0.0 0.0220741365518534 -1.8403721260093022 0.0 0.02918667872966695 -2.049718891242971 0.0 -8.83566862089171e-08 -2.0527712513192804 0.0 0.003495912727397816 -2.0616732115418293 0.0 0.007207652980191321 -2.075660571891513 0.0 0.011357372683934311 -2.093414172335353 0.0 0.016167685604192128 -2.1130034128250843 0.0 0.02174323094358076 -2.13166565329164 0.0 0.02820443870511095 -2.1456667336416673 0.0 0.03523456848086419 -2.364244699106116 0.0 6.64087576602189e-07 -2.367863539196587 0.0 0.00606821095170527 -2.3784534994613358 0.0 0.012287637107190922 -2.39516605987915 0.0 0.01884537087113426 -2.4165897804147427 0.0 0.025884897047122407 -2.4405890210147243 0.0 0.0334805168370129 -2.464173181604328 0.0 0.041606269040156706 -2.4832605820815132 0.0 0.0497301052432526 -2.711162627779064 0.0 -2.0846908921172706e-06 -2.715396547884912 0.0 0.01022252385556309 -2.727808268195205 0.0 0.02055252691381316 -2.7474949486873723 0.0 0.03109327037733174 -2.7728973893224333 0.0 0.042015689050392206 -2.801677190041928 0.0 0.0533196453329911 -2.8306120707653 0.0 0.064758041618951 -2.855221831380544 0.0 0.0757875058946876 -3.093738237343454 0.0 8.89607542240188e-07 -3.0986462374661548 0.0 0.01618790360469758 -3.1129917978247934 0.0 0.03256557361413932 -3.135808278395205 0.0 0.0490971572274289 -3.1654257591356423 0.0 0.0657821296445532 -3.1992649999816227 0.0 0.0827752740693818 -3.233764720844116 0.0 0.0996784704919617 -3.2641297216032408 0.0 0.11571914289297851 -3.5159142478978547 0.0 4.97891972447299e-07 -3.5214692080367285 0.0 0.02459093101477326 -3.5377789284444705 0.0 0.0490760332269008 -3.563861569096537 0.0 0.073421801835545 -3.5977749699443713 0.0 0.0983355664583891 -3.6367592909189805 0.0 0.12327660708191511 -3.676950531923761 0.0 0.14738352768458812 -3.7130417728260414 0.0 0.17049723226243071 -3.9818009395450207 0.0 1.0218465055461621e-06 -3.988085259702129 0.0 0.034578342064458534 -4.00634890015872 0.0 0.06954875773871891 -4.03552690088817 0.0 0.10467812261695301 -4.0737113018427795 0.0 0.14032348750808712 -4.11780730294518 0.0 0.17482467237061672 -4.16343490408587 0.0 0.2085918492147961 -4.20512050512801 0.0 0.2410308900257721 -4.4960653124016305 0.0 6.05625175140629e-07 -4.50286731257168 0.0 0.0478721171968029 -4.52299811307495 0.0 0.09555368638884211 -4.55508931387723 0.0 0.143685843592146 -4.59718211492955 0.0 0.1903621007590524 -4.64572611614315 0.0 0.2368166019204149 -4.6965521174138 0.0 0.28369985509249623 -4.74367171859179 0.0 0.3283145042078624 -5.062937326573429 0.0 1.1958909898972738e-07 -5.0702529267563206 0.0 0.06366283359157081 -5.09158052728951 0.0 0.1262829351570733 -5.126068528151711 0.0 0.18840792471019802 -5.17130132928253 0.0 0.2491703822292594 -5.22406493060162 0.0 0.31136203578405075 -5.2792733319818295 0.0 0.3714320972858022 -5.3317325332933105 0.0 0.4274848506871211 -5.68726734218168 0.0 -1.7332386433309649e-06 -5.69450254236256 0.0 0.0797300299932507 -5.7168105429202605 0.0 0.1601918960047973 -5.75312374382809 0.0 0.2378774219469354 -5.8004353450108805 0.0 0.3170306519257661 -5.8557081463927005 0.0 0.3943827258595679 -5.913940547848511 0.0 0.46892561172313996 -5.97011734925293 0.0 0.538421013460525 -6.3729965593249105 0.0 5.50941693773542e-06 -6.38064695951617 0.0 0.0978228664455716 -6.40326936008173 0.0 0.1966828169170703 -6.43988496099712 0.0 0.2926616753165417 -6.48804336220108 0.0 0.39113190977829754 -6.5438201635955 0.0 0.48484253212106304 -6.60303136507578 0.0 0.575032934375823 -6.660698166517451 0.0 0.6603123765078089 -7.12512617812815 0.0 2.5637339440933473e-06 -7.13301857832546 0.0 0.1166989829174745 -7.155347778883691 0.0 0.23384583384614568 -7.190847779771191 0.0 0.3503634767590867 -7.237456580936411 0.0 0.468096731702418 -7.29160858229021 0.0 0.580188054504701 -7.34918218372955 0.0 0.688463897211597 -7.406185385154631 0.0 0.7905209797630239 -7.948090598702262 0.0 1.9607840490196003e-06 -7.955477398886931 0.0 0.1359810633995265 -7.976645799416141 0.0 0.27103295877582384 -8.00951700023792 0.0 0.40847521021188 -8.05185580129639 0.0 0.544089493602237 -8.10139700253492 0.0 0.6753497368837431 -8.15419340385483 0.0 0.802894140072353 -8.20581900514547 0.0 0.920337783008444 -8.8448482211212 0.0 3.105579597639488e-06 -8.85123102128077 0.0 0.1544778158619453 -8.870128221753202 0.0 0.30587135164678364 -8.89829582245739 0.0 0.462121371553034 -8.93414942335373 0.0 0.616486375412159 -8.9756762243919 0.0 0.766695739167393 -9.020145825503642 0.0 0.9140343028508571 -9.06122622653065 0.0 1.0481121462028031 -9.8168602454215 0.0 8.35009740875243e-06 -9.82198144554953 0.0 0.1703905522597637 -9.83758784593969 0.0 0.33508940437723495 -9.85897984647449 0.0 0.50802321270058 -9.886006247150151 0.0 0.6805026570125661 -9.91580664789516 0.0 0.849390261234756 -9.946998248674952 0.0 1.016325305408132 -9.97290384932259 0.0 1.169212189230304 -10.86419107160477 0.0 -2.786332389658308e-06 -10.868566271714151 0.0 0.178858964471474 -10.879323871983091 0.0 0.3590675929766896 -10.892068672301711 0.0 0.544178733604468 -10.90729787268244 0.0 0.731222938280573 -10.921911873047788 0.0 0.918111542952788 -10.93527307338182 0.0 1.105096947627423 -10.94096387352409 0.0 1.278056191951404 -11.986814879203703 0.0 -2.625649855392009e-07 -11.988154382204598 0.0 0.18757036535512597 -11.99243028918881 0.0 0.37601350381847937 -11.99530579364096 0.0 0.565799243827948 -11.996589095115098 0.0 0.7648593699230489 -11.99197348853787 0.0 0.9713462241663969 -11.98430457406992 0.0 1.17458633806426 -11.964657038997789 0.0 1.369358122138686 -13.17536034761682 0.0 -4.85413968623508e-06 -13.174719780416611 0.0 0.18813727369018948 -13.172217133315261 0.0 0.3805230753721152 -13.16408429631102 0.0 0.573672770199228 -13.149437271070232 0.0 0.7826493849439501 -13.12788671619525 0.0 0.9968813305548299 -13.09284800827776 0.0 1.220248729070784 -13.042759344284999 0.0 1.4388652268069944 -14.42491330246024 0.0 -4.7661137202699195e-06 -14.422163673314481 0.0 0.1801363854254456 -14.41243540837616 0.0 0.3656760532748244 -14.393659173660197 0.0 0.561260818833193 -14.366216093057568 0.0 0.7674337669300321 -14.32152671020576 0.0 0.9989359689345042 -14.25754125116232 0.0 1.241215904392136 -14.17378318846316 0.0 1.4833945588065842 -15.72488209116396 0.0 -1.769421060927036e-06 -15.720409983855 0.0 0.162407720787936 -15.70585030070922 0.0 0.3321808311405048 -15.6789062750964 0.0 0.5225904346831199 -15.634947110104081 0.0 0.7360774448163839 -15.568684008407638 0.0 0.9745368084037079 -15.47597770844481 0.0 1.232664188891418 -15.352308852689339 0.0 1.510230442152033 -17.061217021246023 0.0 4.341397157760531e-06 -17.055948775599557 0.0 0.1402636045506766 -17.03855070765663 0.0 0.2943214580746796 -17.004329733429998 0.0 0.47350065345689996 -16.94672199836925 0.0 0.6862129259225149 -16.85865145162852 0.0 0.9345482116329001 -16.735401473261117 0.0 1.212414031137968 -16.5746324912302 0.0 1.5046995424972958 -18.411646987770723 0.0 -1.6308731631522238e-06 -18.40702238410662 0.0 0.1200538480095768 -18.39102438467364 0.0 0.25971531474698756 -18.35133157220946 0.0 0.42307981489818003 -18.28272658509 0.0 0.6241043426688 -18.17526653634864 0.0 0.870304053574848 -18.02048308619856 0.0 1.158599961923904 -17.8163618848623 0.0 1.46782393069014 -19.73600034706768 0.0 -1.003685198610604e-06 -19.73104771724561 0.0 0.1018276589172109 -19.711684067359002 0.0 0.216956635947194 -19.67434048939664 0.0 0.366578207606786 -19.597541284072 0.0 0.5519346473054599 -19.473461423878973 0.0 0.7872596955382469 -19.289756327591498 0.0 1.07173596643291 -19.0381091260668 0.0 1.378369780258289 -20.96492776783215 0.0 1.9142295796339e-06 -20.95541570082185 0.0 0.0903187506685975 -20.9338556610678 0.0 0.1859418710736213 -20.89763781075342 0.0 0.31091974235702013 -20.81960189154672 0.0 0.48610160542877195 -20.67811730512488 0.0 0.694915403990954 -20.464640986671412 0.0 0.9604827669992101 -20.16628768625606 0.0 1.257357186035902 -22.0599127011285 0.0 -1.51152319368765e-06 -22.0496373428892 0.0 0.09718335008256801 -22.01731143596504 0.0 0.188970325586672 -21.9706736880125 0.0 0.314095609463405 -21.86155521949462 0.0 0.43619603835644893 -21.6997728014835 0.0 0.590445574543864 -21.46445439395862 0.0 0.803850110476567 -21.13369933609766 0.0 1.064951153914349 -22.970297904879992 0.0 1.2614981834342371e-06 -22.972474516651918 0.0 0.0822912723046368 -22.921470429680877 0.0 0.1667935529654616 -22.8678162129132 0.0 0.28565001063286233 -22.74255083109099 0.0 0.3972637529258649 -22.54431539810658 0.0 0.484952131524276 -22.2794665727302 0.0 0.6063493391704621 -21.914677374871918 0.0 0.783194312251296 -23.751136830677204 0.0 -4.4050688467216e-06 -23.748570488841857 0.0 0.03910029022048722 -23.68740047816887 0.0 0.11276446382653109 -23.59575022291958 0.0 0.15558563561724692 -23.45490776762525 0.0 0.198443039273115 -23.2113664755345 0.0 0.197802329689923 -22.92388160688344 0.0 0.2517721049854722 -22.53807897253082 0.0 0.319370284578447 -24.320273801175 0.0 2.414871856388376e-07 -24.29193330076806 0.0 0.2701985194574619 -24.17971104664332 0.0 0.44354123960122194 -24.00115503983694 0.0 0.43658768289124805 -23.79233543079771 0.0 0.3247182639881817 -23.523169305837477 0.0 0.127914617060529 -23.230964722155118 0.0 0.0099057191059512 -22.826450905610223 0.0 -0.040847885300591996 -24.663355380451904 0.0 9.3952453613036e-06 -24.56674535198286 0.0 0.6250791120118351 -24.373926345507872 0.0 1.1039405439546912 -24.131022064857188 0.0 1.344948305536918 -23.78503252693576 0.0 1.2727987077054401 -23.34870890945733 0.0 0.9173090625544149 -22.90980940812837 0.0 0.5466376821604501 -22.3988880155625 0.0 0.320826459988125 -23.0062082364002 0.0 2.1328741052227e-06 -23.0047223690956 0.0 1.10956385203566 -22.987761995946894 0.0 2.0605309121904303 -22.93412945064577 0.0 2.7462498495046948 -22.811456924542 0.0 3.14425837010298 -22.513756251149342 0.0 3.2791259479188 -22.01893300262294 0.0 3.2731683125546276 -21.27213055255656 0.0 3.212029089135516 -15.816293451255 0.0 -2.33367131794569e-06 -15.80878897054272 0.0 1.2002023967921278 -15.777821307901377 0.0 2.216006261432166 -15.700488721579982 0.0 2.916537756034914 -15.545333868616531 0.0 3.2619675211511936 -15.281899153543439 0.0 3.316932289703088 -14.890744593468998 0.0 3.2316222410298 -14.371391046026961 0.0 3.1651903387076277 -10.16616120693514 0.0 1.461301013881478e-06 -10.149475583916901 0.0 1.2302866260978171 -10.09391439666428 0.0 2.254140609999278 -9.984548537914598 0.0 2.9228436337136503 -9.80208846412695 0.0 3.1869862586736297 -9.530166867615002 0.0 3.1120625160603 -9.162024312933 0.0 2.8584599527557595 -8.704737659033121 0.0 2.604789970387044 -5.70962394465408 0.0 -2.311424476190016e-06 -5.689564144149959 0.0 1.215957616582662 -5.626832910268079 0.0 2.2124823437465637 -5.51495028578913 0.0 2.830930098616386 -5.3467676809329 0.0 3.01779616609037 -5.11938382313813 0.0 2.841275943667875 -4.83758745238596 0.0 2.4691968136237965 -4.51526898606766 0.0 2.0922653674650333 -1.7107166147597888 0.0 -6.71019857487889e-07 -1.692643166909936 0.0 1.1738114517242881 -1.6384389363432053 0.0 2.124228300428745 -1.548589759257065 0.0 2.69037648451582 -1.425812184081691 0.0 2.8197286121894 -1.276830021560674 0.0 2.584820681182996 -1.113876313155984 0.0 2.158913285197628 -0.95356371531057 0.0 1.7380909732914418 2.371119064627716 0.0 1.3847877691315561e-06 2.383517699877168 0.0 1.12059606740076 2.4189639690976383 0.0 2.0212555173949442 2.4722923873112306 0.0 2.544934716960781 2.5350619697306565 0.0 2.64366177997764 2.5958381060933404 0.0 2.39495218133528 2.6407657873991517 0.0 1.9754195954446938 2.6564650455821703 0.0 1.5808252650684602 6.658733570422481 0.0 1.4195912157320198e-06 6.66400103887908 0.0 1.0685156480781222 6.677127902508801 0.0 1.92552394571999 6.69074876623974 0.0 2.4216002166094737 6.69463426291704 0.0 2.514977671300536 6.67739140282482 0.0 2.287432878490962 6.629390502379019 0.0 1.916382550720608 6.5451099201936 0.0 1.5929372376392001 10.95654299807025 0.0 1.633412394577125e-05 10.95515178582156 0.0 1.023154852679736 10.94803722864864 0.0 1.8458109731265118 10.92772719272898 0.0 2.3277324740329797 10.884730769845559 0.0 2.433335387194641 10.8113044728 0.0 2.2468673141256 10.704943296406059 0.0 1.9436317488792179 10.571092028041951 0.0 1.7073065838307848 14.994101104399501 0.0 1.1059188844494999e-05 14.987909056019001 0.0 0.9841010649858499 14.96660627324024 0.0 1.7794172215640358 14.923439301286239 0.0 2.254952896047596 14.850941771479862 0.0 2.3803329293827558 14.74617852043515 0.0 2.240067011898915 14.61401408183301 0.0 2.004636074156586 14.470340740868581 0.0 1.8488087948257712 18.575972624326678 0.0 1.2725664573420362e-05 18.56762594901686 0.0 0.9473181371635719 18.5401184361591 0.0 1.71716036042411 18.487591604936 0.0 2.1871628445579003 18.4045843977104 0.0 2.330929543051872 18.291160690926755 0.0 2.23140934065342 18.158016128881016 0.0 2.052273096800234 18.028317970528338 0.0 1.958635033093003 21.096953154099122 0.0 4.56588635079584e-06 21.086801741615 0.0 0.9023705838592 21.0694936459957 0.0 1.6393342344449748 21.04391388542173 0.0 2.098288036940317 21.010605327747662 0.0 2.256366998644194 20.973817658395202 0.0 2.1935046641834552 20.9302640201937 0.0 2.05981684749246 20.9207502865032 0.0 2.01274825391832 21.75544113797054 0.0 4.7283138865901404e-06 21.756230101148 0.0 0.83832846961504 21.7588731558924 0.0 1.528453596132141 21.76718508065798 0.0 1.967278588188 21.78630764486476 0.0 2.136410890606498 21.822514669898602 0.0 2.106778127550768 21.894298778048096 0.0 2.02261892287691 22.016022735919417 0.0 2.028043584659924 21.84773593816946 0.0 1.289427439173492e-06 21.854636775002596 0.0 0.783654316751224 21.871515568153647 0.0 1.4249402473463697 21.901491539685896 0.0 1.841409063147804 21.95320169270787 0.0 2.0240639049275577 22.03248323604866 0.0 2.0399272722663913 22.1506243497552 0.0 2.0142748157952197 22.30299088076549 0.0 2.0746857595986974 21.730242892513147 0.0 2.563337027688698e-07 21.74220423926506 0.0 0.72274223021146 21.781154329815784 0.0 1.3311680671860828 21.849460114897646 0.0 1.747483377122319 21.945942647407218 0.0 1.9579877214495 22.068331875964642 0.0 2.02267467528516 22.217951761801718 0.0 2.0566624251744843 22.413931128422682 0.0 2.177094250614472 21.497524341915767 0.0 -1.173064498971975e-06 21.5123043175801 0.0 0.68286837871057 21.572887699237558 0.0 1.2719294801521 21.67168331348048 0.0 1.7057758167720762 21.80037972483873 0.0 1.970196844313072 21.947597413645198 0.0 2.099013577335664 22.130279401177066 0.0 2.186053020035393 22.358097803686547 0.0 2.315230467486329 21.19510737386298 0.0 -2.1139485929302424e-06 21.226079145704162 0.0 0.6590421934107701 21.31490801084625 0.0 1.2354541566285 21.45183701995625 0.0 1.6717224290646249 21.625449185198317 0.0 1.9594700211399392 21.824359892442498 0.0 2.141188460422 22.04345313552794 0.0 2.280815154485344 22.301262585224798 0.0 2.430843231849408 20.810106143255 0.0 6.185347367377751e-06 20.84986500395788 0.0 0.621648701287106 20.96365069730108 0.0 1.176998623756562 21.1383082777506 0.0 1.62110433767964 21.3641401604323 0.0 1.9395753619558076 21.614920698546282 0.0 2.163179356753916 21.886013402680803 0.0 2.3376954576266296 22.144940295418095 0.0 2.5554406286092677 20.35228375713108 0.0 3.093865712893731e-06 20.40111318964322 0.0 0.571161038773026 20.5396173794981 0.0 1.09226798137366 20.749909128990797 0.0 1.530784175587656 21.01099376544036 0.0 1.8814313183736842 21.297134580219687 0.0 2.16224429612196 21.60905703546115 0.0 2.439086029961998 21.966309564768356 0.0 2.613419913457364 19.82992161381192 0.0 5.12207991294204e-06 19.886883100562514 0.0 0.5291290328640741 20.04422758219566 0.0 1.0198122391020361 20.28349521710953 0.0 1.455509951505479 20.5610887324258 0.0 1.86998046157988 20.92975092600878 0.0 2.171533495237086 21.301986960068238 0.0 2.393941914178772 21.695455930628256 0.0 2.59583043553746 19.267808019229772 0.0 1.1665293311907962e-06 19.32773704166976 0.0 0.485639250978816 19.4994294806757 0.0 0.9517672260014102 19.75985996791815 0.0 1.40195997805941 20.10354594872922 0.0 1.7678183954624822 20.496509251225916 0.0 2.079822732127353 20.93401396194534 0.0 2.323902127816926 21.39961714478973 0.0 2.481011960662935 18.682853003704892 0.0 2.73288174043797e-06 18.7467880691448 0.0 0.45563962243416006 18.947953605785937 0.0 0.8759572499119798 19.22543752079118 0.0 1.28954519391504 19.59801764653404 0.0 1.6653173018709777 20.04657462916758 0.0 1.9669406576976 20.55573172722102 0.0 2.152144838232672 21.12650879366034 0.0 2.2986737207152745 18.09333643740336 0.0 2.152491648133533e-06 18.19277206239726 0.0 0.3958621307998122 18.3801922362888 0.0 0.78861969298656 18.69233513154462 0.0 1.1936055453141539 19.106950268818082 0.0 1.530810457173486 19.62148667052051 0.0 1.7582660126745302 20.22132159387702 0.0 1.89641445073677 20.904331781626322 0.0 1.9992651824928838 17.56200682051584 0.0 3.849436936940544e-06 17.645062174213436 0.0 0.33217750499549636 17.860313476698 0.0 0.71039778023907 18.20210455274841 0.0 1.0557265529482978 18.676982895510868 0.0 1.3171903181849398 19.27933796387898 0.0 1.464303646658664 19.989782239538428 0.0 1.5494699216539949 20.91616289166348 0.0 1.683162901689588 17.125738241920203 0.0 6.706095459969001e-06 17.1960372184743 0.0 0.27210839145188404 17.43510299732712 0.0 0.572840927014734 17.840736253992958 0.0 0.8544111427052671 18.37080254757825 0.0 0.9914656081861799 19.054833739385398 0.0 1.06877135140659 19.98606117642501 0.0 1.2034140665073512 21.1938571844016 0.0 1.356880023798597 16.816200149971902 0.0 7.044807505264451e-06 16.94045557806404 0.0 0.19442259614596502 17.19074608575106 0.0 0.3759473564395902 17.6382763090925 0.0 0.49997092784950004 18.28630908649255 0.0 0.5668727086066251 19.16134668488224 0.0 0.722152975033999 20.33974915870062 0.0 0.8927644329679681 21.84096629897691 0.0 1.069659166487321 16.70863811063928 0.0 6.99230190301769e-06 16.84011716029335 0.0 0.0684970962006375 17.20133720603265 0.0 0.11054360296117051 17.8083893841818 0.0 0.081135231900412 18.496057959195177 0.0 0.18960939734384338 19.537663743143998 0.0 0.42752793053390403 21.075843854860196 0.0 0.692186696857026 23.3738678266368 0.0 1.010231627488842 17.046827206452537 0.0 1.2474889001783041e-05 17.23286246578596 0.0 -0.0492297164909892 17.6450510075958 0.0 -0.24602994404275796 18.2932635653478 0.0 -0.263796193860726 19.09150376949207 0.0 0.0404686915355163 20.57434058801808 0.0 0.3631543572333216 22.84573377600408 0.0 0.676682192273328 25.68655739477025 0.0 1.0202267665701 16.93463884260792 0.0 1.143760572633816e-05 17.27456158348872 0.0 0.0573399708129936 18.05876203131405 0.0 -0.13257006710391359 18.968800436924102 0.0 -0.052281482223051005 20.3839676149578 0.0 0.04008475861494912 22.45179521860446 0.0 0.2630441780641443 25.08332823051498 0.0 0.508561499189241 28.322489714453518 0.0 1.020331733288016 17.400000500086264 0.0 1.2448485115488241e-05 17.68237006864488 0.0 0.32879802713839323 18.905377821426182 0.0 0.17222381253553143 20.61721514445684 0.0 -0.15978944288340602 22.42310921202813 0.0 -0.1957444169746803 24.837233105690462 0.0 0.0745868645804646 27.58257571938138 0.0 0.445165847682609 19.34193516138332 0.0 1.078538003973728e-05 20.00460932070176 0.0 -0.013173688219588957 21.381047167664544 0.0 -0.33234286756210923 22.995164875944482 0.0 -0.486277337015744 24.7939679187018 0.0 -0.3142380684562171 -0.42958813073970303 0.0 0.0352979488824487 -0.418668770466719 0.0 0.0460947651523691 -0.402088850052221 0.0 0.0578122854453071 -0.3788462734711566 0.0 0.07049235376230881 -0.3484387487109685 0.0 0.0830030940750773 -0.31009274375231843 0.0 0.09421234235530851 -0.2636926705923166 0.0 0.1014299905357497 -0.560000534000013 0.0 0.0434188450854711 -0.547303973682599 0.0 0.0561564174039104 -0.527014573175364 0.0 0.07036643375916081 -0.498150172453754 0.0 0.08496723412418081 -0.45962937149073396 0.0 0.09856710646417761 -0.40917361022934 0.0 0.1099992547499813 -0.3439543805988593 0.0 0.1164471189111779 -0.25893936647348403 0.0 0.13284759932118992 -0.7179421779485541 0.0 0.046607485165187104 -0.703405017585125 0.0 0.0596682334917058 -0.67930281698257 0.0 0.0739702178492554 -0.644246496106162 0.0 0.08871674621791861 -0.5973599749339991 0.0 0.1018878945471973 -0.535227893380697 0.0 0.1142260588556514 -0.45438137135953405 0.0 0.124127963103199 -0.3470046126751151 0.0 0.13968935549223382 -0.8948185023704622 0.0 0.046410361160259005 -0.87871962196799 0.0 0.05910207347755181 -0.850954741273868 0.0 0.0731403298285082 -0.8101050602526261 0.0 0.0874907261872681 -0.755329018883225 0.0 0.10058291051457272 -0.682980097074502 0.0 0.11301384282534602 -0.587435534685888 0.0 0.12380209109505222 -0.4549776113744401 0.0 0.14292192757304809 -1.092250387306259 0.0 0.0439521290988032 -1.075141186878529 0.0 0.056136097403402405 -1.044369346109233 0.0 0.0694377457359436 -0.9984153049603821 0.0 0.0831944620798615 -0.9362923034073071 0.0 0.0960138104003452 -0.854482581362064 0.0 0.10827050670676261 -0.7436487785912189 0.0 0.12044773501119331 -0.5830855345771381 0.0 0.14647169566179233 -1.3138449928461238 0.0 0.040419801010495 -1.2965357124133923 0.0 0.0518985652974641 -1.2637388715934712 0.0 0.06398415759960391 -1.2135873903396839 0.0 0.0767838619195965 -1.145266468631661 0.0 0.088622762215569 -1.0546194263654851 0.0 0.10079994651999861 -0.9282107432052679 0.0 0.1156345388908634 -0.7362213384055329 0.0 0.15262680381567 -1.562548959063723 0.0 0.03747005853675144 -1.5461166786529161 0.0 0.0477657971941449 -1.5124859178121473 0.0 0.05806284145157101 -1.45950283648757 0.0 0.06919363772984091 -1.3870253946756341 0.0 0.0791989339799733 -1.288351672208791 0.0 0.09228868630721711 -1.147129748678243 0.0 0.1119165467979136 -0.920784783019619 0.0 0.1648687401217184 -1.8406195260154872 0.0 0.03718049612951238 -1.8261864056546593 0.0 0.0459900851497521 -1.7930281248257023 0.0 0.05418021735450541 -1.738591603464789 0.0 0.06361875759046891 -1.6638851615971277 0.0 0.0713654057841351 -1.5593328789833212 0.0 0.086746122168653 -1.40637523515938 0.0 0.11309080282727 -1.1453955086348873 0.0 0.1870878246771955 -2.1499891737497276 0.0 0.0425506890637672 -2.1387346934683658 0.0 0.0497970092449252 -2.1072489326812223 0.0 0.05650800141270001 -2.05357005133925 0.0 0.0636945255923631 -1.978264489456611 0.0 0.0702027817550695 -1.871222726780567 0.0 0.08814802220370051 -1.7116962827924058 0.0 0.1207782790194569 -1.4243623956090592 0.0 0.2134609293365231 -2.492397382309933 0.0 0.0574349174358729 -2.4853348221333693 0.0 0.064112081602802 -2.4572748614318702 0.0 0.06955045773876141 -2.406567460164185 0.0 0.0744353778608844 -2.331707458292685 0.0 0.0806261100156527 -2.2287670557191754 0.0 0.09584885039622121 -2.0718370917959263 0.0 0.1297090552427263 -1.785324124633102 0.0 0.21696968542424203 -2.869719951742997 0.0 0.08550307413757681 -2.867562751689067 0.0 0.0931997263299931 -2.8444689511117227 0.0 0.0980075744501893 -2.798698509967461 0.0 0.1007039345175983 -2.731498788287468 0.0 0.1010734105268352 -2.639490185987253 0.0 0.10905914672647861 -2.5030575425764376 0.0 0.135594563389864 -2.255112136377802 0.0 0.19164047679101182 -3.2842964821074103 0.0 0.12918201922955042 -3.2873875621846875 0.0 0.14030315150757872 -3.270501401762533 0.0 0.1454082516352062 -3.2339463208486565 0.0 0.1449336556233413 -3.1801439995035983 0.0 0.142156843553921 -3.108634277715855 0.0 0.14893818372345452 -3.009232195230803 0.0 0.1826530485663261 -2.7832039495800975 0.0 0.28244705906117634 -3.7387959334698957 0.0 0.1905304967632623 -3.747588813689718 0.0 0.20637629715940728 -3.7374943734373565 0.0 0.2174634014365849 -3.714103012852573 0.0 0.2225608175640203 -3.6833096520827393 0.0 0.2344046178601153 -3.6443501311087507 0.0 0.2882979472074485 -3.5946148898653703 0.0 0.43372613084315303 -3.412859805321493 0.0 0.734011098350277 -4.2365973059149304 0.0 0.2698422507460561 -4.251296906282421 0.0 0.2954028673850715 -4.24932970623324 0.0 0.3220226120505651 -4.24325570608139 0.0 0.34548776863719405 -4.248055306201381 0.0 0.39144554978613855 -4.27078090676952 0.0 0.5114259727856489 -4.299116507477911 0.0 0.764443779111094 -4.232568505814211 0.0 1.138592548464813 -4.78070451951761 0.0 0.36796596919914903 -4.80115772002894 0.0 0.407764170194104 -4.80866492021662 0.0 0.45212365130309107 -4.821125320528131 0.0 0.504019972600499 -4.869824121745601 0.0 0.584820374620509 -4.97000172425004 0.0 0.7509226587730662 -5.11315812782895 0.0 1.037782225944555 -5.208954530223861 0.0 1.4043453551086331 -5.37341693433542 0.0 0.483697292092432 -5.3993465349836605 0.0 0.5394838134870951 -5.415890135397251 0.0 0.598486574962164 -5.44921773623044 0.0 0.672867416821685 -5.53859253846481 0.0 0.7842968596074211 -5.71689334292233 0.0 0.97163842429096 -5.98394654959866 0.0 1.2568464714211611 -6.25534615638365 0.0 1.6197228004930688 -6.01600055040001 0.0 0.609242135231053 -6.0470277511756905 0.0 0.678763416969085 -6.0705841517646 0.0 0.754549778863744 -6.12130655303266 0.0 0.843935141098378 -6.24736095618402 0.0 0.9722480243062002 -6.4966013624150305 0.0 1.164328589108214 -6.881478972036971 0.0 1.447993676199841 -7.319539782988491 0.0 1.824745805618644 -6.709054167726351 0.0 0.743040578576014 -6.7430961685774005 0.0 0.823446300586157 -6.772286969307171 0.0 0.9090162627254061 -6.836988170924701 0.0 1.006983305174582 -6.9962733749068295 0.0 1.142568148564203 -7.312136982803421 0.0 1.337736753443418 -7.801720595043011 0.0 1.637530000938249 -8.38480620962015 0.0 2.040205811005144 -7.45375018634375 0.0 0.886649822166245 -7.4874545871863605 0.0 0.974965304374132 -7.51948258798706 0.0 1.06554642663866 -7.596952189923799 0.0 1.166622389165559 -7.791220994780519 0.0 1.298654952466373 -8.17274500431862 0.0 1.503053517576337 -8.76681101917027 0.0 1.8268967256724171 -9.47935743698393 0.0 2.266759936668997 -8.248263806206591 0.0 1.0289439457235978 -8.27822500695562 0.0 1.1271743081793573 -8.310159407753982 0.0 1.221407430535185 -8.399124209978101 0.0 1.321566913039172 -8.63093061577326 0.0 1.452629796315744 -9.08551902713797 0.0 1.6638769615969229 -9.793053844826341 0.0 2.0178715304467874 -10.64334746608368 0.0 2.5046902226172545 -9.09349142733728 0.0 1.1704485092612122 -9.11416742785418 0.0 1.2786705519667632 -9.142734628568359 0.0 1.3779302744482562 -9.241787831044691 0.0 1.4765673969141841 -9.513082237827051 0.0 1.606631320165782 -10.05029185125729 0.0 1.8237682855942061 -10.88551587213789 0.0 2.209387455234685 -11.890620697265511 0.0 2.7558384688959605 -9.989295449732381 0.0 1.30761883269047 -9.99455144986378 0.0 1.42969403574235 -10.01523985038099 0.0 1.534971558374288 -10.12241785306044 0.0 1.633240560831013 -10.4361842609046 0.0 1.7631298440782452 -11.06513707662842 0.0 1.9855656096391392 -12.044171501104282 0.0 2.402579380064483 -13.22628193065704 0.0 3.0120802753020053 -10.935290673382262 0.0 1.435605475890136 -10.918973872974341 0.0 1.575018639375465 -10.92563947314098 0.0 1.690454922261372 -11.0382602759565 0.0 1.7913441247836022 -11.39669068491726 0.0 1.9226221680655533 -12.12825590320639 0.0 2.153660653841515 -13.26826193170654 0.0 2.5956789848919732 -14.651483566287082 0.0 3.274115841852894 -11.930917096348798 0.0 1.5489198833763398 -11.8862286293162 0.0 1.7097452846140797 -11.871069277559178 0.0 1.837107409004814 -11.98670567903171 0.0 1.9470215065540428 -12.3915947286303 0.0 2.081435329933902 -13.2360798394957 0.0 2.324801275915776 -14.55760162000304 0.0 2.78707679866913 -16.169045028181323 0.0 3.540608419814914 -12.975496411393348 0.0 1.6427747577981149 -12.89564084206305 0.0 1.828505216797515 -12.85166494707696 0.0 1.9714549143634559 -12.966293851441918 0.0 2.0951561786466244 -13.419403238667991 0.0 2.233150218332922 -14.387145340239448 0.0 2.4934176520033047 -15.9148840379697 0.0 2.9749644035449805 -17.788360802558373 0.0 3.808841964491517 -14.06571807540396 0.0 1.7201400372598958 -13.94589933312512 0.0 1.927166298677372 -13.86722139098864 0.0 2.08829653570864 -13.97593435064112 0.0 2.228778716184328 -14.48068189360104 0.0 2.3707002091558484 -15.58284123898928 0.0 2.654929423722556 -17.34960870390288 0.0 3.1620313171766803 -19.5301634233433 0.0 4.0753926817604 -15.202810008849601 0.0 1.771444143241008 -15.034425620597219 0.0 1.999183715065572 -14.91666649604208 0.0 2.1784377593693875 -15.01429257182265 0.0 2.3385827800159196 -15.57912547643643 0.0 2.49827268572802 -16.83381246669696 0.0 2.8205509013707197 -18.875668300539 0.0 3.35270292837423 -21.42657332500608 0.0 4.33238553589644 -16.375946665521727 0.0 1.7858032829437573 -16.15165318899804 0.0 2.027921119284004 -15.98292978253407 0.0 2.22261127235506 -16.071812668958 0.0 2.4167734054243 -16.70723505752838 0.0 2.600801031430224 -18.12792952751302 0.0 2.953514015160195 -20.49683383342352 0.0 3.540562630335504 -23.524788137537662 0.0 4.61685634000659 -17.56325570317002 0.0 1.7627901167631421 -17.279101528295012 0.0 2.0221451924603158 -17.054744432477488 0.0 2.248651655629257 -17.13190931472306 0.0 2.467711773984402 -17.8008849279465 0.0 2.696555598625893 -19.44266840471235 0.0 3.067036987808535 -22.19255210923188 0.0 3.7404285812399163 -25.815269969287257 0.0 4.92554045318538 -18.725115091223998 0.0 1.6808122889016401 -18.37624234749884 0.0 1.9630431682110479 -18.0892941861324 0.0 2.219859995647133 -18.13123452838997 0.0 2.497626575187135 -18.868180485696637 0.0 2.755251902248628 -20.716184961061067 0.0 3.201821744985125 -23.888302653860002 0.0 3.984497769618 -28.201650495694942 0.0 5.28069157130119 -19.793040508914903 0.0 1.570644461858972 -19.384434159044503 0.0 1.8582046422356302 -19.055345389400323 0.0 2.115522272540716 -19.07338733937568 0.0 2.4320213749005117 -19.815268245033938 0.0 2.8191177207822857 -21.81201426953003 0.0 3.4914916462420154 -25.48425670508417 0.0 4.32493128163271 -30.52189253249771 0.0 5.6967745395734095 -20.7179884382849 0.0 1.370655128113103 -20.2574575099427 0.0 1.6723319377473411 -19.89444492330656 0.0 1.9574953274591043 -19.9008486670598 0.0 2.30629707738804 -20.7336194349147 0.0 2.80040750264464 -22.85253414207209 0.0 3.800957920237153 -26.815894288560298 0.0 4.944423848727 -32.57011850000064 0.0 6.38851611912384 -21.45909533737354 0.0 1.055075722928028 -20.95950838614944 0.0 1.3749750700869259 -20.577140983444 0.0 1.7410270166024 -20.60385255504392 0.0 2.2090577607498725 -21.495881824767 0.0 2.980615015569905 -23.7587043870851 0.0 4.3304751266674 -27.87785410754777 0.0 5.95882328194044 -34.12680192385201 0.0 7.26064964397792 -22.05626173918993 0.0 0.553188039982335 -21.505358127756683 0.0 0.9246494680158922 -21.0964290545104 0.0 1.435976567875206 -21.08854394424635 0.0 2.192927585018845 -21.96265890196748 0.0 3.47516404800671 -24.244682928529436 0.0 5.2681372964116 -28.353669813442004 0.0 7.67608238253646 -34.7547306491896 0.0 8.1189037189092 -22.32411783327216 0.0 0.1190749135160304 -21.78044616033273 0.0 0.59597112740958 -21.325998320006253 0.0 1.216786355801575 -21.2928010216603 0.0 2.285876734700482 -22.059804384138 0.0 4.1239889254881 -24.297918611504 0.0 6.49437040935455 -28.10053871801066 0.0 9.797389108229611 -33.952762641120955 0.0 8.66015922935472 -21.8803740884892 0.0 0.4947194998206 -21.30488725316345 0.0 1.064664154769715 -20.81082976401719 0.0 1.911486572226461 -20.72722822906895 0.0 3.3407128121490115 -21.520803095983357 0.0 5.32534383195152 -23.732066759896302 0.0 7.093699880330261 -26.584353341717218 0.0 11.03414698954386 -28.622647291650264 0.0 9.5580176281203 -20.449008967747922 0.0 3.2983982737746653 -19.70701738376256 0.0 3.6918449734760643 -19.06501731783218 0.0 4.45949722741716 -18.85360532945582 0.0 5.26391405893178 -18.95361980704383 0.0 6.374839713552809 -18.8801291758104 0.0 7.98473195831007 -18.757992568114798 0.0 11.5522619845248 -18.789052002208802 0.0 9.601450492551841 -13.748400397279243 0.0 3.2123441966790645 -13.07693002569736 0.0 3.4649153249784637 -12.436023525712919 0.0 4.009240399086341 -11.893126251323071 0.0 4.59895563054837 -11.48508555508314 0.0 5.88139409523666 -11.233303636896 0.0 8.22128647152911 -11.149553552515698 0.0 12.972883790232938 -11.22944751807835 0.0 9.387707029527531 -8.183188529276201 0.0 2.4748215489007 -7.642087670346899 0.0 2.576597121393762 -7.14077549017 0.0 3.05467931945715 -6.735203810010391 0.0 3.800538341245074 -6.46530566708325 0.0 5.414099767121701 -6.355181886628401 0.0 8.35082334170528 -6.4031811103104 0.0 14.425595966737802 -6.5737904478489595 0.0 9.157852666790639 -4.17621056232055 0.0 1.853067203601657 -3.853495139413079 0.0 1.8757574816173197 -3.5830262302124405 0.0 2.31715223163006 -3.3990540422730064 0.0 3.4006899511456954 -3.329600707244448 0.0 5.295125677091249 -3.3887472398883305 0.0 8.6466135936737 -3.5627806096001984 0.0 15.30073119087186 -3.8053093209808253 0.0 8.9450312325025 -0.8150114865776911 0.0 1.472749762384167 -0.717686261939553 0.0 1.4990049619152273 -0.67553493707696 0.0 1.994760474974296 -0.698831432356858 0.0 3.223805698267238 -0.7964281372464029 0.0 5.42993204324582 -0.9683542847763711 0.0 9.23254226166929 -1.1955853794279199 0.0 15.638650889191197 -1.4401819726729599 0.0 8.81435908561888 2.63248549364906 0.0 1.35931392289084 2.5641878033969188 0.0 1.4518613061798509 2.4561459970647963 0.0 2.057293421114244 2.31647737454812 0.0 3.4587898567950797 2.1523741608374225 0.0 5.84418621063513 1.9727939416129843 0.0 9.56950848031514 1.792958137485298 0.0 15.61842742931514 1.6320524456329601 0.0 8.7887841830464 6.42590747410582 0.0 1.4557274213503701 6.281757111677821 0.0 1.639230070630854 6.130217676164451 0.0 2.345526548834502 5.98968048763112 0.0 3.8464560158175196 5.8730377425306 0.0 6.2314957994450095 5.787762079161961 0.0 9.65255930753634 5.73738433159059 0.0 15.321899345425468 5.72248415903778 0.0 8.7954733800324 10.423626884182099 0.0 1.6634177266070842 10.28500672363374 0.0 1.932631506638602 10.180641574337882 0.0 2.7070842393926915 10.12980239733656 0.0 4.2321974874392 10.1400244232592 0.0 6.5161583427591 10.20801092793951 0.0 9.618422985004859 10.32303113628192 0.0 14.924859744741662 10.47446688601029 0.0 8.826980866245 14.340548368169008 0.0 1.884464371692918 14.25702954693852 0.0 2.2165857829925124 14.248760089154121 0.0 3.0235665019632854 14.330092051875631 0.0 4.52567560997763 14.49555333936897 0.0 6.69477111261409 14.726345258216243 0.0 9.56744305209264 14.99961754380388 0.0 14.514024784911019 15.30143284516364 0.0 8.91757139099218 17.93572666053519 0.0 2.049702738392166 17.91967663290176 0.0 2.416335325800736 18.011510559942902 0.0 3.22587430348092 18.21919850751168 0.0 4.6875677653416 18.524166618770824 0.0 6.790271241783961 18.892661740306643 0.0 9.58137773503136 19.29300561416804 0.0 14.141063585984222 19.71104922144918 0.0 9.10434230778383 20.93354387209824 0.0 2.137561965825204 21.029343351410787 0.0 2.511862311766599 21.23406547151684 0.0 3.2947653502012035 21.54904549099991 0.0 4.705284277326779 21.93871270423983 0.0 6.7814348756572 22.414607320271248 0.0 9.587813587380099 22.6900223292696 0.0 13.60750831336608 23.40373934014737 0.0 9.35932688731913 22.188246832571718 0.0 2.20942034974347 22.40890002201645 0.0 2.63170609971265 22.83197942901408 0.0 3.396149161450884 23.67551310245836 0.0 4.6751274238383 24.47882164309856 0.0 6.496579197306399 24.93811254267504 0.0 9.25295253900624 25.04526679300752 0.0 12.883636742622482 26.450242348104116 0.0 9.86301773487576 22.51275137206992 0.0 2.300916533838 22.7957135715771 0.0 2.75678942276122 23.2708509732138 0.0 3.5125127167172896 24.2151393295992 0.0 4.6817547802836 25.84665573500636 0.0 6.35239668622056 26.8626406436178 0.0 8.8597213628812 27.0401075562501 0.0 12.3267897712141 28.8821851998416 0.0 10.380945574045201 22.6568539455139 0.0 2.46513845702681 22.935817403913457 0.0 2.9119872662888424 23.422947791927264 0.0 3.5794422463950544 24.39895038234621 0.0 4.57843524071318 26.1573785089497 0.0 6.085904204574799 28.33855198766302 0.0 8.42316591861547 28.964354900495042 0.0 11.844215844052203 31.29370925905572 0.0 10.73667668327968 22.65741107704306 0.0 2.5793198237364803 22.9631391136868 0.0 2.9746397594307448 23.49020908782392 0.0 3.67031796373593 24.4902039580073 0.0 4.530850049063949 26.324525434280716 0.0 5.7313025133540005 29.09994511748389 0.0 7.62171611748989 30.99135706246366 0.0 11.47473303720839 33.7194255334164 0.0 10.6167121928842 22.569531198358007 0.0 2.683217199136949 22.907548877397765 0.0 3.139336557467752 23.487034176550296 0.0 3.7165600672630927 24.512956359172662 0.0 4.43153671517042 26.453521921855558 0.0 5.4105067179507405 29.6676844745996 0.0 6.964965591201199 33.2096530740665 0.0 10.7190732168575 36.245826891680814 0.0 9.87520660002759 22.469416234006 0.0 2.819757278209795 22.847158358166283 0.0 3.1673191995746417 23.49802735726689 0.0 3.6522879902230847 24.62084970684372 0.0 4.36502830653522 26.756339811502365 0.0 5.1733257893834805 30.36400477511716 0.0 6.5988986747597105 35.734709057150496 0.0 9.51730739043355 40.5340200800784 0.0 9.751299924054882 22.328997232711142 0.0 2.8505911697655306 22.78962928081452 0.0 3.164479549300952 23.515763030408607 0.0 3.5844323626940895 24.85419115437984 0.0 4.1697009285979005 27.2793935664426 0.0 4.8948134886934 31.290226151781628 0.0 6.2209825706628905 37.63414641569188 0.0 8.41196957391636 44.7816108765795 0.0 9.576533966615001 22.140876858693403 0.0 2.798572849327112 22.710119846608237 0.0 3.0574774938569877 23.65520935094086 0.0 3.4355244018730255 25.3183984440185 0.0 4.0062741553241 28.02167266285208 0.0 4.6535300112460805 32.50105495825568 0.0 5.86312728448304 39.40096112548384 0.0 7.755665491099839 47.075334025402995 0.0 9.191874041234879 21.9466247601975 0.0 2.65498180326225 22.69844818242468 0.0 2.90102346458682 23.93085510409233 0.0 3.2566321568407948 25.971285038681998 0.0 3.7333379257857153 28.9975837109916 0.0 4.23304028879316 34.09541124690959 0.0 5.44511079072252 41.4441457081956 0.0 7.240274558237039 21.829093410200578 0.0 2.435778991688439 22.83088302894168 0.0 2.641940080910658 24.421362239187598 0.0 2.95059358742706 26.84882434269222 0.0 3.3000920471523654 30.33108981576858 0.0 3.7425105392395315 36.17666237298768 0.0 5.11716696123096 43.674828576795 0.0 6.811014995869499 21.8392911920568 0.0 2.1459062122488 23.1979419973548 0.0 2.32833043945836 25.20029376691452 0.0 2.5855540499556358 28.012744618282436 0.0 2.801991073586112 32.28940255665414 0.0 3.456180003229638 38.79997488571032 0.0 4.982520026844 22.14825634037775 0.0 1.8182200035732903 23.88304541598705 0.0 2.000284462410435 26.3359166080122 0.0 2.18032942204182 29.822296766933718 0.0 2.460608329961236 35.08856377956188 0.0 3.4922414340581596 41.5576340827414 0.0 4.96214189430134 22.812072036363602 0.0 1.50659523408852 25.0611195587922 0.0 1.7125122008258549 28.22648293803264 0.0 2.003727218217504 32.54048106173548 0.0 2.5748492931480214 38.221316260120894 0.0 3.8508499406652095 24.14623822932094 0.0 1.331635401071535 27.17276308085856 0.0 1.666832729710676 31.108061405864962 0.0 2.25445828241755 35.74600776316416 0.0 3.0543736795579837 26.313950002073998 0.0 1.359192494734704 29.944731289854154 0.0 1.892669496077085 34.29532157592198 0.0 2.72545152287754 38.43056014474572 0.0 3.307462960457334 29.02292364073338 0.0 1.4456177563821477 32.92389841516916 0.0 2.2107406882227987 31.749558564224156 0.0 1.6316432353351262 
TENSORS Ellispoids float
0.01 0.0 0.0 0.0 0.01 0.0 0.0 0.0 0.01 0.01 0.0 0.0 0.0 0.01 0.0 0.0 0.0 0.01 0.01 0.0 0.0 0.0 0.01 0.0 0.0 0.0 0.01 0.01 0.0 0.0 0.0 0.01 0.0 0.0 0.0 0.01 0.01 0.0 0.0 0.0 0.01 0.0 0.0 0.0 0.01 0.01 0.0 0.0 0.0 0.01 0.0 0.0 0.0 0.01 0.01 0.0 0.0 0.0 0.01 0.0 0.0 0.0 0.01 0.01 0.0 0.0 0.0 0.01 0.0 0.0 0.0 0.01 0.01 0.0 0.0 0.0 0.01 0.0 0.0 0.0 0.01 0.01 0.0 0.0 0.0 0.01 0.0 0.0 0.0 0.01 0.01 0.0 0.0 0.0 0.01 0.0 0.0 0.0 0.01 0.01 0.0 0.0 0.0 0.01 0.0 0.0 0.0 0.01 0.01 0.0 0.0 0.0 0.01 0.0 0.0 0.0 0.01 0.01 0.0 0.0 0.0 0.01 0.0 0.0 0.0 0.01 0.01 0.0 0.0 0.0 0.01 0.0 0.0 0.0 0.01 0.01 0.0 0.0 0.0 0.01 0.0 0.0 0.0 0.01 0.01 0.0 0.0 0.0 0.01 0.0 0.0 0.0 0.01 0.01 0.0 0.0 0.0 0.01 0.0 0.0 0.0 0.01 0.01 0.0 0.0 0.0 0.01 0.0 0.0 0.0 0.01 0.01 0.0 0.0 0.0 0.01 0.0 0.0 0.0 0.01 0.01 0.0 0.0 0.0 0.01 0.0 0.0 0.0 0.01 0.01 0.0 0.0 0.0 0.01 0.0 0.0 0.0 0.01 0.01 0.0 0.0 0.0 0.01 0.0 0.0 0.0 0.01 0.01 0.0 0.0 0.0 0.01 0.0 0.0 0.0 0.01 0.01 0.0 0.0 0.0 0.01 0.0 0.0 0.0 0.01 0.01 0.0 0.0 0.0 0.01 0.0 0.0 0.0 0.01 0.01 0.0 0.0 0.0 0.01 0.0 0.0 0.0 0.01 0.01 0.0 0.0 0.0 0.01 0.0 0.0 0.0 0.01 0.01 0.0 0.0 0.0 0.01 0.0 0.0 0.0 0.01 0.01 0.0 0.0 0.0 0.01 0.0 0.0 0.0 0.01 0.01 0.0 0.0 0.0 0.01 0.0 0.0 0.0 0.01 0.01 0.0 0.0 0.0 0.01 0.0 0.0 0.0 0.01 0.01 0.0 0.0 0.0 0.01 0.0 0.0 0.0 0.01 0.01 0.0 0.0 0.0 0.01 0.0 0.0 0.0 0.01 0.01 0.0 0.0 0.0 0.01 0.0 0.0 0.0 0.01 0.01 0.0 0.0 0.0 0.01 0.0 0.0 0.0 0.01 0.01 0.0 0.0 0.0 0.01 0.0 0.0 0.0 0.01 0.01 0.0 0.0 0.0 0.01 0.0 0.0 0.0 0.01 0.01 0.0 0.0 0.0 0.01 0.0 0.0 0.0 0.01 0.01 0.0 0.0 0.0 0.01 0.0 0.0 0.0 0.01 0.01 0.0 0.0 0.0 0.01 0.0 0.0 0.0 0.01 0.01 0.0 0.0 0.0 0.01 0.0 0.0 0.0 0.01 0.01 0.0 0.0 0.0 0.01 0.0 0.0 0.0 0.01 0.01 0.0 0.0 0.0 0.01 0.0 0.0 0.0 0.01 0.01 0.0 0.0 0.0 0.01 0.0 0.0 0.0 0.01 0.01 0.0 0.0 0.0 0.01 0.0 0.0 0.0 0.01 0.01 0.0 0.0 0.0 0.01 0.0 0.0 0.0 0.01 0.01 0.0 0.0 0.0 0.01 0.0 0.0 0.0 0.01 0.01 0.0 0.0 0.0 0.01 0.0 0.0 0.0 0.01 0.01 0.0 0.0 0.0 0.01 0.0 0.0 0.0 0.01 0.01 0.0 0.0 0.0 0.01 0.0 0.0 0.0 0.01 0.01 0.0 0.0 0.0 0.01 0.0 0.0 0.0 0.01 0.01 0.0 0.0 0.0 0.01 0.0 0.0 0.0 0.01 0.01 0.0 0.0 0.0 0.01 0.0 0.0 0.0 0.01 0.01 0.0 0.0 0.0 0.01 0.0 0.0 0.0 0.01 0.01 0.0 0.0 0.0 0.01 0.0 0.0 0.0 0.01 0.01 0.0 0.0 0.0 0.01 0.0 0.0 0.0 0.01 0.01 0.0 0.0 0.0 0.01 0.0 0.0 0.0 0.01 0.01 0.0 0.0 0.0 0.01 0.0 0.0 0.0 0.01 0.01 0.0 0.0 0.0 0.01 0.0 0.0 0.0 0.01 0.01 0.0 0.0 0.0 0.01 0.0 0.0 0.0 0.01 0.01 0.0 0.0 0.0 0.01 0.0 0.0 0.0 0.01 0.01 0.0 0.0 0.0 0.01 0.0 0.0 0.0 0.01 0.01 0.0 0.0 0.0 0.01 0.0 0.0 0.0 0.01 0.01 0.0 0.0 0.0 0.01 0.0 0.0 0.0 0.01 0.01 0.0 0.0 0.0 0.01 0.0 0.0 0.0 0.01 0.01 0.0 0.0 0.0 0.01 0.0 0.0 0.0 0.01 0.01 0.0 0.0 0.0 0.01 0.0 0.0 0.0 0.01 0.01 0.0 0.0 0.0 0.01 0.0 0.0 0.0 0.01 0.01 0.0 0.0 0.0 0.01 0.0 0.0 0.0 0.01 0.01 0.0 0.0 0.0 0.01 0.0 0.0 0.0 0.01 0.01 0.0 0.0 0.0 0.01 0.0 0.0 0.0 0.01 0.01 0.0 0.0 0.0 0.01 0.0 0.0 0.0 0.01 0.01 0.0 0.0 0.0 0.01 0.0 0.0 0.0 0.01 0.01 0.0 0.0 0.0 0.01 0.0 0.0 0.0 0.01 0.01 0.0 0.0 0.0 0.01 0.0 0.0 0.0 0.01 0.01 0.0 0.0 0.0 0.01 0.0 0.0 0.0 0.01 0.01 0.0 0.0 0.0 0.01 0.0 0.0 0.0 0.01 0.01 0.0 0.0 0.0 0.01 0.0 0.0 0.0 0.01 0.01 0.0 0.0 0.0 0.01 0.0 0.0 0.0 0.01 0.01 0.0 0.0 0.0 0.01 0.0 0.0 0.0 0.01 0.01 0.0 0.0 0.0 0.01 0.0 0.0 0.0 0.01 0.01 0.0 0.0 0.0 0.01 0.0 0.0 0.0 0.01 0.01 0.0 0.0 0.0 0.01 0.0 0.0 0.0 0.01 0.01 0.0 0.0 0.0 0.01 0.0 0.0 0.0 0.01 0.01 0.0 0.0 0.0 0.01 0.0 0.0 0.0 0.01 0.01 0.0 0.0 0.0 0.01 0.0 0.0 0.0 0.01 0.01 0.0 0.0 0.0 0.01 0.0 0.0 0.0 0.01 0.01 0.0 0.0 0.0 0.01 0.0 0.0 0.0 0.01 0.01 0.0 0.0 0.0 0.01 0.0 0.0 0.0 0.01 0.01 0.0 0.0 0.0 0.01 0.0 0.0 0.0 0.01 0.01 0.0 0.0 0.0 0.01 0.0 0.0 0.0 0.01 0.01 0.0 0.0 0.0 0.01 0.0 0.0 0.0 0.01 0.01 0.0 0.0 0.0 0.01 0.0 0.0 0.0 0.01 0.01 0.0 0.0 0.0 0.01 0.0 0.0 0.0 0.01 0.01 0.0 0.0 0.0 0.01 0.0 0.0 0.0 0.01 0.01 0.0 0.0 0.0 0.01 0.0 0.0 0.0 0.01 0.01 0.0 0.0 0.0 0.01 0.0 0.0 0.0 0.01 0.01 0.0 0.0 0.0 0.01 0.0 0.0 0.0 0.01 0.01 0.0 0.0 0.0 0.01 0.0 0.0 0.0 0.01 0.01 0.0 0.0 0.0 0.01 0.0 0.0 0.0 0.01 0.01 0.0 0.0 0.0 0.01 0.0 0.0 0.0 0.01 0.01 0.0 0.0 0.0 0.01 0.0 0.0 0.0 0.01 0.01 0.0 0.0 0.0 0.01 0.0 0.0 0.0 0.01 0.01 0.0 0.0 0.0 0.01 0.0 0.0 0.0 0.01 0.01 0.0 0.0 0.0 0.01 0.0 0.0 0.0 0.01 0.01 0.0 0.0 0.0 0.01 0.0 0.0 0.0 0.01 0.01 0.0 0.0 0.0 0.01 0.0 0.0 0.0 0.01 0.01 0.0 0.0 0.0 0.01 0.0 0.0 0.0 0.01 0.01 0.0 0.0 0.0 0.01 0.0 0.0 0.0 0.01 0.01 0.0 0.0 0.0 0.01 0.0 0.0 0.0 0.01 0.01 0.0 0.0 0.0 0.01 0.0 0.0 0.0 0.01 0.01 0.0 0.0 0.0 0.01 0.0 0.0 0.0 0.01 0.01 0.0 0.0 0.0 0.01 0.0 0.0 0.0 0.01 0.01 0.0 0.0 0.0 0.01 0.0 0.0 0.0 0.01 0.01 0.0 0.0 0.0 0.01 0.0 0.0 0.0 0.01 0.01 0.0 0.0 0.0 0.01 0.0 0.0 0.0 0.01 0.01 0.0 0.0 0.0 0.01 0.0 0.0 0.0 0.01 0.01 0.0 0.0 0.0 0.01 0.0 0.0 0.0 0.01 0.01 0.0 0.0 0.0 0.01 0.0 0.0 0.0 0.01 0.01 0.0 0.0 0.0 0.01 0.0 0.0 0.0 0.01 0.01 0.0 0.0 0.0 0.01 0.0 0.0 0.0 0.01 0.01 0.0 0.0 0.0 0.01 0.0 0.0 0.0 0.01 0.01 0.0 0.0 0.0 0.01 0.0 0.0 0.0 0.01 0.01 0.0 0.0 0.0 0.01 0.0 0.0 0.0 0.01 0.01 0.0 0.0 0.0 0.01 0.0 0.0 0.0 0.01 0.01 0.0 0.0 0.0 0.01 0.0 0.0 0.0 0.01 0.01 0.0 0.0 0.0 0.01 0.0 0.0 0.0 0.01 0.01 0.0 0.0 0.0 0.01 0.0 0.0 0.0 0.01 0.01 0.0 0.0 0.0 0.01 0.0 0.0 0.0 0.01 0.01 0.0 0.0 0.0 0.01 0.0 0.0 0.0 0.01 0.01 0.0 0.0 0.0 0.01 0.0 0.0 0.0 0.01 0.01 0.0 0.0 0.0 0.01 0.0 0.0 0.0 0.01 0.01 0.0 0.0 0.0 0.01 0.0 0.0 0.0 0.01 0.01 0.0 0.0 0.0 0.01 0.0 0.0 0.0 0.01 0.01 0.0 0.0 0.0 0.01 0.0 0.0 0.0 0.01 0.01 0.0 0.0 0.0 0.01 0.0 0.0 0.0 0.01 0.01 0.0 0.0 0.0 0.01 0.0 0.0 0.0 0.01 0.01 0.0 0.0 0.0 0.01 0.0 0.0 0.0 0.01 0.01 0.0 0.0 0.0 0.01 0.0 0.0 0.0 0.01 0.01 0.0 0.0 0.0 0.01 0.0 0.0 0.0 0.01 0.01 0.0 0.0 0.0 0.01 0.0 0.0 0.0 0.01 0.01 0.0 0.0 0.0 0.01 0.0 0.0 0.0 0.01 0.01 0.0 0.0 0.0 0.01 0.0 0.0 0.0 0.01 0.01 0.0 0.0 0.0 0.01 0.0 0.0 0.0 0.01 0.01 0.0 0.0 0.0 0.01 0.0 0.0 0.0 0.01 0.01 0.0 0.0 0.0 0.01 0.0 0.0 0.0 0.01 0.01 0.0 0.0 0.0 0.01 0.0 0.0 0.0 0.01 0.01 0.0 0.0 0.0 0.01 0.0 0.0 0.0 0.01 0.01 0.0 0.0 0.0 0.01 0.0 0.0 0.0 0.01 0.01 0.0 0.0 0.0 0.01 0.0 0.0 0.0 0.01 0.01 0.0 0.0 0.0 0.01 0.0 0.0 0.0 0.01 0.01 0.0 0.0 0.0 0.01 0.0 0.0 0.0 0.01 0.01 0.0 0.0 0.0 0.01 0.0 0.0 0.0 0.01 0.01 0.0 0.0 0.0 0.01 0.0 0.0 0.0 0.01 0.01 0.0 0.0 0.0 0.01 0.0 0.0 0.0 0.01 0.01 0.0 0.0 0.0 0.01 0.0 0.0 0.0 0.01 0.01 0.0 0.0 0.0 0.01 0.0 0.0 0.0 0.01 0.01 0.0 0.0 0.0 0.01 0.0 0.0 0.0 0.01 0.01 0.0 0.0 0.0 0.01 0.0 0.0 0.0 0.01 0.01 0.0 0.0 0.0 0.01 0.0 0.0 0.0 0.01 0.01 0.0 0.0 0.0 0.01 0.0 0.0 0.0 0.01 0.01 0.0 0.0 0.0 0.01 0.0 0.0 0.0 0.01 0.01 0.0 0.0 0.0 0.01 0.0 0.0 0.0 0.01 0.01 0.0 0.0 0.0 0.01 0.0 0.0 0.0 0.01 0.01 0.0 0.0 0.0 0.01 0.0 0.0 0.0 0.01 0.01 0.0 0.0 0.0 0.01 0.0 0.0 0.0 0.01 0.01 0.0 0.0 0.0 0.01 0.0 0.0 0.0 0.01 0.01 0.0 0.0 0.0 0.01 0.0 0.0 0.0 0.01 0.01 0.0 0.0 0.0 0.01 0.0 0.0 0.0 0.01 0.01 0.0 0.0 0.0 0.01 0.0 0.0 0.0 0.01 0.01 0.0 0.0 0.0 0.01 0.0 0.0 0.0 0.01 0.01 0.0 0.0 0.0 0.01 0.0 0.0 0.0 0.01 0.01 0.0 0.0 0.0 0.01 0.0 0.0 0.0 0.01 0.01 0.0 0.0 0.0 0.01 0.0 0.0 0.0 0.01 0.01 0.0 0.0 0.0 0.01 0.0 0.0 0.0 0.01 0.01 0.0 0.0 0.0 0.01 0.0 0.0 0.0 0.01 0.01 0.0 0.0 0.0 0.01 0.0 0.0 0.0 0.01 0.01 0.0 0.0 0.0 0.01 0.0 0.0 0.0 0.01 0.01 0.0 0.0 0.0 0.01 0.0 0.0 0.0 0.01 0.01 0.0 0.0 0.0 0.01 0.0 0.0 0.0 0.01 0.01 0.0 0.0 0.0 0.01 0.0 0.0 0.0 0.01 0.01 0.0 0.0 0.0 0.01 0.0 0.0 0.0 0.01 0.01 0.0 0.0 0.0 0.01 0.0 0.0 0.0 0.01 0.01 0.0 0.0 0.0 0.01 0.0 0.0 0.0 0.01 0.01 0.0 0.0 0.0 0.01 0.0 0.0 0.0 0.01 0.01 0.0 0.0 0.0 0.01 0.0 0.0 0.0 0.01 0.01 0.0 0.0 0.0 0.01 0.0 0.0 0.0 0.01 0.01 0.0 0.0 0.0 0.01 0.0 0.0 0.0 0.01 0.01 0.0 0.0 0.0 0.01 0.0 0.0 0.0 0.01 0.01 0.0 0.0 0.0 0.01 0.0 0.0 0.0 0.01 0.01 0.0 0.0 0.0 0.01 0.0 0.0 0.0 0.01 0.01 0.0 0.0 0.0 0.01 0.0 0.0 0.0 0.01 0.01 0.0 0.0 0.0 0.01 0.0 0.0 0.0 0.01 0.01 0.0 0.0 0.0 0.01 0.0 0.0 0.0 0.01 0.01 0.0 0.0 0.0 0.01 0.0 0.0 0.0 0.01 0.01 0.0 0.0 0.0 0.01 0.0 0.0 0.0 0.01 0.01 0.0 0.0 0.0 0.01 0.0 0.0 0.0 0.01 0.01 0.0 0.0 0.0 0.01 0.0 0.0 0.0 0.01 0.01 0.0 0.0 0.0 0.01 0.0 0.0 0.0 0.01 0.01 0.0 0.0 0.0 0.01 0.0 0.0 0.0 0.01 0.01 0.0 0.0 0.0 0.01 0.0 0.0 0.0 0.01 0.01 0.0 0.0 0.0 0.01 0.0 0.0 0.0 0.01 0.01 0.0 0.0 0.0 0.01 0.0 0.0 0.0 0.01 0.01 0.0 0.0 0.0 0.01 0.0 0.0 0.0 0.01 0.01 0.0 0.0 0.0 0.01 0.0 0.0 0.0 0.01 0.01 0.0 0.0 0.0 0.01 0.0 0.0 0.0 0.01 0.01 0.0 0.0 0.0 0.01 0.0 0.0 0.0 0.01 0.01 0.0 0.0 0.0 0.01 0.0 0.0 0.0 0.01 0.01 0.0 0.0 0.0 0.01 0.0 0.0 0.0 0.01 0.01 0.0 0.0 0.0 0.01 0.0 0.0 0.0 0.01 0.01 0.0 0.0 0.0 0.01 0.0 0.0 0.0 0.01 0.01 0.0 0.0 0.0 0.01 0.0 0.0 0.0 0.01 0.01 0.0 0.0 0.0 0.01 0.0 0.0 0.0 0.01 0.01 0.0 0.0 0.0 0.01 0.0 0.0 0.0 0.01 0.01 0.0 0.0 0.0 0.01 0.0 0.0 0.0 0.01 0.01 0.0 0.0 0.0 0.01 0.0 0.0 0.0 0.01 0.01 0.0 0.0 0.0 0.01 0.0 0.0 0.0 0.01 0.01 0.0 0.0 0.0 0.01 0.0 0.0 0.0 0.01 0.01 0.0 0.0 0.0 0.01 0.0 0.0 0.0 0.01 0.01 0.0 0.0 0.0 0.01 0.0 0.0 0.0 0.01 0.01 0.0 0.0 0.0 0.01 0.0 0.0 0.0 0.01 0.01 0.0 0.0 0.0 0.01 0.0 0.0 0.0 0.01 0.01 0.0 0.0 0.0 0.01 0.0 0.0 0.0 0.01 0.01 0.0 0.0 0.0 0.01 0.0 0.0 0.0 0.01 0.01 0.0 0.0 0.0 0.01 0.0 0.0 0.0 0.01 0.01 0.0 0.0 0.0 0.01 0.0 0.0 0.0 0.01 0.01 0.0 0.0 0.0 0.01 0.0 0.0 0.0 0.01 0.01 0.0 0.0 0.0 0.01 0.0 0.0 0.0 0.01 0.01 0.0 0.0 0.0 0.01 0.0 0.0 0.0 0.01 0.01 0.0 0.0 0.0 0.01 0.0 0.0 0.0 0.01 0.01 0.0 0.0 0.0 0.01 0.0 0.0 0.0 0.01 0.01 0.0 0.0 0.0 0.01 0.0 0.0 0.0 0.01 0.01 0.0 0.0 0.0 0.01 0.0 0.0 0.0 0.01 0.01 0.0 0.0 0.0 0.01 0.0 0.0 0.0 0.01 0.01 0.0 0.0 0.0 0.01 0.0 0.0 0.0 0.01 0.01 0.0 0.0 0.0 0.01 0.0 0.0 0.0 0.01 0.01 0.0 0.0 0.0 0.01 0.0 0.0 0.0 0.01 0.01 0.0 0.0 0.0 0.01 0.0 0.0 0.0 0.01 0.01 0.0 0.0 0.0 0.01 0.0 0.0 0.0 0.01 0.01 0.0 0.0 0.0 0.01 0.0 0.0 0.0 0.01 0.01 0.0 0.0 0.0 0.01 0.0 0.0 0.0 0.01 0.01 0.0 0.0 0.0 0.01 0.0 0.0 0.0 0.01 0.01 0.0 0.0 0.0 0.01 0.0 0.0 0.0 0.01 0.01 0.0 0.0 0.0 0.01 0.0 0.0 0.0 0.01 0.01 0.0 0.0 0.0 0.01 0.0 0.0 0.0 0.01 0.01 0.0 0.0 0.0 0.01 0.0 0.0 0.0 0.01 0.01 0.0 0.0 0.0 0.01 0.0 0.0 0.0 0.01 0.01 0.0 0.0 0.0 0.01 0.0 0.0 0.0 0.01 0.01 0.0 0.0 0.0 0.01 0.0 0.0 0.0 0.01 0.01 0.0 0.0 0.0 0.01 0.0 0.0 0.0 0.01 0.01 0.0 0.0 0.0 0.01 0.0 0.0 0.0 0.01 0.01 0.0 0.0 0.0 0.01 0.0 0.0 0.0 0.01 0.01 0.0 0.0 0.0 0.01 0.0 0.0 0.0 0.01 0.01 0.0 0.0 0.0 0.01 0.0 0.0 0.0 0.01 0.01 0.0 0.0 0.0 0.01 0.0 0.0 0.0 0.01 0.01 0.0 0.0 0.0 0.01 0.0 0.0 0.0 0.01 0.01 0.0 0.0 0.0 0.01 0.0 0.0 0.0 0.01 0.01 0.0 0.0 0.0 0.01 0.0 0.0 0.0 0.01 0.01 0.0 0.0 0.0 0.01 0.0 0.0 0.0 0.01 0.01 0.0 0.0 0.0 0.01 0.0 0.0 0.0 0.01 0.01 0.0 0.0 0.0 0.01 0.0 0.0 0.0 0.01 0.01 0.0 0.0 0.0 0.01 0.0 0.0 0.0 0.01 0.01 0.0 0.0 0.0 0.01 0.0 0.0 0.0 0.01 0.01 0.0 0.0 0.0 0.01 0.0 0.0 0.0 0.01 0.01 0.0 0.0 0.0 0.01 0.0 0.0 0.0 0.01 0.01 0.0 0.0 0.0 0.01 0.0 0.0 0.0 0.01 0.01 0.0 0.0 0.0 0.01 0.0 0.0 0.0 0.01 0.01 0.0 0.0 0.0 0.01 0.0 0.0 0.0 0.01 0.01 0.0 0.0 0.0 0.01 0.0 0.0 0.0 0.01 0.01 0.0 0.0 0.0 0.01 0.0 0.0 0.0 0.01 0.01 0.0 0.0 0.0 0.01 0.0 0.0 0.0 0.01 0.01 0.0 0.0 0.0 0.01 0.0 0.0 0.0 0.01 0.01 0.0 0.0 0.0 0.01 0.0 0.0 0.0 0.01 0.01 0.0 0.0 0.0 0.01 0.0 0.0 0.0 0.01 0.01 0.0 0.0 0.0 0.01 0.0 0.0 0.0 0.01 0.01 0.0 0.0 0.0 0.01 0.0 0.0 0.0 0.01 0.01 0.0 0.0 0.0 0.01 0.0 0.0 0.0 0.01 0.01 0.0 0.0 0.0 0.01 0.0 0.0 0.0 0.01 0.01 0.0 0.0 0.0 0.01 0.0 0.0 0.0 0.01 0.01 0.0 0.0 0.0 0.01 0.0 0.0 0.0 0.01 0.01 0.0 0.0 0.0 0.01 0.0 0.0 0.0 0.01 0.01 0.0 0.0 0.0 0.01 0.0 0.0 0.0 0.01 0.01 0.0 0.0 0.0 0.01 0.0 0.0 0.0 0.01 0.01 0.0 0.0 0.0 0.01 0.0 0.0 0.0 0.01 0.01 0.0 0.0 0.0 0.01 0.0 0.0 0.0 0.01 0.01 0.0 0.0 0.0 0.01 0.0 0.0 0.0 0.01 0.01 0.0 0.0 0.0 0.01 0.0 0.0 0.0 0.01 0.01 0.0 0.0 0.0 0.01 0.0 0.0 0.0 0.01 0.01 0.0 0.0 0.0 0.01 0.0 0.0 0.0 0.01 0.01 0.0 0.0 0.0 0.01 0.0 0.0 0.0 0.01 0.01 0.0 0.0 0.0 0.01 0.0 0.0 0.0 0.01 0.01 0.0 0.0 0.0 0.01 0.0 0.0 0.0 0.01 0.01 0.0 0.0 0.0 0.01 0.0 0.0 0.0 0.01 0.01 0.0 0.0 0.0 0.01 0.0 0.0 0.0 0.01 0.01 0.0 0.0 0.0 0.01 0.0 0.0 0.0 0.01 0.01 0.0 0.0 0.0 0.01 0.0 0.0 0.0 0.01 0.01 0.0 0.0 0.0 0.01 0.0 0.0 0.0 0.01 0.01 0.0 0.0 0.0 0.01 0.0 0.0 0.0 0.01 0.01 0.0 0.0 0.0 0.01 0.0 0.0 0.0 0.01 0.01 0.0 0.0 0.0 0.01 0.0 0.0 0.0 0.01 0.01 0.0 0.0 0.0 0.01 0.0 0.0 0.0 0.01 0.01 0.0 0.0 0.0 0.01 0.0 0.0 0.0 0.01 0.01 0.0 0.0 0.0 0.01 0.0 0.0 0.0 0.01 0.01 0.0 0.0 0.0 0.01 0.0 0.0 0.0 0.01 0.01 0.0 0.0 0.0 0.01 0.0 0.0 0.0 0.01 0.01 0.0 0.0 0.0 0.01 0.0 0.0 0.0 0.01 0.01 0.0 0.0 0.0 0.01 0.0 0.0 0.0 0.01 0.01 0.0 0.0 0.0 0.01 0.0 0.0 0.0 0.01 0.01 0.0 0.0 0.0 0.01 0.0 0.0 0.0 0.01 0.01 0.0 0.0 0.0 0.01 0.0 0.0 0.0 0.01 0.01 0.0 0.0 0.0 0.01 0.0 0.0 0.0 0.01 0.01 0.0 0.0 0.0 0.01 0.0 0.0 0.0 0.01 0.01 0.0 0.0 0.0 0.01 0.0 0.0 0.0 0.01 0.01 0.0 0.0 0.0 0.01 0.0 0.0 0.0 0.01 0.01 0.0 0.0 0.0 0.01 0.0 0.0 0.0 0.01 0.01 0.0 0.0 0.0 0.01 0.0 0.0 0.0 0.01 0.01 0.0 0.0 0.0 0.01 0.0 0.0 0.0 0.01 0.01 0.0 0.0 0.0 0.01 0.0 0.0 0.0 0.01 0.01 0.0 0.0 0.0 0.01 0.0 0.0 0.0 0.01 0.01 0.0 0.0 0.0 0.01 0.0 0.0 0.0 0.01 0.01 0.0 0.0 0.0 0.01 0.0 0.0 0.0 0.01 0.01 0.0 0.0 0.0 0.01 0.0 0.0 0.0 0.01 0.01 0.0 0.0 0.0 0.01 0.0 0.0 0.0 0.01 0.01 0.0 0.0 0.0 0.01 0.0 0.0 0.0 0.01 0.01 0.0 0.0 0.0 0.01 0.0 0.0 0.0 0.01 0.01 0.0 0.0 0.0 0.01 0.0 0.0 0.0 0.01 0.01 0.0 0.0 0.0 0.01 0.0 0.0 0.0 0.01 0.01 0.0 0.0 0.0 0.01 0.0 0.0 0.0 0.01 0.01 0.0 0.0 0.0 0.01 0.0 0.0 0.0 0.01 0.01 0.0 0.0 0.0 0.01 0.0 0.0 0.0 0.01 0.01 0.0 0.0 0.0 0.01 0.0 0.0 0.0 0.01 0.01 0.0 0.0 0.0 0.01 0.0 0.0 0.0 0.01 0.01 0.0 0.0 0.0 0.01 0.0 0.0 0.0 0.01 0.01 0.0 0.0 0.0 0.01 0.0 0.0 0.0 0.01 0.01 0.0 0.0 0.0 0.01 0.0 0.0 0.0 0.01 0.01 0.0 0.0 0.0 0.01 0.0 0.0 0.0 0.01 0.01 0.0 0.0 0.0 0.01 0.0 0.0 0.0 0.01 0.01 0.0 0.0 0.0 0.01 0.0 0.0 0.0 0.01 0.01 0.0 0.0 0.0 0.01 0.0 0.0 0.0 0.01 0.01 0.0 0.0 0.0 0.01 0.0 0.0 0.0 0.01 0.01 0.0 0.0 0.0 0.01 0.0 0.0 0.0 0.01 0.01 0.0 0.0 0.0 0.01 0.0 0.0 0.0 0.01 0.01 0.0 0.0 0.0 0.01 0.0 0.0 0.0 0.01 0.01 0.0 0.0 0.0 0.01 0.0 0.0 0.0 0.01 0.01 0.0 0.0 0.0 0.01 0.0 0.0 0.0 0.01 0.01 0.0 0.0 0.0 0.01 0.0 0.0 0.0 0.01 0.01 0.0 0.0 0.0 0.01 0.0 0.0 0.0 0.01 0.01 0.0 0.0 0.0 0.01 0.0 0.0 0.0 0.01 0.01 0.0 0.0 0.0 0.01 0.0 0.0 0.0 0.01 0.01 0.0 0.0 0.0 0.01 0.0 0.0 0.0 0.01 0.01 0.0 0.0 0.0 0.01 0.0 0.0 0.0 0.01 0.01 0.0 0.0 0.0 0.01 0.0 0.0 0.0 0.01 0.01 0.0 0.0 0.0 0.01 0.0 0.0 0.0 0.01 0.01 0.0 0.0 0.0 0.01 0.0 0.0 0.0 0.01 0.01 0.0 0.0 0.0 0.01 0.0 0.0 0.0 0.01 0.01 0.0 0.0 0.0 0.01 0.0 0.0 0.0 0.01 0.01 0.0 0.0 0.0 0.01 0.0 0.0 0.0 0.01 0.01 0.0 0.0 0.0 0.01 0.0 0.0 0.0 0.01 0.01 0.0 0.0 0.0 0.01 0.0 0.0 0.0 0.01 0.01 0.0 0.0 0.0 0.01 0.0 0.0 0.0 0.01 0.01 0.0 0.0 0.0 0.01 0.0 0.0 0.0 0.01 0.01 0.0 0.0 0.0 0.01 0.0 0.0 0.0 0.01 0.01 0.0 0.0 0.0 0.01 0.0 0.0 0.0 0.01 0.01 0.0 0.0 0.0 0.01 0.0 0.0 0.0 0.01 0.01 0.0 0.0 0.0 0.01 0.0 0.0 0.0 0.01 0.01 0.0 0.0 0.0 0.01 0.0 0.0 0.0 0.01 0.01 0.0 0.0 0.0 0.01 0.0 0.0 0.0 0.01 0.01 0.0 0.0 0.0 0.01 0.0 0.0 0.0 0.01 0.01 0.0 0.0 0.0 0.01 0.0 0.0 0.0 0.01 0.01 0.0 0.0 0.0 0.01 0.0 0.0 0.0 0.01 0.01 0.0 0.0 0.0 0.01 0.0 0.0 0.0 0.01 0.01 0.0 0.0 0.0 0.01 0.0 0.0 0.0 0.01 0.01 0.0 0.0 0.0 0.01 0.0 0.0 0.0 0.01 0.01 0.0 0.0 0.0 0.01 0.0 0.0 0.0 0.01 0.01 0.0 0.0 0.0 0.01 0.0 0.0 0.0 0.01 0.01 0.0 0.0 0.0 0.01 0.0 0.0 0.0 0.01 0.01 0.0 0.0 0.0 0.01 0.0 0.0 0.0 0.01 0.01 0.0 0.0 0.0 0.01 0.0 0.0 0.0 0.01 0.01 0.0 0.0 0.0 0.01 0.0 0.0 0.0 0.01 0.01 0.0 0.0 0.0 0.01 0.0 0.0 0.0 0.01 0.01 0.0 0.0 0.0 0.01 0.0 0.0 0.0 0.01 0.01 0.0 0.0 0.0 0.01 0.0 0.0 0.0 0.01 0.01 0.0 0.0 0.0 0.01 0.0 0.0 0.0 0.01 0.01 0.0 0.0 0.0 0.01 0.0 0.0 0.0 0.01 0.01 0.0 0.0 0.0 0.01 0.0 0.0 0.0 0.01 0.01 0.0 0.0 0.0 0.01 0.0 0.0 0.0 0.01 0.01 0.0 0.0 0.0 0.01 0.0 0.0 0.0 0.01 0.01 0.0 0.0 0.0 0.01 0.0 0.0 0.0 0.01 0.01 0.0 0.0 0.0 0.01 0.0 0.0 0.0 0.01 0.01 0.0 0.0 0.0 0.01 0.0 0.0 0.0 0.01 0.01 0.0 0.0 0.0 0.01 0.0 0.0 0.0 0.01 0.01 0.0 0.0 0.0 0.01 0.0 0.0 0.0 0.01 0.01 0.0 0.0 0.0 0.01 0.0 0.0 0.0 0.01 0.01 0.0 0.0 0.0 0.01 0.0 0.0 0.0 0.01 0.01 0.0 0.0 0.0 0.01 0.0 0.0 0.0 0.01 0.01 0.0 0.0 0.0 0.01 0.0 0.0 0.0 0.01 0.01 0.0 0.0 0.0 0.01 0.0 0.0 0.0 0.01 0.01 0.0 0.0 0.0 0.01 0.0 0.0 0.0 0.01 0.01 0.0 0.0 0.0 0.01 0.0 0.0 0.0 0.01 0.01 0.0 0.0 0.0 0.01 0.0 0.0 0.0 0.01 0.01 0.0 0.0 0.0 0.01 0.0 0.0 0.0 0.01 0.01 0.0 0.0 0.0 0.01 0.0 0.0 0.0 0.01 0.01 0.0 0.0 0.0 0.01 0.0 0.0 0.0 0.01 0.01 0.0 0.0 0.0 0.01 0.0 0.0 0.0 0.01 0.01 0.0 0.0 0.0 0.01 0.0 0.0 0.0 0.01 0.01 0.0 0.0 0.0 0.01 0.0 0.0 0.0 0.01 0.01 0.0 0.0 0.0 0.01 0.0 0.0 0.0 0.01 0.01 0.0 0.0 0.0 0.01 0.0 0.0 0.0 0.01 0.01 0.0 0.0 0.0 0.01 0.0 0.0 0.0 0.01 0.01 0.0 0.0 0.0 0.01 0.0 0.0 0.0 0.01 0.01 0.0 0.0 0.0 0.01 0.0 0.0 0.0 0.01 0.01 0.0 0.0 0.0 0.01 0.0 0.0 0.0 0.01 0.01 0.0 0.0 0.0 0.01 0.0 0.0 0.0 0.01 0.01 0.0 0.0 0.0 0.01 0.0 0.0 0.0 0.01 0.01 0.0 0.0 0.0 0.01 0.0 0.0 0.0 0.01 0.01 0.0 0.0 0.0 0.01 0.0 0.0 0.0 0.01 0.01 0.0 0.0 0.0 0.01 0.0 0.0 0.0 0.01 0.01 0.0 0.0 0.0 0.01 0.0 0.0 0.0 0.01 0.01 0.0 0.0 0.0 0.01 0.0 0.0 0.0 0.01 0.01 0.0 0.0 0.0 0.01 0.0 0.0 0.0 0.01 0.01 0.0 0.0 0.0 0.01 0.0 0.0 0.0 0.01 0.01 0.0 0.0 0.0 0.01 0.0 0.0 0.0 0.01 0.01 0.0 0.0 0.0 0.01 0.0 0.0 0.0 0.01 0.01 0.0 0.0 0.0 0.01 0.0 0.0 0.0 0.01 0.01 0.0 0.0 0.0 0.01 0.0 0.0 0.0 0.01 0.01 0.0 0.0 0.0 0.01 0.0 0.0 0.0 0.01 0.01 0.0 0.0 0.0 0.01 0.0 0.0 0.0 0.01 0.01 0.0 0.0 0.0 0.01 0.0 0.0 0.0 0.01 0.01 0.0 0.0 0.0 0.01 0.0 0.0 0.0 0.01 0.01 0.0 0.0 0.0 0.01 0.0 0.0 0.0 0.01 0.01 0.0 0.0 0.0 0.01 0.0 0.0 0.0 0.01 0.01 0.0 0.0 0.0 0.01 0.0 0.0 0.0 0.01 0.01 0.0 0.0 0.0 0.01 0.0 0.0 0.0 0.01 0.01 0.0 0.0 0.0 0.01 0.0 0.0 0.0 0.01 0.01 0.0 0.0 0.0 0.01 0.0 0.0 0.0 0.01 0.01 0.0 0.0 0.0 0.01 0.0 0.0 0.0 0.01 0.01 0.0 0.0 0.0 0.01 0.0 0.0 0.0 0.01 0.01 0.0 0.0 0.0 0.01 0.0 0.0 0.0 0.01 0.01 0.0 0.0 0.0 0.01 0.0 0.0 0.0 0.01 0.01 0.0 0.0 0.0 0.01 0.0 0.0 0.0 0.01 0.01 0.0 0.0 0.0 0.01 0.0 0.0 0.0 0.01 0.01 0.0 0.0 0.0 0.01 0.0 0.0 0.0 0.01 0.01 0.0 0.0 0.0 0.01 0.0 0.0 0.0 0.01 0.01 0.0 0.0 0.0 0.01 0.0 0.0 0.0 0.01 0.01 0.0 0.0 0.0 0.01 0.0 0.0 0.0 0.01 0.01 0.0 0.0 0.0 0.01 0.0 0.0 0.0 0.01 0.01 0.0 0.0 0.0 0.01 0.0 0.0 0.0 0.01 0.01 0.0 0.0 0.0 0.01 0.0 0.0 0.0 0.01 0.01 0.0 0.0 0.0 0.01 0.0 0.0 0.0 0.01 0.01 0.0 0.0 0.0 0.01 0.0 0.0 0.0 0.01 0.01 0.0 0.0 0.0 0.01 0.0 0.0 0.0 0.01 0.01 0.0 0.0 0.0 0.01 0.0 0.0 0.0 0.01 0.01 0.0 0.0 0.0 0.01 0.0 0.0 0.0 0.01 0.01 0.0 0.0 0.0 0.01 0.0 0.0 0.0 0.01 0.01 0.0 0.0 0.0 0.01 0.0 0.0 0.0 0.01 0.01 0.0 0.0 0.0 0.01 0.0 0.0 0.0 0.01 0.01 0.0 0.0 0.0 0.01 0.0 0.0 0.0 0.01 0.01 0.0 0.0 0.0 0.01 0.0 0.0 0.0 0.01 0.01 0.0 0.0 0.0 0.01 0.0 0.0 0.0 0.01 0.01 0.0 0.0 0.0 0.01 0.0 0.0 0.0 0.01 0.01 0.0 0.0 0.0 0.01 0.0 0.0 0.0 0.01 0.01 0.0 0.0 0.0 0.01 0.0 0.0 0.0 0.01 0.01 0.0 0.0 0.0 0.01 0.0 0.0 0.0 0.01 0.01 0.0 0.0 0.0 0.01 0.0 0.0 0.0 0.01 0.01 0.0 0.0 0.0 0.01 0.0 0.0 0.0 0.01 0.01 0.0 0.0 0.0 0.01 0.0 0.0 0.0 0.01 0.01 0.0 0.0 0.0 0.01 0.0 0.0 0.0 0.01 0.01 0.0 0.0 0.0 0.01 0.0 0.0 0.0 0.01 0.01 0.0 0.0 0.0 0.01 0.0 0.0 0.0 0.01 0.01 0.0 0.0 0.0 0.01 0.0 0.0 0.0 0.01 0.01 0.0 0.0 0.0 0.01 0.0 0.0 0.0 0.01 0.01 0.0 0.0 0.0 0.01 0.0 0.0 0.0 0.01 0.01 0.0 0.0 0.0 0.01 0.0 0.0 0.0 0.01 0.01 0.0 0.0 0.0 0.01 0.0 0.0 0.0 0.01 0.01 0.0 0.0 0.0 0.01 0.0 0.0 0.0 0.01 0.01 0.0 0.0 0.0 0.01 0.0 0.0 0.0 0.01 0.01 0.0 0.0 0.0 0.01 0.0 0.0 0.0 0.01 0.01 0.0 0.0 0.0 0.01 0.0 0.0 0.0 0.01 0.01 0.0 0.0 0.0 0.01 0.0 0.0 0.0 0.01 0.01 0.0 0.0 0.0 0.01 0.0 0.0 0.0 0.01 0.01 0.0 0.0 0.0 0.01 0.0 0.0 0.0 0.01 0.01 0.0 0.0 0.0 0.01 0.0 0.0 0.0 0.01 0.01 0.0 0.0 0.0 0.01 0.0 0.0 0.0 0.01 0.01 0.0 0.0 0.0 0.01 0.0 0.0 0.0 0.01 0.01 0.0 0.0 0.0 0.01 0.0 0.0 0.0 0.01 0.01 0.0 0.0 0.0 0.01 0.0 0.0 0.0 0.01 0.01 0.0 0.0 0.0 0.01 0.0 0.0 0.0 0.01 0.01 0.0 0.0 0.0 0.01 0.0 0.0 0.0 0.01 0.01 0.0 0.0 0.0 0.01 0.0 0.0 0.0 0.01 0.01 0.0 0.0 0.0 0.01 0.0 0.0 0.0 0.01 0.01 0.0 0.0 0.0 0.01 0.0 0.0 0.0 0.01 0.01 0.0 0.0 0.0 0.01 0.0 0.0 0.0 0.01 0.01 0.0 0.0 0.0 0.01 0.0 0.0 0.0 0.01 0.01 0.0 0.0 0.0 0.01 0.0 0.0 0.0 0.01 0.01 0.0 0.0 0.0 0.01 0.0 0.0 0.0 0.01 0.01 0.0 0.0 0.0 0.01 0.0 0.0 0.0 0.01 0.01 0.0 0.0 0.0 0.01 0.0 0.0 0.0 0.01 0.01 0.0 0.0 0.0 0.01 0.0 0.0 0.0 0.01 0.01 0.0 0.0 0.0 0.01 0.0 0.0 0.0 0.01 0.01 0.0 0.0 0.0 0.01 0.0 0.0 0.0 0.01 0.01 0.0 0.0 0.0 0.01 0.0 0.0 0.0 0.01 0.01 0.0 0.0 0.0 0.01 0.0 0.0 0.0 0.01 0.01 0.0 0.0 0.0 0.01 0.0 0.0 0.0 0.01 0.01 0.0 0.0 0.0 0.01 0.0 0.0 0.0 0.01 0.01 0.0 0.0 0.0 0.01 0.0 0.0 0.0 0.01 0.01 0.0 0.0 0.0 0.01 0.0 0.0 0.0 0.01 0.01 0.0 0.0 0.0 0.01 0.0 0.0 0.0 0.01 0.01 0.0 0.0 0.0 0.01 0.0 0.0 0.0 0.01 0.01 0.0 0.0 0.0 0.01 0.0 0.0 0.0 0.01 0.01 0.0 0.0 0.0 0.01 0.0 0.0 0.0 0.01 0.01 0.0 0.0 0.0 0.01 0.0 0.0 0.0 0.01 0.01 0.0 0.0 0.0 0.01 0.0 0.0 0.0 0.01 0.01 0.0 0.0 0.0 0.01 0.0 0.0 0.0 0.01 0.01 0.0 0.0 0.0 0.01 0.0 0.0 0.0 0.01 0.01 0.0 0.0 0.0 0.01 0.0 0.0 0.0 0.01 0.01 0.0 0.0 0.0 0.01 0.0 0.0 0.0 0.01 0.01 0.0 0.0 0.0 0.01 0.0 0.0 0.0 0.01 0.01 0.0 0.0 0.0 0.01 0.0 0.0 0.0 0.01 0.01 0.0 0.0 0.0 0.01 0.0 0.0 0.0 0.01 0.01 0.0 0.0 0.0 0.01 0.0 0.0 0.0 0.01 0.01 0.0 0.0 0.0 0.01 0.0 0.0 0.0 0.01 0.01 0.0 0.0 0.0 0.01 0.0 0.0 0.0 0.01 0.01 0.0 0.0 0.0 0.01 0.0 0.0 0.0 0.01 0.01 0.0 0.0 0.0 0.01 0.0 0.0 0.0 0.01 0.01 0.0 0.0 0.0 0.01 0.0 0.0 0.0 0.01 0.01 0.0 0.0 0.0 0.01 0.0 0.0 0.0 0.01 0.01 0.0 0.0 0.0 0.01 0.0 0.0 0.0 0.01 0.01 0.0 0.0 0.0 0.01 0.0 0.0 0.0 0.01 0.01 0.0 0.0 0.0 0.01 0.0 0.0 0.0 0.01 0.01 0.0 0.0 0.0 0.01 0.0 0.0 0.0 0.01 0.01 0.0 0.0 0.0 0.01 0.0 0.0 0.0 0.01 0.01 0.0 0.0 0.0 0.01 0.0 0.0 0.0 0.01 0.01 0.0 0.0 0.0 0.01 0.0 0.0 0.0 0.01 0.01 0.0 0.0 0.0 0.01 0.0 0.0 0.0 0.01 0.01 0.0 0.0 0.0 0.01 0.0 0.0 0.0 0.01 0.01 0.0 0.0 0.0 0.01 0.0 0.0 0.0 0.01 0.01 0.0 0.0 0.0 0.01 0.0 0.0 0.0 0.01 0.01 0.0 0.0 0.0 0.01 0.0 0.0 0.0 0.01 0.01 0.0 0.0 0.0 0.01 0.0 0.0 0.0 0.01 0.01 0.0 0.0 0.0 0.01 0.0 0.0 0.0 0.01 0.01 0.0 0.0 0.0 0.01 0.0 0.0 0.0 0.01 0.01 0.0 0.0 0.0 0.01 0.0 0.0 0.0 0.01 0.01 0.0 0.0 0.0 0.01 0.0 0.0 0.0 0.01 0.01 0.0 0.0 0.0 0.01 0.0 0.0 0.0 0.01 0.01 0.0 0.0 0.0 0.01 0.0 0.0 0.0 0.01 0.01 0.0 0.0 0.0 0.01 0.0 0.0 0.0 0.01 0.01 0.0 0.0 0.0 0.01 0.0 0.0 0.0 0.01 0.01 0.0 0.0 0.0 0.01 0.0 0.0 0.0 0.01 0.01 0.0 0.0 0.0 0.01 0.0 0.0 0.0 0.01 0.01 0.0 0.0 0.0 0.01 0.0 0.0 0.0 0.01 0.01 0.0 0.0 0.0 0.01 0.0 0.0 0.0 0.01 0.01 0.0 0.0 0.0 0.01 0.0 0.0 0.0 0.01 0.01 0.0 0.0 0.0 0.01 0.0 0.0 0.0 0.01 0.01 0.0 0.0 0.0 0.01 0.0 0.0 0.0 0.01 0.01 0.0 0.0 0.0 0.01 0.0 0.0 0.0 0.01 0.01 0.0 0.0 0.0 0.01 0.0 0.0 0.0 0.01 0.01 0.0 0.0 0.0 0.01 0.0 0.0 0.0 0.01 0.01 0.0 0.0 0.0 0.01 0.0 0.0 0.0 0.01 0.01 0.0 0.0 0.0 0.01 0.0 0.0 0.0 0.01 0.01 0.0 0.0 0.0 0.01 0.0 0.0 0.0 0.01 0.01 0.0 0.0 0.0 0.01 0.0 0.0 0.0 0.01 0.01 0.0 0.0 0.0 0.01 0.0 0.0 0.0 0.01 0.01 0.0 0.0 0.0 0.01 0.0 0.0 0.0 0.01 0.01 0.0 0.0 0.0 0.01 0.0 0.0 0.0 0.01 0.01 0.0 0.0 0.0 0.01 0.0 0.0 0.0 0.01 0.01 0.0 0.0 0.0 0.01 0.0 0.0 0.0 0.01 0.01 0.0 0.0 0.0 0.01 0.0 0.0 0.0 0.01 0.01 0.0 0.0 0.0 0.01 0.0 0.0 0.0 0.01 0.01 0.0 0.0 0.0 0.01 0.0 0.0 0.0 0.01 0.01 0.0 0.0 0.0 0.01 0.0 0.0 0.0 0.01 0.01 0.0 0.0 0.0 0.01 0.0 0.0 0.0 0.01 0.01 0.0 0.0 0.0 0.01 0.0 0.0 0.0 0.01 0.01 0.0 0.0 0.0 0.01 0.0 0.0 0.0 0.01 0.01 0.0 0.0 0.0 0.01 0.0 0.0 0.0 0.01 0.01 0.0 0.0 0.0 0.01 0.0 0.0 0.0 0.01 0.01 0.0 0.0 0.0 0.01 0.0 0.0 0.0 0.01 0.01 0.0 0.0 0.0 0.01 0.0 0.0 0.0 0.01 0.01 0.0 0.0 0.0 0.01 0.0 0.0 0.0 0.01 0.01 0.0 0.0 0.0 0.01 0.0 0.0 0.0 0.01 0.01 0.0 0.0 0.0 0.01 0.0 0.0 0.0 0.01 0.01 0.0 0.0 0.0 0.01 0.0 0.0 0.0 0.01 0.01 0.0 0.0 0.0 0.01 0.0 0.0 0.0 0.01 0.01 0.0 0.0 0.0 0.01 0.0 0.0 0.0 0.01 0.01 0.0 0.0 0.0 0.01 0.0 0.0 0.0 0.01 0.01 0.0 0.0 0.0 0.01 0.0 0.0 0.0 0.01 0.01 0.0 0.0 0.0 0.01 0.0 0.0 0.0 0.01 0.01 0.0 0.0 0.0 0.01 0.0 0.0 0.0 0.01 0.01 0.0 0.0 0.0 0.01 0.0 0.0 0.0 0.01 0.01 0.0 0.0 0.0 0.01 0.0 0.0 0.0 0.01 0.01 0.0 0.0 0.0 0.01 0.0 0.0 0.0 0.01 0.01 0.0 0.0 0.0 0.01 0.0 0.0 0.0 0.01 0.01 0.0 0.0 0.0 0.01 0.0 0.0 0.0 0.01 0.01 0.0 0.0 0.0 0.01 0.0 0.0 0.0 0.01 0.01 0.0 0.0 0.0 0.01 0.0 0.0 0.0 0.01 0.01 0.0 0.0 0.0 0.01 0.0 0.0 0.0 0.01 0.01 0.0 0.0 0.0 0.01 0.0 0.0 0.0 0.01 0.01 0.0 0.0 0.0 0.01 0.0 0.0 0.0 0.01 0.01 0.0 0.0 0.0 0.01 0.0 0.0 0.0 0.01 0.01 0.0 0.0 0.0 0.01 0.0 0.0 0.0 0.01 0.01 0.0 0.0 0.0 0.01 0.0 0.0 0.0 0.01 0.01 0.0 0.0 0.0 0.01 0.0 0.0 0.0 0.01 0.01 0.0 0.0 0.0 0.01 0.0 0.0 0.0 0.01 0.01 0.0 0.0 0.0 0.01 0.0 0.0 0.0 0.01 0.01 0.0 0.0 0.0 0.01 0.0 0.0 0.0 0.01 0.01 0.0 0.0 0.0 0.01 0.0 0.0 0.0 0.01 0.01 0.0 0.0 0.0 0.01 0.0 0.0 0.0 0.01 0.01 0.0 0.0 0.0 0.01 0.0 0.0 0.0 0.01 0.01 0.0 0.0 0.0 0.01 0.0 0.0 0.0 0.01 0.01 0.0 0.0 0.0 0.01 0.0 0.0 0.0 0.01 0.01 0.0 0.0 0.0 0.01 0.0 0.0 0.0 0.01 0.01 0.0 0.0 0.0 0.01 0.0 0.0 0.0 0.01 0.01 0.0 0.0 0.0 0.01 0.0 0.0 0.0 0.01 0.01 0.0 0.0 0.0 0.01 0.0 0.0 0.0 0.01 0.01 0.0 0.0 0.0 0.01 0.0 0.0 0.0 0.01 0.01 0.0 0.0 0.0 0.01 0.0 0.0 0.0 0.01 0.01 0.0 0.0 0.0 0.01 0.0 0.0 0.0 0.01 0.01 0.0 0.0 0.0 0.01 0.0 0.0 0.0 0.01 0.01 0.0 0.0 0.0 0.01 0.0 0.0 0.0 0.01 0.01 0.0 0.0 0.0 0.01 0.0 0.0 0.0 0.01 0.01 0.0 0.0 0.0 0.01 0.0 0.0 0.0 0.01 0.01 0.0 0.0 0.0 0.01 0.0 0.0 0.0 0.01 0.01 0.0 0.0 0.0 0.01 0.0 0.0 0.0 0.01 0.01 0.0 0.0 0.0 0.01 0.0 0.0 0.0 0.01 0.01 0.0 0.0 0.0 0.01 0.0 0.0 0.0 0.01 0.01 0.0 0.0 0.0 0.01 0.0 0.0 0.0 0.01 0.01 0.0 0.0 0.0 0.01 0.0 0.0 0.0 0.01 0.01 0.0 0.0 0.0 0.01 0.0 0.0 0.0 0.01 0.01 0.0 0.0 0.0 0.01 0.0 0.0 0.0 0.01 0.01 0.0 0.0 0.0 0.01 0.0 0.0 0.0 0.01 0.01 0.0 0.0 0.0 0.01 0.0 0.0 0.0 0.01 0.01 0.0 0.0 0.0 0.01 0.0 0.0 0.0 0.01 0.01 0.0 0.0 0.0 0.01 0.0 0.0 0.0 0.01 0.01 0.0 0.0 0.0 0.01 0.0 0.0 0.0 0.01 0.01 0.0 0.0 0.0 0.01 0.0 0.0 0.0 0.01 0.01 0.0 0.0 0.0 0.01 0.0 0.0 0.0 0.01 0.01 0.0 0.0 0.0 0.01 0.0 0.0 0.0 0.01 0.01 0.0 0.0 0.0 0.01 0.0 0.0 0.0 0.01 0.01 0.0 0.0 0.0 0.01 0.0 0.0 0.0 0.01 0.01 0.0 0.0 0.0 0.01 0.0 0.0 0.0 0.01 0.01 0.0 0.0 0.0 0.01 0.0 0.0 0.0 0.01 0.01 0.0 0.0 0.0 0.01 0.0 0.0 0.0 0.01 0.01 0.0 0.0 0.0 0.01 0.0 0.0 0.0 0.01 0.01 0.0 0.0 0.0 0.01 0.0 0.0 0.0 0.01 0.01 0.0 0.0 0.0 0.01 0.0 0.0 0.0 0.01 0.01 0.0 0.0 0.0 0.01 0.0 0.0 0.0 0.01 0.01 0.0 0.0 0.0 0.01 0.0 0.0 0.0 0.01 0.01 0.0 0.0 0.0 0.01 0.0 0.0 0.0 0.01 0.01 0.0 0.0 0.0 0.01 0.0 0.0 0.0 0.01 0.01 0.0 0.0 0.0 0.01 0.0 0.0 0.0 0.01 0.01 0.0 0.0 0.0 0.01 0.0 0.0 0.0 0.01 0.01 0.0 0.0 0.0 0.01 0.0 0.0 0.0 0.01 0.01 0.0 0.0 0.0 0.01 0.0 0.0 0.0 0.01 0.01 0.0 0.0 0.0 0.01 0.0 0.0 0.0 0.01 0.01 0.0 0.0 0.0 0.01 0.0 0.0 0.0 0.01 0.01 0.0 0.0 0.0 0.01 0.0 0.0 0.0 0.01 0.01 0.0 0.0 0.0 0.01 0.0 0.0 0.0 0.01 0.01 0.0 0.0 0.0 0.01 0.0 0.0 0.0 0.01 0.01 0.0 0.0 0.0 0.01 0.0 0.0 0.0 0.01 0.01 0.0 0.0 0.0 0.01 0.0 0.0 0.0 0.01 0.01 0.0 0.0 0.0 0.01 0.0 0.0 0.0 0.01 0.01 0.0 0.0 0.0 0.01 0.0 0.0 0.0 0.01 0.01 0.0 0.0 0.0 0.01 0.0 0.0 0.0 0.01 0.01 0.0 0.0 0.0 0.01 0.0 0.0 0.0 0.01 0.01 0.0 0.0 0.0 0.01 0.0 0.0 0.0 0.01 0.01 0.0 0.0 0.0 0.01 0.0 0.0 0.0 0.01 0.01 0.0 0.0 0.0 0.01 0.0 0.0 0.0 0.01 0.01 0.0 0.0 0.0 0.01 0.0 0.0 0.0 0.01 0.01 0.0 0.0 0.0 0.01 0.0 0.0 0.0 0.01 0.01 0.0 0.0 0.0 0.01 0.0 0.0 0.0 0.01 0.01 0.0 0.0 0.0 0.01 0.0 0.0 0.0 0.01 0.01 0.0 0.0 0.0 0.01 0.0 0.0 0.0 0.01 0.01 0.0 0.0 0.0 0.01 0.0 0.0 0.0 0.01 0.01 0.0 0.0 0.0 0.01 0.0 0.0 0.0 0.01 0.01 0.0 0.0 0.0 0.01 0.0 0.0 0.0 0.01 0.01 0.0 0.0 0.0 0.01 0.0 0.0 0.0 0.01 0.01 0.0 0.0 0.0 0.01 0.0 0.0 0.0 0.01 0.01 0.0 0.0 0.0 0.01 0.0 0.0 0.0 0.01 0.01 0.0 0.0 0.0 0.01 0.0 0.0 0.0 0.01 0.01 0.0 0.0 0.0 0.01 0.0 0.0 0.0 0.01 0.01 0.0 0.0 0.0 0.01 0.0 0.0 0.0 0.01 0.01 0.0 0.0 0.0 0.01 0.0 0.0 0.0 0.01 0.01 0.0 0.0 0.0 0.01 0.0 0.0 0.0 0.01 0.01 0.0 0.0 0.0 0.01 0.0 0.0 0.0 0.01 0.01 0.0 0.0 0.0 0.01 0.0 0.0 0.0 0.01 0.01 0.0 0.0 0.0 0.01 0.0 0.0 0.0 0.01 0.01 0.0 0.0 0.0 0.01 0.0 0.0 0.0 0.01 0.01 0.0 0.0 0.0 0.01 0.0 0.0 0.0 0.01 0.01 0.0 0.0 0.0 0.01 0.0 0.0 0.0 0.01 0.01 0.0 0.0 0.0 0.01 0.0 0.0 0.0 0.01 0.01 0.0 0.0 0.0 0.01 0.0 0.0 0.0 0.01 0.01 0.0 0.0 0.0 0.01 0.0 0.0 0.0 0.01 0.01 0.0 0.0 0.0 0.01 0.0 0.0 0.0 0.01 0.01 0.0 0.0 0.0 0.01 0.0 0.0 0.0 0.01 0.01 0.0 0.0 0.0 0.01 0.0 0.0 0.0 0.01 0.01 0.0 0.0 0.0 0.01 0.0 0.0 0.0 0.01 0.01 0.0 0.0 0.0 0.01 0.0 0.0 0.0 0.01 0.01 0.0 0.0 0.0 0.01 0.0 0.0 0.0 0.01 0.01 0.0 0.0 0.0 0.01 0.0 0.0 0.0 0.01 0.01 0.0 0.0 0.0 0.01 0.0 0.0 0.0 0.01 0.01 0.0 0.0 0.0 0.01 0.0 0.0 0.0 0.01 0.01 0.0 0.0 0.0 0.01 0.0 0.0 0.0 0.01 0.01 0.0 0.0 0.0 0.01 0.0 0.0 0.0 0.01 0.01 0.0 0.0 0.0 0.01 0.0 0.0 0.0 0.01 0.01 0.0 0.0 0.0 0.01 0.0 0.0 0.0 0.01 0.01 0.0 0.0 0.0 0.01 0.0 0.0 0.0 0.01 0.01 0.0 0.0 0.0 0.01 0.0 0.0 0.0 0.01 0.01 0.0 0.0 0.0 0.01 0.0 0.0 0.0 0.01 0.01 0.0 0.0 0.0 0.01 0.0 0.0 0.0 0.01 0.01 0.0 0.0 0.0 0.01 0.0 0.0 0.0 0.01 0.01 0.0 0.0 0.0 0.01 0.0 0.0 0.0 0.01 0.01 0.0 0.0 0.0 0.01 0.0 0.0 0.0 0.01 0.01 0.0 0.0 0.0 0.01 0.0 0.0 0.0 0.01 0.01 0.0 0.0 0.0 0.01 0.0 0.0 0.0 0.01 0.01 0.0 0.0 0.0 0.01 0.0 0.0 0.0 0.01 0.01 0.0 0.0 0.0 0.01 0.0 0.0 0.0 0.01 0.01 0.0 0.0 0.0 0.01 0.0 0.0 0.0 0.01 0.01 0.0 0.0 0.0 0.01 0.0 0.0 0.0 0.01 0.01 0.0 0.0 0.0 0.01 0.0 0.0 0.0 0.01 0.01 0.0 0.0 0.0 0.01 0.0 0.0 0.0 0.01 0.01 0.0 0.0 0.0 0.01 0.0 0.0 0.0 0.01 0.01 0.0 0.0 0.0 0.01 0.0 0.0 0.0 0.01 0.01 0.0 0.0 0.0 0.01 0.0 0.0 0.0 0.01 0.01 0.0 0.0 0.0 0.01 0.0 0.0 0.0 0.01 0.01 0.0 0.0 0.0 0.01 0.0 0.0 0.0 0.01 0.01 0.0 0.0 0.0 0.01 0.0 0.0 0.0 0.01 0.01 0.0 0.0 0.0 0.01 0.0 0.0 0.0 0.01 0.01 0.0 0.0 0.0 0.01 0.0 0.0 0.0 0.01 0.01 0.0 0.0 0.0 0.01 0.0 0.0 0.0 0.01 0.01 0.0 0.0 0.0 0.01 0.0 0.0 0.0 0.01 0.01 0.0 0.0 0.0 0.01 0.0 0.0 0.0 0.01 0.01 0.0 0.0 0.0 0.01 0.0 0.0 0.0 0.01 0.01 0.0 0.0 0.0 0.01 0.0 0.0 0.0 0.01 0.01 0.0 0.0 0.0 0.01 0.0 0.0 0.0 0.01 0.01 0.0 0.0 0.0 0.01 0.0 0.0 0.0 0.01 0.01 0.0 0.0 0.0 0.01 0.0 0.0 0.0 0.01 0.01 0.0 0.0 0.0 0.01 0.0 0.0 0.0 0.01 0.01 0.0 0.0 0.0 0.01 0.0 0.0 0.0 0.01 0.01 0.0 0.0 0.0 0.01 0.0 0.0 0.0 0.01 0.01 0.0 0.0 0.0 0.01 0.0 0.0 0.0 0.01 0.01 0.0 0.0 0.0 0.01 0.0 0.0 0.0 0.01 0.01 0.0 0.0 0.0 0.01 0.0 0.0 0.0 0.01 0.01 0.0 0.0 0.0 0.01 0.0 0.0 0.0 0.01 0.01 0.0 0.0 0.0 0.01 0.0 0.0 0.0 0.01 0.01 0.0 0.0 0.0 0.01 0.0 0.0 0.0 0.01 0.01 0.0 0.0 0.0 0.01 0.0 0.0 0.0 0.01 0.01 0.0 0.0 0.0 0.01 0.0 0.0 0.0 0.01 0.01 0.0 0.0 0.0 0.01 0.0 0.0 0.0 0.01 0.01 0.0 0.0 0.0 0.01 0.0 0.0 0.0 0.01 0.01 0.0 0.0 0.0 0.01 0.0 0.0 0.0 0.01 0.01 0.0 0.0 0.0 0.01 0.0 0.0 0.0 0.01 0.01 0.0 0.0 0.0 0.01 0.0 0.0 0.0 0.01 0.01 0.0 0.0 0.0 0.01 0.0 0.0 0.0 0.01 0.01 0.0 0.0 0.0 0.01 0.0 0.0 0.0 0.01 0.01 0.0 0.0 0.0 0.01 0.0 0.0 0.0 0.01 0.01 0.0 0.0 0.0 0.01 0.0 0.0 0.0 0.01 0.01 0.0 0.0 0.0 0.01 0.0 0.0 0.0 0.01 0.01 0.0 0.0 0.0 0.01 0.0 0.0 0.0 0.01 0.01 0.0 0.0 0.0 0.01 0.0 0.0 0.0 0.01 0.01 0.0 0.0 0.0 0.01 0.0 0.0 0.0 0.01 0.01 0.0 0.0 0.0 0.01 0.0 0.0 0.0 0.01 0.01 0.0 0.0 0.0 0.01 0.0 0.0 0.0 0.01 0.01 0.0 0.0 0.0 0.01 0.0 0.0 0.0 0.01 0.01 0.0 0.0 0.0 0.01 0.0 0.0 0.0 0.01 0.01 0.0 0.0 0.0 0.01 0.0 0.0 0.0 0.01 0.01 0.0 0.0 0.0 0.01 0.0 0.0 0.0 0.01 0.01 0.0 0.0 0.0 0.01 0.0 0.0 0.0 0.01 0.01 0.0 0.0 0.0 0.01 0.0 0.0 0.0 0.01 0.01 0.0 0.0 0.0 0.01 0.0 0.0 0.0 0.01 0.01 0.0 0.0 0.0 0.01 0.0 0.0 0.0 0.01 0.01 0.0 0.0 0.0 0.01 0.0 0.0 0.0 0.01 0.01 0.0 0.0 0.0 0.01 0.0 0.0 0.0 0.01 0.01 0.0 0.0 0.0 0.01 0.0 0.0 0.0 0.01 0.01 0.0 0.0 0.0 0.01 0.0 0.0 0.0 0.01 0.01 0.0 0.0 0.0 0.01 0.0 0.0 0.0 0.01 0.01 0.0 0.0 0.0 0.01 0.0 0.0 0.0 0.01 0.01 0.0 0.0 0.0 0.01 0.0 0.0 0.0 0.01 0.01 0.0 0.0 0.0 0.01 0.0 0.0 0.0 0.01 0.01 0.0 0.0 0.0 0.01 0.0 0.0 0.0 0.01 0.01 0.0 0.0 0.0 0.01 0.0 0.0 0.0 0.01 0.01 0.0 0.0 0.0 0.01 0.0 0.0 0.0 0.01 0.01 0.0 0.0 0.0 0.01 0.0 0.0 0.0 0.01 0.01 0.0 0.0 0.0 0.01 0.0 0.0 0.0 0.01 0.01 0.0 0.0 0.0 0.01 0.0 0.0 0.0 0.01 0.01 0.0 0.0 0.0 0.01 0.0 0.0 0.0 0.01 0.01 0.0 0.0 0.0 0.01 0.0 0.0 0.0 0.01 0.01 0.0 0.0 0.0 0.01 0.0 0.0 0.0 0.01 0.01 0.0 0.0 0.0 0.01 0.0 0.0 0.0 0.01 0.01 0.0 0.0 0.0 0.01 0.0 0.0 0.0 0.01 0.01 0.0 0.0 0.0 0.01 0.0 0.0 0.0 0.01 0.01 0.0 0.0 0.0 0.01 0.0 0.0 0.0 0.01 0.01 0.0 0.0 0.0 0.01 0.0 0.0 0.0 0.01 0.01 0.0 0.0 0.0 0.01 0.0 0.0 0.0 0.01 0.01 0.0 0.0 0.0 0.01 0.0 0.0 0.0 0.01 0.01 0.0 0.0 0.0 0.01 0.0 0.0 0.0 0.01 0.01 0.0 0.0 0.0 0.01 0.0 0.0 0.0 0.01 0.01 0.0 0.0 0.0 0.01 0.0 0.0 0.0 0.01 0.01 0.0 0.0 0.0 0.01 0.0 0.0 0.0 0.01 0.01 0.0 0.0 0.0 0.01 0.0 0.0 0.0 0.01 0.01 0.0 0.0 0.0 0.01 0.0 0.0 0.0 0.01 0.01 0.0 0.0 0.0 0.01 0.0 0.0 0.0 0.01 0.01 0.0 0.0 0.0 0.01 0.0 0.0 0.0 0.01 0.01 0.0 0.0 0.0 0.01 0.0 0.0 0.0 0.01 0.01 0.0 0.0 0.0 0.01 0.0 0.0 0.0 0.01 0.01 0.0 0.0 0.0 0.01 0.0 0.0 0.0 0.01 0.01 0.0 0.0 0.0 0.01 0.0 0.0 0.0 0.01 0.01 0.0 0.0 0.0 0.01 0.0 0.0 0.0 0.01 0.01 0.0 0.0 0.0 0.01 0.0 0.0 0.0 0.01 0.01 0.0 0.0 0.0 0.01 0.0 0.0 0.0 0.01 0.01 0.0 0.0 0.0 0.01 0.0 0.0 0.0 0.01 0.01 0.0 0.0 0.0 0.01 0.0 0.0 0.0 0.01 0.01 0.0 0.0 0.0 0.01 0.0 0.0 0.0 0.01 0.01 0.0 0.0 0.0 0.01 0.0 0.0 0.0 0.01 0.01 0.0 0.0 0.0 0.01 0.0 0.0 0.0 0.01 0.01 0.0 0.0 0.0 0.01 0.0 0.0 0.0 0.01 0.01 0.0 0.0 0.0 0.01 0.0 0.0 0.0 0.01 0.01 0.0 0.0 0.0 0.01 0.0 0.0 0.0 0.01 0.01 0.0 0.0 0.0 0.01 0.0 0.0 0.0 0.01 0.01 0.0 0.0 0.0 0.01 0.0 0.0 0.0 0.01 0.01 0.0 0.0 0.0 0.01 0.0 0.0 0.0 0.01 0.01 0.0 0.0 0.0 0.01 0.0 0.0 0.0 0.01 0.01 0.0 0.0 0.0 0.01 0.0 0.0 0.0 0.01 0.01 0.0 0.0 0.0 0.01 0.0 0.0 0.0 0.01 0.01 0.0 0.0 0.0 0.01 0.0 0.0 0.0 0.01 0.01 0.0 0.0 0.0 0.01 0.0 0.0 0.0 0.01 0.01 0.0 0.0 0.0 0.01 0.0 0.0 0.0 0.01 0.01 0.0 0.0 0.0 0.01 0.0 0.0 0.0 0.01 0.01 0.0 0.0 0.0 0.01 0.0 0.0 0.0 0.01 0.01 0.0 0.0 0.0 0.01 0.0 0.0 0.0 0.01 0.01 0.0 0.0 0.0 0.01 0.0 0.0 0.0 0.01 0.01 0.0 0.0 0.0 0.01 0.0 0.0 0.0 0.01 0.01 0.0 0.0 0.0 0.01 0.0 0.0 0.0 0.01 0.01 0.0 0.0 0.0 0.01 0.0 0.0 0.0 0.01 0.01 0.0 0.0 0.0 0.01 0.0 0.0 0.0 0.01 0.01 0.0 0.0 0.0 0.01 0.0 0.0 0.0 0.01 0.01 0.0 0.0 0.0 0.01 0.0 0.0 0.0 0.01 0.01 0.0 0.0 0.0 0.01 0.0 0.0 0.0 0.01 0.01 0.0 0.0 0.0 0.01 0.0 0.0 0.0 0.01 0.01 0.0 0.0 0.0 0.01 0.0 0.0 0.0 0.01 0.01 0.0 0.0 0.0 0.01 0.0 0.0 0.0 0.01 0.01 0.0 0.0 0.0 0.01 0.0 0.0 0.0 0.01 0.01 0.0 0.0 0.0 0.01 0.0 0.0 0.0 0.01 0.01 0.0 0.0 0.0 0.01 0.0 0.0 0.0 0.01 0.01 0.0 0.0 0.0 0.01 0.0 0.0 0.0 0.01 0.01 0.0 0.0 0.0 0.01 0.0 0.0 0.0 0.01 0.01 0.0 0.0 0.0 0.01 0.0 0.0 0.0 0.01 0.01 0.0 0.0 0.0 0.01 0.0 0.0 0.0 0.01 0.01 0.0 0.0 0.0 0.01 0.0 0.0 0.0 0.01 0.01 0.0 0.0 0.0 0.01 0.0 0.0 0.0 0.01 0.01 0.0 0.0 0.0 0.01 0.0 0.0 0.0 0.01 0.01 0.0 0.0 0.0 0.01 0.0 0.0 0.0 0.01 0.01 0.0 0.0 0.0 0.01 0.0 0.0 0.0 0.01 0.01 0.0 0.0 0.0 0.01 0.0 0.0 0.0 0.01 0.01 0.0 0.0 0.0 0.01 0.0 0.0 0.0 0.01 0.01 0.0 0.0 0.0 0.01 0.0 0.0 0.0 0.01 0.01 0.0 0.0 0.0 0.01 0.0 0.0 0.0 0.01 0.01 0.0 0.0 0.0 0.01 0.0 0.0 0.0 0.01 0.01 0.0 0.0 0.0 0.01 0.0 0.0 0.0 0.01 0.01 0.0 0.0 0.0 0.01 0.0 0.0 0.0 0.01 0.01 0.0 0.0 0.0 0.01 0.0 0.0 0.0 0.01 0.01 0.0 0.0 0.0 0.01 0.0 0.0 0.0 0.01 0.01 0.0 0.0 0.0 0.01 0.0 0.0 0.0 0.01 0.01 0.0 0.0 0.0 0.01 0.0 0.0 0.0 0.01 0.01 0.0 0.0 0.0 0.01 0.0 0.0 0.0 0.01 0.01 0.0 0.0 0.0 0.01 0.0 0.0 0.0 0.01 0.01 0.0 0.0 0.0 0.01 0.0 0.0 0.0 0.01 0.01 0.0 0.0 0.0 0.01 0.0 0.0 0.0 0.01 0.01 0.0 0.0 0.0 0.01 0.0 0.0 0.0 0.01 0.01 0.0 0.0 0.0 0.01 0.0 0.0 0.0 0.01 0.01 0.0 0.0 0.0 0.01 0.0 0.0 0.0 0.01 0.01 0.0 0.0 0.0 0.01 0.0 0.0 0.0 0.01 0.01 0.0 0.0 0.0 0.01 0.0 0.0 0.0 0.01 0.01 0.0 0.0 0.0 0.01 0.0 0.0 0.0 0.01 0.01 0.0 0.0 0.0 0.01 0.0 0.0 0.0 0.01 0.01 0.0 0.0 0.0 0.01 0.0 0.0 0.0 0.01 0.01 0.0 0.0 0.0 0.01 0.0 0.0 0.0 0.01 0.01 0.0 0.0 0.0 0.01 0.0 0.0 0.0 0.01 0.01 0.0 0.0 0.0 0.01 0.0 0.0 0.0 0.01 0.01 0.0 0.0 0.0 0.01 0.0 0.0 0.0 0.01 0.01 0.0 0.0 0.0 0.01 0.0 0.0 0.0 0.01 0.01 0.0 0.0 0.0 0.01 0.0 0.0 0.0 0.01 0.01 0.0 0.0 0.0 0.01 0.0 0.0 0.0 0.01 0.01 0.0 0.0 0.0 0.01 0.0 0.0 0.0 0.01 0.01 0.0 0.0 0.0 0.01 0.0 0.0 0.0 0.01 0.01 0.0 0.0 0.0 0.01 0.0 0.0 0.0 0.01 0.01 0.0 0.0 0.0 0.01 0.0 0.0 0.0 0.01 0.01 0.0 0.0 0.0 0.01 0.0 0.0 0.0 0.01 0.01 0.0 0.0 0.0 0.01 0.0 0.0 0.0 0.01 0.01 0.0 0.0 0.0 0.01 0.0 0.0 0.0 0.01 0.01 0.0 0.0 0.0 0.01 0.0 0.0 0.0 0.01 0.01 0.0 0.0 0.0 0.01 0.0 0.0 0.0 0.01 0.01 0.0 0.0 0.0 0.01 0.0 0.0 0.0 0.01 0.01 0.0 0.0 0.0 0.01 0.0 0.0 0.0 0.01 0.01 0.0 0.0 0.0 0.01 0.0 0.0 0.0 0.01 0.01 0.0 0.0 0.0 0.01 0.0 0.0 0.0 0.01 0.01 0.0 0.0 0.0 0.01 0.0 0.0 0.0 0.01 0.01 0.0 0.0 0.0 0.01 0.0 0.0 0.0 0.01 0.01 0.0 0.0 0.0 0.01 0.0 0.0 0.0 0.01 0.01 0.0 0.0 0.0 0.01 0.0 0.0 0.0 0.01 0.01 0.0 0.0 0.0 0.01 0.0 0.0 0.0 0.01 0.01 0.0 0.0 0.0 0.01 0.0 0.0 0.0 0.01 0.01 0.0 0.0 0.0 0.01 0.0 0.0 0.0 0.01 0.01 0.0 0.0 0.0 0.01 0.0 0.0 0.0 0.01 0.01 0.0 0.0 0.0 0.01 0.0 0.0 0.0 0.01 0.01 0.0 0.0 0.0 0.01 0.0 0.0 0.0 0.01 0.01 0.0 0.0 0.0 0.01 0.0 0.0 0.0 0.01 0.01 0.0 0.0 0.0 0.01 0.0 0.0 0.0 0.01 0.01 0.0 0.0 0.0 0.01 0.0 0.0 0.0 0.01 0.01 0.0 0.0 0.0 0.01 0.0 0.0 0.0 0.01 0.01 0.0 0.0 0.0 0.01 0.0 0.0 0.0 0.01 0.01 0.0 0.0 0.0 0.01 0.0 0.0 0.0 0.01 0.01 0.0 0.0 0.0 0.01 0.0 0.0 0.0 0.01 0.01 0.0 0.0 0.0 0.01 0.0 0.0 0.0 0.01 0.01 0.0 0.0 0.0 0.01 0.0 0.0 0.0 0.01 0.01 0.0 0.0 0.0 0.01 0.0 0.0 0.0 0.01 0.01 0.0 0.0 0.0 0.01 0.0 0.0 0.0 0.01 0.01 0.0 0.0 0.0 0.01 0.0 0.0 0.0 0.01 0.01 0.0 0.0 0.0 0.01 0.0 0.0 0.0 0.01 0.01 0.0 0.0 0.0 0.01 0.0 0.0 0.0 0.01 0.01 0.0 0.0 0.0 0.01 0.0 0.0 0.0 0.01 0.01 0.0 0.0 0.0 0.01 0.0 0.0 0.0 0.01 0.01 0.0 0.0 0.0 0.01 0.0 0.0 0.0 0.01 0.01 0.0 0.0 0.0 0.01 0.0 0.0 0.0 0.01 0.01 0.0 0.0 0.0 0.01 0.0 0.0 0.0 0.01 0.01 0.0 0.0 0.0 0.01 0.0 0.0 0.0 0.01 0.01 0.0 0.0 0.0 0.01 0.0 0.0 0.0 0.01 0.01 0.0 0.0 0.0 0.01 0.0 0.0 0.0 0.01 0.01 0.0 0.0 0.0 0.01 0.0 0.0 0.0 0.01 0.01 0.0 0.0 0.0 0.01 0.0 0.0 0.0 0.01 0.01 0.0 0.0 0.0 0.01 0.0 0.0 0.0 0.01 0.01 0.0 0.0 0.0 0.01 0.0 0.0 0.0 0.01 0.01 0.0 0.0 0.0 0.01 0.0 0.0 0.0 0.01 0.01 0.0 0.0 0.0 0.01 0.0 0.0 0.0 0.01 0.01 0.0 0.0 0.0 0.01 0.0 0.0 0.0 0.01 0.01 0.0 0.0 0.0 0.01 0.0 0.0 0.0 0.01 0.01 0.0 0.0 0.0 0.01 0.0 0.0 0.0 0.01 0.01 0.0 0.0 0.0 0.01 0.0 0.0 0.0 0.01 0.01 0.0 0.0 0.0 0.01 0.0 0.0 0.0 0.01 0.01 0.0 0.0 0.0 0.01 0.0 0.0 0.0 0.01 0.01 0.0 0.0 0.0 0.01 0.0 0.0 0.0 0.01 0.01 0.0 0.0 0.0 0.01 0.0 0.0 0.0 0.01 0.01 0.0 0.0 0.0 0.01 0.0 0.0 0.0 0.01 0.01 0.0 0.0 0.0 0.01 0.0 0.0 0.0 0.01 0.01 0.0 0.0 0.0 0.01 0.0 0.0 0.0 0.01 0.01 0.0 0.0 0.0 0.01 0.0 0.0 0.0 0.01 0.01 0.0 0.0 0.0 0.01 0.0 0.0 0.0 0.01 0.01 0.0 0.0 0.0 0.01 0.0 0.0 0.0 0.01 0.01 0.0 0.0 0.0 0.01 0.0 0.0 0.0 0.01 0.01 0.0 0.0 0.0 0.01 0.0 0.0 0.0 0.01 0.01 0.0 0.0 0.0 0.01 0.0 0.0 0.0 0.01 0.01 0.0 0.0 0.0 0.01 0.0 0.0 0.0 0.01 0.01 0.0 0.0 0.0 0.01 0.0 0.0 0.0 0.01 0.01 0.0 0.0 0.0 0.01 0.0 0.0 0.0 0.01 0.01 0.0 0.0 0.0 0.01 0.0 0.0 0.0 0.01 0.01 0.0 0.0 0.0 0.01 0.0 0.0 0.0 0.01 0.01 0.0 0.0 0.0 0.01 0.0 0.0 0.0 0.01 0.01 0.0 0.0 0.0 0.01 0.0 0.0 0.0 0.01 0.01 0.0 0.0 0.0 0.01 0.0 0.0 0.0 0.01 0.01 0.0 0.0 0.0 0.01 0.0 0.0 0.0 0.01 0.01 0.0 0.0 0.0 0.01 0.0 0.0 0.0 0.01 0.01 0.0 0.0 0.0 0.01 0.0 0.0 0.0 0.01 0.01 0.0 0.0 0.0 0.01 0.0 0.0 0.0 0.01 0.01 0.0 0.0 0.0 0.01 0.0 0.0 0.0 0.01 0.01 0.0 0.0 0.0 0.01 0.0 0.0 0.0 0.01 0.01 0.0 0.0 0.0 0.01 0.0 0.0 0.0 0.01 0.01 0.0 0.0 0.0 0.01 0.0 0.0 0.0 0.01 0.01 0.0 0.0 0.0 0.01 0.0 0.0 0.0 0.01 0.01 0.0 0.0 0.0 0.01 0.0 0.0 0.0 0.01 0.01 0.0 0.0 0.0 0.01 0.0 0.0 0.0 0.01 0.01 0.0 0.0 0.0 0.01 0.0 0.0 0.0 0.01 0.01 0.0 0.0 0.0 0.01 0.0 0.0 0.0 0.01 0.01 0.0 0.0 0.0 0.01 0.0 0.0 0.0 0.01 0.01 0.0 0.0 0.0 0.01 0.0 0.0 0.0 0.01 0.01 0.0 0.0 0.0 0.01 0.0 0.0 0.0 0.01 0.01 0.0 0.0 0.0 0.01 0.0 0.0 0.0 0.01 0.01 0.0 0.0 0.0 0.01 0.0 0.0 0.0 0.01 0.01 0.0 0.0 0.0 0.01 0.0 0.0 0.0 0.01 0.01 0.0 0.0 0.0 0.01 0.0 0.0 0.0 0.01 0.01 0.0 0.0 0.0 0.01 0.0 0.0 0.0 0.01 0.01 0.0 0.0 0.0 0.01 0.0 0.0 0.0 0.01 0.01 0.0 0.0 0.0 0.01 0.0 0.0 0.0 0.01 0.01 0.0 0.0 0.0 0.01 0.0 0.0 0.0 0.01 0.01 0.0 0.0 0.0 0.01 0.0 0.0 0.0 0.01 0.01 0.0 0.0 0.0 0.01 0.0 0.0 0.0 0.01 0.01 0.0 0.0 0.0 0.01 0.0 0.0 0.0 0.01 0.01 0.0 0.0 0.0 0.01 0.0 0.0 0.0 0.01 0.01 0.0 0.0 0.0 0.01 0.0 0.0 0.0 0.01 0.01 0.0 0.0 0.0 0.01 0.0 0.0 0.0 0.01 0.01 0.0 0.0 0.0 0.01 0.0 0.0 0.0 0.01 0.01 0.0 0.0 0.0 0.01 0.0 0.0 0.0 0.01 0.01 0.0 0.0 0.0 0.01 0.0 0.0 0.0 0.01 0.01 0.0 0.0 0.0 0.01 0.0 0.0 0.0 0.01 0.01 0.0 0.0 0.0 0.01 0.0 0.0 0.0 0.01 0.01 0.0 0.0 0.0 0.01 0.0 0.0 0.0 0.01 0.01 0.0 0.0 0.0 0.01 0.0 0.0 0.0 0.01 0.01 0.0 0.0 0.0 0.01 0.0 0.0 0.0 0.01 0.01 0.0 0.0 0.0 0.01 0.0 0.0 0.0 0.01 0.01 0.0 0.0 0.0 0.01 0.0 0.0 0.0 0.01 0.01 0.0 0.0 0.0 0.01 0.0 0.0 0.0 0.01 0.01 0.0 0.0 0.0 0.01 0.0 0.0 0.0 0.01 0.01 0.0 0.0 0.0 0.01 0.0 0.0 0.0 0.01 0.01 0.0 0.0 0.0 0.01 0.0 0.0 0.0 0.01 0.01 0.0 0.0 0.0 0.01 0.0 0.0 0.0 0.01 0.01 0.0 0.0 0.0 0.01 0.0 0.0 0.0 0.01 0.01 0.0 0.0 0.0 0.01 0.0 0.0 0.0 0.01 0.01 0.0 0.0 0.0 0.01 0.0 0.0 0.0 0.01 0.01 0.0 0.0 0.0 0.01 0.0 0.0 0.0 0.01 0.01 0.0 0.0 0.0 0.01 0.0 0.0 0.0 0.01 0.01 0.0 0.0 0.0 0.01 0.0 0.0 0.0 0.01 0.01 0.0 0.0 0.0 0.01 0.0 0.0 0.0 0.01 0.01 0.0 0.0 0.0 0.01 0.0 0.0 0.0 0.01 0.01 0.0 0.0 0.0 0.01 0.0 0.0 0.0 0.01 0.01 0.0 0.0 0.0 0.01 0.0 0.0 0.0 0.01 0.01 0.0 0.0 0.0 0.01 0.0 0.0 0.0 0.01 0.01 0.0 0.0 0.0 0.01 0.0 0.0 0.0 0.01 0.01 0.0 0.0 0.0 0.01 0.0 0.0 0.0 0.01 0.01 0.0 0.0 0.0 0.01 0.0 0.0 0.0 0.01 0.01 0.0 0.0 0.0 0.01 0.0 0.0 0.0 0.01 0.01 0.0 0.0 0.0 0.01 0.0 0.0 0.0 0.01 0.01 0.0 0.0 0.0 0.01 0.0 0.0 0.0 0.01 0.01 0.0 0.0 0.0 0.01 0.0 0.0 0.0 0.01 0.01 0.0 0.0 0.0 0.01 0.0 0.0 0.0 0.01 0.01 0.0 0.0 0.0 0.01 0.0 0.0 0.0 0.01 0.01 0.0 0.0 0.0 0.01 0.0 0.0 0.0 0.01 0.01 0.0 0.0 0.0 0.01 0.0 0.0 0.0 0.01 0.01 0.0 0.0 0.0 0.01 0.0 0.0 0.0 0.01 0.01 0.0 0.0 0.0 0.01 0.0 0.0 0.0 0.01 0.01 0.0 0.0 0.0 0.01 0.0 0.0 0.0 0.01 0.01 0.0 0.0 0.0 0.01 0.0 0.0 0.0 0.01 0.01 0.0 0.0 0.0 0.01 0.0 0.0 0.0 0.01 0.01 0.0 0.0 0.0 0.01 0.0 0.0 0.0 0.01 0.00999982750446331 0.0 2.667438878468948e-14 0.0 0.01 0.0 2.667438878510307e-14 0.0 0.009999986500027336 0.00999978250709568 0.0 8.67652977084126e-15 0.0 0.01 0.0 8.67652977084126e-15 0.0 0.009999994500004536 0.00999974600967699 0.0 -2.1221747662322546e-16 0.0 0.01 0.0 -2.1221747662322546e-16 0.0 0.01000000195000057 0.009999717012012783 0.0 -2.428751091763405e-15 0.0 0.01 0.0 -2.428751091763405e-15 0.0 0.010000007800009127 0.009999696513816138 0.0 -1.715687310393534e-16 0.0 0.01 0.0 -1.715687310393534e-16 0.0 0.010000010750017335 0.009999841003792049 0.0 3.970003630024151e-14 0.0 0.01 0.0 3.97000363006551e-14 0.0 0.009999974500097536 0.009999784006998148 0.0 1.3841234249454617e-14 0.0 0.01 0.0 1.3841234249558015e-14 0.0 0.00999998300004335 0.009999731510813353 0.0 -9.497174530607208e-15 0.0 0.01 0.0 -9.497174530607208e-15 0.0 0.009999993000007349 0.009999687514647674 0.0 -1.8613234002374933e-14 0.0 0.01 0.0 -1.8613234002374933e-14 0.0 0.010000003400001733 0.009999653018060306 0.0 -1.4850857965408984e-14 0.0 0.01 0.0 -1.4850857965408984e-14 0.0 0.010000010750017335 0.009999628020756313 0.0 -7.847167994061926e-15 0.0 0.01 0.0 -7.847167994010228e-15 0.0 0.010000015600036504 0.00999980650561616 0.0 4.4850661789392617e-14 0.0 0.01 0.0 4.4850661788979026e-14 0.0 0.00999996850014884 0.009999740010139563 0.0 2.0980323607001962e-14 0.0 0.01 0.0 2.098032360710536e-14 0.0 0.00999997850006934 0.009999678015551764 0.0 -9.296213339330439e-15 0.0 0.01 0.0 -9.296213339330439e-15 0.0 0.0099999920000096 0.009999627020868056 0.0 -2.0553052671003045e-14 0.0 0.01 0.0 -2.0553052671003045e-14 0.0 0.010000004900003603 0.009999587525521682 0.0 -1.9773015023676095e-14 0.0 0.01 0.0 -1.9773015023572698e-14 0.0 0.010000014150030033 0.009999561528840233 0.0 -1.1368770565472903e-14 0.0 0.01 0.0 -1.1368770565421204e-14 0.0 0.010000019550057334 0.009999769008003841 0.0 1.991168256288329e-12 0.0 0.01 0.0 1.9911682563015638e-12 0.0 0.009999962000216599 0.009999690514367797 0.0 5.674524206809311e-13 0.0 0.01 0.0 5.674524206809311e-13 0.0 0.009999975500090033 0.009999618521829949 0.0 3.5417822567805687e-14 0.0 0.01 0.0 3.541782256821928e-14 0.0 0.009999991500010838 0.009999559529103901 0.0 8.231379073870416e-15 0.0 0.01 0.0 8.231379073818717e-15 0.0 0.010000006850007037 0.009999515535208194 0.0 -4.662146540101944e-15 0.0 0.01 0.0 -4.662146540101944e-15 0.0 0.010000017600046464 0.009999487539395073 0.0 -6.597979934920795e-15 0.0 0.01 0.0 -6.597979934920795e-15 0.0 0.010000024400089307 0.00999972001175946 0.0 2.0790422762347505e-10 0.0 0.01 0.0 2.0790422762347505e-10 0.0 0.009999957500270943 0.009999626520924038 0.0 1.1640447828817395e-10 0.0 0.01 0.0 1.1640447828732692e-10 0.0 0.00999997250011344 0.009999545031051396 0.0 4.03310370274914e-11 0.0 0.01 0.0 4.03310370274914e-11 0.0 0.009999992000009603 0.009999478540790792 0.0 4.398462439641697e-12 0.0 0.01 0.0 4.398462439641697e-12 0.0 0.010000008800011614 0.009999431548474245 0.0 3.8156503437141746e-14 0.0 0.01 0.0 3.8156503437141746e-14 0.0 0.01000002100006615 0.009999402053635253 0.0 1.1437141665411523e-14 0.0 0.01 0.0 1.1437141665411523e-14 0.0 0.010000026850108139 0.009999649518426999 0.0 1.892247532777236e-09 0.0 0.01 0.0 1.892247532777236e-09 0.0 0.009999952500338973 0.009999543031325182 0.0 1.1975724278178834e-09 0.0 0.01 0.0 1.1975724278144952e-09 0.0 0.009999969500139757 0.009999448045701442 0.0 5.516109650534942e-10 0.0 0.01 0.0 5.516109650518001e-10 0.0 0.00999999200000965 0.009999375558493952 0.0 1.5155764376065183e-10 0.0 0.01 0.0 1.5155764376065183e-10 0.0 0.010000011250018988 0.009999327067931729 0.0 1.6814491007694595e-11 0.0 0.01 0.0 1.6814491007747534e-11 0.0 0.010000023950086041 0.009999294574650762 0.0 4.4676100295357134e-14 0.0 0.01 0.0 4.4676100295357134e-14 0.0 0.010000030750141838 0.009999538032024224 0.0 8.20112496351653e-09 0.0 0.01 0.0 8.20112496357074e-09 0.0 0.009999947000431438 0.009999418050808395 0.0 5.6118230747174156e-09 0.0 0.01 0.0 5.6118230747174156e-09 0.0 0.009999968500153564 0.009999319569455356 0.0 2.8177571831337488e-09 0.0 0.01 0.0 2.8177571831337488e-09 0.0 0.00999999350000753 0.009999246085266828 0.0 9.76117797700209e-10 0.0 0.01 0.0 9.76117797698515e-10 0.0 0.010000014650032337 0.009999194597311481 0.0 1.9382701858746575e-10 0.0 0.01 0.0 1.9382701858746575e-10 0.0 0.010000028800124421 0.009999165604444015 0.0 1.3464854581629303e-11 0.0 0.01 0.0 1.3464854581576363e-11 0.0 0.010000036150196028 0.009999360061524775 0.0 2.4674924139957838e-08 0.0 0.01 0.0 2.4674924139903628e-08 0.0 0.009999940000631332 0.009999233588162149 0.0 1.7334059029079293e-08 0.0 0.01 0.0 1.73340590291064e-08 0.0 0.009999965000228825 0.009999140110936342 0.0 9.033588907770835e-09 0.0 0.01 0.0 9.033588907770835e-09 0.0 0.00999999500001599 0.009999074628464468 0.0 3.4098177700649427e-09 0.0 0.01 0.0 3.4098177700581664e-09 0.0 0.010000020000061744 0.009999031140821516 0.0 8.398336737385056e-10 0.0 0.01 0.0 8.398336737385056e-10 0.0 0.010000035650190746 0.009999006148180854 0.0 1.046824245484223e-10 0.0 0.01 0.0 1.046824245484223e-10 0.0 0.010000042500270943 0.009999086125799765 0.0 5.827866560745385e-08 0.0 0.01 0.0 5.827866560745385e-08 0.0 0.009999932001203115 0.009998970159355119 0.0 4.06151001782905e-08 0.0 0.01 0.0 4.061510017834471e-08 0.0 0.009999963500447307 0.009998900181534558 0.0 2.1265145505762733e-08 0.0 0.01 0.0 2.1265145505789838e-08 0.0 0.010000001000067989 0.00999885719594031 0.0 8.28012059828423e-09 0.0 0.01 0.0 8.280120598297782e-09 0.0 0.010000030750152123 0.009998828205998121 0.0 2.245668158512706e-09 0.0 0.01 0.0 2.245668158512706e-09 0.0 0.010000048350351419 0.009998813711125605 0.0 3.5671358394030414e-10 0.0 0.01 0.0 3.567135839398806e-10 0.0 0.010000053700432575 0.009998705753154901 0.0 1.110447456421004e-07 0.0 0.01 0.0 1.110447456421004e-07 0.0 0.009999917002883291 0.009998623785006799 0.0 7.568294226208399e-08 0.0 0.01 0.0 7.568294226219241e-08 0.0 0.009999962001075939 0.009998597795210788 0.0 3.905657272411638e-08 0.0 0.01 0.0 3.905657272417059e-08 0.0 0.010000011700249388 0.00999858979839137 0.0 1.5269002763158564e-08 0.0 0.01 0.0 1.5269002763172116e-08 0.0 0.010000050300414499 0.009998584300690228 0.0 4.3131215697344335e-09 0.0 0.01 0.0 4.313121569731045e-09 0.0 0.010000067850693342 0.009998585300263024 0.0 7.666967813382947e-10 0.0 0.01 0.0 7.666967813374476e-10 0.0 0.010000071800773383 0.009998255460854996 0.0 1.6801250169416748e-07 0.0 0.01 0.0 1.6801250169438432e-07 0.0 0.009999892005984768 0.00999822297568571 0.0 1.1255311130342355e-07 0.0 0.01 0.0 1.1255311130331513e-07 0.0 0.009999961502123013 0.009998248460778325 0.0 5.6988999277778583e-08 0.0 0.01 0.0 5.6988999277778583e-08 0.0 0.010000035150672604 0.009998277445254599 0.0 2.2075146595130872e-08 0.0 0.01 0.0 2.2075146595103767e-08 0.0 0.010000082051082958 0.009998297934658566 0.0 6.303659608186685e-09 0.0 0.01 0.0 6.303659608186685e-09 0.0 0.010000104001628391 0.009998314426269824 0.0 1.1727523303728466e-09 0.0 0.01 0.0 1.1727523303736937e-09 0.0 0.010000103501607072 0.009997834209983224 0.0 2.0296767891403184e-07 0.0 0.01 0.0 2.0296767891392342e-07 0.0 0.009999902507607059 0.00999782271395834 0.0 1.332696825071542e-07 0.0 0.01 0.0 1.3326968250737103e-07 0.0 0.00999998050272193 0.009997878176170786 0.0 6.627516255811256e-08 0.0 0.01 0.0 6.627516255805835e-08 0.0 0.01000007765156349 0.009997929143540238 0.0 2.5239117199037184e-08 0.0 0.01 0.0 2.5239117199023632e-08 0.0 0.010000138202960534 0.009997968119456238 0.0 7.135749422629929e-09 0.0 0.01 0.0 7.135749422636705e-09 0.0 0.010000157253716873 0.009997999100700223 0.0 1.3243926463351195e-09 0.0 0.01 0.0 1.3243926463351195e-09 0.0 0.010000148453305957 0.009997450980889692 0.0 1.9882375858844194e-07 0.0 0.01 0.0 1.9882375858833352e-07 0.0 0.010000112807840284 0.009997433990406162 0.0 1.2664226554991252e-07 0.0 0.01 0.0 1.2664226554991252e-07 0.0 0.010000093253710924 0.00999748794744434 0.0 6.140696613677298e-08 0.0 0.01 0.0 6.140696613677298e-08 0.0 0.010000167954797015 0.009997545404129695 0.0 2.2750989455824007e-08 0.0 0.01 0.0 2.2750989455824007e-08 0.0 0.010000222157480537 0.009997592869426504 0.0 6.2317844479103175e-09 0.0 0.01 0.0 6.2317844479103175e-09 0.0 0.010000232908142507 0.00999763384007213 0.0 1.0974697999361225e-09 0.0 0.01 0.0 1.0974697999352755e-09 0.0 0.010000213406831361 0.009997048810355747 0.0 1.5079684815704235e-07 0.0 0.01 0.0 1.5079684815704235e-07 0.0 0.01000042533054628 0.009997026328282017 0.0 9.474095339566087e-08 0.0 0.01 0.0 9.474095339566087e-08 0.0 0.010000309115679085 0.009997065292681906 0.0 4.4716798703714044e-08 0.0 0.01 0.0 4.4716798703768254e-08 0.0 0.010000314465132656 0.00999711574835419 0.0 1.5912768703013494e-08 0.0 0.01 0.0 1.591276870302027e-08 0.0 0.010000339367312734 0.009997164706292092 0.0 4.094292260851986e-09 0.0 0.01 0.0 4.094292260850292e-09 0.0 0.010000331566492236 0.009997215663311545 0.0 6.357861949518834e-10 0.0 0.01 0.0 6.357861949518834e-10 0.0 0.01000029591313423 0.00999657825821458 0.0 8.810969220776708e-08 0.0 0.01 0.0 8.810969220776708e-08 0.0 0.010000694423491713 0.009996557279115465 0.0 5.474692222576672e-08 0.0 0.01 0.0 5.4746922225739616e-08 0.0 0.010000547395392703 0.009996583751504478 0.0 2.497799437008413e-08 0.0 0.01 0.0 2.497799437008413e-08 0.0 0.010000490736214559 0.00999662670764364 0.0 8.331087986681782e-09 0.0 0.01 0.0 8.331087986678394e-09 0.0 0.010000479034429313 0.009996678155931157 0.0 1.9014988536449575e-09 0.0 0.01 0.0 1.9014988536458045e-09 0.0 0.010000446829947307 0.009996737097674803 0.0 2.2595581851931724e-10 0.0 0.01 0.0 2.2595581851931724e-10 0.0 0.010000392623121735 0.009996021375910089 0.0 3.9345386900114685e-08 0.0 0.01 0.0 3.934538690012824e-08 0.0 0.010000893670014915 0.009996006893094045 0.0 2.3737392165994306e-08 0.0 0.01 0.0 2.3737392165994306e-08 0.0 0.010000749584357631 0.009996025870327378 0.0 1.0138265039877798e-08 0.0 0.01 0.0 1.0138265039877798e-08 0.0 0.01000066606655621 0.009996066322292376 0.0 2.999466356732355e-09 0.0 0.01 0.0 2.999466356733202e-09 0.0 0.010000625558695004 0.0099961207584454 0.0 5.351887365749721e-10 0.0 0.01 0.0 5.351887365749721e-10 0.0 0.010000569848705471 0.00999618718174657 0.0 3.353835658906905e-11 0.0 0.01 0.0 3.353835658906905e-11 0.0 0.010000500537578172 0.009995365723492647 0.0 1.2408758310029184e-08 0.0 0.01 0.0 1.2408758310029184e-08 0.0 0.010001046064137742 0.009995362228342257 0.0 6.894510645909718e-09 0.0 0.01 0.0 6.894510645911412e-09 0.0 0.010000914175349339 0.009995383199197705 0.0 2.570445098119478e-09 0.0 0.01 0.0 2.570445098119478e-09 0.0 0.010000826752517648 0.00999542464200187 0.0 5.789061137359557e-10 0.0 0.01 0.0 5.789061137359557e-10 0.0 0.010000773039629353 0.00999548406089887 0.0 5.321981692625389e-11 0.0 0.01 0.0 5.3219816926240656e-11 0.0 0.01000070417437225 0.009995560957515135 0.0 -6.081903652981196e-13 0.0 0.01 0.0 -6.081903652985332e-13 0.0 0.010000618707415096 0.00999461485309712 0.0 1.959484295648519e-09 0.0 0.01 0.0 1.959484295648519e-09 0.0 0.010001182809823348 0.009994622840188847 0.0 9.095065957706101e-10 0.0 0.01 0.0 9.095065957708218e-10 0.0 0.010001059718426799 0.009994646302382752 0.0 2.2750220383094863e-10 0.0 0.01 0.0 2.2750220383100157e-10 0.0 0.010000978643642772 0.009994692228857818 0.0 1.1085131333450953e-11 0.0 0.01 0.0 1.1085131333450953e-11 0.0 0.010000921527366258 0.009994759122899806 0.0 -3.3100560655918483e-12 0.0 0.01 0.0 -3.3100560655918483e-12 0.0 0.010000844857055456 0.009994847484999214 0.0 -5.365665708120347e-13 0.0 0.01 0.0 -5.365665708121381e-13 0.0 0.010000750084385552 0.009993764337376325 0.0 1.6529449052486088e-12 0.0 0.01 0.0 1.6529449052486088e-12 0.0 0.010001328364636021 0.00999377431869595 0.0 -3.1508329414625614e-11 0.0 0.01 0.0 -3.1508329414619e-11 0.0 0.010001212620531625 0.009993803264691998 0.0 -2.572399861131701e-11 0.0 0.01 0.0 -2.572399861131701e-11 0.0 0.010001140345028367 0.009993851674937106 0.0 -1.1871885173261564e-11 0.0 0.01 0.0 -1.1871885173268181e-11 0.0 0.01000108417629025 0.009993928533884732 0.0 -3.565077142941555e-12 0.0 0.01 0.0 -3.565077142941555e-12 0.0 0.010000998199440433 0.009994029850661492 0.0 -4.836143917030169e-13 0.0 0.01 0.0 -4.836143917028101e-13 0.0 0.010000888318352408 0.009992779328251319 0.0 -3.714947924884616e-11 0.0 0.01 0.0 -3.7149479248852775e-11 0.0 0.010001504239342335 0.009992790304458389 0.0 -4.7424821261311254e-11 0.0 0.01 0.0 -4.7424821261311254e-11 0.0 0.010001390439944732 0.009992822734372395 0.0 -3.2010017742871707e-11 0.0 0.01 0.0 -3.2010017742871707e-11 0.0 0.010001323012508011 0.009992883104745573 0.0 -1.4224638218713668e-11 0.0 0.01 0.0 -1.4224638218713668e-11 0.0 0.010001264389761802 0.009992974909724133 0.0 -3.997854201331109e-12 0.0 0.01 0.0 -3.997854201331109e-12 0.0 0.010001166203973042 0.009993097652941806 0.0 -4.587026674393228e-13 0.0 0.01 0.0 -4.587026674392194e-13 0.0 0.01000104116258036 0.009991622040304642 0.0 -4.77085839507022e-11 0.0 0.01 0.0 -4.770858395070882e-11 0.0 0.010001724095773459 0.009991642987633581 0.0 -6.115685275457519e-11 0.0 0.01 0.0 -6.115685275458842e-11 0.0 0.010001603885784941 0.00999168687770237 0.0 -4.0557800330807554e-11 0.0 0.01 0.0 -4.0557800330807554e-11 0.0 0.010001532102028584 0.009991766679309278 0.0 -1.745509696274225e-11 0.0 0.01 0.0 -1.7455096962738942e-11 0.0 0.010001466122364204 0.009991882893819082 0.0 -4.604180636877552e-12 0.0 0.01 0.0 -4.604180636875898e-12 0.0 0.010001351323862085 0.009992037021462636 0.0 -4.3894830593196187e-13 0.0 0.01 0.0 -4.3894830593196187e-13 0.0 0.010001203817341545 0.00999026323916102 0.0 -5.904557280730628e-11 0.0 0.01 0.0 -5.904557280730628e-11 0.0 0.010001986441735887 0.009990302624125614 0.0 -7.861494283869949e-11 0.0 0.01 0.0 -7.861494283869949e-11 0.0 0.010001853064950224 0.009990375412754451 0.0 -5.187638913831756e-11 0.0 0.01 0.0 -5.1876389138324175e-11 0.0 0.010001767568534358 0.009990485595829135 0.0 -2.1868861461246333e-11 0.0 0.01 0.0 -2.1868861461243024e-11 0.0 0.010001686476534554 0.009990642650404497 0.0 -5.543786331830032e-12 0.0 0.01 0.0 -5.543786331830032e-12 0.0 0.010001550660607691 0.009990835613308772 0.0 -4.834009502292404e-13 0.0 0.01 0.0 -4.834009502292404e-13 0.0 0.01000138063587069 0.00998867875465158 0.0 -6.872650878472361e-11 0.0 0.01 0.0 -6.872650878472361e-11 0.0 0.010002301594356715 0.00998875499599593 0.0 -1.0033413804154324e-10 0.0 0.01 0.0 -1.0033413804154324e-10 0.0 0.010002141287570565 0.009988870108784378 0.0 -6.707497699409939e-11 0.0 0.01 0.0 -6.707497699409939e-11 0.0 0.010002025515240641 0.009989032070744891 0.0 -2.8270911538528298e-11 0.0 0.01 0.0 -2.8270911538531607e-11 0.0 0.010001921953944087 0.009989241885489946 0.0 -7.2249093103365674e-12 0.0 0.01 0.0 -7.22490931033574e-12 0.0 0.010001762165674766 0.009989493082526018 0.0 -7.235078436696958e-13 0.0 0.01 0.0 -7.235078436696958e-13 0.0 0.010001563366540837 0.009986862932799342 0.0 -7.394397170484443e-11 0.0 0.01 0.0 -7.394397170483781e-11 0.0 0.01000266661624722 0.009986995411954695 0.0 -1.2798840988694161e-10 0.0 0.01 0.0 -1.2798840988692838e-10 0.0 0.010002454003024156 0.009987174715448409 0.0 -8.868282931894678e-11 0.0 0.01 0.0 -8.868282931894678e-11 0.0 0.010002288385266466 0.009987409318769817 0.0 -3.850323207125316e-11 0.0 0.01 0.0 -3.850323207125316e-11 0.0 0.010002161850837838 0.009987692757572986 0.0 -1.0611468615396394e-11 0.0 0.01 0.0 -1.0611468615397221e-11 0.0 0.010001979087363024 0.009988016076635802 0.0 -1.5221679019287131e-12 0.0 0.01 0.0 -1.52216790192892e-12 0.0 0.010001754361559706 0.00998484054118666 0.0 -7.231685408889423e-11 0.0 0.01 0.0 -7.231685408888761e-11 0.0 0.010003072215196217 0.00998505656281142 0.0 -1.659366306086664e-10 0.0 0.01 0.0 -1.6593663060867964e-10 0.0 0.010002768749471692 0.00998532685846135 0.0 -1.2199380523399596e-10 0.0 0.01 0.0 -1.219938052340092e-10 0.0 0.010002535163732508 0.009985655424167177 0.0 -5.6145362342060644e-11 0.0 0.01 0.0 -5.6145362342054027e-11 0.0 0.010002400764273705 0.0099860338127366 0.0 -1.758830290048071e-11 0.0 0.01 0.0 -1.758830290048071e-11 0.0 0.010002202877686777 0.009986443118273035 0.0 -3.827273747673302e-12 0.0 0.01 0.0 -3.827273747672888e-12 0.0 0.010001955673549296 0.009982719396319359 0.0 -6.456966806858941e-11 0.0 0.01 0.0 -6.456966806858941e-11 0.0 0.010003491077292514 0.009983040740236253 0.0 -2.2437580933361477e-10 0.0 0.01 0.0 -2.24375809333628e-10 0.0 0.010003051696359424 0.009983424304326834 0.0 -1.778119317851376e-10 0.0 0.01 0.0 -1.7781193178515083e-10 0.0 0.010002748182461062 0.00998386513426267 0.0 -8.80463642021795e-11 0.0 0.01 0.0 -8.80463642021795e-11 0.0 0.010002638243682324 0.009984352801990549 0.0 -3.151486150974334e-11 0.0 0.01 0.0 -3.151486150974665e-11 0.0 0.010002442794795516 0.009984857464033584 0.0 -9.371503266618546e-12 0.0 0.01 0.0 -9.371503266618546e-12 0.0 0.01000218091324998 0.009980695046424794 0.0 -5.898295085065046e-11 0.0 0.01 0.0 -5.898295085065046e-11 0.0 0.01000388701515903 0.009981136509254146 0.0 -3.2476821168920703e-10 0.0 0.01 0.0 -3.247682116892335e-10 0.0 0.010003270653877088 0.009981646153491468 0.0 -2.784531580609799e-10 0.0 0.01 0.0 -2.7845315806092695e-10 0.0 0.01000293344025611 0.009982206603663663 0.0 -1.4790984721093982e-10 0.0 0.01 0.0 -1.4790984721093982e-10 0.0 0.010002906516684996 0.009982802962649532 0.0 -5.82395374151243e-11 0.0 0.01 0.0 -5.82395374151243e-11 0.0 0.010002734521232145 0.009983400423559809 0.0 -2.019554300858656e-11 0.0 0.01 0.0 -2.0195543008584905e-11 0.0 0.010002468213511053 0.009979087781518594 0.0 -7.295306789388449e-11 0.0 0.01 0.0 -7.29530678938878e-11 0.0 0.010004216064782297 0.00997963935263744 0.0 -5.051175203210281e-10 0.0 0.01 0.0 -5.051175203210281e-10 0.0 0.010003411895360508 0.009980260600789393 0.0 -4.663918189983152e-10 0.0 0.01 0.0 -4.663918189983417e-10 0.0 0.010003134773404823 0.009980927701966345 0.0 -2.6296222164740097e-10 0.0 0.01 0.0 -2.6296222164736127e-10 0.0 0.01000327260579161 0.009981612837776073 0.0 -1.0852177332337324e-10 0.0 0.01 0.0 -1.0852177332337986e-10 0.0 0.010003152390008123 0.009982284686290494 0.0 -3.78667749669014e-11 0.0 0.01 0.0 -3.7866774966898093e-11 0.0 0.01000287869255369 0.009978323683654759 0.0 -1.315496744358189e-10 0.0 0.01 0.0 -1.315496744358189e-10 0.0 0.010004465389175298 0.00997894518296495 0.0 -8.210137614363491e-10 0.0 0.01 0.0 -8.210137614362962e-10 0.0 0.010003534122621071 0.009979632395315139 0.0 -8.096875333676949e-10 0.0 0.01 0.0 -8.096875333676949e-10 0.0 0.010003448082571559 0.009980351561255263 0.0 -4.791483457160422e-10 0.0 0.01 0.0 -4.791483457160157e-10 0.0 0.010003833252948294 0.009981079334527198 0.0 -2.0095506604453383e-10 0.0 0.01 0.0 -2.0095506604453383e-10 0.0 0.01000378634938111 0.009981778922417169 0.0 -6.308538999634508e-11 0.0 0.01 0.0 -6.308538999634508e-11 0.0 0.010003501838572534 0.009978960088450926 0.0 -2.701005016560775e-10 0.0 0.01 0.0 -2.7010050165609074e-10 0.0 0.010004724546092459 0.00997956481065531 0.0 -1.3515012829456791e-09 0.0 0.01 0.0 -1.3515012829456791e-09 0.0 0.010003798563267035 0.009980222825589373 0.0 -1.4040570143177144e-09 0.0 0.01 0.0 -1.4040570143178203e-09 0.0 0.010004017569834111 0.009980899861984874 0.0 -8.603325319482936e-10 0.0 0.01 0.0 -8.603325319483995e-10 0.0 0.010004693752630196 0.009981577533426829 0.0 -3.6128192988208616e-10 0.0 0.01 0.0 -3.612819298820597e-10 0.0 0.010004736262704046 0.00998223047586466 0.0 -9.691703584973725e-11 0.0 0.01 0.0 -9.691703584974386e-11 0.0 0.010004432645511015 0.009981641180975484 0.0 -5.252265398773458e-10 0.0 0.01 0.0 -5.252265398773193e-10 0.0 0.010005277625060935 0.009982105646041418 0.0 -2.1878080695799296e-09 0.0 0.01 0.0 -2.187808069579718e-09 0.0 0.010004531378149073 0.009982599522094363 0.0 -2.3546797946863083e-09 0.0 0.01 0.0 -2.3546797946863083e-09 0.0 0.010005007158236693 0.009983101430961601 0.0 -1.4809476501904625e-09 0.0 0.01 0.0 -1.4809476501903566e-09 0.0 0.010005916847222684 0.009983604410631402 0.0 -6.224555602345529e-10 0.0 0.01 0.0 -6.224555602345529e-10 0.0 0.010006050887558593 0.009984105475855088 0.0 -1.4291170053572518e-10 0.0 0.01 0.0 -1.4291170053572518e-10 0.0 0.010005731473705773 0.009986971007503731 0.0 -8.85982338723274e-10 0.0 0.01 0.0 -8.859823387233799e-10 0.0 0.010006732392668976 0.009987161267353016 0.0 -3.2983375875304666e-09 0.0 0.01 0.0 -3.2983375875306783e-09 0.0 0.010006259772813067 0.009987356021024548 0.0 -3.6419967636111464e-09 0.0 0.01 0.0 -3.641996763611358e-09 0.0 0.010006604186537846 0.009987544808474413 0.0 -2.367517634203194e-09 0.0 0.01 0.0 -2.367517634202982e-09 0.0 0.01000750113161375 0.009987740082747052 0.0 -1.015837947176731e-09 0.0 0.01 0.0 -1.0158379471766252e-09 0.0 0.010007708604234557 0.009987967751143747 0.0 -2.1832960309570182e-10 0.0 0.01 0.0 -2.1832960309570182e-10 0.0 0.010007397851140293 0.009995268859672796 0.0 -1.199754395974501e-09 0.0 0.01 0.0 -1.199754395974501e-09 0.0 0.010009700145692009 0.009995075639791014 0.0 -4.3002116685285125e-09 0.0 0.01 0.0 -4.3002116685285125e-09 0.0 0.010009397029049549 0.009994865457242113 0.0 -4.953794973347847e-09 0.0 0.01 0.0 -4.9537949733482705e-09 0.0 0.010009307879387159 0.009994641809611092 0.0 -3.3680676697274966e-09 0.0 0.01 0.0 -3.368067669727073e-09 0.0 0.010009518472973633 0.009994437145248582 0.0 -1.5215231690315082e-09 0.0 0.01 0.0 -1.5215231690315082e-09 0.0 0.010009618860594377 0.009994293388531602 0.0 -3.5395683659342857e-10 0.0 0.01 0.0 -3.53956836593508e-10 0.0 0.010009346086090365 0.010006245095314968 0.0 -1.0767493599694345e-09 0.0 0.01 0.0 -1.0767493599694345e-09 0.0 0.010013616611408222 0.010005627797255973 0.0 -4.52001028599906e-09 0.0 0.01 0.0 -4.52001028599906e-09 0.0 0.010013248431713835 0.010004978815829034 0.0 -5.665704866963531e-09 0.0 0.01 0.0 -5.665704866964378e-09 0.0 0.010012989615758704 0.010004316743535817 0.0 -4.108517306808855e-09 0.0 0.01 0.0 -4.108517306808008e-09 0.0 0.010012094154963676 0.010003686137140401 0.0 -2.001038694065889e-09 0.0 0.01 0.0 -2.001038694065889e-09 0.0 0.01001171535532163 0.010003147485376299 0.0 -5.541037079643211e-10 0.0 0.01 0.0 -5.541037079643211e-10 0.0 0.010011418477511596 0.010018722348000185 0.0 -3.532942800867015e-10 0.0 0.01 0.0 -3.532942800867015e-10 0.0 0.010016687176537758 0.010017762061800653 0.0 -3.4693191658967317e-09 0.0 0.01 0.0 -3.46931916590012e-09 0.0 0.010016114065953688 0.010016739688962918 0.0 -5.177409831424746e-09 0.0 0.01 0.0 -5.1774098314382984e-09 0.0 0.010016163102606286 0.010015714715380934 0.0 -4.118677351693564e-09 0.0 0.01 0.0 -4.118677351693564e-09 0.0 0.010014693923374783 0.010014735606841494 0.0 -2.1955025100829715e-09 0.0 0.01 0.0 -2.1955025100897478e-09 0.0 0.010013766174046658 0.010013858857043098 0.0 -7.357179452351082e-10 0.0 0.01 0.0 -7.357179452351082e-10 0.0 0.010013395015979996 0.010030576165749724 0.0 -9.283376505835058e-10 0.0 0.01 0.0 -9.283376505835058e-10 0.0 0.010017761559129978 0.010029514453130065 0.0 -2.1978895359469934e-09 0.0 0.01 0.0 -2.1978895359467817e-09 0.0 0.01001741649471308 0.010028337750705777 0.0 -3.724539029093713e-09 0.0 0.01 0.0 -3.7245390290932893e-09 0.0 0.010018238726607672 0.01002714724717362 0.0 -3.303014218746852e-09 0.0 0.01 0.0 -3.3030142187472754e-09 0.0 0.010016695518170235 0.010025994557391286 0.0 -1.923752706303411e-09 0.0 0.01 0.0 -1.9237527063036226e-09 0.0 0.010015508653291637 0.010024921956970008 0.0 -7.588173762628993e-10 0.0 0.01 0.0 -7.588173762627934e-10 0.0 0.01001507306121392 0.01003932991554924 0.0 -1.8003801999043597e-09 0.0 0.01 0.0 -1.8003801999043597e-09 0.0 0.010017930912600273 0.010038480730834843 0.0 -2.8278500504901673e-09 0.0 0.01 0.0 -2.8278500504901673e-09 0.0 0.010017473894071361 0.010037484615990197 0.0 -2.8178456712404037e-09 0.0 0.01 0.0 -2.8178456712404037e-09 0.0 0.010018832365432115 0.010036420657813619 0.0 -2.1972970719401974e-09 0.0 0.01 0.0 -2.1972970719401974e-09 0.0 0.010017802778240404 0.010035337785173851 0.0 -1.3139697051771114e-09 0.0 0.01 0.0 -1.3139697051771114e-09 0.0 0.010016705317099212 0.01003425576812204 0.0 -5.792661949051467e-10 0.0 0.01 0.0 -5.792661949050938e-10 0.0 0.010016300519593837 0.010043521224805277 0.0 -3.945739515723349e-10 0.0 0.01 0.0 -3.9457395157230846e-10 0.0 0.010018000134344757 0.010043057757566103 0.0 -1.8477714358740433e-09 0.0 0.01 0.0 -1.8477714358739374e-09 0.0 0.010016862355162956 0.010042478133934168 0.0 -1.8039946833139844e-09 0.0 0.01 0.0 -1.8039946833139844e-09 0.0 0.010018112591321127 0.010041776946286536 0.0 -1.2443461220066445e-09 0.0 0.01 0.0 -1.2443461220066445e-09 0.0 0.010017708075580115 0.010040958269765294 0.0 -6.964869191165739e-10 0.0 0.01 0.0 -6.964869191165739e-10 0.0 0.01001710091639437 0.010040022696640734 0.0 -3.1961108354602004e-10 0.0 0.01 0.0 -3.196110835459671e-10 0.0 0.01001696788889059 0.010043499493596201 0.0 9.000868816383814e-10 0.0 0.01 0.0 9.000868816383285e-10 0.0 0.010018296693123265 0.010043427766410366 0.0 -3.597639017054814e-10 0.0 0.01 0.0 -3.597639017054814e-10 0.0 0.01001657336058424 0.01004327687080172 0.0 -5.880183542221814e-10 0.0 0.01 0.0 -5.880183542221814e-10 0.0 0.010017478317179015 0.01004298062055837 0.0 -4.1812569114338996e-10 0.0 0.01 0.0 -4.1812569114338996e-10 0.0 0.010017477362189095 0.010042482083846848 0.0 -2.2965794067659128e-10 0.0 0.01 0.0 -2.2965794067659128e-10 0.0 0.010017238824320266 0.01004177001008271 0.0 -1.1223333461626244e-10 0.0 0.01 0.0 -1.1223333461626244e-10 0.0 0.010017301648696759 0.010040848534138393 0.0 8.030154990936092e-10 0.0 0.01 0.0 8.030154990935562e-10 0.0 0.010018818135367305 0.010041078891996801 0.0 2.160822664039054e-10 0.0 0.01 0.0 2.160822664039054e-10 0.0 0.010016733307022494 0.010041251405033688 0.0 1.4649742675720445e-12 0.0 0.01 0.0 1.4649742675722513e-12 0.0 0.01001726038551305 0.010041262794851662 0.0 -3.0562455166537744e-11 0.0 0.01 0.0 -3.0562455166537744e-11 0.0 0.010017398350286987 0.010041035410800416 0.0 -2.1255571660062052e-11 0.0 0.01 0.0 -2.1255571660063706e-11 0.0 0.010017309991862863 0.010040530736170313 0.0 -1.4494235155553759e-11 0.0 0.01 0.0 -1.4494235155553759e-11 0.0 0.010017440067534128 0.010037344858962939 0.0 1.8382341222577923e-10 0.0 0.01 0.0 1.8382341222577923e-10 0.0 0.010019395633010878 0.010037746347454168 0.0 1.1205447829282902e-10 0.0 0.01 0.0 1.1205447829284226e-10 0.0 0.010017186806631061 0.010038093011348908 0.0 5.4823983965275524e-11 0.0 0.01 0.0 5.4823983965275524e-11 0.0 0.010017429261209245 0.010038275283476028 0.0 2.2938222804490785e-11 0.0 0.01 0.0 2.293822280448913e-11 0.0 0.010017496964667975 0.010038208118784475 0.0 9.026094119728863e-12 0.0 0.01 0.0 9.02609411972969e-12 0.0 0.010017374275149015 0.01003784263094949 0.0 3.2040869799075113e-12 0.0 0.01 0.0 3.2040869799070977e-12 0.0 0.010017463137898221 0.010034154637422259 0.0 -4.937227379599737e-11 0.0 0.01 0.0 -4.937227379600399e-11 0.0 0.010019861264166856 0.010034593229344368 0.0 -7.588199544092681e-11 0.0 0.01 0.0 -7.588199544092681e-11 0.0 0.010017697268387646 0.010034968214965091 0.0 -7.856283740051795e-11 0.0 0.01 0.0 -7.856283740052456e-11 0.0 0.01001782831423615 0.010035181392468683 0.0 -6.016450602193743e-11 0.0 0.01 0.0 -6.016450602194405e-11 0.0 0.010017683998208732 0.010035154258194455 0.0 -3.4984268723410934e-11 0.0 0.01 0.0 -3.4984268723410934e-11 0.0 0.010017404683233117 0.010034832503916449 0.0 -1.4056999803098885e-11 0.0 0.01 0.0 -1.405699980309723e-11 0.0 0.010017394882250149 0.010031541656276427 0.0 2.9219534657763663e-12 0.0 0.01 0.0 2.9219534657763663e-12 0.0 0.010019869110743795 0.010031905951442883 0.0 -2.5651778826071435e-10 0.0 0.01 0.0 -2.565177882606879e-10 0.0 0.01001785922913885 0.010032194861637582 0.0 -2.939776756905022e-10 0.0 0.01 0.0 -2.939776756904757e-10 0.0 0.010018007021408749 0.010032328446238043 0.0 -2.1303078679689367e-10 0.0 0.01 0.0 -2.130307867968672e-10 0.0 0.010017727679413231 0.010032234795099177 0.0 -1.1519930422754512e-10 0.0 0.01 0.0 -1.1519930422754512e-10 0.0 0.010017308031719557 0.010031869959312528 0.0 -4.543219475675376e-11 0.0 0.01 0.0 -4.5432194756747145e-11 0.0 0.01001720590481894 0.010029104116171621 0.0 -9.254794554774691e-11 0.0 0.01 0.0 -9.254794554773367e-11 0.0 0.010019449646517724 0.010029318887365654 0.0 -5.853637395456258e-10 0.0 0.01 0.0 -5.853637395457317e-10 0.0 0.010017627550271852 0.010029443983569558 0.0 -6.424923895421125e-10 0.0 0.01 0.0 -6.424923895422184e-10 0.0 0.010017835703625945 0.010029412961292167 0.0 -4.524212143778201e-10 0.0 0.01 0.0 -4.5242121437776715e-10 0.0 0.010017518075158594 0.010029171098285614 0.0 -2.344835209576408e-10 0.0 0.01 0.0 -2.344835209576408e-10 0.0 0.010017027743073023 0.010028686466562202 0.0 -8.765914446600973e-11 0.0 0.01 0.0 -8.76591444660362e-11 0.0 0.0100168648175781 0.010026273079682029 0.0 -4.567170500844704e-10 0.0 0.01 0.0 -4.5671705008457626e-10 0.0 0.010018721392654467 0.010026297219037828 0.0 -1.0866905597128886e-09 0.0 0.01 0.0 -1.0866905597128886e-09 0.0 0.010017084231127881 0.010026201267389888 0.0 -1.1180746631772472e-09 0.0 0.01 0.0 -1.1180746631772472e-09 0.0 0.010017331101171605 0.01002594829883464 0.0 -7.641857024380196e-10 0.0 0.01 0.0 -7.641857024379137e-10 0.0 0.010017035633251079 0.010025493658667499 0.0 -3.8175612924454676e-10 0.0 0.01 0.0 -3.8175612924454676e-10 0.0 0.010016542407335927 0.010024833399312164 0.0 -1.3288638169173567e-10 0.0 0.01 0.0 -1.3288638169173567e-10 0.0 0.010016341218216165 0.010022777285038992 0.0 -9.202960913999366e-10 0.0 0.01 0.0 -9.202960913999366e-10 0.0 0.010017778750452958 0.010022574260155494 0.0 -1.6197864125818095e-09 0.0 0.01 0.0 -1.6197864125818095e-09 0.0 0.010016316698493297 0.010022227188167128 0.0 -1.603139305515221e-09 0.0 0.01 0.0 -1.6031393055147975e-09 0.0 0.010016533111368069 0.010021702294560586 0.0 -1.063147276062561e-09 0.0 0.01 0.0 -1.0631472760629845e-09 0.0 0.010016287254964971 0.01002099020382167 0.0 -5.074967192636571e-10 0.0 0.01 0.0 -5.074967192636571e-10 0.0 0.010015837343929515 0.010020124084227401 0.0 -1.5981117407757786e-10 0.0 0.01 0.0 -1.5981117407757786e-10 0.0 0.01001563966350152 0.010018816626883687 0.0 -1.2780662126901264e-09 0.0 0.01 0.0 -1.2780662126892793e-09 0.0 0.010016683256983688 0.01001836592245143 0.0 -2.031757857225341e-09 0.0 0.01 0.0 -2.031757857226188e-09 0.0 0.010015368355496504 0.010017734063251016 0.0 -1.933142518251266e-09 0.0 0.01 0.0 -1.93314251825296e-09 0.0 0.010015523873922537 0.010016907533240818 0.0 -1.2354822829520432e-09 0.0 0.01 0.0 -1.2354822829520432e-09 0.0 0.010015314910267817 0.010015922699274878 0.0 -5.529502574000205e-10 0.0 0.01 0.0 -5.529502574000205e-10 0.0 0.010014947999728595 0.010014851369082653 0.0 -1.5168295738977118e-10 0.0 0.01 0.0 -1.5168295738977118e-10 0.0 0.010014783719250336 0.010014910733316805 0.0 -1.4216920795558942e-09 0.0 0.01 0.0 -1.421692079552506e-09 0.0 0.010015449278424293 0.010014190799767177 0.0 -2.289487473087007e-09 0.0 0.01 0.0 -2.2894874730327967e-09 0.0 0.010014271694154898 0.010013264144032195 0.0 -2.0204569749550665e-09 0.0 0.01 0.0 -2.0204569749550665e-09 0.0 0.010014391859331473 0.010012145139888734 0.0 -1.2149773666607607e-09 0.0 0.01 0.0 -1.2149773666607607e-09 0.0 0.01001419421426352 0.010010908423128994 0.0 -5.120308231701774e-10 0.0 0.01 0.0 -5.120308231699657e-10 0.0 0.01001395053842253 0.010009681040256367 0.0 -1.1897830755933294e-10 0.0 0.01 0.0 -1.1897830755938588e-10 0.0 0.010013815176219977 0.010011597795173225 0.0 -1.2787023470009422e-09 0.0 0.01 0.0 -1.2787023470000952e-09 0.0 0.010014085855903106 0.010010607654513178 0.0 -4.760592023328691e-09 0.0 0.01 0.0 -4.760592023325303e-09 0.0 0.010013050402573822 0.01000939898455234 0.0 -4.1363906182601115e-09 0.0 0.01 0.0 -4.1363906182618056e-09 0.0 0.010013167060142646 0.010008023796876719 0.0 -1.9511769322258984e-09 0.0 0.01 0.0 -1.9511769322250514e-09 0.0 0.010013075902242307 0.01000660077979691 0.0 -5.008236477198004e-10 0.0 0.01 0.0 -5.008236477195886e-10 0.0 0.010012909706115403 0.010005275171180696 0.0 -8.142474862935984e-11 0.0 0.01 0.0 -8.142474862935984e-11 0.0 0.01001277739762882 0.010009144828906656 0.0 -7.733152475520832e-10 0.0 0.01 0.0 -7.733152475525067e-10 0.0 0.01001266562212603 0.010007922505005637 0.0 -1.3749761864147202e-08 0.0 0.01 0.0 -1.3749761864147202e-08 0.0 0.01001174280169938 0.01000647403156626 0.0 -1.3211913970622308e-08 0.0 0.01 0.0 -1.3211913970622308e-08 0.0 0.010011943212052319 0.010004909362918825 0.0 -6.949175506978936e-09 0.0 0.01 0.0 -6.949175506978936e-09 0.0 0.010012000567537272 0.010003372305100091 0.0 -1.9028318816648782e-09 0.0 0.01 0.0 -1.9028318816648782e-09 0.0 0.010011847170109365 0.010001997648430497 0.0 -1.879874491635532e-10 0.0 0.01 0.0 -1.8798744916352674e-10 0.0 0.01001172323295233 0.010007500129362048 0.0 2.60543344429959e-09 0.0 0.01 0.0 2.605433444298743e-09 0.0 0.01001119993773299 0.010006110596466217 0.0 -2.8051355546802577e-08 0.0 0.01 0.0 -2.805135554681613e-08 0.0 0.01001036373894638 0.010004485916841827 0.0 -2.9338237846655575e-08 0.0 0.01 0.0 -2.93382378466488e-08 0.0 0.010010807545371186 0.010002806831341275 0.0 -1.594495594903927e-08 0.0 0.01 0.0 -1.5944955949042657e-08 0.0 0.010010974589881741 0.01000122827626513 0.0 -4.32154201988125e-09 0.0 0.01 0.0 -4.32154201988125e-09 0.0 0.01001081587219518 0.009999860002939946 0.0 -3.063090346510976e-10 0.0 0.01 0.0 -3.0630903465104465e-10 0.0 0.010010701253045803 0.01000645153799617 0.0 8.586215444114496e-09 0.0 0.01 0.0 8.586215444111108e-09 0.0 0.01000970651420563 0.010004908862352727 0.0 -3.4453571158245743e-08 0.0 0.01 0.0 -3.445357115823219e-08 0.0 0.010009040545134703 0.01000315824577504 0.0 -3.897558227414699e-08 0.0 0.01 0.0 -3.897558227414699e-08 0.0 0.01000978629724716 0.01000145391706647 0.0 -1.7660142000132454e-08 0.0 0.01 0.0 -1.7660142000132454e-08 0.0 0.010010052236877018 0.009999922000912627 0.0 -4.768132862834727e-10 0.0 0.01 0.0 -4.768132862833668e-10 0.0 0.01000990334202591 0.009998622784561926 0.0 2.9657818761315742e-09 0.0 0.01 0.0 2.9657818761315742e-09 0.0 0.010009768695491769 0.010005980961518455 0.0 -7.82577242181145e-09 0.0 0.01 0.0 -7.82577242181145e-09 0.0 0.01000822789361533 0.010004036142254 0.0 -3.3738371895148392e-09 0.0 0.01 0.0 -3.373837189513145e-09 0.0 0.010008022844589372 0.010002141287592954 0.0 -1.222497082929461e-08 0.0 0.01 0.0 -1.222497082929461e-08 0.0 0.010008947043151391 0.010000500037522184 0.0 1.12781794312422e-08 0.0 0.01 0.0 1.1278179431243893e-08 0.0 0.010009307428144855 0.009999120116239074 0.0 2.5328372041577882e-08 0.0 0.01 0.0 2.5328372041574494e-08 0.0 0.010009151697819723 0.009997979612508928 0.0 1.8097891824751702e-08 0.0 0.01 0.0 1.8097891824751702e-08 0.0 0.01000896514171882 0.010006243143926032 0.0 -1.2296185199819204e-07 0.0 0.01 0.0 -1.2296185199840888e-07 0.0 0.01000692173219164 0.01000339332756882 0.0 8.761055942860512e-08 0.0 0.01 0.0 8.761055942857802e-08 0.0 0.010007476126669643 0.01000123658049926 0.0 8.828261261579432e-08 0.0 0.01 0.0 8.828261261582143e-08 0.0 0.010008436465261691 0.009999681016654157 0.0 9.634873364500955e-08 0.0 0.01 0.0 9.634873364500955e-08 0.0 0.0100087835103593 0.00999855031655285 0.0 9.148917251631909e-08 0.0 0.01 0.0 9.14891725163462e-08 0.0 0.010008573514434925 0.009997658822916658 0.0 5.736771656211125e-08 0.0 0.01 0.0 5.7367716562104474e-08 0.0 0.01000831896977908 0.010006889942392488 0.0 -4.344150644950383e-07 0.0 0.01 0.0 -4.344150644950383e-07 0.0 0.010006134568561285 0.010002980837500756 0.0 1.8673597903357767e-07 0.0 0.01 0.0 1.8673597903352346e-07 0.0 0.010007108627929261 0.010000431188102 0.0 2.611156369293293e-07 0.0 0.01 0.0 2.611156369292751e-07 0.0 0.010008006214872685 0.009998916685246544 0.0 2.47562645580015e-07 0.0 0.01 0.0 2.47562645580015e-07 0.0 0.010008374767949352 0.009998074063136212 0.0 2.099550258390212e-07 0.0 0.01 0.0 2.099550258390483e-07 0.0 0.010008151061750585 0.009997501939027905 0.0 1.3343532403661817e-07 0.0 0.01 0.0 1.3343532403661817e-07 0.0 0.010007826080218614 0.010002842014618032 0.0 1.5331185432971e-07 0.0 0.01 0.0 1.533118543296558e-07 0.0 0.010006605192043687 0.00999986903095359 0.0 4.351830631335726e-07 0.0 0.01 0.0 4.35183063133681e-07 0.0 0.010007406198000088 0.009998328449186869 0.0 4.47210293353414e-07 0.0 0.01 0.0 4.47210293353414e-07 0.0 0.01000795676639753 0.009997693319830301 0.0 3.7839906089781345e-07 0.0 0.01 0.0 3.7839906089781345e-07 0.0 0.010007805049759885 0.009997437495041539 0.0 2.548617276827963e-07 0.0 0.01 0.0 2.548617276827963e-07 0.0 0.01000745659155668 0.010003020921669244 0.0 -1.4901068931885697e-07 0.0 0.01 0.0 -1.490106893189654e-07 0.0 0.010006072430009885 0.009999857041145173 0.0 5.040677527276029e-07 0.0 0.01 0.0 5.040677527276029e-07 0.0 0.010006808234546766 0.009998138081869926 0.0 6.416664878872418e-07 0.0 0.01 0.0 6.416664878872418e-07 0.0 0.010007426777020906 0.00999750248624685 0.0 5.791685207674454e-07 0.0 0.01 0.0 5.791685207674454e-07 0.0 0.010007456632152448 0.009997448503676891 0.0 4.2294091293798054e-07 0.0 0.01 0.0 4.2294091293808896e-07 0.0 0.01000714878525922 0.010000579165105262 0.0 3.1421105909290245e-07 0.0 0.01 0.0 3.1421105909290245e-07 0.0 0.010006431514122425 0.009998563391366138 0.0 7.383508180102945e-07 0.0 0.01 0.0 7.383508180101861e-07 0.0 0.01000692376578648 0.00999769388934256 0.0 7.806236201251876e-07 0.0 0.01 0.0 7.806236201250791e-07 0.0 0.010007138577885362 0.009997566947175268 0.0 6.268489163810832e-07 0.0 0.01 0.0 6.268489163810832e-07 0.0 0.010006870883726862 0.01000183106449814 0.0 -2.794826507280341e-07 0.0 0.01 0.0 -2.7948265072814255e-07 0.0 0.010006118422381126 0.00999981955865732 0.0 5.989936739579866e-07 0.0 0.01 0.0 5.989936739579866e-07 0.0 0.010006730943469965 0.009998499958761686 0.0 8.990302863831623e-07 0.0 0.01 0.0 8.990302863833791e-07 0.0 0.010006883672263801 0.009997982715550963 0.0 8.366924267370858e-07 0.0 0.01 0.0 8.366924267371942e-07 0.0 0.010006672326905601 0.010001560415163018 0.0 5.585193737300218e-09 0.0 0.01 0.0 5.585193737298524e-09 0.0 0.010006599276829578 0.010000074286453917 0.0 7.558899696061099e-07 0.0 0.01 0.0 7.558899696063267e-07 0.0 0.01000679605723619 0.009999034279515939 0.0 9.650314140205972e-07 0.0 0.01 0.0 9.650314140205972e-07 0.0 0.010006624416088461 0.010002081201259323 0.0 1.0746387890252533e-07 0.0 0.01 0.0 1.0746387890249822e-07 0.0 0.010006718666740523 0.01000093917949337 0.0 8.054494052534521e-07 0.0 0.01 0.0 8.054494052534521e-07 0.0 0.010006691357279057 0.010003014703116667 0.0 -9.682467253502823e-07 0.0 0.01 0.0 -9.682467253498486e-07 0.0 0.010006039306924707 0.0100029949967429 0.0 1.0900112887675872e-07 0.0 0.01 0.0 1.0900112887675872e-07 0.0 0.010006690810835208 0.009999682515120137 0.0 1.2842197359007216e-15 0.0 0.01 0.0 1.2842197359007216e-15 0.0 0.010000012700024194 0.009999671516185952 0.0 1.032041257753903e-15 0.0 0.01 0.0 1.032041257753903e-15 0.0 0.010000011700020532 0.009999667016632428 0.0 4.1214668300294104e-16 0.0 0.01 0.0 4.1214668300294104e-16 0.0 0.010000010750017335 0.009999663516983883 0.0 7.43223067125385e-17 0.0 0.01 0.0 7.43223067125385e-17 0.0 0.010000008800011615 0.009999662517084977 0.0 7.556226309393651e-17 0.0 0.01 0.0 7.556226309393651e-17 0.0 0.010000007800009127 0.009999662517084977 0.0 2.4606366248428474e-17 0.0 0.01 0.0 2.4606366248428474e-17 0.0 0.010000006350006049 0.009999662017135634 0.0 3.8493596179753814e-17 0.0 0.01 0.0 3.8493596179753814e-17 0.0 0.010000004900003601 0.009999662517084977 0.0 2.1352789513039844e-17 0.0 0.01 0.0 2.1352789513039844e-17 0.0 0.010000003900002281 0.009999662517084977 0.0 2.7916079611389834e-14 0.0 0.01 0.0 2.7916079611389834e-14 0.0 0.010000002950001304 0.009999612522521982 0.0 -3.710211134293217e-15 0.0 0.01 0.0 -3.710211134293217e-15 0.0 0.010000016600041335 0.009999601023878563 0.0 -1.4564395594028936e-15 0.0 0.01 0.0 -1.4564395594028936e-15 0.0 0.010000016600041335 0.009999595524541383 0.0 -6.271253805670234e-16 0.0 0.01 0.0 -6.271253805670234e-16 0.0 0.010000014150030033 0.009999594024723727 0.0 -2.534287041043645e-16 0.0 0.01 0.0 -2.534287041043645e-16 0.0 0.010000012700024194 0.009999593524784658 0.0 -6.105289077844158e-17 0.0 0.01 0.0 -6.105289077844158e-17 0.0 0.010000010750017335 0.009999593524784658 0.0 4.849983262843161e-18 0.0 0.01 0.0 4.849983262843161e-18 0.0 0.010000008300010334 0.009999594024723727 0.0 8.061732327706133e-18 0.0 0.01 0.0 8.061732327706133e-18 0.0 0.010000006850007037 0.00999959502460209 0.0 2.0654121346426312e-17 0.0 0.01 0.0 2.0654121346426312e-17 0.0 0.010000005350004294 0.009999595524541383 0.0 -2.692233528735405e-18 0.0 0.01 0.0 -2.692233528735405e-18 0.0 0.010000004900003601 0.009999543531256462 0.0 -6.092847489060996e-15 0.0 0.01 0.0 -6.092847489060996e-15 0.0 0.010000021000066152 0.00999953403257087 0.0 -3.3445474022328897e-15 0.0 0.01 0.0 -3.3445474022328897e-15 0.0 0.01000002000006 0.009999529033273538 0.0 -1.6147826387988513e-15 0.0 0.01 0.0 -1.6147826387988513e-15 0.0 0.01000001805004887 0.0099995275334858 0.0 -5.810875691582418e-16 0.0 0.01 0.0 -5.810875691582418e-16 0.0 0.010000016100038882 0.0099995275334858 0.0 -1.8257926365114965e-16 0.0 0.01 0.0 -1.8257926365114965e-16 0.0 0.010000013650027948 0.009999528533344217 0.0 -2.577589708033837e-17 0.0 0.01 0.0 -2.577589708033837e-17 0.0 0.010000010750017335 0.00999953053306195 0.0 1.5040023540637637e-17 0.0 0.01 0.0 1.5040023540637637e-17 0.0 0.010000008300010334 0.009999532032851038 0.0 2.8724407078483808e-18 0.0 0.01 0.0 2.8724407078483808e-18 0.0 0.010000006850007037 0.009999532532780884 0.0 -1.2455090523579117e-17 0.0 0.01 0.0 -1.2455090523579117e-17 0.0 0.010000005850005133 0.009999470542051829 0.0 -5.923382664880091e-15 0.0 0.01 0.0 -5.923382664880091e-15 0.0 0.010000024900093003 0.009999460043736065 0.0 -3.826652600485078e-15 0.0 0.01 0.0 -3.826652600485078e-15 0.0 0.010000024400089305 0.009999457544141947 0.0 -1.7045672897260173e-15 0.0 0.01 0.0 -1.7045672897260173e-15 0.0 0.010000021500069338 0.009999457544141947 0.0 -6.20000626679031e-16 0.0 0.01 0.0 -6.20000626679031e-16 0.0 0.01000001805004887 0.009999459543817089 0.0 -1.1429629326891986e-16 0.0 0.01 0.0 -1.1429629326891986e-16 0.0 0.010000015150034429 0.009999462043412708 0.0 2.2294953116071287e-17 0.0 0.01 0.0 2.2294953116071287e-17 0.0 0.010000012200022326 0.00999946404309055 0.0 2.923491848554462e-17 0.0 0.01 0.0 2.923491848554462e-17 0.0 0.01000001025001576 0.00999946554284972 0.0 2.1905972479161382e-17 0.0 0.01 0.0 2.1905972479161382e-17 0.0 0.010000008300010334 0.009999468042449836 0.0 -1.119533138023119e-17 0.0 0.01 0.0 -1.119533138023119e-17 0.0 0.010000007300007994 0.009999385056727934 0.0 -8.30633138115144e-17 0.0 0.01 0.0 -8.30633138115144e-17 0.0 0.010000029800133207 0.009999377558119906 0.0 -3.0112679805331375e-15 0.0 0.01 0.0 -3.0112679805331375e-15 0.0 0.010000027350112205 0.009999373558869191 0.0 -1.74928981514329e-15 0.0 0.01 0.0 -1.74928981514329e-15 0.0 0.010000024400089305 0.00999937455868142 0.0 -5.074177405253091e-16 0.0 0.01 0.0 -5.074177405253091e-16 0.0 0.01000002100006615 0.009999377558119906 0.0 -2.1393242909537875e-17 0.0 0.01 0.0 -2.1393242909537875e-17 0.0 0.010000017600046464 0.00999938255719005 0.0 7.435163665166945e-17 0.0 0.01 0.0 7.435163665166945e-17 0.0 0.010000014650032193 0.009999385556635737 0.0 9.312022517043358e-17 0.0 0.01 0.0 9.312022517043358e-17 0.0 0.010000011700020532 0.009999388556084123 0.0 5.717517542639505e-17 0.0 0.01 0.0 5.717517542639505e-17 0.0 0.010000009300012973 0.009999390555717877 0.0 -1.6198537232627837e-17 0.0 0.01 0.0 -1.6198537232627837e-17 0.0 0.010000008300010334 0.00999927857807495 0.0 9.703354811599929e-15 0.0 0.01 0.0 9.703354811599929e-15 0.0 0.010000032250156013 0.009999273579160752 0.0 -7.04658310919132e-16 0.0 0.01 0.0 -7.04658310919132e-16 0.0 0.010000029800133207 0.009999272579378814 0.0 -1.3779269390435855e-15 0.0 0.01 0.0 -1.3779269390435855e-15 0.0 0.010000027350112205 0.009999275078834224 0.0 -3.8195765492241003e-16 0.0 0.01 0.0 -3.8195765492241003e-16 0.0 0.01000002395008604 0.009999281577427065 0.0 1.2687920786629568e-16 0.0 0.01 0.0 1.2687920786629568e-16 0.0 0.01000001955005733 0.00999928707624629 0.0 1.9984012501268615e-16 0.0 0.01 0.0 1.9984012501268615e-16 0.0 0.010000016100038882 0.009999293074968517 0.0 9.498979596086219e-17 0.0 0.01 0.0 9.498979596086219e-17 0.0 0.010000013650027948 0.009999296574228135 0.0 5.514701874840735e-17 0.0 0.01 0.0 5.514701874840735e-17 0.0 0.010000011250018984 0.009999298573806709 0.0 4.6128394551520856e-18 0.0 0.01 0.0 4.6128394551520856e-18 0.0 0.010000009300012973 0.009999151108104856 0.0 2.414200711364046e-14 0.0 0.01 0.0 2.414200711358876e-14 0.0 0.01000003660020094 0.009999146609253795 0.0 2.97711170931308e-15 0.0 0.01 0.0 2.97711170931308e-15 0.0 0.010000035150185329 0.009999148608742405 0.0 -1.3114617957273573e-15 0.0 0.01 0.0 -1.3114617957273573e-15 0.0 0.010000030750141836 0.00999915460721543 0.0 -2.7980603126945866e-16 0.0 0.01 0.0 -2.7980603126945866e-16 0.0 0.010000025900100622 0.009999163105070692 0.0 2.8280835758256953e-16 0.0 0.01 0.0 2.8280835758256953e-16 0.0 0.010000022950079004 0.00999917060319627 0.0 3.288889034682411e-16 0.0 0.01 0.0 3.288889034682411e-16 0.0 0.010000019050054435 0.00999917760146203 0.0 1.7655219794422974e-16 0.0 0.01 0.0 1.7655219794422974e-16 0.0 0.010000014150030033 0.009999182600232281 0.0 6.71131632250423e-17 0.0 0.01 0.0 6.71131632250423e-17 0.0 0.010000012700024194 0.00999918559949803 0.0 -3.44691024675515e-18 0.0 0.01 0.0 -3.44691024675515e-18 0.0 0.010000011250018984 0.009998993651930852 0.0 2.2773469533487365e-12 0.0 0.01 0.0 2.2773469533520453e-12 0.0 0.010000042500270936 0.00999899365193085 0.0 3.619315800421509e-15 0.0 0.01 0.0 3.619315800421509e-15 0.0 0.010000040550246647 0.00999900114967523 0.0 -1.225041332398812e-15 0.0 0.01 0.0 -1.225041332398812e-15 0.0 0.01000003565019064 0.00999901064684232 0.0 -2.2865707410546544e-16 0.0 0.01 0.0 -2.2865707410546544e-16 0.0 0.010000031250146485 0.009999020643889548 0.0 4.552148472678091e-16 0.0 0.01 0.0 4.552148472678091e-16 0.0 0.010000026850108139 0.009999031140821409 0.0 4.3840344348688467e-16 0.0 0.01 0.0 4.3840344348688467e-16 0.0 0.010000022950079004 0.009999039638361887 0.0 1.7352629448232833e-16 0.0 0.01 0.0 1.7352629448232833e-16 0.0 0.01000001805004887 0.009999047136209716 0.0 -3.917244541857488e-17 0.0 0.01 0.0 -3.917244541857488e-17 0.0 0.010000015150034429 0.009999050635211141 0.0 -4.268973992831222e-17 0.0 0.01 0.0 -4.268973992831222e-17 0.0 0.010000013650027948 0.009998809712551366 0.0 1.9681352273118477e-11 0.0 0.01 0.0 1.9681352273144947e-11 0.0 0.010000051750401714 0.00999881371112559 0.0 6.07096757759805e-15 0.0 0.01 0.0 6.07096757759805e-15 0.0 0.010000048350350663 0.009998823707582134 0.0 -1.8388128502815467e-15 0.0 0.01 0.0 -1.8388128502815467e-15 0.0 0.010000042950276707 0.009998837702671669 0.0 -3.7731202086220154e-16 0.0 0.01 0.0 -3.7731202086220154e-16 0.0 0.010000037600212066 0.009998851697819973 0.0 7.674276917946841e-16 0.0 0.01 0.0 7.674276917946841e-16 0.0 0.010000031250146485 0.009998864693367443 0.0 6.98676166988094e-16 0.0 0.01 0.0 6.98676166988094e-16 0.0 0.010000027350112205 0.009998875689639496 0.0 3.180883964895523e-16 0.0 0.01 0.0 3.180883964895523e-16 0.0 0.010000023450082485 0.009998885186449103 0.0 3.0325312353210634e-17 0.0 0.01 0.0 3.0325312353210634e-17 0.0 0.010000019050054435 0.009998890184780817 0.0 -6.4929550998659384e-18 0.0 0.01 0.0 -6.4929550998659384e-18 0.0 0.010000017100043862 0.009998589298567936 0.0 5.848139301128089e-11 0.0 0.01 0.0 5.848139301133383e-11 0.0 0.01000006785069055 0.009998600793721531 0.0 1.7793490964281905e-13 0.0 0.01 0.0 1.7793490964281905e-13 0.0 0.010000061500567347 0.009998617286837236 0.0 -2.7089653660543043e-15 0.0 0.01 0.0 -2.7089653660543043e-15 0.0 0.01000005420044065 0.00999863577921554 0.0 -4.1104737604193056e-16 0.0 0.01 0.0 -4.1104737604193056e-16 0.0 0.010000049300364576 0.009998654271696451 0.0 1.1408915980642355e-15 0.0 0.01 0.0 1.1408915980642355e-15 0.0 0.010000042000264601 0.009998670765076802 0.0 7.485772287137171e-16 0.0 0.01 0.0 7.485772287137171e-16 0.0 0.010000036600200936 0.009998684259721434 0.0 2.4778073193114345e-16 0.0 0.01 0.0 2.4778073193114345e-16 0.0 0.010000029800133207 0.009998695755202552 0.0 -2.946590716864964e-17 0.0 0.01 0.0 -2.946590716864964e-17 0.0 0.010000025400096774 0.009998702252665942 0.0 -2.918871407981527e-17 0.0 0.01 0.0 -2.918871407981527e-17 0.0 0.010000022950079004 0.00999832841922078 0.0 1.0120393707554451e-10 0.0 0.01 0.0 1.0120393707554451e-10 0.0 0.010000092751290404 0.009998348409252922 0.0 7.430064846404993e-13 0.0 0.01 0.0 7.430064846404993e-13 0.0 0.010000082051009846 0.009998371897693897 0.0 -4.670908161540621e-15 0.0 0.01 0.0 -4.670908161540621e-15 0.0 0.010000071800773296 0.00999839638581926 0.0 -5.379017089223442e-17 0.0 0.01 0.0 -5.379017089223442e-17 0.0 0.010000063500604844 0.009998419874598362 0.0 1.6292994930064057e-15 0.0 0.01 0.0 1.6292994930064057e-15 0.0 0.01000005420044065 0.009998440364945115 0.0 9.865445983425855e-16 0.0 0.01 0.0 9.865445983425855e-16 0.0 0.010000045900316024 0.009998458356572962 0.0 2.474930513178275e-16 0.0 0.01 0.0 2.474930513178275e-16 0.0 0.010000039050228738 0.009998472350128434 0.0 2.7347600859882426e-17 0.0 0.01 0.0 2.7347600859882426e-17 0.0 0.010000033700170356 0.009998481346016552 0.0 -2.8613710813801145e-17 0.0 0.01 0.0 -2.8613710813801145e-17 0.0 0.010000029300128775 0.00999802708401325 0.0 1.1398216107200804e-10 0.0 0.01 0.0 1.1398216107190216e-10 0.0 0.01000012990253116 0.009998055067561512 0.0 8.177381223987196e-13 0.0 0.01 0.0 8.177381223987196e-13 0.0 0.010000113301925573 0.009998086549334165 0.0 -5.232870827853272e-15 0.0 0.01 0.0 -5.232870827853272e-15 0.0 0.010000095701373796 0.009998119030839877 0.0 1.7222491255731604e-16 0.0 0.01 0.0 1.7222491255731604e-16 0.0 0.010000084451069785 0.009998149014049211 0.0 2.156920873433723e-15 0.0 0.01 0.0 2.156920873433723e-15 0.0 0.010000071800773296 0.009998175999168251 0.0 1.1046103400301814e-15 0.0 0.01 0.0 1.1046103400301814e-15 0.0 0.010000060550549951 0.009998196987745232 0.0 2.318214302979603e-16 0.0 0.01 0.0 2.318214302979603e-16 0.0 0.0100000508003871 0.009998213978594838 0.0 8.580024136745714e-17 0.0 0.01 0.0 8.580024136745714e-17 0.0 0.010000044900302403 0.009998222474052125 0.0 -1.0480062237951169e-16 0.0 0.01 0.0 -1.0480062237951169e-16 0.0 0.010000039550234633 0.00999767431157566 0.0 8.266300403363368e-11 0.0 0.01 0.0 8.266300403358075e-11 0.0 0.010000185055136687 0.00999771428391361 0.0 2.2654199265090365e-13 0.0 0.01 0.0 2.2654199265069686e-13 0.0 0.01000015380354826 0.009997755256057589 0.0 -4.780796290586458e-15 0.0 0.01 0.0 -4.780796290586458e-15 0.0 0.01000013135258798 0.00999779722804447 0.0 8.601883762994754e-16 0.0 0.01 0.0 8.601883762994754e-16 0.0 0.01000011180187492 0.00999783420380421 0.0 2.6425621326945908e-15 0.0 0.01 0.0 2.6425621326945908e-15 0.0 0.010000094751346656 0.009997866682850536 0.0 9.002193692541963e-16 0.0 0.01 0.0 9.002193692541963e-16 0.0 0.010000080100962414 0.009997894165367742 0.0 -2.663262988198298e-16 0.0 0.01 0.0 -2.663262988198298e-16 0.0 0.010000067400681422 0.009997912154047179 0.0 -4.53912727393788e-16 0.0 0.01 0.0 -4.53912727393788e-16 0.0 0.010000058100506347 0.009997925645620478 0.0 -2.922876950408475e-16 0.0 0.01 0.0 -2.922876950408475e-16 0.0 0.010000052250409513 0.009997267620292962 0.0 3.3802794284892195e-11 0.0 0.01 0.0 3.380279428490543e-11 0.0 0.010000251009450548 0.009997320077682618 0.0 -1.4692347499826762e-15 0.0 0.01 0.0 -1.4692347499826762e-15 0.0 0.010000209456580625 0.00999737203629209 0.0 -1.965628423056481e-15 0.0 0.01 0.0 -1.965628423056481e-15 0.0 0.010000176254659746 0.009997422496870943 0.0 1.7394766790086734e-15 0.0 0.01 0.0 1.7394766790086734e-15 0.0 0.010000147453261306 0.009997467962007232 0.0 1.958642288396847e-15 0.0 0.01 0.0 1.958642288396847e-15 0.0 0.010000124002306448 0.009997508431496487 0.0 -1.3732483748900717e-16 0.0 0.01 0.0 -1.3732483748900717e-16 0.0 0.010000103501606865 0.009997539408474643 0.0 -9.45558469911608e-16 0.0 0.01 0.0 -9.45558469911608e-16 0.0 0.010000086901132759 0.009997563890483674 0.0 -6.437199612523358e-16 0.0 0.01 0.0 -6.437199612523358e-16 0.0 0.010000075200848266 0.009997578379920677 0.0 -4.1617556975894186e-16 0.0 0.01 0.0 -4.1617556975894186e-16 0.0 0.010000066400661351 0.009996798538060306 0.0 4.426929933657972e-12 0.0 0.01 0.0 4.4269299336596266e-12 0.0 0.01000033251658436 0.009996864974873867 0.0 2.9966874798406973e-15 0.0 0.01 0.0 2.9966874798406973e-15 0.0 0.010000276361455927 0.009996929914392806 0.0 6.894715560740809e-16 0.0 0.01 0.0 6.894715560740809e-16 0.0 0.010000230007935302 0.009996992357431416 0.0 8.235048612851175e-16 0.0 0.01 0.0 8.235048612851175e-16 0.0 0.010000192855578847 0.00999704980606038 0.0 -3.120442681519074e-16 0.0 0.01 0.0 -3.120442681519074e-16 0.0 0.010000158703777955 0.00999709676480578 0.0 -1.8022367630349156e-15 0.0 0.01 0.0 -1.8022367630349156e-15 0.0 0.010000132802645435 0.009997136730216726 0.0 -2.4711308012316322e-15 0.0 0.01 0.0 -2.4711308012316322e-15 0.0 0.010000109851810086 0.009997165205864442 0.0 -2.1069125433834754e-15 0.0 0.01 0.0 -2.1069125433834754e-15 0.0 0.010000093251304354 0.009997182691031864 0.0 -1.267064717840833e-15 0.0 0.01 0.0 -1.267064717840833e-15 0.0 0.01000008350104585 0.009996262096833016 0.0 -3.884561941326968e-14 0.0 0.01 0.0 -3.884561941326968e-14 0.0 0.010000426277255298 0.009996342008115089 0.0 9.801639187778792e-15 0.0 0.01 0.0 9.801639187778792e-15 0.0 0.010000354518851652 0.009996422420777168 0.0 -2.5096695947741212e-15 0.0 0.01 0.0 -2.5096695947741212e-15 0.0 0.010000294913045544 0.009996497341152683 0.0 -2.268700045361856e-15 0.0 0.01 0.0 -2.268700045361856e-15 0.0 0.010000244158941747 0.009996566768871099 0.0 -5.2194948670405345e-15 0.0 0.01 0.0 -5.2194948670405345e-15 0.0 0.0100002011560694 0.009996625209151039 0.0 -7.17522185496121e-15 0.0 0.01 0.0 -7.17522185496121e-15 0.0 0.010000165054086338 0.009996673660416648 0.0 -6.956069450745728e-15 0.0 0.01 0.0 -6.956069450745728e-15 0.0 0.010000136252784673 0.009996709125191638 0.0 -3.582448035134309e-15 0.0 0.01 0.0 -3.582448035134309e-15 0.0 0.010000116202025405 0.0099967286060033 0.0 -1.2300305709491423e-15 0.0 0.01 0.0 -1.2300305709491423e-15 0.0 0.010000103051592922 0.009995649840230837 0.0 -3.32457653645552e-15 0.0 0.01 0.0 -3.32457653645552e-15 0.0 0.01000052834186882 0.009995744218294097 0.0 1.1220845056623774e-14 0.0 0.01 0.0 1.1220845056623774e-14 0.0 0.010000443379486062 0.00999584109591192 0.0 -6.8972280063426135e-15 0.0 0.01 0.0 -6.8972280063426135e-15 0.0 0.010000367720281737 0.009995932982440878 0.0 -1.1450629283310721e-14 0.0 0.01 0.0 -1.1450629283310721e-14 0.0 0.010000303213790234 0.009996016381647245 0.0 -1.529545904368877e-14 0.0 0.01 0.0 -1.529545904368877e-14 0.0 0.010000249009300535 0.009996087796997986 0.0 -1.504259957992613e-14 0.0 0.01 0.0 -1.504259957992613e-14 0.0 0.010000203606218155 0.009996144231189991 0.0 -1.1639569336164186e-14 0.0 0.01 0.0 -1.1639569336164186e-14 0.0 0.010000167004183467 0.009996185184033985 0.0 -6.88945110236788e-15 0.0 0.01 0.0 -6.88945110236788e-15 0.0 0.010000141603007655 0.00999621015552735 0.0 -2.5318943465956087e-15 0.0 0.01 0.0 -2.5318943465956087e-15 0.0 0.010000125002343799 0.009994950826698767 0.0 1.796880445180274e-14 0.0 0.01 0.0 1.796880445180274e-14 0.0 0.010000643612130154 0.00999506265900908 0.0 -9.028746779688232e-16 0.0 0.01 0.0 -9.028746779688232e-16 0.0 0.010000540093752038 0.009995178489287894 0.0 -1.6194603000621082e-14 0.0 0.01 0.0 -1.6194603000621082e-14 0.0 0.010000449230269362 0.009995288332065404 0.0 -2.3448526903242244e-14 0.0 0.01 0.0 -2.3448526903242244e-14 0.0 0.01000037012054737 0.009995388691587035 0.0 -2.8268354888504232e-14 0.0 0.01 0.0 -2.8268354888504232e-14 0.0 0.010000302763749329 0.009995474074455536 0.0 -2.527369365721225e-14 0.0 0.01 0.0 -2.527369365721225e-14 0.0 0.010000246109085155 0.009995542981523815 0.0 -1.8361579735898636e-14 0.0 0.01 0.0 -1.8361579735898636e-14 0.0 0.010000203106187652 0.009995593913751107 0.0 -9.370233299196101e-15 0.0 0.01 0.0 -9.370233299196101e-15 0.0 0.010000170904381147 0.009995623374904674 0.0 -3.4493601987176866e-15 0.0 0.01 0.0 -3.4493601987176866e-15 0.0 0.010000149903370587 0.009994151135387219 0.0 2.3394378664612936e-14 0.0 0.01 0.0 2.3394378664612936e-14 0.0 0.010000767688392772 0.009994286899659447 0.0 -2.222619346241299e-14 0.0 0.01 0.0 -2.222619346241299e-14 0.0 0.010000647012788416 0.009994426662777972 0.0 -2.7303445679543236e-14 0.0 0.01 0.0 -2.7303445679543236e-14 0.0 0.010000539093590152 0.00999455794561901 0.0 -2.6046414538201125e-14 0.0 0.01 0.0 -2.6046414538201125e-14 0.0 0.010000443879552609 0.009994678251167947 0.0 -3.29042944948982e-14 0.0 0.01 0.0 -3.29042944948982e-14 0.0 0.010000363319799232 0.009994779590748173 0.0 -3.175976447862221e-14 0.0 0.01 0.0 -3.175976447862221e-14 0.0 0.010000295913134168 0.00999486146339912 0.0 -2.3521517535069744e-14 0.0 0.01 0.0 -2.3521517535069744e-14 0.0 0.01000024270883585 0.009994920373014565 0.0 -1.0554922356267559e-14 0.0 0.01 0.0 -1.0554922356267559e-14 0.0 0.010000203606218155 0.009994956318376364 0.0 -3.610134919122475e-15 0.0 0.01 0.0 -3.610134919122475e-15 0.0 0.010000181154922448 0.009993245848950958 0.0 2.1689723941905865e-14 0.0 0.01 0.0 2.1689723941905865e-14 0.0 0.010000900521626275 0.00999340902187998 0.0 -4.3173007083105804e-14 0.0 0.01 0.0 -4.3173007083105804e-14 0.0 0.010000760836822093 0.009993574198948684 0.0 -1.600311836504468e-14 0.0 0.01 0.0 -1.600311836504468e-14 0.0 0.010000634810442529 0.009993732397354486 0.0 -5.156591985383236e-15 0.0 0.01 0.0 -5.156591985383236e-15 0.0 0.01000052444125291 0.009993875131700641 0.0 -1.276281159918905e-14 0.0 0.01 0.0 -1.276281159918905e-14 0.0 0.010000430227762796 0.009993995911693546 0.0 -2.3053270653666168e-14 0.0 0.01 0.0 -2.3053270653666168e-14 0.0 0.010000352068591971 0.009994091241143635 0.0 -1.7161718407030523e-14 0.0 0.01 0.0 -1.7161718407030523e-14 0.0 0.010000292512834063 0.009994161616990557 0.0 -9.419578061415169e-15 0.0 0.01 0.0 -9.419578061415169e-15 0.0 0.010000248059229703 0.009994205041127146 0.0 -3.4147209615234894e-15 0.0 0.01 0.0 -3.4147209615234894e-15 0.0 0.01000022265743623 0.009992218591979126 0.0 1.9674074962182726e-14 0.0 0.01 0.0 1.9674074962182726e-14 0.0 0.010001043113190071 0.009992415637117768 0.0 -4.415133403549288e-14 0.0 0.01 0.0 -4.415133403549288e-14 0.0 0.010000883417050065 0.009992612693913978 0.0 4.078900543997642e-14 0.0 0.01 0.0 4.078900543997642e-14 0.0 0.010000740332205651 0.009992802278543716 0.0 7.788289107433721e-14 0.0 0.01 0.0 7.788289107433721e-14 0.0 0.010000614806693444 0.009992971417097127 0.0 5.171764679519571e-14 0.0 0.01 0.0 5.171764679519571e-14 0.0 0.010000509788980072 0.00999311312090395 0.0 1.7701525257829013e-14 0.0 0.01 0.0 1.7701525257829013e-14 0.0 0.010000422876822209 0.00999322688747759 0.0 4.105570876460157e-15 0.0 0.01 0.0 4.105570876460157e-15 0.0 0.010000355018904868 0.009993307723983241 0.0 1.817193857938469e-15 0.0 0.01 0.0 1.817193857938469e-15 0.0 0.010000306664105856 0.009993357624040015 0.0 -9.23249324642793e-16 0.0 0.01 0.0 -9.23249324642793e-16 0.0 0.010000278311618172 0.009991061997480092 0.0 9.852751344553788e-15 0.0 0.01 0.0 9.852751344553788e-15 0.0 0.010001195514354017 0.00999130186181711 0.0 -2.6360598134512883e-15 0.0 0.01 0.0 -2.6360598134512883e-15 0.0 0.01000101380414899 0.009991537753574581 0.0 1.8346176305482566e-13 0.0 0.01 0.0 1.8346176305477396e-13 0.0 0.010000855109669377 0.00999176019535735 0.0 2.351467558134015e-13 0.0 0.01 0.0 2.351467558134015e-13 0.0 0.01000071882749952 0.00999195721337815 0.0 1.7152752408614633e-13 0.0 0.01 0.0 1.7152752408614633e-13 0.0 0.010000604554818562 0.009992123814925202 0.0 9.414507744079586e-14 0.0 0.01 0.0 9.414507744079586e-14 0.0 0.010000513239509517 0.009992254508198944 0.0 4.8535333574091607e-14 0.0 0.01 0.0 4.8535333574091607e-14 0.0 0.010000441429227243 0.009992349787825205 0.0 2.0631977692480177e-14 0.0 0.01 0.0 2.0631977692480177e-14 0.0 0.01000039212306287 0.009992405161006872 0.0 5.41486888086403e-15 0.0 0.01 0.0 5.41486888086403e-15 0.0 0.010000360869533082 0.009989772212570839 0.0 1.195119227709329e-14 0.0 0.01 0.0 1.195119227709329e-14 0.0 0.010001353324673586 0.009990059342172206 0.0 1.186829161677436e-13 0.0 0.01 0.0 1.186829161677436e-13 0.0 0.010001155450228939 0.009990341012450764 0.0 4.0461126948461187e-13 0.0 0.01 0.0 4.0461126948461187e-13 0.0 0.010000985495661115 0.009990599771277442 0.0 4.462971721735188e-13 0.0 0.01 0.0 4.462971721735705e-13 0.0 0.01000084385680213 0.009990829131169257 0.0 3.2305640431912234e-13 0.0 0.01 0.0 3.2305640431917404e-13 0.0 0.010000727629408979 0.009991020110261713 0.0 1.8376040970156746e-13 0.0 0.01 0.0 1.8376040970151576e-13 0.0 0.010000632860071712 0.009991169709889398 0.0 9.276636138455031e-14 0.0 0.01 0.0 9.276636138455031e-14 0.0 0.01000056059713685 0.00999127692708976 0.0 4.1886449168685814e-14 0.0 0.01 0.0 4.1886449168685814e-14 0.0 0.010000511739278883 0.0099913422564716 0.0 8.696994302073826e-15 0.0 0.01 0.0 8.696994302073826e-15 0.0 0.010000481484771905 0.00998836035378964 0.0 -1.0635019789182031e-13 0.0 0.01 0.0 -1.0635019789182031e-13 0.0 0.010001523297994835 0.009988703669931553 0.0 2.2182828384492909e-13 0.0 0.01 0.0 2.2182828384492909e-13 0.0 0.010001312258258076 0.009989031572388313 0.0 6.133471262489175e-13 0.0 0.01 0.0 6.133471262489175e-13 0.0 0.010001138394361756 0.009989329104535434 0.0 6.333514288916008e-13 0.0 0.01 0.0 6.333514288917042e-13 0.0 0.010001000650175082 0.009989588781619797 0.0 4.3837960638566203e-13 0.0 0.01 0.0 4.3837960638571373e-13 0.0 0.010000889768739177 0.00998980561005415 0.0 2.4571334272871536e-13 0.0 0.01 0.0 2.457133427286895e-13 0.0 0.0100007998959648 0.009989973100992687 0.0 1.2063508081226956e-13 0.0 0.01 0.0 1.2063508081226956e-13 0.0 0.010000733980801268 0.009990093241050794 0.0 5.2452268111624716e-14 0.0 0.01 0.0 5.2452268111624716e-14 0.0 0.010000685620504877 0.009990166025103046 0.0 1.2612774926033847e-14 0.0 0.01 0.0 1.2612774926033847e-14 0.0 0.010000658264991216 0.009986860442640138 0.0 -8.987905980910331e-13 0.0 0.01 0.0 -8.987905980910331e-13 0.0 0.010001707937457935 0.009987263872724849 0.0 -1.1144731010144437e-13 0.0 0.01 0.0 -1.1144731010144437e-13 0.0 0.010001492534082213 0.009987637960843624 0.0 4.885217762622003e-13 0.0 0.01 0.0 4.885217762622003e-13 0.0 0.010001330365433743 0.009987972733120801 0.0 5.999810400563619e-13 0.0 0.01 0.0 5.999810400563102e-13 0.0 0.010001207718752465 0.009988260704064006 0.0 4.241877002374468e-13 0.0 0.01 0.0 4.241877002374468e-13 0.0 0.010001112485616104 0.009988499370139374 0.0 2.3004358869282367e-13 0.0 0.01 0.0 2.3004358869277197e-13 0.0 0.010001036761208787 0.009988684734301766 0.0 1.085873740520346e-13 0.0 0.01 0.0 1.085873740520346e-13 0.0 0.010000977693363958 0.009988817784296269 0.0 4.56725939503294e-14 0.0 0.01 0.0 4.56725939503294e-14 0.0 0.010000936181448948 0.009988898015514251 0.0 1.2840729767958906e-14 0.0 0.01 0.0 1.2840729767958906e-14 0.0 0.01000091127454806 0.009985352744279358 0.0 -3.6226124889276078e-12 0.0 0.01 0.0 -3.6226124889276078e-12 0.0 0.01000192390506922 0.00998581324680203 0.0 -2.0138552052605106e-12 0.0 0.01 0.0 -2.0138552052605106e-12 0.0 0.010001721144248679 0.009986231986018132 0.0 -8.108686238247522e-13 0.0 0.01 0.0 -8.108686238247522e-13 0.0 0.010001583876220129 0.009986598986289034 0.0 -1.0900394638087994e-13 0.0 0.01 0.0 -1.0900394638087994e-13 0.0 0.01000149103341081 0.009986911740295833 0.0 8.934332585302799e-14 0.0 0.01 0.0 8.934332585302799e-14 0.0 0.010001419252084308 0.00998716873850969 0.0 8.62502245838822e-14 0.0 0.01 0.0 8.62502245838822e-14 0.0 0.010001362078238037 0.009987368473690856 0.0 5.080543046491538e-14 0.0 0.01 0.0 5.080543046491538e-14 0.0 0.0100013161597959 0.009987511931788788 0.0 2.3364697518455638e-14 0.0 0.01 0.0 2.3364697518455638e-14 0.0 0.010001282496677477 0.009987597112959412 0.0 5.759652473857265e-15 0.0 0.01 0.0 5.759652473857265e-15 0.0 0.01000126343940154 0.009983967638077898 0.0 -9.623490028933795e-12 0.0 0.01 0.0 -9.623490028932968e-12 0.0 0.01000220973222174 0.009984482692895444 0.0 -6.9774933417526994e-12 0.0 0.01 0.0 -6.977493341754354e-12 0.0 0.010002026966122231 0.00998493610662774 0.0 -4.636936642165059e-12 0.0 0.01 0.0 -4.636936642165059e-12 0.0 0.010001926806744603 0.009985327356263644 0.0 -2.3935616232165997e-12 0.0 0.01 0.0 -2.3935616232165997e-12 0.0 0.0100018755275086 0.009985658411276901 0.0 -1.013416398692201e-12 0.0 0.01 0.0 -1.0134163986923045e-12 0.0 0.010001837406285241 0.00998592925369957 0.0 -3.645378776435553e-13 0.0 0.01 0.0 -3.645378776435036e-13 0.0 0.010001801736821386 0.009986139370905521 0.0 -1.1643718303132703e-13 0.0 0.01 0.0 -1.1643718303132703e-13 0.0 0.010001772921376101 0.009986288751393098 0.0 -2.5858494118832274e-14 0.0 0.01 0.0 -2.5858494118832274e-14 0.0 0.010001749008747757 0.00998637838290346 0.0 -3.813994047864027e-15 0.0 0.01 0.0 -3.813994047864027e-15 0.0 0.010001735301586252 0.00998290593119236 0.0 -1.7926960951674047e-11 0.0 0.01 0.0 -1.79269609516757e-11 0.0 0.010002618227908763 0.009983458633229653 0.0 -1.4803177372003447e-11 0.0 0.01 0.0 -1.4803177372005102e-11 0.0 0.010002456454829188 0.00998393081595566 0.0 -1.1859478036037229e-11 0.0 0.01 0.0 -1.1859478036036402e-11 0.0 0.01000239636110684 0.009984335384055444 0.0 -7.317169886229929e-12 0.0 0.01 0.0 -7.317169886229929e-12 0.0 0.010002391007264057 0.009984673805971777 0.0 -3.625894664467762e-12 0.0 0.01 0.0 -3.625894664467762e-12 0.0 0.010002390506905363 0.009984952532214266 0.0 -1.4879094215485214e-12 0.0 0.01 0.0 -1.487909421548418e-12 0.0 0.010002381700604544 0.00998516806332948 0.0 -5.106008399587604e-13 0.0 0.01 0.0 -5.106008399587604e-13 0.0 0.010002368040877136 0.009985320387038301 0.0 -1.5310354781179452e-13 0.0 0.01 0.0 -1.5310354781179452e-13 0.0 0.010002354831523641 0.009985413974996325 0.0 -3.347645545987101e-14 0.0 0.01 0.0 -3.347645545987101e-14 0.0 0.01000234357359322 0.00998242145963857 0.0 -2.2524845430809326e-11 0.0 0.01 0.0 -2.2524845430809326e-11 0.0 0.010003225660061447 0.00998297855826437 0.0 -2.0034930220908738e-11 0.0 0.01 0.0 -2.0034930220908738e-11 0.0 0.010003069762938343 0.00998345266296025 0.0 -1.9808543500741538e-11 0.0 0.01 0.0 -1.9808543500743193e-11 0.0 0.010003037983841315 0.009983854685021935 0.0 -1.443478520274366e-11 0.0 0.01 0.0 -1.4434785202742005e-11 0.0 0.010003069262477774 0.009984189574631559 0.0 -8.03600511175685e-12 0.0 0.01 0.0 -8.036005111757678e-12 0.0 0.010003105946436469 0.009984462785914422 0.0 -3.5393700548024278e-12 0.0 0.01 0.0 -3.5393700548028414e-12 0.0 0.01000312206148179 0.009984675796790741 0.0 -1.262774294365523e-12 0.0 0.01 0.0 -1.262774294365523e-12 0.0 0.010003121561013375 0.009984827600244125 0.0 -3.773979435229642e-13 0.0 0.01 0.0 -3.773979435229125e-13 0.0 0.010003113253248607 0.009984919183380944 0.0 -7.752713349472598e-14 0.0 0.01 0.0 -7.752713349472598e-14 0.0 0.010003102993688158 0.009982832808276053 0.0 -1.3377600928885229e-11 0.0 0.01 0.0 -1.3377600928884402e-11 0.0 0.01000411679080027 0.009983358632629887 0.0 -1.1166646633722572e-11 0.0 0.01 0.0 -1.1166646633722572e-11 0.0 0.010003935922504028 0.009983800449013817 0.0 -2.0572941168049675e-11 0.0 0.01 0.0 -2.057294116804802e-11 0.0 0.010003904135151117 0.00998417613858972 0.0 -1.9810722823031834e-11 0.0 0.01 0.0 -1.9810722823031834e-11 0.0 0.010003952041560979 0.009984489660366934 0.0 -1.2734896978883004e-11 0.0 0.01 0.0 -1.2734896978883004e-11 0.0 0.0100040097103779 0.009984744480774287 0.0 -5.90728210369764e-12 0.0 0.01 0.0 -5.907282103698053e-12 0.0 0.010004041999343728 0.009984946559264333 0.0 -2.0402816422789407e-12 0.0 0.01 0.0 -2.040281642278527e-12 0.0 0.010004046905291481 0.009985090410788124 0.0 -5.438731265770243e-13 0.0 0.01 0.0 -5.438731265770243e-13 0.0 0.010004039045766418 0.009985179014474667 0.0 -9.972756844308169e-14 0.0 0.01 0.0 -9.972756844308169e-14 0.0 0.010004029283961727 0.00998458422035083 0.0 1.8990061835428592e-11 0.0 0.01 0.0 1.8990061835428592e-11 0.0 0.010005360256774712 0.009985016244347202 0.0 2.4894816732761764e-11 0.0 0.01 0.0 2.4894816732763418e-11 0.0 0.010005120129676345 0.009985387590890741 0.0 -2.4899792564355316e-12 0.0 0.01 0.0 -2.4899792564355316e-12 0.0 0.010005047268668197 0.00998570570753824 0.0 -1.5459962494097296e-11 0.0 0.01 0.0 -1.545996249409564e-11 0.0 0.010005078566157085 0.009985975060111538 0.0 -1.3299280596090796e-11 0.0 0.01 0.0 -1.329928059609245e-11 0.0 0.010005130395444607 0.009986197130565824 0.0 -6.2613878349487615e-12 0.0 0.01 0.0 -6.261387834949175e-12 0.0 0.010005161693713606 0.009986374399229534 0.0 -1.6193364541106997e-12 0.0 0.01 0.0 -1.619336454110493e-12 0.0 0.010005164147510315 0.009986504369051012 0.0 -1.0070637567062033e-13 0.0 0.01 0.0 -1.0070637567062033e-13 0.0 0.010005148022593576 0.009986583050565878 0.0 5.033301802806618e-14 0.0 0.01 0.0 5.033301802806618e-14 0.0 0.010005132348447998 0.009988224830892888 0.0 7.146658605079767e-11 0.0 0.01 0.0 7.146658605079767e-11 0.0 0.010006972134827109 0.00998848840806587 0.0 9.262579339221267e-11 0.0 0.01 0.0 9.262579339220605e-11 0.0 0.010006649676854494 0.00998873755501152 0.0 4.292995031871513e-11 0.0 0.01 0.0 4.292995031871513e-11 0.0 0.010006501935782397 0.009988960308165758 0.0 7.707937975805178e-12 0.0 0.01 0.0 7.707937975805178e-12 0.0 0.010006477488246868 0.00998915965248238 0.0 -2.5895119889152275e-12 0.0 0.01 0.0 -2.5895119889152275e-12 0.0 0.010006496074369224 0.009989328107733434 0.0 -1.1197046052030783e-13 0.0 0.01 0.0 -1.1197046052030783e-13 0.0 0.010006502937734394 0.009989465669229886 0.0 2.4664637504679594e-12 0.0 0.01 0.0 2.4664637504679594e-12 0.0 0.010006485303423166 0.009989568844081781 0.0 2.0164782722403447e-12 0.0 0.01 0.0 2.0164782722405514e-12 0.0 0.010006451537985121 0.009989632146177164 0.0 6.240843323064718e-13 0.0 0.01 0.0 6.240843323064718e-13 0.0 0.010006425638021716 0.009994241477908372 0.0 1.1001495126556942e-10 0.0 0.01 0.0 1.1001495126558266e-10 0.0 0.010008890241421427 0.009994264438276574 0.0 1.7067805898732674e-10 0.0 0.01 0.0 1.7067805898732674e-10 0.0 0.010008492255524625 0.009994333320330638 0.0 1.0802835973342267e-10 0.0 0.01 0.0 1.0802835973342267e-10 0.0 0.010008253356451472 0.009994420173646244 0.0 5.134932005117446e-11 0.0 0.01 0.0 5.134932005118108e-11 0.0 0.010008153511131736 0.009994513019349692 0.0 2.439826380285796e-11 0.0 0.01 0.0 2.4398263802854652e-11 0.0 0.010008113363328984 0.009994600875731306 0.0 1.6851427110809866e-11 0.0 0.01 0.0 1.685142711081152e-11 0.0 0.010008072764918658 0.009994679748774776 0.0 1.2698800705700659e-11 0.0 0.01 0.0 1.2698800705700659e-11 0.0 0.010008015978094557 0.009994741151234188 0.0 6.932940277434684e-12 0.0 0.01 0.0 6.932940277433857e-12 0.0 0.010007952827068829 0.009994779590748175 0.0 1.8974796009886556e-12 0.0 0.01 0.0 1.897479600988449e-12 0.0 0.01000790586553347 0.010002742327641813 0.0 8.194864965018004e-11 0.0 0.01 0.0 8.194864965019328e-11 0.0 0.010010970175344164 0.010002477970746644 0.0 2.09660591881382e-10 0.0 0.01 0.0 2.0966059188143494e-10 0.0 0.010010534222126511 0.010002319656871646 0.0 1.614666848451103e-10 0.0 0.01 0.0 1.6146668484513678e-10 0.0 0.0100102295250959 0.010002229745543127 0.0 1.0027092915203142e-10 0.0 0.01 0.0 1.0027092915205789e-10 0.0 0.010010052738339619 0.01000218091324998 0.0 6.218901203718672e-11 0.0 0.01 0.0 6.218901203718672e-11 0.0 0.010009941555552033 0.010002157948310213 0.0 4.291420576792204e-11 0.0 0.01 0.0 4.291420576792204e-11 0.0 0.010009839703935883 0.010002150593559023 0.0 2.831862184751846e-11 0.0 0.01 0.0 2.831862184752508e-11 0.0 0.010009730483943957 0.01000215159420449 0.0 1.4200424415215509e-11 0.0 0.01 0.0 1.4200424415215509e-11 0.0 0.01000962522894167 0.010002155496724677 0.0 3.744751240156421e-12 0.0 0.01 0.0 3.744751240157248e-12 0.0 0.010009552720757308 0.010013134230962522 0.0 -2.3113080537466812e-11 0.0 0.01 0.0 -2.311308053767857e-11 0.0 0.0100130057786144 0.010012581805502558 0.0 1.7168302929749125e-10 0.0 0.01 0.0 1.7168302928393872e-10 0.0 0.010012596510901592 0.010012176002206262 0.0 1.667244827710957e-10 0.0 0.01 0.0 1.6672448276431944e-10 0.0 0.010012278928844393 0.010011877578065766 0.0 1.2653697163564565e-10 0.0 0.01 0.0 1.2653697163649268e-10 0.0 0.01001205887746043 0.010011657553143006 0.0 9.186514987976529e-11 0.0 0.01 0.0 9.186514988061232e-11 0.0 0.010011889821611813 0.010011495391265704 0.0 6.598037293002718e-11 0.0 0.01 0.0 6.598037293002718e-11 0.0 0.010011723684536844 0.01001137874194165 0.0 4.222744205249022e-11 0.0 0.01 0.0 4.222744205249022e-11 0.0 0.010011552237338704 0.0100113003759544 0.0 2.0453696239878687e-11 0.0 0.01 0.0 2.0453696239878687e-11 0.0 0.010011399362235157 0.010011257731984198 0.0 5.303604439395508e-12 0.0 0.01 0.0 5.303604439395508e-12 0.0 0.010011294004408929 0.010023975095987568 0.0 -1.3369873673259091e-10 0.0 0.01 0.0 -1.3369873673259091e-10 0.0 0.01001477191708151 0.010023179444637624 0.0 7.857386497189718e-11 0.0 0.01 0.0 7.857386497189718e-11 0.0 0.010014468339462406 0.010022539375147674 0.0 1.1759498597831063e-10 0.0 0.01 0.0 1.1759498597828416e-10 0.0 0.010014209428902292 0.010022026159622463 0.0 1.1116687240776483e-10 0.0 0.01 0.0 1.111668724077913e-10 0.0 0.010013998087205132 0.010021616741045566 0.0 9.256366734625234e-11 0.0 0.01 0.0 9.256366734625234e-11 0.0 0.010013799009439602 0.010021293418872887 0.0 6.986068018643052e-11 0.0 0.01 0.0 6.986068018643052e-11 0.0 0.010013582823932107 0.010021049677289106 0.0 4.4537672585631035e-11 0.0 0.01 0.0 4.4537672585631035e-11 0.0 0.010013357264895138 0.010020879159327131 0.0 2.1223497587995032e-11 0.0 0.01 0.0 2.1223497587991724e-11 0.0 0.010013155313883491 0.010020776973477582 0.0 5.443161950711447e-12 0.0 0.01 0.0 5.443161950712274e-12 0.0 0.010013019030210608 0.010033212581647062 0.0 -1.6687733574406878e-10 0.0 0.01 0.0 -1.66877335744082e-10 0.0 0.010016116979995007 0.010032254484339203 0.0 -5.610089733127683e-12 0.0 0.01 0.0 -5.610089733127683e-12 0.0 0.010015963945930052 0.010031417945274405 0.0 4.647213422128829e-11 0.0 0.01 0.0 4.6472134221294905e-11 0.0 0.010015826040412876 0.010030702822864654 0.0 6.281875785418208e-11 0.0 0.01 0.0 6.281875785418208e-11 0.0 0.010015677390171167 0.010030103640808263 0.0 6.166995001410244e-11 0.0 0.01 0.0 6.166995001410244e-11 0.0 0.010015488057828396 0.010029612467306168 0.0 4.970534871341154e-11 0.0 0.01 0.0 4.970534871341154e-11 0.0 0.010015250164327924 0.010029234147435331 0.0 3.210033698419522e-11 0.0 0.01 0.0 3.210033698419853e-11 0.0 0.010014988732091416 0.010028962741913543 0.0 1.5158651513522726e-11 0.0 0.01 0.0 1.5158651513522726e-11 0.0 0.010014751828379458 0.01002879973770332 0.0 3.835097122104179e-12 0.0 0.01 0.0 3.835097122103765e-12 0.0 0.010014592428814027 0.01003901028883882 0.0 -1.2307873800244828e-10 0.0 0.01 0.0 -1.230787380024549e-10 0.0 0.010016981156223853 0.010037984886793529 0.0 -4.220429704072687e-11 0.0 0.01 0.0 -4.220429704072687e-11 0.0 0.010016996835867506 0.010037015563120612 0.0 -7.111554009917321e-12 0.0 0.01 0.0 -7.111554009918148e-12 0.0 0.01001699784097538 0.01003613931779427 0.0 1.2442240428668218e-11 0.0 0.01 0.0 1.2442240428669045e-11 0.0 0.010016943364564823 0.010035377301385736 0.0 2.0871404313332666e-11 0.0 0.01 0.0 2.087140431333432e-11 0.0 0.010016805468841171 0.010034745199048777 0.0 1.9998417570509667e-11 0.0 0.01 0.0 1.9998417570508012e-11 0.0 0.010016579691965817 0.010034244452647023 0.0 1.362446959369308e-11 0.0 0.01 0.0 1.3624469593694734e-11 0.0 0.010016309362709058 0.010033884852647914 0.0 6.415707729710766e-12 0.0 0.01 0.0 6.415707729710766e-12 0.0 0.010016059603958943 0.0100336682727932 0.0 1.5926799323184671e-12 0.0 0.01 0.0 1.5926799323184671e-12 0.0 0.010015890345373282 0.010040872778923354 0.0 -5.7681841666722693e-11 0.0 0.01 0.0 -5.768184166672931e-11 0.0 0.010017444942957266 0.01003986901962841 0.0 -3.6305341299054246e-11 0.0 0.01 0.0 -3.6305341299057555e-11 0.0 0.010017584825397455 0.010038852206822805 0.0 -2.379400447932489e-11 0.0 0.01 0.0 -2.3794004479326544e-11 0.0 0.010017708075579886 0.010037890065748995 0.0 -1.2231011376728206e-11 0.0 0.01 0.0 -1.2231011376727378e-11 0.0 0.010017756632977586 0.010037029365289584 0.0 -3.816969761449837e-12 0.0 0.01 0.0 -3.8169697614494236e-12 0.0 0.010017684500866063 0.010036302680156343 0.0 1.9483730233478075e-13 0.0 0.01 0.0 1.9483730233478075e-13 0.0 0.01001749651230178 0.010035725185473332 0.0 9.324450950820846e-13 0.0 0.01 0.0 9.324450950819812e-13 0.0 0.010017243699449575 0.010035307213488312 0.0 4.5361379593005923e-13 0.0 0.01 0.0 4.5361379593005923e-13 0.0 0.010017000755789927 0.010035053555074948 0.0 7.000852976749139e-14 0.0 0.01 0.0 7.000852976749139e-14 0.0 0.010016833409351358 0.010039775106561462 0.0 -1.4308111459914826e-11 0.0 0.01 0.0 -1.4308111459914e-11 0.0 0.010017625589942075 0.010038844821413609 0.0 -1.6043134717857673e-11 0.0 0.01 0.0 -1.6043134717857673e-11 0.0 0.010017827359146149 0.010037845614568445 0.0 -1.5271879754393315e-11 0.0 0.01 0.0 -1.5271879754393315e-11 0.0 0.010018030598399615 0.010036867939087212 0.0 -1.1703385689462025e-11 0.0 0.01 0.0 -1.1703385689462852e-11 0.0 0.01001815773604457 0.010035976923699376 0.0 -7.650612817637002e-12 0.0 0.01 0.0 -7.650612817637829e-12 0.0 0.0100181503459422 0.010035217420252995 0.0 -4.543520773748087e-12 0.0 0.01 0.0 -4.543520773747673e-12 0.0 0.010018008981962399 0.010034611467365177 0.0 -2.5305039278691495e-12 0.0 0.01 0.0 -2.5305039278691495e-12 0.0 0.010017786592138323 0.010034171913279278 0.0 -1.200668527132585e-12 0.0 0.01 0.0 -1.2006685271327918e-12 0.0 0.010017563764748778 0.010033903591909298 0.0 -3.31094797594881e-13 0.0 0.01 0.0 -3.3109479759490684e-13 0.0 0.010017408151280136 0.01003719428791864 0.0 2.6421463695573898e-14 0.0 0.01 0.0 2.6421463695573898e-14 0.0 0.010017625589942071 0.010036341702296918 0.0 -2.113171857843275e-12 0.0 0.01 0.0 -2.113171857843482e-12 0.0 0.010017826856467313 0.010035389126020778 0.0 -3.049810322937811e-12 0.0 0.01 0.0 -3.0498103229380178e-12 0.0 0.010018059554590585 0.010034440761360227 0.0 -2.9120689741875365e-12 0.0 0.01 0.0 -2.91206897418795e-12 0.0 0.0100182318893377 0.010033570139663632 0.0 -2.2867034549460436e-12 0.0 0.01 0.0 -2.2867034549462504e-12 0.0 0.010018269192837164 0.010032824462358937 0.0 -1.5893120062484268e-12 0.0 0.01 0.0 -1.5893120062484268e-12 0.0 0.010018165578620083 0.010032230352414889 0.0 -9.731281073073947e-13 0.0 0.01 0.0 -9.731281073073947e-13 0.0 0.010017975602436549 0.01003179651233816 0.0 -4.728719352613844e-13 0.0 0.01 0.0 -4.728719352613327e-13 0.0 0.010017777292705636 0.010031533277500216 0.0 -1.2710204265227387e-13 0.0 0.01 0.0 -1.2710204265227387e-13 0.0 0.0100176368995525 0.010034233086695073 0.0 -2.5910769237936166e-12 0.0 0.01 0.0 -2.5910769237938234e-12 0.0 0.010017493546791574 0.010033426152311304 0.0 1.5105909560649368e-12 0.0 0.01 0.0 1.5105909560649368e-12 0.0 0.010017656000314868 0.010032520754830958 0.0 2.224887759886216e-12 0.0 0.01 0.0 2.2248877598860092e-12 0.0 0.010017876923650955 0.010031618075722408 0.0 1.9630378602170955e-12 0.0 0.01 0.0 1.9630378602170955e-12 0.0 0.010018059554590583 0.010030792040796325 0.0 1.567919291400758e-12 0.0 0.01 0.0 1.5679192914005512e-12 0.0 0.01001811550710843 0.010030085427355446 0.0 1.17167263769317e-12 0.0 0.01 0.0 1.17167263769317e-12 0.0 0.010018035022245873 0.01002952428972864 0.0 7.647149217708609e-13 0.0 0.01 0.0 7.647149217708609e-13 0.0 0.010017868076383177 0.010029114960323424 0.0 3.8208013769084487e-13 0.0 0.01 0.0 3.8208013769084487e-13 0.0 0.010017688924253839 0.010028868680655228 0.0 1.0336740952555698e-13 0.0 0.01 0.0 1.0336740952555698e-13 0.0 0.010017562759470541 0.01003124644326351 0.0 -1.1735441322932863e-11 0.0 0.01 0.0 -1.1735441322934518e-11 0.0 0.0100172353564491 0.010030444114416212 0.0 -8.780687062850614e-13 0.0 0.01 0.0 -8.78068706284958e-13 0.0 0.010017345324899812 0.010029564695755515 0.0 1.3335646820475858e-12 0.0 0.01 0.0 1.3335646820475858e-12 0.0 0.010017533304952508 0.010028704672395023 0.0 1.574552860434635e-12 0.0 0.01 0.0 1.574552860434635e-12 0.0 0.010017696263069212 0.010027927608570299 0.0 1.5266108874738992e-12 0.0 0.01 0.0 1.5266108874743128e-12 0.0 0.010017748791362453 0.010027269338341171 0.0 1.3894756157389486e-12 0.0 0.01 0.0 1.3894756157391554e-12 0.0 0.010017672738704343 0.010026749045203748 0.0 1.0495911775556517e-12 0.0 0.01 0.0 1.0495911775554449e-12 0.0 0.010017517120157299 0.010026373014723878 0.0 5.662952488686268e-13 0.0 0.01 0.0 5.6629524886842e-13 0.0 0.010017349245231363 0.010026147094225366 0.0 1.5753680300682972e-13 0.0 0.01 0.0 1.5753680300682972e-13 0.0 0.010017230933662129 0.010027984230805483 0.0 -2.2105664516248713e-11 0.0 0.01 0.0 -2.2105664516242095e-11 0.0 0.010016835871745663 0.010027147751255178 0.0 -3.645489001466083e-12 0.0 0.01 0.0 -3.645489001466083e-12 0.0 0.01001689476873832 0.010026275045092747 0.0 -4.2267645014336957e-13 0.0 0.01 0.0 -4.2267645014347297e-13 0.0 0.010017041010644122 0.010025450833068373 0.0 3.7842438584191e-14 0.0 0.01 0.0 3.7842438584191e-14 0.0 0.010017175498544983 0.010024720262510825 0.0 3.1024927552518154e-13 0.0 0.01 0.0 3.1024927552518154e-13 0.0 0.010017207412575266 0.010024109863374802 0.0 6.377368456931172e-13 0.0 0.01 0.0 6.377368456931172e-13 0.0 0.010017122476696595 0.010023633316827273 0.0 7.101000217988163e-13 0.0 0.01 0.0 7.101000217990231e-13 0.0 0.010016965426398914 0.01002329056562107 0.0 4.552276366301834e-13 0.0 0.01 0.0 4.552276366302868e-13 0.0 0.01001680154914801 0.010023085042537145 0.0 1.3461229378767376e-13 0.0 0.01 0.0 1.346122937876996e-13 0.0 0.010016687679045035 0.010024014931372092 0.0 -2.7653489273617175e-11 0.0 0.01 0.0 -2.7653489273617175e-11 0.0 0.010016273538187985 0.010023125874264988 0.0 -1.2941741720738804e-12 0.0 0.01 0.0 -1.294174172074294e-12 0.0 0.010016295093148286 0.0100222532613579 0.0 1.649392712949193e-12 0.0 0.01 0.0 1.649392712949193e-12 0.0 0.010016403573487565 0.01002146098894847 0.0 1.2019543881713918e-12 0.0 0.01 0.0 1.2019543881713918e-12 0.0 0.010016504620642528 0.010020780897839488 0.0 8.88034325002441e-13 0.0 0.01 0.0 8.880343250032682e-13 0.0 0.010016512509584416 0.010020221823354977 0.0 9.989819965603667e-13 0.0 0.01 0.0 9.989819965599531e-13 0.0 0.010016410909478416 0.010019792003835258 0.0 9.88068007395005e-13 0.0 0.01 0.0 9.88068007395005e-13 0.0 0.010016245049677725 0.010019484046636636 0.0 6.113828012202677e-13 0.0 0.01 0.0 6.113828012204745e-13 0.0 0.010016080705363703 0.010019300834880392 0.0 1.7710543220478678e-13 0.0 0.01 0.0 1.7710543220468338e-13 0.0 0.010015967864639999 0.010019177073307173 0.0 -2.139315985465866e-11 0.0 0.01 0.0 -2.139315985465866e-11 0.0 0.01001555230604545 0.010018237771398212 0.0 7.96146547359549e-12 0.0 0.01 0.0 7.961465473592182e-12 0.0 0.010015548890159159 0.010017380155699055 0.0 8.14760050232019e-12 0.0 0.01 0.0 8.14760050232019e-12 0.0 0.010015627858306309 0.01001663958943974 0.0 5.445493209906406e-12 0.0 0.01 0.0 5.445493209919641e-12 0.0 0.01001570145307662 0.010016024284525128 0.0 3.725150650037042e-12 0.0 0.01 0.0 3.725150650023807e-12 0.0 0.01001568231325671 0.010015532212646882 0.0 2.915179864997362e-12 0.0 0.01 0.0 2.915179864997362e-12 0.0 0.010015565567754752 0.010015156438140235 0.0 2.173707441250352e-12 0.0 0.01 0.0 2.173707441237117e-12 0.0 0.010015389954844071 0.010014892100266489 0.0 1.1956951405312743e-12 0.0 0.01 0.0 1.1956951405312743e-12 0.0 0.010015222689122468 0.010014734150421653 0.0 3.2868093408796914e-13 0.0 0.01 0.0 3.2868093408796914e-13 0.0 0.010015106411734509 0.010013799009439597 0.0 -5.1018803031323426e-12 0.0 0.01 0.0 -5.1018803031323426e-12 0.0 0.010014689554171341 0.010012847466265035 0.0 1.85712652716482e-11 0.0 0.01 0.0 1.85712652716482e-11 0.0 0.0100146748395483 0.010012041263940327 0.0 1.4287906042925067e-11 0.0 0.01 0.0 1.428790604291845e-11 0.0 0.010014736109054411 0.01001138315698161 0.0 9.432776539132167e-12 0.0 0.01 0.0 9.432776539132167e-12 0.0 0.01001478713435378 0.010010861419974797 0.0 6.573993658864384e-12 0.0 0.01 0.0 6.5739936588676924e-12 0.0 0.010014751326163454 0.0100104572803657 0.0 4.923967106118681e-12 0.0 0.01 0.0 4.9239671061170265e-12 0.0 0.010014619898832731 0.010010154596458945 0.0 3.430606731069782e-12 0.0 0.01 0.0 3.430606731069782e-12 0.0 0.010014434041195905 0.010009943511374199 0.0 1.7882704736401008e-12 0.0 0.01 0.0 1.7882704736401008e-12 0.0 0.010014261902364163 0.010009819644899843 0.0 4.880142733836775e-13 0.0 0.01 0.0 4.880142733836775e-13 0.0 0.010014146662686851 0.010008574966911779 0.0 8.031957051352648e-12 0.0 0.01 0.0 8.031957051352648e-12 0.0 0.010013722544641859 0.01000765723601873 0.0 2.1001886426167583e-11 0.0 0.01 0.0 2.10018864261742e-11 0.0 0.01001370632810425 0.010006940819564757 0.0 1.4157607624904503e-11 0.0 0.01 0.0 1.4157607624901194e-11 0.0 0.010013760299858199 0.010006393325970227 0.0 9.341973149939112e-12 0.0 0.01 0.0 9.341973149939112e-12 0.0 0.010013798507366929 0.010005985369411783 0.0 6.80119439247065e-12 0.0 0.01 0.0 6.80119439247065e-12 0.0 0.010013746543253856 0.010005681087548849 0.0 5.2048242698578375e-12 0.0 0.01 0.0 5.204824269859492e-12 0.0 0.01001360536561285 0.010005461971713519 0.0 3.6241545418292443e-12 0.0 0.01 0.0 3.624154541828417e-12 0.0 0.010013413640675036 0.0100053118293341 0.0 1.8621363572378767e-12 0.0 0.01 0.0 1.8621363572382903e-12 0.0 0.010013238140933712 0.010005224291132781 0.0 4.94927831513873e-13 0.0 0.01 0.0 4.94927831513873e-13 0.0 0.010013121480879699 0.010004159844206661 0.0 8.061654568303228e-12 0.0 0.01 0.0 8.061654568303228e-12 0.0 0.010012697994978108 0.010003305838563029 0.0 1.2349759302302963e-11 0.0 0.01 0.0 1.2349759302302963e-11 0.0 0.010012687203992496 0.010002691536265281 0.0 7.362037733689164e-12 0.0 0.01 0.0 7.362037733688337e-12 0.0 0.010012739151615612 0.010002262967921864 0.0 5.170503968994195e-12 0.0 0.01 0.0 5.170503968994195e-12 0.0 0.010012767560029752 0.010001965929579946 0.0 4.299325148737277e-12 0.0 0.01 0.0 4.299325148737277e-12 0.0 0.010012710241534278 0.010001759264142674 0.0 3.633653747756669e-12 0.0 0.01 0.0 3.6336537477562553e-12 0.0 0.01001256218167507 0.010001617092163502 0.0 2.6344170355714857e-12 0.0 0.01 0.0 2.6344170355714857e-12 0.0 0.01001236911144791 0.010001523297994837 0.0 1.371485441131558e-12 0.0 0.01 0.0 1.3714854411313512e-12 0.0 0.010012190705817362 0.010001471524744045 0.0 3.5983869922508673e-13 0.0 0.01 0.0 3.5983869922508673e-13 0.0 0.010012074082368783 0.01000089707069594 0.0 1.4499873815769216e-12 0.0 0.01 0.0 1.4499873815771284e-12 0.0 0.010011652184415132 0.010000100601518083 0.0 9.566994222699157e-13 0.0 0.01 0.0 9.566994222699157e-13 0.0 0.010011651180915558 0.00999957402721947 0.0 -1.1946654081885028e-13 0.0 0.01 0.0 -1.1946654081885028e-13 0.0 0.010011703112415032 0.009999237587199858 0.0 5.400316374724298e-13 0.0 0.01 0.0 5.400316374724298e-13 0.0 0.010011730056902743 0.009999027141986323 0.0 1.2160168911886731e-12 0.0 0.01 0.0 1.2160168911886731e-12 0.0 0.010011672254470085 0.00999889518312003 0.0 1.5192526636832652e-12 0.0 0.01 0.0 1.5192526636836788e-12 0.0 0.010011523287364113 0.009998813211303552 0.0 1.2729758817590791e-12 0.0 0.01 0.0 1.2729758817590791e-12 0.0 0.010011331732162504 0.009998764728921899 0.0 6.941546538008486e-13 0.0 0.01 0.0 6.941546538009519e-13 0.0 0.010011155338511499 0.009998738738657162 0.0 1.760203355260628e-13 0.0 0.01 0.0 1.760203355260628e-13 0.0 0.010011038751239085 0.009998778723763783 0.0 3.3073959842470516e-11 0.0 0.01 0.0 3.3073959842473825e-11 0.0 0.010010631179296745 0.009998019088756903 0.0 -6.399878803567804e-13 0.0 0.01 0.0 -6.399878803567804e-13 0.0 0.010010632182489638 0.009997539408474641 0.0 -8.664451808935454e-13 0.0 0.01 0.0 -8.664451808936488e-13 0.0 0.010010685051182045 0.009997254131383379 0.0 -7.211706531660215e-13 0.0 0.01 0.0 -7.211706531661249e-13 0.0 0.010010711536003213 0.009997093267855129 0.0 -5.090744570838267e-13 0.0 0.01 0.0 -5.090744570838267e-13 0.0 0.010010655205849501 0.009997004346628724 0.0 -5.946478741297899e-14 0.0 0.01 0.0 -5.946478741297899e-14 0.0 0.010010514610335815 0.009996958388273285 0.0 2.1867416774103282e-13 0.0 0.01 0.0 2.1867416774103282e-13 0.0 0.010010332893266367 0.00999693540933325 0.0 1.7175873794165845e-13 0.0 0.01 0.0 1.7175873794165845e-13 0.0 0.010010161467354914 0.009996925918078173 0.0 4.9582602441882973e-14 0.0 0.01 0.0 4.9582602441882973e-14 0.0 0.010010045366159183 0.00999758937194952 0.0 9.16871898405988e-10 0.0 0.01 0.0 9.16871898405988e-10 0.0 0.01000967366889727 0.009996842496104472 0.0 4.084719124335794e-11 0.0 0.01 0.0 4.0847191243364556e-11 0.0 0.01000966193493034 0.009996364982963385 0.0 9.32608505315074e-12 0.0 0.01 0.0 9.326085053149085e-12 0.0 0.010009706514194581 0.009996085299931928 0.0 3.0336398579518107e-12 0.0 0.01 0.0 3.033639857951397e-12 0.0 0.01000972953116821 0.009995929486711347 0.0 -5.869543936362614e-13 0.0 0.01 0.0 -5.869543936363131e-13 0.0 0.010009677128920876 0.009995849085944282 0.0 -1.262570918724201e-12 0.0 0.01 0.0 -1.2625709187239942e-12 0.0 0.010009550765164197 0.009995814629066577 0.0 -7.353415181775828e-13 0.0 0.01 0.0 -7.353415181775828e-13 0.0 0.01000938379182582 0.009995803143519858 0.0 -2.4607724405377473e-13 0.0 0.01 0.0 -2.4607724405372303e-13 0.0 0.010009223695808322 0.00999580164540799 0.0 -4.4026414285995745e-14 0.0 0.01 0.0 -4.4026414285995745e-14 0.0 0.010009113994610835 0.009997041313596935 0.0 5.753113644691677e-09 0.0 0.01 0.0 5.753113644692524e-09 0.0 0.010008821709673751 0.009996308545032535 0.0 5.505204609036297e-10 0.0 0.01 0.0 5.505204609035239e-10 0.0 0.010008767867860143 0.009995794654228172 0.0 3.135209147867334e-11 0.0 0.01 0.0 3.1352091478666724e-11 0.0 0.010008783508966373 0.009995476071741807 0.0 1.2427429257306431e-11 0.0 0.01 0.0 1.2427429257306431e-11 0.0 0.010008793334827047 0.009995290329240335 0.0 9.128449939754441e-13 0.0 0.01 0.0 9.128449939753407e-13 0.0 0.010008746812640523 0.009995193966914628 0.0 -2.62403308227028e-12 0.0 0.01 0.0 -2.62403308227028e-12 0.0 0.010008638631012453 0.009995150529886377 0.0 -2.1587342796609003e-12 0.0 0.01 0.0 -2.1587342796609003e-12 0.0 0.010008493207947099 0.00999513505246143 0.0 -9.416708097421912e-13 0.0 0.01 0.0 -9.416708097421912e-13 0.0 0.010008348843852365 0.009995130559028944 0.0 -2.0569216879562574e-13 0.0 0.01 0.0 -2.0569216879562574e-13 0.0 0.010008250900381153 0.009996890950594717 0.0 2.085126308390116e-08 0.0 0.01 0.0 2.085126308390116e-08 0.0 0.010008105544402733 0.009996206659508568 0.0 3.220756387622752e-09 0.0 0.01 0.0 3.2207563876223287e-09 0.0 0.010007977786618636 0.009995649340883117 0.0 1.1351685223218252e-10 0.0 0.01 0.0 1.1351685223219575e-10 0.0 0.010007937189856637 0.009995258873874252 0.0 3.004423453956023e-11 0.0 0.01 0.0 3.004423453956354e-11 0.0 0.010007916139879057 0.009995016228174522 0.0 6.295165272264574e-12 0.0 0.01 0.0 6.295165272264574e-12 0.0 0.010007866672954563 0.009994877938017165 0.0 -3.098722061386411e-12 0.0 0.01 0.0 -3.098722061386411e-12 0.0 0.01000777565973932 0.00999480704781542 0.0 -3.875401106299447e-12 0.0 0.01 0.0 -3.875401106299447e-12 0.0 0.010007658689352493 0.009994776595445438 0.0 -2.0226460124823612e-12 0.0 0.01 0.0 -2.022646012482568e-12 0.0 0.010007542224199154 0.009994767110337867 0.0 -5.027892503624191e-13 0.0 0.01 0.0 -5.027892503624708e-13 0.0 0.010007459037293331 0.009996979869209319 0.0 5.65544854975772e-08 0.0 0.01 0.0 5.655448549759075e-08 0.0 0.010007537814718895 0.009996409934237853 0.0 1.3215178574234909e-08 0.0 0.01 0.0 1.3215178574234909e-08 0.0 0.010007321983899729 0.009995837600278964 0.0 1.095376893644573e-09 0.0 0.01 0.0 1.0953768936449966e-09 0.0 0.010007195759398093 0.009995363226944597 0.0 6.066901934359882e-11 0.0 0.01 0.0 6.066901934359882e-11 0.0 0.010007120397796046 0.009995036198346643 0.0 2.130738182819459e-11 0.0 0.01 0.0 2.130738182819459e-11 0.0 0.01000705090027464 0.009994835004334566 0.0 1.383817867128343e-12 0.0 0.01 0.0 1.383817867128343e-12 0.0 0.01000696967969992 0.009994723678874443 0.0 -3.858491832174988e-12 0.0 0.01 0.0 -3.858491832174988e-12 0.0 0.010006876736928252 0.009994666270337594 0.0 -2.767799371083934e-12 0.0 0.01 0.0 -2.7677993710843475e-12 0.0 0.010006788656626905 0.009994641310412732 0.0 -7.915669729348421e-13 0.0 0.01 0.0 -7.915669729349455e-13 0.0 0.010006724526812675 0.009997212168614883 0.0 1.2599751468775626e-07 0.0 0.01 0.0 1.2599751468775626e-07 0.0 0.010007112082446751 0.009996835003466618 0.0 4.0974745917973104e-08 0.0 0.01 0.0 4.097474591797988e-08 0.0 0.01000681455966126 0.00999631903343306 0.0 7.241489089979204e-09 0.0 0.01 0.0 7.241489089980051e-09 0.0 0.010006589507531452 0.009995785166221901 0.0 4.6084867733359987e-10 0.0 0.01 0.0 4.608486773336528e-10 0.0 0.010006434905877227 0.009995358733204365 0.0 5.2004744421047365e-11 0.0 0.01 0.0 5.200474442105398e-11 0.0 0.010006322891792431 0.00999506914939234 0.0 1.701032216292583e-11 0.0 0.01 0.0 1.7010322162929138e-11 0.0 0.010006230918817933 0.00999488942037489 0.0 1.96467946196205e-12 0.0 0.01 0.0 1.9646794619624636e-12 0.0 0.01000615312448546 0.00999479207120523 0.0 -1.3254949019682672e-12 0.0 0.01 0.0 -1.3254949019682672e-12 0.0 0.010006085650767556 0.009994744645717127 0.0 -6.203676714707951e-13 0.0 0.01 0.0 -6.203676714708985e-13 0.0 0.010006040618956599 0.009997511438161797 0.0 2.437844571168092e-07 0.0 0.01 0.0 2.437844571168092e-07 0.0 0.010006798936451618 0.009997387026139254 0.0 1.0449034011909169e-07 0.0 0.01 0.0 1.0449034011910524e-07 0.0 0.010006451038655464 0.009997017335115894 0.0 3.07175798356987e-08 0.0 0.01 0.0 3.0717579835705475e-08 0.0 0.010006140401193513 0.009996508329620225 0.0 5.260511158829884e-09 0.0 0.01 0.0 5.260511158829884e-09 0.0 0.010005889949646555 0.009996005394806095 0.0 4.201768131418385e-10 0.0 0.01 0.0 4.201768131418385e-10 0.0 0.010005710938500246 0.009995609393307788 0.0 4.7104191612974716e-11 0.0 0.01 0.0 4.7104191612974716e-11 0.0 0.010005584774975408 0.009995340758304062 0.0 1.755594551268129e-11 0.0 0.01 0.0 1.755594551268129e-11 0.0 0.010005497229609814 0.009995178988565055 0.0 4.626638509163425e-12 0.0 0.01 0.0 4.626638509163425e-12 0.0 0.010005438984166518 0.009995094112522713 0.0 6.759149179592366e-13 0.0 0.01 0.0 6.759149179592366e-13 0.0 0.010005403776967067 0.009997804249516731 0.0 4.1724811105042867e-07 0.0 0.01 0.0 4.1724811105037446e-07 0.0 0.010006543042188927 0.009997948139252116 0.0 2.2452204097945854e-07 0.0 0.01 0.0 2.2452204097945854e-07 0.0 0.010006193256267247 0.009997811719821047 0.0 9.402668765743076e-08 0.0 0.01 0.0 9.402668765745787e-08 0.0 0.01000583275050542 0.009997433988127746 0.0 2.9119156249479044e-08 0.0 0.01 0.0 2.911915624948582e-08 0.0 0.010005505543443063 0.009996951894214845 0.0 6.2724677927538235e-09 0.0 0.01 0.0 6.272467792752129e-09 0.0 0.010005244372639678 0.009996492346408682 0.0 8.417987868868949e-10 0.0 0.01 0.0 8.417987868868949e-10 0.0 0.010005060488691783 0.009996130746827118 0.0 7.434167855397539e-11 0.0 0.01 0.0 7.434167855397539e-11 0.0 0.010004941660589392 0.009995887038859652 0.0 1.5796306174365136e-11 0.0 0.01 0.0 1.5796306174365136e-11 0.0 0.010004869754868601 0.009995754205547155 0.0 3.4523486205203512e-12 0.0 0.01 0.0 3.452348620519524e-12 0.0 0.010004831599398464 0.009998082611833247 0.0 6.338008411349355e-07 0.0 0.01 0.0 6.338008411349355e-07 0.0 0.010006315137280288 0.009998397910273385 0.0 4.0985137111329995e-07 0.0 0.01 0.0 4.0985137111329995e-07 0.0 0.01000597998492119 0.009998539827196975 0.0 2.209319591673308e-07 0.0 0.01 0.0 2.2093195916743922e-07 0.0 0.010005620943012774 0.009998404883179391 0.0 9.794381251532007e-08 0.0 0.01 0.0 9.794381251532007e-08 0.0 0.010005257094089075 0.00999806656106015 0.0 3.5371730892428256e-08 0.0 0.01 0.0 3.5371730892414703e-08 0.0 0.010004937254253835 0.009997652826657781 0.0 1.0223478627569422e-08 0.0 0.01 0.0 1.0223478627571116e-08 0.0 0.01000469079849116 0.009997270118245891 0.0 2.18917809205266e-09 0.0 0.01 0.0 2.1891780920522364e-09 0.0 0.010004519662257304 0.009996977870542231 0.0 3.198502498280043e-10 0.0 0.01 0.0 3.198502498280043e-10 0.0 0.010004415022142853 0.009996799037580278 0.0 1.8373142600283343e-11 0.0 0.01 0.0 1.8373142600283343e-11 0.0 0.010004361251418932 0.009998624894270832 0.0 8.588070745400769e-07 0.0 0.01 0.0 8.588070745400769e-07 0.0 0.010006209990280672 0.009998739299817587 0.0 6.39789291029323e-07 0.0 0.01 0.0 6.39789291029323e-07 0.0 0.010005796597503891 0.009999063157570088 0.0 4.1565128659694795e-07 0.0 0.01 0.0 4.1565128659694795e-07 0.0 0.010005441964906787 0.009999231096887114 0.0 2.3381045867080586e-07 0.0 0.01 0.0 2.3381045867075165e-07 0.0 0.010005088339236063 0.009999159107998094 0.0 1.1319839992381293e-07 0.0 0.01 0.0 1.1319839992381293e-07 0.0 0.010004751936910737 0.009998924173960479 0.0 4.657771616378627e-08 0.0 0.01 0.0 4.657771616375917e-08 0.0 0.010004468343455758 0.009998632280686022 0.0 1.5583559812271222e-08 0.0 0.01 0.0 1.5583559812271222e-08 0.0 0.010004256115673358 0.009998371897696144 0.0 3.869688477816607e-09 0.0 0.01 0.0 3.869688477814913e-09 0.0 0.010004115339011289 0.009998196488015712 0.0 5.226030103493397e-10 0.0 0.01 0.0 5.226030103492338e-10 0.0 0.010004035141041154 0.009999891148906695 0.0 9.90783924975907e-07 0.0 0.01 0.0 9.90783924975907e-07 0.0 0.010006259920092209 0.009999413165344974 0.0 8.708401391783159e-07 0.0 0.01 0.0 8.708401391785327e-07 0.0 0.010005771706635363 0.009999453107196377 0.0 6.447966715613512e-07 0.0 0.01 0.0 6.447966715613512e-07 0.0 0.01000531384482375 0.009999771534759599 0.0 4.2383984722252094e-07 0.0 0.01 0.0 4.2383984722262937e-07 0.0 0.010004948046965266 0.010000018559136192 0.0 2.46173255792387e-07 0.0 0.01 0.0 2.4617325579227856e-07 0.0 0.010004637032396393 0.010000073253085748 0.0 1.2334839132927987e-07 0.0 0.01 0.0 1.2334839132927987e-07 0.0 0.01000436616011891 0.009999988000415209 0.0 5.1239698317391124e-08 0.0 0.01 0.0 5.123969831741823e-08 0.0 0.010004145626902538 0.009999852003325295 0.0 1.6288471259874322e-08 0.0 0.01 0.0 1.6288471259874322e-08 0.0 0.010003985781742403 0.009999738510258272 0.0 3.0332067514734208e-09 0.0 0.01 0.0 3.0332067514742678e-09 0.0 0.010003889468019379 0.01000188392428817 0.0 7.838818915275464e-07 0.0 0.01 0.0 7.838818915273296e-07 0.0 0.01000636160735356 0.010000988085816353 0.0 9.644857167456864e-07 0.0 0.01 0.0 9.644857167454696e-07 0.0 0.01000589354528781 0.010000417632989554 0.0 8.442631652498533e-07 0.0 0.01 0.0 8.442631652498533e-07 0.0 0.010005386305477412 0.010000312572157034 0.0 6.193818014115469e-07 0.0 0.01 0.0 6.193818014115469e-07 0.0 0.010004934357247905 0.010000554270028841 0.0 3.997346578521249e-07 0.0 0.01 0.0 3.9973465785201646e-07 0.0 0.010004593987707536 0.010000865820052052 0.0 2.2545586549635802e-07 0.0 0.01 0.0 2.2545586549635802e-07 0.0 0.01000434854244434 0.010001056819206778 0.0 1.0651382746217509e-07 0.0 0.01 0.0 1.065138274622293e-07 0.0 0.01000415884466011 0.010001126640595805 0.0 3.887892691486648e-08 0.0 0.01 0.0 3.887892691486648e-08 0.0 0.010004013665360387 0.010001134493042092 0.0 8.217678625400157e-09 0.0 0.01 0.0 8.217678625396769e-09 0.0 0.010003921755829684 0.010003122561954817 0.0 5.498113170472607e-09 0.0 0.01 0.0 5.498113170472607e-09 0.0 0.010006149718211683 0.010002755094298673 0.0 6.122128619163395e-07 0.0 0.01 0.0 6.122128619163395e-07 0.0 0.010005919858674304 0.010002290436871375 0.0 8.178509326951452e-07 0.0 0.01 0.0 8.178509326951452e-07 0.0 0.010005561386067268 0.010001873658187806 0.0 7.385890466778816e-07 0.0 0.01 0.0 7.385890466778816e-07 0.0 0.010005149556655105 0.010001584868756628 0.0 5.298393121744294e-07 0.0 0.01 0.0 5.298393121744294e-07 0.0 0.010004774459190667 0.010001557028757407 0.0 3.183028341225986e-07 0.0 0.01 0.0 3.1830283412303227e-07 0.0 0.010004490838510374 0.010001721148082567 0.0 1.5991389770795422e-07 0.0 0.01 0.0 1.5991389770806264e-07 0.0 0.010004299174677659 0.010001913149467457 0.0 6.255465930372992e-08 0.0 0.01 0.0 6.255465930378413e-08 0.0 0.010004175464306306 0.010002037222401703 0.0 1.403004135764295e-08 0.0 0.01 0.0 1.403004135764295e-08 0.0 0.010004097266793802 0.01000292804371543 0.0 -2.3400677258086661e-07 0.0 0.01 0.0 -2.3400677258086661e-07 0.0 0.010005626353015969 0.010003343488999356 0.0 2.935967262358667e-07 0.0 0.01 0.0 2.935967262356499e-07 0.0 0.010005554938079699 0.010003509187385138 0.0 5.238156116191446e-07 0.0 0.01 0.0 5.238156116191446e-07 0.0 0.010005350031444387 0.010003559086944076 0.0 5.022741129240803e-07 0.0 0.01 0.0 5.022741129240803e-07 0.0 0.010005089370391513 0.010003546804622464 0.0 3.5185623929257295e-07 0.0 0.01 0.0 3.5185623929257295e-07 0.0 0.010004810136925897 0.010003506749149096 0.0 1.9019520111716176e-07 0.0 0.01 0.0 1.9019520111694492e-07 0.0 0.010004586659104503 0.010003514052300677 0.0 7.68107272532386e-08 0.0 0.01 0.0 7.68107272532386e-08 0.0 0.01000444190871462 0.010003558048101484 0.0 1.752872993984549e-08 0.0 0.01 0.0 1.752872993979128e-08 0.0 0.010004360750810565 0.010003048244829657 0.0 -1.0420902718082927e-07 0.0 0.01 0.0 -1.0420902718077506e-07 0.0 0.010005385198559104 0.010003831302836608 0.0 1.192289573352179e-07 0.0 0.01 0.0 1.192289573352179e-07 0.0 0.010005337272060396 0.010004340228143822 0.0 1.6630685505591644e-07 0.0 0.01 0.0 1.6630685505548276e-07 0.0 0.010005115727064225 0.010004974411262524 0.0 1.158064338200801e-07 0.0 0.01 0.0 1.1580643382094746e-07 0.0 0.01000488442832453 0.010005547563309581 0.0 5.188695604489528e-08 0.0 0.01 0.0 5.18869560450037e-08 0.0 0.010004724546496053 0.010005955015132996 0.0 1.2295404199785137e-08 0.0 0.01 0.0 1.2295404199798689e-08 0.0 0.010004646786911361 0.01000243984851032 0.0 -1.9798426882991754e-07 0.0 0.01 0.0 -1.9798426882991754e-07 0.0 0.01000542040981268 0.010003108399430645 0.0 -6.880461177601006e-08 0.0 0.01 0.0 -6.880461177601006e-08 0.0 0.010005168555043357 0.010003775587227048 0.0 -1.716641889653648e-08 0.0 0.01 0.0 -1.716641889653648e-08 0.0 0.010004992035620547 0.010004303576523328 0.0 -2.5171339255433472e-09 0.0 0.01 0.0 -2.5171339255433472e-09 0.0 0.01000491281799801 0.009999662517084977 0.0 -2.573789715064212e-18 0.0 0.01 0.0 -2.573789715064212e-18 0.0 0.010000002950001304 0.009999662517084977 0.0 6.057854503537031e-18 0.0 0.01 0.0 6.057854503537031e-18 0.0 0.010000002950001304 0.009999662517084977 0.0 1.5083040749365485e-17 0.0 0.01 0.0 1.5083040749365485e-17 0.0 0.010000003900002281 0.009999662017135634 0.0 1.8112668006375066e-17 0.0 0.01 0.0 1.8112668006375066e-17 0.0 0.010000004900003601 0.009999662517084977 0.0 3.656562720588674e-17 0.0 0.01 0.0 3.656562720588674e-17 0.0 0.010000006350006049 0.009999662517084977 0.0 1.2936828213541677e-16 0.0 0.01 0.0 1.2936828213541677e-16 0.0 0.010000007800009127 0.009999663516983883 0.0 1.4332688481618562e-16 0.0 0.01 0.0 1.4332688481618562e-16 0.0 0.010000008800011615 0.009999667016632428 0.0 5.010935285638643e-16 0.0 0.01 0.0 5.010935285638643e-16 0.0 0.010000010750017335 0.00999959602448075 0.0 1.648577978066874e-19 0.0 0.01 0.0 1.648577978066874e-19 0.0 0.010000004400002904 0.009999595524541383 0.0 5.397575471739701e-18 0.0 0.01 0.0 5.397575471739701e-18 0.0 0.010000004900003601 0.00999959502460209 0.0 2.1830168845940446e-17 0.0 0.01 0.0 2.1830168845940446e-17 0.0 0.010000005350004294 0.009999594024723727 0.0 -4.3712956316467186e-18 0.0 0.01 0.0 -4.3712956316467186e-18 0.0 0.010000006850007037 0.009999593524784658 0.0 8.439243928011328e-18 0.0 0.01 0.0 8.439243928011328e-18 0.0 0.010000008300010334 0.009999593524784658 0.0 -4.244707275691924e-17 0.0 0.01 0.0 -4.244707275691924e-17 0.0 0.010000010750017335 0.009999594024723727 0.0 -3.3742233394367683e-16 0.0 0.01 0.0 -3.3742233394367683e-16 0.0 0.010000012700024194 0.009999595524541383 0.0 -5.986862457375827e-16 0.0 0.01 0.0 -5.986862457375827e-16 0.0 0.010000014150030033 0.009999532532780884 0.0 6.071671767845893e-19 0.0 0.01 0.0 6.071671767845893e-19 0.0 0.010000005850005133 0.009999532532780884 0.0 1.5095741166743193e-17 0.0 0.01 0.0 1.5095741166743193e-17 0.0 0.010000005850005133 0.009999532032851038 0.0 8.911486575633804e-18 0.0 0.01 0.0 8.911486575633804e-18 0.0 0.010000006850007037 0.00999953053306195 0.0 1.6821872480348328e-14 0.0 0.01 0.0 1.6821872480348328e-14 0.0 0.010000008300010334 0.009999528533344217 0.0 -1.3107328128391626e-17 0.0 0.01 0.0 -1.3107328128391626e-17 0.0 0.010000010750017335 0.0099995275334858 0.0 -1.7323654668104786e-16 0.0 0.01 0.0 -1.7323654668104786e-16 0.0 0.010000013650027948 0.0099995275334858 0.0 -5.731193646564355e-16 0.0 0.01 0.0 -5.731193646564355e-16 0.0 0.010000016100038882 0.009999529033273538 0.0 -1.5920385840736698e-15 0.0 0.01 0.0 -1.5920385840736698e-15 0.0 0.01000001805004887 0.009999468542370084 0.0 -1.8453730482369133e-19 0.0 0.01 0.0 -1.8453730482369133e-19 0.0 0.010000006850007037 0.009999468042449836 0.0 1.801622854690099e-17 0.0 0.01 0.0 1.801622854690099e-17 0.0 0.010000007300007994 0.00999946554284972 0.0 1.3011326526402806e-17 0.0 0.01 0.0 1.3011326526402806e-17 0.0 0.010000008300010334 0.00999946404309055 0.0 3.027537893304217e-17 0.0 0.01 0.0 3.027537893304217e-17 0.0 0.01000001025001576 0.009999462043412708 0.0 2.868200487470437e-17 0.0 0.01 0.0 2.868200487470437e-17 0.0 0.010000012200022326 0.009999459543817089 0.0 -1.2991107279908081e-16 0.0 0.01 0.0 -1.2991107279908081e-16 0.0 0.010000015150034429 0.009999457544141947 0.0 -5.630511067017167e-16 0.0 0.01 0.0 -5.630511067017167e-16 0.0 0.01000001805004887 0.009999457544141947 0.0 -1.7341027815525088e-15 0.0 0.01 0.0 -1.7341027815525088e-15 0.0 0.010000021500069338 0.009999390555717877 0.0 -1.144762442543918e-18 0.0 0.01 0.0 -1.144762442543918e-18 0.0 0.010000008300010334 0.009999390555717877 0.0 2.8036624686077708e-18 0.0 0.01 0.0 2.8036624686077708e-18 0.0 0.010000008300010334 0.009999388556084123 0.0 4.2778233386970155e-17 0.0 0.01 0.0 4.2778233386970155e-17 0.0 0.010000009300012973 0.009999385556635737 0.0 6.370151017877437e-17 0.0 0.01 0.0 6.370151017877437e-17 0.0 0.010000011700020532 0.00999938255719005 0.0 8.488080953695261e-17 0.0 0.01 0.0 8.488080953695261e-17 0.0 0.010000014650032193 0.009999377558119906 0.0 3.0933065825031097e-18 0.0 0.01 0.0 3.0933065825031097e-18 0.0 0.010000017600046464 0.00999937455868142 0.0 -5.363625659892989e-16 0.0 0.01 0.0 -5.363625659892989e-16 0.0 0.01000002100006615 0.009999373558869191 0.0 -1.7071836679036467e-15 0.0 0.01 0.0 -1.7071836679036467e-15 0.0 0.010000024400089305 0.009999300073491426 0.0 -1.8220562553489387e-18 0.0 0.01 0.0 -1.8220562553489387e-18 0.0 0.010000009300012973 0.009999298573806709 0.0 -9.642951785439296e-18 0.0 0.01 0.0 -9.642951785439296e-18 0.0 0.010000009300012973 0.009999296574228135 0.0 2.7248951075084087e-17 0.0 0.01 0.0 2.7248951075084087e-17 0.0 0.010000011250018984 0.009999293074968517 0.0 1.2331083054302885e-16 0.0 0.01 0.0 1.2331083054302885e-16 0.0 0.010000013650027948 0.00999928707624629 0.0 2.1668448921229417e-16 0.0 0.01 0.0 2.1668448921229417e-16 0.0 0.010000016100038882 0.009999281577427065 0.0 1.1732270477885271e-16 0.0 0.01 0.0 1.1732270477885271e-16 0.0 0.01000001955005733 0.009999275078834224 0.0 -3.486578565906615e-16 0.0 0.01 0.0 -3.486578565906615e-16 0.0 0.01000002395008604 0.009999272579378814 0.0 -1.262729537161082e-15 0.0 0.01 0.0 -1.262729537161082e-15 0.0 0.010000027350112205 0.00999918659925388 0.0 -8.08223097793707e-19 0.0 0.01 0.0 -8.08223097793707e-19 0.0 0.010000011250018984 0.00999918559949803 0.0 3.193315751252586e-17 0.0 0.01 0.0 3.193315751252586e-17 0.0 0.010000011250018984 0.009999182600232281 0.0 2.6439591762169882e-17 0.0 0.01 0.0 2.6439591762169882e-17 0.0 0.010000012700024194 0.00999917760146203 0.0 1.461215776744497e-16 0.0 0.01 0.0 1.461215776744497e-16 0.0 0.010000014150030033 0.00999917060319627 0.0 3.221978168726564e-16 0.0 0.01 0.0 3.221978168726564e-16 0.0 0.010000019050054435 0.009999163105070692 0.0 2.1390374120572094e-16 0.0 0.01 0.0 2.1390374120572094e-16 0.0 0.010000022950079004 0.00999915460721543 0.0 -2.8352456912057893e-16 0.0 0.01 0.0 -2.8352456912057893e-16 0.0 0.010000025900100622 0.009999148608742405 0.0 -1.0956729115305047e-15 0.0 0.01 0.0 -1.0956729115305047e-15 0.0 0.010000030750141836 0.009999051634926509 0.0 -8.69143731723724e-19 0.0 0.01 0.0 -8.69143731723724e-19 0.0 0.010000013650027948 0.009999050635211141 0.0 -4.266417351718114e-17 0.0 0.01 0.0 -4.266417351718114e-17 0.0 0.010000013650027948 0.009999047136209716 0.0 8.386913171482e-17 0.0 0.01 0.0 8.386913171482e-17 0.0 0.010000015150034429 0.009999039638361887 0.0 2.4142133650998513e-16 0.0 0.01 0.0 2.4142133650998513e-16 0.0 0.01000001805004887 0.009999031140821409 0.0 3.9482482249798593e-16 0.0 0.01 0.0 3.9482482249798593e-16 0.0 0.010000022950079004 0.009999020643889548 0.0 5.122877468605757e-16 0.0 0.01 0.0 5.122877468605757e-16 0.0 0.010000026850108139 0.00999901064684232 0.0 -3.080296505334976e-16 0.0 0.01 0.0 -3.080296505334976e-16 0.0 0.010000031250146485 0.00999900114967523 0.0 -1.1434212264457585e-15 0.0 0.01 0.0 -1.1434212264457585e-15 0.0 0.01000003565019064 0.009998891184448059 0.0 -7.719582688958043e-19 0.0 0.01 0.0 -7.719582688958043e-19 0.0 0.010000016100038882 0.009998890184780817 0.0 -1.2483219106664693e-17 0.0 0.01 0.0 -1.2483219106664693e-17 0.0 0.010000017100043862 0.009998885186449103 0.0 3.3367548243164595e-17 0.0 0.01 0.0 3.3367548243164595e-17 0.0 0.010000019050054435 0.009998875689639496 0.0 2.9675762434791983e-16 0.0 0.01 0.0 2.9675762434791983e-16 0.0 0.010000023450082485 0.009998864693367443 0.0 6.159593660636235e-16 0.0 0.01 0.0 6.159593660636235e-16 0.0 0.010000027350112205 0.009998851697819973 0.0 9.084907519553414e-16 0.0 0.01 0.0 9.084907519553414e-16 0.0 0.010000031250146485 0.009998837702671669 0.0 -2.916076368269731e-16 0.0 0.01 0.0 -2.916076368269731e-16 0.0 0.010000037600212066 0.009998823707582134 0.0 -2.139551566272116e-15 0.0 0.01 0.0 -2.139551566272116e-15 0.0 0.010000042950276707 0.009998705251499469 0.0 -1.4873341922973872e-18 0.0 0.01 0.0 -1.4873341922973872e-18 0.0 0.010000022950079004 0.009998702252665942 0.0 -4.19607433948182e-17 0.0 0.01 0.0 -4.19607433948182e-17 0.0 0.010000022950079004 0.009998695755202552 0.0 -8.157789345873502e-17 0.0 0.01 0.0 -8.157789345873502e-17 0.0 0.010000025400096774 0.009998684259721434 0.0 3.395473328701342e-16 0.0 0.01 0.0 3.395473328701342e-16 0.0 0.010000029800133207 0.009998670765076802 0.0 8.238380334161668e-16 0.0 0.01 0.0 8.238380334161668e-16 0.0 0.010000036600200936 0.009998654271696451 0.0 1.206053952677603e-15 0.0 0.01 0.0 1.206053952677603e-15 0.0 0.010000042000264601 0.00999863577921554 0.0 -8.851034920984642e-17 0.0 0.01 0.0 -8.851034920984642e-17 0.0 0.010000049300364576 0.009998617286837236 0.0 -3.3873052136197446e-15 0.0 0.01 0.0 -3.3873052136197446e-15 0.0 0.01000005420044065 0.009998483345106097 0.0 2.244802331258349e-18 0.0 0.01 0.0 2.244802331258349e-18 0.0 0.010000028800124417 0.009998481346016552 0.0 -3.239981481515917e-18 0.0 0.01 0.0 -3.239981481515917e-18 0.0 0.010000029300128775 0.009998472350128434 0.0 9.120966143697899e-18 0.0 0.01 0.0 9.120966143697899e-18 0.0 0.010000033700170356 0.009998458356572962 0.0 2.4787687978925676e-16 0.0 0.01 0.0 2.4787687978925676e-16 0.0 0.010000039050228738 0.009998440364945115 0.0 1.251652740301102e-15 0.0 0.01 0.0 1.251652740301102e-15 0.0 0.010000045900316024 0.009998419874598362 0.0 1.4496819141207932e-15 0.0 0.01 0.0 1.4496819141207932e-15 0.0 0.01000005420044065 0.00999839638581926 0.0 -3.2694969787032836e-17 0.0 0.01 0.0 -3.2694969787032836e-17 0.0 0.010000063500604844 0.009998371897693897 0.0 -4.41470273449014e-15 0.0 0.01 0.0 -4.41470273449014e-15 0.0 0.010000071800773296 0.00999822597218789 0.0 -2.671264508332409e-18 0.0 0.01 0.0 -2.671264508332409e-18 0.0 0.010000038100217743 0.009998222474052125 0.0 -5.2105538054309274e-17 0.0 0.01 0.0 -5.2105538054309274e-17 0.0 0.010000039550234633 0.009998213978594838 0.0 -1.1027053398285065e-16 0.0 0.01 0.0 -1.1027053398285065e-16 0.0 0.010000044900302403 0.009998196987745232 0.0 4.0134813756917604e-16 0.0 0.01 0.0 4.0134813756917604e-16 0.0 0.0100000508003871 0.009998175999168251 0.0 1.0619969647600412e-15 0.0 0.01 0.0 1.0619969647600412e-15 0.0 0.010000060550549951 0.009998149014049211 0.0 1.8643721174979663e-15 0.0 0.01 0.0 1.8643721174979663e-15 0.0 0.010000071800773296 0.009998119030839877 0.0 3.166366320345166e-16 0.0 0.01 0.0 3.166366320345166e-16 0.0 0.010000084451069785 0.009998086549334165 0.0 -5.3305316925957925e-15 0.0 0.01 0.0 -5.3305316925957925e-15 0.0 0.010000095701373796 0.00999792814406597 0.0 3.577256536851548e-18 0.0 0.01 0.0 3.577256536851548e-18 0.0 0.010000049300364576 0.009997925645620478 0.0 -3.8369240789092997e-16 0.0 0.01 0.0 -3.8369240789092997e-16 0.0 0.010000052250409513 0.009997912154047179 0.0 -6.4951864126566165e-16 0.0 0.01 0.0 -6.4951864126566165e-16 0.0 0.010000058100506347 0.009997894165367742 0.0 -3.4133273302249203e-16 0.0 0.01 0.0 -3.4133273302249203e-16 0.0 0.010000067400681422 0.009997866682850536 0.0 1.052734333941008e-15 0.0 0.01 0.0 1.052734333941008e-15 0.0 0.010000080100962414 0.00999783420380421 0.0 2.2067291663245436e-15 0.0 0.01 0.0 2.2067291663245436e-15 0.0 0.010000094751346656 0.00999779722804447 0.0 5.660035732235281e-16 0.0 0.01 0.0 5.660035732235281e-16 0.0 0.01000011180187492 0.009997755256057589 0.0 -4.620597090387326e-15 0.0 0.01 0.0 -4.620597090387326e-15 0.0 0.01000013135258798 0.009997583875930503 0.0 1.8835128613227639e-19 0.0 0.01 0.0 1.8835128613227639e-19 0.0 0.010000063950613446 0.009997578379920677 0.0 -1.2189242856875906e-16 0.0 0.01 0.0 -1.2189242856875906e-16 0.0 0.010000066400661351 0.009997563890483674 0.0 -1.1083859526379601e-15 0.0 0.01 0.0 -1.1083859526379601e-15 0.0 0.010000075200848266 0.009997539408474643 0.0 -1.2567317391536066e-15 0.0 0.01 0.0 -1.2567317391536066e-15 0.0 0.010000086901132759 0.009997508431496487 0.0 1.1885646524755123e-16 0.0 0.01 0.0 1.1885646524755123e-16 0.0 0.010000103501606865 0.009997467962007232 0.0 2.0486628614743044e-15 0.0 0.01 0.0 2.0486628614743044e-15 0.0 0.010000124002306448 0.009997422496870943 0.0 2.8000747996946514e-15 0.0 0.01 0.0 2.8000747996946514e-15 0.0 0.010000147453261306 0.00999737203629209 0.0 -1.2797259568892508e-15 0.0 0.01 0.0 -1.2797259568892508e-15 0.0 0.010000176254659746 0.009997189185545987 0.0 1.4002798619074311e-18 0.0 0.01 0.0 1.4002798619074311e-18 0.0 0.010000080100962414 0.009997182691031864 0.0 -8.763583955069932e-16 0.0 0.01 0.0 -8.763583955069932e-16 0.0 0.01000008350104585 0.009997165205864442 0.0 -2.185288700444369e-15 0.0 0.01 0.0 -2.185288700444369e-15 0.0 0.010000093251304354 0.009997136730216726 0.0 -2.717387805061947e-15 0.0 0.01 0.0 -2.717387805061947e-15 0.0 0.010000109851810086 0.00999709676480578 0.0 -2.2349576696341002e-15 0.0 0.01 0.0 -2.2349576696341002e-15 0.0 0.010000132802645435 0.00999704980606038 0.0 8.838962957434713e-17 0.0 0.01 0.0 8.838962957434713e-17 0.0 0.010000158703777955 0.009996992357431416 0.0 1.3993490814967116e-15 0.0 0.01 0.0 1.3993490814967116e-15 0.0 0.010000192855578847 0.009996929914392806 0.0 3.1541066602316917e-16 0.0 0.01 0.0 3.1541066602316917e-16 0.0 0.010000230007935302 0.009996737097674794 0.0 1.517945908577776e-18 0.0 0.01 0.0 1.517945908577776e-18 0.0 0.010000097651430352 0.0099967286060033 0.0 -1.2506478182947678e-15 0.0 0.01 0.0 -1.2506478182947678e-15 0.0 0.010000103051592922 0.009996709125191638 0.0 -3.806743878301549e-15 0.0 0.01 0.0 -3.806743878301549e-15 0.0 0.010000116202025405 0.009996673660416648 0.0 -6.4790827965190304e-15 0.0 0.01 0.0 -6.4790827965190304e-15 0.0 0.010000136252784673 0.009996625209151039 0.0 -7.262948099181157e-15 0.0 0.01 0.0 -7.262948099181157e-15 0.0 0.010000165054086338 0.009996566768871099 0.0 -5.8014321076373116e-15 0.0 0.01 0.0 -5.8014321076373116e-15 0.0 0.0100002011560694 0.009996497341152683 0.0 -2.95854175962693e-15 0.0 0.01 0.0 -2.95854175962693e-15 0.0 0.010000244158941747 0.009996422420777168 0.0 -1.911034704262141e-16 0.0 0.01 0.0 -1.911034704262141e-16 0.0 0.010000294913045544 0.009996219145310774 0.0 7.411379139558365e-19 0.0 0.01 0.0 7.411379139558365e-19 0.0 0.010000120102163645 0.00999621015552735 0.0 -1.6670145843980307e-15 0.0 0.01 0.0 -1.6670145843980307e-15 0.0 0.010000125002343799 0.009996185184033985 0.0 -6.612128979717917e-15 0.0 0.01 0.0 -6.612128979717917e-15 0.0 0.010000141603007655 0.009996144231189991 0.0 -1.1174423340915173e-14 0.0 0.01 0.0 -1.1174423340915173e-14 0.0 0.010000167004183467 0.009996087796997986 0.0 -1.537630334686986e-14 0.0 0.01 0.0 -1.537630334686986e-14 0.0 0.010000203606218155 0.009996016381647245 0.0 -1.4962674566161235e-14 0.0 0.01 0.0 -1.4962674566161235e-14 0.0 0.010000249009300535 0.009995932982440878 0.0 -1.1872939729129883e-14 0.0 0.01 0.0 -1.1872939729129883e-14 0.0 0.010000303213790234 0.00999584109591192 0.0 -5.644603244551121e-15 0.0 0.01 0.0 -5.644603244551121e-15 0.0 0.010000367720281737 0.009995632862450258 0.0 1.3499223371426338e-18 0.0 0.01 0.0 1.3499223371426338e-18 0.0 0.010000143553091064 0.009995623374904674 0.0 -2.189993114606756e-15 0.0 0.01 0.0 -2.189993114606756e-15 0.0 0.010000149903370587 0.009995593913751107 0.0 -9.404359606761359e-15 0.0 0.01 0.0 -9.404359606761359e-15 0.0 0.010000170904381147 0.009995542981523815 0.0 -1.8333759997879757e-14 0.0 0.01 0.0 -1.8333759997879757e-14 0.0 0.010000203106187652 0.009995474074455536 0.0 -2.5432754482692674e-14 0.0 0.01 0.0 -2.5432754482692674e-14 0.0 0.010000246109085155 0.009995388691587035 0.0 -2.869153072868338e-14 0.0 0.01 0.0 -2.869153072868338e-14 0.0 0.010000302763749329 0.009995288332065404 0.0 -2.2270720414015445e-14 0.0 0.01 0.0 -2.2270720414015445e-14 0.0 0.01000037012054737 0.009995178489287894 0.0 -1.6943446558574938e-14 0.0 0.01 0.0 -1.6943446558574938e-14 0.0 0.010000449230269362 0.009994967801004225 0.0 -1.1814101183478938e-18 0.0 0.01 0.0 -1.1814101183478938e-18 0.0 0.010000173854533705 0.009994956318376364 0.0 -3.890305031230825e-15 0.0 0.01 0.0 -3.890305031230825e-15 0.0 0.010000181154922448 0.009994920373014565 0.0 -1.0809572477937408e-14 0.0 0.01 0.0 -1.0809572477937408e-14 0.0 0.010000203606218155 0.00999486146339912 0.0 -2.2606712306055795e-14 0.0 0.01 0.0 -2.2606712306055795e-14 0.0 0.01000024270883585 0.009994779590748173 0.0 -3.27766163312262e-14 0.0 0.01 0.0 -3.27766163312262e-14 0.0 0.010000295913134168 0.009994678251167947 0.0 -3.1272461560154333e-14 0.0 0.01 0.0 -3.1272461560154333e-14 0.0 0.010000363319799232 0.00999455794561901 0.0 -2.8095347276126144e-14 0.0 0.01 0.0 -2.8095347276126144e-14 0.0 0.010000443879552609 0.009994426662777972 0.0 -2.7714673912760308e-14 0.0 0.01 0.0 -2.7714673912760308e-14 0.0 0.010000539093590152 0.009994219016831736 0.0 -2.0679765057907706e-18 0.0 0.01 0.0 -2.0679765057907706e-18 0.0 0.010000213856860018 0.009994205041127146 0.0 -2.502508320555931e-15 0.0 0.01 0.0 -2.502508320555931e-15 0.0 0.01000022265743623 0.009994161616990557 0.0 -8.535202232303128e-15 0.0 0.01 0.0 -8.535202232303128e-15 0.0 0.010000248059229703 0.009994091241143635 0.0 -1.7535917418791553e-14 0.0 0.01 0.0 -1.7535917418791553e-14 0.0 0.010000292512834063 0.009993995911693546 0.0 -2.3038203937540913e-14 0.0 0.01 0.0 -2.3038203937540913e-14 0.0 0.010000352068591971 0.009993875131700641 0.0 -1.3499009724957809e-14 0.0 0.01 0.0 -1.3499009724957809e-14 0.0 0.010000430227762796 0.009993732397354486 0.0 -6.2415475364948475e-15 0.0 0.01 0.0 -6.2415475364948475e-15 0.0 0.01000052444125291 0.009993574198948684 0.0 -2.0428806165476987e-14 0.0 0.01 0.0 -2.0428806165476987e-14 0.0 0.010000634810442529 0.009993373093209398 0.0 1.914943441175786e-18 0.0 0.01 0.0 1.914943441175786e-18 0.0 0.01000026956089907 0.009993357624040015 0.0 -4.720397561433621e-16 0.0 0.01 0.0 -4.720397561433621e-16 0.0 0.010000278311618172 0.009993307723983241 0.0 1.1128712413759391e-15 0.0 0.01 0.0 1.1128712413759391e-15 0.0 0.010000306664105856 0.00999322688747759 0.0 5.001319794705923e-15 0.0 0.01 0.0 5.001319794705923e-15 0.0 0.010000355018904868 0.00999311312090395 0.0 1.8200060931440688e-14 0.0 0.01 0.0 1.8200060931440688e-14 0.0 0.010000422876822209 0.009992971417097127 0.0 4.973378448347203e-14 0.0 0.01 0.0 4.973378448347203e-14 0.0 0.010000509788980072 0.009992802278543716 0.0 7.621525435525369e-14 0.0 0.01 0.0 7.621525435525369e-14 0.0 0.010000614806693444 0.009992612693913978 0.0 4.515559041340086e-14 0.0 0.01 0.0 4.515559041340086e-14 0.0 0.010000740332205651 0.009992425614396876 0.0 -8.297831648739188e-19 0.0 0.01 0.0 -8.297831648739188e-19 0.0 0.010000351068486497 0.009992405161006872 0.0 6.628244414922288e-15 0.0 0.01 0.0 6.628244414922288e-15 0.0 0.010000360869533082 0.009992349787825205 0.0 1.938805035934946e-14 0.0 0.01 0.0 1.938805035934946e-14 0.0 0.01000039212306287 0.009992254508198944 0.0 4.55013041333053e-14 0.0 0.01 0.0 4.55013041333053e-14 0.0 0.010000441429227243 0.009992123814925202 0.0 9.333803970824726e-14 0.0 0.01 0.0 9.333803970824726e-14 0.0 0.010000513239509517 0.00999195721337815 0.0 1.6963704563674504e-13 0.0 0.01 0.0 1.6963704563669334e-13 0.0 0.010000604554818562 0.00999176019535735 0.0 2.3564392930680213e-13 0.0 0.01 0.0 2.3564392930680213e-13 0.0 0.01000071882749952 0.009991537753574581 0.0 1.8560443032747579e-13 0.0 0.01 0.0 1.8560443032744994e-13 0.0 0.010000855109669377 0.009991362703335326 0.0 8.803721911201e-19 0.0 0.01 0.0 8.803721911201e-19 0.0 0.010000472183441475 0.0099913422564716 0.0 1.0501716854091523e-14 0.0 0.01 0.0 1.0501716854091523e-14 0.0 0.010000481484771905 0.00999127692708976 0.0 4.0317803527450245e-14 0.0 0.01 0.0 4.0317803527450245e-14 0.0 0.010000511739278883 0.009991169709889398 0.0 9.444361336786172e-14 0.0 0.01 0.0 9.444361336786172e-14 0.0 0.01000056059713685 0.009991020110261713 0.0 1.8402508291693025e-13 0.0 0.01 0.0 1.840250829169044e-13 0.0 0.010000632860071712 0.009990829131169257 0.0 3.206207678205044e-13 0.0 0.01 0.0 3.206207678205044e-13 0.0 0.010000727629408979 0.009990599771277442 0.0 4.54362437657598e-13 0.0 0.01 0.0 4.543624376574946e-13 0.0 0.01000084385680213 0.009990341012450764 0.0 4.0839410151066645e-13 0.0 0.01 0.0 4.0839410151071814e-13 0.0 0.010000985495661115 0.009990190452983983 0.0 7.48406817808139e-21 0.0 0.01 0.0 7.48406817808139e-21 0.0 0.010000650463459904 0.009990166025103046 0.0 1.3609174216374312e-14 0.0 0.01 0.0 1.3609174216374312e-14 0.0 0.010000658264991216 0.009990093241050794 0.0 5.08620355987282e-14 0.0 0.01 0.0 5.08620355987282e-14 0.0 0.010000685620504877 0.009989973100992687 0.0 1.2227100736238023e-13 0.0 0.01 0.0 1.2227100736238023e-13 0.0 0.010000733980801268 0.00998980561005415 0.0 2.448421920136496e-13 0.0 0.01 0.0 2.448421920136496e-13 0.0 0.0100007998959648 0.009989588781619797 0.0 4.360002743503396e-13 0.0 0.01 0.0 4.360002743503913e-13 0.0 0.010000889768739177 0.009989329104535434 0.0 6.351291964648917e-13 0.0 0.01 0.0 6.351291964648917e-13 0.0 0.010001000650175082 0.009989031572388313 0.0 6.145056155190213e-13 0.0 0.01 0.0 6.145056155190213e-13 0.0 0.010001138394361756 0.009988923929115713 0.0 5.792724548577757e-19 0.0 0.01 0.0 5.792724548577757e-19 0.0 0.010000903922546626 0.009988898015514251 0.0 1.207816467048541e-14 0.0 0.01 0.0 1.207816467048541e-14 0.0 0.01000091127454806 0.009988817784296269 0.0 4.8754181716937357e-14 0.0 0.01 0.0 4.8754181716937357e-14 0.0 0.010000936181448948 0.009988684734301766 0.0 1.0952310087038736e-13 0.0 0.01 0.0 1.0952310087038736e-13 0.0 0.010000977693363958 0.009988499370139374 0.0 2.305472818809945e-13 0.0 0.01 0.0 2.3054728188096867e-13 0.0 0.010001036761208787 0.009988260704064006 0.0 4.2359437750385786e-13 0.0 0.01 0.0 4.2359437750396126e-13 0.0 0.010001112485616104 0.009987972733120801 0.0 5.968455869484257e-13 0.0 0.01 0.0 5.96845586948374e-13 0.0 0.010001207718752465 0.009987637960843624 0.0 4.864946362836335e-13 0.0 0.01 0.0 4.864946362836335e-13 0.0 0.010001330365433743 0.009987623016437604 0.0 -4.644088876756801e-19 0.0 0.01 0.0 -4.644088876756801e-19 0.0 0.010001257537170193 0.009987597112959412 0.0 6.097343275146252e-15 0.0 0.01 0.0 6.097343275146252e-15 0.0 0.01000126343940154 0.009987511931788788 0.0 2.080791130721464e-14 0.0 0.01 0.0 2.080791130721464e-14 0.0 0.010001282496677477 0.009987368473690856 0.0 4.924819158681848e-14 0.0 0.01 0.0 4.924819158681848e-14 0.0 0.0100013161597959 0.00998716873850969 0.0 8.569112810986594e-14 0.0 0.01 0.0 8.569112810986594e-14 0.0 0.010001362078238037 0.009986911740295833 0.0 8.766994005309229e-14 0.0 0.01 0.0 8.766994005309229e-14 0.0 0.010001419252084308 0.009986598986289034 0.0 -1.1052115597163543e-13 0.0 0.01 0.0 -1.1052115597163543e-13 0.0 0.01000149103341081 0.009986231986018132 0.0 -8.100600044325288e-13 0.0 0.01 0.0 -8.100600044325288e-13 0.0 0.010001583876220129 0.009986408758573954 0.0 2.82745664948246e-19 0.0 0.01 0.0 2.82745664948246e-19 0.0 0.010001730449064482 0.00998637838290346 0.0 -2.9325273689371433e-15 0.0 0.01 0.0 -2.9325273689371433e-15 0.0 0.010001735301586252 0.009986288751393098 0.0 -2.875060402136581e-14 0.0 0.01 0.0 -2.875060402136581e-14 0.0 0.010001749008747757 0.009986139370905521 0.0 -1.1178098636549222e-13 0.0 0.01 0.0 -1.1178098636549222e-13 0.0 0.010001772921376101 0.00998592925369957 0.0 -3.601295310844907e-13 0.0 0.01 0.0 -3.6012953108446486e-13 0.0 0.010001801736821386 0.009985658411276901 0.0 -1.0115435183737695e-12 0.0 0.01 0.0 -1.0115435183738729e-12 0.0 0.010001837406285241 0.009985327356263642 0.0 -2.390267409308157e-12 0.0 0.01 0.0 -2.39026740930795e-12 0.0 0.0100018755275086 0.009984936106627734 0.0 -4.639399229533694e-12 0.0 0.01 0.0 -4.6393992295341075e-12 0.0 0.0100019268067446 0.009985444839687158 0.0 -3.1228088230061644e-20 0.0 0.01 0.0 -3.1228088230061644e-20 0.0 0.010002339670852881 0.009985413974996325 0.0 -3.2830393250271836e-14 0.0 0.01 0.0 -3.2830393250271836e-14 0.0 0.01000234357359322 0.009985320387038301 0.0 -1.5358746637521203e-13 0.0 0.01 0.0 -1.5358746637521203e-13 0.0 0.010002354831523641 0.00998516806332948 0.0 -5.148091560958161e-13 0.0 0.01 0.0 -5.148091560958161e-13 0.0 0.010002368040877136 0.009984952532214266 0.0 -1.4876037035737264e-12 0.0 0.01 0.0 -1.487603703573623e-12 0.0 0.010002381700604544 0.009984673805971777 0.0 -3.628867483997868e-12 0.0 0.01 0.0 -3.6288674839982818e-12 0.0 0.010002390506905363 0.009984335384055446 0.0 -7.322835082336158e-12 0.0 0.01 0.0 -7.322835082336158e-12 0.0 0.01000239100726406 0.009983930815955661 0.0 -1.185184672175697e-11 0.0 0.01 0.0 -1.185184672175697e-11 0.0 0.010002396361106843 0.009984950043483822 0.0 5.719863405875381e-19 0.0 0.01 0.0 5.719863405875381e-19 0.0 0.010003101041872915 0.009984919183380944 0.0 -7.628289872180987e-14 0.0 0.01 0.0 -7.628289872180987e-14 0.0 0.010003102993688158 0.009984827600244125 0.0 -3.761718061818275e-13 0.0 0.01 0.0 -3.7617180618180166e-13 0.0 0.010003113253248607 0.009984675796790741 0.0 -1.2665280586907375e-12 0.0 0.01 0.0 -1.2665280586907375e-12 0.0 0.010003121561013375 0.009984462785914422 0.0 -3.5373138922875992e-12 0.0 0.01 0.0 -3.5373138922884264e-12 0.0 0.01000312206148179 0.009984189574631557 0.0 -8.033768383662266e-12 0.0 0.01 0.0 -8.033768383662266e-12 0.0 0.010003105946436467 0.009983854685021937 0.0 -1.4431555551679342e-11 0.0 0.01 0.0 -1.4431555551679342e-11 0.0 0.010003069262477775 0.00998345266296025 0.0 -1.983557859063516e-11 0.0 0.01 0.0 -1.983557859063516e-11 0.0 0.010003037983841319 0.009985207885848321 0.0 4.2009042814442646e-19 0.0 0.01 0.0 4.2009042814442646e-19 0.0 0.010004025879851938 0.009985179014474667 0.0 -9.717482971330586e-14 0.0 0.01 0.0 -9.717482971330586e-14 0.0 0.010004029283961727 0.009985090410788124 0.0 -5.464262044499465e-13 0.0 0.01 0.0 -5.464262044500499e-13 0.0 0.010004039045766418 0.009984946559264329 0.0 -2.050598022504177e-12 0.0 0.01 0.0 -2.050598022504177e-12 0.0 0.010004046905291478 0.009984744480774289 0.0 -5.909042635822083e-12 0.0 0.01 0.0 -5.909042635822496e-12 0.0 0.01000404199934373 0.009984489660366927 0.0 -1.2737302320070048e-11 0.0 0.01 0.0 -1.2737302320071702e-11 0.0 0.010004009710377898 0.009984176138589717 0.0 -1.980739476312053e-11 0.0 0.01 0.0 -1.980739476312053e-11 0.0 0.010003952041560975 0.009983800449013818 0.0 -2.0588622679060866e-11 0.0 0.01 0.0 -2.0588622679059212e-11 0.0 0.010003904135151119 0.009986609444148812 0.0 1.1822602068321993e-18 0.0 0.01 0.0 1.1822602068321993e-18 0.0 0.010005126990210654 0.009986583050565878 0.0 5.059768340207665e-14 0.0 0.01 0.0 5.059768340207665e-14 0.0 0.010005132348447998 0.009986504369051012 0.0 -9.234393493818553e-14 0.0 0.01 0.0 -9.234393493818553e-14 0.0 0.010005148022593576 0.009986374399229527 0.0 -1.6214876176977708e-12 0.0 0.01 0.0 -1.6214876176978742e-12 0.0 0.010005164147510308 0.00998619713056582 0.0 -6.254746962102602e-12 0.0 0.01 0.0 -6.2547469621030156e-12 0.0 0.010005161693713602 0.009985975060111538 0.0 -1.3283520670389918e-11 0.0 0.01 0.0 -1.3283520670389918e-11 0.0 0.010005130395444605 0.009985705707538244 0.0 -1.54521463235162e-11 0.0 0.01 0.0 -1.54521463235162e-11 0.0 0.010005078566157085 0.009985387590890741 0.0 -2.5273489158126894e-12 0.0 0.01 0.0 -2.5273489158126894e-12 0.0 0.010005047268668198 0.009989653579442795 0.0 2.6478959246622983e-18 0.0 0.01 0.0 2.6478959246622983e-18 0.0 0.010006414867303104 0.009989632146177164 0.0 6.242415390863804e-13 0.0 0.01 0.0 6.242415390863804e-13 0.0 0.010006425638021716 0.009989568844081783 0.0 2.024298890764328e-12 0.0 0.01 0.0 2.024298890764535e-12 0.0 0.010006451537985123 0.009989465669229886 0.0 2.4637948759457174e-12 0.0 0.01 0.0 2.4637948759457174e-12 0.0 0.010006485303423166 0.009989328107733434 0.0 -1.1610414336886487e-13 0.0 0.01 0.0 -1.1610414336886487e-13 0.0 0.010006502937734394 0.009989159652482378 0.0 -2.582004494526413e-12 0.0 0.01 0.0 -2.582004494526413e-12 0.0 0.010006496074369224 0.009988960308165757 0.0 7.663199674282061e-12 0.0 0.01 0.0 7.663199674282888e-12 0.0 0.010006477488246866 0.00998873755501152 0.0 4.2942550297179364e-11 0.0 0.01 0.0 4.2942550297179364e-11 0.0 0.010006501935782397 0.009994793069643819 0.0 2.092437489041323e-18 0.0 0.01 0.0 2.092437489041323e-18 0.0 0.010007889677238542 0.009994779590748173 0.0 1.89438765849363e-12 0.0 0.01 0.0 1.8943876584932165e-12 0.0 0.01000790586553347 0.009994741151234188 0.0 6.937079445998058e-12 0.0 0.01 0.0 6.937079445997231e-12 0.0 0.010007952827068824 0.00999467974877477 0.0 1.2690378808634017e-11 0.0 0.01 0.0 1.2690378808634017e-11 0.0 0.010008015978094555 0.009994600875731304 0.0 1.683941880710383e-11 0.0 0.01 0.0 1.6839418807105485e-11 0.0 0.010008072764918656 0.009994513019349695 0.0 2.440724033000291e-11 0.0 0.01 0.0 2.440724033000291e-11 0.0 0.010008113363328986 0.009994420173646244 0.0 5.13074339245632e-11 0.0 0.01 0.0 5.130743392456982e-11 0.0 0.010008153511131742 0.00999433332033064 0.0 1.0798114146313194e-10 0.0 0.01 0.0 1.0798114146313194e-10 0.0 0.010008253356451478 0.010002156447339261 0.0 -5.8566248451439444e-18 0.0 0.01 0.0 -5.8566248451439444e-18 0.0 0.010009525793845266 0.01000215549672468 0.0 3.748249125116267e-12 0.0 0.01 0.0 3.748249125117094e-12 0.0 0.010009552720757304 0.010002151594204487 0.0 1.4158076706800844e-11 0.0 0.01 0.0 1.4158076706800844e-11 0.0 0.010009625228941667 0.010002150593559024 0.0 2.830297800524034e-11 0.0 0.01 0.0 2.8302978005246957e-11 0.0 0.01000973048394396 0.010002157948310213 0.0 4.292537233644177e-11 0.0 0.01 0.0 4.292537233644177e-11 0.0 0.010009839703935883 0.010002180913249982 0.0 6.217897881818585e-11 0.0 0.01 0.0 6.217897881819909e-11 0.0 0.010009941555552035 0.010002229745543127 0.0 1.0031371787503883e-10 0.0 0.01 0.0 1.0031371787503883e-10 0.0 0.010010052738339619 0.010002319656871645 0.0 1.6149135121059624e-10 0.0 0.01 0.0 1.6149135121059624e-10 0.0 0.010010229525095896 0.010011244035859972 0.0 -5.705087124419511e-15 0.0 0.01 0.0 -5.705087124419511e-15 0.0 0.010011257280462723 0.010011257731984196 0.0 5.303346067453299e-12 0.0 0.01 0.0 5.303346067241541e-12 0.0 0.010011294004408927 0.010011300375954399 0.0 2.0455112550964296e-11 0.0 0.01 0.0 2.0455112550964296e-11 0.0 0.010011399362235154 0.010011378741941652 0.0 4.223234487697112e-11 0.0 0.01 0.0 4.223234487739464e-11 0.0 0.010011552237338704 0.0100114953912657 0.0 6.599364404488608e-11 0.0 0.01 0.0 6.599364404488608e-11 0.0 0.010011723684536842 0.010011657553143012 0.0 9.186125114042204e-11 0.0 0.01 0.0 9.186125114042204e-11 0.0 0.010011889821611816 0.010011877578065766 0.0 1.265187764650015e-10 0.0 0.01 0.0 1.2651877646330744e-10 0.0 0.010012058877460431 0.010012176002206259 0.0 1.6671480234324966e-10 0.0 0.01 0.0 1.667148023466378e-10 0.0 0.01001227892884439 0.010020744069393761 0.0 4.776811031205881e-18 0.0 0.01 0.0 4.776811031205881e-18 0.0 0.010012969989528496 0.010020777476600642 0.0 5.437145965207623e-12 0.0 0.01 0.0 5.437145965206796e-12 0.0 0.010013019030210603 0.010020879159327133 0.0 2.1217451327341645e-11 0.0 0.01 0.0 2.1217451327344954e-11 0.0 0.010013155313883493 0.010021049677289107 0.0 4.453734741324277e-11 0.0 0.01 0.0 4.453734741324939e-11 0.0 0.010013357264895143 0.010021293418872888 0.0 6.985660393715861e-11 0.0 0.01 0.0 6.985660393714537e-11 0.0 0.010013582823932107 0.010021616741045562 0.0 9.256641690047152e-11 0.0 0.01 0.0 9.256641690045829e-11 0.0 0.010013799009439599 0.01002202615962246 0.0 1.111515348316496e-10 0.0 0.01 0.0 1.111515348316496e-10 0.0 0.010013998087205132 0.010022539375147674 0.0 1.1765974662958777e-10 0.0 0.01 0.0 1.1765974662958777e-10 0.0 0.010014209428902297 0.010028746531057071 0.0 4.918119838443118e-18 0.0 0.01 0.0 4.918119838443118e-18 0.0 0.010014536033122072 0.010028799737703325 0.0 3.831088900087261e-12 0.0 0.01 0.0 3.831088900086847e-12 0.0 0.010014592428814029 0.010028962741913545 0.0 1.515268808650096e-11 0.0 0.01 0.0 1.515268808650096e-11 0.0 0.010014751828379456 0.010029234147435333 0.0 3.210611614516163e-11 0.0 0.01 0.0 3.210611614516163e-11 0.0 0.010014988732091413 0.01002961246730617 0.0 4.970363473266071e-11 0.0 0.01 0.0 4.9703634732654093e-11 0.0 0.010015250164327923 0.010030103640808268 0.0 6.166340043346851e-11 0.0 0.01 0.0 6.166340043348175e-11 0.0 0.010015488057828401 0.010030702822864654 0.0 6.282658202697956e-11 0.0 0.01 0.0 6.282658202698618e-11 0.0 0.010015677390171165 0.010031417945274406 0.0 4.648585900915103e-11 0.0 0.01 0.0 4.6485859009157645e-11 0.0 0.010015826040412876 0.010033595796426204 0.0 -1.1143776077740602e-18 0.0 0.01 0.0 -1.1143776077740602e-18 0.0 0.010015829004442417 0.0100336682727932 0.0 1.5922272847440697e-12 0.0 0.01 0.0 1.5922272847440697e-12 0.0 0.010015890345373282 0.010033884852647914 0.0 6.4314092506010646e-12 0.0 0.01 0.0 6.431409250600651e-12 0.0 0.01001605960395894 0.010034244452647023 0.0 1.3624300316785696e-11 0.0 0.01 0.0 1.3624300316787351e-11 0.0 0.010016309362709058 0.010034745199048777 0.0 1.9998059831026414e-11 0.0 0.01 0.0 1.9998059831026414e-11 0.0 0.010016579691965817 0.010035377301385736 0.0 2.087233405138422e-11 0.0 0.01 0.0 2.0872334051385873e-11 0.0 0.010016805468841173 0.01003613931779427 0.0 1.2441537361427689e-11 0.0 0.01 0.0 1.2441537361428516e-11 0.0 0.010016943364564821 0.010037015563120614 0.0 -7.080757902048711e-12 0.0 0.01 0.0 -7.0807579020491245e-12 0.0 0.010016997840975383 0.010034969174966057 0.0 -1.0638159384229007e-18 0.0 0.01 0.0 -1.0638159384229007e-18 0.0 0.01001677551848198 0.010035053555074948 0.0 7.401801800275136e-14 0.0 0.01 0.0 7.401801800275136e-14 0.0 0.010016833409351358 0.01003530721348831 0.0 4.4487258231500996e-13 0.0 0.01 0.0 4.4487258231500996e-13 0.0 0.010017000755789925 0.010035725185473325 0.0 9.381566261546248e-13 0.0 0.01 0.0 9.381566261546248e-13 0.0 0.010017243699449568 0.010036302680156343 0.0 1.9413844405814611e-13 0.0 0.01 0.0 1.9413844405814611e-13 0.0 0.01001749651230178 0.010037029365289583 0.0 -3.8278073015639e-12 0.0 0.01 0.0 -3.8278073015639e-12 0.0 0.010017684500866063 0.010037890065748999 0.0 -1.2241221104935462e-11 0.0 0.01 0.0 -1.2241221104934635e-11 0.0 0.010017756632977588 0.010038852206822803 0.0 -2.3786026189812408e-11 0.0 0.01 0.0 -2.3786026189812408e-11 0.0 0.010017708075579888 0.010033814290926417 0.0 -4.592289148527696e-18 0.0 0.01 0.0 -4.592289148527696e-18 0.0 0.010017354170782661 0.010033903591909298 0.0 -3.2875485779793237e-13 0.0 0.01 0.0 -3.2875485779798407e-13 0.0 0.010017408151280136 0.010034171913279278 0.0 -1.2033932593788117e-12 0.0 0.01 0.0 -1.2033932593790185e-12 0.0 0.010017563764748778 0.010034611467365177 0.0 -2.5315888087164442e-12 0.0 0.01 0.0 -2.5315888087164442e-12 0.0 0.010017786592138323 0.010035217420252995 0.0 -4.5445031237949066e-12 0.0 0.01 0.0 -4.54450312379532e-12 0.0 0.010018008981962399 0.010035976923699374 0.0 -7.64721437941578e-12 0.0 0.01 0.0 -7.64721437941578e-12 0.0 0.010018150345942198 0.01003686793908721 0.0 -1.1708276830641295e-11 0.0 0.01 0.0 -1.1708276830641295e-11 0.0 0.01001815773604457 0.010037845614568445 0.0 -1.528819571333469e-11 0.0 0.01 0.0 -1.528819571333469e-11 0.0 0.010018030598399615 0.010031446563446893 0.0 1.5205474715624625e-18 0.0 0.01 0.0 1.5205474715624625e-18 0.0 0.010017588796274497 0.010031533277500216 0.0 -1.2683320479771016e-13 0.0 0.01 0.0 -1.2683320479771016e-13 0.0 0.0100176368995525 0.01003179651233816 0.0 -4.732500980566279e-13 0.0 0.01 0.0 -4.732500980566279e-13 0.0 0.010017777292705636 0.010032230352414889 0.0 -9.731086616156132e-13 0.0 0.01 0.0 -9.731086616156132e-13 0.0 0.010017975602436549 0.010032824462358937 0.0 -1.590122069705887e-12 0.0 0.01 0.0 -1.590122069705887e-12 0.0 0.010018165578620083 0.010033569634611226 0.0 -2.286962235213347e-12 0.0 0.01 0.0 -2.286962235213347e-12 0.0 0.010018269192837164 0.010034440761360227 0.0 -2.910290801005922e-12 0.0 0.01 0.0 -2.910290801006129e-12 0.0 0.010018231889337698 0.010035389126020778 0.0 -3.0492086759103847e-12 0.0 0.01 0.0 -3.0492086759103847e-12 0.0 0.010018059554590585 0.01002878496079625 0.0 -6.995400028652102e-19 0.0 0.01 0.0 -6.995400028652102e-19 0.0 0.01001751762278951 0.010028868680655228 0.0 1.0316308316161288e-13 0.0 0.01 0.0 1.0316308316161288e-13 0.0 0.010017562759470541 0.010029114960323424 0.0 3.80742763179456e-13 0.0 0.01 0.0 3.80742763179456e-13 0.0 0.010017688924253839 0.01002952428972864 0.0 7.634585836489452e-13 0.0 0.01 0.0 7.634585836489452e-13 0.0 0.010017868076383177 0.010030085427355446 0.0 1.1723998611612983e-12 0.0 0.01 0.0 1.1723998611612983e-12 0.0 0.010018035022245873 0.010030792040796327 0.0 1.5713839319076794e-12 0.0 0.01 0.0 1.5713839319072658e-12 0.0 0.010018115507108431 0.010031618075722408 0.0 1.9663365160271113e-12 0.0 0.01 0.0 1.9663365160271113e-12 0.0 0.010018059554590585 0.010032520754830958 0.0 2.2239062785049777e-12 0.0 0.01 0.0 2.223906278504564e-12 0.0 0.010017876923650953 0.010026071354054696 0.0 9.448972691558886e-18 0.0 0.01 0.0 9.448972691558886e-18 0.0 0.010017191681684424 0.010026147094225366 0.0 1.572854899536615e-13 0.0 0.01 0.0 1.572854899536615e-13 0.0 0.010017230933662129 0.010026373014723878 0.0 5.69860578208374e-13 0.0 0.01 0.0 5.698605782081672e-13 0.0 0.010017349245231363 0.010026749045203747 0.0 1.0476729979683473e-12 0.0 0.01 0.0 1.0476729979683473e-12 0.0 0.010017517120157297 0.010027269338341171 0.0 1.3894441042759358e-12 0.0 0.01 0.0 1.3894441042761426e-12 0.0 0.010017672738704343 0.010027927608570297 0.0 1.524180059784499e-12 0.0 0.01 0.0 1.5241800597847058e-12 0.0 0.010017748791362453 0.010028704672395024 0.0 1.5807724458045603e-12 0.0 0.01 0.0 1.5807724458045603e-12 0.0 0.010017696263069214 0.010029564695755512 0.0 1.3360755858141772e-12 0.0 0.01 0.0 1.3360755858141772e-12 0.0 0.010017533304952505 0.010023015715333284 0.0 -4.258618542599267e-19 0.0 0.01 0.0 -4.258618542599267e-19 0.0 0.010016648433453105 0.010023085042537145 0.0 1.3369559169250031e-13 0.0 0.01 0.0 1.3369559169252616e-13 0.0 0.010016687679045035 0.01002329056562107 0.0 4.54513298043201e-13 0.0 0.01 0.0 4.545132980434078e-13 0.0 0.01001680154914801 0.010023633316827273 0.0 7.073691089463201e-13 0.0 0.01 0.0 7.073691089465269e-13 0.0 0.010016965426398912 0.010024109863374802 0.0 6.383789002322844e-13 0.0 0.01 0.0 6.383789002323878e-13 0.0 0.010017122476696595 0.010024720262510825 0.0 3.096345306269074e-13 0.0 0.01 0.0 3.096345306269591e-13 0.0 0.010017207412575266 0.010025450833068373 0.0 4.075261911000037e-14 0.0 0.01 0.0 4.075261911000037e-14 0.0 0.010017175498544983 0.010026275045092743 0.0 -4.2941735165550515e-13 0.0 0.01 0.0 -4.2941735165560855e-13 0.0 0.010017041010644118 0.010019237972882417 0.0 5.2536534150895446e-17 0.0 0.01 0.0 5.2536534150895446e-17 0.0 0.010015928125115108 0.010019300834880394 0.0 1.789790190922122e-13 0.0 0.01 0.0 1.789790190922122e-13 0.0 0.01001596786464 0.010019484046636634 0.0 6.220785067966212e-13 0.0 0.01 0.0 6.220785067964144e-13 0.0 0.010016080705363702 0.010019792003835255 0.0 9.813503254630493e-13 0.0 0.01 0.0 9.813503254630493e-13 0.0 0.010016245049677722 0.010020221823354974 0.0 9.967720978733227e-13 0.0 0.01 0.0 9.967720978737363e-13 0.0 0.010016410909478413 0.010020780897839488 0.0 8.878298856365263e-13 0.0 0.01 0.0 8.878298856369399e-13 0.0 0.010016512509584416 0.010021460988948471 0.0 1.1896843783541406e-12 0.0 0.01 0.0 1.1896843783549678e-12 0.0 0.01001650462064253 0.010022253261357904 0.0 1.6703347242692676e-12 0.0 0.01 0.0 1.670334724268854e-12 0.0 0.010016403573487565 0.010014683176152707 0.0 -2.3649340734453805e-16 0.0 0.01 0.0 -2.3649340734453805e-16 0.0 0.010015067184725885 0.010014734150421653 0.0 3.3341069688335944e-13 0.0 0.01 0.0 3.3341069688335944e-13 0.0 0.010015106411734509 0.010014892100266487 0.0 1.196357774802958e-12 0.0 0.01 0.0 1.196357774802958e-12 0.0 0.010015222689122465 0.010015156438140235 0.0 2.1789966523568185e-12 0.0 0.01 0.0 2.1789966523435836e-12 0.0 0.01001538995484407 0.01001553221264688 0.0 2.9195217555673503e-12 0.0 0.01 0.0 2.919521755461471e-12 0.0 0.01001556556775475 0.01001602428452513 0.0 3.730142214798165e-12 0.0 0.01 0.0 3.730142214798165e-12 0.0 0.01001568231325671 0.010016639589439743 0.0 5.449734217323747e-12 0.0 0.01 0.0 5.449734217330364e-12 0.0 0.010015701453076623 0.010017380155699052 0.0 8.124270873197875e-12 0.0 0.01 0.0 8.124270873197875e-12 0.0 0.010015627858306305 0.010009778474106135 0.0 3.2994086631650954e-17 0.0 0.01 0.0 3.2994086631650954e-17 0.0 0.010014106442716436 0.010009819644899843 0.0 4.879017934398763e-13 0.0 0.01 0.0 4.879017934398763e-13 0.0 0.010014146160561887 0.010009943511374202 0.0 1.786686536701265e-12 0.0 0.01 0.0 1.7866865367020922e-12 0.0 0.010014261902364163 0.010010154596458947 0.0 3.4237178859455587e-12 0.0 0.01 0.0 3.4237178859455587e-12 0.0 0.010014434041195907 0.010010457280365698 0.0 4.9248640716019275e-12 0.0 0.01 0.0 4.9248640716019275e-12 0.0 0.010014619898832733 0.010010861419974797 0.0 6.570398381700574e-12 0.0 0.01 0.0 6.570398381697266e-12 0.0 0.010014751326163454 0.010011383156981612 0.0 9.408880982396346e-12 0.0 0.01 0.0 9.408880982396346e-12 0.0 0.010014787134353775 0.010012041263940324 0.0 1.4269585152401726e-11 0.0 0.01 0.0 1.4269585152401726e-11 0.0 0.010014736109054413 0.010005196898357573 0.0 -4.757389822912162e-19 0.0 0.01 0.0 -4.757389822912162e-19 0.0 0.01001308177522513 0.010005224291132781 0.0 4.935451840523788e-13 0.0 0.01 0.0 4.935451840524822e-13 0.0 0.010013121480879699 0.010005311829334099 0.0 1.8611505696774126e-12 0.0 0.01 0.0 1.8611505696774126e-12 0.0 0.010013238140933712 0.01000546197171352 0.0 3.620096525125983e-12 0.0 0.01 0.0 3.620096525125983e-12 0.0 0.010013413640675041 0.010005681087548847 0.0 5.205704812058797e-12 0.0 0.01 0.0 5.205704812059624e-12 0.0 0.010013605365612849 0.010005985369411777 0.0 6.794541742827875e-12 0.0 0.01 0.0 6.794541742827875e-12 0.0 0.010013746543253856 0.010006393325970225 0.0 9.34651788593437e-12 0.0 0.01 0.0 9.34651788593437e-12 0.0 0.010013798507366927 0.010006940819564759 0.0 1.4170978554986179e-11 0.0 0.01 0.0 1.4170978554989488e-11 0.0 0.010013760299858197 0.010001453917019749 0.0 3.2620674319417355e-18 0.0 0.01 0.0 3.2620674319417355e-18 0.0 0.010012033385558288 0.010001471524744045 0.0 3.6338590484431115e-13 0.0 0.01 0.0 3.6338590484431115e-13 0.0 0.010012074082368783 0.010001523297994837 0.0 1.3699137633522666e-12 0.0 0.01 0.0 1.3699137633520598e-12 0.0 0.010012190705817362 0.010001617092163503 0.0 2.6347307927126152e-12 0.0 0.01 0.0 2.634730792711788e-12 0.0 0.01001236911144791 0.010001759264142675 0.0 3.6367945834749518e-12 0.0 0.01 0.0 3.6367945834749518e-12 0.0 0.010012562181675072 0.010001965929579946 0.0 4.302421052367818e-12 0.0 0.01 0.0 4.302421052366991e-12 0.0 0.010012710241534275 0.010002262967921864 0.0 5.184099567860831e-12 0.0 0.01 0.0 5.184099567861658e-12 0.0 0.01001276756002975 0.010002691536265283 0.0 7.363716612794953e-12 0.0 0.01 0.0 7.363716612794126e-12 0.0 0.010012739151615614 0.009998729242264831 0.0 -2.1499749782658112e-18 0.0 0.01 0.0 -2.1499749782658112e-18 0.0 0.010010996612263286 0.009998738738657162 0.0 1.8066287422713079e-13 0.0 0.01 0.0 1.8066287422713079e-13 0.0 0.010011038751239085 0.009998764728921899 0.0 6.941865511930411e-13 0.0 0.01 0.0 6.941865511930411e-13 0.0 0.010011155338511499 0.009998813211303552 0.0 1.278784557562685e-12 0.0 0.01 0.0 1.2787845575622715e-12 0.0 0.010011331732162504 0.009998895183120029 0.0 1.515811794728563e-12 0.0 0.01 0.0 1.5158117947287697e-12 0.0 0.010011523287364113 0.009999027141986323 0.0 1.21656972705102e-12 0.0 0.01 0.0 1.21656972705102e-12 0.0 0.010011672254470085 0.009999237587199856 0.0 5.296230406678106e-13 0.0 0.01 0.0 5.296230406678106e-13 0.0 0.010011730056902741 0.009999574027219469 0.0 -9.5423734162349e-14 0.0 0.01 0.0 -9.5423734162349e-14 0.0 0.01001170311241503 0.009996923919922655 0.0 -2.29502458706795e-19 0.0 0.01 0.0 -2.29502458706795e-19 0.0 0.010010005245734864 0.009996925918078173 0.0 4.878838069100111e-14 0.0 0.01 0.0 4.878838069100111e-14 0.0 0.010010045366159183 0.00999693540933325 0.0 1.7571228017501677e-13 0.0 0.01 0.0 1.7571228017501677e-13 0.0 0.010010161467354914 0.009996958388273285 0.0 2.170183846217153e-13 0.0 0.01 0.0 2.170183846217153e-13 0.0 0.010010332893266367 0.009997004346628724 0.0 -6.34991904943068e-14 0.0 0.01 0.0 -6.34991904943068e-14 0.0 0.010010514610335815 0.009997093267855129 0.0 -5.025528891094259e-13 0.0 0.01 0.0 -5.025528891093742e-13 0.0 0.010010655205849501 0.009997254630971649 0.0 -7.366553314791146e-13 0.0 0.01 0.0 -7.366553314791146e-13 0.0 0.010010711536003213 0.009997539408474641 0.0 -8.689610298981142e-13 0.0 0.01 0.0 -8.689610298982176e-13 0.0 0.010010685051182045 0.00999580014729679 0.0 -2.0677087478556605e-18 0.0 0.01 0.0 -2.0677087478556605e-18 0.0 0.010009074837972826 0.00999580164540799 0.0 -4.171073171508962e-14 0.0 0.01 0.0 -4.171073171508962e-14 0.0 0.010009113994610835 0.009995803143519858 0.0 -2.4730439278701786e-13 0.0 0.01 0.0 -2.4730439278696616e-13 0.0 0.010009223695808322 0.009995814629066577 0.0 -7.353667878483966e-13 0.0 0.01 0.0 -7.353667878485e-13 0.0 0.01000938379182582 0.009995849085944282 0.0 -1.2587268604068086e-12 0.0 0.01 0.0 -1.2587268604067052e-12 0.0 0.010009550765164197 0.009995929486711345 0.0 -5.74076231422522e-13 0.0 0.01 0.0 -5.74076231422522e-13 0.0 0.010009677128920874 0.009996085299931927 0.0 3.0159315877981265e-12 0.0 0.01 0.0 3.0159315877981265e-12 0.0 0.010009729531168209 0.009996364982963381 0.0 9.37916331632776e-12 0.0 0.01 0.0 9.379163316326932e-12 0.0 0.010009706514194578 0.009995130559028943 0.0 6.252108461006196e-19 0.0 0.01 0.0 6.252108461006196e-19 0.0 0.010008215663489691 0.009995130559028944 0.0 -2.0704383799359265e-13 0.0 0.01 0.0 -2.0704383799359265e-13 0.0 0.010008250900381153 0.00999513505246143 0.0 -9.442865739421675e-13 0.0 0.01 0.0 -9.442865739421675e-13 0.0 0.010008348843852365 0.009995150529886377 0.0 -2.1608907559590747e-12 0.0 0.01 0.0 -2.160890755958868e-12 0.0 0.010008493207947099 0.00999519396691463 0.0 -2.62106622998968e-12 0.0 0.01 0.0 -2.62106622998968e-12 0.0 0.010008638631012456 0.009995290329240335 0.0 9.212117010006107e-13 0.0 0.01 0.0 9.212117010006107e-13 0.0 0.010008746812640523 0.009995476071741808 0.0 1.2440635199228566e-11 0.0 0.01 0.0 1.2440635199228566e-11 0.0 0.010008793334827047 0.009995794654228169 0.0 3.1320688449772774e-11 0.0 0.01 0.0 3.1320688449772774e-11 0.0 0.010008783508966371 0.009994764614261416 0.0 -5.203336842115608e-19 0.0 0.01 0.0 -5.203336842115608e-19 0.0 0.01000742866957832 0.009994767110337867 0.0 -5.051768455339286e-13 0.0 0.01 0.0 -5.051768455339803e-13 0.0 0.010007459037293331 0.009994776595445436 0.0 -2.0287010131312707e-12 0.0 0.01 0.0 -2.0287010131316843e-12 0.0 0.010007542224199152 0.00999480704781542 0.0 -3.87876019561503e-12 0.0 0.01 0.0 -3.878760195615444e-12 0.0 0.010007658689352494 0.009994877938017163 0.0 -3.1110638123312754e-12 0.0 0.01 0.0 -3.1110638123312754e-12 0.0 0.01000777565973932 0.00999501622817452 0.0 6.28659707521316e-12 0.0 0.01 0.0 6.28659707521316e-12 0.0 0.010007866672954563 0.009995258873874252 0.0 3.005341940513249e-11 0.0 0.01 0.0 3.005341940513249e-11 0.0 0.010007916139879057 0.009995649340883117 0.0 1.134945252418891e-10 0.0 0.01 0.0 1.134945252418891e-10 0.0 0.010007937189856642 0.009994635819254359 0.0 1.0747130501875224e-18 0.0 0.01 0.0 1.0747130501875224e-18 0.0 0.010006701530562438 0.009994641310412732 0.0 -7.916024301723165e-13 0.0 0.01 0.0 -7.916024301724199e-13 0.0 0.010006724526812675 0.009994666270337594 0.0 -2.769086801064953e-12 0.0 0.01 0.0 -2.7690868010653667e-12 0.0 0.010006788656626906 0.009994723678874445 0.0 -3.860029700164765e-12 0.0 0.01 0.0 -3.860029700165179e-12 0.0 0.010006876736928252 0.009994835004334564 0.0 1.378650972491465e-12 0.0 0.01 0.0 1.378650972491465e-12 0.0 0.010006969679699919 0.009995036198346643 0.0 2.1326326744274966e-11 0.0 0.01 0.0 2.1326326744274966e-11 0.0 0.01000705090027464 0.009995363226944599 0.0 6.065187797111113e-11 0.0 0.01 0.0 6.065187797110452e-11 0.0 0.010007120397796044 0.009995837600278966 0.0 1.0954059068233463e-09 0.0 0.01 0.0 1.0954059068233463e-09 0.0 0.010007195759398096 0.009994731666227526 0.0 -1.353175594039405e-18 0.0 0.01 0.0 -1.353175594039405e-18 0.0 0.010006023487993496 0.009994744645717127 0.0 -6.207611675659705e-13 0.0 0.01 0.0 -6.207611675660739e-13 0.0 0.010006040618956599 0.009994792071205232 0.0 -1.3288019352197155e-12 0.0 0.01 0.0 -1.3288019352199223e-12 0.0 0.010006085650767558 0.009994889420374891 0.0 1.966187396794711e-12 0.0 0.01 0.0 1.966187396794711e-12 0.0 0.010006153124485462 0.009995069149392341 0.0 1.7011264846148828e-11 0.0 0.01 0.0 1.7011264846152136e-11 0.0 0.010006230918817935 0.009995358733204368 0.0 5.199524203024256e-11 0.0 0.01 0.0 5.199524203024256e-11 0.0 0.010006322891792437 0.009995785166221906 0.0 4.6083641825905324e-10 0.0 0.01 0.0 4.608364182590003e-10 0.0 0.010006434905877232 0.009996319033433064 0.0 7.241549116127752e-09 0.0 0.01 0.0 7.241549116126905e-09 0.0 0.010006589507531449 0.00999506914939234 0.0 -1.2253226070758934e-18 0.0 0.01 0.0 -1.2253226070758934e-18 0.0 0.010005392558819427 0.009995094112522713 0.0 6.768229352871525e-13 0.0 0.01 0.0 6.768229352872559e-13 0.0 0.010005403776967067 0.009995178988565057 0.0 4.632912787425939e-12 0.0 0.01 0.0 4.632912787425939e-12 0.0 0.01000543898416652 0.00999534075830406 0.0 1.7554233798425192e-11 0.0 0.01 0.0 1.75542337984285e-11 0.0 0.010005497229609816 0.009995609393307792 0.0 4.7109987648177466e-11 0.0 0.01 0.0 4.7109987648184084e-11 0.0 0.010005584774975412 0.009996005394806093 0.0 4.2016216937927775e-10 0.0 0.01 0.0 4.2016216937927775e-10 0.0 0.010005710938500246 0.009996508329620221 0.0 5.260504156315335e-09 0.0 0.01 0.0 5.260504156315335e-09 0.0 0.010005889949646555 0.009997017335115894 0.0 3.0717555324110194e-08 0.0 0.01 0.0 3.0717555324110194e-08 0.0 0.010006140401193516 0.009995710761214482 0.0 2.0705131349526022e-18 0.0 0.01 0.0 2.0705131349526022e-18 0.0 0.010004820883898749 0.009995754205547153 0.0 3.446410701226603e-12 0.0 0.01 0.0 3.4464107012274303e-12 0.0 0.010004831599398464 0.009995887038859654 0.0 1.579313731594732e-11 0.0 0.01 0.0 1.579313731594732e-11 0.0 0.010004869754868603 0.009996130746827123 0.0 7.433996827954957e-11 0.0 0.01 0.0 7.433996827954957e-11 0.0 0.010004941660589394 0.009996492346408679 0.0 8.417893847004782e-10 0.0 0.01 0.0 8.417893847004782e-10 0.0 0.01000506048869178 0.009996951894214847 0.0 6.272470793740734e-09 0.0 0.01 0.0 6.2724707937390395e-09 0.0 0.01000524437263968 0.009997433988127743 0.0 2.911915474882804e-08 0.0 0.01 0.0 2.911915474882804e-08 0.0 0.010005505543443061 0.009997811719821047 0.0 9.402667264924022e-08 0.0 0.01 0.0 9.402667264925377e-08 0.0 0.01000583275050542 0.009996741093762983 0.0 3.739826095114188e-18 0.0 0.01 0.0 3.739826095114188e-18 0.0 0.010004342677189706 0.009996799037580276 0.0 1.8374910907507257e-11 0.0 0.01 0.0 1.8374910907507257e-11 0.0 0.01000436125141893 0.009996977870542231 0.0 3.198671033440939e-10 0.0 0.01 0.0 3.198671033440939e-10 0.0 0.010004415022142854 0.009997270118245895 0.0 2.1891848438632438e-09 0.0 0.01 0.0 2.1891848438628203e-09 0.0 0.01000451966225731 0.009997652826657783 0.0 1.0223483129153125e-08 0.0 0.01 0.0 1.0223483129153125e-08 0.0 0.010004690798491162 0.009998066561060155 0.0 3.5371741897371686e-08 0.0 0.01 0.0 3.5371741897371686e-08 0.0 0.01000493725425384 0.009998404883179391 0.0 9.79437925043361e-08 0.0 0.01 0.0 9.79437925043361e-08 0.0 0.010005257094089075 0.009998539827196973 0.0 2.2093191413933037e-07 0.0 0.01 0.0 2.2093191413927616e-07 0.0 0.010005620943012772 0.00999813452213102 0.0 -1.6354687750890704e-18 0.0 0.01 0.0 -1.6354687750890704e-18 0.0 0.010004009259836402 0.009998196488015716 0.0 5.226026602319767e-10 0.0 0.01 0.0 5.226026602319767e-10 0.0 0.010004035141041156 0.009998371897696144 0.0 3.869692929475341e-09 0.0 0.01 0.0 3.869692929475341e-09 0.0 0.010004115339011289 0.009998632280686016 0.0 1.5583564314220844e-08 0.0 0.01 0.0 1.5583564314224232e-08 0.0 0.010004256115673354 0.009998924173960482 0.0 4.657772716934634e-08 0.0 0.01 0.0 4.657772716934634e-08 0.0 0.010004468343455758 0.009999159107998095 0.0 1.1319842493855256e-07 0.0 0.01 0.0 1.1319842493852546e-07 0.0 0.01000475193691074 0.00999923109688712 0.0 2.3381059375816816e-07 0.0 0.01 0.0 2.3381059375816816e-07 0.0 0.01000508833923607 0.009999063157570104 0.0 4.156514066779764e-07 0.0 0.01 0.0 4.156514066779764e-07 0.0 0.010005441964906802 0.009999697013770655 0.0 7.122474782674188e-19 0.0 0.01 0.0 7.122474782674188e-19 0.0 0.01000385963336609 0.00999973851025827 0.0 3.0332107036241206e-09 0.0 0.01 0.0 3.0332107036249676e-09 0.0 0.01000388946801938 0.009999852003325297 0.0 1.6288460253548534e-08 0.0 0.01 0.0 1.6288460253548534e-08 0.0 0.010003985781742405 0.009999988000415206 0.0 5.1239723332943904e-08 0.0 0.01 0.0 5.1239723332943904e-08 0.0 0.010004145626902538 0.010000073253085747 0.0 1.233484463658216e-07 0.0 0.01 0.0 1.233484463658216e-07 0.0 0.010004366160118908 0.010000018559136193 0.0 2.4617327080262395e-07 0.0 0.01 0.0 2.4617327080262395e-07 0.0 0.010004637032396391 0.009999771534759614 0.0 4.2383993728632805e-07 0.0 0.01 0.0 4.2383993728632805e-07 0.0 0.010004948046965282 0.009999453107196429 0.0 6.44796921740352e-07 0.0 0.01 0.0 6.447969217401352e-07 0.0 0.0100053138448238 0.010001131041859419 0.0 -4.5879085342047906e-18 0.0 0.01 0.0 -4.5879085342047906e-18 0.0 0.010003891420294791 0.01000113449304209 0.0 8.217682628430432e-09 0.0 0.01 0.0 8.21768262843382e-09 0.0 0.010003921755829683 0.010001126640595801 0.0 3.887894893184131e-08 0.0 0.01 0.0 3.887894893184131e-08 0.0 0.010004013665360386 0.010001056819206777 0.0 1.0651389751708531e-07 0.0 0.01 0.0 1.0651389751713952e-07 0.0 0.010004158844660114 0.010000865820052053 0.0 2.2545597057853362e-07 0.0 0.01 0.0 2.2545597057853362e-07 0.0 0.010004348542444343 0.010000554270028843 0.0 3.9973468787530934e-07 0.0 0.01 0.0 3.997346878750925e-07 0.0 0.01000459398770754 0.010000312572157092 0.0 6.193821016475115e-07 0.0 0.01 0.0 6.193821016475115e-07 0.0 0.010004934357247962 0.010000417632989643 0.0 8.442635155544911e-07 0.0 0.01 0.0 8.442635155547079e-07 0.0 0.010005386305477497 0.010002080749247489 0.0 -5.066786539417844e-18 0.0 0.01 0.0 -5.066786539417844e-18 0.0 0.010004069883244862 0.010002037222401707 0.0 1.4030056371471347e-08 0.0 0.01 0.0 1.4030056371457794e-08 0.0 0.010004097266793806 0.010001913149467453 0.0 6.25547043449034e-08 0.0 0.01 0.0 6.25547043448492e-08 0.0 0.010004175464306302 0.010001721148082569 0.0 1.599139427485314e-07 0.0 0.01 0.0 1.599139427486398e-07 0.0 0.010004299174677659 0.010001557028757414 0.0 3.183029242041866e-07 0.0 0.01 0.0 3.1830292420396977e-07 0.0 0.010004490838510377 0.010001584868756646 0.0 5.298394122697087e-07 0.0 0.01 0.0 5.298394122697087e-07 0.0 0.010004774459190685 0.010001873658187839 0.0 7.385891968364131e-07 0.0 0.01 0.0 7.385891968368467e-07 0.0 0.010005149556655143 0.010002290436871375 0.0 8.178509326951452e-07 0.0 0.01 0.0 8.178509326951452e-07 0.0 0.010005561386067268 0.010003584426296131 0.0 5.788902134402329e-17 0.0 0.01 0.0 5.788902134402329e-17 0.0 0.0100043343663821 0.010003558048101486 0.0 1.7528761977829953e-08 0.0 0.01 0.0 1.7528761977829953e-08 0.0 0.010004360750810569 0.010003514052300677 0.0 7.681076229530334e-08 0.0 0.01 0.0 7.68107622950865e-08 0.0 0.010004441908714622 0.0100035067491491 0.0 1.9019529122650536e-07 0.0 0.01 0.0 1.9019529122628852e-07 0.0 0.010004586659104505 0.010003546804622468 0.0 3.5185629936778165e-07 0.0 0.01 0.0 3.5185629936778165e-07 0.0 0.010004810136925902 0.010003559086944102 0.0 5.022742631186072e-07 0.0 0.01 0.0 5.022742631186072e-07 0.0 0.010005089370391539 0.010003509187385181 0.0 5.238158619523189e-07 0.0 0.01 0.0 5.238158619523189e-07 0.0 0.010005350031444432 0.010003343488999353 0.0 2.93596666155237e-07 0.0 0.01 0.0 2.93596666155237e-07 0.0 0.010005554938079692 0.010006094416763632 0.0 2.78082012057708e-17 0.0 0.01 0.0 2.78082012057708e-17 0.0 0.010004624806347822 0.010005955015132998 0.0 1.2295421727675083e-08 0.0 0.01 0.0 1.229542172766153e-08 0.0 0.010004646786911358 0.010005547563309583 0.0 5.188702615309404e-08 0.0 0.01 0.0 5.188702615298562e-08 0.0 0.010004724546496055 0.010004974411262527 0.0 1.1580650392372521e-07 0.0 0.01 0.0 1.1580650392372521e-07 0.0 0.010004884428324534 0.010004340228143822 0.0 1.6630687007688702e-07 0.0 0.01 0.0 1.6630687007645334e-07 0.0 0.010005115727064225 0.01000383130283661 0.0 1.1922899738998297e-07 0.0 0.01 0.0 1.1922899738998297e-07 0.0 0.010005337272060398 0.01000304824482966 0.0 -1.0420892705410812e-07 0.0 0.01 0.0 -1.0420892705410812e-07 0.0 0.010005385198559102 0.010004502539104197 0.0 -7.015163201535122e-17 0.0 0.01 0.0 -7.015163201535122e-17 0.0 0.01000489419062209 0.010004303576523328 0.0 -2.5171181036861764e-09 0.0 0.01 0.0 -2.5171181036929527e-09 0.0 0.010004912817998013 0.01000377558722705 0.0 -1.7166420398508856e-08 0.0 0.01 0.0 -1.716642039853596e-08 0.0 0.010004992035620549 0.010003108399430641 0.0 -6.880460676981495e-08 0.0 0.01 0.0 -6.880460676981495e-08 0.0 0.010005168555043353 0.010002439848510318 0.0 -1.9798429886535348e-07 0.0 0.01 0.0 -1.9798429886535348e-07 0.0 0.010005420409812681 0.009999671516185952 0.0 1.2637176985721195e-15 0.0 0.01 0.0 1.2637176985721195e-15 0.0 0.010000011700020532 0.009999682515120137 0.0 9.977880814655927e-16 0.0 0.01 0.0 9.977880814655927e-16 0.0 0.010000012700024194 0.009999696513816138 0.0 -1.096705441248776e-15 0.0 0.01 0.0 -1.096705441248776e-15 0.0 0.010000010750017335 0.009999717012012785 0.0 -2.8018003923762106e-15 0.0 0.01 0.0 -2.8018003923762106e-15 0.0 0.010000007800009128 0.00999974600967699 0.0 -6.64610572847247e-16 0.0 0.01 0.0 -6.64610572847247e-16 0.0 0.01000000195000057 0.009999782507095682 0.0 8.406114316211288e-15 0.0 0.01 0.0 8.406114316262987e-15 0.0 0.009999994500004538 0.00999982750446331 0.0 2.858344352241995e-14 0.0 0.01 0.0 2.858344352200636e-14 0.0 0.009999986500027336 0.009999601023878563 0.0 -1.5707615519556966e-15 0.0 0.01 0.0 -1.5707615519556966e-15 0.0 0.010000016600041335 0.009999612522521984 0.0 -3.8697566080610854e-15 0.0 0.01 0.0 -3.8697566080610854e-15 0.0 0.010000016600041337 0.009999628020756315 0.0 -8.191929563242913e-15 0.0 0.01 0.0 -8.191929563217064e-15 0.0 0.010000015600036506 0.009999653018060306 0.0 -1.5135006633787994e-14 0.0 0.01 0.0 -1.5135006633839692e-14 0.0 0.010000010750017335 0.009999687514647675 0.0 -1.8085381976099723e-14 0.0 0.01 0.0 -1.8085381976099723e-14 0.0 0.010000003400001735 0.009999731510813355 0.0 -8.7863734043653e-15 0.0 0.01 0.0 -8.7863734043653e-15 0.0 0.00999999300000735 0.009999784006998151 0.0 1.232273482100318e-14 0.0 0.01 0.0 1.2322734820899782e-14 0.0 0.009999983000043353 0.009999841003792049 0.0 3.7310266437504237e-14 0.0 0.01 0.0 3.7310266437504237e-14 0.0 0.009999974500097536 0.00999953403257087 0.0 -2.817115937005452e-15 0.0 0.01 0.0 -2.817115937005452e-15 0.0 0.01000002000006 0.009999543531256462 0.0 -6.6502000803854475e-15 0.0 0.01 0.0 -6.6502000803854475e-15 0.0 0.010000021000066152 0.009999561528840233 0.0 -1.2157134523200112e-14 0.0 0.01 0.0 -1.2157134523200112e-14 0.0 0.010000019550057334 0.009999587525521682 0.0 -1.976971672080647e-14 0.0 0.01 0.0 -1.9769716720703072e-14 0.0 0.010000014150030033 0.009999627020868053 0.0 -2.073146931969267e-14 0.0 0.01 0.0 -2.0731469319899465e-14 0.0 0.0100000049000036 0.00999967801555177 0.0 -8.422466089665264e-15 0.0 0.01 0.0 -8.422466089665264e-15 0.0 0.009999992000009604 0.00999974001013956 0.0 2.065015204847967e-14 0.0 0.01 0.0 2.065015204847967e-14 0.0 0.009999978500069336 0.009999806505616158 0.0 4.489706922282628e-14 0.0 0.01 0.0 4.489706922282628e-14 0.0 0.009999968500148839 0.009999460043736065 0.0 -3.786714289278551e-15 0.0 0.01 0.0 -3.786714289278551e-15 0.0 0.010000024400089305 0.009999470542051829 0.0 -5.473487217018574e-15 0.0 0.01 0.0 -5.473487217018574e-15 0.0 0.010000024900093003 0.009999487539395073 0.0 -7.274694389869351e-15 0.0 0.01 0.0 -7.274694389869351e-15 0.0 0.010000024400089307 0.009999515535208194 0.0 -4.5865985310481385e-15 0.0 0.01 0.0 -4.5865985310481385e-15 0.0 0.010000017600046464 0.009999559529103905 0.0 7.832713505831358e-15 0.0 0.01 0.0 7.832713505831358e-15 0.0 0.010000006850007041 0.009999618521829949 0.0 3.6706888658102913e-14 0.0 0.01 0.0 3.6706888658102913e-14 0.0 0.009999991500010838 0.009999690514367799 0.0 5.675657150036909e-13 0.0 0.01 0.0 5.675657150069996e-13 0.0 0.009999975500090035 0.009999769008003843 0.0 1.993452814115773e-12 0.0 0.01 0.0 1.993452814115773e-12 0.0 0.0099999620002166 0.009999377558119906 0.0 -2.4771802591814074e-15 0.0 0.01 0.0 -2.4771802591814074e-15 0.0 0.010000027350112205 0.009999385056727934 0.0 -3.86999599684616e-16 0.0 0.01 0.0 -3.86999599684616e-16 0.0 0.010000029800133207 0.009999402053635257 0.0 1.047766986460471e-14 0.0 0.01 0.0 1.047766986460471e-14 0.0 0.010000026850108142 0.009999431548474245 0.0 3.810892234453729e-14 0.0 0.01 0.0 3.8108922344744086e-14 0.0 0.01000002100006615 0.00999947854079079 0.0 4.398943952620041e-12 0.0 0.01 0.0 4.398943952633276e-12 0.0 0.010000008800011615 0.009999545031051398 0.0 4.033116451865546e-11 0.0 0.01 0.0 4.033116451854958e-11 0.0 0.009999992000009603 0.00999962652092404 0.0 1.1640584820514746e-10 0.0 0.01 0.0 1.1640584820472394e-10 0.0 0.009999972500113441 0.00999972001175946 0.0 2.0790574255037154e-10 0.0 0.01 0.0 2.0790574255037154e-10 0.0 0.009999957500270941 0.009999273579160752 0.0 -5.791338786310365e-16 0.0 0.01 0.0 -5.791338786310365e-16 0.0 0.010000029800133207 0.00999927857807495 0.0 8.898469025293843e-15 0.0 0.01 0.0 8.898469025293843e-15 0.0 0.010000032250156013 0.00999929457465076 0.0 4.107627613647097e-14 0.0 0.01 0.0 4.107627613647097e-14 0.0 0.010000030750141836 0.00999932706793173 0.0 1.681474898259011e-11 0.0 0.01 0.0 1.681474898259011e-11 0.0 0.010000023950086043 0.00999937555849395 0.0 1.515577887472814e-10 0.0 0.01 0.0 1.5155778874770493e-10 0.0 0.010000011250018986 0.009999448045701442 0.0 5.516107650673212e-10 0.0 0.01 0.0 5.516107650656272e-10 0.0 0.009999992000009648 0.009999543031325178 0.0 1.197571027912979e-09 0.0 0.01 0.0 1.1975710279095908e-09 0.0 0.00999996950013975 0.009999649518426997 0.0 1.8922441829855464e-09 0.0 0.01 0.0 1.892244182971994e-09 0.0 0.009999952500338971 0.009999146609253795 0.0 2.94194882555893e-15 0.0 0.01 0.0 2.94194882555893e-15 0.0 0.010000035150185329 0.009999151108104856 0.0 2.433744679781423e-14 0.0 0.01 0.0 2.433744679781423e-14 0.0 0.01000003660020094 0.009999165604444013 0.0 1.3463684221780052e-11 0.0 0.01 0.0 1.3463684221753582e-11 0.0 0.010000036150196026 0.00999919459731148 0.0 1.938253137866992e-10 0.0 0.01 0.0 1.938253137871227e-10 0.0 0.010000028800124423 0.00999924608526683 0.0 9.761182976427714e-10 0.0 0.01 0.0 9.761182976410774e-10 0.0 0.010000014650032337 0.009999319569455354 0.0 2.8177580830418807e-09 0.0 0.01 0.0 2.817758083028328e-09 0.0 0.009999993500007529 0.009999418050808393 0.0 5.61182357465659e-09 0.0 0.01 0.0 5.611823574683695e-09 0.0 0.009999968500153562 0.009999538032024222 0.0 8.201127463334373e-09 0.0 0.01 0.0 8.201127463334373e-09 0.0 0.009999947000431435 0.00999899365193085 0.0 4.2326684822705536e-15 0.0 0.01 0.0 4.2326684822705536e-15 0.0 0.010000040550246647 0.009998993651930852 0.0 2.2779089220923742e-12 0.0 0.01 0.0 2.277908922095683e-12 0.0 0.01000004250027094 0.009999006148180854 0.0 1.0468033984596735e-10 0.0 0.01 0.0 1.046803398461791e-10 0.0 0.010000042500270945 0.009999031140821511 0.0 8.398355234822796e-10 0.0 0.01 0.0 8.398355234822796e-10 0.0 0.010000035650190744 0.009999074628464466 0.0 3.409818969904053e-09 0.0 0.01 0.0 3.409818969897277e-09 0.0 0.010000020000061744 0.009999140110936342 0.0 9.033591907405881e-09 0.0 0.01 0.0 9.033591907419434e-09 0.0 0.009999995000015994 0.00999923358816215 0.0 1.7334061028863096e-08 0.0 0.01 0.0 1.7334061028863096e-08 0.0 0.009999965000228825 0.009999360061524775 0.0 2.4674920640261645e-08 0.0 0.01 0.0 2.4674920640261645e-08 0.0 0.009999940000631332 0.00999881371112559 0.0 4.991292397398242e-15 0.0 0.01 0.0 4.991292397398242e-15 0.0 0.010000048350350663 0.009998809712551366 0.0 1.9681432259498478e-11 0.0 0.01 0.0 1.9681432259472008e-11 0.0 0.010000051750401714 0.009998813711125605 0.0 3.5671564858988933e-10 0.0 0.01 0.0 3.567156485894658e-10 0.0 0.010000053700432577 0.00999882820599812 0.0 2.245667708585745e-09 0.0 0.01 0.0 2.2456677085925213e-09 0.0 0.010000048350351417 0.009998857195940307 0.0 8.280123097858128e-09 0.0 0.01 0.0 8.280123097844576e-09 0.0 0.01000003075015212 0.009998900181534558 0.0 2.1265145505762733e-08 0.0 0.01 0.0 2.1265145505789838e-08 0.0 0.010000001000067989 0.009998970159355115 0.0 4.0615096179048155e-08 0.0 0.01 0.0 4.0615096178993945e-08 0.0 0.009999963500447307 0.009999086125799764 0.0 5.827867060660165e-08 0.0 0.01 0.0 5.827867060671007e-08 0.0 0.009999932001203114 0.009998600793721531 0.0 1.7826775784220507e-13 0.0 0.01 0.0 1.7826775784220507e-13 0.0 0.010000061500567347 0.00999858929856794 0.0 5.848167295492881e-11 0.0 0.01 0.0 5.848167295487587e-11 0.0 0.010000067850690556 0.009998585300263025 0.0 7.667002306411091e-10 0.0 0.01 0.0 7.667002306419561e-10 0.0 0.01000007180077338 0.009998584300690233 0.0 4.313118770297319e-09 0.0 0.01 0.0 4.313118770293931e-09 0.0 0.010000067850693345 0.00999858979839137 0.0 1.526900576253611e-08 0.0 0.01 0.0 1.526900576253611e-08 0.0 0.010000050300414495 0.009998597795210788 0.0 3.905657272411638e-08 0.0 0.01 0.0 3.905657272417059e-08 0.0 0.010000011700249388 0.009998623785006803 0.0 7.568296725684719e-08 0.0 0.01 0.0 7.568296725684719e-08 0.0 0.009999962001075943 0.0099987057531549 0.0 1.1104479563184364e-07 0.0 0.01 0.0 1.1104479563184364e-07 0.0 0.009999917002883291 0.009998348409252919 0.0 7.424048263201965e-13 0.0 0.01 0.0 7.424048263210237e-13 0.0 0.010000082051009843 0.00999832841922078 0.0 1.0120252740943237e-10 0.0 0.01 0.0 1.0120252740953825e-10 0.0 0.010000092751290407 0.009998314426269821 0.0 1.17275722920992e-09 0.0 0.01 0.0 1.17275722920992e-09 0.0 0.010000103501607068 0.009998297934658567 0.0 6.3036601080648726e-09 0.0 0.01 0.0 6.303660108071649e-09 0.0 0.010000104001628393 0.009998277445254602 0.0 2.207514259610537e-08 0.0 0.01 0.0 2.2075142596078264e-08 0.0 0.010000082051082958 0.00999824846077833 0.0 5.698900427638428e-08 0.0 0.01 0.0 5.69890042764927e-08 0.0 0.010000035150672607 0.009998222975685714 0.0 1.1255316628830305e-07 0.0 0.01 0.0 1.1255316628830305e-07 0.0 0.009999961502123018 0.009998255460854996 0.0 1.6801254668161875e-07 0.0 0.01 0.0 1.6801254668161875e-07 0.0 0.009999892005984766 0.00999805506756151 0.0 8.157253255475648e-13 0.0 0.01 0.0 8.157253255475648e-13 0.0 0.010000113301925571 0.009998027084013249 0.0 1.1398335574167641e-10 0.0 0.01 0.0 1.1398335574167641e-10 0.0 0.010000129902531157 0.009997999100700221 0.0 1.3243963453059773e-09 0.0 0.01 0.0 1.3243963453068243e-09 0.0 0.010000148453305954 0.00999796811945624 0.0 7.135748922765294e-09 0.0 0.01 0.0 7.1357489227585175e-09 0.0 0.01000015725371687 0.009997929143540236 0.0 2.5239120698015093e-08 0.0 0.01 0.0 2.523912069800154e-08 0.0 0.01000013820296053 0.009997878176170785 0.0 6.627515256117222e-08 0.0 0.01 0.0 6.6275152561118e-08 0.0 0.010000077651563489 0.009997822713958342 0.0 1.3326971249727048e-07 0.0 0.01 0.0 1.332697124973789e-07 0.0 0.009999980502721934 0.009997834209983226 0.0 2.029677238987726e-07 0.0 0.01 0.0 2.029677238987726e-07 0.0 0.009999902507607062 0.009997714283913607 0.0 2.251692367747168e-13 0.0 0.01 0.0 2.2516923677451e-13 0.0 0.010000153803548259 0.009997674311575656 0.0 8.266172444462425e-11 0.0 0.01 0.0 8.266172444467719e-11 0.0 0.010000185055136685 0.009997633840072129 0.0 1.0974694500496819e-09 0.0 0.01 0.0 1.0974694500496819e-09 0.0 0.01000021340683136 0.009997592869426508 0.0 6.231783948069399e-09 0.0 0.01 0.0 6.231783948069399e-09 0.0 0.010000232908142505 0.009997545404129693 0.0 2.2750987456473886e-08 0.0 0.01 0.0 2.275098745648744e-08 0.0 0.010000222157480533 0.009997487947444338 0.0 6.140696113851964e-08 0.0 0.01 0.0 6.140696113851964e-08 0.0 0.010000167954797013 0.009997433990406162 0.0 1.2664226554991252e-07 0.0 0.01 0.0 1.2664226554991252e-07 0.0 0.010000093253710924 0.009997450980889692 0.0 1.9882375858844194e-07 0.0 0.01 0.0 1.9882375858833352e-07 0.0 0.010000112807840284 0.009997320077682618 0.0 -3.99719117845358e-15 0.0 0.01 0.0 -3.99719117845358e-15 0.0 0.010000209456580625 0.009997267620292963 0.0 3.3802845265925936e-11 0.0 0.01 0.0 3.38028452659127e-11 0.0 0.010000251009450548 0.009997215663311543 0.0 6.357901434772821e-10 0.0 0.01 0.0 6.357901434777057e-10 0.0 0.01000029591313423 0.009997164706292092 0.0 4.094291311209467e-09 0.0 0.01 0.0 4.094291311207773e-09 0.0 0.010000331566492236 0.009997115748354195 0.0 1.5912766703798898e-08 0.0 0.01 0.0 1.5912766703785346e-08 0.0 0.010000339367312741 0.009997065292681906 0.0 4.471680270217034e-08 0.0 0.01 0.0 4.471680270217034e-08 0.0 0.010000314465132654 0.009997026328282019 0.0 9.474096838968903e-08 0.0 0.01 0.0 9.474096838968903e-08 0.0 0.010000309115679087 0.009997048810355758 0.0 1.5079689313983154e-07 0.0 0.01 0.0 1.5079689313988575e-07 0.0 0.010000425330546285 0.009996864974873867 0.0 1.3521198171159013e-15 0.0 0.01 0.0 1.3521198171159013e-15 0.0 0.010000276361455927 0.009996798538060308 0.0 4.427526726721942e-12 0.0 0.01 0.0 4.427526726721942e-12 0.0 0.010000332516584356 0.009996737097674801 0.0 2.259488265308471e-10 0.0 0.01 0.0 2.2594882653095298e-10 0.0 0.010000392623121733 0.009996678155931155 0.0 1.9015028019425044e-09 0.0 0.01 0.0 1.9015028019425044e-09 0.0 0.010000446829947307 0.009996626707643641 0.0 8.331086987111753e-09 0.0 0.01 0.0 8.331086987115141e-09 0.0 0.010000479034429311 0.009996583751504475 0.0 2.4977996369176755e-08 0.0 0.01 0.0 2.4977996369176755e-08 0.0 0.010000490736214554 0.009996557279115465 0.0 5.474692222576672e-08 0.0 0.01 0.0 5.4746922225739616e-08 0.0 0.010000547395392703 0.00999657825821458 0.0 8.81096872097848e-08 0.0 0.01 0.0 8.81096872098119e-08 0.0 0.010000694423491713 0.009996342008115089 0.0 8.489486707397197e-15 0.0 0.01 0.0 8.489486707397197e-15 0.0 0.010000354518851652 0.009996262096833014 0.0 -3.690824278016515e-14 0.0 0.01 0.0 -3.690824278016515e-14 0.0 0.010000426277255297 0.00999618718174657 0.0 3.353378935945213e-11 0.0 0.01 0.0 3.35337893594389e-11 0.0 0.010000500537578174 0.009996120758445401 0.0 5.351938340433891e-10 0.0 0.01 0.0 5.351938340436009e-10 0.0 0.010000569848705477 0.009996066322292375 0.0 2.999472203829589e-09 0.0 0.01 0.0 2.999472203830436e-09 0.0 0.010000625558695008 0.009996025870327378 0.0 1.0138264040368756e-08 0.0 0.01 0.0 1.0138264040368756e-08 0.0 0.010000666066556212 0.009996006893094047 0.0 2.3737390166969445e-08 0.0 0.01 0.0 2.373739016696267e-08 0.0 0.010000749584357633 0.009996021375910089 0.0 3.934540189318061e-08 0.0 0.01 0.0 3.934540189319416e-08 0.0 0.010000893670014917 0.009995744218294097 0.0 1.1253992090258527e-14 0.0 0.01 0.0 1.1253992090258527e-14 0.0 0.010000443379486062 0.009995649840230837 0.0 -2.780693563689998e-15 0.0 0.01 0.0 -2.780693563689998e-15 0.0 0.01000052834186882 0.009995560957515134 0.0 -6.116443847730954e-13 0.0 0.01 0.0 -6.116443847728886e-13 0.0 0.010000618707415095 0.00999548406089887 0.0 5.321972697770764e-11 0.0 0.01 0.0 5.321972697773411e-11 0.0 0.01000070417437225 0.009995424642001871 0.0 5.789114606841631e-10 0.0 0.01 0.0 5.789114606841631e-10 0.0 0.010000773039629351 0.009995383199197702 0.0 2.5704474467851398e-09 0.0 0.01 0.0 2.570447446785987e-09 0.0 0.010000826752517648 0.009995362228342256 0.0 6.894507647587573e-09 0.0 0.01 0.0 6.894507647587573e-09 0.0 0.010000914175349339 0.00999536572349265 0.0 1.2408759309484016e-08 0.0 0.01 0.0 1.2408759309484016e-08 0.0 0.01000104606413774 0.00999506265900908 0.0 -1.205436728723492e-15 0.0 0.01 0.0 -1.205436728723492e-15 0.0 0.010000540093752038 0.009994950826698767 0.0 1.3614826683464753e-14 0.0 0.01 0.0 1.3614826683464753e-14 0.0 0.010000643612130154 0.009994847484999214 0.0 -5.375693581403229e-13 0.0 0.01 0.0 -5.375693581403229e-13 0.0 0.010000750084385552 0.009994759122899809 0.0 -3.306007437194152e-12 0.0 0.01 0.0 -3.306007437194152e-12 0.0 0.01000084485705546 0.009994692228857818 0.0 1.1088593553858599e-11 0.0 0.01 0.0 1.1088593553858599e-11 0.0 0.010000921527366253 0.009994646302382754 0.0 2.2750940410222646e-10 0.0 0.01 0.0 2.2750940410217352e-10 0.0 0.010000978643642773 0.009994622840188849 0.0 9.094980013406464e-10 0.0 0.01 0.0 9.094980013408581e-10 0.0 0.010001059718426799 0.009994614853097118 0.0 1.9594970875786283e-09 0.0 0.01 0.0 1.959497087579052e-09 0.0 0.010001182809823345 0.009994286899659447 0.0 -2.260118478121384e-14 0.0 0.01 0.0 -2.260118478121384e-14 0.0 0.010000647012788416 0.009994151135387219 0.0 2.4837508869367675e-14 0.0 0.01 0.0 2.4837508869367675e-14 0.0 0.010000767688392772 0.009994029850661492 0.0 -4.903420242077703e-13 0.0 0.01 0.0 -4.903420242077703e-13 0.0 0.010000888318352408 0.009993928533884736 0.0 -3.562024517901107e-12 0.0 0.01 0.0 -3.5620245179002797e-12 0.0 0.010000998199440433 0.009993851674937106 0.0 -1.18740445315759e-11 0.0 0.01 0.0 -1.18740445315759e-11 0.0 0.010001084176290252 0.009993803264691995 0.0 -2.573204850056092e-11 0.0 0.01 0.0 -2.5732048500554303e-11 0.0 0.010001140345028364 0.009993774318695952 0.0 -3.149993573181451e-11 0.0 0.01 0.0 -3.149993573182113e-11 0.0 0.010001212620531627 0.009993764337376324 0.0 1.6494728632495075e-12 0.0 0.01 0.0 1.649472863249921e-12 0.0 0.01000132836463602 0.00999340902187998 0.0 -4.2664568620283857e-14 0.0 0.01 0.0 -4.2664568620283857e-14 0.0 0.010000760836822093 0.009993245848950958 0.0 2.3877265916186995e-14 0.0 0.01 0.0 2.3877265916186995e-14 0.0 0.010000900521626275 0.009993097652941806 0.0 -4.601698413128946e-13 0.0 0.01 0.0 -4.601698413126878e-13 0.0 0.01000104116258036 0.009992974909724136 0.0 -3.9948127768223896e-12 0.0 0.01 0.0 -3.994812776823217e-12 0.0 0.010001166203973042 0.00999288310474557 0.0 -1.4222231333741249e-11 0.0 0.01 0.0 -1.4222231333741249e-11 0.0 0.010001264389761799 0.009992822734372391 0.0 -3.2006052228612504e-11 0.0 0.01 0.0 -3.2006052228612504e-11 0.0 0.010001323012508008 0.009992790304458394 0.0 -4.742714023506673e-11 0.0 0.01 0.0 -4.742714023506011e-11 0.0 0.010001390439944734 0.009992779328251319 0.0 -3.71527684256273e-11 0.0 0.01 0.0 -3.715276842563392e-11 0.0 0.010001504239342337 0.009992415637117768 0.0 -4.248757406902717e-14 0.0 0.01 0.0 -4.248757406902717e-14 0.0 0.010000883417050065 0.009992218591979126 0.0 1.3701051561003748e-14 0.0 0.01 0.0 1.3701051561003748e-14 0.0 0.010001043113190071 0.009992037021462638 0.0 -4.451159209216697e-13 0.0 0.01 0.0 -4.451159209216697e-13 0.0 0.010001203817341547 0.009991882893819078 0.0 -4.607513250930153e-12 0.0 0.01 0.0 -4.607513250930153e-12 0.0 0.010001351323862085 0.009991766679309276 0.0 -1.745849900545924e-11 0.0 0.01 0.0 -1.745849900545593e-11 0.0 0.010001466122364203 0.009991686877702369 0.0 -4.056349153529369e-11 0.0 0.01 0.0 -4.0563491535287075e-11 0.0 0.010001532102028582 0.009991642987633578 0.0 -6.115452012022968e-11 0.0 0.01 0.0 -6.115452012022968e-11 0.0 0.01000160388578494 0.009991622040304642 0.0 -4.7703387143644176e-11 0.0 0.01 0.0 -4.7703387143644176e-11 0.0 0.010001724095773462 0.00999130186181711 0.0 -1.7154201897925711e-15 0.0 0.01 0.0 -1.7154201897925711e-15 0.0 0.01000101380414899 0.009991061997480092 0.0 7.840747876901334e-15 0.0 0.01 0.0 7.840747876901334e-15 0.0 0.010001195514354017 0.009990835613308772 0.0 -4.819416661747503e-13 0.0 0.01 0.0 -4.819416661746986e-13 0.0 0.01000138063587069 0.009990642650404495 0.0 -5.5419989275874054e-12 0.0 0.01 0.0 -5.541998927586578e-12 0.0 0.01000155066060769 0.009990485595829136 0.0 -2.185912141298452e-11 0.0 0.01 0.0 -2.185912141298452e-11 0.0 0.010001686476534554 0.009990375412754451 0.0 -5.187987502451804e-11 0.0 0.01 0.0 -5.1879875024524656e-11 0.0 0.010001767568534355 0.009990302624125612 0.0 -7.860437528980879e-11 0.0 0.01 0.0 -7.860437528980879e-11 0.0 0.010001853064950224 0.00999026323916102 0.0 -5.902662486532643e-11 0.0 0.01 0.0 -5.902662486533304e-11 0.0 0.010001986441735887 0.009990059342172206 0.0 1.1867543603820409e-13 0.0 0.01 0.0 1.1867543603820409e-13 0.0 0.010001155450228939 0.009989772212570839 0.0 1.0250303602059005e-14 0.0 0.01 0.0 1.0250303602059005e-14 0.0 0.010001353324673586 0.009989493082526016 0.0 -7.18814748671271e-13 0.0 0.01 0.0 -7.18814748671271e-13 0.0 0.010001563366540836 0.009989241885489948 0.0 -7.2239331295396545e-12 0.0 0.01 0.0 -7.223933129540482e-12 0.0 0.010001762165674768 0.009989032070744893 0.0 -2.8271436325367744e-11 0.0 0.01 0.0 -2.8271436325367744e-11 0.0 0.010001921953944089 0.009988870108784376 0.0 -6.706649859058306e-11 0.0 0.01 0.0 -6.706649859058968e-11 0.0 0.010002025515240638 0.009988754995995929 0.0 -1.0033082257610196e-10 0.0 0.01 0.0 -1.0033082257610196e-10 0.0 0.010002141287570562 0.009988678754651578 0.0 -6.873847257260648e-11 0.0 0.01 0.0 -6.87384725726131e-11 0.0 0.010002301594356713 0.009988703669931553 0.0 2.2543266262239537e-13 0.0 0.01 0.0 2.2543266262239537e-13 0.0 0.010001312258258076 0.00998836035378964 0.0 -1.0478524639454557e-13 0.0 0.01 0.0 -1.0478524639454557e-13 0.0 0.010001523297994835 0.009988016076635799 0.0 -1.5289702470547122e-12 0.0 0.01 0.0 -1.5289702470551258e-12 0.0 0.010001754361559702 0.009987692757572986 0.0 -1.0614615731552134e-11 0.0 0.01 0.0 -1.0614615731551307e-11 0.0 0.010001979087363024 0.00998740931876982 0.0 -3.849934566144722e-11 0.0 0.01 0.0 -3.849934566144722e-11 0.0 0.010002161850837842 0.009987174715448407 0.0 -8.867824158292029e-11 0.0 0.01 0.0 -8.867824158292029e-11 0.0 0.010002288385266464 0.009986995411954693 0.0 -1.2801054978508734e-10 0.0 0.01 0.0 -1.2801054978508734e-10 0.0 0.010002454003024153 0.009986862932799346 0.0 -7.394138078156594e-11 0.0 0.01 0.0 -7.394138078156594e-11 0.0 0.010002666616247222 0.009987263872724849 0.0 -1.139360504936224e-13 0.0 0.01 0.0 -1.139360504936224e-13 0.0 0.010001492534082213 0.009986860442640138 0.0 -9.036741091444714e-13 0.0 0.01 0.0 -9.036741091444714e-13 0.0 0.010001707937457935 0.009986443118273038 0.0 -3.8361218218639994e-12 0.0 0.01 0.0 -3.836121821863172e-12 0.0 0.0100019556735493 0.0099860338127366 0.0 -1.7582017013208963e-11 0.0 0.01 0.0 -1.7582017013208963e-11 0.0 0.01000220287768678 0.009985655424167173 0.0 -5.6152629296999865e-11 0.0 0.01 0.0 -5.6152629296999865e-11 0.0 0.010002400764273703 0.00998532685846135 0.0 -1.2198185204132396e-10 0.0 0.01 0.0 -1.2198185204132396e-10 0.0 0.010002535163732505 0.009985056562811422 0.0 -1.659223517390452e-10 0.0 0.01 0.0 -1.659223517390452e-10 0.0 0.010002768749471693 0.009984840541186656 0.0 -7.227128189117447e-11 0.0 0.01 0.0 -7.227128189118108e-11 0.0 0.010003072215196217 0.00998581324680203 0.0 -2.0085686593078505e-12 0.0 0.01 0.0 -2.0085686593076437e-12 0.0 0.010001721144248679 0.009985352744279356 0.0 -3.6206102178922587e-12 0.0 0.01 0.0 -3.6206102178922587e-12 0.0 0.01000192390506922 0.009984857464033584 0.0 -9.364149094542186e-12 0.0 0.01 0.0 -9.364149094543013e-12 0.0 0.010002180913249984 0.00998435280199055 0.0 -3.1516233785888895e-11 0.0 0.01 0.0 -3.1516233785888895e-11 0.0 0.01000244279479552 0.009983865134262667 0.0 -8.80469879366219e-11 0.0 0.01 0.0 -8.804698793662852e-11 0.0 0.010002638243682319 0.009983424304326834 0.0 -1.7781714594557798e-10 0.0 0.01 0.0 -1.7781714594557798e-10 0.0 0.010002748182461064 0.009983040740236253 0.0 -2.2438640717301246e-10 0.0 0.01 0.0 -2.243864071730257e-10 0.0 0.010003051696359426 0.009982719396319359 0.0 -6.461044352275227e-11 0.0 0.01 0.0 -6.461044352275889e-11 0.0 0.010003491077292516 0.009984482692895445 0.0 -6.980132989002534e-12 0.0 0.01 0.0 -6.980132989003361e-12 0.0 0.010002026966122233 0.009983967638077898 0.0 -9.629501038456544e-12 0.0 0.01 0.0 -9.629501038455717e-12 0.0 0.010002209732221736 0.009983400423559809 0.0 -2.0195415778889332e-11 0.0 0.01 0.0 -2.0195415778889332e-11 0.0 0.010002468213511053 0.009982802962649528 0.0 -5.823806561556544e-11 0.0 0.01 0.0 -5.823806561557206e-11 0.0 0.010002734521232142 0.009982206603663663 0.0 -1.4791787424234452e-10 0.0 0.01 0.0 -1.4791787424234452e-10 0.0 0.010002906516684992 0.009981646153491466 0.0 -2.784387265263357e-10 0.0 0.01 0.0 -2.784387265263357e-10 0.0 0.01000293344025611 0.009981136509254146 0.0 -3.24793327791045e-10 0.0 0.01 0.0 -3.2479332779101854e-10 0.0 0.010003270653877086 0.009980695046424794 0.0 -5.894030474529022e-11 0.0 0.01 0.0 -5.894030474529353e-11 0.0 0.010003887015159026 0.009983458633229655 0.0 -1.479276492065055e-11 0.0 0.01 0.0 -1.479276492065055e-11 0.0 0.010002456454829186 0.009982905931192354 0.0 -1.7914736557741663e-11 0.0 0.01 0.0 -1.7914736557741663e-11 0.0 0.010002618227908761 0.009982284686290492 0.0 -3.7856081323646995e-11 0.0 0.01 0.0 -3.7856081323643687e-11 0.0 0.010002878692553688 0.009981612837776073 0.0 -1.0851505371819301e-10 0.0 0.01 0.0 -1.0851505371819301e-10 0.0 0.010003152390008123 0.009980927701966347 0.0 -2.6297139983805913e-10 0.0 0.01 0.0 -2.6297139983805913e-10 0.0 0.010003272605791612 0.009980260600789397 0.0 -4.663780035019986e-10 0.0 0.01 0.0 -4.663780035019721e-10 0.0 0.010003134773404825 0.009979639352637442 0.0 -5.050362275740775e-10 0.0 0.01 0.0 -5.050362275740775e-10 0.0 0.01000341189536051 0.009979087781518594 0.0 -7.293398582386025e-11 0.0 0.01 0.0 -7.293398582386025e-11 0.0 0.010004216064782297 0.009982978558264369 0.0 -2.0051066871053425e-11 0.0 0.01 0.0 -2.005106687105508e-11 0.0 0.01000306976293834 0.009982421459638569 0.0 -2.250329843348876e-11 0.0 0.01 0.0 -2.2503298433490414e-11 0.0 0.010003225660061446 0.00998177892241717 0.0 -6.31029660915192e-11 0.0 0.01 0.0 -6.310296609152251e-11 0.0 0.010003501838572536 0.009981079334527201 0.0 -2.009624442504347e-10 0.0 0.01 0.0 -2.009624442504347e-10 0.0 0.010003786349381108 0.009980351561255266 0.0 -4.791311266767014e-10 0.0 0.01 0.0 -4.79131126676675e-10 0.0 0.010003833252948296 0.009979632395315139 0.0 -8.096723220816775e-10 0.0 0.01 0.0 -8.096723220816246e-10 0.0 0.010003448082571562 0.009978945182964952 0.0 -8.209604020783527e-10 0.0 0.01 0.0 -8.209604020784056e-10 0.0 0.010003534122621073 0.00997832368365476 0.0 -1.314838349285633e-10 0.0 0.01 0.0 -1.314838349285633e-10 0.0 0.010004465389175298 0.009983358632629889 0.0 -1.1168357864647112e-11 0.0 0.01 0.0 -1.1168357864647112e-11 0.0 0.010003935922504028 0.009982832808276049 0.0 -1.3364582476166586e-11 0.0 0.01 0.0 -1.3364582476166586e-11 0.0 0.010004116790800266 0.009982230475864664 0.0 -9.691169156863813e-11 0.0 0.01 0.0 -9.691169156863151e-11 0.0 0.010004432645511017 0.009981577533426825 0.0 -3.6129920931347316e-10 0.0 0.01 0.0 -3.6129920931347316e-10 0.0 0.010004736262704043 0.009980899861984872 0.0 -8.603231522733657e-10 0.0 0.01 0.0 -8.603231522734186e-10 0.0 0.010004693752630196 0.009980222825589375 0.0 -1.4040902355661222e-09 0.0 0.01 0.0 -1.404090235566334e-09 0.0 0.010004017569834113 0.00997956481065531 0.0 -1.3514372930866548e-09 0.0 0.01 0.0 -1.3514372930866548e-09 0.0 0.010003798563267035 0.009978960088450927 0.0 -2.7004853421723826e-10 0.0 0.01 0.0 -2.7004853421722503e-10 0.0 0.010004724546092459 0.009985016244347202 0.0 2.4863694388141815e-11 0.0 0.01 0.0 2.4863694388145124e-11 0.0 0.010005120129676345 0.009984584220350829 0.0 1.9032745297605328e-11 0.0 0.01 0.0 1.9032745297605328e-11 0.0 0.01000536025677471 0.00998410547585509 0.0 -1.4291783116596216e-10 0.0 0.01 0.0 -1.4291783116594893e-10 0.0 0.010005731473705776 0.009983604410631404 0.0 -6.224484712638278e-10 0.0 0.01 0.0 -6.224484712638278e-10 0.0 0.010006050887558595 0.009983101430961601 0.0 -1.4809209442998973e-09 0.0 0.01 0.0 -1.4809209442997915e-09 0.0 0.010005916847222683 0.009982599522094363 0.0 -2.3546646728705282e-09 0.0 0.01 0.0 -2.3546646728705282e-09 0.0 0.010005007158236691 0.009982105646041416 0.0 -2.1877530301896275e-09 0.0 0.01 0.0 -2.1877530301896275e-09 0.0 0.010004531378149072 0.009981641180975484 0.0 -5.253069317022925e-10 0.0 0.01 0.0 -5.253069317023454e-10 0.0 0.010005277625060937 0.009988488408065864 0.0 9.256683151063194e-11 0.0 0.01 0.0 9.256683151063856e-11 0.0 0.010006649676854489 0.009988224830892888 0.0 7.143420944486458e-11 0.0 0.01 0.0 7.143420944486458e-11 0.0 0.010006972134827112 0.009987967751143745 0.0 -2.1824485219859826e-10 0.0 0.01 0.0 -2.1824485219858502e-10 0.0 0.010007397851140295 0.009987740082747054 0.0 -1.0158039704509556e-09 0.0 0.01 0.0 -1.0158039704508497e-09 0.0 0.010007708604234557 0.009987544808474412 0.0 -2.3674794626585554e-09 0.0 0.01 0.0 -2.367479462658767e-09 0.0 0.01000750113161375 0.009987356021024551 0.0 -3.6420218907859284e-09 0.0 0.01 0.0 -3.64202189078614e-09 0.0 0.010006604186537848 0.009987161267353016 0.0 -3.298291283340863e-09 0.0 0.01 0.0 -3.298291283340863e-09 0.0 0.010006259772813069 0.009986971007503733 0.0 -8.859718320950443e-10 0.0 0.01 0.0 -8.859718320950443e-10 0.0 0.010006731891658474 0.009994264438276577 0.0 1.707263138865815e-10 0.0 0.01 0.0 1.7072631388660798e-10 0.0 0.010008492255524625 0.009994241477908375 0.0 1.100501677658751e-10 0.0 0.01 0.0 1.100501677658751e-10 0.0 0.01000889024142143 0.009994293388531606 0.0 -3.5392579468837275e-10 0.0 0.01 0.0 -3.539257946883463e-10 0.0 0.010009346086090368 0.00999443714524858 0.0 -1.5215297730403485e-09 0.0 0.01 0.0 -1.521529773039925e-09 0.0 0.010009618860594375 0.009994641809611094 0.0 -3.368038801751558e-09 0.0 0.01 0.0 -3.3680388017511346e-09 0.0 0.01000951847297363 0.009994865457242113 0.0 -4.953880676886839e-09 0.0 0.01 0.0 -4.953880676886416e-09 0.0 0.010009307879387159 0.009995075639791014 0.0 -4.300123609566653e-09 0.0 0.01 0.0 -4.300123609566653e-09 0.0 0.01000939702904955 0.009995268859672793 0.0 -1.1997937752705964e-09 0.0 0.01 0.0 -1.1997937752704906e-09 0.0 0.010009700145692009 0.010002477970746644 0.0 2.0961109541428274e-10 0.0 0.01 0.0 2.0961109541438862e-10 0.0 0.010010534222126508 0.010002742327641815 0.0 8.197109073790257e-11 0.0 0.01 0.0 8.197109073790257e-11 0.0 0.010010970175344166 0.010003147485376299 0.0 -5.541003005315099e-10 0.0 0.01 0.0 -5.541003005314041e-10 0.0 0.010011418477511596 0.0100036861371404 0.0 -2.0010531273544207e-09 0.0 0.01 0.0 -2.0010531273548442e-09 0.0 0.010011715355321627 0.010004316743535815 0.0 -4.108445881293444e-09 0.0 0.01 0.0 -4.108445881292597e-09 0.0 0.010012094154963673 0.010004978815829036 0.0 -5.665601087787184e-09 0.0 0.01 0.0 -5.665601087787184e-09 0.0 0.010012989615758706 0.010005627797255971 0.0 -4.519900525839216e-09 0.0 0.01 0.0 -4.519900525839216e-09 0.0 0.010013248431713834 0.01000624509531497 0.0 -1.0766001664050308e-09 0.0 0.01 0.0 -1.076600166404819e-09 0.0 0.010013616611408219 0.010012581805502558 0.0 1.716582258553135e-10 0.0 0.01 0.0 1.7165822586886603e-10 0.0 0.010012596510901596 0.010013134230962523 0.0 -2.3069560339967208e-11 0.0 0.01 0.0 -2.3069560339967208e-11 0.0 0.010013005778614404 0.0100138588570431 0.0 -7.357164892972802e-10 0.0 0.01 0.0 -7.357164892972802e-10 0.0 0.01001339501598 0.010014735606841492 0.0 -2.1954812193270836e-09 0.0 0.01 0.0 -2.1954812193270836e-09 0.0 0.010013766174046656 0.010015714715380935 0.0 -4.118718538982332e-09 0.0 0.01 0.0 -4.1187185389891085e-09 0.0 0.010014693923374784 0.010016739688962925 0.0 -5.177422393235062e-09 0.0 0.01 0.0 -5.177422393248614e-09 0.0 0.010016163102606288 0.010017762061800656 0.0 -3.469357510082143e-09 0.0 0.01 0.0 -3.4693575100855313e-09 0.0 0.01001611406595369 0.010018722348000187 0.0 -3.5333260794280006e-10 0.0 0.01 0.0 -3.5333260794280006e-10 0.0 0.010016687176537762 0.010023179444637625 0.0 7.850854249390993e-11 0.0 0.01 0.0 7.850854249390993e-11 0.0 0.01001446833946241 0.010023975095987566 0.0 -1.337054707168635e-10 0.0 0.01 0.0 -1.337054707168635e-10 0.0 0.010014771917081508 0.010024921956970006 0.0 -7.588571136883365e-10 0.0 0.01 0.0 -7.588571136883365e-10 0.0 0.010015073061213919 0.010025994557391288 0.0 -1.9237003819351315e-09 0.0 0.01 0.0 -1.9237003819353432e-09 0.0 0.010015508653291637 0.010027147247173622 0.0 -3.303010242714905e-09 0.0 0.01 0.0 -3.3030102427144817e-09 0.0 0.010016695518170238 0.01002833775070578 0.0 -3.724544215155e-09 0.0 0.01 0.0 -3.724544215155e-09 0.0 0.010018238726607674 0.010029514453130066 0.0 -2.197868941663523e-09 0.0 0.01 0.0 -2.197868941663523e-09 0.0 0.010017416494713082 0.01003057616574972 0.0 -9.283226422994692e-10 0.0 0.01 0.0 -9.283226422994692e-10 0.0 0.010017761559129978 0.010032254484339205 0.0 -5.61672599241368e-12 0.0 0.01 0.0 -5.61672599241368e-12 0.0 0.010015963945930054 0.010033212581647062 0.0 -1.6678565582963753e-10 0.0 0.01 0.0 -1.667856558296243e-10 0.0 0.010016116979995006 0.010034255768122042 0.0 -5.792332463520612e-10 0.0 0.01 0.0 -5.792332463520083e-10 0.0 0.010016300519593837 0.010035337785173851 0.0 -1.3139632550968157e-09 0.0 0.01 0.0 -1.3139632550967098e-09 0.0 0.010016705317099214 0.010036420657813615 0.0 -2.1972688940398835e-09 0.0 0.01 0.0 -2.1972688940396718e-09 0.0 0.010017802778240405 0.010037484615990192 0.0 -2.8178452174285262e-09 0.0 0.01 0.0 -2.8178452174285262e-09 0.0 0.010018832365432113 0.010038480730834841 0.0 -2.8278399663452428e-09 0.0 0.01 0.0 -2.8278399663452428e-09 0.0 0.010017473894071363 0.01003932991554924 0.0 -1.8003545811740179e-09 0.0 0.01 0.0 -1.8003545811738061e-09 0.0 0.010017930912600273 0.01003798488679353 0.0 -4.223163874125117e-11 0.0 0.01 0.0 -4.223163874125117e-11 0.0 0.010016996835867504 0.010039010288838817 0.0 -1.2299110127813564e-10 0.0 0.01 0.0 -1.2299110127813564e-10 0.0 0.010016981156223853 0.010040022696640736 0.0 -3.1957433124410117e-10 0.0 0.01 0.0 -3.1957433124410117e-10 0.0 0.010016967888890586 0.010040958269765298 0.0 -6.964576154714625e-10 0.0 0.01 0.0 -6.964576154714625e-10 0.0 0.010017100916394371 0.01004177694628654 0.0 -1.2443263971043443e-09 0.0 0.01 0.0 -1.2443263971043443e-09 0.0 0.010017708075580115 0.010042478133934168 0.0 -1.804067793564693e-09 0.0 0.01 0.0 -1.804067793564693e-09 0.0 0.010018112591321132 0.010043057757566105 0.0 -1.8477265348606914e-09 0.0 0.01 0.0 -1.8477265348606914e-09 0.0 0.010016862355162958 0.010043521224805275 0.0 -3.946905051957135e-10 0.0 0.01 0.0 -3.9469050519573997e-10 0.0 0.01001800013434476 0.010039869019628412 0.0 -3.63068532509692e-11 0.0 0.01 0.0 -3.63068532509692e-11 0.0 0.010017584825397456 0.01004087277892335 0.0 -5.770015085017537e-11 0.0 0.01 0.0 -5.770015085017537e-11 0.0 0.010017444942957263 0.010041770010082711 0.0 -1.122475699686991e-10 0.0 0.01 0.0 -1.122475699686991e-10 0.0 0.010017301648696757 0.010042482083846848 0.0 -2.2967331251303194e-10 0.0 0.01 0.0 -2.296733125130584e-10 0.0 0.010017238824320266 0.01004298062055837 0.0 -4.181219019996545e-10 0.0 0.01 0.0 -4.1812190199962805e-10 0.0 0.010017477362189095 0.010043276870801721 0.0 -5.880656827780942e-10 0.0 0.01 0.0 -5.880656827780942e-10 0.0 0.010017478317179017 0.010043427766410366 0.0 -3.597683666348397e-10 0.0 0.01 0.0 -3.5976836663481324e-10 0.0 0.01001657336058424 0.010043499493596205 0.0 9.001948761939395e-10 0.0 0.01 0.0 9.001948761939395e-10 0.0 0.010018296693123265 0.010038844821413612 0.0 -1.6052765605600406e-11 0.0 0.01 0.0 -1.6052765605598752e-11 0.0 0.010017827359146149 0.01003977510656146 0.0 -1.4311425825913128e-11 0.0 0.01 0.0 -1.4311425825913128e-11 0.0 0.010017625589942073 0.010040530736170315 0.0 -1.4521000987991116e-11 0.0 0.01 0.0 -1.452100098799277e-11 0.0 0.010017440067534128 0.010041035410800416 0.0 -2.1232924671552263e-11 0.0 0.01 0.0 -2.1232924671552263e-11 0.0 0.010017309991862863 0.010041262794851664 0.0 -3.055142117427654e-11 0.0 0.01 0.0 -3.055142117427654e-11 0.0 0.010017398350286989 0.010041251405033688 0.0 1.4830409097722974e-12 0.0 0.01 0.0 1.4830409097725042e-12 0.0 0.01001726038551305 0.010041078891996801 0.0 2.1608672987463327e-10 0.0 0.01 0.0 2.1608672987463327e-10 0.0 0.010016733307022496 0.010040848534138393 0.0 8.030364897392123e-10 0.0 0.01 0.0 8.030364897392653e-10 0.0 0.010018818587912565 0.010036341702296918 0.0 -2.113796958517352e-12 0.0 0.01 0.0 -2.1137969585177655e-12 0.0 0.010017826856467313 0.01003719428791864 0.0 2.588688788623824e-14 0.0 0.01 0.0 2.588688788623824e-14 0.0 0.010017625589942071 0.010037842630949487 0.0 3.2101762551436847e-12 0.0 0.01 0.0 3.210176255143478e-12 0.0 0.01001746313789822 0.010038208118784473 0.0 9.024258907486719e-12 0.0 0.01 0.0 9.024258907486719e-12 0.0 0.010017374275149015 0.01003827528347603 0.0 2.2933521199993818e-11 0.0 0.01 0.0 2.2933521199997126e-11 0.0 0.010017496964667973 0.010038093011348911 0.0 5.482106479392957e-11 0.0 0.01 0.0 5.482106479392957e-11 0.0 0.010017429261209247 0.010037746347454168 0.0 1.120328359810515e-10 0.0 0.01 0.0 1.1203283598105812e-10 0.0 0.01001718680663106 0.010037344858962937 0.0 1.83846941315292e-10 0.0 0.01 0.0 1.83846941315292e-10 0.0 0.010019395633010878 0.010033426152311304 0.0 1.510874567787581e-12 0.0 0.01 0.0 1.510874567787581e-12 0.0 0.010017656000314868 0.010034233086695075 0.0 -2.599286885400619e-12 0.0 0.01 0.0 -2.599286885400619e-12 0.0 0.010017493546791574 0.010034832503916449 0.0 -1.4060839723251702e-11 0.0 0.01 0.0 -1.4060839723251702e-11 0.0 0.010017394882250149 0.01003515425819446 0.0 -3.499397432533425e-11 0.0 0.01 0.0 -3.499397432533425e-11 0.0 0.010017404683233122 0.01003518139246868 0.0 -6.01696768016119e-11 0.0 0.01 0.0 -6.016967680160528e-11 0.0 0.01001768399820873 0.01003496821496509 0.0 -7.857668144173905e-11 0.0 0.01 0.0 -7.857668144173905e-11 0.0 0.010017828314236147 0.010034593229344368 0.0 -7.587717785737495e-11 0.0 0.01 0.0 -7.587717785736833e-11 0.0 0.010017697268387644 0.010034154637422259 0.0 -4.9376113547125756e-11 0.0 0.01 0.0 -4.937611354711914e-11 0.0 0.010019860761181783 0.010030444114416212 0.0 -8.737877684433585e-13 0.0 0.01 0.0 -8.737877684431517e-13 0.0 0.010017345324899812 0.010031246443263508 0.0 -1.1716474072401884e-11 0.0 0.01 0.0 -1.1716474072403539e-11 0.0 0.010017235356449102 0.010031869959312526 0.0 -4.5435247616927744e-11 0.0 0.01 0.0 -4.543524761693436e-11 0.0 0.010017205904818942 0.010032234795099173 0.0 -1.1519664456289752e-10 0.0 0.01 0.0 -1.1519664456288429e-10 0.0 0.010017308031719557 0.010032328446238041 0.0 -2.1302398095767797e-10 0.0 0.01 0.0 -2.1302398095770444e-10 0.0 0.01001772767941323 0.010032194861637582 0.0 -2.939561242347079e-10 0.0 0.01 0.0 -2.939561242347079e-10 0.0 0.010018007021408749 0.010031905951442885 0.0 -2.564701091572253e-10 0.0 0.01 0.0 -2.564701091571988e-10 0.0 0.010017859229138846 0.010031541656276429 0.0 2.883674308534732e-12 0.0 0.01 0.0 2.8836743085343185e-12 0.0 0.010019869110743797 0.010027147751255175 0.0 -3.641332766455235e-12 0.0 0.01 0.0 -3.641332766455235e-12 0.0 0.010016894768738316 0.010027984230805483 0.0 -2.2094794268414822e-11 0.0 0.01 0.0 -2.2094794268414822e-11 0.0 0.01001683587174566 0.010028686466562199 0.0 -8.763635447134754e-11 0.0 0.01 0.0 -8.763635447134754e-11 0.0 0.0100168648175781 0.010029171098285617 0.0 -2.3449018693424686e-10 0.0 0.01 0.0 -2.3449018693427333e-10 0.0 0.010017027743073023 0.010029412961292167 0.0 -4.524239686744841e-10 0.0 0.01 0.0 -4.524239686744841e-10 0.0 0.010017518075158594 0.010029443983569562 0.0 -6.425068918981343e-10 0.0 0.01 0.0 -6.425068918981343e-10 0.0 0.010017835703625945 0.010029318887365654 0.0 -5.853687748347306e-10 0.0 0.01 0.0 -5.853687748346247e-10 0.0 0.010017627550271855 0.010029104116171621 0.0 -9.25429946667988e-11 0.0 0.01 0.0 -9.25429946667988e-11 0.0 0.010019449646517723 0.010023125370788116 0.0 -1.2889926077778206e-12 0.0 0.01 0.0 -1.288992607777407e-12 0.0 0.010016295093148287 0.010024014931372088 0.0 -2.7663680612308186e-11 0.0 0.01 0.0 -2.7663680612308186e-11 0.0 0.010016273538187981 0.010024833399312164 0.0 -1.329293358230194e-10 0.0 0.01 0.0 -1.329293358230194e-10 0.0 0.010016341720671392 0.0100254936586675 0.0 -3.8175759343755785e-10 0.0 0.01 0.0 -3.817575934376108e-10 0.0 0.010016542407335932 0.010025948298834643 0.0 -7.641558608674827e-10 0.0 0.01 0.0 -7.641558608675885e-10 0.0 0.01001703563325108 0.010026201267389886 0.0 -1.1180397361112098e-09 0.0 0.01 0.0 -1.1180397361112098e-09 0.0 0.010017331101171603 0.010026297219037826 0.0 -1.0866886976492322e-09 0.0 0.01 0.0 -1.0866886976492322e-09 0.0 0.01001708423112788 0.01002627307968203 0.0 -4.5678696481614097e-10 0.0 0.01 0.0 -4.567869648160351e-10 0.0 0.010018721392654471 0.010018237771398214 0.0 7.98115643041829e-12 0.0 0.01 0.0 7.98115643041829e-12 0.0 0.010015548890159159 0.010019177073307175 0.0 -2.1383726885277928e-11 0.0 0.01 0.0 -2.1383726885277928e-11 0.0 0.010015552306045448 0.010020124084227403 0.0 -1.5979566618269811e-10 0.0 0.01 0.0 -1.5979566618275105e-10 0.0 0.010015639663501521 0.01002099020382167 0.0 -5.07483496489392e-10 0.0 0.01 0.0 -5.074834964891802e-10 0.0 0.010015837343929511 0.010021702294560586 0.0 -1.0631249698903522e-09 0.0 0.01 0.0 -1.0631249698903522e-09 0.0 0.010016286752517938 0.010022227188167126 0.0 -1.603139808427481e-09 0.0 0.01 0.0 -1.603139808427481e-09 0.0 0.010016533111368069 0.010022574260155489 0.0 -1.6197761026716879e-09 0.0 0.01 0.0 -1.6197761026716879e-09 0.0 0.010016316698493294 0.010022777285038994 0.0 -9.202524771542512e-10 0.0 0.01 0.0 -9.202524771540395e-10 0.0 0.010017778750452962 0.010012847466265035 0.0 1.8572449145656662e-11 0.0 0.01 0.0 1.8572449145643428e-11 0.0 0.0100146748395483 0.010013799009439599 0.0 -5.070428281822945e-12 0.0 0.01 0.0 -5.07042828180971e-12 0.0 0.010014689554171346 0.01001485136908265 0.0 -1.5164508453414916e-10 0.0 0.01 0.0 -1.5164508453076103e-10 0.0 0.010014783719250334 0.010015922699274876 0.0 -5.529768803003092e-10 0.0 0.01 0.0 -5.529768803003092e-10 0.0 0.010014947999728597 0.010016907533240823 0.0 -1.235472485750541e-09 0.0 0.01 0.0 -1.235472485753929e-09 0.0 0.010015314910267819 0.010017734063251014 0.0 -1.933137141518204e-09 0.0 0.01 0.0 -1.933137141519898e-09 0.0 0.010015523873922537 0.010018365922451429 0.0 -2.031792029560882e-09 0.0 0.01 0.0 -2.031792029560035e-09 0.0 0.0100153683554965 0.010018816626883689 0.0 -1.2781706166676212e-09 0.0 0.01 0.0 -1.2781706166684683e-09 0.0 0.010016683256983695 0.010007657236018727 0.0 2.0972955920331295e-11 0.0 0.01 0.0 2.0972955920331295e-11 0.0 0.010013706328104246 0.010008574966911777 0.0 8.046943060427857e-12 0.0 0.01 0.0 8.046943060434475e-12 0.0 0.010013722544641855 0.01000968104025637 0.0 -1.189730189641253e-10 0.0 0.01 0.0 -1.1897301896417824e-10 0.0 0.010013815176219977 0.010010908423128994 0.0 -5.12033282317311e-10 0.0 0.01 0.0 -5.120332823170992e-10 0.0 0.01001395053842253 0.010012145139888734 0.0 -1.2149777180447556e-09 0.0 0.01 0.0 -1.2149777180447556e-09 0.0 0.01001419421426352 0.010013264144032195 0.0 -2.020450397744231e-09 0.0 0.01 0.0 -2.020450397744231e-09 0.0 0.010014391859331475 0.010014190799767175 0.0 -2.2895206643644243e-09 0.0 0.01 0.0 -2.2895206643102142e-09 0.0 0.010014271694154895 0.010014910733316808 0.0 -1.4216246232817665e-09 0.0 0.01 0.0 -1.4216246232851546e-09 0.0 0.010015449278424295 0.010003305838563027 0.0 1.2358823007033409e-11 0.0 0.01 0.0 1.2358823007035063e-11 0.0 0.010012687203992494 0.010004159844206661 0.0 8.048096847855811e-12 0.0 0.01 0.0 8.048096847857466e-12 0.0 0.01001269799497811 0.010005275171180692 0.0 -8.145725648913616e-11 0.0 0.01 0.0 -8.145725648913616e-11 0.0 0.010012777397628818 0.010006600779796914 0.0 -5.008102786731097e-10 0.0 0.01 0.0 -5.00810278672898e-10 0.0 0.010012909706115404 0.010008023796876719 0.0 -1.9512002057283677e-09 0.0 0.01 0.0 -1.9512002057275207e-09 0.0 0.01001307590224231 0.010009398984552338 0.0 -4.136372858283137e-09 0.0 0.01 0.0 -4.136372858281443e-09 0.0 0.010013167060142646 0.010010607654513174 0.0 -4.760522878535041e-09 0.0 0.01 0.0 -4.760522878531653e-09 0.0 0.010013050402573819 0.010011597795173221 0.0 -1.2785755598025805e-09 0.0 0.01 0.0 -1.2785755598017335e-09 0.0 0.010014085855903103 0.010000100601518081 0.0 9.72111097321917e-13 0.0 0.01 0.0 9.72111097321917e-13 0.0 0.010011651180915553 0.01000089707069594 0.0 1.4201308676946175e-12 0.0 0.01 0.0 1.4201308676946175e-12 0.0 0.010011652184415135 0.010001997648430497 0.0 -1.8797234312296767e-10 0.0 0.01 0.0 -1.8797234312299414e-10 0.0 0.010011723232952328 0.01000337230510009 0.0 -1.902818000027729e-09 0.0 0.01 0.0 -1.902818000027729e-09 0.0 0.010011847170109365 0.010004909362918821 0.0 -6.949159967634358e-09 0.0 0.01 0.0 -6.949159967634358e-09 0.0 0.01001200056753727 0.010006474031566263 0.0 -1.3211934527302175e-08 0.0 0.01 0.0 -1.3211934527305563e-08 0.0 0.010011943212052317 0.010007922505005637 0.0 -1.3749721746030854e-08 0.0 0.01 0.0 -1.3749721746030854e-08 0.0 0.010011742801699374 0.010009144828906661 0.0 -7.73325681612671e-10 0.0 0.01 0.0 -7.733256816122474e-10 0.0 0.01001266562212603 0.009998019088756903 0.0 -6.38125567217838e-13 0.0 0.01 0.0 -6.381255672177346e-13 0.0 0.010010632182489638 0.009998778723763783 0.0 3.307183584878758e-11 0.0 0.01 0.0 3.307183584879089e-11 0.0 0.010010631179296741 0.009999860002939946 0.0 -3.0629658996452716e-10 0.0 0.01 0.0 -3.062965899644742e-10 0.0 0.010010701253045803 0.010001228276265128 0.0 -4.32157002039423e-09 0.0 0.01 0.0 -4.32157002039423e-09 0.0 0.010010815872195178 0.010002806831341271 0.0 -1.5944987514196387e-08 0.0 0.01 0.0 -1.5944987514193e-08 0.0 0.010010974589881738 0.01000448591684183 0.0 -2.93382674143667e-08 0.0 0.01 0.0 -2.93382674143667e-08 0.0 0.010010807545371187 0.010006110596466217 0.0 -2.8051350033187297e-08 0.0 0.01 0.0 -2.8051350033187297e-08 0.0 0.010010363738946378 0.010007500129362046 0.0 2.6053867636082883e-09 0.0 0.01 0.0 2.6053867636082883e-09 0.0 0.01001119993773299 0.009996842496104474 0.0 4.085818495354955e-11 0.0 0.01 0.0 4.085818495354955e-11 0.0 0.010009661934930343 0.009997589371949521 0.0 9.168580833760159e-10 0.0 0.01 0.0 9.168580833760159e-10 0.0 0.010009673668897273 0.009998622784561925 0.0 2.965786531984541e-09 0.0 0.01 0.0 2.965786531984541e-09 0.0 0.010009768695491769 0.009999922000912622 0.0 -4.768125552074301e-10 0.0 0.01 0.0 -4.768125552074301e-10 0.0 0.010009903342025906 0.010001453917066472 0.0 -1.7660136490630366e-08 0.0 0.01 0.0 -1.7660136490630366e-08 0.0 0.010010052236877016 0.010003158245775043 0.0 -3.897555572267275e-08 0.0 0.01 0.0 -3.897555572267275e-08 0.0 0.010009786297247162 0.010004908862352727 0.0 -3.445357867396231e-08 0.0 0.01 0.0 -3.445357867396231e-08 0.0 0.010009040545134705 0.010006451537996168 0.0 8.586230981717574e-09 0.0 0.01 0.0 8.586230981717574e-09 0.0 0.010009706514205631 0.009996308545032537 0.0 5.505330704906802e-10 0.0 0.01 0.0 5.505330704906273e-10 0.0 0.010008767867860143 0.00999704131359694 0.0 5.753156182051013e-09 0.0 0.01 0.0 5.753156182050166e-09 0.0 0.010008821709673757 0.009997979612508923 0.0 1.8097861793513653e-08 0.0 0.01 0.0 1.8097861793513653e-08 0.0 0.010008965141718822 0.009999120116239072 0.0 2.532840758561806e-08 0.0 0.01 0.0 2.5328407585621448e-08 0.0 0.01000915169781972 0.010000500037522182 0.0 1.1278201964356557e-08 0.0 0.01 0.0 1.127820196435317e-08 0.0 0.010009307428144857 0.010002141287592956 0.0 -1.2224952298514266e-08 0.0 0.01 0.0 -1.2224952298514266e-08 0.0 0.010008947043151396 0.010004036142254003 0.0 -3.37377678037865e-09 0.0 0.01 0.0 -3.37377678037865e-09 0.0 0.010008022844589376 0.010005980961518451 0.0 -7.825793466595746e-09 0.0 0.01 0.0 -7.825793466602522e-09 0.0 0.010008227893615329 0.00999620665950857 0.0 3.220696049807584e-09 0.0 0.01 0.0 3.220696049807584e-09 0.0 0.010007977786618636 0.009996890950594717 0.0 2.0851246571539344e-08 0.0 0.01 0.0 2.0851246571539344e-08 0.0 0.010008105544402733 0.009997658822916658 0.0 5.73676865352134e-08 0.0 0.01 0.0 5.736768653520662e-08 0.0 0.010008318969779077 0.009998550316552854 0.0 9.148918753235655e-08 0.0 0.01 0.0 9.14891875323701e-08 0.0 0.010008573514434928 0.009999681016654154 0.0 9.634870360690376e-08 0.0 0.01 0.0 9.634870360690376e-08 0.0 0.010008783510359297 0.01000123658049926 0.0 8.82825475214343e-08 0.0 0.01 0.0 8.828254752140719e-08 0.0 0.010008436465261688 0.01000339332756882 0.0 8.761050433888327e-08 0.0 0.01 0.0 8.761050433891038e-08 0.0 0.010007476126669645 0.010006243143926027 0.0 -1.229618169288054e-07 0.0 0.01 0.0 -1.229618169292391e-07 0.0 0.010006921732191636 0.009996409934237853 0.0 1.3215172070597355e-08 0.0 0.01 0.0 1.3215172070597355e-08 0.0 0.010007321983899725 0.009996979869209315 0.0 5.655449050098049e-08 0.0 0.01 0.0 5.6554490500973715e-08 0.0 0.010007537814718897 0.00999750193902791 0.0 1.3343533904858988e-07 0.0 0.01 0.0 1.3343533904858988e-07 0.0 0.010007826080218617 0.009998074063136214 0.0 2.099550858950395e-07 0.0 0.01 0.0 2.099550858950395e-07 0.0 0.010008151061750587 0.009998916685246544 0.0 2.4756261554718115e-07 0.0 0.01 0.0 2.4756261554712694e-07 0.0 0.01000837476794935 0.010000431188101993 0.0 2.6111554681543204e-07 0.0 0.01 0.0 2.6111554681548625e-07 0.0 0.010008006214872679 0.010002980837500747 0.0 1.8673585885188105e-07 0.0 0.01 0.0 1.8673585885188105e-07 0.0 0.010007108627929253 0.010006889942392495 0.0 -4.34415094553893e-07 0.0 0.01 0.0 -4.3441509455432667e-07 0.0 0.01000613456856129 0.009996835003466618 0.0 4.097477943630011e-08 0.0 0.01 0.0 4.097477943630011e-08 0.0 0.01000681455966126 0.009997212168614888 0.0 1.2599757472664419e-07 0.0 0.01 0.0 1.2599757472661708e-07 0.0 0.010007112082446758 0.009997437495041533 0.0 2.5486163761676657e-07 0.0 0.01 0.0 2.5486163761676657e-07 0.0 0.010007456591556673 0.009997693319830291 0.0 3.783989708234896e-07 0.0 0.01 0.0 3.783989708235438e-07 0.0 0.010007805049759871 0.009998328449186886 0.0 4.47210383438092e-07 0.0 0.01 0.0 4.47210383438092e-07 0.0 0.010007956766397543 0.009999869030953597 0.0 4.351831231990235e-07 0.0 0.01 0.0 4.351831231990235e-07 0.0 0.010007406198000099 0.010002842014618034 0.0 1.5331182428717253e-07 0.0 0.01 0.0 1.5331182428711832e-07 0.0 0.010006605192043688 0.009997387026139257 0.0 1.0449048019963868e-07 0.0 0.01 0.0 1.0449048019962512e-07 0.0 0.010006451038655464 0.009997511438161797 0.0 2.437844571168092e-07 0.0 0.01 0.0 2.437844571168092e-07 0.0 0.010006798936451618 0.009997448503676884 0.0 4.2294085790008356e-07 0.0 0.01 0.0 4.2294085790008356e-07 0.0 0.010007148785259212 0.009997502486246809 0.0 5.791682705812888e-07 0.0 0.01 0.0 5.791682705812888e-07 0.0 0.010007456632152403 0.009998138081869973 0.0 6.416667380956245e-07 0.0 0.01 0.0 6.416667380956245e-07 0.0 0.010007426777020951 0.009999857041145144 0.0 5.040675525272865e-07 0.0 0.01 0.0 5.040675525272865e-07 0.0 0.010006808234546733 0.010003020921669239 0.0 -1.4901055413472962e-07 0.0 0.01 0.0 -1.4901055413478383e-07 0.0 0.010006072430009881 0.009997948139252116 0.0 2.2452208600745897e-07 0.0 0.01 0.0 2.2452208600745897e-07 0.0 0.010006193256267247 0.009997804249516731 0.0 4.1724811105042867e-07 0.0 0.01 0.0 4.1724811105037446e-07 0.0 0.010006543042188927 0.009997566947175237 0.0 6.268487662813155e-07 0.0 0.01 0.0 6.26848766281207e-07 0.0 0.010006870883726832 0.009997693889342523 0.0 7.806234700163126e-07 0.0 0.01 0.0 7.80623470016421e-07 0.0 0.010007138577885327 0.00999856339136622 0.0 7.383511682981271e-07 0.0 0.01 0.0 7.383511682981271e-07 0.0 0.010006923765786558 0.01000057916510526 0.0 3.142110290612612e-07 0.0 0.01 0.0 3.142110290612612e-07 0.0 0.010006431514122425 0.0099983979102734 0.0 4.0985146117233657e-07 0.0 0.01 0.0 4.0985146117233657e-07 0.0 0.010005979984921204 0.009998082611833247 0.0 6.338008411349355e-07 0.0 0.01 0.0 6.338008411349355e-07 0.0 0.010006315137280288 0.009997982715550977 0.0 8.366924767719318e-07 0.0 0.01 0.0 8.366924767718234e-07 0.0 0.010006672326905611 0.009998499958761713 0.0 8.990303864641301e-07 0.0 0.01 0.0 8.99030386464347e-07 0.0 0.01000688367226383 0.009999819558657278 0.0 5.989934237124158e-07 0.0 0.01 0.0 5.989934237124158e-07 0.0 0.010006730943469922 0.01000183106449813 0.0 -2.794825305848809e-07 0.0 0.01 0.0 -2.794825305849893e-07 0.0 0.010006118422381114 0.009998739299817636 0.0 6.397895411993249e-07 0.0 0.01 0.0 6.397895411993249e-07 0.0 0.010005796597503938 0.009998624894270832 0.0 8.588070745400769e-07 0.0 0.01 0.0 8.588070745400769e-07 0.0 0.010006209990280672 0.009999034279515909 0.0 9.650313139355094e-07 0.0 0.01 0.0 9.650313139357262e-07 0.0 0.010006624416088428 0.010000074286453945 0.0 7.558900697091954e-07 0.0 0.01 0.0 7.558900697094122e-07 0.0 0.010006796057236214 0.010001560415163022 0.0 5.585104628334718e-09 0.0 0.01 0.0 5.585104628334718e-09 0.0 0.010006599276829578 0.00999941316534505 0.0 8.708404394121121e-07 0.0 0.01 0.0 8.708404394121121e-07 0.0 0.010005771706635441 0.009999891148906545 0.0 9.907834245144725e-07 0.0 0.01 0.0 9.907834245144725e-07 0.0 0.01000625992009206 0.010000939179493358 0.0 8.054493551962714e-07 0.0 0.01 0.0 8.054493551962714e-07 0.0 0.010006691357279045 0.010002081201259323 0.0 1.0746389892893208e-07 0.0 0.01 0.0 1.0746389892890497e-07 0.0 0.010006718666740523 0.010000988085816365 0.0 9.64485766797446e-07 0.0 0.01 0.0 9.64485766797446e-07 0.0 0.010005893545287824 0.01000188392428817 0.0 7.838818915275464e-07 0.0 0.01 0.0 7.838818915273296e-07 0.0 0.01000636160735356 0.010002994996742898 0.0 1.0900114890576755e-07 0.0 0.01 0.0 1.0900114890582176e-07 0.0 0.010006690810835207 0.010003014703116582 0.0 -9.682464249421464e-07 0.0 0.01 0.0 -9.682464249425801e-07 0.0 0.01000603930692462 0.010002755094298729 0.0 6.122131623064776e-07 0.0 0.01 0.0 6.122131623064776e-07 0.0 0.010005919858674356 0.010003122561954812 0.0 5.498100653084087e-09 0.0 0.01 0.0 5.498100653084087e-09 0.0 0.01000614971821168 0.010002928043715423 0.0 -2.3400671751044357e-07 0.0 0.01 0.0 -2.3400671751044357e-07 0.0 0.010005626353015964 
