# vtk DataFile Version 3.0
Test VTK file for Force data
ASCII
DATASET POLYDATA
POINTS 2975 float
-0.22 0.0099999998 -0.38
-0.22 0.0099999998 -0.36000001
-0.2 0.0099999998 -0.40000001
-0.2 0.0099999998 -0.38
-0.2 0.0099999998 -0.36000001
-0.18000001 0.0099999998 -0.40000001
-0.18000001 0.0099999998 -0.38
-0.18000001 0.0099999998 -0.36000001
-0.16 0.0099999998 -0.40000001
-0.16 0.0099999998 -0.38
-0.16 0.0099999998 -0.36000001
-0.14 0.0099999998 -0.40000001
-0.14 0.0099999998 -0.38
-0.14 0.0099999998 -0.36000001
-0.12 0.0099999998 -0.40000001
-0.12 0.0099999998 -0.38
-0.12 0.0099999998 -0.36000001
-0.1 0.0099999998 -0.40000001
-0.1 0.0099999998 -0.38
-0.1 0.0099999998 -0.36000001
-0.079999998 0.0099999998 -0.40000001
-0.079999998 0.0099999998 -0.38
-0.079999998 0.0099999998 -0.36000001
-0.059999999000000005 0.0099999998 -0.40000001
-0.059999999000000005 0.0099999998 -0.38
-0.059999999000000005 0.0099999998 -0.36000001
-0.039999999 0.0099999998 -0.40000001
-0.039999999 0.0099999998 -0.38
-0.039999999 0.0099999998 -0.36000001
-0.02 0.0099999998 -0.40000001
-0.02 0.0099999998 -0.38
-0.02 0.0099999998 -0.36000001
0.0 0.0099999998 -0.40000001
0.0 0.0099999998 -0.38
0.0 0.0099999998 -0.36000001
0.02 0.0099999998 -0.40000001
0.02 0.0099999998 -0.38
0.02 0.0099999998 -0.36000001
0.039999999 0.0099999998 -0.40000001
0.039999999 0.0099999998 -0.38
0.039999999 0.0099999998 -0.36000001
0.059999999000000005 0.0099999998 -0.40000001
0.059999999000000005 0.0099999998 -0.38
0.059999999000000005 0.0099999998 -0.36000001
0.079999998 0.0099999998 -0.40000001
0.079999998 0.0099999998 -0.38
0.079999998 0.0099999998 -0.36000001
0.1 0.0099999998 -0.40000001
0.1 0.0099999998 -0.38
0.1 0.0099999998 -0.36000001
0.12 0.0099999998 -0.40000001
0.12 0.0099999998 -0.38
0.12 0.0099999998 -0.36000001
0.14 0.0099999998 -0.40000001
0.14 0.0099999998 -0.38
0.14 0.0099999998 -0.36000001
0.16 0.0099999998 -0.40000001
0.16 0.0099999998 -0.38
0.16 0.0099999998 -0.36000001
0.18000001 0.0099999998 -0.40000001
0.18000001 0.0099999998 -0.38
0.18000001 0.0099999998 -0.36000001
0.2 0.0099999998 -0.38
0.2 0.0099999998 -0.36000001
-0.22 0.0099999998 -0.34
-0.22 0.0099999998 -0.31999999
-0.22 0.0099999998 -0.30000001
-0.22 0.0099999998 -0.28
-0.22 0.0099999998 -0.25999999
-0.22 0.0099999998 -0.23999999
-0.22 0.0099999998 -0.22
-0.22 0.0099999998 -0.2
-0.2 0.0099999998 -0.34
-0.2 0.0099999998 -0.31999999
-0.2 0.0099999998 -0.30000001
-0.2 0.0099999998 -0.28
-0.2 0.0099999998 -0.25999999
-0.2 0.0099999998 -0.23999999
-0.2 0.0099999998 -0.22
-0.2 0.0099999998 -0.2
-0.18000001 0.0099999998 -0.34
-0.18000001 0.0099999998 -0.31999999
-0.18000001 0.0099999998 -0.30000001
-0.18000001 0.0099999998 -0.28
-0.18000001 0.0099999998 -0.25999999
-0.18000001 0.0099999998 -0.23999999
-0.18000001 0.0099999998 -0.22
-0.18000001 0.0099999998 -0.2
-0.16 0.0099999998 -0.34
-0.16 0.0099999998 -0.31999999
-0.16 0.0099999998 -0.30000001
-0.16 0.0099999998 -0.28
-0.16 0.0099999998 -0.25999999
-0.16 0.0099999998 -0.23999999
-0.16 0.0099999998 -0.22
-0.16 0.0099999998 -0.2
-0.14 0.0099999998 -0.34
-0.14 0.0099999998 -0.31999999
-0.14 0.0099999998 -0.30000001
-0.14 0.0099999998 -0.28
-0.14 0.0099999998 -0.25999999
-0.14 0.0099999998 -0.23999999
-0.14 0.0099999998 -0.22
-0.14 0.0099999998 -0.2
-0.12 0.0099999998 -0.34
-0.12 0.0099999998 -0.31999999
-0.12 0.0099999998 -0.30000001
-0.12 0.0099999998 -0.28
-0.12 0.0099999998 -0.25999999
-0.12 0.0099999998 -0.23999999
-0.12 0.0099999998 -0.22
-0.12 0.0099999998 -0.2
-0.1 0.0099999998 -0.34
-0.1 0.0099999998 -0.31999999
-0.1 0.0099999998 -0.30000001
-0.1 0.0099999998 -0.28
-0.1 0.0099999998 -0.25999999
-0.1 0.0099999998 -0.23999999
-0.1 0.0099999998 -0.22
-0.1 0.0099999998 -0.2
-0.079999998 0.0099999998 -0.34
-0.079999998 0.0099999998 -0.31999999
-0.079999998 0.0099999998 -0.30000001
-0.079999998 0.0099999998 -0.28
-0.079999998 0.0099999998 -0.25999999
-0.079999998 0.0099999998 -0.23999999
-0.079999998 0.0099999998 -0.22
-0.079999998 0.0099999998 -0.2
-0.059999999000000005 0.0099999998 -0.34
-0.059999999000000005 0.0099999998 -0.31999999
-0.059999999000000005 0.0099999998 -0.30000001
-0.059999999000000005 0.0099999998 -0.28
-0.059999999000000005 0.0099999998 -0.25999999
-0.059999999000000005 0.0099999998 -0.23999999
-0.059999999000000005 0.0099999998 -0.22
-0.059999999000000005 0.0099999998 -0.2
-0.039999999 0.0099999998 -0.34
-0.039999999 0.0099999998 -0.31999999
-0.039999999 0.0099999998 -0.30000001
-0.039999999 0.0099999998 -0.28
-0.039999999 0.0099999998 -0.25999999
-0.039999999 0.0099999998 -0.23999999
-0.039999999 0.0099999998 -0.22
-0.039999999 0.0099999998 -0.2
-0.02 0.0099999998 -0.34
-0.02 0.0099999998 -0.31999999
-0.02 0.0099999998 -0.30000001
-0.02 0.0099999998 -0.28
-0.02 0.0099999998 -0.25999999
-0.02 0.0099999998 -0.23999999
-0.02 0.0099999998 -0.22
-0.02 0.0099999998 -0.2
0.0 0.0099999998 -0.34
0.0 0.0099999998 -0.31999999
0.0 0.0099999998 -0.30000001
0.02 0.0099999998 -0.34
0.02 0.0099999998 -0.31999999
0.039999999 0.0099999998 -0.34
0.039999999 0.0099999998 -0.31999999
0.059999999000000005 0.0099999998 -0.34
0.059999999000000005 0.0099999998 -0.31999999
0.079999998 0.0099999998 -0.34
0.079999998 0.0099999998 -0.31999999
0.1 0.0099999998 -0.34
0.1 0.0099999998 -0.31999999
0.12 0.0099999998 -0.34
0.12 0.0099999998 -0.31999999
0.14 0.0099999998 -0.34
0.14 0.0099999998 -0.31999999
0.16 0.0099999998 -0.34
0.16 0.0099999998 -0.31999999
0.18000001 0.0099999998 -0.34
0.18000001 0.0099999998 -0.31999999
0.2 0.0099999998 -0.34
0.2 0.0099999998 -0.31999999
-0.22 0.0099999998 -0.18000001
-0.22 0.0099999998 -0.16
-0.22 0.0099999998 -0.14
-0.22 0.0099999998 -0.12
-0.22 0.0099999998 -0.1
-0.22 0.0099999998 -0.079999998
-0.22 0.0099999998 -0.059999999000000005
-0.22 0.0099999998 -0.039999999
-0.22 0.0099999998 -0.02
-0.2 0.0099999998 -0.18000001
-0.2 0.0099999998 -0.16
-0.2 0.0099999998 -0.14
-0.2 0.0099999998 -0.12
-0.2 0.0099999998 -0.1
-0.2 0.0099999998 -0.079999998
-0.2 0.0099999998 -0.059999999000000005
-0.2 0.0099999998 -0.039999999
-0.2 0.0099999998 -0.02
-0.18000001 0.0099999998 -0.18000001
-0.18000001 0.0099999998 -0.16
-0.18000001 0.0099999998 -0.14
-0.18000001 0.0099999998 -0.12
-0.18000001 0.0099999998 -0.1
-0.18000001 0.0099999998 -0.079999998
-0.18000001 0.0099999998 -0.059999999000000005
-0.18000001 0.0099999998 -0.039999999
-0.18000001 0.0099999998 -0.02
-0.16 0.0099999998 -0.18000001
-0.16 0.0099999998 -0.16
-0.16 0.0099999998 -0.14
-0.16 0.0099999998 -0.12
-0.16 0.0099999998 -0.1
-0.16 0.0099999998 -0.079999998
-0.16 0.0099999998 -0.059999999000000005
-0.16 0.0099999998 -0.039999999
-0.16 0.0099999998 -0.02
-0.14 0.0099999998 -0.18000001
-0.14 0.0099999998 -0.16
-0.14 0.0099999998 -0.14
-0.14 0.0099999998 -0.12
-0.14 0.0099999998 -0.1
-0.14 0.0099999998 -0.079999998
-0.14 0.0099999998 -0.059999999000000005
-0.14 0.0099999998 -0.039999999
-0.14 0.0099999998 -0.02
-0.12 0.0099999998 -0.18000001
-0.12 0.0099999998 -0.16
-0.12 0.0099999998 -0.14
-0.12 0.0099999998 -0.12
-0.12 0.0099999998 -0.1
-0.12 0.0099999998 -0.079999998
-0.12 0.0099999998 -0.059999999000000005
-0.12 0.0099999998 -0.039999999
-0.12 0.0099999998 -0.02
-0.1 0.0099999998 -0.18000001
-0.1 0.0099999998 -0.16
-0.1 0.0099999998 -0.14
-0.1 0.0099999998 -0.12
-0.1 0.0099999998 -0.1
-0.1 0.0099999998 -0.079999998
-0.1 0.0099999998 -0.059999999000000005
-0.1 0.0099999998 -0.039999999
-0.1 0.0099999998 -0.02
-0.079999998 0.0099999998 -0.18000001
-0.079999998 0.0099999998 -0.16
-0.079999998 0.0099999998 -0.14
-0.079999998 0.0099999998 -0.12
-0.079999998 0.0099999998 -0.1
-0.079999998 0.0099999998 -0.079999998
-0.079999998 0.0099999998 -0.059999999000000005
-0.079999998 0.0099999998 -0.039999999
-0.079999998 0.0099999998 -0.02
-0.059999999000000005 0.0099999998 -0.18000001
-0.059999999000000005 0.0099999998 -0.16
-0.059999999000000005 0.0099999998 -0.14
-0.059999999000000005 0.0099999998 -0.12
-0.059999999000000005 0.0099999998 -0.1
-0.059999999000000005 0.0099999998 -0.079999998
-0.059999999000000005 0.0099999998 -0.059999999000000005
-0.059999999000000005 0.0099999998 -0.039999999
-0.059999999000000005 0.0099999998 -0.02
-0.039999999 0.0099999998 -0.18000001
-0.039999999 0.0099999998 -0.16
-0.039999999 0.0099999998 -0.14
-0.039999999 0.0099999998 -0.12
-0.039999999 0.0099999998 -0.1
-0.039999999 0.0099999998 -0.079999998
-0.039999999 0.0099999998 -0.059999999000000005
-0.039999999 0.0099999998 -0.039999999
-0.039999999 0.0099999998 -0.02
-0.02 0.0099999998 -0.18000001
-0.02 0.0099999998 -0.16
-0.02 0.0099999998 -0.14
-0.02 0.0099999998 -0.12
-0.02 0.0099999998 -0.1
-0.02 0.0099999998 -0.079999998
-0.02 0.0099999998 -0.059999999000000005
-0.02 0.0099999998 -0.039999999
-0.02 0.0099999998 -0.02
-0.22 0.0099999998 0.0
-0.22 0.0099999998 0.02
-0.22 0.0099999998 0.039999999
-0.22 0.0099999998 0.059999999000000005
-0.22 0.0099999998 0.079999998
-0.22 0.0099999998 0.1
-0.22 0.0099999998 0.12
-0.22 0.0099999998 0.14
-0.2 0.0099999998 0.0
-0.2 0.0099999998 0.02
-0.2 0.0099999998 0.039999999
-0.2 0.0099999998 0.059999999000000005
-0.2 0.0099999998 0.079999998
-0.2 0.0099999998 0.1
-0.2 0.0099999998 0.12
-0.2 0.0099999998 0.14
-0.18000001 0.0099999998 0.0
-0.18000001 0.0099999998 0.02
-0.18000001 0.0099999998 0.039999999
-0.18000001 0.0099999998 0.059999999000000005
-0.18000001 0.0099999998 0.079999998
-0.18000001 0.0099999998 0.1
-0.18000001 0.0099999998 0.12
-0.18000001 0.0099999998 0.14
-0.16 0.0099999998 0.0
-0.16 0.0099999998 0.02
-0.16 0.0099999998 0.039999999
-0.16 0.0099999998 0.059999999000000005
-0.16 0.0099999998 0.079999998
-0.16 0.0099999998 0.1
-0.16 0.0099999998 0.12
-0.16 0.0099999998 0.14
-0.14 0.0099999998 0.0
-0.14 0.0099999998 0.02
-0.14 0.0099999998 0.039999999
-0.14 0.0099999998 0.059999999000000005
-0.14 0.0099999998 0.079999998
-0.14 0.0099999998 0.1
-0.14 0.0099999998 0.12
-0.14 0.0099999998 0.14
-0.12 0.0099999998 0.0
-0.12 0.0099999998 0.02
-0.12 0.0099999998 0.039999999
-0.12 0.0099999998 0.059999999000000005
-0.12 0.0099999998 0.079999998
-0.12 0.0099999998 0.1
-0.12 0.0099999998 0.12
-0.12 0.0099999998 0.14
-0.1 0.0099999998 0.0
-0.1 0.0099999998 0.02
-0.1 0.0099999998 0.039999999
-0.1 0.0099999998 0.059999999000000005
-0.1 0.0099999998 0.079999998
-0.1 0.0099999998 0.1
-0.1 0.0099999998 0.12
-0.1 0.0099999998 0.14
-0.079999998 0.0099999998 0.0
-0.079999998 0.0099999998 0.02
-0.079999998 0.0099999998 0.039999999
-0.079999998 0.0099999998 0.059999999000000005
-0.079999998 0.0099999998 0.079999998
-0.079999998 0.0099999998 0.1
-0.079999998 0.0099999998 0.12
-0.079999998 0.0099999998 0.14
-0.059999999000000005 0.0099999998 0.0
-0.059999999000000005 0.0099999998 0.02
-0.059999999000000005 0.0099999998 0.039999999
-0.059999999000000005 0.0099999998 0.059999999000000005
-0.059999999000000005 0.0099999998 0.079999998
-0.059999999000000005 0.0099999998 0.1
-0.059999999000000005 0.0099999998 0.12
-0.059999999000000005 0.0099999998 0.14
-0.039999999 0.0099999998 0.0
-0.039999999 0.0099999998 0.02
-0.039999999 0.0099999998 0.039999999
-0.039999999 0.0099999998 0.059999999000000005
-0.039999999 0.0099999998 0.079999998
-0.039999999 0.0099999998 0.1
-0.039999999 0.0099999998 0.12
-0.039999999 0.0099999998 0.14
-0.02 0.0099999998 0.0
-0.02 0.0099999998 0.02
-0.02 0.0099999998 0.039999999
-0.02 0.0099999998 0.059999999000000005
-0.02 0.0099999998 0.079999998
-0.02 0.0099999998 0.1
-0.02 0.0099999998 0.12
-0.02 0.0099999998 0.14
-0.22 0.0099999998 0.16
-0.22 0.0099999998 0.18000001
-0.22 0.0099999998 0.2
-0.22 0.0099999998 0.22
-0.22 0.0099999998 0.23999999
-0.22 0.0099999998 0.25999999
-0.22 0.0099999998 0.28
-0.22 0.0099999998 0.30000001
-0.22 0.0099999998 0.31999999
-0.2 0.0099999998 0.16
-0.2 0.0099999998 0.18000001
-0.2 0.0099999998 0.2
-0.2 0.0099999998 0.22
-0.2 0.0099999998 0.23999999
-0.2 0.0099999998 0.25999999
-0.2 0.0099999998 0.28
-0.2 0.0099999998 0.30000001
-0.2 0.0099999998 0.31999999
-0.18000001 0.0099999998 0.16
-0.18000001 0.0099999998 0.18000001
-0.18000001 0.0099999998 0.2
-0.18000001 0.0099999998 0.22
-0.18000001 0.0099999998 0.23999999
-0.18000001 0.0099999998 0.25999999
-0.18000001 0.0099999998 0.28
-0.18000001 0.0099999998 0.30000001
-0.18000001 0.0099999998 0.31999999
-0.16 0.0099999998 0.16
-0.16 0.0099999998 0.18000001
-0.16 0.0099999998 0.2
-0.16 0.0099999998 0.22
-0.16 0.0099999998 0.23999999
-0.16 0.0099999998 0.25999999
-0.16 0.0099999998 0.28
-0.16 0.0099999998 0.30000001
-0.16 0.0099999998 0.31999999
-0.14 0.0099999998 0.16
-0.14 0.0099999998 0.18000001
-0.14 0.0099999998 0.2
-0.14 0.0099999998 0.22
-0.14 0.0099999998 0.23999999
-0.14 0.0099999998 0.25999999
-0.14 0.0099999998 0.28
-0.14 0.0099999998 0.30000001
-0.14 0.0099999998 0.31999999
-0.12 0.0099999998 0.16
-0.12 0.0099999998 0.18000001
-0.12 0.0099999998 0.2
-0.12 0.0099999998 0.22
-0.12 0.0099999998 0.23999999
-0.12 0.0099999998 0.25999999
-0.12 0.0099999998 0.28
-0.12 0.0099999998 0.30000001
-0.12 0.0099999998 0.31999999
-0.1 0.0099999998 0.16
-0.1 0.0099999998 0.18000001
-0.1 0.0099999998 0.2
-0.1 0.0099999998 0.22
-0.1 0.0099999998 0.23999999
-0.1 0.0099999998 0.25999999
-0.1 0.0099999998 0.28
-0.1 0.0099999998 0.30000001
-0.1 0.0099999998 0.31999999
-0.079999998 0.0099999998 0.16
-0.079999998 0.0099999998 0.18000001
-0.079999998 0.0099999998 0.2
-0.079999998 0.0099999998 0.22
-0.079999998 0.0099999998 0.23999999
-0.079999998 0.0099999998 0.25999999
-0.079999998 0.0099999998 0.28
-0.079999998 0.0099999998 0.30000001
-0.079999998 0.0099999998 0.31999999
-0.059999999000000005 0.0099999998 0.16
-0.059999999000000005 0.0099999998 0.18000001
-0.059999999000000005 0.0099999998 0.2
-0.059999999000000005 0.0099999998 0.22
-0.059999999000000005 0.0099999998 0.23999999
-0.059999999000000005 0.0099999998 0.25999999
-0.059999999000000005 0.0099999998 0.28
-0.059999999000000005 0.0099999998 0.30000001
-0.059999999000000005 0.0099999998 0.31999999
-0.039999999 0.0099999998 0.16
-0.039999999 0.0099999998 0.18000001
-0.039999999 0.0099999998 0.2
-0.039999999 0.0099999998 0.22
-0.039999999 0.0099999998 0.23999999
-0.039999999 0.0099999998 0.25999999
-0.039999999 0.0099999998 0.28
-0.039999999 0.0099999998 0.30000001
-0.039999999 0.0099999998 0.31999999
-0.02 0.0099999998 0.16
-0.02 0.0099999998 0.18000001
-0.02 0.0099999998 0.2
-0.02 0.0099999998 0.22
-0.02 0.0099999998 0.23999999
-0.02 0.0099999998 0.25999999
-0.02 0.0099999998 0.28
-0.02 0.0099999998 0.30000001
-0.02 0.0099999998 0.31999999
0.0 0.0099999998 0.30000001
0.0 0.0099999998 0.31999999
0.02 0.0099999998 0.31999999
0.039999999 0.0099999998 0.31999999
0.059999999000000005 0.0099999998 0.31999999
0.079999998 0.0099999998 0.31999999
0.1 0.0099999998 0.31999999
0.12 0.0099999998 0.31999999
0.14 0.0099999998 0.31999999
0.16 0.0099999998 0.31999999
0.18000001 0.0099999998 0.31999999
0.2 0.0099999998 0.31999999
-0.22 0.0099999998 0.34
-0.22 0.0099999998 0.36000001
-0.22 0.0099999998 0.38
-0.2 0.0099999998 0.34
-0.2 0.0099999998 0.36000001
-0.2 0.0099999998 0.38
-0.2 0.0099999998 0.40000001
-0.18000001 0.0099999998 0.34
-0.18000001 0.0099999998 0.36000001
-0.18000001 0.0099999998 0.38
-0.18000001 0.0099999998 0.40000001
-0.16 0.0099999998 0.34
-0.16 0.0099999998 0.36000001
-0.16 0.0099999998 0.38
-0.16 0.0099999998 0.40000001
-0.14 0.0099999998 0.34
-0.14 0.0099999998 0.36000001
-0.14 0.0099999998 0.38
-0.14 0.0099999998 0.40000001
-0.12 0.0099999998 0.34
-0.12 0.0099999998 0.36000001
-0.12 0.0099999998 0.38
-0.12 0.0099999998 0.40000001
-0.1 0.0099999998 0.34
-0.1 0.0099999998 0.36000001
-0.1 0.0099999998 0.38
-0.1 0.0099999998 0.40000001
-0.079999998 0.0099999998 0.34
-0.079999998 0.0099999998 0.36000001
-0.079999998 0.0099999998 0.38
-0.079999998 0.0099999998 0.40000001
-0.059999999000000005 0.0099999998 0.34
-0.059999999000000005 0.0099999998 0.36000001
-0.059999999000000005 0.0099999998 0.38
-0.059999999000000005 0.0099999998 0.40000001
-0.039999999 0.0099999998 0.34
-0.039999999 0.0099999998 0.36000001
-0.039999999 0.0099999998 0.38
-0.039999999 0.0099999998 0.40000001
-0.02 0.0099999998 0.34
-0.02 0.0099999998 0.36000001
-0.02 0.0099999998 0.38
-0.02 0.0099999998 0.40000001
0.0 0.0099999998 0.34
0.0 0.0099999998 0.36000001
0.0 0.0099999998 0.38
0.0 0.0099999998 0.40000001
0.02 0.0099999998 0.34
0.02 0.0099999998 0.36000001
0.02 0.0099999998 0.38
0.02 0.0099999998 0.40000001
0.039999999 0.0099999998 0.34
0.039999999 0.0099999998 0.36000001
0.039999999 0.0099999998 0.38
0.039999999 0.0099999998 0.40000001
0.059999999000000005 0.0099999998 0.34
0.059999999000000005 0.0099999998 0.36000001
0.059999999000000005 0.0099999998 0.38
0.059999999000000005 0.0099999998 0.40000001
0.079999998 0.0099999998 0.34
0.079999998 0.0099999998 0.36000001
0.079999998 0.0099999998 0.38
0.079999998 0.0099999998 0.40000001
0.1 0.0099999998 0.34
0.1 0.0099999998 0.36000001
0.1 0.0099999998 0.38
0.1 0.0099999998 0.40000001
0.12 0.0099999998 0.34
0.12 0.0099999998 0.36000001
0.12 0.0099999998 0.38
0.12 0.0099999998 0.40000001
0.14 0.0099999998 0.34
0.14 0.0099999998 0.36000001
0.14 0.0099999998 0.38
0.14 0.0099999998 0.40000001
0.16 0.0099999998 0.34
0.16 0.0099999998 0.36000001
0.16 0.0099999998 0.38
0.16 0.0099999998 0.40000001
0.18000001 0.0099999998 0.34
0.18000001 0.0099999998 0.36000001
0.18000001 0.0099999998 0.38
0.18000001 0.0099999998 0.40000001
0.2 0.0099999998 0.34
0.2 0.0099999998 0.36000001
0.2 0.0099999998 0.38
1.92 0.0099999998 -0.36000001
1.92 0.0099999998 -0.34
1.92 0.0099999998 -0.31999999
1.9400001 0.0099999998 -0.38
1.9400001 0.0099999998 -0.36000001
1.9400001 0.0099999998 -0.34
1.9400001 0.0099999998 -0.31999999
1.9400001 0.0099999998 -0.30000001
1.9400001 0.0099999998 -0.28
1.9400001 0.0099999998 -0.25999999
1.9400001 0.0099999998 -0.23999999
1.9400001 0.0099999998 -0.22
1.96 0.0099999998 -0.38
1.96 0.0099999998 -0.36000001
1.96 0.0099999998 -0.34
1.96 0.0099999998 -0.31999999
1.96 0.0099999998 -0.30000001
1.96 0.0099999998 -0.28
1.96 0.0099999998 -0.25999999
1.96 0.0099999998 -0.23999999
1.96 0.0099999998 -0.22
1.96 0.0099999998 -0.2
1.96 0.0099999998 -0.18000001
1.96 0.0099999998 -0.16
1.96 0.0099999998 -0.14
1.96 0.0099999998 -0.12
1.98 0.0099999998 -0.38
1.98 0.0099999998 -0.36000001
1.98 0.0099999998 -0.34
1.98 0.0099999998 -0.31999999
1.98 0.0099999998 -0.30000001
1.98 0.0099999998 -0.28
1.98 0.0099999998 -0.25999999
1.98 0.0099999998 -0.23999999
1.98 0.0099999998 -0.22
1.98 0.0099999998 -0.2
1.98 0.0099999998 -0.18000001
1.98 0.0099999998 -0.16
1.98 0.0099999998 -0.14
1.98 0.0099999998 -0.12
1.98 0.0099999998 -0.1
1.98 0.0099999998 -0.079999998
1.98 0.0099999998 -0.059999999000000005
1.98 0.0099999998 -0.039999999
1.98 0.0099999998 -0.02
2.0 0.0099999998 -0.38
2.0 0.0099999998 -0.36000001
2.0 0.0099999998 -0.34
2.0 0.0099999998 -0.31999999
2.0 0.0099999998 -0.30000001
2.0 0.0099999998 -0.28
2.0 0.0099999998 -0.25999999
2.0 0.0099999998 -0.23999999
2.0 0.0099999998 -0.22
2.0 0.0099999998 -0.2
2.0 0.0099999998 -0.18000001
2.0 0.0099999998 -0.16
2.0 0.0099999998 -0.14
2.0 0.0099999998 -0.12
2.0 0.0099999998 -0.1
2.0 0.0099999998 -0.079999998
2.0 0.0099999998 -0.059999999000000005
2.0 0.0099999998 -0.039999999
2.0 0.0099999998 -0.02
2.0 0.0099999998 0.0
2.0 0.0099999998 0.02
2.0 0.0099999998 0.039999999
2.0 0.0099999998 0.059999999000000005
2.0 0.0099999998 0.079999998
2.02 0.0099999998 -0.40000001
2.02 0.0099999998 -0.38
2.02 0.0099999998 -0.36000001
2.02 0.0099999998 -0.34
2.02 0.0099999998 -0.31999999
2.02 0.0099999998 -0.30000001
2.02 0.0099999998 -0.28
2.02 0.0099999998 -0.25999999
2.02 0.0099999998 -0.23999999
2.02 0.0099999998 -0.22
2.02 0.0099999998 -0.2
2.02 0.0099999998 -0.18000001
2.02 0.0099999998 -0.16
2.02 0.0099999998 -0.14
2.02 0.0099999998 -0.12
2.02 0.0099999998 -0.1
2.02 0.0099999998 -0.079999998
2.02 0.0099999998 -0.059999999000000005
2.02 0.0099999998 -0.039999999
2.02 0.0099999998 -0.02
2.02 0.0099999998 0.0
2.02 0.0099999998 0.02
2.02 0.0099999998 0.039999999
2.02 0.0099999998 0.059999999000000005
2.02 0.0099999998 0.079999998
2.02 0.0099999998 0.1
2.02 0.0099999998 0.12
2.02 0.0099999998 0.14
2.02 0.0099999998 0.16
2.02 0.0099999998 0.18000001
2.04 0.0099999998 -0.40000001
2.04 0.0099999998 -0.38
2.04 0.0099999998 -0.36000001
2.04 0.0099999998 -0.34
2.04 0.0099999998 -0.31999999
2.04 0.0099999998 -0.30000001
2.04 0.0099999998 -0.28
2.04 0.0099999998 -0.25999999
2.04 0.0099999998 -0.23999999
2.04 0.0099999998 -0.22
2.04 0.0099999998 -0.2
2.04 0.0099999998 -0.18000001
2.04 0.0099999998 -0.16
2.04 0.0099999998 -0.14
2.04 0.0099999998 -0.12
2.04 0.0099999998 -0.1
2.04 0.0099999998 -0.079999998
2.04 0.0099999998 -0.059999999000000005
2.04 0.0099999998 -0.039999999
2.04 0.0099999998 -0.02
2.04 0.0099999998 0.0
2.04 0.0099999998 0.02
2.04 0.0099999998 0.039999999
2.04 0.0099999998 0.059999999000000005
2.04 0.0099999998 0.079999998
2.04 0.0099999998 0.1
2.04 0.0099999998 0.12
2.04 0.0099999998 0.14
2.04 0.0099999998 0.16
2.04 0.0099999998 0.18000001
2.04 0.0099999998 0.2
2.04 0.0099999998 0.22
2.04 0.0099999998 0.23999999
2.04 0.0099999998 0.25999999
2.04 0.0099999998 0.28
2.0599998999999998 0.0099999998 -0.40000001
2.0599998999999998 0.0099999998 -0.38
2.0599998999999998 0.0099999998 -0.36000001
2.0599998999999998 0.0099999998 -0.34
2.0599998999999998 0.0099999998 -0.31999999
2.0599998999999998 0.0099999998 -0.30000001
2.0599998999999998 0.0099999998 -0.28
2.0599998999999998 0.0099999998 -0.25999999
2.0599998999999998 0.0099999998 -0.23999999
2.0599998999999998 0.0099999998 -0.22
2.0599998999999998 0.0099999998 -0.2
2.0599998999999998 0.0099999998 -0.18000001
2.0599998999999998 0.0099999998 -0.16
2.0599998999999998 0.0099999998 -0.14
2.0599998999999998 0.0099999998 -0.12
2.0599998999999998 0.0099999998 -0.1
2.0599998999999998 0.0099999998 -0.079999998
2.0599998999999998 0.0099999998 -0.059999999000000005
2.0599998999999998 0.0099999998 -0.039999999
2.0599998999999998 0.0099999998 -0.02
2.0599998999999998 0.0099999998 0.0
2.0599998999999998 0.0099999998 0.02
2.0599998999999998 0.0099999998 0.039999999
2.0599998999999998 0.0099999998 0.059999999000000005
2.0599998999999998 0.0099999998 0.079999998
2.0599998999999998 0.0099999998 0.1
2.0599998999999998 0.0099999998 0.12
2.0599998999999998 0.0099999998 0.14
2.0599998999999998 0.0099999998 0.16
2.0599998999999998 0.0099999998 0.18000001
2.0599998999999998 0.0099999998 0.2
2.0599998999999998 0.0099999998 0.22
2.0599998999999998 0.0099999998 0.23999999
2.0599998999999998 0.0099999998 0.25999999
2.0599998999999998 0.0099999998 0.28
2.0599998999999998 0.0099999998 0.30000001
2.0599998999999998 0.0099999998 0.31999999
2.0599998999999998 0.0099999998 0.34
2.0599998999999998 0.0099999998 0.36000001
2.0599998999999998 0.0099999998 0.38
2.0799999 0.0099999998 -0.40000001
2.0799999 0.0099999998 -0.38
2.0799999 0.0099999998 -0.36000001
2.0799999 0.0099999998 -0.34
2.0799999 0.0099999998 -0.31999999
2.0799999 0.0099999998 -0.30000001
2.0799999 0.0099999998 -0.28
2.0799999 0.0099999998 -0.25999999
2.0799999 0.0099999998 -0.23999999
2.0799999 0.0099999998 -0.22
2.0799999 0.0099999998 -0.2
2.0799999 0.0099999998 -0.18000001
2.0799999 0.0099999998 -0.16
2.0799999 0.0099999998 -0.14
2.0799999 0.0099999998 -0.12
2.0799999 0.0099999998 -0.1
2.0799999 0.0099999998 -0.079999998
2.0799999 0.0099999998 -0.059999999000000005
2.0799999 0.0099999998 -0.039999999
2.0799999 0.0099999998 -0.02
2.0799999 0.0099999998 0.0
2.0799999 0.0099999998 0.02
2.0799999 0.0099999998 0.039999999
2.0799999 0.0099999998 0.059999999000000005
2.0799999 0.0099999998 0.079999998
2.0799999 0.0099999998 0.1
2.0799999 0.0099999998 0.12
2.0799999 0.0099999998 0.14
2.0799999 0.0099999998 0.16
2.0799999 0.0099999998 0.18000001
2.0799999 0.0099999998 0.2
2.0799999 0.0099999998 0.22
2.0799999 0.0099999998 0.23999999
2.0799999 0.0099999998 0.25999999
2.0799999 0.0099999998 0.28
2.0799999 0.0099999998 0.30000001
2.0799999 0.0099999998 0.31999999
2.0799999 0.0099999998 0.34
2.0799999 0.0099999998 0.36000001
2.0799999 0.0099999998 0.38
2.0799999 0.0099999998 0.40000001
2.0999999 0.0099999998 -0.40000001
2.0999999 0.0099999998 -0.38
2.0999999 0.0099999998 -0.36000001
2.0999999 0.0099999998 -0.34
2.0999999 0.0099999998 -0.31999999
2.0999999 0.0099999998 -0.30000001
2.0999999 0.0099999998 -0.28
2.0999999 0.0099999998 -0.25999999
2.0999999 0.0099999998 -0.23999999
2.0999999 0.0099999998 -0.22
2.0999999 0.0099999998 -0.2
2.0999999 0.0099999998 -0.18000001
2.0999999 0.0099999998 -0.16
2.0999999 0.0099999998 -0.14
2.0999999 0.0099999998 -0.12
2.0999999 0.0099999998 -0.1
2.0999999 0.0099999998 -0.079999998
2.0999999 0.0099999998 -0.059999999000000005
2.0999999 0.0099999998 -0.039999999
2.0999999 0.0099999998 -0.02
2.0999999 0.0099999998 0.0
2.0999999 0.0099999998 0.02
2.0999999 0.0099999998 0.039999999
2.0999999 0.0099999998 0.059999999000000005
2.0999999 0.0099999998 0.079999998
2.0999999 0.0099999998 0.1
2.0999999 0.0099999998 0.12
2.0999999 0.0099999998 0.14
2.0999999 0.0099999998 0.16
2.0999999 0.0099999998 0.18000001
2.0999999 0.0099999998 0.2
2.0999999 0.0099999998 0.22
2.0999999 0.0099999998 0.23999999
2.0999999 0.0099999998 0.25999999
2.0999999 0.0099999998 0.28
2.0999999 0.0099999998 0.30000001
2.0999999 0.0099999998 0.31999999
2.0999999 0.0099999998 0.34
2.0999999 0.0099999998 0.36000001
2.0999999 0.0099999998 0.38
2.0999999 0.0099999998 0.40000001
2.1199999 0.0099999998 -0.41999999
2.1199999 0.0099999998 -0.40000001
2.1199999 0.0099999998 -0.38
2.1199999 0.0099999998 -0.36000001
2.1199999 0.0099999998 -0.34
2.1199999 0.0099999998 -0.31999999
2.1199999 0.0099999998 -0.30000001
2.1199999 0.0099999998 -0.28
2.1199999 0.0099999998 -0.25999999
2.1199999 0.0099999998 -0.23999999
2.1199999 0.0099999998 -0.22
2.1199999 0.0099999998 -0.2
2.1199999 0.0099999998 -0.18000001
2.1199999 0.0099999998 -0.16
2.1199999 0.0099999998 -0.14
2.1199999 0.0099999998 -0.12
2.1199999 0.0099999998 -0.1
2.1199999 0.0099999998 -0.079999998
2.1199999 0.0099999998 -0.059999999000000005
2.1199999 0.0099999998 -0.039999999
2.1199999 0.0099999998 -0.02
2.1199999 0.0099999998 0.0
2.1199999 0.0099999998 0.02
2.1199999 0.0099999998 0.039999999
2.1199999 0.0099999998 0.059999999000000005
2.1199999 0.0099999998 0.079999998
2.1199999 0.0099999998 0.1
2.1199999 0.0099999998 0.12
2.1199999 0.0099999998 0.14
2.1199999 0.0099999998 0.16
2.1199999 0.0099999998 0.18000001
2.1199999 0.0099999998 0.2
2.1199999 0.0099999998 0.22
2.1199999 0.0099999998 0.23999999
2.1199999 0.0099999998 0.25999999
2.1199999 0.0099999998 0.28
2.1199999 0.0099999998 0.30000001
2.1199999 0.0099999998 0.31999999
2.1199999 0.0099999998 0.34
2.1199999 0.0099999998 0.36000001
2.1199999 0.0099999998 0.38
2.1199999 0.0099999998 0.40000001
2.1400001 0.0099999998 -0.38
2.1400001 0.0099999998 -0.36000001
2.1400001 0.0099999998 -0.34
2.1400001 0.0099999998 -0.31999999
2.1400001 0.0099999998 -0.30000001
2.1400001 0.0099999998 -0.28
2.1400001 0.0099999998 -0.25999999
2.1400001 0.0099999998 -0.23999999
2.1400001 0.0099999998 -0.22
2.1400001 0.0099999998 -0.2
2.1400001 0.0099999998 -0.18000001
2.1400001 0.0099999998 -0.16
2.1400001 0.0099999998 -0.14
2.1400001 0.0099999998 -0.12
2.1400001 0.0099999998 -0.1
2.1400001 0.0099999998 -0.079999998
2.1400001 0.0099999998 -0.059999999000000005
2.1400001 0.0099999998 -0.039999999
2.1400001 0.0099999998 -0.02
2.1400001 0.0099999998 0.0
2.1400001 0.0099999998 0.02
2.1400001 0.0099999998 0.039999999
2.1400001 0.0099999998 0.059999999000000005
2.1400001 0.0099999998 0.079999998
2.1400001 0.0099999998 0.1
2.1400001 0.0099999998 0.12
2.1400001 0.0099999998 0.14
2.1400001 0.0099999998 0.16
2.1400001 0.0099999998 0.18000001
2.1400001 0.0099999998 0.2
2.1400001 0.0099999998 0.22
2.1400001 0.0099999998 0.23999999
2.1400001 0.0099999998 0.25999999
2.1400001 0.0099999998 0.28
2.1400001 0.0099999998 0.30000001
2.1400001 0.0099999998 0.31999999
2.1400001 0.0099999998 0.34
2.1400001 0.0099999998 0.36000001
2.1400001 0.0099999998 0.38
2.1400001 0.0099999998 0.40000001
2.1600001 0.0099999998 -0.28
2.1600001 0.0099999998 -0.25999999
2.1600001 0.0099999998 -0.23999999
2.1600001 0.0099999998 -0.22
2.1600001 0.0099999998 -0.2
2.1600001 0.0099999998 -0.18000001
2.1600001 0.0099999998 -0.16
2.1600001 0.0099999998 -0.14
2.1600001 0.0099999998 -0.12
2.1600001 0.0099999998 -0.1
2.1600001 0.0099999998 -0.079999998
2.1600001 0.0099999998 -0.059999999000000005
2.1600001 0.0099999998 -0.039999999
2.1600001 0.0099999998 -0.02
2.1600001 0.0099999998 0.0
2.1600001 0.0099999998 0.02
2.1600001 0.0099999998 0.039999999
2.1600001 0.0099999998 0.059999999000000005
2.1600001 0.0099999998 0.079999998
2.1600001 0.0099999998 0.1
2.1600001 0.0099999998 0.12
2.1600001 0.0099999998 0.14
2.1600001 0.0099999998 0.16
2.1600001 0.0099999998 0.18000001
2.1600001 0.0099999998 0.2
2.1600001 0.0099999998 0.22
2.1600001 0.0099999998 0.23999999
2.1600001 0.0099999998 0.25999999
2.1600001 0.0099999998 0.28
2.1600001 0.0099999998 0.30000001
2.1600001 0.0099999998 0.31999999
2.1600001 0.0099999998 0.34
2.1600001 0.0099999998 0.36000001
2.1600001 0.0099999998 0.38
2.1600001 0.0099999998 0.40000001
2.1800001 0.0099999998 -0.18000001
2.1800001 0.0099999998 -0.16
2.1800001 0.0099999998 -0.14
2.1800001 0.0099999998 -0.12
2.1800001 0.0099999998 -0.1
2.1800001 0.0099999998 -0.079999998
2.1800001 0.0099999998 -0.059999999000000005
2.1800001 0.0099999998 -0.039999999
2.1800001 0.0099999998 -0.02
2.1800001 0.0099999998 0.0
2.1800001 0.0099999998 0.02
2.1800001 0.0099999998 0.039999999
2.1800001 0.0099999998 0.059999999000000005
2.1800001 0.0099999998 0.079999998
2.1800001 0.0099999998 0.1
2.1800001 0.0099999998 0.12
2.1800001 0.0099999998 0.14
2.1800001 0.0099999998 0.16
2.1800001 0.0099999998 0.18000001
2.1800001 0.0099999998 0.2
2.1800001 0.0099999998 0.22
2.1800001 0.0099999998 0.23999999
2.1800001 0.0099999998 0.25999999
2.1800001 0.0099999998 0.28
2.1800001 0.0099999998 0.30000001
2.1800001 0.0099999998 0.31999999
2.1800001 0.0099999998 0.34
2.1800001 0.0099999998 0.36000001
2.1800001 0.0099999998 0.38
2.1800001 0.0099999998 0.40000001
2.2 0.0099999998 -0.079999998
2.2 0.0099999998 -0.059999999000000005
2.2 0.0099999998 -0.039999999
2.2 0.0099999998 -0.02
2.2 0.0099999998 0.0
2.2 0.0099999998 0.02
2.2 0.0099999998 0.039999999
2.2 0.0099999998 0.059999999000000005
2.2 0.0099999998 0.079999998
2.2 0.0099999998 0.1
2.2 0.0099999998 0.12
2.2 0.0099999998 0.14
2.2 0.0099999998 0.16
2.2 0.0099999998 0.18000001
2.2 0.0099999998 0.2
2.2 0.0099999998 0.22
2.2 0.0099999998 0.23999999
2.2 0.0099999998 0.25999999
2.2 0.0099999998 0.28
2.2 0.0099999998 0.30000001
2.2 0.0099999998 0.31999999
2.2 0.0099999998 0.34
2.2 0.0099999998 0.36000001
2.2 0.0099999998 0.38
2.22 0.0099999998 0.02
2.22 0.0099999998 0.039999999
2.22 0.0099999998 0.059999999000000005
2.22 0.0099999998 0.079999998
2.22 0.0099999998 0.1
2.22 0.0099999998 0.12
2.22 0.0099999998 0.14
2.22 0.0099999998 0.16
2.22 0.0099999998 0.18000001
2.22 0.0099999998 0.2
2.22 0.0099999998 0.22
2.22 0.0099999998 0.23999999
2.22 0.0099999998 0.25999999
2.22 0.0099999998 0.28
2.22 0.0099999998 0.30000001
2.22 0.0099999998 0.31999999
2.22 0.0099999998 0.34
2.22 0.0099999998 0.36000001
2.22 0.0099999998 0.38
2.24 0.0099999998 0.12
2.24 0.0099999998 0.14
2.24 0.0099999998 0.16
2.24 0.0099999998 0.18000001
2.24 0.0099999998 0.2
2.24 0.0099999998 0.22
2.24 0.0099999998 0.23999999
2.24 0.0099999998 0.25999999
2.24 0.0099999998 0.28
2.24 0.0099999998 0.30000001
2.24 0.0099999998 0.31999999
2.24 0.0099999998 0.34
2.24 0.0099999998 0.36000001
2.24 0.0099999998 0.38
2.26 0.0099999998 0.22
2.26 0.0099999998 0.23999999
2.26 0.0099999998 0.25999999
2.26 0.0099999998 0.28
2.26 0.0099999998 0.30000001
2.26 0.0099999998 0.31999999
2.26 0.0099999998 0.34
2.26 0.0099999998 0.36000001
2.26 0.0099999998 0.38
2.28 0.0099999998 0.31999999
2.28 0.0099999998 0.34
2.28 0.0099999998 0.36000001
-3.2911705e-06 0.0099999998 -0.28000128
-4.0104364e-06 0.0099999998 -0.26000121
-4.619264900000001e-06 0.0099999998 -0.24000111
-5.095187099999999e-06 0.0099999998 -0.22000097
-5.446549e-06 0.0099999998 -0.20000079
0.019996747 0.0099999998 -0.30000168
0.019995432 0.0099999998 -0.28000155
0.019994307 0.0099999998 -0.26000154
0.019993396 0.0099999998 -0.24000144
0.019992708999999997 0.0099999998 -0.22000127
0.019992217 0.0099999998 -0.20000106
0.039995454 0.0099999998 -0.30000186
0.039993636 0.0099999998 -0.28000179
0.039992075 0.0099999998 -0.26000175
0.039990809 0.0099999998 -0.24000162
0.039989866 0.0099999998 -0.22000144
0.039989207 0.0099999998 -0.20000122
0.059993852 0.0099999998 -0.30000198
0.059991438 0.0099999998 -0.28000188
0.0599894 0.0099999998 -0.26000184
0.059987760999999994 0.0099999998 -0.24000172
0.059986554000000004 0.0099999998 -0.22000155
0.059985723 0.0099999998 -0.20000131
0.07999194400000001 0.0099999998 -0.30000213
0.079988852 0.0099999998 -0.28000194
0.079986297 0.0099999998 -0.2600019
0.079984285 0.0099999998 -0.24000177
0.079982817 0.0099999998 -0.22000158
0.079981834 0.0099999998 -0.20000134
0.099989668 0.0099999998 -0.30000231
0.09998581599999999 0.0099999998 -0.280002
0.099982716 0.0099999998 -0.2600019
0.09998031 0.0099999998 -0.24000175
0.09997860300000001 0.0099999998 -0.22000156
0.09997747800000001 0.0099999998 -0.20000133
0.11998691 0.0099999998 -0.30000257
0.11998221 0.0099999998 -0.28000206
0.11997852 0.0099999998 -0.26000187
0.11997573 0.0099999998 -0.24000172
0.11997379 0.0099999998 -0.22000155
0.11997255 0.0099999998 -0.20000131
0.13998353 0.0099999998 -0.30000299
0.13997789 0.0099999998 -0.28000221
0.1399736 0.0099999998 -0.26000193
0.13997039 0.0099999998 -0.24000171
0.13996823 0.0099999998 -0.22000155
0.13996689 0.0099999998 -0.20000133
0.15997925 0.0099999998 -0.3000035
0.15997267 0.0099999998 -0.28000247
0.15996777 0.0099999998 -0.26000211
0.15996417 0.0099999998 -0.24000184
0.15996179 0.0099999998 -0.22000167
0.15996037 0.0099999998 -0.20000146
0.17997365 0.0099999998 -0.30000377
0.17996638 0.0099999998 -0.2800028
0.17996091 0.0099999998 -0.2600024
0.17995693 0.0099999998 -0.24000217
0.17995432 0.0099999998 -0.220002
0.17995286 0.0099999998 -0.20000179
0.1999663 0.0099999998 -0.30000371
0.19995867 0.0099999998 -0.28000313
0.19995278 0.0099999998 -0.26000285
0.19994847 0.0099999998 -0.24000272
0.19994572 0.0099999998 -0.22000261
0.19994424 0.0099999998 -0.2000024
0.21995784 0.0099999998 -0.30000561
0.21994941 0.0099999998 -0.28000429
0.21994321 0.0099999998 -0.26000383
0.21993864 0.0099999998 -0.24000368
0.2199358 0.0099999998 -0.22000359
0.21993437 0.0099999998 -0.20000336
0.2399473 0.0099999998 -0.30001307
0.2399383 0.0099999998 -0.28000891
0.23993185 0.0099999998 -0.26000664
0.23992717 0.0099999998 -0.24000563
0.23992442 0.0099999998 -0.2200052
0.2399231 0.0099999998 -0.20000479
0.25993326 0.0099999998 -0.30002037
0.25992453 0.0099999998 -0.28001514
0.25991818 0.0099999998 -0.26001111
0.25991377 0.0099999998 -0.24000885
0.2599113 0.0099999998 -0.22000772
0.25991023 0.0099999998 -0.20000683
0.27991617 0.0099999998 -0.30002588
0.27990809 0.0099999998 -0.28002077
0.27990225 0.0099999998 -0.26001608
0.27989835 0.0099999998 -0.24001294
0.27989626 0.0099999998 -0.22001095
0.27989548 0.0099999998 -0.20000939
0.29989704 0.0099999998 -0.30003071
0.29988962 0.0099999998 -0.28002578
0.29988432 0.0099999998 -0.26002097
0.29988089 0.0099999998 -0.24001729
0.29987916 0.0099999998 -0.22001459
0.29987872 0.0099999998 -0.20001239
0.31987667 0.0099999998 -0.30003551
0.31986955 0.0099999998 -0.28003052
0.31986448 0.0099999998 -0.26002565
0.31986129 0.0099999998 -0.24002165
0.3198598 0.0099999998 -0.22001839
0.31985968 0.0099999998 -0.20001565
0.3398551 0.0099999998 -0.30004063
0.33984774 0.0099999998 -0.28003535
0.33984247 0.0099999998 -0.26003027
0.33983931 0.0099999998 -0.240026
0.33983797 0.0099999998 -0.22002229
0.33983812 0.0099999998 -0.20001908
0.35983172 0.0099999998 -0.30004624
0.35982358 0.0099999998 -0.28004053
0.35981789 0.0099999998 -0.26003504
0.35981458 0.0099999998 -0.24003045
0.35981336 0.0099999998 -0.22002633
0.35981378 0.0099999998 -0.20002261
0.37980562 0.0099999998 -0.30005243
0.3797965 0.0099999998 -0.28004614
0.37979022 0.0099999998 -0.26004013
0.37978673 0.0099999998 -0.24003513
0.37978563 0.0099999998 -0.22003055
0.37978637 0.0099999998 -0.2000263
0.39977622 0.0099999998 -0.30005935
0.399766 0.0099999998 -0.28005233
0.39975911 0.0099999998 -0.26004571
0.39975542 0.0099999998 -0.24004015
0.39975443 0.0099999998 -0.22003502
0.39975551 0.0099999998 -0.20003018
0.41974309 0.0099999998 -0.30006716
0.41973168 0.0099999998 -0.28005925
0.41972417 0.0099999998 -0.26005182
0.41972026 0.0099999998 -0.24004559
0.41971943 0.0099999998 -0.22003978
0.41972089 0.0099999998 -0.20003429
0.43970567 0.0099999998 -0.30007598
0.439693 0.0099999998 -0.28006706
0.43968484 0.0099999998 -0.26005861
0.43968076 0.0099999998 -0.24005149
0.43968013 0.0099999998 -0.22004494
0.43968213 0.0099999998 -0.20003876
0.45966327 0.0099999998 -0.30008614
0.45964932 0.0099999998 -0.28007591
0.45964053 0.0099999998 -0.26006615
0.45963633 0.0099999998 -0.24005792
0.45963606 0.0099999998 -0.22005059
0.45963868 0.0099999998 -0.20004375
0.47961491 0.0099999998 -0.30009797
0.47959977 0.0099999998 -0.28008607
0.47959051 0.0099999998 -0.26007444
0.47958639 0.0099999998 -0.24006496
0.47958663 0.0099999998 -0.22005694
0.47959009 0.0099999998 -0.20004964
0.49955916 0.0099999998 -0.30011192
0.49954334 0.0099999998 -0.28009781
0.49953398 0.0099999998 -0.26008371
0.49953032 0.0099999998 -0.24007297
0.49953139 0.0099999998 -0.22006455
0.49953592 0.0099999998 -0.20005707
0.51949424 0.0099999998 -0.30012861
0.51947886 0.0099999998 -0.28011158
0.51947033 0.0099999998 -0.26009437
0.51946771 0.0099999998 -0.24008273
0.51947004 0.0099999998 -0.2200744
0.51947588 0.0099999998 -0.20006707
0.5394184 0.0099999998 -0.30014887
0.53940582 0.0099999998 -0.28012821
0.53939956 0.0099999998 -0.26010764
0.53939885 0.0099999998 -0.24009563
0.5394029 0.0099999998 -0.22008801
0.53941035 0.0099999998 -0.20008102
0.55933172 0.0099999998 -0.30017403
0.5593251 0.0099999998 -0.28014931
0.55932295 0.0099999998 -0.26012534
0.55932528 0.0099999998 -0.24011368
0.55933154 0.0099999998 -0.22010717
0.55934066 0.0099999998 -0.20010027
0.57923764 0.0099999998 -0.30020621
0.57924038 0.0099999998 -0.28017762
0.5792442 0.0099999998 -0.26015061
0.57925034 0.0099999998 -0.24013907
0.57925916 0.0099999998 -0.2201332
0.57926989 0.0099999998 -0.20012577
0.59914422 0.0099999998 -0.30024883
0.59915799 0.0099999998 -0.28021762
0.59916866 0.0099999998 -0.26018786
0.59917849 0.0099999998 -0.24017353
0.5991894 0.0099999998 -0.22016592
0.5992015 0.0099999998 -0.20015652
0.61906195 0.0099999998 -0.30030704
0.61908489 0.0099999998 -0.28027594
0.61909926 0.0099999998 -0.26024047
0.61911207 0.0099999998 -0.24021834
0.61912549 0.0099999998 -0.22020529
0.61913902 0.0099999998 -0.20019154
0.63900131 0.0099999998 -0.30038425
0.63902658 0.0099999998 -0.28035635
0.6390425 0.0099999998 -0.26031896
0.63905579 0.0099999998 -0.24028119
0.63907015 0.0099999998 -0.22025259
0.63908589 0.0099999998 -0.20023149
0.65896952 0.0099999998 -0.30047408
0.65899283 0.0099999998 -0.28045186
0.6590094 0.0099999998 -0.26042259
0.65902221 0.0099999998 -0.24037459
0.65903413 0.0099999998 -0.22032166
0.65904921 0.0099999998 -0.20028339
0.67898405 0.0099999998 -0.30055633
0.67899173 0.0099999998 -0.28054067
0.6790061 0.0099999998 -0.26052436
0.67901814 0.0099999998 -0.24048457
0.67902535 0.0099999998 -0.22041444
0.67903721 0.0099999998 -0.20035663
0.6991331 0.0099999998 -0.30062199
0.69906294 0.0099999998 -0.28061011
0.69905281 0.0099999998 -0.26060766
0.699063 0.0099999998 -0.24058825
0.69906437 0.0099999998 -0.22052513
0.69907027 0.0099999998 -0.20045732
0.71940958 0.0099999998 -0.30067042
0.71932745 0.0099999998 -0.28065851
0.7192598 0.0099999998 -0.26066265
0.71921831 0.0099999998 -0.2406608
0.71920186 0.0099999998 -0.22062223
0.719203 0.0099999998 -0.20056818
0.73964399 0.0099999998 -0.30070481
0.73959059 0.0099999998 -0.2806913
0.73954487 0.0099999998 -0.26068091
0.73951072 0.0099999998 -0.24067366
0.73949122 0.0099999998 -0.22063878
0.7394861 0.0099999998 -0.20058934
0.75980955 0.0099999998 -0.30072954
0.75977981 0.0099999998 -0.28071544
0.75975478 0.0099999998 -0.26068825
0.75973392 0.0099999998 -0.2406722
0.75972015 0.0099999998 -0.22063628
0.75971389 0.0099999998 -0.20058803
0.77992171 0.0099999998 -0.30074614
0.77991056 0.0099999998 -0.28073126
0.77990174 0.0099999998 -0.26069471
0.7798928 0.0099999998 -0.24066976
0.77988535 0.0099999998 -0.22063039
0.77988034 0.0099999998 -0.20058176
0.80001116 0.0099999998 -0.3007547
0.80001521 0.0099999998 -0.28073928
0.80001885 0.0099999998 -0.26070023
0.8000201 0.0099999998 -0.24067035
0.80001855 0.0099999998 -0.22062719
0.80001557 0.0099999998 -0.20057522
0.82010484 0.0099999998 -0.30075541
0.82012272 0.0099999998 -0.28073984
0.82013607 0.0099999998 -0.26070318
0.82014567 0.0099999998 -0.24067342
0.82014906 0.0099999998 -0.22062655
0.82014722 0.0099999998 -0.20056911
0.84021354 0.0099999998 -0.30074671
0.84024453 0.0099999998 -0.2807309
0.84026659 0.0099999998 -0.26069731
0.84028298 0.0099999998 -0.24067017
0.84029007 0.0099999998 -0.2206219
0.84028769 0.0099999998 -0.20056133
0.86033261 0.0099999998 -0.30072978
0.86037666 0.0099999998 -0.28071353
0.8604067 0.0099999998 -0.2606822
0.86042893 0.0099999998 -0.24065788
0.86043853 0.0099999998 -0.2206104
0.86043388 0.0099999998 -0.2005495
0.88045096 0.0099999998 -0.30070603
0.88050687 0.0099999998 -0.28068915
0.88054401 0.0099999998 -0.26065907
0.88057166 0.0099999998 -0.24063648
0.88058305 0.0099999998 -0.22059104
0.88057548 0.0099999998 -0.20053186
0.90055817 0.0099999998 -0.30067667
0.9006229 0.0099999998 -0.28065893
0.90066582 0.0099999998 -0.26062936
0.90069735 0.0099999998 -0.24060613
0.90071076 0.0099999998 -0.22056243
0.90070158 0.0099999998 -0.20050772
0.92064679 0.0099999998 -0.300643
0.92071575 0.0099999998 -0.28062436
0.92076319 0.0099999998 -0.26059404
0.92079628 0.0099999998 -0.24056813
0.92081201 0.0099999998 -0.22052537
0.92079937 0.0099999998 -0.2004777
0.94071287 0.0099999998 -0.30060613
0.94078332 0.0099999998 -0.28058633
0.94083375 0.0099999998 -0.26055479
0.94086611 0.0099999998 -0.24052522
0.94086593 0.0099999998 -0.22048773
0.94083542 0.0099999998 -0.20044544
0.96076268 0.0099999998 -0.30056646
0.9608323 0.0099999998 -0.28054586
0.96088254 0.0099999998 -0.2605131
0.96090037 0.0099999998 -0.24048559
0.9608776 0.0099999998 -0.22045393
0.96084076 0.0099999998 -0.20041253
0.98080701 0.0099999998 -0.30052426
0.98087245 0.0099999998 -0.28050345
0.98091394 0.0099999998 -0.26047122
0.98090875 0.0099999998 -0.24044932
0.98087656 0.0099999998 -0.22041918
0.98083669 0.0099999998 -0.20038007
1.0008546 0.0099999998 -0.30048054
1.0009084000000001 0.0099999998 -0.28045964
1.0009298 0.0099999998 -0.26042986
1.0009086 0.0099999998 -0.2404121
1.0008701 0.0099999998 -0.22038336
1.0008283000000002 0.0099999998 -0.20034975
1.0209123 0.0099999998 -0.30043647
1.0209441 0.0099999998 -0.28041592
1.0209383 0.0099999998 -0.26038936
1.0209059 0.0099999998 -0.24037468
1.0208620000000002 0.0099999998 -0.2203498
1.0208182 0.0099999998 -0.20032194
1.0409889 0.0099999998 -0.30039299
1.0409832 0.0099999998 -0.28037429
1.040946 0.0099999998 -0.2603524
1.0409027 0.0099999998 -0.24033928
1.0408540000000002 0.0099999998 -0.2203182
1.0408066999999999 0.0099999998 -0.2002937
1.0610628 0.0099999998 -0.3003554
1.0610151 0.0099999998 -0.28033903
1.0609571000000002 0.0099999998 -0.26032016
1.0609007 0.0099999998 -0.24030735
1.0608469999999999 0.0099999998 -0.22028807
1.0607951 0.0099999998 -0.20026612
1.0810958000000002 0.0099999998 -0.30032235
1.0810349 0.0099999998 -0.28030813
1.0809652 0.0099999998 -0.26028976
1.0808996000000002 0.0099999998 -0.24027669
1.0808412 0.0099999998 -0.22026002
1.0807844 0.0099999998 -0.20023897
1.1010406000000001 0.0099999998 -0.28027973
1.1009672 0.0099999998 -0.26025975
1.1008991000000001 0.0099999998 -0.2402463
1.1008365 0.0099999998 -0.22023205
1.1007758 0.0099999998 -0.20021315
1.1210326000000002 0.0099999998 -0.28025535
1.1209664 0.0099999998 -0.26023543
1.1208985 0.0099999998 -0.2402184
1.1208339 0.0099999998 -0.2202054
1.1207695 0.0099999998 -0.20018828
1.1409627 0.0099999998 -0.26021892
1.1408976 0.0099999998 -0.24019842
1.1408341999999998 0.0099999998 -0.22018419
1.1407669 0.0099999998 -0.20016734
1.1609508 0.0099999998 -0.26020634
1.1608986000000001 0.0099999998 -0.24018875
1.1608368999999998 0.0099999998 -0.22017008
1.1607703 0.0099999998 -0.20015326
1.1808923 0.0099999998 -0.24018353
1.1808401000000002 0.0099999998 -0.22016485
1.1807787 0.0099999998 -0.20014735
1.2008362 0.0099999998 -0.22016348
1.200788 0.0099999998 -0.20014799
1.2208092 0.0099999998 -0.22015373
1.2207845 0.0099999998 -0.20014894
-5.6893728e-06 0.0099999998 -0.18000065
-5.847815400000001e-06 0.0099999998 -0.1600005
-5.939426999999999e-06 0.0099999998 -0.14000039
-5.984114099999999e-06 0.0099999998 -0.12000028
-5.998129799999999e-06 0.0099999998 -0.1000002
-5.993792e-06 0.0099999998 -0.08000014
-5.9814629e-06 0.0099999998 -0.060000088
-5.9678687000000005e-06 0.0099999998 -0.040000055
-5.9579443e-06 0.0099999998 -0.020000023999999998
0.019991888 0.0099999998 -0.18000087
0.019991683 0.0099999998 -0.16000068
0.019991575 0.0099999998 -0.14000052
0.019991526000000003 0.0099999998 -0.12000038
0.019991521 0.0099999998 -0.10000028
0.019991538 0.0099999998 -0.080000192
0.019991564 0.0099999998 -0.060000129000000006
0.019991588 0.0099999998 -0.040000077
0.019991605 0.0099999998 -0.020000035
0.039988779 0.0099999998 -0.18000101
0.039988525 0.0099999998 -0.1600008
0.039988399 0.0099999998 -0.14000061
0.03998835 0.0099999998 -0.12000046
0.039988357999999995 0.0099999998 -0.10000034
0.039988395 0.0099999998 -0.080000229
0.039988436 0.0099999998 -0.060000155
0.039988477 0.0099999998 -0.040000092
0.039988502999999995 0.0099999998 -0.020000043999999998
0.059985202 0.0099999998 -0.18000108
0.059984904000000006 0.0099999998 -0.16000086
0.059984762000000004 0.0099999998 -0.14000066
0.059984729 0.0099999998 -0.1200005
0.059984755 0.0099999998 -0.10000036
0.059984811 0.0099999998 -0.08000025200000001
0.059984878 0.0099999998 -0.060000165999999994
0.059984937 0.0099999998 -0.0400001
0.059984978 0.0099999998 -0.020000048
0.07998123 0.0099999998 -0.18000109
0.079980902 0.0099999998 -0.16000088
0.079980761 0.0099999998 -0.14000067
0.07998074599999999 0.0099999998 -0.1200005
0.07998079799999999 0.0099999998 -0.10000037
0.079980887 0.0099999998 -0.080000259
0.079980984 0.0099999998 -0.06000017
0.07998106599999999 0.0099999998 -0.040000102999999995
0.079981118 0.0099999998 -0.020000048
0.099976815 0.0099999998 -0.18000109
0.09997648 0.0099999998 -0.16000086
0.099976353 0.0099999998 -0.14000067
0.09997636800000001 0.0099999998 -0.1200005
0.099976465 0.0099999998 -0.10000036
0.09997659199999999 0.0099999998 -0.08000025200000001
0.099976726 0.0099999998 -0.06000017
0.09997683 0.0099999998 -0.040000102999999995
0.099976905 0.0099999998 -0.020000048
0.11997185 0.0099999998 -0.18000108
0.11997151 0.0099999998 -0.16000086
0.11997143 0.0099999998 -0.14000067
0.11997149 0.0099999998 -0.1200005
0.11997164 0.0099999998 -0.10000037
0.11997183 0.0099999998 -0.080000259
0.119972 0.0099999998 -0.060000174
0.11997214 0.0099999998 -0.040000107
0.11997223 0.0099999998 -0.02000005
0.13996617 0.0099999998 -0.18000112
0.13996588 0.0099999998 -0.16000091
0.13996585 0.0099999998 -0.14000072
0.13996598 0.0099999998 -0.12000055
0.13996619 0.0099999998 -0.10000041
0.13996644 0.0099999998 -0.080000289
0.13996667 0.0099999998 -0.0600002
0.13996685 0.0099999998 -0.040000122
0.13996696 0.0099999998 -0.020000059
0.15995966 0.0099999998 -0.18000126
0.15995941 0.0099999998 -0.16000105
0.15995947 0.0099999998 -0.14000085
0.15995967 0.0099999998 -0.12000067
0.15995999 0.0099999998 -0.10000051
0.1599603 0.0099999998 -0.080000371
0.1599606 0.0099999998 -0.06000025900000001
0.15996082 0.0099999998 -0.040000163
0.15996097 0.0099999998 -0.02000008
0.17995219 0.0099999998 -0.18000157
0.17995203 0.0099999998 -0.16000135
0.17995217 0.0099999998 -0.14000112
0.1799525 0.0099999998 -0.1200009
0.1799529 0.0099999998 -0.1000007
0.17995332 0.0099999998 -0.080000527
0.17995368 0.0099999998 -0.060000371
0.17995396 0.0099999998 -0.040000238
0.17995414 0.0099999998 -0.020000115
0.19994365 0.0099999998 -0.18000215
0.19994359 0.0099999998 -0.16000187
0.19994387 0.0099999998 -0.14000158
0.19994432 0.0099999998 -0.12000129
0.19994485 0.0099999998 -0.10000101
0.19994538 0.0099999998 -0.080000773
0.19994582 0.0099999998 -0.06000055
0.19994618 0.0099999998 -0.040000357
0.19994639 0.0099999998 -0.020000175
0.2199339 0.0099999998 -0.18000305
0.21993397 0.0099999998 -0.16000265
0.2199344 0.0099999998 -0.14000225
0.219935 0.0099999998 -0.12000185
0.21993567 0.0099999998 -0.10000147
0.21993631 0.0099999998 -0.080001123
0.21993688 0.0099999998 -0.060000810999999994
0.21993729 0.0099999998 -0.040000523999999996
0.21993756 0.0099999998 -0.020000257
0.23992278 0.0099999998 -0.18000428
0.23992303 0.0099999998 -0.16000375
0.23992363 0.0099999998 -0.14000317
0.2399244 0.0099999998 -0.12000261
0.23992522 0.0099999998 -0.10000209
0.23992601 0.0099999998 -0.0800016
0.23992668 0.0099999998 -0.060001157
0.23992719 0.0099999998 -0.040000752
0.23992752 0.0099999998 -0.020000368
0.25991008 0.0099999998 -0.18000597
0.25991055 0.0099999998 -0.16000515
0.25991133 0.0099999998 -0.14000435
0.25991231 0.0099999998 -0.12000358
0.25991333 0.0099999998 -0.10000286
0.25991428 0.0099999998 -0.080002196
0.25991508 0.0099999998 -0.060001589
0.25991568 0.0099999998 -0.040001031
0.25991607 0.0099999998 -0.020000508
0.27989563 0.0099999998 -0.18000807
0.27989632 0.0099999998 -0.16000688
0.27989736 0.0099999998 -0.14000578
0.27989858 0.0099999998 -0.12000474
0.27989981 0.0099999998 -0.10000379
0.27990094 0.0099999998 -0.080002911
0.27990189 0.0099999998 -0.060002111
0.27990261 0.0099999998 -0.04000137
0.27990305 0.0099999998 -0.020000676000000002
0.29987916 0.0099999998 -0.18001054
0.29988015 0.0099999998 -0.16000891
0.29988149 0.0099999998 -0.14000744
0.29988295 0.0099999998 -0.12000608
0.29988444 0.0099999998 -0.10000485
0.29988578 0.0099999998 -0.080003724
0.29988688 0.0099999998 -0.060002703
0.29988775 0.0099999998 -0.040001757
0.29988825 0.0099999998 -0.020000866000000003
0.31986046 0.0099999998 -0.18001327
0.3198618 0.0099999998 -0.16001116
0.31986347 0.0099999998 -0.14000928
0.31986526 0.0099999998 -0.12000757
0.31986701 0.0099999998 -0.10000603
0.31986856 0.0099999998 -0.080004632
0.31986988 0.0099999998 -0.060003363
0.31987086 0.0099999998 -0.040002186
0.31987146 0.0099999998 -0.020001078000000002
0.33983925 0.0099999998 -0.18001617
0.33984101 0.0099999998 -0.16001357
0.33984306 0.0099999998 -0.14001127
0.33984521 0.0099999998 -0.12000918
0.33984727 0.0099999998 -0.1000073
0.33984908 0.0099999998 -0.080005601
0.3398506 0.0099999998 -0.060004062999999996
0.33985174 0.0099999998 -0.040002644
0.33985242 0.0099999998 -0.020001302
0.35981533 0.0099999998 -0.1800192
0.3598175 0.0099999998 -0.16001612
0.35981998 0.0099999998 -0.14001335
0.35982251 0.0099999998 -0.12001087
0.35982493 0.0099999998 -0.10000863
0.35982707 0.0099999998 -0.080006622
0.3598288 0.0099999998 -0.060004800999999997
0.35983011 0.0099999998 -0.040003121
0.35983089 0.0099999998 -0.020001536
0.37978831 0.0099999998 -0.18002236
0.37979096 0.0099999998 -0.16001877
0.37979394 0.0099999998 -0.14001553
0.37979692 0.0099999998 -0.12001262
0.37979972 0.0099999998 -0.10001001
0.37980217 0.0099999998 -0.080007672
0.37980419 0.0099999998 -0.060005561
0.37980565 0.0099999998 -0.040003613
0.37980658 0.0099999998 -0.020001778
0.39975795 0.0099999998 -0.18002565
0.39976117 0.0099999998 -0.16002153
0.39976466 0.0099999998 -0.14001781
0.39976814 0.0099999998 -0.12001445
0.39977139 0.0099999998 -0.10001145
0.39977419 0.0099999998 -0.080008768
0.39977649 0.0099999998 -0.06000635
0.39977819 0.0099999998 -0.040004127
0.3997792 0.0099999998 -0.020002032
0.4197239 0.0099999998 -0.18002917
0.41972771 0.0099999998 -0.16002448
0.41973186 0.0099999998 -0.14002024
0.41973591 0.0099999998 -0.12001642
0.41973963 0.0099999998 -0.10001301
0.41974285 0.0099999998 -0.080009967
0.41974548 0.0099999998 -0.060007226
0.41974738 0.0099999998 -0.0400047
0.41974854 0.0099999998 -0.020002315
0.43968579 0.0099999998 -0.18003301
0.43969035 0.0099999998 -0.16002774
0.43969518 0.0099999998 -0.14002298
0.43969989 0.0099999998 -0.12001868
0.43970418 0.0099999998 -0.10001484
0.43970788 0.0099999998 -0.080011398
0.43971083 0.0099999998 -0.06000828
0.439713 0.0099999998 -0.040005393
0.43971434 0.0099999998 -0.020002661
0.45964316 0.0099999998 -0.18003744
0.45964858 0.0099999998 -0.16003162
0.45965427 0.0099999998 -0.14002632
0.45965973 0.0099999998 -0.12002151
0.45966464 0.0099999998 -0.10001717
0.45966887 0.0099999998 -0.08001325299999999
0.45967224 0.0099999998 -0.060009665999999996
0.45967472 0.0099999998 -0.040006321
0.45967624 0.0099999998 -0.020003125
0.47959557 0.0099999998 -0.18004289
0.47960201 0.0099999998 -0.16003658
0.47960865 0.0099999998 -0.14003073
0.47961497 0.0099999998 -0.12002531
0.47962064 0.0099999998 -0.10002036
0.47962546 0.0099999998 -0.08001581599999999
0.47962928 0.0099999998 -0.060011607
0.47963208 0.0099999998 -0.040007621
0.47963381 0.0099999998 -0.020003779
0.49954256 0.0099999998 -0.18005008
0.49955016 0.0099999998 -0.16004333
0.49955788 0.0099999998 -0.14003685
0.49956518 0.0099999998 -0.12003067
0.49957165 0.0099999998 -0.10002487
0.49957713 0.0099999998 -0.080019452
0.49958149 0.0099999998 -0.060014356
0.49958465 0.0099999998 -0.040009473
0.49958658 0.0099999998 -0.020004708
0.51948386 0.0099999998 -0.18005995
0.51949275 0.0099999998 -0.16005275
0.51950163 0.0099999998 -0.14004545
0.51950991 0.0099999998 -0.12003823
0.5195173 0.0099999998 -0.10003124
0.5195235 0.0099999998 -0.080024585
0.51952839 0.0099999998 -0.060018222999999996
0.51953202 0.0099999998 -0.040012065
0.51953417 0.0099999998 -0.020006012
0.53941971 0.0099999998 -0.18007365
0.53942984 0.0099999998 -0.1600657
0.53943992 0.0099999998 -0.14005728
0.53944927 0.0099999998 -0.1200486
0.53945756 0.0099999998 -0.10003997
0.53946453 0.0099999998 -0.080031596
0.53947008 0.0099999998 -0.060023498
0.53947413 0.0099999998 -0.040015586
0.53947657 0.0099999998 -0.020007774
0.55935144 0.0099999998 -0.18009226
0.55936271 0.0099999998 -0.16008312
0.55937386 0.0099999998 -0.14007302
0.55938423 0.0099999998 -0.12006235
0.55939341 0.0099999998 -0.10005154
0.55940115 0.0099999998 -0.08004090900000001
0.55940735 0.0099999998 -0.060030494000000004
0.55941182 0.0099999998 -0.040020254
0.55941457 0.0099999998 -0.020010106
0.57928175 0.0099999998 -0.18011642
0.57929397 0.0099999998 -0.1601052
0.57930601 0.0099999998 -0.14009272
0.57931727 0.0099999998 -0.12007946
0.57932729 0.0099999998 -0.10006586
0.57933581 0.0099999998 -0.08005235299999999
0.5793426 0.0099999998 -0.060039077
0.57934755 0.0099999998 -0.040025994
0.57935065 0.0099999998 -0.02001299
0.59921443 0.0099999998 -0.18014491
0.59922779 0.0099999998 -0.16013147
0.59924072 0.0099999998 -0.14011639
0.59925276 0.0099999998 -0.12010004
0.59926349 0.0099999998 -0.10008308
0.59927261 0.0099999998 -0.080066137
0.59928 0.0099999998 -0.060049448
0.59928542 0.0099999998 -0.04003296
0.59928882 0.0099999998 -0.020016501000000003
0.61915356 0.0099999998 -0.18017709
0.61916822 0.0099999998 -0.1601613
0.61918199 0.0099999998 -0.14014329
0.61919469 0.0099999998 -0.12012349
0.61920589 0.0099999998 -0.10010293
0.61921555 0.0099999998 -0.080082297
0.61922348 0.0099999998 -0.060061723
0.61922932 0.0099999998 -0.040041234
0.61923295 0.0099999998 -0.020020695
0.63910246 0.0099999998 -0.18021283
0.63911813 0.0099999998 -0.16019365
0.63913238 0.0099999998 -0.14017205
0.63914531 0.0099999998 -0.12014844
0.63915706 0.0099999998 -0.10012377
0.63916737 0.0099999998 -0.080098994
0.63917571 0.0099999998 -0.060074329
0.63918191 0.0099999998 -0.040049747000000004
0.63918579 0.0099999998 -0.02002497
0.65906578 0.0099999998 -0.18025556
0.65908158 0.0099999998 -0.16023108
0.65909582 0.0099999998 -0.14020509
0.6591087 0.0099999998 -0.1201766
0.65912038 0.0099999998 -0.10014711
0.65913075 0.0099999998 -0.080117829
0.65913934 0.0099999998 -0.060088888
0.65914571 0.0099999998 -0.040059716
0.65914959 0.0099999998 -0.020029996
0.67905265 0.0099999998 -0.18031666
0.67906779 0.0099999998 -0.1602844
0.67908114 0.0099999998 -0.14025232
0.67909312 0.0099999998 -0.120218
0.67910409 0.0099999998 -0.10018267
0.67911386 0.0099999998 -0.080147602
0.67912191 0.0099999998 -0.060112491
0.67912787 0.0099999998 -0.04007652
0.67913151 0.0099999998 -0.020038893000000002
0.69908202 0.0099999998 -0.18040514
0.69909441 0.0099999998 -0.16036268
0.69910425 0.0099999998 -0.14032003
0.69911236 0.0099999998 -0.12027534
0.69912064 0.0099999998 -0.1002306
0.69912869 0.0099999998 -0.080186665
0.69913554 0.0099999998 -0.06014247599999999
0.69914067 0.0099999998 -0.040096924
0.69914365 0.0099999998 -0.02004924
0.71921158 0.0099999998 -0.18051231
0.71922266 0.0099999998 -0.16046308
0.71923274 0.0099999998 -0.14040892
0.71924233 0.0099999998 -0.12034938
0.71925229 0.0099999998 -0.10028988
0.71926188 0.0099999998 -0.080232501
0.71927035 0.0099999998 -0.060176447
0.71927708 0.0099999998 -0.040119652
0.71928138 0.0099999998 -0.020060726
0.7394892 0.0099999998 -0.18053648
0.73949492 0.0099999998 -0.16048826
0.73950136 0.0099999998 -0.14043275
0.73950797 0.0099999998 -0.1203708
0.73951453 0.0099999998 -0.10030904
0.73952079 0.0099999998 -0.080249175
0.73952639 0.0099999998 -0.060189988
0.73953092 0.0099999998 -0.040129292999999996
0.73953384 0.0099999998 -0.020065755
0.75971258 0.0099999998 -0.18053962
0.75971311 0.0099999998 -0.16049489
0.75971466 0.0099999998 -0.14044154
0.75971675 0.0099999998 -0.12038067
0.75971913 0.0099999998 -0.10031907
0.7597217 0.0099999998 -0.0802586
0.75972426 0.0099999998 -0.060198043
0.75972652 0.0099999998 -0.04013522
0.75972801 0.0099999998 -0.020068904
0.77987736 0.0099999998 -0.18053609
0.7798754 0.0099999998 -0.16049421
0.77987403 0.0099999998 -0.14044291
0.77987313 0.0099999998 -0.12038336
0.7798726 0.0099999998 -0.10032251
0.77987242 0.0099999998 -0.080262288
0.77987266 0.0099999998 -0.060201492
0.77987301 0.0099999998 -0.040137909
0.77987337 0.0099999998 -0.020070383
0.80001217 0.0099999998 -0.18053009
0.80000883 0.0099999998 -0.1604896
0.80000561 0.0099999998 -0.14043956
0.80000269 0.0099999998 -0.12038103
0.80000013 0.0099999998 -0.10032102
0.79999804 0.0099999998 -0.080261514
0.7999965 0.0099999998 -0.060201243
0.79999554 0.0099999998 -0.040137947
0.79999501 0.0099999998 -0.020070475
0.82014287 0.0099999998 -0.1805231
0.82013786 0.0099999998 -0.16048273
0.82013291 0.0099999998 -0.14043312
0.8201282 0.0099999998 -0.12037519
0.82012403 0.0099999998 -0.10031599
0.82012045 0.0099999998 -0.080257446
0.82011765 0.0099999998 -0.060198218
0.82011563 0.0099999998 -0.040135965
0.82011443 0.0099999998 -0.020069495
0.84028095 0.0099999998 -0.18051438
0.84027326 0.0099999998 -0.16047359
0.84026587 0.0099999998 -0.14042401
0.84025919 0.0099999998 -0.12036659
0.84025335 0.0099999998 -0.10030828
0.84024847 0.0099999998 -0.08025094099999999
0.84024459 0.0099999998 -0.060193147999999995
0.84024179 0.0099999998 -0.040132485
0.84024 0.0099999998 -0.020067723
0.86042339 0.0099999998 -0.18050228
0.860412 0.0099999998 -0.16046125
0.86040151 0.0099999998 -0.1404119
0.86039251 0.0099999998 -0.12035526
0.86038488 0.0099999998 -0.10029816
0.86037868 0.0099999998 -0.08024237299999999
0.86037374 0.0099999998 -0.060186412
0.86037016 0.0099999998 -0.040127821
0.86036795 0.0099999998 -0.02006533
0.88056058 0.0099999998 -0.18048534
0.8805449 0.0099999998 -0.16044471
0.88053107 0.0099999998 -0.14039618
0.88051945 0.0099999998 -0.12034091
0.88050997 0.0099999998 -0.10028557
0.88050228 0.0099999998 -0.08023183
0.88049632 0.0099999998 -0.06017814900000001
0.88049203 0.0099999998 -0.040122099
0.88048935 0.0099999998 -0.020062393
0.90068245 0.0099999998 -0.18046288
0.90066278 0.0099999998 -0.16042344
0.90064567 0.0099999998 -0.14037652
0.90063149 0.0099999998 -0.12032338
0.90061998 0.0099999998 -0.10027044
0.9006108 0.0099999998 -0.080219284
0.90060365 0.0099999998 -0.060168389
0.90059847 0.0099999998 -0.040115368
0.90059531 0.0099999998 -0.020058943
0.92077219 0.0099999998 -0.18043552
0.92074537 0.0099999998 -0.16039783
0.9207226 0.0099999998 -0.14035311
0.92070377 0.0099999998 -0.12030283
0.92068815 0.0099999998 -0.10025302
0.92067552 0.0099999998 -0.080205098
0.92066574 0.0099999998 -0.06015753
0.92065871 0.0099999998 -0.040107962000000004
0.92065448 0.0099999998 -0.020055175
0.94080091 0.0099999998 -0.18040593
0.94077033 0.0099999998 -0.16036968
0.94074446 0.0099999998 -0.14032736
0.94072288 0.0099999998 -0.12028033
0.94070506 0.0099999998 -0.10023403
0.9406907 0.0099999998 -0.080189645
0.94067961 0.0099999998 -0.060145624
0.9406718 0.0099999998 -0.040099785
0.94066709 0.0099999998 -0.020050976
0.96080458 0.0099999998 -0.18037596
0.96077275 0.0099999998 -0.16034119
0.96074575 0.0099999998 -0.14030129
0.96072322 0.0099999998 -0.12025756
0.96070457 0.0099999998 -0.10021467
0.96068954 0.0099999998 -0.080173612
0.96067798 0.0099999998 -0.060133077
0.96066982 0.0099999998 -0.040091075
0.96066499 0.0099999998 -0.02004653
0.98079932 0.0099999998 -0.18034714
0.98076659 0.0099999998 -0.16031432
0.98073888 0.0099999998 -0.14027676
0.98071581 0.0099999998 -0.12023603
0.98069674 0.0099999998 -0.10019623
0.98068142 0.0099999998 -0.080158338
0.98066968 0.0099999998 -0.060121104
0.98066127 0.0099999998 -0.040082686
0.98065627 0.0099999998 -0.020042131
1.00079 0.0099999998 -0.18031952
1.0007564 0.0099999998 -0.16028963
1.0007277 0.0099999998 -0.14025494
1.0007039 0.0099999998 -0.12021748
1.0006846 0.0099999998 -0.10018057
1.0006692 0.0099999998 -0.080145359
1.0006572 0.0099999998 -0.060110707
1.0006485 0.0099999998 -0.040075261
1.0006434000000002 0.0099999998 -0.02003824
1.0207783000000001 0.0099999998 -0.18029405
1.0207437 0.0099999998 -0.16026612
1.020714 0.0099999998 -0.14023434
1.0206897 0.0099999998 -0.12019999
1.0206700999999998 0.0099999998 -0.10016572
1.0206543 0.0099999998 -0.080132969
1.0206422 0.0099999998 -0.060101006
1.0206332 0.0099999998 -0.040068492000000004
1.0206279 0.0099999998 -0.020034719
1.0407648999999999 0.0099999998 -0.18026984
1.0407283999999999 0.0099999998 -0.16024382
1.0406978 0.0099999998 -0.14021537
1.0406727 0.0099999998 -0.12018391
1.0406524 0.0099999998 -0.10015232
1.0406364 0.0099999998 -0.080121771
1.040624 0.0099999998 -0.060092065
1.040615 0.0099999998 -0.040062102999999995
1.0406094000000001 0.0099999998 -0.02003138
1.0607503999999999 0.0099999998 -0.18024538
1.0607117 0.0099999998 -0.16022217
1.0606796 0.0099999998 -0.14019684
1.0606532 0.0099999998 -0.12016909
1.0606323 0.0099999998 -0.10014015
1.0606159 0.0099999998 -0.080111705
1.0606033000000001 0.0099999998 -0.060083820999999996
1.0605941 0.0099999998 -0.040056158
1.0605883999999999 0.0099999998 -0.020028219
1.0807352 0.0099999998 -0.18021992
1.0806946000000002 0.0099999998 -0.16020107
1.0806601999999998 0.0099999998 -0.14017867
1.0806328 0.0099999998 -0.12015477
1.0806109 0.0099999998 -0.10012892
1.0805938 0.0099999998 -0.080102727
1.0805808000000001 0.0099999998 -0.060076747
1.0805715 0.0099999998 -0.040051062000000005
1.0805658 0.0099999998 -0.020025533
1.1007218 0.0099999998 -0.18019488
1.1006774 0.0099999998 -0.16017808
1.1006416 0.0099999998 -0.14016069
1.1006122 0.0099999998 -0.12014013
1.1005893999999998 0.0099999998 -0.10011805
1.1005714 0.0099999998 -0.08009424799999999
1.100558 0.0099999998 -0.060070347
1.1005483999999999 0.0099999998 -0.040046599
1.1005426999999999 0.0099999998 -0.020023184
1.1207113000000002 0.0099999998 -0.18017091
1.1206628 0.0099999998 -0.16015519
1.1206239 0.0099999998 -0.14014073
1.1205931 0.0099999998 -0.12012497
1.1205684999999999 0.0099999998 -0.10010627
1.1205498 0.0099999998 -0.080085941
1.1205357 0.0099999998 -0.060064192999999995
1.120526 0.0099999998 -0.040042546
1.1205201 0.0099999998 -0.020021122
1.1407044 0.0099999998 -0.18014942
1.1406516000000002 0.0099999998 -0.16013385
1.1406091 0.0099999998 -0.14012049
1.1405758 0.0099999998 -0.12010793
1.1405499 0.0099999998 -0.10009372
1.1405298000000001 0.0099999998 -0.080076516
1.1405151000000002 0.0099999998 -0.060057930999999995
1.1405049999999999 0.0099999998 -0.04003844
1.140499 0.0099999998 -0.020019162
1.1607028999999998 0.0099999998 -0.18013339
1.1606450000000001 0.0099999998 -0.16011599
1.1605983 0.0099999998 -0.14010212
1.1605618 0.0099999998 -0.1200905
1.1605337 0.0099999998 -0.10007924
1.1605124 0.0099999998 -0.080066256
1.1604967 0.0099999998 -0.060050569000000005
1.1604861000000002 0.0099999998 -0.040033951
1.16048 0.0099999998 -0.020017033
1.1807113999999999 0.0099999998 -0.18012701
1.1806458 0.0099999998 -0.16010539
1.1805927 0.0099999998 -0.14008826
1.180552 0.0099999998 -0.12007541
1.1805211000000002 0.0099999998 -0.10006487
1.1804978000000002 0.0099999998 -0.080054395
1.1804811000000002 0.0099999998 -0.060042452
1.1804698999999998 0.0099999998 -0.040028807
1.1804633999999998 0.0099999998 -0.020014478
1.2007261999999999 0.0099999998 -0.18012774
1.2006601000000001 0.0099999998 -0.16010648
1.2005972 0.0099999998 -0.14008412
1.2005484 0.0099999998 -0.12006638
1.200513 0.0099999998 -0.10005362
1.2004873999999999 0.0099999998 -0.080043688
1.2004689 0.0099999998 -0.060033955
1.2004567 0.0099999998 -0.040023256
1.2004498 0.0099999998 -0.020011781
1.2207351 0.0099999998 -0.18013087
1.2206786 0.0099999998 -0.16011195
1.2206173 0.0099999998 -0.14009175
1.2205595 0.0099999998 -0.1200702
1.2205141000000002 0.0099999998 -0.10005143
1.2204827 0.0099999998 -0.080037802
1.2204615 0.0099999998 -0.060027752000000004
1.2204476999999998 0.0099999998 -0.040018957
1.2204399 0.0099999998 -0.020009682
1.2407235 0.0099999998 -0.1801285
1.2406819 0.0099999998 -0.1601136
1.240635 0.0099999998 -0.14009884
1.2405848999999998 0.0099999998 -0.12008196
1.2405355 0.0099999998 -0.10006336
1.2404941 0.0099999998 -0.08004497
1.2404648 0.0099999998 -0.060029712
1.2404467 0.0099999998 -0.040018559
1.2404368000000001 0.0099999998 -0.020009348
1.2606624 0.0099999998 -0.160109
1.2606301000000002 0.0099999998 -0.14009804
1.2605933 0.0099999998 -0.12008535
1.2605568999999999 0.0099999998 -0.10007282
1.2605226999999999 0.0099999998 -0.080057591
1.2604939 0.0099999998 -0.060041650999999994
1.2604723 0.0099999998 -0.04002611
1.2604594999999998 0.0099999998 -0.020012589
1.2805771000000001 0.0099999998 -0.12008207
1.2805511 0.0099999998 -0.1000725
1.280525 0.0099999998 -0.080059119
1.2805049 0.0099999998 -0.060044538
1.28049 0.0099999998 -0.040028802999999995
1.2804811000000003 0.0099999998 -0.020013742
1.3005062 0.0099999998 -0.08005701
1.3004893 0.0099999998 -0.060042065
1.3004764 0.0099999998 -0.040026587
1.3004688 0.0099999998 -0.020012466
-5.954323099999999e-06 0.0099999998 -1.2438245e-13
-5.957945200000001e-06 0.0099999998 0.020000023999999998
-5.9678678e-06 0.0099999998 0.040000055
-5.9814629e-06 0.0099999998 0.060000088
-5.9937911e-06 0.0099999998 0.08000014
-5.9981335e-06 0.0099999998 0.1000002
-5.9841118e-06 0.0099999998 0.12000028
-5.939426999999999e-06 0.0099999998 0.14000039
0.019991612 0.0099999998 -8.3516053e-14
0.019991605 0.0099999998 0.020000035
0.019991588 0.0099999998 0.040000077
0.019991564 0.0099999998 0.060000129000000006
0.019991538 0.0099999998 0.080000192
0.019991521 0.0099999998 0.10000028
0.019991526000000003 0.0099999998 0.12000038
0.019991575 0.0099999998 0.14000052
0.039988513999999996 0.0099999998 8.1875973e-14
0.039988502999999995 0.0099999998 0.020000043999999998
0.039988477 0.0099999998 0.040000092
0.039988436 0.0099999998 0.060000155
0.039988395 0.0099999998 0.080000229
0.039988357999999995 0.0099999998 0.10000034
0.03998835 0.0099999998 0.12000046
0.039988399 0.0099999998 0.14000061
0.059984989 0.0099999998 -6.610231e-13
0.059984978 0.0099999998 0.020000048
0.059984937 0.0099999998 0.0400001
0.059984878 0.0099999998 0.060000165999999994
0.059984811 0.0099999998 0.08000025200000001
0.059984755 0.0099999998 0.10000036
0.059984729 0.0099999998 0.1200005
0.059984762000000004 0.0099999998 0.14000066
0.079981133 0.0099999998 -3.6748588e-13
0.079981118 0.0099999998 0.020000048
0.07998106599999999 0.0099999998 0.040000102999999995
0.079980984 0.0099999998 0.06000017
0.079980887 0.0099999998 0.080000259
0.07998079799999999 0.0099999998 0.10000037
0.07998074599999999 0.0099999998 0.1200005
0.079980761 0.0099999998 0.14000067
0.099976927 0.0099999998 -2.3055163e-13
0.099976905 0.0099999998 0.020000048
0.09997683 0.0099999998 0.040000102999999995
0.099976726 0.0099999998 0.06000017
0.09997659199999999 0.0099999998 0.08000025200000001
0.099976465 0.0099999998 0.10000036
0.09997636800000001 0.0099999998 0.1200005
0.099976353 0.0099999998 0.14000067
0.11997226 0.0099999998 -4.3842748000000003e-13
0.11997223 0.0099999998 0.02000005
0.11997214 0.0099999998 0.040000107
0.119972 0.0099999998 0.060000174
0.11997183 0.0099999998 0.080000259
0.11997164 0.0099999998 0.10000037
0.11997149 0.0099999998 0.1200005
0.11997143 0.0099999998 0.14000067
0.13996699 0.0099999998 9.1783558e-13
0.13996696 0.0099999998 0.020000059
0.13996685 0.0099999998 0.040000122
0.13996667 0.0099999998 0.0600002
0.13996644 0.0099999998 0.080000289
0.13996619 0.0099999998 0.10000041
0.13996598 0.0099999998 0.12000055
0.13996585 0.0099999998 0.14000072
0.15996101 0.0099999998 -1.5774723e-12
0.15996097 0.0099999998 0.02000008
0.15996082 0.0099999998 0.040000163
0.1599606 0.0099999998 0.06000025900000001
0.1599603 0.0099999998 0.080000371
0.15995999 0.0099999998 0.10000051
0.15995967 0.0099999998 0.12000067
0.15995947 0.0099999998 0.14000085
0.17995422 0.0099999998 5.1825639e-13
0.17995414 0.0099999998 0.020000115
0.17995396 0.0099999998 0.040000238
0.17995368 0.0099999998 0.060000371
0.17995332 0.0099999998 0.080000527
0.1799529 0.0099999998 0.1000007
0.1799525 0.0099999998 0.1200009
0.17995217 0.0099999998 0.14000112
0.19994646 0.0099999998 -1.0948223999999997e-12
0.19994639 0.0099999998 0.020000175
0.19994618 0.0099999998 0.040000357
0.19994582 0.0099999998 0.06000055
0.19994538 0.0099999998 0.080000773
0.19994485 0.0099999998 0.10000101
0.19994432 0.0099999998 0.12000129
0.19994387 0.0099999998 0.14000158
0.21993765 0.0099999998 -1.1217496000000001e-12
0.21993756 0.0099999998 0.020000257
0.21993729 0.0099999998 0.040000523999999996
0.21993688 0.0099999998 0.060000810999999994
0.21993631 0.0099999998 0.080001123
0.21993567 0.0099999998 0.10000147
0.219935 0.0099999998 0.12000185
0.2199344 0.0099999998 0.14000225
0.23992762 0.0099999998 -2.8256426000000003e-13
0.23992752 0.0099999998 0.020000368
0.23992719 0.0099999998 0.040000752
0.23992668 0.0099999998 0.060001157
0.23992601 0.0099999998 0.0800016
0.23992522 0.0099999998 0.10000209
0.2399244 0.0099999998 0.12000261
0.23992363 0.0099999998 0.14000317
0.25991619 0.0099999998 -1.7605206999999999e-12
0.25991607 0.0099999998 0.020000508
0.25991568 0.0099999998 0.040001031
0.25991508 0.0099999998 0.060001589
0.25991428 0.0099999998 0.080002196
0.25991333 0.0099999998 0.10000286
0.25991231 0.0099999998 0.12000358
0.25991133 0.0099999998 0.14000435
0.2799032 0.0099999998 -1.3865633e-12
0.27990305 0.0099999998 0.020000676000000002
0.27990261 0.0099999998 0.04000137
0.27990189 0.0099999998 0.060002111
0.27990094 0.0099999998 0.080002911
0.27989981 0.0099999998 0.10000379
0.27989858 0.0099999998 0.12000474
0.27989736 0.0099999998 0.14000578
0.29988843 0.0099999998 -1.2890097e-12
0.29988825 0.0099999998 0.020000866000000003
0.29988775 0.0099999998 0.040001757
0.29988688 0.0099999998 0.060002703
0.29988578 0.0099999998 0.080003724
0.29988444 0.0099999998 0.10000485
0.29988295 0.0099999998 0.12000608
0.29988149 0.0099999998 0.14000744
0.31987166 0.0099999998 -5.9988325e-12
0.31987146 0.0099999998 0.020001078000000002
0.31987086 0.0099999998 0.040002186
0.31986988 0.0099999998 0.060003363
0.31986856 0.0099999998 0.080004632
0.31986701 0.0099999998 0.10000603
0.31986526 0.0099999998 0.12000757
0.31986347 0.0099999998 0.14000928
0.33985266 0.0099999998 3.6250148e-13
0.33985242 0.0099999998 0.020001302
0.33985174 0.0099999998 0.040002644
0.3398506 0.0099999998 0.060004062999999996
0.33984908 0.0099999998 0.080005601
0.33984727 0.0099999998 0.1000073
0.33984521 0.0099999998 0.12000918
0.33984306 0.0099999998 0.14001127
0.35983115 0.0099999998 -2.3650381000000003e-12
0.35983089 0.0099999998 0.020001536
0.35983011 0.0099999998 0.040003121
0.3598288 0.0099999998 0.060004800999999997
0.35982707 0.0099999998 0.080006622
0.35982493 0.0099999998 0.10000863
0.35982251 0.0099999998 0.12001087
0.35981998 0.0099999998 0.14001335
0.37980688 0.0099999998 -3.7703356e-12
0.37980658 0.0099999998 0.020001778
0.37980565 0.0099999998 0.040003613
0.37980419 0.0099999998 0.060005561
0.37980217 0.0099999998 0.080007672
0.37979972 0.0099999998 0.10001001
0.37979692 0.0099999998 0.12001262
0.37979394 0.0099999998 0.14001553
0.39977956 0.0099999998 -2.567752e-12
0.3997792 0.0099999998 0.020002032
0.39977819 0.0099999998 0.040004127
0.39977649 0.0099999998 0.06000635
0.39977419 0.0099999998 0.080008768
0.39977139 0.0099999998 0.10001145
0.39976814 0.0099999998 0.12001445
0.39976466 0.0099999998 0.14001781
0.41974896 0.0099999998 -4.1243723e-12
0.41974854 0.0099999998 0.020002315
0.41974738 0.0099999998 0.0400047
0.41974548 0.0099999998 0.060007226
0.41974285 0.0099999998 0.080009967
0.41973963 0.0099999998 0.10001301
0.41973591 0.0099999998 0.12001642
0.41973186 0.0099999998 0.14002024
0.43971479 0.0099999998 2.9922693999999998e-12
0.43971434 0.0099999998 0.020002661
0.439713 0.0099999998 0.040005393
0.43971083 0.0099999998 0.06000828
0.43970788 0.0099999998 0.080011398
0.43970418 0.0099999998 0.10001484
0.43969989 0.0099999998 0.12001868
0.43969518 0.0099999998 0.14002298
0.45967674 0.0099999998 9.4577462e-12
0.45967624 0.0099999998 0.020003125
0.45967472 0.0099999998 0.040006321
0.45967224 0.0099999998 0.060009665999999996
0.45966887 0.0099999998 0.08001325299999999
0.45966464 0.0099999998 0.10001717
0.45965973 0.0099999998 0.12002151
0.45965427 0.0099999998 0.14002632
0.47963437 0.0099999998 -1.2585952e-12
0.47963381 0.0099999998 0.020003779
0.47963208 0.0099999998 0.040007621
0.47962928 0.0099999998 0.060011607
0.47962546 0.0099999998 0.08001581599999999
0.47962064 0.0099999998 0.10002036
0.47961497 0.0099999998 0.12002531
0.47960865 0.0099999998 0.14003073
0.49958724 0.0099999998 -5.6951856e-12
0.49958658 0.0099999998 0.020004708
0.49958465 0.0099999998 0.040009473
0.49958149 0.0099999998 0.060014356
0.49957713 0.0099999998 0.080019452
0.49957165 0.0099999998 0.10002487
0.49956518 0.0099999998 0.12003067
0.49955788 0.0099999998 0.14003685
0.51953489 0.0099999998 -6.7676511e-12
0.51953417 0.0099999998 0.020006012
0.51953202 0.0099999998 0.040012065
0.51952839 0.0099999998 0.060018222999999996
0.5195235 0.0099999998 0.080024585
0.5195173 0.0099999998 0.10003124
0.51950991 0.0099999998 0.12003823
0.51950163 0.0099999998 0.14004545
0.53947741 0.0099999998 3.5826472000000003e-12
0.53947657 0.0099999998 0.020007774
0.53947413 0.0099999998 0.040015586
0.53947008 0.0099999998 0.060023498
0.53946453 0.0099999998 0.080031596
0.53945756 0.0099999998 0.10003997
0.53944927 0.0099999998 0.1200486
0.53943992 0.0099999998 0.14005728
0.55941552 0.0099999998 -8.534336400000001e-12
0.55941457 0.0099999998 0.020010106
0.55941182 0.0099999998 0.040020254
0.55940735 0.0099999998 0.060030494000000004
0.55940115 0.0099999998 0.08004090900000001
0.55939341 0.0099999998 0.10005154
0.55938423 0.0099999998 0.12006235
0.55937386 0.0099999998 0.14007302
0.57935166 0.0099999998 -4.4248511e-12
0.57935065 0.0099999998 0.02001299
0.57934755 0.0099999998 0.040025994
0.5793426 0.0099999998 0.060039077
0.57933581 0.0099999998 0.08005235299999999
0.57932729 0.0099999998 0.10006586
0.57931727 0.0099999998 0.12007946
0.57930601 0.0099999998 0.14009272
0.59928995 0.0099999998 8.0929412e-12
0.59928882 0.0099999998 0.020016501000000003
0.59928542 0.0099999998 0.04003296
0.59928 0.0099999998 0.060049448
0.59927261 0.0099999998 0.080066137
0.59926349 0.0099999998 0.10008308
0.59925276 0.0099999998 0.12010004
0.59924072 0.0099999998 0.14011639
0.6192342 0.0099999998 -3.4058245000000003e-12
0.61923295 0.0099999998 0.020020695
0.61922932 0.0099999998 0.040041234
0.61922348 0.0099999998 0.060061723
0.61921555 0.0099999998 0.080082297
0.61920589 0.0099999998 0.10010293
0.61919469 0.0099999998 0.12012349
0.61918199 0.0099999998 0.14014329
0.63918704 0.0099999998 2.818993e-11
0.63918579 0.0099999998 0.02002497
0.63918191 0.0099999998 0.040049747000000004
0.63917571 0.0099999998 0.060074329
0.63916737 0.0099999998 0.080098994
0.63915706 0.0099999998 0.10012377
0.63914531 0.0099999998 0.12014844
0.63913238 0.0099999998 0.14017205
0.65915084 0.0099999998 -1.1010354e-11
0.65914959 0.0099999998 0.020029996
0.65914571 0.0099999998 0.040059716
0.65913934 0.0099999998 0.060088888
0.65913075 0.0099999998 0.080117829
0.65912038 0.0099999998 0.10014711
0.6591087 0.0099999998 0.1201766
0.65909582 0.0099999998 0.14020509
0.6791327 0.0099999998 4.5160264000000004e-12
0.67913151 0.0099999998 0.020038893000000002
0.67912787 0.0099999998 0.04007652
0.67912191 0.0099999998 0.060112491
0.67911386 0.0099999998 0.080147602
0.67910409 0.0099999998 0.10018267
0.67909312 0.0099999998 0.120218
0.67908114 0.0099999998 0.14025232
0.6991446 0.0099999998 2.6045614e-11
0.69914365 0.0099999998 0.02004924
0.69914067 0.0099999998 0.040096924
0.69913554 0.0099999998 0.06014247599999999
0.69912869 0.0099999998 0.080186665
0.69912064 0.0099999998 0.1002306
0.69911236 0.0099999998 0.12027534
0.69910425 0.0099999998 0.14032003
0.71928281 0.0099999998 -2.3756707e-11
0.71928138 0.0099999998 0.020060726
0.71927708 0.0099999998 0.040119652
0.71927035 0.0099999998 0.060176447
0.71926188 0.0099999998 0.080232501
0.71925229 0.0099999998 0.10028988
0.71924233 0.0099999998 0.12034938
0.71923274 0.0099999998 0.14040892
0.73953491 0.0099999998 5.2999372e-11
0.73953384 0.0099999998 0.020065755
0.73953092 0.0099999998 0.040129292999999996
0.73952639 0.0099999998 0.060189988
0.73952079 0.0099999998 0.080249175
0.73951453 0.0099999998 0.10030904
0.73950797 0.0099999998 0.1203708
0.73950136 0.0099999998 0.14043275
0.75972861 0.0099999998 1.4380667e-10
0.75972801 0.0099999998 0.020068904
0.75972652 0.0099999998 0.04013522
0.75972426 0.0099999998 0.060198043
0.7597217 0.0099999998 0.0802586
0.75971913 0.0099999998 0.10031907
0.75971675 0.0099999998 0.12038067
0.75971466 0.0099999998 0.14044154
0.77987355 0.0099999998 -4.2329494e-11
0.77987337 0.0099999998 0.020070383
0.77987301 0.0099999998 0.040137909
0.77987266 0.0099999998 0.060201492
0.77987242 0.0099999998 0.080262288
0.7798726 0.0099999998 0.10032251
0.77987313 0.0099999998 0.12038336
0.77987403 0.0099999998 0.14044291
0.79999483 0.0099999998 -1.8063691000000002e-10
0.79999501 0.0099999998 0.020070475
0.79999554 0.0099999998 0.040137947
0.7999965 0.0099999998 0.060201243
0.79999804 0.0099999998 0.080261514
0.80000013 0.0099999998 0.10032102
0.80000269 0.0099999998 0.12038103
0.80000561 0.0099999998 0.14043956
0.82011402 0.0099999998 2.9776976e-11
0.82011443 0.0099999998 0.020069495
0.82011563 0.0099999998 0.040135961
0.82011765 0.0099999998 0.060198218
0.82012045 0.0099999998 0.080257446
0.82012403 0.0099999998 0.10031599
0.8201282 0.0099999998 0.12037519
0.82013291 0.0099999998 0.14043312
0.84023941 0.0099999998 1.682309e-10
0.84024 0.0099999998 0.020067723
0.84024179 0.0099999998 0.040132485
0.84024459 0.0099999998 0.060193147999999995
0.84024847 0.0099999998 0.08025094099999999
0.84025335 0.0099999998 0.10030828
0.84025919 0.0099999998 0.12036659
0.84026587 0.0099999998 0.14042401
0.86036718 0.0099999998 1.1317817e-10
0.86036795 0.0099999998 0.02006533
0.86037016 0.0099999998 0.040127821
0.86037374 0.0099999998 0.060186412
0.86037868 0.0099999998 0.08024237299999999
0.86038488 0.0099999998 0.10029816
0.86039251 0.0099999998 0.12035526
0.86040151 0.0099999998 0.1404119
0.88048846 0.0099999998 -1.2095711000000001e-10
0.88048935 0.0099999998 0.020062393
0.88049203 0.0099999998 0.040122095
0.88049632 0.0099999998 0.06017814900000001
0.88050228 0.0099999998 0.08023183
0.88050997 0.0099999998 0.10028557
0.88051945 0.0099999998 0.12034091
0.88053107 0.0099999998 0.14039618
0.90059423 0.0099999998 -1.3209068999999998e-10
0.90059531 0.0099999998 0.020058943
0.90059847 0.0099999998 0.040115368
0.90060365 0.0099999998 0.060168389
0.9006108 0.0099999998 0.080219284
0.90061998 0.0099999998 0.10027044
0.90063149 0.0099999998 0.12032338
0.90064567 0.0099999998 0.14037652
0.92065305 0.0099999998 -1.0266961e-11
0.92065448 0.0099999998 0.020055175
0.92065871 0.0099999998 0.040107962000000004
0.92066574 0.0099999998 0.06015753
0.92067552 0.0099999998 0.080205098
0.92068815 0.0099999998 0.10025302
0.92070377 0.0099999998 0.12030283
0.9207226 0.0099999998 0.14035311
0.94066554 0.0099999998 1.0793251000000001e-10
0.94066709 0.0099999998 0.020050976
0.9406718 0.0099999998 0.040099785
0.94067961 0.0099999998 0.060145624
0.9406907 0.0099999998 0.080189645
0.94070506 0.0099999998 0.10023403
0.94072288 0.0099999998 0.12028033
0.94074446 0.0099999998 0.14032736
0.96066338 0.0099999998 3.3048366e-11
0.96066499 0.0099999998 0.02004653
0.96066982 0.0099999998 0.040091075
0.96067798 0.0099999998 0.060133077
0.96068954 0.0099999998 0.080173612
0.96070457 0.0099999998 0.10021467
0.96072322 0.0099999998 0.12025756
0.96074575 0.0099999998 0.14030129
0.9806546 0.0099999998 -3.3914586e-11
0.98065627 0.0099999998 0.020042131
0.98066127 0.0099999998 0.040082686
0.98066968 0.0099999998 0.060121104
0.98068142 0.0099999998 0.080158338
0.98069674 0.0099999998 0.10019623
0.98071581 0.0099999998 0.12023603
0.98073888 0.0099999998 0.14027676
1.0006416 0.0099999998 9.741652800000001e-12
1.0006434000000002 0.0099999998 0.02003824
1.0006485 0.0099999998 0.040075261
1.0006572 0.0099999998 0.060110707
1.0006692 0.0099999998 0.080145359
1.0006846 0.0099999998 0.10018057
1.0007039 0.0099999998 0.12021748
1.0007277 0.0099999998 0.14025494
1.0206261 0.0099999998 2.5876877e-11
1.0206279 0.0099999998 0.020034719
1.0206332 0.0099999998 0.040068492000000004
1.0206422 0.0099999998 0.060101006
1.0206543 0.0099999998 0.080132969
1.0206700999999998 0.0099999998 0.10016572
1.0206897 0.0099999998 0.12019999
1.020714 0.0099999998 0.14023434
1.0406075000000001 0.0099999998 1.8573073999999998e-11
1.0406094000000001 0.0099999998 0.02003138
1.040615 0.0099999998 0.040062102999999995
1.040624 0.0099999998 0.060092065
1.0406364 0.0099999998 0.080121771
1.0406524 0.0099999998 0.10015232
1.0406727 0.0099999998 0.12018391
1.0406978 0.0099999998 0.14021537
1.0605864999999999 0.0099999998 4.4887837e-11
1.0605883999999999 0.0099999998 0.020028219
1.0605941 0.0099999998 0.040056158
1.0606033000000001 0.0099999998 0.060083820999999996
1.0606159 0.0099999998 0.080111705
1.0606323 0.0099999998 0.10014015
1.0606532 0.0099999998 0.12016909
1.0606796 0.0099999998 0.14019684
1.0805639 0.0099999998 1.5767552e-11
1.0805658 0.0099999998 0.020025533
1.0805715 0.0099999998 0.040051062000000005
1.0805808000000001 0.0099999998 0.060076747
1.0805938 0.0099999998 0.080102727
1.0806109 0.0099999998 0.10012892
1.0806328 0.0099999998 0.12015477
1.0806601999999998 0.0099999998 0.14017867
1.1005408 0.0099999998 -5.8960345000000004e-12
1.1005426999999999 0.0099999998 0.020023184
1.1005483999999999 0.0099999998 0.040046599
1.100558 0.0099999998 0.060070347
1.1005714 0.0099999998 0.08009424799999999
1.1005893999999998 0.0099999998 0.10011805
1.1006122 0.0099999998 0.12014013
1.1006416 0.0099999998 0.14016069
1.1205181 0.0099999998 -1.7923705999999998e-11
1.1205201 0.0099999998 0.020021122
1.120526 0.0099999998 0.040042546
1.1205357 0.0099999998 0.060064192999999995
1.1205498 0.0099999998 0.080085941
1.1205684999999999 0.0099999998 0.10010627
1.1205931 0.0099999998 0.12012497
1.1206239 0.0099999998 0.14014073
1.1404969999999999 0.0099999998 9.8916682e-12
1.140499 0.0099999998 0.020019162
1.1405049999999999 0.0099999998 0.04003844
1.1405151000000002 0.0099999998 0.060057930999999995
1.1405298000000001 0.0099999998 0.080076516
1.1405499 0.0099999998 0.10009372
1.1405758 0.0099999998 0.12010793
1.1406091 0.0099999998 0.14012049
1.1604780000000001 0.0099999998 1.3148429e-11
1.16048 0.0099999998 0.020017033
1.1604861000000002 0.0099999998 0.040033951
1.1604967 0.0099999998 0.060050569000000005
1.1605124 0.0099999998 0.080066256
1.1605337 0.0099999998 0.10007924
1.1605618 0.0099999998 0.1200905
1.1605983 0.0099999998 0.14010212
1.1804614 0.0099999998 8.074659900000001e-12
1.1804633999999998 0.0099999998 0.020014478
1.1804698999999998 0.0099999998 0.040028807
1.1804811000000002 0.0099999998 0.060042452
1.1804978000000002 0.0099999998 0.080054395
1.1805211000000002 0.0099999998 0.10006487
1.180552 0.0099999998 0.12007541
1.1805927 0.0099999998 0.14008826
1.2004476999999998 0.0099999998 1.3532198999999999e-11
1.2004498 0.0099999998 0.020011781
1.2004567 0.0099999998 0.040023256
1.2004689 0.0099999998 0.060033955
1.2004873999999999 0.0099999998 0.080043688
1.200513 0.0099999998 0.10005362
1.2005484 0.0099999998 0.12006638
1.2005972 0.0099999998 0.14008412
1.2204373 0.0099999998 1.2352572e-11
1.2204399 0.0099999998 0.020009682
1.2204476999999998 0.0099999998 0.040018957
1.2204615 0.0099999998 0.060027752000000004
1.2204827 0.0099999998 0.080037802
1.2205141000000002 0.0099999998 0.10005143
1.2205595 0.0099999998 0.1200702
1.2206173 0.0099999998 0.14009175
1.2404336999999999 0.0099999998 1.7465397e-11
1.2404368000000001 0.0099999998 0.020009348
1.2404467 0.0099999998 0.040018559
1.2404648 0.0099999998 0.060029712
1.2404941 0.0099999998 0.08004497
1.2405355 0.0099999998 0.10006336
1.2405848999999998 0.0099999998 0.12008196
1.240635 0.0099999998 0.14009884
1.2604553 0.0099999998 1.2915274000000001e-11
1.2604594999999998 0.0099999998 0.020012589
1.2604723 0.0099999998 0.04002611
1.2604939 0.0099999998 0.060041650999999994
1.2605226999999999 0.0099999998 0.080057591
1.2605568999999999 0.0099999998 0.10007282
1.2605933 0.0099999998 0.12008535
1.2606301000000002 0.0099999998 0.14009804
1.2804781 0.0099999998 1.8235523999999998e-11
1.2804811000000003 0.0099999998 0.020013742
1.28049 0.0099999998 0.040028802999999995
1.2805049 0.0099999998 0.060044538
1.280525 0.0099999998 0.080059111
1.2805511 0.0099999998 0.1000725
1.2805771000000001 0.0099999998 0.12008207
1.3004663 0.0099999998 1.4532263e-11
1.3004688 0.0099999998 0.020012466
1.3004764 0.0099999998 0.040026587
1.3004893 0.0099999998 0.060042065
1.3005062 0.0099999998 0.08005701
-5.8478149e-06 0.0099999998 0.1600005
-5.689375e-06 0.0099999998 0.18000065
-5.4465471999999996e-06 0.0099999998 0.20000079
-5.0951885e-06 0.0099999998 0.22000097
-4.6192644999999995e-06 0.0099999998 0.24000111
-4.010436e-06 0.0099999998 0.26000121
-3.2911705e-06 0.0099999998 0.28000128
0.019991683 0.0099999998 0.16000068
0.019991888 0.0099999998 0.18000087
0.019992217 0.0099999998 0.20000106
0.019992708999999997 0.0099999998 0.22000127
0.019993396 0.0099999998 0.24000144
0.019994307 0.0099999998 0.26000154
0.019995432 0.0099999998 0.28000155
0.019996747 0.0099999998 0.30000168
0.039988525 0.0099999998 0.1600008
0.039988779 0.0099999998 0.18000101
0.039989207 0.0099999998 0.20000122
0.039989866 0.0099999998 0.22000144
0.039990809 0.0099999998 0.24000162
0.039992075 0.0099999998 0.26000175
0.039993636 0.0099999998 0.28000179
0.039995454 0.0099999998 0.30000186
0.059984904000000006 0.0099999998 0.16000086
0.059985202 0.0099999998 0.18000108
0.059985723 0.0099999998 0.20000131
0.059986554000000004 0.0099999998 0.22000155
0.059987760999999994 0.0099999998 0.24000172
0.0599894 0.0099999998 0.26000184
0.059991438 0.0099999998 0.28000188
0.059993852 0.0099999998 0.30000198
0.079980902 0.0099999998 0.16000088
0.07998123 0.0099999998 0.18000109
0.079981834 0.0099999998 0.20000134
0.079982817 0.0099999998 0.22000158
0.079984285 0.0099999998 0.24000177
0.079986297 0.0099999998 0.2600019
0.079988852 0.0099999998 0.28000194
0.07999194400000001 0.0099999998 0.30000213
0.09997648 0.0099999998 0.16000086
0.099976815 0.0099999998 0.18000109
0.09997747800000001 0.0099999998 0.20000133
0.09997860300000001 0.0099999998 0.22000156
0.09998031 0.0099999998 0.24000175
0.099982716 0.0099999998 0.2600019
0.09998581599999999 0.0099999998 0.280002
0.099989668 0.0099999998 0.30000231
0.11997151 0.0099999998 0.16000086
0.11997185 0.0099999998 0.18000108
0.11997255 0.0099999998 0.20000131
0.11997379 0.0099999998 0.22000155
0.11997573 0.0099999998 0.24000172
0.11997852 0.0099999998 0.26000187
0.11998221 0.0099999998 0.28000206
0.11998691 0.0099999998 0.30000257
0.13996588 0.0099999998 0.16000091
0.13996617 0.0099999998 0.18000112
0.13996689 0.0099999998 0.20000133
0.13996823 0.0099999998 0.22000155
0.13997039 0.0099999998 0.24000171
0.1399736 0.0099999998 0.26000193
0.13997789 0.0099999998 0.28000221
0.13998353 0.0099999998 0.30000299
0.15995941 0.0099999998 0.16000105
0.15995966 0.0099999998 0.18000126
0.15996037 0.0099999998 0.20000146
0.15996179 0.0099999998 0.22000167
0.15996417 0.0099999998 0.24000184
0.15996777 0.0099999998 0.26000211
0.15997267 0.0099999998 0.28000247
0.15997925 0.0099999998 0.3000035
0.17995203 0.0099999998 0.16000135
0.17995219 0.0099999998 0.18000157
0.17995286 0.0099999998 0.20000179
0.17995432 0.0099999998 0.220002
0.17995693 0.0099999998 0.24000217
0.17996091 0.0099999998 0.2600024
0.17996638 0.0099999998 0.2800028
0.17997365 0.0099999998 0.30000377
0.19994359 0.0099999998 0.16000187
0.19994365 0.0099999998 0.18000215
0.19994424 0.0099999998 0.2000024
0.19994572 0.0099999998 0.22000261
0.19994847 0.0099999998 0.24000272
0.19995278 0.0099999998 0.26000285
0.19995867 0.0099999998 0.28000313
0.1999663 0.0099999998 0.30000371
0.21993397 0.0099999998 0.16000265
0.2199339 0.0099999998 0.18000305
0.21993437 0.0099999998 0.20000336
0.2199358 0.0099999998 0.22000359
0.21993864 0.0099999998 0.24000368
0.21994321 0.0099999998 0.26000383
0.21994941 0.0099999998 0.28000429
0.21995784 0.0099999998 0.30000561
0.23992303 0.0099999998 0.16000375
0.23992278 0.0099999998 0.18000428
0.2399231 0.0099999998 0.20000479
0.23992442 0.0099999998 0.2200052
0.23992717 0.0099999998 0.24000563
0.23993185 0.0099999998 0.26000664
0.2399383 0.0099999998 0.28000891
0.2399473 0.0099999998 0.30001307
0.25991055 0.0099999998 0.16000515
0.25991008 0.0099999998 0.18000597
0.25991023 0.0099999998 0.20000683
0.2599113 0.0099999998 0.22000772
0.25991377 0.0099999998 0.24000885
0.25991818 0.0099999998 0.26001111
0.25992453 0.0099999998 0.28001514
0.25993326 0.0099999998 0.30002037
0.27989632 0.0099999998 0.16000688
0.27989563 0.0099999998 0.18000807
0.27989548 0.0099999998 0.20000939
0.27989626 0.0099999998 0.22001095
0.27989835 0.0099999998 0.24001294
0.27990225 0.0099999998 0.26001608
0.27990809 0.0099999998 0.28002077
0.27991617 0.0099999998 0.30002588
0.29988015 0.0099999998 0.16000891
0.29987916 0.0099999998 0.18001054
0.29987872 0.0099999998 0.20001239
0.29987916 0.0099999998 0.22001459
0.29988089 0.0099999998 0.24001729
0.29988432 0.0099999998 0.26002097
0.29988962 0.0099999998 0.28002578
0.29989704 0.0099999998 0.30003071
0.3198618 0.0099999998 0.16001116
0.31986046 0.0099999998 0.18001327
0.31985968 0.0099999998 0.20001565
0.3198598 0.0099999998 0.22001839
0.31986129 0.0099999998 0.24002165
0.31986448 0.0099999998 0.26002565
0.31986955 0.0099999998 0.28003052
0.31987667 0.0099999998 0.30003551
0.33984101 0.0099999998 0.16001357
0.33983925 0.0099999998 0.18001617
0.33983812 0.0099999998 0.20001908
0.33983797 0.0099999998 0.22002229
0.33983931 0.0099999998 0.240026
0.33984247 0.0099999998 0.26003027
0.33984774 0.0099999998 0.28003535
0.3398551 0.0099999998 0.30004063
0.3598175 0.0099999998 0.16001612
0.35981533 0.0099999998 0.1800192
0.35981378 0.0099999998 0.20002261
0.35981336 0.0099999998 0.22002633
0.35981458 0.0099999998 0.24003045
0.35981789 0.0099999998 0.26003504
0.35982358 0.0099999998 0.28004053
0.35983172 0.0099999998 0.30004624
0.37979096 0.0099999998 0.16001877
0.37978831 0.0099999998 0.18002236
0.37978637 0.0099999998 0.2000263
0.37978563 0.0099999998 0.22003055
0.37978673 0.0099999998 0.24003513
0.37979022 0.0099999998 0.26004013
0.37979648 0.0099999998 0.28004614
0.37980562 0.0099999998 0.30005243
0.39976117 0.0099999998 0.16002153
0.39975795 0.0099999998 0.18002565
0.39975551 0.0099999998 0.20003018
0.39975443 0.0099999998 0.22003502
0.39975542 0.0099999998 0.24004015
0.39975911 0.0099999998 0.26004571
0.399766 0.0099999998 0.28005233
0.39977622 0.0099999998 0.30005935
0.41972771 0.0099999998 0.16002448
0.4197239 0.0099999998 0.18002917
0.41972089 0.0099999998 0.20003429
0.41971943 0.0099999998 0.22003978
0.41972026 0.0099999998 0.24004559
0.41972417 0.0099999998 0.26005182
0.41973168 0.0099999998 0.28005925
0.41974309 0.0099999998 0.30006716
0.43969035 0.0099999998 0.16002774
0.43968579 0.0099999998 0.18003301
0.43968213 0.0099999998 0.20003876
0.43968013 0.0099999998 0.22004494
0.43968076 0.0099999998 0.24005149
0.43968484 0.0099999998 0.26005861
0.439693 0.0099999998 0.28006706
0.43970567 0.0099999998 0.30007598
0.45964858 0.0099999998 0.16003162
0.45964316 0.0099999998 0.18003744
0.45963868 0.0099999998 0.20004375
0.45963606 0.0099999998 0.22005059
0.45963633 0.0099999998 0.24005792
0.45964053 0.0099999998 0.26006615
0.45964932 0.0099999998 0.28007591
0.45966327 0.0099999998 0.30008614
0.47960201 0.0099999998 0.16003658
0.47959557 0.0099999998 0.18004289
0.47959009 0.0099999998 0.20004964
0.47958663 0.0099999998 0.22005694
0.47958639 0.0099999998 0.24006496
0.47959051 0.0099999998 0.26007444
0.47959977 0.0099999998 0.28008607
0.47961491 0.0099999998 0.30009797
0.49955016 0.0099999998 0.16004333
0.49954256 0.0099999998 0.18005008
0.49953592 0.0099999998 0.20005707
0.49953139 0.0099999998 0.22006455
0.49953032 0.0099999998 0.24007297
0.49953398 0.0099999998 0.26008371
0.49954334 0.0099999998 0.28009781
0.49955916 0.0099999998 0.30011192
0.51949275 0.0099999998 0.16005275
0.51948386 0.0099999998 0.18005995
0.51947588 0.0099999998 0.20006707
0.51947004 0.0099999998 0.2200744
0.51946771 0.0099999998 0.24008273
0.51947033 0.0099999998 0.26009437
0.51947886 0.0099999998 0.28011158
0.51949424 0.0099999998 0.30012861
0.53942984 0.0099999998 0.1600657
0.53941971 0.0099999998 0.18007365
0.53941035 0.0099999998 0.20008102
0.5394029 0.0099999998 0.22008801
0.53939885 0.0099999998 0.24009563
0.53939956 0.0099999998 0.26010764
0.53940582 0.0099999998 0.28012821
0.5394184 0.0099999998 0.30014887
0.55936271 0.0099999998 0.16008312
0.55935144 0.0099999998 0.18009226
0.55934066 0.0099999998 0.20010027
0.55933154 0.0099999998 0.22010717
0.55932528 0.0099999998 0.24011368
0.55932295 0.0099999998 0.26012534
0.5593251 0.0099999998 0.28014931
0.55933172 0.0099999998 0.30017403
0.57929397 0.0099999998 0.1601052
0.57928175 0.0099999998 0.18011642
0.57926989 0.0099999998 0.20012577
0.57925916 0.0099999998 0.2201332
0.57925034 0.0099999998 0.24013907
0.5792442 0.0099999998 0.26015061
0.57924038 0.0099999998 0.28017762
0.57923764 0.0099999998 0.30020621
0.59922779 0.0099999998 0.16013147
0.59921443 0.0099999998 0.18014491
0.5992015 0.0099999998 0.20015652
0.5991894 0.0099999998 0.22016592
0.59917849 0.0099999998 0.24017353
0.59916866 0.0099999998 0.26018786
0.59915799 0.0099999998 0.28021762
0.59914422 0.0099999998 0.30024883
0.61916822 0.0099999998 0.1601613
0.61915356 0.0099999998 0.18017709
0.61913902 0.0099999998 0.20019154
0.61912549 0.0099999998 0.22020529
0.61911207 0.0099999998 0.24021834
0.61909926 0.0099999998 0.26024047
0.61908489 0.0099999998 0.28027594
0.61906195 0.0099999998 0.30030704
0.63911813 0.0099999998 0.16019365
0.63910246 0.0099999998 0.18021283
0.63908589 0.0099999998 0.20023149
0.63907015 0.0099999998 0.22025259
0.63905579 0.0099999998 0.24028119
0.6390425 0.0099999998 0.26031896
0.63902658 0.0099999998 0.28035635
0.63900131 0.0099999998 0.30038425
0.65908158 0.0099999998 0.16023108
0.65906578 0.0099999998 0.18025556
0.65904921 0.0099999998 0.20028339
0.65903413 0.0099999998 0.22032166
0.65902221 0.0099999998 0.24037459
0.6590094 0.0099999998 0.26042259
0.65899283 0.0099999998 0.28045186
0.65896952 0.0099999998 0.30047408
0.67906779 0.0099999998 0.1602844
0.67905265 0.0099999998 0.18031666
0.67903721 0.0099999998 0.20035663
0.67902535 0.0099999998 0.22041444
0.67901814 0.0099999998 0.24048457
0.6790061 0.0099999998 0.26052436
0.67899173 0.0099999998 0.28054067
0.67898405 0.0099999998 0.30055633
0.69909441 0.0099999998 0.16036268
0.69908202 0.0099999998 0.18040514
0.69907027 0.0099999998 0.20045732
0.69906437 0.0099999998 0.22052513
0.699063 0.0099999998 0.24058825
0.69905281 0.0099999998 0.26060766
0.69906294 0.0099999998 0.28061011
0.6991331 0.0099999998 0.30062199
0.71922266 0.0099999998 0.16046308
0.71921152 0.0099999998 0.18051231
0.719203 0.0099999998 0.20056818
0.71920186 0.0099999998 0.22062223
0.71921831 0.0099999998 0.2406608
0.7192598 0.0099999998 0.26066265
0.71932745 0.0099999998 0.28065851
0.71940958 0.0099999998 0.30067042
0.73949492 0.0099999998 0.16048826
0.7394892 0.0099999998 0.18053648
0.7394861 0.0099999998 0.20058934
0.73949122 0.0099999998 0.22063878
0.73951072 0.0099999998 0.24067366
0.73954487 0.0099999998 0.26068091
0.73959059 0.0099999998 0.2806913
0.73964399 0.0099999998 0.30070481
0.75971311 0.0099999998 0.16049489
0.75971258 0.0099999998 0.18053962
0.75971389 0.0099999998 0.20058803
0.75972015 0.0099999998 0.22063628
0.75973392 0.0099999998 0.2406722
0.75975478 0.0099999998 0.26068825
0.75977981 0.0099999998 0.28071544
0.75980955 0.0099999998 0.30072954
0.7798754 0.0099999998 0.16049421
0.77987736 0.0099999998 0.18053609
0.77988034 0.0099999998 0.20058176
0.77988535 0.0099999998 0.22063039
0.7798928 0.0099999998 0.24066976
0.77990174 0.0099999998 0.26069471
0.77991056 0.0099999998 0.28073126
0.77992171 0.0099999998 0.30074614
0.80000883 0.0099999998 0.1604896
0.80001217 0.0099999998 0.18053009
0.80001557 0.0099999998 0.20057522
0.80001855 0.0099999998 0.22062719
0.8000201 0.0099999998 0.24067035
0.80001885 0.0099999998 0.26070023
0.80001521 0.0099999998 0.28073928
0.80001116 0.0099999998 0.3007547
0.82013786 0.0099999998 0.16048273
0.82014287 0.0099999998 0.1805231
0.82014722 0.0099999998 0.20056911
0.82014906 0.0099999998 0.22062655
0.82014567 0.0099999998 0.24067342
0.82013607 0.0099999998 0.26070318
0.82012272 0.0099999998 0.28073984
0.82010484 0.0099999998 0.30075541
0.84027326 0.0099999998 0.16047359
0.84028095 0.0099999998 0.18051438
0.84028769 0.0099999998 0.20056133
0.84029007 0.0099999998 0.2206219
0.84028298 0.0099999998 0.24067017
0.84026659 0.0099999998 0.26069731
0.84024453 0.0099999998 0.2807309
0.84021354 0.0099999998 0.30074671
0.860412 0.0099999998 0.16046125
0.86042339 0.0099999998 0.18050228
0.86043388 0.0099999998 0.2005495
0.86043853 0.0099999998 0.2206104
0.86042893 0.0099999998 0.24065788
0.8604067 0.0099999998 0.2606822
0.86037666 0.0099999998 0.28071353
0.86033261 0.0099999998 0.30072978
0.8805449 0.0099999998 0.16044471
0.88056058 0.0099999998 0.18048534
0.88057548 0.0099999998 0.20053186
0.88058305 0.0099999998 0.22059104
0.88057166 0.0099999998 0.24063648
0.88054401 0.0099999998 0.26065907
0.88050687 0.0099999998 0.28068915
0.88045096 0.0099999998 0.30070603
0.90066278 0.0099999998 0.16042344
0.90068245 0.0099999998 0.18046288
0.90070158 0.0099999998 0.20050772
0.90071076 0.0099999998 0.22056243
0.90069735 0.0099999998 0.24060613
0.90066582 0.0099999998 0.26062936
0.9006229 0.0099999998 0.28065893
0.90055817 0.0099999998 0.30067667
0.92074537 0.0099999998 0.16039783
0.92077219 0.0099999998 0.18043552
0.92079937 0.0099999998 0.2004777
0.92081201 0.0099999998 0.22052537
0.92079628 0.0099999998 0.24056813
0.92076319 0.0099999998 0.26059404
0.92071575 0.0099999998 0.28062436
0.92064679 0.0099999998 0.300643
0.94077033 0.0099999998 0.16036968
0.94080091 0.0099999998 0.18040593
0.94083542 0.0099999998 0.20044544
0.94086593 0.0099999998 0.22048773
0.94086611 0.0099999998 0.24052522
0.94083375 0.0099999998 0.26055479
0.94078332 0.0099999998 0.28058633
0.94071287 0.0099999998 0.30060613
0.96077275 0.0099999998 0.16034119
0.96080458 0.0099999998 0.18037596
0.96084076 0.0099999998 0.20041253
0.9608776 0.0099999998 0.22045393
0.96090037 0.0099999998 0.24048559
0.96088254 0.0099999998 0.2605131
0.9608323 0.0099999998 0.28054586
0.96076268 0.0099999998 0.30056646
0.98076659 0.0099999998 0.16031432
0.98079932 0.0099999998 0.18034714
0.98083669 0.0099999998 0.20038007
0.98087656 0.0099999998 0.22041918
0.98090875 0.0099999998 0.24044932
0.98091394 0.0099999998 0.26047122
0.98087245 0.0099999998 0.28050345
0.98080701 0.0099999998 0.30052426
1.0007564 0.0099999998 0.16028963
1.00079 0.0099999998 0.18031952
1.0008283000000002 0.0099999998 0.20034975
1.0008701 0.0099999998 0.22038336
1.0009086 0.0099999998 0.2404121
1.0009298 0.0099999998 0.26042986
1.0009084000000001 0.0099999998 0.28045964
1.0008546 0.0099999998 0.30048054
1.0207437 0.0099999998 0.16026612
1.0207783000000001 0.0099999998 0.18029405
1.0208182 0.0099999998 0.20032194
1.0208620000000002 0.0099999998 0.2203498
1.0209059 0.0099999998 0.24037468
1.0209383 0.0099999998 0.26038936
1.0209441 0.0099999998 0.28041592
1.0209123 0.0099999998 0.30043647
1.0407283999999999 0.0099999998 0.16024382
1.0407648999999999 0.0099999998 0.18026984
1.0408066999999999 0.0099999998 0.2002937
1.0408540000000002 0.0099999998 0.2203182
1.0409027 0.0099999998 0.24033928
1.040946 0.0099999998 0.2603524
1.0409832 0.0099999998 0.28037429
1.0409889 0.0099999998 0.30039299
1.0607117 0.0099999998 0.16022217
1.0607503999999999 0.0099999998 0.18024538
1.0607951 0.0099999998 0.20026612
1.0608469999999999 0.0099999998 0.22028807
1.0609007 0.0099999998 0.24030735
1.0609571000000002 0.0099999998 0.26032016
1.0610151 0.0099999998 0.28033903
1.0610628 0.0099999998 0.3003554
1.0806946000000002 0.0099999998 0.16020107
1.0807352 0.0099999998 0.18021992
1.0807844 0.0099999998 0.20023897
1.0808412 0.0099999998 0.22026002
1.0808996000000002 0.0099999998 0.24027669
1.0809652 0.0099999998 0.26028976
1.0810349 0.0099999998 0.28030813
1.0810958000000002 0.0099999998 0.30032235
1.1006774 0.0099999998 0.16017808
1.1007218 0.0099999998 0.18019488
1.1007758 0.0099999998 0.20021315
1.1008365 0.0099999998 0.22023205
1.1008991000000001 0.0099999998 0.2402463
1.1009672 0.0099999998 0.26025975
1.1010406000000001 0.0099999998 0.28027973
1.1206628 0.0099999998 0.16015519
1.1207113000000002 0.0099999998 0.18017091
1.1207695 0.0099999998 0.20018828
1.1208339 0.0099999998 0.2202054
1.1208985 0.0099999998 0.2402184
1.1209664 0.0099999998 0.26023543
1.1210326000000002 0.0099999998 0.28025535
1.1406516000000002 0.0099999998 0.16013385
1.1407044 0.0099999998 0.18014942
1.1407669 0.0099999998 0.20016734
1.1408341999999998 0.0099999998 0.22018419
1.1408976 0.0099999998 0.24019842
1.1409627 0.0099999998 0.26021892
1.1606450000000001 0.0099999998 0.16011599
1.1607028999999998 0.0099999998 0.18013339
1.1607703 0.0099999998 0.20015326
1.1608368999999998 0.0099999998 0.22017008
1.1608986000000001 0.0099999998 0.24018875
1.1609508 0.0099999998 0.26020634
1.1806458 0.0099999998 0.16010539
1.1807113999999999 0.0099999998 0.18012701
1.1807787 0.0099999998 0.20014735
1.1808401000000002 0.0099999998 0.22016485
1.1808923 0.0099999998 0.24018353
1.2006601000000001 0.0099999998 0.16010648
1.2007261999999999 0.0099999998 0.18012774
1.200788 0.0099999998 0.20014799
1.2008362 0.0099999998 0.22016348
1.2206786 0.0099999998 0.16011195
1.2207351 0.0099999998 0.18013087
1.2207845 0.0099999998 0.20014894
1.2208092 0.0099999998 0.22015373
1.2406819 0.0099999998 0.1601136
1.2407235 0.0099999998 0.1801285
1.2606624 0.0099999998 0.160109
VERTICES 2975 5950
1 0
1 1
1 2
1 3
1 4
1 5
1 6
1 7
1 8
1 9
1 10
1 11
1 12
1 13
1 14
1 15
1 16
1 17
1 18
1 19
1 20
1 21
1 22
1 23
1 24
1 25
1 26
1 27
1 28
1 29
1 30
1 31
1 32
1 33
1 34
1 35
1 36
1 37
1 38
1 39
1 40
1 41
1 42
1 43
1 44
1 45
1 46
1 47
1 48
1 49
1 50
1 51
1 52
1 53
1 54
1 55
1 56
1 57
1 58
1 59
1 60
1 61
1 62
1 63
1 64
1 65
1 66
1 67
1 68
1 69
1 70
1 71
1 72
1 73
1 74
1 75
1 76
1 77
1 78
1 79
1 80
1 81
1 82
1 83
1 84
1 85
1 86
1 87
1 88
1 89
1 90
1 91
1 92
1 93
1 94
1 95
1 96
1 97
1 98
1 99
1 100
1 101
1 102
1 103
1 104
1 105
1 106
1 107
1 108
1 109
1 110
1 111
1 112
1 113
1 114
1 115
1 116
1 117
1 118
1 119
1 120
1 121
1 122
1 123
1 124
1 125
1 126
1 127
1 128
1 129
1 130
1 131
1 132
1 133
1 134
1 135
1 136
1 137
1 138
1 139
1 140
1 141
1 142
1 143
1 144
1 145
1 146
1 147
1 148
1 149
1 150
1 151
1 152
1 153
1 154
1 155
1 156
1 157
1 158
1 159
1 160
1 161
1 162
1 163
1 164
1 165
1 166
1 167
1 168
1 169
1 170
1 171
1 172
1 173
1 174
1 175
1 176
1 177
1 178
1 179
1 180
1 181
1 182
1 183
1 184
1 185
1 186
1 187
1 188
1 189
1 190
1 191
1 192
1 193
1 194
1 195
1 196
1 197
1 198
1 199
1 200
1 201
1 202
1 203
1 204
1 205
1 206
1 207
1 208
1 209
1 210
1 211
1 212
1 213
1 214
1 215
1 216
1 217
1 218
1 219
1 220
1 221
1 222
1 223
1 224
1 225
1 226
1 227
1 228
1 229
1 230
1 231
1 232
1 233
1 234
1 235
1 236
1 237
1 238
1 239
1 240
1 241
1 242
1 243
1 244
1 245
1 246
1 247
1 248
1 249
1 250
1 251
1 252
1 253
1 254
1 255
1 256
1 257
1 258
1 259
1 260
1 261
1 262
1 263
1 264
1 265
1 266
1 267
1 268
1 269
1 270
1 271
1 272
1 273
1 274
1 275
1 276
1 277
1 278
1 279
1 280
1 281
1 282
1 283
1 284
1 285
1 286
1 287
1 288
1 289
1 290
1 291
1 292
1 293
1 294
1 295
1 296
1 297
1 298
1 299
1 300
1 301
1 302
1 303
1 304
1 305
1 306
1 307
1 308
1 309
1 310
1 311
1 312
1 313
1 314
1 315
1 316
1 317
1 318
1 319
1 320
1 321
1 322
1 323
1 324
1 325
1 326
1 327
1 328
1 329
1 330
1 331
1 332
1 333
1 334
1 335
1 336
1 337
1 338
1 339
1 340
1 341
1 342
1 343
1 344
1 345
1 346
1 347
1 348
1 349
1 350
1 351
1 352
1 353
1 354
1 355
1 356
1 357
1 358
1 359
1 360
1 361
1 362
1 363
1 364
1 365
1 366
1 367
1 368
1 369
1 370
1 371
1 372
1 373
1 374
1 375
1 376
1 377
1 378
1 379
1 380
1 381
1 382
1 383
1 384
1 385
1 386
1 387
1 388
1 389
1 390
1 391
1 392
1 393
1 394
1 395
1 396
1 397
1 398
1 399
1 400
1 401
1 402
1 403
1 404
1 405
1 406
1 407
1 408
1 409
1 410
1 411
1 412
1 413
1 414
1 415
1 416
1 417
1 418
1 419
1 420
1 421
1 422
1 423
1 424
1 425
1 426
1 427
1 428
1 429
1 430
1 431
1 432
1 433
1 434
1 435
1 436
1 437
1 438
1 439
1 440
1 441
1 442
1 443
1 444
1 445
1 446
1 447
1 448
1 449
1 450
1 451
1 452
1 453
1 454
1 455
1 456
1 457
1 458
1 459
1 460
1 461
1 462
1 463
1 464
1 465
1 466
1 467
1 468
1 469
1 470
1 471
1 472
1 473
1 474
1 475
1 476
1 477
1 478
1 479
1 480
1 481
1 482
1 483
1 484
1 485
1 486
1 487
1 488
1 489
1 490
1 491
1 492
1 493
1 494
1 495
1 496
1 497
1 498
1 499
1 500
1 501
1 502
1 503
1 504
1 505
1 506
1 507
1 508
1 509
1 510
1 511
1 512
1 513
1 514
1 515
1 516
1 517
1 518
1 519
1 520
1 521
1 522
1 523
1 524
1 525
1 526
1 527
1 528
1 529
1 530
1 531
1 532
1 533
1 534
1 535
1 536
1 537
1 538
1 539
1 540
1 541
1 542
1 543
1 544
1 545
1 546
1 547
1 548
1 549
1 550
1 551
1 552
1 553
1 554
1 555
1 556
1 557
1 558
1 559
1 560
1 561
1 562
1 563
1 564
1 565
1 566
1 567
1 568
1 569
1 570
1 571
1 572
1 573
1 574
1 575
1 576
1 577
1 578
1 579
1 580
1 581
1 582
1 583
1 584
1 585
1 586
1 587
1 588
1 589
1 590
1 591
1 592
1 593
1 594
1 595
1 596
1 597
1 598
1 599
1 600
1 601
1 602
1 603
1 604
1 605
1 606
1 607
1 608
1 609
1 610
1 611
1 612
1 613
1 614
1 615
1 616
1 617
1 618
1 619
1 620
1 621
1 622
1 623
1 624
1 625
1 626
1 627
1 628
1 629
1 630
1 631
1 632
1 633
1 634
1 635
1 636
1 637
1 638
1 639
1 640
1 641
1 642
1 643
1 644
1 645
1 646
1 647
1 648
1 649
1 650
1 651
1 652
1 653
1 654
1 655
1 656
1 657
1 658
1 659
1 660
1 661
1 662
1 663
1 664
1 665
1 666
1 667
1 668
1 669
1 670
1 671
1 672
1 673
1 674
1 675
1 676
1 677
1 678
1 679
1 680
1 681
1 682
1 683
1 684
1 685
1 686
1 687
1 688
1 689
1 690
1 691
1 692
1 693
1 694
1 695
1 696
1 697
1 698
1 699
1 700
1 701
1 702
1 703
1 704
1 705
1 706
1 707
1 708
1 709
1 710
1 711
1 712
1 713
1 714
1 715
1 716
1 717
1 718
1 719
1 720
1 721
1 722
1 723
1 724
1 725
1 726
1 727
1 728
1 729
1 730
1 731
1 732
1 733
1 734
1 735
1 736
1 737
1 738
1 739
1 740
1 741
1 742
1 743
1 744
1 745
1 746
1 747
1 748
1 749
1 750
1 751
1 752
1 753
1 754
1 755
1 756
1 757
1 758
1 759
1 760
1 761
1 762
1 763
1 764
1 765
1 766
1 767
1 768
1 769
1 770
1 771
1 772
1 773
1 774
1 775
1 776
1 777
1 778
1 779
1 780
1 781
1 782
1 783
1 784
1 785
1 786
1 787
1 788
1 789
1 790
1 791
1 792
1 793
1 794
1 795
1 796
1 797
1 798
1 799
1 800
1 801
1 802
1 803
1 804
1 805
1 806
1 807
1 808
1 809
1 810
1 811
1 812
1 813
1 814
1 815
1 816
1 817
1 818
1 819
1 820
1 821
1 822
1 823
1 824
1 825
1 826
1 827
1 828
1 829
1 830
1 831
1 832
1 833
1 834
1 835
1 836
1 837
1 838
1 839
1 840
1 841
1 842
1 843
1 844
1 845
1 846
1 847
1 848
1 849
1 850
1 851
1 852
1 853
1 854
1 855
1 856
1 857
1 858
1 859
1 860
1 861
1 862
1 863
1 864
1 865
1 866
1 867
1 868
1 869
1 870
1 871
1 872
1 873
1 874
1 875
1 876
1 877
1 878
1 879
1 880
1 881
1 882
1 883
1 884
1 885
1 886
1 887
1 888
1 889
1 890
1 891
1 892
1 893
1 894
1 895
1 896
1 897
1 898
1 899
1 900
1 901
1 902
1 903
1 904
1 905
1 906
1 907
1 908
1 909
1 910
1 911
1 912
1 913
1 914
1 915
1 916
1 917
1 918
1 919
1 920
1 921
1 922
1 923
1 924
1 925
1 926
1 927
1 928
1 929
1 930
1 931
1 932
1 933
1 934
1 935
1 936
1 937
1 938
1 939
1 940
1 941
1 942
1 943
1 944
1 945
1 946
1 947
1 948
1 949
1 950
1 951
1 952
1 953
1 954
1 955
1 956
1 957
1 958
1 959
1 960
1 961
1 962
1 963
1 964
1 965
1 966
1 967
1 968
1 969
1 970
1 971
1 972
1 973
1 974
1 975
1 976
1 977
1 978
1 979
1 980
1 981
1 982
1 983
1 984
1 985
1 986
1 987
1 988
1 989
1 990
1 991
1 992
1 993
1 994
1 995
1 996
1 997
1 998
1 999
1 1000
1 1001
1 1002
1 1003
1 1004
1 1005
1 1006
1 1007
1 1008
1 1009
1 1010
1 1011
1 1012
1 1013
1 1014
1 1015
1 1016
1 1017
1 1018
1 1019
1 1020
1 1021
1 1022
1 1023
1 1024
1 1025
1 1026
1 1027
1 1028
1 1029
1 1030
1 1031
1 1032
1 1033
1 1034
1 1035
1 1036
1 1037
1 1038
1 1039
1 1040
1 1041
1 1042
1 1043
1 1044
1 1045
1 1046
1 1047
1 1048
1 1049
1 1050
1 1051
1 1052
1 1053
1 1054
1 1055
1 1056
1 1057
1 1058
1 1059
1 1060
1 1061
1 1062
1 1063
1 1064
1 1065
1 1066
1 1067
1 1068
1 1069
1 1070
1 1071
1 1072
1 1073
1 1074
1 1075
1 1076
1 1077
1 1078
1 1079
1 1080
1 1081
1 1082
1 1083
1 1084
1 1085
1 1086
1 1087
1 1088
1 1089
1 1090
1 1091
1 1092
1 1093
1 1094
1 1095
1 1096
1 1097
1 1098
1 1099
1 1100
1 1101
1 1102
1 1103
1 1104
1 1105
1 1106
1 1107
1 1108
1 1109
1 1110
1 1111
1 1112
1 1113
1 1114
1 1115
1 1116
1 1117
1 1118
1 1119
1 1120
1 1121
1 1122
1 1123
1 1124
1 1125
1 1126
1 1127
1 1128
1 1129
1 1130
1 1131
1 1132
1 1133
1 1134
1 1135
1 1136
1 1137
1 1138
1 1139
1 1140
1 1141
1 1142
1 1143
1 1144
1 1145
1 1146
1 1147
1 1148
1 1149
1 1150
1 1151
1 1152
1 1153
1 1154
1 1155
1 1156
1 1157
1 1158
1 1159
1 1160
1 1161
1 1162
1 1163
1 1164
1 1165
1 1166
1 1167
1 1168
1 1169
1 1170
1 1171
1 1172
1 1173
1 1174
1 1175
1 1176
1 1177
1 1178
1 1179
1 1180
1 1181
1 1182
1 1183
1 1184
1 1185
1 1186
1 1187
1 1188
1 1189
1 1190
1 1191
1 1192
1 1193
1 1194
1 1195
1 1196
1 1197
1 1198
1 1199
1 1200
1 1201
1 1202
1 1203
1 1204
1 1205
1 1206
1 1207
1 1208
1 1209
1 1210
1 1211
1 1212
1 1213
1 1214
1 1215
1 1216
1 1217
1 1218
1 1219
1 1220
1 1221
1 1222
1 1223
1 1224
1 1225
1 1226
1 1227
1 1228
1 1229
1 1230
1 1231
1 1232
1 1233
1 1234
1 1235
1 1236
1 1237
1 1238
1 1239
1 1240
1 1241
1 1242
1 1243
1 1244
1 1245
1 1246
1 1247
1 1248
1 1249
1 1250
1 1251
1 1252
1 1253
1 1254
1 1255
1 1256
1 1257
1 1258
1 1259
1 1260
1 1261
1 1262
1 1263
1 1264
1 1265
1 1266
1 1267
1 1268
1 1269
1 1270
1 1271
1 1272
1 1273
1 1274
1 1275
1 1276
1 1277
1 1278
1 1279
1 1280
1 1281
1 1282
1 1283
1 1284
1 1285
1 1286
1 1287
1 1288
1 1289
1 1290
1 1291
1 1292
1 1293
1 1294
1 1295
1 1296
1 1297
1 1298
1 1299
1 1300
1 1301
1 1302
1 1303
1 1304
1 1305
1 1306
1 1307
1 1308
1 1309
1 1310
1 1311
1 1312
1 1313
1 1314
1 1315
1 1316
1 1317
1 1318
1 1319
1 1320
1 1321
1 1322
1 1323
1 1324
1 1325
1 1326
1 1327
1 1328
1 1329
1 1330
1 1331
1 1332
1 1333
1 1334
1 1335
1 1336
1 1337
1 1338
1 1339
1 1340
1 1341
1 1342
1 1343
1 1344
1 1345
1 1346
1 1347
1 1348
1 1349
1 1350
1 1351
1 1352
1 1353
1 1354
1 1355
1 1356
1 1357
1 1358
1 1359
1 1360
1 1361
1 1362
1 1363
1 1364
1 1365
1 1366
1 1367
1 1368
1 1369
1 1370
1 1371
1 1372
1 1373
1 1374
1 1375
1 1376
1 1377
1 1378
1 1379
1 1380
1 1381
1 1382
1 1383
1 1384
1 1385
1 1386
1 1387
1 1388
1 1389
1 1390
1 1391
1 1392
1 1393
1 1394
1 1395
1 1396
1 1397
1 1398
1 1399
1 1400
1 1401
1 1402
1 1403
1 1404
1 1405
1 1406
1 1407
1 1408
1 1409
1 1410
1 1411
1 1412
1 1413
1 1414
1 1415
1 1416
1 1417
1 1418
1 1419
1 1420
1 1421
1 1422
1 1423
1 1424
1 1425
1 1426
1 1427
1 1428
1 1429
1 1430
1 1431
1 1432
1 1433
1 1434
1 1435
1 1436
1 1437
1 1438
1 1439
1 1440
1 1441
1 1442
1 1443
1 1444
1 1445
1 1446
1 1447
1 1448
1 1449
1 1450
1 1451
1 1452
1 1453
1 1454
1 1455
1 1456
1 1457
1 1458
1 1459
1 1460
1 1461
1 1462
1 1463
1 1464
1 1465
1 1466
1 1467
1 1468
1 1469
1 1470
1 1471
1 1472
1 1473
1 1474
1 1475
1 1476
1 1477
1 1478
1 1479
1 1480
1 1481
1 1482
1 1483
1 1484
1 1485
1 1486
1 1487
1 1488
1 1489
1 1490
1 1491
1 1492
1 1493
1 1494
1 1495
1 1496
1 1497
1 1498
1 1499
1 1500
1 1501
1 1502
1 1503
1 1504
1 1505
1 1506
1 1507
1 1508
1 1509
1 1510
1 1511
1 1512
1 1513
1 1514
1 1515
1 1516
1 1517
1 1518
1 1519
1 1520
1 1521
1 1522
1 1523
1 1524
1 1525
1 1526
1 1527
1 1528
1 1529
1 1530
1 1531
1 1532
1 1533
1 1534
1 1535
1 1536
1 1537
1 1538
1 1539
1 1540
1 1541
1 1542
1 1543
1 1544
1 1545
1 1546
1 1547
1 1548
1 1549
1 1550
1 1551
1 1552
1 1553
1 1554
1 1555
1 1556
1 1557
1 1558
1 1559
1 1560
1 1561
1 1562
1 1563
1 1564
1 1565
1 1566
1 1567
1 1568
1 1569
1 1570
1 1571
1 1572
1 1573
1 1574
1 1575
1 1576
1 1577
1 1578
1 1579
1 1580
1 1581
1 1582
1 1583
1 1584
1 1585
1 1586
1 1587
1 1588
1 1589
1 1590
1 1591
1 1592
1 1593
1 1594
1 1595
1 1596
1 1597
1 1598
1 1599
1 1600
1 1601
1 1602
1 1603
1 1604
1 1605
1 1606
1 1607
1 1608
1 1609
1 1610
1 1611
1 1612
1 1613
1 1614
1 1615
1 1616
1 1617
1 1618
1 1619
1 1620
1 1621
1 1622
1 1623
1 1624
1 1625
1 1626
1 1627
1 1628
1 1629
1 1630
1 1631
1 1632
1 1633
1 1634
1 1635
1 1636
1 1637
1 1638
1 1639
1 1640
1 1641
1 1642
1 1643
1 1644
1 1645
1 1646
1 1647
1 1648
1 1649
1 1650
1 1651
1 1652
1 1653
1 1654
1 1655
1 1656
1 1657
1 1658
1 1659
1 1660
1 1661
1 1662
1 1663
1 1664
1 1665
1 1666
1 1667
1 1668
1 1669
1 1670
1 1671
1 1672
1 1673
1 1674
1 1675
1 1676
1 1677
1 1678
1 1679
1 1680
1 1681
1 1682
1 1683
1 1684
1 1685
1 1686
1 1687
1 1688
1 1689
1 1690
1 1691
1 1692
1 1693
1 1694
1 1695
1 1696
1 1697
1 1698
1 1699
1 1700
1 1701
1 1702
1 1703
1 1704
1 1705
1 1706
1 1707
1 1708
1 1709
1 1710
1 1711
1 1712
1 1713
1 1714
1 1715
1 1716
1 1717
1 1718
1 1719
1 1720
1 1721
1 1722
1 1723
1 1724
1 1725
1 1726
1 1727
1 1728
1 1729
1 1730
1 1731
1 1732
1 1733
1 1734
1 1735
1 1736
1 1737
1 1738
1 1739
1 1740
1 1741
1 1742
1 1743
1 1744
1 1745
1 1746
1 1747
1 1748
1 1749
1 1750
1 1751
1 1752
1 1753
1 1754
1 1755
1 1756
1 1757
1 1758
1 1759
1 1760
1 1761
1 1762
1 1763
1 1764
1 1765
1 1766
1 1767
1 1768
1 1769
1 1770
1 1771
1 1772
1 1773
1 1774
1 1775
1 1776
1 1777
1 1778
1 1779
1 1780
1 1781
1 1782
1 1783
1 1784
1 1785
1 1786
1 1787
1 1788
1 1789
1 1790
1 1791
1 1792
1 1793
1 1794
1 1795
1 1796
1 1797
1 1798
1 1799
1 1800
1 1801
1 1802
1 1803
1 1804
1 1805
1 1806
1 1807
1 1808
1 1809
1 1810
1 1811
1 1812
1 1813
1 1814
1 1815
1 1816
1 1817
1 1818
1 1819
1 1820
1 1821
1 1822
1 1823
1 1824
1 1825
1 1826
1 1827
1 1828
1 1829
1 1830
1 1831
1 1832
1 1833
1 1834
1 1835
1 1836
1 1837
1 1838
1 1839
1 1840
1 1841
1 1842
1 1843
1 1844
1 1845
1 1846
1 1847
1 1848
1 1849
1 1850
1 1851
1 1852
1 1853
1 1854
1 1855
1 1856
1 1857
1 1858
1 1859
1 1860
1 1861
1 1862
1 1863
1 1864
1 1865
1 1866
1 1867
1 1868
1 1869
1 1870
1 1871
1 1872
1 1873
1 1874
1 1875
1 1876
1 1877
1 1878
1 1879
1 1880
1 1881
1 1882
1 1883
1 1884
1 1885
1 1886
1 1887
1 1888
1 1889
1 1890
1 1891
1 1892
1 1893
1 1894
1 1895
1 1896
1 1897
1 1898
1 1899
1 1900
1 1901
1 1902
1 1903
1 1904
1 1905
1 1906
1 1907
1 1908
1 1909
1 1910
1 1911
1 1912
1 1913
1 1914
1 1915
1 1916
1 1917
1 1918
1 1919
1 1920
1 1921
1 1922
1 1923
1 1924
1 1925
1 1926
1 1927
1 1928
1 1929
1 1930
1 1931
1 1932
1 1933
1 1934
1 1935
1 1936
1 1937
1 1938
1 1939
1 1940
1 1941
1 1942
1 1943
1 1944
1 1945
1 1946
1 1947
1 1948
1 1949
1 1950
1 1951
1 1952
1 1953
1 1954
1 1955
1 1956
1 1957
1 1958
1 1959
1 1960
1 1961
1 1962
1 1963
1 1964
1 1965
1 1966
1 1967
1 1968
1 1969
1 1970
1 1971
1 1972
1 1973
1 1974
1 1975
1 1976
1 1977
1 1978
1 1979
1 1980
1 1981
1 1982
1 1983
1 1984
1 1985
1 1986
1 1987
1 1988
1 1989
1 1990
1 1991
1 1992
1 1993
1 1994
1 1995
1 1996
1 1997
1 1998
1 1999
1 2000
1 2001
1 2002
1 2003
1 2004
1 2005
1 2006
1 2007
1 2008
1 2009
1 2010
1 2011
1 2012
1 2013
1 2014
1 2015
1 2016
1 2017
1 2018
1 2019
1 2020
1 2021
1 2022
1 2023
1 2024
1 2025
1 2026
1 2027
1 2028
1 2029
1 2030
1 2031
1 2032
1 2033
1 2034
1 2035
1 2036
1 2037
1 2038
1 2039
1 2040
1 2041
1 2042
1 2043
1 2044
1 2045
1 2046
1 2047
1 2048
1 2049
1 2050
1 2051
1 2052
1 2053
1 2054
1 2055
1 2056
1 2057
1 2058
1 2059
1 2060
1 2061
1 2062
1 2063
1 2064
1 2065
1 2066
1 2067
1 2068
1 2069
1 2070
1 2071
1 2072
1 2073
1 2074
1 2075
1 2076
1 2077
1 2078
1 2079
1 2080
1 2081
1 2082
1 2083
1 2084
1 2085
1 2086
1 2087
1 2088
1 2089
1 2090
1 2091
1 2092
1 2093
1 2094
1 2095
1 2096
1 2097
1 2098
1 2099
1 2100
1 2101
1 2102
1 2103
1 2104
1 2105
1 2106
1 2107
1 2108
1 2109
1 2110
1 2111
1 2112
1 2113
1 2114
1 2115
1 2116
1 2117
1 2118
1 2119
1 2120
1 2121
1 2122
1 2123
1 2124
1 2125
1 2126
1 2127
1 2128
1 2129
1 2130
1 2131
1 2132
1 2133
1 2134
1 2135
1 2136
1 2137
1 2138
1 2139
1 2140
1 2141
1 2142
1 2143
1 2144
1 2145
1 2146
1 2147
1 2148
1 2149
1 2150
1 2151
1 2152
1 2153
1 2154
1 2155
1 2156
1 2157
1 2158
1 2159
1 2160
1 2161
1 2162
1 2163
1 2164
1 2165
1 2166
1 2167
1 2168
1 2169
1 2170
1 2171
1 2172
1 2173
1 2174
1 2175
1 2176
1 2177
1 2178
1 2179
1 2180
1 2181
1 2182
1 2183
1 2184
1 2185
1 2186
1 2187
1 2188
1 2189
1 2190
1 2191
1 2192
1 2193
1 2194
1 2195
1 2196
1 2197
1 2198
1 2199
1 2200
1 2201
1 2202
1 2203
1 2204
1 2205
1 2206
1 2207
1 2208
1 2209
1 2210
1 2211
1 2212
1 2213
1 2214
1 2215
1 2216
1 2217
1 2218
1 2219
1 2220
1 2221
1 2222
1 2223
1 2224
1 2225
1 2226
1 2227
1 2228
1 2229
1 2230
1 2231
1 2232
1 2233
1 2234
1 2235
1 2236
1 2237
1 2238
1 2239
1 2240
1 2241
1 2242
1 2243
1 2244
1 2245
1 2246
1 2247
1 2248
1 2249
1 2250
1 2251
1 2252
1 2253
1 2254
1 2255
1 2256
1 2257
1 2258
1 2259
1 2260
1 2261
1 2262
1 2263
1 2264
1 2265
1 2266
1 2267
1 2268
1 2269
1 2270
1 2271
1 2272
1 2273
1 2274
1 2275
1 2276
1 2277
1 2278
1 2279
1 2280
1 2281
1 2282
1 2283
1 2284
1 2285
1 2286
1 2287
1 2288
1 2289
1 2290
1 2291
1 2292
1 2293
1 2294
1 2295
1 2296
1 2297
1 2298
1 2299
1 2300
1 2301
1 2302
1 2303
1 2304
1 2305
1 2306
1 2307
1 2308
1 2309
1 2310
1 2311
1 2312
1 2313
1 2314
1 2315
1 2316
1 2317
1 2318
1 2319
1 2320
1 2321
1 2322
1 2323
1 2324
1 2325
1 2326
1 2327
1 2328
1 2329
1 2330
1 2331
1 2332
1 2333
1 2334
1 2335
1 2336
1 2337
1 2338
1 2339
1 2340
1 2341
1 2342
1 2343
1 2344
1 2345
1 2346
1 2347
1 2348
1 2349
1 2350
1 2351
1 2352
1 2353
1 2354
1 2355
1 2356
1 2357
1 2358
1 2359
1 2360
1 2361
1 2362
1 2363
1 2364
1 2365
1 2366
1 2367
1 2368
1 2369
1 2370
1 2371
1 2372
1 2373
1 2374
1 2375
1 2376
1 2377
1 2378
1 2379
1 2380
1 2381
1 2382
1 2383
1 2384
1 2385
1 2386
1 2387
1 2388
1 2389
1 2390
1 2391
1 2392
1 2393
1 2394
1 2395
1 2396
1 2397
1 2398
1 2399
1 2400
1 2401
1 2402
1 2403
1 2404
1 2405
1 2406
1 2407
1 2408
1 2409
1 2410
1 2411
1 2412
1 2413
1 2414
1 2415
1 2416
1 2417
1 2418
1 2419
1 2420
1 2421
1 2422
1 2423
1 2424
1 2425
1 2426
1 2427
1 2428
1 2429
1 2430
1 2431
1 2432
1 2433
1 2434
1 2435
1 2436
1 2437
1 2438
1 2439
1 2440
1 2441
1 2442
1 2443
1 2444
1 2445
1 2446
1 2447
1 2448
1 2449
1 2450
1 2451
1 2452
1 2453
1 2454
1 2455
1 2456
1 2457
1 2458
1 2459
1 2460
1 2461
1 2462
1 2463
1 2464
1 2465
1 2466
1 2467
1 2468
1 2469
1 2470
1 2471
1 2472
1 2473
1 2474
1 2475
1 2476
1 2477
1 2478
1 2479
1 2480
1 2481
1 2482
1 2483
1 2484
1 2485
1 2486
1 2487
1 2488
1 2489
1 2490
1 2491
1 2492
1 2493
1 2494
1 2495
1 2496
1 2497
1 2498
1 2499
1 2500
1 2501
1 2502
1 2503
1 2504
1 2505
1 2506
1 2507
1 2508
1 2509
1 2510
1 2511
1 2512
1 2513
1 2514
1 2515
1 2516
1 2517
1 2518
1 2519
1 2520
1 2521
1 2522
1 2523
1 2524
1 2525
1 2526
1 2527
1 2528
1 2529
1 2530
1 2531
1 2532
1 2533
1 2534
1 2535
1 2536
1 2537
1 2538
1 2539
1 2540
1 2541
1 2542
1 2543
1 2544
1 2545
1 2546
1 2547
1 2548
1 2549
1 2550
1 2551
1 2552
1 2553
1 2554
1 2555
1 2556
1 2557
1 2558
1 2559
1 2560
1 2561
1 2562
1 2563
1 2564
1 2565
1 2566
1 2567
1 2568
1 2569
1 2570
1 2571
1 2572
1 2573
1 2574
1 2575
1 2576
1 2577
1 2578
1 2579
1 2580
1 2581
1 2582
1 2583
1 2584
1 2585
1 2586
1 2587
1 2588
1 2589
1 2590
1 2591
1 2592
1 2593
1 2594
1 2595
1 2596
1 2597
1 2598
1 2599
1 2600
1 2601
1 2602
1 2603
1 2604
1 2605
1 2606
1 2607
1 2608
1 2609
1 2610
1 2611
1 2612
1 2613
1 2614
1 2615
1 2616
1 2617
1 2618
1 2619
1 2620
1 2621
1 2622
1 2623
1 2624
1 2625
1 2626
1 2627
1 2628
1 2629
1 2630
1 2631
1 2632
1 2633
1 2634
1 2635
1 2636
1 2637
1 2638
1 2639
1 2640
1 2641
1 2642
1 2643
1 2644
1 2645
1 2646
1 2647
1 2648
1 2649
1 2650
1 2651
1 2652
1 2653
1 2654
1 2655
1 2656
1 2657
1 2658
1 2659
1 2660
1 2661
1 2662
1 2663
1 2664
1 2665
1 2666
1 2667
1 2668
1 2669
1 2670
1 2671
1 2672
1 2673
1 2674
1 2675
1 2676
1 2677
1 2678
1 2679
1 2680
1 2681
1 2682
1 2683
1 2684
1 2685
1 2686
1 2687
1 2688
1 2689
1 2690
1 2691
1 2692
1 2693
1 2694
1 2695
1 2696
1 2697
1 2698
1 2699
1 2700
1 2701
1 2702
1 2703
1 2704
1 2705
1 2706
1 2707
1 2708
1 2709
1 2710
1 2711
1 2712
1 2713
1 2714
1 2715
1 2716
1 2717
1 2718
1 2719
1 2720
1 2721
1 2722
1 2723
1 2724
1 2725
1 2726
1 2727
1 2728
1 2729
1 2730
1 2731
1 2732
1 2733
1 2734
1 2735
1 2736
1 2737
1 2738
1 2739
1 2740
1 2741
1 2742
1 2743
1 2744
1 2745
1 2746
1 2747
1 2748
1 2749
1 2750
1 2751
1 2752
1 2753
1 2754
1 2755
1 2756
1 2757
1 2758
1 2759
1 2760
1 2761
1 2762
1 2763
1 2764
1 2765
1 2766
1 2767
1 2768
1 2769
1 2770
1 2771
1 2772
1 2773
1 2774
1 2775
1 2776
1 2777
1 2778
1 2779
1 2780
1 2781
1 2782
1 2783
1 2784
1 2785
1 2786
1 2787
1 2788
1 2789
1 2790
1 2791
1 2792
1 2793
1 2794
1 2795
1 2796
1 2797
1 2798
1 2799
1 2800
1 2801
1 2802
1 2803
1 2804
1 2805
1 2806
1 2807
1 2808
1 2809
1 2810
1 2811
1 2812
1 2813
1 2814
1 2815
1 2816
1 2817
1 2818
1 2819
1 2820
1 2821
1 2822
1 2823
1 2824
1 2825
1 2826
1 2827
1 2828
1 2829
1 2830
1 2831
1 2832
1 2833
1 2834
1 2835
1 2836
1 2837
1 2838
1 2839
1 2840
1 2841
1 2842
1 2843
1 2844
1 2845
1 2846
1 2847
1 2848
1 2849
1 2850
1 2851
1 2852
1 2853
1 2854
1 2855
1 2856
1 2857
1 2858
1 2859
1 2860
1 2861
1 2862
1 2863
1 2864
1 2865
1 2866
1 2867
1 2868
1 2869
1 2870
1 2871
1 2872
1 2873
1 2874
1 2875
1 2876
1 2877
1 2878
1 2879
1 2880
1 2881
1 2882
1 2883
1 2884
1 2885
1 2886
1 2887
1 2888
1 2889
1 2890
1 2891
1 2892
1 2893
1 2894
1 2895
1 2896
1 2897
1 2898
1 2899
1 2900
1 2901
1 2902
1 2903
1 2904
1 2905
1 2906
1 2907
1 2908
1 2909
1 2910
1 2911
1 2912
1 2913
1 2914
1 2915
1 2916
1 2917
1 2918
1 2919
1 2920
1 2921
1 2922
1 2923
1 2924
1 2925
1 2926
1 2927
1 2928
1 2929
1 2930
1 2931
1 2932
1 2933
1 2934
1 2935
1 2936
1 2937
1 2938
1 2939
1 2940
1 2941
1 2942
1 2943
1 2944
1 2945
1 2946
1 2947
1 2948
1 2949
1 2950
1 2951
1 2952
1 2953
1 2954
1 2955
1 2956
1 2957
1 2958
1 2959
1 2960
1 2961
1 2962
1 2963
1 2964
1 2965
1 2966
1 2967
1 2968
1 2969
1 2970
1 2971
1 2972
1 2973
1 2974
POINT_DATA 2975
SCALARS Idp unsigned_int
LOOKUP_TABLE default
0 1 39 40 41 80 81 82 121 122 123 162 163 164 203 204 205 244 245 246 285 286 287 326 327 328 367 368 369 408 409 410 449 450 451 461 462 463 471 472 473 481 482 483 491 492 493 501 502 503 511 512 513 521 522 523 531 532 533 541 542 543 551 552 2 3 4 5 6 7 8 9 42 43 44 45 46 47 48 49 83 84 85 86 87 88 89 90 124 125 126 127 128 129 130 131 165 166 167 168 169 170 171 172 206 207 208 209 210 211 212 213 247 248 249 250 251 252 253 254 288 289 290 291 292 293 294 295 329 330 331 332 333 334 335 336 370 371 372 373 374 375 376 377 411 412 413 414 415 416 417 418 452 453 454 464 465 474 475 484 485 494 495 504 505 514 515 524 525 534 535 544 545 553 554 10 11 12 13 14 15 16 17 18 50 51 52 53 54 55 56 57 58 91 92 93 94 95 96 97 98 99 132 133 134 135 136 137 138 139 140 173 174 175 176 177 178 179 180 181 214 215 216 217 218 219 220 221 222 255 256 257 258 259 260 261 262 263 296 297 298 299 300 301 302 303 304 337 338 339 340 341 342 343 344 345 378 379 380 381 382 383 384 385 386 419 420 421 422 423 424 425 426 427 19 20 21 22 23 24 25 26 59 60 61 62 63 64 65 66 100 101 102 103 104 105 106 107 141 142 143 144 145 146 147 148 182 183 184 185 186 187 188 189 223 224 225 226 227 228 229 230 264 265 266 267 268 269 270 271 305 306 307 308 309 310 311 312 346 347 348 349 350 351 352 353 387 388 389 390 391 392 393 394 428 429 430 431 432 433 434 435 27 28 29 30 31 32 33 34 35 67 68 69 70 71 72 73 74 75 108 109 110 111 112 113 114 115 116 149 150 151 152 153 154 155 156 157 190 191 192 193 194 195 196 197 198 231 232 233 234 235 236 237 238 239 272 273 274 275 276 277 278 279 280 313 314 315 316 317 318 319 320 321 354 355 356 357 358 359 360 361 362 395 396 397 398 399 400 401 402 403 436 437 438 439 440 441 442 443 444 455 456 466 476 486 496 506 516 526 536 546 555 36 37 38 76 77 78 79 117 118 119 120 158 159 160 161 199 200 201 202 240 241 242 243 281 282 283 284 322 323 324 325 363 364 365 366 404 405 406 407 445 446 447 448 457 458 459 460 467 468 469 470 477 478 479 480 487 488 489 490 497 498 499 500 507 508 509 510 517 518 519 520 527 528 529 530 537 538 539 540 547 548 549 550 556 557 558 559 560 561 562 563 564 565 566 567 568 569 570 571 572 573 574 575 576 577 578 579 580 581 582 583 584 585 586 587 588 589 590 591 592 593 594 595 596 597 598 599 600 601 602 603 604 605 606 607 608 609 610 611 612 613 614 615 616 617 618 619 620 621 622 623 624 625 626 627 628 629 630 631 632 633 634 635 636 637 638 639 640 641 642 643 644 645 646 647 648 649 650 651 652 653 654 655 656 657 658 659 660 661 662 663 664 665 666 667 668 669 670 671 672 673 674 675 676 677 678 679 680 681 682 683 684 685 686 687 688 689 690 691 692 693 694 695 696 697 698 699 700 701 702 703 704 705 706 707 708 709 710 711 712 713 714 715 716 717 718 719 720 721 722 723 724 725 726 727 728 729 730 731 732 733 734 735 736 737 738 739 740 741 742 743 744 745 746 747 748 749 750 751 752 753 754 755 756 757 758 759 760 761 762 763 764 765 766 767 768 769 770 771 772 773 774 775 776 777 778 779 780 781 782 783 784 785 786 787 788 789 790 791 792 793 794 795 796 797 798 799 800 801 802 803 804 805 806 807 808 809 810 811 812 813 814 815 816 817 818 819 820 821 822 823 824 825 826 827 828 829 830 831 832 833 834 835 836 837 838 839 840 841 842 843 844 845 846 847 848 849 850 851 852 853 854 855 856 857 858 859 860 861 862 863 864 865 866 867 868 869 870 871 872 873 874 875 876 877 878 879 880 881 882 883 884 885 886 887 888 889 890 891 892 893 894 895 896 897 898 899 900 901 902 903 904 905 906 907 908 909 910 911 912 913 914 915 916 917 918 919 920 921 922 923 924 925 926 927 928 929 930 931 932 933 934 935 936 937 938 939 940 941 942 943 944 945 946 947 948 949 950 951 952 953 954 955 956 957 958 959 960 961 962 963 964 965 966 967 968 969 970 971 972 973 974 975 976 977 978 979 980 981 982 983 984 985 986 987 988 989 990 991 992 993 994 995 996 997 998 999 1000 1001 1002 1003 1004 1005 1006 1007 1008 1009 1010 1011 1012 1013 1014 1015 1016 1017 1018 1019 1020 1021 1022 1023 1024 1025 1026 1027 1028 1029 1030 1031 1032 1033 1034 1035 1060 1061 1062 1063 1064 1065 1091 1092 1093 1094 1095 1096 1122 1123 1124 1125 1126 1127 1153 1154 1155 1156 1157 1158 1184 1185 1186 1187 1188 1189 1215 1216 1217 1218 1219 1220 1246 1247 1248 1249 1250 1251 1277 1278 1279 1280 1281 1282 1308 1309 1310 1311 1312 1313 1339 1340 1341 1342 1343 1344 1370 1371 1372 1373 1374 1375 1401 1402 1403 1404 1405 1406 1432 1433 1434 1435 1436 1437 1463 1464 1465 1466 1467 1468 1494 1495 1496 1497 1498 1499 1525 1526 1527 1528 1529 1530 1556 1557 1558 1559 1560 1561 1587 1588 1589 1590 1591 1592 1618 1619 1620 1621 1622 1623 1649 1650 1651 1652 1653 1654 1680 1681 1682 1683 1684 1685 1711 1712 1713 1714 1715 1716 1742 1743 1744 1745 1746 1747 1773 1774 1775 1776 1777 1778 1804 1805 1806 1807 1808 1809 1835 1836 1837 1838 1839 1840 1866 1867 1868 1869 1870 1871 1897 1898 1899 1900 1901 1902 1928 1929 1930 1931 1932 1933 1959 1960 1961 1962 1963 1964 1990 1991 1992 1993 1994 1995 2021 2022 2023 2024 2025 2026 2052 2053 2054 2055 2056 2057 2083 2084 2085 2086 2087 2088 2114 2115 2116 2117 2118 2119 2145 2146 2147 2148 2149 2150 2176 2177 2178 2179 2180 2181 2207 2208 2209 2210 2211 2212 2238 2239 2240 2241 2242 2243 2269 2270 2271 2272 2273 2274 2300 2301 2302 2303 2304 2305 2331 2332 2333 2334 2335 2336 2362 2363 2364 2365 2366 2367 2393 2394 2395 2396 2397 2398 2424 2425 2426 2427 2428 2429 2455 2456 2457 2458 2459 2460 2486 2487 2488 2489 2490 2491 2517 2518 2519 2520 2521 2522 2548 2549 2550 2551 2552 2553 2579 2580 2581 2582 2583 2584 2610 2611 2612 2613 2614 2615 2641 2642 2643 2644 2645 2646 2672 2673 2674 2675 2676 2677 2703 2704 2705 2706 2707 2708 2734 2735 2736 2737 2738 2763 2764 2765 2766 2767 2792 2793 2794 2795 2819 2820 2821 2822 2846 2847 2848 2871 2872 2894 2895 1036 1037 1038 1039 1040 1041 1042 1043 1044 1066 1067 1068 1069 1070 1071 1072 1073 1074 1097 1098 1099 1100 1101 1102 1103 1104 1105 1128 1129 1130 1131 1132 1133 1134 1135 1136 1159 1160 1161 1162 1163 1164 1165 1166 1167 1190 1191 1192 1193 1194 1195 1196 1197 1198 1221 1222 1223 1224 1225 1226 1227 1228 1229 1252 1253 1254 1255 1256 1257 1258 1259 1260 1283 1284 1285 1286 1287 1288 1289 1290 1291 1314 1315 1316 1317 1318 1319 1320 1321 1322 1345 1346 1347 1348 1349 1350 1351 1352 1353 1376 1377 1378 1379 1380 1381 1382 1383 1384 1407 1408 1409 1410 1411 1412 1413 1414 1415 1438 1439 1440 1441 1442 1443 1444 1445 1446 1469 1470 1471 1472 1473 1474 1475 1476 1477 1500 1501 1502 1503 1504 1505 1506 1507 1508 1531 1532 1533 1534 1535 1536 1537 1538 1539 1562 1563 1564 1565 1566 1567 1568 1569 1570 1593 1594 1595 1596 1597 1598 1599 1600 1601 1624 1625 1626 1627 1628 1629 1630 1631 1632 1655 1656 1657 1658 1659 1660 1661 1662 1663 1686 1687 1688 1689 1690 1691 1692 1693 1694 1717 1718 1719 1720 1721 1722 1723 1724 1725 1748 1749 1750 1751 1752 1753 1754 1755 1756 1779 1780 1781 1782 1783 1784 1785 1786 1787 1810 1811 1812 1813 1814 1815 1816 1817 1818 1841 1842 1843 1844 1845 1846 1847 1848 1849 1872 1873 1874 1875 1876 1877 1878 1879 1880 1903 1904 1905 1906 1907 1908 1909 1910 1911 1934 1935 1936 1937 1938 1939 1940 1941 1942 1965 1966 1967 1968 1969 1970 1971 1972 1973 1996 1997 1998 1999 2000 2001 2002 2003 2004 2027 2028 2029 2030 2031 2032 2033 2034 2035 2058 2059 2060 2061 2062 2063 2064 2065 2066 2089 2090 2091 2092 2093 2094 2095 2096 2097 2120 2121 2122 2123 2124 2125 2126 2127 2128 2151 2152 2153 2154 2155 2156 2157 2158 2159 2182 2183 2184 2185 2186 2187 2188 2189 2190 2213 2214 2215 2216 2217 2218 2219 2220 2221 2244 2245 2246 2247 2248 2249 2250 2251 2252 2275 2276 2277 2278 2279 2280 2281 2282 2283 2306 2307 2308 2309 2310 2311 2312 2313 2314 2337 2338 2339 2340 2341 2342 2343 2344 2345 2368 2369 2370 2371 2372 2373 2374 2375 2376 2399 2400 2401 2402 2403 2404 2405 2406 2407 2430 2431 2432 2433 2434 2435 2436 2437 2438 2461 2462 2463 2464 2465 2466 2467 2468 2469 2492 2493 2494 2495 2496 2497 2498 2499 2500 2523 2524 2525 2526 2527 2528 2529 2530 2531 2554 2555 2556 2557 2558 2559 2560 2561 2562 2585 2586 2587 2588 2589 2590 2591 2592 2593 2616 2617 2618 2619 2620 2621 2622 2623 2624 2647 2648 2649 2650 2651 2652 2653 2654 2655 2678 2679 2680 2681 2682 2683 2684 2685 2686 2709 2710 2711 2712 2713 2714 2715 2716 2717 2739 2740 2741 2742 2743 2744 2745 2746 2747 2768 2769 2770 2771 2772 2773 2774 2775 2776 2796 2797 2798 2799 2800 2801 2802 2803 2804 2823 2824 2825 2826 2827 2828 2829 2830 2831 2849 2850 2851 2852 2853 2854 2855 2856 2857 2873 2874 2875 2876 2877 2878 2879 2880 2881 2896 2897 2898 2899 2900 2901 2902 2903 2904 2917 2918 2919 2920 2921 2922 2923 2924 2925 2936 2937 2938 2939 2940 2941 2942 2943 2953 2954 2955 2956 2957 2958 2966 2967 2968 2969 1045 1046 1047 1048 1049 1050 1051 1052 1075 1076 1077 1078 1079 1080 1081 1082 1106 1107 1108 1109 1110 1111 1112 1113 1137 1138 1139 1140 1141 1142 1143 1144 1168 1169 1170 1171 1172 1173 1174 1175 1199 1200 1201 1202 1203 1204 1205 1206 1230 1231 1232 1233 1234 1235 1236 1237 1261 1262 1263 1264 1265 1266 1267 1268 1292 1293 1294 1295 1296 1297 1298 1299 1323 1324 1325 1326 1327 1328 1329 1330 1354 1355 1356 1357 1358 1359 1360 1361 1385 1386 1387 1388 1389 1390 1391 1392 1416 1417 1418 1419 1420 1421 1422 1423 1447 1448 1449 1450 1451 1452 1453 1454 1478 1479 1480 1481 1482 1483 1484 1485 1509 1510 1511 1512 1513 1514 1515 1516 1540 1541 1542 1543 1544 1545 1546 1547 1571 1572 1573 1574 1575 1576 1577 1578 1602 1603 1604 1605 1606 1607 1608 1609 1633 1634 1635 1636 1637 1638 1639 1640 1664 1665 1666 1667 1668 1669 1670 1671 1695 1696 1697 1698 1699 1700 1701 1702 1726 1727 1728 1729 1730 1731 1732 1733 1757 1758 1759 1760 1761 1762 1763 1764 1788 1789 1790 1791 1792 1793 1794 1795 1819 1820 1821 1822 1823 1824 1825 1826 1850 1851 1852 1853 1854 1855 1856 1857 1881 1882 1883 1884 1885 1886 1887 1888 1912 1913 1914 1915 1916 1917 1918 1919 1943 1944 1945 1946 1947 1948 1949 1950 1974 1975 1976 1977 1978 1979 1980 1981 2005 2006 2007 2008 2009 2010 2011 2012 2036 2037 2038 2039 2040 2041 2042 2043 2067 2068 2069 2070 2071 2072 2073 2074 2098 2099 2100 2101 2102 2103 2104 2105 2129 2130 2131 2132 2133 2134 2135 2136 2160 2161 2162 2163 2164 2165 2166 2167 2191 2192 2193 2194 2195 2196 2197 2198 2222 2223 2224 2225 2226 2227 2228 2229 2253 2254 2255 2256 2257 2258 2259 2260 2284 2285 2286 2287 2288 2289 2290 2291 2315 2316 2317 2318 2319 2320 2321 2322 2346 2347 2348 2349 2350 2351 2352 2353 2377 2378 2379 2380 2381 2382 2383 2384 2408 2409 2410 2411 2412 2413 2414 2415 2439 2440 2441 2442 2443 2444 2445 2446 2470 2471 2472 2473 2474 2475 2476 2477 2501 2502 2503 2504 2505 2506 2507 2508 2532 2533 2534 2535 2536 2537 2538 2539 2563 2564 2565 2566 2567 2568 2569 2570 2594 2595 2596 2597 2598 2599 2600 2601 2625 2626 2627 2628 2629 2630 2631 2632 2656 2657 2658 2659 2660 2661 2662 2663 2687 2688 2689 2690 2691 2692 2693 2694 2718 2719 2720 2721 2722 2723 2724 2725 2748 2749 2750 2751 2752 2753 2754 2755 2777 2778 2779 2780 2781 2782 2783 2784 2805 2806 2807 2808 2809 2810 2811 2812 2832 2833 2834 2835 2836 2837 2838 2839 2858 2859 2860 2861 2862 2863 2864 2865 2882 2883 2884 2885 2886 2887 2888 2889 2905 2906 2907 2908 2909 2910 2911 2912 2926 2927 2928 2929 2930 2931 2932 2933 2944 2945 2946 2947 2948 2949 2950 2951 2959 2960 2961 2962 2963 2964 2965 2970 2971 2972 2973 2974 1053 1054 1055 1056 1057 1058 1059 1083 1084 1085 1086 1087 1088 1089 1090 1114 1115 1116 1117 1118 1119 1120 1121 1145 1146 1147 1148 1149 1150 1151 1152 1176 1177 1178 1179 1180 1181 1182 1183 1207 1208 1209 1210 1211 1212 1213 1214 1238 1239 1240 1241 1242 1243 1244 1245 1269 1270 1271 1272 1273 1274 1275 1276 1300 1301 1302 1303 1304 1305 1306 1307 1331 1332 1333 1334 1335 1336 1337 1338 1362 1363 1364 1365 1366 1367 1368 1369 1393 1394 1395 1396 1397 1398 1399 1400 1424 1425 1426 1427 1428 1429 1430 1431 1455 1456 1457 1458 1459 1460 1461 1462 1486 1487 1488 1489 1490 1491 1492 1493 1517 1518 1519 1520 1521 1522 1523 1524 1548 1549 1550 1551 1552 1553 1554 1555 1579 1580 1581 1582 1583 1584 1585 1586 1610 1611 1612 1613 1614 1615 1616 1617 1641 1642 1643 1644 1645 1646 1647 1648 1672 1673 1674 1675 1676 1677 1678 1679 1703 1704 1705 1706 1707 1708 1709 1710 1734 1735 1736 1737 1738 1739 1740 1741 1765 1766 1767 1768 1769 1770 1771 1772 1796 1797 1798 1799 1800 1801 1802 1803 1827 1828 1829 1830 1831 1832 1833 1834 1858 1859 1860 1861 1862 1863 1864 1865 1889 1890 1891 1892 1893 1894 1895 1896 1920 1921 1922 1923 1924 1925 1926 1927 1951 1952 1953 1954 1955 1956 1957 1958 1982 1983 1984 1985 1986 1987 1988 1989 2013 2014 2015 2016 2017 2018 2019 2020 2044 2045 2046 2047 2048 2049 2050 2051 2075 2076 2077 2078 2079 2080 2081 2082 2106 2107 2108 2109 2110 2111 2112 2113 2137 2138 2139 2140 2141 2142 2143 2144 2168 2169 2170 2171 2172 2173 2174 2175 2199 2200 2201 2202 2203 2204 2205 2206 2230 2231 2232 2233 2234 2235 2236 2237 2261 2262 2263 2264 2265 2266 2267 2268 2292 2293 2294 2295 2296 2297 2298 2299 2323 2324 2325 2326 2327 2328 2329 2330 2354 2355 2356 2357 2358 2359 2360 2361 2385 2386 2387 2388 2389 2390 2391 2392 2416 2417 2418 2419 2420 2421 2422 2423 2447 2448 2449 2450 2451 2452 2453 2454 2478 2479 2480 2481 2482 2483 2484 2485 2509 2510 2511 2512 2513 2514 2515 2516 2540 2541 2542 2543 2544 2545 2546 2547 2571 2572 2573 2574 2575 2576 2577 2578 2602 2603 2604 2605 2606 2607 2608 2609 2633 2634 2635 2636 2637 2638 2639 2640 2664 2665 2666 2667 2668 2669 2670 2671 2695 2696 2697 2698 2699 2700 2701 2702 2726 2727 2728 2729 2730 2731 2732 2733 2756 2757 2758 2759 2760 2761 2762 2785 2786 2787 2788 2789 2790 2791 2813 2814 2815 2816 2817 2818 2840 2841 2842 2843 2844 2845 2866 2867 2868 2869 2870 2890 2891 2892 2893 2913 2914 2915 2916 2934 2935 2952 
FIELD FieldData 12
Idp 1 2975 float
0 1 39 40 41 80 81 82 121 122 123 162 163 164 203 204 205 244 245 246 285 286 287 326 327 328 367 368 369 408 409 410 449 450 451 461 462 463 471 472 473 481 482 483 491 492 493 501 502 503 511 512 513 521 522 523 531 532 533 541 542 543 551 552 2 3 4 5 6 7 8 9 42 43 44 45 46 47 48 49 83 84 85 86 87 88 89 90 124 125 126 127 128 129 130 131 165 166 167 168 169 170 171 172 206 207 208 209 210 211 212 213 247 248 249 250 251 252 253 254 288 289 290 291 292 293 294 295 329 330 331 332 333 334 335 336 370 371 372 373 374 375 376 377 411 412 413 414 415 416 417 418 452 453 454 464 465 474 475 484 485 494 495 504 505 514 515 524 525 534 535 544 545 553 554 10 11 12 13 14 15 16 17 18 50 51 52 53 54 55 56 57 58 91 92 93 94 95 96 97 98 99 132 133 134 135 136 137 138 139 140 173 174 175 176 177 178 179 180 181 214 215 216 217 218 219 220 221 222 255 256 257 258 259 260 261 262 263 296 297 298 299 300 301 302 303 304 337 338 339 340 341 342 343 344 345 378 379 380 381 382 383 384 385 386 419 420 421 422 423 424 425 426 427 19 20 21 22 23 24 25 26 59 60 61 62 63 64 65 66 100 101 102 103 104 105 106 107 141 142 143 144 145 146 147 148 182 183 184 185 186 187 188 189 223 224 225 226 227 228 229 230 264 265 266 267 268 269 270 271 305 306 307 308 309 310 311 312 346 347 348 349 350 351 352 353 387 388 389 390 391 392 393 394 428 429 430 431 432 433 434 435 27 28 29 30 31 32 33 34 35 67 68 69 70 71 72 73 74 75 108 109 110 111 112 113 114 115 116 149 150 151 152 153 154 155 156 157 190 191 192 193 194 195 196 197 198 231 232 233 234 235 236 237 238 239 272 273 274 275 276 277 278 279 280 313 314 315 316 317 318 319 320 321 354 355 356 357 358 359 360 361 362 395 396 397 398 399 400 401 402 403 436 437 438 439 440 441 442 443 444 455 456 466 476 486 496 506 516 526 536 546 555 36 37 38 76 77 78 79 117 118 119 120 158 159 160 161 199 200 201 202 240 241 242 243 281 282 283 284 322 323 324 325 363 364 365 366 404 405 406 407 445 446 447 448 457 458 459 460 467 468 469 470 477 478 479 480 487 488 489 490 497 498 499 500 507 508 509 510 517 518 519 520 527 528 529 530 537 538 539 540 547 548 549 550 556 557 558 559 560 561 562 563 564 565 566 567 568 569 570 571 572 573 574 575 576 577 578 579 580 581 582 583 584 585 586 587 588 589 590 591 592 593 594 595 596 597 598 599 600 601 602 603 604 605 606 607 608 609 610 611 612 613 614 615 616 617 618 619 620 621 622 623 624 625 626 627 628 629 630 631 632 633 634 635 636 637 638 639 640 641 642 643 644 645 646 647 648 649 650 651 652 653 654 655 656 657 658 659 660 661 662 663 664 665 666 667 668 669 670 671 672 673 674 675 676 677 678 679 680 681 682 683 684 685 686 687 688 689 690 691 692 693 694 695 696 697 698 699 700 701 702 703 704 705 706 707 708 709 710 711 712 713 714 715 716 717 718 719 720 721 722 723 724 725 726 727 728 729 730 731 732 733 734 735 736 737 738 739 740 741 742 743 744 745 746 747 748 749 750 751 752 753 754 755 756 757 758 759 760 761 762 763 764 765 766 767 768 769 770 771 772 773 774 775 776 777 778 779 780 781 782 783 784 785 786 787 788 789 790 791 792 793 794 795 796 797 798 799 800 801 802 803 804 805 806 807 808 809 810 811 812 813 814 815 816 817 818 819 820 821 822 823 824 825 826 827 828 829 830 831 832 833 834 835 836 837 838 839 840 841 842 843 844 845 846 847 848 849 850 851 852 853 854 855 856 857 858 859 860 861 862 863 864 865 866 867 868 869 870 871 872 873 874 875 876 877 878 879 880 881 882 883 884 885 886 887 888 889 890 891 892 893 894 895 896 897 898 899 900 901 902 903 904 905 906 907 908 909 910 911 912 913 914 915 916 917 918 919 920 921 922 923 924 925 926 927 928 929 930 931 932 933 934 935 936 937 938 939 940 941 942 943 944 945 946 947 948 949 950 951 952 953 954 955 956 957 958 959 960 961 962 963 964 965 966 967 968 969 970 971 972 973 974 975 976 977 978 979 980 981 982 983 984 985 986 987 988 989 990 991 992 993 994 995 996 997 998 999 1000 1001 1002 1003 1004 1005 1006 1007 1008 1009 1010 1011 1012 1013 1014 1015 1016 1017 1018 1019 1020 1021 1022 1023 1024 1025 1026 1027 1028 1029 1030 1031 1032 1033 1034 1035 1060 1061 1062 1063 1064 1065 1091 1092 1093 1094 1095 1096 1122 1123 1124 1125 1126 1127 1153 1154 1155 1156 1157 1158 1184 1185 1186 1187 1188 1189 1215 1216 1217 1218 1219 1220 1246 1247 1248 1249 1250 1251 1277 1278 1279 1280 1281 1282 1308 1309 1310 1311 1312 1313 1339 1340 1341 1342 1343 1344 1370 1371 1372 1373 1374 1375 1401 1402 1403 1404 1405 1406 1432 1433 1434 1435 1436 1437 1463 1464 1465 1466 1467 1468 1494 1495 1496 1497 1498 1499 1525 1526 1527 1528 1529 1530 1556 1557 1558 1559 1560 1561 1587 1588 1589 1590 1591 1592 1618 1619 1620 1621 1622 1623 1649 1650 1651 1652 1653 1654 1680 1681 1682 1683 1684 1685 1711 1712 1713 1714 1715 1716 1742 1743 1744 1745 1746 1747 1773 1774 1775 1776 1777 1778 1804 1805 1806 1807 1808 1809 1835 1836 1837 1838 1839 1840 1866 1867 1868 1869 1870 1871 1897 1898 1899 1900 1901 1902 1928 1929 1930 1931 1932 1933 1959 1960 1961 1962 1963 1964 1990 1991 1992 1993 1994 1995 2021 2022 2023 2024 2025 2026 2052 2053 2054 2055 2056 2057 2083 2084 2085 2086 2087 2088 2114 2115 2116 2117 2118 2119 2145 2146 2147 2148 2149 2150 2176 2177 2178 2179 2180 2181 2207 2208 2209 2210 2211 2212 2238 2239 2240 2241 2242 2243 2269 2270 2271 2272 2273 2274 2300 2301 2302 2303 2304 2305 2331 2332 2333 2334 2335 2336 2362 2363 2364 2365 2366 2367 2393 2394 2395 2396 2397 2398 2424 2425 2426 2427 2428 2429 2455 2456 2457 2458 2459 2460 2486 2487 2488 2489 2490 2491 2517 2518 2519 2520 2521 2522 2548 2549 2550 2551 2552 2553 2579 2580 2581 2582 2583 2584 2610 2611 2612 2613 2614 2615 2641 2642 2643 2644 2645 2646 2672 2673 2674 2675 2676 2677 2703 2704 2705 2706 2707 2708 2734 2735 2736 2737 2738 2763 2764 2765 2766 2767 2792 2793 2794 2795 2819 2820 2821 2822 2846 2847 2848 2871 2872 2894 2895 1036 1037 1038 1039 1040 1041 1042 1043 1044 1066 1067 1068 1069 1070 1071 1072 1073 1074 1097 1098 1099 1100 1101 1102 1103 1104 1105 1128 1129 1130 1131 1132 1133 1134 1135 1136 1159 1160 1161 1162 1163 1164 1165 1166 1167 1190 1191 1192 1193 1194 1195 1196 1197 1198 1221 1222 1223 1224 1225 1226 1227 1228 1229 1252 1253 1254 1255 1256 1257 1258 1259 1260 1283 1284 1285 1286 1287 1288 1289 1290 1291 1314 1315 1316 1317 1318 1319 1320 1321 1322 1345 1346 1347 1348 1349 1350 1351 1352 1353 1376 1377 1378 1379 1380 1381 1382 1383 1384 1407 1408 1409 1410 1411 1412 1413 1414 1415 1438 1439 1440 1441 1442 1443 1444 1445 1446 1469 1470 1471 1472 1473 1474 1475 1476 1477 1500 1501 1502 1503 1504 1505 1506 1507 1508 1531 1532 1533 1534 1535 1536 1537 1538 1539 1562 1563 1564 1565 1566 1567 1568 1569 1570 1593 1594 1595 1596 1597 1598 1599 1600 1601 1624 1625 1626 1627 1628 1629 1630 1631 1632 1655 1656 1657 1658 1659 1660 1661 1662 1663 1686 1687 1688 1689 1690 1691 1692 1693 1694 1717 1718 1719 1720 1721 1722 1723 1724 1725 1748 1749 1750 1751 1752 1753 1754 1755 1756 1779 1780 1781 1782 1783 1784 1785 1786 1787 1810 1811 1812 1813 1814 1815 1816 1817 1818 1841 1842 1843 1844 1845 1846 1847 1848 1849 1872 1873 1874 1875 1876 1877 1878 1879 1880 1903 1904 1905 1906 1907 1908 1909 1910 1911 1934 1935 1936 1937 1938 1939 1940 1941 1942 1965 1966 1967 1968 1969 1970 1971 1972 1973 1996 1997 1998 1999 2000 2001 2002 2003 2004 2027 2028 2029 2030 2031 2032 2033 2034 2035 2058 2059 2060 2061 2062 2063 2064 2065 2066 2089 2090 2091 2092 2093 2094 2095 2096 2097 2120 2121 2122 2123 2124 2125 2126 2127 2128 2151 2152 2153 2154 2155 2156 2157 2158 2159 2182 2183 2184 2185 2186 2187 2188 2189 2190 2213 2214 2215 2216 2217 2218 2219 2220 2221 2244 2245 2246 2247 2248 2249 2250 2251 2252 2275 2276 2277 2278 2279 2280 2281 2282 2283 2306 2307 2308 2309 2310 2311 2312 2313 2314 2337 2338 2339 2340 2341 2342 2343 2344 2345 2368 2369 2370 2371 2372 2373 2374 2375 2376 2399 2400 2401 2402 2403 2404 2405 2406 2407 2430 2431 2432 2433 2434 2435 2436 2437 2438 2461 2462 2463 2464 2465 2466 2467 2468 2469 2492 2493 2494 2495 2496 2497 2498 2499 2500 2523 2524 2525 2526 2527 2528 2529 2530 2531 2554 2555 2556 2557 2558 2559 2560 2561 2562 2585 2586 2587 2588 2589 2590 2591 2592 2593 2616 2617 2618 2619 2620 2621 2622 2623 2624 2647 2648 2649 2650 2651 2652 2653 2654 2655 2678 2679 2680 2681 2682 2683 2684 2685 2686 2709 2710 2711 2712 2713 2714 2715 2716 2717 2739 2740 2741 2742 2743 2744 2745 2746 2747 2768 2769 2770 2771 2772 2773 2774 2775 2776 2796 2797 2798 2799 2800 2801 2802 2803 2804 2823 2824 2825 2826 2827 2828 2829 2830 2831 2849 2850 2851 2852 2853 2854 2855 2856 2857 2873 2874 2875 2876 2877 2878 2879 2880 2881 2896 2897 2898 2899 2900 2901 2902 2903 2904 2917 2918 2919 2920 2921 2922 2923 2924 2925 2936 2937 2938 2939 2940 2941 2942 2943 2953 2954 2955 2956 2957 2958 2966 2967 2968 2969 1045 1046 1047 1048 1049 1050 1051 1052 1075 1076 1077 1078 1079 1080 1081 1082 1106 1107 1108 1109 1110 1111 1112 1113 1137 1138 1139 1140 1141 1142 1143 1144 1168 1169 1170 1171 1172 1173 1174 1175 1199 1200 1201 1202 1203 1204 1205 1206 1230 1231 1232 1233 1234 1235 1236 1237 1261 1262 1263 1264 1265 1266 1267 1268 1292 1293 1294 1295 1296 1297 1298 1299 1323 1324 1325 1326 1327 1328 1329 1330 1354 1355 1356 1357 1358 1359 1360 1361 1385 1386 1387 1388 1389 1390 1391 1392 1416 1417 1418 1419 1420 1421 1422 1423 1447 1448 1449 1450 1451 1452 1453 1454 1478 1479 1480 1481 1482 1483 1484 1485 1509 1510 1511 1512 1513 1514 1515 1516 1540 1541 1542 1543 1544 1545 1546 1547 1571 1572 1573 1574 1575 1576 1577 1578 1602 1603 1604 1605 1606 1607 1608 1609 1633 1634 1635 1636 1637 1638 1639 1640 1664 1665 1666 1667 1668 1669 1670 1671 1695 1696 1697 1698 1699 1700 1701 1702 1726 1727 1728 1729 1730 1731 1732 1733 1757 1758 1759 1760 1761 1762 1763 1764 1788 1789 1790 1791 1792 1793 1794 1795 1819 1820 1821 1822 1823 1824 1825 1826 1850 1851 1852 1853 1854 1855 1856 1857 1881 1882 1883 1884 1885 1886 1887 1888 1912 1913 1914 1915 1916 1917 1918 1919 1943 1944 1945 1946 1947 1948 1949 1950 1974 1975 1976 1977 1978 1979 1980 1981 2005 2006 2007 2008 2009 2010 2011 2012 2036 2037 2038 2039 2040 2041 2042 2043 2067 2068 2069 2070 2071 2072 2073 2074 2098 2099 2100 2101 2102 2103 2104 2105 2129 2130 2131 2132 2133 2134 2135 2136 2160 2161 2162 2163 2164 2165 2166 2167 2191 2192 2193 2194 2195 2196 2197 2198 2222 2223 2224 2225 2226 2227 2228 2229 2253 2254 2255 2256 2257 2258 2259 2260 2284 2285 2286 2287 2288 2289 2290 2291 2315 2316 2317 2318 2319 2320 2321 2322 2346 2347 2348 2349 2350 2351 2352 2353 2377 2378 2379 2380 2381 2382 2383 2384 2408 2409 2410 2411 2412 2413 2414 2415 2439 2440 2441 2442 2443 2444 2445 2446 2470 2471 2472 2473 2474 2475 2476 2477 2501 2502 2503 2504 2505 2506 2507 2508 2532 2533 2534 2535 2536 2537 2538 2539 2563 2564 2565 2566 2567 2568 2569 2570 2594 2595 2596 2597 2598 2599 2600 2601 2625 2626 2627 2628 2629 2630 2631 2632 2656 2657 2658 2659 2660 2661 2662 2663 2687 2688 2689 2690 2691 2692 2693 2694 2718 2719 2720 2721 2722 2723 2724 2725 2748 2749 2750 2751 2752 2753 2754 2755 2777 2778 2779 2780 2781 2782 2783 2784 2805 2806 2807 2808 2809 2810 2811 2812 2832 2833 2834 2835 2836 2837 2838 2839 2858 2859 2860 2861 2862 2863 2864 2865 2882 2883 2884 2885 2886 2887 2888 2889 2905 2906 2907 2908 2909 2910 2911 2912 2926 2927 2928 2929 2930 2931 2932 2933 2944 2945 2946 2947 2948 2949 2950 2951 2959 2960 2961 2962 2963 2964 2965 2970 2971 2972 2973 2974 1053 1054 1055 1056 1057 1058 1059 1083 1084 1085 1086 1087 1088 1089 1090 1114 1115 1116 1117 1118 1119 1120 1121 1145 1146 1147 1148 1149 1150 1151 1152 1176 1177 1178 1179 1180 1181 1182 1183 1207 1208 1209 1210 1211 1212 1213 1214 1238 1239 1240 1241 1242 1243 1244 1245 1269 1270 1271 1272 1273 1274 1275 1276 1300 1301 1302 1303 1304 1305 1306 1307 1331 1332 1333 1334 1335 1336 1337 1338 1362 1363 1364 1365 1366 1367 1368 1369 1393 1394 1395 1396 1397 1398 1399 1400 1424 1425 1426 1427 1428 1429 1430 1431 1455 1456 1457 1458 1459 1460 1461 1462 1486 1487 1488 1489 1490 1491 1492 1493 1517 1518 1519 1520 1521 1522 1523 1524 1548 1549 1550 1551 1552 1553 1554 1555 1579 1580 1581 1582 1583 1584 1585 1586 1610 1611 1612 1613 1614 1615 1616 1617 1641 1642 1643 1644 1645 1646 1647 1648 1672 1673 1674 1675 1676 1677 1678 1679 1703 1704 1705 1706 1707 1708 1709 1710 1734 1735 1736 1737 1738 1739 1740 1741 1765 1766 1767 1768 1769 1770 1771 1772 1796 1797 1798 1799 1800 1801 1802 1803 1827 1828 1829 1830 1831 1832 1833 1834 1858 1859 1860 1861 1862 1863 1864 1865 1889 1890 1891 1892 1893 1894 1895 1896 1920 1921 1922 1923 1924 1925 1926 1927 1951 1952 1953 1954 1955 1956 1957 1958 1982 1983 1984 1985 1986 1987 1988 1989 2013 2014 2015 2016 2017 2018 2019 2020 2044 2045 2046 2047 2048 2049 2050 2051 2075 2076 2077 2078 2079 2080 2081 2082 2106 2107 2108 2109 2110 2111 2112 2113 2137 2138 2139 2140 2141 2142 2143 2144 2168 2169 2170 2171 2172 2173 2174 2175 2199 2200 2201 2202 2203 2204 2205 2206 2230 2231 2232 2233 2234 2235 2236 2237 2261 2262 2263 2264 2265 2266 2267 2268 2292 2293 2294 2295 2296 2297 2298 2299 2323 2324 2325 2326 2327 2328 2329 2330 2354 2355 2356 2357 2358 2359 2360 2361 2385 2386 2387 2388 2389 2390 2391 2392 2416 2417 2418 2419 2420 2421 2422 2423 2447 2448 2449 2450 2451 2452 2453 2454 2478 2479 2480 2481 2482 2483 2484 2485 2509 2510 2511 2512 2513 2514 2515 2516 2540 2541 2542 2543 2544 2545 2546 2547 2571 2572 2573 2574 2575 2576 2577 2578 2602 2603 2604 2605 2606 2607 2608 2609 2633 2634 2635 2636 2637 2638 2639 2640 2664 2665 2666 2667 2668 2669 2670 2671 2695 2696 2697 2698 2699 2700 2701 2702 2726 2727 2728 2729 2730 2731 2732 2733 2756 2757 2758 2759 2760 2761 2762 2785 2786 2787 2788 2789 2790 2791 2813 2814 2815 2816 2817 2818 2840 2841 2842 2843 2844 2845 2866 2867 2868 2869 2870 2890 2891 2892 2893 2913 2914 2915 2916 2934 2935 2952 
Rhop 1 2975 float
1000.0 1000.0 1000.0 1000.0 1000.0 1000.0 1000.0 1000.0 1000.0 1000.0 1000.0 1000.0 1000.0 1000.0 1000.0 1000.0 1000.0 1000.0 1000.0 1000.0004 1000.0 1000.0007 1000.0015 1000.0005 1000.0018 1000.004 1000.0015 1000.0038 1000.0076 1000.0026 1000.0067 1000.0122 1000.0042 1000.0096 1000.0176 1000.0057 1000.0129 1000.0229 1000.0071 1000.0159 1000.0281 1000.0085 1000.0187 1000.0328 1000.0098 1000.0218 1000.0383 1000.0119 1000.0259 1000.0455 1000.0146 1000.0321 1000.0564 1000.0193 1000.0423 1000.0742 1000.0277 1000.0587 1000.1012 1000.042 1000.0831 1000.1385 1000.1166 1000.1852 1000.0 1000.0 1000.0 1000.0 1000.0 1000.0 1000.0 1000.0 1000.0 1000.0 1000.0 1000.0 1000.0 1000.0 1000.0 1000.0 1000.0 1000.0 1000.0 1000.0 1000.0 1000.0 1000.0 1000.0 1000.0 1000.0 1000.0 1000.0 1000.0 1000.0 1000.0 1000.0 1000.0 1000.0 1000.0 1000.0001 1000.0002 1000.0003 1000.0004 1000.0004 1000.0001 1000.0004 1000.0008 1000.0012 1000.0015 1000.002 1000.0022 1000.0024 1000.001 1000.0018 1000.0029 1000.0042 1000.0054 1000.0065 1000.0072 1000.0079 1000.0031 1000.0051 1000.0077 1000.0104 1000.0132 1000.0154 1000.0172 1000.0186 1000.007 1000.0109 1000.0158 1000.021 1000.026 1000.0303 1000.0339 1000.0363 1000.0126 1000.0192 1000.0272 1000.0357 1000.0438 1000.0505 1000.056 1000.0603 1000.0199 1000.0298 1000.0415 1000.0536 1000.0649 1000.0742 1000.0818 1000.0876 1000.028 1000.0411 1000.0562 1000.0358 1000.052 1000.0434 1000.0621 1000.0505 1000.0721 1000.0588 1000.0836 1000.0701 1000.0995 1000.0872 1000.1226 1000.1135 1000.1574 1000.1528 1000.2076 1000.2062 1000.2742 1000.2701 1000.3542 1000.0 1000.0 1000.0 1000.0 1000.0 1000.0 1000.0 1000.0 1000.0 1000.0 1000.0 1000.0 1000.0 1000.0 1000.0 1000.0 1000.0 1000.0 1000.0 1000.0 1000.0 1000.0 1000.0 1000.0 1000.0 1000.0 1000.0 1000.0 1000.0 1000.0 1000.0 1000.0 1000.0 1000.0 1000.0 1000.0 1000.0004 1000.0004 1000.0004 1000.0004 1000.0004 1000.0004 1000.0004 1000.0004 1000.0004 1000.0026 1000.0026 1000.0027 1000.0027 1000.0027 1000.0027 1000.0027 1000.0027 1000.0027 1000.0082 1000.0085 1000.0087 1000.0087 1000.0089 1000.0091 1000.0091 1000.0091 1000.0091 1000.0197 1000.0206 1000.0209 1000.0212 1000.0217 1000.0217 1000.0217 1000.0217 1000.0217 1000.0383 1000.0397 1000.0407 1000.0416 1000.0417 1000.0419 1000.0421 1000.0421 1000.0421 1000.0633 1000.0657 1000.0673 1000.0683 1000.0691 1000.0693 1000.0695 1000.0696 1000.0696 1000.092 1000.095 1000.0971 1000.0985 1000.0995 1000.1 1000.1002 1000.1003 1000.1003 1000.0 1000.0 1000.0 1000.0 1000.0 1000.0 1000.0 1000.0 1000.0 1000.0 1000.0 1000.0 1000.0 1000.0 1000.0 1000.0 1000.0 1000.0 1000.0 1000.0 1000.0 1000.0 1000.0 1000.0 1000.0 1000.0 1000.0 1000.0 1000.0 1000.0 1000.0 1000.0 1000.0004 1000.0004 1000.0004 1000.0004 1000.0004 1000.0004 1000.0004 1000.0004 1000.0027 1000.0027 1000.0027 1000.0027 1000.0027 1000.0027 1000.0027 1000.0027 1000.0091 1000.0091 1000.0091 1000.0091 1000.0091 1000.0089 1000.0087 1000.0087 1000.0217 1000.0217 1000.0217 1000.0217 1000.0217 1000.0217 1000.0212 1000.0209 1000.0421 1000.0421 1000.0421 1000.0421 1000.0419 1000.0417 1000.0416 1000.0407 1000.0696 1000.0696 1000.0696 1000.0695 1000.0693 1000.0691 1000.0683 1000.0673 1000.1003 1000.1003 1000.1003 1000.1002 1000.1 1000.0995 1000.0985 1000.0971 1000.0 1000.0 1000.0 1000.0 1000.0 1000.0 1000.0 1000.0 1000.0 1000.0 1000.0 1000.0 1000.0 1000.0 1000.0 1000.0 1000.0 1000.0 1000.0 1000.0 1000.0 1000.0 1000.0 1000.0 1000.0 1000.0 1000.0 1000.0 1000.0 1000.0 1000.0 1000.0 1000.0 1000.0 1000.0 1000.0 1000.0004 1000.0004 1000.0004 1000.0004 1000.0003 1000.0002 1000.0001 1000.0 1000.0 1000.0026 1000.0026 1000.0024 1000.0022 1000.002 1000.0015 1000.0012 1000.0008 1000.0004 1000.0085 1000.0082 1000.0079 1000.0072 1000.0065 1000.0054 1000.0042 1000.0029 1000.0018 1000.0206 1000.0197 1000.0186 1000.0172 1000.0154 1000.0132 1000.0104 1000.0077 1000.0051 1000.0397 1000.0383 1000.0363 1000.0339 1000.0303 1000.026 1000.021 1000.0158 1000.0109 1000.0657 1000.0633 1000.0603 1000.056 1000.0505 1000.0438 1000.0357 1000.0272 1000.0192 1000.095 1000.092 1000.0876 1000.0818 1000.0742 1000.0649 1000.0536 1000.0415 1000.0298 1000.0562 1000.0411 1000.052 1000.0621 1000.0721 1000.0836 1000.0995 1000.1226 1000.1574 1000.2076 1000.2742 1000.3542 1000.0 1000.0 1000.0 1000.0 1000.0 1000.0 1000.0 1000.0 1000.0 1000.0 1000.0 1000.0 1000.0 1000.0 1000.0 1000.0 1000.0 1000.0 1000.0 1000.0001 1000.0 1000.0 1000.0 1000.001 1000.0004 1000.0 1000.0 1000.0031 1000.0015 1000.0007 1000.0 1000.007 1000.004 1000.0018 1000.0005 1000.0126 1000.0076 1000.0038 1000.0015 1000.0199 1000.0122 1000.0067 1000.0026 1000.028 1000.0176 1000.0096 1000.0042 1000.0358 1000.0229 1000.0129 1000.0057 1000.0434 1000.0281 1000.0159 1000.0071 1000.0505 1000.0328 1000.0187 1000.0085 1000.0588 1000.0383 1000.0218 1000.0098 1000.0701 1000.0455 1000.0259 1000.0119 1000.0872 1000.0564 1000.0321 1000.0146 1000.1135 1000.0742 1000.0423 1000.0193 1000.1528 1000.1012 1000.0587 1000.0277 1000.2062 1000.1385 1000.0831 1000.042 1000.2701 1000.1852 1000.1166 1000.0 1000.0 1000.0 1000.0 1000.0 1000.0 1000.0 1000.0 1000.0 1000.0 1000.0 1000.0 1000.0 1000.0 1000.0 1000.0 1000.0 1000.0 1000.0 1000.0 1000.0 1000.0 1000.0 1000.0 1000.0 1000.0 1000.0 1000.0 1000.0 1000.0 1000.0 1000.0 1000.0 1000.0 1000.0 1000.0 1000.0 1000.0 1000.0 1000.0 1000.0 1000.0 1000.0 1000.0 1000.0 1000.0 1000.0 1000.0 1000.0 1000.0 1000.0 1000.0 1000.0 1000.0 1000.0 1000.0 1000.0 1000.0 1000.0 1000.0 1000.0 1000.0 1000.0 1000.0 1000.0 1000.0 1000.0 1000.0 1000.0 1000.0 1000.0 1000.0 1000.0 1000.0 1000.0 1000.0 1000.0 1000.0 1000.0 1000.0 1000.0 1000.0 1000.0 1000.0 1000.0 1000.0 1000.0 1000.0 1000.0 1000.0 1000.0 1000.0 1000.0 1000.0 1000.0 1000.0 1000.0 1000.0 1000.0 1000.0 1000.0 1000.0 1000.0 1000.0 1000.0 1000.0 1000.0 1000.0 1000.0 1000.0 1000.0 1000.0 1000.0 1000.0 1000.0 1000.0 1000.0 1000.0 1000.0 1000.0 1000.0 1000.0 1000.0 1000.0 1000.0 1000.0 1000.0 1000.0 1000.0 1000.0 1000.0 1000.0 1000.0 1000.0 1000.0 1000.0 1000.0 1000.0 1000.0 1000.0 1000.0 1000.0 1000.0 1000.0 1000.0 1000.0 1000.0 1000.0 1000.0 1000.0 1000.0 1000.0 1000.0 1000.0 1000.0 1000.0 1000.0 1000.0 1000.0 1000.0 1000.0 1000.0 1000.0 1000.0 1000.0 1000.0 1000.0 1000.0 1000.0 1000.0 1000.0 1000.0 1000.0 1000.0 1000.0 1000.0 1000.0 1000.0 1000.0 1000.0 1000.0 1000.0 1000.0 1000.0 1000.0 1000.0 1000.0 1000.0 1000.0 1000.0 1000.0 1000.0 1000.0 1000.0 1000.0 1000.0 1000.0 1000.0 1000.0 1000.0 1000.0 1000.0 1000.0 1000.0 1000.0 1000.0 1000.0 1000.0 1000.0 1000.0 1000.0 1000.0 1000.0 1000.0 1000.0 1000.0 1000.0 1000.0 1000.0 1000.0 1000.0 1000.0 1000.0 1000.0 1000.0 1000.0 1000.0 1000.0 1000.0 1000.0 1000.0 1000.0 1000.0 1000.0 1000.0 1000.0 1000.0 1000.0 1000.0 1000.0 1000.0 1000.0 1000.0 1000.0 1000.0 1000.0 1000.0 1000.0 1000.0 1000.0 1000.0 1000.0 1000.0 1000.0 1000.0 1000.0 1000.0 1000.0 1000.0 1000.0 1000.0 1000.0 1000.0 1000.0 1000.0 1000.0 1000.0 1000.0 1000.0 1000.0 1000.0 1000.0 1000.0 1000.0 1000.0 1000.0 1000.0 1000.0 1000.0 1000.0 1000.0 1000.0 1000.0 1000.0 1000.0 1000.0 1000.0 1000.0 1000.0 1000.0 1000.0 1000.0 1000.0 1000.0 1000.0 1000.0 1000.0 1000.0 1000.0 1000.0 1000.0 1000.0 1000.0 1000.0 1000.0 1000.0 1000.0 1000.0 1000.0 1000.0 1000.0 1000.0 1000.0 1000.0 1000.0 1000.0 1000.0 1000.0 1000.0 1000.0 1000.0 1000.0 1000.0 1000.0 1000.0 1000.0 1000.0 1000.0 1000.0 1000.0 1000.0 1000.0 1000.0 1000.0 1000.0 1000.0 1000.0 1000.0 1000.0 1000.0 1000.0 1000.0 1000.0 1000.0 1000.0 1000.0 1000.0 1000.0 1000.0 1000.0 1000.0 1000.0 1000.0 1000.0 1000.0 1000.0 1000.0 1000.0 1000.0 1000.0 1000.0 1000.0 1000.0 1000.0 1000.0 1000.0 1000.0 1000.0 1000.0 1000.0 1000.0 1000.0 1000.0 1000.0 1000.0 1000.0 1000.0 1000.0 1000.0 1000.0 1000.0 1000.0 1000.0 1000.0 1000.0 1000.0 1000.0 1000.0 1000.0 1000.0 1000.0 1000.0 1000.0 1000.0 1000.0 1000.0 1000.0 1000.0 1000.0 1000.0 1000.0 1000.0 1000.0 1000.0 1000.0 1000.0 1000.0 1000.0 1000.0 1000.0 1000.0 1000.0 1000.0 1000.0 1000.0 1000.0 1000.0 1000.0 1000.0 1000.0 1000.0 1000.0 1000.0 1000.0 1000.0 1000.0 1000.0 1000.0 1000.0 1000.0 1000.0 1000.0 1000.0 1000.0 1000.0 1000.0 1000.0 1000.0 1000.0 1000.0 1000.0 1000.0 1000.0 1000.0 1000.0 1000.0 1000.0 1000.0 1000.0 1000.0 1000.0 1000.0 1000.0 1000.0 1000.0 1000.0 1000.0 1000.0 1000.0 1000.0 1000.0 1000.0 1000.0 1000.0 1000.0 1000.0 1000.0 1000.0 1000.0 1000.0 1000.0 1000.0 1000.0716 1000.0854 1000.097 1000.1062 1000.1132 1000.0693 1000.0879 1000.1038 1000.1168 1000.1271 1000.1348 1000.082 1000.1028 1000.1208 1000.1352 1000.1461 1000.1542 1000.0948 1000.1187 1000.1385 1000.1542 1000.166 1000.1741 1000.1102 1000.1369 1000.1591 1000.1763 1000.1888 1000.1969 1000.1312 1000.1613 1000.1854 1000.2035 1000.2164 1000.2247 1000.1647 1000.1967 1000.2211 1000.2382 1000.2502 1000.2584 1000.2183 1000.25 1000.2696 1000.2828 1000.2919 1000.2979 1000.3001 1000.3258 1000.3342 1000.3381 1000.3411 1000.3441 1000.4141 1000.423 1000.4128 1000.4025 1000.3972 1000.3956 1000.549 1000.5313 1000.4977 1000.4719 1000.4579 1000.4523 1000.6584 1000.6291 1000.5783 1000.5411 1000.5214 1000.513 1000.6824 1000.6848 1000.6428 1000.6062 1000.5861 1000.5775 1000.6825 1000.7089 1000.6932 1000.668 1000.653 1000.647 1000.7106 1000.7402 1000.7444 1000.7335 1000.7262 1000.7232 1000.7719 1000.7979 1000.8102 1000.8097 1000.8083 1000.8082 1000.8615 1000.8832 1000.8969 1000.9006 1000.9026 1000.9041 1000.9717 1000.9902 1001.0025 1001.007 1001.0101 1001.0126 1001.0964 1001.1138 1001.1249 1001.1288 1001.1324 1001.135 1001.2365 1001.2546 1001.2645 1001.2672 1001.2707 1001.2731 1001.3954 1001.4143 1001.4227 1001.4239 1001.4266 1001.4281 1001.5771 1001.5956 1001.6019 1001.6006 1001.6014 1001.601 1001.7838 1001.8007 1001.8044 1001.7992 1001.7963 1001.7921 1002.0181 1002.0321 1002.0324 1002.0212 1002.0115 1002.0018 1002.2762 1002.2877 1002.2836 1002.2614 1002.2413 1002.2232 1002.5471 1002.5573 1002.5465 1002.5065 1002.4712 1002.4417 1002.8165 1002.8278 1002.8055 1002.7374 1002.6828 1002.6412 1003.0636 1003.0768 1003.0343 1002.9284 1002.8526 1002.8006 1003.2875 1003.3016 1003.2284 1003.0793 1002.9855 1002.9301 1003.5574 1003.5692 1003.4626 1003.2778 1003.1779 1003.1305 1004.1319 1004.1394 1004.0195 1003.8319 1003.7451 1003.7224 1005.5922 1005.604 1005.5519 1005.4143 1005.3614 1005.3777 1008.5139 1008.5569 1008.6323 1008.6473 1008.6667 1008.7284 1012.1147 1012.2004 1012.386 1012.6048 1012.7485 1012.8614 1014.4174 1014.5094 1014.7212 1015.0444 1015.3052 1015.46 1014.8567 1014.9095 1015.0399 1015.3397 1015.6401 1015.8131 1014.4966 1014.4779 1014.4601 1014.6304 1014.8658 1015.0081 1014.2822 1014.1743 1014.1252 1014.122 1014.194 1014.2291 1014.4732 1014.2642 1014.235 1014.0944 1014.0251 1013.962 1014.9407 1014.6585 1014.6359 1014.4352 1014.2873 1014.1663 1015.4529 1015.1309 1015.1013 1014.8978 1014.7348 1014.6016 1015.832 1015.5002 1015.4584 1015.2839 1015.1548 1015.0463 1015.7855 1015.4692 1015.4215 1015.2786 1015.1996 1015.1348 1015.3866 1015.1061 1015.0687 1014.9617 1014.9368 1014.9242 1014.7855 1014.5574 1014.5501 1014.491 1014.5231 1014.5667 1014.0831 1013.9253 1013.9691 1013.9756 1014.0682 1014.1683 1013.3005 1013.2274 1013.3469 1013.4338 1013.5876 1013.7368 1012.4095 1012.4343 1012.6411 1012.8115 1013.0103 1013.2028 1011.3868 1011.5063 1011.798 1012.0225 1012.2624 1012.4876 1010.26 1010.4523 1010.7997 1011.0499 1011.3279 1011.5697 1009.0974 1009.3329 1009.6923 1009.9551 1010.2498 1010.4931 1007.9822 1008.2264 1008.5667 1008.8201 1009.1073 1009.3403 1006.9374 1007.1889 1007.4964 1007.7288 1007.9886 1008.2008 1005.8609 1006.2165 1006.5266 1006.741 1006.9629 1007.1422 1004.8958 1005.3557 1005.7075 1005.899 1006.0655 1006.2038 1004.6306 1005.0515 1005.2093 1005.3112 1005.3992 1004.0087 1004.4534 1004.6426 1004.6921 1004.7315 1003.8214 1004.1082 1004.1637 1004.1869 1003.2126 1003.4863 1003.6609 1003.7168 1002.8473 1003.0874 1003.2331 1002.4883 1002.6526 1002.2764 1002.1115 1000.1183 1000.1223 1000.1248 1000.1267 1000.1275 1000.1282 1000.1285 1000.1285 1000.1285 1000.1404 1000.1447 1000.1474 1000.1493 1000.1501 1000.1509 1000.1509 1000.1511 1000.151 1000.16 1000.1641 1000.167 1000.1685 1000.1695 1000.1697 1000.1699 1000.1698 1000.1697 1000.1799 1000.1837 1000.186 1000.1872 1000.188 1000.188 1000.1879 1000.1876 1000.1875 1000.2025 1000.2058 1000.2078 1000.2083 1000.2085 1000.2081 1000.2077 1000.2075 1000.2071 1000.2297 1000.2325 1000.2337 1000.2337 1000.2332 1000.2326 1000.2316 1000.231 1000.2307 1000.2627 1000.2646 1000.2649 1000.2643 1000.2628 1000.2615 1000.2603 1000.2593 1000.2587 1000.3015 1000.3022 1000.3013 1000.2997 1000.2975 1000.2956 1000.2939 1000.2925 1000.2919 1000.3453 1000.3452 1000.3432 1000.3403 1000.3375 1000.3348 1000.3323 1000.3307 1000.3298 1000.395 1000.3933 1000.39 1000.386 1000.3823 1000.3788 1000.3761 1000.374 1000.3729 1000.4496 1000.4467 1000.4423 1000.4376 1000.4327 1000.4287 1000.4255 1000.4232 1000.4218 1000.5091 1000.5053 1000.5002 1000.4945 1000.4891 1000.4844 1000.481 1000.4783 1000.4767 1000.5736 1000.5696 1000.5641 1000.558 1000.5521 1000.5473 1000.5433 1000.5405 1000.5387 1000.644 1000.6401 1000.6348 1000.6287 1000.6225 1000.6173 1000.6132 1000.6103 1000.6085 1000.7213 1000.7184 1000.7133 1000.707 1000.701 1000.6953 1000.6914 1000.6882 1000.6865 1000.8076 1000.8049 1000.8004 1000.7945 1000.7888 1000.7834 1000.779 1000.7759 1000.7742 1000.9041 1000.9022 1000.898 1000.8922 1000.8864 1000.8813 1000.8769 1000.8738 1000.8722 1001.0132 1001.0114 1001.0071 1001.0016 1000.9955 1000.9907 1000.9863 1000.9832 1000.9815 1001.1357 1001.1337 1001.1293 1001.1232 1001.1171 1001.1119 1001.1077 1001.1047 1001.1028 1001.2734 1001.2705 1001.2651 1001.2584 1001.2518 1001.2462 1001.2416 1001.2385 1001.2365 1001.4271 1001.4227 1001.4158 1001.4078 1001.4 1001.3936 1001.3884 1001.3846 1001.3826 1001.5978 1001.5909 1001.5817 1001.5711 1001.5616 1001.5536 1001.5474 1001.543 1001.5403 1001.7851 1001.7748 1001.7616 1001.7479 1001.7354 1001.7253 1001.7175 1001.7119 1001.7084 1001.9896 1001.9736 1001.9548 1001.9362 1001.9198 1001.9064 1001.8964 1001.8891 1001.8851 1002.2029 1002.1796 1002.1538 1002.1283 1002.1064 1002.0892 1002.0763 1002.0673 1002.062 1002.412 1002.3788 1002.3437 1002.3107 1002.2824 1002.2604 1002.2446 1002.2332 1002.2272 1002.6011 1002.5579 1002.5126 1002.4702 1002.4351 1002.4083 1002.3887 1002.3755 1002.3682 1002.7526 1002.701 1002.6468 1002.5959 1002.5541 1002.5224 1002.5 1002.4848 1002.4763 1002.8811 1002.827 1002.768 1002.7117 1002.665 1002.6296 1002.6047 1002.5883 1002.5788 1003.0922 1003.0455 1002.9907 1002.9354 1002.8876 1002.8511 1002.8256 1002.8088 1002.7988 1003.709 1003.6839 1003.6444 1003.5991 1003.557 1003.5229 1003.4984 1003.4818 1003.4719 1005.4041 1005.4138 1005.4024 1005.3771 1005.3475 1005.3208 1005.2999 1005.2847 1005.2755 1008.8016 1008.8544 1008.8786 1008.8805 1008.8701 1008.8552 1008.8401 1008.828 1008.8197 1012.9742 1013.0657 1013.1243 1013.1539 1013.1642 1013.1634 1013.1569 1013.1484 1013.1412 1015.5917 1015.7028 1015.7828 1015.8332 1015.8618 1015.8738 1015.8754 1015.8706 1015.8647 1015.9376 1016.0419 1016.1226 1016.181 1016.2197 1016.2417 1016.25 1016.2491 1016.2449 1015.1005 1015.1739 1015.2366 1015.2892 1015.3297 1015.3569 1015.3701 1015.3721 1015.3692 1014.25 1014.2757 1014.3091 1014.3456 1014.3798 1014.4053 1014.4186 1014.4208 1014.4175 1013.9175 1013.8994 1013.9024 1013.9185 1013.9392 1013.9557 1013.9628 1013.9601 1013.9536 1014.0829 1014.038 1014.0197 1014.0184 1014.0242 1014.0281 1014.0245 1014.0138 1014.0015 1014.511 1014.4615 1014.4376 1014.4283 1014.4244 1014.4181 1014.4043 1014.3848 1014.3671 1014.9752 1014.942 1014.9289 1014.924 1014.9194 1014.9091 1014.8896 1014.8649 1014.8433 1015.1 1015.0974 1015.1066 1015.1161 1015.1204 1015.114 1015.0956 1015.0701 1015.0474 1014.9343 1014.9678 1015.0048 1015.0352 1015.0539 1015.0577 1015.0457 1015.0243 1015.0037 1014.6241 1014.694 1014.7581 1014.8087 1014.8431 1014.8589 1014.8564 1014.8412 1014.8249 1014.2711 1014.372 1014.4565 1014.5211 1014.5671 1014.5923 1014.5977 1014.5895 1014.577 1013.8779 1013.999 1014.0921 1014.1605 1014.2094 1014.2379 1014.2474 1014.2424 1014.2326 1013.3682 1013.4954 1013.5847 1013.6465 1013.6893 1013.715 1013.7236 1013.72 1013.7112 1012.6635 1012.786 1012.8632 1012.912 1012.9445 1012.9638 1012.9695 1012.9655 1012.9575 1011.7465 1011.8592 1011.9226 1011.958 1011.98 1011.9933 1011.9973 1011.9929 1011.9861 1010.6656 1010.7696 1010.8227 1010.8487 1010.8644 1010.874 1010.8773 1010.8745 1010.8694 1009.5056 1009.6053 1009.6546 1009.6788 1009.6931 1009.7023 1009.7068 1009.7065 1009.7042 1008.3539 1008.4528 1008.5074 1008.5365 1008.5545 1008.5663 1008.5732 1008.5762 1008.5762 1007.2764 1007.3748 1007.4409 1007.4826 1007.5093 1007.5263 1007.5365 1007.5421 1007.5443 1006.3104 1006.4023 1006.4811 1006.5407 1006.5814 1006.6072 1006.6224 1006.631 1006.635 1005.4694 1005.5452 1005.6289 1005.707 1005.767 1005.807 1005.8309 1005.8442 1005.8503 1004.7601 1004.8071 1004.8814 1004.9685 1005.048 1005.1076 1005.1461 1005.1683 1005.1793 1004.1851 1004.1951 1004.2431 1004.3213 1004.4083 1004.4849 1004.5414 1004.5775 1004.5967 1003.7323 1003.718 1003.7272 1003.7761 1003.8505 1003.9292 1003.9965 1004.045 1004.0736 1003.3286 1003.3585 1003.3458 1003.352 1003.3911 1003.4498 1003.5107 1003.5609 1003.5936 1002.8722 1003.0093 1003.0664 1003.0588 1003.0518 1003.0688 1003.1025 1003.1387 1003.1655 1002.3544 1002.5681 1002.7333 1002.8195 1002.8264 1002.806 1002.7975 1002.8035 1002.8138 1002.05 1002.1686 1002.3018 1002.4431 1002.5491 1002.5939 1002.5916 1002.5772 1002.5697 1002.0959 1002.0635 1002.1116 1002.1592 1002.2197 1002.262 1002.2885 1002.2993 1002.1272 1002.0491 1002.0466 1002.0183 1001.9963 1001.9785 1002.2416 1002.2081 1002.1794 1002.1533 1000.1285 1000.1285 1000.1285 1000.1285 1000.1282 1000.1275 1000.1267 1000.1248 1000.151 1000.151 1000.1511 1000.1509 1000.1509 1000.1501 1000.1493 1000.1474 1000.1697 1000.1697 1000.1698 1000.1699 1000.1697 1000.1695 1000.1685 1000.167 1000.1875 1000.1875 1000.1876 1000.1879 1000.188 1000.188 1000.1872 1000.186 1000.207 1000.2071 1000.2075 1000.2077 1000.2081 1000.2085 1000.2083 1000.2078 1000.2305 1000.2307 1000.231 1000.2316 1000.2326 1000.2332 1000.2337 1000.2337 1000.2584 1000.2587 1000.2593 1000.2603 1000.2615 1000.2628 1000.2643 1000.2649 1000.2913 1000.2919 1000.2925 1000.2939 1000.2956 1000.2975 1000.2997 1000.3013 1000.3294 1000.3298 1000.3307 1000.3323 1000.3348 1000.3375 1000.3403 1000.3432 1000.3723 1000.3729 1000.374 1000.3761 1000.3788 1000.3823 1000.386 1000.39 1000.4213 1000.4218 1000.4232 1000.4255 1000.4287 1000.4327 1000.4376 1000.4423 1000.4763 1000.4767 1000.4783 1000.481 1000.4844 1000.4891 1000.4945 1000.5002 1000.5381 1000.5387 1000.5405 1000.5433 1000.5473 1000.5521 1000.558 1000.5641 1000.6079 1000.6085 1000.6103 1000.6132 1000.6173 1000.6225 1000.6287 1000.6348 1000.686 1000.6865 1000.6882 1000.6914 1000.6953 1000.701 1000.707 1000.7133 1000.7736 1000.7742 1000.7759 1000.779 1000.7834 1000.7888 1000.7945 1000.8004 1000.8715 1000.8722 1000.8738 1000.8769 1000.8813 1000.8864 1000.8922 1000.898 1000.981 1000.9815 1000.9832 1000.9863 1000.9907 1000.9955 1001.0016 1001.0071 1001.1021 1001.1028 1001.1047 1001.1077 1001.1119 1001.1171 1001.1232 1001.1293 1001.2357 1001.2365 1001.2385 1001.2416 1001.2462 1001.2518 1001.2584 1001.2651 1001.3819 1001.3826 1001.3846 1001.3884 1001.3936 1001.4 1001.4078 1001.4158 1001.5395 1001.5403 1001.543 1001.5474 1001.5536 1001.5616 1001.5711 1001.5816 1001.7074 1001.7084 1001.7119 1001.7175 1001.7253 1001.7354 1001.7479 1001.7616 1001.8837 1001.8851 1001.8891 1001.8964 1001.9064 1001.9198 1001.9362 1001.9548 1002.0604 1002.062 1002.0673 1002.0763 1002.0892 1002.1064 1002.1283 1002.1538 1002.2249 1002.2272 1002.2332 1002.2446 1002.2604 1002.2824 1002.3107 1002.3437 1002.3654 1002.3682 1002.3755 1002.3887 1002.4083 1002.4351 1002.4702 1002.5126 1002.4733 1002.4763 1002.4848 1002.5 1002.5225 1002.5541 1002.5959 1002.6468 1002.5756 1002.5788 1002.5883 1002.6047 1002.6296 1002.665 1002.7117 1002.768 1002.7954 1002.7988 1002.8088 1002.8256 1002.8511 1002.8876 1002.9354 1002.9907 1003.4686 1003.4719 1003.4818 1003.4984 1003.5229 1003.557 1003.5991 1003.6444 1005.2722 1005.2755 1005.2847 1005.2999 1005.3208 1005.3475 1005.3771 1005.4024 1008.8167 1008.8197 1008.828 1008.8401 1008.8552 1008.8701 1008.8805 1008.8786 1013.1386 1013.1412 1013.1484 1013.1569 1013.1634 1013.1642 1013.1539 1013.1243 1015.8625 1015.8647 1015.8706 1015.8754 1015.8738 1015.8618 1015.8332 1015.7828 1016.2427 1016.2449 1016.2491 1016.25 1016.2417 1016.2197 1016.181 1016.1226 1015.3672 1015.3692 1015.3721 1015.3701 1015.3569 1015.3297 1015.2892 1015.2366 1014.4153 1014.4175 1014.4208 1014.4186 1014.4053 1014.3798 1014.3456 1014.3091 1013.9504 1013.9536 1013.9601 1013.9628 1013.9557 1013.9392 1013.9185 1013.9024 1013.9963 1014.0015 1014.0138 1014.0245 1014.0281 1014.0242 1014.0184 1014.0197 1014.36 1014.3671 1014.3848 1014.4043 1014.4181 1014.4244 1014.4283 1014.4376 1014.8347 1014.8433 1014.8649 1014.8896 1014.9091 1014.9194 1014.924 1014.9289 1015.0386 1015.0474 1015.0701 1015.0956 1015.114 1015.1204 1015.1161 1015.1066 1014.9955 1015.0037 1015.0243 1015.0457 1015.0577 1015.0539 1015.0352 1015.0048 1014.8179 1014.8248 1014.8412 1014.8564 1014.8589 1014.8431 1014.8087 1014.7581 1014.571 1014.577 1014.5895 1014.5977 1014.5923 1014.5671 1014.5211 1014.4565 1014.2279 1014.2326 1014.2424 1014.2474 1014.2379 1014.2094 1014.1605 1014.0921 1013.707 1013.7112 1013.72 1013.7236 1013.715 1013.6893 1013.6465 1013.5847 1012.9537 1012.9575 1012.9655 1012.9695 1012.9638 1012.9445 1012.912 1012.8632 1011.983 1011.9861 1011.9929 1011.9973 1011.9933 1011.98 1011.958 1011.9226 1010.8669 1010.8694 1010.8745 1010.8773 1010.874 1010.8644 1010.8487 1010.8227 1009.7028 1009.7042 1009.7065 1009.7068 1009.7023 1009.6931 1009.6788 1009.6546 1008.5759 1008.5762 1008.5762 1008.5732 1008.5663 1008.5545 1008.5365 1008.5074 1007.5449 1007.5443 1007.5421 1007.5365 1007.5263 1007.5093 1007.4826 1007.4409 1006.6361 1006.635 1006.631 1006.6224 1006.6072 1006.5814 1006.5407 1006.4811 1005.8521 1005.8503 1005.8442 1005.8309 1005.807 1005.767 1005.707 1005.6289 1005.1826 1005.1793 1005.1683 1005.1461 1005.1076 1005.048 1004.9685 1004.8814 1004.6029 1004.5967 1004.5775 1004.5414 1004.4849 1004.4083 1004.3213 1004.2431 1004.0829 1004.0736 1004.045 1003.9965 1003.9292 1003.8505 1003.7761 1003.7272 1003.6047 1003.5936 1003.5609 1003.5107 1003.4498 1003.3911 1003.352 1003.3458 1003.1751 1003.1655 1003.1387 1003.1025 1003.0688 1003.0518 1003.0588 1003.0664 1002.8183 1002.8138 1002.8035 1002.7975 1002.806 1002.8264 1002.8195 1002.7333 1002.5678 1002.5697 1002.5772 1002.5915 1002.5939 1002.5491 1002.4431 1002.3018 1002.3032 1002.2993 1002.2885 1002.262 1002.2197 1002.1592 1002.1116 1002.0635 1001.9717 1001.9785 1001.9963 1002.0183 1002.0466 1002.0491 1002.1272 1002.1422 1002.1533 1002.1794 1002.2081 1002.2416 1000.1223 1000.1183 1000.1132 1000.1062 1000.097 1000.0854 1000.0716 1000.1447 1000.1404 1000.1348 1000.1271 1000.1168 1000.1038 1000.0879 1000.0693 1000.1641 1000.16 1000.1542 1000.1461 1000.1352 1000.1208 1000.1028 1000.082 1000.1837 1000.1799 1000.1741 1000.166 1000.1542 1000.1385 1000.1187 1000.0948 1000.2058 1000.2025 1000.1969 1000.1888 1000.1763 1000.1591 1000.1369 1000.1102 1000.2325 1000.2297 1000.2247 1000.2164 1000.2035 1000.1854 1000.1613 1000.1312 1000.2646 1000.2627 1000.2584 1000.2502 1000.2382 1000.2211 1000.1967 1000.1647 1000.3022 1000.3015 1000.2979 1000.2919 1000.2828 1000.2696 1000.25 1000.2183 1000.3452 1000.3453 1000.3441 1000.3411 1000.3381 1000.3342 1000.3258 1000.3001 1000.3933 1000.395 1000.3956 1000.3972 1000.4025 1000.4128 1000.423 1000.4141 1000.4467 1000.4496 1000.4523 1000.4579 1000.4719 1000.4977 1000.5313 1000.549 1000.5053 1000.5091 1000.513 1000.5214 1000.5411 1000.5783 1000.6291 1000.6584 1000.5696 1000.5736 1000.5775 1000.5861 1000.6062 1000.6428 1000.6848 1000.6824 1000.6401 1000.644 1000.647 1000.653 1000.668 1000.6932 1000.7089 1000.6825 1000.7184 1000.7213 1000.7232 1000.7262 1000.7335 1000.7444 1000.7402 1000.7106 1000.8049 1000.8076 1000.8082 1000.8083 1000.8097 1000.8102 1000.7979 1000.7719 1000.9022 1000.9041 1000.9041 1000.9026 1000.9006 1000.8969 1000.8832 1000.8615 1001.0114 1001.0132 1001.0126 1001.0101 1001.007 1001.0025 1000.9902 1000.9717 1001.1337 1001.1357 1001.135 1001.1324 1001.1288 1001.1249 1001.1138 1001.0964 1001.2705 1001.2734 1001.2731 1001.2707 1001.2672 1001.2645 1001.2546 1001.2365 1001.4227 1001.4271 1001.4281 1001.4266 1001.4239 1001.4227 1001.4143 1001.3954 1001.5909 1001.5978 1001.601 1001.6014 1001.6006 1001.6019 1001.5956 1001.5771 1001.7748 1001.7851 1001.7921 1001.7963 1001.7992 1001.8044 1001.8007 1001.7838 1001.9736 1001.9896 1002.0018 1002.0115 1002.0212 1002.0324 1002.0321 1002.0181 1002.1796 1002.2029 1002.2232 1002.2413 1002.2614 1002.2836 1002.2877 1002.2762 1002.3788 1002.412 1002.4417 1002.4712 1002.5065 1002.5465 1002.5573 1002.5471 1002.5579 1002.6011 1002.6412 1002.6828 1002.7374 1002.8055 1002.8278 1002.8165 1002.701 1002.7526 1002.8006 1002.8526 1002.9284 1003.0343 1003.0768 1003.0636 1002.827 1002.8811 1002.9301 1002.9855 1003.0793 1003.2284 1003.3016 1003.2875 1003.0455 1003.0922 1003.1305 1003.1779 1003.2778 1003.4626 1003.5692 1003.5574 1003.6839 1003.709 1003.7224 1003.7451 1003.8319 1004.0195 1004.1394 1004.1319 1005.4138 1005.4041 1005.3777 1005.3614 1005.4143 1005.5519 1005.604 1005.5922 1008.8544 1008.8016 1008.7284 1008.6667 1008.6473 1008.6323 1008.5569 1008.5139 1013.0657 1012.9742 1012.8614 1012.7485 1012.6048 1012.386 1012.2004 1012.1147 1015.7028 1015.5917 1015.46 1015.3052 1015.0444 1014.7212 1014.5094 1014.4174 1016.0419 1015.9376 1015.813 1015.6401 1015.3397 1015.0399 1014.9095 1014.8567 1015.1739 1015.1005 1015.0081 1014.8658 1014.6304 1014.4601 1014.4779 1014.4966 1014.2757 1014.25 1014.2291 1014.194 1014.122 1014.1252 1014.1743 1014.2822 1013.8994 1013.9175 1013.962 1014.0251 1014.0944 1014.235 1014.2642 1014.4732 1014.038 1014.083 1014.1663 1014.2873 1014.4352 1014.6359 1014.6585 1014.9407 1014.4615 1014.511 1014.6016 1014.7348 1014.8978 1015.1013 1015.1309 1015.4529 1014.942 1014.9752 1015.0463 1015.1548 1015.2839 1015.4584 1015.5002 1015.832 1015.0974 1015.1 1015.1348 1015.1996 1015.2786 1015.4215 1015.4692 1015.7855 1014.9678 1014.9343 1014.9241 1014.9368 1014.9617 1015.0687 1015.1061 1015.3866 1014.694 1014.6241 1014.5667 1014.5231 1014.491 1014.5501 1014.5574 1014.7855 1014.372 1014.2711 1014.1683 1014.0682 1013.9756 1013.9691 1013.9253 1014.0831 1013.999 1013.8779 1013.7368 1013.5876 1013.4338 1013.3469 1013.2274 1013.3005 1013.4954 1013.3682 1013.2028 1013.0104 1012.8115 1012.6411 1012.4343 1012.4095 1012.786 1012.6635 1012.4876 1012.2624 1012.0225 1011.798 1011.5063 1011.3868 1011.8592 1011.7465 1011.5697 1011.3279 1011.0499 1010.7997 1010.4523 1010.26 1010.7696 1010.6656 1010.4931 1010.2498 1009.9551 1009.6923 1009.3329 1009.0974 1009.6053 1009.5056 1009.3403 1009.1073 1008.8201 1008.5667 1008.2264 1007.9822 1008.4528 1008.3539 1008.2009 1007.9886 1007.7288 1007.4964 1007.1889 1006.9374 1007.3748 1007.2764 1007.1422 1006.9629 1006.741 1006.5266 1006.2165 1005.8609 1006.4023 1006.3104 1006.2038 1006.0655 1005.899 1005.7075 1005.3557 1004.8958 1005.5452 1005.4694 1005.3992 1005.3112 1005.2093 1005.0515 1004.6306 1004.8071 1004.7601 1004.7315 1004.6921 1004.6426 1004.4534 1004.0087 1004.1951 1004.1851 1004.1869 1004.1637 1004.1082 1003.8214 1003.718 1003.7323 1003.7168 1003.6609 1003.4863 1003.2126 1003.3585 1003.3286 1003.2331 1003.0874 1002.8473 1003.0093 1002.8722 1002.6526 1002.4883 1002.5681 1002.3544 1002.1115 1002.2764 1002.1686 1002.05 1002.0959 
Mass 1 2975 float
0.40000001 0.40000001 0.40000001 0.40000001 0.40000001 0.40000001 0.40000001 0.40000001 0.40000001 0.40000001 0.40000001 0.40000001 0.40000001 0.40000001 0.40000001 0.40000001 0.40000001 0.40000001 0.40000001 0.40000001 0.40000001 0.40000001 0.40000001 0.40000001 0.40000001 0.40000001 0.40000001 0.40000001 0.40000001 0.40000001 0.40000001 0.40000001 0.40000001 0.40000001 0.40000001 0.40000001 0.40000001 0.40000001 0.40000001 0.40000001 0.40000001 0.40000001 0.40000001 0.40000001 0.40000001 0.40000001 0.40000001 0.40000001 0.40000001 0.40000001 0.40000001 0.40000001 0.40000001 0.40000001 0.40000001 0.40000001 0.40000001 0.40000001 0.40000001 0.40000001 0.40000001 0.40000001 0.40000001 0.40000001 0.40000001 0.40000001 0.40000001 0.40000001 0.40000001 0.40000001 0.40000001 0.40000001 0.40000001 0.40000001 0.40000001 0.40000001 0.40000001 0.40000001 0.40000001 0.40000001 0.40000001 0.40000001 0.40000001 0.40000001 0.40000001 0.40000001 0.40000001 0.40000001 0.40000001 0.40000001 0.40000001 0.40000001 0.40000001 0.40000001 0.40000001 0.40000001 0.40000001 0.40000001 0.40000001 0.40000001 0.40000001 0.40000001 0.40000001 0.40000001 0.40000001 0.40000001 0.40000001 0.40000001 0.40000001 0.40000001 0.40000001 0.40000001 0.40000001 0.40000001 0.40000001 0.40000001 0.40000001 0.40000001 0.40000001 0.40000001 0.40000001 0.40000001 0.40000001 0.40000001 0.40000001 0.40000001 0.40000001 0.40000001 0.40000001 0.40000001 0.40000001 0.40000001 0.40000001 0.40000001 0.40000001 0.40000001 0.40000001 0.40000001 0.40000001 0.40000001 0.40000001 0.40000001 0.40000001 0.40000001 0.40000001 0.40000001 0.40000001 0.40000001 0.40000001 0.40000001 0.40000001 0.40000001 0.40000001 0.40000001 0.40000001 0.40000001 0.40000001 0.40000001 0.40000001 0.40000001 0.40000001 0.40000001 0.40000001 0.40000001 0.40000001 0.40000001 0.40000001 0.40000001 0.40000001 0.40000001 0.40000001 0.40000001 0.40000001 0.40000001 0.40000001 0.40000001 0.40000001 0.40000001 0.40000001 0.40000001 0.40000001 0.40000001 0.40000001 0.40000001 0.40000001 0.40000001 0.40000001 0.40000001 0.40000001 0.40000001 0.40000001 0.40000001 0.40000001 0.40000001 0.40000001 0.40000001 0.40000001 0.40000001 0.40000001 0.40000001 0.40000001 0.40000001 0.40000001 0.40000001 0.40000001 0.40000001 0.40000001 0.40000001 0.40000001 0.40000001 0.40000001 0.40000001 0.40000001 0.40000001 0.40000001 0.40000001 0.40000001 0.40000001 0.40000001 0.40000001 0.40000001 0.40000001 0.40000001 0.40000001 0.40000001 0.40000001 0.40000001 0.40000001 0.40000001 0.40000001 0.40000001 0.40000001 0.40000001 0.40000001 0.40000001 0.40000001 0.40000001 0.40000001 0.40000001 0.40000001 0.40000001 0.40000001 0.40000001 0.40000001 0.40000001 0.40000001 0.40000001 0.40000001 0.40000001 0.40000001 0.40000001 0.40000001 0.40000001 0.40000001 0.40000001 0.40000001 0.40000001 0.40000001 0.40000001 0.40000001 0.40000001 0.40000001 0.40000001 0.40000001 0.40000001 0.40000001 0.40000001 0.40000001 0.40000001 0.40000001 0.40000001 0.40000001 0.40000001 0.40000001 0.40000001 0.40000001 0.40000001 0.40000001 0.40000001 0.40000001 0.40000001 0.40000001 0.40000001 0.40000001 0.40000001 0.40000001 0.40000001 0.40000001 0.40000001 0.40000001 0.40000001 0.40000001 0.40000001 0.40000001 0.40000001 0.40000001 0.40000001 0.40000001 0.40000001 0.40000001 0.40000001 0.40000001 0.40000001 0.40000001 0.40000001 0.40000001 0.40000001 0.40000001 0.40000001 0.40000001 0.40000001 0.40000001 0.40000001 0.40000001 0.40000001 0.40000001 0.40000001 0.40000001 0.40000001 0.40000001 0.40000001 0.40000001 0.40000001 0.40000001 0.40000001 0.40000001 0.40000001 0.40000001 0.40000001 0.40000001 0.40000001 0.40000001 0.40000001 0.40000001 0.40000001 0.40000001 0.40000001 0.40000001 0.40000001 0.40000001 0.40000001 0.40000001 0.40000001 0.40000001 0.40000001 0.40000001 0.40000001 0.40000001 0.40000001 0.40000001 0.40000001 0.40000001 0.40000001 0.40000001 0.40000001 0.40000001 0.40000001 0.40000001 0.40000001 0.40000001 0.40000001 0.40000001 0.40000001 0.40000001 0.40000001 0.40000001 0.40000001 0.40000001 0.40000001 0.40000001 0.40000001 0.40000001 0.40000001 0.40000001 0.40000001 0.40000001 0.40000001 0.40000001 0.40000001 0.40000001 0.40000001 0.40000001 0.40000001 0.40000001 0.40000001 0.40000001 0.40000001 0.40000001 0.40000001 0.40000001 0.40000001 0.40000001 0.40000001 0.40000001 0.40000001 0.40000001 0.40000001 0.40000001 0.40000001 0.40000001 0.40000001 0.40000001 0.40000001 0.40000001 0.40000001 0.40000001 0.40000001 0.40000001 0.40000001 0.40000001 0.40000001 0.40000001 0.40000001 0.40000001 0.40000001 0.40000001 0.40000001 0.40000001 0.40000001 0.40000001 0.40000001 0.40000001 0.40000001 0.40000001 0.40000001 0.40000001 0.40000001 0.40000001 0.40000001 0.40000001 0.40000001 0.40000001 0.40000001 0.40000001 0.40000001 0.40000001 0.40000001 0.40000001 0.40000001 0.40000001 0.40000001 0.40000001 0.40000001 0.40000001 0.40000001 0.40000001 0.40000001 0.40000001 0.40000001 0.40000001 0.40000001 0.40000001 0.40000001 0.40000001 0.40000001 0.40000001 0.40000001 0.40000001 0.40000001 0.40000001 0.40000001 0.40000001 0.40000001 0.40000001 0.40000001 0.40000001 0.40000001 0.40000001 0.40000001 0.40000001 0.40000001 0.40000001 0.40000001 0.40000001 0.40000001 0.40000001 0.40000001 0.40000001 0.40000001 0.40000001 0.40000001 0.40000001 0.40000001 0.40000001 0.40000001 0.40000001 0.40000001 0.40000001 0.40000001 0.40000001 0.40000001 0.40000001 0.40000001 0.40000001 0.40000001 0.40000001 0.40000001 0.40000001 0.40000001 0.40000001 0.40000001 0.40000001 0.40000001 0.40000001 0.40000001 0.40000001 0.40000001 0.40000001 0.40000001 0.40000001 0.40000001 0.40000001 0.40000001 0.40000001 0.40000001 0.40000001 0.40000001 0.40000001 0.40000001 0.40000001 0.40000001 0.40000001 0.40000001 0.40000001 0.40000001 0.40000001 0.40000001 0.40000001 0.40000001 0.40000001 0.40000001 0.40000001 0.40000001 0.40000001 0.40000001 0.40000001 0.40000001 0.40000001 0.40000001 0.40000001 0.40000001 0.40000001 0.40000001 0.40000001 0.40000001 0.40000001 0.40000001 0.40000001 0.40000001 0.40000001 0.40000001 0.40000001 0.40000001 0.40000001 0.40000001 0.40000001 0.40000001 0.40000001 0.40000001 0.40000001 0.40000001 0.40000001 0.40000001 0.40000001 0.40000001 0.40000001 0.40000001 0.40000001 0.40000001 0.40000001 0.40000001 0.40000001 0.40000001 0.40000001 0.40000001 0.40000001 0.40000001 0.40000001 0.40000001 0.40000001 0.40000001 0.40000001 0.40000001 0.40000001 0.40000001 0.40000001 0.40000001 0.40000001 0.40000001 0.40000001 0.40000001 0.40000001 0.40000001 0.40000001 0.40000001 0.40000001 0.40000001 0.40000001 0.40000001 0.40000001 0.40000001 0.40000001 0.40000001 0.40000001 0.40000001 0.40000001 0.40000001 0.40000001 0.40000001 0.40000001 0.40000001 0.40000001 0.40000001 0.40000001 0.40000001 0.40000001 0.40000001 0.40000001 0.40000001 0.40000001 0.40000001 0.40000001 0.40000001 0.40000001 0.40000001 0.40000001 0.40000001 0.40000001 0.40000001 0.40000001 0.40000001 0.40000001 0.40000001 0.40000001 0.40000001 0.40000001 0.40000001 0.40000001 0.40000001 0.40000001 0.40000001 0.40000001 0.40000001 0.40000001 0.40000001 0.40000001 0.40000001 0.40000001 0.40000001 0.40000001 0.40000001 0.40000001 0.40000001 0.40000001 0.40000001 0.40000001 0.40000001 0.40000001 0.40000001 0.40000001 0.40000001 0.40000001 0.40000001 0.40000001 0.40000001 0.40000001 0.40000001 0.40000001 0.40000001 0.40000001 0.40000001 0.40000001 0.40000001 0.40000001 0.40000001 0.40000001 0.40000001 0.40000001 0.40000001 0.40000001 0.40000001 0.40000001 0.40000001 0.40000001 0.40000001 0.40000001 0.40000001 0.40000001 0.40000001 0.40000001 0.40000001 0.40000001 0.40000001 0.40000001 0.40000001 0.40000001 0.40000001 0.40000001 0.40000001 0.40000001 0.40000001 0.40000001 0.40000001 0.40000001 0.40000001 0.40000001 0.40000001 0.40000001 0.40000001 0.40000001 0.40000001 0.40000001 0.40000001 0.40000001 0.40000001 0.40000001 0.40000001 0.40000001 0.40000001 0.40000001 0.40000001 0.40000001 0.40000001 0.40000001 0.40000001 0.40000001 0.40000001 0.40000001 0.40000001 0.40000001 0.40000001 0.40000001 0.40000001 0.40000001 0.40000001 0.40000001 0.40000001 0.40000001 0.40000001 0.40000001 0.40000001 0.40000001 0.40000001 0.40000001 0.40000001 0.40000001 0.40000001 0.40000001 0.40000001 0.40000001 0.40000001 0.40000001 0.40000001 0.40000001 0.40000001 0.40000001 0.40000001 0.40000001 0.40000001 0.40000001 0.40000001 0.40000001 0.40000001 0.40000001 0.40000001 0.40000001 0.40000001 0.40000001 0.40000001 0.40000001 0.40000001 0.40000001 0.40000001 0.40000001 0.40000001 0.40000001 0.40000001 0.40000001 0.40000001 0.40000001 0.40000001 0.40000001 0.40000001 0.40000001 0.40000001 0.40000001 0.40000001 0.40000001 0.40000001 0.40000001 0.40000001 0.40000001 0.40000001 0.40000001 0.40000001 0.40000001 0.40000001 0.40000001 0.40000001 0.40000001 0.40000001 0.40000001 0.40000001 0.40000001 0.40000001 0.40000001 0.40000001 0.40000001 0.40000001 0.40000001 0.40000001 0.40000001 0.40000001 0.40000001 0.40000001 0.40000001 0.40000001 0.40000001 0.40000001 0.40000001 0.40000001 0.40000001 0.40000001 0.40000001 0.40000001 0.40000001 0.40000001 0.40000001 0.40000001 0.40000001 0.40000001 0.40000001 0.40000001 0.40000001 0.40000001 0.40000001 0.40000001 0.40000001 0.40000001 0.40000001 0.40000001 0.40000001 0.40000001 0.40000001 0.40000001 0.40000001 0.40000001 0.40000001 0.40000001 0.40000001 0.40000001 0.40000001 0.40000001 0.40000001 0.40000001 0.40000001 0.40000001 0.40000001 0.40000001 0.40000001 0.40000001 0.40000001 0.40000001 0.40000001 0.40000001 0.40000001 0.40000001 0.40000001 0.40000001 0.40000001 0.40000001 0.40000001 0.40000001 0.40000001 0.40000001 0.40000001 0.40000001 0.40000001 0.40000001 0.40000001 0.40000001 0.40000001 0.40000001 0.40000001 0.40000001 0.40000001 0.40000001 0.40000001 0.40000001 0.40000001 0.40000001 0.40000001 0.40000001 0.40000001 0.40000001 0.40000001 0.40000001 0.40000001 0.40000001 0.40000001 0.40000001 0.40000001 0.40000001 0.40000001 0.40000001 0.40000001 0.40000001 0.40000001 0.40000001 0.40000001 0.40000001 0.40000001 0.40000001 0.40000001 0.40000001 0.40000001 0.40000001 0.40000001 0.40000001 0.40000001 0.40000001 0.40000001 0.40000001 0.40000001 0.40000001 0.40000001 0.40000001 0.40000001 0.40000001 0.40000001 0.40000001 0.40000001 0.40000001 0.40000001 0.40000001 0.40000001 0.40000001 0.40000001 0.40000001 0.40000001 0.40000001 0.40000001 0.40000001 0.40000001 0.40000001 0.40000001 0.40000001 0.40000001 0.40000001 0.40000001 0.40000001 0.40000001 0.40000001 0.40000001 0.40000001 0.40000001 0.40000001 0.40000001 0.40000001 0.40000001 0.40000001 0.40000001 0.40000001 0.40000001 0.40000001 0.40000001 0.40000001 0.40000001 0.40000001 0.40000001 0.40000001 0.40000001 0.40000001 0.40000001 0.40000001 0.40000001 0.40000001 0.40000001 0.40000001 0.40000001 0.40000001 0.40000001 0.40000001 0.40000001 0.40000001 0.40000001 0.40000001 0.40000001 0.40000001 0.40000001 0.40000001 0.40000001 0.40000001 0.40000001 0.40000001 0.40000001 0.40000001 0.40000001 0.40000001 0.40000001 0.40000001 0.40000001 0.40000001 0.40000001 0.40000001 0.40000001 0.40000001 0.40000001 0.40000001 0.40000001 0.40000001 0.40000001 0.40000001 0.40000001 0.40000001 0.40000001 0.40000001 0.40000001 0.40000001 0.40000001 0.40000001 0.40000001 0.40000001 0.40000001 0.40000001 0.40000001 0.40000001 0.40000001 0.40000001 0.40000001 0.40000001 0.40000001 0.40000001 0.40000001 0.40000001 0.40000001 0.40000001 0.40000001 0.40000001 0.40000001 0.40000001 0.40000001 0.40000001 0.40000001 0.40000001 0.40000001 0.40000001 0.40000001 0.40000001 0.40000001 0.40000001 0.40000001 0.40000001 0.40000001 0.40000001 0.40000001 0.40000001 0.40000001 0.40000001 0.40000001 0.40000001 0.40000001 0.40000001 0.40000001 0.40000001 0.40000001 0.40000001 0.40000001 0.40000001 0.40000001 0.40000001 0.40000001 0.40000001 0.40000001 0.40000001 0.40000001 0.40000001 0.40000001 0.40000001 0.40000001 0.40000001 0.40000001 0.40000001 0.40000001 0.40000001 0.40000001 0.40000001 0.40000001 0.40000001 0.40000001 0.40000001 0.40000001 0.40000001 0.40000001 0.40000001 0.40000001 0.40000001 0.40000001 0.40000001 0.40000001 0.40000001 0.40000001 0.40000001 0.40000001 0.40000001 0.40000001 0.40000001 0.40000001 0.40000001 0.40000001 0.40000001 0.40000001 0.40000001 0.40000001 0.40000001 0.40000001 0.40000001 0.40000001 0.40000001 0.40000001 0.40000001 0.40000001 0.40000001 0.40000001 0.40000001 0.40000001 0.40000001 0.40000001 0.40000001 0.40000001 0.40000001 0.40000001 0.40000001 0.40000001 0.40000001 0.40000001 0.40000001 0.40000001 0.40000001 0.40000001 0.40000001 0.40000001 0.40000001 0.40000001 0.40000001 0.40000001 0.40000001 0.40000001 0.40000001 0.40000001 0.40000001 0.40000001 0.40000001 0.40000001 0.40000001 0.40000001 0.40000001 0.40000001 0.40000001 0.40000001 0.40000001 0.40000001 0.40000001 0.40000001 0.40000001 0.40000001 0.40000001 0.40000001 0.40000072 0.40000084 0.40000084 0.40000072 0.40000081 0.40000084 0.40000227 0.40000224 0.40000236 0.40000218 0.4000023 0.40000227 0.40000534 0.40000543 0.40000537 0.4000054 0.40000534 0.40000546 0.40001476 0.40001476 0.40001458 0.40001473 0.40001467 0.4000147 0.40003961 0.40003958 0.40003964 0.40003964 0.40003973 0.4000397 0.40010655 0.40010661 0.40010658 0.40010661 0.40010682 0.40010673 0.40028414 0.40028432 0.40028438 0.40028441 0.40028447 0.40028465 0.40073517 0.40073544 0.40073574 0.40073606 0.40073642 0.40073636 0.40177003 0.40177086 0.40177161 0.4017722 0.4017728 0.40177307 0.40367714 0.40367869 0.40367967 0.40368047 0.40368131 0.40368184 0.40609765 0.40609914 0.40609962 0.4060998 0.40610015 0.40610066 0.4080506 0.40805104 0.40805084 0.40804994 0.4080492 0.40804899 0.40912944 0.40912896 0.40912825 0.40912682 0.4091253 0.40912449 0.40960369 0.40960366 0.40960327 0.40960154 0.40960008 0.4095993 0.40979025 0.40979049 0.40979043 0.40978935 0.40978831 0.40978751 0.40985954 0.40985993 0.4098601 0.40985948 0.40985885 0.40985817 0.40988383 0.40988445 0.40988451 0.40988412 0.40988374 0.40988326 0.40989065 0.40989128 0.40989125 0.40989095 0.40989071 0.4098902 0.40987706 0.40987775 0.40987781 0.40987751 0.409877 0.40987647 0.40971643 0.40971705 0.40971693 0.40971649 0.40971589 0.40971532 0.4094007 0.40940109 0.40940094 0.40940037 0.40939969 0.40939921 0.40894786 0.40894794 0.40894768 0.40894699 0.40894619 0.40894559 0.40838239 0.40838221 0.40838179 0.40838096 0.40838009 0.40837967 0.4077338 0.40773341 0.4077327 0.40773186 0.40773106 0.40773043 0.40703338 0.4070327 0.40703204 0.40703106 0.40703061 0.40703022 0.40631199 0.40631118 0.4063105 0.40630978 0.40630943 0.40630919 0.40559736 0.40559646 0.4055959 0.40559542 0.40559524 0.40559492 0.40491271 0.40491208 0.40491152 0.40491131 0.40491122 0.40491107 0.40427631 0.40427604 0.40427598 0.40427592 0.40427575 0.40427583 0.40370136 0.40370134 0.40370148 0.40370163 0.40370166 0.40370172 0.40319544 0.40319553 0.40319571 0.40319598 0.40319616 0.40319636 0.40276128 0.40276152 0.40276149 0.40276188 0.402762 0.40276235 0.40239745 0.40239742 0.40239775 0.40239802 0.4023982 0.40209904 0.40209916 0.40209928 0.4020994 0.40209967 0.40185988 0.40185988 0.40186009 0.4018603 0.40167227 0.4016723 0.40167236 0.40167254 0.40152818 0.40152824 0.40152827 0.40141991 0.40141982 0.40133983 0.40134007 0.40000001 0.40000001 0.40000001 0.40000001 0.40000001 0.40000001 0.40000001 0.40000001 0.40000001 0.40000001 0.40000001 0.40000001 0.40000001 0.40000001 0.40000001 0.40000001 0.40000001 0.40000001 0.40000001 0.40000001 0.40000001 0.40000001 0.40000001 0.40000001 0.40000001 0.40000001 0.40000001 0.40000001 0.40000001 0.40000001 0.40000001 0.40000001 0.40000001 0.40000001 0.40000001 0.40000001 0.40000001 0.40000001 0.40000001 0.40000001 0.40000001 0.40000001 0.40000001 0.40000001 0.40000001 0.40000001 0.40000001 0.40000001 0.40000001 0.40000001 0.40000001 0.40000001 0.40000001 0.40000001 0.40000001 0.40000001 0.40000001 0.40000001 0.40000001 0.40000001 0.40000001 0.40000001 0.40000001 0.40000001 0.40000001 0.40000001 0.40000001 0.40000001 0.40000001 0.40000001 0.40000001 0.40000001 0.40000001 0.40000001 0.40000001 0.40000001 0.40000001 0.40000001 0.40000001 0.40000001 0.40000001 0.40000001 0.40000001 0.40000001 0.40000001 0.40000001 0.40000001 0.40000001 0.40000001 0.40000001 0.40000001 0.40000001 0.40000001 0.40000001 0.40000001 0.40000001 0.40000001 0.40000001 0.40000001 0.40000001 0.40000001 0.40000001 0.40000001 0.40000001 0.40000001 0.40000001 0.40000001 0.40000001 0.40000001 0.40000001 0.40000001 0.40000001 0.40000001 0.40000001 0.40000001 0.40000001 0.40000001 0.40000001 0.40000001 0.40000001 0.40000001 0.40000001 0.40000001 0.40000001 0.40000001 0.40000001 0.40000001 0.40000001 0.40000001 0.40000001 0.40000001 0.40000001 0.40000001 0.40000001 0.40000001 0.40000001 0.40000001 0.40000001 0.40000001 0.40000001 0.40000001 0.40000001 0.40000001 0.40000001 0.40000001 0.40000001 0.40000001 0.40000001 0.40000001 0.40000001 0.40000001 0.40000001 0.40000001 0.40000001 0.40000001 0.40000001 0.40000001 0.40000001 0.40000001 0.40000001 0.40000001 0.40000001 0.40000001 0.40000001 0.40000001 0.40000001 0.40000001 0.40000001 0.40000001 0.40000001 0.40000001 0.40000001 0.40000001 0.40000001 0.40000001 0.40000001 0.40000001 0.40000001 0.40000001 0.40000001 0.40000001 0.40000001 0.40000001 0.40000001 0.40000001 0.40000001 0.40000001 0.40000001 0.40000001 0.40000001 0.40000001 0.40000001 0.40000001 0.40000001 0.40000001 0.40000001 0.40000001 0.40000001 0.40000001 0.40000001 0.40000001 0.40000001 0.40000001 0.40000001 0.40000001 0.40000001 0.40000001 0.40000081 0.40000078 0.40000084 0.40000084 0.40000078 0.40000075 0.40000072 0.40000072 0.40000072 0.4000023 0.40000239 0.40000236 0.40000233 0.40000242 0.40000218 0.40000242 0.4000023 0.40000224 0.4000054 0.40000522 0.40000531 0.40000525 0.40000528 0.40000531 0.40000525 0.4000054 0.4000054 0.40001476 0.40001482 0.40001482 0.40001473 0.40001476 0.4000147 0.40001485 0.40001479 0.40001476 0.40003952 0.40003976 0.40003937 0.40003958 0.4000397 0.40003973 0.40003973 0.40003976 0.40003964 0.40010667 0.40010685 0.40010676 0.40010682 0.40010682 0.40010682 0.40010694 0.40010706 0.40010694 0.40028471 0.40028462 0.40028477 0.4002848 0.40028486 0.40028489 0.40028498 0.40028507 0.40028495 0.40073651 0.40073678 0.40073693 0.40073702 0.40073714 0.40073743 0.40073755 0.40073746 0.40073758 0.40177336 0.40177396 0.40177444 0.40177456 0.40177497 0.40177521 0.40177542 0.40177548 0.4017756 0.40368259 0.4036831 0.40368366 0.4036842 0.40368474 0.40368512 0.40368539 0.40368563 0.40368572 0.40610096 0.40610158 0.406102 0.40610224 0.40610269 0.40610313 0.40610337 0.40610364 0.40610361 0.40804884 0.40804872 0.40804866 0.40804863 0.40804869 0.40804872 0.40804881 0.40804878 0.40804875 0.40912393 0.40912318 0.40912279 0.40912244 0.40912196 0.4091219 0.40912163 0.40912154 0.4091213 0.40959844 0.40959749 0.40959689 0.40959626 0.40959564 0.40959555 0.40959498 0.40959463 0.40959448 0.40978652 0.40978587 0.40978494 0.40978432 0.40978372 0.40978324 0.40978271 0.40978241 0.40978232 0.40985727 0.4098565 0.40985587 0.40985519 0.40985453 0.40985402 0.40985349 0.40985325 0.40985301 0.40988249 0.4098818 0.40988114 0.4098804 0.40987992 0.40987933 0.40987885 0.40987867 0.40987831 0.40988958 0.40988883 0.40988818 0.4098874 0.40988687 0.40988645 0.40988603 0.40988567 0.40988538 0.40987596 0.40987512 0.4098745 0.40987393 0.40987328 0.40987289 0.4098725 0.40987214 0.40987197 0.40971482 0.40971407 0.40971336 0.40971294 0.40971234 0.40971202 0.40971145 0.40971118 0.40971103 0.40939859 0.40939781 0.40939718 0.40939671 0.40939632 0.40939593 0.40939564 0.40939528 0.40939528 0.40894505 0.40894422 0.40894398 0.40894344 0.40894306 0.4089427 0.40894243 0.40894228 0.40894213 0.40837908 0.40837839 0.40837812 0.40837783 0.40837732 0.40837705 0.4083769 0.40837678 0.40837681 0.40773004 0.40772974 0.40772936 0.40772918 0.407729 0.40772885 0.40772855 0.40772858 0.40772846 0.4070299 0.40702969 0.40702954 0.40702936 0.40702939 0.40702927 0.40702915 0.40702921 0.40702918 0.40630901 0.40630877 0.40630877 0.40630874 0.40630874 0.40630874 0.40630871 0.40630877 0.40630865 0.40559494 0.40559489 0.40559492 0.40559494 0.405595 0.40559512 0.40559503 0.40559503 0.40559512 0.40491107 0.40491113 0.40491119 0.40491116 0.4049114 0.40491137 0.40491143 0.40491146 0.40491161 0.40427586 0.40427589 0.40427592 0.40427607 0.40427619 0.40427634 0.40427634 0.40427634 0.40427637 0.40370193 0.40370193 0.40370193 0.40370196 0.40370208 0.40370214 0.40370229 0.40370223 0.40370223 0.40319645 0.40319651 0.4031966 0.40319669 0.40319663 0.40319684 0.40319681 0.40319684 0.40319684 0.4027625 0.40276265 0.40276274 0.40276271 0.40276262 0.40276277 0.40276271 0.40276289 0.4027628 0.40239832 0.40239859 0.40239862 0.4023985 0.4023985 0.40239862 0.40239856 0.40239865 0.40239877 0.40209985 0.40210015 0.40210003 0.40210027 0.40210012 0.40210024 0.40210029 0.40210018 0.40210012 0.40186062 0.40186056 0.40186071 0.40186077 0.40186065 0.40186074 0.40186074 0.40186074 0.40186065 0.40167266 0.4016729 0.40167305 0.40167293 0.40167287 0.40167293 0.40167281 0.40167284 0.40167281 0.40152842 0.40152836 0.40152863 0.40152863 0.4015286 0.4015286 0.40152851 0.40152863 0.40152854 0.40141976 0.40141988 0.40141988 0.40141994 0.40142 0.40141997 0.40142003 0.40141991 0.40141991 0.40133989 0.40133989 0.40133977 0.40133989 0.40133998 0.40133992 0.40133989 0.40133995 0.40133995 0.40128234 0.40128213 0.40128225 0.40128219 0.40128219 0.40128213 0.4012821 0.40128207 0.40128222 0.40124139 0.4012413 0.40124136 0.40124139 0.40124124 0.40124139 0.40124145 0.40124136 0.40121296 0.40121296 0.4012129 0.40121302 0.40121305 0.40121299 0.4011935 0.40119359 0.40119377 0.40119365 0.40000001 0.40000001 0.40000001 0.40000001 0.40000001 0.40000001 0.40000001 0.40000001 0.40000001 0.40000001 0.40000001 0.40000001 0.40000001 0.40000001 0.40000001 0.40000001 0.40000001 0.40000001 0.40000001 0.40000001 0.40000001 0.40000001 0.40000001 0.40000001 0.40000001 0.40000001 0.40000001 0.40000001 0.40000001 0.40000001 0.40000001 0.40000001 0.40000001 0.40000001 0.40000001 0.40000001 0.40000001 0.40000001 0.40000001 0.40000001 0.40000001 0.40000001 0.40000001 0.40000001 0.40000001 0.40000001 0.40000001 0.40000001 0.40000001 0.40000001 0.40000001 0.40000001 0.40000001 0.40000001 0.40000001 0.40000001 0.40000001 0.40000001 0.40000001 0.40000001 0.40000001 0.40000001 0.40000001 0.40000001 0.40000001 0.40000001 0.40000001 0.40000001 0.40000001 0.40000001 0.40000001 0.40000001 0.40000001 0.40000001 0.40000001 0.40000001 0.40000001 0.40000001 0.40000001 0.40000001 0.40000001 0.40000001 0.40000001 0.40000001 0.40000001 0.40000001 0.40000001 0.40000001 0.40000001 0.40000001 0.40000001 0.40000001 0.40000001 0.40000001 0.40000001 0.40000001 0.40000001 0.40000001 0.40000001 0.40000001 0.40000001 0.40000001 0.40000001 0.40000001 0.40000001 0.40000001 0.40000001 0.40000001 0.40000001 0.40000001 0.40000001 0.40000001 0.40000001 0.40000001 0.40000001 0.40000001 0.40000001 0.40000001 0.40000001 0.40000001 0.40000001 0.40000001 0.40000001 0.40000001 0.40000001 0.40000001 0.40000001 0.40000001 0.40000001 0.40000001 0.40000001 0.40000001 0.40000001 0.40000001 0.40000001 0.40000001 0.40000001 0.40000001 0.40000001 0.40000001 0.40000001 0.40000001 0.40000001 0.40000001 0.40000001 0.40000001 0.40000001 0.40000001 0.40000001 0.40000001 0.40000001 0.40000001 0.40000001 0.40000001 0.40000001 0.40000001 0.40000001 0.40000001 0.40000001 0.40000001 0.40000001 0.40000001 0.40000001 0.40000001 0.40000001 0.40000001 0.40000001 0.40000001 0.40000001 0.40000001 0.40000001 0.40000001 0.40000001 0.40000001 0.40000001 0.40000001 0.40000001 0.40000001 0.40000001 0.40000001 0.40000001 0.40000001 0.40000001 0.40000001 0.40000081 0.40000072 0.40000072 0.40000072 0.40000075 0.40000078 0.40000084 0.40000084 0.40000236 0.40000224 0.4000023 0.40000242 0.40000218 0.40000242 0.40000233 0.40000236 0.40000546 0.4000054 0.4000054 0.40000525 0.40000531 0.40000528 0.40000525 0.40000531 0.40001476 0.40001476 0.40001479 0.40001485 0.4000147 0.40001476 0.40001473 0.40001482 0.40003973 0.40003964 0.40003976 0.40003973 0.40003973 0.4000397 0.40003958 0.40003937 0.40010688 0.40010694 0.40010706 0.40010694 0.40010682 0.40010682 0.40010682 0.40010676 0.40028501 0.40028495 0.40028507 0.40028498 0.40028489 0.40028486 0.4002848 0.40028477 0.40073767 0.40073758 0.40073746 0.40073755 0.40073743 0.40073714 0.40073702 0.40073693 0.40177557 0.4017756 0.40177548 0.40177542 0.40177521 0.40177497 0.40177456 0.40177444 0.40368596 0.40368572 0.40368563 0.40368539 0.40368512 0.40368474 0.4036842 0.40368366 0.4061037 0.40610361 0.40610364 0.40610337 0.40610313 0.40610269 0.40610224 0.406102 0.40804896 0.40804875 0.40804878 0.40804881 0.40804872 0.40804869 0.40804863 0.40804866 0.40912142 0.4091213 0.40912154 0.40912163 0.4091219 0.40912196 0.40912244 0.40912279 0.40959466 0.40959448 0.40959463 0.40959498 0.40959552 0.40959564 0.40959626 0.40959689 0.40978214 0.40978232 0.40978241 0.40978271 0.40978324 0.40978372 0.40978432 0.40978494 0.40985271 0.40985301 0.40985325 0.40985349 0.40985402 0.40985453 0.40985519 0.40985587 0.40987828 0.40987831 0.40987867 0.40987885 0.40987933 0.40987992 0.4098804 0.40988114 0.40988538 0.40988538 0.40988567 0.40988603 0.40988645 0.40988687 0.4098874 0.40988818 0.40987182 0.40987197 0.40987214 0.4098725 0.40987289 0.40987328 0.40987393 0.4098745 0.40971085 0.40971103 0.40971118 0.40971145 0.40971202 0.40971234 0.40971294 0.40971336 0.40939522 0.40939528 0.40939528 0.40939564 0.40939593 0.40939632 0.40939671 0.40939718 0.40894213 0.4089421 0.40894228 0.40894243 0.4089427 0.40894306 0.40894344 0.40894398 0.40837684 0.40837681 0.40837678 0.4083769 0.40837705 0.40837732 0.40837783 0.40837812 0.40772849 0.40772846 0.40772858 0.40772855 0.40772885 0.407729 0.40772918 0.40772936 0.40702915 0.40702918 0.40702921 0.40702915 0.40702927 0.40702939 0.40702936 0.40702954 0.40630871 0.40630865 0.40630877 0.40630871 0.40630874 0.40630874 0.40630874 0.40630877 0.40559509 0.40559512 0.40559503 0.40559503 0.40559512 0.405595 0.40559494 0.40559492 0.40491152 0.40491161 0.40491146 0.40491143 0.40491137 0.4049114 0.40491116 0.40491119 0.40427628 0.40427637 0.40427634 0.40427634 0.40427634 0.40427619 0.40427607 0.40427592 0.40370223 0.40370223 0.40370223 0.40370229 0.40370214 0.40370208 0.40370196 0.40370193 0.40319681 0.40319684 0.40319684 0.40319681 0.40319684 0.40319663 0.40319669 0.4031966 0.40276295 0.4027628 0.40276289 0.40276271 0.40276277 0.40276262 0.40276271 0.40276274 0.4023985 0.40239877 0.40239865 0.40239856 0.40239862 0.4023985 0.4023985 0.40239862 0.40210015 0.40210012 0.40210018 0.40210029 0.40210024 0.40210012 0.40210027 0.40210003 0.40186077 0.40186065 0.40186074 0.40186074 0.40186074 0.40186065 0.40186077 0.40186071 0.4016729 0.40167281 0.40167284 0.40167281 0.40167293 0.40167287 0.40167293 0.40167305 0.40152848 0.40152854 0.40152863 0.40152851 0.4015286 0.4015286 0.40152863 0.40152863 0.40141991 0.40141991 0.40141991 0.40142003 0.40141997 0.40142 0.40141994 0.40141988 0.40133986 0.40133995 0.40133995 0.40133989 0.40133992 0.40133998 0.40133989 0.40133977 0.40128225 0.40128222 0.40128207 0.4012821 0.40128213 0.40128219 0.40128219 0.40128225 0.4012413 0.40124136 0.40124145 0.40124139 0.40124124 0.40124139 0.40124136 0.4012413 0.40121305 0.40121299 0.40121305 0.40121302 0.4012129 0.40121296 0.40121296 0.40119371 0.40119365 0.40119377 0.40119359 0.4011935 0.40000001 0.40000001 0.40000001 0.40000001 0.40000001 0.40000001 0.40000001 0.40000001 0.40000001 0.40000001 0.40000001 0.40000001 0.40000001 0.40000001 0.40000001 0.40000001 0.40000001 0.40000001 0.40000001 0.40000001 0.40000001 0.40000001 0.40000001 0.40000001 0.40000001 0.40000001 0.40000001 0.40000001 0.40000001 0.40000001 0.40000001 0.40000001 0.40000001 0.40000001 0.40000001 0.40000001 0.40000001 0.40000001 0.40000001 0.40000001 0.40000001 0.40000001 0.40000001 0.40000001 0.40000001 0.40000001 0.40000001 0.40000001 0.40000001 0.40000001 0.40000001 0.40000001 0.40000001 0.40000001 0.40000001 0.40000001 0.40000001 0.40000001 0.40000001 0.40000001 0.40000001 0.40000001 0.40000001 0.40000001 0.40000001 0.40000001 0.40000001 0.40000001 0.40000001 0.40000001 0.40000001 0.40000001 0.40000001 0.40000001 0.40000001 0.40000001 0.40000001 0.40000001 0.40000001 0.40000001 0.40000001 0.40000001 0.40000001 0.40000001 0.40000001 0.40000001 0.40000001 0.40000001 0.40000001 0.40000001 0.40000001 0.40000001 0.40000001 0.40000001 0.40000001 0.40000001 0.40000001 0.40000001 0.40000001 0.40000001 0.40000001 0.40000001 0.40000001 0.40000001 0.40000001 0.40000001 0.40000001 0.40000001 0.40000001 0.40000001 0.40000001 0.40000001 0.40000001 0.40000001 0.40000001 0.40000001 0.40000001 0.40000001 0.40000001 0.40000001 0.40000001 0.40000001 0.40000001 0.40000001 0.40000001 0.40000001 0.40000001 0.40000001 0.40000001 0.40000001 0.40000001 0.40000001 0.40000001 0.40000001 0.40000001 0.40000001 0.40000001 0.40000001 0.40000001 0.40000001 0.40000001 0.40000001 0.40000001 0.40000001 0.40000001 0.40000001 0.40000001 0.40000001 0.40000001 0.40000001 0.40000001 0.40000001 0.40000001 0.40000001 0.40000001 0.40000001 0.40000001 0.40000001 0.40000001 0.40000001 0.40000001 0.40000001 0.40000001 0.40000001 0.40000001 0.40000001 0.40000001 0.40000001 0.40000001 0.40000001 0.40000001 0.40000001 0.40000001 0.40000001 0.40000001 0.40000001 0.40000001 0.40000001 0.40000001 0.40000001 0.40000001 0.40000001 0.40000001 0.40000078 0.40000081 0.40000084 0.40000081 0.40000072 0.40000084 0.40000084 0.40000072 0.40000239 0.4000023 0.40000227 0.4000023 0.40000218 0.40000236 0.40000224 0.40000227 0.40000522 0.4000054 0.40000546 0.40000534 0.4000054 0.40000537 0.40000543 0.40000534 0.40001482 0.40001476 0.4000147 0.40001467 0.40001473 0.40001458 0.40001476 0.40001476 0.40003976 0.40003952 0.4000397 0.40003973 0.40003964 0.40003964 0.40003958 0.40003961 0.40010685 0.40010667 0.40010673 0.40010682 0.40010661 0.40010658 0.40010661 0.40010655 0.40028462 0.40028471 0.40028465 0.40028447 0.40028441 0.40028438 0.40028432 0.40028414 0.40073678 0.40073651 0.40073636 0.40073642 0.40073606 0.40073574 0.40073544 0.40073517 0.40177396 0.40177336 0.40177307 0.4017728 0.4017722 0.40177161 0.40177086 0.40177003 0.4036831 0.40368259 0.40368184 0.40368131 0.40368047 0.40367967 0.40367869 0.40367714 0.40610158 0.40610096 0.40610066 0.40610015 0.4060998 0.40609962 0.40609914 0.40609765 0.40804872 0.40804884 0.40804899 0.4080492 0.40804994 0.40805084 0.40805104 0.4080506 0.40912318 0.40912393 0.40912452 0.4091253 0.40912682 0.40912825 0.40912896 0.40912944 0.40959749 0.40959844 0.4095993 0.40960008 0.40960154 0.40960327 0.40960366 0.40960369 0.40978587 0.40978652 0.40978751 0.40978831 0.40978935 0.40979043 0.40979049 0.40979025 0.4098565 0.40985727 0.40985817 0.40985885 0.40985948 0.4098601 0.40985993 0.40985954 0.4098818 0.40988258 0.40988326 0.40988374 0.40988412 0.40988451 0.40988445 0.40988383 0.40988883 0.40988958 0.4098902 0.40989071 0.40989095 0.40989125 0.40989128 0.40989065 0.40987512 0.40987596 0.40987647 0.409877 0.40987751 0.40987781 0.40987775 0.40987706 0.40971407 0.40971482 0.40971532 0.40971589 0.40971649 0.40971693 0.40971705 0.40971643 0.40939781 0.40939859 0.40939921 0.40939969 0.40940037 0.40940094 0.40940109 0.4094007 0.40894422 0.40894505 0.40894559 0.40894619 0.40894699 0.40894768 0.40894794 0.40894786 0.40837839 0.40837908 0.40837967 0.40838009 0.40838096 0.40838179 0.40838221 0.40838239 0.40772974 0.40773004 0.40773043 0.40773106 0.40773186 0.4077327 0.40773341 0.4077338 0.40702969 0.4070299 0.40703022 0.40703058 0.40703106 0.40703204 0.4070327 0.40703338 0.40630877 0.40630901 0.40630919 0.40630943 0.40630978 0.4063105 0.40631118 0.40631199 0.40559489 0.40559494 0.40559492 0.40559524 0.40559542 0.4055959 0.40559646 0.40559736 0.40491113 0.40491107 0.40491107 0.40491122 0.40491131 0.40491152 0.40491208 0.40491271 0.40427589 0.40427586 0.40427583 0.40427575 0.40427592 0.40427598 0.40427604 0.40427631 0.40370193 0.40370193 0.40370172 0.40370166 0.40370163 0.40370148 0.40370134 0.40370136 0.40319651 0.40319645 0.40319636 0.40319616 0.40319598 0.40319571 0.40319553 0.40319544 0.40276265 0.4027625 0.40276235 0.402762 0.40276188 0.40276149 0.40276152 0.40276128 0.40239859 0.40239832 0.4023982 0.40239802 0.40239775 0.40239742 0.40239745 0.40210015 0.40209985 0.40209967 0.4020994 0.40209928 0.40209916 0.40209904 0.40186056 0.40186062 0.4018603 0.40186009 0.40185988 0.40185988 0.4016729 0.40167266 0.40167254 0.40167236 0.4016723 0.40167227 0.40152836 0.40152842 0.40152827 0.40152824 0.40152818 0.40141988 0.40141976 0.40141982 0.40141991 0.40133989 0.40133989 0.40134007 0.40133983 0.40128213 0.40128234 0.40124139 
Press 1 2975 float
0.0 0.0 0.0 0.0 0.0 0.0 0.0 0.0 0.0 0.0 0.0 0.0 0.0 0.0 0.0 0.0 0.0 0.0 0.0 0.3950505 0.0 0.59257573 1.2839141 0.49381313 1.4814393999999997 3.2591665 1.1851515 3.160404 6.222045400000001 2.1727777 5.5307069 10.073788 3.4566917 7.90101 14.616867999999998 4.7406058 10.765125999999999 19.061186 5.9257574 13.135429 23.30798 7.1109089999999995 15.505732 27.159721 8.098535499999999 18.073560999999998 31.801565000000004 9.8762627 21.43149 37.628559 12.147802 26.567146 46.714721999999995 15.999545000000001 35.06073 61.529114 22.91293 48.591209 83.849464 34.764441999999995 68.837547 114.76217 96.589844 153.37836000000001 0.0 0.0 0.0 0.0 0.0 0.0 0.0 0.0 0.0 0.0 0.0 0.0 0.0 0.0 0.0 0.0 0.0 0.0 0.0 0.0 0.0 0.0 0.0 0.0 0.0 0.0 0.0 0.0 0.0 0.0 0.0 0.0 0.0 0.0 0.0 0.09876262400000001 0.19752525 0.29628786 0.29628786 0.29628786 0.09876262400000001 0.3950505 0.69133836 0.98762625 1.2839141 1.580202 1.7777272000000002 1.9752525 0.88886362 1.4814393999999997 2.4690657000000003 3.4566917 4.543080799999999 5.4319444 5.9257574 6.617095900000001 2.5678282 4.2467928 6.4195704000000005 8.6911106 10.962651 12.740378 14.221817999999999 15.406969 5.7282324000000004 8.9873991 13.135429 17.382220999999998 21.530251999999997 25.085707 28.048586 30.122601 10.468838 15.900782999999999 22.517878 29.628788 36.344646000000004 41.875351 46.418434000000005 49.973888 16.493358999999998 24.690657 34.369392 44.44318 53.726868 61.529114 67.84992199999999 72.59053 23.209217000000002 34.073105 46.615959000000004 29.727551000000002 43.060505 35.949596 51.455326 41.875351 59.751389 48.788734000000005 69.232597 58.072421999999996 82.466789 72.19548 101.52798 94.022018 130.36667 126.61368999999999 171.94572 170.85934 227.15403999999998 223.79611 293.42377 0.0 0.0 0.0 0.0 0.0 0.0 0.0 0.0 0.0 0.0 0.0 0.0 0.0 0.0 0.0 0.0 0.0 0.0 0.0 0.0 0.0 0.0 0.0 0.0 0.0 0.0 0.0 0.0 0.0 0.0 0.0 0.0 0.0 0.0 0.0 0.0 0.3950505 0.3950505 0.3950505 0.3950505 0.3950505 0.3950505 0.3950505 0.3950505 0.3950505 2.1727777 2.1727777 2.2715403999999997 2.2715403999999997 2.2715403999999997 2.2715403999999997 2.2715403999999997 2.2715403999999997 2.2715403999999997 6.814621000000001 7.1109089999999995 7.2096715 7.2096715 7.407197 7.5059595 7.5059595 7.5059595 7.5059595 16.295834 17.085933999999998 17.283459 17.579746 17.974798 17.974798 17.974798 17.974798 17.974798 31.801565000000004 32.887955 33.776817 34.468154999999996 34.566917 34.66568 34.863205 34.863205 34.863205 52.442955000000005 54.41820500000001 55.702121999999996 56.590984 57.282322 57.381083999999994 57.578609 57.677372 57.677372 76.244743 78.713814 80.491539 81.577927 82.466789 82.861839 83.059364 83.059364 83.15812700000001 0.0 0.0 0.0 0.0 0.0 0.0 0.0 0.0 0.0 0.0 0.0 0.0 0.0 0.0 0.0 0.0 0.0 0.0 0.0 0.0 0.0 0.0 0.0 0.0 0.0 0.0 0.0 0.0 0.0 0.0 0.0 0.0 0.3950505 0.3950505 0.3950505 0.3950505 0.3950505 0.3950505 0.3950505 0.3950505 2.2715403999999997 2.2715403999999997 2.2715403999999997 2.2715403999999997 2.2715403999999997 2.2715403999999997 2.2715403999999997 2.2715403999999997 7.5059595 7.5059595 7.5059595 7.5059595 7.5059595 7.407197 7.2096715 7.2096715 17.974798 17.974798 17.974798 17.974798 17.974798 17.974798 17.579746 17.283459 34.863205 34.863205 34.863205 34.863205 34.66568 34.566917 34.468154999999996 33.776817 57.677372 57.677372 57.677372 57.578609 57.381083999999994 57.282322 56.590984 55.702121999999996 83.15812700000001 83.15812700000001 83.059364 83.059364 82.861839 82.466789 81.577927 80.491539 0.0 0.0 0.0 0.0 0.0 0.0 0.0 0.0 0.0 0.0 0.0 0.0 0.0 0.0 0.0 0.0 0.0 0.0 0.0 0.0 0.0 0.0 0.0 0.0 0.0 0.0 0.0 0.0 0.0 0.0 0.0 0.0 0.0 0.0 0.0 0.0 0.3950505 0.3950505 0.29628786 0.29628786 0.29628786 0.19752525 0.09876262400000001 0.0 0.0 2.1727777 2.1727777 1.9752525 1.7777272000000002 1.580202 1.2839141 0.98762625 0.69133836 0.3950505 7.1109089999999995 6.814621000000001 6.617095900000001 5.9257574 5.4319444 4.543080799999999 3.4566917 2.4690657000000003 1.4814393999999997 17.085933999999998 16.295834 15.406969 14.221817999999999 12.740378 10.962651 8.6911106 6.4195704000000005 4.2467928 32.887955 31.801565000000004 30.122601 28.048586 25.085707 21.530251999999997 17.382220999999998 13.135429 8.9873991 54.41820500000001 52.442955000000005 49.973888 46.418434000000005 41.875351 36.344646000000004 29.628788 22.517878 15.900782999999999 78.713814 76.244743 72.59053 67.84992199999999 61.529114 53.726868 44.44318 34.369392 24.690657 46.615959000000004 34.073105 43.060505 51.455326 59.751389 69.232597 82.466789 101.52798 130.36667 171.94572 227.15403999999998 293.42377 0.0 0.0 0.0 0.0 0.0 0.0 0.0 0.0 0.0 0.0 0.0 0.0 0.0 0.0 0.0 0.0 0.0 0.0 0.0 0.09876262400000001 0.0 0.0 0.0 0.88886362 0.3950505 0.0 0.0 2.5678282 1.2839141 0.59257573 0.0 5.7282324000000004 3.2591665 1.4814393999999997 0.49381313 10.468838 6.222045400000001 3.160404 1.1851515 16.493358999999998 10.073788 5.5307069 2.1727777 23.209217000000002 14.616867999999998 7.90101 3.4566917 29.727551000000002 19.061186 10.765125999999999 4.7406058 35.949596 23.30798 13.135429 5.9257574 41.875351 27.159721 15.505732 7.1109089999999995 48.788734000000005 31.801565000000004 18.073560999999998 8.098535499999999 58.072421999999996 37.628559 21.43149 9.8762627 72.19548 46.714721999999995 26.567146 12.147802 94.022018 61.529114 35.06073 15.999545000000001 126.61368999999999 83.849464 48.591209 22.91293 170.85934 114.76217 68.837547 34.764441999999995 223.79611 153.37836000000001 96.589844 0.0 0.0 0.0 0.0 0.0 0.0 0.0 0.0 0.0 0.0 0.0 0.0 0.0 0.0 0.0 0.0 0.0 0.0 0.0 0.0 0.0 0.0 0.0 0.0 0.0 0.0 0.0 0.0 0.0 0.0 0.0 0.0 0.0 0.0 0.0 0.0 0.0 0.0 0.0 0.0 0.0 0.0 0.0 0.0 0.0 0.0 0.0 0.0 0.0 0.0 0.0 0.0 0.0 0.0 0.0 0.0 0.0 0.0 0.0 0.0 0.0 0.0 0.0 0.0 0.0 0.0 0.0 0.0 0.0 0.0 0.0 0.0 0.0 0.0 0.0 0.0 0.0 0.0 0.0 0.0 0.0 0.0 0.0 0.0 0.0 0.0 0.0 0.0 0.0 0.0 0.0 0.0 0.0 0.0 0.0 0.0 0.0 0.0 0.0 0.0 0.0 0.0 0.0 0.0 0.0 0.0 0.0 0.0 0.0 0.0 0.0 0.0 0.0 0.0 0.0 0.0 0.0 0.0 0.0 0.0 0.0 0.0 0.0 0.0 0.0 0.0 0.0 0.0 0.0 0.0 0.0 0.0 0.0 0.0 0.0 0.0 0.0 0.0 0.0 0.0 0.0 0.0 0.0 0.0 0.0 0.0 0.0 0.0 0.0 0.0 0.0 0.0 0.0 0.0 0.0 0.0 0.0 0.0 0.0 0.0 0.0 0.0 0.0 0.0 0.0 0.0 0.0 0.0 0.0 0.0 0.0 0.0 0.0 0.0 0.0 0.0 0.0 0.0 0.0 0.0 0.0 0.0 0.0 0.0 0.0 0.0 0.0 0.0 0.0 0.0 0.0 0.0 0.0 0.0 0.0 0.0 0.0 0.0 0.0 0.0 0.0 0.0 0.0 0.0 0.0 0.0 0.0 0.0 0.0 0.0 0.0 0.0 0.0 0.0 0.0 0.0 0.0 0.0 0.0 0.0 0.0 0.0 0.0 0.0 0.0 0.0 0.0 0.0 0.0 0.0 0.0 0.0 0.0 0.0 0.0 0.0 0.0 0.0 0.0 0.0 0.0 0.0 0.0 0.0 0.0 0.0 0.0 0.0 0.0 0.0 0.0 0.0 0.0 0.0 0.0 0.0 0.0 0.0 0.0 0.0 0.0 0.0 0.0 0.0 0.0 0.0 0.0 0.0 0.0 0.0 0.0 0.0 0.0 0.0 0.0 0.0 0.0 0.0 0.0 0.0 0.0 0.0 0.0 0.0 0.0 0.0 0.0 0.0 0.0 0.0 0.0 0.0 0.0 0.0 0.0 0.0 0.0 0.0 0.0 0.0 0.0 0.0 0.0 0.0 0.0 0.0 0.0 0.0 0.0 0.0 0.0 0.0 0.0 0.0 0.0 0.0 0.0 0.0 0.0 0.0 0.0 0.0 0.0 0.0 0.0 0.0 0.0 0.0 0.0 0.0 0.0 0.0 0.0 0.0 0.0 0.0 0.0 0.0 0.0 0.0 0.0 0.0 0.0 0.0 0.0 0.0 0.0 0.0 0.0 0.0 0.0 0.0 0.0 0.0 0.0 0.0 0.0 0.0 0.0 0.0 0.0 0.0 0.0 0.0 0.0 0.0 0.0 0.0 0.0 0.0 0.0 0.0 0.0 0.0 0.0 0.0 0.0 0.0 0.0 0.0 0.0 0.0 0.0 0.0 0.0 0.0 0.0 0.0 0.0 0.0 0.0 0.0 0.0 0.0 0.0 0.0 0.0 0.0 0.0 0.0 0.0 0.0 0.0 0.0 0.0 0.0 0.0 0.0 0.0 0.0 0.0 0.0 0.0 0.0 0.0 0.0 0.0 0.0 0.0 0.0 0.0 0.0 0.0 0.0 0.0 0.0 0.0 0.0 0.0 0.0 0.0 0.0 0.0 0.0 0.0 0.0 0.0 0.0 0.0 0.0 0.0 0.0 0.0 0.0 0.0 0.0 0.0 0.0 0.0 0.0 0.0 0.0 0.0 0.0 0.0 0.0 0.0 0.0 0.0 0.0 0.0 0.0 0.0 0.0 0.0 0.0 0.0 0.0 0.0 0.0 0.0 0.0 59.356339 70.714035 80.392776 87.997498 93.72573100000001 57.381083999999994 72.788055 85.923485 96.68860600000001 105.28096000000001 111.60177 67.948685 85.232147 100.1453 111.99682 120.98421 127.79883999999998 78.615051 98.268814 114.76217 127.79883999999998 137.47757 144.29218999999998 91.256668 113.37948999999999 131.74934 146.06992 156.44 163.15585 108.63888999999999 133.62582 153.57588 168.5878 179.35291999999998 186.16754 136.48994 162.95833000000002 183.10591000000002 197.32773 207.30275 214.0186 180.83437 207.10522 223.40106 234.26494 241.86966 246.8078 248.68427999999997 269.91823999999997 276.83162999999996 280.09078999999997 282.65862999999996 285.02893 343.00259 350.40979 342.01495 333.42261 329.07706 327.79315 454.80188 440.08624000000003 412.33395 391.00122000000005 379.44601 374.70538 545.46594 521.17035 479.0975 448.28354 431.98773 424.97559 565.3172599999999 567.29254 532.5280799999999 502.20795 485.51705999999996 478.40615999999994 565.41595 587.3413099999999 574.30463 553.4657 541.02161 535.98474 588.7239400000001 613.2171 616.67377 607.6864 601.66187 599.19281 639.48785 661.01807 671.2894299999999 670.7955900000001 669.7092299999999 669.51166 713.65857 731.73212 742.99103 746.15143 747.8304400000001 749.0155599999999 805.01392 820.32208 830.59344 834.24762 836.91425 838.98822 908.4182699999999 922.7388300000001 932.0225199999999 935.18292 938.14581 940.3186 1024.4641 1039.3772 1047.5745 1049.8461 1052.7102 1054.7842 1156.0155 1171.7188 1178.731 1179.6198 1181.8914 1183.1753 1306.6281 1321.9363 1327.1707 1326.0842 1326.7756 1326.3805 1477.8817 1491.8071 1494.8688 1490.6221 1488.153 1484.6963 1671.949 1683.6029 1683.8004 1674.5167 1666.517 1658.4185 1885.7682 1895.2493 1891.8914 1873.5216 1856.9296 1841.9176 2110.2529 2118.6477 2109.7593 2076.5752 2047.3414 2022.8484 2333.3538 2342.7361 2324.3665 2267.8745 2222.6414 2188.1736 2538.0828 2549.0454 2513.8862 2426.0869 2363.2742 2320.2141 2723.5515 2735.304 2674.6643 2551.1135 2473.3879 2427.5625 2947.1384 2957.0144 2868.7217 2715.543 2632.7808 2593.4739 3423.1528 3429.375 3330.0215 3174.5718 3102.6736 3083.8103 4632.9468 4642.7241 4599.5654 4485.4971 4441.7466 4455.1777 7053.3086 7088.9609 7151.4756 7163.9194 7179.9185 7231.0757 10036.43 10107.437 10261.203000000001 10442.425 10561.428999999998 10654.953000000001 11943.873 12020.114 12195.507 12463.233999999999 12679.315 12807.601 12307.546 12351.296 12459.233999999999 12707.702 12956.565 13099.858999999999 12008.979 11993.377 11978.665 12119.782 12314.721000000001 12432.63 11830.888 11741.521 11700.837 11698.173 11757.817 11786.948999999999 11988.487 11815.39 11791.198 11674.778999999999 11617.313 11565.077 12374.93 12141.12 12122.461000000001 11956.286 11833.655 11733.536 12797.947 12531.282 12506.796999999999 12338.268 12203.207 12092.928 13110.298 12835.57 12801.018999999998 12656.398000000001 12549.587 12459.756000000001 13069.636999999999 12807.782 12768.301000000001 12649.957 12584.518 12530.923999999999 12736.538 12504.341999999999 12473.451000000001 12384.835 12364.21 12353.75 12235.208 12046.482 12040.458 11991.62 12018.155 12054.162 11649.221000000001 11518.745 11554.921999999999 11560.337 11636.853000000001 11719.686000000002 10995.907 10935.47 11034.204 11106.038 11233.166000000001 11356.559 10251.716 10272.169 10442.911 10583.723999999998 10747.89 10906.948999999999 9397.3711 9496.0107 9736.7217 9921.9648 10119.921 10305.885 8456.0986 8614.6299 8900.9014 9107.1309 9336.1729 9535.5518 7484.3379 7678.0874 7973.7573 8189.9268 8432.4932 8632.6982 6551.0601 6751.3965 7030.6235 7238.751 7474.4829 7665.7012 5675.0527 5880.8213 6132.3633 6322.5752 6535.2275 6708.7749 4773.6963 5063.3916 5316.0166 5490.7729 5671.5503 5817.6641 3964.7014 4337.2305 4622.2246 4777.3745 4912.3398 5024.4268 3721.582 4060.0115 4186.9893 4269.0264 4339.8535 3189.7813 3543.8284 3694.5161 3734.0217 3765.5603 3001.7068 3227.1577 3270.9478 3289.2781 2481.7966 2693.3723 2828.458 2871.833 2153.8188 2335.5737 2445.9507 1833.7255 1954.9155 1625.0425 1507.4156 98.07128900000001 101.33045 103.40446 104.98467 105.67601 106.26858999999999 106.46611000000001 106.46611000000001 106.46611000000001 116.34236999999999 119.79906000000001 122.0706 123.6508 124.4409 125.03348999999999 125.03348999999999 125.13225 125.13225 132.53943999999998 135.89737 138.36643999999998 139.55159 140.44044 140.63797 140.73674 140.63797 140.53922 149.03281 152.19321000000002 154.16846 155.05731 155.74866 155.74866 155.6499 155.45238 155.35361 167.69893000000002 170.46428999999998 172.14325 172.5383 172.73582 172.34077 172.04449 171.84697 171.55067 190.31558 192.58711 193.57474 193.57474 193.17969 192.68588 191.89578 191.40196 191.10568 217.67282000000003 219.25302000000002 219.45055 218.95674 217.77159 216.6852 215.5988 214.8087 214.3149 249.77067999999997 250.36325 249.67192000000003 248.28922999999998 246.51151000000002 244.9313 243.54862999999997 242.36347999999998 241.7709 286.11533 286.01657 284.33759 281.96729 279.59698 277.32544 275.35019 274.06628 273.27617999999995 327.29935 325.8179 323.15131 319.79337000000004 316.73172 313.76886 311.59607 309.81836 308.92947000000004 372.53262 370.06354 366.40932999999995 362.55759 358.50833 355.15039 352.58258 350.60733 349.42215 421.81515999999993 418.65475 414.40796 409.66736000000003 405.22305 401.37131 398.5072 396.23566 394.95172 475.24575999999996 471.88782000000003 467.34472999999997 462.30782999999997 457.46848 453.41922 450.16003 447.78972999999996 446.30829000000006 533.51563 530.35522 525.91095 520.87402 515.7384 511.39282000000003 508.03490999999997 505.56583 504.08437999999995 597.61261 595.24231 590.8967299999999 585.7611099999999 580.7241799999999 576.08234 572.82318 570.15656 568.77393 669.1166400000001 666.84509 663.0921 658.25275 653.51215 649.06781 645.41357 642.8457599999999 641.46307 749.0155599999999 747.43536 743.9787 739.13928 734.29993 730.15192 726.49768 723.92987 722.54718 839.3833 837.9018599999999 834.34637 829.80334 824.76642 820.7171599999999 817.1616799999999 814.59387 813.11243 940.91119 939.2321800000001 935.578 930.5410800000001 925.50421 921.1586300000001 917.70197 915.23291 913.65271 1054.9817 1052.6115 1048.1671 1042.5376 1037.1057 1032.4639 1028.7108 1026.0443 1024.3654 1182.2864 1178.731 1173.0027 1166.3856 1159.8673 1154.5341 1150.1886 1147.127 1145.448 1323.714 1318.0845 1310.381 1301.5912 1293.7889 1287.1719 1282.0361 1278.382 1276.1105 1478.8693 1470.3757 1459.4131 1448.1542 1437.6853 1429.3893 1422.9697 1418.3279 1415.365 1648.3447 1635.1106 1619.5061 1604.0991 1590.47 1579.4086 1571.1125 1565.088 1561.7301 1825.0293 1805.7706 1784.3392 1763.2041 1745.1306 1730.9088 1720.1437 1712.6377 1708.2922 1998.2566 1970.8008 1941.6659 1914.4075 1890.9021 1872.6311 1859.5945 1850.212 1845.1752 2154.9895 2119.1387 2081.6091 2046.5486 2017.4138 1995.1923 1978.9954 1968.0326 1962.0081 2280.5117 2237.7478 2192.811 2150.6399 2115.9744 2089.7036 2071.2351 2058.5938 2051.4829 2386.8728 2342.1338 2293.2466 2246.5322 2207.8176 2178.4854 2157.9429 2144.314 2136.5117 2561.7715 2523.1558 2477.7256 2431.9001 2392.2969 2362.0759 2340.9409 2327.0154 2318.7192 3072.749 3052.0093 3019.3196 2981.6914 2946.8286 2918.583 2898.3372 2884.6094 2876.4121 4477.1025 4485.1021 4475.7202 4454.7827 4430.1914 4408.0693 4390.7861 4378.145 4370.54 7291.7144 7335.4648 7355.5127 7357.0923 7348.4014 7336.1553 7323.6128 7313.6382 7306.7251 10748.378999999999 10824.225 10872.813999999998 10897.306999999999 10905.898000000001 10905.207 10899.775 10892.764 10886.838 12916.628 13008.768999999998 13075.034 13116.71 13140.412 13150.386 13151.67 13147.72 13142.88 13202.958999999999 13289.37 13356.228000000001 13404.617 13436.613000000001 13454.883 13461.795 13461.005 13457.548999999999 12509.163 12569.995 12621.938 12665.488000000001 12699.063999999998 12721.58 12732.538999999999 12734.218 12731.749 11804.229 11825.46 11853.208 11883.327 11911.767 11932.898000000001 11943.858999999999 11945.636 11942.97 11528.146 11513.138 11515.705 11529.035 11546.216999999999 11559.844 11565.67 11563.497 11558.066 11664.42 11627.196000000002 11612.089 11611.003 11615.742 11619.001 11616.038999999999 11607.152 11596.982 12017.896 11976.923 11957.078000000001 11949.378 11946.219 11940.986 11929.534 11913.441 11898.731000000002 12400.823 12373.38 12362.521 12358.376 12354.625 12346.135 12329.945 12309.513 12291.645 12502.104 12499.935 12507.635 12515.431999999999 12518.986 12513.656 12498.457 12477.336000000001 12458.483 12362.141000000001 12389.87 12420.463 12445.627 12461.12 12464.278 12454.313 12436.65 12419.579 12101.714 12159.525 12212.6 12254.431 12282.94 12296.063 12293.992 12281.366000000002 12267.851999999999 11804.69 11888.216999999999 11958.133999999998 12011.583 12049.648000000001 12070.458999999999 12074.896 12068.095 12057.741000000002 11473.255 11573.296 11650.275 11706.851 11747.264 11770.823 11778.711000000001 11774.573999999999 11766.495 11043.556 11148.748 11222.423999999999 11273.545 11308.908000000001 11330.188 11337.282 11334.332 11327.046999999999 10451.02 10552.175 10615.943000000001 10656.196000000002 10682.966999999999 10698.913999999999 10703.643999999998 10700.303 10693.813 9681.1855 9774.1553 9826.4453 9855.6436 9873.835 9884.752 9888.0029 9884.4727 9878.876 8774.5469 8860.1953 8903.8652 8925.2676 8938.3291 8946.1895 8948.8486 8946.6006 8942.4873 7801.4443 7883.2739 7923.812 7943.6997 7955.4624 7963.0132 7966.7446 7966.4609 7964.5103 6834.1426 6915.0352 6959.7397 6983.5688 6998.3208 7008.0942 7013.7671 7016.2168 7016.1265 5927.0669 6007.2339 6061.0776 6095.2012 6116.8872 6130.7983 6139.1689 6143.7466 6145.5034 5110.9194 5185.4277 5249.2104 5297.5332 5330.5923 5351.478 5363.8594 5370.8276 5374.0249 4396.2979 4457.4219 4524.7603 4587.584 4635.8301 4668.064 4687.2568 4698.0093 4702.9082 3788.4546 3825.9402 3885.1343 3954.5601 4017.8071 4065.3857 4095.9712 4113.7373 4122.4805 3288.0239 3296.0186 3333.8677 3395.3936 3463.7415 3524.022 3568.4595 3596.8682 3611.9651 2883.989 2872.999 2880.3101 2918.1797 2975.8367 3036.7014 3088.7085 3126.2368 3148.3665 2518.3896 2541.2241 2531.7305 2536.6326 2566.2246 2610.7715 2656.9238 2694.9412 2719.7717 2116.9312 2218.1831 2260.4785 2255.0132 2250.031 2262.5947 2287.5295 2314.2017 2334.0015 1680.9135 1833.6946 1951.7903 2013.6239 2018.6354 2004.27 1998.2126 2002.5181 2009.9535 1409.6897 1491.2957 1583.099 1680.4246 1753.4935 1784.4758 1783.0229 1773.1638 1768.0316 1380.8484 1359.5856 1391.4333 1422.892 1462.8337 1490.8208 1508.3364 1515.5303 1336.9569 1287.963 1286.4714 1268.7747 1254.9568 1243.8179 1340.3674 1320.3943 1303.2572 1287.6704 106.46611000000001 106.46611000000001 106.46611000000001 106.46611000000001 106.26858999999999 105.67601 104.98467 103.40446 125.13225 125.13225 125.13225 125.03348999999999 125.03348999999999 124.4409 123.6508 122.0706 140.53922 140.53922 140.63797 140.73674 140.63797 140.44044 139.55159 138.36643999999998 155.35361 155.35361 155.45238 155.6499 155.74866 155.74866 155.05731 154.16846 171.45192 171.55067 171.84697 172.04449 172.34077 172.73582 172.5383 172.14325 190.90816 191.10568 191.40196 191.89578 192.68588 193.17969 193.57474 193.57474 214.0186 214.3149 214.8087 215.5988 216.6852 217.77159 218.95674 219.45055 241.37585 241.7709 242.36347999999998 243.54862999999997 244.9313 246.51151000000002 248.28922999999998 249.67192000000003 272.88113 273.27617999999995 274.06628 275.35019 277.32544 279.59698 281.96729 284.33759 308.43567 308.92947000000004 309.81836 311.59607 313.76886 316.73172 319.79337000000004 323.15131 349.0271 349.42215 350.60733 352.58258 355.15039 358.50833 362.55759 366.40932999999995 394.55667 394.95172 396.23566 398.5072 401.37131 405.22305 409.66736000000003 414.40796 445.81448 446.30829000000006 447.78972999999996 450.16003 453.41922 457.46848 462.30782999999997 467.34472999999997 503.68933 504.08437999999995 505.56583 508.03490999999997 511.39282000000003 515.7384 520.87402 525.91095 568.2800900000001 568.77393 570.15656 572.82318 576.08234 580.7241799999999 585.7611099999999 590.8967299999999 640.87054 641.46307 642.8457599999999 645.41357 649.06781 653.51215 658.25275 663.0921 722.05341 722.54718 723.92987 726.49768 730.15192 734.29993 739.13928 743.9787 812.71741 813.11243 814.59387 817.1616799999999 820.7171599999999 824.76642 829.80334 834.34637 913.0601199999999 913.65271 915.23291 917.70197 921.1586300000001 925.50421 930.5410800000001 935.578 1023.7728 1024.3654 1026.0443 1028.7108 1032.4639 1037.1057 1042.5376 1048.1671 1144.8553 1145.448 1147.127 1150.1886 1154.5341 1159.8673 1166.3856 1173.0027 1275.4191 1276.1105 1278.382 1282.0361 1287.1719 1293.7889 1301.5912 1310.2822 1414.575 1415.365 1418.3279 1422.9697 1429.3893 1437.6853 1448.1542 1459.4131 1560.5449 1561.7301 1565.088 1571.1125 1579.4086 1590.47 1604.0991 1619.5061 1707.0083 1708.2922 1712.6377 1720.1437 1730.9088 1745.1306 1763.2041 1784.3392 1843.2 1845.1752 1850.212 1859.5945 1872.6311 1890.9021 1914.4075 1941.6659 1959.7366 1962.0081 1968.0326 1978.9954 1995.1923 2017.4138 2046.5486 2081.6091 2049.1125 2051.4829 2058.5938 2071.2351 2089.8025 2115.9744 2150.6399 2192.811 2133.7463 2136.5117 2144.314 2157.9429 2178.4854 2207.8176 2246.5322 2293.2466 2315.9541 2318.7192 2327.0154 2340.9409 2362.0759 2392.2969 2431.9001 2477.7256 2873.647 2876.4121 2884.6094 2898.3372 2918.583 2946.8286 2981.6914 3019.3196 4367.7749 4370.54 4378.145 4390.7861 4408.0693 4430.1914 4454.7827 4475.7202 7304.2559 7306.7251 7313.6382 7323.6128 7336.1553 7348.4014 7357.0923 7355.5127 10884.665 10886.838 10892.764 10899.775 10905.207 10905.898000000001 10897.306999999999 10872.813999999998 13141.101999999999 13142.88 13147.72 13151.67 13150.386 13140.412 13116.71 13075.034 13455.771 13457.548999999999 13461.005 13461.795 13454.883 13436.613000000001 13404.617 13356.228000000001 12730.07 12731.749 12734.218 12732.538999999999 12721.58 12699.063999999998 12665.488000000001 12621.938 11941.191 11942.97 11945.636 11943.858999999999 11932.898000000001 11911.767 11883.327 11853.208 11555.499 11558.066 11563.497 11565.67 11559.844 11546.216999999999 11529.035 11515.705 11592.736 11596.982 11607.152 11616.038999999999 11619.001 11615.742 11611.003 11612.089 11892.808 11898.731000000002 11913.441 11929.534 11940.986 11946.219 11949.378 11957.078000000001 12284.438 12291.645 12309.513 12329.945 12346.135 12354.625 12358.376 12362.521 12451.278 12458.483 12477.336000000001 12498.457 12513.656 12518.986 12515.431999999999 12507.635 12412.771 12419.579 12436.65 12454.313 12464.278 12461.12 12445.627 12420.463 12262.031 12267.851999999999 12281.366000000002 12293.992 12296.063 12282.94 12254.431 12212.6 12052.812 12057.741000000002 12068.095 12074.896 12070.458999999999 12049.648000000001 12011.583 11958.133999999998 11762.553 11766.495 11774.573999999999 11778.711000000001 11770.823 11747.264 11706.851 11650.275 11323.601 11327.046999999999 11334.332 11337.282 11330.188 11308.908000000001 11273.545 11222.423999999999 10690.567 10693.813 10700.303 10703.643999999998 10698.913999999999 10682.966999999999 10656.196000000002 10615.943000000001 9876.3223 9878.876 9884.4727 9888.0029 9884.752 9873.835 9855.6436 9826.4453 8940.4287 8942.4873 8946.6006 8948.8486 8946.1895 8938.3291 8925.2676 8903.8652 7963.4355 7964.5103 7966.4609 7966.7446 7963.0132 7955.4624 7943.6997 7923.812 7015.9341 7016.1265 7016.2168 7013.7671 7008.0942 6998.3208 6983.5688 6959.7397 6145.9917 6145.5034 6143.7466 6139.1689 6130.7983 6116.8872 6095.2012 6061.0776 5374.9937 5374.0249 5370.8276 5363.8594 5351.478 5330.5923 5297.5332 5249.2104 4704.3491 4702.9082 4698.0093 4687.2568 4668.064 4635.8301 4587.584 4524.7603 4125.1416 4122.4805 4113.7373 4095.9712 4065.3857 4017.8071 3954.5601 3885.1343 3616.8411 3611.9651 3596.8682 3568.4595 3524.022 3463.7415 3395.3936 3333.8677 3155.5586 3148.3665 3126.2368 3088.7085 3036.7014 2975.8367 2918.1797 2880.3101 2728.0791 2719.7717 2694.9412 2656.9238 2610.7715 2566.2246 2536.6326 2531.7305 2341.1284 2334.0015 2314.2017 2287.5295 2262.5947 2250.031 2255.0132 2260.4785 2013.1982 2009.9535 2002.5181 1998.2126 2004.27 2018.6354 2013.6239 1951.7903 1766.7303 1768.0316 1773.1638 1782.9409 1784.4758 1753.4935 1680.4246 1583.099 1518.0594 1515.5303 1508.3364 1490.8208 1462.8337 1422.892 1391.4333 1359.5856 1239.5552 1243.8179 1254.9568 1268.7747 1286.4714 1287.963 1336.9569 1281.0487 1287.6704 1303.2572 1320.3943 1340.3674 101.33045 98.07128900000001 93.72573100000001 87.997498 80.392776 70.714035 59.356339 119.79906000000001 116.34236999999999 111.60177 105.28096000000001 96.68860600000001 85.923485 72.788055 57.381083999999994 135.89737 132.53943999999998 127.79883999999998 120.98421 111.99682 100.1453 85.232147 67.948685 152.19321000000002 149.03281 144.29218999999998 137.47757 127.79883999999998 114.76217 98.268814 78.615051 170.46428999999998 167.69893000000002 163.15585 156.44 146.06992 131.74934 113.37948999999999 91.256668 192.58711 190.31558 186.16754 179.35291999999998 168.5878 153.57588 133.62582 108.63888999999999 219.25302000000002 217.67282000000003 214.0186 207.30275 197.32773 183.10591000000002 162.95833000000002 136.48994 250.36325 249.77067999999997 246.8078 241.86966 234.26494 223.40106 207.10522 180.83437 286.01657 286.11533 285.02893 282.65862999999996 280.09078999999997 276.83162999999996 269.91823999999997 248.68427999999997 325.8179 327.29935 327.79315 329.07706 333.42261 342.01495 350.40979 343.00259 370.06354 372.53262 374.70538 379.44601 391.00122000000005 412.33395 440.08624000000003 454.80188 418.65475 421.81515999999993 424.97559 431.98773 448.28354 479.0975 521.17035 545.46594 471.88782000000003 475.24575999999996 478.40615999999994 485.51705999999996 502.20795 532.5280799999999 567.29254 565.3172599999999 530.35522 533.51563 535.98474 541.02161 553.4657 574.30463 587.3413099999999 565.41595 595.24231 597.61261 599.19281 601.66187 607.6864 616.67377 613.2171 588.7239400000001 666.84509 669.1166400000001 669.51166 669.7092299999999 670.7955900000001 671.2894299999999 661.01807 639.48785 747.43536 749.0155599999999 749.0155599999999 747.8304400000001 746.15143 742.99103 731.73212 713.65857 837.9018599999999 839.3833 838.98822 836.91425 834.24762 830.59344 820.32208 805.01392 939.2321800000001 940.91119 940.3186 938.14581 935.18292 932.0225199999999 922.7388300000001 908.4182699999999 1052.6115 1054.9817 1054.7842 1052.7102 1049.8461 1047.5745 1039.3772 1024.4641 1178.731 1182.2864 1183.1753 1181.8914 1179.6198 1178.731 1171.7188 1156.0155 1318.0845 1323.714 1326.3805 1326.7756 1326.0842 1327.1707 1321.9363 1306.6281 1470.3757 1478.8693 1484.6963 1488.153 1490.6221 1494.8688 1491.8071 1477.8817 1635.1106 1648.3447 1658.4185 1666.517 1674.5167 1683.8004 1683.6029 1671.949 1805.7706 1825.0293 1841.9176 1856.9296 1873.5216 1891.8914 1895.2493 1885.7682 1970.8008 1998.2566 2022.8484 2047.3414 2076.5752 2109.7593 2118.6477 2110.2529 2119.1387 2154.9895 2188.1736 2222.6414 2267.8745 2324.3665 2342.7361 2333.3538 2237.7478 2280.5117 2320.2141 2363.2742 2426.0869 2513.8862 2549.0454 2538.0828 2342.1338 2386.8728 2427.5625 2473.3879 2551.1135 2674.6643 2735.304 2723.5515 2523.1558 2561.7715 2593.4739 2632.7808 2715.543 2868.7217 2957.0144 2947.1384 3052.0093 3072.749 3083.8103 3102.6736 3174.5718 3330.0215 3429.375 3423.1528 4485.1021 4477.1025 4455.1777 4441.7466 4485.4971 4599.5654 4642.7241 4632.9468 7335.4648 7291.7144 7231.0757 7179.9185 7163.9194 7151.4756 7088.9609 7053.3086 10824.225 10748.378999999999 10654.953000000001 10561.428999999998 10442.425 10261.203000000001 10107.437 10036.43 13008.768999999998 12916.628 12807.601 12679.315 12463.233999999999 12195.507 12020.114 11943.873 13289.37 13202.958999999999 13099.76 12956.565 12707.702 12459.233999999999 12351.296 12307.546 12569.995 12509.163 12432.63 12314.721000000001 12119.782 11978.665 11993.377 12008.979 11825.46 11804.229 11786.948999999999 11757.817 11698.173 11700.837 11741.521 11830.888 11513.138 11528.146 11565.077 11617.313 11674.778999999999 11791.198 11815.39 11988.487 11627.196000000002 11664.518999999998 11733.536 11833.655 11956.286 12122.461000000001 12141.12 12374.831 11976.923 12017.896 12092.928 12203.207 12338.268 12506.796999999999 12531.282 12797.947 12373.38 12400.823 12459.756000000001 12549.587 12656.398000000001 12801.018999999998 12835.57 13110.298 12499.935 12502.104 12530.923999999999 12584.518 12649.957 12768.301000000001 12807.782 13069.636999999999 12389.87 12362.141000000001 12353.75 12364.21 12384.835 12473.451000000001 12504.341999999999 12736.538 12159.525 12101.714 12054.162 12018.155 11991.62 12040.458 12046.482 12235.208 11888.216999999999 11804.69 11719.686000000002 11636.853000000001 11560.337 11554.921999999999 11518.745 11649.221000000001 11573.296 11473.255 11356.559 11233.166000000001 11106.038 11034.204 10935.47 10995.907 11148.748 11043.556 10906.948999999999 10747.987 10583.723999999998 10442.911 10272.169 10251.716 10552.175 10451.02 10305.885 10119.921 9921.9648 9736.7217 9496.0107 9397.3711 9774.1553 9681.1855 9535.5518 9336.1729 9107.1309 8900.9014 8614.6299 8456.0986 8860.1953 8774.5469 8632.6982 8432.4932 8189.9268 7973.7573 7678.0874 7484.3379 7883.2739 7801.4443 7665.7012 7474.4829 7238.751 7030.6235 6751.3965 6551.0601 6915.0352 6834.1426 6708.8726 6535.2275 6322.5752 6132.3633 5880.8213 5675.0527 6007.2339 5927.0669 5817.6641 5671.5503 5490.7729 5316.0166 5063.3916 4773.6963 5185.4277 5110.9194 5024.4268 4912.3398 4777.3745 4622.2246 4337.2305 3964.7014 4457.4219 4396.2979 4339.8535 4269.0264 4186.9893 4060.0115 3721.582 3825.9402 3788.4546 3765.5603 3734.0217 3694.5161 3543.8284 3189.7813 3296.0186 3288.0239 3289.2781 3270.9478 3227.1577 3001.7068 2872.999 2883.989 2871.833 2828.458 2693.3723 2481.7966 2541.2241 2518.3896 2445.9507 2335.5737 2153.8188 2218.1831 2116.9312 1954.9155 1833.7255 1833.6946 1680.9135 1507.4156 1625.0425 1491.2957 1409.6897 1380.8484 
Type 1 2975 float
0 0 0 0 0 0 0 0 0 0 0 0 0 0 0 0 0 0 0 0 0 0 0 0 0 0 0 0 0 0 0 0 0 0 0 0 0 0 0 0 0 0 0 0 0 0 0 0 0 0 0 0 0 0 0 0 0 0 0 0 0 0 0 0 0 0 0 0 0 0 0 0 0 0 0 0 0 0 0 0 0 0 0 0 0 0 0 0 0 0 0 0 0 0 0 0 0 0 0 0 0 0 0 0 0 0 0 0 0 0 0 0 0 0 0 0 0 0 0 0 0 0 0 0 0 0 0 0 0 0 0 0 0 0 0 0 0 0 0 0 0 0 0 0 0 0 0 0 0 0 0 0 0 0 0 0 0 0 0 0 0 0 0 0 0 0 0 0 0 0 0 0 0 0 0 0 0 0 0 0 0 0 0 0 0 0 0 0 0 0 0 0 0 0 0 0 0 0 0 0 0 0 0 0 0 0 0 0 0 0 0 0 0 0 0 0 0 0 0 0 0 0 0 0 0 0 0 0 0 0 0 0 0 0 0 0 0 0 0 0 0 0 0 0 0 0 0 0 0 0 0 0 0 0 0 0 0 0 0 0 0 0 0 0 0 0 0 0 0 0 0 0 0 0 0 0 0 0 0 0 0 0 0 0 0 0 0 0 0 0 0 0 0 0 0 0 0 0 0 0 0 0 0 0 0 0 0 0 0 0 0 0 0 0 0 0 0 0 0 0 0 0 0 0 0 0 0 0 0 0 0 0 0 0 0 0 0 0 0 0 0 0 0 0 0 0 0 0 0 0 0 0 0 0 0 0 0 0 0 0 0 0 0 0 0 0 0 0 0 0 0 0 0 0 0 0 0 0 0 0 0 0 0 0 0 0 0 0 0 0 0 0 0 0 0 0 0 0 0 0 0 0 0 0 0 0 0 0 0 0 0 0 0 0 0 0 0 0 0 0 0 0 0 0 0 0 0 0 0 0 0 0 0 0 0 0 0 0 0 0 0 0 0 0 0 0 0 0 0 0 0 0 0 0 0 0 0 0 0 0 0 0 0 0 0 0 0 0 0 0 0 0 0 0 0 0 0 0 0 0 0 0 0 0 0 0 0 0 0 0 0 0 0 0 0 0 0 0 0 0 0 0 0 0 0 0 0 0 0 0 0 0 0 0 0 0 0 0 0 0 0 0 0 0 0 0 0 0 0 0 0 0 0 0 0 0 0 0 0 0 0 0 0 0 0 0 0 0 0 0 0 0 0 0 0 0 0 0 0 0 0 0 0 0 0 0 0 0 0 0 0 0 0 0 0 0 0 0 0 0 0 0 0 0 0 0 0 0 0 0 0 0 0 0 0 0 0 0 0 0 0 0 0 0 0 0 0 0 0 0 0 0 0 0 0 0 0 0 0 0 0 0 0 0 0 0 0 0 0 0 0 0 0 0 0 0 0 0 0 0 0 0 0 0 0 0 0 0 0 0 0 0 0 0 0 0 0 0 0 0 0 0 0 0 0 0 0 0 0 0 0 0 0 0 0 0 0 0 0 0 0 0 0 0 0 0 0 0 0 0 0 0 0 0 0 0 0 0 0 0 0 0 0 0 0 0 0 0 0 0 0 0 0 0 0 0 0 0 0 0 0 0 0 0 0 0 0 0 0 0 0 0 0 0 0 0 0 0 0 0 0 0 0 0 0 0 0 0 0 0 0 0 0 0 0 0 0 0 0 0 0 0 0 0 0 0 0 0 0 0 0 0 0 0 0 0 0 0 0 0 0 0 0 0 0 0 0 0 0 0 0 0 0 0 0 0 0 0 0 0 0 0 0 0 0 0 0 0 0 0 0 0 0 0 0 0 0 0 0 0 0 0 0 0 0 0 0 0 0 0 0 0 0 0 0 0 0 0 0 0 0 0 0 0 0 0 0 0 0 0 0 0 0 0 0 0 0 0 0 0 0 0 0 0 0 0 0 0 0 0 0 0 0 0 0 0 0 0 0 0 0 0 0 0 0 0 0 0 0 0 0 0 0 0 0 0 0 0 0 0 0 0 0 0 0 0 0 0 0 0 0 0 0 0 0 0 0 0 0 0 0 0 0 0 0 0 0 0 0 0 0 0 0 0 0 0 0 0 0 0 0 0 0 0 0 0 0 0 0 0 0 0 0 0 0 0 0 0 0 0 0 0 0 0 0 0 0 0 0 0 0 0 0 0 0 0 0 0 0 0 0 0 0 0 0 0 0 0 0 0 0 0 0 0 0 0 0 0 0 0 0 0 0 0 0 0 0 0 0 0 0 0 0 0 0 0 0 0 0 0 0 0 0 0 0 0 0 0 0 0 0 3 3 3 3 3 3 3 3 3 3 3 3 3 3 3 3 3 3 3 3 3 3 3 3 3 3 3 3 3 3 3 3 3 3 3 3 3 3 3 3 3 3 3 3 3 3 3 3 3 3 3 3 3 3 3 3 3 3 3 3 3 3 3 3 3 3 3 3 3 3 3 3 3 3 3 3 3 3 3 3 3 3 3 3 3 3 3 3 3 3 3 3 3 3 3 3 3 3 3 3 3 3 3 3 3 3 3 3 3 3 3 3 3 3 3 3 3 3 3 3 3 3 3 3 3 3 3 3 3 3 3 3 3 3 3 3 3 3 3 3 3 3 3 3 3 3 3 3 3 3 3 3 3 3 3 3 3 3 3 3 3 3 3 3 3 3 3 3 3 3 3 3 3 3 3 3 3 3 3 3 3 3 3 3 3 3 3 3 3 3 3 3 3 3 3 3 3 3 3 3 3 3 3 3 3 3 3 3 3 3 3 3 3 3 3 3 3 3 3 3 3 3 3 3 3 3 3 3 3 3 3 3 3 3 3 3 3 3 3 3 3 3 3 3 3 3 3 3 3 3 3 3 3 3 3 3 3 3 3 3 3 3 3 3 3 3 3 3 3 3 3 3 3 3 3 3 3 3 3 3 3 3 3 3 3 3 3 3 3 3 3 3 3 3 3 3 3 3 3 3 3 3 3 3 3 3 3 3 3 3 3 3 3 3 3 3 3 3 3 3 3 3 3 3 3 3 3 3 3 3 3 3 3 3 3 3 3 3 3 3 3 3 3 3 3 3 3 3 3 3 3 3 3 3 3 3 3 3 3 3 3 3 3 3 3 3 3 3 3 3 3 3 3 3 3 3 3 3 3 3 3 3 3 3 3 3 3 3 3 3 3 3 3 3 3 3 3 3 3 3 3 3 3 3 3 3 3 3 3 3 3 3 3 3 3 3 3 3 3 3 3 3 3 3 3 3 3 3 3 3 3 3 3 3 3 3 3 3 3 3 3 3 3 3 3 3 3 3 3 3 3 3 3 3 3 3 3 3 3 3 3 3 3 3 3 3 3 3 3 3 3 3 3 3 3 3 3 3 3 3 3 3 3 3 3 3 3 3 3 3 3 3 3 3 3 3 3 3 3 3 3 3 3 3 3 3 3 3 3 3 3 3 3 3 3 3 3 3 3 3 3 3 3 3 3 3 3 3 3 3 3 3 3 3 3 3 3 3 3 3 3 3 3 3 3 3 3 3 3 3 3 3 3 3 3 3 3 3 3 3 3 3 3 3 3 3 3 3 3 3 3 3 3 3 3 3 3 3 3 3 3 3 3 3 3 3 3 3 3 3 3 3 3 3 3 3 3 3 3 3 3 3 3 3 3 3 3 3 3 3 3 3 3 3 3 3 3 3 3 3 3 3 3 3 3 3 3 3 3 3 3 3 3 3 3 3 3 3 3 3 3 3 3 3 3 3 3 3 3 3 3 3 3 3 3 3 3 3 3 3 3 3 3 3 3 3 3 3 3 3 3 3 3 3 3 3 3 3 3 3 3 3 3 3 3 3 3 3 3 3 3 3 3 3 3 3 3 3 3 3 3 3 3 3 3 3 3 3 3 3 3 3 3 3 3 3 3 3 3 3 3 3 3 3 3 3 3 3 3 3 3 3 3 3 3 3 3 3 3 3 3 3 3 3 3 3 3 3 3 3 3 3 3 3 3 3 3 3 3 3 3 3 3 3 3 3 3 3 3 3 3 3 3 3 3 3 3 3 3 3 3 3 3 3 3 3 3 3 3 3 3 3 3 3 3 3 3 3 3 3 3 3 3 3 3 3 3 3 3 3 3 3 3 3 3 3 3 3 3 3 3 3 3 3 3 3 3 3 3 3 3 3 3 3 3 3 3 3 3 3 3 3 3 3 3 3 3 3 3 3 3 3 3 3 3 3 3 3 3 3 3 3 3 3 3 3 3 3 3 3 3 3 3 3 3 3 3 3 3 3 3 3 3 3 3 3 3 3 3 3 3 3 3 3 3 3 3 3 3 3 3 3 3 3 3 3 3 3 3 3 3 3 3 3 3 3 3 3 3 3 3 3 3 3 3 3 3 3 3 3 3 3 3 3 3 3 3 3 3 3 3 3 3 3 3 3 3 3 3 3 3 3 3 3 3 3 3 3 3 3 3 3 3 3 3 3 3 3 3 3 3 3 3 3 3 3 3 3 3 3 3 3 3 3 3 3 3 3 3 3 3 3 3 3 3 3 3 3 3 3 3 3 3 3 3 3 3 3 3 3 3 3 3 3 3 3 3 3 3 3 3 3 3 3 3 3 3 3 3 3 3 3 3 3 3 3 3 3 3 3 3 3 3 3 3 3 3 3 3 3 3 3 3 3 3 3 3 3 3 3 3 3 3 3 3 3 3 3 3 3 3 3 3 3 3 3 3 3 3 3 3 3 3 3 3 3 3 3 3 3 3 3 3 3 3 3 3 3 3 3 3 3 3 3 3 3 3 3 3 3 3 3 3 3 3 3 3 3 3 3 3 3 3 3 3 3 3 3 3 3 3 3 3 3 3 3 3 3 3 3 3 3 3 3 3 3 3 3 3 3 3 3 3 3 3 3 3 3 3 3 3 3 3 3 3 3 3 3 3 3 3 3 3 3 3 3 3 3 3 3 3 3 3 3 3 3 3 3 3 3 3 3 3 3 3 3 3 3 3 3 3 3 3 3 3 3 3 3 3 3 3 3 3 3 3 3 3 3 3 3 3 3 3 3 3 3 3 3 3 3 3 3 3 3 3 3 3 3 3 3 3 3 3 3 3 3 3 3 3 3 3 3 3 3 3 3 3 3 3 3 3 3 3 3 3 3 3 3 3 3 3 3 3 3 3 3 3 3 3 3 3 3 3 3 3 3 3 3 3 3 3 3 3 3 3 3 3 3 3 3 3 3 3 3 3 3 3 3 3 3 3 3 3 3 3 3 3 3 3 3 3 3 3 3 3 3 3 3 3 3 3 3 3 3 3 3 3 3 3 3 3 3 3 3 3 3 3 3 3 3 3 3 3 3 3 3 3 3 3 3 3 3 3 3 3 3 3 3 3 3 3 3 3 3 3 3 3 3 3 3 3 3 3 3 3 3 3 3 3 3 3 3 3 3 3 3 3 3 3 3 3 3 3 3 3 3 3 3 3 3 3 3 3 3 3 3 3 3 3 3 3 3 3 3 3 3 3 3 3 3 3 3 3 3 3 3 3 3 3 3 3 3 3 3 3 3 3 3 3 3 3 3 3 3 3 3 3 3 3 3 3 3 3 3 3 3 3 3 3 3 3 3 3 3 3 3 3 3 3 3 3 3 3 3 3 3 3 3 3 3 3 3 3 3 3 3 3 3 3 3 3 3 3 3 3 3 3 3 3 3 3 3 3 3 3 3 3 3 3 3 3 3 3 3 3 3 3 3 3 3 3 3 3 3 3 3 3 3 3 3 3 3 3 3 3 3 3 3 3 3 3 3 3 3 3 3 3 3 3 3 3 3 3 3 3 3 3 3 3 3 3 3 3 3 3 3 3 3 3 3 3 3 3 3 3 3 3 3 3 3 3 3 3 3 3 3 3 3 3 3 3 3 3 3 3 3 3 3 3 3 3 3 3 3 3 3 3 3 3 3 3 3 3 3 3 3 3 3 3 3 3 3 3 3 3 3 3 3 3 3 3 3 3 3 3 3 3 3 3 3 3 3 3 3 3 3 3 3 3 3 3 3 3 3 3 3 3 3 3 3 3 3 3 3 3 3 3 3 3 3 3 3 3 3 3 3 3 3 3 3 3 3 3 3 3 3 3 3 3 3 3 3 3 3 3 3 3 3 3 3 3 3 3 3 3 3 3 3 3 3 3 3 3 3 3 3 3 3 3 3 3 3 3 3 3 3 3 3 3 3 3 3 3 3 3 3 3 3 3 3 3 3 3 3 3 3 3 3 3 3 3 3 3 3 3 3 3 3 3 3 3 3 3 3 3 3 3 3 3 3 3 3 3 3 3 3 3 3 3 3 3 3 3 3 3 3 3 3 3 3 3 3 3 3 3 3 3 3 3 3 3 3 3 3 3 3 3 3 3 3 3 3 3 3 3 3 3 3 3 3 3 3 3 3 3 3 3 3 3 3 3 3 3 3 3 3 3 3 3 3 3 3 3 3 3 3 3 3 3 3 3 3 3 3 3 3 3 3 3 3 3 3 3 3 3 3 3 3 3 3 3 3 3 3 3 3 3 3 3 3 3 3 3 3 3 3 3 3 3 3 3 3 3 3 3 3 3 3 3 3 3 3 3 3 3 3 3 3 3 3 3 3 3 3 3 3 3 3 3 3 3 3 3 3 3 3 3 3 3 3 3 3 3 3 
CellOffSpring 1 2975 float
0 0 0 0 0 0 0 0 0 0 0 0 0 0 0 0 0 0 0 0 0 0 0 0 0 0 0 0 0 0 0 0 0 0 0 0 0 0 0 0 0 0 0 0 0 0 0 0 0 0 0 0 0 0 0 0 0 0 0 0 0 0 0 0 0 0 0 0 0 0 0 0 0 0 0 0 0 0 0 0 0 0 0 0 0 0 0 0 0 0 0 0 0 0 0 0 0 0 0 0 0 0 0 0 0 0 0 0 0 0 0 0 0 0 0 0 0 0 0 0 0 0 0 0 0 0 0 0 0 0 0 0 0 0 0 0 0 0 0 0 0 0 0 0 0 0 0 0 0 0 0 0 0 0 0 0 0 0 0 0 0 0 0 0 0 0 0 0 0 0 0 0 0 0 0 0 0 0 0 0 0 0 0 0 0 0 0 0 0 0 0 0 0 0 0 0 0 0 0 0 0 0 0 0 0 0 0 0 0 0 0 0 0 0 0 0 0 0 0 0 0 0 0 0 0 0 0 0 0 0 0 0 0 0 0 0 0 0 0 0 0 0 0 0 0 0 0 0 0 0 0 0 0 0 0 0 0 0 0 0 0 0 0 0 0 0 0 0 0 0 0 0 0 0 0 0 0 0 0 0 0 0 0 0 0 0 0 0 0 0 0 0 0 0 0 0 0 0 0 0 0 0 0 0 0 0 0 0 0 0 0 0 0 0 0 0 0 0 0 0 0 0 0 0 0 0 0 0 0 0 0 0 0 0 0 0 0 0 0 0 0 0 0 0 0 0 0 0 0 0 0 0 0 0 0 0 0 0 0 0 0 0 0 0 0 0 0 0 0 0 0 0 0 0 0 0 0 0 0 0 0 0 0 0 0 0 0 0 0 0 0 0 0 0 0 0 0 0 0 0 0 0 0 0 0 0 0 0 0 0 0 0 0 0 0 0 0 0 0 0 0 0 0 0 0 0 0 0 0 0 0 0 0 0 0 0 0 0 0 0 0 0 0 0 0 0 0 0 0 0 0 0 0 0 0 0 0 0 0 0 0 0 0 0 0 0 0 0 0 0 0 0 0 0 0 0 0 0 0 0 0 0 0 0 0 0 0 0 0 0 0 0 0 0 0 0 0 0 0 0 0 0 0 0 0 0 0 0 0 0 0 0 0 0 0 0 0 0 0 0 0 0 0 0 0 0 0 0 0 0 0 0 0 0 0 0 0 0 0 0 0 0 0 0 0 0 0 0 0 0 0 0 0 0 0 0 0 0 0 0 0 0 0 0 0 0 0 0 0 0 0 0 0 0 0 0 0 0 0 0 0 0 0 0 0 0 0 0 0 0 0 0 0 0 0 0 0 0 0 0 0 0 0 0 0 0 0 0 0 0 0 0 0 0 0 0 0 0 0 0 0 0 0 0 0 0 0 0 0 0 0 0 0 0 0 0 0 0 0 0 0 0 0 0 0 0 0 0 0 0 0 0 0 0 0 0 0 0 0 0 0 0 0 0 0 0 0 0 0 0 0 0 0 0 0 0 0 0 0 0 0 0 0 0 0 0 0 0 0 0 0 0 0 0 0 0 0 0 0 0 0 0 0 0 0 0 0 0 0 0 0 0 0 0 0 0 0 0 0 0 0 0 0 0 0 0 0 0 0 0 0 0 0 0 0 0 0 0 0 0 0 0 0 0 0 0 0 0 0 0 0 0 0 0 0 0 0 0 0 0 0 0 0 0 0 0 0 0 0 0 0 0 0 0 0 0 0 0 0 0 0 0 0 0 0 0 0 0 0 0 0 0 0 0 0 0 0 0 0 0 0 0 0 0 0 0 0 0 0 0 0 0 0 0 0 0 0 0 0 0 0 0 0 0 0 0 0 0 0 0 0 0 0 0 0 0 0 0 0 0 0 0 0 0 0 0 0 0 0 0 0 0 0 0 0 0 0 0 0 0 0 0 0 0 0 0 0 0 0 0 0 0 0 0 0 0 0 0 0 0 0 0 0 0 0 0 0 0 0 0 0 0 0 0 0 0 0 0 0 0 0 0 0 0 0 0 0 0 0 0 0 0 0 0 0 0 0 0 0 0 0 0 0 0 0 0 0 0 0 0 0 0 0 0 0 0 0 0 0 0 0 0 0 0 0 0 0 0 0 0 0 0 0 0 0 0 0 0 0 0 0 0 0 0 0 0 0 0 0 0 0 0 0 0 0 0 0 0 0 0 0 0 0 0 0 0 0 0 0 0 0 0 0 0 0 0 0 0 0 0 0 0 0 0 0 0 0 0 0 0 0 0 0 0 0 0 0 0 0 0 0 0 0 0 0 0 0 0 0 0 0 0 0 0 0 0 0 0 0 0 0 0 0 0 0 0 0 0 0 0 0 0 0 0 0 0 0 0 0 0 0 0 0 0 0 0 0 0 0 0 0 0 0 0 0 0 0 0 0 0 0 0 0 0 0 0 0 0 0 0 0 0 0 0 0 0 0 0 0 0 0 0 0 0 0 0 0 0 0 0 0 0 0 0 0 0 0 0 0 0 0 0 0 0 0 0 0 0 0 0 0 0 0 0 0 0 0 0 0 0 0 0 0 0 0 0 0 0 0 0 0 0 0 0 0 0 0 0 0 0 0 0 0 0 0 0 0 0 0 0 0 0 0 0 0 0 0 0 0 0 0 0 0 0 0 0 0 0 0 0 0 0 0 0 0 0 0 0 0 0 0 0 0 0 0 0 0 0 0 0 0 0 0 0 0 0 0 0 0 0 0 0 0 0 0 0 0 0 0 0 0 0 0 0 0 0 0 0 0 0 0 0 0 0 0 0 0 0 0 0 0 0 0 0 0 0 0 0 0 0 0 0 0 0 0 0 0 0 0 0 0 0 0 0 0 0 0 0 0 0 0 0 0 0 0 0 0 0 0 0 0 0 0 0 0 0 0 0 0 0 0 0 0 0 0 0 0 0 0 0 0 0 0 0 0 0 0 0 0 0 0 0 0 0 0 0 0 0 0 0 0 0 0 0 0 0 0 0 0 0 0 0 0 0 0 0 0 0 0 0 0 0 0 0 0 0 0 0 0 0 0 0 0 0 0 0 0 0 0 0 0 0 0 0 0 0 0 0 0 0 0 0 0 0 0 0 0 0 0 0 0 0 0 0 0 0 0 0 0 0 0 0 0 0 0 0 0 0 0 0 0 0 0 0 0 0 0 0 0 0 0 0 0 0 0 0 0 0 0 0 0 0 0 0 0 0 0 0 0 0 0 0 0 0 0 0 0 0 0 0 0 0 0 0 0 0 0 0 0 0 0 0 0 0 0 0 0 0 0 0 0 0 0 0 0 0 0 0 0 0 0 0 0 0 0 0 0 0 0 0 0 0 0 0 0 0 0 0 0 0 0 0 0 0 0 0 0 0 0 0 0 0 0 0 0 0 0 0 0 0 0 0 0 0 0 0 0 0 0 0 0 0 0 0 0 0 0 0 0 0 0 0 0 0 0 0 0 0 0 0 0 0 0 0 0 0 0 0 0 0 0 0 0 0 0 0 0 0 0 0 0 0 0 0 0 0 0 0 0 0 0 0 0 0 0 0 0 0 0 0 0 0 0 0 0 0 0 0 0 0 0 0 0 0 0 0 0 0 0 0 0 0 0 0 0 0 0 0 0 0 0 0 0 0 0 0 0 0 0 0 0 0 0 0 0 0 0 0 0 0 0 0 0 0 0 0 0 0 0 0 0 0 0 0 0 0 0 0 0 0 0 0 0 0 0 0 0 0 0 0 0 0 0 0 0 0 0 0 0 0 0 0 0 0 0 0 0 0 0 0 0 0 0 0 0 0 0 0 0 0 0 0 0 0 0 0 0 0 0 0 0 0 0 0 0 0 0 0 0 0 0 0 0 0 0 0 0 0 0 0 0 0 0 0 0 0 0 0 0 0 0 0 0 0 0 0 0 0 0 0 0 0 0 0 0 0 0 0 0 0 0 0 0 0 0 0 0 0 0 0 0 0 0 0 0 0 0 0 0 0 0 0 0 0 0 0 0 0 0 0 0 0 0 0 0 0 0 0 0 0 0 0 0 0 0 0 0 0 0 0 0 0 0 0 0 0 0 0 0 0 0 0 0 0 0 0 0 0 0 0 0 0 0 0 0 0 0 0 0 0 0 0 0 0 0 0 0 0 0 0 0 0 0 0 0 0 0 0 0 0 0 0 0 0 0 0 0 0 0 0 0 0 0 0 0 0 0 0 0 0 0 0 0 0 0 0 0 0 0 0 0 0 0 0 0 0 0 0 0 0 0 0 0 0 0 0 0 0 0 0 0 0 0 0 0 0 0 0 0 0 0 0 0 0 0 0 0 0 0 0 0 0 0 0 0 0 0 0 0 0 0 0 0 0 0 0 0 0 0 0 0 0 0 0 0 0 0 0 0 0 0 0 0 0 0 0 0 0 0 0 0 0 0 0 0 0 0 0 0 0 0 0 0 0 0 0 0 0 0 0 0 0 0 0 0 0 0 0 0 0 0 0 0 0 0 0 0 0 0 0 0 0 0 0 0 0 0 0 0 0 0 0 0 0 0 0 0 0 0 0 0 0 0 0 0 0 0 0 0 0 0 0 0 0 0 0 0 0 0 0 0 0 0 0 0 0 0 0 0 0 0 0 0 0 0 0 0 0 0 0 0 0 0 0 0 0 0 0 0 0 0 0 0 0 0 0 0 0 0 0 0 0 0 0 0 0 0 0 0 0 0 0 0 0 0 0 0 0 0 0 0 0 0 0 0 0 0 0 0 0 0 0 0 0 0 0 0 0 0 0 0 0 0 0 0 0 0 0 0 0 0 0 0 0 0 0 0 0 0 0 0 0 0 0 0 0 0 0 0 0 0 0 0 0 0 0 0 0 0 0 0 0 0 0 0 0 0 0 0 0 0 0 0 0 0 0 0 0 0 0 0 0 0 0 0 0 0 0 0 0 0 0 0 0 0 0 0 0 0 0 0 0 0 0 0 0 0 0 0 0 0 0 0 0 0 0 0 0 0 0 0 0 0 0 0 0 0 0 0 0 0 0 0 0 0 0 0 0 0 0 0 0 0 0 0 0 0 0 0 0 0 0 0 0 0 0 0 0 0 0 0 0 0 0 0 0 0 0 0 0 0 0 0 0 0 0 0 0 0 0 0 0 0 0 0 0 0 0 0 0 0 0 0 0 0 0 0 0 0 0 0 0 0 0 0 0 0 0 0 0 0 0 0 0 0 0 0 0 0 0 0 0 0 0 0 0 0 0 0 0 0 0 0 0 0 0 0 0 0 0 0 0 0 0 0 0 0 0 0 0 0 0 0 0 0 0 0 0 0 0 0 0 0 0 0 0 0 0 0 0 0 0 0 0 0 0 0 0 0 0 0 0 0 0 0 0 0 0 0 0 0 0 0 0 0 0 0 0 0 0 0 0 0 0 0 0 0 0 0 0 0 0 0 0 0 0 0 0 0 0 0 0 0 0 0 0 0 0 0 0 0 0 0 0 0 0 0 0 0 0 0 0 0 0 0 0 0 0 0 0 0 0 0 0 0 0 0 0 0 0 0 0 0 0 0 0 0 0 0 0 0 0 0 0 0 0 0 0 0 0 0 0 0 0 0 0 0 0 0 0 0 0 0 0 0 0 0 0 0 0 0 0 0 0 0 0 0 0 0 0 0 0 0 0 0 0 0 0 0 0 0 0 0 0 0 0 0 0 0 0 0 0 0 0 0 0 0 0 0 0 0 0 0 0 0 0 0 0 0 0 0 0 0 0 0 0 0 0 0 0 0 0 0 0 0 0 0 0 0 0 0 0 0 0 0 0 0 0 0 0 0 0 0 0 0 0 0 0 0 0 0 0 0 0 0 0 0 0 0 0 0 0 0 0 0 0 0 0 0 0 0 0 0 0 0 0 0 0 0 0 0 0 0 0 0 0 0 0 0 0 0 0 0 0 0 0 0 0 0 0 0 0 0 0 0 0 0 0 0 0 0 0 0 0 0 0 0 0 0 0 0 0 0 0 0 0 0 0 0 0 0 0 0 0 0 0 0 0 0 0 0 0 0 0 0 0 0 0 0 0 0 0 0 0 0 0 0 0 0 0 0 0 0 0 0 0 0 0 0 0 0 0 0 0 0 0 0 0 0 0 0 0 0 0 0 0 0 0 0 0 0 0 0 0 0 0 0 0 0 0 0 0 0 0 0 0 0 0 0 0 0 0 0 0 0 0 0 0 0 0 0 0 0 0 0 0 0 0 0 0 0 0 0 0 0 0 0 0 0 0 0 0 0 0 0 0 0 0 0 0 0 0 0 0 0 0 0 0 0 0 0 0 0 0 0 0 0 0 0 0 0 0 0 0 0 0 0 0 0 0 0 0 0 0 0 0 0 0 0 0 0 0 0 0 0 0 0 0 0 0 0 0 0 0 0 0 0 0 0 0 0 0 0 0 0 0 0 0 0 0 0 0 0 0 0 0 0 0 0 0 0 0 0 0 0 0 0 0 0 0 0 0 0 0 0 0 0 0 0 0 0 0 0 0 0 0 0 0 0 0 0 0 0 0 0 0 0 0 0 0 0 0 0 0 0 0 0 0 0 0 0 0 0 0 0 0 0 0 0 0 0 0 0 0 0 0 0 0 0 0 0 0 0 0 0 0 0 0 0 0 0 0 0 0 0 0 0 0 0 0 0 0 0 0 0 
GradVel 1 2975 float
0.0 0.0 0.0 0.0 0.0 0.0 0.0 0.0 0.0 0.0 0.0 0.0 0.0 -1.3300646e-06 -7.405254399999999e-17 -6.9801126e-06 -4.7039243999999995e-05 -1.271864e-05 -9.257449699999999e-05 -0.00029134861000000003 -0.00010668341000000001 -0.00040490343 -0.0009723529800000001 -0.00037817273000000003 -0.0011037886 -0.0023178363 -0.0008878607800000001 -0.0022676969 -0.0044127484 -0.0016152970000000001 -0.0038326145 -0.0071239219999999995 -0.0024600425 -0.0056018066 -0.010120121999999999 -0.0032914686 -0.0073337713 -0.013014617 -0.0040186829999999995 -0.008867010500000001 -0.015573338 -0.0046398435 -0.010206927 -0.017844044 -0.0052509541 -0.011555178000000001 -0.020206282 -0.006035243199999999 -0.013293453 -0.023331437000000003 -0.0072648455 -0.015979901 -0.028150203 -0.009382736899999999 -0.02042485 -0.035879742 -0.01310009 -0.027601141000000003 -0.047700621 -0.019363916999999998 -0.038110167 -0.063737035 -0.052141041 -0.083109058 0.0 0.0 0.0 0.0 0.0 0.0 0.0 0.0 0.0 0.0 0.0 0.0 0.0 0.0 0.0 0.0 0.0 0.0 0.0 0.0 0.0 0.0 0.0 0.0 0.0 -2.3785526e-07 -1.5113152e-06 -3.5720193e-06 -5.3369880999999995e-06 -6.322034099999999e-06 -7.0003025e-06 -7.513905499999999e-06 -1.1431497999999998e-05 -3.7084006e-05 -7.8912868e-05 -0.00013042586000000002 -0.00018112255 -0.00022241587999999998 -0.00025153172000000004 -0.00027126761 -0.00014064077 -0.00029746362 -0.00051201001 -0.00075913983 -0.0010018001 -0.0012093685000000001 -0.0013697017 -0.0014858722 -0.00063673162 -0.0011432878 -0.00179384 -0.0025215654 -0.0032303196000000004 -0.0038439562 -0.0043324283 -0.0047002193 -0.0018435961 -0.0030485697 -0.004549792 -0.0061992039 -0.0077917064 -0.0091713844 -0.010281555999999999 -0.011132888 -0.004064255399999999 -0.0064042164 -0.0092679309 -0.01237336 -0.015338814 -0.017892488999999998 -0.019951172 -0.021543477000000002 -0.0073774923 -0.011272058 -0.015978467 -0.021012898999999998 -0.025746362000000002 -0.029779492 -0.033022705 -0.035540033 -0.011548986 -0.017269099 -0.024081446 -0.031234186 -0.037818397999999996 -0.043364413 -0.047806848 -0.05125526 -0.016061354 -0.023611549 -0.032378963999999996 -0.020336116 -0.029461721 -0.024081292999999997 -0.034515372999999995 -0.02745555 -0.039161541 -0.031078296000000002 -0.044252556 -0.035963222 -0.051096222999999996 -0.04342835 -0.06128991 -0.055070136 -0.076604798 -0.072303593 -0.098493367 -0.095058285 -0.12688938 -0.12154973 -0.15982714 0.0 0.0 0.0 0.0 0.0 0.0 0.0 0.0 0.0 0.0 0.0 0.0 0.0 0.0 0.0 0.0 0.0 0.0 0.0 0.0 0.0 0.0 0.0 0.0 0.0 0.0 0.0 -7.8798694e-06 -8.1233693e-06 -8.271586e-06 -8.3502791e-06 -8.3822506e-06 -8.3858567e-06 -8.3752193e-06 -8.360742000000001e-06 -8.3493615e-06 -0.0002854499 -0.0002952714 -0.00030159327 -0.00030528463 -0.00030713415000000003 -0.00030780636 -0.00030782635 -0.00030758025000000004 -0.00030733118 -0.0015675339000000002 -0.0016245279 -0.0016623577 -0.0016854943 -0.001698115 -0.0017038051000000001 -0.0017054344 -0.0017051478 -0.0017044098 -0.0049665672999999995 -0.005153457199999999 -0.0052795759 -0.0053589972999999996 -0.0054044607 -0.0054270644 -0.0054357974 -0.005437428100000001 -0.005436609499999999 -0.011762379 -0.012211185 -0.01251735 -0.012713641999999999 -0.01282925 -0.012889788000000001 -0.012916154 -0.01292416 -0.012924741000000002 -0.022735763 -0.02359689 -0.024190281 -0.024574915 -0.024805227000000003 -0.024929332999999998 -0.024986634 -0.025007056 -0.025011286 -0.037438507999999995 -0.038821761 -0.039781749 -0.04040812 -0.040786333 -0.040993202 -0.041091464 -0.041128945 -0.041138623 -0.053863260999999996 -0.055772204000000006 -0.057101864 -0.057970970999999996 -0.058496911 -0.058785937999999996 -0.058924574 -0.058978635999999994 -0.058993517999999995 0.0 0.0 0.0 0.0 0.0 0.0 0.0 0.0 0.0 0.0 0.0 0.0 0.0 0.0 0.0 0.0 0.0 0.0 0.0 0.0 0.0 0.0 0.0 0.0 -8.3451323e-06 -8.3493605e-06 -8.360740099999999e-06 -8.3752184e-06 -8.385858599999999e-06 -8.3822488e-06 -8.3502819e-06 -8.2715878e-06 -0.00030723197 -0.00030733127 -0.00030758025000000004 -0.00030782632999999996 -0.00030780632999999997 -0.00030713415000000003 -0.00030528472 -0.00030159322 -0.0017040707999999999 -0.0017044098 -0.0017051477 -0.0017054344 -0.0017038046 -0.0016981151 -0.0016854943 -0.0016623570000000002 -0.0054360419 -0.0054366086 -0.0054374267 -0.0054357974 -0.0054270639 -0.0054044602 -0.005358996800000001 -0.0052795759 -0.012924237 -0.012924739 -0.012924157 -0.01291615 -0.01288979 -0.012829253 -0.012713647 -0.012517351000000001 -0.025011385 -0.02501129 -0.025007049 -0.024986636 -0.024929332999999998 -0.024805224 -0.024574911 -0.024190284 -0.041139759 -0.04113863 -0.041128952 -0.041091457000000005 -0.040993188 -0.040786333 -0.040408131 -0.039781764 -0.058995582000000005 -0.058993522 -0.058978620999999995 -0.058924593 -0.058785919000000006 -0.058496922 -0.057970963 -0.057101846 0.0 0.0 0.0 0.0 0.0 0.0 0.0 0.0 0.0 0.0 0.0 0.0 0.0 0.0 0.0 0.0 0.0 0.0 0.0 0.0 0.0 0.0 0.0 0.0 0.0 0.0 0.0 -8.1233675e-06 -7.8798694e-06 -7.513905499999999e-06 -7.0003025e-06 -6.322035499999999e-06 -5.336989e-06 -3.5720209e-06 -1.5113158000000002e-06 -2.3785529999999998e-07 -0.0002952714 -0.00028544995999999997 -0.00027126761 -0.00025153166 -0.00022241587999999998 -0.00018112256999999998 -0.00013042591 -7.8912883e-05 -3.7084017e-05 -0.0016245279 -0.0015675341 -0.0014858726999999999 -0.0013697013 -0.0012093685000000001 -0.0010018003 -0.0007591399499999999 -0.0005120103 -0.00029746367 -0.0051534567 -0.0049665659 -0.0047002197 -0.0043324279 -0.0038439559000000003 -0.0032303201 -0.0025215663 -0.0017938404 -0.0011432881 -0.012211185 -0.011762382 -0.011132891 -0.010281553 -0.0091713835 -0.007791706800000001 -0.0061992072 -0.004549791599999999 -0.0030485711 -0.023596887999999996 -0.022735761 -0.021543475 -0.019951176 -0.017892488999999998 -0.015338813 -0.012373364 -0.0092679299 -0.0064042164 -0.038821746000000004 -0.037438518999999996 -0.035540022000000004 -0.033022697999999996 -0.029779481 -0.025746362000000002 -0.021012904 -0.01597847 -0.01127206 -0.055772182000000003 -0.05386325 -0.051255256 -0.047806844 -0.043364417 -0.037818395 -0.031234186 -0.024081442999999998 -0.017269097 -0.032378949 -0.023611552999999997 -0.029461715 -0.034515372999999995 -0.039161537 -0.04425256 -0.051096208 -0.061289892 -0.076604798 -0.098493375 -0.12688938 -0.15982716 0.0 0.0 0.0 0.0 0.0 0.0 0.0 0.0 0.0 0.0 0.0 0.0 0.0 0.0 0.0 -1.1431496999999999e-05 -1.3300645e-06 0.0 0.0 -0.00014064077 -4.7039226e-05 -6.9801117e-06 -7.4052524e-17 -0.00063673174 -0.00029134861000000003 -9.2574483e-05 -1.271864e-05 -0.0018435963 -0.0009723530400000001 -0.00040490349 -0.00010668343999999998 -0.004064255399999999 -0.0023178363 -0.0011037885 -0.00037817279 -0.0073774927 -0.0044127489 -0.002267696 -0.0008878607800000001 -0.011548988999999999 -0.0071239219999999995 -0.003832615 -0.0016152972 -0.016061354 -0.010120123 -0.0056018066 -0.0024600425 -0.020336114 -0.013014616000000001 -0.0073337727 -0.0032914690999999996 -0.024081297 -0.015573338 -0.008867010500000001 -0.0040186844 -0.027455552 -0.017844044 -0.010206926 -0.0046398444 -0.031078301000000003 -0.020206276000000002 -0.01155518 -0.005250955 -0.035963222 -0.023331441 -0.013293448000000001 -0.0060352422 -0.043428365 -0.028150197000000002 -0.015979899 -0.0072648441 -0.055070132 -0.035879742 -0.020424847 -0.0093827378 -0.072303616 -0.047700614 -0.027601136000000002 -0.01310009 -0.09505829199999999 -0.063737035 -0.038110171 -0.019363916999999998 -0.12154973 -0.083109066 -0.052141037 0.0 0.0 0.0 0.0 0.0 0.0 0.0 0.0 0.0 0.0 0.0 0.0 0.0 0.0 0.0 0.0 0.0 0.0 0.0 0.0 0.0 0.0 0.0 0.0 0.0 0.0 0.0 0.0 0.0 0.0 0.0 0.0 0.0 0.0 0.0 0.0 0.0 0.0 0.0 0.0 0.0 0.0 0.0 0.0 0.0 0.0 0.0 0.0 0.0 0.0 0.0 0.0 0.0 0.0 0.0 0.0 0.0 0.0 0.0 0.0 0.0 0.0 0.0 0.0 0.0 0.0 0.0 0.0 0.0 0.0 0.0 0.0 0.0 0.0 0.0 0.0 0.0 0.0 0.0 0.0 0.0 0.0 0.0 0.0 0.0 0.0 0.0 0.0 0.0 0.0 0.0 0.0 0.0 0.0 0.0 0.0 0.0 0.0 0.0 0.0 0.0 0.0 0.0 0.0 0.0 0.0 0.0 0.0 0.0 0.0 0.0 0.0 0.0 0.0 0.0 0.0 0.0 0.0 0.0 0.0 0.0 0.0 0.0 0.0 0.0 0.0 0.0 0.0 0.0 0.0 0.0 0.0 0.0 0.0 0.0 0.0 0.0 0.0 0.0 0.0 0.0 0.0 0.0 0.0 0.0 0.0 0.0 0.0 0.0 0.0 0.0 0.0 0.0 0.0 0.0 0.0 0.0 0.0 0.0 0.0 0.0 0.0 0.0 0.0 0.0 0.0 0.0 0.0 0.0 0.0 0.0 0.0 0.0 0.0 0.0 0.0 0.0 0.0 0.0 0.0 0.0 0.0 0.0 0.0 0.0 0.0 0.0 0.0 0.0 0.0 0.0 0.0 0.0 0.0 0.0 0.0 0.0 0.0 0.0 0.0 0.0 0.0 0.0 0.0 0.0 0.0 0.0 0.0 0.0 0.0 0.0 0.0 0.0 0.0 0.0 0.0 0.0 0.0 0.0 0.0 0.0 0.0 0.0 0.0 0.0 0.0 0.0 0.0 0.0 0.0 0.0 0.0 0.0 0.0 0.0 0.0 0.0 0.0 0.0 0.0 0.0 0.0 0.0 0.0 0.0 0.0 0.0 0.0 0.0 0.0 0.0 0.0 0.0 0.0 0.0 0.0 0.0 0.0 0.0 0.0 0.0 0.0 0.0 0.0 0.0 0.0 0.0 0.0 0.0 0.0 0.0 0.0 0.0 0.0 0.0 0.0 0.0 0.0 0.0 0.0 0.0 0.0 0.0 0.0 0.0 0.0 0.0 0.0 0.0 0.0 0.0 0.0 0.0 0.0 0.0 0.0 0.0 0.0 0.0 0.0 0.0 0.0 0.0 0.0 0.0 0.0 0.0 0.0 0.0 0.0 0.0 0.0 0.0 0.0 0.0 0.0 0.0 0.0 0.0 0.0 0.0 0.0 0.0 0.0 0.0 0.0 0.0 0.0 0.0 0.0 0.0 0.0 0.0 0.0 0.0 0.0 0.0 0.0 0.0 0.0 0.0 0.0 0.0 0.0 0.0 0.0 0.0 0.0 0.0 0.0 0.0 0.0 0.0 0.0 0.0 0.0 0.0 0.0 0.0 0.0 0.0 0.0 0.0 0.0 0.0 0.0 0.0 0.0 0.0 0.0 0.0 0.0 0.0 0.0 0.0 0.0 0.0 0.0 0.0 0.0 0.0 0.0 0.0 0.0 0.0 0.0 0.0 0.0 0.0 0.0 0.0 0.0 0.0 0.0 0.0 0.0 0.0 0.0 0.0 0.0 0.0 0.0 0.0 0.0 0.0 0.0 0.0 0.0 0.0 0.0 0.0 0.0 0.0 0.0 0.0 0.0 0.0 0.0 0.0 0.0 0.0 0.0 0.0 0.0 0.0 0.0 0.0 0.0 0.0 0.0 0.0 0.0 0.0 0.0 0.0 0.0 0.0 0.0 0.0 0.0 0.0 0.0 0.0 0.0 0.0 0.0 0.0 0.0 0.0 0.0 0.0 0.0 0.0 0.0 0.0 0.0 0.0 0.0 0.0 0.0 0.0 0.0 0.0 0.0 0.0 0.0 0.0 0.0 0.0 0.0 0.0 0.0 -0.041214831 -0.049318932 -0.056053039000000006 -0.06141438 -0.065556556 -0.039294131 -0.049835242 -0.059011675 -0.066541865 -0.072454281 -0.076960541 -0.045589740999999996 -0.057327084 -0.067441091 -0.075582817 -0.081827946 -0.086470269 -0.051561952 -0.064553976 -0.075634122 -0.08437366 -0.09088479699999999 -0.09555674300000001 -0.058290142999999996 -0.072637491 -0.084724583 -0.09409637 -0.10089073 -0.10556065 -0.067788251 -0.083379157 -0.096153639 -0.10587211 -0.11280217 -0.1174181 -0.083053768 -0.099378958 -0.11174776 -0.12085135 -0.1272943 -0.13156134 -0.1078686 -0.12357808 -0.13333131 -0.13996305 -0.14471866 -0.14800857 -0.14587641 -0.15803884 -0.16177022 -0.16342108 -0.16496204 -0.16648751 -0.1984161 -0.2017343 -0.19573115 -0.19018964 -0.1873562 -0.18657325 -0.25990871 -0.24882236 -0.23114932 -0.21782044 -0.21060336 -0.20761229 -0.30686662 -0.28866935 -0.2623747 -0.24336953 -0.23324491 -0.22889361 -0.30781963 -0.30445668 -0.28352255 -0.26477408 -0.25444144 -0.25006539 -0.29745173 -0.30299425 -0.29469842 -0.28225213 -0.27452511 -0.27137837 -0.29826435 -0.30406183 -0.30393246 -0.29870176 -0.2948927 -0.2935403 -0.31023824 -0.31418407 -0.31768012 -0.31763166 -0.3171373 -0.31734595 -0.33044237 -0.33357826 -0.33812708 -0.34061414 -0.34209383 -0.34336373 -0.35657796 -0.35963637 -0.36419329 -0.36750525 -0.36995283 -0.37193626 -0.38599074 -0.3894279 -0.3941417 -0.39767405 -0.400702 -0.40327322 -0.41764256 -0.42194495 -0.42711872 -0.4308472 -0.43433979 -0.43739876 -0.45224178 -0.45733571 -0.46296999 -0.46686727 -0.4707593 -0.47420925 -0.49010417 -0.49576259 -0.50160837 -0.50563663 -0.50984091 -0.51355922 -0.53152448 -0.53731406 -0.54303038 -0.54711145 -0.55143446 -0.55521685 -0.57644886 -0.58178252 -0.58709955 -0.59099722 -0.59504205 -0.59854025 -0.6238386 -0.62818658 -0.63290983 -0.63606828 -0.63913316 -0.64182329 -0.67081267 -0.67382169 -0.6777879 -0.67911541 -0.68019587 -0.68145591 -0.7115823 -0.71314156 -0.71605051 -0.7138679 -0.71184391 -0.71115607 -0.7368691 -0.7370013 -0.73818958 -0.73034537 -0.72435272 -0.72166491 -0.73276341 -0.73190987 -0.73024678 -0.71491277 -0.70500845 -0.70108604 -0.67812574 -0.67750186 -0.67240542 -0.64998984 -0.63819921 -0.63498282 -0.54148841 -0.54414648 -0.53556573 -0.51274854 -0.50301611 -0.50332975 -0.2853688 -0.29114121 -0.29016423 -0.27685097 -0.27194795 -0.27811995 0.11964016 0.10892576 0.092640154 0.0841076 0.079239771 0.068039849 0.65109736 0.64995474 0.61408252 0.58096838 0.55886036 0.5449127 1.2088253 1.2411758 1.2064840000000001 1.1698066999999999 1.1372448999999998 1.126636 1.7514991999999998 1.7945620999999998 1.7698023 1.7650531999999999 1.7434813999999998 1.7434762 2.1161799 2.1815782 2.2094636000000003 2.2480189999999998 2.2636092 2.2891304 2.2267919 2.3481603 2.4157802999999998 2.5010437999999997 2.5732646 2.64325 2.1668157999999997 2.3408785 2.4346322999999996 2.5559244 2.6731312000000003 2.7798212 2.0456667 2.2520123 2.3738252999999996 2.5003052 2.6394912999999995 2.7663412 1.9427625 2.1554017000000005 2.3011084 2.4237289 2.5641921 2.6925449 1.8904095 2.0943886999999997 2.2509064999999997 2.3721142000000004 2.4992425 2.6150291 1.8721308 2.0579946 2.2120616 2.33109 2.4414976000000004 2.5384618999999997 1.8497558999999997 2.0094418999999997 2.1502702 2.2622371 2.3540549 2.4299664 1.7817759999999998 1.9119036 2.0307958 2.1259928 2.1964023 2.2500272 1.6481415000000001 1.748906 1.8403968000000002 1.9059012999999998 1.9511317 1.9814694 1.4657809 1.5387790000000001 1.5895046999999998 1.6194543 1.6358325 1.6431471999999998 1.271426 1.3171334 1.3151356 1.3060138000000001 1.297498 1.2830114 1.0901927 1.1099166999999999 1.055567 1.0166396 0.98550153 0.95144993 0.92486596 0.92497689 0.83503598 0.78082496 0.72660983 0.68036097 0.77513784 0.76341861 0.65992159 0.59489834 0.52806568 0.4777838 0.63388896 0.62072265 0.51887757 0.45002145 0.38266522 0.33412522 0.49728861 0.49458888 0.40317088 0.33521929 0.27505955 0.23238385 0.46168965 0.39952987 0.30085969 0.2407397 0.19206695 0.15785807 0.39770889 0.30563426 0.20412616 0.1576367 0.12562019 0.10056036 0.22628406 0.11458854 0.079274878 0.068999775 0.055769265 0.16962053 0.057874754 0.011986412 0.019719094 0.019924611000000002 0.048828172999999996 -0.026246078 -0.021501824 -0.0083096474 0.06755887 -0.012908831 -0.045622252 -0.029041022000000003 0.046202749 -0.02180171 -0.028920457000000004 0.048733525 0.022303365 0.042119313 0.095000252 -0.06868217900000001 -0.070970006 -0.072562285 -0.07359921900000001 -0.074224152 -0.074565955 -0.074728765 -0.074791297 -0.074807875 -0.08032354 -0.082764447 -0.08444605 -0.085524559 -0.086162746 -0.08650247800000001 -0.086656369 -0.08670891800000001 -0.08671806 -0.089852035 -0.092249289 -0.093853854 -0.09484309699999999 -0.095399201 -0.095670491 -0.095771447 -0.09578658599999999 -0.09577354800000001 -0.098827526 -0.10104232 -0.1024358 -0.10322239 -0.10360786 -0.10374497 -0.10374635 -0.10369327 -0.10364046 -0.10865083 -0.11059006 -0.11167199 -0.11216649 -0.1123067 -0.11225074 -0.11210878 -0.11195746 -0.11184742 -0.1202656 -0.12184989 -0.12254224 -0.12267457 -0.12250881 -0.12221062 -0.12188784 -0.12161206 -0.12142917 -0.13404772 -0.13518719 -0.13542117 -0.1351327 -0.13461243 -0.13403367 -0.13350134 -0.13308109 -0.13281363 -0.14987886 -0.15048048 -0.15018998 -0.14943184 -0.14852202 -0.14763798 -0.14687911 -0.14630353 -0.14594528 -0.16742139 -0.16739161 -0.16653517 -0.16528206 -0.16396856 -0.16277334 -0.1617865 -0.16105554 -0.16060728 -0.18636246 -0.18566872 -0.18426773 -0.18254015 -0.18084385 -0.17935637 -0.17815785 -0.1772839 -0.17675318 -0.20635319 -0.20509757 -0.20325792 -0.20114128 -0.19912572 -0.19739455 -0.19601993 -0.19502765 -0.19442891 -0.22703245 -0.22546491 -0.22337386 -0.22101651 -0.21879035 -0.21689235 -0.21539508 -0.21431985 -0.21367338 -0.24823427 -0.24667667 -0.24456647 -0.24215671 -0.23986015 -0.23789367 -0.23634113 -0.235227 -0.23455758 -0.27010262 -0.26883125 -0.2669239 -0.26465157 -0.26243106 -0.2605027 -0.25896892 -0.25786442 -0.25720021 -0.29304743 -0.29221776 -0.29067785 -0.28869396 -0.28667668 -0.28488544 -0.28344274 -0.28239769 -0.28176707 -0.31758925 -0.3172532 -0.31615856 -0.31455007 -0.31282583 -0.31125221 -0.30996624 -0.30902722 -0.30845845 -0.34421703 -0.34436953 -0.3437171 -0.34250936 -0.34112623 -0.33982879 -0.33875421 -0.33796516 -0.33748573 -0.3733246 -0.37390333 -0.37364393 -0.37282056 -0.37179735 -0.37081593 -0.37000018 -0.36940107 -0.36903849 -0.40511376 -0.40603867 -0.40610981 -0.40564299 -0.40498737 -0.40435436 -0.40383813 -0.40346804 -0.40324706 -0.43960238 -0.4408024 -0.44115353 -0.44102204 -0.44074243 -0.4404881 -0.44030991 -0.44020256 -0.44014701 -0.47669148 -0.47810537 -0.47869617 -0.4788821 -0.47898495 -0.47913232 -0.47932261 -0.47950575 -0.47963542 -0.51621801 -0.51776731 -0.5185374 -0.51900107 -0.51947153 -0.52002627 -0.52060062 -0.52109379 -0.52142155 -0.55788112 -0.55942285 -0.56025219 -0.56090039 -0.56168103 -0.56261754 -0.5635736 -0.56438339 -0.56491661 -0.60091883 -0.60220528 -0.60287809 -0.6035437 -0.60452449 -0.60578668 -0.60710508 -0.60822999 -0.60897434 -0.64349401 -0.64415723 -0.6443581 -0.64479882 -0.64582688 -0.64733875 -0.64899492 -0.65043575 -0.65139914 -0.68192911 -0.68153125 -0.68087995 -0.68081117 -0.68171293 -0.683397 -0.68537277 -0.68714219 -0.68833888 -0.71008217 -0.70827734 -0.70645082 -0.70561868 -0.70623964 -0.70803273 -0.71032655 -0.7124452 -0.71389842 -0.71914113 -0.71597564 -0.71295458 -0.71130252 -0.71159524 -0.71348768 -0.7161181 -0.71861881 -0.72035527 -0.69793469 -0.6941846 -0.69061321 -0.68858874 -0.68881178 -0.69094855 -0.69400311 -0.69693577 -0.69898325 -0.63291478 -0.63020205 -0.62761974 -0.62646163 -0.62742352 -0.63023692 -0.63390005 -0.6373136 -0.63966453 -0.50489223 -0.50551593 -0.50605655 -0.50761354 -0.51062632 -0.51481593 -0.51933253 -0.52321643 -0.52577955 -0.28564787 -0.29187083 -0.29755837 -0.30358714 -0.3099606 -0.31621766 -0.32172558 -0.32591075 -0.32845771 0.054735884000000005 0.042453915 0.030957431 0.019794077 0.0095679462 0.001113236 -0.0051010846999999995 -0.0090740323 -0.011153638 0.53032249 0.5153656 0.50032568 0.48559874 0.47270569 0.46313655 0.45734799 0.45468429 0.45388412 1.1194625 1.1096438999999998 1.0970118999999998 1.0831485 1.0709727 1.0629662 1.0598125 1.0602357 1.0619195 1.7530202000000001 1.7584391 1.7566008999999998 1.7500898 1.7436485000000002 1.7410432 1.7434142 1.7490177 1.7544839 2.3222394 2.3506894 2.3671243 2.3742449 2.3785365 2.3850689 2.3955762000000003 2.4080477000000005 2.4182472 2.7106807 2.765507 2.8020517999999996 2.8248738999999996 2.8419877999999996 2.8594341 2.8792901 2.899266 2.9144332000000004 2.8751674 2.950094 3.0021906000000005 3.0379747999999998 3.0665855 3.094456 3.1234912999999995 3.1508222000000004 3.1708078 2.875267 2.959012 3.018055 3.0605249 3.0961845 3.1313751 3.1673841 3.2005293 3.2243772 2.8003685000000003 2.8810554 2.9373037999999996 2.9785247000000004 3.0148162999999997 3.0521996 3.0912034999999998 3.1272597 3.1531830000000003 2.7108881 2.7794511 2.8249372999999998 2.8577397 2.8881943 2.9220759999999997 2.9593425 2.9947228 3.0204797 2.6165462 2.6681497000000003 2.6983235 2.7180176 2.7377896 2.7634177 2.7946784 2.8260264 2.8494699 2.4882646 2.5217209 2.5354216 2.5402907999999997 2.5469985 2.5615485000000002 2.5839496 2.6088517 2.6283814999999997 2.2882113 2.3043461 2.3027634999999997 2.2936412999999995 2.2874036 2.2902963 2.3028407000000004 2.3202342999999996 2.3350661 1.9996643 2.0002637 1.9860981 1.9657673999999998 1.9488866000000002 1.9417161 1.945313 1.9556178 1.9658947 1.6428063999999998 1.6309608 1.6083111 1.5811447 1.5576885 1.5438447 1.5410466999999999 1.5459812 1.5526725000000001 1.2675185 1.2475024 1.221157 1.1920559 1.1666253999999998 1.1500803 1.1440237 1.1458019 1.1502039 0.92573422 0.90215629 0.87640989 0.84941018 0.82569134 0.80962229 0.8028397 0.80326521 0.80643684 0.64980918 0.62650967 0.60423148 0.58162498 0.56155658 0.54760975 0.54141706 0.54141486 0.54388762 0.44676465 0.42618442 0.40853938 0.39086625 0.37477261 0.36324111 0.35790277 0.35765094 0.35951227 0.30567798 0.28876284 0.27545559 0.26198953 0.24917713 0.2395751 0.23477599 0.23406148 0.2351796 0.2086325 0.19529343 0.18509281 0.1744689 0.16388066 0.15552017 0.15083173 0.14940135 0.14964031 0.13968565 0.12937266 0.12075162 0.11146905 0.10211346 0.094438225 0.089599371 0.08738544599999999 0.086762577 0.08848959199999999 0.081068307 0.073101759 0.06391841200000001 0.054887622999999996 0.047408193 0.04228669400000001 0.03940627 0.038102984 0.049864054000000005 0.045946404 0.038977891 0.029499157999999998 0.019919723 0.011990905 0.0063189566 0.0028049052000000004 0.00097966194 0.020474762 0.021087632000000002 0.016874671 0.0081462115 -0.0020720065 -0.011163831 -0.017942071 -0.022376955 -0.02481699 -0.00283508 0.0026578903 0.0032005459000000003 -0.002387926 -0.011719226999999999 -0.021574423 -0.029854745 -0.035687834 -0.03904894 -0.021704732999999997 -0.013804971999999999 -0.0077298283999999995 -0.0078647882 -0.013608828 -0.022237822 -0.030919582 -0.037917717999999996 -0.042321816 -0.030403852000000002 -0.029087245 -0.021512866000000002 -0.01556319 -0.015347346999999999 -0.019905075 -0.02681537 -0.033566922 -0.038326307999999996 -0.012363285 -0.029677764 -0.036448598 -0.03061302 -0.024310946 -0.022714942999999998 -0.025289282000000003 -0.029874071000000002 -0.033861741 0.040412091000000004 -0.00060458481 -0.027192324 -0.043158293 -0.041718796 -0.035922185 -0.032985315 -0.033660546 -0.03558898 0.074762478 0.03853859 0.01042816 -0.022963062000000003 -0.043188632000000005 -0.050872132 -0.04939311 -0.047303535 -0.047221385 0.031143032 0.027429528999999998 -0.0035754293 -0.022163466 -0.043935865 -0.052892938 -0.059335686 -0.062978625 -0.028585367 -0.032707237 -0.054900028 -0.065025456 -0.077070296 -0.08612839900000001 -0.10591274 -0.11313226 -0.12167308 -0.12573943 -0.07481002099999999 -0.074807882 -0.074791312 -0.074728757 -0.07456594 -0.074224144 -0.073599227 -0.07256227700000001 -0.086717486 -0.08671808199999999 -0.086708881 -0.086656354 -0.086502455 -0.086162746 -0.085524537 -0.084446065 -0.09576562 -0.09577354800000001 -0.09578660900000001 -0.09577149900000001 -0.09567047699999999 -0.09539917099999999 -0.094843104 -0.093853876 -0.10361948 -0.10364053 -0.10369327 -0.10374632 -0.10374498 -0.10360793 -0.10322236 -0.1024358 -0.11180758 -0.11184741 -0.11195746 -0.11210882 -0.11225073 -0.11230669 -0.11216648 -0.11167199 -0.12136544 -0.12142915 -0.12161206 -0.12188783 -0.12221065 -0.12250888 -0.12267458 -0.1225423 -0.13272199 -0.13281371 -0.13308112 -0.1335014 -0.13403365 -0.13461243 -0.1351327 -0.13542116 -0.14582382 -0.14594537 -0.1463034 -0.14687908 -0.14763793 -0.14852206 -0.14943193 -0.15018986 -0.16045631 -0.16060731 -0.16105555 -0.16178659 -0.16277334 -0.16396864 -0.16528206 -0.16653524 -0.17657536 -0.17675324 -0.17728402 -0.17815781 -0.17935638 -0.18084379 -0.18254024 -0.18426766 -0.19422883 -0.19442903 -0.19502762 -0.19601984 -0.19739455 -0.1991258 -0.20114131 -0.2032579 -0.21345782 -0.21367353 -0.21431988 -0.21539508 -0.21689221 -0.21879031 -0.22101653 -0.2233739 -0.23433459 -0.2345577 -0.23522688 -0.23634107 -0.23789373 -0.23986003 -0.24215694 -0.24456644 -0.25697872 -0.25720018 -0.25786448 -0.25896892 -0.26050273 -0.26243103 -0.26465172 -0.26692411 -0.28155628 -0.28176695 -0.28239778 -0.28344285 -0.28488535 -0.2866765 -0.28869382 -0.29067802 -0.30826819 -0.30845848 -0.30902731 -0.30996644 -0.31125218 -0.31282589 -0.31454995 -0.31615844 -0.33732507 -0.33748573 -0.33796507 -0.33875418 -0.3398287 -0.34112623 -0.34250933 -0.34371728 -0.3689169 -0.36903813 -0.36940107 -0.37000018 -0.37081581 -0.37179753 -0.37282059 -0.37364388 -0.40317386 -0.40324682 -0.40346798 -0.40383813 -0.4043543 -0.40498739 -0.40564299 -0.40610999 -0.44012988 -0.44014707 -0.44020233 -0.44030982 -0.44048807 -0.44074279 -0.44102228 -0.44115359 -0.47968125 -0.4796353 -0.47950613 -0.47932258 -0.47913241 -0.47898507 -0.47888196 -0.47869599 -0.52153516 -0.52142102 -0.52109373 -0.52060074 -0.52002645 -0.51947159 -0.51900113 -0.51853734 -0.56510204 -0.56491685 -0.56438333 -0.5635739 -0.56261736 -0.56168091 -0.56090075 -0.56025231 -0.60923326 -0.60897404 -0.60822994 -0.60710448 -0.60578626 -0.60452461 -0.60354412 -0.60287803 -0.65173483 -0.65139884 -0.65043628 -0.64899451 -0.64733851 -0.64582682 -0.64479899 -0.64435852 -0.68875873 -0.68833876 -0.68714255 -0.68537313 -0.6833967 -0.68171299 -0.68081129 -0.68087995 -0.71441084 -0.71389771 -0.71244502 -0.71032619 -0.70803279 -0.70623988 -0.70561874 -0.70645058 -0.72097141 -0.72035539 -0.71861851 -0.7161181 -0.71348786 -0.71159542 -0.71130264 -0.71295446 -0.69971073 -0.69898236 -0.69693571 -0.69400311 -0.69094861 -0.68881196 -0.68858856 -0.69061393 -0.64049506 -0.63966405 -0.63731396 -0.63390017 -0.63023704 -0.62742341 -0.62646163 -0.6276198 -0.52666616 -0.52577883 -0.52321684 -0.51933247 -0.51481616 -0.51062632 -0.50761378 -0.50605679 -0.32930225 -0.32845718 -0.32591021 -0.32172543 -0.31621778 -0.30996028 -0.30358675 -0.29755813 -0.011780143 -0.011153281000000001 -0.0090739429 -0.0051012337 0.0011135638 0.0095678866 0.019794166000000002 0.030957267000000004 0.45377505 0.45388398 0.45468447 0.45734814 0.46313658 0.47270584 0.4855985 0.50032556 1.0627615 1.0619196000000002 1.0602357 1.0598121999999999 1.0629665000000001 1.0709722 1.0831485 1.0970117 1.7567177999999999 1.7544837 1.7490175 1.7434151000000002 1.7410433 1.7436493999999998 1.7500898 1.7566009999999999 2.4221838 2.4182487 2.4080479 2.3955764999999998 2.3850689 2.3785362 2.3742447 2.3671236 2.9201175999999998 2.914432 2.8992672 2.8792901 2.8594334 2.8419895 2.8248743999999997 2.802053 3.1781757 3.1708081000000004 3.1508222000000004 3.1234903 3.0944562 3.0665851 3.0379753 3.0021904 3.2331027999999997 3.2243795 3.2005291000000002 3.1673832 3.1313758 3.0961828 3.0605264 3.0180545 3.1626554000000002 3.1531808 3.1272599999999997 3.0912034999999998 3.0521988999999996 3.0148175 2.9785249 2.9373044999999998 3.0299428 3.0204802 2.9947223999999997 2.9593418 2.9220752999999995 2.8881946 2.8577402000000003 2.8249372999999998 2.8581831 2.8494697 2.8260257 2.7946798999999998 2.763418 2.7377908 2.7180171000000004 2.6983237 2.6357789 2.6283817000000003 2.6088519 2.5839491000000003 2.5615468 2.546999 2.5402915 2.5354217999999995 2.3408627999999996 2.3350654 2.3202336 2.3028397999999997 2.2902963 2.2874031 2.2936403999999997 2.3027627 1.9701201000000002 1.9658944999999999 1.9556179 1.9453127000000001 1.9417164 1.9488859 1.9657679 1.9860985 1.5556383 1.5526723999999998 1.5459813999999998 1.5410465 1.543844 1.5576878 1.5811445 1.6083107 1.1523337 1.1502042 1.1458018 1.1440233 1.1500803999999998 1.1666254999999999 1.1920558 1.2211565 0.80807757 0.80643696 0.80326521 0.80283964 0.80962217 0.82569087 0.84941018 0.87640971 0.54520893 0.54388762 0.54141468 0.54141724 0.54760969 0.56155664 0.58162504 0.60423136 0.36053893 0.35951224 0.35765073 0.35790297 0.36324099 0.37477252 0.39086613 0.40853918 0.23586565 0.23517947 0.23406154 0.23477614 0.23957521 0.24917698 0.26198947 0.27545571 0.14994219 0.14964058 0.14940113 0.15083177 0.15552035 0.1638808 0.17446919 0.185093 0.086696565 0.08676248800000001 0.087385386 0.089599192 0.094438255 0.10211365 0.11146931 0.12075195 0.037750155 0.038103402 0.0394063 0.042286754 0.047408372000000004 0.054887816 0.063918278 0.073101729 0.00042274594000000007 0.00097984076 0.0028048158000000003 0.0063188969999999995 0.011991382 0.019919783 0.029499172999999997 0.038977921 -0.025588065 -0.024817348 -0.022376925 -0.017942101000000002 -0.011163861 -0.0020718724 0.0081464052 0.01687479 -0.040137231 -0.039049059 -0.035687655 -0.029854789 -0.021574616 -0.011719257 -0.0023878515 0.0032004118 -0.043815911 -0.042321712000000004 -0.037918031 -0.030919388 -0.022238016 -0.013608708999999998 -0.007864818 -0.0077298283999999995 -0.040041924 -0.038326472 -0.033567101 -0.026815607999999998 -0.019905165 -0.015347183 -0.01556313 -0.021512911000000003 -0.03538768 -0.03386195 -0.029874265 -0.025289401 -0.022715151 -0.024311066 -0.030613109 -0.036448464 -0.036543459 -0.035589203 -0.033660591000000004 -0.032985568 -0.035922259 -0.041718885 -0.043158262999999995 -0.027192503 -0.047444694 -0.047221467 -0.047303498 -0.049393482999999995 -0.050872266 -0.043188602 -0.022963151 0.010427862 -0.064566843 -0.062978856 -0.05933560400000001 -0.052893154000000005 -0.043936305 -0.022163972 -0.0035756528 0.027429602999999997 -0.088654287 -0.086128496 -0.077070259 -0.065026067 -0.054900370999999996 -0.032707243999999996 -0.028585597999999997 -0.12659004 -0.12573969 -0.12167342 -0.1131323 -0.10591285 -0.070969991 -0.068682171 -0.065556549 -0.061414372 -0.056053030999999996 -0.049318913 -0.041214835 -0.082764454 -0.080323547 -0.076960534 -0.072454274 -0.066541865 -0.059011687 -0.049835235 -0.039294124 -0.09224931900000001 -0.089852035 -0.086470269 -0.081827946 -0.075582802 -0.067441106 -0.057327088 -0.045589764000000005 -0.10104233 -0.098827526 -0.09555669900000001 -0.090884805 -0.084373675 -0.07563412900000001 -0.064553976 -0.051561952 -0.1105901 -0.10865081 -0.10556069 -0.10089074 -0.094096363 -0.08472456800000001 -0.072637498 -0.058290139000000005 -0.12184998 -0.12026564 -0.11741805 -0.11280219 -0.10587213 -0.09615367699999999 -0.083379164 -0.067788251 -0.13518725 -0.13404764 -0.13156141 -0.12729427 -0.12085135 -0.11174771 -0.099378951 -0.083053797 -0.15048048 -0.1498788 -0.14800853 -0.14471859 -0.139963 -0.13333127 -0.12357805 -0.10786855 -0.16739164 -0.16742145 -0.16648757 -0.16496204 -0.16342111 -0.16177031 -0.15803888 -0.14587642 -0.18566874 -0.18636255 -0.18657325 -0.18735623 -0.19018967 -0.19573121 -0.2017343 -0.19841617 -0.20509759 -0.2063532 -0.20761244 -0.21060343 -0.21782048 -0.23114932 -0.24882239 -0.25990874 -0.2254649 -0.22703256 -0.2288935 -0.23324494 -0.24336953 -0.26237461 -0.28866938 -0.30686662 -0.24667673 -0.24823433 -0.2500653 -0.25444129 -0.26477402 -0.28352255 -0.30445677 -0.30781958 -0.26883128 -0.27010259 -0.27137825 -0.27452531 -0.28225213 -0.29469851 -0.30299437 -0.2974517 -0.29221785 -0.29304767 -0.29354042 -0.29489264 -0.29870173 -0.30393249 -0.30406165 -0.29826429 -0.31725356 -0.31758922 -0.31734589 -0.31713733 -0.31763181 -0.31768006 -0.31418404 -0.31023827 -0.34436956 -0.34421709 -0.34336388 -0.34209386 -0.34061408 -0.33812714 -0.33357829 -0.33044261 -0.37390345 -0.37332478 -0.37193659 -0.36995289 -0.36750522 -0.36419344 -0.35963649 -0.3565779 -0.40603852 -0.40511349 -0.40327317 -0.40070218 -0.39767411 -0.39414191 -0.38942799 -0.38599098 -0.44080254 -0.43960229 -0.43739873 -0.43433964 -0.43084735 -0.42711872 -0.42194515 -0.41764259 -0.47810543 -0.47669154 -0.47420913 -0.47075957 -0.46686733 -0.46297011 -0.45733559 -0.4522419 -0.51776731 -0.51621819 -0.5135594 -0.50984061 -0.50563705 -0.50160825 -0.49576303 -0.49010462 -0.55942327 -0.55788094 -0.55521697 -0.55143452 -0.54711145 -0.54303044 -0.53731388 -0.53152448 -0.6022051 -0.60091877 -0.59854037 -0.59504223 -0.59099716 -0.58709967 -0.5817824 -0.57644892 -0.64415741 -0.64349419 -0.64182365 -0.63913286 -0.63606834 -0.63290942 -0.62818682 -0.62383866 -0.68153095 -0.68192911 -0.68145597 -0.68019605 -0.67911506 -0.67778796 -0.67382157 -0.67081237 -0.70827723 -0.71008217 -0.71115595 -0.71184397 -0.7138679 -0.71605068 -0.71314174 -0.7115823 -0.71597642 -0.71914101 -0.72166467 -0.72435284 -0.73034555 -0.7381897 -0.737001 -0.7368691 -0.69418418 -0.69793475 -0.70108569 -0.70500821 -0.71491253 -0.73024714 -0.73190999 -0.73276353 -0.63020241 -0.63291436 -0.63498276 -0.63819951 -0.64998996 -0.67240572 -0.67750221 -0.67812604 -0.50551611 -0.50489235 -0.50332958 -0.50301647 -0.51274854 -0.53556573 -0.54414648 -0.54148847 -0.29187095 -0.28564826 -0.27812031 -0.27194813 -0.27685106 -0.29016444 -0.29114109 -0.28536877 0.042453587 0.054736137000000004 0.068039685 0.079239815 0.08410739199999999 0.092640221 0.10892558 0.11963982 0.51536542 0.53032213 0.54491246 0.55886042 0.58096814 0.61408269 0.64995474 0.65109742 1.1096433 1.1194620000000002 1.126636 1.1372445 1.1698064 1.2064838 1.2411761000000001 1.2088261 1.7584393 1.75302 1.7434762 1.7434816000000002 1.7650531999999999 1.7698021000000002 1.7945619 1.7514991999999998 2.3506899 2.3222389 2.2891304 2.2636096 2.2480189999999998 2.2094646 2.1815789 2.1161807 2.7655067000000004 2.7106814 2.6432502 2.5732644000000002 2.5010448 2.4157805 2.3481593 2.2267926 2.9500957000000003 2.8751683 2.7798212 2.6731312000000003 2.5559249 2.4346325 2.3408792000000003 2.1668168999999997 2.9590127 2.8752694 2.7663431 2.6394911 2.5003052 2.3738256 2.2520139 2.0456626 2.8810568 2.8003676 2.6925453999999998 2.5641932 2.4237304 2.3011091 2.1554031000000005 1.942763 2.7794514 2.7108874 2.6150289 2.4992421 2.3721132000000003 2.2509069 2.094389 1.8904096000000001 2.6681487999999995 2.6165469 2.5384613999999996 2.441498 2.3310892999999995 2.2120613999999996 2.0579948 1.8721306 2.5217221000000003 2.4882636000000002 2.429965 2.354053 2.2622356 2.1502695 2.0094416 1.8497558 2.3043454 2.2882105999999998 2.2500265 2.1964016 2.1259921000000004 2.0307946 1.9119028000000002 1.7817756 2.0002631999999996 1.9996643 1.9814694 1.9511306000000002 1.9059011000000001 1.8403957999999998 1.7489052999999999 1.6481414 1.6309593999999998 1.6428049 1.6431473 1.635832 1.6194541 1.5895033 1.5387788999999998 1.4657815 1.247502 1.2675188 1.2830113 1.2974979 1.3060132 1.3151363 1.3171335 1.2714258 0.90215641 0.92573369 0.95145011 0.98550159 1.0166401 1.0555673 1.109917 1.0901928 0.62650979 0.64980924 0.68036091 0.72661 0.78082466 0.83503604 0.92497754 0.92486608 0.42618468 0.44676474 0.47778407 0.52806562 0.5948984 0.65992182 0.76341867 0.7751379 0.28876308 0.30567813 0.33412537 0.38266522 0.45002156 0.51887774 0.62072265 0.63388872 0.19529369 0.20863232 0.23238382 0.27505961 0.33521959 0.40317076 0.49458885 0.4972887 0.12937275 0.13968569 0.15785815 0.19206713 0.24073991 0.30085972 0.39952993 0.46168971 0.081068486 0.08848995 0.10056052 0.12562022 0.1576369 0.20412603 0.30563438 0.39770845 0.045946345 0.049864217999999995 0.055769295 0.068999961 0.079274759 0.11458859 0.22628443 0.0210879 0.020474746999999998 0.01992473 0.019719079 0.01198636 0.057875097 0.16962023 0.0026578903 -0.00283508 -0.0083094239 -0.021501884 -0.026246092999999998 0.0488283 -0.013804838 -0.021704629 -0.029041052 -0.045622475 -0.01290895 0.067558721 -0.029087275 -0.030403972 -0.028920843999999998 -0.021801554 0.046202544000000005 -0.029677749 -0.0123633 0.022303574 0.048733301 -0.0006045252099999999 0.040411621 0.09500009599999999 0.042118844 0.038539186 0.074761994 0.031143025 
VonMises3D 1 2975 float
0.0 0.0 0.0 0.0 0.0 0.0 0.0 0.0 0.0 0.0 0.0 0.0 0.0 0.00417173 7.949529599999999e-14 0.030701423 0.1721729 0.06499115400000001 0.4604561 1.1975291000000001 0.60621995 2.204139 4.3725605000000005 2.3415296000000003 6.5054617 11.316801 5.967471099999999 14.449554000000001 23.398256 11.77327 26.384937 41.016052 19.384329 41.522984 63.020802 27.838287 58.063728000000005 86.784348 36.028385 73.978729 109.31993999999999 43.254032 88.002411 128.84892 49.547802000000004 100.1476 145.84898 58.617183999999995 111.78472 164.80923 108.99885 138.13147 198.09317 316.66385 279.22934 264.61295 888.5662800000001 739.0242900000001 364.88055 2152.3345 1737.1246 452.26430999999997 3314.2285 576.12463 0.0 0.0 0.0 0.0 0.0 0.0 0.0 0.0 0.0 0.0 0.0 0.0 0.0 0.0 0.0 0.0 0.0 0.0 0.0 0.0 0.0 0.0 0.0 0.0 0.0 0.00026536523 0.00082621607 0.00046909862 0.0005981084 0.0010584602999999999 0.0011870513 0.0012572724 0.026003092999999998 0.055121145999999996 0.06693234299999999 0.049086305999999996 0.0079960497 0.036379181000000003 0.062929086 0.069760732 0.3744964 0.51937151 0.52783149 0.38085753 0.11662836 0.17328131 0.39140591 0.49835247 1.9042674 2.264293 2.1389701 1.5150046 0.52255851 0.55131346 1.395649 1.8684169999999998 6.0647011 6.6993618 6.0890174 4.2554512 1.5295072 1.3831178 3.7091699 5.0723124 14.620016 15.525203 13.809732 9.555512400000001 3.4790108 2.9212894 8.0427418 11.102736 29.075605 30.233646000000004 26.568165000000004 18.201042 6.571979 5.4320536 14.953476 20.667538 49.900616 51.321262 44.734196000000004 30.220932 10.57081 9.1287308 24.508532000000002 33.695469 75.770042 77.397377 66.639786 103.41821 104.8762 129.00946000000002 129.32339 150.47427 148.86279 168.86389 164.73662 198.59096 198.17026 318.65411 386.21375 695.21649 981.36731 1501.559 2265.8638 2792.0122 4435.7412 4232.2197 7140.4346 0.0 0.0 0.0 0.0 0.0 0.0 0.0 0.0 0.0 0.0 0.0 0.0 0.0 0.0 0.0 0.0 0.0 0.0 0.0 0.0 0.0 0.0 0.0 0.0 0.0 0.0 0.0 0.0012844808 0.0012819526 0.0012621037 0.0012350309 0.001204603 0.0011749119 0.0011490331 0.0011289028 0.0011162863 0.07004442799999999 0.067851938 0.06433839400000001 0.060339887 0.056384537 0.0527975 0.049786218 0.047520854 0.046116143 0.51431847 0.49385732 0.46069738 0.42273223 0.38516772 0.35123432 0.32299939 0.30185625 0.28878379 2.0095398 1.9439805000000001 1.8017303 1.6344968 1.4671406 1.3154333999999999 1.1892068 1.0948584 1.0365961 5.5501513 5.4392614 5.036556200000001 4.543272 4.0425987 3.5858324 3.2049800999999998 2.9202423 2.7444789000000003 12.238246 12.065975 11.195982 10.067772 8.9074621 7.8417182 6.9504366 6.283411 5.8716083 22.829462 22.542639 20.93606 18.783317999999998 16.545803 14.478642 12.744857000000001 11.445686 10.643303999999999 37.164028 36.662186 34.019753 30.459757 26.729640999999997 23.267954 20.357325 18.173754000000002 16.824558 0.0 0.0 0.0 0.0 0.0 0.0 0.0 0.0 0.0 0.0 0.0 0.0 0.0 0.0 0.0 0.0 0.0 0.0 0.0 0.0 0.0 0.0 0.0 0.0 0.0011119709 0.0011162863999999999 0.0011289027 0.0011490332000000001 0.0011749119 0.0012046034 0.0012350311 0.0012621034 0.045639072 0.046116143 0.047520857 0.049786221 0.052797515 0.056384549000000006 0.060339894000000005 0.064338379 0.28436536 0.28878379 0.30185634 0.32299948 0.35123441 0.38516769 0.42273223 0.46069738 1.0169053 1.0365961 1.0948586 1.1892072 1.3154337 1.4671409 1.6344968999999998 1.8017303 2.685075 2.7444794 2.920243 3.2049809 3.5858335 4.0426002 4.543273 5.036556200000001 5.7324162 5.8716083 6.283412 6.9504371 7.8417187 8.907464 10.067774 11.195982 10.372094 10.643305999999999 11.445687 12.744859 14.478645000000002 16.545801 18.783317999999998 20.936062 16.368502 16.824562 18.173756 20.357329999999997 23.267955999999998 26.729645 30.459757 34.019749 0.0 0.0 0.0 0.0 0.0 0.0 0.0 0.0 0.0 0.0 0.0 0.0 0.0 0.0 0.0 0.0 0.0 0.0 0.0 0.0 0.0 0.0 0.0 0.0 0.0 0.0 0.0 0.0012819526 0.001284481 0.0012572724 0.0011870512 0.0010584602999999999 0.0005981085700000001 0.00046909812999999996 0.00082621595 0.00026536515 0.067851916 0.070044436 0.069760755 0.062929086 0.036379181000000003 0.0079960497 0.04908631 0.066932335 0.055121135 0.4938572 0.51431847 0.49835247 0.39140591 0.17328134 0.11662838 0.38085765 0.52783149 0.51937151 1.9439806 2.0095396 1.8684168 1.3956493 0.55131352 0.52255833 1.5150048 2.1389701 2.264293 5.4392614 5.5501513 5.072311900000001 3.7091699 1.3831183 1.529507 4.2554517 6.0890169 6.699360400000001 12.065974 12.238244 11.102735000000001 8.0427427 2.9212911 3.4790108 9.5555162 13.809735 15.525205 22.542637 22.829462 20.667538 14.953476 5.4320555 6.5719786 18.201042 26.568171999999997 30.233646000000004 36.662186 37.164032 33.695469 24.508539000000003 9.1287336 10.570807 30.220936 44.7342 51.321262 66.639786 77.397377 104.8762 129.32338000000001 148.86278000000001 164.7366 198.17023999999998 386.21375 981.36731 2265.8645 4435.7417 7140.4355 0.0 0.0 0.0 0.0 0.0 0.0 0.0 0.0 0.0 0.0 0.0 0.0 0.0 0.0 0.0 0.026003085 0.0041717282000000005 0.0 0.0 0.37449631 0.17217284 0.030701419 7.949525499999999e-14 1.9042671999999998 1.1975287000000001 0.4604561 0.06499115400000001 6.064700599999999 4.372559099999999 2.2041383 0.60621995 14.620016 11.316796 6.5054593 2.3415293999999998 29.075605 23.398252 14.449551000000001 5.9674702 49.900616 41.016048 26.384937 11.773269 75.77005 63.020798 41.52298 19.384329 103.41821 86.784355 58.063728000000005 27.838287 129.00949 109.31995 73.978737 36.028385 150.47427 128.84892 88.002426 43.254036 168.86393999999999 145.84898 100.14761 49.547802000000004 198.59096 164.80923 111.78472 58.617180000000005 318.65424 198.09313999999998 138.13147 108.99883 695.21686 264.61298 279.22934 316.66382000000004 1501.5591 364.88058 739.02441 888.5662800000001 2792.0127 452.26430999999997 1737.1245 2152.3345 4232.2197 576.1245700000001 3314.2288 0.0 0.0 0.0 0.0 0.0 0.0 0.0 0.0 0.0 0.0 0.0 0.0 0.0 0.0 0.0 0.0 0.0 0.0 0.0 0.0 0.0 0.0 0.0 0.0 0.0 0.0 0.0 0.0 0.0 0.0 0.0 0.0 0.0 0.0 0.0 0.0 0.0 0.0 0.0 0.0 0.0 0.0 0.0 0.0 0.0 0.0 0.0 0.0 0.0 0.0 0.0 0.0 0.0 0.0 0.0 0.0 0.0 0.0 0.0 0.0 0.0 0.0 0.0 0.0 0.0 0.0 0.0 0.0 0.0 0.0 0.0 0.0 0.0 0.0 0.0 0.0 0.0 0.0 0.0 0.0 0.0 0.0 0.0 0.0 0.0 0.0 0.0 0.0 0.0 0.0 0.0 0.0 0.0 0.0 0.0 0.0 0.0 0.0 0.0 0.0 0.0 0.0 0.0 0.0 0.0 0.0 0.0 0.0 0.0 0.0 0.0 0.0 0.0 0.0 0.0 0.0 0.0 0.0 0.0 0.0 0.0 0.0 0.0 0.0 0.0 0.0 0.0 0.0 0.0 0.0 0.0 0.0 0.0 0.0 0.0 0.0 0.0 0.0 0.0 0.0 0.0 0.0 0.0 0.0 0.0 0.0 0.0 0.0 0.0 0.0 0.0 0.0 0.0 0.0 0.0 0.0 0.0 0.0 0.0 0.0 0.0 0.0 0.0 0.0 0.0 0.0 0.0 0.0 0.0 0.0 0.0 0.0 0.0 0.0 0.0 0.0 0.0 0.0 0.0 0.0 0.0 0.0 0.0 0.0 0.0 0.0 0.0 0.0 0.0 0.0 0.0 0.0 0.0 0.0 0.0 0.0 0.0 0.0 0.0 0.0 0.0 0.0 0.0 0.0 0.0 0.0 0.0 0.0 0.0 0.0 0.0 0.0 0.0 0.0 0.0 0.0 0.0 0.0 0.0 0.0 0.0 0.0 0.0 0.0 0.0 0.0 0.0 0.0 0.0 0.0 0.0 0.0 0.0 0.0 0.0 0.0 0.0 0.0 0.0 0.0 0.0 0.0 0.0 0.0 0.0 0.0 0.0 0.0 0.0 0.0 0.0 0.0 0.0 0.0 0.0 0.0 0.0 0.0 0.0 0.0 0.0 0.0 0.0 0.0 0.0 0.0 0.0 0.0 0.0 0.0 0.0 0.0 0.0 0.0 0.0 0.0 0.0 0.0 0.0 0.0 0.0 0.0 0.0 0.0 0.0 0.0 0.0 0.0 0.0 0.0 0.0 0.0 0.0 0.0 0.0 0.0 0.0 0.0 0.0 0.0 0.0 0.0 0.0 0.0 0.0 0.0 0.0 0.0 0.0 0.0 0.0 0.0 0.0 0.0 0.0 0.0 0.0 0.0 0.0 0.0 0.0 0.0 0.0 0.0 0.0 0.0 0.0 0.0 0.0 0.0 0.0 0.0 0.0 0.0 0.0 0.0 0.0 0.0 0.0 0.0 0.0 0.0 0.0 0.0 0.0 0.0 0.0 0.0 0.0 0.0 0.0 0.0 0.0 0.0 0.0 0.0 0.0 0.0 0.0 0.0 0.0 0.0 0.0 0.0 0.0 0.0 0.0 0.0 0.0 0.0 0.0 0.0 0.0 0.0 0.0 0.0 0.0 0.0 0.0 0.0 0.0 0.0 0.0 0.0 0.0 0.0 0.0 0.0 0.0 0.0 0.0 0.0 0.0 0.0 0.0 0.0 0.0 0.0 0.0 0.0 0.0 0.0 0.0 0.0 0.0 0.0 0.0 0.0 0.0 0.0 0.0 0.0 0.0 0.0 0.0 0.0 0.0 0.0 0.0 0.0 0.0 0.0 0.0 0.0 0.0 0.0 0.0 0.0 0.0 0.0 0.0 0.0 0.0 0.0 0.0 0.0 0.0 0.0 0.0 0.0 0.0 0.0 0.0 0.0 0.0 0.0 0.0 0.0 0.0 0.0 0.0 0.0 0.0 0.0 0.0 0.0 0.0 0.0 0.0 0.0 0.0 0.0 0.0 0.0 0.0 0.0 0.0 0.0 0.0 0.0 0.0 0.0 43.134254 14.611714000000001 13.903382 35.840061 48.832642 81.625885 55.466170999999996 17.625301 19.35022 47.449141999999995 63.907348999999996 99.41789200000001 65.149147 18.87361 25.280449 58.313357999999994 77.312637 112.82319 71.493965 18.053997 31.682201 68.086113 88.425049 122.26993 74.680077 15.295712 38.555588 76.862724 97.448814 146.2066 87.254211 23.030159 46.379616 85.091003 105.18226999999999 326.03461 216.72586 102.33417 65.596909 94.549942 113.31613 884.99176 618.5471200000001 320.65594 139.49857 112.17308 125.48395 2016.4873 1404.1316 737.01996 302.87811 154.5457 148.20573000000002 3724.2832 2541.5081 1319.3776 537.42291 232.25023 190.56063999999998 5442.7642 3666.4702 1874.8003 764.40515 333.68807999999996 261.68683 6334.833 4202.6372 2125.6946 885.74463 446.49285999999995 368.92647999999997 6028.2534 3879.2048 1946.1133 890.2279699999999 586.64227 516.80695 4535.3594 2902.4917 1530.1735 921.46796 780.53986 703.15167 2950.73 2017.0393 1334.9001 1109.3375 1020.28 917.4757699999999 2231.0317 1804.2162 1508.4573 1383.6022 1276.0204 1147.4016 2219.9761 1974.2229 1778.3195 1657.0443 1530.7645 1385.5637 2380.2014 2186.5664 2027.6985 1916.7963 1785.4998 1630.8944 2576.4358 2403.2429 2272.9729 2179.7759 2048.6067 1886.2842 2821.1187 2652.7463 2541.6765 2461.8755 2328.345 2156.2288 3124.7622 2950.366 2848.1565 2772.8262 2630.6326 2443.957 3491.9287 3303.127 3197.6726 3115.1565 2956.4167 2749.3662 3924.4521 3710.8999 3583.5623 3482.3833 3300.7993 3068.9019 4423.3618 4161.6743 3986.0449 3860.4182 3655.2876 3398.041 4973.0688 4625.021 4372.9507 4232.9238 4014.2053 3737.0178 5536.0396 5051.2188 4710.0605 4596.0801 4387.0059 4100.3032 6056.6338 5392.6904 4990.0264 4981.5083 4815.6519 4529.7495 6468.0122 5621.1792 5258.9409 5470.9688 5387.4658 5106.2246 6739.4917 5785.8374 5632.4849 6192.4185 6228.811 5946.0767 6956.7881 6068.3252 6298.6851 7281.3047 7459.9897 7171.1816 7459.5044 6863.0786 7496.6094 8791.3594 9128.9639 8851.582 9031.6309 8875.3428 9341.876 10669.542 11172.482 10959.133 12382.791000000001 12572.153999999999 12465.198999999999 12972.62 13415.572 13345.341999999999 16739.803 17167.398 16684.131 15881.903999999999 15755.471000000001 15772.122 19533.916 20327.629 20092.643 18749.479 17934.058999999997 17964.545 20197.133 21328.129 21953.123 20886.455 19758.408 19722.445 19579.643 20788.514 22228.85 21887.451 20970.418 20954.951 18857.068 20005.482 20729.322 21128.808999999997 20996.063 21447.287 18808.951 20090.537 19665.289 20477.557 20905.07 21677.455 19341.787 20732.705 19586.043 20365.543 20985.492000000002 21848.689 20057.547 21553.748 20173.801 20717.773 21239.006 22008.742000000002 20630.156000000003 22223.492000000002 20979.125 21282.912 21526.472999999998 22109.137000000002 20604.641 22272.347999999998 21341.318 21596.645 21631.85 22057.007999999998 20099.912 21790.818 21169.736 21498.666 21445.58 21774.811 19344.475 20974.667999999998 20581.58 20996.205 20943.049 21227.836 18505.832 19971.968999999997 19698.541 20129.533 20128.734 20421.01 17653.936 18883.875 18571.156000000003 18947.938000000002 19037.537 19383.057 16746.336 17648.395 17231.037 17521.324 17788.936 18159.979 15662.173 16258.33 15720.92 16108.861 16451.891 16785.744 14273.098 14670.041000000001 14152.112 14718.403 14991.498 15293.828000000001 12554.348 12862.069 12583.868 13256.767 13464.864 13742.402 10542.636 10958.492 11055.274 11819.077 11994.043 12208.208 8357.6533 9148.1797 9737.7979 10526.937 10659.132 10760.014 6889.2725 7987.1987 8811.8115 9527.3193 9553.8379 9480.8213 7604.0537 7270.6963 8351.7236 8951.71 8846.9746 8468.2646 6035.4448 8062.1602 8829.6113 8627.6953 7858.6582 4921.5869 7308.9028 8756.4355 8758.9502 7724.1753 5275.9883 8078.1367 8866.9893 7950.6108 4247.5015 6154.02 8250.9648 8134.1851 3464.936 6184.3345 7602.7705 3067.2637 5571.8838 4795.8447 2603.4287 53.660670999999994 52.814811999999996 48.922398 43.718407 38.237438 33.132385 28.830681 25.600109 23.603113 69.861603 68.562523 63.41098 56.60289399999999 49.404514 42.675940999999995 36.993355 32.720936 30.078478000000004 83.885231 82.02783199999999 75.79169499999999 67.669899 59.052265000000006 50.965885 44.118481 38.962421 35.770973 94.95699300000001 92.430412 85.386353 76.376183 66.78443100000001 57.743511 50.061394 44.263386 40.670048 103.37462 100.13991999999999 92.615364 83.172729 73.085228 63.517920999999994 55.345974 49.155102 45.309703999999996 110.26413000000001 106.47516999999999 98.832764 89.3993 79.2463 69.51634200000001 61.132088 54.740364 50.754589 117.51953999999999 113.48528 106.10783 97.08371 87.19471 77.537186 69.090828 62.585345999999994 58.502617 128.27713 124.00719 117.14594 108.78783999999999 99.320427 89.78441600000001 81.252899 74.581436 70.356003 147.65816 142.13657 135.42366 127.57248 118.36201000000001 108.72626000000001 99.864403 92.808189 88.290695 182.92378 173.54613 165.35414 157.01328999999998 147.32907 136.97351 127.2506 119.39551000000002 114.32156 242.45082000000002 224.91417 212.00757000000002 200.99739 189.30475 177.07623 165.61157 156.32208 150.30415 333.5705 302.37671 280.21121 263.18539 247.08301 231.24309 216.78159 205.19593999999998 197.72593999999998 459.98807 409.6871 373.34558 346.28946 322.73376 301.05804 282.02026 267.08032000000003 257.54749 620.12805 546.99451 492.40082 451.45062 417.22815 387.2551 361.86658 342.38516 330.10867 807.77954 710.9898099999999 635.83435 578.03503 530.28772 489.63928 456.10938 430.86115 415.13214 1015.1739 896.44031 800.3479 723.9988400000001 660.57751 607.22784 563.9176 531.73364 511.86102 1236.2866 1098.3568 982.21191 886.69641 806.2243 738.6275 684.16846 644.02008 619.37872 1468.2675 1313.5513 1178.4901 1063.7916 965.51355 882.61786 815.9870599999999 767.07074 737.16113 1711.4633 1540.9456 1387.6466 1253.9707 1137.6281 1038.9066 959.53119 901.38031 865.91077 1967.7856 1780.8884 1609.5648 1457.4292 1323.4293 1209.0854 1117.0452 1049.6959 1008.6865 2238.6934 2034.1808 1845.4213 1676.3734 1526.3794 1397.8132 1294.1675 1218.3627 1172.2612 2523.9875 2301.6633 2097.9988 1915.8868 1753.7535 1614.1869 1501.354 1418.7491 1368.5231 2822.1812 2585.0442 2372.8855 2185.3384 2018.0842 1873.1149 1755.147 1668.422 1615.5903 3132.9753 2889.241 2680.5557 2500.103 2338.4768 2196.2583 2078.8247 1991.6 1938.1543 3461.9529 3225.863 3038.6196 2882.7529 2741.0142 2611.8887 2501.8955 2418.4238 2366.6345 3827.2346 3617.0779 3473.2595 3362.741 3257.3823 3152.9648 3057.928 2982.6953 2934.9016 4268.2056 4099.6826 4019.5173 3974.2998 3921.5181 3853.2688 3780.573 3717.9702 3676.4546 4854.5249 4730.0156 4721.6973 4753.6987 4765.4492 4742.8579 4699.125 4653.377 4620.498 5686.6245 5586.2666 5635.1313 5739.1001 5817.8062 5846.3799 5837.1938 5812.8257 5791.5361 6876.7832 6760.5474 6826.9233 6975.4023 7109.2813 7188.1777 7217.6172 7219.8384 7214.2212 8507.5996 8334.0488 8367.0576 8517.1895 8680.9434 8801.7041 8871.3135 8905.4805 8920.5527 10586.152 10338.72 10301.58 10414.101999999999 10578.976 10728.441 10837.285 10908.264 10949.363000000001 13009.896999999999 12720.081 12616.268999999998 12678.999 12829.402 12997.978000000001 13145.323999999999 13258.055 13330.763 15564.198 15319.515 15208.195 15252.601999999999 15400.436000000002 15591.958999999999 15782.11 15943.208 16053.723999999998 17967.541 17892.301 17881.48 17981.707 18169.676 18405.85 18650.793 18868.852 19023.43 19958.412 20165.115 20375.558999999997 20625.459 20915.271 21231.297000000002 21549.775 21835.092 22039.27 21389.252 21920.686 22430.121 22905.082000000002 23356.012000000002 23791.702999999998 24207.772999999997 24574.063 24834.83 22228.842 23077.129 23878.102000000003 24597.645 25240.092 25824.34 26359.527000000002 26820.077999999998 27144.112999999998 22665.588 23705.428 24714.875 25637.896 26458.994 27192.682 27851.305 28408.936 28797.042999999998 22868.967 23956.689 25060.99 26107.414 27055.83 27907.602000000003 28669.715 29310.57 29753.85 22941.949 23969.365 25065.615 26146.365 27151.137000000002 28067.568 28893.486 29588.787 30069.158 22906.805 23820.096 24840.547000000002 25882.502 26874.951 27796.957000000002 28638.615 29351.994 29846.369 22727.867000000002 23521.279 24437.566000000003 25395.582000000002 26324.09 27201.002 28013.397999999997 28709.33 29194.666 22353.109 23047.676 23860.053 24715.701 25550.414 26347.428 27096.459 27746.545 28203.982000000004 21747.146 22369.193 23091.112999999998 23844.012000000002 24573.803 25272.943 25938.195 26524.033 26940.961 20904.361 21474.305 22121.281000000003 22779.914 23406.061 24002.561 24575.48 25087.892999999996 25457.461 19845.139 20376.49 20962.029 21538.053 22068.408 22565.541 23045.381 23481.327999999998 23800.338 18603.932 19105.377 19641.326 20147.639 20593.514 20998.961 21389.158 21748.652000000002 22015.57 17214.623 17694.189 18192.861 18644.207 19020.119 19345.354 19652.811 19938.314 20152.973 15710.091999999999 16175.671999999999 16649.666 17062.343999999997 17386.029 17646.963 17883.076 18100.574 18265.1 14130.245 14583.011999999999 15040.909 15429.663 15720.286 15936.639 16117.677 16277.741000000002 16397.555 12532.392 12953.747 13393.98 13767.253999999999 14041.521 14234.089 14379.761999999999 14497.551000000001 14581.827 10982.832 11334.493999999999 11738.891000000001 12094.877 12362.803999999998 12549.457 12679.979 12773.458 12834.338 9546.1973 9781.2842 10115.68 10440.312 10701.015 10891.292 11022.71 11109.313 11160.051000000001 8285.2363 8356.1338 8579.9121 8846.7148 9086.3359 9276.9512 9415.6768 9507.3164 9558.8936 7282.4624 7115.0981 7194.8052 7370.6665 7565.3628 7740.4009 7879.8867 7977.8291 8034.6372 6671.8062 6131.6802 6013.3452 6070.7656 6192.3218 6328.8604 6452.2437 6546.6064 6604.4829 6572.6826 5549.3794 5096.9961 4989.4917 5014.4863 5088.9424 5176.0186 5251.5542 5301.0972 6856.688 5507.4141 4586.9917 4178.7163 4060.3608 4053.8921 4087.5801 4130.0957 4162.1626 7097.3486 5821.6694 4596.4561 3771.7234 3378.4543 3240.5383 3206.7295 3208.3926 3217.4993 6578.479 6019.8423 4854.0791 3783.0129 3052.0867 2680.1304 2537.0369 2491.3486 2477.8821 4506.9082 5308.585 4831.5522 3860.2603 2964.3137 2366.0818 2072.9092 1965.3234 1930.6687 1958.4792 3058.2156 3757.5503 3511.2339 2810.0056 2153.2751 1763.4167 1603.4319 1552.0505 1646.2581 1739.619 2181.2771 2132.4561 1772.3051 1444.0664 1282.6691 1232.0087 1218.8401 1195.5771 1171.6066 1061.1656 964.3424699999999 914.5567 1110.8185 996.1131 934.96826 900.7719699999999 22.92802 23.603113 25.600111 28.830683 33.132393 38.237446000000006 43.718418 48.922413 29.185093 30.078478000000004 32.720946999999995 36.993365999999995 42.675953 49.404526000000004 56.60289399999999 63.410988 34.691666 35.770977 38.962429 44.118484 50.965897 59.052273 67.669914 75.791687 39.454128000000004 40.670048 44.26339 50.061401000000004 57.743522999999996 66.784447 76.37619000000001 85.38636 44.007187 45.309715000000004 49.155105999999996 55.34598199999999 63.517941 73.085236 83.17274499999999 92.615372 49.402190999999995 50.754593 54.740356000000006 61.132088 69.516357 79.246323 89.399323 98.832764 57.11314399999999 58.502609 62.58535799999999 69.090858 77.53720899999999 87.194717 97.08371700000001 106.10785 68.911674 70.356003 74.581429 81.252907 89.784424 99.320427 108.78788 117.14598000000001 86.73880799999999 88.29071 92.808205 99.864441 108.7263 118.36205 127.57253 135.42369 112.57113000000001 114.32156 119.39556999999999 127.25066000000001 136.97357 147.3291 157.01332 165.35414 148.22453000000002 150.30421 156.32211 165.6116 177.07628 189.30481 200.99743999999998 212.0076 195.14868 197.72598 205.19597 216.78168 231.24315 247.08305 263.18539 280.21117999999996 254.27242 257.54752 267.08044 282.02032 301.05811 322.73376 346.2894 373.34561 325.91418 330.10867 342.38522 361.86667 387.25513 417.22806 451.45059000000003 492.40072999999995 409.78696 415.1322 430.86120999999997 456.1095 489.63937000000004 530.2876 578.03485 635.83435 505.13742 511.86110999999994 531.73376 563.91766 607.22791 660.57739 723.9986 800.34766 611.0683 619.37885 644.02026 684.1685200000001 738.6275 806.22412 886.69604 982.2114300000001 727.0957 737.16119 767.0708599999999 815.98718 882.61774 965.5133699999999 1063.7911 1178.4893 853.99194 865.91071 901.38086 959.53125 1038.9064 1137.6277 1253.9698 1387.6458 994.9219400000001 1008.6863 1049.696 1117.0452 1209.0852 1323.4286 1457.4285 1609.5638 1156.8019 1172.2612 1218.3633 1294.1677 1397.8132 1526.3789 1676.3726 1845.4204 1351.6884 1368.5233 1418.7493 1501.3544 1614.1869 1753.7531 1915.8859 2097.9978 1597.873 1615.5907 1668.4225 1755.1473 1873.1151 2018.084 2185.3379 2372.8843 1920.1873 1938.1542 1991.6007 2078.825 2196.2581 2338.4766 2500.1025 2680.5549 2349.1272 2366.635 2418.4241 2501.8962 2611.8884 2741.0137 2882.7522 3038.6184 2918.5776 2934.9026 2982.6958 3057.9275 3152.9648 3257.3818 3362.7402 3473.2581 3662.0188 3676.4546 3717.9702 3780.5735 3853.2681 3921.5181 3974.2998 4019.5168 4608.7129 4620.499 4653.3774 4699.1255 4742.8584 4765.4478 4753.6982 4721.6963 5783.437 5791.5361 5812.8257 5837.1943 5846.3799 5817.8062 5739.1011 5635.1313 7211.3442 7214.2202 7219.8369 7217.6162 7188.1777 7109.2813 6975.4023 6826.9233 8924.8955 8920.5547 8905.4805 8871.3135 8801.7061 8680.9424 8517.1885 8367.0566 10963.143999999998 10949.362 10908.264 10837.286 10728.44 10578.976 10414.101999999999 10301.581 13356.323999999999 13330.764 13258.055 13145.323999999999 12997.979 12829.403999999999 12678.999 12616.268999999998 16093.588 16053.723999999998 15943.208 15782.11 15591.958999999999 15400.437 15252.604 15208.195 19079.982 19023.43 18868.855 18650.793 18405.848 18169.678 17981.709 17881.482 22114.307 22039.27 21835.096 21549.771 21231.297000000002 20915.27 20625.457 20375.563000000002 24930.48 24834.827999999998 24574.063 24207.775 23791.701 23356.006 22905.082000000002 22430.129 27262.343999999997 27144.109 26820.077999999998 26359.522999999997 25824.34 25240.092 24597.65 23878.107000000004 28937.932 28797.047000000002 28408.928 27851.303 27192.683999999997 26458.996 25637.896 24714.882999999998 29914.236 29753.842 29310.566000000003 28669.709 27907.597999999998 27055.83 26107.417999999998 25060.992000000002 30242.818 30069.147999999997 29588.783 28893.484 28067.561 27151.139 26146.367000000002 25065.623 30025.316000000003 29846.361 29351.986 28638.607000000004 27796.957000000002 26874.949 25882.504 24840.547000000002 29370.875 29194.664 28709.334 28013.396 27200.998 26324.097999999998 25395.577999999998 24437.568 28370.803 28203.982000000004 27746.541 27096.459 26347.428 25550.416 24715.702999999998 23860.055 27093.887000000002 26940.965 26524.025 25938.191000000003 25272.947 24573.803 23844.017999999996 23091.112999999998 25593.959 25457.459 25087.891 24575.482000000004 24002.558999999997 23406.057 22779.917999999998 22121.281000000003 23919.076 23800.332000000002 23481.327999999998 23045.385 22565.539 22068.408 21538.053 20962.029 22115.721 22015.561 21748.652000000002 21389.158 20998.957000000002 20593.51 20147.637 19641.324 20234.137 20152.968999999997 19938.311 19652.813000000002 19345.354 19020.119 18644.203 18192.861 18327.629 18265.098 18100.576 17883.078 17646.963 17386.031000000003 17062.343999999997 16649.666 16443.082 16397.557 16277.742 16117.677 15936.636999999999 15720.282 15429.663 15040.909 14613.377 14581.826000000001 14497.553 14379.761999999999 14234.086000000001 14041.521999999999 13767.252 13393.983 12856.159 12834.335 12773.456 12679.978000000001 12549.457 12362.803999999998 12094.878 11738.893 11177.078000000001 11160.05 11109.313999999998 11022.708999999999 10891.292 10701.016000000001 10440.313 10115.68 9575.5303 9558.8945 9507.3174 9415.6768 9276.9512 9086.334 8846.7148 8579.9121 8053.1016 8034.6372 7977.8291 7879.8848 7740.4009 7565.3628 7370.6665 7194.8057 6623.8198 6604.4814 6546.6045 6452.2432 6328.8608 6192.3218 6070.7656 6013.3438 5318.1929 5301.0957 5251.5532 5176.0186 5088.9419 5014.4863 4989.4907 5096.9961 4173.8481 4162.1626 4130.0947 4087.5791 4053.8914 4060.3604 4178.7158 4586.9912 3221.7441 3217.4988 3208.3921 3206.728 3240.5383 3378.4543 3771.7231 4596.4565 2474.927 2477.8809 2491.3477 2537.0364 2680.1301 3052.0864 3783.0129 4854.0806 1922.3486 1930.6687 1965.3225 2072.9087 2366.0815 2964.313 3860.2612 4831.5532 1540.3888 1552.0498 1603.431 1763.4161 2153.2749 2810.0056 3511.2339 3757.5505 1222.1122 1232.0082 1282.6686 1444.0657 1772.3044 2132.4556 2181.2771 1739.6193 900.74371 914.55652 964.3418 1061.1654 1171.6061 1195.5765 1218.8397 889.22644 900.77209 934.96777 996.1124300000001 1110.818 52.814808 53.660683 48.832634000000006 35.840065 13.903392000000002 14.611711999999999 43.134258 68.562531 69.86161 63.907348999999996 47.449154 19.350233 17.625278 55.466167000000006 81.625885 82.02784 83.885239 77.312637 58.31336999999999 25.280458 18.873587 65.149139 99.4179 92.43042 94.957001 88.425079 68.086136 31.682223999999998 18.053976000000002 71.49395 112.82316999999999 100.13994 103.37464 97.448837 76.86274 38.555622 15.295685 74.680077 122.2699 106.47518000000001 110.26416 105.18229 85.09105699999999 46.37965 23.030148999999998 87.254181 146.20662 113.48533 117.51957 113.31613999999999 94.549988 65.596939 102.33421 216.72593999999998 326.03476 124.00719 128.27715 125.484 112.1731 139.49858 320.65601000000004 618.54724 884.99182 142.13658 147.65819 148.2058 154.5457 302.87817 737.01996 1404.1315 2016.4877 173.54613 182.92383 190.56063999999998 232.25026 537.4231 1319.3776 2541.5085 3724.2847 224.91417 242.45082000000002 261.68692000000004 333.68807999999996 764.4050900000001 1874.7998 3666.4717 5442.7642 302.37671 333.5705 368.92642 446.49289000000005 885.74445 2125.6941 4202.6367 6334.8335 409.68712999999997 459.98792000000003 516.8067599999999 586.64221 890.22784 1946.1133 3879.2043 6028.2539 546.99445 620.1279900000001 703.15155 780.53979 921.4679 1530.1735 2902.4919 4535.3599 710.9896200000001 807.7793 917.47565 1020.2799 1109.3376 1334.9003 2017.0391 2950.73 896.44 1015.1736 1147.4014 1276.0204 1383.6023 1508.457 1804.2163 2231.0315 1098.3562 1236.2861 1385.5631 1530.7642 1657.0442 1778.3198 1974.223 2219.9766 1313.5505 1468.267 1630.8938 1785.4995 1916.7964 2027.6987 2186.5667 2380.2014 1540.9445 1711.4625 1886.2838 2048.6064 2179.7761 2272.9731 2403.2424 2576.4358 1780.8875 1967.7845 2156.228 2328.345 2461.8755 2541.677 2652.7458 2821.1189 2034.1802 2238.6926 2443.9563 2630.6321 2772.8267 2848.1565 2950.3662 3124.7622 2301.6626 2523.9863 2749.3652 2956.4167 3115.1572 3197.6724 3303.1272 3491.9294 2585.043 2822.1802 3068.9011 3300.7991 3482.3833 3583.563 3710.8999 3924.4521 2889.2397 3132.9736 3398.0403 3655.2876 3860.4177 3986.0452 4161.6743 4423.3623 3225.8621 3461.9526 3737.0168 4014.2051 4232.9229 4372.9512 4625.022 4973.0684 3617.0774 3827.2346 4100.3027 4387.0059 4596.0801 4710.0605 5051.2192 5536.0396 4099.6816 4268.2051 4529.75 4815.6514 4981.5088 4990.0264 5392.6899 6056.6343 4730.0166 4854.5239 5106.2251 5387.4668 5470.9688 5258.9409 5621.1782 6468.0127 5586.2671 5686.623 5946.0767 6228.8115 6192.4185 5632.4858 5785.8369 6739.4907 6760.5483 6876.7837 7171.1816 7459.9907 7281.3047 6298.686 6068.3247 6956.7881 8334.0488 8507.5996 8851.5811 9128.9629 8791.3613 7496.6084 6863.0781 7459.5044 10338.72 10586.15 10959.133999999998 11172.482 10669.543 9341.877 8875.3428 9031.6328 12720.08 13009.896 13345.344 13415.573 12972.62 12465.198999999999 12572.153999999999 12382.791000000001 15319.513 15564.2 15772.118999999999 15755.469 15881.906 16684.127 17167.398 16739.803 17892.301 17967.541 17964.543 17934.061 18749.477 20092.639 20327.625 19533.914 20165.117 19958.414 19722.451 19758.416 20886.453 21953.119 21328.127 20197.131 21920.686 21389.252 20954.955 20970.42 21887.451 22228.854 20788.51 19579.639 23077.132999999998 22228.847999999998 21447.292999999998 20996.063 21128.816000000003 20729.326 20005.48 18857.068 23705.428 22665.593999999997 21677.459 20905.078 20477.563000000002 19665.289 20090.535 18808.949 23956.693 22868.972999999998 21848.693 20985.498 20365.545 19586.045 20732.703 19341.787 23969.367000000002 22941.961 22008.748 21239.012000000002 20717.779 20173.803 21553.748 20057.547 23820.1 22906.807 22109.139 21526.477000000003 21282.908 20979.119 22223.492000000002 20630.162 23521.285 22727.871 22057.007999999998 21631.843999999997 21596.639 21341.313 22272.343999999997 20604.637 23047.683999999997 22353.109 21774.814 21445.576 21498.666 21169.732000000004 21790.82 20099.912 22369.195 21747.141 21227.836 20943.049 20996.202999999998 20581.576 20974.67 19344.475 21474.299 20904.357 20421.01 20128.732 20129.529 19698.541 19971.965 18505.83 20376.488 19845.135 19383.051 19037.537 18947.939 18571.154 18883.873 17653.939 19105.379 18603.932 18159.973 17788.933999999997 17521.322 17231.031000000003 17648.398 16746.338 17694.193 17214.623 16785.738 16451.887 16108.86 15720.92 16258.328000000001 15662.173999999999 16175.671999999999 15710.09 15293.827 14991.496000000001 14718.403999999999 14152.115 14670.043 14273.101 14583.014 14130.248 13742.399 13464.864 13256.773000000001 12583.868 12862.072 12554.348999999998 12953.745 12532.392 12208.208 11994.043 11819.076000000001 11055.278 10958.489 10542.636 11334.496000000001 10982.833 10760.015 10659.133999999998 10526.938 9737.7998 9148.1836 8357.6533 9781.2842 9546.1982 9480.8232 9553.8379 9527.3203 8811.8096 7987.2007 6889.2725 8356.1348 8285.2363 8468.2637 8846.9746 8951.7129 8351.7217 7270.6953 7604.0542 7115.0981 7282.4634 7858.6572 8627.6973 8829.6123 8062.1606 6035.4453 6131.6802 6671.8076 7724.1743 8758.9482 8756.4355 7308.9019 4921.5845 5549.3794 6572.6821 7950.6104 8866.9873 8078.1387 5275.9873 5507.4136 6856.6895 8134.1846 8250.9629 6154.0176 4247.499 5821.6704 7097.3477 7602.7681 6184.3359 3464.937 6019.8428 6578.478 5571.8848 3067.2642 5308.5864 4506.9082 2603.4292 4795.8442 3058.2166 1958.479 1646.2577 
Vel 3 2975 float
0.0 0.0 0.0 0.0 0.0 0.0 0.0 0.0 0.0 0.0 0.0 0.0 0.0 0.0 0.0 0.0 0.0 0.0 0.0 0.0 0.0 0.0 0.0 0.0 0.0 0.0 0.0 0.0 0.0 0.0 0.0 0.0 0.0 0.0 0.0 0.0 0.0 0.0 0.0 0.0 0.0 0.0 0.0 0.0 0.0 0.0 0.0 0.0 0.0 0.0 0.0 0.0 0.0 0.0 0.0 0.0 0.0 0.0 0.0 0.0 0.0 0.0 0.0 0.0 0.0 0.0 0.0 0.0 0.0 0.0 0.0 0.0 0.0 0.0 0.0 0.0 0.0 0.0 0.0 0.0 0.0 0.0 0.0 0.0 0.0 0.0 0.0 0.0 0.0 0.0 0.0 0.0 0.0 0.0 0.0 0.0 0.0 0.0 0.0 0.0 0.0 0.0 0.0 0.0 0.0 0.0 0.0 0.0 0.0 0.0 0.0 0.0 0.0 0.0 0.0 0.0 0.0 0.0 0.0 0.0 0.0 0.0 0.0 0.0 0.0 0.0 0.0 0.0 0.0 0.0 0.0 0.0 0.0 0.0 0.0 0.0 0.0 0.0 0.0 0.0 0.0 0.0 0.0 0.0 0.0 0.0 0.0 0.0 0.0 0.0 0.0 0.0 0.0 0.0 0.0 0.0 0.0 0.0 0.0 0.0 0.0 0.0 0.0 0.0 0.0 0.0 0.0 0.0 0.0 0.0 0.0 0.0 0.0 0.0 0.0 0.0 0.0 0.0 0.0 0.0 0.0 0.0 0.0 0.0 0.0 0.0 0.0 0.0 0.0 0.0 0.0 0.0 0.0 0.0 0.0 0.0 0.0 0.0 0.0 0.0 0.0 0.0 0.0 0.0 0.0 0.0 0.0 0.0 0.0 0.0 0.0 0.0 0.0 0.0 0.0 0.0 0.0 0.0 0.0 0.0 0.0 0.0 0.0 0.0 0.0 0.0 0.0 0.0 0.0 0.0 0.0 0.0 0.0 0.0 0.0 0.0 0.0 0.0 0.0 0.0 0.0 0.0 0.0 0.0 0.0 0.0 0.0 0.0 0.0 0.0 0.0 0.0 0.0 0.0 0.0 0.0 0.0 0.0 0.0 0.0 0.0 0.0 0.0 0.0 0.0 0.0 0.0 0.0 0.0 0.0 0.0 0.0 0.0 0.0 0.0 0.0 0.0 0.0 0.0 0.0 0.0 0.0 0.0 0.0 0.0 0.0 0.0 0.0 0.0 0.0 0.0 0.0 0.0 0.0 0.0 0.0 0.0 0.0 0.0 0.0 0.0 0.0 0.0 0.0 0.0 0.0 0.0 0.0 0.0 0.0 0.0 0.0 0.0 0.0 0.0 0.0 0.0 0.0 0.0 0.0 0.0 0.0 0.0 0.0 0.0 0.0 0.0 0.0 0.0 0.0 0.0 0.0 0.0 0.0 0.0 0.0 0.0 0.0 0.0 0.0 0.0 0.0 0.0 0.0 0.0 0.0 0.0 0.0 0.0 0.0 0.0 0.0 0.0 0.0 0.0 0.0 0.0 0.0 0.0 0.0 0.0 0.0 0.0 0.0 0.0 0.0 0.0 0.0 0.0 0.0 0.0 0.0 0.0 0.0 0.0 0.0 0.0 0.0 0.0 0.0 0.0 0.0 0.0 0.0 0.0 0.0 0.0 0.0 0.0 0.0 0.0 0.0 0.0 0.0 0.0 0.0 0.0 0.0 0.0 0.0 0.0 0.0 0.0 0.0 0.0 0.0 0.0 0.0 0.0 0.0 0.0 0.0 0.0 0.0 0.0 0.0 0.0 0.0 0.0 0.0 0.0 0.0 0.0 0.0 0.0 0.0 0.0 0.0 0.0 0.0 0.0 0.0 0.0 0.0 0.0 0.0 0.0 0.0 0.0 0.0 0.0 0.0 0.0 0.0 0.0 0.0 0.0 0.0 0.0 0.0 0.0 0.0 0.0 0.0 0.0 0.0 0.0 0.0 0.0 0.0 0.0 0.0 0.0 0.0 0.0 0.0 0.0 0.0 0.0 0.0 0.0 0.0 0.0 0.0 0.0 0.0 0.0 0.0 0.0 0.0 0.0 0.0 0.0 0.0 0.0 0.0 0.0 0.0 0.0 0.0 0.0 0.0 0.0 0.0 0.0 0.0 0.0 0.0 0.0 0.0 0.0 0.0 0.0 0.0 0.0 0.0 0.0 0.0 0.0 0.0 0.0 0.0 0.0 0.0 0.0 0.0 0.0 0.0 0.0 0.0 0.0 0.0 0.0 0.0 0.0 0.0 0.0 0.0 0.0 0.0 0.0 0.0 0.0 0.0 0.0 0.0 0.0 0.0 0.0 0.0 0.0 0.0 0.0 0.0 0.0 0.0 0.0 0.0 0.0 0.0 0.0 0.0 0.0 0.0 0.0 0.0 0.0 0.0 0.0 0.0 0.0 0.0 0.0 0.0 0.0 0.0 0.0 0.0 0.0 0.0 0.0 0.0 0.0 0.0 0.0 0.0 0.0 0.0 0.0 0.0 0.0 0.0 0.0 0.0 0.0 0.0 0.0 0.0 0.0 0.0 0.0 0.0 0.0 0.0 0.0 0.0 0.0 0.0 0.0 0.0 0.0 0.0 0.0 0.0 0.0 0.0 0.0 0.0 0.0 0.0 0.0 0.0 0.0 0.0 0.0 0.0 0.0 0.0 0.0 0.0 0.0 0.0 0.0 0.0 0.0 0.0 0.0 0.0 0.0 0.0 0.0 0.0 0.0 0.0 0.0 0.0 0.0 0.0 0.0 0.0 0.0 0.0 0.0 0.0 0.0 0.0 0.0 0.0 0.0 0.0 0.0 0.0 0.0 0.0 0.0 0.0 0.0 0.0 0.0 0.0 0.0 0.0 0.0 0.0 0.0 0.0 0.0 0.0 0.0 0.0 0.0 0.0 0.0 0.0 0.0 0.0 0.0 0.0 0.0 0.0 0.0 0.0 0.0 0.0 0.0 0.0 0.0 0.0 0.0 0.0 0.0 0.0 0.0 0.0 0.0 0.0 0.0 0.0 0.0 0.0 0.0 0.0 0.0 0.0 0.0 0.0 0.0 0.0 0.0 0.0 0.0 0.0 0.0 0.0 0.0 0.0 0.0 0.0 0.0 0.0 0.0 0.0 0.0 0.0 0.0 0.0 0.0 0.0 0.0 0.0 0.0 0.0 0.0 0.0 0.0 0.0 0.0 0.0 0.0 0.0 0.0 0.0 0.0 0.0 0.0 0.0 0.0 0.0 0.0 0.0 0.0 0.0 0.0 0.0 0.0 0.0 0.0 0.0 0.0 0.0 0.0 0.0 0.0 0.0 0.0 0.0 0.0 0.0 0.0 0.0 0.0 0.0 0.0 0.0 0.0 0.0 0.0 0.0 0.0 0.0 0.0 0.0 0.0 0.0 0.0 0.0 0.0 0.0 0.0 0.0 0.0 0.0 0.0 0.0 0.0 0.0 0.0 0.0 0.0 0.0 0.0 0.0 0.0 0.0 0.0 0.0 0.0 0.0 0.0 0.0 0.0 0.0 0.0 0.0 0.0 0.0 0.0 0.0 0.0 0.0 0.0 0.0 0.0 0.0 0.0 0.0 0.0 0.0 0.0 0.0 0.0 0.0 0.0 0.0 0.0 0.0 0.0 0.0 0.0 0.0 0.0 0.0 0.0 0.0 0.0 0.0 0.0 0.0 0.0 0.0 0.0 0.0 0.0 0.0 0.0 0.0 0.0 0.0 0.0 0.0 0.0 0.0 0.0 0.0 0.0 0.0 0.0 0.0 0.0 0.0 0.0 0.0 0.0 0.0 0.0 0.0 0.0 0.0 0.0 0.0 0.0 0.0 0.0 0.0 0.0 0.0 0.0 0.0 0.0 0.0 0.0 0.0 0.0 0.0 0.0 0.0 0.0 0.0 0.0 0.0 0.0 0.0 0.0 0.0 0.0 0.0 0.0 0.0 0.0 0.0 0.0 0.0 0.0 0.0 0.0 0.0 0.0 0.0 0.0 0.0 0.0 0.0 0.0 0.0 0.0 0.0 0.0 0.0 0.0 0.0 0.0 0.0 0.0 0.0 0.0 0.0 0.0 0.0 0.0 0.0 0.0 0.0 0.0 0.0 0.0 0.0 0.0 0.0 0.0 0.0 0.0 0.0 0.0 0.0 0.0 0.0 0.0 0.0 0.0 0.0 0.0 0.0 0.0 0.0 0.0 0.0 0.0 0.0 0.0 0.0 0.0 0.0 0.0 0.0 0.0 0.0 0.0 0.0 0.0 0.0 0.0 0.0 0.0 0.0 0.0 0.0 0.0 0.0 0.0 0.0 0.0 0.0 0.0 0.0 0.0 0.0 0.0 0.0 0.0 0.0 0.0 0.0 0.0 0.0 0.0 0.0 0.0 0.0 0.0 0.0 0.0 0.0 0.0 0.0 0.0 0.0 0.0 0.0 0.0 0.0 0.0 0.0 0.0 0.0 0.0 0.0 0.0 0.0 0.0 0.0 0.0 0.0 0.0 0.0 0.0 0.0 0.0 0.0 0.0 0.0 0.0 0.0 0.0 0.0 0.0 0.0 0.0 0.0 0.0 0.0 0.0 0.0 0.0 0.0 0.0 0.0 0.0 0.0 0.0 0.0 0.0 0.0 0.0 0.0 0.0 0.0 0.0 0.0 0.0 0.0 0.0 0.0 0.0 0.0 0.0 0.0 0.0 0.0 0.0 0.0 0.0 0.0 0.0 0.0 0.0 0.0 0.0 0.0 0.0 0.0 0.0 0.0 0.0 0.0 0.0 0.0 0.0 0.0 0.0 0.0 0.0 0.0 0.0 0.0 0.0 0.0 0.0 0.0 0.0 0.0 0.0 0.0 0.0 0.0 0.0 0.0 0.0 0.0 0.0 0.0 0.0 0.0 0.0 0.0 0.0 0.0 0.0 0.0 0.0 0.0 0.0 0.0 0.0 0.0 0.0 0.0 0.0 0.0 0.0 0.0 0.0 0.0 0.0 0.0 0.0 0.0 0.0 0.0 0.0 0.0 0.0 0.0 0.0 0.0 0.0 0.0 0.0 0.0 0.0 0.0 0.0 0.0 0.0 0.0 0.0 0.0 0.0 0.0 0.0 0.0 0.0 0.0 0.0 0.0 0.0 0.0 0.0 0.0 0.0 0.0 0.0 0.0 0.0 0.0 0.0 0.0 0.0 0.0 0.0 0.0 0.0 0.0 0.0 0.0 0.0 0.0 0.0 0.0 0.0 0.0 0.0 0.0 0.0 0.0 0.0 0.0 0.0 0.0 0.0 0.0 0.0 0.0 0.0 0.0 0.0 0.0 0.0 0.0 0.0 0.0 0.0 0.0 0.0 0.0 0.0 0.0 0.0 0.0 0.0 0.0 0.0 0.0 0.0 0.0 0.0 0.0 0.0 0.0 0.0 0.0 0.0 0.0 0.0 0.0 0.0 0.0 0.0 0.0 0.0 0.0 0.0 0.0 0.0 0.0 0.0 0.0 0.0 0.0 0.0 0.0 0.0 0.0 0.0 0.0 0.0 0.0 0.0 0.0 0.0 0.0 0.0 0.0 0.0 0.0 0.0 0.0 0.0 0.0 0.0 0.0 0.0 0.0 0.0 0.0 0.0 0.0 0.0 0.0 0.0 0.0 0.0 0.0 0.0 0.0 0.0 0.0 0.0 0.0 0.0 0.0 0.0 0.0 0.0 0.0 0.0 0.0 0.0 0.0 0.0 0.0 0.0 0.0 0.0 0.0 0.0 0.0 0.0 0.0 0.0 0.0 0.0 0.0 0.0 0.0 0.0 0.0 0.0 0.0 0.0 0.0 0.0 0.0 0.0 0.0 0.0 0.0 0.0 0.0 0.0 0.0 0.0 0.0 0.0 0.0 0.0 0.0 0.0 0.0 0.0 0.0 0.0 0.0 0.0 0.0 0.0 0.0 0.0 0.0 0.0 0.0 0.0 0.0 0.0 0.0 0.0 0.0 0.0 0.0 0.0 0.0 0.0 0.0 0.0 0.0 0.0 0.0 0.0 0.0 0.0 0.0 0.0 0.0 0.0 0.0 0.0 0.0 0.0 0.0 0.0 0.0 0.0 0.0 0.0 0.0 0.0 0.0 0.0 0.0 0.0 0.0 0.0 0.0 0.0 0.0 0.0 0.0 0.0 0.0 0.0 0.0 0.0 0.0 0.0 0.0 0.0 0.0 0.0 0.0 0.0 0.0 0.0 0.0 0.0 0.0 0.0 0.0 0.0 0.0 0.0 0.0 0.0 0.0 0.0 0.0 0.0 0.0 0.0 0.0 0.0 0.0 0.0 0.0 0.0 0.0 0.0 0.0 0.0 0.0 0.0 0.0 0.0 0.0 0.0 0.0 0.0 0.0 0.0 0.0 0.0 0.0 0.0 0.0 0.0 0.0 0.0 0.0 0.0 0.0 0.0 0.0 0.0 0.0 0.0 0.0 0.0 0.0 0.0 0.0 0.0 0.0 0.0 0.0 0.0 0.0 0.0 0.0 0.0 0.0 0.0 0.0 0.0 0.0 0.0 0.0 0.0 0.0 0.0 0.0 0.0 0.0 0.0 0.0 0.0 0.0 0.0 0.0 0.0 0.0 0.0 0.0 0.0 0.0 0.0 0.0 0.0 0.0 0.0 0.0 0.0 0.0 0.0 0.0 0.0 0.0 0.0 0.0 0.0 0.0 0.0 0.0 0.0 0.0 0.0 0.0 0.0 0.0 0.0 0.0 0.0 0.0 0.0 0.0 0.0 0.0 0.0 0.0 0.0 0.0 0.0 0.0 0.0 0.0 0.0 0.0 0.0 0.0 0.0 0.0 0.0 0.0 0.0 0.0 0.0 0.0 0.0 0.0 0.0 0.0 0.0 0.0 0.0 0.0 0.0 0.0 0.0 0.0 0.0 0.0 0.0 0.0 0.0 0.0 0.0 0.0 0.0 0.0 0.0 0.0 0.0 0.0 0.0 0.0 0.0 0.0 0.0 0.0 0.0 0.0 0.0 0.0 0.0 0.0 0.0 0.0 0.0 0.0 0.0 0.0 0.0 0.0 0.0 0.0 0.0 0.0 0.0 0.0 0.0 0.0 0.0 0.0 0.0 0.0 0.0 0.0 0.0 0.0 0.0 0.0 0.0 0.0 0.0 0.0 0.0 0.0 0.0 0.0 0.0 0.0 0.0 0.0 0.0 0.0 0.0 0.0 0.0 0.0 0.0 0.0 0.0 0.0 0.0 0.0 0.0 0.0 0.0 0.0 0.0 0.0 0.0 0.0 0.0 0.0 0.0 0.0 0.0 0.0 0.0 0.0 0.0 0.0 0.0 0.0 0.0 0.0 0.0 0.0 0.0 0.0 0.0 0.0 0.0 0.0 0.0 0.0 0.0 0.0 0.0 0.0 0.0 0.0 0.0 0.0 0.0 0.0 0.0 0.0 0.0 0.0 0.0 0.0 0.0 0.0 0.0 0.0 0.0 0.0 0.0 0.0 0.0 0.0 0.0 0.0 0.0 0.0 0.0 0.0 0.0 0.0 0.0 0.0 0.0 0.0 0.0 0.0 0.0 0.0 0.0 0.0 0.0 0.0 0.0 0.0 0.0 0.0 0.0 0.0 0.0 0.0 0.0 0.0 0.0 0.0 0.0 0.0 0.0 0.0 0.0 0.0 0.0 0.0 0.0 0.0 0.0 0.0 0.0 0.0 0.0 0.0 0.0 0.0 0.0 0.0 0.0 0.0 0.0 0.0 0.0 0.0 0.0 0.0 0.0 0.0 0.0 0.0 0.0 0.0 0.0 0.0 0.0 0.0 0.0 0.0 0.0 0.0 0.0 0.0 0.0 0.0 0.0 0.0 0.0 0.0 0.0 0.0 0.0 0.0 0.0 0.0 0.0 0.0 0.0 0.0 0.0 0.0 0.0 0.0 0.0 0.0 0.0 0.0 0.0 0.0 0.0 0.0 0.0 0.0 0.0 0.0 0.0 0.0 0.0 0.0 0.0 0.0 0.0 0.0 0.0 0.0 0.0 0.0 0.0 0.0 0.0 0.0 0.0 0.0 0.0 0.0 0.0 0.0 0.0 0.0 0.0 0.0 0.0 0.0 0.0 0.0 0.0 0.0 0.0 0.0 0.0 0.0 0.0 0.0 0.0 0.0 0.0 0.0 0.0 0.0 0.0 0.0 0.0 0.0 0.0 0.0 0.0 0.0 0.0 0.0 0.0 0.0 0.0 0.0 0.0 0.0 0.0 0.0 0.0 0.0 0.0 0.0 0.0 0.0 0.0 0.0 0.0 0.0 0.0 0.0 0.0 0.0 0.0 0.0 0.0 0.0 0.0 0.0 0.0 0.0 0.0 0.0 0.0 0.0 0.0 0.0 0.0 0.0 0.0 0.0 0.0 0.0 0.0 0.0 0.0 0.0 0.0 0.0 0.0 0.0 0.0 0.0 0.0 0.0 0.0 0.0 0.0 0.0 0.0 0.0 0.0 0.0 0.0 0.0 0.0 0.0 0.0 0.0 0.0 0.0 0.0 0.0 0.0 0.0 0.0 0.0 0.0 0.0 0.0 0.0 0.0 0.0 0.0 0.0 0.0 0.0 0.0 0.0 0.0 0.0 0.0 0.0 0.0 0.0 0.0 0.0 0.0 0.0 0.0 0.0 0.0 0.0 0.0 0.0 0.0 0.0 0.0 0.0 0.0 0.0 0.0 0.0 0.0 0.0 0.0 0.0 0.0 0.0 0.0 0.0 0.0 0.0 0.0 0.0 0.0 0.0 0.0 0.0 0.0 0.0 0.0 0.0 0.0 0.0 0.0 0.0 0.0 0.0 0.0 0.0 0.0 0.0 0.0 0.0 0.0 0.0 0.0 0.0 0.0 0.0 0.0 0.0 0.0 0.0 0.0 0.0 0.0 0.0 0.0 0.0 0.0 0.0 0.0 0.0 0.0 0.0 0.0 0.0 0.0 0.0 0.0 0.0 0.0 0.0 0.0 0.0 0.0 0.0 0.0 0.0 0.0 0.0 0.0 0.0 0.0 0.0 0.0 0.0 0.0 0.0 0.0 0.0 0.0 0.0 0.0 0.0 0.0 0.0 0.0 0.0 0.0 0.0 0.0 0.0 0.0 0.0 0.0 0.0 0.0 0.0 0.0 0.0 0.0 0.0 0.0 0.0 0.0 0.0 0.0 0.0 0.0 0.0 0.0 0.0 0.0 0.0 0.0 0.0 0.0 0.0 0.0 0.0 0.0 0.0 0.0 0.0 0.0 0.0 0.0 0.0 0.0 0.0 0.0 0.0 0.0 0.0 0.0 0.0 0.0 0.0 0.0 0.0 0.0 0.0 0.0 0.0 0.0 0.0 0.0 0.0 0.0 0.0 0.0 0.0 0.0 0.0 0.0 0.0 0.0 0.0 0.0 0.0 0.0 0.0 0.0 0.0 0.0 0.0 0.0 0.0 0.0 0.0 0.0 0.0 0.0 0.0 0.0 0.0 0.0 0.0 0.0 0.0 0.0 0.0 0.0 0.0 0.0 0.0 0.0 0.0 0.0 0.0 0.0 0.0 0.0 0.0 0.0 0.0 0.0 0.0 0.0 0.0 0.0 0.0 0.0 0.0 0.0 0.0 0.0 0.0 0.0 0.0 0.0 0.0 0.0 0.0 0.0 0.0 0.0 0.0 0.0 0.0 0.0 0.0 0.0 0.0 0.0 0.0 0.0 0.0 0.0 0.0 0.0 0.0 0.0 0.0 0.0 0.0 0.0 0.0 0.0 0.0 0.0 0.0 0.0 0.0 0.0 0.0 0.0 0.0 0.0 0.0 0.0 0.0 0.0 0.0 0.0 0.0 0.0 0.0 0.0 0.0 0.0 0.0 0.0 0.0 0.0 0.0 0.0 0.0 0.0 0.0 0.0 0.0 0.0 0.0 0.0 0.0 0.0 0.0 0.0 0.0 0.0 0.0 0.0 0.0 0.0 0.0 0.0 0.0 0.0 0.0 0.0 0.0 0.0 0.0 0.0 0.0 0.0 0.0 0.0 0.0 0.0 0.0 0.0 0.0 0.0 0.0 0.0 0.0 0.0 0.0 0.0 0.0 0.0 0.0 0.0 0.0 0.0 0.0 0.0 0.0 0.0 0.0 0.0 0.0 0.0 0.0 0.0 0.0 0.0 0.0 0.0 0.0 0.0 0.0 0.0 0.0 0.0 0.0 0.0 0.0 0.0 0.0 0.0 0.0 0.0 0.0 0.0 0.0 0.0 0.0 0.0 0.0 0.0 0.0 0.0 0.0 0.0 0.0 0.0 0.0 0.0 0.0 0.0 0.0 0.0 0.0 0.0 0.0 0.0 0.0 0.0 0.0 0.0 0.0 0.0 0.0 0.0 0.0 0.0 0.0 0.0 0.0 0.0 0.0 0.0 0.0 0.0 0.0 0.0 0.0 0.0 0.0 0.0 0.0 0.0 0.0 0.0 0.0 0.0 0.0 0.0 0.0 0.0 0.0 0.0 0.0 0.0 0.0 0.0 0.0 0.0 0.0 0.0 0.0 0.0 0.0 0.0 0.0 0.0 0.0 0.0 0.0 0.0 0.0 0.0 0.0 0.0 0.0 0.0 0.0 0.0 0.0 0.0 0.0 0.0 0.0 0.0 0.0 0.0 0.0 0.0 0.0 0.0 0.0 0.0 0.0 0.0 0.0 0.0 0.0 0.0 0.0 0.0 0.0 0.0 0.0 0.0 0.0 0.0 0.0 0.0 0.0 0.0 0.0 0.0 0.0 0.0 0.0 0.0 0.0 0.0 0.0 0.0 0.0 0.0 0.0 0.0 0.0 0.0 0.0 0.0 0.0 0.0 0.0 0.0 0.0 0.0 0.0 0.0 0.0 0.0 0.0 0.0 0.0 0.0 0.0 0.0 0.0 0.0 0.0 0.0 0.0 0.0 0.0 0.0 0.0 0.0 0.0 0.0 0.0 0.0 0.0 0.0 0.0 0.0 0.0 0.0 0.0 0.0 0.0 0.0 0.0 0.0 0.0 0.0 0.0 0.0 0.0 0.0 0.0 0.0 0.0 0.0 0.0 0.0 0.0 0.0 0.0 0.0 0.0 0.0 0.0 0.0 0.0 0.0 0.0 0.0 0.0 0.0 0.0 0.0 0.0 0.0 0.0 0.0 0.0 0.0 0.0 0.0 0.0 0.0 0.0 0.0 0.0 0.0 0.0 0.0 0.0 0.0 0.0 0.0 0.0 0.0 0.0 0.0 0.0 0.0 0.0 0.0 0.0 0.0 0.0 0.0 0.0 0.0 0.0 0.0 0.0 0.0 0.0 0.0 0.0 0.0 0.0 0.0 0.0 0.0 0.0 0.0 0.0 0.0 0.0 0.0 0.0 0.0 0.0 0.0 0.0 0.0 0.0 0.0 0.0 0.0 0.0 0.0 0.0 0.0 0.0 0.0 0.0 0.0 0.0 0.0 0.0 0.0 0.0 0.0 0.0 0.0 0.0 0.0 0.0 0.0 0.0 0.0 0.0 0.0 0.0 0.0 0.0 0.0 0.0 0.0 0.0 0.0 0.0 0.0 0.0 0.0 0.0 0.0 0.0 0.0 0.0 0.0 0.0 0.0 0.0 0.0 0.0 0.0 0.0 0.0 0.0 0.0 0.0 0.0 0.0 0.0 0.0 0.0 0.0 0.0 0.0 0.0 0.0 0.0 0.0 0.0 0.0 0.0 0.0 0.0 0.0 0.0 0.0 0.0 0.0 0.0 0.0 0.0 0.0 0.0 0.0 0.0 0.0 0.0 0.0 0.0 0.0 0.0 0.0 0.0 0.0 0.0 0.0 0.0 0.0 0.0 0.0 0.0 0.0 0.0 0.0 0.0 0.0 0.0 0.0 0.0 0.0 0.0 0.0 0.0 0.0 0.0 0.0 0.0 0.0 0.0 0.0 0.0 0.0 0.0 0.0 0.0 0.0 0.0 0.0 0.0 0.0 0.0 0.0 0.0 0.0 0.0 0.0 0.0 0.0 0.0 0.0 0.0 0.0 0.0 0.0 0.0 0.0 0.0 0.0 0.0 0.0 0.0 0.0 0.0 0.0 0.0 0.0 0.0 0.0 0.0 0.0 0.0 0.0 0.0 0.0 0.0 0.0 0.0 0.0 0.0 0.0 0.0 0.0 0.0 0.0 0.0 0.0 0.0 0.0 0.0 0.0 0.0 0.0 0.0 0.0 0.0 0.0 0.0 0.0 0.0 0.0 0.0 0.0 0.0 0.0 0.0 0.0 0.0 0.0 0.0 0.0 0.0 0.0 0.0 0.0 0.0 0.0 0.0 0.0 0.0 0.0 0.0 0.0 0.0 0.0 0.0 0.0 0.0 0.0 0.0 0.0 0.0 0.0 0.0 0.0 0.0 0.0 0.0 0.0 0.0 0.0 0.0 0.0 0.0 0.0 0.0 0.0 0.0 0.0 0.0 0.0 0.0 0.0 0.0 0.0 0.0 0.0 0.0 0.0 0.0 0.0 0.0 0.0 0.0 0.0 0.0 0.0 0.0 0.0 0.0 0.0 0.0 0.0 0.0 0.0 0.0 0.0 0.0 0.0 0.0 0.0 0.0 0.0 0.0 0.0 0.0 0.0 0.0 0.0 0.0 0.0 0.0 0.0 0.0 0.0 0.0 0.0 0.0 0.0 0.0 0.0 0.0 0.0 0.0 0.0 0.0 0.0 0.0 0.0 0.0 0.0 0.0 0.0 0.0 0.0 0.0 0.0 0.0 0.0 0.0 0.0 0.0 0.0 0.0 0.0 0.0 0.0 0.0 0.0 0.0 0.0 0.0 0.0 0.0 0.0 0.0 0.0 0.0 0.0 0.0 0.0 0.0 0.0 0.0 0.0 0.0 0.0 0.0 0.0 0.0 0.0 0.0 0.0 0.0 0.0 0.0 0.0 0.0 0.0 0.0 0.0 0.0 0.0 0.0 0.0 0.0 0.0 0.0 0.0 0.0 0.0 0.0 0.0 0.0 0.0 0.0 0.0 0.0 0.0 0.0 0.0 0.0 0.0 0.0 0.0 0.0 0.0 0.0 0.0 0.0 0.0 0.0 0.0 0.0 0.0 0.0 0.0 0.0 0.0 0.0 0.0 0.0 0.0 0.0 0.0 0.0 0.0 0.0 0.0 0.0 0.0 0.0 0.0 0.0 0.0 0.0 0.0 0.0 0.0 0.0 0.0 0.0 0.0 0.0 0.0 0.0 0.0 0.0 0.0 0.0 0.0 0.0 0.0 0.0 0.0 0.0 0.0 0.0 0.0 0.0 0.0 0.0 0.0 0.0 0.0 0.0 0.0 0.0 0.0 0.0 0.0 0.0 0.0 0.0 0.0 0.0 0.0 0.0 0.0 0.0 0.0 0.0 0.0 0.0 0.0 0.0 0.0 0.0 0.0 0.0 0.0 0.0 0.0 0.0 0.0 0.0 0.0 0.0 0.0 0.0 0.0 0.0 0.0 0.0 0.0 0.0 0.0 0.0 0.0 0.0 0.0 0.0 0.0 0.0 0.0 0.0 0.0 0.0 0.0 0.0 0.0 0.0 0.0 0.0 0.0 0.0 0.0 0.0 0.0 0.0 -0.0020615652 0.0 -0.00080606778 -0.0025211794 0.0 -0.00077955 -0.0029123485999999997 0.0 -0.00071031536 -0.0032208695 0.0 -0.00061888935 -0.0034489918 0.0 -0.00052041135 -0.0020023466 0.0 -0.0010482732 -0.0028324078 0.0 -0.00097275776 -0.0035467977 0.0 -0.0009694640800000001 -0.0041272151000000005 0.0 -0.00090870808 -0.0045690634 0.0 -0.0008089341 -0.004886450200000001 0.0 -0.0006896539100000001 -0.0027717527000000004 0.0 -0.0011323452 -0.0039108908000000005 0.0 -0.0010796710000000001 -0.004894448 0.0 -0.0010622385 -0.0056968298999999995 0.0 -0.0009997075 -0.006296952299999999 0.0 -0.00090509246 -0.006721155699999999 0.0 -0.0007793167 -0.0037150665 0.0 -0.0011727081 -0.0052106031 0.0 -0.0011031682000000001 -0.0064787478 0.0 -0.0010906579 -0.007503945400000001 0.0 -0.0010341948 -0.0082671652 0.0 -0.0009416320800000001 -0.00879669 0.0 -0.00081621238 -0.0048126457 0.0 -0.0012036153 -0.0066992305 0.0 -0.001084807 -0.0082660066 0.0 -0.0010686959 -0.0095135318 0.0 -0.0010157347 -0.010427276 0.0 -0.0009312388699999999 -0.01105237 0.0 -0.00080966076 -0.0060883909 0.0 -0.0012471379 -0.0084016416 0.0 -0.0010425942 -0.010274928000000001 0.0 -0.0010078507 -0.011738077 0.0 -0.00095659227 -0.01279053 0.0 -0.0008844095300000001 -0.013496731000000001 0.0 -0.0007736591499999999 -0.0075895386 0.0 -0.001342133 -0.010370231 0.0 -0.0010075374000000001 -0.012555968 0.0 -0.0009323901600000001 -0.014227701 0.0 -0.00087930879 -0.015410469 0.0 -0.0008204609599999999 -0.016185816000000002 0.0 -0.000728074 -0.0093829334 0.0 -0.0015328454 -0.012665206000000002 0.0 -0.0010244547 -0.015164148 0.0 -0.00088977267 -0.017052146 0.0 -0.0008150341499999999 -0.018353049 0.0 -0.0007764387400000001 -0.019188998 0.0 -0.00070369599 -0.011597216 0.0 -0.0017586433 -0.015348158999999998 0.0 -0.0011086097 -0.018145029 0.0 -0.0009267908199999999 -0.020252456999999998 0.0 -0.00082539045 -0.021674693 0.0 -0.00079975568 -0.022559594 0.0 -0.00074605306 -0.014483288 0.0 -0.0017599373000000001 -0.018505597 0.0 -0.0012053113 -0.021567244 0.0 -0.0010319586 -0.023867068999999998 0.0 -0.0009503315699999999 -0.025408697999999997 0.0 -0.0009409632800000001 -0.026329547000000002 0.0 -0.00090693909 -0.018257713000000002 0.0 -0.0015053485 -0.022288457 0.0 -0.0012770856 -0.025515825 0.0 -0.0011891633 -0.027959687999999996 0.0 -0.001200263 -0.029585458 0.0 -0.0012430892 -0.030523602 0.0 -0.0012328337 -0.02245101 0.0 -0.002248131 -0.026726457999999998 0.0 -0.0017584573 -0.030032492999999997 0.0 -0.0016265868 -0.032573822999999995 0.0 -0.001677938 -0.034252438999999996 0.0 -0.0017396049 -0.035173025 0.0 -0.0017602372 -0.027327037999999998 0.0 -0.0059141354 -0.031834241 0.0 -0.0041114516 -0.03523672 0.0 -0.0030442278000000003 -0.037804641 0.0 -0.0026852728 -0.039445184 0.0 -0.0026017201999999997 -0.040317394 0.0 -0.0025589566 -0.03363961 0.0 -0.0091387499 -0.037972264 0.0 -0.0071325055000000005 -0.041288737 0.0 -0.0053451797 -0.043722595999999996 0.0 -0.0043689272999999995 -0.045225807 0.0 -0.0039517656 -0.046021663 0.0 -0.0036698135 -0.041136932 0.0 -0.011339365 -0.045116693 0.0 -0.0095797777 -0.048139755 0.0 -0.0077535575 -0.050302915 0.0 -0.0064581828 -0.051636085 0.0 -0.0056729051 -0.052330095 0.0 -0.0050736046 -0.049178932 0.0 -0.013149153 -0.052760098 0.0 -0.011630452 -0.055516683 0.0 -0.0099691451 -0.057469856 0.0 -0.0085740695 -0.058671515 0.0 -0.0075207874 -0.059280593 0.0 -0.006667404399999999 -0.057336815 0.0 -0.014873963 -0.060690537 0.0 -0.013472903999999999 -0.06331905 0.0 -0.011962405 -0.06519468099999999 0.0 -0.01056524 -0.066352509 0.0 -0.0093621071 -0.066902995 0.0 -0.0083271991 -0.065494694 0.0 -0.016628671 -0.068910785 0.0 -0.015255488999999999 -0.071603239 0.0 -0.013807433000000001 -0.073526837 0.0 -0.012425304 -0.0747061 0.0 -0.011148793999999998 -0.075236194 0.0 -0.0099905711 -0.073895372 0.0 -0.018458847 -0.07760161900000001 0.0 -0.017061603999999998 -0.080504708 0.0 -0.015585802 -0.082551777 0.0 -0.014202613999999999 -0.08378838 0.0 -0.012878446000000002 -0.08431860099999999 0.0 -0.011620266 -0.082873218 0.0 -0.020357383 -0.086963296 0.0 -0.018893985 -0.09013302599999999 0.0 -0.017349282 -0.092336603 0.0 -0.015939843000000002 -0.093645111 0.0 -0.014568303000000001 -0.09419293 0.0 -0.013212188 -0.092572741 0.0 -0.022305582 -0.09707334599999999 0.0 -0.020759789 -0.10053834 0.0 -0.019129772 -0.10292313 0.0 -0.017675404 -0.1043197 0.0 -0.016242759 -0.10490271 0.0 -0.014777608000000001 -0.10302766 0.0 -0.024310116 -0.10797287 0.0 -0.022667432 -0.11175994 0.0 -0.020950804 -0.11434844 0.0 -0.019435968 -0.11585648 0.0 -0.017914931999999998 -0.11649124 0.0 -0.016325286 -0.11427629 0.0 -0.026381349 -0.11970924 0.0 -0.024623617999999996 -0.12384515 0.0 -0.022818787000000004 -0.1266645 0.0 -0.021210153 -0.12830622 0.0 -0.019576173 -0.12901019 0.0 -0.017847586000000002 -0.12639052 0.0 -0.028523741000000002 -0.1323512 0.0 -0.026637521 -0.13686195 0.0 -0.024716837000000002 -0.13993849 0.0 -0.022967227000000003 -0.1417329 0.0 -0.021204181000000002 -0.14251962 0.0 -0.01933462 -0.13950039 0.0 -0.030757247999999997 -0.14600866 0.0 -0.028711552 -0.15090613 0.0 -0.026609622000000003 -0.15425722 0.0 -0.024661747999999997 -0.15621057 0.0 -0.022781996000000002 -0.15708478 0.0 -0.020795131 -0.15384179 0.0 -0.033112291 -0.16084842 0.0 -0.030850742 -0.16610189 0.0 -0.028454073 -0.16971448 0.0 -0.026269282999999997 -0.17181027 0.0 -0.024336426 -0.17276545 0.0 -0.022296691 -0.16976318 0.0 -0.03564243 -0.17707093 0.0 -0.03308009 -0.18256582 0.0 -0.0302423 -0.18636625 0.0 -0.027838726 -0.18856733 0.0 -0.025961474 -0.18957528 0.0 -0.023979871 -0.18759583 0.0 -0.038431734 -0.19478957 0.0 -0.035470769 -0.20028298 0.0 -0.032049965 -0.20413458 0.0 -0.029537385 -0.20636585 0.0 -0.027877139 -0.20739684 0.0 -0.026064834 -0.20731395 0.0 -0.041633721 -0.21377632 0.0 -0.038194239 -0.21892259 0.0 -0.034155127 -0.22258539 0.0 -0.031746897999999996 -0.22476937 0.0 -0.030454308 -0.22583057 0.0 -0.028819475 -0.22807506 0.0 -0.045535963 -0.23316231 0.0 -0.041608933 -0.23760648 0.0 -0.037019927 -0.24086845 0.0 -0.03489621 -0.24284451 0.0 -0.034026209 -0.24400683 0.0 -0.032464281 -0.24825791 0.0 -0.050658587000000005 -0.25151363 0.0 -0.0463369 -0.2549001 0.0 -0.041621998 -0.25773284 0.0 -0.039358746 -0.25976777 0.0 -0.038289491 -0.26103866 0.0 -0.036609087 -0.26557535 0.0 -0.05761701599999999 -0.26721725 0.0 -0.053544689000000006 -0.27015251 0.0 -0.048637513 -0.27286923 0.0 -0.045029294000000004 -0.27473551 0.0 -0.043331224 -0.27610028 0.0 -0.040955655 -0.27811098 0.0 -0.067004584 -0.27970824 0.0 -0.063840009 -0.28268337 0.0 -0.059244744 -0.28543696 0.0 -0.053505156 -0.28724945 0.0 -0.049207232999999996 -0.28834701 0.0 -0.04559673400000001 -0.28386164 0.0 -0.077833131 -0.28609321 0.0 -0.077054732 -0.28937179 0.0 -0.074013919 -0.29237738 0.0 -0.0679667 -0.29499418 0.0 -0.059003968 -0.29661894 0.0 -0.051966517999999996 -0.27727318 0.0 -0.08659350099999999 -0.28425992 0.0 -0.08927940599999999 -0.28904054 0.0 -0.08908429 -0.29219455 0.0 -0.085967034 -0.29618263 0.0 -0.074658819 -0.29887325 0.0 -0.06345851 -0.23144338 0.0 -0.09568204699999999 -0.26416349 0.0 -0.09934292 -0.27718425 0.0 -0.10094645 -0.27983013 0.0 -0.10457192 -0.2846829 0.0 -0.098095924 -0.28942025 0.0 -0.08551845699999999 -0.15103686 0.0 -0.10240074 -0.18369173 0.0 -0.10599884 -0.21539558 0.0 -0.10975327 -0.23749737 0.0 -0.11762393 -0.24835896 0.0 -0.12030537 -0.25418311 0.0 -0.11683174 -0.089600086 0.0 -0.1055828 -0.10953705 0.0 -0.10997684 -0.12941422 0.0 -0.1126427 -0.1454969 0.0 -0.11777023 -0.15694165 0.0 -0.12084734 -0.16381726 0.0 -0.11836632 -0.051532548 0.0 -0.10748612 -0.061928652 0.0 -0.11244935 -0.0720658 0.0 -0.11385923 -0.080977522 0.0 -0.11567818 -0.087927066 0.0 -0.11668536 -0.09286398400000001 0.0 -0.11162458 -0.028625011000000002 0.0 -0.1093485 -0.032177474 0.0 -0.11445816 -0.035348136 0.0 -0.11674856 -0.038491551 0.0 -0.114314 -0.041340817 0.0 -0.11220519 -0.043789878 0.0 -0.10552235 -0.0089902906 0.0 -0.11055651 -0.0073513719 0.0 -0.11516591 -0.0054175714000000005 0.0 -0.11888439 -0.0039926455 0.0 -0.11496121 -0.0034902560999999998 0.0 -0.11080039 -0.0037276116 0.0 -0.10242601 0.015932963999999997 0.0 -0.11094733 0.022440747999999996 0.0 -0.11488731 0.028669534 0.0 -0.11968423 0.033749167000000004 0.0 -0.11748993 0.036768194 0.0 -0.11261259 0.037939838999999996 0.0 -0.10214857 0.048366606 0.0 -0.11030415 0.060103051 0.0 -0.11367593 0.07055136599999999 0.0 -0.1187322 0.078727901 0.0 -0.11870253 0.083654672 0.0 -0.11473909 0.085235715 0.0 -0.10324097 0.085612625 0.0 -0.10920963 0.10282682 0.0 -0.11192109 0.11750633 0.0 -0.11656756 0.12874189 0.0 -0.11828224 0.13506646 0.0 -0.11558629 0.13631809 0.0 -0.10422788 0.12328631 0.0 -0.10791146 0.1455726 0.0 -0.10991556 0.16450377 0.0 -0.11397231 0.17880286 0.0 -0.11644199 0.18628936 0.0 -0.11466405 0.1869714 0.0 -0.10400994 0.15793869 0.0 -0.10609634 0.18395723 0.0 -0.10775898 0.20716383 0.0 -0.11131629 0.22357242 0.0 -0.11286134 0.23267798 0.0 -0.11128616 0.23334245 0.0 -0.1019812 0.18790871 0.0 -0.10368565 0.21575914 0.0 -0.10564432 0.24173468 0.0 -0.10796616 0.26019526 0.0 -0.10800877 0.27112344 0.0 -0.10552618 0.27173847 0.0 -0.09801171 0.21263732 0.0 -0.10138942 0.24048139 0.0 -0.10367845 0.26794803 0.0 -0.10400237 0.28800943 0.0 -0.10196903 0.29604468 0.0 -0.10009626 0.29164231 0.0 -0.093572721 0.23334378 0.0 -0.098721616 0.26054356 0.0 -0.10126066 0.28836 0.0 -0.09963996 0.30542096 0.0 -0.097371407 0.30586633 0.0 -0.096976094 0.29843163 0.0 -0.08941920800000001 0.25253999 0.0 -0.09493937300000001 0.27863878 0.0 -0.09768703599999999 0.30436331 0.0 -0.094919145 0.31353933 0.0 -0.094687909 0.30892271 0.0 -0.093324579 0.29991874 0.0 -0.085198626 0.27208632 0.0 -0.08987622699999999 0.29540968 0.0 -0.092617616 0.31574699 0.0 -0.09000393699999999 0.31671575 0.0 -0.09070927599999999 0.30934009 0.0 -0.088290945 0.29956445 0.0 -0.080987625 0.29319775 0.0 -0.083770759 0.31246471 0.0 -0.086284809 0.32187369 0.0 -0.084265538 0.31760177 0.0 -0.084954746 0.30865872 0.0 -0.082909636 0.29831395 0.0 -0.076973855 0.31743282 0.0 -0.076252744 0.32894856 0.0 -0.079246953 0.32518476 0.0 -0.078352518 0.31757522 0.0 -0.078376085 0.30770069 0.0 -0.076934911 0.29656392 0.0 -0.072005212 0.34031612 0.0 -0.072552301 0.33710229 0.0 -0.073441021 0.3277736 0.0 -0.071607806 0.31723917 0.0 -0.071448043 0.30655426 0.0 -0.070433334 0.2945005 0.0 -0.066557027 0.34702808 0.0 -0.067061953 0.34053054 0.0 -0.06650199700000001 0.32812718 0.0 -0.064153723 0.31641939 0.0 -0.06376954900000001 0.30524686 0.0 -0.063515611 0.29235002 0.0 -0.060303490999999994 0.33992541 0.0 -0.059765324 0.32653186 0.0 -0.056430224 0.31473684 0.0 -0.055116639 0.3034988 0.0 -0.055549923 0.29026303 0.0 -0.053611964000000005 0.33627233 0.0 -0.053636342000000004 0.32423049 0.0 -0.050004232999999995 0.31218171 0.0 -0.046952829 0.3012521 0.0 -0.047264487 0.28827569 0.0 -0.046425390999999996 0.32152447 0.0 -0.045057590999999994 0.30927727 0.0 -0.040737968 0.29856133 0.0 -0.039640523 0.28638539 0.0 -0.039556675 0.31691054 0.0 -0.04096365 0.30681843 0.0 -0.036818426 0.29562801 0.0 -0.033518516 0.2842887 0.0 -0.033306945 0.30343017 0.0 -0.034651674 0.29304144 0.0 -0.030346672999999998 0.28222063 0.0 -0.028707884 0.28960618 0.0 -0.029205942999999998 0.28065515 0.0 -0.026698126000000003 0.27974325 0.0 -0.026636727000000002 0.27649891 0.0 -0.025915476 -0.0036078053999999997 0.0 -0.00042641273 -0.0037124984000000004 0.0 -0.00033769089999999996 -0.0037742537 0.0 -0.00026221183 -0.0038053726 0.0 -0.00019862296 -0.0038165832 0.0 -0.00014523401 -0.0038155671 0.0 -0.00010295189 -0.0038089794000000002 0.0 -6.8775742e-05 -0.0038012009999999997 0.0 -4.1902916999999995e-05 -0.0037953528000000004 0.0 -1.9722454e-05 -0.0051016142 0.0 -0.00056684582 -0.0052364809 0.0 -0.00045368329000000006 -0.0053111874 0.0 -0.00035705987999999996 -0.0053460989 0.0 -0.00027131542 -0.005354060799999999 0.0 -0.00020128192 -0.005346780600000001 0.0 -0.00014432857 -0.0053332201 0.0 -9.7833959e-05 -0.0053193141 0.0 -6.0444007e-05 -0.0053094295 0.0 -2.8681734e-05 -0.006999074 0.0 -0.0006498133299999999 -0.0071675237 0.0 -0.00052665273 -0.0072573549 0.0 -0.00041676307 -0.0072941729000000005 0.0 -0.0003205339 -0.0072968523 0.0 -0.00024068942000000001 -0.0072812513 0.0 -0.00017363932 -0.0072583673 0.0 -0.00011907721000000001 -0.0072365356999999995 0.0 -7.3968979e-05 -0.0072213411 0.0 -3.5343139000000004e-05 -0.0091363005 0.0 -0.00068396929 -0.0093353326 0.0 -0.00055957737 -0.0094374809 0.0 -0.00044416662000000003 -0.0094734086 0.0 -0.00034459052 -0.0094683096 0.0 -0.00025986927000000003 -0.0094416346 0.0 -0.00018902488000000002 -0.0094074737 0.0 -0.00013061419 -0.0093762772 0.0 -8.1456448e-05 -0.009354874499999999 0.0 -3.9108687e-05 -0.011443641000000001 0.0 -0.0006818398299999999 -0.011666441999999999 0.0 -0.0005592368 -0.01177428 0.0 -0.00044568026 -0.011804473999999999 0.0 -0.00034831623999999995 -0.011787836000000001 0.0 -0.00026353545 -0.011747142 0.0 -0.00019304788000000002 -0.011699676 0.0 -0.00013382606 -0.011657595 0.0 -8.3980951e-05 -0.011629183000000001 0.0 -4.0387064999999996e-05 -0.01392751 0.0 -0.0006569779899999999 -0.014164611 0.0 -0.00054070086 -0.014269753999999999 0.0 -0.00043436684 -0.01428816 0.0 -0.0003409567 -0.014254957 0.0 -0.00026029372000000003 -0.014196861000000002 0.0 -0.00019184819999999998 -0.01413353 0.0 -0.00013406911 -0.014078945 0.0 -8.465987e-05 -0.014042552 0.0 -4.0931503e-05 -0.016644605 0.0 -0.00062960858 -0.016885437 0.0 -0.0005247478299999999 -0.016979111 0.0 -0.00042804235 -0.016978571 0.0 -0.00033954595 -0.016923361 0.0 -0.00026291239 -0.016843777 0.0 -0.00019621415 -0.01676162 0.0 -0.00013884512 -0.016692532 0.0 -8.855124900000001e-05 -0.016646998 0.0 -4.3097258e-05 -0.019665156 0.0 -0.00062625454 -0.019898957 0.0 -0.00053627742 -0.019972391000000003 0.0 -0.00044841916 -0.019945344 0.0 -0.00036432547 -0.019862298 0.0 -0.00028776404 -0.019756623 0.0 -0.00021908105 -0.0196523 0.0 -0.00015763065 -0.019566361 0.0 -0.00010187425 -0.019510316 0.0 -4.9985447000000006e-05 -0.023042077 0.0 -0.0006848608 -0.023258245 0.0 -0.00060782291 -0.023303017000000002 0.0 -0.00052473455 -0.023242556 0.0 -0.00043856897000000005 -0.023125917000000003 0.0 -0.00035449102999999995 -0.0229895 0.0 -0.00027520063999999996 -0.022859382999999997 0.0 -0.00020129107 -0.02275403 0.0 -0.00013168099 -0.022685942999999997 0.0 -6.5103981e-05 -0.026804486000000002 0.0 -0.0008556439999999999 -0.026993614 0.0 -0.0007792712400000001 -0.027002661 0.0 -0.0006887462799999999 -0.026902996000000002 0.0 -0.0005873510400000001 -0.026747635 0.0 -0.00048296346 -0.026576078 0.0 -0.00037995027 -0.026416576 0.0 -0.00028077324 -0.026289174 0.0 -0.00018518053 -0.026207442999999997 0.0 -9.1991729e-05 -0.030978903 0.0 -0.0011806337 -0.031132603 0.0 -0.0010888872999999999 -0.031100579 0.0 -0.00097154215 -0.030957524 0.0 -0.0008352091499999999 -0.030759462999999997 0.0 -0.00069122034 -0.03054888 0.0 -0.0005473325700000001 -0.030356627 0.0 -0.00040669827000000005 -0.030204615 0.0 -0.00026940412 -0.030107671000000003 0.0 -0.00013412306999999998 -0.035597589 0.0 -0.0016907129000000001 -0.035711147 0.0 -0.0015602157999999998 -0.035634585 0.0 -0.0013939345 -0.0354455 0.0 -0.0012000286 -0.035201576 0.0 -0.000995529 -0.0349489 0.0 -0.0007896173599999999 -0.034721084 0.0 -0.00058753672 -0.034542222000000004 0.0 -0.00038918489 -0.034428623 0.0 -0.00019388259999999997 -0.040703422999999996 0.0 -0.0024019682 -0.040771835 0.0 -0.0022090869 -0.040649932 0.0 -0.0019653398000000002 -0.040413152 0.0 -0.0016879826000000002 -0.040121429 0.0 -0.0014000596 -0.039824187999999996 0.0 -0.0011122526 -0.039558459 0.0 -0.00082856353 -0.039350756 0.0 -0.00054928486 -0.039219145 0.0 -0.0002740834 -0.046346489000000005 0.0 -0.0033666865999999996 -0.046367142 0.0 -0.0030408858 -0.04619739900000001 0.0 -0.0026846554 -0.045909699000000005 0.0 -0.0023068648 -0.045569547 0.0 -0.0019114851000000001 -0.045226626 0.0 -0.0015193485 -0.044921625 0.0 -0.0011311941000000001 -0.044684358 0.0 -0.00074998284 -0.044534462999999996 0.0 -0.00037377659 -0.052583486 0.0 -0.0045579355 -0.052550137000000004 0.0 -0.004059464699999999 -0.052328542 0.0 -0.0035554194 -0.051989093 0.0 -0.0030449287 -0.051597167 0.0 -0.0025275869 -0.05120806 0.0 -0.0020083978 -0.050864249 0.0 -0.0014977505 -0.050597124 0.0 -0.00099368952 -0.050428715 0.0 -0.0004954023200000001 -0.059465155 0.0 -0.0059284768000000005 -0.059372753 0.0 -0.0052303551 -0.05909441 0.0 -0.0045537506 -0.0587008 0.0 -0.0038871001 -0.05825820599999999 0.0 -0.0032260437 -0.057823457 0.0 -0.0025673991 -0.057441294000000004 0.0 -0.0019173241 -0.05714611 0.0 -0.001273873 -0.056960199 0.0 -0.0006358297 -0.067032881 0.0 -0.0073980917000000005 -0.066881202 0.0 -0.0065063060999999995 -0.066545092 0.0 -0.0056485017 -0.066097617 0.0 -0.0048135421 -0.065605432 0.0 -0.0039937077 -0.065128893 0.0 -0.0031824952 -0.064712875 0.0 -0.0023809064 -0.064392202 0.0 -0.0015853583 -0.06419072299999999 0.0 -0.00079241127 -0.07532399099999999 0.0 -0.008892004399999999 -0.075119659 0.0 -0.007829529200000001 -0.074729525 0.0 -0.0068023028 -0.07423192299999999 0.0 -0.005801701899999999 -0.073696963 0.0 -0.0048182704 -0.07318522 0.0 -0.003845447 -0.07274165 0.0 -0.0028806203 -0.072400935 0.0 -0.0019198272 -0.072187431 0.0 -0.00095982605 -0.08437933 0.0 -0.010382187 -0.08413296199999999 0.0 -0.00917006 -0.083698794 0.0 -0.0079893135 -0.083161175 0.0 -0.0068305475 -0.08259286 0.0 -0.005683238199999999 -0.082054392 0.0 -0.0045420821 -0.081591018 0.0 -0.0034062145 -0.08123688400000001 0.0 -0.0022714627 -0.081014745 0.0 -0.0011356099 -0.094240293 0.0 -0.011852085 -0.09396664800000001 0.0 -0.010506503 -0.093503073 0.0 -0.0091794506 -0.092939459 0.0 -0.007862932 -0.09235096699999999 0.0 -0.0065520527 -0.09179778400000001 0.0 -0.0052405735 -0.09132418 0.0 -0.003930347 -0.09096273 0.0 -0.0026212158 -0.09073712699999999 0.0 -0.0013111210000000002 -0.10495121 0.0 -0.013296354 -0.10466595 0.0 -0.011816014 -0.10418937 0.0 -0.010340269000000001 -0.10361673 0.0 -0.008867570200000001 -0.1030239 0.0 -0.0073910109 -0.10247006 0.0 -0.0059137433 -0.10199788 0.0 -0.0044374298 -0.10163837 0.0 -0.0029598728000000004 -0.10141388 0.0 -0.0014803723 -0.11655738 0.0 -0.014709979 -0.11627576 0.0 -0.013081015 -0.11580267 0.0 -0.011451068 -0.1152374 0.0 -0.009819082 -0.11465624 0.0 -0.0081834784 -0.11411703 0.0 -0.0065493314 -0.11365854 0.0 -0.004915488 -0.11331014 0.0 -0.0032796242999999997 -0.113092 0.0 -0.0016409658 -0.12910779 0.0 -0.016083119 -0.12884276 0.0 -0.014295066 -0.12838663 0.0 -0.012505135 -0.12784208 0.0 -0.010712326999999999 -0.12728775 0.0 -0.0089247711 -0.12677705 0.0 -0.0071418099 -0.12634447 0.0 -0.0053613167 -0.12601607 0.0 -0.0035780149 -0.12581007 0.0 -0.0017906838 -0.14265803 0.0 -0.01742113 -0.14241824 0.0 -0.015475016999999999 -0.14198716 0.0 -0.013522252 -0.14147381 0.0 -0.011569248999999998 -0.14095776 0.0 -0.0096306792 -0.14048727 0.0 -0.0077029862 -0.14009109 0.0 -0.0057818415 -0.13979033 0.0 -0.0038595733000000004 -0.13960171 0.0 -0.0019317637 -0.15726726 0.0 -0.018761804 -0.15705591 0.0 -0.016674303 -0.15665446 0.0 -0.014562233999999999 -0.15617926 0.0 -0.012443641 -0.15570891 0.0 -0.010343599 -0.15528609 0.0 -0.0082645016 -0.15493353 0.0 -0.0061993604 -0.15466635 0.0 -0.004136825 -0.15449859 0.0 -0.0020708635 -0.17298704 0.0 -0.020193342 -0.17280623 0.0 -0.017995119 -0.17243941 0.0 -0.015728779 -0.17200616 0.0 -0.013423365 -0.17158489 0.0 -0.011132713999999998 -0.17121285 0.0 -0.008875459399999999 -0.17090553 0.0 -0.0066480311 -0.17067374 0.0 -0.0044326298 -0.17052847 0.0 -0.0022171286 -0.18983108 0.0 -0.021861592000000003 -0.18968782 0.0 -0.019577086 -0.18936498 0.0 -0.017143643 -0.18898092 0.0 -0.014618302 -0.18860909 0.0 -0.01208793 -0.18828538 0.0 -0.0096024787 -0.18802102 0.0 -0.0071687135 -0.18782169 0.0 -0.0047693639 -0.18769595 0.0 -0.002384722 -0.20769604 0.0 -0.023965081000000003 -0.20761564 0.0 -0.021572702000000003 -0.2073596 0.0 -0.018928688 -0.20703879 0.0 -0.016133146 -0.20671859 0.0 -0.013295727 -0.20643851 0.0 -0.010517357 -0.20620891 0.0 -0.007818627199999999 -0.20603506 0.0 -0.0051824721 -0.20592511 0.0 -0.0025826355 -0.22620545 0.0 -0.02672397 -0.22625068 0.0 -0.024136374 -0.22610815 0.0 -0.021194098999999997 -0.2258864 0.0 -0.018038532 -0.22563277 0.0 -0.014814748999999999 -0.22539549 0.0 -0.01167471 -0.22519243 0.0 -0.008651825600000001 -0.22503842 0.0 -0.005716817900000001 -0.22493917 0.0 -0.0028446007 -0.24458292 0.0 -0.030157704 -0.24485272 0.0 -0.027251281000000002 -0.2449176 0.0 -0.023899524 -0.24483944 0.0 -0.020305537 -0.24467947 0.0 -0.016626962 -0.24448992 0.0 -0.013060893999999998 -0.24430113 0.0 -0.0096621951 -0.24415562 0.0 -0.0063702082 -0.24405749 0.0 -0.0031653964 -0.26182389 0.0 -0.034068935 -0.26229531 0.0 -0.030845977000000004 -0.26259509 0.0 -0.027045187000000002 -0.26269001 0.0 -0.022928419 -0.26264489 0.0 -0.01873081 -0.2625002 0.0 -0.014687238 -0.26233581 0.0 -0.010815996999999999 -0.26217905 0.0 -0.007105707199999999 -0.26206499 0.0 -0.0035199153000000003 -0.2769115 0.0 -0.038054641 -0.27751732 0.0 -0.034476135 -0.27800968 0.0 -0.030273035 -0.27827018 0.0 -0.025700791 -0.27832681 0.0 -0.021043394 -0.27825549 0.0 -0.016478147 -0.27810436 0.0 -0.01211671 -0.27793431 0.0 -0.0079544988 -0.27781308 0.0 -0.0039472342 -0.28910643 0.0 -0.041912474 -0.28984407 0.0 -0.037821952 -0.29051372 0.0 -0.033179432 -0.29094687 0.0 -0.028309716000000002 -0.2911185 0.0 -0.023303786 -0.29111442 0.0 -0.018313358999999998 -0.29097521 0.0 -0.01352256 -0.29080331 0.0 -0.0089199059 -0.2906478 0.0 -0.0044333870000000004 -0.29766491 0.0 -0.046384729000000006 -0.29864877 0.0 -0.041239016 -0.29951912 0.0 -0.035994612 -0.30011645 0.0 -0.030580534 -0.30048025 0.0 -0.025114361 -0.30055907 0.0 -0.019743545 -0.30047521 0.0 -0.014605605 -0.30032155 0.0 -0.0096300412 -0.30014834 0.0 -0.0047427191999999995 -0.30044833 0.0 -0.055180512 -0.30183852 0.0 -0.048249114 -0.30316377 0.0 -0.041886862000000004 -0.30422515 0.0 -0.035666283 -0.30492976 0.0 -0.029602366 -0.30528599 0.0 -0.023732631 -0.30546352 0.0 -0.017969498 -0.30555415 0.0 -0.012156957 -0.3056204 0.0 -0.006179834300000001 -0.29245993 0.0 -0.073931806 -0.29512107 0.0 -0.064116985 -0.29783377 0.0 -0.055292695999999995 -0.30025575 0.0 -0.047300197 -0.30188948 0.0 -0.040032893 -0.30304939 0.0 -0.033065084 -0.30395904 0.0 -0.025731797999999997 -0.30467695 0.0 -0.017743416 -0.30515069 0.0 -0.0090397988 -0.25882632 0.0 -0.10720184 -0.26239875 0.0 -0.096136153 -0.26623541 0.0 -0.084689356 -0.26981837 0.0 -0.07302162799999999 -0.27227128 0.0 -0.061544228 -0.27363753 0.0 -0.050284613 -0.27434474 0.0 -0.038875509 -0.2745795 0.0 -0.026736932 -0.27461037 0.0 -0.013682743999999998 -0.16815859 0.0 -0.10845314 -0.17183718 0.0 -0.097995296 -0.17526427 0.0 -0.08663093300000001 -0.1782465 0.0 -0.074737303 -0.1806197 0.0 -0.063343935 -0.18233818 0.0 -0.052248187 -0.18345512 0.0 -0.040736586 -0.18409333 0.0 -0.028208656000000002 -0.18439898 0.0 -0.014498625 -0.096598856 0.0 -0.1024067 -0.1000887 0.0 -0.09341566300000001 -0.1034589 0.0 -0.08339403599999999 -0.10654103 0.0 -0.072716877 -0.1091748 0.0 -0.062319300999999994 -0.11127018 0.0 -0.051944810999999994 -0.11280357 0.0 -0.040863883 -0.11381388 0.0 -0.02848546 -0.11437487 0.0 -0.014699377 -0.046026871 0.0 -0.096903034 -0.048366472 0.0 -0.088857986 -0.050820429 0.0 -0.07975433 -0.05324832 0.0 -0.069934733 -0.055489209000000005 0.0 -0.060295764 -0.057411849 0.0 -0.05056531 -0.058926087 0.0 -0.040004119 -0.05999594900000001 0.0 -0.028011851 -0.060625512 0.0 -0.014496058000000001 -0.0044188951 0.0 -0.09355401199999999 -0.0054542739 0.0 -0.08571913800000001 -0.0067617553 0.0 -0.076903179 -0.0082375426 0.0 -0.067400746 -0.0097472146 0.0 -0.058118004 -0.011153541000000001 0.0 -0.048793573 -0.012337891 0.0 -0.038674705 -0.013223005 0.0 -0.027133545 -0.013765899 0.0 -0.014061172 0.038105294 0.0 -0.092537157 0.037845488999999996 0.0 -0.084331855 0.037352227 0.0 -0.075270697 0.036681119 0.0 -0.065612085 0.035899084 0.0 -0.05630924599999999 0.035098702 0.0 -0.047127437 0.034373939 0.0 -0.037297409 0.033800259 0.0 -0.02615504 0.033432916 0.0 -0.013553827 0.08528573800000001 0.0 -0.092948705 0.08497888599999999 0.0 -0.08417230099999999 0.08468341800000001 0.0 -0.074606724 0.08440306800000001 0.0 -0.064545169 0.08410798 0.0 -0.055006582000000005 0.083799601 0.0 -0.045787710999999995 0.083501033 0.0 -0.036106896 0.083245851 0.0 -0.025266951 0.083071597 0.0 -0.01307979 0.13545273 0.0 -0.09354822300000001 0.13438012 0.0 -0.08429069800000001 0.13369243 0.0 -0.0742535 0.13335279 0.0 -0.063804425 0.13322282 0.0 -0.05401938 0.1331902 0.0 -0.044721647999999996 0.13318287 0.0 -0.035126142 0.13316979 0.0 -0.024516605 0.13315171 0.0 -0.012672893999999999 0.18481328 0.0 -0.093253404 0.18260026 0.0 -0.083763056 0.18116474 0.0 -0.073487058 0.18044403 0.0 -0.062861085 0.18020156 0.0 -0.052986037 0.18021846 0.0 -0.043699484000000004 0.18033116 0.0 -0.034222527999999995 0.18044299 0.0 -0.023836922000000003 0.18051413 0.0 -0.012306642 0.22996986 0.0 -0.091417901 0.22662275 0.0 -0.081978969 0.22435541 0.0 -0.071770288 0.22309344 0.0 -0.061262015 0.2225351 0.0 -0.051539928 0.22238952 0.0 -0.042441607 0.22243401 0.0 -0.033199344 0.22252768 0.0 -0.023105432999999998 0.22259985 0.0 -0.01192279 0.26644322 0.0 -0.08795847 0.26126474 0.0 -0.07876288099999999 0.25748286 0.0 -0.068864547 0.25494328 0.0 -0.058747914000000005 0.25328648 0.0 -0.049437229000000006 0.25221792 0.0 -0.040743653 0.25153908 0.0 -0.031901228999999996 0.25112268 0.0 -0.022216586 0.25090107 0.0 -0.011467568999999999 0.28418219 0.0 -0.083835438 0.27764112 0.0 -0.074756004 0.27243283 0.0 -0.06521593 0.26842758 0.0 -0.055626269000000006 0.26539674 0.0 -0.046841264 0.26311746 0.0 -0.038624376 0.26146567 0.0 -0.030234585 0.2603524 0.0 -0.021040985 0.25971043 0.0 -0.010850323 0.29003569 0.0 -0.079963058 0.28277144 0.0 -0.07092786599999999 0.27678171 0.0 -0.06165788 0.27197197 0.0 -0.052547008 0.26819021 0.0 -0.044215519 0.26530603 0.0 -0.036397822 0.26318371 0.0 -0.02843404 0.26173371 0.0 -0.019770328 0.26089796 0.0 -0.010207407 0.29106787 0.0 -0.076483048 0.28340739 0.0 -0.067731909 0.2770279 0.0 -0.05871927 0.27185357 0.0 -0.04995336400000001 0.26776639 0.0 -0.041943479000000006 0.26456958 0.0 -0.034413442 0.26215088 0.0 -0.02678364 0.26047617 0.0 -0.018549271000000003 0.25950253 0.0 -0.0095355716 0.29027739 0.0 -0.072769001 0.28230143 0.0 -0.06470646 0.27557096 0.0 -0.056266475 0.27009681 0.0 -0.047990974000000006 0.26568469 0.0 -0.040238507 0.26220173 0.0 -0.032950375 0.25953129 0.0 -0.025556017 0.25761694 0.0 -0.017605773999999998 0.25647506 0.0 -0.0090206917 0.28852877 0.0 -0.06946266400000001 0.28009194 0.0 -0.061638437000000004 0.27304941 0.0 -0.053662218 0.26730099 0.0 -0.045774996 0.26268905 0.0 -0.038323607 0.25902447 0.0 -0.031287827000000004 0.25612628 0.0 -0.024185058 0.25400683 0.0 -0.016641818 0.25270408 0.0 -0.0085112751 0.28609386 0.0 -0.065704703 0.27709553 0.0 -0.05869351 0.26968393 0.0 -0.051438667 0.26356056 0.0 -0.043926707999999995 0.25869119 0.0 -0.036700111 0.25477353 0.0 -0.029669421 0.25167236 0.0 -0.022721952000000004 0.24935 0.0 -0.015520832 0.24789993 0.0 -0.0079099098 0.28325111 0.0 -0.061314844 0.27354607 0.0 -0.055251811 0.26558033 0.0 -0.048803035 0.25905165 0.0 -0.042082425 0.25377023 0.0 -0.03519088 0.24952309 0.0 -0.028316569 0.24617499 0.0 -0.021418782 0.24370585 0.0 -0.014414241999999999 0.24217266 0.0 -0.007262945600000001 0.28007177 0.0 -0.056108817000000005 0.26961794 0.0 -0.051436707000000005 0.26088735 0.0 -0.045854542000000005 0.25385466 0.0 -0.039855566 0.24811262 0.0 -0.033466283 0.24351124 0.0 -0.026902465 0.23988213 0.0 -0.020228717 0.23721614 0.0 -0.013530693 0.23557052 0.0 -0.0067770411 0.27694163 0.0 -0.050296798 0.26551199 0.0 -0.046714686 0.25604838 0.0 -0.04244782 0.24825779 0.0 -0.03734719 0.24201736 0.0 -0.031620197 0.23697585 0.0 -0.025383298999999998 0.23307072 0.0 -0.019006671 0.2302295 0.0 -0.01260085 0.2285012 0.0 -0.006265056800000001 0.2742531 0.0 -0.043993807999999995 0.26169091 0.0 -0.041165058 0.25134122 0.0 -0.038173672 0.24276644 0.0 -0.03420265 0.23583448 0.0 -0.029405991 0.23032044 0.0 -0.02380494 0.22607137 0.0 -0.017788718000000002 0.22303686 0.0 -0.011707225 0.22126918 0.0 -0.005810916 0.27208492 0.0 -0.037662838 0.25859466 0.0 -0.035332967 0.24706647 0.0 -0.03291348 0.23771134 0.0 -0.030240627000000003 0.22999124 0.0 -0.026473461 0.22389387 0.0 -0.021831019 0.21925902 0.0 -0.01645611 0.21602555 0.0 -0.010862375 0.21417516 0.0 -0.0054186094 0.27027801 0.0 -0.031917144 0.25623104 0.0 -0.029704519 0.24373722 0.0 -0.027546702000000003 0.2332243 0.0 -0.025273975 0.22485115 0.0 -0.022739962000000002 0.21810231 0.0 -0.019165108 0.21296108 0.0 -0.014729358 0.20951803 0.0 -0.009864241800000001 0.20754001 0.0 -0.0049541993 0.26904505 0.0 -0.027296087000000004 0.25458282 0.0 -0.024984026 0.24116555 0.0 -0.022595089 0.22984669 0.0 -0.020443746999999998 0.22049241 0.0 -0.018175458999999998 0.21313158 0.0 -0.015708225 0.2076451 0.0 -0.012454326000000002 0.203844 0.0 -0.008506238499999999 0.20175545 0.0 -0.0043316577 0.26833454 0.0 -0.024137821 0.25440526 0.0 -0.021952637999999997 0.23973624 0.0 -0.018971751999999998 0.227284 0.0 -0.016283133999999998 0.21722217 0.0 -0.014009031000000002 0.2091803 0.0 -0.011762644 0.20323522 0.0 -0.0095030563 0.19930139 0.0 -0.006767534699999999 0.19695456 0.0 -0.0034647328 0.26602158 0.0 -0.022568431 0.25389054 0.0 -0.019843703 0.24024221 0.0 -0.017463613 0.22639063 0.0 -0.014056575 0.21493176 0.0 -0.011014887 0.20630735 0.0 -0.0085090501 0.19994545 0.0 -0.0064598586999999996 0.195536 0.0 -0.0046041198 0.19303139 0.0 -0.0024533169 0.2596994 0.0 -0.021063004 0.24989624 0.0 -0.017932886000000002 0.23909567 0.0 -0.015877912 0.22673406 0.0 -0.013350565 0.21483226 0.0 -0.010436161 0.20479763 0.0 -0.0072077434 0.1976393 0.0 -0.0046646995 0.19282736 0.0 -0.0028816229 0.19002594 0.0 -0.0014629384 0.24157079 0.0 -0.015840147 0.23328474 0.0 -0.013503562 0.22307459 0.0 -0.010942172 0.21330534 0.0 -0.0093096616 0.20384163 0.0 -0.006998432299999999 0.19651964 0.0 -0.004939646 0.190983 0.0 -0.0028162913 0.18766062 0.0 -0.0011576925999999999 0.21530618 0.0 -0.0082754456 0.20731917 0.0 -0.0065609282 0.19909635 0.0 -0.0044895015000000005 0.19251549 0.0 -0.0032088412 0.18726476 0.0 -0.0019006985 0.18383697 0.0 -0.00060192531 0.19114222 0.0 -0.0020136815 0.1855239 0.0 -0.00024302876 0.1810786 0.0 0.00063948345 0.17851175 0.0 0.00048328825999999995 -0.0037932144 0.0 6.493962299999999e-11 -0.0037953542 0.0 1.9722853e-05 -0.0038011996 0.0 4.1902970999999996e-05 -0.0038089785 0.0 6.8775844e-05 -0.0038155648 0.0 0.00010295171999999998 -0.0038165872 0.0 0.00014523392 -0.0038053696 0.0 0.00019862287 -0.0037742547999999997 0.0 0.00026221186 -0.0053058346 0.0 -6.2354375e-13 -0.005309429 0.0 2.8681468e-05 -0.005319314499999999 0.0 6.0443948e-05 -0.0053332192 0.0 9.7833843e-05 -0.0053467811 0.0 0.00014432833 -0.0053540599 0.0 0.0002012819 -0.005346099399999999 0.0 0.00027131508 -0.005311188299999999 0.0 0.00035706025999999996 -0.007215919 0.0 1.6960332e-10 -0.0072213402 0.0 3.5343455e-05 -0.007236535200000001 0.0 7.3968913e-05 -0.0072583691 0.0 0.00011907674 -0.007281254 0.0 0.00017363941999999998 -0.007296852800000001 0.0 0.00024068856 -0.007294177099999999 0.0 0.00032053306 -0.007257354000000001 0.0 0.00041676327000000007 -0.0093473308 0.0 2.2624816000000002e-10 -0.0093548754 0.0 3.9109073e-05 -0.0093762772 0.0 8.1455328e-05 -0.0094074747 0.0 0.000130614 -0.0094416337 0.0 0.00018902493 -0.0094683077 0.0 0.00025986912 -0.0094734104 0.0 0.00034458976 -0.0094374791 0.0 0.0004441659 -0.011619201000000001 0.0 -1.2921065e-09 -0.011629181 0.0 4.0387666e-05 -0.011657596999999999 0.0 8.3981518e-05 -0.011699676 0.0 0.00013382583 -0.01174714 0.0 0.00019304758000000002 -0.011787836000000001 0.0 0.00026353533 -0.011804473000000001 0.0 0.00034831587 -0.011774278999999999 0.0 0.00044568113 -0.01402982 0.0 6.381655799999999e-10 -0.014042553000000001 0.0 4.0931860000000004e-05 -0.014078945 0.0 8.4660227e-05 -0.014133528000000001 0.0 0.00013406851 -0.014196862 0.0 0.00019184788000000002 -0.014254957 0.0 0.00026029331000000005 -0.014288163000000001 0.0 0.00034095617999999994 -0.014269756000000001 0.0 0.00043436500999999994 -0.016631145 0.0 6.3535149e-10 -0.016646998 0.0 4.3094802e-05 -0.016692532 0.0 8.8550747e-05 -0.016761621 0.0 0.00013884563999999998 -0.016843777 0.0 0.00019621392 -0.016923359 0.0 0.00026291183999999995 -0.016978567 0.0 0.00033954653 -0.016979111 0.0 0.00042804147000000006 -0.019490898 0.0 9.7057484e-10 -0.019510316 0.0 4.9982875000000004e-05 -0.019566361 0.0 0.00010187308000000001 -0.0196523 0.0 0.00015763106 -0.019756624 0.0 0.00021908062999999997 -0.019862296 0.0 0.0002877643 -0.019945341999999998 0.0 0.00036432652000000003 -0.019972391000000003 0.0 0.0004484186599999999 -0.022662437999999997 0.0 -8.447770800000001e-10 -0.022685942999999997 0.0 6.5101478e-05 -0.022754032 0.0 0.00013167999 -0.022859378 0.0 0.00020128971999999997 -0.0229895 0.0 0.00027520047000000004 -0.023125918999999998 0.0 0.00035448984 -0.023242561000000002 0.0 0.00043856852999999996 -0.023303018999999998 0.0 0.00052473316 -0.026179322999999997 0.0 2.0526625e-09 -0.026207441 0.0 9.1989816e-05 -0.026289176 0.0 0.00018517901 -0.026416577000000004 0.0 0.00028077318 -0.026576073999999998 0.0 0.00037995077000000006 -0.026747629 0.0 0.00048296331 -0.026903002999999998 0.0 0.0005873504 -0.027002657000000003 0.0 0.00068874651 -0.030074407999999997 0.0 1.2457811e-09 -0.030107675 0.0 0.00013412091 -0.030204611 0.0 0.00026940304 -0.030356623 0.0 0.00040669722 -0.030548876000000003 0.0 0.00054733211 -0.030759459 0.0 0.00069122028 -0.030957527000000002 0.0 0.00083520875 -0.031100586 0.0 0.0009715418600000001 -0.034389731 0.0 3.179794e-09 -0.034428623 0.0 0.00019388163 -0.034542225 0.0 0.00038918472 -0.034721084 0.0 0.00058753684 -0.034948897 0.0 0.00078961649 -0.035201576 0.0 0.0009955283 -0.0354455 0.0 0.0012000281 -0.035634587999999995 0.0 0.0013939338 -0.039174221 0.0 1.5942543e-09 -0.039219145 0.0 0.00027407901 -0.039350759 0.0 0.00054928602 -0.039558452 0.0 0.00082856353 -0.039824191 0.0 0.0011122522 -0.040121421000000004 0.0 0.001400059 -0.040413145 0.0 0.001687981 -0.040649936 0.0 0.0019653332 -0.044483233 0.0 -1.3631722e-09 -0.04453446 0.0 0.00037377511 -0.044684358 0.0 0.00074997946 -0.044921622 0.0 0.0011311929 -0.045226619 0.0 0.0015193477 -0.045569547 0.0 0.0019114830999999999 -0.045909695 0.0 0.0023068641 -0.046197403 0.0 0.0026846568 -0.050371241 0.0 1.7152775e-09 -0.050428715 0.0 0.00049540139 -0.050597124 0.0 0.0009936896400000001 -0.050864242000000004 0.0 0.0014977489000000002 -0.051208064000000005 0.0 0.0020083962 -0.051597163 0.0 0.0025275876 -0.051989086 0.0 0.0030449263 -0.052328542 0.0 0.0035554184999999996 -0.056896787000000004 0.0 -8.1352414e-10 -0.056960192 0.0 0.00063582498 -0.057146117 0.0 0.0012738725999999999 -0.057441287 0.0 0.0019173214000000002 -0.057823457 0.0 0.0025673979 -0.058258202 0.0 0.0032260439 -0.058700807 0.0 0.003887098 -0.059094407 0.0 0.004553746 -0.06412217 0.0 -1.7007857e-09 -0.064190716 0.0 0.0007924118 -0.064392194 0.0 0.0015853602 -0.06471288900000001 0.0 0.0023809061 -0.065128878 0.0 0.0031824954999999998 -0.06560542400000001 0.0 0.0039937068 -0.06609761 0.0 0.0048135421 -0.066545092 0.0 0.0056484998 -0.07211480299999999 0.0 -2.7099398e-09 -0.072187439 0.0 0.0009598252900000001 -0.07240095 0.0 0.0019198258999999999 -0.072741635 0.0 0.0028806212 -0.07318522 0.0 0.0038454491 -0.073696956 0.0 0.0048182728000000005 -0.07423192299999999 0.0 0.005801704699999999 -0.07472951 0.0 0.006802305600000001 -0.080939129 0.0 5.7561322e-10 -0.081014745 0.0 0.0011356059 -0.08123688400000001 0.0 0.0022714634 -0.081591025 0.0 0.0034062159 -0.082054377 0.0 0.0045420849 -0.082592845 0.0 0.005683241899999999 -0.083161153 0.0 0.0068305489 -0.083698787 0.0 0.0079893125 -0.090660453 0.0 -8.3635143e-09 -0.09073712699999999 0.0 0.0013111301999999998 -0.090962715 0.0 0.0026212181 -0.091324165 0.0 0.0039303526 -0.09179779099999999 0.0 0.005240580999999999 -0.09235096699999999 0.0 0.0065520587 -0.092939459 0.0 0.0078629339 -0.093503065 0.0 0.0091794524 -0.10133746 0.0 -4.8876303e-09 -0.1014139 0.0 0.0014803737 -0.10163837 0.0 0.0029598772999999997 -0.10199787 0.0 0.0044374401 -0.10247007 0.0 0.005913754499999999 -0.1030239 0.0 0.0073910211 -0.1036167 0.0 0.0088675823 -0.10418936 0.0 0.010340269000000001 -0.11301791 0.0 1.7337284e-10 -0.11309199 0.0 0.0016409652 -0.11331012 0.0 0.0032796343 -0.11365855 0.0 0.0049154949 -0.11411704 0.0 0.0065493444 -0.11465624 0.0 0.0081834905 -0.11523741 0.0 0.0098190932 -0.11580268 0.0 0.011451072 -0.12573998 0.0 4.0936223e-09 -0.12581009 0.0 0.0017906775 -0.12601608 0.0 0.0035780203000000004 -0.12634446 0.0 0.0053613246 -0.12677705 0.0 0.007141822 -0.12728775 0.0 0.008924784100000001 -0.12784208 0.0 0.01071234 -0.12838665 0.0 0.012505137 -0.13953745 0.0 -4.6145061e-09 -0.13960172 0.0 0.0019317585999999998 -0.13979033 0.0 0.0038595719 -0.14009111 0.0 0.0057818475 -0.14048727 0.0 0.007702995600000001 -0.14095779 0.0 0.0096306875 -0.14147386 0.0 0.011569257 -0.1419872 0.0 0.013522256000000002 -0.15444158 0.0 -1.3520457e-09 -0.15449859 0.0 0.0020708479 -0.15466635 0.0 0.0041368208000000005 -0.15493356 0.0 0.0061993599 -0.15528615 0.0 0.0082645062 -0.15570894 0.0 0.010343606 -0.15617928 0.0 0.012443652 -0.15665454 0.0 0.014562251000000002 -0.17047855 0.0 -6.6276664e-09 -0.17052853 0.0 0.0022171133 -0.17067377 0.0 0.0044326205 -0.17090556 0.0 0.0066480296999999995 -0.17121288 0.0 0.0088754613 -0.17158493 0.0 0.011132721000000002 -0.1720062 0.0 0.013423375 -0.17243946 0.0 0.015728785 -0.18765272 0.0 -1.8110395e-08 -0.18769594 0.0 0.0023846969 -0.18782173 0.0 0.0047693523 -0.18802103 0.0 0.0071687074 -0.18828541 0.0 0.009602481500000001 -0.18860911 0.0 0.012087938999999999 -0.18898094 0.0 0.014618311 -0.18936498 0.0 0.01714365 -0.20588772 0.0 -6.8816499e-09 -0.20592511 0.0 0.0025826166 -0.20603503 0.0 0.0051824544 -0.20620891 0.0 0.0078186179 -0.20643848 0.0 0.01051736 -0.20671862 0.0 0.01329574 -0.20703879 0.0 0.016133158 -0.20735958 0.0 0.018928695 -0.22490476 0.0 -1.2266913000000002e-08 -0.22493915 0.0 0.0028445828000000003 -0.22503841 0.0 0.005716804399999999 -0.22519241 0.0 0.0086518172 -0.22539552 0.0 0.011674713 -0.22563277 0.0 0.014814761000000001 -0.22588642 0.0 0.018038548999999997 -0.22610821 0.0 0.021194112999999997 -0.24402095 0.0 -6.9497812e-09 -0.24405746 0.0 0.0031653821999999996 -0.24415562 0.0 0.0063701952000000004 -0.24430113 0.0 0.0096621886 -0.24448992 0.0 0.013060898999999999 -0.24467947 0.0 0.016626971 -0.24483947 0.0 0.020305548 -0.2449176 0.0 0.023899535 -0.26202282 0.0 -2.5001863e-09 -0.26206502 0.0 0.0035199073999999998 -0.26217908 0.0 0.0071056997 -0.26233575 0.0 0.010815995 -0.26250017 0.0 0.014687243 -0.26264489 0.0 0.018730817 -0.26269004 0.0 0.02292843 -0.26259515 0.0 0.027045192000000003 -0.27776447 0.0 -2.2462934e-09 -0.27781314 0.0 0.003947231 -0.27793428 0.0 0.0079544978 -0.27810436 0.0 0.012116712 -0.27825549 0.0 0.016478151 -0.27832681 0.0 0.021043403 -0.27827013 0.0 0.0257008 -0.27800968 0.0 0.030273044 -0.2905817 0.0 -5.237806299999999e-10 -0.2906478 0.0 0.0044333865 -0.29080337 0.0 0.0089199152 -0.29097524 0.0 0.013522561 -0.29111442 0.0 0.018313365 -0.2911185 0.0 0.023303796 -0.2909469 0.0 0.028309735 -0.29051378 0.0 0.033179451 -0.30003136 0.0 -1.2328184e-09 -0.30014834 0.0 0.0047427244 -0.30032155 0.0 0.0096300449 -0.30047527 0.0 0.014605611999999999 -0.3005591 0.0 0.019743549 -0.30048028 0.0 0.025114374 -0.30011636 0.0 0.030580557999999997 -0.29951912 0.0 0.03599463 -0.30565992 0.0 4.5183737e-09 -0.30562037 0.0 0.0061798422 -0.30555421 0.0 0.012156967 -0.30546355 0.0 0.017969506 -0.30528602 0.0 0.023732632000000004 -0.30492979 0.0 0.029602387999999997 -0.30422512 0.0 0.035666302000000004 -0.30316374 0.0 0.041886888 -0.30529875 0.0 5.160719e-09 -0.30515066 0.0 0.0090397941 -0.30467692 0.0 0.017743405 -0.30395898 0.0 0.025731817 -0.30304939 0.0 0.033065092000000004 -0.30188951 0.0 0.040032897000000005 -0.30025578 0.0 0.047300238 -0.29783383 0.0 0.055292722 -0.27460805 0.0 -9.4094466e-09 -0.27461022 0.0 0.013682733 -0.27457955 0.0 0.026736945 -0.27434483 0.0 0.038875482999999995 -0.27363759 0.0 0.050284632 -0.27227122 0.0 0.061544262 -0.26981843 0.0 0.073021673 -0.26623547 0.0 0.084689341 -0.18448655 0.0 2.5271776e-09 -0.18439895 0.0 0.014498571000000002 -0.18409328 0.0 0.028208663999999998 -0.18345508 0.0 0.040736601000000004 -0.18233824 0.0 0.052248199 -0.18061964 0.0 0.063343942 -0.1782465 0.0 0.074737348 -0.17526433 0.0 0.086630955 -0.11455322 0.0 1.6525160000000002e-08 -0.11437489 0.0 0.014699421 -0.11381388 0.0 0.028485449 -0.1128035 0.0 0.040863879 -0.1112701 0.0 0.051944815 -0.10917484 0.0 0.06231932 -0.10654106 0.0 0.072716847 -0.1034589 0.0 0.083394058 -0.060832419000000006 0.0 -3.7062815e-08 -0.060625512 0.0 0.014496033 -0.059995927000000004 0.0 0.028011822999999998 -0.058926097999999996 0.0 0.040004101 -0.057411767999999995 0.0 0.05056531 -0.055489209000000005 0.0 0.060295735 -0.05324835 0.0 0.06993477 -0.050820515 0.0 0.079754338 -0.01394855 0.0 -4.8813742e-08 -0.013765804 0.0 0.014061173 -0.013222926000000001 0.0 0.027133527999999997 -0.012337948999999999 0.0 0.038674701 -0.011153473999999998 0.0 0.04879359900000001 -0.009747218299999999 0.0 0.058118004 -0.008237506300000001 0.0 0.067400768 -0.006761787900000001 0.0 0.076903209 0.033306573 0.0 -2.3076416e-09 0.033432886 0.0 0.013553773 0.033800308 0.0 0.026155023 0.034373928 0.0 0.037297439 0.035098769 0.0 0.047127380999999996 0.035899062 0.0 0.056309282999999995 0.036681097 0.0 0.06561204 0.037352279 0.0 0.075270697 0.08300954099999999 0.0 5.1090563e-08 0.08307165700000001 0.0 0.013079808 0.08324579900000001 0.0 0.025266936 0.083501004 0.0 0.036106881 0.083799548 0.0 0.04578771400000001 0.084107943 0.0 0.055006564 0.084403202 0.0 0.064545169 0.084683441 0.0 0.074606828 0.13314304 0.0 4.2080316e-08 0.13315167 0.0 0.012672882 0.1331698 0.0 0.024516622999999998 0.13318293 0.0 0.035126146000000004 0.13319029 0.0 0.044721641 0.13322285 0.0 0.054019388 0.13335289 0.0 0.063804425 0.13369249 0.0 0.074253529 0.18053742 0.0 -3.1543816e-09 0.18051414 0.0 0.012306649 0.18044297 0.0 0.023836892000000002 0.18033113 0.0 0.03422251 0.18021847 0.0 0.043699472999999996 0.18020162 0.0 0.052986056 0.18044402 0.0 0.062861107 0.18116485 0.0 0.07348711 0.22262548 0.0 4.1801158e-09 0.22259979 0.0 0.011922829 0.22252762 0.0 0.023105476 0.2224341 0.0 0.033199362 0.22238953 0.0 0.042441595 0.22253504 0.0 0.051539931 0.22309339 0.0 0.06126203 0.22435541 0.0 0.071770318 0.25083068 0.0 8.4417691e-09 0.25090101 0.0 0.011467606000000002 0.25112262 0.0 0.022216575 0.25153905 0.0 0.03190124 0.25221795 0.0 0.040743615 0.25328642 0.0 0.049437225 0.25494331 0.0 0.058747957999999996 0.25748277 0.0 0.068864599 0.25950277 0.0 2.9875138999999996e-08 0.25971046 0.0 0.010850353 0.26035243 0.0 0.021040989 0.26146561 0.0 0.03023459 0.26311746 0.0 0.038624398 0.26539677 0.0 0.046841256 0.26842761 0.0 0.055626217 0.27243283 0.0 0.065215938 0.26062223 0.0 1.3820131000000003e-08 0.26089793 0.0 0.010207437 0.26173365 0.0 0.019770343 0.26318368 0.0 0.028434029 0.265306 0.0 0.036397818 0.26819023 0.0 0.044215534 0.27197191 0.0 0.052546985 0.27678168 0.0 0.061657891 0.25917938 0.0 -7.2778934e-09 0.25950253 0.0 0.0095355529 0.26047623 0.0 0.018549288 0.26215088 0.0 0.026783641 0.26456958 0.0 0.034413449 0.26776636 0.0 0.04194347599999999 0.27185354 0.0 0.04995336 0.27702788 0.0 0.058719262 0.25609696 0.0 4.0897628e-09 0.25647503 0.0 0.009020700100000001 0.25761697 0.0 0.017605782 0.25953129 0.0 0.025556019 0.2622017 0.0 0.032950379 0.26568469 0.0 0.040238518 0.27009675 0.0 0.047990967 0.27557093 0.0 0.056266464 0.2522625 0.0 4.4638346e-09 0.25270408 0.0 0.0085112778 0.25400686 0.0 0.016641809 0.25612625 0.0 0.024185065 0.25902447 0.0 0.031287827000000004 0.26268905 0.0 0.0383236 0.26730099 0.0 0.045775 0.27304938 0.0 0.053662218 0.24740554 0.0 3.2775689e-09 0.24789992 0.0 0.0079099219 0.24935001 0.0 0.015520823000000001 0.25167236 0.0 0.022721952000000004 0.25477356 0.0 0.029669432000000003 0.25869116 0.0 0.036700103 0.26356056 0.0 0.04392672 0.26968393 0.0 0.051438648 0.24163176 0.0 9.7369348e-09 0.24217264 0.0 0.0072629494 0.24370582 0.0 0.014414238999999999 0.24617498 0.0 0.021418782 0.24952309 0.0 0.028316576 0.25377023 0.0 0.035190884 0.25905165 0.0 0.042082429000000005 0.26558033 0.0 0.048803028 0.23504061 0.0 6.7363857e-09 0.23557052 0.0 0.0067770435 0.23721613 0.0 0.013530696000000002 0.23988213 0.0 0.020228716 0.24351121 0.0 0.026902474 0.24811263 0.0 0.033466287000000004 0.25385463 0.0 0.039855562000000004 0.26088741 0.0 0.045854545999999996 0.22793587 0.0 1.2801795e-09 0.2285012 0.0 0.006265068 0.23022951 0.0 0.012600848999999999 0.23307073 0.0 0.01900667 0.23697582 0.0 0.025383297000000003 0.24201734 0.0 0.031620197 0.2482578 0.0 0.037347201000000003 0.25604844 0.0 0.042447831 0.22068247 0.0 9.644232099999999e-10 0.22126921 0.0 0.0058109192 0.22303684 0.0 0.011707222 0.22607137 0.0 0.017788718000000002 0.23032047 0.0 0.023804935 0.23583448 0.0 0.029405987 0.24276647 0.0 0.034202658 0.25134116 0.0 0.038173676000000004 0.21355166 0.0 2.9996873999999997e-10 0.21417513 0.0 0.005418615 0.21602552 0.0 0.010862381 0.21925899 0.0 0.016456113999999997 0.22389388 0.0 0.021831017 0.22999121 0.0 0.026473457000000002 0.23771134 0.0 0.030240634 0.24706648 0.0 0.032913491 0.20689394 0.0 7.18201e-10 0.20754005 0.0 0.004954201599999999 0.20951806 0.0 0.0098642474 0.21296106 0.0 0.014729361000000002 0.21810228 0.0 0.01916511 0.22485113 0.0 0.022739954 0.23322433 0.0 0.025273977000000003 0.24373725 0.0 0.027546708 0.20104411 0.0 3.0944183e-09 0.20175548 0.0 0.0043316572 0.20384398 0.0 0.008506244 0.20764509 0.0 0.012454337 0.21313156 0.0 0.015708223 0.22049242 0.0 0.018175458999999998 0.22984669 0.0 0.020443746999999998 0.24116556 0.0 0.022595102000000002 0.19621447 0.0 2.4174396e-09 0.19695458 0.0 0.0034647388 0.19930139 0.0 0.0067675365 0.20323518 0.0 0.009503054399999999 0.20918025 0.0 0.011762652 0.21722217 0.0 0.01400904 0.227284 0.0 0.016283143 0.23973621 0.0 0.018971762 0.19222973 0.0 1.7455219e-10 0.19303142 0.0 0.0024533246 0.19553603 0.0 0.0046041277 0.19994545 0.0 0.0064598615000000005 0.20630735 0.0 0.0085090566 0.21493174 0.0 0.011014889 0.2263906 0.0 0.014056576999999999 0.2402422 0.0 0.017463615 0.1890737 0.0 5.2008748e-09 0.19002594 0.0 0.0014629414999999999 0.19282733 0.0 0.0028816282 0.19763938 0.0 0.004664666 0.20479761 0.0 0.0072077415 0.21483226 0.0 0.010436161999999999 0.22673406 0.0 0.013350572 0.23909569 0.0 0.015877908 0.18649994 0.0 5.9075705e-10 0.18766063 0.0 0.0011576825 0.190983 0.0 0.0028162925 0.19651963 0.0 0.0049396399 0.20384161 0.0 0.0069984207 0.21330532 0.0 0.0093096485 0.22307459 0.0 0.010942163000000001 0.23328476 0.0 0.013503562 0.18276636 0.0 -3.9205023e-10 0.18383697 0.0 0.00060192309 0.18726476 0.0 0.0019006976999999998 0.19251546 0.0 0.0032088244 0.19909635 0.0 0.0044894926000000005 0.20731916 0.0 0.0065609212 0.21530615 0.0 0.008275438100000001 0.17767601 0.0 -2.0981301e-09 0.17851172 0.0 -0.00048328985999999995 0.18107863 0.0 -0.00063948828 0.18552388 0.0 0.00024302234000000002 0.19114223 0.0 0.0020136698 -0.0037124979 0.0 0.00033769096 -0.0036078053999999997 0.0 0.00042641303 -0.0034489899 0.0 0.00052041118 -0.0032208718 0.0 0.0006188894 -0.0029123479 0.0 0.00071031554 -0.0025211794 0.0 0.00077954982 -0.0020615663 0.0 0.0008060673700000001 -0.0052364813 0.0 0.00045368355000000005 -0.0051016156 0.0 0.00056684599 -0.004886447899999999 0.0 0.0006896542 -0.0045690615999999995 0.0 0.0008089341 -0.0041272142 0.0 0.0009087082000000001 -0.0035467981 0.0 0.0009694640800000001 -0.0028324062 0.0 0.0009727589199999999 -0.0020023461 0.0 0.0010482727999999999 -0.0071675265 0.0 0.00052665221 -0.0069990726000000005 0.0 0.0006498141999999999 -0.006721155699999999 0.0 0.00077931676 -0.0062969509 0.0 0.00090509228 -0.0056968303000000005 0.0 0.0009997075 -0.004894448 0.0 0.0010622385 -0.0039108912 0.0 0.0010796705 -0.0027717522 0.0 0.0011323449 -0.0093353316 0.0 0.00055957754 -0.0091362996 0.0 0.0006839699300000001 -0.008796691899999999 0.0 0.00081621204 -0.0082671642 0.0 0.0009416320800000001 -0.0075039449 0.0 0.0010341948 -0.006478749200000001 0.0 0.0010906578 -0.0052106022 0.0 0.0011031691 -0.0037150672 0.0 0.0011727076 -0.011666441999999999 0.0 0.0005592347000000001 -0.011443642 0.0 0.00068184041 -0.01105237 0.0 0.0008096604700000001 -0.010427276999999999 0.0 0.00093123864 -0.0095135327 0.0 0.0010157347 -0.008266005699999999 0.0 0.0010686963 -0.0066992305 0.0 0.0010848072 -0.0048126462 0.0 0.0012036158 -0.014164612 0.0 0.0005407009200000001 -0.01392751 0.0 0.00065697776 -0.01349673 0.0 0.00077365787 -0.012790532 0.0 0.0008844098199999999 -0.011738076 0.0 0.00095659256 -0.010274931999999999 0.0 0.0010078514 -0.0084016416 0.0 0.001042595 -0.0060883914 0.0 0.0012471364 -0.016885437 0.0 0.0005247491099999999 -0.016644603 0.0 0.0006296056099999999 -0.016185815 0.0 0.0007280732400000001 -0.015410469 0.0 0.00082046085 -0.014227702 0.0 0.00087930879 -0.01255597 0.0 0.00093239127 -0.010370233000000001 0.0 0.0010075374000000001 -0.0075895386 0.0 0.0013421336 -0.019898957 0.0 0.00053627661 -0.019665158999999998 0.0 0.0006262528500000001 -0.019188998 0.0 0.0007036958099999999 -0.018353049 0.0 0.0007764387400000001 -0.017052149 0.0 0.00081503397 -0.015164144 0.0 0.0008897713900000001 -0.012665207 0.0 0.0010244563 -0.0093829334 0.0 0.0015328467999999999 -0.023258248 0.0 0.00060782302 -0.023042079 0.0 0.0006848601 -0.022559594 0.0 0.00074605265 -0.021674693999999998 0.0 0.00079975417 -0.020252456999999998 0.0 0.0008253897500000001 -0.018145027 0.0 0.00092678948 -0.015348161 0.0 0.0011086101 -0.011597214 0.0 0.0017586442 -0.026993614 0.0 0.00077927025 -0.026804484 0.0 0.0008556452199999999 -0.026329542999999997 0.0 0.0009069400300000002 -0.025408702000000002 0.0 0.0009409624599999999 -0.023867067000000002 0.0 0.00095033005 -0.021567244 0.0 0.0010319577 -0.018505597 0.0 0.0012053108 -0.014483289 0.0 0.0017599358999999999 -0.031132609 0.0 0.0010888883 -0.030978907000000003 0.0 0.0011806287 -0.030523604 0.0 0.0012328316 -0.02958546 0.0 0.0012430898 -0.027959689 0.0 0.0012002628 -0.025515825 0.0 0.0011891617999999998 -0.022288451 0.0 0.0012770819 -0.018257719 0.0 0.0015053485 -0.035711151000000003 0.0 0.0015602144 -0.035597593 0.0 0.0016907116000000001 -0.035173021 0.0 0.0017602361 -0.034252442 0.0 0.0017396047 -0.032573827 0.0 0.001677939 -0.030032489 0.0 0.0016265860999999998 -0.02672646 0.0 0.0017584608 -0.022451013 0.0 0.0022481338 -0.040771823 0.0 0.0022090853 -0.040703422999999996 0.0 0.0024019671 -0.040317394 0.0 0.002558955 -0.039445169 0.0 0.0026017174 -0.037804641 0.0 0.0026852730999999998 -0.03523672 0.0 0.0030442271 -0.031834241 0.0 0.0041114511 -0.027327037999999998 0.0 0.005914134000000001 -0.04636715 0.0 0.0030408859999999996 -0.046346492999999996 0.0 0.0033666864 -0.046021665999999996 0.0 0.0036698115999999996 -0.045225799000000004 0.0 0.0039517633 -0.043722592000000005 0.0 0.0043689269 -0.041288737 0.0 0.0053451802 -0.037972267999999997 0.0 0.007132503199999999 -0.03363961 0.0 0.0091387499 -0.052550140999999995 0.0 0.0040594642 -0.05258349 0.0 0.0045579351 -0.05233011 0.0 0.0050736088 -0.051636077 0.0 0.0056729033 -0.050302915 0.0 0.006458181899999999 -0.048139755 0.0 0.0077535556999999995 -0.045116693 0.0 0.0095797768 -0.041136927999999996 0.0 0.011339361000000001 -0.059372764 0.0 0.0052303537 -0.059465159000000004 0.0 0.0059284791 -0.059280585 0.0 0.0066674026 -0.058671522999999996 0.0 0.0075207851 -0.05746986 0.0 0.0085740667 -0.055516685999999996 0.0 0.0099691441 -0.052760098 0.0 0.011630449 -0.049178936 0.0 0.01314915 -0.06688118700000001 0.0 0.0065062995999999994 -0.067032866 0.0 0.0073980903 -0.066902988 0.0 0.0083271973 -0.066352516 0.0 0.0093621025 -0.06519468099999999 0.0 0.010565238999999999 -0.063319057 0.0 0.011962404 -0.060690533 0.0 0.013472903 -0.057336818 0.0 0.01487396 -0.075119652 0.0 0.007829529200000001 -0.07532399099999999 0.0 0.0088919988 -0.075236209 0.0 0.0099905664 -0.0747061 0.0 0.011148789 -0.073526822 0.0 0.012425302 -0.071603239 0.0 0.013807428 -0.0689108 0.0 0.015255488000000001 -0.065494701 0.0 0.016628668 -0.08413294 0.0 0.0091700498 -0.08437933 0.0 0.01038218 -0.08431859300000001 0.0 0.011620263999999998 -0.083788373 0.0 0.01287844 -0.08255177 0.0 0.014202608 -0.080504715 0.0 0.015585798 -0.07760161900000001 0.0 0.017061603999999998 -0.07389538 0.0 0.018458841 -0.09396663300000001 0.0 0.010506494 -0.094240293 0.0 0.011852072 -0.09419293699999999 0.0 0.013212177 -0.09364510300000001 0.0 0.014568293000000001 -0.092336595 0.0 0.015939834 -0.09013301900000001 0.0 0.017349275 -0.086963296 0.0 0.018893983 -0.082873225 0.0 0.02035738 -0.10466593 0.0 0.011815996 -0.10495121 0.0 0.013296337 -0.10490272 0.0 0.014777591000000001 -0.10431969 0.0 0.016242748 -0.10292311 0.0 0.017675391999999998 -0.10053833 0.0 0.019129766 -0.097073331 0.0 0.020759786000000002 -0.09257274900000001 0.0 0.022305578 -0.11627576 0.0 0.013080995 -0.11655737 0.0 0.014709956000000001 -0.11649124 0.0 0.016325273 -0.11585647 0.0 0.017914917 -0.11434845 0.0 0.019435959 -0.11175996 0.0 0.0209508 -0.10797285 0.0 0.022667427 -0.10302768 0.0 0.024310107999999997 -0.12884276 0.0 0.014295056 -0.1291078 0.0 0.016083099 -0.12901019 0.0 0.017847573000000002 -0.12830622 0.0 0.019576158 -0.12666452 0.0 0.021210142999999997 -0.12384515 0.0 0.022818781 -0.11970922 0.0 0.024623614 -0.1142763 0.0 0.026381345 -0.14241825 0.0 0.015475013999999999 -0.14265804 0.0 0.017421123 -0.14251967 0.0 0.019334614 -0.14173289 0.0 0.021204172 -0.13993853 0.0 0.022967219 -0.13686195 0.0 0.024716832 -0.13235119 0.0 0.026637521 -0.12639053 0.0 0.028523736 -0.15705593 0.0 0.016674297 -0.15726726 0.0 0.018761801 -0.15708479 0.0 0.020795129 -0.15621056 0.0 0.022781989 -0.15425722 0.0 0.024661744 -0.1509061 0.0 0.026609617999999998 -0.14600867 0.0 0.028711544 -0.13950039 0.0 0.030757245 -0.17280626 0.0 0.017995121 -0.17298704 0.0 0.020193344 -0.17276546 0.0 0.022296688 -0.17181027 0.0 0.024336426 -0.16971451 0.0 0.026269282999999997 -0.16610189 0.0 0.028454073 -0.16084842 0.0 0.030850738 -0.15384182 0.0 0.033112295 -0.18968783 0.0 0.019577088 -0.18983111 0.0 0.021861592000000003 -0.1895753 0.0 0.023979868999999997 -0.18856734 0.0 0.025961472000000003 -0.1863663 0.0 0.027838724 -0.18256582 0.0 0.030242302000000002 -0.17707093 0.0 0.033080086 -0.16976318 0.0 0.035642426 -0.20761566 0.0 0.0215727 -0.20769599 0.0 0.023965087000000003 -0.20739681 0.0 0.02606483 -0.20636585 0.0 0.027877139 -0.20413458 0.0 0.029537391 -0.20028301 0.0 0.032049969 -0.19478956 0.0 0.035470765 -0.18759581 0.0 0.038431726 -0.22625066 0.0 0.024136374 -0.22620548 0.0 0.026723972000000002 -0.22583063 0.0 0.028819477000000003 -0.22476937 0.0 0.030454308 -0.22258539 0.0 0.031746897999999996 -0.21892262 0.0 0.03415513 -0.21377632 0.0 0.038194242999999996 -0.20731395 0.0 0.041633721 -0.24485278 0.0 0.027251294 -0.24458288 0.0 0.030157717 -0.2440068 0.0 0.032464288 -0.24284449 0.0 0.034026209 -0.24086843 0.0 0.034896206 -0.23760647 0.0 0.037019922999999996 -0.23316231 0.0 0.041608937 -0.2280751 0.0 0.04553597 -0.26229528 0.0 0.030845981 -0.26182395 0.0 0.034068946 -0.26103872 0.0 0.036609098 -0.25976777 0.0 0.038289495 -0.25773284 0.0 0.039358746 -0.2549001 0.0 0.041622002000000005 -0.2515136 0.0 0.046336904000000005 -0.24825791 0.0 0.050658587000000005 -0.27751729 0.0 0.034476138999999996 -0.27691153 0.0 0.038054645 -0.27610031 0.0 0.040955662999999996 -0.2747356 0.0 0.043331228 -0.27286923 0.0 0.045029300999999994 -0.27015254 0.0 0.048637520999999996 -0.26721722 0.0 0.053544689000000006 -0.26557538 0.0 0.05761701599999999 -0.2898441 0.0 0.03782196 -0.28910643 0.0 0.041912485 -0.28834701 0.0 0.04559673400000001 -0.28724939 0.0 0.049207229000000005 -0.28543696 0.0 0.053505156 -0.28268331 0.0 0.059244748 -0.27970824 0.0 0.063840002 -0.27811098 0.0 0.067004569 -0.29864877 0.0 0.041239019 -0.29766494 0.0 0.046384744000000006 -0.29661891 0.0 0.051966517999999996 -0.29499418 0.0 0.059003968 -0.29237741 0.0 0.067966677 -0.28937176 0.0 0.074013919 -0.28609321 0.0 0.077054724 -0.28386167 0.0 0.077833124 -0.30183852 0.0 0.048249165999999996 -0.30044836 0.0 0.055180516 -0.29887322 0.0 0.063458502 -0.29618269 0.0 0.074658781 -0.29219455 0.0 0.08596699699999999 -0.28904057 0.0 0.089084275 -0.28425995 0.0 0.08927939800000001 -0.27727318 0.0 0.08659350099999999 -0.29512113 0.0 0.064116985 -0.29246002 0.0 0.07393179799999999 -0.28942034 0.0 0.08551842 -0.28468287 0.0 0.098095901 -0.27983019 0.0 0.10457188 -0.27718428 0.0 0.10094642 -0.26416349 0.0 0.09934289800000001 -0.23144345 0.0 0.09568204699999999 -0.26239881 0.0 0.096136153 -0.25882638 0.0 0.10720185 -0.25418305 0.0 0.11683176 -0.24835904 0.0 0.12030534 -0.23749742 0.0 0.1176239 -0.2153956 0.0 0.10975323 -0.18369184 0.0 0.10599884 -0.15103689 0.0 0.10240075 -0.17183727 0.0 0.09799531800000001 -0.16815865 0.0 0.10845315 -0.16381726 0.0 0.11836634 -0.1569417 0.0 0.12084731 -0.14549693 0.0 0.11777022 -0.12941431 0.0 0.11264267 -0.10953693 0.0 0.10997685 -0.089600079 0.0 0.1055828 -0.10008871 0.0 0.093415618 -0.09659894599999999 0.0 0.10240674 -0.092863999 0.0 0.11162462 -0.08792705099999999 0.0 0.11668538 -0.080977559 0.0 0.11567817 -0.072065838 0.0 0.11385922 -0.061928686 0.0 0.11244934 -0.05153259599999999 0.0 0.10748614 -0.048366528 0.0 0.088857934 -0.046026885999999996 0.0 0.096903078 -0.043789759000000004 0.0 0.10552241 -0.041340772000000005 0.0 0.11220523 -0.038491502000000004 0.0 0.11431398 -0.03534811 0.0 0.11674853 -0.032177441 0.0 0.11445814 -0.028625015 0.0 0.10934856 -0.0054542515 0.0 0.08571913800000001 -0.004418786599999999 0.0 0.09355398300000001 -0.0037276171999999995 0.0 0.10242604 -0.0034901674 0.0 0.11080042 -0.0039925301 0.0 0.11496119 -0.0054174513 0.0 0.11888437 -0.0073513673 0.0 0.11516592 -0.0089902552 0.0 0.11055651 0.037845515 0.0 0.084331885 0.038105492000000005 0.0 0.09253715 0.037940092 0.0 0.10214853 0.036768321 0.0 0.11261252 0.033749316 0.0 0.1174899 0.028669646 0.0 0.1196842 0.022440735 0.0 0.11488733 0.015932934 0.0 0.11094733 0.084978931 0.0 0.08417232300000001 0.085285902 0.0 0.09294869800000001 0.08523579699999999 0.0 0.10324098 0.08365482099999999 0.0 0.11473902 0.078727901 0.0 0.11870247 0.07055138799999999 0.0 0.11873217 0.060103055 0.0 0.11367592 0.048366558 0.0 0.11030414 0.13438031 0.0 0.084290735 0.1354529 0.0 0.09354821599999999 0.13631819 0.0 0.10422781 0.13506643 0.0 0.11558621 0.12874189 0.0 0.11828218 0.11750628 0.0 0.11656751 0.10282683 0.0 0.11192105 0.085612595 0.0 0.10920961 0.18260022 0.0 0.083763078 0.18481335 0.0 0.093253404 0.18697129 0.0 0.10400995 0.1862894 0.0 0.11466397 0.17880297 0.0 0.11644196 0.16450374 0.0 0.11397228 0.14557263 0.0 0.10991554 0.12328629 0.0 0.10791143 0.22662278 0.0 0.081978962 0.22996986 0.0 0.091417842 0.23334233 0.0 0.10198122 0.23267798 0.0 0.11128614 0.22357245 0.0 0.11286133 0.2071638 0.0 0.11131629 0.18395722 0.0 0.107759 0.15793861 0.0 0.10609638 0.26126477 0.0 0.07876285200000001 0.26644322 0.0 0.08795853 0.27173844 0.0 0.09801171 0.27112347 0.0 0.10552616 0.26019517 0.0 0.10800879 0.24173474 0.0 0.10796618 0.21575907 0.0 0.10564435 0.18790866 0.0 0.10368566 0.27764109 0.0 0.07475598900000001 0.28418216 0.0 0.083835438 0.29164234 0.0 0.09357274300000001 0.29604465 0.0 0.10009633 0.28800946 0.0 0.10196904 0.26794803 0.0 0.10400242 0.24048132 0.0 0.10367848 0.21263728 0.0 0.10138945 0.28277141 0.0 0.070927888 0.29003578 0.0 0.079963088 0.29843166 0.0 0.08941920800000001 0.30586639 0.0 0.096976124 0.30542096 0.0 0.09737143699999999 0.28836 0.0 0.099639997 0.26054358 0.0 0.10126068 0.23334385 0.0 0.098721616 0.2834073 0.0 0.067731909 0.2910679 0.0 0.076483063 0.29991877 0.0 0.08519863300000001 0.30892271 0.0 0.09332458699999999 0.31353936 0.0 0.094687916 0.30436328 0.0 0.094919167 0.27863878 0.0 0.09768707300000001 0.25254002 0.0 0.09493938800000001 0.2823014 0.0 0.06470643 0.29027742 0.0 0.07276901599999999 0.29956442 0.0 0.080987595 0.30934006 0.0 0.088290915 0.31671578 0.0 0.09070929900000001 0.31574699 0.0 0.09000396699999999 0.29540965 0.0 0.092617638 0.27208635 0.0 0.089876242 0.280092 0.0 0.061638440999999995 0.28852874 0.0 0.06946265 0.29831401 0.0 0.076973863 0.30865872 0.0 0.08290965900000001 0.31760183 0.0 0.08495476800000001 0.32187369 0.0 0.084265545 0.31246474 0.0 0.086284809 0.29319778 0.0 0.083770745 0.27709553 0.0 0.058693498 0.28609389 0.0 0.06570469599999999 0.29656392 0.0 0.072005227 0.30770069 0.0 0.076934911 0.31757525 0.0 0.07837611400000001 0.32518473 0.0 0.078352511 0.32894859 0.0 0.07924696099999999 0.31743285 0.0 0.076252759 0.27354607 0.0 0.055251802999999995 0.28325114 0.0 0.061314858 0.29450053 0.0 0.066557035 0.30655426 0.0 0.070433334 0.3172392 0.0 0.071448073 0.32777363 0.0 0.071607798 0.33710235 0.0 0.073441029 0.34031612 0.0 0.072552294 0.26961794 0.0 0.0514367 0.28007174 0.0 0.056108847 0.29235005 0.0 0.060303490999999994 0.30524686 0.0 0.063515611 0.31641939 0.0 0.063769557 0.32812715 0.0 0.064153716 0.34053057 0.0 0.066502012 0.34702805 0.0 0.067061953 0.26551199 0.0 0.046714682 0.2769416 0.0 0.05029681 0.29026303 0.0 0.053611975 0.30349886 0.0 0.055549935 0.31473684 0.0 0.055116627 0.32653189 0.0 0.056430224 0.33992541 0.0 0.059765343 0.26169091 0.0 0.041165069 0.2742531 0.0 0.043993816 0.28827575 0.0 0.046425390999999996 0.30125204 0.0 0.047264497999999995 0.31218171 0.0 0.046952825 0.32423052 0.0 0.05000424 0.33627233 0.0 0.053636339000000005 0.25859466 0.0 0.035332959 0.27208489 0.0 0.037662845 0.28638545 0.0 0.03955669 0.29856136 0.0 0.03964052 0.3092773 0.0 0.04073796 0.3215245 0.0 0.045057590999999994 0.25623107 0.0 0.029704522 0.27027801 0.0 0.031917151 0.2842887 0.0 0.033306945 0.29562804 0.0 0.033518504 0.30681843 0.0 0.036818422 0.31691051 0.0 0.04096365 0.25458285 0.0 0.024984032000000003 0.26904508 0.0 0.02729609 0.2822206 0.0 0.028707873 0.29304141 0.0 0.030346675 0.3034302 0.0 0.034651667000000004 0.25440529 0.0 0.02195264 0.26833454 0.0 0.024137823 0.28065521 0.0 0.026698127000000002 0.28960615 0.0 0.029205937 0.25389054 0.0 0.019843708999999998 0.26602155 0.0 0.022568416 0.27649891 0.0 0.025915466 0.27974325 0.0 0.026636725 0.24989624 0.0 0.017932897 0.25969937 0.0 0.021062996 0.24157079 0.0 0.015840145 
Acec 3 2975 float
0.0 0.0 0.0 0.0 0.0 0.0 0.0 0.0 0.0 0.0 0.0 0.0 0.0 0.0 0.0 0.0 0.0 0.0 0.0 0.0 0.0 0.0 0.0 0.0 0.0 0.0 0.0 0.0 0.0 0.0 0.0 0.0 0.0 0.0 0.0 0.0 0.0 0.0 0.0 0.0 0.0 0.0 0.0 0.0 0.0 0.0 0.0 0.0 0.0 0.0 0.0 0.0 0.0 0.0 0.0 0.0 0.0 0.0 0.0 0.0 0.0 0.0 0.0 0.0 0.0 0.0 0.0 0.0 0.0 0.0 0.0 0.0 0.0 0.0 0.0 0.0 0.0 0.0 0.0 0.0 0.0 0.0 0.0 0.0 0.0 0.0 0.0 0.0 0.0 0.0 0.0 0.0 0.0 0.0 0.0 0.0 0.0 0.0 0.0 0.0 0.0 0.0 0.0 0.0 0.0 0.0 0.0 0.0 0.0 0.0 0.0 0.0 0.0 0.0 0.0 0.0 0.0 0.0 0.0 0.0 0.0 0.0 0.0 0.0 0.0 0.0 0.0 0.0 0.0 0.0 0.0 0.0 0.0 0.0 0.0 0.0 0.0 0.0 0.0 0.0 0.0 0.0 0.0 0.0 0.0 0.0 0.0 0.0 0.0 0.0 0.0 0.0 0.0 0.0 0.0 0.0 0.0 0.0 0.0 0.0 0.0 0.0 0.0 0.0 0.0 0.0 0.0 0.0 0.0 0.0 0.0 0.0 0.0 0.0 0.0 0.0 0.0 0.0 0.0 0.0 0.0 0.0 0.0 0.0 0.0 0.0 0.0 0.0 0.0 0.0 0.0 0.0 0.0 0.0 0.0 0.0 0.0 0.0 0.0 0.0 0.0 0.0 0.0 0.0 0.0 0.0 0.0 0.0 0.0 0.0 0.0 0.0 0.0 0.0 0.0 0.0 0.0 0.0 0.0 0.0 0.0 0.0 0.0 0.0 0.0 0.0 0.0 0.0 0.0 0.0 0.0 0.0 0.0 0.0 0.0 0.0 0.0 0.0 0.0 0.0 0.0 0.0 0.0 0.0 0.0 0.0 0.0 0.0 0.0 0.0 0.0 0.0 0.0 0.0 0.0 0.0 0.0 0.0 0.0 0.0 0.0 0.0 0.0 0.0 0.0 0.0 0.0 0.0 0.0 0.0 0.0 0.0 0.0 0.0 0.0 0.0 0.0 0.0 0.0 0.0 0.0 0.0 0.0 0.0 0.0 0.0 0.0 0.0 0.0 0.0 0.0 0.0 0.0 0.0 0.0 0.0 0.0 0.0 0.0 0.0 0.0 0.0 0.0 0.0 0.0 0.0 0.0 0.0 0.0 0.0 0.0 0.0 0.0 0.0 0.0 0.0 0.0 0.0 0.0 0.0 0.0 0.0 0.0 0.0 0.0 0.0 0.0 0.0 0.0 0.0 0.0 0.0 0.0 0.0 0.0 0.0 0.0 0.0 0.0 0.0 0.0 0.0 0.0 0.0 0.0 0.0 0.0 0.0 0.0 0.0 0.0 0.0 0.0 0.0 0.0 0.0 0.0 0.0 0.0 0.0 0.0 0.0 0.0 0.0 0.0 0.0 0.0 0.0 0.0 0.0 0.0 0.0 0.0 0.0 0.0 0.0 0.0 0.0 0.0 0.0 0.0 0.0 0.0 0.0 0.0 0.0 0.0 0.0 0.0 0.0 0.0 0.0 0.0 0.0 0.0 0.0 0.0 0.0 0.0 0.0 0.0 0.0 0.0 0.0 0.0 0.0 0.0 0.0 0.0 0.0 0.0 0.0 0.0 0.0 0.0 0.0 0.0 0.0 0.0 0.0 0.0 0.0 0.0 0.0 0.0 0.0 0.0 0.0 0.0 0.0 0.0 0.0 0.0 0.0 0.0 0.0 0.0 0.0 0.0 0.0 0.0 0.0 0.0 0.0 0.0 0.0 0.0 0.0 0.0 0.0 0.0 0.0 0.0 0.0 0.0 0.0 0.0 0.0 0.0 0.0 0.0 0.0 0.0 0.0 0.0 0.0 0.0 0.0 0.0 0.0 0.0 0.0 0.0 0.0 0.0 0.0 0.0 0.0 0.0 0.0 0.0 0.0 0.0 0.0 0.0 0.0 0.0 0.0 0.0 0.0 0.0 0.0 0.0 0.0 0.0 0.0 0.0 0.0 0.0 0.0 0.0 0.0 0.0 0.0 0.0 0.0 0.0 0.0 0.0 0.0 0.0 0.0 0.0 0.0 0.0 0.0 0.0 0.0 0.0 0.0 0.0 0.0 0.0 0.0 0.0 0.0 0.0 0.0 0.0 0.0 0.0 0.0 0.0 0.0 0.0 0.0 0.0 0.0 0.0 0.0 0.0 0.0 0.0 0.0 0.0 0.0 0.0 0.0 0.0 0.0 0.0 0.0 0.0 0.0 0.0 0.0 0.0 0.0 0.0 0.0 0.0 0.0 0.0 0.0 0.0 0.0 0.0 0.0 0.0 0.0 0.0 0.0 0.0 0.0 0.0 0.0 0.0 0.0 0.0 0.0 0.0 0.0 0.0 0.0 0.0 0.0 0.0 0.0 0.0 0.0 0.0 0.0 0.0 0.0 0.0 0.0 0.0 0.0 0.0 0.0 0.0 0.0 0.0 0.0 0.0 0.0 0.0 0.0 0.0 0.0 0.0 0.0 0.0 0.0 0.0 0.0 0.0 0.0 0.0 0.0 0.0 0.0 0.0 0.0 0.0 0.0 0.0 0.0 0.0 0.0 0.0 0.0 0.0 0.0 0.0 0.0 0.0 0.0 0.0 0.0 0.0 0.0 0.0 0.0 0.0 0.0 0.0 0.0 0.0 0.0 0.0 0.0 0.0 0.0 0.0 0.0 0.0 0.0 0.0 0.0 0.0 0.0 0.0 0.0 0.0 0.0 0.0 0.0 0.0 0.0 0.0 0.0 0.0 0.0 0.0 0.0 0.0 0.0 0.0 0.0 0.0 0.0 0.0 0.0 0.0 0.0 0.0 0.0 0.0 0.0 0.0 0.0 0.0 0.0 0.0 0.0 0.0 0.0 0.0 0.0 0.0 0.0 0.0 0.0 0.0 0.0 0.0 0.0 0.0 0.0 0.0 0.0 0.0 0.0 0.0 0.0 0.0 0.0 0.0 0.0 0.0 0.0 0.0 0.0 0.0 0.0 0.0 0.0 0.0 0.0 0.0 0.0 0.0 0.0 0.0 0.0 0.0 0.0 0.0 0.0 0.0 0.0 0.0 0.0 0.0 0.0 0.0 0.0 0.0 0.0 0.0 0.0 0.0 0.0 0.0 0.0 0.0 0.0 0.0 0.0 0.0 0.0 0.0 0.0 0.0 0.0 0.0 0.0 0.0 0.0 0.0 0.0 0.0 0.0 0.0 0.0 0.0 0.0 0.0 0.0 0.0 0.0 0.0 0.0 0.0 0.0 0.0 0.0 0.0 0.0 0.0 0.0 0.0 0.0 0.0 0.0 0.0 0.0 0.0 0.0 0.0 0.0 0.0 0.0 0.0 0.0 0.0 0.0 0.0 0.0 0.0 0.0 0.0 0.0 0.0 0.0 0.0 0.0 0.0 0.0 0.0 0.0 0.0 0.0 0.0 0.0 0.0 0.0 0.0 0.0 0.0 0.0 0.0 0.0 0.0 0.0 0.0 0.0 0.0 0.0 0.0 0.0 0.0 0.0 0.0 0.0 0.0 0.0 0.0 0.0 0.0 0.0 0.0 0.0 0.0 0.0 0.0 0.0 0.0 0.0 0.0 0.0 0.0 0.0 0.0 0.0 0.0 0.0 0.0 0.0 0.0 0.0 0.0 0.0 0.0 0.0 0.0 0.0 0.0 0.0 0.0 0.0 0.0 0.0 0.0 0.0 0.0 0.0 0.0 0.0 0.0 0.0 0.0 0.0 0.0 0.0 0.0 0.0 0.0 0.0 0.0 0.0 0.0 0.0 0.0 0.0 0.0 0.0 0.0 0.0 0.0 0.0 0.0 0.0 0.0 0.0 0.0 0.0 0.0 0.0 0.0 0.0 0.0 0.0 0.0 0.0 0.0 0.0 0.0 0.0 0.0 0.0 0.0 0.0 0.0 0.0 0.0 0.0 0.0 0.0 0.0 0.0 0.0 0.0 0.0 0.0 0.0 0.0 0.0 0.0 0.0 0.0 0.0 0.0 0.0 0.0 0.0 0.0 0.0 0.0 0.0 0.0 0.0 0.0 0.0 0.0 0.0 0.0 0.0 0.0 0.0 0.0 0.0 0.0 0.0 0.0 0.0 0.0 0.0 0.0 0.0 0.0 0.0 0.0 0.0 0.0 0.0 0.0 0.0 0.0 0.0 0.0 0.0 0.0 0.0 0.0 0.0 0.0 0.0 0.0 0.0 0.0 0.0 0.0 0.0 0.0 0.0 0.0 0.0 0.0 0.0 0.0 0.0 0.0 0.0 0.0 0.0 0.0 0.0 0.0 0.0 0.0 0.0 0.0 0.0 0.0 0.0 0.0 0.0 0.0 0.0 0.0 0.0 0.0 0.0 0.0 0.0 0.0 0.0 0.0 0.0 0.0 0.0 0.0 0.0 0.0 0.0 0.0 0.0 0.0 0.0 0.0 0.0 0.0 0.0 0.0 0.0 0.0 0.0 0.0 0.0 0.0 0.0 0.0 0.0 0.0 0.0 0.0 0.0 0.0 0.0 0.0 0.0 0.0 0.0 0.0 0.0 0.0 0.0 0.0 0.0 0.0 0.0 0.0 0.0 0.0 0.0 0.0 0.0 0.0 0.0 0.0 0.0 0.0 0.0 0.0 0.0 0.0 0.0 0.0 0.0 0.0 0.0 0.0 0.0 0.0 0.0 0.0 0.0 0.0 0.0 0.0 0.0 0.0 0.0 0.0 0.0 0.0 0.0 0.0 0.0 0.0 0.0 0.0 0.0 0.0 0.0 0.0 0.0 0.0 0.0 0.0 0.0 0.0 0.0 0.0 0.0 0.0 0.0 0.0 0.0 0.0 0.0 0.0 0.0 0.0 0.0 0.0 0.0 0.0 0.0 0.0 0.0 0.0 0.0 0.0 0.0 0.0 0.0 0.0 0.0 0.0 0.0 0.0 0.0 0.0 0.0 0.0 0.0 0.0 0.0 0.0 0.0 0.0 0.0 0.0 0.0 0.0 0.0 0.0 0.0 0.0 0.0 0.0 0.0 0.0 0.0 0.0 0.0 0.0 0.0 0.0 0.0 0.0 0.0 0.0 0.0 0.0 0.0 0.0 0.0 0.0 0.0 0.0 0.0 0.0 0.0 0.0 0.0 0.0 0.0 0.0 0.0 0.0 0.0 0.0 0.0 0.0 0.0 0.0 0.0 0.0 0.0 0.0 0.0 0.0 0.0 0.0 0.0 0.0 0.0 0.0 0.0 0.0 0.0 0.0 0.0 0.0 0.0 0.0 0.0 0.0 0.0 0.0 0.0 0.0 0.0 0.0 0.0 0.0 0.0 0.0 0.0 0.0 0.0 0.0 0.0 0.0 0.0 0.0 0.0 0.0 0.0 0.0 0.0 0.0 0.0 0.0 0.0 0.0 0.0 0.0 0.0 0.0 0.0 0.0 0.0 0.0 0.0 0.0 0.0 0.0 0.0 0.0 0.0 0.0 0.0 0.0 0.0 0.0 0.0 0.0 0.0 0.0 0.0 0.0 0.0 0.0 0.0 0.0 0.0 0.0 0.0 0.0 0.0 0.0 0.0 0.0 0.0 0.0 0.0 0.0 0.0 0.0 0.0 0.0 0.0 0.0 0.0 0.0 0.0 0.0 0.0 0.0 0.0 0.0 0.0 0.0 0.0 0.0 0.0 0.0 0.0 0.0 0.0 0.0 0.0 0.0 0.0 0.0 0.0 0.0 0.0 0.0 0.0 0.0 0.0 0.0 0.0 0.0 0.0 0.0 0.0 0.0 0.0 0.0 0.0 0.0 0.0 0.0 0.0 0.0 0.0 0.0 0.0 0.0 0.0 0.0 0.0 0.0 0.0 0.0 0.0 0.0 0.0 0.0 0.0 0.0 0.0 0.0 0.0 0.0 0.0 0.0 0.0 0.0 0.0 0.0 0.0 0.0 0.0 0.0 0.0 0.0 0.0 0.0 0.0 0.0 0.0 0.0 0.0 0.0 0.0 0.0 0.0 0.0 0.0 0.0 0.0 0.0 0.0 0.0 0.0 0.0 0.0 0.0 0.0 0.0 0.0 0.0 0.0 0.0 0.0 0.0 0.0 0.0 0.0 0.0 0.0 0.0 0.0 0.0 0.0 0.0 0.0 0.0 0.0 0.0 0.0 0.0 0.0 0.0 0.0 0.0 0.0 0.0 0.0 0.0 0.0 0.0 0.0 0.0 0.0 0.0 0.0 0.0 0.0 0.0 0.0 0.0 0.0 0.0 0.0 0.0 0.0 0.0 0.0 0.0 0.0 0.0 0.0 0.0 0.0 0.0 0.0 0.0 0.0 0.0 0.0 0.0 0.0 0.0 0.0 0.0 0.0 0.0 0.0 0.0 0.0 0.0 0.0 0.0 0.0 0.0 0.0 0.0 0.0 0.0 0.0 0.0 0.0 0.0 0.0 0.0 0.0 0.0 0.0 0.0 0.0 0.0 0.0 0.0 0.0 0.0 0.0 0.0 0.0 0.0 0.0 0.0 0.0 0.0 0.0 0.0 0.0 0.0 0.0 0.0 0.0 0.0 0.0 0.0 0.0 0.0 0.0 0.0 0.0 0.0 0.0 0.0 0.0 0.0 0.0 0.0 0.0 0.0 0.0 0.0 0.0 0.0 0.0 0.0 0.0 0.0 0.0 0.0 0.0 0.0 0.0 0.0 0.0 0.0 0.0 0.0 0.0 0.0 0.0 0.0 0.0 0.0 0.0 0.0 0.0 0.0 0.0 0.0 0.0 0.0 0.0 0.0 0.0 0.0 0.0 0.0 0.0 0.0 0.0 0.0 0.0 0.0 0.0 0.0 0.0 0.0 0.0 0.0 0.0 0.0 0.0 0.0 0.0 0.0 0.0 0.0 0.0 0.0 0.0 0.0 0.0 0.0 0.0 0.0 0.0 0.0 0.0 0.0 0.0 0.0 0.0 0.0 0.0 0.0 0.0 0.0 0.0 0.0 0.0 0.0 0.0 0.0 0.0 0.0 0.0 0.0 0.0 0.0 0.0 0.0 0.0 0.0 0.0 0.0 0.0 0.0 0.0 0.0 0.0 0.0 0.0 0.0 0.0 0.0 0.0 0.0 0.0 0.0 0.0 0.0 0.0 0.0 0.0 0.0 0.0 0.0 0.0 0.0 0.0 0.0 0.0 0.0 0.0 0.0 0.0 0.0 0.0 0.0 0.0 0.0 0.0 0.0 0.0 0.0 0.0 0.0 0.0 0.0 0.0 0.0 0.0 0.0 0.0 0.0 0.0 0.0 0.0 0.0 0.0 0.0 0.0 0.0 0.0 0.0 0.0 0.0 0.0 0.0 0.0 0.0 0.0 0.0 0.0 0.0 0.0 0.0 0.0 0.0 0.0 0.0 0.0 0.0 0.0 0.0 0.0 0.0 0.0 0.0 0.0 0.0 0.0 0.0 0.0 0.0 0.0 0.0 0.0 0.0 0.0 0.0 0.0 0.0 0.0 0.0 0.0 0.0 0.0 0.0 0.0 0.0 0.0 0.0 0.0 0.0 0.0 0.0 0.0 0.0 0.0 0.0 0.0 0.0 0.0 0.0 0.0 0.0 0.0 0.0 0.0 0.0 0.0 0.0 0.0 0.0 0.0 0.0 0.0 0.0 0.0 0.0 0.0 0.0 0.0 0.0 0.0 0.0 0.0 0.0 0.0 0.0 0.0 0.0 0.0 0.0 0.0 0.0 0.0 0.0 0.0 0.0 0.0 0.0 0.0 0.0 0.0 0.0 0.0 0.0 0.0 0.0 0.0 0.0 0.0 0.0 0.0 0.0 0.0 0.0 0.0 0.0 0.0 0.0 0.0 0.0 0.0 0.0 0.0 0.0 0.0 0.0 0.0 0.0 0.0 0.0 0.0 0.0 0.0 0.0 0.0 0.0 0.0 0.0 0.0 0.0 0.0 0.0 0.0 0.0 0.0 0.0 0.0 0.0 0.0 0.0 0.0 0.0 0.0 0.0 0.0 0.0 0.0 0.0 0.0 0.0 0.0 0.0 0.0 0.0 0.0 0.0 0.0 0.0 0.0 0.0 0.0 0.0 0.0 0.0 0.0 0.0 0.0 0.0 0.0 0.0 0.0 0.0 0.0 0.0 0.0 0.0 0.0 0.0 0.0 0.0 0.0 0.0 0.0 0.0 0.0 0.0 0.0 0.0 0.0 0.0 0.0 0.0 0.0 0.0 0.0 0.0 0.0 0.0 0.0 0.0 0.0 0.0 0.0 0.0 0.0 0.0 0.0 0.0 0.0 0.0 0.0 0.0 0.0 0.0 0.0 0.0 0.0 0.0 0.0 0.0 0.0 0.0 0.0 0.0 0.0 0.0 0.0 0.0 0.0 0.0 0.0 0.0 0.0 0.0 0.0 0.0 0.0 0.0 0.0 0.0 0.0 0.0 0.0 0.0 0.0 0.0 0.0 0.0 0.0 0.0 0.0 0.0 0.0 0.0 0.0 0.0 0.0 0.0 0.0 0.0 0.0 0.0 0.0 0.0 0.0 0.0 0.0 0.0 0.0 0.0 0.0 0.0 0.0 0.0 0.0 0.0 0.0 0.0 0.0 0.0 0.0 0.0 0.0 0.0 0.0 0.0 0.0 0.0 0.0 0.0 0.0 0.0 0.0 0.0 0.0 0.0 0.0 0.0 0.0 0.0 0.0 0.0 0.0 0.0 0.0 0.0 0.0 0.0 0.0 0.0 0.0 0.0 0.0 0.0 0.0 0.0 0.0 0.0 0.0 0.0 0.0 0.0 0.0 0.0 0.0 0.0 0.0 0.0 0.0 0.0 0.0 0.0 0.0 0.0 0.0 0.0 0.0 0.0 0.0 0.0 0.0 0.0 0.0 0.0 0.0 0.0 0.0 0.0 0.0 0.0 0.0 0.0 0.0 0.0 0.0 0.0 0.0 0.0 0.0 0.0 0.0 0.0 0.0 0.0 0.0 0.0 0.0 0.0 0.0 0.0 0.0 0.0 0.0 0.0 0.0 0.0 0.0 0.0 0.0 0.0 0.0 0.0 0.0 0.0 0.0 0.0 0.0 0.0 0.0 0.0 0.0 0.0 0.0 0.0 0.0 0.0 0.0 0.0 0.0 0.0 0.0 0.0 0.0 0.0 0.0 0.0 0.0 0.0 0.0 0.0 0.0 0.0 0.0 0.0 0.0 0.0 0.0 0.0 0.0 0.0 0.0 0.0 0.0 0.0 0.0 0.0 0.0 0.0 0.0 0.0 0.0 0.0 0.0 0.0 0.0 0.0 0.0 0.0 0.0 0.0 0.0 0.0 0.0 0.0 0.0 0.0 0.0 0.0 0.0 0.0 0.0 0.0 0.0 0.0 0.0 0.0 0.0 0.0 0.0 0.0 0.0 0.0 0.0 0.0 0.0 0.0 0.0 0.0 0.0 0.0 0.0 0.0 0.0 0.0 0.0 0.0 0.0 0.0 0.0 0.0 0.0 0.0 0.0 0.0 0.0 0.0 0.0 0.0 0.0 0.0 0.0 0.0 0.0 0.0 0.0 0.0 0.0 0.0 0.0 0.0 0.0 0.0 0.0 0.0 0.0 0.0 0.0 0.0 0.0 0.0 0.0 0.0 0.0 0.0 0.0 0.0 0.0 0.0 0.0 0.0 0.0 0.0 0.0 0.0 0.0 0.0 0.0 0.0 0.0 0.0 0.0 0.0 0.0 0.0 0.0 0.0 0.0 0.0 0.0 0.0 0.0 0.0 0.0 0.0 0.0 0.0 0.0 0.0 0.0 0.0 0.0 0.0 0.0 0.0 0.0 0.0 0.0 0.0 0.0 0.0 0.0 0.0 0.0 0.0 0.0 0.0 0.0 0.0 0.0 0.0 0.0 0.0 0.0 0.0 0.0 0.0 0.0 0.0 0.0 0.0 0.0 0.0 0.0 0.0 0.0 0.0 0.0 0.0 0.0 0.0 0.0 0.0 0.0 0.0 0.0 0.0 0.0 0.0 0.0 0.0 0.0 0.0 0.0 0.0 0.0 0.0 0.0 0.0 0.0 0.0 0.0 0.0 0.0 0.0 0.0 0.0 0.0 0.0 0.0 0.0 0.0 0.0 0.0 0.0 0.0 0.0 0.0 0.0 0.0 0.0 0.0 0.0 0.0 0.0 0.0 0.0 0.0 0.0 0.0 0.0 0.0 0.0 0.0 0.0 0.0 0.0 0.0 0.0 0.0 0.0 0.0 0.0 0.0 0.0 0.0 0.0 0.0 0.0 0.0 0.0 0.0 0.0 0.0 0.0 0.0 0.0 0.0 0.0 0.0 0.0 0.0 0.0 0.0 0.0 0.0 0.0 0.0 0.0 0.0 0.0 0.0 0.0 0.0 0.0 0.0 0.0 0.0 0.0 0.0 0.0 0.0 0.0 0.0 0.0 0.0 0.0 0.0 0.0 0.0 0.0 0.0 0.0 0.0 0.0 0.0 0.0 0.0 0.0 0.0 0.0 0.0 0.0 0.0 0.0 0.0 0.0 0.0 0.0 0.0 0.0 0.0 0.0 0.0 0.0 0.0 0.0 0.0 0.0 0.0 0.0 0.0 0.0 0.0 0.0 0.0 0.0 0.0 0.0 0.0 0.0 0.0 0.0 0.0 0.0 0.0 0.0 0.0 0.0 0.0 0.0 0.0 0.0 0.0 0.0 0.0 0.0 0.0 0.0 0.0 0.0 0.0 0.0 0.0 0.0 0.0 0.0 0.0 0.0 0.0 0.0 0.0 0.0 0.0 0.0 0.0 0.0 0.0 0.0 0.0 0.0 0.0 0.0 0.0 0.0 0.0 0.0 0.0 0.0 0.0 0.0 0.0 0.0 0.0 0.0 0.0 0.0 0.0 0.0 0.0 0.0 0.0 0.0 0.0 0.0 0.0 0.0 0.0 0.0 0.0 0.0 0.0 0.0 0.0 0.0 0.0 0.0 0.0 0.0 0.0 0.0 0.0 0.0 0.0 0.0 0.0 0.0 0.0 0.0 0.0 0.0 0.0 0.0 0.0 0.0 0.0 0.0 0.0 0.0 0.0 0.0 0.0 0.0 0.0 0.0 0.0 0.0 0.0 0.0 0.0 0.0 0.0 0.0 0.0 0.0 0.0 0.0 0.0 0.0 0.0 0.0 0.0 0.0 0.0 0.0 0.0 0.0 0.0 0.0 0.0 0.0 0.0 0.0 0.0 0.0 0.0 0.0 0.0 0.0 0.0 0.0 0.0 0.0 0.0 0.0 0.0 0.0 0.0 0.0 0.0 0.0 0.0 0.0 0.0 0.0 0.0 0.0 0.0 0.0 0.0 0.0 0.0 0.0 0.0 0.0 0.0 0.0 0.0 0.0 0.0 0.0 0.0 0.0 0.0 0.0 0.0 0.0 0.0 0.0 0.0 0.0 0.0 0.0 0.0 0.0 0.0 0.0 0.0 0.0 0.0 0.0 0.0 0.0 0.0 0.0 0.0 0.0 0.0 0.0 0.0 0.0 0.0 0.0 0.0 0.0 0.0 0.0 0.0 0.0 0.0 0.0 0.0 0.0 0.0 0.0 0.0 0.0 0.0 0.0 0.0 0.0 0.0 0.0 0.0 0.0 0.0 0.0 0.0 0.0 0.0 0.0 0.0 0.0 0.0 0.0 0.0 0.0 0.0 0.0 0.0 0.0 0.0 0.0 0.0 0.0 0.0 0.0 0.0 0.0 0.0 0.0 0.0 0.0 0.0 0.0 0.0 0.0 0.0 0.0 0.0 0.0 0.0 0.0 0.0 0.0 0.0 0.0 0.0 0.0 0.0 0.0 0.0 0.0 0.0 0.0 0.0 0.0 0.0 0.0 0.0 0.0 0.0 0.0 0.0 0.0 0.0 0.0 0.0 0.0 0.0 0.0 0.0 0.0 0.0 0.0 0.0 0.0 0.0 0.0 0.0 0.0 0.0 0.0 0.0 0.0 0.0 0.0 0.0 0.0 0.0 0.0 0.0 0.0 0.0 0.0 0.0 0.0 0.0 0.0 0.0 0.0 0.0 0.0 0.0 0.0 0.0 0.0 0.0 0.0 0.0 0.0 0.0 0.0 0.0 0.0 0.0 0.0 0.0 0.0 0.0 0.0 0.0 0.0 0.0 0.0 0.0 0.0 0.0 0.0 0.0 0.0 0.0 0.0 0.0 0.0 0.0 0.0 0.0 0.0 0.0 0.0 0.0 0.0 0.0 0.0 0.0 0.0 0.0 0.0 0.0 0.0 0.0 0.0 0.0 0.0 0.0 0.0 0.0 0.0 0.0 0.0 0.0 0.0 0.0 0.0 0.0 0.0 0.0 0.0 0.0 0.0 0.0 0.0 0.0 0.0 0.0 0.0 0.0 0.0 0.0 0.0 0.0 0.0 0.0 0.0 0.0 0.0 0.0 0.0 0.0 0.0 0.0 0.0 0.0 0.0 0.0 0.0 0.0 0.0 0.0 0.0 0.0 0.0 0.0 0.0 0.0 0.0 0.0 0.0 0.0 0.0 0.0 0.0 0.0 0.0 0.0 0.0 0.0 0.0 0.0 0.0 0.0 0.0 0.0 0.0 0.0 0.0 0.0 0.0 0.0 0.0 0.0 0.0 0.0 0.0 0.0 0.0 0.0 0.0 0.0 0.0 0.0 0.0 0.0 0.0 0.0 0.0 0.0 0.0 0.0 0.0 0.0 0.0 0.0 0.0 0.0 0.0 0.0 0.0 0.0 0.0 0.0 0.0 0.0 0.0 0.0 0.0 0.0 0.0 0.0 0.0 0.0 0.0 0.0 0.0 0.0 0.0 0.0 0.0 0.0 0.0 0.0 0.0 0.0 0.0 0.0 0.0 0.0 0.0 0.0 0.0 0.0 0.0 0.0 0.0 0.0 0.0 0.0 0.0 0.0 0.0 0.0 0.0 0.0 0.0 0.0 0.0 0.0 0.0 0.0 0.0 0.0 0.0 0.0 0.0 0.0 0.0 0.0 0.0 0.0 0.0 0.0 0.0 0.0 0.0 0.0 0.0 0.0 0.0 0.0 0.0 0.0 0.0 0.0 0.0 0.0 0.0 0.0 0.0 0.0 0.0 0.0 0.0 0.0 0.0 0.0 0.0 0.0 0.0 0.0 0.0 0.0 0.0 0.0 0.0 0.0 0.0 0.0 0.0 0.0 0.0 0.0 0.0 0.0 0.0 0.0 0.0 0.0 0.0 0.0 0.0 0.0 0.0 0.0 0.0 0.0 0.0 0.0 0.0 0.0 0.0 0.0 0.0 0.0 0.0 0.0 0.0 0.0 0.0 0.0 0.0 0.0 0.0 0.0 0.0 0.0 0.0 0.0 0.0 0.0 0.0 0.0 0.0 0.0 0.0 0.0 0.0 0.0 0.0 0.0 0.0 0.0 0.0 0.0 0.0 0.0 0.0 0.0 0.0 0.0 0.0 0.0 -1.4732598999999997 0.0 -0.58551621 -1.7220773999999999 0.0 -0.54231882 -1.9289942 0.0 -0.48246706 -2.0989532000000004 0.0 -0.41733992 -2.2333984 0.0 -0.3545922 -1.4119758999999998 0.0 -0.75520182 -1.8580012 0.0 -0.64739227 -2.1882076 0.0 -0.60922933 -2.4409389 0.0 -0.55349672 -2.641573 0.0 -0.48836827 -2.8005085 0.0 -0.42168868 -1.8473387 0.0 -0.76568842 -2.383543 0.0 -0.66122866 -2.7648196 0.0 -0.60591435 -3.0542755 0.0 -0.54936874 -3.2825975 0.0 -0.49382424 -3.4675732000000004 0.0 -0.43239161 -2.3748278999999997 0.0 -0.74771309 -3.0047555 0.0 -0.62532949 -3.4229355000000004 0.0 -0.57145286 -3.7342939 0.0 -0.52144432 -3.9860038999999996 0.0 -0.4744767 -4.1947885000000005 0.0 -0.42175376 -2.9888391 0.0 -0.72897243 -3.7185745000000003 0.0 -0.57388783 -4.1722021 0.0 -0.52071047 -4.502593 0.0 -0.47805786 -4.7718925 0.0 -0.44232208 -5.0030269999999994 0.0 -0.39892927 -3.7063498 0.0 -0.72302437 -4.5459318 0.0 -0.51585102 -5.0328636 0.0 -0.45809317 -5.3778253 0.0 -0.42341614 -5.662963400000001 0.0 -0.40051651 -5.912246700000001 0.0 -0.36971608 -4.5471544 0.0 -0.75635624 -5.5054317 0.0 -0.46760654 -6.0178475 0.0 -0.39293528 -6.3678246 0.0 -0.36510015 -6.665087700000001 0.0 -0.35427308 -6.929203500000001 0.0 -0.33884957 -5.5369949 0.0 -0.85631466 -6.6082673 0.0 -0.45366192 -7.127642599999999 0.0 -0.34832907 -7.475471499999999 0.0 -0.31732893 -7.7743988 0.0 -0.31817842 -8.048981699999999 0.0 -0.31786305 -6.742549900000001 0.0 -0.97417831 -7.865703599999999 0.0 -0.47877312 -8.355155 0.0 -0.34833002 -8.691596 0.0 -0.30317116 -8.986409199999999 0.0 -0.31585014 -9.266865699999999 0.0 -0.32600188 -8.3180885 0.0 -0.92143631 -9.308350599999999 0.0 -0.50518036 -9.7166224 0.0 -0.3834486 -10.015871 0.0 -0.33857059 -10.29807 0.0 -0.36401141 -10.578073 0.0 -0.38706559 -10.387772 0.0 -0.68090057 -11.006852 0.0 -0.50721931 -11.247753 0.0 -0.43181515 -11.458037 0.0 -0.4355979 -11.708467 0.0 -0.47681093 -11.976004 0.0 -0.51933432 -12.615589 0.0 -1.0158367 -12.952110000000001 0.0 -0.71936417 -12.946553999999999 0.0 -0.60881519 -13.017339999999999 0.0 -0.63491106 -13.218523999999999 0.0 -0.6709038 -13.457782 0.0 -0.72989988 -15.019105999999999 0.0 -2.9872456 -15.079013 0.0 -1.8961887 -14.834869 0.0 -1.2277889 -14.722853 0.0 -1.0523391000000002 -14.821531 0.0 -1.0231613000000002 -15.025117999999999 0.0 -1.0680653999999998 -18.046207 0.0 -4.5824051 -17.563992000000002 0.0 -3.2740544999999996 -16.924379000000002 0.0 -2.2566895000000002 -16.56918 0.0 -1.7496564 -16.522285 0.0 -1.5704613 -16.686139999999998 0.0 -1.503116 -21.547703 0.0 -5.605403400000001 -20.379631 0.0 -4.2802315 -19.219208 0.0 -3.2364986 -18.520014 0.0 -2.5891819 -18.314251000000002 0.0 -2.2488818 -18.430815 0.0 -2.0678489 -25.197124 0.0 -6.4051733 -23.232398999999997 0.0 -5.090890900000001 -21.543844 0.0 -4.0675554 -20.528986 0.0 -3.3725443 -20.180189000000002 0.0 -2.946703 -20.260435 0.0 -2.6713668999999998 -28.72397 0.0 -7.1555195000000005 -26.03673 0.0 -5.7963824 -23.858763 0.0 -4.7787623 -22.564007 0.0 -4.053289899999999 -22.099167 0.0 -3.5907457000000003 -22.159952 0.0 -3.2565281 -32.072414 0.0 -7.8705754 -28.7883 0.0 -6.4376602 -26.174025 0.0 -5.3878932 -24.631538 0.0 -4.6388574 -24.070786 0.0 -4.152599299999999 -24.125301 0.0 -3.7912529000000004 -35.349315999999995 0.0 -8.576696400000001 -31.549831 0.0 -7.033587 -28.529158000000002 0.0 -5.9208655 -26.745366999999998 0.0 -5.135838 -26.094959 0.0 -4.6342421 -26.14609 0.0 -4.2668152 -38.715324 0.0 -9.246829 -34.387402 0.0 -7.5925136 -30.947899 0.0 -6.384732700000001 -28.904991 0.0 -5.5569687000000005 -28.164759000000004 0.0 -5.0357885 -28.21487 0.0 -4.676040599999999 -42.214382 0.0 -9.855875 -37.311962 0.0 -8.087221099999999 -33.426903 0.0 -6.7711515 -31.119490000000003 0.0 -5.8783636 -30.270590000000002 0.0 -5.3566394 -30.332125 0.0 -4.9896984 -45.839073 0.0 -10.371402 -40.311501 0.0 -8.4988222 -35.952599 0.0 -7.069547200000001 -33.357203999999996 0.0 -6.133657 -32.401649 0.0 -5.589349299999999 -32.476074 0.0 -5.208912799999999 -49.556881 0.0 -10.805905000000001 -43.372741999999995 0.0 -8.8038673 -38.504921 0.0 -7.274827 -35.609615000000005 0.0 -6.285696 -34.545925 0.0 -5.719317 -34.63715 0.0 -5.324949299999999 -53.366814 0.0 -11.12474 -46.48539 0.0 -8.9784031 -41.07547 0.0 -7.349897900000001 -37.864792 0.0 -6.303831099999999 -36.689087 0.0 -5.7138542999999995 -36.806145 0.0 -5.3154678 -57.283046999999996 0.0 -11.304623 -49.649891 0.0 -8.9861851 -43.659565 0.0 -7.2537354999999994 -40.116821 0.0 -6.144825 -38.823715 0.0 -5.5371175 -38.971934999999995 0.0 -5.1352425 -61.356972 0.0 -11.324205000000001 -52.887688 0.0 -8.789286599999999 -46.263569 0.0 -6.936884399999999 -42.370567 0.0 -5.7515373 -40.946438 0.0 -5.1444235 -41.135487 0.0 -4.773492299999999 -65.686684 0.0 -11.173019 -56.237545 0.0 -8.3505163 -48.903332 0.0 -6.3424544 -44.615448 0.0 -5.0805006 -43.049198 0.0 -4.493921299999999 -43.274456 0.0 -4.159564 -70.371346 0.0 -10.841108 -59.72856899999999 0.0 -7.6370397 -51.585029999999996 0.0 -5.4205464999999995 -46.853024 0.0 -4.0903453999999995 -45.135483 0.0 -3.5245967000000005 -45.379065999999995 0.0 -3.2836548999999997 -75.417419 0.0 -10.319348 -63.321957 0.0 -6.6361375 -54.253437 0.0 -4.2026529 -49.026489 0.0 -2.8007567000000004 -47.140251 0.0 -2.2585623 -47.391178000000004 0.0 -2.1512728 -80.572891 0.0 -9.617775 -66.863213 0.0 -5.3709221 -56.78448100000001 0.0 -2.6129117 -51.014759000000005 0.0 -1.1792638 -48.867561 0.0 -0.83828902 -49.16785 0.0 -0.80587333 -85.51918 0.0 -8.952289599999999 -70.068649 0.0 -3.9389997 -58.982452 0.0 -0.67432308 -52.590984 0.0 0.59274805 -50.262980999999996 0.0 0.94742543 -50.576912 0.0 0.8357982 -89.49477399999999 0.0 -8.306663499999999 -72.80471 0.0 -2.2437424999999998 -60.708752000000004 0.0 1.1085576000000001 -53.819485 0.0 2.634572 -51.319527 0.0 3.054076 -51.668503 0.0 2.9071946 -92.592331 0.0 -8.2512255 -74.93495899999999 0.0 -0.57667035 -62.098629 0.0 2.7778339 -54.74745600000001 0.0 4.763970400000001 -52.101318 0.0 5.2888345999999995 -52.349945 0.0 5.3016071 -93.246605 0.0 -8.5624905 -75.729424 0.0 0.83981007 -62.396038 0.0 4.009727 -54.971771 0.0 6.271195400000001 -52.237384999999996 0.0 7.3620224 -52.68571899999999 0.0 7.660443300000001 -89.33171800000001 0.0 -9.4492378 -74.148682 0.0 2.1793823 -61.075905000000006 0.0 5.2168012 -53.847603 0.0 7.8215466000000005 -51.566124 0.0 8.833044099999999 -52.367771000000005 0.0 9.718523 -69.188942 0.0 -9.5782137 -65.393898 0.0 3.8119370999999997 -56.994659 0.0 6.6081767000000005 -50.422951 0.0 9.9062996 -48.314857 0.0 9.755541800000001 -50.182536999999996 0.0 10.357766999999999 -41.273254 0.0 -10.178121 -40.635963000000004 0.0 4.3824868 -40.822357000000004 0.0 9.2765474 -40.927429 0.0 12.647372 -40.797939 0.0 12.731619 -42.533772 0.0 10.678098 -23.359564000000002 0.0 -10.950513 -22.758163 0.0 7.5183082 -22.706903 0.0 10.186531 -22.876823 0.0 14.442785999999998 -24.107756 0.0 14.592364000000002 -26.169017999999998 0.0 12.304597 -14.994207999999999 0.0 -10.963023 -14.351976 0.0 12.786432000000001 -13.820992000000002 0.0 10.942196000000001 -13.646123999999999 0.0 15.147982 -14.216220999999999 0.0 15.60488 -15.456841 0.0 15.661365 -11.580149 0.0 -11.298409 -10.841553 0.0 14.998965 -10.086111 0.0 11.024816 -9.618718099999999 0.0 15.879682999999998 -9.533845900000001 0.0 17.362679999999997 -9.8490448 0.0 18.691847 -7.6566033 0.0 -11.479433 -7.1037803 0.0 15.99833 -6.4856910999999995 0.0 11.848611 -5.9314647 0.0 16.041207999999997 -5.4923701 0.0 18.073738 -5.1958599 0.0 19.661713 -0.10370353 0.0 -11.580386 0.023177147000000002 0.0 16.062548 0.19959703 0.0 12.994267 0.47789499 0.0 15.589123 0.87276089 0.0 17.046564 1.3717266000000001 0.0 18.801199 11.213652 0.0 -11.529349 10.820969 0.0 15.237803 10.425508 0.0 13.470435 10.055228 0.0 15.459809 10.206407 0.0 15.283441 10.531203 0.0 16.81815 24.630132999999997 0.0 -11.600336 23.632927 0.0 13.772275 22.477552 0.0 13.230167000000002 21.643621 0.0 15.118382 21.381242999999998 0.0 13.505641 21.385225 0.0 14.325963 38.356097999999996 0.0 -12.202828 36.561069 0.0 11.81679 34.669773 0.0 12.052408999999999 33.486832 0.0 14.195568 32.863815 0.0 11.920766 32.69659 0.0 11.761909 51.022724 0.0 -12.723445 48.706928000000005 0.0 8.760025 46.001507000000004 0.0 10.344049 43.973434000000005 0.0 12.815516 43.672119 0.0 10.413421000000001 43.633717 0.0 9.4689207 62.236259 0.0 -12.530465 59.145065 0.0 5.8485135999999995 55.128735 0.0 7.945825099999999 53.364596999999996 0.0 10.422544 53.361229 0.0 9.0600748 53.824321999999995 0.0 7.616477499999999 72.964157 0.0 -12.850265 68.12818100000001 0.0 2.5615210999999998 63.076885 0.0 4.938431700000001 61.67063100000001 0.0 8.1077595 62.332545999999994 0.0 7.263936500000001 62.992474 0.0 5.7910304 83.281296 0.0 -13.235249 76.647774 0.0 -0.49879438 70.599701 0.0 1.8753049 69.33515899999999 0.0 5.605290900000001 69.326561 0.0 4.0085149 68.504951 0.0 3.6151628 93.47229 0.0 -13.954949 85.038338 0.0 -2.9741066000000003 77.89407299999999 0.0 -0.44223413 75.507797 0.0 2.0625966 72.87606 0.0 0.45577452 70.61084699999999 0.0 1.4169112 103.78968 0.0 -14.673411999999999 93.414024 0.0 -4.8175049 85.641777 0.0 -3.0675022999999997 79.135765 0.0 -1.8542208999999998 74.462036 0.0 -1.7428414 71.702484 0.0 -0.22245461 114.94949 0.0 -15.756673999999999 102.22975 0.0 -5.9854107 91.34612299999999 0.0 -5.946587999999999 81.554581 0.0 -4.2081413 75.443146 0.0 -3.229238 72.32511099999999 0.0 -1.6952971000000001 126.69585 0.0 -16.619938 111.33039 0.0 -8.1593838 95.322388 0.0 -8.0296469 83.348984 0.0 -5.3465991 76.4888 0.0 -4.1276956 73.044777 0.0 -2.6796622 140.24324 0.0 -17.480268 118.09263999999999 0.0 -11.498111999999999 99.422729 0.0 -8.7154312 85.717033 0.0 -5.926398799999999 77.985954 0.0 -4.658339499999999 73.76213100000001 0.0 -3.3732817 150.10664 0.0 -18.614046 125.75412 0.0 -12.802025 104.18198000000001 0.0 -8.9901409 89.095238 0.0 -6.117031099999999 80.12668599999999 0.0 -4.7438502 74.79126 0.0 -3.7379464999999996 134.35373 0.0 -14.096262 110.77687 0.0 -9.7768955 93.863892 0.0 -6.3560171 82.916214 0.0 -4.752512 76.301804 0.0 -3.808497 144.15422 0.0 -15.124062 119.52061 0.0 -10.612405 100.14758 0.0 -6.8999224 86.927048 0.0 -4.8430481 78.71386700000001 0.0 -3.9017904000000003 129.95633999999998 0.0 -11.289911 108.50169 0.0 -7.446846000000001 92.701988 0.0 -4.7875304000000005 82.67427099999999 0.0 -3.9234321000000003 141.17055 0.0 -11.861084 118.75565 0.0 -7.6929522 100.5962 0.0 -4.5677133 88.39750699999999 0.0 -3.5848155 130.88103999999998 0.0 -8.4457521 110.80058999999999 0.0 -4.7640638 95.791313 0.0 -3.056879 123.30425 0.0 -5.7453151 105.90118999999999 0.0 -3.121002 134.52126 0.0 -6.9539318 119.2781 0.0 -4.271161599999999 -2.3350067 0.0 -0.29679489 -2.4070091000000002 0.0 -0.24190682 -2.4528522 0.0 -0.19393486 -2.4785995 0.0 -0.15280867 -2.4911299 0.0 -0.11631586 -2.4950867000000003 0.0 -0.085723668 -2.4944344 0.0 -0.059941739 -2.4921894 0.0 -0.037651725 -2.4900227000000004 0.0 -0.018264106999999998 -2.9217223999999997 0.0 -0.35559818 -3.0059347 0.0 -0.29471654 -3.0580759 0.0 -0.2413668 -3.0874472 0.0 -0.19137998 -3.1006346000000002 0.0 -0.14845425 -3.1038589 0.0 -0.11160717 -3.1021652000000004 0.0 -0.078993298 -3.0986338 0.0 -0.050727256 -3.0957088 0.0 -0.024646283999999997 -3.6087856 0.0 -0.37290666 -3.7071953 0.0 -0.3150171 -3.7680607000000004 0.0 -0.26142296 -3.8014154 0.0 -0.21145564 -3.8160648 0.0 -0.16747063 -3.8194790000000003 0.0 -0.12711999 -3.8170775999999997 0.0 -0.091244139 -3.8126125 0.0 -0.05914896 -3.8089627999999998 0.0 -0.028836328999999997 -4.3567634 0.0 -0.36880484 -4.4694376 0.0 -0.31741184 -4.5394402000000005 0.0 -0.26642126 -4.577417400000001 0.0 -0.21913256 -4.5941982 0.0 -0.1759139 -4.598135900000001 0.0 -0.13539618 -4.5952816 0.0 -0.0986109 -4.5902785999999995 0.0 -0.064147562 -4.5860691 0.0 -0.031686198 -5.1842875 0.0 -0.35441831 -5.3109617 0.0 -0.30860007 -5.3891397 0.0 -0.26276413 -5.4314594000000005 0.0 -0.2198402 -5.4502559 0.0 -0.17802164 -5.4546585 0.0 -0.13894892 -5.4515886 0.0 -0.10216776 -5.446020099999999 0.0 -0.067064159 -5.4413371 0.0 -0.033201545 -6.110850800000001 0.0 -0.33509687 -6.2498379 0.0 -0.29610839 -6.334927099999999 0.0 -0.25634798 -6.3808403 0.0 -0.21707466 -6.4010496 0.0 -0.1786772 -6.405631099999999 0.0 -0.14131887 -6.4021163 0.0 -0.10487636 -6.3958892999999994 0.0 -0.069487795 -6.3906832 0.0 -0.034556974 -7.1417465 0.0 -0.31692913 -7.290909299999999 0.0 -0.28667283 -7.381514999999999 0.0 -0.25365156 -7.4299482999999995 0.0 -0.2184487 -7.450800900000001 0.0 -0.18276228 -7.4551902000000005 0.0 -0.14658752 -7.450965400000001 0.0 -0.11015324 -7.443981599999999 0.0 -0.07347306599999999 -7.438213799999999 0.0 -0.036821023 -8.2727671 0.0 -0.31008255 -8.430134800000001 0.0 -0.29043469 -8.525113099999999 0.0 -0.26398179 -8.575204800000002 0.0 -0.23238391 -8.5962696 0.0 -0.19755988 -8.6001081 0.0 -0.16050281 -8.595092800000002 0.0 -0.12190683 -8.587328900000001 0.0 -0.081966288 -8.5809526 0.0 -0.041239411000000004 -9.498801199999999 0.0 -0.33107775 -9.6627932 0.0 -0.32133713 -9.7615604 0.0 -0.30005142 -9.8132 0.0 -0.26920709 -9.834532699999999 0.0 -0.23197456 -9.837937400000001 0.0 -0.19016075 -9.832241999999999 0.0 -0.1454296 -9.8237143 0.0 -0.09821867199999999 -9.8168106 0.0 -0.049535893 -10.814583 0.0 -0.4023619 -10.985158 0.0 -0.39653191 -11.088151 0.0 -0.37579522 -11.142275999999999 0.0 -0.3403663 -11.164681 0.0 -0.29507539 -11.168307 0.0 -0.24253736 -11.162253999999999 0.0 -0.18533958 -11.153255 0.0 -0.12522925 -11.14596 0.0 -0.06302835 -12.217259 0.0 -0.53897899 -12.393763 0.0 -0.53215617 -12.502792999999999 0.0 -0.50439894 -12.561639999999999 0.0 -0.45589969 -12.587041000000001 0.0 -0.39333147 -12.592131 0.0 -0.32234019 -12.586623 0.0 -0.24599227 -12.577419 0.0 -0.16697671 -12.569941 0.0 -0.08429443800000001 -13.703835 0.0 -0.74928761 -13.887832000000001 0.0 -0.73908097 -14.006878 0.0 -0.69268274 -14.074248999999998 0.0 -0.61994994 -14.104674 0.0 -0.53539759 -14.11323 0.0 -0.43726397 -14.109554000000001 0.0 -0.33294985 -14.101398000000001 0.0 -0.22413355 -14.094241 0.0 -0.11269487 -15.273406 0.0 -1.0446323 -15.470604000000002 0.0 -1.0116907 -15.604401000000001 0.0 -0.9408952 -15.683372 0.0 -0.8389492 -15.723645000000001 0.0 -0.71548313 -15.737993 0.0 -0.58233553 -15.737914000000002 0.0 -0.44216469 -15.731678 0.0 -0.29697517 -15.724654999999998 0.0 -0.15113366 -16.929842 0.0 -1.4464194 -17.144575 0.0 -1.3647426 -17.299889 0.0 -1.2429805 -17.393766 0.0 -1.112352 -17.448801 0.0 -0.9428305 -17.473066 0.0 -0.76736832 -17.47875 0.0 -0.58170545 -17.476376000000002 0.0 -0.39016965 -17.472336 0.0 -0.19595414 -18.67853 0.0 -1.9281496 -18.915537 0.0 -1.7784183 -19.095474 0.0 -1.6054957 -19.214533 0.0 -1.4128466 -19.284095999999998 0.0 -1.2135186000000002 -19.32062 0.0 -0.98641646 -19.336320999999998 0.0 -0.74797899 -19.339375 0.0 -0.50281852 -19.338484 0.0 -0.25222039 -20.514742000000002 0.0 -2.4633255000000003 -20.783945000000003 0.0 -2.2445362 -20.994457 0.0 -2.0087457 -21.140724 0.0 -1.7573351000000001 -21.233675 0.0 -1.4963913 -21.28932 0.0 -1.2194827 -21.315596 0.0 -0.93045646 -21.328241000000002 0.0 -0.62488395 -21.332159 0.0 -0.3144483 -22.442614000000003 0.0 -3.0107429 -22.746367000000003 0.0 -2.7339724999999997 -22.993504 0.0 -2.4405687 -23.176134 0.0 -2.1273632 -23.296804 0.0 -1.808466 -23.375654 0.0 -1.4687428 -23.422937 0.0 -1.1162083999999999 -23.446276 0.0 -0.75683099 -23.457253 0.0 -0.382732 -24.444004 0.0 -3.5098562000000006 -24.79854 0.0 -3.2072194 -25.092999 0.0 -2.8726882999999996 -25.314543 0.0 -2.5150794999999997 -25.473814 0.0 -2.1390555 -25.585766 0.0 -1.7435776 -25.657778 0.0 -1.3309207 -25.702103 0.0 -0.89801341 -25.725176 0.0 -0.45280573 -26.515048999999998 0.0 -3.9635712999999995 -26.931292 0.0 -3.6384919 -27.283106 0.0 -3.2809951 -27.558489 0.0 -2.8981206000000004 -27.762403000000003 0.0 -2.4907237999999996 -27.912601000000002 0.0 -2.0421810000000002 -28.017390999999996 0.0 -1.5641316 -28.084716999999998 0.0 -1.0608950000000001 -28.121527 0.0 -0.53512472 -28.645727 0.0 -4.3571119000000005 -29.133924 0.0 -4.01863 -29.557528 0.0 -3.6574809999999998 -29.898209 0.0 -3.2559824 -30.162489 0.0 -2.8178872999999998 -30.364940999999998 0.0 -2.3271611 -30.51005 0.0 -1.7883456999999998 -30.608796999999996 0.0 -1.2137438999999999 -30.664621 0.0 -0.61334229 -30.82568 0.0 -4.666963099999999 -31.399502000000002 0.0 -4.3445295999999995 -31.907106 0.0 -3.9835036 -32.328526000000004 0.0 -3.5761788 -32.668888 0.0 -3.1188526000000003 -32.935776000000004 0.0 -2.5851368999999997 -33.135326 0.0 -1.9968878 -33.273113 0.0 -1.3598894 -33.353664 0.0 -0.68951774 -33.046848 0.0 -4.9040093 -33.716633 0.0 -4.5935182999999995 -34.322922 0.0 -4.240750299999999 -34.844334 0.0 -3.8409269 -35.273193 0.0 -3.3629312999999996 -35.621117 0.0 -2.8065655 -35.887459 0.0 -2.1779528 -36.074837 0.0 -1.4893966 -36.187098999999996 0.0 -0.75599653 -35.295727 0.0 -5.0381122000000005 -36.074954999999996 0.0 -4.742261900000001 -36.796898 0.0 -4.4138950999999995 -37.429153 0.0 -4.0133934 -37.966007 0.0 -3.5363010999999998 -38.410804999999996 0.0 -2.9693263 -38.758739 0.0 -2.3165004000000002 -39.007172 0.0 -1.5906768 -39.157631 0.0 -0.80926508 -37.561535 0.0 -5.0410476 -38.461674 0.0 -4.763910299999999 -39.314217 0.0 -4.4660492 -40.071678000000006 0.0 -4.078598 -40.73341 0.0 -3.6170557 -41.291183000000004 0.0 -3.0548568 -41.735541999999995 0.0 -2.3972721000000003 -42.058067 0.0 -1.6516631999999998 -42.254093 0.0 -0.84283394 -39.833328 0.0 -4.8800926 -40.865055 0.0 -4.6320004 -41.856644 0.0 -4.3651052 -42.755905 0.0 -4.0107346 -43.557095000000004 0.0 -3.5782687999999996 -44.244617 0.0 -3.0415167999999997 -44.80048 0.0 -2.3993373 -45.209717 0.0 -1.6615223000000001 -45.460125 0.0 -0.84905952 -42.101112 0.0 -4.525216099999999 -43.271969 0.0 -4.316404299999999 -44.412022 0.0 -4.0963621 -45.464439 0.0 -3.7871053 -46.418827 0.0 -3.395956 -47.250659999999996 0.0 -2.9015869999999997 -47.933440999999995 0.0 -2.3000846 -48.439625 0.0 -1.6023875 -48.752140000000004 0.0 -0.82264954 -44.355278000000006 0.0 -3.9526917999999998 -45.670383 0.0 -3.7972292999999997 -46.959831 0.0 -3.6123220999999996 -48.181896 0.0 -3.3797691 -49.299713 0.0 -3.0457702 -50.286469 0.0 -2.6136167 -51.106235999999996 0.0 -2.0801685 -51.722374 0.0 -1.4509188999999998 -52.105408000000004 0.0 -0.74587989 -46.574059000000005 0.0 -3.1527271 -48.038021 0.0 -3.0695558 -49.49371 0.0 -2.9291197999999996 -50.886314 0.0 -2.7590635 -52.174892 0.0 -2.4874053 -53.325458999999995 0.0 -2.1383159 -54.289635 0.0 -1.7053362 -55.02129 0.0 -1.1932833999999999 -55.478680000000004 0.0 -0.61309171 -48.696163 0.0 -2.1324725 -50.337818 0.0 -2.0856185000000003 -51.95332 0.0 -2.0100976999999998 -53.524353000000005 0.0 -1.8843251 -54.99025 0.0 -1.6793158 -56.307678 0.0 -1.4360921 -57.423054 0.0 -1.1377168 -58.275177 0.0 -0.79200304 -58.812492000000006 0.0 -0.41092435 -50.603691 0.0 -0.83330894 -52.418983000000004 0.0 -0.84983033 -54.247005 0.0 -0.818654 -56.011124 0.0 -0.74003428 -57.654903000000004 0.0 -0.61475837 -59.13480799999999 0.0 -0.50065267 -60.388408999999996 0.0 -0.40663147 -61.379658 0.0 -0.25529668 -61.995152000000004 0.0 -0.13783452 -52.184414000000004 0.0 0.74634737 -54.20284300000001 0.0 0.696522 -56.239826 0.0 0.71426612 -58.181877 0.0 0.77554715 -60.004612 0.0 0.82903302 -61.619141000000006 0.0 0.73898447 -63.036037 0.0 0.67881918 -64.11239599999999 0.0 0.50827473 -64.766777 0.0 0.28061482 -53.399628 0.0 2.7150182999999997 -55.627056 0.0 2.6490178 -57.82179300000001 0.0 2.6614459 -59.917533999999996 0.0 2.7019708 -61.863307999999996 0.0 2.6807163 -63.580718999999995 0.0 2.5028403 -65.055626 0.0 2.1653607000000004 -66.157173 0.0 1.6345403 -66.863022 0.0 0.89233392 -54.24844399999999 0.0 5.09481 -56.595852 0.0 4.9998651 -58.922005000000006 0.0 5.0143199 -61.098994999999995 0.0 4.967999900000001 -63.12511800000001 0.0 4.803535 -64.925186 0.0 4.4132394999999995 -66.383995 0.0 3.7196863 -67.537735 0.0 2.6099777000000004 -68.258759 0.0 1.2819752 -54.71077 0.0 7.6983099 -57.188637 0.0 7.7976103000000005 -59.580490000000005 0.0 7.8103991 -61.81080600000001 0.0 7.727593400000001 -63.878685 0.0 7.4041629 -65.679947 0.0 6.7541385 -67.11846899999999 0.0 5.7357302 -68.209976 0.0 4.1177907 -68.836876 0.0 2.1493275 -54.582985 0.0 10.26956 -57.26321 0.0 10.729371 -59.896542000000004 0.0 11.159533 -62.288506000000005 0.0 11.305048 -64.429482 0.0 10.976787 -66.278778 0.0 10.212848 -67.697121 0.0 8.8367558 -68.677971 0.0 6.5581393 -69.254395 0.0 3.5559269999999996 -53.088122999999996 0.0 11.639856 -56.390255 0.0 12.988235000000001 -59.496807 0.0 13.967067000000002 -62.133198 0.0 14.334859 -64.320396 0.0 13.937672000000001 -66.194687 0.0 12.858425 -67.761803 0.0 10.896857 -68.963104 0.0 7.976143799999999 -69.66272 0.0 4.2511692000000005 -46.205975 0.0 9.106690400000002 -50.048653 0.0 10.668859 -53.985264 0.0 11.979612 -57.891228000000005 0.0 12.430282 -61.449329000000006 0.0 12.126744 -64.49044 0.0 11.128963 -67.033539 0.0 9.3474741 -68.936386 0.0 6.7845106 -70.059441 0.0 3.5952809 -28.834303000000002 0.0 12.522227 -31.87558 0.0 14.285089000000001 -35.137264 0.0 15.470464000000002 -38.386269 0.0 15.731347 -41.433006 0.0 15.099935999999998 -44.13665 0.0 13.630158999999999 -46.383590999999996 0.0 11.323022 -48.074875 0.0 8.1765375 -49.128166 0.0 4.3033380999999995 -17.162031 0.0 17.117867 -19.272102 0.0 18.647722 -21.637976000000002 0.0 19.495838 -24.089620999999998 0.0 19.33032 -26.469353 0.0 18.224005 -28.642775 0.0 16.243628 -30.489196999999997 0.0 13.373814000000001 -31.90032 0.0 9.5989332 -32.787182 0.0 5.0342398 -10.531816000000001 0.0 20.166535999999997 -11.536164999999999 0.0 21.594632999999998 -12.799141 0.0 22.299431 -14.225116 0.0 21.936237 -15.703218 0.0 20.580779999999997 -17.122559 0.0 18.288902 -18.372889 0.0 15.024707000000001 -19.352348000000003 0.0 10.765778 -19.977451000000002 0.0 5.640081400000001 -5.0537267 0.0 21.258707 -5.089286799999999 0.0 22.760765 -5.3197932 0.0 23.532349 -5.7242565 0.0 23.217487 -6.2528443 0.0 21.863651 -6.837861099999999 0.0 19.49568 -7.401225599999999 0.0 16.056646 -7.8682432 0.0 11.523087 -8.176451700000001 0.0 6.041515400000001 1.9434646 0.0 20.580599 2.5288183999999996 0.0 22.253752 3.0585127 0.0 23.231947 3.4855125 0.0 23.146017 3.7910271 0.0 21.993902 3.9837184000000003 0.0 19.757952 4.0894718 0.0 16.362236 4.1372476 0.0 11.785197 4.153563500000001 0.0 6.1915455 11.124628 0.0 18.68198 11.944075999999999 0.0 20.514383 12.896747 0.0 21.734904999999998 13.88145 0.0 21.951769 14.814665 0.0 21.106106 15.639489000000001 0.0 19.139175 16.316456 0.0 15.960566 16.818439 0.0 11.550545 17.126509 0.0 6.084891799999999 21.731972 0.0 16.175386 22.499506 0.0 18.098097 23.595066 0.0 19.509701 24.883696 0.0 20.000792 26.228559000000004 0.0 19.467152 27.509752000000002 0.0 17.82258 28.623451 0.0 14.969253 29.484365000000004 0.0 10.887231 30.027727000000002 0.0 5.752329799999999 32.719722999999995 0.0 13.565804 33.311535 0.0 15.505219 34.392281 0.0 17.012829 35.810103999999995 0.0 17.684319 37.391853000000005 0.0 17.396198000000002 38.967869 0.0 16.056097 40.381042 0.0 13.568538 41.496864 0.0 9.912070300000002 42.21085 0.0 5.251191099999999 43.443493 0.0 11.176858 43.883728000000005 0.0 13.084750999999999 44.910103 0.0 14.593325 46.36657 0.0 15.333025 48.062065000000004 0.0 15.191211 49.798664 0.0 14.092344 51.386288 0.0 11.955654 52.657546999999994 0.0 8.759858099999999 53.478466000000004 0.0 4.649669599999999 53.662701 0.0 9.1612053 54.055599 0.0 11.018998 55.054019999999994 0.0 12.461348 56.505848 0.0 13.174945999999998 58.21241 0.0 13.0811 59.973895999999996 0.0 12.141496 61.574951 0.0 10.303258999999999 62.84214 0.0 7.5521158999999995 63.656574 0.0 4.0111337 62.749187 0.0 7.4543371 63.01268 0.0 9.241463699999999 63.703453 0.0 10.555713 64.64964300000001 0.0 11.156651 65.765068 0.0 11.030547 66.799774 0.0 10.202695 67.77394100000001 0.0 8.6434069 68.525826 0.0 6.3332877 68.94678499999999 0.0 3.3660195 67.74880999999999 0.0 5.460696700000001 67.595688 0.0 7.235241900000001 67.794922 0.0 8.4973288 68.135925 0.0 9.0441971 68.627289 0.0 8.945363 69.148567 0.0 8.2675533 69.711586 0.0 7.0109773 70.157021 0.0 5.1495862 70.446014 0.0 2.739361 69.648972 0.0 3.3265655 69.314102 0.0 5.098143599999999 69.28098299999999 0.0 6.3422093 69.418518 0.0 6.9251957 69.73777 0.0 6.8823962 70.177231 0.0 6.3737926 70.52935 0.0 5.4627075 70.829262 0.0 4.035127200000001 71.088394 0.0 2.1570592 70.467888 0.0 1.5346042 70.17113499999999 0.0 3.2392807 70.102432 0.0 4.4871324999999995 70.200188 0.0 5.0862312 70.397438 0.0 5.1768355 70.685204 0.0 4.8650532 70.96905500000001 0.0 4.116168 71.224586 0.0 3.001071 71.400215 0.0 1.588273 71.128456 0.0 -0.0077519584 70.591629 0.0 1.6583973 70.362762 0.0 2.9288867 70.43408199999999 0.0 3.6973834 70.55753299999999 0.0 3.9388232000000003 70.866173 0.0 3.6561654000000003 71.15853100000001 0.0 3.0951817000000004 71.403458 0.0 2.2570379000000003 71.55438199999999 0.0 1.1949822 71.41664899999999 0.0 -1.1301229 70.684845 0.0 0.32334238 70.54840899999999 0.0 1.4420098999999997 70.508209 0.0 2.2346152999999997 70.61212900000001 0.0 2.5166277999999997 70.82952900000001 0.0 2.534385 71.105942 0.0 2.3152277000000003 71.323387 0.0 1.7272284 71.468674 0.0 0.92980003 71.581154 0.0 -1.9240794999999997 70.798096 0.0 -0.68942213 70.485313 0.0 0.38195625 70.462418 0.0 1.1020076 70.561417 0.0 1.433545 70.665154 0.0 1.4847734 70.820274 0.0 1.3323478000000002 70.953773 0.0 1.0792278 71.16147600000001 0.0 0.67502916 72.055435 0.0 -2.5722361 70.69354200000001 0.0 -1.471323 70.274742 0.0 -0.61973715 70.138161 0.0 0.14087483 70.153336 0.0 0.59249324 70.22023 0.0 0.80787605 70.30487099999999 0.0 0.81003118 70.389046 0.0 0.61001253 70.43811 0.0 0.29640278 72.522148 0.0 -2.9144785 70.711548 0.0 -2.1648946 69.876701 0.0 -1.4097959999999998 69.587685 0.0 -0.77751553 69.47665400000001 0.0 -0.22253859 69.446945 0.0 0.12656684 69.43764499999999 0.0 0.32651973 69.471733 0.0 0.35190722 69.540611 0.0 0.22566813 73.549622 0.0 -3.033041 70.793243 0.0 -2.4486859 69.578262 0.0 -2.0165293 68.889893 0.0 -1.4063203000000002 68.653809 0.0 -0.95642191 68.448174 0.0 -0.45796451 68.357872 0.0 -0.16624013 68.29547099999999 0.0 0.068301968 68.407516 0.0 -0.052639261 75.79340400000001 0.0 -3.1153152000000004 71.584305 0.0 -2.5101619 69.410492 0.0 -2.2070904 68.41362 0.0 -1.9199518 67.68541 0.0 -1.3710225 67.398216 0.0 -0.98469466 67.1054 0.0 -0.51088029 67.07261700000001 0.0 -0.35376403 67.031616 0.0 -0.24489556 79.52780200000001 0.0 -3.0343678 73.77504 0.0 -2.5052979 70.224281 0.0 -2.1842023999999998 68.088799 0.0 -1.9636749 67.137703 0.0 -1.7181541 66.309662 0.0 -1.1853731 65.902946 0.0 -0.85175449 65.754646 0.0 -0.60051084 65.65050500000001 0.0 -0.3878122 84.749352 0.0 -2.4502776 77.286621 0.0 -2.2696004000000003 72.25054899999999 0.0 -2.021066 69.07556899999999 0.0 -1.8388476000000002 66.953476 0.0 -1.5744843000000002 65.749985 0.0 -1.3217777 64.953201 0.0 -0.91381043 64.65373199999999 0.0 -0.78827238 64.471039 0.0 -0.4474684 92.610016 0.0 -1.7060256 83.071701 0.0 -1.4189303 76.350105 0.0 -1.5214686000000002 71.579025 0.0 -1.3872584 68.476349 0.0 -1.3678337 66.032166 0.0 -1.0727328 64.83659399999999 0.0 -0.88289392 64.302521 0.0 -0.72671473 63.878361 0.0 -0.4189347 103.64326 0.0 -2.0234487 91.68710300000001 0.0 -0.65595824 82.856445 0.0 -0.53985745 76.193161 0.0 -0.4904581 71.560661 0.0 -0.71710414 68.37883000000001 0.0 -0.67696398 66.13374300000001 0.0 -0.50903702 64.995468 0.0 -0.42501259 64.495621 0.0 -0.32716975 117.31812 0.0 -3.3729214999999995 103.37994 0.0 -1.2338554 92.42469 0.0 -0.09060750199999999 83.460365 0.0 0.6225974 77.16857900000001 0.0 0.60261589 72.61296800000001 0.0 0.3927823 69.927681 0.0 0.064177901 67.928314 0.0 0.07751348599999999 67.031174 0.0 0.14017655 116.25466000000002 0.0 -2.2674065 104.59092 0.0 -0.57552862 93.946152 0.0 0.80425078 85.655579 0.0 1.4419796 79.34904499999999 0.0 1.9602232 75.304726 0.0 1.8228563999999998 73.04615799999999 0.0 1.4094646 72.041496 0.0 0.86702359 105.81969 0.0 0.58040535 97.040726 0.0 1.6088207 89.730179 0.0 2.4798656 84.830086 0.0 2.5951838 81.856018 0.0 2.3226988 80.417435 0.0 1.5870699 100.22284 0.0 2.8124924 95.426796 0.0 3.3814352 92.80888399999999 0.0 2.7460501 91.83426700000001 0.0 0.99759662 -2.4892426 0.0 -5.9706872e-07 -2.4900265 0.0 0.01826678 -2.4921856 0.0 0.037650779 -2.4944382000000003 0.0 0.059941337000000004 -2.4950848 0.0 0.085723281 -2.4911356 0.0 0.11631522 -2.4785918999999996 0.0 0.15280852 -2.4528542 0.0 0.19393507 -3.0945539 0.0 8.6206001e-07 -3.0957060000000003 0.0 0.024648301 -3.0986357000000004 0.0 0.050728172 -3.1021633 0.0 0.07899224 -3.1038627999999995 0.0 0.11160714 -3.1006327000000002 0.0 0.14845417 -3.0874386 0.0 0.19138005 -3.0580769 0.0 0.24136716 -3.8075695 0.0 -9.647251300000002e-07 -3.8089714 0.0 0.02883913 -3.8126192000000003 0.0 0.05914703 -3.8170757000000006 0.0 0.09124214900000001 -3.8194818 0.0 0.12712017 -3.8160696000000005 0.0 0.16746986 -3.8014278 0.0 0.21145451 -3.7680616000000002 0.0 0.26142374 -4.584497900000001 0.0 1.8068536e-06 -4.5860715 0.0 0.031688292 -4.590282900000001 0.0 0.064146183 -4.595285400000001 0.0 0.09861029699999999 -4.5981336 0.0 0.13539487 -4.5941944 0.0 0.17591326 -4.5774288 0.0 0.21912807 -4.539432 0.0 0.26641893 -5.439575700000001 0.0 -3.6330466000000003e-06 -5.4413260999999995 0.0 0.03320263 -5.4460235 0.0 0.067062296 -5.4515977 0.0 0.10216761 -5.4546614 0.0 0.13894755 -5.4502511 0.0 0.17802112 -5.4314547 0.0 0.21983749 -5.3891335 0.0 0.26276726 -6.388718099999999 0.0 4.1544117e-06 -6.3906903 0.0 0.034554895 -6.3958917 0.0 0.069488682 -6.4021101 0.0 0.10487657 -6.4056282 0.0 0.14131854 -6.4010544000000005 0.0 0.17867617 -6.380847 0.0 0.21707191 -6.334928 0.0 0.25634381 -7.436014699999999 0.0 6.153031800000001e-07 -7.438215700000001 0.0 0.0368184 -7.4439917 0.0 0.073471174 -7.450963000000001 0.0 0.11015321 -7.4551916 0.0 0.14658676 -7.4507923 0.0 0.18276274 -7.4299273 0.0 0.21845295 -7.3815136 0.0 0.25365439 -8.5785675 0.0 1.0679059e-06 -8.5809574 0.0 0.041235331 -8.5873241 0.0 0.081970856 -8.5951185 0.0 0.12190755 -8.600115800000001 0.0 0.160503 -8.596283900000001 0.0 0.19755957 -8.5752029 0.0 0.23238872 -8.525108300000001 0.0 0.26397923 -9.8142271 0.0 2.4322435000000003e-07 -9.8168173 0.0 0.049527042 -9.8237247 0.0 0.098218247 -9.832221 0.0 0.14542826 -9.8379498 0.0 0.19016097 -9.8345165 0.0 0.23196995 -9.8132057 0.0 0.26920554 -9.761556599999999 0.0 0.3000465 -11.143191 0.0 9.7105612e-06 -11.14596 0.0 0.063024901 -11.153251 0.0 0.12522538 -11.162248 0.0 0.18534049 -11.168303 0.0 0.24253726 -11.164674 0.0 0.29507476 -11.142275999999999 0.0 0.34036732 -11.088144 0.0 0.37579158 -12.567115 0.0 4.5087527e-06 -12.569952 0.0 0.084285073 -12.577424 0.0 0.16698259 -12.586617 0.0 0.24599092 -12.592122999999999 0.0 0.32234156 -12.587022 0.0 0.39333144 -12.561644 0.0 0.45589432 -12.502809 0.0 0.50439799 -14.091491 0.0 5.037120400000001e-06 -14.094245 0.0 0.11269917 -14.101375 0.0 0.22412387 -14.109553 0.0 0.33295015 -14.113228 0.0 0.43726233 -14.104675 0.0 0.53539562 -14.074248999999998 0.0 0.61995345 -14.006878 0.0 0.69268733 -15.722232 0.0 -1.8180435e-07 -15.724673999999998 0.0 0.15111862 -15.731678 0.0 0.29698357 -15.737904 0.0 0.44216433 -15.738001 0.0 0.58233523 -15.723625 0.0 0.71548182 -15.683345999999998 0.0 0.83894676 -15.604367000000002 0.0 0.94087833 -17.470592 0.0 -9.7790689e-07 -17.472322 0.0 0.19595338 -17.476372 0.0 0.39015606 -17.478745999999997 0.0 0.58170277 -17.473045000000003 0.0 0.76736367 -17.448809 0.0 0.94282746 -17.39378 0.0 1.1123493 -17.299896 0.0 1.2429813 -19.337687 0.0 1.3073275e-05 -19.338488 0.0 0.25223181 -19.339378 0.0 0.50282776 -19.336311 0.0 0.74797809 -19.320625 0.0 0.98641402 -19.284082 0.0 1.2135139 -19.214571 0.0 1.4128399 -19.095465 0.0 1.6054988000000001 -21.332867 0.0 5.0552152999999995e-06 -21.332159 0.0 0.31444219 -21.328239 0.0 0.62487942 -21.315578 0.0 0.93044913 -21.289351 0.0 1.2194802 -21.233665 0.0 1.4963895 -21.140715 0.0 1.7573414 -20.994455 0.0 2.0087495 -23.46076 0.0 8.0653172e-06 -23.457273 0.0 0.38275325 -23.446248999999998 0.0 0.75684607 -23.422949 0.0 1.116207 -23.375641 0.0 1.4687417999999999 -23.296799 0.0 1.8084607 -23.176092 0.0 2.1273596 -22.993502 0.0 2.4405606 -25.732119 0.0 -1.4259836e-05 -25.725212 0.0 0.45280862 -25.70216 0.0 0.89801383 -25.657768 0.0 1.3309221000000002 -25.585804 0.0 1.7435783999999999 -25.473808 0.0 2.1390618999999997 -25.314512 0.0 2.5150871 -25.092968 0.0 2.8726945 -28.133640000000003 0.0 -6.7576511e-06 -28.121506 0.0 0.53510046 -28.084707 0.0 1.0608971999999999 -28.017393 0.0 1.5641298000000001 -27.912575 0.0 2.0421869999999998 -27.762323 0.0 2.4907322 -27.558451 0.0 2.8981304 -27.283103999999998 0.0 3.2809854 -30.682659 0.0 -1.5503092e-05 -30.664581 0.0 0.61337292 -30.608824 0.0 1.2137525 -30.51 0.0 1.7883494999999998 -30.364928999999997 0.0 2.327168 -30.162468 0.0 2.8178973 -29.898203000000002 0.0 3.2559762 -29.557512 0.0 3.6574814 -33.380383 0.0 -2.2215037e-05 -33.353706 0.0 0.68952322 -33.273129 0.0 1.3599006 -33.135315000000006 0.0 1.9968953 -32.935790999999995 0.0 2.5851482999999997 -32.668911 0.0 3.1188641 -32.328445 0.0 3.57619 -31.907082 0.0 3.9835091 -36.224045000000004 0.0 3.611287e-06 -36.187126 0.0 0.75600785 -36.074852 0.0 1.4894025 -35.887512 0.0 2.1779683 -35.621105 0.0 2.8065748 -35.273140000000005 0.0 3.3629451 -34.84433 0.0 3.8409424 -34.322884 0.0 4.2407498 -39.207676 0.0 -1.0148879e-05 -39.157646 0.0 0.80927932 -39.00721 0.0 1.5906768 -38.758739 0.0 2.3165119 -38.410782 0.0 2.9693389 -37.966042 0.0 3.5363068999999996 -37.429173 0.0 4.013401 -36.796932 0.0 4.4138918 -42.319588 0.0 -2.1492489e-05 -42.254101 0.0 0.84284192 -42.058105 0.0 1.6516509 -41.735508 0.0 2.39728 -41.291241 0.0 3.0548658 -40.733418 0.0 3.6170727999999994 -40.071774 0.0 4.0786185 -39.314312 0.0 4.4660568 -45.543579 0.0 -1.1108413999999999e-06 -45.460136 0.0 0.84903449 -45.209763 0.0 1.6615136000000001 -44.800575 0.0 2.3993347000000003 -44.244698 0.0 3.0415187 -43.557194 0.0 3.5782769 -42.755947 0.0 4.0107498 -41.856541 0.0 4.3651241999999995 -48.858425 0.0 -1.7999701e-06 -48.752186 0.0 0.8226307 -48.439598 0.0 1.6023631 -47.933533000000004 0.0 2.3000767000000004 -47.250648 0.0 2.9015872000000003 -46.418983000000004 0.0 3.3959632000000006 -45.464439 0.0 3.787118 -44.411995000000005 0.0 4.0963883 -52.23444 0.0 -2.7688591e-05 -52.105305 0.0 0.74583256 -51.722384999999996 0.0 1.4508923999999999 -51.106224 0.0 2.0801435 -50.286559999999994 0.0 2.6136212000000003 -49.299728 0.0 3.0457872999999998 -48.181946 0.0 3.3798068 -46.959736 0.0 3.6123470999999996 -55.63489499999999 0.0 -1.974302e-05 -55.478668000000006 0.0 0.61306018 -55.021209999999996 0.0 1.1932524 -54.289677000000005 0.0 1.7053063000000002 -53.32555 0.0 2.1383083 -52.174877 0.0 2.487427 -50.886356 0.0 2.7590914 -49.493858 0.0 2.929143 -58.997310999999996 0.0 -2.3252331e-05 -58.812462 0.0 0.41088995 -58.275227 0.0 0.7919668 -57.423046 0.0 1.1376819999999999 -56.307747 0.0 1.4360858 -54.990272999999995 0.0 1.6793435 -53.524406000000006 0.0 1.8843681 -51.953342 0.0 2.0101197 -62.204735 0.0 -7.452734299999999e-06 -61.99519 0.0 0.13779932 -61.379761 0.0 0.25525215 -60.388504000000005 0.0 0.40660429 -59.13485 0.0 0.50065899 -57.654835 0.0 0.61477762 -56.01115 0.0 0.74005669 -54.247101 0.0 0.8186782 -64.996422 0.0 -3.0505034e-06 -64.76673100000001 0.0 -0.28063604 -64.112495 0.0 -0.50830144 -63.035812 0.0 -0.67883188 -61.61895 0.0 -0.73898268 -60.004658 0.0 -0.82901555 -58.181869999999996 0.0 -0.7755183 -56.239849 0.0 -0.71425343 -67.056381 0.0 -9.155737600000001e-07 -66.863052 0.0 -0.89233392 -66.157028 0.0 -1.6345433999999999 -65.055534 0.0 -2.1653695 -63.580681000000006 0.0 -2.5028496 -61.863415 0.0 -2.6806922 -59.917542000000005 0.0 -2.7019408 -57.821701000000004 0.0 -2.6614306 -68.609375 0.0 -2.6093039000000003e-07 -68.25874300000001 0.0 -1.2819673999999999 -67.537819 0.0 -2.6099865 -66.383957 0.0 -3.7196974999999997 -64.92529300000001 0.0 -4.4132552 -63.12496899999999 0.0 -4.803521599999999 -61.099022 0.0 -4.9679723 -58.922104000000004 0.0 -5.014296099999999 -68.940956 0.0 5.6991703e-06 -68.83665500000001 0.0 -2.149338 -68.209877 0.0 -4.117795 -67.118515 0.0 -5.7357402 -65.679855 0.0 -6.7541494 -63.878689 0.0 -7.4041624000000015 -61.81092099999999 0.0 -7.727574300000001 -59.580338 0.0 -7.8103781 -69.436745 0.0 6.469032099999999e-06 -69.254524 0.0 -3.5559189 -68.678162 0.0 -6.558138799999999 -67.697189 0.0 -8.8367538 -66.27873199999999 0.0 -10.212852 -64.429558 0.0 -10.976774 -62.288433 0.0 -11.305022 -59.89658000000001 0.0 -11.159462 -69.798424 0.0 2.0023435e-06 -69.662674 0.0 -4.251163 -68.962975 0.0 -7.9761329 -67.761703 0.0 -10.896846 -66.194565 0.0 -12.858421 -64.32047299999999 0.0 -13.937635 -62.133327 0.0 -14.334810999999998 -59.496674 0.0 -13.967064 -70.44062 0.0 -4.244037e-06 -70.059441 0.0 -3.5952671 -68.93633299999999 0.0 -6.7845125 -67.033546 0.0 -9.347477900000001 -64.490501 0.0 -11.128939 -61.44936 0.0 -12.1267 -57.891247 0.0 -12.430242999999999 -53.98525600000001 0.0 -11.979566 -49.486118 0.0 2.3116881000000003e-06 -49.128059 0.0 -4.3033543 -48.074871 0.0 -8.1765432 -46.383553000000006 0.0 -11.323011 -44.13673 0.0 -13.630132000000001 -41.433064 0.0 -15.09989 -38.386314 0.0 -15.731302 -35.137229999999995 0.0 -15.470435 -33.089897 0.0 -7.1200775e-06 -32.787121 0.0 -5.0342440999999996 -31.900297 0.0 -9.598939900000001 -30.489082 0.0 -13.373806 -28.642670000000003 0.0 -16.243601 -26.469437 0.0 -18.223969 -24.089602 0.0 -19.330284 -21.638025 0.0 -19.495808 -20.192404 0.0 -2.9831892e-05 -19.977419 0.0 -5.6401129 -19.352396 0.0 -10.765803 -18.372837 0.0 -15.024712 -17.12237 0.0 -18.288879 -15.703175 0.0 -20.580763 -14.225082999999998 0.0 -21.936234 -12.799042 0.0 -22.299429 -8.284013700000001 0.0 -3.0906958e-05 -8.176415400000002 0.0 -6.0414915 -7.8683038 0.0 -11.523088000000001 -7.401231299999999 0.0 -16.056635 -6.837842500000001 0.0 -19.495651000000002 -6.252903 0.0 -21.863609 -5.7242665 0.0 -23.217422 -5.3197640999999996 0.0 -23.532326 4.1568632 0.0 -3.1309639e-05 4.1535778 0.0 -6.191525 4.1372151 0.0 -11.785216 4.0895309 0.0 -16.362211 3.9838413999999998 0.0 -19.757948000000003 3.7909675000000003 0.0 -21.993876999999998 3.4855461 0.0 -23.145966 3.0585028999999997 0.0 -23.231937 17.230455 0.0 4.6649772999999995e-05 17.126509 0.0 -6.0848484 16.818466 0.0 -11.550568 16.31654 0.0 -15.960579999999998 15.639406 0.0 -19.13917 14.814741 0.0 -21.106112 13.881483 0.0 -21.951759 12.896654 0.0 -21.73489 30.213440000000002 0.0 1.7791433e-05 30.027763 0.0 -5.7523193 29.484358 0.0 -10.887209 28.623495000000002 0.0 -14.969254000000001 27.509724 0.0 -17.822584 26.228610999999997 0.0 -19.467148 24.883623 0.0 -20.000792999999998 23.595036999999998 0.0 -19.509726999999998 42.456474 0.0 1.726058e-05 42.210910999999996 0.0 -5.2511573 41.496689 0.0 -9.912075999999999 40.38097 0.0 -13.568563000000001 38.967781 0.0 -16.056117999999998 37.39193 0.0 -17.396217 35.810047 0.0 -17.684305 34.392258 0.0 -17.012852 53.762249 0.0 3.3953067e-05 53.47856899999999 0.0 -4.6496682 52.657531999999996 0.0 -8.759855300000002 51.386241999999996 0.0 -11.955655 49.798671999999996 0.0 -14.092357999999999 48.062031 0.0 -15.191231 46.366496999999995 0.0 -15.333039000000001 44.91008 0.0 -14.593347 63.939426 0.0 1.2387172e-06 63.656456000000006 0.0 -4.0111227 62.842135999999996 0.0 -7.5521207 61.574955 0.0 -10.303263000000001 59.97400699999999 0.0 -12.141514 58.212276 0.0 -13.081103 56.50579499999999 0.0 -13.174959 55.05403100000001 0.0 -12.46137 69.08779100000001 0.0 6.868460299999999e-06 68.94659399999999 0.0 -3.3659995000000005 68.52594 0.0 -6.3333087 67.773895 0.0 -8.6434126 66.79966 0.0 -10.202698 65.764992 0.0 -11.030553999999999 64.64967299999999 0.0 -11.156675 63.703487 0.0 -10.55574 70.549515 0.0 -2.89132e-06 70.446053 0.0 -2.7393777000000004 70.157066 0.0 -5.149577099999999 69.71159399999999 0.0 -7.0109782 69.148605 0.0 -8.2675619 68.627235 0.0 -8.945378300000002 68.135811 0.0 -9.0442104 67.79493000000001 0.0 -8.4973526 71.171196 0.0 -2.3275352e-06 71.08845500000001 0.0 -2.1570535 70.829453 0.0 -4.0351300000000005 70.52937299999999 0.0 -5.462718 70.177322 0.0 -6.3738074000000005 69.737595 0.0 -6.8823905 69.41843399999999 0.0 -6.9251957 69.281013 0.0 -6.3422351 71.467773 0.0 -2.4834153e-06 71.400322 0.0 -1.588272 71.224686 0.0 -3.0010629 70.969078 0.0 -4.116177599999999 70.68512700000001 0.0 -4.8650556 70.397423 0.0 -5.1768351 70.200211 0.0 -5.0862355 70.102478 0.0 -4.4871435 71.601685 0.0 -6.5111052999999995e-06 71.554321 0.0 -1.1949821000000003 71.40342700000001 0.0 -2.25703 71.158371 0.0 -3.0951777000000003 70.866249 0.0 -3.6561756 70.55764 0.0 -3.9388187000000006 70.434303 0.0 -3.6973817 70.362778 0.0 -2.9288947999999997 71.536057 0.0 -4.6647074e-06 71.468742 0.0 -0.92980319 71.323387 0.0 -1.727221 71.10590400000001 0.0 -2.3152287 70.829643 0.0 -2.5344021 70.61216 0.0 -2.516624 70.508156 0.0 -2.2345979 70.54840899999999 0.0 -1.4419941 71.186035 0.0 -3.1968775e-06 71.161484 0.0 -0.67502791 70.953751 0.0 -1.0792233999999998 70.820213 0.0 -1.3323367 70.665077 0.0 -1.4847707 70.56147800000001 0.0 -1.4335348999999997 70.46240999999999 0.0 -1.102005 70.48532900000001 0.0 -0.38195565 70.521629 0.0 2.3432322e-06 70.438171 0.0 -0.2964097 70.389084 0.0 -0.61001927 70.304764 0.0 -0.81001365 70.22020699999999 0.0 -0.80787122 70.153313 0.0 -0.5924899 70.138062 0.0 -0.14085521 70.27469599999999 0.0 0.61976105 69.594009 0.0 7.1199493e-06 69.540581 0.0 -0.22565293 69.47193100000001 0.0 -0.35192186 69.437614 0.0 -0.32651082 69.446922 0.0 -0.12657042 69.476776 0.0 0.22252677 69.587753 0.0 0.77749234 69.876701 0.0 1.4098125 68.370354 0.0 8.6916152e-06 68.4076 0.0 0.05264055 68.295517 0.0 -0.06832200299999999 68.357933 0.0 0.16624069 68.448341 0.0 0.45795327 68.65373199999999 0.0 0.9564271 68.889946 0.0 1.4063122 69.57821700000001 0.0 2.0165541 66.991493 0.0 -3.3782088999999998e-06 67.03155500000001 0.0 0.24490398 67.07251 0.0 0.35376623 67.105438 0.0 0.51087248 67.39814 0.0 0.98471022 67.685379 0.0 1.3710235 68.413498 0.0 1.9199523 69.410591 0.0 2.2070856 65.589973 0.0 -6.304253499999999e-06 65.650536 0.0 0.38781437 65.754547 0.0 0.60052562 65.902863 0.0 0.85175318 66.30967700000001 0.0 1.185375 67.137741 0.0 1.7181482 68.088943 0.0 1.9636678 70.22421999999999 0.0 2.184212 64.391586 0.0 -7.7746954e-06 64.471008 0.0 0.44744864 64.653748 0.0 0.78827137 64.953125 0.0 0.91381484 65.74994699999999 0.0 1.3217658 66.953514 0.0 1.5744984 69.075592 0.0 1.8388501 72.25057199999999 0.0 2.0210583 63.808685 0.0 -1.3412588000000001e-05 63.878468000000005 0.0 0.41892108 64.302551 0.0 0.72670162 64.83649399999999 0.0 0.88290668 66.032166 0.0 1.0727175 68.476334 0.0 1.3678367 71.57895699999999 0.0 1.3872569 76.350021 0.0 1.5214813999999999 64.341072 0.0 -1.1971561999999998e-05 64.495667 0.0 0.32715851 64.995522 0.0 0.42500606 66.133751 0.0 0.50903177 68.378853 0.0 0.6769532 71.560722 0.0 0.71710533 76.19313000000001 0.0 0.49046713 82.856445 0.0 0.53985631 66.644257 0.0 -9.3187555e-06 67.03112800000001 0.0 -0.14019583 67.92823800000001 0.0 -0.077511951 69.92779499999999 0.0 -0.064163387 72.61296800000001 0.0 -0.39278877 77.168495 0.0 -0.60258293 83.46035 0.0 -0.6225996 92.424728 0.0 0.09058257900000001 71.972427 0.0 -9.8467572e-06 72.041542 0.0 -0.86705118 73.046082 0.0 -1.409457 75.304741 0.0 -1.8228639 79.349083 0.0 -1.9602375 85.655624 0.0 -1.4419853999999999 93.94612099999999 0.0 -0.80425096 104.59091 0.0 0.57552505 80.326881 0.0 -7.292895999999999e-06 80.41745 0.0 -1.5870878000000002 81.85595699999999 0.0 -2.322691 84.830101 0.0 -2.5951939 89.730209 0.0 -2.4798651 97.040649 0.0 -1.608802 105.81967 0.0 -0.58040148 91.46500400000001 0.0 -1.3371828000000001e-05 91.83422900000001 0.0 -0.99759847 92.80896 0.0 -2.7460477 95.426773 0.0 -3.3814232000000004 100.22282 0.0 -2.8124838 -2.4070091000000002 0.0 0.24190861 -2.3349991 0.0 0.2967971 -2.2333937 0.0 0.35459101 -2.0989561 0.0 0.41734064 -1.9289932 0.0 0.48246706 -1.7220773999999999 0.0 0.54231787 -1.4732637 0.0 0.58551598 -3.0059318999999998 0.0 0.2947163 -2.9217176 0.0 0.35559738 -2.8005066000000003 0.0 0.42168707 -2.6415634 0.0 0.48836911 -2.4409398999999996 0.0 0.5534966 -2.1882048 0.0 0.60922837 -1.8579955000000001 0.0 0.64739633 -1.4119778 0.0 0.75519943 -3.7072029000000004 0.0 0.31501535 -3.608779 0.0 0.37290785 -3.467576 0.0 0.43239179 -3.2825917999999996 0.0 0.49382371 -3.0542784 0.0 0.54936945 -2.7648206 0.0 0.60591602 -2.3835473 0.0 0.66122818 -1.8473368000000001 0.0 0.76568794 -4.4694471 0.0 0.31741312 -4.3567591 0.0 0.36880633 -4.194796599999999 0.0 0.42175353 -3.9860062999999997 0.0 0.47447759 -3.7342915999999997 0.0 0.52144229 -3.4229398 0.0 0.57145143 -3.0047569 0.0 0.62532854 -2.3748255 0.0 0.74771309 -5.310964599999999 0.0 0.30859387 -5.1842871 0.0 0.35442096 -5.0030227 0.0 0.39893192 -4.7718916 0.0 0.44232237 -4.502593 0.0 0.47805858 -4.172194999999999 0.0 0.52070904 -3.7185797999999997 0.0 0.57388973 -2.9888391 0.0 0.72897577 -6.2498325999999995 0.0 0.29610625 -6.1108441 0.0 0.33509544 -5.912241000000001 0.0 0.36971214 -5.6629667 0.0 0.40051794 -5.3778291 0.0 0.42341757 -5.032875499999999 0.0 0.45809174 -4.5459304000000005 0.0 0.51584911 -3.7063474999999997 0.0 0.72302437 -7.290903599999999 0.0 0.28667799 -7.1417418 0.0 0.31692433 -6.9291964 0.0 0.33884871 -6.6650772 0.0 0.35426962 -6.367822599999999 0.0 0.365098 -6.0178471 0.0 0.39293575 -5.5054336 0.0 0.46760845 -4.5471525 0.0 0.75635529 -8.4301424 0.0 0.29043365 -8.2727709 0.0 0.31008077 -8.048987400000001 0.0 0.31786281 -7.774389299999999 0.0 0.31817687 -7.475475299999999 0.0 0.31732702 -7.127626400000001 0.0 0.34832478 -6.6082735 0.0 0.45366573 -5.5369978 0.0 0.85631657 -9.6627913 0.0 0.32134524 -9.4987993 0.0 0.33107275 -9.2668457 0.0 0.32600662 -8.986414 0.0 0.31585133 -8.6916008 0.0 0.3031702 -8.355155900000002 0.0 0.34832764 -7.8657026 0.0 0.47877979 -6.742557499999999 0.0 0.97418213 -10.985146 0.0 0.39653257 -10.814599000000001 0.0 0.40236682 -10.578058 0.0 0.38706744 -10.298074 0.0 0.36401236 -10.015863000000001 0.0 0.3385663 -9.7166185 0.0 0.38344955 -9.308350599999999 0.0 0.50518322 -8.3180809 0.0 0.92143059 -12.393782 0.0 0.53216976 -12.217252 0.0 0.53896844 -11.975992 0.0 0.51932442 -11.708472 0.0 0.47681034 -11.458046000000001 0.0 0.43559742 -11.247741 0.0 0.43181515 -11.006843 0.0 0.50721169 -10.387777 0.0 0.68089867 -13.887811 0.0 0.73907387 -13.703849 0.0 0.74927884 -13.457785000000001 0.0 0.72989333 -13.218534 0.0 0.67090142 -13.017323 0.0 0.63491249 -12.946523 0.0 0.60880947 -12.952107 0.0 0.71938515 -12.615604 0.0 1.0158367 -15.470583999999999 0.0 1.0116923 -15.273416000000001 0.0 1.0446440000000001 -15.025107 0.0 1.0680658 -14.821503 0.0 1.0231556 -14.722855 0.0 1.0523421999999998 -14.834848999999998 0.0 1.2277889 -15.079025 0.0 1.8961897 -15.019096 0.0 2.9872379000000002 -17.144582999999997 0.0 1.3647481000000001 -16.92981 0.0 1.4464126 -16.686138 0.0 1.5031212999999999 -16.522301000000002 0.0 1.5704613 -16.569172000000002 0.0 1.749655 -16.924377 0.0 2.2566905 -17.563993 0.0 3.2740507 -18.046209 0.0 4.5824099 -18.915546 0.0 1.7784326000000001 -18.678556 0.0 1.9281473999999998 -18.430851 0.0 2.0678658 -18.314241 0.0 2.2488756000000003 -18.520001999999998 0.0 2.5891852 -19.219208 0.0 3.2364938 -20.37966 0.0 4.280231 -21.547707 0.0 5.605392 -20.783943 0.0 2.244539 -20.514734 0.0 2.4633147999999996 -20.260386999999998 0.0 2.6713543 -20.180225 0.0 2.9467056 -20.528992000000002 0.0 3.3725455 -21.543871 0.0 4.0675573 -23.23241 0.0 5.0908847 -25.197121 0.0 6.405169 -22.746351 0.0 2.7339606 -22.442589 0.0 3.0107353 -22.15992 0.0 3.2565312 -22.099144 0.0 3.5907431000000005 -22.563993 0.0 4.0532918 -23.858765 0.0 4.7787633000000005 -26.03673 0.0 5.7963901 -28.723961 0.0 7.155516099999999 -24.798542 0.0 3.2072275 -24.444010000000002 0.0 3.5098748 -24.125301 0.0 3.7912449999999995 -24.070839000000003 0.0 4.1525927000000005 -24.631535999999997 0.0 4.6388545 -26.174023000000002 0.0 5.3878951 -28.788311 0.0 6.4376655 -32.072407 0.0 7.8705678 -26.931309000000002 0.0 3.638463 -26.515074 0.0 3.9635527 -26.146053 0.0 4.2668219 -26.094919 0.0 4.6342373 -26.7453 0.0 5.1358309 -28.52915 0.0 5.9208655 -31.549862 0.0 7.033591700000001 -35.349373 0.0 8.576697300000001 -29.133926000000002 0.0 4.0186257 -28.645729 0.0 4.3570967000000005 -28.214918 0.0 4.676033 -28.1647 0.0 5.0357857 -28.905025 0.0 5.556963400000001 -30.947912 0.0 6.384727 -34.387383 0.0 7.5925193 -38.715332000000004 0.0 9.2468281 -31.399502000000002 0.0 4.3445077 -30.825668 0.0 4.6669497 -30.332102000000003 0.0 4.9896803 -30.270618 0.0 5.356635099999999 -31.119514000000002 0.0 5.878353099999999 -33.426876 0.0 6.7711467999999995 -37.311962 0.0 8.0872231 -42.214378 0.0 9.855888400000001 -33.716564 0.0 4.593477200000001 -33.046783000000005 0.0 4.9039612 -32.476051 0.0 5.2088985 -32.401672 0.0 5.5893292 -33.357231 0.0 6.1336522 -35.952599 0.0 7.069539999999999 -40.311436 0.0 8.498826 -45.839110999999995 0.0 10.371400999999999 -36.074951 0.0 4.7422419 -35.295730999999996 0.0 5.0380917 -34.63718 0.0 5.3249278 -34.545929 0.0 5.719300700000001 -35.609642 0.0 6.2856874000000005 -38.504868 0.0 7.2748256 -43.372677 0.0 8.803874 -49.556911 0.0 10.80591 -38.461674 0.0 4.7639346 -37.561535 0.0 5.0410523000000005 -36.806194 0.0 5.3154715999999995 -36.688992 0.0 5.7138352 -37.86483 0.0 6.303818700000001 -41.075516 0.0 7.3498969 -46.485382 0.0 8.978409800000001 -53.366886 0.0 11.124748 -40.865032 0.0 4.6320009 -39.833275 0.0 4.8801093 -38.971977 0.0 5.135237200000001 -38.823723 0.0 5.5371275 -40.116791 0.0 6.144814 -43.659531 0.0 7.2537354999999994 -49.649902000000004 0.0 8.986167 -57.282996999999995 0.0 11.304631 -43.272071999999994 0.0 4.3164444 -42.101112 0.0 4.5252247 -41.13559 0.0 4.7734814000000005 -40.946232 0.0 5.144428700000001 -42.370621 0.0 5.751542099999999 -46.263573 0.0 6.936890099999999 -52.887665000000005 0.0 8.789294199999999 -61.356991 0.0 11.324204 -45.670403 0.0 3.7972579 -44.355339 0.0 3.9527075 -43.274551 0.0 4.1595788 -43.049366 0.0 4.4939332 -44.615536 0.0 5.080513 -48.903347 0.0 6.342454900000001 -56.237549 0.0 8.350522 -65.68679 0.0 11.17302 -48.038094 0.0 3.069541 -46.573944 0.0 3.1527328 -45.378994 0.0 3.2836432 -45.135467999999996 0.0 3.5246102999999995 -46.853054 0.0 4.0903487 -51.585045 0.0 5.420547 -59.728522999999996 0.0 7.6370306 -70.371262 0.0 10.841103 -50.337635 0.0 2.0856295 -48.696159 0.0 2.1324797 -47.391205 0.0 2.1512847 -47.140388 0.0 2.2585571 -49.026474 0.0 2.8007541000000002 -54.25345600000001 0.0 4.2026443 -63.322113 0.0 6.636139900000001 -75.417465 0.0 10.319358 -52.418957 0.0 0.84986436 -50.603638000000004 0.0 0.83335757 -49.167835 0.0 0.80589628 -48.86758 0.0 0.83828634 -51.014713 0.0 1.1792533 -56.784451000000004 0.0 2.6129115 -66.863304 0.0 5.3709288 -80.572952 0.0 9.617787400000001 -54.202705 0.0 -0.69651216 -52.184353 0.0 -0.74634975 -50.577 0.0 -0.8357901 -50.263023 0.0 -0.94744259 -52.590977 0.0 -0.59276038 -58.982268999999995 0.0 0.67430699 -70.068489 0.0 3.9389689 -85.51908900000001 0.0 8.952302900000001 -55.627026 0.0 -2.6489997000000005 -53.399487 0.0 -2.7150304 -51.668446 0.0 -2.9072044 -51.319508 0.0 -3.054086 -53.819527 0.0 -2.6345766 -60.708808999999995 0.0 -1.1085767 -72.804665 0.0 2.243721 -89.49472800000001 0.0 8.3066301 -56.595863 0.0 -4.9998441 -54.24853100000001 0.0 -5.0947886 -52.349861 0.0 -5.3016191 -52.101261 0.0 -5.2888436 -54.747364000000005 0.0 -4.7640128 -62.098579 0.0 -2.7778656 -74.93502 0.0 0.5766564 -92.59225500000001 0.0 8.2512121 -57.18853000000001 0.0 -7.7976022 -54.710678 0.0 -7.6983042 -52.685646 0.0 -7.6604443 -52.237362 0.0 -7.3620591 -54.971901 0.0 -6.271208799999999 -62.39605699999999 0.0 -4.0097466 -75.729347 0.0 -0.83986104 -93.24650600000001 0.0 8.5624695 -57.263187 0.0 -10.729314 -54.582882 0.0 -10.269551 -52.367809 0.0 -9.7185125 -51.565968 0.0 -8.833122300000001 -53.847561 0.0 -7.8215895 -61.075901 0.0 -5.2168136 -74.148628 0.0 -2.1794217000000002 -89.331779 0.0 9.4492159 -56.390246999999995 0.0 -12.988205 -53.088242 0.0 -11.639812 -50.182536999999996 0.0 -10.357846 -48.314751 0.0 -9.7555971 -50.423065 0.0 -9.9063616 -56.994724 0.0 -6.6082087 -65.393929 0.0 -3.8119779 -69.18899499999999 0.0 9.578177499999999 -50.048656 0.0 -10.668822 -46.205944 0.0 -9.1066761 -42.533778999999996 0.0 -10.6781 -40.797934999999995 0.0 -12.731651 -40.927452 0.0 -12.647456 -40.82243 0.0 -9.276604699999998 -40.636047 0.0 -4.3825226 -41.273396000000005 0.0 10.178116000000001 -31.875574 0.0 -14.285055999999999 -28.834260999999998 0.0 -12.522215 -26.168993 0.0 -12.30461 -24.107882999999998 0.0 -14.5924 -22.876926 0.0 -14.442851999999998 -22.706942 0.0 -10.186580000000001 -22.75816 0.0 -7.5183754 -23.359539 0.0 10.950486 -19.272087 0.0 -18.647717999999998 -17.162115 0.0 -17.117851 -15.456960999999998 0.0 -15.661370000000002 -14.216176 0.0 -15.604925 -13.646106 0.0 -15.148029999999999 -13.820929000000001 0.0 -10.942247 -14.351918 0.0 -12.786463000000001 -14.994254999999999 0.0 10.963011 -11.536294 0.0 -21.594607999999997 -10.531933 0.0 -20.166513000000002 -9.849041 0.0 -18.691853 -9.5338192 0.0 -17.362703 -9.6187019 0.0 -15.879756 -10.086061 0.0 -11.02491 -10.841536999999999 0.0 -14.999053 -11.580254 0.0 11.298522 -5.089368799999999 0.0 -22.760767 -5.0537285999999995 0.0 -21.258707 -5.1958289 0.0 -19.661726 -5.4923859 0.0 -18.073769 -5.931406 0.0 -16.041245999999997 -6.4856572 0.0 -11.848642 -7.1037765 0.0 -15.998384 -7.656604799999999 0.0 11.479425 2.5287377999999996 0.0 -22.253736 1.9433879 0.0 -20.580605 1.3716686000000002 0.0 -18.80121 0.87282991 0.0 -17.046583 0.47794333 0.0 -15.589134 0.19956224 0.0 -12.994232 0.023123879 0.0 -16.062592000000002 -0.10378578 0.0 11.580333999999999 11.943997999999999 0.0 -20.514372 11.124728999999999 0.0 -18.681992 10.531205 0.0 -16.818182 10.206431 0.0 -15.283453 10.055232 0.0 -15.459802 10.425634 0.0 -13.470398999999999 10.820891 0.0 -15.237781 11.213543 0.0 11.529378999999999 22.499717999999998 0.0 -18.098114000000002 21.731987 0.0 -16.175407 21.385227 0.0 -14.325985999999999 21.381264 0.0 -13.505639000000002 21.643535999999997 0.0 -15.118372 22.477501 0.0 -13.230120999999999 23.632837 0.0 -13.772264000000002 24.630157 0.0 11.600327 33.311653 0.0 -15.505239000000001 32.719639 0.0 -13.565825 32.696636 0.0 -11.761928 32.863838 0.0 -11.920761 33.486709999999995 0.0 -14.195559 34.669712 0.0 -12.052347 36.560951 0.0 -11.816778999999999 38.35614 0.0 12.202845 43.883675 0.0 -13.084787 43.443466 0.0 -11.176898 43.633583 0.0 -9.4689493 43.672066 0.0 -10.41341 43.973392 0.0 -12.815486 46.001465 0.0 -10.343973 48.706897999999995 0.0 -8.759941099999999 51.022739 0.0 12.723466 54.055507999999996 0.0 -11.019032000000001 53.662537 0.0 -9.1612463 53.824211 0.0 -7.6165050999999995 53.361298 0.0 -9.0600615 53.364563000000004 0.0 -10.42249 55.128674 0.0 -7.9457603 59.144974 0.0 -5.8484397 62.236225 0.0 12.530496000000001 63.012661 0.0 -9.241501800000002 62.74913000000001 0.0 -7.4543800000000005 62.992565 0.0 -5.7910633 62.332508 0.0 -7.2637968 61.67057 0.0 -8.107699400000001 63.076958 0.0 -4.938337799999999 68.128151 0.0 -2.5614533 72.964134 0.0 12.850307 67.595764 0.0 -7.2352796 67.74880999999999 0.0 -5.4607301 68.504913 0.0 -3.6151755 69.32666 0.0 -4.0085139 69.335258 0.0 -5.6052446 70.599632 0.0 -1.8752633 76.647789 0.0 0.49882594 83.28137199999999 0.0 13.235275 69.314041 0.0 -5.0981760000000005 69.648933 0.0 -3.3265998 70.61083199999999 0.0 -1.4169234 72.876053 0.0 -0.45576909 75.507828 0.0 -2.0625713 77.89411899999999 0.0 0.44227129 85.038467 0.0 2.9741583 93.472275 0.0 13.955009 70.171196 0.0 -3.2393005 70.46781899999999 0.0 -1.5346208000000001 71.702454 0.0 0.22246 74.462112 0.0 1.7428256999999998 79.135651 0.0 1.8542311999999999 85.641785 0.0 3.0675293999999997 93.41403199999999 0.0 4.817521599999999 103.78981999999999 0.0 14.673426999999998 70.591583 0.0 -1.6583956000000002 71.12838 0.0 0.0077586975 72.325325 0.0 1.6952871999999999 75.44319899999999 0.0 3.2292223 81.554726 0.0 4.208157099999999 91.3461 0.0 5.946586099999999 102.22974 0.0 5.985424 114.9494 0.0 15.756685000000001 70.684914 0.0 -0.32335877 71.41671 0.0 1.1301178 73.044624 0.0 2.6796968 76.488846 0.0 4.1276684 83.349106 0.0 5.3465919 95.322319 0.0 8.0296497 111.33051 0.0 8.1593609 126.69595 0.0 16.619961 70.79804200000001 0.0 0.68941486 71.58123 0.0 1.924095 73.762146 0.0 3.3732718999999998 77.986 0.0 4.6583176 85.717049 0.0 5.9264059 99.42282900000001 0.0 8.7154369 118.09256 0.0 11.498108 140.24323 0.0 17.480255 70.693512 0.0 1.4713082 72.055214 0.0 2.5722942000000004 74.791374 0.0 3.7379177 80.126785 0.0 4.7437925000000005 89.09523 0.0 6.1170425 104.18205 0.0 8.9901266 125.7541 0.0 12.802032 150.1066 0.0 18.614035 70.711708 0.0 2.1648631000000003 72.522194 0.0 2.9144866 76.301804 0.0 3.8084917000000003 82.916168 0.0 4.752510099999999 93.863991 0.0 6.3559809000000005 110.7768 0.0 9.776931800000002 134.35367 0.0 14.096256 70.793144 0.0 2.4487228 73.549675 0.0 3.0330496 78.713936 0.0 3.9017804 86.92705500000001 0.0 4.8430462 100.14758 0.0 6.89992 119.52051999999999 0.0 10.612411 144.15428 0.0 15.124053 71.584305 0.0 2.5101814 75.79336500000001 0.0 3.1153343 82.67427099999999 0.0 3.9234343000000003 92.702065 0.0 4.7875385 108.50171999999999 0.0 7.446836 129.95636000000002 0.0 11.289945 73.775093 0.0 2.5053 79.527725 0.0 3.034399 88.397469 0.0 3.5847987999999997 100.59628000000001 0.0 4.5677304 118.75568 0.0 7.6929493 141.17056000000002 0.0 11.861096 77.286659 0.0 2.2696373 84.749466 0.0 2.4502639999999998 95.791412 0.0 3.0568678 110.80041999999999 0.0 4.7640915 130.8811 0.0 8.445745500000001 83.071678 0.0 1.4189626 92.610001 0.0 1.706018 105.90123 0.0 3.1210122000000005 123.30426000000001 0.0 5.7453232000000005 91.68710300000001 0.0 0.65595502 103.64328 0.0 2.0234146 119.27818 0.0 4.2711649000000005 134.52132 0.0 6.953921799999999 103.37988 0.0 1.2338926000000001 117.31815 0.0 3.3728895 116.25464 0.0 2.2674088 
StrainDot 3 2975 float
0.0 0.0 0.0 0.0 0.0 0.0 0.0 0.0 0.0 0.0 0.0 0.0 0.0 0.0 0.0 0.0 0.0 0.0 0.0 0.0 0.0 0.0 0.0 0.0 0.0 0.0 0.0 0.0 0.0 0.0 0.0 0.0 0.0 0.0 0.0 0.0 0.0 0.0 0.0 -1.0455643e-06 0.0 -2.8450023e-07 -5.1875371e-17 0.0 -2.2177169e-17 -4.909371e-06 0.0 -2.0707414e-06 -3.536067e-05 0.0 -1.1678573e-05 -8.3644645e-06 0.0 -4.3541759e-06 -6.1693085e-05 0.0 -3.0881412e-05 -0.00021067372000000003 0.0 -8.0674894e-05 -6.629156299999999e-05 0.0 -4.0391842e-05 -0.00025802615 0.0 -0.0001468773 -0.0006796521499999999 0.0 -0.00029270083 -0.0002232182 0.0 -0.00015495454 -0.00067346235 0.0 -0.00043032624000000004 -0.0015662989000000001 0.0 -0.0007515373299999999 -0.00049624447 0.0 -0.00039161631 -0.0013203463000000001 0.0 -0.00094735052 -0.0028735492 0.0 -0.0015391991 -0.00085070677 0.0 -0.00076459034 -0.0021215798 0.0 -0.0017110347 -0.0044564735 0.0 -0.0026674485 -0.0012177166 0.0 -0.0012423259 -0.0029457009 0.0 -0.0026561057 -0.0060789799 0.0 -0.0040411414 -0.0015372692999999998 0.0 -0.0017541993 -0.003683473 0.0 -0.0036502986 -0.0075473189 0.0 -0.0054672984 -0.0017968691 0.0 -0.0022218141 -0.0043174257 0.0 -0.0045495844 -0.008839008399999999 0.0 -0.0067343288 -0.0020434044 0.0 -0.0025964393 -0.0049419966999999995 0.0 -0.00526493 -0.010126996999999999 0.0 -0.0077170469 -0.0023742623 0.0 -0.0028766918 -0.005761697 0.0 -0.005793481600000001 -0.011783473999999999 0.0 -0.0084228078 -0.0029314107 0.0 -0.0031038321999999996 -0.0070781223 0.0 -0.0062153297 -0.014348073000000001 0.0 -0.008983364300000001 -0.0039048239000000003 0.0 -0.0033600215999999997 -0.0092765549 0.0 -0.0067033451 -0.018484093 0.0 -0.009666109499999999 -0.005559321999999999 0.0 -0.0038234151 -0.012840077 0.0 -0.007584773 -0.024956534 0.0 -0.010923209 -0.0082066599 0.0 -0.0048934304999999996 -0.018152952 0.0 -0.0094481893 -0.034226805 0.0 -0.013473813999999999 -0.01194005 0.0 -0.0074238679000000005 -0.024806852 0.0 -0.013303317 -0.045321941 0.0 -0.018415092 -0.031442158 0.0 -0.020698885 -0.055848122 0.0 -0.027260937000000002 0.0 0.0 0.0 0.0 0.0 0.0 0.0 0.0 0.0 0.0 0.0 0.0 0.0 0.0 0.0 0.0 0.0 0.0 0.0 0.0 0.0 0.0 0.0 0.0 0.0 0.0 0.0 0.0 0.0 0.0 0.0 0.0 0.0 0.0 0.0 0.0 0.0 0.0 0.0 0.0 0.0 0.0 0.0 0.0 0.0 0.0 0.0 0.0 0.0 0.0 0.0 0.0 0.0 0.0 0.0 0.0 0.0 0.0 0.0 0.0 0.0 0.0 0.0 0.0 0.0 0.0 0.0 0.0 0.0 0.0 0.0 0.0 0.0 0.0 0.0 -2.1855448000000003e-07 0.0 -1.9300792000000002e-08 -1.4461308e-06 0.0 -6.518438099999999e-08 -3.5131291e-06 0.0 -5.8890183e-08 -5.330464799999999e-06 0.0 -6.5232362e-09 -6.3375145999999995e-06 0.0 1.5480653e-08 -7.0185947e-06 0.0 1.8292162e-08 -7.5325806e-06 0.0 1.8675065e-08 -9.6313806e-06 0.0 -1.8001176999999998e-06 -3.3189914e-05 0.0 -3.8940921e-06 -7.3871808e-05 0.0 -5.0410581e-06 -0.00012606879 0.0 -4.3570699e-06 -0.00017901197 0.0 -2.110577e-06 -0.00022286133999999998 0.0 4.4546692e-07 -0.00025347326000000004 0.0 1.9415354e-06 -0.00027349786 0.0 2.2302536e-06 -0.00011499188 0.0 -2.5648887e-05 -0.00026095269 0.0 -3.6510940999999995e-05 -0.00047291597 0.0 -3.909404e-05 -0.00072739326 0.0 -3.174656e-05 -0.0009851695500000001 0.0 -1.6630476e-05 -0.00120989 0.0 5.2152262e-07 -0.0013831523999999998 0.0 1.345078e-05 -0.0015054169 0.0 1.9544785e-05 -0.00050690526 0.0 -0.00012982633999999998 -0.00098530261 0.0 -0.00015798511999999998 -0.0016379656 0.0 -0.00015587444 -0.0023995857 0.0 -0.00012197983999999998 -0.0031664773999999997 0.0 -6.3842141e-05 -0.0038446290000000004 0.0 6.7292609e-07 -0.0043840795000000005 0.0 5.1651339e-05 -0.004779981 0.0 7.9761514e-05 -0.0014331747 0.0 -0.00041042142999999997 -0.0025857342 0.0 -0.00046283532999999996 -0.0041122464 0.0 -0.00043754553 -0.0058646989000000005 0.0 -0.00033450513999999995 -0.0076187914 0.0 -0.00017291488999999997 -0.009174799499999999 0.0 3.4147778999999998e-06 -0.010426715999999999 0.0 0.00014515948999999998 -0.011360618999999999 0.0 0.00022773114 -0.0030836631 0.0 -0.00098059257 -0.0053428742 0.0 -0.0010613423 -0.0082889609 0.0 -0.00097896974 -0.011637603 0.0 -0.00073575741 -0.014965424 0.0 -0.00037338972 -0.017907858000000002 0.0 1.5368114e-05 -0.020279977 0.0 0.00032880480000000003 -0.022059556 0.0 0.00051607919 -0.0054473327 0.0 -0.0019301595 -0.0092292586 0.0 -0.002042799 -0.014121831999999999 0.0 -0.0018566346 -0.019639101000000003 0.0 -0.0013737979 -0.025067829 0.0 -0.00067853439 -0.029830238 0.0 5.0745766000000005e-05 -0.033656605 0.0 0.00063390011 -0.036525559 0.0 0.0009855249699999998 -0.0082763005 0.0 -0.0032726854999999997 -0.013847264 0.0 -0.0034218351000000003 -0.021003319 0.0 -0.0030781266 -0.028997473 0.0 -0.0022367132 -0.036755838 0.0 -0.0010625622 -0.043494767999999996 0.0 0.00013035571000000003 -0.048876460999999996 0.0 0.0010696144000000001 -0.05289115 0.0 0.0016358903 -0.011164152 0.0 -0.0048972028 -0.018530535 0.0 -0.0050810156 -0.027871108 0.0 -0.0045078569 -0.013771831000000002 0.0 -0.0065642847 -0.02270438 0.0 -0.0067573413 -0.016077327 0.0 -0.0080039669 -0.026373776 0.0 -0.0081415987 -0.018382968 0.0 -0.0090725813 -0.030055268 0.0 -0.0091062728 -0.021277632999999997 0.0 -0.0098006632 -0.034546278 0.0 -0.0097062774 -0.025594577 0.0 -0.010368644 -0.040953692 0.0 -0.010142529 -0.032318968 0.0 -0.011109381000000002 -0.050527588 0.0 -0.010762323999999998 -0.042519808 0.0 -0.012550327 -0.064510375 0.0 -0.012094424 -0.056799993 0.0 -0.015503597 -0.083547667 0.0 -0.014945703000000001 -0.07386098099999999 0.0 -0.021197306000000003 -0.10631058 0.0 -0.020578805 -0.090263791 0.0 -0.031285942000000004 -0.1290292 0.0 -0.030797945 0.0 0.0 0.0 0.0 0.0 0.0 0.0 0.0 0.0 0.0 0.0 0.0 0.0 0.0 0.0 0.0 0.0 0.0 0.0 0.0 0.0 0.0 0.0 0.0 0.0 0.0 0.0 0.0 0.0 0.0 0.0 0.0 0.0 0.0 0.0 0.0 0.0 0.0 0.0 0.0 0.0 0.0 0.0 0.0 0.0 0.0 0.0 0.0 0.0 0.0 0.0 0.0 0.0 0.0 0.0 0.0 0.0 0.0 0.0 0.0 0.0 0.0 0.0 0.0 0.0 0.0 0.0 0.0 0.0 0.0 0.0 0.0 0.0 0.0 0.0 0.0 0.0 0.0 0.0 0.0 0.0 -7.8974426e-06 0.0 1.7572912e-08 -8.1389917e-06 0.0 1.5622097e-08 -8.2849083e-06 0.0 1.3321841e-08 -8.3613941e-06 0.0 1.1114611e-08 -8.3913028e-06 0.0 9.0519574e-09 -8.3930845e-06 0.0 7.2273028e-09 -8.3809473e-06 0.0 5.7281175e-09 -8.3653385e-06 0.0 4.5966675e-09 -8.3532641e-06 0.0 3.9023647e-09 -0.00028759407 0.0 2.1441683e-06 -0.00029721059 0.0 1.9391975e-06 -0.00030327393 0.0 1.6806647e-06 -0.00030669675 0.0 1.4121223e-06 -0.00030829315 0.0 1.1589995000000001e-06 -0.00030874225 0.0 9.3588369e-07 -0.00030857773 0.0 7.5138638e-07 -0.00030819382000000004 0.0 6.135710500000001e-07 -0.00030785962 0.0 5.284291500000001e-07 -0.0015875695999999998 0.0 2.0035644e-05 -0.0016429323 0.0 1.8404467e-05 -0.0016784942999999999 0.0 1.6136521e-05 -0.0016991763 0.0 1.3681925e-05 -0.0017094362 0.0 1.1321189999999999e-05 -0.0017130257999999998 0.0 9.220762e-06 -0.0017129210999999999 0.0 7.4866962000000004e-06 -0.0017113401999999998 0.0 6.1923806e-06 -0.0017098025 0.0 5.3926892e-06 -0.0050539365 0.0 8.7369423e-05 -0.0052358247 0.0 8.2367536e-05 -0.00535258 0.0 7.300413599999999e-05 -0.0054214224 0.0 6.2425286e-05 -0.005456504399999999 0.0 5.2043523999999996e-05 -0.0054697902000000005 0.0 4.2725598e-05 -0.0054708049 0.0 3.5007334999999995e-05 -0.0054666749 0.0 2.9246801000000002e-05 -0.0054622991 0.0 2.5689569e-05 -0.012017953 0.0 0.0002555745 -0.012458485 0.0 0.00024729944 -0.012738943999999999 0.0 0.00022159441000000002 -0.012904617 0.0 0.00019097487 -0.012989562 0.0 0.00016031202 -0.013022309 0.0 0.00013252083 -0.01302556 0.0 0.00010940647 -0.01301629 0.0 9.2130475e-05 -0.013006201 0.0 8.1460246e-05 -0.023320498 0.0 0.00058473519 -0.024170037000000002 0.0 0.00057314709 -0.0247097 0.0 0.0005194185099999999 -0.02502569 0.0 0.00045077439000000005 -0.025185969 0.0 0.00038074142999999994 -0.025245978 0.0 0.00031664318999999997 -0.025249712 0.0 0.0002630775 -0.025230017 0.0 0.00022296075 -0.025209451 0.0 0.00019816567 -0.038558051 0.0 0.0011195433 -0.039925564 0.0 0.0011038033 -0.040789951 0.0 0.0010082001 -0.041288298 0.0 0.0008801766699999999 -0.041533772000000004 0.0 0.0007474400299999999 -0.041618063999999996 0.0 0.00062486326 -0.041613407000000005 0.0 0.0005219439599999999 -0.041573629 0.0 0.00044468297999999994 -0.041535504 0.0 0.0003968828 -0.055718549000000006 0.0 0.0018552882000000001 -0.057605832999999995 0.0 0.0018336287 -0.058784597 0.0 0.0016827323999999999 -0.059447657 0.0 0.0014766870000000002 -0.059756927 0.0 0.0012600159 -0.059844282 0.0 0.0010583421000000001 -0.059812825 0.0 0.00088825065 -0.059738893 0.0 0.00076025666 -0.059674498 0.0 0.00068097882 0.0 0.0 0.0 0.0 0.0 0.0 0.0 0.0 0.0 0.0 0.0 0.0 0.0 0.0 0.0 0.0 0.0 0.0 0.0 0.0 0.0 0.0 0.0 0.0 0.0 0.0 0.0 0.0 0.0 0.0 0.0 0.0 0.0 0.0 0.0 0.0 0.0 0.0 0.0 0.0 0.0 0.0 0.0 0.0 0.0 0.0 0.0 0.0 0.0 0.0 0.0 0.0 0.0 0.0 0.0 0.0 0.0 0.0 0.0 0.0 0.0 0.0 0.0 0.0 0.0 0.0 0.0 0.0 0.0 0.0 0.0 0.0 -8.3487994e-06 0.0 3.6667114e-09 -8.3532632e-06 0.0 3.9023798e-09 -8.3653367e-06 0.0 4.5966839e-09 -8.3809464e-06 0.0 5.7281113e-09 -8.3930854e-06 0.0 7.227293e-09 -8.391301e-06 0.0 9.0519627e-09 -8.3613968e-06 0.0 1.1114614999999999e-08 -8.2849101e-06 0.0 1.3321836999999998e-08 -0.00030773148 0.0 4.9951848e-07 -0.00030785971 0.0 5.2842989e-07 -0.00030819382000000004 0.0 6.1357173e-07 -0.0003085777 0.0 7.5138655e-07 -0.00030874222 0.0 9.3588335e-07 -0.00030829315 0.0 1.1589991999999999e-06 -0.00030669682999999996 0.0 1.4121223999999997e-06 -0.00030327388 0.0 1.6806656e-06 -0.0017091932999999998 0.0 5.1224642e-06 -0.0017098025 0.0 5.3926933e-06 -0.00171134 0.0 6.1923865e-06 -0.0017129210999999999 0.0 7.4867007e-06 -0.0017130254 0.0 9.2207629e-06 -0.0017094363 0.0 1.1321189e-05 -0.0016991763 0.0 1.3681926000000001e-05 -0.0016784935999999999 0.0 1.6136528e-05 -0.0054605287 0.0 2.4486898999999998e-05 -0.005462298199999999 0.0 2.5689591e-05 -0.0054666735 0.0 2.9246816e-05 -0.0054708049 0.0 3.5007357e-05 -0.0054697897 0.0 4.2725602e-05 -0.0054565039000000004 0.0 5.2043535e-05 -0.0054214219999999995 0.0 6.2425279e-05 -0.00535258 0.0 7.3004165e-05 -0.013002089 0.0 7.785199e-05 -0.013006199 0.0 8.146029e-05 -0.013016287 0.0 9.2130562e-05 -0.013025556 0.0 0.00010940653 -0.013022311000000002 0.0 0.00013252087 -0.012989566000000001 0.0 0.00016031208999999999 -0.012904623 0.0 0.000190975 -0.012738945 0.0 0.00022159457000000003 -0.025201162000000003 0.0 0.00018977823000000001 -0.025209455 0.0 0.00019816574 -0.025230008999999998 0.0 0.00022296088 -0.025249714 0.0 0.00026307767000000005 -0.025245978 0.0 0.00031664318999999997 -0.025185965 0.0 0.00038074146 -0.025025686000000002 0.0 0.00045077439000000005 -0.024709703 0.0 0.00051941845 -0.041520469 0.0 0.00038070919 -0.041535512000000004 0.0 0.00039688303 -0.041573636000000004 0.0 0.00044468333 -0.0416134 0.0 0.0005219442 -0.041618052999999995 0.0 0.00062486361 -0.041533772000000004 0.0 0.00074744009 -0.041288309 0.0 0.00088017719 -0.040789966000000004 0.0 0.0010082008 -0.059649728 0.0 0.0006541451400000001 -0.059674501 0.0 0.00068097911 -0.059738877999999995 0.0 0.0007602570699999999 -0.059812844000000004 0.0 0.00088825141 -0.059844262999999995 0.0 0.0010583425 -0.059756937999999996 0.0 0.001260016 -0.05944765 0.0 0.0014766873999999999 -0.058784578 0.0 0.0016827323999999999 0.0 0.0 0.0 0.0 0.0 0.0 0.0 0.0 0.0 0.0 0.0 0.0 0.0 0.0 0.0 0.0 0.0 0.0 0.0 0.0 0.0 0.0 0.0 0.0 0.0 0.0 0.0 0.0 0.0 0.0 0.0 0.0 0.0 0.0 0.0 0.0 0.0 0.0 0.0 0.0 0.0 0.0 0.0 0.0 0.0 0.0 0.0 0.0 0.0 0.0 0.0 0.0 0.0 0.0 0.0 0.0 0.0 0.0 0.0 0.0 0.0 0.0 0.0 0.0 0.0 0.0 0.0 0.0 0.0 0.0 0.0 0.0 0.0 0.0 0.0 0.0 0.0 0.0 0.0 0.0 0.0 -8.1389899e-06 0.0 1.562211e-08 -7.8974426e-06 0.0 1.7572946e-08 -7.5325806e-06 0.0 1.867507e-08 -7.0185947e-06 0.0 1.8292159e-08 -6.337516e-06 0.0 1.5480662e-08 -5.3304657e-06 0.0 -6.5232619e-09 -3.5131307000000003e-06 0.0 -5.8890212e-08 -1.4461313999999998e-06 0.0 -6.5184395e-08 -2.1855452e-07 0.0 -1.9300789e-08 -0.00029721059 0.0 1.9391987e-06 -0.00028759413 0.0 2.144169e-06 -0.00027349786 0.0 2.2302537999999998e-06 -0.0002534732 0.0 1.9415356e-06 -0.00022286133999999998 0.0 4.4546590000000003e-07 -0.00017901199 0.0 -2.1105784e-06 -0.00012606883 0.0 -4.357070799999999e-06 -7.3871823e-05 0.0 -5.041059e-06 -3.3189925e-05 0.0 -3.8940921e-06 -0.0016429323 0.0 1.8404478e-05 -0.0015875697 0.0 2.0035652e-05 -0.0015054174 0.0 1.9544777e-05 -0.0013831521 0.0 1.345078e-05 -0.00120989 0.0 5.215157399999999e-07 -0.00098516978 0.0 -1.6630496000000002e-05 -0.00072739337 0.0 -3.1746564e-05 -0.00047291626 0.0 -3.9094048e-05 -0.00026095274 0.0 -3.6510944e-05 -0.0052358243 0.0 8.236757999999999e-05 -0.0050539351 0.0 8.736943e-05 -0.0047799814 0.0 7.9761536e-05 -0.004384079 0.0 5.1651339e-05 -0.0038446288 0.0 6.729046e-07 -0.0031664779 0.0 -6.384217e-05 -0.0023995864 0.0 -0.00012197988000000001 -0.001637966 0.0 -0.00015587446000000002 -0.00098530296 0.0 -0.00015798515 -0.012458485 0.0 0.00024729953 -0.012017956000000002 0.0 0.00025557465 -0.011360621999999999 0.0 0.00022773109 -0.010426712 0.0 0.00014515937 -0.0091747986 0.0 3.4147075999999997e-06 -0.0076187919 0.0 -0.00017291494 -0.005864701700000001 0.0 -0.00033450531000000003 -0.004112246 0.0 -0.00043754547 -0.0025857356 0.0 -0.00046283532999999996 -0.024170035 0.0 0.0005731471499999999 -0.023320496 0.0 0.00058473542 -0.022059554 0.0 0.00051607913 -0.020279981000000002 0.0 0.00032880480000000003 -0.017907858000000002 0.0 1.5368074e-05 -0.014965423 0.0 -0.00037338972 -0.011637606000000002 0.0 -0.00073575799 -0.00828896 0.0 -0.00097896985 -0.0053428742 0.0 -0.0010613424 -0.039925549 0.0 0.0011038033 -0.038558062000000004 0.0 0.0011195436 -0.036525548 0.0 0.0009855254300000001 -0.033656597 0.0 0.0006338997599999999 -0.029830227 0.0 5.0745820999999995e-05 -0.025067829 0.0 -0.0006785345 -0.019639106 0.0 -0.0013737979999999999 -0.014121835 0.0 -0.0018566352 -0.009229260500000001 0.0 -0.0020427988 -0.05760581 0.0 0.0018336292 -0.055718537 0.0 0.0018552883 -0.05289114599999999 0.0 0.0016358903 -0.048876457000000005 0.0 0.0010696136999999999 -0.043494772 0.0 0.00013035542999999998 -0.03675583 0.0 -0.0010625628 -0.028997473 0.0 -0.0022367137 -0.021003315 0.0 -0.003078128 -0.013847263 0.0 -0.0034218344 -0.027871091 0.0 -0.0045078569 -0.018530538 0.0 -0.0050810156 -0.022704374 0.0 -0.006757340400000001 -0.026373774 0.0 -0.0081415977 -0.030055263999999998 0.0 -0.0091062738 -0.034546278 0.0 -0.0097062802 -0.040953677 0.0 -0.01014253 -0.050527573 0.0 -0.010762321000000002 -0.064510368 0.0 -0.012094427 -0.083547674 0.0 -0.014945703999999999 -0.10631058 0.0 -0.020578802 -0.12902921 0.0 -0.03079794 0.0 0.0 0.0 0.0 0.0 0.0 0.0 0.0 0.0 0.0 0.0 0.0 0.0 0.0 0.0 0.0 0.0 0.0 0.0 0.0 0.0 0.0 0.0 0.0 0.0 0.0 0.0 0.0 0.0 0.0 0.0 0.0 0.0 0.0 0.0 0.0 0.0 0.0 0.0 0.0 0.0 0.0 0.0 0.0 0.0 -9.6313797e-06 0.0 -1.8001176999999998e-06 -1.0455643e-06 0.0 -2.8450015000000005e-07 0.0 0.0 0.0 0.0 0.0 0.0 -0.0001149919 0.0 -2.5648878e-05 -3.5360663e-05 0.0 -1.1678565000000001e-05 -4.909371e-06 0.0 -2.0707407e-06 -5.1875368e-17 0.0 -2.2177156e-17 -0.00050690543 0.0 -0.00012982631000000002 -0.00021067374 0.0 -8.0674879e-05 -6.1693077e-05 0.0 -3.0881405e-05 -8.3644645e-06 0.0 -4.3541759e-06 -0.0014331751 0.0 -0.00041042129 -0.0006796521499999999 0.0 -0.00029270086 -0.00025802618 0.0 -0.0001468773 -6.6291585e-05 0.0 -4.0391849e-05 -0.0030836628000000003 0.0 -0.00098059245 -0.0015662992000000002 0.0 -0.0007515371000000001 -0.00067346235 0.0 -0.00043032614999999997 -0.00022321827000000002 0.0 -0.00015495453 -0.0054473332 0.0 -0.0019301595999999999 -0.0028735497 0.0 -0.0015391994000000001 -0.0013203454 0.0 -0.00094735064 -0.00049624447 0.0 -0.00039161633999999996 -0.0082763024 0.0 -0.0032726859000000003 -0.004456474 0.0 -0.0026674483000000003 -0.0021215801 0.0 -0.0017110348999999998 -0.00085070689 0.0 -0.00076459028 -0.01116415 0.0 -0.0048972033 -0.0060789813 0.0 -0.0040411414 -0.0029457011 0.0 -0.0026561057 -0.0012177164 0.0 -0.001242326 -0.013771828 0.0 -0.0065642865000000005 -0.0075473175 0.0 -0.0054672984 -0.0036834746 0.0 -0.0036502980999999998 -0.0015372694 0.0 -0.0017541996 -0.016077328000000002 0.0 -0.008003968699999999 -0.0088390093 0.0 -0.0067343288 -0.004317426599999999 0.0 -0.0045495839 -0.0017968698999999999 0.0 -0.0022218144 -0.01838297 0.0 -0.0090725813 -0.010126999 0.0 -0.007717046 -0.0049419957 0.0 -0.00526493 -0.0020434045999999997 0.0 -0.0025964396 -0.021277636000000003 0.0 -0.009800666 -0.01178347 0.0 -0.0084228059 -0.0057616979 0.0 -0.0057934821 -0.0023742625 0.0 -0.0028766921999999998 -0.025594579 0.0 -0.010368644 -0.014348078 0.0 -0.0089833634 -0.007078119599999999 0.0 -0.006215328399999999 -0.0029314104 0.0 -0.003103832 -0.03231898 0.0 -0.011109385 -0.01848409 0.0 -0.0096661085 -0.009276554000000001 0.0 -0.0067033456000000005 -0.0039048234 0.0 -0.0033600209000000003 -0.042519812000000004 0.0 -0.012550318999999999 -0.024956532000000003 0.0 -0.01092321 -0.012840075 0.0 -0.0075847711 -0.0055593229 0.0 -0.0038234149 -0.056800015 0.0 -0.015503597 -0.034226801 0.0 -0.013473812 -0.01815295 0.0 -0.0094481856 -0.0082066599 0.0 -0.00489343 -0.073860988 0.0 -0.021197302 -0.045321941 0.0 -0.018415092 -0.024806855 0.0 -0.013303316 -0.011940052 0.0 -0.0074238665 -0.090263791 0.0 -0.031285934 -0.055848133 0.0 -0.027260932999999998 -0.031442154 0.0 -0.020698883 0.0 0.0 0.0 0.0 0.0 0.0 0.0 0.0 0.0 0.0 0.0 0.0 0.0 0.0 0.0 0.0 0.0 0.0 0.0 0.0 0.0 0.0 0.0 0.0 0.0 0.0 0.0 0.0 0.0 0.0 0.0 0.0 0.0 0.0 0.0 0.0 0.0 0.0 0.0 0.0 0.0 0.0 0.0 0.0 0.0 0.0 0.0 0.0 0.0 0.0 0.0 0.0 0.0 0.0 0.0 0.0 0.0 0.0 0.0 0.0 0.0 0.0 0.0 0.0 0.0 0.0 0.0 0.0 0.0 0.0 0.0 0.0 0.0 0.0 0.0 0.0 0.0 0.0 0.0 0.0 0.0 0.0 0.0 0.0 0.0 0.0 0.0 0.0 0.0 0.0 0.0 0.0 0.0 0.0 0.0 0.0 0.0 0.0 0.0 0.0 0.0 0.0 0.0 0.0 0.0 0.0 0.0 0.0 0.0 0.0 0.0 0.0 0.0 0.0 0.0 0.0 0.0 0.0 0.0 0.0 0.0 0.0 0.0 0.0 0.0 0.0 0.0 0.0 0.0 0.0 0.0 0.0 0.0 0.0 0.0 0.0 0.0 0.0 0.0 0.0 0.0 0.0 0.0 0.0 0.0 0.0 0.0 0.0 0.0 0.0 0.0 0.0 0.0 0.0 0.0 0.0 0.0 0.0 0.0 0.0 0.0 0.0 0.0 0.0 0.0 0.0 0.0 0.0 0.0 0.0 0.0 0.0 0.0 0.0 0.0 0.0 0.0 0.0 0.0 0.0 0.0 0.0 0.0 0.0 0.0 0.0 0.0 0.0 0.0 0.0 0.0 0.0 0.0 0.0 0.0 0.0 0.0 0.0 0.0 0.0 0.0 0.0 0.0 0.0 0.0 0.0 0.0 0.0 0.0 0.0 0.0 0.0 0.0 0.0 0.0 0.0 0.0 0.0 0.0 0.0 0.0 0.0 0.0 0.0 0.0 0.0 0.0 0.0 0.0 0.0 0.0 0.0 0.0 0.0 0.0 0.0 0.0 0.0 0.0 0.0 0.0 0.0 0.0 0.0 0.0 0.0 0.0 0.0 0.0 0.0 0.0 0.0 0.0 0.0 0.0 0.0 0.0 0.0 0.0 0.0 0.0 0.0 0.0 0.0 0.0 0.0 0.0 0.0 0.0 0.0 0.0 0.0 0.0 0.0 0.0 0.0 0.0 0.0 0.0 0.0 0.0 0.0 0.0 0.0 0.0 0.0 0.0 0.0 0.0 0.0 0.0 0.0 0.0 0.0 0.0 0.0 0.0 0.0 0.0 0.0 0.0 0.0 0.0 0.0 0.0 0.0 0.0 0.0 0.0 0.0 0.0 0.0 0.0 0.0 0.0 0.0 0.0 0.0 0.0 0.0 0.0 0.0 0.0 0.0 0.0 0.0 0.0 0.0 0.0 0.0 0.0 0.0 0.0 0.0 0.0 0.0 0.0 0.0 0.0 0.0 0.0 0.0 0.0 0.0 0.0 0.0 0.0 0.0 0.0 0.0 0.0 0.0 0.0 0.0 0.0 0.0 0.0 0.0 0.0 0.0 0.0 0.0 0.0 0.0 0.0 0.0 0.0 0.0 0.0 0.0 0.0 0.0 0.0 0.0 0.0 0.0 0.0 0.0 0.0 0.0 0.0 0.0 0.0 0.0 0.0 0.0 0.0 0.0 0.0 0.0 0.0 0.0 0.0 0.0 0.0 0.0 0.0 0.0 0.0 0.0 0.0 0.0 0.0 0.0 0.0 0.0 0.0 0.0 0.0 0.0 0.0 0.0 0.0 0.0 0.0 0.0 0.0 0.0 0.0 0.0 0.0 0.0 0.0 0.0 0.0 0.0 0.0 0.0 0.0 0.0 0.0 0.0 0.0 0.0 0.0 0.0 0.0 0.0 0.0 0.0 0.0 0.0 0.0 0.0 0.0 0.0 0.0 0.0 0.0 0.0 0.0 0.0 0.0 0.0 0.0 0.0 0.0 0.0 0.0 0.0 0.0 0.0 0.0 0.0 0.0 0.0 0.0 0.0 0.0 0.0 0.0 0.0 0.0 0.0 0.0 0.0 0.0 0.0 0.0 0.0 0.0 0.0 0.0 0.0 0.0 0.0 0.0 0.0 0.0 0.0 0.0 0.0 0.0 0.0 0.0 0.0 0.0 0.0 0.0 0.0 0.0 0.0 0.0 0.0 0.0 0.0 0.0 0.0 0.0 0.0 0.0 0.0 0.0 0.0 0.0 0.0 0.0 0.0 0.0 0.0 0.0 0.0 0.0 0.0 0.0 0.0 0.0 0.0 0.0 0.0 0.0 0.0 0.0 0.0 0.0 0.0 0.0 0.0 0.0 0.0 0.0 0.0 0.0 0.0 0.0 0.0 0.0 0.0 0.0 0.0 0.0 0.0 0.0 0.0 0.0 0.0 0.0 0.0 0.0 0.0 0.0 0.0 0.0 0.0 0.0 0.0 0.0 0.0 0.0 0.0 0.0 0.0 0.0 0.0 0.0 0.0 0.0 0.0 0.0 0.0 0.0 0.0 0.0 0.0 0.0 0.0 0.0 0.0 0.0 0.0 0.0 0.0 0.0 0.0 0.0 0.0 0.0 0.0 0.0 0.0 0.0 0.0 0.0 0.0 0.0 0.0 0.0 0.0 0.0 0.0 0.0 0.0 0.0 0.0 0.0 0.0 0.0 0.0 0.0 0.0 0.0 0.0 0.0 0.0 0.0 0.0 0.0 0.0 0.0 0.0 0.0 0.0 0.0 0.0 0.0 0.0 0.0 0.0 0.0 0.0 0.0 0.0 0.0 0.0 0.0 0.0 0.0 0.0 0.0 0.0 0.0 0.0 0.0 0.0 0.0 0.0 0.0 0.0 0.0 0.0 0.0 0.0 0.0 0.0 0.0 0.0 0.0 0.0 0.0 0.0 0.0 0.0 0.0 0.0 0.0 0.0 0.0 0.0 0.0 0.0 0.0 0.0 0.0 0.0 0.0 0.0 0.0 0.0 0.0 0.0 0.0 0.0 0.0 0.0 0.0 0.0 0.0 0.0 0.0 0.0 0.0 0.0 0.0 0.0 0.0 0.0 0.0 0.0 0.0 0.0 0.0 0.0 0.0 0.0 0.0 0.0 0.0 0.0 0.0 0.0 0.0 0.0 0.0 0.0 0.0 0.0 0.0 0.0 0.0 0.0 0.0 0.0 0.0 0.0 0.0 0.0 0.0 0.0 0.0 0.0 0.0 0.0 0.0 0.0 0.0 0.0 0.0 0.0 0.0 0.0 0.0 0.0 0.0 0.0 0.0 0.0 0.0 0.0 0.0 0.0 0.0 0.0 0.0 0.0 0.0 0.0 0.0 0.0 0.0 0.0 0.0 0.0 0.0 0.0 0.0 0.0 0.0 0.0 0.0 0.0 0.0 0.0 0.0 0.0 0.0 0.0 0.0 0.0 0.0 0.0 0.0 0.0 0.0 0.0 0.0 0.0 0.0 0.0 0.0 0.0 0.0 0.0 0.0 0.0 0.0 0.0 0.0 0.0 0.0 0.0 0.0 0.0 0.0 0.0 0.0 0.0 0.0 0.0 0.0 0.0 0.0 0.0 0.0 0.0 0.0 0.0 0.0 0.0 0.0 0.0 0.0 0.0 0.0 0.0 0.0 0.0 0.0 0.0 0.0 0.0 0.0 0.0 0.0 0.0 0.0 0.0 0.0 0.0 0.0 0.0 0.0 0.0 0.0 0.0 0.0 0.0 0.0 0.0 0.0 0.0 0.0 0.0 0.0 0.0 0.0 0.0 0.0 0.0 0.0 0.0 0.0 0.0 0.0 0.0 0.0 0.0 0.0 0.0 0.0 0.0 0.0 0.0 0.0 0.0 0.0 0.0 0.0 0.0 0.0 0.0 0.0 0.0 0.0 0.0 0.0 0.0 0.0 0.0 0.0 0.0 0.0 0.0 0.0 0.0 0.0 0.0 0.0 0.0 0.0 0.0 0.0 0.0 0.0 0.0 0.0 0.0 0.0 0.0 0.0 0.0 0.0 0.0 0.0 0.0 0.0 0.0 0.0 0.0 0.0 0.0 0.0 0.0 0.0 0.0 0.0 0.0 0.0 0.0 0.0 0.0 0.0 0.0 0.0 0.0 0.0 0.0 0.0 0.0 0.0 0.0 0.0 0.0 0.0 0.0 0.0 0.0 0.0 0.0 0.0 0.0 0.0 0.0 0.0 0.0 0.0 0.0 0.0 0.0 0.0 0.0 0.0 0.0 0.0 0.0 0.0 0.0 0.0 0.0 0.0 0.0 0.0 0.0 0.0 0.0 0.0 0.0 0.0 0.0 0.0 0.0 0.0 0.0 0.0 0.0 0.0 0.0 0.0 0.0 0.0 0.0 0.0 0.0 0.0 0.0 0.0 0.0 0.0 0.0 0.0 0.0 0.0 0.0 0.0 0.0 0.0 0.0 0.0 0.0 0.0 0.0 0.0 0.0 0.0 0.0 0.0 0.0 0.0 0.0 0.0 0.0 0.0 0.0 0.0 0.0 0.0 0.0 0.0 0.0 0.0 0.0 0.0 0.0 0.0 0.0 0.0 0.0 0.0 0.0 0.0 0.0 0.0 0.0 0.0 0.0 0.0 0.0 0.0 0.0 0.0 0.0 0.0 0.0 0.0 0.0 0.0 0.0 0.0 0.0 0.0 0.0 0.0 0.0 0.0 0.0 0.0 0.0 0.0 0.0 0.0 0.0 0.0 0.0 0.0 0.0 0.0 0.0 0.0 0.0 0.0 0.0 0.0 0.0 0.0 0.0 0.0 0.0 0.0 0.0 0.0 0.0 0.0 0.0 0.0 0.0 0.0 0.0 0.0 0.0 0.0 0.0 0.0 0.0 0.0 0.0 0.0 0.0 0.0 0.0 0.0 0.0 0.0 0.0 0.0 0.0 0.0 0.0 0.0 0.0 0.0 0.0 0.0 0.0 0.0 0.0 0.0 0.0 0.0 0.0 0.0 0.0 0.0 0.0 0.0 0.0 0.0 0.0 0.0 0.0 0.0 0.0 0.0 0.0 0.0 0.0 0.0 0.0 0.0 0.0 0.0 0.0 0.0 0.0 0.0 0.0 0.0 0.0 0.0 0.0 0.0 0.0 0.0 0.0 0.0 0.0 0.0 0.0 0.0 0.0 0.0 0.0 0.0 0.0 0.0 0.0 0.0 0.0 0.0 0.0 0.0 0.0 0.0 0.0 0.0 0.0 0.0 0.0 0.0 0.0 0.0 0.0 0.0 0.0 0.0 0.0 0.0 0.0 0.0 0.0 0.0 0.0 0.0 0.0 0.0 0.0 0.0 0.0 0.0 0.0 0.0 0.0 0.0 0.0 0.0 0.0 0.0 0.0 0.0 0.0 0.0 0.0 0.0 0.0 0.0 0.0 0.0 0.0 0.0 0.0 0.0 0.0 0.0 0.0 0.0 0.0 0.0 0.0 0.0 0.0 0.0 0.0 0.0 0.0 0.0 0.0 0.0 0.0 0.0 0.0 0.0 0.0 0.0 0.0 0.0 0.0 0.0 0.0 0.0 0.0 0.0 0.0 0.0 0.0 0.0 0.0 0.0 0.0 0.0 0.0 0.0 0.0 0.0 0.0 0.0 0.0 0.0 0.0 0.0 0.0 0.0 0.0 0.0 0.0 0.0 0.0 0.0 0.0 0.0 0.0 0.0 0.0 0.0 0.0 0.0 0.0 0.0 0.0 0.0 0.0 0.0 0.0 0.0 0.0 0.0 0.0 0.0 0.0 0.0 0.0 0.0 0.0 0.0 0.0 0.0 0.0 0.0 0.0 0.0 0.0 0.0 0.0 0.0 0.0 0.0 0.0 0.0 0.0 0.0 0.0 0.0 0.0 0.0 0.0 0.0 0.0 0.0 0.0 0.0 0.0 0.0 0.0 0.0 0.0 0.0 0.0 0.0 0.0 0.0 0.0 0.0 0.0 0.0 0.0 0.0 0.0 0.0 0.0 0.0 0.0 0.0 0.0 0.0 0.0 0.0 0.0 0.0 0.0 0.0 0.0 0.0 0.0 0.0 0.0 0.0 0.0 0.0 0.0 0.0 0.0 0.0 0.0 0.0 0.0 0.0 0.0 0.0 0.0 0.0 0.0 0.0 0.0 0.0 0.0 0.0 0.0 0.0 0.0 0.0 0.0 0.0 0.0 0.0 0.0 0.0 0.0 0.0 0.0 -0.038078204 0.0 -0.0031366269 -0.047870964 0.0 -0.0014479669 -0.056317292000000005 0.0 0.00026425475 -0.06300842799999999 0.0 0.001594049 -0.067949787 0.0 0.0023932306 -0.033873774 0.0 -0.0054203579000000005 -0.04587673 0.0 -0.0039585121000000004 -0.057260655 0.0 -0.0017510192000000002 -0.066975884 0.0 0.000434021 -0.07456807 0.0 0.0021137914 -0.080079287 0.0 0.0031187495000000003 -0.039138101 0.0 -0.0064516403 -0.052765775 0.0 -0.0045613078 -0.065515324 0.0 -0.0019257665 -0.076201886 0.0 0.00061906595 -0.084377624 0.0 0.0025496786 -0.090162933 0.0 0.0036926629999999997 -0.044435910999999995 0.0 -0.0071260407999999996 -0.059648572999999996 0.0 -0.0049054055 -0.073672302 0.0 -0.0019618229 -0.085179865 0.0 0.0008062054400000001 -0.09374937400000001 0.0 0.0028645755 -0.099615164 0.0 0.0040584202 -0.050826475 0.0 -0.0074636680000000006 -0.06763063400000001 0.0 -0.0050068581 -0.082847528 0.0 -0.0018770564000000001 -0.095077008 0.0 0.0009806414599999999 -0.1039408 0.0 0.0030500660999999997 -0.10977568 0.0 0.0042150244 -0.060215052000000005 0.0 -0.0075731984999999995 -0.078432411 0.0 -0.0049467491999999995 -0.09443834400000001 0.0 -0.0017152920000000002 -0.1069998 0.0 0.0011276910000000001 -0.11591867 0.0 0.0031164953999999996 -0.12161723 0.0 0.0041991258 -0.075443022 0.0 -0.0076107495 -0.09452360900000001 0.0 -0.004855347800000001 -0.11021999 0.0 -0.0015277697 -0.1221175 0.0 0.0012661449 -0.13041942 0.0 0.0031251118 -0.13565639 0.0 0.0040950538 -0.10013759 0.0 -0.0077310028 -0.11868235 0.0 -0.0048957234 -0.13197775 0.0 -0.0013535663 -0.14144036 0.0 0.0014773225 -0.14795151 0.0 0.0032328571999999996 -0.15208997 0.0 0.0040814043 -0.13772143 0.0 -0.0081549771 -0.15280716 0.0 -0.0052316748 -0.16060083 0.0 -0.0011694045 -0.16536495 0.0 0.0019438673999999999 -0.16868012 0.0 0.0037180719 -0.17094401 0.0 0.0044564893 -0.18847342 0.0 -0.0099426862 -0.1956186 0.0 -0.006115710799999999 -0.19488832 0.0 -0.0008428311 -0.19320303 0.0 0.0030133940999999996 -0.19235131 0.0 0.0049951137 -0.19220145 0.0 0.0056282002 -0.24460958 0.0 -0.015299139 -0.24077003 0.0 -0.0080523379 -0.23100954 0.0 -0.00013977801 -0.22304167 0.0 0.0052212314 -0.21820287 0.0 0.007599524200000001 -0.21567939 0.0 0.0080671012 -0.28875011 0.0 -0.018116517 -0.27928486 0.0 -0.0093844915 -0.2643199 0.0 0.0019451929 -0.25266367 0.0 0.009294142 -0.24528836 0.0 0.012043443000000001 -0.24106133 0.0 0.012167721999999999 -0.31687546 0.0 0.009055815600000001 -0.30775201 0.0 0.0032953378000000005 -0.29299349 0.0 0.0094709266 -0.28105399 0.0 0.016279908 -0.27307296 0.0 0.018631527 -0.2681126 0.0 0.018047217 -0.33883029 0.0 0.041378543 -0.33065742 0.0 0.027663186 -0.31872267 0.0 0.024024241 -0.30873123 0.0 0.026479091 -0.30161405 0.0 0.027088928999999998 -0.29676017 0.0 0.025381807000000003 -0.35934994 0.0 0.061085582 -0.35255474 0.0 0.048492905 -0.34406868 0.0 0.040136229 -0.33681324 0.0 0.038111471 -0.33125463 0.0 0.036361944 -0.32701674 0.0 0.03347645 -0.38057384 0.0 0.070335612 -0.37593269 0.0 0.061748613 -0.3707726 0.0 0.05309248 -0.36618707 0.0 0.048555419 -0.3622973 0.0 0.045159988 -0.35891733 0.0 0.041571382000000004 -0.40438312 0.0 0.073940769 -0.40214798 0.0 0.068569727 -0.39970368 0.0 0.061576597000000004 -0.39730424 0.0 0.056690093 -0.39494166 0.0 0.052847835999999995 -0.39254206 0.0 0.049178325 -0.43189359 0.0 0.07531563200000001 -0.43156642 0.0 0.071930058 -0.43108714 0.0 0.066893853 -0.43039852 0.0 0.06289328599999999 -0.4294202 0.0 0.059467364 -0.42810676 0.0 0.056170508 -0.46302402 0.0 0.077033274 -0.46407071 0.0 0.074642822 -0.46505851 0.0 0.070916794 -0.46578982 0.0 0.06811577099999999 -0.46611369 0.0 0.065411672 -0.46593907 0.0 0.062665857 -0.49771461 0.0 0.080072038 -0.49984932 0.0 0.077904373 -0.50201505 0.0 0.074896336 -0.50395077 0.0 0.073103577 -0.50543791 0.0 0.071098112 -0.5063135 0.0 0.068914741 -0.53645337 0.0 0.08421160300000001 -0.53936678 0.0 0.082031079 -0.54239315 0.0 0.079423167 -0.54523951 0.0 0.07837224 -0.54763812 0.0 0.076878823 -0.54937297 0.0 0.075163715 -0.57958966 0.0 0.089485496 -0.5829069 0.0 0.087144315 -0.58641016 0.0 0.084801808 -0.58979446 0.0 0.084157817 -0.59277397 0.0 0.082933076 -0.59510469 0.0 0.081545457 -0.62731016 0.0 0.095785655 -0.63056123 0.0 0.093247168 -0.63405782 0.0 0.09102746099999999 -0.63751078 0.0 0.09039934699999999 -0.640652 0.0 0.089217566 -0.64324927 0.0 0.088032424 -0.67942154 0.0 0.10297268 -0.68198144 0.0 0.10019893 -0.68484062 0.0 0.09774106699999999 -0.6877625 0.0 0.096765265 -0.69054496 0.0 0.095502935 -0.69300675 0.0 0.094466485 -0.73459554 0.0 0.11075693 -0.73568267 0.0 0.10749608 -0.73712766 0.0 0.10421785 -0.73880196 0.0 0.10273369 -0.74062413 0.0 0.10149095 -0.74249649 0.0 0.1006732 -0.78925061 0.0 0.11843797 -0.78805357 0.0 0.1142319 -0.78727752 0.0 0.10948963 -0.78698796 0.0 0.10787255 -0.78726453 0.0 0.10706867 -0.78812343 0.0 0.10666753 -0.8364867 0.0 0.12490442 -0.83242905 0.0 0.11928749 -0.82886237 0.0 0.11281189 -0.82613134 0.0 0.11226347 -0.82450891 0.0 0.112665 -0.82411718 0.0 0.11296109 -0.86551207 0.0 0.12864301 -0.85864794 0.0 0.12164663 -0.85236615 0.0 0.11417654 -0.84733009 0.0 0.1169847 -0.84398514 0.0 0.11963239 -0.8425169 0.0 0.12085199 -0.86126012 0.0 0.12849668 -0.85283935 0.0 0.12092946 -0.8451885 0.0 0.11494173 -0.83916551 0.0 0.12425273 -0.83522528 0.0 0.13021682 -0.83353049 0.0 0.13244446 -0.80281347 0.0 0.12468772 -0.79583186 0.0 0.11833002 -0.79012758 0.0 0.11772214 -0.78641379 0.0 0.13642392 -0.7847541 0.0 0.14655489 -0.78498644 0.0 0.1500036 -0.66249895 0.0 0.12101056 -0.661668 0.0 0.11752155 -0.66292179 0.0 0.12735605 -0.66653156 0.0 0.15378301 -0.67182744 0.0 0.16881134 -0.67789084 0.0 0.17456105 -0.40998074 0.0 0.12461193 -0.42055255 0.0 0.12941135 -0.43392015 0.0 0.1437559 -0.44986579 0.0 0.17301482 -0.46693444 0.0 0.19498649 -0.48323694 0.0 0.20511699 -0.024362296000000002 0.0 0.14400245 -0.050130773 0.0 0.15905653 -0.07886206400000001 0.0 0.17150222 -0.1099124 0.0 0.19402 -0.14126755 0.0 0.22050732 -0.1702553 0.0 0.23829515 0.48742366 0.0 0.16367368 0.44666693 0.0 0.2032878 0.40337783 0.0 0.2107047 0.35893312 0.0 0.22203529 0.31542557 0.0 0.24343479 0.27568999 0.0 0.26922268 1.0728011999999998 0.0 0.13602412 1.0242232 0.0 0.21695258 0.97348613 0.0 0.23299788 0.92351955 0.0 0.24628715 0.87602681 0.0 0.26121807 0.83315474 0.0 0.29348129 1.6283448 0.0 0.12315445 1.5882311000000002 0.0 0.20633097 1.5453113 0.0 0.22449094 1.5043824 0.0 0.26067081 1.4667358 0.0 0.27674556 1.4331091999999999 0.0 0.31036705 2.0252442 0.0 0.09093561 2.0154116 0.0 0.16616666 2.0021644 0.0 0.20729919 1.9890851999999999 0.0 0.25893372 1.9776175 0.0 0.28599176 1.9669058000000001 0.0 0.32222459 2.1934647999999997 0.0 0.033327091 2.2201242000000003 0.0 0.12803605 2.2486835 0.0 0.16709691 2.2768242 0.0 0.22421952 2.302285 0.0 0.27097973 2.3225641 0.0 0.32068598 2.1717782000000003 0.0 -0.0049623968 2.2274485 0.0 0.11342999 2.2900407000000005 0.0 0.14459158 2.3531147999999997 0.0 0.20280957 2.411109 0.0 0.26202217 2.4593458 0.0 0.3204754 2.0595446 0.0 -0.013877944 2.1326237 0.0 0.1193886 2.2147408 0.0 0.15908466 2.2979481 0.0 0.20235699 2.3750021 0.0 0.26448923 2.4398842 0.0 0.32645714 1.9506723000000001 0.0 -0.007909771099999999 2.0298762 0.0 0.12552537 2.117501 0.0 0.18360722 2.2058105 0.0 0.2179185 2.287204 0.0 0.27698794 2.3552383999999997 0.0 0.33730662 1.890873 0.0 -0.00046349547 1.9670827000000002 0.0 0.1273059 2.0497215 0.0 0.201185 2.1317825 0.0 0.24033159 2.2058921000000002 0.0 0.29335049 2.2657439999999998 0.0 0.3492851 1.8700171 0.0 0.0021136957 1.9368411 0.0 0.12115343 2.0078139 0.0 0.20424762 2.076473 0.0 0.25461689 2.1357965 0.0 0.30570108 2.1799842999999997 0.0 0.35847756 1.8433936999999998 0.0 0.0063621686 1.896759 0.0 0.11268294 1.9519206999999998 0.0 0.19834957 2.0027802 0.0 0.25945696 2.042865 0.0 0.31118986 2.0673225 0.0 0.36264396 1.7658904 0.0 0.015885551 1.802758 0.0 0.10914568 1.8387282 0.0 0.19206767 1.8682120999999998 0.0 0.2577807 1.8858762999999998 0.0 0.31052598 1.888448 0.0 0.36157909 1.6197218 0.0 0.028419692000000003 1.6367333999999998 0.0 0.11217257 1.6496891 0.0 0.19070771 1.6539482 0.0 0.25195313 1.6460556 0.0 0.30507612 1.62517 0.0 0.35629946 1.4199511 0.0 0.045829765 1.4138271 0.0 0.12495194 1.4000939 0.0 0.18941075 1.3757149 0.0 0.2437394 1.3398811000000002 0.0 0.29595143 1.295213 0.0 0.34793425 1.2001175 0.0 0.071308464 1.1690838 0.0 0.14804953 1.1270263999999999 0.0 0.18810917 1.0732483 0.0 0.2327656 1.0107177 0.0 0.2867803 0.94543576 0.0 0.33757567 0.99340522 0.0 0.096787475 0.93844473 0.0 0.171472 0.86984116 0.0 0.18572581 0.79015857 0.0 0.22648105 0.70632827 0.0 0.27917325 0.62631518 0.0 0.32513475 0.81711841 0.0 0.10774755 0.74309736 0.0 0.18187951 0.65402514 0.0 0.18101083 0.55567455 0.0 0.22515039 0.45835298 0.0 0.26825681 0.37082586 0.0 0.30953512 0.67109764 0.0 0.10404021 0.58626938 0.0 0.17714925 0.48540992 0.0 0.17451167 0.37696487 0.0 0.21793351 0.27508333 0.0 0.25298235 0.18737215 0.0 0.29041165 0.54719543 0.0 0.08669351 0.46035367 0.0 0.16036896 0.35395175 0.0 0.16492583 0.24430193 0.0 0.2057195 0.14665027 0.0 0.23601493 0.065507688 0.0 0.26861754 0.44769907 0.0 0.049589533 0.35768917 0.0 0.13689971 0.24414253 0.0 0.15902834 0.14159639 0.0 0.1936229 0.055868108 0.0 0.21919143 -0.013084468 0.0 0.24546832 0.38653359 0.0 0.075156055 0.26355574 0.0 0.13597415 0.14692079 0.0 0.15393889 0.056071755 0.0 0.18466794 -0.012535405 0.0 0.20460236 -0.065511055 0.0 0.22336912 0.31807196 0.0 0.079636931 0.17936239 0.0 0.12627187 0.059420045 0.0 0.14470612 -0.017689458999999998 0.0 0.17532617 -0.067542188 0.0 0.19316237 -0.1032761 0.0 0.20383646 0.11147157 0.0 0.11481249 -0.012683258999999999 0.0 0.1272718 -0.078457668 0.0 0.15773255 -0.11183431 0.0 0.18083408 -0.13192989 0.0 0.18769915 0.066732131 0.0 0.1028884 -0.055004254 0.0 0.11287901 -0.12053741 0.0 0.13252382 -0.14443861 0.0 0.1641577 -0.15357023 0.0 0.17349485 -0.056865845 0.0 0.10569402 -0.13595945 0.0 0.10971337 -0.16294903 0.0 0.1414472 -0.16825014 0.0 0.1599405 -0.032954309 0.0 0.10051318 -0.11387219 0.0 0.10096336 -0.16151005 0.0 0.1158878 -0.17329115 0.0 0.14425012 -0.061827078 0.0 0.10802983 -0.12742947 0.0 0.10562776 -0.15862262 0.0 0.12970217 -0.064651377 0.0 0.1133849 -0.10622851 0.0 0.12853187 -0.059852723 0.0 0.10197204 -0.041156475 0.0 0.13615672 -0.071386635 0.0 0.0027044588 -0.073645368 0.0 0.0026753652000000004 -0.075025842 0.0 0.0024635533 -0.075771593 0.0 0.0021723746 -0.07608659599999999 0.0 0.0018624414000000002 -0.076137722 0.0 0.0015717705999999999 -0.076054275 0.0 0.0013255137 -0.07593105 0.0 0.0011397506 -0.07583242700000001 0.0 0.0010245505000000001 -0.083833203 0.0 0.0035096656 -0.086238265 0.0 0.0034738178000000004 -0.087655991 0.0 0.0032099384999999996 -0.088370062 0.0 0.002845502 -0.08861552199999999 0.0 0.0024527783999999998 -0.08858382699999999 0.0 0.0020813476 -0.088421419 0.0 0.0017650522 -0.08823470800000001 0.0 0.0015257931 -0.08809526300000001 0.0 0.0013772008 -0.093984082 0.0 0.0041320454 -0.096339375 0.0 0.0040900819 -0.097648814 0.0 0.0037949603999999997 -0.098228648 0.0 0.0033855506 -0.098337114 0.0 0.0029379147999999996 -0.098180667 0.0 0.0025101756 -0.097915031 0.0 0.0021435826 -0.09765184699999999 0.0 0.0018652596 -0.097465619 0.0 0.0016920685 -0.10333183 0.0 0.0045043011 -0.10549815 0.0 0.0044558304 -0.10659236 0.0 0.004156549 -0.10696142 0.0 0.0037390348 -0.10688177 0.0 0.0032739083 -0.10656835 0.0 0.0028233833 -0.10618019 0.0 0.0024338429999999998 -0.10582976 0.0 0.0021364924 -0.10559138 0.0 0.0019509165 -0.11328246 0.0 0.0046316339 -0.11517081 0.0 0.0045807604 -0.11597953 0.0 0.0043075378000000004 -0.11608738 0.0 0.0039208954999999995 -0.11578494 0.0 0.0034782426 -0.11529135 0.0 0.0030406106 -0.11476575 0.0 0.0026569683 -0.114319 0.0 0.0023615442 -0.11402368 0.0 0.0021762598999999997 -0.12483972 0.0 0.0045741126 -0.12638858 0.0 0.0045386925 -0.12686712 0.0 0.0043248758 -0.12668286 0.0 0.0040082964 -0.12613523 0.0 0.0036264234000000003 -0.12544528 0.0 0.0032346551 -0.12477055 0.0 0.0028827128000000002 -0.12421954 0.0 0.0026074778 -0.12386248 0.0 0.0024333161 -0.13848455 0.0 0.0044368398 -0.13963649 0.0 0.0044492949 -0.13975377 0.0 0.0043325964 -0.13925822 0.0 0.0041255248 -0.13845171 0.0 0.0038392812 -0.13755463 0.0 0.00352097 -0.13672213 0.0 0.0032207896 -0.13606019 0.0 0.0029791009000000005 -0.13563725 0.0 0.0028236189000000003 -0.15426822 0.0 0.0043893652 -0.15495472 0.0 0.0044742301000000005 -0.15468134 0.0 0.0044913646000000005 -0.15386164 0.0 0.0044298009 -0.15279022 0.0 0.0042682006 -0.15168168 0.0 0.0040437002 -0.15068725 0.0 0.0038081396 -0.14991088 0.0 0.0036073491999999998 -0.14941946 0.0 0.0034741771 -0.17211908 0.0 0.0046976982 -0.17222911 0.0 0.0048374925 -0.17153491 0.0 0.004999747 -0.17038514 0.0 0.0051030819 -0.16905111 0.0 0.0050825528 -0.16773513 0.0 0.0049617919 -0.16658165 0.0 0.0047951546000000005 -0.16569175 0.0 0.0046362095 -0.16513224 0.0 0.0045249546000000005 -0.1920877 0.0 0.0057252329 -0.19150513 0.0 0.0058364104 -0.19036558 0.0 0.006097848100000001 -0.18888748 0.0 0.0063473224 -0.18730363 0.0 0.0064597917 -0.18579306 0.0 0.0064366935 -0.18449064 0.0 0.0063327871999999995 -0.18349384 0.0 0.0062099327 -0.18286966 0.0 0.0061164856999999994 -0.21422896 0.0 0.0078757778 -0.21290213 0.0 0.0078045554000000005 -0.21130528 0.0 0.0080473553 -0.20951129 0.0 0.0083700139 -0.2076976 0.0 0.008571873399999999 -0.20601334 0.0 0.0086187907 -0.20457901 0.0 0.0085590733 -0.20348753 0.0 0.0084598828 -0.20280589 0.0 0.0083769821 -0.23850819 0.0 0.011475736 -0.23648714 0.0 0.011022232 -0.23444992 0.0 0.011076056 -0.23236634 0.0 0.011349827 -0.23035216 0.0 0.011561816 -0.22852176 0.0 0.011629422 -0.22697884 0.0 0.011583763 -0.22581032 0.0 0.011490463000000001 -0.22508217 0.0 0.011408796 -0.26486421 0.0 0.016629932 -0.26228946 0.0 0.015612796000000002 -0.25987321 0.0 0.015306742 -0.25754866 0.0 0.01539194 -0.25537607 0.0 0.015515922 -0.25343582 0.0 0.015542146000000001 -0.25181517 0.0 0.015474035 -0.25059372 0.0 0.015366713999999998 -0.2498343 0.0 0.015276711 -0.29323703 0.0 0.023134395 -0.29030856 0.0 0.021477303 -0.28762943 0.0 0.020705513999999998 -0.28514397 0.0 0.020492398999999998 -0.28287235 0.0 0.02044129 -0.28087094 0.0 0.020368254 -0.27921301 0.0 0.020244088 -0.27796996 0.0 0.02010553 -0.27719992 0.0 0.019999702 -0.32356909 0.0 0.030521652000000003 -0.32052881 0.0 0.028311035 -0.31775868 0.0 0.027080832000000003 -0.31522512 0.0 0.02653116 -0.31293523 0.0 0.026258551 -0.3109366 0.0 0.02605116 -0.30929327 0.0 0.025850527 -0.3080692 0.0 0.025671503999999998 -0.30731374 0.0 0.025546662999999997 -0.35583347 0.0 0.038244214 -0.35295653 0.0 0.035703331 -0.35029683 0.0 0.034138262 -0.34785029 0.0 0.033300214 -0.34564248 0.0 0.032816648 -0.34372637 0.0 0.032474153 -0.3421627 0.0 0.032196466 -0.34100553 0.0 0.031978313 -0.34029499 0.0 0.031836542999999995 -0.39008567 0.0 0.045868646 -0.38764316 0.0 0.043273635 -0.38528559 0.0 0.041568495 -0.3830671 0.0 0.04055775 -0.38105166 0.0 0.039925433999999996 -0.37930903 0.0 0.039480232000000004 -0.37789741 0.0 0.039143201 -0.37686151 0.0 0.03889636 -0.37622917 0.0 0.038743444 -0.42649439 0.0 0.053169787 -0.42467618 0.0 0.050772831 -0.42277244 0.0 0.049128495 -0.42090669 0.0 0.048086147999999995 -0.41919124 0.0 0.047393881 -0.41771269 0.0 0.046896763 -0.41652754 0.0 0.046527367 -0.41566637 0.0 0.04626530400000001 -0.41514608 0.0 0.046107594 -0.4652552 0.0 0.060141459 -0.46415025 0.0 0.058111570999999994 -0.46279275 0.0 0.056682959000000005 -0.46137431 0.0 0.055731338 -0.46004859 0.0 0.055061220999999994 -0.45891339 0.0 0.054559011 -0.458018 0.0 0.054179877 -0.45737988 0.0 0.053911842 -0.45699924 0.0 0.053752191 -0.50651646 0.0 0.066914074 -0.50612622 0.0 0.065323822 -0.50535101 0.0 0.064197466 -0.50443494 0.0 0.063412912 -0.50355792 0.0 0.062815502 -0.50282067 0.0 0.062332556 -0.50226009 0.0 0.061950187999999996 -0.50187677 0.0 0.061674207 -0.50165594 0.0 0.061508916 -0.55033767 0.0 0.073646188 -0.55060184 0.0 0.072496466 -0.55039722 0.0 0.071701042 -0.5499965 0.0 0.07111439900000001 -0.54958922 0.0 0.07060425 -0.54926944 0.0 0.07013710599999999 -0.54905981 0.0 0.069737211 -0.54894221 0.0 0.069436453 -0.54888827 0.0 0.069252849 -0.59665269 0.0 0.080434702 -0.59746999 0.0 0.079702646 -0.59778517 0.0 0.07924778 -0.59787327 0.0 0.07887222599999999 -0.59791833 0.0 0.078446776 -0.59800082 0.0 0.077974536 -0.59812599 0.0 0.077525385 -0.59826177 0.0 0.077167995 -0.59836489 0.0 0.076943308 -0.64515692 0.0 0.087275781 -0.64639509 0.0 0.08697222199999999 -0.6471566 0.0 0.086904384 -0.64768332 0.0 0.086782947 -0.6481362 0.0 0.086455166 -0.6485756 0.0 0.085958071 -0.6489926 0.0 0.08541902900000001 -0.64934427 0.0 0.084960908 -0.64957905 0.0 0.084662415 -0.69500798 0.0 0.09408914300000001 -0.69652128 0.0 0.094316006 -0.69765335 0.0 0.09477528199999999 -0.69857067 0.0 0.09502697 -0.69938219 0.0 0.09485770800000001 -0.70012236 0.0 0.09433569 -0.70077145 0.0 0.09366639 -0.70128441 0.0 0.09305443599999999 -0.70161456 0.0 0.092640199 -0.74430567 0.0 0.10081168 -0.74595344 0.0 0.10179623 -0.74740767 0.0 0.1030496 -0.74869525 0.0 0.10389644 -0.74983865 0.0 0.10401179 -0.75083327 0.0 0.1034945 -0.75165492 0.0 0.10265999 -0.75227016 0.0 0.1018344 -0.75265306 0.0 0.1012539 -0.78948265 0.0 0.10755356 -0.7911582 0.0 0.10962697 -0.79292512 0.0 0.1120452 -0.79460597 0.0 0.11379478 -0.79609108 0.0 0.11437818 -0.79732174 0.0 0.11392473 -0.79827166 0.0 0.11289888 -0.79894018 0.0 0.11179797 -0.79933482 0.0 0.11099597 -0.82489622 0.0 0.11481407 -0.82656568 0.0 0.11828831 -0.82868212 0.0 0.12223133 -0.83081406 0.0 0.12519538 -0.83268398 0.0 0.12644434 -0.83416331 0.0 0.12613057 -0.83522862 0.0 0.12490206 -0.8359198 0.0 0.12347461 -0.83630008 0.0 0.12240166 -0.84286207 0.0 0.12372091 -0.84464407 0.0 0.1286684 -0.84721494 0.0 0.13426037 -0.84989035 0.0 0.13858786 -0.85222185 0.0 0.14062662 -0.85400409 0.0 0.14051642 -0.85521454 0.0 0.13909641 -0.85594332 0.0 0.13732451 -0.85631323 0.0 0.13595799 -0.83404756 0.0 0.13611287 -0.83635384 0.0 0.14216922 -0.83965743 0.0 0.1490442 -0.84308672 0.0 0.15449801 -0.8460561 0.0 0.15724432 -0.84829944 0.0 0.15735088 -0.84979421 0.0 0.15579113 -0.85066736 0.0 0.15373157 -0.85109609 0.0 0.15211283 -0.78707319 0.0 0.15415843 -0.79080439 0.0 0.16060232 -0.79547906 0.0 0.16785929 -0.80015469 0.0 0.17369308 -0.80417627 0.0 0.17675273 -0.80724496 0.0 0.17700805 -0.80933177 0.0 0.17543171 -0.81058604 0.0 0.17327245 -0.81122166 0.0 0.17155711 -0.68431622 0.0 0.179424 -0.69118416 0.0 0.1856682 -0.69833529 0.0 0.19227874 -0.7050972 0.0 0.19748364 -0.71086526 0.0 0.20023897 -0.71534312 0.0 0.20052721 -0.71850348 0.0 0.19917095 -0.7204985 0.0 0.19728206 -0.72156239 0.0 0.19578286 -0.4975895 0.0 0.21194163 -0.51005948 0.0 0.21818864 -0.52122647 0.0 0.2236681 -0.53113765 0.0 0.22755049 -0.53949648 0.0 0.22953588 -0.54608363 0.0 0.22986597 -0.55088609 0.0 0.22916052 -0.55405509 0.0 0.22814435 -0.55581731 0.0 0.22735961 -0.19489767 0.0 0.24963355 -0.21493518 0.0 0.2573891 -0.23145577 0.0 0.2624132 -0.24540332 0.0 0.2651974 -0.25701365 0.0 0.26658159 -0.26625854 0.0 0.26737177 -0.27316502 0.0 0.26806393 -0.27787077 0.0 0.26879674 -0.28057361 0.0 0.26941997 0.241979 0.0 0.28834349 0.21486916 0.0 0.30049646 0.19316286 0.0 0.30716279 0.17528883 0.0 0.31030992 0.16050977 0.0 0.31219593 0.14864428 0.0 0.31449226 0.1396192 0.0 0.31772879 0.13332927 0.0 0.32135502 0.12963448 0.0 0.32424963 0.79653263 0.0 0.32292992 0.76665527 0.0 0.34298864 0.74259079 0.0 0.35442111 0.72275376 0.0 0.36039472 0.7062605 0.0 0.36471212 0.69285029 0.0 0.37011591 0.68247867 0.0 0.37733388 0.67512685 0.0 0.38510895 0.67074674 0.0 0.39117268 1.4037518999999998 0.0 0.34926829 1.378762 0.0 0.37967703 1.3577618999999999 0.0 0.398839 1.3398478999999999 0.0 0.41024187 1.3245261000000002 0.0 0.41912246 1.3117279 0.0 0.4293153 1.3015796 0.0 0.44183454 1.2942448 0.0 0.45477289 1.2898142 0.0 0.46466967 1.9557558999999998 0.0 0.36648339 1.9441251 0.0 0.40656447 1.9325700000000001 0.0 0.43455431 1.9213945 0.0 0.4528504 1.9108300999999999 0.0 0.46770638 1.9012665000000002 0.0 0.4838025 1.8931946 0.0 0.50238168 1.8870898 0.0 0.52095777 1.8832958 0.0 0.53495157 2.335978 0.0 0.37470266 2.3426635 0.0 0.4228434 2.3443477 0.0 0.45770407 2.3428058999999997 0.0 0.48206794 2.3392739 0.0 0.50271386 2.3347232000000004 0.0 0.52471083 2.3300436 0.0 0.54924649 2.3260436 0.0 0.5732224 2.3233633 0.0 0.59106988 2.4952278 0.0 0.37993959 2.5190308 0.0 0.43106312 2.5333693 0.0 0.46882132 2.5413848999999997 0.0 0.49658993 2.5453124 0.0 0.52127326 2.5465748 0.0 0.54788107 2.546243 0.0 0.57724845 2.5452096 0.0 0.60561264 2.544239 0.0 0.62656873 2.4892795 0.0 0.38598764 2.5234687 0.0 0.43554321 2.5457158 0.0 0.47233915 2.5601685 0.0 0.5003565 2.5696893 0.0 0.52649516 2.5758598 0.0 0.55551529 2.5796053 0.0 0.58777875 2.5816258999999997 0.0 0.61890346 2.5825337999999998 0.0 0.64184338 2.4064474 0.0 0.39392117 2.4414556 0.0 0.43959975 2.4642761 0.0 0.47302765 2.4797275 0.0 0.49879727 2.4909322 0.0 0.52388412 2.4993198 0.0 0.55287987 2.5054154 0.0 0.58578801 2.5094812 0.0 0.6177786 2.5117662 0.0 0.64141679 2.3083296000000004 0.0 0.40255857 2.3351727 0.0 0.44427851 2.3512111 0.0 0.47372639 2.3617401 0.0 0.49599966 2.3699027999999998 0.0 0.51829141 2.3768256 0.0 0.54525048 2.3825521000000003 0.0 0.57679039 2.3868091000000002 0.0 0.60791361 2.3894048 0.0 0.63107485 2.206979 0.0 0.40956721 2.2195384999999996 0.0 0.4486112 2.2235179 0.0 0.47480565 2.2244954 0.0 0.4935222 2.2255258999999996 0.0 0.51226372 2.2274556 0.0 0.5359621 2.2299397 0.0 0.56473875 2.2322807 0.0 0.59374565 2.2338994 0.0 0.61557055 2.0753831999999997 0.0 0.41288146 2.070976 0.0 0.4507449 2.060534 0.0 0.47488755 2.0496092 0.0 0.49068171 2.0410852 0.0 0.5059132 2.0356212 0.0 0.52592725 2.0326688 0.0 0.55128062 2.0313346 0.0 0.57751697 2.0308444 0.0 0.59753698 1.8766425 0.0 0.41156897 1.8552442999999998 0.0 0.44910187 1.830654 0.0 0.47210938 1.8079109 0.0 0.48573038 1.7894956999999998 0.0 0.49790797 1.7758937 0.0 0.51440257 1.7665495999999998 0.0 0.536291 1.7606133999999998 0.0 0.55962074 1.7573564999999998 0.0 0.5777095 1.5938303 0.0 0.4058339 1.5572221000000002 0.0 0.44304168 1.5208582 0.0 0.46523985 1.488553 0.0 0.47721428 1.4619868 0.0 0.48689991 1.4413656000000001 0.0 0.50035048 1.4262117 0.0 0.5191012 1.4159057 0.0 0.53971207 1.4099351 0.0 0.55595958 1.2463374 0.0 0.39646903 1.1980935 0.0 0.43286726 1.1541389 0.0 0.4541721 1.116336 0.0 0.46480873 1.0851618 0.0 0.4725267 1.0603657 0.0 0.48347905 1.0415195 0.0 0.49952722 1.0282767 0.0 0.51770443 1.0204134 0.0 0.53225911 0.8832581 0.0 0.38426039 0.82818532 0.0 0.41931716 0.78155226 0.0 0.43960473 0.74288338 0.0 0.44917262 0.71121901 0.0 0.45540634 0.68572634 0.0 0.46435401 0.66594768 0.0 0.47807601 0.65176117 0.0 0.4940407 0.64320731 0.0 0.50699657 0.55638885 0.0 0.36934537 0.49929965 0.0 0.40285665 0.45411441 0.0 0.42229548 0.41817206 0.0 0.43123809 0.38915455 0.0 0.43653679 0.36566484 0.0 0.44395745 0.34717423 0.0 0.45566547 0.33370981 0.0 0.46955541 0.32549757 0.0 0.48093927 0.2985898 0.0 0.35121939 0.24307224 0.0 0.38343742 0.20162803 0.0 0.40260342 0.16997024 0.0 0.41165474 0.14481688 0.0 0.41673967 0.12440992 0.0 0.42319983 0.10818182 0.0 0.43323523 0.096237302 0.0 0.44517756 0.08889266800000001 0.0 0.45499492 0.11742442 0.0 0.32934022 0.065453887 0.0 0.36073053 0.028102027 0.0 0.38043734 0.00032099863 0.0 0.39054525 -0.021541731 0.0 0.39631435 -0.039286102999999996 0.0 0.40252721 -0.05343607400000001 0.0 0.41133884 -0.063879825 0.0 0.42153075 -0.070317805 0.0 0.42983007 0.001738995 0.0 0.30393898 -0.04575556099999999 0.0 0.3345184 -0.080028683 0.0 0.35548428 -0.10560527 0.0 0.36759481 -0.12584466 0.0 0.37502179 -0.1422454 0.0 0.3818205 -0.15520865 0.0 0.38998464 -0.16468444 0.0 0.39874592 -0.17048764 0.0 0.40566725 -0.067434698 0.0 0.2760672 -0.10979136 0.0 0.30508479 -0.14239392 0.0 0.32748672 -0.16782582 0.0 0.34229472 -0.18838067 0.0 0.35226133 -0.20498762 0.0 0.36050779 -0.21788105 0.0 0.36871278 -0.22711666 0.0 0.37651801 -0.23268537 0.0 0.38232568 -0.10792257 0.0 0.24760821 -0.14420211 0.0 0.27357477 -0.1759299 0.0 0.29668152 -0.20286261 0.0 0.31433165 -0.22525766 0.0 0.32737112 -0.24333441 0.0 0.33777264 -0.25714308 0.0 0.34674245 -0.26682636 0.0 0.35421181 -0.27255613 0.0 0.3593187 -0.13230357 0.0 0.22079316 -0.16104174 0.0 0.24211004 -0.19116542 0.0 0.26426718 -0.22010961 0.0 0.28402802 -0.24516812 0.0 0.30005574 -0.26551238 0.0 0.31292057 -0.28093773 0.0 0.32322443 -0.29159793 0.0 0.3310042 -0.29781064 0.0 0.33591363 -0.14771979 0.0 0.19758384 -0.16731727 0.0 0.21326368 -0.19356637 0.0 0.23254426 -0.2231039 0.0 0.25260305 -0.25080594 0.0 0.27072567 -0.27377987 0.0 0.28577077 -0.29127324 0.0 0.29759219 -0.30330843 0.0 0.30611333 -0.31026208 0.0 0.31124175 -0.15851964 0.0 0.1789944 -0.16822684 0.0 0.18931447 -0.18751504 0.0 0.20438971 -0.21421768 0.0 0.22236389 -0.24271493 0.0 0.24064292 -0.2680195 0.0 0.25685567 -0.28775319 0.0 0.26981112 -0.30145648 0.0 0.27907953 -0.30939478 0.0 0.28457779 -0.16755149 0.0 0.16471641 -0.16872488 0.0 0.17138277 -0.17885491 0.0 0.18205546 -0.19857857 0.0 0.19619064 -0.22381011 0.0 0.21209088 -0.24907464 0.0 0.22750022 -0.27034312 0.0 0.24048838 -0.28568119 0.0 0.24999335 -0.29472351 0.0 0.25567457 -0.17526314 0.0 0.1535584 -0.1726355 0.0 0.15883052 -0.1738859 0.0 0.16615607 -0.18381724 0.0 0.17595245 -0.201324 0.0 0.18771517 -0.22221313 0.0 0.19997531 -0.24198154 0.0 0.21106195 -0.2575613 0.0 0.21964358 -0.26726994 0.0 0.22494812 -0.17520243 0.0 0.14479858 -0.17941196 0.0 0.15032472 -0.17690828 0.0 0.15539542 -0.17716411 0.0 0.16160092 -0.18407549 0.0 0.16872814 -0.19632448 0.0 0.17641941 -0.21051916 0.0 0.1837038 -0.22327074 0.0 0.18970382 -0.23195127 0.0 0.19362496 -0.15173474 0.0 0.13937145 -0.17644198 0.0 0.14676422 -0.18504062 0.0 0.14859203 -0.18191877 0.0 0.15130575 -0.17864788 0.0 0.15433693 -0.17995884 0.0 0.15724389 -0.18523762 0.0 0.15994833 -0.19207668 0.0 0.16220261 -0.19761221 0.0 0.16375047 -0.09835102400000001 0.0 0.13876311 -0.14552827 0.0 0.14492369 -0.17516567 0.0 0.14797334 -0.18836118 0.0 0.14520289 -0.18485217 0.0 0.14313337 -0.17744467 0.0 0.14152248 -0.17287332 0.0 0.139888 -0.17204008 0.0 0.13837953 -0.17286944 0.0 0.13728046 -0.059895143 0.0 0.13465762 -0.09911851599999999 0.0 0.13765711 -0.13472979 0.0 0.14515795 -0.16687228 0.0 0.14390922 -0.18081065 0.0 0.13762201 -0.18058543 0.0 0.1297133 -0.17272145 0.0 0.12332834 -0.1657708 0.0 0.11846726 -0.16238539 0.0 0.115164 -0.092727639 0.0 0.12387067 -0.10338833 0.0 0.13081786 -0.13481686 0.0 0.13124143 -0.15280217 0.0 0.1306387 -0.16578157 0.0 0.12184571 -0.16481757 0.0 0.11192463 -0.16233931 0.0 0.10300363 -0.16030924 0.0 0.097330615 -0.13817728 0.0 0.10959191 -0.14418338 0.0 0.11147615 -0.16001667 0.0 0.10511664 -0.16270439 0.0 0.097678937 -0.16606003 0.0 0.088989735 -0.16873179 0.0 0.082603395 -0.19057885 0.0 0.084666111 -0.19161718 0.0 0.078484915 -0.19500101 0.0 0.073327929 -0.19544362 0.0 0.069704182 -0.075795561 0.0 0.00098553987 -0.075832434 0.0 0.0010245505000000001 -0.075931065 0.0 0.0011397511 -0.076054268 0.0 0.0013255142000000001 -0.07613771400000001 0.0 0.0015717709 -0.076086588 0.0 0.0018624415 -0.0757716 0.0 0.0021723756 -0.075025834 0.0 0.0024635531 -0.088044345 0.0 0.0013268566 -0.088095285 0.0 0.0013772017999999998 -0.08823467800000001 0.0 0.0015257939000000002 -0.08842140400000001 0.0 0.0017650522 -0.088583805 0.0 0.0020813479 -0.08861552199999999 0.0 0.0024527789 -0.08837004 0.0 0.0028455015 -0.087656006 0.0 0.0032099396999999996 -0.09739896699999999 0.0 0.0016333435999999998 -0.097465619 0.0 0.001692069 -0.097651869 0.0 0.0018652603 -0.09791508300000001 0.0 0.0021435821 -0.098180652 0.0 0.0025101765 -0.098337084 0.0 0.0029379157 -0.098228656 0.0 0.0033855506 -0.09764883699999999 0.0 0.0037949617999999997 -0.10550739 0.0 0.0018879107 -0.10559145 0.0 0.0019509163000000001 -0.10582976 0.0 0.0021364922 -0.10618017 0.0 0.0024338411 -0.10656837 0.0 0.0028233840000000004 -0.10688183 0.0 0.0032739076 -0.10696139 0.0 0.0037390340999999996 -0.10659236 0.0 0.004156549 -0.11392079 0.0 0.0021132158999999998 -0.11402367 0.0 0.0021762598999999997 -0.114319 0.0 0.0023615425 -0.11476579 0.0 0.0026569659999999998 -0.11529134 0.0 0.0030406101 -0.11578494 0.0 0.0034782423 -0.11608737 0.0 0.0039208941 -0.11597953 0.0 0.0043075392 -0.12373926 0.0 0.0023738279 -0.12386246 0.0 0.0024333163 -0.12421954 0.0 0.002607479 -0.12477054 0.0 0.0028827137 -0.12544531 0.0 0.0032346549 -0.1261353 0.0 0.0036264240999999997 -0.12668288 0.0 0.0040082973 -0.12686718 0.0 0.0043248767 -0.13549212 0.0 0.0027701253999999997 -0.13563733 0.0 0.0028236194 -0.13606022 0.0 0.0029790991 -0.13672219 0.0 0.0032207901 -0.13755462 0.0 0.0035209714 -0.13845171 0.0 0.0038392790999999997 -0.13925822 0.0 0.0041255238 -0.13975376 0.0 0.0043326015999999995 -0.14925157 0.0 0.0034277388 -0.14941955 0.0 0.0034741757 -0.14991075 0.0 0.003607349 -0.15068722 0.0 0.0038081396 -0.15168163 0.0 0.0040437011 -0.15279026 0.0 0.0042682006 -0.15386173 0.0 0.0044298009 -0.15468122 0.0 0.0044913632 -0.16494158 0.0 0.0044852695 -0.16513227 0.0 0.0045249537 -0.16569176 0.0 0.0046362109 -0.16658174 0.0 0.0047951546000000005 -0.16773513 0.0 0.0049617924 -0.16905119 0.0 0.0050825533 -0.17038514 0.0 0.0051030829 -0.17153499 0.0 0.0049997461 -0.18265742 0.0 0.0060820505 -0.18286972 0.0 0.0061164852000000006 -0.18349396 0.0 0.006209934100000001 -0.18449059 0.0 0.0063327871999999995 -0.18579307 0.0 0.006436695300000001 -0.18730359 0.0 0.0064597954 -0.18888757 0.0 0.0063473214000000005 -0.19036551 0.0 0.0060978513 -0.20257421 0.0 0.0083453869 -0.20280601 0.0 0.0083769793 -0.2034875 0.0 0.0084598865 -0.20457892 0.0 0.008559077 -0.20601334 0.0 0.0086187907 -0.20769766 0.0 0.0085718688 -0.20951132 0.0 0.0083700093 -0.21130526 0.0 0.0080473535 -0.22483499 0.0 0.011377166999999999 -0.22508232 0.0 0.011408796 -0.22581035 0.0 0.011490465 -0.22697884 0.0 0.01158376 -0.22852163 0.0 0.011629421000000001 -0.23035212 0.0 0.011561809 -0.23236635 0.0 0.011349821999999999 -0.23444997 0.0 0.011076059 -0.24957684 0.0 0.015242243 -0.24983442 0.0 0.015276713999999999 -0.2505936 0.0 0.015366713999999998 -0.25181511 0.0 0.01547404 -0.25343588 0.0 0.015542148 -0.25537595 0.0 0.015515923999999999 -0.25754887 0.0 0.015391937 -0.25987318 0.0 0.015306739 -0.27693909 0.0 0.019960368 -0.27719986 0.0 0.019999685 -0.27797002 0.0 0.020105539 -0.27921301 0.0 0.020244082 -0.28087097 0.0 0.020368256 -0.28287232 0.0 0.020441283 -0.28514412 0.0 0.020492395 -0.2876296 0.0 0.020705504 -0.30705816 0.0 0.025501877000000003 -0.30731362 0.0 0.025546666000000003 -0.30806926 0.0 0.025671488 -0.30929339 0.0 0.025850521 -0.31093651 0.0 0.026051157999999998 -0.31293505 0.0 0.026258562000000003 -0.31522498 0.0 0.026531147 -0.31775886 0.0 0.027080821 -0.34005544 0.0 0.031787258 -0.34029502 0.0 0.031836532 -0.34100562 0.0 0.031978297999999995 -0.34216288 0.0 0.032196447 -0.34372634 0.0 0.032474164 -0.34564251 0.0 0.032816611 -0.34785017 0.0 0.033300221 -0.35029671 0.0 0.03413827 -0.37601662 0.0 0.03869155 -0.37622917 0.0 0.038743448 -0.37686142 0.0 0.038896345 -0.37789741 0.0 0.039143227 -0.37930891 0.0 0.039480217000000005 -0.38105166 0.0 0.039925419 -0.38306707 0.0 0.040557735 -0.38528574 0.0 0.041568454 -0.41497177 0.0 0.046054862 -0.41514575 0.0 0.046107616 -0.4156664 0.0 0.046265325999999996 -0.41652757 0.0 0.046527382 -0.41771257 0.0 0.046896756 -0.41919139 0.0 0.047393850999999994 -0.42090672 0.0 0.048086125 -0.42277235 0.0 0.049128458 -0.45687309 0.0 0.053699225 -0.456999 0.0 0.05375218 -0.45737982 0.0 0.053911827999999995 -0.458018 0.0 0.054179872999999996 -0.45891333 0.0 0.054559026 -0.46004862 0.0 0.055061220999999994 -0.46137428 0.0 0.055731311 -0.46279287 0.0 0.056682881 -0.50158393 0.0 0.061454073 -0.501656 0.0 0.061508935 -0.50187653 0.0 0.061674207 -0.50226003 0.0 0.06195021 -0.50282061 0.0 0.062332548 -0.50355828 0.0 0.062815495 -0.50443518 0.0 0.06341292 -0.50535101 0.0 0.064197406 -0.54887277 0.0 0.06919153 -0.54888815 0.0 0.069252864 -0.54894263 0.0 0.069436476 -0.54905981 0.0 0.069737226 -0.54926956 0.0 0.070137136 -0.54958928 0.0 0.070604213 -0.54999626 0.0 0.071114287 -0.55039698 0.0 0.071700975 -0.59840256 0.0 0.076867409 -0.59836435 0.0 0.076943338 -0.59826183 0.0 0.077168077 -0.59812617 0.0 0.077525437 -0.598001 0.0 0.077974565 -0.59791833 0.0 0.078446738 -0.59787333 0.0 0.07887221900000001 -0.597785 0.0 0.079247661 -0.6496619 0.0 0.08455984300000001 -0.64957935 0.0 0.084662475 -0.64934421 0.0 0.08496089300000001 -0.64899302 0.0 0.085419096 -0.64857548 0.0 0.085958101 -0.64813608 0.0 0.086455159 -0.64768368 0.0 0.086782932 -0.64715672 0.0 0.08690437699999999 -0.70172846 0.0 0.092495225 -0.7016142 0.0 0.092640184 -0.70128435 0.0 0.093054414 -0.70077091 0.0 0.093666457 -0.700122 0.0 0.09433572 -0.69938231 0.0 0.094857693 -0.69857103 0.0 0.09502693300000001 -0.69765329 0.0 0.094775245 -0.75278223 0.0 0.10104741 -0.75265276 0.0 0.10125393 -0.7522707 0.0 0.10183442 -0.75165457 0.0 0.10266007 -0.75083303 0.0 0.10349452 -0.74983859 0.0 0.10401177 -0.74869543 0.0 0.10389645 -0.74740809 0.0 0.1030496 -0.79946512 0.0 0.11070637 -0.79933476 0.0 0.110996 -0.79894054 0.0 0.11179801 -0.79827207 0.0 0.11289892 -0.7973215 0.0 0.11392481 -0.79609114 0.0 0.11437815 -0.79460609 0.0 0.11379477 -0.79292506 0.0 0.11204514 -0.83642006 0.0 0.1220092 -0.83629948 0.0 0.12240175 -0.83591974 0.0 0.12347471 -0.83522838 0.0 0.12490216 -0.83416337 0.0 0.1261306 -0.83268422 0.0 0.12644432 -0.83081406 0.0 0.12519535 -0.82868189 0.0 0.12223129 -0.85642427 0.0 0.13545287 -0.85631347 0.0 0.13595806 -0.85594308 0.0 0.13732456 -0.85521448 0.0 0.13909635 -0.8540042 0.0 0.14051637 -0.85222203 0.0 0.14062662 -0.84989047 0.0 0.13858782 -0.84721476 0.0 0.1342603 -0.85122079 0.0 0.15151006 -0.8510952 0.0 0.15211284 -0.85066736 0.0 0.15373166 -0.84979427 0.0 0.15579119 -0.8482995 0.0 0.15735091 -0.84605622 0.0 0.15724425 -0.84308654 0.0 0.15449798 -0.83965808 0.0 0.14904414 -0.81141132 0.0 0.17091623 -0.81122136 0.0 0.17155728 -0.81058639 0.0 0.17327246 -0.80933189 0.0 0.17543171 -0.80724508 0.0 0.17700802 -0.80417615 0.0 0.17675272 -0.80015475 0.0 0.17369314 -0.79547906 0.0 0.16785927 -0.72189075 0.0 0.19522461 -0.72156173 0.0 0.19578288 -0.72049892 0.0 0.19728211 -0.71850353 0.0 0.19917105 -0.71534342 0.0 0.20052727 -0.71086526 0.0 0.20023897 -0.7050975 0.0 0.19748369 -0.69833547 0.0 0.19227865 -0.55637693 0.0 0.22707467 -0.55581689 0.0 0.2273597 -0.55405456 0.0 0.22814435 -0.55088603 0.0 0.22916062 -0.54608387 0.0 0.2298661 -0.53949612 0.0 0.22953585 -0.53113729 0.0 0.22755054 -0.52122629 0.0 0.22366816 -0.28145066 0.0 0.26967052 -0.28057349 0.0 0.26942021 -0.2778708 0.0 0.26879686 -0.27316526 0.0 0.26806402 -0.26625842 0.0 0.26737198 -0.25701374 0.0 0.26658162 -0.24540323 0.0 0.2651974 -0.23145582 0.0 0.26241308 0.12841745 0.0 0.32535762 0.12963459 0.0 0.32424939 0.13332948 0.0 0.32135499 0.13961923 0.0 0.31772891 0.14864433 0.0 0.31449226 0.16050968 0.0 0.31219617 0.17528868 0.0 0.31030983 0.19316269 0.0 0.30716288 0.66929287 0.0 0.39346862 0.6707468 0.0 0.39117274 0.67512685 0.0 0.38510895 0.68247813 0.0 0.37733403 0.69285047 0.0 0.37011603 0.70626026 0.0 0.36471197 0.72275364 0.0 0.36039481 0.74259079 0.0 0.35442087 1.2883327 0.0 0.46838513 1.2898139 0.0 0.46466982 1.2942444 0.0 0.45477301 1.3015803 0.0 0.44183478 1.3117276000000002 0.0 0.42931572 1.3245268 0.0 0.41912255 1.3398478999999999 0.0 0.41024187 1.3577620000000001 0.0 0.398839 1.8820096999999998 0.0 0.54017395 1.8832968 0.0 0.53495175 1.8870901999999998 0.0 0.52095777 1.8931948 0.0 0.50238174 1.9012665000000002 0.0 0.48380247 1.9108298 0.0 0.46770641 1.9213943 0.0 0.45285031 1.9325695999999999 0.0 0.43455389 2.3224211 0.0 0.59769648 2.3233620999999998 0.0 0.59107006 2.3260446 0.0 0.57322258 2.3300436 0.0 0.54924661 2.3347222999999997 0.0 0.52471107 2.3392754 0.0 0.50271404 2.3428066000000003 0.0 0.48206776 2.3443489 0.0 0.45770401 2.5438519 0.0 0.63432378 2.5442392999999996 0.0 0.62656873 2.5452096 0.0 0.60561264 2.546242 0.0 0.57724833 2.5465748 0.0 0.54788136 2.5453117 0.0 0.52127326 2.5413852 0.0 0.49659014 2.5333688 0.0 0.46882156 2.5827811 0.0 0.65032172 2.582536 0.0 0.6418435 2.5816255 0.0 0.61890358 2.5796044 0.0 0.58777887 2.5758605 0.0 0.55551541 2.5696876 0.0 0.52649522 2.5601697 0.0 0.50035661 2.5457153 0.0 0.47233924 2.5124936 0.0 0.65016186 2.511764 0.0 0.64141685 2.5094812 0.0 0.61777884 2.5054152000000003 0.0 0.58578831 2.4993191 0.0 0.55287975 2.4909332 0.0 0.5238843 2.4797277 0.0 0.49879727 2.464277 0.0 0.47302741 2.3902731 0.0 0.63966972 2.389405 0.0 0.63107502 2.3868085999999997 0.0 0.60791367 2.3825517000000005 0.0 0.57679003 2.3768246 0.0 0.54525054 2.3699031 0.0 0.51829135 2.3617406 0.0 0.49599957 2.3512107999999996 0.0 0.47372642 2.2344742 0.0 0.62370896 2.2338989 0.0 0.6155709 2.2322797999999997 0.0 0.59374595 2.2299409 0.0 0.56473893 2.2274561 0.0 0.53596193 2.225527 0.0 0.51226383 2.2244949 0.0 0.49352214 2.2235181 0.0 0.4748055 2.0307313999999996 0.0 0.60504735 2.0308449 0.0 0.59753686 2.0313346 0.0 0.57751733 2.0326684 0.0 0.55128068 2.0356197 0.0 0.52592701 2.0410855 0.0 0.50591338 2.0496101 0.0 0.4906815 2.0605342 0.0 0.47488758 1.7563205000000002 0.0 0.58454216 1.7573557 0.0 0.57770956 1.7606128 0.0 0.5596208 1.7665488 0.0 0.536291 1.7758936 0.0 0.51440275 1.789495 0.0 0.49790823 1.8079101999999998 0.0 0.48573023 1.8306533999999999 0.0 0.47210926 1.4079795 0.0 0.56214058 1.4099351 0.0 0.5559594 1.4159061000000002 0.0 0.53971189 1.426212 0.0 0.51910079 1.4413658 0.0 0.50035065 1.4619862 0.0 0.48689979 1.4885534 0.0 0.47721446 1.5208589 0.0 0.46523961 1.0178056999999998 0.0 0.53783268 1.0204133 0.0 0.53225917 1.0282769 0.0 0.51770455 1.0415195 0.0 0.49952698 1.060365 0.0 0.48347905 1.0851611 0.0 0.4725267 1.1163357 0.0 0.46480867 1.154139 0.0 0.45417172 0.64034784 0.0 0.51198584 0.64320743 0.0 0.50699681 0.65176123 0.0 0.49404058 0.66594732 0.0 0.47807598 0.68572634 0.0 0.46435413 0.71121943 0.0 0.4554061 0.74288315 0.0 0.44917271 0.78155184 0.0 0.43960467 0.32273582 0.0 0.48534173 0.32549772 0.0 0.48093924 0.33371004 0.0 0.4695552 0.34717429 0.0 0.45566532 0.36566466 0.0 0.44395748 0.38915423 0.0 0.43653664 0.41817215 0.0 0.431238 0.45411438 0.0 0.42229533 0.086411655 0.0 0.45879731 0.08889264599999999 0.0 0.45499498 0.096237294 0.0 0.44517741 0.10818174 0.0 0.43323547 0.12440981 0.0 0.42319986 0.14481689 0.0 0.41673973 0.16997027 0.0 0.41165477 0.20162791 0.0 0.40260342 -0.072496109 0.0 0.43303505 -0.070317805 0.0 0.42983004 -0.063879855 0.0 0.42153057 -0.053436052000000005 0.0 0.41133901 -0.039286111 0.0 0.40252709 -0.021541743 0.0 0.39631426 0.00032102968999999997 0.0 0.3905451 0.028102033 0.0 0.38043714 -0.172445 0.0 0.40831065 -0.17048763 0.0 0.4056671 -0.16468436 0.0 0.39874589 -0.15520856 0.0 0.3899847 -0.14224535 0.0 0.38182056 -0.1258446 0.0 0.37502158 -0.10560523 0.0 0.36759472 -0.080028549 0.0 0.35548425 -0.23454836 0.0 0.38449055 -0.23268519 0.0 0.38232577 -0.22711664 0.0 0.37651777 -0.21788098 0.0 0.36871275 -0.20498741 0.0 0.36050776 -0.1883806 0.0 0.35226139 -0.16782562 0.0 0.34229481 -0.14239378 0.0 0.32748678 -0.27445212 0.0 0.36114869 -0.27255607 0.0 0.35931855 -0.26682636 0.0 0.35421175 -0.25714314 0.0 0.34674233 -0.24333432 0.0 0.33777258 -0.22525765 0.0 0.3273713 -0.2028624 0.0 0.31433171 -0.17592961 0.0 0.29668155 -0.29984659 0.0 0.33759674 -0.29781035 0.0 0.33591375 -0.29159781 0.0 0.33100411 -0.28093767 0.0 0.32322443 -0.2655122 0.0 0.31292057 -0.24516793 0.0 0.30005574 -0.22010948 0.0 0.28402776 -0.19116542 0.0 0.26426715 -0.31252682 0.0 0.31294957 -0.31026188 0.0 0.31124172 -0.30330834 0.0 0.30611315 -0.29127321 0.0 0.2975921 -0.2737796 0.0 0.28577098 -0.25080588 0.0 0.27072567 -0.22310394 0.0 0.25260311 -0.19356632 0.0 0.23254424 -0.31197947 0.0 0.28639141 -0.3093949 0.0 0.28457755 -0.30145639 0.0 0.27907947 -0.28775319 0.0 0.26981109 -0.2680195 0.0 0.25685564 -0.24271485 0.0 0.24064298 -0.21421759 0.0 0.22236399 -0.18751499 0.0 0.20438978 -0.29769167 0.0 0.25755444 -0.29472369 0.0 0.25567463 -0.28568107 0.0 0.24999341 -0.2703431 0.0 0.24048831 -0.24907474 0.0 0.22750013 -0.22381009 0.0 0.21209083 -0.19857848 0.0 0.19619063 -0.17885497 0.0 0.18205538 -0.27054888 0.0 0.22673297 -0.26726985 0.0 0.22494814 -0.25756156 0.0 0.21964353 -0.24198137 0.0 0.21106198 -0.22221316 0.0 0.19997515 -0.20132396 0.0 0.18771525 -0.18381725 0.0 0.17595243 -0.17388588 0.0 0.16615605 -0.23502237 0.0 0.19498044 -0.23195137 0.0 0.1936249 -0.22327082 0.0 0.18970372 -0.2105193 0.0 0.18370369 -0.19632447 0.0 0.1764193 -0.1840754 0.0 0.16872822 -0.17716411 0.0 0.16160098 -0.1769083 0.0 0.15539539 -0.19968766 0.0 0.16429998 -0.19761235 0.0 0.1637504 -0.19207679 0.0 0.16220252 -0.18523762 0.0 0.15994821 -0.17995892 0.0 0.15724377 -0.17864794 0.0 0.15433687 -0.18191886 0.0 0.15130575 -0.18504056 0.0 0.1485921 -0.17342183 0.0 0.13687837 -0.17286952 0.0 0.13728032 -0.1720401 0.0 0.13837951 -0.17287342 0.0 0.13988785 -0.1774447 0.0 0.14152244 -0.18485221 0.0 0.14313333 -0.18836117 0.0 0.1452029 -0.17516579 0.0 0.14797328 -0.16138831 0.0 0.11394361 -0.16238542 0.0 0.11516395 -0.16577066 0.0 0.11846717 -0.17272165 0.0 0.12332817 -0.18058547 0.0 0.12971321 -0.18081054 0.0 0.13762194 -0.1668724 0.0 0.14390925 -0.1347301 0.0 0.14515796 -0.15998881 0.0 0.095421962 -0.16030942 0.0 0.09733056300000001 -0.16233912 0.0 0.10300352 -0.16481774 0.0 0.11192458 -0.16578184 0.0 0.12184554 -0.15280259 0.0 0.13063861 -0.13481705 0.0 0.1312414 -0.10338833 0.0 0.13081793 -0.16910467 0.0 0.080450378 -0.16873179 0.0 0.08260329799999999 -0.16605981 0.0 0.088989548 -0.1627048 0.0 0.097678728 -0.16001686 0.0 0.10511649 -0.14418325 0.0 0.111476 -0.13817745 0.0 0.10959186 -0.19489685 0.0 0.068306811 -0.19544381 0.0 0.069704108 -0.19500118 0.0 0.073327765 -0.19161706 0.0 0.078484759 -0.19057876 0.0 0.084665909 -0.073645353 0.0 0.002675365 -0.071386628 0.0 0.0027044588 -0.067949779 0.0 0.0023932308 -0.06300842 0.0 0.001594049 -0.056317285 0.0 0.00026425463 -0.047870945 0.0 -0.0014479674 -0.038078207999999995 0.0 -0.0031366269 -0.08623827199999999 0.0 0.0034738183 -0.08383321 0.0 0.0035096661 -0.080079287 0.0 0.0031187503999999997 -0.074568063 0.0 0.002113793 -0.066975884 0.0 0.00043402077000000004 -0.057260665999999995 0.0 -0.0017510201 -0.045876723 0.0 -0.003958513 -0.033873767 0.0 -0.005420358399999999 -0.096339405 0.0 0.0040900828 -0.093984082 0.0 0.0041320468 -0.090162933 0.0 0.0036926635 -0.084377624 0.0 0.0025496809 -0.07620187099999999 0.0 0.00061906665 -0.065515339 0.0 -0.0019257679 -0.052765779000000006 0.0 -0.004561309699999999 -0.03913812 0.0 -0.0064516435 -0.10549816 0.0 0.0044558309 -0.10333183 0.0 0.0045043044 -0.099615119 0.0 0.0040584235 -0.09374938199999999 0.0 0.0028645755 -0.08517988 0.0 0.00080620777 -0.07367231 0.0 -0.0019618191 -0.05964857 0.0 -0.0049054027 -0.044435910999999995 0.0 -0.0071260422 -0.11517086 0.0 0.0045807622 -0.11328245 0.0 0.0046316353 -0.10977571 0.0 0.0042150272 -0.10394081 0.0 0.0030500679 -0.095077008 0.0 0.00098064356 -0.082847513 0.0 -0.0018770557 -0.06763064099999999 0.0 -0.0050068577 -0.050826471 0.0 -0.0074636675 -0.12638867 0.0 0.0045386911 -0.12483975 0.0 0.0045741131 -0.12161718 0.0 0.0041991286 -0.11591868 0.0 0.0031164965999999996 -0.10699982 0.0 0.0011276928999999999 -0.094438389 0.0 -0.0017152878 -0.078432418 0.0 -0.0049467478 -0.060215052000000005 0.0 -0.007573196700000001 -0.13963655 0.0 0.0044492995 -0.13848448 0.0 0.0044368394 -0.13565648 0.0 0.0040950561 -0.13041939 0.0 0.0031251139 -0.12211749 0.0 0.0012661464999999998 -0.11021994 0.0 -0.0015277676000000002 -0.094523601 0.0 -0.0048553473 -0.075443052 0.0 -0.0076107471 -0.1549547 0.0 0.0044742292 -0.15426816 0.0 0.004389368 -0.15208994 0.0 0.0040814057 -0.14795145 0.0 0.0032328591 -0.14144033 0.0 0.0014773256 -0.13197771 0.0 -0.001353564 -0.11868232 0.0 -0.0048957211 -0.10013755 0.0 -0.0077310009 -0.17222914 0.0 0.0048374928999999995 -0.17211914 0.0 0.0046976972 -0.17094406 0.0 0.0044564903 -0.1686801 0.0 0.0037180692999999997 -0.16536498 0.0 0.0019438697 -0.16060092 0.0 -0.0011694029 -0.15280721 0.0 -0.0052316757 -0.13772145 0.0 -0.008154978 -0.19150515 0.0 0.0058364114 -0.19208778 0.0 0.005725234300000001 -0.19220145 0.0 0.005628204 -0.19235134 0.0 0.0049951151 -0.19320308 0.0 0.0030133952000000004 -0.19488838 0.0 -0.0008428292300000001 -0.1956186 0.0 -0.0061157099 -0.18847349 0.0 -0.009942676899999999 -0.21290214 0.0 0.0078045530000000005 -0.21422897 0.0 0.007875776800000001 -0.21567954 0.0 0.0080671003 -0.21820295 0.0 0.0075995247 -0.22304171 0.0 0.0052212309 -0.23100954 0.0 -0.00013977685 -0.24077006 0.0 -0.0080523351 -0.24460959 0.0 -0.015299136000000001 -0.23648714 0.0 0.011022236000000001 -0.2385083 0.0 0.011475745 -0.24106124 0.0 0.012167734 -0.24528839 0.0 0.01204344 -0.25266367 0.0 0.0092941374 -0.26431981 0.0 0.0019452018 -0.27928489 0.0 -0.0093844915 -0.28875011 0.0 -0.018116502 -0.26228952 0.0 0.015612796000000002 -0.26486427 0.0 0.016629936 -0.26811254 0.0 0.018047232 -0.27307281 0.0 0.018631531 -0.28105393 0.0 0.016279913 -0.29299346 0.0 0.0094709229 -0.30775213 0.0 0.0032953490000000004 -0.3168754 0.0 0.0090558138 -0.29030859 0.0 0.021477301 -0.29323697 0.0 0.023134394 -0.29676005 0.0 0.025381803999999997 -0.30161422 0.0 0.027088922 -0.30873123 0.0 0.026479099 -0.31872275 0.0 0.024024254 -0.33065754 0.0 0.027663166 -0.33883029 0.0 0.041378587 -0.32052889 0.0 0.028311037 -0.3235693 0.0 0.030521635 -0.32701686 0.0 0.033476452999999996 -0.3312546 0.0 0.03636197 -0.33681321 0.0 0.038111471 -0.34406874 0.0 0.040136237000000005 -0.35255456 0.0 0.048492905 -0.35934991 0.0 0.061085623 -0.35295689 0.0 0.035703324 -0.35583344 0.0 0.038244214 -0.35891727 0.0 0.041571379 -0.3622973 0.0 0.045159962000000005 -0.36618721 0.0 0.048555415 -0.37077254 0.0 0.05309248 -0.37593269 0.0 0.06174865 -0.38057387 0.0 0.070335597 -0.38764316 0.0 0.043273594000000005 -0.39008573 0.0 0.045868635 -0.39254218 0.0 0.049178317 -0.39494172 0.0 0.052847850999999994 -0.39730418 0.0 0.056690082 -0.39970371 0.0 0.061576585999999996 -0.40214798 0.0 0.068569705 -0.40438333 0.0 0.073940739 -0.42467627 0.0 0.05077282 -0.42649454 0.0 0.053169768 -0.42810705 0.0 0.056170464 -0.42942023 0.0 0.059467349 -0.43039855 0.0 0.062893324 -0.43108726 0.0 0.066893816 -0.43156648 0.0 0.071929991 -0.43189356 0.0 0.075315647 -0.46415004 0.0 0.058111522 -0.46525487 0.0 0.060141396 -0.46593899 0.0 0.06266582799999999 -0.46611384 0.0 0.06541165 -0.46578988 0.0 0.068115778 -0.46505868 0.0 0.070916787 -0.4640708 0.0 0.074642815 -0.46302423 0.0 0.077033252 -0.50612634 0.0 0.065323792 -0.50651634 0.0 0.066914044 -0.50631344 0.0 0.06891470400000001 -0.50543779 0.0 0.07109813400000001 -0.50395095 0.0 0.073103599 -0.50201505 0.0 0.074896351 -0.49984953 0.0 0.077904359 -0.49771461 0.0 0.08007202299999999 -0.55060184 0.0 0.072496407 -0.55033767 0.0 0.073646113 -0.54937285 0.0 0.075163707 -0.54763836 0.0 0.076878771 -0.54523957 0.0 0.078372225 -0.54239321 0.0 0.079423107 -0.53936666 0.0 0.082031071 -0.53645343 0.0 0.08421152800000001 -0.59746987 0.0 0.079702526 -0.59665281 0.0 0.080434598 -0.59510481 0.0 0.081545413 -0.59277368 0.0 0.082933038 -0.58979487 0.0 0.084157817 -0.58641011 0.0 0.08480185300000001 -0.58290732 0.0 0.08714429300000001 -0.57959008 0.0 0.089485466 -0.64639539 0.0 0.08697214 -0.64515668 0.0 0.08727573599999999 -0.64324939 0.0 0.08803241 -0.64065212 0.0 0.08921761800000001 -0.63751078 0.0 0.09039931 -0.63405788 0.0 0.091027446 -0.63056099 0.0 0.093247093 -0.6273101 0.0 0.095785625 -0.6965211 0.0 0.09431599800000001 -0.69500786 0.0 0.09408910599999999 -0.69300675 0.0 0.094466411 -0.69054514 0.0 0.095502928 -0.68776244 0.0 0.09676528 -0.6848408 0.0 0.097741105 -0.68198133 0.0 0.10019891 -0.67942154 0.0 0.1029726 -0.74595368 0.0 0.10179626 -0.74430579 0.0 0.10081162 -0.74249679 0.0 0.10067314 -0.74062377 0.0 0.10149094 -0.73880208 0.0 0.10273372 -0.7371273 0.0 0.10421789 -0.7356829 0.0 0.10749611 -0.7345956 0.0 0.11075692 -0.7911579 0.0 0.10962694 -0.78948265 0.0 0.10755357 -0.78812349 0.0 0.10666749 -0.7872647 0.0 0.10706869 -0.7869876 0.0 0.10787252 -0.78727758 0.0 0.10948961 -0.78805339 0.0 0.1142318 -0.78925037 0.0 0.11843799 -0.82656544 0.0 0.11828819 -0.82489628 0.0 0.11481411 -0.824117 0.0 0.11296104 -0.82450897 0.0 0.11266499 -0.82613134 0.0 0.11226343 -0.82886255 0.0 0.11281189 -0.83242923 0.0 0.11928749 -0.8364867 0.0 0.12490438 -0.84464484 0.0 0.12866841 -0.84286195 0.0 0.12372093 -0.84251666 0.0 0.12085202 -0.8439852 0.0 0.11963237 -0.84733027 0.0 0.11698472 -0.85236621 0.0 0.11417654 -0.8586477 0.0 0.12164672 -0.86551207 0.0 0.12864295 -0.83635342 0.0 0.14216922 -0.83404762 0.0 0.1361129 -0.83353007 0.0 0.13244441 -0.83522511 0.0 0.1302169 -0.83916527 0.0 0.12425276 -0.84518886 0.0 0.11494174 -0.85283941 0.0 0.12092944 -0.86126024 0.0 0.12849668 -0.79080468 0.0 0.16060226 -0.78707278 0.0 0.15415843 -0.78498638 0.0 0.15000363 -0.7847544 0.0 0.14655489 -0.78641385 0.0 0.13642389 -0.79012787 0.0 0.11772215 -0.79583216 0.0 0.11832996 -0.80281377 0.0 0.12468772 -0.69118428 0.0 0.18566816 -0.68431634 0.0 0.17942402 -0.67789066 0.0 0.17456107 -0.67182791 0.0 0.16881144 -0.6665315 0.0 0.15378298 -0.66292191 0.0 0.12735616 -0.66166818 0.0 0.11752172 -0.66249901 0.0 0.12101052 -0.51005965 0.0 0.2181887 -0.49758974 0.0 0.21194148 -0.48323724 0.0 0.20511693 -0.46693462 0.0 0.19498649 -0.44986597 0.0 0.17301489 -0.43392038 0.0 0.14375594 -0.42055249 0.0 0.12941138 -0.4099808 0.0 0.12461203 -0.21493536 0.0 0.25738895 -0.19489761 0.0 0.24963374 -0.17025544 0.0 0.23829512 -0.14126752 0.0 0.22050734 -0.10991257 0.0 0.19401996 -0.07886207099999999 0.0 0.17150229 -0.05013077 0.0 0.15905635 -0.024362468999999998 0.0 0.14400229 0.21486899 0.0 0.30049643 0.24197885 0.0 0.28834328 0.2756899 0.0 0.26922256 0.31542549 0.0 0.24343497 0.35893312 0.0 0.22203504 0.40337777 0.0 0.21070491 0.44666696 0.0 0.2032878 0.48742375 0.0 0.16367364 0.76665491 0.0 0.3429884 0.79653215 0.0 0.3229298 0.83315486 0.0 0.29348114 0.87602663 0.0 0.26121783 0.92351937 0.0 0.24628697 0.97348583 0.0 0.23299795 1.0242233 0.0 0.21695276 1.0728018 0.0 0.13602421 1.3787621 0.0 0.37967715 1.4037518999999998 0.0 0.3492682 1.4331094 0.0 0.31036678 1.4667361 0.0 0.27674559 1.5043826 0.0 0.26067054 1.5453112 0.0 0.22449087 1.588231 0.0 0.20633094 1.6283444999999999 0.0 0.1231546 1.9441254000000001 0.0 0.40656438 1.9557558999999998 0.0 0.36648306 1.966906 0.0 0.32222447 1.977618 0.0 0.28599161 1.9890851999999999 0.0 0.25893375 2.0021656 0.0 0.20729907 2.0154123 0.0 0.16616662 2.0252447 0.0 0.090935893 2.3426635 0.0 0.42284334 2.335979 0.0 0.37470251 2.3225644 0.0 0.32068592 2.3022847 0.0 0.27097967 2.2768254 0.0 0.22421938 2.2486839 0.0 0.16709656 2.2201228 0.0 0.12803645 2.1934655 0.0 0.033327106 2.5190325000000002 0.0 0.43106312 2.4952287999999996 0.0 0.37993962 2.4593461 0.0 0.32047519 2.4111092 0.0 0.26202199 2.3531153 0.0 0.20280947 2.290041 0.0 0.14459148 2.2274492 0.0 0.11343004 2.1717792 0.0 -0.0049621109 2.5234697 0.0 0.43554315 2.4892817000000003 0.0 0.38598773 2.4398861000000003 0.0 0.32645708 2.3750021 0.0 0.26448905 2.2979481 0.0 0.20235695 2.214741 0.0 0.15908457 2.1326251 0.0 0.11938891 2.0595436 0.0 -0.013881069 2.4414568 0.0 0.4395999 2.4064467 0.0 0.39392099 2.3552392 0.0 0.33730632 2.2872057 0.0 0.27698767 2.205812 0.0 0.21791832 2.117502 0.0 0.18360712 2.0298772 0.0 0.12552588 1.9506723999999998 0.0 -0.007909469300000001 2.3351731 0.0 0.44427824 2.3083289000000002 0.0 0.40255845 2.2657442000000003 0.0 0.34928459 2.2058918 0.0 0.29335013 2.1317817999999997 0.0 0.24033141 2.0497221999999997 0.0 0.2011847 1.9670826000000001 0.0 0.12730646 1.8908728 0.0 -0.00046320865 2.2195377 0.0 0.44861099 2.2069799999999997 0.0 0.40956697 2.1799842999999997 0.0 0.35847721 2.1357972999999997 0.0 0.30570072 2.0764728 0.0 0.25461659 2.0078139 0.0 0.20424753 1.9368415 0.0 0.12115344 1.8700168999999998 0.0 0.0021137143 2.0709774 0.0 0.45074469 2.0753825 0.0 0.41288102 2.0673215 0.0 0.3626436 2.0428638 0.0 0.31118926 2.0027790000000003 0.0 0.25945663 1.9519202000000002 0.0 0.19834931 1.896759 0.0 0.11268252 1.8433936000000002 0.0 0.006362238 1.8552436 0.0 0.44910172 1.8766418999999999 0.0 0.41156885 1.8884478 0.0 0.36157864 1.8858761000000002 0.0 0.31052557 1.8682116999999998 0.0 0.25778034 1.8387272000000001 0.0 0.19206746 1.8027573000000001 0.0 0.10914557 1.7658901000000002 0.0 0.015885441 1.5572218 0.0 0.44304141 1.5938306999999998 0.0 0.40583363 1.6251701 0.0 0.35629922 1.6460546999999999 0.0 0.30507588 1.6539482 0.0 0.25195292 1.6496881999999997 0.0 0.19070752 1.6367326000000002 0.0 0.11217276 1.6197209 0.0 0.028420495 1.1980923 0.0 0.43286702 1.2463362 0.0 0.39646867 1.2952132 0.0 0.34793413 1.3398807 0.0 0.29595125 1.3757149 0.0 0.24373931 1.4000926 0.0 0.18941066 1.4138268 0.0 0.12495213 1.4199517 0.0 0.045829792 0.82818496 0.0 0.41931701 0.8832584 0.0 0.38426036 0.94543582 0.0 0.33757553 1.0107176 0.0 0.28678021 1.0732476999999998 0.0 0.23276559 1.1270269 0.0 0.18810938 1.1690837 0.0 0.14804985 1.2001171 0.0 0.07130871 0.49929971 0.0 0.40285671 0.55638832 0.0 0.36934537 0.62631536 0.0 0.32513472 0.70632839 0.0 0.2791732 0.79015899 0.0 0.22648105 0.86984122 0.0 0.18572599 0.93844503 0.0 0.17147201 0.99340564 0.0 0.09678710300000001 0.24307226 0.0 0.38343751 0.29858974 0.0 0.35121951 0.37082586 0.0 0.30953506 0.45835328 0.0 0.26825672 0.5556742 0.0 0.22515048 0.65402508 0.0 0.18101093 0.74309766 0.0 0.18187988 0.81711876 0.0 0.10774735 0.065453909 0.0 0.36073077 0.11742438 0.0 0.32934037 0.18737215 0.0 0.29041192 0.27508321 0.0 0.25298241 0.37696478 0.0 0.21793361 0.48540998 0.0 0.17451185 0.58626932 0.0 0.17714933 0.67109782 0.0 0.10404011 -0.045755475999999996 0.0 0.33451855 0.0017390475 0.0 0.30393907 0.065507732 0.0 0.26861763 0.14665031 0.0 0.2360149 0.24430189 0.0 0.20571966 0.35395181 0.0 0.16492592 0.46035376 0.0 0.16036887 0.54719567 0.0 0.08669304800000001 -0.10979126 0.0 0.30508494 -0.06743466099999999 0.0 0.27606699 -0.013084423000000001 0.0 0.24546824 0.05586813400000001 0.0 0.21919148 0.14159639 0.0 0.1936232 0.24414256 0.0 0.15902822 0.35768911 0.0 0.13689975 0.44769913 0.0 0.049589589 -0.14420196 0.0 0.27357471 -0.10792258 0.0 0.24760826 -0.065511033 0.0 0.22336918 -0.012535395 0.0 0.20460252 0.05607174 0.0 0.18466817 0.14692083 0.0 0.15393889 0.26355585 0.0 0.13597408 0.38653371 0.0 0.075156003 -0.16104169 0.0 0.24211018 -0.13230346 0.0 0.22079341 -0.10327609 0.0 0.2038366 -0.06754221 0.0 0.19316243 -0.017689398000000002 0.0 0.17532629 0.05941994900000001 0.0 0.14470609 0.17936242 0.0 0.12627195 0.31807163 0.0 0.079636805 -0.16731729 0.0 0.21326363 -0.14771977 0.0 0.19758399 -0.13192995 0.0 0.18769924 -0.11183429 0.0 0.18083425 -0.078457758 0.0 0.15773252 -0.012683156000000001 0.0 0.12727174 0.11147167 0.0 0.11481276 -0.16822672 0.0 0.18931462 -0.1585197 0.0 0.17899445 -0.15357028 0.0 0.17349501 -0.14443862 0.0 0.1641577 -0.12053742 0.0 0.13252378 -0.055004105 0.0 0.1128792 0.066731945 0.0 0.10288829 -0.16872488 0.0 0.17138277 -0.16755155 0.0 0.16471647 -0.16825002 0.0 0.1599406 -0.1629491 0.0 0.14144722 -0.13595946 0.0 0.10971337 -0.056865688 0.0 0.10569399 -0.1726355 0.0 0.15883066 -0.17526314 0.0 0.15355851 -0.17329124 0.0 0.14425018 -0.16151017 0.0 0.11588769 -0.11387229 0.0 0.10096334 -0.032954372 0.0 0.10051309 -0.17941199 0.0 0.15032472 -0.17520258 0.0 0.14479861 -0.15862286 0.0 0.12970202 -0.12742929 0.0 0.10562774 -0.061827194 0.0 0.10802974 -0.176442 0.0 0.14676425 -0.15173484 0.0 0.13937154 -0.10622842 0.0 0.12853199 -0.064651504 0.0 0.11338481 -0.14552824 0.0 0.14492372 -0.098351404 0.0 0.13876303 -0.041156583 0.0 0.13615668 -0.059853207 0.0 0.10197205 -0.099117965 0.0 0.13765715 -0.059895657000000005 0.0 0.13465765 -0.092727683 0.0 0.12387071 
Force 3 2975 float
0.0 0.0 0.0 0.0 0.0 0.0 0.0 0.0 0.0 0.0 0.0 0.0 0.0 0.0 0.0 0.0 0.0 0.0 0.0 0.0 0.0 0.0 0.0 0.0 0.0 0.0 0.0 0.0 0.0 0.0 0.0 0.0 0.0 0.0 0.0 0.0 0.0 0.0 0.0 0.0 0.0 0.0 0.0 0.0 0.0 0.0 0.0 0.0 0.0 0.0 0.0 0.0 0.0 0.0 0.0 0.0 0.0 0.0 0.0 0.0 0.0 0.0 0.0 0.0 0.0 0.0 0.0 0.0 0.0 0.0 0.0 0.0 0.0 0.0 0.0 0.0 0.0 0.0 0.0 0.0 0.0 0.0 0.0 0.0 0.0 0.0 0.0 0.0 0.0 0.0 0.0 0.0 0.0 0.0 0.0 0.0 0.0 0.0 0.0 0.0 0.0 0.0 0.0 0.0 0.0 0.0 0.0 0.0 0.0 0.0 0.0 0.0 0.0 0.0 0.0 0.0 0.0 0.0 0.0 0.0 0.0 0.0 0.0 0.0 0.0 0.0 0.0 0.0 0.0 0.0 0.0 0.0 0.0 0.0 0.0 0.0 0.0 0.0 0.0 0.0 0.0 0.0 0.0 0.0 0.0 0.0 0.0 0.0 0.0 0.0 0.0 0.0 0.0 0.0 0.0 0.0 0.0 0.0 0.0 0.0 0.0 0.0 0.0 0.0 0.0 0.0 0.0 0.0 0.0 0.0 0.0 0.0 0.0 0.0 0.0 0.0 0.0 0.0 0.0 0.0 0.0 0.0 0.0 0.0 0.0 0.0 0.0 0.0 0.0 0.0 0.0 0.0 0.0 0.0 0.0 0.0 0.0 0.0 0.0 0.0 0.0 0.0 0.0 0.0 0.0 0.0 0.0 0.0 0.0 0.0 0.0 0.0 0.0 0.0 0.0 0.0 0.0 0.0 0.0 0.0 0.0 0.0 0.0 0.0 0.0 0.0 0.0 0.0 0.0 0.0 0.0 0.0 0.0 0.0 0.0 0.0 0.0 0.0 0.0 0.0 0.0 0.0 0.0 0.0 0.0 0.0 0.0 0.0 0.0 0.0 0.0 0.0 0.0 0.0 0.0 0.0 0.0 0.0 0.0 0.0 0.0 0.0 0.0 0.0 0.0 0.0 0.0 0.0 0.0 0.0 0.0 0.0 0.0 0.0 0.0 0.0 0.0 0.0 0.0 0.0 0.0 0.0 0.0 0.0 0.0 0.0 0.0 0.0 0.0 0.0 0.0 0.0 0.0 0.0 0.0 0.0 0.0 0.0 0.0 0.0 0.0 0.0 0.0 0.0 0.0 0.0 0.0 0.0 0.0 0.0 0.0 0.0 0.0 0.0 0.0 0.0 0.0 0.0 0.0 0.0 0.0 0.0 0.0 0.0 0.0 0.0 0.0 0.0 0.0 0.0 0.0 0.0 0.0 0.0 0.0 0.0 0.0 0.0 0.0 0.0 0.0 0.0 0.0 0.0 0.0 0.0 0.0 0.0 0.0 0.0 0.0 0.0 0.0 0.0 0.0 0.0 0.0 0.0 0.0 0.0 0.0 0.0 0.0 0.0 0.0 0.0 0.0 0.0 0.0 0.0 0.0 0.0 0.0 0.0 0.0 0.0 0.0 0.0 0.0 0.0 0.0 0.0 0.0 0.0 0.0 0.0 0.0 0.0 0.0 0.0 0.0 0.0 0.0 0.0 0.0 0.0 0.0 0.0 0.0 0.0 0.0 0.0 0.0 0.0 0.0 0.0 0.0 0.0 0.0 0.0 0.0 0.0 0.0 0.0 0.0 0.0 0.0 0.0 0.0 0.0 0.0 0.0 0.0 0.0 0.0 0.0 0.0 0.0 0.0 0.0 0.0 0.0 0.0 0.0 0.0 0.0 0.0 0.0 0.0 0.0 0.0 0.0 0.0 0.0 0.0 0.0 0.0 0.0 0.0 0.0 0.0 0.0 0.0 0.0 0.0 0.0 0.0 0.0 0.0 0.0 0.0 0.0 0.0 0.0 0.0 0.0 0.0 0.0 0.0 0.0 0.0 0.0 0.0 0.0 0.0 0.0 0.0 0.0 0.0 0.0 0.0 0.0 0.0 0.0 0.0 0.0 0.0 0.0 0.0 0.0 0.0 0.0 0.0 0.0 0.0 0.0 0.0 0.0 0.0 0.0 0.0 0.0 0.0 0.0 0.0 0.0 0.0 0.0 0.0 0.0 0.0 0.0 0.0 0.0 0.0 0.0 0.0 0.0 0.0 0.0 0.0 0.0 0.0 0.0 0.0 0.0 0.0 0.0 0.0 0.0 0.0 0.0 0.0 0.0 0.0 0.0 0.0 0.0 0.0 0.0 0.0 0.0 0.0 0.0 0.0 0.0 0.0 0.0 0.0 0.0 0.0 0.0 0.0 0.0 0.0 0.0 0.0 0.0 0.0 0.0 0.0 0.0 0.0 0.0 0.0 0.0 0.0 0.0 0.0 0.0 0.0 0.0 0.0 0.0 0.0 0.0 0.0 0.0 0.0 0.0 0.0 0.0 0.0 0.0 0.0 0.0 0.0 0.0 0.0 0.0 0.0 0.0 0.0 0.0 0.0 0.0 0.0 0.0 0.0 0.0 0.0 0.0 0.0 0.0 0.0 0.0 0.0 0.0 0.0 0.0 0.0 0.0 0.0 0.0 0.0 0.0 0.0 0.0 0.0 0.0 0.0 0.0 0.0 0.0 0.0 0.0 0.0 0.0 0.0 0.0 0.0 0.0 0.0 0.0 0.0 0.0 0.0 0.0 0.0 0.0 0.0 0.0 0.0 0.0 0.0 0.0 0.0 0.0 0.0 0.0 0.0 0.0 0.0 0.0 0.0 0.0 0.0 0.0 0.0 0.0 0.0 0.0 0.0 0.0 0.0 0.0 0.0 0.0 0.0 0.0 0.0 0.0 0.0 0.0 0.0 0.0 0.0 0.0 0.0 0.0 0.0 0.0 0.0 0.0 0.0 0.0 0.0 0.0 0.0 0.0 0.0 0.0 0.0 0.0 0.0 0.0 0.0 0.0 0.0 0.0 0.0 0.0 0.0 0.0 0.0 0.0 0.0 0.0 0.0 0.0 0.0 0.0 0.0 0.0 0.0 0.0 0.0 0.0 0.0 0.0 0.0 0.0 0.0 0.0 0.0 0.0 0.0 0.0 0.0 0.0 0.0 0.0 0.0 0.0 0.0 0.0 0.0 0.0 0.0 0.0 0.0 0.0 0.0 0.0 0.0 0.0 0.0 0.0 0.0 0.0 0.0 0.0 0.0 0.0 0.0 0.0 0.0 0.0 0.0 0.0 0.0 0.0 0.0 0.0 0.0 0.0 0.0 0.0 0.0 0.0 0.0 0.0 0.0 0.0 0.0 0.0 0.0 0.0 0.0 0.0 0.0 0.0 0.0 0.0 0.0 0.0 0.0 0.0 0.0 0.0 0.0 0.0 0.0 0.0 0.0 0.0 0.0 0.0 0.0 0.0 0.0 0.0 0.0 0.0 0.0 0.0 0.0 0.0 0.0 0.0 0.0 0.0 0.0 0.0 0.0 0.0 0.0 0.0 0.0 0.0 0.0 0.0 0.0 0.0 0.0 0.0 0.0 0.0 0.0 0.0 0.0 0.0 0.0 0.0 0.0 0.0 0.0 0.0 0.0 0.0 0.0 0.0 0.0 0.0 0.0 0.0 0.0 0.0 0.0 0.0 0.0 0.0 0.0 0.0 0.0 0.0 0.0 0.0 0.0 0.0 0.0 0.0 0.0 0.0 0.0 0.0 0.0 0.0 0.0 0.0 0.0 0.0 0.0 0.0 0.0 0.0 0.0 0.0 0.0 0.0 0.0 0.0 0.0 0.0 0.0 0.0 0.0 0.0 0.0 0.0 0.0 0.0 0.0 0.0 0.0 0.0 0.0 0.0 0.0 0.0 0.0 0.0 0.0 0.0 0.0 0.0 0.0 0.0 0.0 0.0 0.0 0.0 0.0 0.0 0.0 0.0 0.0 0.0 0.0 0.0 0.0 0.0 0.0 0.0 0.0 0.0 0.0 0.0 0.0 0.0 0.0 0.0 0.0 0.0 0.0 0.0 0.0 0.0 0.0 0.0 0.0 0.0 0.0 0.0 0.0 0.0 0.0 0.0 0.0 0.0 0.0 0.0 0.0 0.0 0.0 0.0 0.0 0.0 0.0 0.0 0.0 0.0 0.0 0.0 0.0 0.0 0.0 0.0 0.0 0.0 0.0 0.0 0.0 0.0 0.0 0.0 0.0 0.0 0.0 0.0 0.0 0.0 0.0 0.0 0.0 0.0 0.0 0.0 0.0 0.0 0.0 0.0 0.0 0.0 0.0 0.0 0.0 0.0 0.0 0.0 0.0 0.0 0.0 0.0 0.0 0.0 0.0 0.0 0.0 0.0 0.0 0.0 0.0 0.0 0.0 0.0 0.0 0.0 0.0 0.0 0.0 0.0 0.0 0.0 0.0 0.0 0.0 0.0 0.0 0.0 0.0 0.0 0.0 0.0 0.0 0.0 0.0 0.0 0.0 0.0 0.0 0.0 0.0 0.0 0.0 0.0 0.0 0.0 0.0 0.0 0.0 0.0 0.0 0.0 0.0 0.0 0.0 0.0 0.0 0.0 0.0 0.0 0.0 0.0 0.0 0.0 0.0 0.0 0.0 0.0 0.0 0.0 0.0 0.0 0.0 0.0 0.0 0.0 0.0 0.0 0.0 0.0 0.0 0.0 0.0 0.0 0.0 0.0 0.0 0.0 0.0 0.0 0.0 0.0 0.0 0.0 0.0 0.0 0.0 0.0 0.0 0.0 0.0 0.0 0.0 0.0 0.0 0.0 0.0 0.0 0.0 0.0 0.0 0.0 0.0 0.0 0.0 0.0 0.0 0.0 0.0 0.0 0.0 0.0 0.0 0.0 0.0 0.0 0.0 0.0 0.0 0.0 0.0 0.0 0.0 0.0 0.0 0.0 0.0 0.0 0.0 0.0 0.0 0.0 0.0 0.0 0.0 0.0 0.0 0.0 0.0 0.0 0.0 0.0 0.0 0.0 0.0 0.0 0.0 0.0 0.0 0.0 0.0 0.0 0.0 0.0 0.0 0.0 0.0 0.0 0.0 0.0 0.0 0.0 0.0 0.0 0.0 0.0 0.0 0.0 0.0 0.0 0.0 0.0 0.0 0.0 0.0 0.0 0.0 0.0 0.0 0.0 0.0 0.0 0.0 0.0 0.0 0.0 0.0 0.0 0.0 0.0 0.0 0.0 0.0 0.0 0.0 0.0 0.0 0.0 0.0 0.0 0.0 0.0 0.0 0.0 0.0 0.0 0.0 0.0 0.0 0.0 0.0 0.0 0.0 0.0 0.0 0.0 0.0 0.0 0.0 0.0 0.0 0.0 0.0 0.0 0.0 0.0 0.0 0.0 0.0 0.0 0.0 0.0 0.0 0.0 0.0 0.0 0.0 0.0 0.0 0.0 0.0 0.0 0.0 0.0 0.0 0.0 0.0 0.0 0.0 0.0 0.0 0.0 0.0 0.0 0.0 0.0 0.0 0.0 0.0 0.0 0.0 0.0 0.0 0.0 0.0 0.0 0.0 0.0 0.0 0.0 0.0 0.0 0.0 0.0 0.0 0.0 0.0 0.0 0.0 0.0 0.0 0.0 0.0 0.0 0.0 0.0 0.0 0.0 0.0 0.0 0.0 0.0 0.0 0.0 0.0 0.0 0.0 0.0 0.0 0.0 0.0 0.0 0.0 0.0 0.0 0.0 0.0 0.0 0.0 0.0 0.0 0.0 0.0 0.0 0.0 0.0 0.0 0.0 0.0 0.0 0.0 0.0 0.0 0.0 0.0 0.0 0.0 0.0 0.0 0.0 0.0 0.0 0.0 0.0 0.0 0.0 0.0 0.0 0.0 0.0 0.0 0.0 0.0 0.0 0.0 0.0 0.0 0.0 0.0 0.0 0.0 0.0 0.0 0.0 0.0 0.0 0.0 0.0 0.0 0.0 0.0 0.0 0.0 0.0 0.0 0.0 0.0 0.0 0.0 0.0 0.0 0.0 0.0 0.0 0.0 0.0 0.0 0.0 0.0 0.0 0.0 0.0 0.0 0.0 0.0 0.0 0.0 0.0 0.0 0.0 0.0 0.0 0.0 0.0 0.0 0.0 0.0 0.0 0.0 0.0 0.0 0.0 0.0 0.0 0.0 0.0 0.0 0.0 0.0 0.0 0.0 0.0 0.0 0.0 0.0 0.0 0.0 0.0 0.0 0.0 0.0 0.0 0.0 0.0 0.0 0.0 0.0 0.0 0.0 0.0 0.0 0.0 0.0 0.0 0.0 0.0 0.0 0.0 0.0 0.0 0.0 0.0 0.0 0.0 0.0 0.0 0.0 0.0 0.0 0.0 0.0 0.0 0.0 0.0 0.0 0.0 0.0 0.0 0.0 0.0 0.0 0.0 0.0 0.0 0.0 0.0 0.0 0.0 0.0 0.0 0.0 0.0 0.0 0.0 0.0 0.0 0.0 0.0 0.0 0.0 0.0 0.0 0.0 0.0 0.0 0.0 0.0 0.0 0.0 0.0 0.0 0.0 0.0 0.0 0.0 0.0 0.0 0.0 0.0 0.0 0.0 0.0 0.0 0.0 0.0 0.0 0.0 0.0 0.0 0.0 0.0 0.0 0.0 0.0 0.0 0.0 0.0 0.0 0.0 0.0 0.0 0.0 0.0 0.0 0.0 0.0 0.0 0.0 0.0 0.0 0.0 0.0 0.0 0.0 0.0 0.0 0.0 0.0 0.0 0.0 0.0 0.0 0.0 0.0 0.0 0.0 0.0 0.0 0.0 0.0 0.0 0.0 0.0 0.0 0.0 0.0 0.0 0.0 0.0 0.0 0.0 0.0 0.0 0.0 0.0 0.0 0.0 0.0 0.0 0.0 0.0 0.0 0.0 0.0 0.0 0.0 0.0 0.0 0.0 0.0 0.0 0.0 0.0 0.0 0.0 0.0 0.0 0.0 0.0 0.0 0.0 0.0 0.0 0.0 0.0 0.0 0.0 0.0 0.0 0.0 0.0 0.0 0.0 0.0 0.0 0.0 0.0 0.0 0.0 0.0 0.0 0.0 0.0 0.0 0.0 0.0 0.0 0.0 0.0 0.0 0.0 0.0 0.0 0.0 0.0 0.0 0.0 0.0 0.0 0.0 0.0 0.0 0.0 0.0 0.0 0.0 0.0 0.0 0.0 0.0 0.0 0.0 0.0 0.0 0.0 0.0 0.0 0.0 0.0 0.0 0.0 0.0 0.0 0.0 0.0 0.0 0.0 0.0 0.0 0.0 0.0 0.0 0.0 0.0 0.0 0.0 0.0 0.0 0.0 0.0 0.0 0.0 0.0 0.0 0.0 0.0 0.0 0.0 0.0 0.0 0.0 0.0 0.0 0.0 0.0 0.0 0.0 0.0 0.0 0.0 0.0 0.0 0.0 0.0 0.0 0.0 0.0 0.0 0.0 0.0 0.0 0.0 0.0 0.0 0.0 0.0 0.0 0.0 0.0 0.0 0.0 0.0 0.0 0.0 0.0 0.0 0.0 0.0 0.0 0.0 0.0 0.0 0.0 0.0 0.0 0.0 0.0 0.0 0.0 0.0 0.0 0.0 0.0 0.0 0.0 0.0 0.0 0.0 0.0 0.0 0.0 0.0 0.0 0.0 0.0 0.0 0.0 0.0 0.0 0.0 0.0 0.0 0.0 0.0 0.0 0.0 0.0 0.0 0.0 0.0 0.0 0.0 0.0 0.0 0.0 0.0 0.0 0.0 0.0 0.0 0.0 0.0 0.0 0.0 0.0 0.0 0.0 0.0 0.0 0.0 0.0 0.0 0.0 0.0 0.0 0.0 0.0 0.0 0.0 0.0 0.0 0.0 0.0 0.0 0.0 0.0 0.0 0.0 0.0 0.0 0.0 0.0 0.0 0.0 0.0 0.0 0.0 0.0 0.0 0.0 0.0 0.0 0.0 0.0 0.0 0.0 0.0 0.0 0.0 0.0 0.0 0.0 0.0 0.0 0.0 0.0 0.0 0.0 0.0 0.0 0.0 0.0 0.0 0.0 0.0 0.0 0.0 0.0 0.0 0.0 0.0 0.0 0.0 0.0 0.0 0.0 0.0 0.0 0.0 0.0 0.0 0.0 0.0 0.0 0.0 0.0 0.0 0.0 0.0 0.0 0.0 0.0 0.0 0.0 0.0 0.0 0.0 0.0 0.0 0.0 0.0 0.0 0.0 0.0 0.0 0.0 0.0 0.0 0.0 0.0 0.0 0.0 0.0 0.0 0.0 0.0 0.0 0.0 0.0 0.0 0.0 0.0 0.0 0.0 0.0 0.0 0.0 0.0 0.0 0.0 0.0 0.0 0.0 0.0 0.0 0.0 0.0 0.0 0.0 0.0 0.0 0.0 0.0 0.0 0.0 0.0 0.0 0.0 0.0 0.0 0.0 0.0 0.0 0.0 0.0 0.0 0.0 0.0 0.0 0.0 0.0 0.0 0.0 0.0 0.0 0.0 0.0 0.0 0.0 0.0 0.0 0.0 0.0 0.0 0.0 0.0 0.0 0.0 0.0 0.0 0.0 0.0 0.0 0.0 0.0 0.0 0.0 0.0 0.0 0.0 0.0 0.0 0.0 0.0 0.0 0.0 0.0 0.0 0.0 0.0 0.0 0.0 0.0 0.0 0.0 0.0 0.0 0.0 0.0 0.0 0.0 0.0 0.0 0.0 0.0 0.0 0.0 0.0 0.0 0.0 0.0 0.0 0.0 0.0 0.0 0.0 0.0 0.0 0.0 0.0 0.0 0.0 0.0 0.0 0.0 0.0 0.0 0.0 0.0 0.0 0.0 0.0 0.0 0.0 0.0 0.0 0.0 0.0 0.0 0.0 0.0 0.0 0.0 0.0 0.0 0.0 0.0 0.0 0.0 0.0 0.0 0.0 0.0 0.0 0.0 0.0 0.0 0.0 0.0 0.0 0.0 0.0 0.0 0.0 0.0 0.0 0.0 0.0 0.0 0.0 0.0 0.0 0.0 0.0 0.0 0.0 0.0 0.0 0.0 0.0 0.0 0.0 0.0 0.0 0.0 0.0 0.0 0.0 0.0 0.0 0.0 0.0 0.0 0.0 0.0 0.0 0.0 0.0 0.0 0.0 0.0 0.0 0.0 0.0 0.0 0.0 0.0 0.0 0.0 0.0 0.0 0.0 0.0 0.0 0.0 0.0 0.0 0.0 0.0 0.0 0.0 0.0 0.0 0.0 0.0 0.0 0.0 0.0 0.0 0.0 0.0 0.0 0.0 0.0 0.0 0.0 0.0 0.0 0.0 0.0 0.0 0.0 0.0 0.0 0.0 0.0 0.0 0.0 0.0 0.0 0.0 0.0 0.0 0.0 0.0 0.0 0.0 0.0 0.0 0.0 0.0 0.0 0.0 0.0 0.0 0.0 0.0 0.0 0.0 0.0 0.0 0.0 0.0 0.0 0.0 0.0 0.0 0.0 0.0 0.0 0.0 0.0 0.0 0.0 0.0 0.0 0.0 0.0 0.0 0.0 0.0 0.0 0.0 0.0 0.0 0.0 0.0 0.0 0.0 0.0 0.0 0.0 0.0 0.0 0.0 0.0 0.0 0.0 0.0 0.0 0.0 0.0 0.0 0.0 0.0 0.0 0.0 0.0 0.0 0.0 0.0 0.0 0.0 0.0 0.0 0.0 0.0 0.0 0.0 0.0 0.0 0.0 0.0 0.0 0.0 0.0 0.0 0.0 0.0 0.0 0.0 0.0 0.0 0.0 0.0 0.0 0.0 0.0 0.0 0.0 0.0 0.0 0.0 0.0 0.0 0.0 0.0 0.0 0.0 0.0 0.0 0.0 0.0 0.0 0.0 0.0 0.0 0.0 0.0 0.0 0.0 0.0 0.0 0.0 0.0 0.0 0.0 0.0 0.0 0.0 0.0 0.0 0.0 0.0 0.0 0.0 0.0 0.0 0.0 0.0 0.0 0.0 0.0 0.0 0.0 0.0 0.0 0.0 0.0 0.0 0.0 0.0 0.0 0.0 0.0 0.0 0.0 0.0 0.0 0.0 0.0 0.0 0.0 0.0 0.0 0.0 0.0 0.0 0.0 0.0 0.0 0.0 0.0 0.0 0.0 0.0 0.0 0.0 0.0 0.0 0.0 0.0 0.0 0.0 0.0 0.0 0.0 0.0 0.0 0.0 0.0 0.0 0.0 0.0 0.0 0.0 0.0 0.0 0.0 0.0 0.0 0.0 0.0 0.0 0.0 0.0 0.0 0.0 0.0 0.0 0.0 0.0 0.0 0.0 0.0 0.0 0.0 0.0 0.0 0.0 0.0 0.0 0.0 0.0 0.0 0.0 0.0 0.0 0.0 0.0 0.0 0.0 0.0 0.0 0.0 0.0 0.0 0.0 0.0 0.0 0.0 0.0 0.0 0.0 0.0 0.0 0.0 0.0 0.0 0.0 0.0 0.0 0.0 0.0 0.0 0.0 0.0 0.0 0.0 0.0 0.0 0.0 0.0 0.0 0.0 0.0 0.0 0.0 0.0 0.0 0.0 0.0 0.0 0.0 0.0 0.0 0.0 0.0 0.0 0.0 0.0 0.0 0.0 0.0 0.0 0.0 0.0 0.0 0.0 0.0 0.0 0.0 0.0 0.0 0.0 0.0 0.0 0.0 0.0 0.0 0.0 0.0 0.0 0.0 0.0 0.0 0.0 0.0 0.0 0.0 0.0 0.0 0.0 0.0 0.0 0.0 0.0 0.0 0.0 0.0 0.0 0.0 0.0 0.0 0.0 0.0 0.0 0.0 0.0 0.0 0.0 0.0 0.0 0.0 0.0 0.0 0.0 0.0 0.0 0.0 0.0 0.0 0.0 0.0 0.0 0.0 0.0 0.0 0.0 0.0 0.0 0.0 0.0 0.0 0.0 0.0 0.0 0.0 0.0 0.0 0.0 0.0 0.0 0.0 0.0 0.0 0.0 0.0 0.0 0.0 0.0 0.0 0.0 0.0 0.0 0.0 0.0 0.0 0.0 0.0 0.0 0.0 0.0 0.0 0.0 0.0 0.0 0.0 0.0 0.0 0.0 0.0 0.0 0.0 0.0 0.0 0.0 0.0 0.0 0.0 0.0 0.0 0.0 0.0 0.0 0.0 0.0 0.0 0.0 0.0 0.0 0.0 0.0 0.0 0.0 0.0 0.0 0.0 0.0 0.0 0.0 0.0 0.0 0.0 0.0 0.0 0.0 0.0 0.0 0.0 0.0 0.0 0.0 0.0 0.0 0.0 0.0 0.0 0.0 0.0 0.0 0.0 0.0 0.0 0.0 0.0 0.0 0.0 0.0 0.0 0.0 0.0 0.0 0.0 0.0 0.0 0.0 0.0 0.0 0.0 0.0 0.0 0.0 0.0 0.0 0.0 0.0 0.0 0.0 0.0 0.0 0.0 0.0 0.0 0.0 0.0 0.0 0.0 0.0 0.0 0.0 0.0 0.0 0.0 0.0 0.0 0.0 0.0 0.0 0.0 0.0 0.0 0.0 0.0 0.0 0.0 0.0 0.0 0.0 0.0 0.0 0.0 0.0 0.0 0.0 0.0 0.0 0.0 0.0 0.0 0.0 0.0 0.0 0.0 0.0 0.0 0.0 0.0 0.0 0.0 0.0 0.0 0.0 0.0 0.0 0.0 0.0 0.0 0.0 0.0 0.0 0.0 0.0 0.0 0.0 0.0 0.0 0.0 0.0 0.0 0.0 0.0 0.0 0.0 0.0 0.0 0.0 0.0 0.0 0.0 0.0 0.0 0.0 0.0 0.0 0.0 0.0 0.0 0.0 0.0 0.0 0.0 0.0 0.0 0.0 0.0 0.0 0.0 0.0 0.0 0.0 0.0 0.0 0.0 0.0 0.0 0.0 0.0 0.0 0.0 0.0 0.0 0.0 0.0 0.0 0.0 0.0 0.0 0.0 0.0 0.0 0.0 0.0 0.0 0.0 0.0 0.0 0.0 0.0 0.0 0.0 0.0 0.0 0.0 0.0 0.0 0.0 0.0 0.0 0.0 0.0 0.0 0.0 0.0 0.0 0.0 0.0 0.0 0.0 0.0 0.0 0.0 0.0 0.0 0.0 0.0 0.0 0.0 0.0 0.0 0.0 0.0 0.0 0.0 0.0 0.0 0.0 0.0 0.0 0.0 0.0 0.0 0.0 0.0 0.0 0.0 0.0 0.0 0.0 0.0 0.0 0.0 0.0 0.0 0.0 0.0 0.0 0.0 0.0 0.0 0.0 0.0 0.0 0.0 0.0 0.0 0.0 0.0 0.0 0.0 0.0 0.0 0.0 0.0 0.0 0.0 0.0 0.0 0.0 0.0 0.0 0.0 0.0 0.0 0.0 0.0 0.0 0.0 0.0 0.0 0.0 0.0 0.0 0.0 0.0 0.0 0.0 0.0 0.0 0.0 0.0 0.0 0.0 0.0 0.0 0.0 0.0 0.0 0.0 0.0 0.0 0.0 0.0 0.0 0.0 0.0 0.0 0.0 0.0 0.0 0.0 0.0 0.0 0.0 0.0 0.0 0.0 0.0 0.0 0.0 0.0 0.0 0.0 0.0 0.0 0.0 0.0 0.0 0.0 0.0 0.0 0.0 0.0 0.0 0.0 0.0 0.0 0.0 0.0 0.0 0.0 0.0 0.0 0.0 0.0 0.0 0.0 0.0 0.0 0.0 0.0 0.0 0.0 0.0 0.0 0.0 0.0 0.0 0.0 0.0 0.0 0.0 0.0 0.0 0.0 0.0 0.0 0.0 0.0 0.0 0.0 0.0 0.0 0.0 0.0 0.0 0.0 0.0 0.0 0.0 0.0 0.0 0.0 0.0 0.0 0.0 0.0 0.0 0.0 0.0 0.0 0.0 0.0 0.0 0.0 0.0 0.0 0.0 0.0 0.0 0.0 0.0 0.0 0.0 0.0 0.0 0.0 0.0 0.0 0.0 0.0 0.0 0.0 0.0 0.0 0.0 0.0 0.0 0.0 0.0 0.0 0.0 0.0 0.0 0.0 0.0 0.0 0.0 0.0 0.0 0.0 0.0 0.0 0.0 0.0 0.0 0.0 0.0 0.0 0.0 0.0 0.0 0.0 0.0 0.0 0.0 0.0 0.0 0.0 0.0 0.0 0.0 0.0 0.0 0.0 0.0 0.0 0.0 0.0 0.0 0.0 0.0 0.0 0.0 0.0 0.0 0.0 0.0 0.0 0.0 0.0 0.0 0.0 0.0 0.0 0.0 0.0 0.0 0.0 0.0 0.0 0.0 0.0 0.0 0.0 0.0 0.0 0.0 0.0 0.0 0.0 0.0 0.0 0.0 0.0 0.0 0.0 0.0 0.0 0.0 0.0 0.0 0.0 0.0 0.0 0.0 0.0 0.0 0.0 0.0 0.0 0.0 0.0 0.0 0.0 0.0 0.0 0.0 0.0 0.0 0.0 0.0 0.0 0.0 0.0 0.0 0.0 0.0 0.0 0.0 0.0 0.0 0.0 0.0 0.0 0.0 0.0 0.0 0.0 0.0 0.0 -0.5893039747325989 0.0 -0.2342064898551621 -0.688830977220774 0.0 -0.2169275334231882 -0.771597699289942 0.0 -0.1929868288246706 -0.8395813009895322 0.0 -0.1669359721733992 -0.893359382333984 0.0 -0.14183688354592203 -0.564790374119759 0.0 -0.3020807355520182 -0.743200498580012 0.0 -0.2589569144739227 -0.875283061882076 0.0 -0.2436917380922933 -0.976375584409389 0.0 -0.22139869353496722 -1.0566292264157302 0.0 -0.1953473128836827 -1.120203428005085 0.0 -0.1686754762168868 -0.738935498473387 0.0 -0.30627537565688423 -0.95341722383543 0.0 -0.2644914706122866 -1.105927867648196 0.0 -0.24236574605914352 -1.2217102305427552 0.0 -0.2197475014936874 -1.3130390328259751 0.0 -0.19752970093824243 -1.3870293146757322 0.0 -0.1729566483239161 -0.9499311837482789 0.0 -0.2990852434771309 -1.201902230047555 0.0 -0.25013180225329495 -1.3691742342293551 0.0 -0.2285811497145286 -1.493717597342939 0.0 -0.2085777332144432 -1.594401599860039 0.0 -0.18979068474476699 -1.6779154419478852 0.0 -0.1687015082175376 -1.195535669888391 0.0 -0.2915889792897243 -1.4874298371857453 0.0 -0.2295551377388783 -1.668880881722021 0.0 -0.20828419320710473 -1.8010372450259302 0.0 -0.1912231487805786 -1.908757047718925 0.0 -0.1769288364232208 -2.0012108500302697 0.0 -0.1595717119892927 -1.482539957063498 0.0 -0.2892097552302437 -1.818372765459318 0.0 -0.20634041315851023 -2.013145490328636 0.0 -0.1832372725809317 -2.151130173778253 0.0 -0.1693664602341614 -2.2651854166296346 0.0 -0.1602066080051651 -2.3648987391224674 0.0 -0.1478864356971608 -1.8188618054715442 0.0 -0.30254250356356244 -2.202172735054317 0.0 -0.18704262067606542 -2.407139060178475 0.0 -0.1571741159293528 -2.547129903678246 0.0 -0.1460400636510015 -2.6660351466508776 0.0 -0.14170923554273082 -2.7716814692920355 0.0 -0.1355398313884957 -2.214798015369949 0.0 -0.3425258725631466 -2.643306986082673 0.0 -0.18146477253661922 -2.851057111276426 0.0 -0.13933163148329072 -2.990188674754715 0.0 -0.12693157517328932 -3.109759597743988 0.0 -0.12727137118178422 -3.2195927604898165 0.0 -0.1271452231786305 -2.6970200274254994 0.0 -0.3896713337417831 -3.1462815186570356 0.0 -0.1915092527877312 -3.34206208355155 0.0 -0.1393320114833002 -3.4766384869159603 0.0 -0.1212684670317116 -3.5945637698640915 0.0 -0.1263400591585014 -3.7067463726686567 0.0 -0.13040075526001882 -3.327235483180885 0.0 -0.3685745332143631 -3.7233403330835055 0.0 -0.2020721490518036 -3.8866490571662244 0.0 -0.15337944383448598 -4.00634850015871 0.0 -0.13542823938570592 -4.1192281029807 0.0 -0.1456045676401141 -4.23122930578073 0.0 -0.1548262398706559 -4.1551089038777205 0.0 -0.27236023480900573 -4.402740910068521 0.0 -0.2028877290721931 -4.49910131247753 0.0 -0.1727260643181515 -4.58321491458037 0.0 -0.174239164355979 -4.68338691708467 0.0 -0.19072437676810933 -4.79040171976004 0.0 -0.2077337331933432 -5.04623572615589 0.0 -0.406334690158367 -5.180844129521101 0.0 -0.2877456751936417 -5.17862172946554 0.0 -0.24352608208815188 -5.2069361301734 0.0 -0.2539644303491106 -5.28740973218524 0.0 -0.268361526709038 -5.38311293457782 0.0 -0.2919599592989988 -6.0076425501910595 0.0 -1.1948982698724562 -6.03160535079013 0.0 -0.758475498961887 -5.93394774834869 0.0 -0.491115572277889 -5.889141347228531 0.0 -0.4209356505233911 -5.928612548215311 0.0 -0.4092645302316131 -6.01004735025118 0.0 -0.42722617068065394 -7.21848298046207 0.0 -1.832962085824051 -7.025596975639921 0.0 -1.3096218327405449 -6.769751769243791 0.0 -0.9026758225668952 -6.6276721656918 0.0 -0.699862577496564 -6.60891416522285 0.0 -0.6281845357046131 -6.6744561668613995 0.0 -0.6012464150311599 -8.61908141547703 0.0 -2.2421614160540346 -8.15185260379631 0.0 -1.712092642802315 -7.6876833921920795 0.0 -1.294599472364986 -7.408005785200141 0.0 -1.0356727858918189 -7.3257005831425115 0.0 -0.899552742488818 -7.37232618430815 0.0 -0.827139580678489 -10.07884985197124 0.0 -2.5620693840517332 -9.292959832323989 0.0 -2.036356410908909 -8.61753781543844 0.0 -1.627022200675554 -8.21159460528986 0.0 -1.349017753725443 -8.07207580180189 0.0 -1.17868122946703 -8.104174202604352 0.0 -1.0685467867136689 -11.489588287239702 0.0 -2.8622078715551953 -10.4146922603673 0.0 -2.318553017963824 -9.54350543858763 0.0 -1.9115049677876232 -9.02560302564007 0.0 -1.6213160005328988 -8.839667020991671 0.0 -1.4362983159074572 -8.863981021599521 0.0 -1.3026112725652812 -12.82896592072414 0.0 -3.148230238705754 -11.515320287883 0.0 -2.575064144376602 -10.46961026174025 0.0 -2.155157333878932 -9.85261544631538 0.0 -1.855543006388574 -9.62831464070786 0.0 -1.6610397615259929 -9.650120641253011 0.0 -1.5165011979125291 -14.139726753493159 0.0 -3.4306786457669647 -12.619932715498312 0.0 -2.81343487033587 -11.411663485291582 0.0 -2.368346259208655 -10.69814706745367 0.0 -2.05433525135838 -10.43798386094959 0.0 -1.853696886342421 -10.458436261460902 0.0 -1.706726122668152 -15.486129987153241 0.0 -3.6987316924682903 -13.754961143874022 0.0 -3.037005515925136 -12.379159909478991 0.0 -2.5538931438473274 -11.56199668904991 0.0 -2.222787535569687 -11.265903881647592 0.0 -2.014315450357885 -11.2859482821487 0.0 -1.870416286760406 -16.885753222143823 0.0 -3.94235009855875 -14.924785173119622 0.0 -3.234888520872211 -13.370761534269032 0.0 -2.708460667711515 -12.447796311194901 0.0 -2.351345498783636 -12.108236302705901 0.0 -2.142655813566394 -12.13285030332125 0.0 -1.995879409896984 -18.33562965839073 0.0 -4.14856090371402 -16.124600803115012 0.0 -3.399528964988222 -14.38103995952599 0.0 -2.8278189506954723 -13.34288193357204 0.0 -2.45346286133657 -12.96065992401649 0.0 -2.2357397758934927 -12.99042992476074 0.0 -2.083565172089128 -19.822752895568808 0.0 -4.322362108059051 -17.34909723372742 0.0 -3.5215470080386733 -15.401968785049212 0.0 -2.9099308727482702 -14.243846356096153 0.0 -2.51427846285696 -13.818370345459249 0.0 -2.2877268571931704 -13.8548603463715 0.0 -2.129979773249493 -21.34676402410608 0.0 -4.4499040098127995 -18.594195047727602 0.0 -3.591368781858604 -16.430222503394802 0.0 -2.9399653339142366 -15.145944062650239 0.0 -2.5215369787583914 -14.67566451816047 0.0 -2.285546348221983 -14.722488917161801 0.0 -2.1261915849929522 -22.91334883251669 0.0 -4.52187486149421 -19.86006761575584 0.0 -3.594494169054624 -17.4639290365734 0.0 -2.9015113188157797 -16.04681585466978 0.0 -2.4579433957185 -15.529575294544498 0.0 -2.2148597353702497 -15.588862466292447 0.0 -2.054108657000475 -24.543116446230478 0.0 -4.5297424712547 -21.15536238014584 0.0 -3.5157623658262374 -18.50567603536553 0.0 -2.7747910110692278 -16.948455601061802 0.0 -2.30064597830142 -16.37879385397892 0.0 -2.0577968712214902 -16.45441939975902 0.0 -1.9094229832679575 -26.27564313545584 0.0 -4.46937251376044 -22.4958480661642 0.0 -3.3403297736205886 -19.56204581058056 0.0 -2.537074232985152 -17.84683638554904 0.0 -2.0322750757738377 -17.22031073173466 0.0 -1.7976344458254707 -17.3104185345032 0.0 -1.6638867455907997 -28.15132580901506 0.0 -4.33687261628788 -23.893791656761017 0.0 -3.055118154031326 -20.636056830589197 0.0 -2.1684334704632597 -18.74306685387136 0.0 -1.6363003012916557 -18.05598643273959 0.0 -1.4099787122268912 -18.153427948920196 0.0 -1.31359232109953 -30.17500332599445 0.0 -4.1288387265294 -25.335533553835766 0.0 -2.655162478618875 -21.70715713131546 0.0 -1.681509078746082 -19.61582231399229 0.0 -1.120601268671787 -18.86113592161182 0.0 -0.9036661796248859 -18.96152926042794 0.0 -0.8607387253459441 -32.25205038124874 0.0 -3.8498427945885 -26.764295748720162 0.0 -2.149895900571472 -22.729940770706783 0.0 -1.045907739829246 -20.42041270760719 0.0 -0.47204091441735796 -19.560925755077673 0.0 -0.3355540760775194 -19.681135628502503 0.0 -0.32257872384338454 -34.2705431355606 0.0 -3.5874972947452313 -28.078990887220556 0.0 -1.578496777939368 -23.63637654923448 0.0 -0.2702253584628792 -21.07510371968304 0.0 0.237535518129683 -20.142207064468018 0.0 0.3796678750351606 -20.26800761492032 0.0 0.334934728362552 -35.95631803482322 0.0 -3.3373684435949045 -29.2508109487506 0.0 -0.9014703538435499 -24.39105303213072 0.0 0.44538697172973607 -21.623172891317 0.0 1.0584977884984 -20.6187900574656 0.0 1.2270446659327998 -20.75901307261421 0.0 1.168032499529422 -37.37740736401334 0.0 -3.33083111133507 -30.249646084323707 0.0 -0.2327895314498415 -25.06795406217243 0.0 1.121355072066813 -22.100478769384324 0.0 1.9231218101380883 -21.03232830296658 0.0 2.135003679701326 -21.1327221214988 0.0 2.140162509085064 -37.867227160978246 0.0 -3.4772072701973245 -30.75365395909536 0.0 0.3410461471903398 -25.33900732130556 0.0 1.62834861100374 -22.324025208745798 0.0 2.5467311977009204 -21.213609884107747 0.0 2.9897184009433597 -21.395705258474536 0.0 3.110911080022578 -36.4518611289308 0.0 -3.85576715383268 -30.256446804729276 0.0 0.8892992140725919 -24.922074339010205 0.0 2.128720111773008 -21.97251117329382 0.0 3.191581620837204 -21.0415156453008 0.0 3.6043165785697195 -21.368616065101293 0.0 3.9656334944417697 -28.307233094652478 0.0 -3.9187292072813276 -26.754537479086075 0.0 1.5595738613084158 -23.31812509601675 0.0 2.7035917689617754 -20.629381597645818 0.0 4.052932853315272 -19.766830364582102 0.0 3.9912389655875407 -20.53090485703113 0.0 4.23761614141383 -16.90567713670726 0.0 -4.16899591886649 -16.64463917242458 0.0 1.7950826331816878 -16.720970916307394 0.0 3.7997041493499983 -16.76393794664066 0.0 5.18038304815288 -16.710839078235118 0.0 5.21487216092952 -17.4218032375596 0.0 4.3737414661314 -9.572521571451002 0.0 -4.48741345989825 -9.32607876726987 0.0 3.080931201249018 -9.30507154433829 0.0 4.17434291869833 -9.37467842723505 0.0 5.918499887129099 -9.879076589132358 0.0 5.97978018246484 -10.72373672536518 0.0 5.04227016618347 -6.145519193544319 0.0 -4.49329956378942 -5.88229987872168 0.0 5.240646124469761 -5.664673163219201 0.0 4.4847695467796 -5.59299328665552 0.0 6.208544025569361 -5.82664399040585 0.0 6.395798171188 -6.33511256624097 0.0 6.418938398602051 -4.74651582409067 0.0 -4.63103515382647 -4.44378398855085 0.0 6.14784251959425 -4.1341406650406105 0.0 4.51890130400016 -3.9425598039465717 0.0 6.508829892333959 -3.9077684140756666 0.0 7.116680214823199 -4.036958590510048 0.0 7.66147518378122 -3.138370103429145 0.0 -4.70531225400145 -2.9117776000057844 0.0 6.5575759615624 -2.658428032092875 0.0 4.856641973553749 -2.431253700774465 0.0 6.575145986267598 -2.251271479871771 0.0 7.408257301173979 -2.12973205358298 0.0 8.059143473912599 -0.042505697988021805 0.0 -4.746534567345161 0.00949979686377925 0.0 6.583681033506999 0.0818103935389043 0.0 5.326061700515271 0.1958784085426749 0.0 6.38963091832373 0.35772461531053 0.0 6.986994512628 0.562238456613102 0.0 7.70616907788753 4.59441746470236 0.0 -4.72376371250407 4.433535496821451 0.0 6.243187693641151 4.2715071314504405 0.0 5.51906527396455 4.11979272230972 0.0 6.33413867955041 4.18172712770723 0.0 6.2618686315774905 4.31479520712996 0.0 6.890653709057999 10.0835936912931 0.0 -4.7491856786352 9.67534607369043 0.0 5.638384396779751 9.20233091769888 0.0 5.41644280615698 8.86090644553977 0.0 6.189471184601341 8.753474256014668 0.0 5.52920523865129 8.75509422067225 0.0 5.86503793468923 15.685644195050278 0.0 -4.99032039654808 14.951573851747861 0.0 4.8324519279126 14.178123234476638 0.0 4.92880469896112 13.69433915103568 0.0 5.80523480494032 13.43953193311485 0.0 4.87495183758154 13.3711262885381 0.0 4.80998081553131 20.83678197143036 0.0 -5.196030878133549 19.891042898950882 0.0 3.5774383691552503 18.786177771357533 0.0 4.22432124646771 17.957913191416644 0.0 5.233612726975361 17.83482388771071 0.0 4.25263380518789 17.819122949333387 0.0 3.8669147107221686 25.375826379854196 0.0 -5.109094110217 24.11541903712165 0.0 2.384634393559376 22.4777879691345 0.0 3.2397727217507697 21.75844639296042 0.0 4.24960325105184 21.757030463072738 0.0 3.694073901883288 21.945813953518456 0.0 3.1054696461603246 29.69884744256066 0.0 -5.2304867968457005 27.730397458518706 0.0 1.04262284943997 25.674313178395398 0.0 2.0100999292516684 25.101862306798864 0.0 3.30010994351007 25.37125422123306 0.0 2.9566445045962655 25.63984055056428 0.0 2.357124377738688 33.83818910753904 0.0 -5.37764035933551 31.14284749831332 0.0 -0.2026657331151684 28.6853998131605 0.0 0.7619560715714501 28.171553199555017 0.0 2.2774845124150023 28.168035483770232 0.0 1.6286974041655071 27.83419115179969 0.0 1.4688738689861318 37.912114057154405 0.0 -5.66009047333464 34.49124885708348 0.0 -1.206287108622636 31.5935166431007 0.0 -0.179368349968067 30.62561663748974 0.0 0.8365797342675719 29.5581830459544 0.0 0.18485997582528482 28.639400840097238 0.0 0.574691984811104 42.025760598832804 0.0 -5.94145101786652 37.82446675900992 0.0 -1.9506659294691922 34.677342100571046 0.0 -1.242067018896496 32.042966274002154 0.0 -0.750795013648379 30.15051384044392 0.0 -0.705696037540508 29.03312951809788 0.0 -0.0900743341615327 46.4713556535819 0.0 -6.37005002259294 41.32903850019 0.0 -2.4197581355696283 36.92904339502554 0.0 -2.4040626913562395 32.97055326398952 0.0 -1.7012501955474961 30.4998344315095 0.0 -1.3055026143785 29.239294279367126 0.0 -0.6853676421990931 51.147286951356 0.0 -6.709491573715681 44.9442276257226 0.0 -3.2939541736342925 38.48178911273424 0.0 -3.2415803374074117 33.64812069964392 0.0 -2.158430771626533 30.878655531408 0.0 -1.666357565694696 29.488302111916436 0.0 -1.081784239158984 56.545434858825594 0.0 -7.04796434757792 47.6144245738992 0.0 -4.6359873618393594 40.08681780929259 0.0 -3.5140244706401518 34.560763123127344 0.0 -2.389500172036824 31.443637186736645 0.0 -1.87822459837632 29.740622725043163 0.0 -1.360094902694612 60.4571424628992 0.0 -7.497016992938879 50.6489205174624 0.0 -5.156163048078 41.960489495950206 0.0 -3.620882544193941 35.88416555592744 0.0 -2.463706945854468 32.271984306731994 0.0 -1.9106425942524 30.123103637060996 0.0 -1.5055041165142748 54.0635983499885 0.0 -5.6722998833319 44.576326683675404 0.0 -3.93419752480961 37.770618947043005 0.0 -2.557646980001525 33.36532033949628 0.0 -1.9124014188262402 30.7037085863528 0.0 -1.5325323375053999 57.96427347394881 0.0 -6.081370811100481 48.0591368836876 0.0 -4.267239136079801 40.269269811742404 0.0 -2.7744538290958722 34.9533138445712 0.0 -1.94738673518114 31.650819945123896 0.0 -1.568908632249168 52.22423919763919 0.0 -4.53696227967068 43.6024761231972 0.0 -2.9925886399384805 37.25322924085892 0.0 -1.9239173974217363 33.22350734634129 0.0 -1.57667160073563 56.7042952756485 0.0 -4.76426853494068 47.700855073495 0.0 -3.0900458039640597 40.406713061032 0.0 -1.8347241810143882 35.50685116635778 0.0 -1.43992194731637 52.55242578770719 0.0 -3.3912074694441783 44.48956589366159 0.0 -1.9129061528617117 38.46292018991851 0.0 -1.22742333646933 49.496780937617494 0.0 -2.306283870363641 42.51083662758579 0.0 -1.25283206105964 53.988739619785804 0.0 -2.790889806443594 47.871081003467 0.0 -1.7141882955253116 -0.9340027033500671 0.0 -0.1187179589679489 -0.9628036640700911 0.0 -0.0967627304190682 -0.9811409045285221 0.0 -0.0775739459393486 -0.991439824785995 0.0 -0.061123469528086706 -0.9964519849112989 0.0 -0.0465263451631586 -0.9980347049508672 0.0 -0.034289468057236684 -0.997773784944344 0.0 -0.02397669619941739 -0.996875784921894 0.0 -0.01506069037651725 -0.9960091049002272 0.0 -0.007305642982641069 -1.1686889892172239 0.0 -0.1422392755559818 -1.2023739100593471 0.0 -0.11788661894716541 -1.223230390580759 0.0 -0.096546722413668 -1.2349789108744722 0.0 -0.0765519939137998 -1.2402538710063462 0.0 -0.059381701484542505 -1.241543591038589 0.0 -0.0446428691160717 -1.2408661110216521 0.0 -0.03159731998993298 -1.239453550986338 0.0 -0.02029090290727256 -1.2382835509570882 0.0 -0.00985851384646284 -1.443514276087856 0.0 -0.1491626677290666 -1.4828781570719531 0.0 -0.126006843150171 -1.5072243176806073 0.0 -0.10456918661422959 -1.520566198014154 0.0 -0.0845822581145564 -1.526425958160648 0.0 -0.0669882536747063 -1.5277916381947902 0.0 -0.050847997271199895 -1.526831078170776 0.0 -0.03649765651244139 -1.5250450381261251 0.0 -0.0236595845914896 -1.523585158089628 0.0 -0.01153453188836329 -1.7427054035676341 0.0 -0.14752193968804841 -1.787775084694376 0.0 -0.1269647391741184 -1.8157761253944023 0.0 -0.1065685066642126 -1.8309670057741745 0.0 -0.0876530261913256 -1.8376793259419821 0.0 -0.07036556175913901 -1.8392544059813594 0.0 -0.0541584733539618 -1.838112685952816 0.0 -0.039444360986109005 -1.8361114859027858 0.0 -0.025659025441475622 -1.834427685860691 0.0 -0.01267447951686198 -2.073715051842875 0.0 -0.1417673275441831 -2.124384733109617 0.0 -0.12344003108600071 -2.1556559338913974 0.0 -0.10510565462764129 -2.1725838143145944 0.0 -0.08793608219840202 -2.180102414502559 0.0 -0.0712086577802164 -2.181863454546585 0.0 -0.05557956938948921 -2.180635494515886 0.0 -0.0408671050216776 -2.1784080944602007 0.0 -0.02682566427064159 -2.176534894413371 0.0 -0.01328061833201545 -2.4443403811085083 0.0 -0.1340387513509687 -2.499935222498379 0.0 -0.1184433589610839 -2.5339709033492706 0.0 -0.10253919456347979 -2.552336183808403 0.0 -0.0868298661707466 -2.5604199040104962 0.0 -0.07147088178677201 -2.562252504056311 0.0 -0.05652754941318871 -2.560846584021163 0.0 -0.0419505450487636 -2.558355783958893 0.0 -0.027795118694877954 -2.556273343906832 0.0 -0.013822789945569739 -2.856698671417465 0.0 -0.12677165516929131 -2.9163637929090926 0.0 -0.1146691348667283 -2.95260607381515 0.0 -0.10146062653651561 -2.971979394299483 0.0 -0.087379482184487 -2.9803204345080094 0.0 -0.0731049138276228 -2.9820761545519026 0.0 -0.0586350094658752 -2.9803862345096546 0.0 -0.0440612971015324 -2.9775927144398158 0.0 -0.029389227134730658 -2.9752855943821377 0.0 -0.014728409568210232 -3.309106922727671 0.0 -0.1240330231008255 -3.3720540043013485 0.0 -0.1161738789043469 -3.4100453252511307 0.0 -0.1055927186398179 -3.4300820057520487 0.0 -0.09295356632383911 -3.438507925962696 0.0 -0.0790239539755988 -3.440043326001081 0.0 -0.0642011256050281 -3.4380372059509288 0.0 -0.0487627332190683 -3.4349316458732897 0.0 -0.032786516019662884 -3.4323811258095263 0.0 -0.016495764812394113 -3.7995205749880117 0.0 -0.1324311033107775 -3.865117376627932 0.0 -0.12853485521337132 -3.9046242576156045 0.0 -0.1200205710005142 -3.925280098132 0.0 -0.1076828386920709 -3.9338131783453267 0.0 -0.0927898263197456 -3.9351750583793748 0.0 -0.0760643019016075 -3.93289689832242 0.0 -0.058171841454296 -3.9294858182371435 0.0 -0.03928746978218672 -3.926724338168106 0.0 -0.01981435769535893 -4.325833308145831 0.0 -0.160944764023619 -4.39406330985158 0.0 -0.1586127679653191 -4.43526051088151 0.0 -0.1503180917579522 -4.45691051142276 0.0 -0.136146523403663 -4.46587251164681 0.0 -0.1180301589507539 -4.467322911683071 0.0 -0.0970149464253736 -4.46490171162254 0.0 -0.07413583385339581 -4.46130211153255 0.0 -0.050091701252292495 -4.4583841114596 0.0 -0.0252113406302835 -4.88690372217259 0.0 -0.21559160138978992 -4.95750532393763 0.0 -0.21286247332156172 -5.00111732502793 0.0 -0.2017595810439894 -5.024656125616399 0.0 -0.1823598805589969 -5.0348165258704105 0.0 -0.15733259193331472 -5.036852525921311 0.0 -0.12893607922340192 -5.03464932586623 0.0 -0.09839691045992272 -5.0309677257741905 0.0 -0.0667906856697671 -5.02797652569941 0.0 -0.03371777604294439 -5.48153413703835 0.0 -0.2997150514928761 -5.55513293887832 0.0 -0.2956323953908097 -5.602751340068781 0.0 -0.2770731029268274 -5.629699740742489 0.0 -0.24797998219949943 -5.64186974104674 0.0 -0.2141590413539759 -5.6452921411323 0.0 -0.1749055923726397 -5.6438217410955405 0.0 -0.1331799433294985 -5.640559341013981 0.0 -0.0896534222413355 -5.63769654094241 0.0 -0.0450779491269487 -6.10936255273406 0.0 -0.417852930446323 -6.188241754706041 0.0 -0.404676290116907 -6.241760556044011 0.0 -0.37635808940895205 -6.27334895683372 0.0 -0.335579688389492 -6.289458157236451 0.0 -0.2861932591548313 -6.29519735737993 0.0 -0.23293421782335533 -6.295165757379141 0.0 -0.17686588042164691 -6.29267135731678 0.0 -0.11879007096975171 -6.289862157246549 0.0 -0.0604534655113366 -6.77193696929842 0.0 -0.5785677744641939 -6.85783017144575 0.0 -0.545897053647426 -6.9199557729988905 0.0 -0.49719221242980505 -6.9575065739376605 0.0 -0.44494081112352 -6.97952057448801 0.0 -0.377132209428305 -6.98922657473066 0.0 -0.3069473356736832 -6.991500174787501 0.0 -0.2326821858170545 -6.990550574763761 0.0 -0.1560678639016965 -6.98893457472336 0.0 -0.0783816579595414 -7.4714121867853 0.0 -0.771259859281496 -7.5662149891553705 0.0 -0.711367337784183 -7.6381897909547405 0.0 -0.642198296054957 -7.68581339214533 0.0 -0.565138654128466 -7.71363859284096 0.0 -0.4854074521351861 -7.728248193206201 0.0 -0.39456659386416465 -7.734528593363209 0.0 -0.2991916034797899 -7.73575019339375 0.0 -0.20112741302818524 -7.735393793384841 0.0 -0.10088815852220391 -8.20589700514742 0.0 -0.9853302246332551 -8.313578207839452 0.0 -0.8978145024453621 -8.39778300994457 0.0 -0.803498300087457 -8.45628981140724 0.0 -0.702934057573351 -8.493470212336751 0.0 -0.598556534963913 -8.515728212893201 0.0 -0.48779309219482697 -8.52623861315596 0.0 -0.37218259330456466 -8.53129661328241 0.0 -0.2499535862488395 -8.53286381332159 0.0 -0.125779323144483 -8.977045824426142 0.0 -1.204297190107429 -9.098547027463672 0.0 -1.0935890273397249 -9.19740182993504 0.0 -0.9762275044056871 -9.27045383176134 0.0 -0.850945301273632 -9.318721832968041 0.0 -0.72338641808466 -9.35026183375654 0.0 -0.587497134687428 -9.369175034229372 0.0 -0.446483371162084 -9.37851063446276 0.0 -0.3027324035683099 -9.382901434572531 0.0 -0.15309280382732002 -9.77760184444004 0.0 -1.4039425150985623 -9.9194162479854 0.0 -1.2828877920721942 -10.03719985092999 0.0 -1.149075348726883 -10.12581745314543 0.0 -1.006031825150795 -10.189525854738141 0.0 -0.855622221390555 -10.23430665585766 0.0 -0.697431057435776 -10.26311145657778 0.0 -0.5323682933092071 -10.280841457021031 0.0 -0.3592053729801341 -10.29007065725176 0.0 -0.1811222965280573 -10.60601986515049 0.0 -1.585428559635713 -10.77251706931292 0.0 -1.455396796384919 -10.91324267283106 0.0 -1.3123980728099511 -11.02339587558489 0.0 -1.1592482689812063 -11.104961477624032 0.0 -0.9962895449072379 -11.165040679126012 0.0 -0.8168724204218102 -11.206956680173908 0.0 -0.625652655641316 -11.23388708084717 0.0 -0.42435801060895006 -11.248611081215271 0.0 -0.21404989335124722 -11.45829108645727 0.0 -1.7428448035711193 -11.65356989133924 0.0 -1.6074520401863 -11.823011495575281 0.0 -1.46299243657481 -11.959283898982092 0.0 -1.302392992559824 -12.06499590162489 0.0 -1.127154948178873 -12.14597670364941 0.0 -0.9308644632716111 -12.204020305100501 0.0 -0.7153382978834569 -12.24351910608797 0.0 -0.485497572137439 -12.26584870664621 0.0 -0.2453369221334229 -12.3302723082568 0.0 -1.8667852866696308 -12.559801113995022 0.0 -1.7378118834452958 -12.76284271907106 0.0 -1.5934014798350362 -12.931410723285262 0.0 -1.4304715557617882 -13.067555526688881 0.0 -1.2475410711885262 -13.174310729357762 0.0 -1.034054785851369 -13.25413073135326 0.0 -0.798755139968878 -13.309245532731131 0.0 -0.543955773598894 -13.341465933536641 0.0 -0.2758071028951774 -13.21873953046848 0.0 -1.9616037690400931 -13.486653537166331 0.0 -1.8374073659351828 -13.72916914322922 0.0 -1.6963001624075027 -13.937733948443341 0.0 -1.536370798409269 -14.10927755273193 0.0 -1.3451725536293129 -14.248447156211169 0.0 -1.1226262280656552 -14.354983958874591 0.0 -0.871181141779528 -14.429935160748371 0.0 -0.5957586548939661 -14.47483996187099 0.0 -0.30239861955996533 -14.118291152957271 0.0 -2.0152449303811224 -14.429982360749548 0.0 -1.8969048074226194 -14.71875956796898 0.0 -1.7655580841389509 -14.97166157429153 0.0 -1.6053574001339341 -15.18640317966007 0.0 -1.414520475363011 -15.36432238410805 0.0 -1.187730549693263 -15.50349598758739 0.0 -0.9266001831650041 -15.60286919007172 0.0 -0.6362707359067681 -15.66305279157631 0.0 -0.3237060400926508 -15.024644424843348 0.0 -2.016423123248556 -15.384699600105721 0.0 -1.9055678358500336 -15.725719823942281 0.0 -1.7864234314813279 -16.028704860209523 0.0 -1.6314426260223203 -16.2933957720598 0.0 -1.4468251013034459 -16.516504168387254 0.0 -1.2219450111426 -16.694246849590236 0.0 -0.9589105660359121 -16.82325708180824 0.0 -0.6606664691975038 -16.90166762294696 0.0 -0.3371341828404368 -15.9334228166544 0.0 -1.95204826421298 -16.34611966748145 0.0 -1.8528112304809559 -16.74275638167984 0.0 -1.7460523816482723 -17.10246162125865 0.0 -1.604303185011618 -17.422943408169903 0.0 -1.4313161794104958 -17.69794325326506 0.0 -1.216613350506624 -17.920300417161602 0.0 -0.9597407263962661 -18.083990782349098 0.0 -0.66461274150129 -18.18415183068 0.0 -0.3396257098933248 -16.8406721460048 0.0 -1.8101108761669396 -17.30901347967818 0.0 -1.7265842516304457 -17.76504462783682 0.0 -1.6385665916827512 -18.186014288304747 0.0 -1.514862002302825 -18.567775891406562 0.0 -1.35840033064768 -18.9005149010046 0.0 -1.1606502074269698 -19.173628050565245 0.0 -0.9200459154441499 -19.376111573975 0.0 -0.6409636528925 -19.501119261556003 0.0 -0.329064258307516 -17.74276588390328 0.0 -1.581135061730968 -18.26883003507606 0.0 -1.5189479949382259 -18.78462834469542 0.0 -1.4449823746135217 -19.27346811932808 0.0 -1.351957423998843 -19.72061286376388 0.0 -1.2183530355681522 -20.1153268110943 0.0 -1.0454851001654901 -20.443253327604598 0.0 -0.832098290502225 -20.689714573911463 0.0 -0.580389019090531 -20.842932275822083 0.0 -0.2983629651871764 -18.631464206811682 0.0 -1.2612154357749918 -19.217118391714962 0.0 -1.227944365538608 -19.7994325673627 0.0 -1.1717632394465258 -20.35653968030812 0.0 -1.10373460373333 -20.8720281432124 0.0 -0.9950608699904099 -21.332302220486067 0.0 -0.8554113152907069 -21.71801092719855 0.0 -0.682202233007226 -22.010703646490402 0.0 -0.477360804947984 -22.1936711748752 0.0 -0.24526098695538437 -19.483659619707208 0.0 -0.853216470841575 -20.1405057958533 0.0 -0.8344702483367251 -20.7868745364432 0.0 -0.8042536780304519 -21.415458671387462 0.0 -0.753931323607182 -22.001974058505 0.0 -0.671905704513756 -22.52908598616396 0.0 -0.5745902433581219 -22.975362421394763 0.0 -0.455208387434592 -23.316309740449622 0.0 -0.3168860078454624 -23.531286207894485 0.0 -0.164413684249989 -20.255883776864607 0.0 -0.3335608273883074 -20.982512690941462 0.0 -0.34017401070852454 -21.714249919613852 0.0 -0.32769472809958 -22.4204015681152 0.0 -0.29622447376294403 -23.07838477566858 0.0 -0.24607846806927822 -23.670770115451116 0.0 -0.2004036989391563 -24.17257308879682 0.0 -0.1627684698363206 -24.56936069910606 0.0 -0.10219144942456761 -24.8157263185624 0.0 -0.055173083946473994 -20.91219994275514 0.0 0.2990886403014787 -21.721072770665543 0.0 0.27912198347916 -22.53737521497418 0.0 0.2862328121318116 -23.31563200698654 0.0 0.31079045376049297 -24.04607659968968 0.0 0.3322243214003628 -24.693096203147633 0.0 0.2961387373177121 -25.26090702908935 0.0 0.272028335086209 -25.692238727554155 0.0 0.2036847242823858 -25.95448147937966 0.0 0.11245290387893558 -21.45454796431008 0.0 1.090822024852488 -22.34950257226176 0.0 1.064306371616488 -23.23131850237092 0.0 1.069300936062796 -24.07334085913504 0.0 1.085583129302848 -24.85512871580076 0.0 1.0770447110110108 -25.54515672817599 0.0 1.005579187128963 -26.13775145951292 0.0 0.8699887046939941 -26.58032993751804 0.0 0.656718213611844 -26.8639307818632 0.0 0.358517996108352 -21.899152377389957 0.0 2.0566860963579 -22.846788982501202 0.0 2.01836104314981 -23.785850632938303 0.0 2.024199009642834 -24.664698917379 0.0 2.00550306523158 -25.48264684729932 0.0 1.9391137775559 -26.20933150143232 0.0 1.78155911714624 -26.798248911333047 0.0 1.5015830146931568 -27.26401310224805 0.0 1.0536104921104512 -27.55508627322148 0.0 0.5175150816341441 -22.2180962193392 0.0 3.126291040767504 -23.22439584374646 0.0 3.1666218630542744 -24.195756149980003 0.0 3.1718186953082 -25.101506772805443 0.0 3.1381929895492164 -25.94130581216265 0.0 3.006850470888201 -26.67283205493411 0.0 2.7428767853035048 -27.25703645014053 0.0 2.329299363630774 -27.700319537912637 0.0 1.6722497920281478 -27.954903844722363 0.0 0.872849656822275 -22.2725237129874 0.0 4.1904820453104 -23.366179543591198 0.0 4.37810610295512 -24.44070370173372 0.0 4.55363248687578 -25.416739538046784 0.0 4.61300934848424 -26.290365727478576 0.0 4.47906355575903 -27.04497052606416 0.0 4.16733955395456 -27.623729664476006 0.0 3.605827688450598 -28.02396227942538 0.0 2.6760407404350537 -28.259169311756253 0.0 1.45099156744125 -21.71962151808339 0.0 4.76214363135408 -23.0705604466109 0.0 5.3137880057873 -24.34149967593153 0.0 5.714245419156931 -25.420085570763117 0.0 5.864712491135959 -26.31488647949616 0.0 5.70220768647712 -27.0816961153453 0.0 5.2606632670075 -27.72281929509889 0.0 4.458139897716911 -28.214291311660162 0.0 3.2632122347174515 -28.500502567936 0.0 1.7392438696239603 -18.925895278679 0.0 3.7300861814029767 -20.499802646680973 0.0 4.36993786756391 -22.11219624022896 0.0 4.90681181860668 -23.712030475607282 0.0 5.09139701794532 -25.169377239325563 0.0 4.96706146979616 -26.414997241542 0.0 4.55837372091465 -27.45660106603422 0.0 3.828678467040018 -28.23597351720718 0.0 2.778899108938078 -28.69596030548568 0.0 1.472607210689432 -11.81590868299556 0.0 5.13143982498004 -13.062162282054599 0.0 5.85382762389243 -14.39872162000416 0.0 6.33956316201216 -15.730091139502079 0.0 6.44645933307904 -16.97857132946232 0.0 6.187707945841919 -18.086459439746 0.0 5.58541071673516 -19.007193619511607 0.0 4.63997864054962 -19.700238137948748 0.0 3.350601242205375 -20.13185384082512 0.0 1.7634318703623917 -7.033983173315369 0.0 7.01588223684309 -7.898796273363001 0.0 7.642890071893001 -8.868451478519122 0.0 7.99048364486906 -9.873256191982989 0.0 7.9226319763608 -10.848584233219091 0.0 7.469191003992649 -11.739356477705499 0.0 6.65751623518456 -12.496103797747528 0.0 5.48130434251086 -13.07444982804 0.0 3.9341539685529 -13.437925232117822 0.0 2.063298335091798 -4.31680696630184 0.0 8.265909990354638 -4.7284640752969995 0.0 8.8512470443794 -5.24612650410074 0.0 9.140116199631338 -5.830596236126399 0.0 8.9912335960548 -6.43643373758256 0.0 8.4356484599376 -7.018183010805469 0.0 7.49624289819566 -7.530658614497651 0.0 6.15830962674695 -7.932114659617161 0.0 4.4126627681552595 -8.18832385398781 0.0 2.3117470324944343 -2.071469914497786 0.0 8.71372248357306 -2.0860418119864437 0.0 9.32938333575495 -2.180520352724376 0.0 9.64563170273482 -2.3463006137181 0.0 9.5165553809638 -2.562958778724341 0.0 8.961623475162371 -2.8027466118720947 0.0 7.991015065536001 -3.0336589783183676 0.0 6.58139488405538 -3.225080135754944 0.0 4.72314823546329 -3.3514080121061465 0.0 2.4763288355048525 0.796579418651016 0.0 8.435492772500039 1.0364997451582079 0.0 9.121259271450239 1.2536063636561499 0.0 9.5221826606515 1.428620706439125 0.0 9.48694895163681 1.553840712045888 0.0 9.014712752738559 1.632818173554176 0.0 8.09824888672128 1.6761620303454998 0.0 6.70643057491 1.695742527521864 0.0 4.83042391471158 1.7024292542650952 0.0 2.537740951429635 4.55792495858696 0.0 7.654284072943599 4.89365599034932 0.0 8.405031352468809 5.28396954643992 0.0 8.9050809568308 5.687409690963 0.0 8.99392381519086 6.0697510634661 0.0 8.647432077548041 6.407686629957781 0.0 7.841550050383501 6.685038846621199 0.0 6.5392266386807 6.890702488448021 0.0 4.7323874215931 7.016919642694269 0.0 2.4930472868165534 8.89703869471948 0.0 6.62218022110574 9.21124848248186 0.0 7.409321276967569 9.65975348231388 0.0 7.98721657204318 10.18730327504016 0.0 8.18825844219432 10.737875533502882 0.0 7.969780389680639 11.26238050410936 0.0 7.2964917140994 11.71831604115364 0.0 6.12834691225692 12.070759864797202 0.0 4.45718098366968 12.29320970292856 0.0 2.3549766691233436 13.380568758221147 0.0 5.5476683950701995 13.622559697577701 0.0 6.340769689884181 14.064516273418379 0.0 6.957294002319419 14.644307116517759 0.0 7.23188624591736 15.291138784890183 0.0 7.114054442485881 15.9356255621063 0.0 6.5660236586419005 16.51352144141206 0.0 5.548750901267341 16.96982217700992 0.0 4.053464628002285 17.261794908110502 0.0 2.1474332734710426 17.74141370332644 0.0 4.5643949873306395 17.921166187837922 0.0 5.343529546930889 18.34030343214636 0.0 5.959594628049 18.9350792411431 0.0 6.26166747683575 19.6274572983658 0.0 6.203746035734519 20.3366314982612 0.0 5.7549898703052005 20.9849729959472 0.0 4.8824129179926 21.504119486558658 0.0 3.5773226441349175 21.839365348773462 0.0 1.8988172388019755 21.87989522523804 0.0 3.7352986034172124 22.04007532581426 0.0 4.49277318960052 22.447140340027197 0.0 5.08085744477728 23.03908307024464 0.0 5.37180992912428 23.73488771689 0.0 5.3335438219 24.453087646099597 0.0 4.950438201359599 25.10586548755105 0.0 4.20093285234445 25.6225365063612 0.0 3.0792134919024217 25.95459688589604 0.0 1.635453366355102 25.5407953096913 0.0 3.0341380843792902 25.6480316064692 0.0 3.7615501049572524 25.929187171001622 0.0 4.29648700676202 26.314302814518484 0.0 4.54108451627336 26.76831551134852 0.0 4.48975681677633 27.189463247384978 0.0 4.15279549788265 27.585969597380153 0.0 3.5181185636111354 27.892012821377456 0.0 2.577833089233717 28.063353362186295 0.0 1.37006815694901 27.5269519197781 0.0 2.2187302700872675 27.464720848583756 0.0 2.939742237041463 27.54567137006594 0.0 3.452539213013576 27.6842218354845 0.0 3.674736328012654 27.883867323205862 0.0 3.6345791693726204 28.09566713057558 0.0 3.359179164205842 28.32442457971406 0.0 2.8486211426022834 28.50541290937417 0.0 2.092322034930974 28.6228248462211 0.0 1.11302606977265 28.24927061940168 0.0 1.34923813437857 28.11344557613878 0.0 2.067780992646204 28.10001475740636 0.0 2.572367873656756 28.155799643098923 0.0 2.808824334429758 28.28529082315 0.0 2.791465486739 28.46354242871272 0.0 2.585179174452112 28.606353829130498 0.0 2.215647012343725 28.727996645767863 0.0 1.6366275377378163 28.833105695037275 0.0 0.874892685071104 28.53322793072016 0.0 0.621378228648494 28.413073566232548 0.0 1.3116208086241912 28.385259163014076 0.0 1.8168901602626748 28.424839555298078 0.0 2.059471775220192 28.504725176993198 0.0 2.0961597098747 28.62124279036948 0.0 1.9699153563348841 28.736181545798654 0.0 1.66668347100024 28.83965110515556 0.0 1.21516804017366 28.910776009996148 0.0 0.64311017754953 28.75551771987216 0.0 -0.0031339296488442237 28.538493640524813 0.0 0.6704500444310971 28.44597034129104 0.0 1.184078365218264 28.474813865017733 0.0 1.494763630235238 28.524730617039264 0.0 1.5923724363796081 28.64951705024682 0.0 1.4781011663466361 28.767710472456546 0.0 1.2513087293109781 28.86672866358372 0.0 0.9124670214532862 28.927745812553336 0.0 0.48310306603061404 28.831039035432568 0.0 -0.45623279586719695 28.535608348250847 0.0 0.1305339428567934 28.480528871729366 0.0 0.5821421797091069 28.46430216938964 0.0 0.9021185764559879 28.506263350528325 0.0 1.0159678774458238 28.594032432492064 0.0 1.0231366480839 28.70563161800718 0.0 0.9346627243614332 28.793410383053008 0.0 0.697285956799332 28.852063068943018 0.0 0.37536234556506687 28.861267179703297 0.0 -0.7757820239177748 28.54554522184496 0.0 -0.2779725967327663 28.4194385515358 0.0 0.15400346134875 28.410213706996423 0.0 0.44432581667484405 28.45012554242471 0.0 0.57800051295335 28.49196679091336 0.0 0.598655942996056 28.55450856012594 0.0 0.5371983827705181 28.608337059677318 0.0 0.43514123860015197 28.692082252935844 0.0 0.2721696242198544 29.021227139187502 0.0 -1.03600024222625 28.472718313806304 0.0 -0.59259395048595 28.304047640713083 0.0 -0.249607032613791 28.249035798776312 0.0 0.05673912830158931 28.255141409100318 0.0 0.23863412967468883 28.2820943448371 0.0 0.3253823957146585 28.316180370160406 0.0 0.3262503532412978 28.350095591302935 0.0 0.2456904095190117 28.369850410307997 0.0 0.11938001360058398 29.182790517991357 0.0 -1.1727812520761198 28.454227211917317 0.0 -0.8711505345386139 28.118288052552618 0.0 -0.5672999648815199 28.001980062472498 0.0 -0.312871082998705 27.957301354619005 0.0 -0.089549194808115 27.945354831215898 0.0 0.050930321753760804 27.941608357791196 0.0 0.1313910691635888 27.955331572360453 0.0 0.14160699025325302 27.98305633144847 0.0 0.0908085779402001 29.574291973756697 0.0 -1.2195853311438498 28.465973629286452 0.0 -0.984616967692885 27.97742123754786 0.0 -0.8108464920258791 27.700644575571108 0.0 -0.565481772336481 27.605704837357077 0.0 -0.3845773647816292 27.52302719296176 0.0 -0.1841476393824824 27.486720154982883 0.0 -0.06684520448263771 27.461621182284777 0.0 0.02746423362715424 27.50667039250192 0.0 -0.02116625316481132 30.458384323350483 0.0 -1.2519224977674241 28.7669088945108 0.0 -1.008735066824664 27.893349596569323 0.0 -0.8869429151781839 27.492750011687395 0.0 -0.7715533087108859 27.2001028581165 0.0 -0.550959993014625 27.084696956439842 0.0 -0.3957101247416484 26.967025701996 0.0 -0.2053027313908146 26.95385150135658 0.0 -0.1421638748811822 26.9373687763104 0.0 -0.098413888923714 31.944143773293323 0.0 -1.218822585644348 29.633434264416003 0.0 -1.00631027285691 28.20720113332705 0.0 -0.8773352398253198 27.349427394511068 0.0 -0.7887550506504569 26.96739384921761 0.0 -0.690135888449267 26.63479622284966 0.0 -0.476132286220183 26.47142150709826 0.0 -0.3421266194284169 26.411855402014638 0.0 -0.24120889455358557 26.370022821269053 0.0 -0.155773616126282 34.02927340458384 0.0 -0.983856093289392 31.032770180071555 0.0 -0.9113089264673441 29.010663956717867 0.0 -0.8115158621195799 27.735818587040466 0.0 -0.7383499576067881 26.8837354834136 0.0 -0.6322004767009801 26.400499427071 0.0 -0.53073154939222 26.08056201726051 0.0 -0.3669209403803593 25.960324434347157 0.0 -0.3165139288082394 25.88696216195306 0.0 -0.17967133334813598 37.175490396316164 0.0 -0.684832386905856 33.34663224681588 0.0 -0.569586830754364 30.6484499870874 0.0 -0.610747742835768 28.733247920758497 0.0 -0.5568731836924959 27.48777601558 0.0 -0.549075803854 26.50663009475502 0.0 -0.430616368394016 26.026707508577815 0.0 -0.35441130385321756 25.812312192593108 0.0 -0.2917177615122743 25.64204592356751 0.0 -0.168168729569877 41.5961745676414 0.0 -0.8120906786786429 36.79769183243867 0.0 -0.2632622078861936 33.25358657931765 0.0 -0.21666626481578646 30.57935485449229 0.0 -0.196840399903609 28.720154254526776 0.0 -0.28780256120551717 27.443154161893606 0.0 -0.2716926695760816 26.542109140908273 0.0 -0.20429686161272778 26.085277877346602 0.0 -0.17057453161997052 25.88466930735895 0.0 -0.13130629110651248 47.0776897180008 0.0 -1.35349383215631 41.484522522472204 0.0 -0.495124123024002 37.0883875587525 0.0 -0.036359182269439495 33.491158045399345 0.0 0.24983724816030597 30.966376380308013 0.0 0.2418190240679991 29.138286464661846 0.0 0.157616517970299 28.060726679810102 0.0 0.025753442886872098 27.25841445352998 0.0 0.031104772114996015 26.898418311926278 0.0 0.056250357175941006 46.646181372377406 0.0 -0.9097773357550349 41.966196708996 0.0 -0.23092585167600604 37.69508179524672 0.0 0.3226986767482608 34.36856357921481 0.0 0.578581899055644 31.838109208615794 0.0 0.786522387444768 30.21537293380914 0.0 0.7314054357063959 29.309146352849098 0.0 0.56553561982767 28.906027831474557 0.0 0.3478857244036824 42.4562310511824 0.0 0.23286614847333603 38.93399691900896 0.0 0.645479715156272 36.0009053341091 0.0 0.9949540689862401 34.034934990919716 0.0 1.041221529853076 32.84170264263491 0.0 0.9318970697793401 32.26451954448065 0.0 0.6367530599180009 40.20875195954 0.0 1.1283536696793999 38.28461886943764 0.0 1.356610127240368 37.234346061452676 0.0 1.101698192227877 36.84332477280456 0.0 0.400229429205463 -0.9956970648924259 0.0 -2.388274939706872e-07 -0.996010624900265 0.0 0.0073067121826678 -0.996874264921856 0.0 0.015060311976507791 -0.9977753049443822 0.0 0.023976535399413374 -0.998033944950848 0.0 0.03428931325723281 -0.9964542649113559 0.0 0.0465260891631522 -0.9914367847859189 0.0 0.061123409528085204 -0.981141704528542 0.0 0.0775740299393507 -1.2378215909455392 0.0 3.448240126206001e-07 -1.2382824309570601 0.0 0.00985932064648301 -1.2394543109863572 0.0 0.02029126930728172 -1.240865351021633 0.0 0.031596896789922405 -1.241545151038628 0.0 0.0446428571160714 -1.240253111006327 0.0 0.0593816694845417 -1.234975470874386 0.0 0.0765520219138005 -1.2232307905807691 0.0 0.0965468664136716 -1.5230278380756952 0.0 -3.8589006164725137e-07 -1.523588598089714 0.0 0.0115356522883913 -1.525047718126192 0.0 0.0236588125914703 -1.5268303181707572 0.0 0.03649686051242149 -1.527792758194818 0.0 0.0508480692712017 -1.5264278781606964 0.0 0.0669879456746986 -1.520571158014278 0.0 0.0845818061145451 -1.5072246776806162 0.0 0.10456949861423741 -1.8337992058449792 0.0 7.22741458068536e-07 -1.834428645860715 0.0 0.01267531711688292 -1.8361132059028296 0.0 0.02565847384146183 -1.8381142059528544 0.0 0.03944411978610297 -1.8392534859813359 0.0 0.0541579493539487 -1.837677805941944 0.0 0.0703653057591326 -1.830971565774288 0.0 0.08765123019128071 -1.81577284539432 0.0 0.1065675746641893 -2.1758303343957572 0.0 -1.4532186763304662e-06 -2.176530494413261 0.0 0.013281052332026299 -2.178409454460235 0.0 0.026824919070622958 -2.180639134515977 0.0 0.0408670450216761 -2.181864614546614 0.0 0.05557902138947551 -2.1801004945025113 0.0 0.07120844978021121 -2.172581934314547 0.0 0.0879349981983749 -2.1556534538913352 0.0 0.10510690662767261 -2.555487303887181 0.0 1.6617647215441172e-06 -2.556276183906903 0.0 0.013821958345548951 -2.558356743958917 0.0 0.02779547349488682 -2.560844104021101 0.0 0.0419506290487657 -2.562251344056282 0.0 0.0565274174131854 -2.560421824010544 0.0 0.0714704697867617 -2.5523388638084703 0.0 0.08682876617071911 -2.53397126334928 0.0 0.1025375265634381 -2.974405954360147 0.0 2.461212781530318e-07 -2.9752863543821575 0.0 0.014727360368184 -2.977596754439917 0.0 0.02938847033471174 -2.98038527450963 0.0 0.0440612851015321 -2.982076714551916 0.0 0.058634705465867604 -2.980316994507923 0.0 0.0731050978276274 -2.9719709942992734 0.0 0.0873811821845295 -2.952605513815136 0.0 0.1014617585365439 -3.4314270857856752 0.0 4.27162370679059e-07 -3.4323830458095745 0.0 0.01649413281235331 -3.434929725873241 0.0 0.03278834321970856 -3.438047485951185 0.0 0.048763021219075504 -3.4400464060011586 0.0 0.06420120160503001 -3.4385136459628396 0.0 0.0790238299755957 -3.4300812457520293 0.0 0.0929554903238872 -3.4100434052510837 0.0 0.1055916946397923 -3.9256909381422713 0.0 9.728974243224352e-08 -3.9267270181681733 0.0 0.01981081729527042 -3.929489978237247 0.0 0.03928729978218247 -3.9328884983222103 0.0 0.058171305454282604 -3.9351800183794983 0.0 0.07606438990160971 -3.933806698345165 0.0 0.09278798231969951 -3.925282378132057 0.0 0.10768221869205541 -3.9046227376155658 0.0 0.120018603000465 -4.45727651143191 0.0 3.884224577105612e-06 -4.4583841114596 0.0 0.025209961030249008 -4.46130051153251 0.0 0.0500901532522538 -4.46489931162248 0.0 0.0741361978534049 -4.46732131168303 0.0 0.09701490642537261 -4.46586971164674 0.0 0.1180299069507476 -4.45691051142276 0.0 0.1361469314036732 -4.43525771088144 0.0 0.15031663575791582 -5.02684612567115 0.0 1.803501125087527e-06 -5.02798092569952 0.0 0.03371403004285073 -5.0309697257742405 0.0 0.0667930376698259 -5.034646925866171 0.0 0.0983963704599092 -5.03684932592123 0.0 0.12893662722341562 -5.0348089258702196 0.0 0.1573325799333144 -5.02465772561644 0.0 0.18235773255894322 -5.00112372502809 0.0 0.2017592010439799 -5.63659654091491 0.0 2.0148482103712045e-06 -5.637698140942451 0.0 0.045079669126991705 -5.64055014101375 0.0 0.0896495502412387 -5.6438213410955305 0.0 0.1331800633295015 -5.64529134113228 0.0 0.1749049363726233 -5.64187014104675 0.0 0.2141582533539562 -5.629699740742489 0.0 0.24798138619953453 -5.602751340068781 0.0 0.27707493892687335 -6.288892957222321 0.0 -7.27217418180435e-08 -6.2898697572467395 0.0 0.060447449511186205 -6.29267135731678 0.0 0.11879343096983569 -6.295161757379041 0.0 0.1768657364216433 -6.29520055738001 0.0 0.2329340978233523 -6.28945015723625 0.0 0.28619273515481825 -6.27333855683346 0.0 0.3355787123894676 -6.241746956043671 0.0 0.3763513414087833 -6.98823697470592 0.0 -3.911627657790689e-07 -6.98892897472322 0.0 0.07838135395953381 -6.990548974763721 0.0 0.1560624279015606 -6.991498574787459 0.0 0.23268111381702772 -6.989218174730452 0.0 0.3069454756736367 -6.979523774488091 0.0 0.3771309934282746 -6.9575121739378005 0.0 0.444939731123493 -6.9199585729989606 0.0 0.49719253242981304 -7.73507499337687 0.0 5.229310130732751e-06 -7.735395393384881 0.0 0.10089272652231811 -7.73575139339378 0.0 0.2011311090282776 -7.73452459336311 0.0 0.29919124347978093 -7.72825019320625 0.0 0.39456561786414024 -7.713632992840821 0.0 0.48540557213513896 -7.68582859214571 0.0 0.565135974128399 -7.6381861909546505 0.0 0.642199536054988 -8.533147013328671 0.0 2.022086170552153e-06 -8.53286381332159 0.0 0.1257768791444219 -8.53129581328239 0.0 0.2499517742487942 -8.526231413155779 0.0 0.3721796613044913 -8.515740612893511 0.0 0.487792092194802 -8.49346621233665 0.0 0.5985558149638951 -8.45628621140715 0.0 0.7029365775734141 -8.39778220994455 0.0 0.803499820087495 -9.384304234607601 0.0 3.2261269606531724e-06 -9.382909434572731 0.0 0.1531013038275325 -9.37849983446249 0.0 0.30273843556846075 -9.36917983422949 0.0 0.44648281116207 -9.35025663375641 0.0 0.5874967346874179 -9.318719832967991 0.0 0.723384298084607 -9.27043703176092 0.0 0.8509438612735961 -9.19740102993502 0.0 0.9762242644056061 -10.29284785732119 0.0 -5.70393454259836e-06 -10.29008505725212 0.0 0.1811234525280862 -10.2808642570216 0.0 0.3592055409801383 -10.26310745657768 0.0 0.5323688533092211 -10.23432185585804 0.0 0.697431377435784 -10.18952345473808 0.0 0.8556247813906189 -10.12580505314512 0.0 1.006034865150871 -10.03718745092968 0.0 1.1490778287269452 -11.253456281336401 0.0 -2.703060507576511e-06 -11.248602681215061 0.0 0.2140401893510046 -11.233883080847072 0.0 0.424358890608972 -11.20695748017393 0.0 0.6256519356412981 -11.16503027912575 0.0 0.81687482042187 -11.10492947762323 0.0 0.996292904907322 -11.02338067558451 0.0 1.159252188981304 -10.91324187283104 0.0 1.3123941928098541 -12.273063906826591 0.0 -6.20123695503092e-06 -12.26583270664581 0.0 0.2453491741337292 -12.24352990608824 0.0 0.485501012137525 -12.204000305100001 0.0 0.715339817883495 -12.14597190364929 0.0 0.93086722327168 -12.06498750162468 0.0 1.127158948178973 -11.959281498982032 0.0 1.3023905125597621 -11.82300509557512 0.0 1.462992596574814 -13.35215353380383 0.0 -8.886015022150371e-06 -13.341482733537061 0.0 0.2758092948952322 -13.30925193273129 0.0 0.543960253599006 -13.254126331353152 0.0 0.7987581399689531 -13.174316729357908 0.0 1.0340593458514828 -13.067564726689112 0.0 1.247545671188641 -12.931378323284452 0.0 1.4304760357619 -12.76283311907082 0.0 1.593403679835091 -14.489618362240453 0.0 1.44451483611287e-06 -14.474850761871261 0.0 0.3024031475600785 -14.42994116074852 0.0 0.595761014894025 -14.355005158875121 0.0 0.8711873417796829 -14.24844235621105 0.0 1.122629948065748 -14.109256352731403 0.0 1.3451780736294512 -13.9377323484433 0.0 1.536376998409424 -13.729153943228841 0.0 1.696299962407498 -15.68307079207676 0.0 -4.05955170148879e-06 -15.66305879157646 0.0 0.32371173609279325 -15.6028843900721 0.0 0.6362707359067681 -15.50349598758739 0.0 0.9266047831651191 -15.36431318410782 0.0 1.187735589693389 -15.186417179660422 0.0 1.4145227953630688 -14.971669574291731 0.0 1.60536044013401 -14.71877316796932 0.0 1.765556764138918 -16.92786947886628 0.0 -8.59701300891609e-06 -16.901670822952717 0.0 0.3371373748461824 -16.8232722818356 0.0 0.660661549188648 -16.69423324956576 0.0 0.9589137260415999 -16.51652736843075 0.0 1.22194861114935 -16.29339897206604 0.0 1.4468319413167838 -16.02874326029016 0.0 1.6314508260395402 -15.72575782402208 0.0 1.786426471487712 -18.21753908284644 0.0 -4.443391815857039e-07 -18.18415623070464 0.0 0.3396156978372576 -18.0840091824549 0.0 0.66460926148128 -17.920338417391502 0.0 0.9597396863899742 -17.697975653441638 0.0 1.216614110510766 -17.42298300840948 0.0 1.4313194194300982 -17.102478421356512 0.0 1.604309265047034 -16.74271518143676 0.0 1.7460599816931117 -19.543636767000496 0.0 -7.19997867836746e-07 -19.5011376618044 0.0 0.32905672220578003 -19.3761007738292 0.0 0.64095389276074 -19.17366485104825 0.0 0.9200427554026751 -18.90051010094088 0.0 1.160650287428032 -18.567838292230242 0.0 1.3584032106856962 -18.186014288304747 0.0 1.5148670823694999 -17.76503382769345 0.0 1.638577071821873 -20.8945469803344 0.0 -1.1075845083603161e-05 -20.8428910743018 0.0 0.2983440324885856 -20.68971897407415 0.0 0.580378418698596 -20.443248527426398 0.0 0.832088290130975 -20.115363212431998 0.0 1.04548690023164 -19.720618863985283 0.0 1.218359875820548 -19.27348812006458 0.0 1.351972504554164 -18.78459034328752 0.0 1.4449923749840219 -22.256168374378348 0.0 -7.897992390184598e-06 -22.19366637439952 0.0 0.24524837370553518 -22.0106716433096 0.0 0.47734840371542403 -21.71802772886721 0.0 0.682190271819299 -21.3323386241015 0.0 0.8554082749887589 -20.8720221426169 0.0 0.9950695508519 -20.35655648197048 0.0 1.103745764837612 -19.799491773189462 0.0 1.1717725203599099 -23.60523003259968 0.0 -9.303417609137279e-06 -23.53127420468628 0.0 0.16439992057125302 -23.316329745802623 0.0 0.316871507965608 -22.97535922053924 0.0 0.45519446371308 -22.52911359353454 0.0 0.574587722685156 -22.001983260961858 0.0 0.67191678747267 -21.41547987704892 0.0 0.753948528200442 -20.78688333879192 0.0 0.804262480379172 -24.899622971522348 0.0 -2.983217823802843e-06 -24.8157415293905 0.0 0.055158993916233995 -24.56940192846827 0.0 0.10217362473040051 -24.172611115869923 0.0 0.1627575900905642 -23.6707869274165 0.0 0.2004062287396611 -23.0783575562981 0.0 0.24608617355283322 -22.42041197552 0.0 0.296233444145312 -21.714288346951772 0.0 0.327704414991014 -26.046514710616737 0.0 -1.222451624843078e-06 -25.954463045450982 0.0 -0.11246140753038318 -25.692278400562696 0.0 -0.2036954279799424 -25.2608168631406 0.0 -0.27203342445309403 -24.6930196622985 0.0 -0.2961380199977124 -24.046095033598117 0.0 -0.332217320522527 -23.3156292018274 0.0 -0.310778892497466 -22.53738443192357 0.0 -0.2862277267801699 -26.94161569841217 0.0 -3.6785516930104325e-07 -26.863942835131198 0.0 -0.358517996108352 -26.58027168007344 0.0 -0.656719459115832 -26.137714496174276 0.0 -0.8699922403176901 -25.54514146071801 0.0 -1.005582923638416 -24.85517170572255 0.0 -1.077035028234234 -24.073344073331523 0.0 -1.085571076066048 -23.231281539122442 0.0 -1.069294788913864 -27.696641411875 0.0 -1.0533393498032442e-07 -27.555079814249964 0.0 -0.517511932885528 -27.264047011840972 0.0 -1.0536140445439952 -26.798233571288225 0.0 -1.5015875359695248 -26.209374695740166 0.0 -1.781565455002624 -25.482586698273057 0.0 -1.9391083681803836 -24.664709816852397 0.0 -2.00549192354766 -23.785890597620643 0.0 -2.0241894019717255 -27.9971773131372 0.0 2.31445414576011e-06 -27.954814095824553 0.0 -0.8728539209101801 -27.700279333652283 0.0 -1.6722515382738 -27.25705513089555 0.0 -2.329303424664474 -26.67279469344615 0.0 -2.742881211827622 -25.94130743657341 0.0 -3.0068502678368567 -25.101553474563037 0.0 -3.1381852329964324 -24.195694422476 0.0 -3.1718101671662002 -28.3335915830352 0.0 2.639681820611616e-06 -28.259221950045003 0.0 -1.450988262246375 -28.02404021674236 0.0 -2.676040536410664 -27.623757411795086 0.0 -3.605826872352978 -27.044951755823035 0.0 -4.167341186149439 -26.29039673917902 0.0 -4.479058251126061 -25.41670975049679 0.0 -4.61299873921986 -24.440719207582802 0.0 -4.55360351542092 -28.55603034064208 0.0 8.192016160477701e-07 -28.5004837483562 0.0 -1.7392413330719 -28.2142385349815 0.0 -3.263207775292666 -27.72277838293589 0.0 -4.45813539737898 -27.081646202473497 0.0 -5.2606616305199 -26.314917981887078 0.0 -5.7021925489646 -25.42013834755788 0.0 -5.864692853258839 -24.34144526260046 0.0 -5.71424419178856 -28.852101799089198 0.0 -1.73833489204242e-06 -28.69596030548568 0.0 -1.472601558285608 -28.235951808691787 0.0 -2.778899887167875 -27.45660393319908 0.0 -3.8286800235009424 -26.415020292155518 0.0 -4.55836355675328 -25.1693899367904 0.0 -4.967043447588 -23.712038257936218 0.0 -5.09138104369118 -22.112192963453843 0.0 -4.90679297714974 -20.27852733433252 0.0 9.472884966305342e-07 -20.131809994116878 0.0 -1.7634385088359759 -19.70023649881911 0.0 -3.3506035779651118 -19.007178047768633 0.0 -4.63997413293981 -18.086492222405198 0.0 -5.585399652587681 -16.97859509691808 0.0 -6.1876890957908 -15.730109579796478 0.0 -6.446440892784639 -14.398707687316197 0.0 -6.3395512782489 -13.56198395907087 0.0 -2.918183058785025e-06 -13.43790023108421 0.0 -2.063300097459741 -13.074440401415249 0.0 -3.9341567145696756 -12.49605666459618 0.0 -5.48130106368294 -11.739313443033401 0.0 -6.65750516912602 -10.848618660999609 0.0 -7.46917624922957 -9.87324840473438 0.0 -7.922617221573959 -8.868471561456749 0.0 -7.99047134919296 -8.27642782058512 0.0 -1.2227444582105759e-05 -8.18831073788189 0.0 -2.3117599436611993 -7.93213433379332 0.0 -4.41267301512201 -7.5306373007974505 0.0 -6.1583116761412 -7.0181055436121 0.0 -7.49623347097107 -6.4364161127460005 0.0 -8.435641491978961 -5.830582710073199 0.0 -8.991232366413598 -5.24608592586788 0.0 -9.140115379869059 -3.3954961033497066 0.0 -1.266831022447404e-05 -3.351393133266853 0.0 -2.47631903924427 -3.2251049748265457 0.0 -4.72314864534896 -3.0336613146687386 0.0 -6.58139037530905 -2.8027389879841254 0.0 -7.991003178828951 -2.56298283908361 0.0 -8.96160625991383 -2.3463047125921 0.0 -9.5165287382828 -2.180508424978338 0.0 -9.64562227530668 1.703781085275024 0.0 -1.2832938720472982e-05 1.7024351154342658 0.0 -2.53773254905425 1.695729206677314 0.0 -4.83043170228224 1.6761862538102499 0.0 -6.706420328097499 1.6328685879196458 0.0 -8.09824724722972 1.5538162835984002 0.0 -9.014702505906559 1.428634478203173 0.0 -9.48692804806638 1.2536023468860498 0.0 -9.522178561906498 7.05950436393675 0.0 1.9112918148137047e-05 7.016919642694269 0.0 -2.493029505357852 6.89071355064988 0.0 -4.73239684495024 6.685073262383 0.0 -6.539232374640999 6.40765262386012 0.0 -7.8415480018234005 6.06978220160394 0.0 -8.64743453582208 5.68742321149002 0.0 -8.993919718061461 5.2839314430974405 0.0 -8.905074811130401 12.3692379157568 0.0 7.28372762715026e-06 12.293224441158639 0.0 -2.354972370472904 12.07075699903024 0.0 -4.45717197697352 11.7183340545618 0.0 -6.12834732165256 11.26236904102332 0.0 -7.29649335168312 10.737896822111518 0.0 -7.96977875209536 10.18727338908033 0.0 -8.18825885159103 9.65974160979566 0.0 -7.98722721636986 17.36224090984962 0.0 7.058578350235401e-06 17.261818587253096 0.0 -2.1474192936923298 16.96975061211092 0.0 -4.05346695897328 16.5134919975571 0.0 -5.548761124828091 15.9355895751487 0.0 -6.566032246438599 15.291170273505802 0.0 -7.11406221240402 14.64428380674168 0.0 -7.2318805207092 14.06450686770684 0.0 -6.957303408030959 21.95525735791316 0.0 1.3865646209768281e-05 21.839407411584887 0.0 -1.8988166670744417 21.50411336090696 0.0 -3.577321500679935 20.984954210609796 0.0 -4.8824133263695 20.336634765277598 0.0 -5.7549955875839 19.62744341353692 0.0 -6.20375420328092 18.93504942956151 0.0 -6.26167319412537 18.3402940394496 0.0 -5.95960361236764 26.06992561444674 0.0 5.05060293493028e-07 25.954548773937763 0.0 -1.6354488813420418 25.622534875446878 0.0 -3.079215448999606 25.10586711846525 0.0 -4.200934483258651 24.453132904001947 0.0 -4.9504455404789 23.734833081204002 0.0 -5.333545045087001 23.0390614605981 0.0 -5.37181522960362 22.447144825050163 0.0 -5.0808664148232 28.120744846107655 0.0 2.795663557717745e-06 28.063275619612917 0.0 -1.3700600163654102 27.8920592227074 0.0 -2.577841636847127 27.58595087403925 0.0 -3.5181208836772897 27.1894168460482 0.0 -4.1527967189704595 26.768284577114883 0.0 -4.489759665982059 26.314315025399278 0.0 -4.541094284978 25.929201010005983 0.0 -4.296497996559601 28.664882430775652 0.0 -1.1747684993972e-06 28.622840692258453 0.0 -1.1130328551271051 28.50543119326882 0.0 -2.0923183375211667 28.324427830183737 0.0 -2.848621508280122 28.0956825703077 0.0 -3.3591826584610063 27.8838453825339 0.0 -3.634585385896343 27.684175516288143 0.0 -3.674741731918896 27.5456746205361 0.0 -3.4525488831623017 28.866687647027636 0.0 -9.44036848922168e-07 28.8331304363396 0.0 -0.8748903731789199 28.728074114418593 0.0 -1.6366286734039004 28.60636315781619 0.0 -2.21565127109154 28.46357933786864 0.0 -2.585185177259888 28.285219844024997 0.0 -2.7914631748475 28.155765573123958 0.0 -2.808824334429758 28.100026925253964 0.0 -2.572378338005692 28.938124596444958 0.0 -1.0055634639142559e-06 28.91081933553842 0.0 -0.6431097726379199 28.839691596301563 0.0 -1.215164760390834 28.73619085876154 0.0 -1.666687358149968 28.621211612193992 0.0 -1.9699163281221719 28.5047191033222 0.0 -2.09615954791014 28.42484886825476 0.0 -2.05947351633818 28.38527778892882 0.0 -1.816894614285765 28.9468628535318 0.0 -2.632285429372284e-06 28.92772115169477 0.0 -0.4831030256029771 28.866716131017185 0.0 -0.9124638276702 28.76764578824214 0.0 -1.251307112205618 28.64954777524866 0.0 -1.478105289965304 28.524773874591602 0.0 -1.592370617136753 28.474903210029208 0.0 -1.494762942965919 28.445976809705762 0.0 -1.184081639853216 28.879265736307108 0.0 -1.883152779677502e-06 28.852090520694663 0.0 -0.3753636212641137 28.793410383053008 0.0 -0.69728296940283 28.705616277320164 0.0 -0.9346631280637231 28.59407845453602 0.0 -1.0231435513904938 28.506275865292803 0.0 -1.01596634337792 28.464280773185763 0.0 -0.902111552041884 28.480528871729366 0.0 -0.582135801218613 28.701982228548353 0.0 -1.288970809960775e-06 28.69208547851056 0.0 -0.2721691202238044 28.60832818934684 0.0 -0.43513946453405594 28.55448396512053 0.0 -0.537193907285927 28.491935744756677 0.0 -0.5986548543645881 28.450150137419143 0.0 -0.5779964406673869 28.410210481422897 0.0 -0.44432476836345 28.419445002681403 0.0 -0.15400321943079 28.403499334845552 0.0 9.437671134069901e-07 28.369874978838798 0.0 -0.11938280071915999 28.350110896292758 0.0 -0.24569312414089028 28.316137274550442 0.0 -0.3262432928109915 28.282085081293385 0.0 -0.3253804503704794 28.25513214556006 0.0 -0.23863278444753802 28.248995925268023 0.0 -0.056731226097219103 28.30402911362704 0.0 0.249616658643277 28.0045248305865 0.0 2.86505691839605e-06 27.98304425948537 0.0 -0.0908024614788961 27.955411247293156 0.0 -0.141612881369489 27.94159588343584 0.0 -0.13138748379241919 27.94534557604764 0.0 -0.05093176234082039 27.957350447236 0.0 0.089544438457845 28.0020074255705 0.0 0.31286175137749 28.118288052552618 0.0 0.5673066044587499 27.491729598953103 0.0 3.4948997756622797e-06 27.506704168912 0.0 0.021166771471866002 27.46163967889306 0.0 -0.027472289704260536 27.48674468310057 0.0 0.06684542965880011 27.52309434370184 0.0 0.18414311977578482 27.605673875647838 0.0 0.384579451681252 27.700665886885417 0.0 0.5654785153242939 27.977403143046512 0.0 0.810856464106623 26.921252960429612 0.0 -1.3575696297748528e-06 26.937344262810754 0.0 0.09841727259038699 26.9538085022574 0.0 0.1421647589748102 26.967040972704122 0.0 0.2052995928584352 27.084666415023598 0.0 0.39571637769476276 27.20009040043635 0.0 0.5509603948752749 27.49270098467346 0.0 0.771553509641271 27.89338938077961 0.0 0.8869409862467761 26.3457146658317 0.0 -2.5322477856801498e-06 26.37003527312616 0.0 0.1557744877562797 26.411815636403478 0.0 0.2412148312781608 26.47138816825503 0.0 0.3421260932370358 26.63480224794361 0.0 0.47613304939875 26.967409112786672 0.0 0.690133518579334 27.34948523541299 0.0 0.788752198772654 28.207176631270993 0.0 0.8773390958866 25.855055651369284 0.0 -3.121761626424992e-06 25.886949714568317 0.0 0.1796633991441856 25.960330858805236 0.0 0.3165135232643231 26.080531501093752 0.0 0.36692271112108843 26.400484168984196 0.0 0.53072677120188 26.8837507415004 0.0 0.63220613825424 27.73582782219896 0.0 0.738350961428363 29.010673191876357 0.0 0.8115127703491289 25.614076589918348 0.0 -5.384079867827081e-06 25.64208887549788 0.0 0.1681632622307028 25.812324235190406 0.0 0.2917124988972542 26.026667366574813 0.0 0.35441642597280043 26.50663009475502 0.0 0.43061022666847504 27.487769994279997 0.0 0.549077008114 28.733220624202573 0.0 0.5568725815625859 30.64841626781748 0.0 0.610752881010232 25.82263682872992 0.0 -4.80466501706132e-06 25.88468776899665 0.0 0.1313017800454745 26.085299549703898 0.0 0.17057191087009702 26.54211235162739 0.0 0.2042947545783053 27.443163392711764 0.0 0.271688343131744 28.72017873626556 0.0 0.2878030388000934 30.579342412955704 0.0 0.19684402400281567 33.25358657931765 0.0 0.2166658072884487 26.743157398538248 0.0 -3.7394511742398747e-06 26.898399852944166 0.0 -0.0562580938971426 27.25838395609266 0.0 -0.03110415614701857 28.060772425969493 0.0 -0.025747618678472698 29.138286464661846 0.0 -0.15761911426568012 30.966342672604046 0.0 -0.24180579780701666 33.4911520261665 0.0 -0.249838130981124 37.088402807478005 0.0 0.03634918111192276 28.8783101736351 0.0 -3.9509256597123595e-06 28.906046288577123 0.0 -0.3478967946528048 29.3091158584989 0.0 -0.56553257039265 30.21537895242999 0.0 -0.7314084450168209 31.838124455782918 0.0 -0.7865281251945 34.36858163507736 0.0 -0.5785842262557059 37.695069356764556 0.0 -0.3226987489717056 41.966192696583 0.0 0.230924419244565 32.22819292299705 0.0 -2.9260050474927998e-06 32.2645255626755 0.0 -0.636760241630522 32.84167816863885 0.0 -0.93189394031755 34.034941009115016 0.0 -1.041225582104578 36.0009173704961 0.0 -0.9949538683797899 38.93396602561104 0.0 -0.6454722124739201 42.456223026923205 0.0 -0.2328645957791808 36.69518428992484 0.0 -5.3646932848018804e-06 36.843309527445854 0.0 -0.40023017141371553 37.2343765521792 0.0 -1.101697229362829 38.28460964198507 0.0 -1.3566053129172881 40.20874393567 0.0 -1.1283502194153 -0.9628036640700911 0.0 0.0967634464190861 -0.9339996633499911 0.0 0.118718842967971 -0.8933575023339371 0.0 0.1418364075459101 -0.8395824609895611 0.0 0.1669362601734064 -0.771597299289932 0.0 0.1929868288246706 -0.688830977220774 0.0 0.2169271534231787 -0.589305494732637 0.0 0.23420639785515984 -1.2023727900593189 0.0 0.117886522947163 -1.168687069217176 0.0 0.14223895555597382 -1.120202668005066 0.0 0.1686748322168707 -1.056625386415634 0.0 0.1953476488836911 -0.9763759844093989 0.0 0.22139864553496602 -0.875281941882048 0.0 0.2436913540922837 -0.743198218579955 0.0 0.2589585384739633 -0.564791134119778 0.0 0.30207977955199433 -1.4828811970720293 0.0 0.12600614315015352 -1.4435116360877902 0.0 0.1491631437290785 -1.38703043467576 0.0 0.1729567203239179 -1.313036752825918 0.0 0.19752948893823713 -1.2217113905427839 0.0 0.21974778549369453 -1.105928267648206 0.0 0.2423664140591602 -0.9534189438354731 0.0 0.26449127861228183 -0.7389347384733681 0.0 0.3062751836568794 -1.787778884694471 0.0 0.1269652511741312 -1.7427036835675909 0.0 0.1475225356880633 -1.6779186819479657 0.0 0.16870141621753532 -1.5944025598600629 0.0 0.1897910407447759 -1.493716677342916 0.0 0.2085769212144229 -1.369175954229398 0.0 0.22858057771451432 -1.201902790047569 0.0 0.25013142225328544 -0.9499302237482551 0.0 0.2990852434771309 -2.124385893109646 0.0 0.12343755108593871 -2.073714891842871 0.0 0.14176838754420962 -2.001209130030227 0.0 0.1595727719893192 -1.9087566877189162 0.0 0.1769289524232237 -1.8010372450259302 0.0 0.19122343678058581 -1.6688780417219498 0.0 0.2082836212070904 -1.487431957185798 0.0 0.2295558977388973 -1.195535669888391 0.0 0.2915903152897577 -2.499933102498326 0.0 0.11844250296106251 -2.444337701108441 0.0 0.1340381793509544 -2.36489645912241 0.0 0.14788485969712142 -2.265186736629667 0.0 0.16020718000517942 -2.1511316937782907 0.0 0.1693670322341757 -2.013150250328755 0.0 0.18323670058091743 -1.8183722054593043 0.0 0.2063396491584911 -1.482539037063475 0.0 0.2892097552302437 -2.916361512909036 0.0 0.1146711988667799 -2.856696791417418 0.0 0.1267697351692433 -2.7716786292919644 0.0 0.13553948738848712 -2.666030946650772 0.0 0.14170785154269622 -2.547129103678226 0.0 0.14603920365098 -2.407138900178471 0.0 0.1571743039293575 -2.202173495054336 0.0 0.1870433846760845 -1.818861045471525 0.0 0.3025421235635529 -3.3720570443014237 0.0 0.1161734629043365 -3.309108442727709 0.0 0.1240323111008077 -3.2195950404898745 0.0 0.1271451271786281 -3.109755797743893 0.0 0.1272707511817687 -2.990190194754753 0.0 0.1269308111732702 -2.8510506312762645 0.0 0.1393299154832478 -2.643309466082735 0.0 0.1814662965366573 -2.2147991753699783 0.0 0.34252663656316573 -3.865116616627913 0.0 0.12853809921345238 -3.799519814987993 0.0 0.13242910331072752 -3.706738372668457 0.0 0.13040265126006623 -3.5945656898641403 0.0 0.1263405351585133 -3.476640406916008 0.0 0.121268083031702 -3.34206244355156 0.0 0.1393310594832764 -3.146281118657026 0.0 0.1915119207877979 -2.6970230674255746 0.0 0.3896728617418213 -4.39405850985146 0.0 0.1586130319653257 -4.325839708145991 0.0 0.16094673202366822 -4.23122330578058 0.0 0.1548269798706744 -4.11922970298074 0.0 0.1456049476401236 -4.006345300158631 0.0 0.135426523385663 -3.8866474971661846 0.0 0.1533798238344955 -3.7233403330835055 0.0 0.20207329305183222 -3.3272324431808094 0.0 0.3685722452143059 -4.95751292393782 0.0 0.21286790932169763 -4.88690092217252 0.0 0.21558738138968442 -4.79039691975992 0.0 0.2077297731932442 -4.68338891708472 0.0 0.1907241407681034 -4.5832185145804605 0.0 0.17423897235597421 -4.49909651247741 0.0 0.1727260643181515 -4.40273731006843 0.0 0.2028846810721169 -4.1551109038777705 0.0 0.2723594748089867 -5.55512453887811 0.0 0.2956295553907387 -5.48153973703849 0.0 0.2997115434927884 -5.383114134577851 0.0 0.2919573392989333 -5.28741373218534 0.0 0.2683605747090142 -5.20692933017323 0.0 0.25396500234912495 -5.17860932946523 0.0 0.24352379408809469 -5.18084292952107 0.0 0.28775406719385155 -5.04624172615604 0.0 0.406334690158367 -6.1882337547058395 0.0 0.404676930116923 -6.10936655273416 0.0 0.41785761044644004 -6.01004295025107 0.0 0.427226330680658 -5.928601348215031 0.0 0.409262250231556 -5.88914214722855 0.0 0.4209368905234219 -5.9339397483484895 0.0 0.491115572277889 -6.03161015079025 0.0 0.758475898961897 -6.00763855019096 0.0 1.1948951898723792 -6.857833371445829 0.0 0.545899253647481 -6.7719241692981 0.0 0.578565054464126 -6.67445536686138 0.0 0.601248535031213 -6.608920565223011 0.0 0.6281845357046131 -6.627668965691721 0.0 0.69986201749655 -6.76975096924377 0.0 0.902676222566905 -7.02559737563993 0.0 1.309620312740507 -7.2184837804620905 0.0 1.832964005824099 -7.56621858915546 0.0 0.7113730577843261 -7.47142258678556 0.0 0.771258979281474 -7.37234058430851 0.0 0.827146340678658 -7.32569658314241 0.0 0.8995502624887561 -7.40800098520002 0.0 1.0356741058918522 -7.6876833921920795 0.0 1.294597552364938 -8.1518642037966 0.0 1.7120924428023099 -8.61908301547707 0.0 2.2421568560539202 -8.31357740783943 0.0 0.89781562244539 -8.20589380514734 0.0 0.9853259446331478 -8.10415500260387 0.0 1.068541746713543 -8.07209020180225 0.0 1.178682269467056 -8.21159700528992 0.0 1.349018233725455 -8.61754861543871 0.0 1.627022960675573 -9.2929642323241 0.0 2.036353930908847 -10.07884865197121 0.0 2.56206766405169 -9.09854062746351 0.0 1.0935842673396061 -8.977035824425892 0.0 1.204294150107353 -8.863968221599201 0.0 1.302612512565312 -8.83965782099144 0.0 1.4362972759074313 -9.02559742563993 0.0 1.6213167605329182 -9.54350623858765 0.0 1.9115053677876332 -10.4146922603673 0.0 2.318556097963901 -11.48958468723961 0.0 2.8622065115551605 -9.919417047985421 0.0 1.282891032072275 -9.777604244440102 0.0 1.403949955098748 -9.650120641253011 0.0 1.51649803791245 -9.628335840708392 0.0 1.6610371215259272 -9.85261464631536 0.0 1.8555418463885451 -10.469609461740232 0.0 2.155158093878951 -11.51532468788311 0.0 2.575066264376655 -12.82896312072407 0.0 3.148227198705678 -10.772523869313092 0.0 1.45538523638463 -10.60602986515074 0.0 1.5854211196355272 -10.45842146146053 0.0 1.706728802668219 -10.437967860949191 0.0 1.853694966342373 -10.698120267453001 0.0 2.0543324113583092 -11.411660285291502 0.0 2.368346259208655 -12.619945115498622 0.0 2.8134367503359172 -14.139749553493731 0.0 3.4306790057669736 -11.653570691339262 0.0 1.607450320186257 -11.45829188645729 0.0 1.7428387235709673 -11.28596748214918 0.0 1.8704132467603303 -11.265880281647 0.0 2.0143143303578572 -11.56201028905025 0.0 2.2227854155696343 -12.37916510947912 0.0 2.55389086384727 -13.75495354387383 0.0 3.0370077959251933 -15.486133187153323 0.0 3.6987313324682813 -12.559801113995022 0.0 1.7378031234450773 -12.33026750825668 0.0 1.866779926669497 -12.132841103321022 0.0 1.995872169896803 -12.10824750270618 0.0 2.142654093566351 -12.447805911195141 0.0 2.351341298783531 -13.37075073426876 0.0 2.708458787711468 -14.924785173119622 0.0 3.234889320872231 -16.885751622143783 0.0 3.9423554585588847 -13.48662593716564 0.0 1.8373909259347723 -13.218713530467832 0.0 1.9615845290396123 -12.99042072476051 0.0 2.083559452088985 -12.96066912401672 0.0 2.235731735893292 -13.34289273357231 0.0 2.4534609413365223 -14.38103995952599 0.0 2.8278160706953996 -16.12457480311436 0.0 3.3995304849882597 -18.33564485839111 0.0 4.14856050371401 -14.42998076074951 0.0 1.896896807422419 -14.11829275295731 0.0 2.015236730380917 -13.8548723463718 0.0 2.1299711732492783 -13.81837194545929 0.0 2.2877203371930075 -14.243857156096421 0.0 2.514275022856874 -15.401947585048681 0.0 2.909930312748256 -17.34907123372677 0.0 3.5215496880387405 -19.82276489556911 0.0 4.322364108059101 -15.384699600105721 0.0 1.905577555868988 -15.024644424843348 0.0 2.016425003252363 -14.72250851720296 0.0 2.126193104996144 -14.675626518083519 0.0 2.285538708206512 -15.145959262677598 0.0 2.5215320187494643 -16.43024090343344 0.0 2.939964933913396 -18.594191847720882 0.0 3.5913714618642327 -21.34679282415792 0.0 4.4499072098185595 -16.346110467426477 0.0 1.852811430482151 -15.9334016165325 0.0 1.95205494425139 -15.58887926638779 0.0 2.0541065369884444 -15.5295784945629 0.0 2.21486373539325 -16.04680385460438 0.0 2.45793899569452 -17.46391543649316 0.0 2.9015113188157797 -19.86007201578048 0.0 3.59448692901408 -22.913328832403188 0.0 4.52187806151237 -17.309054680215837 0.0 1.726600291839768 -16.8406721460048 0.0 1.81011431621338 -16.4544606003214 0.0 1.909418623208444 -16.378711452878882 0.0 2.057798951249258 -16.948477201353402 0.0 2.3006478983273397 -18.505677635387013 0.0 2.774793291099837 -21.155353180020953 0.0 3.5157654058675054 -24.54312404633194 0.0 4.52974207124936 -18.26883803537246 0.0 1.518959435362078 -17.74279028480364 0.0 1.5811413419627 -17.3104565358997 0.0 1.6638926658083601 -17.22037793419922 0.0 1.7976392060000441 -17.84687158684528 0.0 2.03228003595649 -19.562051810799257 0.0 2.5370744329924424 -22.495849666223243 0.0 3.3403320537047203 -26.2756855370204 0.0 4.4693729137752 -19.21714759461744 0.0 1.22793844495016 -18.63141820226688 0.0 1.261217716000256 -18.1533991460618 0.0 1.31358764063504 -18.055980432143638 0.0 1.4099841527672188 -18.74307885506056 0.0 1.636301621422468 -20.6360628311838 0.0 2.16843367048308 -23.89377325494034 0.0 3.055114513671148 -28.15129220568782 0.0 4.33687061608983 -20.14043257629975 0.0 0.8344746495120751 -19.48365801928053 0.0 0.853219351609599 -18.961540063309652 0.0 0.8607434866160311 -18.861190736246158 0.0 0.9036640990694219 -19.61581631239314 0.0 1.120600228394601 -21.70716473334048 0.0 1.6815056378294941 -25.33559597046693 0.0 2.655163438874739 -30.175021730895754 0.0 4.1288427275949 -20.98250228354134 0.0 0.3401876323941432 -20.255862561774983 0.0 0.3335802932337547 -19.68112962423275 0.0 0.322587910376102 -19.5609333604826 0.0 0.3355530033151398 -20.42039429452433 0.0 0.472036711431053 -22.72992876217538 0.0 1.04590765977237 -26.76433217459328 0.0 2.149898582476416 -32.25207479858128 0.0 3.8498477581118364 -21.721017468989903 0.0 -0.2791180402292448 -20.91217549782803 0.0 -0.2990895940543725 -20.26804287972 0.0 -0.334931482398036 -20.14222389539766 0.0 -0.3796747516721278 -21.075100914530623 0.0 -0.23754045920530278 -23.636303214594058 0.0 0.2702189106248226 -28.07892676955016 0.0 1.578484435287816 -34.27050666866013 0.0 3.587502624522993 -22.34949051904296 0.0 -1.064299099507812 -21.45449131426632 0.0 -1.090826886310144 -20.75899017154922 0.0 -1.168036436905508 -20.6187824237824 0.0 -1.2270486836607999 -21.6231897657494 0.0 -1.05849963665052 -24.39107593311249 0.0 -0.445394645567487 -29.2507928690619 0.0 0.90146171577006 -35.95629955340184 0.0 3.3373550244759027 -22.846793423015303 0.0 -2.01835256580471 -21.899187497775294 0.0 -2.056677457550474 -21.132688212224238 0.0 -2.140167353267144 -21.032305293131913 0.0 -2.135007312833116 -22.100441630781084 0.0 -1.923138926190016 -25.06793387818893 0.0 -1.121367868712352 -30.249670708723798 0.0 0.232783900132116 -37.377376684550704 0.0 3.330825702061394 -23.224352390877403 0.0 -3.1666185736314763 -22.21805885805088 0.0 -3.126288725992032 -21.39567561312636 0.0 -3.110911486123238 -21.213600543804297 0.0 -2.989733304818865 -22.3240780017198 0.0 -2.54673663943824 -25.339015037198337 0.0 -1.628356570556292 -30.753622689461583 0.0 -0.3410668460635056 -37.8671869573109 0.0 3.4771987421466752 -23.366170158470638 0.0 -4.37808284417808 -22.27248168395688 0.0 -4.190478372870841 -21.36863157096291 0.0 -3.965629209927375 -21.0414519896256 0.0 -3.6043484880171603 -21.97249403519634 0.0 -3.19159912617963 -24.92207270680684 0.0 -2.128725171603424 -30.25642476997312 0.0 -0.889315291283568 -36.4518860200174 0.0 3.85575821752454 -23.070557173625456 0.0 -5.3137757320919 -21.71967020383106 0.0 -4.76212562990116 -20.53090636250724 0.0 -4.23764877298392 -19.7667869973003 0.0 -3.99126159021663 -20.6294282381033 0.0 -4.052958219178112 -23.318151689353 0.0 -2.703604861065775 -26.754550162083838 0.0 -1.559590553769984 -28.307254778512796 0.0 3.9187143967955995 -20.49980387547344 0.0 -4.3699227124567805 -18.92588258112736 0.0 -3.730080324145284 -17.421806104754697 0.0 -4.3737422853300005 -16.710837439834798 0.0 -5.21488526813208 -16.76394736747608 0.0 -5.18041745468224 -16.7210008173461 0.0 -3.7997276196173684 -16.644673579132018 0.0 -1.7950972969927157 -16.905735300431243 0.0 4.16899387084804 -13.06215982333938 0.0 -5.8538141009587195 -11.815891471961718 0.0 -5.1314349075417995 -10.723726480677431 0.0 -5.0422754934211005 -9.87912863224773 0.0 -5.979794934844 -9.3747206355381 0.0 -5.918526933226199 -9.30508752616506 0.0 -4.1743629984294 -9.326077537898401 0.0 -3.080958739169946 -9.572511326694752 0.0 4.4874023955615 -7.8987901255155 0.0 -7.642888432466999 -7.03401760132605 0.0 -7.01587567912677 -6.33516174922137 0.0 -6.418940447892901 -5.8266255467576 0.0 -6.395816614836249 -5.59298590918488 0.0 -6.208563698824399 -5.6646473420329 0.0 -4.4847904496447 -5.882276106845739 0.0 -5.2406588301275905 -6.1455384569427 0.0 4.49329464547494 -4.7285169500492 0.0 -8.8512367973344 -4.3168558704271405 0.0 -8.26590237804354 -4.03695703295366 0.0 -7.661477643080779 -3.907757470179808 0.0 -7.11668964214922 -3.942553163823828 0.0 -6.508859813874721 -4.13412017081511 0.0 -4.5189398331441 -4.44377743039965 0.0 -6.14787858942585 -4.7465588618928205 0.0 4.63108147069926 -2.0860754228705036 0.0 -9.32938415553261 -2.0714706932879876 0.0 -8.71372248357306 -2.12971934698678 0.0 -8.0591488024852 -2.251277956144989 0.0 -7.4082700077859895 -2.4312296401756996 0.0 -6.575161562123698 -2.6584141367795002 0.0 -4.8566546801824995 -2.9117760424189205 0.0 -6.55759809569152 -3.13837071826512 0.0 4.70530897487625 1.0364667092235358 0.0 -9.12125271344832 0.796547981164884 0.0 -8.4354952317558 0.5622146837778421 0.0 -7.7061735865287 0.35775290502107 0.0 -6.987002300291 0.1958982220215083 0.0 -6.38963542697634 0.0817961338898944 0.0 -5.32604735479192 0.00947796349579225 0.0 -6.583699068128 -0.0425394103762068 0.0 4.74651325373804 4.893624032651859 0.0 -8.40502684561404 4.557966339783779 0.0 -7.65428898952144 4.3147960265606 0.0 -6.89066681994824 4.181736960888591 0.0 -6.26187354816817 4.11979436117568 0.0 -6.3341358115349795 4.27155875578362 0.0 -5.51905052415507 4.43350353889155 0.0 -6.24317867986605 4.59437280561149 0.0 4.72377600399697 9.211335274817579 0.0 -7.409328236730341 8.89704483569833 0.0 -6.62218881847613 8.755095039470671 0.0 -5.86504735087106 8.75348285340816 0.0 -5.529204419851911 8.860871646508318 0.0 -6.18946709059764 9.202310038250939 0.0 -5.416423973713739 9.67530922759233 0.0 -5.638379893367761 10.0836035169099 0.0 4.7491819940289 13.622607952995661 0.0 -6.340777868768581 13.380534406836949 0.0 -5.54767698291625 13.37114510003524 0.0 -4.80998858549752 13.43954133887722 0.0 -4.8749497928505905 13.694289259502899 0.0 -5.80523112441741 14.178098288668158 0.0 -4.928779344204959 14.951525595890942 0.0 -4.83244742948526 15.685661370860402 0.0 4.9903273486617 17.92114454378325 0.0 -5.34354424855293 17.74140267709128 0.0 -4.56441132249384 17.81906822645761 0.0 -3.8669263903807307 17.83480224356594 0.0 -4.2526293130069 17.95789603941632 0.0 -5.23360047554656 18.786160619322352 0.0 -4.22429020945167 19.89103064748458 0.0 -3.577404105887831 20.83678809716621 0.0 5.19603945416374 22.04003822240792 0.0 -4.49278705241168 21.87982835751148 0.0 -3.7353153203488523 21.945768695440727 0.0 -3.1054808995201926 21.75705859651588 0.0 -3.69406847906019 21.758432530077183 0.0 -4.2495812335314 22.477763097439798 0.0 -3.23974630067181 24.11538193338134 0.0 -2.3846042620603773 25.375812516904997 0.0 5.1091067499648 25.64802387290509 0.0 -3.7615656127884427 25.540772108987003 0.0 -3.034155545962 25.6398775903143 0.0 -2.357137769032926 25.37123688409464 0.0 -2.956587424506144 25.101837477904198 0.0 -3.3000854809433644 25.67434289173432 0.0 -2.0100617089431116 27.730385247537704 0.0 -1.04259525262291 29.69883808079292 0.0 5.23050389224766 27.46475172805028 0.0 -2.939757554882092 27.5269519197781 0.0 -2.218743840808201 27.83417571205047 0.0 -1.4688790291128448 28.168075708403805 0.0 -1.628696997856077 28.17159342422324 0.0 -2.277465700272188 28.685371777736 0.0 -0.7619391690546501 31.14285359298102 0.0 0.2026785562960092 33.83821998725028 0.0 5.37765092344725 28.11342083485049 0.0 -2.06779413392064 28.249254801199022 0.0 -1.349252046285012 28.639394756173438 0.0 -0.5746969330691281 29.55818020678772 0.0 -0.18485777344313162 30.62562921094776 0.0 -0.8365694727034461 31.593535300512098 0.0 0.179383421911711 34.49130117902682 0.0 1.206308077959618 37.912107973194 0.0 5.660114809176241 28.413098265811477 0.0 -1.311628825864565 28.533199991856325 0.0 -0.621384950172256 29.03311737076578 0.0 0.0900765166322 30.150544613696642 0.0 0.705689680434354 32.04292011411281 0.0 0.750799184234872 34.6773453398632 0.0 1.242077991998688 37.824469998306554 0.0 1.9506726915009278 42.025817286612195 0.0 5.94145709155717 28.538475043833873 0.0 -0.6704493571620841 28.755486994906803 0.0 0.00313665410429235 29.23938079439475 0.0 0.685363639868376 30.499855858124246 0.0 1.305496267249225 32.97061188399792 0.0 1.7012565831070319 36.929034096678 0.0 2.4040619232318776 41.3290344574296 0.0 2.41976351244096 46.471319268714005 0.0 6.3700544696323504 28.53563620368402 0.0 -0.1305405595314261 28.831063661250298 0.0 0.456230736987354 29.48824034555328 0.0 1.081798207238496 30.87867410168436 0.0 1.666346585009544 33.64816995124278 0.0 2.1584278649747968 38.48176125733212 0.0 3.241581467771556 44.9442760698834 0.0 3.293944928873606 51.147327321492 0.0 6.70950085884696 28.545523449233425 0.0 0.2779696654941386 28.8612978226335 0.0 0.77578827346275 29.740628772988558 0.0 1.360090951370284 31.443655733760004 0.0 1.8782157683804162 34.56076957426302 0.0 2.389503034728282 40.08685812886359 0.0 3.514026768855699 47.614392318256805 0.0 4.63598574905724 56.545430826871204 0.0 7.0479591060372 28.4727062309268 0.0 0.5925879895987299 29.021138128675005 0.0 1.0360236427275002 30.1231495519689 0.0 1.505492516958595 32.27202418017 0.0 1.9106193548850003 35.8841623338324 0.0 2.4637115373399 41.9605176892545 0.0 3.620876784704634 50.648912462232 0.0 5.15616586740864 60.45712635244799 0.0 7.497012562564801 28.45429159569172 0.0 0.8711378589830291 29.18280902831408 0.0 1.172784511502512 30.7037085863528 0.0 1.53253020479494 33.36530182918736 0.0 1.9124006542700018 37.77065878442025 0.0 2.5576324132029753 44.576298515855996 0.0 3.934212131835957 54.063574206141496 0.0 5.6722974689472 28.4659338213716 0.0 0.98463180518842 29.574313285048746 0.0 1.2195887892025599 31.65084769000112 0.0 1.568904611252468 34.953316659267 0.0 1.9473859711922799 40.269269811742404 0.0 2.7744528640576 48.059100694763195 0.0 4.26724154867476 57.964297599891204 0.0 6.08136719220912 28.7669088945108 0.0 1.008742903105584 30.458368650786305 0.0 1.251930173305266 33.22350734634129 0.0 1.57667248482829 37.25326018408585 0.0 1.923920652488465 43.602488178993596 0.0 2.99258462133968 52.22424723483681 0.0 4.5369759429066 29.6334555530797 0.0 1.00631111637 31.944112844498502 0.0 1.2188351178313401 35.506835902801264 0.0 1.439915239384952 40.4067451948208 0.0 1.8347310496117442 47.700867123664 0.0 3.09004463911439 56.70429929237121 0.0 4.76427335500792 31.032785438149237 0.0 0.9113237428638279 34.02931917882372 0.0 0.9838506325028799 38.46295994121724 0.0 1.2274188393527061 44.48949763386079 0.0 1.91291727519396 52.552449879398004 0.0 3.3912048193581903 33.346623014158645 0.0 0.569599796616488 37.17548437501976 0.0 0.6848293361156801 42.5108526843786 0.0 1.2528361555418042 49.49678495181661 0.0 2.306287121864912 36.79769183243867 0.0 0.2632609155717478 41.5961825944392 0.0 0.812076992988394 47.8711131106726 0.0 1.7141896199475433 53.9887637001756 0.0 2.7908857930452937 41.4844984455444 0.0 0.4951390507192381 47.077701756471 0.0 1.35348099112143 46.64617334754959 0.0 0.909778258610232 
TENSORS Ellispoids float
0.01 0.0 0.0 0.0 0.01 0.0 0.0 0.0 0.01 0.01 0.0 0.0 0.0 0.01 0.0 0.0 0.0 0.01 0.01 0.0 0.0 0.0 0.01 0.0 0.0 0.0 0.01 0.01 0.0 0.0 0.0 0.01 0.0 0.0 0.0 0.01 0.01 0.0 0.0 0.0 0.01 0.0 0.0 0.0 0.01 0.01 0.0 0.0 0.0 0.01 0.0 0.0 0.0 0.01 0.01 0.0 0.0 0.0 0.01 0.0 0.0 0.0 0.01 0.01 0.0 0.0 0.0 0.01 0.0 0.0 0.0 0.01 0.01 0.0 0.0 0.0 0.01 0.0 0.0 0.0 0.01 0.01 0.0 0.0 0.0 0.01 0.0 0.0 0.0 0.01 0.01 0.0 0.0 0.0 0.01 0.0 0.0 0.0 0.01 0.01 0.0 0.0 0.0 0.01 0.0 0.0 0.0 0.01 0.01 0.0 0.0 0.0 0.01 0.0 0.0 0.0 0.01 0.01 0.0 0.0 0.0 0.01 0.0 0.0 0.0 0.01 0.01 0.0 0.0 0.0 0.01 0.0 0.0 0.0 0.01 0.01 0.0 0.0 0.0 0.01 0.0 0.0 0.0 0.01 0.01 0.0 0.0 0.0 0.01 0.0 0.0 0.0 0.01 0.01 0.0 0.0 0.0 0.01 0.0 0.0 0.0 0.01 0.01 0.0 0.0 0.0 0.01 0.0 0.0 0.0 0.01 0.01 0.0 0.0 0.0 0.01 0.0 0.0 0.0 0.01 0.01 0.0 0.0 0.0 0.01 0.0 0.0 0.0 0.01 0.01 0.0 0.0 0.0 0.01 0.0 0.0 0.0 0.01 0.01 0.0 0.0 0.0 0.01 0.0 0.0 0.0 0.01 0.01 0.0 0.0 0.0 0.01 0.0 0.0 0.0 0.01 0.01 0.0 0.0 0.0 0.01 0.0 0.0 0.0 0.01 0.01 0.0 0.0 0.0 0.01 0.0 0.0 0.0 0.01 0.01 0.0 0.0 0.0 0.01 0.0 0.0 0.0 0.01 0.01 0.0 0.0 0.0 0.01 0.0 0.0 0.0 0.01 0.01 0.0 0.0 0.0 0.01 0.0 0.0 0.0 0.01 0.01 0.0 0.0 0.0 0.01 0.0 0.0 0.0 0.01 0.01 0.0 0.0 0.0 0.01 0.0 0.0 0.0 0.01 0.01 0.0 0.0 0.0 0.01 0.0 0.0 0.0 0.01 0.01 0.0 0.0 0.0 0.01 0.0 0.0 0.0 0.01 0.01 0.0 0.0 0.0 0.01 0.0 0.0 0.0 0.01 0.01 0.0 0.0 0.0 0.01 0.0 0.0 0.0 0.01 0.01 0.0 0.0 0.0 0.01 0.0 0.0 0.0 0.01 0.01 0.0 0.0 0.0 0.01 0.0 0.0 0.0 0.01 0.01 0.0 0.0 0.0 0.01 0.0 0.0 0.0 0.01 0.01 0.0 0.0 0.0 0.01 0.0 0.0 0.0 0.01 0.01 0.0 0.0 0.0 0.01 0.0 0.0 0.0 0.01 0.01 0.0 0.0 0.0 0.01 0.0 0.0 0.0 0.01 0.01 0.0 0.0 0.0 0.01 0.0 0.0 0.0 0.01 0.01 0.0 0.0 0.0 0.01 0.0 0.0 0.0 0.01 0.01 0.0 0.0 0.0 0.01 0.0 0.0 0.0 0.01 0.01 0.0 0.0 0.0 0.01 0.0 0.0 0.0 0.01 0.01 0.0 0.0 0.0 0.01 0.0 0.0 0.0 0.01 0.01 0.0 0.0 0.0 0.01 0.0 0.0 0.0 0.01 0.01 0.0 0.0 0.0 0.01 0.0 0.0 0.0 0.01 0.01 0.0 0.0 0.0 0.01 0.0 0.0 0.0 0.01 0.01 0.0 0.0 0.0 0.01 0.0 0.0 0.0 0.01 0.01 0.0 0.0 0.0 0.01 0.0 0.0 0.0 0.01 0.01 0.0 0.0 0.0 0.01 0.0 0.0 0.0 0.01 0.01 0.0 0.0 0.0 0.01 0.0 0.0 0.0 0.01 0.01 0.0 0.0 0.0 0.01 0.0 0.0 0.0 0.01 0.01 0.0 0.0 0.0 0.01 0.0 0.0 0.0 0.01 0.01 0.0 0.0 0.0 0.01 0.0 0.0 0.0 0.01 0.01 0.0 0.0 0.0 0.01 0.0 0.0 0.0 0.01 0.01 0.0 0.0 0.0 0.01 0.0 0.0 0.0 0.01 0.01 0.0 0.0 0.0 0.01 0.0 0.0 0.0 0.01 0.01 0.0 0.0 0.0 0.01 0.0 0.0 0.0 0.01 0.01 0.0 0.0 0.0 0.01 0.0 0.0 0.0 0.01 0.01 0.0 0.0 0.0 0.01 0.0 0.0 0.0 0.01 0.01 0.0 0.0 0.0 0.01 0.0 0.0 0.0 0.01 0.01 0.0 0.0 0.0 0.01 0.0 0.0 0.0 0.01 0.01 0.0 0.0 0.0 0.01 0.0 0.0 0.0 0.01 0.01 0.0 0.0 0.0 0.01 0.0 0.0 0.0 0.01 0.01 0.0 0.0 0.0 0.01 0.0 0.0 0.0 0.01 0.01 0.0 0.0 0.0 0.01 0.0 0.0 0.0 0.01 0.01 0.0 0.0 0.0 0.01 0.0 0.0 0.0 0.01 0.01 0.0 0.0 0.0 0.01 0.0 0.0 0.0 0.01 0.01 0.0 0.0 0.0 0.01 0.0 0.0 0.0 0.01 0.01 0.0 0.0 0.0 0.01 0.0 0.0 0.0 0.01 0.01 0.0 0.0 0.0 0.01 0.0 0.0 0.0 0.01 0.01 0.0 0.0 0.0 0.01 0.0 0.0 0.0 0.01 0.01 0.0 0.0 0.0 0.01 0.0 0.0 0.0 0.01 0.01 0.0 0.0 0.0 0.01 0.0 0.0 0.0 0.01 0.01 0.0 0.0 0.0 0.01 0.0 0.0 0.0 0.01 0.01 0.0 0.0 0.0 0.01 0.0 0.0 0.0 0.01 0.01 0.0 0.0 0.0 0.01 0.0 0.0 0.0 0.01 0.01 0.0 0.0 0.0 0.01 0.0 0.0 0.0 0.01 0.01 0.0 0.0 0.0 0.01 0.0 0.0 0.0 0.01 0.01 0.0 0.0 0.0 0.01 0.0 0.0 0.0 0.01 0.01 0.0 0.0 0.0 0.01 0.0 0.0 0.0 0.01 0.01 0.0 0.0 0.0 0.01 0.0 0.0 0.0 0.01 0.01 0.0 0.0 0.0 0.01 0.0 0.0 0.0 0.01 0.01 0.0 0.0 0.0 0.01 0.0 0.0 0.0 0.01 0.01 0.0 0.0 0.0 0.01 0.0 0.0 0.0 0.01 0.01 0.0 0.0 0.0 0.01 0.0 0.0 0.0 0.01 0.01 0.0 0.0 0.0 0.01 0.0 0.0 0.0 0.01 0.01 0.0 0.0 0.0 0.01 0.0 0.0 0.0 0.01 0.01 0.0 0.0 0.0 0.01 0.0 0.0 0.0 0.01 0.01 0.0 0.0 0.0 0.01 0.0 0.0 0.0 0.01 0.01 0.0 0.0 0.0 0.01 0.0 0.0 0.0 0.01 0.01 0.0 0.0 0.0 0.01 0.0 0.0 0.0 0.01 0.01 0.0 0.0 0.0 0.01 0.0 0.0 0.0 0.01 0.01 0.0 0.0 0.0 0.01 0.0 0.0 0.0 0.01 0.01 0.0 0.0 0.0 0.01 0.0 0.0 0.0 0.01 0.01 0.0 0.0 0.0 0.01 0.0 0.0 0.0 0.01 0.01 0.0 0.0 0.0 0.01 0.0 0.0 0.0 0.01 0.01 0.0 0.0 0.0 0.01 0.0 0.0 0.0 0.01 0.01 0.0 0.0 0.0 0.01 0.0 0.0 0.0 0.01 0.01 0.0 0.0 0.0 0.01 0.0 0.0 0.0 0.01 0.01 0.0 0.0 0.0 0.01 0.0 0.0 0.0 0.01 0.01 0.0 0.0 0.0 0.01 0.0 0.0 0.0 0.01 0.01 0.0 0.0 0.0 0.01 0.0 0.0 0.0 0.01 0.01 0.0 0.0 0.0 0.01 0.0 0.0 0.0 0.01 0.01 0.0 0.0 0.0 0.01 0.0 0.0 0.0 0.01 0.01 0.0 0.0 0.0 0.01 0.0 0.0 0.0 0.01 0.01 0.0 0.0 0.0 0.01 0.0 0.0 0.0 0.01 0.01 0.0 0.0 0.0 0.01 0.0 0.0 0.0 0.01 0.01 0.0 0.0 0.0 0.01 0.0 0.0 0.0 0.01 0.01 0.0 0.0 0.0 0.01 0.0 0.0 0.0 0.01 0.01 0.0 0.0 0.0 0.01 0.0 0.0 0.0 0.01 0.01 0.0 0.0 0.0 0.01 0.0 0.0 0.0 0.01 0.01 0.0 0.0 0.0 0.01 0.0 0.0 0.0 0.01 0.01 0.0 0.0 0.0 0.01 0.0 0.0 0.0 0.01 0.01 0.0 0.0 0.0 0.01 0.0 0.0 0.0 0.01 0.01 0.0 0.0 0.0 0.01 0.0 0.0 0.0 0.01 0.01 0.0 0.0 0.0 0.01 0.0 0.0 0.0 0.01 0.01 0.0 0.0 0.0 0.01 0.0 0.0 0.0 0.01 0.01 0.0 0.0 0.0 0.01 0.0 0.0 0.0 0.01 0.01 0.0 0.0 0.0 0.01 0.0 0.0 0.0 0.01 0.01 0.0 0.0 0.0 0.01 0.0 0.0 0.0 0.01 0.01 0.0 0.0 0.0 0.01 0.0 0.0 0.0 0.01 0.01 0.0 0.0 0.0 0.01 0.0 0.0 0.0 0.01 0.01 0.0 0.0 0.0 0.01 0.0 0.0 0.0 0.01 0.01 0.0 0.0 0.0 0.01 0.0 0.0 0.0 0.01 0.01 0.0 0.0 0.0 0.01 0.0 0.0 0.0 0.01 0.01 0.0 0.0 0.0 0.01 0.0 0.0 0.0 0.01 0.01 0.0 0.0 0.0 0.01 0.0 0.0 0.0 0.01 0.01 0.0 0.0 0.0 0.01 0.0 0.0 0.0 0.01 0.01 0.0 0.0 0.0 0.01 0.0 0.0 0.0 0.01 0.01 0.0 0.0 0.0 0.01 0.0 0.0 0.0 0.01 0.01 0.0 0.0 0.0 0.01 0.0 0.0 0.0 0.01 0.01 0.0 0.0 0.0 0.01 0.0 0.0 0.0 0.01 0.01 0.0 0.0 0.0 0.01 0.0 0.0 0.0 0.01 0.01 0.0 0.0 0.0 0.01 0.0 0.0 0.0 0.01 0.01 0.0 0.0 0.0 0.01 0.0 0.0 0.0 0.01 0.01 0.0 0.0 0.0 0.01 0.0 0.0 0.0 0.01 0.01 0.0 0.0 0.0 0.01 0.0 0.0 0.0 0.01 0.01 0.0 0.0 0.0 0.01 0.0 0.0 0.0 0.01 0.01 0.0 0.0 0.0 0.01 0.0 0.0 0.0 0.01 0.01 0.0 0.0 0.0 0.01 0.0 0.0 0.0 0.01 0.01 0.0 0.0 0.0 0.01 0.0 0.0 0.0 0.01 0.01 0.0 0.0 0.0 0.01 0.0 0.0 0.0 0.01 0.01 0.0 0.0 0.0 0.01 0.0 0.0 0.0 0.01 0.01 0.0 0.0 0.0 0.01 0.0 0.0 0.0 0.01 0.01 0.0 0.0 0.0 0.01 0.0 0.0 0.0 0.01 0.01 0.0 0.0 0.0 0.01 0.0 0.0 0.0 0.01 0.01 0.0 0.0 0.0 0.01 0.0 0.0 0.0 0.01 0.01 0.0 0.0 0.0 0.01 0.0 0.0 0.0 0.01 0.01 0.0 0.0 0.0 0.01 0.0 0.0 0.0 0.01 0.01 0.0 0.0 0.0 0.01 0.0 0.0 0.0 0.01 0.01 0.0 0.0 0.0 0.01 0.0 0.0 0.0 0.01 0.01 0.0 0.0 0.0 0.01 0.0 0.0 0.0 0.01 0.01 0.0 0.0 0.0 0.01 0.0 0.0 0.0 0.01 0.01 0.0 0.0 0.0 0.01 0.0 0.0 0.0 0.01 0.01 0.0 0.0 0.0 0.01 0.0 0.0 0.0 0.01 0.01 0.0 0.0 0.0 0.01 0.0 0.0 0.0 0.01 0.01 0.0 0.0 0.0 0.01 0.0 0.0 0.0 0.01 0.01 0.0 0.0 0.0 0.01 0.0 0.0 0.0 0.01 0.01 0.0 0.0 0.0 0.01 0.0 0.0 0.0 0.01 0.01 0.0 0.0 0.0 0.01 0.0 0.0 0.0 0.01 0.01 0.0 0.0 0.0 0.01 0.0 0.0 0.0 0.01 0.01 0.0 0.0 0.0 0.01 0.0 0.0 0.0 0.01 0.01 0.0 0.0 0.0 0.01 0.0 0.0 0.0 0.01 0.01 0.0 0.0 0.0 0.01 0.0 0.0 0.0 0.01 0.01 0.0 0.0 0.0 0.01 0.0 0.0 0.0 0.01 0.01 0.0 0.0 0.0 0.01 0.0 0.0 0.0 0.01 0.01 0.0 0.0 0.0 0.01 0.0 0.0 0.0 0.01 0.01 0.0 0.0 0.0 0.01 0.0 0.0 0.0 0.01 0.01 0.0 0.0 0.0 0.01 0.0 0.0 0.0 0.01 0.01 0.0 0.0 0.0 0.01 0.0 0.0 0.0 0.01 0.01 0.0 0.0 0.0 0.01 0.0 0.0 0.0 0.01 0.01 0.0 0.0 0.0 0.01 0.0 0.0 0.0 0.01 0.01 0.0 0.0 0.0 0.01 0.0 0.0 0.0 0.01 0.01 0.0 0.0 0.0 0.01 0.0 0.0 0.0 0.01 0.01 0.0 0.0 0.0 0.01 0.0 0.0 0.0 0.01 0.01 0.0 0.0 0.0 0.01 0.0 0.0 0.0 0.01 0.01 0.0 0.0 0.0 0.01 0.0 0.0 0.0 0.01 0.01 0.0 0.0 0.0 0.01 0.0 0.0 0.0 0.01 0.01 0.0 0.0 0.0 0.01 0.0 0.0 0.0 0.01 0.01 0.0 0.0 0.0 0.01 0.0 0.0 0.0 0.01 0.01 0.0 0.0 0.0 0.01 0.0 0.0 0.0 0.01 0.01 0.0 0.0 0.0 0.01 0.0 0.0 0.0 0.01 0.01 0.0 0.0 0.0 0.01 0.0 0.0 0.0 0.01 0.01 0.0 0.0 0.0 0.01 0.0 0.0 0.0 0.01 0.01 0.0 0.0 0.0 0.01 0.0 0.0 0.0 0.01 0.01 0.0 0.0 0.0 0.01 0.0 0.0 0.0 0.01 0.01 0.0 0.0 0.0 0.01 0.0 0.0 0.0 0.01 0.01 0.0 0.0 0.0 0.01 0.0 0.0 0.0 0.01 0.01 0.0 0.0 0.0 0.01 0.0 0.0 0.0 0.01 0.01 0.0 0.0 0.0 0.01 0.0 0.0 0.0 0.01 0.01 0.0 0.0 0.0 0.01 0.0 0.0 0.0 0.01 0.01 0.0 0.0 0.0 0.01 0.0 0.0 0.0 0.01 0.01 0.0 0.0 0.0 0.01 0.0 0.0 0.0 0.01 0.01 0.0 0.0 0.0 0.01 0.0 0.0 0.0 0.01 0.01 0.0 0.0 0.0 0.01 0.0 0.0 0.0 0.01 0.01 0.0 0.0 0.0 0.01 0.0 0.0 0.0 0.01 0.01 0.0 0.0 0.0 0.01 0.0 0.0 0.0 0.01 0.01 0.0 0.0 0.0 0.01 0.0 0.0 0.0 0.01 0.01 0.0 0.0 0.0 0.01 0.0 0.0 0.0 0.01 0.01 0.0 0.0 0.0 0.01 0.0 0.0 0.0 0.01 0.01 0.0 0.0 0.0 0.01 0.0 0.0 0.0 0.01 0.01 0.0 0.0 0.0 0.01 0.0 0.0 0.0 0.01 0.01 0.0 0.0 0.0 0.01 0.0 0.0 0.0 0.01 0.01 0.0 0.0 0.0 0.01 0.0 0.0 0.0 0.01 0.01 0.0 0.0 0.0 0.01 0.0 0.0 0.0 0.01 0.01 0.0 0.0 0.0 0.01 0.0 0.0 0.0 0.01 0.01 0.0 0.0 0.0 0.01 0.0 0.0 0.0 0.01 0.01 0.0 0.0 0.0 0.01 0.0 0.0 0.0 0.01 0.01 0.0 0.0 0.0 0.01 0.0 0.0 0.0 0.01 0.01 0.0 0.0 0.0 0.01 0.0 0.0 0.0 0.01 0.01 0.0 0.0 0.0 0.01 0.0 0.0 0.0 0.01 0.01 0.0 0.0 0.0 0.01 0.0 0.0 0.0 0.01 0.01 0.0 0.0 0.0 0.01 0.0 0.0 0.0 0.01 0.01 0.0 0.0 0.0 0.01 0.0 0.0 0.0 0.01 0.01 0.0 0.0 0.0 0.01 0.0 0.0 0.0 0.01 0.01 0.0 0.0 0.0 0.01 0.0 0.0 0.0 0.01 0.01 0.0 0.0 0.0 0.01 0.0 0.0 0.0 0.01 0.01 0.0 0.0 0.0 0.01 0.0 0.0 0.0 0.01 0.01 0.0 0.0 0.0 0.01 0.0 0.0 0.0 0.01 0.01 0.0 0.0 0.0 0.01 0.0 0.0 0.0 0.01 0.01 0.0 0.0 0.0 0.01 0.0 0.0 0.0 0.01 0.01 0.0 0.0 0.0 0.01 0.0 0.0 0.0 0.01 0.01 0.0 0.0 0.0 0.01 0.0 0.0 0.0 0.01 0.01 0.0 0.0 0.0 0.01 0.0 0.0 0.0 0.01 0.01 0.0 0.0 0.0 0.01 0.0 0.0 0.0 0.01 0.01 0.0 0.0 0.0 0.01 0.0 0.0 0.0 0.01 0.01 0.0 0.0 0.0 0.01 0.0 0.0 0.0 0.01 0.01 0.0 0.0 0.0 0.01 0.0 0.0 0.0 0.01 0.01 0.0 0.0 0.0 0.01 0.0 0.0 0.0 0.01 0.01 0.0 0.0 0.0 0.01 0.0 0.0 0.0 0.01 0.01 0.0 0.0 0.0 0.01 0.0 0.0 0.0 0.01 0.01 0.0 0.0 0.0 0.01 0.0 0.0 0.0 0.01 0.01 0.0 0.0 0.0 0.01 0.0 0.0 0.0 0.01 0.01 0.0 0.0 0.0 0.01 0.0 0.0 0.0 0.01 0.01 0.0 0.0 0.0 0.01 0.0 0.0 0.0 0.01 0.01 0.0 0.0 0.0 0.01 0.0 0.0 0.0 0.01 0.01 0.0 0.0 0.0 0.01 0.0 0.0 0.0 0.01 0.01 0.0 0.0 0.0 0.01 0.0 0.0 0.0 0.01 0.01 0.0 0.0 0.0 0.01 0.0 0.0 0.0 0.01 0.01 0.0 0.0 0.0 0.01 0.0 0.0 0.0 0.01 0.01 0.0 0.0 0.0 0.01 0.0 0.0 0.0 0.01 0.01 0.0 0.0 0.0 0.01 0.0 0.0 0.0 0.01 0.01 0.0 0.0 0.0 0.01 0.0 0.0 0.0 0.01 0.01 0.0 0.0 0.0 0.01 0.0 0.0 0.0 0.01 0.01 0.0 0.0 0.0 0.01 0.0 0.0 0.0 0.01 0.01 0.0 0.0 0.0 0.01 0.0 0.0 0.0 0.01 0.01 0.0 0.0 0.0 0.01 0.0 0.0 0.0 0.01 0.01 0.0 0.0 0.0 0.01 0.0 0.0 0.0 0.01 0.01 0.0 0.0 0.0 0.01 0.0 0.0 0.0 0.01 0.01 0.0 0.0 0.0 0.01 0.0 0.0 0.0 0.01 0.01 0.0 0.0 0.0 0.01 0.0 0.0 0.0 0.01 0.01 0.0 0.0 0.0 0.01 0.0 0.0 0.0 0.01 0.01 0.0 0.0 0.0 0.01 0.0 0.0 0.0 0.01 0.01 0.0 0.0 0.0 0.01 0.0 0.0 0.0 0.01 0.01 0.0 0.0 0.0 0.01 0.0 0.0 0.0 0.01 0.01 0.0 0.0 0.0 0.01 0.0 0.0 0.0 0.01 0.01 0.0 0.0 0.0 0.01 0.0 0.0 0.0 0.01 0.01 0.0 0.0 0.0 0.01 0.0 0.0 0.0 0.01 0.01 0.0 0.0 0.0 0.01 0.0 0.0 0.0 0.01 0.01 0.0 0.0 0.0 0.01 0.0 0.0 0.0 0.01 0.01 0.0 0.0 0.0 0.01 0.0 0.0 0.0 0.01 0.01 0.0 0.0 0.0 0.01 0.0 0.0 0.0 0.01 0.01 0.0 0.0 0.0 0.01 0.0 0.0 0.0 0.01 0.01 0.0 0.0 0.0 0.01 0.0 0.0 0.0 0.01 0.01 0.0 0.0 0.0 0.01 0.0 0.0 0.0 0.01 0.01 0.0 0.0 0.0 0.01 0.0 0.0 0.0 0.01 0.01 0.0 0.0 0.0 0.01 0.0 0.0 0.0 0.01 0.01 0.0 0.0 0.0 0.01 0.0 0.0 0.0 0.01 0.01 0.0 0.0 0.0 0.01 0.0 0.0 0.0 0.01 0.01 0.0 0.0 0.0 0.01 0.0 0.0 0.0 0.01 0.01 0.0 0.0 0.0 0.01 0.0 0.0 0.0 0.01 0.01 0.0 0.0 0.0 0.01 0.0 0.0 0.0 0.01 0.01 0.0 0.0 0.0 0.01 0.0 0.0 0.0 0.01 0.01 0.0 0.0 0.0 0.01 0.0 0.0 0.0 0.01 0.01 0.0 0.0 0.0 0.01 0.0 0.0 0.0 0.01 0.01 0.0 0.0 0.0 0.01 0.0 0.0 0.0 0.01 0.01 0.0 0.0 0.0 0.01 0.0 0.0 0.0 0.01 0.01 0.0 0.0 0.0 0.01 0.0 0.0 0.0 0.01 0.01 0.0 0.0 0.0 0.01 0.0 0.0 0.0 0.01 0.01 0.0 0.0 0.0 0.01 0.0 0.0 0.0 0.01 0.01 0.0 0.0 0.0 0.01 0.0 0.0 0.0 0.01 0.01 0.0 0.0 0.0 0.01 0.0 0.0 0.0 0.01 0.01 0.0 0.0 0.0 0.01 0.0 0.0 0.0 0.01 0.01 0.0 0.0 0.0 0.01 0.0 0.0 0.0 0.01 0.01 0.0 0.0 0.0 0.01 0.0 0.0 0.0 0.01 0.01 0.0 0.0 0.0 0.01 0.0 0.0 0.0 0.01 0.01 0.0 0.0 0.0 0.01 0.0 0.0 0.0 0.01 0.01 0.0 0.0 0.0 0.01 0.0 0.0 0.0 0.01 0.01 0.0 0.0 0.0 0.01 0.0 0.0 0.0 0.01 0.01 0.0 0.0 0.0 0.01 0.0 0.0 0.0 0.01 0.01 0.0 0.0 0.0 0.01 0.0 0.0 0.0 0.01 0.01 0.0 0.0 0.0 0.01 0.0 0.0 0.0 0.01 0.01 0.0 0.0 0.0 0.01 0.0 0.0 0.0 0.01 0.01 0.0 0.0 0.0 0.01 0.0 0.0 0.0 0.01 0.01 0.0 0.0 0.0 0.01 0.0 0.0 0.0 0.01 0.01 0.0 0.0 0.0 0.01 0.0 0.0 0.0 0.01 0.01 0.0 0.0 0.0 0.01 0.0 0.0 0.0 0.01 0.01 0.0 0.0 0.0 0.01 0.0 0.0 0.0 0.01 0.01 0.0 0.0 0.0 0.01 0.0 0.0 0.0 0.01 0.01 0.0 0.0 0.0 0.01 0.0 0.0 0.0 0.01 0.01 0.0 0.0 0.0 0.01 0.0 0.0 0.0 0.01 0.01 0.0 0.0 0.0 0.01 0.0 0.0 0.0 0.01 0.01 0.0 0.0 0.0 0.01 0.0 0.0 0.0 0.01 0.01 0.0 0.0 0.0 0.01 0.0 0.0 0.0 0.01 0.01 0.0 0.0 0.0 0.01 0.0 0.0 0.0 0.01 0.01 0.0 0.0 0.0 0.01 0.0 0.0 0.0 0.01 0.01 0.0 0.0 0.0 0.01 0.0 0.0 0.0 0.01 0.01 0.0 0.0 0.0 0.01 0.0 0.0 0.0 0.01 0.01 0.0 0.0 0.0 0.01 0.0 0.0 0.0 0.01 0.01 0.0 0.0 0.0 0.01 0.0 0.0 0.0 0.01 0.01 0.0 0.0 0.0 0.01 0.0 0.0 0.0 0.01 0.01 0.0 0.0 0.0 0.01 0.0 0.0 0.0 0.01 0.01 0.0 0.0 0.0 0.01 0.0 0.0 0.0 0.01 0.01 0.0 0.0 0.0 0.01 0.0 0.0 0.0 0.01 0.01 0.0 0.0 0.0 0.01 0.0 0.0 0.0 0.01 0.01 0.0 0.0 0.0 0.01 0.0 0.0 0.0 0.01 0.01 0.0 0.0 0.0 0.01 0.0 0.0 0.0 0.01 0.01 0.0 0.0 0.0 0.01 0.0 0.0 0.0 0.01 0.01 0.0 0.0 0.0 0.01 0.0 0.0 0.0 0.01 0.01 0.0 0.0 0.0 0.01 0.0 0.0 0.0 0.01 0.01 0.0 0.0 0.0 0.01 0.0 0.0 0.0 0.01 0.01 0.0 0.0 0.0 0.01 0.0 0.0 0.0 0.01 0.01 0.0 0.0 0.0 0.01 0.0 0.0 0.0 0.01 0.01 0.0 0.0 0.0 0.01 0.0 0.0 0.0 0.01 0.01 0.0 0.0 0.0 0.01 0.0 0.0 0.0 0.01 0.01 0.0 0.0 0.0 0.01 0.0 0.0 0.0 0.01 0.01 0.0 0.0 0.0 0.01 0.0 0.0 0.0 0.01 0.01 0.0 0.0 0.0 0.01 0.0 0.0 0.0 0.01 0.01 0.0 0.0 0.0 0.01 0.0 0.0 0.0 0.01 0.01 0.0 0.0 0.0 0.01 0.0 0.0 0.0 0.01 0.01 0.0 0.0 0.0 0.01 0.0 0.0 0.0 0.01 0.01 0.0 0.0 0.0 0.01 0.0 0.0 0.0 0.01 0.01 0.0 0.0 0.0 0.01 0.0 0.0 0.0 0.01 0.01 0.0 0.0 0.0 0.01 0.0 0.0 0.0 0.01 0.01 0.0 0.0 0.0 0.01 0.0 0.0 0.0 0.01 0.01 0.0 0.0 0.0 0.01 0.0 0.0 0.0 0.01 0.01 0.0 0.0 0.0 0.01 0.0 0.0 0.0 0.01 0.01 0.0 0.0 0.0 0.01 0.0 0.0 0.0 0.01 0.01 0.0 0.0 0.0 0.01 0.0 0.0 0.0 0.01 0.01 0.0 0.0 0.0 0.01 0.0 0.0 0.0 0.01 0.01 0.0 0.0 0.0 0.01 0.0 0.0 0.0 0.01 0.01 0.0 0.0 0.0 0.01 0.0 0.0 0.0 0.01 0.01 0.0 0.0 0.0 0.01 0.0 0.0 0.0 0.01 0.01 0.0 0.0 0.0 0.01 0.0 0.0 0.0 0.01 0.01 0.0 0.0 0.0 0.01 0.0 0.0 0.0 0.01 0.01 0.0 0.0 0.0 0.01 0.0 0.0 0.0 0.01 0.01 0.0 0.0 0.0 0.01 0.0 0.0 0.0 0.01 0.01 0.0 0.0 0.0 0.01 0.0 0.0 0.0 0.01 0.01 0.0 0.0 0.0 0.01 0.0 0.0 0.0 0.01 0.01 0.0 0.0 0.0 0.01 0.0 0.0 0.0 0.01 0.01 0.0 0.0 0.0 0.01 0.0 0.0 0.0 0.01 0.01 0.0 0.0 0.0 0.01 0.0 0.0 0.0 0.01 0.01 0.0 0.0 0.0 0.01 0.0 0.0 0.0 0.01 0.01 0.0 0.0 0.0 0.01 0.0 0.0 0.0 0.01 0.01 0.0 0.0 0.0 0.01 0.0 0.0 0.0 0.01 0.01 0.0 0.0 0.0 0.01 0.0 0.0 0.0 0.01 0.01 0.0 0.0 0.0 0.01 0.0 0.0 0.0 0.01 0.01 0.0 0.0 0.0 0.01 0.0 0.0 0.0 0.01 0.01 0.0 0.0 0.0 0.01 0.0 0.0 0.0 0.01 0.01 0.0 0.0 0.0 0.01 0.0 0.0 0.0 0.01 0.01 0.0 0.0 0.0 0.01 0.0 0.0 0.0 0.01 0.01 0.0 0.0 0.0 0.01 0.0 0.0 0.0 0.01 0.01 0.0 0.0 0.0 0.01 0.0 0.0 0.0 0.01 0.01 0.0 0.0 0.0 0.01 0.0 0.0 0.0 0.01 0.01 0.0 0.0 0.0 0.01 0.0 0.0 0.0 0.01 0.01 0.0 0.0 0.0 0.01 0.0 0.0 0.0 0.01 0.01 0.0 0.0 0.0 0.01 0.0 0.0 0.0 0.01 0.01 0.0 0.0 0.0 0.01 0.0 0.0 0.0 0.01 0.01 0.0 0.0 0.0 0.01 0.0 0.0 0.0 0.01 0.01 0.0 0.0 0.0 0.01 0.0 0.0 0.0 0.01 0.01 0.0 0.0 0.0 0.01 0.0 0.0 0.0 0.01 0.01 0.0 0.0 0.0 0.01 0.0 0.0 0.0 0.01 0.01 0.0 0.0 0.0 0.01 0.0 0.0 0.0 0.01 0.01 0.0 0.0 0.0 0.01 0.0 0.0 0.0 0.01 0.01 0.0 0.0 0.0 0.01 0.0 0.0 0.0 0.01 0.01 0.0 0.0 0.0 0.01 0.0 0.0 0.0 0.01 0.01 0.0 0.0 0.0 0.01 0.0 0.0 0.0 0.01 0.01 0.0 0.0 0.0 0.01 0.0 0.0 0.0 0.01 0.01 0.0 0.0 0.0 0.01 0.0 0.0 0.0 0.01 0.01 0.0 0.0 0.0 0.01 0.0 0.0 0.0 0.01 0.01 0.0 0.0 0.0 0.01 0.0 0.0 0.0 0.01 0.01 0.0 0.0 0.0 0.01 0.0 0.0 0.0 0.01 0.01 0.0 0.0 0.0 0.01 0.0 0.0 0.0 0.01 0.01 0.0 0.0 0.0 0.01 0.0 0.0 0.0 0.01 0.01 0.0 0.0 0.0 0.01 0.0 0.0 0.0 0.01 0.01 0.0 0.0 0.0 0.01 0.0 0.0 0.0 0.01 0.01 0.0 0.0 0.0 0.01 0.0 0.0 0.0 0.01 0.01 0.0 0.0 0.0 0.01 0.0 0.0 0.0 0.01 0.01 0.0 0.0 0.0 0.01 0.0 0.0 0.0 0.01 0.01 0.0 0.0 0.0 0.01 0.0 0.0 0.0 0.01 0.01 0.0 0.0 0.0 0.01 0.0 0.0 0.0 0.01 0.01 0.0 0.0 0.0 0.01 0.0 0.0 0.0 0.01 0.01 0.0 0.0 0.0 0.01 0.0 0.0 0.0 0.01 0.01 0.0 0.0 0.0 0.01 0.0 0.0 0.0 0.01 0.01 0.0 0.0 0.0 0.01 0.0 0.0 0.0 0.01 0.01 0.0 0.0 0.0 0.01 0.0 0.0 0.0 0.01 0.01 0.0 0.0 0.0 0.01 0.0 0.0 0.0 0.01 0.01 0.0 0.0 0.0 0.01 0.0 0.0 0.0 0.01 0.01 0.0 0.0 0.0 0.01 0.0 0.0 0.0 0.01 0.01 0.0 0.0 0.0 0.01 0.0 0.0 0.0 0.01 0.01 0.0 0.0 0.0 0.01 0.0 0.0 0.0 0.01 0.01 0.0 0.0 0.0 0.01 0.0 0.0 0.0 0.01 0.01 0.0 0.0 0.0 0.01 0.0 0.0 0.0 0.01 0.01 0.0 0.0 0.0 0.01 0.0 0.0 0.0 0.01 0.01 0.0 0.0 0.0 0.01 0.0 0.0 0.0 0.01 0.01 0.0 0.0 0.0 0.01 0.0 0.0 0.0 0.01 0.01 0.0 0.0 0.0 0.01 0.0 0.0 0.0 0.01 0.01 0.0 0.0 0.0 0.01 0.0 0.0 0.0 0.01 0.01 0.0 0.0 0.0 0.01 0.0 0.0 0.0 0.01 0.01 0.0 0.0 0.0 0.01 0.0 0.0 0.0 0.01 0.01 0.0 0.0 0.0 0.01 0.0 0.0 0.0 0.01 0.01 0.0 0.0 0.0 0.01 0.0 0.0 0.0 0.01 0.01 0.0 0.0 0.0 0.01 0.0 0.0 0.0 0.01 0.01 0.0 0.0 0.0 0.01 0.0 0.0 0.0 0.01 0.01 0.0 0.0 0.0 0.01 0.0 0.0 0.0 0.01 0.01 0.0 0.0 0.0 0.01 0.0 0.0 0.0 0.01 0.01 0.0 0.0 0.0 0.01 0.0 0.0 0.0 0.01 0.01 0.0 0.0 0.0 0.01 0.0 0.0 0.0 0.01 0.01 0.0 0.0 0.0 0.01 0.0 0.0 0.0 0.01 0.01 0.0 0.0 0.0 0.01 0.0 0.0 0.0 0.01 0.01 0.0 0.0 0.0 0.01 0.0 0.0 0.0 0.01 0.01 0.0 0.0 0.0 0.01 0.0 0.0 0.0 0.01 0.01 0.0 0.0 0.0 0.01 0.0 0.0 0.0 0.01 0.01 0.0 0.0 0.0 0.01 0.0 0.0 0.0 0.01 0.01 0.0 0.0 0.0 0.01 0.0 0.0 0.0 0.01 0.01 0.0 0.0 0.0 0.01 0.0 0.0 0.0 0.01 0.01 0.0 0.0 0.0 0.01 0.0 0.0 0.0 0.01 0.01 0.0 0.0 0.0 0.01 0.0 0.0 0.0 0.01 0.01 0.0 0.0 0.0 0.01 0.0 0.0 0.0 0.01 0.01 0.0 0.0 0.0 0.01 0.0 0.0 0.0 0.01 0.01 0.0 0.0 0.0 0.01 0.0 0.0 0.0 0.01 0.01 0.0 0.0 0.0 0.01 0.0 0.0 0.0 0.01 0.01 0.0 0.0 0.0 0.01 0.0 0.0 0.0 0.01 0.01 0.0 0.0 0.0 0.01 0.0 0.0 0.0 0.01 0.01 0.0 0.0 0.0 0.01 0.0 0.0 0.0 0.01 0.01 0.0 0.0 0.0 0.01 0.0 0.0 0.0 0.01 0.01 0.0 0.0 0.0 0.01 0.0 0.0 0.0 0.01 0.01 0.0 0.0 0.0 0.01 0.0 0.0 0.0 0.01 0.01 0.0 0.0 0.0 0.01 0.0 0.0 0.0 0.01 0.01 0.0 0.0 0.0 0.01 0.0 0.0 0.0 0.01 0.01 0.0 0.0 0.0 0.01 0.0 0.0 0.0 0.01 0.01 0.0 0.0 0.0 0.01 0.0 0.0 0.0 0.01 0.01 0.0 0.0 0.0 0.01 0.0 0.0 0.0 0.01 0.01 0.0 0.0 0.0 0.01 0.0 0.0 0.0 0.01 0.01 0.0 0.0 0.0 0.01 0.0 0.0 0.0 0.01 0.01 0.0 0.0 0.0 0.01 0.0 0.0 0.0 0.01 0.01 0.0 0.0 0.0 0.01 0.0 0.0 0.0 0.01 0.01 0.0 0.0 0.0 0.01 0.0 0.0 0.0 0.01 0.01 0.0 0.0 0.0 0.01 0.0 0.0 0.0 0.01 0.01 0.0 0.0 0.0 0.01 0.0 0.0 0.0 0.01 0.01 0.0 0.0 0.0 0.01 0.0 0.0 0.0 0.01 0.01 0.0 0.0 0.0 0.01 0.0 0.0 0.0 0.01 0.01 0.0 0.0 0.0 0.01 0.0 0.0 0.0 0.01 0.01 0.0 0.0 0.0 0.01 0.0 0.0 0.0 0.01 0.01 0.0 0.0 0.0 0.01 0.0 0.0 0.0 0.01 0.01 0.0 0.0 0.0 0.01 0.0 0.0 0.0 0.01 0.01 0.0 0.0 0.0 0.01 0.0 0.0 0.0 0.01 0.01 0.0 0.0 0.0 0.01 0.0 0.0 0.0 0.01 0.01 0.0 0.0 0.0 0.01 0.0 0.0 0.0 0.01 0.01 0.0 0.0 0.0 0.01 0.0 0.0 0.0 0.01 0.01 0.0 0.0 0.0 0.01 0.0 0.0 0.0 0.01 0.01 0.0 0.0 0.0 0.01 0.0 0.0 0.0 0.01 0.01 0.0 0.0 0.0 0.01 0.0 0.0 0.0 0.01 0.01 0.0 0.0 0.0 0.01 0.0 0.0 0.0 0.01 0.01 0.0 0.0 0.0 0.01 0.0 0.0 0.0 0.01 0.01 0.0 0.0 0.0 0.01 0.0 0.0 0.0 0.01 0.01 0.0 0.0 0.0 0.01 0.0 0.0 0.0 0.01 0.01 0.0 0.0 0.0 0.01 0.0 0.0 0.0 0.01 0.01 0.0 0.0 0.0 0.01 0.0 0.0 0.0 0.01 0.01 0.0 0.0 0.0 0.01 0.0 0.0 0.0 0.01 0.01 0.0 0.0 0.0 0.01 0.0 0.0 0.0 0.01 0.01 0.0 0.0 0.0 0.01 0.0 0.0 0.0 0.01 0.01 0.0 0.0 0.0 0.01 0.0 0.0 0.0 0.01 0.01 0.0 0.0 0.0 0.01 0.0 0.0 0.0 0.01 0.01 0.0 0.0 0.0 0.01 0.0 0.0 0.0 0.01 0.01 0.0 0.0 0.0 0.01 0.0 0.0 0.0 0.01 0.01 0.0 0.0 0.0 0.01 0.0 0.0 0.0 0.01 0.01 0.0 0.0 0.0 0.01 0.0 0.0 0.0 0.01 0.01 0.0 0.0 0.0 0.01 0.0 0.0 0.0 0.01 0.01 0.0 0.0 0.0 0.01 0.0 0.0 0.0 0.01 0.01 0.0 0.0 0.0 0.01 0.0 0.0 0.0 0.01 0.01 0.0 0.0 0.0 0.01 0.0 0.0 0.0 0.01 0.01 0.0 0.0 0.0 0.01 0.0 0.0 0.0 0.01 0.01 0.0 0.0 0.0 0.01 0.0 0.0 0.0 0.01 0.01 0.0 0.0 0.0 0.01 0.0 0.0 0.0 0.01 0.01 0.0 0.0 0.0 0.01 0.0 0.0 0.0 0.01 0.01 0.0 0.0 0.0 0.01 0.0 0.0 0.0 0.01 0.01 0.0 0.0 0.0 0.01 0.0 0.0 0.0 0.01 0.01 0.0 0.0 0.0 0.01 0.0 0.0 0.0 0.01 0.01 0.0 0.0 0.0 0.01 0.0 0.0 0.0 0.01 0.01 0.0 0.0 0.0 0.01 0.0 0.0 0.0 0.01 0.01 0.0 0.0 0.0 0.01 0.0 0.0 0.0 0.01 0.01 0.0 0.0 0.0 0.01 0.0 0.0 0.0 0.01 0.01 0.0 0.0 0.0 0.01 0.0 0.0 0.0 0.01 0.01 0.0 0.0 0.0 0.01 0.0 0.0 0.0 0.01 0.01 0.0 0.0 0.0 0.01 0.0 0.0 0.0 0.01 0.01 0.0 0.0 0.0 0.01 0.0 0.0 0.0 0.01 0.01 0.0 0.0 0.0 0.01 0.0 0.0 0.0 0.01 0.01 0.0 0.0 0.0 0.01 0.0 0.0 0.0 0.01 0.01 0.0 0.0 0.0 0.01 0.0 0.0 0.0 0.01 0.01 0.0 0.0 0.0 0.01 0.0 0.0 0.0 0.01 0.01 0.0 0.0 0.0 0.01 0.0 0.0 0.0 0.01 0.01 0.0 0.0 0.0 0.01 0.0 0.0 0.0 0.01 0.01 0.0 0.0 0.0 0.01 0.0 0.0 0.0 0.01 0.01 0.0 0.0 0.0 0.01 0.0 0.0 0.0 0.01 0.01 0.0 0.0 0.0 0.01 0.0 0.0 0.0 0.01 0.01 0.0 0.0 0.0 0.01 0.0 0.0 0.0 0.01 0.01 0.0 0.0 0.0 0.01 0.0 0.0 0.0 0.01 0.01 0.0 0.0 0.0 0.01 0.0 0.0 0.0 0.01 0.01 0.0 0.0 0.0 0.01 0.0 0.0 0.0 0.01 0.01 0.0 0.0 0.0 0.01 0.0 0.0 0.0 0.01 0.01 0.0 0.0 0.0 0.01 0.0 0.0 0.0 0.01 0.01 0.0 0.0 0.0 0.01 0.0 0.0 0.0 0.01 0.01 0.0 0.0 0.0 0.01 0.0 0.0 0.0 0.01 0.01 0.0 0.0 0.0 0.01 0.0 0.0 0.0 0.01 0.01 0.0 0.0 0.0 0.01 0.0 0.0 0.0 0.01 0.01 0.0 0.0 0.0 0.01 0.0 0.0 0.0 0.01 0.01 0.0 0.0 0.0 0.01 0.0 0.0 0.0 0.01 0.01 0.0 0.0 0.0 0.01 0.0 0.0 0.0 0.01 0.01 0.0 0.0 0.0 0.01 0.0 0.0 0.0 0.01 0.01 0.0 0.0 0.0 0.01 0.0 0.0 0.0 0.01 0.01 0.0 0.0 0.0 0.01 0.0 0.0 0.0 0.01 0.01 0.0 0.0 0.0 0.01 0.0 0.0 0.0 0.01 0.01 0.0 0.0 0.0 0.01 0.0 0.0 0.0 0.01 0.01 0.0 0.0 0.0 0.01 0.0 0.0 0.0 0.01 0.01 0.0 0.0 0.0 0.01 0.0 0.0 0.0 0.01 0.01 0.0 0.0 0.0 0.01 0.0 0.0 0.0 0.01 0.01 0.0 0.0 0.0 0.01 0.0 0.0 0.0 0.01 0.01 0.0 0.0 0.0 0.01 0.0 0.0 0.0 0.01 0.01 0.0 0.0 0.0 0.01 0.0 0.0 0.0 0.01 0.01 0.0 0.0 0.0 0.01 0.0 0.0 0.0 0.01 0.01 0.0 0.0 0.0 0.01 0.0 0.0 0.0 0.01 0.01 0.0 0.0 0.0 0.01 0.0 0.0 0.0 0.01 0.01 0.0 0.0 0.0 0.01 0.0 0.0 0.0 0.01 0.01 0.0 0.0 0.0 0.01 0.0 0.0 0.0 0.01 0.01 0.0 0.0 0.0 0.01 0.0 0.0 0.0 0.01 0.01 0.0 0.0 0.0 0.01 0.0 0.0 0.0 0.01 0.01 0.0 0.0 0.0 0.01 0.0 0.0 0.0 0.01 0.01 0.0 0.0 0.0 0.01 0.0 0.0 0.0 0.01 0.01 0.0 0.0 0.0 0.01 0.0 0.0 0.0 0.01 0.01 0.0 0.0 0.0 0.01 0.0 0.0 0.0 0.01 0.01 0.0 0.0 0.0 0.01 0.0 0.0 0.0 0.01 0.01 0.0 0.0 0.0 0.01 0.0 0.0 0.0 0.01 0.01 0.0 0.0 0.0 0.01 0.0 0.0 0.0 0.01 0.01 0.0 0.0 0.0 0.01 0.0 0.0 0.0 0.01 0.01 0.0 0.0 0.0 0.01 0.0 0.0 0.0 0.01 0.01 0.0 0.0 0.0 0.01 0.0 0.0 0.0 0.01 0.01 0.0 0.0 0.0 0.01 0.0 0.0 0.0 0.01 0.01 0.0 0.0 0.0 0.01 0.0 0.0 0.0 0.01 0.01 0.0 0.0 0.0 0.01 0.0 0.0 0.0 0.01 0.01 0.0 0.0 0.0 0.01 0.0 0.0 0.0 0.01 0.01 0.0 0.0 0.0 0.01 0.0 0.0 0.0 0.01 0.01 0.0 0.0 0.0 0.01 0.0 0.0 0.0 0.01 0.01 0.0 0.0 0.0 0.01 0.0 0.0 0.0 0.01 0.01 0.0 0.0 0.0 0.01 0.0 0.0 0.0 0.01 0.01 0.0 0.0 0.0 0.01 0.0 0.0 0.0 0.01 0.01 0.0 0.0 0.0 0.01 0.0 0.0 0.0 0.01 0.01 0.0 0.0 0.0 0.01 0.0 0.0 0.0 0.01 0.01 0.0 0.0 0.0 0.01 0.0 0.0 0.0 0.01 0.01 0.0 0.0 0.0 0.01 0.0 0.0 0.0 0.01 0.01 0.0 0.0 0.0 0.01 0.0 0.0 0.0 0.01 0.01 0.0 0.0 0.0 0.01 0.0 0.0 0.0 0.01 0.01 0.0 0.0 0.0 0.01 0.0 0.0 0.0 0.01 0.01 0.0 0.0 0.0 0.01 0.0 0.0 0.0 0.01 0.01 0.0 0.0 0.0 0.01 0.0 0.0 0.0 0.01 0.01 0.0 0.0 0.0 0.01 0.0 0.0 0.0 0.01 0.01 0.0 0.0 0.0 0.01 0.0 0.0 0.0 0.01 0.01 0.0 0.0 0.0 0.01 0.0 0.0 0.0 0.01 0.01 0.0 0.0 0.0 0.01 0.0 0.0 0.0 0.01 0.01 0.0 0.0 0.0 0.01 0.0 0.0 0.0 0.01 0.01 0.0 0.0 0.0 0.01 0.0 0.0 0.0 0.01 0.01 0.0 0.0 0.0 0.01 0.0 0.0 0.0 0.01 0.01 0.0 0.0 0.0 0.01 0.0 0.0 0.0 0.01 0.01 0.0 0.0 0.0 0.01 0.0 0.0 0.0 0.01 0.01 0.0 0.0 0.0 0.01 0.0 0.0 0.0 0.01 0.01 0.0 0.0 0.0 0.01 0.0 0.0 0.0 0.01 0.01 0.0 0.0 0.0 0.01 0.0 0.0 0.0 0.01 0.01 0.0 0.0 0.0 0.01 0.0 0.0 0.0 0.01 0.01 0.0 0.0 0.0 0.01 0.0 0.0 0.0 0.01 0.01 0.0 0.0 0.0 0.01 0.0 0.0 0.0 0.01 0.01 0.0 0.0 0.0 0.01 0.0 0.0 0.0 0.01 0.01 0.0 0.0 0.0 0.01 0.0 0.0 0.0 0.01 0.01 0.0 0.0 0.0 0.01 0.0 0.0 0.0 0.01 0.01 0.0 0.0 0.0 0.01 0.0 0.0 0.0 0.01 0.01 0.0 0.0 0.0 0.01 0.0 0.0 0.0 0.01 0.01 0.0 0.0 0.0 0.01 0.0 0.0 0.0 0.01 0.01 0.0 0.0 0.0 0.01 0.0 0.0 0.0 0.01 0.01 0.0 0.0 0.0 0.01 0.0 0.0 0.0 0.01 0.01 0.0 0.0 0.0 0.01 0.0 0.0 0.0 0.01 0.01 0.0 0.0 0.0 0.01 0.0 0.0 0.0 0.01 0.01 0.0 0.0 0.0 0.01 0.0 0.0 0.0 0.01 0.01 0.0 0.0 0.0 0.01 0.0 0.0 0.0 0.01 0.01 0.0 0.0 0.0 0.01 0.0 0.0 0.0 0.01 0.01 0.0 0.0 0.0 0.01 0.0 0.0 0.0 0.01 0.01 0.0 0.0 0.0 0.01 0.0 0.0 0.0 0.01 0.01 0.0 0.0 0.0 0.01 0.0 0.0 0.0 0.01 0.01 0.0 0.0 0.0 0.01 0.0 0.0 0.0 0.01 0.01 0.0 0.0 0.0 0.01 0.0 0.0 0.0 0.01 0.01 0.0 0.0 0.0 0.01 0.0 0.0 0.0 0.01 0.01 0.0 0.0 0.0 0.01 0.0 0.0 0.0 0.01 0.01 0.0 0.0 0.0 0.01 0.0 0.0 0.0 0.01 0.01 0.0 0.0 0.0 0.01 0.0 0.0 0.0 0.01 0.01 0.0 0.0 0.0 0.01 0.0 0.0 0.0 0.01 0.01 0.0 0.0 0.0 0.01 0.0 0.0 0.0 0.01 0.01 0.0 0.0 0.0 0.01 0.0 0.0 0.0 0.01 0.01 0.0 0.0 0.0 0.01 0.0 0.0 0.0 0.01 0.01 0.0 0.0 0.0 0.01 0.0 0.0 0.0 0.01 0.01 0.0 0.0 0.0 0.01 0.0 0.0 0.0 0.01 0.01 0.0 0.0 0.0 0.01 0.0 0.0 0.0 0.01 0.01 0.0 0.0 0.0 0.01 0.0 0.0 0.0 0.01 0.01 0.0 0.0 0.0 0.01 0.0 0.0 0.0 0.01 0.01 0.0 0.0 0.0 0.01 0.0 0.0 0.0 0.01 0.01 0.0 0.0 0.0 0.01 0.0 0.0 0.0 0.01 0.01 0.0 0.0 0.0 0.01 0.0 0.0 0.0 0.01 0.01 0.0 0.0 0.0 0.01 0.0 0.0 0.0 0.01 0.01 0.0 0.0 0.0 0.01 0.0 0.0 0.0 0.01 0.01 0.0 0.0 0.0 0.01 0.0 0.0 0.0 0.01 0.01 0.0 0.0 0.0 0.01 0.0 0.0 0.0 0.01 0.01 0.0 0.0 0.0 0.01 0.0 0.0 0.0 0.01 0.01 0.0 0.0 0.0 0.01 0.0 0.0 0.0 0.01 0.01 0.0 0.0 0.0 0.01 0.0 0.0 0.0 0.01 0.01 0.0 0.0 0.0 0.01 0.0 0.0 0.0 0.01 0.01 0.0 0.0 0.0 0.01 0.0 0.0 0.0 0.01 0.01 0.0 0.0 0.0 0.01 0.0 0.0 0.0 0.01 0.01 0.0 0.0 0.0 0.01 0.0 0.0 0.0 0.01 0.01 0.0 0.0 0.0 0.01 0.0 0.0 0.0 0.01 0.01 0.0 0.0 0.0 0.01 0.0 0.0 0.0 0.01 0.01 0.0 0.0 0.0 0.01 0.0 0.0 0.0 0.01 0.01 0.0 0.0 0.0 0.01 0.0 0.0 0.0 0.01 0.01 0.0 0.0 0.0 0.01 0.0 0.0 0.0 0.01 0.01 0.0 0.0 0.0 0.01 0.0 0.0 0.0 0.01 0.01 0.0 0.0 0.0 0.01 0.0 0.0 0.0 0.01 0.01 0.0 0.0 0.0 0.01 0.0 0.0 0.0 0.01 0.01 0.0 0.0 0.0 0.01 0.0 0.0 0.0 0.01 0.01 0.0 0.0 0.0 0.01 0.0 0.0 0.0 0.01 0.01 0.0 0.0 0.0 0.01 0.0 0.0 0.0 0.01 0.01 0.0 0.0 0.0 0.01 0.0 0.0 0.0 0.01 0.01 0.0 0.0 0.0 0.01 0.0 0.0 0.0 0.01 0.01 0.0 0.0 0.0 0.01 0.0 0.0 0.0 0.01 0.01 0.0 0.0 0.0 0.01 0.0 0.0 0.0 0.01 0.01 0.0 0.0 0.0 0.01 0.0 0.0 0.0 0.01 0.01 0.0 0.0 0.0 0.01 0.0 0.0 0.0 0.01 0.01 0.0 0.0 0.0 0.01 0.0 0.0 0.0 0.01 0.01 0.0 0.0 0.0 0.01 0.0 0.0 0.0 0.01 0.01 0.0 0.0 0.0 0.01 0.0 0.0 0.0 0.01 0.01 0.0 0.0 0.0 0.01 0.0 0.0 0.0 0.01 0.01 0.0 0.0 0.0 0.01 0.0 0.0 0.0 0.01 0.01 0.0 0.0 0.0 0.01 0.0 0.0 0.0 0.01 0.01 0.0 0.0 0.0 0.01 0.0 0.0 0.0 0.01 0.01 0.0 0.0 0.0 0.01 0.0 0.0 0.0 0.01 0.01 0.0 0.0 0.0 0.01 0.0 0.0 0.0 0.01 0.01 0.0 0.0 0.0 0.01 0.0 0.0 0.0 0.01 0.01 0.0 0.0 0.0 0.01 0.0 0.0 0.0 0.01 0.01 0.0 0.0 0.0 0.01 0.0 0.0 0.0 0.01 0.01 0.0 0.0 0.0 0.01 0.0 0.0 0.0 0.01 0.01 0.0 0.0 0.0 0.01 0.0 0.0 0.0 0.01 0.01 0.0 0.0 0.0 0.01 0.0 0.0 0.0 0.01 0.01 0.0 0.0 0.0 0.01 0.0 0.0 0.0 0.01 0.01 0.0 0.0 0.0 0.01 0.0 0.0 0.0 0.01 0.01 0.0 0.0 0.0 0.01 0.0 0.0 0.0 0.01 0.01 0.0 0.0 0.0 0.01 0.0 0.0 0.0 0.01 0.01 0.0 0.0 0.0 0.01 0.0 0.0 0.0 0.01 0.01 0.0 0.0 0.0 0.01 0.0 0.0 0.0 0.01 0.01 0.0 0.0 0.0 0.01 0.0 0.0 0.0 0.01 0.01 0.0 0.0 0.0 0.01 0.0 0.0 0.0 0.01 0.01 0.0 0.0 0.0 0.01 0.0 0.0 0.0 0.01 0.01 0.0 0.0 0.0 0.01 0.0 0.0 0.0 0.01 0.01 0.0 0.0 0.0 0.01 0.0 0.0 0.0 0.01 0.01 0.0 0.0 0.0 0.01 0.0 0.0 0.0 0.01 0.01 0.0 0.0 0.0 0.01 0.0 0.0 0.0 0.01 0.01 0.0 0.0 0.0 0.01 0.0 0.0 0.0 0.01 0.01 0.0 0.0 0.0 0.01 0.0 0.0 0.0 0.01 0.01 0.0 0.0 0.0 0.01 0.0 0.0 0.0 0.01 0.01 0.0 0.0 0.0 0.01 0.0 0.0 0.0 0.01 0.01 0.0 0.0 0.0 0.01 0.0 0.0 0.0 0.01 0.01 0.0 0.0 0.0 0.01 0.0 0.0 0.0 0.01 0.01 0.0 0.0 0.0 0.01 0.0 0.0 0.0 0.01 0.01 0.0 0.0 0.0 0.01 0.0 0.0 0.0 0.01 0.01 0.0 0.0 0.0 0.01 0.0 0.0 0.0 0.01 0.01 0.0 0.0 0.0 0.01 0.0 0.0 0.0 0.01 0.01 0.0 0.0 0.0 0.01 0.0 0.0 0.0 0.01 0.01 0.0 0.0 0.0 0.01 0.0 0.0 0.0 0.01 0.01 0.0 0.0 0.0 0.01 0.0 0.0 0.0 0.01 0.01 0.0 0.0 0.0 0.01 0.0 0.0 0.0 0.01 0.01 0.0 0.0 0.0 0.01 0.0 0.0 0.0 0.01 0.01 0.0 0.0 0.0 0.01 0.0 0.0 0.0 0.01 0.01 0.0 0.0 0.0 0.01 0.0 0.0 0.0 0.01 0.01 0.0 0.0 0.0 0.01 0.0 0.0 0.0 0.01 0.01 0.0 0.0 0.0 0.01 0.0 0.0 0.0 0.01 0.01 0.0 0.0 0.0 0.01 0.0 0.0 0.0 0.01 0.01 0.0 0.0 0.0 0.01 0.0 0.0 0.0 0.01 0.01 0.0 0.0 0.0 0.01 0.0 0.0 0.0 0.01 0.01 0.0 0.0 0.0 0.01 0.0 0.0 0.0 0.01 0.01 0.0 0.0 0.0 0.01 0.0 0.0 0.0 0.01 0.01 0.0 0.0 0.0 0.01 0.0 0.0 0.0 0.01 0.01 0.0 0.0 0.0 0.01 0.0 0.0 0.0 0.01 0.01 0.0 0.0 0.0 0.01 0.0 0.0 0.0 0.01 0.01 0.0 0.0 0.0 0.01 0.0 0.0 0.0 0.01 0.01 0.0 0.0 0.0 0.01 0.0 0.0 0.0 0.01 0.01 0.0 0.0 0.0 0.01 0.0 0.0 0.0 0.01 0.01 0.0 0.0 0.0 0.01 0.0 0.0 0.0 0.01 0.01 0.0 0.0 0.0 0.01 0.0 0.0 0.0 0.01 0.01 0.0 0.0 0.0 0.01 0.0 0.0 0.0 0.01 0.01 0.0 0.0 0.0 0.01 0.0 0.0 0.0 0.01 0.01 0.0 0.0 0.0 0.01 0.0 0.0 0.0 0.01 0.01 0.0 0.0 0.0 0.01 0.0 0.0 0.0 0.01 0.01 0.0 0.0 0.0 0.01 0.0 0.0 0.0 0.01 0.01 0.0 0.0 0.0 0.01 0.0 0.0 0.0 0.01 0.01 0.0 0.0 0.0 0.01 0.0 0.0 0.0 0.01 0.01 0.0 0.0 0.0 0.01 0.0 0.0 0.0 0.01 0.01 0.0 0.0 0.0 0.01 0.0 0.0 0.0 0.01 0.01 0.0 0.0 0.0 0.01 0.0 0.0 0.0 0.01 0.01 0.0 0.0 0.0 0.01 0.0 0.0 0.0 0.01 0.01 0.0 0.0 0.0 0.01 0.0 0.0 0.0 0.01 0.01 0.0 0.0 0.0 0.01 0.0 0.0 0.0 0.01 0.01 0.0 0.0 0.0 0.01 0.0 0.0 0.0 0.01 0.01 0.0 0.0 0.0 0.01 0.0 0.0 0.0 0.01 0.01 0.0 0.0 0.0 0.01 0.0 0.0 0.0 0.01 0.01 0.0 0.0 0.0 0.01 0.0 0.0 0.0 0.01 0.01 0.0 0.0 0.0 0.01 0.0 0.0 0.0 0.01 0.01 0.0 0.0 0.0 0.01 0.0 0.0 0.0 0.01 0.01 0.0 0.0 0.0 0.01 0.0 0.0 0.0 0.01 0.01 0.0 0.0 0.0 0.01 0.0 0.0 0.0 0.01 0.01 0.0 0.0 0.0 0.01 0.0 0.0 0.0 0.01 0.01 0.0 0.0 0.0 0.01 0.0 0.0 0.0 0.01 0.01 0.0 0.0 0.0 0.01 0.0 0.0 0.0 0.01 0.01 0.0 0.0 0.0 0.01 0.0 0.0 0.0 0.01 0.01 0.0 0.0 0.0 0.01 0.0 0.0 0.0 0.01 0.01 0.0 0.0 0.0 0.01 0.0 0.0 0.0 0.01 0.01 0.0 0.0 0.0 0.01 0.0 0.0 0.0 0.01 0.01 0.0 0.0 0.0 0.01 0.0 0.0 0.0 0.01 0.01 0.0 0.0 0.0 0.01 0.0 0.0 0.0 0.01 0.01 0.0 0.0 0.0 0.01 0.0 0.0 0.0 0.01 0.01 0.0 0.0 0.0 0.01 0.0 0.0 0.0 0.01 0.01 0.0 0.0 0.0 0.01 0.0 0.0 0.0 0.01 0.01 0.0 0.0 0.0 0.01 0.0 0.0 0.0 0.01 0.01 0.0 0.0 0.0 0.01 0.0 0.0 0.0 0.01 0.01 0.0 0.0 0.0 0.01 0.0 0.0 0.0 0.01 0.01 0.0 0.0 0.0 0.01 0.0 0.0 0.0 0.01 0.01 0.0 0.0 0.0 0.01 0.0 0.0 0.0 0.01 0.01 0.0 0.0 0.0 0.01 0.0 0.0 0.0 0.01 0.01 0.0 0.0 0.0 0.01 0.0 0.0 0.0 0.01 0.01 0.0 0.0 0.0 0.01 0.0 0.0 0.0 0.01 0.01 0.0 0.0 0.0 0.01 0.0 0.0 0.0 0.01 0.01 0.0 0.0 0.0 0.01 0.0 0.0 0.0 0.01 0.01 0.0 0.0 0.0 0.01 0.0 0.0 0.0 0.01 0.01 0.0 0.0 0.0 0.01 0.0 0.0 0.0 0.01 0.01 0.0 0.0 0.0 0.01 0.0 0.0 0.0 0.01 0.01 0.0 0.0 0.0 0.01 0.0 0.0 0.0 0.01 0.01 0.0 0.0 0.0 0.01 0.0 0.0 0.0 0.01 0.01 0.0 0.0 0.0 0.01 0.0 0.0 0.0 0.01 0.01 0.0 0.0 0.0 0.01 0.0 0.0 0.0 0.01 0.01 0.0 0.0 0.0 0.01 0.0 0.0 0.0 0.01 0.01 0.0 0.0 0.0 0.01 0.0 0.0 0.0 0.01 0.01 0.0 0.0 0.0 0.01 0.0 0.0 0.0 0.01 0.01 0.0 0.0 0.0 0.01 0.0 0.0 0.0 0.01 0.01 0.0 0.0 0.0 0.01 0.0 0.0 0.0 0.01 0.01 0.0 0.0 0.0 0.01 0.0 0.0 0.0 0.01 0.01 0.0 0.0 0.0 0.01 0.0 0.0 0.0 0.01 0.01 0.0 0.0 0.0 0.01 0.0 0.0 0.0 0.01 0.01 0.0 0.0 0.0 0.01 0.0 0.0 0.0 0.01 0.01 0.0 0.0 0.0 0.01 0.0 0.0 0.0 0.01 0.01 0.0 0.0 0.0 0.01 0.0 0.0 0.0 0.01 0.01 0.0 0.0 0.0 0.01 0.0 0.0 0.0 0.01 0.01 0.0 0.0 0.0 0.01 0.0 0.0 0.0 0.01 0.01 0.0 0.0 0.0 0.01 0.0 0.0 0.0 0.01 0.01 0.0 0.0 0.0 0.01 0.0 0.0 0.0 0.01 0.01 0.0 0.0 0.0 0.01 0.0 0.0 0.0 0.01 0.01 0.0 0.0 0.0 0.01 0.0 0.0 0.0 0.01 0.01 0.0 0.0 0.0 0.01 0.0 0.0 0.0 0.01 0.01 0.0 0.0 0.0 0.01 0.0 0.0 0.0 0.01 0.01 0.0 0.0 0.0 0.01 0.0 0.0 0.0 0.01 0.01 0.0 0.0 0.0 0.01 0.0 0.0 0.0 0.01 0.01 0.0 0.0 0.0 0.01 0.0 0.0 0.0 0.01 0.01 0.0 0.0 0.0 0.01 0.0 0.0 0.0 0.01 0.01 0.0 0.0 0.0 0.01 0.0 0.0 0.0 0.01 0.01 0.0 0.0 0.0 0.01 0.0 0.0 0.0 0.01 0.01 0.0 0.0 0.0 0.01 0.0 0.0 0.0 0.01 0.01 0.0 0.0 0.0 0.01 0.0 0.0 0.0 0.01 0.01 0.0 0.0 0.0 0.01 0.0 0.0 0.0 0.01 0.01 0.0 0.0 0.0 0.01 0.0 0.0 0.0 0.01 0.01 0.0 0.0 0.0 0.01 0.0 0.0 0.0 0.01 0.01 0.0 0.0 0.0 0.01 0.0 0.0 0.0 0.01 0.01 0.0 0.0 0.0 0.01 0.0 0.0 0.0 0.01 0.01 0.0 0.0 0.0 0.01 0.0 0.0 0.0 0.01 0.01 0.0 0.0 0.0 0.01 0.0 0.0 0.0 0.01 0.01 0.0 0.0 0.0 0.01 0.0 0.0 0.0 0.01 0.01 0.0 0.0 0.0 0.01 0.0 0.0 0.0 0.01 0.01 0.0 0.0 0.0 0.01 0.0 0.0 0.0 0.01 0.01 0.0 0.0 0.0 0.01 0.0 0.0 0.0 0.01 0.01 0.0 0.0 0.0 0.01 0.0 0.0 0.0 0.01 0.01 0.0 0.0 0.0 0.01 0.0 0.0 0.0 0.01 0.01 0.0 0.0 0.0 0.01 0.0 0.0 0.0 0.01 0.01 0.0 0.0 0.0 0.01 0.0 0.0 0.0 0.01 0.01 0.0 0.0 0.0 0.01 0.0 0.0 0.0 0.01 0.01 0.0 0.0 0.0 0.01 0.0 0.0 0.0 0.01 0.01 0.0 0.0 0.0 0.01 0.0 0.0 0.0 0.01 0.01 0.0 0.0 0.0 0.01 0.0 0.0 0.0 0.01 0.01 0.0 0.0 0.0 0.01 0.0 0.0 0.0 0.01 0.01 0.0 0.0 0.0 0.01 0.0 0.0 0.0 0.01 0.01 0.0 0.0 0.0 0.01 0.0 0.0 0.0 0.01 0.01 0.0 0.0 0.0 0.01 0.0 0.0 0.0 0.01 0.01 0.0 0.0 0.0 0.01 0.0 0.0 0.0 0.01 0.01 0.0 0.0 0.0 0.01 0.0 0.0 0.0 0.01 0.01 0.0 0.0 0.0 0.01 0.0 0.0 0.0 0.01 0.01 0.0 0.0 0.0 0.01 0.0 0.0 0.0 0.01 0.01 0.0 0.0 0.0 0.01 0.0 0.0 0.0 0.01 0.01 0.0 0.0 0.0 0.01 0.0 0.0 0.0 0.01 0.01 0.0 0.0 0.0 0.01 0.0 0.0 0.0 0.01 0.01 0.0 0.0 0.0 0.01 0.0 0.0 0.0 0.01 0.01 0.0 0.0 0.0 0.01 0.0 0.0 0.0 0.01 0.01 0.0 0.0 0.0 0.01 0.0 0.0 0.0 0.01 0.01 0.0 0.0 0.0 0.01 0.0 0.0 0.0 0.01 0.01 0.0 0.0 0.0 0.01 0.0 0.0 0.0 0.01 0.01 0.0 0.0 0.0 0.01 0.0 0.0 0.0 0.01 0.01 0.0 0.0 0.0 0.01 0.0 0.0 0.0 0.01 0.01 0.0 0.0 0.0 0.01 0.0 0.0 0.0 0.01 0.01 0.0 0.0 0.0 0.01 0.0 0.0 0.0 0.01 0.01 0.0 0.0 0.0 0.01 0.0 0.0 0.0 0.01 0.01 0.0 0.0 0.0 0.01 0.0 0.0 0.0 0.01 0.01 0.0 0.0 0.0 0.01 0.0 0.0 0.0 0.01 0.01 0.0 0.0 0.0 0.01 0.0 0.0 0.0 0.01 0.01 0.0 0.0 0.0 0.01 0.0 0.0 0.0 0.01 0.01 0.0 0.0 0.0 0.01 0.0 0.0 0.0 0.01 0.01 0.0 0.0 0.0 0.01 0.0 0.0 0.0 0.01 0.01 0.0 0.0 0.0 0.01 0.0 0.0 0.0 0.01 0.01 0.0 0.0 0.0 0.01 0.0 0.0 0.0 0.01 0.01 0.0 0.0 0.0 0.01 0.0 0.0 0.0 0.01 0.01 0.0 0.0 0.0 0.01 0.0 0.0 0.0 0.01 0.01 0.0 0.0 0.0 0.01 0.0 0.0 0.0 0.01 0.01 0.0 0.0 0.0 0.01 0.0 0.0 0.0 0.01 0.01 0.0 0.0 0.0 0.01 0.0 0.0 0.0 0.01 0.01 0.0 0.0 0.0 0.01 0.0 0.0 0.0 0.01 0.01 0.0 0.0 0.0 0.01 0.0 0.0 0.0 0.01 0.01 0.0 0.0 0.0 0.01 0.0 0.0 0.0 0.01 0.01 0.0 0.0 0.0 0.01 0.0 0.0 0.0 0.01 0.01 0.0 0.0 0.0 0.01 0.0 0.0 0.0 0.01 0.01 0.0 0.0 0.0 0.01 0.0 0.0 0.0 0.01 0.01 0.0 0.0 0.0 0.01 0.0 0.0 0.0 0.01 0.01 0.0 0.0 0.0 0.01 0.0 0.0 0.0 0.01 0.01 0.0 0.0 0.0 0.01 0.0 0.0 0.0 0.01 0.01 0.0 0.0 0.0 0.01 0.0 0.0 0.0 0.01 0.01 0.0 0.0 0.0 0.01 0.0 0.0 0.0 0.01 0.01 0.0 0.0 0.0 0.01 0.0 0.0 0.0 0.01 0.01 0.0 0.0 0.0 0.01 0.0 0.0 0.0 0.01 0.01 0.0 0.0 0.0 0.01 0.0 0.0 0.0 0.01 0.01 0.0 0.0 0.0 0.01 0.0 0.0 0.0 0.01 0.01 0.0 0.0 0.0 0.01 0.0 0.0 0.0 0.01 0.01 0.0 0.0 0.0 0.01 0.0 0.0 0.0 0.01 0.01 0.0 0.0 0.0 0.01 0.0 0.0 0.0 0.01 0.01 0.0 0.0 0.0 0.01 0.0 0.0 0.0 0.01 0.01 0.0 0.0 0.0 0.01 0.0 0.0 0.0 0.01 0.01 0.0 0.0 0.0 0.01 0.0 0.0 0.0 0.01 0.01 0.0 0.0 0.0 0.01 0.0 0.0 0.0 0.01 0.01 0.0 0.0 0.0 0.01 0.0 0.0 0.0 0.01 0.01 0.0 0.0 0.0 0.01 0.0 0.0 0.0 0.01 0.01 0.0 0.0 0.0 0.01 0.0 0.0 0.0 0.01 0.01 0.0 0.0 0.0 0.01 0.0 0.0 0.0 0.01 0.01 0.0 0.0 0.0 0.01 0.0 0.0 0.0 0.01 0.01 0.0 0.0 0.0 0.01 0.0 0.0 0.0 0.01 0.01 0.0 0.0 0.0 0.01 0.0 0.0 0.0 0.01 0.01 0.0 0.0 0.0 0.01 0.0 0.0 0.0 0.01 0.01 0.0 0.0 0.0 0.01 0.0 0.0 0.0 0.01 0.01 0.0 0.0 0.0 0.01 0.0 0.0 0.0 0.01 0.01 0.0 0.0 0.0 0.01 0.0 0.0 0.0 0.01 0.01 0.0 0.0 0.0 0.01 0.0 0.0 0.0 0.01 0.01 0.0 0.0 0.0 0.01 0.0 0.0 0.0 0.01 0.01 0.0 0.0 0.0 0.01 0.0 0.0 0.0 0.01 0.01 0.0 0.0 0.0 0.01 0.0 0.0 0.0 0.01 0.01 0.0 0.0 0.0 0.01 0.0 0.0 0.0 0.01 0.01 0.0 0.0 0.0 0.01 0.0 0.0 0.0 0.01 0.01 0.0 0.0 0.0 0.01 0.0 0.0 0.0 0.01 0.01 0.0 0.0 0.0 0.01 0.0 0.0 0.0 0.01 0.01 0.0 0.0 0.0 0.01 0.0 0.0 0.0 0.01 0.01 0.0 0.0 0.0 0.01 0.0 0.0 0.0 0.01 0.01 0.0 0.0 0.0 0.01 0.0 0.0 0.0 0.01 0.01 0.0 0.0 0.0 0.01 0.0 0.0 0.0 0.01 0.01 0.0 0.0 0.0 0.01 0.0 0.0 0.0 0.01 0.01 0.0 0.0 0.0 0.01 0.0 0.0 0.0 0.01 0.01 0.0 0.0 0.0 0.01 0.0 0.0 0.0 0.01 0.01 0.0 0.0 0.0 0.01 0.0 0.0 0.0 0.01 0.01 0.0 0.0 0.0 0.01 0.0 0.0 0.0 0.01 0.01 0.0 0.0 0.0 0.01 0.0 0.0 0.0 0.01 0.01 0.0 0.0 0.0 0.01 0.0 0.0 0.0 0.01 0.01 0.0 0.0 0.0 0.01 0.0 0.0 0.0 0.01 0.01 0.0 0.0 0.0 0.01 0.0 0.0 0.0 0.01 0.01 0.0 0.0 0.0 0.01 0.0 0.0 0.0 0.01 0.01 0.0 0.0 0.0 0.01 0.0 0.0 0.0 0.01 0.01 0.0 0.0 0.0 0.01 0.0 0.0 0.0 0.01 0.01 0.0 0.0 0.0 0.01 0.0 0.0 0.0 0.01 0.01 0.0 0.0 0.0 0.01 0.0 0.0 0.0 0.01 0.01 0.0 0.0 0.0 0.01 0.0 0.0 0.0 0.01 0.01 0.0 0.0 0.0 0.01 0.0 0.0 0.0 0.01 0.01 0.0 0.0 0.0 0.01 0.0 0.0 0.0 0.01 0.01 0.0 0.0 0.0 0.01 0.0 0.0 0.0 0.01 0.01 0.0 0.0 0.0 0.01 0.0 0.0 0.0 0.01 0.01 0.0 0.0 0.0 0.01 0.0 0.0 0.0 0.01 0.01 0.0 0.0 0.0 0.01 0.0 0.0 0.0 0.01 0.01 0.0 0.0 0.0 0.01 0.0 0.0 0.0 0.01 0.01 0.0 0.0 0.0 0.01 0.0 0.0 0.0 0.01 0.01 0.0 0.0 0.0 0.01 0.0 0.0 0.0 0.01 0.01 0.0 0.0 0.0 0.01 0.0 0.0 0.0 0.01 0.01 0.0 0.0 0.0 0.01 0.0 0.0 0.0 0.01 0.01 0.0 0.0 0.0 0.01 0.0 0.0 0.0 0.01 0.01 0.0 0.0 0.0 0.01 0.0 0.0 0.0 0.01 0.01 0.0 0.0 0.0 0.01 0.0 0.0 0.0 0.01 0.01 0.0 0.0 0.0 0.01 0.0 0.0 0.0 0.01 0.01 0.0 0.0 0.0 0.01 0.0 0.0 0.0 0.01 0.01 0.0 0.0 0.0 0.01 0.0 0.0 0.0 0.01 0.01 0.0 0.0 0.0 0.01 0.0 0.0 0.0 0.01 0.01 0.0 0.0 0.0 0.01 0.0 0.0 0.0 0.01 0.01 0.0 0.0 0.0 0.01 0.0 0.0 0.0 0.01 0.01 0.0 0.0 0.0 0.01 0.0 0.0 0.0 0.01 0.01 0.0 0.0 0.0 0.01 0.0 0.0 0.0 0.01 0.01 0.0 0.0 0.0 0.01 0.0 0.0 0.0 0.01 0.01 0.0 0.0 0.0 0.01 0.0 0.0 0.0 0.01 0.01 0.0 0.0 0.0 0.01 0.0 0.0 0.0 0.01 0.01 0.0 0.0 0.0 0.01 0.0 0.0 0.0 0.01 0.01 0.0 0.0 0.0 0.01 0.0 0.0 0.0 0.01 0.01 0.0 0.0 0.0 0.01 0.0 0.0 0.0 0.01 0.01 0.0 0.0 0.0 0.01 0.0 0.0 0.0 0.01 0.01 0.0 0.0 0.0 0.01 0.0 0.0 0.0 0.01 0.01 0.0 0.0 0.0 0.01 0.0 0.0 0.0 0.01 0.01 0.0 0.0 0.0 0.01 0.0 0.0 0.0 0.01 0.01 0.0 0.0 0.0 0.01 0.0 0.0 0.0 0.01 0.01 0.0 0.0 0.0 0.01 0.0 0.0 0.0 0.01 0.01 0.0 0.0 0.0 0.01 0.0 0.0 0.0 0.01 0.01 0.0 0.0 0.0 0.01 0.0 0.0 0.0 0.01 0.01 0.0 0.0 0.0 0.01 0.0 0.0 0.0 0.01 0.01 0.0 0.0 0.0 0.01 0.0 0.0 0.0 0.01 0.01 0.0 0.0 0.0 0.01 0.0 0.0 0.0 0.01 0.01 0.0 0.0 0.0 0.01 0.0 0.0 0.0 0.01 0.01 0.0 0.0 0.0 0.01 0.0 0.0 0.0 0.01 0.01 0.0 0.0 0.0 0.01 0.0 0.0 0.0 0.01 0.01 0.0 0.0 0.0 0.01 0.0 0.0 0.0 0.01 0.01 0.0 0.0 0.0 0.01 0.0 0.0 0.0 0.01 0.01 0.0 0.0 0.0 0.01 0.0 0.0 0.0 0.01 0.01 0.0 0.0 0.0 0.01 0.0 0.0 0.0 0.01 0.01 0.0 0.0 0.0 0.01 0.0 0.0 0.0 0.01 0.01 0.0 0.0 0.0 0.01 0.0 0.0 0.0 0.01 0.01 0.0 0.0 0.0 0.01 0.0 0.0 0.0 0.01 0.01 0.0 0.0 0.0 0.01 0.0 0.0 0.0 0.01 0.01 0.0 0.0 0.0 0.01 0.0 0.0 0.0 0.01 0.01 0.0 0.0 0.0 0.01 0.0 0.0 0.0 0.01 0.01 0.0 0.0 0.0 0.01 0.0 0.0 0.0 0.01 0.01 0.0 0.0 0.0 0.01 0.0 0.0 0.0 0.01 0.01 0.0 0.0 0.0 0.01 0.0 0.0 0.0 0.01 0.01 0.0 0.0 0.0 0.01 0.0 0.0 0.0 0.01 0.01 0.0 0.0 0.0 0.01 0.0 0.0 0.0 0.01 0.01 0.0 0.0 0.0 0.01 0.0 0.0 0.0 0.01 0.01 0.0 0.0 0.0 0.01 0.0 0.0 0.0 0.01 0.01 0.0 0.0 0.0 0.01 0.0 0.0 0.0 0.01 0.01 0.0 0.0 0.0 0.01 0.0 0.0 0.0 0.01 0.01 0.0 0.0 0.0 0.01 0.0 0.0 0.0 0.01 0.01 0.0 0.0 0.0 0.01 0.0 0.0 0.0 0.01 0.01 0.0 0.0 0.0 0.01 0.0 0.0 0.0 0.01 0.01 0.0 0.0 0.0 0.01 0.0 0.0 0.0 0.01 0.01 0.0 0.0 0.0 0.01 0.0 0.0 0.0 0.01 0.01 0.0 0.0 0.0 0.01 0.0 0.0 0.0 0.01 0.01 0.0 0.0 0.0 0.01 0.0 0.0 0.0 0.01 0.01 0.0 0.0 0.0 0.01 0.0 0.0 0.0 0.01 0.01 0.0 0.0 0.0 0.01 0.0 0.0 0.0 0.01 0.01 0.0 0.0 0.0 0.01 0.0 0.0 0.0 0.01 0.01 0.0 0.0 0.0 0.01 0.0 0.0 0.0 0.01 0.01 0.0 0.0 0.0 0.01 0.0 0.0 0.0 0.01 0.01 0.0 0.0 0.0 0.01 0.0 0.0 0.0 0.01 0.01 0.0 0.0 0.0 0.01 0.0 0.0 0.0 0.01 0.01 0.0 0.0 0.0 0.01 0.0 0.0 0.0 0.01 0.01 0.0 0.0 0.0 0.01 0.0 0.0 0.0 0.01 0.01 0.0 0.0 0.0 0.01 0.0 0.0 0.0 0.01 0.01 0.0 0.0 0.0 0.01 0.0 0.0 0.0 0.01 0.01 0.0 0.0 0.0 0.01 0.0 0.0 0.0 0.01 0.01 0.0 0.0 0.0 0.01 0.0 0.0 0.0 0.01 0.01 0.0 0.0 0.0 0.01 0.0 0.0 0.0 0.01 0.01 0.0 0.0 0.0 0.01 0.0 0.0 0.0 0.01 0.01 0.0 0.0 0.0 0.01 0.0 0.0 0.0 0.01 0.01 0.0 0.0 0.0 0.01 0.0 0.0 0.0 0.01 0.01 0.0 0.0 0.0 0.01 0.0 0.0 0.0 0.01 0.01 0.0 0.0 0.0 0.01 0.0 0.0 0.0 0.01 0.01 0.0 0.0 0.0 0.01 0.0 0.0 0.0 0.01 0.01 0.0 0.0 0.0 0.01 0.0 0.0 0.0 0.01 0.01 0.0 0.0 0.0 0.01 0.0 0.0 0.0 0.01 0.01 0.0 0.0 0.0 0.01 0.0 0.0 0.0 0.01 0.01 0.0 0.0 0.0 0.01 0.0 0.0 0.0 0.01 0.01 0.0 0.0 0.0 0.01 0.0 0.0 0.0 0.01 0.01 0.0 0.0 0.0 0.01 0.0 0.0 0.0 0.01 0.01 0.0 0.0 0.0 0.01 0.0 0.0 0.0 0.01 0.01 0.0 0.0 0.0 0.01 0.0 0.0 0.0 0.01 0.01 0.0 0.0 0.0 0.01 0.0 0.0 0.0 0.01 0.01 0.0 0.0 0.0 0.01 0.0 0.0 0.0 0.01 0.01 0.0 0.0 0.0 0.01 0.0 0.0 0.0 0.01 0.01 0.0 0.0 0.0 0.01 0.0 0.0 0.0 0.01 0.01 0.0 0.0 0.0 0.01 0.0 0.0 0.0 0.01 0.01 0.0 0.0 0.0 0.01 0.0 0.0 0.0 0.01 0.01 0.0 0.0 0.0 0.01 0.0 0.0 0.0 0.01 0.01 0.0 0.0 0.0 0.01 0.0 0.0 0.0 0.01 0.01 0.0 0.0 0.0 0.01 0.0 0.0 0.0 0.01 0.01 0.0 0.0 0.0 0.01 0.0 0.0 0.0 0.01 0.01 0.0 0.0 0.0 0.01 0.0 0.0 0.0 0.01 0.01 0.0 0.0 0.0 0.01 0.0 0.0 0.0 0.01 0.01 0.0 0.0 0.0 0.01 0.0 0.0 0.0 0.01 0.01 0.0 0.0 0.0 0.01 0.0 0.0 0.0 0.01 0.01 0.0 0.0 0.0 0.01 0.0 0.0 0.0 0.01 0.01 0.0 0.0 0.0 0.01 0.0 0.0 0.0 0.01 0.01 0.0 0.0 0.0 0.01 0.0 0.0 0.0 0.01 0.01 0.0 0.0 0.0 0.01 0.0 0.0 0.0 0.01 0.01 0.0 0.0 0.0 0.01 0.0 0.0 0.0 0.01 0.01 0.0 0.0 0.0 0.01 0.0 0.0 0.0 0.01 0.01 0.0 0.0 0.0 0.01 0.0 0.0 0.0 0.01 0.01 0.0 0.0 0.0 0.01 0.0 0.0 0.0 0.01 0.01 0.0 0.0 0.0 0.01 0.0 0.0 0.0 0.01 0.01 0.0 0.0 0.0 0.01 0.0 0.0 0.0 0.01 0.01 0.0 0.0 0.0 0.01 0.0 0.0 0.0 0.01 0.01 0.0 0.0 0.0 0.01 0.0 0.0 0.0 0.01 0.01 0.0 0.0 0.0 0.01 0.0 0.0 0.0 0.01 0.01 0.0 0.0 0.0 0.01 0.0 0.0 0.0 0.01 0.01 0.0 0.0 0.0 0.01 0.0 0.0 0.0 0.01 0.01 0.0 0.0 0.0 0.01 0.0 0.0 0.0 0.01 0.01 0.0 0.0 0.0 0.01 0.0 0.0 0.0 0.01 0.01 0.0 0.0 0.0 0.01 0.0 0.0 0.0 0.01 0.01 0.0 0.0 0.0 0.01 0.0 0.0 0.0 0.01 0.01 0.0 0.0 0.0 0.01 0.0 0.0 0.0 0.01 0.01 0.0 0.0 0.0 0.01 0.0 0.0 0.0 0.01 0.01 0.0 0.0 0.0 0.01 0.0 0.0 0.0 0.01 0.01 0.0 0.0 0.0 0.01 0.0 0.0 0.0 0.01 0.01 0.0 0.0 0.0 0.01 0.0 0.0 0.0 0.01 0.01 0.0 0.0 0.0 0.01 0.0 0.0 0.0 0.01 0.01 0.0 0.0 0.0 0.01 0.0 0.0 0.0 0.01 0.009999337065928069 0.0 4.4627471527573235e-13 0.0 0.01 0.0 4.46274715274078e-13 0.0 0.009999947000421349 0.009999166604193864 0.0 1.7593200737353683e-13 0.0 0.01 0.0 1.7593200737353683e-13 0.0 0.00999997700007935 0.009999022643302593 0.0 2.2243362809662046e-14 0.0 0.01 0.0 2.2243362809636197e-14 0.0 0.01000000635000605 0.009998908178837055 0.0 -1.9341438898819182e-14 0.0 0.01 0.0 -1.9341438898819182e-14 0.0 0.01000002980013321 0.009998824707229438 0.0 -5.200355722724888e-15 0.0 0.01 0.0 -5.200355722724888e-15 0.0 0.010000042500270938 0.009999401553724979 0.0 5.418114379497646e-13 0.0 0.01 0.0 5.418114379464559e-13 0.0 0.00999990500135373 0.009999189098644818 0.0 1.9375659689952535e-13 0.0 0.01 0.0 1.9375659690035253e-13 0.0 0.009999933500663333 0.009998989653140744 0.0 -1.1142813750366516e-13 0.0 0.01 0.0 -1.1142813750366516e-13 0.0 0.0099999720001176 0.009998820708642024 0.0 -2.3815051726232157e-13 0.0 0.01 0.0 -2.38150517261908e-13 0.0 0.010000010250015762 0.009998688757948456 0.0 -2.1128577535007348e-13 0.0 0.01 0.0 -2.112857753498667e-13 0.0 0.010000041000252154 0.0099985937966668 0.0 -1.261756310831788e-13 0.0 0.01 0.0 -1.26175631082972e-13 0.0 0.010000057600497674 0.009999294574650763 0.0 4.913261598625983e-13 0.0 0.01 0.0 4.913261598625983e-13 0.0 0.009999885001983715 0.009999050635211143 0.0 1.866389114254547e-13 0.0 0.01 0.0 1.866389114254547e-13 0.0 0.009999921000936138 0.009998822208111742 0.0 -1.3647383108178882e-13 0.0 0.01 0.0 -1.3647383108178882e-13 0.0 0.009999969500139537 0.009998632280649615 0.0 -2.952314759178306e-13 0.0 0.01 0.0 -2.952314759182442e-13 0.0 0.01000001515003443 0.009998487843061964 0.0 -2.826521329558714e-13 0.0 0.01 0.0 -2.8265213295545783e-13 0.0 0.010000050300379522 0.00999838788991865 0.0 -1.890501794997268e-13 0.0 0.01 0.0 -1.890501794997268e-13 0.0 0.010000069800730817 0.00999918210035492 0.0 7.885512085443627e-12 0.0 0.01 0.0 7.885512085456861e-12 0.0 0.009999869502554482 0.009998902680642898 0.0 2.595686608999965e-12 0.0 0.01 0.0 2.595686608999965e-12 0.0 0.009999913501122325 0.009998646274935356 0.0 4.215038975260991e-13 0.0 0.01 0.0 4.215038975256855e-13 0.0 0.009999968500148837 0.009998436366818783 0.0 8.915699184171904e-14 0.0 0.01 0.0 8.915699184171904e-14 0.0 0.01000002000006 0.009998281443117199 0.0 -8.184352296190936e-14 0.0 0.01 0.0 -8.184352296190936e-14 0.0 0.010000059100523926 0.009998177498347941 0.0 -1.1756639328948377e-13 0.0 0.01 0.0 -1.1756639328938037e-13 0.0 0.010000080550973262 0.009999041137930188 0.0 7.523456062751477e-10 0.0 0.01 0.0 7.523456062751477e-10 0.0 0.00999985850300335 0.009998722744748853 0.0 4.2165617201907557e-10 0.0 0.01 0.0 4.2165617201907557e-10 0.0 0.009999908001269606 0.00999843936541309 0.0 1.4663518226993028e-10 0.0 0.01 0.0 1.4663518226971852e-10 0.0 0.009999970500130542 0.009998210980203322 0.0 1.6594031118391413e-11 0.0 0.01 0.0 1.6594031118391413e-11 0.0 0.01000002540009678 0.009998047571945187 0.0 4.715957838333201e-13 0.0 0.01 0.0 4.715957838333201e-13 0.0 0.010000066400661353 0.009997943634469836 0.0 1.2125382939281807e-13 0.0 0.01 0.0 1.2125382939281807e-13 0.0 0.010000086901132759 0.009998836703027203 0.0 6.699170098186822e-09 0.0 0.01 0.0 6.699170098186822e-09 0.0 0.009999850503359185 0.009998483844881367 0.0 4.238297027833721e-09 0.0 0.01 0.0 4.238297027833721e-09 0.0 0.009999905501342214 0.009998173000811477 0.0 1.951722344007331e-09 0.0 0.01 0.0 1.951722344005637e-09 0.0 0.009999973000109926 0.009997932141582701 0.0 5.36788470589349e-10 0.0 0.01 0.0 5.367884705897725e-10 0.0 0.010000031250146531 0.009997765749004756 0.0 6.025017097092248e-11 0.0 0.01 0.0 6.025017097092248e-11 0.0 0.010000071800773298 0.009997659322072533 0.0 5.266634093644891e-13 0.0 0.01 0.0 5.266634093644891e-13 0.0 0.010000092751290407 0.009998509833276542 0.0 2.8374935499673884e-08 0.0 0.01 0.0 2.837493549970099e-08 0.0 0.009999843503794533 0.009998128525550171 0.0 1.9412856338350934e-08 0.0 0.01 0.0 1.9412856338350934e-08 0.0 0.009999905001410268 0.009997815715887317 0.0 9.7501375924904e-09 0.0 0.01 0.0 9.7501375924904e-09 0.0 0.009999977500090206 0.009997580378470367 0.0 3.3811267263173878e-09 0.0 0.01 0.0 3.3811267263156937e-09 0.0 0.010000038100219457 0.00999741800035277 0.0 6.733409172423548e-10 0.0 0.01 0.0 6.733409172423548e-10 0.0 0.010000079100938601 0.009997320577280778 0.0 4.749621838857214e-11 0.0 0.01 0.0 4.7496218388545673e-11 0.0 0.0100000986514598 0.009997983611077572 0.0 8.324033952606443e-08 0.0 0.01 0.0 8.324033952601022e-08 0.0 0.009999832505247934 0.009997599864887246 0.0 5.848190108310308e-08 0.0 0.01 0.0 5.848190108315729e-08 0.0 0.009999900002013156 0.009997321077018794 0.0 3.052920364111174e-08 0.0 0.01 0.0 3.052920364113884e-08 0.0 0.00999998250018579 0.009997124740563162 0.0 1.1561401164851331e-08 0.0 0.01 0.0 1.1561401164851331e-08 0.0 0.010000048350370721 0.009996993356530773 0.0 2.864007175034267e-09 0.0 0.01 0.0 2.864007175034267e-09 0.0 0.01000008935119876 0.009996913429625857 0.0 3.607733334890833e-10 0.0 0.01 0.0 3.607733334890833e-10 0.0 0.010000106951715793 0.009997181197783608 0.0 1.912129338443565e-07 0.0 0.01 0.0 1.912129338443565e-07 0.0 0.009999818010454836 0.00999685049120341 0.0 1.3329697024839398e-07 0.0 0.01 0.0 1.3329697024844819e-07 0.0 0.009999895004320046 0.009996665669142672 0.0 7.004562229098363e-08 0.0 0.01 0.0 7.004562229095653e-08 0.0 0.009999992500744724 0.009996554281877712 0.0 2.745035955344728e-08 0.0 0.01 0.0 2.7450359553433728e-08 0.0 0.010000067850803634 0.009996478860645369 0.0 7.524814995584682e-09 0.0 0.01 0.0 7.52481499558807e-09 0.0 0.010000111801883418 0.00999643590632067 0.0 1.2159288449224118e-09 0.0 0.01 0.0 1.2159288449228353e-09 0.0 0.0100001274524368 0.009996082821557327 0.0 3.530011768865249e-07 0.0 0.01 0.0 3.530011768865249e-07 0.0 0.009999778526060172 0.009995887546956914 0.0 2.4103908971128546e-07 0.0 0.01 0.0 2.4103908971117704e-07 0.0 0.009999883510755519 0.009995861572757342 0.0 1.251523283545366e-07 0.0 0.01 0.0 1.251523283544824e-07 0.0 0.01000001125236975 0.009995870559617826 0.0 4.9443116398580696e-08 0.0 0.01 0.0 4.9443116398580696e-08 0.0 0.010000106952082675 0.009995875553093586 0.0 1.4204128883830124e-08 0.0 0.01 0.0 1.4204128883830124e-08 0.0 0.010000152853534838 0.00999588154564878 0.0 2.5917310816348695e-09 0.0 0.01 0.0 2.5917310816348695e-09 0.0 0.010000165054087342 0.009994828554121347 0.0 5.145814792413463e-07 0.0 0.01 0.0 5.145814792415632e-07 0.0 0.009999687054440688 0.009994827034798618 0.0 3.470607201874927e-07 0.0 0.01 0.0 3.470607201876011e-07 0.0 0.009999862020936593 0.009994972298938039 0.0 1.7741962316734482e-07 0.0 0.01 0.0 1.7741962316739903e-07 0.0 0.010000051255118823 0.009995105097090139 0.0 6.980661856610497e-08 0.0 0.01 0.0 6.980661856607786e-08 0.0 0.010000174805314817 0.009995191969859998 0.0 2.042049604000925e-08 0.0 0.01 0.0 2.042049604000925e-08 0.0 0.010000230458028976 0.009995245393096312 0.0 3.9397863291012965e-09 0.0 0.01 0.0 3.9397863291012965e-09 0.0 0.010000234358240642 0.009993751415221309 0.0 5.973529934488915e-07 0.0 0.01 0.0 5.973529934486747e-07 0.0 0.009999670569853273 0.009993841717017114 0.0 3.969540024063162e-07 0.0 0.01 0.0 3.969540024063162e-07 0.0 0.009999873026074494 0.009994089749819747 0.0 2.0032808525270946e-07 0.0 0.01 0.0 2.0032808525276367e-07 0.0 0.010000132308650024 0.009994295386022294 0.0 7.798877401185176e-08 0.0 0.01 0.0 7.798877401187887e-08 0.0 0.010000295914047209 0.009994436646160027 0.0 2.277608711524835e-08 0.0 0.01 0.0 2.277608711524835e-08 0.0 0.010000351568617068 0.009994531488967798 0.0 4.4332083970929475e-09 0.0 0.01 0.0 4.4332083970946416e-09 0.0 0.010000341817528033 0.009992911592250268 0.0 5.668777906659133e-07 0.0 0.01 0.0 5.668777906659133e-07 0.0 0.01000026910910727 0.009992991395004527 0.0 3.650989826642966e-07 0.0 0.01 0.0 3.650989826642966e-07 0.0 0.010000167524221957 0.009993236373071517 0.0 1.8022301722422354e-07 0.0 0.01 0.0 1.8022301722422354e-07 0.0 0.010000338422054654 0.00999345493200955 0.0 6.87495601479725e-08 0.0 0.01 0.0 6.87495601479725e-08 0.0 0.010000487336331692 0.009993615619314186 0.0 1.963574576818112e-08 0.0 0.01 0.0 1.963574576818112e-08 0.0 0.01000052689169718 0.00999373289641699 0.0 3.6712174041174603e-09 0.0 0.01 0.0 3.6712174041166133e-09 0.0 0.010000494686706841 0.009992117355995136 0.0 4.141462072870133e-07 0.0 0.01 0.0 4.141462072870133e-07 0.0 0.010001063695440456 0.009992183185395917 0.0 2.636247410773055e-07 0.0 0.01 0.0 2.636247410773055e-07 0.0 0.010000734941446432 0.009992376728444973 0.0 1.2730548252265386e-07 0.0 0.01 0.0 1.2730548252262676e-07 0.0 0.010000697325365644 0.009992564800888493 0.0 4.7022533867358387e-08 0.0 0.01 0.0 4.7022533867358387e-08 0.0 0.01000075983692598 0.009992718959783334 0.0 1.2751078176099736e-08 0.0 0.01 0.0 1.2751078176096348e-08 0.0 0.010000753985289906 0.009992849177459719 0.0 2.131199126662066e-09 0.0 0.01 0.0 2.1311991266616425e-09 0.0 0.01000068707080414 0.009991257984840959 0.0 2.3127503158689258e-07 0.0 0.01 0.0 2.312750315869468e-07 0.0 0.01000164301286407 0.00999131183895633 0.0 1.4600201461337876e-07 0.0 0.01 0.0 1.4600201461337876e-07 0.0 0.010001292253644864 0.009991450976091231 0.0 6.87332155536747e-08 0.0 0.01 0.0 6.873321555366115e-08 0.0 0.010001113486659509 0.009991597103266723 0.0 2.4040149859679103e-08 0.0 0.01 0.0 2.4040149859675715e-08 0.0 0.010001073923058603 0.009991736254726248 0.0 5.851279098619408e-09 0.0 0.01 0.0 5.851279098619408e-09 0.0 0.010001010903273296 0.009991870424256956 0.0 7.592049542974799e-10 0.0 0.01 0.0 7.592049542975858e-10 0.0 0.010000905873076124 0.009990284677933864 0.0 9.817247867184586e-08 0.0 0.01 0.0 9.817247867184586e-08 0.0 0.010002005004291947 0.00999032456080564 0.0 6.048213937271334e-08 0.0 0.01 0.0 6.048213937270657e-08 0.0 0.010001707938007389 0.009990414799154105 0.0 2.6885412944340653e-08 0.0 0.01 0.0 2.688541294434404e-08 0.0 0.010001490083094504 0.009990527476335654 0.0 8.424451890546371e-09 0.0 0.01 0.0 8.424451890546371e-09 0.0 0.010001383086897157 0.009990651625175772 0.0 1.6185792002187539e-09 0.0 0.01 0.0 1.6185792002187539e-09 0.0 0.010001271742558633 0.009990786748260332 0.0 1.0940845935406924e-10 0.0 0.01 0.0 1.0940845935406924e-10 0.0 0.01000113984485733 0.00998916314124414 0.0 2.9444794413126507e-08 0.0 0.01 0.0 2.944479441312312e-08 0.0 0.010002232697648444 0.009989190551961936 0.0 1.6772281088184732e-08 0.0 0.01 0.0 1.677228108818812e-08 0.0 0.010001992295270183 0.009989250856492765 0.0 6.537004033299236e-09 0.0 0.01 0.0 6.537004033300083e-09 0.0 0.010001791481302239 0.009989339570974781 0.0 1.558394032153549e-09 0.0 0.01 0.0 1.558394032153549e-09 0.0 0.010001664465474958 0.009989451713456731 0.0 1.454585729952889e-10 0.0 0.01 0.0 1.454585729952889e-10 0.0 0.010001531601798772 0.00998958828317989 0.0 -7.384100852659113e-12 0.0 0.01 0.0 -7.384100852658286e-12 0.0 0.010001380185684307 0.009987887542342193 0.0 4.435728086954199e-09 0.0 0.01 0.0 4.435728086955046e-09 0.0 0.010002409570627827 0.009987906473436295 0.0 2.072262245326276e-09 0.0 0.01 0.0 2.0722622453260643e-09 0.0 0.010002206780267642 0.009987948321504465 0.0 5.083346117994976e-10 0.0 0.01 0.0 5.083346117995506e-10 0.0 0.010002039673870795 0.009988021556890525 0.0 -3.895160325230361e-12 0.0 0.01 0.0 -3.895160325229948e-12 0.0 0.010001921453655775 0.009988125683444255 0.0 -2.5033547984169284e-11 0.0 0.01 0.0 -2.5033547984165976e-11 0.0 0.010001785628156347 0.009988262198787857 0.0 -6.70688920902495e-12 0.0 0.01 0.0 -6.70688920902495e-12 0.0 0.010001628797860965 0.009986454571584874 0.0 -3.7282871374301304e-11 0.0 0.01 0.0 -3.728287137430461e-11 0.0 0.010002598162216374 0.009986459053326326 0.0 -1.4463316778269274e-10 0.0 0.01 0.0 -1.4463316778269274e-10 0.0 0.010002418376999308 0.009986488433780801 0.0 -1.225670106429936e-10 0.0 0.01 0.0 -1.2256701064298035e-10 0.0 0.01000228103022754 0.009986547693452537 0.0 -6.611320405981411e-11 0.0 0.01 0.0 -6.611320405982073e-11 0.0 0.010002182864526666 0.009986647789915754 0.0 -2.558838984023769e-11 0.0 0.01 0.0 -2.5588389840241e-11 0.0 0.010002046528070187 0.009986786236750617 0.0 -6.317065090635927e-12 0.0 0.01 0.0 -6.3170650906351e-12 0.0 0.010001880430269748 0.009984822125245128 0.0 -1.299828310998367e-10 0.0 0.01 0.0 -1.299828310998367e-10 0.0 0.010002834704877358 0.009984815157077609 0.0 -1.8893095302282854e-10 0.0 0.01 0.0 -1.8893095302282854e-10 0.0 0.010002661211930533 0.009984833075252136 0.0 -1.4273626983176718e-10 0.0 0.01 0.0 -1.4273626983175394e-10 0.0 0.010002543920400498 0.009984890314511486 0.0 -7.456724216302373e-11 0.0 0.01 0.0 -7.456724216301712e-11 0.0 0.010002460858075416 0.009984993347659036 0.0 -2.751656587939538e-11 0.0 0.01 0.0 -2.751656587939869e-11 0.0 0.010002322608926324 0.009985143174497156 0.0 -6.158802589524412e-12 0.0 0.01 0.0 -6.158802589524412e-12 0.0 0.010002148141978896 0.009982940752193466 0.0 -1.5995113962867341e-10 0.0 0.01 0.0 -1.5995113962867341e-10 0.0 0.010003134272934469 0.00998293478285312 0.0 -2.3083896652521377e-10 0.0 0.01 0.0 -2.30838966525227e-10 0.0 0.010002952957478889 0.009982955675591203 0.0 -1.710938680695947e-10 0.0 0.01 0.0 -1.710938680695947e-10 0.0 0.01000284396275875 0.009983023329166998 0.0 -8.688339476196672e-11 0.0 0.01 0.0 -8.688339476197334e-11 0.0 0.010002766297436998 0.009983141726234388 0.0 -3.0511691561904365e-11 0.0 0.01 0.0 -3.0511691561904365e-11 0.0 0.010002620679834562 0.009983315847221529 0.0 -6.0753326377297955e-12 0.0 0.01 0.0 -6.075332637730209e-12 0.0 0.010002429585145854 0.009980773590707247 0.0 -1.9009114781933567e-10 0.0 0.01 0.0 -1.9009114781932243e-10 0.0 0.010003491577816402 0.00998078303603068 0.0 -2.8258827096741906e-10 0.0 0.01 0.0 -2.825882709673926e-10 0.0 0.010003296529349698 0.009980831257310285 0.0 -2.0772321146123131e-10 0.0 0.01 0.0 -2.0772321146124455e-10 0.0 0.010003185121103469 0.009980925216244224 0.0 -1.0320702208420776e-10 0.0 0.01 0.0 -1.0320702208420776e-10 0.0 0.010003101542338251 0.009981082317532131 0.0 -3.479316871227738e-11 0.0 0.01 0.0 -3.479316871227738e-11 0.0 0.01000293879496995 0.00998129362051976 0.0 -6.243809779151447e-12 0.0 0.01 0.0 -6.243809779151447e-12 0.0 0.0100027296172149 0.009978291394697794 0.0 -2.128595055994402e-10 0.0 0.01 0.0 -2.1285950559942697e-10 0.0 0.010003918301760742 0.009978342063662589 0.0 -3.4406168338639614e-10 0.0 0.01 0.0 -3.440616833864226e-10 0.0 0.010003696848993883 0.00997843893294956 0.0 -2.5457508805731175e-10 0.0 0.01 0.0 -2.54575088057325e-10 0.0 0.01000356490537687 0.009978590948902586 0.0 -1.2537632432980576e-10 0.0 0.01 0.0 -1.2537632432980576e-10 0.0 0.010003461246204827 0.009978805571488095 0.0 -4.159242784544424e-11 0.0 0.01 0.0 -4.1592427845447546e-11 0.0 0.010003276509624086 0.009979076850402661 0.0 -7.412174218270841e-12 0.0 0.01 0.0 -7.412174218271255e-12 0.0 0.010003041937444765 0.009975490403421754 0.0 -2.2021026147533073e-10 0.0 0.01 0.0 -2.2021026147533073e-10 0.0 0.010004407712477691 0.00997561697063433 0.0 -4.1851348396760596e-10 0.0 0.01 0.0 -4.185134839675795e-10 0.0 0.010004139268614053 0.009975792683692334 0.0 -3.1735252906374885e-10 0.0 0.01 0.0 -3.1735252906374885e-10 0.0 0.010003957898504709 0.009976032939171178 0.0 -1.5817828970105486e-10 0.0 0.01 0.0 -1.5817828970106147e-10 0.0 0.010003829348463928 0.009976333779390448 0.0 -5.3975908326885384e-11 0.0 0.01 0.0 -5.3975908326885384e-11 0.0 0.010003621616466275 0.00997668826962537 0.0 -1.1190558355517227e-11 0.0 0.01 0.0 -1.1190558355518054e-11 0.0 0.010003362044742 0.009972422994576308 0.0 -2.0684505385437135e-10 0.0 0.01 0.0 -2.0684505385439782e-10 0.0 0.010004948020013973 0.00997266151893471 0.0 -5.158734140376906e-10 0.0 0.01 0.0 -5.158734140376906e-10 0.0 0.0100045915604292 0.009972958086599442 0.0 -4.0873294089485966e-10 0.0 0.01 0.0 -4.0873294089485966e-10 0.0 0.010004332413845997 0.009973320153226243 0.0 -2.107407402086038e-10 0.0 0.01 0.0 -2.1074074020861705e-10 0.0 0.010004191133368222 0.00997373930699238 0.0 -7.727427964166011e-11 0.0 0.01 0.0 -7.727427964166011e-11 0.0 0.010003970113018706 0.009974197212271385 0.0 -2.0502068580979517e-11 0.0 0.01 0.0 -2.0502068580979517e-11 0.0 0.01000369294466924 0.009969257845328247 0.0 -1.7516413337568648e-10 0.0 0.01 0.0 -1.7516413337569972e-10 0.0 0.010005500635221813 0.009969645768391908 0.0 -6.587641814704003e-10 0.0 0.01 0.0 -6.587641814704003e-10 0.0 0.010005007158235922 0.009970098154775014 0.0 -5.53322933158776e-10 0.0 0.01 0.0 -5.53322933158776e-10 0.0 0.010004655098474974 0.009970611561562856 0.0 -2.995038489605624e-10 0.0 0.01 0.0 -2.9950384896054916e-10 0.0 0.010004541191491093 0.009971172137724485 0.0 -1.199014135516491e-10 0.0 0.01 0.0 -1.199014135516491e-10 0.0 0.010004332914496155 0.009971750160509947 0.0 -3.9490874913692083e-11 0.0 0.01 0.0 -3.949087491369539e-11 0.0 0.010004045403469969 0.00996631496985564 0.0 -1.420034030329735e-10 0.0 0.01 0.0 -1.4200340303296026e-10 0.0 0.010006011265956648 0.009966873336446452 0.0 -8.907705263017949e-10 0.0 0.01 0.0 -8.907705263017684e-10 0.0 0.010005337269928895 0.009967503591617513 0.0 -7.987382384411596e-10 0.0 0.01 0.0 -7.987382384411596e-10 0.0 0.010004922081649794 0.009968182499781065 0.0 -4.551417589723002e-10 0.0 0.01 0.0 -4.5514175897232665e-10 0.0 0.010004915221536929 0.009968889286055656 0.0 -1.9498712876385282e-10 0.0 0.01 0.0 -1.9498712876385943e-10 0.0 0.010004750432849093 0.009969586809094905 0.0 -7.197565748087779e-11 0.0 0.01 0.0 -7.197565748088441e-11 0.0 0.01000447029574596 0.009964100742976555 0.0 -1.3824030110172498e-10 0.0 0.01 0.0 -1.3824030110171837e-10 0.0 0.010006414366340302 0.00996481952455734 0.0 -1.2809355481686736e-09 0.0 0.01 0.0 -1.2809355481687265e-09 0.0 0.010005552971902592 0.009965609225811025 0.0 -1.2291112930788223e-09 0.0 0.01 0.0 -1.2291112930788753e-09 0.0 0.010005180272505238 0.009966436733291808 0.0 -7.349083015752515e-10 0.0 0.01 0.0 -7.34908301575278e-10 0.0 0.010005400872264586 0.009967264942052195 0.0 -3.2575598370086334e-10 0.0 0.01 0.0 -3.2575598370086334e-10 0.0 0.01000532505040634 0.00996805968189998 0.0 -1.1979652242572674e-10 0.0 0.01 0.0 -1.1979652242572674e-10 0.0 0.010005047769425708 0.0099633015099259 0.0 -2.0606685365765466e-10 0.0 0.01 0.0 -2.0606685365765466e-10 0.0 0.010006681991389437 0.009964117065953059 0.0 -1.9173430944901814e-09 0.0 0.01 0.0 -1.9173430944901285e-09 0.0 0.010005712891844149 0.009964998131030849 0.0 -1.9655465084044216e-09 0.0 0.01 0.0 -1.9655465084044216e-09 0.0 0.01000555297190293 0.009965895266688164 0.0 -1.2271173794168043e-09 0.0 0.01 0.0 -1.2271173794167513e-09 0.0 0.010006133588524967 0.009966778783730285 0.0 -5.509435740030944e-10 0.0 0.01 0.0 -5.509435740030679e-10 0.0 0.010006181977806021 0.009967606087460243 0.0 -1.8439989910349863e-10 0.0 0.01 0.0 -1.84399899103492e-10 0.0 0.010005905126462532 0.009964825461460094 0.0 -4.287188704794077e-10 0.0 0.01 0.0 -4.2871887047942093e-10 0.0 0.010006914414764024 0.009965600813217967 0.0 -2.9328149476383632e-09 0.0 0.01 0.0 -2.9328149476383632e-09 0.0 0.010006010765055747 0.009966420398914566 0.0 -3.1690077895998178e-09 0.0 0.01 0.0 -3.1690077895998178e-09 0.0 0.0100062426407242 0.009967238206447309 0.0 -2.039300503185096e-09 0.0 0.01 0.0 -2.039300503185202e-09 0.0 0.010007261301324852 0.00996803393033948 0.0 -9.133705937750675e-10 0.0 0.01 0.0 -9.133705937750675e-10 0.0 0.010007457082927234 0.00996878377862882 0.0 -2.6652526313003974e-10 0.0 0.01 0.0 -2.6652526313003974e-10 0.0 0.010007173711944598 0.009969777068063814 0.0 -9.250572590423274e-10 0.0 0.01 0.0 -9.250572590423803e-10 0.0 0.010007461943788928 0.009970309256462322 0.0 -4.5351422144811495e-09 0.0 0.01 0.0 -4.535142214481361e-09 0.0 0.01000685128459168 0.00997084846904548 0.0 -5.061043366950547e-09 0.0 0.01 0.0 -5.061043366950758e-09 0.0 0.01000750012936489 0.009971369427514535 0.0 -3.315132324683375e-09 0.0 0.01 0.0 -3.315132324683375e-09 0.0 0.010008843266690323 0.009971876585407833 0.0 -1.4702431016451785e-09 0.0 0.01 0.0 -1.4702431016451785e-09 0.0 0.010009204091719355 0.00997237539093196 0.0 -3.673979728014482e-10 0.0 0.01 0.0 -3.6739797280143496e-10 0.0 0.010008931852462875 0.00997926616253227 0.0 -1.7362322166172985e-09 0.0 0.01 0.0 -1.7362322166172985e-09 0.0 0.010009138962848326 0.009979332250412223 0.0 -6.800453653618834e-09 0.0 0.01 0.0 -6.80045365361841e-09 0.0 0.010008975469419737 0.009979369021679195 0.0 -7.694197062665578e-09 0.0 0.01 0.0 -7.694197062665578e-09 0.0 0.010009456246206033 0.009979369518586108 0.0 -5.171951794836841e-09 0.0 0.01 0.0 -5.171951794837052e-09 0.0 0.010010830068189652 0.00997936802784782 0.0 -2.3174848728105576e-09 0.0 0.01 0.0 -2.3174848728105576e-09 0.0 0.010011362586959682 0.009979422191650784 0.0 -5.323638325847764e-10 0.0 0.01 0.0 -5.323638325847764e-10 0.0 0.010011157295045274 0.009993972454080534 0.0 -2.5668707299000207e-09 0.0 0.01 0.0 -2.5668707299002325e-09 0.0 0.010012680829799772 0.00999339604760544 0.0 -9.07048445472172e-09 0.0 0.01 0.0 -9.070484454722567e-09 0.0 0.010012867091782328 0.009992763362940627 0.0 -1.0606289698823991e-08 0.0 0.01 0.0 -1.0606289698823991e-08 0.0 0.01001276023205802 0.00999208989538005 0.0 -7.44777890259409e-09 0.0 0.01 0.0 -7.447778902593667e-09 0.0 0.010013290097140755 0.009991440003590486 0.0 -3.511447958597527e-09 0.0 0.01 0.0 -3.511447958597527e-09 0.0 0.010013762257921478 0.009990898440853293 0.0 -8.810803565367532e-10 0.0 0.01 0.0 -8.810803565368061e-10 0.0 0.010013706328104362 0.010013523985341055 0.0 -2.4311221887157605e-09 0.0 0.01 0.0 -2.4311221887157605e-09 0.0 0.010017278579449259 0.01001225835331458 0.0 -9.991491870663956e-09 0.0 0.01 0.0 -9.991491870667345e-09 0.0 0.010017728684756071 0.010010924626101073 0.0 -1.260699658444433e-08 0.0 0.01 0.0 -1.260699658444433e-08 0.0 0.010017227516081839 0.010009565457225702 0.0 -9.475060283965496e-09 0.0 0.01 0.0 -9.475060283963802e-09 0.0 0.01001641482872646 0.010008258268601081 0.0 -4.8638800071896135e-09 0.0 0.01 0.0 -4.8638800071887665e-09 0.0 0.010016297052700579 0.010007113032092856 0.0 -1.5070463122146996e-09 0.0 0.01 0.0 -1.5070463122144878e-09 0.0 0.010016334837041679 0.010035921126240958 0.0 -8.406346552142596e-10 0.0 0.01 0.0 -8.406346552142596e-10 0.0 0.010020264531674159 0.010034149737570778 0.0 -8.112829367145402e-09 0.0 0.01 0.0 -8.112829367145402e-09 0.0 0.010021126310070792 0.010032280131032401 0.0 -1.2143084495658553e-08 0.0 0.01 0.0 -1.2143084495655165e-08 0.0 0.010020883083831133 0.010030417523143112 0.0 -1.0106638263372887e-08 0.0 0.01 0.0 -1.0106638263372887e-08 0.0 0.010019519402698894 0.010028643095730533 0.0 -5.765738728410247e-09 0.0 0.01 0.0 -5.765738728410247e-09 0.0 0.01001869584983284 0.010027050262981438 0.0 -2.2309516369457968e-09 0.0 0.01 0.0 -2.2309516369462203e-09 0.0 0.01001874939948287 0.01005734695595065 0.0 -3.347434510714647e-09 0.0 0.01 0.0 -3.347434510714647e-09 0.0 0.010021111114192684 0.01005556567406934 0.0 -5.280981345522649e-09 0.0 0.01 0.0 -5.280981345522649e-09 0.0 0.010022314217048857 0.010053612178473 0.0 -9.148488931997307e-09 0.0 0.01 0.0 -9.148488931997307e-09 0.0 0.01002293757921946 0.010051662766120175 0.0 -8.722862827436993e-09 0.0 0.01 0.0 -8.722862827437416e-09 0.0 0.010021881662111506 0.01004979726064927 0.0 -5.5255861554708325e-09 0.0 0.01 0.0 -5.525586155471256e-09 0.0 0.010020742560044444 0.01004807740627236 0.0 -2.5515961510756836e-09 0.0 0.01 0.0 -2.5515961510756836e-09 0.0 0.010020729328067824 0.010073145840991587 0.0 -6.417045088960643e-09 0.0 0.01 0.0 -6.417045088960431e-09 0.0 0.010020589766652014 0.010072014663924789 0.0 -8.494898342327861e-09 0.0 0.01 0.0 -8.494898342328073e-09 0.0 0.010021866412475763 0.010070659878735871 0.0 -7.780784756952812e-09 0.0 0.01 0.0 -7.780784756953024e-09 0.0 0.01002334710935258 0.010069218963736647 0.0 -6.257118340461008e-09 0.0 0.01 0.0 -6.2571183404612194e-09 0.0 0.010023048692152108 0.01006776667653943 0.0 -4.0985785171775855e-09 0.0 0.01 0.0 -4.0985785171774796e-09 0.0 0.010022138752239222 0.0100663174656193 0.0 -2.112619073554205e-09 0.0 0.01 0.0 -2.1126190735540993e-09 0.0 0.010022151989794491 0.010080559830755153 0.0 -1.2373554934452014e-09 0.0 0.01 0.0 -1.237355493445175e-09 0.0 0.010019863728795033 0.01008037324818926 0.0 -5.86133699979656e-09 0.0 0.01 0.0 -5.86133699979656e-09 0.0 0.010021100295986456 0.01008006469008705 0.0 -5.602188642202904e-09 0.0 0.01 0.0 -5.602188642202904e-09 0.0 0.010021872804222478 0.01007959711852566 0.0 -3.937067681434375e-09 0.0 0.01 0.0 -3.937067681434587e-09 0.0 0.010022337824461484 0.010078941112311302 0.0 -2.348662472135511e-09 0.0 0.01 0.0 -2.348662472135564e-09 0.0 0.010022252254668027 0.010078061365015595 0.0 -1.2160362978530485e-09 0.0 0.01 0.0 -1.216036297853075e-09 0.0 0.010022761578235326 0.010080412274481863 0.0 3.1551524803015356e-09 0.0 0.01 0.0 3.1551524803014297e-09 0.0 0.010019783151494092 0.010081082040456065 0.0 -1.1133695578084453e-09 0.0 0.01 0.0 -1.1133695578084718e-09 0.0 0.010021179898697295 0.010081742461244153 0.0 -1.938516191995469e-09 0.0 0.01 0.0 -1.9385161919955218e-09 0.0 0.01002080107315801 0.010082224833325285 0.0 -1.4175936644489066e-09 0.0 0.01 0.0 -1.417593664448933e-09 0.0 0.010021692933892934 0.010082383948288582 0.0 -8.069893201482272e-10 0.0 0.01 0.0 -8.069893201482272e-10 0.0 0.010022198699159731 0.010082138745277601 0.0 -4.108870991892554e-10 0.0 0.01 0.0 -4.108870991892686e-10 0.0 0.010023049648730476 0.010075846969822265 0.0 2.4503999069866178e-09 0.0 0.01 0.0 2.450399906986565e-09 0.0 0.010020294513341795 0.01007711333655394 0.0 6.063600041510251e-10 0.0 0.01 0.0 6.063600041510119e-10 0.0 0.010021825143174594 0.010078426247653916 0.0 -6.81638811993629e-11 0.0 0.01 0.0 -6.81638811993629e-11 0.0 0.010020736673566332 0.010079551086905161 0.0 -1.3669388193208565e-10 0.0 0.01 0.0 -1.3669388193207904e-10 0.0 0.010021585288098296 0.010080294223883145 0.0 -7.133121193792599e-11 0.0 0.01 0.0 -7.133121193792599e-11 0.0 0.010022293076218103 0.010080522800230416 0.0 -2.7597652766779628e-11 0.0 0.01 0.0 -2.7597652766779628e-11 0.0 0.01002324585496679 0.010070221544741827 0.0 3.0490607802508007e-10 0.0 0.01 0.0 3.0490607802508007e-10 0.0 0.010021013298722597 0.010071774201225797 0.0 2.0677346749260468e-10 0.0 0.01 0.0 2.0677346749260468e-10 0.0 0.010022653898001659 0.010073371478168716 0.0 1.1040780688517344e-10 0.0 0.01 0.0 1.1040780688517675e-10 0.0 0.010021355816357193 0.010074773221457658 0.0 5.721520667256083e-11 0.0 0.01 0.0 5.721520667256083e-11 0.0 0.010021955898116905 0.010075772501553318 0.0 3.394376244112971e-11 0.0 0.01 0.0 3.394376244112971e-11 0.0 0.010022563940598368 0.010076217596761916 0.0 2.2058576472207974e-11 0.0 0.01 0.0 2.20585764722088e-11 0.0 0.010023421881452233 0.010065558039111334 0.0 -1.2248696754096865e-10 0.0 0.01 0.0 -1.2248696754097195e-10 0.0 0.010021610400107562 0.010067110987806884 0.0 -2.2828530810233377e-10 0.0 0.01 0.0 -2.282853081023404e-10 0.0 0.01002334272880729 0.010068672668334692 0.0 -2.1610049711415943e-10 0.0 0.01 0.0 -2.1610049711415943e-10 0.0 0.010022199705834196 0.01007002608993084 0.0 -1.6337603247511775e-10 0.0 0.01 0.0 -1.6337603247511775e-10 0.0 0.01002256394059837 0.010070976613714854 0.0 -1.0617631490902664e-10 0.0 0.01 0.0 -1.0617631490903326e-10 0.0 0.010022884969249314 0.010071370148263212 0.0 -5.54620869889101e-11 0.0 0.01 0.0 -5.546208698890844e-11 0.0 0.010023547260662511 0.010062072706627458 0.0 3.7895377910813893e-10 0.0 0.01 0.0 3.7895377910813893e-10 0.0 0.010021620716719202 0.010063405123515458 0.0 -5.677943648203488e-10 0.0 0.01 0.0 -5.677943648203488e-10 0.0 0.010023417953986754 0.010064696676488504 0.0 -7.236459041233481e-10 0.0 0.01 0.0 -7.236459041233217e-10 0.0 0.010022597366009979 0.010065766695989652 0.0 -5.527783923448476e-10 0.0 0.01 0.0 -5.527783923448212e-10 0.0 0.010022927711630316 0.010066434056784203 0.0 -3.298224922719311e-10 0.0 0.01 0.0 -3.298224922719311e-10 0.0 0.010023029510174253 0.010066565035418733 0.0 -1.5653696299299884e-10 0.0 0.01 0.0 -1.5653696299300546e-10 0.0 0.01002352857936543 0.01005872069805206 0.0 1.088287681681275e-10 0.0 0.01 0.0 1.088287681681275e-10 0.0 0.010021159721090949 0.010059683395680526 0.0 -1.4593777641914089e-09 0.0 0.01 0.0 -1.459377764191356e-09 0.0 0.010022969044888906 0.010060555385504124 0.0 -1.626158973637673e-09 0.0 0.01 0.0 -1.626158973637726e-09 0.0 0.010022458733278467 0.010061177966840357 0.0 -1.1827578699597568e-09 0.0 0.01 0.0 -1.1827578699597568e-09 0.0 0.010022874648733011 0.010061397758983735 0.0 -6.528249656150149e-10 0.0 0.01 0.0 -6.528249656150149e-10 0.0 0.010022884465808807 0.010061115790073252 0.0 -2.729164476066646e-10 0.0 0.01 0.0 -2.729164476066646e-10 0.0 0.010023283718004598 0.01005423143888297 0.0 -1.2623109418302422e-09 0.0 0.01 0.0 -1.2623109418302951e-09 0.0 0.010020460071317348 0.010054736200187694 0.0 -2.981745418801433e-09 0.0 0.01 0.0 -2.981745418801433e-09 0.0 0.010022197239483393 0.010055076189503765 0.0 -2.9265889760084287e-09 0.0 0.01 0.0 -2.926588976008323e-09 0.0 0.010021905266459408 0.010055134797814093 0.0 -2.0408194477003132e-09 0.0 0.01 0.0 -2.0408194477002073e-09 0.0 0.01002241106387545 0.010054788805038727 0.0 -1.0660249848552386e-09 0.0 0.01 0.0 -1.0660249848552916e-09 0.0 0.010022421886330313 0.010053997227406658 0.0 -3.9686817960949615e-10 0.0 0.01 0.0 -3.9686817960949615e-10 0.0 0.010022766964855025 0.010048037790568025 0.0 -3.0141601064329996e-09 0.0 0.01 0.0 -3.0141601064329996e-09 0.0 0.01001968492224377 0.010048002131763963 0.0 -4.669747617522578e-09 0.0 0.01 0.0 -4.669747617522578e-09 0.0 0.010021250647080376 0.010047729706957647 0.0 -4.260856981475705e-09 0.0 0.01 0.0 -4.260856981475705e-09 0.0 0.010021063916866265 0.010047121991905612 0.0 -2.8734856693568424e-09 0.0 0.01 0.0 -2.8734856693566306e-09 0.0 0.010021578443977431 0.010046124316594407 0.0 -1.4216047773409993e-09 0.0 0.01 0.0 -1.4216047773407875e-09 0.0 0.01002163395222397 0.01004477402176599 0.0 -4.659602179152791e-10 0.0 0.01 0.0 -4.659602179153056e-10 0.0 0.010021985844638103 0.010040579676815275 0.0 -4.315713085990191e-09 0.0 0.01 0.0 -4.315713085990614e-09 0.0 0.01001891684197204 0.010039942138043424 0.0 -5.980245369293494e-09 0.0 0.01 0.0 -5.9802453692939175e-09 0.0 0.010020239983132435 0.010038980138864364 0.0 -5.146949711055903e-09 0.0 0.01 0.0 -5.146949711055903e-09 0.0 0.010019981580376322 0.010037636717101426 0.0 -3.317509028031625e-09 0.0 0.01 0.0 -3.317509028031625e-09 0.0 0.010020430138472872 0.010035952259490964 0.0 -1.5207929359037937e-09 0.0 0.01 0.0 -1.5207929359037937e-09 0.0 0.01002057110188025 0.010034053509780235 0.0 -4.210979746294697e-10 0.0 0.01 0.0 -4.210979746294168e-10 0.0 0.010020975008570873 0.010032935954939355 0.0 -4.740334199903715e-09 0.0 0.01 0.0 -4.740334199903715e-09 0.0 0.01001812973418181 0.010031654569911607 0.0 -6.69110957779094e-09 0.0 0.01 0.0 -6.691109577789246e-09 0.0 0.01001911818634135 0.010029978015413535 0.0 -5.3104746439909555e-09 0.0 0.01 0.0 -5.3104746439909555e-09 0.0 0.010018705654634138 0.010027916264071898 0.0 -3.172618295410167e-09 0.0 0.01 0.0 -3.1726182954105906e-09 0.0 0.010019042555061159 0.01002560289162208 0.0 -1.3435375317479646e-09 0.0 0.01 0.0 -1.3435375317479646e-09 0.0 0.010019366162322671 0.010023271885759195 0.0 -2.9865116807611194e-10 0.0 0.01 0.0 -2.9865116807611194e-10 0.0 0.0100197949713872 0.010026208120990037 0.0 -4.134504631103395e-09 0.0 0.01 0.0 -4.134504631104242e-09 0.0 0.010017200024578324 0.010024300692432122 0.0 -1.0889535924047745e-08 0.0 0.01 0.0 -1.0889535924047745e-08 0.0 0.010017874460506561 0.010021958364301533 0.0 -8.444085533012777e-09 0.0 0.01 0.0 -8.444085533012777e-09 0.0 0.010017281997115412 0.010019278254717073 0.0 -4.107585934720739e-09 0.0 0.01 0.0 -4.107585934717351e-09 0.0 0.010017710991017007 0.010016495827258134 0.0 -1.1663082041496087e-09 0.0 0.01 0.0 -1.1663082041496087e-09 0.0 0.0100181105804342 0.010013887777074851 0.0 -1.768086051176977e-10 0.0 0.01 0.0 -1.768086051176977e-10 0.0 0.010018490609246386 0.010020960719061278 0.0 -2.520486630908641e-09 0.0 0.01 0.0 -2.520486630908641e-09 0.0 0.01001597570207465 0.010018541189273344 0.0 -2.6400313060643372e-08 0.0 0.01 0.0 -2.6400313060616267e-08 0.0 0.010016438897038342 0.01001566613750771 0.0 -2.256203155141974e-08 0.0 0.01 0.0 -2.256203155141974e-08 0.0 0.01001582654286682 0.01001254311005656 0.0 -1.1960719361341261e-08 0.0 0.01 0.0 -1.1960719361341261e-08 0.0 0.010016455578997467 0.010009480765716007 0.0 -3.276674300167637e-09 0.0 0.01 0.0 -3.276674300167637e-09 0.0 0.010016766171614419 0.010006744617348426 0.0 -2.855947266450177e-10 0.0 0.01 0.0 -2.8559472664496476e-10 0.0 0.0100171102139435 0.010017125944453902 0.0 4.751248514685714e-09 0.0 0.01 0.0 4.751248514689102e-09 0.0 0.010014416867089907 0.010014385984438382 0.0 -5.144721440834485e-08 0.0 0.01 0.0 -5.144721440812801e-08 0.0 0.01001477387613288 0.010011162211812577 0.0 -4.793966946176997e-08 0.0 0.01 0.0 -4.793966946176997e-08 0.0 0.010014405066559007 0.010007794253201042 0.0 -2.644307900825303e-08 0.0 0.01 0.0 -2.644307900825303e-08 0.0 0.010015164324001914 0.01000464433347965 0.0 -6.8492844984849595e-09 0.0 0.01 0.0 -6.8492844984858065e-09 0.0 0.010015394375200052 0.010001930258741019 0.0 -1.4472407320689737e-10 0.0 0.01 0.0 -1.4472407320692384e-10 0.0 0.010015708335400893 0.010014328085432454 0.0 1.8644595166914836e-08 0.0 0.01 0.0 1.8644595166901284e-08 0.0 0.010012521027271853 0.010011400817766311 0.0 -6.14941651240616e-08 0.0 0.01 0.0 -6.14941651240616e-08 0.0 0.010012996493055936 0.010007961648715981 0.0 -6.451085117115704e-08 0.0 0.01 0.0 -6.451085117112993e-08 0.0 0.010013049901234201 0.010004563672301839 0.0 -3.015545435201898e-08 0.0 0.01 0.0 -3.01554543520122e-08 0.0 0.010013934823006675 0.010001533552695462 0.0 -1.0630154396700164e-10 0.0 0.01 0.0 -1.0630154396700164e-10 0.0 0.010014125573503356 0.009998989653146403 0.0 6.148336941852182e-09 0.0 0.01 0.0 6.148336941852182e-09 0.0 0.010014365847452125 0.010012584766654078 0.0 -2.9478995351831682e-09 0.0 0.01 0.0 -2.947899535181474e-09 0.0 0.010010375475264776 0.010009120863367924 0.0 -4.959615190951394e-09 0.0 0.01 0.0 -4.959615190951394e-09 0.0 0.010011333187101396 0.010005422858030398 0.0 -2.703508688982624e-08 0.0 0.01 0.0 -2.703508688982624e-08 0.0 0.010011988825487718 0.010002198975134931 0.0 1.26073322856767e-08 0.0 0.01 0.0 1.2607332285678393e-08 0.0 0.01001291266758037 0.009999502537375915 0.0 4.110957899801417e-08 0.0 0.01 0.0 4.110957899802433e-08 0.0 0.01001304011265753 0.00999729809559056 0.0 3.193489238605094e-08 0.0 0.01 0.0 3.1934892386047554e-08 0.0 0.010013149440923791 0.010012215200657303 0.0 -1.89903243557471e-07 0.0 0.01 0.0 -1.89903243557471e-07 0.0 0.010008869692163424 0.010007227581012183 0.0 1.3848808888029807e-07 0.0 0.01 0.0 1.3848808888029807e-07 0.0 0.01001034172346014 0.010003169007968611 0.0 1.2161021808619263e-07 0.0 0.01 0.0 1.2161021808619263e-07 0.0 0.010011338105998262 0.010000203609151433 0.0 1.399529183373436e-07 0.0 0.01 0.0 1.3995291833733005e-07 0.0 0.010012185339170872 0.009998015593939069 0.0 1.4389873291659433e-07 0.0 0.01 0.0 1.4389873291659433e-07 0.0 0.010012182378543993 0.009996302553044172 0.0 9.544629987866401e-08 0.0 0.01 0.0 9.544629987867079e-08 0.0 0.01001212702545957 0.010012123124566634 0.0 -6.577817068926205e-07 0.0 0.01 0.0 -6.577817068926205e-07 0.0 0.010007785998497467 0.010005703638258298 0.0 2.860957176412278e-07 0.0 0.01 0.0 2.8609571764101095e-07 0.0 0.010009650213277033 0.010001142816928642 0.0 3.749707169572623e-07 0.0 0.01 0.0 3.749707169573707e-07 0.0 0.010010729163601111 0.009998400903637848 0.0 3.6525804770039597e-07 0.0 0.01 0.0 3.652580477004502e-07 0.0 0.010011584569242725 0.009996791061125616 0.0 3.253924156845225e-07 0.0 0.01 0.0 3.253924156845496e-07 0.0 0.010011552704795038 0.009995664827611179 0.0 2.1486899077713135e-07 0.0 0.01 0.0 2.1486899077713135e-07 0.0 0.010011316035868573 0.010004708881960925 0.0 2.3140222647950476e-07 0.0 0.01 0.0 2.3140222647961319e-07 0.0 0.0100088138970463 0.009999579085311785 0.0 6.2612502408244e-07 0.0 0.01 0.0 6.2612502408244e-07 0.0 0.010009776075740174 0.00999695245841319 0.0 6.570711610776178e-07 0.0 0.01 0.0 6.570711610775636e-07 0.0 0.01001084678703049 0.009995798699834172 0.0 5.815456665724059e-07 0.0 0.01 0.0 5.815456665723517e-07 0.0 0.010011002080878153 0.009995237928129237 0.0 4.0309337667987196e-07 0.0 0.01 0.0 4.0309337667992617e-07 0.0 0.010010699772622231 0.010004365164018028 0.0 -2.2358837036375642e-07 0.0 0.01 0.0 -2.23588370363648e-07 0.0 0.010007939653192393 0.009999044217145437 0.0 7.31090006120521e-07 0.0 0.01 0.0 7.310900061206294e-07 0.0 0.010008846254598133 0.009996188311517037 0.0 9.348868884079438e-07 0.0 0.01 0.0 9.348868884078354e-07 0.0 0.010009832964914148 0.00999516762259613 0.0 8.853177392144449e-07 0.0 0.01 0.0 8.853177392144449e-07 0.0 0.010010374138430393 0.009994979849041857 0.0 6.644481994556774e-07 0.0 0.01 0.0 6.644481994557859e-07 0.0 0.010010178685870867 0.009999911533446117 0.0 4.640920294653617e-07 0.0 0.01 0.0 4.640920294652533e-07 0.0 0.010008324364969057 0.0099964890235408 0.0 1.0760261616370127e-06 0.0 0.01 0.0 1.0760261616369043e-06 0.0 0.010008901695279494 0.009995157231033964 0.0 1.1857467303548605e-06 0.0 0.01 0.0 1.1857467303548605e-06 0.0 0.01000969052826391 0.009994932001223717 0.0 9.863000474391722e-07 0.0 0.01 0.0 9.863000474391722e-07 0.0 0.010009694424720706 0.010001718719135678 0.0 -4.177515815564914e-07 0.0 0.01 0.0 -4.177515815564914e-07 0.0 0.010007914662492673 0.009998293055362262 0.0 8.88053094677088e-07 0.0 0.01 0.0 8.880530946769796e-07 0.0 0.010008617694965149 0.009996118537592276 0.0 1.3579569879721646e-06 0.0 0.01 0.0 1.3579569879721646e-06 0.0 0.010009057466894735 0.009995352003450593 0.0 1.3187350918782538e-06 0.0 0.01 0.0 1.3187350918783623e-06 0.0 0.010009275349251119 0.010001056317358186 0.0 8.492999494261213e-09 0.0 0.01 0.0 8.492999494262907e-09 0.0 0.01000863667596588 0.00999843406606552 0.0 1.1498341745987389e-06 0.0 0.01 0.0 1.149834174598522e-06 0.0 0.010008866977456777 0.009996782900555485 0.0 1.5221736276993525e-06 0.0 0.01 0.0 1.5221736276993525e-06 0.0 0.010009072227741807 0.01000163225368109 0.0 1.660715279787285e-07 0.0 0.01 0.0 1.660715279787285e-07 0.0 0.010008943136791152 0.009999734756299174 0.0 1.2807024705626096e-06 0.0 0.01 0.0 1.2807024705626096e-06 0.0 0.010009202883825877 0.010002753913192445 0.0 -1.4755552161494455e-06 0.0 0.01 0.0 -1.4755552161494455e-06 0.0 0.010007946287275889 0.010003008211399224 0.0 1.7421062248210379e-07 0.0 0.01 0.0 1.74210622482158e-07 0.0 0.010009336814695598 0.00999876822762686 0.0 6.702912450911624e-15 0.0 0.01 0.0 6.702912450911624e-15 0.0 0.010000048850357952 0.009998728742455458 0.0 7.994587416418884e-15 0.0 0.01 0.0 7.994587416418884e-15 0.0 0.010000046400322945 0.009998709249948369 0.0 3.8689880056556335e-15 0.0 0.01 0.0 3.8689880056556335e-15 0.0 0.010000042500270938 0.009998697254616057 0.0 1.4968157726618602e-15 0.0 0.01 0.0 1.4968157726618602e-15 0.0 0.010000036600200936 0.009998693256181546 0.0 9.90418900299705e-16 0.0 0.01 0.0 9.90418900299705e-16 0.0 0.010000031750151211 0.009998693256181546 0.0 4.0593049547463215e-16 0.0 0.01 0.0 4.0593049547463215e-16 0.0 0.010000024900093002 0.009998694755593925 0.0 2.142203050636734e-16 0.0 0.01 0.0 2.142203050636734e-16 0.0 0.010000020500063036 0.009998697254616057 0.0 1.0183927456991484e-16 0.0 0.01 0.0 1.0183927456991484e-16 0.0 0.010000016600041335 0.009998699253835112 0.0 4.486908996956697e-17 0.0 0.01 0.0 4.486908996956697e-17 0.0 0.010000015150034429 0.009998531323614921 0.0 -6.181925776699917e-14 0.0 0.01 0.0 -6.181925776710257e-14 0.0 0.010000063000595359 0.009998490841702573 0.0 -2.878728777828364e-14 0.0 0.01 0.0 -2.8787287778257793e-14 0.0 0.010000062000576607 0.009998469351504459 0.0 -1.2772673972008858e-14 0.0 0.01 0.0 -1.2772673972008858e-14 0.0 0.010000055650464542 0.009998459855879665 0.0 -4.382736356323033e-15 0.0 0.01 0.0 -4.382736356323033e-15 0.0 0.010000048850357952 0.009998457856804211 0.0 -1.019364920891046e-15 0.0 0.01 0.0 -1.019364920891046e-15 0.0 0.010000041000252152 0.00999845885634179 0.0 7.239297195634648e-17 0.0 0.01 0.0 7.239297195634648e-17 0.0 0.010000033200165338 0.0099984628544951 0.0 7.461629883065441e-17 0.0 0.01 0.0 7.461629883065441e-17 0.0 0.010000027850116345 0.009998466852653206 0.0 5.3213713054179966e-17 0.0 0.01 0.0 5.3213713054179966e-17 0.0 0.010000022950079004 0.009998469851274934 0.0 1.157183040612529e-17 0.0 0.01 0.0 1.157183040612529e-17 0.0 0.01000001955005733 0.009998322422234517 0.0 -1.1203055265514414e-13 0.0 0.01 0.0 -1.1203055265535094e-13 0.0 0.010000076150869834 0.00999828344208684 0.0 -5.926028211533457e-14 0.0 0.01 0.0 -5.926028211533457e-14 0.0 0.010000074700837023 0.00999826345244437 0.0 -2.658658841785528e-14 0.0 0.01 0.0 -2.658658841785528e-14 0.0 0.010000067400681423 0.009998257455575008 0.0 -9.17967693999782e-15 0.0 0.01 0.0 -9.17967693999782e-15 0.0 0.010000059100523926 0.009998257455575008 0.0 -2.1289649150756933e-15 0.0 0.01 0.0 -2.1289649150756933e-15 0.0 0.010000050300379516 0.009998261453486715 0.0 -2.716490434307511e-16 0.0 0.01 0.0 -2.716490434307511e-16 0.0 0.010000041000252152 0.009998267950103472 0.0 4.4171327645455936e-18 0.0 0.01 0.0 4.4171327645455936e-18 0.0 0.010000033700170356 0.009998274946474142 0.0 -1.82244323470463e-17 0.0 0.01 0.0 -1.82244323470463e-17 0.0 0.010000027850116345 0.009998278944406832 0.0 -6.340440498071097e-17 0.0 0.01 0.0 -6.340440498071097e-17 0.0 0.010000024400089305 0.009998114533381742 0.0 -1.0183245834936196e-13 0.0 0.01 0.0 -1.0183245834925857e-13 0.0 0.010000086451121055 0.00999807705479998 0.0 -6.534578528083912e-14 0.0 0.01 0.0 -6.534578528089082e-14 0.0 0.010000084001058415 0.009998063062904171 0.0 -3.061243710556793e-14 0.0 0.01 0.0 -3.061243710556793e-14 0.0 0.010000076650881297 0.009998060064648425 0.0 -1.0029286737402182e-14 0.0 0.01 0.0 -1.0029286737402182e-14 0.0 0.010000066400661351 0.009998066560872614 0.0 -1.9654899383677564e-15 0.0 0.01 0.0 -1.9654899383677564e-15 0.0 0.010000056150472928 0.009998074056531647 0.0 8.966309465483332e-18 0.0 0.01 0.0 8.966309465483332e-18 0.0 0.010000046400322945 0.009998082551632264 0.0 7.319176174300354e-17 0.0 0.01 0.0 7.319176174300354e-17 0.0 0.010000038550222917 0.009998090047327261 0.0 2.441024212037991e-17 0.0 0.01 0.0 2.441024212037991e-17 0.0 0.010000032700160394 0.009998096543609896 0.0 -4.018331915878791e-18 0.0 0.01 0.0 -4.018331915878791e-18 0.0 0.010000029300128775 0.009997881673286373 0.0 -2.3821961622683796e-14 0.0 0.01 0.0 -2.3821961622683796e-14 0.0 0.010000094751346658 0.009997852192159993 0.0 -5.084864884839612e-14 0.0 0.01 0.0 -5.084864884837027e-14 0.0 0.010000089851210973 0.009997840699588156 0.0 -2.7777668707362006e-14 0.0 0.01 0.0 -2.7777668707362006e-14 0.0 0.010000082501020953 0.009997843697646551 0.0 -8.993369968227895e-15 0.0 0.01 0.0 -8.993369968227895e-15 0.0 0.010000072750793895 0.009997852691837927 0.0 -1.1420921927811315e-15 0.0 0.01 0.0 -1.1420921927811315e-15 0.0 0.010000061050559072 0.009997866682850536 0.0 5.410944626725837e-16 0.0 0.01 0.0 5.410944626725837e-16 0.0 0.010000051250393988 0.009997878175511978 0.0 3.868880009998124e-16 0.0 0.01 0.0 3.868880009998124e-16 0.0 0.010000042500270938 0.009997889168529575 0.0 1.3844742772421535e-16 0.0 0.01 0.0 1.3844742772421535e-16 0.0 0.010000036150196024 0.009997895664420654 0.0 3.415694953971416e-17 0.0 0.01 0.0 3.415694953971416e-17 0.0 0.010000031750151211 0.009997603361856563 0.0 1.09429169695547e-13 0.0 0.01 0.0 1.094291696954436e-13 0.0 0.010000098151445038 0.009997580878105837 0.0 -1.5161992203411612e-14 0.0 0.01 0.0 -1.5161992203411612e-14 0.0 0.01000009375131838 0.009997577380647138 0.0 -2.166982126517669e-14 0.0 0.01 0.0 -2.166982126517669e-14 0.0 0.010000085951108127 0.009997585874481778 0.0 -7.91266025938263e-15 0.0 0.01 0.0 -7.91266025938263e-15 0.0 0.010000076650881295 0.009997602862216008 0.0 -2.972727296828019e-16 0.0 0.01 0.0 -2.972727296828019e-16 0.0 0.010000065450642562 0.009997620849323109 0.0 1.3224087611133568e-15 0.0 0.01 0.0 1.3224087611133568e-15 0.0 0.010000055650464542 0.009997637837235625 0.0 1.1791812834316807e-15 0.0 0.01 0.0 1.1791812834316807e-15 0.0 0.010000047350336307 0.009997649828755423 0.0 3.835247488176603e-16 0.0 0.01 0.0 3.835247488176603e-16 0.0 0.010000040550246647 0.009997657823125927 0.0 1.0019056285470268e-16 0.0 0.01 0.0 1.0019056285470268e-16 0.0 0.010000036150196024 0.009997271117426584 0.0 2.951118484130627e-13 0.0 0.01 0.0 2.951118484130627e-13 0.0 0.010000102551577503 0.009997256129736908 0.0 3.1338665915027055e-14 0.0 0.01 0.0 3.1338665915027055e-14 0.0 0.010000099101473148 0.009997260126447563 0.0 -1.668323930852917e-14 0.0 0.01 0.0 -1.668323930852917e-14 0.0 0.010000090801236714 0.009997277112521326 0.0 -8.236810267610527e-15 0.0 0.01 0.0 -8.236810267610527e-15 0.0 0.010000081050985378 0.009997301093008159 0.0 6.056128035477452e-17 0.0 0.01 0.0 6.056128035477452e-17 0.0 0.010000072250783018 0.009997324074469969 0.0 2.094001222497347e-15 0.0 0.01 0.0 2.094001222497347e-15 0.0 0.010000062000576607 0.009997344558080384 0.0 1.5844978803055061e-15 0.0 0.01 0.0 1.5844978803055061e-15 0.0 0.010000051250393988 0.009997361044980219 0.0 7.572887926023247e-16 0.0 0.01 0.0 7.572887926023247e-16 0.0 0.010000045900316024 0.009997370037869055 0.0 3.053115382223453e-16 0.0 0.01 0.0 3.053115382223453e-16 0.0 0.010000042000264601 0.009996875964549654 0.0 8.292423824647618e-12 0.0 0.01 0.0 8.292423824647618e-12 0.0 0.010000110351826606 0.009996871968299719 0.0 7.036000719916665e-14 0.0 0.01 0.0 7.03600071991408e-14 0.0 0.010000106951715777 0.0099968879533282 0.0 -1.7541848127054482e-14 0.0 0.01 0.0 -1.7541848127054482e-14 0.0 0.010000098651459798 0.009996913429625838 0.0 -1.1442359439671194e-14 0.0 0.01 0.0 -1.1442359439671194e-14 0.0 0.010000091301250373 0.009996943901531758 0.0 -6.685300423272073e-16 0.0 0.01 0.0 -6.685300423272073e-16 0.0 0.010000082051009844 0.00999697337462389 0.0 2.587254423174569e-15 0.0 0.01 0.0 2.587254423174569e-15 0.0 0.010000072750793895 0.009996999351124605 0.0 1.802888893875167e-15 0.0 0.01 0.0 1.802888893875167e-15 0.0 0.010000063000595357 0.009997019832739094 0.0 1.0192455285785675e-15 0.0 0.01 0.0 1.0192455285785675e-15 0.0 0.010000056150472928 0.009997031822035258 0.0 1.914383081672159e-16 0.0 0.01 0.0 1.914383081672159e-16 0.0 0.010000052750417389 0.009996420922386841 0.0 6.928577549524479e-11 0.0 0.01 0.0 6.928577549521832e-11 0.0 0.010000126002381454 0.009996429413274279 0.0 9.822670341038064e-14 0.0 0.01 0.0 9.822670341027724e-14 0.0 0.010000121602218031 0.009996455385534862 0.0 -2.8213866177093832e-14 0.0 0.01 0.0 -2.8213866177093832e-14 0.0 0.01000011475197517 0.00999649134746065 0.0 -1.8624680966801562e-14 0.0 0.01 0.0 -1.8624680966801562e-14 0.0 0.010000107401730244 0.00999652980717188 0.0 -2.529727775568026e-15 0.0 0.01 0.0 -2.529727775568026e-15 0.0 0.01000009715141574 0.009996566269385946 0.0 2.4420228975961693e-15 0.0 0.01 0.0 2.4420228975961693e-15 0.0 0.010000088851184166 0.00999659623862775 0.0 2.1911702958132395e-15 0.0 0.01 0.0 2.1911702958132395e-15 0.0 0.010000080550973258 0.009996621712695209 0.0 1.2772962961984662e-15 0.0 0.01 0.0 1.2772962961984662e-15 0.0 0.010000072250783018 0.009996635698540547 0.0 2.1420895020465041e-16 0.0 0.01 0.0 2.1420895020465041e-16 0.0 0.010000068850711056 0.00999589303146476 0.0 2.0639823118402075e-10 0.0 0.01 0.0 2.0639823118412663e-10 0.0 0.010000159203801803 0.009995920497709383 0.0 7.554202892114728e-13 0.0 0.01 0.0 7.554202892114728e-13 0.0 0.01000015040339311 0.009995959949620563 0.0 -4.612041824279515e-14 0.0 0.01 0.0 -4.612041824279515e-14 0.0 0.010000141603007657 0.009996006893009545 0.0 -3.029409716559839e-14 0.0 0.01 0.0 -3.029409716559839e-14 0.0 0.010000136252784673 0.009996054336468255 0.0 -6.275534543166259e-15 0.0 0.01 0.0 -6.275534543166259e-15 0.0 0.01000012600238145 0.00999609728586608 0.0 1.2130468405471942e-15 0.0 0.01 0.0 1.2130468405471942e-15 0.0 0.010000117202060416 0.009996134742188207 0.0 1.722091218696376e-15 0.0 0.01 0.0 1.722091218696376e-15 0.0 0.01000010595168384 0.009996163209274628 0.0 6.797853849123323e-16 0.0 0.01 0.0 6.797853849123323e-16 0.0 0.010000098651459798 0.009996180689185053 0.0 7.129009536619121e-17 0.0 0.01 0.0 7.129009536619121e-17 0.0 0.01000009375131838 0.009995288332065425 0.0 3.6019218697176934e-10 0.0 0.01 0.0 3.601921869718752e-10 0.0 0.010000217307083168 0.009995335765293411 0.0 2.9866507548213075e-12 0.0 0.01 0.0 2.9866507548221346e-12 0.0 0.010000199705982211 0.009995391188131086 0.0 -7.200395285522831e-14 0.0 0.01 0.0 -7.200395285522831e-14 0.0 0.010000187505273605 0.009995450107113658 0.0 -4.312402017980877e-14 0.0 0.01 0.0 -4.312402017980877e-14 0.0 0.0100001777547394 0.009995508028484994 0.0 -1.1371868775055181e-14 0.0 0.01 0.0 -1.1371868775055181e-14 0.0 0.010000166504158452 0.009995557961509846 0.0 -7.221000013888208e-16 0.0 0.01 0.0 -7.221000013888208e-16 0.0 0.010000155253615478 0.00999560290187204 0.0 6.357893057258634e-16 0.0 0.01 0.0 6.357893057258634e-16 0.0 0.010000144053112635 0.009995636857214375 0.0 5.315392702669577e-16 0.0 0.01 0.0 5.315392702669577e-16 0.0 0.010000134752723697 0.009995657330455654 0.0 1.2565267536542511e-16 0.0 0.01 0.0 1.2565267536542511e-16 0.0 0.010000127952455733 0.009994603870876088 0.0 4.108312925290076e-10 0.0 0.01 0.0 4.108312925291135e-10 0.0 0.01000030716415192 0.00999467176154616 0.0 3.3848172101282524e-12 0.0 0.01 0.0 3.3848172101290796e-12 0.0 0.010000278311618174 0.009994743647293058 0.0 -8.301890283619144e-14 0.0 0.01 0.0 -8.301890283619144e-14 0.0 0.010000254409708318 0.009994817531482608 0.0 -4.89189637004636e-14 0.0 0.01 0.0 -4.89189637004636e-14 0.0 0.010000240258658356 0.009994886424973405 0.0 -1.457280820271555e-14 0.0 0.01 0.0 -1.457280820271555e-14 0.0 0.010000224107533404 0.009994947831242076 0.0 -2.364259211696995e-15 0.0 0.01 0.0 -2.364259211696995e-15 0.0 0.010000208006489824 0.00999499725662188 0.0 5.702811123296633e-17 0.0 0.01 0.0 5.702811123296633e-17 0.0 0.010000193855636856 0.009995036198346642 0.0 6.830623493369112e-16 0.0 0.01 0.0 6.830623493369112e-16 0.0 0.010000183605056499 0.00999505866493336 0.0 -2.6274094130874453e-16 0.0 0.01 0.0 -2.6274094130874453e-16 0.0 0.010000175304609648 0.009993831212788918 0.0 3.0320861023912927e-10 0.0 0.01 0.0 3.0320861023912927e-10 0.0 0.010000438978903695 0.009993921546634397 0.0 9.525654682256195e-13 0.0 0.01 0.0 9.525654682258262e-13 0.0 0.010000385272264063 0.009994011882929511 0.0 -6.564255729600399e-14 0.0 0.01 0.0 -6.564255729600399e-14 0.0 0.010000348668234585 0.009994100225211525 0.0 -4.027636414432987e-14 0.0 0.01 0.0 -4.027636414432987e-14 0.0 0.010000322765625975 0.009994181082912825 0.0 -1.3109927276710924e-14 0.0 0.01 0.0 -1.3109927276710924e-14 0.0 0.010000300313527692 0.00999425195979596 0.0 -2.900546957333885e-15 0.0 0.01 0.0 -2.900546957333885e-15 0.0 0.010000278811659958 0.009994310359487696 0.0 -6.125175318739324e-16 0.0 0.01 0.0 -6.125175318739324e-16 0.0 0.01000026026015995 0.009994351788949574 0.0 -6.942664962069864e-16 0.0 0.01 0.0 -6.942664962069864e-16 0.0 0.01000024510901147 0.009994381239121304 0.0 -2.1426033976602345e-16 0.0 0.01 0.0 -2.1426033976602345e-16 0.0 0.010000236358379528 0.009992966926582079 0.0 1.2675034308244147e-10 0.0 0.01 0.0 1.26750343082415e-10 0.0 0.010000600154023412 0.00999307819334951 0.0 -9.362297247145574e-14 0.0 0.01 0.0 -9.362297247145574e-14 0.0 0.010000524941331619 0.009993185970981757 0.0 -2.69043729061792e-14 0.0 0.01 0.0 -2.69043729061792e-14 0.0 0.010000469783102352 0.009993288762157661 0.0 -1.2588636648308175e-14 0.0 0.01 0.0 -1.2588636648308175e-14 0.0 0.01000042822750525 0.009993382075340713 0.0 -3.4245535745844795e-15 0.0 0.01 0.0 -3.4245535745844795e-15 0.0 0.010000395523464583 0.009993464412673028 0.0 -1.412895561233065e-15 0.0 0.01 0.0 -1.412895561233065e-15 0.0 0.010000366720171565 0.009993529285944039 0.0 -6.317688452881163e-16 0.0 0.01 0.0 -6.317688452881163e-16 0.0 0.010000340817422685 0.009993579189319913 0.0 -1.250491340613012e-15 0.0 0.01 0.0 -1.250491340613012e-15 0.0 0.010000322265577597 0.0099936096307463 0.0 -3.4803138199717257e-16 0.0 0.01 0.0 -3.4803138199717257e-16 0.0 0.010000309564373921 0.009992000109985862 0.0 1.6283346719644988e-11 0.0 0.01 0.0 1.6283346719644988e-11 0.0 0.010000791593983234 0.009992131796046804 0.0 -7.27745944670908e-14 0.0 0.01 0.0 -7.27745944670908e-14 0.0 0.010000691471713358 0.00999225849891394 0.0 1.9906742471984145e-14 0.0 0.01 0.0 1.9906742471984145e-14 0.0 0.010000614806693443 0.009992377723729726 0.0 1.9563867036006627e-14 0.0 0.01 0.0 1.9563867036006627e-14 0.0 0.010000558146725689 0.009992485977572846 0.0 9.377387563584474e-15 0.0 0.01 0.0 9.377387563584474e-15 0.0 0.010000510289056581 0.009992577771606477 0.0 2.2791606996286615e-15 0.0 0.01 0.0 2.2791606996286615e-15 0.0 0.01000047073323638 0.009992653603368441 0.0 -3.056298868739306e-15 0.0 0.01 0.0 -3.056298868739306e-15 0.0 0.010000437028647436 0.009992709979415561 0.0 -3.2469701881097157e-15 0.0 0.01 0.0 -3.2469701881097157e-15 0.0 0.010000411625413928 0.009992743905284315 0.0 -1.2966764599312747e-15 0.0 0.01 0.0 -1.2966764599312747e-15 0.0 0.010000396023523952 0.009990928857788593 0.0 -1.3517049930990866e-12 0.0 0.01 0.0 -1.351704993098673e-12 0.0 0.010001004051197583 0.009991075960003294 0.0 -2.930833667584766e-14 0.0 0.01 0.0 -2.930833667584766e-14 0.0 0.010000879516018659 0.009991220575293657 0.0 6.138465199216812e-14 0.0 0.01 0.0 6.138465199216812e-14 0.0 0.010000783292022346 0.009991356220169821 0.0 4.9731314949434044e-14 0.0 0.01 0.0 4.9731314949434044e-14 0.0 0.010000705624678903 0.00999147940247253 0.0 2.149934374764052e-14 0.0 0.01 0.0 2.149934374764052e-14 0.0 0.010000642161850481 0.009991583637210436 0.0 2.2171067628940964e-15 0.0 0.01 0.0 2.2171067628940964e-15 0.0 0.010000588902016754 0.009991670418858793 0.0 -6.480823419742788e-15 0.0 0.01 0.0 -6.480823419742788e-15 0.0 0.010000544944541447 0.009991733760914735 0.0 -4.769634589177255e-15 0.0 0.01 0.0 -4.769634589177255e-15 0.0 0.010000514189655932 0.009991770669439813 0.0 -1.9188219846865346e-15 0.0 0.01 0.0 -1.9188219846865346e-15 0.0 0.010000494686704818 0.00998974130773542 0.0 -1.1036071925385364e-12 0.0 0.01 0.0 -1.1036071925385364e-12 0.0 0.010001224824992693 0.009989901318130313 0.0 3.5540971301552924e-15 0.0 0.01 0.0 3.5540971301552924e-15 0.0 0.01000108512659941 0.009990063330257657 0.0 8.486039073970247e-14 0.0 0.01 0.0 8.486039073970247e-14 0.0 0.010000966940227932 0.009990216376645452 0.0 6.802567935920749e-14 0.0 0.01 0.0 6.802567935920749e-14 0.0 0.010000869263329677 0.009990355969060876 0.0 2.654880625408667e-14 0.0 0.01 0.0 2.654880625408667e-14 0.0 0.01000079014363918 0.009990475624360128 0.0 -1.898640647375624e-15 0.0 0.01 0.0 -1.898640647375624e-15 0.0 0.010000721778137031 0.009990570853108135 0.0 -1.2982887815786157e-14 0.0 0.01 0.0 -1.2982887815786157e-14 0.0 0.010000667566840872 0.00999064065601425 0.0 -9.60631096690019e-15 0.0 0.01 0.0 -9.60631096690019e-15 0.0 0.010000628459239188 0.009990682039856575 0.0 -2.9811757549904493e-15 0.0 0.01 0.0 -2.9811757549904493e-15 0.0 0.010000603554637333 0.009988422636382742 0.0 -8.620027964744692e-13 0.0 0.01 0.0 -8.620027964745725e-13 0.0 0.010001460269795915 0.009988597532133462 0.0 4.473302826294487e-14 0.0 0.01 0.0 4.473302826294487e-14 0.0 0.010001301053867134 0.00998877692193452 0.0 9.547091993276298e-14 0.0 0.01 0.0 9.547091993276298e-14 0.0 0.010001164753465998 0.00998894834788627 0.0 7.308762573643701e-14 0.0 0.01 0.0 7.308762573643701e-14 0.0 0.010001048514884469 0.009989105329973118 0.0 2.0800032058748268e-14 0.0 0.01 0.0 2.0800032058748268e-14 0.0 0.01000094983531093 0.009989239393550788 0.0 -1.5269925236026932e-14 0.0 0.01 0.0 -1.5269925236026932e-14 0.0 0.010000867312821682 0.009989348542234017 0.0 -2.3040715979033484e-14 0.0 0.01 0.0 -2.3040715979033484e-14 0.0 0.010000801846433345 0.009989426792578712 0.0 -1.5660452066212567e-14 0.0 0.01 0.0 -1.5660452066212567e-14 0.0 0.010000753485152426 0.009989475139252123 0.0 -5.165365297821106e-15 0.0 0.01 0.0 -5.165365297821106e-15 0.0 0.010000721778137031 0.009986956066091256 0.0 -6.397880079320071e-13 0.0 0.01 0.0 -6.397880079320071e-13 0.0 0.010001702584720523 0.009987149811607879 0.0 9.871400354143079e-14 0.0 0.01 0.0 9.871400354143079e-14 0.0 0.010001528650444399 0.009987351039968284 0.0 1.0732511899573476e-13 0.0 0.01 0.0 1.0732511899573476e-13 0.0 0.010001374783452473 0.009987544808473574 0.0 7.757847503726199e-14 0.0 0.01 0.0 7.757847503726199e-14 0.0 0.010001238980222767 0.00998772065443621 0.0 1.1762143647519035e-14 0.0 0.01 0.0 1.1762143647519035e-14 0.0 0.010001124189541908 0.0099878720986298 0.0 -3.0754206141726834e-14 0.0 0.01 0.0 -3.0754206141726834e-14 0.0 0.010001024107297885 0.009987992661103595 0.0 -3.903519041486316e-14 0.0 0.01 0.0 -3.903519041486316e-14 0.0 0.010000945434059936 0.009988081342073494 0.0 -2.153802687178896e-14 0.0 0.01 0.0 -2.153802687178896e-14 0.0 0.010000886367833264 0.009988135149656076 0.0 -7.426313842849764e-15 0.0 0.01 0.0 -7.426313842849764e-15 0.0 0.01000085165878605 0.009985332832093791 0.0 -3.6104824916000633e-13 0.0 0.01 0.0 -3.610482491599805e-13 0.0 0.010001955673549298 0.0099855488856729 0.0 1.6002322694000895e-13 0.0 0.01 0.0 1.6002322694000895e-13 0.0 0.010001766067739148 0.009985774910647442 0.0 1.2380998717324391e-13 0.0 0.01 0.0 1.2380998717324391e-13 0.0 0.010001594131107091 0.009985993980335218 0.0 9.262882200605643e-14 0.0 0.01 0.0 9.262882200605643e-14 0.0 0.010001441711719981 0.009986194142972605 0.0 1.9257344970870866e-14 0.0 0.01 0.0 1.9257344970870866e-14 0.0 0.010001308356724813 0.009986364440065556 0.0 -3.819052115745743e-14 0.0 0.01 0.0 -3.819052115745743e-14 0.0 0.010001193563655128 0.009986498891293272 0.0 -4.114729893015228e-14 0.0 0.01 0.0 -4.114729893015228e-14 0.0 0.010001103682690438 0.009986599484281612 0.0 -2.7737418997716325e-14 0.0 0.01 0.0 -2.7737418997716325e-14 0.0 0.010001035310758064 0.009986660737936814 0.0 -8.297223808906253e-15 0.0 0.01 0.0 -8.297223808906253e-15 0.0 0.01000099524855824 0.009983534257569263 0.0 -5.366972232254596e-14 0.0 0.01 0.0 -5.366972232254596e-14 0.0 0.010002222440666895 0.009983782536397966 0.0 2.1682340824127337e-13 0.0 0.01 0.0 2.1682340824127337e-13 0.0 0.010002016709903824 0.009984039293105174 0.0 1.5595173838774791e-13 0.0 0.01 0.0 1.5595173838774791e-13 0.0 0.010001827650924115 0.009984288604909484 0.0 1.6049010824567028e-13 0.0 0.01 0.0 1.6049010824567028e-13 0.0 0.010001659112806975 0.009984515041993557 0.0 7.869756163531057e-14 0.0 0.01 0.0 7.869756163531057e-14 0.0 0.010001509641783951 0.00998470765005614 0.0 2.6110025301781772e-15 0.0 0.01 0.0 2.6110025301781772e-15 0.0 0.010001382136492395 0.009984862441357878 0.0 -1.9157053365539423e-14 0.0 0.01 0.0 -1.9157053365539423e-14 0.0 0.01000127809498727 0.009984972939874085 0.0 -1.3163620370250713e-14 0.0 0.01 0.0 -1.3163620370250713e-14 0.0 0.010001202366818136 0.009985041629989946 0.0 -5.4374561693821725e-15 0.0 0.01 0.0 -5.4374561693821725e-15 0.0 0.010001156950749287 0.009981554163148153 0.0 1.2981383092048265e-13 0.0 0.01 0.0 1.2981383092048265e-13 0.0 0.010002503389730346 0.009981845060225949 0.0 2.0550966092780815e-13 0.0 0.01 0.0 2.0550966092780815e-13 0.0 0.010002278628585685 0.009982139464016562 0.0 2.0293781334155034e-13 0.0 0.01 0.0 2.0293781334155034e-13 0.0 0.010002077297095254 0.009982423449110569 0.0 2.873879870134947e-13 0.0 0.01 0.0 2.873879870134947e-13 0.0 0.010001895088568016 0.009982679106159995 0.0 2.1421047784285823e-13 0.0 0.01 0.0 2.1421047784285823e-13 0.0 0.010001734351091744 0.009982897972157552 0.0 1.0246712769472828e-13 0.0 0.01 0.0 1.0246712769472828e-13 0.0 0.01000159608204038 0.009983071085460399 0.0 4.3881636905547286e-14 0.0 0.01 0.0 4.3881636905547286e-14 0.0 0.01000148423037559 0.009983198438926878 0.0 1.5499884802083406e-14 0.0 0.01 0.0 1.5499884802083406e-14 0.0 0.01000140264505679 0.00998327306236325 0.0 3.877764668331293e-15 0.0 0.01 0.0 3.877764668331293e-15 0.0 0.010001351323862083 0.009979393370434382 0.0 -1.1902086931867771e-13 0.0 0.01 0.0 -1.1902086931867771e-13 0.0 0.010002793169833976 0.009979732780947383 0.0 -5.309650333666226e-14 0.0 0.01 0.0 -5.309650333666226e-14 0.0 0.010002557630886857 0.009980074711178814 0.0 1.5921086180281173e-13 0.0 0.01 0.0 1.5921086180281173e-13 0.0 0.010002347026021173 0.009980397788018878 0.0 4.2672473596863537e-13 0.0 0.01 0.0 4.267247359686095e-13 0.0 0.010002160850189293 0.009980688086894266 0.0 3.885696803984267e-13 0.0 0.01 0.0 3.885696803984267e-13 0.0 0.010001995697262208 0.009980933170561519 0.0 2.3504500655892817e-13 0.0 0.01 0.0 2.3504500655892817e-13 0.0 0.010001850113311265 0.009981128057276085 0.0 1.1907582097853296e-13 0.0 0.01 0.0 1.1907582097853296e-13 0.0 0.010001731899817673 0.009981268263452662 0.0 5.446389036239992e-14 0.0 0.01 0.0 5.446389036239992e-14 0.0 0.010001647356978359 0.00998135477659433 0.0 1.374325711190762e-14 0.0 0.01 0.0 1.374325711190762e-14 0.0 0.010001594631346287 0.009977077060765924 0.0 -1.6360288809821084e-12 0.0 0.01 0.0 -1.6360288809821084e-12 0.0 0.010003098139175434 0.009977476326557306 0.0 -1.044876957265337e-12 0.0 0.01 0.0 -1.044876957265337e-12 0.0 0.010002855722807302 0.009977867693276927 0.0 -3.239670367048999e-13 0.0 0.01 0.0 -3.239670367048999e-13 0.0 0.010002648001415497 0.00997823178513918 0.0 3.487635604995936e-13 0.0 0.01 0.0 3.487635604995936e-13 0.0 0.010002471115660192 0.009978555179817996 0.0 4.572766257774576e-13 0.0 0.01 0.0 4.572766257774576e-13 0.0 0.010002310850757956 0.009978828922465804 0.0 3.1710457218317713e-13 0.0 0.01 0.0 3.1710457218317713e-13 0.0 0.010002168204963111 0.009979045547860301 0.0 1.718637591876657e-13 0.0 0.01 0.0 1.718637591876657e-13 0.0 0.010002053382283708 0.00997920156663114 0.0 7.55554602656082e-14 0.0 0.01 0.0 7.55554602656082e-14 0.0 0.010001965429285034 0.009979296473348382 0.0 2.0309618270029988e-14 0.0 0.01 0.0 2.0309618270029988e-14 0.0 0.010001913148880782 0.009974670066895439 0.0 -6.195860262047512e-12 0.0 0.01 0.0 -6.195860262047926e-12 0.0 0.010003418752381362 0.009975136040854177 0.0 -4.08532902038387e-12 0.0 0.01 0.0 -4.085329020383663e-12 0.0 0.010003183669717811 0.009975577759100452 0.0 -2.1762073092267124e-12 0.0 0.01 0.0 -2.1762073092267124e-12 0.0 0.010003000850225053 0.009975980816156898 0.0 -5.062171990748573e-13 0.0 0.01 0.0 -5.062171990748056e-13 0.0 0.01000284836651675 0.009976335268766163 0.0 1.4828796520475863e-13 0.0 0.01 0.0 1.4828796520475863e-13 0.0 0.010002710101299397 0.009976634150324697 0.0 2.206639339433813e-13 0.0 0.01 0.0 2.206639339433813e-13 0.0 0.010002583050477888 0.009976871487373633 0.0 1.4156775000372967e-13 0.0 0.01 0.0 1.4156775000372967e-13 0.0 0.010002473567477813 0.009977043294215763 0.0 6.76034599585831e-14 0.0 0.01 0.0 6.76034599585831e-14 0.0 0.010002389506188186 0.009977148567533303 0.0 1.927196445212171e-14 0.0 0.01 0.0 1.927196445212171e-14 0.0 0.010002337269168788 0.009972315887335133 0.0 -1.673797690489093e-11 0.0 0.01 0.0 -1.6737976904891756e-11 0.0 0.01000377363497389 0.009972846994609133 0.0 -1.1785620870442518e-11 0.0 0.01 0.0 -1.1785620870443345e-11 0.0 0.010003568809551572 0.009973334041498586 0.0 -7.425319460441337e-12 0.0 0.01 0.0 -7.425319460440924e-12 0.0 0.010003432416413936 0.009973769567475208 0.0 -3.2949795251451317e-12 0.0 0.01 0.0 -3.2949795251451317e-12 0.0 0.010003327359962186 0.009974149583214787 0.0 -1.0585405721939214e-12 0.0 0.01 0.0 -1.0585405721939214e-12 0.0 0.010003224709141969 0.009974469107867638 0.0 -2.3065691713797704e-13 0.0 0.01 0.0 -2.3065691713797704e-13 0.0 0.010003124013309338 0.009974724650457331 0.0 -9.93686082837225e-15 0.0 0.01 0.0 -9.93686082837225e-15 0.0 0.010003028725421201 0.009974909248778878 0.0 1.709505669021697e-14 0.0 0.01 0.0 1.709505669021697e-14 0.0 0.01000295245703584 0.009975022891014282 0.0 3.259390527155479e-15 0.0 0.01 0.0 3.259390527155479e-15 0.0 0.010002906066292526 0.009970241861037206 0.0 -3.495588050849884e-11 0.0 0.01 0.0 -3.4955880508497185e-11 0.0 0.01000421115858568 0.00997083211296172 0.0 -2.670074084670777e-11 0.0 0.01 0.0 -2.670074084670777e-11 0.0 0.010004049808814974 0.009971354556015218 0.0 -1.8804305151582113e-11 0.0 0.01 0.0 -1.8804305151582113e-11 0.0 0.010003979924709907 0.009971812132898114 0.0 -1.0002423913596818e-11 0.0 0.01 0.0 -1.0002423913596818e-11 0.0 0.010003943231135102 0.009972207791859351 0.0 -4.199203135024654e-12 0.0 0.01 0.0 -4.199203135024861e-12 0.0 0.01000389487432577 0.009972540518992316 0.0 -1.4503382084641517e-12 0.0 0.01 0.0 -1.4503382084641e-12 0.0 0.010003827396223467 0.009972806327933804 0.0 -4.290630284995006e-13 0.0 0.01 0.0 -4.290630284995006e-13 0.0 0.010003755514524553 0.009972999747052916 0.0 -1.0349479969663751e-13 0.0 0.01 0.0 -1.0349479969663751e-13 0.0 0.010003693445223422 0.009973118779796937 0.0 -1.9149205526567668e-14 0.0 0.01 0.0 -1.9149205526567668e-14 0.0 0.010003651398933909 0.009968779815973827 0.0 -5.598984774219882e-11 0.0 0.01 0.0 -5.5989847742202126e-11 0.0 0.010004801806388679 0.009969409442054615 0.0 -4.568108005444218e-11 0.0 0.01 0.0 -4.568108005444218e-11 0.0 0.01000468784432348 0.009969946031123344 0.0 -3.657210675958747e-11 0.0 0.01 0.0 -3.657210675958747e-11 0.0 0.010004690297771561 0.00997040936100573 0.0 -2.223925420622281e-11 0.0 0.01 0.0 -2.223925420622281e-11 0.0 0.010004734309932572 0.00997080683554198 0.0 -1.0667032277404964e-11 0.0 0.01 0.0 -1.066703227740455e-11 0.0 0.01000475143427505 0.00997114190087728 0.0 -4.2003605241041145e-12 0.0 0.01 0.0 -4.2003605241041145e-12 0.0 0.010004730905103025 0.009971410572336489 0.0 -1.3934126145703924e-12 0.0 0.01 0.0 -1.393412614570444e-12 0.0 0.010004687393690351 0.00997160589326608 0.0 -4.1209242976000144e-13 0.0 0.01 0.0 -4.1209242976000144e-13 0.0 0.01000464338214851 0.009971726859190892 0.0 -8.424171134744199e-14 0.0 0.01 0.0 -8.424171134744199e-14 0.0 0.010004608183347063 0.00996834692437387 0.0 -6.452684422444279e-11 0.0 0.01 0.0 -6.452684422444279e-11 0.0 0.010005653240257914 0.009968973991625467 0.0 -5.2981319623976147e-11 0.0 0.01 0.0 -5.298131962397449e-11 0.0 0.0100055651922599 0.009969499115268904 0.0 -5.152958727901105e-11 0.0 0.01 0.0 -5.152958727901105e-11 0.0 0.01000562584395937 0.009969946031123346 0.0 -3.7133172522866656e-11 0.0 0.01 0.0 -3.7133172522866656e-11 0.0 0.010005742242217754 0.009970325609966229 0.0 -2.0398709462199316e-11 0.0 0.01 0.0 -2.0398709462199316e-11 0.0 0.010005829293139997 0.00997064328041351 0.0 -8.925255935310434e-12 0.0 0.01 0.0 -8.925255935310434e-12 0.0 0.010005860597968399 0.00997090001600191 0.0 -3.2386586904476774e-12 0.0 0.01 0.0 -3.2386586904474706e-12 0.0 0.010005852283377317 0.0099710888631376 0.0 -1.0133530793852424e-12 0.0 0.01 0.0 -1.013353079385294e-12 0.0 0.010005827339728443 0.009971205349004787 0.0 -2.1557044092419443e-13 0.0 0.01 0.0 -2.1557044092419443e-13 0.0 0.010005801895395289 0.009969457003237078 0.0 -3.9570896414691076e-11 0.0 0.01 0.0 -3.957089641468942e-11 0.0 0.010006885054073475 0.0099700277905266 0.0 -2.230601742378212e-11 0.0 0.01 0.0 -2.230601742378212e-11 0.0 0.01000678033972204 0.009970495096504451 0.0 -4.362695114852337e-11 0.0 0.01 0.0 -4.3626951148521713e-11 0.0 0.010006860102700023 0.009970889607416666 0.0 -4.404881890231704e-11 0.0 0.01 0.0 -4.404881890231704e-11 0.0 0.010007020586380335 0.009971224185400807 0.0 -2.956408872450184e-11 0.0 0.01 0.0 -2.956408872450184e-11 0.0 0.010007163940960734 0.009971503273986262 0.0 -1.463633006002917e-11 0.0 0.01 0.0 -1.4636330060029998e-11 0.0 0.01000724566735329 0.00997173280844831 0.0 -5.797287726804946e-12 0.0 0.01 0.0 -5.797287726805153e-12 0.0 0.01000727453012609 0.009971900383573045 0.0 -1.9434304963998464e-12 0.0 0.01 0.0 -1.94343049639995e-12 0.0 0.01000727453012609 0.009972006981613706 0.0 -4.326128294988905e-13 0.0 0.01 0.0 -4.326128294988905e-13 0.0 0.010007266713100465 0.009972852449932696 0.0 3.873311110148066e-11 0.0 0.01 0.0 3.8733111101479006e-11 0.0 0.010008591158532419 0.009973273528736261 0.0 7.211652693457371e-11 0.0 0.01 0.0 7.211652693457371e-11 0.0 0.010008427140547914 0.009973625212566973 0.0 1.1637518120004882e-11 0.0 0.01 0.0 1.1637518120004882e-11 0.0 0.01000847070077267 0.009973920377922656 0.0 -2.54481029073719e-11 0.0 0.01 0.0 -2.54481029073719e-11 0.0 0.010008631763251797 0.009974173397657798 0.0 -2.900667630628348e-11 0.0 0.01 0.0 -2.9006676306281825e-11 0.0 0.010008801155430715 0.009974389223825542 0.0 -1.7505531726504213e-11 0.0 0.01 0.0 -1.7505531726504213e-11 0.0 0.010008925485438547 0.009974567352985922 0.0 -7.616828023591889e-12 0.0 0.01 0.0 -7.616828023591889e-12 0.0 0.010008996024724796 0.009974703809355223 0.0 -2.7626148842340725e-12 0.0 0.01 0.0 -2.762614884234176e-12 0.0 0.010009026356575064 0.009974788167002849 0.0 -6.487139583506935e-13 0.0 0.01 0.0 -6.487139583506676e-13 0.0 0.010009039091020834 0.009979540957573458 0.0 1.6089592825911237e-10 0.0 0.01 0.0 1.6089592825911237e-10 0.0 0.01001078743022507 0.00997969749654324 0.0 2.3657083866933663e-10 0.0 0.01 0.0 2.3657083866933663e-10 0.0 0.010010545457577711 0.009979852054943481 0.0 1.2998383308175185e-10 0.0 0.01 0.0 1.2998383308174523e-10 0.0 0.010010516064914802 0.009979994195373596 0.0 3.777589489586361e-11 0.0 0.01 0.0 3.777589489586361e-11 0.0 0.010010635091750746 0.00998012838946494 0.0 -3.2432624840117227e-12 0.0 0.01 0.0 -3.2432624840117227e-12 0.0 0.010010803130963641 0.009980247677646258 0.0 -8.301448398021341e-12 0.0 0.01 0.0 -8.301448398021341e-12 0.0 0.010010954473819608 0.009980353052431126 0.0 -4.2071880521354714e-12 0.0 0.01 0.0 -4.207188052135885e-12 0.0 0.010011064235544565 0.009980438050562196 0.0 -1.7477785641019876e-12 0.0 0.01 0.0 -1.7477785641019876e-12 0.0 0.010011132311700734 0.00998049173471128 0.0 -5.162652064711804e-13 0.0 0.01 0.0 -5.162652064711804e-13 0.0 0.01001117249584636 0.009990525980583956 0.0 2.2769321318401018e-10 0.0 0.01 0.0 2.2769321318402342e-10 0.0 0.010013375437571491 0.009990303621219396 0.0 4.106389393588767e-10 0.0 0.01 0.0 4.106389393588767e-10 0.0 0.010013090609817933 0.009990181977984597 0.0 2.8658681199983817e-10 0.0 0.01 0.0 2.865868119998117e-10 0.0 0.010012987156195035 0.009990111187655639 0.0 1.470208595188227e-10 0.0 0.01 0.0 1.470208595188227e-10 0.0 0.010013053815900962 0.009990077787107464 0.0 6.056518277899967e-11 0.0 0.01 0.0 6.056518277899967e-11 0.0 0.010013206766809233 0.0099900678168595 0.0 2.5242218314503047e-11 0.0 0.01 0.0 2.5242218314503047e-11 0.0 0.010013375437571484 0.009990075793055483 0.0 1.1813746624153228e-11 0.0 0.01 0.0 1.1813746624153228e-11 0.0 0.010013522479246485 0.009990089751444418 0.0 4.384942097135107e-12 0.0 0.01 0.0 4.384942097135107e-12 0.0 0.01001363428344848 0.009990102214341125 0.0 7.714930325926126e-13 0.0 0.01 0.0 7.714930325926126e-13 0.0 0.010013706830163054 0.010006207425038851 0.0 6.766633201251391e-11 0.0 0.01 0.0 6.766633201251391e-11 0.0 0.010016136624731315 0.010005554925153239 0.0 4.5131707165988103e-10 0.0 0.01 0.0 4.5131707165988103e-10 0.0 0.010015898685013593 0.010005098646780652 0.0 3.920680186811558e-10 0.0 0.01 0.0 3.920680186812087e-10 0.0 0.010015788764198256 0.01000477101221293 0.0 2.6047885903772405e-10 0.0 0.01 0.0 2.6047885903772405e-10 0.0 0.010015832922993996 0.010004530426856464 0.0 1.519042365847819e-10 0.0 0.01 0.0 1.519042365847819e-10 0.0 0.010015981077760017 0.010004356845662482 0.0 8.568754686553512e-11 0.0 0.01 0.0 8.568754686553512e-11 0.0 0.010016172950213167 0.01000423754199328 0.0 4.488758338253241e-11 0.0 0.01 0.0 4.488758338253241e-11 0.0 0.010016365788365381 0.010004162247203855 0.0 1.8123982936475337e-11 0.0 0.01 0.0 1.8123982936475337e-11 0.0 0.01001652964422941 0.010004121696858048 0.0 3.93899259365225e-12 0.0 0.01 0.0 3.938992593652663e-12 0.0 0.010016643508942772 0.010025720945826353 0.0 -3.6450990742410273e-10 0.0 0.01 0.0 -3.6450990742410273e-10 0.0 0.010018777356262526 0.010024684347666535 0.0 2.5118708826102844e-10 0.0 0.01 0.0 2.511870882610814e-10 0.0 0.010018715006929491 0.010023898397842616 0.0 3.469687164404112e-10 0.0 0.01 0.0 3.469687164404112e-10 0.0 0.010018709626839997 0.010023295499941657 0.0 3.049164240404311e-10 0.0 0.01 0.0 3.04916424040537e-10 0.0 0.010018810240976395 0.010022828936779611 0.0 2.2659366065681895e-10 0.0 0.01 0.0 2.2659366065681895e-10 0.0 0.010019000817788906 0.010022471015684362 0.0 1.5053421469827776e-10 0.0 0.01 0.0 1.5053421469827776e-10 0.0 0.010019238978665074 0.010022206551229219 0.0 8.518721771225026e-11 0.0 0.01 0.0 8.518721771225026e-11 0.0 0.010019489427973835 0.01002202470002028 0.0 3.6039856179047205e-11 0.0 0.01 0.0 3.6039856179047205e-11 0.0 0.010019716357300012 0.010021922479122834 0.0 8.280598215946038e-12 0.0 0.01 0.0 8.280598215946038e-12 0.0 0.010019876957339175 0.010046560981621655 0.0 -8.000916844861267e-10 0.0 0.01 0.0 -8.000916844861796e-10 0.0 0.01002100152483165 0.01004528176929878 0.0 -8.224694166376525e-11 0.0 0.01 0.0 -8.224694166377187e-11 0.0 0.01002123736277202 0.010044242588508986 0.0 1.6298470157996754e-10 0.0 0.01 0.0 1.6298470157998077e-10 0.0 0.01002146295153069 0.010043396107654083 0.0 2.4148613878842435e-10 0.0 0.01 0.0 2.414861387884111e-10 0.0 0.01002171950617933 0.010042709566196292 0.0 2.3166928788524558e-10 0.0 0.01 0.0 2.3166928788524558e-10 0.0 0.010022015338449052 0.010042160130577422 0.0 1.7626984872804293e-10 0.0 0.01 0.0 1.7626984872804293e-10 0.0 0.010022339284198179 0.010041741354094648 0.0 1.0611208485131743e-10 0.0 0.01 0.0 1.0611208485132405e-10 0.0 0.010022670611115638 0.010041446707811473 0.0 4.6441754469955235e-11 0.0 0.01 0.0 4.6441754469955235e-11 0.0 0.01002296854143535 0.010041269679382656 0.0 1.096138192252292e-11 0.0 0.01 0.0 1.096138192252292e-11 0.0 0.010023185385765696 0.010064902322969109 0.0 -8.731121700828327e-10 0.0 0.01 0.0 -8.731121700828062e-10 0.0 0.010022632251622988 0.010063579758111021 0.0 -2.919284300758608e-10 0.0 0.01 0.0 -2.919284300758608e-10 0.0 0.010023206532239485 0.010062402029737141 0.0 -2.6008131041948277e-11 0.0 0.01 0.0 -2.600813104194993e-11 0.0 0.010023747423972097 0.010061375911529497 0.0 1.083522119937779e-10 0.0 0.01 0.0 1.083522119937779e-10 0.0 0.01002424070776509 0.010060500195352805 0.0 1.5189239067932795e-10 0.0 0.01 0.0 1.5189239067932795e-10 0.0 0.010024702078368905 0.0100597694188056 0.0 1.3260623297658956e-10 0.0 0.01 0.0 1.3260623297658956e-10 0.0 0.010025153185126298 0.010059195345300781 0.0 8.417058965284809e-11 0.0 0.01 0.0 8.41705896528514e-11 0.0 0.010025588582304646 0.010058779828097051 0.0 3.741787649058216e-11 0.0 0.01 0.0 3.741787649058381e-11 0.0 0.010025975862406946 0.010058528914230378 0.0 8.830973926273822e-12 0.0 0.01 0.0 8.830973926273408e-12 0.0 0.010026252921689785 0.010076985936519697 0.0 -5.771078841100114e-10 0.0 0.01 0.0 -5.771078841100247e-10 0.0 0.010023610203807029 0.010075796488747867 0.0 -2.738174386702546e-10 0.0 0.01 0.0 -2.738174386702612e-10 0.0 0.01002451465147029 0.010074601480159782 0.0 -1.1505683767895002e-10 0.0 0.01 0.0 -1.1505683767895333e-10 0.0 0.010025357827833899 0.010073472265972614 0.0 -1.4532820403740343e-11 0.0 0.01 0.0 -1.4532820403740756e-11 0.0 0.010026102849259835 0.010072455735742952 0.0 3.720161978397353e-11 0.0 0.01 0.0 3.720161978397187e-11 0.0 0.010026768248538988 0.01007158514333719 0.0 4.6517151177110563e-11 0.0 0.01 0.0 4.651715117710891e-11 0.0 0.010027375201346302 0.01007087682007324 0.0 3.200827039843276e-11 0.0 0.01 0.0 3.200827039843111e-11 0.0 0.010027937440501358 0.010070358696683485 0.0 1.3853264390136976e-11 0.0 0.01 0.0 1.3853264390136976e-11 0.0 0.010028425443140827 0.010070041049889024 0.0 3.0358537466253963e-12 0.0 0.01 0.0 3.0358537466254997e-12 0.0 0.010028773613386357 0.010081488288132372 0.0 -2.1787752739531665e-10 0.0 0.01 0.0 -2.1787752739531665e-10 0.0 0.010024117216310904 0.010080532275498674 0.0 -1.4023722386672107e-10 0.0 0.01 0.0 -1.4023722386672107e-10 0.0 0.010025221549107568 0.010079421597559646 0.0 -9.840290054113461e-11 0.0 0.01 0.0 -9.840290054113792e-11 0.0 0.010026279983822285 0.010078283749843646 0.0 -6.011120427502252e-11 0.0 0.01 0.0 -6.011120427502252e-11 0.0 0.010027237832141843 0.010077211269021549 0.0 -3.0126653308560267e-11 0.0 0.01 0.0 -3.012665330855944e-11 0.0 0.010028086133076916 0.010076268033012375 0.0 -1.3658778705324281e-11 0.0 0.01 0.0 -1.3658778705323867e-11 0.0 0.010028849465249194 0.010075492851125113 0.0 -7.200711128173641e-12 0.0 0.01 0.0 -7.200711128173434e-12 0.0 0.010029543509013856 0.010074916541922036 0.0 -4.226981476839874e-12 0.0 0.01 0.0 -4.22698147683946e-12 0.0 0.010030135678562993 0.010074560527369268 0.0 -1.4292449860156964e-12 0.0 0.01 0.0 -1.4292449860156964e-12 0.0 0.010030550078007443 0.01008022170548597 0.0 -2.124539735398021e-11 0.0 0.01 0.0 -2.1245397353979383e-11 0.0 0.010024347935490617 0.010079486111200499 0.0 -3.3228036414759605e-11 0.0 0.01 0.0 -3.322803641475795e-11 0.0 0.010025504944563786 0.01007849023031801 0.0 -4.202141082586012e-11 0.0 0.01 0.0 -4.202141082586012e-11 0.0 0.010026659935107771 0.01007740115562435 0.0 -3.9915170344504795e-11 0.0 0.01 0.0 -3.991517034450314e-11 0.0 0.010027741009043663 0.010076343484192481 0.0 -3.1781393784964095e-11 0.0 0.01 0.0 -3.1781393784964095e-11 0.0 0.010028720911476384 0.01007540044067628 0.0 -2.2672262259576215e-11 0.0 0.01 0.0 -2.2672262259576215e-11 0.0 0.010029609037013675 0.010074621471029175 0.0 -1.4477124154164034e-11 0.0 0.01 0.0 -1.4477124154164034e-11 0.0 0.01003041010586119 0.010074039841610694 0.0 -7.426089655841785e-12 0.0 0.01 0.0 -7.426089655841992e-12 0.0 0.010031090695968787 0.010073678399740585 0.0 -2.0959341868883956e-12 0.0 0.01 0.0 -2.0959341868883956e-12 0.0 0.010031563865182423 0.010076077698956095 0.0 1.2260812388831648e-11 0.0 0.01 0.0 1.2260812388831235e-11 0.0 0.010024437940939554 0.010075451887463543 0.0 2.2656701778421034e-12 0.0 0.01 0.0 2.2656701778421034e-12 0.0 0.010025528574532634 0.010074520086339647 0.0 -5.216831433986508e-12 0.0 0.01 0.0 -5.216831433986508e-12 0.0 0.010026671275344377 0.010073478756974423 0.0 -8.520244818533575e-12 0.0 0.01 0.0 -8.520244818533162e-12 0.0 0.010027787242000492 0.010072461202883498 0.0 -8.660550867018891e-12 0.0 0.01 0.0 -8.660550867018891e-12 0.0 0.010028824349215723 0.010071554698911878 0.0 -7.05930648272464e-12 0.0 0.01 0.0 -7.059306482724433e-12 0.0 0.010029777478620786 0.010070810990579455 0.0 -4.745114943129537e-12 0.0 0.01 0.0 -4.74511494312933e-12 0.0 0.010030646659177347 0.010070255449242454 0.0 -2.424503485588622e-12 0.0 0.01 0.0 -2.424503485588415e-12 0.0 0.01003138443153545 0.010069911416151722 0.0 -6.688291051502934e-13 0.0 0.01 0.0 -6.688291051502934e-13 0.0 0.010031896107834379 0.010071182083558285 0.0 -2.1346575043903312e-11 0.0 0.01 0.0 -2.1346575043902485e-11 0.0 0.01002442167228775 0.010070515258950983 0.0 -4.710593009931598e-12 0.0 0.01 0.0 -4.710593009931391e-12 0.0 0.01002539279266175 0.010069561904837957 0.0 1.0929598383560828e-12 0.0 0.01 0.0 1.0929598383561345e-12 0.0 0.01002645470867486 0.010068519662356428 0.0 2.8156571544171107e-12 0.0 0.01 0.0 2.8156571544171107e-12 0.0 0.010027529767355197 0.010067524528197066 0.0 3.3955250579705017e-12 0.0 0.01 0.0 3.3955250579705017e-12 0.0 0.010028551010210211 0.010066653683517161 0.0 3.309178269632384e-12 0.0 0.01 0.0 3.3091782696325907e-12 0.0 0.010029509509618574 0.010065948949930525 0.0 2.5539166202243327e-12 0.0 0.01 0.0 2.553916620224436e-12 0.0 0.010030393858572736 0.010065428068548337 0.0 1.4189591344390349e-12 0.0 0.01 0.0 1.4189591344390349e-12 0.0 0.010031150298985849 0.01006510991940992 0.0 4.0647736647495524e-13 0.0 0.01 0.0 4.0647736647495524e-13 0.0 0.010031677738617493 0.010066146156377912 0.0 -5.99557410112551e-11 0.0 0.01 0.0 -5.99557410112551e-11 0.0 0.010024270221488177 0.010065305597952824 0.0 -2.0175982266574665e-11 0.0 0.01 0.0 -2.0175982266574665e-11 0.0 0.010025118273183078 0.01006424123021363 0.0 -6.784513327375251e-12 0.0 0.01 0.0 -6.7845133273754576e-12 0.0 0.010026072311504559 0.010063141889362649 0.0 -1.9110574715491773e-12 0.0 0.01 0.0 -1.911057471549074e-12 0.0 0.01002705621099458 0.010062130927988988 0.0 5.554752571977505e-13 0.0 0.01 0.0 5.554752571977505e-13 0.0 0.010028011306959513 0.010061269986496734 0.0 1.898322942064227e-12 0.0 0.01 0.0 1.898322942064227e-12 0.0 0.010028921384894867 0.010060587206806148 0.0 2.044094211093828e-12 0.0 0.01 0.0 2.0440942110937247e-12 0.0 0.01002977601562929 0.010060093526932582 0.0 1.289293044109072e-12 0.0 0.01 0.0 1.2892930441091236e-12 0.0 0.010030512637154883 0.010059795277075848 0.0 3.8484961550822536e-13 0.0 0.01 0.0 3.8484961550822536e-13 0.0 0.010031028570669497 0.010060350056263784 0.0 -8.90853031568495e-11 0.0 0.01 0.0 -8.908530315685281e-11 0.0 0.010023928865378182 0.010059251480966619 0.0 -2.802136314561353e-11 0.0 0.01 0.0 -2.802136314561353e-11 0.0 0.010024674525300868 0.010058020122015569 0.0 -1.1861030115705027e-11 0.0 0.01 0.0 -1.1861030115705027e-11 0.0 0.010025520714652379 0.010056827917308607 0.0 -7.132423351611952e-12 0.0 0.01 0.0 -7.132423351611952e-12 0.0 0.010026402043314267 0.010055772235731678 0.0 -4.939888235396394e-12 0.0 0.01 0.0 -4.939888235396394e-12 0.0 0.010027257542385364 0.010054895999510163 0.0 -2.975820212705478e-12 0.0 0.01 0.0 -2.975820212705271e-12 0.0 0.010028083208574567 0.01005421853116324 0.0 -1.3515531628050794e-12 0.0 0.01 0.0 -1.351553162804976e-12 0.0 0.01002887014324971 0.010053734222704006 0.0 -4.564631595620266e-13 0.0 0.01 0.0 -4.564631595620524e-13 0.0 0.010029558743276438 0.010053445429106272 0.0 -9.299611623436694e-14 0.0 0.01 0.0 -9.299611623436694e-14 0.0 0.01003004748718508 0.010052827787000873 0.0 -1.0030240760477233e-10 0.0 0.01 0.0 -1.0030240760476571e-10 0.0 0.010023350583566104 0.010051447521045514 0.0 -1.887277564160638e-11 0.0 0.01 0.0 -1.8872775641607206e-11 0.0 0.010024022787711324 0.010050044577860521 0.0 -4.492303873578821e-12 0.0 0.01 0.0 -4.492303873579028e-12 0.0 0.010024777837884316 0.010048757134606519 0.0 -2.9631584996655666e-12 0.0 0.01 0.0 -2.9631584996655666e-12 0.0 0.010025552204668567 0.010047657889099521 0.0 -3.3766327658273985e-12 0.0 0.01 0.0 -3.3766327658273985e-12 0.0 0.01002630114988869 0.010046764504315858 0.0 -3.0332625091514555e-12 0.0 0.01 0.0 -3.0332625091514555e-12 0.0 0.010027024202739541 0.010046084673291194 0.0 -1.961547918256203e-12 0.0 0.01 0.0 -1.96154791825641e-12 0.0 0.010027723262211548 0.010045603009168354 0.0 -9.378003232941545e-13 0.0 0.01 0.0 -9.378003232940511e-13 0.0 0.010028346625739348 0.010045317905978549 0.0 -2.6119644668993834e-13 0.0 0.01 0.0 -2.6119644668993834e-13 0.0 0.010028793332687802 0.010043195271478202 0.0 -7.621265540214712e-11 0.0 0.01 0.0 -7.621265540215374e-11 0.0 0.010022531975344445 0.010041564866968705 0.0 8.505291524410233e-12 0.0 0.01 0.0 8.50529152441106e-12 0.0 0.010023151450989887 0.010040039496794684 0.0 1.2940114132953784e-11 0.0 0.01 0.0 1.2940114132953784e-11 0.0 0.010023829053760149 0.010038710925759897 0.0 8.78668186022293e-12 0.0 0.01 0.0 8.786681860221275e-12 0.0 0.010024510219034485 0.010037607590819907 0.0 5.072104312931823e-12 0.0 0.01 0.0 5.072104312931823e-12 0.0 0.010025149759407213 0.010036728713347655 0.0 2.6688717370673788e-12 0.0 0.01 0.0 2.6688717370669652e-12 0.0 0.010025769670224272 0.01003606380583401 0.0 1.3428980521317377e-12 0.0 0.01 0.0 1.3428980521317377e-12 0.0 0.010026373014723882 0.010035596417651315 0.0 5.167290817187049e-13 0.0 0.01 0.0 5.167290817187049e-13 0.0 0.010026921324739051 0.010035320553825711 0.0 8.654175808141762e-14 0.0 0.01 0.0 8.654175808141762e-14 0.0 0.010027317581209111 0.010032131251798566 0.0 -2.193960357810778e-11 0.0 0.01 0.0 -2.193960357810778e-11 0.0 0.010021497825299298 0.01003034905279503 0.0 3.5088855885382795e-11 0.0 0.01 0.0 3.5088855885382795e-11 0.0 0.010022078252738495 0.010028802662832603 0.0 2.3996249334424385e-11 0.0 0.01 0.0 2.3996249334424385e-11 0.0 0.010022695177531328 0.01002752240690698 0.0 1.597624258836723e-11 0.0 0.01 0.0 1.597624258836723e-11 0.0 0.010023292076126598 0.010026491600120282 0.0 1.1691839061041556e-11 0.0 0.01 0.0 1.1691839061034939e-11 0.0 0.01002383887364078 0.010025686531814083 0.0 8.248347254969434e-12 0.0 0.01 0.0 8.248347254969434e-12 0.0 0.0100243577568963 0.010025080842745799 0.0 5.053656585701455e-12 0.0 0.01 0.0 5.053656585754395e-12 0.0 0.01002486437911325 0.010024657298452375 0.0 2.292777832747066e-12 0.0 0.01 0.0 2.292777832747066e-12 0.0 0.01002533470288217 0.010024407418394771 0.0 5.459589252981599e-13 0.0 0.01 0.0 5.45958925298987e-13 0.0 0.010025681090099355 0.010021134209927946 0.0 1.9158777095646145e-11 0.0 0.01 0.0 1.9158777095646145e-11 0.0 0.010020295972187267 0.010019322962585227 0.0 3.255961326188527e-11 0.0 0.01 0.0 3.25596132618588e-11 0.0 0.010020846757370198 0.010017868076383177 0.0 1.3137874755649568e-11 0.0 0.01 0.0 1.3137874755662803e-11 0.0 0.010021418718226717 0.010016722502984701 0.0 8.890706717788705e-12 0.0 0.01 0.0 8.890706717785396e-12 0.0 0.010021949506205137 0.010015837343929478 0.0 9.111718681777671e-12 0.0 0.01 0.0 9.111718681779326e-12 0.0 0.010022410057136588 0.01001515694041719 0.0 8.044975903080885e-12 0.0 0.01 0.0 8.044975903080885e-12 0.0 0.010022837293763978 0.010014650281840643 0.0 5.517218053097067e-12 0.0 0.01 0.0 5.517218053097894e-12 0.0 0.010023254212994081 0.010014296701009555 0.0 2.5928305646228164e-12 0.0 0.01 0.0 2.5928305646228164e-12 0.0 0.010023645099997192 0.010014087814155269 0.0 6.191996683065686e-13 0.0 0.01 0.0 6.191996683067754e-13 0.0 0.010023938735912096 0.010011665380462675 0.0 1.6393447348706272e-11 0.0 0.01 0.0 1.639344734870958e-11 0.0 0.010018979195070611 0.01000992295022413 0.0 -4.598029708801278e-13 0.0 0.01 0.0 -4.598029708801278e-13 0.0 0.010019511053995815 0.010008620484113507 0.0 -1.2786021213668312e-11 0.0 0.01 0.0 -1.2786021213668312e-11 0.0 0.010020051347649026 0.010007661144986846 0.0 -6.614072055932158e-12 0.0 0.01 0.0 -6.614072055931331e-12 0.0 0.010020527886555188 0.010006946180716814 0.0 5.870288811948973e-13 0.0 0.01 0.0 5.870288811948973e-13 0.0 0.010020924391777123 0.010006411911623615 0.0 3.555962418905375e-12 0.0 0.01 0.0 3.5559624189049616e-12 0.0 0.010021270322035154 0.01000601617480213 0.0 3.278938106823715e-12 0.0 0.01 0.0 3.278938106823715e-12 0.0 0.010021604965027424 0.010005741741355958 0.0 1.6778037801286076e-12 0.0 0.01 0.0 1.6778037801286076e-12 0.0 0.010021919509680193 0.01000558131919373 0.0 3.953178319405954e-13 0.0 0.01 0.0 3.953178319405954e-13 0.0 0.010022159892086754 0.010004530426856463 0.0 -5.015862290012109e-12 0.0 0.01 0.0 -5.0158622900129364e-12 0.0 0.010017584373019356 0.010002889451857505 0.0 -2.976679169662474e-11 0.0 0.01 0.0 -2.976679169662474e-11 0.0 0.010018109122541937 0.010001744606441572 0.0 -2.8642599163222457e-11 0.0 0.01 0.0 -2.8642599163222457e-11 0.0 0.01001863154109618 0.010000949335168482 0.0 -1.5339477095590023e-11 0.0 0.01 0.0 -1.5339477095591677e-11 0.0 0.010019076900698977 0.010000385772321898 0.0 -5.051227186901836e-12 0.0 0.01 0.0 -5.05122718690225e-12 0.0 0.010019426562426064 0.00999997500009375 0.0 3.199216922556139e-14 0.0 0.01 0.0 3.199216922556139e-14 0.0 0.010019708008119858 0.009999677015648507 0.0 1.4673937657548879e-12 0.0 0.01 0.0 1.467393765754681e-12 0.0 0.010019970313119018 0.009999471541893151 0.0 1.0272810740073027e-12 0.0 0.01 0.0 1.0272810740073027e-12 0.0 0.010020215937799051 0.00999935056327069 0.0 2.7390748594896704e-13 0.0 0.01 0.0 2.7390748594896704e-13 0.0 0.010020405035333345 0.009999778007392332 0.0 1.1788413005980888e-10 0.0 0.01 0.0 1.1788413005980888e-10 0.0 0.010016155767155897 0.009998231469265801 0.0 -1.6877746317775057e-11 0.0 0.01 0.0 -1.6877746317773402e-11 0.0 0.010016676372649224 0.009997193681755487 0.0 -1.3658311932436446e-11 0.0 0.01 0.0 -1.3658311932436446e-11 0.0 0.010017194144342956 0.009996503334855496 0.0 -7.93182606244252e-12 0.0 0.01 0.0 -7.931826062443347e-12 0.0 0.01001762659523923 0.009996031863166766 0.0 -4.013612796051233e-12 0.0 0.01 0.0 -4.013612796051026e-12 0.0 0.010017947149670407 0.009995698776670675 0.0 -7.618087550347621e-13 0.0 0.01 0.0 -7.618087550347621e-13 0.0 0.010018187698804087 0.009995463089402438 0.0 1.1766405267394264e-12 0.0 0.01 0.0 1.1766405267394264e-12 0.0 0.010018395836801882 0.009995302811610767 0.0 1.2229625403962288e-12 0.0 0.01 0.0 1.2229625403962288e-12 0.0 0.010018581915110687 0.009995208446049895 0.0 4.164062989091234e-13 0.0 0.01 0.0 4.164062989091234e-13 0.0 0.010018722850813821 0.009996973874170676 0.0 2.00581411931969e-09 0.0 0.01 0.0 2.005814119319902e-09 0.0 0.010014747911097247 0.009995495545345715 0.0 1.0999359961663514e-10 0.0 0.01 0.0 1.0999359961662191e-10 0.0 0.01001524378523813 0.009994495049011598 0.0 3.4718820459425393e-11 0.0 0.01 0.0 3.4718820459425393e-11 0.0 0.010015759325325552 0.00999383071371369 0.0 1.3564563506194604e-11 0.0 0.01 0.0 1.3564563506194604e-11 0.0 0.010016189630926453 0.009993378083279363 0.0 2.8454275462624496e-13 0.0 0.01 0.0 2.8454275462624496e-13 0.0 0.010016502208740447 0.009993065220351137 0.0 -2.1066378399139178e-12 0.0 0.01 0.0 -2.1066378399139178e-12 0.0 0.010016724462784307 0.009992851173172206 0.0 -3.374122459612595e-15 0.0 0.01 0.0 -3.374122459612595e-15 0.0 0.010016897231177869 0.009992711975045337 0.0 1.0914694327174437e-12 0.0 0.01 0.0 1.0914694327174437e-12 0.0 0.01001703854809853 0.009992632150786981 0.0 5.084814767935504e-13 0.0 0.01 0.0 5.084814767935246e-13 0.0 0.010017143082243815 0.009995511024463255 0.0 1.0925913120430777e-08 0.0 0.01 0.0 1.0925913120431624e-08 0.0 0.010013421974148154 0.009994107212836844 0.0 1.178206135823022e-09 0.0 0.01 0.0 1.178206135823022e-09 0.0 0.010013851476450236 0.009993076696462506 0.0 1.0759348140754524e-10 0.0 0.01 0.0 1.0759348140753863e-10 0.0 0.010014341844381583 0.009992362758037453 0.0 4.5163391812712424e-11 0.0 0.01 0.0 4.516339181271573e-11 0.0 0.010014770962865426 0.00999186394010297 0.0 5.338616271478383e-12 0.0 0.01 0.0 5.338616271478383e-12 0.0 0.010015091695273915 0.009991523789115223 0.0 -6.767089324388273e-12 0.0 0.01 0.0 -6.767089324388273e-12 0.0 0.010015316366940101 0.009991295877465518 0.0 -4.777890922846085e-12 0.0 0.01 0.0 -4.777890922846912e-12 0.0 0.010015475801076763 0.00999115275492728 0.0 -1.126248410741993e-12 0.0 0.01 0.0 -1.1262484107418897e-12 0.0 0.010015591086646625 0.009991071970704977 0.0 3.6290812706054916e-14 0.0 0.01 0.0 3.6290812706054916e-14 0.0 0.010015670055791886 0.009994860465142114 0.0 3.6736934290972274e-08 0.0 0.01 0.0 3.6736934290968886e-08 0.0 0.010012242645915714 0.009993584179704236 0.0 6.124500344480858e-09 0.0 0.01 0.0 6.124500344480858e-09 0.0 0.010012545067388277 0.009992508426966962 0.0 2.9526519842466645e-10 0.0 0.01 0.0 2.952651984246929e-10 0.0 0.01001296853387956 0.0099916853814405 0.0 9.338196285083123e-11 0.0 0.01 0.0 9.338196285083123e-11 0.0 0.010013379353243984 0.009991094410570169 0.0 1.9533495088022555e-11 0.0 0.01 0.0 1.9533495088022555e-11 0.0 0.010013707332221936 0.009990684532875549 0.0 -1.001265560773496e-11 0.0 0.01 0.0 -1.0012655607735788e-11 0.0 0.010013949534231638 0.009990412804791947 0.0 -1.1820988478969259e-11 0.0 0.01 0.0 -1.1820988478969259e-11 0.0 0.010014119698683106 0.009990244793198532 0.0 -5.5398488404544095e-12 0.0 0.01 0.0 -5.5398488404544095e-12 0.0 0.010014232979090808 0.009990156553115796 0.0 -1.1918898829214927e-12 0.0 0.01 0.0 -1.1918898829214927e-12 0.0 0.010014301119911122 0.009994676255713316 0.0 9.506813644963281e-08 0.0 0.01 0.0 9.506813644964636e-08 0.0 0.010011255776748744 0.009993628594480842 0.0 2.3457863727803746e-08 0.0 0.01 0.0 2.3457863727802052e-08 0.0 0.010011391485450981 0.009992552328442258 0.0 2.1496579594483832e-09 0.0 0.01 0.0 2.1496579594481715e-09 0.0 0.010011688410952707 0.009991604085556136 0.0 1.7274675076798637e-10 0.0 0.01 0.0 1.7274675076797314e-10 0.0 0.010012043672621354 0.00999088098863862 0.0 6.193740828773172e-11 0.0 0.01 0.0 6.193740828773172e-11 0.0 0.010012363239718424 0.009990369430067411 0.0 3.102740379256856e-12 0.0 0.01 0.0 3.102740379256649e-12 0.0 0.010012620551608157 0.009990031425707771 0.0 -1.2841025177672652e-11 0.0 0.01 0.0 -1.2841025177671825e-11 0.0 0.0100128092194489 0.009989822059683975 0.0 -8.990125376469775e-12 0.0 0.01 0.0 -8.990125376470603e-12 0.0 0.010012935706654607 0.009989709904728722 0.0 -2.509661246424243e-12 0.0 0.01 0.0 -2.5096612464240364e-12 0.0 0.010013008740140808 0.00999476262373888 0.0 2.0570601281892902e-07 0.0 0.01 0.0 2.0570601281890192e-07 0.0 0.010010483268158813 0.009994056803167999 0.0 6.966515307529409e-08 0.0 0.01 0.0 6.966515307528731e-08 0.0 0.010010441632139941 0.009993097652967188 0.0 1.3020094780378194e-08 0.0 0.01 0.0 1.3020094780378194e-08 0.0 0.010010571941316389 0.009992076926222148 0.0 9.515351295754225e-10 0.0 0.01 0.0 9.515351295755284e-10 0.0 0.010010815370568417 0.00999120661216415 0.0 1.4680865760599254e-10 0.0 0.01 0.0 1.4680865760600578e-10 0.0 0.01001109022171001 0.009990561878554927 0.0 5.0839969086718853e-11 0.0 0.01 0.0 5.083996908672216e-11 0.0 0.010011339057015164 0.009990119662474874 0.0 6.087769982665313e-12 0.0 0.01 0.0 6.087769982665313e-12 0.0 0.010011542905083763 0.009989848977435335 0.0 -4.4718758478695e-12 0.0 0.01 0.0 -4.4718758478695e-12 0.0 0.010011684999017645 0.009989701430952255 0.0 -2.117495306356366e-12 0.0 0.01 0.0 -2.117495306356366e-12 0.0 0.010011768793121009 0.009994978308207345 0.0 3.9212537610814214e-07 0.0 0.01 0.0 3.9212537610814214e-07 0.0 0.010009903866600304 0.00999469572778239 0.0 1.73196699962267e-07 0.0 0.01 0.0 1.7319669996228055e-07 0.0 0.010009726075594345 0.009994001901317785 0.0 5.293707639976501e-08 0.0 0.01 0.0 5.293707639976501e-08 0.0 0.010009681993439096 0.009993052247417018 0.0 9.57459937585113e-09 0.0 0.01 0.0 9.574599375850283e-09 0.0 0.010009766238318117 0.009992087401300686 0.0 8.724125194467088e-10 0.0 0.01 0.0 8.724125194467088e-10 0.0 0.010009941555552149 0.009991292386598728 0.0 1.3610943166156266e-10 0.0 0.01 0.0 1.3610943166156266e-10 0.0 0.010010142860800745 0.009990721429774559 0.0 5.414492707544444e-11 0.0 0.01 0.0 5.4144927075441134e-11 0.0 0.010010330937215952 0.009990354971951448 0.0 1.500692952775484e-11 0.0 0.01 0.0 1.5006929527753186e-11 0.0 0.010010476891819439 0.009990153561967521 0.0 2.245476414194579e-12 0.0 0.01 0.0 2.245476414194786e-12 0.0 0.01001056702573736 0.009995204019656765 0.0 6.694956734202401e-07 0.0 0.01 0.0 6.694956734202401e-07 0.0 0.010009447989937066 0.009995342775811914 0.0 3.6814485016278256e-07 0.0 0.01 0.0 3.6814485016278256e-07 0.0 0.010009214390411974 0.009995044689466133 0.0 1.584349905699254e-07 0.0 0.01 0.0 1.584349905699254e-07 0.0 0.010009038593432653 0.009994344801197637 0.0 5.077546122698475e-08 0.0 0.01 0.0 5.077546122697797e-08 0.0 0.01000895977765915 0.009993452935245452 0.0 1.1439939094044102e-08 0.0 0.01 0.0 1.1439939094044102e-08 0.0 0.010008983791811797 0.009992587250482724 0.0 1.6575313611008591e-09 0.0 0.01 0.0 1.6575313611010709e-09 0.0 0.010009087071239726 0.009991891373148055 0.0 1.8470804531892047e-10 0.0 0.01 0.0 1.8470804531892047e-10 0.0 0.01000921978500894 0.009991409581984526 0.0 4.773828050691228e-11 0.0 0.01 0.0 4.7738280506915586e-11 0.0 0.010009340219677794 0.009991139290754148 0.0 1.072010595862467e-11 0.0 0.01 0.0 1.072010595862467e-11 0.0 0.010009420043885515 0.009995421803041832 0.0 1.0235113692463795e-06 0.0 0.01 0.0 1.023511369246271e-06 0.0 0.010009062762031012 0.009995806207577668 0.0 6.729109362749348e-07 0.0 0.01 0.0 6.729109362749348e-07 0.0 0.010008826189306005 0.009995949482804863 0.0 3.6944081435063463e-07 0.0 0.01 0.0 3.6944081435068884e-07 0.0 0.010008594587794581 0.009995661828795977 0.0 1.6738489983661258e-07 0.0 0.01 0.0 1.6738489983658547e-07 0.0 0.010008394362175311 0.009995042689254687 0.0 6.202493843028854e-08 0.0 0.01 0.0 6.202493843028177e-08 0.0 0.010008272955532542 0.00999429239029386 0.0 1.847206326778089e-08 0.0 0.01 0.0 1.847206326778089e-08 0.0 0.010008240625055754 0.009993591665283212 0.0 4.101699733515722e-09 0.0 0.01 0.0 4.101699733516145e-09 0.0 0.010008271000114352 0.009993049253653326 0.0 6.316105011848322e-10 0.0 0.01 0.0 6.316105011848322e-10 0.0 0.01000832824240243 0.009992715467400317 0.0 4.1808675168502765e-11 0.0 0.01 0.0 4.1808675168506074e-11 0.0 0.010008377716171553 0.009996045639353891 0.0 1.3966824908252188e-06 0.0 0.01 0.0 1.3966824908252188e-06 0.0 0.010008862158845978 0.009996093958354524 0.0 1.0602003549962588e-06 0.0 0.01 0.0 1.0602003549963672e-06 0.0 0.01000852520780501 0.00999649241942385 0.0 6.981127573997027e-07 0.0 0.01 0.0 6.981127573997027e-07 0.0 0.01000825688816109 0.009996685172691134 0.0 3.979504332405899e-07 0.0 0.01 0.0 3.979504332406441e-07 0.0 0.010008003271325006 0.009996515827495951 0.0 1.9547503971785603e-07 0.0 0.01 0.0 1.9547503971782893e-07 0.0 0.01000778303264185 0.00999608629975834 0.0 8.17052014994514e-08 0.0 0.01 0.0 8.170520149943785e-08 0.0 0.010007626867501522 0.009995561956299713 0.0 2.7771468850538202e-08 0.0 0.01 0.0 2.7771468850538202e-08 0.0 0.010007544178731037 0.0099950916162086 0.0 6.999512397535458e-09 0.0 0.01 0.0 6.999512397534611e-09 0.0 0.010007513810132514 0.009994771603280328 0.0 9.568941585081201e-10 0.0 0.01 0.0 9.568941585081201e-10 0.0 0.010007509450315252 0.009997846088223888 0.0 1.6173304818710172e-06 0.0 0.01 0.0 1.6173304818708004e-06 0.0 0.010008904370613988 0.009996904755673464 0.0 1.4562430928374663e-06 0.0 0.01 0.0 1.4562430928376831e-06 0.0 0.010008485205109368 0.009996796219882783 0.0 1.0943261564749698e-06 0.0 0.01 0.0 1.0943261564749698e-06 0.0 0.010008028387236302 0.009997205251372298 0.0 7.273919126328347e-07 0.0 0.01 0.0 7.273919126328347e-07 0.0 0.010007698409942799 0.00999753793677832 0.0 4.2603246554407314e-07 0.0 0.01 0.0 4.2603246554401893e-07 0.0 0.010007437015341066 0.009997587380332223 0.0 2.1515012320550342e-07 0.0 0.01 0.0 2.151501232054763e-07 0.0 0.010007219267086642 0.009997416003117819 0.0 9.007256407214963e-08 0.0 0.01 0.0 9.007256407214963e-08 0.0 0.01000705430869104 0.009997161708966425 0.0 2.8819328920299034e-08 0.0 0.01 0.0 2.8819328920299034e-08 0.0 0.010006946180841476 0.00999695039558487 0.0 5.3897664220599166e-09 0.0 0.01 0.0 5.389766422060764e-09 0.0 0.010006887459039358 0.010000871458398081 0.0 1.2776210309584785e-06 0.0 0.01 0.0 1.2776210309584785e-06 0.0 0.010009051067690095 0.009999143999099461 0.0 1.6114920048419194e-06 0.0 0.01 0.0 1.6114920048419194e-06 0.0 0.010008645387182045 0.009998019400916082 0.0 1.4434173813608706e-06 0.0 0.01 0.0 1.4434173813606538e-06 0.0 0.010008126406975569 0.00999769197223389 0.0 1.0739576767173145e-06 0.0 0.01 0.0 1.0739576767173145e-06 0.0 0.010007597672642202 0.00999801016758858 0.0 7.002270703146624e-07 0.0 0.01 0.0 7.002270703147708e-07 0.0 0.010007214423107844 0.009998471874036217 0.0 3.9750727617588865e-07 0.0 0.01 0.0 3.9750727617583444e-07 0.0 0.010006957477907644 0.009998748240414508 0.0 1.8873261656334058e-07 0.0 0.01 0.0 1.8873261656328637e-07 0.0 0.010006767619240799 0.009998827207066354 0.0 6.918597334363359e-08 0.0 0.01 0.0 6.918597334363359e-08 0.0 0.010006626230943394 0.009998814210979931 0.0 1.4665224483151085e-08 0.0 0.01 0.0 1.4665224483154473e-08 0.0 0.010006538657552081 0.010002817089964837 0.0 9.111573750194207e-09 0.0 0.01 0.0 9.111573750194207e-09 0.0 0.010008703750129602 0.010001781378500841 0.0 1.0095022711527867e-06 0.0 0.01 0.0 1.0095022711527867e-06 0.0 0.010008557975800029 0.010000704962092107 0.0 1.3854624714764938e-06 0.0 0.01 0.0 1.3854624714764938e-06 0.0 0.010008305071950446 0.009999754753708677 0.0 1.2778276646601642e-06 0.0 0.01 0.0 1.2778276646601642e-06 0.0 0.010007847371954185 0.009999198726534663 0.0 9.320879819100982e-07 0.0 0.01 0.0 9.320879819098814e-07 0.0 0.010007346116970895 0.009999159654026717 0.0 5.664001753487172e-07 0.0 0.01 0.0 5.664001753486088e-07 0.0 0.010006942821766434 0.00999944355879565 0.0 2.870233088485231e-07 0.0 0.01 0.0 2.870233088485231e-07 0.0 0.010006683957662608 0.009999742011901448 0.0 1.1310656346133312e-07 0.0 0.01 0.0 1.1310656346136022e-07 0.0 0.010006528840217483 0.009999915001181622 0.0 2.5556871131117475e-08 0.0 0.01 0.0 2.55568711311107e-08 0.0 0.010006433453174524 0.010002095880186893 0.0 -3.785822094936036e-07 0.0 0.01 0.0 -3.785822094936036e-07 0.0 0.010007946984604025 0.010002332401073703 0.0 4.85613165078112e-07 0.0 0.01 0.0 4.85613165078112e-07 0.0 0.010008037565280183 0.010002018326435621 0.0 8.783976620369265e-07 0.0 0.01 0.0 8.783976620367097e-07 0.0 0.010007873654876955 0.010001796495569731 0.0 8.631071670829691e-07 0.0 0.01 0.0 8.631071670827523e-07 0.0 0.010007619661536533 0.010001584433500186 0.0 6.169514219535321e-07 0.0 0.01 0.0 6.169514219535321e-07 0.0 0.010007227635234662 0.010001512560522998 0.0 3.4097217731070013e-07 0.0 0.01 0.0 3.4097217731070013e-07 0.0 0.010006879660356181 0.01000149303723497 0.0 1.3979160004248033e-07 0.0 0.01 0.0 1.3979160004248033e-07 0.0 0.01000663940934026 0.01000151399391367 0.0 3.231374674715864e-08 0.0 0.01 0.0 3.231374674714509e-08 0.0 0.010006507346483397 0.010001508145256067 0.0 -1.6643661441818848e-07 0.0 0.01 0.0 -1.6643661441818848e-07 0.0 0.01000751822420913 0.010002230251526968 0.0 1.941572730180868e-07 0.0 0.01 0.0 1.9415727301803258e-07 0.0 0.010007577459632239 0.010002507304000327 0.0 2.7505304406826286e-07 0.0 0.01 0.0 2.750530440683713e-07 0.0 0.01000732740709531 0.010003073222009677 0.0 1.9826408737618102e-07 0.0 0.01 0.0 1.9826408737618102e-07 0.0 0.010007041135545784 0.010003535575438089 0.0 9.237344535893135e-08 0.0 0.01 0.0 9.237344535882293e-08 0.0 0.01000679842779113 0.010003857681183937 0.0 2.2522679469117336e-08 0.0 0.01 0.0 2.2522679469130888e-08 0.0 0.010006657993509633 0.01000007666420001 0.0 -2.981241655273907e-07 0.0 0.01 0.0 -2.981241655273907e-07 0.0 0.010007332770856428 0.01000066071714914 0.0 -1.0566324476428521e-07 0.0 0.01 0.0 -1.0566324476428521e-07 0.0 0.010007081266225681 0.010001132492463715 0.0 -2.7327700341300745e-08 0.0 0.01 0.0 -2.7327700341293968e-08 0.0 0.01000689532538744 0.010001488132117254 0.0 -4.143682055663986e-09 0.0 0.01 0.0 -4.143682055663986e-09 0.0 0.01000680233447595 0.009998699753640062 0.0 -8.30073651409084e-19 0.0 0.01 0.0 -8.30073651409084e-19 0.0 0.010000013650027948 0.009998699253835112 0.0 2.779752011235256e-18 0.0 0.01 0.0 2.779752011235256e-18 0.0 0.010000015150034429 0.009998697254616057 0.0 6.782307317704798e-17 0.0 0.01 0.0 6.782307317704798e-17 0.0 0.010000016600041335 0.009998694755593925 0.0 1.9069291485536967e-16 0.0 0.01 0.0 1.9069291485536967e-16 0.0 0.010000020500063036 0.009998693256181546 0.0 4.276196944232335e-16 0.0 0.01 0.0 4.276196944232335e-16 0.0 0.010000024900093002 0.009998693256181546 0.0 1.0204670026274018e-15 0.0 0.01 0.0 1.0204670026274018e-15 0.0 0.010000031750151211 0.009998697254616057 0.0 1.5178660740569447e-15 0.0 0.01 0.0 1.5178660740569447e-15 0.0 0.010000036600200936 0.009998709249948369 0.0 2.554363295069928e-15 0.0 0.01 0.0 2.554363295069928e-15 0.0 0.010000042500270938 0.009998470351045485 0.0 9.474470777978344e-20 0.0 0.01 0.0 9.474470777978344e-20 0.0 0.010000019050054435 0.009998469851274934 0.0 -5.2681745417590996e-18 0.0 0.01 0.0 -5.2681745417590996e-18 0.0 0.01000001955005733 0.009998466852653206 0.0 6.595072215467898e-17 0.0 0.01 0.0 6.595072215467898e-17 0.0 0.010000022950079004 0.0099984628544951 0.0 1.0296734399921542e-16 0.0 0.01 0.0 1.0296734399921542e-16 0.0 0.010000027850116345 0.00999845885634179 0.0 4.043887818772985e-17 0.0 0.01 0.0 4.043887818772985e-17 0.0 0.010000033200165338 0.009998457856804211 0.0 -1.0831964948860315e-15 0.0 0.01 0.0 -1.0831964948860315e-15 0.0 0.010000041000252152 0.009998459855879665 0.0 -3.871616964200248e-15 0.0 0.01 0.0 -3.871616964200248e-15 0.0 0.010000048850357952 0.009998469351504459 0.0 -1.3524779534867516e-14 0.0 0.01 0.0 -1.3524779534867516e-14 0.0 0.010000055650464542 0.009998278944406832 0.0 -1.6284204402185413e-18 0.0 0.01 0.0 -1.6284204402185413e-18 0.0 0.01000002395008604 0.009998278944406832 0.0 3.1902388531633983e-18 0.0 0.01 0.0 3.1902388531633983e-18 0.0 0.010000024400089305 0.009998274946474142 0.0 -5.491848060780943e-17 0.0 0.01 0.0 -5.491848060780943e-17 0.0 0.010000027850116345 0.009998267950103472 0.0 7.576461431816329e-18 0.0 0.01 0.0 7.576461431816329e-18 0.0 0.010000033700170356 0.009998261453486715 0.0 -2.3690758176870087e-16 0.0 0.01 0.0 -2.3690758176870087e-16 0.0 0.010000041000252152 0.009998257455575008 0.0 -2.1298351441270307e-15 0.0 0.01 0.0 -2.1298351441270307e-15 0.0 0.010000050300379516 0.009998257455575008 0.0 -9.046375608622142e-15 0.0 0.01 0.0 -9.046375608622142e-15 0.0 0.010000059100523926 0.00999826345244437 0.0 -2.6694977773899904e-14 0.0 0.01 0.0 -2.6694977773899904e-14 0.0 0.010000067400681423 0.009998099042183514 0.0 -1.9629140006926506e-18 0.0 0.01 0.0 -1.9629140006926506e-18 0.0 0.010000026850108139 0.009998096543609896 0.0 2.4039007355662193e-17 0.0 0.01 0.0 2.4039007355662193e-17 0.0 0.010000029300128775 0.009998090047327261 0.0 7.003810809280037e-17 0.0 0.01 0.0 7.003810809280037e-17 0.0 0.010000032700160394 0.009998082551632264 0.0 1.102636159343865e-17 0.0 0.01 0.0 1.102636159343865e-17 0.0 0.010000038550222917 0.009998074056531647 0.0 1.1078086436076041e-17 0.0 0.01 0.0 1.1078086436076041e-17 0.0 0.010000046400322945 0.009998066560872614 0.0 -1.9531952513643487e-15 0.0 0.01 0.0 -1.9531952513643487e-15 0.0 0.010000056150472928 0.009998060064648425 0.0 -9.722067597622564e-15 0.0 0.01 0.0 -9.722067597622564e-15 0.0 0.010000066400661351 0.009998063062904171 0.0 -3.096396148979191e-14 0.0 0.01 0.0 -3.096396148979191e-14 0.0 0.010000076650881297 0.009997897663158917 0.0 4.409259487023428e-19 0.0 0.01 0.0 4.409259487023428e-19 0.0 0.010000030750141836 0.009997895664420654 0.0 8.752960547350127e-17 0.0 0.01 0.0 8.752960547350127e-17 0.0 0.010000031750151211 0.009997889168529575 0.0 2.294068729743879e-16 0.0 0.01 0.0 2.294068729743879e-16 0.0 0.010000036150196024 0.009997878175511978 0.0 4.589729664325997e-16 0.0 0.01 0.0 4.589729664325997e-16 0.0 0.010000042500270938 0.009997866682850536 0.0 5.957140995566385e-16 0.0 0.01 0.0 5.957140995566385e-16 0.0 0.010000051250393988 0.009997852691837927 0.0 -1.0193907518093338e-15 0.0 0.01 0.0 -1.0193907518093338e-15 0.0 0.010000061050559072 0.009997843697646551 0.0 -8.877503190807237e-15 0.0 0.01 0.0 -8.877503190807237e-15 0.0 0.010000072750793895 0.009997840699588156 0.0 -2.8123417468679298e-14 0.0 0.01 0.0 -2.8123417468679298e-14 0.0 0.010000082501020953 0.00999766132066905 0.0 -4.34074029507686e-19 0.0 0.01 0.0 -4.34074029507686e-19 0.0 0.010000034200175447 0.009997657823125927 0.0 1.3987788056324965e-16 0.0 0.01 0.0 1.3987788056324965e-16 0.0 0.010000036150196024 0.009997649828755423 0.0 3.2508129749952147e-16 0.0 0.01 0.0 3.2508129749952147e-16 0.0 0.010000040550246647 0.009997637837235625 0.0 1.1021274966238284e-15 0.0 0.01 0.0 1.1021274966238284e-15 0.0 0.010000047350336307 0.009997620849323109 0.0 1.3645746605765752e-15 0.0 0.01 0.0 1.3645746605765752e-15 0.0 0.010000055650464542 0.009997602862216008 0.0 -2.0177469610033954e-16 0.0 0.01 0.0 -2.0177469610033954e-16 0.0 0.010000065450642562 0.009997585874481778 0.0 -7.51134851314427e-15 0.0 0.01 0.0 -7.51134851314427e-15 0.0 0.010000076650881295 0.009997577380647138 0.0 -2.091182602864029e-14 0.0 0.01 0.0 -2.091182602864029e-14 0.0 0.010000085951108127 0.009997374034716325 0.0 -1.1789101430889091e-18 0.0 0.01 0.0 -1.1789101430889091e-18 0.0 0.010000040550246647 0.009997370037869055 0.0 1.3541453940624208e-16 0.0 0.01 0.0 1.3541453940624208e-16 0.0 0.010000042000264601 0.009997361044980219 0.0 7.440787825529364e-16 0.0 0.01 0.0 7.440787825529364e-16 0.0 0.010000045900316024 0.009997344558080384 0.0 1.5852484370130316e-15 0.0 0.01 0.0 1.5852484370130316e-15 0.0 0.010000051250393988 0.009997324074469969 0.0 2.0431440701345043e-15 0.0 0.01 0.0 2.0431440701345043e-15 0.0 0.010000062000576607 0.009997301093008159 0.0 -2.116806281197108e-17 0.0 0.01 0.0 -2.116806281197108e-17 0.0 0.010000072250783018 0.009997277112521326 0.0 -8.365135397021241e-15 0.0 0.01 0.0 -8.365135397021241e-15 0.0 0.010000081050985378 0.009997260126447563 0.0 -1.6746786048293247e-14 0.0 0.01 0.0 -1.6746786048293247e-14 0.0 0.010000090801236714 0.009997033820255477 0.0 1.7340970032118397e-18 0.0 0.01 0.0 1.7340970032118397e-18 0.0 0.010000051250393988 0.009997031822035258 0.0 1.4625333102182943e-17 0.0 0.01 0.0 1.4625333102182943e-17 0.0 0.010000052750417389 0.009997019832739094 0.0 9.371445026143608e-16 0.0 0.01 0.0 9.371445026143608e-16 0.0 0.010000056150472928 0.009996999351124605 0.0 1.971019327997121e-15 0.0 0.01 0.0 1.971019327997121e-15 0.0 0.010000063000595357 0.00999697337462389 0.0 2.619472592144226e-15 0.0 0.01 0.0 2.619472592144226e-15 0.0 0.010000072750793895 0.009996943901531758 0.0 -3.896778510215418e-16 0.0 0.01 0.0 -3.896778510215418e-16 0.0 0.010000082051009844 0.009996913429625838 0.0 -1.1638674200993795e-14 0.0 0.01 0.0 -1.1638674200993795e-14 0.0 0.010000091301250373 0.0099968879533282 0.0 -1.724411775986419e-14 0.0 0.01 0.0 -1.724411775986419e-14 0.0 0.010000098651459798 0.009996639694507137 0.0 -4.266823824287774e-18 0.0 0.01 0.0 -4.266823824287774e-18 0.0 0.010000065900651429 0.009996635698540547 0.0 1.0815271420660896e-16 0.0 0.01 0.0 1.0815271420660896e-16 0.0 0.010000068850711056 0.009996621712695209 0.0 8.97541603535096e-16 0.0 0.01 0.0 8.97541603535096e-16 0.0 0.010000072250783018 0.00999659623862775 0.0 2.0326238142136133e-15 0.0 0.01 0.0 2.0326238142136133e-15 0.0 0.010000080550973258 0.009996566269385946 0.0 2.3948954038011724e-15 0.0 0.01 0.0 2.3948954038011724e-15 0.0 0.010000088851184166 0.00999652980717188 0.0 -2.1520265643729244e-15 0.0 0.01 0.0 -2.1520265643729244e-15 0.0 0.01000009715141574 0.00999649134746065 0.0 -1.9250335616000166e-14 0.0 0.01 0.0 -1.9250335616000166e-14 0.0 0.010000107401730244 0.009996455385534862 0.0 -2.6712839289994628e-14 0.0 0.01 0.0 -2.6712839289994628e-14 0.0 0.01000011475197517 0.009996187181746568 0.0 -2.8258080532636695e-18 0.0 0.01 0.0 -2.8258080532636695e-18 0.0 0.010000092751290404 0.009996180689185053 0.0 -3.837293696885417e-17 0.0 0.01 0.0 -3.837293696885417e-17 0.0 0.01000009375131838 0.009996163209274628 0.0 4.50398922569274e-16 0.0 0.01 0.0 4.50398922569274e-16 0.0 0.010000098651459798 0.009996134742188207 0.0 1.819813784905507e-15 0.0 0.01 0.0 1.819813784905507e-15 0.0 0.01000010595168384 0.009996097785280938 0.0 1.475580100093926e-15 0.0 0.01 0.0 1.475580100093926e-15 0.0 0.010000117202060416 0.009996054336468255 0.0 -6.4387674697178954e-15 0.0 0.01 0.0 -6.4387674697178954e-15 0.0 0.01000012600238145 0.009996006893009545 0.0 -2.980970205125492e-14 0.0 0.01 0.0 -2.980970205125492e-14 0.0 0.010000136252784673 0.009995959949620563 0.0 -4.874314872864506e-14 0.0 0.01 0.0 -4.874314872864506e-14 0.0 0.010000141603007657 0.009995662823297887 0.0 2.0021167769102456e-19 0.0 0.01 0.0 2.0021167769102456e-19 0.0 0.010000126952417497 0.009995657330455654 0.0 1.9324656221983522e-16 0.0 0.01 0.0 1.9324656221983522e-16 0.0 0.010000127952455733 0.009995636857214375 0.0 4.1481460701273924e-16 0.0 0.01 0.0 4.1481460701273924e-16 0.0 0.010000134752723697 0.00999560290187204 0.0 9.659624458449505e-16 0.0 0.01 0.0 9.659624458449505e-16 0.0 0.010000144053112635 0.009995557961509846 0.0 -4.1397312499510446e-17 0.0 0.01 0.0 -4.1397312499510446e-17 0.0 0.010000155253615478 0.009995508028484994 0.0 -1.1627203509324271e-14 0.0 0.01 0.0 -1.1627203509324271e-14 0.0 0.010000166504158452 0.009995450107113658 0.0 -4.15024497858123e-14 0.0 0.01 0.0 -4.15024497858123e-14 0.0 0.0100001777547394 0.009995391188131086 0.0 -7.202659782793327e-14 0.0 0.01 0.0 -7.202659782793327e-14 0.0 0.010000187505273605 0.009995066153829264 0.0 -1.999899857329587e-18 0.0 0.01 0.0 -1.999899857329587e-18 0.0 0.010000173354507664 0.00999505866493336 0.0 1.8408137251459292e-17 0.0 0.01 0.0 1.8408137251459292e-17 0.0 0.010000175304609648 0.009995036198346642 0.0 -9.045763119572137e-17 0.0 0.01 0.0 -9.045763119572137e-17 0.0 0.010000183605056499 0.00999499725662188 0.0 2.2352314755722866e-16 0.0 0.01 0.0 2.2352314755722866e-16 0.0 0.010000193855636856 0.009994947831242076 0.0 -2.4979551993407436e-15 0.0 0.01 0.0 -2.4979551993407436e-15 0.0 0.010000208006489824 0.009994886424973405 0.0 -1.4633323289393937e-14 0.0 0.01 0.0 -1.4633323289393937e-14 0.0 0.010000224107533404 0.009994817531482608 0.0 -4.9399388799391106e-14 0.0 0.01 0.0 -4.9399388799391106e-14 0.0 0.010000240258658356 0.009994743647293058 0.0 -8.385669880312915e-14 0.0 0.01 0.0 -8.385669880312915e-14 0.0 0.010000254409708318 0.009994388227335865 0.0 1.5051137120023086e-18 0.0 0.01 0.0 1.5051137120023086e-18 0.0 0.010000232408101778 0.009994381239121304 0.0 -5.853634957490044e-16 0.0 0.01 0.0 -5.853634957490044e-16 0.0 0.010000236358379528 0.009994351788949574 0.0 -9.97639387342567e-16 0.0 0.01 0.0 -9.97639387342567e-16 0.0 0.01000024510901147 0.009994310359487696 0.0 -6.322555448669568e-16 0.0 0.01 0.0 -6.322555448669568e-16 0.0 0.01000026026015995 0.00999425195979596 0.0 -2.048851612018826e-15 0.0 0.01 0.0 -2.048851612018826e-15 0.0 0.010000278811659958 0.009994181082912825 0.0 -1.3358145144327018e-14 0.0 0.01 0.0 -1.3358145144327018e-14 0.0 0.010000300313527692 0.009994100225211525 0.0 -4.01796905806013e-14 0.0 0.01 0.0 -4.01796905806013e-14 0.0 0.010000322765625975 0.009994011882929511 0.0 -6.796178884464132e-14 0.0 0.01 0.0 -6.796178884464132e-14 0.0 0.010000348668234585 0.009993619611602392 0.0 6.256864564560504e-20 0.0 0.01 0.0 6.256864564560504e-20 0.0 0.01000030471392702 0.0099936096307463 0.0 4.5115657396376636e-17 0.0 0.01 0.0 4.5115657396376636e-17 0.0 0.010000309564373921 0.009993579189319913 0.0 -8.444266702787511e-16 0.0 0.01 0.0 -8.444266702787511e-16 0.0 0.010000322265577597 0.009993529285944039 0.0 -1.7880867082082603e-15 0.0 0.01 0.0 -1.7880867082082603e-15 0.0 0.010000340817422685 0.009993464412673028 0.0 -1.0396456428258846e-15 0.0 0.01 0.0 -1.0396456428258846e-15 0.0 0.010000366720171565 0.009993382075340713 0.0 -2.815024588991945e-15 0.0 0.01 0.0 -2.815024588991945e-15 0.0 0.010000395523464583 0.009993288762157661 0.0 -1.1361529677410849e-14 0.0 0.01 0.0 -1.1361529677410849e-14 0.0 0.01000042822750525 0.009993185970981757 0.0 -2.531117493781675e-14 0.0 0.01 0.0 -2.531117493781675e-14 0.0 0.010000469783102352 0.009992754881374657 0.0 9.345449163039103e-19 0.0 0.01 0.0 9.345449163039103e-19 0.0 0.010000390622886744 0.009992743905284315 0.0 -1.4878219281365412e-15 0.0 0.01 0.0 -1.4878219281365412e-15 0.0 0.010000396023523952 0.009992709979415561 0.0 -3.1658955193083595e-15 0.0 0.01 0.0 -3.1658955193083595e-15 0.0 0.010000411625413928 0.009992653603368441 0.0 -2.21446720606436e-15 0.0 0.01 0.0 -2.21446720606436e-15 0.0 0.010000437028647436 0.009992577771606477 0.0 1.2007924589666394e-15 0.0 0.01 0.0 1.2007924589666394e-15 0.0 0.01000047073323638 0.009992485977572846 0.0 1.0022827806532948e-14 0.0 0.01 0.0 1.0022827806532948e-14 0.0 0.010000510289056581 0.009992377723729726 0.0 2.1891390223807624e-14 0.0 0.01 0.0 2.1891390223807624e-14 0.0 0.010000558146725689 0.00999225849891394 0.0 2.2010828855020613e-14 0.0 0.01 0.0 2.2010828855020613e-14 0.0 0.010000614806693443 0.009991784136165669 0.0 9.582250746738136e-19 0.0 0.01 0.0 9.582250746738136e-19 0.0 0.01000048683554902 0.009991770669439813 0.0 -1.9800613566380734e-15 0.0 0.01 0.0 -1.9800613566380734e-15 0.0 0.010000494686704818 0.009991733760914735 0.0 -5.4651620287178954e-15 0.0 0.01 0.0 -5.4651620287178954e-15 0.0 0.010000514189655932 0.009991670418858793 0.0 -6.066445826999991e-15 0.0 0.01 0.0 -6.066445826999991e-15 0.0 0.010000544944541447 0.009991583637210436 0.0 2.443962007027015e-15 0.0 0.01 0.0 2.443962007027015e-15 0.0 0.010000588902016754 0.00999147940247253 0.0 2.0886969758094456e-14 0.0 0.01 0.0 2.0886969758094456e-14 0.0 0.010000642161850481 0.009991356220169821 0.0 5.019675509495564e-14 0.0 0.01 0.0 5.019675509495564e-14 0.0 0.010000705624678903 0.009991220575293657 0.0 6.216906004535344e-14 0.0 0.01 0.0 6.216906004535344e-14 0.0 0.010000783292022346 0.00999069749660429 0.0 1.8921415418563373e-19 0.0 0.01 0.0 1.8921415418563373e-19 0.0 0.010000595253144728 0.009990682039856575 0.0 -2.646538875738092e-15 0.0 0.01 0.0 -2.646538875738092e-15 0.0 0.010000603554637333 0.00999064065601425 0.0 -8.977447081549653e-15 0.0 0.01 0.0 -8.977447081549653e-15 0.0 0.010000628459239188 0.009990570853108135 0.0 -1.2897957076161083e-14 0.0 0.01 0.0 -1.2897957076161083e-14 0.0 0.010000667566840872 0.009990475624360128 0.0 -2.4319084752649973e-15 0.0 0.01 0.0 -2.4319084752649973e-15 0.0 0.010000721778137031 0.009990355969060876 0.0 2.7568076323244776e-14 0.0 0.01 0.0 2.7568076323244776e-14 0.0 0.01000079014363918 0.009990216376645452 0.0 6.623815270645183e-14 0.0 0.01 0.0 6.623815270645183e-14 0.0 0.010000869263329677 0.009990063330257657 0.0 8.584418031645696e-14 0.0 0.01 0.0 8.584418031645696e-14 0.0 0.010000966940227932 0.00998949059039886 0.0 1.3604736608426094e-19 0.0 0.01 0.0 1.3604736608426094e-19 0.0 0.010000711976029263 0.009989475139252123 0.0 -4.548152068411326e-15 0.0 0.01 0.0 -4.548152068411326e-15 0.0 0.010000721778137031 0.009989426792578712 0.0 -1.6035289662400074e-14 0.0 0.01 0.0 -1.6035289662400074e-14 0.0 0.010000753485152426 0.009989348542234017 0.0 -2.4378231051084804e-14 0.0 0.01 0.0 -2.4378231051084804e-14 0.0 0.010000801846433345 0.009989239393550788 0.0 -1.4949224342814706e-14 0.0 0.01 0.0 -1.4949224342814706e-14 0.0 0.010000867312821682 0.009989105329973118 0.0 1.9377762306219396e-14 0.0 0.01 0.0 1.9377762306219396e-14 0.0 0.01000094983531093 0.00998894834788627 0.0 7.229602527973824e-14 0.0 0.01 0.0 7.229602527973824e-14 0.0 0.010001048514884469 0.00998877692193452 0.0 1.0006370506571829e-13 0.0 0.01 0.0 1.0006370506571829e-13 0.0 0.010001164753465998 0.009988152587485154 0.0 -5.073052586738667e-19 0.0 0.01 0.0 -5.073052586738667e-19 0.0 0.01000083945569105 0.009988135149656076 0.0 -6.544424526207081e-15 0.0 0.01 0.0 -6.544424526207081e-15 0.0 0.01000085165878605 0.009988081342073494 0.0 -2.333532685968206e-14 0.0 0.01 0.0 -2.333532685968206e-14 0.0 0.010000886367833264 0.009987992661103595 0.0 -3.791612625931674e-14 0.0 0.01 0.0 -3.791612625931674e-14 0.0 0.010000945434059936 0.0099878720986298 0.0 -3.335081225615188e-14 0.0 0.01 0.0 -3.335081225615188e-14 0.0 0.010001024107297885 0.00998772065443621 0.0 1.4135709450389582e-14 0.0 0.01 0.0 1.4135709450389582e-14 0.0 0.010001124189541908 0.009987544808473574 0.0 7.6169804015316e-14 0.0 0.01 0.0 7.6169804015316e-14 0.0 0.010001238980222767 0.009987351039968284 0.0 1.0833286185818887e-13 0.0 0.01 0.0 1.0833286185818887e-13 0.0 0.010001374783452473 0.009986681156072354 0.0 -4.583461478441801e-19 0.0 0.01 0.0 -4.583461478441801e-19 0.0 0.010000981094363037 0.009986660737936814 0.0 -7.223775470306504e-15 0.0 0.01 0.0 -7.223775470306504e-15 0.0 0.01000099524855824 0.009986599484281612 0.0 -2.5246444032544264e-14 0.0 0.01 0.0 -2.5246444032544264e-14 0.0 0.010001035310758064 0.009986498891293272 0.0 -4.190333943308995e-14 0.0 0.01 0.0 -4.190333943308995e-14 0.0 0.010001103682690438 0.009986364440065556 0.0 -3.598587474403705e-14 0.0 0.01 0.0 -3.598587474403705e-14 0.0 0.010001193563655128 0.009986194142972605 0.0 1.8709754409506263e-14 0.0 0.01 0.0 1.8709754409506263e-14 0.0 0.010001308356724813 0.009985993980335218 0.0 9.394236675311437e-14 0.0 0.01 0.0 9.394236675311437e-14 0.0 0.010001441711719981 0.009985774910647442 0.0 1.218705887227972e-13 0.0 0.01 0.0 1.218705887227972e-13 0.0 0.010001594131107091 0.009985063531484364 0.0 -1.4264432959665492e-19 0.0 0.01 0.0 -1.4264432959665492e-19 0.0 0.010001141795524787 0.009985041629989946 0.0 -4.522840526464118e-15 0.0 0.01 0.0 -4.522840526464118e-15 0.0 0.010001156950749287 0.009984972939874085 0.0 -1.4169343582344822e-14 0.0 0.01 0.0 -1.4169343582344822e-14 0.0 0.010001202366818136 0.009984862441357878 0.0 -1.8827830687800307e-14 0.0 0.01 0.0 -1.8827830687800307e-14 0.0 0.01000127809498727 0.00998470765005614 0.0 3.964203163861149e-15 0.0 0.01 0.0 3.964203163861149e-15 0.0 0.010001382136492395 0.009984515041993557 0.0 7.667220126858444e-14 0.0 0.01 0.0 7.667220126858444e-14 0.0 0.010001509641783951 0.009984288604909484 0.0 1.5775014592780064e-13 0.0 0.01 0.0 1.5775014592780064e-13 0.0 0.010001659112806975 0.009984039293105174 0.0 1.6379215107184117e-13 0.0 0.01 0.0 1.6379215107184117e-13 0.0 0.010001827650924115 0.009983299429710867 0.0 1.1738602241230717e-18 0.0 0.01 0.0 1.1738602241230717e-18 0.0 0.010001334266992762 0.00998327306236325 0.0 4.7341566897647335e-15 0.0 0.01 0.0 4.7341566897647335e-15 0.0 0.010001351323862083 0.009983198438926878 0.0 1.47714940719536e-14 0.0 0.01 0.0 1.47714940719536e-14 0.0 0.01000140264505679 0.009983071085460399 0.0 3.8160270344849725e-14 0.0 0.01 0.0 3.8160270344849725e-14 0.0 0.01000148423037559 0.009982897972157552 0.0 1.0154118630295805e-13 0.0 0.01 0.0 1.0154118630295805e-13 0.0 0.01000159608204038 0.009982679106159995 0.0 2.1454501387344584e-13 0.0 0.01 0.0 2.1454501387344584e-13 0.0 0.010001734351091744 0.009982423449110569 0.0 2.8392216877508896e-13 0.0 0.01 0.0 2.8392216877508896e-13 0.0 0.010001895088568016 0.009982139464016562 0.0 2.0123998267210588e-13 0.0 0.01 0.0 2.0123998267210588e-13 0.0 0.010002077297095254 0.009981382123170249 0.0 -7.031755636246257e-20 0.0 0.01 0.0 -7.031755636246257e-20 0.0 0.01000157752320842 0.00998135477659433 0.0 1.3701700663177116e-14 0.0 0.01 0.0 1.3701700663177116e-14 0.0 0.010001594631346287 0.009981268263452662 0.0 5.328696902249637e-14 0.0 0.01 0.0 5.328696902249637e-14 0.0 0.010001647356978359 0.009981128057276085 0.0 1.2094289350356272e-13 0.0 0.01 0.0 1.2094289350356272e-13 0.0 0.010001731899817673 0.009980933170561519 0.0 2.3665829450303965e-13 0.0 0.01 0.0 2.3665829450303965e-13 0.0 0.010001850113311265 0.009980688086894266 0.0 3.845990507778794e-13 0.0 0.01 0.0 3.845990507778794e-13 0.0 0.010001995697262208 0.009980397788018878 0.0 4.298801937219519e-13 0.0 0.01 0.0 4.298801937219002e-13 0.0 0.010002160850189293 0.009980074711178814 0.0 1.5805670823752533e-13 0.0 0.01 0.0 1.5805670823752533e-13 0.0 0.010002347026021173 0.009979328772063433 0.0 -6.65007863491251e-19 0.0 0.01 0.0 -6.65007863491251e-19 0.0 0.010001896039108353 0.009979296473348382 0.0 2.011284244328266e-14 0.0 0.01 0.0 2.011284244328266e-14 0.0 0.010001913148880782 0.00997920156663114 0.0 7.624791362665373e-14 0.0 0.01 0.0 7.624791362665373e-14 0.0 0.010001965429285034 0.009979045547860301 0.0 1.7260026017760242e-13 0.0 0.01 0.0 1.7260026017760242e-13 0.0 0.010002053382283708 0.009978828922465804 0.0 3.1666843891055783e-13 0.0 0.01 0.0 3.1666843891055783e-13 0.0 0.010002168204963111 0.009978555179817996 0.0 4.5185246385338557e-13 0.0 0.01 0.0 4.518524638533597e-13 0.0 0.010002310850757956 0.00997823178513918 0.0 3.4566727934899065e-13 0.0 0.01 0.0 3.4566727934899065e-13 0.0 0.010002471115660192 0.009977867693276927 0.0 -3.1970842056110403e-13 0.0 0.01 0.0 -3.1970842056110403e-13 0.0 0.010002648001415497 0.009977183328322802 0.0 5.699740688275941e-20 0.0 0.01 0.0 5.699740688275941e-20 0.0 0.010002321107881242 0.009977148567533303 0.0 1.853080414453876e-14 0.0 0.01 0.0 1.853080414453876e-14 0.0 0.010002337269168788 0.009977043294215763 0.0 7.034705943811252e-14 0.0 0.01 0.0 7.034705943811252e-14 0.0 0.010002389506188186 0.009976871487373633 0.0 1.4123096172369579e-13 0.0 0.01 0.0 1.4123096172369579e-13 0.0 0.010002473567477813 0.009976634150324697 0.0 2.2137627125499216e-13 0.0 0.01 0.0 2.2137627125499216e-13 0.0 0.010002583050477888 0.009976335268766163 0.0 1.4740467547247142e-13 0.0 0.01 0.0 1.4740467547247142e-13 0.0 0.010002710101299397 0.009975980816156898 0.0 -5.048487090648872e-13 0.0 0.01 0.0 -5.048487090648614e-13 0.0 0.01000284836651675 0.009975577759100452 0.0 -2.1711690519856133e-12 0.0 0.01 0.0 -2.1711690519856133e-12 0.0 0.010003000850225053 0.009975057133322677 0.0 3.743667375981817e-19 0.0 0.01 0.0 3.743667375981817e-19 0.0 0.010002889902247722 0.009975022891014282 0.0 5.456418401634997e-15 0.0 0.01 0.0 5.456418401634997e-15 0.0 0.010002906066292526 0.009974909248778878 0.0 1.1755197438872319e-14 0.0 0.01 0.0 1.1755197438872319e-14 0.0 0.01000295245703584 0.009974724650457331 0.0 -1.3158427544128286e-14 0.0 0.01 0.0 -1.3158427544128286e-14 0.0 0.010003028725421201 0.00997446960404781 0.0 -2.305151176526277e-13 0.0 0.01 0.0 -2.305151176526277e-13 0.0 0.010003124013309338 0.009974149583214787 0.0 -1.0563400666763161e-12 0.0 0.01 0.0 -1.0563400666763161e-12 0.0 0.010003224709141969 0.009973769567475208 0.0 -3.295848728360458e-12 0.0 0.01 0.0 -3.2958487283606648e-12 0.0 0.010003327359962186 0.009973334041498586 0.0 -7.42438373333373e-12 0.0 0.01 0.0 -7.42438373333373e-12 0.0 0.010003432416413936 0.009973157962340901 0.0 9.116367683294938e-19 0.0 0.01 0.0 9.116367683294938e-19 0.0 0.01000363773400397 0.009973118779796937 0.0 -1.809708607409171e-14 0.0 0.01 0.0 -1.809708607409171e-14 0.0 0.010003651398933909 0.009972999747052916 0.0 -1.0881732336986128e-13 0.0 0.01 0.0 -1.0881732336986128e-13 0.0 0.010003693445223422 0.009972806327933804 0.0 -4.272716449292009e-13 0.0 0.01 0.0 -4.272716449292009e-13 0.0 0.010003755514524553 0.009972540518992316 0.0 -1.4471706789451812e-12 0.0 0.01 0.0 -1.4471706789451295e-12 0.0 0.010003827396223467 0.009972207791859351 0.0 -4.198618638181022e-12 0.0 0.01 0.0 -4.198618638181229e-12 0.0 0.01000389487432577 0.009971812132898113 0.0 -9.996042211428393e-12 0.0 0.01 0.0 -9.996042211428393e-12 0.0 0.0100039432311351 0.009971354060299776 0.0 -1.8805191949428272e-11 0.0 0.01 0.0 -1.8805191949428272e-11 0.0 0.010003979924709907 0.009971768008439274 0.0 3.485623800005322e-19 0.0 0.01 0.0 3.485623800005322e-19 0.0 0.010004595465806041 0.009971726859190892 0.0 -8.244180548960234e-14 0.0 0.01 0.0 -8.244180548960234e-14 0.0 0.010004608183347063 0.00997160589326608 0.0 -4.0843994814115815e-13 0.0 0.01 0.0 -4.0843994814115815e-13 0.0 0.01000464338214851 0.009971410572336489 0.0 -1.3998449117625736e-12 0.0 0.01 0.0 -1.3998449117625736e-12 0.0 0.010004687393690351 0.00997114190087728 0.0 -4.200136687415494e-12 0.0 0.01 0.0 -4.200136687415494e-12 0.0 0.010004730905103025 0.00997080683554198 0.0 -1.066846849065298e-11 0.0 0.01 0.0 -1.066846849065298e-11 0.0 0.01000475143427505 0.009970409361005732 0.0 -2.2250776570363763e-11 0.0 0.01 0.0 -2.2250776570362936e-11 0.0 0.010004734309932572 0.009969946031123346 0.0 -3.655084000486616e-11 0.0 0.01 0.0 -3.655084000486616e-11 0.0 0.010004690297771561 0.00997124450900044 0.0 1.189809123350629e-18 0.0 0.01 0.0 1.189809123350629e-18 0.0 0.010005794081820129 0.009971205349004787 0.0 -2.1427306358327642e-13 0.0 0.01 0.0 -2.1427306358327642e-13 0.0 0.010005801895395289 0.0099710888631376 0.0 -1.0120696912722566e-12 0.0 0.01 0.0 -1.0120696912723083e-12 0.0 0.010005827339728443 0.00997090001600191 0.0 -3.244383445665976e-12 0.0 0.01 0.0 -3.244383445665873e-12 0.0 0.010005852283377319 0.009970643280413511 0.0 -8.927266818887042e-12 0.0 0.01 0.0 -8.927266818887455e-12 0.0 0.010005860597968399 0.009970325609966229 0.0 -2.0398406550153715e-11 0.0 0.01 0.0 -2.0398406550152888e-11 0.0 0.010005829293139997 0.009969946031123342 0.0 -3.71169374770437e-11 0.0 0.01 0.0 -3.711693747704535e-11 0.0 0.010005742242217749 0.009969499115268905 0.0 -5.15545736519877e-11 0.0 0.01 0.0 -5.15545736519877e-11 0.0 0.010005625843959374 0.00997204218450823 0.0 9.398613678026348e-20 0.0 0.01 0.0 9.398613678026348e-20 0.0 0.010007263756666059 0.009972006981613706 0.0 -4.3076034231405734e-13 0.0 0.01 0.0 -4.3076034231405734e-13 0.0 0.010007266713100465 0.009971900383573045 0.0 -1.9457451862158783e-12 0.0 0.01 0.0 -1.9457451862159817e-12 0.0 0.01000727453012609 0.009971732808448312 0.0 -5.815059036225402e-12 0.0 0.01 0.0 -5.815059036225816e-12 0.0 0.010007274530126092 0.00997150327398626 0.0 -1.4640239047880474e-11 0.0 0.01 0.0 -1.4640239047880474e-11 0.0 0.010007245667353287 0.009971224185400805 0.0 -2.9562828327464006e-11 0.0 0.01 0.0 -2.956282832746235e-11 0.0 0.010007163940960732 0.009970889607416671 0.0 -4.404022150900029e-11 0.0 0.01 0.0 -4.404022150900195e-11 0.0 0.010007020586380337 0.00997049509650445 0.0 -4.361934509335703e-11 0.0 0.01 0.0 -4.3619345093355375e-11 0.0 0.010006860102700021 0.009974816452104998 0.0 1.778441656778985e-18 0.0 0.01 0.0 1.778441656778985e-18 0.0 0.010009043001608426 0.009974788167002849 0.0 -6.550912250547943e-13 0.0 0.01 0.0 -6.550912250547685e-13 0.0 0.010009039091020834 0.009974703809355223 0.0 -2.748524510796867e-12 0.0 0.01 0.0 -2.748524510796867e-12 0.0 0.010009026356575064 0.009974567352985924 0.0 -7.619963761066011e-12 0.0 0.01 0.0 -7.619963761066011e-12 0.0 0.010008996024724798 0.009974389223825542 0.0 -1.7502688371752227e-11 0.0 0.01 0.0 -1.7502688371753054e-11 0.0 0.010008925485438547 0.009974173397657795 0.0 -2.8987117458924642e-11 0.0 0.01 0.0 -2.8987117458926297e-11 0.0 0.010008801155430711 0.009973920377922654 0.0 -2.5411074211477828e-11 0.0 0.01 0.0 -2.5411074211477e-11 0.0 0.010008631763251796 0.00997362521256697 0.0 1.157735884111531e-11 0.0 0.01 0.0 1.157735884111531e-11 0.0 0.010008470700772673 0.009980511120866899 0.0 4.22784388468236e-19 0.0 0.01 0.0 4.22784388468236e-19 0.0 0.010011186241844947 0.00998049173471128 0.0 -5.180040722387426e-13 0.0 0.01 0.0 -5.180040722387426e-13 0.0 0.01001117249584636 0.009980438050562196 0.0 -1.7472754531701531e-12 0.0 0.01 0.0 -1.7472754531700497e-12 0.0 0.010011132311700734 0.009980353052431128 0.0 -4.216214928231334e-12 0.0 0.01 0.0 -4.216214928231334e-12 0.0 0.010011064235544565 0.009980247677646256 0.0 -8.312252576389922e-12 0.0 0.01 0.0 -8.312252576389922e-12 0.0 0.010010954473819608 0.009980128389464939 0.0 -3.2402865997296773e-12 0.0 0.01 0.0 -3.2402865997296773e-12 0.0 0.010010803130963641 0.009979994195373595 0.0 3.776810239599211e-11 0.0 0.01 0.0 3.776810239599376e-11 0.0 0.010010635091750745 0.009979852054943483 0.0 1.300069545351235e-10 0.0 0.01 0.0 1.300069545351235e-10 0.0 0.010010516064914803 0.009990107199512868 0.0 2.6788110307252477e-19 0.0 0.01 0.0 2.6788110307252477e-19 0.0 0.010013733790831855 0.009990102214341125 0.0 7.676319381169293e-13 0.0 0.01 0.0 7.676319381169293e-13 0.0 0.010013706830163054 0.009990089751444423 0.0 4.366293935691929e-12 0.0 0.01 0.0 4.366293935691929e-12 0.0 0.01001363428344848 0.009990075793055482 0.0 1.1806572272957913e-11 0.0 0.01 0.0 1.1806572272957913e-11 0.0 0.010013522479246481 0.009990067816859504 0.0 2.5230033556455034e-11 0.0 0.01 0.0 2.5230033556455034e-11 0.0 0.010013375437571486 0.009990077787107466 0.0 6.059175079330698e-11 0.0 0.01 0.0 6.059175079330367e-11 0.0 0.01001320676680923 0.009990111187655644 0.0 1.469608311872191e-10 0.0 0.01 0.0 1.4696083118723233e-10 0.0 0.010013053815900964 0.009990181977984597 0.0 2.8649395811511943e-10 0.0 0.01 0.0 2.8649395811509296e-10 0.0 0.010012987156195037 0.010004107979939104 0.0 -4.21276911019807e-18 0.0 0.01 0.0 -4.21276911019807e-18 0.0 0.01001668375949015 0.010004121696858053 0.0 3.953160170022618e-12 0.0 0.01 0.0 3.953160170022618e-12 0.0 0.010016643508942775 0.010004162247203859 0.0 1.8064809699943087e-11 0.0 0.01 0.0 1.8064809699943087e-11 0.0 0.010016529644229413 0.01000423754199328 0.0 4.485591172578493e-11 0.0 0.01 0.0 4.485591172578493e-11 0.0 0.010016365788365381 0.01000435684566248 0.0 8.570209155355048e-11 0.0 0.01 0.0 8.570209155355048e-11 0.0 0.010016172950213165 0.010004530426856463 0.0 1.5185166018716947e-10 0.0 0.01 0.0 1.5185166018716947e-10 0.0 0.010015981077760017 0.010004771012212928 0.0 2.605159935466903e-10 0.0 0.01 0.0 2.6051599354663735e-10 0.0 0.010015832922993996 0.010005098646780656 0.0 3.921435196982398e-10 0.0 0.01 0.0 3.921435196981339e-10 0.0 0.010015788764198261 0.010021889060463071 0.0 1.1637412963497318e-16 0.0 0.01 0.0 1.1637412963497318e-16 0.0 0.010019937416980752 0.010021922479122833 0.0 8.2881478542083e-12 0.0 0.01 0.0 8.288147854214918e-12 0.0 0.010019876957339174 0.01002202470002028 0.0 3.603604189669738e-11 0.0 0.01 0.0 3.6036041896670913e-11 0.0 0.010019716357300012 0.010022206551229214 0.0 8.517335134731701e-11 0.0 0.01 0.0 8.517335134726407e-11 0.0 0.010019489427973833 0.010022471015684365 0.0 1.505557991791455e-10 0.0 0.01 0.0 1.5055579917919845e-10 0.0 0.010019238978665078 0.010022828936779613 0.0 2.265702594405218e-10 0.0 0.01 0.0 2.2657025944062769e-10 0.0 0.010019000817788908 0.01002329549994166 0.0 3.0485105793614426e-10 0.0 0.01 0.0 3.0485105793614426e-10 0.0 0.010018810240976396 0.010023898397842615 0.0 3.4696607966019834e-10 0.0 0.01 0.0 3.4696607966019834e-10 0.0 0.010018709626839997 0.010041211870010707 0.0 7.290804936430586e-18 0.0 0.01 0.0 7.290804936430586e-18 0.0 0.01002326257104228 0.010041270185598729 0.0 1.0959754613333157e-11 0.0 0.01 0.0 1.0959754613333157e-11 0.0 0.010023185385765694 0.01004144670781147 0.0 4.6426469756577295e-11 0.0 0.01 0.0 4.6426469756573986e-11 0.0 0.01002296854143535 0.010041741354094644 0.0 1.0612395881890014e-10 0.0 0.01 0.0 1.0612395881889352e-10 0.0 0.010022670611115635 0.010042160130577424 0.0 1.7626149847451686e-10 0.0 0.01 0.0 1.7626149847450362e-10 0.0 0.010022339284198179 0.010042709566196295 0.0 2.3170621400543237e-10 0.0 0.01 0.0 2.3170621400541914e-10 0.0 0.010022015338449052 0.01004339610765408 0.0 2.4139889739212294e-10 0.0 0.01 0.0 2.4139889739212294e-10 0.0 0.010021719506179331 0.010044242588508985 0.0 1.6309123441638016e-10 0.0 0.01 0.0 1.630912344163934e-10 0.0 0.01002146295153069 0.010058446433768674 0.0 9.173198313610118e-18 0.0 0.01 0.0 9.173198313610118e-18 0.0 0.01002635482158656 0.010058528914230378 0.0 8.831653998663427e-12 0.0 0.01 0.0 8.831653998663013e-12 0.0 0.010026252921689785 0.01005877982809705 0.0 3.7426306214279555e-11 0.0 0.01 0.0 3.742630621428121e-11 0.0 0.01002597586240695 0.010059195345300781 0.0 8.417280761018881e-11 0.0 0.01 0.0 8.417280761018881e-11 0.0 0.010025588582304642 0.010059769418805596 0.0 1.3260900294777693e-10 0.0 0.01 0.0 1.3260900294777693e-10 0.0 0.010025153185126296 0.010060500195352809 0.0 1.5188468305498176e-10 0.0 0.01 0.0 1.5188468305498176e-10 0.0 0.010024702078368907 0.010061375911529495 0.0 1.083194601754731e-10 0.0 0.01 0.0 1.0831946017547641e-10 0.0 0.010024240707765086 0.010062402029737141 0.0 -2.6008425816410215e-11 0.0 0.01 0.0 -2.600842581641187e-11 0.0 0.010023747423972097 0.01006993434038286 0.0 2.5292542734611487e-18 0.0 0.01 0.0 2.5292542734611487e-18 0.0 0.010028897730927602 0.010070041049889024 0.0 3.0406724300803555e-12 0.0 0.01 0.0 3.040672430080459e-12 0.0 0.010028773613386359 0.010070358696683488 0.0 1.387443533804564e-11 0.0 0.01 0.0 1.3874435338045226e-11 0.0 0.01002842544314083 0.01007087682007324 0.0 3.201990809879761e-11 0.0 0.01 0.0 3.201990809879761e-11 0.0 0.010027937440501358 0.010071585143337192 0.0 4.652771484495089e-11 0.0 0.01 0.0 4.652771484495254e-11 0.0 0.010027375201346304 0.010072455735742954 0.0 3.721650702761908e-11 0.0 0.01 0.0 3.721650702762073e-11 0.0 0.01002676824853899 0.010073472265972615 0.0 -1.452286325884593e-11 0.0 0.01 0.0 -1.4522863258845516e-11 0.0 0.010026102849259836 0.010074601480159782 0.0 -1.1500632845384019e-10 0.0 0.01 0.0 -1.1500632845384019e-10 0.0 0.010025357827833899 0.010074440228239988 0.0 -2.8810242247133422e-18 0.0 0.01 0.0 -2.8810242247133422e-18 0.0 0.010030702318245112 0.010074560527369268 0.0 -1.4328907336974834e-12 0.0 0.01 0.0 -1.4328907336974317e-12 0.0 0.010030550078007443 0.010074916541922036 0.0 -4.235505311979142e-12 0.0 0.01 0.0 -4.2355053119787285e-12 0.0 0.010030135678562993 0.010075492851125111 0.0 -7.1868496508628645e-12 0.0 0.01 0.0 -7.1868496508628645e-12 0.0 0.010029543509013854 0.010076268033012375 0.0 -1.365809047417064e-11 0.0 0.01 0.0 -1.365809047417064e-11 0.0 0.010028849465249194 0.010077211269021549 0.0 -3.012800999731353e-11 0.0 0.01 0.0 -3.01280099973127e-11 0.0 0.010028086133076916 0.010078283749843642 0.0 -6.012905869639875e-11 0.0 0.01 0.0 -6.012905869639875e-11 0.0 0.010027237832141841 0.010079421597559644 0.0 -9.839607860485516e-11 0.0 0.01 0.0 -9.839607860485516e-11 0.0 0.010026279983822283 0.010073557109978294 0.0 1.1268361194633625e-18 0.0 0.01 0.0 1.1268361194633625e-18 0.0 0.010031736393025804 0.010073678399740585 0.0 -2.0952853566975572e-12 0.0 0.01 0.0 -2.0952853566975572e-12 0.0 0.010031563865182423 0.010074039841610694 0.0 -7.426467549567015e-12 0.0 0.01 0.0 -7.426467549567222e-12 0.0 0.010031090695968787 0.010074621471029175 0.0 -1.4480249856286274e-11 0.0 0.01 0.0 -1.4480249856286687e-11 0.0 0.01003041010586119 0.01007540044067628 0.0 -2.267308609262109e-11 0.0 0.01 0.0 -2.267308609262109e-11 0.0 0.010029609037013675 0.010076343484192486 0.0 -3.177664121872241e-11 0.0 0.01 0.0 -3.177664121872241e-11 0.0 0.010028720911476389 0.01007740115562435 0.0 -3.9909597435367866e-11 0.0 0.01 0.0 -3.9909597435367866e-11 0.0 0.010027741009043668 0.010078490230318012 0.0 -4.202349127046408e-11 0.0 0.01 0.0 -4.202349127046573e-11 0.0 0.010026659935107771 0.010069796746290103 0.0 -1.8247558740157726e-18 0.0 0.01 0.0 -1.8247558740157726e-18 0.0 0.01003208293941982 0.010069911416151722 0.0 -6.684113935610354e-13 0.0 0.01 0.0 -6.684113935610354e-13 0.0 0.010031896107834379 0.010070255449242456 0.0 -2.425768366261563e-12 0.0 0.01 0.0 -2.425768366261563e-12 0.0 0.01003138443153545 0.010070810990579455 0.0 -4.743996248186012e-12 0.0 0.01 0.0 -4.743996248185805e-12 0.0 0.010030646659177347 0.010071554698911878 0.0 -7.061129396773206e-12 0.0 0.01 0.0 -7.061129396772999e-12 0.0 0.010029777478620786 0.010072460691935407 0.0 -8.660087757460458e-12 0.0 0.01 0.0 -8.660087757460458e-12 0.0 0.010028824349215723 0.010073478756974423 0.0 -8.520625539701932e-12 0.0 0.01 0.0 -8.520625539701932e-12 0.0 0.010027787242000492 0.01007452008633965 0.0 -5.210763827466954e-12 0.0 0.01 0.0 -5.210763827466954e-12 0.0 0.010026671275344384 0.010065002856772937 0.0 2.8828975696009172e-18 0.0 0.01 0.0 2.8828975696009172e-18 0.0 0.010031869454516815 0.01006510991940992 0.0 4.058422527949697e-13 0.0 0.01 0.0 4.058422527949697e-13 0.0 0.010031677738617493 0.010065428068548337 0.0 1.417714737008302e-12 0.0 0.01 0.0 1.417714737008302e-12 0.0 0.010031150298985849 0.010065948949930525 0.0 2.553646962191486e-12 0.0 0.01 0.0 2.553646962191486e-12 0.0 0.010030393858572736 0.010066653683517161 0.0 3.311328322684918e-12 0.0 0.01 0.0 3.3113283226850216e-12 0.0 0.010029509509618574 0.010067524528197066 0.0 3.3954916310839266e-12 0.0 0.01 0.0 3.395491631083823e-12 0.0 0.010028551010210211 0.010068519662356428 0.0 2.819610689455988e-12 0.0 0.01 0.0 2.819610689455988e-12 0.0 0.010027529767355197 0.010069561904837957 0.0 1.086205344732063e-12 0.0 0.01 0.0 1.086205344732063e-12 0.0 0.01002645470867486 0.010059695357343652 0.0 4.070467049497975e-19 0.0 0.01 0.0 4.070467049497975e-19 0.0 0.010031218836198485 0.010059795277075848 0.0 3.859277062048979e-13 0.0 0.01 0.0 3.859277062048979e-13 0.0 0.010031028570669497 0.010060093526932582 0.0 1.2944088251778673e-12 0.0 0.01 0.0 1.2944088251779707e-12 0.0 0.010030512637154883 0.010060587206806148 0.0 2.0414698707272403e-12 0.0 0.01 0.0 2.041469870727137e-12 0.0 0.010029776015629288 0.010061269986496734 0.0 1.8982591369167164e-12 0.0 0.01 0.0 1.89825913691682e-12 0.0 0.010028921384894867 0.010062130927988988 0.0 5.535944646035244e-13 0.0 0.01 0.0 5.535944646035244e-13 0.0 0.010028011306959513 0.010063141889362649 0.0 -1.910582252557508e-12 0.0 0.01 0.0 -1.9105822525574048e-12 0.0 0.01002705621099458 0.01006424123021363 0.0 -6.789242789548598e-12 0.0 0.01 0.0 -6.789242789548598e-12 0.0 0.01002607231150456 0.010053348187883483 0.0 5.389839200360411e-18 0.0 0.01 0.0 5.389839200360411e-18 0.0 0.010030225840002306 0.010053445429106272 0.0 -9.599818921611276e-14 0.0 0.01 0.0 -9.599818921611276e-14 0.0 0.01003004748718508 0.010053734222704006 0.0 -4.553633149790386e-13 0.0 0.01 0.0 -4.553633149790386e-13 0.0 0.010029558743276438 0.010054218531163242 0.0 -1.3559811812056058e-12 0.0 0.01 0.0 -1.3559811812056058e-12 0.0 0.010028870143249711 0.010054895999510163 0.0 -2.972407497110103e-12 0.0 0.01 0.0 -2.9724074971098964e-12 0.0 0.010028083208574567 0.010055772235731678 0.0 -4.937650099370511e-12 0.0 0.01 0.0 -4.937650099370511e-12 0.0 0.010027257542385364 0.0100568279173086 0.0 -7.134935949453537e-12 0.0 0.01 0.0 -7.134935949453537e-12 0.0 0.010026402043314264 0.010058020122015567 0.0 -1.1858311343135055e-11 0.0 0.01 0.0 -1.1858311343135055e-11 0.0 0.010025520714652379 0.010045220900401514 0.0 3.513975162229991e-18 0.0 0.01 0.0 3.513975162229991e-18 0.0 0.0100289563365857 0.010045317905978549 0.0 -2.616350257362009e-13 0.0 0.01 0.0 -2.616350257362009e-13 0.0 0.010028793332687802 0.010045603009168354 0.0 -9.32564732274585e-13 0.0 0.01 0.0 -9.32564732274585e-13 0.0 0.010028346625739348 0.010046084673291194 0.0 -1.9632797481592715e-12 0.0 0.01 0.0 -1.9632797481592715e-12 0.0 0.010027723262211548 0.01004676450431586 0.0 -3.037137931522899e-12 0.0 0.01 0.0 -3.0371379315231057e-12 0.0 0.010027024202739541 0.010047657889099521 0.0 -3.374771017850614e-12 0.0 0.01 0.0 -3.3747710178504073e-12 0.0 0.01002630114988869 0.010048757134606514 0.0 -2.979319817107259e-12 0.0 0.01 0.0 -2.979319817107259e-12 0.0 0.010025552204668565 0.01005004457786052 0.0 -4.482684798107998e-12 0.0 0.01 0.0 -4.482684798107998e-12 0.0 0.010024777837884314 0.010035230709701977 0.0 1.4633170395171568e-17 0.0 0.01 0.0 1.4633170395171568e-17 0.0 0.01002746478423211 0.010035320553825711 0.0 8.839505707037705e-14 0.0 0.01 0.0 8.839505707037705e-14 0.0 0.010027317581209111 0.010035596417651315 0.0 5.175004197934821e-13 0.0 0.01 0.0 5.175004197934821e-13 0.0 0.010026921324739051 0.01003606380583401 0.0 1.3451592972878891e-12 0.0 0.01 0.0 1.3451592972878891e-12 0.0 0.010026373014723882 0.010036728713347653 0.0 2.6722409744762534e-12 0.0 0.01 0.0 2.672240974476667e-12 0.0 0.01002576967022427 0.010037607590819907 0.0 5.081624364145279e-12 0.0 0.01 0.0 5.081624364146106e-12 0.0 0.010025149759407216 0.010038710925759899 0.0 8.79156335631413e-12 0.0 0.01 0.0 8.79156335631413e-12 0.0 0.010024510219034485 0.010040039496794686 0.0 1.2913410968881823e-11 0.0 0.01 0.0 1.2913410968883477e-11 0.0 0.01002382905376015 0.010024324313868994 0.0 1.2736461348159902e-16 0.0 0.01 0.0 1.2736461348159902e-16 0.0 0.010025809527007684 0.010024407418394773 0.0 5.470290887813191e-13 0.0 0.01 0.0 5.470290887813191e-13 0.0 0.010025680636623523 0.010024657298452372 0.0 2.2910910972278842e-12 0.0 0.01 0.0 2.2910910972278842e-12 0.0 0.010025334702882171 0.010025080842745795 0.0 5.056005596502552e-12 0.0 0.01 0.0 5.056005596449613e-12 0.0 0.010024864379113249 0.010025686531814081 0.0 8.25162775778909e-12 0.0 0.01 0.0 8.251627757775855e-12 0.0 0.010024357756896302 0.010026491600120278 0.0 1.1687790650605952e-11 0.0 0.01 0.0 1.1687790650599334e-11 0.0 0.01002383887364078 0.01002752240690698 0.0 1.596753807757818e-11 0.0 0.01 0.0 1.596753807757156e-11 0.0 0.010023292076126598 0.010028802662832605 0.0 2.397566565126016e-11 0.0 0.01 0.0 2.3975665651266777e-11 0.0 0.01002269517753133 0.010014020631690409 0.0 7.772390865848495e-18 0.0 0.01 0.0 7.772390865848495e-18 0.0 0.010024049378535033 0.010014087814155269 0.0 6.175148956302151e-13 0.0 0.01 0.0 6.175148956303185e-13 0.0 0.010023938735912096 0.010014296701009555 0.0 2.592137686480577e-12 0.0 0.01 0.0 2.592137686480577e-12 0.0 0.010023645099997192 0.010014650281840645 0.0 5.506523983768544e-12 0.0 0.01 0.0 5.506523983769371e-12 0.0 0.010023254212994083 0.01001515694041719 0.0 8.048233899568424e-12 0.0 0.01 0.0 8.048233899568424e-12 0.0 0.01002283729376398 0.010015837343929478 0.0 9.104186133090025e-12 0.0 0.01 0.0 9.104186133090025e-12 0.0 0.010022410057136588 0.0100167225029847 0.0 8.899871172808395e-12 0.0 0.01 0.0 8.899871172805086e-12 0.0 0.010021949506205134 0.010017868076383175 0.0 1.3169884649911183e-11 0.0 0.01 0.0 1.3169884649911183e-11 0.0 0.010021418718226715 0.01000552702883269 0.0 -7.104496487548267e-18 0.0 0.01 0.0 -7.104496487548267e-18 0.0 0.01002224983861078 0.01000558131919373 0.0 3.978985425020958e-13 0.0 0.01 0.0 3.978985425020958e-13 0.0 0.010022159892086754 0.010005741741355956 0.0 1.6688845362355561e-12 0.0 0.01 0.0 1.6688845362355561e-12 0.0 0.010021919509680191 0.010006016174802129 0.0 3.277208161202513e-12 0.0 0.01 0.0 3.277208161202513e-12 0.0 0.010021604965027424 0.010006411911623617 0.0 3.552081452594311e-12 0.0 0.01 0.0 3.552081452594311e-12 0.0 0.010021270322035158 0.010006946180716814 0.0 5.867046799269072e-13 0.0 0.01 0.0 5.867046799269072e-13 0.0 0.010020924391777123 0.01000766114498685 0.0 -6.599452424810677e-12 0.0 0.01 0.0 -6.599452424809023e-12 0.0 0.010020527886555192 0.01000862048411351 0.0 -1.2775070257893193e-11 0.0 0.01 0.0 -1.2775070257893193e-11 0.0 0.010020051347649024 0.009999309071613904 0.0 -5.9013039288484964e-18 0.0 0.01 0.0 -5.9013039288484964e-18 0.0 0.010020475817610933 0.00999935056327069 0.0 2.7890210148438283e-13 0.0 0.01 0.0 2.7890210148438283e-13 0.0 0.010020405035333345 0.009999471541893151 0.0 1.026852010339099e-12 0.0 0.01 0.0 1.026852010339099e-12 0.0 0.010020215937799051 0.009999677015648509 0.0 1.4759831623061668e-12 0.0 0.01 0.0 1.4759831623060635e-12 0.0 0.010019970313119018 0.00999997500009375 0.0 2.4442036258189663e-14 0.0 0.01 0.0 2.4442036258189663e-14 0.0 0.010019708008119858 0.010000385772321893 0.0 -5.056236535453868e-12 0.0 0.01 0.0 -5.056236535453868e-12 0.0 0.010019426562426062 0.010000949335168482 0.0 -1.5314208383076514e-11 0.0 0.01 0.0 -1.531420838307817e-11 0.0 0.010019076900698975 0.010001744606441569 0.0 -2.859779205592677e-11 0.0 0.01 0.0 -2.859779205592677e-11 0.0 0.010018631541096177 0.009995178489287894 0.0 -1.087451443880121e-18 0.0 0.01 0.0 -1.087451443880121e-18 0.0 0.010018775898079325 0.009995208446049895 0.0 4.182430718020016e-13 0.0 0.01 0.0 4.182430718020016e-13 0.0 0.010018722850813821 0.009995302811610767 0.0 1.219594945496322e-12 0.0 0.01 0.0 1.219594945496322e-12 0.0 0.010018581915110687 0.009995463089402438 0.0 1.1689088463314179e-12 0.0 0.01 0.0 1.1689088463314179e-12 0.0 0.010018395836801882 0.009995698776670675 0.0 -7.740036907716583e-13 0.0 0.01 0.0 -7.7400369077171e-13 0.0 0.010018187698804087 0.009996031863166766 0.0 -4.0168729146908994e-12 0.0 0.01 0.0 -4.016872914690693e-12 0.0 0.010017947149670409 0.009996503834331217 0.0 -7.947719760705268e-12 0.0 0.01 0.0 -7.947719760705268e-12 0.0 0.010017626595239224 0.009997193681755487 0.0 -1.3664244706169648e-11 0.0 0.01 0.0 -1.3664244706169648e-11 0.0 0.010017194144342953 0.009992605210531547 0.0 -3.692017953492776e-18 0.0 0.01 0.0 -3.692017953492776e-18 0.0 0.010017180423839988 0.009992632150786983 0.0 5.126795137198041e-13 0.0 0.01 0.0 5.126795137197783e-13 0.0 0.010017143082243817 0.009992711975045336 0.0 1.0821710738335766e-12 0.0 0.01 0.0 1.082171073833525e-12 0.0 0.010017038548098529 0.009992851173172206 0.0 -1.570294714796739e-14 0.0 0.01 0.0 -1.570294714796739e-14 0.0 0.010016897231177869 0.009993065220351137 0.0 -2.1075192805404524e-12 0.0 0.01 0.0 -2.107519280540659e-12 0.0 0.010016724462784307 0.009993378083279363 0.0 2.813698653698417e-13 0.0 0.01 0.0 2.813698653698417e-13 0.0 0.010016502208740447 0.009993830713713688 0.0 1.3541548004727468e-11 0.0 0.01 0.0 1.3541548004727468e-11 0.0 0.010016189630926455 0.009994495049011601 0.0 3.475780327173312e-11 0.0 0.01 0.0 3.475780327172981e-11 0.0 0.010015759325325552 0.009991046539040543 0.0 1.786081030167835e-18 0.0 0.01 0.0 1.786081030167835e-18 0.0 0.01001569848916032 0.009991071970704977 0.0 3.6194945610148955e-14 0.0 0.01 0.0 3.6194945610148955e-14 0.0 0.010015670055791886 0.00999115275492728 0.0 -1.1294456833154311e-12 0.0 0.01 0.0 -1.1294456833153794e-12 0.0 0.010015591086646625 0.00999129587746552 0.0 -4.787650601064192e-12 0.0 0.01 0.0 -4.787650601064605e-12 0.0 0.010015475801076765 0.009991523789115223 0.0 -6.765251445163633e-12 0.0 0.01 0.0 -6.765251445163633e-12 0.0 0.010015316366940101 0.00999186394010297 0.0 5.357181578042565e-12 0.0 0.01 0.0 5.357181578042565e-12 0.0 0.010015091695273915 0.009992362758037455 0.0 4.5179040506570274e-11 0.0 0.01 0.0 4.5179040506566965e-11 0.0 0.010014770962865426 0.00999307669646251 0.0 1.0754318058875441e-10 0.0 0.01 0.0 1.0754318058875441e-10 0.0 0.010014341844381583 0.009990128635836405 0.0 -1.0562763197738232e-18 0.0 0.01 0.0 -1.0562763197738232e-18 0.0 0.010014323666443115 0.009990156553115796 0.0 -1.198819744338503e-12 0.0 0.01 0.0 -1.198819744338503e-12 0.0 0.010014301119911122 0.009990244793198532 0.0 -5.5404542451625604e-12 0.0 0.01 0.0 -5.540454245162147e-12 0.0 0.010014232979090808 0.009990412804791949 0.0 -1.1816105674478507e-11 0.0 0.01 0.0 -1.1816105674480162e-11 0.0 0.010014119698683108 0.009990684532875547 0.0 -1.0025415438620959e-11 0.0 0.01 0.0 -1.0025415438621786e-11 0.0 0.010013949534231638 0.009991094410570167 0.0 1.9516717552455926e-11 0.0 0.01 0.0 1.951671755245758e-11 0.0 0.010013707332221932 0.009991685381440503 0.0 9.342321407699488e-11 0.0 0.01 0.0 9.342321407698826e-11 0.0 0.010013379353243984 0.009992508426966964 0.0 2.9527324001078386e-10 0.0 0.01 0.0 2.952732400107574e-10 0.0 0.010012968533879561 0.009989676009752235 0.0 1.0403615530784003e-18 0.0 0.01 0.0 1.0403615530784003e-18 0.0 0.01001303228185942 0.009989709904728722 0.0 -2.5146705250493208e-12 0.0 0.01 0.0 -2.5146705250493208e-12 0.0 0.010013008740140808 0.009989822059683974 0.0 -8.98159887308656e-12 0.0 0.01 0.0 -8.981598873087388e-12 0.0 0.010012935706654605 0.00999003142570777 0.0 -1.2830621773042739e-11 0.0 0.01 0.0 -1.2830621773041912e-11 0.0 0.010012809219448898 0.009990369430067411 0.0 3.105588149047518e-12 0.0 0.01 0.0 3.1055881490471045e-12 0.0 0.010012620551608157 0.009990880988638618 0.0 6.193180057263953e-11 0.0 0.01 0.0 6.193180057263953e-11 0.0 0.010012363239718424 0.009991604085556135 0.0 1.7268743344732657e-10 0.0 0.01 0.0 1.7268743344732657e-10 0.0 0.010012043672621356 0.009992552328442258 0.0 2.149663312842723e-09 0.0 0.01 0.0 2.149663312842723e-09 0.0 0.01001168841095271 0.009989655573241961 0.0 7.008909947848102e-20 0.0 0.01 0.0 7.008909947848102e-20 0.0 0.010011794784773403 0.009989701430952251 0.0 -2.1183856505110992e-12 0.0 0.01 0.0 -2.1183856505110992e-12 0.0 0.010011768793121005 0.009989848977435335 0.0 -4.473798485611856e-12 0.0 0.01 0.0 -4.4737984856114426e-12 0.0 0.010011684999017645 0.009990119662474874 0.0 6.087502416563033e-12 0.0 0.01 0.0 6.087502416563033e-12 0.0 0.010011542905083763 0.009990561878554929 0.0 5.083447753300374e-11 0.0 0.01 0.0 5.083447753300043e-11 0.0 0.010011339057015166 0.009991206612164152 0.0 1.4680044479335598e-10 0.0 0.01 0.0 1.4680044479335598e-10 0.0 0.010011090221710012 0.009992076926222145 0.0 9.515209234391043e-10 0.0 0.01 0.0 9.515209234389984e-10 0.0 0.010010815370568414 0.009993097652967192 0.0 1.302017732567014e-08 0.0 0.01 0.0 1.302017732567014e-08 0.0 0.010010571941316389 0.009990090748474439 0.0 -1.0183120501739208e-19 0.0 0.01 0.0 -1.0183120501739208e-19 0.0 0.010010597873463803 0.00999015356196752 0.0 2.2381369362307215e-12 0.0 0.01 0.0 2.2381369362307215e-12 0.0 0.010010567025737358 0.009990354971951445 0.0 1.50028125224132e-11 0.0 0.01 0.0 1.50028125224132e-11 0.0 0.010010476891819437 0.009990721429774559 0.0 5.4148348541348214e-11 0.0 0.01 0.0 5.4148348541348214e-11 0.0 0.010010330435664745 0.009991292386598731 0.0 1.361175784007192e-10 0.0 0.01 0.0 1.3611757840073243e-10 0.0 0.010010142860800745 0.00999208740130068 0.0 8.72409318477755e-10 0.0 0.01 0.0 8.72409318477755e-10 0.0 0.010009941555552146 0.00999305224741702 0.0 9.57460487816699e-09 0.0 0.01 0.0 9.57460487816699e-09 0.0 0.010009766238318117 0.00999400190131778 0.0 5.29370663942527e-08 0.0 0.01 0.0 5.293706639424592e-08 0.0 0.01000968199343909 0.009991050528308397 0.0 2.0567602349752773e-18 0.0 0.01 0.0 2.0567602349752773e-18 0.0 0.010009449426895104 0.009991139290754146 0.0 1.0711420744485273e-11 0.0 0.01 0.0 1.0711420744485273e-11 0.0 0.010009420043885515 0.009991409581984528 0.0 4.7744185661528196e-11 0.0 0.01 0.0 4.774418566152489e-11 0.0 0.010009340219677794 0.009991891373148053 0.0 1.847035195714716e-10 0.0 0.01 0.0 1.8470351957148483e-10 0.0 0.010009219785008943 0.009992587250482722 0.0 1.657522058777721e-09 0.0 0.01 0.0 1.6575220587775093e-09 0.0 0.010009087071239726 0.009993452935245447 0.0 1.1439940594591767e-08 0.0 0.01 0.0 1.1439940594592614e-08 0.0 0.010008983791811796 0.009994344801197633 0.0 5.0775446219566696e-08 0.0 0.01 0.0 5.077544621955992e-08 0.0 0.010008959777659148 0.009995044689466133 0.0 1.584349905699254e-07 0.0 0.01 0.0 1.584349905699254e-07 0.0 0.010009038593432653 0.0099926062083149 0.0 2.5659981788658743e-18 0.0 0.01 0.0 2.5659981788658743e-18 0.0 0.010008394859229296 0.009992715467400317 0.0 4.181163364994304e-11 0.0 0.01 0.0 4.181163364994635e-11 0.0 0.010008377716171548 0.009993049253653328 0.0 6.316446582015706e-10 0.0 0.01 0.0 6.316446582015706e-10 0.0 0.010008328242402428 0.009993591665283212 0.0 4.101716988317164e-09 0.0 0.01 0.0 4.101716988318011e-09 0.0 0.010008271000114352 0.009994292390293856 0.0 1.84720782734693e-08 0.0 0.01 0.0 1.8472078273467605e-08 0.0 0.010008240625055752 0.00999504268925469 0.0 6.202495343772692e-08 0.0 0.01 0.0 6.20249534377337e-08 0.0 0.010008272955532542 0.009995661828795974 0.0 1.6738482479103844e-07 0.0 0.01 0.0 1.6738482479103844e-07 0.0 0.01000839436217531 0.009995949482804863 0.0 3.694407843301607e-07 0.0 0.01 0.0 3.694407843302149e-07 0.0 0.01000859458779458 0.0099946587823405 0.0 2.147928965469263e-18 0.0 0.01 0.0 2.147928965469263e-18 0.0 0.01000750990132968 0.009994771603280333 0.0 9.568744517827235e-10 0.0 0.01 0.0 9.568744517827235e-10 0.0 0.010007509450315253 0.009995091616208597 0.0 6.999518399876044e-09 0.0 0.01 0.0 6.999518399876891e-09 0.0 0.010007513810132509 0.009995561956299717 0.0 2.7771494862638798e-08 0.0 0.01 0.0 2.777149486263541e-08 0.0 0.01000754417873104 0.009996086299758337 0.0 8.170520650224483e-08 0.0 0.01 0.0 8.170520650224483e-08 0.0 0.01000762686750152 0.009996515827495953 0.0 1.9547508474683224e-07 0.0 0.01 0.0 1.9547508474683224e-07 0.0 0.010007783032641849 0.009996685172691151 0.0 3.979505833459412e-07 0.0 0.01 0.0 3.979505833459954e-07 0.0 0.010008003271325021 0.009996492419423922 0.0 6.981130576133327e-07 0.0 0.01 0.0 6.981130576132243e-07 0.0 0.01000825688816116 0.00999687346689288 0.0 8.184686290994921e-18 0.0 0.01 0.0 8.184686290994921e-18 0.0 0.010006872327847631 0.009996950395584868 0.0 5.389757917168959e-09 0.0 0.01 0.0 5.389757917169806e-09 0.0 0.010006887459039356 0.009997161708966418 0.0 2.881931040890558e-08 0.0 0.01 0.0 2.881931040890558e-08 0.0 0.01000694618084147 0.009997416003117815 0.0 9.007257407886134e-08 0.0 0.01 0.0 9.007257407884779e-08 0.0 0.010007054308691034 0.009997587380332226 0.0 2.151501382163096e-07 0.0 0.01 0.0 2.151501382163367e-07 0.0 0.010007219267086647 0.009997537936778315 0.0 4.260324355216476e-07 0.0 0.01 0.0 4.2603243552170184e-07 0.0 0.010007437015341061 0.009997205251372309 0.0 7.273919626697408e-07 0.0 0.01 0.0 7.273919626696324e-07 0.0 0.010007698409942811 0.009996796219882946 0.0 1.0943266568364408e-06 0.0 0.01 0.0 1.0943266568364408e-06 0.0 0.010008028387236464 0.009998798216677192 0.0 2.155312581499276e-18 0.0 0.01 0.0 2.155312581499276e-18 0.0 0.010006509751015974 0.009998814210979937 0.0 1.4665197461478696e-08 0.0 0.01 0.0 1.4665197461478696e-08 0.0 0.010006538657552085 0.009998827207066355 0.0 6.918597834770096e-08 0.0 0.01 0.0 6.918597834770096e-08 0.0 0.010006626230943394 0.00999874824041451 0.0 1.88732676612935e-07 0.0 0.01 0.0 1.88732676612935e-07 0.0 0.0100067676192408 0.009998471874036222 0.0 3.97507336224697e-07 0.0 0.01 0.0 3.9750733622480544e-07 0.0 0.01000695747790765 0.009998010167588557 0.0 7.002269702364051e-07 0.0 0.01 0.0 7.002269702364051e-07 0.0 0.01000721442310782 0.009997691972233956 0.0 1.0739578768757807e-06 0.0 0.01 0.0 1.0739578768755639e-06 0.0 0.010007597672642265 0.009998019400916304 0.0 1.4434178818216545e-06 0.0 0.01 0.0 1.4434178818214377e-06 0.0 0.010008126406975792 0.009999967500158436 0.0 -3.1268275000607944e-17 0.0 0.01 0.0 -3.1268275000607944e-17 0.0 0.01000640018912397 0.009999915001181628 0.0 2.5556876636336965e-08 0.0 0.01 0.0 2.5556876636336965e-08 0.0 0.010006433453174524 0.009999742011901448 0.0 1.1310656346133312e-07 0.0 0.01 0.0 1.1310656346136022e-07 0.0 0.010006528840217483 0.009999443558795638 0.0 2.8702312868301603e-07 0.0 0.01 0.0 2.8702312868301603e-07 0.0 0.010006683957662594 0.009999159654026717 0.0 5.664001753487172e-07 0.0 0.01 0.0 5.664001753486088e-07 0.0 0.010006942821766434 0.009999198726534653 0.0 9.320879318609407e-07 0.0 0.01 0.0 9.320879318607238e-07 0.0 0.010007346116970885 0.009999754753708751 0.0 1.277827864888453e-06 0.0 0.01 0.0 1.277827864888453e-06 0.0 0.01000784737195426 0.010000704962092152 0.0 1.3854625716121054e-06 0.0 0.01 0.0 1.3854625716118885e-06 0.0 0.010008305071950493 0.010001520346647818 0.0 -5.281315350430671e-18 0.0 0.01 0.0 -5.281315350430671e-18 0.0 0.010006464763575917 0.010001513993913668 0.0 3.231373172910186e-08 0.0 0.01 0.0 3.231373172910186e-08 0.0 0.010006507346483397 0.010001493037234969 0.0 1.3979158502427447e-07 0.0 0.01 0.0 1.3979158502427447e-07 0.0 0.010006639409340264 0.010001512560523 0.0 3.409722073483045e-07 0.0 0.01 0.0 3.409722073484129e-07 0.0 0.01000687966035618 0.010001584433500134 0.0 6.169511716229599e-07 0.0 0.01 0.0 6.169511716231767e-07 0.0 0.010007227635234614 0.010001796495569731 0.0 8.631071670829691e-07 0.0 0.01 0.0 8.631071670827523e-07 0.0 0.010007619661536533 0.010002018326435633 0.0 8.783977121110207e-07 0.0 0.01 0.0 8.783977121110207e-07 0.0 0.010007873654876967 0.010002332401073736 0.0 4.856134054514799e-07 0.0 0.01 0.0 4.856134054514799e-07 0.0 0.010008037565280216 0.010003966208374116 0.0 2.8805587890509554e-17 0.0 0.01 0.0 2.8805587890509554e-17 0.0 0.010006614456872953 0.010003857681183939 0.0 2.2522707513334675e-08 0.0 0.01 0.0 2.2522707513334675e-08 0.0 0.010006657993509634 0.010003535575438097 0.0 9.237350545197517e-08 0.0 0.01 0.0 9.237350545202938e-08 0.0 0.010006798427791137 0.010003073222009677 0.0 1.98264057330662e-07 0.0 0.01 0.0 1.98264057330662e-07 0.0 0.010007041135545786 0.010002507304000324 0.0 2.750530140242617e-07 0.0 0.01 0.0 2.750530140242617e-07 0.0 0.010007327407095309 0.010002230251526965 0.0 1.9415722795186824e-07 0.0 0.01 0.0 1.9415722795181403e-07 0.0 0.010007577459632239 0.010001508145256065 0.0 -1.6643659939792263e-07 0.0 0.01 0.0 -1.6643659939786842e-07 0.0 0.01000751822420913 0.01000162394549421 0.0 1.0134147969540853e-17 0.0 0.01 0.0 1.0134147969540853e-17 0.0 0.01000677688270142 0.010001488132117254 0.0 -4.143659677858201e-09 0.0 0.01 0.0 -4.143659677858201e-09 0.0 0.010006802334475947 0.010001132492463718 0.0 -2.7327703845503152e-08 0.0 0.01 0.0 -2.7327703845496376e-08 0.0 0.01000689532538744 0.010000660717149135 0.0 -1.0566316967715902e-07 0.0 0.01 0.0 -1.0566316967715902e-07 0.0 0.010007081266225676 0.010000076664200004 0.0 -2.981241054607472e-07 0.0 0.01 0.0 -2.981241054607472e-07 0.0 0.010007332770856423 0.009998728742455458 0.0 6.304464992932368e-15 0.0 0.01 0.0 6.304464992932368e-15 0.0 0.010000046400322945 0.00999876822762686 0.0 6.0477512207407415e-15 0.0 0.01 0.0 6.0477512207407415e-15 0.0 0.010000048850357952 0.009998824707229438 0.0 -7.482224929216237e-15 0.0 0.01 0.0 -7.482224929216237e-15 0.0 0.010000042500270938 0.009998908178837055 0.0 -1.831513291642813e-14 0.0 0.01 0.0 -1.831513291642813e-14 0.0 0.01000002980013321 0.009999022643302593 0.0 2.2181882765446064e-14 0.0 0.01 0.0 2.2181882765420215e-14 0.0 0.01000000635000605 0.009999166604193865 0.0 1.7685864832439112e-13 0.0 0.01 0.0 1.768586483248047e-13 0.0 0.009999977000079352 0.009999337065928066 0.0 4.530308246701066e-13 0.0 0.01 0.0 4.5303082467176097e-13 0.0 0.009999947000421346 0.009998490841702573 0.0 -2.974298228035578e-14 0.0 0.01 0.0 -2.974298228030408e-14 0.0 0.010000062000576607 0.00999853132361492 0.0 -6.395148809514635e-14 0.0 0.01 0.0 -6.395148809514635e-14 0.0 0.010000063000595357 0.009998593796666797 0.0 -1.2876992118434874e-13 0.0 0.01 0.0 -1.2876992118445214e-13 0.0 0.01000005760049767 0.009998688757948456 0.0 -2.098853322318682e-13 0.0 0.01 0.0 -2.098853322318682e-13 0.0 0.010000041000252154 0.009998820708642024 0.0 -2.390201547416792e-13 0.0 0.01 0.0 -2.390201547416792e-13 0.0 0.010000010250015762 0.009998989653140744 0.0 -1.0860395743458668e-13 0.0 0.01 0.0 -1.0860395743500027e-13 0.0 0.0099999720001176 0.009999189098644817 0.0 1.947228347195368e-13 0.0 0.01 0.0 1.947228347195368e-13 0.0 0.009999933500663331 0.00999940155372498 0.0 5.455701469476819e-13 0.0 0.01 0.0 5.455701469460275e-13 0.0 0.009999905001353731 0.00999828344208684 0.0 -5.878902820167914e-14 0.0 0.01 0.0 -5.878902820173084e-14 0.0 0.010000074700837023 0.009998322422234515 0.0 -1.11558850990019e-13 0.0 0.01 0.0 -1.1155885099012239e-13 0.0 0.010000076150869832 0.00999838788991865 0.0 -1.9177385425158183e-13 0.0 0.01 0.0 -1.9177385425158183e-13 0.0 0.010000069800730817 0.009998487843061959 0.0 -2.7897732892392e-13 0.0 0.01 0.0 -2.789773289237132e-13 0.0 0.010000050300379516 0.009998632280649612 0.0 -2.955321449052097e-13 0.0 0.01 0.0 -2.955321449060369e-13 0.0 0.010000015150034427 0.009998822208111744 0.0 -1.3917013731630954e-13 0.0 0.01 0.0 -1.3917013731630954e-13 0.0 0.009999969500139538 0.009999050635211141 0.0 1.9183608463497622e-13 0.0 0.01 0.0 1.918360846358034e-13 0.0 0.009999921000936137 0.00999929457465076 0.0 4.872856021552966e-13 0.0 0.01 0.0 4.872856021552966e-13 0.0 0.009999885001983712 0.00999807705479998 0.0 -6.48406996402705e-14 0.0 0.01 0.0 -6.48406996403222e-14 0.0 0.010000084001058415 0.009998114533381742 0.0 -1.0142217409332869e-13 0.0 0.01 0.0 -1.0142217409332869e-13 0.0 0.010000086451121055 0.009998177498347936 0.0 -1.2011650680119017e-13 0.0 0.01 0.0 -1.2011650680139696e-13 0.0 0.010000080550973256 0.0099982814431172 0.0 -7.921363773913285e-14 0.0 0.01 0.0 -7.921363773908115e-14 0.0 0.010000059100523928 0.009998436366818783 0.0 8.790922081699988e-14 0.0 0.01 0.0 8.790922081710328e-14 0.0 0.01000002000006 0.009998646274935357 0.0 4.2496155895013293e-13 0.0 0.01 0.0 4.249615589505465e-13 0.0 0.009999968500148839 0.009998902680642893 0.0 2.5916896688489634e-12 0.0 0.01 0.0 2.591689668852272e-12 0.0 0.00999991350112232 0.009999182100354921 0.0 7.887149852459498e-12 0.0 0.01 0.0 7.887149852446263e-12 0.0 0.009999869502554486 0.009997852192159993 0.0 -4.883919083302084e-14 0.0 0.01 0.0 -4.883919083302084e-14 0.0 0.010000089851210973 0.009997881673286373 0.0 -2.6910429895030073e-14 0.0 0.01 0.0 -2.6910429895030073e-14 0.0 0.010000094751346658 0.009997943634469838 0.0 1.1698994937285276e-13 0.0 0.01 0.0 1.1698994937285276e-13 0.0 0.01000008690113276 0.009998047571945185 0.0 4.771743252298053e-13 0.0 0.01 0.0 4.771743252298053e-13 0.0 0.010000066400661351 0.009998210980203322 0.0 1.6593927645759783e-11 0.0 0.01 0.0 1.6593927645773018e-11 0.0 0.010000025400096776 0.009998439365413088 0.0 1.4663898136347058e-10 0.0 0.01 0.0 1.4663898136347058e-10 0.0 0.00999997050013054 0.009998722744748858 0.0 4.216635954933288e-10 0.0 0.01 0.0 4.216635954929053e-10 0.0 0.009999908001269608 0.009999041137930193 0.0 7.523463061564491e-10 0.0 0.01 0.0 7.523463061564491e-10 0.0 0.009999858503003351 0.009997580878105837 0.0 -1.3712885823148186e-14 0.0 0.01 0.0 -1.3712885823148186e-14 0.0 0.01000009375131838 0.009997603361856561 0.0 1.0575104821852582e-13 0.0 0.01 0.0 1.0575104821852582e-13 0.0 0.010000098151445036 0.009997659322072527 0.0 5.202060873829895e-13 0.0 0.01 0.0 5.202060873834031e-13 0.0 0.010000092751290402 0.009997765749004751 0.0 6.025304004007439e-11 0.0 0.01 0.0 6.025304004007439e-11 0.0 0.010000071800773298 0.009997932141582698 0.0 5.367880207267626e-10 0.0 0.01 0.0 5.367880207267626e-10 0.0 0.010000031250146526 0.009998173000811475 0.0 1.951726342893921e-09 0.0 0.01 0.0 1.951726342893921e-09 0.0 0.009999973000109923 0.00999848384488136 0.0 4.238292878842729e-09 0.0 0.01 0.0 4.238292878842729e-09 0.0 0.009999905501342209 0.009998836703027203 0.0 6.699166098958031e-09 0.0 0.01 0.0 6.699166098985136e-09 0.0 0.009999850503359187 0.009997256129736908 0.0 3.1594544366916256e-14 0.0 0.01 0.0 3.1594544366916256e-14 0.0 0.010000099101473148 0.009997271117426583 0.0 2.931541049466319e-13 0.0 0.01 0.0 2.931541049466319e-13 0.0 0.010000102551577501 0.009997320577280774 0.0 4.748769069093451e-11 0.0 0.01 0.0 4.748769069096098e-11 0.0 0.0100000986514598 0.009997418000352776 0.0 6.733489642188311e-10 0.0 0.01 0.0 6.733489642188311e-10 0.0 0.010000079100938598 0.009997580378470367 0.0 3.381125326815671e-09 0.0 0.01 0.0 3.381125326815671e-09 0.0 0.010000038100219455 0.009997815715887317 0.0 9.7501375924904e-09 0.0 0.01 0.0 9.7501375924904e-09 0.0 0.009999977500090206 0.009998128525550173 0.0 1.941286233657748e-08 0.0 0.01 0.0 1.9412862336604586e-08 0.0 0.009999905001410271 0.009998509833276542 0.0 2.837495249551872e-08 0.0 0.01 0.0 2.8374952495491615e-08 0.0 0.009999843503794533 0.009996871968299719 0.0 7.036604945991808e-14 0.0 0.01 0.0 7.036604945986638e-14 0.0 0.010000106951715777 0.009996875964549649 0.0 8.294595842365659e-12 0.0 0.01 0.0 8.294595842368968e-12 0.0 0.010000110351826602 0.009996913429625857 0.0 3.607656819103397e-10 0.0 0.01 0.0 3.607656819103397e-10 0.0 0.010000106951715795 0.009996993356530775 0.0 2.8640043762612265e-09 0.0 0.01 0.0 2.8640043762612265e-09 0.0 0.010000089351198765 0.009997124740563164 0.0 1.1561398166117529e-08 0.0 0.01 0.0 1.1561398166110752e-08 0.0 0.010000048350370718 0.009997321077018796 0.0 3.0529209138897666e-08 0.0 0.01 0.0 3.052920913888411e-08 0.0 0.00999998250018579 0.009997599864887251 0.0 5.848191607756492e-08 0.0 0.01 0.0 5.848191607751071e-08 0.0 0.00999990000201316 0.009997983611077574 0.0 8.324035452117679e-08 0.0 0.01 0.0 8.324035452117679e-08 0.0 0.009999832505247937 0.009996429413274279 0.0 1.0006259816152219e-13 0.0 0.01 0.0 1.0006259816152219e-13 0.0 0.010000121602218031 0.009996420922386843 0.0 6.928454613229805e-11 0.0 0.01 0.0 6.928454613229805e-11 0.0 0.010000126002381452 0.00999643590632067 0.0 1.2159361911337077e-09 0.0 0.01 0.0 1.2159361911341312e-09 0.0 0.010000127452436799 0.009996478860645369 0.0 7.524812496864593e-09 0.0 0.01 0.0 7.524812496861205e-09 0.0 0.010000111801883416 0.009996554281877712 0.0 2.7450363051666248e-08 0.0 0.01 0.0 2.7450363051666248e-08 0.0 0.010000067850803636 0.009996665669142668 0.0 7.004561229602196e-08 0.0 0.01 0.0 7.004561229604907e-08 0.0 0.009999992500744723 0.009996850491203413 0.0 1.3329698524095846e-07 0.0 0.01 0.0 1.3329698524090425e-07 0.0 0.009999895004320044 0.009997181197783608 0.0 1.912129338443565e-07 0.0 0.01 0.0 1.912129338443565e-07 0.0 0.009999818010454836 0.009995920497709383 0.0 7.603741679787483e-13 0.0 0.01 0.0 7.603741679783347e-13 0.0 0.01000015040339311 0.009995893031464758 0.0 2.0639540785697734e-10 0.0 0.01 0.0 2.0639540785697734e-10 0.0 0.010000159203801802 0.00999588154564878 0.0 2.591739226801099e-09 0.0 0.01 0.0 2.591739226801946e-09 0.0 0.010000165054087344 0.009995875553093588 0.0 1.4204125885618093e-08 0.0 0.01 0.0 1.4204125885618093e-08 0.0 0.010000152853534837 0.009995870559617825 0.0 4.94431308898372e-08 0.0 0.01 0.0 4.94431308898372e-08 0.0 0.010000106952082673 0.009995861572757342 0.0 1.2515235833592507e-07 0.0 0.01 0.0 1.2515235833592507e-07 0.0 0.01000001125236975 0.009995887546956916 0.0 2.410391047020068e-07 0.0 0.01 0.0 2.410391047020068e-07 0.0 0.009999883510755524 0.009996082821557329 0.0 3.530012368493018e-07 0.0 0.01 0.0 3.530012368491934e-07 0.0 0.009999778526060172 0.009995335765293411 0.0 2.985508520230404e-12 0.0 0.01 0.0 2.985508520229577e-12 0.0 0.010000199705982217 0.009995288332065425 0.0 3.601942255969025e-10 0.0 0.01 0.0 3.601942255967966e-10 0.0 0.01000021730708317 0.009995245393096309 0.0 3.939790975947762e-09 0.0 0.01 0.0 3.939790975947762e-09 0.0 0.010000234358240637 0.00999519196986 0.0 2.04205035348617e-08 0.0 0.01 0.0 2.04205035348617e-08 0.0 0.01000023045802898 0.00999510509709014 0.0 6.980661356958636e-08 0.0 0.01 0.0 6.980661356961347e-08 0.0 0.010000174805314817 0.009994972298938035 0.0 1.7741960817852084e-07 0.0 0.01 0.0 1.7741960817852084e-07 0.0 0.01000005125511882 0.009994827034798627 0.0 3.470608101159914e-07 0.0 0.01 0.0 3.470608101160998e-07 0.0 0.009999862020936603 0.009994828554121359 0.0 5.145815292000814e-07 0.0 0.01 0.0 5.145815292005151e-07 0.0 0.009999687054440699 0.009994671761546154 0.0 3.3810199885340744e-12 0.0 0.01 0.0 3.381019988533247e-12 0.0 0.010000278311618172 0.009994603870876088 0.0 4.1082591663567275e-10 0.0 0.01 0.0 4.1082591663577863e-10 0.0 0.010000307164151918 0.0099945314889678 0.0 4.433204200325062e-09 0.0 0.01 0.0 4.433204200324215e-09 0.0 0.010000341817528034 0.009994436646160027 0.0 2.2776085116799473e-08 0.0 0.01 0.0 2.2776085116813026e-08 0.0 0.010000351568617068 0.0099942953860223 0.0 7.798875902403067e-08 0.0 0.01 0.0 7.798875902397646e-08 0.0 0.010000295914047212 0.00999408974981975 0.0 2.003281002397445e-07 0.0 0.01 0.0 2.003281002396903e-07 0.0 0.010000132308650028 0.009993841717017114 0.0 3.969540024063162e-07 0.0 0.01 0.0 3.969540024063162e-07 0.0 0.009999873026074494 0.00999375141522132 0.0 5.973530433996035e-07 0.0 0.01 0.0 5.973530433996035e-07 0.0 0.009999670569853283 0.0099939215466344 0.0 9.450416985869667e-13 0.0 0.01 0.0 9.450416985869667e-13 0.0 0.010000385272264066 0.009993831212788918 0.0 3.032066918892865e-10 0.0 0.01 0.0 3.0320669188923355e-10 0.0 0.010000438978903696 0.00999373289641699 0.0 3.6712302429914062e-09 0.0 0.01 0.0 3.6712302429914062e-09 0.0 0.010000494686706843 0.009993615619314182 0.0 1.9635742271253032e-08 0.0 0.01 0.0 1.9635742271259808e-08 0.0 0.010000526891697175 0.009993454932009552 0.0 6.874954516161507e-08 0.0 0.01 0.0 6.874954516162862e-08 0.0 0.010000487336331696 0.009993236373071514 0.0 1.8022300223865216e-07 0.0 0.01 0.0 1.8022300223870637e-07 0.0 0.010000338422054653 0.009992991395004527 0.0 3.650989826642966e-07 0.0 0.01 0.0 3.650989826642966e-07 0.0 0.010000167524221957 0.009992911592250268 0.0 5.668777906659133e-07 0.0 0.01 0.0 5.668777906659133e-07 0.0 0.01000026910910727 0.00999307819334951 0.0 -1.0101665641739199e-13 0.0 0.01 0.0 -1.0101665641739199e-13 0.0 0.010000524941331619 0.009992966926582074 0.0 1.26736271673331e-10 0.0 0.01 0.0 1.26736271673331e-10 0.0 0.010000600154023407 0.009992849177459717 0.0 2.1312028730265348e-09 0.0 0.01 0.0 2.1312028730261112e-09 0.0 0.010000687070804136 0.009992718959783334 0.0 1.2751078176099736e-08 0.0 0.01 0.0 1.2751078176096348e-08 0.0 0.010000753985289906 0.009992564800888493 0.0 4.7022533867358387e-08 0.0 0.01 0.0 4.7022533867358387e-08 0.0 0.01000075983692598 0.009992376728444973 0.0 1.2730548252265386e-07 0.0 0.01 0.0 1.2730548252262676e-07 0.0 0.010000697325365644 0.009992183185395923 0.0 2.636248010135737e-07 0.0 0.01 0.0 2.636248010136279e-07 0.0 0.010000734941446439 0.009992117355995141 0.0 4.141462372562587e-07 0.0 0.01 0.0 4.141462372562587e-07 0.0 0.010001063695440461 0.009992131796046804 0.0 -7.492335385678753e-14 0.0 0.01 0.0 -7.492335385678753e-14 0.0 0.010000691471713358 0.009992000109985863 0.0 1.628204912418086e-11 0.0 0.01 0.0 1.6282049124184168e-11 0.0 0.01000079159398324 0.009991870424256956 0.0 7.591896708764956e-10 0.0 0.01 0.0 7.591896708762838e-10 0.0 0.010000905873076128 0.009991736254726246 0.0 5.851285092092405e-09 0.0 0.01 0.0 5.851285092093252e-09 0.0 0.010001010903273298 0.009991597103266721 0.0 2.404014037012166e-08 0.0 0.01 0.0 2.404014037012505e-08 0.0 0.0100010739230586 0.009991450976091233 0.0 6.873318558712625e-08 0.0 0.01 0.0 6.873318558712625e-08 0.0 0.010001113486659509 0.00999131183895633 0.0 1.4600198464659992e-07 0.0 0.01 0.0 1.4600198464665413e-07 0.0 0.010001292253644862 0.009991257984840959 0.0 2.3127504657091897e-07 0.0 0.01 0.0 2.3127504657094607e-07 0.0 0.01000164301286407 0.009991075960003294 0.0 -4.2390420798200397e-14 0.0 0.01 0.0 -4.2390420798200397e-14 0.0 0.010000879516018659 0.009990928857788593 0.0 -1.352170678897889e-12 0.0 0.01 0.0 -1.3521706788974754e-12 0.0 0.010001004051197583 0.009990786748260332 0.0 1.09412404570375e-10 0.0 0.01 0.0 1.0941240457038824e-10 0.0 0.010001139844857333 0.009990651625175768 0.0 1.6185805985234013e-09 0.0 0.01 0.0 1.6185805985234013e-09 0.0 0.010001271742558633 0.009990527476335654 0.0 8.42445688447814e-09 0.0 0.01 0.0 8.424456884476445e-09 0.0 0.010001383086897154 0.00999041479915411 0.0 2.6885401957696522e-08 0.0 0.01 0.0 2.6885401957696522e-08 0.0 0.010001490083094505 0.009990324560805633 0.0 6.048212439065885e-08 0.0 0.01 0.0 6.048212439065207e-08 0.0 0.010001707938007386 0.009990284677933864 0.0 9.817246368918828e-08 0.0 0.01 0.0 9.817246368921538e-08 0.0 0.010002005004291945 0.009989901318130313 0.0 1.724631406602864e-15 0.0 0.01 0.0 1.724631406602864e-15 0.0 0.01000108512659941 0.009989741307735422 0.0 -1.1102521255899794e-12 0.0 0.01 0.0 -1.1102521255899794e-12 0.0 0.010001224824992695 0.00998958828317989 0.0 -7.384826368387017e-12 0.0 0.01 0.0 -7.38482636838619e-12 0.0 0.010001380185684309 0.00998945171345673 0.0 1.4544370812909742e-10 0.0 0.01 0.0 1.4544370812907095e-10 0.0 0.010001531601798772 0.009989339570974781 0.0 1.5583960294544858e-09 0.0 0.01 0.0 1.558396029454274e-09 0.0 0.010001664465474958 0.009989250856492764 0.0 6.537010524565027e-09 0.0 0.01 0.0 6.53701052456418e-09 0.0 0.010001791481302239 0.009989190551961935 0.0 1.6772273598111243e-08 0.0 0.01 0.0 1.6772273598112937e-08 0.0 0.010001992295270186 0.00998916314124414 0.0 2.9444805398923604e-08 0.0 0.01 0.0 2.9444805398923604e-08 0.0 0.010002232697648446 0.009988597532133462 0.0 3.652351962663428e-14 0.0 0.01 0.0 3.652351962663428e-14 0.0 0.010001301053867134 0.009988422636382742 0.0 -8.668195751983128e-13 0.0 0.01 0.0 -8.668195751985196e-13 0.0 0.010001460269795915 0.009988262198787855 0.0 -6.700068568080555e-12 0.0 0.01 0.0 -6.700068568080555e-12 0.0 0.010001628797860963 0.009988125683444253 0.0 -2.5037778072339318e-11 0.0 0.01 0.0 -2.5037778072342627e-11 0.0 0.010001785628156344 0.009988021556890526 0.0 -3.890855829475478e-12 0.0 0.01 0.0 -3.890855829475064e-12 0.0 0.01000192145365578 0.00998794832150447 0.0 5.083420506093883e-10 0.0 0.01 0.0 5.083420506093353e-10 0.0 0.0100020396738708 0.009987906473436297 0.0 2.072243423286453e-09 0.0 0.01 0.0 2.072243423286453e-09 0.0 0.010002206780267643 0.009987887542342193 0.0 4.435728086954199e-09 0.0 0.01 0.0 4.435728086955046e-09 0.0 0.010002409570627827 0.009987149811607879 0.0 9.693253915413052e-14 0.0 0.01 0.0 9.693253915413052e-14 0.0 0.010001528650444399 0.009986956066091256 0.0 -6.361730186833651e-13 0.0 0.01 0.0 -6.361730186834168e-13 0.0 0.010001702584720523 0.009986786236750617 0.0 -6.3295857670359276e-12 0.0 0.01 0.0 -6.3295857670359276e-12 0.0 0.010001880430269745 0.009986647789915752 0.0 -2.5596997216650014e-11 0.0 0.01 0.0 -2.5596997216650014e-11 0.0 0.010002046528070187 0.009986547693452533 0.0 -6.61273950267251e-11 0.0 0.01 0.0 -6.612739502671849e-11 0.0 0.010002182864526664 0.009986488433780798 0.0 -1.2255640354483757e-10 0.0 0.01 0.0 -1.2255640354483757e-10 0.0 0.010002281030227534 0.009986459053326324 0.0 -1.4464394476872498e-10 0.0 0.01 0.0 -1.4464394476875145e-10 0.0 0.010002418376999304 0.009986454571584874 0.0 -3.7286510387415775e-11 0.0 0.01 0.0 -3.7286510387419084e-11 0.0 0.010002598162216377 0.0099855488856729 0.0 1.5896622211164314e-13 0.0 0.01 0.0 1.5896622211164314e-13 0.0 0.010001766067739148 0.009985332832093791 0.0 -3.605554207267066e-13 0.0 0.01 0.0 -3.605554207266549e-13 0.0 0.010001955673549298 0.009985143174497155 0.0 -6.154846147034396e-12 0.0 0.01 0.0 -6.1548461470352235e-12 0.0 0.010002148141978895 0.009984993347659036 0.0 -2.7522068887752106e-11 0.0 0.01 0.0 -2.7522068887752106e-11 0.0 0.010002322608926318 0.009984890314511488 0.0 -7.456117869134245e-11 0.0 0.01 0.0 -7.456117869133584e-11 0.0 0.010002460858075417 0.009984833075252133 0.0 -1.4272489641190558e-10 0.0 0.01 0.0 -1.4272489641189235e-10 0.0 0.010002543920400498 0.00998481515707761 0.0 -1.8893233042986294e-10 0.0 0.01 0.0 -1.8893233042986294e-10 0.0 0.010002661211930535 0.009984822125245131 0.0 -1.2997202115649364e-10 0.0 0.01 0.0 -1.2997202115649364e-10 0.0 0.010002834704877358 0.009983782536397966 0.0 2.2392552656873882e-13 0.0 0.01 0.0 2.2392552656873882e-13 0.0 0.010002016709903824 0.009983534257569263 0.0 -6.248125922765237e-14 0.0 0.01 0.0 -6.248125922765237e-14 0.0 0.010002222440666895 0.009983315847221527 0.0 -6.0739640706650045e-12 0.0 0.01 0.0 -6.0739640706650045e-12 0.0 0.010002429585145854 0.009983141726234388 0.0 -3.052953386888634e-11 0.0 0.01 0.0 -3.052953386888965e-11 0.0 0.010002620679834564 0.009983023329166998 0.0 -8.688672764112161e-11 0.0 0.01 0.0 -8.688672764113485e-11 0.0 0.010002766297437 0.009982955675591201 0.0 -1.7109652240242136e-10 0.0 0.01 0.0 -1.7109652240242136e-10 0.0 0.01000284396275875 0.009982934782853118 0.0 -2.308375744789354e-10 0.0 0.01 0.0 -2.3083757447892218e-10 0.0 0.010002952957478887 0.009982940752193468 0.0 -1.5990713675768092e-10 0.0 0.01 0.0 -1.5990713675765445e-10 0.0 0.01000313427293447 0.009981845060225949 0.0 2.0136529489100265e-13 0.0 0.01 0.0 2.0136529489100265e-13 0.0 0.010002278628585685 0.009981554163148153 0.0 1.2662931045064493e-13 0.0 0.01 0.0 1.2662931045064493e-13 0.0 0.010002503389730346 0.009981293620519763 0.0 -6.2520155634829144e-12 0.0 0.01 0.0 -6.252015563483328e-12 0.0 0.010002729617214903 0.009981082317532131 0.0 -3.478609870198119e-11 0.0 0.01 0.0 -3.478609870198119e-11 0.0 0.01000293879496995 0.009980925216244224 0.0 -1.0319872202333951e-10 0.0 0.01 0.0 -1.0319872202334613e-10 0.0 0.010003101542338255 0.009980831257310283 0.0 -2.07741258079171e-10 0.0 0.01 0.0 -2.07741258079171e-10 0.0 0.010003185121103469 0.009980783036030678 0.0 -2.8258905409225984e-10 0.0 0.01 0.0 -2.8258905409225984e-10 0.0 0.010003296529349696 0.009980773590707247 0.0 -1.9005430002091062e-10 0.0 0.01 0.0 -1.9005430002089738e-10 0.0 0.010003491577816399 0.009979732780947383 0.0 -4.804004805062317e-14 0.0 0.01 0.0 -4.804004805062317e-14 0.0 0.010002557630886857 0.009979393370434382 0.0 -1.195010027838681e-13 0.0 0.01 0.0 -1.195010027838681e-13 0.0 0.010002793169833976 0.009979076850402661 0.0 -7.415723172048144e-12 0.0 0.01 0.0 -7.415723172048557e-12 0.0 0.010003041937444767 0.009978805571488095 0.0 -4.1592297696264323e-11 0.0 0.01 0.0 -4.1592297696264323e-11 0.0 0.010003276509624086 0.009978590948902584 0.0 -1.253758157031572e-10 0.0 0.01 0.0 -1.253758157031572e-10 0.0 0.010003461246204826 0.009978438932949559 0.0 -2.545455979007599e-10 0.0 0.01 0.0 -2.5454559790074667e-10 0.0 0.010003564905376868 0.009978342063662589 0.0 -3.440660116903459e-10 0.0 0.01 0.0 -3.440660116903459e-10 0.0 0.010003696848993885 0.00997829139469779 0.0 -2.128558055031006e-10 0.0 0.01 0.0 -2.128558055031006e-10 0.0 0.010003918301760738 0.009977476326557306 0.0 -1.0466797224487044e-12 0.0 0.01 0.0 -1.0466797224487044e-12 0.0 0.010002855722807302 0.009977077060765924 0.0 -1.6375195111880829e-12 0.0 0.01 0.0 -1.6375195111881863e-12 0.0 0.010003097638710606 0.009976688269625372 0.0 -1.1176500557138483e-11 0.0 0.01 0.0 -1.117650055713931e-11 0.0 0.010003362044742 0.009976333779390443 0.0 -5.396818661918046e-11 0.0 0.01 0.0 -5.396818661917715e-11 0.0 0.010003621616466275 0.009976032939171181 0.0 -1.58175647707963e-10 0.0 0.01 0.0 -1.581756477079696e-10 0.0 0.010003829348463927 0.00997579268369233 0.0 -3.173433021832149e-10 0.0 0.01 0.0 -3.173433021832149e-10 0.0 0.010003957898504707 0.009975616970634335 0.0 -4.1852801968002345e-10 0.0 0.01 0.0 -4.1852801968002345e-10 0.0 0.010004139268614057 0.009975490403421754 0.0 -2.202454749350396e-10 0.0 0.01 0.0 -2.2024547493502635e-10 0.0 0.010004407712477691 0.009975136040854177 0.0 -4.085887448199536e-12 0.0 0.01 0.0 -4.085887448199536e-12 0.0 0.010003183669717811 0.009974670066895439 0.0 -6.199891965300863e-12 0.0 0.01 0.0 -6.199891965301277e-12 0.0 0.010003418752381362 0.009974197212271387 0.0 -2.0506686212592993e-11 0.0 0.01 0.0 -2.0506686212592993e-11 0.0 0.010003692944669242 0.009973739306992383 0.0 -7.726756716637309e-11 0.0 0.01 0.0 -7.726756716636978e-11 0.0 0.01000397011301871 0.009973320153226242 0.0 -2.1074827968221924e-10 0.0 0.01 0.0 -2.1074827968221924e-10 0.0 0.010004191133368218 0.009972958086599445 0.0 -4.087138561479797e-10 0.0 0.01 0.0 -4.087138561479797e-10 0.0 0.010004332413845999 0.009972661518934708 0.0 -5.158547280361498e-10 0.0 0.01 0.0 -5.158547280362027e-10 0.0 0.010004591560429201 0.009972422994576312 0.0 -2.0683444998560785e-10 0.0 0.01 0.0 -2.068344499856211e-10 0.0 0.010004948020013976 0.009972846994609135 0.0 -1.1791512450994805e-11 0.0 0.01 0.0 -1.1791512450994805e-11 0.0 0.010003568809551574 0.009972315887335131 0.0 -1.6724887528507153e-11 0.0 0.01 0.0 -1.6724887528506326e-11 0.0 0.010003773634973893 0.009971750160509949 0.0 -3.949194052982427e-11 0.0 0.01 0.0 -3.9491940529825926e-11 0.0 0.01000404540346997 0.009971172137724483 0.0 -1.1990615605752248e-10 0.0 0.01 0.0 -1.199061560575291e-10 0.0 0.010004332914496155 0.00997061156156285 0.0 -2.9951292499658543e-10 0.0 0.01 0.0 -2.9951292499659867e-10 0.0 0.01000454119149109 0.009970098154775014 0.0 -5.533076911182099e-10 0.0 0.01 0.0 -5.533076911182099e-10 0.0 0.010004655098474976 0.009969645768391908 0.0 -6.587566103769126e-10 0.0 0.01 0.0 -6.587566103769126e-10 0.0 0.010005007158235922 0.009969257845328252 0.0 -1.7519696852286586e-10 0.0 0.01 0.0 -1.7519696852286586e-10 0.0 0.01000550063522182 0.009970832112961722 0.0 -2.6696457051222577e-11 0.0 0.01 0.0 -2.6696457051222577e-11 0.0 0.010004049808814976 0.009970241861037205 0.0 -3.495250300400208e-11 0.0 0.01 0.0 -3.495250300400042e-11 0.0 0.010004211158585678 0.009969586809094908 0.0 -7.19572444331003e-11 0.0 0.01 0.0 -7.195724443309369e-11 0.0 0.010004470295745962 0.009968889286055653 0.0 -1.9495872156772316e-10 0.0 0.01 0.0 -1.9495872156772316e-10 0.0 0.010004750432849093 0.009968182499781066 0.0 -4.5515897419872213e-10 0.0 0.01 0.0 -4.5515897419872213e-10 0.0 0.010004915221536927 0.009967503591617508 0.0 -7.987247445035372e-10 0.0 0.01 0.0 -7.987247445035107e-10 0.0 0.010004922081649794 0.00996687333644645 0.0 -8.907643023642613e-10 0.0 0.01 0.0 -8.907643023642878e-10 0.0 0.010005337269928895 0.00996631496985564 0.0 -1.4200544451892735e-10 0.0 0.01 0.0 -1.4200544451892074e-10 0.0 0.010006011265956646 0.009969409442054615 0.0 -4.5662580734284446e-11 0.0 0.01 0.0 -4.566258073428279e-11 0.0 0.01000468784432348 0.009968779815973827 0.0 -5.6006606047837833e-11 0.0 0.01 0.0 -5.6006606047834525e-11 0.0 0.010004801806388684 0.00996805968189998 0.0 -1.1980086981167443e-10 0.0 0.01 0.0 -1.1980086981168105e-10 0.0 0.010005047769425712 0.009967264942052195 0.0 -3.257486788704621e-10 0.0 0.01 0.0 -3.257486788704621e-10 0.0 0.010005325050406338 0.00996643673329181 0.0 -7.349156205142306e-10 0.0 0.01 0.0 -7.349156205142041e-10 0.0 0.010005400872264588 0.009965609225811021 0.0 -1.229109102721448e-09 0.0 0.01 0.0 -1.229109102721448e-09 0.0 0.010005180272505234 0.009964819524557342 0.0 -1.2809433134911836e-09 0.0 0.01 0.0 -1.2809433134911306e-09 0.0 0.010005552971902594 0.009964100742976554 0.0 -1.38297352518175e-10 0.0 0.01 0.0 -1.382973525181816e-10 0.0 0.0100064143663403 0.009968973991625467 0.0 -5.299926578958531e-11 0.0 0.01 0.0 -5.299926578958531e-11 0.0 0.0100055651922599 0.009968346924373867 0.0 -6.449387337591818e-11 0.0 0.01 0.0 -6.449387337591818e-11 0.0 0.010005653240257912 0.009967606087460243 0.0 -1.844131860718894e-10 0.0 0.01 0.0 -1.84413186071896e-10 0.0 0.010005905126462527 0.009966778783730288 0.0 -5.509196713988526e-10 0.0 0.01 0.0 -5.509196713988261e-10 0.0 0.010006181977806021 0.009965895266688164 0.0 -1.227093629536441e-09 0.0 0.01 0.0 -1.2270936295364939e-09 0.0 0.010006133588524967 0.009964998131030854 0.0 -1.96551196174501e-09 0.0 0.01 0.0 -1.9655119617449042e-09 0.0 0.010005552971902927 0.009964117065953059 0.0 -1.9173330899897532e-09 0.0 0.01 0.0 -1.917333089989806e-09 0.0 0.01000571289184415 0.009963301509925897 0.0 -2.0605843674841266e-10 0.0 0.01 0.0 -2.0605843674840604e-10 0.0 0.01000668199138944 0.0099700277905266 0.0 -2.231483412126518e-11 0.0 0.01 0.0 -2.2314834121263525e-11 0.0 0.01000678033972204 0.009969457003237082 0.0 -3.9559520958515954e-11 0.0 0.01 0.0 -3.95595209585143e-11 0.0 0.010006885054073478 0.009968783778628816 0.0 -2.6654437390168937e-10 0.0 0.01 0.0 -2.6654437390168937e-10 0.0 0.010007173711944593 0.009968033930339478 0.0 -9.133939076723263e-10 0.0 0.01 0.0 -9.133939076722998e-10 0.0 0.010007457082927235 0.009967238206447303 0.0 -2.0393157944222887e-09 0.0 0.01 0.0 -2.0393157944223946e-09 0.0 0.01000726130132485 0.00996642039891457 0.0 -3.1690518580481804e-09 0.0 0.01 0.0 -3.1690518580481804e-09 0.0 0.010006242640724203 0.009965600813217965 0.0 -2.932713183048778e-09 0.0 0.01 0.0 -2.932713183048778e-09 0.0 0.010006010765055745 0.009964825461460094 0.0 -4.2869014783635e-10 0.0 0.01 0.0 -4.2869014783636326e-10 0.0 0.010006914414764024 0.009973273528736263 0.0 7.207010488014038e-11 0.0 0.01 0.0 7.207010488014038e-11 0.0 0.010008427140547919 0.009972852449932693 0.0 3.8791656962996433e-11 0.0 0.01 0.0 3.879165696299809e-11 0.0 0.010008591158532419 0.009972375390931962 0.0 -3.673633502941538e-10 0.0 0.01 0.0 -3.673633502941538e-10 0.0 0.010008931852462875 0.00997187658540783 0.0 -1.4702333294984874e-09 0.0 0.01 0.0 -1.4702333294985403e-09 0.0 0.010009204091719353 0.009971369427514535 0.0 -3.315120011389667e-09 0.0 0.01 0.0 -3.3151200113898788e-09 0.0 0.01000884326669032 0.009970848469045479 0.0 -5.060978079885022e-09 0.0 0.01 0.0 -5.060978079885022e-09 0.0 0.01000750012936489 0.009970309256462324 0.0 -4.535021529693963e-09 0.0 0.01 0.0 -4.535021529694175e-09 0.0 0.010006851284591682 0.00996977706806381 0.0 -9.251434136118586e-10 0.0 0.01 0.0 -9.251434136119115e-10 0.0 0.010007461943788928 0.009979697496543241 0.0 2.3656393381779276e-10 0.0 0.01 0.0 2.3656393381779276e-10 0.0 0.010010545457577711 0.009979540957573462 0.0 1.608725173697056e-10 0.0 0.01 0.0 1.608725173697122e-10 0.0 0.010010787430225071 0.00997942219165078 0.0 -5.321971691563121e-10 0.0 0.01 0.0 -5.321971691562856e-10 0.0 0.01001115729504527 0.00997936802784782 0.0 -2.3175197241292973e-09 0.0 0.01 0.0 -2.3175197241291914e-09 0.0 0.01001136258695968 0.009979369518586105 0.0 -5.171930825797619e-09 0.0 0.01 0.0 -5.171930825797195e-09 0.0 0.010010830068189652 0.009979369021679195 0.0 -7.694247477835782e-09 0.0 0.01 0.0 -7.694247477836205e-09 0.0 0.010009456246206035 0.009979332250412224 0.0 -6.800399748506868e-09 0.0 0.01 0.0 -6.800399748506868e-09 0.0 0.010008975469419736 0.00997926616253227 0.0 -1.7362316001370845e-09 0.0 0.01 0.0 -1.7362316001369786e-09 0.0 0.010009138511613466 0.009990303621219393 0.0 4.106517508462622e-10 0.0 0.01 0.0 4.106517508462622e-10 0.0 0.010013090609817933 0.009990525980583954 0.0 2.2768588891853058e-10 0.0 0.01 0.0 2.2768588891855705e-10 0.0 0.01001337543757149 0.009990898440853298 0.0 -8.810719507552675e-10 0.0 0.01 0.0 -8.810719507552146e-10 0.0 0.010013706328104364 0.009991440003590488 0.0 -3.511360340479471e-09 0.0 0.01 0.0 -3.5113603404792594e-09 0.0 0.01001376225792148 0.009992089895380054 0.0 -7.447686328134741e-09 0.0 0.01 0.0 -7.447686328134741e-09 0.0 0.010013290097140757 0.009992763362940627 0.0 -1.0606382775712791e-08 0.0 0.01 0.0 -1.0606382775712791e-08 0.0 0.010012760232058018 0.009993396047605444 0.0 -9.070395871719634e-09 0.0 0.01 0.0 -9.070395871719634e-09 0.0 0.010012867091782328 0.009993972454080536 0.0 -2.566967926667079e-09 0.0 0.01 0.0 -2.566967926667291e-09 0.0 0.010012680829799772 0.010005554925153242 0.0 4.512776852048749e-10 0.0 0.01 0.0 4.512776852049808e-10 0.0 0.010015898685013595 0.010006207425038847 0.0 6.766821330287855e-11 0.0 0.01 0.0 6.766821330287855e-11 0.0 0.010016136624731314 0.010007113032092858 0.0 -1.5069349715729033e-09 0.0 0.01 0.0 -1.5069349715726915e-09 0.0 0.010016334837041679 0.010008258268601081 0.0 -4.863857574775614e-09 0.0 0.01 0.0 -4.863857574775614e-09 0.0 0.010016297052700582 0.0100095654572257 0.0 -9.475003061555295e-09 0.0 0.01 0.0 -9.475003061553601e-09 0.0 0.010016414828726459 0.01001092462610107 0.0 -1.2606866034732393e-08 0.0 0.01 0.0 -1.2606866034735781e-08 0.0 0.010017227516081837 0.01001225835331458 0.0 -9.991403474254759e-09 0.0 0.01 0.0 -9.991403474258147e-09 0.0 0.010017728684756071 0.010013523985341059 0.0 -2.4309701383531712e-09 0.0 0.01 0.0 -2.4309701383531712e-09 0.0 0.010017278579449257 0.010024684347666532 0.0 2.511169335479303e-10 0.0 0.01 0.0 2.511169335479303e-10 0.0 0.010018715006929491 0.010025720945826357 0.0 -3.645184340830662e-10 0.0 0.01 0.0 -3.645184340831721e-10 0.0 0.010018777356262526 0.01002705026298144 0.0 -2.230877328806589e-09 0.0 0.01 0.0 -2.2308773288070124e-09 0.0 0.010018749399482874 0.010028643095730537 0.0 -5.765850518417633e-09 0.0 0.01 0.0 -5.765850518417633e-09 0.0 0.010018695849832839 0.010030417523143112 0.0 -1.010668410501961e-08 0.0 0.01 0.0 -1.0106684105017915e-08 0.0 0.010019519402698891 0.0100322801310324 0.0 -1.2143134391409943e-08 0.0 0.01 0.0 -1.2143134391411637e-08 0.0 0.010020883083831133 0.010034149737570776 0.0 -8.11300531784957e-09 0.0 0.01 0.0 -8.113005317848723e-09 0.0 0.010021126310070794 0.01003592112624096 0.0 -8.40664959146307e-10 0.0 0.01 0.0 -8.406649591464129e-10 0.0 0.010020264531674162 0.010045281769298779 0.0 -8.230091145152014e-11 0.0 0.01 0.0 -8.230091145152014e-11 0.0 0.010021237362772018 0.010046560981621655 0.0 -8.002219958190637e-10 0.0 0.01 0.0 -8.002219958190637e-10 0.0 0.010021001524831655 0.010048077406272357 0.0 -2.551727901081588e-09 0.0 0.01 0.0 -2.551727901081482e-09 0.0 0.010020729328067818 0.01004979726064927 0.0 -5.5254845887536495e-09 0.0 0.01 0.0 -5.5254845887536495e-09 0.0 0.010020742560044444 0.010051662766120174 0.0 -8.722841089479896e-09 0.0 0.01 0.0 -8.722841089479049e-09 0.0 0.010021881662111504 0.010053612178472997 0.0 -9.148493483844792e-09 0.0 0.01 0.0 -9.14849348384564e-09 0.0 0.010022937579219456 0.010055565674069341 0.0 -5.280954029029008e-09 0.0 0.01 0.0 -5.280954029029432e-09 0.0 0.010022314217048859 0.010057346955950648 0.0 -3.3473885746157046e-09 0.0 0.01 0.0 -3.3473885746157046e-09 0.0 0.010021111114192682 0.010063579758111021 0.0 -2.9204592550868835e-10 0.0 0.01 0.0 -2.920459255087016e-10 0.0 0.010023206532239481 0.010064902322969103 0.0 -8.730324329140602e-10 0.0 0.01 0.0 -8.730324329140602e-10 0.0 0.010022632251622986 0.0100663174656193 0.0 -2.112511712362663e-09 0.0 0.01 0.0 -2.1125117123627688e-09 0.0 0.010022151989794488 0.01006776667653943 0.0 -4.098545019810625e-09 0.0 0.01 0.0 -4.098545019810519e-09 0.0 0.010022138752239222 0.010069218963736644 0.0 -6.257053958230805e-09 0.0 0.01 0.0 -6.257053958230805e-09 0.0 0.010023048692152106 0.01007065987873587 0.0 -7.78078577110896e-09 0.0 0.01 0.0 -7.78078577110896e-09 0.0 0.010023347109352577 0.010072014663924787 0.0 -8.4950377859912e-09 0.0 0.01 0.0 -8.4950377859912e-09 0.0 0.010021866412475764 0.010073145840991586 0.0 -6.417124696789125e-09 0.0 0.01 0.0 -6.417124696789125e-09 0.0 0.010020589766652014 0.010075796488747867 0.0 -2.7384769399546857e-10 0.0 0.01 0.0 -2.738476939954818e-10 0.0 0.01002451465147029 0.010076985936519694 0.0 -5.770028667257484e-10 0.0 0.01 0.0 -5.770028667257616e-10 0.0 0.010023610203807026 0.010078061365015599 0.0 -1.2159980253995486e-09 0.0 0.01 0.0 -1.2159980253995751e-09 0.0 0.010022761578235331 0.010078941112311304 0.0 -2.3485896794426956e-09 0.0 0.01 0.0 -2.3485896794427486e-09 0.0 0.010022252254668032 0.010079597118525662 0.0 -3.937017319983954e-09 0.0 0.01 0.0 -3.937017319983954e-09 0.0 0.010022337824461484 0.010080064690087051 0.0 -5.602233825352448e-09 0.0 0.01 0.0 -5.602233825352448e-09 0.0 0.010021872804222481 0.01008037324818926 0.0 -5.861238009924915e-09 0.0 0.01 0.0 -5.861238009924915e-09 0.0 0.010021100295986457 0.01008055983075515 0.0 -1.237759054713167e-09 0.0 0.01 0.0 -1.2377590547131934e-09 0.0 0.010019863728795032 0.010080532275498674 0.0 -1.4023769627497535e-10 0.0 0.01 0.0 -1.4023769627497866e-10 0.0 0.010025221549107568 0.01008148828813237 0.0 -2.1795459418171525e-10 0.0 0.01 0.0 -2.1795459418170864e-10 0.0 0.010024117216310907 0.010082138745277601 0.0 -4.108834319929857e-10 0.0 0.01 0.0 -4.108834319929857e-10 0.0 0.010023049648730476 0.010082383948288582 0.0 -8.069899295990472e-10 0.0 0.01 0.0 -8.069899295990207e-10 0.0 0.010022198699159731 0.010082224833325283 0.0 -1.4175952894895039e-09 0.0 0.01 0.0 -1.4175952894895039e-09 0.0 0.010021692933892932 0.010081742461244155 0.0 -1.938579555567861e-09 0.0 0.01 0.0 -1.938579555567914e-09 0.0 0.010020801073158012 0.010081082040456064 0.0 -1.1133677808587887e-09 0.0 0.01 0.0 -1.1133677808587623e-09 0.0 0.010021179898697297 0.010080412274481866 0.0 3.1551226875198846e-09 0.0 0.01 0.0 3.1551226875198846e-09 0.0 0.010019783151494092 0.010079486111200499 0.0 -3.323188686845451e-11 0.0 0.01 0.0 -3.3231886868452855e-11 0.0 0.010025504944563786 0.010080221705485967 0.0 -2.1263729644436266e-11 0.0 0.01 0.0 -2.1263729644437093e-11 0.0 0.010024347935490617 0.010080522800230422 0.0 -2.764540513663008e-11 0.0 0.01 0.0 -2.764540513663008e-11 0.0 0.010023245854966795 0.010080294223883145 0.0 -7.129005066187031e-11 0.0 0.01 0.0 -7.129005066187031e-11 0.0 0.010022293076218103 0.010079551086905163 0.0 -1.3670397332240428e-10 0.0 0.01 0.0 -1.3670397332240428e-10 0.0 0.010021585288098298 0.010078426247653914 0.0 -6.817623799143204e-11 0.0 0.01 0.0 -6.81762379914337e-11 0.0 0.010020736673566327 0.01007711333655394 0.0 6.064546942230334e-10 0.0 0.01 0.0 6.064546942230467e-10 0.0 0.010021825143174594 0.010075846969822265 0.0 2.4505243141751812e-09 0.0 0.01 0.0 2.4505243141751812e-09 0.0 0.010020295016392193 0.010075451887463543 0.0 2.2684117555563126e-12 0.0 0.01 0.0 2.2684117555563126e-12 0.0 0.010025528574532634 0.010076077698956095 0.0 1.225779234778342e-11 0.0 0.01 0.0 1.225779234778342e-11 0.0 0.010024437940939554 0.010076217596761918 0.0 2.207232016771139e-11 0.0 0.01 0.0 2.2072320167710562e-11 0.0 0.010023421881452235 0.010075772501553318 0.0 3.3944589510370665e-11 0.0 0.01 0.0 3.394458951037149e-11 0.0 0.010022563940598368 0.010074773221457656 0.0 5.720935770165023e-11 0.0 0.01 0.0 5.720935770165023e-11 0.0 0.010021955898116903 0.010073371478168716 0.0 1.1040368390645702e-10 0.0 0.01 0.0 1.1040368390645371e-10 0.0 0.010021355816357193 0.010071774201225797 0.0 2.0675399955746247e-10 0.0 0.01 0.0 2.0675399955746247e-10 0.0 0.01002265389800166 0.010070221544741827 0.0 3.049402713264467e-10 0.0 0.01 0.0 3.049402713264467e-10 0.0 0.0100210132987226 0.010070515258950983 0.0 -4.705595143372113e-12 0.0 0.01 0.0 -4.705595143371906e-12 0.0 0.01002539279266175 0.010071182083558287 0.0 -2.135497831890925e-11 0.0 0.01 0.0 -2.1354978318908422e-11 0.0 0.010024421672287752 0.010071370148263212 0.0 -5.547703767950397e-11 0.0 0.01 0.0 -5.547703767950397e-11 0.0 0.010023547260662508 0.010070976613714856 0.0 -1.0618127909397052e-10 0.0 0.01 0.0 -1.0618127909397052e-10 0.0 0.010022884969249312 0.01007002608993084 0.0 -1.633856547807607e-10 0.0 0.01 0.0 -1.633856547807607e-10 0.0 0.01002256394059837 0.01006867266833469 0.0 -2.1611336073918893e-10 0.0 0.01 0.0 -2.1611336073918893e-10 0.0 0.010022199705834197 0.010067110987806877 0.0 -2.2829863213582752e-10 0.0 0.01 0.0 -2.2829863213582752e-10 0.0 0.010023342728807285 0.010065558039111338 0.0 -1.2250300616934882e-10 0.0 0.01 0.0 -1.2250300616934551e-10 0.0 0.010021609896859029 0.010065305597952823 0.0 -2.0172060582845955e-11 0.0 0.01 0.0 -2.0172060582846782e-11 0.0 0.010025118273183078 0.010066146156377914 0.0 -5.994043035585036e-11 0.0 0.01 0.0 -5.994043035585036e-11 0.0 0.01002427022148818 0.010066565035418733 0.0 -1.5654687059778787e-10 0.0 0.01 0.0 -1.565468705977945e-10 0.0 0.010023528579365427 0.010066434056784205 0.0 -3.298207237664386e-10 0.0 0.01 0.0 -3.298207237664254e-10 0.0 0.010023029510174256 0.010065766695989652 0.0 -5.527925286336114e-10 0.0 0.01 0.0 -5.527925286336114e-10 0.0 0.010022927711630318 0.010064696676488506 0.0 -7.236309602723666e-10 0.0 0.01 0.0 -7.236309602723137e-10 0.0 0.01002259736600998 0.010063405123515456 0.0 -5.677348974909879e-10 0.0 0.01 0.0 -5.677348974909879e-10 0.0 0.010023417953986754 0.010062072706627458 0.0 3.788969925896031e-10 0.0 0.01 0.0 3.7889699258958986e-10 0.0 0.010021620716719198 0.01005925148096662 0.0 -2.801482607521452e-11 0.0 0.01 0.0 -2.8014826075212867e-11 0.0 0.01002467452530087 0.010060350056263786 0.0 -8.905116036324025e-11 0.0 0.01 0.0 -8.905116036324025e-11 0.0 0.010023928865378185 0.010061115790073252 0.0 -2.7290359636448917e-10 0.0 0.01 0.0 -2.7290359636448917e-10 0.0 0.010023283718004596 0.010061397758983735 0.0 -6.528329152176953e-10 0.0 0.01 0.0 -6.528329152176953e-10 0.0 0.010022884465808804 0.010061177966840354 0.0 -1.1827765027857074e-09 0.0 0.01 0.0 -1.1827765027857074e-09 0.0 0.010022874648733011 0.010060555385504127 0.0 -1.6261853997986249e-09 0.0 0.01 0.0 -1.6261853997986249e-09 0.0 0.010022458733278469 0.010059683395680526 0.0 -1.4594634674409276e-09 0.0 0.01 0.0 -1.4594634674409805e-09 0.0 0.010022969044888908 0.010058720698052062 0.0 1.0884261770152346e-10 0.0 0.01 0.0 1.0884261770152677e-10 0.0 0.01002115972109095 0.010051447064064334 0.0 -1.8865215454424742e-11 0.0 0.01 0.0 -1.886521545442557e-11 0.0 0.010024022787711327 0.010052827787000873 0.0 -1.0028770088951856e-10 0.0 0.01 0.0 -1.0028770088951856e-10 0.0 0.010023350583566104 0.010053997227406658 0.0 -3.968635310882347e-10 0.0 0.01 0.0 -3.9686353108826117e-10 0.0 0.010022767468277892 0.010054788805038725 0.0 -1.0660299417987192e-09 0.0 0.01 0.0 -1.0660299417987192e-09 0.0 0.01002242188633031 0.010055134797814091 0.0 -2.040779385502221e-09 0.0 0.01 0.0 -2.0407793855021153e-09 0.0 0.010022411063875455 0.010055076189503763 0.0 -2.9265298487948774e-09 0.0 0.01 0.0 -2.9265298487949833e-09 0.0 0.010021905266459406 0.010054736200187694 0.0 -2.9817053602672877e-09 0.0 0.01 0.0 -2.9817053602672877e-09 0.0 0.010022197239483393 0.010054231438882972 0.0 -1.262369340934325e-09 0.0 0.01 0.0 -1.262369340934325e-09 0.0 0.010020460071317345 0.010041564866968705 0.0 8.532086920284338e-12 0.0 0.01 0.0 8.53208692028351e-12 0.0 0.010023151450989887 0.0100431952714782 0.0 -7.618979655600815e-11 0.0 0.01 0.0 -7.618979655602138e-11 0.0 0.010022531975344444 0.01004477402176599 0.0 -4.659540768426347e-10 0.0 0.01 0.0 -4.659540768426611e-10 0.0 0.010021985844638107 0.010046124316594409 0.0 -1.421601039618596e-09 0.0 0.01 0.0 -1.4216010396187018e-09 0.0 0.010021633952223972 0.010047121991905612 0.0 -2.873489191069327e-09 0.0 0.01 0.0 -2.873489191069539e-09 0.0 0.010021577940733715 0.010047729706957645 0.0 -4.260889918918736e-09 0.0 0.01 0.0 -4.2608899189185244e-09 0.0 0.010021063916866265 0.01004800213176396 0.0 -4.669636572327144e-09 0.0 0.01 0.0 -4.669636572327144e-09 0.0 0.010021250647080376 0.010048037790568027 0.0 -3.0142198591015025e-09 0.0 0.01 0.0 -3.014219859101079e-09 0.0 0.010019684922243768 0.010030349052795028 0.0 3.5078284690008645e-11 0.0 0.01 0.0 3.5078284690008645e-11 0.0 0.010022078252738494 0.010032131251798568 0.0 -2.1892733578055948e-11 0.0 0.01 0.0 -2.189273357805264e-11 0.0 0.010021497825299297 0.010034053509780235 0.0 -4.210241738564856e-10 0.0 0.01 0.0 -4.210241738564856e-10 0.0 0.010020975008570871 0.010035952259490966 0.0 -1.5207704967495297e-09 0.0 0.01 0.0 -1.5207704967495297e-09 0.0 0.010020571101880251 0.010037636717101424 0.0 -3.317506657507431e-09 0.0 0.01 0.0 -3.317506657507431e-09 0.0 0.010020430138472869 0.010038980138864364 0.0 -5.14688363016677e-09 0.0 0.01 0.0 -5.146883630166346e-09 0.0 0.010019981580376322 0.010039942138043422 0.0 -5.980220142979435e-09 0.0 0.01 0.0 -5.980220142979435e-09 0.0 0.010020239983132435 0.010040579676815273 0.0 -4.315659510814499e-09 0.0 0.01 0.0 -4.315659510814499e-09 0.0 0.010018916841972035 0.010019322962585231 0.0 3.253354330764271e-11 0.0 0.01 0.0 3.253354330764271e-11 0.0 0.010020846757370198 0.010021134209927944 0.0 1.9173207402913104e-11 0.0 0.01 0.0 1.9173207402913104e-11 0.0 0.010020295972187261 0.010023271885759195 0.0 -2.9869211646633143e-10 0.0 0.01 0.0 -2.9869211646633143e-10 0.0 0.010019794971387202 0.01002560289162208 0.0 -1.343556156814511e-09 0.0 0.01 0.0 -1.343556156814511e-09 0.0 0.010019366162322671 0.010027916264071898 0.0 -3.1726195038830844e-09 0.0 0.01 0.0 -3.1726195038830844e-09 0.0 0.010019042555061157 0.010029978015413535 0.0 -5.310434854863051e-09 0.0 0.01 0.0 -5.310434854862204e-09 0.0 0.010018705654634138 0.010031654569911608 0.0 -6.691134264835545e-09 0.0 0.01 0.0 -6.6911342648346976e-09 0.0 0.01001911818634135 0.010032935954939355 0.0 -4.740011843605973e-09 0.0 0.01 0.0 -4.740011843605549e-09 0.0 0.010018129734181811 0.010009922950224131 0.0 -4.682123412437211e-13 0.0 0.01 0.0 -4.682123412437211e-13 0.0 0.010019511053995817 0.010011665380462676 0.0 1.6384360208061446e-11 0.0 0.01 0.0 1.6384360208061446e-11 0.0 0.010018979195070615 0.010013887777074851 0.0 -1.768300137562726e-10 0.0 0.01 0.0 -1.7683001375637848e-10 0.0 0.01001849060924639 0.010016495827258134 0.0 -1.1662714640929805e-09 0.0 0.01 0.0 -1.1662714640938275e-09 0.0 0.010018110580434201 0.01001927825471707 0.0 -4.1076153975861274e-09 0.0 0.01 0.0 -4.1076153975895156e-09 0.0 0.010017710991017005 0.010021958364301538 0.0 -8.444087544814282e-09 0.0 0.01 0.0 -8.444087544810894e-09 0.0 0.010017281997115416 0.01002430069243212 0.0 -1.0889403590420046e-08 0.0 0.01 0.0 -1.0889403590416658e-08 0.0 0.010017874460506558 0.01002620812099004 0.0 -4.134386515400596e-09 0.0 0.01 0.0 -4.134386515400596e-09 0.0 0.010017200024578326 0.010002889451857504 0.0 -2.973529473216737e-11 0.0 0.01 0.0 -2.9735294732170676e-11 0.0 0.010018109122541936 0.010004530426856457 0.0 -5.048688363135976e-12 0.0 0.01 0.0 -5.048688363135976e-12 0.0 0.010017584373019356 0.010006744617348422 0.0 -2.855785489038307e-10 0.0 0.01 0.0 -2.8557854890388365e-10 0.0 0.010017110213943494 0.010009480765716004 0.0 -3.2766607425091553e-09 0.0 0.01 0.0 -3.2766607425100024e-09 0.0 0.010016766674133594 0.01001254311005656 0.0 -1.1960714841742861e-08 0.0 0.01 0.0 -1.1960714841742861e-08 0.0 0.010016455578997467 0.010015666137507713 0.0 -2.2562065209825663e-08 0.0 0.01 0.0 -2.2562065209825663e-08 0.0 0.010015826542866823 0.010018541189273346 0.0 -2.6400266316242487e-08 0.0 0.01 0.0 -2.6400266316188277e-08 0.0 0.010016438897038345 0.010020960719061273 0.0 -2.5205025186090708e-09 0.0 0.01 0.0 -2.5205025186082237e-09 0.0 0.010015975702074647 0.009998231469265801 0.0 -1.684296220913934e-11 0.0 0.01 0.0 -1.6842962209140993e-11 0.0 0.010016676372649224 0.009999778007392332 0.0 1.1786481399238678e-10 0.0 0.01 0.0 1.1786481399238678e-10 0.0 0.010016155767155895 0.01000193025874102 0.0 -1.4469405896375749e-10 0.0 0.01 0.0 -1.4469405896377072e-10 0.0 0.010015708335400891 0.010004644333479647 0.0 -6.849304057147409e-09 0.0 0.01 0.0 -6.849304057147409e-09 0.0 0.010015394375200052 0.010007794253201039 0.0 -2.6443120149605506e-08 0.0 0.01 0.0 -2.6443120149605506e-08 0.0 0.010015164324001912 0.01001116221181258 0.0 -4.7939699576948986e-08 0.0 0.01 0.0 -4.793969957692188e-08 0.0 0.01001440506655901 0.01001438598443838 0.0 -5.1447229473767717e-08 0.0 0.01 0.0 -5.1447229473550876e-08 0.0 0.010014773876132876 0.0100171259444539 0.0 4.751309803767163e-09 0.0 0.01 0.0 4.751309803760386e-09 0.0 0.010014416867089902 0.009995495545345713 0.0 1.1004547298887893e-10 0.0 0.01 0.0 1.1004547298888555e-10 0.0 0.010015243785238128 0.009996973874170674 0.0 2.005820881184555e-09 0.0 0.01 0.0 2.005820881184767e-09 0.0 0.010014747911097245 0.009998989653146403 0.0 6.148335939849475e-09 0.0 0.01 0.0 6.148335939848628e-09 0.0 0.010014365847452125 0.010001533552695462 0.0 -1.0627432515506619e-10 0.0 0.01 0.0 -1.0627432515506619e-10 0.0 0.010014125573503356 0.01000456367230184 0.0 -3.0155465883938875e-08 0.0 0.01 0.0 -3.0155465883938875e-08 0.0 0.010013934823006675 0.010007961648715985 0.0 -6.451080602917986e-08 0.0 0.01 0.0 -6.451080602920697e-08 0.0 0.010013049901234205 0.01001140081776631 0.0 -6.1494129995857e-08 0.0 0.01 0.0 -6.14941299958028e-08 0.0 0.010012996493055936 0.010014328085432457 0.0 1.8644634324204443e-08 0.0 0.01 0.0 1.8644634324217996e-08 0.0 0.010012521027271855 0.009994107212836842 0.0 1.1782404266603781e-09 0.0 0.01 0.0 1.1782404266602722e-09 0.0 0.010013851476450236 0.009995511024463255 0.0 1.092593264653921e-08 0.0 0.01 0.0 1.0925932646540903e-08 0.0 0.010013421974148153 0.009997298095590558 0.0 3.193487736254265e-08 0.0 0.01 0.0 3.193487736254943e-08 0.0 0.01001314944092379 0.009999502537375915 0.0 4.110962007517171e-08 0.0 0.01 0.0 4.110962007517171e-08 0.0 0.010013040112657532 0.01000219897513493 0.0 1.2607339802689225e-08 0.0 0.01 0.0 1.2607339802689225e-08 0.0 0.01001291266758037 0.010005422858030409 0.0 -2.7035135516591832e-08 0.0 0.01 0.0 -2.7035135516585056e-08 0.0 0.010011988825487724 0.010009120863367926 0.0 -4.959479726188479e-09 0.0 0.01 0.0 -4.959479726185091e-09 0.0 0.010011333187101398 0.01001258476665408 0.0 -2.9478642639892437e-09 0.0 0.01 0.0 -2.9478642639875496e-09 0.0 0.010010375475264776 0.009993584179704232 0.0 6.124445293998236e-09 0.0 0.01 0.0 6.124445293999083e-09 0.0 0.010012545067388275 0.00999486046514211 0.0 3.6736953311188584e-08 0.0 0.01 0.0 3.6736953311188584e-08 0.0 0.01001224264591571 0.009996302553044172 0.0 9.544623980283867e-08 0.0 0.01 0.0 9.544623980283867e-08 0.0 0.01001212702545957 0.009998015593939069 0.0 1.4389873291659433e-07 0.0 0.01 0.0 1.4389873291659433e-07 0.0 0.010012182378543993 0.010000203609151426 0.0 1.3995284319791822e-07 0.0 0.01 0.0 1.3995284319794532e-07 0.0 0.010012185339170867 0.010003169007968596 0.0 1.2160989738943572e-07 0.0 0.01 0.0 1.2160989738943572e-07 0.0 0.010011338105998245 0.010007227581012182 0.0 1.3848804376160413e-07 0.0 0.01 0.0 1.3848804376165834e-07 0.0 0.010010341723460136 0.010012215200657298 0.0 -1.8990319841487042e-07 0.0 0.01 0.0 -1.8990319841487042e-07 0.0 0.010008869692163419 0.009993628594480842 0.0 2.3457940285301202e-08 0.0 0.01 0.0 2.3457940285302896e-08 0.0 0.010011391485450981 0.00999467625571332 0.0 9.506819149851411e-08 0.0 0.01 0.0 9.506819149852089e-08 0.0 0.010011255776748749 0.009995664827611182 0.0 2.1486903582424084e-07 0.0 0.01 0.0 2.1486903582424084e-07 0.0 0.01001131603586858 0.009996791061125632 0.0 3.253925057970645e-07 0.0 0.01 0.0 3.2539250579703737e-07 0.0 0.010011552704795049 0.009998400903637844 0.0 3.6525801765541904e-07 0.0 0.01 0.0 3.6525801765547325e-07 0.0 0.01001158456924272 0.010001142816928599 0.0 3.749703613249635e-07 0.0 0.01 0.0 3.749703613249093e-07 0.0 0.01001072916360107 0.010005703638258288 0.0 2.8609560237600855e-07 0.0 0.01 0.0 2.8609560237600855e-07 0.0 0.010009650213277023 0.010012123124566659 0.0 -6.577818573412844e-07 0.0 0.01 0.0 -6.577818573412844e-07 0.0 0.010007785998497491 0.009994056803168 0.0 6.966522312244549e-08 0.0 0.01 0.0 6.966522312244549e-08 0.0 0.010010441632139943 0.009994762623738884 0.0 2.0570605785430202e-07 0.0 0.01 0.0 2.0570605785430202e-07 0.0 0.010010483268158819 0.009995237928129227 0.0 4.030932865998018e-07 0.0 0.01 0.0 4.0309328659985603e-07 0.0 0.010010699772622223 0.009995798699834153 0.0 5.815455664703504e-07 0.0 0.01 0.0 5.815455664704046e-07 0.0 0.010011002080878134 0.009996952458413194 0.0 6.57071211135991e-07 0.0 0.01 0.0 6.570712111359368e-07 0.0 0.010010846787030497 0.009999579085311776 0.0 6.261249740121405e-07 0.0 0.01 0.0 6.261249740123574e-07 0.0 0.010009776075740167 0.010004709382667638 0.0 2.3140236409566022e-07 0.0 0.01 0.0 2.3140236409576864e-07 0.0 0.010008813897046312 0.009994695727782396 0.0 1.7319680503179809e-07 0.0 0.01 0.0 1.7319680503178453e-07 0.0 0.01000972607559435 0.009994978308207348 0.0 3.92125406130134e-07 0.0 0.01 0.0 3.92125406130134e-07 0.0 0.010009903866600308 0.009994979849041838 0.0 6.644480993782875e-07 0.0 0.01 0.0 6.644480993782875e-07 0.0 0.010010178685870846 0.009995167622596052 0.0 8.853174389653615e-07 0.0 0.01 0.0 8.853174389653615e-07 0.0 0.010010374138430315 0.009996188311517051 0.0 9.348869384529813e-07 0.0 0.01 0.0 9.348869384529813e-07 0.0 0.010009832964914162 0.009999044217145392 0.0 7.310898058837754e-07 0.0 0.01 0.0 7.310898058839922e-07 0.0 0.01000884625459809 0.010004365164017998 0.0 -2.2358795459737676e-07 0.0 0.01 0.0 -2.2358795459726834e-07 0.0 0.010007939653192363 0.009995342775811928 0.0 3.681449702447326e-07 0.0 0.01 0.0 3.681449702447868e-07 0.0 0.010009214390411993 0.00999520401965674 0.0 6.69495573350548e-07 0.0 0.01 0.0 6.69495573350548e-07 0.0 0.01000944798993704 0.009994932001223677 0.0 9.862998973351762e-07 0.0 0.01 0.0 9.862998973352846e-07 0.0 0.010009694424720664 0.009995157231033894 0.0 1.1857465302099468e-06 0.0 0.01 0.0 1.1857465302099468e-06 0.0 0.010009690528263844 0.009996489023540885 0.0 1.0760264118388901e-06 0.0 0.01 0.0 1.0760264118388901e-06 0.0 0.01000890169527958 0.009999911533446102 0.0 4.6409193935406656e-07 0.0 0.01 0.0 4.6409193935395814e-07 0.0 0.01000832436496904 0.009995806207577678 0.0 6.729109863096725e-07 0.0 0.01 0.0 6.729109863095641e-07 0.0 0.010008826189306014 0.00999542180304191 0.0 1.0235116194141046e-06 0.0 0.01 0.0 1.023511619414213e-06 0.0 0.010009062762031087 0.009995352003450633 0.0 1.3187351919475123e-06 0.0 0.01 0.0 1.3187351919476207e-06 0.0 0.010009275349251159 0.009996118537592075 0.0 1.3579564875840222e-06 0.0 0.01 0.0 1.3579564875840222e-06 0.0 0.01000905746689453 0.009998293055362168 0.0 8.88052744314337e-07 0.0 0.01 0.0 8.88052744314337e-07 0.0 0.010008617694965057 0.010001718719135636 0.0 -4.177512510796346e-07 0.0 0.01 0.0 -4.177512510796346e-07 0.0 0.010007914662492632 0.009996093958354524 0.0 1.0602003549962588e-06 0.0 0.01 0.0 1.0602003549963672e-06 0.0 0.01000852520780501 0.009996045639353891 0.0 1.3966824908252188e-06 0.0 0.01 0.0 1.3966824908252188e-06 0.0 0.010008862158845978 0.00999678290055521 0.0 1.522173027172346e-06 0.0 0.01 0.0 1.5221730271725627e-06 0.0 0.010009072227741531 0.009998434066065605 0.0 1.1498344248729326e-06 0.0 0.01 0.0 1.1498344248727158e-06 0.0 0.010008866977456864 0.010001056317358191 0.0 8.492859290650502e-09 0.0 0.01 0.0 8.492859290650502e-09 0.0 0.010008636675965885 0.009996904755673571 0.0 1.4562433430398859e-06 0.0 0.01 0.0 1.456243343039669e-06 0.0 0.010008485205109477 0.009997846088223598 0.0 1.6173298812637796e-06 0.0 0.01 0.0 1.6173298812637796e-06 0.0 0.0100089043706137 0.009999734756299174 0.0 1.2807024705626096e-06 0.0 0.01 0.0 1.2807024705626096e-06 0.0 0.010009202883825877 0.010001632253681092 0.0 1.6607148290725157e-07 0.0 0.01 0.0 1.6607148290725157e-07 0.0 0.010008943136791152 0.009999143999099512 0.0 1.611492104958449e-06 0.0 0.01 0.0 1.6114921049588827e-06 0.0 0.010008645387182094 0.010000871458397986 0.0 1.277620780586056e-06 0.0 0.01 0.0 1.277620780586056e-06 0.0 0.010009051067689994 0.010003008211399224 0.0 1.7421062248210379e-07 0.0 0.01 0.0 1.74210622482158e-07 0.0 0.010009336814695598 0.010002753913192332 0.0 -1.475554965748617e-06 0.0 0.01 0.0 -1.4755549657481833e-06 0.0 0.01000794628727578 0.01000178137850095 0.0 1.0095026216959489e-06 0.0 0.01 0.0 1.009502621695732e-06 0.0 0.010008557975800138 0.010002817089964837 0.0 9.111655891966432e-09 0.0 0.01 0.0 9.111655891966432e-09 0.0 0.0100087037501296 0.01000209588018687 0.0 -3.7858196913183664e-07 0.0 0.01 0.0 -3.7858196913194506e-07 0.0 0.010007946984604001 
