# vtk DataFile Version 3.0
Test VTK file for Force data
ASCII
DATASET POLYDATA
POINTS 2975 float
-0.22 0.0099999998 -0.38
-0.22 0.0099999998 -0.36000001
-0.2 0.0099999998 -0.40000001
-0.2 0.0099999998 -0.38
-0.2 0.0099999998 -0.36000001
-0.18000001 0.0099999998 -0.40000001
-0.18000001 0.0099999998 -0.38
-0.18000001 0.0099999998 -0.36000001
-0.16 0.0099999998 -0.40000001
-0.16 0.0099999998 -0.38
-0.16 0.0099999998 -0.36000001
-0.14 0.0099999998 -0.40000001
-0.14 0.0099999998 -0.38
-0.14 0.0099999998 -0.36000001
-0.12 0.0099999998 -0.40000001
-0.12 0.0099999998 -0.38
-0.12 0.0099999998 -0.36000001
-0.1 0.0099999998 -0.40000001
-0.1 0.0099999998 -0.38
-0.1 0.0099999998 -0.36000001
-0.079999998 0.0099999998 -0.40000001
-0.079999998 0.0099999998 -0.38
-0.079999998 0.0099999998 -0.36000001
-0.059999999000000005 0.0099999998 -0.40000001
-0.059999999000000005 0.0099999998 -0.38
-0.059999999000000005 0.0099999998 -0.36000001
-0.039999999 0.0099999998 -0.40000001
-0.039999999 0.0099999998 -0.38
-0.039999999 0.0099999998 -0.36000001
-0.02 0.0099999998 -0.40000001
-0.02 0.0099999998 -0.38
-0.02 0.0099999998 -0.36000001
0.0 0.0099999998 -0.40000001
0.0 0.0099999998 -0.38
0.0 0.0099999998 -0.36000001
0.02 0.0099999998 -0.40000001
0.02 0.0099999998 -0.38
0.02 0.0099999998 -0.36000001
0.039999999 0.0099999998 -0.40000001
0.039999999 0.0099999998 -0.38
0.039999999 0.0099999998 -0.36000001
0.059999999000000005 0.0099999998 -0.40000001
0.059999999000000005 0.0099999998 -0.38
0.059999999000000005 0.0099999998 -0.36000001
0.079999998 0.0099999998 -0.40000001
0.079999998 0.0099999998 -0.38
0.079999998 0.0099999998 -0.36000001
0.1 0.0099999998 -0.40000001
0.1 0.0099999998 -0.38
0.1 0.0099999998 -0.36000001
0.12 0.0099999998 -0.40000001
0.12 0.0099999998 -0.38
0.12 0.0099999998 -0.36000001
0.14 0.0099999998 -0.40000001
0.14 0.0099999998 -0.38
0.14 0.0099999998 -0.36000001
0.16 0.0099999998 -0.40000001
0.16 0.0099999998 -0.38
0.16 0.0099999998 -0.36000001
0.18000001 0.0099999998 -0.40000001
0.18000001 0.0099999998 -0.38
0.18000001 0.0099999998 -0.36000001
0.2 0.0099999998 -0.38
0.2 0.0099999998 -0.36000001
-0.22 0.0099999998 -0.34
-0.22 0.0099999998 -0.31999999
-0.22 0.0099999998 -0.30000001
-0.22 0.0099999998 -0.28
-0.22 0.0099999998 -0.25999999
-0.22 0.0099999998 -0.23999999
-0.22 0.0099999998 -0.22
-0.22 0.0099999998 -0.2
-0.2 0.0099999998 -0.34
-0.2 0.0099999998 -0.31999999
-0.2 0.0099999998 -0.30000001
-0.2 0.0099999998 -0.28
-0.2 0.0099999998 -0.25999999
-0.2 0.0099999998 -0.23999999
-0.2 0.0099999998 -0.22
-0.2 0.0099999998 -0.2
-0.18000001 0.0099999998 -0.34
-0.18000001 0.0099999998 -0.31999999
-0.18000001 0.0099999998 -0.30000001
-0.18000001 0.0099999998 -0.28
-0.18000001 0.0099999998 -0.25999999
-0.18000001 0.0099999998 -0.23999999
-0.18000001 0.0099999998 -0.22
-0.18000001 0.0099999998 -0.2
-0.16 0.0099999998 -0.34
-0.16 0.0099999998 -0.31999999
-0.16 0.0099999998 -0.30000001
-0.16 0.0099999998 -0.28
-0.16 0.0099999998 -0.25999999
-0.16 0.0099999998 -0.23999999
-0.16 0.0099999998 -0.22
-0.16 0.0099999998 -0.2
-0.14 0.0099999998 -0.34
-0.14 0.0099999998 -0.31999999
-0.14 0.0099999998 -0.30000001
-0.14 0.0099999998 -0.28
-0.14 0.0099999998 -0.25999999
-0.14 0.0099999998 -0.23999999
-0.14 0.0099999998 -0.22
-0.14 0.0099999998 -0.2
-0.12 0.0099999998 -0.34
-0.12 0.0099999998 -0.31999999
-0.12 0.0099999998 -0.30000001
-0.12 0.0099999998 -0.28
-0.12 0.0099999998 -0.25999999
-0.12 0.0099999998 -0.23999999
-0.12 0.0099999998 -0.22
-0.12 0.0099999998 -0.2
-0.1 0.0099999998 -0.34
-0.1 0.0099999998 -0.31999999
-0.1 0.0099999998 -0.30000001
-0.1 0.0099999998 -0.28
-0.1 0.0099999998 -0.25999999
-0.1 0.0099999998 -0.23999999
-0.1 0.0099999998 -0.22
-0.1 0.0099999998 -0.2
-0.079999998 0.0099999998 -0.34
-0.079999998 0.0099999998 -0.31999999
-0.079999998 0.0099999998 -0.30000001
-0.079999998 0.0099999998 -0.28
-0.079999998 0.0099999998 -0.25999999
-0.079999998 0.0099999998 -0.23999999
-0.079999998 0.0099999998 -0.22
-0.079999998 0.0099999998 -0.2
-0.059999999000000005 0.0099999998 -0.34
-0.059999999000000005 0.0099999998 -0.31999999
-0.059999999000000005 0.0099999998 -0.30000001
-0.059999999000000005 0.0099999998 -0.28
-0.059999999000000005 0.0099999998 -0.25999999
-0.059999999000000005 0.0099999998 -0.23999999
-0.059999999000000005 0.0099999998 -0.22
-0.059999999000000005 0.0099999998 -0.2
-0.039999999 0.0099999998 -0.34
-0.039999999 0.0099999998 -0.31999999
-0.039999999 0.0099999998 -0.30000001
-0.039999999 0.0099999998 -0.28
-0.039999999 0.0099999998 -0.25999999
-0.039999999 0.0099999998 -0.23999999
-0.039999999 0.0099999998 -0.22
-0.039999999 0.0099999998 -0.2
-0.02 0.0099999998 -0.34
-0.02 0.0099999998 -0.31999999
-0.02 0.0099999998 -0.30000001
-0.02 0.0099999998 -0.28
-0.02 0.0099999998 -0.25999999
-0.02 0.0099999998 -0.23999999
-0.02 0.0099999998 -0.22
-0.02 0.0099999998 -0.2
0.0 0.0099999998 -0.34
0.0 0.0099999998 -0.31999999
0.0 0.0099999998 -0.30000001
0.02 0.0099999998 -0.34
0.02 0.0099999998 -0.31999999
0.039999999 0.0099999998 -0.34
0.039999999 0.0099999998 -0.31999999
0.059999999000000005 0.0099999998 -0.34
0.059999999000000005 0.0099999998 -0.31999999
0.079999998 0.0099999998 -0.34
0.079999998 0.0099999998 -0.31999999
0.1 0.0099999998 -0.34
0.1 0.0099999998 -0.31999999
0.12 0.0099999998 -0.34
0.12 0.0099999998 -0.31999999
0.14 0.0099999998 -0.34
0.14 0.0099999998 -0.31999999
0.16 0.0099999998 -0.34
0.16 0.0099999998 -0.31999999
0.18000001 0.0099999998 -0.34
0.18000001 0.0099999998 -0.31999999
0.2 0.0099999998 -0.34
0.2 0.0099999998 -0.31999999
-0.22 0.0099999998 -0.18000001
-0.22 0.0099999998 -0.16
-0.22 0.0099999998 -0.14
-0.22 0.0099999998 -0.12
-0.22 0.0099999998 -0.1
-0.22 0.0099999998 -0.079999998
-0.22 0.0099999998 -0.059999999000000005
-0.22 0.0099999998 -0.039999999
-0.22 0.0099999998 -0.02
-0.2 0.0099999998 -0.18000001
-0.2 0.0099999998 -0.16
-0.2 0.0099999998 -0.14
-0.2 0.0099999998 -0.12
-0.2 0.0099999998 -0.1
-0.2 0.0099999998 -0.079999998
-0.2 0.0099999998 -0.059999999000000005
-0.2 0.0099999998 -0.039999999
-0.2 0.0099999998 -0.02
-0.18000001 0.0099999998 -0.18000001
-0.18000001 0.0099999998 -0.16
-0.18000001 0.0099999998 -0.14
-0.18000001 0.0099999998 -0.12
-0.18000001 0.0099999998 -0.1
-0.18000001 0.0099999998 -0.079999998
-0.18000001 0.0099999998 -0.059999999000000005
-0.18000001 0.0099999998 -0.039999999
-0.18000001 0.0099999998 -0.02
-0.16 0.0099999998 -0.18000001
-0.16 0.0099999998 -0.16
-0.16 0.0099999998 -0.14
-0.16 0.0099999998 -0.12
-0.16 0.0099999998 -0.1
-0.16 0.0099999998 -0.079999998
-0.16 0.0099999998 -0.059999999000000005
-0.16 0.0099999998 -0.039999999
-0.16 0.0099999998 -0.02
-0.14 0.0099999998 -0.18000001
-0.14 0.0099999998 -0.16
-0.14 0.0099999998 -0.14
-0.14 0.0099999998 -0.12
-0.14 0.0099999998 -0.1
-0.14 0.0099999998 -0.079999998
-0.14 0.0099999998 -0.059999999000000005
-0.14 0.0099999998 -0.039999999
-0.14 0.0099999998 -0.02
-0.12 0.0099999998 -0.18000001
-0.12 0.0099999998 -0.16
-0.12 0.0099999998 -0.14
-0.12 0.0099999998 -0.12
-0.12 0.0099999998 -0.1
-0.12 0.0099999998 -0.079999998
-0.12 0.0099999998 -0.059999999000000005
-0.12 0.0099999998 -0.039999999
-0.12 0.0099999998 -0.02
-0.1 0.0099999998 -0.18000001
-0.1 0.0099999998 -0.16
-0.1 0.0099999998 -0.14
-0.1 0.0099999998 -0.12
-0.1 0.0099999998 -0.1
-0.1 0.0099999998 -0.079999998
-0.1 0.0099999998 -0.059999999000000005
-0.1 0.0099999998 -0.039999999
-0.1 0.0099999998 -0.02
-0.079999998 0.0099999998 -0.18000001
-0.079999998 0.0099999998 -0.16
-0.079999998 0.0099999998 -0.14
-0.079999998 0.0099999998 -0.12
-0.079999998 0.0099999998 -0.1
-0.079999998 0.0099999998 -0.079999998
-0.079999998 0.0099999998 -0.059999999000000005
-0.079999998 0.0099999998 -0.039999999
-0.079999998 0.0099999998 -0.02
-0.059999999000000005 0.0099999998 -0.18000001
-0.059999999000000005 0.0099999998 -0.16
-0.059999999000000005 0.0099999998 -0.14
-0.059999999000000005 0.0099999998 -0.12
-0.059999999000000005 0.0099999998 -0.1
-0.059999999000000005 0.0099999998 -0.079999998
-0.059999999000000005 0.0099999998 -0.059999999000000005
-0.059999999000000005 0.0099999998 -0.039999999
-0.059999999000000005 0.0099999998 -0.02
-0.039999999 0.0099999998 -0.18000001
-0.039999999 0.0099999998 -0.16
-0.039999999 0.0099999998 -0.14
-0.039999999 0.0099999998 -0.12
-0.039999999 0.0099999998 -0.1
-0.039999999 0.0099999998 -0.079999998
-0.039999999 0.0099999998 -0.059999999000000005
-0.039999999 0.0099999998 -0.039999999
-0.039999999 0.0099999998 -0.02
-0.02 0.0099999998 -0.18000001
-0.02 0.0099999998 -0.16
-0.02 0.0099999998 -0.14
-0.02 0.0099999998 -0.12
-0.02 0.0099999998 -0.1
-0.02 0.0099999998 -0.079999998
-0.02 0.0099999998 -0.059999999000000005
-0.02 0.0099999998 -0.039999999
-0.02 0.0099999998 -0.02
-0.22 0.0099999998 0.0
-0.22 0.0099999998 0.02
-0.22 0.0099999998 0.039999999
-0.22 0.0099999998 0.059999999000000005
-0.22 0.0099999998 0.079999998
-0.22 0.0099999998 0.1
-0.22 0.0099999998 0.12
-0.22 0.0099999998 0.14
-0.2 0.0099999998 0.0
-0.2 0.0099999998 0.02
-0.2 0.0099999998 0.039999999
-0.2 0.0099999998 0.059999999000000005
-0.2 0.0099999998 0.079999998
-0.2 0.0099999998 0.1
-0.2 0.0099999998 0.12
-0.2 0.0099999998 0.14
-0.18000001 0.0099999998 0.0
-0.18000001 0.0099999998 0.02
-0.18000001 0.0099999998 0.039999999
-0.18000001 0.0099999998 0.059999999000000005
-0.18000001 0.0099999998 0.079999998
-0.18000001 0.0099999998 0.1
-0.18000001 0.0099999998 0.12
-0.18000001 0.0099999998 0.14
-0.16 0.0099999998 0.0
-0.16 0.0099999998 0.02
-0.16 0.0099999998 0.039999999
-0.16 0.0099999998 0.059999999000000005
-0.16 0.0099999998 0.079999998
-0.16 0.0099999998 0.1
-0.16 0.0099999998 0.12
-0.16 0.0099999998 0.14
-0.14 0.0099999998 0.0
-0.14 0.0099999998 0.02
-0.14 0.0099999998 0.039999999
-0.14 0.0099999998 0.059999999000000005
-0.14 0.0099999998 0.079999998
-0.14 0.0099999998 0.1
-0.14 0.0099999998 0.12
-0.14 0.0099999998 0.14
-0.12 0.0099999998 0.0
-0.12 0.0099999998 0.02
-0.12 0.0099999998 0.039999999
-0.12 0.0099999998 0.059999999000000005
-0.12 0.0099999998 0.079999998
-0.12 0.0099999998 0.1
-0.12 0.0099999998 0.12
-0.12 0.0099999998 0.14
-0.1 0.0099999998 0.0
-0.1 0.0099999998 0.02
-0.1 0.0099999998 0.039999999
-0.1 0.0099999998 0.059999999000000005
-0.1 0.0099999998 0.079999998
-0.1 0.0099999998 0.1
-0.1 0.0099999998 0.12
-0.1 0.0099999998 0.14
-0.079999998 0.0099999998 0.0
-0.079999998 0.0099999998 0.02
-0.079999998 0.0099999998 0.039999999
-0.079999998 0.0099999998 0.059999999000000005
-0.079999998 0.0099999998 0.079999998
-0.079999998 0.0099999998 0.1
-0.079999998 0.0099999998 0.12
-0.079999998 0.0099999998 0.14
-0.059999999000000005 0.0099999998 0.0
-0.059999999000000005 0.0099999998 0.02
-0.059999999000000005 0.0099999998 0.039999999
-0.059999999000000005 0.0099999998 0.059999999000000005
-0.059999999000000005 0.0099999998 0.079999998
-0.059999999000000005 0.0099999998 0.1
-0.059999999000000005 0.0099999998 0.12
-0.059999999000000005 0.0099999998 0.14
-0.039999999 0.0099999998 0.0
-0.039999999 0.0099999998 0.02
-0.039999999 0.0099999998 0.039999999
-0.039999999 0.0099999998 0.059999999000000005
-0.039999999 0.0099999998 0.079999998
-0.039999999 0.0099999998 0.1
-0.039999999 0.0099999998 0.12
-0.039999999 0.0099999998 0.14
-0.02 0.0099999998 0.0
-0.02 0.0099999998 0.02
-0.02 0.0099999998 0.039999999
-0.02 0.0099999998 0.059999999000000005
-0.02 0.0099999998 0.079999998
-0.02 0.0099999998 0.1
-0.02 0.0099999998 0.12
-0.02 0.0099999998 0.14
-0.22 0.0099999998 0.16
-0.22 0.0099999998 0.18000001
-0.22 0.0099999998 0.2
-0.22 0.0099999998 0.22
-0.22 0.0099999998 0.23999999
-0.22 0.0099999998 0.25999999
-0.22 0.0099999998 0.28
-0.22 0.0099999998 0.30000001
-0.22 0.0099999998 0.31999999
-0.2 0.0099999998 0.16
-0.2 0.0099999998 0.18000001
-0.2 0.0099999998 0.2
-0.2 0.0099999998 0.22
-0.2 0.0099999998 0.23999999
-0.2 0.0099999998 0.25999999
-0.2 0.0099999998 0.28
-0.2 0.0099999998 0.30000001
-0.2 0.0099999998 0.31999999
-0.18000001 0.0099999998 0.16
-0.18000001 0.0099999998 0.18000001
-0.18000001 0.0099999998 0.2
-0.18000001 0.0099999998 0.22
-0.18000001 0.0099999998 0.23999999
-0.18000001 0.0099999998 0.25999999
-0.18000001 0.0099999998 0.28
-0.18000001 0.0099999998 0.30000001
-0.18000001 0.0099999998 0.31999999
-0.16 0.0099999998 0.16
-0.16 0.0099999998 0.18000001
-0.16 0.0099999998 0.2
-0.16 0.0099999998 0.22
-0.16 0.0099999998 0.23999999
-0.16 0.0099999998 0.25999999
-0.16 0.0099999998 0.28
-0.16 0.0099999998 0.30000001
-0.16 0.0099999998 0.31999999
-0.14 0.0099999998 0.16
-0.14 0.0099999998 0.18000001
-0.14 0.0099999998 0.2
-0.14 0.0099999998 0.22
-0.14 0.0099999998 0.23999999
-0.14 0.0099999998 0.25999999
-0.14 0.0099999998 0.28
-0.14 0.0099999998 0.30000001
-0.14 0.0099999998 0.31999999
-0.12 0.0099999998 0.16
-0.12 0.0099999998 0.18000001
-0.12 0.0099999998 0.2
-0.12 0.0099999998 0.22
-0.12 0.0099999998 0.23999999
-0.12 0.0099999998 0.25999999
-0.12 0.0099999998 0.28
-0.12 0.0099999998 0.30000001
-0.12 0.0099999998 0.31999999
-0.1 0.0099999998 0.16
-0.1 0.0099999998 0.18000001
-0.1 0.0099999998 0.2
-0.1 0.0099999998 0.22
-0.1 0.0099999998 0.23999999
-0.1 0.0099999998 0.25999999
-0.1 0.0099999998 0.28
-0.1 0.0099999998 0.30000001
-0.1 0.0099999998 0.31999999
-0.079999998 0.0099999998 0.16
-0.079999998 0.0099999998 0.18000001
-0.079999998 0.0099999998 0.2
-0.079999998 0.0099999998 0.22
-0.079999998 0.0099999998 0.23999999
-0.079999998 0.0099999998 0.25999999
-0.079999998 0.0099999998 0.28
-0.079999998 0.0099999998 0.30000001
-0.079999998 0.0099999998 0.31999999
-0.059999999000000005 0.0099999998 0.16
-0.059999999000000005 0.0099999998 0.18000001
-0.059999999000000005 0.0099999998 0.2
-0.059999999000000005 0.0099999998 0.22
-0.059999999000000005 0.0099999998 0.23999999
-0.059999999000000005 0.0099999998 0.25999999
-0.059999999000000005 0.0099999998 0.28
-0.059999999000000005 0.0099999998 0.30000001
-0.059999999000000005 0.0099999998 0.31999999
-0.039999999 0.0099999998 0.16
-0.039999999 0.0099999998 0.18000001
-0.039999999 0.0099999998 0.2
-0.039999999 0.0099999998 0.22
-0.039999999 0.0099999998 0.23999999
-0.039999999 0.0099999998 0.25999999
-0.039999999 0.0099999998 0.28
-0.039999999 0.0099999998 0.30000001
-0.039999999 0.0099999998 0.31999999
-0.02 0.0099999998 0.16
-0.02 0.0099999998 0.18000001
-0.02 0.0099999998 0.2
-0.02 0.0099999998 0.22
-0.02 0.0099999998 0.23999999
-0.02 0.0099999998 0.25999999
-0.02 0.0099999998 0.28
-0.02 0.0099999998 0.30000001
-0.02 0.0099999998 0.31999999
0.0 0.0099999998 0.30000001
0.0 0.0099999998 0.31999999
0.02 0.0099999998 0.31999999
0.039999999 0.0099999998 0.31999999
0.059999999000000005 0.0099999998 0.31999999
0.079999998 0.0099999998 0.31999999
0.1 0.0099999998 0.31999999
0.12 0.0099999998 0.31999999
0.14 0.0099999998 0.31999999
0.16 0.0099999998 0.31999999
0.18000001 0.0099999998 0.31999999
0.2 0.0099999998 0.31999999
-0.22 0.0099999998 0.34
-0.22 0.0099999998 0.36000001
-0.22 0.0099999998 0.38
-0.2 0.0099999998 0.34
-0.2 0.0099999998 0.36000001
-0.2 0.0099999998 0.38
-0.2 0.0099999998 0.40000001
-0.18000001 0.0099999998 0.34
-0.18000001 0.0099999998 0.36000001
-0.18000001 0.0099999998 0.38
-0.18000001 0.0099999998 0.40000001
-0.16 0.0099999998 0.34
-0.16 0.0099999998 0.36000001
-0.16 0.0099999998 0.38
-0.16 0.0099999998 0.40000001
-0.14 0.0099999998 0.34
-0.14 0.0099999998 0.36000001
-0.14 0.0099999998 0.38
-0.14 0.0099999998 0.40000001
-0.12 0.0099999998 0.34
-0.12 0.0099999998 0.36000001
-0.12 0.0099999998 0.38
-0.12 0.0099999998 0.40000001
-0.1 0.0099999998 0.34
-0.1 0.0099999998 0.36000001
-0.1 0.0099999998 0.38
-0.1 0.0099999998 0.40000001
-0.079999998 0.0099999998 0.34
-0.079999998 0.0099999998 0.36000001
-0.079999998 0.0099999998 0.38
-0.079999998 0.0099999998 0.40000001
-0.059999999000000005 0.0099999998 0.34
-0.059999999000000005 0.0099999998 0.36000001
-0.059999999000000005 0.0099999998 0.38
-0.059999999000000005 0.0099999998 0.40000001
-0.039999999 0.0099999998 0.34
-0.039999999 0.0099999998 0.36000001
-0.039999999 0.0099999998 0.38
-0.039999999 0.0099999998 0.40000001
-0.02 0.0099999998 0.34
-0.02 0.0099999998 0.36000001
-0.02 0.0099999998 0.38
-0.02 0.0099999998 0.40000001
0.0 0.0099999998 0.34
0.0 0.0099999998 0.36000001
0.0 0.0099999998 0.38
0.0 0.0099999998 0.40000001
0.02 0.0099999998 0.34
0.02 0.0099999998 0.36000001
0.02 0.0099999998 0.38
0.02 0.0099999998 0.40000001
0.039999999 0.0099999998 0.34
0.039999999 0.0099999998 0.36000001
0.039999999 0.0099999998 0.38
0.039999999 0.0099999998 0.40000001
0.059999999000000005 0.0099999998 0.34
0.059999999000000005 0.0099999998 0.36000001
0.059999999000000005 0.0099999998 0.38
0.059999999000000005 0.0099999998 0.40000001
0.079999998 0.0099999998 0.34
0.079999998 0.0099999998 0.36000001
0.079999998 0.0099999998 0.38
0.079999998 0.0099999998 0.40000001
0.1 0.0099999998 0.34
0.1 0.0099999998 0.36000001
0.1 0.0099999998 0.38
0.1 0.0099999998 0.40000001
0.12 0.0099999998 0.34
0.12 0.0099999998 0.36000001
0.12 0.0099999998 0.38
0.12 0.0099999998 0.40000001
0.14 0.0099999998 0.34
0.14 0.0099999998 0.36000001
0.14 0.0099999998 0.38
0.14 0.0099999998 0.40000001
0.16 0.0099999998 0.34
0.16 0.0099999998 0.36000001
0.16 0.0099999998 0.38
0.16 0.0099999998 0.40000001
0.18000001 0.0099999998 0.34
0.18000001 0.0099999998 0.36000001
0.18000001 0.0099999998 0.38
0.18000001 0.0099999998 0.40000001
0.2 0.0099999998 0.34
0.2 0.0099999998 0.36000001
0.2 0.0099999998 0.38
1.92 0.0099999998 -0.36000001
1.92 0.0099999998 -0.34
1.92 0.0099999998 -0.31999999
1.9400001 0.0099999998 -0.38
1.9400001 0.0099999998 -0.36000001
1.9400001 0.0099999998 -0.34
1.9400001 0.0099999998 -0.31999999
1.9400001 0.0099999998 -0.30000001
1.9400001 0.0099999998 -0.28
1.9400001 0.0099999998 -0.25999999
1.9400001 0.0099999998 -0.23999999
1.9400001 0.0099999998 -0.22
1.96 0.0099999998 -0.38
1.96 0.0099999998 -0.36000001
1.96 0.0099999998 -0.34
1.96 0.0099999998 -0.31999999
1.96 0.0099999998 -0.30000001
1.96 0.0099999998 -0.28
1.96 0.0099999998 -0.25999999
1.96 0.0099999998 -0.23999999
1.96 0.0099999998 -0.22
1.96 0.0099999998 -0.2
1.96 0.0099999998 -0.18000001
1.96 0.0099999998 -0.16
1.96 0.0099999998 -0.14
1.96 0.0099999998 -0.12
1.98 0.0099999998 -0.38
1.98 0.0099999998 -0.36000001
1.98 0.0099999998 -0.34
1.98 0.0099999998 -0.31999999
1.98 0.0099999998 -0.30000001
1.98 0.0099999998 -0.28
1.98 0.0099999998 -0.25999999
1.98 0.0099999998 -0.23999999
1.98 0.0099999998 -0.22
1.98 0.0099999998 -0.2
1.98 0.0099999998 -0.18000001
1.98 0.0099999998 -0.16
1.98 0.0099999998 -0.14
1.98 0.0099999998 -0.12
1.98 0.0099999998 -0.1
1.98 0.0099999998 -0.079999998
1.98 0.0099999998 -0.059999999000000005
1.98 0.0099999998 -0.039999999
1.98 0.0099999998 -0.02
2.0 0.0099999998 -0.38
2.0 0.0099999998 -0.36000001
2.0 0.0099999998 -0.34
2.0 0.0099999998 -0.31999999
2.0 0.0099999998 -0.30000001
2.0 0.0099999998 -0.28
2.0 0.0099999998 -0.25999999
2.0 0.0099999998 -0.23999999
2.0 0.0099999998 -0.22
2.0 0.0099999998 -0.2
2.0 0.0099999998 -0.18000001
2.0 0.0099999998 -0.16
2.0 0.0099999998 -0.14
2.0 0.0099999998 -0.12
2.0 0.0099999998 -0.1
2.0 0.0099999998 -0.079999998
2.0 0.0099999998 -0.059999999000000005
2.0 0.0099999998 -0.039999999
2.0 0.0099999998 -0.02
2.0 0.0099999998 0.0
2.0 0.0099999998 0.02
2.0 0.0099999998 0.039999999
2.0 0.0099999998 0.059999999000000005
2.0 0.0099999998 0.079999998
2.02 0.0099999998 -0.40000001
2.02 0.0099999998 -0.38
2.02 0.0099999998 -0.36000001
2.02 0.0099999998 -0.34
2.02 0.0099999998 -0.31999999
2.02 0.0099999998 -0.30000001
2.02 0.0099999998 -0.28
2.02 0.0099999998 -0.25999999
2.02 0.0099999998 -0.23999999
2.02 0.0099999998 -0.22
2.02 0.0099999998 -0.2
2.02 0.0099999998 -0.18000001
2.02 0.0099999998 -0.16
2.02 0.0099999998 -0.14
2.02 0.0099999998 -0.12
2.02 0.0099999998 -0.1
2.02 0.0099999998 -0.079999998
2.02 0.0099999998 -0.059999999000000005
2.02 0.0099999998 -0.039999999
2.02 0.0099999998 -0.02
2.02 0.0099999998 0.0
2.02 0.0099999998 0.02
2.02 0.0099999998 0.039999999
2.02 0.0099999998 0.059999999000000005
2.02 0.0099999998 0.079999998
2.02 0.0099999998 0.1
2.02 0.0099999998 0.12
2.02 0.0099999998 0.14
2.02 0.0099999998 0.16
2.02 0.0099999998 0.18000001
2.04 0.0099999998 -0.40000001
2.04 0.0099999998 -0.38
2.04 0.0099999998 -0.36000001
2.04 0.0099999998 -0.34
2.04 0.0099999998 -0.31999999
2.04 0.0099999998 -0.30000001
2.04 0.0099999998 -0.28
2.04 0.0099999998 -0.25999999
2.04 0.0099999998 -0.23999999
2.04 0.0099999998 -0.22
2.04 0.0099999998 -0.2
2.04 0.0099999998 -0.18000001
2.04 0.0099999998 -0.16
2.04 0.0099999998 -0.14
2.04 0.0099999998 -0.12
2.04 0.0099999998 -0.1
2.04 0.0099999998 -0.079999998
2.04 0.0099999998 -0.059999999000000005
2.04 0.0099999998 -0.039999999
2.04 0.0099999998 -0.02
2.04 0.0099999998 0.0
2.04 0.0099999998 0.02
2.04 0.0099999998 0.039999999
2.04 0.0099999998 0.059999999000000005
2.04 0.0099999998 0.079999998
2.04 0.0099999998 0.1
2.04 0.0099999998 0.12
2.04 0.0099999998 0.14
2.04 0.0099999998 0.16
2.04 0.0099999998 0.18000001
2.04 0.0099999998 0.2
2.04 0.0099999998 0.22
2.04 0.0099999998 0.23999999
2.04 0.0099999998 0.25999999
2.04 0.0099999998 0.28
2.0599998999999998 0.0099999998 -0.40000001
2.0599998999999998 0.0099999998 -0.38
2.0599998999999998 0.0099999998 -0.36000001
2.0599998999999998 0.0099999998 -0.34
2.0599998999999998 0.0099999998 -0.31999999
2.0599998999999998 0.0099999998 -0.30000001
2.0599998999999998 0.0099999998 -0.28
2.0599998999999998 0.0099999998 -0.25999999
2.0599998999999998 0.0099999998 -0.23999999
2.0599998999999998 0.0099999998 -0.22
2.0599998999999998 0.0099999998 -0.2
2.0599998999999998 0.0099999998 -0.18000001
2.0599998999999998 0.0099999998 -0.16
2.0599998999999998 0.0099999998 -0.14
2.0599998999999998 0.0099999998 -0.12
2.0599998999999998 0.0099999998 -0.1
2.0599998999999998 0.0099999998 -0.079999998
2.0599998999999998 0.0099999998 -0.059999999000000005
2.0599998999999998 0.0099999998 -0.039999999
2.0599998999999998 0.0099999998 -0.02
2.0599998999999998 0.0099999998 0.0
2.0599998999999998 0.0099999998 0.02
2.0599998999999998 0.0099999998 0.039999999
2.0599998999999998 0.0099999998 0.059999999000000005
2.0599998999999998 0.0099999998 0.079999998
2.0599998999999998 0.0099999998 0.1
2.0599998999999998 0.0099999998 0.12
2.0599998999999998 0.0099999998 0.14
2.0599998999999998 0.0099999998 0.16
2.0599998999999998 0.0099999998 0.18000001
2.0599998999999998 0.0099999998 0.2
2.0599998999999998 0.0099999998 0.22
2.0599998999999998 0.0099999998 0.23999999
2.0599998999999998 0.0099999998 0.25999999
2.0599998999999998 0.0099999998 0.28
2.0599998999999998 0.0099999998 0.30000001
2.0599998999999998 0.0099999998 0.31999999
2.0599998999999998 0.0099999998 0.34
2.0599998999999998 0.0099999998 0.36000001
2.0599998999999998 0.0099999998 0.38
2.0799999 0.0099999998 -0.40000001
2.0799999 0.0099999998 -0.38
2.0799999 0.0099999998 -0.36000001
2.0799999 0.0099999998 -0.34
2.0799999 0.0099999998 -0.31999999
2.0799999 0.0099999998 -0.30000001
2.0799999 0.0099999998 -0.28
2.0799999 0.0099999998 -0.25999999
2.0799999 0.0099999998 -0.23999999
2.0799999 0.0099999998 -0.22
2.0799999 0.0099999998 -0.2
2.0799999 0.0099999998 -0.18000001
2.0799999 0.0099999998 -0.16
2.0799999 0.0099999998 -0.14
2.0799999 0.0099999998 -0.12
2.0799999 0.0099999998 -0.1
2.0799999 0.0099999998 -0.079999998
2.0799999 0.0099999998 -0.059999999000000005
2.0799999 0.0099999998 -0.039999999
2.0799999 0.0099999998 -0.02
2.0799999 0.0099999998 0.0
2.0799999 0.0099999998 0.02
2.0799999 0.0099999998 0.039999999
2.0799999 0.0099999998 0.059999999000000005
2.0799999 0.0099999998 0.079999998
2.0799999 0.0099999998 0.1
2.0799999 0.0099999998 0.12
2.0799999 0.0099999998 0.14
2.0799999 0.0099999998 0.16
2.0799999 0.0099999998 0.18000001
2.0799999 0.0099999998 0.2
2.0799999 0.0099999998 0.22
2.0799999 0.0099999998 0.23999999
2.0799999 0.0099999998 0.25999999
2.0799999 0.0099999998 0.28
2.0799999 0.0099999998 0.30000001
2.0799999 0.0099999998 0.31999999
2.0799999 0.0099999998 0.34
2.0799999 0.0099999998 0.36000001
2.0799999 0.0099999998 0.38
2.0799999 0.0099999998 0.40000001
2.0999999 0.0099999998 -0.40000001
2.0999999 0.0099999998 -0.38
2.0999999 0.0099999998 -0.36000001
2.0999999 0.0099999998 -0.34
2.0999999 0.0099999998 -0.31999999
2.0999999 0.0099999998 -0.30000001
2.0999999 0.0099999998 -0.28
2.0999999 0.0099999998 -0.25999999
2.0999999 0.0099999998 -0.23999999
2.0999999 0.0099999998 -0.22
2.0999999 0.0099999998 -0.2
2.0999999 0.0099999998 -0.18000001
2.0999999 0.0099999998 -0.16
2.0999999 0.0099999998 -0.14
2.0999999 0.0099999998 -0.12
2.0999999 0.0099999998 -0.1
2.0999999 0.0099999998 -0.079999998
2.0999999 0.0099999998 -0.059999999000000005
2.0999999 0.0099999998 -0.039999999
2.0999999 0.0099999998 -0.02
2.0999999 0.0099999998 0.0
2.0999999 0.0099999998 0.02
2.0999999 0.0099999998 0.039999999
2.0999999 0.0099999998 0.059999999000000005
2.0999999 0.0099999998 0.079999998
2.0999999 0.0099999998 0.1
2.0999999 0.0099999998 0.12
2.0999999 0.0099999998 0.14
2.0999999 0.0099999998 0.16
2.0999999 0.0099999998 0.18000001
2.0999999 0.0099999998 0.2
2.0999999 0.0099999998 0.22
2.0999999 0.0099999998 0.23999999
2.0999999 0.0099999998 0.25999999
2.0999999 0.0099999998 0.28
2.0999999 0.0099999998 0.30000001
2.0999999 0.0099999998 0.31999999
2.0999999 0.0099999998 0.34
2.0999999 0.0099999998 0.36000001
2.0999999 0.0099999998 0.38
2.0999999 0.0099999998 0.40000001
2.1199999 0.0099999998 -0.41999999
2.1199999 0.0099999998 -0.40000001
2.1199999 0.0099999998 -0.38
2.1199999 0.0099999998 -0.36000001
2.1199999 0.0099999998 -0.34
2.1199999 0.0099999998 -0.31999999
2.1199999 0.0099999998 -0.30000001
2.1199999 0.0099999998 -0.28
2.1199999 0.0099999998 -0.25999999
2.1199999 0.0099999998 -0.23999999
2.1199999 0.0099999998 -0.22
2.1199999 0.0099999998 -0.2
2.1199999 0.0099999998 -0.18000001
2.1199999 0.0099999998 -0.16
2.1199999 0.0099999998 -0.14
2.1199999 0.0099999998 -0.12
2.1199999 0.0099999998 -0.1
2.1199999 0.0099999998 -0.079999998
2.1199999 0.0099999998 -0.059999999000000005
2.1199999 0.0099999998 -0.039999999
2.1199999 0.0099999998 -0.02
2.1199999 0.0099999998 0.0
2.1199999 0.0099999998 0.02
2.1199999 0.0099999998 0.039999999
2.1199999 0.0099999998 0.059999999000000005
2.1199999 0.0099999998 0.079999998
2.1199999 0.0099999998 0.1
2.1199999 0.0099999998 0.12
2.1199999 0.0099999998 0.14
2.1199999 0.0099999998 0.16
2.1199999 0.0099999998 0.18000001
2.1199999 0.0099999998 0.2
2.1199999 0.0099999998 0.22
2.1199999 0.0099999998 0.23999999
2.1199999 0.0099999998 0.25999999
2.1199999 0.0099999998 0.28
2.1199999 0.0099999998 0.30000001
2.1199999 0.0099999998 0.31999999
2.1199999 0.0099999998 0.34
2.1199999 0.0099999998 0.36000001
2.1199999 0.0099999998 0.38
2.1199999 0.0099999998 0.40000001
2.1400001 0.0099999998 -0.38
2.1400001 0.0099999998 -0.36000001
2.1400001 0.0099999998 -0.34
2.1400001 0.0099999998 -0.31999999
2.1400001 0.0099999998 -0.30000001
2.1400001 0.0099999998 -0.28
2.1400001 0.0099999998 -0.25999999
2.1400001 0.0099999998 -0.23999999
2.1400001 0.0099999998 -0.22
2.1400001 0.0099999998 -0.2
2.1400001 0.0099999998 -0.18000001
2.1400001 0.0099999998 -0.16
2.1400001 0.0099999998 -0.14
2.1400001 0.0099999998 -0.12
2.1400001 0.0099999998 -0.1
2.1400001 0.0099999998 -0.079999998
2.1400001 0.0099999998 -0.059999999000000005
2.1400001 0.0099999998 -0.039999999
2.1400001 0.0099999998 -0.02
2.1400001 0.0099999998 0.0
2.1400001 0.0099999998 0.02
2.1400001 0.0099999998 0.039999999
2.1400001 0.0099999998 0.059999999000000005
2.1400001 0.0099999998 0.079999998
2.1400001 0.0099999998 0.1
2.1400001 0.0099999998 0.12
2.1400001 0.0099999998 0.14
2.1400001 0.0099999998 0.16
2.1400001 0.0099999998 0.18000001
2.1400001 0.0099999998 0.2
2.1400001 0.0099999998 0.22
2.1400001 0.0099999998 0.23999999
2.1400001 0.0099999998 0.25999999
2.1400001 0.0099999998 0.28
2.1400001 0.0099999998 0.30000001
2.1400001 0.0099999998 0.31999999
2.1400001 0.0099999998 0.34
2.1400001 0.0099999998 0.36000001
2.1400001 0.0099999998 0.38
2.1400001 0.0099999998 0.40000001
2.1600001 0.0099999998 -0.28
2.1600001 0.0099999998 -0.25999999
2.1600001 0.0099999998 -0.23999999
2.1600001 0.0099999998 -0.22
2.1600001 0.0099999998 -0.2
2.1600001 0.0099999998 -0.18000001
2.1600001 0.0099999998 -0.16
2.1600001 0.0099999998 -0.14
2.1600001 0.0099999998 -0.12
2.1600001 0.0099999998 -0.1
2.1600001 0.0099999998 -0.079999998
2.1600001 0.0099999998 -0.059999999000000005
2.1600001 0.0099999998 -0.039999999
2.1600001 0.0099999998 -0.02
2.1600001 0.0099999998 0.0
2.1600001 0.0099999998 0.02
2.1600001 0.0099999998 0.039999999
2.1600001 0.0099999998 0.059999999000000005
2.1600001 0.0099999998 0.079999998
2.1600001 0.0099999998 0.1
2.1600001 0.0099999998 0.12
2.1600001 0.0099999998 0.14
2.1600001 0.0099999998 0.16
2.1600001 0.0099999998 0.18000001
2.1600001 0.0099999998 0.2
2.1600001 0.0099999998 0.22
2.1600001 0.0099999998 0.23999999
2.1600001 0.0099999998 0.25999999
2.1600001 0.0099999998 0.28
2.1600001 0.0099999998 0.30000001
2.1600001 0.0099999998 0.31999999
2.1600001 0.0099999998 0.34
2.1600001 0.0099999998 0.36000001
2.1600001 0.0099999998 0.38
2.1600001 0.0099999998 0.40000001
2.1800001 0.0099999998 -0.18000001
2.1800001 0.0099999998 -0.16
2.1800001 0.0099999998 -0.14
2.1800001 0.0099999998 -0.12
2.1800001 0.0099999998 -0.1
2.1800001 0.0099999998 -0.079999998
2.1800001 0.0099999998 -0.059999999000000005
2.1800001 0.0099999998 -0.039999999
2.1800001 0.0099999998 -0.02
2.1800001 0.0099999998 0.0
2.1800001 0.0099999998 0.02
2.1800001 0.0099999998 0.039999999
2.1800001 0.0099999998 0.059999999000000005
2.1800001 0.0099999998 0.079999998
2.1800001 0.0099999998 0.1
2.1800001 0.0099999998 0.12
2.1800001 0.0099999998 0.14
2.1800001 0.0099999998 0.16
2.1800001 0.0099999998 0.18000001
2.1800001 0.0099999998 0.2
2.1800001 0.0099999998 0.22
2.1800001 0.0099999998 0.23999999
2.1800001 0.0099999998 0.25999999
2.1800001 0.0099999998 0.28
2.1800001 0.0099999998 0.30000001
2.1800001 0.0099999998 0.31999999
2.1800001 0.0099999998 0.34
2.1800001 0.0099999998 0.36000001
2.1800001 0.0099999998 0.38
2.1800001 0.0099999998 0.40000001
2.2 0.0099999998 -0.079999998
2.2 0.0099999998 -0.059999999000000005
2.2 0.0099999998 -0.039999999
2.2 0.0099999998 -0.02
2.2 0.0099999998 0.0
2.2 0.0099999998 0.02
2.2 0.0099999998 0.039999999
2.2 0.0099999998 0.059999999000000005
2.2 0.0099999998 0.079999998
2.2 0.0099999998 0.1
2.2 0.0099999998 0.12
2.2 0.0099999998 0.14
2.2 0.0099999998 0.16
2.2 0.0099999998 0.18000001
2.2 0.0099999998 0.2
2.2 0.0099999998 0.22
2.2 0.0099999998 0.23999999
2.2 0.0099999998 0.25999999
2.2 0.0099999998 0.28
2.2 0.0099999998 0.30000001
2.2 0.0099999998 0.31999999
2.2 0.0099999998 0.34
2.2 0.0099999998 0.36000001
2.2 0.0099999998 0.38
2.22 0.0099999998 0.02
2.22 0.0099999998 0.039999999
2.22 0.0099999998 0.059999999000000005
2.22 0.0099999998 0.079999998
2.22 0.0099999998 0.1
2.22 0.0099999998 0.12
2.22 0.0099999998 0.14
2.22 0.0099999998 0.16
2.22 0.0099999998 0.18000001
2.22 0.0099999998 0.2
2.22 0.0099999998 0.22
2.22 0.0099999998 0.23999999
2.22 0.0099999998 0.25999999
2.22 0.0099999998 0.28
2.22 0.0099999998 0.30000001
2.22 0.0099999998 0.31999999
2.22 0.0099999998 0.34
2.22 0.0099999998 0.36000001
2.22 0.0099999998 0.38
2.24 0.0099999998 0.12
2.24 0.0099999998 0.14
2.24 0.0099999998 0.16
2.24 0.0099999998 0.18000001
2.24 0.0099999998 0.2
2.24 0.0099999998 0.22
2.24 0.0099999998 0.23999999
2.24 0.0099999998 0.25999999
2.24 0.0099999998 0.28
2.24 0.0099999998 0.30000001
2.24 0.0099999998 0.31999999
2.24 0.0099999998 0.34
2.24 0.0099999998 0.36000001
2.24 0.0099999998 0.38
2.26 0.0099999998 0.22
2.26 0.0099999998 0.23999999
2.26 0.0099999998 0.25999999
2.26 0.0099999998 0.28
2.26 0.0099999998 0.30000001
2.26 0.0099999998 0.31999999
2.26 0.0099999998 0.34
2.26 0.0099999998 0.36000001
2.26 0.0099999998 0.38
2.28 0.0099999998 0.31999999
2.28 0.0099999998 0.34
2.28 0.0099999998 0.36000001
-6.0564325e-06 0.0099999998 -0.28000236
-7.3980968e-06 0.0099999998 -0.26000229
-8.5385691e-06 0.0099999998 -0.24000208
-9.4365305e-06 0.0099999998 -0.22000182
-1.0101617e-05 0.0099999998 -0.20000152
0.019994078000000002 0.0099999998 -0.30000308
0.019991646000000002 0.0099999998 -0.28000286
0.019989556000000002 0.0099999998 -0.26000285
0.019987861000000003 0.0099999998 -0.24000268
0.01998657 0.0099999998 -0.22000238
0.019985641999999998 0.0099999998 -0.20000203
0.039991774 0.0099999998 -0.30000338
0.039988425 0.0099999998 -0.28000322
0.039985538 0.0099999998 -0.26000318
0.039983187 0.0099999998 -0.24000297
0.039981432000000004 0.0099999998 -0.22000268
0.039980188 0.0099999998 -0.2000023
0.059988927000000004 0.0099999998 -0.30000353
0.059984512999999996 0.0099999998 -0.28000334
0.059980772 0.0099999998 -0.2600033
0.059977755 0.0099999998 -0.24000312
0.059975516 0.0099999998 -0.22000283
0.059973963 0.0099999998 -0.20000243
0.07998558900000001 0.0099999998 -0.30000371
0.079979986 0.0099999998 -0.28000337
0.07997533700000001 0.0099999998 -0.2600033
0.079971649 0.0099999998 -0.24000312
0.079968952 0.0099999998 -0.22000284
0.079967111 0.0099999998 -0.20000246
0.099981658 0.0099999998 -0.30000392
0.099974737 0.0099999998 -0.28000334
0.09996914900000001 0.0099999998 -0.26000321
0.09996479 0.0099999998 -0.24000302
0.099961668 0.0099999998 -0.22000276
0.09995958199999999 0.0099999998 -0.20000239
0.11997697 0.0099999998 -0.3000043
0.1199686 0.0099999998 -0.28000334
0.11996203 0.0099999998 -0.26000306
0.11995701 0.0099999998 -0.24000286
0.11995349 0.0099999998 -0.22000264
0.11995119 0.0099999998 -0.2000023
0.1399713 0.0099999998 -0.30000496
0.13996135 0.0099999998 -0.28000349
0.13995378 0.0099999998 -0.26000306
0.13994807 0.0099999998 -0.24000275
0.13994417 0.0099999998 -0.22000256
0.13994169 0.0099999998 -0.20000228
0.15996422 0.0099999998 -0.30000576
0.15995274 0.0099999998 -0.28000385
0.15994419 0.0099999998 -0.26000324
0.1599378 0.0099999998 -0.24000289
0.15993352 0.0099999998 -0.22000271
0.15993088 0.0099999998 -0.20000246
0.17995495 0.0099999998 -0.30000597
0.17994247 0.0099999998 -0.28000429
0.17993304 0.0099999998 -0.26000369
0.17992602 0.0099999998 -0.24000336
0.17992136 0.0099999998 -0.22000322
0.17991862 0.0099999998 -0.200003
0.19994278 0.0099999998 -0.30000553
0.19993004 0.0099999998 -0.28000471
0.19991998 0.0099999998 -0.26000434
0.19991247 0.0099999998 -0.24000424
0.19990754 0.0099999998 -0.22000422
0.19990475 0.0099999998 -0.20000403
0.21992904 0.0099999998 -0.30000833
0.21991527 0.0099999998 -0.28000647
0.21990483 0.0099999998 -0.26000589
0.21989694 0.0099999998 -0.24000581
0.21989186 0.0099999998 -0.22000583
0.21988913 0.0099999998 -0.20000567
0.23991251 0.0099999998 -0.30002043
0.23989789 0.0099999998 -0.28001413
0.23988707 0.0099999998 -0.26001048
0.23987906 0.0099999998 -0.24000905
0.23987408 0.0099999998 -0.22000855
0.23987153 0.0099999998 -0.20000814
0.25989079 0.0099999998 -0.30003169
0.25987664 0.0099999998 -0.28002414
0.25986606 0.0099999998 -0.2600179
0.25985846 0.0099999998 -0.24001446
0.25985393 0.0099999998 -0.22001281
0.25985169 0.0099999998 -0.20001161
0.27986464 0.0099999998 -0.30003989
0.27985156 0.0099999998 -0.28003278
0.27984184 0.0099999998 -0.26002595
0.2798351 0.0099999998 -0.24002123
0.27983117 0.0099999998 -0.22001827
0.27982932 0.0099999998 -0.20001601
0.29983586 0.0099999998 -0.30004686
0.29982397 0.0099999998 -0.28004023
0.29981509 0.0099999998 -0.26003358
0.29980907 0.0099999998 -0.24002825
0.29980564 0.0099999998 -0.22002426
0.29980421 0.0099999998 -0.20002103
0.31980583 0.0099999998 -0.30005372
0.31979451 0.0099999998 -0.28004721
0.31978604 0.0099999998 -0.26004067
0.31978035 0.0099999998 -0.24003506
0.31977719 0.0099999998 -0.22003038
0.31977612 0.0099999998 -0.20002639
0.33977473 0.0099999998 -0.30006087
0.33976308 0.0099999998 -0.28005415
0.33975437 0.0099999998 -0.26004753
0.33974859 0.0099999998 -0.24004167
0.33974552 0.0099999998 -0.22003648
0.33974472 0.0099999998 -0.20003186
0.35974163 0.0099999998 -0.30006859
0.35972887 0.0099999998 -0.28006142
0.35971943 0.0099999998 -0.26005438
0.35971335 0.0099999998 -0.24004824
0.35971028 0.0099999998 -0.2200426
0.35970971 0.0099999998 -0.20003739
0.37970525 0.0099999998 -0.30007693
0.37969103 0.0099999998 -0.28006914
0.37968069 0.0099999998 -0.26006153
0.3796742 0.0099999998 -0.24005495
0.37967113 0.0099999998 -0.22004879
0.37967077 0.0099999998 -0.20004296
0.39966485 0.0099999998 -0.30008599
0.39964902 0.0099999998 -0.28007743
0.3996377 0.0099999998 -0.2600691
0.39963073 0.0099999998 -0.24006194
0.39962763 0.0099999998 -0.22005516
0.39962754 0.0099999998 -0.20004864
0.41961992 0.0099999998 -0.30009592
0.41960239 0.0099999998 -0.2800864
0.41959 0.0099999998 -0.26007721
0.41958255 0.0099999998 -0.24006931
0.41957939 0.0099999998 -0.22006179
0.4195796 0.0099999998 -0.2000545
0.43956995 0.0099999998 -0.30010685
0.43955058 0.0099999998 -0.28009623
0.43953705 0.0099999998 -0.26008597
0.43952909 0.0099999998 -0.24007711
0.43952596 0.0099999998 -0.22006872
0.4395265 0.0099999998 -0.20006061
0.45951417 0.0099999998 -0.30011913
0.45949283 0.0099999998 -0.28010714
0.4594782 0.0099999998 -0.26009542
0.4594698 0.0099999998 -0.24008532
0.4594667 0.0099999998 -0.22007602
0.45946774 0.0099999998 -0.2000671
0.47945145 0.0099999998 -0.30013302
0.47942823 0.0099999998 -0.28011924
0.47941259 0.0099999998 -0.26010552
0.47940385 0.0099999998 -0.24009396
0.47940105 0.0099999998 -0.22008388
0.47940272 0.0099999998 -0.20007437
0.49938014 0.0099999998 -0.30014905
0.49935555 0.0099999998 -0.28013286
0.49933934 0.0099999998 -0.2601164
0.49933064 0.0099999998 -0.24010332
0.49932837 0.0099999998 -0.2200928
0.49933094 0.0099999998 -0.20008309
0.51929802 0.0099999998 -0.30016786
0.51927346 0.0099999998 -0.28014848
0.51925766 0.0099999998 -0.26012847
0.51924962 0.0099999998 -0.24011423
0.51924843 0.0099999998 -0.2201039
0.51925212 0.0099999998 -0.2000944
0.53920305 0.0099999998 -0.30019036
0.53918123 0.0099999998 -0.28016692
0.53916752 0.0099999998 -0.26014289
0.53916126 0.0099999998 -0.24012822
0.53916156 0.0099999998 -0.22011884
0.53916675 0.0099999998 -0.20010991
0.55909526 0.0099999998 -0.30021805
0.55908 0.0099999998 -0.28018996
0.55907065 0.0099999998 -0.26016188
0.55906749 0.0099999998 -0.24014765
0.55906999 0.0099999998 -0.22013982
0.55907667 0.0099999998 -0.20013125
0.57897902 0.0099999998 -0.30025327
0.57897449 0.0099999998 -0.28022069
0.57897168 0.0099999998 -0.26018894
0.57897258 0.0099999998 -0.24017516
0.57897782 0.0099999998 -0.22016856
0.57898587 0.0099999998 -0.20015959
0.59886414 0.0099999998 -0.30029997
0.59887248 0.0099999998 -0.28026426
0.59887755 0.0099999998 -0.26022956
0.5988825 0.0099999998 -0.24021292
0.59888965 0.0099999998 -0.22020449
0.59889895 0.0099999998 -0.20019357
0.61876363 0.0099999998 -0.30036405
0.61878264 0.0099999998 -0.28032839
0.61879176 0.0099999998 -0.26028779
0.61879981 0.0099999998 -0.24026214
0.61880964 0.0099999998 -0.22024763
0.61882019 0.0099999998 -0.20023179
0.6386897 0.0099999998 -0.30044967
0.63871104 0.0099999998 -0.28041759
0.63872164 0.0099999998 -0.26037562
0.63873011 0.0099999998 -0.24033216
0.63874084 0.0099999998 -0.22029948
0.63875395 0.0099999998 -0.200275
0.65865237 0.0099999998 -0.30054957
0.65867054 0.0099999998 -0.28052482
0.65868163 0.0099999998 -0.26049292
0.65868932 0.0099999998 -0.24043903
0.65869677 0.0099999998 -0.22037713
0.65870851 0.0099999998 -0.20033188
0.67867565 0.0099999998 -0.30064067
0.67867225 0.0099999998 -0.28062457
0.67867947 0.0099999998 -0.26060864
0.67868614 0.0099999998 -0.24056616
0.67868716 0.0099999998 -0.22048491
0.67869443 0.0099999998 -0.2004156
0.69887984 0.0099999998 -0.30071399
0.69876891 0.0099999998 -0.28070241
0.69874072 0.0099999998 -0.26070273
0.69874567 0.0099999998 -0.24068742
0.69874024 0.0099999998 -0.22061898
0.69873887 0.0099999998 -0.20053855
0.71924716 0.0099999998 -0.30076829
0.71912658 0.0099999998 -0.2807565
0.71902043 0.0099999998 -0.26076442
0.71895134 0.0099999998 -0.24077109
0.71892059 0.0099999998 -0.22073661
0.7189135 0.0099999998 -0.20068084
0.73954862 0.0099999998 -0.30080625
0.73947203 0.0099999998 -0.28079173
0.73940247 0.0099999998 -0.26078433
0.73934877 0.0099999998 -0.24078256
0.73931497 0.0099999998 -0.22075179
0.73930073 0.0099999998 -0.20070186
0.75975382 0.0099999998 -0.30083376
0.75971192 0.0099999998 -0.2808162
0.75967485 0.0099999998 -0.26079181
0.7596432 0.0099999998 -0.24077763
0.75962096 0.0099999998 -0.22074379
0.75960845 0.0099999998 -0.20069183
0.77988875 0.0099999998 -0.30085272
0.77987325 0.0099999998 -0.28083262
0.77986044 0.0099999998 -0.26080042
0.77984774 0.0099999998 -0.24077281
0.77983689 0.0099999998 -0.22073217
0.77982891 0.0099999998 -0.20067714
0.79999846 0.0099999998 -0.30086255
0.80000395 0.0099999998 -0.28084084
0.80000955 0.0099999998 -0.26080734
0.80001235 0.0099999998 -0.24077369
0.80001146 0.0099999998 -0.22072692
0.8000083 0.0099999998 -0.20066668
0.82011956 0.0099999998 -0.30086353
0.82014447 0.0099999998 -0.28084117
0.82016492 0.0099999998 -0.26081043
0.82018042 0.0099999998 -0.24077934
0.82018745 0.0099999998 -0.22072871
0.82018721 0.0099999998 -0.20066081
0.84026492 0.0099999998 -0.30085418
0.8403092 0.0099999998 -0.28083149
0.84034359 0.0099999998 -0.26080346
0.8403697 0.0099999998 -0.24077754
0.84038264 0.0099999998 -0.22072732
0.84038234 0.0099999998 -0.20065543
0.86042619 0.0099999998 -0.300836
0.86049032 0.0099999998 -0.28081319
0.86053813 0.0099999998 -0.26078692
0.86057389 0.0099999998 -0.24076524
0.86059111 0.0099999998 -0.22071765
0.86058831 0.0099999998 -0.20064624
0.8805871 0.0099999998 -0.30081093
0.88066953 0.0099999998 -0.28078789
0.88072985 0.0099999998 -0.26076233
0.88077497 0.0099999998 -0.24074283
0.88079554 0.0099999998 -0.22069821
0.8807894 0.0099999998 -0.20063008
0.90073347 0.0099999998 -0.30078024
0.90082985 0.0099999998 -0.28075719
0.90090108 0.0099999998 -0.26073119
0.90095282 0.0099999998 -0.24071009
0.90097785 0.0099999998 -0.22066738
0.90097028 0.0099999998 -0.20060536
0.9208563 0.0099999998 -0.3007448
0.92095989 0.0099999998 -0.28072223
0.92103875 0.0099999998 -0.26069421
0.92109495 0.0099999998 -0.24066891
0.9211247 0.0099999998 -0.22062565
0.92111421 0.0099999998 -0.20057251
0.94095135 0.0099999998 -0.30070597
0.94105673 0.0099999998 -0.28068393
0.94114035 0.0099999998 -0.26065311
0.94119829 0.0099999998 -0.24062158
0.94120991 0.0099999998 -0.22058383
0.94117671 0.0099999998 -0.200537
0.96102637 0.0099999998 -0.30066401
0.96113032 0.0099999998 -0.28064278
0.96121418 0.0099999998 -0.26060921
0.96125519 0.0099999998 -0.2405792
0.96123642 0.0099999998 -0.22054873
0.96119314 0.0099999998 -0.20050137
0.98109466 0.0099999998 -0.30061883
0.98119318 0.0099999998 -0.28059837
0.9812662 0.0099999998 -0.26056439
0.98127586 0.0099999998 -0.24054238
0.98124117 0.0099999998 -0.22051291
0.98119241 0.0099999998 -0.20046622
1.0011666 0.0099999998 -0.3005712
1.0012504999999998 0.0099999998 -0.28055099
1.0012981 0.0099999998 -0.26051974
1.0012813 0.0099999998 -0.24050361
1.0012364 0.0099999998 -0.22047396
1.0011845 0.0099999998 -0.20043278
1.0212501 0.0099999998 -0.30052236
1.0213075 0.0099999998 -0.2805019
1.0213159 0.0099999998 -0.26047546
1.0212809 0.0099999998 -0.24046226
1.0212283000000002 0.0099999998 -0.22043607
1.0211735 0.0099999998 -0.20040187
1.0413550999999999 0.0099999998 -0.30047289
1.0413666 0.0099999998 -0.28045458
1.0413284999999999 0.0099999998 -0.2604337
1.0412785 0.0099999998 -0.24042109
1.0412197 0.0099999998 -0.22039892
1.0411606 0.0099999998 -0.20036919
1.0614562 0.0099999998 -0.30043098
1.0614084 0.0099999998 -0.2804147
1.0613427 0.0099999998 -0.26039502
1.0612761999999998 0.0099999998 -0.24038239
1.0612117 0.0099999998 -0.22036244
1.0611469999999998 0.0099999998 -0.20033641
1.0814974 0.0099999998 -0.30039251
1.0814322 0.0099999998 -0.28037745
1.0813509 0.0099999998 -0.26035708
1.0812742 0.0099999998 -0.24034384
1.0812045 0.0099999998 -0.22032727
1.0811342 0.0099999998 -0.20030296
1.1014372 0.0099999998 -0.28034276
1.1013509 0.0099999998 -0.26031956
1.1012716 0.0099999998 -0.24030463
1.1011978 0.0099999998 -0.22029097
1.1011233 0.0099999998 -0.20027022
1.1214252 0.0099999998 -0.28031239
1.1213475 0.0099999998 -0.2602888
1.1212677 0.0099999998 -0.24026839
1.1211923000000001 0.0099999998 -0.22025564
1.1211146 0.0099999998 -0.20023786
1.1413405 0.0099999998 -0.26026714
1.1412632 0.0099999998 -0.24024202
1.1411892 0.0099999998 -0.22022632
1.1411097 0.0099999998 -0.20020966
1.1613231000000002 0.0099999998 -0.26025015
1.1612611000000002 0.0099999998 -0.24022801
1.1611881000000002 0.0099999998 -0.22020553
1.1611103999999999 0.0099999998 -0.20018871
1.1812505 0.0099999998 -0.24022028
1.1811878999999998 0.0099999998 -0.22019666
1.1811156999999999 0.0099999998 -0.20017743
1.2011794 0.0099999998 -0.22019391
1.2011222 0.0099999998 -0.20017542
1.2211409 0.0099999998 -0.22018164
1.2211134 0.0099999998 -0.20017546
-1.0565279000000001e-05 0.0099999998 -0.18000124
-1.0871799e-05 0.0099999998 -0.16000098
-1.1053747e-05 0.0099999998 -0.14000076
-1.1146944e-05 0.0099999998 -0.12000058
-1.1182265e-05 0.0099999998 -0.10000042
-1.1181998e-05 0.0099999998 -0.080000296
-1.116505e-05 0.0099999998 -0.0600002
-1.1144218e-05 0.0099999998 -0.040000122
-1.1128351e-05 0.0099999998 -0.020000056999999998
0.019985015 0.0099999998 -0.18000166
0.019984618 0.0099999998 -0.16000132
0.019984398 0.0099999998 -0.14000104
0.019984294 0.0099999998 -0.12000079
0.019984268 0.0099999998 -0.10000058
0.019984283999999998 0.0099999998 -0.080000415
0.019984322 0.0099999998 -0.060000282
0.019984361000000003 0.0099999998 -0.040000174
0.019984388999999998 0.0099999998 -0.020000083000000002
0.039979376000000004 0.0099999998 -0.18000191
0.03997888 0.0099999998 -0.16000155
0.039978616 0.0099999998 -0.14000122
0.039978504 0.0099999998 -0.12000094
0.039978497 0.0099999998 -0.1000007
0.039978538 0.0099999998 -0.080000505
0.039978601 0.0099999998 -0.060000345
0.039978664 0.0099999998 -0.040000215
0.039978705 0.0099999998 -0.020000102
0.059972964000000004 0.0099999998 -0.18000203
0.059972379000000006 0.0099999998 -0.16000165
0.059972081 0.0099999998 -0.14000131
0.059971977 0.0099999998 -0.12000101
0.059971988 0.0099999998 -0.10000076
0.059972066 0.0099999998 -0.08000055
0.059972162999999995 0.0099999998 -0.060000379000000006
0.059972252999999996 0.0099999998 -0.040000233999999996
0.059972316 0.0099999998 -0.020000113
0.079965957 0.0099999998 -0.18000205
0.079965308 0.0099999998 -0.16000168
0.079964995 0.0099999998 -0.14000133
0.079964906 0.0099999998 -0.12000103
0.079964958 0.0099999998 -0.10000078
0.079965077 0.0099999998 -0.08000056400000001
0.079965219 0.0099999998 -0.06000039
0.07996534599999999 0.0099999998 -0.040000241
0.079965428 0.0099999998 -0.020000116999999998
0.099958315 0.0099999998 -0.180002
0.09995762300000001 0.0099999998 -0.16000164
0.09995731699999999 0.0099999998 -0.14000131
0.09995727199999999 0.0099999998 -0.12000102
0.09995738400000001 0.0099999998 -0.10000077
0.099957556 0.0099999998 -0.08000056400000001
0.099957749 0.0099999998 -0.06000039
0.09995791300000001 0.0099999998 -0.040000245
0.099958017 0.0099999998 -0.020000119
0.11994983 0.0099999998 -0.18000196
0.11994914 0.0099999998 -0.16000162
0.11994888 0.0099999998 -0.1400013
0.1199489 0.0099999998 -0.12000102
0.11994908 0.0099999998 -0.10000078
0.11994933 0.0099999998 -0.080000579
0.11994958 0.0099999998 -0.060000405
0.11994979 0.0099999998 -0.040000256
0.11994993 0.0099999998 -0.020000123999999998
0.13994029 0.0099999998 -0.18000199
0.13993962 0.0099999998 -0.16000168
0.13993943 0.0099999998 -0.14000137
0.13993955 0.0099999998 -0.1200011
0.13993981 0.0099999998 -0.10000086
0.13994016 0.0099999998 -0.080000639
0.13994049 0.0099999998 -0.060000457
0.13994075 0.0099999998 -0.040000293
0.13994092 0.0099999998 -0.020000143
0.15992947 0.0099999998 -0.1800022
0.15992887 0.0099999998 -0.1600019
0.15992878 0.0099999998 -0.14000161
0.15992902 0.0099999998 -0.12000132
0.15992941 0.0099999998 -0.10000104
0.15992986 0.0099999998 -0.080000803
0.15993027 0.0099999998 -0.06000057599999999
0.1599306 0.0099999998 -0.040000375
0.15993083 0.0099999998 -0.020000184
0.17991725 0.0099999998 -0.18000273
0.17991675 0.0099999998 -0.16000243
0.1799168 0.0099999998 -0.1400021
0.17991717 0.0099999998 -0.12000175
0.17991771 0.0099999998 -0.10000141
0.17991827 0.0099999998 -0.080001093
0.1799188 0.0099999998 -0.0600008
0.17991921 0.0099999998 -0.040000521000000004
0.17991947 0.0099999998 -0.020000257
0.19990347 0.0099999998 -0.18000375
0.19990312 0.0099999998 -0.16000336
0.19990332 0.0099999998 -0.14000292
0.19990388 0.0099999998 -0.12000246
0.19990456 0.0099999998 -0.10000201
0.19990528 0.0099999998 -0.080001563
0.19990592 0.0099999998 -0.060001146
0.19990641 0.0099999998 -0.040000752
0.19990674 0.0099999998 -0.020000372
0.21988799 0.0099999998 -0.1800053
0.21988779 0.0099999998 -0.16000476
0.2198882 0.0099999998 -0.14000417
0.21988893 0.0099999998 -0.12000352
0.21988979 0.0099999998 -0.10000287
0.21989067 0.0099999998 -0.080002241
0.21989144 0.0099999998 -0.060001649000000004
0.21989205 0.0099999998 -0.040001083
0.21989243 0.0099999998 -0.020000536
0.23987056 0.0099999998 -0.18000747
0.23987058 0.0099999998 -0.1600067
0.23987119 0.0099999998 -0.14000584
0.23987213 0.0099999998 -0.12000492
0.2398732 0.0099999998 -0.10000402
0.23987426 0.0099999998 -0.080003142
0.23987518 0.0099999998 -0.060002312
0.2398759 0.0099999998 -0.040001519
0.23987634 0.0099999998 -0.020000752
0.25985098 0.0099999998 -0.18001041
0.25985122 0.0099999998 -0.16000919
0.25985208 0.0099999998 -0.14000796
0.25985324 0.0099999998 -0.1200067
0.25985456 0.0099999998 -0.10000546
0.25985581 0.0099999998 -0.080004275
0.25985691 0.0099999998 -0.060003147
0.25985774 0.0099999998 -0.040002067
0.25985825 0.0099999998 -0.020001026
0.27982894 0.0099999998 -0.18001406
0.27982947 0.0099999998 -0.16001225
0.2798306 0.0099999998 -0.14001052
0.27983204 0.0099999998 -0.12000882
0.27983359 0.0099999998 -0.10000719
0.27983508 0.0099999998 -0.080005631
0.27983636 0.0099999998 -0.060004145
0.27983734 0.0099999998 -0.040002726
0.27983794 0.0099999998 -0.020001352
0.29980418 0.0099999998 -0.18001828
0.29980507 0.0099999998 -0.16001579
0.29980651 0.0099999998 -0.14001347
0.29980826 0.0099999998 -0.12001125
0.29981008 0.0099999998 -0.10000915
0.29981181 0.0099999998 -0.08000716599999999
0.29981327 0.0099999998 -0.060005277
0.2998144 0.0099999998 -0.040003475
0.29981509 0.0099999998 -0.020001722
0.31977645 0.0099999998 -0.18002287
0.3197777 0.0099999998 -0.16001967
0.31977952 0.0099999998 -0.1400167
0.3197816 0.0099999998 -0.12001393
0.31978375 0.0099999998 -0.10001132
0.31978571 0.0099999998 -0.080008857
0.31978741 0.0099999998 -0.060006533
0.31978866 0.0099999998 -0.040004302
0.31978947 0.0099999998 -0.020002136
0.3397454 0.0099999998 -0.18002765
0.33974707 0.0099999998 -0.16002375
0.33974931 0.0099999998 -0.14002015
0.33975178 0.0099999998 -0.12001679
0.33975425 0.0099999998 -0.10001364
0.33975649 0.0099999998 -0.08001069
0.3397584 0.0099999998 -0.060007885
0.33975983 0.0099999998 -0.040005196
0.33976072 0.0099999998 -0.020002581000000002
0.35971078 0.0099999998 -0.18003249
0.3597129 0.0099999998 -0.16002794
0.35971555 0.0099999998 -0.14002371
0.35971844 0.0099999998 -0.12001976
0.35972124 0.0099999998 -0.10001607
0.35972381 0.0099999998 -0.080012597
0.35972595 0.0099999998 -0.060009297
0.35972753 0.0099999998 -0.040006123
0.35972852 0.0099999998 -0.020003041000000003
0.37967226 0.0099999998 -0.18003741
0.37967482 0.0099999998 -0.1600322
0.37967795 0.0099999998 -0.14002734
0.37968126 0.0099999998 -0.12002279
0.37968445 0.0099999998 -0.10001853
0.37968731 0.0099999998 -0.080014527
0.37968969 0.0099999998 -0.06001072
0.37969145 0.0099999998 -0.040007062
0.37969255 0.0099999998 -0.020003507
0.39962944 0.0099999998 -0.18004239
0.39963251 0.0099999998 -0.1600365
0.39963612 0.0099999998 -0.140031
0.3996399 0.0099999998 -0.12002583
0.39964348 0.0099999998 -0.100021
0.39964667 0.0099999998 -0.080016457
0.39964929 0.0099999998 -0.060012147
0.39965126 0.0099999998 -0.040008005
0.39965245 0.0099999998 -0.020003974
0.41958198 0.0099999998 -0.18004748
0.41958559 0.0099999998 -0.16004089
0.41958976 0.0099999998 -0.14003471
0.41959405 0.0099999998 -0.12002891
0.41959807 0.0099999998 -0.1000235
0.41960162 0.0099999998 -0.08001842299999999
0.41960451 0.0099999998 -0.060013607000000004
0.41960666 0.0099999998 -0.040008972999999996
0.41960797 0.0099999998 -0.020004459
0.43952945 0.0099999998 -0.18005282
0.43953371 0.0099999998 -0.16004547
0.43953851 0.0099999998 -0.14003861
0.43954337 0.0099999998 -0.12003218
0.43954787 0.0099999998 -0.10002618
0.43955177 0.0099999998 -0.080020539
0.43955496 0.0099999998 -0.06001519
0.43955731 0.0099999998 -0.040010027999999996
0.43955877 0.0099999998 -0.020004986000000002
0.45947137 0.0099999998 -0.1800586
0.45947641 0.0099999998 -0.16005056
0.45948195 0.0099999998 -0.14004299
0.45948744 0.0099999998 -0.12003591
0.45949247 0.0099999998 -0.10002927
0.45949683 0.0099999998 -0.080023006
0.45950034 0.0099999998 -0.060017046
0.45950291 0.0099999998 -0.040011276
0.45950449 0.0099999998 -0.020005612
0.47940722 0.0099999998 -0.1800653
0.47941315 0.0099999998 -0.16005665
0.47941956 0.0099999998 -0.1400484
0.47942579 0.0099999998 -0.12004056
0.47943142 0.0099999998 -0.10003315
0.47943625 0.0099999998 -0.080026135
0.47944012 0.0099999998 -0.060019407000000004
0.47944298 0.0099999998 -0.040012862999999996
0.47944471 0.0099999998 -0.020006413
0.49933648 0.0099999998 -0.18007372
0.49934345 0.0099999998 -0.16006455
0.49935085 0.0099999998 -0.14005554
0.49935791 0.0099999998 -0.12004677
0.49936423 0.0099999998 -0.10003836
0.49936959 0.0099999998 -0.080030322
0.49937388 0.0099999998 -0.060022566
0.49937701 0.0099999998 -0.040014986
0.49937889 0.0099999998 -0.02000748
0.51925886 0.0099999998 -0.18008496
0.51926702 0.0099999998 -0.16007525
0.51927543 0.0099999998 -0.1400653
0.51928341 0.0099999998 -0.1200553
0.51929045 0.0099999998 -0.10004552
0.51929641 0.0099999998 -0.080036044
0.51930118 0.0099999998 -0.060026857999999995
0.51930463 0.0099999998 -0.040017851
0.51930672 0.0099999998 -0.020008918
0.5391748 0.0099999998 -0.18010031
0.53918403 0.0099999998 -0.16008979
0.53919345 0.0099999998 -0.14007856
0.53920233 0.0099999998 -0.12006687
0.5392102 0.0099999998 -0.10005518
0.53921682 0.0099999998 -0.080043748
0.53922206 0.0099999998 -0.060032617
0.53922588 0.0099999998 -0.040021677
0.5392282 0.0099999998 -0.020010822
0.55908591 0.0099999998 -0.18012106
0.55909616 0.0099999998 -0.16010924
0.55910641 0.0099999998 -0.14009608
0.55911613 0.0099999998 -0.12008212
0.55912471 0.0099999998 -0.10006791
0.55913198 0.0099999998 -0.080053903
0.55913776 0.0099999998 -0.060040187
0.55914193 0.0099999998 -0.040026698
0.5591445 0.0099999998 -0.020013327
0.57899594 0.0099999998 -0.18014795
0.57900679 0.0099999998 -0.16013381
0.57901764 0.0099999998 -0.1401179
0.57902795 0.0099999998 -0.12010095
0.57903725 0.0099999998 -0.10008355
0.57904512 0.0099999998 -0.080066323
0.57905138 0.0099999998 -0.060049444
0.57905602 0.0099999998 -0.040032856
0.57905883 0.0099999998 -0.020016409
0.59890974 0.0099999998 -0.18017951
0.5989213 0.0099999998 -0.16016285
0.5989328 0.0099999998 -0.14014398
0.59894365 0.0099999998 -0.12012345
0.59895337 0.0099999998 -0.10010223
0.59896171 0.0099999998 -0.08008115
0.59896851 0.0099999998 -0.060060509000000005
0.59897357 0.0099999998 -0.04004024
0.59897667 0.0099999998 -0.020020114
0.61883247 0.0099999998 -0.18021458
0.61884511 0.0099999998 -0.16019528
0.61885715 0.0099999998 -0.14017308
0.61886829 0.0099999998 -0.12014869
0.61887842 0.0099999998 -0.10012346
0.61888719 0.0099999998 -0.080098271
0.6188944 0.0099999998 -0.060073405999999996
0.61889988 0.0099999998 -0.040048879
0.61890322 0.0099999998 -0.020024478000000002
0.63876826 0.0099999998 -0.18025284
0.63878167 0.0099999998 -0.16022971
0.63879389 0.0099999998 -0.14020354
0.63880515 0.0099999998 -0.12017509
0.63881558 0.0099999998 -0.1001455
0.63882482 0.0099999998 -0.080115855
0.63883251 0.0099999998 -0.06008663400000001
0.63883829 0.0099999998 -0.040057775
0.63884187 0.0099999998 -0.020028933999999998
0.65872246 0.0099999998 -0.18029857
0.65873575 0.0099999998 -0.16026902
0.65874767 0.0099999998 -0.14023791
0.65875864 0.0099999998 -0.12020412
0.65876877 0.0099999998 -0.10016934
0.65877807 0.0099999998 -0.08013498
0.65878594 0.0099999998 -0.060101327
0.6587919 0.0099999998 -0.040067803
0.65879554 0.0099999998 -0.020033972
0.67870659 0.0099999998 -0.18036716
0.67871869 0.0099999998 -0.16032781
0.67872918 0.0099999998 -0.14028928
0.67873865 0.0099999998 -0.12024876
0.67874771 0.0099999998 -0.10020754
0.67875612 0.0099999998 -0.08016696599999999
0.67876321 0.0099999998 -0.0601267
0.67876852 0.0099999998 -0.040085871
0.67877167 0.0099999998 -0.020043548
0.69874531 0.0099999998 -0.1804741
0.698753 0.0099999998 -0.16042109
0.69875824 0.0099999998 -0.14036913
0.6987623 0.0099999998 -0.12031627
0.6987676 0.0099999998 -0.10026442
0.69877338 0.0099999998 -0.080213934
0.69877851 0.0099999998 -0.060163207
0.69878227 0.0099999998 -0.040110964
0.69878441 0.0099999998 -0.020056307
0.71891475 0.0099999998 -0.18061671
0.71891969 0.0099999998 -0.16055584
0.71892345 0.0099999998 -0.14048941
0.71892703 0.0099999998 -0.12041777
0.71893233 0.0099999998 -0.1003467
0.71893871 0.0099999998 -0.080278277
0.71894497 0.0099999998 -0.060211409
0.71895027 0.0099999998 -0.040143482
0.71895379 0.0099999998 -0.020072846000000002
0.73929745 0.0099999998 -0.18063995
0.73929751 0.0099999998 -0.16058038
0.7392984 0.0099999998 -0.14051282
0.73930001 0.0099999998 -0.12043874
0.73930228 0.0099999998 -0.10036575
0.73930514 0.0099999998 -0.08029533900000001
0.73930818 0.0099999998 -0.06022558
0.73931098 0.0099999998 -0.040153727
0.73931301 0.0099999998 -0.020078246
0.75960207 0.0099999998 -0.18063377
0.75959772 0.0099999998 -0.16057941
0.75959432 0.0099999998 -0.14051567
0.75959176 0.0099999998 -0.12044422
0.75959003 0.0099999998 -0.10037273
0.7595892 0.0099999998 -0.080302782
0.75958902 0.0099999998 -0.060232445999999995
0.75958937 0.0099999998 -0.040159017000000005
0.75958979 0.0099999998 -0.020081125
0.77982312 0.0099999998 -0.18062252
0.77981812 0.0099999998 -0.1605721
0.77981347 0.0099999998 -0.1405115
0.77980924 0.0099999998 -0.12044241
0.77980548 0.0099999998 -0.10037261
0.77980256 0.0099999998 -0.080303766
0.77980047 0.0099999998 -0.060233969000000005
0.77979916 0.0099999998 -0.040160481
0.77979851 0.0099999998 -0.02008201
0.80000424 0.0099999998 -0.18061231
0.79999983 0.0099999998 -0.16056354
0.79999512 0.0099999998 -0.14050448
0.79999042 0.0099999998 -0.12043671
0.799986 0.0099999998 -0.10036813
0.79998219 0.0099999998 -0.08030045
0.79997909 0.0099999998 -0.060231734
0.79997694 0.0099999998 -0.040159155
0.79997563 0.0099999998 -0.020081406
0.82018334 0.0099999998 -0.18060473
0.82017839 0.0099999998 -0.1605556
0.8201732 0.0099999998 -0.14049661
0.82016808 0.0099999998 -0.12042917
0.82016325 0.0099999998 -0.10036124
0.82015902 0.0099999998 -0.080294587
0.8201555 0.0099999998 -0.060227159
0.82015294 0.0099999998 -0.04015604
0.82015139 0.0099999998 -0.020079833000000002
0.84037602 0.0099999998 -0.18059768
0.84036845 0.0099999998 -0.16054747
0.84036124 0.0099999998 -0.14048788
0.84035486 0.0099999998 -0.12042033
0.84034926 0.0099999998 -0.10035285
0.84034455 0.0099999998 -0.080287181
0.84034079 0.0099999998 -0.06022119099999999
0.84033799 0.0099999998 -0.040151848999999996
0.84033626 0.0099999998 -0.020077668
0.86057717 0.0099999998 -0.18058784
0.86056495 0.0099999998 -0.16053684
0.86055434 0.0099999998 -0.14047688
0.86054564 0.0099999998 -0.12040955
0.86053866 0.0099999998 -0.10034284
0.86053318 0.0099999998 -0.08027843400000001
0.86052889 0.0099999998 -0.060214143
0.86052585 0.0099999998 -0.04014688
0.86052394 0.0099999998 -0.020075092
0.88077229 0.0099999998 -0.1805723
0.88075459 0.0099999998 -0.16052145
0.88073981 0.0099999998 -0.140462
0.88072819 0.0099999998 -0.12039575
0.8807193 0.0099999998 -0.10033055
0.88071257 0.0099999998 -0.080268003
0.88070756 0.0099999998 -0.060205884
0.88070399 0.0099999998 -0.040141113
0.88070184 0.0099999998 -0.020072114
0.90094769 0.0099999998 -0.18054953
0.90092474 0.0099999998 -0.16049992
0.90090579 0.0099999998 -0.1404421
0.90089107 0.0099999998 -0.12037806
0.90087986 0.0099999998 -0.10031534
0.90087152 0.0099999998 -0.08025541900000001
0.90086538 0.0099999998 -0.060196105
0.90086102 0.0099999998 -0.040134374
0.9008584 0.0099999998 -0.02006866
0.92108172 0.0099999998 -0.18051998
0.92104965 0.0099999998 -0.1604723
0.92102343 0.0099999998 -0.14041705
0.92100269 0.0099999998 -0.12035625
0.92098635 0.0099999998 -0.10029704
0.9209736 0.0099999998 -0.08024068200000001
0.92096406 0.0099999998 -0.060184932999999996
0.92095733 0.0099999998 -0.040126804
0.92095339 0.0099999998 -0.020064821
0.94113469 0.0099999998 -0.18048726
0.9410975 0.0099999998 -0.16044113
0.94106662 0.0099999998 -0.14038864
0.94104147 0.0099999998 -0.1203317
0.9410212 0.0099999998 -0.10027657
0.94100517 0.0099999998 -0.080224194
0.94099295 0.0099999998 -0.060172315999999997
0.94098437 0.0099999998 -0.040118165
0.9409793 0.0099999998 -0.020060387
0.96114826 0.0099999998 -0.1804546
0.96110886 0.0099999998 -0.16040993
0.96107578 0.0099999998 -0.14036013
0.96104848 0.0099999998 -0.120307
0.96102619 0.0099999998 -0.10025574
0.96100843 0.0099999998 -0.080207035
0.9609949 0.0099999998 -0.060158905
0.96098542 0.0099999998 -0.040108871000000004
0.96097988 0.0099999998 -0.020055667
0.98114568 0.0099999998 -0.18042365
0.98110491 0.0099999998 -0.16038115
0.98107052 0.0099999998 -0.14033391
0.98104209 0.0099999998 -0.12028408
0.98101884 0.0099999998 -0.10023617
0.98100036 0.0099999998 -0.080190822
0.98098624 0.0099999998 -0.060146164
0.98097622 0.0099999998 -0.040099893
0.98097032 0.0099999998 -0.020050922
1.0011363000000002 0.0099999998 -0.18039341
1.0010941999999998 0.0099999998 -0.16035452
1.0010584999999999 0.0099999998 -0.14031067
1.0010290000000002 0.0099999998 -0.12026453
1.0010052 0.0099999998 -0.10021972
1.0009861 0.0099999998 -0.080177173
1.0009714 0.0099999998 -0.060135212
1.0009608 0.0099999998 -0.040092051000000004
1.0009545 0.0099999998 -0.020046813
1.0211232 0.0099999998 -0.18036561
1.0210796999999998 0.0099999998 -0.16032889
1.0210424999999999 0.0099999998 -0.14028835
1.0210120999999999 0.0099999998 -0.12024561
1.0209876 0.0099999998 -0.10020354
1.0209681000000002 0.0099999998 -0.08016362
1.0209529 0.0099999998 -0.060124572
1.020942 0.0099999998 -0.040084641000000004
1.0209353 0.0099999998 -0.020042948
1.0411075 0.0099999998 -0.18033825
1.0410614 0.0099999998 -0.16030434
1.0410229 0.0099999998 -0.14026788
1.0409912000000001 0.0099999998 -0.12022834
1.0409659 0.0099999998 -0.10018916
1.0409459 0.0099999998 -0.080151364
1.0409303 0.0099999998 -0.060114559000000005
1.0409188 0.0099999998 -0.04007734
1.0409119 0.0099999998 -0.020039108
1.0610901000000001 0.0099999998 -0.18030971
1.061041 0.0099999998 -0.16027968
1.0610003000000001 0.0099999998 -0.1402472
1.0609671999999999 0.0099999998 -0.12021212
1.0609407 0.0099999998 -0.10017592
1.0609198999999998 0.0099999998 -0.080140322
1.0609038 0.0099999998 -0.060105390999999994
1.0608921 0.0099999998 -0.040070627000000004
1.0608848 0.0099999998 -0.020035461
1.0810716999999999 0.0099999998 -0.18027925
1.0810196 0.0099999998 -0.16025509
1.080976 0.0099999998 -0.1402265
1.0809412 0.0099999998 -0.12019602
1.0809133 0.0099999998 -0.10016332
1.0808913999999998 0.0099999998 -0.080130219
1.0808746999999999 0.0099999998 -0.060097322
1.0808625 0.0099999998 -0.040064777999999995
1.0808553 0.0099999998 -0.020032413
1.101055 0.0099999998 -0.18024836
1.1009983 0.0099999998 -0.16022755
1.1009521 0.0099999998 -0.14020544
1.1009145 0.0099999998 -0.12017927
1.1008850000000001 0.0099999998 -0.10015098
1.1008618000000001 0.0099999998 -0.080120526
1.1008443 0.0099999998 -0.060089909000000004
1.1008316999999999 0.0099999998 -0.040059496
1.1008243999999998 0.0099999998 -0.020029608
1.1210415 0.0099999998 -0.18021789
1.1209793 0.0099999998 -0.16019909
1.1209294 0.0099999998 -0.14018135
1.1208893 0.0099999998 -0.12016121
1.1208573999999998 0.0099999998 -0.10013729
1.1208328 0.0099999998 -0.080110893
1.1208141999999999 0.0099999998 -0.060082749000000005
1.1208011999999998 0.0099999998 -0.040054742000000004
1.1207936 0.0099999998 -0.020027209
1.1410321 0.0099999998 -0.18018982
1.1409646999999998 0.0099999998 -0.1601717
1.1409098 0.0099999998 -0.14015576
1.1408664 0.0099999998 -0.12014031
1.1408321000000001 0.0099999998 -0.10012195
1.1408055000000001 0.0099999998 -0.08009970200000001
1.1407858999999998 0.0099999998 -0.060075302000000004
1.1407723 0.0099999998 -0.040049974
1.1407644 0.0099999998 -0.020024926999999998
1.1610284 0.0099999998 -0.18016763
1.1609553999999997 0.0099999998 -0.16014792
1.1608952 0.0099999998 -0.14013177
1.1608473 0.0099999998 -0.12011776
1.1608101 0.0099999998 -0.10010375
1.1607815000000001 0.0099999998 -0.080086805
1.1607603000000002 0.0099999998 -0.060066365
1.1607459999999998 0.0099999998 -0.04004458
1.1607378000000002 0.0099999998 -0.020022388999999998
1.1810348999999998 0.0099999998 -0.18015586
1.1809542 0.0099999998 -0.16013214
1.1808866000000002 0.0099999998 -0.14011261
1.1808336000000001 0.0099999998 -0.12009754
1.1807925 0.0099999998 -0.10008459
1.1807611999999998 0.0099999998 -0.080071442
1.1807386 0.0099999998 -0.060055937999999996
1.1807233 0.0099999998 -0.040038127
1.1807146000000002 0.0099999998 -0.020019228
1.2010477 0.0099999998 -0.18015255
1.2009674 0.0099999998 -0.16012934
1.2008892 0.0099999998 -0.14010429
1.200827 0.0099999998 -0.12008388
1.2007806 0.0099999998 -0.10006884
1.2007462 0.0099999998 -0.080056481
1.2007212999999999 0.0099999998 -0.060044348
1.2007048 0.0099999998 -0.04003071
1.2006955 0.0099999998 -0.020015649
1.2210531 0.0099999998 -0.18015361
1.220984 0.0099999998 -0.1601318
1.2209088 0.0099999998 -0.14010951
1.2208364 0.0099999998 -0.12008476
1.2207788 0.0099999998 -0.10006307
1.2207381000000002 0.0099999998 -0.080046967
1.2207099 0.0099999998 -0.060034767
1.2206914 0.0099999998 -0.040024035
1.220681 0.0099999998 -0.020012408
1.2410339 0.0099999998 -0.18014988
1.2409823 0.0099999998 -0.16013135
1.240924 0.0099999998 -0.14011435
1.2408608 0.0099999998 -0.12009488
1.2407991000000003 0.0099999998 -0.10007358
1.2407471 0.0099999998 -0.080052115
1.2407103000000002 0.0099999998 -0.06003448
1.2406868999999998 0.0099999998 -0.040021546
1.2406741000000001 0.0099999998 -0.020010883
1.2609527 0.0099999998 -0.16012479
1.2609121 0.0099999998 -0.1401111
1.2608643999999998 0.0099999998 -0.1200955
1.2608176000000002 0.0099999998 -0.10008126
1.2607733 0.0099999998 -0.08006363400000001
1.2607368 0.0099999998 -0.060045768
1.2607095 0.0099999998 -0.040028392999999995
1.2606933999999999 0.0099999998 -0.020013466
1.2808386 0.0099999998 -0.12008952
1.2808044 0.0099999998 -0.10007802
1.2807697 0.0099999998 -0.080062345
1.2807426000000002 0.0099999998 -0.060046535
1.2807224 0.0099999998 -0.040029645
1.2807101 0.0099999998 -0.020013791
1.3007411 0.0099999998 -0.08005762799999999
1.3007184999999999 0.0099999998 -0.060040932000000005
1.3007016000000002 0.0099999998 -0.040025264
1.3006915000000001 0.0099999998 -0.020011727
-1.1122535e-05 0.0099999998 -2.2502237000000003e-14
-1.1128354999999999e-05 0.0099999998 0.020000056999999998
-1.1144214999999998e-05 0.0099999998 0.040000122
-1.1165047999999999e-05 0.0099999998 0.0600002
-1.1181998e-05 0.0099999998 0.080000296
-1.1182270000000001e-05 0.0099999998 0.10000042
-1.1146944e-05 0.0099999998 0.12000058
-1.1053748e-05 0.0099999998 0.14000076
0.019984398 0.0099999998 -4.4249793e-13
0.019984388999999998 0.0099999998 0.020000083000000002
0.019984361000000003 0.0099999998 0.040000174
0.019984322 0.0099999998 0.060000282
0.019984283999999998 0.0099999998 0.080000415
0.019984268 0.0099999998 0.10000058
0.019984294 0.0099999998 0.12000079
0.019984398 0.0099999998 0.14000104
0.039978724 0.0099999998 -1.6697522000000002e-14
0.039978705 0.0099999998 0.020000102
0.039978664 0.0099999998 0.040000215
0.039978601 0.0099999998 0.060000345
0.039978538 0.0099999998 0.080000505
0.039978497 0.0099999998 0.1000007
0.039978504 0.0099999998 0.12000094
0.039978616 0.0099999998 0.14000122
0.059972338 0.0099999998 -1.1177921e-12
0.059972316 0.0099999998 0.020000113
0.059972252999999996 0.0099999998 0.040000233999999996
0.059972162999999995 0.0099999998 0.060000379000000006
0.059972066 0.0099999998 0.08000055
0.059971988 0.0099999998 0.10000076
0.059971977 0.0099999998 0.12000101
0.059972081 0.0099999998 0.14000131
0.079965457 0.0099999998 -1.0706336000000001e-12
0.079965428 0.0099999998 0.020000116999999998
0.07996534599999999 0.0099999998 0.040000241
0.079965219 0.0099999998 0.06000039
0.079965077 0.0099999998 0.08000056400000001
0.079964958 0.0099999998 0.10000078
0.079964906 0.0099999998 0.12000103
0.079964995 0.0099999998 0.14000133
0.09995806199999999 0.0099999998 -3.0777301e-13
0.099958017 0.0099999998 0.020000119
0.09995791300000001 0.0099999998 0.040000245
0.099957749 0.0099999998 0.06000039
0.099957556 0.0099999998 0.08000056400000001
0.09995738400000001 0.0099999998 0.10000077
0.09995727199999999 0.0099999998 0.12000102
0.09995731699999999 0.0099999998 0.14000131
0.11994997 0.0099999998 -4.6505592e-14
0.11994993 0.0099999998 0.020000123999999998
0.11994979 0.0099999998 0.040000256
0.11994958 0.0099999998 0.060000405
0.11994933 0.0099999998 0.080000579
0.11994908 0.0099999998 0.10000078
0.1199489 0.0099999998 0.12000102
0.11994888 0.0099999998 0.1400013
0.13994099 0.0099999998 1.2588418e-12
0.13994092 0.0099999998 0.020000143
0.13994075 0.0099999998 0.040000293
0.13994049 0.0099999998 0.060000457
0.13994016 0.0099999998 0.080000639
0.13993981 0.0099999998 0.10000086
0.13993955 0.0099999998 0.1200011
0.13993943 0.0099999998 0.14000137
0.1599309 0.0099999998 -1.5253181000000001e-12
0.15993083 0.0099999998 0.020000184
0.1599306 0.0099999998 0.040000375
0.15993027 0.0099999998 0.06000057599999999
0.15992986 0.0099999998 0.080000803
0.15992941 0.0099999998 0.10000104
0.15992902 0.0099999998 0.12000132
0.15992878 0.0099999998 0.14000161
0.17991956 0.0099999998 1.5812106000000002e-12
0.17991947 0.0099999998 0.020000257
0.17991921 0.0099999998 0.040000521000000004
0.1799188 0.0099999998 0.0600008
0.17991827 0.0099999998 0.080001093
0.17991771 0.0099999998 0.10000141
0.17991717 0.0099999998 0.12000175
0.1799168 0.0099999998 0.1400021
0.19990684 0.0099999998 1.0615712e-12
0.19990674 0.0099999998 0.020000372
0.19990641 0.0099999998 0.040000752
0.19990592 0.0099999998 0.060001146
0.19990528 0.0099999998 0.080001563
0.19990456 0.0099999998 0.10000201
0.19990388 0.0099999998 0.12000246
0.19990332 0.0099999998 0.14000292
0.21989256 0.0099999998 -2.1566958e-12
0.21989243 0.0099999998 0.020000536
0.21989205 0.0099999998 0.040001083
0.21989144 0.0099999998 0.060001649000000004
0.21989067 0.0099999998 0.080002241
0.21988979 0.0099999998 0.10000287
0.21988893 0.0099999998 0.12000352
0.2198882 0.0099999998 0.14000417
0.23987649 0.0099999998 2.1391932999999998e-12
0.23987634 0.0099999998 0.020000752
0.2398759 0.0099999998 0.040001519
0.23987518 0.0099999998 0.060002312
0.23987426 0.0099999998 0.080003142
0.2398732 0.0099999998 0.10000402
0.23987213 0.0099999998 0.12000492
0.23987119 0.0099999998 0.14000584
0.25985843 0.0099999998 -3.6608481e-12
0.25985825 0.0099999998 0.020001026
0.25985774 0.0099999998 0.040002067
0.25985691 0.0099999998 0.060003147
0.25985581 0.0099999998 0.080004275
0.25985456 0.0099999998 0.10000546
0.25985324 0.0099999998 0.1200067
0.25985208 0.0099999998 0.14000796
0.27983814 0.0099999998 -1.4821328e-13
0.27983794 0.0099999998 0.020001352
0.27983734 0.0099999998 0.040002726
0.27983636 0.0099999998 0.060004145
0.27983508 0.0099999998 0.080005631
0.27983359 0.0099999998 0.10000719
0.27983204 0.0099999998 0.12000882
0.2798306 0.0099999998 0.14001052
0.29981533 0.0099999998 -3.068319e-12
0.29981509 0.0099999998 0.020001722
0.2998144 0.0099999998 0.040003475
0.29981327 0.0099999998 0.060005277
0.29981181 0.0099999998 0.08000716599999999
0.29981008 0.0099999998 0.10000915
0.29980826 0.0099999998 0.12001125
0.29980651 0.0099999998 0.14001347
0.31978974 0.0099999998 -6.3006371e-12
0.31978947 0.0099999998 0.020002136
0.31978866 0.0099999998 0.040004302
0.31978741 0.0099999998 0.060006533
0.31978571 0.0099999998 0.080008857
0.31978375 0.0099999998 0.10001132
0.3197816 0.0099999998 0.12001393
0.31977952 0.0099999998 0.1400167
0.33976102 0.0099999998 -3.1069442e-12
0.33976072 0.0099999998 0.020002581000000002
0.33975983 0.0099999998 0.040005196
0.3397584 0.0099999998 0.060007885
0.33975649 0.0099999998 0.08001069
0.33975425 0.0099999998 0.10001364
0.33975178 0.0099999998 0.12001679
0.33974931 0.0099999998 0.14002015
0.35972887 0.0099999998 -5.0654051e-12
0.35972852 0.0099999998 0.020003041000000003
0.35972753 0.0099999998 0.040006123
0.35972595 0.0099999998 0.060009297
0.35972381 0.0099999998 0.080012597
0.35972124 0.0099999998 0.10001607
0.35971844 0.0099999998 0.12001976
0.35971555 0.0099999998 0.14002371
0.37969291 0.0099999998 -8.6049969e-12
0.37969255 0.0099999998 0.020003507
0.37969145 0.0099999998 0.040007062
0.37968969 0.0099999998 0.06001072
0.37968731 0.0099999998 0.080014527
0.37968445 0.0099999998 0.10001853
0.37968126 0.0099999998 0.12002279
0.37967795 0.0099999998 0.14002734
0.39965287 0.0099999998 -1.7176917000000002e-13
0.39965245 0.0099999998 0.020003974
0.39965126 0.0099999998 0.040008005
0.39964929 0.0099999998 0.060012147
0.39964667 0.0099999998 0.080016457
0.39964348 0.0099999998 0.100021
0.3996399 0.0099999998 0.12002583
0.39963612 0.0099999998 0.140031
0.41960841 0.0099999998 -6.2391303e-12
0.41960797 0.0099999998 0.020004459
0.41960666 0.0099999998 0.040008972999999996
0.41960451 0.0099999998 0.060013607000000004
0.41960162 0.0099999998 0.08001842299999999
0.41959807 0.0099999998 0.1000235
0.41959405 0.0099999998 0.12002891
0.41958976 0.0099999998 0.14003471
0.43955925 0.0099999998 5.6764809999999994e-12
0.43955877 0.0099999998 0.020004986000000002
0.43955731 0.0099999998 0.040010027999999996
0.43955496 0.0099999998 0.06001519
0.43955177 0.0099999998 0.080020539
0.43954787 0.0099999998 0.10002618
0.43954337 0.0099999998 0.12003218
0.43953851 0.0099999998 0.14003861
0.45950502 0.0099999998 8.0393782e-12
0.45950449 0.0099999998 0.020005612
0.45950291 0.0099999998 0.040011276
0.45950034 0.0099999998 0.060017046
0.45949683 0.0099999998 0.080023006
0.45949247 0.0099999998 0.10002927
0.45948744 0.0099999998 0.12003591
0.45948195 0.0099999998 0.14004299
0.47944528 0.0099999998 -9.0944597e-13
0.47944471 0.0099999998 0.020006413
0.47944298 0.0099999998 0.040012862999999996
0.47944012 0.0099999998 0.060019407000000004
0.47943625 0.0099999998 0.080026135
0.47943142 0.0099999998 0.10003315
0.47942579 0.0099999998 0.12004056
0.47941956 0.0099999998 0.1400484
0.49937955 0.0099999998 -1.1390592e-11
0.49937889 0.0099999998 0.02000748
0.49937701 0.0099999998 0.040014986
0.49937388 0.0099999998 0.060022566
0.49936959 0.0099999998 0.080030322
0.49936423 0.0099999998 0.10003836
0.49935791 0.0099999998 0.12004677
0.49935085 0.0099999998 0.14005554
0.51930743 0.0099999998 -1.7813076e-11
0.51930672 0.0099999998 0.020008918
0.51930463 0.0099999998 0.040017851
0.51930118 0.0099999998 0.060026857999999995
0.51929641 0.0099999998 0.080036044
0.51929045 0.0099999998 0.10004552
0.51928341 0.0099999998 0.1200553
0.51927543 0.0099999998 0.1400653
0.53922898 0.0099999998 -7.8129468e-13
0.5392282 0.0099999998 0.020010822
0.53922588 0.0099999998 0.040021677
0.53922206 0.0099999998 0.060032617
0.53921682 0.0099999998 0.080043748
0.5392102 0.0099999998 0.10005518
0.53920233 0.0099999998 0.12006687
0.53919345 0.0099999998 0.14007856
0.55914539 0.0099999998 -1.668206e-11
0.5591445 0.0099999998 0.020013327
0.55914193 0.0099999998 0.040026698
0.55913776 0.0099999998 0.060040187
0.55913198 0.0099999998 0.080053903
0.55912471 0.0099999998 0.10006791
0.55911613 0.0099999998 0.12008212
0.55910641 0.0099999998 0.14009608
0.57905978 0.0099999998 -1.0380892999999999e-11
0.57905883 0.0099999998 0.020016409
0.57905602 0.0099999998 0.040032856
0.57905138 0.0099999998 0.060049444
0.57904512 0.0099999998 0.080066323
0.57903725 0.0099999998 0.10008355
0.57902795 0.0099999998 0.12010095
0.57901764 0.0099999998 0.1401179
0.59897774 0.0099999998 7.1454201e-12
0.59897667 0.0099999998 0.020020114
0.59897357 0.0099999998 0.04004024
0.59896851 0.0099999998 0.060060509000000005
0.59896171 0.0099999998 0.08008115
0.59895337 0.0099999998 0.10010223
0.59894365 0.0099999998 0.12012345
0.5989328 0.0099999998 0.14014398
0.61890435 0.0099999998 -1.3796125e-12
0.61890322 0.0099999998 0.020024478000000002
0.61889988 0.0099999998 0.040048879
0.6188944 0.0099999998 0.060073405999999996
0.61888719 0.0099999998 0.080098271
0.61887842 0.0099999998 0.10012346
0.61886829 0.0099999998 0.12014869
0.61885715 0.0099999998 0.14017308
0.63884306 0.0099999998 3.4601724e-11
0.63884187 0.0099999998 0.020028933999999998
0.63883829 0.0099999998 0.040057775
0.63883251 0.0099999998 0.06008663400000001
0.63882482 0.0099999998 0.080115855
0.63881558 0.0099999998 0.1001455
0.63880515 0.0099999998 0.12017509
0.63879389 0.0099999998 0.14020354
0.65879679 0.0099999998 -2.6194542999999998e-12
0.65879554 0.0099999998 0.020033972
0.6587919 0.0099999998 0.040067803
0.65878594 0.0099999998 0.060101327
0.65877807 0.0099999998 0.08013498
0.65876877 0.0099999998 0.10016934
0.65875864 0.0099999998 0.12020412
0.65874767 0.0099999998 0.14023791
0.67877275 0.0099999998 1.7784963e-11
0.67877167 0.0099999998 0.020043548
0.67876852 0.0099999998 0.040085871
0.67876321 0.0099999998 0.0601267
0.67875612 0.0099999998 0.08016696599999999
0.67874771 0.0099999998 0.10020754
0.67873865 0.0099999998 0.12024876
0.67872918 0.0099999998 0.14028928
0.69878507 0.0099999998 4.3080588e-11
0.69878441 0.0099999998 0.020056307
0.69878227 0.0099999998 0.040110964
0.69877851 0.0099999998 0.060163207
0.69877338 0.0099999998 0.080213934
0.6987676 0.0099999998 0.10026442
0.6987623 0.0099999998 0.12031627
0.69875824 0.0099999998 0.14036913
0.71895504 0.0099999998 -1.860377e-11
0.71895379 0.0099999998 0.020072846000000002
0.71895027 0.0099999998 0.040143482
0.71894497 0.0099999998 0.060211409
0.71893871 0.0099999998 0.080278277
0.71893233 0.0099999998 0.1003467
0.71892703 0.0099999998 0.12041777
0.71892345 0.0099999998 0.14048941
0.73931372 0.0099999998 6.7273534e-11
0.73931301 0.0099999998 0.020078244
0.73931098 0.0099999998 0.040153727
0.73930818 0.0099999998 0.06022558
0.73930514 0.0099999998 0.08029533900000001
0.73930228 0.0099999998 0.10036575
0.73930001 0.0099999998 0.12043875
0.7392984 0.0099999998 0.14051282
0.75958991 0.0099999998 1.6695284e-10
0.75958979 0.0099999998 0.020081125
0.75958937 0.0099999998 0.040159017000000005
0.75958902 0.0099999998 0.060232445999999995
0.7595892 0.0099999998 0.080302782
0.75959003 0.0099999998 0.10037273
0.75959176 0.0099999998 0.12044422
0.75959432 0.0099999998 0.14051567
0.77979827 0.0099999998 -7.980686899999999e-11
0.77979851 0.0099999998 0.02008201
0.77979916 0.0099999998 0.040160481
0.77980047 0.0099999998 0.060233969000000005
0.77980256 0.0099999998 0.080303766
0.77980548 0.0099999998 0.10037261
0.77980924 0.0099999998 0.12044241
0.77981347 0.0099999998 0.1405115
0.79997522 0.0099999998 -2.1815132999999997e-10
0.79997563 0.0099999998 0.020081408000000002
0.79997694 0.0099999998 0.040159155
0.79997909 0.0099999998 0.060231734
0.79998219 0.0099999998 0.08030045
0.799986 0.0099999998 0.10036813
0.79999042 0.0099999998 0.12043671
0.79999512 0.0099999998 0.14050448
0.82015085 0.0099999998 3.1786875e-11
0.82015139 0.0099999998 0.020079833000000002
0.82015294 0.0099999998 0.04015604
0.8201555 0.0099999998 0.060227159
0.82015902 0.0099999998 0.080294587
0.82016325 0.0099999998 0.10036124
0.82016808 0.0099999998 0.12042917
0.8201732 0.0099999998 0.14049661
0.84033567 0.0099999998 2.3475055e-10
0.84033626 0.0099999998 0.020077668
0.84033799 0.0099999998 0.040151848999999996
0.84034079 0.0099999998 0.06022119099999999
0.84034455 0.0099999998 0.080287181
0.84034926 0.0099999998 0.10035285
0.84035486 0.0099999998 0.12042033
0.84036124 0.0099999998 0.14048788
0.86052328 0.0099999998 1.8263416999999998e-10
0.86052394 0.0099999998 0.020075092
0.86052585 0.0099999998 0.04014688
0.86052889 0.0099999998 0.060214143
0.86053318 0.0099999998 0.08027843400000001
0.86053866 0.0099999998 0.10034284
0.86054564 0.0099999998 0.12040955
0.86055434 0.0099999998 0.14047688
0.88070112 0.0099999998 -1.1235252e-10
0.88070184 0.0099999998 0.020072114
0.88070399 0.0099999998 0.040141113
0.88070756 0.0099999998 0.060205884
0.88071257 0.0099999998 0.080268003
0.8807193 0.0099999998 0.10033055
0.88072819 0.0099999998 0.12039575
0.88073981 0.0099999998 0.140462
0.90085757 0.0099999998 -1.2369282e-10
0.9008584 0.0099999998 0.02006866
0.90086102 0.0099999998 0.040134374
0.90086538 0.0099999998 0.060196105
0.90087152 0.0099999998 0.08025541900000001
0.90087986 0.0099999998 0.10031534
0.90089107 0.0099999998 0.12037806
0.90090579 0.0099999998 0.1404421
0.92095208 0.0099999998 -6.8786578e-13
0.92095339 0.0099999998 0.020064821
0.92095733 0.0099999998 0.040126804
0.92096406 0.0099999998 0.060184932999999996
0.9209736 0.0099999998 0.08024068200000001
0.92098635 0.0099999998 0.10029704
0.92100269 0.0099999998 0.12035625
0.92102343 0.0099999998 0.14041705
0.94097763 0.0099999998 1.3602486e-10
0.9409793 0.0099999998 0.020060387
0.94098437 0.0099999998 0.040118165
0.94099295 0.0099999998 0.060172315999999997
0.94100517 0.0099999998 0.080224194
0.9410212 0.0099999998 0.10027657
0.94104147 0.0099999998 0.1203317
0.94106662 0.0099999998 0.14038864
0.96097797 0.0099999998 4.3859114e-11
0.96097988 0.0099999998 0.020055667
0.96098542 0.0099999998 0.040108871000000004
0.9609949 0.0099999998 0.060158905
0.96100843 0.0099999998 0.080207035
0.96102619 0.0099999998 0.10025574
0.96104848 0.0099999998 0.120307
0.96107578 0.0099999998 0.14036013
0.98096836 0.0099999998 -4.0171238e-11
0.98097032 0.0099999998 0.020050922
0.98097622 0.0099999998 0.040099893
0.98098624 0.0099999998 0.060146164
0.98100036 0.0099999998 0.080190822
0.98101884 0.0099999998 0.10023617
0.98104209 0.0099999998 0.12028408
0.98107052 0.0099999998 0.14033391
1.0009525 0.0099999998 8.8683332e-12
1.0009545 0.0099999998 0.020046813
1.0009608 0.0099999998 0.040092051000000004
1.0009714 0.0099999998 0.060135212
1.0009861 0.0099999998 0.080177173
1.0010052 0.0099999998 0.10021972
1.0010290000000002 0.0099999998 0.12026453
1.0010584999999999 0.0099999998 0.14031067
1.020933 0.0099999998 3.0301924e-11
1.0209353 0.0099999998 0.020042948
1.020942 0.0099999998 0.040084641000000004
1.0209529 0.0099999998 0.060124572
1.0209681000000002 0.0099999998 0.08016362
1.0209876 0.0099999998 0.10020354
1.0210120999999999 0.0099999998 0.12024561
1.0210424999999999 0.0099999998 0.14028835
1.0409095 0.0099999998 2.1342768e-11
1.0409119 0.0099999998 0.020039108
1.0409188 0.0099999998 0.04007734
1.0409303 0.0099999998 0.060114559000000005
1.0409459 0.0099999998 0.080151364
1.0409659 0.0099999998 0.10018916
1.0409912000000001 0.0099999998 0.12022834
1.0410229 0.0099999998 0.14026788
1.0608824 0.0099999998 5.2795854000000005e-11
1.0608848 0.0099999998 0.020035461
1.0608921 0.0099999998 0.040070627000000004
1.0609038 0.0099999998 0.060105390999999994
1.0609198999999998 0.0099999998 0.080140322
1.0609407 0.0099999998 0.10017592
1.0609671999999999 0.0099999998 0.12021212
1.0610003000000001 0.0099999998 0.1402472
1.0808527 0.0099999998 2.0876754999999998e-11
1.0808553 0.0099999998 0.020032413
1.0808625 0.0099999998 0.040064777999999995
1.0808746999999999 0.0099999998 0.060097322
1.0808913999999998 0.0099999998 0.080130219
1.0809133 0.0099999998 0.10016332
1.0809412 0.0099999998 0.12019602
1.080976 0.0099999998 0.1402265
1.1008216999999998 0.0099999998 -4.4475590999999996e-12
1.1008243999999998 0.0099999998 0.020029608
1.1008316999999999 0.0099999998 0.040059496
1.1008443 0.0099999998 0.060089909000000004
1.1008618000000001 0.0099999998 0.080120526
1.1008850000000001 0.0099999998 0.10015098
1.1009145 0.0099999998 0.12017927
1.1009521 0.0099999998 0.14020544
1.120791 0.0099999998 -1.5212586e-11
1.1207936 0.0099999998 0.020027209
1.1208011999999998 0.0099999998 0.040054742000000004
1.1208141999999999 0.0099999998 0.060082749000000005
1.1208328 0.0099999998 0.080110893
1.1208573999999998 0.0099999998 0.10013729
1.1208893 0.0099999998 0.12016121
1.1209294 0.0099999998 0.14018135
1.1407617 0.0099999998 1.2483674e-11
1.1407644 0.0099999998 0.020024926999999998
1.1407723 0.0099999998 0.040049974
1.1407858999999998 0.0099999998 0.060075302000000004
1.1408055000000001 0.0099999998 0.08009970200000001
1.1408321000000001 0.0099999998 0.10012195
1.1408664 0.0099999998 0.12014031
1.1409098 0.0099999998 0.14015576
1.160735 0.0099999998 1.7763267e-11
1.1607378000000002 0.0099999998 0.020022388999999998
1.1607459999999998 0.0099999998 0.04004458
1.1607603000000002 0.0099999998 0.060066365
1.1607815000000001 0.0099999998 0.080086805
1.1608101 0.0099999998 0.10010375
1.1608473 0.0099999998 0.12011776
1.1608952 0.0099999998 0.14013177
1.1807117 0.0099999998 1.6245909e-11
1.1807146000000002 0.0099999998 0.020019228
1.1807233 0.0099999998 0.040038127
1.1807386 0.0099999998 0.060055937999999996
1.1807611999999998 0.0099999998 0.080071442
1.1807925 0.0099999998 0.10008459
1.1808336000000001 0.0099999998 0.12009754
1.1808866000000002 0.0099999998 0.14011261
1.2006923999999999 0.0099999998 2.1028929e-11
1.2006955 0.0099999998 0.020015649
1.2007048 0.0099999998 0.04003071
1.2007212999999999 0.0099999998 0.060044348
1.2007462 0.0099999998 0.080056481
1.2007806 0.0099999998 0.10006884
1.200827 0.0099999998 0.12008388
1.2008892 0.0099999998 0.14010429
1.2206774999999999 0.0099999998 2.1802308e-11
1.220681 0.0099999998 0.020012408
1.2206914 0.0099999998 0.040024035
1.2207099 0.0099999998 0.060034767
1.2207381000000002 0.0099999998 0.080046967
1.2207788 0.0099999998 0.10006307
1.2208364 0.0099999998 0.12008476
1.2209088 0.0099999998 0.14010951
1.2406700000000002 0.0099999998 2.9710789e-11
1.2406741000000001 0.0099999998 0.020010883
1.2406868999999998 0.0099999998 0.040021546
1.2407103000000002 0.0099999998 0.06003448
1.2407471 0.0099999998 0.080052115
1.2407991000000003 0.0099999998 0.10007358
1.2408608 0.0099999998 0.12009488
1.240924 0.0099999998 0.14011435
1.2606879 0.0099999998 2.3179163e-11
1.2606933999999999 0.0099999998 0.020013466
1.2607095 0.0099999998 0.040028392999999995
1.2607368 0.0099999998 0.060045768
1.2607733 0.0099999998 0.08006363400000001
1.2608176000000002 0.0099999998 0.10008126
1.2608643999999998 0.0099999998 0.1200955
1.2609121 0.0099999998 0.1401111
1.2807062 0.0099999998 2.4208913e-11
1.2807101 0.0099999998 0.020013791
1.2807224 0.0099999998 0.040029645
1.2807426000000002 0.0099999998 0.060046535
1.2807697 0.0099999998 0.080062345
1.2808044 0.0099999998 0.10007802
1.2808386 0.0099999998 0.12008952
1.3006881000000001 0.0099999998 2.0161877e-11
1.3006915000000001 0.0099999998 0.020011727
1.3007016000000002 0.0099999998 0.040025264
1.3007184999999999 0.0099999998 0.060040932000000005
1.3007411 0.0099999998 0.08005762799999999
-1.08718e-05 0.0099999998 0.16000098
-1.056528e-05 0.0099999998 0.18000124
-1.0101614e-05 0.0099999998 0.20000152
-9.436532300000001e-06 0.0099999998 0.22000182
-8.538568199999999e-06 0.0099999998 0.24000208
-7.398094999999999e-06 0.0099999998 0.26000229
-6.056433e-06 0.0099999998 0.28000236
0.019984618 0.0099999998 0.16000132
0.019985015 0.0099999998 0.18000166
0.019985641999999998 0.0099999998 0.20000203
0.01998657 0.0099999998 0.22000238
0.019987861000000003 0.0099999998 0.24000268
0.019989556000000002 0.0099999998 0.26000285
0.019991646000000002 0.0099999998 0.28000286
0.019994078000000002 0.0099999998 0.30000308
0.03997888 0.0099999998 0.16000155
0.039979376000000004 0.0099999998 0.18000191
0.039980188 0.0099999998 0.2000023
0.039981432000000004 0.0099999998 0.22000268
0.039983187 0.0099999998 0.24000297
0.039985538 0.0099999998 0.26000318
0.039988425 0.0099999998 0.28000322
0.039991774 0.0099999998 0.30000338
0.059972379000000006 0.0099999998 0.16000165
0.059972964000000004 0.0099999998 0.18000203
0.059973963 0.0099999998 0.20000243
0.059975516 0.0099999998 0.22000283
0.059977755 0.0099999998 0.24000312
0.059980772 0.0099999998 0.2600033
0.059984512999999996 0.0099999998 0.28000334
0.059988927000000004 0.0099999998 0.30000353
0.079965308 0.0099999998 0.16000168
0.079965957 0.0099999998 0.18000205
0.079967111 0.0099999998 0.20000246
0.079968952 0.0099999998 0.22000284
0.079971649 0.0099999998 0.24000312
0.07997533700000001 0.0099999998 0.2600033
0.079979986 0.0099999998 0.28000337
0.07998558900000001 0.0099999998 0.30000371
0.09995762300000001 0.0099999998 0.16000164
0.099958315 0.0099999998 0.180002
0.09995958199999999 0.0099999998 0.20000239
0.099961668 0.0099999998 0.22000276
0.09996479 0.0099999998 0.24000302
0.09996914900000001 0.0099999998 0.26000321
0.099974737 0.0099999998 0.28000334
0.099981658 0.0099999998 0.30000392
0.11994914 0.0099999998 0.16000162
0.11994983 0.0099999998 0.18000196
0.11995119 0.0099999998 0.2000023
0.11995349 0.0099999998 0.22000264
0.11995701 0.0099999998 0.24000286
0.11996203 0.0099999998 0.26000306
0.1199686 0.0099999998 0.28000334
0.11997697 0.0099999998 0.3000043
0.13993962 0.0099999998 0.16000168
0.13994029 0.0099999998 0.18000199
0.13994169 0.0099999998 0.20000228
0.13994417 0.0099999998 0.22000256
0.13994807 0.0099999998 0.24000275
0.13995378 0.0099999998 0.26000306
0.13996135 0.0099999998 0.28000349
0.1399713 0.0099999998 0.30000496
0.15992887 0.0099999998 0.1600019
0.15992947 0.0099999998 0.1800022
0.15993088 0.0099999998 0.20000246
0.15993352 0.0099999998 0.22000271
0.1599378 0.0099999998 0.24000289
0.15994419 0.0099999998 0.26000324
0.15995274 0.0099999998 0.28000385
0.15996422 0.0099999998 0.30000576
0.17991675 0.0099999998 0.16000243
0.17991725 0.0099999998 0.18000273
0.17991862 0.0099999998 0.200003
0.17992136 0.0099999998 0.22000322
0.17992602 0.0099999998 0.24000336
0.17993304 0.0099999998 0.26000369
0.17994247 0.0099999998 0.28000429
0.17995495 0.0099999998 0.30000597
0.19990312 0.0099999998 0.16000336
0.19990347 0.0099999998 0.18000375
0.19990475 0.0099999998 0.20000403
0.19990754 0.0099999998 0.22000422
0.19991247 0.0099999998 0.24000424
0.19991998 0.0099999998 0.26000434
0.19993004 0.0099999998 0.28000471
0.19994278 0.0099999998 0.30000553
0.21988779 0.0099999998 0.16000476
0.21988799 0.0099999998 0.1800053
0.21988913 0.0099999998 0.20000567
0.21989186 0.0099999998 0.22000583
0.21989694 0.0099999998 0.24000581
0.21990483 0.0099999998 0.26000589
0.21991527 0.0099999998 0.28000647
0.21992904 0.0099999998 0.30000833
0.23987058 0.0099999998 0.1600067
0.23987056 0.0099999998 0.18000747
0.23987153 0.0099999998 0.20000814
0.23987408 0.0099999998 0.22000855
0.23987906 0.0099999998 0.24000905
0.23988707 0.0099999998 0.26001048
0.23989789 0.0099999998 0.28001413
0.23991251 0.0099999998 0.30002043
0.25985122 0.0099999998 0.16000919
0.25985098 0.0099999998 0.18001041
0.25985169 0.0099999998 0.20001161
0.25985393 0.0099999998 0.22001281
0.25985846 0.0099999998 0.24001446
0.25986606 0.0099999998 0.2600179
0.25987664 0.0099999998 0.28002414
0.25989079 0.0099999998 0.30003169
0.27982947 0.0099999998 0.16001225
0.27982894 0.0099999998 0.18001406
0.27982932 0.0099999998 0.20001601
0.27983117 0.0099999998 0.22001827
0.2798351 0.0099999998 0.24002123
0.27984184 0.0099999998 0.26002595
0.27985156 0.0099999998 0.28003278
0.27986464 0.0099999998 0.30003989
0.29980507 0.0099999998 0.16001579
0.29980418 0.0099999998 0.18001828
0.29980421 0.0099999998 0.20002103
0.29980564 0.0099999998 0.22002426
0.29980907 0.0099999998 0.24002825
0.29981509 0.0099999998 0.26003358
0.29982397 0.0099999998 0.28004023
0.29983586 0.0099999998 0.30004686
0.3197777 0.0099999998 0.16001967
0.31977645 0.0099999998 0.18002287
0.31977612 0.0099999998 0.20002639
0.31977719 0.0099999998 0.22003038
0.31978035 0.0099999998 0.24003506
0.31978604 0.0099999998 0.26004067
0.31979451 0.0099999998 0.28004721
0.31980583 0.0099999998 0.30005372
0.33974707 0.0099999998 0.16002375
0.3397454 0.0099999998 0.18002765
0.33974472 0.0099999998 0.20003186
0.33974552 0.0099999998 0.22003648
0.33974859 0.0099999998 0.24004167
0.33975437 0.0099999998 0.26004753
0.33976308 0.0099999998 0.28005415
0.33977473 0.0099999998 0.30006087
0.3597129 0.0099999998 0.16002794
0.35971078 0.0099999998 0.18003249
0.35970971 0.0099999998 0.20003739
0.35971028 0.0099999998 0.2200426
0.35971335 0.0099999998 0.24004824
0.35971943 0.0099999998 0.26005438
0.35972887 0.0099999998 0.28006142
0.35974163 0.0099999998 0.30006859
0.37967482 0.0099999998 0.1600322
0.37967226 0.0099999998 0.18003741
0.37967077 0.0099999998 0.20004296
0.37967113 0.0099999998 0.22004879
0.3796742 0.0099999998 0.24005495
0.37968069 0.0099999998 0.26006153
0.37969103 0.0099999998 0.28006914
0.37970525 0.0099999998 0.30007693
0.39963251 0.0099999998 0.1600365
0.39962944 0.0099999998 0.18004239
0.39962754 0.0099999998 0.20004864
0.39962763 0.0099999998 0.22005516
0.39963073 0.0099999998 0.24006194
0.3996377 0.0099999998 0.2600691
0.39964902 0.0099999998 0.28007743
0.39966485 0.0099999998 0.30008599
0.41958559 0.0099999998 0.16004089
0.41958198 0.0099999998 0.18004748
0.4195796 0.0099999998 0.2000545
0.41957939 0.0099999998 0.22006179
0.41958255 0.0099999998 0.24006931
0.41959 0.0099999998 0.26007721
0.41960239 0.0099999998 0.2800864
0.41961992 0.0099999998 0.30009592
0.43953371 0.0099999998 0.16004547
0.43952945 0.0099999998 0.18005282
0.4395265 0.0099999998 0.20006061
0.43952596 0.0099999998 0.22006872
0.43952909 0.0099999998 0.24007711
0.43953705 0.0099999998 0.26008597
0.43955058 0.0099999998 0.28009623
0.43956995 0.0099999998 0.30010685
0.45947641 0.0099999998 0.16005056
0.45947137 0.0099999998 0.1800586
0.45946774 0.0099999998 0.2000671
0.4594667 0.0099999998 0.22007602
0.4594698 0.0099999998 0.24008532
0.4594782 0.0099999998 0.26009542
0.45949283 0.0099999998 0.28010714
0.45951417 0.0099999998 0.30011913
0.47941315 0.0099999998 0.16005665
0.47940722 0.0099999998 0.1800653
0.47940269 0.0099999998 0.20007437
0.47940105 0.0099999998 0.22008388
0.47940385 0.0099999998 0.24009396
0.47941259 0.0099999998 0.26010552
0.47942823 0.0099999998 0.28011924
0.47945145 0.0099999998 0.30013302
0.49934345 0.0099999998 0.16006455
0.49933648 0.0099999998 0.18007372
0.49933094 0.0099999998 0.20008309
0.49932837 0.0099999998 0.2200928
0.49933064 0.0099999998 0.24010332
0.49933934 0.0099999998 0.2601164
0.49935555 0.0099999998 0.28013286
0.49938014 0.0099999998 0.30014905
0.51926702 0.0099999998 0.16007525
0.51925886 0.0099999998 0.18008496
0.51925212 0.0099999998 0.2000944
0.51924843 0.0099999998 0.2201039
0.51924962 0.0099999998 0.24011423
0.51925766 0.0099999998 0.26012847
0.51927346 0.0099999998 0.28014848
0.51929802 0.0099999998 0.30016786
0.53918403 0.0099999998 0.16008979
0.5391748 0.0099999998 0.18010031
0.53916675 0.0099999998 0.20010991
0.53916156 0.0099999998 0.22011884
0.53916126 0.0099999998 0.24012822
0.53916752 0.0099999998 0.26014289
0.53918123 0.0099999998 0.28016692
0.53920305 0.0099999998 0.30019036
0.55909616 0.0099999998 0.16010924
0.55908591 0.0099999998 0.18012106
0.55907667 0.0099999998 0.20013125
0.55906999 0.0099999998 0.22013982
0.55906749 0.0099999998 0.24014765
0.55907065 0.0099999998 0.26016188
0.55908 0.0099999998 0.28018996
0.55909526 0.0099999998 0.30021805
0.57900679 0.0099999998 0.16013381
0.57899594 0.0099999998 0.18014795
0.57898587 0.0099999998 0.20015959
0.57897782 0.0099999998 0.22016856
0.57897258 0.0099999998 0.24017516
0.57897168 0.0099999998 0.26018894
0.57897449 0.0099999998 0.28022069
0.57897902 0.0099999998 0.30025327
0.5989213 0.0099999998 0.16016285
0.59890974 0.0099999998 0.18017951
0.59889895 0.0099999998 0.20019357
0.59888965 0.0099999998 0.22020449
0.5988825 0.0099999998 0.24021292
0.59887755 0.0099999998 0.26022956
0.59887248 0.0099999998 0.28026426
0.59886414 0.0099999998 0.30029997
0.61884511 0.0099999998 0.16019528
0.61883247 0.0099999998 0.18021458
0.61882019 0.0099999998 0.20023179
0.61880964 0.0099999998 0.22024763
0.61879981 0.0099999998 0.24026214
0.61879176 0.0099999998 0.26028779
0.61878264 0.0099999998 0.28032839
0.61876363 0.0099999998 0.30036405
0.63878167 0.0099999998 0.16022971
0.63876826 0.0099999998 0.18025284
0.63875395 0.0099999998 0.200275
0.63874084 0.0099999998 0.22029948
0.63873011 0.0099999998 0.24033216
0.63872164 0.0099999998 0.26037562
0.63871104 0.0099999998 0.28041759
0.6386897 0.0099999998 0.30044967
0.65873575 0.0099999998 0.16026902
0.65872246 0.0099999998 0.18029857
0.65870851 0.0099999998 0.20033188
0.65869677 0.0099999998 0.22037713
0.65868932 0.0099999998 0.24043903
0.65868163 0.0099999998 0.26049292
0.65867054 0.0099999998 0.28052482
0.65865237 0.0099999998 0.30054957
0.67871869 0.0099999998 0.16032781
0.67870659 0.0099999998 0.18036716
0.67869443 0.0099999998 0.2004156
0.67868716 0.0099999998 0.22048491
0.67868614 0.0099999998 0.24056616
0.67867947 0.0099999998 0.26060864
0.67867225 0.0099999998 0.28062457
0.67867565 0.0099999998 0.30064067
0.698753 0.0099999998 0.16042109
0.69874531 0.0099999998 0.1804741
0.69873887 0.0099999998 0.20053855
0.69874024 0.0099999998 0.22061898
0.69874567 0.0099999998 0.24068742
0.69874072 0.0099999998 0.26070273
0.69876891 0.0099999998 0.28070241
0.69887984 0.0099999998 0.30071399
0.71891969 0.0099999998 0.16055584
0.71891475 0.0099999998 0.18061671
0.7189135 0.0099999998 0.20068084
0.71892059 0.0099999998 0.22073661
0.71895134 0.0099999998 0.24077109
0.71902043 0.0099999998 0.26076442
0.71912658 0.0099999998 0.2807565
0.71924716 0.0099999998 0.30076829
0.73929751 0.0099999998 0.16058038
0.73929745 0.0099999998 0.18063995
0.73930073 0.0099999998 0.20070186
0.73931497 0.0099999998 0.22075179
0.73934877 0.0099999998 0.24078256
0.73940247 0.0099999998 0.26078433
0.73947203 0.0099999998 0.28079173
0.73954862 0.0099999998 0.30080625
0.75959772 0.0099999998 0.16057941
0.75960207 0.0099999998 0.18063377
0.75960845 0.0099999998 0.20069183
0.75962096 0.0099999998 0.22074379
0.7596432 0.0099999998 0.24077763
0.75967485 0.0099999998 0.26079181
0.75971192 0.0099999998 0.2808162
0.75975382 0.0099999998 0.30083376
0.77981812 0.0099999998 0.1605721
0.77982312 0.0099999998 0.18062252
0.77982891 0.0099999998 0.20067714
0.77983689 0.0099999998 0.22073217
0.77984774 0.0099999998 0.24077281
0.77986044 0.0099999998 0.26080042
0.77987325 0.0099999998 0.28083262
0.77988875 0.0099999998 0.30085272
0.79999983 0.0099999998 0.16056354
0.80000424 0.0099999998 0.18061231
0.8000083 0.0099999998 0.20066668
0.80001146 0.0099999998 0.22072692
0.80001235 0.0099999998 0.24077369
0.80000955 0.0099999998 0.26080734
0.80000395 0.0099999998 0.28084084
0.79999846 0.0099999998 0.30086255
0.82017839 0.0099999998 0.1605556
0.82018334 0.0099999998 0.18060473
0.82018721 0.0099999998 0.20066079
0.82018745 0.0099999998 0.22072871
0.82018042 0.0099999998 0.24077934
0.82016492 0.0099999998 0.26081043
0.82014447 0.0099999998 0.28084117
0.82011956 0.0099999998 0.30086353
0.84036845 0.0099999998 0.16054747
0.84037602 0.0099999998 0.18059768
0.84038234 0.0099999998 0.20065543
0.84038264 0.0099999998 0.22072732
0.8403697 0.0099999998 0.24077754
0.84034359 0.0099999998 0.26080346
0.8403092 0.0099999998 0.28083149
0.84026492 0.0099999998 0.30085418
0.86056495 0.0099999998 0.16053684
0.86057717 0.0099999998 0.18058784
0.86058831 0.0099999998 0.20064624
0.86059111 0.0099999998 0.22071765
0.86057389 0.0099999998 0.24076524
0.86053813 0.0099999998 0.26078692
0.86049032 0.0099999998 0.28081319
0.86042619 0.0099999998 0.300836
0.88075459 0.0099999998 0.16052145
0.88077229 0.0099999998 0.1805723
0.8807894 0.0099999998 0.20063008
0.8807956 0.0099999998 0.22069821
0.88077497 0.0099999998 0.24074283
0.88072985 0.0099999998 0.26076233
0.88066953 0.0099999998 0.28078789
0.8805871 0.0099999998 0.30081093
0.90092474 0.0099999998 0.16049992
0.90094769 0.0099999998 0.18054953
0.90097028 0.0099999998 0.20060536
0.90097785 0.0099999998 0.22066738
0.90095282 0.0099999998 0.24071009
0.90090108 0.0099999998 0.26073119
0.90082985 0.0099999998 0.28075719
0.90073347 0.0099999998 0.30078024
0.92104965 0.0099999998 0.1604723
0.92108172 0.0099999998 0.18051998
0.92111421 0.0099999998 0.20057251
0.9211247 0.0099999998 0.22062565
0.92109495 0.0099999998 0.24066891
0.92103875 0.0099999998 0.26069421
0.92095989 0.0099999998 0.28072223
0.9208563 0.0099999998 0.3007448
0.9410975 0.0099999998 0.16044113
0.94113469 0.0099999998 0.18048726
0.94117671 0.0099999998 0.200537
0.94120991 0.0099999998 0.22058383
0.94119829 0.0099999998 0.24062158
0.94114035 0.0099999998 0.26065311
0.94105673 0.0099999998 0.28068393
0.94095135 0.0099999998 0.30070597
0.96110886 0.0099999998 0.16040993
0.96114826 0.0099999998 0.1804546
0.96119314 0.0099999998 0.20050137
0.96123642 0.0099999998 0.22054873
0.96125519 0.0099999998 0.2405792
0.96121418 0.0099999998 0.26060921
0.96113032 0.0099999998 0.28064278
0.96102637 0.0099999998 0.30066401
0.98110491 0.0099999998 0.16038115
0.98114568 0.0099999998 0.18042365
0.98119241 0.0099999998 0.20046622
0.98124117 0.0099999998 0.22051291
0.98127586 0.0099999998 0.24054238
0.9812662 0.0099999998 0.26056439
0.98119318 0.0099999998 0.28059837
0.98109466 0.0099999998 0.30061883
1.0010941999999998 0.0099999998 0.16035452
1.0011363000000002 0.0099999998 0.18039341
1.0011845 0.0099999998 0.20043278
1.0012364 0.0099999998 0.22047396
1.0012813 0.0099999998 0.24050361
1.0012981 0.0099999998 0.26051974
1.0012504999999998 0.0099999998 0.28055099
1.0011666 0.0099999998 0.3005712
1.0210796999999998 0.0099999998 0.16032889
1.0211232 0.0099999998 0.18036561
1.0211735 0.0099999998 0.20040187
1.0212283000000002 0.0099999998 0.22043607
1.0212809 0.0099999998 0.24046226
1.0213159 0.0099999998 0.26047546
1.0213075 0.0099999998 0.2805019
1.0212501 0.0099999998 0.30052236
1.0410614 0.0099999998 0.16030434
1.0411075 0.0099999998 0.18033825
1.0411606 0.0099999998 0.20036919
1.0412197 0.0099999998 0.22039892
1.0412785 0.0099999998 0.24042109
1.0413284999999999 0.0099999998 0.2604337
1.0413666 0.0099999998 0.28045458
1.0413550999999999 0.0099999998 0.30047289
1.061041 0.0099999998 0.16027968
1.0610901000000001 0.0099999998 0.18030971
1.0611469999999998 0.0099999998 0.20033641
1.0612117 0.0099999998 0.22036244
1.0612761999999998 0.0099999998 0.24038239
1.0613427 0.0099999998 0.26039502
1.0614084 0.0099999998 0.2804147
1.0614562 0.0099999998 0.30043098
1.0810196 0.0099999998 0.16025509
1.0810716999999999 0.0099999998 0.18027925
1.0811342 0.0099999998 0.20030296
1.0812045 0.0099999998 0.22032727
1.0812742 0.0099999998 0.24034384
1.0813509 0.0099999998 0.26035708
1.0814322 0.0099999998 0.28037745
1.0814974 0.0099999998 0.30039251
1.1009983 0.0099999998 0.16022755
1.101055 0.0099999998 0.18024836
1.1011233 0.0099999998 0.20027022
1.1011978 0.0099999998 0.22029097
1.1012716 0.0099999998 0.24030463
1.1013509 0.0099999998 0.26031956
1.1014372 0.0099999998 0.28034276
1.1209793 0.0099999998 0.16019909
1.1210415 0.0099999998 0.18021789
1.1211146 0.0099999998 0.20023786
1.1211923000000001 0.0099999998 0.22025564
1.1212677 0.0099999998 0.24026839
1.1213475 0.0099999998 0.2602888
1.1214252 0.0099999998 0.28031239
1.1409646999999998 0.0099999998 0.1601717
1.1410321 0.0099999998 0.18018982
1.1411097 0.0099999998 0.20020966
1.1411892 0.0099999998 0.22022632
1.1412632 0.0099999998 0.24024202
1.1413405 0.0099999998 0.26026714
1.1609553999999997 0.0099999998 0.16014792
1.1610284 0.0099999998 0.18016763
1.1611103999999999 0.0099999998 0.20018871
1.1611881000000002 0.0099999998 0.22020553
1.1612611000000002 0.0099999998 0.24022801
1.1613231000000002 0.0099999998 0.26025015
1.1809542 0.0099999998 0.16013214
1.1810348999999998 0.0099999998 0.18015586
1.1811156999999999 0.0099999998 0.20017743
1.1811878999999998 0.0099999998 0.22019666
1.1812505 0.0099999998 0.24022028
1.2009674 0.0099999998 0.16012934
1.2010477 0.0099999998 0.18015255
1.2011222 0.0099999998 0.20017542
1.2011794 0.0099999998 0.22019391
1.220984 0.0099999998 0.1601318
1.2210531 0.0099999998 0.18015361
1.2211134 0.0099999998 0.20017546
1.2211409 0.0099999998 0.22018164
1.2409823 0.0099999998 0.16013135
1.2410339 0.0099999998 0.18014988
1.2609527 0.0099999998 0.16012479
VERTICES 2975 5950
1 0
1 1
1 2
1 3
1 4
1 5
1 6
1 7
1 8
1 9
1 10
1 11
1 12
1 13
1 14
1 15
1 16
1 17
1 18
1 19
1 20
1 21
1 22
1 23
1 24
1 25
1 26
1 27
1 28
1 29
1 30
1 31
1 32
1 33
1 34
1 35
1 36
1 37
1 38
1 39
1 40
1 41
1 42
1 43
1 44
1 45
1 46
1 47
1 48
1 49
1 50
1 51
1 52
1 53
1 54
1 55
1 56
1 57
1 58
1 59
1 60
1 61
1 62
1 63
1 64
1 65
1 66
1 67
1 68
1 69
1 70
1 71
1 72
1 73
1 74
1 75
1 76
1 77
1 78
1 79
1 80
1 81
1 82
1 83
1 84
1 85
1 86
1 87
1 88
1 89
1 90
1 91
1 92
1 93
1 94
1 95
1 96
1 97
1 98
1 99
1 100
1 101
1 102
1 103
1 104
1 105
1 106
1 107
1 108
1 109
1 110
1 111
1 112
1 113
1 114
1 115
1 116
1 117
1 118
1 119
1 120
1 121
1 122
1 123
1 124
1 125
1 126
1 127
1 128
1 129
1 130
1 131
1 132
1 133
1 134
1 135
1 136
1 137
1 138
1 139
1 140
1 141
1 142
1 143
1 144
1 145
1 146
1 147
1 148
1 149
1 150
1 151
1 152
1 153
1 154
1 155
1 156
1 157
1 158
1 159
1 160
1 161
1 162
1 163
1 164
1 165
1 166
1 167
1 168
1 169
1 170
1 171
1 172
1 173
1 174
1 175
1 176
1 177
1 178
1 179
1 180
1 181
1 182
1 183
1 184
1 185
1 186
1 187
1 188
1 189
1 190
1 191
1 192
1 193
1 194
1 195
1 196
1 197
1 198
1 199
1 200
1 201
1 202
1 203
1 204
1 205
1 206
1 207
1 208
1 209
1 210
1 211
1 212
1 213
1 214
1 215
1 216
1 217
1 218
1 219
1 220
1 221
1 222
1 223
1 224
1 225
1 226
1 227
1 228
1 229
1 230
1 231
1 232
1 233
1 234
1 235
1 236
1 237
1 238
1 239
1 240
1 241
1 242
1 243
1 244
1 245
1 246
1 247
1 248
1 249
1 250
1 251
1 252
1 253
1 254
1 255
1 256
1 257
1 258
1 259
1 260
1 261
1 262
1 263
1 264
1 265
1 266
1 267
1 268
1 269
1 270
1 271
1 272
1 273
1 274
1 275
1 276
1 277
1 278
1 279
1 280
1 281
1 282
1 283
1 284
1 285
1 286
1 287
1 288
1 289
1 290
1 291
1 292
1 293
1 294
1 295
1 296
1 297
1 298
1 299
1 300
1 301
1 302
1 303
1 304
1 305
1 306
1 307
1 308
1 309
1 310
1 311
1 312
1 313
1 314
1 315
1 316
1 317
1 318
1 319
1 320
1 321
1 322
1 323
1 324
1 325
1 326
1 327
1 328
1 329
1 330
1 331
1 332
1 333
1 334
1 335
1 336
1 337
1 338
1 339
1 340
1 341
1 342
1 343
1 344
1 345
1 346
1 347
1 348
1 349
1 350
1 351
1 352
1 353
1 354
1 355
1 356
1 357
1 358
1 359
1 360
1 361
1 362
1 363
1 364
1 365
1 366
1 367
1 368
1 369
1 370
1 371
1 372
1 373
1 374
1 375
1 376
1 377
1 378
1 379
1 380
1 381
1 382
1 383
1 384
1 385
1 386
1 387
1 388
1 389
1 390
1 391
1 392
1 393
1 394
1 395
1 396
1 397
1 398
1 399
1 400
1 401
1 402
1 403
1 404
1 405
1 406
1 407
1 408
1 409
1 410
1 411
1 412
1 413
1 414
1 415
1 416
1 417
1 418
1 419
1 420
1 421
1 422
1 423
1 424
1 425
1 426
1 427
1 428
1 429
1 430
1 431
1 432
1 433
1 434
1 435
1 436
1 437
1 438
1 439
1 440
1 441
1 442
1 443
1 444
1 445
1 446
1 447
1 448
1 449
1 450
1 451
1 452
1 453
1 454
1 455
1 456
1 457
1 458
1 459
1 460
1 461
1 462
1 463
1 464
1 465
1 466
1 467
1 468
1 469
1 470
1 471
1 472
1 473
1 474
1 475
1 476
1 477
1 478
1 479
1 480
1 481
1 482
1 483
1 484
1 485
1 486
1 487
1 488
1 489
1 490
1 491
1 492
1 493
1 494
1 495
1 496
1 497
1 498
1 499
1 500
1 501
1 502
1 503
1 504
1 505
1 506
1 507
1 508
1 509
1 510
1 511
1 512
1 513
1 514
1 515
1 516
1 517
1 518
1 519
1 520
1 521
1 522
1 523
1 524
1 525
1 526
1 527
1 528
1 529
1 530
1 531
1 532
1 533
1 534
1 535
1 536
1 537
1 538
1 539
1 540
1 541
1 542
1 543
1 544
1 545
1 546
1 547
1 548
1 549
1 550
1 551
1 552
1 553
1 554
1 555
1 556
1 557
1 558
1 559
1 560
1 561
1 562
1 563
1 564
1 565
1 566
1 567
1 568
1 569
1 570
1 571
1 572
1 573
1 574
1 575
1 576
1 577
1 578
1 579
1 580
1 581
1 582
1 583
1 584
1 585
1 586
1 587
1 588
1 589
1 590
1 591
1 592
1 593
1 594
1 595
1 596
1 597
1 598
1 599
1 600
1 601
1 602
1 603
1 604
1 605
1 606
1 607
1 608
1 609
1 610
1 611
1 612
1 613
1 614
1 615
1 616
1 617
1 618
1 619
1 620
1 621
1 622
1 623
1 624
1 625
1 626
1 627
1 628
1 629
1 630
1 631
1 632
1 633
1 634
1 635
1 636
1 637
1 638
1 639
1 640
1 641
1 642
1 643
1 644
1 645
1 646
1 647
1 648
1 649
1 650
1 651
1 652
1 653
1 654
1 655
1 656
1 657
1 658
1 659
1 660
1 661
1 662
1 663
1 664
1 665
1 666
1 667
1 668
1 669
1 670
1 671
1 672
1 673
1 674
1 675
1 676
1 677
1 678
1 679
1 680
1 681
1 682
1 683
1 684
1 685
1 686
1 687
1 688
1 689
1 690
1 691
1 692
1 693
1 694
1 695
1 696
1 697
1 698
1 699
1 700
1 701
1 702
1 703
1 704
1 705
1 706
1 707
1 708
1 709
1 710
1 711
1 712
1 713
1 714
1 715
1 716
1 717
1 718
1 719
1 720
1 721
1 722
1 723
1 724
1 725
1 726
1 727
1 728
1 729
1 730
1 731
1 732
1 733
1 734
1 735
1 736
1 737
1 738
1 739
1 740
1 741
1 742
1 743
1 744
1 745
1 746
1 747
1 748
1 749
1 750
1 751
1 752
1 753
1 754
1 755
1 756
1 757
1 758
1 759
1 760
1 761
1 762
1 763
1 764
1 765
1 766
1 767
1 768
1 769
1 770
1 771
1 772
1 773
1 774
1 775
1 776
1 777
1 778
1 779
1 780
1 781
1 782
1 783
1 784
1 785
1 786
1 787
1 788
1 789
1 790
1 791
1 792
1 793
1 794
1 795
1 796
1 797
1 798
1 799
1 800
1 801
1 802
1 803
1 804
1 805
1 806
1 807
1 808
1 809
1 810
1 811
1 812
1 813
1 814
1 815
1 816
1 817
1 818
1 819
1 820
1 821
1 822
1 823
1 824
1 825
1 826
1 827
1 828
1 829
1 830
1 831
1 832
1 833
1 834
1 835
1 836
1 837
1 838
1 839
1 840
1 841
1 842
1 843
1 844
1 845
1 846
1 847
1 848
1 849
1 850
1 851
1 852
1 853
1 854
1 855
1 856
1 857
1 858
1 859
1 860
1 861
1 862
1 863
1 864
1 865
1 866
1 867
1 868
1 869
1 870
1 871
1 872
1 873
1 874
1 875
1 876
1 877
1 878
1 879
1 880
1 881
1 882
1 883
1 884
1 885
1 886
1 887
1 888
1 889
1 890
1 891
1 892
1 893
1 894
1 895
1 896
1 897
1 898
1 899
1 900
1 901
1 902
1 903
1 904
1 905
1 906
1 907
1 908
1 909
1 910
1 911
1 912
1 913
1 914
1 915
1 916
1 917
1 918
1 919
1 920
1 921
1 922
1 923
1 924
1 925
1 926
1 927
1 928
1 929
1 930
1 931
1 932
1 933
1 934
1 935
1 936
1 937
1 938
1 939
1 940
1 941
1 942
1 943
1 944
1 945
1 946
1 947
1 948
1 949
1 950
1 951
1 952
1 953
1 954
1 955
1 956
1 957
1 958
1 959
1 960
1 961
1 962
1 963
1 964
1 965
1 966
1 967
1 968
1 969
1 970
1 971
1 972
1 973
1 974
1 975
1 976
1 977
1 978
1 979
1 980
1 981
1 982
1 983
1 984
1 985
1 986
1 987
1 988
1 989
1 990
1 991
1 992
1 993
1 994
1 995
1 996
1 997
1 998
1 999
1 1000
1 1001
1 1002
1 1003
1 1004
1 1005
1 1006
1 1007
1 1008
1 1009
1 1010
1 1011
1 1012
1 1013
1 1014
1 1015
1 1016
1 1017
1 1018
1 1019
1 1020
1 1021
1 1022
1 1023
1 1024
1 1025
1 1026
1 1027
1 1028
1 1029
1 1030
1 1031
1 1032
1 1033
1 1034
1 1035
1 1036
1 1037
1 1038
1 1039
1 1040
1 1041
1 1042
1 1043
1 1044
1 1045
1 1046
1 1047
1 1048
1 1049
1 1050
1 1051
1 1052
1 1053
1 1054
1 1055
1 1056
1 1057
1 1058
1 1059
1 1060
1 1061
1 1062
1 1063
1 1064
1 1065
1 1066
1 1067
1 1068
1 1069
1 1070
1 1071
1 1072
1 1073
1 1074
1 1075
1 1076
1 1077
1 1078
1 1079
1 1080
1 1081
1 1082
1 1083
1 1084
1 1085
1 1086
1 1087
1 1088
1 1089
1 1090
1 1091
1 1092
1 1093
1 1094
1 1095
1 1096
1 1097
1 1098
1 1099
1 1100
1 1101
1 1102
1 1103
1 1104
1 1105
1 1106
1 1107
1 1108
1 1109
1 1110
1 1111
1 1112
1 1113
1 1114
1 1115
1 1116
1 1117
1 1118
1 1119
1 1120
1 1121
1 1122
1 1123
1 1124
1 1125
1 1126
1 1127
1 1128
1 1129
1 1130
1 1131
1 1132
1 1133
1 1134
1 1135
1 1136
1 1137
1 1138
1 1139
1 1140
1 1141
1 1142
1 1143
1 1144
1 1145
1 1146
1 1147
1 1148
1 1149
1 1150
1 1151
1 1152
1 1153
1 1154
1 1155
1 1156
1 1157
1 1158
1 1159
1 1160
1 1161
1 1162
1 1163
1 1164
1 1165
1 1166
1 1167
1 1168
1 1169
1 1170
1 1171
1 1172
1 1173
1 1174
1 1175
1 1176
1 1177
1 1178
1 1179
1 1180
1 1181
1 1182
1 1183
1 1184
1 1185
1 1186
1 1187
1 1188
1 1189
1 1190
1 1191
1 1192
1 1193
1 1194
1 1195
1 1196
1 1197
1 1198
1 1199
1 1200
1 1201
1 1202
1 1203
1 1204
1 1205
1 1206
1 1207
1 1208
1 1209
1 1210
1 1211
1 1212
1 1213
1 1214
1 1215
1 1216
1 1217
1 1218
1 1219
1 1220
1 1221
1 1222
1 1223
1 1224
1 1225
1 1226
1 1227
1 1228
1 1229
1 1230
1 1231
1 1232
1 1233
1 1234
1 1235
1 1236
1 1237
1 1238
1 1239
1 1240
1 1241
1 1242
1 1243
1 1244
1 1245
1 1246
1 1247
1 1248
1 1249
1 1250
1 1251
1 1252
1 1253
1 1254
1 1255
1 1256
1 1257
1 1258
1 1259
1 1260
1 1261
1 1262
1 1263
1 1264
1 1265
1 1266
1 1267
1 1268
1 1269
1 1270
1 1271
1 1272
1 1273
1 1274
1 1275
1 1276
1 1277
1 1278
1 1279
1 1280
1 1281
1 1282
1 1283
1 1284
1 1285
1 1286
1 1287
1 1288
1 1289
1 1290
1 1291
1 1292
1 1293
1 1294
1 1295
1 1296
1 1297
1 1298
1 1299
1 1300
1 1301
1 1302
1 1303
1 1304
1 1305
1 1306
1 1307
1 1308
1 1309
1 1310
1 1311
1 1312
1 1313
1 1314
1 1315
1 1316
1 1317
1 1318
1 1319
1 1320
1 1321
1 1322
1 1323
1 1324
1 1325
1 1326
1 1327
1 1328
1 1329
1 1330
1 1331
1 1332
1 1333
1 1334
1 1335
1 1336
1 1337
1 1338
1 1339
1 1340
1 1341
1 1342
1 1343
1 1344
1 1345
1 1346
1 1347
1 1348
1 1349
1 1350
1 1351
1 1352
1 1353
1 1354
1 1355
1 1356
1 1357
1 1358
1 1359
1 1360
1 1361
1 1362
1 1363
1 1364
1 1365
1 1366
1 1367
1 1368
1 1369
1 1370
1 1371
1 1372
1 1373
1 1374
1 1375
1 1376
1 1377
1 1378
1 1379
1 1380
1 1381
1 1382
1 1383
1 1384
1 1385
1 1386
1 1387
1 1388
1 1389
1 1390
1 1391
1 1392
1 1393
1 1394
1 1395
1 1396
1 1397
1 1398
1 1399
1 1400
1 1401
1 1402
1 1403
1 1404
1 1405
1 1406
1 1407
1 1408
1 1409
1 1410
1 1411
1 1412
1 1413
1 1414
1 1415
1 1416
1 1417
1 1418
1 1419
1 1420
1 1421
1 1422
1 1423
1 1424
1 1425
1 1426
1 1427
1 1428
1 1429
1 1430
1 1431
1 1432
1 1433
1 1434
1 1435
1 1436
1 1437
1 1438
1 1439
1 1440
1 1441
1 1442
1 1443
1 1444
1 1445
1 1446
1 1447
1 1448
1 1449
1 1450
1 1451
1 1452
1 1453
1 1454
1 1455
1 1456
1 1457
1 1458
1 1459
1 1460
1 1461
1 1462
1 1463
1 1464
1 1465
1 1466
1 1467
1 1468
1 1469
1 1470
1 1471
1 1472
1 1473
1 1474
1 1475
1 1476
1 1477
1 1478
1 1479
1 1480
1 1481
1 1482
1 1483
1 1484
1 1485
1 1486
1 1487
1 1488
1 1489
1 1490
1 1491
1 1492
1 1493
1 1494
1 1495
1 1496
1 1497
1 1498
1 1499
1 1500
1 1501
1 1502
1 1503
1 1504
1 1505
1 1506
1 1507
1 1508
1 1509
1 1510
1 1511
1 1512
1 1513
1 1514
1 1515
1 1516
1 1517
1 1518
1 1519
1 1520
1 1521
1 1522
1 1523
1 1524
1 1525
1 1526
1 1527
1 1528
1 1529
1 1530
1 1531
1 1532
1 1533
1 1534
1 1535
1 1536
1 1537
1 1538
1 1539
1 1540
1 1541
1 1542
1 1543
1 1544
1 1545
1 1546
1 1547
1 1548
1 1549
1 1550
1 1551
1 1552
1 1553
1 1554
1 1555
1 1556
1 1557
1 1558
1 1559
1 1560
1 1561
1 1562
1 1563
1 1564
1 1565
1 1566
1 1567
1 1568
1 1569
1 1570
1 1571
1 1572
1 1573
1 1574
1 1575
1 1576
1 1577
1 1578
1 1579
1 1580
1 1581
1 1582
1 1583
1 1584
1 1585
1 1586
1 1587
1 1588
1 1589
1 1590
1 1591
1 1592
1 1593
1 1594
1 1595
1 1596
1 1597
1 1598
1 1599
1 1600
1 1601
1 1602
1 1603
1 1604
1 1605
1 1606
1 1607
1 1608
1 1609
1 1610
1 1611
1 1612
1 1613
1 1614
1 1615
1 1616
1 1617
1 1618
1 1619
1 1620
1 1621
1 1622
1 1623
1 1624
1 1625
1 1626
1 1627
1 1628
1 1629
1 1630
1 1631
1 1632
1 1633
1 1634
1 1635
1 1636
1 1637
1 1638
1 1639
1 1640
1 1641
1 1642
1 1643
1 1644
1 1645
1 1646
1 1647
1 1648
1 1649
1 1650
1 1651
1 1652
1 1653
1 1654
1 1655
1 1656
1 1657
1 1658
1 1659
1 1660
1 1661
1 1662
1 1663
1 1664
1 1665
1 1666
1 1667
1 1668
1 1669
1 1670
1 1671
1 1672
1 1673
1 1674
1 1675
1 1676
1 1677
1 1678
1 1679
1 1680
1 1681
1 1682
1 1683
1 1684
1 1685
1 1686
1 1687
1 1688
1 1689
1 1690
1 1691
1 1692
1 1693
1 1694
1 1695
1 1696
1 1697
1 1698
1 1699
1 1700
1 1701
1 1702
1 1703
1 1704
1 1705
1 1706
1 1707
1 1708
1 1709
1 1710
1 1711
1 1712
1 1713
1 1714
1 1715
1 1716
1 1717
1 1718
1 1719
1 1720
1 1721
1 1722
1 1723
1 1724
1 1725
1 1726
1 1727
1 1728
1 1729
1 1730
1 1731
1 1732
1 1733
1 1734
1 1735
1 1736
1 1737
1 1738
1 1739
1 1740
1 1741
1 1742
1 1743
1 1744
1 1745
1 1746
1 1747
1 1748
1 1749
1 1750
1 1751
1 1752
1 1753
1 1754
1 1755
1 1756
1 1757
1 1758
1 1759
1 1760
1 1761
1 1762
1 1763
1 1764
1 1765
1 1766
1 1767
1 1768
1 1769
1 1770
1 1771
1 1772
1 1773
1 1774
1 1775
1 1776
1 1777
1 1778
1 1779
1 1780
1 1781
1 1782
1 1783
1 1784
1 1785
1 1786
1 1787
1 1788
1 1789
1 1790
1 1791
1 1792
1 1793
1 1794
1 1795
1 1796
1 1797
1 1798
1 1799
1 1800
1 1801
1 1802
1 1803
1 1804
1 1805
1 1806
1 1807
1 1808
1 1809
1 1810
1 1811
1 1812
1 1813
1 1814
1 1815
1 1816
1 1817
1 1818
1 1819
1 1820
1 1821
1 1822
1 1823
1 1824
1 1825
1 1826
1 1827
1 1828
1 1829
1 1830
1 1831
1 1832
1 1833
1 1834
1 1835
1 1836
1 1837
1 1838
1 1839
1 1840
1 1841
1 1842
1 1843
1 1844
1 1845
1 1846
1 1847
1 1848
1 1849
1 1850
1 1851
1 1852
1 1853
1 1854
1 1855
1 1856
1 1857
1 1858
1 1859
1 1860
1 1861
1 1862
1 1863
1 1864
1 1865
1 1866
1 1867
1 1868
1 1869
1 1870
1 1871
1 1872
1 1873
1 1874
1 1875
1 1876
1 1877
1 1878
1 1879
1 1880
1 1881
1 1882
1 1883
1 1884
1 1885
1 1886
1 1887
1 1888
1 1889
1 1890
1 1891
1 1892
1 1893
1 1894
1 1895
1 1896
1 1897
1 1898
1 1899
1 1900
1 1901
1 1902
1 1903
1 1904
1 1905
1 1906
1 1907
1 1908
1 1909
1 1910
1 1911
1 1912
1 1913
1 1914
1 1915
1 1916
1 1917
1 1918
1 1919
1 1920
1 1921
1 1922
1 1923
1 1924
1 1925
1 1926
1 1927
1 1928
1 1929
1 1930
1 1931
1 1932
1 1933
1 1934
1 1935
1 1936
1 1937
1 1938
1 1939
1 1940
1 1941
1 1942
1 1943
1 1944
1 1945
1 1946
1 1947
1 1948
1 1949
1 1950
1 1951
1 1952
1 1953
1 1954
1 1955
1 1956
1 1957
1 1958
1 1959
1 1960
1 1961
1 1962
1 1963
1 1964
1 1965
1 1966
1 1967
1 1968
1 1969
1 1970
1 1971
1 1972
1 1973
1 1974
1 1975
1 1976
1 1977
1 1978
1 1979
1 1980
1 1981
1 1982
1 1983
1 1984
1 1985
1 1986
1 1987
1 1988
1 1989
1 1990
1 1991
1 1992
1 1993
1 1994
1 1995
1 1996
1 1997
1 1998
1 1999
1 2000
1 2001
1 2002
1 2003
1 2004
1 2005
1 2006
1 2007
1 2008
1 2009
1 2010
1 2011
1 2012
1 2013
1 2014
1 2015
1 2016
1 2017
1 2018
1 2019
1 2020
1 2021
1 2022
1 2023
1 2024
1 2025
1 2026
1 2027
1 2028
1 2029
1 2030
1 2031
1 2032
1 2033
1 2034
1 2035
1 2036
1 2037
1 2038
1 2039
1 2040
1 2041
1 2042
1 2043
1 2044
1 2045
1 2046
1 2047
1 2048
1 2049
1 2050
1 2051
1 2052
1 2053
1 2054
1 2055
1 2056
1 2057
1 2058
1 2059
1 2060
1 2061
1 2062
1 2063
1 2064
1 2065
1 2066
1 2067
1 2068
1 2069
1 2070
1 2071
1 2072
1 2073
1 2074
1 2075
1 2076
1 2077
1 2078
1 2079
1 2080
1 2081
1 2082
1 2083
1 2084
1 2085
1 2086
1 2087
1 2088
1 2089
1 2090
1 2091
1 2092
1 2093
1 2094
1 2095
1 2096
1 2097
1 2098
1 2099
1 2100
1 2101
1 2102
1 2103
1 2104
1 2105
1 2106
1 2107
1 2108
1 2109
1 2110
1 2111
1 2112
1 2113
1 2114
1 2115
1 2116
1 2117
1 2118
1 2119
1 2120
1 2121
1 2122
1 2123
1 2124
1 2125
1 2126
1 2127
1 2128
1 2129
1 2130
1 2131
1 2132
1 2133
1 2134
1 2135
1 2136
1 2137
1 2138
1 2139
1 2140
1 2141
1 2142
1 2143
1 2144
1 2145
1 2146
1 2147
1 2148
1 2149
1 2150
1 2151
1 2152
1 2153
1 2154
1 2155
1 2156
1 2157
1 2158
1 2159
1 2160
1 2161
1 2162
1 2163
1 2164
1 2165
1 2166
1 2167
1 2168
1 2169
1 2170
1 2171
1 2172
1 2173
1 2174
1 2175
1 2176
1 2177
1 2178
1 2179
1 2180
1 2181
1 2182
1 2183
1 2184
1 2185
1 2186
1 2187
1 2188
1 2189
1 2190
1 2191
1 2192
1 2193
1 2194
1 2195
1 2196
1 2197
1 2198
1 2199
1 2200
1 2201
1 2202
1 2203
1 2204
1 2205
1 2206
1 2207
1 2208
1 2209
1 2210
1 2211
1 2212
1 2213
1 2214
1 2215
1 2216
1 2217
1 2218
1 2219
1 2220
1 2221
1 2222
1 2223
1 2224
1 2225
1 2226
1 2227
1 2228
1 2229
1 2230
1 2231
1 2232
1 2233
1 2234
1 2235
1 2236
1 2237
1 2238
1 2239
1 2240
1 2241
1 2242
1 2243
1 2244
1 2245
1 2246
1 2247
1 2248
1 2249
1 2250
1 2251
1 2252
1 2253
1 2254
1 2255
1 2256
1 2257
1 2258
1 2259
1 2260
1 2261
1 2262
1 2263
1 2264
1 2265
1 2266
1 2267
1 2268
1 2269
1 2270
1 2271
1 2272
1 2273
1 2274
1 2275
1 2276
1 2277
1 2278
1 2279
1 2280
1 2281
1 2282
1 2283
1 2284
1 2285
1 2286
1 2287
1 2288
1 2289
1 2290
1 2291
1 2292
1 2293
1 2294
1 2295
1 2296
1 2297
1 2298
1 2299
1 2300
1 2301
1 2302
1 2303
1 2304
1 2305
1 2306
1 2307
1 2308
1 2309
1 2310
1 2311
1 2312
1 2313
1 2314
1 2315
1 2316
1 2317
1 2318
1 2319
1 2320
1 2321
1 2322
1 2323
1 2324
1 2325
1 2326
1 2327
1 2328
1 2329
1 2330
1 2331
1 2332
1 2333
1 2334
1 2335
1 2336
1 2337
1 2338
1 2339
1 2340
1 2341
1 2342
1 2343
1 2344
1 2345
1 2346
1 2347
1 2348
1 2349
1 2350
1 2351
1 2352
1 2353
1 2354
1 2355
1 2356
1 2357
1 2358
1 2359
1 2360
1 2361
1 2362
1 2363
1 2364
1 2365
1 2366
1 2367
1 2368
1 2369
1 2370
1 2371
1 2372
1 2373
1 2374
1 2375
1 2376
1 2377
1 2378
1 2379
1 2380
1 2381
1 2382
1 2383
1 2384
1 2385
1 2386
1 2387
1 2388
1 2389
1 2390
1 2391
1 2392
1 2393
1 2394
1 2395
1 2396
1 2397
1 2398
1 2399
1 2400
1 2401
1 2402
1 2403
1 2404
1 2405
1 2406
1 2407
1 2408
1 2409
1 2410
1 2411
1 2412
1 2413
1 2414
1 2415
1 2416
1 2417
1 2418
1 2419
1 2420
1 2421
1 2422
1 2423
1 2424
1 2425
1 2426
1 2427
1 2428
1 2429
1 2430
1 2431
1 2432
1 2433
1 2434
1 2435
1 2436
1 2437
1 2438
1 2439
1 2440
1 2441
1 2442
1 2443
1 2444
1 2445
1 2446
1 2447
1 2448
1 2449
1 2450
1 2451
1 2452
1 2453
1 2454
1 2455
1 2456
1 2457
1 2458
1 2459
1 2460
1 2461
1 2462
1 2463
1 2464
1 2465
1 2466
1 2467
1 2468
1 2469
1 2470
1 2471
1 2472
1 2473
1 2474
1 2475
1 2476
1 2477
1 2478
1 2479
1 2480
1 2481
1 2482
1 2483
1 2484
1 2485
1 2486
1 2487
1 2488
1 2489
1 2490
1 2491
1 2492
1 2493
1 2494
1 2495
1 2496
1 2497
1 2498
1 2499
1 2500
1 2501
1 2502
1 2503
1 2504
1 2505
1 2506
1 2507
1 2508
1 2509
1 2510
1 2511
1 2512
1 2513
1 2514
1 2515
1 2516
1 2517
1 2518
1 2519
1 2520
1 2521
1 2522
1 2523
1 2524
1 2525
1 2526
1 2527
1 2528
1 2529
1 2530
1 2531
1 2532
1 2533
1 2534
1 2535
1 2536
1 2537
1 2538
1 2539
1 2540
1 2541
1 2542
1 2543
1 2544
1 2545
1 2546
1 2547
1 2548
1 2549
1 2550
1 2551
1 2552
1 2553
1 2554
1 2555
1 2556
1 2557
1 2558
1 2559
1 2560
1 2561
1 2562
1 2563
1 2564
1 2565
1 2566
1 2567
1 2568
1 2569
1 2570
1 2571
1 2572
1 2573
1 2574
1 2575
1 2576
1 2577
1 2578
1 2579
1 2580
1 2581
1 2582
1 2583
1 2584
1 2585
1 2586
1 2587
1 2588
1 2589
1 2590
1 2591
1 2592
1 2593
1 2594
1 2595
1 2596
1 2597
1 2598
1 2599
1 2600
1 2601
1 2602
1 2603
1 2604
1 2605
1 2606
1 2607
1 2608
1 2609
1 2610
1 2611
1 2612
1 2613
1 2614
1 2615
1 2616
1 2617
1 2618
1 2619
1 2620
1 2621
1 2622
1 2623
1 2624
1 2625
1 2626
1 2627
1 2628
1 2629
1 2630
1 2631
1 2632
1 2633
1 2634
1 2635
1 2636
1 2637
1 2638
1 2639
1 2640
1 2641
1 2642
1 2643
1 2644
1 2645
1 2646
1 2647
1 2648
1 2649
1 2650
1 2651
1 2652
1 2653
1 2654
1 2655
1 2656
1 2657
1 2658
1 2659
1 2660
1 2661
1 2662
1 2663
1 2664
1 2665
1 2666
1 2667
1 2668
1 2669
1 2670
1 2671
1 2672
1 2673
1 2674
1 2675
1 2676
1 2677
1 2678
1 2679
1 2680
1 2681
1 2682
1 2683
1 2684
1 2685
1 2686
1 2687
1 2688
1 2689
1 2690
1 2691
1 2692
1 2693
1 2694
1 2695
1 2696
1 2697
1 2698
1 2699
1 2700
1 2701
1 2702
1 2703
1 2704
1 2705
1 2706
1 2707
1 2708
1 2709
1 2710
1 2711
1 2712
1 2713
1 2714
1 2715
1 2716
1 2717
1 2718
1 2719
1 2720
1 2721
1 2722
1 2723
1 2724
1 2725
1 2726
1 2727
1 2728
1 2729
1 2730
1 2731
1 2732
1 2733
1 2734
1 2735
1 2736
1 2737
1 2738
1 2739
1 2740
1 2741
1 2742
1 2743
1 2744
1 2745
1 2746
1 2747
1 2748
1 2749
1 2750
1 2751
1 2752
1 2753
1 2754
1 2755
1 2756
1 2757
1 2758
1 2759
1 2760
1 2761
1 2762
1 2763
1 2764
1 2765
1 2766
1 2767
1 2768
1 2769
1 2770
1 2771
1 2772
1 2773
1 2774
1 2775
1 2776
1 2777
1 2778
1 2779
1 2780
1 2781
1 2782
1 2783
1 2784
1 2785
1 2786
1 2787
1 2788
1 2789
1 2790
1 2791
1 2792
1 2793
1 2794
1 2795
1 2796
1 2797
1 2798
1 2799
1 2800
1 2801
1 2802
1 2803
1 2804
1 2805
1 2806
1 2807
1 2808
1 2809
1 2810
1 2811
1 2812
1 2813
1 2814
1 2815
1 2816
1 2817
1 2818
1 2819
1 2820
1 2821
1 2822
1 2823
1 2824
1 2825
1 2826
1 2827
1 2828
1 2829
1 2830
1 2831
1 2832
1 2833
1 2834
1 2835
1 2836
1 2837
1 2838
1 2839
1 2840
1 2841
1 2842
1 2843
1 2844
1 2845
1 2846
1 2847
1 2848
1 2849
1 2850
1 2851
1 2852
1 2853
1 2854
1 2855
1 2856
1 2857
1 2858
1 2859
1 2860
1 2861
1 2862
1 2863
1 2864
1 2865
1 2866
1 2867
1 2868
1 2869
1 2870
1 2871
1 2872
1 2873
1 2874
1 2875
1 2876
1 2877
1 2878
1 2879
1 2880
1 2881
1 2882
1 2883
1 2884
1 2885
1 2886
1 2887
1 2888
1 2889
1 2890
1 2891
1 2892
1 2893
1 2894
1 2895
1 2896
1 2897
1 2898
1 2899
1 2900
1 2901
1 2902
1 2903
1 2904
1 2905
1 2906
1 2907
1 2908
1 2909
1 2910
1 2911
1 2912
1 2913
1 2914
1 2915
1 2916
1 2917
1 2918
1 2919
1 2920
1 2921
1 2922
1 2923
1 2924
1 2925
1 2926
1 2927
1 2928
1 2929
1 2930
1 2931
1 2932
1 2933
1 2934
1 2935
1 2936
1 2937
1 2938
1 2939
1 2940
1 2941
1 2942
1 2943
1 2944
1 2945
1 2946
1 2947
1 2948
1 2949
1 2950
1 2951
1 2952
1 2953
1 2954
1 2955
1 2956
1 2957
1 2958
1 2959
1 2960
1 2961
1 2962
1 2963
1 2964
1 2965
1 2966
1 2967
1 2968
1 2969
1 2970
1 2971
1 2972
1 2973
1 2974
POINT_DATA 2975
SCALARS Idp unsigned_int
LOOKUP_TABLE default
0 1 39 40 41 80 81 82 121 122 123 162 163 164 203 204 205 244 245 246 285 286 287 326 327 328 367 368 369 408 409 410 449 450 451 461 462 463 471 472 473 481 482 483 491 492 493 501 502 503 511 512 513 521 522 523 531 532 533 541 542 543 551 552 2 3 4 5 6 7 8 9 42 43 44 45 46 47 48 49 83 84 85 86 87 88 89 90 124 125 126 127 128 129 130 131 165 166 167 168 169 170 171 172 206 207 208 209 210 211 212 213 247 248 249 250 251 252 253 254 288 289 290 291 292 293 294 295 329 330 331 332 333 334 335 336 370 371 372 373 374 375 376 377 411 412 413 414 415 416 417 418 452 453 454 464 465 474 475 484 485 494 495 504 505 514 515 524 525 534 535 544 545 553 554 10 11 12 13 14 15 16 17 18 50 51 52 53 54 55 56 57 58 91 92 93 94 95 96 97 98 99 132 133 134 135 136 137 138 139 140 173 174 175 176 177 178 179 180 181 214 215 216 217 218 219 220 221 222 255 256 257 258 259 260 261 262 263 296 297 298 299 300 301 302 303 304 337 338 339 340 341 342 343 344 345 378 379 380 381 382 383 384 385 386 419 420 421 422 423 424 425 426 427 19 20 21 22 23 24 25 26 59 60 61 62 63 64 65 66 100 101 102 103 104 105 106 107 141 142 143 144 145 146 147 148 182 183 184 185 186 187 188 189 223 224 225 226 227 228 229 230 264 265 266 267 268 269 270 271 305 306 307 308 309 310 311 312 346 347 348 349 350 351 352 353 387 388 389 390 391 392 393 394 428 429 430 431 432 433 434 435 27 28 29 30 31 32 33 34 35 67 68 69 70 71 72 73 74 75 108 109 110 111 112 113 114 115 116 149 150 151 152 153 154 155 156 157 190 191 192 193 194 195 196 197 198 231 232 233 234 235 236 237 238 239 272 273 274 275 276 277 278 279 280 313 314 315 316 317 318 319 320 321 354 355 356 357 358 359 360 361 362 395 396 397 398 399 400 401 402 403 436 437 438 439 440 441 442 443 444 455 456 466 476 486 496 506 516 526 536 546 555 36 37 38 76 77 78 79 117 118 119 120 158 159 160 161 199 200 201 202 240 241 242 243 281 282 283 284 322 323 324 325 363 364 365 366 404 405 406 407 445 446 447 448 457 458 459 460 467 468 469 470 477 478 479 480 487 488 489 490 497 498 499 500 507 508 509 510 517 518 519 520 527 528 529 530 537 538 539 540 547 548 549 550 556 557 558 559 560 561 562 563 564 565 566 567 568 569 570 571 572 573 574 575 576 577 578 579 580 581 582 583 584 585 586 587 588 589 590 591 592 593 594 595 596 597 598 599 600 601 602 603 604 605 606 607 608 609 610 611 612 613 614 615 616 617 618 619 620 621 622 623 624 625 626 627 628 629 630 631 632 633 634 635 636 637 638 639 640 641 642 643 644 645 646 647 648 649 650 651 652 653 654 655 656 657 658 659 660 661 662 663 664 665 666 667 668 669 670 671 672 673 674 675 676 677 678 679 680 681 682 683 684 685 686 687 688 689 690 691 692 693 694 695 696 697 698 699 700 701 702 703 704 705 706 707 708 709 710 711 712 713 714 715 716 717 718 719 720 721 722 723 724 725 726 727 728 729 730 731 732 733 734 735 736 737 738 739 740 741 742 743 744 745 746 747 748 749 750 751 752 753 754 755 756 757 758 759 760 761 762 763 764 765 766 767 768 769 770 771 772 773 774 775 776 777 778 779 780 781 782 783 784 785 786 787 788 789 790 791 792 793 794 795 796 797 798 799 800 801 802 803 804 805 806 807 808 809 810 811 812 813 814 815 816 817 818 819 820 821 822 823 824 825 826 827 828 829 830 831 832 833 834 835 836 837 838 839 840 841 842 843 844 845 846 847 848 849 850 851 852 853 854 855 856 857 858 859 860 861 862 863 864 865 866 867 868 869 870 871 872 873 874 875 876 877 878 879 880 881 882 883 884 885 886 887 888 889 890 891 892 893 894 895 896 897 898 899 900 901 902 903 904 905 906 907 908 909 910 911 912 913 914 915 916 917 918 919 920 921 922 923 924 925 926 927 928 929 930 931 932 933 934 935 936 937 938 939 940 941 942 943 944 945 946 947 948 949 950 951 952 953 954 955 956 957 958 959 960 961 962 963 964 965 966 967 968 969 970 971 972 973 974 975 976 977 978 979 980 981 982 983 984 985 986 987 988 989 990 991 992 993 994 995 996 997 998 999 1000 1001 1002 1003 1004 1005 1006 1007 1008 1009 1010 1011 1012 1013 1014 1015 1016 1017 1018 1019 1020 1021 1022 1023 1024 1025 1026 1027 1028 1029 1030 1031 1032 1033 1034 1035 1060 1061 1062 1063 1064 1065 1091 1092 1093 1094 1095 1096 1122 1123 1124 1125 1126 1127 1153 1154 1155 1156 1157 1158 1184 1185 1186 1187 1188 1189 1215 1216 1217 1218 1219 1220 1246 1247 1248 1249 1250 1251 1277 1278 1279 1280 1281 1282 1308 1309 1310 1311 1312 1313 1339 1340 1341 1342 1343 1344 1370 1371 1372 1373 1374 1375 1401 1402 1403 1404 1405 1406 1432 1433 1434 1435 1436 1437 1463 1464 1465 1466 1467 1468 1494 1495 1496 1497 1498 1499 1525 1526 1527 1528 1529 1530 1556 1557 1558 1559 1560 1561 1587 1588 1589 1590 1591 1592 1618 1619 1620 1621 1622 1623 1649 1650 1651 1652 1653 1654 1680 1681 1682 1683 1684 1685 1711 1712 1713 1714 1715 1716 1742 1743 1744 1745 1746 1747 1773 1774 1775 1776 1777 1778 1804 1805 1806 1807 1808 1809 1835 1836 1837 1838 1839 1840 1866 1867 1868 1869 1870 1871 1897 1898 1899 1900 1901 1902 1928 1929 1930 1931 1932 1933 1959 1960 1961 1962 1963 1964 1990 1991 1992 1993 1994 1995 2021 2022 2023 2024 2025 2026 2052 2053 2054 2055 2056 2057 2083 2084 2085 2086 2087 2088 2114 2115 2116 2117 2118 2119 2145 2146 2147 2148 2149 2150 2176 2177 2178 2179 2180 2181 2207 2208 2209 2210 2211 2212 2238 2239 2240 2241 2242 2243 2269 2270 2271 2272 2273 2274 2300 2301 2302 2303 2304 2305 2331 2332 2333 2334 2335 2336 2362 2363 2364 2365 2366 2367 2393 2394 2395 2396 2397 2398 2424 2425 2426 2427 2428 2429 2455 2456 2457 2458 2459 2460 2486 2487 2488 2489 2490 2491 2517 2518 2519 2520 2521 2522 2548 2549 2550 2551 2552 2553 2579 2580 2581 2582 2583 2584 2610 2611 2612 2613 2614 2615 2641 2642 2643 2644 2645 2646 2672 2673 2674 2675 2676 2677 2703 2704 2705 2706 2707 2708 2734 2735 2736 2737 2738 2763 2764 2765 2766 2767 2792 2793 2794 2795 2819 2820 2821 2822 2846 2847 2848 2871 2872 2894 2895 1036 1037 1038 1039 1040 1041 1042 1043 1044 1066 1067 1068 1069 1070 1071 1072 1073 1074 1097 1098 1099 1100 1101 1102 1103 1104 1105 1128 1129 1130 1131 1132 1133 1134 1135 1136 1159 1160 1161 1162 1163 1164 1165 1166 1167 1190 1191 1192 1193 1194 1195 1196 1197 1198 1221 1222 1223 1224 1225 1226 1227 1228 1229 1252 1253 1254 1255 1256 1257 1258 1259 1260 1283 1284 1285 1286 1287 1288 1289 1290 1291 1314 1315 1316 1317 1318 1319 1320 1321 1322 1345 1346 1347 1348 1349 1350 1351 1352 1353 1376 1377 1378 1379 1380 1381 1382 1383 1384 1407 1408 1409 1410 1411 1412 1413 1414 1415 1438 1439 1440 1441 1442 1443 1444 1445 1446 1469 1470 1471 1472 1473 1474 1475 1476 1477 1500 1501 1502 1503 1504 1505 1506 1507 1508 1531 1532 1533 1534 1535 1536 1537 1538 1539 1562 1563 1564 1565 1566 1567 1568 1569 1570 1593 1594 1595 1596 1597 1598 1599 1600 1601 1624 1625 1626 1627 1628 1629 1630 1631 1632 1655 1656 1657 1658 1659 1660 1661 1662 1663 1686 1687 1688 1689 1690 1691 1692 1693 1694 1717 1718 1719 1720 1721 1722 1723 1724 1725 1748 1749 1750 1751 1752 1753 1754 1755 1756 1779 1780 1781 1782 1783 1784 1785 1786 1787 1810 1811 1812 1813 1814 1815 1816 1817 1818 1841 1842 1843 1844 1845 1846 1847 1848 1849 1872 1873 1874 1875 1876 1877 1878 1879 1880 1903 1904 1905 1906 1907 1908 1909 1910 1911 1934 1935 1936 1937 1938 1939 1940 1941 1942 1965 1966 1967 1968 1969 1970 1971 1972 1973 1996 1997 1998 1999 2000 2001 2002 2003 2004 2027 2028 2029 2030 2031 2032 2033 2034 2035 2058 2059 2060 2061 2062 2063 2064 2065 2066 2089 2090 2091 2092 2093 2094 2095 2096 2097 2120 2121 2122 2123 2124 2125 2126 2127 2128 2151 2152 2153 2154 2155 2156 2157 2158 2159 2182 2183 2184 2185 2186 2187 2188 2189 2190 2213 2214 2215 2216 2217 2218 2219 2220 2221 2244 2245 2246 2247 2248 2249 2250 2251 2252 2275 2276 2277 2278 2279 2280 2281 2282 2283 2306 2307 2308 2309 2310 2311 2312 2313 2314 2337 2338 2339 2340 2341 2342 2343 2344 2345 2368 2369 2370 2371 2372 2373 2374 2375 2376 2399 2400 2401 2402 2403 2404 2405 2406 2407 2430 2431 2432 2433 2434 2435 2436 2437 2438 2461 2462 2463 2464 2465 2466 2467 2468 2469 2492 2493 2494 2495 2496 2497 2498 2499 2500 2523 2524 2525 2526 2527 2528 2529 2530 2531 2554 2555 2556 2557 2558 2559 2560 2561 2562 2585 2586 2587 2588 2589 2590 2591 2592 2593 2616 2617 2618 2619 2620 2621 2622 2623 2624 2647 2648 2649 2650 2651 2652 2653 2654 2655 2678 2679 2680 2681 2682 2683 2684 2685 2686 2709 2710 2711 2712 2713 2714 2715 2716 2717 2739 2740 2741 2742 2743 2744 2745 2746 2747 2768 2769 2770 2771 2772 2773 2774 2775 2776 2796 2797 2798 2799 2800 2801 2802 2803 2804 2823 2824 2825 2826 2827 2828 2829 2830 2831 2849 2850 2851 2852 2853 2854 2855 2856 2857 2873 2874 2875 2876 2877 2878 2879 2880 2881 2896 2897 2898 2899 2900 2901 2902 2903 2904 2917 2918 2919 2920 2921 2922 2923 2924 2925 2936 2937 2938 2939 2940 2941 2942 2943 2953 2954 2955 2956 2957 2958 2966 2967 2968 2969 1045 1046 1047 1048 1049 1050 1051 1052 1075 1076 1077 1078 1079 1080 1081 1082 1106 1107 1108 1109 1110 1111 1112 1113 1137 1138 1139 1140 1141 1142 1143 1144 1168 1169 1170 1171 1172 1173 1174 1175 1199 1200 1201 1202 1203 1204 1205 1206 1230 1231 1232 1233 1234 1235 1236 1237 1261 1262 1263 1264 1265 1266 1267 1268 1292 1293 1294 1295 1296 1297 1298 1299 1323 1324 1325 1326 1327 1328 1329 1330 1354 1355 1356 1357 1358 1359 1360 1361 1385 1386 1387 1388 1389 1390 1391 1392 1416 1417 1418 1419 1420 1421 1422 1423 1447 1448 1449 1450 1451 1452 1453 1454 1478 1479 1480 1481 1482 1483 1484 1485 1509 1510 1511 1512 1513 1514 1515 1516 1540 1541 1542 1543 1544 1545 1546 1547 1571 1572 1573 1574 1575 1576 1577 1578 1602 1603 1604 1605 1606 1607 1608 1609 1633 1634 1635 1636 1637 1638 1639 1640 1664 1665 1666 1667 1668 1669 1670 1671 1695 1696 1697 1698 1699 1700 1701 1702 1726 1727 1728 1729 1730 1731 1732 1733 1757 1758 1759 1760 1761 1762 1763 1764 1788 1789 1790 1791 1792 1793 1794 1795 1819 1820 1821 1822 1823 1824 1825 1826 1850 1851 1852 1853 1854 1855 1856 1857 1881 1882 1883 1884 1885 1886 1887 1888 1912 1913 1914 1915 1916 1917 1918 1919 1943 1944 1945 1946 1947 1948 1949 1950 1974 1975 1976 1977 1978 1979 1980 1981 2005 2006 2007 2008 2009 2010 2011 2012 2036 2037 2038 2039 2040 2041 2042 2043 2067 2068 2069 2070 2071 2072 2073 2074 2098 2099 2100 2101 2102 2103 2104 2105 2129 2130 2131 2132 2133 2134 2135 2136 2160 2161 2162 2163 2164 2165 2166 2167 2191 2192 2193 2194 2195 2196 2197 2198 2222 2223 2224 2225 2226 2227 2228 2229 2253 2254 2255 2256 2257 2258 2259 2260 2284 2285 2286 2287 2288 2289 2290 2291 2315 2316 2317 2318 2319 2320 2321 2322 2346 2347 2348 2349 2350 2351 2352 2353 2377 2378 2379 2380 2381 2382 2383 2384 2408 2409 2410 2411 2412 2413 2414 2415 2439 2440 2441 2442 2443 2444 2445 2446 2470 2471 2472 2473 2474 2475 2476 2477 2501 2502 2503 2504 2505 2506 2507 2508 2532 2533 2534 2535 2536 2537 2538 2539 2563 2564 2565 2566 2567 2568 2569 2570 2594 2595 2596 2597 2598 2599 2600 2601 2625 2626 2627 2628 2629 2630 2631 2632 2656 2657 2658 2659 2660 2661 2662 2663 2687 2688 2689 2690 2691 2692 2693 2694 2718 2719 2720 2721 2722 2723 2724 2725 2748 2749 2750 2751 2752 2753 2754 2755 2777 2778 2779 2780 2781 2782 2783 2784 2805 2806 2807 2808 2809 2810 2811 2812 2832 2833 2834 2835 2836 2837 2838 2839 2858 2859 2860 2861 2862 2863 2864 2865 2882 2883 2884 2885 2886 2887 2888 2889 2905 2906 2907 2908 2909 2910 2911 2912 2926 2927 2928 2929 2930 2931 2932 2933 2944 2945 2946 2947 2948 2949 2950 2951 2959 2960 2961 2962 2963 2964 2965 2970 2971 2972 2973 2974 1053 1054 1055 1056 1057 1058 1059 1083 1084 1085 1086 1087 1088 1089 1090 1114 1115 1116 1117 1118 1119 1120 1121 1145 1146 1147 1148 1149 1150 1151 1152 1176 1177 1178 1179 1180 1181 1182 1183 1207 1208 1209 1210 1211 1212 1213 1214 1238 1239 1240 1241 1242 1243 1244 1245 1269 1270 1271 1272 1273 1274 1275 1276 1300 1301 1302 1303 1304 1305 1306 1307 1331 1332 1333 1334 1335 1336 1337 1338 1362 1363 1364 1365 1366 1367 1368 1369 1393 1394 1395 1396 1397 1398 1399 1400 1424 1425 1426 1427 1428 1429 1430 1431 1455 1456 1457 1458 1459 1460 1461 1462 1486 1487 1488 1489 1490 1491 1492 1493 1517 1518 1519 1520 1521 1522 1523 1524 1548 1549 1550 1551 1552 1553 1554 1555 1579 1580 1581 1582 1583 1584 1585 1586 1610 1611 1612 1613 1614 1615 1616 1617 1641 1642 1643 1644 1645 1646 1647 1648 1672 1673 1674 1675 1676 1677 1678 1679 1703 1704 1705 1706 1707 1708 1709 1710 1734 1735 1736 1737 1738 1739 1740 1741 1765 1766 1767 1768 1769 1770 1771 1772 1796 1797 1798 1799 1800 1801 1802 1803 1827 1828 1829 1830 1831 1832 1833 1834 1858 1859 1860 1861 1862 1863 1864 1865 1889 1890 1891 1892 1893 1894 1895 1896 1920 1921 1922 1923 1924 1925 1926 1927 1951 1952 1953 1954 1955 1956 1957 1958 1982 1983 1984 1985 1986 1987 1988 1989 2013 2014 2015 2016 2017 2018 2019 2020 2044 2045 2046 2047 2048 2049 2050 2051 2075 2076 2077 2078 2079 2080 2081 2082 2106 2107 2108 2109 2110 2111 2112 2113 2137 2138 2139 2140 2141 2142 2143 2144 2168 2169 2170 2171 2172 2173 2174 2175 2199 2200 2201 2202 2203 2204 2205 2206 2230 2231 2232 2233 2234 2235 2236 2237 2261 2262 2263 2264 2265 2266 2267 2268 2292 2293 2294 2295 2296 2297 2298 2299 2323 2324 2325 2326 2327 2328 2329 2330 2354 2355 2356 2357 2358 2359 2360 2361 2385 2386 2387 2388 2389 2390 2391 2392 2416 2417 2418 2419 2420 2421 2422 2423 2447 2448 2449 2450 2451 2452 2453 2454 2478 2479 2480 2481 2482 2483 2484 2485 2509 2510 2511 2512 2513 2514 2515 2516 2540 2541 2542 2543 2544 2545 2546 2547 2571 2572 2573 2574 2575 2576 2577 2578 2602 2603 2604 2605 2606 2607 2608 2609 2633 2634 2635 2636 2637 2638 2639 2640 2664 2665 2666 2667 2668 2669 2670 2671 2695 2696 2697 2698 2699 2700 2701 2702 2726 2727 2728 2729 2730 2731 2732 2733 2756 2757 2758 2759 2760 2761 2762 2785 2786 2787 2788 2789 2790 2791 2813 2814 2815 2816 2817 2818 2840 2841 2842 2843 2844 2845 2866 2867 2868 2869 2870 2890 2891 2892 2893 2913 2914 2915 2916 2934 2935 2952 
FIELD FieldData 12
Idp 1 2975 float
0 1 39 40 41 80 81 82 121 122 123 162 163 164 203 204 205 244 245 246 285 286 287 326 327 328 367 368 369 408 409 410 449 450 451 461 462 463 471 472 473 481 482 483 491 492 493 501 502 503 511 512 513 521 522 523 531 532 533 541 542 543 551 552 2 3 4 5 6 7 8 9 42 43 44 45 46 47 48 49 83 84 85 86 87 88 89 90 124 125 126 127 128 129 130 131 165 166 167 168 169 170 171 172 206 207 208 209 210 211 212 213 247 248 249 250 251 252 253 254 288 289 290 291 292 293 294 295 329 330 331 332 333 334 335 336 370 371 372 373 374 375 376 377 411 412 413 414 415 416 417 418 452 453 454 464 465 474 475 484 485 494 495 504 505 514 515 524 525 534 535 544 545 553 554 10 11 12 13 14 15 16 17 18 50 51 52 53 54 55 56 57 58 91 92 93 94 95 96 97 98 99 132 133 134 135 136 137 138 139 140 173 174 175 176 177 178 179 180 181 214 215 216 217 218 219 220 221 222 255 256 257 258 259 260 261 262 263 296 297 298 299 300 301 302 303 304 337 338 339 340 341 342 343 344 345 378 379 380 381 382 383 384 385 386 419 420 421 422 423 424 425 426 427 19 20 21 22 23 24 25 26 59 60 61 62 63 64 65 66 100 101 102 103 104 105 106 107 141 142 143 144 145 146 147 148 182 183 184 185 186 187 188 189 223 224 225 226 227 228 229 230 264 265 266 267 268 269 270 271 305 306 307 308 309 310 311 312 346 347 348 349 350 351 352 353 387 388 389 390 391 392 393 394 428 429 430 431 432 433 434 435 27 28 29 30 31 32 33 34 35 67 68 69 70 71 72 73 74 75 108 109 110 111 112 113 114 115 116 149 150 151 152 153 154 155 156 157 190 191 192 193 194 195 196 197 198 231 232 233 234 235 236 237 238 239 272 273 274 275 276 277 278 279 280 313 314 315 316 317 318 319 320 321 354 355 356 357 358 359 360 361 362 395 396 397 398 399 400 401 402 403 436 437 438 439 440 441 442 443 444 455 456 466 476 486 496 506 516 526 536 546 555 36 37 38 76 77 78 79 117 118 119 120 158 159 160 161 199 200 201 202 240 241 242 243 281 282 283 284 322 323 324 325 363 364 365 366 404 405 406 407 445 446 447 448 457 458 459 460 467 468 469 470 477 478 479 480 487 488 489 490 497 498 499 500 507 508 509 510 517 518 519 520 527 528 529 530 537 538 539 540 547 548 549 550 556 557 558 559 560 561 562 563 564 565 566 567 568 569 570 571 572 573 574 575 576 577 578 579 580 581 582 583 584 585 586 587 588 589 590 591 592 593 594 595 596 597 598 599 600 601 602 603 604 605 606 607 608 609 610 611 612 613 614 615 616 617 618 619 620 621 622 623 624 625 626 627 628 629 630 631 632 633 634 635 636 637 638 639 640 641 642 643 644 645 646 647 648 649 650 651 652 653 654 655 656 657 658 659 660 661 662 663 664 665 666 667 668 669 670 671 672 673 674 675 676 677 678 679 680 681 682 683 684 685 686 687 688 689 690 691 692 693 694 695 696 697 698 699 700 701 702 703 704 705 706 707 708 709 710 711 712 713 714 715 716 717 718 719 720 721 722 723 724 725 726 727 728 729 730 731 732 733 734 735 736 737 738 739 740 741 742 743 744 745 746 747 748 749 750 751 752 753 754 755 756 757 758 759 760 761 762 763 764 765 766 767 768 769 770 771 772 773 774 775 776 777 778 779 780 781 782 783 784 785 786 787 788 789 790 791 792 793 794 795 796 797 798 799 800 801 802 803 804 805 806 807 808 809 810 811 812 813 814 815 816 817 818 819 820 821 822 823 824 825 826 827 828 829 830 831 832 833 834 835 836 837 838 839 840 841 842 843 844 845 846 847 848 849 850 851 852 853 854 855 856 857 858 859 860 861 862 863 864 865 866 867 868 869 870 871 872 873 874 875 876 877 878 879 880 881 882 883 884 885 886 887 888 889 890 891 892 893 894 895 896 897 898 899 900 901 902 903 904 905 906 907 908 909 910 911 912 913 914 915 916 917 918 919 920 921 922 923 924 925 926 927 928 929 930 931 932 933 934 935 936 937 938 939 940 941 942 943 944 945 946 947 948 949 950 951 952 953 954 955 956 957 958 959 960 961 962 963 964 965 966 967 968 969 970 971 972 973 974 975 976 977 978 979 980 981 982 983 984 985 986 987 988 989 990 991 992 993 994 995 996 997 998 999 1000 1001 1002 1003 1004 1005 1006 1007 1008 1009 1010 1011 1012 1013 1014 1015 1016 1017 1018 1019 1020 1021 1022 1023 1024 1025 1026 1027 1028 1029 1030 1031 1032 1033 1034 1035 1060 1061 1062 1063 1064 1065 1091 1092 1093 1094 1095 1096 1122 1123 1124 1125 1126 1127 1153 1154 1155 1156 1157 1158 1184 1185 1186 1187 1188 1189 1215 1216 1217 1218 1219 1220 1246 1247 1248 1249 1250 1251 1277 1278 1279 1280 1281 1282 1308 1309 1310 1311 1312 1313 1339 1340 1341 1342 1343 1344 1370 1371 1372 1373 1374 1375 1401 1402 1403 1404 1405 1406 1432 1433 1434 1435 1436 1437 1463 1464 1465 1466 1467 1468 1494 1495 1496 1497 1498 1499 1525 1526 1527 1528 1529 1530 1556 1557 1558 1559 1560 1561 1587 1588 1589 1590 1591 1592 1618 1619 1620 1621 1622 1623 1649 1650 1651 1652 1653 1654 1680 1681 1682 1683 1684 1685 1711 1712 1713 1714 1715 1716 1742 1743 1744 1745 1746 1747 1773 1774 1775 1776 1777 1778 1804 1805 1806 1807 1808 1809 1835 1836 1837 1838 1839 1840 1866 1867 1868 1869 1870 1871 1897 1898 1899 1900 1901 1902 1928 1929 1930 1931 1932 1933 1959 1960 1961 1962 1963 1964 1990 1991 1992 1993 1994 1995 2021 2022 2023 2024 2025 2026 2052 2053 2054 2055 2056 2057 2083 2084 2085 2086 2087 2088 2114 2115 2116 2117 2118 2119 2145 2146 2147 2148 2149 2150 2176 2177 2178 2179 2180 2181 2207 2208 2209 2210 2211 2212 2238 2239 2240 2241 2242 2243 2269 2270 2271 2272 2273 2274 2300 2301 2302 2303 2304 2305 2331 2332 2333 2334 2335 2336 2362 2363 2364 2365 2366 2367 2393 2394 2395 2396 2397 2398 2424 2425 2426 2427 2428 2429 2455 2456 2457 2458 2459 2460 2486 2487 2488 2489 2490 2491 2517 2518 2519 2520 2521 2522 2548 2549 2550 2551 2552 2553 2579 2580 2581 2582 2583 2584 2610 2611 2612 2613 2614 2615 2641 2642 2643 2644 2645 2646 2672 2673 2674 2675 2676 2677 2703 2704 2705 2706 2707 2708 2734 2735 2736 2737 2738 2763 2764 2765 2766 2767 2792 2793 2794 2795 2819 2820 2821 2822 2846 2847 2848 2871 2872 2894 2895 1036 1037 1038 1039 1040 1041 1042 1043 1044 1066 1067 1068 1069 1070 1071 1072 1073 1074 1097 1098 1099 1100 1101 1102 1103 1104 1105 1128 1129 1130 1131 1132 1133 1134 1135 1136 1159 1160 1161 1162 1163 1164 1165 1166 1167 1190 1191 1192 1193 1194 1195 1196 1197 1198 1221 1222 1223 1224 1225 1226 1227 1228 1229 1252 1253 1254 1255 1256 1257 1258 1259 1260 1283 1284 1285 1286 1287 1288 1289 1290 1291 1314 1315 1316 1317 1318 1319 1320 1321 1322 1345 1346 1347 1348 1349 1350 1351 1352 1353 1376 1377 1378 1379 1380 1381 1382 1383 1384 1407 1408 1409 1410 1411 1412 1413 1414 1415 1438 1439 1440 1441 1442 1443 1444 1445 1446 1469 1470 1471 1472 1473 1474 1475 1476 1477 1500 1501 1502 1503 1504 1505 1506 1507 1508 1531 1532 1533 1534 1535 1536 1537 1538 1539 1562 1563 1564 1565 1566 1567 1568 1569 1570 1593 1594 1595 1596 1597 1598 1599 1600 1601 1624 1625 1626 1627 1628 1629 1630 1631 1632 1655 1656 1657 1658 1659 1660 1661 1662 1663 1686 1687 1688 1689 1690 1691 1692 1693 1694 1717 1718 1719 1720 1721 1722 1723 1724 1725 1748 1749 1750 1751 1752 1753 1754 1755 1756 1779 1780 1781 1782 1783 1784 1785 1786 1787 1810 1811 1812 1813 1814 1815 1816 1817 1818 1841 1842 1843 1844 1845 1846 1847 1848 1849 1872 1873 1874 1875 1876 1877 1878 1879 1880 1903 1904 1905 1906 1907 1908 1909 1910 1911 1934 1935 1936 1937 1938 1939 1940 1941 1942 1965 1966 1967 1968 1969 1970 1971 1972 1973 1996 1997 1998 1999 2000 2001 2002 2003 2004 2027 2028 2029 2030 2031 2032 2033 2034 2035 2058 2059 2060 2061 2062 2063 2064 2065 2066 2089 2090 2091 2092 2093 2094 2095 2096 2097 2120 2121 2122 2123 2124 2125 2126 2127 2128 2151 2152 2153 2154 2155 2156 2157 2158 2159 2182 2183 2184 2185 2186 2187 2188 2189 2190 2213 2214 2215 2216 2217 2218 2219 2220 2221 2244 2245 2246 2247 2248 2249 2250 2251 2252 2275 2276 2277 2278 2279 2280 2281 2282 2283 2306 2307 2308 2309 2310 2311 2312 2313 2314 2337 2338 2339 2340 2341 2342 2343 2344 2345 2368 2369 2370 2371 2372 2373 2374 2375 2376 2399 2400 2401 2402 2403 2404 2405 2406 2407 2430 2431 2432 2433 2434 2435 2436 2437 2438 2461 2462 2463 2464 2465 2466 2467 2468 2469 2492 2493 2494 2495 2496 2497 2498 2499 2500 2523 2524 2525 2526 2527 2528 2529 2530 2531 2554 2555 2556 2557 2558 2559 2560 2561 2562 2585 2586 2587 2588 2589 2590 2591 2592 2593 2616 2617 2618 2619 2620 2621 2622 2623 2624 2647 2648 2649 2650 2651 2652 2653 2654 2655 2678 2679 2680 2681 2682 2683 2684 2685 2686 2709 2710 2711 2712 2713 2714 2715 2716 2717 2739 2740 2741 2742 2743 2744 2745 2746 2747 2768 2769 2770 2771 2772 2773 2774 2775 2776 2796 2797 2798 2799 2800 2801 2802 2803 2804 2823 2824 2825 2826 2827 2828 2829 2830 2831 2849 2850 2851 2852 2853 2854 2855 2856 2857 2873 2874 2875 2876 2877 2878 2879 2880 2881 2896 2897 2898 2899 2900 2901 2902 2903 2904 2917 2918 2919 2920 2921 2922 2923 2924 2925 2936 2937 2938 2939 2940 2941 2942 2943 2953 2954 2955 2956 2957 2958 2966 2967 2968 2969 1045 1046 1047 1048 1049 1050 1051 1052 1075 1076 1077 1078 1079 1080 1081 1082 1106 1107 1108 1109 1110 1111 1112 1113 1137 1138 1139 1140 1141 1142 1143 1144 1168 1169 1170 1171 1172 1173 1174 1175 1199 1200 1201 1202 1203 1204 1205 1206 1230 1231 1232 1233 1234 1235 1236 1237 1261 1262 1263 1264 1265 1266 1267 1268 1292 1293 1294 1295 1296 1297 1298 1299 1323 1324 1325 1326 1327 1328 1329 1330 1354 1355 1356 1357 1358 1359 1360 1361 1385 1386 1387 1388 1389 1390 1391 1392 1416 1417 1418 1419 1420 1421 1422 1423 1447 1448 1449 1450 1451 1452 1453 1454 1478 1479 1480 1481 1482 1483 1484 1485 1509 1510 1511 1512 1513 1514 1515 1516 1540 1541 1542 1543 1544 1545 1546 1547 1571 1572 1573 1574 1575 1576 1577 1578 1602 1603 1604 1605 1606 1607 1608 1609 1633 1634 1635 1636 1637 1638 1639 1640 1664 1665 1666 1667 1668 1669 1670 1671 1695 1696 1697 1698 1699 1700 1701 1702 1726 1727 1728 1729 1730 1731 1732 1733 1757 1758 1759 1760 1761 1762 1763 1764 1788 1789 1790 1791 1792 1793 1794 1795 1819 1820 1821 1822 1823 1824 1825 1826 1850 1851 1852 1853 1854 1855 1856 1857 1881 1882 1883 1884 1885 1886 1887 1888 1912 1913 1914 1915 1916 1917 1918 1919 1943 1944 1945 1946 1947 1948 1949 1950 1974 1975 1976 1977 1978 1979 1980 1981 2005 2006 2007 2008 2009 2010 2011 2012 2036 2037 2038 2039 2040 2041 2042 2043 2067 2068 2069 2070 2071 2072 2073 2074 2098 2099 2100 2101 2102 2103 2104 2105 2129 2130 2131 2132 2133 2134 2135 2136 2160 2161 2162 2163 2164 2165 2166 2167 2191 2192 2193 2194 2195 2196 2197 2198 2222 2223 2224 2225 2226 2227 2228 2229 2253 2254 2255 2256 2257 2258 2259 2260 2284 2285 2286 2287 2288 2289 2290 2291 2315 2316 2317 2318 2319 2320 2321 2322 2346 2347 2348 2349 2350 2351 2352 2353 2377 2378 2379 2380 2381 2382 2383 2384 2408 2409 2410 2411 2412 2413 2414 2415 2439 2440 2441 2442 2443 2444 2445 2446 2470 2471 2472 2473 2474 2475 2476 2477 2501 2502 2503 2504 2505 2506 2507 2508 2532 2533 2534 2535 2536 2537 2538 2539 2563 2564 2565 2566 2567 2568 2569 2570 2594 2595 2596 2597 2598 2599 2600 2601 2625 2626 2627 2628 2629 2630 2631 2632 2656 2657 2658 2659 2660 2661 2662 2663 2687 2688 2689 2690 2691 2692 2693 2694 2718 2719 2720 2721 2722 2723 2724 2725 2748 2749 2750 2751 2752 2753 2754 2755 2777 2778 2779 2780 2781 2782 2783 2784 2805 2806 2807 2808 2809 2810 2811 2812 2832 2833 2834 2835 2836 2837 2838 2839 2858 2859 2860 2861 2862 2863 2864 2865 2882 2883 2884 2885 2886 2887 2888 2889 2905 2906 2907 2908 2909 2910 2911 2912 2926 2927 2928 2929 2930 2931 2932 2933 2944 2945 2946 2947 2948 2949 2950 2951 2959 2960 2961 2962 2963 2964 2965 2970 2971 2972 2973 2974 1053 1054 1055 1056 1057 1058 1059 1083 1084 1085 1086 1087 1088 1089 1090 1114 1115 1116 1117 1118 1119 1120 1121 1145 1146 1147 1148 1149 1150 1151 1152 1176 1177 1178 1179 1180 1181 1182 1183 1207 1208 1209 1210 1211 1212 1213 1214 1238 1239 1240 1241 1242 1243 1244 1245 1269 1270 1271 1272 1273 1274 1275 1276 1300 1301 1302 1303 1304 1305 1306 1307 1331 1332 1333 1334 1335 1336 1337 1338 1362 1363 1364 1365 1366 1367 1368 1369 1393 1394 1395 1396 1397 1398 1399 1400 1424 1425 1426 1427 1428 1429 1430 1431 1455 1456 1457 1458 1459 1460 1461 1462 1486 1487 1488 1489 1490 1491 1492 1493 1517 1518 1519 1520 1521 1522 1523 1524 1548 1549 1550 1551 1552 1553 1554 1555 1579 1580 1581 1582 1583 1584 1585 1586 1610 1611 1612 1613 1614 1615 1616 1617 1641 1642 1643 1644 1645 1646 1647 1648 1672 1673 1674 1675 1676 1677 1678 1679 1703 1704 1705 1706 1707 1708 1709 1710 1734 1735 1736 1737 1738 1739 1740 1741 1765 1766 1767 1768 1769 1770 1771 1772 1796 1797 1798 1799 1800 1801 1802 1803 1827 1828 1829 1830 1831 1832 1833 1834 1858 1859 1860 1861 1862 1863 1864 1865 1889 1890 1891 1892 1893 1894 1895 1896 1920 1921 1922 1923 1924 1925 1926 1927 1951 1952 1953 1954 1955 1956 1957 1958 1982 1983 1984 1985 1986 1987 1988 1989 2013 2014 2015 2016 2017 2018 2019 2020 2044 2045 2046 2047 2048 2049 2050 2051 2075 2076 2077 2078 2079 2080 2081 2082 2106 2107 2108 2109 2110 2111 2112 2113 2137 2138 2139 2140 2141 2142 2143 2144 2168 2169 2170 2171 2172 2173 2174 2175 2199 2200 2201 2202 2203 2204 2205 2206 2230 2231 2232 2233 2234 2235 2236 2237 2261 2262 2263 2264 2265 2266 2267 2268 2292 2293 2294 2295 2296 2297 2298 2299 2323 2324 2325 2326 2327 2328 2329 2330 2354 2355 2356 2357 2358 2359 2360 2361 2385 2386 2387 2388 2389 2390 2391 2392 2416 2417 2418 2419 2420 2421 2422 2423 2447 2448 2449 2450 2451 2452 2453 2454 2478 2479 2480 2481 2482 2483 2484 2485 2509 2510 2511 2512 2513 2514 2515 2516 2540 2541 2542 2543 2544 2545 2546 2547 2571 2572 2573 2574 2575 2576 2577 2578 2602 2603 2604 2605 2606 2607 2608 2609 2633 2634 2635 2636 2637 2638 2639 2640 2664 2665 2666 2667 2668 2669 2670 2671 2695 2696 2697 2698 2699 2700 2701 2702 2726 2727 2728 2729 2730 2731 2732 2733 2756 2757 2758 2759 2760 2761 2762 2785 2786 2787 2788 2789 2790 2791 2813 2814 2815 2816 2817 2818 2840 2841 2842 2843 2844 2845 2866 2867 2868 2869 2870 2890 2891 2892 2893 2913 2914 2915 2916 2934 2935 2952 
Rhop 1 2975 float
1000.0 1000.0 1000.0 1000.0 1000.0 1000.0 1000.0 1000.0 1000.0 1000.0 1000.0 1000.0 1000.0 1000.0 1000.0 1000.0 1000.0 1000.0 1000.0002 1000.0009 1000.0002 1000.0012 1000.0029 1000.0011 1000.0034 1000.0073 1000.0027 1000.007 1000.0139 1000.0049 1000.0121 1000.0223 1000.0077 1000.0175 1000.0319 1000.0103 1000.0233 1000.0413 1000.0128 1000.0283 1000.0498 1000.015 1000.0329 1000.0575 1000.017 1000.0377 1000.0661 1000.0201 1000.0439 1000.0772 1000.0245 1000.0536 1000.0943 1000.0318 1000.0695 1000.122 1000.045 1000.0951 1000.1642 1000.0674 1000.1329 1000.2219 1000.1843 1000.293 1000.0 1000.0 1000.0 1000.0 1000.0 1000.0 1000.0 1000.0 1000.0 1000.0 1000.0 1000.0 1000.0 1000.0 1000.0 1000.0 1000.0 1000.0 1000.0 1000.0 1000.0 1000.0 1000.0 1000.0 1000.0 1000.0 1000.0 1000.0 1000.0 1000.0 1000.0 1000.0 1000.0 1000.0 1000.0001 1000.0003 1000.0005 1000.0006 1000.0007 1000.0008 1000.0004 1000.0009 1000.0016 1000.0023 1000.003 1000.0037 1000.0042 1000.0045 1000.002 1000.0035 1000.0055 1000.0078 1000.0101 1000.012 1000.0134 1000.0146 1000.0057 1000.0095 1000.0142 1000.0192 1000.0244 1000.0286 1000.032 1000.0347 1000.0128 1000.02 1000.029 1000.0386 1000.0479 1000.0559 1000.0624 1000.0672 1000.0231 1000.0352 1000.05 1000.0656 1000.0805 1000.093 1000.1031 1000.1111 1000.0362 1000.0543 1000.0757 1000.098 1000.1186 1000.1359 1000.1499 1000.1607 1000.0507 1000.0745 1000.102 1000.0645 1000.0934 1000.077 1000.1104 1000.0886 1000.1263 1000.1015 1000.1443 1000.1189 1000.1689 1000.1455 1000.2049 1000.1868 1000.2593 1000.2482 1000.3375 1000.3306 1000.4401 1000.4279 1000.5615 1000.0 1000.0 1000.0 1000.0 1000.0 1000.0 1000.0 1000.0 1000.0 1000.0 1000.0 1000.0 1000.0 1000.0 1000.0 1000.0 1000.0 1000.0 1000.0 1000.0 1000.0 1000.0 1000.0 1000.0 1000.0 1000.0 1000.0 1000.0 1000.0 1000.0 1000.0 1000.0 1000.0 1000.0 1000.0 1000.0 1000.0009 1000.0009 1000.0009 1000.0009 1000.0009 1000.0009 1000.0009 1000.0009 1000.0009 1000.0049 1000.0049 1000.0051 1000.0052 1000.0052 1000.0052 1000.0052 1000.0052 1000.0052 1000.0153 1000.016 1000.0164 1000.0164 1000.0168 1000.017 1000.017 1000.017 1000.017 1000.0366 1000.0381 1000.0389 1000.0396 1000.0402 1000.0403 1000.0404 1000.0405 1000.0405 1000.071 1000.0737 1000.0755 1000.077 1000.0775 1000.0778 1000.0782 1000.0782 1000.0782 1000.1169 1000.1213 1000.1243 1000.1264 1000.1278 1000.1284 1000.1287 1000.1288 1000.129 1000.1689 1000.1747 1000.1788 1000.1816 1000.1834 1000.1844 1000.1849 1000.1851 1000.1852 1000.0 1000.0 1000.0 1000.0 1000.0 1000.0 1000.0 1000.0 1000.0 1000.0 1000.0 1000.0 1000.0 1000.0 1000.0 1000.0 1000.0 1000.0 1000.0 1000.0 1000.0 1000.0 1000.0 1000.0 1000.0 1000.0 1000.0 1000.0 1000.0 1000.0 1000.0 1000.0 1000.0009 1000.0009 1000.0009 1000.0009 1000.0009 1000.0009 1000.0009 1000.0009 1000.0052 1000.0052 1000.0052 1000.0052 1000.0052 1000.0052 1000.0052 1000.0051 1000.017 1000.017 1000.017 1000.017 1000.017 1000.0168 1000.0164 1000.0164 1000.0405 1000.0405 1000.0405 1000.0404 1000.0403 1000.0402 1000.0396 1000.0389 1000.0782 1000.0782 1000.0782 1000.0782 1000.0778 1000.0775 1000.077 1000.0755 1000.129 1000.129 1000.1288 1000.1287 1000.1284 1000.1278 1000.1264 1000.1243 1000.1852 1000.1852 1000.1851 1000.1849 1000.1844 1000.1834 1000.1816 1000.1788 1000.0 1000.0 1000.0 1000.0 1000.0 1000.0 1000.0 1000.0 1000.0 1000.0 1000.0 1000.0 1000.0 1000.0 1000.0 1000.0 1000.0 1000.0 1000.0 1000.0 1000.0 1000.0 1000.0 1000.0 1000.0 1000.0 1000.0 1000.0 1000.0 1000.0 1000.0 1000.0 1000.0 1000.0 1000.0 1000.0 1000.0009 1000.0009 1000.0008 1000.0007 1000.0006 1000.0005 1000.0003 1000.0001 1000.0 1000.0049 1000.0049 1000.0045 1000.0042 1000.0037 1000.003 1000.0023 1000.0016 1000.0009 1000.016 1000.0153 1000.0146 1000.0134 1000.012 1000.0101 1000.0078 1000.0055 1000.0035 1000.0381 1000.0366 1000.0347 1000.032 1000.0286 1000.0244 1000.0192 1000.0142 1000.0095 1000.0737 1000.071 1000.0672 1000.0624 1000.0559 1000.0479 1000.0386 1000.029 1000.02 1000.1213 1000.1169 1000.1111 1000.1031 1000.093 1000.0805 1000.0656 1000.05 1000.0352 1000.1747 1000.1689 1000.1607 1000.1499 1000.1359 1000.1186 1000.098 1000.0757 1000.0543 1000.102 1000.0745 1000.0934 1000.1104 1000.1263 1000.1443 1000.1689 1000.2049 1000.2593 1000.3375 1000.4401 1000.5615 1000.0 1000.0 1000.0 1000.0 1000.0 1000.0 1000.0 1000.0 1000.0 1000.0 1000.0 1000.0 1000.0 1000.0 1000.0 1000.0 1000.0 1000.0 1000.0 1000.0004 1000.0 1000.0 1000.0 1000.002 1000.0009 1000.0002 1000.0 1000.0057 1000.0029 1000.0012 1000.0002 1000.0128 1000.0073 1000.0034 1000.0011 1000.0231 1000.0139 1000.007 1000.0027 1000.0362 1000.0223 1000.0121 1000.0049 1000.0507 1000.0319 1000.0175 1000.0077 1000.0645 1000.0413 1000.0233 1000.0103 1000.077 1000.0498 1000.0283 1000.0128 1000.0886 1000.0575 1000.0329 1000.015 1000.1015 1000.0661 1000.0377 1000.017 1000.1189 1000.0772 1000.0439 1000.0201 1000.1455 1000.0943 1000.0536 1000.0245 1000.1868 1000.122 1000.0695 1000.0318 1000.2482 1000.1642 1000.0951 1000.045 1000.3306 1000.2219 1000.1329 1000.0674 1000.4279 1000.293 1000.1843 1000.0 1000.0 1000.0 1000.0 1000.0 1000.0 1000.0 1000.0 1000.0 1000.0 1000.0 1000.0 1000.0 1000.0 1000.0 1000.0 1000.0 1000.0 1000.0 1000.0 1000.0 1000.0 1000.0 1000.0 1000.0 1000.0 1000.0 1000.0 1000.0 1000.0 1000.0 1000.0 1000.0 1000.0 1000.0 1000.0 1000.0 1000.0 1000.0 1000.0 1000.0 1000.0 1000.0 1000.0 1000.0 1000.0 1000.0 1000.0 1000.0 1000.0 1000.0 1000.0 1000.0 1000.0 1000.0 1000.0 1000.0 1000.0 1000.0 1000.0 1000.0 1000.0 1000.0 1000.0 1000.0 1000.0 1000.0 1000.0 1000.0 1000.0 1000.0 1000.0 1000.0 1000.0 1000.0 1000.0 1000.0 1000.0 1000.0 1000.0 1000.0 1000.0 1000.0 1000.0 1000.0 1000.0 1000.0 1000.0 1000.0 1000.0 1000.0 1000.0 1000.0 1000.0 1000.0 1000.0 1000.0 1000.0 1000.0 1000.0 1000.0 1000.0 1000.0 1000.0 1000.0 1000.0 1000.0 1000.0 1000.0 1000.0 1000.0 1000.0 1000.0 1000.0 1000.0 1000.0 1000.0 1000.0 1000.0 1000.0 1000.0 1000.0 1000.0 1000.0 1000.0 1000.0 1000.0 1000.0 1000.0 1000.0 1000.0 1000.0 1000.0 1000.0 1000.0 1000.0 1000.0 1000.0 1000.0 1000.0 1000.0 1000.0 1000.0 1000.0 1000.0 1000.0 1000.0 1000.0 1000.0 1000.0 1000.0 1000.0 1000.0 1000.0 1000.0 1000.0 1000.0 1000.0 1000.0 1000.0 1000.0 1000.0 1000.0 1000.0 1000.0 1000.0 1000.0 1000.0 1000.0 1000.0 1000.0 1000.0 1000.0 1000.0 1000.0 1000.0 1000.0 1000.0 1000.0 1000.0 1000.0 1000.0 1000.0 1000.0 1000.0 1000.0 1000.0 1000.0 1000.0 1000.0 1000.0 1000.0 1000.0 1000.0 1000.0 1000.0 1000.0 1000.0 1000.0 1000.0 1000.0 1000.0 1000.0 1000.0 1000.0 1000.0 1000.0 1000.0 1000.0 1000.0 1000.0 1000.0 1000.0 1000.0 1000.0 1000.0 1000.0 1000.0 1000.0 1000.0 1000.0 1000.0 1000.0 1000.0 1000.0 1000.0 1000.0 1000.0 1000.0 1000.0 1000.0 1000.0 1000.0 1000.0 1000.0 1000.0 1000.0 1000.0 1000.0 1000.0 1000.0 1000.0 1000.0 1000.0 1000.0 1000.0 1000.0 1000.0 1000.0 1000.0 1000.0 1000.0 1000.0 1000.0 1000.0 1000.0 1000.0 1000.0 1000.0 1000.0 1000.0 1000.0 1000.0 1000.0 1000.0 1000.0 1000.0 1000.0 1000.0 1000.0 1000.0 1000.0 1000.0 1000.0 1000.0 1000.0 1000.0 1000.0 1000.0 1000.0 1000.0 1000.0 1000.0 1000.0 1000.0 1000.0 1000.0 1000.0 1000.0 1000.0 1000.0 1000.0 1000.0 1000.0 1000.0 1000.0 1000.0 1000.0 1000.0 1000.0 1000.0 1000.0 1000.0 1000.0 1000.0 1000.0 1000.0 1000.0 1000.0 1000.0 1000.0 1000.0 1000.0 1000.0 1000.0 1000.0 1000.0 1000.0 1000.0 1000.0 1000.0 1000.0 1000.0 1000.0 1000.0 1000.0 1000.0 1000.0 1000.0 1000.0 1000.0 1000.0 1000.0 1000.0 1000.0 1000.0 1000.0 1000.0 1000.0 1000.0 1000.0 1000.0 1000.0 1000.0 1000.0 1000.0 1000.0 1000.0 1000.0 1000.0 1000.0 1000.0 1000.0 1000.0 1000.0 1000.0 1000.0 1000.0 1000.0 1000.0 1000.0 1000.0 1000.0 1000.0 1000.0 1000.0 1000.0 1000.0 1000.0 1000.0 1000.0 1000.0 1000.0 1000.0 1000.0 1000.0 1000.0 1000.0 1000.0 1000.0 1000.0 1000.0 1000.0 1000.0 1000.0 1000.0 1000.0 1000.0 1000.0 1000.0 1000.0 1000.0 1000.0 1000.0 1000.0 1000.0 1000.0 1000.0 1000.0 1000.0 1000.0 1000.0 1000.0 1000.0 1000.0 1000.0 1000.0 1000.0 1000.0 1000.0 1000.0 1000.0 1000.0 1000.0 1000.0 1000.0 1000.0 1000.0 1000.0 1000.0 1000.0 1000.0 1000.0 1000.0 1000.0 1000.0 1000.0 1000.0 1000.0 1000.0 1000.0 1000.0 1000.0 1000.0 1000.0 1000.0 1000.0 1000.0 1000.0 1000.0 1000.0 1000.0 1000.0 1000.0 1000.0 1000.0 1000.0 1000.0 1000.0 1000.0 1000.0 1000.0 1000.0 1000.0 1000.0 1000.0 1000.0 1000.0 1000.0 1000.0 1000.0 1000.0 1000.0 1000.0 1000.0 1000.0 1000.0 1000.0 1000.0 1000.0 1000.0 1000.0 1000.1298 1000.1552 1000.1765 1000.1933 1000.2062 1000.1245 1000.158 1000.1868 1000.2106 1000.2292 1000.2435 1000.1456 1000.1829 1000.2151 1000.241 1000.2606 1000.2755 1000.1662 1000.208 1000.2433 1000.2712 1000.2922 1000.307 1000.1901 1000.2364 1000.2753 1000.3056 1000.3277 1000.3423 1000.2232 1000.2745 1000.3161 1000.3475 1000.3702 1000.3849 1000.2764 1000.3304 1000.3715 1000.4011 1000.4221 1000.4362 1000.3624 1000.415 1000.4475 1000.4697 1000.4855 1000.4962 1000.4937 1000.5353 1000.5484 1000.5544 1000.5597 1000.5649 1000.6761 1000.6887 1000.67 1000.6522 1000.6432 1000.6408 1000.8911 1000.857 1000.7992 1000.7554 1000.7318 1000.7224 1001.0602 1001.0043 1000.9178 1000.8549 1000.8218 1000.8079 1001.0806 1001.0756 1001.0059 1000.9442 1000.9103 1000.8961 1001.0624 1001.0923 1001.0656 1001.024 1000.9989 1000.9891 1001.086 1001.1196 1001.1229 1001.1055 1001.0935 1001.0893 1001.1567 1001.1848 1001.2006 1001.2004 1001.199 1001.1998 1001.2651 1001.2886 1001.3074 1001.315 1001.3197 1001.3237 1001.4015 1001.4221 1001.4399 1001.4495 1001.4568 1001.4628 1001.5564 1001.5767 1001.5937 1001.6032 1001.6118 1001.619 1001.7288 1001.7509 1001.7676 1001.7767 1001.7859 1001.7938 1001.9229 1001.9468 1001.9631 1001.9713 1001.9807 1001.9882 1002.1431 1002.1671 1002.1822 1002.1886 1002.1968 1002.2032 1002.3918 1002.4144 1002.4272 1002.4304 1002.4355 1002.4386 1002.6718 1002.6908 1002.7004 1002.6982 1002.6969 1002.6946 1002.9778 1002.9933 1002.9987 1002.9853 1002.9732 1002.9623 1003.2967 1003.3096 1003.3081 1003.2759 1003.2471 1003.2236 1003.6085 1003.6217 1003.6083 1003.545 1003.4941 1003.457 1003.8859 1003.9006 1003.866 1003.7595 1003.6836 1003.6342 1004.12 1004.1364 1004.069 1003.912 1003.8143 1003.7601 1004.3769 1004.3936 1004.2906 1004.0906 1003.9847 1003.9396 1004.9279 1004.9473 1004.8295 1004.6258 1004.5356 1004.5193 1006.4078 1006.4419 1006.3987 1006.2552 1006.2048 1006.2346 1009.4529 1009.5363 1009.6353 1009.6677 1009.7006 1009.7818 1013.2112 1013.3437 1013.5674 1013.8292 1014.0043 1014.1391 1015.4947 1015.6231 1015.8688 1016.2368 1016.5377 1016.708 1015.6907 1015.7656 1015.9081 1016.2165 1016.5385 1016.7109 1015.0836 1015.0622 1015.0056 1015.1267 1015.3353 1015.4404 1014.7935 1014.6566 1014.5109 1014.4031 1014.3805 1014.3226 1015.0577 1014.8157 1014.6331 1014.3459 1014.1291 1013.9291 1015.6481 1015.3347 1015.1142 1014.7609 1014.4407 1014.1599 1016.2579 1015.9093 1015.6595 1015.3042 1014.969 1014.6752 1016.6688 1016.3176 1016.0548 1015.7263 1015.4403 1015.1874 1016.5719 1016.2448 1015.9894 1015.6943 1015.476 1015.2894 1016.0875 1015.8061 1015.5817 1015.3337 1015.1891 1015.0785 1015.4154 1015.1999 1015.0348 1014.8566 1014.7926 1014.7627 1014.6843 1014.5496 1014.4778 1014.3997 1014.4254 1014.4785 1013.9119 1013.8715 1013.9258 1013.9703 1014.0931 1014.2237 1013.0368 1013.1036 1013.3021 1013.4811 1013.6821 1013.8842 1012.0137 1012.1834 1012.5244 1012.7983 1013.0706 1013.3322 1010.866 1011.1199 1011.558 1011.8777 1012.218 1012.5152 1009.6718 1009.9775 1010.4439 1010.7886 1011.1651 1011.4713 1008.5246 1008.8464 1009.2852 1009.6298 1010.0027 1010.2973 1007.4547 1007.7773 1008.1757 1008.5008 1008.8385 1009.1044 1006.3059 1006.7579 1007.1765 1007.4727 1007.7573 1007.9797 1005.3021 1005.8762 1006.3442 1006.5979 1006.8057 1006.9753 1005.1326 1005.6798 1005.887 1006.0056 1006.111 1004.4871 1005.0549 1005.303 1005.351 1005.3925 1004.3643 1004.7371 1004.7961 1004.8064 1003.6844 1004.0487 1004.2658 1004.3033 1003.308 1003.6284 1003.7819 1002.9247 1003.1231 1002.6967 1002.481 1000.216 1000.2234 1000.2282 1000.2318 1000.2336 1000.2349 1000.2355 1000.2357 1000.2357 1000.254 1000.2618 1000.2671 1000.2707 1000.2726 1000.2739 1000.2743 1000.2746 1000.2745 1000.2861 1000.2938 1000.2991 1000.3022 1000.3041 1000.3049 1000.3052 1000.3053 1000.3052 1000.3176 1000.3246 1000.329 1000.3315 1000.3331 1000.3334 1000.3334 1000.3331 1000.333 1000.3524 1000.3586 1000.3624 1000.3637 1000.3643 1000.364 1000.3636 1000.3633 1000.3629 1000.3942 1000.3993 1000.4017 1000.4021 1000.4017 1000.4008 1000.3996 1000.3988 1000.3982 1000.4443 1000.4479 1000.4489 1000.4481 1000.4462 1000.4443 1000.4426 1000.4412 1000.4403 1000.5025 1000.5044 1000.5035 1000.5011 1000.4981 1000.4952 1000.4927 1000.4907 1000.4896 1000.5678 1000.568 1000.5653 1000.561 1000.5568 1000.5528 1000.5493 1000.5469 1000.5455 1000.6403 1000.6381 1000.6334 1000.6275 1000.6219 1000.6168 1000.6129 1000.6097 1000.608 1000.7186 1000.7144 1000.7081 1000.701 1000.6939 1000.6881 1000.6835 1000.6801 1000.678 1000.8019 1000.7966 1000.7894 1000.7812 1000.7734 1000.7667 1000.7617 1000.7579 1000.7557 1000.8904 1000.885 1000.8776 1000.8689 1000.8607 1000.8539 1000.8483 1000.8442 1000.8419 1000.9851 1000.9804 1000.9734 1000.9651 1000.9567 1000.9496 1000.944 1000.9401 1000.9377 1001.0875 1001.0844 1001.0781 1001.0703 1001.0624 1001.0552 1001.05 1001.0459 1001.0436 1001.2004 1001.1982 1001.1934 1001.1864 1001.1794 1001.1729 1001.1674 1001.1635 1001.1614 1001.3257 1001.325 1001.3212 1001.3149 1001.3083 1001.3025 1001.2974 1001.2937 1001.2917 1001.4663 1001.4664 1001.463 1001.4578 1001.4515 1001.4462 1001.4414 1001.4379 1001.4361 1001.6232 1001.6237 1001.6208 1001.6154 1001.6095 1001.6045 1001.6002 1001.5972 1001.5953 1001.7982 1001.7984 1001.795 1001.7895 1001.7837 1001.7786 1001.7744 1001.7715 1001.7696 1001.9921 1001.9913 1001.9868 1001.9806 1001.974 1001.9688 1001.9642 1001.961 1001.9593 1002.2054 1002.2026 1002.1963 1002.1878 1002.1802 1002.1738 1002.1688 1002.1654 1002.1632 1002.4375 1002.4316 1002.4217 1002.4107 1002.4005 1002.3925 1002.3865 1002.3821 1002.3795 1002.6884 1002.6769 1002.6617 1002.6459 1002.6324 1002.6216 1002.6138 1002.6082 1002.6051 1002.9478 1002.9286 1002.9063 1002.8838 1002.8651 1002.8508 1002.8406 1002.8337 1002.8297 1003.1989 1003.1692 1003.1368 1003.1068 1003.0817 1003.0631 1003.0505 1003.0417 1003.0374 1003.4205 1003.3795 1003.3361 1003.296 1003.2643 1003.2414 1003.2257 1003.2156 1003.2104 1003.5884 1003.5379 1003.4845 1003.4355 1003.3969 1003.3696 1003.3519 1003.3406 1003.3347 1003.7128 1003.6592 1003.6006 1003.546 1003.503 1003.4728 1003.4536 1003.442 1003.4359 1003.9042 1003.8594 1003.8064 1003.7541 1003.7115 1003.6818 1003.6633 1003.6526 1003.6467 1004.5131 1004.4937 1004.4598 1004.4213 1004.3878 1004.3633 1004.3483 1004.3395 1004.3347 1006.2753 1006.2971 1006.2978 1006.2855 1006.27 1006.2573 1006.2492 1006.2439 1006.2412 1009.8759 1009.9479 1009.9915 1010.0137 1010.0241 1010.0287 1010.03 1010.0304 1010.03 1014.2735 1014.387 1014.4691 1014.5244 1014.5609 1014.5839 1014.5969 1014.6025 1014.6037 1016.8504 1016.9758 1017.0756 1017.1511 1017.2067 1017.2435 1017.2648 1017.2737 1017.2753 1016.8228 1016.9203 1017.0062 1017.0803 1017.1398 1017.1819 1017.2058 1017.2147 1017.2154 1015.4877 1015.5228 1015.5657 1015.616 1015.6639 1015.7004 1015.7201 1015.7247 1015.722 1014.254 1014.2062 1014.1925 1014.2049 1014.229 1014.2493 1014.2573 1014.2527 1014.2436 1013.7599 1013.6423 1013.5775 1013.552 1013.5469 1013.5444 1013.5339 1013.5151 1013.4968 1013.9355 1013.7803 1013.6852 1013.6337 1013.605 1013.5805 1013.5508 1013.5168 1013.488 1014.4461 1014.2909 1014.1945 1014.1374 1014.099 1014.0626 1014.0198 1013.9741 1013.9377 1014.9931 1014.8699 1014.7985 1014.7576 1014.7272 1014.6927 1014.6478 1014.5989 1014.5595 1015.1531 1015.0814 1015.0516 1015.0424 1015.0356 1015.0169 1014.9822 1014.9388 1014.9022 1015.01 1014.996 1015.0142 1015.0448 1015.0696 1015.0763 1015.06 1015.0299 1015.0008 1014.7646 1014.807 1014.871 1014.9393 1014.9966 1015.0303 1015.0366 1015.0224 1015.0036 1014.5494 1014.6417 1014.7417 1014.838 1014.9203 1014.9761 1015.0014 1015.0031 1014.9938 1014.356 1014.4845 1014.6046 1014.7141 1014.8078 1014.8749 1014.9119 1014.9225 1014.9198 1014.0615 1014.2085 1014.3312 1014.4377 1014.5279 1014.595 1014.6337 1014.6482 1014.6482 1013.5356 1013.6851 1013.7974 1013.8891 1013.9664 1014.0249 1014.0594 1014.0728 1014.0735 1012.7281 1012.87 1012.9656 1013.0389 1013.1 1013.1475 1013.1765 1013.1874 1013.1881 1011.6823 1011.8134 1011.8936 1011.9507 1011.9989 1012.037 1012.0612 1012.071 1012.0721 1010.4982 1010.6207 1010.6913 1010.7402 1010.7809 1010.8137 1010.8356 1010.8459 1010.8488 1009.2872 1009.4037 1009.4747 1009.5236 1009.5631 1009.5948 1009.6165 1009.629 1009.6339 1008.1362 1008.2479 1008.327 1008.3851 1008.4301 1008.4641 1008.4877 1008.5021 1008.509 1007.0967 1007.1979 1007.2877 1007.3619 1007.4189 1007.46 1007.4874 1007.5046 1007.5135 1006.189 1006.2699 1006.3627 1006.4545 1006.5298 1006.5841 1006.6198 1006.6414 1006.6525 1005.4226 1005.47 1005.5502 1005.6491 1005.7432 1005.8169 1005.867 1005.8977 1005.9138 1004.8015 1004.8077 1004.8564 1004.9423 1005.0417 1005.1319 1005.2003 1005.2453 1005.2698 1004.313 1004.2933 1004.298 1004.3483 1004.4303 1004.5199 1004.5983 1004.6557 1004.6901 1003.8781 1003.908 1003.8896 1003.891 1003.9307 1003.995 1004.0639 1004.1218 1004.1599 1003.3777 1003.5306 1003.5944 1003.5825 1003.5698 1003.5855 1003.6218 1003.6625 1003.6935 1002.7861 1003.0428 1003.232 1003.334 1003.3397 1003.3137 1003.3021 1003.3084 1003.3204 1002.4235 1002.5855 1002.7487 1002.926 1003.0505 1003.1022 1003.0977 1003.0811 1003.0731 1002.5072 1002.4791 1002.5645 1002.6326 1002.7166 1002.7665 1002.797 1002.8094 1002.6 1002.5272 1002.5501 1002.5309 1002.5175 1002.5045 1002.8018 1002.7706 1002.7412 1002.7139 1000.2357 1000.2357 1000.2357 1000.2355 1000.2349 1000.2336 1000.2318 1000.2282 1000.2746 1000.2745 1000.2746 1000.2743 1000.2739 1000.2726 1000.2707 1000.2671 1000.3052 1000.3052 1000.3053 1000.3052 1000.3049 1000.3041 1000.3022 1000.2991 1000.333 1000.333 1000.3331 1000.3334 1000.3334 1000.3331 1000.3315 1000.329 1000.3627 1000.3629 1000.3633 1000.3636 1000.364 1000.3643 1000.3637 1000.3624 1000.3979 1000.3982 1000.3988 1000.3996 1000.4008 1000.4017 1000.4021 1000.4017 1000.4399 1000.4403 1000.4412 1000.4426 1000.4443 1000.4462 1000.4481 1000.4489 1000.489 1000.4896 1000.4907 1000.4927 1000.4952 1000.4981 1000.5011 1000.5035 1000.545 1000.5455 1000.5469 1000.5493 1000.5528 1000.5568 1000.561 1000.5653 1000.6074 1000.608 1000.6097 1000.6129 1000.6168 1000.6219 1000.6275 1000.6334 1000.6772 1000.678 1000.6801 1000.6835 1000.6881 1000.6939 1000.701 1000.7081 1000.7549 1000.7557 1000.7579 1000.7617 1000.7667 1000.7734 1000.7812 1000.7894 1000.8411 1000.8419 1000.8442 1000.8483 1000.8539 1000.8607 1000.8689 1000.8776 1000.9369 1000.9377 1000.9401 1000.944 1000.9496 1000.9567 1000.9651 1000.9734 1001.0429 1001.0436 1001.0459 1001.05 1001.0552 1001.0624 1001.0703 1001.0781 1001.1605 1001.1614 1001.1635 1001.1674 1001.1729 1001.1794 1001.1864 1001.1934 1001.291 1001.2917 1001.2937 1001.2974 1001.3025 1001.3083 1001.3149 1001.3212 1001.4355 1001.4361 1001.4379 1001.4414 1001.4462 1001.4515 1001.4578 1001.463 1001.5945 1001.5953 1001.5972 1001.6002 1001.6045 1001.6095 1001.6154 1001.6208 1001.7689 1001.7696 1001.7715 1001.7744 1001.7786 1001.7837 1001.7895 1001.795 1001.9589 1001.9593 1001.961 1001.9642 1001.9688 1001.974 1001.9806 1001.9868 1002.1625 1002.1632 1002.1654 1002.1688 1002.1738 1002.1802 1002.1878 1002.1962 1002.3787 1002.3795 1002.3821 1002.3865 1002.3925 1002.4005 1002.4107 1002.4217 1002.604 1002.6051 1002.6082 1002.6138 1002.6216 1002.6324 1002.6459 1002.6617 1002.8284 1002.8297 1002.8337 1002.8406 1002.8508 1002.8651 1002.8838 1002.9063 1003.0356 1003.0374 1003.0417 1003.0505 1003.0631 1003.0817 1003.1068 1003.1368 1003.2083 1003.2104 1003.2156 1003.2257 1003.2414 1003.2643 1003.296 1003.3361 1003.3326 1003.3347 1003.3406 1003.3519 1003.3697 1003.3969 1003.4355 1003.4845 1003.4337 1003.4359 1003.442 1003.4536 1003.4728 1003.503 1003.546 1003.6006 1003.6448 1003.6467 1003.6526 1003.6633 1003.6818 1003.7115 1003.7541 1003.8064 1004.3332 1004.3347 1004.3395 1004.3483 1004.3633 1004.3878 1004.4213 1004.4598 1006.2401 1006.2412 1006.2439 1006.2492 1006.2573 1006.27 1006.2855 1006.2978 1010.0295 1010.03 1010.0304 1010.03 1010.0287 1010.0241 1010.0137 1009.9915 1014.6038 1014.6037 1014.6025 1014.5969 1014.5839 1014.5609 1014.5244 1014.4691 1017.2755 1017.2753 1017.2737 1017.2648 1017.2435 1017.2067 1017.1511 1017.0756 1017.2147 1017.2154 1017.2147 1017.2058 1017.1819 1017.1398 1017.0803 1017.0062 1015.7197 1015.722 1015.7247 1015.7201 1015.7003 1015.6639 1015.616 1015.5657 1014.2391 1014.2436 1014.2527 1014.2573 1014.2493 1014.229 1014.2049 1014.1925 1013.4892 1013.4968 1013.5151 1013.5339 1013.5444 1013.5469 1013.552 1013.5775 1013.4767 1013.488 1013.5168 1013.5508 1013.5805 1013.605 1013.6338 1013.6852 1013.9238 1013.9377 1013.9741 1014.0198 1014.0626 1014.099 1014.1374 1014.1945 1014.5444 1014.5595 1014.5989 1014.6478 1014.6927 1014.7272 1014.7576 1014.7985 1014.888 1014.9022 1014.9388 1014.9822 1015.0169 1015.0356 1015.0424 1015.0516 1014.9891 1015.0008 1015.0299 1015.06 1015.0763 1015.0696 1015.0448 1015.0142 1014.9953 1015.0035 1015.0223 1015.0366 1015.0303 1014.9966 1014.9393 1014.871 1014.9883 1014.9938 1015.0031 1015.0014 1014.9761 1014.9203 1014.838 1014.7417 1014.9171 1014.9198 1014.9225 1014.9119 1014.8749 1014.8078 1014.7141 1014.6046 1014.6466 1014.6482 1014.6482 1014.6337 1014.595 1014.5279 1014.4377 1014.3312 1014.0722 1014.0735 1014.0728 1014.0594 1014.0249 1013.9664 1013.8891 1013.7974 1013.1871 1013.1881 1013.1874 1013.1765 1013.1475 1013.1 1013.0389 1012.9656 1012.0715 1012.0721 1012.071 1012.0612 1012.037 1011.9989 1011.9507 1011.8936 1010.8489 1010.8488 1010.8459 1010.8356 1010.8137 1010.7809 1010.7402 1010.6913 1009.635 1009.6339 1009.629 1009.6165 1009.5948 1009.5631 1009.5236 1009.4747 1008.5112 1008.509 1008.5021 1008.4877 1008.4641 1008.4301 1008.3851 1008.327 1007.5162 1007.5135 1007.5046 1007.4874 1007.46 1007.4189 1007.3619 1007.2877 1006.6559 1006.6525 1006.6414 1006.6198 1006.5841 1006.5298 1006.4545 1006.3627 1005.9188 1005.9138 1005.8977 1005.867 1005.8169 1005.7432 1005.6491 1005.5502 1005.2778 1005.2698 1005.2453 1005.2003 1005.1319 1005.0417 1004.9423 1004.8564 1004.7014 1004.6901 1004.6557 1004.5983 1004.5199 1004.4303 1004.3483 1004.298 1004.1729 1004.1599 1004.1218 1004.0639 1003.995 1003.9307 1003.891 1003.8896 1003.7047 1003.6935 1003.6625 1003.6218 1003.5855 1003.5698 1003.5825 1003.5944 1003.3257 1003.3204 1003.3084 1003.3021 1003.3137 1003.3397 1003.334 1003.232 1003.0714 1003.0731 1003.0811 1003.0977 1003.1022 1003.0505 1002.926 1002.7487 1002.8138 1002.8094 1002.797 1002.7665 1002.7166 1002.6326 1002.5645 1002.4791 1002.4979 1002.5045 1002.5175 1002.5309 1002.5501 1002.5272 1002.6 1002.7024 1002.7139 1002.7412 1002.7706 1002.8018 1000.2234 1000.216 1000.2062 1000.1933 1000.1765 1000.1552 1000.1298 1000.2618 1000.254 1000.2435 1000.2292 1000.2106 1000.1868 1000.158 1000.1245 1000.2938 1000.2861 1000.2755 1000.2606 1000.241 1000.2151 1000.1829 1000.1456 1000.3246 1000.3176 1000.307 1000.2922 1000.2712 1000.2433 1000.208 1000.1662 1000.3586 1000.3524 1000.3423 1000.3277 1000.3056 1000.2753 1000.2364 1000.1901 1000.3993 1000.3942 1000.3849 1000.3702 1000.3475 1000.3161 1000.2745 1000.2232 1000.4479 1000.4443 1000.4362 1000.4221 1000.4011 1000.3715 1000.3304 1000.2764 1000.5044 1000.5025 1000.4962 1000.4855 1000.4697 1000.4475 1000.415 1000.3624 1000.568 1000.5678 1000.5649 1000.5597 1000.5544 1000.5484 1000.5353 1000.4937 1000.6381 1000.6403 1000.6408 1000.6432 1000.6522 1000.67 1000.6887 1000.6761 1000.7144 1000.7186 1000.7224 1000.7318 1000.7554 1000.7992 1000.857 1000.8911 1000.7966 1000.8019 1000.8079 1000.8218 1000.8549 1000.9178 1001.0043 1001.0602 1000.885 1000.8904 1000.8962 1000.9103 1000.9442 1001.0059 1001.0756 1001.0806 1000.9804 1000.9851 1000.9891 1000.9989 1001.024 1001.0656 1001.0923 1001.0624 1001.0844 1001.0875 1001.0893 1001.0935 1001.1055 1001.1229 1001.1196 1001.086 1001.1982 1001.2004 1001.1998 1001.199 1001.2004 1001.2006 1001.1848 1001.1567 1001.325 1001.3257 1001.3237 1001.3197 1001.315 1001.3074 1001.2886 1001.2651 1001.4664 1001.4663 1001.4628 1001.4568 1001.4495 1001.4399 1001.4221 1001.4015 1001.6237 1001.6232 1001.619 1001.6118 1001.6032 1001.5937 1001.5767 1001.5564 1001.7984 1001.7982 1001.7938 1001.7859 1001.7767 1001.7676 1001.7509 1001.7288 1001.9913 1001.9921 1001.9882 1001.9807 1001.9713 1001.9631 1001.9468 1001.9229 1002.2026 1002.2054 1002.2032 1002.1968 1002.1886 1002.1822 1002.1671 1002.1431 1002.4316 1002.4375 1002.4386 1002.4355 1002.4304 1002.4272 1002.4144 1002.3918 1002.6769 1002.6884 1002.6946 1002.6969 1002.6982 1002.7004 1002.6908 1002.6718 1002.9286 1002.9478 1002.9623 1002.9732 1002.9853 1002.9987 1002.9933 1002.9778 1003.1692 1003.1989 1003.2236 1003.2471 1003.2759 1003.3081 1003.3097 1003.2967 1003.3795 1003.4205 1003.457 1003.4941 1003.545 1003.6083 1003.6217 1003.6085 1003.5379 1003.5884 1003.6342 1003.6836 1003.7595 1003.866 1003.9006 1003.8859 1003.6592 1003.7128 1003.7601 1003.8143 1003.912 1004.069 1004.1364 1004.12 1003.8594 1003.9042 1003.9396 1003.9847 1004.0906 1004.2906 1004.3936 1004.3769 1004.4937 1004.5131 1004.5193 1004.5356 1004.6258 1004.8295 1004.9473 1004.9279 1006.2971 1006.2753 1006.2346 1006.2048 1006.2552 1006.3987 1006.4419 1006.4078 1009.9479 1009.8759 1009.7818 1009.7006 1009.6677 1009.6353 1009.5363 1009.4529 1014.387 1014.2735 1014.1391 1014.0043 1013.8292 1013.5674 1013.3437 1013.2112 1016.9758 1016.8504 1016.708 1016.5377 1016.2368 1015.8688 1015.6231 1015.4947 1016.9203 1016.8228 1016.7109 1016.5385 1016.2165 1015.9081 1015.7656 1015.6907 1015.5228 1015.4877 1015.4404 1015.3353 1015.1267 1015.0056 1015.0622 1015.0836 1014.2062 1014.254 1014.3226 1014.3805 1014.4031 1014.5109 1014.6566 1014.7935 1013.6423 1013.7599 1013.9291 1014.1291 1014.3459 1014.6331 1014.8157 1015.0577 1013.7802 1013.9355 1014.1599 1014.4407 1014.7609 1015.1142 1015.3347 1015.648 1014.2909 1014.4461 1014.6752 1014.969 1015.3042 1015.6595 1015.9093 1016.2579 1014.8699 1014.9931 1015.1874 1015.4403 1015.7263 1016.0548 1016.3176 1016.6688 1015.0814 1015.1531 1015.2894 1015.476 1015.6943 1015.9894 1016.2448 1016.5719 1014.996 1015.01 1015.0784 1015.1891 1015.3337 1015.5817 1015.8061 1016.0875 1014.8071 1014.7646 1014.7627 1014.7926 1014.8566 1015.0348 1015.1999 1015.4154 1014.6417 1014.5494 1014.4785 1014.4254 1014.3997 1014.4778 1014.5496 1014.6843 1014.4845 1014.356 1014.2237 1014.0931 1013.9703 1013.9258 1013.8715 1013.9119 1014.2085 1014.0615 1013.8842 1013.6822 1013.4811 1013.3021 1013.1036 1013.0368 1013.6851 1013.5356 1013.3322 1013.0706 1012.7983 1012.5244 1012.1834 1012.0137 1012.87 1012.7281 1012.5152 1012.218 1011.8777 1011.558 1011.1199 1010.866 1011.8134 1011.6823 1011.4713 1011.1651 1010.7886 1010.4439 1009.9775 1009.6718 1010.6207 1010.4982 1010.2973 1010.0027 1009.6298 1009.2852 1008.8464 1008.5246 1009.4037 1009.2872 1009.1045 1008.8385 1008.5008 1008.1757 1007.7773 1007.4547 1008.2479 1008.1362 1007.9797 1007.7573 1007.4727 1007.1765 1006.7579 1006.3059 1007.1979 1007.0967 1006.9753 1006.8057 1006.5979 1006.3442 1005.8762 1005.3021 1006.2699 1006.189 1006.111 1006.0056 1005.887 1005.6798 1005.1326 1005.47 1005.4226 1005.3925 1005.351 1005.303 1005.0549 1004.4871 1004.8077 1004.8015 1004.8064 1004.7961 1004.7371 1004.3643 1004.2933 1004.313 1004.3033 1004.2658 1004.0487 1003.6844 1003.908 1003.8781 1003.7819 1003.6284 1003.308 1003.5306 1003.3777 1003.1231 1002.9247 1003.0428 1002.7861 1002.481 1002.6967 1002.5855 1002.4235 1002.5072 
Mass 1 2975 float
0.40000001 0.40000001 0.40000001 0.40000001 0.40000001 0.40000001 0.40000001 0.40000001 0.40000001 0.40000001 0.40000001 0.40000001 0.40000001 0.40000001 0.40000001 0.40000001 0.40000001 0.40000001 0.40000001 0.40000001 0.40000001 0.40000001 0.40000001 0.40000001 0.40000001 0.40000001 0.40000001 0.40000001 0.40000001 0.40000001 0.40000001 0.40000001 0.40000001 0.40000001 0.40000001 0.40000001 0.40000001 0.40000001 0.40000001 0.40000001 0.40000001 0.40000001 0.40000001 0.40000001 0.40000001 0.40000001 0.40000001 0.40000001 0.40000001 0.40000001 0.40000001 0.40000001 0.40000001 0.40000001 0.40000001 0.40000001 0.40000001 0.40000001 0.40000001 0.40000001 0.40000001 0.40000001 0.40000001 0.40000001 0.40000001 0.40000001 0.40000001 0.40000001 0.40000001 0.40000001 0.40000001 0.40000001 0.40000001 0.40000001 0.40000001 0.40000001 0.40000001 0.40000001 0.40000001 0.40000001 0.40000001 0.40000001 0.40000001 0.40000001 0.40000001 0.40000001 0.40000001 0.40000001 0.40000001 0.40000001 0.40000001 0.40000001 0.40000001 0.40000001 0.40000001 0.40000001 0.40000001 0.40000001 0.40000001 0.40000001 0.40000001 0.40000001 0.40000001 0.40000001 0.40000001 0.40000001 0.40000001 0.40000001 0.40000001 0.40000001 0.40000001 0.40000001 0.40000001 0.40000001 0.40000001 0.40000001 0.40000001 0.40000001 0.40000001 0.40000001 0.40000001 0.40000001 0.40000001 0.40000001 0.40000001 0.40000001 0.40000001 0.40000001 0.40000001 0.40000001 0.40000001 0.40000001 0.40000001 0.40000001 0.40000001 0.40000001 0.40000001 0.40000001 0.40000001 0.40000001 0.40000001 0.40000001 0.40000001 0.40000001 0.40000001 0.40000001 0.40000001 0.40000001 0.40000001 0.40000001 0.40000001 0.40000001 0.40000001 0.40000001 0.40000001 0.40000001 0.40000001 0.40000001 0.40000001 0.40000001 0.40000001 0.40000001 0.40000001 0.40000001 0.40000001 0.40000001 0.40000001 0.40000001 0.40000001 0.40000001 0.40000001 0.40000001 0.40000001 0.40000001 0.40000001 0.40000001 0.40000001 0.40000001 0.40000001 0.40000001 0.40000001 0.40000001 0.40000001 0.40000001 0.40000001 0.40000001 0.40000001 0.40000001 0.40000001 0.40000001 0.40000001 0.40000001 0.40000001 0.40000001 0.40000001 0.40000001 0.40000001 0.40000001 0.40000001 0.40000001 0.40000001 0.40000001 0.40000001 0.40000001 0.40000001 0.40000001 0.40000001 0.40000001 0.40000001 0.40000001 0.40000001 0.40000001 0.40000001 0.40000001 0.40000001 0.40000001 0.40000001 0.40000001 0.40000001 0.40000001 0.40000001 0.40000001 0.40000001 0.40000001 0.40000001 0.40000001 0.40000001 0.40000001 0.40000001 0.40000001 0.40000001 0.40000001 0.40000001 0.40000001 0.40000001 0.40000001 0.40000001 0.40000001 0.40000001 0.40000001 0.40000001 0.40000001 0.40000001 0.40000001 0.40000001 0.40000001 0.40000001 0.40000001 0.40000001 0.40000001 0.40000001 0.40000001 0.40000001 0.40000001 0.40000001 0.40000001 0.40000001 0.40000001 0.40000001 0.40000001 0.40000001 0.40000001 0.40000001 0.40000001 0.40000001 0.40000001 0.40000001 0.40000001 0.40000001 0.40000001 0.40000001 0.40000001 0.40000001 0.40000001 0.40000001 0.40000001 0.40000001 0.40000001 0.40000001 0.40000001 0.40000001 0.40000001 0.40000001 0.40000001 0.40000001 0.40000001 0.40000001 0.40000001 0.40000001 0.40000001 0.40000001 0.40000001 0.40000001 0.40000001 0.40000001 0.40000001 0.40000001 0.40000001 0.40000001 0.40000001 0.40000001 0.40000001 0.40000001 0.40000001 0.40000001 0.40000001 0.40000001 0.40000001 0.40000001 0.40000001 0.40000001 0.40000001 0.40000001 0.40000001 0.40000001 0.40000001 0.40000001 0.40000001 0.40000001 0.40000001 0.40000001 0.40000001 0.40000001 0.40000001 0.40000001 0.40000001 0.40000001 0.40000001 0.40000001 0.40000001 0.40000001 0.40000001 0.40000001 0.40000001 0.40000001 0.40000001 0.40000001 0.40000001 0.40000001 0.40000001 0.40000001 0.40000001 0.40000001 0.40000001 0.40000001 0.40000001 0.40000001 0.40000001 0.40000001 0.40000001 0.40000001 0.40000001 0.40000001 0.40000001 0.40000001 0.40000001 0.40000001 0.40000001 0.40000001 0.40000001 0.40000001 0.40000001 0.40000001 0.40000001 0.40000001 0.40000001 0.40000001 0.40000001 0.40000001 0.40000001 0.40000001 0.40000001 0.40000001 0.40000001 0.40000001 0.40000001 0.40000001 0.40000001 0.40000001 0.40000001 0.40000001 0.40000001 0.40000001 0.40000001 0.40000001 0.40000001 0.40000001 0.40000001 0.40000001 0.40000001 0.40000001 0.40000001 0.40000001 0.40000001 0.40000001 0.40000001 0.40000001 0.40000001 0.40000001 0.40000001 0.40000001 0.40000001 0.40000001 0.40000001 0.40000001 0.40000001 0.40000001 0.40000001 0.40000001 0.40000001 0.40000001 0.40000001 0.40000001 0.40000001 0.40000001 0.40000001 0.40000001 0.40000001 0.40000001 0.40000001 0.40000001 0.40000001 0.40000001 0.40000001 0.40000001 0.40000001 0.40000001 0.40000001 0.40000001 0.40000001 0.40000001 0.40000001 0.40000001 0.40000001 0.40000001 0.40000001 0.40000001 0.40000001 0.40000001 0.40000001 0.40000001 0.40000001 0.40000001 0.40000001 0.40000001 0.40000001 0.40000001 0.40000001 0.40000001 0.40000001 0.40000001 0.40000001 0.40000001 0.40000001 0.40000001 0.40000001 0.40000001 0.40000001 0.40000001 0.40000001 0.40000001 0.40000001 0.40000001 0.40000001 0.40000001 0.40000001 0.40000001 0.40000001 0.40000001 0.40000001 0.40000001 0.40000001 0.40000001 0.40000001 0.40000001 0.40000001 0.40000001 0.40000001 0.40000001 0.40000001 0.40000001 0.40000001 0.40000001 0.40000001 0.40000001 0.40000001 0.40000001 0.40000001 0.40000001 0.40000001 0.40000001 0.40000001 0.40000001 0.40000001 0.40000001 0.40000001 0.40000001 0.40000001 0.40000001 0.40000001 0.40000001 0.40000001 0.40000001 0.40000001 0.40000001 0.40000001 0.40000001 0.40000001 0.40000001 0.40000001 0.40000001 0.40000001 0.40000001 0.40000001 0.40000001 0.40000001 0.40000001 0.40000001 0.40000001 0.40000001 0.40000001 0.40000001 0.40000001 0.40000001 0.40000001 0.40000001 0.40000001 0.40000001 0.40000001 0.40000001 0.40000001 0.40000001 0.40000001 0.40000001 0.40000001 0.40000001 0.40000001 0.40000001 0.40000001 0.40000001 0.40000001 0.40000001 0.40000001 0.40000001 0.40000001 0.40000001 0.40000001 0.40000001 0.40000001 0.40000001 0.40000001 0.40000001 0.40000001 0.40000001 0.40000001 0.40000001 0.40000001 0.40000001 0.40000001 0.40000001 0.40000001 0.40000001 0.40000001 0.40000001 0.40000001 0.40000001 0.40000001 0.40000001 0.40000001 0.40000001 0.40000001 0.40000001 0.40000001 0.40000001 0.40000001 0.40000001 0.40000001 0.40000001 0.40000001 0.40000001 0.40000001 0.40000001 0.40000001 0.40000001 0.40000001 0.40000001 0.40000001 0.40000001 0.40000001 0.40000001 0.40000001 0.40000001 0.40000001 0.40000001 0.40000001 0.40000001 0.40000001 0.40000001 0.40000001 0.40000001 0.40000001 0.40000001 0.40000001 0.40000001 0.40000001 0.40000001 0.40000001 0.40000001 0.40000001 0.40000001 0.40000001 0.40000001 0.40000001 0.40000001 0.40000001 0.40000001 0.40000001 0.40000001 0.40000001 0.40000001 0.40000001 0.40000001 0.40000001 0.40000001 0.40000001 0.40000001 0.40000001 0.40000001 0.40000001 0.40000001 0.40000001 0.40000001 0.40000001 0.40000001 0.40000001 0.40000001 0.40000001 0.40000001 0.40000001 0.40000001 0.40000001 0.40000001 0.40000001 0.40000001 0.40000001 0.40000001 0.40000001 0.40000001 0.40000001 0.40000001 0.40000001 0.40000001 0.40000001 0.40000001 0.40000001 0.40000001 0.40000001 0.40000001 0.40000001 0.40000001 0.40000001 0.40000001 0.40000001 0.40000001 0.40000001 0.40000001 0.40000001 0.40000001 0.40000001 0.40000001 0.40000001 0.40000001 0.40000001 0.40000001 0.40000001 0.40000001 0.40000001 0.40000001 0.40000001 0.40000001 0.40000001 0.40000001 0.40000001 0.40000001 0.40000001 0.40000001 0.40000001 0.40000001 0.40000001 0.40000001 0.40000001 0.40000001 0.40000001 0.40000001 0.40000001 0.40000001 0.40000001 0.40000001 0.40000001 0.40000001 0.40000001 0.40000001 0.40000001 0.40000001 0.40000001 0.40000001 0.40000001 0.40000001 0.40000001 0.40000001 0.40000001 0.40000001 0.40000001 0.40000001 0.40000001 0.40000001 0.40000001 0.40000001 0.40000001 0.40000001 0.40000001 0.40000001 0.40000001 0.40000001 0.40000001 0.40000001 0.40000001 0.40000001 0.40000001 0.40000001 0.40000001 0.40000001 0.40000001 0.40000001 0.40000001 0.40000001 0.40000001 0.40000001 0.40000001 0.40000001 0.40000001 0.40000001 0.40000001 0.40000001 0.40000001 0.40000001 0.40000001 0.40000001 0.40000001 0.40000001 0.40000001 0.40000001 0.40000001 0.40000001 0.40000001 0.40000001 0.40000001 0.40000001 0.40000001 0.40000001 0.40000001 0.40000001 0.40000001 0.40000001 0.40000001 0.40000001 0.40000001 0.40000001 0.40000001 0.40000001 0.40000001 0.40000001 0.40000001 0.40000001 0.40000001 0.40000001 0.40000001 0.40000001 0.40000001 0.40000001 0.40000001 0.40000001 0.40000001 0.40000001 0.40000001 0.40000001 0.40000001 0.40000001 0.40000001 0.40000001 0.40000001 0.40000001 0.40000001 0.40000001 0.40000001 0.40000001 0.40000001 0.40000001 0.40000001 0.40000001 0.40000001 0.40000001 0.40000001 0.40000001 0.40000001 0.40000001 0.40000001 0.40000001 0.40000001 0.40000001 0.40000001 0.40000001 0.40000001 0.40000001 0.40000001 0.40000001 0.40000001 0.40000001 0.40000001 0.40000001 0.40000001 0.40000001 0.40000001 0.40000001 0.40000001 0.40000001 0.40000001 0.40000001 0.40000001 0.40000001 0.40000001 0.40000001 0.40000001 0.40000001 0.40000001 0.40000001 0.40000001 0.40000001 0.40000001 0.40000001 0.40000001 0.40000001 0.40000001 0.40000001 0.40000001 0.40000001 0.40000001 0.40000001 0.40000001 0.40000001 0.40000001 0.40000001 0.40000001 0.40000001 0.40000001 0.40000001 0.40000001 0.40000001 0.40000001 0.40000001 0.40000001 0.40000001 0.40000001 0.40000001 0.40000001 0.40000001 0.40000001 0.40000001 0.40000001 0.40000001 0.40000001 0.40000001 0.40000001 0.40000001 0.40000001 0.40000001 0.40000001 0.40000001 0.40000001 0.40000001 0.40000001 0.40000001 0.40000001 0.40000001 0.40000001 0.40000001 0.40000001 0.40000001 0.40000001 0.40000001 0.40000001 0.40000001 0.40000001 0.40000001 0.40000001 0.40000001 0.40000001 0.40000001 0.40000001 0.40000001 0.40000001 0.40000001 0.40000001 0.40000001 0.40000001 0.40000001 0.40000001 0.40000001 0.40000001 0.40000001 0.40000001 0.40000001 0.40000001 0.40000001 0.40000001 0.40000001 0.40000001 0.40000001 0.40000001 0.40000001 0.40000001 0.40000001 0.40000001 0.40000001 0.40000001 0.40000001 0.40000001 0.40000001 0.40000001 0.40000001 0.40000001 0.40000001 0.40000001 0.40000001 0.40000001 0.40000001 0.40000001 0.40000001 0.40000001 0.40000001 0.40000001 0.40000001 0.40000001 0.40000001 0.40000001 0.40000001 0.40000001 0.40000001 0.40000001 0.40000001 0.40000001 0.40000001 0.40000001 0.40000001 0.40000001 0.40000001 0.40000001 0.40000001 0.40000001 0.40000001 0.40000001 0.40000001 0.40000001 0.40000001 0.40000001 0.40000001 0.40000001 0.40000001 0.40000001 0.40000001 0.40000001 0.40000001 0.40000001 0.40000001 0.40000001 0.40000001 0.40000001 0.40000001 0.40000001 0.40000001 0.40000001 0.40000001 0.40000001 0.40000001 0.40000001 0.40000001 0.40000001 0.40000001 0.40000001 0.40000001 0.40000001 0.40000001 0.40000001 0.40000001 0.40000001 0.40000001 0.40000001 0.40000001 0.40000001 0.40000001 0.40000001 0.40000001 0.40000001 0.40000001 0.40000001 0.40000001 0.40000001 0.40000001 0.40000001 0.40000001 0.40000001 0.40000001 0.40000001 0.40000001 0.40000001 0.40000001 0.40000001 0.40000001 0.40000001 0.40000001 0.40000001 0.40000001 0.40000001 0.40000001 0.40000001 0.40000001 0.40000001 0.40000001 0.40000001 0.40000001 0.40000001 0.40000001 0.40000001 0.40000001 0.40000001 0.40000001 0.40000001 0.40000001 0.40000001 0.40000001 0.40000001 0.40000001 0.40000001 0.40000001 0.40000001 0.40000001 0.40000001 0.40000001 0.40000001 0.40000001 0.40000001 0.40000001 0.40000001 0.40000001 0.40000001 0.40000001 0.40000001 0.40000001 0.40000001 0.40000001 0.40000001 0.40000001 0.40000001 0.40000001 0.40000001 0.40000001 0.40000001 0.40000001 0.40000001 0.40000001 0.40000001 0.40000001 0.40000001 0.40000001 0.40000001 0.40000001 0.40000001 0.40000001 0.40000001 0.40000001 0.40000001 0.40000001 0.40000001 0.40000001 0.40000001 0.40000001 0.40000001 0.40000001 0.40000001 0.40000001 0.40000001 0.40000001 0.40000001 0.40000001 0.40000001 0.40000001 0.40000001 0.40000001 0.40000001 0.40000001 0.40000001 0.40000001 0.40000001 0.40000001 0.40000001 0.40000001 0.40000001 0.40000001 0.40000001 0.40000001 0.40000001 0.40000001 0.40000001 0.40000001 0.40000001 0.40000001 0.40000001 0.40000001 0.40000001 0.40000001 0.40000001 0.40000001 0.40000001 0.40000001 0.40000001 0.40000001 0.40000001 0.40000001 0.40000001 0.40000001 0.40000001 0.40000001 0.40000001 0.40000001 0.40000001 0.40000001 0.40000001 0.40000001 0.40000001 0.40000001 0.40000001 0.40000001 0.40000001 0.40000001 0.40000001 0.40000001 0.40000001 0.40000001 0.40000001 0.40000001 0.40000001 0.40000001 0.40000001 0.40000001 0.40000001 0.40000001 0.40000001 0.40000001 0.40000001 0.40000001 0.40000001 0.40000001 0.40000001 0.40000001 0.40000001 0.40000001 0.40000001 0.40000001 0.40000078 0.40000093 0.4000009 0.40000081 0.40000087 0.40000096 0.40000251 0.40000245 0.40000269 0.40000239 0.40000254 0.40000248 0.400006 0.40000612 0.40000609 0.40000612 0.40000606 0.40000615 0.40001655 0.40001658 0.4000164 0.40001652 0.40001649 0.40001649 0.40004447 0.40004444 0.40004447 0.40004444 0.40004453 0.40004453 0.40011954 0.40011957 0.40011957 0.4001196 0.40011978 0.40011972 0.40031865 0.40031886 0.40031892 0.40031895 0.40031907 0.40031922 0.40082443 0.40082479 0.40082514 0.4008255 0.40082586 0.40082592 0.40198606 0.40198699 0.40198785 0.40198857 0.40198928 0.40198967 0.40413141 0.40413329 0.40413442 0.40413535 0.40413639 0.4041371 0.40686467 0.40686643 0.40686697 0.40686709 0.4068675 0.4068681 0.40907967 0.40908006 0.4090797 0.40907851 0.40907753 0.40907726 0.41030815 0.41030717 0.41030616 0.41030437 0.41030252 0.41030154 0.41084942 0.41084921 0.41084865 0.41084665 0.41084492 0.41084394 0.41106221 0.41106254 0.4110626 0.41106156 0.41106045 0.41105971 0.41114077 0.41114151 0.41114181 0.41114148 0.4111411 0.41114056 0.41116795 0.41116893 0.41116923 0.4111692 0.41116911 0.4111689 0.41117534 0.41117644 0.41117659 0.41117665 0.41117677 0.41117659 0.41115969 0.41116083 0.41116112 0.41116112 0.41116089 0.41116059 0.41097811 0.41097918 0.41097921 0.41097909 0.41097862 0.41097826 0.4106212 0.41062179 0.4106217 0.41062132 0.41062069 0.41062036 0.41010892 0.41010901 0.41010869 0.41010809 0.4101072 0.41010675 0.40946916 0.40946883 0.4094682 0.40946725 0.40946627 0.40946576 0.40873539 0.40873471 0.40873364 0.40873253 0.40873143 0.40873075 0.40794322 0.40794212 0.40794095 0.40793958 0.40793899 0.40793851 0.40712765 0.40712637 0.40712506 0.40712398 0.40712354 0.40712327 0.40631995 0.40631852 0.40631738 0.40631676 0.40631649 0.40631616 0.40554637 0.40554526 0.40554425 0.40554383 0.40554377 0.40554368 0.40482742 0.40482679 0.40482649 0.40482631 0.40482616 0.40482634 0.40417781 0.4041777 0.40417781 0.40417799 0.40417802 0.40417814 0.40360653 0.40360662 0.4036068 0.40360716 0.4036074 0.40360776 0.40311643 0.40311661 0.40311667 0.40311715 0.40311739 0.4031179 0.40270573 0.40270564 0.40270615 0.40270656 0.40270686 0.40236896 0.40236908 0.40236935 0.40236953 0.40236992 0.40209916 0.40209916 0.40209946 0.40209976 0.40188754 0.40188757 0.40188766 0.40188786 0.40172496 0.40172505 0.40172514 0.40160286 0.40160277 0.40151253 0.40151283 0.40000001 0.40000001 0.40000001 0.40000001 0.40000001 0.40000001 0.40000001 0.40000001 0.40000001 0.40000001 0.40000001 0.40000001 0.40000001 0.40000001 0.40000001 0.40000001 0.40000001 0.40000001 0.40000001 0.40000001 0.40000001 0.40000001 0.40000001 0.40000001 0.40000001 0.40000001 0.40000001 0.40000001 0.40000001 0.40000001 0.40000001 0.40000001 0.40000001 0.40000001 0.40000001 0.40000001 0.40000001 0.40000001 0.40000001 0.40000001 0.40000001 0.40000001 0.40000001 0.40000001 0.40000001 0.40000001 0.40000001 0.40000001 0.40000001 0.40000001 0.40000001 0.40000001 0.40000001 0.40000001 0.40000001 0.40000001 0.40000001 0.40000001 0.40000001 0.40000001 0.40000001 0.40000001 0.40000001 0.40000001 0.40000001 0.40000001 0.40000001 0.40000001 0.40000001 0.40000001 0.40000001 0.40000001 0.40000001 0.40000001 0.40000001 0.40000001 0.40000001 0.40000001 0.40000001 0.40000001 0.40000001 0.40000001 0.40000001 0.40000001 0.40000001 0.40000001 0.40000001 0.40000001 0.40000001 0.40000001 0.40000001 0.40000001 0.40000001 0.40000001 0.40000001 0.40000001 0.40000001 0.40000001 0.40000001 0.40000001 0.40000001 0.40000001 0.40000001 0.40000001 0.40000001 0.40000001 0.40000001 0.40000001 0.40000001 0.40000001 0.40000001 0.40000001 0.40000001 0.40000001 0.40000001 0.40000001 0.40000001 0.40000001 0.40000001 0.40000001 0.40000001 0.40000001 0.40000001 0.40000001 0.40000001 0.40000001 0.40000001 0.40000001 0.40000001 0.40000001 0.40000001 0.40000001 0.40000001 0.40000001 0.40000001 0.40000001 0.40000001 0.40000001 0.40000001 0.40000001 0.40000001 0.40000001 0.40000001 0.40000001 0.40000001 0.40000001 0.40000001 0.40000001 0.40000001 0.40000001 0.40000001 0.40000001 0.40000001 0.40000001 0.40000001 0.40000001 0.40000001 0.40000001 0.40000001 0.40000001 0.40000001 0.40000001 0.40000001 0.40000001 0.40000001 0.40000001 0.40000001 0.40000001 0.40000001 0.40000001 0.40000001 0.40000001 0.40000001 0.40000001 0.40000001 0.40000001 0.40000001 0.40000001 0.40000001 0.40000001 0.40000001 0.40000001 0.40000001 0.40000001 0.40000001 0.40000001 0.40000001 0.40000001 0.40000001 0.40000001 0.40000001 0.40000001 0.40000001 0.40000001 0.40000001 0.40000001 0.40000001 0.40000001 0.40000001 0.40000001 0.40000001 0.40000001 0.40000001 0.40000001 0.40000001 0.40000001 0.40000001 0.4000009 0.40000087 0.40000096 0.4000009 0.40000087 0.40000081 0.40000081 0.40000084 0.40000084 0.40000257 0.40000266 0.40000263 0.40000257 0.40000269 0.40000242 0.40000272 0.40000254 0.40000248 0.40000612 0.40000594 0.40000603 0.40000591 0.40000594 0.40000603 0.40000594 0.40000609 0.40000612 0.40001652 0.40001661 0.40001664 0.40001652 0.40001658 0.40001643 0.40001664 0.40001658 0.40001658 0.40004438 0.40004462 0.40004423 0.40004444 0.40004453 0.40004459 0.40004453 0.40004462 0.4000445 0.40011963 0.40011987 0.40011978 0.40011978 0.40011987 0.40011978 0.40011999 0.40012011 0.40011993 0.40031934 0.40031919 0.40031943 0.40031943 0.40031952 0.40031961 0.40031967 0.40031978 0.40031967 0.40082607 0.40082639 0.40082654 0.40082672 0.40082684 0.40082729 0.40082741 0.40082735 0.4008275 0.40199009 0.40199083 0.4019914 0.40199155 0.40199214 0.40199247 0.40199277 0.40199283 0.40199304 0.40413803 0.40413868 0.40413946 0.40414008 0.40414086 0.4041414 0.40414178 0.40414208 0.40414229 0.40686852 0.40686929 0.40686986 0.40687022 0.40687087 0.40687138 0.40687186 0.40687218 0.40687221 0.40907708 0.40907699 0.40907693 0.40907696 0.40907705 0.40907711 0.40907735 0.40907735 0.40907738 0.41030085 0.41030008 0.41029951 0.41029915 0.41029859 0.41029862 0.41029835 0.41029826 0.41029802 0.41084304 0.41084203 0.41084141 0.41084072 0.41084003 0.41083995 0.41083935 0.41083899 0.41083884 0.41105875 0.41105813 0.41105717 0.41105652 0.41105589 0.41105539 0.41105485 0.41105455 0.41105452 0.41113985 0.41113916 0.41113859 0.41113788 0.41113719 0.41113672 0.41113618 0.41113597 0.41113576 0.41116831 0.41116783 0.41116726 0.41116652 0.4111661 0.41116548 0.41116503 0.41116488 0.41116458 0.41117612 0.41117555 0.41117498 0.41117427 0.4111737 0.41117337 0.41117299 0.41117272 0.41117239 0.41116032 0.41115955 0.41115895 0.41115841 0.41115785 0.41115749 0.41115716 0.4111568 0.41115668 0.41097784 0.41097718 0.41097653 0.41097605 0.41097549 0.41097525 0.41097465 0.41097447 0.41097438 0.41061983 0.41061908 0.41061839 0.41061795 0.4106175 0.41061717 0.41061687 0.41061655 0.41061661 0.41010615 0.41010532 0.41010505 0.41010451 0.4101041 0.41010368 0.41010341 0.41010338 0.4101032 0.40946513 0.40946448 0.40946415 0.40946379 0.40946332 0.40946299 0.40946287 0.40946278 0.40946284 0.40873033 0.40873006 0.40872967 0.40872949 0.40872929 0.4087292 0.40872887 0.40872893 0.40872884 0.40793815 0.40793803 0.40793791 0.40793782 0.40793785 0.40793774 0.40793768 0.40793774 0.40793777 0.40712318 0.40712297 0.40712297 0.40712306 0.40712309 0.40712315 0.40712318 0.4071233 0.40712312 0.40631622 0.40631625 0.40631637 0.40631652 0.40631661 0.40631679 0.40631673 0.40631679 0.40631688 0.40554377 0.40554386 0.4055441 0.4055441 0.40554446 0.40554449 0.40554458 0.40554461 0.40554479 0.40482643 0.40482658 0.4048267 0.40482697 0.40482715 0.40482736 0.40482736 0.40482745 0.40482754 0.4041785 0.40417859 0.40417862 0.40417877 0.40417901 0.40417913 0.40417925 0.40417933 0.40417928 0.4036079 0.40360805 0.40360826 0.40360841 0.40360841 0.40360859 0.40360868 0.40360874 0.40360871 0.40311801 0.40311837 0.40311849 0.40311852 0.40311846 0.4031187 0.40311861 0.40311888 0.40311879 0.40270701 0.40270743 0.40270752 0.40270746 0.40270746 0.4027077 0.40270761 0.40270776 0.40270787 0.40237021 0.4023706 0.40237054 0.40237081 0.40237069 0.40237084 0.4023709 0.40237078 0.40237072 0.40210018 0.40210021 0.40210044 0.40210053 0.40210044 0.40210056 0.4021005 0.40210053 0.40210044 0.40188807 0.4018884 0.40188864 0.40188855 0.40188849 0.40188855 0.40188846 0.40188846 0.40188846 0.40172532 0.40172526 0.40172562 0.40172568 0.40172565 0.40172568 0.40172556 0.40172571 0.40172562 0.40160272 0.40160283 0.40160289 0.40160295 0.40160304 0.40160307 0.4016031 0.40160298 0.40160301 0.40151262 0.40151262 0.40151253 0.40151262 0.40151274 0.40151268 0.40151268 0.40151277 0.40151277 0.40144765 0.40144747 0.40144762 0.40144756 0.40144753 0.40144745 0.40144745 0.40144742 0.40144756 0.40140152 0.40140149 0.40140149 0.40140149 0.40140134 0.40140149 0.40140155 0.40140143 0.40136939 0.40136942 0.40136939 0.40136948 0.40136951 0.40136951 0.4013474 0.40134749 0.40134767 0.40134761 0.40000001 0.40000001 0.40000001 0.40000001 0.40000001 0.40000001 0.40000001 0.40000001 0.40000001 0.40000001 0.40000001 0.40000001 0.40000001 0.40000001 0.40000001 0.40000001 0.40000001 0.40000001 0.40000001 0.40000001 0.40000001 0.40000001 0.40000001 0.40000001 0.40000001 0.40000001 0.40000001 0.40000001 0.40000001 0.40000001 0.40000001 0.40000001 0.40000001 0.40000001 0.40000001 0.40000001 0.40000001 0.40000001 0.40000001 0.40000001 0.40000001 0.40000001 0.40000001 0.40000001 0.40000001 0.40000001 0.40000001 0.40000001 0.40000001 0.40000001 0.40000001 0.40000001 0.40000001 0.40000001 0.40000001 0.40000001 0.40000001 0.40000001 0.40000001 0.40000001 0.40000001 0.40000001 0.40000001 0.40000001 0.40000001 0.40000001 0.40000001 0.40000001 0.40000001 0.40000001 0.40000001 0.40000001 0.40000001 0.40000001 0.40000001 0.40000001 0.40000001 0.40000001 0.40000001 0.40000001 0.40000001 0.40000001 0.40000001 0.40000001 0.40000001 0.40000001 0.40000001 0.40000001 0.40000001 0.40000001 0.40000001 0.40000001 0.40000001 0.40000001 0.40000001 0.40000001 0.40000001 0.40000001 0.40000001 0.40000001 0.40000001 0.40000001 0.40000001 0.40000001 0.40000001 0.40000001 0.40000001 0.40000001 0.40000001 0.40000001 0.40000001 0.40000001 0.40000001 0.40000001 0.40000001 0.40000001 0.40000001 0.40000001 0.40000001 0.40000001 0.40000001 0.40000001 0.40000001 0.40000001 0.40000001 0.40000001 0.40000001 0.40000001 0.40000001 0.40000001 0.40000001 0.40000001 0.40000001 0.40000001 0.40000001 0.40000001 0.40000001 0.40000001 0.40000001 0.40000001 0.40000001 0.40000001 0.40000001 0.40000001 0.40000001 0.40000001 0.40000001 0.40000001 0.40000001 0.40000001 0.40000001 0.40000001 0.40000001 0.40000001 0.40000001 0.40000001 0.40000001 0.40000001 0.40000001 0.40000001 0.40000001 0.40000001 0.40000001 0.40000001 0.40000001 0.40000001 0.40000001 0.40000001 0.40000001 0.40000001 0.40000001 0.40000001 0.40000001 0.40000001 0.40000001 0.40000001 0.40000001 0.40000001 0.40000001 0.40000001 0.40000001 0.40000001 0.40000001 0.40000001 0.40000093 0.40000084 0.40000084 0.40000081 0.40000081 0.40000087 0.4000009 0.40000096 0.40000263 0.40000248 0.40000254 0.40000272 0.40000242 0.40000269 0.40000257 0.40000263 0.40000612 0.40000612 0.40000609 0.40000594 0.40000603 0.40000594 0.40000591 0.40000603 0.40001655 0.40001658 0.40001658 0.40001664 0.40001643 0.40001658 0.40001652 0.40001664 0.40004453 0.4000445 0.40004462 0.40004453 0.40004459 0.40004453 0.40004444 0.40004423 0.40011987 0.40011993 0.40012011 0.40011999 0.40011978 0.40011987 0.40011978 0.40011978 0.40031976 0.40031967 0.40031978 0.40031967 0.40031961 0.40031952 0.40031943 0.40031943 0.40082756 0.4008275 0.40082735 0.40082741 0.40082729 0.40082684 0.40082672 0.40082654 0.40199304 0.40199304 0.40199283 0.40199277 0.40199247 0.40199214 0.40199155 0.4019914 0.4041425 0.40414229 0.40414208 0.40414178 0.4041414 0.40414086 0.40414008 0.40413946 0.40687227 0.40687221 0.40687218 0.40687186 0.40687138 0.40687087 0.40687022 0.40686986 0.40907758 0.40907738 0.40907735 0.40907735 0.40907711 0.40907705 0.40907696 0.40907693 0.41029814 0.41029802 0.41029826 0.41029835 0.41029862 0.41029859 0.41029915 0.41029951 0.41083905 0.41083884 0.41083899 0.41083935 0.41083989 0.41084003 0.41084072 0.41084141 0.41105428 0.41105452 0.41105455 0.41105485 0.41105539 0.41105589 0.41105652 0.41105717 0.41113546 0.41113576 0.41113597 0.41113618 0.41113672 0.41113719 0.41113788 0.41113859 0.41116458 0.41116458 0.41116488 0.41116503 0.41116548 0.4111661 0.41116655 0.41116726 0.41117245 0.41117239 0.41117272 0.41117299 0.41117337 0.4111737 0.41117427 0.41117498 0.41115662 0.41115668 0.4111568 0.41115716 0.41115749 0.41115785 0.41115841 0.41115895 0.41097423 0.41097438 0.41097447 0.41097465 0.41097525 0.41097549 0.41097605 0.41097653 0.41061655 0.41061661 0.41061655 0.41061687 0.41061717 0.4106175 0.41061795 0.41061839 0.41010326 0.41010317 0.41010335 0.41010341 0.41010368 0.4101041 0.41010451 0.41010505 0.40946293 0.40946284 0.40946278 0.40946287 0.40946299 0.40946332 0.40946379 0.40946415 0.40872887 0.40872884 0.40872893 0.40872887 0.4087292 0.40872929 0.40872949 0.40872967 0.40793774 0.40793777 0.40793774 0.40793768 0.40793774 0.40793785 0.40793782 0.40793791 0.40712327 0.40712312 0.4071233 0.40712318 0.40712315 0.40712309 0.40712306 0.40712297 0.40631685 0.40631688 0.40631679 0.40631673 0.40631679 0.40631661 0.40631652 0.40631637 0.40554476 0.40554479 0.40554461 0.40554458 0.40554449 0.40554446 0.4055441 0.4055441 0.40482739 0.40482754 0.40482745 0.40482736 0.40482736 0.40482715 0.40482697 0.4048267 0.4041793 0.40417928 0.40417933 0.40417925 0.40417913 0.40417901 0.40417877 0.40417862 0.40360868 0.40360871 0.40360874 0.40360868 0.40360859 0.40360841 0.40360841 0.40360826 0.40311891 0.40311879 0.40311888 0.40311861 0.4031187 0.40311846 0.40311852 0.40311849 0.40270755 0.40270787 0.40270776 0.40270761 0.4027077 0.40270746 0.40270746 0.40270752 0.40237078 0.40237072 0.40237078 0.4023709 0.40237084 0.40237069 0.40237081 0.40237054 0.40210056 0.40210044 0.40210053 0.4021005 0.40210056 0.40210044 0.40210053 0.40210044 0.40188852 0.40188846 0.40188846 0.40188846 0.40188855 0.40188849 0.40188855 0.40188864 0.40172553 0.40172562 0.40172571 0.40172556 0.40172568 0.40172565 0.40172568 0.40172562 0.40160295 0.40160301 0.40160298 0.4016031 0.40160307 0.40160304 0.40160295 0.40160289 0.40151268 0.40151277 0.40151277 0.40151268 0.40151268 0.40151274 0.40151262 0.40151253 0.40144759 0.40144756 0.40144742 0.40144745 0.40144745 0.40144753 0.40144756 0.40144762 0.4014014 0.40140143 0.40140155 0.40140149 0.40140134 0.40140149 0.40140149 0.40140149 0.40136954 0.40136951 0.40136951 0.40136948 0.40136939 0.40136942 0.40136939 0.40134764 0.40134761 0.40134767 0.40134749 0.4013474 0.40000001 0.40000001 0.40000001 0.40000001 0.40000001 0.40000001 0.40000001 0.40000001 0.40000001 0.40000001 0.40000001 0.40000001 0.40000001 0.40000001 0.40000001 0.40000001 0.40000001 0.40000001 0.40000001 0.40000001 0.40000001 0.40000001 0.40000001 0.40000001 0.40000001 0.40000001 0.40000001 0.40000001 0.40000001 0.40000001 0.40000001 0.40000001 0.40000001 0.40000001 0.40000001 0.40000001 0.40000001 0.40000001 0.40000001 0.40000001 0.40000001 0.40000001 0.40000001 0.40000001 0.40000001 0.40000001 0.40000001 0.40000001 0.40000001 0.40000001 0.40000001 0.40000001 0.40000001 0.40000001 0.40000001 0.40000001 0.40000001 0.40000001 0.40000001 0.40000001 0.40000001 0.40000001 0.40000001 0.40000001 0.40000001 0.40000001 0.40000001 0.40000001 0.40000001 0.40000001 0.40000001 0.40000001 0.40000001 0.40000001 0.40000001 0.40000001 0.40000001 0.40000001 0.40000001 0.40000001 0.40000001 0.40000001 0.40000001 0.40000001 0.40000001 0.40000001 0.40000001 0.40000001 0.40000001 0.40000001 0.40000001 0.40000001 0.40000001 0.40000001 0.40000001 0.40000001 0.40000001 0.40000001 0.40000001 0.40000001 0.40000001 0.40000001 0.40000001 0.40000001 0.40000001 0.40000001 0.40000001 0.40000001 0.40000001 0.40000001 0.40000001 0.40000001 0.40000001 0.40000001 0.40000001 0.40000001 0.40000001 0.40000001 0.40000001 0.40000001 0.40000001 0.40000001 0.40000001 0.40000001 0.40000001 0.40000001 0.40000001 0.40000001 0.40000001 0.40000001 0.40000001 0.40000001 0.40000001 0.40000001 0.40000001 0.40000001 0.40000001 0.40000001 0.40000001 0.40000001 0.40000001 0.40000001 0.40000001 0.40000001 0.40000001 0.40000001 0.40000001 0.40000001 0.40000001 0.40000001 0.40000001 0.40000001 0.40000001 0.40000001 0.40000001 0.40000001 0.40000001 0.40000001 0.40000001 0.40000001 0.40000001 0.40000001 0.40000001 0.40000001 0.40000001 0.40000001 0.40000001 0.40000001 0.40000001 0.40000001 0.40000001 0.40000001 0.40000001 0.40000001 0.40000001 0.40000001 0.40000001 0.40000001 0.40000001 0.40000001 0.40000001 0.40000001 0.40000001 0.40000087 0.4000009 0.40000096 0.40000087 0.40000081 0.4000009 0.40000093 0.40000078 0.40000266 0.40000257 0.40000248 0.40000254 0.40000239 0.40000269 0.40000245 0.40000251 0.40000594 0.40000612 0.40000615 0.40000606 0.40000612 0.40000609 0.40000606 0.400006 0.40001661 0.40001652 0.40001649 0.40001649 0.40001652 0.4000164 0.40001658 0.40001655 0.40004462 0.40004438 0.40004453 0.40004453 0.40004444 0.40004447 0.40004444 0.40004447 0.40011987 0.40011963 0.40011972 0.40011978 0.4001196 0.40011957 0.40011957 0.40011954 0.40031919 0.40031934 0.40031922 0.40031907 0.40031895 0.40031892 0.40031886 0.40031865 0.40082639 0.40082607 0.40082592 0.40082586 0.4008255 0.40082514 0.40082479 0.40082443 0.40199083 0.40199009 0.40198967 0.40198928 0.40198857 0.40198785 0.40198699 0.40198606 0.40413868 0.40413803 0.4041371 0.40413639 0.40413535 0.40413442 0.40413329 0.40413141 0.40686929 0.40686852 0.4068681 0.4068675 0.40686709 0.40686697 0.40686643 0.40686467 0.40907699 0.40907708 0.40907726 0.40907753 0.40907851 0.4090797 0.40908006 0.40907967 0.41030008 0.41030085 0.41030157 0.41030252 0.41030437 0.41030616 0.41030717 0.41030815 0.41084203 0.41084304 0.41084394 0.41084492 0.41084665 0.41084865 0.41084921 0.41084942 0.41105813 0.41105875 0.41105971 0.41106045 0.41106156 0.4110626 0.41106254 0.41106221 0.41113916 0.41113985 0.41114056 0.4111411 0.41114148 0.41114181 0.41114151 0.41114077 0.4111678 0.41116843 0.4111689 0.41116911 0.4111692 0.41116923 0.41116893 0.41116789 0.41117555 0.41117612 0.41117659 0.41117677 0.41117665 0.41117659 0.41117644 0.41117534 0.41115955 0.41116032 0.41116059 0.41116089 0.41116112 0.41116112 0.41116083 0.41115969 0.41097718 0.41097784 0.41097826 0.41097862 0.41097909 0.41097921 0.41097918 0.41097811 0.41061908 0.41061983 0.41062039 0.41062069 0.41062132 0.4106217 0.41062179 0.4106212 0.41010529 0.41010615 0.41010675 0.4101072 0.41010809 0.41010869 0.41010901 0.41010892 0.40946448 0.40946513 0.40946576 0.40946627 0.40946725 0.4094682 0.40946883 0.40946916 0.40873006 0.40873033 0.40873075 0.40873143 0.40873253 0.40873364 0.40873471 0.40873539 0.40793803 0.40793815 0.40793851 0.40793893 0.40793958 0.40794095 0.40794212 0.40794322 0.40712297 0.40712318 0.40712327 0.40712354 0.40712398 0.40712506 0.40712637 0.40712765 0.40631625 0.40631622 0.40631616 0.40631649 0.40631676 0.40631738 0.40631852 0.40631995 0.40554386 0.40554377 0.40554368 0.40554377 0.40554383 0.40554425 0.40554526 0.40554637 0.40482658 0.40482643 0.40482634 0.40482616 0.40482631 0.40482649 0.40482679 0.40482742 0.40417859 0.4041785 0.40417814 0.40417802 0.40417799 0.40417781 0.4041777 0.40417781 0.40360805 0.4036079 0.40360776 0.4036074 0.40360716 0.4036068 0.40360662 0.40360653 0.40311837 0.40311801 0.4031179 0.40311739 0.40311715 0.40311667 0.40311661 0.40311643 0.40270743 0.40270701 0.40270686 0.40270656 0.40270615 0.40270564 0.40270573 0.4023706 0.40237021 0.40236992 0.40236953 0.40236935 0.40236908 0.40236896 0.40210021 0.40210018 0.40209976 0.40209946 0.40209916 0.40209916 0.4018884 0.40188807 0.40188786 0.40188766 0.40188757 0.40188754 0.40172526 0.40172532 0.40172514 0.40172505 0.40172496 0.40160283 0.40160272 0.40160277 0.40160286 0.40151262 0.40151262 0.40151283 0.40151253 0.40144747 0.40144765 0.40140152 
Press 1 2975 float
0.0 0.0 0.0 0.0 0.0 0.0 0.0 0.0 0.0 0.0 0.0 0.0 0.0 0.0 0.0 0.0 0.0 0.0 0.19752525 0.69133836 0.19752525 0.98762625 2.4690657000000003 0.88886362 2.8641162000000002 6.0245199000000005 2.2715403999999997 5.8269949 11.456465 4.0492678 9.9750252 18.468611 6.4195704000000005 14.518106 26.468384000000004 8.5923481 19.258710999999998 34.171867 10.666364 23.406742 41.282776 12.444091 27.258484000000003 47.603584000000005 14.123054999999999 31.208990000000004 54.714493000000004 16.592121 36.443409 63.998180000000005 20.246338 44.44318 78.121239 26.369621000000002 57.578609 101.03416 37.332271999999996 78.812576 135.99614 55.800883999999996 110.12031999999999 183.89601000000002 152.68701000000001 242.75852999999998 0.0 0.0 0.0 0.0 0.0 0.0 0.0 0.0 0.0 0.0 0.0 0.0 0.0 0.0 0.0 0.0 0.0 0.0 0.0 0.0 0.0 0.0 0.0 0.0 0.0 0.0 0.0 0.0 0.0 0.0 0.0 0.0 0.0 0.0 0.09876262400000001 0.29628786 0.3950505 0.49381313 0.59257573 0.69133836 0.29628786 0.69133836 1.2839141 1.8764898999999997 2.4690657000000003 3.0616415 3.4566917 3.7529797999999994 1.580202 2.8641162000000002 4.543080799999999 6.518333 8.2960606 9.9750252 11.160176 12.147802 4.7406058 7.90101 11.752752000000001 15.900782999999999 20.147575 23.70303 26.468384000000004 28.739922999999997 10.567601 16.493358999999998 23.999317 31.999090000000002 39.603813 46.319672 51.751614000000004 55.702121999999996 19.159948 29.134974 41.381538 54.31944300000001 66.664772 77.03484300000001 85.429672 92.046768 30.023838 45.035755 62.714268000000004 81.182877 98.268814 112.58939 124.14461999999999 133.13201999999998 41.974113 61.726639 84.54081 53.430580000000006 77.429893 63.800655000000006 91.454193 73.38063000000001 104.68839 84.046989 119.50278 98.466339 139.94664 120.58916 169.77295 154.76103 214.8087 205.62378 279.59698 273.86874 364.63162 354.55782999999997 465.17197000000004 0.0 0.0 0.0 0.0 0.0 0.0 0.0 0.0 0.0 0.0 0.0 0.0 0.0 0.0 0.0 0.0 0.0 0.0 0.0 0.0 0.0 0.0 0.0 0.0 0.0 0.0 0.0 0.0 0.0 0.0 0.0 0.0 0.0 0.0 0.0 0.0 0.69133836 0.69133836 0.69133836 0.79010099 0.79010099 0.79010099 0.79010099 0.79010099 0.79010099 4.0492678 4.0492678 4.1480303 4.3455553 4.3455553 4.3455553 4.3455553 4.3455553 4.3455553 12.740378 13.234192000000002 13.530479000000001 13.629242000000001 13.925529999999998 14.024293 14.024293 14.024293 14.024293 30.320126000000002 31.60404 32.29538 32.789192 33.283004999999996 33.381766999999996 33.48053 33.48053 33.48053 58.862522 61.035301000000004 62.516743000000005 63.800655000000006 64.195709 64.491997 64.78828399999999 64.78828399999999 64.78828399999999 96.886131 100.54035 103.00941 104.68839 105.87353999999999 106.36735 106.66363999999999 106.7624 106.86116000000001 139.94664 144.78601 148.14394 150.41548 151.99568 152.78578000000002 153.18083000000001 153.37836000000001 153.47711 0.0 0.0 0.0 0.0 0.0 0.0 0.0 0.0 0.0 0.0 0.0 0.0 0.0 0.0 0.0 0.0 0.0 0.0 0.0 0.0 0.0 0.0 0.0 0.0 0.0 0.0 0.0 0.0 0.0 0.0 0.0 0.0 0.79010099 0.79010099 0.79010099 0.79010099 0.79010099 0.79010099 0.79010099 0.69133836 4.3455553 4.3455553 4.3455553 4.3455553 4.3455553 4.3455553 4.3455553 4.1480303 14.024293 14.024293 14.024293 14.024293 14.024293 13.925529999999998 13.629242000000001 13.530479000000001 33.48053 33.48053 33.48053 33.48053 33.381766999999996 33.283004999999996 32.789192 32.29538 64.78828399999999 64.78828399999999 64.78828399999999 64.78828399999999 64.491997 64.195709 63.800655000000006 62.516743000000005 106.86116000000001 106.86116000000001 106.7624 106.66363999999999 106.36735 105.87353999999999 104.68839 103.00941 153.47711 153.47711 153.37836000000001 153.18083000000001 152.78578000000002 151.99568 150.41548 148.14394 0.0 0.0 0.0 0.0 0.0 0.0 0.0 0.0 0.0 0.0 0.0 0.0 0.0 0.0 0.0 0.0 0.0 0.0 0.0 0.0 0.0 0.0 0.0 0.0 0.0 0.0 0.0 0.0 0.0 0.0 0.0 0.0 0.0 0.0 0.0 0.0 0.69133836 0.69133836 0.69133836 0.59257573 0.49381313 0.3950505 0.29628786 0.09876262400000001 0.0 4.0492678 4.0492678 3.7529797999999994 3.4566917 3.0616415 2.4690657000000003 1.8764898999999997 1.2839141 0.69133836 13.234192000000002 12.740378 12.147802 11.160176 9.9750252 8.2960606 6.518333 4.543080799999999 2.8641162000000002 31.60404 30.320126000000002 28.739922999999997 26.468384000000004 23.70303 20.147575 15.900782999999999 11.752752000000001 7.90101 61.035301000000004 58.862522 55.702121999999996 51.751614000000004 46.319672 39.603813 31.999090000000002 23.999317 16.493358999999998 100.54035 96.886131 92.046768 85.429672 77.03484300000001 66.664772 54.31944300000001 41.381538 29.134974 144.78601 139.94664 133.13201999999998 124.14461999999999 112.58939 98.268814 81.182877 62.714268000000004 45.035755 84.54081 61.726639 77.429893 91.454193 104.68839 119.50278 139.94664 169.77295 214.8087 279.59698 364.63162 465.17197000000004 0.0 0.0 0.0 0.0 0.0 0.0 0.0 0.0 0.0 0.0 0.0 0.0 0.0 0.0 0.0 0.0 0.0 0.0 0.0 0.29628786 0.0 0.0 0.0 1.580202 0.69133836 0.19752525 0.0 4.7406058 2.4690657000000003 0.98762625 0.19752525 10.567601 6.0245199000000005 2.8641162000000002 0.88886362 19.159948 11.456465 5.8269949 2.2715403999999997 30.023838 18.468611 9.9750252 4.0492678 41.974113 26.468384000000004 14.518106 6.4195704000000005 53.430580000000006 34.171867 19.258710999999998 8.5923481 63.800655000000006 41.282776 23.406742 10.666364 73.38063000000001 47.603584000000005 27.258484000000003 12.444091 84.046989 54.714493000000004 31.208990000000004 14.123054999999999 98.466339 63.998180000000005 36.443409 16.592121 120.58916 78.121239 44.44318 20.246338 154.76103 101.03416 57.578609 26.369621000000002 205.62378 135.99614 78.812576 37.332271999999996 273.86874 183.89601000000002 110.12031999999999 55.800883999999996 354.55782999999997 242.75852999999998 152.68701000000001 0.0 0.0 0.0 0.0 0.0 0.0 0.0 0.0 0.0 0.0 0.0 0.0 0.0 0.0 0.0 0.0 0.0 0.0 0.0 0.0 0.0 0.0 0.0 0.0 0.0 0.0 0.0 0.0 0.0 0.0 0.0 0.0 0.0 0.0 0.0 0.0 0.0 0.0 0.0 0.0 0.0 0.0 0.0 0.0 0.0 0.0 0.0 0.0 0.0 0.0 0.0 0.0 0.0 0.0 0.0 0.0 0.0 0.0 0.0 0.0 0.0 0.0 0.0 0.0 0.0 0.0 0.0 0.0 0.0 0.0 0.0 0.0 0.0 0.0 0.0 0.0 0.0 0.0 0.0 0.0 0.0 0.0 0.0 0.0 0.0 0.0 0.0 0.0 0.0 0.0 0.0 0.0 0.0 0.0 0.0 0.0 0.0 0.0 0.0 0.0 0.0 0.0 0.0 0.0 0.0 0.0 0.0 0.0 0.0 0.0 0.0 0.0 0.0 0.0 0.0 0.0 0.0 0.0 0.0 0.0 0.0 0.0 0.0 0.0 0.0 0.0 0.0 0.0 0.0 0.0 0.0 0.0 0.0 0.0 0.0 0.0 0.0 0.0 0.0 0.0 0.0 0.0 0.0 0.0 0.0 0.0 0.0 0.0 0.0 0.0 0.0 0.0 0.0 0.0 0.0 0.0 0.0 0.0 0.0 0.0 0.0 0.0 0.0 0.0 0.0 0.0 0.0 0.0 0.0 0.0 0.0 0.0 0.0 0.0 0.0 0.0 0.0 0.0 0.0 0.0 0.0 0.0 0.0 0.0 0.0 0.0 0.0 0.0 0.0 0.0 0.0 0.0 0.0 0.0 0.0 0.0 0.0 0.0 0.0 0.0 0.0 0.0 0.0 0.0 0.0 0.0 0.0 0.0 0.0 0.0 0.0 0.0 0.0 0.0 0.0 0.0 0.0 0.0 0.0 0.0 0.0 0.0 0.0 0.0 0.0 0.0 0.0 0.0 0.0 0.0 0.0 0.0 0.0 0.0 0.0 0.0 0.0 0.0 0.0 0.0 0.0 0.0 0.0 0.0 0.0 0.0 0.0 0.0 0.0 0.0 0.0 0.0 0.0 0.0 0.0 0.0 0.0 0.0 0.0 0.0 0.0 0.0 0.0 0.0 0.0 0.0 0.0 0.0 0.0 0.0 0.0 0.0 0.0 0.0 0.0 0.0 0.0 0.0 0.0 0.0 0.0 0.0 0.0 0.0 0.0 0.0 0.0 0.0 0.0 0.0 0.0 0.0 0.0 0.0 0.0 0.0 0.0 0.0 0.0 0.0 0.0 0.0 0.0 0.0 0.0 0.0 0.0 0.0 0.0 0.0 0.0 0.0 0.0 0.0 0.0 0.0 0.0 0.0 0.0 0.0 0.0 0.0 0.0 0.0 0.0 0.0 0.0 0.0 0.0 0.0 0.0 0.0 0.0 0.0 0.0 0.0 0.0 0.0 0.0 0.0 0.0 0.0 0.0 0.0 0.0 0.0 0.0 0.0 0.0 0.0 0.0 0.0 0.0 0.0 0.0 0.0 0.0 0.0 0.0 0.0 0.0 0.0 0.0 0.0 0.0 0.0 0.0 0.0 0.0 0.0 0.0 0.0 0.0 0.0 0.0 0.0 0.0 0.0 0.0 0.0 0.0 0.0 0.0 0.0 0.0 0.0 0.0 0.0 0.0 0.0 0.0 0.0 0.0 0.0 0.0 0.0 0.0 0.0 0.0 0.0 0.0 0.0 0.0 0.0 0.0 0.0 0.0 0.0 0.0 0.0 0.0 0.0 0.0 0.0 0.0 0.0 0.0 0.0 0.0 0.0 0.0 0.0 0.0 0.0 0.0 0.0 0.0 0.0 0.0 0.0 0.0 0.0 0.0 0.0 0.0 0.0 0.0 0.0 0.0 0.0 0.0 0.0 0.0 0.0 0.0 0.0 0.0 0.0 0.0 0.0 0.0 0.0 0.0 0.0 0.0 0.0 0.0 0.0 0.0 0.0 0.0 0.0 0.0 0.0 0.0 0.0 0.0 0.0 0.0 0.0 0.0 0.0 107.5525 128.58893999999998 146.26744 160.19298 170.85934 103.10818 130.86047 154.76103 174.41478999999998 189.92053 201.67328 120.68793000000001 151.50186000000002 178.16777 199.59926000000002 215.8951 228.24042000000003 137.67508999999998 172.34077 201.57451 224.68497000000002 242.06717999999998 254.31375 157.42763 195.84628 228.14166 253.22737 271.49844 283.54749 184.88363999999999 227.45032 261.91848999999996 287.89304 306.65796 318.90451 229.03052000000002 273.67123 307.74432 332.33624 349.61969 361.37244 300.23837000000003 343.79269 370.75487999999996 389.12473 402.16141 411.05005 408.97601000000003 443.44417999999996 454.30807000000004 459.34497000000005 463.69052 468.03607 560.1815799999999 570.5517 555.1447099999999 540.33032 532.82434 530.84912 738.2506099999999 710.0045200000001 662.10461 625.85876 606.30377 598.50153 878.3947800000001 831.97632 760.3734099999999 708.32556 680.86951 669.3143299999999 895.2832 891.1351300000001 833.35901 782.2000099999999 754.15137 742.39862 880.1724199999999 904.96185 882.7403 848.37085 827.53198 819.43341 899.7274199999999 927.57849 930.24506 915.82574 905.9494599999999 902.4928 958.29352 981.50275 994.63818 994.53943 993.35425 993.9468400000001 1048.0687 1067.5249 1083.1294 1089.4503 1093.302 1096.6599 1161.1519 1178.139 1192.9534 1200.8544 1206.8789 1211.9158 1289.4443 1306.234 1320.3571 1328.2581 1335.3689 1341.2947 1432.2548 1450.6245 1464.4513 1471.9573 1479.6608 1486.0803 1593.1387 1612.8912 1626.4216 1633.1376 1640.9398 1647.1617 1775.5525 1795.4037 1807.9465 1813.1809 1819.9956 1825.3287 1981.5703 2000.2365 2010.9027 2013.4706 2017.8162 2020.2852 2213.4631 2229.2651 2237.1663 2235.3884 2234.302 2232.4255 2466.9846 2479.9224 2484.3667 2473.2065 2463.2314 2454.1455 2731.27 2741.9363 2740.6526 2713.9866 2690.0862 2670.7288 2989.5293 3000.4919 2989.4304 2936.8892 2894.8164 2864.0027 3219.3433 3231.491 3202.8499 3114.6555 3051.7441 3010.8567 3413.3032 3426.8335 3371.1318 3241.0627 3159.9792 3115.1416 3626.123 3639.9497 3554.7185 3388.9971 3301.1982 3263.8662 4082.5801 4098.6782 4001.1023 3832.3198 3757.5579 3744.1262 5308.5674 5336.9111 5301.1597 5182.2524 5140.3779 5165.0679 7831.3389 7900.3716 7982.3423 8009.3037 8036.4624 8103.8164 10944.813999999998 11054.534 11239.903 11456.777 11601.854 11713.451000000001 12836.347 12942.708 13146.246000000001 13451.108999999999 13700.372 13841.496000000001 12998.443000000001 13060.465 13178.575 13434.055 13700.793 13843.691 12495.146 12477.471000000001 12430.563 12530.899 12703.716 12790.716999999999 12254.43 12141.067 12020.301000000001 11931.032 11912.271 11864.378 12472.639 12272.188999999998 12120.915 11883.141000000001 11703.428 11537.833999999999 12960.851 12701.171999999999 12518.606000000002 12225.95 11960.742 11728.118999999999 13464.676000000001 13175.993 12969.157 12674.848999999998 12397.223999999998 12153.858 13803.309 13512.487 13294.913999999999 13022.752 12786.03 12576.553999999998 13720.784 13449.946000000002 13238.526000000002 12994.24 12813.421 12658.956 13316.688999999998 13083.798999999999 12898.078000000001 12692.823 12573.025 12481.551000000001 12756.583999999999 12578.21 12441.57 12294.082 12241.104 12216.344 12146.615 12035.161 11975.681 11911.177 11932.37 11976.351 11501.396999999999 11467.853000000001 11512.763 11549.601999999999 11651.1 11759.02 10769.92 10825.02 10988.948999999999 11136.739 11302.868 11469.808 9914.7471 10054.782 10336.104 10562.157 10786.871000000001 11002.845 8955.5654 9164.7676 9525.7793 9789.2744 10069.702 10314.675 7956.8877 8208.3711 8591.9834 8875.6201 9185.3711 9437.2686 6996.1108 7260.1064 7620.2212 7902.998 8209.1797 8450.9922 6098.0332 6361.9941 6687.8398 6953.9287 7230.2734 7447.9175 5135.9502 5504.0898 5845.1758 6086.5557 6318.4253 6499.7129 4293.4644 4758.4668 5137.5981 5343.1646 5511.6558 5649.0684 4124.8374 4564.7378 4731.3149 4826.895 4911.6558 3570.2195 4022.1643 4219.7456 4258.061 4291.3569 3427.8743 3720.772 3767.4199 3775.6934 2845.9307 3127.5107 3295.4253 3324.6763 2501.8894 2744.446 2860.8257 2154.9082 2301.3423 1924.6914 1770.8582 178.95786999999999 185.08116 189.03166000000002 191.99454 193.47598 194.56236 195.15493999999998 195.25371 195.25371 210.3644 216.88272 221.32703999999998 224.28992000000002 225.87012000000001 226.95651 227.25279 227.45032 227.45032 237.0303 243.3511 247.79542999999998 250.36325 251.94345 252.53602999999998 252.93107999999998 252.93107999999998 252.83232 263.10364 268.93063 272.58484 274.65884 275.94277999999997 276.23904 276.23904 275.94277999999997 275.84398999999996 291.94232 297.17672999999996 300.23837000000003 301.32477 301.81857 301.62106 301.22601000000003 300.92972000000003 300.63342 326.50925 330.8548 332.83005 333.12633999999997 332.83005 332.03995 331.05231000000003 330.36096000000003 329.86716 368.08829 371.14993 371.94003 371.24872 369.66848999999996 368.08829 366.70563 365.52047999999996 364.82912999999996 416.28445 417.86465 417.07455 415.19806 412.63025 410.25995 408.18591000000004 406.50696 405.6181 470.40637000000004 470.60391 468.33237 464.77692 461.32022 457.96227999999996 455.09817999999996 453.12292 451.93777 530.4540400000001 528.57758 524.72583 519.88647 515.24463 510.9978 507.73865 505.17080999999996 503.78815 595.34113 591.7856400000001 586.64996 580.72424 574.8972200000001 570.05786 566.20612 563.4408 561.6630200000001 664.3761599999999 660.0306400000001 654.0061 647.19147 640.7719099999999 635.2412099999999 631.0931400000001 627.9327400000001 626.05627 737.7567700000001 733.21375 727.09045 719.8807400000001 713.06616 707.43665 702.79486 699.4368900000001 697.56042 816.17426 812.22375 806.39679 799.58215 792.6687599999999 786.74298 782.10114 778.84198 776.86676 900.9126 898.44354 893.20911 886.6908 880.1724199999999 874.14795 869.9011199999999 866.5432099999999 864.56793 994.53943 992.76166 988.7124 982.88544 977.05841 971.7252199999999 967.18213 963.92297 962.14526 1098.3389 1097.7463 1094.5859 1089.3514 1083.9196 1079.0802 1074.8334 1071.7717 1070.1915 1214.7799 1214.8787 1212.1133 1207.7678 1202.5333 1198.089 1194.1385 1191.2744 1189.793 1344.8501 1345.2452 1342.7761 1338.3318 1333.3937 1329.2456 1325.7889 1323.2212 1321.641 1489.8333 1489.932 1487.1667 1482.5249 1477.7843 1473.5375 1470.0808 1467.7104 1466.0315 1650.421 1649.7296 1646.0754 1640.8409 1635.4091 1631.0635 1627.3105 1624.6439 1623.2612 1827.2052 1824.835 1819.6006 1812.5884 1806.2676 1800.9344 1796.7864 1794.021 1792.1445 2019.3964 2014.557 2006.3596 1997.1748 1988.6812 1982.1628 1977.126 1973.5706 1971.299 2227.29 2217.8088 2205.1672 2192.1306 2180.8716 2171.8843 2165.4646 2160.823 2158.2551 2442.1951 2426.2944 2407.7271 2389.1597 2373.6541 2361.8027 2353.3091 2347.6797 2344.3218 2650.1863 2625.5945 2598.8298 2573.843 2553.103 2537.696 2527.3259 2520.0176 2516.3635 2833.7815 2799.8074 2763.8579 2730.6738 2704.4031 2685.4407 2672.4041 2664.0093 2659.7627 2972.9321 2931.0571 2886.8118 2846.2205 2814.2217 2791.6052 2776.9883 2767.606 2762.668 3075.9331 3031.4905 2982.9983 2937.7656 2902.1125 2877.1257 2861.1265 2851.6453 2846.5098 3234.5342 3197.3999 3153.4512 3110.1936 3074.9358 3050.2454 3034.9375 3026.1477 3021.1108 3738.9907 3722.8926 3694.8445 3662.9448 3635.1929 3614.8481 3602.4043 3595.0959 3591.1455 5198.8442 5216.917 5217.5098 5207.3374 5194.3999 5183.9312 5177.2153 5172.8701 5170.5986 8181.7363 8241.3877 8277.5332 8295.9023 8304.4951 8308.3467 8309.4326 8309.7285 8309.4326 11824.851 11918.868 11986.913 12032.737 12062.957 12082.018 12092.782 12097.423999999999 12098.411 13959.411 14063.303999999998 14146.062 14208.575 14254.596000000001 14285.112 14302.788999999999 14310.098 14311.48 13936.323999999999 14017.105 14088.308 14149.635 14198.913999999999 14233.873 14253.624 14260.931999999999 14261.524 12829.921999999999 12859.053999999998 12894.604 12936.18 12975.878 13006.096000000001 13022.489 13026.341 13024.068000000001 11807.498 11767.999 11756.544 11766.813 11786.86 11803.646999999999 11810.264 11806.511 11798.906 11397.716999999999 11300.257 11246.54 11225.409 11221.261999999999 11219.09 11210.499 11194.896999999999 11179.69 11542.295 11413.739 11335.045 11292.391000000001 11268.595 11248.354 11223.77 11195.628999999999 11171.636 11964.201000000001 11835.657 11755.787 11708.497 11676.706 11646.495 11611.053 11573.239 11543.128 12415.646 12313.673 12254.543 12220.585 12195.413 12166.883999999998 12129.767 12089.194 12056.618999999999 12546.043 12486.726 12462.051000000001 12454.453000000001 12448.827 12433.331 12404.61 12368.684 12338.284 12424.813999999998 12413.171999999999 12428.271 12453.633 12474.158000000001 12479.686000000002 12466.168 12441.301000000001 12417.223999999998 12218.024 12253.048999999999 12306.025 12362.553999999998 12409.906 12437.825 12443.055 12431.316 12415.729 12035.028 12111.258999999998 12193.996000000001 12273.675 12341.716999999999 12387.868 12408.873 12410.256000000001 12402.563999999998 11868.327 11974.676000000001 12073.928999999998 12164.409 12241.978000000001 12297.466999999999 12328.021999999999 12336.796999999999 12334.531 11616.268 11737.81 11839.161 11927.216 12001.677 12057.03 12089.142 12101.063 12101.063999999998 11170.712 11294.107 11386.806 11462.478000000001 11526.245 11574.562 11603.101999999999 11614.127 11614.721000000001 10490.187 10607.136 10686.06 10746.408000000001 10796.83 10835.948999999999 10859.835 10868.883999999998 10869.476999999999 9610.9043 9718.8271 9784.7686 9831.873 9871.5195 9902.9229 9922.8467 9930.8994 9931.7891 8615.9043 8716.5332 8774.4971 8814.7461 8848.1387 8875.0674 8893.0898 8901.5166 8903.873 7597.3916 7692.833 7751.0107 7790.9429 7823.3569 7849.3276 7867.0996 7877.3564 7881.3647 6627.2979 6718.3623 6782.8096 6830.252 6866.8081 6894.6147 6913.8687 6925.6392 6931.2837 5747.4683 5829.5352 5902.417 5962.5381 6008.7441 6042.0977 6064.3379 6078.2651 6085.5215 4974.5615 5039.7456 5114.3955 5188.3589 5248.8901 5292.5435 5321.2354 5338.7051 5347.6338 4315.4419 4353.353 4417.3281 4496.082 4571.0229 4629.8184 4669.7173 4694.2314 4707.061 3772.0691 3777.125 3815.5837 3883.1416 3961.3555 4032.2441 4086.0671 4121.5146 4140.7407 3332.3923 3317.4214 3321.2009 3360.2251 3423.7234 3493.0947 3553.7852 3598.147 3624.8005 2933.7864 2956.7935 2943.0474 2944.313 2974.4954 3023.2292 3075.4546 3119.3552 3148.2568 2489.1509 2602.165 2649.47 2640.9204 2631.6938 2643.426 2670.3279 2700.4512 2723.3403 1988.8079 2172.3682 2307.7346 2380.895 2385.1338 2366.8259 2358.5969 2363.1853 2371.8289 1666.2566 1777.8263 1890.264 2012.4229 2098.2808 2134.0923 2131.2166 2119.8337 2114.3933 1651.5956 1633.2135 1689.7054 1734.7379 1790.2181 1823.2853 1843.5121 1851.7512 1634.0015 1588.3584 1602.9554 1590.9963 1582.6071 1574.486 1675.3167 1656.807 1639.2703 1622.9867 195.25371 195.25371 195.25371 195.15493999999998 194.56236 193.47598 191.99454 189.03166000000002 227.45032 227.45032 227.45032 227.25279 226.95651 225.87012000000001 224.28992000000002 221.32703999999998 252.83232 252.83232 252.93107999999998 252.93107999999998 252.53602999999998 251.94345 250.36325 247.79542999999998 275.84398999999996 275.84398999999996 275.94277999999997 276.23904 276.23904 275.94277999999997 274.65884 272.58484 300.43591000000004 300.63342 300.92972000000003 301.22601000000003 301.62106 301.81857 301.32477 300.23837000000003 329.66965 329.86716 330.36096000000003 331.05231000000003 332.03995 332.83005 333.12633999999997 332.83005 364.43408 364.82912999999996 365.52047999999996 366.70563 368.08829 369.66848999999996 371.24872 371.94003 405.1243 405.6181 406.50696 408.18591000000004 410.25995 412.63025 415.19806 417.07455 451.54272000000003 451.93777 453.12292 455.09817999999996 457.96227999999996 461.32022 464.77692 468.33237 503.19555999999994 503.78815 505.17080999999996 507.73865 510.9978 515.24463 519.88647 524.72583 561.0705 561.6630200000001 563.4408 566.20612 570.05786 574.8972200000001 580.72424 586.64996 625.46368 626.05627 627.9327400000001 631.0931400000001 635.2412099999999 640.7719099999999 647.19147 654.0061 696.77032 697.56042 699.4368900000001 702.79486 707.43665 713.06616 719.8807400000001 727.09045 776.17542 776.86676 778.84198 782.10114 786.74298 792.6687599999999 799.58215 806.39679 864.07416 864.56793 866.5432099999999 869.9011199999999 874.14795 880.1724199999999 886.6908 893.20911 961.4539199999999 962.14526 963.92297 967.18213 971.7252199999999 977.05841 982.88544 988.7124 1069.599 1070.1915 1071.7717 1074.8334 1079.0802 1083.9196 1089.3514 1094.5859 1189.2992 1189.793 1191.2744 1194.1385 1198.089 1202.5333 1207.7678 1212.1133 1321.0483 1321.641 1323.2212 1325.7889 1329.2456 1333.3937 1338.3318 1342.7761 1465.5377 1466.0315 1467.7104 1470.0808 1473.5375 1477.7843 1482.5249 1487.1667 1622.8662 1623.2612 1624.6439 1627.3105 1631.0635 1635.4091 1640.8409 1646.0754 1791.6508 1792.1445 1794.021 1796.7864 1800.9344 1806.2676 1812.5884 1819.5017 1970.7064 1971.299 1973.5706 1977.126 1982.1628 1988.6812 1997.1748 2006.3596 2157.3662 2158.2551 2160.823 2165.4646 2171.8843 2180.8716 2192.1306 2205.1672 2343.334 2344.3218 2347.6797 2353.3091 2361.8027 2373.6541 2389.1597 2407.7271 2514.8821 2516.3635 2520.0176 2527.3259 2537.696 2553.103 2573.843 2598.8298 2657.9849 2659.7627 2664.0093 2672.4041 2685.4407 2704.4031 2730.6738 2763.8579 2760.989 2762.668 2767.606 2776.9883 2791.7039 2814.2217 2846.2205 2886.8118 2844.7319 2846.5098 2851.6453 2861.1265 2877.1257 2902.1125 2937.7656 2982.9983 3019.6294 3021.1108 3026.1477 3034.9375 3050.2454 3074.9358 3110.1936 3153.4512 3589.8616 3591.1455 3595.0959 3602.4043 3614.8481 3635.1929 3662.9448 3694.8445 5169.71 5170.5986 5172.8701 5177.2153 5183.9312 5194.3999 5207.3374 5217.5098 8308.9385 8309.4326 8309.7285 8309.4326 8308.3467 8304.4951 8295.9023 8277.5332 12098.411 12098.411 12097.423999999999 12092.782 12082.018 12062.957 12032.737 11986.913 14311.678 14311.48 14310.098 14302.788999999999 14285.112 14254.596000000001 14208.575 14146.062 14260.931999999999 14261.524 14260.931999999999 14253.624 14233.873 14198.913999999999 14149.635 14088.308 13022.191 13024.068000000001 13026.341 13022.489 13006.096000000001 12975.878 12936.18 12894.604 11795.253 11798.906 11806.511 11810.264 11803.646999999999 11786.86 11766.813 11756.544 11173.47 11179.69 11194.896999999999 11210.499 11219.09 11221.261999999999 11225.409 11246.54 11162.354 11171.636 11195.628999999999 11223.77 11248.354 11268.595 11292.489 11335.045 11531.576000000001 11543.128 11573.239 11611.053 11646.495 11676.706 11708.497 11755.787 12044.181 12056.618999999999 12089.194 12129.767 12166.883999999998 12195.413 12220.585 12254.543 12326.638 12338.284 12368.684 12404.61 12433.331 12448.827 12454.453000000001 12462.051000000001 12407.454 12417.223999999998 12441.301000000001 12466.168 12479.686000000002 12474.158000000001 12453.633 12428.271 12408.923 12415.729 12431.316 12443.055 12437.825 12409.906 12362.553999999998 12306.025 12398.028999999999 12402.563999999998 12410.256000000001 12408.873 12387.868 12341.716999999999 12273.675 12193.996000000001 12332.266000000001 12334.531 12336.796999999999 12328.021999999999 12297.466999999999 12241.978000000001 12164.409 12073.928999999998 12099.785 12101.063999999998 12101.063 12089.142 12057.03 12001.677 11927.216 11839.161 11613.641000000001 11614.721000000001 11614.127 11603.101999999999 11574.562 11526.245 11462.478000000001 11386.806 10868.595 10869.476999999999 10868.883999999998 10859.835 10835.948999999999 10796.83 10746.408000000001 10686.06 9931.3008 9931.7891 9930.8994 9922.8467 9902.9229 9871.5195 9831.873 9784.7686 8903.9736 8903.873 8901.5166 8893.0898 8875.0674 8848.1387 8814.7461 8774.4971 7882.2451 7881.3647 7877.3564 7867.0996 7849.3276 7823.3569 7790.9429 7751.0107 6933.0352 6931.2837 6925.6392 6913.8687 6894.6147 6866.8081 6830.252 6782.8096 6087.6509 6085.5215 6078.2651 6064.3379 6042.0977 6008.7441 5962.5381 5902.417 5350.4189 5347.6338 5338.7051 5321.2354 5292.5435 5248.8901 5188.3589 5114.3955 4710.9575 4707.061 4694.2314 4669.7173 4629.8184 4571.0229 4496.082 4417.3281 4147.0249 4140.7407 4121.5146 4086.0671 4032.2441 3961.3555 3883.1416 3815.5837 3633.47 3624.8005 3598.147 3553.7852 3493.0947 3423.7234 3360.2251 3321.2009 3158.1011 3148.2568 3119.3552 3075.4546 3023.2292 2974.4954 2944.313 2943.0474 2731.5264 2723.3403 2700.4512 2670.3279 2643.426 2631.6938 2640.9204 2649.47 2375.5894 2371.8289 2363.1853 2358.5969 2366.8259 2385.1338 2380.895 2307.7346 2113.2627 2114.3933 2119.8337 2131.1345 2134.0923 2098.2808 2012.4229 1890.264 1854.6813 1851.7512 1843.5121 1823.2853 1790.2181 1734.7379 1689.7054 1633.2135 1570.3793 1574.486 1582.6071 1590.9963 1602.9554 1588.3584 1634.0015 1616.0852 1622.9867 1639.2703 1656.807 1675.3167 185.08116 178.95786999999999 170.85934 160.19298 146.26744 128.58893999999998 107.5525 216.88272 210.3644 201.67328 189.92053 174.41478999999998 154.76103 130.86047 103.10818 243.3511 237.0303 228.24042000000003 215.8951 199.59926000000002 178.16777 151.50186000000002 120.68793000000001 268.93063 263.10364 254.31375 242.06717999999998 224.68497000000002 201.57451 172.34077 137.67508999999998 297.17672999999996 291.94232 283.54749 271.49844 253.22737 228.14166 195.84628 157.42763 330.8548 326.50925 318.90451 306.65796 287.89304 261.91848999999996 227.45032 184.88363999999999 371.14993 368.08829 361.37244 349.61969 332.33624 307.74432 273.67123 229.03052000000002 417.86465 416.28445 411.05005 402.16141 389.12473 370.75487999999996 343.79269 300.23837000000003 470.60391 470.40637000000004 468.03607 463.69052 459.34497000000005 454.30807000000004 443.44417999999996 408.97601000000003 528.57758 530.4540400000001 530.84912 532.82434 540.33032 555.1447099999999 570.5517 560.1815799999999 591.7856400000001 595.34113 598.50153 606.30377 625.85876 662.10461 710.0045200000001 738.2506099999999 660.0306400000001 664.3761599999999 669.3143299999999 680.86951 708.32556 760.3734099999999 831.97632 878.3947800000001 733.21375 737.7567700000001 742.49744 754.15137 782.2000099999999 833.35901 891.1351300000001 895.2832 812.22375 816.17426 819.43341 827.53198 848.37085 882.7403 904.96185 880.1724199999999 898.44354 900.9126 902.4928 905.9494599999999 915.82574 930.24506 927.57849 899.7274199999999 992.76166 994.53943 993.9468400000001 993.35425 994.53943 994.63818 981.50275 958.29352 1097.7463 1098.3389 1096.6599 1093.302 1089.4503 1083.1294 1067.5249 1048.0687 1214.8787 1214.7799 1211.9158 1206.8789 1200.8544 1192.9534 1178.139 1161.1519 1345.2452 1344.8501 1341.2947 1335.3689 1328.2581 1320.3571 1306.234 1289.4443 1489.932 1489.8333 1486.0803 1479.6608 1471.9573 1464.4513 1450.6245 1432.2548 1649.7296 1650.421 1647.1617 1640.9398 1633.1376 1626.4216 1612.8912 1593.1387 1824.835 1827.2052 1825.3287 1819.9956 1813.1809 1807.9465 1795.4037 1775.5525 2014.557 2019.3964 2020.2852 2017.8162 2013.4706 2010.9027 2000.2365 1981.5703 2217.8088 2227.29 2232.4255 2234.302 2235.3884 2237.1663 2229.2651 2213.4631 2426.2944 2442.1951 2454.1455 2463.2314 2473.2065 2484.3667 2479.9224 2466.9846 2625.5945 2650.1863 2670.7288 2690.0862 2713.9866 2740.6526 2742.0352 2731.27 2799.8074 2833.7815 2864.0027 2894.8164 2936.8892 2989.4304 3000.4919 2989.5293 2931.0571 2972.9321 3010.8567 3051.7441 3114.6555 3202.8499 3231.491 3219.3433 3031.4905 3075.9331 3115.1416 3159.9792 3241.0627 3371.1318 3426.8335 3413.3032 3197.3999 3234.5342 3263.8662 3301.1982 3388.9971 3554.7185 3639.9497 3626.123 3722.8926 3738.9907 3744.1262 3757.5579 3832.3198 4001.1023 4098.6782 4082.5801 5216.917 5198.8442 5165.0679 5140.3779 5182.2524 5301.1597 5336.9111 5308.5674 8241.3877 8181.7363 8103.8164 8036.4624 8009.3037 7982.3423 7900.3716 7831.3389 11918.868 11824.851 11713.451000000001 11601.854 11456.777 11239.903 11054.534 10944.813999999998 14063.303999999998 13959.411 13841.496000000001 13700.372 13451.108999999999 13146.246000000001 12942.708 12836.347 14017.105 13936.323999999999 13843.593 13700.793 13434.055 13178.575 13060.465 12998.443000000001 12859.053999999998 12829.921999999999 12790.716999999999 12703.716 12530.899 12430.563 12477.471000000001 12495.146 11767.999 11807.498 11864.378 11912.271 11931.032 12020.301000000001 12141.067 12254.43 11300.257 11397.716999999999 11537.833999999999 11703.428 11883.141000000001 12120.915 12272.188999999998 12472.639 11413.739 11542.393999999998 11728.118999999999 11960.742 12225.95 12518.606000000002 12701.171999999999 12960.752 11835.657 11964.201000000001 12153.858 12397.223999999998 12674.848999999998 12969.157 13175.993 13464.676000000001 12313.673 12415.646 12576.553999999998 12786.03 13022.752 13294.913999999999 13512.487 13803.309 12486.726 12546.043 12658.956 12813.421 12994.24 13238.526000000002 13449.946000000002 13720.784 12413.171999999999 12424.813999999998 12481.452 12573.025 12692.823 12898.078000000001 13083.798999999999 13316.688999999998 12253.146999999999 12218.024 12216.344 12241.104 12294.082 12441.57 12578.21 12756.583999999999 12111.258999999998 12035.028 11976.351 11932.37 11911.177 11975.681 12035.161 12146.615 11974.676000000001 11868.327 11759.02 11651.1 11549.601999999999 11512.763 11467.853000000001 11501.396999999999 11737.81 11616.268 11469.808 11302.966999999999 11136.739 10988.948999999999 10825.02 10769.92 11294.107 11170.712 11002.845 10786.871000000001 10562.157 10336.104 10054.782 9914.7471 10607.136 10490.187 10314.675 10069.702 9789.2744 9525.7793 9164.7676 8955.5654 9718.8271 9610.9043 9437.2686 9185.3711 8875.6201 8591.9834 8208.3711 7956.8877 8716.5332 8615.9043 8450.9922 8209.1797 7902.998 7620.2212 7260.1064 6996.1108 7692.833 7597.3916 7447.9175 7230.2734 6953.9287 6687.8398 6361.9941 6098.0332 6718.3623 6627.2979 6499.7129 6318.4253 6086.5557 5845.1758 5504.0898 5135.9502 5829.5352 5747.4683 5649.0684 5511.6558 5343.1646 5137.5981 4758.4668 4293.4644 5039.7456 4974.5615 4911.6558 4826.895 4731.3149 4564.7378 4124.8374 4353.353 4315.4419 4291.3569 4258.061 4219.7456 4022.1643 3570.2195 3777.125 3772.0691 3775.6934 3767.4199 3720.772 3427.8743 3317.4214 3332.3923 3324.6763 3295.4253 3127.5107 2845.9307 2956.7935 2933.7864 2860.8257 2744.446 2501.8894 2602.165 2489.1509 2301.3423 2154.9082 2172.3682 1988.8079 1770.8582 1924.6914 1777.8263 1666.2566 1651.5956 
Type 1 2975 float
0 0 0 0 0 0 0 0 0 0 0 0 0 0 0 0 0 0 0 0 0 0 0 0 0 0 0 0 0 0 0 0 0 0 0 0 0 0 0 0 0 0 0 0 0 0 0 0 0 0 0 0 0 0 0 0 0 0 0 0 0 0 0 0 0 0 0 0 0 0 0 0 0 0 0 0 0 0 0 0 0 0 0 0 0 0 0 0 0 0 0 0 0 0 0 0 0 0 0 0 0 0 0 0 0 0 0 0 0 0 0 0 0 0 0 0 0 0 0 0 0 0 0 0 0 0 0 0 0 0 0 0 0 0 0 0 0 0 0 0 0 0 0 0 0 0 0 0 0 0 0 0 0 0 0 0 0 0 0 0 0 0 0 0 0 0 0 0 0 0 0 0 0 0 0 0 0 0 0 0 0 0 0 0 0 0 0 0 0 0 0 0 0 0 0 0 0 0 0 0 0 0 0 0 0 0 0 0 0 0 0 0 0 0 0 0 0 0 0 0 0 0 0 0 0 0 0 0 0 0 0 0 0 0 0 0 0 0 0 0 0 0 0 0 0 0 0 0 0 0 0 0 0 0 0 0 0 0 0 0 0 0 0 0 0 0 0 0 0 0 0 0 0 0 0 0 0 0 0 0 0 0 0 0 0 0 0 0 0 0 0 0 0 0 0 0 0 0 0 0 0 0 0 0 0 0 0 0 0 0 0 0 0 0 0 0 0 0 0 0 0 0 0 0 0 0 0 0 0 0 0 0 0 0 0 0 0 0 0 0 0 0 0 0 0 0 0 0 0 0 0 0 0 0 0 0 0 0 0 0 0 0 0 0 0 0 0 0 0 0 0 0 0 0 0 0 0 0 0 0 0 0 0 0 0 0 0 0 0 0 0 0 0 0 0 0 0 0 0 0 0 0 0 0 0 0 0 0 0 0 0 0 0 0 0 0 0 0 0 0 0 0 0 0 0 0 0 0 0 0 0 0 0 0 0 0 0 0 0 0 0 0 0 0 0 0 0 0 0 0 0 0 0 0 0 0 0 0 0 0 0 0 0 0 0 0 0 0 0 0 0 0 0 0 0 0 0 0 0 0 0 0 0 0 0 0 0 0 0 0 0 0 0 0 0 0 0 0 0 0 0 0 0 0 0 0 0 0 0 0 0 0 0 0 0 0 0 0 0 0 0 0 0 0 0 0 0 0 0 0 0 0 0 0 0 0 0 0 0 0 0 0 0 0 0 0 0 0 0 0 0 0 0 0 0 0 0 0 0 0 0 0 0 0 0 0 0 0 0 0 0 0 0 0 0 0 0 0 0 0 0 0 0 0 0 0 0 0 0 0 0 0 0 0 0 0 0 0 0 0 0 0 0 0 0 0 0 0 0 0 0 0 0 0 0 0 0 0 0 0 0 0 0 0 0 0 0 0 0 0 0 0 0 0 0 0 0 0 0 0 0 0 0 0 0 0 0 0 0 0 0 0 0 0 0 0 0 0 0 0 0 0 0 0 0 0 0 0 0 0 0 0 0 0 0 0 0 0 0 0 0 0 0 0 0 0 0 0 0 0 0 0 0 0 0 0 0 0 0 0 0 0 0 0 0 0 0 0 0 0 0 0 0 0 0 0 0 0 0 0 0 0 0 0 0 0 0 0 0 0 0 0 0 0 0 0 0 0 0 0 0 0 0 0 0 0 0 0 0 0 0 0 0 0 0 0 0 0 0 0 0 0 0 0 0 0 0 0 0 0 0 0 0 0 0 0 0 0 0 0 0 0 0 0 0 0 0 0 0 0 0 0 0 0 0 0 0 0 0 0 0 0 0 0 0 0 0 0 0 0 0 0 0 0 0 0 0 0 0 0 0 0 0 0 0 0 0 0 0 0 0 0 0 0 0 0 0 0 0 0 0 0 0 0 0 0 0 0 0 0 0 0 0 0 0 0 0 0 0 0 0 0 0 0 0 0 0 0 0 0 0 0 0 0 0 0 0 0 0 0 0 0 0 0 0 0 0 0 0 0 0 0 0 0 0 0 0 0 0 0 0 0 0 0 0 0 0 0 0 0 0 0 0 0 0 0 0 0 0 0 0 0 0 0 0 0 0 0 0 0 0 0 0 0 0 0 0 0 0 0 0 0 0 0 0 0 0 0 0 0 0 0 0 0 0 0 0 0 0 0 0 0 0 0 0 0 0 0 0 0 0 0 0 0 0 0 0 0 0 0 0 0 0 0 0 0 0 0 0 0 0 0 0 0 0 0 0 0 0 0 0 0 0 0 0 0 0 0 0 0 0 0 0 0 0 0 0 0 0 0 0 0 0 0 0 0 0 0 0 0 0 3 3 3 3 3 3 3 3 3 3 3 3 3 3 3 3 3 3 3 3 3 3 3 3 3 3 3 3 3 3 3 3 3 3 3 3 3 3 3 3 3 3 3 3 3 3 3 3 3 3 3 3 3 3 3 3 3 3 3 3 3 3 3 3 3 3 3 3 3 3 3 3 3 3 3 3 3 3 3 3 3 3 3 3 3 3 3 3 3 3 3 3 3 3 3 3 3 3 3 3 3 3 3 3 3 3 3 3 3 3 3 3 3 3 3 3 3 3 3 3 3 3 3 3 3 3 3 3 3 3 3 3 3 3 3 3 3 3 3 3 3 3 3 3 3 3 3 3 3 3 3 3 3 3 3 3 3 3 3 3 3 3 3 3 3 3 3 3 3 3 3 3 3 3 3 3 3 3 3 3 3 3 3 3 3 3 3 3 3 3 3 3 3 3 3 3 3 3 3 3 3 3 3 3 3 3 3 3 3 3 3 3 3 3 3 3 3 3 3 3 3 3 3 3 3 3 3 3 3 3 3 3 3 3 3 3 3 3 3 3 3 3 3 3 3 3 3 3 3 3 3 3 3 3 3 3 3 3 3 3 3 3 3 3 3 3 3 3 3 3 3 3 3 3 3 3 3 3 3 3 3 3 3 3 3 3 3 3 3 3 3 3 3 3 3 3 3 3 3 3 3 3 3 3 3 3 3 3 3 3 3 3 3 3 3 3 3 3 3 3 3 3 3 3 3 3 3 3 3 3 3 3 3 3 3 3 3 3 3 3 3 3 3 3 3 3 3 3 3 3 3 3 3 3 3 3 3 3 3 3 3 3 3 3 3 3 3 3 3 3 3 3 3 3 3 3 3 3 3 3 3 3 3 3 3 3 3 3 3 3 3 3 3 3 3 3 3 3 3 3 3 3 3 3 3 3 3 3 3 3 3 3 3 3 3 3 3 3 3 3 3 3 3 3 3 3 3 3 3 3 3 3 3 3 3 3 3 3 3 3 3 3 3 3 3 3 3 3 3 3 3 3 3 3 3 3 3 3 3 3 3 3 3 3 3 3 3 3 3 3 3 3 3 3 3 3 3 3 3 3 3 3 3 3 3 3 3 3 3 3 3 3 3 3 3 3 3 3 3 3 3 3 3 3 3 3 3 3 3 3 3 3 3 3 3 3 3 3 3 3 3 3 3 3 3 3 3 3 3 3 3 3 3 3 3 3 3 3 3 3 3 3 3 3 3 3 3 3 3 3 3 3 3 3 3 3 3 3 3 3 3 3 3 3 3 3 3 3 3 3 3 3 3 3 3 3 3 3 3 3 3 3 3 3 3 3 3 3 3 3 3 3 3 3 3 3 3 3 3 3 3 3 3 3 3 3 3 3 3 3 3 3 3 3 3 3 3 3 3 3 3 3 3 3 3 3 3 3 3 3 3 3 3 3 3 3 3 3 3 3 3 3 3 3 3 3 3 3 3 3 3 3 3 3 3 3 3 3 3 3 3 3 3 3 3 3 3 3 3 3 3 3 3 3 3 3 3 3 3 3 3 3 3 3 3 3 3 3 3 3 3 3 3 3 3 3 3 3 3 3 3 3 3 3 3 3 3 3 3 3 3 3 3 3 3 3 3 3 3 3 3 3 3 3 3 3 3 3 3 3 3 3 3 3 3 3 3 3 3 3 3 3 3 3 3 3 3 3 3 3 3 3 3 3 3 3 3 3 3 3 3 3 3 3 3 3 3 3 3 3 3 3 3 3 3 3 3 3 3 3 3 3 3 3 3 3 3 3 3 3 3 3 3 3 3 3 3 3 3 3 3 3 3 3 3 3 3 3 3 3 3 3 3 3 3 3 3 3 3 3 3 3 3 3 3 3 3 3 3 3 3 3 3 3 3 3 3 3 3 3 3 3 3 3 3 3 3 3 3 3 3 3 3 3 3 3 3 3 3 3 3 3 3 3 3 3 3 3 3 3 3 3 3 3 3 3 3 3 3 3 3 3 3 3 3 3 3 3 3 3 3 3 3 3 3 3 3 3 3 3 3 3 3 3 3 3 3 3 3 3 3 3 3 3 3 3 3 3 3 3 3 3 3 3 3 3 3 3 3 3 3 3 3 3 3 3 3 3 3 3 3 3 3 3 3 3 3 3 3 3 3 3 3 3 3 3 3 3 3 3 3 3 3 3 3 3 3 3 3 3 3 3 3 3 3 3 3 3 3 3 3 3 3 3 3 3 3 3 3 3 3 3 3 3 3 3 3 3 3 3 3 3 3 3 3 3 3 3 3 3 3 3 3 3 3 3 3 3 3 3 3 3 3 3 3 3 3 3 3 3 3 3 3 3 3 3 3 3 3 3 3 3 3 3 3 3 3 3 3 3 3 3 3 3 3 3 3 3 3 3 3 3 3 3 3 3 3 3 3 3 3 3 3 3 3 3 3 3 3 3 3 3 3 3 3 3 3 3 3 3 3 3 3 3 3 3 3 3 3 3 3 3 3 3 3 3 3 3 3 3 3 3 3 3 3 3 3 3 3 3 3 3 3 3 3 3 3 3 3 3 3 3 3 3 3 3 3 3 3 3 3 3 3 3 3 3 3 3 3 3 3 3 3 3 3 3 3 3 3 3 3 3 3 3 3 3 3 3 3 3 3 3 3 3 3 3 3 3 3 3 3 3 3 3 3 3 3 3 3 3 3 3 3 3 3 3 3 3 3 3 3 3 3 3 3 3 3 3 3 3 3 3 3 3 3 3 3 3 3 3 3 3 3 3 3 3 3 3 3 3 3 3 3 3 3 3 3 3 3 3 3 3 3 3 3 3 3 3 3 3 3 3 3 3 3 3 3 3 3 3 3 3 3 3 3 3 3 3 3 3 3 3 3 3 3 3 3 3 3 3 3 3 3 3 3 3 3 3 3 3 3 3 3 3 3 3 3 3 3 3 3 3 3 3 3 3 3 3 3 3 3 3 3 3 3 3 3 3 3 3 3 3 3 3 3 3 3 3 3 3 3 3 3 3 3 3 3 3 3 3 3 3 3 3 3 3 3 3 3 3 3 3 3 3 3 3 3 3 3 3 3 3 3 3 3 3 3 3 3 3 3 3 3 3 3 3 3 3 3 3 3 3 3 3 3 3 3 3 3 3 3 3 3 3 3 3 3 3 3 3 3 3 3 3 3 3 3 3 3 3 3 3 3 3 3 3 3 3 3 3 3 3 3 3 3 3 3 3 3 3 3 3 3 3 3 3 3 3 3 3 3 3 3 3 3 3 3 3 3 3 3 3 3 3 3 3 3 3 3 3 3 3 3 3 3 3 3 3 3 3 3 3 3 3 3 3 3 3 3 3 3 3 3 3 3 3 3 3 3 3 3 3 3 3 3 3 3 3 3 3 3 3 3 3 3 3 3 3 3 3 3 3 3 3 3 3 3 3 3 3 3 3 3 3 3 3 3 3 3 3 3 3 3 3 3 3 3 3 3 3 3 3 3 3 3 3 3 3 3 3 3 3 3 3 3 3 3 3 3 3 3 3 3 3 3 3 3 3 3 3 3 3 3 3 3 3 3 3 3 3 3 3 3 3 3 3 3 3 3 3 3 3 3 3 3 3 3 3 3 3 3 3 3 3 3 3 3 3 3 3 3 3 3 3 3 3 3 3 3 3 3 3 3 3 3 3 3 3 3 3 3 3 3 3 3 3 3 3 3 3 3 3 3 3 3 3 3 3 3 3 3 3 3 3 3 3 3 3 3 3 3 3 3 3 3 3 3 3 3 3 3 3 3 3 3 3 3 3 3 3 3 3 3 3 3 3 3 3 3 3 3 3 3 3 3 3 3 3 3 3 3 3 3 3 3 3 3 3 3 3 3 3 3 3 3 3 3 3 3 3 3 3 3 3 3 3 3 3 3 3 3 3 3 3 3 3 3 3 3 3 3 3 3 3 3 3 3 3 3 3 3 3 3 3 3 3 3 3 3 3 3 3 3 3 3 3 3 3 3 3 3 3 3 3 3 3 3 3 3 3 3 3 3 3 3 3 3 3 3 3 3 3 3 3 3 3 3 3 3 3 3 3 3 3 3 3 3 3 3 3 3 3 3 3 3 3 3 3 3 3 3 3 3 3 3 3 3 3 3 3 3 3 3 3 3 3 3 3 3 3 3 3 3 3 3 3 3 3 3 3 3 3 3 3 3 3 3 3 3 3 3 3 3 3 3 3 3 3 3 3 3 3 3 3 3 3 3 3 3 3 3 3 3 3 3 3 3 3 3 3 3 3 3 3 3 3 3 3 3 3 3 3 3 3 3 3 3 3 3 3 3 3 3 3 3 3 3 3 3 3 3 3 3 3 3 3 3 3 3 3 3 3 3 3 3 3 3 3 3 3 3 3 3 3 
CellOffSpring 1 2975 float
0 0 0 0 0 0 0 0 0 0 0 0 0 0 0 0 0 0 0 0 0 0 0 0 0 0 0 0 0 0 0 0 0 0 0 0 0 0 0 0 0 0 0 0 0 0 0 0 0 0 0 0 0 0 0 0 0 0 0 0 0 0 0 0 0 0 0 0 0 0 0 0 0 0 0 0 0 0 0 0 0 0 0 0 0 0 0 0 0 0 0 0 0 0 0 0 0 0 0 0 0 0 0 0 0 0 0 0 0 0 0 0 0 0 0 0 0 0 0 0 0 0 0 0 0 0 0 0 0 0 0 0 0 0 0 0 0 0 0 0 0 0 0 0 0 0 0 0 0 0 0 0 0 0 0 0 0 0 0 0 0 0 0 0 0 0 0 0 0 0 0 0 0 0 0 0 0 0 0 0 0 0 0 0 0 0 0 0 0 0 0 0 0 0 0 0 0 0 0 0 0 0 0 0 0 0 0 0 0 0 0 0 0 0 0 0 0 0 0 0 0 0 0 0 0 0 0 0 0 0 0 0 0 0 0 0 0 0 0 0 0 0 0 0 0 0 0 0 0 0 0 0 0 0 0 0 0 0 0 0 0 0 0 0 0 0 0 0 0 0 0 0 0 0 0 0 0 0 0 0 0 0 0 0 0 0 0 0 0 0 0 0 0 0 0 0 0 0 0 0 0 0 0 0 0 0 0 0 0 0 0 0 0 0 0 0 0 0 0 0 0 0 0 0 0 0 0 0 0 0 0 0 0 0 0 0 0 0 0 0 0 0 0 0 0 0 0 0 0 0 0 0 0 0 0 0 0 0 0 0 0 0 0 0 0 0 0 0 0 0 0 0 0 0 0 0 0 0 0 0 0 0 0 0 0 0 0 0 0 0 0 0 0 0 0 0 0 0 0 0 0 0 0 0 0 0 0 0 0 0 0 0 0 0 0 0 0 0 0 0 0 0 0 0 0 0 0 0 0 0 0 0 0 0 0 0 0 0 0 0 0 0 0 0 0 0 0 0 0 0 0 0 0 0 0 0 0 0 0 0 0 0 0 0 0 0 0 0 0 0 0 0 0 0 0 0 0 0 0 0 0 0 0 0 0 0 0 0 0 0 0 0 0 0 0 0 0 0 0 0 0 0 0 0 0 0 0 0 0 0 0 0 0 0 0 0 0 0 0 0 0 0 0 0 0 0 0 0 0 0 0 0 0 0 0 0 0 0 0 0 0 0 0 0 0 0 0 0 0 0 0 0 0 0 0 0 0 0 0 0 0 0 0 0 0 0 0 0 0 0 0 0 0 0 0 0 0 0 0 0 0 0 0 0 0 0 0 0 0 0 0 0 0 0 0 0 0 0 0 0 0 0 0 0 0 0 0 0 0 0 0 0 0 0 0 0 0 0 0 0 0 0 0 0 0 0 0 0 0 0 0 0 0 0 0 0 0 0 0 0 0 0 0 0 0 0 0 0 0 0 0 0 0 0 0 0 0 0 0 0 0 0 0 0 0 0 0 0 0 0 0 0 0 0 0 0 0 0 0 0 0 0 0 0 0 0 0 0 0 0 0 0 0 0 0 0 0 0 0 0 0 0 0 0 0 0 0 0 0 0 0 0 0 0 0 0 0 0 0 0 0 0 0 0 0 0 0 0 0 0 0 0 0 0 0 0 0 0 0 0 0 0 0 0 0 0 0 0 0 0 0 0 0 0 0 0 0 0 0 0 0 0 0 0 0 0 0 0 0 0 0 0 0 0 0 0 0 0 0 0 0 0 0 0 0 0 0 0 0 0 0 0 0 0 0 0 0 0 0 0 0 0 0 0 0 0 0 0 0 0 0 0 0 0 0 0 0 0 0 0 0 0 0 0 0 0 0 0 0 0 0 0 0 0 0 0 0 0 0 0 0 0 0 0 0 0 0 0 0 0 0 0 0 0 0 0 0 0 0 0 0 0 0 0 0 0 0 0 0 0 0 0 0 0 0 0 0 0 0 0 0 0 0 0 0 0 0 0 0 0 0 0 0 0 0 0 0 0 0 0 0 0 0 0 0 0 0 0 0 0 0 0 0 0 0 0 0 0 0 0 0 0 0 0 0 0 0 0 0 0 0 0 0 0 0 0 0 0 0 0 0 0 0 0 0 0 0 0 0 0 0 0 0 0 0 0 0 0 0 0 0 0 0 0 0 0 0 0 0 0 0 0 0 0 0 0 0 0 0 0 0 0 0 0 0 0 0 0 0 0 0 0 0 0 0 0 0 0 0 0 0 0 0 0 0 0 0 0 0 0 0 0 0 0 0 0 0 0 0 0 0 0 0 0 0 0 0 0 0 0 0 0 0 0 0 0 0 0 0 0 0 0 0 0 0 0 0 0 0 0 0 0 0 0 0 0 0 0 0 0 0 0 0 0 0 0 0 0 0 0 0 0 0 0 0 0 0 0 0 0 0 0 0 0 0 0 0 0 0 0 0 0 0 0 0 0 0 0 0 0 0 0 0 0 0 0 0 0 0 0 0 0 0 0 0 0 0 0 0 0 0 0 0 0 0 0 0 0 0 0 0 0 0 0 0 0 0 0 0 0 0 0 0 0 0 0 0 0 0 0 0 0 0 0 0 0 0 0 0 0 0 0 0 0 0 0 0 0 0 0 0 0 0 0 0 0 0 0 0 0 0 0 0 0 0 0 0 0 0 0 0 0 0 0 0 0 0 0 0 0 0 0 0 0 0 0 0 0 0 0 0 0 0 0 0 0 0 0 0 0 0 0 0 0 0 0 0 0 0 0 0 0 0 0 0 0 0 0 0 0 0 0 0 0 0 0 0 0 0 0 0 0 0 0 0 0 0 0 0 0 0 0 0 0 0 0 0 0 0 0 0 0 0 0 0 0 0 0 0 0 0 0 0 0 0 0 0 0 0 0 0 0 0 0 0 0 0 0 0 0 0 0 0 0 0 0 0 0 0 0 0 0 0 0 0 0 0 0 0 0 0 0 0 0 0 0 0 0 0 0 0 0 0 0 0 0 0 0 0 0 0 0 0 0 0 0 0 0 0 0 0 0 0 0 0 0 0 0 0 0 0 0 0 0 0 0 0 0 0 0 0 0 0 0 0 0 0 0 0 0 0 0 0 0 0 0 0 0 0 0 0 0 0 0 0 0 0 0 0 0 0 0 0 0 0 0 0 0 0 0 0 0 0 0 0 0 0 0 0 0 0 0 0 0 0 0 0 0 0 0 0 0 0 0 0 0 0 0 0 0 0 0 0 0 0 0 0 0 0 0 0 0 0 0 0 0 0 0 0 0 0 0 0 0 0 0 0 0 0 0 0 0 0 0 0 0 0 0 0 0 0 0 0 0 0 0 0 0 0 0 0 0 0 0 0 0 0 0 0 0 0 0 0 0 0 0 0 0 0 0 0 0 0 0 0 0 0 0 0 0 0 0 0 0 0 0 0 0 0 0 0 0 0 0 0 0 0 0 0 0 0 0 0 0 0 0 0 0 0 0 0 0 0 0 0 0 0 0 0 0 0 0 0 0 0 0 0 0 0 0 0 0 0 0 0 0 0 0 0 0 0 0 0 0 0 0 0 0 0 0 0 0 0 0 0 0 0 0 0 0 0 0 0 0 0 0 0 0 0 0 0 0 0 0 0 0 0 0 0 0 0 0 0 0 0 0 0 0 0 0 0 0 0 0 0 0 0 0 0 0 0 0 0 0 0 0 0 0 0 0 0 0 0 0 0 0 0 0 0 0 0 0 0 0 0 0 0 0 0 0 0 0 0 0 0 0 0 0 0 0 0 0 0 0 0 0 0 0 0 0 0 0 0 0 0 0 0 0 0 0 0 0 0 0 0 0 0 0 0 0 0 0 0 0 0 0 0 0 0 0 0 0 0 0 0 0 0 0 0 0 0 0 0 0 0 0 0 0 0 0 0 0 0 0 0 0 0 0 0 0 0 0 0 0 0 0 0 0 0 0 0 0 0 0 0 0 0 0 0 0 0 0 0 0 0 0 0 0 0 0 0 0 0 0 0 0 0 0 0 0 0 0 0 0 0 0 0 0 0 0 0 0 0 0 0 0 0 0 0 0 0 0 0 0 0 0 0 0 0 0 0 0 0 0 0 0 0 0 0 0 0 0 0 0 0 0 0 0 0 0 0 0 0 0 0 0 0 0 0 0 0 0 0 0 0 0 0 0 0 0 0 0 0 0 0 0 0 0 0 0 0 0 0 0 0 0 0 0 0 0 0 0 0 0 0 0 0 0 0 0 0 0 0 0 0 0 0 0 0 0 0 0 0 0 0 0 0 0 0 0 0 0 0 0 0 0 0 0 0 0 0 0 0 0 0 0 0 0 0 0 0 0 0 0 0 0 0 0 0 0 0 0 0 0 0 0 0 0 0 0 0 0 0 0 0 0 0 0 0 0 0 0 0 0 0 0 0 0 0 0 0 0 0 0 0 0 0 0 0 0 0 0 0 0 0 0 0 0 0 0 0 0 0 0 0 0 0 0 0 0 0 0 0 0 0 0 0 0 0 0 0 0 0 0 0 0 0 0 0 0 0 0 0 0 0 0 0 0 0 0 0 0 0 0 0 0 0 0 0 0 0 0 0 0 0 0 0 0 0 0 0 0 0 0 0 0 0 0 0 0 0 0 0 0 0 0 0 0 0 0 0 0 0 0 0 0 0 0 0 0 0 0 0 0 0 0 0 0 0 0 0 0 0 0 0 0 0 0 0 0 0 0 0 0 0 0 0 0 0 0 0 0 0 0 0 0 0 0 0 0 0 0 0 0 0 0 0 0 0 0 0 0 0 0 0 0 0 0 0 0 0 0 0 0 0 0 0 0 0 0 0 0 0 0 0 0 0 0 0 0 0 0 0 0 0 0 0 0 0 0 0 0 0 0 0 0 0 0 0 0 0 0 0 0 0 0 0 0 0 0 0 0 0 0 0 0 0 0 0 0 0 0 0 0 0 0 0 0 0 0 0 0 0 0 0 0 0 0 0 0 0 0 0 0 0 0 0 0 0 0 0 0 0 0 0 0 0 0 0 0 0 0 0 0 0 0 0 0 0 0 0 0 0 0 0 0 0 0 0 0 0 0 0 0 0 0 0 0 0 0 0 0 0 0 0 0 0 0 0 0 0 0 0 0 0 0 0 0 0 0 0 0 0 0 0 0 0 0 0 0 0 0 0 0 0 0 0 0 0 0 0 0 0 0 0 0 0 0 0 0 0 0 0 0 0 0 0 0 0 0 0 0 0 0 0 0 0 0 0 0 0 0 0 0 0 0 0 0 0 0 0 0 0 0 0 0 0 0 0 0 0 0 0 0 0 0 0 0 0 0 0 0 0 0 0 0 0 0 0 0 0 0 0 0 0 0 0 0 0 0 0 0 0 0 0 0 0 0 0 0 0 0 0 0 0 0 0 0 0 0 0 0 0 0 0 0 0 0 0 0 0 0 0 0 0 0 0 0 0 0 0 0 0 0 0 0 0 0 0 0 0 0 0 0 0 0 0 0 0 0 0 0 0 0 0 0 0 0 0 0 0 0 0 0 0 0 0 0 0 0 0 0 0 0 0 0 0 0 0 0 0 0 0 0 0 0 0 0 0 0 0 0 0 0 0 0 0 0 0 0 0 0 0 0 0 0 0 0 0 0 0 0 0 0 0 0 0 0 0 0 0 0 0 0 0 0 0 0 0 0 0 0 0 0 0 0 0 0 0 0 0 0 0 0 0 0 0 0 0 0 0 0 0 0 0 0 0 0 0 0 0 0 0 0 0 0 0 0 0 0 0 0 0 0 0 0 0 0 0 0 0 0 0 0 0 0 0 0 0 0 0 0 0 0 0 0 0 0 0 0 0 0 0 0 0 0 0 0 0 0 0 0 0 0 0 0 0 0 0 0 0 0 0 0 0 0 0 0 0 0 0 0 0 0 0 0 0 0 0 0 0 0 0 0 0 0 0 0 0 0 0 0 0 0 0 0 0 0 0 0 0 0 0 0 0 0 0 0 0 0 0 0 0 0 0 0 0 0 0 0 0 0 0 0 0 0 0 0 0 0 0 0 0 0 0 0 0 0 0 0 0 0 0 0 0 0 0 0 0 0 0 0 0 0 0 0 0 0 0 0 0 0 0 0 0 0 0 0 0 0 0 0 0 0 0 0 0 0 0 0 0 0 0 0 0 0 0 0 0 0 0 0 0 0 0 0 0 0 0 0 0 0 0 0 0 0 0 0 0 0 0 0 0 0 0 0 0 0 0 0 0 0 0 0 0 0 0 0 0 0 0 0 0 0 0 0 0 0 0 0 0 0 0 0 0 0 0 0 0 0 0 0 0 0 0 0 0 0 0 0 0 0 0 0 0 0 0 0 0 0 0 0 0 0 0 0 0 0 0 0 0 0 0 0 0 0 0 0 0 0 0 0 0 0 0 0 0 0 0 0 0 0 0 0 0 0 0 0 0 0 0 0 0 0 0 0 0 0 0 0 0 0 0 0 0 0 0 0 0 0 0 0 0 0 0 0 0 0 0 0 0 0 0 0 0 0 0 0 0 0 0 0 0 0 0 0 0 0 0 0 0 0 0 0 0 0 0 0 0 0 0 0 0 0 0 0 0 0 0 0 0 0 0 0 0 0 0 0 0 0 0 0 0 0 0 0 0 0 0 0 0 0 0 0 0 0 0 0 0 0 0 0 0 0 0 
GradVel 1 2975 float
0.0 0.0 0.0 0.0 0.0 0.0 0.0 0.0 0.0 0.0 0.0 0.0 0.0 -2.1017986000000004e-06 -7.617764299999999e-16 -1.1018408e-05 -7.4177296e-05 -2.0028294e-05 -0.00014584765 -0.0004588077099999999 -0.00016780655 -0.00063698087 -0.0015288901 -0.00059393572 -0.0017332253 -0.0036371644 -0.0013913270000000001 -0.0035518035 -0.0069057727 -0.0025231515 -0.005981609200000001 -0.011107226999999999 -0.0038248801 -0.0086993258 -0.015697463999999998 -0.0050837453 -0.011310048 -0.02004341 -0.0061503379 -0.013546441000000001 -0.023754342999999997 -0.007016855799999999 -0.015406416000000001 -0.026886507999999996 -0.0078283455 -0.01719268 -0.030008622000000002 -0.0088580139 -0.019470446000000002 -0.034110032 -0.010496848999999999 -0.023036487 -0.040511481 -0.013356723000000001 -0.029002279 -0.050867721 -0.018386601000000002 -0.038641802999999995 -0.06668730099999999 -0.026804479 -0.052646704 -0.087943077 -0.071158268 -0.11330153 0.0 0.0 0.0 0.0 0.0 0.0 0.0 0.0 0.0 0.0 0.0 0.0 0.0 0.0 0.0 0.0 0.0 0.0 0.0 0.0 0.0 0.0 0.0 0.0 0.0 -3.7529915e-07 -2.3832063e-06 -5.637420599999999e-06 -8.4390231e-06 -1.0024958e-05 -1.1132469e-05 -1.1981213e-05 -1.804368e-05 -5.8516605e-05 -0.00012457266 -0.0002061019 -0.00028665087000000005 -0.00035269238 -0.00039978363 -0.00043220649 -0.00022168068999999999 -0.00046889856 -0.0008076058 -0.0011987853999999999 -0.0015844663 -0.001916389 -0.0021750557 -0.0023647922 -0.0010023319999999999 -0.0017999031 -0.0028259156 -0.003976922 -0.0051027043 -0.0060833166 -0.0068704137 -0.0074695596 -0.0028975033 -0.0047914702 -0.007155326700000001 -0.0097603183 -0.012286499 -0.014488525 -0.016274935 -0.017659171 -0.0063741454000000005 -0.010043561 -0.014542748999999999 -0.019436876999999998 -0.024131738 -0.028200226000000002 -0.031507152999999996 -0.034091357 -0.011537806000000001 -0.017626232 -0.024998045 -0.032909028 -0.04038256 -0.04679229099999999 -0.05199023 -0.056066584 -0.017992372 -0.026897274 -0.037522942000000004 -0.04871637400000001 -0.059071742000000003 -0.067854926 -0.074952021 -0.08051942299999999 -0.024890017 -0.03657598 -0.050168369000000004 -0.031284817 -0.045296453 -0.036683738 -0.052534305 -0.041306908999999996 -0.058859743 -0.046083424000000005 -0.06555256200000001 -0.052502405 -0.074530587 -0.062424608 -0.088040866 -0.078001082 -0.10844938 -0.10100259 -0.1375327 -0.13105953 -0.17487806 -0.16556156 -0.21758726 0.0 0.0 0.0 0.0 0.0 0.0 0.0 0.0 0.0 0.0 0.0 0.0 0.0 0.0 0.0 0.0 0.0 0.0 0.0 0.0 0.0 0.0 0.0 0.0 0.0 0.0 0.0 -1.2596262999999999e-05 -1.3016922999999999e-05 -1.328542e-05 -1.3441632999999999e-05 -1.3520822000000001e-05 -1.3551287e-05 -1.3554481e-05 -1.3546207e-05 -1.3537171e-05 -0.00045587428 -0.0004726213200000001 -0.00048378080999999997 -0.0004907038500000001 -0.0004946104599999999 -0.00049652182 -0.00049724343 -0.0004973628099999999 -0.00049728033 -0.002500342 -0.0025968414 -0.0026627853999999997 -0.0027051007 -0.0027302518 -0.0027437559000000004 -0.0027500044 -0.0027522660999999998 -0.0027527674 -0.0079096686 -0.0082243551 -0.0084423721 -0.00858544 -0.0086732376 -0.0087228371 -0.00874798 -0.0087589622 -0.008762836500000001 -0.018696317 -0.01944883 -0.019975029 -0.020325331000000002 -0.020544685 -0.020672385 -0.02074033 -0.020772543 -0.020785492 -0.036051199 -0.037490565 -0.038506266000000004 -0.039188754 -0.039621495 -0.039878163 -0.040018588 -0.040088065 -0.040117718 -0.059180051 -0.061486121 -0.063124552 -0.064232342 -0.064939968 -0.065364376 -0.065600492 -0.06572023 -0.06577301 -0.08478438099999999 -0.08795861199999999 -0.09022316300000001 -0.091758564 -0.092743047 -0.093337163 -0.09367099400000001 -0.093842767 -0.093919776 0.0 0.0 0.0 0.0 0.0 0.0 0.0 0.0 0.0 0.0 0.0 0.0 0.0 0.0 0.0 0.0 0.0 0.0 0.0 0.0 0.0 0.0 0.0 0.0 -1.3533470999999999e-05 -1.3537173000000001e-05 -1.3546203e-05 -1.3554479e-05 -1.3551289e-05 -1.3520825999999999e-05 -1.3441639e-05 -1.3285420999999999e-05 -0.0004972277099999999 -0.0004972805000000001 -0.00049736275 -0.00049724343 -0.00049652177 -0.0004946103400000001 -0.0004907038500000001 -0.00048378095 -0.0027527922999999997 -0.0027527669 -0.0027522666 -0.0027500048999999998 -0.0027437557 -0.0027302520000000003 -0.0027051002000000003 -0.0026627863 -0.0087636821 -0.0087628355 -0.0087589622 -0.0087479791 -0.0087228371 -0.008673238599999999 -0.0085854409 -0.0084423721 -0.020788766 -0.020785488 -0.020772547 -0.020740326 -0.020672383 -0.020544684 -0.020325327 -0.019975021000000003 -0.040125672 -0.040117729 -0.040088091 -0.040018607000000005 -0.039878171000000004 -0.039621517 -0.039188746 -0.038506277 -0.06578745700000001 -0.06577301 -0.06572023 -0.065600485 -0.065364376 -0.06493996099999999 -0.064232334 -0.063124567 -0.093941249 -0.093919791 -0.09384276 -0.093671016 -0.09333714800000001 -0.092743054 -0.09175855699999999 -0.090223201 0.0 0.0 0.0 0.0 0.0 0.0 0.0 0.0 0.0 0.0 0.0 0.0 0.0 0.0 0.0 0.0 0.0 0.0 0.0 0.0 0.0 0.0 0.0 0.0 0.0 0.0 0.0 -1.3016922999999999e-05 -1.2596261e-05 -1.1981217999999999e-05 -1.1132463000000001e-05 -1.0024958e-05 -8.4390222e-06 -5.637424700000001e-06 -2.3832074e-06 -3.7529921e-07 -0.0004726213200000001 -0.0004558744 -0.00043220638 -0.00039978357 -0.00035269230000000004 -0.00028665081 -0.00020610195 -0.00012457269 -5.8516605e-05 -0.0025968419 -0.0025003427 -0.0023647931 -0.0021750554 -0.0019163887 -0.0015844662 -0.0011987851 -0.0008076059200000001 -0.00046889877 -0.0082243579 -0.0079096677 -0.0074695581999999995 -0.0068704127 -0.0060833171 -0.0051027038 -0.0039769234 -0.0028259153 -0.0017999036999999999 -0.019448822 -0.018696317 -0.017659167 -0.016274926999999998 -0.014488525 -0.012286498 -0.0097603193 -0.0071553253 -0.0047914707 -0.03749058 -0.036051195 -0.034091342000000004 -0.031507146 -0.028200215 -0.02413174 -0.019436876999999998 -0.014542755 -0.010043563 -0.061486114 -0.059180047 -0.056066588 -0.051990225999999994 -0.04679228 -0.040382545 -0.032909028 -0.024998046 -0.017626233 -0.08795861199999999 -0.08478441099999999 -0.08051942299999999 -0.074952006 -0.06785491099999999 -0.059071745999999994 -0.04871637400000001 -0.037522942000000004 -0.026897281000000002 -0.050168354000000005 -0.036575973 -0.04529646 -0.052534312 -0.05885975400000001 -0.06555257 -0.074530616 -0.088040881 -0.10844937 -0.13753273 -0.17487806 -0.21758734 0.0 0.0 0.0 0.0 0.0 0.0 0.0 0.0 0.0 0.0 0.0 0.0 0.0 0.0 0.0 -1.804368e-05 -2.1017986000000004e-06 0.0 0.0 -0.00022168072999999996 -7.4177311e-05 -1.1018408999999999e-05 -7.617766499999999e-16 -0.0010023323 -0.0004588078599999999 -0.00014584762 -2.0028299e-05 -0.0028975036 -0.00152889 -0.00063698081 -0.00016780655 -0.006374145899999999 -0.0036371651 -0.001733225 -0.0005939356099999999 -0.011537806999999999 -0.0069057737 -0.0035518035 -0.0013913271 -0.017992374 -0.011107229 -0.0059816111 -0.0025231512 -0.024890015 -0.015697461 -0.0086993258 -0.0038248801 -0.031284823999999996 -0.020043405 -0.011310047 -0.0050837453 -0.036683731000000004 -0.023754342 -0.013546438999999999 -0.0061503379 -0.041306905 -0.026886507999999996 -0.015406415 -0.0070168553 -0.046083435 -0.03000862 -0.017192684 -0.0078283455 -0.052502415999999996 -0.034110032 -0.019470453000000002 -0.008858015799999999 -0.0624246 -0.040511485 -0.023036487 -0.010496852 -0.078001082 -0.050867725 -0.029002279 -0.013356725 -0.10100259 -0.06668730099999999 -0.038641802999999995 -0.018386602 -0.13105951 -0.087943077 -0.052646704 -0.026804481 -0.16556156 -0.11330155 -0.07115826 0.0 0.0 0.0 0.0 0.0 0.0 0.0 0.0 0.0 0.0 0.0 0.0 0.0 0.0 0.0 0.0 0.0 0.0 0.0 0.0 0.0 0.0 0.0 0.0 0.0 0.0 0.0 0.0 0.0 0.0 0.0 0.0 0.0 0.0 0.0 0.0 0.0 0.0 0.0 0.0 0.0 0.0 0.0 0.0 0.0 0.0 0.0 0.0 0.0 0.0 0.0 0.0 0.0 0.0 0.0 0.0 0.0 0.0 0.0 0.0 0.0 0.0 0.0 0.0 0.0 0.0 0.0 0.0 0.0 0.0 0.0 0.0 0.0 0.0 0.0 0.0 0.0 0.0 0.0 0.0 0.0 0.0 0.0 0.0 0.0 0.0 0.0 0.0 0.0 0.0 0.0 0.0 0.0 0.0 0.0 0.0 0.0 0.0 0.0 0.0 0.0 0.0 0.0 0.0 0.0 0.0 0.0 0.0 0.0 0.0 0.0 0.0 0.0 0.0 0.0 0.0 0.0 0.0 0.0 0.0 0.0 0.0 0.0 0.0 0.0 0.0 0.0 0.0 0.0 0.0 0.0 0.0 0.0 0.0 0.0 0.0 0.0 0.0 0.0 0.0 0.0 0.0 0.0 0.0 0.0 0.0 0.0 0.0 0.0 0.0 0.0 0.0 0.0 0.0 0.0 0.0 0.0 0.0 0.0 0.0 0.0 0.0 0.0 0.0 0.0 0.0 0.0 0.0 0.0 0.0 0.0 0.0 0.0 0.0 0.0 0.0 0.0 0.0 0.0 0.0 0.0 0.0 0.0 0.0 0.0 0.0 0.0 0.0 0.0 0.0 0.0 0.0 0.0 0.0 0.0 0.0 0.0 0.0 0.0 0.0 0.0 0.0 0.0 0.0 0.0 0.0 0.0 0.0 0.0 0.0 0.0 0.0 0.0 0.0 0.0 0.0 0.0 0.0 0.0 0.0 0.0 0.0 0.0 0.0 0.0 0.0 0.0 0.0 0.0 0.0 0.0 0.0 0.0 0.0 0.0 0.0 0.0 0.0 0.0 0.0 0.0 0.0 0.0 0.0 0.0 0.0 0.0 0.0 0.0 0.0 0.0 0.0 0.0 0.0 0.0 0.0 0.0 0.0 0.0 0.0 0.0 0.0 0.0 0.0 0.0 0.0 0.0 0.0 0.0 0.0 0.0 0.0 0.0 0.0 0.0 0.0 0.0 0.0 0.0 0.0 0.0 0.0 0.0 0.0 0.0 0.0 0.0 0.0 0.0 0.0 0.0 0.0 0.0 0.0 0.0 0.0 0.0 0.0 0.0 0.0 0.0 0.0 0.0 0.0 0.0 0.0 0.0 0.0 0.0 0.0 0.0 0.0 0.0 0.0 0.0 0.0 0.0 0.0 0.0 0.0 0.0 0.0 0.0 0.0 0.0 0.0 0.0 0.0 0.0 0.0 0.0 0.0 0.0 0.0 0.0 0.0 0.0 0.0 0.0 0.0 0.0 0.0 0.0 0.0 0.0 0.0 0.0 0.0 0.0 0.0 0.0 0.0 0.0 0.0 0.0 0.0 0.0 0.0 0.0 0.0 0.0 0.0 0.0 0.0 0.0 0.0 0.0 0.0 0.0 0.0 0.0 0.0 0.0 0.0 0.0 0.0 0.0 0.0 0.0 0.0 0.0 0.0 0.0 0.0 0.0 0.0 0.0 0.0 0.0 0.0 0.0 0.0 0.0 0.0 0.0 0.0 0.0 0.0 0.0 0.0 0.0 0.0 0.0 0.0 0.0 0.0 0.0 0.0 0.0 0.0 0.0 0.0 0.0 0.0 0.0 0.0 0.0 0.0 0.0 0.0 0.0 0.0 0.0 0.0 0.0 0.0 0.0 0.0 0.0 0.0 0.0 0.0 0.0 0.0 0.0 0.0 0.0 0.0 0.0 0.0 0.0 0.0 0.0 0.0 0.0 0.0 0.0 0.0 0.0 0.0 0.0 0.0 0.0 0.0 0.0 0.0 0.0 0.0 0.0 0.0 0.0 0.0 0.0 0.0 0.0 0.0 0.0 0.0 0.0 0.0 0.0 0.0 -0.063905373 -0.076578319 -0.08718532300000001 -0.0957077 -0.10236499 -0.060383238 -0.076652341 -0.090883873 -0.10265329 -0.11198528 -0.11918307 -0.069341242 -0.087259024 -0.10278079 -0.11538125 -0.12515114 -0.1325119 -0.077442206 -0.097021975 -0.1138197 -0.12719244 -0.13727723 -0.14462899 -0.086304404 -0.10762382 -0.12570629 -0.13987389 -0.15029082 -0.15759131 -0.09890378300000001 -0.12172838 -0.14057223 -0.15508649 -0.16561444 -0.17280054 -0.11955447 -0.14308685 -0.16104394 -0.17447309 -0.18419495 -0.19084625 -0.15352298 -0.17579648 -0.18963683 -0.19926916 -0.20643896 -0.21164784 -0.20567776 -0.22249538 -0.22735214 -0.22960539 -0.23203252 -0.23467107 -0.27779323 -0.28131253 -0.2719768 -0.26379919 -0.25986576 -0.25917679 -0.36214346 -0.34367993 -0.31748581 -0.29816929 -0.28795609 -0.28411934 -0.42401177 -0.39418313 -0.35580322 -0.32846403 -0.31411695 -0.30839041 -0.41755325 -0.40796208 -0.37844861 -0.35161325 -0.33710417 -0.33144653 -0.39547169 -0.39706877 -0.3852835 -0.36789975 -0.35740769 -0.35366422 -0.38758454 -0.38989264 -0.38850689 -0.38174048 -0.37711191 -0.37609607 -0.39394993 -0.39463547 -0.39761978 -0.3982476 -0.39853179 -0.39994371 -0.40972212 -0.41050345 -0.41541529 -0.41971806 -0.42293876 -0.42601237 -0.43308094 -0.43444163 -0.44002825 -0.44574934 -0.45051372 -0.45473301 -0.46042597 -0.46276036 -0.46882659 -0.47528058 -0.48109114 -0.48631427 -0.48986864 -0.49335498 -0.5004642 -0.50773686 -0.51454383 -0.52070409 -0.52171546 -0.52625787 -0.53460658 -0.54281527 -0.55061525 -0.55768716 -0.55654651 -0.56160522 -0.57106054 -0.58027625 -0.58907837 -0.5970335 -0.59453219 -0.59951586 -0.60976297 -0.62001586 -0.6297555 -0.63847989 -0.63545573 -0.63983351 -0.65058917 -0.66178787 -0.67217904 -0.6813966 -0.67828768 -0.68161488 -0.69274032 -0.70446599 -0.71485776 -0.72407651 -0.72007936 -0.72222978 -0.73366863 -0.74489933 -0.75426525 -0.76281542 -0.75474918 -0.75613248 -0.76774931 -0.77678996 -0.78384995 -0.79109526 -0.77249086 -0.77394944 -0.78534693 -0.78987688 -0.79359162 -0.79924423 -0.75843245 -0.76134813 -0.77185267 -0.76986653 -0.77008134 -0.77471042 -0.6895262 -0.69639367 -0.70570773 -0.69744164 -0.6960305 -0.70172441 -0.53099668 -0.545681 -0.55504167 -0.54604614 -0.5473609 -0.55729818 -0.24052612 -0.26846656 -0.28414071 -0.28435156 -0.2916733 -0.30849022 0.21807294 0.16764192 0.13983609 0.11775303 0.09998738800000001 0.077287748 0.82165909 0.75597525 0.71706367 0.67143023 0.63658261 0.61181122 1.4818205 1.4058663 1.3710607 1.32511 1.2831116000000002 1.2646848 2.057935 1.9978901000000002 1.9892682000000002 1.9774272000000002 1.9555764 1.95423 2.4404847999999997 2.4090778999999998 2.4450488 2.4918072 2.5191207 2.5564921000000003 2.5786755 2.5556815 2.6496277000000004 2.7521052000000004 2.8451862 2.9383559 2.5504031000000005 2.4977827 2.6513731 2.7941692000000002 2.9392626 3.0752311000000003 2.4571552000000003 2.3808117 2.5798018 2.7283726 2.8973477 3.0546968 2.3802392000000006 2.293818 2.5109253 2.6599258999999997 2.8277316000000003 2.984911 2.3598627999999997 2.2688723 2.4809847 2.6337106 2.7867498 2.927314 2.3720887000000004 2.2785697 2.4732506 2.6245949 2.7612970000000003 2.8796828 2.3614786 2.2688606 2.4431806000000003 2.5818684 2.7001828999999997 2.7965524 2.28585 2.1952192999999998 2.3418958 2.4572982999999997 2.5531228 2.6271369 2.1367655 2.0461142 2.1497443 2.2319264 2.2998302 2.3486271 1.9260502 1.8327141 1.8862084 1.9266641 1.9589423 1.9801958999999998 1.6845827000000002 1.5926653999999998 1.5944794 1.5828643 1.5814615 1.5743979 1.4491311000000002 1.3599902 1.3093674 1.2552968999999998 1.2227435 1.1881235 1.2384095 1.1433301000000002 1.0535413999999999 0.9785791 0.91632777 0.86095732 1.0489312 0.94795418 0.84134853 0.75478637 0.67200601 0.60738003 0.87692225 0.7658965 0.67112672 0.57402414 0.48534375 0.42167163 0.72095001 0.61248201 0.52321577 0.42463207 0.34319702 0.28738654 0.60065353 0.48979571 0.3857466 0.29908603 0.23323476 0.18874416 0.48339796 0.36884621 0.25525522 0.18970689 0.14599065 0.11371453 0.26887989 0.14692082 0.093893886 0.07383202 0.055740297 0.19396329 0.077579483 0.016589336 0.013714299 0.010111034 0.055585895 -0.028035848999999998 -0.036585763 -0.025732577000000003 0.060476493 -0.026074551 -0.07035853 -0.053760216 0.021591917000000002 -0.057535632999999996 -0.06565696 0.0044377893 -0.030593633999999998 -0.0056728497 0.038323879 -0.10745614 -0.11124866 -0.1139564 -0.11579077 -0.1169677 -0.11767995 -0.11808225 -0.11829074 -0.11838527 -0.12463439 -0.12866937 -0.13153136 -0.13345365 -0.13467877 -0.13541573 -0.13582908 -0.13604167 -0.13613695 -0.1379665 -0.14192568 -0.14467469 -0.14647622 -0.14759791 -0.14825442 -0.14860937 -0.14878239 -0.14885503 -0.14988595 -0.15355754 -0.15599081 -0.15750134 -0.15838814 -0.15886752 -0.15909578 -0.1591846 -0.15920916 -0.16255866 -0.16581684 -0.16779627 -0.16889331 -0.16944367 -0.16966641 -0.16970927 -0.16967398 -0.16962734 -0.17740808 -0.18015862 -0.1815909 -0.18218961 -0.18232906 -0.18223478 -0.18204692 -0.18185586 -0.18171935 -0.19494246 -0.19708076 -0.19789158 -0.19792864 -0.19760445 -0.19715199 -0.19670297 -0.19633563 -0.19609722 -0.21487994 -0.21629675 -0.21641679 -0.21584553 -0.21502627 -0.21419565 -0.21347368 -0.21292326 -0.21257976 -0.23659234 -0.23717637 -0.23657268 -0.23538049 -0.23406777 -0.2328676 -0.23188365 -0.23115997 -0.23071799 -0.25950819 -0.25923666 -0.25796849 -0.25621328 -0.25445983 -0.25293738 -0.25172967 -0.25086066 -0.25033727 -0.28302425 -0.28206924 -0.28031749 -0.27815163 -0.27607629 -0.27432162 -0.27295703 -0.27198881 -0.27141047 -0.30653867 -0.30528146 -0.30334079 -0.30100596 -0.29878974 -0.29693374 -0.29550302 -0.29449514 -0.2938965 -0.32976779 -0.32868633 -0.326906 -0.3246924 -0.32255548 -0.32075304 -0.31936213 -0.31838381 -0.3178032 -0.35292321 -0.35241282 -0.35111159 -0.34929591 -0.34745413 -0.3458623 -0.34461835 -0.34373778 -0.34321392 -0.37662476 -0.37689382 -0.37629071 -0.37507358 -0.37369809 -0.37244824 -0.37144452 -0.37072343 -0.37029055 -0.40164989 -0.40275267 -0.40293488 -0.40241364 -0.40160257 -0.40078083 -0.40008545 -0.39956954 -0.39925373 -0.42870075 -0.4306193 -0.43156511 -0.43174383 -0.43152481 -0.43117034 -0.43082023 -0.4305388 -0.43035781 -0.45830885 -0.46096587 -0.46259829 -0.46342972 -0.4637889 -0.46390969 -0.46392176 -0.46389085 -0.46385604 -0.4907077 -0.49402466 -0.49627045 -0.49770409 -0.49862012 -0.49921608 -0.49960226 -0.49983612 -0.49995786 -0.5258649 -0.52980036 -0.5326243 -0.53463864 -0.53610694 -0.53719032 -0.53796804 -0.53848279 -0.53877151 -0.5635944 -0.56814682 -0.57155311 -0.57415491 -0.57619274 -0.57778579 -0.57897729 -0.57979083 -0.58025658 -0.60366225 -0.6088292 -0.61282259 -0.61601913 -0.6186406 -0.6207636 -0.62239105 -0.62352121 -0.62417632 -0.64573842 -0.65145415 -0.65598083 -0.65973389 -0.66292149 -0.66557992 -0.6676597 -0.66912466 -0.66998267 -0.68905365 -0.69512749 -0.70002729 -0.70421696 -0.70790744 -0.71108377 -0.7136308 -0.7154575 -0.71654046 -0.73172879 -0.7378124 -0.74279273 -0.74721032 -0.75129277 -0.75496268 -0.75800359 -0.76023751 -0.76158369 -0.76992893 -0.77554649 -0.78020763 -0.78457499 -0.78891283 -0.79305786 -0.79664874 -0.79937065 -0.80104417 -0.7971946 -0.80189294 -0.80583286 -0.80986428 -0.8143279 -0.81895638 -0.82319039 -0.82651508 -0.82860935 -0.80423224 -0.80788672 -0.81095743 -0.81453812 -0.81909633 -0.82428056 -0.82929724 -0.83337969 -0.83600885 -0.77921659 -0.78242773 -0.78516114 -0.78870529 -0.7936753 -0.79969406 -0.80575502 -0.81082201 -0.81414187 -0.707461 -0.71180767 -0.71577102 -0.72068453 -0.7271558 -0.73479772 -0.74247032 -0.74891293 -0.75315833 -0.56714618 -0.5751611 -0.58278447 -0.59140444 -0.60137302 -0.61212331 -0.6224252 -0.63089192 -0.63641846 -0.3251332 -0.3394632 -0.35324967 -0.36804754 -0.38380468 -0.39950401 -0.41372025 -0.42501205 -0.43224198 0.054258808 0.033150434 0.012273222 -0.0099430084 -0.032882124 -0.054794058 -0.073842496 -0.088501006 -0.09769105900000001 0.5882923 0.56486058 0.53976035 0.51185071 0.48267102 0.45507255 0.43158665 0.41393059 0.40307188 1.2521723999999999 1.2367834999999998 1.2153962999999999 1.1876563999999998 1.1566242 1.1266491 1.1012553999999999 1.0824785 1.071137 1.9653740000000002 1.9716759999999998 1.9655627 1.947226 1.9218085999999999 1.8954446 1.8728218 1.8563551999999999 1.8466548999999999 2.6019151000000003 2.6407228 2.660641 2.6613369 2.6498958999999997 2.6341897999999997 2.6199801 2.6099834 2.6044865 3.0287039 3.1038063 3.1524843999999996 3.1760459 3.1830397 3.1824152000000003 3.1804247 3.1796887000000003 3.1800627999999995 3.2000889999999997 3.3017015 3.3718903 3.4139242 3.4372687000000006 3.4511707 3.4615541 3.4704025 3.4768739 3.1953987999999995 3.3075492 3.3865568999999995 3.4373574000000002 3.4698687000000006 3.4931135 3.5122125 3.5281591 3.539248 3.1225397999999998 3.2295694 3.3039922999999995 3.3521004 3.3841349999999997 3.4087908 3.4303807999999996 3.4489050000000003 3.4618428 3.0491384999999998 3.140187 3.1999755000000003 3.2358642000000004 3.2585101 3.2765372000000004 3.2938442 3.3098049 3.3213902 2.9802642 3.0506456 3.0909318999999997 3.1091474999999997 3.1164718 3.1218828999999997 3.1294475 3.138514 3.1459898999999996 2.8751792999999997 2.9248383 2.9452238 2.9444687000000003 2.934227 2.9241208999999997 2.9189041000000002 2.9184976000000002 2.9201667000000002 2.6842108 2.7147197999999997 2.7171559 2.6990287 2.6720857999999996 2.6465838 2.6282097999999996 2.6177897 2.6132195 2.3835659 2.3962436 2.3834136000000004 2.3511186 2.3105707000000004 2.2722955000000002 2.2427709 2.223707 2.2136943 1.9925845000000002 1.9890997 1.9644457 1.922525 1.8732905 1.8269444 1.7902793999999997 1.7655964 1.7520001 1.5655691999999999 1.5488453000000002 1.5166852 1.4704808 1.4183819 1.3696482 1.3308383999999998 1.304384 1.2896159 1.162316 1.1368397 1.101975 1.0566478000000001 1.0069886000000001 0.96094215 0.92440671 0.89957798 0.88575339 0.82488763 0.79589099 0.76266146 0.72203588 0.67829311 0.63803566 0.6063621 0.58507377 0.5733543 0.56816375 0.54029548 0.51162452 0.47758216 0.44101632 0.40743056 0.38121483 0.36380485 0.35433874 0.3848978 0.36113876 0.33816838 0.31080559 0.28097665 0.25339964 0.2318947 0.2176469 0.20991093 0.25692418 0.23848742 0.22079597 0.19899961 0.17459391 0.15170093 0.13363853 0.12147482 0.11474101 0.16589749 0.15255062 0.13872246 0.12079923 0.10031377 0.080777794 0.065006912 0.054057598 0.047792405 0.098596245 0.089623004 0.078297004 0.062624514 0.044703871 0.027460605 0.013192266000000001 0.0029714108 -0.0030495523999999998 0.047393337 0.042454898 0.03328836 0.019096553 0.0026443004999999998 -0.013180375 -0.026482701 -0.036217064 -0.042043865 0.0076082647 0.006810069100000001 0.0008725822 -0.011167541000000001 -0.026351153999999998 -0.041439712000000004 -0.054261774000000006 -0.06373921 -0.069445252 -0.024000362 -0.02133809 -0.022601575 -0.030514225 -0.043112129000000006 -0.057019605999999994 -0.069556013 -0.079027936 -0.084760666 -0.04921019099999999 -0.04570365 -0.04231058099999999 -0.044305831 -0.051972866 -0.062869787 -0.073944435 -0.083002761 -0.08873373300000001 -0.066202238 -0.067035988 -0.062982231 -0.059236363 -0.060203657 -0.065622419 -0.073293701 -0.080590978 -0.08565744800000001 -0.063076615 -0.07684843200000001 -0.082771286 -0.079557225 -0.074533671 -0.073361859 -0.07556776700000001 -0.07962945099999999 -0.08316667400000001 -0.022106782000000002 -0.063059226 -0.082974628 -0.09703181699999999 -0.09591078800000001 -0.090769067 -0.087469429 -0.087177426 -0.088339671 0.01571992 -0.026910901 -0.055986851 -0.08941043900000001 -0.10493912 -0.11054717 -0.10786337 -0.10519075 -0.10424069 -0.035120688 -0.038660072000000004 -0.075153582 -0.094712183 -0.11643545 -0.12189826 -0.12379139 -0.12411226 -0.10532155 -0.10910653 -0.13287544 -0.13975695 -0.14532168 -0.14692806 -0.19723773 -0.19515502 -0.18920256 -0.18622074 -0.11841171 -0.11838529 -0.11829077 -0.11808223 -0.11767995 -0.11696771 -0.11579075 -0.11395641 -0.1361635 -0.13613698 -0.13604167 -0.13582909 -0.13541572 -0.13467881 -0.1334537 -0.13153133 -0.14887418 -0.148855 -0.14878237 -0.14860937 -0.14825447 -0.14759789 -0.14647627 -0.14467475 -0.15921274 -0.15920922 -0.15918455 -0.15909575 -0.15886752 -0.15838824 -0.15750141 -0.15599081 -0.16960764 -0.16962737 -0.16967398 -0.16970932 -0.16966639 -0.16944367 -0.16889332 -0.16779627 -0.18167022 -0.18171935 -0.18185596 -0.18204696 -0.18223472 -0.18232909 -0.18218963 -0.18159091 -0.1960149 -0.19609728 -0.1963356 -0.19670308 -0.197152 -0.19760443 -0.19792865 -0.1978917 -0.21246307 -0.2125797 -0.21292311 -0.21347371 -0.21419568 -0.21502632 -0.21584554 -0.21641687 -0.23056933 -0.23071802 -0.23115996 -0.23188369 -0.23286751 -0.23406783 -0.2353805 -0.23657282 -0.25016236 -0.25033736 -0.25086066 -0.2517297 -0.25293723 -0.25445995 -0.25621322 -0.25796843 -0.27121791 -0.27141041 -0.27198878 -0.27295694 -0.27432162 -0.27607638 -0.27815166 -0.28031728 -0.29369774 -0.29389656 -0.2944954 -0.29550302 -0.29693377 -0.29878992 -0.30100587 -0.30334076 -0.31761044 -0.31780326 -0.31838366 -0.31936213 -0.3207531 -0.32255536 -0.32469255 -0.3269062 -0.34303981 -0.34321386 -0.34373784 -0.3446185 -0.34586227 -0.34745413 -0.34929574 -0.35111168 -0.37014619 -0.37029058 -0.37072349 -0.37144473 -0.37244806 -0.37369826 -0.37507358 -0.37629068 -0.39914769 -0.39925379 -0.39956951 -0.40008548 -0.40078092 -0.40160254 -0.40241349 -0.40293509 -0.43029526 -0.43035787 -0.43053868 -0.43082038 -0.43117049 -0.43152472 -0.43174383 -0.43156511 -0.46384159 -0.46385616 -0.46389097 -0.46392184 -0.46390998 -0.46378899 -0.46343005 -0.46259832 -0.49999467 -0.49995768 -0.49983633 -0.49960229 -0.49921593 -0.49861944 -0.49770409 -0.49627045 -0.53886318 -0.53877121 -0.53848308 -0.53796804 -0.5371905 -0.53610677 -0.53463835 -0.53262466 -0.58040732 -0.58025634 -0.57979071 -0.57897729 -0.57778597 -0.57619244 -0.57415479 -0.57155305 -0.62438941 -0.62417626 -0.62352133 -0.62239122 -0.62076384 -0.61864042 -0.61601883 -0.61282235 -0.67026341 -0.66998249 -0.66912448 -0.66765976 -0.6655798 -0.66292149 -0.65973395 -0.6559816 -0.71689641 -0.71653938 -0.71545732 -0.71363115 -0.71108401 -0.70790756 -0.7042169 -0.70002699 -0.76203042 -0.76158369 -0.76023787 -0.75800371 -0.75496209 -0.75129312 -0.7472102 -0.74279267 -0.80160648 -0.80104405 -0.79937053 -0.7966491 -0.7930578 -0.78891271 -0.78457463 -0.78020769 -0.82932055 -0.82860929 -0.82651538 -0.82319063 -0.81895638 -0.81432819 -0.80986488 -0.80583245 -0.83691198 -0.83600855 -0.83337957 -0.82929707 -0.82428074 -0.81909668 -0.81453812 -0.81095725 -0.81529307 -0.81414235 -0.81082213 -0.8057552 -0.79969364 -0.79367507 -0.78870565 -0.78516126 -0.75463498 -0.75315815 -0.74891281 -0.74246973 -0.73479766 -0.72715569 -0.72068453 -0.71577084 -0.6383338 -0.63641769 -0.63089287 -0.62242514 -0.61212301 -0.60137296 -0.59140456 -0.58278483 -0.43472636 -0.43224153 -0.4250122 -0.41372019 -0.3995041 -0.38380504 -0.36804777 -0.35324931 -0.10081574 -0.097691178 -0.088500842 -0.073842585 -0.054794163 -0.032882214 -0.0099429935 0.012273133 0.39941978 0.40307176 0.41393051 0.43158668 0.4550724 0.48267066 0.51185036 0.53975999 1.0673671 1.0711371 1.0824785 1.1012556999999998 1.126649 1.1566236 1.1876559 1.2153965 1.8434884999999999 1.8466551 1.8563553 1.8728205000000002 1.895445 1.9218081999999999 1.9472255 1.9655623 2.6027882 2.6044874 2.6099834 2.6199825 2.6341889 2.6498952 2.6613357000000004 2.6606407 3.1803851 3.1800621 3.1796887000000003 3.1804248999999998 3.1824152000000003 3.1830399 3.1760460999999998 3.1524822999999995 3.47929 3.4768739 3.4704019999999995 3.4615555000000002 3.4511709 3.4372692000000002 3.4139233 3.3718882000000003 3.5432634 3.5392506 3.5281601 3.5122123 3.4931148999999997 3.4698693999999994 3.4373574000000002 3.3865561 3.4665258000000003 3.4618442000000003 3.4489026 3.4303827000000005 3.4087911 3.3841348 3.3521016 3.303993 3.3256538 3.3213925000000004 3.3098056000000002 3.2938437000000005 3.2765379 3.2585108 3.2358658 3.1999752999999997 3.1488879 3.1459919999999997 3.1385145 3.1294470000000003 3.1218839 3.116472 3.1091466 3.0909321 2.9211056 2.9201658 2.9184971 2.9189043 2.9241211 2.9342289 2.9444682999999996 2.9452229 2.6120415 2.6132182999999998 2.6177902000000004 2.628211 2.6465831000000004 2.672086 2.6990287 2.7171569 2.2106581000000003 2.2136943 2.2237072 2.2427704 2.2722957000000004 2.3105707000000004 2.3511176 2.3834119 1.7477362 1.7519997 1.7655956999999998 1.7902796000000003 1.8269441000000002 1.8732903000000003 1.9225245 1.9644457 1.2849416999999999 1.2896161 1.3043837999999999 1.3308381999999999 1.3696476999999998 1.4183818000000001 1.4704807 1.5166833 0.88138664 0.88575339 0.89957798 0.92440641 0.96094197 1.0069889 1.056648 1.1019747 0.56968009 0.57335401 0.58507413 0.60636199 0.63803548 0.67829299 0.72203577 0.76266146 0.35139611 0.35433877 0.36380482 0.38121501 0.40743086 0.44101635 0.47758234 0.51162463 0.20750839 0.20991088 0.21764684 0.23189488 0.2533997 0.28097644 0.31080568 0.33816832 0.11261956 0.1147411 0.12147494 0.13363859 0.15170078 0.17459385 0.19899984 0.22079596 0.045771897 0.047792375 0.054057688 0.065006852 0.080777794 0.10031365 0.1207992 0.1387223 -0.0050269365 -0.003049612 0.0029718279999999997 0.013192266000000001 0.027460515 0.044703871 0.06262458900000001 0.078297153 -0.043971567999999996 -0.042044014000000005 -0.036216915 -0.02648297 -0.013180137 0.0026444495000000003 0.019096448999999998 0.033288583 -0.071333736 -0.069445014 -0.063739121 -0.054261505999999994 -0.041439801 -0.026351094 -0.011167362 0.00087270141 -0.086661994 -0.08476054699999999 -0.07902813 -0.069555998 -0.05701983 -0.04311211400000001 -0.0305143 -0.022601485 -0.090677917 -0.08873376300000001 -0.083002776 -0.073944524 -0.06286981700000001 -0.051972940999999995 -0.04430601 -0.042310834000000005 -0.08746123300000001 -0.085657552 -0.080590874 -0.073293909 -0.065622762 -0.06020385 -0.05923672 -0.062982023 -0.084510103 -0.083166763 -0.079629436 -0.07556808 -0.07336200799999999 -0.074533895 -0.079557404 -0.082771569 -0.089008436 -0.088339761 -0.087177515 -0.087469473 -0.09076938 -0.095911041 -0.0970321 -0.082974717 -0.10432646 -0.10424078 -0.10519087 -0.10786407 -0.11054748 -0.10493964 -0.08941064800000001 -0.055987298 -0.1240452 -0.12411258 -0.12379143 -0.12189851 -0.11643565 -0.09471268199999999 -0.075153947 -0.038660496 -0.14634925 -0.14692844 -0.14532211 -0.13975757 -0.13287595 -0.1091065 -0.10532124 -0.18541695 -0.18622077 -0.18920258 -0.19515502 -0.19723782 -0.11124866 -0.10745612 -0.10236499 -0.09570770699999999 -0.087185338 -0.076578356 -0.063905381 -0.1286694 -0.12463441 -0.11918305 -0.11198528 -0.10265325 -0.090883851 -0.076652348 -0.060383223 -0.14192566 -0.13796651 -0.13251181 -0.12515113 -0.11538126 -0.1027808 -0.087259017 -0.06934125 -0.15355751 -0.14988601 -0.14462896 -0.1372772 -0.12719244 -0.11381968 -0.097021945 -0.077442199 -0.16581683 -0.16255865 -0.15759143 -0.15029079 -0.13987383 -0.12570633 -0.1076238 -0.08630438900000001 -0.18015863 -0.17740795 -0.1728005 -0.16561447 -0.15508662 -0.14057223 -0.12172836 -0.098903775 -0.19708087 -0.19494252 -0.19084629 -0.184195 -0.17447318 -0.16104405 -0.14308687 -0.11955446 -0.21629681 -0.21488008 -0.21164785 -0.20643905 -0.19926913 -0.18963686 -0.17579654 -0.153523 -0.23717642 -0.23659241 -0.23467112 -0.23203254 -0.22960533 -0.22735205 -0.22249538 -0.20567781 -0.25923669 -0.25950831 -0.25917661 -0.25986585 -0.26379925 -0.2719768 -0.28131258 -0.27779326 -0.28206918 -0.28302419 -0.28411931 -0.28795609 -0.29816931 -0.31748584 -0.34367993 -0.36214358 -0.30528149 -0.3065387 -0.30839044 -0.31411704 -0.32846403 -0.35580331 -0.39418316 -0.42401183 -0.32868636 -0.32976785 -0.33144665 -0.33710411 -0.35161352 -0.37844861 -0.40796199 -0.41755331 -0.35241279 -0.35292313 -0.35366407 -0.35740772 -0.36789969 -0.38528341 -0.39706892 -0.39547166 -0.37689388 -0.376625 -0.37609607 -0.37711215 -0.3817406 -0.38850689 -0.38989258 -0.38758469 -0.40275258 -0.40164989 -0.3999438 -0.39853182 -0.39824736 -0.39761961 -0.39463562 -0.39395002 -0.43061939 -0.42870089 -0.4260124 -0.42293888 -0.41971821 -0.41541535 -0.41050354 -0.40972212 -0.46096563 -0.45830876 -0.4547331 -0.45051396 -0.4457494 -0.44002831 -0.43444178 -0.43308094 -0.49402475 -0.49070776 -0.48631418 -0.48109123 -0.47528055 -0.468826 -0.46276027 -0.46042594 -0.52980089 -0.52586472 -0.52070415 -0.51454389 -0.50773716 -0.50046426 -0.49335533 -0.48986873 -0.56814694 -0.56359458 -0.55768728 -0.55061567 -0.54281557 -0.53460634 -0.52625823 -0.52171534 -0.60882956 -0.60366255 -0.59703356 -0.58907849 -0.58027637 -0.5710609 -0.5616051 -0.55654669 -0.65145409 -0.64573812 -0.63848019 -0.62975532 -0.6200158 -0.60976285 -0.59951603 -0.59453225 -0.69512761 -0.68905395 -0.68139654 -0.67217892 -0.66178751 -0.65058929 -0.63983327 -0.63545579 -0.73781234 -0.73172885 -0.72407639 -0.71485823 -0.70446575 -0.69273996 -0.68161476 -0.67828751 -0.77554667 -0.76992881 -0.76281512 -0.75426489 -0.74489951 -0.73366821 -0.72222722 -0.72007936 -0.80189276 -0.79719418 -0.79109514 -0.78385031 -0.77679002 -0.76774907 -0.75613236 -0.75474894 -0.80788678 -0.80423176 -0.79924458 -0.7935915 -0.78987724 -0.78534687 -0.77394927 -0.77249098 -0.78242821 -0.77921671 -0.77471066 -0.77008098 -0.76986653 -0.77185285 -0.76134789 -0.75843287 -0.71180797 -0.7074613 -0.70172518 -0.69603074 -0.69744152 -0.70570815 -0.69639361 -0.68952632 -0.57516122 -0.56714571 -0.55729842 -0.54736108 -0.54604667 -0.55504209 -0.54568136 -0.53099686 -0.33946335 -0.32513344 -0.30849046 -0.29167348 -0.28435209 -0.28414088 -0.2684665 -0.2405263 0.0331503 0.054258645 0.07728734599999999 0.09998718599999999 0.11775281 0.13983603 0.16764161 0.21807283 0.56485999 0.58829212 0.61181104 0.63658231 0.67143011 0.71706372 0.75597495 0.82165933 1.2367833000000001 1.2521722 1.2646846 1.2831117 1.3251098 1.3710612 1.4058666000000002 1.4818208000000002 1.9716752 1.9653732 1.9542297 1.9555765 1.9774273999999998 1.9892685 1.9978898 2.057936 2.6407251 2.6019148999999997 2.5564916 2.5191209 2.4918077000000003 2.445049 2.4090792999999997 2.4404863999999997 3.1038042999999997 3.0287056 2.9383564 2.8451883999999996 2.7521074 2.6496289 2.5556829 2.5786772 3.3017037000000005 3.2000884999999997 3.0752325000000003 2.9392645 2.7941699 2.6513743 2.4977839 2.5504036 3.30755 3.1953981 3.0546968 2.8973497999999998 2.7283730999999998 2.5798028 2.3808129 2.4571482999999996 3.2295692000000003 3.1225389999999997 2.9849112 2.8277335 2.659925 2.5109246 2.2938167999999997 2.3802388 3.1401882000000003 3.0491395 2.9273131 2.7867507999999996 2.6337097000000003 2.4809843999999996 2.2688725 2.3598613999999998 3.0506461 2.9802642 2.8796825 2.7612944 2.6245942 2.4732499 2.2785697 2.3720898999999998 2.9248371 2.8751781000000003 2.7965519 2.7001834 2.5818679 2.4431800999999997 2.2688589 2.3614767000000003 2.7147195 2.6842102999999997 2.6271377 2.5531224999999997 2.4572979999999998 2.3418951 2.1952195 2.2858505 2.396244 2.3835648999999997 2.3486269 2.2998297 2.2319264 2.1497445 2.0461142 2.1367652 1.9890995999999999 1.9925853999999998 1.9801959999999998 1.9589431000000002 1.9266651999999997 1.8862085 1.8327147000000001 1.9260504 1.5488453000000002 1.5655708000000002 1.574398 1.5814626 1.5828649 1.5944812 1.592667 1.6845831000000002 1.1368401000000001 1.162316 1.1881244 1.2227441000000001 1.2552979 1.3093683 1.3599912 1.4491315 0.7958914 0.82488823 0.86095762 0.91632813 0.9785803 1.0535421 1.1433305 1.2384098 0.54029578 0.56816435 0.60738039 0.67200649 0.75478661 0.84134865 0.94795513 1.0489313999999998 0.36113915 0.3848981 0.42167187 0.48534399 0.57402468 0.67112672 0.76589692 0.87692225 0.23848754 0.2569243 0.28738657 0.3431972 0.42463207 0.52321529 0.61248225 0.72095001 0.1525505 0.16589752 0.18874416 0.23323482 0.29908603 0.38574678 0.4897956 0.60065293 0.08962312300000001 0.098596454 0.11371464 0.14599067 0.18970685 0.25525492 0.36884561 0.48339745 0.042454988 0.047393292000000004 0.055740207 0.07383195299999999 0.093893915 0.14692056 0.268879 0.006810069100000001 0.0076083541 0.010111123 0.013714135 0.016589232 0.077579282 0.19396324 -0.021337956 -0.024000481 -0.025732681 -0.03658551 -0.028035782000000002 0.055586014 -0.04570365 -0.04921042900000001 -0.053760200999999994 -0.07035865599999999 -0.026074581 0.060476120999999994 -0.067036211 -0.06620219299999999 -0.065657139 -0.057535924 0.02159211 -0.07684843200000001 -0.063076928 -0.030593707999999997 0.0044371411 -0.063059375 -0.02210702 0.038323671000000004 -0.005673043399999999 -0.026911183999999998 0.015719302 -0.035121128 
VonMises3D 1 2975 float
0.0 0.0 0.0 0.0 0.0 0.0 0.0 0.0 0.0 0.0 0.0 0.0 0.0 0.0079021025 1.0013459999999999e-12 0.058052473 0.32552591 0.1225905 0.86866313 2.259388 1.1411256 4.1474476000000005 8.228089299999999 4.3946009 12.200791 21.223537 11.15526 26.984234000000004 43.691254 21.892609 49.001804 76.16391800000001 35.795895 76.564644 116.18681000000001 50.940502 106.07072 158.50732 65.154961 133.53445 197.26295 77.077751 156.48322 228.9736 86.755554 174.89586 254.45219 101.00106 191.21568 281.85834 189.35973 233.14626 333.44998 551.7665400000001 478.75397000000004 442.02304000000004 1536.0406 1270.2428 604.46649 3682.2698 2961.6768 732.48956 5590.8721 908.53094 0.0 0.0 0.0 0.0 0.0 0.0 0.0 0.0 0.0 0.0 0.0 0.0 0.0 0.0 0.0 0.0 0.0 0.0 0.0 0.0 0.0 0.0 0.0 0.0 0.0 0.0005031920200000001 0.0015687372 0.00090017734 0.0011119947 0.0019820451 0.0022268451 0.0023624168 0.04926122 0.10450992 0.12720454 0.09393847699999999 0.016699376000000002 0.066904299 0.11703774 0.13014488 0.7084294 0.98389339 1.0030614 0.72965497 0.23478997 0.3099288 0.72131979 0.92503506 3.5954466 4.2826905 4.06073 2.9031412999999997 1.0509456 0.96084273 2.5501761000000003 3.4496722 11.421639 12.642091 11.53915 8.1490784 3.0807135 2.3575525 6.7247372 9.3146677 27.442932 29.207404999999998 26.103004000000002 18.270160999999998 7.0197539 4.883667 14.467893 20.270376000000002 54.346630000000005 56.652992000000005 50.044025 34.715244 13.289531 8.930246400000001 26.674528000000002 37.48127 92.766998 95.675797 83.874077 57.44283299999999 21.451862 14.793705 43.300369 60.614456000000004 139.87175 143.31981000000002 124.17008 189.15173000000001 192.46016 233.10172000000003 234.45619 267.68021 265.64746 294.77441 288.32761 340.84677 341.51223999999996 548.54755 670.92743 1202.1609 1704.661 2581.5322 3903.353 4754.3252 7562.9653 7129.2163 12043.308 0.0 0.0 0.0 0.0 0.0 0.0 0.0 0.0 0.0 0.0 0.0 0.0 0.0 0.0 0.0 0.0 0.0 0.0 0.0 0.0 0.0 0.0 0.0 0.0 0.0 0.0 0.0 0.0024194578 0.0024221723000000003 0.0023918617999999997 0.0023476279 0.0022965081 0.0022453163 0.0022001665 0.0021647389999999997 0.0021424002 0.13110977 0.12757841 0.12164676 0.11479317 0.10795103 0.10170138 0.09641674199999999 0.09241694199999999 0.089928359 0.95893735 0.92562819 0.8692373 0.8039012 0.73880392 0.67965585 0.63019162 0.59298772 0.56990767 3.7328824999999997 3.6329122000000003 3.3921358999999995 3.104979 2.8156211 2.5519559 2.3315837000000004 2.1662533 2.0638758999999998 10.267422 10.132166999999999 9.4585276 8.6165495 7.7549834 6.964782700000001 6.303063900000001 5.8065963 5.4993590999999995 22.532976 22.389328 20.960831 19.05162 17.068403 15.23595 13.696616 12.540567 11.825078999999999 41.796062 41.629814 39.043079 35.439819 31.648729 28.122009000000002 25.149691 22.914341 21.530281 67.56154599999999 67.29422 63.122059 57.244682 50.994701 45.147079 40.203655 36.480548999999996 34.17403 0.0 0.0 0.0 0.0 0.0 0.0 0.0 0.0 0.0 0.0 0.0 0.0 0.0 0.0 0.0 0.0 0.0 0.0 0.0 0.0 0.0 0.0 0.0 0.0 0.0021347753 0.0021424002 0.0021647387 0.0022001662 0.0022453163 0.0022965085000000002 0.0023476284 0.0023918613 0.089081593 0.089928359 0.092416935 0.096416764 0.10170142 0.10795106 0.11479317 0.12164676 0.56209421 0.56990767 0.59298784 0.6301918 0.67965591 0.73880404 0.80390137 0.86923748 2.0292199 2.0638758999999998 2.1662538 2.3315842 2.5519569 2.8156218999999996 3.1049797999999997 3.3921362999999998 5.39538 5.4993590999999995 5.8065968 6.3030653 6.9647841 7.754987700000001 8.6165524 9.4585285 11.582925 11.82508 12.540569 13.696617999999999 15.235954999999999 17.068407 19.051624 20.960832999999997 21.061852 21.530289 22.914347 25.149696 28.122021000000004 31.648731 35.439827 39.043091 33.393341 34.174038 36.480553 40.203663 45.147083 50.994717 57.244690000000006 63.122074 0.0 0.0 0.0 0.0 0.0 0.0 0.0 0.0 0.0 0.0 0.0 0.0 0.0 0.0 0.0 0.0 0.0 0.0 0.0 0.0 0.0 0.0 0.0 0.0 0.0 0.0 0.0 0.0024221723000000003 0.0024194582000000003 0.0023624173 0.0022268449 0.0019820449 0.0011119947 0.00090017647 0.0015687369 0.00050319196 0.12757838 0.13110977 0.13014489 0.11703774 0.066904292 0.016699385 0.093938492 0.12720452 0.1045099 0.92562819 0.95893753 0.92503506 0.72131985 0.30992875 0.23479018 0.72965509 1.0030614 0.98389333 3.6329129 3.7328824999999997 3.449672 2.5501766 0.96084243 1.0509458 2.903142 4.0607305 4.282691000000001 10.132166999999999 10.267422 9.3146677 6.724736200000001 2.3575521 3.0807145 8.1490784 11.53915 12.642092 22.389328 22.532976 20.270374 14.467893 4.8836675000000005 7.019756299999999 18.270167999999998 26.10301 29.207409000000002 41.629818 41.79607 37.481277 26.674526 8.9302483 13.289532000000001 34.715244 50.044037 56.652981000000004 67.294235 67.561562 60.614464 43.300377000000005 14.793707999999999 21.451866 57.442852 83.874092 95.675812 124.17008 143.31981000000002 192.46016 234.45616 265.64743 288.32757999999995 341.51227 670.92743 1704.6609 3903.3535 7562.9668 12043.308 0.0 0.0 0.0 0.0 0.0 0.0 0.0 0.0 0.0 0.0 0.0 0.0 0.0 0.0 0.0 0.049261197 0.0079021007 0.0 0.0 0.70842928 0.32552576 0.058052454 1.0013459e-12 3.5954455999999997 2.2593877 0.86866289 0.1225905 11.421638 8.228089299999999 4.1474471 1.1411254 27.442936 21.223534 12.200785 4.3945999 54.346630000000005 43.691246 26.98423 11.155258 92.76700600000001 76.16391 49.001804 21.892607 139.87177 116.18678999999999 76.56462900000001 35.795895 189.15175 158.50734 106.07072 50.940506 233.10176 197.26295 133.53447 65.15496800000001 267.68021 228.9736 156.48323 77.077751 294.77443999999997 254.45219 174.89588999999998 86.75554699999999 340.8468 281.85834 191.21565 101.00106 548.54773 333.44992 233.14623999999998 189.35971 1202.1611 442.02313 478.75394000000006 551.7666 2581.5322 604.46649 1270.2432 1536.0405 4754.3252 732.4896200000001 2961.6768 3682.2698 7129.2163 908.53082 5590.8716 0.0 0.0 0.0 0.0 0.0 0.0 0.0 0.0 0.0 0.0 0.0 0.0 0.0 0.0 0.0 0.0 0.0 0.0 0.0 0.0 0.0 0.0 0.0 0.0 0.0 0.0 0.0 0.0 0.0 0.0 0.0 0.0 0.0 0.0 0.0 0.0 0.0 0.0 0.0 0.0 0.0 0.0 0.0 0.0 0.0 0.0 0.0 0.0 0.0 0.0 0.0 0.0 0.0 0.0 0.0 0.0 0.0 0.0 0.0 0.0 0.0 0.0 0.0 0.0 0.0 0.0 0.0 0.0 0.0 0.0 0.0 0.0 0.0 0.0 0.0 0.0 0.0 0.0 0.0 0.0 0.0 0.0 0.0 0.0 0.0 0.0 0.0 0.0 0.0 0.0 0.0 0.0 0.0 0.0 0.0 0.0 0.0 0.0 0.0 0.0 0.0 0.0 0.0 0.0 0.0 0.0 0.0 0.0 0.0 0.0 0.0 0.0 0.0 0.0 0.0 0.0 0.0 0.0 0.0 0.0 0.0 0.0 0.0 0.0 0.0 0.0 0.0 0.0 0.0 0.0 0.0 0.0 0.0 0.0 0.0 0.0 0.0 0.0 0.0 0.0 0.0 0.0 0.0 0.0 0.0 0.0 0.0 0.0 0.0 0.0 0.0 0.0 0.0 0.0 0.0 0.0 0.0 0.0 0.0 0.0 0.0 0.0 0.0 0.0 0.0 0.0 0.0 0.0 0.0 0.0 0.0 0.0 0.0 0.0 0.0 0.0 0.0 0.0 0.0 0.0 0.0 0.0 0.0 0.0 0.0 0.0 0.0 0.0 0.0 0.0 0.0 0.0 0.0 0.0 0.0 0.0 0.0 0.0 0.0 0.0 0.0 0.0 0.0 0.0 0.0 0.0 0.0 0.0 0.0 0.0 0.0 0.0 0.0 0.0 0.0 0.0 0.0 0.0 0.0 0.0 0.0 0.0 0.0 0.0 0.0 0.0 0.0 0.0 0.0 0.0 0.0 0.0 0.0 0.0 0.0 0.0 0.0 0.0 0.0 0.0 0.0 0.0 0.0 0.0 0.0 0.0 0.0 0.0 0.0 0.0 0.0 0.0 0.0 0.0 0.0 0.0 0.0 0.0 0.0 0.0 0.0 0.0 0.0 0.0 0.0 0.0 0.0 0.0 0.0 0.0 0.0 0.0 0.0 0.0 0.0 0.0 0.0 0.0 0.0 0.0 0.0 0.0 0.0 0.0 0.0 0.0 0.0 0.0 0.0 0.0 0.0 0.0 0.0 0.0 0.0 0.0 0.0 0.0 0.0 0.0 0.0 0.0 0.0 0.0 0.0 0.0 0.0 0.0 0.0 0.0 0.0 0.0 0.0 0.0 0.0 0.0 0.0 0.0 0.0 0.0 0.0 0.0 0.0 0.0 0.0 0.0 0.0 0.0 0.0 0.0 0.0 0.0 0.0 0.0 0.0 0.0 0.0 0.0 0.0 0.0 0.0 0.0 0.0 0.0 0.0 0.0 0.0 0.0 0.0 0.0 0.0 0.0 0.0 0.0 0.0 0.0 0.0 0.0 0.0 0.0 0.0 0.0 0.0 0.0 0.0 0.0 0.0 0.0 0.0 0.0 0.0 0.0 0.0 0.0 0.0 0.0 0.0 0.0 0.0 0.0 0.0 0.0 0.0 0.0 0.0 0.0 0.0 0.0 0.0 0.0 0.0 0.0 0.0 0.0 0.0 0.0 0.0 0.0 0.0 0.0 0.0 0.0 0.0 0.0 0.0 0.0 0.0 0.0 0.0 0.0 0.0 0.0 0.0 0.0 0.0 0.0 0.0 0.0 0.0 0.0 0.0 0.0 0.0 0.0 0.0 0.0 0.0 0.0 0.0 0.0 0.0 0.0 0.0 0.0 0.0 0.0 0.0 0.0 0.0 0.0 0.0 0.0 0.0 0.0 0.0 0.0 0.0 0.0 0.0 0.0 0.0 0.0 0.0 0.0 0.0 0.0 0.0 0.0 0.0 0.0 0.0 0.0 0.0 0.0 0.0 0.0 0.0 0.0 0.0 0.0 0.0 0.0 81.59500899999999 29.83206 22.203274 62.564147999999996 86.933472 150.56277 104.21901 36.324558 30.387890000000002 81.566879 112.23257 181.28355 121.2602 39.460255 39.01062 98.356972 133.42815 202.63812 131.37407 38.648029 48.056847 112.28098999999999 149.33682 215.42519 134.93639 34.154583 57.488167000000004 123.49963000000001 160.33722 253.56152000000003 154.66971 44.991226 68.116562 132.72563 167.85023 569.28571 381.20169 181.43222 101.08536 142.88678000000002 174.7388 1538.6379 1078.4812 561.1906700000001 234.49228 166.74294 187.01289 3469.6995 2421.2847 1276.4058 519.48938 235.3311 215.44097999999997 6325.5571 4329.8213 2260.1567 919.07715 363.14761 274.79944 9097.958 6166.3091 3175.7058 1294.1855 521.22028 378.76785 10411.313 6973.5342 3558.2959 1473.4087 681.12866 537.53015 9775.5615 6355.3896 3208.6357 1427.8708 869.8344699999999 757.62323 7226.0605 4671.3276 2446.5674 1392.7571 1140.6449 1034.3766 4549.0322 3120.2656 2011.8076 1616.8983 1483.6145 1348.6636 3252.0874 2646.6306 2190.5413 1991.9385 1843.9219 1677.5376 3118.4209 2814.3127 2537.0649 2357.7246 2189.5168 2007.0514 3271.9712 3054.7102 2843.4194 2687.2417 2520.3457 2334.4221 3481.0247 3296.4834 3130.7986 3006.8694 2849.741 2664.0251 3754.7932 3579.1672 3440.7898 3341.8564 3191.2302 3003.4592 4100.9556 3920.9661 3794.6716 3707.9395 3555.0735 3358.9417 4522.4248 4329.5386 4201.0771 4110.645 3944.3484 3731.9438 5020.8457 4804.3271 4653.3643 4542.8892 4353.6479 4118.541 5596.4229 5331.6973 5127.7983 4986.7041 4771.6655 4512.1753 6230.5674 5875.5659 5583.9072 5419.4536 5188.8691 4910.5366 6878.7549 6376.084 5976.0776 5831.4766 5612.439 5327.2764 7474.2378 6772.5659 6287.2598 6253.7319 6087.6138 5808.4746 7933.5161 7023.8301 6561.0127 6777.6958 6714.4746 6447.7192 8210.292 7172.5889 6925.3569 7553.3447 7642.3652 7383.1089 8386.8184 7407.4541 7591.4199 8739.1982 9014.4551 8760.5908 8839.0283 8158.7666 8842.9863 10392.183 10878.742 10660.743999999999 10418.976 10219.528 10803.203000000001 12422.953000000001 13149.341999999999 13043.383999999998 13954.858999999999 14119.09 14150.542 14885.02 15602.561000000002 15722.611 18518.359 19053.213 18708.984 18021.736 18115.26 18408.563000000002 21151.305 22271.756 22279.402000000002 21071.347999999998 20408.904 20782.305 21617.178 23059.257999999998 23995.791 23281.311 22329.271 22645.324 20721.057 22110.917999999998 23992.504 24188.365 23567.586 23941.25 19644.057 20864.895 22082.857000000004 23051.709 23407.807 24385.316000000003 19450.682 20621.443 20820.189 22195.612999999998 23232.998 24610.83 20102.762 21254.042999999998 20926.875 22102.824 23355.17 24853.933999999997 20967.262 22138.172000000002 21749.221 22626.951 23744.334 25134.686 21614.838 22842.147999999997 22677.892999999996 23409.086 24194.862999999998 25353.805 21542.952999999998 22841.451 23005.73 23823.959 24402.305 25376.211 20953.176 22281.756 22730.292999999998 23715.482000000004 24232.612999999998 25109.229 20167.881 21441.639 22047.451 23149.014 23686.303 24528.529 19349.891 20539.51 21130.262000000002 22199.324 22798.504 23659.305 18520.883 19618.42 19997.029 20942.842 21615.688 22544.827999999998 17695.093999999997 18636.486 18689.752 19425.063000000002 20291.496 21238.772999999997 16686.218999999997 17493.479 17197.213 17973.268 18907.438000000002 19765.545 15295.438 16004.845 15593.04 16600.121 17370.654 18137.107 13484.363000000001 14146.133999999998 13975.806 15104.391000000001 15706.948999999999 16398.676 11325.416000000001 12053.47 12397.316 13560.523000000001 14061.83 14632.73 8880.1533 10052.004 11026.253999999999 12134.701000000001 12538.649 12923.021 7511.188 8979.7715 10040.181999999999 11034.173 11273.631000000001 11387.913 8714.7324 8256.9248 9575.6934 10424.254 10482.89 10165.171 6879.0054 9305.0898 10310.794 10258.851 9434.8379 5650.3735 8476.6563 10219.197 10423.985 9285.4482 6107.8755 9414.7217 10510.651000000002 9576.3818 4930.8232 7148.4302 9709.2148 9789.8955 3986.0281 7238.707 9104.833 3540.8569 6641.7383 5670.0522 3065.2769 96.656212 96.165276 90.156898 81.71633100000001 72.66655 64.155029 56.938331999999996 51.495235 48.121082 124.31606000000001 123.50723 115.79116 105.01109 93.36125200000001 82.34133100000001 72.965675 65.88225600000001 61.48774 146.91898999999998 145.68986999999998 136.7238 124.28191000000001 110.7143 97.790154 86.74616999999999 78.382385 73.187263 162.98492 161.20618000000002 151.62383 138.43643 123.89653999999999 109.92076999999999 97.905968 88.773224 83.089355 173.07013 170.73943 161.26097 148.29793999999998 133.79323 119.66695 107.40896000000001 98.03443100000001 92.18006899999999 179.23928999999998 176.72876000000002 168.14815 156.36713999999998 142.83595 129.36072 117.47905 108.29638999999999 102.52634 184.84328 182.87883 176.07034 166.39388 154.63283 142.41533 131.32971 122.60421000000001 117.06225 195.23805 194.16098 189.86496 183.034 173.59711000000001 162.96864 152.83586 144.61833000000001 139.30893 218.95477000000002 217.57066 215.59665 211.72902000000002 204.68903999999998 195.57883999999999 186.22632 178.32129 173.09599 267.88406000000003 262.60843 260.79706 258.68921 253.23803999999998 244.96962000000002 235.80457 227.73697 222.287 355.47888 340.20257999999995 333.90134 330.4808 324.54932 315.63376 305.55371 296.54233 290.39667000000003 493.05753 459.9783 442.59119000000004 433.00775 423.20955999999995 411.29752 398.6806 387.65227999999996 380.19482 685.4478799999999 627.06757 591.65137 570.1925 552.27899 534.38965 517.2221099999999 502.8913 493.40704000000005 928.1862199999999 840.04169 781.3582200000001 742.88745 712.6206099999999 685.6247599999999 661.76624 642.77832 630.52557 1208.7501 1091.3053 1007.3384 948.5875900000001 902.66095 863.85828 831.3702400000001 806.47455 790.76581 1512.0449 1369.9697 1262.0874 1182.1686 1118.776 1066.3325 1023.7505 991.94476 972.2138699999999 1826.277 1665.8231 1537.4783 1437.4332 1356.2446 1289.3082 1235.7585 1196.3666 1172.2064 2145.562 1972.2104 1827.0863 1708.8328 1610.4878 1528.9867 1464.1251 1416.7964 1387.9713 2470.0469 2286.6912 2127.3381 1992.7233 1878.2493 1782.5859 1706.4797 1651.1658 1617.6216 2803.1782 2609.8643 2437.4292 2287.9568 2158.5798 2049.55 1962.6759 1899.6675 1861.5688 3148.3 2943.4734 2758.6697 2596.1868 2453.821 2332.96 2236.4265 2166.4783 2124.2729 3506.342 3289.1191 3094.2405 2922.519 2770.8792 2641.1641 2537.0977 2461.5984 2416.0728 3875.666 3648.655 3450.1526 3276.896 3122.8376 2989.4355 2881.3176 2802.4001 2754.6897 4254.7397 4026.7102 3837.5261 3676.0359 3530.4868 3401.1328 3293.8528 3214.3113 3165.801 4647.8042 4434.9141 4275.3408 4144.9053 4022.8496 3907.5667 3807.0613 3730.0215 3682.123 5073.2397 4896.8867 4792.3853 4716.4326 4635.5347 4545.6606 4458.2471 4386.7485 4340.6782 5574.7217 5453.6479 5427.8843 5429.0073 5406.5625 5353.1064 5284.7192 5221.4316 5178.1396 6233.0303 6170.2729 6232.3887 6323.27 6371.2134 6362.6255 6318.1563 6265.4556 6225.9131 7167.8003 7139.6772 7270.6807 7442.397 7560.4312 7599.998 7583.0464 7543.7803 7509.7959 8514.6348 8473.6855 8623.793 8839.3369 9008.8926 9091.8213 9104.3799 9082.7451 9057.9717 10372.76 10271.747 10378.595 10582.423999999999 10768.351 10880.854 10922.745 10924.339 10914.591999999999 12748.468 12573.498 12594.567 12737.936000000002 12902.961000000001 13027.438 13097.593 13129.605 13142.758 15515.398000000001 15314.292 15259.448 15330.409 15457.303999999998 15584.319 15685.434 15758.184 15804.532 18413.838 18304.668 18254.211 18297.574 18406.98 18548.064 18693.127 18822.307 18915.105 21109.262000000002 21252.775 21346.354 21460.242000000002 21613.115 21804.949 22019.468999999997 22225.635 22379.725 23302.762000000002 23835.313 24222.996 24526.797000000002 24806.146 25101.414 25418.576 25723.623 25952.359 24850.535 25803.227000000003 26571.404 27154.096 27633.593999999997 28084.791 28538.582000000002 28963.4 29278.232000000004 25736.354 27080.303 28196.887000000002 29067.662 29776.093999999997 30413.896 31027.248 31584.998 31991.709 26216.545 27770.826 29109.779 30200.16 31108.016 31922.15 32690.058999999997 33375.027 33867.934 26489.004 28065.324 29476.373 30677.266 31710.115 32649.74 33534.98 34318.516 34878.301 26652.799 28126.314 29489.281000000003 30692.771 31759.824 32751.271 33694.742 34531.266 35128.227 26707.702999999998 28032.531000000003 29282.592 30411.439 31433.961 32404.021 33342.191 34181.395 34782.762 26591.688 27782.449 28906.754 29923.691000000003 30850.682 31743.813 32623.9 33422.512 33999.781 26236.539 27333.01 28348.867000000002 29248.189 30057.51 30842.16 31630.412 32359.308999999997 32892.848 25606.308999999997 26642.49 27573.217 28364.951 29055.006 29721.191000000003 30403.49 31048.887000000002 31528.982000000004 24705.256 25697.17 26558.342 27255.59 27835.452999999998 28387.542999999998 28964.014 29523.686 29947.947 23564.1 24514.232000000004 25313.119 25927.605 26410.162 26858.975 27336.507999999998 27813.537 28182.615 22220.949 23126.611 23868.257999999998 24411.767999999996 24811.438 25169.576 25556.326 25954.132999999998 26268.327999999998 20702.531000000003 21564.715 22258.82 22747.217 23081.715 23363.955 23668.994 23990.77 24249.777000000002 19026.91 19852.539 20514.781000000003 20969.473 21261.572 21487.27 21723.215 21974.314 22179.022999999997 17220.893 18013.588 18659.213 19103.123 19379.183999999997 19572.777 19757.68 19948.166 20102.744 15341.091 16080.896 16714.492 17164.506 17449.314 17637.57 17794.186 17939.885 18053.135 13466.423999999999 14106.786 14710.963 15170.712 15480.987 15687.796999999999 15840.513 15961.827 16047.018 11687.44 12166.112 12698.831 13153.492 13490.646 13729.237 13898.238000000001 14016.525 14089.726999999999 10102.306999999999 10351.403 10755.885 11169.616000000002 11515.298 11781.428 11975.197 12106.121000000001 12181.792 8835.3838 8754.7471 8977.0254 9298.3516 9616.8164 9887.9434 10098.203000000001 10244.507 10329.389000000001 8068.3071 7490.415 7449.6699 7627.8145 7871.6587 8112.8667 8316.5449 8466.2979 8556.2598 7954.7163 6752.8101 6271.127 6231.041 6354.168 6524.7178 6691.1953 6823.7217 6906.9683 8331.751 6717.3818 5629.9482 5190.7085 5119.4419 5181.5967 5279.7515 5372.2158 5435.2124 8639.2607 7143.1943 5664.6206 4681.3779 4242.0923 4121.8379 4123.4893 4158.0908 4189.3325 7983.3799 7407.0845 6019.8706 4715.3174 3829.4268 3392.9624 3240.2356 3202.7583 3198.052 5442.2261 6506.5439 6002.0342 4830.2983 3728.1582 2987.9036 2628.1516 2499.0383 2458.644 2356.3381 3728.7725 4643.9067 4378.6025 3530.666 2713.8726 2221.302 2014.4724 1945.6266 2020.9401 2149.3269 2703.1111 2662.7441 2225.7297 1818.5262 1608.203 1535.9316 1522.4198 1501.8925 1476.1901 1345.6268 1226.9484 1162.5762 1374.0652 1241.1504 1168.057 1123.6222 46.978851 48.121082 51.495251 56.938343 64.155052 72.666557 81.716362 90.156921 59.999699 61.487731999999994 65.882278 72.965698 82.34135400000001 93.36129 105.01111999999999 115.79116 71.427307 73.187271 78.382401 86.746193 97.790192 110.71433 124.28192 136.72382 81.162193 83.089363 88.773239 97.905991 109.92081 123.89656000000001 138.43643 151.62384 90.192162 92.180084 98.034454 107.40897 119.66698000000001 133.79326 148.29797 161.26099 100.56187 102.52635 108.2964 117.47908999999999 129.36072 142.83598 156.36716 168.14815 115.16626000000001 117.06225 122.60421000000001 131.32973 142.41536000000002 154.63286000000002 166.39389 176.07033 137.47823 139.30893 144.61831999999998 152.83591 162.96866 173.59714 183.03404 189.86496 171.27577 173.09604 178.32133000000002 186.22638 195.5789 204.68903999999998 211.72905 215.59665 220.36995 222.28697000000003 227.73701 235.80457 244.96964 253.23801 258.68921 260.79708999999997 288.22476 290.39667000000003 296.54236000000003 305.5538 315.63379 324.54941 330.48077 333.90134 377.56662 380.19482 387.65234 398.6806 411.29755 423.20955999999995 433.00775 442.59122 490.09314000000006 493.40704000000005 502.89145 517.2221099999999 534.3897099999999 552.27911 570.19244 591.65137 626.29108 630.52557 642.77838 661.76624 685.6247599999999 712.62054 742.88733 781.35815 785.39282 790.76563 806.47461 831.3702400000001 863.8584 902.66089 948.5871599999999 1007.3384 965.52173 972.2139900000001 991.9450099999999 1023.7506 1066.3323 1118.7758 1182.1683 1262.0869 1164.061 1172.2064 1196.3666 1235.7587 1289.3082 1356.2441 1437.4323 1537.4775 1378.2909 1387.9717 1416.7968 1464.1256 1528.9867 1610.4873 1708.832 1827.0852 1606.3851 1617.6216 1651.1665 1706.4796 1782.5858 1878.2485 1992.7224 2127.3367 1848.8313 1861.5688 1899.6675 1962.6759 2049.55 2158.5789 2287.9558 2437.4275 2110.1848 2124.2734 2166.479 2236.4275 2332.96 2453.8201 2596.1855 2758.6682 2400.8901 2416.0737 2461.5989 2537.0986 2641.1641 2770.8782 2922.5176 3094.2388 2738.7681 2754.6904 2802.4009 2881.3186 2989.4368 3122.8374 3276.8953 3450.1509 3149.5522 3165.8013 3214.3127 3293.854 3401.1333 3530.4868 3676.0352 3837.5247 3665.9409 3682.1243 3730.0222 3807.062 3907.5676 4022.8496 4144.9048 4275.3394 4324.8672 4340.6797 4386.75 4458.2476 4545.6611 4635.5347 4716.4321 4792.3843 5162.9082 5178.1411 5221.4321 5284.7212 5353.1064 5406.5625 5429.0078 5427.8838 6211.5103 6225.9141 6265.457 6318.1577 6362.627 6371.2129 6323.27 6232.3872 7496.8516 7509.7959 7543.7817 7583.0469 7599.999 7560.4312 7442.3984 7270.6807 9047.9082 9057.9717 9082.7451 9104.3809 9091.8223 9008.8936 8839.3369 8623.793 10909.788 10914.595 10924.341 10922.746000000001 10880.855 10768.35 10582.423 10378.593 13146.483 13142.758 13129.605 13097.593 13027.437 12902.96 12737.935 12594.568000000001 15820.983999999999 15804.534 15758.181 15685.434 15584.321000000002 15457.303999999998 15330.409 15259.442 18949.471 18915.105 18822.307 18693.127 18548.066000000003 18406.984 18297.578 18254.213 22437.541 22379.725 22225.641 22019.471 21804.949 21613.115 21460.242000000002 21346.352000000003 26038.201 25952.357000000004 25723.627 25418.576 25101.417999999998 24806.145 24526.795 24222.996 29395.777000000002 29278.227000000003 28963.4 28538.582000000002 28084.789 27633.588 27154.093999999997 26571.408 32142.436 31991.705 31584.998 31027.244 30413.891 29776.093999999997 29067.67 28196.887000000002 34049.477 33867.941 33375.02 32690.058999999997 31922.152000000002 31108.021 30200.16 29109.785 35083.715 34878.297 34318.516 33534.98 32649.736 31710.119 30677.267999999996 29476.375 35347.105 35128.223 34531.262 33694.742 32751.26 31759.826 30692.775 29489.289 35003.676 34782.754 34181.387 33342.184 32404.021 31433.961 30411.441000000003 29282.592 34212.719 33999.777 33422.516 32623.897999999997 31743.811 30850.693 29923.683999999997 28906.754 33090.859 32892.852 32359.307 31630.412 30842.16 30057.514 29248.197 28348.865 31708.525 31528.984 31048.885 30403.479 29721.193 29055.002 28364.959 27573.218999999997 30108.047000000002 29947.943 29523.68 28964.016 28387.537 27835.447 27255.597999999998 26558.342 28323.225 28182.609 27813.537 27336.507999999998 26858.971 26410.162 25927.605 25313.119 26389.193 26268.322 25954.129 25556.324 25169.57 24811.432 24411.766 23868.254 24350.332000000002 24249.772999999997 23990.762000000002 23668.994 23363.955 23081.715 22747.217 22258.82 22259.022999999997 22179.017999999996 21974.316000000003 21723.217 21487.266 21261.57 20969.475 20514.785 20163.234 20102.744 19948.164 19757.678 19572.775 19379.18 19103.123 18659.211 18096.861 18053.131 17939.889 17794.186 17637.566000000003 17449.314 17164.506 16714.494 16078.528999999999 16047.013 15961.827 15840.511 15687.795 15480.987 15170.712 14710.964 14114.978000000001 14089.725 14016.526000000002 13898.236 13729.236 13490.648000000001 13153.491000000002 12698.831 12206.598 12181.794 12106.121000000001 11975.198999999999 11781.427 11515.296 11169.615 10755.885 10357.044 10329.388 10244.507 10098.201 9887.9434 9616.8154 9298.3516 8977.0264 8586.0781 8556.2588 8466.2959 8316.5449 8112.8682 7871.6587 7627.8145 7449.6689 6935.1802 6906.9658 6823.7197 6691.1953 6524.7178 6354.1685 6231.0405 6271.1265 5457.335 5435.2124 5372.2139 5279.7505 5181.5947 5119.4414 5190.707 5629.9478 4201.3125 4189.332 4158.0898 4123.4873 4121.8379 4242.0933 4681.3784 5664.6206 3198.4446 3198.0505 3202.7571 3240.2349 3392.9622 3829.4263 4715.3174 6019.8721 2449.1221 2458.6438 2499.0374 2628.1506 2987.9028 3728.157 4830.2988 6002.0352 1929.434 1945.6257 2014.4716 2221.3008 2713.8721 3530.6658 4378.6025 4643.9067 1520.2263 1535.931 1608.2024 1818.5254 2225.7288 2662.7434 2703.1111 2149.3271 1143.3231 1162.5757 1226.9474 1345.6266 1476.1896 1501.8916 1522.4196 1107.8749 1123.6222 1168.0564 1241.1493 1374.0643 96.165276 96.656212 86.933472 62.564152 22.203291 29.83206 81.59503199999999 123.50723 124.31606000000001 112.23258999999999 81.566895 30.387911 36.324554 104.21899 150.56277 145.68986999999998 146.91902 133.42816000000002 98.356995 39.010643 39.460228 121.2602 181.28355 161.20618000000002 162.98497 149.3369 112.28101000000001 48.056903999999996 38.647991 131.37405 202.63808 170.73946999999998 173.07019 160.33727 123.49965 57.488228 34.154537 134.93639 215.42516 176.72878 179.23933 167.8503 132.72568 68.116608 44.991219 154.6696 253.56161 182.87886 184.84331 174.73885 142.88686 101.0854 181.43222 381.20169 569.28583 194.16096000000002 195.2381 187.01295 166.74298000000002 234.49231 561.1906700000001 1078.4817 1538.6379 217.57071000000002 218.95485 215.44104 235.33112999999997 519.4894400000001 1276.4058 2421.2847 3469.6995 262.60846000000004 267.88416 274.79947000000004 363.14763999999997 919.0773300000001 2260.157 4329.8218 6325.5571 340.20255 355.47882000000004 378.76794 521.22046 1294.1853 3175.7051 6166.3105 9097.958 459.97827 493.05759000000006 537.53021 681.1286 1473.4087 3558.2959 6973.5332 10411.313 627.06763 685.44775 757.62335 869.83435 1427.8706 3208.6357 6355.3901 9775.5625 840.04175 928.18616 1034.3765 1140.6448 1392.757 2446.5676 4671.3276 7226.061 1091.3052 1208.7499 1348.6633 1483.6144 1616.8984 2011.8073 3120.2656 4549.0322 1369.9694 1512.0447 1677.5375 1843.9218 1991.9385 2190.541 2646.6311 3252.0869 1665.8221 1826.2764 2007.051 2189.5168 2357.7241 2537.0649 2814.3127 3118.4209 1972.2095 2145.5613 2334.4211 2520.3455 2687.2422 2843.4194 3054.7102 3271.9712 2286.6895 2470.0457 2664.0247 2849.7407 3006.8699 3130.7983 3296.4829 3481.0242 2609.863 2803.1772 3003.4583 3191.2305 3341.8572 3440.7905 3579.1672 3754.7925 2943.4722 3148.2986 3358.9412 3555.0735 3707.9402 3794.6716 3920.9666 4100.9565 3289.1179 3506.3396 3731.9424 3944.3479 4110.646 4201.0776 4329.5396 4522.4248 3648.6533 3875.665 4118.5396 4353.6479 4542.8896 4653.3652 4804.3267 5020.8462 4026.7085 4254.7388 4512.1753 4771.6655 4986.7041 5127.7988 5331.6982 5596.4238 4434.9131 4647.8037 4910.5352 5188.8687 5419.4536 5583.9092 5875.5669 6230.5684 4896.8862 5073.2397 5327.2764 5612.4395 5831.4771 5976.0781 6376.1055 6878.7549 5453.6465 5574.7217 5808.4751 6087.6147 6253.7324 6287.2612 6772.5659 7474.2383 6170.2729 6233.0288 6447.7202 6714.4746 6777.6973 6561.0132 7023.8296 7933.5161 7139.6782 7167.7988 7383.1089 7642.3667 7553.3438 6925.3579 7172.5874 8210.291 8473.6865 8514.6348 8760.5898 9014.4561 8739.1973 7591.4219 7407.4541 8386.8184 10271.747 10372.76 10660.742 10878.741000000002 10392.183 8842.9854 8158.7666 8839.0303 12573.497 12748.465 13043.385 13149.341999999999 12422.954 10803.203000000001 10219.529 10418.976 15314.295 15515.396999999999 15722.611 15602.563 14885.017 14150.542 14119.09 13954.858999999999 18304.664 18413.84 18408.558999999997 18115.26 18021.738 18708.982 19053.213 18518.357 21252.771 21109.26 20782.305 20408.902 21071.343999999997 22279.4 22271.752 21151.305 23835.311 23302.762000000002 22645.327999999998 22329.279 23281.307 23995.787 23059.256 21617.176 25803.225 24850.525 23941.252 23567.586 24188.362999999998 23992.504 22110.912 20721.053 27080.307 25736.357000000004 24385.32 23407.803 23051.709 22082.859 20864.893 19644.058999999997 27770.826 26216.545 24610.834 23233.002 22195.615 20820.186 20621.439 19450.682 28065.33 26489.012000000002 24853.933999999997 23355.172000000002 22102.824 20926.869 21254.039 20102.709 28126.32 26652.807 25134.693 23744.338 22626.951 21749.221 22138.176 20967.264 28032.535 26707.707000000002 25353.803 24194.862999999998 23409.077999999998 22677.885 22842.15 21614.838 27782.451 26591.691000000003 25376.207000000002 24402.292999999998 23823.952999999998 23005.725 22841.449 21542.949 27333.014 26236.539 25109.225 24232.602000000003 23715.482000000004 22730.285 22281.752 20953.176 26642.49 25606.305 24528.527000000002 23686.303 23149.014 22047.449 21441.641 20167.879 25697.164 24705.256 23659.303 22798.502 22199.32 21130.264 20539.514 19349.896 24514.232000000004 23564.096 22544.824 21615.686 20942.846 19997.029 19618.422 18520.885 23126.612999999998 22220.951 21238.767999999996 20291.498 19425.064 18689.748 18636.49 17695.096 21564.718999999997 20702.531000000003 19765.541 18907.436 17973.268 17197.217 17493.479 16686.218999999997 19852.539 19026.908 18137.107 17370.654 16600.127 15593.046 16004.851999999999 15295.438 18013.592 17220.898 16398.676 15706.953000000001 15104.401000000002 13975.809 14146.136999999999 13484.361 16080.896999999999 15341.091999999999 14632.733 14061.833 13560.525 12397.321000000002 12053.466 11325.413999999999 14106.787 13466.423999999999 12923.023000000001 12538.65 12134.705 11026.253999999999 10052.008 8880.1533 12166.113000000001 11687.441 11387.916000000001 11273.631000000001 11034.176000000001 10040.181 8979.7734 7511.1851 10351.404 10102.308 10165.169 10482.892 10424.256 9575.6895 8256.9238 8714.7305 8754.7471 8835.3848 9434.8359 10258.853000000001 10310.795 9305.0908 6879.0054 7490.415 8068.3086 9285.4473 10423.983 10219.197 8476.6553 5650.3706 6752.8105 7954.7158 9576.3818 10510.649 9414.7227 6107.874 6717.3818 8331.752 9789.8945 9709.2139 7148.4268 4930.8198 7143.1953 8639.2617 9104.8281 7238.7075 3986.0293 7407.084 7983.3789 6641.7402 3540.8569 6506.5454 5442.2251 3065.2769 5670.0508 3728.7739 2356.3384 2020.9398 
Vel 3 2975 float
0.0 0.0 0.0 0.0 0.0 0.0 0.0 0.0 0.0 0.0 0.0 0.0 0.0 0.0 0.0 0.0 0.0 0.0 0.0 0.0 0.0 0.0 0.0 0.0 0.0 0.0 0.0 0.0 0.0 0.0 0.0 0.0 0.0 0.0 0.0 0.0 0.0 0.0 0.0 0.0 0.0 0.0 0.0 0.0 0.0 0.0 0.0 0.0 0.0 0.0 0.0 0.0 0.0 0.0 0.0 0.0 0.0 0.0 0.0 0.0 0.0 0.0 0.0 0.0 0.0 0.0 0.0 0.0 0.0 0.0 0.0 0.0 0.0 0.0 0.0 0.0 0.0 0.0 0.0 0.0 0.0 0.0 0.0 0.0 0.0 0.0 0.0 0.0 0.0 0.0 0.0 0.0 0.0 0.0 0.0 0.0 0.0 0.0 0.0 0.0 0.0 0.0 0.0 0.0 0.0 0.0 0.0 0.0 0.0 0.0 0.0 0.0 0.0 0.0 0.0 0.0 0.0 0.0 0.0 0.0 0.0 0.0 0.0 0.0 0.0 0.0 0.0 0.0 0.0 0.0 0.0 0.0 0.0 0.0 0.0 0.0 0.0 0.0 0.0 0.0 0.0 0.0 0.0 0.0 0.0 0.0 0.0 0.0 0.0 0.0 0.0 0.0 0.0 0.0 0.0 0.0 0.0 0.0 0.0 0.0 0.0 0.0 0.0 0.0 0.0 0.0 0.0 0.0 0.0 0.0 0.0 0.0 0.0 0.0 0.0 0.0 0.0 0.0 0.0 0.0 0.0 0.0 0.0 0.0 0.0 0.0 0.0 0.0 0.0 0.0 0.0 0.0 0.0 0.0 0.0 0.0 0.0 0.0 0.0 0.0 0.0 0.0 0.0 0.0 0.0 0.0 0.0 0.0 0.0 0.0 0.0 0.0 0.0 0.0 0.0 0.0 0.0 0.0 0.0 0.0 0.0 0.0 0.0 0.0 0.0 0.0 0.0 0.0 0.0 0.0 0.0 0.0 0.0 0.0 0.0 0.0 0.0 0.0 0.0 0.0 0.0 0.0 0.0 0.0 0.0 0.0 0.0 0.0 0.0 0.0 0.0 0.0 0.0 0.0 0.0 0.0 0.0 0.0 0.0 0.0 0.0 0.0 0.0 0.0 0.0 0.0 0.0 0.0 0.0 0.0 0.0 0.0 0.0 0.0 0.0 0.0 0.0 0.0 0.0 0.0 0.0 0.0 0.0 0.0 0.0 0.0 0.0 0.0 0.0 0.0 0.0 0.0 0.0 0.0 0.0 0.0 0.0 0.0 0.0 0.0 0.0 0.0 0.0 0.0 0.0 0.0 0.0 0.0 0.0 0.0 0.0 0.0 0.0 0.0 0.0 0.0 0.0 0.0 0.0 0.0 0.0 0.0 0.0 0.0 0.0 0.0 0.0 0.0 0.0 0.0 0.0 0.0 0.0 0.0 0.0 0.0 0.0 0.0 0.0 0.0 0.0 0.0 0.0 0.0 0.0 0.0 0.0 0.0 0.0 0.0 0.0 0.0 0.0 0.0 0.0 0.0 0.0 0.0 0.0 0.0 0.0 0.0 0.0 0.0 0.0 0.0 0.0 0.0 0.0 0.0 0.0 0.0 0.0 0.0 0.0 0.0 0.0 0.0 0.0 0.0 0.0 0.0 0.0 0.0 0.0 0.0 0.0 0.0 0.0 0.0 0.0 0.0 0.0 0.0 0.0 0.0 0.0 0.0 0.0 0.0 0.0 0.0 0.0 0.0 0.0 0.0 0.0 0.0 0.0 0.0 0.0 0.0 0.0 0.0 0.0 0.0 0.0 0.0 0.0 0.0 0.0 0.0 0.0 0.0 0.0 0.0 0.0 0.0 0.0 0.0 0.0 0.0 0.0 0.0 0.0 0.0 0.0 0.0 0.0 0.0 0.0 0.0 0.0 0.0 0.0 0.0 0.0 0.0 0.0 0.0 0.0 0.0 0.0 0.0 0.0 0.0 0.0 0.0 0.0 0.0 0.0 0.0 0.0 0.0 0.0 0.0 0.0 0.0 0.0 0.0 0.0 0.0 0.0 0.0 0.0 0.0 0.0 0.0 0.0 0.0 0.0 0.0 0.0 0.0 0.0 0.0 0.0 0.0 0.0 0.0 0.0 0.0 0.0 0.0 0.0 0.0 0.0 0.0 0.0 0.0 0.0 0.0 0.0 0.0 0.0 0.0 0.0 0.0 0.0 0.0 0.0 0.0 0.0 0.0 0.0 0.0 0.0 0.0 0.0 0.0 0.0 0.0 0.0 0.0 0.0 0.0 0.0 0.0 0.0 0.0 0.0 0.0 0.0 0.0 0.0 0.0 0.0 0.0 0.0 0.0 0.0 0.0 0.0 0.0 0.0 0.0 0.0 0.0 0.0 0.0 0.0 0.0 0.0 0.0 0.0 0.0 0.0 0.0 0.0 0.0 0.0 0.0 0.0 0.0 0.0 0.0 0.0 0.0 0.0 0.0 0.0 0.0 0.0 0.0 0.0 0.0 0.0 0.0 0.0 0.0 0.0 0.0 0.0 0.0 0.0 0.0 0.0 0.0 0.0 0.0 0.0 0.0 0.0 0.0 0.0 0.0 0.0 0.0 0.0 0.0 0.0 0.0 0.0 0.0 0.0 0.0 0.0 0.0 0.0 0.0 0.0 0.0 0.0 0.0 0.0 0.0 0.0 0.0 0.0 0.0 0.0 0.0 0.0 0.0 0.0 0.0 0.0 0.0 0.0 0.0 0.0 0.0 0.0 0.0 0.0 0.0 0.0 0.0 0.0 0.0 0.0 0.0 0.0 0.0 0.0 0.0 0.0 0.0 0.0 0.0 0.0 0.0 0.0 0.0 0.0 0.0 0.0 0.0 0.0 0.0 0.0 0.0 0.0 0.0 0.0 0.0 0.0 0.0 0.0 0.0 0.0 0.0 0.0 0.0 0.0 0.0 0.0 0.0 0.0 0.0 0.0 0.0 0.0 0.0 0.0 0.0 0.0 0.0 0.0 0.0 0.0 0.0 0.0 0.0 0.0 0.0 0.0 0.0 0.0 0.0 0.0 0.0 0.0 0.0 0.0 0.0 0.0 0.0 0.0 0.0 0.0 0.0 0.0 0.0 0.0 0.0 0.0 0.0 0.0 0.0 0.0 0.0 0.0 0.0 0.0 0.0 0.0 0.0 0.0 0.0 0.0 0.0 0.0 0.0 0.0 0.0 0.0 0.0 0.0 0.0 0.0 0.0 0.0 0.0 0.0 0.0 0.0 0.0 0.0 0.0 0.0 0.0 0.0 0.0 0.0 0.0 0.0 0.0 0.0 0.0 0.0 0.0 0.0 0.0 0.0 0.0 0.0 0.0 0.0 0.0 0.0 0.0 0.0 0.0 0.0 0.0 0.0 0.0 0.0 0.0 0.0 0.0 0.0 0.0 0.0 0.0 0.0 0.0 0.0 0.0 0.0 0.0 0.0 0.0 0.0 0.0 0.0 0.0 0.0 0.0 0.0 0.0 0.0 0.0 0.0 0.0 0.0 0.0 0.0 0.0 0.0 0.0 0.0 0.0 0.0 0.0 0.0 0.0 0.0 0.0 0.0 0.0 0.0 0.0 0.0 0.0 0.0 0.0 0.0 0.0 0.0 0.0 0.0 0.0 0.0 0.0 0.0 0.0 0.0 0.0 0.0 0.0 0.0 0.0 0.0 0.0 0.0 0.0 0.0 0.0 0.0 0.0 0.0 0.0 0.0 0.0 0.0 0.0 0.0 0.0 0.0 0.0 0.0 0.0 0.0 0.0 0.0 0.0 0.0 0.0 0.0 0.0 0.0 0.0 0.0 0.0 0.0 0.0 0.0 0.0 0.0 0.0 0.0 0.0 0.0 0.0 0.0 0.0 0.0 0.0 0.0 0.0 0.0 0.0 0.0 0.0 0.0 0.0 0.0 0.0 0.0 0.0 0.0 0.0 0.0 0.0 0.0 0.0 0.0 0.0 0.0 0.0 0.0 0.0 0.0 0.0 0.0 0.0 0.0 0.0 0.0 0.0 0.0 0.0 0.0 0.0 0.0 0.0 0.0 0.0 0.0 0.0 0.0 0.0 0.0 0.0 0.0 0.0 0.0 0.0 0.0 0.0 0.0 0.0 0.0 0.0 0.0 0.0 0.0 0.0 0.0 0.0 0.0 0.0 0.0 0.0 0.0 0.0 0.0 0.0 0.0 0.0 0.0 0.0 0.0 0.0 0.0 0.0 0.0 0.0 0.0 0.0 0.0 0.0 0.0 0.0 0.0 0.0 0.0 0.0 0.0 0.0 0.0 0.0 0.0 0.0 0.0 0.0 0.0 0.0 0.0 0.0 0.0 0.0 0.0 0.0 0.0 0.0 0.0 0.0 0.0 0.0 0.0 0.0 0.0 0.0 0.0 0.0 0.0 0.0 0.0 0.0 0.0 0.0 0.0 0.0 0.0 0.0 0.0 0.0 0.0 0.0 0.0 0.0 0.0 0.0 0.0 0.0 0.0 0.0 0.0 0.0 0.0 0.0 0.0 0.0 0.0 0.0 0.0 0.0 0.0 0.0 0.0 0.0 0.0 0.0 0.0 0.0 0.0 0.0 0.0 0.0 0.0 0.0 0.0 0.0 0.0 0.0 0.0 0.0 0.0 0.0 0.0 0.0 0.0 0.0 0.0 0.0 0.0 0.0 0.0 0.0 0.0 0.0 0.0 0.0 0.0 0.0 0.0 0.0 0.0 0.0 0.0 0.0 0.0 0.0 0.0 0.0 0.0 0.0 0.0 0.0 0.0 0.0 0.0 0.0 0.0 0.0 0.0 0.0 0.0 0.0 0.0 0.0 0.0 0.0 0.0 0.0 0.0 0.0 0.0 0.0 0.0 0.0 0.0 0.0 0.0 0.0 0.0 0.0 0.0 0.0 0.0 0.0 0.0 0.0 0.0 0.0 0.0 0.0 0.0 0.0 0.0 0.0 0.0 0.0 0.0 0.0 0.0 0.0 0.0 0.0 0.0 0.0 0.0 0.0 0.0 0.0 0.0 0.0 0.0 0.0 0.0 0.0 0.0 0.0 0.0 0.0 0.0 0.0 0.0 0.0 0.0 0.0 0.0 0.0 0.0 0.0 0.0 0.0 0.0 0.0 0.0 0.0 0.0 0.0 0.0 0.0 0.0 0.0 0.0 0.0 0.0 0.0 0.0 0.0 0.0 0.0 0.0 0.0 0.0 0.0 0.0 0.0 0.0 0.0 0.0 0.0 0.0 0.0 0.0 0.0 0.0 0.0 0.0 0.0 0.0 0.0 0.0 0.0 0.0 0.0 0.0 0.0 0.0 0.0 0.0 0.0 0.0 0.0 0.0 0.0 0.0 0.0 0.0 0.0 0.0 0.0 0.0 0.0 0.0 0.0 0.0 0.0 0.0 0.0 0.0 0.0 0.0 0.0 0.0 0.0 0.0 0.0 0.0 0.0 0.0 0.0 0.0 0.0 0.0 0.0 0.0 0.0 0.0 0.0 0.0 0.0 0.0 0.0 0.0 0.0 0.0 0.0 0.0 0.0 0.0 0.0 0.0 0.0 0.0 0.0 0.0 0.0 0.0 0.0 0.0 0.0 0.0 0.0 0.0 0.0 0.0 0.0 0.0 0.0 0.0 0.0 0.0 0.0 0.0 0.0 0.0 0.0 0.0 0.0 0.0 0.0 0.0 0.0 0.0 0.0 0.0 0.0 0.0 0.0 0.0 0.0 0.0 0.0 0.0 0.0 0.0 0.0 0.0 0.0 0.0 0.0 0.0 0.0 0.0 0.0 0.0 0.0 0.0 0.0 0.0 0.0 0.0 0.0 0.0 0.0 0.0 0.0 0.0 0.0 0.0 0.0 0.0 0.0 0.0 0.0 0.0 0.0 0.0 0.0 0.0 0.0 0.0 0.0 0.0 0.0 0.0 0.0 0.0 0.0 0.0 0.0 0.0 0.0 0.0 0.0 0.0 0.0 0.0 0.0 0.0 0.0 0.0 0.0 0.0 0.0 0.0 0.0 0.0 0.0 0.0 0.0 0.0 0.0 0.0 0.0 0.0 0.0 0.0 0.0 0.0 0.0 0.0 0.0 0.0 0.0 0.0 0.0 0.0 0.0 0.0 0.0 0.0 0.0 0.0 0.0 0.0 0.0 0.0 0.0 0.0 0.0 0.0 0.0 0.0 0.0 0.0 0.0 0.0 0.0 0.0 0.0 0.0 0.0 0.0 0.0 0.0 0.0 0.0 0.0 0.0 0.0 0.0 0.0 0.0 0.0 0.0 0.0 0.0 0.0 0.0 0.0 0.0 0.0 0.0 0.0 0.0 0.0 0.0 0.0 0.0 0.0 0.0 0.0 0.0 0.0 0.0 0.0 0.0 0.0 0.0 0.0 0.0 0.0 0.0 0.0 0.0 0.0 0.0 0.0 0.0 0.0 0.0 0.0 0.0 0.0 0.0 0.0 0.0 0.0 0.0 0.0 0.0 0.0 0.0 0.0 0.0 0.0 0.0 0.0 0.0 0.0 0.0 0.0 0.0 0.0 0.0 0.0 0.0 0.0 0.0 0.0 0.0 0.0 0.0 0.0 0.0 0.0 0.0 0.0 0.0 0.0 0.0 0.0 0.0 0.0 0.0 0.0 0.0 0.0 0.0 0.0 0.0 0.0 0.0 0.0 0.0 0.0 0.0 0.0 0.0 0.0 0.0 0.0 0.0 0.0 0.0 0.0 0.0 0.0 0.0 0.0 0.0 0.0 0.0 0.0 0.0 0.0 0.0 0.0 0.0 0.0 0.0 0.0 0.0 0.0 0.0 0.0 0.0 0.0 0.0 0.0 0.0 0.0 0.0 0.0 0.0 0.0 0.0 0.0 0.0 0.0 0.0 0.0 0.0 0.0 0.0 0.0 0.0 0.0 0.0 0.0 0.0 0.0 0.0 0.0 0.0 0.0 0.0 0.0 0.0 0.0 0.0 0.0 0.0 0.0 0.0 0.0 0.0 0.0 0.0 0.0 0.0 0.0 0.0 0.0 0.0 0.0 0.0 0.0 0.0 0.0 0.0 0.0 0.0 0.0 0.0 0.0 0.0 0.0 0.0 0.0 0.0 0.0 0.0 0.0 0.0 0.0 0.0 0.0 0.0 0.0 0.0 0.0 0.0 0.0 0.0 0.0 0.0 0.0 0.0 0.0 0.0 0.0 0.0 0.0 0.0 0.0 0.0 0.0 0.0 0.0 0.0 0.0 0.0 0.0 0.0 0.0 0.0 0.0 0.0 0.0 0.0 0.0 0.0 0.0 0.0 0.0 0.0 0.0 0.0 0.0 0.0 0.0 0.0 0.0 0.0 0.0 0.0 0.0 0.0 0.0 0.0 0.0 0.0 0.0 0.0 0.0 0.0 0.0 0.0 0.0 0.0 0.0 0.0 0.0 0.0 0.0 0.0 0.0 0.0 0.0 0.0 0.0 0.0 0.0 0.0 0.0 0.0 0.0 0.0 0.0 0.0 0.0 0.0 0.0 0.0 0.0 0.0 0.0 0.0 0.0 0.0 0.0 0.0 0.0 0.0 0.0 0.0 0.0 0.0 0.0 0.0 0.0 0.0 0.0 0.0 0.0 0.0 0.0 0.0 0.0 0.0 0.0 0.0 0.0 0.0 0.0 0.0 0.0 0.0 0.0 0.0 0.0 0.0 0.0 0.0 0.0 0.0 0.0 0.0 0.0 0.0 0.0 0.0 0.0 0.0 0.0 0.0 0.0 0.0 0.0 0.0 0.0 0.0 0.0 0.0 0.0 0.0 0.0 0.0 0.0 0.0 0.0 0.0 0.0 0.0 0.0 0.0 0.0 0.0 0.0 0.0 0.0 0.0 0.0 0.0 0.0 0.0 0.0 0.0 0.0 0.0 0.0 0.0 0.0 0.0 0.0 0.0 0.0 0.0 0.0 0.0 0.0 0.0 0.0 0.0 0.0 0.0 0.0 0.0 0.0 0.0 0.0 0.0 0.0 0.0 0.0 0.0 0.0 0.0 0.0 0.0 0.0 0.0 0.0 0.0 0.0 0.0 0.0 0.0 0.0 0.0 0.0 0.0 0.0 0.0 0.0 0.0 0.0 0.0 0.0 0.0 0.0 0.0 0.0 0.0 0.0 0.0 0.0 0.0 0.0 0.0 0.0 0.0 0.0 0.0 0.0 0.0 0.0 0.0 0.0 0.0 0.0 0.0 0.0 0.0 0.0 0.0 0.0 0.0 0.0 0.0 0.0 0.0 0.0 0.0 0.0 0.0 0.0 0.0 0.0 0.0 0.0 0.0 0.0 0.0 0.0 0.0 0.0 0.0 0.0 0.0 0.0 0.0 0.0 0.0 0.0 0.0 0.0 0.0 0.0 0.0 0.0 0.0 0.0 0.0 0.0 0.0 0.0 0.0 0.0 0.0 0.0 0.0 0.0 0.0 0.0 0.0 0.0 0.0 0.0 0.0 0.0 0.0 0.0 0.0 0.0 0.0 0.0 0.0 0.0 0.0 0.0 0.0 0.0 0.0 0.0 0.0 0.0 0.0 0.0 0.0 0.0 0.0 0.0 0.0 0.0 0.0 0.0 0.0 0.0 0.0 0.0 0.0 0.0 0.0 0.0 0.0 0.0 0.0 0.0 0.0 0.0 0.0 0.0 0.0 0.0 0.0 0.0 0.0 0.0 0.0 0.0 0.0 0.0 0.0 0.0 0.0 0.0 0.0 0.0 0.0 0.0 0.0 0.0 0.0 0.0 0.0 0.0 0.0 0.0 0.0 0.0 0.0 0.0 0.0 0.0 0.0 0.0 0.0 0.0 0.0 0.0 0.0 0.0 0.0 0.0 0.0 0.0 0.0 0.0 0.0 0.0 0.0 0.0 0.0 0.0 0.0 0.0 0.0 0.0 0.0 0.0 0.0 0.0 0.0 0.0 0.0 0.0 0.0 0.0 0.0 0.0 0.0 0.0 0.0 0.0 0.0 0.0 0.0 0.0 0.0 0.0 0.0 0.0 0.0 0.0 0.0 0.0 0.0 0.0 0.0 0.0 0.0 0.0 0.0 0.0 0.0 0.0 0.0 0.0 0.0 0.0 0.0 0.0 0.0 0.0 0.0 0.0 0.0 0.0 0.0 0.0 0.0 0.0 0.0 0.0 0.0 0.0 0.0 0.0 0.0 0.0 0.0 0.0 0.0 0.0 0.0 0.0 0.0 0.0 0.0 0.0 0.0 0.0 0.0 0.0 0.0 0.0 0.0 0.0 0.0 0.0 0.0 0.0 0.0 0.0 0.0 0.0 0.0 0.0 0.0 0.0 0.0 0.0 0.0 0.0 0.0 0.0 0.0 0.0 0.0 0.0 0.0 0.0 0.0 0.0 0.0 0.0 0.0 0.0 0.0 0.0 0.0 0.0 0.0 0.0 0.0 0.0 0.0 0.0 0.0 0.0 0.0 0.0 0.0 0.0 0.0 0.0 0.0 0.0 0.0 0.0 0.0 0.0 0.0 0.0 0.0 0.0 0.0 0.0 0.0 0.0 0.0 0.0 0.0 0.0 0.0 0.0 0.0 0.0 0.0 0.0 0.0 0.0 0.0 0.0 0.0 0.0 0.0 0.0 0.0 0.0 0.0 0.0 0.0 0.0 0.0 0.0 0.0 0.0 0.0 0.0 0.0 0.0 0.0 0.0 0.0 0.0 0.0 0.0 0.0 0.0 0.0 0.0 0.0 0.0 0.0 0.0 0.0 0.0 0.0 0.0 0.0 0.0 0.0 0.0 0.0 0.0 0.0 0.0 0.0 0.0 0.0 0.0 0.0 0.0 0.0 0.0 0.0 0.0 0.0 0.0 0.0 0.0 0.0 0.0 0.0 0.0 0.0 0.0 0.0 0.0 0.0 0.0 0.0 0.0 0.0 0.0 0.0 0.0 0.0 0.0 0.0 0.0 0.0 0.0 0.0 0.0 0.0 0.0 0.0 0.0 0.0 0.0 0.0 0.0 0.0 0.0 0.0 0.0 0.0 0.0 0.0 0.0 0.0 0.0 0.0 0.0 0.0 0.0 0.0 0.0 0.0 0.0 0.0 0.0 0.0 0.0 0.0 0.0 0.0 0.0 0.0 0.0 0.0 0.0 0.0 0.0 0.0 0.0 0.0 0.0 0.0 0.0 0.0 0.0 0.0 0.0 0.0 0.0 0.0 0.0 0.0 0.0 0.0 0.0 0.0 0.0 0.0 0.0 0.0 0.0 0.0 0.0 0.0 0.0 0.0 0.0 0.0 0.0 0.0 0.0 0.0 0.0 0.0 0.0 0.0 0.0 0.0 0.0 0.0 0.0 0.0 0.0 0.0 0.0 0.0 0.0 0.0 0.0 0.0 0.0 0.0 0.0 0.0 0.0 0.0 0.0 0.0 0.0 0.0 0.0 0.0 0.0 0.0 0.0 0.0 0.0 0.0 0.0 0.0 0.0 0.0 0.0 0.0 0.0 0.0 0.0 0.0 0.0 0.0 0.0 0.0 0.0 0.0 0.0 0.0 0.0 0.0 0.0 0.0 0.0 0.0 0.0 0.0 0.0 0.0 0.0 0.0 0.0 0.0 0.0 0.0 0.0 0.0 0.0 0.0 0.0 0.0 0.0 0.0 0.0 0.0 0.0 0.0 0.0 0.0 0.0 0.0 0.0 0.0 0.0 0.0 0.0 0.0 0.0 0.0 0.0 0.0 0.0 0.0 0.0 0.0 0.0 0.0 0.0 0.0 0.0 0.0 0.0 0.0 0.0 0.0 0.0 0.0 0.0 0.0 0.0 0.0 0.0 0.0 0.0 0.0 0.0 0.0 0.0 0.0 0.0 0.0 0.0 0.0 0.0 0.0 0.0 0.0 0.0 0.0 0.0 0.0 0.0 0.0 0.0 0.0 0.0 0.0 0.0 0.0 0.0 0.0 0.0 0.0 0.0 0.0 0.0 0.0 0.0 0.0 0.0 0.0 0.0 0.0 0.0 0.0 0.0 0.0 0.0 0.0 0.0 0.0 0.0 0.0 0.0 0.0 0.0 0.0 0.0 0.0 0.0 0.0 0.0 0.0 0.0 0.0 0.0 0.0 0.0 0.0 0.0 0.0 0.0 0.0 0.0 0.0 0.0 0.0 0.0 0.0 0.0 0.0 0.0 0.0 0.0 0.0 0.0 0.0 0.0 0.0 0.0 0.0 0.0 0.0 0.0 0.0 0.0 0.0 0.0 0.0 0.0 0.0 0.0 0.0 0.0 0.0 0.0 0.0 0.0 0.0 0.0 0.0 0.0 0.0 0.0 0.0 0.0 0.0 0.0 0.0 0.0 0.0 0.0 0.0 0.0 0.0 0.0 0.0 0.0 0.0 0.0 0.0 0.0 0.0 0.0 0.0 0.0 0.0 0.0 0.0 0.0 0.0 0.0 0.0 0.0 0.0 0.0 0.0 0.0 0.0 0.0 0.0 0.0 0.0 0.0 0.0 0.0 0.0 0.0 0.0 0.0 0.0 0.0 0.0 0.0 0.0 0.0 0.0 0.0 0.0 0.0 0.0 0.0 0.0 0.0 0.0 0.0 0.0 0.0 0.0 0.0 0.0 0.0 0.0 0.0 0.0 0.0 0.0 0.0 0.0 0.0 0.0 0.0 0.0 0.0 0.0 0.0 0.0 0.0 0.0 0.0 0.0 0.0 0.0 0.0 0.0 0.0 0.0 0.0 0.0 0.0 0.0 0.0 0.0 0.0 0.0 0.0 0.0 0.0 0.0 0.0 0.0 0.0 0.0 0.0 0.0 0.0 0.0 0.0 0.0 0.0 0.0 0.0 0.0 0.0 0.0 0.0 0.0 0.0 0.0 0.0 0.0 0.0 0.0 0.0 0.0 0.0 0.0 0.0 0.0 0.0 0.0 0.0 0.0 0.0 0.0 0.0 0.0 0.0 0.0 0.0 0.0 0.0 0.0 0.0 0.0 0.0 0.0 0.0 0.0 0.0 0.0 0.0 0.0 0.0 0.0 0.0 0.0 0.0 0.0 0.0 0.0 0.0 0.0 0.0 0.0 0.0 0.0 0.0 0.0 0.0 0.0 0.0 0.0 0.0 0.0 0.0 0.0 0.0 0.0 0.0 0.0 0.0 0.0 0.0 0.0 0.0 0.0 0.0 0.0 0.0 0.0 0.0 0.0 0.0 0.0 0.0 0.0 0.0 0.0 0.0 0.0 0.0 0.0 0.0 0.0 0.0 0.0 0.0 0.0 0.0 0.0 0.0 0.0 0.0 0.0 0.0 0.0 0.0 0.0 0.0 0.0 0.0 0.0 0.0 0.0 0.0 0.0 0.0 0.0 0.0 0.0 0.0 0.0 0.0 0.0 0.0 0.0 0.0 0.0 0.0 0.0 0.0 0.0 0.0 0.0 0.0 0.0 0.0 0.0 0.0 0.0 0.0 0.0 0.0 0.0 0.0 0.0 0.0 0.0 0.0 0.0 0.0 0.0 0.0 0.0 0.0 0.0 0.0 0.0 0.0 0.0 0.0 0.0 0.0 0.0 0.0 0.0 0.0 0.0 0.0 0.0 0.0 0.0 0.0 0.0 0.0 0.0 0.0 0.0 0.0 0.0 0.0 0.0 0.0 0.0 0.0 0.0 0.0 0.0 0.0 0.0 0.0 0.0 0.0 0.0 0.0 0.0 0.0 0.0 0.0 0.0 0.0 0.0 0.0 0.0 0.0 0.0 0.0 0.0 0.0 0.0 0.0 0.0 0.0 0.0 0.0 0.0 0.0 0.0 0.0 0.0 0.0 0.0 0.0 0.0 0.0 0.0 0.0 0.0 0.0 0.0 0.0 0.0 0.0 0.0 0.0 0.0 0.0 0.0 0.0 0.0 0.0 0.0 0.0 0.0 0.0 0.0 0.0 0.0 0.0 0.0 0.0 0.0 0.0 0.0 0.0 0.0 0.0 0.0 0.0 0.0 0.0 0.0 0.0 0.0 0.0 0.0 0.0 0.0 0.0 0.0 0.0 0.0 0.0 0.0 0.0 0.0 0.0 0.0 0.0 0.0 0.0 0.0 0.0 0.0 0.0 0.0 0.0 0.0 0.0 0.0 0.0 0.0 0.0 0.0 0.0 0.0 0.0 0.0 0.0 0.0 0.0 0.0 0.0 0.0 0.0 0.0 0.0 0.0 0.0 0.0 0.0 0.0 0.0 0.0 0.0 0.0 0.0 0.0 0.0 0.0 0.0 0.0 0.0 0.0 0.0 0.0 0.0 0.0 0.0 0.0 0.0 0.0 0.0 0.0 0.0 0.0 0.0 0.0 0.0 0.0 0.0 0.0 0.0 0.0 0.0 0.0 0.0 0.0 0.0 0.0 0.0 0.0 0.0 0.0 0.0 0.0 0.0 0.0 0.0 0.0 0.0 0.0 0.0 0.0 0.0 0.0 0.0 0.0 0.0 0.0 0.0 0.0 0.0 0.0 0.0 0.0 0.0 0.0 0.0 0.0 0.0 0.0 0.0 0.0 0.0 0.0 0.0 0.0 0.0 0.0 0.0 0.0 0.0 0.0 0.0 0.0 0.0 0.0 0.0 0.0 0.0 0.0 0.0 0.0 0.0 0.0 -0.0031998283 0.0 -0.0012735019 -0.003925912100000001 0.0 -0.0012370234 -0.0045480742 0.0 -0.0011369777 -0.0050446936 0.0 -0.0010020139999999999 -0.005415742800000001 0.0 -0.00085759291 -0.0030725347 0.0 -0.0016458170000000002 -0.0043689292 0.0 -0.0015244993 -0.0054907561 0.0 -0.0015288197 -0.00640806 0.0 -0.001448755 -0.0071144211 0.0 -0.0013073001 -0.0076284427 0.0 -0.0011366089 -0.004231181 0.0 -0.0017596215 -0.0060020019 0.0 -0.0016728893 -0.007538259 0.0 -0.0016575489 -0.0088002542 0.0 -0.0015803614 -0.0097548505 0.0 -0.0014550146 -0.010440328 0.0 -0.0012800877 -0.0056449957 0.0 -0.0017926681 -0.007954265 0.0 -0.00167846 -0.0099208076 0.0 -0.00167644 -0.011523598999999999 0.0 -0.0016156870000000002 -0.012730058999999998 0.0 -0.0015033877 -0.013584408000000001 0.0 -0.0013355967000000001 -0.0072717178 0.0 -0.0018027592000000002 -0.01016031 0.0 -0.0016127848000000002 -0.012570176 0.0 -0.0016112204000000001 -0.01450668 0.0 -0.0015639354000000002 -0.015943309 0.0 -0.0014717594 -0.016948614 0.0 -0.0013186829000000001 -0.0091362363 0.0 -0.0018283878 -0.012646487 0.0 -0.0015061478 -0.015501716 0.0 -0.0014814931 -0.017755097 0.0 -0.0014445081 -0.019400736000000002 0.0 -0.0013799054999999998 -0.020533955 0.0 -0.0012527717 -0.011294908999999999 0.0 -0.0019404714000000002 -0.015477346000000001 0.0 -0.0014139073000000002 -0.0187764 0.0 -0.0013295792999999999 -0.021332703999999997 0.0 -0.0012947886999999999 -0.02317429 0.0 -0.0012579461 -0.02441889 0.0 -0.001168437 -0.013835006 0.0 -0.002210489 -0.018731236000000002 0.0 -0.0014066785000000001 -0.022465392999999997 0.0 -0.0012293963 -0.025329603 0.0 -0.0011710135 -0.027352709 0.0 -0.0011638991 -0.028698202000000003 0.0 -0.0011136575 -0.016941968 0.0 -0.0025278553 -0.022475451 0.0 -0.001511076 -0.026615035 0.0 -0.0012614001 -0.029794674 0.0 -0.0011581216 -0.031999607 0.0 -0.0011797899 -0.033437543 0.0 -0.0011586286 -0.021005481 0.0 -0.0024452237 -0.026824547 0.0 -0.0016220188 -0.031304013 0.0 -0.0013993470999999998 -0.034765914 0.0 -0.001317236 -0.037151172999999996 0.0 -0.0013699826999999999 -0.038663752 0.0 -0.0013815801000000001 -0.026345361 0.0 -0.0019187554 -0.03199533 0.0 -0.001674119 -0.036654327 0.0 -0.0016093006 -0.040312938 0.0 -0.0016758232 -0.04284073 0.0 -0.0017852144 -0.04439140900000001 0.0 -0.0018409023 -0.032154884 0.0 -0.0028735721 -0.037992273 0.0 -0.0023418886 -0.042707155999999996 0.0 -0.0022210239000000002 -0.046475232000000005 0.0 -0.0023519571 -0.049092852 0.0 -0.002501691 -0.050638344 0.0 -0.0026099582 -0.038598511 0.0 -0.007994118100000001 -0.044717237 0.0 -0.005766406700000001 -0.049584832 0.0 -0.0042401821999999995 -0.053358927 0.0 -0.0038183052 -0.05594110099999999 0.0 -0.0037572554 -0.057452325 0.0 -0.0037797705999999998 -0.046797421 0.0 -0.012294257 -0.052698851 0.0 -0.009941577 -0.057431228 0.0 -0.0075553968 -0.06104093 0.0 -0.006271005600000001 -0.063447066 0.0 -0.0057229125 -0.064887874 0.0 -0.005400856 -0.056394022 0.0 -0.015146606000000002 -0.061869256 0.0 -0.013161337 -0.066190183 0.0 -0.010920114 -0.06944075200000001 0.0 -0.0092396094 -0.071633406 0.0 -0.0081968028 -0.072981246 0.0 -0.0074518695 -0.06656695900000001 0.0 -0.017392205 -0.071478412 0.0 -0.015758121 -0.075434171 0.0 -0.01389274 -0.07842236 0.0 -0.01216948 -0.080476567 0.0 -0.010828208999999998 -0.081771083 0.0 -0.009713091 -0.07662248599999999 0.0 -0.019531021000000003 -0.08121811599999999 0.0 -0.018083725 -0.085012764 0.0 -0.016472178 -0.08792734099999999 0.0 -0.014831038999999999 -0.089970425 0.0 -0.013359204 -0.09127478300000001 0.0 -0.012013879 -0.08643780599999999 0.0 -0.021644298 -0.091100425 0.0 -0.020294821 -0.09499556599999999 0.0 -0.01880423 -0.098014325 0.0 -0.017241249 -0.10015546 0.0 -0.015714638 -0.10151569 0.0 -0.014234341999999999 -0.09632024900000001 0.0 -0.02378064 -0.10137131 0.0 -0.022447109 -0.10555169 0.0 -0.020990785 -0.10878365 0.0 -0.019456688 -0.11108139 0.0 -0.017887748999999998 -0.11252403 0.0 -0.016326785 -0.10669871 0.0 -0.025906952 -0.11225362 0.0 -0.024556877 -0.11680804 0.0 -0.023073684 -0.12030127 0.0 -0.021530729 -0.12277868 0.0 -0.019918984 -0.1243334 0.0 -0.018287269 -0.11773556 0.0 -0.02797964 -0.12382385 0.0 -0.026613249 -0.12880397 0.0 -0.02507522 -0.13259704 0.0 -0.023502745 -0.13528354 0.0 -0.021836236000000002 -0.13697842 0.0 -0.020123653000000002 -0.12943695 0.0 -0.02997 -0.13610911 0.0 -0.02858855 -0.14155963 0.0 -0.027002661 -0.14569513 0.0 -0.025386022 -0.1486254 0.0 -0.023646358 -0.15049334 0.0 -0.02182965 -0.14180988 0.0 -0.031858161 -0.14912783 0.0 -0.030462362000000003 -0.15509945 0.0 -0.028838601000000002 -0.15962744 0.0 -0.027150815 -0.16283956 0.0 -0.025317891000000002 -0.16491666 0.0 -0.02337547 -0.15489075 0.0 -0.033629585 -0.16292426 0.0 -0.032208696 -0.16946866 0.0 -0.030534191000000002 -0.17444153 0.0 -0.028731862 -0.17797725 0.0 -0.026789615 -0.18029629 0.0 -0.024719404 -0.16878723 0.0 -0.035273828 -0.17759246 0.0 -0.033795133 -0.18475023 0.0 -0.032009821 -0.19021423 0.0 -0.030030748 -0.19410364 0.0 -0.027998157000000003 -0.19668938 0.0 -0.025828116 -0.18373479 0.0 -0.036788708999999996 -0.19329669 0.0 -0.035182696 -0.20106775 0.0 -0.033163629 -0.20703977 0.0 -0.030962108 -0.21128787 0.0 -0.028910687 -0.214148 0.0 -0.026713768 -0.20010747 0.0 -0.038195252 -0.21025376 0.0 -0.036347887999999995 -0.21854818 0.0 -0.033922464 -0.22498441 0.0 -0.031503811 -0.22956149 0.0 -0.029572487 -0.23268312 0.0 -0.027469125 -0.21827635 0.0 -0.039548133 -0.22860287 0.0 -0.037314031 -0.23721035 0.0 -0.034309845 -0.24397013 0.0 -0.031779926 -0.24882264 0.0 -0.030123109 -0.25216728 0.0 -0.028271325 -0.23822802 0.0 -0.040962473 -0.24811606 0.0 -0.038204912 -0.25669393 0.0 -0.034514662 -0.2635473 0.0 -0.032101221 -0.26860502 0.0 -0.03088708 -0.27215406 0.0 -0.02936206 -0.25912604 0.0 -0.042676162000000004 -0.26790297 0.0 -0.039292991 -0.2760624 0.0 -0.034967843 -0.28278041 0.0 -0.03285338 -0.28779542 0.0 -0.032302465 -0.29166061 0.0 -0.030973626 -0.2792713 0.0 -0.045138709000000006 -0.28644633 0.0 -0.041181557 -0.29379317 0.0 -0.036547232 -0.30034018 0.0 -0.034460086 -0.30551487 0.0 -0.033963349 -0.30958831 0.0 -0.032821596 -0.29638103 0.0 -0.049113434000000004 -0.30233279 0.0 -0.04478354 -0.30939499 0.0 -0.040009696000000004 -0.31579888 0.0 -0.036916766000000004 -0.32094321 0.0 -0.035896678 -0.32523468 0.0 -0.034367356 -0.30875921 0.0 -0.055328197999999995 -0.314845 0.0 -0.050906222 -0.32201773 0.0 -0.046764132 -0.3285403 0.0 -0.041762147 -0.33366442 0.0 -0.038452625 -0.33770251 0.0 -0.035752635 -0.31349251 0.0 -0.063302703 -0.32117838 0.0 -0.059649121 -0.32838586 0.0 -0.057518154 -0.33519483 0.0 -0.052370417999999995 -0.34114131 0.0 -0.044543389 -0.345824 0.0 -0.03856539 -0.30331099 0.0 -0.071217299 -0.31761363 0.0 -0.06782908 -0.32662803 0.0 -0.068372525 -0.33375469 0.0 -0.066475272 -0.34143212 0.0 -0.056829315 -0.34743378 0.0 -0.046596028 -0.244845 0.0 -0.076271966 -0.28934336 0.0 -0.07337965099999999 -0.31088829 0.0 -0.076522835 -0.31841958 0.0 -0.080752395 -0.32645404 0.0 -0.07721819 -0.33535421 0.0 -0.066221438 -0.15416345 0.0 -0.080036715 -0.19397937 0.0 -0.076974981 -0.23482625 0.0 -0.079984479 -0.26507285 0.0 -0.08825108400000001 -0.28149688 0.0 -0.093172185 -0.29123205 0.0 -0.093402289 -0.089427441 0.0 -0.083621435 -0.1132245 0.0 -0.077653691 -0.13821192 0.0 -0.079755217 -0.15917143 0.0 -0.08513114599999999 -0.17467354 0.0 -0.089615561 -0.18503313 0.0 -0.09103555199999999 -0.053155760999999996 0.0 -0.08750165300000001 -0.06556374599999999 0.0 -0.07627178 -0.078205422 0.0 -0.078440942 -0.089605831 0.0 -0.079928495 -0.098717995 0.0 -0.082906678 -0.10564934 0.0 -0.081452765 -0.033268899 0.0 -0.09010981800000001 -0.038023859 0.0 -0.07548464099999999 -0.042319465 0.0 -0.07924708 -0.046390038 0.0 -0.076425478 -0.050000191 0.0 -0.076437369 -0.053167026 0.0 -0.07154864799999999 -0.014820503 0.0 -0.091191441 -0.013850478000000001 0.0 -0.075108416 -0.012179406 0.0 -0.0796021 -0.010701413 0.0 -0.07617937799999999 -0.01002386 0.0 -0.073883742 -0.010104278000000001 0.0 -0.067198671 0.011950306 0.0 -0.091263101 0.018640129 0.0 -0.07487010200000001 0.025603686 0.0 -0.079098709 0.03157983 0.0 -0.07840296599999999 0.035374206 0.0 -0.076641545 0.037144892 0.0 -0.06791396400000001 0.048565641 0.0 -0.090613313 0.06188212 0.0 -0.07471507 0.074514106 0.0 -0.078108907 0.084585495 0.0 -0.079955623 0.090754457 0.0 -0.08053854099999999 0.093041733 0.0 -0.071412452 0.090759575 0.0 -0.089419141 0.11141829 0.0 -0.074688926 0.13017452 0.0 -0.077771336 0.14448518 0.0 -0.080723636 0.15251897 0.0 -0.08305997400000001 0.15454188 0.0 -0.075531058 0.13307834 0.0 -0.088117704 0.160927 0.0 -0.075058989 0.18582776 0.0 -0.077912815 0.20443924 0.0 -0.08105438200000001 0.21430162 0.0 -0.083948396 0.21607323 0.0 -0.078678787 0.17201738 0.0 -0.087213717 0.20587373 0.0 -0.07613326599999999 0.23624322 0.0 -0.078221232 0.25801948 0.0 -0.080435142 0.27071932 0.0 -0.08339703799999999 0.27303869 0.0 -0.079730824 0.20631374 0.0 -0.086461648 0.24405766 0.0 -0.077593602 0.27760193 0.0 -0.078585878 0.30276442 0.0 -0.07938060200000001 0.31818503 0.0 -0.080816478 0.32165354 0.0 -0.078456014 0.23589817 0.0 -0.08526914599999999 0.27442899 0.0 -0.07915196599999999 0.3099395 0.0 -0.079308212 0.33824098 0.0 -0.077412859 0.3524068 0.0 -0.078609444 0.35177869 0.0 -0.076963037 0.26271534 0.0 -0.083738916 0.3008619 0.0 -0.08023759 0.33681369 0.0 -0.079739712 0.36359072 0.0 -0.07716687 0.37077183 0.0 -0.079378746 0.36641943 0.0 -0.076263107 0.2887609 0.0 -0.082137927 0.32566273 0.0 -0.080093525 0.35973179 0.0 -0.079132475 0.37886789 0.0 -0.07895126200000001 0.37903389 0.0 -0.081220314 0.37168244 0.0 -0.07571293400000001 0.31524301 0.0 -0.08006791 0.34934488 0.0 -0.078610919 0.37869281 0.0 -0.078047618 0.38625124 0.0 -0.080038734 0.38231742 0.0 -0.08088138 0.37314501 0.0 -0.074354835 0.34296471 0.0 -0.077442452 0.37271956 0.0 -0.07520403 0.39037442 0.0 -0.076765455 0.39022833 0.0 -0.078752808 0.38315716 0.0 -0.078471884 0.37293917 0.0 -0.072664879 0.37256265 0.0 -0.074083745 0.39395186 0.0 -0.071604796 0.39658517 0.0 -0.073746525 0.39159274 0.0 -0.07474570700000001 0.38288024 0.0 -0.074212462 0.37192374 0.0 -0.069417834 0.40136743 0.0 -0.069314033 0.40465134 0.0 -0.068402797 0.40004453 0.0 -0.068627752 0.39176008 0.0 -0.069157176 0.38218239 0.0 -0.06889862599999999 0.37038508 0.0 -0.065159194 0.41046828 0.0 -0.0645357 0.40906391 0.0 -0.063531347 0.40011573 0.0 -0.06210348 0.39083794 0.0 -0.062126387000000005 0.38104361 0.0 -0.06260449400000001 0.36846563 0.0 -0.05966395099999999 0.40850997 0.0 -0.058521292999999995 0.39801821 0.0 -0.055801909000000004 0.38856956 0.0 -0.054359375999999994 0.37897921 0.0 -0.055059273 0.36633202 0.0 -0.0534807 0.40451986 0.0 -0.053509325 0.39511061 0.0 -0.05024666 0.38508388 0.0 -0.046964942999999995 0.37593243 0.0 -0.047132213 0.36398429 0.0 -0.046688467000000004 0.39164409 0.0 -0.04560614 0.38135284 0.0 -0.0412497 0.372089 0.0 -0.03956686 0.36135429 0.0 -0.039941024 0.38594857 0.0 -0.041506905 0.37775224 0.0 -0.037118032999999995 0.36788848 0.0 -0.033245116 0.35826573 0.0 -0.033375267 0.37311631 0.0 -0.034589097 0.36386275 0.0 -0.029683707 0.35471165 0.0 -0.027971584 0.35889867 0.0 -0.028243225 0.35096076 0.0 -0.02509189 0.34688187 0.0 -0.026133612 0.34515837 0.0 -0.024183253 -0.0056794453000000005 0.0 -0.00071890233 -0.0058588954 0.0 -0.00058555172 -0.005971469 0.0 -0.00046896450999999996 -0.006034942299999999 0.0 -0.00036899871 -0.0060664513 0.0 -0.00028058034 -0.0060770987 0.0 -0.00020655361 -0.0060764425 0.0 -0.00014432683 -0.0060716104 0.0 -9.066791199999999e-05 -0.0060668727 0.0 -4.3976375e-05 -0.0079857362 0.0 -0.0009564923800000001 -0.0082189431 0.0 -0.0007885397099999999 -0.008359156500000001 0.0 -0.00064083235 -0.0084366966 0.0 -0.00050527079 -0.0084705232 0.0 -0.00038952519999999995 -0.0084778015 0.0 -0.00029099415 -0.0084720161 0.0 -0.00020474804 -0.0084617054 0.0 -0.00013013562 -0.0084531382 0.0 -6.332847300000001e-05 -0.010902373 0.0 -0.0010960946000000001 -0.011197233000000001 0.0 -0.0009155861300000002 -0.011370942 0.0 -0.0007507516999999999 -0.01146212 0.0 -0.0005999532299999999 -0.011498041 0.0 -0.00046797257000000004 -0.011501168999999999 0.0 -0.00035217375 -0.011488273 0.0 -0.0002504031 -0.011470975 0.0 -0.00016061407 -0.011457605 0.0 -7.8169651e-05 -0.014150065 0.0 -0.0011539306 -0.014503375 0.0 -0.00097545295 -0.014708788 0.0 -0.00080418179 -0.014811398 0.0 -0.00065017614 -0.014847302 0.0 -0.00051196507 -0.014844557 0.0 -0.00038809006000000004 -0.0148232 0.0 -0.00027847142 -0.014798108 0.0 -0.00017943404999999998 -0.014779239 0.0 -8.769603300000001e-05 -0.017603325 0.0 -0.0011487782 -0.018005615 0.0 -0.00097827148 -0.018234293999999998 0.0 -0.0008129407099999999 -0.018342983 0.0 -0.00066398835 -0.018375477 0.0 -0.0005263470200000001 -0.018363977 0.0 -0.00040287148999999995 -0.018332642 0.0 -0.00029128802000000004 -0.018298756 0.0 -0.00018869957 -0.018273881000000002 0.0 -9.2718758e-05 -0.021260321000000002 0.0 -0.0011056237 -0.021699362000000003 0.0 -0.00094881054 -0.021940636 0.0 -0.0007977272 -0.022048393 0.0 -0.00065704435 -0.022072036 0.0 -0.00052695925 -0.022048539 0.0 -0.00040756922999999994 -0.022005161000000002 0.0 -0.00029697164000000003 -0.021961151 0.0 -0.00019389758000000002 -0.021929627 0.0 -9.5760064e-05 -0.025201386 0.0 -0.0010550037 -0.025663694 0.0 -0.0009208144 -0.025907099 0.0 -0.00078769086 -0.026005817999999997 0.0 -0.00065725192 -0.026014781 0.0 -0.00053471496 -0.025975466000000003 0.0 -0.0004185125 -0.0259174 0.0 -0.00030852848 -0.025861658 0.0 -0.00020319490000000003 -0.025822618999999998 0.0 -0.00010086171999999999 -0.029524181 0.0 -0.0010391236999999999 -0.029997189 0.0 -0.0009331873199999998 -0.030233053 0.0 -0.00081762177 -0.030314777 0.0 -0.00069666735 -0.030303396 0.0 -0.00057611242 -0.030243948 0.0 -0.0004572761 -0.030168265 0.0 -0.0003410356299999999 -0.030098919 0.0 -0.00022654889 -0.030051277999999997 0.0 -0.00011305981000000002 -0.034293983 0.0 -0.0011170766 -0.034766071 0.0 -0.0010363519000000001 -0.034985971 0.0 -0.00093283935 -0.035044491000000004 0.0 -0.00081161526 -0.035007857 0.0 -0.00068167178 -0.03492444 0.0 -0.00054736569 -0.034828252999999997 0.0 -0.00041164804 -0.034743263999999996 0.0 -0.00027509246 -0.034685832 0.0 -0.00013775496 -0.039534717999999996 0.0 -0.0013625366000000001 -0.039996114 0.0 -0.0012900601 -0.040194158 0.0 -0.0011813442999999999 -0.040225651 0.0 -0.0010407489 -0.040160552 0.0 -0.00088143989 -0.040050276 0.0 -0.0007119105400000001 -0.0399311 0.0 -0.00053737068 -0.039828576 0.0 -0.00036007377999999995 -0.039760165 0.0 -0.00018063984 -0.045261659 0.0 -0.0018362046 -0.045705441 0.0 -0.0017519341 -0.045879535 0.0 -0.0016102437 -0.045883518 0.0 -0.0014206357 -0.045789257 0.0 -0.0012029675999999999 -0.045650709000000005 0.0 -0.0009712598399999999 -0.045506887 0.0 -0.00073268788 -0.045385379 0.0 -0.00049062085 -0.045305017 0.0 -0.00024594733 -0.05150291 0.0 -0.0025751751 -0.051924217 0.0 -0.0024591053 -0.052077774 0.0 -0.0022462478 -0.052056894000000006 0.0 -0.0019719803 -0.05193425 0.0 -0.0016641639 -0.051767264 0.0 -0.0013394286 -0.051597822 0.0 -0.0010086666 -0.051456239 0.0 -0.00067456171 -0.051363180999999994 0.0 -0.00033815997 -0.058292639 0.0 -0.0036422284 -0.058698162000000005 0.0 -0.0034170102000000003 -0.0588356 0.0 -0.0030934198 -0.05879202099999999 0.0 -0.0027056546000000002 -0.058644312999999997 0.0 -0.0022721407 -0.058450617 0.0 -0.0018249648000000002 -0.058256275999999996 0.0 -0.0013729938000000001 -0.05809484400000001 0.0 -0.0009162698399999999 -0.057989184000000006 0.0 -0.00045821178 -0.065688007 0.0 -0.0050551845000000005 -0.066082105 0.0 -0.0046366528 -0.066204563 0.0 -0.0041502034 -0.06614425 0.0 -0.0036093559999999998 -0.065973386 0.0 -0.0030327756 -0.065754838 0.0 -0.0024369243 -0.06553711 0.0 -0.0018298767999999999 -0.065357186 0.0 -0.0012200233 -0.065239623 0.0 -0.0006109155400000001 -0.073748335 0.0 -0.006784618399999999 -0.074124992 0.0 -0.0061193625 -0.074236333 0.0 -0.0054223752 -0.07416275900000001 0.0 -0.0046833353 -0.073974378 0.0 -0.0039228015 -0.073735297 0.0 -0.0031460887 -0.07349783900000001 0.0 -0.002362882 -0.07330057 0.0 -0.0015753589 -0.073171392 0.0 -0.00078878616 -0.082514167 0.0 -0.0087359035 -0.08287783 0.0 -0.0078133699 -0.082979992 0.0 -0.0068694465 -0.082896903 0.0 -0.005905082 -0.082696699 0.0 -0.0049282038 -0.082444325 0.0 -0.0039449162 -0.082191586 0.0 -0.0029584067 -0.081982657 0.0 -0.0019714057 -0.081846207 0.0 -0.0009858125099999999 -0.092019893 0.0 -0.010789548999999999 -0.09238143300000001 0.0 -0.009606284100000001 -0.092482001 0.0 -0.0084203212 -0.092396528 0.0 -0.0072287968 -0.092191644 0.0 -0.0060283048 -0.091932975 0.0 -0.0048258528000000005 -0.09167555 0.0 -0.0036249238000000002 -0.09146165099999999 0.0 -0.0024204012 -0.091322057 0.0 -0.0012105975999999999 -0.10229027 0.0 -0.012822538999999999 -0.10267098 0.0 -0.011420834 -0.10278555 0.0 -0.010014732 -0.10270947 0.0 -0.008600890600000001 -0.10251349 0.0 -0.0071891737 -0.10226148 0.0 -0.0057703638 -0.10200883 0.0 -0.0043428689000000005 -0.10179837 0.0 -0.002905942 -0.10165975 0.0 -0.0014573655 -0.11335564 0.0 -0.014770084 -0.11377981 0.0 -0.013190253 -0.11392982 0.0 -0.011592634 -0.11388485 0.0 -0.0099908952 -0.11371522 0.0 -0.0083718449 -0.11348673 0.0 -0.0067350282 -0.11325358 0.0 -0.0050797140999999995 -0.11305635 0.0 -0.0033988012 -0.11292651 0.0 -0.0017032892999999999 -0.12524946 0.0 -0.016608629 -0.12574407 0.0 -0.014877986000000001 -0.12595612 0.0 -0.013123551 -0.12596682 0.0 -0.011340804 -0.12584811 0.0 -0.0095276963 -0.12566496 0.0 -0.0076817269 -0.12546779 0.0 -0.005795097 -0.12529841 0.0 -0.0038814828999999998 -0.125185 0.0 -0.0019458822 -0.1380067 0.0 -0.018321828999999998 -0.13859902 0.0 -0.016455176999999998 -0.13890177 0.0 -0.014551745 -0.13899668 0.0 -0.01260521 -0.13895752 0.0 -0.010612223 -0.13884325 0.0 -0.0085652471 -0.13870385 0.0 -0.006472316600000001 -0.13857655 0.0 -0.0043391208 -0.13848895 0.0 -0.0021772005 -0.15166239 0.0 -0.019891033 -0.15238006 0.0 -0.017887332 -0.15280075 0.0 -0.015838206 -0.15300982 0.0 -0.013740023999999998 -0.15307754 0.0 -0.011584968999999999 -0.15305929 0.0 -0.0093636559 -0.15299913 0.0 -0.007086649499999999 -0.15293011 0.0 -0.0047572488 -0.15287806 0.0 -0.0023890445 -0.1662527 0.0 -0.021290325 -0.16712058 0.0 -0.019143748999999998 -0.16768464 0.0 -0.016953303 -0.16803417 0.0 -0.014717411000000001 -0.1682353 0.0 -0.012420019 -0.16833858 0.0 -0.010055238000000001 -0.16837983 0.0 -0.0076219863 -0.16838618 0.0 -0.0051243226 -0.16838004 0.0 -0.0025755320999999998 -0.18182161 0.0 -0.0224938 -0.18285877 0.0 -0.02021049 -0.1835853 0.0 -0.017890489 -0.18409607 0.0 -0.015532263000000001 -0.18445371 0.0 -0.013115081 -0.1847015 0.0 -0.010632039 -0.18486506 0.0 -0.0080719879 -0.18496346 0.0 -0.0054351967000000004 -0.18501402 0.0 -0.0027350863 -0.19841991 0.0 -0.023500248999999997 -0.19963621 0.0 -0.021108609 -0.20053731 0.0 -0.018680362 -0.20122367 0.0 -0.016213378 -0.20175554 0.0 -0.013691402 -0.20216644 0.0 -0.011107013 -0.20246989 0.0 -0.008442975600000001 -0.20267537 0.0 -0.0056924187 -0.20279261 0.0 -0.0028675909000000005 -0.21608952 0.0 -0.024357902 -0.2174916 0.0 -0.021908751 -0.21857399 0.0 -0.019395491 -0.21944566 0.0 -0.016824629 -0.22016355 0.0 -0.014198262 -0.22074945 0.0 -0.01151343 -0.22120588 0.0 -0.008753309 -0.22152975 0.0 -0.0059049265 -0.2217216 0.0 -0.0029766078000000003 -0.23483606 0.0 -0.025180265 -0.23643149 0.0 -0.022726921 -0.23770532 0.0 -0.020138793000000002 -0.2387708 0.0 -0.017452713 -0.23968078 0.0 -0.014701413 -0.24044801 0.0 -0.011896583999999998 -0.24106325 0.0 -0.0090306308 -0.24151148 0.0 -0.006086444 -0.24178255 0.0 -0.0030666431 -0.25453949 0.0 -0.026127787000000003 -0.25634912 0.0 -0.023688855 -0.25783971 0.0 -0.021014538 -0.25911382 0.0 -0.018179422 -0.26022208 0.0 -0.015259367 -0.26117241 0.0 -0.012299583999999999 -0.26194638 0.0 -0.009302379599999999 -0.26251885 0.0 -0.0062515805 -0.26286912 0.0 -0.0031418890999999997 -0.27477008 0.0 -0.027357167999999998 -0.27685997 0.0 -0.02488818 -0.27862155 0.0 -0.022098262 -0.28013933 0.0 -0.019060886000000003 -0.28146315 0.0 -0.015915284 -0.28260151 0.0 -0.012748213000000001 -0.28353286 0.0 -0.0095839174 -0.2842274 0.0 -0.0064113326 -0.28465724 0.0 -0.0032164461 -0.29462507 0.0 -0.028968338 -0.29708341 0.0 -0.026407456 -0.299218 0.0 -0.023385232000000002 -0.30105439 0.0 -0.020057019 -0.3026329 0.0 -0.016634166000000002 -0.30397144 0.0 -0.013221916 -0.30506337 0.0 -0.0098704947 -0.30587602 0.0 -0.006571522 -0.30638263 0.0 -0.0032837878 -0.31292716 0.0 -0.030780502 -0.3158403 0.0 -0.027999761 -0.31837866 0.0 -0.024708195 -0.32054812 0.0 -0.02108125 -0.32240039 0.0 -0.017310537 -0.32393688 0.0 -0.013626019 -0.32517239 0.0 -0.010087647 -0.32608375 0.0 -0.0066741765 -0.32665277 0.0 -0.0033197554 -0.32874107 0.0 -0.032176487000000004 -0.33195555 0.0 -0.029196192000000003 -0.33484545 0.0 -0.025663262000000003 -0.33730817 0.0 -0.021719028999999997 -0.33938429 0.0 -0.017671015 -0.34108615 0.0 -0.013736336000000002 -0.34240994 0.0 -0.010062257 -0.34339589 0.0 -0.0065854276 -0.34400427 0.0 -0.0032610066999999997 -0.34123117 0.0 -0.032968792999999996 -0.34469485 0.0 -0.029751064 -0.34789202 0.0 -0.025957598999999998 -0.35061535 0.0 -0.021879371 -0.35289907 0.0 -0.017708493 -0.35472739 0.0 -0.013648055 -0.35613963 0.0 -0.0098583028 -0.35715401 0.0 -0.006361505 -0.35777232 0.0 -0.0031007421 -0.34980783 0.0 -0.034008387 -0.35353398 0.0 -0.029847289 -0.35699001 0.0 -0.025660302000000003 -0.35995129 0.0 -0.021285566000000002 -0.36241561 0.0 -0.016962215 -0.36433029 0.0 -0.012880174 -0.36574674 0.0 -0.0091620563 -0.36674157 0.0 -0.0058666854 -0.36734378 0.0 -0.002871694 -0.35208398 0.0 -0.03913182 -0.35642481 0.0 -0.032972269 -0.36048242 0.0 -0.02748587 -0.36403665 0.0 -0.022321351 -0.3669087 0.0 -0.017513359 -0.36911309 0.0 -0.013151538999999999 -0.37074605 0.0 -0.009224150300000001 -0.37188593 0.0 -0.005825792 -0.37256756 0.0 -0.0028162063 -0.34230456 0.0 -0.054953098 -0.3485758 0.0 -0.045211982000000005 -0.35451862 0.0 -0.036808461 -0.35965583 0.0 -0.029722477999999997 -0.36358681 0.0 -0.023826873 -0.36667508 0.0 -0.018558862 -0.3690576 0.0 -0.013621395 -0.37083521 0.0 -0.0089187734 -0.37185735 0.0 -0.0044004265 -0.30024266 0.0 -0.087868504 -0.30832833 0.0 -0.07763952 -0.31654552 0.0 -0.066333413 -0.32431909 0.0 -0.055483893 -0.33061105 0.0 -0.045371007000000005 -0.33530623 0.0 -0.035959791 -0.33878767 0.0 -0.027038157 -0.34118393 0.0 -0.018199107 -0.34254277 0.0 -0.0091806576 -0.19272925 0.0 -0.084691912 -0.19980119 0.0 -0.074237548 -0.20679578 0.0 -0.063318767 -0.21333154 0.0 -0.052708302 -0.21905619 0.0 -0.043225292 -0.22378103 0.0 -0.034608059 -0.22743173 0.0 -0.026278064 -0.23000474 0.0 -0.017809769 -0.2315295 0.0 -0.009025965799999999 -0.11140139 0.0 -0.07298383900000001 -0.11714957 0.0 -0.064264394 -0.12300777 0.0 -0.05516858400000001 -0.12866914 0.0 -0.046311967 -0.13382488 0.0 -0.038383387000000005 -0.13825285 0.0 -0.031074004 -0.14179888 0.0 -0.023831977 -0.14437118 0.0 -0.016276456 -0.14592586 0.0 -0.0082875425 -0.0562253 0.0 -0.063768499 -0.059593815 0.0 -0.056233581 -0.063302577 0.0 -0.048299644 -0.067145102 0.0 -0.040555131 -0.070865914 0.0 -0.033660211 -0.074231617 0.0 -0.027323654 -0.077040009 0.0 -0.021028288 -0.079141237 0.0 -0.014408666 -0.08043766 0.0 -0.0073530599 -0.010709129 0.0 -0.059175998 -0.011768346 0.0 -0.051886659 -0.013247066000000002 0.0 -0.04423923 -0.015043104 0.0 -0.03677927 -0.016993748 0.0 -0.03021952 -0.018909811999999998 0.0 -0.024331795 -0.020603225 0.0 -0.018626455 -0.021922617999999998 0.0 -0.012725528 -0.02275773 0.0 -0.006485433299999999 0.037847869 0.0 -0.059089419000000004 0.038148299 0.0 -0.051344975999999994 0.038221929 0.0 -0.043287914000000004 0.038067047 0.0 -0.035435576 0.037708215 0.0 -0.028609062999999997 0.037225362000000005 0.0 -0.022665678999999998 0.036719751 0.0 -0.017132811 0.03628315 0.0 -0.011604317 0.035988543 0.0 -0.0058850269 0.093662791 0.0 -0.061919077999999995 0.094080731 0.0 -0.053506542000000004 0.09471187 0.0 -0.044729102 0.095465712 0.0 -0.036155894 0.09620662 0.0 -0.028735572 0.096853897 0.0 -0.022406633999999998 0.097366944 0.0 -0.016706225 0.097728662 0.0 -0.011199529 0.09793963300000001 0.0 -0.0056440174 0.1540468 0.0 -0.065705717 0.15359251 0.0 -0.056748044000000004 0.15391326 0.0 -0.047316283 0.15486279 0.0 -0.038063239 0.15614803 0.0 -0.030036796 0.15751088 0.0 -0.02322869 0.15874766 0.0 -0.017180312 0.15971358 0.0 -0.011440133 0.16032091 0.0 -0.0057394463 0.2140701 0.0 -0.068799481 0.21229522 0.0 -0.059566692000000004 0.21182996 0.0 -0.049780507 0.21250273 0.0 -0.040144093 0.21389011 0.0 -0.031739368999999996 0.21558017 0.0 -0.02456885 0.21722496 0.0 -0.018170636 0.21856436 0.0 -0.012090355 0.21942858 0.0 -0.0060603861 0.26982841 0.0 -0.070198469 0.26682827 0.0 -0.060960401 0.26550815 0.0 -0.051181622 0.26569337 0.0 -0.041550823 0.2668823 0.0 -0.033109713 0.26856792 0.0 -0.025827231000000003 0.27031395 0.0 -0.019224027 0.27178574 0.0 -0.012849156 0.27275479 0.0 -0.0064569926 0.31687862 0.0 -0.069639362 0.31213298 0.0 -0.060544886 0.3093628 0.0 -0.051039018 0.30832803 0.0 -0.041756567 0.30847806 0.0 -0.033628691 0.30930489 0.0 -0.026540769 0.3103925 0.0 -0.019967703 0.3114101 0.0 -0.013454605 0.31211928 0.0 -0.0067941728000000005 0.34513557 0.0 -0.068029627 0.33918965 0.0 -0.058921628 0.33499417 0.0 -0.049748559000000005 0.33231455 0.0 -0.041010715 0.33073461 0.0 -0.033406001 0.32987392 0.0 -0.026689615 0.32942972 0.0 -0.020283746000000002 0.32920864 0.0 -0.01376253 0.32911974 0.0 -0.0069735147999999995 0.35853192 0.0 -0.066910453 0.35164729 0.0 -0.057706293 0.34619722 0.0 -0.048755112999999996 0.34202543 0.0 -0.040481009 0.33893111 0.0 -0.033289861000000004 0.33666056 0.0 -0.026805827 0.33508077 0.0 -0.020485224 0.33403119 0.0 -0.013958891000000001 0.33343345 0.0 -0.0071109924 0.36301059 0.0 -0.066586539 0.35548526 0.0 -0.057444688 0.34932232 0.0 -0.048581425 0.34441236 0.0 -0.040512811 0.34061909 0.0 -0.033455577 0.3377578 0.0 -0.027035726 0.33568799 0.0 -0.020694071 0.33427858 0.0 -0.014078681000000001 0.33346972 0.0 -0.0071377163 0.36383471 0.0 -0.065578699 0.35587296 0.0 -0.056948815 0.34930971 0.0 -0.048435088 0.3439827 0.0 -0.040598556 0.33979639 0.0 -0.033636663 0.33653492 0.0 -0.027214624 0.33407116 0.0 -0.020844888 0.3323639 0.0 -0.014214168000000001 0.33134806 0.0 -0.007225444100000001 0.3629694 0.0 -0.06463608900000001 0.35450158 0.0 -0.056165203 0.34752047 0.0 -0.047871570999999995 0.34187135 0.0 -0.040152531 0.33736715 0.0 -0.03308811 0.33380741 0.0 -0.02662003 0.33112296 0.0 -0.020366222 0.32921627 0.0 -0.013895686 0.32807153 0.0 -0.007054579 0.36127931 0.0 -0.06252659099999999 0.35210389 0.0 -0.054867782000000004 0.34464833 0.0 -0.047214042000000005 0.33854967 0.0 -0.039664648 0.33373556 0.0 -0.032707911 0.32995868 0.0 -0.026179202000000002 0.32705435 0.0 -0.019781889 0.32497674 0.0 -0.01327238 0.32371369 0.0 -0.0066847294 0.35879517 0.0 -0.059324725999999994 0.348809 0.0 -0.052673835 0.34081677 0.0 -0.045793235 0.33429334 0.0 -0.038820855 0.32915139 0.0 -0.032108732 0.32503423 0.0 -0.025572879 0.32184556 0.0 -0.019223865 0.31952518 0.0 -0.012880498999999998 0.31813878 0.0 -0.0064395289 0.35584524 0.0 -0.055175662 0.34501275 0.0 -0.049950738 0.33615896 0.0 -0.043957293 0.32914454 0.0 -0.037676267 0.32349771 0.0 -0.031224899 0.31901288 0.0 -0.02483093 0.31551814 0.0 -0.018505603 0.31299785 0.0 -0.012303587 0.31147972 0.0 -0.0061757634 0.3527725 0.0 -0.050062447999999996 0.34091595 0.0 -0.046126042 0.33116502 0.0 -0.041563671 0.32333335 0.0 -0.036182359 0.31709617 0.0 -0.030272674 0.31213522 0.0 -0.024031727000000003 0.3083052 0.0 -0.01779197 0.30558899 0.0 -0.011691851000000001 0.30400589 0.0 -0.0058498019 0.34983033 0.0 -0.044210545999999996 0.33682871 0.0 -0.041235722999999995 0.32623887 0.0 -0.038050368 0.31736413 0.0 -0.033860896 0.31042358 0.0 -0.028874006 0.30484754 0.0 -0.023099104 0.30064178 0.0 -0.017087288 0.2977424 0.0 -0.011269438 0.29603413 0.0 -0.005636848000000001 0.34726331 0.0 -0.038238741 0.33338705 0.0 -0.035746112000000003 0.32148978 0.0 -0.033313811 0.31193355 0.0 -0.0305376 0.30384195 0.0 -0.026560642000000002 0.29768339 0.0 -0.021725643 0.29297063 0.0 -0.016217858999999998 0.28985232 0.0 -0.010828727 0.2879667 0.0 -0.0054091956000000005 0.34491315 0.0 -0.032474723 0.3307173 0.0 -0.030331045 0.31773823 0.0 -0.028172199 0.30680403 0.0 -0.025926232 0.29815039 0.0 -0.023279585 0.29100209 0.0 -0.019442024 0.28585872 0.0 -0.014961097 0.28233674 0.0 -0.010118381999999999 0.28030735 0.0 -0.0050937957 0.34247479 0.0 -0.027058246 0.32852015 0.0 -0.025343837 0.31485096 0.0 -0.023195583 0.30282333 0.0 -0.021133883 0.29302561 0.0 -0.018870579 0.28549895 0.0 -0.016321149 0.27964067 0.0 -0.012913633 0.27582273 0.0 -0.0089981575 0.273572 0.0 -0.0045851259000000005 0.3395555 0.0 -0.022642996000000002 0.32658392 0.0 -0.021132991 0.312646 0.0 -0.019036131 0.29972956 0.0 -0.016634151 0.28919864 0.0 -0.014586531000000002 0.28068995 0.0 -0.0123014 0.27466679 0.0 -0.010060396999999999 0.27045923 0.0 -0.0072588143 0.2680622 0.0 -0.0037990557 0.33534381 0.0 -0.020384386 0.32366711 0.0 -0.017642749 0.31109753 0.0 -0.016051782 0.297609 0.0 -0.01340986 0.28622362 0.0 -0.010939031 0.27707416 0.0 -0.0087424461 0.27041179 0.0 -0.0067595285 0.26598915 0.0 -0.004957723 0.26347733 0.0 -0.0026830069000000002 0.32723737 0.0 -0.019375738 0.31812823 0.0 -0.015661437 0.30753815 0.0 -0.013480143 0.29548219 0.0 -0.011102205 0.28418624 0.0 -0.0089305053 0.2741954 0.0 -0.0063303737 0.26708791 0.0 -0.0043628179 0.26221702 0.0 -0.0028043617 0.25934184 0.0 -0.0014538377 0.30727386 0.0 -0.014087552 0.30004704 0.0 -0.011321787 0.29001859 0.0 -0.008398594300000001 0.28027266 0.0 -0.0068111517 0.27084014 0.0 -0.0046019596 0.26368171 0.0 -0.0030009903000000004 0.25853243 0.0 -0.0016665716000000001 0.25544319 0.0 -0.0006058599700000001 0.27963752 0.0 -0.006022389 0.27227268 0.0 -0.0041306838 0.26420254 0.0 -0.0019066464 0.25789681 0.0 -0.0008181083199999999 0.25294349 0.0 7.1654744e-05 0.25009519 0.0 0.00027122063 0.25376758 0.0 0.00048022703 0.24888681 0.0 0.0019028302 0.24542046 0.0 0.0015550626 0.24325453 0.0 0.0008260529700000001 -0.0060650664 0.0 -7.275166e-10 -0.006066877900000001 0.0 4.3977542999999995e-05 -0.0060716104 0.0 9.0668029e-05 -0.0060764397 0.0 0.00014432661 -0.0060770963 0.0 0.00020655358 -0.0060664541 0.0 0.00028058022 -0.006034945600000001 0.0 0.00036899867999999993 -0.0059714708 0.0 0.00046896414000000003 -0.0084499372 0.0 1.8276266e-12 -0.0084531363 0.0 6.332863999999999e-05 -0.008461703499999999 0.0 0.000130135 -0.0084720124 0.0 0.00020474796 -0.008477807 0.0 0.00029099325 -0.0084705278 0.0 0.00038952519999999995 -0.0084367022 0.0 0.00050527009 -0.0083591528 0.0 0.00064083212 -0.011452653 0.0 2.546301e-11 -0.011457604 0.0 7.817024000000001e-05 -0.011470979 0.0 0.00016061407 -0.01148827 0.0 0.00025040255 -0.011501168999999999 0.0 0.0003521734 -0.011498037 0.0 0.00046797209999999996 -0.011462118 0.0 0.0005999523 -0.011370945 0.0 0.00075075123 -0.014772313 0.0 -1.6889874e-09 -0.01477924 0.0 8.769318100000001e-05 -0.014798103 0.0 0.0001794347 -0.014823198999999999 0.0 0.00027847139 -0.014844558 0.0 0.00038808986 -0.014847302 0.0 0.0005119656 -0.014811401 0.0 0.0006501763700000001 -0.01470879 0.0 0.0008041831299999999 -0.018264831999999998 0.0 3.657703e-10 -0.018273881000000002 0.0 9.272103499999999e-05 -0.018298753 0.0 0.00018869918 -0.018332638000000002 0.0 0.00029128752000000003 -0.018363979 0.0 0.0004028712 -0.018375481000000003 0.0 0.0005263474299999999 -0.018342979 0.0 0.0006639885300000001 -0.018234298 0.0 0.00081293943 -0.021918287999999998 0.0 7.136659e-10 -0.021929632999999997 0.0 9.575941699999999e-05 -0.021961152999999997 0.0 0.00019389857 -0.022005162999999998 0.0 0.00029697227999999997 -0.022048535 0.0 0.00040756922999999994 -0.022072032000000002 0.0 0.00052695884 -0.022048397 0.0 0.00065704447 -0.021940641 0.0 0.0007977258599999999 -0.025808671000000002 0.0 -4.923884099999999e-10 -0.025822617000000003 0.0 0.00010086159 -0.025861658 0.0 0.00020319528000000003 -0.025917396000000002 0.0 0.00030852784 -0.025975464 0.0 0.00041851209000000003 -0.026014782 0.0 0.0005347142 -0.026005814 0.0 0.0006572528500000001 -0.025907097 0.0 0.00078769238 -0.030034393 0.0 -6.924190700000001e-10 -0.03005128 0.0 0.00011305875 -0.030098917000000003 0.0 0.00022654919 -0.030168267000000002 0.0 0.00034103447 -0.030243948 0.0 0.00045727612 -0.030303396 0.0 0.00057611213 -0.030314777 0.0 0.00069666648 -0.030233052000000003 0.0 0.0008176247400000001 -0.034665617999999995 0.0 -5.8055741e-11 -0.034685835 0.0 0.00013775223 -0.034743263999999996 0.0 0.00027509002 -0.034828249 0.0 0.00041164824999999995 -0.03492444 0.0 0.00054736569 -0.035007849 0.0 0.00068167213 -0.035044491000000004 0.0 0.0008116172999999999 -0.034985973999999996 0.0 0.0009328407499999999 -0.039736222 0.0 -1.0243895e-10 -0.039760161 0.0 0.00018063756999999998 -0.039828576 0.0 0.00036007274 -0.0399311 0.0 0.0005373710299999999 -0.040050283 0.0 0.0007119101400000002 -0.040160552 0.0 0.0008814383199999999 -0.040225659 0.0 0.0010407477 -0.04019415 0.0 0.0011813438000000001 -0.04527697 0.0 1.859406e-09 -0.045305014000000005 0.0 0.00024594605 -0.045385372 0.0 0.00049061992 -0.045506887 0.0 0.00073268538 -0.045650706 0.0 0.00097125885 -0.045789257 0.0 0.0012029686 -0.04588351 0.0 0.0014206371 -0.045879532 0.0 0.0016102397 -0.05133063 0.0 1.5657121000000002e-10 -0.051363174000000004 0.0 0.00033815633000000003 -0.051456243 0.0 0.00067456247 -0.051597815 0.0 0.0010086675 -0.051767267 0.0 0.0013394268 -0.05193425 0.0 0.0016641639 -0.052056886 0.0 0.0019719782 -0.052077781 0.0 0.0022462469000000002 -0.057952515999999996 0.0 2.5364297e-09 -0.057989188 0.0 0.00045820752999999997 -0.058094848 0.0 0.00091626612 -0.058256290999999995 0.0 0.0013729923 -0.058450605999999995 0.0 0.0018249639999999999 -0.058644312999999997 0.0 0.0022721395 -0.058792005999999994 0.0 0.0027056554999999997 -0.0588356 0.0 0.003093421 -0.065198645 0.0 -4.4776658e-09 -0.065239623 0.0 0.00061091402 -0.065357193 0.0 0.0012200159 -0.06553711 0.0 0.0018298751000000002 -0.065754838 0.0 0.002436924 -0.065973379 0.0 0.0030327734999999996 -0.06614425 0.0 0.0036093534 -0.066204555 0.0 0.0041502095 -0.073126897 0.0 9.5253316e-10 -0.073171392 0.0 0.00078878197 -0.07330057799999999 0.0 0.0015753589 -0.07349781700000001 0.0 0.0023628832 -0.073735297 0.0 0.0031460884 -0.073974386 0.0 0.0039228024 -0.074162744 0.0 0.004683332100000001 -0.07423632599999999 0.0 0.0054223724 -0.081798919 0.0 -2.9081553e-09 -0.081846207 0.0 0.00098580576 -0.081982657 0.0 0.001971405 -0.082191609 0.0 0.0029584048 -0.082444325 0.0 0.0039449157 -0.082696714 0.0 0.0049282033000000005 -0.082896903 0.0 0.005905082 -0.082979985 0.0 0.006869447 -0.091273561 0.0 -5.6707683e-09 -0.091322057 0.0 0.0012105919 -0.091461666 0.0 0.0024203944 -0.091675542 0.0 0.0036249214000000003 -0.09193299 0.0 0.0048258533 -0.092191644 0.0 0.0060283048 -0.09239652 0.0 0.0072287995999999995 -0.09248195599999999 0.0 0.008420319300000001 -0.10161152 0.0 -2.8855949e-09 -0.10165976 0.0 0.0014573638 -0.10179838 0.0 0.0029059432 -0.10200883 0.0 0.0043428699 -0.10226149 0.0 0.0057703634 -0.10251348 0.0 0.0071891751 -0.10270947 0.0 0.0086008869 -0.10278555 0.0 0.010014729 -0.11288076 0.0 -2.8019171e-09 -0.1129265 0.0 0.001703285 -0.11305634 0.0 0.003398801 -0.11325358 0.0 0.0050797155 -0.11348672 0.0 0.0067350287 -0.11371523 0.0 0.0083718468 -0.11388485 0.0 0.0099908961 -0.11392981 0.0 0.011592631 -0.12514561 0.0 -2.5275382e-09 -0.12518498 0.0 0.0019458896 -0.1252984 0.0 0.0038814852 -0.12546779 0.0 0.0057950988 -0.12566496 0.0 0.0076817302 -0.1258481 0.0 0.0095276982 -0.12596683 0.0 0.011340805 -0.1259561 0.0 0.013123552 -0.13845809 0.0 -9.3867658e-10 -0.13848895 0.0 0.0021771975 -0.13857655 0.0 0.004339120399999999 -0.13870384 0.0 0.0064723236 -0.13884322 0.0 0.0085652526 -0.13895753 0.0 0.01061223 -0.13899665 0.0 0.012605213999999998 -0.13890176 0.0 0.014551739 -0.15285906 0.0 -6.4758381e-09 -0.15287811 0.0 0.0023890431 -0.15293013 0.0 0.0047572521000000005 -0.15299912 0.0 0.0070866551 -0.1530593 0.0 0.0093636615 -0.15307754 0.0 0.011584978000000001 -0.15300982 0.0 0.013740026 -0.15280078 0.0 0.01583821 -0.16837633 0.0 3.0419809e-09 -0.16838005 0.0 0.0025755335000000002 -0.16838619 0.0 0.0051243319 -0.16837984 0.0 0.007621991 -0.16833858 0.0 0.010055244 -0.16823532 0.0 0.012420026 -0.16803417 0.0 0.014717418000000001 -0.16768464 0.0 0.016953303 -0.18502901 0.0 -2.0303734e-09 -0.18501404 0.0 0.0027350890000000004 -0.18496346 0.0 0.0054351971 -0.18486504 0.0 0.0080719898 -0.18470152 0.0 0.010632043999999998 -0.18445371 0.0 0.013115085 -0.1840961 0.0 0.015532266999999999 -0.18358532 0.0 0.017890479 -0.20283034 0.0 3.6378551e-09 -0.20279261 0.0 0.0028675892 -0.20267537 0.0 0.0056924177 -0.20246992 0.0 0.0084429784 -0.20216647 0.0 0.011107016 -0.20175555 0.0 0.013691406000000001 -0.20122372 0.0 0.01621338 -0.20053729 0.0 0.018680362 -0.2217847 0.0 3.8950905e-09 -0.22172159 0.0 0.0029766038000000002 -0.22152975 0.0 0.0059049213 -0.22120588 0.0 0.008753309 -0.2207495 0.0 0.011513431999999999 -0.22016357 0.0 0.014198266000000001 -0.21944565 0.0 0.016824633000000002 -0.218574 0.0 0.019395499 -0.24187285 0.0 8.2901686e-10 -0.24178255 0.0 0.0030666486999999997 -0.24151149 0.0 0.006086443100000001 -0.2410633 0.0 0.009030628 -0.24044803 0.0 0.011896588999999999 -0.23968077 0.0 0.014701417 -0.23877081 0.0 0.017452713 -0.23770532 0.0 0.020138791 -0.26298752 0.0 3.0009595e-09 -0.26286912 0.0 0.0031418819 -0.26251885 0.0 0.0062515819 -0.26194632 0.0 0.0093023852 -0.26117238 0.0 0.012299592 -0.26022208 0.0 0.015259376000000002 -0.25911379 0.0 0.01817942 -0.25783968 0.0 0.021014533999999998 -0.28480265 0.0 -3.7733101e-09 -0.2846573 0.0 0.0032164515 -0.28422737 0.0 0.0064113396 -0.28353286 0.0 0.009583929599999999 -0.28260151 0.0 0.012748223000000001 -0.28146321 0.0 0.015915297 -0.28013927 0.0 0.019060891 -0.27862155 0.0 0.022098262 -0.3065539 0.0 -9.9004094e-10 -0.30638263 0.0 0.0032837915 -0.30587599 0.0 0.006571533199999999 -0.30506334 0.0 0.0098705105 -0.30397141 0.0 0.01322193 -0.3026329 0.0 0.016634179 -0.30105445 0.0 0.020057026000000002 -0.29921806 0.0 0.023385232000000002 -0.32684287 0.0 4.2881827e-09 -0.32665274 0.0 0.0033197635999999997 -0.32608375 0.0 0.006674186800000001 -0.32517242 0.0 0.010087666 -0.32393691 0.0 0.013626033999999999 -0.32240039 0.0 0.017310547 -0.32054812 0.0 0.021081256 -0.31837866 0.0 0.024708197 -0.34420627 0.0 5.0437308e-09 -0.34400421 0.0 0.0032610195 -0.34339589 0.0 0.0065854373 -0.34240991 0.0 0.010062267 -0.34108618 0.0 0.013736356000000002 -0.33938435 0.0 0.017671032 -0.33730814 0.0 0.021719035 -0.33484551 0.0 0.025663263999999998 -0.35799083 0.0 1.0158168999999998e-08 -0.35777235 0.0 0.0031007621 -0.3571541 0.0 0.0063615213 -0.35613957 0.0 0.0098583149 -0.35472739 0.0 0.013648068000000001 -0.3528991 0.0 0.01770851 -0.35061532 0.0 0.021879378999999997 -0.34789199 0.0 0.025957596 -0.36755937 0.0 1.5957858999999998e-08 -0.36734378 0.0 0.0028717197 -0.3667416 0.0 0.005866704 -0.36574671 0.0 0.009162074899999999 -0.36433026 0.0 0.012880181999999999 -0.36241558 0.0 0.016962223000000002 -0.35995126 0.0 0.02128558 -0.35699007 0.0 0.025660312 -0.37279528 0.0 1.6773964e-08 -0.3725675 0.0 0.0028162391 -0.37188593 0.0 0.005825820799999999 -0.37074599 0.0 0.009224168 -0.36911309 0.0 0.013151547 -0.3669087 0.0 0.017513368 -0.36403668 0.0 0.022321364 -0.36048245 0.0 0.027485901 -0.37218919 0.0 2.6295933999999995e-08 -0.37185735 0.0 0.0044004698 -0.37083521 0.0 0.0089188041 -0.36905754 0.0 0.013621438 -0.36667502 0.0 0.01855888 -0.36358684 0.0 0.023826856 -0.3596558 0.0 0.029722488999999998 -0.35451862 0.0 0.036808476 -0.34297737 0.0 1.1322292000000001e-08 -0.34254268 0.0 0.009180684599999999 -0.34118393 0.0 0.018199157 -0.33878782 0.0 0.027038164 -0.33530617 0.0 0.035959825 -0.33061108 0.0 0.045371037 -0.32431915 0.0 0.055483904 -0.31654555 0.0 0.066333383 -0.23203421 0.0 2.7230409999999998e-08 -0.23152947 0.0 0.0090259556 -0.23000474 0.0 0.017809814 -0.2274317 0.0 0.026278113999999998 -0.22378108 0.0 0.034608087999999995 -0.21905617 0.0 0.043225288 -0.21333165 0.0 0.05270833900000001 -0.2067959 0.0 0.063318759 -0.1464458 0.0 3.4230581e-08 -0.14592591 0.0 0.0082876133 -0.14437115 0.0 0.016276463999999997 -0.14179879 0.0 0.023831993 -0.13825281 0.0 0.031074001 -0.13382497 0.0 0.038383383 -0.12866917 0.0 0.046311925999999996 -0.12300779 0.0 0.055168590999999996 -0.08087541200000001 0.0 -3.8701336999999995e-08 -0.08043769 0.0 0.007353039499999999 -0.079141244 0.0 0.014408647 -0.077040069 0.0 0.021028282000000002 -0.07423149 0.0 0.027323665 -0.070865974 0.0 0.033660199 -0.06714518400000001 0.0 0.040555164 -0.063302755 0.0 0.048299678 -0.023043441 0.0 -2.1231182e-08 -0.022757633 0.0 0.006485418000000001 -0.021922514 0.0 0.012725532 -0.020603307 0.0 0.018626455 -0.018909775 0.0 0.024331816000000003 -0.016993761 0.0 0.030219527000000003 -0.01504308 0.0 0.036779284 -0.013247123999999999 0.0 0.044239253 0.035884686 0.0 2.1323546000000004e-08 0.035988532000000004 0.0 0.0058849873 0.036283165 0.0 0.011604308 0.036719769 0.0 0.017132843000000002 0.037225388 0.0 0.022665622000000003 0.037708219 0.0 0.028609101 0.038067039 0.0 0.035435539 0.038221992999999996 0.0 0.043287907 0.09800846099999999 0.0 7.519743400000001e-08 0.09793972199999999 0.0 0.0056440234 0.097728632 0.0 0.01119953 0.097366862 0.0 0.016706217 0.09685388199999999 0.0 0.022406613 0.09620658300000001 0.0 0.028735538999999997 0.095465846 0.0 0.036155887000000005 0.094711915 0.0 0.044729222 0.1605271 0.0 7.771969e-08 0.16032094 0.0 0.00573947 0.15971361 0.0 0.01144015 0.15874767 0.0 0.017180318 0.15751098 0.0 0.023228649 0.15614809 0.0 0.030036787000000002 0.1548629 0.0 0.038063243 0.15391332 0.0 0.047316305 0.21972604 0.0 2.7526283e-08 0.21942855 0.0 0.0060604336 0.21856426 0.0 0.012090321999999999 0.2172249 0.0 0.018170597 0.21558024 0.0 0.024568827999999997 0.21389024 0.0 0.031739388 0.21250273 0.0 0.040144123 0.21183003 0.0 0.04978053599999999 0.27309155 0.0 2.1218405e-08 0.27275476 0.0 0.0064570619999999995 0.27178568 0.0 0.012849194 0.27031404 0.0 0.019224044 0.26856792 0.0 0.025827199 0.26688224 0.0 0.033109691000000004 0.26569331 0.0 0.041550815 0.26550823 0.0 0.051181629000000006 0.31237134 0.0 5.534802e-09 0.31211933 0.0 0.0067942254 0.31141007 0.0 0.013454595 0.31039244 0.0 0.019967696 0.30930489 0.0 0.026540717000000002 0.30847809 0.0 0.033628695 0.30832806 0.0 0.041756589 0.30936283 0.0 0.051039033 0.32910624 0.0 2.6057576e-08 0.32911971 0.0 0.0069735353 0.32920864 0.0 0.013762537 0.32942966 0.0 0.020283738 0.32987386 0.0 0.026689626 0.33073461 0.0 0.033405975 0.33231446 0.0 0.041010655 0.33499417 0.0 0.049748550999999995 0.33324221 0.0 6.3360779e-09 0.33343345 0.0 0.0071110101 0.33403116 0.0 0.013958894 0.33508077 0.0 0.020485204 0.3366605 0.0 0.02680582 0.33893108 0.0 0.033289872000000005 0.3420254 0.0 0.040480979 0.34619719 0.0 0.048755109000000005 0.33321303 0.0 -7.4377984e-09 0.33346972 0.0 0.0071376897 0.33427858 0.0 0.014078691 0.33568797 0.0 0.020694071 0.33775777 0.0 0.027035728 0.34061912 0.0 0.033455566 0.34441239 0.0 0.040512796000000004 0.34932232 0.0 0.048581421 0.33101723 0.0 -6.5449473e-09 0.33134806 0.0 0.0072254403 0.3323639 0.0 0.014214174 0.33407119 0.0 0.020844894 0.33653483 0.0 0.02721462 0.33979639 0.0 0.033636674 0.3439827 0.0 0.040598541 0.34930971 0.0 0.048435077 0.32769373 0.0 6.344576e-09 0.32807156 0.0 0.0070545747999999995 0.3292163 0.0 0.013895668 0.33112296 0.0 0.020366229 0.33380747 0.0 0.026620036 0.33736718 0.0 0.033088107 0.34187138 0.0 0.040152524 0.3475205 0.0 0.047871541 0.32328585 0.0 1.0569318e-09 0.32371363 0.0 0.0066847377 0.32497674 0.0 0.013272375 0.32705435 0.0 0.019781891 0.32995868 0.0 0.026179213 0.33373556 0.0 0.032707896 0.33854964 0.0 0.039664667 0.3446483 0.0 0.047214016 0.31772566 0.0 2.7217828e-09 0.31813875 0.0 0.0064395298 0.31952515 0.0 0.012880495 0.32184553 0.0 0.01922386 0.32503417 0.0 0.025572882999999998 0.32915133 0.0 0.032108727999999996 0.33429334 0.0 0.038820855 0.34081686 0.0 0.045793209 0.31096718 0.0 3.2342569e-09 0.31147972 0.0 0.0061757648 0.31299782 0.0 0.012303585 0.31551814 0.0 0.018505603 0.31901285 0.0 0.024830934 0.32349774 0.0 0.031224899 0.32914457 0.0 0.037676249 0.33615893 0.0 0.043957289000000004 0.30346352 0.0 8.7231655e-10 0.30400589 0.0 0.0058498089000000005 0.30558899 0.0 0.011691854 0.30830523 0.0 0.017791968000000002 0.31213525 0.0 0.024031727000000003 0.31709614 0.0 0.030272677999999997 0.32333338 0.0 0.036182359 0.33116502 0.0 0.041563679 0.29545051 0.0 2.8377294e-09 0.2960341 0.0 0.0056368513 0.2977424 0.0 0.011269442 0.30064178 0.0 0.017087288 0.30484751 0.0 0.023099107999999997 0.31042355 0.0 0.028874003999999998 0.31736419 0.0 0.033860892000000004 0.32623893 0.0 0.038050368 0.28734869 0.0 3.4287293e-09 0.28796664 0.0 0.0054092011 0.28985232 0.0 0.010828737 0.29297069 0.0 0.016217861 0.29768342 0.0 0.021725636 0.30384189 0.0 0.026560647000000003 0.31193352 0.0 0.030537598 0.32148981 0.0 0.033313826 0.27963084 0.0 3.6433188e-09 0.28030738 0.0 0.0050938008 0.28233671 0.0 0.01011839 0.28585875 0.0 0.014961098999999999 0.29100212 0.0 0.019442014 0.29815039 0.0 0.023279585 0.30680412 0.0 0.025926229 0.31773826 0.0 0.028172207999999997 0.2728599 0.0 1.0209397e-08 0.273572 0.0 0.0045851328999999994 0.27582279 0.0 0.0089981658 0.27964064 0.0 0.012913641000000002 0.28549901 0.0 0.016321151000000002 0.29302555 0.0 0.018870592 0.30282336 0.0 0.02113387 0.31485102 0.0 0.023195585 0.26730382 0.0 1.0874088e-08 0.26806214 0.0 0.0037990781 0.2704592 0.0 0.0072588198999999996 0.27466682 0.0 0.0100604 0.28069001 0.0 0.012301397 0.28919864 0.0 0.014586525 0.29972956 0.0 0.01663414 0.31264597 0.0 0.019036118 0.26259604 0.0 1.4096302999999998e-08 0.26347733 0.0 0.0026830395 0.26598918 0.0 0.0049577425 0.27041179 0.0 0.0067595382999999995 0.27707416 0.0 0.0087424414 0.28622365 0.0 0.010939018 0.297609 0.0 0.013409839 0.31109753 0.0 0.016051779 0.25844249 0.0 1.5804332e-08 0.25934184 0.0 0.0014538659 0.26221696 0.0 0.0028043846000000002 0.26708776 0.0 0.0043627536 0.27419534 0.0 0.0063303551 0.28418624 0.0 0.0089304829 0.29548219 0.0 0.011102187 0.30753812 0.0 0.01348012 0.25441673 0.0 1.3180366999999999e-08 0.25544319 0.0 0.0006058841799999999 0.25853243 0.0 0.0016665867 0.26368171 0.0 0.0030009903000000004 0.27084008 0.0 0.0046019438 0.28027263 0.0 0.0068111201 0.29001859 0.0 0.0083985655 0.30004704 0.0 0.011321758999999999 0.24923322 0.0 8.6663112e-09 0.25009519 0.0 -0.00027119659 0.25294349 0.0 -7.164344399999999e-05 0.25789678 0.0 0.00081809406 0.26420254 0.0 0.0019066248999999999 0.27227268 0.0 0.0041306601 0.27963749 0.0 0.006022363 0.24251564 0.0 8.9738723e-09 0.24325453 0.0 -0.0008260357400000001 0.24542043 0.0 -0.0015550498 0.24888678 0.0 -0.0019028295000000001 0.25376752 0.0 -0.00048024693 -0.0058588930000000004 0.0 0.00058555225 -0.005679445799999999 0.0 0.00071890262 -0.0054157418 0.0 0.0008575924400000001 -0.005044695 0.0 0.0010020139 -0.0045480751 0.0 0.0011369784 -0.003925913 0.0 0.0012370233 -0.0031998283 0.0 0.0012735013000000001 -0.0082189441 0.0 0.0007885386 -0.0079857381 0.0 0.0009564926699999999 -0.0076284468999999995 0.0 0.0011366094 -0.0071144225 0.0 0.0013072997999999999 -0.006408055300000001 0.0 0.0014487556 -0.0054907566000000005 0.0 0.0015288207 -0.0043689292 0.0 0.0015244992000000002 -0.0030725353999999996 0.0 0.0016458173999999999 -0.011197235 0.0 0.00091558625 -0.010902374 0.0 0.0010960944 -0.010440331 0.0 0.0012800882 -0.0097548515 0.0 0.0014550147 -0.0088002561 0.0 0.0015803622 -0.007538260400000001 0.0 0.0016575507999999999 -0.0060019991000000005 0.0 0.0016728895 -0.0042311801 0.0 0.0017596212 -0.014503375 0.0 0.00097544992 -0.014150063999999999 0.0 0.0011539269 -0.013584408000000001 0.0 0.0013355961 -0.012730061 0.0 0.0015033882 -0.011523598999999999 0.0 0.0016156875 -0.0099208048 0.0 0.0016764407999999998 -0.0079542669 0.0 0.0016784598999999999 -0.0056449953 0.0 0.0017926685999999999 -0.018005619 0.0 0.00097827159 -0.017603327 0.0 0.0011487779 -0.016948618000000002 0.0 0.0013186831 -0.015943307 0.0 0.0014717594 -0.014506682 0.0 0.0015639360000000001 -0.012570178000000001 0.0 0.0016112218 -0.010160314 0.0 0.0016127843 -0.0072717168 0.0 0.0018027576 -0.021699362000000003 0.0 0.0009488106599999999 -0.021260321000000002 0.0 0.0011056244999999999 -0.020533955 0.0 0.001252771 -0.019400736000000002 0.0 0.0013799059 -0.017755102 0.0 0.0014445076 -0.015501716 0.0 0.0014814923000000002 -0.012646486 0.0 0.0015061478 -0.0091362372 0.0 0.0018283875 -0.025663696 0.0 0.0009208106800000001 -0.02520139 0.0 0.0010549983 -0.02441889 0.0 0.0011684349 -0.02317429 0.0 0.0012579436 -0.021332702000000002 0.0 0.0012947877 -0.018776404 0.0 0.0013295803 -0.015477348 0.0 0.0014139076999999999 -0.011294911000000001 0.0 0.0019404721 -0.029997185 0.0 0.0009331862099999999 -0.029524185 0.0 0.0010391193 -0.02869821 0.0 0.0011136545 -0.027352707 0.0 0.0011638991 -0.025329605 0.0 0.0011710122 -0.022465392999999997 0.0 0.0012293948 -0.018731242 0.0 0.001406682 -0.013835005 0.0 0.0022104878 -0.034766082000000004 0.0 0.0010363508 -0.034293979 0.0 0.0011170738 -0.033437543 0.0 0.0011586307000000001 -0.031999613999999996 0.0 0.0011797923 -0.029794677999999998 0.0 0.001158121 -0.026615035 0.0 0.0012614008 -0.022475453 0.0 0.0015110741 -0.016941968 0.0 0.0025278537 -0.039996117000000005 0.0 0.0012900617 -0.039534717999999996 0.0 0.0013625405 -0.038663752 0.0 0.0013815813 -0.037151172999999996 0.0 0.0013699795 -0.03476591 0.0 0.0013172347 -0.031304009 0.0 0.0013993470999999998 -0.026824549 0.0 0.0016220188 -0.021005483 0.0 0.0024452223 -0.045705449 0.0 0.0017519357 -0.045261659 0.0 0.0018362046 -0.044391415999999996 0.0 0.0018408981 -0.042840737999999996 0.0 0.001785211 -0.04031295 0.0 0.0016758231 -0.036654322999999996 0.0 0.0016093004 -0.03199533 0.0 0.0016741201000000001 -0.026345367999999997 0.0 0.0019187551 -0.051924221 0.0 0.0024591042000000002 -0.051502905999999994 0.0 0.0025751768 -0.050638348 0.0 0.0026099598 -0.049092855 0.0 0.0025016917 -0.046475235 0.0 0.0023519567000000003 -0.042707155999999996 0.0 0.0022210239000000002 -0.037992276 0.0 0.0023418874 -0.032154884 0.0 0.0028735669 -0.05869815900000001 0.0 0.0034170053000000004 -0.058292627 0.0 0.0036422234999999997 -0.057452329 0.0 0.0037797736 -0.055941097 0.0 0.0037572556 -0.053358931 0.0 0.0038183043 -0.04958483599999999 0.0 0.0042401832 -0.044717241 0.0 0.0057664081 -0.038598515 0.0 0.0079941107 -0.06608209799999999 0.0 0.0046366509 -0.065688014 0.0 0.0050551868 -0.064887889 0.0 0.0054008542 -0.063447081 0.0 0.0057229102 -0.06104093 0.0 0.0062710023 -0.057431236 0.0 0.0075553954000000005 -0.052698862 0.0 0.0099415733 -0.046797427999999995 0.0 0.012294256000000002 -0.074124999 0.0 0.0061193635 -0.073748358 0.0 0.006784615600000001 -0.07298126099999999 0.0 0.0074518672 -0.07163341299999999 0.0 0.0081968028 -0.069440767 0.0 0.0092396084 -0.066190191 0.0 0.010920112 -0.061869249 0.0 0.013161335 -0.05639402599999999 0.0 0.015146598999999998 -0.082877845 0.0 0.0078133643 -0.082514159 0.0 0.0087359063 -0.081771076 0.0 0.0097130938 -0.08047656 0.0 0.010828208 -0.07842236799999999 0.0 0.012169477 -0.075434178 0.0 0.013892739 -0.071478412 0.0 0.015758118 -0.066566952 0.0 0.017392203000000002 -0.09238144 0.0 0.009606284100000001 -0.092019893 0.0 0.010789544 -0.091274768 0.0 0.012013875 -0.089970425 0.0 0.013359203 -0.087927356 0.0 0.014831038000000001 -0.085012764 0.0 0.016472174 -0.081218131 0.0 0.018083723 -0.07662248599999999 0.0 0.019531021000000003 -0.10267098 0.0 0.011420834 -0.10229026 0.0 0.01282254 -0.10151571 0.0 0.014234345 -0.10015546 0.0 0.015714633999999998 -0.09801431699999999 0.0 0.017241249 -0.094995581 0.0 0.018804226 -0.091100425 0.0 0.020294819 -0.086437814 0.0 0.021644296 -0.11377981 0.0 0.013190243999999999 -0.11335562 0.0 0.014770078999999998 -0.11252402 0.0 0.016326781000000002 -0.11108139 0.0 0.017887741000000002 -0.10878365 0.0 0.019456685 -0.1055517 0.0 0.020990781 -0.10137133 0.0 0.022447107 -0.09632025699999999 0.0 0.023780638 -0.12574406 0.0 0.014877978 -0.12524948 0.0 0.016608618000000002 -0.1243334 0.0 0.01828726 -0.12277867 0.0 0.019918976 -0.12030128 0.0 0.021530722999999998 -0.11680804 0.0 0.023073681000000002 -0.11225364 0.0 0.024556875 -0.10669872 0.0 0.025906952 -0.13859904 0.0 0.016455163999999998 -0.1380067 0.0 0.01832181 -0.13697839 0.0 0.020123642 -0.13528356 0.0 0.021836223 -0.13259706 0.0 0.023502735 -0.12880397 0.0 0.025075216 -0.12382387 0.0 0.026613245 -0.11773557 0.0 0.027979632999999997 -0.15238006 0.0 0.017887317 -0.15166236 0.0 0.019891016 -0.15049335 0.0 0.021829637000000002 -0.1486254 0.0 0.023646345 -0.14569512 0.0 0.025386013 -0.14155963 0.0 0.027002657000000003 -0.13610911 0.0 0.028588542999999998 -0.12943698 0.0 0.029969996000000002 -0.16712055 0.0 0.019143732 -0.1662527 0.0 0.02129031 -0.16491668 0.0 0.023375463 -0.16283956 0.0 0.025317881 -0.15962747 0.0 0.027150808 -0.15509945 0.0 0.028838599 -0.1491278 0.0 0.030462364 -0.1418099 0.0 0.031858161 -0.18285878 0.0 0.020210478 -0.18182163 0.0 0.022493783 -0.18029629 0.0 0.024719388999999998 -0.17797726 0.0 0.026789607000000003 -0.1744415 0.0 0.02873186 -0.16946869 0.0 0.030534189 -0.16292426 0.0 0.032208692000000004 -0.15489076 0.0 0.033629589 -0.19963624 0.0 0.021108605 -0.19841991 0.0 0.023500238 -0.19668941 0.0 0.025828103999999998 -0.19410366 0.0 0.027998149 -0.1902142 0.0 0.03003074 -0.1847502 0.0 0.032009829 -0.17759246 0.0 0.03379513 -0.16878723 0.0 0.03527385 -0.21749164 0.0 0.021908753 -0.21608956 0.0 0.024357893999999998 -0.21414797 0.0 0.026713763999999997 -0.21128786 0.0 0.028910683 -0.20703979 0.0 0.030962106 -0.20106775 0.0 0.033163618 -0.19329666 0.0 0.03518296 -0.1837348 0.0 0.036788724 -0.23643148 0.0 0.022726906 -0.23483606 0.0 0.025180267000000003 -0.23268311 0.0 0.027469121000000003 -0.22956152 0.0 0.029572493999999998 -0.22498442 0.0 0.031503826 -0.21854818 0.0 0.033922471 -0.21025375 0.0 0.036347887999999995 -0.20010747 0.0 0.038195271 -0.25634912 0.0 0.023688845 -0.25453949 0.0 0.026127791 -0.25216728 0.0 0.028271322999999998 -0.24882261 0.0 0.030123107000000003 -0.24397016 0.0 0.03177993 -0.23721036 0.0 0.034309848999999996 -0.22860284 0.0 0.037314035 -0.21827632 0.0 0.039548144 -0.27685994 0.0 0.024888171 -0.27477008 0.0 0.027357157000000003 -0.27215406 0.0 0.029362051 -0.26860508 0.0 0.030887078 -0.26354736 0.0 0.032101213999999996 -0.25669393 0.0 0.034514662 -0.24811606 0.0 0.03820492 -0.23822802 0.0 0.040962487 -0.29708347 0.0 0.026407447 -0.2946251 0.0 0.028968321000000002 -0.29166064 0.0 0.030973618999999997 -0.28779542 0.0 0.032302462000000004 -0.28278038 0.0 0.03285338 -0.2760624 0.0 0.034967836 -0.26790297 0.0 0.039293002 -0.25912607 0.0 0.042676165999999995 -0.31584033 0.0 0.027999753 -0.31292716 0.0 0.030780487000000002 -0.3095884 0.0 0.032821592000000004 -0.3055149 0.0 0.033963341 -0.30034021 0.0 0.034460094 -0.29379314 0.0 0.036547232 -0.28644636 0.0 0.041181561 -0.2792713 0.0 0.045138709000000006 -0.33195555 0.0 0.029196187999999998 -0.32874113 0.0 0.032176483 -0.32523474 0.0 0.034367352999999996 -0.32094321 0.0 0.03589667 -0.31579888 0.0 0.03691677 -0.30939499 0.0 0.0400097 -0.30233282 0.0 0.04478354 -0.29638097 0.0 0.049113425999999995 -0.34469485 0.0 0.029751064 -0.34123117 0.0 0.032968786 -0.33770254 0.0 0.035752638999999996 -0.33366442 0.0 0.038452629 -0.32854033 0.0 0.041762155 -0.32201767 0.0 0.04676412 -0.314845 0.0 0.05090621099999999 -0.30875921 0.0 0.055328194000000004 -0.35353398 0.0 0.029847296000000002 -0.34980777 0.0 0.034008395 -0.345824 0.0 0.038565375 -0.34114128 0.0 0.044543367 -0.33519486 0.0 0.052370402999999996 -0.32838586 0.0 0.057518143 -0.32117838 0.0 0.059649095 -0.31349251 0.0 0.063302703 -0.35642487 0.0 0.032972295 -0.35208398 0.0 0.03913182 -0.34743381 0.0 0.046596039000000006 -0.34143224 0.0 0.056829263 -0.33375475 0.0 0.066475235 -0.326628 0.0 0.068372495 -0.31761363 0.0 0.067829072 -0.30331099 0.0 0.071217291 -0.34857586 0.0 0.045211963 -0.34230468 0.0 0.054953068 -0.33535424 0.0 0.066221356 -0.32645407 0.0 0.07721813799999999 -0.31841964 0.0 0.080752343 -0.31088829 0.0 0.076522805 -0.28934333 0.0 0.073379613 -0.24484511 0.0 0.07627195099999999 -0.30832842 0.0 0.07763952 -0.30024263 0.0 0.087868482 -0.29123199 0.0 0.09340228099999999 -0.28149691 0.0 0.09317214 -0.26507294 0.0 0.088251039 -0.23482628 0.0 0.079984426 -0.19397949 0.0 0.076974981 -0.15416345 0.0 0.08003673 -0.19980128 0.0 0.074237555 -0.19272935 0.0 0.084691912 -0.18503316 0.0 0.091035545 -0.17467362 0.0 0.089615524 -0.15917148 0.0 0.08513111599999999 -0.13821192 0.0 0.07975518 -0.11322436 0.0 0.07765367599999999 -0.089427337 0.0 0.083621427 -0.11714961 0.0 0.064264312 -0.11140146 0.0 0.072983854 -0.10564937 0.0 0.081452817 -0.098717973 0.0 0.082906656 -0.089605875 0.0 0.079928473 -0.078205459 0.0 0.07844092700000001 -0.065563709 0.0 0.07627178700000001 -0.05315575 0.0 0.08750165300000001 -0.059593894 0.0 0.056233522 -0.056225265999999996 0.0 0.063768543 -0.053166948 0.0 0.071548715 -0.050000142000000004 0.0 0.076437406 -0.04638996 0.0 0.076425463 -0.042319424 0.0 0.079247072 -0.038023874 0.0 0.075484656 -0.033268914 0.0 0.090109378 -0.011768376 0.0 0.051886644 -0.010709015 0.0 0.059175972 -0.010104255 0.0 0.06719870900000001 -0.010023752 0.0 0.07388377900000001 -0.010701233000000001 0.0 0.07617937 -0.012179298 0.0 0.079602093 -0.013850507 0.0 0.07510839400000001 -0.014820497 0.0 0.091191411 0.038148392 0.0 0.051345012999999995 0.037848108 0.0 0.059089407000000004 0.037145119 0.0 0.067913949 0.035374366000000004 0.0 0.0766415 0.031579979 0.0 0.078402884 0.025603773 0.0 0.07909872400000001 0.018640075 0.0 0.07487008 0.011950233000000001 0.0 0.091263071 0.094080858 0.0 0.053506560999999994 0.093663022 0.0 0.061919077999999995 0.09304183699999999 0.0 0.071412466 0.090754636 0.0 0.080538489 0.084585465 0.0 0.079955608 0.074514151 0.0 0.078108907 0.061882097000000004 0.0 0.074715078 0.048565544 0.0 0.090613328 0.15359272 0.0 0.056748062 0.15404694 0.0 0.06570569400000001 0.15454194 0.0 0.075530961 0.15251896 0.0 0.083059914 0.1444851 0.0 0.080723591 0.13017447 0.0 0.077771299 0.11141825 0.0 0.07468888900000001 0.09075950099999999 0.0 0.08941912699999999 0.21229513 0.0 0.059566725 0.2140702 0.0 0.06879946599999999 0.21607316 0.0 0.078678787 0.21430165 0.0 0.08394835099999999 0.20443934 0.0 0.081054352 0.18582767 0.0 0.077912807 0.16092701 0.0 0.07505895900000001 0.13307832 0.0 0.088117734 0.26682836 0.0 0.060960371 0.2698285 0.0 0.070198394 0.2730386 0.0 0.079730831 0.27071935 0.0 0.083397053 0.25801951 0.0 0.080435172 0.23624311 0.0 0.078221262 0.20587371 0.0 0.076133288 0.17201728 0.0 0.08721374 0.31213304 0.0 0.060544834000000006 0.31687859 0.0 0.069639407 0.32165354 0.0 0.07845602900000001 0.31818503 0.0 0.080816507 0.30276433 0.0 0.07938066099999999 0.27760193 0.0 0.078585923 0.2440576 0.0 0.077593647 0.20631367 0.0 0.086461656 0.33918956 0.0 0.05892160900000001 0.34513557 0.0 0.068029612 0.35177857 0.0 0.076963067 0.35240668 0.0 0.078609571 0.33824101 0.0 0.07741290299999999 0.30993953 0.0 0.079308301 0.27442899 0.0 0.07915201 0.23589805 0.0 0.085269168 0.35164726 0.0 0.057706293 0.35853198 0.0 0.066910468 0.36641949 0.0 0.076263115 0.37077186 0.0 0.079378799 0.36359075 0.0 0.077166922 0.33681375 0.0 0.079739764 0.30086198 0.0 0.080237657 0.26271537 0.0 0.083738945 0.35548532 0.0 0.057444662 0.36301067 0.0 0.066586554 0.37168249 0.0 0.075712956 0.37903386 0.0 0.081220344 0.37886789 0.0 0.078951299 0.35973176 0.0 0.07913252 0.32566276 0.0 0.080093555 0.28876099 0.0 0.082137942 0.3558729 0.0 0.056948781 0.36383477 0.0 0.06557871400000001 0.37314504 0.0 0.07435482 0.38231745 0.0 0.08088138 0.3862513 0.0 0.080038771 0.37869281 0.0 0.07804765599999999 0.34934482 0.0 0.078610972 0.31524298 0.0 0.08006794 0.35450158 0.0 0.056165207 0.36296943 0.0 0.064636081 0.3729392 0.0 0.07266489400000001 0.38315713 0.0 0.078471921 0.39022833 0.0 0.078752846 0.39037442 0.0 0.076765478 0.37271959 0.0 0.075204059 0.34296474 0.0 0.077442475 0.35210392 0.0 0.054867767000000005 0.36127931 0.0 0.06252659099999999 0.37192377 0.0 0.069417872 0.38288027 0.0 0.074212477 0.3915928 0.0 0.074745744 0.39658514 0.0 0.073746525 0.39395192 0.0 0.071604803 0.37256271 0.0 0.07408376 0.34880903 0.0 0.05267382 0.3587952 0.0 0.059324719000000005 0.37038511 0.0 0.065159217 0.38218242 0.0 0.06889864799999999 0.39176014 0.0 0.069157198 0.40004459 0.0 0.06862779 0.40465134 0.0 0.068402819 0.40136749 0.0 0.06931404 0.34501278 0.0 0.049950738 0.35584527 0.0 0.055175669000000004 0.36846572 0.0 0.059663955 0.38104367 0.0 0.062604532 0.39083797 0.0 0.062126409 0.40011576 0.0 0.062103488 0.40906394 0.0 0.063531354 0.41046825 0.0 0.064535715 0.34091598 0.0 0.046126049 0.35277247 0.0 0.050062452 0.36633199 0.0 0.0534807 0.37897924 0.0 0.055059299000000006 0.38856959 0.0 0.054359399 0.39801821 0.0 0.055801928 0.40850994 0.0 0.058521292999999995 0.33682874 0.0 0.041235733999999996 0.34983039 0.0 0.044210535 0.36398432 0.0 0.046688470999999995 0.37593251 0.0 0.047132201 0.38508385 0.0 0.046964951 0.39511064 0.0 0.050246671 0.40451989 0.0 0.053509343 0.33338705 0.0 0.035746116 0.34726337 0.0 0.038238738 0.36135432 0.0 0.039941035 0.37208903 0.0 0.039566878 0.38135287 0.0 0.041249704 0.39164412 0.0 0.045606151 0.33071727 0.0 0.030331062000000002 0.3449131 0.0 0.032474723 0.35826585 0.0 0.033375271 0.36788845 0.0 0.033245116 0.37775218 0.0 0.037118043999999996 0.38594854 0.0 0.041506901 0.32852015 0.0 0.02534383 0.34247482 0.0 0.027058252999999997 0.35471165 0.0 0.027971577 0.36386272 0.0 0.029683703999999998 0.37311628 0.0 0.034589101000000004 0.32658395 0.0 0.021132987000000002 0.33955547 0.0 0.022642987000000003 0.35096076 0.0 0.025091894 0.35889864 0.0 0.028243206 0.32366711 0.0 0.017642738 0.33534381 0.0 0.020384375 0.34515837 0.0 0.024183242 0.34688187 0.0 0.026133606 0.31812826 0.0 0.015661424 0.32723737 0.0 0.019375717 0.30727389 0.0 0.014087535 
Acec 3 2975 float
0.0 0.0 0.0 0.0 0.0 0.0 0.0 0.0 0.0 0.0 0.0 0.0 0.0 0.0 0.0 0.0 0.0 0.0 0.0 0.0 0.0 0.0 0.0 0.0 0.0 0.0 0.0 0.0 0.0 0.0 0.0 0.0 0.0 0.0 0.0 0.0 0.0 0.0 0.0 0.0 0.0 0.0 0.0 0.0 0.0 0.0 0.0 0.0 0.0 0.0 0.0 0.0 0.0 0.0 0.0 0.0 0.0 0.0 0.0 0.0 0.0 0.0 0.0 0.0 0.0 0.0 0.0 0.0 0.0 0.0 0.0 0.0 0.0 0.0 0.0 0.0 0.0 0.0 0.0 0.0 0.0 0.0 0.0 0.0 0.0 0.0 0.0 0.0 0.0 0.0 0.0 0.0 0.0 0.0 0.0 0.0 0.0 0.0 0.0 0.0 0.0 0.0 0.0 0.0 0.0 0.0 0.0 0.0 0.0 0.0 0.0 0.0 0.0 0.0 0.0 0.0 0.0 0.0 0.0 0.0 0.0 0.0 0.0 0.0 0.0 0.0 0.0 0.0 0.0 0.0 0.0 0.0 0.0 0.0 0.0 0.0 0.0 0.0 0.0 0.0 0.0 0.0 0.0 0.0 0.0 0.0 0.0 0.0 0.0 0.0 0.0 0.0 0.0 0.0 0.0 0.0 0.0 0.0 0.0 0.0 0.0 0.0 0.0 0.0 0.0 0.0 0.0 0.0 0.0 0.0 0.0 0.0 0.0 0.0 0.0 0.0 0.0 0.0 0.0 0.0 0.0 0.0 0.0 0.0 0.0 0.0 0.0 0.0 0.0 0.0 0.0 0.0 0.0 0.0 0.0 0.0 0.0 0.0 0.0 0.0 0.0 0.0 0.0 0.0 0.0 0.0 0.0 0.0 0.0 0.0 0.0 0.0 0.0 0.0 0.0 0.0 0.0 0.0 0.0 0.0 0.0 0.0 0.0 0.0 0.0 0.0 0.0 0.0 0.0 0.0 0.0 0.0 0.0 0.0 0.0 0.0 0.0 0.0 0.0 0.0 0.0 0.0 0.0 0.0 0.0 0.0 0.0 0.0 0.0 0.0 0.0 0.0 0.0 0.0 0.0 0.0 0.0 0.0 0.0 0.0 0.0 0.0 0.0 0.0 0.0 0.0 0.0 0.0 0.0 0.0 0.0 0.0 0.0 0.0 0.0 0.0 0.0 0.0 0.0 0.0 0.0 0.0 0.0 0.0 0.0 0.0 0.0 0.0 0.0 0.0 0.0 0.0 0.0 0.0 0.0 0.0 0.0 0.0 0.0 0.0 0.0 0.0 0.0 0.0 0.0 0.0 0.0 0.0 0.0 0.0 0.0 0.0 0.0 0.0 0.0 0.0 0.0 0.0 0.0 0.0 0.0 0.0 0.0 0.0 0.0 0.0 0.0 0.0 0.0 0.0 0.0 0.0 0.0 0.0 0.0 0.0 0.0 0.0 0.0 0.0 0.0 0.0 0.0 0.0 0.0 0.0 0.0 0.0 0.0 0.0 0.0 0.0 0.0 0.0 0.0 0.0 0.0 0.0 0.0 0.0 0.0 0.0 0.0 0.0 0.0 0.0 0.0 0.0 0.0 0.0 0.0 0.0 0.0 0.0 0.0 0.0 0.0 0.0 0.0 0.0 0.0 0.0 0.0 0.0 0.0 0.0 0.0 0.0 0.0 0.0 0.0 0.0 0.0 0.0 0.0 0.0 0.0 0.0 0.0 0.0 0.0 0.0 0.0 0.0 0.0 0.0 0.0 0.0 0.0 0.0 0.0 0.0 0.0 0.0 0.0 0.0 0.0 0.0 0.0 0.0 0.0 0.0 0.0 0.0 0.0 0.0 0.0 0.0 0.0 0.0 0.0 0.0 0.0 0.0 0.0 0.0 0.0 0.0 0.0 0.0 0.0 0.0 0.0 0.0 0.0 0.0 0.0 0.0 0.0 0.0 0.0 0.0 0.0 0.0 0.0 0.0 0.0 0.0 0.0 0.0 0.0 0.0 0.0 0.0 0.0 0.0 0.0 0.0 0.0 0.0 0.0 0.0 0.0 0.0 0.0 0.0 0.0 0.0 0.0 0.0 0.0 0.0 0.0 0.0 0.0 0.0 0.0 0.0 0.0 0.0 0.0 0.0 0.0 0.0 0.0 0.0 0.0 0.0 0.0 0.0 0.0 0.0 0.0 0.0 0.0 0.0 0.0 0.0 0.0 0.0 0.0 0.0 0.0 0.0 0.0 0.0 0.0 0.0 0.0 0.0 0.0 0.0 0.0 0.0 0.0 0.0 0.0 0.0 0.0 0.0 0.0 0.0 0.0 0.0 0.0 0.0 0.0 0.0 0.0 0.0 0.0 0.0 0.0 0.0 0.0 0.0 0.0 0.0 0.0 0.0 0.0 0.0 0.0 0.0 0.0 0.0 0.0 0.0 0.0 0.0 0.0 0.0 0.0 0.0 0.0 0.0 0.0 0.0 0.0 0.0 0.0 0.0 0.0 0.0 0.0 0.0 0.0 0.0 0.0 0.0 0.0 0.0 0.0 0.0 0.0 0.0 0.0 0.0 0.0 0.0 0.0 0.0 0.0 0.0 0.0 0.0 0.0 0.0 0.0 0.0 0.0 0.0 0.0 0.0 0.0 0.0 0.0 0.0 0.0 0.0 0.0 0.0 0.0 0.0 0.0 0.0 0.0 0.0 0.0 0.0 0.0 0.0 0.0 0.0 0.0 0.0 0.0 0.0 0.0 0.0 0.0 0.0 0.0 0.0 0.0 0.0 0.0 0.0 0.0 0.0 0.0 0.0 0.0 0.0 0.0 0.0 0.0 0.0 0.0 0.0 0.0 0.0 0.0 0.0 0.0 0.0 0.0 0.0 0.0 0.0 0.0 0.0 0.0 0.0 0.0 0.0 0.0 0.0 0.0 0.0 0.0 0.0 0.0 0.0 0.0 0.0 0.0 0.0 0.0 0.0 0.0 0.0 0.0 0.0 0.0 0.0 0.0 0.0 0.0 0.0 0.0 0.0 0.0 0.0 0.0 0.0 0.0 0.0 0.0 0.0 0.0 0.0 0.0 0.0 0.0 0.0 0.0 0.0 0.0 0.0 0.0 0.0 0.0 0.0 0.0 0.0 0.0 0.0 0.0 0.0 0.0 0.0 0.0 0.0 0.0 0.0 0.0 0.0 0.0 0.0 0.0 0.0 0.0 0.0 0.0 0.0 0.0 0.0 0.0 0.0 0.0 0.0 0.0 0.0 0.0 0.0 0.0 0.0 0.0 0.0 0.0 0.0 0.0 0.0 0.0 0.0 0.0 0.0 0.0 0.0 0.0 0.0 0.0 0.0 0.0 0.0 0.0 0.0 0.0 0.0 0.0 0.0 0.0 0.0 0.0 0.0 0.0 0.0 0.0 0.0 0.0 0.0 0.0 0.0 0.0 0.0 0.0 0.0 0.0 0.0 0.0 0.0 0.0 0.0 0.0 0.0 0.0 0.0 0.0 0.0 0.0 0.0 0.0 0.0 0.0 0.0 0.0 0.0 0.0 0.0 0.0 0.0 0.0 0.0 0.0 0.0 0.0 0.0 0.0 0.0 0.0 0.0 0.0 0.0 0.0 0.0 0.0 0.0 0.0 0.0 0.0 0.0 0.0 0.0 0.0 0.0 0.0 0.0 0.0 0.0 0.0 0.0 0.0 0.0 0.0 0.0 0.0 0.0 0.0 0.0 0.0 0.0 0.0 0.0 0.0 0.0 0.0 0.0 0.0 0.0 0.0 0.0 0.0 0.0 0.0 0.0 0.0 0.0 0.0 0.0 0.0 0.0 0.0 0.0 0.0 0.0 0.0 0.0 0.0 0.0 0.0 0.0 0.0 0.0 0.0 0.0 0.0 0.0 0.0 0.0 0.0 0.0 0.0 0.0 0.0 0.0 0.0 0.0 0.0 0.0 0.0 0.0 0.0 0.0 0.0 0.0 0.0 0.0 0.0 0.0 0.0 0.0 0.0 0.0 0.0 0.0 0.0 0.0 0.0 0.0 0.0 0.0 0.0 0.0 0.0 0.0 0.0 0.0 0.0 0.0 0.0 0.0 0.0 0.0 0.0 0.0 0.0 0.0 0.0 0.0 0.0 0.0 0.0 0.0 0.0 0.0 0.0 0.0 0.0 0.0 0.0 0.0 0.0 0.0 0.0 0.0 0.0 0.0 0.0 0.0 0.0 0.0 0.0 0.0 0.0 0.0 0.0 0.0 0.0 0.0 0.0 0.0 0.0 0.0 0.0 0.0 0.0 0.0 0.0 0.0 0.0 0.0 0.0 0.0 0.0 0.0 0.0 0.0 0.0 0.0 0.0 0.0 0.0 0.0 0.0 0.0 0.0 0.0 0.0 0.0 0.0 0.0 0.0 0.0 0.0 0.0 0.0 0.0 0.0 0.0 0.0 0.0 0.0 0.0 0.0 0.0 0.0 0.0 0.0 0.0 0.0 0.0 0.0 0.0 0.0 0.0 0.0 0.0 0.0 0.0 0.0 0.0 0.0 0.0 0.0 0.0 0.0 0.0 0.0 0.0 0.0 0.0 0.0 0.0 0.0 0.0 0.0 0.0 0.0 0.0 0.0 0.0 0.0 0.0 0.0 0.0 0.0 0.0 0.0 0.0 0.0 0.0 0.0 0.0 0.0 0.0 0.0 0.0 0.0 0.0 0.0 0.0 0.0 0.0 0.0 0.0 0.0 0.0 0.0 0.0 0.0 0.0 0.0 0.0 0.0 0.0 0.0 0.0 0.0 0.0 0.0 0.0 0.0 0.0 0.0 0.0 0.0 0.0 0.0 0.0 0.0 0.0 0.0 0.0 0.0 0.0 0.0 0.0 0.0 0.0 0.0 0.0 0.0 0.0 0.0 0.0 0.0 0.0 0.0 0.0 0.0 0.0 0.0 0.0 0.0 0.0 0.0 0.0 0.0 0.0 0.0 0.0 0.0 0.0 0.0 0.0 0.0 0.0 0.0 0.0 0.0 0.0 0.0 0.0 0.0 0.0 0.0 0.0 0.0 0.0 0.0 0.0 0.0 0.0 0.0 0.0 0.0 0.0 0.0 0.0 0.0 0.0 0.0 0.0 0.0 0.0 0.0 0.0 0.0 0.0 0.0 0.0 0.0 0.0 0.0 0.0 0.0 0.0 0.0 0.0 0.0 0.0 0.0 0.0 0.0 0.0 0.0 0.0 0.0 0.0 0.0 0.0 0.0 0.0 0.0 0.0 0.0 0.0 0.0 0.0 0.0 0.0 0.0 0.0 0.0 0.0 0.0 0.0 0.0 0.0 0.0 0.0 0.0 0.0 0.0 0.0 0.0 0.0 0.0 0.0 0.0 0.0 0.0 0.0 0.0 0.0 0.0 0.0 0.0 0.0 0.0 0.0 0.0 0.0 0.0 0.0 0.0 0.0 0.0 0.0 0.0 0.0 0.0 0.0 0.0 0.0 0.0 0.0 0.0 0.0 0.0 0.0 0.0 0.0 0.0 0.0 0.0 0.0 0.0 0.0 0.0 0.0 0.0 0.0 0.0 0.0 0.0 0.0 0.0 0.0 0.0 0.0 0.0 0.0 0.0 0.0 0.0 0.0 0.0 0.0 0.0 0.0 0.0 0.0 0.0 0.0 0.0 0.0 0.0 0.0 0.0 0.0 0.0 0.0 0.0 0.0 0.0 0.0 0.0 0.0 0.0 0.0 0.0 0.0 0.0 0.0 0.0 0.0 0.0 0.0 0.0 0.0 0.0 0.0 0.0 0.0 0.0 0.0 0.0 0.0 0.0 0.0 0.0 0.0 0.0 0.0 0.0 0.0 0.0 0.0 0.0 0.0 0.0 0.0 0.0 0.0 0.0 0.0 0.0 0.0 0.0 0.0 0.0 0.0 0.0 0.0 0.0 0.0 0.0 0.0 0.0 0.0 0.0 0.0 0.0 0.0 0.0 0.0 0.0 0.0 0.0 0.0 0.0 0.0 0.0 0.0 0.0 0.0 0.0 0.0 0.0 0.0 0.0 0.0 0.0 0.0 0.0 0.0 0.0 0.0 0.0 0.0 0.0 0.0 0.0 0.0 0.0 0.0 0.0 0.0 0.0 0.0 0.0 0.0 0.0 0.0 0.0 0.0 0.0 0.0 0.0 0.0 0.0 0.0 0.0 0.0 0.0 0.0 0.0 0.0 0.0 0.0 0.0 0.0 0.0 0.0 0.0 0.0 0.0 0.0 0.0 0.0 0.0 0.0 0.0 0.0 0.0 0.0 0.0 0.0 0.0 0.0 0.0 0.0 0.0 0.0 0.0 0.0 0.0 0.0 0.0 0.0 0.0 0.0 0.0 0.0 0.0 0.0 0.0 0.0 0.0 0.0 0.0 0.0 0.0 0.0 0.0 0.0 0.0 0.0 0.0 0.0 0.0 0.0 0.0 0.0 0.0 0.0 0.0 0.0 0.0 0.0 0.0 0.0 0.0 0.0 0.0 0.0 0.0 0.0 0.0 0.0 0.0 0.0 0.0 0.0 0.0 0.0 0.0 0.0 0.0 0.0 0.0 0.0 0.0 0.0 0.0 0.0 0.0 0.0 0.0 0.0 0.0 0.0 0.0 0.0 0.0 0.0 0.0 0.0 0.0 0.0 0.0 0.0 0.0 0.0 0.0 0.0 0.0 0.0 0.0 0.0 0.0 0.0 0.0 0.0 0.0 0.0 0.0 0.0 0.0 0.0 0.0 0.0 0.0 0.0 0.0 0.0 0.0 0.0 0.0 0.0 0.0 0.0 0.0 0.0 0.0 0.0 0.0 0.0 0.0 0.0 0.0 0.0 0.0 0.0 0.0 0.0 0.0 0.0 0.0 0.0 0.0 0.0 0.0 0.0 0.0 0.0 0.0 0.0 0.0 0.0 0.0 0.0 0.0 0.0 0.0 0.0 0.0 0.0 0.0 0.0 0.0 0.0 0.0 0.0 0.0 0.0 0.0 0.0 0.0 0.0 0.0 0.0 0.0 0.0 0.0 0.0 0.0 0.0 0.0 0.0 0.0 0.0 0.0 0.0 0.0 0.0 0.0 0.0 0.0 0.0 0.0 0.0 0.0 0.0 0.0 0.0 0.0 0.0 0.0 0.0 0.0 0.0 0.0 0.0 0.0 0.0 0.0 0.0 0.0 0.0 0.0 0.0 0.0 0.0 0.0 0.0 0.0 0.0 0.0 0.0 0.0 0.0 0.0 0.0 0.0 0.0 0.0 0.0 0.0 0.0 0.0 0.0 0.0 0.0 0.0 0.0 0.0 0.0 0.0 0.0 0.0 0.0 0.0 0.0 0.0 0.0 0.0 0.0 0.0 0.0 0.0 0.0 0.0 0.0 0.0 0.0 0.0 0.0 0.0 0.0 0.0 0.0 0.0 0.0 0.0 0.0 0.0 0.0 0.0 0.0 0.0 0.0 0.0 0.0 0.0 0.0 0.0 0.0 0.0 0.0 0.0 0.0 0.0 0.0 0.0 0.0 0.0 0.0 0.0 0.0 0.0 0.0 0.0 0.0 0.0 0.0 0.0 0.0 0.0 0.0 0.0 0.0 0.0 0.0 0.0 0.0 0.0 0.0 0.0 0.0 0.0 0.0 0.0 0.0 0.0 0.0 0.0 0.0 0.0 0.0 0.0 0.0 0.0 0.0 0.0 0.0 0.0 0.0 0.0 0.0 0.0 0.0 0.0 0.0 0.0 0.0 0.0 0.0 0.0 0.0 0.0 0.0 0.0 0.0 0.0 0.0 0.0 0.0 0.0 0.0 0.0 0.0 0.0 0.0 0.0 0.0 0.0 0.0 0.0 0.0 0.0 0.0 0.0 0.0 0.0 0.0 0.0 0.0 0.0 0.0 0.0 0.0 0.0 0.0 0.0 0.0 0.0 0.0 0.0 0.0 0.0 0.0 0.0 0.0 0.0 0.0 0.0 0.0 0.0 0.0 0.0 0.0 0.0 0.0 0.0 0.0 0.0 0.0 0.0 0.0 0.0 0.0 0.0 0.0 0.0 0.0 0.0 0.0 0.0 0.0 0.0 0.0 0.0 0.0 0.0 0.0 0.0 0.0 0.0 0.0 0.0 0.0 0.0 0.0 0.0 0.0 0.0 0.0 0.0 0.0 0.0 0.0 0.0 0.0 0.0 0.0 0.0 0.0 0.0 0.0 0.0 0.0 0.0 0.0 0.0 0.0 0.0 0.0 0.0 0.0 0.0 0.0 0.0 0.0 0.0 0.0 0.0 0.0 0.0 0.0 0.0 0.0 0.0 0.0 0.0 0.0 0.0 0.0 0.0 0.0 0.0 0.0 0.0 0.0 0.0 0.0 0.0 0.0 0.0 0.0 0.0 0.0 0.0 0.0 0.0 0.0 0.0 0.0 0.0 0.0 0.0 0.0 0.0 0.0 0.0 0.0 0.0 0.0 0.0 0.0 0.0 0.0 0.0 0.0 0.0 0.0 0.0 0.0 0.0 0.0 0.0 0.0 0.0 0.0 0.0 0.0 0.0 0.0 0.0 0.0 0.0 0.0 0.0 0.0 0.0 0.0 0.0 0.0 0.0 0.0 0.0 0.0 0.0 0.0 0.0 0.0 0.0 0.0 0.0 0.0 0.0 0.0 0.0 0.0 0.0 0.0 0.0 0.0 0.0 0.0 0.0 0.0 0.0 0.0 0.0 0.0 0.0 0.0 0.0 0.0 0.0 0.0 0.0 0.0 0.0 0.0 0.0 0.0 0.0 0.0 0.0 0.0 0.0 0.0 0.0 0.0 0.0 0.0 0.0 0.0 0.0 0.0 0.0 0.0 0.0 0.0 0.0 0.0 0.0 0.0 0.0 0.0 0.0 0.0 0.0 0.0 0.0 0.0 0.0 0.0 0.0 0.0 0.0 0.0 0.0 0.0 0.0 0.0 0.0 0.0 0.0 0.0 0.0 0.0 0.0 0.0 0.0 0.0 0.0 0.0 0.0 0.0 0.0 0.0 0.0 0.0 0.0 0.0 0.0 0.0 0.0 0.0 0.0 0.0 0.0 0.0 0.0 0.0 0.0 0.0 0.0 0.0 0.0 0.0 0.0 0.0 0.0 0.0 0.0 0.0 0.0 0.0 0.0 0.0 0.0 0.0 0.0 0.0 0.0 0.0 0.0 0.0 0.0 0.0 0.0 0.0 0.0 0.0 0.0 0.0 0.0 0.0 0.0 0.0 0.0 0.0 0.0 0.0 0.0 0.0 0.0 0.0 0.0 0.0 0.0 0.0 0.0 0.0 0.0 0.0 0.0 0.0 0.0 0.0 0.0 0.0 0.0 0.0 0.0 0.0 0.0 0.0 0.0 0.0 0.0 0.0 0.0 0.0 0.0 0.0 0.0 0.0 0.0 0.0 0.0 0.0 0.0 0.0 0.0 0.0 0.0 0.0 0.0 0.0 0.0 0.0 0.0 0.0 0.0 0.0 0.0 0.0 0.0 0.0 0.0 0.0 0.0 0.0 0.0 0.0 0.0 0.0 0.0 0.0 0.0 0.0 0.0 0.0 0.0 0.0 0.0 0.0 0.0 0.0 0.0 0.0 0.0 0.0 0.0 0.0 0.0 0.0 0.0 0.0 0.0 0.0 0.0 0.0 0.0 0.0 0.0 0.0 0.0 0.0 0.0 0.0 0.0 0.0 0.0 0.0 0.0 0.0 0.0 0.0 0.0 0.0 0.0 0.0 0.0 0.0 0.0 0.0 0.0 0.0 0.0 0.0 0.0 0.0 0.0 0.0 0.0 0.0 0.0 0.0 0.0 0.0 0.0 0.0 0.0 0.0 0.0 0.0 0.0 0.0 0.0 0.0 0.0 0.0 0.0 0.0 0.0 0.0 0.0 0.0 0.0 0.0 0.0 0.0 0.0 0.0 0.0 0.0 0.0 0.0 0.0 0.0 0.0 0.0 0.0 0.0 0.0 0.0 0.0 0.0 0.0 0.0 0.0 0.0 0.0 0.0 0.0 0.0 0.0 0.0 0.0 0.0 0.0 0.0 0.0 0.0 0.0 0.0 0.0 0.0 0.0 0.0 0.0 0.0 0.0 0.0 0.0 0.0 0.0 0.0 0.0 0.0 0.0 0.0 0.0 0.0 0.0 0.0 0.0 0.0 0.0 0.0 0.0 0.0 0.0 0.0 0.0 0.0 0.0 0.0 0.0 0.0 0.0 0.0 0.0 0.0 0.0 0.0 0.0 0.0 0.0 0.0 0.0 0.0 0.0 0.0 0.0 0.0 0.0 0.0 0.0 0.0 0.0 0.0 0.0 0.0 0.0 0.0 0.0 0.0 0.0 0.0 0.0 0.0 0.0 0.0 0.0 0.0 0.0 0.0 0.0 0.0 0.0 0.0 0.0 0.0 0.0 0.0 0.0 0.0 0.0 0.0 0.0 0.0 0.0 0.0 0.0 0.0 0.0 0.0 0.0 0.0 0.0 0.0 0.0 0.0 0.0 0.0 0.0 0.0 0.0 0.0 0.0 0.0 0.0 0.0 0.0 0.0 0.0 0.0 0.0 0.0 0.0 0.0 0.0 0.0 0.0 0.0 0.0 0.0 0.0 0.0 0.0 0.0 0.0 0.0 0.0 0.0 0.0 0.0 0.0 0.0 0.0 0.0 0.0 0.0 0.0 0.0 0.0 0.0 0.0 0.0 0.0 0.0 0.0 0.0 0.0 0.0 0.0 0.0 0.0 0.0 0.0 0.0 0.0 0.0 0.0 0.0 0.0 0.0 0.0 0.0 0.0 0.0 0.0 0.0 0.0 0.0 0.0 0.0 0.0 0.0 0.0 0.0 0.0 0.0 0.0 0.0 0.0 0.0 0.0 0.0 0.0 0.0 0.0 0.0 0.0 0.0 0.0 0.0 0.0 0.0 0.0 0.0 0.0 0.0 0.0 0.0 0.0 0.0 0.0 0.0 0.0 0.0 0.0 0.0 0.0 0.0 0.0 0.0 0.0 0.0 0.0 0.0 0.0 0.0 0.0 0.0 0.0 0.0 0.0 0.0 0.0 0.0 0.0 0.0 0.0 0.0 0.0 0.0 0.0 0.0 0.0 0.0 0.0 0.0 0.0 0.0 0.0 0.0 0.0 0.0 0.0 0.0 0.0 0.0 0.0 0.0 0.0 0.0 0.0 0.0 0.0 0.0 0.0 0.0 0.0 0.0 0.0 0.0 0.0 0.0 0.0 0.0 0.0 0.0 0.0 0.0 0.0 0.0 0.0 0.0 0.0 0.0 0.0 0.0 0.0 0.0 0.0 0.0 0.0 0.0 0.0 0.0 0.0 0.0 0.0 0.0 0.0 0.0 0.0 0.0 0.0 0.0 0.0 0.0 0.0 0.0 0.0 0.0 0.0 0.0 0.0 0.0 0.0 0.0 0.0 0.0 0.0 0.0 0.0 0.0 0.0 0.0 0.0 0.0 0.0 0.0 0.0 0.0 0.0 0.0 0.0 0.0 0.0 0.0 0.0 0.0 0.0 0.0 0.0 0.0 0.0 0.0 0.0 0.0 0.0 0.0 0.0 0.0 0.0 0.0 0.0 0.0 0.0 0.0 0.0 0.0 0.0 0.0 0.0 0.0 0.0 0.0 0.0 0.0 0.0 0.0 0.0 0.0 0.0 0.0 0.0 0.0 0.0 0.0 0.0 0.0 0.0 0.0 0.0 0.0 0.0 0.0 0.0 0.0 0.0 0.0 0.0 0.0 0.0 0.0 0.0 0.0 0.0 0.0 0.0 0.0 0.0 0.0 0.0 0.0 0.0 0.0 0.0 0.0 0.0 0.0 0.0 0.0 0.0 0.0 0.0 0.0 0.0 0.0 0.0 0.0 0.0 0.0 0.0 0.0 0.0 0.0 0.0 0.0 0.0 0.0 0.0 0.0 0.0 0.0 0.0 0.0 0.0 0.0 0.0 0.0 0.0 0.0 0.0 0.0 0.0 0.0 0.0 0.0 0.0 0.0 0.0 0.0 0.0 0.0 0.0 0.0 0.0 0.0 0.0 0.0 0.0 0.0 0.0 0.0 0.0 0.0 0.0 0.0 0.0 0.0 0.0 0.0 0.0 0.0 0.0 0.0 0.0 0.0 0.0 0.0 0.0 0.0 0.0 0.0 0.0 0.0 0.0 0.0 0.0 0.0 0.0 0.0 0.0 0.0 0.0 0.0 0.0 0.0 0.0 0.0 0.0 0.0 0.0 0.0 0.0 0.0 0.0 0.0 0.0 0.0 0.0 0.0 0.0 0.0 0.0 0.0 0.0 0.0 0.0 0.0 0.0 0.0 0.0 0.0 0.0 0.0 0.0 0.0 0.0 0.0 0.0 0.0 0.0 0.0 0.0 0.0 0.0 0.0 0.0 0.0 0.0 0.0 0.0 0.0 0.0 0.0 0.0 0.0 0.0 0.0 0.0 0.0 0.0 0.0 0.0 0.0 0.0 0.0 0.0 0.0 0.0 0.0 0.0 0.0 0.0 0.0 0.0 0.0 0.0 0.0 0.0 0.0 0.0 0.0 0.0 0.0 0.0 0.0 0.0 0.0 0.0 0.0 0.0 0.0 0.0 0.0 0.0 0.0 0.0 0.0 0.0 0.0 0.0 0.0 0.0 0.0 0.0 0.0 0.0 0.0 0.0 0.0 0.0 0.0 0.0 0.0 0.0 0.0 0.0 0.0 0.0 0.0 0.0 0.0 0.0 0.0 0.0 0.0 0.0 0.0 0.0 0.0 0.0 0.0 0.0 0.0 0.0 0.0 0.0 0.0 0.0 0.0 0.0 0.0 0.0 0.0 0.0 0.0 0.0 0.0 0.0 0.0 0.0 0.0 0.0 0.0 0.0 0.0 0.0 0.0 0.0 0.0 0.0 0.0 0.0 0.0 0.0 0.0 0.0 0.0 0.0 0.0 0.0 0.0 0.0 0.0 0.0 0.0 0.0 0.0 0.0 0.0 0.0 0.0 0.0 0.0 0.0 0.0 0.0 0.0 0.0 0.0 0.0 0.0 0.0 0.0 0.0 0.0 0.0 0.0 0.0 0.0 0.0 0.0 0.0 0.0 0.0 0.0 0.0 0.0 0.0 0.0 0.0 0.0 0.0 0.0 0.0 0.0 0.0 0.0 0.0 0.0 0.0 0.0 0.0 0.0 0.0 0.0 0.0 0.0 0.0 0.0 0.0 0.0 0.0 0.0 0.0 0.0 0.0 0.0 0.0 0.0 0.0 0.0 0.0 0.0 0.0 0.0 0.0 0.0 0.0 0.0 0.0 0.0 0.0 0.0 0.0 0.0 0.0 0.0 0.0 0.0 0.0 0.0 0.0 0.0 0.0 0.0 0.0 0.0 0.0 0.0 0.0 0.0 0.0 0.0 0.0 0.0 0.0 0.0 0.0 0.0 0.0 0.0 0.0 0.0 0.0 0.0 0.0 0.0 0.0 0.0 0.0 0.0 0.0 0.0 0.0 0.0 0.0 0.0 0.0 0.0 0.0 0.0 0.0 0.0 0.0 0.0 0.0 0.0 0.0 0.0 0.0 0.0 0.0 0.0 0.0 0.0 0.0 0.0 0.0 0.0 0.0 0.0 0.0 0.0 0.0 0.0 0.0 -2.068881 0.0 -0.84200621 -2.4120817000000003 0.0 -0.77935219 -2.6988659 0.0 -0.69788504 -2.9395361 0.0 -0.61141729 -3.1350842 0.0 -0.53036153 -1.9601582999999998 0.0 -1.0812898000000002 -2.5665779 0.0 -0.91673326 -3.006237 0.0 -0.86184549 -3.3416137999999997 0.0 -0.78840971 -3.6147117999999994 0.0 -0.70553172 -3.8391495000000004 0.0 -0.62366259 -2.535634 0.0 -1.0830278 -3.2459536 0.0 -0.92136812 -3.7320614 0.0 -0.84201288 -4.0980129000000005 0.0 -0.7693069 -4.396058099999999 0.0 -0.70330191 -4.6504879 0.0 -0.63213766 -3.231657 0.0 -1.0409851 -4.043412200000001 0.0 -0.85466957 -4.5515947 0.0 -0.78023338 -4.925851799999999 0.0 -0.71909904 -5.240212400000001 0.0 -0.66876364 -5.5224705 0.0 -0.61069 -4.0373201000000005 0.0 -0.99629307 -4.9540029 0.0 -0.76808453 -5.480874099999999 0.0 -0.69886541 -5.858419400000001 0.0 -0.65155387 -6.1858654 0.0 -0.61793041 -6.4931735999999995 0.0 -0.57584572 -4.9714956 0.0 -0.97060299 -6.0045743 0.0 -0.67376232 -6.5467391 0.0 -0.6030798 -6.923300299999999 0.0 -0.57010221 -7.2614832 0.0 -0.55656588 -7.591912700000001 0.0 -0.53341699 -6.053553599999999 0.0 -1.0070591 -7.2122812000000005 0.0 -0.59794044 -7.754890400000001 0.0 -0.50797653 -8.1249123 0.0 -0.48323202 -8.4705219 0.0 -0.48851717 -8.8205814 0.0 -0.48762882 -7.313302 0.0 -1.1439972 -8.5917091 0.0 -0.57011223 -9.1127701 0.0 -0.43264675 -9.45327 0.0 -0.41409874 -9.7984304 0.0 -0.43071079 -10.163568 0.0 -0.45190167 -8.838766099999999 0.0 -1.3038235 -10.131314999999999 0.0 -0.61154175 -10.580158 0.0 -0.43612289 -10.893621000000001 0.0 -0.38613319 -11.227387 0.0 -0.41651416 -11.605782000000001 0.0 -0.45026034 -10.84972 0.0 -1.196228 -11.890636 0.0 -0.63337326 -12.191305 0.0 -0.47703266 -12.439636 0.0 -0.42980862 -12.746448 0.0 -0.47021556 -13.135441 0.0 -0.50696051 -13.517014000000001 0.0 -0.80026245 -13.936569 0.0 -0.6198082 -13.975944 0.0 -0.55159187 -14.099835999999998 0.0 -0.54780865 -14.37306 0.0 -0.59126878 -14.743209 0.0 -0.64196259 -16.318081 0.0 -1.2091026000000002 -16.26569 0.0 -0.89686775 -15.943795999999999 0.0 -0.7671833 -15.87868 0.0 -0.75942802 -16.068514 0.0 -0.82428908 -16.408941 0.0 -0.89138067 -19.173901 0.0 -3.7068176 -18.726454 0.0 -2.4281062999999996 -18.101704 0.0 -1.5202255 -17.747671 0.0 -1.292583 -17.834845 0.0 -1.2421565 -18.146635 0.0 -1.2670923 -22.682213 0.0 -5.6507587 -21.553366 0.0 -4.1345406 -20.432002999999998 0.0 -2.7889117999999997 -19.775748999999998 0.0 -2.1682172000000004 -19.671925 0.0 -1.9012259999999999 -19.932638 0.0 -1.8141162 -26.677219 0.0 -6.8833733 -24.732548 0.0 -5.291275 -22.93185 0.0 -3.9985869 -21.862951000000002 0.0 -3.1673172000000003 -21.557188 0.0 -2.7101287999999997 -21.770108999999998 0.0 -2.4861641 -30.827129 0.0 -7.7600098 -27.878914 0.0 -6.153997400000001 -25.412670000000002 0.0 -4.9623585 -23.953003 0.0 -4.0840774 -23.464344 0.0 -3.549283 -23.649063 0.0 -3.1909952 -34.707165 0.0 -8.5937281 -30.879378999999997 0.0 -6.9098811 -27.812958000000002 0.0 -5.7188292 -26.012714000000003 0.0 -4.8398814 -25.391729 0.0 -4.2578592 -25.569052 0.0 -3.8395665 -38.299267 0.0 -9.3746729 -33.743373999999996 0.0 -7.605709599999999 -30.15946 0.0 -6.332109 -28.05583 0.0 -5.458260500000001 -27.311629999999997 0.0 -4.8761425 -27.513353000000002 0.0 -4.4023050999999995 -41.741512 0.0 -10.090389 -36.567249 0.0 -8.2244034 -32.493041999999996 0.0 -6.8740993 -30.103815 0.0 -5.9578347 -29.269344 0.0 -5.3327837 -29.471822999999997 0.0 -4.857108599999999 -45.197643 0.0 -10.735246 -39.428740999999995 0.0 -8.7330618 -34.845287 0.0 -7.3223720000000005 -32.160686 0.0 -6.346521900000001 -31.220440000000004 0.0 -5.6848412 -31.437099 0.0 -5.208881400000001 -48.72934 0.0 -11.265687 -42.29715 0.0 -9.164980900000002 -37.206661 0.0 -7.6663098 -34.215771000000004 0.0 -6.6283316999999995 -33.172794 0.0 -5.9188652 -33.400669 0.0 -5.4593849 -52.308231 0.0 -11.648361999999999 -45.185898 0.0 -9.4641361 -39.561596 0.0 -7.892880900000001 -36.251213 0.0 -6.7993627000000005 -35.106888 0.0 -6.0513043 -35.354209999999995 0.0 -5.5989556 -55.90583 0.0 -11.848011 -48.065899 0.0 -9.6014671 -41.889584 0.0 -7.9775791 -38.256611 0.0 -6.8324245999999995 -37.004906 0.0 -6.0607204 -37.286636 0.0 -5.6080685 -59.505341 0.0 -11.828016 -50.918301 0.0 -9.5386477 -44.170414 0.0 -7.879226700000001 -40.213634000000006 0.0 -6.6868963 -38.859386 0.0 -5.8972144 -39.189938 0.0 -5.4549297999999995 -63.102551 0.0 -11.567991000000001 -53.738213 0.0 -9.2361526 -46.397739 0.0 -7.5522985 -42.114773 0.0 -6.302096400000001 -40.661762 0.0 -5.5117855 -41.053692 0.0 -5.086071 -66.74344599999999 0.0 -11.042586 -56.548512 0.0 -8.6565228 -48.580582 0.0 -6.927325200000001 -43.964054 0.0 -5.6235151 -42.413284000000004 0.0 -4.845439 -42.88081 0.0 -4.441545 -70.532463 0.0 -10.210269 -59.396439 0.0 -7.7559133000000005 -50.744076 0.0 -5.9412866 -45.77005 0.0 -4.5917993 -44.118637 0.0 -3.8407927 -44.662067 0.0 -3.4757094 -74.589104 0.0 -9.055377 -62.325306000000005 0.0 -6.4817634 -52.914829000000005 0.0 -4.549271599999999 -47.545105 0.0 -3.1519711 -45.775104999999996 0.0 -2.4613728999999998 -46.388195 0.0 -2.1381116000000002 -78.921684 0.0 -7.5602765 -65.304512 0.0 -4.787209 -55.059447999999996 0.0 -2.6305845000000003 -49.252388 0.0 -1.2275994 -47.374783 0.0 -0.61045647 -48.01231 0.0 -0.41090837 -83.383896 0.0 -5.7663398 -68.194305 0.0 -2.6461932999999997 -57.031879 0.0 -0.24830961 -50.772755 0.0 1.1923918 -48.722557 0.0 1.6053393 -49.417435 0.0 1.6938223000000001 -87.498947 0.0 -3.6222105000000004 -70.74276 0.0 -0.086685926 -58.68108 0.0 2.671247 -52.032257 0.0 4.0971317 -49.741165 0.0 4.2586346 -50.374718 0.0 4.0201344 -91.011528 0.0 -1.5630244 -72.991173 0.0 2.9356894000000002 -60.08393100000001 0.0 6.0356112 -52.875401000000004 0.0 7.3301400999999995 -50.381386 0.0 7.4514594 -51.005554 0.0 6.9107107999999995 -93.374626 0.0 0.40375736 -74.61834 0.0 6.106329 -61.106968 0.0 9.553581199999998 -53.434692000000005 0.0 10.968029 -50.699184 0.0 10.884501 -51.278038 0.0 10.195780000000001 -93.516251 0.0 1.6727922999999998 -75.475624 0.0 9.2864714 -61.524902000000004 0.0 12.890029 -53.499287 0.0 14.787107999999998 -50.681438 0.0 14.829782999999999 -51.229153000000004 0.0 13.95113 -87.66497 0.0 0.97670496 -73.573883 0.0 12.249022 -60.187653000000005 0.0 16.656572 -52.488769999999995 0.0 18.433773000000002 -49.97477 0.0 18.378611 -50.703632 0.0 17.6429 -63.059493999999994 0.0 3.8941557 -61.323448 0.0 16.167538 -55.220688 0.0 20.255989000000003 -49.275833 0.0 22.335682000000002 -46.498081 0.0 21.357338000000002 -47.990326 0.0 20.209831 -34.440472 0.0 6.8855786 -34.249828 0.0 19.373707 -34.534851 0.0 25.661089 -35.128197 0.0 28.036407 -36.281864 0.0 28.077152 -38.19957 0.0 25.426762 -18.013344 0.0 5.817364700000001 -17.54055 0.0 22.279370999999998 -17.472977 0.0 29.44458 -17.951992 0.0 32.110141999999996 -19.136507 0.0 32.813679 -21.299688 0.0 30.390125 -12.307721 0.0 2.4001873 -11.548838 0.0 24.968327 -10.974738 0.0 32.763626 -10.943484 0.0 36.840759000000006 -11.562699 0.0 36.670185 -12.813469 0.0 32.980782 -11.032853 0.0 1.4045711 -10.263232 0.0 27.38413 -9.5393028 0.0 35.465649 -9.137530300000002 0.0 39.860046000000004 -9.144641900000002 0.0 38.973198 -9.5461025 0.0 36.973923 -8.1894693 0.0 1.5195983999999998 -7.7404828 0.0 28.498127 -7.294816 0.0 37.388901000000004 -6.9454231 0.0 41.035252 -6.7128372 0.0 40.372375 -6.5885444 0.0 38.410793 -0.68131137 0.0 1.9016554 -0.79533422 0.0 28.745890000000003 -0.93571472 0.0 38.616890000000005 -1.0246176 0.0 41.395004 -0.99764287 0.0 39.489849 -0.82493073 0.0 37.450935 11.026357 0.0 2.0472693 10.297203 0.0 27.858659999999997 9.4900675 0.0 38.337540000000004 8.776709599999998 0.0 41.049774 8.288204200000001 0.0 37.924766999999996 8.112662299999998 0.0 34.979923 24.469597 0.0 2.217685 23.256451000000002 0.0 26.29648 21.914773999999998 0.0 36.197047999999995 20.628117 0.0 39.156509 19.471785 0.0 36.66584 18.872297 0.0 31.723299 37.403851 0.0 2.5889382000000003 36.015087 0.0 23.961529000000002 34.288456 0.0 33.1991 32.464352000000005 0.0 36.045403 30.786261 0.0 34.501166999999995 29.985287 0.0 28.251324 49.012943 0.0 2.3595648 47.744751 0.0 21.184296 45.343928999999996 0.0 29.538578 42.862286 0.0 32.650985999999996 41.387341 0.0 31.346102000000002 40.712391 0.0 25.065067000000003 59.779125 0.0 0.82610178 58.600173999999996 0.0 17.506163 54.903553 0.0 25.661739 52.142513 0.0 28.907003000000003 50.778984 0.0 27.481615 51.010406 0.0 22.318848000000003 70.192581 0.0 -0.42623585 67.87925 0.0 13.800070000000002 62.997131 0.0 20.957577 60.809109 0.0 24.634076999999998 60.364273 0.0 23.876734 61.328449 0.0 19.140329 81.191071 0.0 -1.6437721 77.411278 0.0 10.537726 71.1325 0.0 16.046879 69.45137 0.0 19.948185000000002 69.370277 0.0 20.01919 70.059349 0.0 15.377937 93.177353 0.0 -3.8285074 87.22833299999999 0.0 7.3441811 79.67370600000001 0.0 11.633666 77.168747 0.0 15.311060999999999 75.071541 0.0 14.456420000000001 74.56860400000001 0.0 11.190796 105.89538999999999 0.0 -6.769365299999999 97.62793 0.0 3.8421352 88.960205 0.0 7.6233511 82.202835 0.0 10.360895 78.68534100000001 0.0 8.884473800000002 76.844971 0.0 7.868309 119.46906000000001 0.0 -10.068291 108.33707 0.0 0.48718262 96.503738 0.0 3.2258825 86.37625899999999 0.0 5.4940224 81.015259 0.0 5.1946597 78.305557 0.0 5.3932785999999995 134.29013 0.0 -14.293584 118.9259 0.0 -2.8471994 102.44638 0.0 0.23988342 89.646408 0.0 2.3644078 82.536446 0.0 3.0390675 79.32534 0.0 3.4072702000000006 152.55692 0.0 -12.890542 128.70903 0.0 -4.9879136 107.94276 0.0 -2.087615 93.13871800000001 0.0 0.23330346 84.545311 0.0 1.403916 80.56604 0.0 2.0042326 165.70588999999998 0.0 -13.576526999999999 138.67268 0.0 -7.742345299999999 114.49306000000001 0.0 -3.9019197999999995 97.699875 0.0 -1.1888493 87.394035 0.0 0.066892788 82.0681 0.0 0.83673799 149.98451 0.0 -10.234357000000001 123.32838999999998 0.0 -6.2279506 103.89341 0.0 -2.8737202 91.496483 0.0 -1.1544968 84.330269 0.0 -0.19599186 162.3196 0.0 -12.31888 134.43073 0.0 -8.1373949 112.10403000000001 0.0 -4.5361657 97.07467700000001 0.0 -2.2574589 87.768097 0.0 -1.2012824 147.70213 0.0 -9.643286699999999 123.07275 0.0 -5.9944811 104.69609 0.0 -3.0754859 92.748398 0.0 -1.9667535 161.92445 0.0 -10.841289999999999 136.46458 0.0 -7.0121044999999995 115.07876999999999 0.0 -3.7763689 100.08234 0.0 -2.4130471 151.78021 0.0 -8.037420299999999 128.44551 0.0 -4.525558 110.67706000000001 0.0 -2.509753 144.24095 0.0 -5.5843449 124.31083000000001 0.0 -2.8218837000000003 159.28111 0.0 -7.2209182 140.88454 0.0 -4.07375 -3.28829 0.0 -0.45610368 -3.4021034 0.0 -0.38388896 -3.48032 0.0 -0.31838661 -3.5298423999999997 0.0 -0.26068079 -3.5604229 0.0 -0.20585465 -3.5774784 0.0 -0.15700346 -3.5859127 0.0 -0.11380003 -3.5898304 0.0 -0.0732636 -3.5912132000000003 0.0 -0.036483325 -4.0190029 0.0 -0.5405665 -4.1519260000000004 0.0 -0.46330339 -4.2428017 0.0 -0.39161909 -4.3021908 0.0 -0.32298163 -4.3384247 0.0 -0.2596207 -4.359064099999999 0.0 -0.20194733 -4.3702393 0.0 -0.14710683 -4.3756008 0.0 -0.095620237 -4.3776455 0.0 -0.047815334 -4.8575373 0.0 -0.56153816 -5.013135 0.0 -0.49016008 -5.1204271 0.0 -0.42229635 -5.1916676 0.0 -0.35409963 -5.236455 0.0 -0.28908452 -5.2630205000000005 0.0 -0.22738332 -5.2782021 0.0 -0.16763896 -5.2859907 0.0 -0.11056313 -5.2895947 0.0 -0.055066730999999994 -5.7576475 0.0 -0.55310655 -5.936981200000001 0.0 -0.49180526 -6.0627804 0.0 -0.42850807 -6.1471176 0.0 -0.36587158 -6.2015944 0.0 -0.30358091 -6.2358742 0.0 -0.24056317 -6.2563075999999995 0.0 -0.17920646 -6.26756 0.0 -0.11930981 -6.2731123 0.0 -0.059454478 -6.7567239 0.0 -0.52986711 -6.959630499999999 0.0 -0.47927314 -7.1037641 0.0 -0.4229427 -7.201685899999999 0.0 -0.36609107 -7.2669845 0.0 -0.30698675 -7.3093128 0.0 -0.24644136 -7.335578 0.0 -0.18594247 -7.351012700000001 0.0 -0.12411596 -7.358858099999999 0.0 -0.062202029000000006 -7.882367100000001 0.0 -0.50159168 -8.108661699999999 0.0 -0.45986044 -8.2701769 0.0 -0.41278893 -8.381730099999999 0.0 -0.36163628 -8.4577055 0.0 -0.30701858 -8.508305499999999 0.0 -0.25004026 -8.5409498 0.0 -0.18977074 -8.560684199999999 0.0 -0.12758605 -8.5710649 0.0 -0.06436085 -9.1355562 0.0 -0.47281897 -9.383567800000002 0.0 -0.44368201 -9.561926800000002 0.0 -0.4055391 -9.6866474 0.0 -0.36065847 -9.7731342 0.0 -0.31029993 -9.8322649 0.0 -0.2552866 -9.871501 0.0 -0.19575185 -9.895858800000001 0.0 -0.13268185 -9.909009900000001 0.0 -0.066999905 -10.500635 0.0 -0.45601898 -10.769216 0.0 -0.4412249 -10.963851 0.0 -0.41273218 -11.101583 0.0 -0.373633 -11.198866 0.0 -0.32595107 -11.266946 0.0 -0.27053231 -11.313235 0.0 -0.20898153 -11.342736 0.0 -0.14255528 -11.359009 0.0 -0.072293565 -11.962152 0.0 -0.4721849 -12.250414 0.0 -0.47056445 -12.461546 0.0 -0.45016253 -12.613161999999999 0.0 -0.41372213 -12.722241 0.0 -0.36470568 -12.800336999999999 0.0 -0.30476028 -12.854610000000001 0.0 -0.23641756 -12.88995 0.0 -0.16152769 -12.909765 0.0 -0.082009092 -13.508301999999999 0.0 -0.5444625 -13.815447 0.0 -0.55269337 -14.044339 0.0 -0.53524858 -14.212001 0.0 -0.49503538 -14.335182000000001 0.0 -0.43686137 -14.425070000000002 0.0 -0.36495188 -14.488698000000001 0.0 -0.28287777 -14.530676999999999 0.0 -0.19354896 -14.554469000000001 0.0 -0.09840571099999999 -15.124394 0.0 -0.69097656 -15.452264000000001 0.0 -0.70621622 -15.702692 0.0 -0.68407971 -15.890714000000001 0.0 -0.62973714 -16.031622 0.0 -0.55285954 -16.135981 0.0 -0.45963949 -16.210873 0.0 -0.35441738 -16.261007 0.0 -0.24104773 -16.289585 0.0 -0.12197859 -16.807282999999998 0.0 -0.92514348 -17.153929 0.0 -0.94731361 -17.43359 0.0 -0.90172946 -17.647076000000002 0.0 -0.82112575 -17.810265 0.0 -0.7125178 -17.932454999999997 0.0 -0.58650327 -18.020788 0.0 -0.44878229 -18.08025 0.0 -0.30351946 -18.114298 0.0 -0.15278731 -18.543913 0.0 -1.3018885 -18.925735 0.0 -1.2637397 -19.237085 0.0 -1.183468 -19.480435999999997 0.0 -1.0723505 -19.670544 0.0 -0.92206877 -19.815647 0.0 -0.75277859 -19.920382999999998 0.0 -0.57615495 -19.991264 0.0 -0.38978013 -20.032329999999998 0.0 -0.19596119 -20.347006 0.0 -1.7577672999999998 -20.764336 0.0 -1.6625822000000001 -21.11344 0.0 -1.5302563999999999 -21.396559 0.0 -1.3568163999999998 -21.61911 0.0 -1.162146 -21.787607 0.0 -0.95443982 -21.909986 0.0 -0.73231637 -21.995064000000003 0.0 -0.49244472 -22.044435999999997 0.0 -0.24841119 -22.209906 0.0 -2.3127677 -22.665526999999997 0.0 -2.149039 -23.061193 0.0 -1.944034 -23.389488 0.0 -1.6977212 -23.648638000000002 0.0 -1.4407994 -23.848568 0.0 -1.170189 -23.995226000000002 0.0 -0.88646042 -24.095907 0.0 -0.59346575 -24.151619 0.0 -0.30412167 -24.1273 0.0 -2.907124 -24.633204 0.0 -2.677016 -25.080351 0.0 -2.397316 -25.455547 0.0 -2.0882308000000003 -25.757339 0.0 -1.7569302 -25.995842 0.0 -1.4082546 -26.167658 0.0 -1.0622973 -26.286806 0.0 -0.7089687 -26.357544 0.0 -0.35716486 -26.091573999999998 0.0 -3.4942144999999996 -26.657106 0.0 -3.1906784 -27.164183 0.0 -2.8490245 -27.594812 0.0 -2.4747422 -27.946064 0.0 -2.0826464 -28.221508 0.0 -1.6772988000000002 -28.426515999999996 0.0 -1.2649776000000001 -28.564825 0.0 -0.85268611 -28.648312 0.0 -0.42457625 -28.091219 0.0 -4.0312233 -28.729159999999997 0.0 -3.6714493999999998 -29.306601 0.0 -3.2787521 -29.800713000000002 0.0 -2.8453437999999998 -30.206970000000002 0.0 -2.3991512999999998 -30.526096000000003 0.0 -1.9367325 -30.764985999999997 0.0 -1.4641725 -30.930290000000003 0.0 -0.98525125 -31.023943 0.0 -0.49681962 -30.119484000000003 0.0 -4.481903099999999 -30.836607 0.0 -4.0928755 -31.496733000000003 0.0 -3.650979 -32.064098 0.0 -3.1830517999999994 -32.531876000000004 0.0 -2.6896601 -32.902023 0.0 -2.1779602000000002 -33.180408 0.0 -1.6509175 -33.372803000000005 0.0 -1.1049503999999999 -33.485775 0.0 -0.55439448 -32.157383 0.0 -4.8470864 -32.974754 0.0 -4.4302782999999994 -33.726139 0.0 -3.9690621 -34.377109999999995 0.0 -3.4686663 -34.914947999999995 0.0 -2.9428693999999997 -35.343196999999996 0.0 -2.3925347 -35.665901 0.0 -1.8131800999999999 -35.890785 0.0 -1.2172587 -36.022957 0.0 -0.6085574 -34.204845 0.0 -5.1015992 -35.130359999999996 0.0 -4.6714554 -35.9884 0.0 -4.204553099999999 -36.729690999999995 0.0 -3.6934864999999997 -37.348579 0.0 -3.1439462000000002 -37.841877000000004 0.0 -2.5640953 -38.215614 0.0 -1.9504738999999998 -38.476421 0.0 -1.3120825 -38.630924 0.0 -0.65900481 -36.2584 0.0 -5.2328806 -37.301525 0.0 -4.8037753 -38.272644 0.0 -4.3389893 -39.115154 0.0 -3.8307822 -39.822078999999995 0.0 -3.2848281999999998 -40.389145 0.0 -2.6839831000000003 -40.81974 0.0 -2.0514569 -41.121033000000004 0.0 -1.3844856 -41.29932 0.0 -0.6974805 -38.301842 0.0 -5.2294197 -39.47377 0.0 -4.8079376 -40.56712 0.0 -4.3552608 -41.520107 0.0 -3.8637121 -42.32354 0.0 -3.3322921 -42.970737 0.0 -2.7411692000000003 -43.465405 0.0 -2.105602 -43.811909 0.0 -1.4282953999999999 -44.016594 0.0 -0.72071141 -40.32452 0.0 -5.062693599999999 -41.63612 0.0 -4.6547499000000006 -42.859356 0.0 -4.2289023 -43.929901 0.0 -3.7722211000000003 -44.837123999999996 0.0 -3.2762477000000003 -45.571438 0.0 -2.717145 -46.135818 0.0 -2.1030127999999997 -46.533127 0.0 -1.4360863000000001 -46.768097 0.0 -0.72909743 -42.320156 0.0 -4.7008882000000005 -43.777969 0.0 -4.3134356 -45.135002 0.0 -3.9336286 -46.327038 0.0 -3.5352867 -47.343712 0.0 -3.1011777 -48.171593 0.0 -2.5998721000000002 -48.81102 0.0 -2.0333824000000003 -49.265034 0.0 -1.3999242 -49.535004 0.0 -0.71500432 -44.28368 0.0 -4.0879617 -45.890396 0.0 -3.7607788999999996 -47.379490000000004 0.0 -3.4480724 -48.694846999999996 0.0 -3.1348574 -49.823299 0.0 -2.7936617999999998 -50.748024 0.0 -2.3809571 -51.470290999999996 0.0 -1.8891548999999999 -51.986885 0.0 -1.3145571000000003 -52.297363 0.0 -0.67441374 -46.2071 0.0 -3.199609 -47.960171 0.0 -2.9720519 -49.578354 0.0 -2.7540715000000002 -51.014416 0.0 -2.5560451 -52.253529 0.0 -2.3365042000000003 -53.283390000000004 0.0 -2.0455294 -54.093796 0.0 -1.6593360000000001 -54.679233999999994 0.0 -1.1738784 -55.033836 0.0 -0.607997 -48.069790000000005 0.0 -1.9887285 -49.963383 0.0 -1.9108956000000001 -51.710945 0.0 -1.8356346000000001 -53.265331 0.0 -1.7888566000000004 -54.615185 0.0 -1.7102903999999999 -55.753685 0.0 -1.5784572000000001 -56.65848199999999 0.0 -1.3262506 -57.318939 0.0 -0.96165961 -57.721493 0.0 -0.50599325 -49.8228 0.0 -0.41824311 -51.843098 0.0 -0.50761068 -53.728889 0.0 -0.66908181 -55.406406000000004 0.0 -0.80899489 -56.870445 0.0 -0.91302466 -58.119553 0.0 -0.95395464 -59.121288 0.0 -0.86316162 -59.859604000000004 0.0 -0.65164369 -60.314949 0.0 -0.35255107 -51.340553 0.0 1.4411025 -53.461231000000005 0.0 1.0658784 -55.483261 0.0 0.67637324 -57.299671 0.0 0.36219227 -58.897082999999995 0.0 0.02137381 -60.283081 0.0 -0.16121949 -61.388729000000005 0.0 -0.25986347 -62.216778000000005 0.0 -0.2566129 -62.734028 0.0 -0.14798626 -52.388748 0.0 3.5800591 -54.767635 0.0 3.080483 -56.93291899999999 0.0 2.4415722 -58.849833999999994 0.0 1.8167958 -60.60555600000001 0.0 1.2709184 -62.082699 0.0 0.82278091 -63.307365000000004 0.0 0.46568185 -64.241623 0.0 0.22844535 -64.83045200000001 0.0 0.087242119 -53.097972999999996 0.0 6.1599617 -55.596489 0.0 5.452914700000001 -57.891155000000005 0.0 4.5580039 -59.95415500000001 0.0 3.6799207000000003 -61.794982999999995 0.0 2.9161451 -63.36033199999999 0.0 2.1673492999999997 -64.66838100000001 0.0 1.4660933 -65.685959 0.0 0.93922138 -66.339462 0.0 0.43912938 -53.358784 0.0 9.1876831 -55.967135999999996 0.0 8.1697245 -58.371803 0.0 7.0001235 -60.491882 0.0 5.937214900000001 -62.402966000000006 0.0 4.9137888 -64.034813 0.0 3.838547 -65.445755 0.0 2.90729 -66.51209300000001 0.0 1.9834975 -67.126762 0.0 1.0651901000000001 -53.388741 0.0 12.688581 -55.964375 0.0 11.357678 -58.397064 0.0 9.9314117 -60.610268000000005 0.0 8.4897308 -62.46249399999999 0.0 7.0338864 -64.13356 0.0 5.625536 -65.518982 0.0 4.2715569 -66.563438 0.0 2.9118097 -67.316254 0.0 1.4755129999999999 -52.997314 0.0 16.52532 -55.705288 0.0 15.267272 -58.232158999999996 0.0 13.800487 -60.548168000000004 0.0 12.245942999999999 -62.426891000000005 0.0 10.545727000000001 -64.104591 0.0 8.883674599999999 -65.462448 0.0 7.130558000000001 -66.384125 0.0 5.017108900000001 -66.95343000000001 0.0 2.6182528 -51.216454 0.0 19.629532 -54.571681999999996 0.0 18.948509 -57.5658 0.0 17.873413 -60.047565000000006 0.0 16.374523 -62.187709999999996 0.0 14.620628 -63.922325 0.0 12.773534 -65.209358 0.0 10.484189 -66.127205 0.0 7.6401725 -66.547821 0.0 3.977385 -41.812771000000005 0.0 20.944422 -46.232826 0.0 18.814508 -50.490814 0.0 17.99505 -54.498535 0.0 16.637854 -58.130177 0.0 14.941087 -61.287666 0.0 12.983880000000001 -63.884251 0.0 10.630525 -65.90499100000001 0.0 7.647071400000001 -67.191849 0.0 4.0229034 -24.271063 0.0 25.574488 -27.568945000000003 0.0 24.538408 -31.032282000000002 0.0 23.298455999999998 -34.455647 0.0 21.34355 -37.667633 0.0 18.996593 -40.54311 0.0 16.362938 -42.968899 0.0 13.285793 -44.826538 0.0 9.5231371 -46.000534 0.0 5.0093832 -14.5986 0.0 31.369991 -16.764172 0.0 30.206715000000003 -19.146479 0.0 28.384303999999997 -21.594851000000002 0.0 25.817356 -23.978237 0.0 22.866825 -26.180897 0.0 19.624907999999998 -28.085911 0.0 15.88231 -29.570019 0.0 11.351583 -30.517412 0.0 5.9593434 -10.270010000000001 0.0 35.33596 -11.247953 0.0 33.833202 -12.42556 0.0 31.684692 -13.735985999999999 0.0 28.809 -15.100137 0.0 25.556696 -16.430975 0.0 21.979060999999998 -17.628716 0.0 17.813593 -18.587989999999998 0.0 12.739732 -19.211021 0.0 6.688799400000001 -6.548276400000001 0.0 36.678946999999994 -6.594570599999999 0.0 35.063934 -6.7518568 0.0 32.856361 -7.026461099999999 0.0 29.978170000000002 -7.402227900000001 0.0 26.735645 -7.8395996 0.0 23.121351 -8.280573799999999 0.0 18.824783 -8.6605616 0.0 13.503995999999999 -8.9180708 0.0 7.101740400000001 -0.50151861 0.0 35.72625 -0.060107823 0.0 34.143135 0.43332419 0.0 32.059166 0.91240746 0.0 29.395845 1.3280858 0.0 26.397875 1.6582148 0.0 22.995266 1.9002287 0.0 18.83954 2.0609738999999996 0.0 13.576410999999998 2.1510097999999997 0.0 7.1590509 8.288113599999999 0.0 33.214714 8.794967699999999 0.0 31.698915000000003 9.557107 0.0 29.807232 10.465566 0.0 27.449496999999997 11.412757000000001 0.0 24.810703 12.311475 0.0 21.770895 13.0902 0.0 17.957432 13.690970000000002 0.0 13.009337 14.069826999999998 0.0 6.882693799999999 18.676413 0.0 29.904533 18.996864000000002 0.0 28.448084 19.767572 0.0 26.732794000000002 20.856009 0.0 24.663073999999998 22.110054 0.0 22.386021 23.382561 0.0 19.757561 24.538534 0.0 16.397879 25.459425 0.0 11.942912 26.05224 0.0 6.3408432 29.448387 0.0 26.385855 29.543787 0.0 24.994617 30.236549 0.0 23.408545999999998 31.383315999999997 0.0 21.551584 32.802105 0.0 19.567154000000002 34.302452 0.0 17.319132 35.701012 0.0 14.439448 36.834259 0.0 10.565844 37.57148 0.0 5.6286420999999995 40.118431 0.0 23.019476 40.119183 0.0 21.736296 40.788532000000004 0.0 20.246412 41.977764 0.0 18.522614 43.493256 0.0 16.737581 45.124638 0.0 14.793820000000002 46.664211 0.0 12.355442 47.923229 0.0 9.0696602 48.747551 0.0 4.8448434 50.782897999999996 0.0 19.98045 50.889804999999996 0.0 18.875420000000002 51.645579999999995 0.0 17.483644 52.901306000000005 0.0 15.842051999999999 54.472099 0.0 14.173935 56.156193 0.0 12.443909 57.748516 0.0 10.367847 59.05695 0.0 7.6148834 59.916954000000004 0.0 4.07337 61.457947 0.0 17.329359 61.83499499999999 0.0 16.466639 62.726943999999996 0.0 15.194972 63.978115 0.0 13.606619 65.39565999999999 0.0 11.981252 66.779816 0.0 10.356964999999999 68.053802 0.0 8.5365448 68.921509 0.0 6.2359066 69.500923 0.0 3.3257542 69.993935 0.0 14.532676 70.337379 0.0 13.906162 70.901352 0.0 12.751892 71.508415 0.0 11.20908 72.210365 0.0 9.6224623 72.722992 0.0 8.1456051 73.212502 0.0 6.6068296 73.51818100000001 0.0 4.8093758 73.68692800000001 0.0 2.5621331 74.204605 0.0 11.118948 74.338303 0.0 10.822021000000001 74.58126800000001 0.0 9.9414959 74.742325 0.0 8.637785000000001 74.994415 0.0 7.2705898 75.104881 0.0 6.0595632 75.267258 0.0 4.8713379 75.400345 0.0 3.5384023 75.494637 0.0 1.9105813999999999 76.21371500000001 0.0 8.1558104 76.182793 0.0 8.175704 76.315697 0.0 7.6194581999999995 76.400017 0.0 6.6831708 76.37702900000001 0.0 5.5874949 76.493042 0.0 4.564857 76.551086 0.0 3.6533864 76.655525 0.0 2.6003609 76.684952 0.0 1.3843499 77.244644 0.0 5.5845532 77.158203 0.0 5.7237763 77.153664 0.0 5.526372900000001 77.164726 0.0 4.9386306 77.24929 0.0 4.2448311 77.168152 0.0 3.7186684999999997 77.120522 0.0 3.0150154 77.12042199999999 0.0 2.1481745 77.176064 0.0 1.1468127000000001 78.237495 0.0 3.8736388999999996 77.959641 0.0 4.100759 77.937462 0.0 4.1420689 77.826172 0.0 3.8568199 77.705933 0.0 3.4315197 77.627533 0.0 2.8229884999999997 77.60054000000001 0.0 2.2665637000000003 77.69710500000001 0.0 1.7474470000000002 77.833862 0.0 0.98968667 78.937042 0.0 2.5529467999999995 78.374107 0.0 2.9542024 78.263626 0.0 3.041338 78.132553 0.0 3.0941975 78.075294 0.0 2.7983808999999997 78.069489 0.0 2.3828695 78.08847 0.0 1.8402505 78.151909 0.0 1.2391678 78.205109 0.0 0.58096677 79.570885 0.0 1.3896998 78.654099 0.0 1.8277308999999997 78.365425 0.0 2.0710241999999996 78.26835600000001 0.0 2.1429636000000003 78.229332 0.0 2.1009597999999996 78.21144100000001 0.0 1.8553566000000004 78.22155 0.0 1.4973726 78.276726 0.0 1.0420764999999999 78.348015 0.0 0.52314591 80.64292900000001 0.0 0.45309061 78.907257 0.0 0.94153136 78.327896 0.0 1.1159317 78.161652 0.0 1.2722673 78.052963 0.0 1.3229993999999998 78.015465 0.0 1.2634121 77.99838299999999 0.0 1.0860721000000002 78.06681800000001 0.0 0.75164163 78.131073 0.0 0.32057077 82.229042 0.0 -0.35953417 79.421875 0.0 0.11919107 78.281174 0.0 0.40501422 77.798668 0.0 0.49928999 77.652748 0.0 0.63850623 77.519051 0.0 0.69976884 77.494881 0.0 0.68171823 77.578194 0.0 0.32322603 77.56218 0.0 0.16169195 85.059578 0.0 -1.1915731 80.632401 0.0 -0.49960649 78.533165 0.0 -0.25723535 77.596367 0.0 -0.06475692200000001 77.083038 0.0 0.029272197000000003 76.876762 0.0 0.21051301 76.81356 0.0 0.20256321 76.83764599999999 0.0 0.039186172000000005 76.7798 0.0 0.035663862000000005 89.84568 0.0 -1.7546557 83.42821500000001 0.0 -1.0979825 79.72493 0.0 -0.69730955 77.872864 0.0 -0.56208074 76.805939 0.0 -0.35445201 76.254234 0.0 -0.1853753 76.12230699999999 0.0 -0.18465987 76.002495 0.0 -0.22290434 75.925636 0.0 -0.092732467 97.402664 0.0 -1.7231166 88.67313399999999 0.0 -1.358072 82.913002 0.0 -1.0534501 79.296906 0.0 -0.79634941 77.293724 0.0 -0.67342854 76.289833 0.0 -0.53340292 75.666634 0.0 -0.45405257 75.407738 0.0 -0.39820698 75.213371 0.0 -0.20702061 108.21574 0.0 -1.3415928 96.582932 0.0 -0.91017824 89.017586 0.0 -0.99702078 83.015152 0.0 -0.82349634 79.43118299999999 0.0 -0.73597682 77.33052099999999 0.0 -0.6232866 76.327332 0.0 -0.61468697 75.465225 0.0 -0.4901228 75.251274 0.0 -0.29375139 123.03567 0.0 -1.7027791 108.3119 0.0 -0.34749332 97.73354300000001 0.0 -0.26236898 89.973236 0.0 -0.3299025 84.612083 0.0 -0.46000558 80.70101899999999 0.0 -0.48992199 78.426476 0.0 -0.47213736 77.33811999999999 0.0 -0.41078401 76.716255 0.0 -0.27390406 139.85873 0.0 -3.3432412000000005 124.16363 0.0 -1.2057977 110.72466000000001 0.0 -0.018167937 100.14339 0.0 0.55988181 92.74344599999999 0.0 0.3794958 87.267044 0.0 0.23649454 83.837868 0.0 -0.040479463 81.844666 0.0 -0.17237318 80.648224 0.0 -0.091952473 140.15955 0.0 -2.4363612999999997 127.05018999999999 0.0 -0.88522851 114.93866000000001 0.0 0.35498941 105.1749 0.0 0.82819664 97.762962 0.0 1.149194 92.77350600000001 0.0 1.065871 90.10566700000001 0.0 0.53430831 88.560753 0.0 0.21402763 130.15332 0.0 -0.06288225900000001 120.27675 0.0 0.63909578 111.89348999999999 0.0 1.3178668 106.15955 0.0 1.4685733 102.6039 0.0 1.2866865 101.02395 0.0 0.3456547 126.89856 0.0 1.5102364 121.63573000000001 0.0 1.3312576 118.31501000000002 0.0 0.65788257 116.32777 0.0 0.33661512 -3.5915451000000003 0.0 -9.3644758e-07 -3.5912075 0.0 0.036487452999999996 -3.5898437999999993 0.0 0.07326492700000001 -3.5859222 0.0 0.11379972 -3.5774574 0.0 0.15700272 -3.5604324 0.0 0.20585486 -3.5298328000000003 0.0 0.26067919 -3.4803219 0.0 0.31838727 -4.3782139 0.0 1.8877763000000002e-06 -4.3776283 0.0 0.04781583 -4.3756084 0.0 0.09561976800000001 -4.370223999999999 0.0 0.14710777 -4.3590622 0.0 0.2019452 -4.338422799999999 0.0 0.25961986 -4.3021832 0.0 0.32298064 -4.2427883 0.0 0.39161718 -5.2905655 0.0 -4.8191805e-07 -5.289590799999999 0.0 0.055075843 -5.285999299999999 0.0 0.11056614 -5.2781849 0.0 0.16763818 -5.2630129 0.0 0.22738275 -5.236455 0.0 0.28908414 -5.1916513 0.0 0.3540971 -5.1204348 0.0 0.42229533 -6.2747993 0.0 -3.0048122000000002e-06 -6.2731170999999994 0.0 0.059453454 -6.2675552 0.0 0.11931556 -6.2563028 0.0 0.17920519 -6.2358704000000005 0.0 0.24056271 -6.2015934 0.0 0.30358291 -6.1471252 0.0 0.36586872 -6.0627899 0.0 0.4285112 -7.3612337 0.0 -1.7910024e-06 -7.358867599999999 0.0 0.062214978 -7.3509984 0.0 0.12411108 -7.3355761 0.0 0.18594271 -7.3093219 0.0 0.24644393 -7.2669959 0.0 0.30698788 -7.2016811 0.0 0.36609313 -7.1037679 0.0 0.42294225 -8.574295 0.0 4.1204858e-06 -8.571069699999999 0.0 0.06435921 -8.5606823 0.0 0.12758927 -8.5409489 0.0 0.18977091 -8.508297 0.0 0.25004268 -8.457697900000001 0.0 0.30701846 -8.381731 0.0 0.36163688 -8.270187400000001 0.0 0.41278791 -9.913147 0.0 -6.2220297000000005e-06 -9.9090157 0.0 0.067010708 -9.8958626 0.0 0.13268374 -9.8714828 0.0 0.19575295 -9.8322535 0.0 0.25528559 -9.7731237 0.0 0.31029755 -9.686636 0.0 0.36066645 -9.561917300000001 0.0 0.40554035 -11.364183 0.0 1.5375372e-07 -11.359005999999999 0.0 0.07229612 -11.342721000000001 0.0 0.1425499 -11.313241 0.0 0.20897962 -11.266934 0.0 0.27053216 -11.198853999999999 0.0 0.32595351 -11.10159 0.0 0.37362802 -10.96386 0.0 0.41272703 -12.916141 0.0 -3.7327954e-06 -12.909772 0.0 0.081997983 -12.889952000000001 0.0 0.16152152 -12.854599 0.0 0.23642033 -12.800333 0.0 0.30475599 -12.722238 0.0 0.36470205 -12.613149 0.0 0.41372344 -12.461555 0.0 0.45016193 -14.56214 0.0 -5.1237685e-06 -14.554473000000002 0.0 0.098408237 -14.53067 0.0 0.19354622 -14.488686999999999 0.0 0.28287971 -14.425073000000001 0.0 0.36495131 -14.335184 0.0 0.43685442 -14.212007999999999 0.0 0.49503452 -14.04434 0.0 0.53525078 -16.298853 0.0 -4.5077635999999995e-06 -16.289589000000003 0.0 0.12197931 -16.261024 0.0 0.24105209 -16.210905 0.0 0.35440969 -16.135996 0.0 0.4596391 -16.031622 0.0 0.55285197 -15.890711999999999 0.0 0.62974489 -15.702717000000002 0.0 0.6840772 -18.12454 0.0 6.414597e-06 -18.11429 0.0 0.15277421 -18.080242000000002 0.0 0.30352518 -18.020792 0.0 0.4487915 -17.932487 0.0 0.58650464 -17.810266 0.0 0.71252328 -17.647049 0.0 0.8211326 -17.433598 0.0 0.90172964 -20.045706 0.0 1.3236822000000002e-06 -20.032347 0.0 0.1959575 -19.991301999999997 0.0 0.38977832 -19.920376 0.0 0.5761528 -19.815635999999998 0.0 0.75277972 -19.670521 0.0 0.9220627 -19.480421 0.0 1.0723577 -19.237054999999998 0.0 1.1834809 -22.059957999999998 0.0 -1.0667587e-05 -22.044426 0.0 0.24840112 -21.995060000000002 0.0 0.49242911 -21.909929 0.0 0.73231173 -21.787589999999998 0.0 0.95443499 -21.619093 0.0 1.162147 -21.396578 0.0 1.3568269 -21.113482 0.0 1.5302777 -24.171008999999998 0.0 -8.3058876e-06 -24.151581 0.0 0.30412978 -24.095922 0.0 0.59346038 -23.995188 0.0 0.88646203 -23.8486 0.0 1.1701868 -23.648642000000002 0.0 1.4407969999999999 -23.389526 0.0 1.6977156000000002 -23.06119 0.0 1.9440316000000002 -26.380402 0.0 -6.0726725e-06 -26.357529 0.0 0.35715011 -26.286790999999997 0.0 0.7089625 -26.167679 0.0 1.0622996 -25.995829 0.0 1.4082558 -25.757345 0.0 1.7569342000000001 -25.455473 0.0 2.0882245999999998 -25.080339000000002 0.0 2.3973246 -28.675896 0.0 -2.3257298e-05 -28.648325 0.0 0.42455578 -28.564853999999997 0.0 0.85266775 -28.426514 0.0 1.2649803 -28.221512 0.0 1.6773031000000003 -27.946053999999997 0.0 2.082653 -27.594839 0.0 2.4747603 -27.164118 0.0 2.8490267000000005 -31.055569000000002 0.0 5.4827997000000004e-06 -31.023945 0.0 0.49683505 -30.930322999999998 0.0 0.98525274 -30.765005 0.0 1.4641754999999999 -30.526096000000003 0.0 1.9367385 -30.206902000000003 0.0 2.3991625 -29.800673 0.0 2.8453417 -29.306551000000002 0.0 3.2787526 -33.520973 0.0 -1.7078055e-05 -33.485794 0.0 0.55435336 -33.372791 0.0 1.1049489 -33.180305 0.0 1.6509215 -32.901973999999996 0.0 2.1779702000000003 -32.531925 0.0 2.6896577 -32.064079 0.0 3.1830540000000003 -31.496784 0.0 3.6509666 -36.067539000000004 0.0 2.8030136e-06 -36.022968 0.0 0.60856062 -35.890781 0.0 1.2172661 -35.665890000000005 0.0 1.8131945 -35.343216 0.0 2.3925457000000003 -34.91494 0.0 2.9428701 -34.377056 0.0 3.4686708 -33.726082 0.0 3.9690659 -38.682411 0.0 -1.1864028e-05 -38.630924 0.0 0.65899509 -38.476414 0.0 1.3120873 -38.215595 0.0 1.9504869999999999 -37.841854 0.0 2.5641141 -37.348597999999996 0.0 3.1439695 -36.729652 0.0 3.6935034 -35.988316 0.0 4.204553099999999 -41.358878999999995 0.0 -1.3144321e-05 -41.29937 0.0 0.69746053 -41.121128000000006 0.0 1.3844893999999999 -40.819672 0.0 2.0514748 -40.389198 0.0 2.6840045 -39.822033000000005 0.0 3.2848487 -39.115165999999995 0.0 3.8307873999999997 -38.272579 0.0 4.3389916 -44.084571999999994 0.0 3.9742745000000005e-06 -44.016586 0.0 0.72074556 -43.811958000000004 0.0 1.4282931 -43.465466 0.0 2.1056199 -42.970825 0.0 2.7411952 -42.323578000000005 0.0 3.3323142999999997 -41.520111 0.0 3.8637381 -40.56715 0.0 4.355262799999999 -46.844921 0.0 -2.2284656e-05 -46.768101 0.0 0.72910142 -46.533043 0.0 1.4361026000000001 -46.135807 0.0 2.1030287999999997 -45.571487 0.0 2.7171671 -44.837196 0.0 3.2762587000000005 -43.92989 0.0 3.772222 -42.859455 0.0 4.2288723 -49.623852 0.0 5.0682393e-06 -49.535015 0.0 0.71502775 -49.26495 0.0 1.3999462999999999 -48.811015999999995 0.0 2.0333948 -48.171486 0.0 2.5998831 -47.343666 0.0 3.1011915 -46.327038 0.0 3.5352826 -45.134903 0.0 3.9336394999999995 -52.399555 0.0 1.6832579e-05 -52.297207 0.0 0.67443591 -51.986866 0.0 1.3145576 -51.470306 0.0 1.8891721999999997 -50.748081 0.0 2.3809707 -49.823277000000004 0.0 2.7936732999999996 -48.694759000000005 0.0 3.1348641 -47.37944 0.0 3.4480731 -55.153141000000005 0.0 2.7166163000000003e-05 -55.033882 0.0 0.6080426 -54.679428 0.0 1.1739028999999999 -54.093727 0.0 1.6593348 -53.283379000000004 0.0 2.0455514999999997 -52.253536 0.0 2.336529 -51.014339 0.0 2.5560462000000004 -49.578213 0.0 2.7540519 -57.857128 0.0 2.0691469999999998e-05 -57.721474 0.0 0.50600702 -57.318886 0.0 0.96168923 -56.65819499999999 0.0 1.3262802 -55.753613 0.0 1.5784813 -54.615227000000004 0.0 1.710307 -53.265202 0.0 1.7888567 -51.71093 0.0 1.8356378 -60.468731000000005 0.0 7.2055263e-06 -60.315144 0.0 0.35258707 -59.859584999999996 0.0 0.65168238 -59.121216000000004 0.0 0.86320621 -58.119395999999995 0.0 0.95398712 -56.870514 0.0 0.91305846 -55.406383999999996 0.0 0.80899954 -53.72894300000001 0.0 0.66906244 -62.906689 0.0 9.2456758e-06 -62.734221999999995 0.0 0.14798795 -62.216755000000006 0.0 0.25664529 -61.38884 0.0 0.25991622 -60.283077 0.0 0.16126288 -58.897152 0.0 -0.021333922 -57.29974 0.0 -0.36217541 -55.483273 0.0 -0.67638755 -65.013077 0.0 1.0290532e-05 -64.83033 0.0 -0.087233499 -64.241722 0.0 -0.22842669 -63.307354000000004 0.0 -0.46563703 -62.082744999999996 0.0 -0.82273567 -60.605511 0.0 -1.2708871000000002 -58.849903000000005 0.0 -1.8167822 -56.932930000000006 0.0 -2.4415781 -66.550957 0.0 -7.912603900000001e-08 -66.339371 0.0 -0.43911979 -65.68584399999999 0.0 -0.93921214 -64.668243 0.0 -1.4660745000000002 -63.360293999999996 0.0 -2.1673093 -61.795116 0.0 -2.9161146000000002 -59.95417 0.0 -3.6799207000000003 -57.891293000000005 0.0 -4.558000099999999 -67.354004 0.0 -7.677354e-07 -67.126808 0.0 -1.0651661000000001 -66.51226 0.0 -1.9834691000000002 -65.445839 0.0 -2.9072517999999996 -64.034859 0.0 -3.8385305 -62.403048999999996 0.0 -4.913762999999999 -60.491951 0.0 -5.9371977 -58.371731000000004 0.0 -7.0001345 -67.608948 0.0 6.5082641e-06 -67.316223 0.0 -1.4755001 -66.563362 0.0 -2.9117966 -65.518967 0.0 -4.2715364000000005 -64.133636 0.0 -5.6255279 -62.462692000000004 0.0 -7.0338821 -60.610344 0.0 -8.4897156 -58.397118000000006 0.0 -9.9313965 -67.15214499999999 0.0 7.5389617e-06 -66.953339 0.0 -2.6182301 -66.383942 0.0 -5.017098900000001 -65.462311 0.0 -7.1305575 -64.104607 0.0 -8.8836679 -62.426894999999995 0.0 -10.545739999999999 -60.548336 0.0 -12.245939 -58.232391 0.0 -13.800451999999998 -66.782494 0.0 2.0685983999999998e-05 -66.547859 0.0 -3.977351 -66.127136 0.0 -7.6401539000000005 -65.209305 0.0 -10.484183 -63.922371 0.0 -12.773521 -62.187709999999996 0.0 -14.620625 -60.047516 0.0 -16.374537 -57.56573100000001 0.0 -17.873396 -67.60805500000001 0.0 -7.2507827999999995e-06 -67.191833 0.0 -4.0228715 -65.905022 0.0 -7.6470327000000005 -63.8843 0.0 -10.630507000000001 -61.287659 0.0 -12.983882000000001 -58.130309999999994 0.0 -14.941084 -54.498596 0.0 -16.637871 -50.490795 0.0 -17.995058 -46.40287 0.0 2.6116496999999998e-05 -46.000462 0.0 -5.009332700000001 -44.826607 0.0 -9.523133300000001 -42.968975 0.0 -13.285779999999999 -40.543186 0.0 -16.36293 -37.667709 0.0 -18.996595000000003 -34.455799 0.0 -21.343534 -31.032362 0.0 -23.298455999999998 -30.843763 0.0 1.6046455e-05 -30.517506 0.0 -5.9593663 -29.569889 0.0 -11.351588000000001 -28.085909 0.0 -15.882331 -26.181026 0.0 -19.624943 -23.978312 0.0 -22.866857999999997 -21.594957 0.0 -25.817358 -19.146521 0.0 -28.38427 -19.427208 0.0 -2.1062208999999998e-05 -19.211044 0.0 -6.6888247000000005 -18.588095000000003 0.0 -12.739734 -17.628698 0.0 -17.813625 -16.430861 0.0 -21.97909 -15.100195999999999 0.0 -25.556729999999998 -13.736106 0.0 -28.809025 -12.425641 0.0 -31.684616 -9.009334599999999 0.0 3.7505059e-05 -8.9180326 0.0 -7.1017345999999995 -8.660531 0.0 -13.503995999999999 -8.2805929 0.0 -18.824789000000003 -7.8396025 0.0 -23.121378 -7.4022288 0.0 -26.735671999999997 -7.0264659 0.0 -29.978153000000002 -6.751780999999999 0.0 -32.856308 2.1798482000000003 0.0 5.4873992e-05 2.1509737999999996 0.0 -7.1590133 2.0609528999999998 0.0 -13.576389 1.9002618000000002 0.0 -18.839563000000002 1.6581749 0.0 -22.995302 1.3281167 0.0 -26.397846 0.91242915 0.0 -29.395844 0.43342125 0.0 -32.059155 14.199063 0.0 3.740401e-05 14.069826 0.0 -6.8827119 13.691079 0.0 -13.009333 13.090228999999999 0.0 -17.957426 12.311473 0.0 -21.770945 11.412865 0.0 -24.810745 10.465553 0.0 -27.449509000000003 9.5571995 0.0 -29.807184000000003 26.256613 0.0 1.4092016e-05 26.052367999999998 0.0 -6.3408456 25.459381 0.0 -11.942917 24.538437 0.0 -16.397884 23.382607999999998 0.0 -19.757611999999998 22.110159 0.0 -22.386032 20.856077 0.0 -24.663059 19.767607 0.0 -26.732782 37.827038 0.0 6.6745939e-05 37.571323 0.0 -5.6286459 36.834152 0.0 -10.565855 35.701015000000005 0.0 -14.43948 34.302521 0.0 -17.319145000000002 32.802174 0.0 -19.567139 31.383205 0.0 -21.551575 30.236551000000002 0.0 -23.408552 49.034275 0.0 5.1116251e-05 48.747581 0.0 -4.8448133 47.923306 0.0 -9.069658300000002 46.664318 0.0 -12.35544 45.124645 0.0 -14.793841 43.493233000000004 0.0 -16.737572 41.977768 0.0 -18.522615 40.788589 0.0 -20.246414 60.216995 0.0 -2.3392378e-05 59.916985 0.0 -4.0733504 59.056911 0.0 -7.614872 57.748611 0.0 -10.367874 56.156147 0.0 -12.443916999999999 54.472122 0.0 -14.173923 52.901379000000006 0.0 -15.842042999999999 51.645691 0.0 -17.483644 69.732742 0.0 6.0128805e-06 69.500862 0.0 -3.3257751000000004 68.921524 0.0 -6.2359099 68.053787 0.0 -8.536562 66.77979300000001 0.0 -10.356969 65.395653 0.0 -11.981264 63.977947 0.0 -13.606596 62.726925 0.0 -15.194981 73.744156 0.0 -1.5975966e-06 73.68697399999999 0.0 -2.5621402 73.518112 0.0 -4.8093805 73.212593 0.0 -6.606835799999999 72.723091 0.0 -8.145615600000001 72.210228 0.0 -9.6224689 71.508301 0.0 -11.209072 70.90136 0.0 -12.751895 75.532608 0.0 -1.4876234e-05 75.49494200000001 0.0 -1.9106043999999998 75.400314 0.0 -3.5384083 75.267349 0.0 -4.871336 75.104919 0.0 -6.0595741 74.994545 0.0 -7.2705841 74.74234799999999 0.0 -8.637796400000001 74.581161 0.0 -9.9414787 76.694862 0.0 -1.322692e-05 76.684883 0.0 -1.3843602 76.655472 0.0 -2.600379 76.551224 0.0 -3.6533767999999998 76.492851 0.0 -4.5648661 76.377144 0.0 -5.5874972000000005 76.39999399999999 0.0 -6.6831679 76.315689 0.0 -7.619457700000001 77.220337 0.0 9.7686716e-06 77.176254 0.0 -1.1468128 77.120483 0.0 -2.1481943 77.120636 0.0 -3.0150216 77.168327 0.0 -3.7186837 77.24929 0.0 -4.2448440000000005 77.16481 0.0 -4.9386606 77.153908 0.0 -5.526423 77.88105 0.0 1.3170793000000001e-06 77.83377800000001 0.0 -0.98968196 77.697052 0.0 -1.7474433 77.600471 0.0 -2.2665477000000003 77.627365 0.0 -2.8229887000000002 77.705894 0.0 -3.4315187999999996 77.82608 0.0 -3.8568232000000005 77.937469 0.0 -4.1421175 78.283363 0.0 -1.5982027e-05 78.204964 0.0 -0.58095938 78.151871 0.0 -1.2391713 78.088379 0.0 -1.8402464 78.069389 0.0 -2.3828732999999995 78.075378 0.0 -2.7984080000000002 78.132614 0.0 -3.0942073 78.26384 0.0 -3.0413723 78.368362 0.0 -2.1248779e-06 78.348076 0.0 -0.52314967 78.27671099999999 0.0 -1.0420841 78.221542 0.0 -1.4973823999999998 78.211411 0.0 -1.8553534999999999 78.22955300000001 0.0 -2.1009781000000003 78.268417 0.0 -2.1429749 78.365372 0.0 -2.0710521 78.138092 0.0 -3.7370955e-06 78.13104200000001 0.0 -0.32058397 78.066788 0.0 -0.75163871 77.99834399999999 0.0 -1.0860753 78.015587 0.0 -1.2634031000000001 78.05295600000001 0.0 -1.3230038999999998 78.161812 0.0 -1.2723001 78.327896 0.0 -1.1159523999999998 77.57073199999999 0.0 -2.1674068e-06 77.562157 0.0 -0.16169602 77.578293 0.0 -0.32322744 77.495018 0.0 -0.68172717 77.519051 0.0 -0.69976586 77.652702 0.0 -0.63849753 77.79870600000001 0.0 -0.49930775 78.281242 0.0 -0.40502036 76.779266 0.0 2.4979272000000002e-06 76.7799 0.0 -0.035662032999999996 76.837677 0.0 -0.039180063 76.813568 0.0 -0.20256208 76.876999 0.0 -0.21052881 77.082985 0.0 -0.029272463 77.59638199999999 0.0 0.064754114 78.533051 0.0 0.25723806 75.908585 0.0 -5.175224900000001e-06 75.92549100000001 0.0 0.09273923199999999 76.002472 0.0 0.22291571 76.12217700000001 0.0 0.18466949 76.254257 0.0 0.18537739 76.80594599999999 0.0 0.35446143 77.87291 0.0 0.56205648 79.72479200000001 0.0 0.69732475 75.226067 0.0 2.2579552e-06 75.213554 0.0 0.20703617 75.407616 0.0 0.3982259 75.666634 0.0 0.45405552 76.289886 0.0 0.5333997 77.293549 0.0 0.67344743 79.296883 0.0 0.79634678 82.91304000000001 0.0 1.0534128 75.09164399999999 0.0 1.0330652e-05 75.251228 0.0 0.29376638 75.465164 0.0 0.4901287 76.327377 0.0 0.61469328 77.330589 0.0 0.62326813 79.431198 0.0 0.73595262 83.015106 0.0 0.82349104 89.017647 0.0 0.99696761 76.504074 0.0 1.8098937000000002e-05 76.716301 0.0 0.27392542 77.338173 0.0 0.41079569 78.426399 0.0 0.47215533 80.70101899999999 0.0 0.48991105 84.612122 0.0 0.45998889 89.973175 0.0 0.32990766 97.733521 0.0 0.26233259 80.509621 0.0 1.8303399e-05 80.648087 0.0 0.091997162 81.844643 0.0 0.17240289 83.837662 0.0 0.040416092 87.267128 0.0 -0.23652221 92.743576 0.0 -0.3795597 100.14336999999999 0.0 -0.55991709 110.72469 0.0 0.018132955 88.08683 0.0 1.7487328e-05 88.560776 0.0 -0.2140034 90.10560600000001 0.0 -0.53427541 92.773476 0.0 -1.0658488000000002 97.762878 0.0 -1.1491833 105.17487 0.0 -0.82823586 114.93866000000001 0.0 -0.35505193 127.05022 0.0 0.88515198 100.42036999999999 0.0 1.1276279e-05 101.02402 0.0 -0.34561169 102.60392 0.0 -1.2866743999999999 106.15953999999999 0.0 -1.4685781 111.89341999999999 0.0 -1.3178881000000002 120.2767 0.0 -0.63909638 130.1532 0.0 0.06289482099999999 115.67773999999999 0.0 2.1652379999999998e-05 116.32773999999999 0.0 -0.33657902 118.31492 0.0 -0.65786207 121.6356 0.0 -1.3312553 126.89845 0.0 -1.5102528 -3.4020805 0.0 0.38389015 -3.2882937999999995 0.0 0.45610452 -3.1350917999999997 0.0 0.5303607 -2.9395361 0.0 0.61141682 -2.6988726 0.0 0.69788742 -2.4120865 0.0 0.77935076 -2.0688801 0.0 0.8420043 -4.1519222000000005 0.0 0.4632951 -4.019004799999999 0.0 0.5405696 -3.8391705000000003 0.0 0.62366652 -3.6147194 0.0 0.70553088 -3.3416032999999996 0.0 0.78841019 -3.0062342 0.0 0.86185074 -2.5665789 0.0 0.91673279 -1.9601544999999998 0.0 1.0812912000000001 -5.0131321 0.0 0.49016333 -4.8575459 0.0 0.56153864 -4.6504984 0.0 0.63213867 -4.3960667 0.0 0.70330286 -4.0980139 0.0 0.76930833 -3.7320604 0.0 0.84201574 -3.2459526000000003 0.0 0.92136908 -2.5356292999999996 0.0 1.0830269 -5.9369726 0.0 0.49179843 -5.7576427 0.0 0.55309767 -5.522480000000001 0.0 0.61069119 -5.2402115 0.0 0.66876411 -4.9258537 0.0 0.71909857 -4.551588099999999 0.0 0.78023386 -4.043416000000001 0.0 0.85467052 -3.2316589 0.0 1.0409841999999998 -6.959635700000001 0.0 0.47927773 -6.756729099999999 0.0 0.52986455 -6.493176 0.0 0.57584876 -6.1858582 0.0 0.61793292 -5.8584228 0.0 0.65155602 -5.4808788 0.0 0.69886827 -4.9540086 0.0 0.76808262 -4.0373249 0.0 0.99629211 -8.1086597 0.0 0.45986691 -7.8823586 0.0 0.5016017 -7.5919113 0.0 0.53342134 -7.261488000000001 0.0 0.55656564 -6.923317 0.0 0.57009983 -6.546742900000001 0.0 0.60307789 -6.004581 0.0 0.67376328 -4.9715023 0.0 0.97060013 -9.383569699999999 0.0 0.44366771 -9.135561000000001 0.0 0.47280645 -8.8205843 0.0 0.48762161 -8.4705067 0.0 0.48851418 -8.1249018 0.0 0.48322868 -7.7549057 0.0 0.50798225 -7.212286 0.0 0.59793758 -6.053560299999999 0.0 1.0070591 -10.769221 0.0 0.44121936 -10.500632000000001 0.0 0.45599627 -10.163569 0.0 0.45189798 -9.798439 0.0 0.43071413 -9.453269 0.0 0.41409636 -9.1127605 0.0 0.43263912 -8.591720599999999 0.0 0.5701189 -7.3132991999999994 0.0 1.1439953 -12.250424 0.0 0.4705652 -11.962149 0.0 0.47217387 -11.605784 0.0 0.45026493 -11.227399 0.0 0.4165206 -10.893621000000001 0.0 0.38613653 -10.580153999999999 0.0 0.43611908 -10.131314 0.0 0.61154938 -8.8387604 0.0 1.3038158000000002 -13.81543 0.0 0.55270535 -13.508301000000001 0.0 0.54445946 -13.135462 0.0 0.5069623 -12.746417999999998 0.0 0.47020793 -12.439618 0.0 0.42980194 -12.191294000000001 0.0 0.47703266 -11.890637 0.0 0.63337708 -10.849716 0.0 1.1962146999999999 -15.452257999999999 0.0 0.70623183 -15.124392000000002 0.0 0.69099259 -14.743217000000001 0.0 0.64196265 -14.373078 0.0 0.59126353 -14.099843 0.0 0.54781008 -13.975929 0.0 0.55158997 -13.936567000000002 0.0 0.61980629 -13.51704 0.0 0.80027008 -17.153954000000002 0.0 0.94731814 -16.807264 0.0 0.9251554 -16.40897 0.0 0.89137775 -16.068495000000002 0.0 0.82429242 -15.878654000000001 0.0 0.75942469 -15.943787 0.0 0.76718426 -16.265688 0.0 0.89686012 -16.318077 0.0 1.2090874 -18.925743 0.0 1.2637193000000002 -18.543892 0.0 1.3018825 -18.146614000000003 0.0 1.267113 -17.834843 0.0 1.242157 -17.747681 0.0 1.292582 -18.101715 0.0 1.5202208000000001 -18.726444 0.0 2.4281101 -19.173901 0.0 3.7067928 -20.764315 0.0 1.6626058999999997 -20.347002 0.0 1.7577901000000002 -19.932642 0.0 1.8141175999999999 -19.671944 0.0 1.9012237 -19.775772 0.0 2.1682143 -20.432007000000002 0.0 2.7889137 -21.553402 0.0 4.1345377 -22.682219 0.0 5.6507587 -22.665531 0.0 2.1490431 -22.209953 0.0 2.3127494 -21.770111 0.0 2.4861548 -21.557199 0.0 2.7101273999999997 -21.862959 0.0 3.1673179 -22.931879000000002 0.0 3.9985888 -24.73255 0.0 5.2912707 -26.67721 0.0 6.8833760999999996 -24.633198 0.0 2.6770104999999997 -24.127274 0.0 2.9071314 -23.649063 0.0 3.1910059 -23.464317 0.0 3.5492720999999996 -23.953001 0.0 4.0840678 -25.412609 0.0 4.9623537 -27.878906 0.0 6.1539946 -30.82712 0.0 7.7600079 -26.65711 0.0 3.1906849999999998 -26.091576 0.0 3.4942076 -25.569094 0.0 3.8395678999999996 -25.391739 0.0 4.2578610999999995 -26.012724 0.0 4.8398814 -27.812944 0.0 5.718823 -30.879395000000002 0.0 6.9098821 -34.707142 0.0 8.5937319 -28.729159999999997 0.0 3.6714501000000004 -28.091198 0.0 4.0312448 -27.513405 0.0 4.4023252 -27.311665 0.0 4.8761434999999995 -28.055868 0.0 5.458262400000001 -30.159456 0.0 6.3321071 -33.743359000000005 0.0 7.6057062 -38.299294 0.0 9.374680499999998 -30.836582 0.0 4.092858799999999 -30.119457 0.0 4.4819078 -29.471874 0.0 4.8571057 -29.26936 0.0 5.3327737 -30.103821000000003 0.0 5.9578319 -32.493076 0.0 6.874098299999999 -36.567242 0.0 8.224411 -41.741528 0.0 10.090387 -32.974747 0.0 4.430247799999999 -32.157391 0.0 4.847080200000001 -31.437082 0.0 5.208849400000001 -31.220402000000004 0.0 5.6848339999999995 -32.160736 0.0 6.346521900000001 -34.845222 0.0 7.3223701 -39.428802000000005 0.0 8.7330608 -45.197639 0.0 10.735239 -35.130367 0.0 4.6714416 -34.204876 0.0 5.1015849 -33.400661 0.0 5.4593635 -33.17281 0.0 5.9188514 -34.215889000000004 0.0 6.628329300000001 -37.206741 0.0 7.6663198 -42.297191999999995 0.0 9.164986599999999 -48.729335999999996 0.0 11.265680999999999 -37.301571 0.0 4.8037434 -36.258339 0.0 5.2328434 -35.354259000000006 0.0 5.5989223 -35.106861 0.0 6.0512891 -36.251148 0.0 6.799345 -39.561474 0.0 7.8928685 -45.185959000000004 0.0 9.4641352 -52.3083 0.0 11.648387 -39.473785 0.0 4.8079247 -38.301815000000005 0.0 5.2293935 -37.286678 0.0 5.6080413 -37.004948 0.0 6.0606875 -38.256584000000004 0.0 6.8324017999999995 -41.889545 0.0 7.977570500000001 -48.065994 0.0 9.6014748 -55.905941000000006 0.0 11.848038 -41.636124 0.0 4.6547279 -40.324546999999995 0.0 5.062644000000001 -39.189938 0.0 5.4548855000000005 -38.859493 0.0 5.897189599999999 -40.213558 0.0 6.686865299999999 -44.170475 0.0 7.8792005000000005 -50.918324 0.0 9.5386467 -59.505291 0.0 11.828046 -43.778008 0.0 4.313438400000001 -42.320103 0.0 4.7008624 -41.053653999999995 0.0 5.086040000000001 -40.661819 0.0 5.5117555 -42.114738 0.0 6.3020635 -46.397755 0.0 7.5522747 -53.738234999999996 0.0 9.2361526 -63.10260400000001 0.0 11.568027 -45.89048 0.0 3.7607684 -44.283649 0.0 4.0879373999999995 -42.880835999999995 0.0 4.4415393 -42.413197 0.0 4.845397 -43.964031 0.0 5.6234775 -48.580601 0.0 6.927286099999999 -56.5485 0.0 8.6573133 -66.743385 0.0 11.04262 -47.96022 0.0 2.9720571 -46.207039 0.0 3.1995717999999997 -44.662085999999995 0.0 3.4756801 -44.118671 0.0 3.8407631 -45.770004 0.0 4.5917810999999995 -50.744061 0.0 5.941264599999999 -59.396496 0.0 7.7559152000000005 -70.532494 0.0 10.210315 -49.963436 0.0 1.9108591000000001 -48.069916 0.0 1.9886999 -46.388329 0.0 2.1380458 -45.775162 0.0 2.4613416 -47.545113 0.0 3.1519339 -52.914744999999996 0.0 4.5492482 -62.325249 0.0 6.4817648000000005 -74.589035 0.0 9.0554037 -51.843109000000005 0.0 0.50757277 -49.822807 0.0 0.41820523 -48.012157 0.0 0.4108803 -47.374825 0.0 0.61042267 -49.25264 0.0 1.2275791999999999 -55.059429 0.0 2.6305808999999996 -65.30454300000001 0.0 4.7872224 -78.921654 0.0 7.5603027 -53.461189000000005 0.0 -1.0659237 -51.340590999999996 0.0 -1.4411598 -49.417545000000004 0.0 -1.6938663 -48.722621999999994 0.0 -1.6053923 -50.772746999999995 0.0 -1.1924118000000001 -57.031783999999995 0.0 0.24830699 -68.194489 0.0 2.6462209 -83.38374300000001 0.0 5.7663546 -54.767506000000004 0.0 -3.0805132 -52.388668 0.0 -3.5801146 -50.374756 0.0 -4.0201631 -49.741066 0.0 -4.2586765 -52.032005 0.0 -4.0971459999999995 -58.681286 0.0 -2.6712325 -70.74282099999999 0.0 0.08670088599999999 -87.499001 0.0 3.6222122000000003 -55.596504 0.0 -5.4529404999999995 -53.0979 0.0 -6.160003700000001 -51.005404999999996 0.0 -6.9107447 -50.381371 0.0 -7.451478 -52.875225 0.0 -7.3301716 -60.083831999999994 0.0 -6.035612599999999 -72.991066 0.0 -2.9357102000000004 -91.011513 0.0 1.5630406000000001 -55.967102000000004 0.0 -8.1697359 -53.358833 0.0 -9.1877079 -51.27813 0.0 -10.195779 -50.699222999999996 0.0 -10.884504 -53.434647 0.0 -10.968059 -61.106868999999996 0.0 -9.5536137 -74.618439 0.0 -6.1063279999999995 -93.374672 0.0 -0.40376562 -55.96419100000001 0.0 -11.357698 -53.388588 0.0 -12.688597 -51.228958 0.0 -13.951204999999998 -50.681335 0.0 -14.829816000000001 -53.49927099999999 0.0 -14.787131 -61.524853 0.0 -12.890092 -75.475639 0.0 -9.2864933 -93.51610600000001 0.0 -1.6727966 -55.70536800000001 0.0 -15.267271 -52.997356 0.0 -16.52528 -50.703655 0.0 -17.642885 -49.974731 0.0 -18.378653 -52.48889200000001 0.0 -18.433764 -60.18753100000001 0.0 -16.656605 -73.57373 0.0 -12.249053 -87.66494 0.0 -0.97673035 -54.571690000000004 0.0 -18.948481 -51.216568 0.0 -19.629510999999997 -47.990322 0.0 -20.209877 -46.498039 0.0 -21.35738 -49.275940000000006 0.0 -22.335704999999997 -55.22068 0.0 -20.256031 -61.323356999999994 0.0 -16.167568 -63.059394999999995 0.0 -3.8941729 -46.232777 0.0 -18.814486 -41.812622 0.0 -20.944397 -38.199546999999995 0.0 -25.426765 -36.281853000000005 0.0 -28.077147999999998 -35.128204 0.0 -28.036427000000003 -34.534851 0.0 -25.661137 -34.24984 0.0 -19.373718 -34.440395 0.0 -6.8855829 -27.568943 0.0 -24.538355 -24.271166 0.0 -25.574510999999998 -21.299692 0.0 -30.390125 -19.13648 0.0 -32.813679 -17.952051 0.0 -32.110165 -17.472956 0.0 -29.444571999999997 -17.540476 0.0 -22.279398 -18.013214 0.0 -5.817400900000001 -16.764246 0.0 -30.206676 -14.598642000000002 0.0 -31.369982 -12.81348 0.0 -32.980774 -11.562737 0.0 -36.670212 -10.943423 0.0 -36.840755 -10.974785 0.0 -32.763603 -11.5488 0.0 -24.968309 -12.30762 0.0 -2.4001938999999997 -11.248035 0.0 -33.833145 -10.269985 0.0 -35.33593 -9.546192199999998 0.0 -36.973929999999996 -9.144701 0.0 -38.973221 -9.1375504 0.0 -39.860058 -9.539286599999999 0.0 -35.465599 -10.263236000000001 0.0 -27.384092 -11.032803999999999 0.0 -1.4057268 -6.5946002 0.0 -35.063965 -6.5483437 0.0 -36.678951 -6.5884895000000006 0.0 -38.410809 -6.7128921 0.0 -40.372378999999995 -6.945315400000001 0.0 -41.035229 -7.2948116999999995 0.0 -37.388855 -7.740574799999999 0.0 -28.498115999999996 -8.1895628 0.0 -1.5196216 -0.060078099 0.0 -34.14307 -0.50154936 0.0 -35.726234000000005 -0.82486171 0.0 -37.450909 -0.99764532 0.0 -39.489810999999996 -1.0246671 0.0 -41.394966 -0.93570644 0.0 -38.616852 -0.7954554 0.0 -28.745884000000004 -0.68146843 0.0 -1.9016395000000001 8.794963800000001 0.0 -31.698898 8.2881575 0.0 -33.214718 8.112660400000001 0.0 -34.979912 8.288186099999999 0.0 -37.924755 8.7766361 0.0 -41.049725 9.4901171 0.0 -38.33749 10.297166 0.0 -27.858644 11.02621 0.0 -2.0472171 18.996901 0.0 -28.448096999999997 18.676453 0.0 -29.904537 18.872410000000002 0.0 -31.723328000000002 19.471716 0.0 -36.66584 20.628082 0.0 -39.156528 21.914759 0.0 -36.197029 23.256386 0.0 -26.296422999999997 24.46953 0.0 -2.2176492000000003 29.543676 0.0 -24.994644 29.448479 0.0 -26.385865999999996 29.985398999999997 0.0 -28.251340999999996 30.786263 0.0 -34.501156 32.464382 0.0 -36.045398999999996 34.288456 0.0 -33.199089 36.015121 0.0 -23.961533 37.403896 0.0 -2.5888908 40.119240000000005 0.0 -21.73633 40.11842 0.0 -23.019476 40.712478999999995 0.0 -25.065062 41.387371 0.0 -31.346077 42.862353999999996 0.0 -32.65099 45.343899 0.0 -29.538567999999998 47.744774 0.0 -21.184305 49.012878 0.0 -2.3596075 50.889751000000004 0.0 -18.875422 50.782825 0.0 -19.980469 51.010269 0.0 -22.318806 50.778931 0.0 -27.481567 52.142528999999996 0.0 -28.907021000000004 54.903526 0.0 -25.661737 58.600124 0.0 -17.506166 59.779163 0.0 -0.82612401 61.834968999999994 0.0 -16.466627 61.458045999999996 0.0 -17.329359 61.328327 0.0 -19.140304999999998 60.364227 0.0 -23.876768 60.809052 0.0 -24.634022 62.99709300000001 0.0 -20.957586 67.87925 0.0 -13.800117000000002 70.192543 0.0 0.42622611 70.337395 0.0 -13.906166 69.993851 0.0 -14.532668 70.059349 0.0 -15.377937 69.370186 0.0 -20.019182 69.451317 0.0 -19.94817 71.13250699999999 0.0 -16.046892 77.41127 0.0 -10.537735000000001 81.191078 0.0 1.6437758000000002 74.338318 0.0 -10.822024 74.204605 0.0 -11.118939 74.568588 0.0 -11.190779 75.071625 0.0 -14.456399 77.168602 0.0 -15.311059 79.673714 0.0 -11.633657000000001 87.228279 0.0 -7.3442178 93.177391 0.0 3.8285074 76.182823 0.0 -8.1757164 76.213577 0.0 -8.1557989 76.84481 0.0 -7.868274700000001 78.685249 0.0 -8.884399400000001 82.20264399999999 0.0 -10.360871000000001 88.960144 0.0 -7.623346799999999 97.627922 0.0 -3.8421218 105.89536000000001 0.0 6.769387700000001 77.158058 0.0 -5.7237663 77.24470500000001 0.0 -5.5845633 78.305534 0.0 -5.3932910000000005 81.01509899999999 0.0 -5.1946392 86.376228 0.0 -5.4940019 96.503731 0.0 -3.2258739 108.33703999999999 0.0 -0.48713249 119.469 0.0 10.068304 77.959503 0.0 -4.1007562 78.23741899999999 0.0 -3.8736428999999997 79.32537099999999 0.0 -3.4072225 82.536415 0.0 -3.0390077 89.646416 0.0 -2.3643811 102.44624 0.0 -0.23981513 118.92596 0.0 2.8472145 134.29016000000001 0.0 14.293606 78.374084 0.0 -2.9541972000000003 78.937202 0.0 -2.5530043 80.566154 0.0 -2.0042675 84.545456 0.0 -1.4038798000000001 93.138855 0.0 -0.23326358 107.94276 0.0 2.0876858 128.70892 0.0 4.9879351 152.55695 0.0 12.890582 78.654045 0.0 -1.8277231 79.570938 0.0 -1.389724 82.06815300000001 0.0 -0.83676416 87.39415 0.0 -0.0668988 97.69989 0.0 1.1888756999999999 114.49304 0.0 3.9019858999999997 138.67273 0.0 7.7423711 165.70583 0.0 13.576559 78.907166 0.0 -0.94153243 80.642921 0.0 -0.45309976 84.330383 0.0 0.1959427 91.49655200000001 0.0 1.1545081 103.89331999999999 0.0 2.8737695 123.32846 0.0 6.2279477 149.98453999999998 0.0 10.234327 79.422012 0.0 -0.1192142 82.229073 0.0 0.35953194 87.768105 0.0 1.2012709 97.074875 0.0 2.257448 112.10403000000001 0.0 4.5361676 134.43069 0.0 8.1373968 162.31951999999998 0.0 12.318892 80.632278 0.0 0.49963853 85.059494 0.0 1.1915833999999998 92.748512 0.0 1.9667215 104.69586 0.0 3.0755377 123.07276 0.0 5.9945102 147.70212 0.0 9.6433125 83.428139 0.0 1.0980151000000002 89.845665 0.0 1.7546577 100.08237 0.0 2.4130387000000004 115.07878000000001 0.0 3.7763641000000003 136.46454 0.0 7.012112599999999 161.92445 0.0 10.841280000000001 88.67315699999999 0.0 1.3580784 97.402641 0.0 1.7231119 110.67712 0.0 2.5097609 128.44553 0.0 4.5255637 151.78003999999999 0.0 8.037437400000002 96.58284 0.0 0.9102149 108.21576999999999 0.0 1.3416001 124.31079 0.0 2.8218551 144.24106 0.0 5.584324400000001 108.31192 0.0 0.34747186 123.03567 0.0 1.7027904999999999 140.88455 0.0 4.0737524 159.2811 0.0 7.220915799999999 124.16371000000001 0.0 1.2057824 139.85884 0.0 3.3432174 140.15962 0.0 2.436317 
StrainDot 3 2975 float
0.0 0.0 0.0 0.0 0.0 0.0 0.0 0.0 0.0 0.0 0.0 0.0 0.0 0.0 0.0 0.0 0.0 0.0 0.0 0.0 0.0 0.0 0.0 0.0 0.0 0.0 0.0 0.0 0.0 0.0 0.0 0.0 0.0 0.0 0.0 0.0 0.0 0.0 0.0 -1.6461604e-06 0.0 -4.5563823e-07 -5.3090082e-16 0.0 -2.3087561e-16 -7.7073846e-06 0.0 -3.3110236e-06 -5.5503679000000004e-05 0.0 -1.8673622e-05 -1.3080982e-05 0.0 -6.9473117e-06 -9.656411599999999e-05 0.0 -4.9283523999999996e-05 -0.00032999442 0.0 -0.00012881329 -0.00010346841999999998 0.0 -6.4338128e-05 -0.00040302073 0.0 -0.00023396011 -0.0010623587 0.0 -0.00046653142999999997 -0.00034766269 0.0 -0.000246273 -0.0010494058999999999 0.0 -0.00068381935 -0.0024421192 0.0 -0.0011950450999999999 -0.0007708015 0.0 -0.00062052556 -0.0020511909 0.0 -0.0015006126000000001 -0.0044659227000000004 0.0 -0.00243985 -0.0013165657999999998 0.0 -0.0012065857 -0.0032827226000000003 0.0 -0.0026988869 -0.006896458100000001 0.0 -0.0042107687 -0.001875049 0.0 -0.0019498310999999998 -0.0045329607 0.0 -0.0041663656 -0.009352963399999999 0.0 -0.006344500899999999 -0.0023503634 0.0 -0.0027333817 -0.0056257765000000005 0.0 -0.005684271899999999 -0.011521341000000001 0.0 -0.0085220682 -0.0027206948 0.0 -0.0034296431 -0.0065282728 0.0 -0.007018168000000001 -0.01335533 0.0 -0.010399013 -0.0030558946999999998 0.0 -0.003960961 -0.007380601 0.0 -0.0080258148 -0.015111642 0.0 -0.011774867 -0.0035014284999999997 0.0 -0.0043269167999999995 -0.0084874714 0.0 -0.0087052081 -0.017344126 0.0 -0.012664495 -0.0042646714 0.0 -0.004593343 -0.01028696 0.0 -0.0091834869 -0.020833172 0.0 -0.013276861000000001 -0.0056140674 0.0 -0.0048827822 -0.013316507 0.0 -0.0097199799 -0.026495742000000003 0.0 -0.014015738 -0.0079093082 0.0 -0.0054474152 -0.018218633 0.0 -0.010783646000000001 -0.035333197999999996 0.0 -0.015534522 -0.011546903 0.0 -0.0068396972 -0.02544581 0.0 -0.013195993999999999 -0.047843646 0.0 -0.018843658 -0.016578646000000002 0.0 -0.010225831999999999 -0.034299351 0.0 -0.018347353 -0.062478904 0.0 -0.02546417 -0.042806674 0.0 -0.028351594 -0.07582531099999999 0.0 -0.037476222999999996 0.0 0.0 0.0 0.0 0.0 0.0 0.0 0.0 0.0 0.0 0.0 0.0 0.0 0.0 0.0 0.0 0.0 0.0 0.0 0.0 0.0 0.0 0.0 0.0 0.0 0.0 0.0 0.0 0.0 0.0 0.0 0.0 0.0 0.0 0.0 0.0 0.0 0.0 0.0 0.0 0.0 0.0 0.0 0.0 0.0 0.0 0.0 0.0 0.0 0.0 0.0 0.0 0.0 0.0 0.0 0.0 0.0 0.0 0.0 0.0 0.0 0.0 0.0 0.0 0.0 0.0 0.0 0.0 0.0 0.0 0.0 0.0 0.0 0.0 0.0 -3.4436468e-07 0.0 -3.0934476000000004e-08 -2.2786735e-06 0.0 -1.0453279e-07 -5.542483900000001e-06 0.0 -9.493685099999999e-08 -8.427254199999999e-06 0.0 -1.1769290000000001e-08 -1.0048003e-05 0.0 2.3044995e-08 -1.1159847e-05 0.0 2.7378898999999997e-08 -1.2009251e-05 0.0 2.8037923999999998e-08 -1.5160644e-05 0.0 -2.8830363999999997e-06 -5.2272200000000004e-05 0.0 -6.2444069e-06 -0.00011646441999999999 0.0 -8.1082362e-06 -0.00019903999 0.0 -7.061908499999999e-06 -0.00028312553 0.0 -3.5253495e-06 -0.00035320748999999996 0.0 5.151118199999999e-07 -0.00040266916 0.0 2.8855377000000005e-06 -0.00043556371 0.0 3.3572164e-06 -0.00018062982 0.0 -4.1050866e-05 -0.00041033639 0.0 -5.8562175e-05 -0.0007446191199999999 0.0 -6.298667e-05 -0.0011471059 0.0 -5.1679461e-05 -0.0015564503 0.0 -2.801606e-05 -0.0019153804 0.0 -1.0086228e-06 -0.0021945317000000002 0.0 1.9476092e-05 -0.0023941072 0.0 2.9314991e-05 -0.00079475302 0.0 -0.00020757894 -0.0015465899 0.0 -0.00025331319 -0.0025745817 0.0 -0.00025133402 -0.0037777509999999998 0.0 -0.00019917118000000003 -0.0049941964 0.0 -0.00010850815000000001 -0.0060760812 0.0 -7.235364599999999e-06 -0.0069438326 0.0 7.341912e-05 -0.0075883423 0.0 0.00011878254999999999 -0.0022422582999999997 0.0 -0.00065524509 -0.0040500863 0.0 -0.00074138382 -0.0064498587 0.0 -0.00070546789 -0.0092131263 0.0 -0.00054719206 -0.011990413 0.0 -0.00029608596000000004 -0.014468402 0.0 -2.0123389e-05 -0.01647866 0.0 0.00020372506999999997 -0.017996101 0.0 0.00033692949 -0.0048119398 0.0 -0.0015622057000000001 -0.0083463313 0.0 -0.0016972298 -0.012965714 0.0 -0.0015770353 -0.018232306 0.0 -0.0012045709 -0.023488187999999997 0.0 -0.00064354873 -0.028163063999999998 0.0 -3.7161946e-05 -0.031963807000000004 0.0 0.00045665292 -0.034849908 0.0 0.00075855287 -0.0084717954 0.0 -0.0030660105 -0.014367679 0.0 -0.0032585519 -0.022012392000000002 0.0 -0.0029856532 -0.030659985 0.0 -0.0022490444 -0.039205484 0.0 -0.001177076 -0.046748202 0.0 -4.4087485999999996e-05 -0.052862015 0.0 0.0008717856300000001 -0.057504627999999995 0.0 0.0014380445 -0.012814088000000001 0.0 -0.005178283400000001 -0.021457953 0.0 -0.0054393201 -0.032586429 0.0 -0.004936514 -0.045057669 0.0 -0.0036587047 -0.057214457999999996 0.0 -0.0018572857 -0.067841418 0.0 -1.3506708000000001e-05 -0.07640747 0.0 0.0014554452 -0.082885519 0.0 0.0023660945999999998 -0.017181473 0.0 -0.007708543399999999 -0.02853756 0.0 -0.0080384193 -0.042967118 0.0 -0.0072012511 -0.021023545 0.0 -0.010261272 -0.034675039 0.0 -0.010621415 -0.024286752999999998 0.0 -0.012396984 -0.039849468 0.0 -0.012684839 -0.027421705 0.0 -0.013885203 -0.04483626 0.0 -0.014023484 -0.031304833 0.0 -0.014778593000000001 -0.050823003 0.0 -0.014729558 -0.037138142 0.0 -0.015364263000000001 -0.059405680999999995 0.0 -0.015124904 -0.046275999000000005 0.0 -0.01614861 -0.07229680599999999 0.0 -0.015744058000000002 -0.060101539 0.0 -0.017899539 -0.09108264 0.0 -0.017366745 -0.079239383 0.0 -0.021763206 -0.11639046 0.0 -0.021142235 -0.10161064 0.0 -0.029448889 -0.14603794 0.0 -0.028840121 -0.12231509 0.0 -0.043246478 -0.17460629 0.0 -0.042980973 0.0 0.0 0.0 0.0 0.0 0.0 0.0 0.0 0.0 0.0 0.0 0.0 0.0 0.0 0.0 0.0 0.0 0.0 0.0 0.0 0.0 0.0 0.0 0.0 0.0 0.0 0.0 0.0 0.0 0.0 0.0 0.0 0.0 0.0 0.0 0.0 0.0 0.0 0.0 0.0 0.0 0.0 0.0 0.0 0.0 0.0 0.0 0.0 0.0 0.0 0.0 0.0 0.0 0.0 0.0 0.0 0.0 0.0 0.0 0.0 0.0 0.0 0.0 0.0 0.0 0.0 0.0 0.0 0.0 0.0 0.0 0.0 0.0 0.0 0.0 0.0 0.0 0.0 0.0 0.0 0.0 -1.2622916e-05 0.0 2.6652721e-08 -1.3041053e-05 0.0 2.4129546000000003e-08 -1.3306485e-05 0.0 2.1064712999999998e-08 -1.3459803e-05 0.0 1.8169835e-08 -1.3536312e-05 0.0 1.5489995e-08 -1.3564328e-05 0.0 1.3040078000000001e-08 -1.3565497000000001e-05 0.0 1.1016446000000002e-08 -1.3555697e-05 0.0 9.4896482e-09 -1.3545714e-05 0.0 8.5429761e-09 -0.00045913347 0.0 3.259182e-06 -0.00047561490999999996 0.0 2.9935935999999997e-06 -0.0004864358900000001 0.0 2.6550833e-06 -0.00049300614 0.0 2.3022994e-06 -0.00049657898 0.0 1.9685453000000003e-06 -0.00049819448 0.0 1.6726583e-06 -0.00049866916 0.0 1.4257522e-06 -0.00049860275 0.0 1.2399529e-06 -0.00049840525 0.0 1.1249329e-06 -0.0025308034 0.0 3.0461451000000002e-05 -0.0026252607 0.0 2.8419219e-05 -0.0026882626 0.0 2.5477315e-05 -0.0027273681 0.0 2.2267399e-05 -0.0027494167 0.0 1.9164978e-05 -0.0027601453000000004 0.0 1.6389438e-05 -0.0027640895 0.0 1.4085129e-05 -0.0027646215000000003 0.0 1.2355428e-05 -0.0027640495 0.0 1.1282023999999999e-05 -0.0080422275 0.0 0.00013255909 -0.0083514331 0.0 0.00012707798 -0.0085575264 0.0 0.00011515398999999999 -0.0086868862 0.0 0.00010144604 -0.0087611359 0.0 8.7897963e-05 -0.0087985098 0.0 7.5672346e-05 -0.0088134715 0.0 6.549198599999999e-05 -0.0088168215 0.0 5.7859092e-05 -0.0088159647 0.0 5.3128118000000006e-05 -0.019082653999999998 0.0 0.00038633758 -0.019829616 0.0 0.0003807857 -0.020324033000000002 0.0 0.00034900324 -0.020635216 0.0 0.00030988458 -0.020814966 0.0 0.00027028112999999995 -0.020906541 0.0 0.00023415709 -0.020944286 0.0 0.00020395505 -0.020953823 0.0 0.00018128054 -0.020952722 0.0 0.00016722985 -0.036931127 0.0 0.00087992894 -0.038370386 0.0 0.00087981875 -0.039322574 0.0 0.0008163073200000001 -0.039918993 0.0 0.0007302387400000001 -0.040262513 0.0 0.0006410168700000001 -0.040436849 0.0 0.00055868458 -0.040508073 0.0 0.00048948557 -0.040525492 0.0 0.00043742705 -0.040522862 0.0 0.00040514568999999994 -0.060855497 0.0 0.0016754461 -0.063173592 0.0 0.0016874707999999998 -0.064704448 0.0 0.0015798931 -0.065655433 0.0 0.0014230887 -0.066196874 0.0 0.0012569043 -0.06646616799999999 0.0 0.0011017913 -0.066571176 0.0 0.00097068102 -0.066592015 0.0 0.0008717848699999999 -0.066583402 0.0 0.00081039418 -0.08754149800000001 0.0 0.0027571176 -0.09074676 0.0 0.0027881509000000004 -0.092849985 0.0 0.0026268185999999997 -0.094140366 0.0 0.0023818042 -0.094859548 0.0 0.0021165018 -0.095203273 0.0 0.0018661085 -0.095324226 0.0 0.0016532317999999999 -0.095334955 0.0 0.0014921875 -0.09531185800000001 0.0 0.0013920848 0.0 0.0 0.0 0.0 0.0 0.0 0.0 0.0 0.0 0.0 0.0 0.0 0.0 0.0 0.0 0.0 0.0 0.0 0.0 0.0 0.0 0.0 0.0 0.0 0.0 0.0 0.0 0.0 0.0 0.0 0.0 0.0 0.0 0.0 0.0 0.0 0.0 0.0 0.0 0.0 0.0 0.0 0.0 0.0 0.0 0.0 0.0 0.0 0.0 0.0 0.0 0.0 0.0 0.0 0.0 0.0 0.0 0.0 0.0 0.0 0.0 0.0 0.0 0.0 0.0 0.0 0.0 0.0 0.0 0.0 0.0 0.0 -1.3541700000000001e-05 0.0 8.2294846e-09 -1.3545716e-05 0.0 8.5429583e-09 -1.3555693e-05 0.0 9.4896304e-09 -1.3565495e-05 0.0 1.1016457e-08 -1.3564329000000001e-05 0.0 1.3040101999999997e-08 -1.3536314999999999e-05 0.0 1.5490031000000002e-08 -1.3459809e-05 0.0 1.8169841e-08 -1.3306486e-05 0.0 2.1064708999999997e-08 -0.00049831363 0.0 1.0859097e-06 -0.00049840542 0.0 1.1249319e-06 -0.00049860269 0.0 1.2399523e-06 -0.00049866916 0.0 1.4257525e-06 -0.00049819442 0.0 1.6726599999999998e-06 -0.00049657887 0.0 1.9685467e-06 -0.00049300614 0.0 2.3023012999999996e-06 -0.0004864360400000001 0.0 2.6550856e-06 -0.0027637109000000003 0.0 1.0918563999999999e-05 -0.002764049 0.0 1.1282023e-05 -0.002764622 0.0 1.2355432000000001e-05 -0.00276409 0.0 1.408514e-05 -0.0027601451 0.0 1.6389449e-05 -0.002749417 0.0 1.9164989e-05 -0.0027273677000000003 0.0 2.2267415e-05 -0.0026882635 0.0 2.5477324e-05 -0.0088152066 0.0 5.1524661e-05 -0.0088159638 0.0 5.312814e-05 -0.0088168215 0.0 5.7859120999999994e-05 -0.0088134715 0.0 6.5492051e-05 -0.0087985098 0.0 7.567238900000001e-05 -0.008761136800000001 0.0 8.7898043e-05 -0.0086868871 0.0 0.00010144609000000001 -0.0085575264 0.0 0.00011515406 -0.020951238 0.0 0.0001624702 -0.020952718000000002 0.0 0.00016722991000000002 -0.020953827 0.0 0.00018128060000000001 -0.020944281999999998 0.0 0.00020395519 -0.02090654 0.0 0.00023415728 -0.020814965 0.0 0.00027028137 -0.020635212 0.0 0.00030988487 -0.020324025 0.0 0.00034900327 -0.040519877999999995 0.0 0.00039420731 -0.040522877 0.0 0.00040514597999999997 -0.040525517999999996 0.0 0.00043742752 -0.040508091 0.0 0.00048948615 -0.040436856 0.0 0.00055868516 -0.040262535 0.0 0.0006410174500000001 -0.039918985 0.0 0.00073023885 -0.039322585 0.0 0.00081630744 -0.06657704 0.0 0.00078958599 -0.066583402 0.0 0.00081039476 -0.066592015 0.0 0.00087178539 -0.066571169 0.0 0.0009706817199999999 -0.06646616799999999 0.0 0.0011017923 -0.066196866 0.0 0.0012569055 -0.065655425 0.0 0.0014230894000000001 -0.064704463 0.0 0.0015798932 -0.09529939300000001 0.0 0.0013581438 -0.09531188 0.0 0.0013920851999999998 -0.09533494699999999 0.0 0.0014921888 -0.09532424800000001 0.0 0.0016532332000000001 -0.09520325800000001 0.0 0.0018661094 -0.094859555 0.0 0.0021165032 -0.094140366 0.0 0.0023818056 -0.09285002199999999 0.0 0.0026268193 0.0 0.0 0.0 0.0 0.0 0.0 0.0 0.0 0.0 0.0 0.0 0.0 0.0 0.0 0.0 0.0 0.0 0.0 0.0 0.0 0.0 0.0 0.0 0.0 0.0 0.0 0.0 0.0 0.0 0.0 0.0 0.0 0.0 0.0 0.0 0.0 0.0 0.0 0.0 0.0 0.0 0.0 0.0 0.0 0.0 0.0 0.0 0.0 0.0 0.0 0.0 0.0 0.0 0.0 0.0 0.0 0.0 0.0 0.0 0.0 0.0 0.0 0.0 0.0 0.0 0.0 0.0 0.0 0.0 0.0 0.0 0.0 0.0 0.0 0.0 0.0 0.0 0.0 0.0 0.0 0.0 -1.3041053e-05 0.0 2.412958e-08 -1.2622913000000001e-05 0.0 2.6652756000000002e-08 -1.2009255e-05 0.0 2.8037907999999996e-08 -1.1159840999999998e-05 0.0 2.7378862000000002e-08 -1.0048003e-05 0.0 2.3044997000000005e-08 -8.427253300000001e-06 0.0 -1.1769281e-08 -5.5424879999999995e-06 0.0 -9.493686500000001e-08 -2.2786746e-06 0.0 -1.0453277e-07 -3.4436474e-07 0.0 -3.093448e-08 -0.00047561490999999996 0.0 2.993595e-06 -0.00045913359000000005 0.0 3.2591827e-06 -0.00043556359000000006 0.0 3.3572147999999997e-06 -0.0004026691 0.0 2.8855359e-06 -0.0003532074 0.0 5.1511068e-07 -0.00028312547000000003 0.0 -3.5253492999999996e-06 -0.00019904003 0.0 -7.061908900000001e-06 -0.00011646446000000002 0.0 -8.1082362e-06 -5.2272200000000004e-05 0.0 -6.2444055e-06 -0.0026252612 0.0 2.8419227999999997e-05 -0.0025308041000000002 0.0 3.046145e-05 -0.0023941081 0.0 2.9314971e-05 -0.0021945314999999997 0.0 1.9476076e-05 -0.0019153801000000002 0.0 -1.008631e-06 -0.0015564501999999999 0.0 -2.8016069000000003e-05 -0.0011471057 0.0 -5.1679461e-05 -0.0007446192299999999 0.0 -6.2986677e-05 -0.00041033656 0.0 -5.8562197e-05 -0.008351435899999999 0.0 0.00012707796 -0.008042226500000001 0.0 0.00013255906 -0.0075883409 0.0 0.00011878254999999999 -0.006943831700000001 0.0 7.3419083e-05 -0.0060760817 0.0 -7.2353891e-06 -0.004994195900000001 0.0 -0.00010850809999999999 -0.0037777521999999997 0.0 -0.00019917115000000002 -0.0025745814 0.0 -0.00025133396000000003 -0.0015465905 0.0 -0.00025331319 -0.019829608999999998 0.0 0.00038078589999999995 -0.019082653999999998 0.0 0.00038633769 -0.017996097 0.0 0.00033692952000000006 -0.016478652 0.0 0.00020372485 -0.014468402 0.0 -2.0123407e-05 -0.011990411999999999 0.0 -0.00029608598999999997 -0.009213127199999999 0.0 -0.0005471922900000001 -0.0064498572999999995 0.0 -0.0007054681200000001 -0.004050086699999999 0.0 -0.00074138382 -0.038370401 0.0 0.00087981886 -0.036931123999999996 0.0 0.00087992888 -0.034849897000000005 0.0 0.00075855321 -0.031963799 0.0 0.0004566529 -0.028163052999999997 0.0 -3.7161859e-05 -0.02348819 0.0 -0.00064354867 -0.018232306 0.0 -0.0012045706 -0.012965718999999999 0.0 -0.0015770354999999998 -0.0083463332 0.0 -0.0016972298 -0.063173585 0.0 0.0016874722 -0.060855493 0.0 0.0016754464 -0.057504632 0.0 0.0014380447 -0.052862010999999993 0.0 0.0008717849900000001 -0.046748190999999994 0.0 -4.4087523000000004e-05 -0.039205469 0.0 -0.0011770761 -0.030659983 0.0 -0.0022490444 -0.022012393999999998 0.0 -0.0029856534999999997 -0.014367682 0.0 -0.0032585515000000003 -0.09074676 0.0 0.0027881505 -0.08754152800000001 0.0 0.0027571178999999998 -0.082885519 0.0 0.0023660944 -0.076407455 0.0 0.0014554448 -0.067841403 0.0 -1.3506591e-05 -0.057214460999999994 0.0 -0.0018572855 -0.045057669 0.0 -0.0036587059000000003 -0.032586429 0.0 -0.004936514 -0.021457962999999997 0.0 -0.005439319200000001 -0.042967103 0.0 -0.007201251600000001 -0.028537557 0.0 -0.008038415600000001 -0.034675047 0.0 -0.010621415 -0.039849471000000004 0.0 -0.012684841 -0.044836272 0.0 -0.014023484 -0.05082301400000001 0.0 -0.014729558 -0.059405707 0.0 -0.015124906 -0.072296821 0.0 -0.01574406 -0.09108263300000001 0.0 -0.017366741 -0.11639049 0.0 -0.021142237 -0.14603794 0.0 -0.028840117000000002 -0.17460637 0.0 -0.042980973 0.0 0.0 0.0 0.0 0.0 0.0 0.0 0.0 0.0 0.0 0.0 0.0 0.0 0.0 0.0 0.0 0.0 0.0 0.0 0.0 0.0 0.0 0.0 0.0 0.0 0.0 0.0 0.0 0.0 0.0 0.0 0.0 0.0 0.0 0.0 0.0 0.0 0.0 0.0 0.0 0.0 0.0 0.0 0.0 0.0 -1.5160645e-05 0.0 -2.8830349999999997e-06 -1.6461606e-06 0.0 -4.5563805999999997e-07 0.0 0.0 0.0 0.0 0.0 0.0 -0.00018062987000000001 0.0 -4.1050866e-05 -5.5503693e-05 0.0 -1.8673616e-05 -7.7073864e-06 0.0 -3.3110227000000003e-06 -5.3090109e-16 0.0 -2.3087556e-16 -0.00079475343 0.0 -0.00020757884999999998 -0.00032999457 0.0 -0.00012881328000000002 -9.656413e-05 0.0 -4.9283484e-05 -1.3080988999999999e-05 0.0 -6.9473103e-06 -0.0022422587 0.0 -0.00065524486 -0.0010623587 0.0 -0.00046653125999999995 -0.00040302078999999996 0.0 -0.00023396 -0.00010346844000000001 0.0 -6.4338114e-05 -0.0048119407000000005 0.0 -0.0015622053 -0.0024421201 0.0 -0.001195045 -0.0010494058 0.0 -0.00068381918 -0.00034766275000000003 0.0 -0.00024627289 -0.008471797199999999 0.0 -0.0030660101 -0.0044659241 0.0 -0.0024398498000000003 -0.0020511912 0.0 -0.0015006125 -0.00077080162 0.0 -0.0006205255 -0.012814088999999999 0.0 -0.0051782839 -0.00689646 0.0 -0.0042107692 -0.0032827232 0.0 -0.0026988876000000003 -0.0013165658999999999 0.0 -0.0012065853 -0.017181471 0.0 -0.0077085439 -0.009352961600000001 0.0 -0.0063445 -0.0045329612 0.0 -0.0041663646999999995 -0.001875049 0.0 -0.0019498310999999998 -0.021023549 0.0 -0.010261273000000001 -0.011521337 0.0 -0.0085220682 -0.0056257773999999995 0.0 -0.0056842701 -0.0023503632 0.0 -0.0027333821999999995 -0.024286749 0.0 -0.012396984 -0.013355331000000002 0.0 -0.01039901 -0.0065282704 0.0 -0.0070181685 -0.0027206952 0.0 -0.0034296426 -0.027421702000000003 0.0 -0.013885203999999998 -0.015111643000000001 0.0 -0.011774865 -0.0073805996 0.0 -0.0080258148 -0.0030558943 0.0 -0.003960961 -0.031304844 0.0 -0.014778593999999999 -0.017344125 0.0 -0.012664495 -0.008487474200000001 0.0 -0.0087052099 -0.0035014284999999997 0.0 -0.0043269167999999995 -0.037138149 0.0 -0.015364265 -0.020833174 0.0 -0.01327686 -0.010286966 0.0 -0.0091834869 -0.0042646718 0.0 -0.0045933434999999995 -0.046275992 0.0 -0.01614861 -0.026495743999999998 0.0 -0.014015743 -0.013316508000000001 0.0 -0.0097199799 -0.0056140688 0.0 -0.0048827832 -0.060101546 0.0 -0.017899539 -0.035333201 0.0 -0.015534524 -0.018218635 0.0 -0.010783643 -0.0079093082 0.0 -0.0054474169999999995 -0.079239383 0.0 -0.021763207000000003 -0.047843643 0.0 -0.018843662 -0.025445807999999997 0.0 -0.013195997 -0.011546903 0.0 -0.006839698199999999 -0.10161063 0.0 -0.029448887000000003 -0.062478907 0.0 -0.025464172 -0.034299355 0.0 -0.018347351 -0.016578648 0.0 -0.010225831999999999 -0.12231506 0.0 -0.043246485 -0.075825319 0.0 -0.037476222999999996 -0.04280666599999999 0.0 -0.02835159 0.0 0.0 0.0 0.0 0.0 0.0 0.0 0.0 0.0 0.0 0.0 0.0 0.0 0.0 0.0 0.0 0.0 0.0 0.0 0.0 0.0 0.0 0.0 0.0 0.0 0.0 0.0 0.0 0.0 0.0 0.0 0.0 0.0 0.0 0.0 0.0 0.0 0.0 0.0 0.0 0.0 0.0 0.0 0.0 0.0 0.0 0.0 0.0 0.0 0.0 0.0 0.0 0.0 0.0 0.0 0.0 0.0 0.0 0.0 0.0 0.0 0.0 0.0 0.0 0.0 0.0 0.0 0.0 0.0 0.0 0.0 0.0 0.0 0.0 0.0 0.0 0.0 0.0 0.0 0.0 0.0 0.0 0.0 0.0 0.0 0.0 0.0 0.0 0.0 0.0 0.0 0.0 0.0 0.0 0.0 0.0 0.0 0.0 0.0 0.0 0.0 0.0 0.0 0.0 0.0 0.0 0.0 0.0 0.0 0.0 0.0 0.0 0.0 0.0 0.0 0.0 0.0 0.0 0.0 0.0 0.0 0.0 0.0 0.0 0.0 0.0 0.0 0.0 0.0 0.0 0.0 0.0 0.0 0.0 0.0 0.0 0.0 0.0 0.0 0.0 0.0 0.0 0.0 0.0 0.0 0.0 0.0 0.0 0.0 0.0 0.0 0.0 0.0 0.0 0.0 0.0 0.0 0.0 0.0 0.0 0.0 0.0 0.0 0.0 0.0 0.0 0.0 0.0 0.0 0.0 0.0 0.0 0.0 0.0 0.0 0.0 0.0 0.0 0.0 0.0 0.0 0.0 0.0 0.0 0.0 0.0 0.0 0.0 0.0 0.0 0.0 0.0 0.0 0.0 0.0 0.0 0.0 0.0 0.0 0.0 0.0 0.0 0.0 0.0 0.0 0.0 0.0 0.0 0.0 0.0 0.0 0.0 0.0 0.0 0.0 0.0 0.0 0.0 0.0 0.0 0.0 0.0 0.0 0.0 0.0 0.0 0.0 0.0 0.0 0.0 0.0 0.0 0.0 0.0 0.0 0.0 0.0 0.0 0.0 0.0 0.0 0.0 0.0 0.0 0.0 0.0 0.0 0.0 0.0 0.0 0.0 0.0 0.0 0.0 0.0 0.0 0.0 0.0 0.0 0.0 0.0 0.0 0.0 0.0 0.0 0.0 0.0 0.0 0.0 0.0 0.0 0.0 0.0 0.0 0.0 0.0 0.0 0.0 0.0 0.0 0.0 0.0 0.0 0.0 0.0 0.0 0.0 0.0 0.0 0.0 0.0 0.0 0.0 0.0 0.0 0.0 0.0 0.0 0.0 0.0 0.0 0.0 0.0 0.0 0.0 0.0 0.0 0.0 0.0 0.0 0.0 0.0 0.0 0.0 0.0 0.0 0.0 0.0 0.0 0.0 0.0 0.0 0.0 0.0 0.0 0.0 0.0 0.0 0.0 0.0 0.0 0.0 0.0 0.0 0.0 0.0 0.0 0.0 0.0 0.0 0.0 0.0 0.0 0.0 0.0 0.0 0.0 0.0 0.0 0.0 0.0 0.0 0.0 0.0 0.0 0.0 0.0 0.0 0.0 0.0 0.0 0.0 0.0 0.0 0.0 0.0 0.0 0.0 0.0 0.0 0.0 0.0 0.0 0.0 0.0 0.0 0.0 0.0 0.0 0.0 0.0 0.0 0.0 0.0 0.0 0.0 0.0 0.0 0.0 0.0 0.0 0.0 0.0 0.0 0.0 0.0 0.0 0.0 0.0 0.0 0.0 0.0 0.0 0.0 0.0 0.0 0.0 0.0 0.0 0.0 0.0 0.0 0.0 0.0 0.0 0.0 0.0 0.0 0.0 0.0 0.0 0.0 0.0 0.0 0.0 0.0 0.0 0.0 0.0 0.0 0.0 0.0 0.0 0.0 0.0 0.0 0.0 0.0 0.0 0.0 0.0 0.0 0.0 0.0 0.0 0.0 0.0 0.0 0.0 0.0 0.0 0.0 0.0 0.0 0.0 0.0 0.0 0.0 0.0 0.0 0.0 0.0 0.0 0.0 0.0 0.0 0.0 0.0 0.0 0.0 0.0 0.0 0.0 0.0 0.0 0.0 0.0 0.0 0.0 0.0 0.0 0.0 0.0 0.0 0.0 0.0 0.0 0.0 0.0 0.0 0.0 0.0 0.0 0.0 0.0 0.0 0.0 0.0 0.0 0.0 0.0 0.0 0.0 0.0 0.0 0.0 0.0 0.0 0.0 0.0 0.0 0.0 0.0 0.0 0.0 0.0 0.0 0.0 0.0 0.0 0.0 0.0 0.0 0.0 0.0 0.0 0.0 0.0 0.0 0.0 0.0 0.0 0.0 0.0 0.0 0.0 0.0 0.0 0.0 0.0 0.0 0.0 0.0 0.0 0.0 0.0 0.0 0.0 0.0 0.0 0.0 0.0 0.0 0.0 0.0 0.0 0.0 0.0 0.0 0.0 0.0 0.0 0.0 0.0 0.0 0.0 0.0 0.0 0.0 0.0 0.0 0.0 0.0 0.0 0.0 0.0 0.0 0.0 0.0 0.0 0.0 0.0 0.0 0.0 0.0 0.0 0.0 0.0 0.0 0.0 0.0 0.0 0.0 0.0 0.0 0.0 0.0 0.0 0.0 0.0 0.0 0.0 0.0 0.0 0.0 0.0 0.0 0.0 0.0 0.0 0.0 0.0 0.0 0.0 0.0 0.0 0.0 0.0 0.0 0.0 0.0 0.0 0.0 0.0 0.0 0.0 0.0 0.0 0.0 0.0 0.0 0.0 0.0 0.0 0.0 0.0 0.0 0.0 0.0 0.0 0.0 0.0 0.0 0.0 0.0 0.0 0.0 0.0 0.0 0.0 0.0 0.0 0.0 0.0 0.0 0.0 0.0 0.0 0.0 0.0 0.0 0.0 0.0 0.0 0.0 0.0 0.0 0.0 0.0 0.0 0.0 0.0 0.0 0.0 0.0 0.0 0.0 0.0 0.0 0.0 0.0 0.0 0.0 0.0 0.0 0.0 0.0 0.0 0.0 0.0 0.0 0.0 0.0 0.0 0.0 0.0 0.0 0.0 0.0 0.0 0.0 0.0 0.0 0.0 0.0 0.0 0.0 0.0 0.0 0.0 0.0 0.0 0.0 0.0 0.0 0.0 0.0 0.0 0.0 0.0 0.0 0.0 0.0 0.0 0.0 0.0 0.0 0.0 0.0 0.0 0.0 0.0 0.0 0.0 0.0 0.0 0.0 0.0 0.0 0.0 0.0 0.0 0.0 0.0 0.0 0.0 0.0 0.0 0.0 0.0 0.0 0.0 0.0 0.0 0.0 0.0 0.0 0.0 0.0 0.0 0.0 0.0 0.0 0.0 0.0 0.0 0.0 0.0 0.0 0.0 0.0 0.0 0.0 0.0 0.0 0.0 0.0 0.0 0.0 0.0 0.0 0.0 0.0 0.0 0.0 0.0 0.0 0.0 0.0 0.0 0.0 0.0 0.0 0.0 0.0 0.0 0.0 0.0 0.0 0.0 0.0 0.0 0.0 0.0 0.0 0.0 0.0 0.0 0.0 0.0 0.0 0.0 0.0 0.0 0.0 0.0 0.0 0.0 0.0 0.0 0.0 0.0 0.0 0.0 0.0 0.0 0.0 0.0 0.0 0.0 0.0 0.0 0.0 0.0 0.0 0.0 0.0 0.0 0.0 0.0 0.0 0.0 0.0 0.0 0.0 0.0 0.0 0.0 0.0 0.0 0.0 0.0 0.0 0.0 0.0 0.0 0.0 0.0 0.0 0.0 0.0 0.0 0.0 0.0 0.0 0.0 0.0 0.0 0.0 0.0 0.0 0.0 0.0 0.0 0.0 0.0 0.0 0.0 0.0 0.0 0.0 0.0 0.0 0.0 0.0 0.0 0.0 0.0 0.0 0.0 0.0 0.0 0.0 0.0 0.0 0.0 0.0 0.0 0.0 0.0 0.0 0.0 0.0 0.0 0.0 0.0 0.0 0.0 0.0 0.0 0.0 0.0 0.0 0.0 0.0 0.0 0.0 0.0 0.0 0.0 0.0 0.0 0.0 0.0 0.0 0.0 0.0 0.0 0.0 0.0 0.0 0.0 0.0 0.0 0.0 0.0 0.0 0.0 0.0 0.0 0.0 0.0 0.0 0.0 0.0 0.0 0.0 0.0 0.0 0.0 0.0 0.0 0.0 0.0 0.0 0.0 0.0 0.0 0.0 0.0 0.0 0.0 0.0 0.0 0.0 0.0 0.0 0.0 0.0 0.0 0.0 0.0 0.0 0.0 0.0 0.0 0.0 0.0 0.0 0.0 0.0 0.0 0.0 0.0 0.0 0.0 0.0 0.0 0.0 0.0 0.0 0.0 0.0 0.0 0.0 0.0 0.0 0.0 0.0 0.0 0.0 0.0 0.0 0.0 0.0 0.0 0.0 0.0 0.0 0.0 0.0 0.0 0.0 0.0 0.0 0.0 0.0 0.0 0.0 0.0 0.0 0.0 0.0 0.0 0.0 0.0 0.0 0.0 0.0 0.0 0.0 0.0 0.0 0.0 0.0 0.0 0.0 0.0 0.0 0.0 0.0 0.0 0.0 0.0 0.0 0.0 0.0 0.0 0.0 0.0 0.0 0.0 0.0 0.0 0.0 0.0 0.0 0.0 0.0 0.0 0.0 0.0 0.0 0.0 0.0 0.0 0.0 0.0 0.0 0.0 0.0 0.0 0.0 0.0 0.0 0.0 0.0 0.0 0.0 0.0 0.0 0.0 0.0 0.0 0.0 0.0 0.0 0.0 0.0 0.0 0.0 0.0 0.0 0.0 0.0 0.0 0.0 0.0 0.0 0.0 0.0 0.0 0.0 0.0 0.0 0.0 0.0 0.0 0.0 0.0 0.0 0.0 0.0 0.0 0.0 0.0 0.0 0.0 0.0 0.0 0.0 0.0 0.0 0.0 0.0 0.0 0.0 0.0 0.0 0.0 0.0 0.0 0.0 0.0 0.0 0.0 0.0 0.0 0.0 0.0 0.0 0.0 0.0 0.0 0.0 0.0 0.0 0.0 0.0 0.0 0.0 0.0 0.0 0.0 0.0 0.0 0.0 0.0 0.0 0.0 0.0 0.0 0.0 0.0 0.0 0.0 0.0 0.0 0.0 0.0 0.0 0.0 0.0 0.0 0.0 0.0 0.0 0.0 0.0 0.0 0.0 0.0 0.0 0.0 0.0 0.0 0.0 0.0 0.0 0.0 0.0 0.0 0.0 0.0 0.0 0.0 0.0 0.0 0.0 0.0 0.0 0.0 0.0 0.0 0.0 0.0 0.0 0.0 0.0 0.0 0.0 0.0 0.0 0.0 0.0 0.0 0.0 0.0 0.0 0.0 0.0 0.0 0.0 0.0 0.0 0.0 0.0 0.0 0.0 0.0 0.0 0.0 0.0 0.0 0.0 0.0 0.0 0.0 0.0 0.0 0.0 0.0 0.0 0.0 0.0 0.0 0.0 0.0 0.0 0.0 0.0 0.0 0.0 0.0 0.0 0.0 0.0 0.0 0.0 0.0 0.0 0.0 0.0 0.0 0.0 0.0 0.0 0.0 0.0 0.0 0.0 0.0 0.0 0.0 0.0 0.0 0.0 0.0 0.0 0.0 0.0 0.0 0.0 0.0 0.0 0.0 0.0 0.0 0.0 0.0 0.0 0.0 0.0 0.0 0.0 0.0 0.0 0.0 0.0 0.0 0.0 0.0 0.0 0.0 0.0 0.0 0.0 0.0 0.0 0.0 0.0 0.0 0.0 0.0 0.0 0.0 0.0 0.0 0.0 0.0 0.0 0.0 0.0 0.0 0.0 0.0 0.0 0.0 0.0 0.0 0.0 0.0 0.0 0.0 0.0 0.0 0.0 0.0 0.0 0.0 0.0 0.0 0.0 0.0 0.0 0.0 0.0 0.0 0.0 0.0 0.0 0.0 0.0 0.0 0.0 0.0 0.0 0.0 0.0 0.0 0.0 0.0 0.0 0.0 0.0 0.0 0.0 0.0 0.0 0.0 0.0 0.0 0.0 0.0 0.0 0.0 0.0 0.0 0.0 0.0 0.0 0.0 0.0 0.0 0.0 0.0 0.0 0.0 0.0 0.0 0.0 0.0 0.0 0.0 0.0 0.0 0.0 0.0 0.0 0.0 0.0 0.0 0.0 0.0 0.0 0.0 0.0 0.0 0.0 0.0 0.0 0.0 0.0 0.0 0.0 0.0 -0.058780566 0.0 -0.005124806 -0.07402217400000001 0.0 -0.0025561419 -0.087256581 0.0 7.1254326e-05 -0.097846605 0.0 0.0021389048 -0.10578649 0.0 0.0034214961 -0.051773068 0.0 -0.0086101685 -0.07019879700000001 0.0 -0.006453546700000001 -0.087753624 0.0 -0.0031302471 -0.10284251 0.0 0.0001892217 -0.11476552 0.0 0.0027802411999999998 -0.12357153 0.0 0.0043884576 -0.059168942 0.0 -0.0101723 -0.07984965299999999 0.0 -0.0074093752 -0.099285074 0.0 -0.0034957193 -0.11569972 0.0 0.0003184746 -0.12841487 0.0 0.0032637317 -0.13759688 0.0 0.0050849747 -0.06631726 0.0 -0.011124947 -0.08909720900000001 0.0 -0.0079247626 -0.11019085 0.0 -0.0036288467 -0.12764007 0.0 0.00044762855 -0.14081816 0.0 0.0035409317 -0.15006004 0.0 0.0054310588 -0.074801609 0.0 -0.011502797 -0.09959813199999999 0.0 -0.0080256937 -0.12215163 0.0 -0.0035546646 -0.14043418 0.0 0.00056029018 -0.15389851 0.0 0.0036076955 -0.16302569 0.0 0.0054343827 -0.08741634300000001 0.0 -0.011487437 -0.11387958 0.0 -0.0078487899 -0.13722584 0.0 -0.0033463994 -0.15572086 0.0 0.0006343726999999999 -0.16909979 0.0 0.0034853471000000002 -0.17795967 0.0 0.0051591196 -0.10821921 0.0 -0.011335256 -0.13546711 0.0 -0.0076197372 -0.15793903 0.0 -0.0031049177000000002 -0.17515799 0.0 0.0006849076600000001 -0.18745819 0.0 0.0032632384000000005 -0.19558276 0.0 0.0047365162 -0.14223127 0.0 -0.011291718000000001 -0.16817056 0.0 -0.007625927199999999 -0.18670106 0.0 -0.0029357669 -0.20006838 0.0 0.00079921773 -0.20959581 0.0 0.0031568506 -0.21607612 0.0 0.0044282894 -0.19397251 0.0 -0.011705249 -0.21433415 0.0 -0.0081612328 -0.22448355 0.0 -0.0028685858 -0.23079503 0.0 0.0011896316 -0.23557274 0.0 0.0035402151000000002 -0.23932837 0.0 0.0046572927 -0.26343399 0.0 -0.014359226000000001 -0.27162254 0.0 -0.0096899802 -0.26918891 0.0 -0.0027878783000000002 -0.26608989 0.0 0.0022906815 -0.26483369 0.0 0.0049679303 -0.26516753 0.0 0.005990755699999999 -0.33923262 0.0 -0.022910826000000002 -0.3305876 0.0 -0.013092328 -0.31505045 0.0 -0.0024353713 -0.30298835 0.0 0.004819077 -0.29611358 0.0 0.0081574963 -0.29319328 0.0 0.0090739373 -0.39577103 0.0 -0.028240729 -0.37830198 0.0 -0.015881157 -0.3553524 0.0 -0.00045081414000000005 -0.33820134 0.0 0.0097372979 -0.32792729 0.0 0.013810323999999999 -0.3228316 0.0 0.014441195 -0.42659351 0.0 0.0090402551 -0.40986165 0.0 0.0018995608999999999 -0.38751176 0.0 0.0090631638 -0.37023607 0.0 0.018622812 -0.35944489 0.0 0.022340719 -0.35366759 0.0 0.022221064 -0.44657785 0.0 0.05110614 -0.43191987 0.0 0.034851111000000004 -0.41397089 0.0 0.028687387999999998 -0.39986545 0.0 0.031965706 -0.39074001 0.0 0.033332329 -0.38555837 0.0 0.031894147000000005 -0.46271726 0.0 0.07513272 -0.4509671 0.0 0.061074473 -0.43843785 0.0 0.04993096 -0.42873871 0.0 0.046998244 -0.42233527 0.0 0.04522334 -0.41851792 0.0 0.042421848 -0.47830984 0.0 0.084359899 -0.47066405 0.0 0.076028585 -0.46355259 0.0 0.065932795 -0.45822975 0.0 0.059982136 -0.45471859 0.0 0.056186806 -0.45259735 0.0 0.052653629 -0.49648085 0.0 0.086758733 -0.49331987 0.0 0.08281640700000001 -0.49076831 0.0 0.07535301900000001 -0.48908347 0.0 0.069365419 -0.48819628 0.0 0.065257534 -0.48788771 0.0 0.061875332000000005 -0.51943338 0.0 0.08635243 -0.51974398 0.0 0.085302368 -0.52047592 0.0 0.080447681 -0.52160501 0.0 0.07585568 -0.52303463 0.0 0.072520927 -0.52462655 0.0 0.06989353200000001 -0.54697353 0.0 0.086547554 -0.54956895 0.0 0.086808585 -0.55265111 0.0 0.08382450799999999 -0.55606127 0.0 0.08078067 -0.5596382 0.0 0.07854706 -0.56318581 0.0 0.076871552 -0.5782268 0.0 0.088358156 -0.58253652 0.0 0.08918155 -0.58750933 0.0 0.087045155 -0.59290469 0.0 0.08516783300000001 -0.59845573 0.0 0.08391187300000001 -0.60385227 0.0 0.083148167 -0.61328107 0.0 0.091565602 -0.6189357 0.0 0.092677809 -0.62543154 0.0 0.090824991 -0.63247383 0.0 0.089658551 -0.63970929 0.0 0.089094035 -0.64673173 0.0 0.089044601 -0.65235871 0.0 0.095812179 -0.65894997 0.0 0.097344741 -0.66655236 0.0 0.09549179699999999 -0.67483765 0.0 0.094561391 -0.68339717 0.0 0.094318815 -0.69175684 0.0 0.09472333599999999 -0.69555211 0.0 0.10101992 -0.7025919 0.0 0.10307603 -0.71080023 0.0 0.10103728 -0.71983647 0.0 0.09982063599999999 -0.72927642 0.0 0.099520952 -0.73861438 0.0 0.10013449 -0.74268234 0.0 0.1072266 -0.74952155 0.0 0.10968805 -0.75767398 0.0 0.1070848 -0.76682329 0.0 0.10503544 -0.77657747 0.0 0.10439843 -0.786443 0.0 0.1050464 -0.79251313 0.0 0.11422545 -0.79831165 0.0 0.11669677 -0.80555987 0.0 0.11281957 -0.81402177 0.0 0.10955581 -0.82339227 0.0 0.10853451 -0.83323681 0.0 0.1091603 -0.84153658 0.0 0.12145723 -0.84537303 0.0 0.12314324 -0.85077721 0.0 0.11710858 -0.85767984 0.0 0.11278053 -0.86592096 0.0 0.11165571 -0.87515557 0.0 0.11234014 -0.88278705 0.0 0.1280379 -0.88392371 0.0 0.12779124 -0.88671738 0.0 0.11896806 -0.89136171 0.0 0.11457175 -0.89788127 0.0 0.11403131 -0.90604115 0.0 0.11494587 -0.90507346 0.0 0.1325826 -0.90339458 0.0 0.12944512 -0.90344644 0.0 0.11809953 -0.90572679 0.0 0.11584993 -0.91043854 0.0 0.1168469 -0.91743296 0.0 0.11818872 -0.89214772 0.0 0.13371526 -0.88884747 0.0 0.12749937 -0.88743019 0.0 0.11557754 -0.88855708 0.0 0.11869056 -0.89243388 0.0 0.12235253 -0.8989284 0.0 0.12421798 -0.82048327 0.0 0.13095708 -0.81874365 0.0 0.12234998 -0.81937724 0.0 0.1136695 -0.82285893 0.0 0.12541728 -0.82897151 0.0 0.13294104 -0.83724797 0.0 0.13552354 -0.65828151 0.0 0.12728482 -0.66325676 0.0 0.11757579 -0.67138302 0.0 0.11634133 -0.68271524 0.0 0.13666907 -0.69626516 0.0 0.14890423 -0.71073973 0.0 0.15344156 -0.37075514 0.0 0.13022901 -0.38814005 0.0 0.11967349 -0.40934077 0.0 0.12520006 -0.43394619 0.0 0.14959463 -0.46018001 0.0 0.1685067 -0.48574477 0.0 0.17725456 0.065116867 0.0 0.15295607 0.031399723 0.0 0.1362422 -0.0060940008 0.0 0.14593008 -0.046567079000000004 0.0 0.16432011 -0.087744325 0.0 0.18773171 -0.12661837 0.0 0.20390612 0.63838822 0.0 0.18327084 0.58949959 0.0 0.16647564 0.53755611 0.0 0.17950757 0.4842312 0.0 0.187199 0.43172434 0.0 0.20485827 0.38299295 0.0 0.22881828 1.2839651 0.0 0.19785532 1.2295824 0.0 0.17628381 1.1728549 0.0 0.19820586 1.117384 0.0 0.20772599 1.0647323999999998 0.0 0.21837911 1.0168418 0.0 0.24784298 1.8796787 0.0 0.17825638 1.8399054 0.0 0.15798473 1.7977450000000001 0.0 0.19152315 1.7588186999999997 0.0 0.21860847 1.7240022000000002 0.0 0.23157413 1.6934087 0.0 0.26082119 2.2800702999999998 0.0 0.16041456 2.2812514 0.0 0.12782647 2.2799462999999998 0.0 0.16510251 2.2799175 0.0 0.21188971 2.2827251 0.0 0.23639557 2.2867203 0.0 0.26977181 2.4191477000000003 0.0 0.15952782 2.4658048 0.0 0.089876637 2.5176196 0.0 0.13200814 2.5711331000000004 0.0 0.18097214 2.6232395 0.0 0.2219467 2.6704209 0.0 0.26793516 2.3607044 0.0 0.18969859 2.4413531 0.0 0.056429643 2.5335715 0.0 0.1178017 2.6294742 0.0 0.16469495 2.722168 0.0 0.21709472 2.8056355 0.0 0.26959562 2.2288148 0.0 0.22834051 2.3285868 0.0 0.052224938 2.4422327999999998 0.0 0.13756895 2.5605521 0.0 0.16782056 2.6748617 0.0 0.22248596 2.7777102000000005 0.0 0.27698651 2.1288586 0.0 0.25138071 2.2345695 0.0 0.05924838 2.3530067999999997 0.0 0.15791844 2.4753554 0.0 0.1845706 2.5925646 0.0 0.23516701 2.6967442000000004 0.0 0.28816679 2.1026808999999997 0.0 0.25718182 2.2045012 0.0 0.064371198 2.3164091 0.0 0.16457565 2.4302113 0.0 0.20349933 2.5369561000000003 0.0 0.24979383 2.6288142000000003 0.0 0.29849985 2.1261587000000004 0.0 0.24592999 2.2177272 0.0 0.060842492000000005 2.3166325 0.0 0.15661816 2.4149137 0.0 0.2096812 2.5037152999999996 0.0 0.2575818 2.5755186 0.0 0.30416414 2.139185 0.0 0.22229351 2.2164207 0.0 0.052439857 2.2983301 0.0 0.14485049 2.3770511 0.0 0.20481737 2.4440513 0.0 0.25613168 2.4925122 0.0 0.30404028 2.0873284 0.0 0.19852152 2.146471 0.0 0.04874815 2.2072463 0.0 0.13464957 2.2623045 0.0 0.19499385 2.3042133 0.0 0.24890944 2.3275445 0.0 0.29959255 1.9517083 0.0 0.18505719 1.9877553 0.0 0.058358982000000004 2.0217285 0.0 0.12801576 2.0475211 0.0 0.18440543 2.0596857 0.0 0.24014443 2.0553217 0.0 0.29330537 1.7510424 0.0 0.17500786 1.7586191999999998 0.0 0.074094854 1.7597308 0.0 0.1264776 1.7502351999999999 0.0 0.17642887 1.7276669999999998 0.0 0.23127528 1.6930881999999998 0.0 0.28710771 1.5224538 0.0 0.16212898 1.4979988000000002 0.0 0.094666623 1.4624068000000001 0.0 0.13207267 1.4142941999999998 0.0 0.16856998 1.3557471 0.0 0.22571449 1.2920771999999998 0.0 0.28232077 1.3000923 0.0 0.14903881 1.2438675 0.0 0.11612277 1.1721662 0.0 0.13720122 1.0876278999999998 0.0 0.167669 0.99741238 0.0 0.22533111 0.90981585 0.0 0.27830768 1.1002111 0.0 0.13819842 1.0179435 0.0 0.12538664 0.9168644 0.0 0.13667709 0.80400938 0.0 0.17456974 0.69092792 0.0 0.22539984 0.58811474 0.0 0.27284259 0.92187363 0.0 0.12705764 0.82442909 0.0 0.1235251 0.70523661 0.0 0.13611194 0.5750829 0.0 0.1797035 0.45107934 0.0 0.22092669 0.34351006 0.0 0.26386994 0.75810939 0.0 0.11881287 0.65830833 0.0 0.10758819 0.53048223 0.0 0.14064448 0.39504269 0.0 0.17898147 0.27257815 0.0 0.21276559 0.17047973 0.0 0.25119191 0.61339343 0.0 0.1075566 0.51516908 0.0 0.097312935 0.37965956 0.0 0.14355619 0.25032693 0.0 0.17430513 0.1403771 0.0 0.20281991 0.05213071 0.0 0.23525582 0.51189983 0.0 0.088753678 0.3815372 0.0 0.10825851 0.24515559 0.0 0.14059103 0.12966831 0.0 0.16941772 0.039675284 0.0 0.19355948 -0.02953542 0.0 0.21827959 0.40064678 0.0 0.082751185 0.26040915 0.0 0.10843705 0.12437437 0.0 0.13088083 0.027645279 0.0 0.16206162 -0.039566759 0.0 0.18555741 -0.088211253 0.0 0.20192578 0.1584958 0.0 0.11038408 0.024239777 0.0 0.12268104 -0.05529179099999999 0.0 0.14918567 -0.10194995 0.0 0.17578197 -0.13186955 0.0 0.18760985 0.084313825 0.0 0.10964947 -0.040476374 0.0 0.11805586 -0.11486108 0.0 0.13145041 -0.14834291 0.0 0.16205721 -0.1646172 0.0 0.17472823 -0.060436795999999994 0.0 0.11602269 -0.14402989 0.0 0.11599404 -0.17799322 0.0 0.14140746 -0.18794571 0.0 0.16221313 -0.052707259000000006 0.0 0.11318375 -0.13397177 0.0 0.10789721 -0.1865992 0.0 0.11624067 -0.20015952 0.0 0.1463993 -0.092586584 0.0 0.1141785 -0.16183004 0.0 0.1042944 -0.19334652 0.0 0.12768956 -0.10707714 0.0 0.11151493 -0.15074326 0.0 0.12014963 -0.11695412 0.0 0.11128127 -0.090395227 0.0 0.12871911 -0.11143763 0.0 0.0039814841 -0.11528708 0.0 0.0040384219 -0.117782 0.0 0.0038256038 -0.11928338 0.0 0.0034926105 -0.12009194 0.0 0.0031242422 -0.1204524 0.0 0.0027724509000000004 -0.12055372 0.0 0.0024714659 -0.12053376 0.0 0.0022430166000000002 -0.12048607 0.0 0.0021007974 -0.12973545 0.0 0.0051010628 -0.13386095 0.0 0.005191586 -0.13648067 0.0 0.0049493201 -0.13800882 0.0 0.0045551695 -0.13878645 0.0 0.00410769 -0.13908979 0.0 0.0036740617 -0.13912912 0.0 0.0033000458 -0.13905668 0.0 0.0030150055 -0.13897415 0.0 0.0028372032 -0.14386739 0.0 0.005900885 -0.14795491 0.0 0.0060292272999999995 -0.15046921 0.0 0.0057945289 -0.15186404 0.0 0.0053878073 -0.15250666 0.0 0.0049087512 -0.15268929 0.0 0.0044348612 -0.15263079 0.0 0.0040214201 -0.15248686 0.0 0.0037044740999999997 -0.15236121 0.0 0.0035061790000000003 -0.15616757 0.0 0.0062816109999999994 -0.16000473 0.0 0.006447201600000001 -0.16225439 0.0 0.0062635802 -0.16340435 0.0 0.0059030084 -0.16383986 0.0 0.005451718299999999 -0.16385815 0.0 0.0049906215 -0.1636768 0.0 0.0045810137 -0.16344851 0.0 0.0042639151 -0.16327369 0.0 0.0040645240999999995 -0.16881776 0.0 0.0062590986 -0.17228259 0.0 0.0064657526 -0.17417528 0.0 0.0063790096999999995 -0.17501782 0.0 0.0061245137 -0.17520618 0.0 0.0057625226 -0.17503548 0.0 0.005369060699999999 -0.17471687 0.0 0.0050076096999999995 -0.1743965 0.0 0.0047225193 -0.17416885 0.0 0.0045415214 -0.18334192 0.0 0.0059338417 -0.18636397 0.0 0.006205351600000001 -0.18785529 0.0 0.0062643909 -0.18836482 0.0 0.006175206999999999 -0.18829021 0.0 0.0059611523 -0.18792063 0.0 0.0056858546999999995 -0.18745881 0.0 0.005411894499999999 -0.18704237 0.0 0.0051865172999999995 -0.18675967 0.0 0.0050403168 -0.20041421 0.0 0.005471758100000001 -0.20293573 0.0 0.005854968 -0.20400672 0.0 0.006115139499999999 -0.2041796 0.0 0.0062509649 -0.20384322 0.0 0.0062387753 -0.20327665 0.0 0.0061246593999999994 -0.20267227 0.0 0.0059693041 -0.2021597 0.0 0.005824069499999999 -0.20182131 0.0 0.0057240911 -0.22000916 0.0 0.005129214799999999 -0.22195934 0.0 0.0056625837 -0.22259639 0.0 0.006179599599999999 -0.22244151 0.0 0.0065959836 -0.22185792 0.0 0.006831645999999999 -0.22110735 0.0 0.0069116987 -0.22036967 0.0 0.0068959873 -0.21976613 0.0 0.00684286 -0.2193746 0.0 0.0067948364 -0.24188776 0.0 0.0052954326 -0.24313976 0.0 0.0059633804 -0.24333154 0.0 0.0067588463 -0.24286857 0.0 0.0074880836 -0.24206711 0.0 0.0079993512 -0.24115896 0.0 0.0082913702 -0.24030763 0.0 0.0084239813 -0.23962577 0.0 0.0084658014 -0.23918788 0.0 0.008469895500000001 -0.26599884 0.0 0.0064906571 -0.2664299 0.0 0.0071932281999999995 -0.26617891 0.0 0.008210427099999999 -0.26544335 0.0 0.0092300912 -0.26446825 0.0 0.010008417 -0.26344323 0.0 0.010505869 -0.26250914 0.0 0.010779479 -0.26176971 0.0 0.010909043 -0.26129732 0.0 0.01096005 -0.29230657 0.0 0.0092823124 -0.29190013 0.0 0.0098308856 -0.29123327 0.0 0.010915783 -0.29027748 0.0 0.012125847 -0.28918627 0.0 0.013109968 -0.28809512 0.0 0.013773513999999999 -0.28711873 0.0 0.0141617 -0.28635028 0.0 0.014361481 -0.28585979 0.0 0.014449328 -0.32065222 0.0 0.014113533000000001 -0.31954458 0.0 0.014263131 -0.31853336 0.0 0.015192566000000001 -0.3174305 0.0 0.016424533 -0.3162913 0.0 0.017501578 -0.31519368 0.0 0.018259937 -0.31422225 0.0 0.018719235 -0.31345895 0.0 0.018963821000000002 -0.3129718 0.0 0.01907531 -0.35086095 0.0 0.021093162000000002 -0.34931469 0.0 0.020628365 -0.34809029 0.0 0.021184283999999998 -0.34694228 0.0 0.022249866 -0.34583858 0.0 0.023283103 -0.34480199 0.0 0.024048962000000004 -0.34389076 0.0 0.024528627999999997 -0.34317479 0.0 0.024790971000000002 -0.34271657 0.0 0.024913365 -0.38278702 0.0 0.029863805 -0.38113245 0.0 0.028719649 -0.37989548 0.0 0.028783878 -0.37884226 0.0 0.029546352 -0.37787643 0.0 0.030422296 -0.37698299 0.0 0.031120695 -0.37619755 0.0 0.031579193 -0.3755779 0.0 0.031840123 -0.37518036 0.0 0.031966458999999996 -0.41630751 0.0 0.039682761000000004 -0.41491154 0.0 0.03801772 -0.41392666 0.0 0.037635945 -0.41314399 0.0 0.038070407 -0.4124434 0.0 0.038745318 -0.41179228 0.0 0.039344039 -0.41121221 0.0 0.039767686000000003 -0.41075021 0.0 0.040026783999999996 -0.41045156 0.0 0.040161021 -0.45134711 0.0 0.049697235 -0.45060158 0.0 0.047848914000000006 -0.45016083 0.0 0.047225956 -0.44984823 0.0 0.047434609 -0.4495607 0.0 0.047958127999999996 -0.44926956 0.0 0.048488729 -0.44899127 0.0 0.048905807999999995 -0.44875848 0.0 0.049188942 -0.44860357 0.0 0.049349844000000004 -0.4879379 0.0 0.05923716 -0.48821336 0.0 0.05759405 -0.48858532 0.0 0.057020202 -0.48894125 0.0 0.057197411 -0.489225 0.0 0.057700194 -0.48942637 0.0 0.05825603 -0.48955753 0.0 0.058737292999999996 -0.48963559 0.0 0.059096790999999996 -0.48967549 0.0 0.059317670999999995 -0.52625579 0.0 0.067946933 -0.52780479 0.0 0.06683892 -0.52919251 0.0 0.066594213 -0.53039062 0.0 0.066960894 -0.53140086 0.0 0.067611955 -0.53223097 0.0 0.068321303 -0.5328843 0.0 0.068962537 -0.5333572 0.0 0.06946636 -0.53364432 0.0 0.069788292 -0.56650013 0.0 0.075792439 -0.56943589 0.0 0.07541123799999999 -0.57196289 0.0 0.075692445 -0.57413602 0.0 0.076431938 -0.57600635 0.0 0.07738623 -0.57758802 0.0 0.078371935 -0.57886845 0.0 0.079266183 -0.57981628 0.0 0.079980165 -0.58040035 0.0 0.080442473 -0.60879916 0.0 0.08293426 -0.61312258 0.0 0.083322212 -0.61683917 0.0 0.084214851 -0.62007022 0.0 0.085431576 -0.62289482 0.0 0.08678790900000001 -0.625323 0.0 0.088132709 -0.62731332 0.0 0.089345306 -0.62879992 0.0 0.09031713 -0.62972134 0.0 0.09094984800000001 -0.65316474 0.0 0.089570336 -0.65880734 0.0 0.09066052 -0.66370559 0.0 0.092152491 -0.6680218 0.0 0.093866907 -0.67184687 0.0 0.09565413 -0.67517126 0.0 0.097385481 -0.6779176 0.0 0.098940313 -0.67998117 0.0 0.10019037 -0.6812638 0.0 0.10100722 -0.69947535 0.0 0.095813088 -0.70632082 0.0 0.097491607 -0.71234345 0.0 0.099520884 -0.7177195 0.0 0.10170034 -0.72253537 0.0 0.10389479 -0.72675431 0.0 0.10599071 -0.73026049 0.0 0.10786945 -0.7329064 0.0 0.10938522 -0.73455584 0.0 0.11037952 -0.74736786 0.0 0.10162944 -0.75525796 0.0 0.10380383 -0.76230621 0.0 0.10632538 -0.76867419 0.0 0.10894031 -0.77442467 0.0 0.11150319 -0.77949238 0.0 0.11391249 -0.78372025 0.0 0.11606053 -0.78691936 0.0 0.11779469 -0.78891772 0.0 0.11893504 -0.79591346 0.0 0.10685978 -0.80465186 0.0 0.10952435 -0.81260574 0.0 0.11257846 -0.81987721 0.0 0.11566026 -0.82648563 0.0 0.11857818 -0.83232504 0.0 0.12124125 -0.8372044 0.0 0.12357362 -0.8409 0.0 0.1254425 -0.84321004 0.0 0.1266696 -0.84304678 0.0 0.11131798 -0.85241103 0.0 0.11459865 -0.86115009 0.0 0.11835738 -0.86924577 0.0 0.12203545 -0.87663502 0.0 0.12534225 -0.88316256 0.0 0.12819991 -0.88860464 0.0 0.13060105 -0.89271778 0.0 0.13248028 -0.89528537 0.0 0.13370167 -0.88490057 0.0 0.11497162 -0.89466071 0.0 0.11911424 -0.90407676 0.0 0.1238691 -0.91293514 0.0 0.12836017 -0.92104131 0.0 0.13212848 -0.92817116 0.0 0.1351133 -0.93407744 0.0 0.13742869 -0.93851602 0.0 0.13914537 -0.94127417 0.0 0.14023001 -0.91538954 0.0 0.11819495 -0.92534423 0.0 0.12345127 -0.93533403 0.0 0.12950118 -0.94488907 0.0 0.13502476 -0.9536407 0.0 0.13931279 -0.96127731 0.0 0.14232092 -0.96753538 0.0 0.14434499 -0.97218889 0.0 0.14567381 -0.9750607 0.0 0.14645135 -0.92629331 0.0 0.12206107 -0.93635714 0.0 0.12847042 -0.94684392 0.0 0.13588651 -0.95701838 0.0 0.14248022 -0.96631759 0.0 0.14722128 -0.97434235 0.0 0.15006177 -0.98082066 0.0 0.1515234 -0.985569 0.0 0.15218933 -0.98846734 0.0 0.15245849 -0.90771228 0.0 0.12849569 -0.91811419 0.0 0.13568647 -0.92919677 0.0 0.14403561 -0.9399972 0.0 0.15129192 -0.94979769 0.0 0.15612236 -0.95813197 0.0 0.15843788 -0.96473861 0.0 0.15898357 -0.96949637 0.0 0.15867434 -0.97235984 0.0 0.15821794 -0.84739041 0.0 0.1399294 -0.8590064 0.0 0.14719875 -0.87125933 0.0 0.15548831 -0.88307965 0.0 0.16239515 -0.89364666 0.0 0.16649088 -0.90247136 0.0 0.16767362 -0.90932447 0.0 0.16685416 -0.91416007 0.0 0.16524711 -0.91702437 0.0 0.16386604 -0.7254262 0.0 0.15828004 -0.74024314 0.0 0.16508202 -0.75496179 0.0 0.17217733 -0.76878732 0.0 0.17738287 -0.78092265 0.0 0.17954963 -0.79088247 0.0 0.17875917 -0.79848522 0.0 0.17606004 -0.80376005 0.0 0.17286813 -0.80684066 0.0 0.17042218 -0.50905639 0.0 0.18392318 -0.52998 0.0 0.1905168 -0.54906738 0.0 0.19581769 -0.5662939 0.0 0.19824636 -0.58117133 0.0 0.19736667 -0.59328187 0.0 0.19377786 -0.60247511 0.0 0.18875484 -0.6088264 0.0 0.18381433 -0.61251968 0.0 0.18027772 -0.16083255 0.0 0.21509136 -0.18987629 0.0 0.22302672 -0.21479312 0.0 0.22706634 -0.23649374 0.0 0.22655073 -0.25503296 0.0 0.22215083 -0.27015823 0.0 0.21536417 -0.28172916 0.0 0.20788667 -0.28979459 0.0 0.20129359 -0.29452038 0.0 0.19682932 0.34044871 0.0 0.24784359 0.30483624 0.0 0.26002434 0.27502832 0.0 0.26473206 0.2494991 0.0 0.2623516 0.22769894 0.0 0.2549721 0.20972335 0.0 0.2453492 0.19574903 0.0 0.23583762 0.18584436 0.0 0.22808623 0.17996229 0.0 0.2231096 0.97507966 0.0 0.2770927 0.93979937 0.0 0.29698417 0.91009849 0.0 0.30529779 0.88448334 0.0 0.30317307 0.86229473 0.0 0.29432943 0.84360814 0.0 0.283041 0.82873642 0.0 0.27251902 0.81796455 0.0 0.26451391 0.81146193 0.0 0.259675 1.6666055 0.0 0.29876852 1.6430930000000001 0.0 0.32858303 1.6223431000000001 0.0 0.34321967 1.6035663 0.0 0.34365979 1.5865436000000002 0.0 0.33526501 1.5715522 0.0 0.3238925 1.5591331 0.0 0.31368881 1.5498408000000001 0.0 0.30651438 1.5441033000000002 0.0 0.30255157 2.2894132000000003 0.0 0.312502 2.2898257 0.0 0.35089716 2.2881007 0.0 0.37254027 2.2845895 0.0 0.3767474 2.2797427000000003 0.0 0.37015319 2.2742174 0.0 0.35997257 2.2688088 0.0 0.35117131 2.2643167999999996 0.0 0.34566659 2.2613616000000003 0.0 0.34312499 2.7097254 0.0 0.31897849 2.7401285 0.0 0.36367774 2.7628138 0.0 0.38967073 2.7794921 0.0 0.39655375 2.791373 0.0 0.39166662 2.7993824000000003 0.0 0.38303277 2.804409 0.0 0.37601569 2.8072798 0.0 0.37240878 2.8086927000000004 0.0 0.37137011 2.8758557000000002 0.0 0.32423332 2.9319396 0.0 0.36976203 2.9759867 0.0 0.39590365 3.0110044 0.0 0.40291989 3.0389283 0.0 0.39834058 3.0607164 0.0 0.39045426 3.0769333999999997 0.0 0.38462073 3.088048 0.0 0.38235453 3.0944972 0.0 0.38237673 2.8643737000000002 0.0 0.33102509 2.9341652000000003 0.0 0.37338397 2.9900546 0.0 0.39650226 3.036119 0.0 0.40123841 3.0747361 0.0 0.39513254 3.1066189 0.0 0.38649458 3.1316778999999997 0.0 0.38053459 3.1496785 0.0 0.37848061 3.160491 0.0 0.37875703 2.7832015 0.0 0.33933821 2.8520044999999996 0.0 0.37756485 2.9073272 0.0 0.39666522 2.9541787999999998 0.0 0.3979215 2.995189 0.0 0.38894603 3.0306771 0.0 0.37811378 3.0597825000000003 0.0 0.37059823 3.0814098999999997 0.0 0.36749512 3.0947051 0.0 0.36713767 2.7017233 0.0 0.34741518 2.7571727999999998 0.0 0.38301411 2.8008425 0.0 0.39913291 2.8386421000000004 0.0 0.39722201 2.8734295 0.0 0.38508049 2.9052267000000005 0.0 0.37131041 2.9325535 0.0 0.36129057 2.9535758 0.0 0.35622904 2.9667977999999997 0.0 0.35459232 2.6272919 0.0 0.35297215 2.6621246 0.0 0.38852099 2.6871562 0.0 0.40377581 2.7090509 0.0 0.40009668 2.7309551 0.0 0.38551664 2.7528791 0.0 0.3690038 2.7731022999999997 0.0 0.35634509 2.7894282 0.0 0.34908578 2.8000032999999998 0.0 0.34598669 2.5205648 0.0 0.35461462 2.5326009 0.0 0.39223734 2.5366137 0.0 0.40860999 2.5396522999999998 0.0 0.40481633 2.5451467 0.0 0.3890802 2.5533633 0.0 0.37075767 2.5627855999999998 0.0 0.35611838 2.5713567999999998 0.0 0.34714085 2.5772741000000003 0.0 0.34289256 2.3317039 0.0 0.35250694 2.3217998 0.0 0.39292005 2.3058004 0.0 0.41135553 2.2904487000000002 0.0 0.40858012 2.27916 0.0 0.39292577 2.2725433999999995 0.0 0.3740404 2.2696264 0.0 0.35858342 2.2689245 0.0 0.34886521 2.269089 0.0 0.34413058 2.0356002 0.0 0.3479656 2.0057895 0.0 0.39045408 1.9727497999999999 0.0 0.41066366 1.9419178 0.0 0.4092007 1.916121 0.0 0.39444971 1.8961276999999999 0.0 0.37616783 1.8816166 0.0 0.36115441 1.8719037 0.0 0.35180324 1.8663558999999998 0.0 0.34733847 1.6501157 0.0 0.34246877 1.6035268999999999 0.0 0.38557285 1.5579351000000001 0.0 0.40651059 1.5164845 0.0 0.40604052 1.480733 0.0 0.3925575 1.4512444 0.0 0.3757 1.4281715 0.0 0.36210781 1.4115983 0.0 0.35399812 1.4016079 0.0 0.35039219 1.2287036 0.0 0.33686554 1.1697097 0.0 0.37913564 1.1169624 0.0 0.39972278 1.0707064 0.0 0.39977443 1.0307496999999999 0.0 0.38763231 0.99704695 0.0 0.37260121 0.96990478 0.0 0.36093372 0.94989008 0.0 0.35449395 0.93759972 0.0 0.35201612 0.83151215 0.0 0.33080378 0.76550841 0.0 0.37133133 0.71094263 0.0 0.39103231 0.66522473 0.0 0.39142302 0.62631744 0.0 0.38067123 0.59335285 0.0 0.36758929 0.56648177 0.0 0.35792494 0.54642969 0.0 0.35314831 0.5340094 0.0 0.35174403 0.50210416 0.0 0.32278344 0.43448579 0.0 0.36140519 0.38223377 0.0 0.38042766 0.34053704 0.0 0.38149884 0.3058883 0.0 0.37240484 0.2766912 0.0 0.36134443 0.25282234 0.0 0.35353976 0.23493208 0.0 0.3501417 0.22381391 0.0 0.34954038 0.25721318 0.0 0.31095061 0.1922777 0.0 0.34801775 0.1445051 0.0 0.3671194 0.10788654 0.0 0.36969563 0.078165159 0.0 0.36285114 0.053394984000000006 0.0 0.35403559 0.033258553999999996 0.0 0.34795627 0.01821724 0.0 0.34558761 0.008887129799999999 0.0 0.34545159 0.09056922 0.0 0.29432857 0.031234231 0.0 0.32990453 -0.011801137 0.0 0.34996951 -0.044296619 0.0 0.35510221 -0.070387468 0.0 0.35136414 -0.091864981 0.0 0.34526461 -0.10907201 0.0 0.3409667 -0.12175867 0.0 0.33940557 -0.12955835 0.0 0.33946928 -0.016183119 0.0 0.27310729 -0.068061687 0.0 0.3065491 -0.10723938 0.0 0.32803535 -0.13766161 0.0 0.33666122 -0.1623707 0.0 0.33696461 -0.18255816 0.0 0.33425909 -0.19841927 0.0 0.3320578 -0.20987378 0.0 0.3313486 -0.21680598 0.0 0.33154699 -0.082964204 0.0 0.2488617 -0.12617756 0.0 0.27872819 -0.16246583 0.0 0.30118829 -0.19294716 0.0 0.31374639 -0.21847616 0.0 0.31878993 -0.23935676 0.0 0.32013455 -0.2555123 0.0 0.32051921 -0.2669453 0.0 0.3210029 -0.27374679 0.0 0.32153919 -0.12548539 0.0 0.22408164 -0.15901883 0.0 0.24864183 -0.19227915 0.0 0.27057615 -0.22396544 0.0 0.28658995 -0.25177953 0.0 0.2964834 -0.27476928 0.0 0.30222988 -0.29247883 0.0 0.3056711 -0.30486286 0.0 0.30783427 -0.31213781 0.0 0.30908826 -0.15385729 0.0 0.20125063 -0.17687845 0.0 0.21933335 -0.20545071 0.0 0.23873907 -0.2373707 0.0 0.25646725 -0.26777482 0.0 0.27041912 -0.29353109 0.0 0.28035071 -0.31352881 0.0 0.2870461 -0.32750788 0.0 0.29129082 -0.3356815 0.0 0.29363763 -0.17450675 0.0 0.18211502 -0.18697661 0.0 0.19378668 -0.20819098 0.0 0.20906356 -0.23706424 0.0 0.2258967 -0.26820448 0.0 0.24185333 -0.29638016 0.0 0.25494045 -0.31880978 0.0 0.264548 -0.33467707 0.0 0.27093786 -0.34400803 0.0 0.27456278 -0.19135173 0.0 0.16735137 -0.19521342 0.0 0.17387533 -0.20709841 0.0 0.18449683 -0.22872229 0.0 0.19820806 -0.25633311 0.0 0.21322098 -0.28428727 0.0 0.22726767 -0.30818161 0.0 0.2386256 -0.32569563 0.0 0.2466677 -0.33616695 0.0 0.25140628 -0.20519716 0.0 0.15598696 -0.2055742 0.0 0.15987055 -0.20870908 0.0 0.1663985 -0.22023447 0.0 0.17592864 -0.23958857 0.0 0.18761571 -0.26262072 0.0 0.19975093 -0.28454551 0.0 0.21060108 -0.30196297 0.0 0.21896021 -0.31289572 0.0 0.22416198 -0.21107833 0.0 0.14487609 -0.2173395 0.0 0.15030351 -0.21709605 0.0 0.15411381 -0.21894599 0.0 0.15970963 -0.22708873 0.0 0.16688508 -0.24060036 0.0 0.17497794 -0.25607011 0.0 0.18277641 -0.26992223 0.0 0.18933125 -0.27936018 0.0 0.19370273 -0.19599406 0.0 0.13291745 -0.21997668 0.0 0.14312825 -0.22883958 0.0 0.14606829 -0.22761689 0.0 0.14805967 -0.22540341 0.0 0.15086974 -0.22724709 0.0 0.15388523 -0.23267713 0.0 0.15710936 -0.23963968 0.0 0.16001023 -0.24527618 0.0 0.16210951 -0.14984755 0.0 0.12774077 -0.19745842 0.0 0.13439919 -0.22412252 0.0 0.1411479 -0.23686211 0.0 0.13983029 -0.23383941 0.0 0.13792862 -0.2267538 0.0 0.13598473 -0.22161995 0.0 0.13415052 -0.21992756 0.0 0.13275014 -0.22017498 0.0 0.13183531 -0.11446877 0.0 0.13018869 -0.15391168 0.0 0.12700078 -0.18948503 0.0 0.13349818 -0.22221303 0.0 0.13280259 -0.23318398 0.0 0.12824486 -0.23125111 0.0 0.12070394 -0.22174871 0.0 0.11388534 -0.21349488 0.0 0.10830413 -0.20882797 0.0 0.10458728 -0.15539649 0.0 0.1202758 -0.1598524 0.0 0.12119233 -0.19286889 0.0 0.11771531 -0.21066968 0.0 0.1159575 -0.22277108 0.0 0.10633563 -0.21812685 0.0 0.096228585 -0.21087521 0.0 0.087083824 -0.20513995 0.0 0.081027687 -0.20371069 0.0 0.098389141 -0.20469765 0.0 0.09559112800000001 -0.21863919 0.0 0.08576376 -0.21649043 0.0 0.076733485 -0.21275325 0.0 0.06743156900000001 -0.20794412 0.0 0.061016072000000005 -0.26063415 0.0 0.063396432 -0.25014156 0.0 0.054986529000000006 -0.23874667 0.0 0.049544110999999995 -0.23073912 0.0 0.044518389000000005 -0.12046427 0.0 0.0020525539000000002 -0.12048608 0.0 0.0021007976 -0.12053379 0.0 0.002243018 -0.1205537 0.0 0.0024714672 -0.1204524 0.0 0.0027724528 -0.12009195 0.0 0.0031242433 -0.11928336 0.0 0.0034926119 -0.11778201 0.0 0.0038256054 -0.13894033 0.0 0.0027768319 -0.13897419 0.0 0.0028372047999999997 -0.13905668 0.0 0.0030150064000000003 -0.13912915 0.0 0.0033000486 -0.13908978 0.0 0.0036740629 -0.13878649 0.0 0.0041076913 -0.13800886 0.0 0.0045551714 -0.13648064 0.0 0.0049493196 -0.15231293 0.0 0.0034387594 -0.15236118 0.0 0.0035061810999999997 -0.15248685 0.0 0.0037044764 -0.15263079 0.0 0.0040214210999999995 -0.15268934 0.0 0.0044348631 -0.15250665 0.0 0.0049087512 -0.15186408 0.0 0.0053878077 -0.15046927 0.0 0.005794527 -0.16320933 0.0 0.0039965902000000005 -0.16327375 0.0 0.0040645259 -0.16344847 0.0 0.0042639174 -0.16367677 0.0 0.0045810151 -0.16385815 0.0 0.0049906243 -0.16383997 0.0 0.0054517188 -0.16340442 0.0 0.0059030061 -0.16225439 0.0 0.0062635778000000005 -0.17408726 0.0 0.0044796155 -0.17416888 0.0 0.0045415233 -0.1743965 0.0 0.0047225216 -0.17471693 0.0 0.0050076135 -0.17503546 0.0 0.005369063 -0.17520618 0.0 0.005762520699999999 -0.17501783 0.0 0.006124515600000001 -0.17417528 0.0 0.0063790078 -0.18666008 0.0 0.0049898662 -0.18675967 0.0 0.005040315 -0.18704247 0.0 0.0051865182 -0.18745886 0.0 0.0054118996 -0.18792057 0.0 0.005685858 -0.18829024 0.0 0.0059611541 -0.18836483 0.0 0.0061752045999999994 -0.1878553 0.0 0.0062643904 -0.20170365 0.0 0.005688758100000001 -0.20182137 0.0 0.0057240897 -0.20215967 0.0 0.0058240728 -0.20267238 0.0 0.0059693069 -0.20327666 0.0 0.006124664100000001 -0.20384321 0.0 0.0062387735 -0.20417961 0.0 0.0062509677 -0.20400684 0.0 0.0061151376 -0.21923934 0.0 0.006776268100000001 -0.21937454 0.0 0.0067948396 -0.21976598 0.0 0.0068428591 -0.2203697 0.0 0.0068959929 -0.22110739 0.0 0.0069117039 -0.22185796 0.0 0.0068316455000000005 -0.22244152 0.0 0.0065959827 -0.22259647 0.0 0.0061795986 -0.23903719 0.0 0.0084678531 -0.23918791 0.0 0.0084698964 -0.23962575 0.0 0.0084658042 -0.24030767 0.0 0.008423985 -0.24115889 0.0 0.0082913712 -0.24206719 0.0 0.007999354 -0.24286859 0.0 0.0074880808 -0.24333166 0.0 0.0067588449 -0.26113501 0.0 0.010972657 -0.2612974 0.0 0.010960055 -0.26176971 0.0 0.010909047 -0.2625092 0.0 0.010779488 -0.26344311 0.0 0.010505875 -0.26446837 0.0 0.010008416 -0.2654433 0.0 0.0092300884 -0.26617885 0.0 0.0082104281 -0.28569117 0.0 0.014473265 -0.28585973 0.0 0.014449331999999999 -0.28635025 0.0 0.014361479 -0.28711864 0.0 0.014161709 -0.28809512 0.0 0.013773515 -0.28918633 0.0 0.013109966 -0.29027751 0.0 0.012125841000000002 -0.29123306 0.0 0.010915781999999999 -0.31280425 0.0 0.019106493999999998 -0.31297186 0.0 0.019075306 -0.31345922 0.0 0.018963825 -0.31422225 0.0 0.01871923 -0.31519371 0.0 0.018259935 -0.31629148 0.0 0.017501578 -0.31743041 0.0 0.016424539 -0.31853333 0.0 0.015192565 -0.34255862 0.0 0.024948167 -0.34271663 0.0 0.024913357999999997 -0.34317464 0.0 0.024790958999999998 -0.34389076 0.0 0.02452863 -0.34480205 0.0 0.024048943 -0.34583846 0.0 0.023283085 -0.34694242 0.0 0.022249866 -0.3480905 0.0 0.021184288 -0.37504312 0.0 0.032003324 -0.3751803 0.0 0.031966455 -0.37557799 0.0 0.031840131 -0.3761977 0.0 0.031579193 -0.37698296 0.0 0.031120697000000003 -0.3778764 0.0 0.030422276 -0.37884209 0.0 0.029546343 -0.37989557 0.0 0.028783875 -0.41034818 0.0 0.040201999 -0.41045159 0.0 0.040161014 -0.41075027 0.0 0.040026773 -0.41121241 0.0 0.039767679 -0.4117921 0.0 0.039344039 -0.41244361 0.0 0.038745336 -0.41314399 0.0 0.038070407 -0.41392663 0.0 0.037635952 -0.44854957 0.0 0.049401868 -0.44860363 0.0 0.049349852 -0.44875842 0.0 0.049188922999999996 -0.4489913 0.0 0.048905823 -0.44926962 0.0 0.048488718 -0.44956067 0.0 0.047958139000000004 -0.44984812 0.0 0.047434617000000005 -0.45016101 0.0 0.047225937 -0.48968747 0.0 0.059392203 -0.48967555 0.0 0.059317670999999995 -0.4896355 0.0 0.059096820999999994 -0.48955762 0.0 0.058737237000000005 -0.48942652 0.0 0.058256023 -0.48922491 0.0 0.057700198 -0.48894125 0.0 0.057197422000000005 -0.48858532 0.0 0.057020228 -0.53374076 0.0 0.069899179 -0.53364444 0.0 0.069788292 -0.53335732 0.0 0.069466352 -0.53288436 0.0 0.068962522 -0.53223127 0.0 0.06832128 -0.53140092 0.0 0.067611918 -0.53039086 0.0 0.066960827 -0.52919257 0.0 0.066594236 -0.58059758 0.0 0.080602907 -0.58040017 0.0 0.080442481 -0.57981646 0.0 0.07998012 -0.57886851 0.0 0.07926622 -0.57758784 0.0 0.078371905 -0.5760057 0.0 0.07738626700000001 -0.57413602 0.0 0.07643193 -0.57196295 0.0 0.075692497 -0.63003302 0.0 0.091169856 -0.62972099 0.0 0.090949796 -0.62880015 0.0 0.090317093 -0.62731332 0.0 0.089345291 -0.62532318 0.0 0.088132672 -0.6228947 0.0 0.08678791699999999 -0.6200698 0.0 0.085431479 -0.61683947 0.0 0.084214784 -0.68169934 0.0 0.10129204 -0.68126357 0.0 0.10100724 -0.67998111 0.0 0.10019041 -0.6779176 0.0 0.098940313 -0.67517138 0.0 0.09738542900000001 -0.67184663 0.0 0.095654167 -0.66802168 0.0 0.093866862 -0.66370559 0.0 0.09215255800000001 -0.7351163 0.0 0.11072687 -0.73455572 0.0 0.11037949 -0.73290652 0.0 0.10938521 -0.73026067 0.0 0.10786944 -0.72675449 0.0 0.10599065 -0.72253525 0.0 0.1038948 -0.71771926 0.0 0.1017004 -0.71234328 0.0 0.099520914 -0.78959757 0.0 0.11933419 -0.7889176 0.0 0.11893511 -0.78691918 0.0 0.11779467 -0.78372031 0.0 0.11606057 -0.77949226 0.0 0.11391247 -0.77442467 0.0 0.11150321 -0.76867419 0.0 0.10894022 -0.76230693 0.0 0.10632533 -0.84399551 0.0 0.12709908 -0.84320903 0.0 0.12666963 -0.84089988 0.0 0.12544253 -0.83720469 0.0 0.12357357 -0.83232528 0.0 0.12124126 -0.82648569 0.0 0.11857816 -0.81987715 0.0 0.11566023 -0.81260544 0.0 0.11257847 -0.89615828 0.0 0.13412784 -0.89528543 0.0 0.13370174 -0.89271814 0.0 0.13248028 -0.88860488 0.0 0.13060115 -0.88316202 0.0 0.12819993 -0.87663537 0.0 0.12534225 -0.86924559 0.0 0.1220354 -0.86115009 0.0 0.11835742 -0.94221073 0.0 0.14060426 -0.94127411 0.0 0.14023004 -0.93851584 0.0 0.13914534 -0.93407774 0.0 0.13742861 -0.9281711 0.0 0.13511327 -0.92104119 0.0 0.13212848 -0.91293484 0.0 0.12836018 -0.90407681 0.0 0.12386914 -0.9760316 0.0 0.14671108 -0.9750607 0.0 0.14645141 -0.97218913 0.0 0.14567377 -0.96753567 0.0 0.14434506 -0.96127731 0.0 0.14232095 -0.953641 0.0 0.13931277 -0.94488966 0.0 0.1350248 -0.93533361 0.0 0.12950118 -0.98944145 0.0 0.15252948 -0.98846698 0.0 0.15245846 -0.98556888 0.0 0.15218931 -0.98082048 0.0 0.15152341 -0.97434253 0.0 0.15006177 -0.96631801 0.0 0.1472213 -0.95701832 0.0 0.14248018 -0.94684374 0.0 0.13588649 -0.97331583 0.0 0.15802279 -0.97236037 0.0 0.15821803 -0.96949637 0.0 0.15867423 -0.96473867 0.0 0.15898347 -0.95813149 0.0 0.15843786 -0.94979739 0.0 0.15612236 -0.93999749 0.0 0.15129183 -0.92919683 0.0 0.14403555 -0.91797155 0.0 0.16333655 -0.91702414 0.0 0.163866 -0.91415989 0.0 0.1652471 -0.90932405 0.0 0.16685431 -0.9024713 0.0 0.16767365 -0.89364648 0.0 0.16649079 -0.88307959 0.0 0.16239507 -0.87125915 0.0 0.1554883 -0.80785054 0.0 0.16951677 -0.80683982 0.0 0.17042214 -0.80376089 0.0 0.17286801 -0.7984851 0.0 0.17605996 -0.79088217 0.0 0.17875916 -0.78092253 0.0 0.1795496 -0.76878732 0.0 0.17738275 -0.75496227 0.0 0.17217743 -0.61372793 0.0 0.17900155 -0.61251926 0.0 0.18027773 -0.60882646 0.0 0.18381426 -0.60247511 0.0 0.1887549 -0.59328187 0.0 0.19377777 -0.58117169 0.0 0.19736665 -0.56629407 0.0 0.19824632 -0.54906696 0.0 0.19581766 -0.29607317 0.0 0.19525743 -0.29452062 0.0 0.19682944 -0.2897945 0.0 0.20129366 -0.28172913 0.0 0.20788655 -0.27015817 0.0 0.21536401 -0.25503296 0.0 0.22215074 -0.23649377 0.0 0.22655077 -0.21479315 0.0 0.22706628 0.17801517 0.0 0.22140461 0.17996217 0.0 0.2231096 0.18584427 0.0 0.22808623 0.19574913 0.0 0.23583753 0.20972323 0.0 0.24534917 0.22769879 0.0 0.25497189 0.24949892 0.0 0.26235145 0.27502817 0.0 0.26473179 0.80929142 0.0 0.25807562 0.81146216 0.0 0.25967488 0.81796461 0.0 0.26451385 0.82873654 0.0 0.27251908 0.84360814 0.0 0.28304085 0.86229444 0.0 0.2943292 0.8844831 0.0 0.30317283 0.91009885 0.0 0.30529767 1.5421664 0.0 0.30132204 1.5441034 0.0 0.30255172 1.5498412 0.0 0.30651414 1.5591319 0.0 0.31368861 1.5715528 0.0 0.32389227 1.5865436000000002 0.0 0.33526471 1.6035658000000002 0.0 0.34365961 1.6223428999999998 0.0 0.34321934 2.2603331 0.0 0.34245518 2.2613626 0.0 0.34312481 2.2643167999999996 0.0 0.34566662 2.2688115 0.0 0.35117102 2.2742164000000002 0.0 0.35997254 2.2797422000000003 0.0 0.37015295 2.2845886 0.0 0.37674716 2.2881007 0.0 0.37253997 2.8091102 0.0 0.37127486 2.8086922000000003 0.0 0.37136984 2.8072801 0.0 0.37240857 2.804409 0.0 0.37601587 2.7993824000000003 0.0 0.3830328 2.7913735 0.0 0.3916665 2.7794924 0.0 0.39655367 2.7628117000000003 0.0 0.38967064 3.0966055 0.0 0.38268441 3.0944972 0.0 0.38237676 3.0880475 0.0 0.38235447 3.0769351 0.0 0.38462055 3.0607168999999996 0.0 0.39045402 3.0389285 0.0 0.39834058 3.0110037 0.0 0.40291959 2.9759846000000003 0.0 0.39590347 3.1640924999999998 0.0 0.37917084 3.1604933999999996 0.0 0.37875724 3.1496797 0.0 0.37848055 3.1316778999999997 0.0 0.3805345 3.1066203 0.0 0.38649467 3.0747371 0.0 0.39513239 3.0361192000000004 0.0 0.40123817 2.9900541 0.0 0.39650208 3.0991888 0.0 0.36733696 3.0947063 0.0 0.36713785 3.0814077999999996 0.0 0.36749494 3.0597847000000002 0.0 0.37059811 3.0306773 0.0 0.37811372 2.9951887000000004 0.0 0.38894612 2.95418 0.0 0.39792156 2.9073281000000004 0.0 0.39666489 2.9713085 0.0 0.35434529 2.9668002 0.0 0.35459229 2.9535767999999996 0.0 0.35622883 2.9325531000000002 0.0 0.36129081 2.9052277 0.0 0.37131023 2.8734305 0.0 0.38508025 2.8386438 0.0 0.39722201 2.8008423 0.0 0.39913297 2.8036616000000003 0.0 0.34522635 2.8000054 0.0 0.34598669 2.7894289 0.0 0.34908554 2.773102 0.0 0.35634482 2.7528801 0.0 0.3690038 2.7309556 0.0 0.38551646 2.7090502 0.0 0.40009636 2.6871563999999997 0.0 0.40377572 2.5793769 0.0 0.3417286 2.5772734 0.0 0.34289241 2.5713565 0.0 0.34714055 2.5627861000000003 0.0 0.35611811 2.5533636000000004 0.0 0.37075749 2.5451486 0.0 0.38908032 2.5396521 0.0 0.40481618 2.536613 0.0 0.40860987 2.2692442 0.0 0.34279716 2.269088 0.0 0.34413016 2.2689252 0.0 0.34886515 2.2696278 0.0 0.35858312 2.272543 0.0 0.37404025 2.2791607000000003 0.0 0.39292532 2.2904484 0.0 0.40858024 2.3058014 0.0 0.41135561 1.8645531000000002 0.0 0.34610504 1.8663558999999998 0.0 0.34733835 1.8719043000000002 0.0 0.35180292 1.8816166 0.0 0.36115393 1.8961282 0.0 0.37616763 1.9161211 0.0 0.39444956 1.9419171000000002 0.0 0.40920067 1.9727483000000001 0.0 0.41066363 1.3982700000000001 0.0 0.34946615 1.4016076000000002 0.0 0.35039213 1.4115981000000002 0.0 0.35399756 1.4281719 0.0 0.36210772 1.4512441999999999 0.0 0.37569982 1.4807329 0.0 0.39255741 1.516484 0.0 0.40604046 1.5579351000000001 0.0 0.40651062 0.93345404 0.0 0.35148761 0.9376002 0.0 0.35201591 0.94989002 0.0 0.3544938 0.96990478 0.0 0.36093342 0.99704689 0.0 0.37260091 1.0307498 0.0 0.38763198 1.0707061000000002 0.0 0.39977452 1.1169603000000001 0.0 0.39972311 0.52980185 0.0 0.35158479 0.53400922 0.0 0.35174415 0.54642975 0.0 0.35314825 0.56648183 0.0 0.35792455 0.59335279 0.0 0.36758918 0.6263175 0.0 0.38067135 0.66522497 0.0 0.39142305 0.71094251 0.0 0.39103225 0.22004046 0.0 0.34963962 0.22381388 0.0 0.34954014 0.23493224 0.0 0.35014188 0.25282261 0.0 0.35353935 0.27669117 0.0 0.36134431 0.30588838 0.0 0.37240463 0.34053689 0.0 0.38149887 0.38223377 0.0 0.38042772 0.0057224752 0.0 0.34567365 0.0088871848 0.0 0.34545159 0.018217316 0.0 0.34558749 0.033258695 0.0 0.3479563 0.053395193 0.0 0.35403568 0.078165263 0.0 0.36285108 0.10788654 0.0 0.36969581 0.14450525 0.0 0.3671194 -0.13219205 0.0 0.33970043 -0.12955831 0.0 0.33946919 -0.12175865 0.0 0.33940548 -0.10907193 0.0 0.34096682 -0.091864876 0.0 0.34526458 -0.07038739299999999 0.0 0.35136384 -0.044296626 0.0 0.3551023 -0.011801154 0.0 0.34996948 -0.21912734 0.0 0.33174691 -0.21680589 0.0 0.33154699 -0.20987366 0.0 0.3313486 -0.19841918 0.0 0.33205777 -0.18255813 0.0 0.33425891 -0.16237064 0.0 0.33696449 -0.13766156 0.0 0.3366614 -0.10723942 0.0 0.32803538 -0.27600327 0.0 0.32177517 -0.27374673 0.0 0.3215391 -0.26694518 0.0 0.32100287 -0.25551236 0.0 0.32051921 -0.23935664 0.0 0.32013443 -0.21847616 0.0 0.31878981 -0.19294719 0.0 0.31374639 -0.1624659 0.0 0.3011882 -0.31453341 0.0 0.30950648 -0.31213772 0.0 0.30908811 -0.30486271 0.0 0.30783454 -0.29247886 0.0 0.30567113 -0.27476925 0.0 0.30222976 -0.25177956 0.0 0.29648343 -0.22396539 0.0 0.28658998 -0.19227915 0.0 0.2705763 -0.33836192 0.0 0.29439035 -0.33568162 0.0 0.2936376 -0.32750764 0.0 0.29129073 -0.31352887 0.0 0.2870459 -0.29353106 0.0 0.28035092 -0.26777479 0.0 0.27041924 -0.2373706 0.0 0.25646704 -0.20545068 0.0 0.23873927 -0.34707221 0.0 0.27573848 -0.34400791 0.0 0.2745629 -0.33467713 0.0 0.27093801 -0.31880948 0.0 0.26454797 -0.29638016 0.0 0.25494036 -0.26820457 0.0 0.24185348 -0.23706412 0.0 0.22589676 -0.20819092 0.0 0.20906362 -0.33963168 0.0 0.25296968 -0.33616695 0.0 0.2514064 -0.32569566 0.0 0.24666753 -0.30818152 0.0 0.23862553 -0.28428739 0.0 0.22726756 -0.25633311 0.0 0.213221 -0.2287223 0.0 0.198208 -0.20709839 0.0 0.18449691 -0.31660244 0.0 0.22592452 -0.31289563 0.0 0.22416186 -0.30196291 0.0 0.21896014 -0.28454557 0.0 0.21060105 -0.26262075 0.0 0.19975093 -0.23958857 0.0 0.18761563 -0.2202346 0.0 0.17592859 -0.20870925 0.0 0.16639842 -0.2826972 0.0 0.19523597 -0.2793602 0.0 0.19370265 -0.26992214 0.0 0.18933126 -0.25607029 0.0 0.18277638 -0.2406006 0.0 0.17497784 -0.22708885 0.0 0.166885 -0.21894625 0.0 0.15970953 -0.21709599 0.0 0.15411396 -0.24738519 0.0 0.16287509 -0.24527627 0.0 0.16210951 -0.23963964 0.0 0.1600102 -0.23267736 0.0 0.15710928 -0.22724715 0.0 0.15388514 -0.22540362 0.0 0.15086973 -0.22761703 0.0 0.14805962 -0.22883984 0.0 0.14606827 -0.22053115 0.0 0.13152272 -0.22017495 0.0 0.13183519 -0.21992762 0.0 0.13275011 -0.22161986 0.0 0.13415039 -0.22675392 0.0 0.13598454 -0.23383965 0.0 0.13792861 -0.23686235 0.0 0.13983025 -0.22412264 0.0 0.14114793 -0.20757756 0.0 0.10325109 -0.20882799 0.0 0.10458721 -0.21349481 0.0 0.10830394 -0.22174925 0.0 0.11388518 -0.23125124 0.0 0.12070376 -0.23318438 0.0 0.12824474 -0.22221319 0.0 0.13280255 -0.18948549 0.0 0.13349819 -0.20301417 0.0 0.078968965 -0.20514016 0.0 0.081027575 -0.21087511 0.0 0.087083682 -0.21812689 0.0 0.096228383 -0.22277111 0.0 0.10633545 -0.21067004 0.0 0.11595736 -0.1928692 0.0 0.11771525 -0.15985286 0.0 0.12119237 -0.20511982 0.0 0.058770570999999994 -0.20794442 0.0 0.061015978 -0.21275356 0.0 0.06743144200000001 -0.21649078 0.0 0.07673320900000001 -0.21863949 0.0 0.085763551 -0.20469745 0.0 0.095590942 -0.20371014 0.0 0.098388895 -0.22789019 0.0 0.042473242 -0.23073906 0.0 0.044518284000000005 -0.23874654 0.0 0.049543965999999995 -0.25014138 0.0 0.054986358 -0.26063398 0.0 0.063396156 -0.11528709 0.0 0.00403842 -0.1114376 0.0 0.0039814855 -0.10578648 0.0 0.0034214957 -0.097846612 0.0 0.0021389062 -0.087256595 0.0 7.1256654e-05 -0.07402221099999999 0.0 -0.0025561424 -0.058780572999999996 0.0 -0.0051248064 -0.13386098 0.0 0.0051915855 -0.12973547 0.0 0.0051010638 -0.12357151 0.0 0.004388459 -0.11476552 0.0 0.0027802433 -0.10284247 0.0 0.00018922308999999997 -0.08775360900000001 0.0 -0.0031302435999999998 -0.070198804 0.0 -0.0064535448 -0.051773056 0.0 -0.0086101666 -0.1479549 0.0 0.0060292309999999995 -0.1438674 0.0 0.005900884 -0.13759679 0.0 0.005084977 -0.12841487 0.0 0.0032637343 -0.11569974 0.0 0.00031847740000000004 -0.099285081 0.0 -0.0034957165000000004 -0.079849645 0.0 -0.007409370500000001 -0.05916894599999999 0.0 -0.010172302 -0.16000471 0.0 0.0064472021 -0.15616763 0.0 0.0062816101000000004 -0.15006001 0.0 0.0054310606999999995 -0.14081813 0.0 0.0035409372999999997 -0.12764007 0.0 0.00044763088 -0.11019084 0.0 -0.0036288439 -0.089097187 0.0 -0.0079247598 -0.06631726 0.0 -0.011124941999999999 -0.17228258 0.0 0.0064657520999999996 -0.16881774 0.0 0.0062591014000000006 -0.16302581 0.0 0.005434383199999999 -0.15389849 0.0 0.0036077006 -0.14043413 0.0 0.0005602915799999999 -0.12215167 0.0 -0.0035546618 -0.09959811 0.0 -0.0080256891 -0.074801594 0.0 -0.011502798 -0.18636398 0.0 0.0062053506 -0.18334179 0.0 0.005933840300000001 -0.17795962 0.0 0.005159125200000001 -0.16909982 0.0 0.0034853478000000005 -0.15572099 0.0 0.0006343768900000001 -0.13722584 0.0 -0.0033463960999999998 -0.11387957 0.0 -0.0078487881 -0.087416336 0.0 -0.011487441000000001 -0.20293583 0.0 0.0058549675 -0.20041429 0.0 0.0054717590000000005 -0.19558281 0.0 0.0047365194 -0.18745823 0.0 0.0032632422999999996 -0.1751581 0.0 0.0006849118499999999 -0.15793914 0.0 -0.0031049140000000003 -0.13546713 0.0 -0.0076197376 -0.10821921 0.0 -0.011335254 -0.2219594 0.0 0.0056625865000000004 -0.2200093 0.0 0.005129214799999999 -0.21607615 0.0 0.0044282912 -0.2095959 0.0 0.0031568524 -0.20006835 0.0 0.00079922006 -0.18670109 0.0 -0.0029357640999999996 -0.16817062 0.0 -0.007625923000000001 -0.14223129 0.0 -0.011291717 -0.2431398 0.0 0.005963379499999999 -0.24188785 0.0 0.0052954345 -0.23932841 0.0 0.0046572946 -0.23557276 0.0 0.0035402218 -0.23079497 0.0 0.0011896372 -0.22448348 0.0 -0.0028685802 -0.21433415 0.0 -0.0081612356 -0.19397256 0.0 -0.011705242 -0.26642993 0.0 0.007193226800000001 -0.26599896 0.0 0.0064906593999999995 -0.26516739 0.0 0.0059907632 -0.26483378 0.0 0.0049679377 -0.26608995 0.0 0.002290688 -0.26918894 0.0 -0.0027878727 -0.2716226 0.0 -0.009689977399999999 -0.26343405 0.0 -0.014359212 -0.29190007 0.0 0.0098308874 -0.29230651 0.0 0.0092823124 -0.29319325 0.0 0.0090739429 -0.29611358 0.0 0.0081575019 -0.30298841 0.0 0.004819083 -0.31505048 0.0 -0.0024353629000000003 -0.33058763 0.0 -0.013092318 -0.33923274 0.0 -0.022910826000000002 -0.31954461 0.0 0.014263126000000001 -0.32065225 0.0 0.014113541 -0.32283163 0.0 0.014441205 -0.32792738 0.0 0.013810342 -0.33820134 0.0 0.0097373147 -0.35535249 0.0 -0.00045080762 -0.37830201 0.0 -0.015881146999999998 -0.39577112 0.0 -0.028240707 -0.34931472 0.0 0.020628353999999998 -0.35086101 0.0 0.021093162000000002 -0.35366771 0.0 0.022221062000000003 -0.35944486 0.0 0.022340732000000002 -0.37023634 0.0 0.018622812 -0.38751179 0.0 0.009063188 -0.40986156 0.0 0.0018995795000000002 -0.42659357 0.0 0.0090402663 -0.38113245 0.0 0.02871966 -0.38278693 0.0 0.029863808 -0.38555822 0.0 0.031894136000000003 -0.39074004 0.0 0.033332326 -0.39986539 0.0 0.031965714 -0.4139708 0.0 0.02868738 -0.43192002 0.0 0.034851104 -0.44657779 0.0 0.051106133 -0.41491163 0.0 0.038017746 -0.41630775 0.0 0.039682742 -0.41851792 0.0 0.042421859000000006 -0.42233548 0.0 0.04522332900000001 -0.42873883 0.0 0.04699822099999999 -0.43843782 0.0 0.049930945 -0.4509671 0.0 0.061074518 -0.46271741 0.0 0.075132728 -0.45060146 0.0 0.047848888 -0.45134714 0.0 0.049697235 -0.45259741 0.0 0.052653603 -0.45471865 0.0 0.056186818 -0.45822951 0.0 0.059982142999999995 -0.46355245 0.0 0.06593284 -0.47066414 0.0 0.07602854099999999 -0.47830993 0.0 0.084359907 -0.48821342 0.0 0.057594024 -0.48793805 0.0 0.059237156 -0.48788771 0.0 0.061875299 -0.48819643 0.0 0.065257534 -0.48908365 0.0 0.069365434 -0.49076834 0.0 0.07535298900000001 -0.4933199 0.0 0.082816362 -0.49648079 0.0 0.08675868099999999 -0.52780455 0.0 0.066838905 -0.52625567 0.0 0.06794692599999999 -0.52462661 0.0 0.069893509 -0.52303487 0.0 0.072520927 -0.52160513 0.0 0.075855725 -0.52047598 0.0 0.080447689 -0.51974416 0.0 0.08530238300000001 -0.51943332 0.0 0.086352371 -0.56943595 0.0 0.075411215 -0.56650019 0.0 0.075792432 -0.56318563 0.0 0.07687147 -0.55963832 0.0 0.078547098 -0.55606121 0.0 0.080780655 -0.55265045 0.0 0.083824441 -0.54956877 0.0 0.086808518 -0.54697347 0.0 0.08654751599999999 -0.61312306 0.0 0.083322152 -0.60879898 0.0 0.082934238 -0.60385227 0.0 0.08314814400000001 -0.59845579 0.0 0.08391187300000001 -0.59290504 0.0 0.08516787 -0.58750945 0.0 0.087045178 -0.58253688 0.0 0.089181535 -0.57822692 0.0 0.088358201 -0.65880746 0.0 0.090660535 -0.65316492 0.0 0.089570336 -0.64673197 0.0 0.08904466800000001 -0.63970971 0.0 0.089094028 -0.63247412 0.0 0.089658581 -0.62543142 0.0 0.09082508800000001 -0.618936 0.0 0.09267775699999999 -0.61328089 0.0 0.09156555699999999 -0.70632118 0.0 0.0974916 -0.69947565 0.0 0.09581311 -0.69175696 0.0 0.094723381 -0.68339735 0.0 0.094318859 -0.67483777 0.0 0.094561368 -0.66655272 0.0 0.095491856 -0.65894985 0.0 0.097344771 -0.65235871 0.0 0.095812008 -0.7552579 0.0 0.10380384 -0.74736762 0.0 0.10162949 -0.7386148 0.0 0.1001346 -0.7292763 0.0 0.099520996 -0.71983653 0.0 0.09982073300000001 -0.71080017 0.0 0.1010373 -0.70259207 0.0 0.10307604 -0.69555205 0.0 0.10101981 -0.80465198 0.0 0.10952439 -0.79591382 0.0 0.10685985 -0.786443 0.0 0.10504645 -0.77657747 0.0 0.10439853 -0.76682311 0.0 0.10503561 -0.75767416 0.0 0.10708489 -0.74952132 0.0 0.10968804 -0.74268228 0.0 0.10722651 -0.85241109 0.0 0.11459874 -0.84304684 0.0 0.11131801 -0.83323681 0.0 0.1091604 -0.82339281 0.0 0.10853457 -0.81402165 0.0 0.10955593 -0.80555964 0.0 0.1128197 -0.79831153 0.0 0.11669677 -0.79251307 0.0 0.11422559 -0.89466101 0.0 0.11911437 -0.88490051 0.0 0.11497173 -0.87515533 0.0 0.11234023 -0.86592072 0.0 0.11165585 -0.85768014 0.0 0.11278065 -0.85077697 0.0 0.11710875 -0.84537321 0.0 0.12314598 -0.84153652 0.0 0.12145714 -0.92534405 0.0 0.12345126 -0.91538912 0.0 0.11819494 -0.90604115 0.0 0.11494598 -0.89788169 0.0 0.11403139 -0.89136183 0.0 0.11457184 -0.88671732 0.0 0.11896823 -0.88392353 0.0 0.12779117 -0.88278699 0.0 0.12803802 -0.93635726 0.0 0.1284705 -0.92629296 0.0 0.12206118 -0.91743338 0.0 0.11818881 -0.91043854 0.0 0.11684704 -0.90572721 0.0 0.11584999 -0.9034465 0.0 0.1180996 -0.90339446 0.0 0.12944517 -0.90507364 0.0 0.13258266 -0.91811466 0.0 0.13568644 -0.90771246 0.0 0.12849574 -0.8989287 0.0 0.12421807 -0.89243364 0.0 0.12235265 -0.8885572 0.0 0.11869066 -0.88743049 0.0 0.11557762 -0.88884723 0.0 0.12749931 -0.89214808 0.0 0.13371523 -0.8590067 0.0 0.14719875 -0.84739065 0.0 0.13992935 -0.83724874 0.0 0.13552354 -0.82897174 0.0 0.13294104 -0.82285887 0.0 0.12541734 -0.81937772 0.0 0.11366956 -0.81874353 0.0 0.12234995 -0.82048333 0.0 0.13095699 -0.74024314 0.0 0.1650819 -0.72542572 0.0 0.15828 -0.71073997 0.0 0.15344155 -0.69626534 0.0 0.14890426 -0.68271571 0.0 0.13666905 -0.67138332 0.0 0.11634126 -0.66325712 0.0 0.11757578 -0.65828174 0.0 0.12728488 -0.52998006 0.0 0.19051673 -0.50905645 0.0 0.18392302 -0.48574492 0.0 0.17725447 -0.46018025 0.0 0.16850676 -0.4339467 0.0 0.1495946 -0.40934101 0.0 0.12520011 -0.38814011 0.0 0.11967361 -0.37075514 0.0 0.13022883 -0.18987632 0.0 0.22302662 -0.16083252 0.0 0.21509117 -0.12661867 0.0 0.20390601 -0.087744482 0.0 0.18773167 -0.046567313 0.0 0.16432013 -0.006094222 0.0 0.14593025 0.031399403 0.0 0.13624221 0.065116689 0.0 0.15295614 0.30483592 0.0 0.26002407 0.34044865 0.0 0.24784344 0.38299283 0.0 0.22881821 0.43172419 0.0 0.20485811 0.48423108 0.0 0.187199 0.53755605 0.0 0.17950766 0.58949947 0.0 0.16647549 0.63838822 0.0 0.18327108 0.93979925 0.0 0.29698396 0.97507954 0.0 0.27709275 1.0168418 0.0 0.2478428 1.0647326000000001 0.0 0.21837914 1.1173841 0.0 0.20772576 1.1728553999999998 0.0 0.19820587 1.2295825 0.0 0.17628407 1.2839652 0.0 0.19785556 1.6430924999999998 0.0 0.3285827 1.6666052 0.0 0.29876789 1.6934087 0.0 0.26082098 1.7240025 0.0 0.23157401 1.7588188999999999 0.0 0.21860848 1.7977455000000002 0.0 0.19152313 1.8399051 0.0 0.15798467 1.8796794 0.0 0.17825645 2.2898281000000003 0.0 0.35089698 2.289413 0.0 0.31250185 2.28672 0.0 0.26977167 2.2827256 0.0 0.23639543 2.279918 0.0 0.21188973 2.2799466 0.0 0.16510248 2.2812528999999997 0.0 0.12782654 2.2800713 0.0 0.16041511 2.7401271 0.0 0.36367726 2.709727 0.0 0.31897846 2.6704211 0.0 0.26793516 2.6232419 0.0 0.22194648 2.5711353 0.0 0.18097201 2.517621 0.0 0.13200785 2.465806 0.0 0.089876778 2.4191488999999997 0.0 0.15952815 2.931942 0.0 0.36976177 2.8758554 0.0 0.32423308 2.8056370999999998 0.0 0.26959535 2.7221699 0.0 0.21709463 2.6294751 0.0 0.1646947 2.5335729 0.0 0.11780152 2.441354 0.0 0.056429818 2.3607047000000003 0.0 0.18969899 2.9341662 0.0 0.37338379 2.8643734 0.0 0.33102471 2.7777104 0.0 0.27698645 2.6748640999999997 0.0 0.22248583 2.5605528 0.0 0.16782033 2.442234 0.0 0.13756867 2.328588 0.0 0.052224964000000006 2.2288129 0.0 0.22833546 2.8520048 0.0 0.37756446 2.783201 0.0 0.33933818 2.6967444 0.0 0.28816676 2.5925665 0.0 0.23516695 2.4753547 0.0 0.1845703 2.3530064 0.0 0.15791813 2.2345686000000002 0.0 0.059248112 2.1288581 0.0 0.25138062 2.7571743 0.0 0.38301387 2.7017243 0.0 0.34741509 2.6288133 0.0 0.29849985 2.5369572999999996 0.0 0.24979343 2.4302108 0.0 0.20349891 2.3164089 0.0 0.16457553 2.2045014 0.0 0.064371049 2.10268 0.0 0.2571815 2.6621256 0.0 0.38852054 2.6272922000000003 0.0 0.35297209 2.5755186 0.0 0.30416396 2.5037127 0.0 0.25758183 2.4149132 0.0 0.20968099 2.3166318 0.0 0.15661807 2.2177269 0.0 0.060842767 2.1261593999999997 0.0 0.24593048 2.5325999 0.0 0.39223707 2.5205641 0.0 0.35461405 2.4925117 0.0 0.3040401 2.4440515 0.0 0.2561318 2.3770506 0.0 0.2048173 2.2983296 0.0 0.14485039 2.2164197 0.0 0.05243927599999999 2.1391833 0.0 0.22229342 2.3217993 0.0 0.39292023 2.3317034 0.0 0.352507 2.3275449 0.0 0.29959264 2.3042130000000003 0.0 0.24890947 2.2623041 0.0 0.19499387 2.2072456000000003 0.0 0.1346496 2.1464715 0.0 0.048748009 2.0873287 0.0 0.19852194 2.0057895 0.0 0.39045444 2.0355995 0.0 0.34796554 2.0553212 0.0 0.29330572 2.059685 0.0 0.24014466 2.0475206000000004 0.0 0.18440577 2.0217285 0.0 0.12801611 1.9877547999999998 0.0 0.058359377000000004 1.9517077 0.0 0.18505754 1.6035266000000001 0.0 0.38557303 1.6501162 0.0 0.34246925 1.6930881999999998 0.0 0.28710786 1.7276675 0.0 0.23127565 1.7502357 0.0 0.17642953 1.7597306000000001 0.0 0.126478 1.7586194 0.0 0.07409523400000001 1.7510427 0.0 0.17500769 1.1697091 0.0 0.37913626 1.2287048999999999 0.0 0.3368659 1.2920768999999999 0.0 0.2823211 1.3557475 0.0 0.22571518 1.4142945 0.0 0.16857041 1.4624076000000001 0.0 0.13207358 1.4979997999999999 0.0 0.094667204 1.5224540000000002 0.0 0.16212904 0.76550859 0.0 0.37133157 0.83151203 0.0 0.33080396 0.90981615 0.0 0.27830824 0.99741238 0.0 0.22533177 1.0876284999999999 0.0 0.16766942 1.1721666000000002 0.0 0.13720164 1.243868 0.0 0.11612324 1.3000927 0.0 0.14903884 0.43448591 0.0 0.36140552 0.50210434 0.0 0.32278386 0.58811486 0.0 0.27284274 0.6909278 0.0 0.22540031 0.80401009 0.0 0.1745702 0.91686481 0.0 0.13667732 1.0179437 0.0 0.12538676 1.1002115 0.0 0.13819824 0.19227786 0.0 0.34801793 0.25721344 0.0 0.31095091 0.34351006 0.0 0.26387036 0.45107958 0.0 0.22092694 0.57508272 0.0 0.17970386 0.70523649 0.0 0.13611218 0.82442963 0.0 0.12352549 0.92187387 0.0 0.12705754 0.031234322000000002 0.0 0.32990482 0.09056922 0.0 0.29432887 0.17047973 0.0 0.25119215 0.27257803 0.0 0.21276595 0.39504284 0.0 0.17898183 0.53048205 0.0 0.1406447 0.65830863 0.0 0.1075883 0.75810945 0.0 0.11881278 -0.06806168 0.0 0.30654922 -0.01618319 0.0 0.2731075 0.05213061 0.0 0.23525596 0.14037707 0.0 0.20282012 0.25032681 0.0 0.17430526 0.37965927 0.0 0.143556 0.51516944 0.0 0.097312808 0.61339355 0.0 0.10755645 -0.12617765 0.0 0.27872816 -0.082964309 0.0 0.24886182 -0.029535519 0.0 0.21827967 0.039675197999999995 0.0 0.19355962 0.12966819 0.0 0.16941786 0.24515566 0.0 0.1405911 0.3815372 0.0 0.10825839 0.51189941 0.0 0.088753499 -0.15901886 0.0 0.24864198 -0.12548538 0.0 0.22408183 -0.088211328 0.0 0.20192596 -0.039566889 0.0 0.18555756 0.027645127999999998 0.0 0.16206172 0.12437424 0.0 0.13088067 0.26040867 0.0 0.10843693 0.4006463 0.0 0.082751155 -0.17687845 0.0 0.21933344 -0.15385734 0.0 0.20125063 -0.13186958 0.0 0.18760979 -0.10195006 0.0 0.17578201 -0.055291768 0.0 0.14918569 0.02423957 0.0 0.122681 0.15849502 0.0 0.11038396 -0.1869767 0.0 0.19378677 -0.17450677 0.0 0.18211512 -0.16461721 0.0 0.17472833 -0.14834304 0.0 0.16205718 -0.11486126 0.0 0.13145049 -0.04047662 0.0 0.1180559 0.084313586 0.0 0.10964966 -0.19521332 0.0 0.17387536 -0.19135177 0.0 0.16735129 -0.1879459 0.0 0.16221322 -0.17799306 0.0 0.14140755 -0.14402987 0.0 0.11599409 -0.060436774000000006 0.0 0.11602279 -0.20557427 0.0 0.15987062 -0.2051973 0.0 0.15598688 -0.20015961 0.0 0.14639941 -0.18659936 0.0 0.1162407 -0.13397187 0.0 0.10789729 -0.05270770599999999 0.0 0.11318383 -0.21733974 0.0 0.15030353 -0.21107845 0.0 0.14487626 -0.19334668 0.0 0.12768954 -0.16183022 0.0 0.10429429 -0.09258645800000001 0.0 0.11417857 -0.21997672 0.0 0.14312829 -0.19599432 0.0 0.13291739 -0.15074345 0.0 0.12014975 -0.10707767 0.0 0.11151481 -0.1974586 0.0 0.13439922 -0.14984778 0.0 0.12774076 -0.09039542099999999 0.0 0.12871909 -0.11695429 0.0 0.11128125 -0.15391192 0.0 0.12700073 -0.11446936 0.0 0.13018866 -0.15539697 0.0 0.12027584 
Force 3 2975 float
0.0 0.0 0.0 0.0 0.0 0.0 0.0 0.0 0.0 0.0 0.0 0.0 0.0 0.0 0.0 0.0 0.0 0.0 0.0 0.0 0.0 0.0 0.0 0.0 0.0 0.0 0.0 0.0 0.0 0.0 0.0 0.0 0.0 0.0 0.0 0.0 0.0 0.0 0.0 0.0 0.0 0.0 0.0 0.0 0.0 0.0 0.0 0.0 0.0 0.0 0.0 0.0 0.0 0.0 0.0 0.0 0.0 0.0 0.0 0.0 0.0 0.0 0.0 0.0 0.0 0.0 0.0 0.0 0.0 0.0 0.0 0.0 0.0 0.0 0.0 0.0 0.0 0.0 0.0 0.0 0.0 0.0 0.0 0.0 0.0 0.0 0.0 0.0 0.0 0.0 0.0 0.0 0.0 0.0 0.0 0.0 0.0 0.0 0.0 0.0 0.0 0.0 0.0 0.0 0.0 0.0 0.0 0.0 0.0 0.0 0.0 0.0 0.0 0.0 0.0 0.0 0.0 0.0 0.0 0.0 0.0 0.0 0.0 0.0 0.0 0.0 0.0 0.0 0.0 0.0 0.0 0.0 0.0 0.0 0.0 0.0 0.0 0.0 0.0 0.0 0.0 0.0 0.0 0.0 0.0 0.0 0.0 0.0 0.0 0.0 0.0 0.0 0.0 0.0 0.0 0.0 0.0 0.0 0.0 0.0 0.0 0.0 0.0 0.0 0.0 0.0 0.0 0.0 0.0 0.0 0.0 0.0 0.0 0.0 0.0 0.0 0.0 0.0 0.0 0.0 0.0 0.0 0.0 0.0 0.0 0.0 0.0 0.0 0.0 0.0 0.0 0.0 0.0 0.0 0.0 0.0 0.0 0.0 0.0 0.0 0.0 0.0 0.0 0.0 0.0 0.0 0.0 0.0 0.0 0.0 0.0 0.0 0.0 0.0 0.0 0.0 0.0 0.0 0.0 0.0 0.0 0.0 0.0 0.0 0.0 0.0 0.0 0.0 0.0 0.0 0.0 0.0 0.0 0.0 0.0 0.0 0.0 0.0 0.0 0.0 0.0 0.0 0.0 0.0 0.0 0.0 0.0 0.0 0.0 0.0 0.0 0.0 0.0 0.0 0.0 0.0 0.0 0.0 0.0 0.0 0.0 0.0 0.0 0.0 0.0 0.0 0.0 0.0 0.0 0.0 0.0 0.0 0.0 0.0 0.0 0.0 0.0 0.0 0.0 0.0 0.0 0.0 0.0 0.0 0.0 0.0 0.0 0.0 0.0 0.0 0.0 0.0 0.0 0.0 0.0 0.0 0.0 0.0 0.0 0.0 0.0 0.0 0.0 0.0 0.0 0.0 0.0 0.0 0.0 0.0 0.0 0.0 0.0 0.0 0.0 0.0 0.0 0.0 0.0 0.0 0.0 0.0 0.0 0.0 0.0 0.0 0.0 0.0 0.0 0.0 0.0 0.0 0.0 0.0 0.0 0.0 0.0 0.0 0.0 0.0 0.0 0.0 0.0 0.0 0.0 0.0 0.0 0.0 0.0 0.0 0.0 0.0 0.0 0.0 0.0 0.0 0.0 0.0 0.0 0.0 0.0 0.0 0.0 0.0 0.0 0.0 0.0 0.0 0.0 0.0 0.0 0.0 0.0 0.0 0.0 0.0 0.0 0.0 0.0 0.0 0.0 0.0 0.0 0.0 0.0 0.0 0.0 0.0 0.0 0.0 0.0 0.0 0.0 0.0 0.0 0.0 0.0 0.0 0.0 0.0 0.0 0.0 0.0 0.0 0.0 0.0 0.0 0.0 0.0 0.0 0.0 0.0 0.0 0.0 0.0 0.0 0.0 0.0 0.0 0.0 0.0 0.0 0.0 0.0 0.0 0.0 0.0 0.0 0.0 0.0 0.0 0.0 0.0 0.0 0.0 0.0 0.0 0.0 0.0 0.0 0.0 0.0 0.0 0.0 0.0 0.0 0.0 0.0 0.0 0.0 0.0 0.0 0.0 0.0 0.0 0.0 0.0 0.0 0.0 0.0 0.0 0.0 0.0 0.0 0.0 0.0 0.0 0.0 0.0 0.0 0.0 0.0 0.0 0.0 0.0 0.0 0.0 0.0 0.0 0.0 0.0 0.0 0.0 0.0 0.0 0.0 0.0 0.0 0.0 0.0 0.0 0.0 0.0 0.0 0.0 0.0 0.0 0.0 0.0 0.0 0.0 0.0 0.0 0.0 0.0 0.0 0.0 0.0 0.0 0.0 0.0 0.0 0.0 0.0 0.0 0.0 0.0 0.0 0.0 0.0 0.0 0.0 0.0 0.0 0.0 0.0 0.0 0.0 0.0 0.0 0.0 0.0 0.0 0.0 0.0 0.0 0.0 0.0 0.0 0.0 0.0 0.0 0.0 0.0 0.0 0.0 0.0 0.0 0.0 0.0 0.0 0.0 0.0 0.0 0.0 0.0 0.0 0.0 0.0 0.0 0.0 0.0 0.0 0.0 0.0 0.0 0.0 0.0 0.0 0.0 0.0 0.0 0.0 0.0 0.0 0.0 0.0 0.0 0.0 0.0 0.0 0.0 0.0 0.0 0.0 0.0 0.0 0.0 0.0 0.0 0.0 0.0 0.0 0.0 0.0 0.0 0.0 0.0 0.0 0.0 0.0 0.0 0.0 0.0 0.0 0.0 0.0 0.0 0.0 0.0 0.0 0.0 0.0 0.0 0.0 0.0 0.0 0.0 0.0 0.0 0.0 0.0 0.0 0.0 0.0 0.0 0.0 0.0 0.0 0.0 0.0 0.0 0.0 0.0 0.0 0.0 0.0 0.0 0.0 0.0 0.0 0.0 0.0 0.0 0.0 0.0 0.0 0.0 0.0 0.0 0.0 0.0 0.0 0.0 0.0 0.0 0.0 0.0 0.0 0.0 0.0 0.0 0.0 0.0 0.0 0.0 0.0 0.0 0.0 0.0 0.0 0.0 0.0 0.0 0.0 0.0 0.0 0.0 0.0 0.0 0.0 0.0 0.0 0.0 0.0 0.0 0.0 0.0 0.0 0.0 0.0 0.0 0.0 0.0 0.0 0.0 0.0 0.0 0.0 0.0 0.0 0.0 0.0 0.0 0.0 0.0 0.0 0.0 0.0 0.0 0.0 0.0 0.0 0.0 0.0 0.0 0.0 0.0 0.0 0.0 0.0 0.0 0.0 0.0 0.0 0.0 0.0 0.0 0.0 0.0 0.0 0.0 0.0 0.0 0.0 0.0 0.0 0.0 0.0 0.0 0.0 0.0 0.0 0.0 0.0 0.0 0.0 0.0 0.0 0.0 0.0 0.0 0.0 0.0 0.0 0.0 0.0 0.0 0.0 0.0 0.0 0.0 0.0 0.0 0.0 0.0 0.0 0.0 0.0 0.0 0.0 0.0 0.0 0.0 0.0 0.0 0.0 0.0 0.0 0.0 0.0 0.0 0.0 0.0 0.0 0.0 0.0 0.0 0.0 0.0 0.0 0.0 0.0 0.0 0.0 0.0 0.0 0.0 0.0 0.0 0.0 0.0 0.0 0.0 0.0 0.0 0.0 0.0 0.0 0.0 0.0 0.0 0.0 0.0 0.0 0.0 0.0 0.0 0.0 0.0 0.0 0.0 0.0 0.0 0.0 0.0 0.0 0.0 0.0 0.0 0.0 0.0 0.0 0.0 0.0 0.0 0.0 0.0 0.0 0.0 0.0 0.0 0.0 0.0 0.0 0.0 0.0 0.0 0.0 0.0 0.0 0.0 0.0 0.0 0.0 0.0 0.0 0.0 0.0 0.0 0.0 0.0 0.0 0.0 0.0 0.0 0.0 0.0 0.0 0.0 0.0 0.0 0.0 0.0 0.0 0.0 0.0 0.0 0.0 0.0 0.0 0.0 0.0 0.0 0.0 0.0 0.0 0.0 0.0 0.0 0.0 0.0 0.0 0.0 0.0 0.0 0.0 0.0 0.0 0.0 0.0 0.0 0.0 0.0 0.0 0.0 0.0 0.0 0.0 0.0 0.0 0.0 0.0 0.0 0.0 0.0 0.0 0.0 0.0 0.0 0.0 0.0 0.0 0.0 0.0 0.0 0.0 0.0 0.0 0.0 0.0 0.0 0.0 0.0 0.0 0.0 0.0 0.0 0.0 0.0 0.0 0.0 0.0 0.0 0.0 0.0 0.0 0.0 0.0 0.0 0.0 0.0 0.0 0.0 0.0 0.0 0.0 0.0 0.0 0.0 0.0 0.0 0.0 0.0 0.0 0.0 0.0 0.0 0.0 0.0 0.0 0.0 0.0 0.0 0.0 0.0 0.0 0.0 0.0 0.0 0.0 0.0 0.0 0.0 0.0 0.0 0.0 0.0 0.0 0.0 0.0 0.0 0.0 0.0 0.0 0.0 0.0 0.0 0.0 0.0 0.0 0.0 0.0 0.0 0.0 0.0 0.0 0.0 0.0 0.0 0.0 0.0 0.0 0.0 0.0 0.0 0.0 0.0 0.0 0.0 0.0 0.0 0.0 0.0 0.0 0.0 0.0 0.0 0.0 0.0 0.0 0.0 0.0 0.0 0.0 0.0 0.0 0.0 0.0 0.0 0.0 0.0 0.0 0.0 0.0 0.0 0.0 0.0 0.0 0.0 0.0 0.0 0.0 0.0 0.0 0.0 0.0 0.0 0.0 0.0 0.0 0.0 0.0 0.0 0.0 0.0 0.0 0.0 0.0 0.0 0.0 0.0 0.0 0.0 0.0 0.0 0.0 0.0 0.0 0.0 0.0 0.0 0.0 0.0 0.0 0.0 0.0 0.0 0.0 0.0 0.0 0.0 0.0 0.0 0.0 0.0 0.0 0.0 0.0 0.0 0.0 0.0 0.0 0.0 0.0 0.0 0.0 0.0 0.0 0.0 0.0 0.0 0.0 0.0 0.0 0.0 0.0 0.0 0.0 0.0 0.0 0.0 0.0 0.0 0.0 0.0 0.0 0.0 0.0 0.0 0.0 0.0 0.0 0.0 0.0 0.0 0.0 0.0 0.0 0.0 0.0 0.0 0.0 0.0 0.0 0.0 0.0 0.0 0.0 0.0 0.0 0.0 0.0 0.0 0.0 0.0 0.0 0.0 0.0 0.0 0.0 0.0 0.0 0.0 0.0 0.0 0.0 0.0 0.0 0.0 0.0 0.0 0.0 0.0 0.0 0.0 0.0 0.0 0.0 0.0 0.0 0.0 0.0 0.0 0.0 0.0 0.0 0.0 0.0 0.0 0.0 0.0 0.0 0.0 0.0 0.0 0.0 0.0 0.0 0.0 0.0 0.0 0.0 0.0 0.0 0.0 0.0 0.0 0.0 0.0 0.0 0.0 0.0 0.0 0.0 0.0 0.0 0.0 0.0 0.0 0.0 0.0 0.0 0.0 0.0 0.0 0.0 0.0 0.0 0.0 0.0 0.0 0.0 0.0 0.0 0.0 0.0 0.0 0.0 0.0 0.0 0.0 0.0 0.0 0.0 0.0 0.0 0.0 0.0 0.0 0.0 0.0 0.0 0.0 0.0 0.0 0.0 0.0 0.0 0.0 0.0 0.0 0.0 0.0 0.0 0.0 0.0 0.0 0.0 0.0 0.0 0.0 0.0 0.0 0.0 0.0 0.0 0.0 0.0 0.0 0.0 0.0 0.0 0.0 0.0 0.0 0.0 0.0 0.0 0.0 0.0 0.0 0.0 0.0 0.0 0.0 0.0 0.0 0.0 0.0 0.0 0.0 0.0 0.0 0.0 0.0 0.0 0.0 0.0 0.0 0.0 0.0 0.0 0.0 0.0 0.0 0.0 0.0 0.0 0.0 0.0 0.0 0.0 0.0 0.0 0.0 0.0 0.0 0.0 0.0 0.0 0.0 0.0 0.0 0.0 0.0 0.0 0.0 0.0 0.0 0.0 0.0 0.0 0.0 0.0 0.0 0.0 0.0 0.0 0.0 0.0 0.0 0.0 0.0 0.0 0.0 0.0 0.0 0.0 0.0 0.0 0.0 0.0 0.0 0.0 0.0 0.0 0.0 0.0 0.0 0.0 0.0 0.0 0.0 0.0 0.0 0.0 0.0 0.0 0.0 0.0 0.0 0.0 0.0 0.0 0.0 0.0 0.0 0.0 0.0 0.0 0.0 0.0 0.0 0.0 0.0 0.0 0.0 0.0 0.0 0.0 0.0 0.0 0.0 0.0 0.0 0.0 0.0 0.0 0.0 0.0 0.0 0.0 0.0 0.0 0.0 0.0 0.0 0.0 0.0 0.0 0.0 0.0 0.0 0.0 0.0 0.0 0.0 0.0 0.0 0.0 0.0 0.0 0.0 0.0 0.0 0.0 0.0 0.0 0.0 0.0 0.0 0.0 0.0 0.0 0.0 0.0 0.0 0.0 0.0 0.0 0.0 0.0 0.0 0.0 0.0 0.0 0.0 0.0 0.0 0.0 0.0 0.0 0.0 0.0 0.0 0.0 0.0 0.0 0.0 0.0 0.0 0.0 0.0 0.0 0.0 0.0 0.0 0.0 0.0 0.0 0.0 0.0 0.0 0.0 0.0 0.0 0.0 0.0 0.0 0.0 0.0 0.0 0.0 0.0 0.0 0.0 0.0 0.0 0.0 0.0 0.0 0.0 0.0 0.0 0.0 0.0 0.0 0.0 0.0 0.0 0.0 0.0 0.0 0.0 0.0 0.0 0.0 0.0 0.0 0.0 0.0 0.0 0.0 0.0 0.0 0.0 0.0 0.0 0.0 0.0 0.0 0.0 0.0 0.0 0.0 0.0 0.0 0.0 0.0 0.0 0.0 0.0 0.0 0.0 0.0 0.0 0.0 0.0 0.0 0.0 0.0 0.0 0.0 0.0 0.0 0.0 0.0 0.0 0.0 0.0 0.0 0.0 0.0 0.0 0.0 0.0 0.0 0.0 0.0 0.0 0.0 0.0 0.0 0.0 0.0 0.0 0.0 0.0 0.0 0.0 0.0 0.0 0.0 0.0 0.0 0.0 0.0 0.0 0.0 0.0 0.0 0.0 0.0 0.0 0.0 0.0 0.0 0.0 0.0 0.0 0.0 0.0 0.0 0.0 0.0 0.0 0.0 0.0 0.0 0.0 0.0 0.0 0.0 0.0 0.0 0.0 0.0 0.0 0.0 0.0 0.0 0.0 0.0 0.0 0.0 0.0 0.0 0.0 0.0 0.0 0.0 0.0 0.0 0.0 0.0 0.0 0.0 0.0 0.0 0.0 0.0 0.0 0.0 0.0 0.0 0.0 0.0 0.0 0.0 0.0 0.0 0.0 0.0 0.0 0.0 0.0 0.0 0.0 0.0 0.0 0.0 0.0 0.0 0.0 0.0 0.0 0.0 0.0 0.0 0.0 0.0 0.0 0.0 0.0 0.0 0.0 0.0 0.0 0.0 0.0 0.0 0.0 0.0 0.0 0.0 0.0 0.0 0.0 0.0 0.0 0.0 0.0 0.0 0.0 0.0 0.0 0.0 0.0 0.0 0.0 0.0 0.0 0.0 0.0 0.0 0.0 0.0 0.0 0.0 0.0 0.0 0.0 0.0 0.0 0.0 0.0 0.0 0.0 0.0 0.0 0.0 0.0 0.0 0.0 0.0 0.0 0.0 0.0 0.0 0.0 0.0 0.0 0.0 0.0 0.0 0.0 0.0 0.0 0.0 0.0 0.0 0.0 0.0 0.0 0.0 0.0 0.0 0.0 0.0 0.0 0.0 0.0 0.0 0.0 0.0 0.0 0.0 0.0 0.0 0.0 0.0 0.0 0.0 0.0 0.0 0.0 0.0 0.0 0.0 0.0 0.0 0.0 0.0 0.0 0.0 0.0 0.0 0.0 0.0 0.0 0.0 0.0 0.0 0.0 0.0 0.0 0.0 0.0 0.0 0.0 0.0 0.0 0.0 0.0 0.0 0.0 0.0 0.0 0.0 0.0 0.0 0.0 0.0 0.0 0.0 0.0 0.0 0.0 0.0 0.0 0.0 0.0 0.0 0.0 0.0 0.0 0.0 0.0 0.0 0.0 0.0 0.0 0.0 0.0 0.0 0.0 0.0 0.0 0.0 0.0 0.0 0.0 0.0 0.0 0.0 0.0 0.0 0.0 0.0 0.0 0.0 0.0 0.0 0.0 0.0 0.0 0.0 0.0 0.0 0.0 0.0 0.0 0.0 0.0 0.0 0.0 0.0 0.0 0.0 0.0 0.0 0.0 0.0 0.0 0.0 0.0 0.0 0.0 0.0 0.0 0.0 0.0 0.0 0.0 0.0 0.0 0.0 0.0 0.0 0.0 0.0 0.0 0.0 0.0 0.0 0.0 0.0 0.0 0.0 0.0 0.0 0.0 0.0 0.0 0.0 0.0 0.0 0.0 0.0 0.0 0.0 0.0 0.0 0.0 0.0 0.0 0.0 0.0 0.0 0.0 0.0 0.0 0.0 0.0 0.0 0.0 0.0 0.0 0.0 0.0 0.0 0.0 0.0 0.0 0.0 0.0 0.0 0.0 0.0 0.0 0.0 0.0 0.0 0.0 0.0 0.0 0.0 0.0 0.0 0.0 0.0 0.0 0.0 0.0 0.0 0.0 0.0 0.0 0.0 0.0 0.0 0.0 0.0 0.0 0.0 0.0 0.0 0.0 0.0 0.0 0.0 0.0 0.0 0.0 0.0 0.0 0.0 0.0 0.0 0.0 0.0 0.0 0.0 0.0 0.0 0.0 0.0 0.0 0.0 0.0 0.0 0.0 0.0 0.0 0.0 0.0 0.0 0.0 0.0 0.0 0.0 0.0 0.0 0.0 0.0 0.0 0.0 0.0 0.0 0.0 0.0 0.0 0.0 0.0 0.0 0.0 0.0 0.0 0.0 0.0 0.0 0.0 0.0 0.0 0.0 0.0 0.0 0.0 0.0 0.0 0.0 0.0 0.0 0.0 0.0 0.0 0.0 0.0 0.0 0.0 0.0 0.0 0.0 0.0 0.0 0.0 0.0 0.0 0.0 0.0 0.0 0.0 0.0 0.0 0.0 0.0 0.0 0.0 0.0 0.0 0.0 0.0 0.0 0.0 0.0 0.0 0.0 0.0 0.0 0.0 0.0 0.0 0.0 0.0 0.0 0.0 0.0 0.0 0.0 0.0 0.0 0.0 0.0 0.0 0.0 0.0 0.0 0.0 0.0 0.0 0.0 0.0 0.0 0.0 0.0 0.0 0.0 0.0 0.0 0.0 0.0 0.0 0.0 0.0 0.0 0.0 0.0 0.0 0.0 0.0 0.0 0.0 0.0 0.0 0.0 0.0 0.0 0.0 0.0 0.0 0.0 0.0 0.0 0.0 0.0 0.0 0.0 0.0 0.0 0.0 0.0 0.0 0.0 0.0 0.0 0.0 0.0 0.0 0.0 0.0 0.0 0.0 0.0 0.0 0.0 0.0 0.0 0.0 0.0 0.0 0.0 0.0 0.0 0.0 0.0 0.0 0.0 0.0 0.0 0.0 0.0 0.0 0.0 0.0 0.0 0.0 0.0 0.0 0.0 0.0 0.0 0.0 0.0 0.0 0.0 0.0 0.0 0.0 0.0 0.0 0.0 0.0 0.0 0.0 0.0 0.0 0.0 0.0 0.0 0.0 0.0 0.0 0.0 0.0 0.0 0.0 0.0 0.0 0.0 0.0 0.0 0.0 0.0 0.0 0.0 0.0 0.0 0.0 0.0 0.0 0.0 0.0 0.0 0.0 0.0 0.0 0.0 0.0 0.0 0.0 0.0 0.0 0.0 0.0 0.0 0.0 0.0 0.0 0.0 0.0 0.0 0.0 0.0 0.0 0.0 0.0 0.0 0.0 0.0 0.0 0.0 0.0 0.0 0.0 0.0 0.0 0.0 0.0 0.0 0.0 0.0 0.0 0.0 0.0 0.0 0.0 0.0 0.0 0.0 0.0 0.0 0.0 0.0 0.0 0.0 0.0 0.0 0.0 0.0 0.0 0.0 0.0 0.0 0.0 0.0 0.0 0.0 0.0 0.0 0.0 0.0 0.0 0.0 0.0 0.0 0.0 0.0 0.0 0.0 0.0 0.0 0.0 0.0 0.0 0.0 0.0 0.0 0.0 0.0 0.0 0.0 0.0 0.0 0.0 0.0 0.0 0.0 0.0 0.0 0.0 0.0 0.0 0.0 0.0 0.0 0.0 0.0 0.0 0.0 0.0 0.0 0.0 0.0 0.0 0.0 0.0 0.0 0.0 0.0 0.0 0.0 0.0 0.0 0.0 0.0 0.0 0.0 0.0 0.0 0.0 0.0 0.0 0.0 0.0 0.0 0.0 0.0 0.0 0.0 0.0 0.0 0.0 0.0 0.0 0.0 0.0 0.0 0.0 0.0 0.0 0.0 0.0 0.0 0.0 0.0 0.0 0.0 0.0 0.0 0.0 0.0 0.0 0.0 0.0 0.0 0.0 0.0 0.0 0.0 0.0 0.0 0.0 0.0 0.0 0.0 0.0 0.0 0.0 0.0 0.0 0.0 0.0 0.0 0.0 0.0 0.0 0.0 0.0 0.0 0.0 0.0 0.0 0.0 0.0 0.0 0.0 0.0 0.0 0.0 0.0 0.0 0.0 0.0 0.0 0.0 0.0 0.0 0.0 0.0 0.0 0.0 0.0 0.0 0.0 0.0 0.0 0.0 0.0 0.0 0.0 0.0 0.0 0.0 0.0 0.0 0.0 0.0 0.0 0.0 0.0 0.0 0.0 0.0 0.0 0.0 0.0 0.0 0.0 0.0 0.0 0.0 0.0 0.0 0.0 0.0 0.0 0.0 0.0 0.0 0.0 0.0 0.0 0.0 0.0 0.0 0.0 0.0 0.0 0.0 0.0 0.0 0.0 0.0 0.0 0.0 0.0 0.0 0.0 0.0 0.0 0.0 0.0 0.0 0.0 0.0 0.0 0.0 0.0 0.0 0.0 0.0 0.0 0.0 0.0 0.0 0.0 0.0 0.0 0.0 0.0 0.0 0.0 0.0 0.0 0.0 0.0 0.0 0.0 0.0 0.0 0.0 0.0 0.0 0.0 0.0 0.0 0.0 0.0 0.0 0.0 0.0 0.0 0.0 0.0 0.0 0.0 0.0 0.0 0.0 0.0 0.0 0.0 0.0 0.0 0.0 0.0 0.0 0.0 0.0 0.0 0.0 0.0 0.0 0.0 0.0 0.0 0.0 0.0 0.0 0.0 0.0 0.0 0.0 0.0 0.0 0.0 0.0 0.0 0.0 0.0 0.0 0.0 0.0 0.0 0.0 0.0 0.0 0.0 0.0 0.0 0.0 0.0 0.0 0.0 0.0 0.0 0.0 0.0 0.0 0.0 0.0 0.0 0.0 0.0 0.0 0.0 0.0 0.0 0.0 0.0 0.0 0.0 0.0 0.0 0.0 0.0 0.0 0.0 0.0 0.0 0.0 0.0 0.0 0.0 0.0 0.0 0.0 0.0 0.0 0.0 0.0 0.0 0.0 0.0 0.0 0.0 0.0 0.0 0.0 0.0 0.0 0.0 0.0 0.0 0.0 0.0 0.0 0.0 0.0 0.0 0.0 0.0 0.0 0.0 0.0 0.0 0.0 0.0 0.0 0.0 0.0 0.0 0.0 0.0 0.0 0.0 0.0 0.0 0.0 0.0 0.0 0.0 0.0 0.0 0.0 0.0 0.0 0.0 0.0 0.0 0.0 0.0 0.0 0.0 0.0 0.0 0.0 0.0 0.0 0.0 0.0 0.0 0.0 0.0 0.0 0.0 0.0 0.0 0.0 0.0 0.0 0.0 0.0 0.0 0.0 0.0 0.0 0.0 0.0 0.0 0.0 0.0 0.0 0.0 0.0 0.0 0.0 0.0 0.0 0.0 0.0 0.0 0.0 0.0 0.0 0.0 0.0 0.0 0.0 0.0 0.0 0.0 0.0 0.0 0.0 0.0 0.0 0.0 0.0 0.0 0.0 0.0 0.0 0.0 0.0 0.0 0.0 0.0 0.0 0.0 0.0 0.0 0.0 0.0 0.0 0.0 0.0 0.0 0.0 0.0 0.0 0.0 0.0 0.0 0.0 0.0 0.0 0.0 0.0 0.0 0.0 0.0 0.0 0.0 0.0 0.0 0.0 0.0 0.0 0.0 0.0 0.0 0.0 0.0 0.0 0.0 0.0 0.0 0.0 0.0 0.0 0.0 0.0 0.0 0.0 0.0 0.0 0.0 0.0 0.0 0.0 0.0 0.0 0.0 0.0 0.0 0.0 0.0 0.0 0.0 0.0 0.0 0.0 0.0 0.0 0.0 0.0 0.0 0.0 0.0 0.0 0.0 0.0 0.0 0.0 0.0 0.0 0.0 0.0 0.0 0.0 0.0 0.0 0.0 0.0 0.0 0.0 0.0 0.0 0.0 0.0 0.0 0.0 0.0 0.0 0.0 0.0 0.0 0.0 0.0 0.0 0.0 0.0 0.0 0.0 0.0 0.0 0.0 0.0 0.0 0.0 0.0 0.0 0.0 0.0 0.0 0.0 0.0 0.0 0.0 0.0 0.0 0.0 0.0 0.0 0.0 0.0 0.0 0.0 0.0 0.0 0.0 0.0 0.0 0.0 0.0 0.0 0.0 0.0 0.0 0.0 0.0 0.0 0.0 0.0 0.0 0.0 0.0 0.0 0.0 0.0 0.0 0.0 0.0 0.0 0.0 0.0 0.0 0.0 0.0 0.0 0.0 0.0 0.0 0.0 0.0 0.0 0.0 0.0 0.0 0.0 0.0 0.0 0.0 0.0 0.0 0.0 0.0 0.0 0.0 0.0 0.0 0.0 0.0 0.0 0.0 0.0 0.0 0.0 0.0 0.0 0.0 0.0 0.0 0.0 0.0 0.0 0.0 0.0 0.0 0.0 0.0 0.0 0.0 0.0 0.0 0.0 0.0 0.0 0.0 0.0 0.0 0.0 0.0 0.0 0.0 0.0 0.0 0.0 0.0 0.0 0.0 0.0 0.0 0.0 0.0 0.0 0.0 0.0 0.0 0.0 0.0 0.0 0.0 0.0 0.0 0.0 0.0 0.0 0.0 0.0 0.0 0.0 0.0 0.0 0.0 0.0 0.0 0.0 0.0 0.0 0.0 0.0 0.0 0.0 0.0 0.0 0.0 0.0 0.0 0.0 0.0 0.0 0.0 0.0 0.0 0.0 0.0 0.0 0.0 0.0 0.0 0.0 0.0 0.0 0.0 0.0 0.0 0.0 0.0 0.0 0.0 0.0 0.0 0.0 0.0 0.0 0.0 0.0 0.0 0.0 0.0 0.0 0.0 0.0 0.0 0.0 0.0 0.0 0.0 0.0 0.0 0.0 0.0 0.0 0.0 0.0 0.0 0.0 0.0 0.0 0.0 0.0 0.0 0.0 0.0 0.0 0.0 0.0 0.0 0.0 0.0 0.0 0.0 0.0 0.0 0.0 0.0 0.0 0.0 0.0 0.0 0.0 0.0 0.0 0.0 0.0 0.0 0.0 0.0 0.0 0.0 0.0 0.0 0.0 0.0 0.0 0.0 0.0 0.0 0.0 0.0 0.0 0.0 0.0 0.0 0.0 0.0 0.0 0.0 0.0 0.0 0.0 0.0 0.0 0.0 0.0 0.0 0.0 0.0 0.0 0.0 -0.8275524206888101 0.0 -0.3368024924200621 -0.9648327041208171 0.0 -0.31174088379352194 -1.079546386988659 0.0 -0.2791540229788504 -1.1758144693953612 0.0 -0.2445669221141729 -1.2540337113508422 0.0 -0.2121446173036153 -0.7840633396015829 0.0 -0.4325159308128981 -1.026631185665779 0.0 -0.3666933131673326 -1.2024948300623701 0.0 -0.3447382046184549 -1.3366455534161379 0.0 -0.31536389188409714 -1.4458847561471178 0.0 -0.2822126950553172 -1.5356598383914952 0.0 -0.2494650422366259 -1.0142536253563401 0.0 -0.433211130830278 -1.298381472459536 0.0 -0.3685472572136812 -1.492824597320614 0.0 -0.3368051604201288 -1.6392052009801292 0.0 -0.307722767693069 -1.758423283960581 0.0 -0.2813207710330191 -1.860195206504879 0.0 -0.2528550703213766 -1.2926628323165699 0.0 -0.41639405040985106 -1.6173649204341223 0.0 -0.3418678365466957 -1.820637925515947 0.0 -0.3120933598023338 -1.9703407692585178 0.0 -0.2876396231909904 -2.096085012402124 0.0 -0.2675054626876364 -2.208988255224705 0.0 -0.24427600610689998 -1.6149280803732013 0.0 -0.3985172379629307 -1.981601209540029 0.0 -0.3072338196808453 -2.192349694808741 0.0 -0.27954617098865414 -2.3433678185841944 0.0 -0.2606215545155387 -2.4743462218586543 0.0 -0.24717217017930412 -2.597269504931736 0.0 -0.2303382937584572 -1.9885982897149561 0.0 -0.38824120570602993 -2.401829780045743 0.0 -0.2695049347376232 -2.618695705467391 0.0 -0.24123192603079804 -2.769320189233003 0.0 -0.22804088970102213 -2.904593352614832 0.0 -0.2226263575656588 -3.0367651559191273 0.0 -0.2133668013341699 -2.4214215005355357 0.0 -0.402823650070591 -2.8849125521228123 0.0 -0.2391761819794044 -3.1019562375489045 0.0 -0.2031906170797653 -3.249965001249123 0.0 -0.1932928128323202 -3.3882088447052188 0.0 -0.1954068728851717 -3.528232648205814 0.0 -0.1950515328762882 -2.9253208731330202 0.0 -0.457598891439972 -3.436683725917091 0.0 -0.2280448977011223 -3.645108131127701 0.0 -0.17305870432646753 -3.7813080945327 0.0 -0.1656395001409874 -3.9193722579843047 0.0 -0.1722843203071079 -4.06542730163568 0.0 -0.1807606725190167 -3.535506528387661 0.0 -0.5215294130382351 -4.05252610131315 0.0 -0.2446167061154175 -4.232063305801581 0.0 -0.1744491603612289 -4.35744850893621 0.0 -0.15445327986133192 -4.49095491227387 0.0 -0.1666056681651416 -4.642312916057821 0.0 -0.1801041405026034 -4.3398881084972 0.0 -0.47849121196228006 -4.756254518906361 0.0 -0.25334931033373265 -4.87652212191305 0.0 -0.1908130687703266 -4.97585452439636 0.0 -0.1719234522980862 -5.0985793274644795 0.0 -0.1880862287021556 -5.25417653135441 0.0 -0.2027842090696051 -5.406805735170141 0.0 -0.3201049880026245 -5.57462773936569 0.0 -0.24792328619808202 -5.5903777397594405 0.0 -0.22063675351591872 -5.639934540998359 0.0 -0.2191234654780865 -5.749224143730601 0.0 -0.23650751791268784 -5.89728374743209 0.0 -0.2567850424196259 -6.52723256318081 0.0 -0.48364105209102615 -6.5062761626569 0.0 -0.3587471089686775 -6.37751855943796 0.0 -0.306873327671833 -6.3514721587868 0.0 -0.3037712155942802 -6.42740576068514 0.0 -0.3297156402428908 -6.56357656408941 0.0 -0.3565522769138067 -7.66956059173901 0.0 -1.482727077068176 -7.49058178726454 0.0 -0.9712425442810629 -7.240681781017041 0.0 -0.608090215202255 -7.099068577476711 0.0 -0.51703321292583 -7.133938178348451 0.0 -0.49686261242156504 -7.25865418146635 0.0 -0.506836932670923 -9.07288542682213 0.0 -2.260303536507587 -8.62134661553366 0.0 -1.6538162813454063 -8.17280140432003 0.0 -1.115564747889118 -7.91029979775749 0.0 -0.8672869016821722 -7.868770196719251 0.0 -0.76049041901226 -7.97305539932638 0.0 -0.725646498141162 -10.67088786677219 0.0 -2.753349388833733 -9.89301944732548 0.0 -2.11651005291275 -9.172740229318501 0.0 -1.599434799985869 -8.745180618629512 0.0 -1.266926911673172 -8.62287541557188 0.0 -1.084051547101288 -8.708043817701089 0.0 -0.994465664861641 -12.33085190827129 0.0 -3.104003997600098 -11.15156587878914 0.0 -2.4615990215399743 -10.165068254126702 0.0 -1.984943449623585 -9.58120143953003 0.0 -1.633631000840774 -9.385737834643441 0.0 -1.4197132354928301 -9.459625436490631 0.0 -1.2763981119099521 -13.882866347071651 0.0 -3.4374913259372812 -12.351751908793789 0.0 -2.763952509098811 -11.125183478129582 0.0 -2.287531737188292 -10.40508586012714 0.0 -1.9359526083988141 -10.156691853917291 0.0 -1.7031437225785921 -10.22762105569052 0.0 -1.5358266383956651 -15.319707182992671 0.0 -3.7498692537467293 -13.49734993743374 0.0 -3.042283916057096 -12.0637843015946 0.0 -2.5328436633210902 -11.2223322805583 0.0 -2.1833042545826054 -10.9246522731163 0.0 -1.9504570487614252 -11.005341475133532 0.0 -1.7609220840230508 -16.696605217415122 0.0 -4.03615570090389 -14.62689996567249 0.0 -3.289761442244034 -12.997217124930419 0.0 -2.749639788740993 -12.04152630103815 0.0 -2.383133939578347 -11.70773789269344 0.0 -2.1331135333278373 -11.788729494718229 0.0 -1.9428434885710857 -18.07905765197643 0.0 -4.2940985073524605 -15.771496794287408 0.0 -3.493224807330618 -13.93811514845287 0.0 -2.9289488732237206 -12.86427472160686 0.0 -2.5386088234652195 -12.488176312204402 0.0 -2.2739365368484123 -12.57483991437099 0.0 -2.0835526120888144 -19.4917364872934 0.0 -4.50627491265687 -16.918860422971502 0.0 -3.6659924516498097 -14.88266477206661 0.0 -3.066523996663098 -13.686308742157712 0.0 -2.651332746283317 -13.269117931727942 0.0 -2.367546139188652 -13.360267934006691 0.0 -2.183754014593849 -20.92329292308231 0.0 -4.65934491648362 -18.07435965185898 0.0 -3.785654534641361 -15.82463879561596 0.0 -3.1571524389288093 -14.50048556251213 0.0 -2.719745147993627 -14.042755551068879 0.0 -2.420521780513043 -14.141684353542098 0.0 -2.239582295989556 -22.362332559058302 0.0 -4.73920451848011 -19.226360080658992 0.0 -3.8405869360146716 -16.75583401889584 0.0 -3.191031719775791 -15.30264478256611 0.0 -2.732969908324246 -14.80196277004906 0.0 -2.4242882206072043 -14.914654772866362 0.0 -2.243227456080685 -23.80218281416598 0.0 -4.73121562585248 -20.367367754019927 0.0 -3.815467950942361 -17.6682053533726 0.0 -3.1516977713040304 -16.08548617304354 0.0 -2.674763936386003 -15.54378820766582 0.0 -2.3588908905765282 -15.67601282234048 0.0 -2.181977156732608 -25.24117878740301 0.0 -4.62722543565741 -21.49541685862185 0.0 -3.6944836685738704 -18.55922040991791 0.0 -3.020939715682965 -16.846009854307468 0.0 -2.5208536220103963 -16.264808080875483 0.0 -2.20472819993517 -16.42157861315616 0.0 -2.03444101345608 -26.697778860675996 0.0 -4.417100655515999 -22.61975087689344 0.0 -3.462662097919536 -19.432528655744377 0.0 -2.7709722674104684 -17.58589066001048 0.0 -2.249440455912412 -16.96557062450104 0.0 -1.93820496336034 -17.1525877169815 0.0 -1.7766453155017499 -28.214152512262654 0.0 -4.0842765799519505 -23.759560392958623 0.0 -3.1024939130425144 -20.2984626028464 0.0 -2.3766120771002397 -18.308776121226 0.0 -1.836795576524436 -17.64818231632413 0.0 -1.5363804146716231 -17.86556327748483 0.0 -1.390341074448006 -29.838958577454882 0.0 -3.62255349261519 -24.932892136598642 0.0 -2.592993409565496 -21.16828472244563 0.0 -1.8199109461080516 -19.0201549044662 0.0 -1.260928513595684 -18.31208036542565 0.0 -0.984658764935237 -18.55734366632335 0.0 -0.8553398501095482 -31.57810789810536 0.0 -3.02501435545281 -26.12961326049984 0.0 -1.9154560065801298 -22.030362658197358 0.0 -1.0525483389886652 -19.706845785604802 0.0 -0.49118658088823997 -18.95558775150774 0.0 -0.2442557084759766 -19.2106720337532 0.0 -0.16441254195005642 -33.380128678460395 0.0 -2.30837336417727 -27.2994664360923 0.0 -1.0593210851956378 -22.830940206850684 0.0 -0.0994030349008212 -20.32529597020725 0.0 0.47733703336461003 -19.504568706261992 0.0 0.642647935610451 -19.782749033600698 0.0 0.678069621954606 -35.07171555687521 0.0 -1.451870459002515 -28.3554519210204 0.0 -0.03474586808490554 -23.520852106351203 0.0 1.0707029527495802 -20.8558554281535 0.0 1.64223486221835 -19.9375452385269 0.0 1.7069708759707558 -20.191492687090562 0.0 1.611374069403648 -36.585365555299674 0.0 -0.6283140202398639 -29.34150193083927 0.0 1.180108945480906 -24.153010242238352 0.0 2.4262423697239197 -21.25530683616657 0.0 2.9466325366986568 -20.252777083542078 0.0 2.9954067991552322 -20.50370582062718 0.0 2.778034353957436 -37.735619263602665 0.0 0.1631710311946776 -30.1557552385386 0.0 2.4677708285924096 -24.69542907063856 0.0 3.8609309971849033 -21.5948479535622 0.0 4.43256823872515 -20.48938519770576 0.0 4.398822941091391 -20.723357571009803 0.0 4.120492961438001 -38.04845860275217 0.0 0.6806000871180409 -30.70849768890232 0.0 3.778353465815102 -25.03245045628694 0.0 5.24452704244213 -21.76709921876483 0.0 6.016387601475719 -20.620629975465 0.0 6.033756734752499 -20.8435081457193 0.0 5.676269755953 -35.8619569981599 0.0 0.39955014272416317 -30.09760847207298 0.0 5.01083065470132 -24.6215470329441 0.0 6.8138654767884 -21.4720278233327 0.0 7.540860392518231 -20.4435554739181 0.0 7.5182767927108305 -20.74170285060832 0.0 7.217309190454 -25.873824323076096 0.0 1.5978038210789551 -25.16145040352216 0.0 6.63365676264746 -22.65738844583808 0.0 8.31115706359224 -20.218089615290207 0.0 9.16442793153034 -19.07827980946412 0.0 8.762969601891761 -19.690504662902043 0.0 8.29212478243974 -14.14984794572624 0.0 2.828935974174412 -14.071514776435881 0.0 7.95967221572147 -14.18859691130115 0.0 10.54282377317985 -14.43230205799005 0.0 11.518663893986549 -14.90621951253088 0.0 11.53535526726784 -15.694061845105802 0.0 10.446431081522281 -7.404604994130239 0.0 2.391298789957987 -7.2102630359969995 0.0 9.158214832862338 -7.1824873553602 0.0 12.103565610708 -7.37937383662752 0.0 13.199245062341518 -7.866261178848151 0.0 13.488405655895551 -8.75544357237048 0.0 12.49215596936375 -5.06020588888517 0.0 0.9868148546662209 -4.74820669406538 0.0 10.265515664953769 -4.51217364559578 0.0 13.470496495803062 -4.49932020811632 0.0 15.146764179583322 -4.7539007858288995 0.0 15.076620198103498 -5.268136820202639 0.0 13.559737180717919 -4.53635555066135 0.0 0.5775146198162451 -4.21992211978176 0.0 11.2595034310809 -3.922267787012844 0.0 14.58238359078027 -3.757071023426761 0.0 16.3892232257832 -3.75999427129171 0.0 16.02457513551378 -3.92506046421225 0.0 15.2025272485947 -3.3673078238470624 0.0 0.6248213887834559 -3.1827041615852316 0.0 11.71775840652788 -2.99945756755744 0.0 15.373440817027593 -2.855795803090615 0.0 16.8727374492658 -2.7601627174318444 0.0 16.60018274972875 -2.709055219455596 0.0 15.793618884935869 -0.28012777168267533 0.0 0.7818840447508261 -0.3270102780226026 0.0 11.8191839914887 -0.3847295122756864 0.0 15.877763743316802 -0.421282919987712 0.0 17.02001620704448 -0.4101917303313543 0.0 16.23668146080561 -0.3391790056559307 0.0 15.398348530651651 4.531591360045271 0.0 0.841382867575023 4.23193604523354 0.0 11.449329242698798 3.900220443996675 0.0 15.7559319025434 3.6070441246022633 0.0 16.870598763225658 3.4062747243942044 0.0 15.586268405481539 3.3341278360215973 0.0 14.37598788947398 10.047735283656401 0.0 0.910628475922 9.54960553866729 0.0 10.7979076882992 8.998681754995799 0.0 14.863293384741597 8.47034463165444 0.0 16.07849741217188 7.9955177922316505 0.0 15.055752520229602 7.74934938816692 0.0 13.02623245576764 15.339652937450921 0.0 1.0617466491487442 14.77011167463387 0.0 9.82683893627629 14.061993772282639 0.0 13.615239410179 13.313893391807682 0.0 14.78251137761027 12.6256672971792 0.0 14.149176995102398 12.29716859938725 0.0 11.586058668837001 20.06928859933788 0.0 0.966169016621568 19.54998733061133 0.0 8.67430889749368 18.566896988557797 0.0 12.0951083642196 17.5507023771335 0.0 13.369509447208499 16.946720144488072 0.0 12.835171464979542 16.67033012223216 0.0 10.263286708605921 24.433843970733747 0.0 0.3376570332279942 23.951925125839537 0.0 7.155376457017731 22.44092906662292 0.0 10.48881599019996 21.31234125904789 0.0 11.81523247090759 20.754966744267122 0.0 11.23259979765945 20.8495215021845 0.0 9.122399482176 28.63458751325082 0.0 -0.173880025128437 27.69080514901 0.0 5.6296298119484005 25.699109467414452 0.0 8.549453871078152 24.80644238563422 0.0 10.04921502506766 24.624940559704267 0.0 9.74025075245866 25.018236105670987 0.0 7.80807729316979 33.055129937213145 0.0 -0.6692250722085651 31.516172609200858 0.0 4.29018613443462 28.959823330449996 0.0 6.53308657568774 28.2753181708526 0.0 8.1213844709763 28.24227274302058 0.0 8.1502835007326 28.522791258951226 0.0 6.26071599729399 37.85981741209235 0.0 -1.5555989353426298 35.44248716662716 0.0 2.984076795163972 32.372811476810284 0.0 4.72696068891508 31.354955254299718 0.0 6.221140697682359 30.502805038011086 0.0 5.8738818323658 30.298428833840642 0.0 4.54700125806336 42.94549101423429 0.0 -2.74529152461896 39.592544255111804 0.0 1.558159718639152 36.07729961657125 0.0 3.0916062043361747 33.336852542758045 0.0 4.2017970405278495 31.910349832875575 0.0 3.603042999318227 31.16399232883328 0.0 3.19094298723712 48.3643513296252 0.0 -4.07592026933922 43.8577482861053 0.0 0.1972245761983898 39.067269526419615 0.0 1.305922689627425 34.967382202574285 0.0 2.2241248152493442 32.79709620237544 0.0 2.102934138857752 31.70015204197138 0.0 2.183341236238324 54.2770906480153 0.0 -5.77714947817104 48.06719673243 0.0 -1.15077450493338 41.406553510827806 0.0 0.09695555535091022 36.233104996159916 0.0 0.955641592144322 33.35941732211692 0.0 1.22832428479635 32.0615683760676 0.0 1.3771441319134283 61.5729691086876 0.0 -5.2027069264392605 51.94781656177861 0.0 -2.013154948948032 43.566431946768 0.0 -0.842575609782 37.59145345802089 0.0 0.0941629469087736 34.1231131549014 0.0 0.5666308865784 32.5170789364704 0.0 0.8089238302049759 66.79876680677269 0.0 -5.472921096038609 55.901260661214806 0.0 -3.1210679907854324 46.154061085310204 0.0 -1.5729289163830658 39.38449516535625 0.0 -0.479245541595495 35.230055290768654 0.0 0.02696564610838332 33.08312012899 0.0 0.33730406137902097 60.3996215882423 0.0 -4.121434206765611 49.66503822511959 0.0 -2.5080308322613836 41.8385151514715 0.0 -1.15726479791923 36.84623392102848 0.0 -0.464923434859008 33.960377831945344 0.0 -0.0789272665261596 65.312368639616 0.0 -4.9567349339648 54.090769153828404 0.0 -3.274236099509692 45.10722568348051 0.0 -1.825214044201295 39.05989215939181 0.0 -0.908332676587317 35.31524216844224 0.0 -0.483359903185408 59.39090240321081 0.0 -3.8775574817091716 49.48744939389 0.0 -2.410375814945876 42.098241253111404 0.0 -1.236651219627614 37.29410857618448 0.0 -0.79083111032916 65.075418876353 0.0 -4.356979368526599 54.84341844727061 0.0 -2.818077638091065 46.248737590978195 0.0 -1.517676060517774 40.2218774463924 0.0 -0.969774335098206 60.973898791041606 0.0 -3.2288323485206876 51.599778927025504 0.0 -1.8180300138279 44.461757423288404 0.0 -1.0082308752904199 57.927578049117 0.0 -2.242688883066414 49.923573668999104 0.0 -1.1332763105378492 63.953361457308304 0.0 -2.899289135405046 56.56695035864819 0.0 -1.6356628912125002 -1.3153160328829 0.0 -0.18244147656103682 -1.3608413940210342 0.0 -0.15355558783888962 -1.3921280348032 0.0 -0.1273546471838661 -1.411936995298424 0.0 -0.1042723186068079 -1.424169195604229 0.0 -0.0823418620585465 -1.430991395774784 0.0 -0.0628013855700346 -1.434365115859127 0.0 -0.045520013138000304 -1.435932195898304 0.0 -0.029305440732636 -1.4364853159121322 0.0 -0.01459333036483325 -1.6076012001900293 0.0 -0.216226605405665 -1.6607704415192603 0.0 -0.1853213606330339 -1.6971207224280171 0.0 -0.1566476399161909 -1.7208763630219082 0.0 -0.12919265522981632 -1.735369923384247 0.0 -0.103848282596207 -1.7436256835906407 0.0 -0.08077893401947331 -1.748095763702393 0.0 -0.0588427334710683 -1.750240363756008 0.0 -0.03824809575620237 -1.751058243776455 0.0 -0.01912613407815334 -1.943014968575373 0.0 -0.2246152696153816 -2.00525405013135 0.0 -0.19606403690160082 -2.048170891204271 0.0 -0.1689185442229635 -2.076667091916676 0.0 -0.1416398555409963 -2.0945820523645504 0.0 -0.1156338108908452 -2.1052082526302054 0.0 -0.0909533302738332 -2.111280892782021 0.0 -0.0670555856763896 -2.1143963328599074 0.0 -0.0442252531056313 -2.115837932895947 0.0 -0.02202669295066731 -2.303059057576475 0.0 -0.2212426255310655 -2.3747925393698126 0.0 -0.1967221089180526 -2.4251122206278044 0.0 -0.17140323228508073 -2.458847101471176 0.0 -0.1463486356587158 -2.4806378220159444 0.0 -0.12143236703580909 -2.4943497423587417 0.0 -0.0962252704056317 -2.502523102563076 0.0 -0.0716825857920646 -2.5070240626755997 0.0 -0.0477239251930981 -2.5092449827311234 0.0 -0.02378179179454478 -2.702689627567239 0.0 -0.2119468492986711 -2.783852269596305 0.0 -0.1917092607927314 -2.8415057110376414 0.0 -0.169177084229427 -2.8806744320168587 0.0 -0.14643643166091072 -2.9067938726698452 0.0 -0.12279470306986749 -2.923725193093128 0.0 -0.0985765464644136 -2.9342312733557803 0.0 -0.0743769898594247 -2.9404051535101274 0.0 -0.0496463852411596 -2.943543313588581 0.0 -0.024880812222020293 -3.1529469188236714 0.0 -0.2006366770159168 -3.2434647610866167 0.0 -0.1839441805986044 -3.3080708427017687 0.0 -0.1651155761278893 -3.3526921238173006 0.0 -0.1446545156163628 -3.3830822845770547 0.0 -0.1228074350701858 -3.4033222850830547 0.0 -0.10001610650040262 -3.416380005409498 0.0 -0.0759082978977074 -3.424273765606842 0.0 -0.051034421275860505 -3.428426045710649 0.0 -0.0257443406436085 -3.6542225713555623 0.0 -0.18912759272818971 -3.753427213835679 0.0 -0.17747280843682012 -3.824770815619269 0.0 -0.162215644055391 -3.874659056866474 0.0 -0.14426339160658472 -3.909253777731342 0.0 -0.12411997510299931 -3.9329060583226494 0.0 -0.102114642552866 -3.9486004987150105 0.0 -0.0783007419575185 -3.9583436189585886 0.0 -0.053072741326818496 -3.9636040590900996 0.0 -0.02679996266999905 -4.20025410500635 0.0 -0.18240759656018982 -4.307686507692161 0.0 -0.17648996441224898 -4.38554050963851 0.0 -0.16509287612732182 -4.44063331101583 0.0 -0.14945320373633 -4.47954651198866 0.0 -0.1303804312595107 -4.50677851266946 0.0 -0.1082129267053231 -4.52529411313235 0.0 -0.0835926140898153 -4.53709451342736 0.0 -0.05702211342555281 -4.54360371359009 0.0 -0.028917426722935652 -4.78486091962152 0.0 -0.188873964721849 -4.9001657225041395 0.0 -0.18822578470564452 -4.984618524615461 0.0 -0.18006501650162532 -5.04526492613162 0.0 -0.1654888561372213 -5.088896527222411 0.0 -0.1458822756470568 -5.1201349280033694 0.0 -0.1219041150476028 -5.141844128546101 0.0 -0.0945670263641756 -5.1559801288995 0.0 -0.0646110776152769 -5.163906129097651 0.0 -0.03280363762009093 -5.40332093508302 0.0 -0.217785005444625 -5.52617893815447 0.0 -0.2210773535269337 -5.617735740443391 0.0 -0.2140994373524858 -5.68480054212001 0.0 -0.19801415695035382 -5.734072943351821 0.0 -0.17474455236861372 -5.770028144250701 0.0 -0.14598075564951882 -5.795479344886981 0.0 -0.1131511108287777 -5.81227094530677 0.0 -0.0774195859354896 -5.8217877455446905 0.0 -0.03936228538405711 -6.04975775124394 0.0 -0.2763906309097656 -6.180905754522641 0.0 -0.28248649506216217 -6.2810769570269205 0.0 -0.2736318908407971 -6.35628575890714 0.0 -0.2518948622973714 -6.412648960316219 0.0 -0.22114382152859544 -6.4543925613598105 0.0 -0.1838558005963949 -6.4843493621087305 0.0 -0.14176695554417382 -6.50440296261007 0.0 -0.0964190944104773 -6.51583416289585 0.0 -0.0487914372197859 -6.722913368072829 0.0 -0.3700574012514348 -6.861571771539291 0.0 -0.3789254534731361 -6.9734361743359 0.0 -0.3606917930172946 -7.058830576470761 0.0 -0.32845030821125754 -7.124106178102651 0.0 -0.285007127125178 -7.172982179324549 0.0 -0.23460131386503272 -7.20831538020788 0.0 -0.17951292048782289 -7.2321001808025 0.0 -0.12140778703519461 -7.2457193811429805 0.0 -0.06111492552787311 -7.41756538543913 0.0 -0.5207554130188851 -7.57029418925735 0.0 -0.505495892637397 -7.69483419237085 0.0 -0.47338721183468 -7.79217459480436 0.0 -0.428940210723505 -7.86821779670544 0.0 -0.3688275172206877 -7.926258998156469 0.0 -0.3011114435277859 -7.968153399203829 0.0 -0.23046198576154953 -7.996505799912641 0.0 -0.1559120558978013 -8.0129322003233 0.0 -0.07838447795961191 -8.13880260347006 0.0 -0.703106937577673 -8.30573460764336 0.0 -0.6650328966258221 -8.4453762111344 0.0 -0.612102575302564 -8.55862381396559 0.0 -0.5427265735681639 -8.6476442161911 0.0 -0.46485841162145997 -8.71504301787607 0.0 -0.38177593754439826 -8.76399461909986 0.0 -0.29292655532316375 -8.798025819950642 0.0 -0.1969778929244472 -8.817774620444359 0.0 -0.09936447848411191 -8.88396262209906 0.0 -0.9251071031276771 -9.06621102665527 0.0 -0.8596156214903901 -9.22447743061193 0.0 -0.77761361944034 -9.35579543389488 0.0 -0.679088496977212 -9.459455436486381 0.0 -0.576319774407994 -9.53942743848568 0.0 -0.46807561170189 -9.598090639952261 0.0 -0.35458417686460425 -9.63836304095907 0.0 -0.2373863059346575 -9.660647841516191 0.0 -0.12164867104121671 -9.650920241273 0.0 -1.16284962907124 -9.85328184633204 0.0 -1.07080642677016 -10.03214065080351 0.0 -0.9589264239731601 -10.18221905455547 0.0 -0.8352923408823082 -10.302935857573392 0.0 -0.702772097569302 -10.39833705995842 0.0 -0.5633018540825461 -10.467063461676581 0.0 -0.42491893062297303 -10.51472266286806 0.0 -0.283587487089687 -10.543017863575441 0.0 -0.14286594757164858 -10.43662986091574 0.0 -1.3976858349421448 -10.66284266657106 0.0 -1.276271391906784 -10.86567347164183 0.0 -1.1396098284902452 -11.03792507594812 0.0 -0.9898969047474221 -11.17842587946064 0.0 -0.833058580826464 -11.28860348221508 0.0 -0.6709195367729881 -11.370606684265159 0.0 -0.5059910526497761 -11.425930285648251 0.0 -0.34107445252686114 -11.45932508648312 0.0 -0.16983050424576251 -11.23648788091219 0.0 -1.612489360312233 -11.491664287291599 0.0 -1.468579796714494 -11.72264069306601 0.0 -1.311500872787521 -11.92028549800713 0.0 -1.138137548453438 -12.082788302069702 0.0 -0.9596605439915129 -12.210438705260962 0.0 -0.774693019367325 -12.305994707649859 0.0 -0.585669014641725 -12.372116309302902 0.0 -0.39410050985251255 -12.40957751023943 0.0 -0.19872785296819623 -12.047793901194842 0.0 -1.7927612848190309 -12.334643108366071 0.0 -1.637150240928755 -12.598693514967332 0.0 -1.46039163650979 -12.825639520640982 0.0 -1.2732207518305179 -13.012750725318762 0.0 -1.075864066896601 -13.16080952902023 0.0 -0.8711841017796021 -13.27216353180408 0.0 -0.6603670165091751 -13.349121533728033 0.0 -0.441980171049504 -13.39431033485775 0.0 -0.2217577975439448 -12.862953521573832 0.0 -1.938834608470864 -13.18990192974754 0.0 -1.7721113643027828 -13.490455937261393 0.0 -1.587624879690621 -13.750844343771098 0.0 -1.3874665546866631 -13.965979549149479 0.0 -1.177147789428694 -14.137279153431969 0.0 -0.9570139039253471 -14.26636075665901 0.0 -0.725272058131801 -14.35631435890785 0.0 -0.486903492172587 -14.40918316022957 0.0 -0.243422966085574 -13.68193834204845 0.0 -2.040639731015992 -14.0521443513036 0.0 -1.868582206714554 -14.395360359884 0.0 -1.6818212820455307 -14.69187676729691 0.0 -1.477394636934865 -14.93943197348579 0.0 -1.2575785114394622 -15.136751178418772 0.0 -1.0256381456409531 -15.286245982156142 0.0 -0.7801895795047389 -15.390568784764211 0.0 -0.5248330131208251 -15.452369986309241 0.0 -0.2636019305900481 -14.503360362584 0.0 -2.093152292328806 -14.92061037301525 0.0 -1.921510168037753 -15.30905798272644 0.0 -1.7355957633898929 -15.646061991151539 0.0 -1.532312918307822 -15.928831998220788 0.0 -1.313931312848282 -16.15565840389145 0.0 -1.0735932668398311 -16.3278964081974 0.0 -0.820582780514569 -16.44841361121033 0.0 -0.553794253844856 -16.519728412993203 0.0 -0.278992206974805 -15.320737183018421 0.0 -2.0917679322941973 -15.789508394737702 0.0 -1.923175088079376 -16.226848405671202 0.0 -1.7421043635526081 -16.60804321520107 0.0 -1.545484878637121 -16.929416423235402 0.0 -1.332916873322921 -17.18829522970737 0.0 -1.0964677074116922 -17.38616243465405 0.0 -0.8422408210560202 -17.52476403811909 0.0 -0.571318174282954 -17.60663804016594 0.0 -0.28828457120711415 -16.129844292068 0.0 -2.0250819964242397 -16.6544842234244 0.0 -1.8619040096324133 -17.14378354498176 0.0 -1.691564979746208 -17.5719999369109 0.0 -1.5088918349989902 -17.93488860829788 0.0 -1.3105019303354992 -18.22861211286478 0.0 -1.08686020088745 -18.45436457001258 0.0 -0.8412068234403678 -18.61328988782668 0.0 -0.5744357263124921 -18.70727808520148 0.0 -0.29163958444184124 -16.92817116280092 0.0 -1.8803673612826741 -17.51130404939754 0.0 -1.725385713738696 -18.05411950505526 0.0 -1.573461785443218 -18.530934260487662 0.0 -1.4141237656868189 -18.937612154585278 0.0 -1.240479422168013 -19.26875377525506 0.0 -1.0399551316904823 -19.5245407659744 0.0 -0.813358490800128 -19.70613873318636 0.0 -0.559973235807468 -19.81412444680992 0.0 -0.2860035012107136 -17.7137430161216 0.0 -1.6352096983256041 -18.35643098895224 0.0 -1.504333899026666 -18.9520816983247 0.0 -1.379249751876572 -19.47822658654577 0.0 -1.253961487007234 -19.92961555039606 0.0 -1.117481314351092 -20.29951561058472 0.0 -0.952397197171313 -20.58842213352854 0.0 -0.755673181580106 -20.795070600129648 0.0 -0.5258308456527391 -20.91926525986156 0.0 -0.2697696234120888 -18.483603341292 0.0 -1.27989645754068 -19.18486501844031 0.0 -1.1888701257820589 -19.832166583810558 0.0 -1.10167442774976 -20.406609158152317 0.0 -1.022460265865052 -20.90227796351082 0.0 -0.9346404192396361 -21.3142314460977 0.0 -0.8182453680480419 -21.638418520765438 0.0 -0.6637620113510401 -21.872600181699717 0.0 -0.46957082290387203 -22.01444686100088 0.0 -0.24320888059026002 -19.2300493372802 0.0 -0.7955796597708299 -19.98758256614946 0.0 -0.7644435041616721 -20.68666517509735 0.0 -0.7343350301183581 -21.30849951130964 0.0 -0.7156221367873041 -21.84850601418805 0.0 -0.6841923192315119 -22.303960056814148 0.0 -0.6314532634065481 -22.665915802203457 0.0 -0.5305592979392181 -22.93013317105818 0.0 -0.3847067532517982 -23.091165806438504 0.0 -0.202419816699625 -19.935080301564 0.0 -0.16734727842324928 -20.74345363215726 0.0 -0.2031051192922116 -21.49799124632442 0.0 -0.2677128666192018 -22.169198979310682 0.0 -0.3236948574079242 -22.75499506024215 0.0 -0.3653193082659942 -23.25478276005834 0.0 -0.38169612068677916 -23.65560916334712 0.0 -0.3453682187627838 -23.95103133703644 0.0 -0.2607357449236059 -24.13321317183357 0.0 -0.1410627094498251 -20.552616292195022 0.0 0.57690120167235 -21.40155669032289 0.0 0.42669157772649596 -22.211027418061228 0.0 0.27076534990405315 -22.938171633907526 0.0 0.1449926030768061 -23.577651995960156 0.0 0.0085563533597712 -24.13249947551841 0.0 -0.0645393233611989 -24.575115734999432 0.0 -0.1040284585554549 -24.906606881268843 0.0 -0.10272721967316199 -25.113665386730762 0.0 -0.05924181076773421 -20.998775973060358 0.0 1.434981019420737 -21.95231342588765 0.0 1.23473888034637 -22.820224934870257 0.0 0.978646937086188 -23.588585934764478 0.0 0.728220301423776 -24.292333497923043 0.0 0.509418206169856 -24.884439996055708 0.0 0.3297930424190339 -25.37532714687465 0.0 0.1866580498195085 -25.749799506789053 0.0 0.0915671442603225 -25.985827999030004 0.0 0.0349690404534725 -21.34485894508757 0.0 2.4762435581795534 -22.34927875819587 0.0 2.1920217061722016 -23.271746446067002 0.0 1.8322783689664601 -24.101063697390252 0.0 1.479297026070085 -24.84109745743362 0.0 1.172267409299514 -25.470376360700037 0.0 0.8712580984597709 -25.996221609605374 0.0 0.589358906745441 -26.40528454967397 0.0 0.3775602605427054 -26.66800200134448 0.0 0.17652695441951521 -21.564313848955518 0.0 3.7130921482982924 -22.618484466420476 0.0 3.301701675393659 -23.59034894364638 0.0 2.82902613122331 -24.44719403083056 0.0 2.3994665046631924 -25.21958834579076 0.0 1.985862831490368 -25.8791189745582 0.0 1.5513157585458 -26.449363919143902 0.0 1.1749573555762 -26.880335610173443 0.0 0.8016148053248 -27.12876331496498 0.0 0.4304883662993291 -21.72219803533332 0.0 5.16258417237012 -22.77018552154375 0.0 4.62109038390862 -23.76000525409104 0.0 4.040792087981362 -24.66051307541896 0.0 3.4542186383367763 -25.414169276149778 0.0 2.861883479049168 -26.0941100615128 0.0 2.2888695955596803 -26.657830071646515 0.0 1.737976300998834 -27.082811127354844 0.0 1.184734360384146 -27.389113033901342 0.0 0.60034523519373 -21.67998645896312 0.0 6.7601296516656 -22.787751542123118 0.0 6.24548967527128 -23.821432830991867 0.0 5.64546085446491 -24.768860499009282 0.0 5.009533134773279 -25.537408410951553 0.0 4.314014891265351 -26.223720824012013 0.0 3.6341079315484057 -26.779204752352797 0.0 2.9169497706613003 -27.15624193706875 0.0 2.0523856134734153 -27.389133726413405 0.0 1.071067995601664 -21.014154610185898 0.0 8.0540136647022 -22.39076549033456 0.0 7.774574758580721 -23.619219532758 0.0 7.333452595927629 -24.637464879069753 0.0 6.71845286855545 -25.5155297283289 0.0 5.998823053314521 -26.2272417346915 0.0 5.24096337272308 -26.755291991959297 0.0 4.30164544778815 -27.1318771501633 0.0 3.13474948284985 -27.304439191614417 0.0 1.6319131902777 -17.17848594846384 0.0 8.60487000552288 -18.994388086476782 0.0 7.729790660171241 -20.74371721580774 0.0 7.3931117150205 -22.390217358345197 0.0 6.83550791661488 -23.88220366258531 0.0 6.13839663131261 -25.179421635056702 0.0 5.3342966100060005 -26.246164156076848 0.0 4.3674379811587505 -27.076339938399094 0.0 3.141715090433886 -27.60502130061516 0.0 1.6527649662880557 -9.97683281795125 0.0 10.512617069169998 -11.332438977772851 0.0 10.08671210565704 -12.756042017561942 0.0 9.57699738872952 -14.163218350168439 0.0 8.773405387446 -15.48350240700837 0.0 7.80866144258277 -16.6654638928629 0.0 6.72607386113582 -17.66257433311015 0.0 5.461189648746051 -18.4261524056479 0.0 3.914528835228805 -18.908727423113678 0.0 2.059129606772064 -6.002066214209999 0.0 12.89745339424135 -6.89240759417552 0.0 12.4191634314594 -7.87185637952461 0.0 11.669882724691359 -8.87846125905588 0.0 10.61449301304528 -9.85834498133403 0.0 9.401402174721749 -10.76392811923784 0.0 8.068520305421758 -11.547134160359981 0.0 6.529792262975801 -12.15729844448343 0.0 4.66704408774051 -12.546799375853121 0.0 2.450099177859984 -4.222702655383101 0.0 14.5290269554276 -4.62479642695199 0.0 13.91112424829166 -5.1089834591656 0.0 13.027707993583919 -5.647777562388719 0.0 11.845296274679999 -6.2086644397557 0.0 10.508047023205599 -6.755849722743 0.0 9.03703116601428 -7.24831154300148 0.0 7.32432650025279 -7.642728677791199 0.0 5.23813037901216 -7.898891380836179 0.0 2.750197396005252 -2.692494882839568 0.0 15.081507113145637 -2.7115261934688295 0.0 14.417432347613701 -2.776194584702864 0.0 13.50971357704778 -2.8891000134758964 0.0 12.3262521656859 -3.0436014338862303 0.0 10.9929940765365 -3.2234345869826515 0.0 9.50688380962287 -3.4047482882616618 0.0 7.74024231221117 -3.5609866697995516 0.0 5.552474766189119 -3.6668644850252123 0.0 2.920039573427556 -0.2062045521735552 0.0 14.689216382400001 -0.02471390545615965 0.0 14.03827602218925 0.1781651189700005 0.0 13.1814130304357 0.37514400052573854 0.0 12.08634889080645 0.54605290214353 0.0 10.85369352956875 0.6817874350488521 0.0 9.45467585044234 0.7812926356424921 0.0 7.7460117621064 0.8473834336075198 0.0 5.582033702244799 0.8844020480154638 0.0 2.943491599995012 3.4062310250026235 0.0 13.65051141593776 3.6145310235370856 0.0 13.027530695759701 3.92774667169871 0.0 12.25007277626496 4.3010969756943 0.0 11.281085851546848 4.69036340032593 0.0 10.19659082266947 5.05971151599375 0.0 8.94729901534875 5.37974036343 0.0 7.3800493310988005 5.6266391395359 0.0 5.34650537862639 5.782338428032259 0.0 2.8286108171848436 7.6689055310697904 0.0 12.279394256689391 7.800474818565122 0.0 11.681326079842721 8.116928588849081 0.0 10.976976832481661 8.56385166076155 0.0 10.1271008865783 9.078775098345002 0.0 9.1920919779675 9.60128102517237 0.0 8.112793783922369 10.07593602546858 0.0 6.73324574961873 10.454061258483751 0.0 4.9039573223936 10.697482471706401 0.0 2.603655539325552 12.07696461628005 0.0 10.82100140850825 12.11606422164684 0.0 10.25042540306244 12.40016143947245 0.0 9.5999629277573 12.870439430355159 0.0 8.838401796043838 13.4522777491305 0.0 8.0245700807314 14.067561798223363 0.0 7.10263976760576 14.641106761650919 0.0 5.9216668633176806 15.105854115695422 0.0 4.33308833695272 15.408184176736 0.0 2.30832413686472 16.427098564811033 0.0 9.425672732871881 16.42738040511984 0.0 8.90024113876608 16.701441585127803 0.0 8.2901798801298 17.18837434316556 0.0 7.58433972914706 17.80889299936992 0.0 6.85342548502892 18.47686919814762 0.0 6.057521770721801 19.10726176234557 0.0 5.05909474143854 19.62277857291662 0.0 3.713688279147356 19.96031067550484 0.0 1.983783337919256 20.75651065789634 0.0 8.1666159220485 20.8001930510383 0.0 7.7149515491252005 21.109080870358596 0.0 7.14608404251748 21.62232382171394 0.0 6.475113834513479 22.264342349079712 0.0 5.793302389056151 22.9526758399356 0.0 5.0861889704428 23.60348568885692 0.0 4.23763838864289 24.1382839825635 0.0 3.112423144156762 24.48978710475336 0.0 1.6649037949907999 25.071041201978048 0.0 7.06930665114585 25.224846045359847 0.0 6.717368274381171 25.58869843604704 0.0 6.19860512018852 26.099092760809302 0.0 5.5506544924305805 26.677364939730996 0.0 4.8876061811881995 27.24200721665584 0.0 4.2249968953591 27.761710103059364 0.0 3.482378280928064 28.11568461884966 0.0 2.5438616452550837 28.352051541561707 0.0 1.3567007519161338 28.496153397913297 0.0 5.916589267029679 28.635962640495627 0.0 5.661517974741139 28.865569003255438 0.0 5.1915881441592395 29.1127247305499 0.0 4.5634749493847995 29.39850692882785 0.0 3.9175265849845076 29.6072135804648 0.0 3.3162644069680645 29.80650662999636 0.0 2.689793476470128 29.930964458717305 0.0 1.9580089466361401 29.999652030575366 0.0 1.043103621527272 30.1505346101931 0.0 4.51780892173656 30.204860506323747 0.0 4.397162990141251 30.30359008375716 0.0 4.039392526457883 30.369041390708997 0.0 3.5096747417082006 30.471476471733155 0.0 2.954161400236578 30.516374161251992 0.0 2.462102268226128 30.58234614662634 0.0 1.9793060862530671 30.63642614529255 0.0 1.437712264264617 30.67474536257256 0.0 0.7763014734340319 30.907997306805555 0.0 3.307538097021208 30.89546393880098 0.0 3.3156065583774397 30.949380655737702 0.0 3.09002631820662 30.983576134249702 0.0 2.71032048723228 30.974280982209343 0.0 2.2659776019732543 31.02133170643858 0.0 1.8512526039879298 31.04487802041388 0.0 1.481611053165712 31.08723499047025 0.0 1.0545623470497492 31.099182755000076 0.0 0.5614158894820209 31.27067346714092 0.0 2.260774735101076 31.23569143943574 0.0 2.317136784214054 31.233863190028803 0.0 2.2372233040764304 31.23836221746022 0.0 1.999290861747282 31.2726099102235 0.0 1.718422876444365 31.239779250238726 0.0 1.50541875157016 31.22049732308192 0.0 1.220560724741344 31.220463781183895 0.0 0.869640004990025 31.242996136002557 0.0 0.46426136418175806 31.6219133728575 0.0 1.5656415601436497 31.50961777628619 0.0 1.6574389905498101 31.50065583746244 0.0 1.674135691946918 31.45568647276844 0.0 1.5588447232935232 31.40710707106633 0.0 1.386948235141497 31.37542875198629 0.0 1.140993035930005 31.364528056795002 0.0 0.9160980163432251 31.403563841839652 0.0 0.70628195767051 31.458834302779355 0.0 0.40001084570619755 31.859613753831805 0.0 1.0303894967597198 31.63242049676135 0.0 1.19233986996932 31.58784591115076 0.0 1.2275091382518801 31.534955485570727 0.0 1.248844133200975 31.511845271622537 0.0 1.1294500656233688 31.50951637731051 0.0 0.961746599049005 31.5171842999196 0.0 0.74274107517434 31.542793520084665 0.0 0.500138954406572 31.564263158899386 0.0 0.23448324859256667 32.076456815138854 0.0 0.5602130178733981 31.70691218269863 0.0 0.7367919012066328 31.59055179420825 0.0 0.8348681482574578 31.551423833553123 0.0 0.8638683148458721 31.53568784266872 0.0 0.8469356790979079 31.5284944210467 0.0 0.7479289406284202 31.532562508045498 0.0 0.603618761164086 31.55482611518688 0.0 0.42008071155432 31.583557005701852 0.0 0.2108899462326489 32.475472815232294 0.0 0.1824627648121761 31.77653867481951 0.0 0.3791616742500048 31.543232744977917 0.0 0.449394087396384 31.47628034632392 0.0 0.512351532824058 31.432510475203983 0.0 0.5327817279555239 31.417428474580504 0.0 0.5087857809431701 31.410542401794626 0.0 0.43736949967868105 31.438113407107686 0.0 0.3026919171400488 31.46399798864451 0.0 0.1290963719709599 33.08651689763882 0.0 -0.1446658394850757 31.957027496875003 0.0 0.047958982350542 31.498038254213956 0.0 0.1629657904090788 31.303913060081083 0.0 0.20089971770119192 31.24518979315612 0.0 0.25691619233439866 31.191405666872843 0.0 0.2815665759566256 31.1816850133629 0.0 0.274303577751507 31.215198430771316 0.0 0.1300567098074034 31.2087502113696 0.0 0.06506010633970401 34.20247162452404 0.0 -0.479131757993158 32.42230537490421 0.0 -0.20089187454636293 31.5782202010926 0.0 -0.103434447418554 31.20154029677451 0.0 -0.026038792657368665 30.99512349633672 0.0 0.011770363293466682 30.91218905118672 0.0 0.0846473992082856 30.88677088278 0.0 0.08145076802260501 30.89645818055238 0.0 0.015756780529871162 30.873191363112 0.0 0.014340454602299282 36.1079069330376 0.0 -0.705175192787499 33.528831841206 0.0 -0.441266430153 32.0405436917952 0.0 -0.280240786708512 31.296212397307205 0.0 -0.225893813581527 30.867422847742105 0.0 -0.1424501830763649 30.6457035336207 0.0 -0.074500210522815 30.592676731877216 0.0 -0.0742126707781002 30.5445256717077 0.0 -0.0895826819299164 30.513636926560558 0.0 -0.03726810835463082 39.12911636425248 0.0 -0.692219567532312 35.62223781116484 0.0 -0.5455718272987199 33.30827713451124 0.0 -0.42319789456156204 31.85560348474608 0.0 -0.3199140082498488 31.0508715148206 0.0 -0.270533517960051 30.64758503901144 0.0 -0.2142816507509856 30.39722091696504 0.0 -0.1824045229526892 30.29322708754398 0.0 -0.1599699817674558 30.21513809726502 0.0 -0.0831654829050282 43.4597355308128 0.0 -0.538787317612416 38.787978820897564 0.0 -0.36553015698841923 35.749719798423534 0.0 -0.4004064266380542 33.3391299378984 0.0 -0.33071855945820305 31.89980456359632 0.0 -0.2955705282815328 31.056174638299467 0.0 -0.25031381204986203 30.653293145929197 0.0 -0.24686019268160703 30.3070592463705 0.0 -0.19683477704594401 30.221138144734738 0.0 -0.1179714424156839 49.400374215155395 0.0 -0.683687297722242 43.488594746177995 0.0 -0.1395229533456984 39.241242115793796 0.0 -0.10534443295331938 36.12538971623832 0.0 -0.13246001711955 33.97282928243742 0.0 -0.1846981008410892 32.40248241742091 0.0 -0.1967098911958332 31.489224561715677 0.0 -0.18956913674172482 31.052242787792398 0.0 -0.1649350257268077 30.802556049076355 0.0 -0.10997597784484621 56.1459584904845 0.0 -1.3421363231231802 49.84517512951609 0.0 -0.484064435996819 44.4501512323092 0.0 -0.007293475068959939 40.2023195656284 0.0 0.2247631865128836 37.23162732038838 0.0 0.152347651555374 35.0331322828378 0.0 0.094940130021923 33.6564983220366 0.0 -0.01625037719871935 32.85633000646172 0.0 -0.0691987683881956 32.376032743133436 0.0 -0.03691409592181588 56.260256412516 0.0 -0.9779591290891759 50.9981355707831 0.0 -0.35533204290447995 46.136549382603405 0.0 0.1424932781082209 42.217361570601 0.0 0.33243936530899365 39.24218394916908 0.0 0.46128801151996 37.239423540923944 0.0 0.42784220754779 36.168554397583854 0.0 0.2144721838118805 35.54841289607679 0.0 0.0859109967415109 52.239558654874806 0.0 -0.025239013936652014 48.275409386985 0.0 0.2565135025430476 44.9106218262711 0.0 0.528951393617252 42.609203380534 0.0 0.589440501762884 41.182077067089 0.0 0.516436730028615 40.547933309764495 0.0 0.138735257568197 50.930407119744004 0.0 0.60612945252536 48.8181949298177 0.0 0.534296896303424 47.485453589526706 0.0 0.2640396366031119 46.687872466129704 0.0 0.1350996739018632 -1.4366180759154512 0.0 -3.745790413644758e-07 -1.436483035912075 0.0 0.014594981564874529 -1.4359375558984377 0.0 0.029305971532649275 -1.434368915859222 0.0 0.0455198891379972 -1.430982995774574 0.0 0.06280108957002721 -1.424172995604324 0.0 0.08234194605854861 -1.411933155298328 0.0 0.1042716786067919 -1.392128794803219 0.0 0.1273549111838727 -1.7512856037821392 0.0 7.551105388777631e-07 -1.751051363776283 0.0 0.0191263324781583 -1.7502434037560841 0.0 0.038247908156197684 -1.74808964370224 0.0 0.0588431094710777 -1.7436249235906223 0.0 0.080778082019452 -1.7353691633842276 0.0 0.1038479465961986 -1.720873323021832 0.0 0.1291922592298064 -1.697115362427883 0.0 0.15664687591617182 -2.116226252905655 0.0 -1.9276722481918053e-07 -2.1158363728959078 0.0 0.02203033775075843 -2.114399772859993 0.0 0.0442264571056614 -2.1112740127818492 0.0 0.0670552736763818 -2.105205212630129 0.0 0.0909531022738275 -2.0945820523645504 0.0 0.1156336588908414 -2.076660571916513 0.0 0.141638843540971 -2.048173971204348 0.0 0.16891813622295332 -2.509919782747993 0.0 -1.201924910048122e-06 -2.509246902731171 0.0 0.02378138219453454 -2.5070221426755523 0.0 0.0477262251931556 -2.502521182563028 0.0 0.0716820777920519 -2.4943482223587043 0.0 0.0962250864056271 -2.480637422015934 0.0 0.1214331670358291 -2.458850141471252 0.0 0.1463474916586872 -2.4251160206278994 0.0 0.171404484285112 -2.944493553612337 0.0 -7.16400977910024e-07 -2.943547113588676 0.0 0.02488599182214978 -2.940399433509984 0.0 0.0496444332411108 -2.934230513355761 0.0 0.07437708585942711 -2.923728833093219 0.0 0.09857757446443931 -2.906798432669959 0.0 0.1227951550698788 -2.8806725120168113 0.0 0.1464372556609313 -2.841507231037679 0.0 0.16917690422942253 -3.42971808574295 0.0 1.648194361204858e-06 -3.428427965710697 0.0 0.025743684643592103 -3.424273005606823 0.0 0.0510357092758927 -3.416379645409489 0.0 0.07590836589770909 -3.4033188850829705 0.0 0.10001707450042681 -3.3830792445769795 0.0 0.1228073870701846 -3.3526924838173104 0.0 0.1446547556163688 -3.3080750427018746 0.0 0.1651151681278791 -3.96525889913147 0.0 -2.4888119422202973e-06 -3.963606379090157 0.0 0.026804283870107082 -3.958345138958626 0.0 0.0530734973268374 -3.9485932187148283 0.0 0.07830118195752951 -3.9329014983225354 0.0 0.10211423855285591 -3.909249577731237 0.0 0.1241190231029755 -3.87465449686636 0.0 0.14426658360666453 -3.8247670156191735 0.0 0.1622161440554035 -4.545673313641831 0.0 6.150148953753721e-08 -4.54360251359006 0.0 0.028918448722961204 -4.537088513427211 0.0 0.057019961425499005 -4.52529651313241 0.0 0.08359185008979621 -4.5067737126693395 0.0 0.10821286670532161 -4.4795417119885395 0.0 0.1303814072595351 -4.4406361110159 0.0 0.1494512117362802 -4.385544109638601 0.0 0.1650908161272703 -5.16645652916141 0.0 -1.493118197327954e-06 -5.163908929097721 0.0 0.03279919401997983 -5.15598092889952 0.0 0.06460860961521521 -5.141839728545991 0.0 0.0945681343642033 -5.12013332800333 0.0 0.1219023990475599 -5.088895327222381 0.0 0.1458808236470205 -5.04525972613149 0.0 0.1654893801372344 -4.984622124615551 0.0 0.1800647765016193 -5.8248561456214 0.0 -2.049507451237685e-06 -5.8217893455447305 0.0 0.03936329578408237 -5.8122681453067 0.0 0.0774184899354622 -5.79547494488687 0.0 0.11315188682879711 -5.770029344250731 0.0 0.1459805276495131 -5.73407374335184 0.0 0.1747417723685442 -5.68480334212008 0.0 0.1980138129503452 -5.6177361404434 0.0 0.2141003173525078 -6.519541362988531 0.0 -1.803105485077636e-06 -6.515835762895891 0.0 0.0487917252197931 -6.50440976261024 0.0 0.0964208384105209 -6.484362162109051 0.0 0.14176387954409692 -6.45439856135996 0.0 0.183855644596391 -6.412648960316219 0.0 0.2211407935285197 -6.3562849589071195 0.0 0.25189796229744893 -6.281086957027171 0.0 0.273630886840772 -7.2498161812454 0.0 2.56583886414597e-06 -7.2457161811429005 0.0 0.0611096855277421 -7.232096980802421 0.0 0.12141007503525181 -7.20831698020792 0.0 0.179516604487915 -7.172994979324869 0.0 0.23460186186504642 -7.124106578102659 0.0 0.2850093191252328 -7.05881977647049 0.0 0.32845304821132604 -6.97343937433598 0.0 0.36069186501729644 -8.01828260045706 0.0 5.29472893236822e-07 -8.01293900032347 0.0 0.07838300195957501 -7.996520999913019 0.0 0.15591133189778322 -7.968150599203761 0.0 0.23046112576152802 -7.926254598156359 0.0 0.3011118955277972 -7.868208596705211 0.0 0.368825089220627 -7.7921685948042105 0.0 0.428943090723577 -7.694822192370549 0.0 0.473392371834809 -8.82398342059958 0.0 -4.267034906675871e-06 -8.81777062044426 0.0 0.09936045048401121 -8.798024219950602 0.0 0.19697164892429112 -8.763971819099291 0.0 0.2929246993231173 -8.7150362178759 0.0 0.3817740055443499 -8.64763741619093 0.0 0.46485881162147 -8.55863141396578 0.0 0.542730773568269 -8.44539301113482 0.0 0.6121110953027771 -9.66840384171009 0.0 -3.322355123058876e-06 -9.66063264151581 0.0 0.12165191504129781 -9.63836904095922 0.0 0.23738415793460382 -9.598075439951879 0.0 0.35458482086462034 -9.539440238486002 0.0 0.46807473170186803 -9.459457036486421 0.0 0.57631881440797 -9.35581063389526 0.0 0.6790862569771561 -9.2244762306119 0.0 0.7776126594403161 -10.55216106380402 0.0 -2.4290690607267252e-06 -10.54301186357529 0.0 0.14286004757150111 -10.51471666286791 0.0 0.28358500708962503 -10.467071861676791 0.0 0.42491985062299603 -10.39833185995829 0.0 0.563302334082558 -10.302938257573452 0.0 0.702773697569342 -10.182189454554731 0.0 0.835289860882246 -10.03213585080339 0.0 0.9589298639732461 -11.470358686758962 0.0 -9.302919432572981e-06 -11.459330286483251 0.0 0.1698223162455578 -11.42594188564854 0.0 0.3410671085266775 -11.37060588426514 0.0 0.505992132649803 -11.28860508221512 0.0 0.6709212567730312 -11.178421879460538 0.0 0.8330612208265301 -11.03793587594839 0.0 0.9899041447476029 -10.86564747164118 0.0 1.1396107084902671 -12.42222791055569 0.0 2.193119934827997e-06 -12.409578310239452 0.0 0.19873402496835052 -12.37212950930323 0.0 0.3941011058525274 -12.30600230765005 0.0 0.585670214641755 -12.210438705260962 0.0 0.774695419367385 -12.082761102069021 0.0 0.9596650239916251 -11.92026949800673 0.0 1.138136708453417 -11.722620693065512 0.0 1.311501072787526 -13.40838953520973 0.0 -6.83122217078055e-06 -13.39431793485794 0.0 0.2217413495435336 -13.34911673372791 0.0 0.441979571049489 -13.272122331803049 0.0 0.660368616509215 -13.160789929019739 0.0 0.8711881017797022 -13.01277032531925 0.0 1.0758631068965772 -12.82563192064079 0.0 1.2732216318305403 -12.598713914967842 0.0 1.460386676509666 -14.427015960675392 0.0 1.121205468030136e-06 -14.40918756022968 0.0 0.2434242540856062 -14.356312758907809 0.0 0.48690645217266104 -14.266356356658902 0.0 0.725277818131945 -14.13728675343216 0.0 0.9570183039254572 -13.9659763491494 0.0 1.177148069428701 -13.750822743770561 0.0 1.387468354686708 -13.490433137260819 0.0 1.587626399690659 -15.472964786824111 0.0 -4.74561131864028e-06 -15.452369986309241 0.0 0.2635980425899509 -15.39056598476414 0.0 0.524834933120873 -15.28623838215595 0.0 0.78019481950487 -15.13674197841854 0.0 1.025645665641141 -14.939439573485979 0.0 1.257587831439695 -14.691861167296521 0.0 1.4774013969350341 -14.39532675988316 0.0 1.6818212820455307 -16.543552013588787 0.0 -5.25772853144321e-06 -16.519748412993703 0.0 0.2789842189746053 -16.448451611211283 0.0 0.553795773844894 -16.32786920819672 0.0 0.820589940514748 -16.15567960389198 0.0 1.073601826840045 -15.928813598220332 0.0 1.313939512848487 -15.646066791151659 0.0 1.5323149983078739 -15.309031982725791 0.0 1.7355966833899161 -17.633829240845717 0.0 1.5897098397427452e-06 -17.60663484016586 0.0 0.2882982312074556 -17.524783638119583 0.0 0.571317254282931 -17.386186834654662 0.0 0.8422479810561991 -17.188330429708248 0.0 1.096478107411952 -16.929431623235782 0.0 1.332925753323143 -16.60804481520111 0.0 1.545495278637381 -16.2268604056715 0.0 1.742105163552628 -18.73801196577653 0.0 -8.91388312473008e-06 -18.707279685204842 0.0 0.2916411804451928 -18.61325628775612 0.0 0.5744422463261841 -18.454360170003667 0.0 0.8412132234533278 -18.22863171290447 0.0 1.086869040905351 -17.93491740836052 0.0 1.3105063303450692 -17.571995536901 0.0 1.5088921949998 -17.143823145076798 0.0 1.691552979717408 -19.849671310730763 0.0 2.027309049469359e-06 -19.8141288468372 0.0 0.28601287326881997 -19.706105132973 0.0 0.5599820758636019 -19.524539165963517 0.0 0.813363450833856 -19.26871097499612 0.0 1.039959531717102 -18.93759375446154 0.0 1.240484942205135 -18.530934260487662 0.0 1.414122125676282 -18.054079904794893 0.0 1.573466145471885 -20.9601426852766 0.0 6.7331346153834805e-06 -20.919202858906843 0.0 0.26977849154776923 -20.79506300001394 0.0 0.525831045655784 -20.58842813361764 0.0 0.7556801016828679 -20.29953841092843 0.0 0.9524026372533211 -19.929606750265382 0.0 1.1174859144194018 -19.478191386025692 0.0 1.2539641670468311 -18.9520616980232 0.0 1.379250031880793 -22.062169184483555 0.0 1.0866914799997652e-05 -22.01446526176356 0.0 0.243227121346308 -21.87267778491624 0.0 0.46958062331008193 -21.63839091961728 0.0 0.663761531331072 -21.31422704591697 0.0 0.8182542084111448 -20.90228076362688 0.0 0.93465033965082 -20.406578356880278 0.0 1.022460705883224 -19.83211018146432 0.0 1.101666587423616 -23.145427577909842 0.0 8.2775093911591e-06 -23.091158205593 0.0 0.20242532531239 -22.93011196869332 0.0 0.3847186025734426 -22.665800989423346 0.0 0.530571139257306 -22.30393125360367 0.0 0.6314629044811669 -21.848522816058313 0.0 0.68419895997071 -21.30844790557688 0.0 0.715622176791748 -20.6866591744339 0.0 0.734336310259894 -24.194740786784973 0.0 2.883074246437581e-06 -24.13329119521992 0.0 0.1410771137673051 -23.951023734754347 0.0 0.26075122557066177 -23.65558035470784 0.0 0.3453860601131379 -23.254719941252876 0.0 0.38170911657723355 -22.75502266851318 0.0 0.3653328323176002 -22.169190176675517 0.0 0.3236967179649012 -21.49801285279254 0.0 0.2677051162990632 -25.182790642874643 0.0 3.7012267172938083e-06 -25.113743048746738 0.0 0.0592424873079765 -24.906597673913904 0.0 0.10274018603083622 -24.575160170482803 0.0 0.1040495754180474 -24.13249787423997 0.0 0.0645566932290768 -23.57767961800704 0.0 -0.00854038541475744 -22.9381992559482 0.0 -0.14498585369121628 -22.21103222189439 0.0 -0.27077107847509646 -26.05903302200212 0.0 4.12472883266192e-06 -25.985779098075003 0.0 -0.0349655853204225 -25.7498391886967 0.0 -0.0915596648219715 -25.375322737773143 0.0 -0.1866400847349923 -24.88445843411105 0.0 -0.32977490899243433 -24.29231546071524 0.0 -0.5094056602897641 -23.588613591808162 0.0 -0.728214850180384 -22.820229343962204 0.0 -0.9786493019627741 -26.75302151933928 0.0 -3.180811696076857e-08 -26.66796541997784 0.0 -0.17652309930626162 -26.405238320498515 0.0 -0.3775565461289562 -25.99616613460311 0.0 -0.5893513492813651 -25.470361084986177 0.0 -0.871242018760971 -24.84115092238824 0.0 -1.172255148539244 -24.101069727263496 0.0 -1.479297026070085 -23.2718019208802 0.0 -1.8322768413991397 -27.220615561570003 0.0 -3.102745038945e-07 -27.12878190551032 0.0 -0.4304786668843691 -26.8804031019008 0.0 -0.8016033276897281 -26.449397867053424 0.0 -1.1749419173602038 -25.8791375650626 0.0 -1.5513090902127 -25.219621889482138 0.0 -1.9858524046561796 -24.44722191649608 0.0 -2.399459553453816 -23.59031984560526 0.0 -2.82903057675737 -27.50820614507196 0.0 2.6480321881265067e-06 -27.389100420862828 0.0 -0.6003399865422211 -27.08278020506916 0.0 -1.1847290303585882 -26.65782396856862 0.0 -1.737967960125704 -26.094140983737677 0.0 -2.288866299901502 -25.41424983658204 0.0 -2.861881729504427 -24.660543997555678 0.0 -3.4542124539094323 -23.760027225063485 0.0 -4.04078590355949 -27.470436968409096 0.0 3.084020207948686e-06 -27.38909650037182 0.0 -1.0710587095451378 -27.156167075913704 0.0 -2.0523815226999154 -26.77914870875585 0.0 -2.916949566122625 -26.223727369245772 0.0 -3.6341051907317694 -25.537410047259748 0.0 -4.3140202092669995 -24.76892922393856 0.0 -5.0095314984654395 -23.82152773683963 0.0 -5.64544653677236 -27.40073307276116 0.0 8.487420759269759e-06 -27.30445478293918 0.0 -1.63189924014502 -27.13184883958336 0.0 -3.1347418513022145 -26.75527024614675 0.0 -4.30164298599805 -26.22726060842802 0.0 -5.24095803884102 -25.5155297283289 0.0 -5.99882182241875 -24.6374447744114 0.0 -6.71845861274355 -23.61919122209181 0.0 -7.33344562083596 -27.77602908854775 0.0 -2.9789047173083395e-06 -27.60501472719372 0.0 -1.6527518605290599 -27.076352674407783 0.0 -3.141699190964973 -26.246184287205 0.0 -4.3674305860504505 -25.179415081917508 0.0 -5.334296652652981 -23.8822583043093 0.0 -6.13839539879252 -22.390242419629118 0.0 -6.83551490090712 -20.74370940982095 0.0 -7.393115001751781 -19.0740983177836 0.0 1.073529787045716e-05 -18.908697827188238 0.0 -2.0591088485188043 -18.426180768411854 0.0 -3.9145272732215157 -17.66260557327875 0.0 -5.461184305033 -16.66549513307254 0.0 -6.7260705726926995 -15.48353364725601 0.0 -7.808662264694551 -14.16328083075948 0.0 -8.773398810541678 -12.756074902135541 0.0 -9.57699738872952 -12.68096468913598 0.0 6.5972666577943e-06 -12.54683802261456 0.0 -2.450108592868888 -12.15724499680733 0.0 -4.667046143420361 -11.54713333808762 0.0 -6.529800896835581 -10.76398115587472 0.0 -8.06853469520696 -9.85837581662328 0.0 -9.401415742249018 -8.87850483967116 0.0 -10.61449383532104 -7.8718736473453905 0.0 -11.6698687459793 -7.9877798178926405 0.0 -8.66003431735722e-06 -7.898900837621521 0.0 -2.7502077984691264 -7.6427718501036015 0.0 -5.23813120134192 -7.24830414203094 0.0 -7.324339657533749 -6.755802849878281 0.0 -9.037043089813201 -6.208688698555599 0.0 -10.508061002853 -5.6478273144543 0.0 -11.84530741811375 -5.10901676371366 0.0 -13.027676744872158 -3.7043901803517696 0.0 1.542104699642455e-05 -3.666848778239914 0.0 -2.9200371886276937 -3.56097408791432 0.0 -5.552474766189119 -3.4047561416657715 0.0 -7.740244779249111 -3.223435779385425 0.0 -9.50689491130386 -3.04360180394256 0.0 -10.993005178226399 -2.889101987112393 0.0 -12.326245175723312 -2.77616341763938 0.0 -13.50969178477384 0.8962590180250841 0.0 2.256180507662704e-05 0.8843872463749838 0.0 -2.943476140503844 0.8473747993147199 0.0 -5.5820246567952 0.7813062449444881 0.0 -7.746021218721081 0.6817710298650009 0.0 -9.45469065211198 0.546065606921095 0.0 -10.8536816059911 0.3751529185516515 0.0 -12.08634847964804 0.1782050260576875 0.0 -13.18140850768725 5.83544898314649 0.0 1.53720842086623e-05 5.78233801705788 0.0 -2.828618255821122 5.62668393575313 0.0 -5.346503734728509 5.3797522816948495 0.0 -7.3800468652509 5.05971069404325 0.0 -8.94731956411125 4.69040778567885 0.0 -10.19660808364005 4.30109163300565 0.0 -11.281090783259451 3.9277846870277346 0.0 -12.250053049391521 10.78139984474515 0.0 5.7864149924648e-06 10.697535030632478 0.0 -2.603656524805416 10.45404319135555 0.0 -4.90395937547635 10.07589619563219 0.0 -6.733247802703081 9.601300324179359 0.0 -8.112814725398039 9.078818213182501 0.0 -9.192096494760001 8.56387958278215 0.0 -10.12709472730905 8.11694296049273 0.0 -10.97697190506098 15.51299159994388 0.0 2.7372727175661142e-05 15.40811866339391 0.0 -2.3083255263975033 15.1058091296092 0.0 -4.33309253111425 14.641107991961153 0.0 -5.9216799866268 14.06759009537728 0.0 -7.102645098953602 13.452306046313401 0.0 -8.0245639291699 12.870393908754549 0.0 -8.838398105103249 12.400162259682551 0.0 -9.5999653883876 20.07771791192575 0.0 2.0930209905075432e-05 19.960322959390037 0.0 -1.9837710130877722 19.62281010155068 0.0 -3.7136875011680752 19.107305574872658 0.0 -5.059093922512799 18.47687206438855 0.0 -6.05753036944459 17.808883581713562 0.0 -6.85342179985904 17.18837598102072 0.0 -7.584340138610849 16.70146492458435 0.0 -8.290180699058102 24.61242432114565 0.0 -9.56114022655286e-06 24.489799775347397 0.0 -1.6648957839055358 24.13826804213523 0.0 -3.11241848464696 23.60352451809957 0.0 -4.23764942432238 22.9526570383924 0.0 -5.0861922402764 22.264351749853383 0.0 -5.79329748430467 21.62235365896671 0.0 -6.475110155948069 21.10912623935197 0.0 -7.14608404251748 28.44661717548308 0.0 2.4528808820600696e-06 28.352026657357737 0.0 -1.3567092778155272 28.115690737915763 0.0 -2.5438629914496262 27.761703983994163 0.0 -3.48238529745616 27.241997834087826 0.0 -4.22499852711006 26.67736208416605 0.0 -4.8876110764424 26.09902422725554 0.0 -5.55064510986072 25.58869068522675 0.0 -6.19860879162971 30.02296193411012 0.0 -6.50418751932882e-07 29.999670758238878 0.0 -1.043106512101424 29.930936367209604 0.0 -1.9580108601156498 29.80654367820574 0.0 -2.6897960006338435 29.607253885656647 0.0 -3.3162686817611404 29.398451152964522 0.0 -3.917529271996901 29.11267831852106 0.0 -4.56347169240032 28.865572260239198 0.0 -5.1915893655281495 30.6901713548448 0.0 -6.0444645387429e-06 30.674869289220965 0.0 -0.7763108187222719 30.636413549472056 0.0 -1.437714702165357 30.58238312144877 0.0 -1.9793053142512802 30.516389601290008 0.0 -2.4621066970791388 30.471529292892452 0.0 -2.954159084231901 30.369050735988957 0.0 -3.5096793737165286 30.303546607905567 0.0 -4.039385537816319 31.10319940302312 0.0 -5.3641080969392e-06 31.09915477240957 0.0 -0.561420066593358 31.087213496605923 0.0 -1.0545696874071901 31.044933985565923 0.0 -1.4816071599377438 31.02125424744099 0.0 -1.8512562944427888 30.97432761982224 0.0 -2.2659785347255124 30.9835668067354 0.0 -2.71031931115439 30.949377411384905 0.0 -3.0900261154345703 31.26090748263043 0.0 3.9546258275951245e-06 31.243073053235157 0.0 -0.464261404664512 31.220488475658346 0.0 -0.869648020573535 31.220543473400962 0.0 -1.220563234670976 31.239850095026725 0.0 -1.5054249049460322 31.2726099102235 0.0 -1.7184280987146003 31.2383962229257 0.0 -1.9993030065563822 31.2339619677436 0.0 -2.2372435858941 31.477908272265 0.0 5.323361895184901e-07 31.45880035171984 0.0 -0.40000894202178877 31.40354242033516 0.0 -0.706280462206989 31.364500168426748 0.0 -0.9160915494752251 31.37536084989245 0.0 -1.1409931167658312 31.40709130808494 0.0 -1.3869478713803878 31.455649288321602 0.0 -1.5588460570834644 31.500658666712777 0.0 -1.6741553350278502 31.595844806390836 0.0 -6.45048482119436e-06 31.56420463563644 0.0 -0.2344802659241998 31.542778182952542 0.0 -0.500140367037162 31.517147571529723 0.0 -0.7427394203787521 31.509476016451508 0.0 -0.9617481327616468 31.51187917472898 0.0 -1.12946100341128 31.53498010568374 0.0 -1.2488480885633928 31.587932283318402 0.0 -1.227522982015198 31.59176866792542 0.0 -8.56578462931089e-07 31.583581595948043 0.0 -0.2108914619592993 31.55482006840368 0.0 -0.42008377525780805 31.532559283096617 0.0 -0.6036227117264639 31.528482327485698 0.0 -0.74792769096045 31.535776931848385 0.0 -0.8469430561657262 31.551448423782837 0.0 -0.863872870085148 31.590530428928275 0.0 -0.8348793952633291 31.4667995909946 0.0 -1.504956572921025e-06 31.463985504700545 0.0 -0.1291016877148439 31.438101325874882 0.0 -0.3026907412333896 31.410526696197834 0.0 -0.437370788343033 31.4174776049199 0.0 -0.50878215657387 31.432507656251765 0.0 -0.5327835401390939 31.47634477951752 0.0 -0.512364741628746 31.543232744977917 0.0 -0.4494024234420479 31.212195940010957 0.0 -8.72101164693304e-07 31.20874095684304 0.0 -0.0650617439885344 31.21523826547854 0.0 -0.13005727715020318 31.1817401381762 0.0 -0.274307174947353 31.191405666872843 0.0 -0.2815653768915224 31.24517128410438 0.0 -0.2569126917093957 31.303928350171866 0.0 -0.2009068638067775 31.49806561541068 0.0 -0.16296826096419442 30.87298585498896 0.0 1.0044179259592322e-06 30.873231573155998 0.0 -0.014339719160594518 30.89647064566881 0.0 -0.01575432409773339 30.886774099584002 0.0 -0.08145031364904001 30.91228434901944 0.0 -0.0846537523971336 30.995102185013398 0.0 -0.01177047025218372 31.201546328282458 0.0 0.02603766355908042 31.57817436164244 0.0 0.10343553711074639 30.506788880944203 0.0 -2.0798634757281484e-06 30.513578652733862 0.0 0.03727082713006272 30.54451642827312 0.0 0.08958725140170659 30.592624486377424 0.0 0.0742165369450854 30.645712777057348 0.0 0.0745010504698845 30.867425660961537 0.0 0.1424539688659407 31.296230884180503 0.0 0.22588406376530398 32.04048823116288 0.0 0.28024689541584 30.22023163539051 0.0 9.07078249436256e-07 30.21521161305348 0.0 0.0831717337556754 30.29317807700736 0.0 0.159977582417889 30.39722091696504 0.0 0.1824057080430912 30.647606330472478 0.0 0.214280357194296 31.05080121283185 0.0 0.27054110655757946 31.855594245055435 0.0 0.3199129517113104 33.3082924000848 0.0 0.423182910195936 30.157025750749796 0.0 4.1488203186234e-06 30.221119670996277 0.0 0.1179774624448038 30.30703474858872 0.0 0.196837146503526 30.653311218068698 0.0 0.246862726797168 31.05620194730823 0.0 0.2503063944411591 31.89981058764192 0.0 0.2955608094879648 33.339111464162706 0.0 0.330716430962568 35.74974429619983 0.0 0.4003850734123929 30.717355782658323 0.0 7.2669527000211606e-06 30.80257451866377 0.0 0.10998455415761339 31.05226406796921 0.0 0.1649397153959613 31.48919364523932 0.0 0.18957635192458439 32.40248241742091 0.0 0.196705498647114 33.972844941434275 0.0 0.1846913995934586 36.1253652239685 0.0 0.13246208892466918 39.241233282518124 0.0 0.10532982191235268 32.32039332226339 0.0 7.34785541735841e-06 32.37597774481772 0.0 0.03693203621182472 32.85632077317106 0.0 0.0692106953910438 33.656415623861896 0.0 0.0162249370723654 35.0331660044236 0.0 -0.0949512380728645 37.23167950856728 0.0 -0.152373304052541 40.20231153667719 0.0 -0.22477734958280038 44.4501632757378 0.0 0.0072794316283171 35.358176883562 0.0 7.019437941459201e-06 35.54842212830968 0.0 -0.08590127078486201 36.168529912089305 0.0 -0.2144589777008855 37.23941149887924 0.0 -0.4278332964347121 39.24215023145652 0.0 -0.461283716525622 42.217349528556305 0.0 -0.33245510827543145 46.136549382603405 0.0 -0.1425183737293757 50.9981476128278 0.0 0.3553013236484502 40.305677713529796 0.0 4.52595491514166e-06 40.5479614056302 0.0 -0.13871799466557191 41.1820850944792 0.0 -0.5164318734575439 42.6091993668392 0.0 -0.589442428336388 44.910593730413794 0.0 -0.528959942785259 48.275389318514 0.0 -0.2565137433646996 52.239510490548 0.0 0.025244055938929186 46.4269879495336 0.0 8.6901316133832e-06 46.6878604257014 0.0 -0.1350851852531422 47.4854174682364 0.0 -0.2640314089758769 48.81814275464399 0.0 -0.534295973204197 50.93036297153 0.0 -0.60613603462272 -1.360832234020805 0.0 0.1535560638389015 -1.315317552882938 0.0 0.18244181256104522 -1.2540367513509179 0.0 0.21214428530360702 -1.1758144693953612 0.0 0.2445667341141682 -1.079549066988726 0.0 0.2791549749788742 -0.9648346241208651 0.0 0.31174031179350764 -0.8275520606888009 0.0 0.336801728420043 -1.6607689215192223 0.0 0.185318044632951 -1.6076019601900478 0.0 0.216227845405696 -1.535668238391705 0.0 0.24946661423666522 -1.445887796147194 0.0 0.2822123590553088 -1.3366413534160329 0.0 0.3153640838841019 -1.202493710062342 0.0 0.3447403046185074 -1.026631585665789 0.0 0.3666931251673279 -0.784061819601545 0.0 0.43251649081291205 -2.005252890131321 0.0 0.1960653369016333 -1.943018408575459 0.0 0.2246154616153864 -1.860199406504984 0.0 0.2528554743213867 -1.7584267239606672 0.0 0.2813211510330286 -1.639205600980139 0.0 0.3077233396930833 -1.492824197320604 0.0 0.3368063044201574 -1.2983810724595262 0.0 0.36854764121369077 -1.014251745356293 0.0 0.433210770830269 -2.374789099369726 0.0 0.1967193769179843 -2.303057137576427 0.0 0.22123907353097672 -2.2089920552248006 0.0 0.24427648210691194 -2.0960846524021153 0.0 0.2675056506876411 -1.9703415292585371 0.0 0.2876394351909857 -1.8206352855158807 0.0 0.3120935518023386 -1.6173664404341603 0.0 0.3418682165467052 -1.292663592316589 0.0 0.4163936904098419 -2.7838543495963575 0.0 0.1917110967927773 -2.7026917075672907 0.0 0.2119458252986455 -2.59727046493176 0.0 0.2303395097584876 -2.474343341858582 0.0 0.2471731741793292 -2.343369178584228 0.0 0.26062241451556023 -2.192351574808788 0.0 0.2795473149886827 -1.981603489540086 0.0 0.3072330556808262 -1.614930000373249 0.0 0.3985168539629211 -3.243463961086597 0.0 0.18394676859866912 -3.152943518823586 0.0 0.20064068501601703 -3.036764595919113 0.0 0.2133685413342134 -2.9045952726148805 0.0 0.2226262615656564 -2.7693268692331703 0.0 0.2280399377009983 -2.6186972254674292 0.0 0.2412311620307789 -2.40183246004581 0.0 0.2695053187376328 -1.988600969715023 0.0 0.38824006170600134 -3.753427973835697 0.0 0.1774670884366771 -3.6542244913556106 0.0 0.1891225847280645 -3.5282338082058433 0.0 0.1950486488762161 -3.388202764705067 0.0 0.19540567688514182 -3.249960801249018 0.0 0.1932914768322868 -3.1019623575490574 0.0 0.2031929050798225 -2.88491447212286 0.0 0.2391750379793758 -2.421424180535603 0.0 0.402823650070591 -4.30768850769221 0.0 0.1764877484121936 -4.20025290500632 0.0 0.1823985125599627 -4.065427701635691 0.0 0.1807591965189798 -3.9193756979843903 0.0 0.1722856563071413 -3.7813076945326904 0.0 0.1656385481409636 -3.6451042911276055 0.0 0.1730556523263912 -3.4366883259172054 0.0 0.228047565701189 -2.925319753132992 0.0 0.45759813143995304 -4.90016972250424 0.0 0.18822608470565202 -4.78485971962149 0.0 0.1888695527217387 -4.64231371605784 0.0 0.1801059765026493 -4.49095971227399 0.0 0.166608244165206 -4.35744850893621 0.0 0.1544546158613653 -4.23206170580154 0.0 0.17444763636119082 -4.05252570131314 0.0 0.24461975811549383 -3.5355042483876042 0.0 0.5215263330381581 -5.5261721381543 0.0 0.2210821455270535 -5.403320535083011 0.0 0.21778378944459462 -5.2541849313546205 0.0 0.202784925069623 -5.098567327464179 0.0 0.1880831767020793 -4.97584732439618 0.0 0.1719207802980194 -4.876517721912941 0.0 0.1908130687703266 -4.75625491890637 0.0 0.2533508383337708 -4.339886508497161 0.0 0.47848589196214697 -6.18090335452258 0.0 0.2824927390623183 -6.049756951243921 0.0 0.2763970429099259 -5.897286947432171 0.0 0.2567850664196265 -5.74923134373078 0.0 0.2365054179126353 -5.63993734099843 0.0 0.2191240374781008 -5.5903717397592905 0.0 0.22063599351589971 -5.574626939365671 0.0 0.2479225221980629 -5.4068161351704 0.0 0.3201080400027008 -6.861581771539541 0.0 0.37892726547318145 -6.72290576807264 0.0 0.370062169251554 -6.5635881640897 0.0 0.3565511089137775 -6.427398160684951 0.0 0.32971697624292423 -6.351461758786541 0.0 0.3037698835942469 -6.37751495943787 0.0 0.3068737116718426 -6.506275362656881 0.0 0.35874405696860123 -6.52723096318077 0.0 0.483634972090874 -7.570297389257431 0.0 0.5054877326371932 -7.41755698543892 0.0 0.520753013018825 -7.258645781466141 0.0 0.50684521267113 -7.13393737834843 0.0 0.49686281242157 -7.09907257747681 0.0 0.5170328129258199 -7.24068618101715 0.0 0.6080883352022081 -7.49057778726444 0.0 0.9712440642811011 -7.66956059173901 0.0 1.482717157067928 -8.30572620764315 0.0 0.6650423766260589 -8.13880100347002 0.0 0.7031160575779011 -7.97305699932642 0.0 0.725647058141176 -7.86877779671944 0.0 0.7604894990122371 -7.910308997757721 0.0 0.867285741682143 -8.172803004320071 0.0 1.115565507889137 -8.62136101553402 0.0 1.6538151213453771 -9.07288782682219 0.0 2.260303536507587 -9.066212626655311 0.0 0.859617261490431 -8.883981422099529 0.0 0.925099783127494 -8.70804461770111 0.0 0.994461944861548 -8.622879815571991 0.0 1.084050987101274 -8.74518381862959 0.0 1.266927191673179 -9.172751829318791 0.0 1.599435559985888 -9.8930202473255 0.0 2.1165083329127072 -10.6708842667721 0.0 2.753350508833761 -9.85327944633198 0.0 1.070804226770105 -9.65090984127274 0.0 1.162852589071314 -9.459625436490631 0.0 1.276402391910059 -9.385727034643171 0.0 1.419708875492721 -9.58120063953001 0.0 1.633627160840678 -10.16504385412609 0.0 1.9849415296235373 -11.15156267878906 0.0 2.461597901539946 -12.3308483082712 0.0 3.1040032376000792 -10.662844266571101 0.0 1.27627403190685 -10.43663066091576 0.0 1.397683074942076 -10.22763785569094 0.0 1.5358271983956788 -10.156695853917391 0.0 1.7031444825786108 -10.405089860127239 0.0 1.9359526083988141 -11.125177878129442 0.0 2.2875292571882304 -12.35175830879395 0.0 2.7639529090988213 -13.88285714707142 0.0 3.437492845937319 -11.491664287291599 0.0 1.4685800767145012 -11.23647948091198 0.0 1.6124979603124479 -11.00536227513405 0.0 1.760930124023252 -10.924666273116651 0.0 1.9504574487614348 -11.22234748055868 0.0 2.1833050145826243 -12.06378270159456 0.0 2.5328429033210713 -13.497343937433593 0.0 3.0422825560570623 -15.319717982992941 0.0 3.7498722937468045 -12.33463310836582 0.0 1.6371435609285878 -12.04778310119457 0.0 1.792763164819078 -11.788749894718741 0.0 1.942842328571057 -11.7077442926936 0.0 2.133109533327737 -12.041528701038212 0.0 2.3831328195783192 -12.99723072493076 0.0 2.7496393887409827 -14.626897165672421 0.0 3.28976448224411 -16.696611617415282 0.0 4.03615490090387 -13.18989912974747 0.0 1.7720991643024777 -12.862956721573909 0.0 1.9388321284708023 -12.57483311437082 0.0 2.0835398120884943 -12.488161112204022 0.0 2.2739336568483397 -12.86429472160736 0.0 2.5386088234652195 -13.938089148452221 0.0 2.928948113223701 -15.771521194288022 0.0 3.4932244073306085 -18.07905605197639 0.0 4.29409570735239 -14.05214715130367 0.0 1.868576686714416 -13.68195074204876 0.0 2.040634011015849 -13.360264734006611 0.0 2.1837454545936352 -13.2691243317281 0.0 2.367540619188514 -13.686355942158892 0.0 2.6513317862832935 -14.88269677206741 0.0 3.066527996663198 -16.91887722297192 0.0 3.6659947316498656 -19.491734887293358 0.0 4.5062725126568095 -14.920628773015713 0.0 1.921497408037434 -14.50333596258339 0.0 2.093137412328434 -14.141703953542594 0.0 2.239568975989223 -14.04274475106861 0.0 2.420515700512891 -14.50045956251148 0.0 2.71973806799345 -15.824589995614739 0.0 3.157147478928685 -18.074384051859592 0.0 3.785654174641352 -20.923320523083003 0.0 4.65935491648387 -15.78951439473785 0.0 1.9231699280792471 -15.320726383018153 0.0 2.091757452293935 -14.914671572866782 0.0 2.243216576080413 -14.80197957004948 0.0 2.4242750606068753 -15.302633982565842 0.0 2.732960788324018 -16.75581841889545 0.0 3.1910282797757055 -19.22639808065994 0.0 3.8405900160147484 -22.362376959059414 0.0 4.7392153184803805 -16.65448582342788 0.0 1.861895209613273 -16.1298550920923 0.0 2.0250621563796 -15.67601282234048 0.0 2.18195943669008 -15.54383100775891 0.0 2.3588809705549516 -16.08545577298198 0.0 2.6747515363608927 -17.6682297534275 0.0 3.1516872912804503 -20.36737695404132 0.0 3.8154675509414306 -23.80216281412698 0.0 4.7312276258758805 -17.51131964950128 0.0 1.7253868337461444 -16.928149962664712 0.0 1.8803570412163682 -16.421563413061918 0.0 2.0344286133792 -16.264830881020263 0.0 2.2047161998589697 -16.84599585422382 0.0 2.520840461931765 -18.559226809960947 0.0 3.0209301956189427 -21.49542565867575 0.0 3.6944836685738704 -25.241199987536042 0.0 4.62723983574777 -18.3564645894512 0.0 1.504329698964296 -17.71373061593188 0.0 1.6351999781768878 -17.152598117141398 0.0 1.7766430354666949 -16.96553582397382 0.0 1.93818816310582 -17.58588145986972 0.0 2.2494254156823 -19.43253625586009 0.0 2.7709566271723483 -22.619742683909998 0.0 3.462977783318598 -26.697754460309998 0.0 4.41711425572 -19.1848846192542 0.0 1.188872205868431 -18.48357894028428 0.0 1.2798815769261358 -17.865570877798138 0.0 1.390329353964849 -17.64819591688479 0.0 1.5363685741835191 -18.30875772046608 0.0 1.8367882962237718 -20.2984566026004 0.0 2.3766032767394396 -23.75958319390368 0.0 3.102494673074016 -28.2141649127757 0.0 4.08429498071325 -19.987603768514322 0.0 0.7644289025330421 -19.230099742872078 0.0 0.795568218501562 -18.55739727229037 0.0 0.8553135271794741 -18.312103167963862 0.0 0.984646243541448 -19.02015810482172 0.0 1.260913631942516 -21.16825111871015 0.0 1.819901585067454 -24.93286933406556 0.0 2.5929939696277122 -29.838930974386447 0.0 3.6225641738025387 -20.743458033475832 0.0 0.2030899507479399 -19.93508310240141 0.0 0.16733212189166488 -19.21061081543604 0.0 0.164401310589516 -18.9556045565385 0.0 0.24424218442741258 -19.706946615744002 0.0 0.49117849847232 -22.03035505592553 0.0 1.0525468985582127 -26.12962566420651 0.0 1.915461368182368 -31.578095894519162 0.0 3.0250248385847582 -21.40153987691691 0.0 -0.42670971218580295 -20.55263150432994 0.0 -0.576924139970532 -19.782793068714902 0.0 -0.678087236000286 -19.50459472700154 0.0 -0.6426691525211611 -20.325292767655647 0.0 -0.47734503974361003 -22.83090217655328 0.0 0.0994019860652508 -27.29954009476254 0.0 1.0593321339961739 -33.380067429706955 0.0 2.3083792888932897 -21.952261719283342 0.0 -1.2347509853033478 -20.99874390697476 0.0 -1.435003265267622 -20.19150791847552 0.0 -1.6113855731075521 -19.93750555676676 0.0 -1.70698767057429 -20.8557544201275 0.0 -1.6422405940229998 -23.520934676330043 0.0 -1.07069714078505 -28.355476371332585 0.0 0.034751864423763934 -35.071737201394434 0.0 1.451871140404046 -22.349284788058323 0.0 -2.192032077535615 -21.344829599811003 0.0 -2.4762604417633334 -20.50364592416635 0.0 -2.778047981407249 -20.25277105370288 0.0 -2.9954142761558398 -21.25523608617825 0.0 -2.946645199338612 -24.152970445441195 0.0 -2.4262429325069097 -29.34145891823134 0.0 -1.1801173068102981 -36.58535952550878 0.0 0.628320532414036 -22.61847072570536 0.0 -3.3017062825746115 -21.56433365171899 0.0 -3.7131021709214367 -20.723394751623 0.0 -4.1204925573009 -20.48940095902497 0.0 -4.39882415350056 -21.59482976747145 0.0 -4.43258036278565 -24.695389061330978 0.0 -3.8609441315535538 -30.155795247734307 0.0 -2.4677704244591196 -37.735637853647525 0.0 -0.16317436932012422 -22.770110657594394 0.0 -4.62109852129442 -21.722135784449762 0.0 -5.16259068226644 -20.8434288064398 0.0 -5.6763002710605 -20.6205880681125 0.0 -6.0337701613800006 -21.767092708891386 0.0 -6.01639695941879 -25.03243051980541 0.0 -5.2445526750612395 -30.70850379189877 0.0 -3.778362376189919 -38.048399607375025 0.0 -0.6806018366361221 -22.787784268282323 0.0 -6.245489266194289 -21.680003640200482 0.0 -6.760113288582399 -20.7417122593853 0.0 -7.2173030542951 -20.44353951989443 0.0 -7.51829397396709 -21.47207773091092 0.0 -7.54085671081164 -24.621497125220703 0.0 -6.8138789764185 -30.097545882823802 0.0 -5.01084333618318 -35.8619447257698 0.0 -0.3995605292569845 -22.390768772735203 0.0 -7.774563270178481 -21.0142013844828 0.0 -8.054005048384349 -19.69050446140554 0.0 -8.29214426260689 -19.07826257675828 0.0 -8.7629868345976 -20.2181335178578 0.0 -9.164437368530848 -22.6573851633888 0.0 -8.31117429645096 -25.161413065569686 0.0 -6.63366907186256 -25.87378370256925 0.0 -1.597810878379135 -18.99436795521731 0.0 -7.72978162164658 -17.17842473285088 0.0 -8.60485973444688 -15.694052395695179 0.0 -10.4464323140541 -14.906214993236762 0.0 -11.53535362388816 -14.432304933916598 0.0 -11.518672110919551 -14.18859691130115 0.0 -10.542843493915049 -14.0715197066264 0.0 -7.95967673506278 -14.149816310320901 0.0 -2.8289377408269183 -11.332438155656591 0.0 -10.08669031957615 -9.9768751570025 0.0 -10.512626523521249 -8.75544521660932 0.0 -12.49215596936375 -7.866250080216 0.0 -13.488405655895551 -7.37939808925956 0.0 -13.199254516757401 -7.1824787230456 0.0 -12.1035623222072 -7.21023261736904 0.0 -9.15822593155092 -7.40455155604294 0.0 -2.391313670409989 -6.89243801847336 0.0 -12.41914739703216 -6.0020834820837 0.0 -12.897449693982699 -5.2681413427488 0.0 -13.559733891593439 -4.7539164091907 0.0 -15.076631298913199 -4.49929512848604 0.0 -15.1467625350174 -4.51219296926085 0.0 -13.470487039541432 -4.748191070688 0.0 -10.26550826440659 -5.0601643636674 0.0 -0.9868175681953029 -4.624829805273 0.0 -13.911099796731001 -4.222693608573549 0.0 -14.529018860689899 -3.9250973460625795 0.0 -15.202530126776999 -3.76001857138611 0.0 -16.02458459240331 -3.7570792879276804 0.0 -16.3892281598136 -3.9222611260713176 0.0 -14.582363032318769 -4.21992376445748 0.0 -11.259487806661559 -4.536334741463559 0.0 -0.577989722272452 -2.71153836426511 0.0 -14.41744509405575 -2.692522554992444 0.0 -15.081508757850118 -2.7090326458608054 0.0 -15.79362546376131 -2.7601852910365174 0.0 -16.60018439443583 -2.8557515193654104 0.0 -16.87272799220285 -2.999455799498103 0.0 -15.37342190290445 -3.1827419898177114 0.0 -11.717753883587038 -3.367346268741352 0.0 -0.624830928051344 -0.02470168414969545 0.0 -14.0382492968185 -0.20621719535339522 0.0 -14.689209803834883 -0.3391506273520089 0.0 -15.39833784047631 -0.41019273767553477 0.0 -16.236665836691788 -0.421303272463152 0.0 -17.020000582921917 -0.3847261078616128 0.0 -15.87774811919424 -0.327060102491982 0.0 -11.81918152452372 -0.2801923484235867 0.0 -0.7818775073117551 3.6145294207260847 0.0 -13.02752370914764 3.4062490669298002 0.0 -13.650513059849118 3.3341270551629045 0.0 -14.375983368713118 3.4062672856811815 0.0 -15.5862634737381 3.6070139176391485 0.0 -16.87057862525025 3.900240828565491 0.0 -15.755911353582901 4.23192083900388 0.0 -11.44932266703192 4.531530946263101 0.0 -0.8413614145176811 7.800490011471081 0.0 -11.68133141789076 7.66892195586299 0.0 -12.27939589916871 7.7493963544399005 0.0 -13.02624531545792 7.99548945940404 0.0 -15.055752520229602 8.47033025990824 0.0 -16.07850521397696 8.9986755956703 0.0 -14.863285582929299 9.54957884825094 0.0 -10.797884282857169 10.047707772036 0.0 -0.9106137756830401 12.11601781364604 0.0 -10.25043572606676 12.07700234604585 0.0 -10.8210059196759 12.297214531343249 0.0 -11.58606564065175 12.625668117393602 0.0 -14.1491724839232 13.31390569505038 0.0 -14.782509737177907 14.061993772282639 0.0 -13.61523489898341 14.77012561834021 0.0 -9.82684057671233 15.33967139235232 0.0 -1.061727209985936 16.427403744595203 0.0 -8.9002550605584 16.4270940606946 0.0 -9.425672732871881 16.67036615521904 0.0 -10.26328466127712 16.94673242847617 0.0 -12.835161228322791 17.550730220906498 0.0 -13.3695110850775 18.5668847045118 0.0 -12.095104269537599 19.54999674839442 0.0 -8.67431258271315 20.06926198384248 0.0 -0.9661865009547 20.80017097961506 0.0 -7.714952366585321 20.75648082058225 0.0 -8.16662368792477 20.84946550607175 0.0 -9.122382315484499 20.75494508150133 0.0 -11.23258017855081 21.312347798768368 0.0 -11.815239828093132 22.44091803081464 0.0 -10.48881517273268 23.95190468910404 0.0 -7.15537768322186 24.43385950267857 0.0 -0.3376661194157139 25.224835438971066 0.0 -6.7173633791248095 25.0710815878549 0.0 -7.06930665114585 25.018186337172768 0.0 -7.808067502645549 24.624918172657107 0.0 -9.740263189778238 24.806419133078162 0.0 -10.049192588390762 25.699093965658353 0.0 -8.5494575425467 27.69080514901 0.0 -5.629648985228041 28.63457201140846 0.0 0.1738760517614742 28.635969154463147 0.0 -5.66151960323302 28.49611919956618 0.0 -5.916586010044239 28.522791258951226 0.0 -6.26071599729399 28.242235694778444 0.0 -8.15028024374428 28.27529659328166 0.0 -8.1213783641166 28.959826180325415 0.0 -6.5330918683135195 31.516169352189902 0.0 -4.290189798571951 33.0551327871067 0.0 0.6692265785808701 30.2048666010675 0.0 -4.3971642090900005 30.1505346101931 0.0 -4.51780526489058 30.29842233278208 0.0 -4.54699435068864 30.502839168596246 0.0 -5.873873299719509 31.354896338369524 0.0 -6.22113988504884 32.37281472734932 0.0 -4.72695703205866 35.44246522542708 0.0 -2.9840917070536563 37.85983285225045 0.0 1.5555989353426298 30.895476105116778 0.0 -3.315611587121304 30.90794134176529 0.0 -3.3075334332678534 31.163927036300798 0.0 -3.1909290770888963 31.91031252284873 0.0 -3.6030128268617387 33.336775083886515 0.0 -4.20178730747593 36.077274878372 0.0 -3.0916044604959 39.59254101074972 0.0 -1.5581542843326681 42.945478847843205 0.0 2.7453006088576495 31.23563273958164 0.0 -2.317132735948254 31.270698161553156 0.0 -2.2607788238480193 31.70014273096556 0.0 -2.18334625608494 32.79703143018983 0.0 -2.102925839921472 34.96736965295868 0.0 -2.224116516309989 39.06726669263419 0.0 -1.305919208119611 43.857736141301594 0.0 -0.1972042822314071 48.36432703998 0.0 4.075925532095679 31.50956199964077 0.0 -1.657437858849758 31.621882655291493 0.0 -1.5656431768576498 32.061580905589935 0.0 -1.3771248526161501 33.359404792598305 0.0 -1.228300114950754 36.23310822958384 0.0 -0.955630800591989 41.406496925934405 0.0 -0.0969279540482653 48.067220983092 0.0 1.15078060801665 54.27710277334961 0.0 5.77715837008286 31.632411213776198 0.0 -1.19233777120746 31.8596783310958 0.0 -1.0304127042139701 32.517124947755036 0.0 -0.8089379161158 34.1231716779744 0.0 -0.56661627599052 37.591508752201804 0.0 -0.09414685105523281 43.566431946768 0.0 0.84260418514344 51.94777216505041 0.0 2.013163626490362 61.572981216883505 0.0 5.20272307070046 31.70689041430665 0.0 -0.736788756883347 32.07647818039338 0.0 -0.56022277332924 33.0831414942387 0.0 -0.33731461097446397 35.2301016492685 0.0 -0.026968069650131998 39.3845012121135 0.0 0.4792561838882549 46.1540530229768 0.0 1.572955562394953 55.9012808170453 0.0 3.121078391193971 66.7987426197869 0.0 5.47293399576437 31.776502028443378 0.0 -0.37916210514695486 32.47546959357621 0.0 -0.1824664495813176 33.96042374052738 0.0 0.078907469456922 36.846261707781125 0.0 0.46492798544313596 41.838478907917995 0.0 1.1572846513324249 49.6650664145144 0.0 2.5080296644150275 60.39963366941419 0.0 4.12142212559371 31.9570826216472 0.0 -0.04796828918252 33.08652937111533 0.0 0.1446649421995074 35.3152453874016 0.0 0.48335527593132793 39.05997182855875 0.0 0.90832829075944 45.10722568348051 0.0 1.82521480870306 54.0907530590652 0.0 3.274236864010944 65.3123364500992 0.0 4.95673976239232 32.42225591657838 0.0 0.20090475783709133 34.20243784810892 0.0 0.4791358996250119 37.29415441555712 0.0 0.7908182431368399 42.0981487702356 0.0 1.236672048379642 49.4874534148816 0.0 2.410387516031432 59.390898382219206 0.0 3.8775678558675004 33.5288012976876 0.0 0.4412795317148401 36.107900904716544 0.0 0.705175996563639 40.221889503028194 0.0 0.9697709592401821 46.248741609854804 0.0 1.5176741314570061 54.8434023717678 0.0 2.818080893380382 65.075418876353 0.0 4.356975349651201 35.622247050845814 0.0 0.5455743983403839 39.12910712457012 0.0 0.6922176794233079 44.4617815267968 0.0 1.0082340489190258 51.59978696152649 0.0 1.818032303660685 60.973830497798396 0.0 3.2288392180175047 38.787941873437205 0.0 0.365544879748167 43.4597475788944 0.0 0.538790249312272 49.9235576048883 0.0 1.133264824698627 57.927622225431605 0.0 2.2426806502077845 43.4886027764304 0.0 0.1395143368848732 49.400374215155395 0.0 0.68369187496611 56.5669543737765 0.0 1.635663854843292 63.953357442183 0.0 2.8992881717749737 49.8452072453137 0.0 0.48405829385052795 56.14600264972599 0.0 1.3421267686691098 56.2602845106224 0.0 0.97794134700184 
TENSORS Ellispoids float
0.01 0.0 0.0 0.0 0.01 0.0 0.0 0.0 0.01 0.01 0.0 0.0 0.0 0.01 0.0 0.0 0.0 0.01 0.01 0.0 0.0 0.0 0.01 0.0 0.0 0.0 0.01 0.01 0.0 0.0 0.0 0.01 0.0 0.0 0.0 0.01 0.01 0.0 0.0 0.0 0.01 0.0 0.0 0.0 0.01 0.01 0.0 0.0 0.0 0.01 0.0 0.0 0.0 0.01 0.01 0.0 0.0 0.0 0.01 0.0 0.0 0.0 0.01 0.01 0.0 0.0 0.0 0.01 0.0 0.0 0.0 0.01 0.01 0.0 0.0 0.0 0.01 0.0 0.0 0.0 0.01 0.01 0.0 0.0 0.0 0.01 0.0 0.0 0.0 0.01 0.01 0.0 0.0 0.0 0.01 0.0 0.0 0.0 0.01 0.01 0.0 0.0 0.0 0.01 0.0 0.0 0.0 0.01 0.01 0.0 0.0 0.0 0.01 0.0 0.0 0.0 0.01 0.01 0.0 0.0 0.0 0.01 0.0 0.0 0.0 0.01 0.01 0.0 0.0 0.0 0.01 0.0 0.0 0.0 0.01 0.01 0.0 0.0 0.0 0.01 0.0 0.0 0.0 0.01 0.01 0.0 0.0 0.0 0.01 0.0 0.0 0.0 0.01 0.01 0.0 0.0 0.0 0.01 0.0 0.0 0.0 0.01 0.01 0.0 0.0 0.0 0.01 0.0 0.0 0.0 0.01 0.01 0.0 0.0 0.0 0.01 0.0 0.0 0.0 0.01 0.01 0.0 0.0 0.0 0.01 0.0 0.0 0.0 0.01 0.01 0.0 0.0 0.0 0.01 0.0 0.0 0.0 0.01 0.01 0.0 0.0 0.0 0.01 0.0 0.0 0.0 0.01 0.01 0.0 0.0 0.0 0.01 0.0 0.0 0.0 0.01 0.01 0.0 0.0 0.0 0.01 0.0 0.0 0.0 0.01 0.01 0.0 0.0 0.0 0.01 0.0 0.0 0.0 0.01 0.01 0.0 0.0 0.0 0.01 0.0 0.0 0.0 0.01 0.01 0.0 0.0 0.0 0.01 0.0 0.0 0.0 0.01 0.01 0.0 0.0 0.0 0.01 0.0 0.0 0.0 0.01 0.01 0.0 0.0 0.0 0.01 0.0 0.0 0.0 0.01 0.01 0.0 0.0 0.0 0.01 0.0 0.0 0.0 0.01 0.01 0.0 0.0 0.0 0.01 0.0 0.0 0.0 0.01 0.01 0.0 0.0 0.0 0.01 0.0 0.0 0.0 0.01 0.01 0.0 0.0 0.0 0.01 0.0 0.0 0.0 0.01 0.01 0.0 0.0 0.0 0.01 0.0 0.0 0.0 0.01 0.01 0.0 0.0 0.0 0.01 0.0 0.0 0.0 0.01 0.01 0.0 0.0 0.0 0.01 0.0 0.0 0.0 0.01 0.01 0.0 0.0 0.0 0.01 0.0 0.0 0.0 0.01 0.01 0.0 0.0 0.0 0.01 0.0 0.0 0.0 0.01 0.01 0.0 0.0 0.0 0.01 0.0 0.0 0.0 0.01 0.01 0.0 0.0 0.0 0.01 0.0 0.0 0.0 0.01 0.01 0.0 0.0 0.0 0.01 0.0 0.0 0.0 0.01 0.01 0.0 0.0 0.0 0.01 0.0 0.0 0.0 0.01 0.01 0.0 0.0 0.0 0.01 0.0 0.0 0.0 0.01 0.01 0.0 0.0 0.0 0.01 0.0 0.0 0.0 0.01 0.01 0.0 0.0 0.0 0.01 0.0 0.0 0.0 0.01 0.01 0.0 0.0 0.0 0.01 0.0 0.0 0.0 0.01 0.01 0.0 0.0 0.0 0.01 0.0 0.0 0.0 0.01 0.01 0.0 0.0 0.0 0.01 0.0 0.0 0.0 0.01 0.01 0.0 0.0 0.0 0.01 0.0 0.0 0.0 0.01 0.01 0.0 0.0 0.0 0.01 0.0 0.0 0.0 0.01 0.01 0.0 0.0 0.0 0.01 0.0 0.0 0.0 0.01 0.01 0.0 0.0 0.0 0.01 0.0 0.0 0.0 0.01 0.01 0.0 0.0 0.0 0.01 0.0 0.0 0.0 0.01 0.01 0.0 0.0 0.0 0.01 0.0 0.0 0.0 0.01 0.01 0.0 0.0 0.0 0.01 0.0 0.0 0.0 0.01 0.01 0.0 0.0 0.0 0.01 0.0 0.0 0.0 0.01 0.01 0.0 0.0 0.0 0.01 0.0 0.0 0.0 0.01 0.01 0.0 0.0 0.0 0.01 0.0 0.0 0.0 0.01 0.01 0.0 0.0 0.0 0.01 0.0 0.0 0.0 0.01 0.01 0.0 0.0 0.0 0.01 0.0 0.0 0.0 0.01 0.01 0.0 0.0 0.0 0.01 0.0 0.0 0.0 0.01 0.01 0.0 0.0 0.0 0.01 0.0 0.0 0.0 0.01 0.01 0.0 0.0 0.0 0.01 0.0 0.0 0.0 0.01 0.01 0.0 0.0 0.0 0.01 0.0 0.0 0.0 0.01 0.01 0.0 0.0 0.0 0.01 0.0 0.0 0.0 0.01 0.01 0.0 0.0 0.0 0.01 0.0 0.0 0.0 0.01 0.01 0.0 0.0 0.0 0.01 0.0 0.0 0.0 0.01 0.01 0.0 0.0 0.0 0.01 0.0 0.0 0.0 0.01 0.01 0.0 0.0 0.0 0.01 0.0 0.0 0.0 0.01 0.01 0.0 0.0 0.0 0.01 0.0 0.0 0.0 0.01 0.01 0.0 0.0 0.0 0.01 0.0 0.0 0.0 0.01 0.01 0.0 0.0 0.0 0.01 0.0 0.0 0.0 0.01 0.01 0.0 0.0 0.0 0.01 0.0 0.0 0.0 0.01 0.01 0.0 0.0 0.0 0.01 0.0 0.0 0.0 0.01 0.01 0.0 0.0 0.0 0.01 0.0 0.0 0.0 0.01 0.01 0.0 0.0 0.0 0.01 0.0 0.0 0.0 0.01 0.01 0.0 0.0 0.0 0.01 0.0 0.0 0.0 0.01 0.01 0.0 0.0 0.0 0.01 0.0 0.0 0.0 0.01 0.01 0.0 0.0 0.0 0.01 0.0 0.0 0.0 0.01 0.01 0.0 0.0 0.0 0.01 0.0 0.0 0.0 0.01 0.01 0.0 0.0 0.0 0.01 0.0 0.0 0.0 0.01 0.01 0.0 0.0 0.0 0.01 0.0 0.0 0.0 0.01 0.01 0.0 0.0 0.0 0.01 0.0 0.0 0.0 0.01 0.01 0.0 0.0 0.0 0.01 0.0 0.0 0.0 0.01 0.01 0.0 0.0 0.0 0.01 0.0 0.0 0.0 0.01 0.01 0.0 0.0 0.0 0.01 0.0 0.0 0.0 0.01 0.01 0.0 0.0 0.0 0.01 0.0 0.0 0.0 0.01 0.01 0.0 0.0 0.0 0.01 0.0 0.0 0.0 0.01 0.01 0.0 0.0 0.0 0.01 0.0 0.0 0.0 0.01 0.01 0.0 0.0 0.0 0.01 0.0 0.0 0.0 0.01 0.01 0.0 0.0 0.0 0.01 0.0 0.0 0.0 0.01 0.01 0.0 0.0 0.0 0.01 0.0 0.0 0.0 0.01 0.01 0.0 0.0 0.0 0.01 0.0 0.0 0.0 0.01 0.01 0.0 0.0 0.0 0.01 0.0 0.0 0.0 0.01 0.01 0.0 0.0 0.0 0.01 0.0 0.0 0.0 0.01 0.01 0.0 0.0 0.0 0.01 0.0 0.0 0.0 0.01 0.01 0.0 0.0 0.0 0.01 0.0 0.0 0.0 0.01 0.01 0.0 0.0 0.0 0.01 0.0 0.0 0.0 0.01 0.01 0.0 0.0 0.0 0.01 0.0 0.0 0.0 0.01 0.01 0.0 0.0 0.0 0.01 0.0 0.0 0.0 0.01 0.01 0.0 0.0 0.0 0.01 0.0 0.0 0.0 0.01 0.01 0.0 0.0 0.0 0.01 0.0 0.0 0.0 0.01 0.01 0.0 0.0 0.0 0.01 0.0 0.0 0.0 0.01 0.01 0.0 0.0 0.0 0.01 0.0 0.0 0.0 0.01 0.01 0.0 0.0 0.0 0.01 0.0 0.0 0.0 0.01 0.01 0.0 0.0 0.0 0.01 0.0 0.0 0.0 0.01 0.01 0.0 0.0 0.0 0.01 0.0 0.0 0.0 0.01 0.01 0.0 0.0 0.0 0.01 0.0 0.0 0.0 0.01 0.01 0.0 0.0 0.0 0.01 0.0 0.0 0.0 0.01 0.01 0.0 0.0 0.0 0.01 0.0 0.0 0.0 0.01 0.01 0.0 0.0 0.0 0.01 0.0 0.0 0.0 0.01 0.01 0.0 0.0 0.0 0.01 0.0 0.0 0.0 0.01 0.01 0.0 0.0 0.0 0.01 0.0 0.0 0.0 0.01 0.01 0.0 0.0 0.0 0.01 0.0 0.0 0.0 0.01 0.01 0.0 0.0 0.0 0.01 0.0 0.0 0.0 0.01 0.01 0.0 0.0 0.0 0.01 0.0 0.0 0.0 0.01 0.01 0.0 0.0 0.0 0.01 0.0 0.0 0.0 0.01 0.01 0.0 0.0 0.0 0.01 0.0 0.0 0.0 0.01 0.01 0.0 0.0 0.0 0.01 0.0 0.0 0.0 0.01 0.01 0.0 0.0 0.0 0.01 0.0 0.0 0.0 0.01 0.01 0.0 0.0 0.0 0.01 0.0 0.0 0.0 0.01 0.01 0.0 0.0 0.0 0.01 0.0 0.0 0.0 0.01 0.01 0.0 0.0 0.0 0.01 0.0 0.0 0.0 0.01 0.01 0.0 0.0 0.0 0.01 0.0 0.0 0.0 0.01 0.01 0.0 0.0 0.0 0.01 0.0 0.0 0.0 0.01 0.01 0.0 0.0 0.0 0.01 0.0 0.0 0.0 0.01 0.01 0.0 0.0 0.0 0.01 0.0 0.0 0.0 0.01 0.01 0.0 0.0 0.0 0.01 0.0 0.0 0.0 0.01 0.01 0.0 0.0 0.0 0.01 0.0 0.0 0.0 0.01 0.01 0.0 0.0 0.0 0.01 0.0 0.0 0.0 0.01 0.01 0.0 0.0 0.0 0.01 0.0 0.0 0.0 0.01 0.01 0.0 0.0 0.0 0.01 0.0 0.0 0.0 0.01 0.01 0.0 0.0 0.0 0.01 0.0 0.0 0.0 0.01 0.01 0.0 0.0 0.0 0.01 0.0 0.0 0.0 0.01 0.01 0.0 0.0 0.0 0.01 0.0 0.0 0.0 0.01 0.01 0.0 0.0 0.0 0.01 0.0 0.0 0.0 0.01 0.01 0.0 0.0 0.0 0.01 0.0 0.0 0.0 0.01 0.01 0.0 0.0 0.0 0.01 0.0 0.0 0.0 0.01 0.01 0.0 0.0 0.0 0.01 0.0 0.0 0.0 0.01 0.01 0.0 0.0 0.0 0.01 0.0 0.0 0.0 0.01 0.01 0.0 0.0 0.0 0.01 0.0 0.0 0.0 0.01 0.01 0.0 0.0 0.0 0.01 0.0 0.0 0.0 0.01 0.01 0.0 0.0 0.0 0.01 0.0 0.0 0.0 0.01 0.01 0.0 0.0 0.0 0.01 0.0 0.0 0.0 0.01 0.01 0.0 0.0 0.0 0.01 0.0 0.0 0.0 0.01 0.01 0.0 0.0 0.0 0.01 0.0 0.0 0.0 0.01 0.01 0.0 0.0 0.0 0.01 0.0 0.0 0.0 0.01 0.01 0.0 0.0 0.0 0.01 0.0 0.0 0.0 0.01 0.01 0.0 0.0 0.0 0.01 0.0 0.0 0.0 0.01 0.01 0.0 0.0 0.0 0.01 0.0 0.0 0.0 0.01 0.01 0.0 0.0 0.0 0.01 0.0 0.0 0.0 0.01 0.01 0.0 0.0 0.0 0.01 0.0 0.0 0.0 0.01 0.01 0.0 0.0 0.0 0.01 0.0 0.0 0.0 0.01 0.01 0.0 0.0 0.0 0.01 0.0 0.0 0.0 0.01 0.01 0.0 0.0 0.0 0.01 0.0 0.0 0.0 0.01 0.01 0.0 0.0 0.0 0.01 0.0 0.0 0.0 0.01 0.01 0.0 0.0 0.0 0.01 0.0 0.0 0.0 0.01 0.01 0.0 0.0 0.0 0.01 0.0 0.0 0.0 0.01 0.01 0.0 0.0 0.0 0.01 0.0 0.0 0.0 0.01 0.01 0.0 0.0 0.0 0.01 0.0 0.0 0.0 0.01 0.01 0.0 0.0 0.0 0.01 0.0 0.0 0.0 0.01 0.01 0.0 0.0 0.0 0.01 0.0 0.0 0.0 0.01 0.01 0.0 0.0 0.0 0.01 0.0 0.0 0.0 0.01 0.01 0.0 0.0 0.0 0.01 0.0 0.0 0.0 0.01 0.01 0.0 0.0 0.0 0.01 0.0 0.0 0.0 0.01 0.01 0.0 0.0 0.0 0.01 0.0 0.0 0.0 0.01 0.01 0.0 0.0 0.0 0.01 0.0 0.0 0.0 0.01 0.01 0.0 0.0 0.0 0.01 0.0 0.0 0.0 0.01 0.01 0.0 0.0 0.0 0.01 0.0 0.0 0.0 0.01 0.01 0.0 0.0 0.0 0.01 0.0 0.0 0.0 0.01 0.01 0.0 0.0 0.0 0.01 0.0 0.0 0.0 0.01 0.01 0.0 0.0 0.0 0.01 0.0 0.0 0.0 0.01 0.01 0.0 0.0 0.0 0.01 0.0 0.0 0.0 0.01 0.01 0.0 0.0 0.0 0.01 0.0 0.0 0.0 0.01 0.01 0.0 0.0 0.0 0.01 0.0 0.0 0.0 0.01 0.01 0.0 0.0 0.0 0.01 0.0 0.0 0.0 0.01 0.01 0.0 0.0 0.0 0.01 0.0 0.0 0.0 0.01 0.01 0.0 0.0 0.0 0.01 0.0 0.0 0.0 0.01 0.01 0.0 0.0 0.0 0.01 0.0 0.0 0.0 0.01 0.01 0.0 0.0 0.0 0.01 0.0 0.0 0.0 0.01 0.01 0.0 0.0 0.0 0.01 0.0 0.0 0.0 0.01 0.01 0.0 0.0 0.0 0.01 0.0 0.0 0.0 0.01 0.01 0.0 0.0 0.0 0.01 0.0 0.0 0.0 0.01 0.01 0.0 0.0 0.0 0.01 0.0 0.0 0.0 0.01 0.01 0.0 0.0 0.0 0.01 0.0 0.0 0.0 0.01 0.01 0.0 0.0 0.0 0.01 0.0 0.0 0.0 0.01 0.01 0.0 0.0 0.0 0.01 0.0 0.0 0.0 0.01 0.01 0.0 0.0 0.0 0.01 0.0 0.0 0.0 0.01 0.01 0.0 0.0 0.0 0.01 0.0 0.0 0.0 0.01 0.01 0.0 0.0 0.0 0.01 0.0 0.0 0.0 0.01 0.01 0.0 0.0 0.0 0.01 0.0 0.0 0.0 0.01 0.01 0.0 0.0 0.0 0.01 0.0 0.0 0.0 0.01 0.01 0.0 0.0 0.0 0.01 0.0 0.0 0.0 0.01 0.01 0.0 0.0 0.0 0.01 0.0 0.0 0.0 0.01 0.01 0.0 0.0 0.0 0.01 0.0 0.0 0.0 0.01 0.01 0.0 0.0 0.0 0.01 0.0 0.0 0.0 0.01 0.01 0.0 0.0 0.0 0.01 0.0 0.0 0.0 0.01 0.01 0.0 0.0 0.0 0.01 0.0 0.0 0.0 0.01 0.01 0.0 0.0 0.0 0.01 0.0 0.0 0.0 0.01 0.01 0.0 0.0 0.0 0.01 0.0 0.0 0.0 0.01 0.01 0.0 0.0 0.0 0.01 0.0 0.0 0.0 0.01 0.01 0.0 0.0 0.0 0.01 0.0 0.0 0.0 0.01 0.01 0.0 0.0 0.0 0.01 0.0 0.0 0.0 0.01 0.01 0.0 0.0 0.0 0.01 0.0 0.0 0.0 0.01 0.01 0.0 0.0 0.0 0.01 0.0 0.0 0.0 0.01 0.01 0.0 0.0 0.0 0.01 0.0 0.0 0.0 0.01 0.01 0.0 0.0 0.0 0.01 0.0 0.0 0.0 0.01 0.01 0.0 0.0 0.0 0.01 0.0 0.0 0.0 0.01 0.01 0.0 0.0 0.0 0.01 0.0 0.0 0.0 0.01 0.01 0.0 0.0 0.0 0.01 0.0 0.0 0.0 0.01 0.01 0.0 0.0 0.0 0.01 0.0 0.0 0.0 0.01 0.01 0.0 0.0 0.0 0.01 0.0 0.0 0.0 0.01 0.01 0.0 0.0 0.0 0.01 0.0 0.0 0.0 0.01 0.01 0.0 0.0 0.0 0.01 0.0 0.0 0.0 0.01 0.01 0.0 0.0 0.0 0.01 0.0 0.0 0.0 0.01 0.01 0.0 0.0 0.0 0.01 0.0 0.0 0.0 0.01 0.01 0.0 0.0 0.0 0.01 0.0 0.0 0.0 0.01 0.01 0.0 0.0 0.0 0.01 0.0 0.0 0.0 0.01 0.01 0.0 0.0 0.0 0.01 0.0 0.0 0.0 0.01 0.01 0.0 0.0 0.0 0.01 0.0 0.0 0.0 0.01 0.01 0.0 0.0 0.0 0.01 0.0 0.0 0.0 0.01 0.01 0.0 0.0 0.0 0.01 0.0 0.0 0.0 0.01 0.01 0.0 0.0 0.0 0.01 0.0 0.0 0.0 0.01 0.01 0.0 0.0 0.0 0.01 0.0 0.0 0.0 0.01 0.01 0.0 0.0 0.0 0.01 0.0 0.0 0.0 0.01 0.01 0.0 0.0 0.0 0.01 0.0 0.0 0.0 0.01 0.01 0.0 0.0 0.0 0.01 0.0 0.0 0.0 0.01 0.01 0.0 0.0 0.0 0.01 0.0 0.0 0.0 0.01 0.01 0.0 0.0 0.0 0.01 0.0 0.0 0.0 0.01 0.01 0.0 0.0 0.0 0.01 0.0 0.0 0.0 0.01 0.01 0.0 0.0 0.0 0.01 0.0 0.0 0.0 0.01 0.01 0.0 0.0 0.0 0.01 0.0 0.0 0.0 0.01 0.01 0.0 0.0 0.0 0.01 0.0 0.0 0.0 0.01 0.01 0.0 0.0 0.0 0.01 0.0 0.0 0.0 0.01 0.01 0.0 0.0 0.0 0.01 0.0 0.0 0.0 0.01 0.01 0.0 0.0 0.0 0.01 0.0 0.0 0.0 0.01 0.01 0.0 0.0 0.0 0.01 0.0 0.0 0.0 0.01 0.01 0.0 0.0 0.0 0.01 0.0 0.0 0.0 0.01 0.01 0.0 0.0 0.0 0.01 0.0 0.0 0.0 0.01 0.01 0.0 0.0 0.0 0.01 0.0 0.0 0.0 0.01 0.01 0.0 0.0 0.0 0.01 0.0 0.0 0.0 0.01 0.01 0.0 0.0 0.0 0.01 0.0 0.0 0.0 0.01 0.01 0.0 0.0 0.0 0.01 0.0 0.0 0.0 0.01 0.01 0.0 0.0 0.0 0.01 0.0 0.0 0.0 0.01 0.01 0.0 0.0 0.0 0.01 0.0 0.0 0.0 0.01 0.01 0.0 0.0 0.0 0.01 0.0 0.0 0.0 0.01 0.01 0.0 0.0 0.0 0.01 0.0 0.0 0.0 0.01 0.01 0.0 0.0 0.0 0.01 0.0 0.0 0.0 0.01 0.01 0.0 0.0 0.0 0.01 0.0 0.0 0.0 0.01 0.01 0.0 0.0 0.0 0.01 0.0 0.0 0.0 0.01 0.01 0.0 0.0 0.0 0.01 0.0 0.0 0.0 0.01 0.01 0.0 0.0 0.0 0.01 0.0 0.0 0.0 0.01 0.01 0.0 0.0 0.0 0.01 0.0 0.0 0.0 0.01 0.01 0.0 0.0 0.0 0.01 0.0 0.0 0.0 0.01 0.01 0.0 0.0 0.0 0.01 0.0 0.0 0.0 0.01 0.01 0.0 0.0 0.0 0.01 0.0 0.0 0.0 0.01 0.01 0.0 0.0 0.0 0.01 0.0 0.0 0.0 0.01 0.01 0.0 0.0 0.0 0.01 0.0 0.0 0.0 0.01 0.01 0.0 0.0 0.0 0.01 0.0 0.0 0.0 0.01 0.01 0.0 0.0 0.0 0.01 0.0 0.0 0.0 0.01 0.01 0.0 0.0 0.0 0.01 0.0 0.0 0.0 0.01 0.01 0.0 0.0 0.0 0.01 0.0 0.0 0.0 0.01 0.01 0.0 0.0 0.0 0.01 0.0 0.0 0.0 0.01 0.01 0.0 0.0 0.0 0.01 0.0 0.0 0.0 0.01 0.01 0.0 0.0 0.0 0.01 0.0 0.0 0.0 0.01 0.01 0.0 0.0 0.0 0.01 0.0 0.0 0.0 0.01 0.01 0.0 0.0 0.0 0.01 0.0 0.0 0.0 0.01 0.01 0.0 0.0 0.0 0.01 0.0 0.0 0.0 0.01 0.01 0.0 0.0 0.0 0.01 0.0 0.0 0.0 0.01 0.01 0.0 0.0 0.0 0.01 0.0 0.0 0.0 0.01 0.01 0.0 0.0 0.0 0.01 0.0 0.0 0.0 0.01 0.01 0.0 0.0 0.0 0.01 0.0 0.0 0.0 0.01 0.01 0.0 0.0 0.0 0.01 0.0 0.0 0.0 0.01 0.01 0.0 0.0 0.0 0.01 0.0 0.0 0.0 0.01 0.01 0.0 0.0 0.0 0.01 0.0 0.0 0.0 0.01 0.01 0.0 0.0 0.0 0.01 0.0 0.0 0.0 0.01 0.01 0.0 0.0 0.0 0.01 0.0 0.0 0.0 0.01 0.01 0.0 0.0 0.0 0.01 0.0 0.0 0.0 0.01 0.01 0.0 0.0 0.0 0.01 0.0 0.0 0.0 0.01 0.01 0.0 0.0 0.0 0.01 0.0 0.0 0.0 0.01 0.01 0.0 0.0 0.0 0.01 0.0 0.0 0.0 0.01 0.01 0.0 0.0 0.0 0.01 0.0 0.0 0.0 0.01 0.01 0.0 0.0 0.0 0.01 0.0 0.0 0.0 0.01 0.01 0.0 0.0 0.0 0.01 0.0 0.0 0.0 0.01 0.01 0.0 0.0 0.0 0.01 0.0 0.0 0.0 0.01 0.01 0.0 0.0 0.0 0.01 0.0 0.0 0.0 0.01 0.01 0.0 0.0 0.0 0.01 0.0 0.0 0.0 0.01 0.01 0.0 0.0 0.0 0.01 0.0 0.0 0.0 0.01 0.01 0.0 0.0 0.0 0.01 0.0 0.0 0.0 0.01 0.01 0.0 0.0 0.0 0.01 0.0 0.0 0.0 0.01 0.01 0.0 0.0 0.0 0.01 0.0 0.0 0.0 0.01 0.01 0.0 0.0 0.0 0.01 0.0 0.0 0.0 0.01 0.01 0.0 0.0 0.0 0.01 0.0 0.0 0.0 0.01 0.01 0.0 0.0 0.0 0.01 0.0 0.0 0.0 0.01 0.01 0.0 0.0 0.0 0.01 0.0 0.0 0.0 0.01 0.01 0.0 0.0 0.0 0.01 0.0 0.0 0.0 0.01 0.01 0.0 0.0 0.0 0.01 0.0 0.0 0.0 0.01 0.01 0.0 0.0 0.0 0.01 0.0 0.0 0.0 0.01 0.01 0.0 0.0 0.0 0.01 0.0 0.0 0.0 0.01 0.01 0.0 0.0 0.0 0.01 0.0 0.0 0.0 0.01 0.01 0.0 0.0 0.0 0.01 0.0 0.0 0.0 0.01 0.01 0.0 0.0 0.0 0.01 0.0 0.0 0.0 0.01 0.01 0.0 0.0 0.0 0.01 0.0 0.0 0.0 0.01 0.01 0.0 0.0 0.0 0.01 0.0 0.0 0.0 0.01 0.01 0.0 0.0 0.0 0.01 0.0 0.0 0.0 0.01 0.01 0.0 0.0 0.0 0.01 0.0 0.0 0.0 0.01 0.01 0.0 0.0 0.0 0.01 0.0 0.0 0.0 0.01 0.01 0.0 0.0 0.0 0.01 0.0 0.0 0.0 0.01 0.01 0.0 0.0 0.0 0.01 0.0 0.0 0.0 0.01 0.01 0.0 0.0 0.0 0.01 0.0 0.0 0.0 0.01 0.01 0.0 0.0 0.0 0.01 0.0 0.0 0.0 0.01 0.01 0.0 0.0 0.0 0.01 0.0 0.0 0.0 0.01 0.01 0.0 0.0 0.0 0.01 0.0 0.0 0.0 0.01 0.01 0.0 0.0 0.0 0.01 0.0 0.0 0.0 0.01 0.01 0.0 0.0 0.0 0.01 0.0 0.0 0.0 0.01 0.01 0.0 0.0 0.0 0.01 0.0 0.0 0.0 0.01 0.01 0.0 0.0 0.0 0.01 0.0 0.0 0.0 0.01 0.01 0.0 0.0 0.0 0.01 0.0 0.0 0.0 0.01 0.01 0.0 0.0 0.0 0.01 0.0 0.0 0.0 0.01 0.01 0.0 0.0 0.0 0.01 0.0 0.0 0.0 0.01 0.01 0.0 0.0 0.0 0.01 0.0 0.0 0.0 0.01 0.01 0.0 0.0 0.0 0.01 0.0 0.0 0.0 0.01 0.01 0.0 0.0 0.0 0.01 0.0 0.0 0.0 0.01 0.01 0.0 0.0 0.0 0.01 0.0 0.0 0.0 0.01 0.01 0.0 0.0 0.0 0.01 0.0 0.0 0.0 0.01 0.01 0.0 0.0 0.0 0.01 0.0 0.0 0.0 0.01 0.01 0.0 0.0 0.0 0.01 0.0 0.0 0.0 0.01 0.01 0.0 0.0 0.0 0.01 0.0 0.0 0.0 0.01 0.01 0.0 0.0 0.0 0.01 0.0 0.0 0.0 0.01 0.01 0.0 0.0 0.0 0.01 0.0 0.0 0.0 0.01 0.01 0.0 0.0 0.0 0.01 0.0 0.0 0.0 0.01 0.01 0.0 0.0 0.0 0.01 0.0 0.0 0.0 0.01 0.01 0.0 0.0 0.0 0.01 0.0 0.0 0.0 0.01 0.01 0.0 0.0 0.0 0.01 0.0 0.0 0.0 0.01 0.01 0.0 0.0 0.0 0.01 0.0 0.0 0.0 0.01 0.01 0.0 0.0 0.0 0.01 0.0 0.0 0.0 0.01 0.01 0.0 0.0 0.0 0.01 0.0 0.0 0.0 0.01 0.01 0.0 0.0 0.0 0.01 0.0 0.0 0.0 0.01 0.01 0.0 0.0 0.0 0.01 0.0 0.0 0.0 0.01 0.01 0.0 0.0 0.0 0.01 0.0 0.0 0.0 0.01 0.01 0.0 0.0 0.0 0.01 0.0 0.0 0.0 0.01 0.01 0.0 0.0 0.0 0.01 0.0 0.0 0.0 0.01 0.01 0.0 0.0 0.0 0.01 0.0 0.0 0.0 0.01 0.01 0.0 0.0 0.0 0.01 0.0 0.0 0.0 0.01 0.01 0.0 0.0 0.0 0.01 0.0 0.0 0.0 0.01 0.01 0.0 0.0 0.0 0.01 0.0 0.0 0.0 0.01 0.01 0.0 0.0 0.0 0.01 0.0 0.0 0.0 0.01 0.01 0.0 0.0 0.0 0.01 0.0 0.0 0.0 0.01 0.01 0.0 0.0 0.0 0.01 0.0 0.0 0.0 0.01 0.01 0.0 0.0 0.0 0.01 0.0 0.0 0.0 0.01 0.01 0.0 0.0 0.0 0.01 0.0 0.0 0.0 0.01 0.01 0.0 0.0 0.0 0.01 0.0 0.0 0.0 0.01 0.01 0.0 0.0 0.0 0.01 0.0 0.0 0.0 0.01 0.01 0.0 0.0 0.0 0.01 0.0 0.0 0.0 0.01 0.01 0.0 0.0 0.0 0.01 0.0 0.0 0.0 0.01 0.01 0.0 0.0 0.0 0.01 0.0 0.0 0.0 0.01 0.01 0.0 0.0 0.0 0.01 0.0 0.0 0.0 0.01 0.01 0.0 0.0 0.0 0.01 0.0 0.0 0.0 0.01 0.01 0.0 0.0 0.0 0.01 0.0 0.0 0.0 0.01 0.01 0.0 0.0 0.0 0.01 0.0 0.0 0.0 0.01 0.01 0.0 0.0 0.0 0.01 0.0 0.0 0.0 0.01 0.01 0.0 0.0 0.0 0.01 0.0 0.0 0.0 0.01 0.01 0.0 0.0 0.0 0.01 0.0 0.0 0.0 0.01 0.01 0.0 0.0 0.0 0.01 0.0 0.0 0.0 0.01 0.01 0.0 0.0 0.0 0.01 0.0 0.0 0.0 0.01 0.01 0.0 0.0 0.0 0.01 0.0 0.0 0.0 0.01 0.01 0.0 0.0 0.0 0.01 0.0 0.0 0.0 0.01 0.01 0.0 0.0 0.0 0.01 0.0 0.0 0.0 0.01 0.01 0.0 0.0 0.0 0.01 0.0 0.0 0.0 0.01 0.01 0.0 0.0 0.0 0.01 0.0 0.0 0.0 0.01 0.01 0.0 0.0 0.0 0.01 0.0 0.0 0.0 0.01 0.01 0.0 0.0 0.0 0.01 0.0 0.0 0.0 0.01 0.01 0.0 0.0 0.0 0.01 0.0 0.0 0.0 0.01 0.01 0.0 0.0 0.0 0.01 0.0 0.0 0.0 0.01 0.01 0.0 0.0 0.0 0.01 0.0 0.0 0.0 0.01 0.01 0.0 0.0 0.0 0.01 0.0 0.0 0.0 0.01 0.01 0.0 0.0 0.0 0.01 0.0 0.0 0.0 0.01 0.01 0.0 0.0 0.0 0.01 0.0 0.0 0.0 0.01 0.01 0.0 0.0 0.0 0.01 0.0 0.0 0.0 0.01 0.01 0.0 0.0 0.0 0.01 0.0 0.0 0.0 0.01 0.01 0.0 0.0 0.0 0.01 0.0 0.0 0.0 0.01 0.01 0.0 0.0 0.0 0.01 0.0 0.0 0.0 0.01 0.01 0.0 0.0 0.0 0.01 0.0 0.0 0.0 0.01 0.01 0.0 0.0 0.0 0.01 0.0 0.0 0.0 0.01 0.01 0.0 0.0 0.0 0.01 0.0 0.0 0.0 0.01 0.01 0.0 0.0 0.0 0.01 0.0 0.0 0.0 0.01 0.01 0.0 0.0 0.0 0.01 0.0 0.0 0.0 0.01 0.01 0.0 0.0 0.0 0.01 0.0 0.0 0.0 0.01 0.01 0.0 0.0 0.0 0.01 0.0 0.0 0.0 0.01 0.01 0.0 0.0 0.0 0.01 0.0 0.0 0.0 0.01 0.01 0.0 0.0 0.0 0.01 0.0 0.0 0.0 0.01 0.01 0.0 0.0 0.0 0.01 0.0 0.0 0.0 0.01 0.01 0.0 0.0 0.0 0.01 0.0 0.0 0.0 0.01 0.01 0.0 0.0 0.0 0.01 0.0 0.0 0.0 0.01 0.01 0.0 0.0 0.0 0.01 0.0 0.0 0.0 0.01 0.01 0.0 0.0 0.0 0.01 0.0 0.0 0.0 0.01 0.01 0.0 0.0 0.0 0.01 0.0 0.0 0.0 0.01 0.01 0.0 0.0 0.0 0.01 0.0 0.0 0.0 0.01 0.01 0.0 0.0 0.0 0.01 0.0 0.0 0.0 0.01 0.01 0.0 0.0 0.0 0.01 0.0 0.0 0.0 0.01 0.01 0.0 0.0 0.0 0.01 0.0 0.0 0.0 0.01 0.01 0.0 0.0 0.0 0.01 0.0 0.0 0.0 0.01 0.01 0.0 0.0 0.0 0.01 0.0 0.0 0.0 0.01 0.01 0.0 0.0 0.0 0.01 0.0 0.0 0.0 0.01 0.01 0.0 0.0 0.0 0.01 0.0 0.0 0.0 0.01 0.01 0.0 0.0 0.0 0.01 0.0 0.0 0.0 0.01 0.01 0.0 0.0 0.0 0.01 0.0 0.0 0.0 0.01 0.01 0.0 0.0 0.0 0.01 0.0 0.0 0.0 0.01 0.01 0.0 0.0 0.0 0.01 0.0 0.0 0.0 0.01 0.01 0.0 0.0 0.0 0.01 0.0 0.0 0.0 0.01 0.01 0.0 0.0 0.0 0.01 0.0 0.0 0.0 0.01 0.01 0.0 0.0 0.0 0.01 0.0 0.0 0.0 0.01 0.01 0.0 0.0 0.0 0.01 0.0 0.0 0.0 0.01 0.01 0.0 0.0 0.0 0.01 0.0 0.0 0.0 0.01 0.01 0.0 0.0 0.0 0.01 0.0 0.0 0.0 0.01 0.01 0.0 0.0 0.0 0.01 0.0 0.0 0.0 0.01 0.01 0.0 0.0 0.0 0.01 0.0 0.0 0.0 0.01 0.01 0.0 0.0 0.0 0.01 0.0 0.0 0.0 0.01 0.01 0.0 0.0 0.0 0.01 0.0 0.0 0.0 0.01 0.01 0.0 0.0 0.0 0.01 0.0 0.0 0.0 0.01 0.01 0.0 0.0 0.0 0.01 0.0 0.0 0.0 0.01 0.01 0.0 0.0 0.0 0.01 0.0 0.0 0.0 0.01 0.01 0.0 0.0 0.0 0.01 0.0 0.0 0.0 0.01 0.01 0.0 0.0 0.0 0.01 0.0 0.0 0.0 0.01 0.01 0.0 0.0 0.0 0.01 0.0 0.0 0.0 0.01 0.01 0.0 0.0 0.0 0.01 0.0 0.0 0.0 0.01 0.01 0.0 0.0 0.0 0.01 0.0 0.0 0.0 0.01 0.01 0.0 0.0 0.0 0.01 0.0 0.0 0.0 0.01 0.01 0.0 0.0 0.0 0.01 0.0 0.0 0.0 0.01 0.01 0.0 0.0 0.0 0.01 0.0 0.0 0.0 0.01 0.01 0.0 0.0 0.0 0.01 0.0 0.0 0.0 0.01 0.01 0.0 0.0 0.0 0.01 0.0 0.0 0.0 0.01 0.01 0.0 0.0 0.0 0.01 0.0 0.0 0.0 0.01 0.01 0.0 0.0 0.0 0.01 0.0 0.0 0.0 0.01 0.01 0.0 0.0 0.0 0.01 0.0 0.0 0.0 0.01 0.01 0.0 0.0 0.0 0.01 0.0 0.0 0.0 0.01 0.01 0.0 0.0 0.0 0.01 0.0 0.0 0.0 0.01 0.01 0.0 0.0 0.0 0.01 0.0 0.0 0.0 0.01 0.01 0.0 0.0 0.0 0.01 0.0 0.0 0.0 0.01 0.01 0.0 0.0 0.0 0.01 0.0 0.0 0.0 0.01 0.01 0.0 0.0 0.0 0.01 0.0 0.0 0.0 0.01 0.01 0.0 0.0 0.0 0.01 0.0 0.0 0.0 0.01 0.01 0.0 0.0 0.0 0.01 0.0 0.0 0.0 0.01 0.01 0.0 0.0 0.0 0.01 0.0 0.0 0.0 0.01 0.01 0.0 0.0 0.0 0.01 0.0 0.0 0.0 0.01 0.01 0.0 0.0 0.0 0.01 0.0 0.0 0.0 0.01 0.01 0.0 0.0 0.0 0.01 0.0 0.0 0.0 0.01 0.01 0.0 0.0 0.0 0.01 0.0 0.0 0.0 0.01 0.01 0.0 0.0 0.0 0.01 0.0 0.0 0.0 0.01 0.01 0.0 0.0 0.0 0.01 0.0 0.0 0.0 0.01 0.01 0.0 0.0 0.0 0.01 0.0 0.0 0.0 0.01 0.01 0.0 0.0 0.0 0.01 0.0 0.0 0.0 0.01 0.01 0.0 0.0 0.0 0.01 0.0 0.0 0.0 0.01 0.01 0.0 0.0 0.0 0.01 0.0 0.0 0.0 0.01 0.01 0.0 0.0 0.0 0.01 0.0 0.0 0.0 0.01 0.01 0.0 0.0 0.0 0.01 0.0 0.0 0.0 0.01 0.01 0.0 0.0 0.0 0.01 0.0 0.0 0.0 0.01 0.01 0.0 0.0 0.0 0.01 0.0 0.0 0.0 0.01 0.01 0.0 0.0 0.0 0.01 0.0 0.0 0.0 0.01 0.01 0.0 0.0 0.0 0.01 0.0 0.0 0.0 0.01 0.01 0.0 0.0 0.0 0.01 0.0 0.0 0.0 0.01 0.01 0.0 0.0 0.0 0.01 0.0 0.0 0.0 0.01 0.01 0.0 0.0 0.0 0.01 0.0 0.0 0.0 0.01 0.01 0.0 0.0 0.0 0.01 0.0 0.0 0.0 0.01 0.01 0.0 0.0 0.0 0.01 0.0 0.0 0.0 0.01 0.01 0.0 0.0 0.0 0.01 0.0 0.0 0.0 0.01 0.01 0.0 0.0 0.0 0.01 0.0 0.0 0.0 0.01 0.01 0.0 0.0 0.0 0.01 0.0 0.0 0.0 0.01 0.01 0.0 0.0 0.0 0.01 0.0 0.0 0.0 0.01 0.01 0.0 0.0 0.0 0.01 0.0 0.0 0.0 0.01 0.01 0.0 0.0 0.0 0.01 0.0 0.0 0.0 0.01 0.01 0.0 0.0 0.0 0.01 0.0 0.0 0.0 0.01 0.01 0.0 0.0 0.0 0.01 0.0 0.0 0.0 0.01 0.01 0.0 0.0 0.0 0.01 0.0 0.0 0.0 0.01 0.01 0.0 0.0 0.0 0.01 0.0 0.0 0.0 0.01 0.01 0.0 0.0 0.0 0.01 0.0 0.0 0.0 0.01 0.01 0.0 0.0 0.0 0.01 0.0 0.0 0.0 0.01 0.01 0.0 0.0 0.0 0.01 0.0 0.0 0.0 0.01 0.01 0.0 0.0 0.0 0.01 0.0 0.0 0.0 0.01 0.01 0.0 0.0 0.0 0.01 0.0 0.0 0.0 0.01 0.01 0.0 0.0 0.0 0.01 0.0 0.0 0.0 0.01 0.01 0.0 0.0 0.0 0.01 0.0 0.0 0.0 0.01 0.01 0.0 0.0 0.0 0.01 0.0 0.0 0.0 0.01 0.01 0.0 0.0 0.0 0.01 0.0 0.0 0.0 0.01 0.01 0.0 0.0 0.0 0.01 0.0 0.0 0.0 0.01 0.01 0.0 0.0 0.0 0.01 0.0 0.0 0.0 0.01 0.01 0.0 0.0 0.0 0.01 0.0 0.0 0.0 0.01 0.01 0.0 0.0 0.0 0.01 0.0 0.0 0.0 0.01 0.01 0.0 0.0 0.0 0.01 0.0 0.0 0.0 0.01 0.01 0.0 0.0 0.0 0.01 0.0 0.0 0.0 0.01 0.01 0.0 0.0 0.0 0.01 0.0 0.0 0.0 0.01 0.01 0.0 0.0 0.0 0.01 0.0 0.0 0.0 0.01 0.01 0.0 0.0 0.0 0.01 0.0 0.0 0.0 0.01 0.01 0.0 0.0 0.0 0.01 0.0 0.0 0.0 0.01 0.01 0.0 0.0 0.0 0.01 0.0 0.0 0.0 0.01 0.01 0.0 0.0 0.0 0.01 0.0 0.0 0.0 0.01 0.01 0.0 0.0 0.0 0.01 0.0 0.0 0.0 0.01 0.01 0.0 0.0 0.0 0.01 0.0 0.0 0.0 0.01 0.01 0.0 0.0 0.0 0.01 0.0 0.0 0.0 0.01 0.01 0.0 0.0 0.0 0.01 0.0 0.0 0.0 0.01 0.01 0.0 0.0 0.0 0.01 0.0 0.0 0.0 0.01 0.01 0.0 0.0 0.0 0.01 0.0 0.0 0.0 0.01 0.01 0.0 0.0 0.0 0.01 0.0 0.0 0.0 0.01 0.01 0.0 0.0 0.0 0.01 0.0 0.0 0.0 0.01 0.01 0.0 0.0 0.0 0.01 0.0 0.0 0.0 0.01 0.01 0.0 0.0 0.0 0.01 0.0 0.0 0.0 0.01 0.01 0.0 0.0 0.0 0.01 0.0 0.0 0.0 0.01 0.01 0.0 0.0 0.0 0.01 0.0 0.0 0.0 0.01 0.01 0.0 0.0 0.0 0.01 0.0 0.0 0.0 0.01 0.01 0.0 0.0 0.0 0.01 0.0 0.0 0.0 0.01 0.01 0.0 0.0 0.0 0.01 0.0 0.0 0.0 0.01 0.01 0.0 0.0 0.0 0.01 0.0 0.0 0.0 0.01 0.01 0.0 0.0 0.0 0.01 0.0 0.0 0.0 0.01 0.01 0.0 0.0 0.0 0.01 0.0 0.0 0.0 0.01 0.01 0.0 0.0 0.0 0.01 0.0 0.0 0.0 0.01 0.01 0.0 0.0 0.0 0.01 0.0 0.0 0.0 0.01 0.01 0.0 0.0 0.0 0.01 0.0 0.0 0.0 0.01 0.01 0.0 0.0 0.0 0.01 0.0 0.0 0.0 0.01 0.01 0.0 0.0 0.0 0.01 0.0 0.0 0.0 0.01 0.01 0.0 0.0 0.0 0.01 0.0 0.0 0.0 0.01 0.01 0.0 0.0 0.0 0.01 0.0 0.0 0.0 0.01 0.01 0.0 0.0 0.0 0.01 0.0 0.0 0.0 0.01 0.01 0.0 0.0 0.0 0.01 0.0 0.0 0.0 0.01 0.01 0.0 0.0 0.0 0.01 0.0 0.0 0.0 0.01 0.01 0.0 0.0 0.0 0.01 0.0 0.0 0.0 0.01 0.01 0.0 0.0 0.0 0.01 0.0 0.0 0.0 0.01 0.01 0.0 0.0 0.0 0.01 0.0 0.0 0.0 0.01 0.01 0.0 0.0 0.0 0.01 0.0 0.0 0.0 0.01 0.01 0.0 0.0 0.0 0.01 0.0 0.0 0.0 0.01 0.01 0.0 0.0 0.0 0.01 0.0 0.0 0.0 0.01 0.01 0.0 0.0 0.0 0.01 0.0 0.0 0.0 0.01 0.01 0.0 0.0 0.0 0.01 0.0 0.0 0.0 0.01 0.01 0.0 0.0 0.0 0.01 0.0 0.0 0.0 0.01 0.01 0.0 0.0 0.0 0.01 0.0 0.0 0.0 0.01 0.01 0.0 0.0 0.0 0.01 0.0 0.0 0.0 0.01 0.01 0.0 0.0 0.0 0.01 0.0 0.0 0.0 0.01 0.01 0.0 0.0 0.0 0.01 0.0 0.0 0.0 0.01 0.01 0.0 0.0 0.0 0.01 0.0 0.0 0.0 0.01 0.01 0.0 0.0 0.0 0.01 0.0 0.0 0.0 0.01 0.01 0.0 0.0 0.0 0.01 0.0 0.0 0.0 0.01 0.01 0.0 0.0 0.0 0.01 0.0 0.0 0.0 0.01 0.01 0.0 0.0 0.0 0.01 0.0 0.0 0.0 0.01 0.01 0.0 0.0 0.0 0.01 0.0 0.0 0.0 0.01 0.01 0.0 0.0 0.0 0.01 0.0 0.0 0.0 0.01 0.01 0.0 0.0 0.0 0.01 0.0 0.0 0.0 0.01 0.01 0.0 0.0 0.0 0.01 0.0 0.0 0.0 0.01 0.01 0.0 0.0 0.0 0.01 0.0 0.0 0.0 0.01 0.01 0.0 0.0 0.0 0.01 0.0 0.0 0.0 0.01 0.01 0.0 0.0 0.0 0.01 0.0 0.0 0.0 0.01 0.01 0.0 0.0 0.0 0.01 0.0 0.0 0.0 0.01 0.01 0.0 0.0 0.0 0.01 0.0 0.0 0.0 0.01 0.01 0.0 0.0 0.0 0.01 0.0 0.0 0.0 0.01 0.01 0.0 0.0 0.0 0.01 0.0 0.0 0.0 0.01 0.01 0.0 0.0 0.0 0.01 0.0 0.0 0.0 0.01 0.01 0.0 0.0 0.0 0.01 0.0 0.0 0.0 0.01 0.01 0.0 0.0 0.0 0.01 0.0 0.0 0.0 0.01 0.01 0.0 0.0 0.0 0.01 0.0 0.0 0.0 0.01 0.01 0.0 0.0 0.0 0.01 0.0 0.0 0.0 0.01 0.01 0.0 0.0 0.0 0.01 0.0 0.0 0.0 0.01 0.01 0.0 0.0 0.0 0.01 0.0 0.0 0.0 0.01 0.01 0.0 0.0 0.0 0.01 0.0 0.0 0.0 0.01 0.01 0.0 0.0 0.0 0.01 0.0 0.0 0.0 0.01 0.01 0.0 0.0 0.0 0.01 0.0 0.0 0.0 0.01 0.01 0.0 0.0 0.0 0.01 0.0 0.0 0.0 0.01 0.01 0.0 0.0 0.0 0.01 0.0 0.0 0.0 0.01 0.01 0.0 0.0 0.0 0.01 0.0 0.0 0.0 0.01 0.01 0.0 0.0 0.0 0.01 0.0 0.0 0.0 0.01 0.01 0.0 0.0 0.0 0.01 0.0 0.0 0.0 0.01 0.01 0.0 0.0 0.0 0.01 0.0 0.0 0.0 0.01 0.01 0.0 0.0 0.0 0.01 0.0 0.0 0.0 0.01 0.01 0.0 0.0 0.0 0.01 0.0 0.0 0.0 0.01 0.01 0.0 0.0 0.0 0.01 0.0 0.0 0.0 0.01 0.01 0.0 0.0 0.0 0.01 0.0 0.0 0.0 0.01 0.01 0.0 0.0 0.0 0.01 0.0 0.0 0.0 0.01 0.01 0.0 0.0 0.0 0.01 0.0 0.0 0.0 0.01 0.01 0.0 0.0 0.0 0.01 0.0 0.0 0.0 0.01 0.01 0.0 0.0 0.0 0.01 0.0 0.0 0.0 0.01 0.01 0.0 0.0 0.0 0.01 0.0 0.0 0.0 0.01 0.01 0.0 0.0 0.0 0.01 0.0 0.0 0.0 0.01 0.01 0.0 0.0 0.0 0.01 0.0 0.0 0.0 0.01 0.01 0.0 0.0 0.0 0.01 0.0 0.0 0.0 0.01 0.01 0.0 0.0 0.0 0.01 0.0 0.0 0.0 0.01 0.01 0.0 0.0 0.0 0.01 0.0 0.0 0.0 0.01 0.01 0.0 0.0 0.0 0.01 0.0 0.0 0.0 0.01 0.01 0.0 0.0 0.0 0.01 0.0 0.0 0.0 0.01 0.01 0.0 0.0 0.0 0.01 0.0 0.0 0.0 0.01 0.01 0.0 0.0 0.0 0.01 0.0 0.0 0.0 0.01 0.01 0.0 0.0 0.0 0.01 0.0 0.0 0.0 0.01 0.01 0.0 0.0 0.0 0.01 0.0 0.0 0.0 0.01 0.01 0.0 0.0 0.0 0.01 0.0 0.0 0.0 0.01 0.01 0.0 0.0 0.0 0.01 0.0 0.0 0.0 0.01 0.01 0.0 0.0 0.0 0.01 0.0 0.0 0.0 0.01 0.01 0.0 0.0 0.0 0.01 0.0 0.0 0.0 0.01 0.01 0.0 0.0 0.0 0.01 0.0 0.0 0.0 0.01 0.01 0.0 0.0 0.0 0.01 0.0 0.0 0.0 0.01 0.01 0.0 0.0 0.0 0.01 0.0 0.0 0.0 0.01 0.01 0.0 0.0 0.0 0.01 0.0 0.0 0.0 0.01 0.01 0.0 0.0 0.0 0.01 0.0 0.0 0.0 0.01 0.01 0.0 0.0 0.0 0.01 0.0 0.0 0.0 0.01 0.01 0.0 0.0 0.0 0.01 0.0 0.0 0.0 0.01 0.01 0.0 0.0 0.0 0.01 0.0 0.0 0.0 0.01 0.01 0.0 0.0 0.0 0.01 0.0 0.0 0.0 0.01 0.01 0.0 0.0 0.0 0.01 0.0 0.0 0.0 0.01 0.01 0.0 0.0 0.0 0.01 0.0 0.0 0.0 0.01 0.01 0.0 0.0 0.0 0.01 0.0 0.0 0.0 0.01 0.01 0.0 0.0 0.0 0.01 0.0 0.0 0.0 0.01 0.01 0.0 0.0 0.0 0.01 0.0 0.0 0.0 0.01 0.01 0.0 0.0 0.0 0.01 0.0 0.0 0.0 0.01 0.01 0.0 0.0 0.0 0.01 0.0 0.0 0.0 0.01 0.01 0.0 0.0 0.0 0.01 0.0 0.0 0.0 0.01 0.01 0.0 0.0 0.0 0.01 0.0 0.0 0.0 0.01 0.01 0.0 0.0 0.0 0.01 0.0 0.0 0.0 0.01 0.01 0.0 0.0 0.0 0.01 0.0 0.0 0.0 0.01 0.01 0.0 0.0 0.0 0.01 0.0 0.0 0.0 0.01 0.01 0.0 0.0 0.0 0.01 0.0 0.0 0.0 0.01 0.01 0.0 0.0 0.0 0.01 0.0 0.0 0.0 0.01 0.01 0.0 0.0 0.0 0.01 0.0 0.0 0.0 0.01 0.01 0.0 0.0 0.0 0.01 0.0 0.0 0.0 0.01 0.01 0.0 0.0 0.0 0.01 0.0 0.0 0.0 0.01 0.01 0.0 0.0 0.0 0.01 0.0 0.0 0.0 0.01 0.01 0.0 0.0 0.0 0.01 0.0 0.0 0.0 0.01 0.01 0.0 0.0 0.0 0.01 0.0 0.0 0.0 0.01 0.01 0.0 0.0 0.0 0.01 0.0 0.0 0.0 0.01 0.01 0.0 0.0 0.0 0.01 0.0 0.0 0.0 0.01 0.01 0.0 0.0 0.0 0.01 0.0 0.0 0.0 0.01 0.01 0.0 0.0 0.0 0.01 0.0 0.0 0.0 0.01 0.01 0.0 0.0 0.0 0.01 0.0 0.0 0.0 0.01 0.01 0.0 0.0 0.0 0.01 0.0 0.0 0.0 0.01 0.01 0.0 0.0 0.0 0.01 0.0 0.0 0.0 0.01 0.01 0.0 0.0 0.0 0.01 0.0 0.0 0.0 0.01 0.01 0.0 0.0 0.0 0.01 0.0 0.0 0.0 0.01 0.01 0.0 0.0 0.0 0.01 0.0 0.0 0.0 0.01 0.01 0.0 0.0 0.0 0.01 0.0 0.0 0.0 0.01 0.01 0.0 0.0 0.0 0.01 0.0 0.0 0.0 0.01 0.01 0.0 0.0 0.0 0.01 0.0 0.0 0.0 0.01 0.01 0.0 0.0 0.0 0.01 0.0 0.0 0.0 0.01 0.01 0.0 0.0 0.0 0.01 0.0 0.0 0.0 0.01 0.01 0.0 0.0 0.0 0.01 0.0 0.0 0.0 0.01 0.01 0.0 0.0 0.0 0.01 0.0 0.0 0.0 0.01 0.01 0.0 0.0 0.0 0.01 0.0 0.0 0.0 0.01 0.01 0.0 0.0 0.0 0.01 0.0 0.0 0.0 0.01 0.01 0.0 0.0 0.0 0.01 0.0 0.0 0.0 0.01 0.01 0.0 0.0 0.0 0.01 0.0 0.0 0.0 0.01 0.01 0.0 0.0 0.0 0.01 0.0 0.0 0.0 0.01 0.01 0.0 0.0 0.0 0.01 0.0 0.0 0.0 0.01 0.01 0.0 0.0 0.0 0.01 0.0 0.0 0.0 0.01 0.01 0.0 0.0 0.0 0.01 0.0 0.0 0.0 0.01 0.01 0.0 0.0 0.0 0.01 0.0 0.0 0.0 0.01 0.01 0.0 0.0 0.0 0.01 0.0 0.0 0.0 0.01 0.01 0.0 0.0 0.0 0.01 0.0 0.0 0.0 0.01 0.01 0.0 0.0 0.0 0.01 0.0 0.0 0.0 0.01 0.01 0.0 0.0 0.0 0.01 0.0 0.0 0.0 0.01 0.01 0.0 0.0 0.0 0.01 0.0 0.0 0.0 0.01 0.01 0.0 0.0 0.0 0.01 0.0 0.0 0.0 0.01 0.01 0.0 0.0 0.0 0.01 0.0 0.0 0.0 0.01 0.01 0.0 0.0 0.0 0.01 0.0 0.0 0.0 0.01 0.01 0.0 0.0 0.0 0.01 0.0 0.0 0.0 0.01 0.01 0.0 0.0 0.0 0.01 0.0 0.0 0.0 0.01 0.01 0.0 0.0 0.0 0.01 0.0 0.0 0.0 0.01 0.01 0.0 0.0 0.0 0.01 0.0 0.0 0.0 0.01 0.01 0.0 0.0 0.0 0.01 0.0 0.0 0.0 0.01 0.01 0.0 0.0 0.0 0.01 0.0 0.0 0.0 0.01 0.01 0.0 0.0 0.0 0.01 0.0 0.0 0.0 0.01 0.01 0.0 0.0 0.0 0.01 0.0 0.0 0.0 0.01 0.01 0.0 0.0 0.0 0.01 0.0 0.0 0.0 0.01 0.01 0.0 0.0 0.0 0.01 0.0 0.0 0.0 0.01 0.01 0.0 0.0 0.0 0.01 0.0 0.0 0.0 0.01 0.01 0.0 0.0 0.0 0.01 0.0 0.0 0.0 0.01 0.01 0.0 0.0 0.0 0.01 0.0 0.0 0.0 0.01 0.01 0.0 0.0 0.0 0.01 0.0 0.0 0.0 0.01 0.01 0.0 0.0 0.0 0.01 0.0 0.0 0.0 0.01 0.01 0.0 0.0 0.0 0.01 0.0 0.0 0.0 0.01 0.01 0.0 0.0 0.0 0.01 0.0 0.0 0.0 0.01 0.01 0.0 0.0 0.0 0.01 0.0 0.0 0.0 0.01 0.01 0.0 0.0 0.0 0.01 0.0 0.0 0.0 0.01 0.01 0.0 0.0 0.0 0.01 0.0 0.0 0.0 0.01 0.01 0.0 0.0 0.0 0.01 0.0 0.0 0.0 0.01 0.01 0.0 0.0 0.0 0.01 0.0 0.0 0.0 0.01 0.01 0.0 0.0 0.0 0.01 0.0 0.0 0.0 0.01 0.01 0.0 0.0 0.0 0.01 0.0 0.0 0.0 0.01 0.01 0.0 0.0 0.0 0.01 0.0 0.0 0.0 0.01 0.01 0.0 0.0 0.0 0.01 0.0 0.0 0.0 0.01 0.01 0.0 0.0 0.0 0.01 0.0 0.0 0.0 0.01 0.01 0.0 0.0 0.0 0.01 0.0 0.0 0.0 0.01 0.01 0.0 0.0 0.0 0.01 0.0 0.0 0.0 0.01 0.01 0.0 0.0 0.0 0.01 0.0 0.0 0.0 0.01 0.01 0.0 0.0 0.0 0.01 0.0 0.0 0.0 0.01 0.01 0.0 0.0 0.0 0.01 0.0 0.0 0.0 0.01 0.01 0.0 0.0 0.0 0.01 0.0 0.0 0.0 0.01 0.01 0.0 0.0 0.0 0.01 0.0 0.0 0.0 0.01 0.01 0.0 0.0 0.0 0.01 0.0 0.0 0.0 0.01 0.01 0.0 0.0 0.0 0.01 0.0 0.0 0.0 0.01 0.01 0.0 0.0 0.0 0.01 0.0 0.0 0.0 0.01 0.01 0.0 0.0 0.0 0.01 0.0 0.0 0.0 0.01 0.01 0.0 0.0 0.0 0.01 0.0 0.0 0.0 0.01 0.01 0.0 0.0 0.0 0.01 0.0 0.0 0.0 0.01 0.01 0.0 0.0 0.0 0.01 0.0 0.0 0.0 0.01 0.01 0.0 0.0 0.0 0.01 0.0 0.0 0.0 0.01 0.01 0.0 0.0 0.0 0.01 0.0 0.0 0.0 0.01 0.01 0.0 0.0 0.0 0.01 0.0 0.0 0.0 0.01 0.01 0.0 0.0 0.0 0.01 0.0 0.0 0.0 0.01 0.01 0.0 0.0 0.0 0.01 0.0 0.0 0.0 0.01 0.01 0.0 0.0 0.0 0.01 0.0 0.0 0.0 0.01 0.01 0.0 0.0 0.0 0.01 0.0 0.0 0.0 0.01 0.01 0.0 0.0 0.0 0.01 0.0 0.0 0.0 0.01 0.01 0.0 0.0 0.0 0.01 0.0 0.0 0.0 0.01 0.01 0.0 0.0 0.0 0.01 0.0 0.0 0.0 0.01 0.01 0.0 0.0 0.0 0.01 0.0 0.0 0.0 0.01 0.01 0.0 0.0 0.0 0.01 0.0 0.0 0.0 0.01 0.01 0.0 0.0 0.0 0.01 0.0 0.0 0.0 0.01 0.01 0.0 0.0 0.0 0.01 0.0 0.0 0.0 0.01 0.01 0.0 0.0 0.0 0.01 0.0 0.0 0.0 0.01 0.01 0.0 0.0 0.0 0.01 0.0 0.0 0.0 0.01 0.01 0.0 0.0 0.0 0.01 0.0 0.0 0.0 0.01 0.01 0.0 0.0 0.0 0.01 0.0 0.0 0.0 0.01 0.01 0.0 0.0 0.0 0.01 0.0 0.0 0.0 0.01 0.01 0.0 0.0 0.0 0.01 0.0 0.0 0.0 0.01 0.01 0.0 0.0 0.0 0.01 0.0 0.0 0.0 0.01 0.01 0.0 0.0 0.0 0.01 0.0 0.0 0.0 0.01 0.01 0.0 0.0 0.0 0.01 0.0 0.0 0.0 0.01 0.01 0.0 0.0 0.0 0.01 0.0 0.0 0.0 0.01 0.01 0.0 0.0 0.0 0.01 0.0 0.0 0.0 0.01 0.01 0.0 0.0 0.0 0.01 0.0 0.0 0.0 0.01 0.01 0.0 0.0 0.0 0.01 0.0 0.0 0.0 0.01 0.01 0.0 0.0 0.0 0.01 0.0 0.0 0.0 0.01 0.01 0.0 0.0 0.0 0.01 0.0 0.0 0.0 0.01 0.01 0.0 0.0 0.0 0.01 0.0 0.0 0.0 0.01 0.01 0.0 0.0 0.0 0.01 0.0 0.0 0.0 0.01 0.01 0.0 0.0 0.0 0.01 0.0 0.0 0.0 0.01 0.01 0.0 0.0 0.0 0.01 0.0 0.0 0.0 0.01 0.01 0.0 0.0 0.0 0.01 0.0 0.0 0.0 0.01 0.01 0.0 0.0 0.0 0.01 0.0 0.0 0.0 0.01 0.01 0.0 0.0 0.0 0.01 0.0 0.0 0.0 0.01 0.01 0.0 0.0 0.0 0.01 0.0 0.0 0.0 0.01 0.01 0.0 0.0 0.0 0.01 0.0 0.0 0.0 0.01 0.01 0.0 0.0 0.0 0.01 0.0 0.0 0.0 0.01 0.01 0.0 0.0 0.0 0.01 0.0 0.0 0.0 0.01 0.01 0.0 0.0 0.0 0.01 0.0 0.0 0.0 0.01 0.01 0.0 0.0 0.0 0.01 0.0 0.0 0.0 0.01 0.01 0.0 0.0 0.0 0.01 0.0 0.0 0.0 0.01 0.01 0.0 0.0 0.0 0.01 0.0 0.0 0.0 0.01 0.01 0.0 0.0 0.0 0.01 0.0 0.0 0.0 0.01 0.01 0.0 0.0 0.0 0.01 0.0 0.0 0.0 0.01 0.01 0.0 0.0 0.0 0.01 0.0 0.0 0.0 0.01 0.01 0.0 0.0 0.0 0.01 0.0 0.0 0.0 0.01 0.01 0.0 0.0 0.0 0.01 0.0 0.0 0.0 0.01 0.01 0.0 0.0 0.0 0.01 0.0 0.0 0.0 0.01 0.01 0.0 0.0 0.0 0.01 0.0 0.0 0.0 0.01 0.01 0.0 0.0 0.0 0.01 0.0 0.0 0.0 0.01 0.01 0.0 0.0 0.0 0.01 0.0 0.0 0.0 0.01 0.01 0.0 0.0 0.0 0.01 0.0 0.0 0.0 0.01 0.01 0.0 0.0 0.0 0.01 0.0 0.0 0.0 0.01 0.01 0.0 0.0 0.0 0.01 0.0 0.0 0.0 0.01 0.01 0.0 0.0 0.0 0.01 0.0 0.0 0.0 0.01 0.01 0.0 0.0 0.0 0.01 0.0 0.0 0.0 0.01 0.01 0.0 0.0 0.0 0.01 0.0 0.0 0.0 0.01 0.01 0.0 0.0 0.0 0.01 0.0 0.0 0.0 0.01 0.01 0.0 0.0 0.0 0.01 0.0 0.0 0.0 0.01 0.01 0.0 0.0 0.0 0.01 0.0 0.0 0.0 0.01 0.01 0.0 0.0 0.0 0.01 0.0 0.0 0.0 0.01 0.01 0.0 0.0 0.0 0.01 0.0 0.0 0.0 0.01 0.01 0.0 0.0 0.0 0.01 0.0 0.0 0.0 0.01 0.01 0.0 0.0 0.0 0.01 0.0 0.0 0.0 0.01 0.01 0.0 0.0 0.0 0.01 0.0 0.0 0.0 0.01 0.01 0.0 0.0 0.0 0.01 0.0 0.0 0.0 0.01 0.01 0.0 0.0 0.0 0.01 0.0 0.0 0.0 0.01 0.01 0.0 0.0 0.0 0.01 0.0 0.0 0.0 0.01 0.01 0.0 0.0 0.0 0.01 0.0 0.0 0.0 0.01 0.01 0.0 0.0 0.0 0.01 0.0 0.0 0.0 0.01 0.01 0.0 0.0 0.0 0.01 0.0 0.0 0.0 0.01 0.01 0.0 0.0 0.0 0.01 0.0 0.0 0.0 0.01 0.01 0.0 0.0 0.0 0.01 0.0 0.0 0.0 0.01 0.01 0.0 0.0 0.0 0.01 0.0 0.0 0.0 0.01 0.01 0.0 0.0 0.0 0.01 0.0 0.0 0.0 0.01 0.01 0.0 0.0 0.0 0.01 0.0 0.0 0.0 0.01 0.01 0.0 0.0 0.0 0.01 0.0 0.0 0.0 0.01 0.01 0.0 0.0 0.0 0.01 0.0 0.0 0.0 0.01 0.01 0.0 0.0 0.0 0.01 0.0 0.0 0.0 0.01 0.01 0.0 0.0 0.0 0.01 0.0 0.0 0.0 0.01 0.01 0.0 0.0 0.0 0.01 0.0 0.0 0.0 0.01 0.01 0.0 0.0 0.0 0.01 0.0 0.0 0.0 0.01 0.01 0.0 0.0 0.0 0.01 0.0 0.0 0.0 0.01 0.01 0.0 0.0 0.0 0.01 0.0 0.0 0.0 0.01 0.01 0.0 0.0 0.0 0.01 0.0 0.0 0.0 0.01 0.01 0.0 0.0 0.0 0.01 0.0 0.0 0.0 0.01 0.01 0.0 0.0 0.0 0.01 0.0 0.0 0.0 0.01 0.01 0.0 0.0 0.0 0.01 0.0 0.0 0.0 0.01 0.01 0.0 0.0 0.0 0.01 0.0 0.0 0.0 0.01 0.01 0.0 0.0 0.0 0.01 0.0 0.0 0.0 0.01 0.01 0.0 0.0 0.0 0.01 0.0 0.0 0.0 0.01 0.01 0.0 0.0 0.0 0.01 0.0 0.0 0.0 0.01 0.01 0.0 0.0 0.0 0.01 0.0 0.0 0.0 0.01 0.01 0.0 0.0 0.0 0.01 0.0 0.0 0.0 0.01 0.01 0.0 0.0 0.0 0.01 0.0 0.0 0.0 0.01 0.01 0.0 0.0 0.0 0.01 0.0 0.0 0.0 0.01 0.01 0.0 0.0 0.0 0.01 0.0 0.0 0.0 0.01 0.01 0.0 0.0 0.0 0.01 0.0 0.0 0.0 0.01 0.01 0.0 0.0 0.0 0.01 0.0 0.0 0.0 0.01 0.01 0.0 0.0 0.0 0.01 0.0 0.0 0.0 0.01 0.01 0.0 0.0 0.0 0.01 0.0 0.0 0.0 0.01 0.01 0.0 0.0 0.0 0.01 0.0 0.0 0.0 0.01 0.01 0.0 0.0 0.0 0.01 0.0 0.0 0.0 0.01 0.01 0.0 0.0 0.0 0.01 0.0 0.0 0.0 0.01 0.01 0.0 0.0 0.0 0.01 0.0 0.0 0.0 0.01 0.01 0.0 0.0 0.0 0.01 0.0 0.0 0.0 0.01 0.01 0.0 0.0 0.0 0.01 0.0 0.0 0.0 0.01 0.01 0.0 0.0 0.0 0.01 0.0 0.0 0.0 0.01 0.01 0.0 0.0 0.0 0.01 0.0 0.0 0.0 0.01 0.01 0.0 0.0 0.0 0.01 0.0 0.0 0.0 0.01 0.01 0.0 0.0 0.0 0.01 0.0 0.0 0.0 0.01 0.01 0.0 0.0 0.0 0.01 0.0 0.0 0.0 0.01 0.01 0.0 0.0 0.0 0.01 0.0 0.0 0.0 0.01 0.01 0.0 0.0 0.0 0.01 0.0 0.0 0.0 0.01 0.01 0.0 0.0 0.0 0.01 0.0 0.0 0.0 0.01 0.01 0.0 0.0 0.0 0.01 0.0 0.0 0.0 0.01 0.01 0.0 0.0 0.0 0.01 0.0 0.0 0.0 0.01 0.01 0.0 0.0 0.0 0.01 0.0 0.0 0.0 0.01 0.01 0.0 0.0 0.0 0.01 0.0 0.0 0.0 0.01 0.01 0.0 0.0 0.0 0.01 0.0 0.0 0.0 0.01 0.01 0.0 0.0 0.0 0.01 0.0 0.0 0.0 0.01 0.01 0.0 0.0 0.0 0.01 0.0 0.0 0.0 0.01 0.01 0.0 0.0 0.0 0.01 0.0 0.0 0.0 0.01 0.01 0.0 0.0 0.0 0.01 0.0 0.0 0.0 0.01 0.01 0.0 0.0 0.0 0.01 0.0 0.0 0.0 0.01 0.01 0.0 0.0 0.0 0.01 0.0 0.0 0.0 0.01 0.01 0.0 0.0 0.0 0.01 0.0 0.0 0.0 0.01 0.01 0.0 0.0 0.0 0.01 0.0 0.0 0.0 0.01 0.01 0.0 0.0 0.0 0.01 0.0 0.0 0.0 0.01 0.01 0.0 0.0 0.0 0.01 0.0 0.0 0.0 0.01 0.01 0.0 0.0 0.0 0.01 0.0 0.0 0.0 0.01 0.01 0.0 0.0 0.0 0.01 0.0 0.0 0.0 0.01 0.01 0.0 0.0 0.0 0.01 0.0 0.0 0.0 0.01 0.01 0.0 0.0 0.0 0.01 0.0 0.0 0.0 0.01 0.01 0.0 0.0 0.0 0.01 0.0 0.0 0.0 0.01 0.01 0.0 0.0 0.0 0.01 0.0 0.0 0.0 0.01 0.01 0.0 0.0 0.0 0.01 0.0 0.0 0.0 0.01 0.01 0.0 0.0 0.0 0.01 0.0 0.0 0.0 0.01 0.01 0.0 0.0 0.0 0.01 0.0 0.0 0.0 0.01 0.01 0.0 0.0 0.0 0.01 0.0 0.0 0.0 0.01 0.01 0.0 0.0 0.0 0.01 0.0 0.0 0.0 0.01 0.01 0.0 0.0 0.0 0.01 0.0 0.0 0.0 0.01 0.01 0.0 0.0 0.0 0.01 0.0 0.0 0.0 0.01 0.01 0.0 0.0 0.0 0.01 0.0 0.0 0.0 0.01 0.01 0.0 0.0 0.0 0.01 0.0 0.0 0.0 0.01 0.01 0.0 0.0 0.0 0.01 0.0 0.0 0.0 0.01 0.01 0.0 0.0 0.0 0.01 0.0 0.0 0.0 0.01 0.01 0.0 0.0 0.0 0.01 0.0 0.0 0.0 0.01 0.01 0.0 0.0 0.0 0.01 0.0 0.0 0.0 0.01 0.01 0.0 0.0 0.0 0.01 0.0 0.0 0.0 0.01 0.01 0.0 0.0 0.0 0.01 0.0 0.0 0.0 0.01 0.01 0.0 0.0 0.0 0.01 0.0 0.0 0.0 0.01 0.01 0.0 0.0 0.0 0.01 0.0 0.0 0.0 0.01 0.01 0.0 0.0 0.0 0.01 0.0 0.0 0.0 0.01 0.01 0.0 0.0 0.0 0.01 0.0 0.0 0.0 0.01 0.01 0.0 0.0 0.0 0.01 0.0 0.0 0.0 0.01 0.01 0.0 0.0 0.0 0.01 0.0 0.0 0.0 0.01 0.01 0.0 0.0 0.0 0.01 0.0 0.0 0.0 0.01 0.01 0.0 0.0 0.0 0.01 0.0 0.0 0.0 0.01 0.01 0.0 0.0 0.0 0.01 0.0 0.0 0.0 0.01 0.01 0.0 0.0 0.0 0.01 0.0 0.0 0.0 0.01 0.01 0.0 0.0 0.0 0.01 0.0 0.0 0.0 0.01 0.01 0.0 0.0 0.0 0.01 0.0 0.0 0.0 0.01 0.01 0.0 0.0 0.0 0.01 0.0 0.0 0.0 0.01 0.01 0.0 0.0 0.0 0.01 0.0 0.0 0.0 0.01 0.01 0.0 0.0 0.0 0.01 0.0 0.0 0.0 0.01 0.01 0.0 0.0 0.0 0.01 0.0 0.0 0.0 0.01 0.01 0.0 0.0 0.0 0.01 0.0 0.0 0.0 0.01 0.01 0.0 0.0 0.0 0.01 0.0 0.0 0.0 0.01 0.01 0.0 0.0 0.0 0.01 0.0 0.0 0.0 0.01 0.01 0.0 0.0 0.0 0.01 0.0 0.0 0.0 0.01 0.01 0.0 0.0 0.0 0.01 0.0 0.0 0.0 0.01 0.01 0.0 0.0 0.0 0.01 0.0 0.0 0.0 0.01 0.01 0.0 0.0 0.0 0.01 0.0 0.0 0.0 0.01 0.01 0.0 0.0 0.0 0.01 0.0 0.0 0.0 0.01 0.01 0.0 0.0 0.0 0.01 0.0 0.0 0.0 0.01 0.01 0.0 0.0 0.0 0.01 0.0 0.0 0.0 0.01 0.01 0.0 0.0 0.0 0.01 0.0 0.0 0.0 0.01 0.01 0.0 0.0 0.0 0.01 0.0 0.0 0.0 0.01 0.01 0.0 0.0 0.0 0.01 0.0 0.0 0.0 0.01 0.01 0.0 0.0 0.0 0.01 0.0 0.0 0.0 0.01 0.01 0.0 0.0 0.0 0.01 0.0 0.0 0.0 0.01 0.01 0.0 0.0 0.0 0.01 0.0 0.0 0.0 0.01 0.01 0.0 0.0 0.0 0.01 0.0 0.0 0.0 0.01 0.01 0.0 0.0 0.0 0.01 0.0 0.0 0.0 0.01 0.01 0.0 0.0 0.0 0.01 0.0 0.0 0.0 0.01 0.01 0.0 0.0 0.0 0.01 0.0 0.0 0.0 0.01 0.01 0.0 0.0 0.0 0.01 0.0 0.0 0.0 0.01 0.01 0.0 0.0 0.0 0.01 0.0 0.0 0.0 0.01 0.01 0.0 0.0 0.0 0.01 0.0 0.0 0.0 0.01 0.01 0.0 0.0 0.0 0.01 0.0 0.0 0.0 0.01 0.01 0.0 0.0 0.0 0.01 0.0 0.0 0.0 0.01 0.01 0.0 0.0 0.0 0.01 0.0 0.0 0.0 0.01 0.01 0.0 0.0 0.0 0.01 0.0 0.0 0.0 0.01 0.01 0.0 0.0 0.0 0.01 0.0 0.0 0.0 0.01 0.01 0.0 0.0 0.0 0.01 0.0 0.0 0.0 0.01 0.01 0.0 0.0 0.0 0.01 0.0 0.0 0.0 0.01 0.01 0.0 0.0 0.0 0.01 0.0 0.0 0.0 0.01 0.01 0.0 0.0 0.0 0.01 0.0 0.0 0.0 0.01 0.01 0.0 0.0 0.0 0.01 0.0 0.0 0.0 0.01 0.01 0.0 0.0 0.0 0.01 0.0 0.0 0.0 0.01 0.01 0.0 0.0 0.0 0.01 0.0 0.0 0.0 0.01 0.01 0.0 0.0 0.0 0.01 0.0 0.0 0.0 0.01 0.01 0.0 0.0 0.0 0.01 0.0 0.0 0.0 0.01 0.01 0.0 0.0 0.0 0.01 0.0 0.0 0.0 0.01 0.01 0.0 0.0 0.0 0.01 0.0 0.0 0.0 0.01 0.01 0.0 0.0 0.0 0.01 0.0 0.0 0.0 0.01 0.01 0.0 0.0 0.0 0.01 0.0 0.0 0.0 0.01 0.01 0.0 0.0 0.0 0.01 0.0 0.0 0.0 0.01 0.01 0.0 0.0 0.0 0.01 0.0 0.0 0.0 0.01 0.01 0.0 0.0 0.0 0.01 0.0 0.0 0.0 0.01 0.01 0.0 0.0 0.0 0.01 0.0 0.0 0.0 0.01 0.01 0.0 0.0 0.0 0.01 0.0 0.0 0.0 0.01 0.01 0.0 0.0 0.0 0.01 0.0 0.0 0.0 0.01 0.01 0.0 0.0 0.0 0.01 0.0 0.0 0.0 0.01 0.01 0.0 0.0 0.0 0.01 0.0 0.0 0.0 0.01 0.01 0.0 0.0 0.0 0.01 0.0 0.0 0.0 0.01 0.01 0.0 0.0 0.0 0.01 0.0 0.0 0.0 0.01 0.01 0.0 0.0 0.0 0.01 0.0 0.0 0.0 0.01 0.01 0.0 0.0 0.0 0.01 0.0 0.0 0.0 0.01 0.01 0.0 0.0 0.0 0.01 0.0 0.0 0.0 0.01 0.01 0.0 0.0 0.0 0.01 0.0 0.0 0.0 0.01 0.01 0.0 0.0 0.0 0.01 0.0 0.0 0.0 0.01 0.01 0.0 0.0 0.0 0.01 0.0 0.0 0.0 0.01 0.01 0.0 0.0 0.0 0.01 0.0 0.0 0.0 0.01 0.01 0.0 0.0 0.0 0.01 0.0 0.0 0.0 0.01 0.01 0.0 0.0 0.0 0.01 0.0 0.0 0.0 0.01 0.01 0.0 0.0 0.0 0.01 0.0 0.0 0.0 0.01 0.01 0.0 0.0 0.0 0.01 0.0 0.0 0.0 0.01 0.01 0.0 0.0 0.0 0.01 0.0 0.0 0.0 0.01 0.01 0.0 0.0 0.0 0.01 0.0 0.0 0.0 0.01 0.01 0.0 0.0 0.0 0.01 0.0 0.0 0.0 0.01 0.01 0.0 0.0 0.0 0.01 0.0 0.0 0.0 0.01 0.01 0.0 0.0 0.0 0.01 0.0 0.0 0.0 0.01 0.01 0.0 0.0 0.0 0.01 0.0 0.0 0.0 0.01 0.01 0.0 0.0 0.0 0.01 0.0 0.0 0.0 0.01 0.01 0.0 0.0 0.0 0.01 0.0 0.0 0.0 0.01 0.01 0.0 0.0 0.0 0.01 0.0 0.0 0.0 0.01 0.01 0.0 0.0 0.0 0.01 0.0 0.0 0.0 0.01 0.01 0.0 0.0 0.0 0.01 0.0 0.0 0.0 0.01 0.01 0.0 0.0 0.0 0.01 0.0 0.0 0.0 0.01 0.01 0.0 0.0 0.0 0.01 0.0 0.0 0.0 0.01 0.01 0.0 0.0 0.0 0.01 0.0 0.0 0.0 0.01 0.01 0.0 0.0 0.0 0.01 0.0 0.0 0.0 0.01 0.01 0.0 0.0 0.0 0.01 0.0 0.0 0.0 0.01 0.01 0.0 0.0 0.0 0.01 0.0 0.0 0.0 0.01 0.01 0.0 0.0 0.0 0.01 0.0 0.0 0.0 0.01 0.01 0.0 0.0 0.0 0.01 0.0 0.0 0.0 0.01 0.01 0.0 0.0 0.0 0.01 0.0 0.0 0.0 0.01 0.01 0.0 0.0 0.0 0.01 0.0 0.0 0.0 0.01 0.01 0.0 0.0 0.0 0.01 0.0 0.0 0.0 0.01 0.01 0.0 0.0 0.0 0.01 0.0 0.0 0.0 0.01 0.01 0.0 0.0 0.0 0.01 0.0 0.0 0.0 0.01 0.01 0.0 0.0 0.0 0.01 0.0 0.0 0.0 0.01 0.01 0.0 0.0 0.0 0.01 0.0 0.0 0.0 0.01 0.01 0.0 0.0 0.0 0.01 0.0 0.0 0.0 0.01 0.01 0.0 0.0 0.0 0.01 0.0 0.0 0.0 0.01 0.01 0.0 0.0 0.0 0.01 0.0 0.0 0.0 0.01 0.01 0.0 0.0 0.0 0.01 0.0 0.0 0.0 0.01 0.01 0.0 0.0 0.0 0.01 0.0 0.0 0.0 0.01 0.01 0.0 0.0 0.0 0.01 0.0 0.0 0.0 0.01 0.01 0.0 0.0 0.0 0.01 0.0 0.0 0.0 0.01 0.01 0.0 0.0 0.0 0.01 0.0 0.0 0.0 0.01 0.01 0.0 0.0 0.0 0.01 0.0 0.0 0.0 0.01 0.01 0.0 0.0 0.0 0.01 0.0 0.0 0.0 0.01 0.01 0.0 0.0 0.0 0.01 0.0 0.0 0.0 0.01 0.01 0.0 0.0 0.0 0.01 0.0 0.0 0.0 0.01 0.01 0.0 0.0 0.0 0.01 0.0 0.0 0.0 0.01 0.01 0.0 0.0 0.0 0.01 0.0 0.0 0.0 0.01 0.01 0.0 0.0 0.0 0.01 0.0 0.0 0.0 0.01 0.01 0.0 0.0 0.0 0.01 0.0 0.0 0.0 0.01 0.01 0.0 0.0 0.0 0.01 0.0 0.0 0.0 0.01 0.01 0.0 0.0 0.0 0.01 0.0 0.0 0.0 0.01 0.01 0.0 0.0 0.0 0.01 0.0 0.0 0.0 0.01 0.01 0.0 0.0 0.0 0.01 0.0 0.0 0.0 0.01 0.01 0.0 0.0 0.0 0.01 0.0 0.0 0.0 0.01 0.01 0.0 0.0 0.0 0.01 0.0 0.0 0.0 0.01 0.01 0.0 0.0 0.0 0.01 0.0 0.0 0.0 0.01 0.01 0.0 0.0 0.0 0.01 0.0 0.0 0.0 0.01 0.01 0.0 0.0 0.0 0.01 0.0 0.0 0.0 0.01 0.01 0.0 0.0 0.0 0.01 0.0 0.0 0.0 0.01 0.01 0.0 0.0 0.0 0.01 0.0 0.0 0.0 0.01 0.01 0.0 0.0 0.0 0.01 0.0 0.0 0.0 0.01 0.01 0.0 0.0 0.0 0.01 0.0 0.0 0.0 0.01 0.01 0.0 0.0 0.0 0.01 0.0 0.0 0.0 0.01 0.01 0.0 0.0 0.0 0.01 0.0 0.0 0.0 0.01 0.01 0.0 0.0 0.0 0.01 0.0 0.0 0.0 0.01 0.01 0.0 0.0 0.0 0.01 0.0 0.0 0.0 0.01 0.01 0.0 0.0 0.0 0.01 0.0 0.0 0.0 0.01 0.01 0.0 0.0 0.0 0.01 0.0 0.0 0.0 0.01 0.01 0.0 0.0 0.0 0.01 0.0 0.0 0.0 0.01 0.01 0.0 0.0 0.0 0.01 0.0 0.0 0.0 0.01 0.01 0.0 0.0 0.0 0.01 0.0 0.0 0.0 0.01 0.01 0.0 0.0 0.0 0.01 0.0 0.0 0.0 0.01 0.01 0.0 0.0 0.0 0.01 0.0 0.0 0.0 0.01 0.01 0.0 0.0 0.0 0.01 0.0 0.0 0.0 0.01 0.01 0.0 0.0 0.0 0.01 0.0 0.0 0.0 0.01 0.01 0.0 0.0 0.0 0.01 0.0 0.0 0.0 0.01 0.01 0.0 0.0 0.0 0.01 0.0 0.0 0.0 0.01 0.01 0.0 0.0 0.0 0.01 0.0 0.0 0.0 0.01 0.01 0.0 0.0 0.0 0.01 0.0 0.0 0.0 0.01 0.01 0.0 0.0 0.0 0.01 0.0 0.0 0.0 0.01 0.01 0.0 0.0 0.0 0.01 0.0 0.0 0.0 0.01 0.01 0.0 0.0 0.0 0.01 0.0 0.0 0.0 0.01 0.01 0.0 0.0 0.0 0.01 0.0 0.0 0.0 0.01 0.01 0.0 0.0 0.0 0.01 0.0 0.0 0.0 0.01 0.01 0.0 0.0 0.0 0.01 0.0 0.0 0.0 0.01 0.01 0.0 0.0 0.0 0.01 0.0 0.0 0.0 0.01 0.01 0.0 0.0 0.0 0.01 0.0 0.0 0.0 0.01 0.01 0.0 0.0 0.0 0.01 0.0 0.0 0.0 0.01 0.01 0.0 0.0 0.0 0.01 0.0 0.0 0.0 0.01 0.01 0.0 0.0 0.0 0.01 0.0 0.0 0.0 0.01 0.01 0.0 0.0 0.0 0.01 0.0 0.0 0.0 0.01 0.01 0.0 0.0 0.0 0.01 0.0 0.0 0.0 0.01 0.01 0.0 0.0 0.0 0.01 0.0 0.0 0.0 0.01 0.01 0.0 0.0 0.0 0.01 0.0 0.0 0.0 0.01 0.01 0.0 0.0 0.0 0.01 0.0 0.0 0.0 0.01 0.01 0.0 0.0 0.0 0.01 0.0 0.0 0.0 0.01 0.01 0.0 0.0 0.0 0.01 0.0 0.0 0.0 0.01 0.01 0.0 0.0 0.0 0.01 0.0 0.0 0.0 0.01 0.01 0.0 0.0 0.0 0.01 0.0 0.0 0.0 0.01 0.01 0.0 0.0 0.0 0.01 0.0 0.0 0.0 0.01 0.01 0.0 0.0 0.0 0.01 0.0 0.0 0.0 0.01 0.01 0.0 0.0 0.0 0.01 0.0 0.0 0.0 0.01 0.01 0.0 0.0 0.0 0.01 0.0 0.0 0.0 0.01 0.01 0.0 0.0 0.0 0.01 0.0 0.0 0.0 0.01 0.01 0.0 0.0 0.0 0.01 0.0 0.0 0.0 0.01 0.01 0.0 0.0 0.0 0.01 0.0 0.0 0.0 0.01 0.01 0.0 0.0 0.0 0.01 0.0 0.0 0.0 0.01 0.01 0.0 0.0 0.0 0.01 0.0 0.0 0.0 0.01 0.01 0.0 0.0 0.0 0.01 0.0 0.0 0.0 0.01 0.009998800715776903 0.0 1.52929213402965e-12 0.0 0.01 0.0 1.5292921340279957e-12 0.0 0.009999901001470126 0.009998490841702573 0.0 6.48512937162611e-13 0.0 0.01 0.0 6.48512937162611e-13 0.0 0.009999954500310534 0.00999822647192187 0.0 1.288095855254911e-13 0.0 0.01 0.0 1.288095855253877e-13 0.0 0.010000007800009127 0.009998017089945816 0.0 -2.910594920135202e-14 0.0 0.01 0.0 -2.910594920135202e-14 0.0 0.010000050300379518 0.009997862685412369 0.0 -6.4621490917265906e-15 0.0 0.01 0.0 -6.4621490917265906e-15 0.0 0.010000074700837023 0.009998927172668471 0.0 1.6925963024631877e-12 0.0 0.01 0.0 1.6925963024698052e-12 0.0 0.00999982700448922 0.00999854681682259 0.0 6.13768518077088e-13 0.0 0.01 0.0 6.13768518077088e-13 0.0 0.009999876002306354 0.009998186493440224 0.0 -3.4707623934134607e-13 0.0 0.01 0.0 -3.4707623934134607e-13 0.0 0.009999945000453751 0.009997880673921882 0.0 -7.628222434160348e-13 0.0 0.01 0.0 -7.62822243416862e-13 0.0 0.010000013650027947 0.009997640335465355 0.0 -6.95587304221494e-13 0.0 0.01 0.0 -6.95587304221494e-13 0.0 0.01000006740068142 0.009997466463146696 0.0 -4.336951909620753e-13 0.0 0.01 0.0 -4.336951909620753e-13 0.0 0.010000099101473146 0.009998750734138778 0.0 1.321623157706496e-12 0.0 0.01 0.0 1.321623157706496e-12 0.0 0.009999792506458214 0.009998316925006587 0.0 4.404480340673308e-13 0.0 0.01 0.0 4.404480340677444e-13 0.0 0.009999854503175459 0.009997910155300226 0.0 -5.054839477734033e-13 0.0 0.01 0.0 -5.054839477734033e-13 0.0 0.009999940000539996 0.009997570385740749 0.0 -9.81777229349232e-13 0.0 0.01 0.0 -9.81777229349232e-13 0.0 0.010000020000060004 0.009997310085735213 0.0 -9.396829967297964e-13 0.0 0.01 0.0 -9.396829967297964e-13 0.0 0.010000082501020954 0.009997127737957474 0.0 -6.67086060033506e-13 0.0 0.01 0.0 -6.67086060033506e-13 0.0 0.010000118652111718 0.009998569806876377 0.0 1.4782374733669512e-11 0.0 0.01 0.0 1.4782374733643042e-11 0.0 0.009999768508038527 0.009998079553358989 0.0 5.3633672558758694e-12 0.0 0.01 0.0 5.363367255882487e-12 0.0 0.009999843003697254 0.009997629842913068 0.0 1.1785827125035607e-12 0.0 0.01 0.0 1.1785827125027335e-12 0.0 0.009999937000595349 0.009997260126447563 0.0 2.1905886920623376e-13 0.0 0.01 0.0 2.1905886920623376e-13 0.0 0.01000002635010415 0.009996984364657173 0.0 -2.943476426902959e-13 0.0 0.01 0.0 -2.943476426907095e-13 0.0 0.01000009425133248 0.00999679653998117 0.0 -4.2525154088766136e-13 0.0 0.01 0.0 -4.2525154088766136e-13 0.0 0.010000132802645438 0.009998347409748731 0.0 1.3325738648000876e-09 0.0 0.01 0.0 1.3325738647983936e-09 0.0 0.009999754009077292 0.009997799726393771 0.0 7.491419394087831e-10 0.0 0.01 0.0 7.491419394079361e-10 0.0 0.009999835504059008 0.009997307587753048 0.0 2.6238695622560884e-10 0.0 0.01 0.0 2.6238695622560884e-10 0.0 0.009999940500531043 0.009996910432404244 0.0 3.094989633587211e-11 0.0 0.01 0.0 3.094989633587211e-11 0.0 0.010000033700170354 0.009996623211175832 0.0 1.4859570645663309e-12 0.0 0.01 0.0 1.4859570645663309e-12 0.0 0.010000102551577504 0.009996436905251746 0.0 3.5216061870236375e-13 0.0 0.01 0.0 3.5216061870257054e-13 0.0 0.010000139652925387 0.009998022586699924 0.0 1.175525995586403e-08 0.0 0.01 0.0 1.175525995586403e-08 0.0 0.009999745509735857 0.009997422996492776 0.0 7.449638848068009e-09 0.0 0.01 0.0 7.449638848068009e-09 0.0 0.00999983450411675 0.00999689494680405 0.0 3.4413637905282834e-09 0.0 0.01 0.0 3.4413637905248952e-09 0.0 0.00999994500045552 0.009996483355888179 0.0 9.52690899015977e-10 0.0 0.01 0.0 9.52690899015977e-10 0.0 0.010000040050240737 0.009996194173750039 0.0 1.0921128595637973e-10 0.0 0.01 0.0 1.0921128595637973e-10 0.0 0.010000107901746396 0.009996007392410855 0.0 1.6703125923869256e-12 0.0 0.01 0.0 1.6703125923869256e-12 0.0 0.010000144053112635 0.009997497440099682 0.0 4.9326223787687744e-08 0.0 0.01 0.0 4.9326223787687744e-08 0.0 0.009999739010582785 0.009996861478337829 0.0 3.3802852294470337e-08 0.0 0.01 0.0 3.380285229448389e-08 0.0 0.009999836004205759 0.00999633801254897 0.0 1.703135167712398e-08 0.0 0.01 0.0 1.7031351677130756e-08 0.0 0.009999951500396365 0.009995942970265046 0.0 5.940053301263089e-09 0.0 0.01 0.0 5.940053301263089e-09 0.0 0.010000048350355955 0.009995666318747874 0.0 1.195816672801394e-09 0.0 0.01 0.0 1.195816672801394e-09 0.0 0.01000011375194111 0.009995495046021112 0.0 8.685199481595837e-11 0.0 0.01 0.0 8.68519948159319e-11 0.0 0.010000146503219417 0.009996649687521867 0.0 1.4323682797083744e-07 0.0 0.01 0.0 1.4323682797078323e-07 0.0 0.00999972801417596 0.009996020877798825 0.0 1.0081204461135198e-07 0.0 0.01 0.0 1.0081204461135198e-07 0.0 0.00999983100580929 0.009995566949952338 0.0 5.282699747495524e-08 0.0 0.01 0.0 5.282699747495524e-08 0.0 0.009999958500677189 0.009995245393154814 0.0 2.0139458129638194e-08 0.0 0.01 0.0 2.013945812964497e-08 0.0 0.010000060050601787 0.00999502621324944 0.0 5.046691916155941e-09 0.0 0.01 0.0 5.046691916157635e-09 0.0 0.010000123552293563 0.009994887423440329 0.0 6.490702889853645e-10 0.0 0.01 0.0 6.490702889853645e-10 0.0 0.010000152853504621 0.009995356252565158 0.0 3.2539579960242423e-07 0.0 0.01 0.0 3.253957996023158e-07 0.0 0.009999708528637267 0.009994831517503739 0.0 2.2727438246932397e-07 0.0 0.01 0.0 2.2727438246932397e-07 0.0 0.009999821012559352 0.009994548962476238 0.0 1.1999843185843363e-07 0.0 0.01 0.0 1.1999843185843363e-07 0.0 0.009999969502301049 0.009994376747042498 0.0 4.741089979959953e-08 0.0 0.01 0.0 4.741089979958598e-08 0.0 0.010000084001395834 0.009994256951208619 0.0 1.3173820049802617e-08 0.0 0.01 0.0 1.3173820049795841e-08 0.0 0.010000150403419162 0.009994181082913537 0.0 2.177301501202405e-09 0.0 0.01 0.0 2.177301501202405e-09 0.0 0.01000017625466046 0.009993599203625697 0.0 5.930422719665389e-07 0.0 0.01 0.0 5.930422719666473e-07 0.0 0.009999644571755215 0.009993320722666857 0.0 4.0616577818262684e-07 0.0 0.01 0.0 4.0616577818262684e-07 0.0 0.009999795531040306 0.009993312221708942 0.0 2.1217449013119678e-07 0.0 0.01 0.0 2.1217449013114257e-07 0.0 0.00999999000677372 0.009993349142052627 0.0 8.466637227620114e-08 0.0 0.01 0.0 8.466637227622824e-08 0.0 0.010000134753799912 0.009993365109204648 0.0 2.4720254653572257e-08 0.0 0.01 0.0 2.4720254653558705e-08 0.0 0.010000205556429585 0.009993370099174219 0.0 4.627845904626132e-09 0.0 0.01 0.0 4.627845904626132e-09 0.0 0.01000022755777036 0.009991622647664797 0.0 8.510327163683065e-07 0.0 0.01 0.0 8.510327163685234e-07 0.0 0.009999475650019506 0.009991691416512667 0.0 5.775396763944797e-07 0.0 0.01 0.0 5.775396763945881e-07 0.0 0.009999743559956281 0.00999197767730095 0.0 2.976239395501598e-07 0.0 0.01 0.0 2.97623939550214e-07 0.0 0.010000035663491882 0.009992220589422599 0.0 1.1856640492861632e-07 0.0 0.01 0.0 1.1856640492861632e-07 0.0 0.01000022805991222 0.009992372236488887 0.0 3.535788967769384e-08 0.0 0.01 0.0 3.5357889677687065e-08 0.0 0.010000314965067524 0.009992456045290136 0.0 7.023930768723356e-09 0.0 0.01 0.0 7.023930768723356e-09 0.0 0.01000032666601331 0.009989996173523868 0.0 9.716125377384147e-07 0.0 0.01 0.0 9.716125377381979e-07 0.0 0.009999413693383275 0.009990236880345156 0.0 6.520014275634371e-07 0.0 0.01 0.0 6.520014275635455e-07 0.0 0.00999973157466177 0.009990695020161127 0.0 3.325754601922167e-07 0.0 0.01 0.0 3.3257546019216247e-07 0.0 0.0100001382194766 0.009991060005431457 0.0 1.3149574274920863e-07 0.0 0.01 0.0 1.3149574274923573e-07 0.0 0.010000397476293344 0.009991298371175437 0.0 3.9283387313111416e-08 0.0 0.01 0.0 3.928338731311819e-08 0.0 0.010000491236426328 0.009991442497184437 0.0 7.902416648175698e-09 0.0 0.01 0.0 7.902416648175698e-09 0.0 0.010000485385346928 0.009988838838323967 0.0 9.106168453867436e-07 0.0 0.01 0.0 9.106168453869605e-07 0.0 0.010000364894527927 0.009989063520058844 0.0 5.928451092451683e-07 0.0 0.01 0.0 5.928451092450599e-07 0.0 0.010000192908375966 0.009989513531200261 0.0 2.962721759937098e-07 0.0 0.01 0.0 2.962721759937098e-07 0.0 0.010000436541767122 0.00998989384282714 0.0 1.1518641294952438e-07 0.0 0.01 0.0 1.1518641294953793e-07 0.0 0.010000675870506478 0.009990156553286871 0.0 3.377911286004087e-08 0.0 0.01 0.0 3.3779112860047645e-08 0.0 0.010000748634230935 0.009990332537074622 0.0 6.552612274949133e-09 0.0 0.01 0.0 6.5526122749474385e-09 0.0 0.01000071347635646 0.009987823341595268 0.0 6.561664929570369e-07 0.0 0.01 0.0 6.561664929570911e-07 0.0 0.010001566332594001 0.009988016601645264 0.0 4.228428794339229e-07 0.0 0.01 0.0 4.228428794339229e-07 0.0 0.010001074900141344 0.009988376304467023 0.0 2.0732975886919754e-07 0.0 0.01 0.0 2.0732975886919754e-07 0.0 0.01000098305139567 0.0099886961962478 0.0 7.832818682357789e-08 0.0 0.01 0.0 7.832818682357789e-08 0.0 0.010001076324667705 0.00998893887943403 0.0 2.1897161659089812e-08 0.0 0.01 0.0 2.1897161659089812e-08 0.0 0.01000108222572854 0.009989122772886262 0.0 3.812576972411353e-09 0.0 0.01 0.0 3.812576972410929e-09 0.0 0.010000998699592395 0.009986773307750397 0.0 3.6077504566287867e-07 0.0 0.01 0.0 3.6077504566285157e-07 0.0 0.010002383171200982 0.009986930175786531 0.0 2.3079567615171838e-07 0.0 0.01 0.0 2.3079567615169128e-07 0.0 0.01000188774240111 0.009987185176956823 0.0 1.1078561972880101e-07 0.0 0.01 0.0 1.1078561972880101e-07 0.0 0.010001602436931722 0.009987424262454048 0.0 3.979958741859554e-08 0.0 0.01 0.0 3.979958741859554e-08 0.0 0.01000153550383131 0.009987627997913895 0.0 1.0027402192605118e-08 0.0 0.01 0.0 1.0027402192605118e-08 0.0 0.010001454417253013 0.009987804346428729 0.0 1.3589764449918804e-09 0.0 0.01 0.0 1.3589764449916686e-09 0.0 0.01000131861076458 0.00998560912769822 0.0 1.5037772658185505e-07 0.0 0.01 0.0 1.5037772658185505e-07 0.0 0.010002844466584358 0.00998571765750133 0.0 9.411485138696897e-08 0.0 0.01 0.0 9.411485138696219e-08 0.0 0.01000245645616047 0.009985874486265764 0.0 4.282120588089519e-08 0.0 0.01 0.0 4.282120588089858e-08 0.0 0.01000213738534259 0.0099860412813936 0.0 1.3831769015479656e-08 0.0 0.01 0.0 1.383176901548135e-08 0.0 0.010001972283360583 0.009986204599561732 0.0 2.754904986335241e-09 0.0 0.01 0.0 2.754904986335241e-09 0.0 0.01000182229799564 0.009986367925769566 0.0 1.8932232172675682e-10 0.0 0.01 0.0 1.8932232172678329e-10 0.0 0.010001653259899894 0.00998427068995969 0.0 4.426843037005576e-08 0.0 0.01 0.0 4.426843037005915e-08 0.0 0.010003102493517208 0.009984327421699798 0.0 2.5650975872976042e-08 0.0 0.01 0.0 2.5650975872976042e-08 0.0 0.010002813687178808 0.009984414014329862 0.0 1.0240765876909374e-08 0.0 0.01 0.0 1.0240765876909374e-08 0.0 0.010002535163748265 0.0099845244979441 0.0 2.505078541193464e-09 0.0 0.01 0.0 2.505078541193464e-09 0.0 0.010002348477043628 0.009984651907041762 0.0 2.2699610443818768e-10 0.0 0.01 0.0 2.2699610443818768e-10 0.0 0.010002172557796082 0.009984800723062718 0.0 -2.212817732344037e-11 0.0 0.01 0.0 -2.212817732343706e-11 0.0 0.010001984490574161 0.009982732329072931 0.0 6.539117212622823e-09 0.0 0.01 0.0 6.539117212622823e-09 0.0 0.010003281864895333 0.009982749738614653 0.0 3.061648556755628e-09 0.0 0.01 0.0 3.061648556755416e-09 0.0 0.01000305900305409 0.009982789034782176 0.0 7.269870959286084e-10 0.0 0.01 0.0 7.269870959286084e-10 0.0 0.010002838107771389 0.009982858674702234 0.0 -4.8409525150917547e-11 0.0 0.01 0.0 -4.840952515091424e-11 0.0 0.01000267292129443 0.009982957665382621 0.0 -6.357845808242997e-11 0.0 0.01 0.0 -6.357845808242997e-11 0.0 0.010002501438266071 0.009983089989182544 0.0 -1.9796681472182523e-11 0.0 0.01 0.0 -1.9796681472182523e-11 0.0 0.010002313802804839 0.009980991337084744 0.0 -9.160433302790211e-11 0.0 0.01 0.0 -9.160433302790872e-11 0.0 0.010003479365055122 0.009980975428191043 0.0 -2.905354289502096e-10 0.0 0.01 0.0 -2.905354289502096e-10 0.0 0.010003291674555197 0.009980980399712151 0.0 -2.547768668017758e-10 0.0 0.01 0.0 -2.54776866801789e-10 0.0 0.01000311865829804 0.009981015200567945 0.0 -1.4706974455818008e-10 0.0 0.01 0.0 -1.470697445581536e-10 0.0 0.010002988138812615 0.00998109076939398 0.0 -6.27180799279295e-11 0.0 0.01 0.0 -6.27180799279295e-11 0.0 0.01000282639782729 0.009981207606154674 0.0 -1.8372920161685675e-11 0.0 0.01 0.0 -1.837292016168402e-11 0.0 0.010002637292930355 0.009979014245612516 0.0 -2.316545740141516e-10 0.0 0.01 0.0 -2.316545740141516e-10 0.0 0.010003740397539953 0.009978970025478755 0.0 -3.588743995045219e-10 0.0 0.01 0.0 -3.588743995044954e-10 0.0 0.010003563403772443 0.009978947170359145 0.0 -2.85741113717674e-10 0.0 0.01 0.0 -2.85741113717674e-10 0.0 0.01000341875238137 0.0099789615790032 0.0 -1.5992867585813648e-10 0.0 0.01 0.0 -1.5992867585813648e-10 0.0 0.010003315598250087 0.009979023189081821 0.0 -6.533073145064646e-11 0.0 0.01 0.0 -6.533073145064977e-11 0.0 0.010003160197396182 0.009979134487600412 0.0 -1.7585592268704274e-11 0.0 0.01 0.0 -1.7585592268703446e-11 0.0 0.010002971523968635 0.009976745865444867 0.0 -2.7820158614621596e-10 0.0 0.01 0.0 -2.7820158614621596e-10 0.0 0.010004078643944174 0.009976691745206915 0.0 -4.242901228751761e-10 0.0 0.01 0.0 -4.242901228751761e-10 0.0 0.010003895324851844 0.009976657982568781 0.0 -3.307955646450292e-10 0.0 0.01 0.0 -3.3079556464500275e-10 0.0 0.010003762372252102 0.009976668905737713 0.0 -1.8011111173084348e-10 0.0 0.01 0.0 -1.8011111173084348e-10 0.0 0.01000367147096551 0.00997673047336095 0.0 -7.025275865236906e-11 0.0 0.01 0.0 -7.025275865237237e-11 0.0 0.010003515502945586 0.009976852122419121 0.0 -1.699234807323774e-11 0.0 0.01 0.0 -1.699234807323774e-11 0.0 0.01000331709974294 0.009974147598685588 0.0 -3.2188883335975616e-10 0.0 0.01 0.0 -3.218888333597694e-10 0.0 0.010004485416039745 0.00997410195484054 0.0 -5.026726812997702e-10 0.0 0.01 0.0 -5.026726812997702e-10 0.0 0.01000429035949911 0.009974086574990397 0.0 -3.8776815199846963e-10 0.0 0.01 0.0 -3.8776815199846963e-10 0.0 0.010004155889277562 0.00997411336574303 0.0 -2.0645482351364922e-10 0.0 0.01 0.0 -2.0645482351363599e-10 0.0 0.01000406352549465 0.009974202669811028 0.0 -7.723243566047347e-11 0.0 0.01 0.0 -7.723243566047678e-11 0.0 0.010003892871988536 0.009974351019092576 0.0 -1.6813006737232432e-11 0.0 0.01 0.0 -1.6813006737232432e-11 0.0 0.01000368023061816 0.009971191469623419 0.0 -3.4965580525517037e-10 0.0 0.01 0.0 -3.4965580525515713e-10 0.0 0.010004972957087225 0.009971182547194597 0.0 -5.915963098414756e-10 0.0 0.01 0.0 -5.915963098414491e-10 0.0 0.010004753887769967 0.009971212784411548 0.0 -4.57730372301384e-10 0.0 0.01 0.0 -4.57730372301384e-10 0.0 0.010004597418496231 0.009971292592157805 0.0 -2.409033532532121e-10 0.0 0.01 0.0 -2.409033532532121e-10 0.0 0.0100044820114643 0.009971432879983904 0.0 -8.814444125331056e-11 0.0 0.01 0.0 -8.814444125331056e-11 0.0 0.010004290359499074 0.00997163266403405 0.0 -1.8531377014808445e-11 0.0 0.01 0.0 -1.8531377014808445e-11 0.0 0.0100040542141658 0.009967871997214403 0.0 -3.485861877111624e-10 0.0 0.01 0.0 -3.4858618771117565e-10 0.0 0.010005533389373584 0.009967943801448912 0.0 -6.944077340587502e-10 0.0 0.01 0.0 -6.944077340587502e-10 0.0 0.01000526881113233 0.009968055720108473 0.0 -5.479839335481022e-10 0.0 0.01 0.0 -5.479839335481022e-10 0.0 0.01000505803497128 0.00996822459566396 0.0 -2.9014294598961963e-10 0.0 0.01 0.0 -2.9014294598961963e-10 0.0 0.010004910364385283 0.009968450932082467 0.0 -1.0780240511701529e-10 0.0 0.01 0.0 -1.0780240511700867e-10 0.0 0.010004693251925732 0.009968732264482603 0.0 -2.5207535410105848e-11 0.0 0.01 0.0 -2.5207535410106675e-11 0.0 0.010004432645511019 0.009964258040446686 0.0 -3.113920183850895e-10 0.0 0.01 0.0 -3.1139201838510273e-10 0.0 0.010006153124485474 0.009964453436043073 0.0 -8.246986642592238e-10 0.0 0.01 0.0 -8.246986642591973e-10 0.0 0.010005797036952278 0.009964698315108126 0.0 -6.759943544788716e-10 0.0 0.01 0.0 -6.759943544788716e-10 0.0 0.010005496728784886 0.009964998625798405 0.0 -3.6737141083561126e-10 0.0 0.01 0.0 -3.6737141083561126e-10 0.0 0.01000532650272429 0.009965349434939968 0.0 -1.4449712475939092e-10 0.0 0.01 0.0 -1.444971247593843e-10 0.0 0.010005093238520998 0.009965736407035223 0.0 -4.1646691214464606e-11 0.0 0.01 0.0 -4.1646691214467915e-11 0.0 0.010004815976812242 0.009960553636009747 0.0 -2.4242376025566816e-10 0.0 0.01 0.0 -2.4242376025566155e-10 0.0 0.010006785700616184 0.009960921271490631 0.0 -1.013434662313031e-09 0.0 0.01 0.0 -1.013434662313084e-09 0.0 0.010006281814224778 0.009961341829192439 0.0 -8.753651494818732e-10 0.0 0.01 0.0 -8.753651494818468e-10 0.0 0.010005868461787583 0.009961812363456033 0.0 -4.955022844716875e-10 0.0 0.01 0.0 -4.955022844716743e-10 0.0 0.010005719252738979 0.009962318064416697 0.0 -2.1020178426202994e-10 0.0 0.01 0.0 -2.1020178426203655e-10 0.0 0.010005500134396307 0.009962832247962771 0.0 -7.365507398199545e-11 0.0 0.01 0.0 -7.365507398200207e-11 0.0 0.010005214025075494 0.009957151974799338 0.0 -1.6555762241286325e-10 0.0 0.01 0.0 -1.6555762241286325e-10 0.0 0.010007367483982286 0.009957719663685133 0.0 -1.3177028474147903e-09 0.0 0.01 0.0 -1.3177028474147903e-09 0.0 0.010006663404231349 0.009958347196287447 0.0 -1.2092132446599077e-09 0.0 0.01 0.0 -1.2092132446599077e-09 0.0 0.010006161439826754 0.009959006949344106 0.0 -7.160636919423609e-10 0.0 0.01 0.0 -7.160636919423609e-10 0.0 0.010006123319668271 0.009959678194977133 0.0 -3.2241309768450855e-10 0.0 0.01 0.0 -3.2241309768450855e-10 0.0 0.010005956016898066 0.009960323390432018 0.0 -1.253075739547873e-10 0.0 0.01 0.0 -1.253075739547873e-10 0.0 0.01000568304087475 0.009954677492031801 0.0 -1.2114996098092078e-10 0.0 0.01 0.0 -1.2114996098092078e-10 0.0 0.01000781675570746 0.00995543469013486 0.0 -1.8215902993060234e-09 0.0 0.01 0.0 -1.8215902993060234e-09 0.0 0.010006898732315733 0.009956250289553714 0.0 -1.784366342044678e-09 0.0 0.01 0.0 -1.7843663420447309e-09 0.0 0.010006419275779554 0.009957083365067487 0.0 -1.1041380211624883e-09 0.0 0.01 0.0 -1.1041380211624883e-09 0.0 0.010006637452523072 0.009957894432678957 0.0 -5.117435698561249e-10 0.0 0.01 0.0 -5.117435698561249e-10 0.0 0.010006578736275846 0.009958648908397661 0.0 -1.9710605794359072e-10 0.0 0.01 0.0 -1.9710605794359072e-10 0.0 0.010006315527849778 0.009953981120976138 0.0 -1.6359788661901344e-10 0.0 0.01 0.0 -1.6359788661902006e-10 0.0 0.010008091359931696 0.009954851607634251 0.0 -2.6235469675974515e-09 0.0 0.01 0.0 -2.6235469675975574e-09 0.0 0.01000704163070851 0.00995577363542527 0.0 -2.7462425944049684e-09 0.0 0.01 0.0 -2.7462425944050742e-09 0.0 0.010006778836670296 0.009956689010012789 0.0 -1.7701051432930987e-09 0.0 0.01 0.0 -1.7701051432930987e-09 0.0 0.010007418897848102 0.009957561688332015 0.0 -8.28122436246775e-10 0.0 0.01 0.0 -8.281224362467486e-10 0.0 0.01000751676678129 0.009958353121629347 0.0 -2.896117704611652e-10 0.0 0.01 0.0 -2.896117704611586e-10 0.0 0.010007262804594538 0.009956208345190294 0.0 -4.190278097855244e-10 0.0 0.01 0.0 -4.190278097855244e-10 0.0 0.010008290097474386 0.009957023147624507 0.0 -3.883209038169051e-09 0.0 0.01 0.0 -3.883209038168945e-09 0.0 0.010007293621787192 0.009957861847934032 0.0 -4.286770195298987e-09 0.0 0.01 0.0 -4.286770195299093e-09 0.0 0.01000746685477243 0.00995867211815863 0.0 -2.839428315196187e-09 0.0 0.01 0.0 -2.839428315196187e-09 0.0 0.01000864203983443 0.009959434673699568 0.0 -1.3177514003856539e-09 0.0 0.01 0.0 -1.3177514003856539e-09 0.0 0.010008930899915398 0.00996012823769176 0.0 -3.9955825798608065e-10 0.0 0.01 0.0 -3.995582579860674e-10 0.0 0.010008680740219033 0.009962782803777711 0.0 -1.0748334269621021e-09 0.0 0.01 0.0 -1.0748334269621021e-09 0.0 0.010008799701599335 0.00996328617998897 0.0 -5.89633476273142e-09 0.0 0.01 0.0 -5.896334762731632e-09 0.0 0.010008097725369525 0.00996376885986992 0.0 -6.7114256776050954e-09 0.0 0.01 0.0 -6.7114256776050954e-09 0.0 0.010008781102644347 0.009964200660635263 0.0 -4.502974183536273e-09 0.0 0.01 0.0 -4.502974183536273e-09 0.0 0.010010371111715339 0.009964596898356206 0.0 -2.0475688702509814e-09 0.0 0.01 0.0 -2.0475688702509814e-09 0.0 0.010010876117795608 0.009964975371776826 0.0 -5.191434405191335e-10 0.0 0.01 0.0 -5.191434405191335e-10 0.0 0.01001066107457452 0.009975167306621222 0.0 -2.2080558957686323e-09 0.0 0.01 0.0 -2.2080558957685264e-09 0.0 0.01001050723713559 0.009975078472922302 0.0 -8.838083768175873e-09 0.0 0.01 0.0 -8.838083768175873e-09 0.0 0.010010280481554227 0.009974922647458565 0.0 -1.0171156856796592e-08 0.0 0.01 0.0 -1.0171156856796592e-08 0.0 0.010010864379614487 0.009974697854785886 0.0 -6.971865205968771e-09 0.0 0.01 0.0 -6.971865205968559e-09 0.0 0.010012523486442496 0.009974455711032485 0.0 -3.173799031311696e-09 0.0 0.01 0.0 -3.173799031311696e-09 0.0 0.010013274434890336 0.009974275107094876 0.0 -7.167822128101681e-10 0.0 0.01 0.0 -7.167822128101946e-10 0.0 0.010013172481503302 0.009994285901374236 0.0 -3.3611577817983474e-09 0.0 0.01 0.0 -3.3611577817981356e-09 0.0 0.010014278071388293 0.00999338606742803 0.0 -1.1895725492822719e-08 0.0 0.01 0.0 -1.1895725492822719e-08 0.0 0.01001439627837965 0.009992391192940304 0.0 -1.4166757721491033e-08 0.0 0.01 0.0 -1.4166757721490186e-08 0.0 0.010014418825563282 0.009991326796746552 0.0 -1.0147713994850239e-08 0.0 0.01 0.0 -1.0147713994849392e-08 0.0 0.01001516773940538 0.009990279691055138 0.0 -4.85999005723155e-09 0.0 0.01 0.0 -4.859990057231338e-09 0.0 0.010015908983999223 0.009989363992793541 0.0 -1.208817721098834e-09 0.0 0.01 0.0 -1.208817721098781e-09 0.0 0.010016038502687768 0.010019685928161055 0.0 -3.032660156371714e-09 0.0 0.01 0.0 -3.0326601563784904e-09 0.0 0.01001914861030406 0.010017932420709755 0.0 -1.3239192828251698e-08 0.0 0.01 0.0 -1.3239192828238145e-08 0.0 0.010019628943450657 0.010016080705407887 0.0 -1.7180104315491244e-08 0.0 0.01 0.0 -1.7180104315484468e-08 0.0 0.010019267442483949 0.010014190297661003 0.0 -1.3234284589875011e-08 0.0 0.01 0.0 -1.3234284589878399e-08 0.0 0.01001856084819889 0.010012359325245085 0.0 -6.958603051903604e-09 0.0 0.01 0.0 -6.958603051903604e-09 0.0 0.01001865461970049 0.010010731098790918 0.0 -2.2172603337471702e-09 0.0 0.01 0.0 -2.217260333746323e-09 0.0 0.010018963455831887 0.010048740747264718 0.0 -7.660239409056904e-10 0.0 0.01 0.0 -7.660239409056904e-10 0.0 0.01002208660784534 0.010046409944765 0.0 -1.0742549685862732e-08 0.0 0.01 0.0 -1.0742549685863579e-08 0.0 0.010023139166099057 0.010043957094550339 0.0 -1.6925821449421456e-08 0.0 0.01 0.0 -1.692582144941976e-08 0.0 0.010023138662645717 0.01004152183511929 0.0 -1.4576102097151884e-08 0.0 0.01 0.0 -1.4576102097151037e-08 0.0 0.010021898874674954 0.010039203943173569 0.0 -8.614758250028638e-09 0.0 0.01 0.0 -8.614758250028638e-09 0.0 0.010021218241527595 0.010037118246556646 0.0 -3.5222269430013526e-09 0.0 0.01 0.0 -3.522226943001776e-09 0.0 0.01002160889036404 0.010076409882638455 0.0 -6.005883098155111e-09 0.0 0.01 0.0 -6.005883098154899e-09 0.0 0.010022774365184093 0.0100741960644298 0.0 -7.249979853709306e-09 0.0 0.01 0.0 -7.249979853709306e-09 0.0 0.010024158564294923 0.010071783651870805 0.0 -1.3002305666119754e-08 0.0 0.01 0.0 -1.3002305666119754e-08 0.0 0.010025106434464689 0.010069404876572017 0.0 -1.3020461235046691e-08 0.0 0.01 0.0 -1.3020461235046691e-08 0.0 0.010024388228645958 0.01006715037042154 0.0 -8.630670235000279e-09 0.0 0.01 0.0 -8.630670235000702e-09 0.0 0.010023416443435351 0.010065087996784992 0.0 -4.256341517425774e-09 0.0 0.01 0.0 -4.256341517425774e-09 0.0 0.010023748380759026 0.010096529826388959 0.0 -1.094534819263238e-08 0.0 0.01 0.0 -1.0945348192632803e-08 0.0 0.010022025656329042 0.010095360556294402 0.0 -1.36663496243954e-08 0.0 0.01 0.0 -1.3666349624395188e-08 0.0 0.010023349576572388 0.010093937142139244 0.0 -1.1913753503517532e-08 0.0 0.01 0.0 -1.1913753503517744e-08 0.0 0.010025266840406654 0.010092437486895922 0.0 -9.69806249778755e-09 0.0 0.01 0.0 -9.69806249778755e-09 0.0 0.010025502022333068 0.010090951549525986 0.0 -6.646165612545357e-09 0.0 0.01 0.0 -6.646165612545357e-09 0.0 0.010024885082854292 0.010089481315067901 0.0 -3.6545386281447116e-09 0.0 0.01 0.0 -3.6545386281447116e-09 0.0 0.010025284070378684 0.010105585509827163 0.0 -1.4152263342312491e-09 0.0 0.01 0.0 -1.4152263342312491e-09 0.0 0.010021036393783508 0.010105815811029296 0.0 -9.335267433532201e-09 0.0 0.01 0.0 -9.335267433532413e-09 0.0 0.010022142678211655 0.010105965001761577 0.0 -8.967561302773621e-09 0.0 0.01 0.0 -8.967561302773621e-09 0.0 0.010023411055769049 0.010105964485691895 0.0 -6.384239834596445e-09 0.0 0.01 0.0 -6.384239834596551e-09 0.0 0.010024442826593332 0.010105755847597457 0.0 -3.9247699239037676e-09 0.0 0.01 0.0 -3.9247699239037676e-09 0.0 0.010024843725882892 0.010105269574390932 0.0 -2.1284163884032037e-09 0.0 0.01 0.0 -2.1284163884032037e-09 0.0 0.0100258803734883 0.010104970796806213 0.0 5.842172824332566e-09 0.0 0.01 0.0 5.842172824332566e-09 0.0 0.010020911108774495 0.010106403478067332 0.0 -1.477623957258156e-09 0.0 0.01 0.0 -1.477623957258156e-09 0.0 0.010021877736445188 0.010107933069641415 0.0 -3.0487208872054235e-09 0.0 0.01 0.0 -3.0487208872054235e-09 0.0 0.010022153952783417 0.010109311478983635 0.0 -2.3074449407511256e-09 0.0 0.01 0.0 -2.3074449407511256e-09 0.0 0.01002360627612086 0.010110323604539865 0.0 -1.3447339492762569e-09 0.0 0.01 0.0 -1.3447339492762569e-09 0.0 0.010024722730726349 0.010110830298139445 0.0 -6.933719850615461e-10 0.0 0.01 0.0 -6.933719850615328e-10 0.0 0.010026182067311994 0.01009906317157752 0.0 3.965030962632906e-09 0.0 0.01 0.0 3.965030962633012e-09 0.0 0.010021607934192803 0.010101292912312926 0.0 1.032655668503574e-09 0.0 0.01 0.0 1.0326556685036005e-09 0.0 0.010022494624207028 0.010103698902448421 0.0 -7.975469268678465e-11 0.0 0.01 0.0 -7.975469268678465e-11 0.0 0.010022279334752556 0.010105952409816972 0.0 -2.0983420596753238e-10 0.0 0.01 0.0 -2.0983420596753238e-10 0.0 0.010023519717115471 0.0101077732067257 0.0 -1.0143614182281633e-10 0.0 0.01 0.0 -1.0143614182281964e-10 0.0 0.010024863925748239 0.010108952322406668 0.0 -2.0687131891008182e-11 0.0 0.01 0.0 -2.0687131891008596e-11 0.0 0.010026454708674857 0.010092315980850025 0.0 2.2726478948213152e-10 0.0 0.01 0.0 2.272647894821249e-10 0.0 0.010022496587396434 0.010094896408234591 0.0 2.0295456936445345e-10 0.0 0.01 0.0 2.0295456936444684e-10 0.0 0.010023384520364536 0.010097641176680583 0.0 1.2637197482267032e-10 0.0 0.01 0.0 1.2637197482267032e-10 0.0 0.010023126377741944 0.010100219097581464 0.0 7.626094459276645e-11 0.0 0.01 0.0 7.62609445927681e-11 0.0 0.010024062623664435 0.010102333355240738 0.0 5.625752573497273e-11 0.0 0.01 0.0 5.625752573497273e-11 0.0 0.010025270266224717 0.010103751299672205 0.0 4.6810937362344176e-11 0.0 0.01 0.0 4.6810937362344176e-11 0.0 0.01002675247256258 0.010087221767674103 0.0 -8.275596437877862e-11 0.0 0.01 0.0 -8.275596437878027e-11 0.0 0.010023166203008834 0.01008976367267225 0.0 -3.4889258805557236e-10 0.0 0.01 0.0 -3.4889258805557236e-10 0.0 0.010024113288027978 0.010092407880946867 0.0 -3.5170353954075386e-10 0.0 0.01 0.0 -3.517035395407605e-10 0.0 0.010024083322431888 0.010094854693088726 0.0 -2.66030404279085e-10 0.0 0.01 0.0 -2.6603040427909163e-10 0.0 0.010024887500810509 0.010096819312398423 0.0 -1.7371391530070908e-10 0.0 0.01 0.0 -1.7371391530070908e-10 0.0 0.010025755914453618 0.010098068994065994 0.0 -9.063284431520807e-11 0.0 0.01 0.0 -9.063284431520807e-11 0.0 0.010026996630519928 0.010083798019482969 0.0 1.0788776889934967e-09 0.0 0.01 0.0 1.0788776889934967e-09 0.0 0.010023112582501196 0.010086010633955136 0.0 -6.843546350824952e-10 0.0 0.01 0.0 -6.843546350824952e-10 0.0 0.010024145268414414 0.010088248833134979 0.0 -1.034785238380929e-09 0.0 0.01 0.0 -1.0347852383809025e-09 0.0 0.010024438897921697 0.010090251717284004 0.0 -8.161583895297427e-10 0.0 0.01 0.0 -8.161583895297692e-10 0.0 0.010025349464543224 0.01009175086072326 0.0 -4.971386642293724e-10 0.0 0.01 0.0 -4.971386642293857e-10 0.0 0.010026003930117416 0.010092538848062736 0.0 -2.3969417952462554e-10 0.0 0.01 0.0 -2.3969417952462554e-10 0.0 0.01002705419471751 0.010080415245004488 0.0 6.435706424233948e-10 0.0 0.01 0.0 6.435706424233948e-10 0.0 0.010022529005360064 0.010082105694202977 0.0 -2.0268305520843896e-09 0.0 0.01 0.0 -2.0268305520843366e-09 0.0 0.010023619066297557 0.010083743932671595 0.0 -2.3442042971490674e-09 0.0 0.01 0.0 -2.3442042971491203e-09 0.0 0.010024193969843505 0.010085093492036463 0.0 -1.7247071396978814e-09 0.0 0.01 0.0 -1.7247071396978814e-09 0.0 0.010025280594143716 0.010085919472802247 0.0 -9.586500725426576e-10 0.0 0.01 0.0 -9.586500725426576e-10 0.0 0.010025873016671034 0.010086055728089724 0.0 -3.985769632627285e-10 0.0 0.01 0.0 -3.9857696326271527e-10 0.0 0.010026826312837998 0.010075255616577138 0.0 -1.8217515524278983e-09 0.0 0.01 0.0 -1.8217515524278453e-09 0.0 0.010021751916603499 0.010076298008671136 0.0 -4.48103970871401e-09 0.0 0.01 0.0 -4.481039708714222e-09 0.0 0.010022822039769064 0.010077182308551104 0.0 -4.3119068145806755e-09 0.0 0.01 0.0 -4.31190681458057e-09 0.0 0.010023542325972874 0.010077721495268033 0.0 -3.013077376834069e-09 0.0 0.01 0.0 -3.0130773768339633e-09 0.0 0.010024744844002597 0.010077718527123757 0.0 -1.5783739053834778e-09 0.0 0.01 0.0 -1.5783739053834778e-09 0.0 0.010025360800334218 0.010077086372368467 0.0 -5.768858452792041e-10 0.0 0.01 0.0 -5.768858452792041e-10 0.0 0.010026275045092794 0.010067551925903712 0.0 -4.993502523636713e-09 0.0 0.01 0.0 -4.993502523636713e-09 0.0 0.010020959763077835 0.010067818006481977 0.0 -7.26087445688181e-09 0.0 0.01 0.0 -7.2608744568815986e-09 0.0 0.010021979955981048 0.01006781550629604 0.0 -6.368725505218735e-09 0.0 0.01 0.0 -6.368725505218523e-09 0.0 0.010022656364696956 0.01006738749202277 0.0 -4.303566193679507e-09 0.0 0.01 0.0 -4.303566193679507e-09 0.0 0.010023819687134426 0.010066429568511049 0.0 -2.1359572694575285e-09 0.0 0.01 0.0 -2.1359572694575285e-09 0.0 0.010024492036036226 0.010064955087546306 0.0 -6.854231249522705e-10 0.0 0.01 0.0 -6.85423124952244e-10 0.0 0.010025428715120998 0.01005793170181206 0.0 -7.358421372235799e-09 0.0 0.01 0.0 -7.358421372235799e-09 0.0 0.010020173179806165 0.010057311197954857 0.0 -9.446699226397466e-09 0.0 0.01 0.0 -9.446699226397466e-09 0.0 0.010021134662800416 0.010056291568579031 0.0 -7.777674424248165e-09 0.0 0.01 0.0 -7.777674424248165e-09 0.0 0.010021560729851968 0.01005477538691459 0.0 -4.99357249988341e-09 0.0 0.01 0.0 -4.993572499883833e-09 0.0 0.01002258800283751 0.010052785118120636 0.0 -2.2936558780456025e-09 0.0 0.01 0.0 -2.2936558780454967e-09 0.0 0.01002333139986152 0.01005046439406828 0.0 -6.1894472640354e-10 0.0 0.01 0.0 -6.1894472640354e-10 0.0 0.010024339574727044 0.010047859956834904 0.0 -8.062230171231492e-09 0.0 0.01 0.0 -8.062230171231916e-09 0.0 0.010019416755517001 0.010046282742423397 0.0 -1.057015117078237e-08 0.0 0.01 0.0 -1.0570151170780675e-08 0.0 0.010020261614026103 0.010044190605011862 0.0 -8.025815624108182e-09 0.0 0.01 0.0 -8.025815624108605e-09 0.0 0.010020322030318513 0.010041581168605656 0.0 -4.725555726859922e-09 0.0 0.01 0.0 -4.725555726859922e-09 0.0 0.01002110517675401 0.010038616084139687 0.0 -1.9875565113467047e-09 0.0 0.01 0.0 -1.9875565113467047e-09 0.0 0.010022050268316832 0.0100355870179966 0.0 -4.219176658923231e-10 0.0 0.01 0.0 -4.219176658922702e-10 0.0 0.01002308111546758 0.010038802785600761 0.0 -6.897586540469086e-09 0.0 0.01 0.0 -6.897586540469509e-09 0.0 0.01001851760858006 0.010036293784017929 0.0 -1.5754162542176765e-08 0.0 0.01 0.0 -1.5754162542176765e-08 0.0 0.010019270912458867 0.010033190866804311 0.0 -1.1607091373825728e-08 0.0 0.01 0.0 -1.1607091373825728e-08 0.0 0.010018925189191917 0.010029620336818678 0.0 -5.5929703271665945e-09 0.0 0.01 0.0 -5.5929703271657475e-09 0.0 0.010019739946366218 0.010025892214973624 0.0 -1.621432689002795e-09 0.0 0.01 0.0 -1.6214326890023714e-09 0.0 0.010020760269835286 0.010022372203998682 0.0 -2.2523353422321845e-10 0.0 0.01 0.0 -2.2523353422364197e-10 0.0 0.01002169439334987 0.01003150470906223 0.0 -4.155712151841841e-09 0.0 0.01 0.0 -4.1557121518414176e-09 0.0 0.010017273654011167 0.010028235336699446 0.0 -3.516131871842261e-08 0.0 0.01 0.0 -3.5161318718429386e-08 0.0 0.010017948607676616 0.010024325774595791 0.0 -2.826351960499553e-08 0.0 0.01 0.0 -2.8263519605002305e-08 0.0 0.010017446903300448 0.010020052856722738 0.0 -1.4656414428485713e-08 0.0 0.01 0.0 -1.4656414428485713e-08 0.0 0.010018526960378062 0.010015843724155845 0.0 -3.943963252035074e-09 0.0 0.01 0.0 -3.943963252035074e-09 0.0 0.010019368626587349 0.010012069666414674 0.0 -2.8987333554895265e-10 0.0 0.01 0.0 -2.898733355490056e-10 0.0 0.010020208543140927 0.010025889242006203 0.0 6.1384548541105205e-09 0.0 0.01 0.0 6.1384548541096735e-09 0.0 0.010015622483194337 0.010022158382753542 0.0 -6.640553785776653e-08 0.0 0.01 0.0 -6.640553785776653e-08 0.0 0.010016250979143325 0.010017736526798273 0.0 -5.7154615312499536e-08 0.0 0.01 0.0 -5.7154615312499536e-08 0.0 0.010015998762810958 0.010013068071758306 0.0 -3.112290541066188e-08 0.0 0.01 0.0 -3.112290541066188e-08 0.0 0.010017243247262806 0.010008685602872469 0.0 -7.52609758441678e-09 0.0 0.01 0.0 -7.52609758441678e-09 0.0 0.010017899997041944 0.010004905957903331 0.0 3.003701826430028e-10 0.0 0.01 0.0 3.003701826430028e-10 0.0 0.010018663921569401 0.010021503260305181 0.0 2.584189362599468e-08 0.0 0.01 0.0 2.584189362599468e-08 0.0 0.010013598487722786 0.010017562257712349 0.0 -7.668012969318282e-08 0.0 0.01 0.0 -7.668012969318282e-08 0.0 0.0100142972040375 0.010012848922669392 0.0 -7.345934473489439e-08 0.0 0.01 0.0 -7.345934473484018e-08 0.0 0.010014638531171918 0.010008115318247954 0.0 -3.3519707330736926e-08 0.0 0.01 0.0 -3.3519707330736926e-08 0.0 0.010015956058452671 0.01000388411177821 0.0 2.499026059712054e-09 0.0 0.01 0.0 2.499026059712054e-09 0.0 0.010016504620643463 0.010000341317486852 0.0 9.322868794833279e-09 0.0 0.01 0.0 9.322868794834126e-09 0.0 0.010017142629938601 0.010018401266664085 0.0 3.3439650384626664e-09 0.0 0.01 0.0 3.3439650384635135e-09 0.0 0.01001121513872902 0.01001392206972899 0.0 -4.525178513903551e-10 0.0 0.01 0.0 -4.525178513903551e-10 0.0 0.010012473499474244 0.01000887214337551 0.0 -2.4303046720440655e-08 0.0 0.01 0.0 -2.430304672043388e-08 0.0 0.010013579861984813 0.010004384231601628 0.0 2.0545799650931125e-08 0.0 0.01 0.0 2.0545799650931125e-08 0.0 0.010014852373608147 0.01000062115832672 0.0 5.5188669309828766e-08 0.0 0.01 0.0 5.518866930983554e-08 0.0 0.010015281558121024 0.009997560393321068 0.0 4.311779971867563e-08 0.0 0.01 0.0 4.311779971867563e-08 0.0 0.01001572059328537 0.010017113186723582 0.0 -2.2532713085633097e-07 0.0 0.01 0.0 -2.2532713085633097e-07 0.0 0.010009724122996387 0.01001076737003685 0.0 1.7418930579340096e-07 0.0 0.01 0.0 1.741893057936178e-07 0.0 0.010011597799719493 0.010005341680597942 0.0 1.5541067163279596e-07 0.0 0.01 0.0 1.5541067163279596e-07 0.0 0.010012889130303425 0.010001252689932379 0.0 1.7506212639649302e-07 0.0 0.01 0.0 1.7506212639649302e-07 0.0 0.01001405593453039 0.009998200490808512 0.0 1.8191593660830106e-07 0.0 0.01 0.0 1.8191593660830106e-07 0.0 0.010014300622730489 0.00999582212192698 0.0 1.2301275910009022e-07 0.0 0.01 0.0 1.2301275910007667e-07 0.0 0.010014491391572882 0.010016013573590618 0.0 -7.783120125196604e-07 0.0 0.01 0.0 -7.783120125198772e-07 0.0 0.010008648497014532 0.010008108519547719 0.0 3.4690031071901543e-07 0.0 0.01 0.0 3.469003107187986e-07 0.0 0.010010869765097515 0.010002169686462692 0.0 4.516880323810683e-07 0.0 0.01 0.0 4.516880323811225e-07 0.0 0.010012179495432443 0.009998484374069872 0.0 4.432642865551334e-07 0.0 0.01 0.0 4.432642865550792e-07 0.0 0.010013368087538914 0.009996236649633058 0.0 4.013733483892849e-07 0.0 0.01 0.0 4.01373348389312e-07 0.0 0.010013569092247335 0.009994650306837096 0.0 2.694989827880926e-07 0.0 0.01 0.0 2.694989827880926e-07 0.0 0.010013488201604514 0.010006172722068645 0.0 2.7602254749610564e-07 0.0 0.01 0.0 2.7602254749621406e-07 0.0 0.010010001796793538 0.009999659599492273 0.0 7.403812479214126e-07 0.0 0.01 0.0 7.403812479214126e-07 0.0 0.010011098129957905 0.009996248204654138 0.0 7.842752297514089e-07 0.0 0.01 0.0 7.842752297514632e-07 0.0 0.01001247163451639 0.009994657359562686 0.0 7.069258899657744e-07 0.0 0.01 0.0 7.069258899657744e-07 0.0 0.010012900495304915 0.009993823264562503 0.0 4.9691268461349e-07 0.0 0.01 0.0 4.9691268461349e-07 0.0 0.01001270731735729 0.01000516711263146 0.0 -2.6530681137963176e-07 0.0 0.01 0.0 -2.6530681137963176e-07 0.0 0.010009075851251978 0.009998531434377804 0.0 8.599115191706627e-07 0.0 0.01 0.0 8.599115191706627e-07 0.0 0.010010078827605242 0.009994925547928801 0.0 1.1040243756899786e-06 0.0 0.01 0.0 1.1040243756898702e-06 0.0 0.010011237345757377 0.009993591336285289 0.0 1.0656919992391243e-06 0.0 0.01 0.0 1.0656919992391243e-06 0.0 0.010012111487692814 0.009993263910968267 0.0 8.107477072201007e-07 0.0 0.01 0.0 8.107477072199923e-07 0.0 0.010012038903805266 0.009999264625921158 0.0 5.46778299463104e-07 0.0 0.01 0.0 5.46778299463104e-07 0.0 0.010009513102405311 0.009994973032918266 0.0 1.2644306217567385e-06 0.0 0.01 0.0 1.2644306217567385e-06 0.0 0.010010108295347406 0.009993311516701466 0.0 1.4148097129195814e-06 0.0 0.01 0.0 1.4148097129195814e-06 0.0 0.010011196325248831 0.009993003564526256 0.0 1.197441604339558e-06 0.0 0.01 0.0 1.197441604339558e-06 0.0 0.010011414277787583 0.010001223911035433 0.0 -4.928435021103305e-07 0.0 0.01 0.0 -4.928435021102221e-07 0.0 0.010009062139829874 0.009996932575221976 0.0 1.0435785906211031e-06 0.0 0.01 0.0 1.0435785906211031e-06 0.0 0.010009730145961297 0.009994221899274727 0.0 1.6070272517816012e-06 0.0 0.01 0.0 1.6070272517816012e-06 0.0 0.010010288693444858 0.009993323573540798 0.0 1.5942691296158898e-06 0.0 0.01 0.0 1.5942691296158898e-06 0.0 0.010010825082520382 0.010000182154992062 0.0 1.0046035789194286e-08 0.0 0.01 0.0 1.0046035789194286e-08 0.0 0.010009818140492144 0.009996836777874368 0.0 1.3576428113104815e-06 0.0 0.01 0.0 1.3576428113104815e-06 0.0 0.010009973677179212 0.009994855474513663 0.0 1.8291644889791448e-06 0.0 0.01 0.0 1.8291644889791448e-06 0.0 0.010010433807790296 0.010000651919554411 0.0 1.9695927470626904e-07 0.0 0.01 0.0 1.9695927470629614e-07 0.0 0.010010127670509673 0.00999829678835824 0.0 1.5350441842001267e-06 0.0 0.01 0.0 1.5350441842001267e-06 0.0 0.010010508092370857 0.010001730902666955 0.0 -1.7399723002873256e-06 0.0 0.01 0.0 -1.7399723002873256e-06 0.0 0.010009080656713633 0.010002234155036637 0.0 2.0905442385163973e-07 0.0 0.01 0.0 2.0905442385163973e-07 0.0 0.010010728196001328 0.00999775525605759 0.0 2.7797315004400786e-14 0.0 0.01 0.0 2.7797315004400786e-14 0.0 0.010000085951108129 0.009997681306700187 0.0 2.7586694900811187e-14 0.0 0.01 0.0 2.7586694900811187e-14 0.0 0.010000083501045852 0.009997639835819262 0.0 1.43589177876799e-14 0.0 0.01 0.0 1.43589177876799e-14 0.0 0.010000077650904441 0.00999761585289473 0.0 6.703684100834629e-15 0.0 0.01 0.0 6.703684100834629e-15 0.0 0.01000006785069055 0.009997605360419522 0.0 4.027333371876405e-15 0.0 0.01 0.0 4.027333371876405e-15 0.0 0.010000059550531935 0.009997603361856561 0.0 1.7199846324625989e-15 0.0 0.01 0.0 1.7199846324625989e-15 0.0 0.010000048850357952 0.00999760436113789 0.0 7.093370882699668e-16 0.0 0.01 0.0 7.093370882699668e-16 0.0 0.01000004150025834 0.00999760785862491 0.0 1.8550475910817568e-16 0.0 0.01 0.0 1.8550475910817568e-16 0.0 0.010000035150185329 0.009997610856473844 0.0 1.6679165594689676e-16 0.0 0.01 0.0 1.6679165594689676e-16 0.0 0.010000032700160394 0.009997348055294746 0.0 -2.277117366589155e-13 0.0 0.01 0.0 -2.277117366587087e-13 0.0 0.010000110351826604 0.009997271617017401 0.0 -1.0923013598326621e-13 0.0 0.01 0.0 -1.0923013598331791e-13 0.0 0.010000109851810088 0.009997227653312235 0.0 -5.079477928635942e-14 0.0 0.01 0.0 -5.079477928635942e-14 0.0 0.010000101051531695 0.009997205671677147 0.0 -1.7991307714871993e-14 0.0 0.01 0.0 -1.7991307714871993e-14 0.0 0.010000089851210972 0.009997198177971053 0.0 -4.376895041039157e-15 0.0 0.01 0.0 -4.376895041039157e-15 0.0 0.010000077150892829 0.009997197678391247 0.0 6.358097352989929e-17 0.0 0.01 0.0 6.358097352989929e-17 0.0 0.010000064950632782 0.0099972016750318 0.0 5.866803988719465e-16 0.0 0.01 0.0 5.866803988719465e-16 0.0 0.010000055650464542 0.009997206670839231 0.0 3.509464600569776e-16 0.0 0.01 0.0 3.509464600569776e-16 0.0 0.010000048350350663 0.009997211167072324 0.0 1.573079435201606e-17 0.0 0.01 0.0 1.573079435201606e-17 0.0 0.010000042950276707 0.009997005845281426 0.0 -4.027368926047531e-13 0.0 0.01 0.0 -4.027368926045463e-13 0.0 0.010000131852607723 0.009996930913472212 0.0 -2.2141615910381278e-13 0.0 0.01 0.0 -2.2141615910381278e-13 0.0 0.010000130852568314 0.009996889451928552 0.0 -1.0466614572324237e-13 0.0 0.01 0.0 -1.0466614572324237e-13 0.0 0.010000120102163645 0.009996871968299719 0.0 -3.787672509514714e-14 0.0 0.01 0.0 -3.787672509514714e-14 0.0 0.010000107401730246 0.009996868471584958 0.0 -1.017858578339046e-14 0.0 0.01 0.0 -1.017858578339046e-14 0.0 0.01000009425133248 0.009996871968299717 0.0 -1.7518439593002439e-15 0.0 0.01 0.0 -1.7518439593002439e-15 0.0 0.010000079600950437 0.009996880460336552 0.0 2.4662769185543107e-17 0.0 0.01 0.0 2.4662769185543107e-17 0.0 0.010000068350700766 0.009996888952395028 0.0 1.7382116497557994e-16 0.0 0.01 0.0 1.7382116497557994e-16 0.0 0.0100000586005151 0.009996894946802275 0.0 -6.925825696439794e-17 0.0 0.01 0.0 -6.925825696439794e-17 0.0 0.01000005320042454 0.009996679154934542 0.0 -3.7210399564395773e-13 0.0 0.01 0.0 -3.7210399564395773e-13 0.0 0.010000146003197477 0.009996609225382905 0.0 -2.469722129972589e-13 0.0 0.01 0.0 -2.469722129972589e-13 0.0 0.010000144053112635 0.009996575260130187 0.0 -1.2327073496991316e-13 0.0 0.01 0.0 -1.2327073496996486e-13 0.0 0.010000134302705535 0.009996564271446077 0.0 -4.484980798343881e-14 0.0 0.01 0.0 -4.484980798343881e-14 0.0 0.010000120102163647 0.009996568766812469 0.0 -1.1687919442444416e-14 0.0 0.01 0.0 -1.1687919442444416e-14 0.0 0.010000104501638067 0.009996577757563446 0.0 -1.8029470048746638e-15 0.0 0.01 0.0 -1.8029470048746638e-15 0.0 0.010000090351224488 0.009996589245780554 0.0 -6.55937454622193e-17 0.0 0.01 0.0 -6.55937454622193e-17 0.0 0.010000077650904441 0.009996598736076733 0.0 -2.462900680802339e-17 0.0 0.01 0.0 -2.462900680802339e-17 0.0 0.010000068850711056 0.009996608725891386 0.0 3.0632485384613683e-17 0.0 0.01 0.0 3.0632485384613683e-17 0.0 0.010000063500604844 0.009996323528460764 0.0 -1.0672388039010596e-13 0.0 0.01 0.0 -1.0672388039005426e-13 0.0 0.010000154803594553 0.009996263595151928 0.0 -1.8846272024945504e-13 0.0 0.01 0.0 -1.8846272024945504e-13 0.0 0.010000150403393113 0.009996237124950383 0.0 -1.110762873866244e-13 0.0 0.01 0.0 -1.110762873866761e-13 0.0 0.010000142103028931 0.009996235127207861 0.0 -4.287145712421806e-14 0.0 0.01 0.0 -4.287145712421806e-14 0.0 0.01000012840247304 0.009996244616495524 0.0 -1.0848028303742575e-14 0.0 0.01 0.0 -1.0848028303742575e-14 0.0 0.010000112801908613 0.009996262096833014 0.0 -1.2951941222190142e-15 0.0 0.01 0.0 -1.2951941222190142e-15 0.0 0.010000097651430352 0.009996277080052424 0.0 3.0671467406960143e-16 0.0 0.01 0.0 3.0671467406960143e-16 0.0 0.01000008495108249 0.009996292063339208 0.0 1.9563410387736064e-16 0.0 0.01 0.0 1.9563410387736064e-16 0.0 0.010000075700859585 0.009996302052234495 0.0 5.767113971120256e-17 0.0 0.01 0.0 5.767113971120256e-17 0.0 0.010000069350721423 0.009995903019163881 0.0 3.5281616653035424e-13 0.0 0.01 0.0 3.5281616653025084e-13 0.0 0.010000155753638808 0.009995855078481126 0.0 -5.361982412326673e-14 0.0 0.01 0.0 -5.361982412326673e-14 0.0 0.010000152853504559 0.00999584009715922 0.0 -8.438503011630774e-14 0.0 0.01 0.0 -8.438503011625604e-14 0.0 0.010000144053112635 0.0099958460896799 0.0 -4.0007311058017005e-14 0.0 0.01 0.0 -4.0007311058017005e-14 0.0 0.010000132802645436 0.009995866564206868 0.0 -1.0528089510645104e-14 0.0 0.01 0.0 -1.0528089510645104e-14 0.0 0.010000118152093954 0.009995889535777134 0.0 -6.718710007549172e-16 0.0 0.01 0.0 -6.718710007549172e-16 0.0 0.010000105451667985 0.00999591300689294 0.0 9.941936921722561e-16 0.0 0.01 0.0 9.941936921722561e-16 0.0 0.010000093251304354 0.009995929486711345 0.0 6.132632335745033e-16 0.0 0.01 0.0 6.132632335745033e-16 0.0 0.010000084001058415 0.009995941971476522 0.0 9.614394053504106e-17 0.0 0.01 0.0 9.614394053504106e-17 0.0 0.010000077650904441 0.009995403670879387 0.0 9.78767403081182e-13 0.0 0.01 0.0 9.787674030820091e-13 0.0 0.010000156753685681 0.009995367720690885 0.0 1.1865938843251596e-13 0.0 0.01 0.0 1.1865938843246426e-13 0.0 0.010000155753638808 0.009995364225554358 0.0 -6.091306914048735e-14 0.0 0.01 0.0 -6.091306914048735e-14 0.0 0.010000148453305694 0.009995382699888951 0.0 -4.2918175417812784e-14 0.0 0.01 0.0 -4.2918175417812784e-14 0.0 0.01000013865288364 0.009995412159174948 0.0 -1.3358747649534322e-14 0.0 0.01 0.0 -1.3358747649534322e-14 0.0 0.010000128402473038 0.00999544311667142 0.0 -1.0036902399043146e-15 0.0 0.01 0.0 -1.0036902399043146e-15 0.0 0.010000115251992422 0.00999547157784938 0.0 1.3851499200238773e-15 0.0 0.01 0.0 1.3851499200238773e-15 0.0 0.010000102551577501 0.009995493548047761 0.0 9.136486364161154e-16 0.0 0.01 0.0 9.136486364161154e-16 0.0 0.010000095201359476 0.009995507529158525 0.0 4.154596638652795e-16 0.0 0.01 0.0 4.154596638652795e-16 0.0 0.010000089851210972 0.009994815534591073 0.0 1.6071574028482174e-11 0.0 0.01 0.0 1.607157402848879e-11 0.0 0.010000162103941565 0.009994796564181225 0.0 2.6971851242240955e-13 0.0 0.01 0.0 2.6971851242240955e-13 0.0 0.010000162603965926 0.009994810043145537 0.0 -6.044398296356459e-14 0.0 0.01 0.0 -6.044398296356459e-14 0.0 0.010000157703730493 0.00999484049582125 0.0 -5.81886603466439e-14 0.0 0.01 0.0 -5.81886603466439e-14 0.0 0.010000152853504559 0.009994878936481483 0.0 -2.1303681728882468e-14 0.0 0.01 0.0 -2.1303681728882468e-14 0.0 0.010000143553091064 0.00999491837606139 0.0 -3.138348721449163e-15 0.0 0.01 0.0 -3.138348721449163e-15 0.0 0.010000133802685425 0.009994953322914734 0.0 7.140931021138593e-16 0.0 0.01 0.0 7.140931021138593e-16 0.0 0.010000122552252822 0.009994981280661341 0.0 1.019321063588368e-15 0.0 0.01 0.0 1.019321063588368e-15 0.0 0.010000114251957997 0.00999499725662188 0.0 2.6407528645174803e-16 0.0 0.01 0.0 2.6407528645174803e-16 0.0 0.010000110851843193 0.009994144147669986 0.0 1.2936944584378817e-10 0.0 0.01 0.0 1.2936944584378817e-10 0.0 0.010000179704843966 0.009994144646792155 0.0 3.8913460644649903e-13 0.0 0.01 0.0 3.891346064467058e-13 0.0 0.010000180204870953 0.009994173096879675 0.0 -8.420917128233249e-14 0.0 0.01 0.0 -8.420917128233249e-14 0.0 0.010000179204817041 0.009994217519432013 0.0 -8.971977679946722e-14 0.0 0.01 0.0 -8.971977679946722e-14 0.0 0.010000177254712776 0.009994266434837803 0.0 -3.534475209419194e-14 0.0 0.01 0.0 -3.534475209419194e-14 0.0 0.010000169454307118 0.009994314352666407 0.0 -8.518473956566967e-15 0.0 0.01 0.0 -8.518473956566967e-15 0.0 0.01000016260396592 0.00999435578217794 0.0 -5.822236349743308e-16 0.0 0.01 0.0 -5.822236349743308e-16 0.0 0.010000154303571365 0.00999438872649461 0.0 7.10722469912312e-16 0.0 0.01 0.0 7.10722469912312e-16 0.0 0.010000146003197477 0.009994408193743951 0.0 1.8607722262393416e-16 0.0 0.01 0.0 1.8607722262393416e-16 0.0 0.010000141603007655 0.009993377085264796 0.0 3.844685962749997e-10 0.0 0.01 0.0 3.8446859627478796e-10 0.0 0.010000224607567082 0.009993404530774968 0.0 1.727861268246688e-12 0.0 0.01 0.0 1.7278612682462745e-12 0.0 0.01000022120733969 0.009993451438170434 0.0 -1.411089253075288e-13 0.0 0.01 0.0 -1.4110892530750296e-13 0.0 0.010000220707306544 0.009993508825776019 0.0 -1.3559342380347415e-13 0.0 0.01 0.0 -1.355934238034483e-13 0.0 0.010000222157402868 0.009993570206657084 0.0 -5.771862803673663e-14 0.0 0.01 0.0 -5.771862803673663e-14 0.0 0.01000021680705059 0.009993626099174889 0.0 -1.7000986474198896e-14 0.0 0.01 0.0 -1.7000986474198896e-14 0.0 0.010000211456706902 0.00999367500589726 0.0 -2.945657004952376e-15 0.0 0.01 0.0 -2.945657004952376e-15 0.0 0.0100002011560694 0.009993712434996348 0.0 -4.484668067787501e-16 0.0 0.01 0.0 -4.484668067787501e-16 0.0 0.010000193855636856 0.009993735890779457 0.0 -7.41442228367013e-17 0.0 0.01 0.0 -7.41442228367013e-17 0.0 0.010000188955355484 0.00999250992359867 0.0 6.719812506968227e-10 0.0 0.01 0.0 6.719812506969286e-10 0.0 0.010000310564467011 0.009992565299442532 0.0 6.183454564200575e-12 0.0 0.01 0.0 6.183454564198921e-12 0.0 0.010000295913134174 0.009992632649682658 0.0 -1.9985508977141445e-13 0.0 0.01 0.0 -1.9985508977141445e-13 0.0 0.01000029101270277 0.009992705489252945 0.0 -1.7841388698714203e-13 0.0 0.01 0.0 -1.7841388698714203e-13 0.0 0.01000029056266351 0.009992778829333677 0.0 -8.078989754321708e-14 0.0 0.01 0.0 -8.078989754321708e-14 0.0 0.010000286612321524 0.009992843190326695 0.0 -2.6760357454569027e-14 0.0 0.01 0.0 -2.6760357454569027e-14 0.0 0.010000279811743755 0.009992900068518428 0.0 -6.320363167817608e-15 0.0 0.01 0.0 -6.320363167817608e-15 0.0 0.010000271011016647 0.009992943975155228 0.0 -1.5366438223632511e-15 0.0 0.01 0.0 -1.5366438223632511e-15 0.0 0.010000262210312777 0.00999297091815071 0.0 -1.0327312491896903e-16 0.0 0.01 0.0 -1.0327312491896903e-16 0.0 0.01000025535978096 0.009991540745966433 0.0 7.69120717261422e-10 0.0 0.01 0.0 7.69120717261422e-10 0.0 0.010000446329879863 0.00999162453402737 0.0 6.980474558854299e-12 0.0 0.01 0.0 6.980474558854299e-12 0.0 0.010000416025960204 0.00999171181549913 0.0 -2.0472614681485005e-13 0.0 0.01 0.0 -2.0472614681485005e-13 0.0 0.010000398473815944 0.009991801593113563 0.0 -1.8253545676431585e-13 0.0 0.01 0.0 -1.8253545676426415e-13 0.0 0.010000393573233766 0.009991887382872903 0.0 -8.667696203381633e-14 0.0 0.01 0.0 -8.667696203381633e-14 0.0 0.01000038477220631 0.00999196319891815 0.0 -3.0721911172791926e-14 0.0 0.01 0.0 -3.0721911172791926e-14 0.0 0.010000373570932244 0.009992025548932798 0.0 -8.697044104584483e-15 0.0 0.01 0.0 -8.697044104584483e-15 0.0 0.01000036281974477 0.009992075429784905 0.0 -6.370294857932771e-16 0.0 0.01 0.0 -6.370294857932771e-16 0.0 0.010000353518745442 0.009992103363388388 0.0 -9.068004707934138e-16 0.0 0.01 0.0 -9.068004707934138e-16 0.0 0.010000345217875484 0.00999046216292438 0.0 5.705822358788282e-10 0.0 0.01 0.0 5.705822358787223e-10 0.0 0.010000644112226785 0.009990573346043877 0.0 2.0048812840957626e-12 0.0 0.01 0.0 2.004881284095349e-12 0.0 0.010000583551075807 0.009990682538460222 0.0 -1.1976491645349994e-13 0.0 0.01 0.0 -1.1976491645349994e-13 0.0 0.01000054934526372 0.00999078874273807 0.0 -1.158148612023403e-13 0.0 0.01 0.0 -1.158148612023403e-13 0.0 0.010000530292178489 0.009990885476342195 0.0 -6.176251563230858e-14 0.0 0.01 0.0 -6.176251563230858e-14 0.0 0.0100005146897331 0.009990971741153069 0.0 -2.385948526468088e-14 0.0 0.01 0.0 -2.385948526468088e-14 0.0 0.01000049808721116 0.00999104354709279 0.0 -6.841800939372868e-15 0.0 0.01 0.0 -6.841800939372868e-15 0.0 0.010000482434909272 0.009991095407901017 0.0 -1.981874252377188e-15 0.0 0.01 0.0 -1.981874252377188e-15 0.0 0.010000469283031919 0.009991130314668965 0.0 3.898651727842209e-16 0.0 0.01 0.0 3.898651727842209e-16 0.0 0.010000460481804571 0.009989273284083146 0.0 2.3957946435366807e-10 0.0 0.01 0.0 2.3957946435366807e-10 0.0 0.010000888768472379 0.009989407354423337 0.0 -2.630468074551934e-13 0.0 0.01 0.0 -2.630468074551934e-13 0.0 0.0100007998959648 0.009989534452109273 0.0 3.037121338723632e-14 0.0 0.01 0.0 3.037121338723632e-14 0.0 0.010000741782528036 0.009989655573241961 0.0 1.2187956792215683e-14 0.0 0.01 0.0 1.2187956792215683e-14 0.0 0.010000704174372248 0.009989764735568224 0.0 -1.5018122580661598e-16 0.0 0.01 0.0 -1.5018122580661598e-16 0.0 0.0100006773188079 0.009989861439430944 0.0 -3.110187645362938e-15 0.0 0.01 0.0 -3.110187645362938e-15 0.0 0.01000065191374319 0.009989939203337071 0.0 6.323355330383202e-16 0.0 0.01 0.0 6.323355330383202e-16 0.0 0.010000628459239188 0.009989997527458435 0.0 1.0396091012254723e-15 0.0 0.01 0.0 1.0396091012254723e-15 0.0 0.010000611856150612 0.009990033918239721 0.0 -9.607497061205167e-16 0.0 0.01 0.0 -9.607497061205167e-16 0.0 0.0100005991538435 0.009987963765567454 0.0 2.9258348144132875e-11 0.0 0.01 0.0 2.9258348144132875e-11 0.0 0.010001174506887568 0.009988116715478933 0.0 -3.482157397816019e-13 0.0 0.01 0.0 -3.482157397816019e-13 0.0 0.010001054366729944 0.009988261700546501 0.0 1.7483598826373953e-13 0.0 0.01 0.0 1.7483598826373953e-13 0.0 0.010000969891085065 0.009988397224944054 0.0 1.5471990884020352e-13 0.0 0.01 0.0 1.5471990884020352e-13 0.0 0.010000914675479384 0.009988519799554486 0.0 7.816404904003717e-14 0.0 0.01 0.0 7.816404904003717e-14 0.0 0.010000869263329677 0.009988624439987475 0.0 3.510746022105601e-14 0.0 0.01 0.0 3.510746022105601e-14 0.0 0.010000832603972864 0.009988711144551896 0.0 1.0840777057141663e-14 0.0 0.01 0.0 1.0840777057141663e-14 0.0 0.010000801846433345 0.009988775426979573 0.0 3.8627979568929135e-15 0.0 0.01 0.0 3.8627979568929135e-15 0.0 0.010000777440652699 0.009988814296026298 0.0 4.787811201721421e-16 0.0 0.01 0.0 4.787811201721421e-16 0.0 0.010000761787039084 0.009986530762010106 0.0 -5.03698586245648e-12 0.0 0.01 0.0 -5.0369858624560665e-12 0.0 0.010001483730152964 0.009986695598243844 0.0 -3.670250401986023e-13 0.0 0.01 0.0 -3.670250401986023e-13 0.0 0.010001336717974483 0.00998685396823492 0.0 2.5907011037280336e-13 0.0 0.01 0.0 2.5907011037280336e-13 0.0 0.010001229726797017 0.009987001886635004 0.0 2.6791301077223734e-13 0.0 0.01 0.0 2.6791301077218564e-13 0.0 0.010001150098378523 0.009987136363611458 0.0 1.651395707806559e-13 0.0 0.01 0.0 1.651395707806559e-13 0.0 0.010001088577724426 0.0099872509223577 0.0 7.914821116087082e-14 0.0 0.01 0.0 7.914821116087082e-14 0.0 0.010001037261364353 0.009987346058921463 0.0 2.986824493695546e-14 0.0 0.01 0.0 2.986824493695546e-14 0.0 0.01000099524855824 0.00998741529614048 0.0 8.513115624049643e-15 0.0 0.01 0.0 8.513115624049643e-15 0.0 0.010000965939937972 0.009987456639914726 0.0 2.2776430737731035e-15 0.0 0.01 0.0 2.2776430737731035e-15 0.0 0.010000946434343742 0.009984963980398266 0.0 -4.443220115158751e-12 0.0 0.01 0.0 -4.4432201151591645e-12 0.0 0.010001797834715255 0.009985132223469893 0.0 -3.704384274137111e-13 0.0 0.01 0.0 -3.704384274137111e-13 0.0 0.01000163665170666 0.009985301968441579 0.0 2.611451327178362e-13 0.0 0.01 0.0 2.611451327178362e-13 0.0 0.010001507640878631 0.009985462761251887 0.0 3.427769057216916e-13 0.0 0.01 0.0 3.4277690572166576e-13 0.0 0.010001406546700401 0.009985608128620316 0.0 2.408698016020116e-13 0.0 0.01 0.0 2.408698016020116e-13 0.0 0.010001328864835339 0.009985734583480827 0.0 1.2700062600709898e-13 0.0 0.01 0.0 1.2700062600709898e-13 0.0 0.010001262439022609 0.009985834655496073 0.0 5.57676305972078e-14 0.0 0.01 0.0 5.57676305972078e-14 0.0 0.010001210669822727 0.009985908840175547 0.0 1.5367750700508966e-14 0.0 0.01 0.0 1.5367750700508966e-14 0.0 0.01000117305637691 0.009985952156826758 0.0 3.102786818533483e-15 0.0 0.01 0.0 3.102786818533483e-15 0.0 0.01000114914805084 0.009983246197733383 0.0 -3.7667412902853644e-12 0.0 0.01 0.0 -3.7667412902861916e-12 0.0 0.010002119823857515 0.009983419329152903 0.0 -3.293018570971415e-13 0.0 0.01 0.0 -3.293018570971415e-13 0.0 0.010001943416383325 0.009983596449925802 0.0 2.657525208648199e-13 0.0 0.01 0.0 2.657525208648199e-13 0.0 0.010001798835254856 0.009983769101999352 0.0 4.1016022896474743e-13 0.0 0.01 0.0 4.1016022896469573e-13 0.0 0.010001680623579427 0.009983926337617235 0.0 3.1552771705626254e-13 0.0 0.01 0.0 3.1552771705626254e-13 0.0 0.010001583876220133 0.009984061685617598 0.0 1.775567715447588e-13 0.0 0.01 0.0 1.775567715447588e-13 0.0 0.010001504739568049 0.00998417116229169 0.0 7.780575734384803e-14 0.0 0.01 0.0 7.780575734384803e-14 0.0 0.010001442211936306 0.009984249788670508 0.0 2.5412184622634912e-14 0.0 0.01 0.0 2.5412184622634912e-14 0.0 0.01000139679259994 0.009984298060215755 0.0 3.886077469445182e-15 0.0 0.01 0.0 3.886077469445182e-15 0.0 0.010001366480039131 0.009981358754264133 0.0 -3.032783463789777e-12 0.0 0.01 0.0 -3.0327834637899836e-12 0.0 0.01000244179406265 0.009981538251562998 0.0 -1.1121031995017876e-13 0.0 0.01 0.0 -1.1121031995017876e-13 0.0 0.010002256613615989 0.00998172919560722 0.0 3.4452468719189674e-13 0.0 0.01 0.0 3.4452468719189674e-13 0.0 0.01000209931088094 0.009981913685808258 0.0 4.964425763831725e-13 0.0 0.01 0.0 4.964425763831725e-13 0.0 0.010001964428695442 0.009982082769369571 0.0 3.9425675699548716e-13 0.0 0.01 0.0 3.9425675699543546e-13 0.0 0.01000185356522827 0.009982228486508036 0.0 2.2622337483229938e-13 0.0 0.01 0.0 2.2622337483229938e-13 0.0 0.010001758263614954 0.00998234436851465 0.0 9.842922952582055e-14 0.0 0.01 0.0 9.842922952582055e-14 0.0 0.010001684525548369 0.009982429914902781 0.0 3.2589297903327333e-14 0.0 0.01 0.0 3.2589297903327333e-14 0.0 0.010001629798349834 0.009982480646939264 0.0 5.171996678353267e-15 0.0 0.01 0.0 5.171996678353267e-15 0.0 0.0100015975327351 0.009979290510542976 0.0 -2.1402590460798855e-12 0.0 0.01 0.0 -2.1402590460800923e-12 0.0 0.010002769199845607 0.009979480828689323 0.0 2.361879172844983e-13 0.0 0.01 0.0 2.361879172844983e-13 0.0 0.010002575194402489 0.009979686066464396 0.0 4.89615059683156e-13 0.0 0.01 0.0 4.89615059683156e-13 0.0 0.010002404667085558 0.009979887340987044 0.0 6.002117007917856e-13 0.0 0.01 0.0 6.002117007917856e-13 0.0 0.010002257113954598 0.009980072226093952 0.0 4.746327941516893e-13 0.0 0.01 0.0 4.746327941516634e-13 0.0 0.01000213103100047 0.00998023028118674 0.0 2.6857921648842056e-13 0.0 0.01 0.0 2.6857921648842056e-13 0.0 0.010002023564056044 0.009980353052431128 0.0 1.2244328418232307e-13 0.0 0.01 0.0 1.2244328418232307e-13 0.0 0.010001941465246772 0.009980445009569686 0.0 3.773910244009969e-14 0.0 0.01 0.0 3.773910244009969e-14 0.0 0.010001878479170058 0.009980501179234519 0.0 6.49622061738372e-15 0.0 0.01 0.0 6.49622061738372e-15 0.0 0.010001842809266767 0.009977024921383965 0.0 -1.1027241218980625e-12 0.0 0.01 0.0 -1.1027241218980625e-12 0.0 0.010003106897322074 0.009977235470188294 0.0 6.048814465851417e-13 0.0 0.01 0.0 6.048814465851417e-13 0.0 0.010002902613285663 0.009977461427719091 0.0 5.586481013096345e-13 0.0 0.01 0.0 5.586481013096086e-13 0.0 0.010002720359651001 0.009977683923980386 0.0 6.680995549595868e-13 0.0 0.01 0.0 6.680995549595868e-13 0.0 0.010002561533882338 0.009977886070765057 0.0 5.407091824596234e-13 0.0 0.01 0.0 5.407091824595975e-13 0.0 0.01000242273015889 0.009978057433312492 0.0 3.225206744407941e-13 0.0 0.01 0.0 3.225206744407941e-13 0.0 0.010002305497052482 0.009978195026443887 0.0 1.5180525836085165e-13 0.0 0.01 0.0 1.5180525836085165e-13 0.0 0.010002211183183497 0.009978291394697783 0.0 5.3902743212461214e-14 0.0 0.01 0.0 5.3902743212461214e-14 0.0 0.010002142788534684 0.009978351502084431 0.0 9.994966878837363e-15 0.0 0.01 0.0 9.994966878837363e-15 0.0 0.01000210271302442 0.009974554948139137 0.0 -3.2638470892908913e-13 0.0 0.01 0.0 -3.2638470892908913e-13 0.0 0.0100034558906519 0.009974797099114377 0.0 6.243646499698639e-13 0.0 0.01 0.0 6.24364649969838e-13 0.0 0.010003238872865357 0.009975050185579416 0.0 3.912663986432095e-13 0.0 0.01 0.0 3.912663986432095e-13 0.0 0.010003049744574204 0.009975298824571094 0.0 6.071547178819135e-13 0.0 0.01 0.0 6.071547178818877e-13 0.0 0.01000288064423878 0.009975521672520297 0.0 5.793718770796286e-13 0.0 0.01 0.0 5.793718770796286e-13 0.0 0.010002733520411713 0.009975711775113926 0.0 3.8026631132675683e-13 0.0 0.01 0.0 3.8026631132675683e-13 0.0 0.010002608420223581 0.009975861184518455 0.0 1.9745427617080446e-13 0.0 0.01 0.0 1.9745427617080446e-13 0.0 0.010002507793038556 0.009975969895247907 0.0 7.537427906057223e-14 0.0 0.01 0.0 7.537427906057223e-14 0.0 0.01000243543941595 0.009976032939171176 0.0 1.7916690867234265e-14 0.0 0.01 0.0 1.7916690867234265e-14 0.0 0.010002391007264059 0.009971885013904983 0.0 -7.103269147504605e-13 0.0 0.01 0.0 -7.103269147504605e-13 0.0 0.010003811277769024 0.00997216762883971 0.0 -2.7344427770998075e-13 0.0 0.01 0.0 -2.7344427770998075e-13 0.0 0.01000358883103218 0.009972460185397805 0.0 -3.682938148478516e-13 0.0 0.01 0.0 -3.682938148478516e-13 0.0 0.010003394777895414 0.009972737890017931 0.0 2.7054735175231466e-13 0.0 0.01 0.0 2.7054735175231466e-13 0.0 0.010003226661029603 0.00997298784401293 0.0 5.133824907333066e-13 0.0 0.01 0.0 5.133824907333066e-13 0.0 0.01000307807059475 0.00997319764133707 0.0 4.098122648469436e-13 0.0 0.01 0.0 4.098122648469436e-13 0.0 0.010002947602742283 0.00997336231423229 0.0 2.326320578111388e-13 0.0 0.01 0.0 2.326320578111388e-13 0.0 0.010002842011095123 0.009973478383764074 0.0 1.017438094602095e-13 0.0 0.01 0.0 1.017438094602095e-13 0.0 0.010002768249056299 0.0099735503092255 0.0 2.2605743201965186e-14 0.0 0.01 0.0 2.2605743201965186e-14 0.0 0.010002722311243413 0.00996905027802166 0.0 -4.154367259270897e-12 0.0 0.01 0.0 -4.154367259271311e-12 0.0 0.010004178417417546 0.00996938615714057 0.0 -3.1719738166728552e-12 0.0 0.01 0.0 -3.171973816672752e-12 0.0 0.010003954494467776 0.009969720583795463 0.0 -2.386144367007192e-12 0.0 0.01 0.0 -2.386144367007192e-12 0.0 0.01000376872942816 0.009970032250188263 0.0 -7.050601205609101e-13 0.0 0.01 0.0 -7.050601205608584e-13 0.0 0.01000361475902821 0.009970307769780778 0.0 1.6222750180669087e-13 0.0 0.01 0.0 1.6222750180669087e-13 0.0 0.010003473959420969 0.009970538212880074 0.0 3.2740520021375043e-13 0.0 0.01 0.0 3.2740520021375043e-13 0.0 0.010003348380997795 0.009970719605138519 0.0 2.266995256633237e-13 0.0 0.01 0.0 2.266995256633237e-13 0.0 0.010003247180943113 0.009970847477761783 0.0 1.0178867219856318e-13 0.0 0.01 0.0 1.0178867219856318e-13 0.0 0.01000316995665696 0.009970925789781836 0.0 2.5315080767188576e-14 0.0 0.01 0.0 2.5315080767188576e-14 0.0 0.010003125014246985 0.009966137777380965 0.0 -1.3566768463347682e-11 0.0 0.01 0.0 -1.3566768463347269e-11 0.0 0.010004556312106297 0.009966534741250315 0.0 -1.020565362448993e-11 0.0 0.01 0.0 -1.0205653624489517e-11 0.0 0.010004346582275133 0.00996691244542451 0.0 -7.112380252320944e-12 0.0 0.01 0.0 -7.112380252320944e-12 0.0 0.01000419503827618 0.009967256525264284 0.0 -3.151675700428161e-12 0.0 0.01 0.0 -3.151675700428161e-12 0.0 0.01000407083440539 0.00996755607701632 0.0 -8.372043593456196e-13 0.0 0.01 0.0 -8.372043593455938e-13 0.0 0.01000395594618898 0.009967806631950219 0.0 -5.9932059290598704e-15 0.0 0.01 0.0 -5.9932059290598704e-15 0.0 0.010003847419256749 0.00996800322681637 0.0 1.340691631805499e-13 0.0 0.01 0.0 1.340691631805499e-13 0.0 0.01000375110956832 0.009968142880613705 0.0 8.011644725868693e-14 0.0 0.01 0.0 8.011644725868693e-14 0.0 0.010003676326312992 0.009968229548155821 0.0 2.3616994185456e-14 0.0 0.01 0.0 2.3616994185456e-14 0.0 0.010003630375987966 0.009963328708384456 0.0 -3.298627796441137e-11 0.0 0.01 0.0 -3.2986277964413027e-11 0.0 0.010004963142473879 0.009963788148734023 0.0 -2.5002204209115262e-11 0.0 0.01 0.0 -2.5002204209114435e-11 0.0 0.010004794946523284 0.009964205112478917 0.0 -1.7399613830982867e-11 0.0 0.01 0.0 -1.739961383098204e-11 0.0 0.01000470056221679 0.009964574141851121 0.0 -8.751666367626789e-12 0.0 0.01 0.0 -8.751666367626789e-12 0.0 0.010004633568505067 0.009964892252349662 0.0 -3.2732149342831693e-12 0.0 0.01 0.0 -3.2732149342832727e-12 0.0 0.010004558314841936 0.009965159429338977 0.0 -8.72212654502346e-13 0.0 0.01 0.0 -8.722126545022943e-13 0.0 0.010004477104876393 0.009965370712285496 0.0 -1.2022153772276134e-13 0.0 0.01 0.0 -1.2022153772276134e-13 0.0 0.010004393043129509 0.009965521636904073 0.0 1.9628091146644405e-14 0.0 0.01 0.0 1.9628091146644405e-14 0.0 0.01000432410306394 0.009965615164125358 0.0 8.330501283167673e-15 0.0 0.01 0.0 8.330501283167673e-15 0.0 0.010004281047536834 0.00996091385908273 0.0 -6.335016064690826e-11 0.0 0.01 0.0 -6.335016064690992e-11 0.0 0.010005453207379528 0.009961430790643256 0.0 -5.001433150905989e-11 0.0 0.01 0.0 -5.001433150905989e-11 0.0 0.010005341176179003 0.009961877610865569 0.0 -3.6574988118892963e-11 0.0 0.01 0.0 -3.657498811889462e-11 0.0 0.010005328005122813 0.009962262695552325 0.0 -2.0154787368116653e-11 0.0 0.01 0.0 -2.0154787368115826e-11 0.0 0.010005340224656089 0.009962590967307911 0.0 -8.624854016265669e-12 0.0 0.01 0.0 -8.624854016265669e-12 0.0 0.010005326502724272 0.009962865870429228 0.0 -2.908929151116064e-12 0.0 0.01 0.0 -2.908929151116064e-12 0.0 0.010005278125852992 0.00996308393027587 0.0 -7.670327344215159e-13 0.0 0.01 0.0 -7.670327344215159e-13 0.0 0.01000521502664067 0.00996324266311424 0.0 -1.4572639418399857e-13 0.0 0.01 0.0 -1.4572639418399857e-13 0.0 0.010005155333881565 0.009963340082351358 0.0 -1.917455986612366e-14 0.0 0.01 0.0 -1.917455986612366e-14 0.0 0.010005113769923567 0.009959308227505596 0.0 -9.483499818186913e-11 0.0 0.01 0.0 -9.483499818186913e-11 0.0 0.010006107640938455 0.009959864429184267 0.0 -7.799421057840314e-11 0.0 0.01 0.0 -7.799421057840314e-11 0.0 0.010006056748189423 0.009960319931929189 0.0 -6.303635936676774e-11 0.0 0.01 0.0 -6.303635936676609e-11 0.0 0.010006132085763274 0.009960703353610833 0.0 -3.866776081649859e-11 0.0 0.01 0.0 -3.866776081649859e-11 0.0 0.010006237781637515 0.009961029000350953 0.0 -1.8499439639579494e-11 0.0 0.01 0.0 -1.8499439639579494e-11 0.0 0.010006294989047973 0.009961301797316996 0.0 -7.105847783258022e-12 0.0 0.01 0.0 -7.105847783258022e-12 0.0 0.01000629158262478 0.00996152123722845 0.0 -2.20491639336292e-12 0.0 0.01 0.0 -2.20491639336292e-12 0.0 0.010006251457225206 0.009961680883934518 0.0 -5.746385651959493e-13 0.0 0.01 0.0 -5.746385651959493e-13 0.0 0.01000620351777394 0.009961780234520858 0.0 -1.0531979098579573e-13 0.0 0.01 0.0 -1.0531979098579573e-13 0.0 0.01000616339343377 0.009959032631006521 0.0 -1.0367697300633556e-10 0.0 0.01 0.0 -1.0367697300633887e-10 0.0 0.010007054808532303 0.00995958088311474 0.0 -8.332610735023217e-11 0.0 0.01 0.0 -8.332610735023548e-11 0.0 0.010007040628593646 0.009960017573892819 0.0 -8.042133584417945e-11 0.0 0.01 0.0 -8.042133584417614e-11 0.0 0.010007185487270847 0.009960378232887057 0.0 -5.786085608959025e-11 0.0 0.01 0.0 -5.786085608959025e-11 0.0 0.010007371442721536 0.00996067963552102 0.0 -3.1597455832560295e-11 0.0 0.01 0.0 -3.1597455832560295e-11 0.0 0.010007500630486936 0.009960931648889126 0.0 -1.3599750195317565e-11 0.0 0.01 0.0 -1.3599750195318392e-11 0.0 0.010007546133032504 0.009961137226899982 0.0 -4.78138039723881e-12 0.0 0.01 0.0 -4.781380397239017e-12 0.0 0.010007532903153494 0.009961289936113284 0.0 -1.4176283178420638e-12 0.0 0.01 0.0 -1.4176283178420638e-12 0.0 0.010007495218331183 0.009961384826929338 0.0 -2.895178975809775e-13 0.0 0.01 0.0 -2.895178975809775e-13 0.0 0.01000745903729333 0.009960725095342012 0.0 -5.999883888411268e-11 0.0 0.01 0.0 -5.999883888411102e-11 0.0 0.01000843987270668 0.009961202955247394 0.0 -2.774346664615495e-11 0.0 0.01 0.0 -2.774346664615495e-11 0.0 0.010008410999849565 0.009961568685602617 0.0 -5.8017955255509744e-11 0.0 0.01 0.0 -5.8017955255509744e-11 0.0 0.010008575468199166 0.009961865253303222 0.0 -6.038984143251278e-11 0.0 0.01 0.0 -6.038984143251278e-11 0.0 0.010008805065739422 0.00996211241328828 0.0 -4.110348247693815e-11 0.0 0.01 0.0 -4.110348247693815e-11 0.0 0.010008985747052957 0.0099623190531548 0.0 -2.0479140766391327e-11 0.0 0.01 0.0 -2.0479140766391327e-11 0.0 0.010009072882659802 0.009962493570042944 0.0 -8.176864452943957e-12 0.0 0.01 0.0 -8.176864452943957e-12 0.0 0.010009086118647282 0.009962624092917021 0.0 -2.766502588902336e-12 0.0 0.01 0.0 -2.766502588902336e-12 0.0 0.010009062604751196 0.00996270962773436 0.0 -6.210298691569651e-13 0.0 0.01 0.0 -6.210298691569651e-13 0.0 0.010009037135728762 0.009965329147365337 0.0 6.690897158810022e-11 0.0 0.01 0.0 6.690897158810188e-11 0.0 0.010010375475263478 0.009965623576755829 0.0 1.239213786121796e-10 0.0 0.01 0.0 1.239213786121796e-10 0.0 0.01001028389204109 0.009965847756462835 0.0 3.801432911683499e-11 0.0 0.01 0.0 3.801432911683168e-11 0.0 0.010010401456065741 0.009966022953784893 0.0 -2.117873291353614e-11 0.0 0.01 0.0 -2.1178732913536966e-11 0.0 0.010010616482555383 0.009966172423210915 0.0 -3.377902092684847e-11 0.0 0.01 0.0 -3.3779020926845163e-11 0.0 0.010010807545242107 0.00996630309073496 0.0 -2.2483157940738955e-11 0.0 0.01 0.0 -2.2483157940738955e-11 0.0 0.010010922168039808 0.009966418418993834 0.0 -1.0704573540841183e-11 0.0 0.01 0.0 -1.070457354084201e-11 0.0 0.010010963302782788 0.009966510981479696 0.0 -4.292364034646809e-12 0.0 0.01 0.0 -4.292364034646809e-12 0.0 0.0100109598915897 0.009966570876227198 0.0 -1.0814098436392742e-12 0.0 0.01 0.0 -1.0814098436391708e-12 0.0 0.010010947149811057 0.009974181831980617 0.0 2.645197965377249e-10 0.0 0.01 0.0 2.6451979653771165e-10 0.0 0.010012879338946633 0.009974149087082395 0.0 3.802904106019746e-10 0.0 0.01 0.0 3.8029041060196136e-10 0.0 0.010012708735807755 0.00997413172249448 0.0 2.2856820208902108e-10 0.0 0.01 0.0 2.2856820208901446e-10 0.0 0.01001273719415429 0.009974119815400901 0.0 8.577096577192274e-11 0.0 0.01 0.0 8.577096577191943e-11 0.0 0.010012884709648914 0.009974121303785265 0.0 1.1596029072677322e-11 0.0 0.01 0.0 1.1596029072676909e-11 0.0 0.010013048946886406 0.00997413321088417 0.0 -7.420429057988535e-12 0.0 0.01 0.0 -7.420429057988535e-12 0.0 0.01001317052378774 0.009974158513610923 0.0 -6.928036925929097e-12 0.0 0.01 0.0 -6.928036925929097e-12 0.0 0.01001323668516781 0.009974189770186317 0.0 -4.137658322017461e-12 0.0 0.01 0.0 -4.1376583220176676e-12 0.0 0.010013260680286776 0.009974212096491505 0.0 -1.3461251864391232e-12 0.0 0.01 0.0 -1.3461251864391232e-12 0.0 0.010013270017346218 0.009988666297081526 0.0 3.692300895611432e-10 0.0 0.01 0.0 3.692300895611432e-10 0.0 0.010015833927751558 0.009988170523633271 0.0 6.438050036010776e-10 0.0 0.01 0.0 6.438050036010511e-10 0.0 0.010015635694941937 0.009987817797123471 0.0 4.709714173337473e-10 0.0 0.01 0.0 4.709714173337737e-10 0.0 0.010015578829516767 0.009987547299144754 0.0 2.580070860483304e-10 0.0 0.01 0.0 2.580070860483172e-10 0.0 0.010015648956982438 0.009987345062712994 0.0 1.108005196088965e-10 0.0 0.01 0.0 1.1080051960890312e-10 0.0 0.010015770628616277 0.009987197627146236 0.0 4.057052848245784e-11 0.0 0.01 0.0 4.057052848245784e-11 0.0 0.010015887883676215 0.009987101498688538 0.0 1.2420428597822049e-11 0.0 0.01 0.0 1.2420428597822049e-11 0.0 0.010015978163835518 0.009987044221393562 0.0 1.5852469315940187e-12 0.0 0.01 0.0 1.5852469315940187e-12 0.0 0.010016040964495675 0.009987014337978696 0.0 -5.043298871968145e-13 0.0 0.01 0.0 -5.043298871968145e-13 0.0 0.010016080705363703 0.01000940730798564 0.0 7.658333277880109e-11 0.0 0.01 0.0 7.658333277878785e-11 0.0 0.010018976228243446 0.010008409997324358 0.0 6.720068660897489e-10 0.0 0.01 0.0 6.72006866089643e-10 0.0 0.0100188716366988 0.010007668010749688 0.0 6.126705310699124e-10 0.0 0.01 0.0 6.126705310699124e-10 0.0 0.010018818135367267 0.01000710030499689 0.0 4.2040356777315193e-10 0.0 0.01 0.0 4.2040356777315193e-10 0.0 0.010018853484365205 0.010006656039536628 0.0 2.4088734326663563e-10 0.0 0.01 0.0 2.4088734326663563e-10 0.0 0.010018951186315753 0.010006316529745776 0.0 1.2207767358820178e-10 0.0 0.01 0.0 1.2207767358818854e-10 0.0 0.010019076900698975 0.010006069471303874 0.0 5.281640473391651e-11 0.0 0.01 0.0 5.2816404733909895e-11 0.0 0.010019208050987027 0.010005903173006555 0.0 1.6262110148922903e-11 0.0 0.01 0.0 1.6262110148922903e-11 0.0 0.010019325879429984 0.010005809759075954 0.0 2.4179681892585555e-12 0.0 0.01 0.0 2.4179681892585555e-12 0.0 0.0100194113742872 0.010035362495384633 0.0 -7.198183458288855e-10 0.0 0.01 0.0 -7.198183458288855e-10 0.0 0.010021958364290935 0.010033970165120906 0.0 2.747154834100072e-10 0.0 0.01 0.0 2.747154834100072e-10 0.0 0.010022113183263542 0.010032890054688553 0.0 4.820243643037868e-10 0.0 0.01 0.0 4.820243643038397e-10 0.0 0.010022208061244748 0.010032037101360951 0.0 4.477181450710297e-10 0.0 0.01 0.0 4.477181450710297e-10 0.0 0.010022310794235162 0.010031357832767885 0.0 3.279582327956843e-10 0.0 0.01 0.0 3.2795823279563136e-10 0.0 0.010022448917453068 0.010030822117060962 0.0 2.0218641413839333e-10 0.0 0.01 0.0 2.0218641413839333e-10 0.0 0.010022620472024516 0.010030418481823346 0.0 1.0132910232900252e-10 0.0 0.01 0.0 1.0132910232900252e-10 0.0 0.010022817609575123 0.010030135678562993 0.0 3.6494250200178386e-11 0.0 0.01 0.0 3.649425020016515e-11 0.0 0.010023012291804936 0.010029973575722535 0.0 6.985553757308309e-12 0.0 0.01 0.0 6.985553757308309e-12 0.0 0.010023158801817124 0.010063271720428523 0.0 -1.5438307012105303e-09 0.0 0.01 0.0 -1.5438307012105303e-09 0.0 0.0100244408622542 0.010061732516445073 0.0 -3.439758834833243e-10 0.0 0.01 0.0 -3.4397588348331105e-10 0.0 0.01002500265831278 0.010060469902252 0.0 1.199501136028489e-10 0.0 0.01 0.0 1.199501136028489e-10 0.0 0.010025400148421392 0.01005942595030459 0.0 2.9312607008504975e-10 0.0 0.01 0.0 2.9312607008504975e-10 0.0 0.010025696861019206 0.010058564176391775 0.0 2.996608490459411e-10 0.0 0.01 0.0 2.996608490459543e-10 0.0 0.01002596009017044 0.01005786363305704 0.0 2.2182016824986915e-10 0.0 0.01 0.0 2.2182016824986915e-10 0.0 0.010026235686702868 0.01005732213384924 0.0 1.2373050375471518e-10 0.0 0.01 0.0 1.2373050375471518e-10 0.0 0.010026536404622775 0.010056935685600317 0.0 4.835580956058571e-11 0.0 0.01 0.0 4.835580956058571e-11 0.0 0.010026828278574084 0.010056702759898497 0.0 1.009668295379775e-11 0.0 0.01 0.0 1.0096682953797336e-11 0.0 0.01002705177518661 0.010088035284449686 0.0 -1.6763588091514331e-09 0.0 0.01 0.0 -1.6763588091514331e-09 0.0 0.010026240121428262 0.010086665507370812 0.0 -6.809922283878779e-10 0.0 0.01 0.0 -6.809922283878911e-10 0.0 0.010027236874358105 0.010085427081150403 0.0 -1.936355513096126e-10 0.0 0.01 0.0 -1.936355513096126e-10 0.0 0.010028031979775982 0.010084330782635617 0.0 6.299988651348047e-11 0.0 0.01 0.0 6.299988651347882e-11 0.0 0.010028616518758365 0.010083379497401608 0.0 1.5919855675174717e-10 0.0 0.01 0.0 1.5919855675175047e-10 0.0 0.010029080460911383 0.010082572641239108 0.0 1.4768728906252194e-10 0.0 0.01 0.0 1.4768728906252194e-10 0.0 0.010029513948689138 0.010081929581007771 0.0 8.980432859876545e-11 0.0 0.01 0.0 8.980432859876545e-11 0.0 0.010029952890895956 0.0100814597518558 0.0 3.605891064574421e-11 0.0 0.01 0.0 3.6058910645743386e-11 0.0 0.010030367772253005 0.010081173582776881 0.0 7.462134573577218e-12 0.0 0.01 0.0 7.462134573577218e-12 0.0 0.010030678702135837 0.010104506817973332 0.0 -1.0733028453529461e-09 0.0 0.01 0.0 -1.0733028453529726e-09 0.0 0.010027301348944013 0.010103544294132173 0.0 -5.485209533762989e-10 0.0 0.01 0.0 -5.485209533762989e-10 0.0 0.010028704672395068 0.01010250502365412 0.0 -2.7019734848542996e-10 0.0 0.01 0.0 -2.7019734848542996e-10 0.0 0.010029856834256426 0.010101478648984518 0.0 -9.623286222724347e-11 0.0 0.01 0.0 -9.623286222724347e-11 0.0 0.010030735370985845 0.010100525027755197 0.0 -2.2810488708882173e-12 0.0 0.01 0.0 -2.2810488708881656e-12 0.0 0.010031435711730085 0.010099687366622688 0.0 2.5785850138800174e-11 0.0 0.01 0.0 2.5785850138801e-11 0.0 0.01003205926307526 0.010098992255835576 0.0 1.8195394074823775e-11 0.0 0.01 0.0 1.819539407482419e-11 0.0 0.010032661269781619 0.010098476783992533 0.0 5.1761195836036495e-12 0.0 0.01 0.0 5.1761195836036495e-12 0.0 0.010033212076648645 0.010098156520568165 0.0 1.8624978884432058e-13 0.0 0.01 0.0 1.8624978884432058e-13 0.0 0.010033619483651427 0.01011079195109445 0.0 -3.650791939765989e-10 0.0 0.01 0.0 -3.650791939765989e-10 0.0 0.01002787098729426 0.010110304950573913 0.0 -2.3314254422981084e-10 0.0 0.01 0.0 -2.3314254422981415e-10 0.0 0.010029491753395289 0.01010954404979803 0.0 -1.7102298521457608e-10 0.0 0.01 0.0 -1.7102298521456947e-10 0.0 0.010030872379341929 0.010108669383778466 0.0 -1.184053226164414e-10 0.0 0.01 0.0 -1.1840532261643808e-10 0.0 0.01003197692724184 0.010107796906853282 0.0 -7.467714444961097e-11 0.0 0.01 0.0 -7.467714444961263e-11 0.0 0.010032878743833193 0.010107001830197901 0.0 -4.601633651182283e-11 0.0 0.01 0.0 -4.6016336511822e-11 0.0 0.010033681101526292 0.010106331891464912 0.0 -2.8759582402865797e-11 0.0 0.01 0.0 -2.875958240286745e-11 0.0 0.010034441771728235 0.010105824377306359 0.0 -1.5727731197200345e-11 0.0 0.01 0.0 -1.572773119719993e-11 0.0 0.010035124142944832 0.010105505891097634 0.0 -4.743803548981089e-12 0.0 0.01 0.0 -4.743803548981089e-12 0.0 0.010035617592239138 0.010109429570465055 0.0 -5.720718209658408e-12 0.0 0.01 0.0 -5.7207182096585115e-12 0.0 0.010028176239256599 0.010109298409619953 0.0 -2.9052196170156138e-11 0.0 0.01 0.0 -2.9052196170156965e-11 0.0 0.010029822831674601 0.010108763694014795 0.0 -5.318550932355812e-11 0.0 0.01 0.0 -5.318550932355812e-11 0.0 0.010031276473145152 0.01010803897783418 0.0 -6.05145287920499e-11 0.0 0.01 0.0 -6.05145287920499e-11 0.0 0.010032489199105193 0.010107275594180098 0.0 -5.466689260524275e-11 0.0 0.01 0.0 -5.466689260524192e-11 0.0 0.010033516402515274 0.010106567818169753 0.0 -4.254045135565708e-11 0.0 0.01 0.0 -4.254045135565708e-11 0.0 0.010034447682387187 0.010105969543113784 0.0 -2.844942117782014e-11 0.0 0.01 0.0 -2.844942117782014e-11 0.0 0.010035327426141497 0.010105514508199161 0.0 -1.4816915912813416e-11 0.0 0.01 0.0 -1.4816915912813416e-11 0.0 0.010036110204547458 0.010105227782112694 0.0 -4.1770957368260865e-12 0.0 0.01 0.0 -4.177095736826293e-12 0.0 0.010036672903348993 0.010104396997338456 0.0 3.481821770174114e-11 0.0 0.01 0.0 3.481821770174114e-11 0.0 0.01002835797169991 0.010104372856880511 0.0 1.708063038496264e-11 0.0 0.01 0.0 1.7080630384963055e-11 0.0 0.010029895730808936 0.010103901894656786 0.0 3.0528652363968434e-13 0.0 0.01 0.0 3.0528652363968434e-13 0.0 0.010031294743558041 0.010103235098790912 0.0 -9.806891064616801e-12 0.0 0.01 0.0 -9.806891064616801e-12 0.0 0.010032509899627699 0.010102534202999341 0.0 -1.3176859957359482e-11 0.0 0.01 0.0 -1.3176859957359482e-11 0.0 0.010033570644716116 0.010101897418664763 0.0 -1.1917112812378767e-11 0.0 0.01 0.0 -1.1917112812378354e-11 0.0 0.010034551297429896 0.01010137042159826 0.0 -8.342679138600518e-12 0.0 0.01 0.0 -8.342679138600311e-12 0.0 0.010035489788708983 0.010100974854327384 0.0 -4.322633161610418e-12 0.0 0.01 0.0 -4.322633161610418e-12 0.0 0.010036327346948756 0.010100728292457726 0.0 -1.1965773564638573e-12 0.0 0.01 0.0 -1.1965773564638832e-12 0.0 0.010036926179023773 0.010098541149290437 0.0 -3.238599330776525e-11 0.0 0.01 0.0 -3.238599330776608e-11 0.0 0.010028433814132051 0.010098353103090783 0.0 -4.335279079183651e-12 0.0 0.01 0.0 -4.335279079183444e-12 0.0 0.010029817383221824 0.010097755770807128 0.0 3.3327367549416428e-12 0.0 0.01 0.0 3.3327367549416428e-12 0.0 0.010031100537206593 0.010097007272925158 0.0 3.834235404608802e-12 0.0 0.01 0.0 3.834235404608802e-12 0.0 0.010032237268869117 0.01009627602550818 0.0 3.615076443961028e-12 0.0 0.01 0.0 3.6150764439611315e-12 0.0 0.010033249093234418 0.01009564443674049 0.0 3.5302571009688445e-12 0.0 0.01 0.0 3.5302571009688445e-12 0.0 0.010034207425043384 0.010095144549456354 0.0 2.929513595370516e-12 0.0 0.01 0.0 2.929513595370516e-12 0.0 0.010035137937312439 0.010094779854018342 0.0 1.735650696014371e-12 0.0 0.01 0.0 1.735650696014371e-12 0.0 0.010035976923699369 0.010094559872793696 0.0 5.1644120500345e-13 0.0 0.01 0.0 5.1644120500345e-13 0.0 0.010036581101970633 0.010092574520523303 0.0 -9.047248588047152e-11 0.0 0.01 0.0 -9.047248588047152e-11 0.0 0.010028348592369755 0.010092015883868795 0.0 -2.711812666143613e-11 0.0 0.01 0.0 -2.711812666143613e-11 0.0 0.01002959819125911 0.010091133684919734 0.0 -7.004065989325063e-12 0.0 0.01 0.0 -7.004065989325063e-12 0.0 0.01003075358797956 0.010090182990237177 0.0 -1.9962455587937106e-12 0.0 0.01 0.0 -1.9962455587937106e-12 0.0 0.010031772838021496 0.010089321298980118 0.0 -4.797970130422604e-13 0.0 0.01 0.0 -4.797970130422604e-13 0.0 0.010032686919572613 0.010088613796643265 0.0 6.43700674723885e-13 0.0 0.01 0.0 6.43700674723885e-13 0.0 0.010033563725503741 0.010088075375127625 0.0 1.1827562882962546e-12 0.0 0.01 0.0 1.1827562882963063e-12 0.0 0.010034436366262946 0.010087699896654558 0.0 9.044092838801892e-13 0.0 0.01 0.0 9.044092838801892e-13 0.0 0.01003523070970198 0.01008747786308446 0.0 2.9432045722025697e-13 0.0 0.01 0.0 2.9432045722025697e-13 0.0 0.010035809129803206 0.010085506687873 0.0 -1.2592236182800596e-10 0.0 0.01 0.0 -1.2592236182800596e-10 0.0 0.010028031475559423 0.010084466973545456 0.0 -3.4924799937362574e-11 0.0 0.01 0.0 -3.49247999373634e-11 0.0 0.010029187339632872 0.010083217823624016 0.0 -1.1031498935537433e-11 0.0 0.01 0.0 -1.1031498935537433e-11 0.0 0.010030233256860165 0.010081999113104222 0.0 -6.090313710852854e-12 0.0 0.01 0.0 -6.090313710852854e-12 0.0 0.010031137025741068 0.010080944962158172 0.0 -5.9876317766119915e-12 0.0 0.01 0.0 -5.9876317766119915e-12 0.0 0.01003192861709262 0.010080100179223565 0.0 -5.574026306171389e-12 0.0 0.01 0.0 -5.574026306171182e-12 0.0 0.010032693836971187 0.010079473105970033 0.0 -3.93885205769856e-12 0.0 0.01 0.0 -3.938852057698353e-12 0.0 0.010033470494300811 0.010079040121976777 0.0 -2.0116314476153914e-12 0.0 0.01 0.0 -2.0116314476153914e-12 0.0 0.01003419413965933 0.010078788149648068 0.0 -5.485729716715303e-13 0.0 0.01 0.0 -5.485729716715303e-13 0.0 0.010034729890617558 0.010075890393357902 0.0 -1.378483407470433e-10 0.0 0.01 0.0 -1.378483407470466e-10 0.0 0.010027432267938022 0.010074351834388899 0.0 -2.2573018100142805e-11 0.0 0.01 0.0 -2.2573018100142805e-11 0.0 0.010028531796630099 0.0100727381481916 0.0 -2.7534701075943452e-12 0.0 0.01 0.0 -2.753470107594242e-12 0.0 0.010029494729573853 0.010071253385503555 0.0 -5.883674737663409e-13 0.0 0.01 0.0 -5.883674737663409e-13 0.0 0.01003028941360354 0.010070003165073085 0.0 -2.6875808813308456e-12 0.0 0.01 0.0 -2.6875808813308456e-12 0.0 0.010030962055990869 0.010069009071247373 0.0 -4.565046628435801e-12 0.0 0.01 0.0 -4.565046628435801e-12 0.0 0.010031606718692933 0.010068271438009018 0.0 -4.306629217762012e-12 0.0 0.01 0.0 -4.306629217762012e-12 0.0 0.010032275688265806 0.010067760196570836 0.0 -2.589148040643248e-12 0.0 0.01 0.0 -2.589148040643455e-12 0.0 0.010032917170600151 0.010067463203050766 0.0 -7.829005150458338e-13 0.0 0.01 0.0 -7.829005150458855e-13 0.0 0.010033399486796588 0.010063109024760429 0.0 -1.0449470362234898e-10 0.0 0.01 0.0 -1.0449470362235229e-10 0.0 0.010026557068318996 0.010061125261643896 0.0 8.567655786127742e-12 0.0 0.01 0.0 8.567655786127742e-12 0.0 0.01002761542198204 0.01005922715369958 0.0 1.1243280756365872e-11 0.0 0.01 0.0 1.1243280756365872e-11 0.0 0.01002850965828496 0.010057559070321243 0.0 8.568746132200357e-12 0.0 0.01 0.0 8.56874613220077e-12 0.0 0.010029212962788378 0.010056174414208918 0.0 6.216124432256326e-12 0.0 0.01 0.0 6.216124432256326e-12 0.0 0.010029773039200298 0.010055077714423866 0.0 3.056935134590643e-12 0.0 0.01 0.0 3.0569351345902295e-12 0.0 0.010030306164944132 0.010054254256193522 0.0 7.217211040272452e-13 0.0 0.01 0.0 7.217211040272452e-13 0.0 0.010030868897292076 0.010053680618211207 0.0 -2.1595865152840223e-13 0.0 0.01 0.0 -2.1595865152840223e-13 0.0 0.010031426828490448 0.010053343259850661 0.0 -1.8870566925996577e-13 0.0 0.01 0.0 -1.8870566925996577e-13 0.0 0.010031852241028797 0.010048048696251696 0.0 -3.035541637008141e-11 0.0 0.01 0.0 -3.035541637008141e-11 0.0 0.010025443477197171 0.010045753502755855 0.0 3.0891961840196995e-11 0.0 0.01 0.0 3.0891961840196995e-11 0.0 0.010026462570752034 0.010043721118021437 0.0 7.974749448603253e-12 0.0 0.01 0.0 7.974749448602426e-12 0.0 0.010027297870611537 0.010042008836401663 0.0 4.4434065138896274e-12 0.0 0.01 0.0 4.443406513889214e-12 0.0 0.010027919692626298 0.010040611764447165 0.0 7.808721824752865e-12 0.0 0.01 0.0 7.808721824752038e-12 0.0 0.010028388026074893 0.010039510787809165 0.0 7.902073807830681e-12 0.0 0.01 0.0 7.902073807829027e-12 0.0 0.01002881940672533 0.010038675871983696 0.0 5.274696809837112e-12 0.0 0.01 0.0 5.274696809837939e-12 0.0 0.010029284385849041 0.010038088105715775 0.0 2.3441076755221017e-12 0.0 0.01 0.0 2.3441076755221017e-12 0.0 0.01002976269739135 0.010037741391760996 0.0 5.278380202138154e-13 0.0 0.01 0.0 5.278380202138154e-13 0.0 0.01003013668763112 0.010032768263025979 0.0 2.2117012710208515e-11 0.0 0.01 0.0 2.2117012710205206e-11 0.0 0.010024148239835863 0.010030336236838418 0.0 5.784213927536983e-12 0.0 0.01 0.0 5.784213927536983e-12 0.0 0.010025126635895274 0.010028338254966459 0.0 -2.995655965368031e-11 0.0 0.01 0.0 -2.995655965368031e-11 0.0 0.010025911413385848 0.01002672737228076 0.0 -2.2181733522796455e-11 0.0 0.01 0.0 -2.2181733522902334e-11 0.0 0.010026466501797553 0.010025447860488337 0.0 -5.585585715643431e-12 0.0 0.01 0.0 -5.5855857156500486e-12 0.0 0.010026853379613718 0.010024440862253844 0.0 3.0773290197374665e-12 0.0 0.01 0.0 3.0773290197374665e-12 0.0 0.010027197958321743 0.010023675112019393 0.0 4.420279679545141e-12 0.0 0.01 0.0 4.420279679545141e-12 0.0 0.01002757705610086 0.01002313277190577 0.0 2.5415303507757256e-12 0.0 0.01 0.0 2.5415303507757256e-12 0.0 0.010027978331560798 0.010022808245781742 0.0 6.591464403672144e-13 0.0 0.01 0.0 6.591464403674212e-13 0.0 0.01002830083887644 0.010019341620377554 0.0 7.316183237435895e-12 0.0 0.01 0.0 7.316183237435895e-12 0.0 0.010022723721114145 0.010016926680085506 0.0 -6.050959193551068e-11 0.0 0.01 0.0 -6.050959193551068e-11 0.0 0.010023664789061882 0.010015076978878205 0.0 -8.221270402649716e-11 0.0 0.01 0.0 -8.221270402651039e-11 0.0 0.01002440887903825 0.01001366857349838 0.0 -5.420447961057596e-11 0.0 0.01 0.0 -5.420447961058258e-11 0.0 0.010024910622667738 0.010012579346244195 0.0 -2.3423793912684276e-11 0.0 0.01 0.0 -2.3423793912684276e-11 0.0 0.010025240743667693 0.010011732515535358 0.0 -5.847088315706829e-12 0.0 0.01 0.0 -5.847088315706829e-12 0.0 0.010025512350953954 0.010011085807057597 0.0 7.369889254902869e-13 0.0 0.01 0.0 7.369889254902869e-13 0.0 0.01002581592630797 0.010010625310624343 0.0 1.4889113841921111e-12 0.0 0.01 0.0 1.4889113841919044e-12 0.0 0.010026143667487292 0.01001035049777172 0.0 5.036979933874152e-13 0.0 0.01 0.0 5.036979933874152e-13 0.0 0.010026413836251129 0.010008991111492355 0.0 -3.191666115741638e-11 0.0 0.01 0.0 -3.1916661157413074e-11 0.0 0.010021194138826694 0.010006676129659857 0.0 -1.0550492922717336e-10 0.0 0.01 0.0 -1.0550492922717336e-10 0.0 0.010022109710327546 0.010005017423656386 0.0 -1.0165698334959182e-10 0.0 0.01 0.0 -1.0165698334959182e-10 0.0 0.010022831353254864 0.010003819086699957 0.0 -6.275465555019729e-11 0.0 0.01 0.0 -6.275465555019068e-11 0.0 0.010023308792433334 0.01000292608379408 0.0 -2.8932467437335178e-11 0.0 0.01 0.0 -2.8932467437335178e-11 0.0 0.01002360285198654 0.010002241453391833 0.0 -8.979174382226622e-12 0.0 0.01 0.0 -8.979174382225794e-12 0.0 0.010023822154681785 0.010001721144248679 0.0 -6.8782350297820744e-15 0.0 0.01 0.0 -6.8782350297820744e-15 0.0 0.010024059702680815 0.01000135087367966 0.0 1.8671159974983263e-12 0.0 0.01 0.0 1.8671159974983263e-12 0.0 0.010024320838633848 0.010001127140538234 0.0 7.603220960392598e-13 0.0 0.01 0.0 7.603220960393632e-13 0.0 0.010024539735138161 0.010001900441614512 0.0 1.9611331601110178e-10 0.0 0.01 0.0 1.9611331601111502e-10 0.0 0.0100195906188448 0.009999715012183172 0.0 -6.70812182795824e-11 0.0 0.01 0.0 -6.70812182795824e-11 0.0 0.010020487589649057 0.009998210480471663 0.0 -5.720273504273427e-11 0.0 0.01 0.0 -5.720273504273427e-11 0.0 0.010021207422959906 0.009997167204164643 0.0 -3.6096874668133635e-11 0.0 0.01 0.0 -3.6096874668133635e-11 0.0 0.01002168805226446 0.00999641193205902 0.0 -1.886667109619982e-11 0.0 0.01 0.0 -1.8866671096200646e-11 0.0 0.010021973564015407 0.009995845590302766 0.0 -5.452365080119376e-12 0.0 0.01 0.0 -5.452365080119376e-12 0.0 0.010022167240732623 0.009995421146805582 0.0 2.6308383326624196e-12 0.0 0.01 0.0 2.630838332662833e-12 0.0 0.010022358462207647 0.009995119575108381 0.0 3.937003664324463e-12 0.0 0.01 0.0 3.937003664324463e-12 0.0 0.01002256097058551 0.009994938345646989 0.0 1.5147351215195815e-12 0.0 0.01 0.0 1.514735121519685e-12 0.0 0.010022729107673 0.009997542406263353 0.0 3.0001541772938855e-09 0.0 0.01 0.0 3.0001541772940972e-09 0.0 0.010017961376024523 0.00999548106496273 0.0 1.558571417643597e-10 0.0 0.01 0.0 1.5585714176437293e-10 0.0 0.010018819090740615 0.009994059297987353 0.0 4.409326102274849e-11 0.0 0.01 0.0 4.409326102275511e-11 0.0 0.010019549377662435 0.009993078692311991 0.0 1.3760206005321139e-11 0.0 0.01 0.0 1.3760206005321139e-11 0.0 0.010020054818445612 0.00999237273515816 0.0 -4.251795226651514e-12 0.0 0.01 0.0 -4.251795226651928e-12 0.0 0.010020361822157148 0.009991852966948206 0.0 -3.811589918403038e-12 0.0 0.01 0.0 -3.811589918402831e-12 0.0 0.010020559832637733 0.009991472420357864 0.0 2.8467983555013103e-12 0.0 0.01 0.0 2.8467983555013103e-12 0.0 0.010020727365915616 0.009991212097672333 0.0 4.8138907374013925e-12 0.0 0.01 0.0 4.8138907374013925e-12 0.0 0.010020886052330565 0.009991058008198498 0.0 1.9730664861834635e-12 0.0 0.01 0.0 1.973066486183567e-12 0.0 0.010021014305039978 0.009995105595659866 0.0 1.5156660028111533e-08 0.0 0.01 0.0 1.5156660028110686e-08 0.0 0.010016374129227837 0.009993191459751229 0.0 1.712258457335659e-09 0.0 0.01 0.0 1.712258457335659e-09 0.0 0.010017144589972216 0.009991771168206468 0.0 1.7556630157395938e-10 0.0 0.01 0.0 1.7556630157395938e-10 0.0 0.010017865160811434 0.009990754836778979 0.0 7.306661323540409e-11 0.0 0.01 0.0 7.306661323540409e-11 0.0 0.010018405188233838 0.00999000999000999 0.0 7.668474567623352e-12 0.0 0.01 0.0 7.668474567623352e-12 0.0 0.010018759707260606 0.009989469656604385 0.0 -9.995328310971477e-12 0.0 0.01 0.0 -9.99532831097189e-12 0.0 0.010018990961834829 0.009989085395329621 0.0 -4.6131193852917805e-12 0.0 0.01 0.0 -4.613119385291987e-12 0.0 0.010019160880543422 0.009988829245780477 0.0 1.2066632875130732e-12 0.0 0.01 0.0 1.2066632875130732e-12 0.0 0.010019297415157271 0.009988679252955351 0.0 1.1827098707358297e-12 0.0 0.01 0.0 1.1827098707358814e-12 0.0 0.010019397091464669 0.00999385966055354 0.0 4.861735139426567e-08 0.0 0.01 0.0 4.861735139426567e-08 0.0 0.010014911687927553 0.009992154243064415 0.0 8.406336496961751e-09 0.0 0.01 0.0 8.406336496961751e-09 0.0 0.010015517996651055 0.009990711956207456 0.0 4.5601209434144914e-10 0.0 0.01 0.0 4.5601209434144914e-10 0.0 0.010016182245178695 0.009989579311274355 0.0 1.5025495766721558e-10 0.0 0.01 0.0 1.502549576672222e-10 0.0 0.010016743106063737 0.009988729083709196 0.0 3.072454304326327e-11 0.0 0.01 0.0 3.072454304326492e-11 0.0 0.010017151425013733 0.009988107747537762 0.0 -1.5575155878552756e-11 0.0 0.01 0.0 -1.5575155878552756e-11 0.0 0.010017437604694217 0.009987672831385226 0.0 -1.7001801528214525e-11 0.0 0.01 0.0 -1.7001801528214525e-11 0.0 0.01001764031757563 0.009987389394278455 0.0 -6.8256806939406904e-12 0.0 0.01 0.0 -6.825680693941104e-12 0.0 0.010017782168621167 0.009987233489250706 0.0 -1.1186383223162965e-12 0.0 0.01 0.0 -1.1186383223162965e-12 0.0 0.010017871544911499 0.009993302237243833 0.0 1.2181238298048094e-07 0.0 0.01 0.0 1.218123829804945e-07 0.0 0.010013646033619511 0.009991919305350726 0.0 3.088816027643537e-08 0.0 0.01 0.0 3.088816027643368e-08 0.0 0.010014031427131158 0.009990503045973058 0.0 2.963229227041393e-09 0.0 0.01 0.0 2.963229227041393e-09 0.0 0.010014561996115234 0.009989227930654689 0.0 2.6907760877314264e-10 0.0 0.01 0.0 2.690776087731294e-10 0.0 0.010015100535187869 0.009988219848538581 0.0 9.646425631999034e-11 0.0 0.01 0.0 9.646425631999034e-11 0.0 0.010015546428713853 0.00998747257982025 0.0 4.8038759823094635e-12 0.0 0.01 0.0 4.8038759823094635e-12 0.0 0.010015888838211601 0.009986954571953706 0.0 -1.973605220647343e-11 0.0 0.01 0.0 -1.9736052206474256e-11 0.0 0.010016138081762393 0.009986619902041445 0.0 -1.3479277565417968e-11 0.0 0.01 0.0 -1.347927756541714e-11 0.0 0.010016305895803119 0.009986434154839083 0.0 -3.645449214159889e-12 0.0 0.01 0.0 -3.645449214159889e-12 0.0 0.01001640503063515 0.009993142071097682 0.0 2.57702925752823e-07 0.0 0.01 0.0 2.577029257527959e-07 0.0 0.010012622518976007 0.009992207120011948 0.0 8.908495375591557e-08 0.0 0.01 0.0 8.908495375592235e-08 0.0 0.010012764148184108 0.009990953789953806 0.0 1.7097561408655447e-08 0.0 0.01 0.0 1.7097561408655447e-08 0.0 0.010013100398216363 0.0099896027379677 0.0 1.32224695890208e-09 0.0 0.01 0.0 1.3222469589019742e-09 0.0 0.010013541104653113 0.009988419646791667 0.0 2.2493283883905015e-10 0.0 0.01 0.0 2.2493283883903692e-10 0.0 0.010013979961348556 0.00998750993927287 0.0 7.954544642532202e-11 0.0 0.01 0.0 7.954544642532533e-11 0.0 0.010014351636406028 0.009986863928863545 0.0 1.0052913109268027e-11 0.0 0.01 0.0 1.0052913109268027e-11 0.0 0.010014644908296802 0.00998645208173112 0.0 -6.873170396253278e-12 0.0 0.01 0.0 -6.873170396253692e-12 0.0 0.010014846949452639 0.009986222027280231 0.0 -3.2990355006106595e-12 0.0 0.01 0.0 -3.2990355006104527e-12 0.0 0.010014965176570665 0.009993180018336007 0.0 4.841167032758179e-07 0.0 0.01 0.0 4.841167032758721e-07 0.0 0.01001183646725284 0.009992776341801984 0.0 2.1707435315445353e-07 0.0 0.01 0.0 2.1707435315443998e-07 0.0 0.010011778082908549 0.009991865437129401 0.0 6.760770244003042e-08 0.0 0.01 0.0 6.760770244003042e-08 0.0 0.010011896194981582 0.009990617222041852 0.0 1.2532989572529485e-08 0.0 0.01 0.0 1.2532989572529485e-08 0.0 0.010012163757633865 0.00998933109814054 0.0 1.2034173708535681e-09 0.0 0.01 0.0 1.203417370853674e-09 0.0 0.010012517614434304 0.009988246753340427 0.0 2.0861803105847744e-10 0.0 0.01 0.0 2.086180310584642e-10 0.0 0.010012869551240373 0.009987447175631936 0.0 8.496828969203776e-11 0.0 0.01 0.0 8.496828969203776e-11 0.0 0.010013171979524787 0.009986918712853749 0.0 2.393633850273325e-11 0.0 0.01 0.0 2.3936338502731596e-11 0.0 0.01001339501597992 0.009986623388012957 0.0 3.6025155846231363e-12 0.0 0.01 0.0 3.602515584623343e-12 0.0 0.010013530812973414 0.00999325792545597 0.0 8.203880636994021e-07 0.0 0.01 0.0 8.203880636994021e-07 0.0 0.010011221611206367 0.009993367136251902 0.0 4.558462260874211e-07 0.0 0.01 0.0 4.558462260874211e-07 0.0 0.010011058397318959 0.009992950467328964 0.0 1.9878009535223443e-07 0.0 0.01 0.0 1.9878009535222087e-07 0.0 0.01001099661819807 0.009992028043585097 0.0 6.473160799033354e-08 0.0 0.01 0.0 6.473160799034031e-08 0.0 0.010011065189330927 0.009990851569431386 0.0 1.4878325641619514e-08 0.0 0.01 0.0 1.4878325641619514e-08 0.0 0.010011253317143434 0.00998969844021351 0.0 2.2257877163755785e-09 0.0 0.01 0.0 2.2257877163755785e-09 0.0 0.010011511045163464 0.009988758484203785 0.0 2.698798232525498e-10 0.0 0.01 0.0 2.698798232525498e-10 0.0 0.01001176974647921 0.00998809828140385 0.0 7.396557307857332e-11 0.0 0.01 0.0 7.396557307857332e-11 0.0 0.010011980495500542 0.009987722148917624 0.0 1.677070111464485e-11 0.0 0.01 0.0 1.6770701114645677e-11 0.0 0.010012114277856171 0.009993352868645795 0.0 1.2517516332170029e-06 0.0 0.01 0.0 1.2517516332168944e-06 0.0 0.010010712724384245 0.009993746474012015 0.0 8.290620686086502e-07 0.0 0.01 0.0 8.290620686086502e-07 0.0 0.010010523992781285 0.009993864183479681 0.0 4.5906675720546646e-07 0.0 0.01 0.0 4.5906675720546646e-07 0.0 0.010010365726546209 0.00999345992810397 0.0 2.1009729655598421e-07 0.0 0.01 0.0 2.1009729655598421e-07 0.0 0.010010268250528831 0.009992642628540762 0.0 7.875853228687642e-08 0.0 0.01 0.0 7.875853228686964e-08 0.0 0.010010272156859798 0.009991654957679532 0.0 2.3761737810149e-08 0.0 0.01 0.0 2.3761737810150694e-08 0.0 0.010010370108682687 0.00999072890892983 0.0 5.357128216387167e-09 0.0 0.01 0.0 5.35712821638759e-09 0.0 0.010010516566498213 0.009990007497496055 0.0 8.430844795626486e-10 0.0 0.01 0.0 8.430844795625956e-10 0.0 0.010010662529217416 0.009989562862843656 0.0 5.897773874123749e-11 0.0 0.01 0.0 5.89777387412408e-11 0.0 0.010010767365490962 0.00999393645553976 0.0 1.704877092610288e-06 0.0 0.01 0.0 1.704877092610288e-06 0.0 0.010010400438031681 0.009993928290361848 0.0 1.3063018050595314e-06 0.0 0.01 0.0 1.3063018050595314e-06 0.0 0.010010123006047651 0.009994339422252509 0.0 8.651779298804235e-07 0.0 0.01 0.0 8.651779298804235e-07 0.0 0.010009901498629077 0.009994518547152878 0.0 4.959950402008847e-07 0.0 0.01 0.0 4.959950402008305e-07 0.0 0.010009710963963142 0.009994266942975113 0.0 2.4508523259711185e-07 0.0 0.01 0.0 2.4508523259713895e-07 0.0 0.010009566920397313 0.009993697963952579 0.0 1.0306727328620745e-07 0.0 0.01 0.0 1.0306727328620745e-07 0.0 0.010009495910332634 0.009993014326954404 0.0 3.5231151278675664e-08 0.0 0.01 0.0 3.5231151278672276e-08 0.0 0.01000949300065576 0.009992400172406147 0.0 8.9248841741543e-09 0.0 0.01 0.0 8.924884174155147e-09 0.0 0.010009530206446174 0.009991983150796075 0.0 1.2252092279567392e-09 0.0 0.01 0.0 1.2252092279567392e-09 0.0 0.010009569869853888 0.009995930064817858 0.0 1.9646578875538116e-06 0.0 0.01 0.0 1.9646578875535947e-06 0.0 0.010010339842473095 0.009994732646593132 0.0 1.79235946696772e-06 0.0 0.01 0.0 1.79235946696772e-06 0.0 0.010010020422166926 0.00999453276354518 0.0 1.357997266705096e-06 0.0 0.01 0.0 1.3579972667052045e-06 0.0 0.010009591207181829 0.009994961933129601 0.0 9.064202717057367e-07 0.0 0.01 0.0 9.064202717057367e-07 0.0 0.010009285991467306 0.009995321328039538 0.0 5.322441359934048e-07 0.0 0.01 0.0 5.322441359933506e-07 0.0 0.010009056280009294 0.009995352752415577 0.0 2.6919561694682876e-07 0.0 0.01 0.0 2.6919561694685587e-07 0.0 0.010008870198972708 0.009995124070433327 0.0 1.1283638940229128e-07 0.0 0.01 0.0 1.1283638940229128e-07 0.0 0.010008736036336386 0.00999479606515686 0.0 3.612518663628273e-08 0.0 0.01 0.0 3.612518663628951e-08 0.0 0.01000865577560692 0.009994524999635776 0.0 6.756918943750854e-09 0.0 0.01 0.0 6.756918943751701e-09 0.0 0.010008616122863778 0.009999471399891194 0.0 1.5457980753932465e-06 0.0 0.01 0.0 1.5457980753930296e-06 0.0 0.010010448861472027 0.0099972452212952 0.0 1.9713165178142627e-06 0.0 0.01 0.0 1.9713165178142627e-06 0.0 0.010010115007893491 0.009995826094119985 0.0 1.7879678328273918e-06 0.0 0.01 0.0 1.7879678328276086e-06 0.0 0.010009654090805033 0.009995360999094339 0.0 1.3392551435587822e-06 0.0 0.01 0.0 1.3392551435588906e-06 0.0 0.010009105941195574 0.009995711874963505 0.0 8.762991707100386e-07 0.0 0.01 0.0 8.762991707101471e-07 0.0 0.01000870236148176 0.009996250646828006 0.0 4.975308845754146e-07 0.0 0.01 0.0 4.975308845754146e-07 0.0 0.010008425222774007 0.009996578265387404 0.0 2.3589783488094573e-07 0.0 0.01 0.0 2.3589783488091863e-07 0.0 0.010008215220732959 0.009996672662531878 0.0 8.636506128707972e-08 0.0 0.01 0.0 8.636506128706617e-08 0.0 0.01000805657693344 0.009996654179976321 0.0 1.8289759255809998e-08 0.0 0.01 0.0 1.828975925580661e-08 0.0 0.010007957237628037 0.01000181299294067 0.0 1.1060532841038672e-08 0.0 0.01 0.0 1.1060532841038672e-08 0.0 0.010010101234671998 0.01000035229454457 0.0 1.2281413566089631e-06 0.0 0.01 0.0 1.22814135660918e-06 0.0 0.010009948150829676 0.009998902615100847 0.0 1.7026940491240723e-06 0.0 0.01 0.0 1.7026940491240723e-06 0.0 0.010009770584824655 0.00999760423611312 0.0 1.581371988759522e-06 0.0 0.01 0.0 1.5813719887597388e-06 0.0 0.010009303391178281 0.009996920125698992 0.0 1.1614366020402857e-06 0.0 0.01 0.0 1.1614366020403942e-06 0.0 0.01000874701512292 0.009996894522356588 0.0 7.079508112684419e-07 0.0 0.01 0.0 7.079508112686587e-07 0.0 0.01000826079990429 0.00999727413429184 0.0 3.5908600471519156e-07 0.0 0.01 0.0 3.5908600471513735e-07 0.0 0.010007928889441282 0.009997654828227169 0.0 1.413209570745545e-07 0.0 0.01 0.0 1.413209570745545e-07 0.0 0.010007714019733811 0.009997872179488238 0.0 3.189069602476871e-08 0.0 0.01 0.0 3.189069602475516e-08 0.0 0.010007579408567316 0.010000693453551176 0.0 -4.5804438670996647e-07 0.0 0.01 0.0 -4.5804438670996647e-07 0.0 0.010009236913732912 0.010000850761032942 0.0 5.919095809631559e-07 0.0 0.01 0.0 5.919095809633727e-07 0.0 0.010009362785282878 0.01000018667729091 0.0 1.0717056161068349e-06 0.0 0.01 0.0 1.0717056161070517e-06 0.0 0.01000917834270763 0.00999977517543875 0.0 1.058445199317911e-06 0.0 0.01 0.0 1.058445199317911e-06 0.0 0.010008909009092341 0.0099994296347608 0.0 7.573769969005956e-07 0.0 0.01 0.0 7.573769969007041e-07 0.0 0.010008415948175075 0.009999392581764488 0.0 4.1984294996697327e-07 0.0 0.01 0.0 4.1984294996697327e-07 0.0 0.010007958266416421 0.009999433552584407 0.0 1.723410868162867e-07 0.0 0.01 0.0 1.723410868162867e-07 0.0 0.010007619053104747 0.009999503037285381 0.0 3.977744814793045e-08 0.0 0.01 0.0 3.977744814793045e-08 0.0 0.01000742135354288 0.009999602529641806 0.0 -1.9915383609467666e-07 0.0 0.01 0.0 -1.9915383609470376e-07 0.0 0.01000860730605378 0.010000285670367615 0.0 2.3290830951497093e-07 0.0 0.01 0.0 2.3290830951491672e-07 0.0 0.010008652324585265 0.010000402890504318 0.0 3.284017236359249e-07 0.0 0.01 0.0 3.2840172363597913e-07 0.0 0.01000830921112698 0.010000971349925888 0.0 2.3702596485124542e-07 0.0 0.01 0.0 2.3702596485129963e-07 0.0 0.010007929329587327 0.0100014471158919 0.0 1.1055607587796856e-07 0.0 0.01 0.0 1.1055607587796856e-07 0.0 0.0100075867268677 0.010001793432453205 0.0 2.6921375671013403e-08 0.0 0.01 0.0 2.6921375671013403e-08 0.0 0.010007376303567144 0.009997577397958774 0.0 -3.399185281557958e-07 0.0 0.01 0.0 -3.399185281557958e-07 0.0 0.01000808110238841 0.009998223975397073 0.0 -1.196298001753665e-07 0.0 0.01 0.0 -1.196298001753665e-07 0.0 0.010007742384547252 0.009998762229994497 0.0 -3.114205578227155e-08 0.0 0.01 0.0 -3.114205578227155e-08 0.0 0.01000749767399074 0.009999179101095742 0.0 -4.778684700517964e-09 0.0 0.01 0.0 -4.778684700517964e-09 0.0 0.010007355758127393 0.009997611356115597 0.0 -2.0326550588021995e-18 0.0 0.01 0.0 -2.0326550588021995e-18 0.0 0.01000003025013726 0.009997610856473844 0.0 5.780341691654748e-17 0.0 0.01 0.0 5.780341691654748e-17 0.0 0.010000032700160394 0.00999760785862491 0.0 1.664984958917987e-16 0.0 0.01 0.0 1.664984958917987e-16 0.0 0.010000035150185329 0.00999760436113789 0.0 6.999144166745529e-16 0.0 0.01 0.0 6.999144166745529e-16 0.0 0.01000004150025834 0.009997603361856561 0.0 1.7287466457748604e-15 0.0 0.01 0.0 1.7287466457748604e-15 0.0 0.010000048850357952 0.009997605360419522 0.0 4.0928086809477475e-15 0.0 0.01 0.0 4.0928086809477475e-15 0.0 0.010000059550531935 0.00999761585289473 0.0 7.544604834605336e-15 0.0 0.01 0.0 7.544604834605336e-15 0.0 0.01000006785069055 0.009997639835819262 0.0 1.304732398873525e-14 0.0 0.01 0.0 1.304732398873525e-14 0.0 0.010000077650904441 0.009997212665818036 0.0 1.8230806905330728e-18 0.0 0.01 0.0 1.8230806905330728e-18 0.0 0.010000042500270938 0.009997211167072324 0.0 7.695060860640748e-17 0.0 0.01 0.0 7.695060860640748e-17 0.0 0.010000042950276707 0.009997206670839231 0.0 3.6826080827219745e-16 0.0 0.01 0.0 3.6826080827219745e-16 0.0 0.010000048350350663 0.0099972016750318 0.0 6.073512916667799e-16 0.0 0.01 0.0 6.073512916667799e-16 0.0 0.010000055650464542 0.009997197678391247 0.0 -5.140048677694382e-17 0.0 0.01 0.0 -5.140048677694382e-17 0.0 0.010000064950632782 0.009997198177971053 0.0 -4.122431579321056e-15 0.0 0.01 0.0 -4.122431579321056e-15 0.0 0.010000077150892829 0.009997205671677147 0.0 -1.720325702391029e-14 0.0 0.01 0.0 -1.720325702391029e-14 0.0 0.010000089851210972 0.009997227653312235 0.0 -5.1337996541712267e-14 0.0 0.01 0.0 -5.1337996541712267e-14 0.0 0.010000101051531695 0.009996894946802275 0.0 -1.0067601417255234e-18 0.0 0.01 0.0 -1.0067601417255234e-18 0.0 0.010000052750417389 0.009996894946802275 0.0 -1.2179278785296461e-17 0.0 0.01 0.0 -1.2179278785296461e-17 0.0 0.01000005320042454 0.009996888952395028 0.0 4.873790025715649e-17 0.0 0.01 0.0 4.873790025715649e-17 0.0 0.0100000586005151 0.009996880460336552 0.0 1.8159565799976313e-17 0.0 0.01 0.0 1.8159565799976313e-17 0.0 0.010000068350700766 0.009996871968299717 0.0 -1.6627058860049493e-15 0.0 0.01 0.0 -1.6627058860049493e-15 0.0 0.010000079600950437 0.009996868471584958 0.0 -1.0202321964868977e-14 0.0 0.01 0.0 -1.0202321964868977e-14 0.0 0.01000009425133248 0.009996871968299719 0.0 -3.793150476441056e-14 0.0 0.01 0.0 -3.793150476441056e-14 0.0 0.010000107401730246 0.009996889451928552 0.0 -1.0481534876785722e-13 0.0 0.01 0.0 -1.0481534876790892e-13 0.0 0.010000120102163645 0.00999661222233359 0.0 -1.6098112352658713e-18 0.0 0.01 0.0 -1.6098112352658713e-18 0.0 0.010000060050540905 0.009996608725891386 0.0 1.422290169795519e-17 0.0 0.01 0.0 1.422290169795519e-17 0.0 0.010000063500604844 0.009996598736076733 0.0 8.971832786353246e-17 0.0 0.01 0.0 8.971832786353246e-17 0.0 0.010000068850711056 0.009996589245780554 0.0 -1.6529374121393e-16 0.0 0.01 0.0 -1.6529374121393e-16 0.0 0.010000077650904441 0.009996577757563446 0.0 -1.86081876829897e-15 0.0 0.01 0.0 -1.86081876829897e-15 0.0 0.010000090351224488 0.009996568766812469 0.0 -1.1774096419595574e-14 0.0 0.01 0.0 -1.1774096419595574e-14 0.0 0.010000104501638067 0.009996564271446077 0.0 -4.461156402699464e-14 0.0 0.01 0.0 -4.461156402699464e-14 0.0 0.010000120102163647 0.009996575260130187 0.0 -1.224287407394384e-13 0.0 0.01 0.0 -1.224287407394901e-13 0.0 0.010000134302705535 0.009996305048908919 0.0 5.715661199278665e-19 0.0 0.01 0.0 5.715661199278665e-19 0.0 0.010000067400681422 0.009996302052234495 0.0 8.682579830440328e-17 0.0 0.01 0.0 8.682579830440328e-17 0.0 0.010000069350721423 0.009996292063339208 0.0 2.3648723463274396e-16 0.0 0.01 0.0 2.3648723463274396e-16 0.0 0.010000075700859585 0.009996277080052424 0.0 2.839051872847648e-16 0.0 0.01 0.0 2.839051872847648e-16 0.0 0.01000008495108249 0.009996262096833014 0.0 -1.238263374068091e-15 0.0 0.01 0.0 -1.238263374068091e-15 0.0 0.010000097651430352 0.009996244616495524 0.0 -1.0926222557977924e-14 0.0 0.01 0.0 -1.0926222557977924e-14 0.0 0.010000112801908613 0.009996235127207861 0.0 -4.2452021529017716e-14 0.0 0.01 0.0 -4.2452021529017716e-14 0.0 0.01000012840247304 0.009996237124950383 0.0 -1.1096719666524992e-13 0.0 0.01 0.0 -1.1096719666535331e-13 0.0 0.010000142103028931 0.00999594646600344 0.0 -3.893431825933102e-19 0.0 0.01 0.0 -3.893431825933102e-19 0.0 0.010000075700859585 0.009995941971476522 0.0 1.4532079326791272e-16 0.0 0.01 0.0 1.4532079326791272e-16 0.0 0.010000077650904441 0.009995929486711345 0.0 4.504715671026489e-16 0.0 0.01 0.0 4.504715671026489e-16 0.0 0.010000084001058415 0.00999591300689294 0.0 9.76987855145775e-16 0.0 0.01 0.0 9.76987855145775e-16 0.0 0.010000093251304354 0.009995889535777134 0.0 -6.376974418498178e-16 0.0 0.01 0.0 -6.376974418498178e-16 0.0 0.010000105451667985 0.009995866564206868 0.0 -1.0734788448709755e-14 0.0 0.01 0.0 -1.0734788448709755e-14 0.0 0.010000118152093954 0.009995846089679898 0.0 -3.983040731953996e-14 0.0 0.01 0.0 -3.983040731953996e-14 0.0 0.010000132802645435 0.00999584009715922 0.0 -8.312681345879406e-14 0.0 0.01 0.0 -8.312681345874236e-14 0.0 0.010000144053112635 0.009995513021753806 0.0 2.9044726568383896e-20 0.0 0.01 0.0 2.9044726568383896e-20 0.0 0.010000087901158979 0.009995507529158525 0.0 1.6076347428048474e-16 0.0 0.01 0.0 1.6076347428048474e-16 0.0 0.010000089851210972 0.009995493548047761 0.0 8.167467437614453e-16 0.0 0.01 0.0 8.167467437614453e-16 0.0 0.010000095201359476 0.00999547157784938 0.0 1.331291796998397e-15 0.0 0.01 0.0 1.331291796998397e-15 0.0 0.010000102551577501 0.00999544311667142 0.0 -1.0212751169461514e-15 0.0 0.01 0.0 -1.0212751169461514e-15 0.0 0.010000115251992422 0.009995412159174948 0.0 -1.3858228834042207e-14 0.0 0.01 0.0 -1.3858228834042207e-14 0.0 0.010000128402473038 0.009995382699888951 0.0 -4.319281080480314e-14 0.0 0.01 0.0 -4.319281080480314e-14 0.0 0.01000013865288364 0.009995364225554358 0.0 -6.136045282090511e-14 0.0 0.01 0.0 -6.136045282090511e-14 0.0 0.010000148453305694 0.009995001749874584 0.0 1.6446870324801132e-18 0.0 0.01 0.0 1.6446870324801132e-18 0.0 0.010000108401762615 0.00999499725662188 0.0 2.5078587951434196e-17 0.0 0.01 0.0 2.5078587951434196e-17 0.0 0.010000110851843193 0.009994981280661341 0.0 1.0064432937254572e-15 0.0 0.01 0.0 1.0064432937254572e-15 0.0 0.010000114251957997 0.009994953322914734 0.0 8.070100256967658e-16 0.0 0.01 0.0 8.070100256967658e-16 0.0 0.010000122552252822 0.00999491837606139 0.0 -3.121433484001889e-15 0.0 0.01 0.0 -3.121433484001889e-15 0.0 0.010000133802685425 0.009994878936481483 0.0 -2.083994270551313e-14 0.0 0.01 0.0 -2.083994270551313e-14 0.0 0.010000143553091064 0.00999484049582125 0.0 -5.900911875980769e-14 0.0 0.01 0.0 -5.900911875980769e-14 0.0 0.010000152853504559 0.009994810043145537 0.0 -5.888925234668023e-14 0.0 0.01 0.0 -5.888925234668023e-14 0.0 0.010000157703730493 0.009994414183689713 0.0 -2.0283386054674547e-18 0.0 0.01 0.0 -2.0283386054674547e-18 0.0 0.01000013865288364 0.009994408193743951 0.0 2.757891656191042e-18 0.0 0.01 0.0 2.757891656191042e-18 0.0 0.010000141603007655 0.00999438872649461 0.0 4.3029217126046773e-16 0.0 0.01 0.0 4.3029217126046773e-16 0.0 0.010000146003197477 0.00999435578217794 0.0 -7.609247160238244e-16 0.0 0.01 0.0 -7.609247160238244e-16 0.0 0.010000154303571365 0.009994314352666407 0.0 -8.525764412154146e-15 0.0 0.01 0.0 -8.525764412154146e-15 0.0 0.01000016260396592 0.009994266434837803 0.0 -3.509718937236503e-14 0.0 0.01 0.0 -3.509718937236503e-14 0.0 0.010000169454307118 0.009994217519432013 0.0 -8.930371688612172e-14 0.0 0.01 0.0 -8.930371688612172e-14 0.0 0.010000177254712776 0.009994173096879675 0.0 -8.389457300315831e-14 0.0 0.01 0.0 -8.389457300315831e-14 0.0 0.010000179204817041 0.009993744873889066 0.0 -1.059549238525998e-18 0.0 0.01 0.0 -1.059549238525998e-18 0.0 0.010000188505330005 0.009993735890779457 0.0 -2.467261569862183e-16 0.0 0.01 0.0 -2.467261569862183e-16 0.0 0.010000188955355484 0.009993712434996348 0.0 -9.928798396421377e-16 0.0 0.01 0.0 -9.928798396421377e-16 0.0 0.010000193855636856 0.00999367500589726 0.0 -3.507420346817017e-15 0.0 0.01 0.0 -3.507420346817017e-15 0.0 0.0100002011560694 0.00999362659821945 0.0 -1.6723622832174514e-14 0.0 0.01 0.0 -1.6723622832174514e-14 0.0 0.010000211456706902 0.009993570206657084 0.0 -5.770076469873784e-14 0.0 0.01 0.0 -5.770076469873784e-14 0.0 0.01000021680705059 0.009993508825776019 0.0 -1.3634885781312444e-13 0.0 0.01 0.0 -1.363488578130986e-13 0.0 0.010000222157402868 0.009993451438170434 0.0 -1.454051588487124e-13 0.0 0.01 0.0 -1.4540515884868656e-13 0.0 0.010000220707306544 0.009992978402354798 0.0 8.564244445215493e-20 0.0 0.01 0.0 8.564244445215493e-20 0.0 0.010000254909746516 0.00999297091815071 0.0 6.343191393706986e-17 0.0 0.01 0.0 6.343191393706986e-17 0.0 0.01000025535978096 0.009992943975155228 0.0 -1.5355558820985696e-15 0.0 0.01 0.0 -1.5355558820985696e-15 0.0 0.010000262210312777 0.009992900068518428 0.0 -6.552902742642393e-15 0.0 0.01 0.0 -6.552902742642393e-15 0.0 0.010000271011016647 0.009992843190326695 0.0 -2.5807892409473103e-14 0.0 0.01 0.0 -2.5807892409473103e-14 0.0 0.010000279811743755 0.009992778829333677 0.0 -8.032328837100754e-14 0.0 0.01 0.0 -8.032328837100754e-14 0.0 0.010000286612321524 0.009992705489252945 0.0 -1.7877615102426848e-13 0.0 0.01 0.0 -1.7877615102426848e-13 0.0 0.01000029056266351 0.009992632649682658 0.0 -2.0079053086902082e-13 0.0 0.01 0.0 -2.0079053086902082e-13 0.0 0.01000029101270277 0.009992112840914225 0.0 -6.574233977813559e-19 0.0 0.01 0.0 -6.574233977813559e-19 0.0 0.010000343267674097 0.009992103363388388 0.0 -2.25696845317897e-18 0.0 0.01 0.0 -2.25696845317897e-18 0.0 0.010000345217875484 0.009992075429784905 0.0 -1.8457557316310033e-15 0.0 0.01 0.0 -1.8457557316310033e-15 0.0 0.010000353518745442 0.009992025548932798 0.0 -8.218934066437832e-15 0.0 0.01 0.0 -8.218934066437832e-15 0.0 0.01000036281974477 0.00999196319891815 0.0 -3.107592580096809e-14 0.0 0.01 0.0 -3.107592580096809e-14 0.0 0.010000373570932244 0.009991887382872903 0.0 -8.563558548344303e-14 0.0 0.01 0.0 -8.563558548344303e-14 0.0 0.01000038477220631 0.009991801593113563 0.0 -1.837069637473303e-13 0.0 0.01 0.0 -1.8370696374730445e-13 0.0 0.010000393573233766 0.00999171181549913 0.0 -2.0926019002122709e-13 0.0 0.01 0.0 -2.0926019002117539e-13 0.0 0.010000398473815944 0.009991139290754148 0.0 1.0090552933470198e-18 0.0 0.01 0.0 1.0090552933470198e-18 0.0 0.010000456581268065 0.009991130314668965 0.0 2.1923013904330202e-17 0.0 0.01 0.0 2.1923013904330202e-17 0.0 0.010000460481804571 0.009991095407901017 0.0 -2.113793686217677e-15 0.0 0.01 0.0 -2.113793686217677e-15 0.0 0.010000469283031919 0.00999104354709279 0.0 -6.614223560490583e-15 0.0 0.01 0.0 -6.614223560490583e-15 0.0 0.010000482434909272 0.009990971741153069 0.0 -2.283113365785598e-14 0.0 0.01 0.0 -2.283113365785598e-14 0.0 0.01000049808721116 0.009990885476342195 0.0 -6.144294836936072e-14 0.0 0.01 0.0 -6.144294836936072e-14 0.0 0.0100005146897331 0.00999078874273807 0.0 -1.190029497271886e-13 0.0 0.01 0.0 -1.190029497271886e-13 0.0 0.010000530292178489 0.009990682538460222 0.0 -1.1953121420650015e-13 0.0 0.01 0.0 -1.1953121420650015e-13 0.0 0.01000054934526372 0.009990045882419063 0.0 -7.777592866532298e-19 0.0 0.01 0.0 -7.777592866532298e-19 0.0 0.010000594803064394 0.009990033918239721 0.0 -4.99206109069905e-16 0.0 0.01 0.0 -4.99206109069905e-16 0.0 0.0100005991538435 0.009989997527458435 0.0 8.488945005259598e-16 0.0 0.01 0.0 8.488945005259598e-16 0.0 0.010000611856150612 0.009989939203337071 0.0 -1.1830793618456588e-16 0.0 0.01 0.0 -1.1830793618456588e-16 0.0 0.010000628459239188 0.009989861439430944 0.0 -2.6295770326090653e-15 0.0 0.01 0.0 -2.6295770326090653e-15 0.0 0.01000065191374319 0.009989764735568224 0.0 -2.931684847044906e-16 0.0 0.01 0.0 -2.931684847044906e-16 0.0 0.0100006773188079 0.009989655573241961 0.0 1.1843527041932999e-14 0.0 0.01 0.0 1.1843527041932999e-14 0.0 0.010000704174372248 0.009989534452109273 0.0 3.95672150804489e-14 0.0 0.01 0.0 3.95672150804489e-14 0.0 0.010000741782528036 0.00998882725247604 0.0 2.4044795466766276e-19 0.0 0.01 0.0 2.4044795466766276e-19 0.0 0.010000756435820617 0.009988814296026298 0.0 8.568593145203572e-17 0.0 0.01 0.0 8.568593145203572e-17 0.0 0.010000761787039084 0.009988775426979573 0.0 3.56810655458106e-15 0.0 0.01 0.0 3.56810655458106e-15 0.0 0.010000777440652699 0.009988711144551896 0.0 1.2560545672955221e-14 0.0 0.01 0.0 1.2560545672955221e-14 0.0 0.010000801846433345 0.009988624439987475 0.0 3.336336711921372e-14 0.0 0.01 0.0 3.336336711921372e-14 0.0 0.010000832603972864 0.009988519799554486 0.0 7.895531768224172e-14 0.0 0.01 0.0 7.895531768224172e-14 0.0 0.010000869263329677 0.009988397224944054 0.0 1.575078521962778e-13 0.0 0.01 0.0 1.575078521962778e-13 0.0 0.010000914675479384 0.009988261700546501 0.0 1.747650630074996e-13 0.0 0.01 0.0 1.747650630074996e-13 0.0 0.010000969891085065 0.009987471583573916 0.0 2.300492402208024e-18 0.0 0.01 0.0 2.300492402208024e-18 0.0 0.010000938632138008 0.009987456639914726 0.0 2.361264565776874e-15 0.0 0.01 0.0 2.361264565776874e-15 0.0 0.010000946434343742 0.00998741529614048 0.0 8.960194630393514e-15 0.0 0.01 0.0 8.960194630393514e-15 0.0 0.010000965939937972 0.009987346058921463 0.0 3.076277891116252e-14 0.0 0.01 0.0 3.076277891116252e-14 0.0 0.01000099524855824 0.0099872509223577 0.0 7.834614762030292e-14 0.0 0.01 0.0 7.834614762030292e-14 0.0 0.010001037261364353 0.009987136363611458 0.0 1.618384614888367e-13 0.0 0.01 0.0 1.618384614888367e-13 0.0 0.010001088577724426 0.009987001886635004 0.0 2.642216076281707e-13 0.0 0.01 0.0 2.6422160762811903e-13 0.0 0.010001150098378523 0.00998685396823492 0.0 2.602350494163846e-13 0.0 0.01 0.0 2.602350494163846e-13 0.0 0.010001229726797017 0.009985968587428123 0.0 -1.4204144293517926e-19 0.0 0.01 0.0 -1.4204144293517926e-19 0.0 0.010001140795182358 0.009985952156826758 0.0 3.5358112175923807e-15 0.0 0.01 0.0 3.5358112175923807e-15 0.0 0.01000114914805084 0.009985908840175547 0.0 1.6424787080516013e-14 0.0 0.01 0.0 1.6424787080516013e-14 0.0 0.01000117305637691 0.009985834655496073 0.0 5.443326348617909e-14 0.0 0.01 0.0 5.443326348617909e-14 0.0 0.010001210669822727 0.009985734583480827 0.0 1.2685525009996224e-13 0.0 0.01 0.0 1.2685525009996224e-13 0.0 0.010001262439022609 0.009985608128620316 0.0 2.421200071320544e-13 0.0 0.01 0.0 2.421200071320544e-13 0.0 0.010001328864835339 0.009985462761251887 0.0 3.387527173289842e-13 0.0 0.01 0.0 3.3875271732895833e-13 0.0 0.010001406546700401 0.00998530196844158 0.0 2.6311301142048346e-13 0.0 0.01 0.0 2.6311301142048346e-13 0.0 0.010001507640878633 0.009984314482653649 0.0 -5.252761133529456e-19 0.0 0.01 0.0 -5.252761133529456e-19 0.0 0.0100013567260559 0.009984298060215755 0.0 4.784355000730483e-15 0.0 0.01 0.0 4.784355000730483e-15 0.0 0.010001366480039131 0.009984249788670508 0.0 2.382265516311609e-14 0.0 0.01 0.0 2.382265516311609e-14 0.0 0.01000139679259994 0.00998417116229169 0.0 7.742329944692977e-14 0.0 0.01 0.0 7.742329944692977e-14 0.0 0.010001442211936306 0.009984061685617598 0.0 1.8080544292939352e-13 0.0 0.01 0.0 1.8080544292939352e-13 0.0 0.010001504739568049 0.009983926337617235 0.0 3.1089256827080087e-13 0.0 0.01 0.0 3.1089256827080087e-13 0.0 0.010001583876220133 0.009983769101999352 0.0 4.13380555046813e-13 0.0 0.01 0.0 4.13380555046813e-13 0.0 0.010001680623579427 0.009983596449925802 0.0 2.7854762327980895e-13 0.0 0.01 0.0 2.7854762327980895e-13 0.0 0.010001798835254856 0.009982497557789976 0.0 -3.465917160083782e-21 0.0 0.01 0.0 -3.465917160083782e-21 0.0 0.010001586327385363 0.009982480646939264 0.0 5.765806148814654e-15 0.0 0.01 0.0 5.765806148814654e-15 0.0 0.0100015975327351 0.009982429914902781 0.0 3.2175570487970724e-14 0.0 0.01 0.0 3.2175570487970724e-14 0.0 0.010001629798349834 0.00998234436851465 0.0 1.0014294924243029e-13 0.0 0.01 0.0 1.0014294924243029e-13 0.0 0.010001684525548369 0.009982228486508036 0.0 2.2246526842690222e-13 0.0 0.01 0.0 2.2246526842690222e-13 0.0 0.010001758263614954 0.009982082769369571 0.0 3.949764187332126e-13 0.0 0.01 0.0 3.9497641873318674e-13 0.0 0.01000185356522827 0.009981913685808258 0.0 5.035399159764406e-13 0.0 0.01 0.0 5.035399159763889e-13 0.0 0.010001964428695442 0.00998172919560722 0.0 3.4420254056718767e-13 0.0 0.01 0.0 3.4420254056718767e-13 0.0 0.01000209931088094 0.009980520068361441 0.0 -6.510070236294921e-19 0.0 0.01 0.0 -6.510070236294921e-19 0.0 0.010001830102268584 0.009980501179234519 0.0 7.735329322768588e-15 0.0 0.01 0.0 7.735329322768588e-15 0.0 0.010001842809266767 0.009980445009569686 0.0 4.02069821371128e-14 0.0 0.01 0.0 4.02069821371128e-14 0.0 0.010001878479170058 0.009980353052431128 0.0 1.2117870160411702e-13 0.0 0.01 0.0 1.2117870160411702e-13 0.0 0.010001941465246772 0.00998023028118674 0.0 2.714069940386974e-13 0.0 0.01 0.0 2.714069940386974e-13 0.0 0.010002023564056044 0.009980072226093952 0.0 4.765961687610339e-13 0.0 0.01 0.0 4.76596168761008e-13 0.0 0.01000213103100047 0.009979887340987044 0.0 5.95387357214984e-13 0.0 0.01 0.0 5.95387357214984e-13 0.0 0.010002257113954598 0.009979686066464396 0.0 4.789348151317961e-13 0.0 0.01 0.0 4.789348151317961e-13 0.0 0.010002404667085558 0.009978370875771109 0.0 -1.02378880209508e-18 0.0 0.01 0.0 -1.02378880209508e-18 0.0 0.010002088554126591 0.009978351502084431 0.0 1.0878771103708047e-14 0.0 0.01 0.0 1.0878771103708047e-14 0.0 0.01000210271302442 0.009978291394697783 0.0 5.5396441537407086e-14 0.0 0.01 0.0 5.5396441537407086e-14 0.0 0.010002142788534684 0.009978195026443887 0.0 1.5163437707355917e-13 0.0 0.01 0.0 1.5163437707355917e-13 0.0 0.010002211183183497 0.009978057433312492 0.0 3.243183535421928e-13 0.0 0.01 0.0 3.243183535421928e-13 0.0 0.010002305497052482 0.009977886070765057 0.0 5.404969611717041e-13 0.0 0.01 0.0 5.404969611716524e-13 0.0 0.01000242273015889 0.009977683923980386 0.0 6.610175537607009e-13 0.0 0.01 0.0 6.610175537607009e-13 0.0 0.010002561533882338 0.009977461427719091 0.0 5.741156794819646e-13 0.0 0.01 0.0 5.741156794819129e-13 0.0 0.010002720359651001 0.00997605527785597 0.0 4.277377998999222e-19 0.0 0.01 0.0 4.277377998999222e-19 0.0 0.010002375846428801 0.009976032939171176 0.0 1.822521362590881e-14 0.0 0.01 0.0 1.822521362590881e-14 0.0 0.010002391007264059 0.009975969895247907 0.0 7.4620518577463e-14 0.0 0.01 0.0 7.4620518577463e-14 0.0 0.01000243543941595 0.009975861184518455 0.0 1.9225369039862406e-13 0.0 0.01 0.0 1.9225369039862406e-13 0.0 0.010002507793038556 0.009975711775113926 0.0 3.7991488292182444e-13 0.0 0.01 0.0 3.7991488292182444e-13 0.0 0.010002608420223581 0.009975521672520297 0.0 5.78745925536813e-13 0.0 0.01 0.0 5.787459255367613e-13 0.0 0.010002733520411713 0.009975298824571094 0.0 6.109471632662426e-13 0.0 0.01 0.0 6.109471632662167e-13 0.0 0.01000288064423878 0.009975050185579416 0.0 3.9027918266427605e-13 0.0 0.01 0.0 3.9027918266427605e-13 0.0 0.010003049744574204 0.009973573127283229 0.0 -5.757902552411795e-19 0.0 0.01 0.0 -5.757902552411795e-19 0.0 0.010002707649307835 0.0099735503092255 0.0 2.311195508961182e-14 0.0 0.01 0.0 2.311195508961182e-14 0.0 0.010002722311243413 0.009973478383764074 0.0 9.883464206173118e-14 0.0 0.01 0.0 9.883464206173118e-14 0.0 0.010002768249056299 0.00997336231423229 0.0 2.348147439213512e-13 0.0 0.01 0.0 2.348147439213512e-13 0.0 0.010002842011095123 0.00997319764133707 0.0 4.120389533233574e-13 0.0 0.01 0.0 4.120389533233574e-13 0.0 0.010002947602742283 0.00997298784401293 0.0 5.104145350992866e-13 0.0 0.01 0.0 5.104145350992866e-13 0.0 0.01000307807059475 0.009972737890017931 0.0 2.69647194131224e-13 0.0 0.01 0.0 2.69647194131224e-13 0.0 0.010003226661029603 0.009972460185397805 0.0 -3.838368806491996e-13 0.0 0.01 0.0 -3.838368806491996e-13 0.0 0.010003394777895414 0.009970952059417048 0.0 -2.4801640238025377e-18 0.0 0.01 0.0 -2.4801640238025377e-18 0.0 0.010003109850073837 0.009970925789781836 0.0 2.4911662213706542e-14 0.0 0.01 0.0 2.4911662213706542e-14 0.0 0.010003125014246985 0.009970847477761783 0.0 1.0353899853740171e-13 0.0 0.01 0.0 1.0353899853740171e-13 0.0 0.01000316995665696 0.009970719605138519 0.0 2.2861483171570464e-13 0.0 0.01 0.0 2.2861483171570464e-13 0.0 0.010003247180943113 0.009970538212880074 0.0 3.275387101618925e-13 0.0 0.01 0.0 3.275387101618925e-13 0.0 0.010003348380997795 0.009970307769780778 0.0 1.571158357840773e-13 0.0 0.01 0.0 1.571158357840773e-13 0.0 0.010003473959420969 0.009970032250188263 0.0 -7.122465969689917e-13 0.0 0.01 0.0 -7.122465969689917e-13 0.0 0.01000361475902821 0.009969720583795463 0.0 -2.3884480185185706e-12 0.0 0.01 0.0 -2.3884480185184672e-12 0.0 0.01000376872942816 0.009968258272754263 0.0 -3.140095653745978e-20 0.0 0.01 0.0 -3.140095653745978e-20 0.0 0.010003616711144178 0.009968229548155821 0.0 2.1579789360459125e-14 0.0 0.01 0.0 2.1579789360459125e-14 0.0 0.010003630375987966 0.009968142880613705 0.0 8.305384179347161e-14 0.0 0.01 0.0 8.305384179347161e-14 0.0 0.010003676326312992 0.00996800322681637 0.0 1.3268047244834902e-13 0.0 0.01 0.0 1.3268047244834902e-13 0.0 0.01000375110956832 0.009967806631950219 0.0 -5.343039972002797e-15 0.0 0.01 0.0 -5.343039972002797e-15 0.0 0.010003847419256749 0.00996755607701632 0.0 -8.371493454690838e-13 0.0 0.01 0.0 -8.37149345469058e-13 0.0 0.01000395594618898 0.009967256525264286 0.0 -3.1619260182079567e-12 0.0 0.01 0.0 -3.1619260182078533e-12 0.0 0.01000407083440539 0.009966912445424515 0.0 -7.103660712225539e-12 0.0 0.01 0.0 -7.1036607122259525e-12 0.0 0.010004195038276183 0.009965642381536256 0.0 5.641317011792648e-19 0.0 0.01 0.0 5.641317011792648e-19 0.0 0.010004267380026447 0.009965615164125358 0.0 9.292154026425106e-15 0.0 0.01 0.0 9.292154026425106e-15 0.0 0.010004281047536834 0.009965521636904073 0.0 1.1886567210644851e-14 0.0 0.01 0.0 1.1886567210644851e-14 0.0 0.01000432410306394 0.009965370712285496 0.0 -1.2192154105180695e-13 0.0 0.01 0.0 -1.2192154105180695e-13 0.0 0.010004393043129509 0.009965159924131113 0.0 -8.711403268791904e-13 0.0 0.01 0.0 -8.711403268791646e-13 0.0 0.010004477104876393 0.009964892252349662 0.0 -3.2702694464199147e-12 0.0 0.01 0.0 -3.2702694464199147e-12 0.0 0.010004558314841936 0.009964574141851121 0.0 -8.751001951308212e-12 0.0 0.01 0.0 -8.751001951307799e-12 0.0 0.010004633568505067 0.00996420511247891 0.0 -1.7402503288232703e-11 0.0 0.01 0.0 -1.7402503288232703e-11 0.0 0.010004700562216785 0.009963372720907436 0.0 1.294633922086758e-18 0.0 0.01 0.0 1.294633922086758e-18 0.0 0.010005100098999986 0.009963340082351358 0.0 -1.7760382744624626e-14 0.0 0.01 0.0 -1.7760382744624626e-14 0.0 0.010005113769923567 0.00996324266311424 0.0 -1.487363243546383e-13 0.0 0.01 0.0 -1.487363243546383e-13 0.0 0.010005155333881565 0.00996308393027587 0.0 -7.616058208171072e-13 0.0 0.01 0.0 -7.616058208171072e-13 0.0 0.01000521502664067 0.009962865870429228 0.0 -2.905998078265267e-12 0.0 0.01 0.0 -2.90599807826506e-12 0.0 0.010005278125852992 0.009962590967307911 0.0 -8.625790984090842e-12 0.0 0.01 0.0 -8.625790984090842e-12 0.0 0.010005326502724272 0.009962262201191627 0.0 -2.014907824726406e-11 0.0 0.01 0.0 -2.014907824726406e-11 0.0 0.01000534022465609 0.009961877116562193 0.0 -3.6587025855480175e-11 0.0 0.01 0.0 -3.6587025855480175e-11 0.0 0.010005328005122814 0.009961814340631389 0.0 1.3329483904327747e-18 0.0 0.01 0.0 1.3329483904327747e-18 0.0 0.010006149718207149 0.009961780234520858 0.0 -1.0414457678316938e-13 0.0 0.01 0.0 -1.0414457678316938e-13 0.0 0.01000616339343377 0.009961680883934518 0.0 -5.730157243606082e-13 0.0 0.01 0.0 -5.730157243606082e-13 0.0 0.01000620351777394 0.00996152123722845 0.0 -2.215083135013717e-12 0.0 0.01 0.0 -2.215083135013717e-12 0.0 0.010006251457225206 0.009961301797316996 0.0 -7.106895662282273e-12 0.0 0.01 0.0 -7.106895662282273e-12 0.0 0.01000629158262478 0.009961029000350953 0.0 -1.8499399835725346e-11 0.0 0.01 0.0 -1.849939983572452e-11 0.0 0.010006294989047973 0.009960703353610836 0.0 -3.867679626825152e-11 0.0 0.01 0.0 -3.8676796268253174e-11 0.0 0.010006237781637518 0.009960319931929189 0.0 -6.301384826638387e-11 0.0 0.01 0.0 -6.301384826638387e-11 0.0 0.010006132085763274 0.00996141794050862 0.0 8.840675926677076e-19 0.0 0.01 0.0 8.840675926677076e-19 0.0 0.010007446308877477 0.009961384826929338 0.0 -2.869600262921e-13 0.0 0.01 0.0 -2.869600262921e-13 0.0 0.01000745903729333 0.009961289936113284 0.0 -1.414591514017754e-12 0.0 0.01 0.0 -1.414591514017754e-12 0.0 0.010007495218331183 0.009961137226899982 0.0 -4.7835719419926436e-12 0.0 0.01 0.0 -4.78357194199285e-12 0.0 0.010007532903153494 0.009960931648889126 0.0 -1.3598894264606837e-11 0.0 0.01 0.0 -1.359889426460725e-11 0.0 0.010007546133032504 0.00996067963552102 0.0 -3.1597651394014244e-11 0.0 0.01 0.0 -3.159765139401507e-11 0.0 0.010007500630486936 0.009960378232887054 0.0 -5.785675105778972e-11 0.0 0.01 0.0 -5.7856751057791374e-11 0.0 0.010007371442721532 0.009960017573892817 0.0 -8.04382073817685e-11 0.0 0.01 0.0 -8.043820738177181e-11 0.0 0.010007185487270845 0.009962737315777284 0.0 -6.787747692668401e-19 0.0 0.01 0.0 -6.787747692668401e-19 0.0 0.010009026857930276 0.00996270962773436 0.0 -6.187170735046614e-13 0.0 0.01 0.0 -6.187170735046614e-13 0.0 0.010009037135728762 0.009962624092917023 0.0 -2.770566635796517e-12 0.0 0.01 0.0 -2.7705666357966203e-12 0.0 0.010009062604751196 0.009962493570042944 0.0 -8.194826465547983e-12 0.0 0.01 0.0 -8.194826465547983e-12 0.0 0.010009086118647283 0.009962319053154802 0.0 -2.048489493987421e-11 0.0 0.01 0.0 -2.0484894939873384e-11 0.0 0.010009072882659802 0.009962112413288279 0.0 -4.109889298209241e-11 0.0 0.01 0.0 -4.109889298209241e-11 0.0 0.010008985747052956 0.009961865253303219 0.0 -6.037203022014669e-11 0.0 0.01 0.0 -6.037203022014669e-11 0.0 0.010008805065739422 0.009961568685602617 0.0 -5.79903993373835e-11 0.0 0.01 0.0 -5.79903993373835e-11 0.0 0.010008575468199166 0.009966591171386575 0.0 1.6777985158902727e-18 0.0 0.01 0.0 1.6777985158902727e-18 0.0 0.01001094128058293 0.009966570876227198 0.0 -1.0865534578477909e-12 0.0 0.01 0.0 -1.0865534578477909e-12 0.0 0.010010947149811057 0.009966510981479694 0.0 -4.2780852885650166e-12 0.0 0.01 0.0 -4.27808528856481e-12 0.0 0.010010959891589698 0.009966418418993834 0.0 -1.070730173658197e-11 0.0 0.01 0.0 -1.070730173658197e-11 0.0 0.010010963302782788 0.00996630309073496 0.0 -2.2482409012572057e-11 0.0 0.01 0.0 -2.248240901257123e-11 0.0 0.010010922168039808 0.009966172423210913 0.0 -3.3753088438201655e-11 0.0 0.01 0.0 -3.37530884382e-11 0.0 0.010010807545242108 0.009966022953784895 0.0 -2.1144482054908436e-11 0.0 0.01 0.0 -2.114448205490761e-11 0.0 0.010010616482555386 0.009965847756462837 0.0 3.797267079863474e-11 0.0 0.01 0.0 3.7972670798636396e-11 0.0 0.010010401456065743 0.009974220530912481 0.0 8.880731452945826e-19 0.0 0.01 0.0 8.880731452945826e-19 0.0 0.010013271975120057 0.009974212096491505 0.0 -1.3476106822873175e-12 0.0 0.01 0.0 -1.3476106822873175e-12 0.0 0.010013270017346218 0.009974189770186317 0.0 -4.139781204559847e-12 0.0 0.01 0.0 -4.139781204560261e-12 0.0 0.010013260680286778 0.009974158513610927 0.0 -6.9534810625900675e-12 0.0 0.01 0.0 -6.9534810625900675e-12 0.0 0.010013236685167811 0.00997413321088417 0.0 -7.43262620649778e-12 0.0 0.01 0.0 -7.432626206497366e-12 0.0 0.01001317052378774 0.009974121303785268 0.0 1.1592279326692953e-11 0.0 0.01 0.0 1.159227932669254e-11 0.0 0.01001304894688641 0.009974119815400903 0.0 8.574989705387342e-11 0.0 0.01 0.0 8.574989705387342e-11 0.0 0.010012884709648917 0.009974131722494482 0.0 2.286083725623951e-10 0.0 0.01 0.0 2.286083725623951e-10 0.0 0.010012737194154292 0.00998700537300654 0.0 -1.1255596574962213e-19 0.0 0.01 0.0 -1.1255596574962213e-19 0.0 0.010016096380779285 0.009987014337978696 0.0 -5.064365560366151e-13 0.0 0.01 0.0 -5.064365560366151e-13 0.0 0.010016080705363703 0.009987044221393562 0.0 1.567672324791202e-12 0.0 0.01 0.0 1.567672324791202e-12 0.0 0.010016040964495675 0.009987101498688537 0.0 1.2400956686675752e-11 0.0 0.01 0.0 1.240095668667658e-11 0.0 0.010015978163835516 0.009987197627146236 0.0 4.05525267273684e-11 0.0 0.01 0.0 4.0552526727366747e-11 0.0 0.010015887883676215 0.009987345062712996 0.0 1.1081845291509631e-10 0.0 0.01 0.0 1.1081845291509631e-10 0.0 0.010015770628616279 0.00998754729914475 0.0 2.5795703225576e-10 0.0 0.01 0.0 2.5795703225577324e-10 0.0 0.010015648956982433 0.009987817797123474 0.0 4.709056991151379e-10 0.0 0.01 0.0 4.709056991151379e-10 0.0 0.010015578829516768 0.010005778454724721 0.0 -4.22498984530598e-18 0.0 0.01 0.0 -4.22498984530598e-18 0.0 0.01001944230384817 0.010005809759075954 0.0 2.4373377654249116e-12 0.0 0.01 0.0 2.4373377654247048e-12 0.0 0.010019411374287203 0.010005903173006559 0.0 1.6201726765948032e-11 0.0 0.01 0.0 1.6201726765949686e-11 0.0 0.010019325879429986 0.010006069471303877 0.0 5.2799134431321225e-11 0.0 0.01 0.0 5.2799134431321225e-11 0.0 0.010019208050987027 0.010006316529745776 0.0 1.2210171992952755e-10 0.0 0.01 0.0 1.221017199295408e-10 0.0 0.010019076900698977 0.010006656039536628 0.0 2.408320062973538e-10 0.0 0.01 0.0 2.408320062973538e-10 0.0 0.010018951186315751 0.01000710030499689 0.0 4.204497621134348e-10 0.0 0.01 0.0 4.2044976211338184e-10 0.0 0.010018853484365209 0.010007668010749688 0.0 6.127209307435429e-10 0.0 0.01 0.0 6.127209307435429e-10 0.0 0.010018818135367265 0.010029919896339896 0.0 2.6906991872136526e-17 0.0 0.01 0.0 2.6906991872136526e-17 0.0 0.010023215343309714 0.010029973575722537 0.0 6.997459136828277e-12 0.0 0.01 0.0 6.997459136829931e-12 0.0 0.010023158801817122 0.010030135678562993 0.0 3.648832068049761e-11 0.0 0.01 0.0 3.648832068049761e-11 0.0 0.010023012291804937 0.010030418481823348 0.0 1.0131108421460825e-10 0.0 0.01 0.0 1.0131108421466119e-10 0.0 0.01002281760957512 0.01003082211706096 0.0 2.0219743198817028e-10 0.0 0.01 0.0 2.0219743198811734e-10 0.0 0.010022620472024518 0.010031357832767889 0.0 3.2794338863587496e-10 0.0 0.01 0.0 3.2794338863587496e-10 0.0 0.01002244891745307 0.010032037101360953 0.0 4.476260383052105e-10 0.0 0.01 0.0 4.4762603830526344e-10 0.0 0.010022310794235158 0.010032890054688555 0.0 4.819988344788171e-10 0.0 0.01 0.0 4.819988344787642e-10 0.0 0.010022208061244747 0.010056626325143807 0.0 4.596454057776358e-18 0.0 0.01 0.0 4.596454057776358e-18 0.0 0.01002713398981139 0.010056703268452268 0.0 1.007694538908753e-11 0.0 0.01 0.0 1.0076945389087116e-11 0.0 0.01002705177518661 0.010056935685600314 0.0 4.835613005251806e-11 0.0 0.01 0.0 4.835613005251806e-11 0.0 0.01002682827857408 0.010057322133849236 0.0 1.2372630135333242e-10 0.0 0.01 0.0 1.2372630135333242e-10 0.0 0.010026536404622774 0.010057863633057041 0.0 2.2182746448673735e-10 0.0 0.01 0.0 2.2182746448673735e-10 0.0 0.01002623568670287 0.01005856417639177 0.0 2.9970370765091366e-10 0.0 0.01 0.0 2.9970370765091366e-10 0.0 0.010025960090170434 0.010059425950304585 0.0 2.930463968254955e-10 0.0 0.01 0.0 2.93046396825469e-10 0.0 0.010025696861019203 0.010060469902252001 0.0 1.2011408160022297e-10 0.0 0.01 0.0 1.2011408160022297e-10 0.0 0.010025400148421392 0.010081078557081612 0.0 6.6304011651964315e-18 0.0 0.01 0.0 6.6304011651964315e-18 0.0 0.010030794967669253 0.010081173582776883 0.0 7.475008517323172e-12 0.0 0.01 0.0 7.475008517323172e-12 0.0 0.010030678702135837 0.0100814597518558 0.0 3.605802293135629e-11 0.0 0.01 0.0 3.605802293135629e-11 0.0 0.010030367772253005 0.010081929581007775 0.0 8.980777576381096e-11 0.0 0.01 0.0 8.980777576381096e-11 0.0 0.010029952890895958 0.010082572641239108 0.0 1.476932633102738e-10 0.0 0.01 0.0 1.476932633102738e-10 0.0 0.010029513948689141 0.010083379497401608 0.0 1.5917865505588325e-10 0.0 0.01 0.0 1.5917865505588325e-10 0.0 0.010029080460911386 0.010084330782635618 0.0 6.297089120640764e-11 0.0 0.01 0.0 6.297089120640764e-11 0.0 0.010028616518758367 0.010085427081150407 0.0 -1.9362921478269283e-10 0.0 0.01 0.0 -1.936292147826862e-10 0.0 0.01002803197977598 0.010098048914777622 0.0 3.479866826628705e-18 0.0 0.01 0.0 3.479866826628705e-18 0.0 0.010033767924048784 0.010098156520568165 0.0 1.9729622856111818e-13 0.0 0.01 0.0 1.9729622856111818e-13 0.0 0.010033619483651427 0.010098476783992534 0.0 5.204499290203585e-12 0.0 0.01 0.0 5.204499290203585e-12 0.0 0.010033212076648645 0.01009899225583557 0.0 1.821909502217647e-11 0.0 0.01 0.0 1.821909502217647e-11 0.0 0.010032661269781617 0.01009968736662269 0.0 2.580045211951941e-11 0.0 0.01 0.0 2.5800452119518583e-11 0.0 0.010032059263075262 0.010100525027755197 0.0 -2.2622973285007457e-12 0.0 0.01 0.0 -2.2622973285007457e-12 0.0 0.010031435711730085 0.01010147864898452 0.0 -9.624676908606907e-11 0.0 0.01 0.0 -9.624676908607072e-11 0.0 0.010030735370985847 0.010102505023654122 0.0 -2.701516951025668e-10 0.0 0.01 0.0 -2.701516951025668e-10 0.0 0.010029856834256426 0.010105398101791941 0.0 -1.2877424915541088e-18 0.0 0.01 0.0 -1.2877424915541088e-18 0.0 0.010035801195179774 0.010105505891097634 0.0 -4.754733484672542e-12 0.0 0.01 0.0 -4.754733484672646e-12 0.0 0.010035617592239138 0.01010582437730636 0.0 -1.5736677491373256e-11 0.0 0.01 0.0 -1.5736677491372842e-11 0.0 0.010035124142944834 0.01010633189146491 0.0 -2.8744493085951534e-11 0.0 0.01 0.0 -2.874449308595319e-11 0.0 0.010034441771728233 0.010107001830197901 0.0 -4.601265448812561e-11 0.0 0.01 0.0 -4.6012654488124784e-11 0.0 0.010033681101526292 0.010107796906853282 0.0 -7.46718902631564e-11 0.0 0.01 0.0 -7.467189026315475e-11 0.0 0.010032878743833193 0.010108669383778461 0.0 -1.184102499838343e-10 0.0 0.01 0.0 -1.1841024998383098e-10 0.0 0.010031976927241839 0.010109544049798034 0.0 -1.7098439484039509e-10 0.0 0.01 0.0 -1.709843948403984e-10 0.0 0.01003087237934193 0.010105131558654834 0.0 1.814295813379752e-18 0.0 0.01 0.0 1.814295813379752e-18 0.0 0.010036880274544706 0.010105227782112694 0.0 -4.17578960519139e-12 0.0 0.01 0.0 -4.1757896051914935e-12 0.0 0.010036672903348993 0.010105514972594478 0.0 -1.4808206176321183e-11 0.0 0.01 0.0 -1.4808206176320356e-11 0.0 0.010036110204547456 0.010105969543113784 0.0 -2.8451198784421084e-11 0.0 0.01 0.0 -2.845119878442191e-11 0.0 0.010035327426141497 0.010106567818169753 0.0 -4.254138378030358e-11 0.0 0.01 0.0 -4.254138378030358e-11 0.0 0.010034447682387187 0.010107275594180098 0.0 -5.466364506069758e-11 0.0 0.01 0.0 -5.466364506069841e-11 0.0 0.010033516402515272 0.010108038977834174 0.0 -6.052222352610642e-11 0.0 0.01 0.0 -6.052222352610477e-11 0.0 0.010032489199105188 0.010108763694014795 0.0 -5.31851774585119e-11 0.0 0.01 0.0 -5.3185177458511074e-11 0.0 0.010031276473145152 0.010100646263754903 0.0 -2.531910495686303e-18 0.0 0.01 0.0 -2.531910495686303e-18 0.0 0.010037148379760856 0.010100728292457726 0.0 -1.1949477990460453e-12 0.0 0.01 0.0 -1.194947799046097e-12 0.0 0.010036926179023773 0.010100974854327384 0.0 -4.323023075123598e-12 0.0 0.01 0.0 -4.323023075123598e-12 0.0 0.010036327346948756 0.01010137042159826 0.0 -8.342371923557855e-12 0.0 0.01 0.0 -8.342371923557648e-12 0.0 0.010035489788708983 0.010101897418664763 0.0 -1.1918867707305593e-11 0.0 0.01 0.0 -1.191886770730518e-11 0.0 0.010034551297429896 0.010102533739014841 0.0 -1.317483074533241e-11 0.0 0.01 0.0 -1.317483074533241e-11 0.0 0.010033570644716116 0.010103235098790912 0.0 -9.806499202185035e-12 0.0 0.01 0.0 -9.806499202185035e-12 0.0 0.010032509899627699 0.010103901894656786 0.0 3.081614122375509e-13 0.0 0.01 0.0 3.081614122375509e-13 0.0 0.010031294743558041 0.010094486017463721 0.0 8.590020751203315e-19 0.0 0.01 0.0 8.590020751203315e-19 0.0 0.010036804745858451 0.010094559872793696 0.0 5.168456001483788e-13 0.0 0.01 0.0 5.168456001483788e-13 0.0 0.010036581101970633 0.010094779854018342 0.0 1.7337340216106626e-12 0.0 0.01 0.0 1.7337340216106626e-12 0.0 0.010035976923699369 0.010095144549456354 0.0 2.929972642624281e-12 0.0 0.01 0.0 2.9299726426243845e-12 0.0 0.010035137937312439 0.01009564443674049 0.0 3.5324205085028847e-12 0.0 0.01 0.0 3.5324205085028847e-12 0.0 0.010034207425043384 0.01009627602550818 0.0 3.613634311880868e-12 0.0 0.01 0.0 3.6136343118809715e-12 0.0 0.010033249093234418 0.010097007272925158 0.0 3.841002073026664e-12 0.0 0.01 0.0 3.841002073026664e-12 0.0 0.010032237268869117 0.010097755770807128 0.0 3.3265984557498317e-12 0.0 0.01 0.0 3.3265984557498317e-12 0.0 0.010031100537206591 0.010087404214410258 0.0 -1.5762122751241033e-18 0.0 0.01 0.0 -1.5762122751241033e-18 0.0 0.010036024786934786 0.01008747786308446 0.0 2.9468120241826333e-13 0.0 0.01 0.0 2.9468120241826333e-13 0.0 0.010035809129803206 0.010087699896654558 0.0 9.090342671928035e-13 0.0 0.01 0.0 9.090342671928035e-13 0.0 0.01003523070970198 0.010088075375127625 0.0 1.1813054705366378e-12 0.0 0.01 0.0 1.1813054705366895e-12 0.0 0.010034436366262946 0.010088613796643265 0.0 6.453654408065894e-13 0.0 0.01 0.0 6.453654408065894e-13 0.0 0.010033563725503741 0.010089321298980118 0.0 -4.812164241868893e-13 0.0 0.01 0.0 -4.812164241868893e-13 0.0 0.010032686919572613 0.010090182990237177 0.0 -1.9999606381720356e-12 0.0 0.01 0.0 -1.999960638171984e-12 0.0 0.010031772838021496 0.010091133684919734 0.0 -7.007540180417978e-12 0.0 0.01 0.0 -7.0075401804181844e-12 0.0 0.01003075358797956 0.01007870516980564 0.0 3.0033813374318828e-18 0.0 0.01 0.0 3.0033813374318828e-18 0.0 0.01003492920884296 0.010078788149648068 0.0 -5.509247444560414e-13 0.0 0.01 0.0 -5.509247444560414e-13 0.0 0.010034729890617558 0.010079040121976777 0.0 -2.0087768333927833e-12 0.0 0.01 0.0 -2.008776833392835e-12 0.0 0.01003419413965933 0.010079473105970033 0.0 -3.941643643576282e-12 0.0 0.01 0.0 -3.941643643576282e-12 0.0 0.010033470494300811 0.010080100179223565 0.0 -5.571334806672447e-12 0.0 0.01 0.0 -5.5713348066722406e-12 0.0 0.010032693836971187 0.010080944962158172 0.0 -5.985307898047304e-12 0.0 0.01 0.0 -5.985307898047304e-12 0.0 0.01003192861709262 0.010081999113104222 0.0 -6.094247674147654e-12 0.0 0.01 0.0 -6.094247674147861e-12 0.0 0.010031137025741068 0.010083217823624016 0.0 -1.1030648639718763e-11 0.0 0.01 0.0 -1.1030648639718763e-11 0.0 0.010030233256860165 0.010067362595504373 0.0 -8.6388481202031025e-19 0.0 0.01 0.0 -8.6388481202031025e-19 0.0 0.01003357902859846 0.010067463203050766 0.0 -7.841715454463921e-13 0.0 0.01 0.0 -7.841715454463921e-13 0.0 0.010033399486796588 0.010067760196570836 0.0 -2.584070405835943e-12 0.0 0.01 0.0 -2.5840704058360465e-12 0.0 0.010032917170600151 0.010068271438009018 0.0 -4.309441085923893e-12 0.0 0.01 0.0 -4.309441085923893e-12 0.0 0.010032275688265806 0.010069009071247373 0.0 -4.568748566727537e-12 0.0 0.01 0.0 -4.568748566727537e-12 0.0 0.010031606718692935 0.010070003165073085 0.0 -2.6877872742776474e-12 0.0 0.01 0.0 -2.6877872742776474e-12 0.0 0.010030962055990869 0.010071253385503555 0.0 -6.089706612075706e-13 0.0 0.01 0.0 -6.089706612075706e-13 0.0 0.01003028941360354 0.0100727381481916 0.0 -2.74547623763727e-12 0.0 0.01 0.0 -2.745476237637063e-12 0.0 0.010029494729573851 0.010053234082920368 0.0 8.267141965425341e-18 0.0 0.01 0.0 8.267141965425341e-18 0.0 0.010032013930158344 0.010053343259850661 0.0 -1.8720321979024696e-13 0.0 0.01 0.0 -1.8720321979024696e-13 0.0 0.010031852241028797 0.010053680618211207 0.0 -2.1423491626344722e-13 0.0 0.01 0.0 -2.1423491626344722e-13 0.0 0.010031426828490448 0.010054254256193522 0.0 7.235358245287267e-13 0.0 0.01 0.0 7.23535824528675e-13 0.0 0.010030868897292076 0.010055077714423866 0.0 3.058849793086181e-12 0.0 0.01 0.0 3.058849793085974e-12 0.0 0.010030306164944132 0.010056174414208918 0.0 6.224748131847607e-12 0.0 0.01 0.0 6.224748131847607e-12 0.0 0.0100297730392003 0.010057559070321243 0.0 8.56915439873416e-12 0.0 0.01 0.0 8.56915439873416e-12 0.0 0.010029212962788378 0.01005922715369958 0.0 1.12117363773318e-11 0.0 0.01 0.0 1.1211736377332214e-11 0.0 0.010028509658284956 0.010037625339616526 0.0 -2.6235980523523067e-17 0.0 0.01 0.0 -2.6235980523523067e-17 0.0 0.010030279574752854 0.010037741391760996 0.0 5.301731450390507e-13 0.0 0.01 0.0 5.301731450391541e-13 0.0 0.010030136183097017 0.010038088105715774 0.0 2.34111451886204e-12 0.0 0.01 0.0 2.34111451886204e-12 0.0 0.010029762697391349 0.01003867587198369 0.0 5.276346512610964e-12 0.0 0.01 0.0 5.276346512610137e-12 0.0 0.010029284385849038 0.010039510787809165 0.0 7.904612146412926e-12 0.0 0.01 0.0 7.904612146412926e-12 0.0 0.01002881940672533 0.010040611764447167 0.0 7.802876747715589e-12 0.0 0.01 0.0 7.802876747716416e-12 0.0 0.010028388026074897 0.010042008836401665 0.0 4.438508347630024e-12 0.0 0.01 0.0 4.438508347630024e-12 0.0 0.010027919692626303 0.010043721118021438 0.0 7.954967730959384e-12 0.0 0.01 0.0 7.954967730959384e-12 0.0 0.010027297870611539 0.010022702074282963 0.0 1.377680481947354e-17 0.0 0.01 0.0 1.377680481947354e-17 0.0 0.010028425947416816 0.010022808245781742 0.0 6.58742106432436e-13 0.0 0.01 0.0 6.58742106432436e-13 0.0 0.01002830083887644 0.01002313277190577 0.0 2.5414595608235122e-12 0.0 0.01 0.0 2.541459560822685e-12 0.0 0.010027978331560796 0.010023675112019396 0.0 4.4076099247219025e-12 0.0 0.01 0.0 4.4076099247219025e-12 0.0 0.01002757705610086 0.010024440862253842 0.0 3.078855331433405e-12 0.0 0.01 0.0 3.078855331433405e-12 0.0 0.010027197958321741 0.010025447860488331 0.0 -5.598157328578991e-12 0.0 0.01 0.0 -5.598157328578991e-12 0.0 0.010026853379613716 0.01002672737228076 0.0 -2.2172180703957925e-11 0.0 0.01 0.0 -2.2172180703852046e-11 0.0 0.010026466501797553 0.010028338254966459 0.0 -2.992366038425394e-11 0.0 0.01 0.0 -2.992366038425394e-11 0.0 0.010025911413385848 0.010010257460767974 0.0 -7.629881882815058e-18 0.0 0.01 0.0 -7.629881882815058e-18 0.0 0.01002651821059601 0.01001035049777172 0.0 5.091253567597531e-13 0.0 0.01 0.0 5.091253567597531e-13 0.0 0.010026413836251129 0.010010625310624343 0.0 1.48355706791999e-12 0.0 0.01 0.0 1.4835570679197832e-12 0.0 0.010026143667487292 0.010011085807057597 0.0 7.361387377065752e-13 0.0 0.01 0.0 7.361387377065752e-13 0.0 0.01002581592630797 0.010011732515535356 0.0 -5.8511127116557475e-12 0.0 0.01 0.0 -5.8511127116557475e-12 0.0 0.010025512350953954 0.010012579346244197 0.0 -2.343054405661172e-11 0.0 0.01 0.0 -2.343054405661172e-11 0.0 0.010025240743667695 0.010013668573498379 0.0 -5.416305081500605e-11 0.0 0.01 0.0 -5.416305081500605e-11 0.0 0.01002491062266774 0.010015076978878209 0.0 -8.219983309910398e-11 0.0 0.01 0.0 -8.219983309910398e-11 0.0 0.010024408879038252 0.010001050965656108 0.0 -5.188940723512533e-19 0.0 0.01 0.0 -5.188940723512533e-19 0.0 0.010024623852427014 0.010001127140538234 0.0 7.687541034239743e-13 0.0 0.01 0.0 7.68754103424026e-13 0.0 0.010024539735138161 0.01000135087367966 0.0 1.87250934864255e-12 0.0 0.01 0.0 1.87250934864255e-12 0.0 0.010024320838633848 0.010001721144248679 0.0 -2.4443346758846412e-15 0.0 0.01 0.0 -2.4443346758846412e-15 0.0 0.010024059702680815 0.010002241453391835 0.0 -8.982668499009855e-12 0.0 0.01 0.0 -8.982668499009028e-12 0.0 0.010023822154681786 0.010002926083794082 0.0 -2.892444862926382e-11 0.0 0.01 0.0 -2.8924448629262165e-11 0.0 0.010023602851986543 0.010003819086699959 0.0 -6.272692305940585e-11 0.0 0.01 0.0 -6.272692305941247e-11 0.0 0.010023308792433338 0.01000501742365638 0.0 -1.0164747375034472e-10 0.0 0.01 0.0 -1.0164747375035134e-10 0.0 0.010022831353254862 0.009994878936481483 0.0 2.6111399962428886e-18 0.0 0.01 0.0 2.6111399962428886e-18 0.0 0.010022795005624063 0.009994938345646989 0.0 1.5196110517680388e-12 0.0 0.01 0.0 1.5196110517680388e-12 0.0 0.010022729107673 0.009995119575108381 0.0 3.938529247434135e-12 0.0 0.01 0.0 3.938529247434135e-12 0.0 0.01002256097058551 0.009995421146805582 0.0 2.617903243504108e-12 0.0 0.01 0.0 2.617903243504108e-12 0.0 0.010022358462207646 0.009995845590302765 0.0 -5.4644115286311155e-12 0.0 0.01 0.0 -5.4644115286311155e-12 0.0 0.010022167240732622 0.009996411932059019 0.0 -1.886798771625969e-11 0.0 0.01 0.0 -1.886798771625969e-11 0.0 0.010021973564015406 0.009997167703739887 0.0 -3.6120157024663147e-11 0.0 0.01 0.0 -3.61201570246648e-11 0.0 0.01002168805226446 0.009998210480471665 0.0 -5.7195052730167766e-11 0.0 0.01 0.0 -5.7195052730171074e-11 0.0 0.010021207422959907 0.009991004652016591 0.0 -5.623002189795084e-18 0.0 0.01 0.0 -5.623002189795084e-18 0.0 0.010021062457681761 0.009991058008198498 0.0 1.9795988718462103e-12 0.0 0.01 0.0 1.9795988718463137e-12 0.0 0.010021014305039978 0.009991212097672331 0.0 4.803314664382846e-12 0.0 0.01 0.0 4.803314664382846e-12 0.0 0.010020886052330563 0.009991472420357863 0.0 2.8315815581058223e-12 0.0 0.01 0.0 2.8315815581058223e-12 0.0 0.010020727365915614 0.009991852966948203 0.0 -3.8163231008395946e-12 0.0 0.01 0.0 -3.816323100839388e-12 0.0 0.01002055983263773 0.00999237273515816 0.0 -4.254422779115207e-12 0.0 0.01 0.0 -4.254422779115207e-12 0.0 0.010020361822157148 0.009993078692311995 0.0 1.3743279765309553e-11 0.0 0.01 0.0 1.3743279765309553e-11 0.0 0.010020054818445616 0.009994059297987353 0.0 4.41523492844342e-11 0.0 0.01 0.0 4.41523492844342e-11 0.0 0.010019549377662435 0.009988631416133271 0.0 1.9565449380508093e-18 0.0 0.01 0.0 1.9565449380508093e-18 0.0 0.010019434458273885 0.009988679252955351 0.0 1.18341682315467e-12 0.0 0.01 0.0 1.18341682315467e-12 0.0 0.010019397091464669 0.009988829245780477 0.0 1.19556376961304e-12 0.0 0.01 0.0 1.1955637696130916e-12 0.0 0.010019297415157271 0.009989085395329621 0.0 -4.619294739676742e-12 0.0 0.01 0.0 -4.6192947396769484e-12 0.0 0.010019160880543424 0.009989469656604386 0.0 -1.0000855795897004e-11 0.0 0.01 0.0 -1.000085579589659e-11 0.0 0.01001899096183483 0.009990009990009992 0.0 7.696831720544801e-12 0.0 0.01 0.0 7.696831720544801e-12 0.0 0.010018759707260608 0.009990754836778979 0.0 7.308096788594959e-11 0.0 0.01 0.0 7.308096788594959e-11 0.0 0.01001840518823384 0.009991771168206471 0.0 1.7548575553438266e-10 0.0 0.01 0.0 1.7548575553438266e-10 0.0 0.010017865160811434 0.009987182186636896 0.0 -1.474085899342022e-18 0.0 0.01 0.0 -1.474085899342022e-18 0.0 0.010017901957524281 0.009987233489250706 0.0 -1.1216735811676065e-12 0.0 0.01 0.0 -1.1216735811676065e-12 0.0 0.010017871544911499 0.009987389394278455 0.0 -6.818966519187117e-12 0.0 0.01 0.0 -6.818966519186703e-12 0.0 0.010017782168621167 0.009987672831385228 0.0 -1.6997177865975446e-11 0.0 0.01 0.0 -1.6997177865975446e-11 0.0 0.010017640317575635 0.009988107747537764 0.0 -1.5586091923170625e-11 0.0 0.01 0.0 -1.5586091923169798e-11 0.0 0.010017437604694217 0.009988729083709196 0.0 3.07056454601665e-11 0.0 0.01 0.0 3.0705645460169806e-11 0.0 0.010017151425013728 0.00998957931127436 0.0 1.5029677714813635e-10 0.0 0.01 0.0 1.5029677714813635e-10 0.0 0.010016743106063737 0.009990711956207456 0.0 4.560369749729453e-10 0.0 0.01 0.0 4.560369749729453e-10 0.0 0.010016182245178694 0.009986375893106695 0.0 1.6955814180521202e-18 0.0 0.01 0.0 1.6955814180521202e-18 0.0 0.010016436937302002 0.009986434154839083 0.0 -3.645564512731761e-12 0.0 0.01 0.0 -3.645564512731761e-12 0.0 0.01001640503063515 0.009986619902041447 0.0 -1.3471445163505154e-11 0.0 0.01 0.0 -1.3471445163505981e-11 0.0 0.01001630589580312 0.00998695457195371 0.0 -1.9730662229782322e-11 0.0 0.01 0.0 -1.9730662229781494e-11 0.0 0.010016138081762398 0.009987472579820252 0.0 4.8164273581129325e-12 0.0 0.01 0.0 4.816427358113139e-12 0.0 0.010015888838211601 0.00998821984853858 0.0 9.646074434978083e-11 0.0 0.01 0.0 9.646074434978083e-11 0.0 0.010015546428713853 0.009989227930654689 0.0 2.690417005891733e-10 0.0 0.01 0.0 2.6904170058918654e-10 0.0 0.010015100535187869 0.00999050304597306 0.0 2.963237183060083e-09 0.0 0.01 0.0 2.9632371830598714e-09 0.0 0.010014561996115235 0.0099861488314709 0.0 -3.838224389900849e-19 0.0 0.01 0.0 -3.838224389900849e-19 0.0 0.01001500194133677 0.009986222027280228 0.0 -3.306861011700344e-12 0.0 0.01 0.0 -3.306861011700137e-12 0.0 0.010014965176570662 0.009986452081731127 0.0 -6.866003528820286e-12 0.0 0.01 0.0 -6.866003528819872e-12 0.0 0.010014846949452642 0.00998686442689576 0.0 1.0059171253930627e-11 0.0 0.01 0.0 1.0059171253930627e-11 0.0 0.010014644908296804 0.009987509939272872 0.0 7.953810440198197e-11 0.0 0.01 0.0 7.953810440198197e-11 0.0 0.010014351636406032 0.009988419646791664 0.0 2.249320685643874e-10 0.0 0.01 0.0 2.2493206856437416e-10 0.0 0.010013979961348554 0.0099896027379677 0.0 1.3222148438541374e-09 0.0 0.01 0.0 1.3222148438541374e-09 0.0 0.010013541104653115 0.009990953789953806 0.0 1.7097650962875674e-08 0.0 0.01 0.0 1.709765096287398e-08 0.0 0.010013100398216363 0.009986531259992475 0.0 -5.942434269791143e-19 0.0 0.01 0.0 -5.942434269791143e-19 0.0 0.010013575945988557 0.009986623388012957 0.0 3.5919254280107304e-12 0.0 0.01 0.0 3.5919254280107304e-12 0.0 0.010013530812973414 0.009986918712853747 0.0 2.3938685104933296e-11 0.0 0.01 0.0 2.3938685104933296e-11 0.0 0.010013395015979915 0.009987447175631934 0.0 8.497718910227571e-11 0.0 0.01 0.0 8.497718910228233e-11 0.0 0.010013171477546422 0.009988246753340427 0.0 2.0862894285231786e-10 0.0 0.01 0.0 2.0862894285231786e-10 0.0 0.010012869551240373 0.00998933109814054 0.0 1.2034086184505833e-09 0.0 0.01 0.0 1.2034086184505833e-09 0.0 0.010012517614434306 0.009990617222041857 0.0 1.2532956058632464e-08 0.0 0.01 0.0 1.2532956058632464e-08 0.0 0.01001216375763387 0.009991865437129401 0.0 6.760770244003042e-08 0.0 0.01 0.0 6.760770244003042e-08 0.0 0.010011896194981582 0.009987598109243307 0.0 2.4513637199279585e-18 0.0 0.01 0.0 2.4513637199279585e-18 0.0 0.010012161298659932 0.00998772214891762 0.0 1.6757387980910035e-11 0.0 0.01 0.0 1.6757387980909208e-11 0.0 0.01001211427785617 0.009988098281403852 0.0 7.398064321367045e-11 0.0 0.01 0.0 7.398064321367045e-11 0.0 0.010011980495500544 0.009988758484203783 0.0 2.698734777665956e-10 0.0 0.01 0.0 2.698734777665956e-10 0.0 0.010011769746479209 0.009989698440213508 0.0 2.2257786147460976e-09 0.0 0.01 0.0 2.2257786147463094e-09 0.0 0.010011511045163459 0.00999085156943138 0.0 1.4878324641306637e-08 0.0 0.01 0.0 1.4878324641308331e-08 0.0 0.010011253317143433 0.0099920280435851 0.0 6.473162299727047e-08 0.0 0.01 0.0 6.473162299727047e-08 0.0 0.010011065189330927 0.00999295046732896 0.0 1.9878011036108905e-07 0.0 0.01 0.0 1.9878011036108905e-07 0.0 0.010010996618198067 0.009989416325865563 0.0 3.273892411757036e-19 0.0 0.01 0.0 3.273892411757036e-19 0.0 0.010010802629341458 0.009989562862843658 0.0 5.898842424649712e-11 0.0 0.01 0.0 5.898842424650043e-11 0.0 0.010010767365490966 0.009990007497496053 0.0 8.431233333845439e-10 0.0 0.01 0.0 8.431233333845969e-10 0.0 0.010010662529217415 0.009990728908929832 0.0 5.357143219160513e-09 0.0 0.01 0.0 5.357143219160936e-09 0.0 0.010010516566498217 0.009991654957679527 0.0 2.3761745312416376e-08 0.0 0.01 0.0 2.3761745312419764e-08 0.0 0.010010370108682685 0.009992642628540764 0.0 7.875851728032573e-08 0.0 0.01 0.0 7.875851728033251e-08 0.0 0.0100102721568598 0.009993459928103963 0.0 2.1009722151412347e-07 0.0 0.01 0.0 2.1009722151412347e-07 0.0 0.010010268250528824 0.00999386418347968 0.0 4.5906672718640197e-07 0.0 0.01 0.0 4.5906672718640197e-07 0.0 0.010010365726546204 0.009991836008507405 0.0 3.3621720699751816e-18 0.0 0.01 0.0 3.3621720699751816e-18 0.0 0.01000958601615945 0.009991983150796071 0.0 1.2251897734557315e-09 0.0 0.01 0.0 1.2251897734556256e-09 0.0 0.01000956986985389 0.009992400172406145 0.0 8.924887675162547e-09 0.0 0.01 0.0 8.92488767516424e-09 0.0 0.010009530206446175 0.009993014326954406 0.0 3.5231173787109176e-08 0.0 0.01 0.0 3.523117378710579e-08 0.0 0.01000949300065576 0.009993697963952579 0.0 1.0306727828860785e-07 0.0 0.01 0.0 1.030672782885943e-07 0.0 0.010009495910332636 0.00999426694297512 0.0 2.4508529263158165e-07 0.0 0.01 0.0 2.4508529263160875e-07 0.0 0.010009566920397322 0.009994518547152914 0.0 4.95995310371923e-07 0.0 0.01 0.0 4.95995310371923e-07 0.0 0.010009710963963183 0.009994339422252576 0.0 8.651781800390413e-07 0.0 0.01 0.0 8.651781800390413e-07 0.0 0.010009901498629143 0.009994426163613544 0.0 7.539764804523703e-18 0.0 0.01 0.0 7.539764804523703e-18 0.0 0.010008607801394667 0.009994524999635775 0.0 6.756911440223941e-09 0.0 0.01 0.0 6.756911440224788e-09 0.0 0.01000861612286378 0.009994796065156863 0.0 3.612516062284044e-08 0.0 0.01 0.0 3.612516062284044e-08 0.0 0.01000865577560692 0.009995124070433329 0.0 1.128363743936264e-07 0.0 0.01 0.0 1.1283637439361285e-07 0.0 0.01000873603633639 0.009995352752415577 0.0 2.6919561694682876e-07 0.0 0.01 0.0 2.6919561694685587e-07 0.0 0.010008870198972708 0.009995321328039524 0.0 5.322440359277242e-07 0.0 0.01 0.0 5.322440359277784e-07 0.0 0.010009056280009277 0.009994961933129586 0.0 9.064202216739264e-07 0.0 0.01 0.0 9.064202216739264e-07 0.0 0.01000928599146729 0.009994532763545325 0.0 1.3579976169214797e-06 0.0 0.01 0.0 1.3579976169214797e-06 0.0 0.010009591207181975 0.009996633700559046 0.0 4.5112149436468306e-18 0.0 0.01 0.0 4.5112149436468306e-18 0.0 0.010007924459616225 0.009996654179976323 0.0 1.8289731236447994e-08 0.0 0.01 0.0 1.8289731236451382e-08 0.0 0.010007957237628038 0.009996672662531878 0.0 8.636506128707972e-08 0.0 0.01 0.0 8.636506128706617e-08 0.0 0.01000805657693344 0.009996578265387412 0.0 2.3589785989888376e-07 0.0 0.01 0.0 2.3589785989888376e-07 0.0 0.010008215220732964 0.009996250646828022 0.0 4.975309746386254e-07 0.0 0.01 0.0 4.97530974638517e-07 0.0 0.010008425222774025 0.009995711874963478 0.0 8.762990706439244e-07 0.0 0.01 0.0 8.762990706440328e-07 0.0 0.010008702361481733 0.009995360999094377 0.0 1.3392552436257638e-06 0.0 0.01 0.0 1.3392552436258722e-06 0.0 0.010009105941195612 0.00999582609412031 0.0 1.7879684333207881e-06 0.0 0.01 0.0 1.7879684333207881e-06 0.0 0.01000965409080536 0.009997936638794658 0.0 -2.740179874609844e-17 0.0 0.01 0.0 -2.740179874609844e-17 0.0 0.010007530948743999 0.009997872179488238 0.0 3.1890699527622644e-08 0.0 0.01 0.0 3.1890699527622644e-08 0.0 0.010007579408567316 0.009997654828227166 0.0 1.4132091203834123e-07 0.0 0.01 0.0 1.4132091203831413e-07 0.0 0.010007714019733807 0.00999727413429181 0.0 3.5908573450452565e-07 0.0 0.01 0.0 3.5908573450457986e-07 0.0 0.010007928889441253 0.009996894522356557 0.0 7.07950661152628e-07 0.0 0.01 0.0 7.07950661152628e-07 0.0 0.01000826079990426 0.009996920125698909 0.0 1.1614363518277831e-06 0.0 0.01 0.0 1.1614363518277831e-06 0.0 0.010008747015122839 0.009997604236113193 0.0 1.5813721389148008e-06 0.0 0.01 0.0 1.5813721389148008e-06 0.0 0.010009303391178354 0.009998902615100766 0.0 1.7026938989293285e-06 0.0 0.01 0.0 1.7026938989291116e-06 0.0 0.010009770584824575 0.009999527033556705 0.0 4.104105653633243e-18 0.0 0.01 0.0 4.104105653633243e-18 0.0 0.010007356760332464 0.009999503037285383 0.0 3.9777418116777104e-08 0.0 0.01 0.0 3.9777418116777104e-08 0.0 0.010007421353542881 0.0099994335525844 0.0 1.7234099672117325e-07 0.0 0.01 0.0 1.7234099672111904e-07 0.0 0.010007619053104742 0.009999392581764481 0.0 4.198429199339768e-07 0.0 0.01 0.0 4.1984291993392257e-07 0.0 0.010007958266416412 0.009999429634760706 0.0 7.573765964300318e-07 0.0 0.01 0.0 7.573765964300318e-07 0.0 0.010008415948174984 0.009999775175438715 0.0 1.0584450991879372e-06 0.0 0.01 0.0 1.0584450991879372e-06 0.0 0.010008909009092312 0.01000018667729091 0.0 1.0717056161068349e-06 0.0 0.01 0.0 1.0717056161070517e-06 0.0 0.01000917834270763 0.010000850761032996 0.0 5.919098814230082e-07 0.0 0.01 0.0 5.919098814228998e-07 0.0 0.010009362785282928 0.010001922904492085 0.0 7.854070679080672e-18 0.0 0.01 0.0 7.854070679080672e-18 0.0 0.01000730780279907 0.010001793432453207 0.0 2.692139219371241e-08 0.0 0.01 0.0 2.6921392193719187e-08 0.0 0.010007376303567145 0.010001447115891904 0.0 1.1055613095253868e-07 0.0 0.01 0.0 1.1055613095253868e-07 0.0 0.010007586726867702 0.01000097134992588 0.0 2.3702582967107541e-07 0.0 0.01 0.0 2.370258296710212e-07 0.0 0.01000792932958732 0.010000402890504315 0.0 3.284016935967485e-07 0.0 0.01 0.0 3.2840169359669427e-07 0.0 0.010008309211126979 0.010000285670367606 0.0 2.32908209380823e-07 0.0 0.01 0.0 2.32908209380823e-07 0.0 0.010008652324585254 0.009999602529641806 0.0 -1.9915383609467666e-07 0.0 0.01 0.0 -1.9915383609470376e-07 0.0 0.01000860730605378 0.00999933906553093 0.0 -2.7875426972254438e-18 0.0 0.01 0.0 -2.7875426972254438e-18 0.0 0.010007310258175134 0.009999179101095742 0.0 -4.778658624983918e-09 0.0 0.01 0.0 -4.778658624983071e-09 0.0 0.010007355758127391 0.009998762229994495 0.0 -3.114207630151595e-08 0.0 0.01 0.0 -3.1142076301522725e-08 0.0 0.010007497673990739 0.009998223975397067 0.0 -1.196297050903752e-07 0.0 0.01 0.0 -1.196297050903752e-07 0.0 0.01000774238454725 0.009997577397958762 0.0 -3.399184080539507e-07 0.0 0.01 0.0 -3.399184080539507e-07 0.0 0.010008081102388397 0.009997681306700187 0.0 2.5415476589785722e-14 0.0 0.01 0.0 2.5415476589785722e-14 0.0 0.010000083501045852 0.00999775525605759 0.0 2.7609838730957063e-14 0.0 0.01 0.0 2.7609838730957063e-14 0.0 0.010000085951108129 0.009997862685412369 0.0 -6.589979530715663e-15 0.0 0.01 0.0 -6.589979530715663e-15 0.0 0.010000074700837023 0.009998017089945816 0.0 -2.5639676310127766e-14 0.0 0.01 0.0 -2.5639676310127766e-14 0.0 0.010000050300379518 0.009998226471921874 0.0 1.275554377765967e-13 0.0 0.01 0.0 1.275554377764933e-13 0.0 0.01000000780000913 0.009998490841702576 0.0 6.502273372865662e-13 0.0 0.01 0.0 6.502273372865662e-13 0.0 0.009999954500310538 0.0099988007157769 0.0 1.5381700548432044e-12 0.0 0.01 0.0 1.5381700548432044e-12 0.0 0.009999901001470126 0.009997271617017401 0.0 -1.1182379687466567e-13 0.0 0.01 0.0 -1.1182379687466567e-13 0.0 0.010000109851810088 0.009997348055294748 0.0 -2.2903530188551066e-13 0.0 0.01 0.0 -2.2903530188530387e-13 0.0 0.010000110351826606 0.009997466463146695 0.0 -4.4064340785529844e-13 0.0 0.01 0.0 -4.4064340785571204e-13 0.0 0.010000099101473144 0.009997640335465357 0.0 -6.91866034144779e-13 0.0 0.01 0.0 -6.918660341439518e-13 0.0 0.010000067400681422 0.009997880673921886 0.0 -7.635378673211275e-13 0.0 0.01 0.0 -7.635378673219546e-13 0.0 0.01000001365002795 0.00999818649344022 0.0 -3.4902195387224245e-13 0.0 0.01 0.0 -3.4902195387224245e-13 0.0 0.009999945000453748 0.009998546816822588 0.0 6.193595451097927e-13 0.0 0.01 0.0 6.193595451097927e-13 0.0 0.00999987600230635 0.009998927172668471 0.0 1.6909393621484887e-12 0.0 0.01 0.0 1.6909393621484887e-12 0.0 0.00999982700448922 0.009996930913472212 0.0 -2.2165627323367935e-13 0.0 0.01 0.0 -2.2165627323367935e-13 0.0 0.010000130852568314 0.009997005845281424 0.0 -4.004098970893072e-13 0.0 0.01 0.0 -4.004098970891004e-13 0.0 0.010000131852607721 0.009997127737957476 0.0 -6.680604574128883e-13 0.0 0.01 0.0 -6.680604574128883e-13 0.0 0.01000011865211172 0.009997310085735211 0.0 -9.432012202162927e-13 0.0 0.01 0.0 -9.432012202162927e-13 0.0 0.010000082501020953 0.009997570385740744 0.0 -9.836363571638041e-13 0.0 0.01 0.0 -9.836363571654585e-13 0.0 0.010000020000059999 0.009997910155300228 0.0 -5.125539672211016e-13 0.0 0.01 0.0 -5.125539672211016e-13 0.0 0.009999940000539996 0.00999831692500659 0.0 4.4615974207328697e-13 0.0 0.01 0.0 4.4615974207328697e-13 0.0 0.009999854503175462 0.009998750734138778 0.0 1.3215982631484415e-12 0.0 0.01 0.0 1.3215982631484415e-12 0.0 0.009999792506458213 0.009996609225382905 0.0 -2.473640420869263e-13 0.0 0.01 0.0 -2.473640420867195e-13 0.0 0.010000144053112635 0.009996679154934542 0.0 -3.711168959353665e-13 0.0 0.01 0.0 -3.711168959353665e-13 0.0 0.010000146003197477 0.009996796539981168 0.0 -4.282987067666433e-13 0.0 0.01 0.0 -4.2829870676643653e-13 0.0 0.010000132802645436 0.009996984364657173 0.0 -2.94718864952422e-13 0.0 0.01 0.0 -2.947188649526288e-13 0.0 0.01000009425133248 0.009997260126447565 0.0 2.216054123117333e-13 0.0 0.01 0.0 2.2160541231183669e-13 0.0 0.010000026350104151 0.00999762984291307 0.0 1.1787126150769461e-12 0.0 0.01 0.0 1.1787126150769461e-12 0.0 0.009999937000595349 0.009998079553358985 0.0 5.361295401666652e-12 0.0 0.01 0.0 5.36129540167327e-12 0.0 0.009999843003697256 0.009998569806876375 0.0 1.478584186930678e-11 0.0 0.01 0.0 1.478584186928031e-11 0.0 0.009999768508038525 0.009996263595151926 0.0 -1.8567927321374472e-13 0.0 0.01 0.0 -1.8567927321374472e-13 0.0 0.010000150403393112 0.00999632352846076 0.0 -1.0966739471405294e-13 0.0 0.01 0.0 -1.0966739471415634e-13 0.0 0.010000154803594547 0.009996436905251744 0.0 3.4843994024093934e-13 0.0 0.01 0.0 3.4843994024093934e-13 0.0 0.010000139652925386 0.009996623211175833 0.0 1.487593110684223e-12 0.0 0.01 0.0 1.4875931106833958e-12 0.0 0.010000102551577504 0.009996910432404246 0.0 3.0947609384594256e-11 0.0 0.01 0.0 3.0947609384594256e-11 0.0 0.010000033700170354 0.009997307587753052 0.0 2.623975168646827e-10 0.0 0.01 0.0 2.623975168646827e-10 0.0 0.009999940500531043 0.009997799726393771 0.0 7.49152185771952e-10 0.0 0.01 0.0 7.491521857723755e-10 0.0 0.009999835504059008 0.00999834740974873 0.0 1.3325802629803453e-09 0.0 0.01 0.0 1.3325802629786512e-09 0.0 0.009999754009077292 0.009995855078481126 0.0 -4.957738062004762e-14 0.0 0.01 0.0 -4.957738062004762e-14 0.0 0.010000152853504559 0.009995903019163878 0.0 3.4616677469654637e-13 0.0 0.01 0.0 3.4616677469654637e-13 0.0 0.010000155753638804 0.009996007392410857 0.0 1.655446378978787e-12 0.0 0.01 0.0 1.655446378978787e-12 0.0 0.010000144053112638 0.00999619417375004 0.0 1.0920394003307499e-10 0.0 0.01 0.0 1.0920394003307499e-10 0.0 0.010000107901746396 0.009996483355888184 0.0 9.526897995888109e-10 0.0 0.01 0.0 9.526897995883874e-10 0.0 0.010000040050240739 0.009996894946804053 0.0 3.441363090857046e-09 0.0 0.01 0.0 3.441363090853658e-09 0.0 0.009999945000455522 0.00999742299649278 0.0 7.4496228546561735e-09 0.0 0.01 0.0 7.4496228546561735e-09 0.0 0.009999834504116751 0.009998022586699925 0.0 1.1755275450671615e-08 0.0 0.01 0.0 1.1755275450685168e-08 0.0 0.009999745509735859 0.009995367720690885 0.0 1.1851593481815955e-13 0.0 0.01 0.0 1.1851593481810785e-13 0.0 0.010000155753638808 0.009995403670879388 0.0 9.71040152097761e-13 0.0 0.01 0.0 9.71040152097761e-13 0.0 0.010000156753685681 0.00999549504602111 0.0 8.684124684686616e-11 0.0 0.01 0.0 8.684124684686616e-11 0.0 0.010000146503219419 0.009995666318747877 0.0 1.19581842169319e-09 0.0 0.01 0.0 1.19581842169319e-09 0.0 0.010000113751941112 0.009995942970265048 0.0 5.940047804563057e-09 0.0 0.01 0.0 5.940047804564751e-09 0.0 0.010000048350355954 0.009996338012548974 0.0 1.7031353676026867e-08 0.0 0.01 0.0 1.7031353676026867e-08 0.0 0.00999995150039637 0.009996861478337829 0.0 3.38028562924794e-08 0.0 0.01 0.0 3.380285629249295e-08 0.0 0.009999836004205755 0.009997497440099683 0.0 4.93262312845934e-08 0.0 0.01 0.0 4.932623128453919e-08 0.0 0.009999739010582785 0.009994796564181218 0.0 2.732982737950962e-13 0.0 0.01 0.0 2.732982737950962e-13 0.0 0.010000162603965919 0.009994815534591075 0.0 1.6074865547084423e-11 0.0 0.01 0.0 1.6074865547097657e-11 0.0 0.010000162103941567 0.009994887423440332 0.0 6.490643933745302e-10 0.0 0.01 0.0 6.49064393374742e-10 0.0 0.010000152853504625 0.009995026213249438 0.0 5.046688918336934e-09 0.0 0.01 0.0 5.046688918338628e-09 0.0 0.01000012355229356 0.009995245393154812 0.0 2.013945663069481e-08 0.0 0.01 0.0 2.0139456630701585e-08 0.0 0.010000060050601783 0.009995566949952338 0.0 5.282699747495524e-08 0.0 0.01 0.0 5.282699747495524e-08 0.0 0.009999958500677189 0.009996020877798825 0.0 1.0081208958319073e-07 0.0 0.01 0.0 1.0081208958324494e-07 0.0 0.009999831005809288 0.009996649687521869 0.0 1.4323684296264298e-07 0.0 0.01 0.0 1.4323684296258877e-07 0.0 0.009999728014175962 0.009994144646792155 0.0 3.921474097250625e-13 0.0 0.01 0.0 3.921474097250625e-13 0.0 0.010000180204870953 0.009994144147669984 0.0 1.2937453650605723e-10 0.0 0.01 0.0 1.293745365060837e-10 0.0 0.010000179704843962 0.009994181082913537 0.0 2.177306397053687e-09 0.0 0.01 0.0 2.1773063970541107e-09 0.0 0.010000176254660455 0.009994256951208619 0.0 1.3173820049802617e-08 0.0 0.01 0.0 1.3173820049795841e-08 0.0 0.010000150403419162 0.009994376747042498 0.0 4.741089979959953e-08 0.0 0.01 0.0 4.741089979958598e-08 0.0 0.010000084001395834 0.009994548962476238 0.0 1.199984018831709e-07 0.0 0.01 0.0 1.199984018831438e-07 0.0 0.009999969502301049 0.009994831517503739 0.0 2.2727439745722638e-07 0.0 0.01 0.0 2.2727439745717217e-07 0.0 0.00999982101255935 0.009995356252565157 0.0 3.25395769624451e-07 0.0 0.01 0.0 3.253957696245594e-07 0.0 0.009999708528637265 0.009993404530774965 0.0 1.736823041992205e-12 0.0 0.01 0.0 1.736823041992205e-12 0.0 0.010000221207339687 0.009993377085264796 0.0 3.8446868119333493e-10 0.0 0.01 0.0 3.8446868119333493e-10 0.0 0.010000224607567082 0.009993370099174222 0.0 4.627855195691567e-09 0.0 0.01 0.0 4.627855195692414e-09 0.0 0.010000227557770358 0.009993365109204646 0.0 2.4720252655496074e-08 0.0 0.01 0.0 2.472025265550285e-08 0.0 0.010000205556429583 0.009993349142052625 0.0 8.466638726150146e-08 0.0 0.01 0.0 8.466638726152857e-08 0.0 0.01000013475379991 0.009993312221708942 0.0 2.1217449013119678e-07 0.0 0.01 0.0 2.1217449013114257e-07 0.0 0.00999999000677372 0.009993320722666855 0.0 4.061658081516012e-07 0.0 0.01 0.0 4.061658081517096e-07 0.0 0.009999795531040308 0.009993599203625709 0.0 5.930423219159498e-07 0.0 0.01 0.0 5.930423219158414e-07 0.0 0.009999644571755227 0.009992565299442532 0.0 6.189713355512032e-12 0.0 0.01 0.0 6.189713355512032e-12 0.0 0.010000295913134174 0.009992509923598672 0.0 6.719832984892876e-10 0.0 0.01 0.0 6.719832984893935e-10 0.0 0.010000310564467013 0.00999245604529014 0.0 7.023936262770482e-09 0.0 0.01 0.0 7.023936262768788e-09 0.0 0.010000326666013316 0.009992372236488889 0.0 3.53579081573981e-08 0.0 0.01 0.0 3.5357908157404876e-08 0.0 0.010000314965067526 0.009992220589422599 0.0 1.1856638994561992e-07 0.0 0.01 0.0 1.1856638994564702e-07 0.0 0.010000228059912221 0.00999197767730095 0.0 2.9762390958606435e-07 0.0 0.01 0.0 2.9762390958606435e-07 0.0 0.010000035663491882 0.009991691416512679 0.0 5.775397263305549e-07 0.0 0.01 0.0 5.775397263303381e-07 0.0 0.009999743559956293 0.009991622647664821 0.0 8.51032816235036e-07 0.0 0.01 0.0 8.51032816235036e-07 0.0 0.009999475650019529 0.00999162453402737 0.0 6.973953852752982e-12 0.0 0.01 0.0 6.973953852754637e-12 0.0 0.010000416025960199 0.009991540745966435 0.0 7.691183201458992e-10 0.0 0.01 0.0 7.691183201458992e-10 0.0 0.010000446329879863 0.009991442497184437 0.0 7.902403663914476e-09 0.0 0.01 0.0 7.902403663914476e-09 0.0 0.01000048538534693 0.009991298371175437 0.0 3.9283387313111416e-08 0.0 0.01 0.0 3.928338731311819e-08 0.0 0.010000491236426328 0.009991060005431459 0.0 1.3149575773000952e-07 0.0 0.01 0.0 1.314957577299824e-07 0.0 0.010000397476293344 0.009990695020161125 0.0 3.3257543023348804e-07 0.0 0.01 0.0 3.3257543023348804e-07 0.0 0.0100001382194766 0.009990236880345149 0.0 6.520013776386375e-07 0.0 0.01 0.0 6.520013776388544e-07 0.0 0.009999731574661762 0.009989996173523868 0.0 9.716125377384147e-07 0.0 0.01 0.0 9.716125377381979e-07 0.0 0.009999413693383275 0.009990573346043877 0.0 1.9958231146255376e-12 0.0 0.01 0.0 1.995823114625951e-12 0.0 0.010000583551075807 0.00999046216292438 0.0 5.705824855453892e-10 0.0 0.01 0.0 5.705824855452834e-10 0.0 0.010000644112226788 0.00999033253707462 0.0 6.55262375950464e-09 0.0 0.01 0.0 6.552623759505487e-09 0.0 0.01000071347635646 0.009990156553286871 0.0 3.377911286004087e-08 0.0 0.01 0.0 3.3779112860047645e-08 0.0 0.010000748634230935 0.00998989384282714 0.0 1.1518638299196126e-07 0.0 0.01 0.0 1.1518638299196126e-07 0.0 0.010000675870506478 0.00998951353120026 0.0 2.962721460388301e-07 0.0 0.01 0.0 2.962721460388301e-07 0.0 0.010000436541767117 0.009989063520058863 0.0 5.928452090840338e-07 0.0 0.01 0.0 5.928452090840338e-07 0.0 0.010000192908375985 0.009988838838323955 0.0 9.106167954677988e-07 0.0 0.01 0.0 9.106167954677988e-07 0.0 0.010000364894527913 0.009989407354423337 0.0 -2.732866346424727e-13 0.0 0.01 0.0 -2.732866346424727e-13 0.0 0.0100007998959648 0.009989273284083148 0.0 2.395600081065548e-10 0.0 0.01 0.0 2.395600081065548e-10 0.0 0.010000888768472382 0.009989122772886258 0.0 3.812556752416495e-09 0.0 0.01 0.0 3.8125567524169185e-09 0.0 0.010000998699592393 0.00998893887943403 0.0 2.189716315684735e-08 0.0 0.01 0.0 2.1897163156843962e-08 0.0 0.010001082225728541 0.009988696196247798 0.0 7.832820180057052e-08 0.0 0.01 0.0 7.832820180055696e-08 0.0 0.010001076324667705 0.009988376304467025 0.0 2.0732977384522793e-07 0.0 0.01 0.0 2.0732977384522793e-07 0.0 0.01000098305139567 0.009988016601645272 0.0 4.228429393358219e-07 0.0 0.01 0.0 4.228429393357677e-07 0.0 0.010001074900141354 0.009987823341595268 0.0 6.561664929570369e-07 0.0 0.01 0.0 6.561664929570911e-07 0.0 0.010001566332594001 0.009988116715478933 0.0 -3.5489937093195086e-13 0.0 0.01 0.0 -3.5489937093195086e-13 0.0 0.010001054366729944 0.009987963765567452 0.0 2.926725560799648e-11 0.0 0.01 0.0 2.926725560799979e-11 0.0 0.010001174506887566 0.00998780434642873 0.0 1.3589655128577084e-09 0.0 0.01 0.0 1.3589655128577084e-09 0.0 0.010001318610764587 0.0099876279979139 0.0 1.002741167704648e-08 0.0 0.01 0.0 1.0027411677045634e-08 0.0 0.010001454417253013 0.009987424262454045 0.0 3.979959840038109e-08 0.0 0.01 0.0 3.979959840038109e-08 0.0 0.01000153550383131 0.009987185176956822 0.0 1.1078557480449097e-07 0.0 0.01 0.0 1.1078557480450452e-07 0.0 0.01000160243693172 0.009986930175786533 0.0 2.307956611768806e-07 0.0 0.01 0.0 2.307956611768806e-07 0.0 0.010001887742401112 0.009986773307750408 0.0 3.6077513551643187e-07 0.0 0.01 0.0 3.60775135516459e-07 0.0 0.010002383171200993 0.009986695598243844 0.0 -3.792441805639693e-13 0.0 0.01 0.0 -3.792441805639693e-13 0.0 0.010001336717974483 0.009986530762010108 0.0 -5.0464133825078204e-12 0.0 0.01 0.0 -5.046413382507407e-12 0.0 0.010001483730152963 0.009986367925769566 0.0 1.8932642933248699e-10 0.0 0.01 0.0 1.8932642933248699e-10 0.0 0.010001653259899894 0.009986204599561734 0.0 2.754898697650297e-09 0.0 0.01 0.0 2.7548986976500854e-09 0.0 0.010001822297995639 0.009986041281393599 0.0 1.3831774006490855e-08 0.0 0.01 0.0 1.3831774006490855e-08 0.0 0.010001972283360583 0.00998587448626576 0.0 4.282119839437755e-08 0.0 0.01 0.0 4.2821198394380936e-08 0.0 0.010002137385342587 0.009985717657501331 0.0 9.411483641359487e-08 0.0 0.01 0.0 9.411483641358809e-08 0.0 0.010002456456160474 0.009985609127698218 0.0 1.5037771160785753e-07 0.0 0.01 0.0 1.5037771160784398e-07 0.0 0.010002844466584358 0.009985132223469893 0.0 -3.802294763067002e-13 0.0 0.01 0.0 -3.8022947630667434e-13 0.0 0.01000163665170666 0.009984963980398266 0.0 -4.44388633951837e-12 0.0 0.01 0.0 -4.443886339518784e-12 0.0 0.010001797834715255 0.009984800723062718 0.0 -2.2136726342339887e-11 0.0 0.01 0.0 -2.2136726342336578e-11 0.0 0.01000198449057416 0.009984651907041762 0.0 2.2697559505656168e-10 0.0 0.01 0.0 2.2697559505656168e-10 0.0 0.01000217255779608 0.009984524497944102 0.0 2.505072053994067e-09 0.0 0.01 0.0 2.505072053994067e-09 0.0 0.010002348477043628 0.009984414014329864 0.0 1.0240763381804422e-08 0.0 0.01 0.0 1.0240763381804422e-08 0.0 0.010002535163748267 0.009984327421699794 0.0 2.5650981362362792e-08 0.0 0.01 0.0 2.5650981362362792e-08 0.0 0.010002813687178804 0.009984270689959688 0.0 4.4268441848260213e-08 0.0 0.01 0.0 4.426844184826699e-08 0.0 0.010003102493517206 0.009983419329152903 0.0 -3.3314797361071067e-13 0.0 0.01 0.0 -3.3314797361071067e-13 0.0 0.010001943416383325 0.009983246197733381 0.0 -3.764154032513008e-12 0.0 0.01 0.0 -3.764154032513008e-12 0.0 0.010002119823857515 0.009983089989182544 0.0 -1.9809656997581592e-11 0.0 0.01 0.0 -1.9809656997581592e-11 0.0 0.010002313802804839 0.009982957665382618 0.0 -6.358374153161467e-11 0.0 0.01 0.0 -6.358374153162129e-11 0.0 0.010002501438266071 0.009982858674702232 0.0 -4.840080911156671e-11 0.0 0.01 0.0 -4.840080911157002e-11 0.0 0.01000267292129443 0.009982789034782176 0.0 7.26974922236624e-10 0.0 0.01 0.0 7.26974922236624e-10 0.0 0.01000283810777139 0.009982749738614648 0.0 3.061632740504333e-09 0.0 0.01 0.0 3.061632740504121e-09 0.0 0.010003059003054086 0.009982732329072935 0.0 6.5391007472484645e-09 0.0 0.01 0.0 6.539100747248041e-09 0.0 0.010003281864895337 0.009981538251562998 0.0 -1.1640590398928365e-13 0.0 0.01 0.0 -1.1640590398928365e-13 0.0 0.010002256613615989 0.009981358754264135 0.0 -3.035401386292672e-12 0.0 0.01 0.0 -3.035401386292672e-12 0.0 0.01000244179406265 0.009981207606154676 0.0 -1.838654406254607e-11 0.0 0.01 0.0 -1.8386544062544415e-11 0.0 0.010002637292930357 0.009981090769393979 0.0 -6.273710890289782e-11 0.0 0.01 0.0 -6.273710890289451e-11 0.0 0.010002826397827286 0.009981015200567944 0.0 -1.470843344582863e-10 0.0 0.01 0.0 -1.470843344582863e-10 0.0 0.010002988138812617 0.009980980399712156 0.0 -2.547719884677967e-10 0.0 0.01 0.0 -2.547719884677967e-10 0.0 0.010003118658298043 0.009980975428191046 0.0 -2.905666450880633e-10 0.0 0.01 0.0 -2.905666450880898e-10 0.0 0.010003291674555199 0.009980991337084745 0.0 -9.163259701580741e-11 0.0 0.01 0.0 -9.163259701580741e-11 0.0 0.010003479365055124 0.009979480828689323 0.0 2.3409636761198376e-13 0.0 0.01 0.0 2.3409636761198376e-13 0.0 0.010002575194402489 0.009979290510542976 0.0 -2.141167195305679e-12 0.0 0.01 0.0 -2.1411671953057826e-12 0.0 0.010002769199845607 0.009979134487600412 0.0 -1.7585151455268616e-11 0.0 0.01 0.0 -1.7585151455267788e-11 0.0 0.010002971523968635 0.009979023189081823 0.0 -6.535598376971905e-11 0.0 0.01 0.0 -6.535598376971905e-11 0.0 0.010003160197396183 0.009978961579003204 0.0 -1.5992439227867777e-10 0.0 0.01 0.0 -1.5992439227866454e-10 0.0 0.01000331559825009 0.009978947170359145 0.0 -2.857291853611065e-10 0.0 0.01 0.0 -2.8572918536111975e-10 0.0 0.010003418752381373 0.009978970025478753 0.0 -3.5886484959794145e-10 0.0 0.01 0.0 -3.58864849597915e-10 0.0 0.01000356340377244 0.009979014245612518 0.0 -2.3162955392480845e-10 0.0 0.01 0.0 -2.3162955392479521e-10 0.0 0.010003740397539955 0.009977235470188294 0.0 6.170419047501318e-13 0.0 0.01 0.0 6.170419047501318e-13 0.0 0.010002902613285663 0.009977024921383965 0.0 -1.1119269593117522e-12 0.0 0.01 0.0 -1.1119269593117522e-12 0.0 0.010003106897322074 0.009976852122419123 0.0 -1.6993769830650075e-11 0.0 0.01 0.0 -1.6993769830649248e-11 0.0 0.01000331709974294 0.009976730473360949 0.0 -7.028336267970946e-11 0.0 0.01 0.0 -7.028336267970946e-11 0.0 0.010003515502945584 0.009976668905737712 0.0 -1.8012279217526686e-10 0.0 0.01 0.0 -1.8012279217526686e-10 0.0 0.010003671470965512 0.00997665798256878 0.0 -3.3080168660731336e-10 0.0 0.01 0.0 -3.3080168660731336e-10 0.0 0.010003762372252105 0.009976691745206915 0.0 -4.2433040021222523e-10 0.0 0.01 0.0 -4.2433040021222523e-10 0.0 0.01000389532485184 0.00997674586544487 0.0 -2.781714032420609e-10 0.0 0.01 0.0 -2.781714032420477e-10 0.0 0.010004078643944179 0.009974797099114377 0.0 6.295029631140061e-13 0.0 0.01 0.0 6.295029631139544e-13 0.0 0.010003238872865357 0.009974554948139137 0.0 -3.23954676945433e-13 0.0 0.01 0.0 -3.23954676945433e-13 0.0 0.0100034558906519 0.009974351019092578 0.0 -1.6816072598765757e-11 0.0 0.01 0.0 -1.6816072598765757e-11 0.0 0.010003680230618161 0.009974202669811026 0.0 -7.722923621005786e-11 0.0 0.01 0.0 -7.722923621005786e-11 0.0 0.010003892871988534 0.00997411336574303 0.0 -2.0646158131337808e-10 0.0 0.01 0.0 -2.0646158131336484e-10 0.0 0.010004063525494648 0.009974086574990397 0.0 -3.877802772846387e-10 0.0 0.01 0.0 -3.877802772846387e-10 0.0 0.01000415588927756 0.009974101954840539 0.0 -5.026927659693885e-10 0.0 0.01 0.0 -5.026927659693885e-10 0.0 0.01000429035949911 0.00997414759868559 0.0 -3.219074285477183e-10 0.0 0.01 0.0 -3.219074285477183e-10 0.0 0.010004485416039748 0.00997216762883971 0.0 -2.7000207289901764e-13 0.0 0.01 0.0 -2.7000207289901764e-13 0.0 0.01000358883103218 0.009971885013904983 0.0 -7.305199172098674e-13 0.0 0.01 0.0 -7.305199172098416e-13 0.0 0.010003811277769024 0.00997163266403405 0.0 -1.8539514721517477e-11 0.0 0.01 0.0 -1.8539514721515823e-11 0.0 0.0100040542141658 0.009971432879983902 0.0 -8.812462868416911e-11 0.0 0.01 0.0 -8.812462868416911e-11 0.0 0.010004290359499074 0.009971292592157807 0.0 -2.408997862661811e-10 0.0 0.01 0.0 -2.4089978626619436e-10 0.0 0.010004482011464302 0.009971212784411548 0.0 -4.577281653410522e-10 0.0 0.01 0.0 -4.577281653410522e-10 0.0 0.01000459741849623 0.009971182547194594 0.0 -5.915835062405492e-10 0.0 0.01 0.0 -5.915835062405492e-10 0.0 0.010004753887769965 0.009971191469623416 0.0 -3.496154999357261e-10 0.0 0.01 0.0 -3.4961549993575256e-10 0.0 0.010004972957087221 0.00996938615714057 0.0 -3.1856635939803046e-12 0.0 0.01 0.0 -3.1856635939803046e-12 0.0 0.010003954494467778 0.00996905027802166 0.0 -4.166853542214057e-12 0.0 0.01 0.0 -4.166853542214264e-12 0.0 0.01000417791679056 0.009968732264482602 0.0 -2.5203788556780767e-11 0.0 0.01 0.0 -2.5203788556780767e-11 0.0 0.010004432645511017 0.00996845093208247 0.0 -1.0779623507991708e-10 0.0 0.01 0.0 -1.0779623507991377e-10 0.0 0.010004693251925732 0.009968224595663962 0.0 -2.9014312028418476e-10 0.0 0.01 0.0 -2.90143120284198e-10 0.0 0.010004910364385283 0.009968055720108476 0.0 -5.479696912394009e-10 0.0 0.01 0.0 -5.479696912393479e-10 0.0 0.010005058034971284 0.00996794380144891 0.0 -6.944208311998709e-10 0.0 0.01 0.0 -6.944208311998709e-10 0.0 0.010005268811132327 0.009967871997214404 0.0 -3.486456743503467e-10 0.0 0.01 0.0 -3.4864567435035995e-10 0.0 0.010005533389373586 0.009966534741250317 0.0 -1.0214779582052419e-11 0.0 0.01 0.0 -1.0214779582052419e-11 0.0 0.010004346582275133 0.009966137777380965 0.0 -1.3566633559116294e-11 0.0 0.01 0.0 -1.3566633559116294e-11 0.0 0.010004556312106297 0.009965736407035223 0.0 -4.1653960454491923e-11 0.0 0.01 0.0 -4.165396045449358e-11 0.0 0.010004815976812244 0.00996534943493997 0.0 -1.4449038976172945e-10 0.0 0.01 0.0 -1.4449038976172945e-10 0.0 0.010005093238521 0.00996499862579841 0.0 -3.673799874751964e-10 0.0 0.01 0.0 -3.6737998747518316e-10 0.0 0.010005326502724293 0.009964698315108125 0.0 -6.759792224592562e-10 0.0 0.01 0.0 -6.759792224592297e-10 0.0 0.010005496728784884 0.009964453436043075 0.0 -8.246900030988133e-10 0.0 0.01 0.0 -8.246900030988133e-10 0.0 0.010005797036952277 0.009964258040446686 0.0 -3.113529625869041e-10 0.0 0.01 0.0 -3.113529625869041e-10 0.0 0.010006153124485476 0.009963788148734025 0.0 -2.5010559141374232e-11 0.0 0.01 0.0 -2.5010559141374232e-11 0.0 0.010004794946523288 0.009963328708384454 0.0 -3.2981755581761176e-11 0.0 0.01 0.0 -3.298175558176283e-11 0.0 0.010004963142473877 0.009962832247962775 0.0 -7.366715080229585e-11 0.0 0.01 0.0 -7.366715080229254e-11 0.0 0.010005214025075497 0.009962318064416699 0.0 -2.1019729106413155e-10 0.0 0.01 0.0 -2.1019729106413155e-10 0.0 0.010005500134396307 0.009961812363456031 0.0 -4.95518156763622e-10 0.0 0.01 0.0 -4.95518156763622e-10 0.0 0.010005719252738975 0.00996134182919244 0.0 -8.753632090764837e-10 0.0 0.01 0.0 -8.753632090764572e-10 0.0 0.010005868461787583 0.009960921271490633 0.0 -1.0134042129184803e-09 0.0 0.01 0.0 -1.0134042129185068e-09 0.0 0.010006281814224782 0.009960553636009747 0.0 -2.4248608325762044e-10 0.0 0.01 0.0 -2.4248608325762044e-10 0.0 0.010006785700616184 0.009961430790643254 0.0 -5.0011047961386745e-11 0.0 0.01 0.0 -5.001104796138509e-11 0.0 0.010005341176179001 0.009960913859082732 0.0 -6.333648998393635e-11 0.0 0.01 0.0 -6.333648998393635e-11 0.0 0.01000545320737953 0.009960323390432022 0.0 -1.2528316409907142e-10 0.0 0.01 0.0 -1.2528316409907142e-10 0.0 0.010005683040874751 0.009959678194977135 0.0 -3.22378009561509e-10 0.0 0.01 0.0 -3.22378009561509e-10 0.0 0.010005956016898063 0.009959006949344104 0.0 -7.160814982820012e-10 0.0 0.01 0.0 -7.160814982820012e-10 0.0 0.01000612331966827 0.00995834719628745 0.0 -1.2092078236848853e-09 0.0 0.01 0.0 -1.2092078236848324e-09 0.0 0.010006161439826756 0.009957719663685135 0.0 -1.317707671491624e-09 0.0 0.01 0.0 -1.317707671491571e-09 0.0 0.01000666340423135 0.009957151974799338 0.0 -1.6543495414696148e-10 0.0 0.01 0.0 -1.6543495414695486e-10 0.0 0.010007367483982284 0.009959864429184265 0.0 -7.79796354951101e-11 0.0 0.01 0.0 -7.79796354951101e-11 0.0 0.010006056748189418 0.009959308227505593 0.0 -9.487745669031951e-11 0.0 0.01 0.0 -9.487745669032282e-11 0.0 0.01000610764093845 0.009958648908397658 0.0 -1.97093782820827e-10 0.0 0.01 0.0 -1.97093782820827e-10 0.0 0.010006315527849773 0.009957894432678957 0.0 -5.117291471613415e-10 0.0 0.01 0.0 -5.117291471613283e-10 0.0 0.010006578736275848 0.009957083365067483 0.0 -1.1041458781527568e-09 0.0 0.01 0.0 -1.1041458781527833e-09 0.0 0.010006637452523068 0.009956250289553714 0.0 -1.7843543098250363e-09 0.0 0.01 0.0 -1.7843543098250893e-09 0.0 0.010006419275779556 0.009955434690134863 0.0 -1.8216200302940798e-09 0.0 0.01 0.0 -1.8216200302940268e-09 0.0 0.010006898732315733 0.009954677492031798 0.0 -1.2119603017028242e-10 0.0 0.01 0.0 -1.2119603017028242e-10 0.0 0.010007816755707463 0.009959580883114744 0.0 -8.334060933436349e-11 0.0 0.01 0.0 -8.334060933436349e-11 0.0 0.01000704062859365 0.009959032631006521 0.0 -1.0366557630970417e-10 0.0 0.01 0.0 -1.0366557630970086e-10 0.0 0.0100070548085323 0.009958353121629347 0.0 -2.8961895320098523e-10 0.0 0.01 0.0 -2.896189532009786e-10 0.0 0.010007262804594538 0.009957561688332008 0.0 -8.280672768905614e-10 0.0 0.01 0.0 -8.280672768905614e-10 0.0 0.01000751676678129 0.009956689010012789 0.0 -1.770083261807116e-09 0.0 0.01 0.0 -1.770083261807116e-09 0.0 0.010007418897848102 0.00995577363542527 0.0 -2.746194217798805e-09 0.0 0.01 0.0 -2.7461942177986993e-09 0.0 0.010006778836670298 0.009954851607634253 0.0 -2.623513659174848e-09 0.0 0.01 0.0 -2.623513659174742e-09 0.0 0.010007041630708513 0.009953981120976136 0.0 -1.6351422562446852e-10 0.0 0.01 0.0 -1.6351422562448175e-10 0.0 0.010008091359931694 0.00996120295524739 0.0 -2.7734188667314548e-11 0.0 0.01 0.0 -2.7734188667314548e-11 0.0 0.010008410999849563 0.00996072509534201 0.0 -5.996472753684974e-11 0.0 0.01 0.0 -5.99647275368514e-11 0.0 0.01000843987270668 0.009960128237691762 0.0 -3.996087454343473e-10 0.0 0.01 0.0 -3.996087454343605e-10 0.0 0.010008680740219033 0.009959434673699568 0.0 -1.3177319432460326e-09 0.0 0.01 0.0 -1.3177319432460856e-09 0.0 0.010008930899915397 0.00995867211815863 0.0 -2.8394494111604374e-09 0.0 0.01 0.0 -2.8394494111604374e-09 0.0 0.010008642039834427 0.009957861847934032 0.0 -4.286779894560611e-09 0.0 0.01 0.0 -4.286779894560611e-09 0.0 0.010007466854772433 0.009957023147624509 0.0 -3.883093211823302e-09 0.0 0.01 0.0 -3.883093211823196e-09 0.0 0.010007293621787193 0.009956208345190294 0.0 -4.1900442010462485e-10 0.0 0.01 0.0 -4.1900442010462485e-10 0.0 0.01000829009747439 0.009965623576755825 0.0 1.238773834307077e-10 0.0 0.01 0.0 1.238773834307077e-10 0.0 0.010010283892041087 0.00996532914736534 0.0 6.699322792458948e-11 0.0 0.01 0.0 6.699322792458948e-11 0.0 0.010010375475263482 0.009964975371776826 0.0 -5.191036865733114e-10 0.0 0.01 0.0 -5.191036865733511e-10 0.0 0.01001066107457452 0.009964596898356203 0.0 -2.047599706193041e-09 0.0 0.01 0.0 -2.047599706193094e-09 0.0 0.010010876117795608 0.009964200660635263 0.0 -4.50296721027676e-09 0.0 0.01 0.0 -4.502967210276548e-09 0.0 0.010010371111715342 0.009963768859869918 0.0 -6.711362439350063e-09 0.0 0.01 0.0 -6.711362439350063e-09 0.0 0.010008781102644344 0.00996328617998897 0.0 -5.8962600849544454e-09 0.0 0.01 0.0 -5.8962600849544454e-09 0.0 0.010008097725369525 0.009962782803777711 0.0 -1.0749239390787338e-09 0.0 0.01 0.0 -1.0749239390787603e-09 0.0 0.01000879970159933 0.009974149087082395 0.0 3.8028277073941715e-10 0.0 0.01 0.0 3.802827707394304e-10 0.0 0.010012708735807755 0.009974181831980615 0.0 2.645211339286729e-10 0.0 0.01 0.0 2.645211339286729e-10 0.0 0.010012879338946633 0.009974275107094872 0.0 -7.166379858054511e-10 0.0 0.01 0.0 -7.166379858054247e-10 0.0 0.0100131724815033 0.009974455711032485 0.0 -3.1738417522653177e-09 0.0 0.01 0.0 -3.1738417522653177e-09 0.0 0.010013274434890338 0.009974697854785887 0.0 -6.971859716543693e-09 0.0 0.01 0.0 -6.971859716543269e-09 0.0 0.010012523486442498 0.009974922647458567 0.0 -1.017122121896736e-08 0.0 0.01 0.0 -1.0171221218967784e-08 0.0 0.010010864379614487 0.009975078472922307 0.0 -8.837995462941726e-09 0.0 0.01 0.0 -8.837995462941726e-09 0.0 0.010010280481554232 0.009975167306621222 0.0 -2.2080638789477516e-09 0.0 0.01 0.0 -2.2080638789478575e-09 0.0 0.010010506785715655 0.009988170523633268 0.0 6.438392230017131e-10 0.0 0.01 0.0 6.438392230016601e-10 0.0 0.010015635694941936 0.009988666297081526 0.0 3.6924733113097804e-10 0.0 0.01 0.0 3.6924733113095157e-10 0.0 0.010015833927751558 0.009989363992793543 0.0 -1.2088378873606743e-09 0.0 0.01 0.0 -1.2088378873606214e-09 0.0 0.010016038502687771 0.009990279691055138 0.0 -4.859868895223037e-09 0.0 0.01 0.0 -4.859868895223037e-09 0.0 0.01001590898399922 0.009991326796746549 0.0 -1.0147608392339758e-08 0.0 0.01 0.0 -1.0147608392341453e-08 0.0 0.01001516773940538 0.009992391192940306 0.0 -1.4166848814256824e-08 0.0 0.01 0.0 -1.4166848814256824e-08 0.0 0.01001441882556328 0.009993386067428032 0.0 -1.1895597343625871e-08 0.0 0.01 0.0 -1.1895597343625024e-08 0.0 0.010014396278379651 0.00999428590137424 0.0 -3.361266421019988e-09 0.0 0.01 0.0 -3.361266421019776e-09 0.0 0.0100142780713883 0.010008409997324356 0.0 6.718916459264105e-10 0.0 0.01 0.0 6.718916459265163e-10 0.0 0.0100188716366988 0.010009407307985635 0.0 7.658262979460618e-11 0.0 0.01 0.0 7.658262979460618e-11 0.0 0.010018976228243442 0.01001073109879092 0.0 -2.2171174492466878e-09 0.0 0.01 0.0 -2.2171174492462642e-09 0.0 0.010018963455831888 0.010012359325245088 0.0 -6.958590493664379e-09 0.0 0.01 0.0 -6.958590493666073e-09 0.0 0.01001865461970049 0.010014190297661004 0.0 -1.3234253437331358e-08 0.0 0.01 0.0 -1.3234253437334747e-08 0.0 0.010018560848198889 0.010016080705407883 0.0 -1.717991883552327e-08 0.0 0.01 0.0 -1.7179918835530047e-08 0.0 0.01001926744248395 0.010017932420709754 0.0 -1.323906159159604e-08 0.0 0.01 0.0 -1.3239061591609593e-08 0.0 0.010019628943450657 0.010019685928161052 0.0 -3.0324863981200036e-09 0.0 0.01 0.0 -3.0324863981132273e-09 0.0 0.010019148610304058 0.010033970165120904 0.0 2.746570496202164e-10 0.0 0.01 0.0 2.7465704962018994e-10 0.0 0.010022113183263539 0.010035362495384637 0.0 -7.198311553270935e-10 0.0 0.01 0.0 -7.198311553270935e-10 0.0 0.010021958364290935 0.010037118246556644 0.0 -3.522177157055079e-09 0.0 0.01 0.0 -3.5221771570555026e-09 0.0 0.010021608890364039 0.010039203943173565 0.0 -8.614896495237342e-09 0.0 0.01 0.0 -8.614896495236495e-09 0.0 0.010021218241527593 0.010041521835119294 0.0 -1.4576201536978442e-08 0.0 0.01 0.0 -1.4576201536977595e-08 0.0 0.010021898874674955 0.01004395709455034 0.0 -1.6925847711918543e-08 0.0 0.01 0.0 -1.6925847711918543e-08 0.0 0.010023138662645719 0.010046409944765 0.0 -1.0742704792389651e-08 0.0 0.01 0.0 -1.0742704792389651e-08 0.0 0.010023139166099057 0.010048740747264716 0.0 -7.660698753211549e-10 0.0 0.01 0.0 -7.66069875321049e-10 0.0 0.010022086607845343 0.010061732516445076 0.0 -3.441061731306297e-10 0.0 0.01 0.0 -3.4410617313061647e-10 0.0 0.010025002658312783 0.01006327172042852 0.0 -1.5438999539158606e-09 0.0 0.01 0.0 -1.5438999539159135e-09 0.0 0.010024440862254194 0.010065087996784992 0.0 -4.256441588320677e-09 0.0 0.01 0.0 -4.256441588320677e-09 0.0 0.01002374838075903 0.010067150370421536 0.0 -8.630521230357256e-09 0.0 0.01 0.0 -8.630521230357256e-09 0.0 0.010023416443435351 0.010069404876572015 0.0 -1.3020466812732391e-08 0.0 0.01 0.0 -1.3020466812732814e-08 0.0 0.010024388228645957 0.010071783651870806 0.0 -1.3002329509057486e-08 0.0 0.01 0.0 -1.3002329509057486e-08 0.0 0.010025106434464689 0.010074196064429799 0.0 -7.249973257422865e-09 0.0 0.01 0.0 -7.249973257423077e-09 0.0 0.010024158564294923 0.010076409882638453 0.0 -6.005879545875325e-09 0.0 0.01 0.0 -6.005879545875325e-09 0.0 0.010022774365184091 0.01008666550737081 0.0 -6.810979626985643e-10 0.0 0.01 0.0 -6.810979626985908e-10 0.0 0.010027236874358103 0.01008803528444969 0.0 -1.6762907062565886e-09 0.0 0.01 0.0 -1.6762907062565886e-09 0.0 0.010026240121428264 0.010089481315067903 0.0 -3.654432015832468e-09 0.0 0.01 0.0 -3.654432015832574e-09 0.0 0.010025284070378686 0.010090951549525986 0.0 -6.646164595091287e-09 0.0 0.01 0.0 -6.646164595090863e-09 0.0 0.010024885082854292 0.010092437486895924 0.0 -9.697975478202668e-09 0.0 0.01 0.0 -9.697975478202668e-09 0.0 0.010025502022333068 0.010093937142139242 0.0 -1.1913720419698314e-08 0.0 0.01 0.0 -1.1913720419698314e-08 0.0 0.010025266840406654 0.010095360556294404 0.0 -1.3666537424423885e-08 0.0 0.01 0.0 -1.366653742442452e-08 0.0 0.010023349576572393 0.010096529826388962 0.0 -1.094526472802826e-08 0.0 0.01 0.0 -1.0945264728028472e-08 0.0 0.010022025656329045 0.01010354429413217 0.0 -5.485790389944673e-10 0.0 0.01 0.0 -5.485790389944805e-10 0.0 0.010028704672395066 0.010104506817973329 0.0 -1.0731764322418417e-09 0.0 0.01 0.0 -1.0731764322418417e-09 0.0 0.010027301348944008 0.010105269574390929 0.0 -2.128388395715114e-09 0.0 0.01 0.0 -2.128388395715114e-09 0.0 0.010025880373488298 0.010105755847597455 0.0 -3.924682536883087e-09 0.0 0.01 0.0 -3.924682536882981e-09 0.0 0.010024843725882892 0.010105964485691895 0.0 -6.384152144225632e-09 0.0 0.01 0.0 -6.384152144225526e-09 0.0 0.010024442826593332 0.010105965001761577 0.0 -8.967625021393744e-09 0.0 0.01 0.0 -8.967625021393744e-09 0.0 0.010023411055769047 0.010105815811029296 0.0 -9.335092117095833e-09 0.0 0.01 0.0 -9.335092117095833e-09 0.0 0.010022142678211656 0.010105585509827165 0.0 -1.4157347012012225e-09 0.0 0.01 0.0 -1.4157347012012225e-09 0.0 0.010021036393783508 0.010110304950573913 0.0 -2.3316679496385285e-10 0.0 0.01 0.0 -2.3316679496385285e-10 0.0 0.010029491753395289 0.010110791951094454 0.0 -3.651554661150543e-10 0.0 0.01 0.0 -3.651554661150477e-10 0.0 0.010027870987294256 0.010110830298139448 0.0 -6.93361115065592e-10 0.0 0.01 0.0 -6.933611150655788e-10 0.0 0.010026182067311998 0.010110323604539865 0.0 -1.3447304800619478e-09 0.0 0.01 0.0 -1.3447304800619478e-09 0.0 0.010024722730726349 0.01010931147898364 0.0 -2.307448969883409e-09 0.0 0.01 0.0 -2.307448969883409e-09 0.0 0.010023606276120865 0.010107933069641417 0.0 -3.0487393930039076e-09 0.0 0.01 0.0 -3.0487393930039076e-09 0.0 0.010022153952783419 0.010106403478067334 0.0 -1.4776192173740944e-09 0.0 0.01 0.0 -1.4776192173740944e-09 0.0 0.010021877736445185 0.010104970796806216 0.0 5.842299176095641e-09 0.0 0.01 0.0 5.8422991760955355e-09 0.0 0.010020911108774497 0.010109298409619953 0.0 -2.9050955677169994e-11 0.0 0.01 0.0 -2.9050955677170408e-11 0.0 0.010029822831674601 0.010109429570465055 0.0 -5.746900956891683e-12 0.0 0.01 0.0 -5.746900956891683e-12 0.0 0.010028176239256599 0.010108952322406663 0.0 -2.0713414200132516e-11 0.0 0.01 0.0 -2.0713414200132102e-11 0.0 0.010026454708674856 0.010107773206725696 0.0 -1.0137881310452153e-10 0.0 0.01 0.0 -1.0137881310452318e-10 0.0 0.010024863925748235 0.01010595240981697 0.0 -2.0984244362948519e-10 0.0 0.01 0.0 -2.0984244362948188e-10 0.0 0.01002351971711547 0.010103698902448418 0.0 -7.97295136252524e-11 0.0 0.01 0.0 -7.972951362525074e-11 0.0 0.010022279334752552 0.010101292912312926 0.0 1.0327158708400045e-09 0.0 0.01 0.0 1.032715870840031e-09 0.0 0.01002249462420703 0.010099063171577521 0.0 3.965188642401662e-09 0.0 0.01 0.0 3.965188642401556e-09 0.0 0.010021608387116217 0.010104372856880511 0.0 1.7087732330461445e-11 0.0 0.01 0.0 1.708773233046186e-11 0.0 0.010029895730808938 0.010104396997338456 0.0 3.481454768195745e-11 0.0 0.01 0.0 3.481454768195828e-11 0.0 0.01002835797169991 0.010103751299672207 0.0 4.682239237714683e-11 0.0 0.01 0.0 4.682239237714683e-11 0.0 0.010026752472562581 0.010102333355240738 0.0 5.6261393724360606e-11 0.0 0.01 0.0 5.6261393724360606e-11 0.0 0.010025270266224717 0.010100219097581466 0.0 7.625279985310398e-11 0.0 0.01 0.0 7.625279985310232e-11 0.0 0.010024062623664436 0.01009764117668058 0.0 1.263678562165729e-10 0.0 0.01 0.0 1.263678562165729e-10 0.0 0.010023126377741942 0.010094896408234594 0.0 2.0293383633941806e-10 0.0 0.01 0.0 2.0293383633941806e-10 0.0 0.010023384520364536 0.010092315980850024 0.0 2.27292398907109e-10 0.0 0.01 0.0 2.272923989071024e-10 0.0 0.010022496587396432 0.010098353103090783 0.0 -4.330446712257604e-12 0.0 0.01 0.0 -4.330446712257397e-12 0.0 0.010029817383221824 0.010098541149290437 0.0 -3.2393074820740735e-11 0.0 0.01 0.0 -3.239307482074156e-11 0.0 0.010028433814132053 0.010098068994065993 0.0 -9.064720503392904e-11 0.0 0.01 0.0 -9.064720503392738e-11 0.0 0.01002699663051993 0.010096819312398421 0.0 -1.737114709636025e-10 0.0 0.01 0.0 -1.7371147096359918e-10 0.0 0.010025755914453616 0.010094854693088726 0.0 -2.6603594753115497e-10 0.0 0.01 0.0 -2.6603594753114835e-10 0.0 0.01002488750081051 0.010092407880946867 0.0 -3.5171322154972587e-10 0.0 0.01 0.0 -3.5171322154971925e-10 0.0 0.01002408332243189 0.010089763672672248 0.0 -3.4895712668727176e-10 0.0 0.01 0.0 -3.4895712668727176e-10 0.0 0.010024113288027974 0.010087221767674102 0.0 -8.270759200963471e-11 0.0 0.01 0.0 -8.270759200963471e-11 0.0 0.010023165699525882 0.010092015883868795 0.0 -2.7119654671097292e-11 0.0 0.01 0.0 -2.7119654671097292e-11 0.0 0.01002959819125911 0.010092574520523307 0.0 -9.045504873271276e-11 0.0 0.01 0.0 -9.045504873271111e-11 0.0 0.010028348592369753 0.010092538848062738 0.0 -2.396979716672679e-10 0.0 0.01 0.0 -2.396979716672679e-10 0.0 0.010027054194717512 0.010091750860723262 0.0 -4.971412696583284e-10 0.0 0.01 0.0 -4.971412696583284e-10 0.0 0.010026003930117414 0.010090251717284004 0.0 -8.161585930136323e-10 0.0 0.01 0.0 -8.161585930136323e-10 0.0 0.010025349464543226 0.010088248833134979 0.0 -1.034771254931955e-09 0.0 0.01 0.0 -1.0347712549319285e-09 0.0 0.010024438897921699 0.010086010633955134 0.0 -6.842768147109012e-10 0.0 0.01 0.0 -6.842768147109012e-10 0.0 0.010024145268414416 0.01008379801948297 0.0 1.0787538767265706e-09 0.0 0.01 0.0 1.0787538767265706e-09 0.0 0.010023112582501194 0.010084466973545458 0.0 -3.492223575302578e-11 0.0 0.01 0.0 -3.492223575302578e-11 0.0 0.010029187339632876 0.010085506687873 0.0 -1.258905109977174e-10 0.0 0.01 0.0 -1.258905109977141e-10 0.0 0.01002803147555942 0.01008605572808972 0.0 -3.9856787627467534e-10 0.0 0.01 0.0 -3.985678762746621e-10 0.0 0.010026826312837994 0.010085919472802247 0.0 -9.586616645717173e-10 0.0 0.01 0.0 -9.586616645717437e-10 0.0 0.010025873016671032 0.01008509349203646 0.0 -1.7247237107613585e-09 0.0 0.01 0.0 -1.7247237107613056e-09 0.0 0.010025280594143716 0.010083743932671597 0.0 -2.3442587178931863e-09 0.0 0.01 0.0 -2.3442587178932392e-09 0.0 0.010024193969843507 0.010082105694202979 0.0 -2.026896333260602e-09 0.0 0.01 0.0 -2.026896333260602e-09 0.0 0.01002361906629756 0.010080415245004483 0.0 6.436543707624192e-10 0.0 0.01 0.0 6.436543707623927e-10 0.0 0.01002252900536006 0.010074351323153034 0.0 -2.256190527419929e-11 0.0 0.01 0.0 -2.256190527419929e-11 0.0 0.010028531796630097 0.010075889881887774 0.0 -1.378257948336996e-10 0.0 0.01 0.0 -1.378257948337062e-10 0.0 0.010027432267938025 0.010077086372368468 0.0 -5.769141216998524e-10 0.0 0.01 0.0 -5.769141216998524e-10 0.0 0.010026275549044452 0.010077718527123759 0.0 -1.5783683707560098e-09 0.0 0.01 0.0 -1.5783683707560627e-09 0.0 0.010025360800334225 0.010077721495268033 0.0 -3.013015181456907e-09 0.0 0.01 0.0 -3.013015181456907e-09 0.0 0.010024744844002599 0.010077182308551098 0.0 -4.311855294680138e-09 0.0 0.01 0.0 -4.311855294680032e-09 0.0 0.01002354232597287 0.010076298008671132 0.0 -4.480915380102046e-09 0.0 0.01 0.0 -4.480915380102152e-09 0.0 0.010022822039769062 0.010075255616577133 0.0 -1.821908309277337e-09 0.0 0.01 0.0 -1.821908309277337e-09 0.0 0.010021751916603497 0.010061125261643893 0.0 8.594673100055168e-12 0.0 0.01 0.0 8.594673100054755e-12 0.0 0.010027615421982041 0.010063109024760429 0.0 -1.0449013272114202e-10 0.0 0.01 0.0 -1.0449013272114202e-10 0.0 0.010026557068318996 0.01006495508754631 0.0 -6.854380757157555e-10 0.0 0.01 0.0 -6.854380757157291e-10 0.0 0.010025428715121002 0.010066429568511052 0.0 -2.13594804486491e-09 0.0 0.01 0.0 -2.135948044864804e-09 0.0 0.010024492036036229 0.01006738749202277 0.0 -4.303559279867519e-09 0.0 0.01 0.0 -4.303559279867731e-09 0.0 0.010023819183552992 0.010067815506296042 0.0 -6.36874172317117e-09 0.0 0.01 0.0 -6.36874172317117e-09 0.0 0.010022656364696956 0.010067818006481977 0.0 -7.260803003742325e-09 0.0 0.01 0.0 -7.260803003742325e-09 0.0 0.01002197995598105 0.01006755192590371 0.0 -4.993529427407409e-09 0.0 0.01 0.0 -4.993529427407409e-09 0.0 0.010020959763077835 0.010045753502755854 0.0 3.0874114935566504e-11 0.0 0.01 0.0 3.0874114935563195e-11 0.0 0.010026462570752029 0.010048048696251694 0.0 -3.031570438946435e-11 0.0 0.01 0.0 -3.031570438946435e-11 0.0 0.01002544347719717 0.01005046439406828 0.0 -6.188792473710207e-10 0.0 0.01 0.0 -6.188792473710471e-10 0.0 0.01002433957472704 0.010052785118120635 0.0 -2.293648797849027e-09 0.0 0.01 0.0 -2.2936487978488153e-09 0.0 0.010023331399861522 0.010054775386914593 0.0 -4.9935470570306715e-09 0.0 0.01 0.0 -4.993547057030883e-09 0.0 0.01002258800283751 0.010056291568579031 0.0 -7.777559088474888e-09 0.0 0.01 0.0 -7.777559088475311e-09 0.0 0.010021560729851966 0.01005731119795486 0.0 -9.446652177394216e-09 0.0 0.01 0.0 -9.446652177393793e-09 0.0 0.010021134662800418 0.01005793170181206 0.0 -7.358266067937698e-09 0.0 0.01 0.0 -7.358266067937698e-09 0.0 0.010020173179806165 0.010030336236838418 0.0 5.7547768840570575e-12 0.0 0.01 0.0 5.754776884058712e-12 0.0 0.010025126635895274 0.010032768263025979 0.0 2.2129650993385286e-11 0.0 0.01 0.0 2.2129650993385286e-11 0.0 0.010024148239835865 0.010035587017996605 0.0 -4.219714261912476e-10 0.0 0.01 0.0 -4.219714261912476e-10 0.0 0.010023081115467581 0.010038616084139687 0.0 -1.9875698822687263e-09 0.0 0.01 0.0 -1.9875698822687263e-09 0.0 0.010022050268316833 0.01004158116860566 0.0 -4.725536951456039e-09 0.0 0.01 0.0 -4.725536951456039e-09 0.0 0.010021105176754011 0.010044190605011863 0.0 -8.025762109729127e-09 0.0 0.01 0.0 -8.025762109729127e-09 0.0 0.01002032203031851 0.0100462827424234 0.0 -1.0570223386605778e-08 0.0 0.01 0.0 -1.0570223386604931e-08 0.0 0.010020261614026105 0.0100478599568349 0.0 -8.061729656060852e-09 0.0 0.01 0.0 -8.061729656061275e-09 0.0 0.010019416755517001 0.010016926680085508 0.0 -6.053142432412854e-11 0.0 0.01 0.0 -6.053142432412854e-11 0.0 0.010023664789061882 0.010019341620377556 0.0 7.313909450562126e-12 0.0 0.01 0.0 7.313909450565434e-12 0.0 0.010022723721114148 0.010022372203998679 0.0 -2.252708296632566e-10 0.0 0.01 0.0 -2.2527082966283308e-10 0.0 0.01002169439334987 0.010025892214973622 0.0 -1.62139588263831e-09 0.0 0.01 0.0 -1.6213958826378865e-09 0.0 0.010020760269835284 0.010029620336818682 0.0 -5.592994001581616e-09 0.0 0.01 0.0 -5.592994001580769e-09 0.0 0.010019739946366218 0.01003319086680431 0.0 -1.1607061138722095e-08 0.0 0.01 0.0 -1.1607061138722095e-08 0.0 0.010018925189191915 0.010036293784017927 0.0 -1.5753991625759556e-08 0.0 0.01 0.0 -1.575399162576125e-08 0.0 0.010019270912458867 0.01003880278560076 0.0 -6.897486182713346e-09 0.0 0.01 0.0 -6.89748618271377e-09 0.0 0.010018517608580059 0.010006676129659857 0.0 -1.0547269046204845e-10 0.0 0.01 0.0 -1.0547269046203521e-10 0.0 0.010022109710327545 0.010008991111492357 0.0 -3.194943457748663e-11 0.0 0.01 0.0 -3.194943457748663e-11 0.0 0.010021194138826696 0.010012069666414677 0.0 -2.898575443434161e-10 0.0 0.01 0.0 -2.8985754434336314e-10 0.0 0.010020208543140926 0.010015843724155848 0.0 -3.943928414032433e-09 0.0 0.01 0.0 -3.943928414032433e-09 0.0 0.010019369129498313 0.01002005285672274 0.0 -1.4656411914004035e-08 0.0 0.01 0.0 -1.465641191397693e-08 0.0 0.010018526960378062 0.01002432577459579 0.0 -2.8263568409516067e-08 0.0 0.01 0.0 -2.8263568409516067e-08 0.0 0.010017446903300446 0.010028235336699444 0.0 -3.516127743376571e-08 0.0 0.01 0.0 -3.5161277433772486e-08 0.0 0.010017948607676613 0.010031504709062227 0.0 -4.155769418756847e-09 0.0 0.01 0.0 -4.155769418756847e-09 0.0 0.01001727365401116 0.009999715012183172 0.0 -6.704562069900817e-11 0.0 0.01 0.0 -6.704562069900817e-11 0.0 0.010020487589649059 0.010001900441614513 0.0 1.9611068756016092e-10 0.0 0.01 0.0 1.9611068756016092e-10 0.0 0.010019590618844805 0.010004905957903333 0.0 3.004166515025875e-10 0.0 0.01 0.0 3.004166515025875e-10 0.0 0.010018663921569403 0.01000868560287247 0.0 -7.526121680240857e-09 0.0 0.01 0.0 -7.526121680244245e-09 0.0 0.010017899997041944 0.01001306807175831 0.0 -3.11229410723075e-08 0.0 0.01 0.0 -3.11229410723075e-08 0.0 0.010017243247262811 0.010017736526798276 0.0 -5.715466556592075e-08 0.0 0.01 0.0 -5.715466556592075e-08 0.0 0.01001599876281096 0.010022158382753537 0.0 -6.640552277117461e-08 0.0 0.01 0.0 -6.640552277116106e-08 0.0 0.01001625097914332 0.010025889242006205 0.0 6.138591199518344e-09 0.0 0.01 0.0 6.138591199517497e-09 0.0 0.010015622483194337 0.009995481064962728 0.0 1.559214242804803e-10 0.0 0.01 0.0 1.5592142428050678e-10 0.0 0.010018819090740616 0.009997542406263351 0.0 3.000223738669351e-09 0.0 0.01 0.0 3.000223738669139e-09 0.0 0.010017961376024526 0.010000341317486852 0.0 9.322853755482086e-09 0.0 0.01 0.0 9.322853755482933e-09 0.0 0.010017142629938601 0.010003884111778208 0.0 2.4990557503073325e-09 0.0 0.01 0.0 2.499055750306909e-09 0.0 0.010016504620643463 0.010008115318247952 0.0 -3.351972991207287e-08 0.0 0.01 0.0 -3.3519729912079646e-08 0.0 0.010015956058452671 0.010012848922669392 0.0 -7.345932465227176e-08 0.0 0.01 0.0 -7.345932465232597e-08 0.0 0.010014638531171917 0.01001756225771235 0.0 -7.668012466928811e-08 0.0 0.01 0.0 -7.668012466928811e-08 0.0 0.0100142972040375 0.010021503260305183 0.0 2.5842024814267815e-08 0.0 0.01 0.0 2.5842024814274592e-08 0.0 0.010013598487722788 0.009993191459751227 0.0 1.7122626638384943e-09 0.0 0.01 0.0 1.712262663838706e-09 0.0 0.010017144589972214 0.00999510559565987 0.0 1.5156695589195708e-08 0.0 0.01 0.0 1.5156695589196555e-08 0.0 0.010016374129227842 0.009997560393321068 0.0 4.311778118182375e-08 0.0 0.01 0.0 4.311778118182714e-08 0.0 0.010015720593285366 0.010000621158326723 0.0 5.5188734464931216e-08 0.0 0.01 0.0 5.518873446492444e-08 0.0 0.010015281558121022 0.010004384231601628 0.0 2.0545799650931125e-08 0.0 0.01 0.0 2.0545799650931125e-08 0.0 0.010014852373608147 0.010008872143375511 0.0 -2.430317013513329e-08 0.0 0.01 0.0 -2.4303170135140067e-08 0.0 0.010013579861984815 0.01001392206972899 0.0 -4.523001667752942e-10 0.0 0.01 0.0 -4.523001667757177e-10 0.0 0.010012473499474244 0.010018401266664083 0.0 3.3440040612976515e-09 0.0 0.01 0.0 3.3440040612993456e-09 0.0 0.010011215138729018 0.009992154243064419 0.0 8.406281433791e-09 0.0 0.01 0.0 8.406281433790576e-09 0.0 0.010015517996651055 0.00999385966055354 0.0 4.8617403462597274e-08 0.0 0.01 0.0 4.8617403462597274e-08 0.0 0.010014911687927557 0.009995822121926977 0.0 1.230126939995909e-07 0.0 0.01 0.0 1.230126939995909e-07 0.0 0.010014491391572879 0.009998200490808512 0.0 1.819159666645808e-07 0.0 0.01 0.0 1.8191596666459434e-07 0.0 0.010014300622730494 0.010001252689932377 0.0 1.750620944568999e-07 0.0 0.01 0.0 1.750620944568728e-07 0.0 0.010014056436641779 0.010005341680597931 0.0 1.5541041593479955e-07 0.0 0.01 0.0 1.5541041593479955e-07 0.0 0.010012889130303411 0.01001076737003685 0.0 1.7418930579340096e-07 0.0 0.01 0.0 1.741893057936178e-07 0.0 0.010011597799719493 0.010017113186723577 0.0 -2.2532705555404486e-07 0.0 0.01 0.0 -2.2532705555404486e-07 0.0 0.010009724122996383 0.00999191930535073 0.0 3.0888223832974894e-08 0.0 0.01 0.0 3.0888223832974894e-08 0.0 0.010014031427131163 0.009993302237243835 0.0 1.2181243803771738e-07 0.0 0.01 0.0 1.218124380377106e-07 0.0 0.010013646033619511 0.009994650306837098 0.0 2.69499012824667e-07 0.0 0.01 0.0 2.694990128246941e-07 0.0 0.010013488201604514 0.009996236649633075 0.0 4.013734986098327e-07 0.0 0.01 0.0 4.013734986098327e-07 0.0 0.010013569092247352 0.009998484374069881 0.0 4.432643466617298e-07 0.0 0.01 0.0 4.43264346661784e-07 0.0 0.010013368087538919 0.010002169686462633 0.0 4.516875513474526e-07 0.0 0.01 0.0 4.516875513474526e-07 0.0 0.010012179495432382 0.010008108519547693 0.0 3.469000449641494e-07 0.0 0.01 0.0 3.4690004496436624e-07 0.0 0.010010869765097491 0.010016013573590603 0.0 -7.783119623347608e-07 0.0 0.01 0.0 -7.783119623345439e-07 0.0 0.010008648497014515 0.009992207120011953 0.0 8.908501380054977e-08 0.0 0.01 0.0 8.908501380053621e-08 0.0 0.010012764148184116 0.009993142071097692 0.0 2.5770304585640284e-07 0.0 0.01 0.0 2.5770304585640284e-07 0.0 0.010012622518976015 0.009993823264562485 0.0 4.969125644960323e-07 0.0 0.01 0.0 4.969125644960866e-07 0.0 0.010012707317357268 0.009994657359562708 0.0 7.069259900790515e-07 0.0 0.01 0.0 7.069259900791057e-07 0.0 0.01001290049530494 0.00999624820465416 0.0 7.842753298823043e-07 0.0 0.01 0.0 7.842753298822501e-07 0.0 0.010012471634516417 0.009999659599492273 0.0 7.403812479214126e-07 0.0 0.01 0.0 7.403812479214126e-07 0.0 0.010011098129957905 0.01000617322299516 0.0 2.7602259829759106e-07 0.0 0.01 0.0 2.760225982976995e-07 0.0 0.01001000179679354 0.009992776341801997 0.0 2.1707450325668778e-07 0.0 0.01 0.0 2.1707450325667422e-07 0.0 0.010011778082908561 0.00999318001833601 0.0 4.841167332983519e-07 0.0 0.01 0.0 4.841167332983519e-07 0.0 0.010011836467252844 0.009993263910968248 0.0 8.107476071405966e-07 0.0 0.01 0.0 8.107476071405966e-07 0.0 0.010012038903805245 0.009993591336285178 0.0 1.065691648940016e-06 0.0 0.01 0.0 1.0656916489401244e-06 0.0 0.010012111487692703 0.009994925547928751 0.0 1.1040242255516133e-06 0.0 0.01 0.0 1.1040242255515049e-06 0.0 0.010011237345757328 0.009998531434377738 0.0 8.599112688477883e-07 0.0 0.01 0.0 8.599112688478967e-07 0.0 0.010010078827605177 0.010005167112631417 0.0 -2.653063052999701e-07 0.0 0.01 0.0 -2.653063052999701e-07 0.0 0.010009075851251936 0.00999336713625192 0.0 4.5584634616682327e-07 0.0 0.01 0.0 4.558463461668775e-07 0.0 0.010011058397318976 0.009993257925455908 0.0 8.203878135317312e-07 0.0 0.01 0.0 8.203878135317855e-07 0.0 0.010011221611206307 0.009993003564526256 0.0 1.197441604339558e-06 0.0 0.01 0.0 1.197441604339558e-06 0.0 0.010011414277787583 0.009993311516701402 0.0 1.4148095628185127e-06 0.0 0.01 0.0 1.4148095628184042e-06 0.0 0.010011196325248769 0.009994973032918358 0.0 1.2644308719471234e-06 0.0 0.01 0.0 1.2644308719471234e-06 0.0 0.0100101082953475 0.00999926462592114 0.0 5.467781993313955e-07 0.0 0.01 0.0 5.467781993313955e-07 0.0 0.010009513102405297 0.009993746474012041 0.0 8.290621686725961e-07 0.0 0.01 0.0 8.290621686725961e-07 0.0 0.01001052399278131 0.009993352868645925 0.0 1.2517519834300255e-06 0.0 0.01 0.0 1.2517519834298087e-06 0.0 0.010010712724384375 0.009993323573540967 0.0 1.5942694798331408e-06 0.0 0.01 0.0 1.5942694798331408e-06 0.0 0.010010825082520552 0.009994221899274437 0.0 1.607026651376459e-06 0.0 0.01 0.0 1.6070266513766758e-06 0.0 0.010010288693444568 0.009996932575221867 0.0 1.0435782402715794e-06 0.0 0.01 0.0 1.0435782402715794e-06 0.0 0.010009730145961189 0.01000122391103537 0.0 -4.928431165163215e-07 0.0 0.01 0.0 -4.928431165163215e-07 0.0 0.010009062139829817 0.009993928290361886 0.0 1.3063019051202246e-06 0.0 0.01 0.0 1.3063019051200078e-06 0.0 0.01001012300604769 0.009993936455539813 0.0 1.7048771926749928e-06 0.0 0.01 0.0 1.7048771926752096e-06 0.0 0.010010400438031732 0.0099948554745132 0.0 1.8291636383058803e-06 0.0 0.01 0.0 1.8291636383056635e-06 0.0 0.010010433807789834 0.00999683677787441 0.0 1.3576429114124829e-06 0.0 0.01 0.0 1.3576429114124829e-06 0.0 0.010009973677179252 0.010000182154992064 0.0 1.004585952513282e-08 0.0 0.01 0.0 1.0045859525131126e-08 0.0 0.010009818140492142 0.009994732646593216 0.0 1.7923596170746434e-06 0.0 0.01 0.0 1.7923596170746434e-06 0.0 0.010010020422167006 0.009995930064817447 0.0 1.9646571868961807e-06 0.0 0.01 0.0 1.9646571868961807e-06 0.0 0.010010339842472684 0.009998296788358401 0.0 1.5350445346626242e-06 0.0 0.01 0.0 1.535044534662841e-06 0.0 0.01001050809237102 0.010000651919554402 0.0 1.969591545121854e-07 0.0 0.01 0.0 1.969591545122125e-07 0.0 0.010010127670509662 0.009997245221295345 0.0 1.9713167680899743e-06 0.0 0.01 0.0 1.971316768090191e-06 0.0 0.010010115007893637 0.009999471399891081 0.0 1.545797825020824e-06 0.0 0.01 0.0 1.5457978250210409e-06 0.0 0.010010448861471911 0.01000223415503664 0.0 2.0905443387107727e-07 0.0 0.01 0.0 2.0905443387102306e-07 0.0 0.01001072819600133 0.0100017309026667 0.0 -1.7399717994765612e-06 0.0 0.01 0.0 -1.7399717994761275e-06 0.0 0.010009080656713378 0.010000352294544759 0.0 1.2281418573813468e-06 0.0 0.01 0.0 1.2281418573813468e-06 0.0 0.010009948150829865 0.01000181299294067 0.0 1.1060614987644068e-08 0.0 0.01 0.0 1.1060614987644068e-08 0.0 0.010010101234672001 0.010000693453551146 0.0 -4.5804417639707957e-07 0.0 0.01 0.0 -4.5804417639707957e-07 0.0 0.010009236913732884 
