# vtk DataFile Version 3.0
Test VTK file for Force data
ASCII
DATASET POLYDATA
POINTS 2975 float
-0.22 0.0099999998 -0.38
-0.22 0.0099999998 -0.36000001
-0.2 0.0099999998 -0.40000001
-0.2 0.0099999998 -0.38
-0.2 0.0099999998 -0.36000001
-0.18000001 0.0099999998 -0.40000001
-0.18000001 0.0099999998 -0.38
-0.18000001 0.0099999998 -0.36000001
-0.16 0.0099999998 -0.40000001
-0.16 0.0099999998 -0.38
-0.16 0.0099999998 -0.36000001
-0.14 0.0099999998 -0.40000001
-0.14 0.0099999998 -0.38
-0.14 0.0099999998 -0.36000001
-0.12 0.0099999998 -0.40000001
-0.12 0.0099999998 -0.38
-0.12 0.0099999998 -0.36000001
-0.1 0.0099999998 -0.40000001
-0.1 0.0099999998 -0.38
-0.1 0.0099999998 -0.36000001
-0.079999998 0.0099999998 -0.40000001
-0.079999998 0.0099999998 -0.38
-0.079999998 0.0099999998 -0.36000001
-0.059999999000000005 0.0099999998 -0.40000001
-0.059999999000000005 0.0099999998 -0.38
-0.059999999000000005 0.0099999998 -0.36000001
-0.039999999 0.0099999998 -0.40000001
-0.039999999 0.0099999998 -0.38
-0.039999999 0.0099999998 -0.36000001
-0.02 0.0099999998 -0.40000001
-0.02 0.0099999998 -0.38
-0.02 0.0099999998 -0.36000001
0.0 0.0099999998 -0.40000001
0.0 0.0099999998 -0.38
0.0 0.0099999998 -0.36000001
0.02 0.0099999998 -0.40000001
0.02 0.0099999998 -0.38
0.02 0.0099999998 -0.36000001
0.039999999 0.0099999998 -0.40000001
0.039999999 0.0099999998 -0.38
0.039999999 0.0099999998 -0.36000001
0.059999999000000005 0.0099999998 -0.40000001
0.059999999000000005 0.0099999998 -0.38
0.059999999000000005 0.0099999998 -0.36000001
0.079999998 0.0099999998 -0.40000001
0.079999998 0.0099999998 -0.38
0.079999998 0.0099999998 -0.36000001
0.1 0.0099999998 -0.40000001
0.1 0.0099999998 -0.38
0.1 0.0099999998 -0.36000001
0.12 0.0099999998 -0.40000001
0.12 0.0099999998 -0.38
0.12 0.0099999998 -0.36000001
0.14 0.0099999998 -0.40000001
0.14 0.0099999998 -0.38
0.14 0.0099999998 -0.36000001
0.16 0.0099999998 -0.40000001
0.16 0.0099999998 -0.38
0.16 0.0099999998 -0.36000001
0.18000001 0.0099999998 -0.40000001
0.18000001 0.0099999998 -0.38
0.18000001 0.0099999998 -0.36000001
0.2 0.0099999998 -0.38
0.2 0.0099999998 -0.36000001
-0.22 0.0099999998 -0.34
-0.22 0.0099999998 -0.31999999
-0.22 0.0099999998 -0.30000001
-0.22 0.0099999998 -0.28
-0.22 0.0099999998 -0.25999999
-0.22 0.0099999998 -0.23999999
-0.22 0.0099999998 -0.22
-0.22 0.0099999998 -0.2
-0.2 0.0099999998 -0.34
-0.2 0.0099999998 -0.31999999
-0.2 0.0099999998 -0.30000001
-0.2 0.0099999998 -0.28
-0.2 0.0099999998 -0.25999999
-0.2 0.0099999998 -0.23999999
-0.2 0.0099999998 -0.22
-0.2 0.0099999998 -0.2
-0.18000001 0.0099999998 -0.34
-0.18000001 0.0099999998 -0.31999999
-0.18000001 0.0099999998 -0.30000001
-0.18000001 0.0099999998 -0.28
-0.18000001 0.0099999998 -0.25999999
-0.18000001 0.0099999998 -0.23999999
-0.18000001 0.0099999998 -0.22
-0.18000001 0.0099999998 -0.2
-0.16 0.0099999998 -0.34
-0.16 0.0099999998 -0.31999999
-0.16 0.0099999998 -0.30000001
-0.16 0.0099999998 -0.28
-0.16 0.0099999998 -0.25999999
-0.16 0.0099999998 -0.23999999
-0.16 0.0099999998 -0.22
-0.16 0.0099999998 -0.2
-0.14 0.0099999998 -0.34
-0.14 0.0099999998 -0.31999999
-0.14 0.0099999998 -0.30000001
-0.14 0.0099999998 -0.28
-0.14 0.0099999998 -0.25999999
-0.14 0.0099999998 -0.23999999
-0.14 0.0099999998 -0.22
-0.14 0.0099999998 -0.2
-0.12 0.0099999998 -0.34
-0.12 0.0099999998 -0.31999999
-0.12 0.0099999998 -0.30000001
-0.12 0.0099999998 -0.28
-0.12 0.0099999998 -0.25999999
-0.12 0.0099999998 -0.23999999
-0.12 0.0099999998 -0.22
-0.12 0.0099999998 -0.2
-0.1 0.0099999998 -0.34
-0.1 0.0099999998 -0.31999999
-0.1 0.0099999998 -0.30000001
-0.1 0.0099999998 -0.28
-0.1 0.0099999998 -0.25999999
-0.1 0.0099999998 -0.23999999
-0.1 0.0099999998 -0.22
-0.1 0.0099999998 -0.2
-0.079999998 0.0099999998 -0.34
-0.079999998 0.0099999998 -0.31999999
-0.079999998 0.0099999998 -0.30000001
-0.079999998 0.0099999998 -0.28
-0.079999998 0.0099999998 -0.25999999
-0.079999998 0.0099999998 -0.23999999
-0.079999998 0.0099999998 -0.22
-0.079999998 0.0099999998 -0.2
-0.059999999000000005 0.0099999998 -0.34
-0.059999999000000005 0.0099999998 -0.31999999
-0.059999999000000005 0.0099999998 -0.30000001
-0.059999999000000005 0.0099999998 -0.28
-0.059999999000000005 0.0099999998 -0.25999999
-0.059999999000000005 0.0099999998 -0.23999999
-0.059999999000000005 0.0099999998 -0.22
-0.059999999000000005 0.0099999998 -0.2
-0.039999999 0.0099999998 -0.34
-0.039999999 0.0099999998 -0.31999999
-0.039999999 0.0099999998 -0.30000001
-0.039999999 0.0099999998 -0.28
-0.039999999 0.0099999998 -0.25999999
-0.039999999 0.0099999998 -0.23999999
-0.039999999 0.0099999998 -0.22
-0.039999999 0.0099999998 -0.2
-0.02 0.0099999998 -0.34
-0.02 0.0099999998 -0.31999999
-0.02 0.0099999998 -0.30000001
-0.02 0.0099999998 -0.28
-0.02 0.0099999998 -0.25999999
-0.02 0.0099999998 -0.23999999
-0.02 0.0099999998 -0.22
-0.02 0.0099999998 -0.2
0.0 0.0099999998 -0.34
0.0 0.0099999998 -0.31999999
0.0 0.0099999998 -0.30000001
0.02 0.0099999998 -0.34
0.02 0.0099999998 -0.31999999
0.039999999 0.0099999998 -0.34
0.039999999 0.0099999998 -0.31999999
0.059999999000000005 0.0099999998 -0.34
0.059999999000000005 0.0099999998 -0.31999999
0.079999998 0.0099999998 -0.34
0.079999998 0.0099999998 -0.31999999
0.1 0.0099999998 -0.34
0.1 0.0099999998 -0.31999999
0.12 0.0099999998 -0.34
0.12 0.0099999998 -0.31999999
0.14 0.0099999998 -0.34
0.14 0.0099999998 -0.31999999
0.16 0.0099999998 -0.34
0.16 0.0099999998 -0.31999999
0.18000001 0.0099999998 -0.34
0.18000001 0.0099999998 -0.31999999
0.2 0.0099999998 -0.34
0.2 0.0099999998 -0.31999999
-0.22 0.0099999998 -0.18000001
-0.22 0.0099999998 -0.16
-0.22 0.0099999998 -0.14
-0.22 0.0099999998 -0.12
-0.22 0.0099999998 -0.1
-0.22 0.0099999998 -0.079999998
-0.22 0.0099999998 -0.059999999000000005
-0.22 0.0099999998 -0.039999999
-0.22 0.0099999998 -0.02
-0.2 0.0099999998 -0.18000001
-0.2 0.0099999998 -0.16
-0.2 0.0099999998 -0.14
-0.2 0.0099999998 -0.12
-0.2 0.0099999998 -0.1
-0.2 0.0099999998 -0.079999998
-0.2 0.0099999998 -0.059999999000000005
-0.2 0.0099999998 -0.039999999
-0.2 0.0099999998 -0.02
-0.18000001 0.0099999998 -0.18000001
-0.18000001 0.0099999998 -0.16
-0.18000001 0.0099999998 -0.14
-0.18000001 0.0099999998 -0.12
-0.18000001 0.0099999998 -0.1
-0.18000001 0.0099999998 -0.079999998
-0.18000001 0.0099999998 -0.059999999000000005
-0.18000001 0.0099999998 -0.039999999
-0.18000001 0.0099999998 -0.02
-0.16 0.0099999998 -0.18000001
-0.16 0.0099999998 -0.16
-0.16 0.0099999998 -0.14
-0.16 0.0099999998 -0.12
-0.16 0.0099999998 -0.1
-0.16 0.0099999998 -0.079999998
-0.16 0.0099999998 -0.059999999000000005
-0.16 0.0099999998 -0.039999999
-0.16 0.0099999998 -0.02
-0.14 0.0099999998 -0.18000001
-0.14 0.0099999998 -0.16
-0.14 0.0099999998 -0.14
-0.14 0.0099999998 -0.12
-0.14 0.0099999998 -0.1
-0.14 0.0099999998 -0.079999998
-0.14 0.0099999998 -0.059999999000000005
-0.14 0.0099999998 -0.039999999
-0.14 0.0099999998 -0.02
-0.12 0.0099999998 -0.18000001
-0.12 0.0099999998 -0.16
-0.12 0.0099999998 -0.14
-0.12 0.0099999998 -0.12
-0.12 0.0099999998 -0.1
-0.12 0.0099999998 -0.079999998
-0.12 0.0099999998 -0.059999999000000005
-0.12 0.0099999998 -0.039999999
-0.12 0.0099999998 -0.02
-0.1 0.0099999998 -0.18000001
-0.1 0.0099999998 -0.16
-0.1 0.0099999998 -0.14
-0.1 0.0099999998 -0.12
-0.1 0.0099999998 -0.1
-0.1 0.0099999998 -0.079999998
-0.1 0.0099999998 -0.059999999000000005
-0.1 0.0099999998 -0.039999999
-0.1 0.0099999998 -0.02
-0.079999998 0.0099999998 -0.18000001
-0.079999998 0.0099999998 -0.16
-0.079999998 0.0099999998 -0.14
-0.079999998 0.0099999998 -0.12
-0.079999998 0.0099999998 -0.1
-0.079999998 0.0099999998 -0.079999998
-0.079999998 0.0099999998 -0.059999999000000005
-0.079999998 0.0099999998 -0.039999999
-0.079999998 0.0099999998 -0.02
-0.059999999000000005 0.0099999998 -0.18000001
-0.059999999000000005 0.0099999998 -0.16
-0.059999999000000005 0.0099999998 -0.14
-0.059999999000000005 0.0099999998 -0.12
-0.059999999000000005 0.0099999998 -0.1
-0.059999999000000005 0.0099999998 -0.079999998
-0.059999999000000005 0.0099999998 -0.059999999000000005
-0.059999999000000005 0.0099999998 -0.039999999
-0.059999999000000005 0.0099999998 -0.02
-0.039999999 0.0099999998 -0.18000001
-0.039999999 0.0099999998 -0.16
-0.039999999 0.0099999998 -0.14
-0.039999999 0.0099999998 -0.12
-0.039999999 0.0099999998 -0.1
-0.039999999 0.0099999998 -0.079999998
-0.039999999 0.0099999998 -0.059999999000000005
-0.039999999 0.0099999998 -0.039999999
-0.039999999 0.0099999998 -0.02
-0.02 0.0099999998 -0.18000001
-0.02 0.0099999998 -0.16
-0.02 0.0099999998 -0.14
-0.02 0.0099999998 -0.12
-0.02 0.0099999998 -0.1
-0.02 0.0099999998 -0.079999998
-0.02 0.0099999998 -0.059999999000000005
-0.02 0.0099999998 -0.039999999
-0.02 0.0099999998 -0.02
-0.22 0.0099999998 0.0
-0.22 0.0099999998 0.02
-0.22 0.0099999998 0.039999999
-0.22 0.0099999998 0.059999999000000005
-0.22 0.0099999998 0.079999998
-0.22 0.0099999998 0.1
-0.22 0.0099999998 0.12
-0.22 0.0099999998 0.14
-0.2 0.0099999998 0.0
-0.2 0.0099999998 0.02
-0.2 0.0099999998 0.039999999
-0.2 0.0099999998 0.059999999000000005
-0.2 0.0099999998 0.079999998
-0.2 0.0099999998 0.1
-0.2 0.0099999998 0.12
-0.2 0.0099999998 0.14
-0.18000001 0.0099999998 0.0
-0.18000001 0.0099999998 0.02
-0.18000001 0.0099999998 0.039999999
-0.18000001 0.0099999998 0.059999999000000005
-0.18000001 0.0099999998 0.079999998
-0.18000001 0.0099999998 0.1
-0.18000001 0.0099999998 0.12
-0.18000001 0.0099999998 0.14
-0.16 0.0099999998 0.0
-0.16 0.0099999998 0.02
-0.16 0.0099999998 0.039999999
-0.16 0.0099999998 0.059999999000000005
-0.16 0.0099999998 0.079999998
-0.16 0.0099999998 0.1
-0.16 0.0099999998 0.12
-0.16 0.0099999998 0.14
-0.14 0.0099999998 0.0
-0.14 0.0099999998 0.02
-0.14 0.0099999998 0.039999999
-0.14 0.0099999998 0.059999999000000005
-0.14 0.0099999998 0.079999998
-0.14 0.0099999998 0.1
-0.14 0.0099999998 0.12
-0.14 0.0099999998 0.14
-0.12 0.0099999998 0.0
-0.12 0.0099999998 0.02
-0.12 0.0099999998 0.039999999
-0.12 0.0099999998 0.059999999000000005
-0.12 0.0099999998 0.079999998
-0.12 0.0099999998 0.1
-0.12 0.0099999998 0.12
-0.12 0.0099999998 0.14
-0.1 0.0099999998 0.0
-0.1 0.0099999998 0.02
-0.1 0.0099999998 0.039999999
-0.1 0.0099999998 0.059999999000000005
-0.1 0.0099999998 0.079999998
-0.1 0.0099999998 0.1
-0.1 0.0099999998 0.12
-0.1 0.0099999998 0.14
-0.079999998 0.0099999998 0.0
-0.079999998 0.0099999998 0.02
-0.079999998 0.0099999998 0.039999999
-0.079999998 0.0099999998 0.059999999000000005
-0.079999998 0.0099999998 0.079999998
-0.079999998 0.0099999998 0.1
-0.079999998 0.0099999998 0.12
-0.079999998 0.0099999998 0.14
-0.059999999000000005 0.0099999998 0.0
-0.059999999000000005 0.0099999998 0.02
-0.059999999000000005 0.0099999998 0.039999999
-0.059999999000000005 0.0099999998 0.059999999000000005
-0.059999999000000005 0.0099999998 0.079999998
-0.059999999000000005 0.0099999998 0.1
-0.059999999000000005 0.0099999998 0.12
-0.059999999000000005 0.0099999998 0.14
-0.039999999 0.0099999998 0.0
-0.039999999 0.0099999998 0.02
-0.039999999 0.0099999998 0.039999999
-0.039999999 0.0099999998 0.059999999000000005
-0.039999999 0.0099999998 0.079999998
-0.039999999 0.0099999998 0.1
-0.039999999 0.0099999998 0.12
-0.039999999 0.0099999998 0.14
-0.02 0.0099999998 0.0
-0.02 0.0099999998 0.02
-0.02 0.0099999998 0.039999999
-0.02 0.0099999998 0.059999999000000005
-0.02 0.0099999998 0.079999998
-0.02 0.0099999998 0.1
-0.02 0.0099999998 0.12
-0.02 0.0099999998 0.14
-0.22 0.0099999998 0.16
-0.22 0.0099999998 0.18000001
-0.22 0.0099999998 0.2
-0.22 0.0099999998 0.22
-0.22 0.0099999998 0.23999999
-0.22 0.0099999998 0.25999999
-0.22 0.0099999998 0.28
-0.22 0.0099999998 0.30000001
-0.22 0.0099999998 0.31999999
-0.2 0.0099999998 0.16
-0.2 0.0099999998 0.18000001
-0.2 0.0099999998 0.2
-0.2 0.0099999998 0.22
-0.2 0.0099999998 0.23999999
-0.2 0.0099999998 0.25999999
-0.2 0.0099999998 0.28
-0.2 0.0099999998 0.30000001
-0.2 0.0099999998 0.31999999
-0.18000001 0.0099999998 0.16
-0.18000001 0.0099999998 0.18000001
-0.18000001 0.0099999998 0.2
-0.18000001 0.0099999998 0.22
-0.18000001 0.0099999998 0.23999999
-0.18000001 0.0099999998 0.25999999
-0.18000001 0.0099999998 0.28
-0.18000001 0.0099999998 0.30000001
-0.18000001 0.0099999998 0.31999999
-0.16 0.0099999998 0.16
-0.16 0.0099999998 0.18000001
-0.16 0.0099999998 0.2
-0.16 0.0099999998 0.22
-0.16 0.0099999998 0.23999999
-0.16 0.0099999998 0.25999999
-0.16 0.0099999998 0.28
-0.16 0.0099999998 0.30000001
-0.16 0.0099999998 0.31999999
-0.14 0.0099999998 0.16
-0.14 0.0099999998 0.18000001
-0.14 0.0099999998 0.2
-0.14 0.0099999998 0.22
-0.14 0.0099999998 0.23999999
-0.14 0.0099999998 0.25999999
-0.14 0.0099999998 0.28
-0.14 0.0099999998 0.30000001
-0.14 0.0099999998 0.31999999
-0.12 0.0099999998 0.16
-0.12 0.0099999998 0.18000001
-0.12 0.0099999998 0.2
-0.12 0.0099999998 0.22
-0.12 0.0099999998 0.23999999
-0.12 0.0099999998 0.25999999
-0.12 0.0099999998 0.28
-0.12 0.0099999998 0.30000001
-0.12 0.0099999998 0.31999999
-0.1 0.0099999998 0.16
-0.1 0.0099999998 0.18000001
-0.1 0.0099999998 0.2
-0.1 0.0099999998 0.22
-0.1 0.0099999998 0.23999999
-0.1 0.0099999998 0.25999999
-0.1 0.0099999998 0.28
-0.1 0.0099999998 0.30000001
-0.1 0.0099999998 0.31999999
-0.079999998 0.0099999998 0.16
-0.079999998 0.0099999998 0.18000001
-0.079999998 0.0099999998 0.2
-0.079999998 0.0099999998 0.22
-0.079999998 0.0099999998 0.23999999
-0.079999998 0.0099999998 0.25999999
-0.079999998 0.0099999998 0.28
-0.079999998 0.0099999998 0.30000001
-0.079999998 0.0099999998 0.31999999
-0.059999999000000005 0.0099999998 0.16
-0.059999999000000005 0.0099999998 0.18000001
-0.059999999000000005 0.0099999998 0.2
-0.059999999000000005 0.0099999998 0.22
-0.059999999000000005 0.0099999998 0.23999999
-0.059999999000000005 0.0099999998 0.25999999
-0.059999999000000005 0.0099999998 0.28
-0.059999999000000005 0.0099999998 0.30000001
-0.059999999000000005 0.0099999998 0.31999999
-0.039999999 0.0099999998 0.16
-0.039999999 0.0099999998 0.18000001
-0.039999999 0.0099999998 0.2
-0.039999999 0.0099999998 0.22
-0.039999999 0.0099999998 0.23999999
-0.039999999 0.0099999998 0.25999999
-0.039999999 0.0099999998 0.28
-0.039999999 0.0099999998 0.30000001
-0.039999999 0.0099999998 0.31999999
-0.02 0.0099999998 0.16
-0.02 0.0099999998 0.18000001
-0.02 0.0099999998 0.2
-0.02 0.0099999998 0.22
-0.02 0.0099999998 0.23999999
-0.02 0.0099999998 0.25999999
-0.02 0.0099999998 0.28
-0.02 0.0099999998 0.30000001
-0.02 0.0099999998 0.31999999
0.0 0.0099999998 0.30000001
0.0 0.0099999998 0.31999999
0.02 0.0099999998 0.31999999
0.039999999 0.0099999998 0.31999999
0.059999999000000005 0.0099999998 0.31999999
0.079999998 0.0099999998 0.31999999
0.1 0.0099999998 0.31999999
0.12 0.0099999998 0.31999999
0.14 0.0099999998 0.31999999
0.16 0.0099999998 0.31999999
0.18000001 0.0099999998 0.31999999
0.2 0.0099999998 0.31999999
-0.22 0.0099999998 0.34
-0.22 0.0099999998 0.36000001
-0.22 0.0099999998 0.38
-0.2 0.0099999998 0.34
-0.2 0.0099999998 0.36000001
-0.2 0.0099999998 0.38
-0.2 0.0099999998 0.40000001
-0.18000001 0.0099999998 0.34
-0.18000001 0.0099999998 0.36000001
-0.18000001 0.0099999998 0.38
-0.18000001 0.0099999998 0.40000001
-0.16 0.0099999998 0.34
-0.16 0.0099999998 0.36000001
-0.16 0.0099999998 0.38
-0.16 0.0099999998 0.40000001
-0.14 0.0099999998 0.34
-0.14 0.0099999998 0.36000001
-0.14 0.0099999998 0.38
-0.14 0.0099999998 0.40000001
-0.12 0.0099999998 0.34
-0.12 0.0099999998 0.36000001
-0.12 0.0099999998 0.38
-0.12 0.0099999998 0.40000001
-0.1 0.0099999998 0.34
-0.1 0.0099999998 0.36000001
-0.1 0.0099999998 0.38
-0.1 0.0099999998 0.40000001
-0.079999998 0.0099999998 0.34
-0.079999998 0.0099999998 0.36000001
-0.079999998 0.0099999998 0.38
-0.079999998 0.0099999998 0.40000001
-0.059999999000000005 0.0099999998 0.34
-0.059999999000000005 0.0099999998 0.36000001
-0.059999999000000005 0.0099999998 0.38
-0.059999999000000005 0.0099999998 0.40000001
-0.039999999 0.0099999998 0.34
-0.039999999 0.0099999998 0.36000001
-0.039999999 0.0099999998 0.38
-0.039999999 0.0099999998 0.40000001
-0.02 0.0099999998 0.34
-0.02 0.0099999998 0.36000001
-0.02 0.0099999998 0.38
-0.02 0.0099999998 0.40000001
0.0 0.0099999998 0.34
0.0 0.0099999998 0.36000001
0.0 0.0099999998 0.38
0.0 0.0099999998 0.40000001
0.02 0.0099999998 0.34
0.02 0.0099999998 0.36000001
0.02 0.0099999998 0.38
0.02 0.0099999998 0.40000001
0.039999999 0.0099999998 0.34
0.039999999 0.0099999998 0.36000001
0.039999999 0.0099999998 0.38
0.039999999 0.0099999998 0.40000001
0.059999999000000005 0.0099999998 0.34
0.059999999000000005 0.0099999998 0.36000001
0.059999999000000005 0.0099999998 0.38
0.059999999000000005 0.0099999998 0.40000001
0.079999998 0.0099999998 0.34
0.079999998 0.0099999998 0.36000001
0.079999998 0.0099999998 0.38
0.079999998 0.0099999998 0.40000001
0.1 0.0099999998 0.34
0.1 0.0099999998 0.36000001
0.1 0.0099999998 0.38
0.1 0.0099999998 0.40000001
0.12 0.0099999998 0.34
0.12 0.0099999998 0.36000001
0.12 0.0099999998 0.38
0.12 0.0099999998 0.40000001
0.14 0.0099999998 0.34
0.14 0.0099999998 0.36000001
0.14 0.0099999998 0.38
0.14 0.0099999998 0.40000001
0.16 0.0099999998 0.34
0.16 0.0099999998 0.36000001
0.16 0.0099999998 0.38
0.16 0.0099999998 0.40000001
0.18000001 0.0099999998 0.34
0.18000001 0.0099999998 0.36000001
0.18000001 0.0099999998 0.38
0.18000001 0.0099999998 0.40000001
0.2 0.0099999998 0.34
0.2 0.0099999998 0.36000001
0.2 0.0099999998 0.38
1.92 0.0099999998 -0.36000001
1.92 0.0099999998 -0.34
1.92 0.0099999998 -0.31999999
1.9400001 0.0099999998 -0.38
1.9400001 0.0099999998 -0.36000001
1.9400001 0.0099999998 -0.34
1.9400001 0.0099999998 -0.31999999
1.9400001 0.0099999998 -0.30000001
1.9400001 0.0099999998 -0.28
1.9400001 0.0099999998 -0.25999999
1.9400001 0.0099999998 -0.23999999
1.9400001 0.0099999998 -0.22
1.96 0.0099999998 -0.38
1.96 0.0099999998 -0.36000001
1.96 0.0099999998 -0.34
1.96 0.0099999998 -0.31999999
1.96 0.0099999998 -0.30000001
1.96 0.0099999998 -0.28
1.96 0.0099999998 -0.25999999
1.96 0.0099999998 -0.23999999
1.96 0.0099999998 -0.22
1.96 0.0099999998 -0.2
1.96 0.0099999998 -0.18000001
1.96 0.0099999998 -0.16
1.96 0.0099999998 -0.14
1.96 0.0099999998 -0.12
1.98 0.0099999998 -0.38
1.98 0.0099999998 -0.36000001
1.98 0.0099999998 -0.34
1.98 0.0099999998 -0.31999999
1.98 0.0099999998 -0.30000001
1.98 0.0099999998 -0.28
1.98 0.0099999998 -0.25999999
1.98 0.0099999998 -0.23999999
1.98 0.0099999998 -0.22
1.98 0.0099999998 -0.2
1.98 0.0099999998 -0.18000001
1.98 0.0099999998 -0.16
1.98 0.0099999998 -0.14
1.98 0.0099999998 -0.12
1.98 0.0099999998 -0.1
1.98 0.0099999998 -0.079999998
1.98 0.0099999998 -0.059999999000000005
1.98 0.0099999998 -0.039999999
1.98 0.0099999998 -0.02
2.0 0.0099999998 -0.38
2.0 0.0099999998 -0.36000001
2.0 0.0099999998 -0.34
2.0 0.0099999998 -0.31999999
2.0 0.0099999998 -0.30000001
2.0 0.0099999998 -0.28
2.0 0.0099999998 -0.25999999
2.0 0.0099999998 -0.23999999
2.0 0.0099999998 -0.22
2.0 0.0099999998 -0.2
2.0 0.0099999998 -0.18000001
2.0 0.0099999998 -0.16
2.0 0.0099999998 -0.14
2.0 0.0099999998 -0.12
2.0 0.0099999998 -0.1
2.0 0.0099999998 -0.079999998
2.0 0.0099999998 -0.059999999000000005
2.0 0.0099999998 -0.039999999
2.0 0.0099999998 -0.02
2.0 0.0099999998 0.0
2.0 0.0099999998 0.02
2.0 0.0099999998 0.039999999
2.0 0.0099999998 0.059999999000000005
2.0 0.0099999998 0.079999998
2.02 0.0099999998 -0.40000001
2.02 0.0099999998 -0.38
2.02 0.0099999998 -0.36000001
2.02 0.0099999998 -0.34
2.02 0.0099999998 -0.31999999
2.02 0.0099999998 -0.30000001
2.02 0.0099999998 -0.28
2.02 0.0099999998 -0.25999999
2.02 0.0099999998 -0.23999999
2.02 0.0099999998 -0.22
2.02 0.0099999998 -0.2
2.02 0.0099999998 -0.18000001
2.02 0.0099999998 -0.16
2.02 0.0099999998 -0.14
2.02 0.0099999998 -0.12
2.02 0.0099999998 -0.1
2.02 0.0099999998 -0.079999998
2.02 0.0099999998 -0.059999999000000005
2.02 0.0099999998 -0.039999999
2.02 0.0099999998 -0.02
2.02 0.0099999998 0.0
2.02 0.0099999998 0.02
2.02 0.0099999998 0.039999999
2.02 0.0099999998 0.059999999000000005
2.02 0.0099999998 0.079999998
2.02 0.0099999998 0.1
2.02 0.0099999998 0.12
2.02 0.0099999998 0.14
2.02 0.0099999998 0.16
2.02 0.0099999998 0.18000001
2.04 0.0099999998 -0.40000001
2.04 0.0099999998 -0.38
2.04 0.0099999998 -0.36000001
2.04 0.0099999998 -0.34
2.04 0.0099999998 -0.31999999
2.04 0.0099999998 -0.30000001
2.04 0.0099999998 -0.28
2.04 0.0099999998 -0.25999999
2.04 0.0099999998 -0.23999999
2.04 0.0099999998 -0.22
2.04 0.0099999998 -0.2
2.04 0.0099999998 -0.18000001
2.04 0.0099999998 -0.16
2.04 0.0099999998 -0.14
2.04 0.0099999998 -0.12
2.04 0.0099999998 -0.1
2.04 0.0099999998 -0.079999998
2.04 0.0099999998 -0.059999999000000005
2.04 0.0099999998 -0.039999999
2.04 0.0099999998 -0.02
2.04 0.0099999998 0.0
2.04 0.0099999998 0.02
2.04 0.0099999998 0.039999999
2.04 0.0099999998 0.059999999000000005
2.04 0.0099999998 0.079999998
2.04 0.0099999998 0.1
2.04 0.0099999998 0.12
2.04 0.0099999998 0.14
2.04 0.0099999998 0.16
2.04 0.0099999998 0.18000001
2.04 0.0099999998 0.2
2.04 0.0099999998 0.22
2.04 0.0099999998 0.23999999
2.04 0.0099999998 0.25999999
2.04 0.0099999998 0.28
2.0599998999999998 0.0099999998 -0.40000001
2.0599998999999998 0.0099999998 -0.38
2.0599998999999998 0.0099999998 -0.36000001
2.0599998999999998 0.0099999998 -0.34
2.0599998999999998 0.0099999998 -0.31999999
2.0599998999999998 0.0099999998 -0.30000001
2.0599998999999998 0.0099999998 -0.28
2.0599998999999998 0.0099999998 -0.25999999
2.0599998999999998 0.0099999998 -0.23999999
2.0599998999999998 0.0099999998 -0.22
2.0599998999999998 0.0099999998 -0.2
2.0599998999999998 0.0099999998 -0.18000001
2.0599998999999998 0.0099999998 -0.16
2.0599998999999998 0.0099999998 -0.14
2.0599998999999998 0.0099999998 -0.12
2.0599998999999998 0.0099999998 -0.1
2.0599998999999998 0.0099999998 -0.079999998
2.0599998999999998 0.0099999998 -0.059999999000000005
2.0599998999999998 0.0099999998 -0.039999999
2.0599998999999998 0.0099999998 -0.02
2.0599998999999998 0.0099999998 0.0
2.0599998999999998 0.0099999998 0.02
2.0599998999999998 0.0099999998 0.039999999
2.0599998999999998 0.0099999998 0.059999999000000005
2.0599998999999998 0.0099999998 0.079999998
2.0599998999999998 0.0099999998 0.1
2.0599998999999998 0.0099999998 0.12
2.0599998999999998 0.0099999998 0.14
2.0599998999999998 0.0099999998 0.16
2.0599998999999998 0.0099999998 0.18000001
2.0599998999999998 0.0099999998 0.2
2.0599998999999998 0.0099999998 0.22
2.0599998999999998 0.0099999998 0.23999999
2.0599998999999998 0.0099999998 0.25999999
2.0599998999999998 0.0099999998 0.28
2.0599998999999998 0.0099999998 0.30000001
2.0599998999999998 0.0099999998 0.31999999
2.0599998999999998 0.0099999998 0.34
2.0599998999999998 0.0099999998 0.36000001
2.0599998999999998 0.0099999998 0.38
2.0799999 0.0099999998 -0.40000001
2.0799999 0.0099999998 -0.38
2.0799999 0.0099999998 -0.36000001
2.0799999 0.0099999998 -0.34
2.0799999 0.0099999998 -0.31999999
2.0799999 0.0099999998 -0.30000001
2.0799999 0.0099999998 -0.28
2.0799999 0.0099999998 -0.25999999
2.0799999 0.0099999998 -0.23999999
2.0799999 0.0099999998 -0.22
2.0799999 0.0099999998 -0.2
2.0799999 0.0099999998 -0.18000001
2.0799999 0.0099999998 -0.16
2.0799999 0.0099999998 -0.14
2.0799999 0.0099999998 -0.12
2.0799999 0.0099999998 -0.1
2.0799999 0.0099999998 -0.079999998
2.0799999 0.0099999998 -0.059999999000000005
2.0799999 0.0099999998 -0.039999999
2.0799999 0.0099999998 -0.02
2.0799999 0.0099999998 0.0
2.0799999 0.0099999998 0.02
2.0799999 0.0099999998 0.039999999
2.0799999 0.0099999998 0.059999999000000005
2.0799999 0.0099999998 0.079999998
2.0799999 0.0099999998 0.1
2.0799999 0.0099999998 0.12
2.0799999 0.0099999998 0.14
2.0799999 0.0099999998 0.16
2.0799999 0.0099999998 0.18000001
2.0799999 0.0099999998 0.2
2.0799999 0.0099999998 0.22
2.0799999 0.0099999998 0.23999999
2.0799999 0.0099999998 0.25999999
2.0799999 0.0099999998 0.28
2.0799999 0.0099999998 0.30000001
2.0799999 0.0099999998 0.31999999
2.0799999 0.0099999998 0.34
2.0799999 0.0099999998 0.36000001
2.0799999 0.0099999998 0.38
2.0799999 0.0099999998 0.40000001
2.0999999 0.0099999998 -0.40000001
2.0999999 0.0099999998 -0.38
2.0999999 0.0099999998 -0.36000001
2.0999999 0.0099999998 -0.34
2.0999999 0.0099999998 -0.31999999
2.0999999 0.0099999998 -0.30000001
2.0999999 0.0099999998 -0.28
2.0999999 0.0099999998 -0.25999999
2.0999999 0.0099999998 -0.23999999
2.0999999 0.0099999998 -0.22
2.0999999 0.0099999998 -0.2
2.0999999 0.0099999998 -0.18000001
2.0999999 0.0099999998 -0.16
2.0999999 0.0099999998 -0.14
2.0999999 0.0099999998 -0.12
2.0999999 0.0099999998 -0.1
2.0999999 0.0099999998 -0.079999998
2.0999999 0.0099999998 -0.059999999000000005
2.0999999 0.0099999998 -0.039999999
2.0999999 0.0099999998 -0.02
2.0999999 0.0099999998 0.0
2.0999999 0.0099999998 0.02
2.0999999 0.0099999998 0.039999999
2.0999999 0.0099999998 0.059999999000000005
2.0999999 0.0099999998 0.079999998
2.0999999 0.0099999998 0.1
2.0999999 0.0099999998 0.12
2.0999999 0.0099999998 0.14
2.0999999 0.0099999998 0.16
2.0999999 0.0099999998 0.18000001
2.0999999 0.0099999998 0.2
2.0999999 0.0099999998 0.22
2.0999999 0.0099999998 0.23999999
2.0999999 0.0099999998 0.25999999
2.0999999 0.0099999998 0.28
2.0999999 0.0099999998 0.30000001
2.0999999 0.0099999998 0.31999999
2.0999999 0.0099999998 0.34
2.0999999 0.0099999998 0.36000001
2.0999999 0.0099999998 0.38
2.0999999 0.0099999998 0.40000001
2.1199999 0.0099999998 -0.41999999
2.1199999 0.0099999998 -0.40000001
2.1199999 0.0099999998 -0.38
2.1199999 0.0099999998 -0.36000001
2.1199999 0.0099999998 -0.34
2.1199999 0.0099999998 -0.31999999
2.1199999 0.0099999998 -0.30000001
2.1199999 0.0099999998 -0.28
2.1199999 0.0099999998 -0.25999999
2.1199999 0.0099999998 -0.23999999
2.1199999 0.0099999998 -0.22
2.1199999 0.0099999998 -0.2
2.1199999 0.0099999998 -0.18000001
2.1199999 0.0099999998 -0.16
2.1199999 0.0099999998 -0.14
2.1199999 0.0099999998 -0.12
2.1199999 0.0099999998 -0.1
2.1199999 0.0099999998 -0.079999998
2.1199999 0.0099999998 -0.059999999000000005
2.1199999 0.0099999998 -0.039999999
2.1199999 0.0099999998 -0.02
2.1199999 0.0099999998 0.0
2.1199999 0.0099999998 0.02
2.1199999 0.0099999998 0.039999999
2.1199999 0.0099999998 0.059999999000000005
2.1199999 0.0099999998 0.079999998
2.1199999 0.0099999998 0.1
2.1199999 0.0099999998 0.12
2.1199999 0.0099999998 0.14
2.1199999 0.0099999998 0.16
2.1199999 0.0099999998 0.18000001
2.1199999 0.0099999998 0.2
2.1199999 0.0099999998 0.22
2.1199999 0.0099999998 0.23999999
2.1199999 0.0099999998 0.25999999
2.1199999 0.0099999998 0.28
2.1199999 0.0099999998 0.30000001
2.1199999 0.0099999998 0.31999999
2.1199999 0.0099999998 0.34
2.1199999 0.0099999998 0.36000001
2.1199999 0.0099999998 0.38
2.1199999 0.0099999998 0.40000001
2.1400001 0.0099999998 -0.38
2.1400001 0.0099999998 -0.36000001
2.1400001 0.0099999998 -0.34
2.1400001 0.0099999998 -0.31999999
2.1400001 0.0099999998 -0.30000001
2.1400001 0.0099999998 -0.28
2.1400001 0.0099999998 -0.25999999
2.1400001 0.0099999998 -0.23999999
2.1400001 0.0099999998 -0.22
2.1400001 0.0099999998 -0.2
2.1400001 0.0099999998 -0.18000001
2.1400001 0.0099999998 -0.16
2.1400001 0.0099999998 -0.14
2.1400001 0.0099999998 -0.12
2.1400001 0.0099999998 -0.1
2.1400001 0.0099999998 -0.079999998
2.1400001 0.0099999998 -0.059999999000000005
2.1400001 0.0099999998 -0.039999999
2.1400001 0.0099999998 -0.02
2.1400001 0.0099999998 0.0
2.1400001 0.0099999998 0.02
2.1400001 0.0099999998 0.039999999
2.1400001 0.0099999998 0.059999999000000005
2.1400001 0.0099999998 0.079999998
2.1400001 0.0099999998 0.1
2.1400001 0.0099999998 0.12
2.1400001 0.0099999998 0.14
2.1400001 0.0099999998 0.16
2.1400001 0.0099999998 0.18000001
2.1400001 0.0099999998 0.2
2.1400001 0.0099999998 0.22
2.1400001 0.0099999998 0.23999999
2.1400001 0.0099999998 0.25999999
2.1400001 0.0099999998 0.28
2.1400001 0.0099999998 0.30000001
2.1400001 0.0099999998 0.31999999
2.1400001 0.0099999998 0.34
2.1400001 0.0099999998 0.36000001
2.1400001 0.0099999998 0.38
2.1400001 0.0099999998 0.40000001
2.1600001 0.0099999998 -0.28
2.1600001 0.0099999998 -0.25999999
2.1600001 0.0099999998 -0.23999999
2.1600001 0.0099999998 -0.22
2.1600001 0.0099999998 -0.2
2.1600001 0.0099999998 -0.18000001
2.1600001 0.0099999998 -0.16
2.1600001 0.0099999998 -0.14
2.1600001 0.0099999998 -0.12
2.1600001 0.0099999998 -0.1
2.1600001 0.0099999998 -0.079999998
2.1600001 0.0099999998 -0.059999999000000005
2.1600001 0.0099999998 -0.039999999
2.1600001 0.0099999998 -0.02
2.1600001 0.0099999998 0.0
2.1600001 0.0099999998 0.02
2.1600001 0.0099999998 0.039999999
2.1600001 0.0099999998 0.059999999000000005
2.1600001 0.0099999998 0.079999998
2.1600001 0.0099999998 0.1
2.1600001 0.0099999998 0.12
2.1600001 0.0099999998 0.14
2.1600001 0.0099999998 0.16
2.1600001 0.0099999998 0.18000001
2.1600001 0.0099999998 0.2
2.1600001 0.0099999998 0.22
2.1600001 0.0099999998 0.23999999
2.1600001 0.0099999998 0.25999999
2.1600001 0.0099999998 0.28
2.1600001 0.0099999998 0.30000001
2.1600001 0.0099999998 0.31999999
2.1600001 0.0099999998 0.34
2.1600001 0.0099999998 0.36000001
2.1600001 0.0099999998 0.38
2.1600001 0.0099999998 0.40000001
2.1800001 0.0099999998 -0.18000001
2.1800001 0.0099999998 -0.16
2.1800001 0.0099999998 -0.14
2.1800001 0.0099999998 -0.12
2.1800001 0.0099999998 -0.1
2.1800001 0.0099999998 -0.079999998
2.1800001 0.0099999998 -0.059999999000000005
2.1800001 0.0099999998 -0.039999999
2.1800001 0.0099999998 -0.02
2.1800001 0.0099999998 0.0
2.1800001 0.0099999998 0.02
2.1800001 0.0099999998 0.039999999
2.1800001 0.0099999998 0.059999999000000005
2.1800001 0.0099999998 0.079999998
2.1800001 0.0099999998 0.1
2.1800001 0.0099999998 0.12
2.1800001 0.0099999998 0.14
2.1800001 0.0099999998 0.16
2.1800001 0.0099999998 0.18000001
2.1800001 0.0099999998 0.2
2.1800001 0.0099999998 0.22
2.1800001 0.0099999998 0.23999999
2.1800001 0.0099999998 0.25999999
2.1800001 0.0099999998 0.28
2.1800001 0.0099999998 0.30000001
2.1800001 0.0099999998 0.31999999
2.1800001 0.0099999998 0.34
2.1800001 0.0099999998 0.36000001
2.1800001 0.0099999998 0.38
2.1800001 0.0099999998 0.40000001
2.2 0.0099999998 -0.079999998
2.2 0.0099999998 -0.059999999000000005
2.2 0.0099999998 -0.039999999
2.2 0.0099999998 -0.02
2.2 0.0099999998 0.0
2.2 0.0099999998 0.02
2.2 0.0099999998 0.039999999
2.2 0.0099999998 0.059999999000000005
2.2 0.0099999998 0.079999998
2.2 0.0099999998 0.1
2.2 0.0099999998 0.12
2.2 0.0099999998 0.14
2.2 0.0099999998 0.16
2.2 0.0099999998 0.18000001
2.2 0.0099999998 0.2
2.2 0.0099999998 0.22
2.2 0.0099999998 0.23999999
2.2 0.0099999998 0.25999999
2.2 0.0099999998 0.28
2.2 0.0099999998 0.30000001
2.2 0.0099999998 0.31999999
2.2 0.0099999998 0.34
2.2 0.0099999998 0.36000001
2.2 0.0099999998 0.38
2.22 0.0099999998 0.02
2.22 0.0099999998 0.039999999
2.22 0.0099999998 0.059999999000000005
2.22 0.0099999998 0.079999998
2.22 0.0099999998 0.1
2.22 0.0099999998 0.12
2.22 0.0099999998 0.14
2.22 0.0099999998 0.16
2.22 0.0099999998 0.18000001
2.22 0.0099999998 0.2
2.22 0.0099999998 0.22
2.22 0.0099999998 0.23999999
2.22 0.0099999998 0.25999999
2.22 0.0099999998 0.28
2.22 0.0099999998 0.30000001
2.22 0.0099999998 0.31999999
2.22 0.0099999998 0.34
2.22 0.0099999998 0.36000001
2.22 0.0099999998 0.38
2.24 0.0099999998 0.12
2.24 0.0099999998 0.14
2.24 0.0099999998 0.16
2.24 0.0099999998 0.18000001
2.24 0.0099999998 0.2
2.24 0.0099999998 0.22
2.24 0.0099999998 0.23999999
2.24 0.0099999998 0.25999999
2.24 0.0099999998 0.28
2.24 0.0099999998 0.30000001
2.24 0.0099999998 0.31999999
2.24 0.0099999998 0.34
2.24 0.0099999998 0.36000001
2.24 0.0099999998 0.38
2.26 0.0099999998 0.22
2.26 0.0099999998 0.23999999
2.26 0.0099999998 0.25999999
2.26 0.0099999998 0.28
2.26 0.0099999998 0.30000001
2.26 0.0099999998 0.31999999
2.26 0.0099999998 0.34
2.26 0.0099999998 0.36000001
2.26 0.0099999998 0.38
2.28 0.0099999998 0.31999999
2.28 0.0099999998 0.34
2.28 0.0099999998 0.36000001
-9.7374331e-10 0.0099999998 -0.28
-1.182203e-09 0.0099999998 -0.25999999
-1.3593044e-09 0.0099999998 -0.23999999
-1.5051894e-09 0.0099999998 -0.22
-1.6247842e-09 0.0099999998 -0.2
0.02 0.0099999998 -0.30000001
0.019999998 0.0099999998 -0.28
0.019999998 0.0099999998 -0.25999999
0.019999998 0.0099999998 -0.23999999
0.019999998 0.0099999998 -0.22
0.019999998 0.0099999998 -0.2
0.039999999 0.0099999998 -0.30000001
0.039999999 0.0099999998 -0.28
0.039999995 0.0099999998 -0.25999999
0.039999995 0.0099999998 -0.23999999
0.039999995 0.0099999998 -0.22
0.039999995 0.0099999998 -0.2
0.059999999000000005 0.0099999998 -0.30000001
0.059999995 0.0099999998 -0.28
0.059999995 0.0099999998 -0.25999999
0.059999995 0.0099999998 -0.23999999
0.059999995 0.0099999998 -0.22
0.059999995 0.0099999998 -0.2
0.079999998 0.0099999998 -0.30000001
0.079999998 0.0099999998 -0.28
0.07999999099999999 0.0099999998 -0.25999999
0.07999999099999999 0.0099999998 -0.23999999
0.07999999099999999 0.0099999998 -0.22
0.07999999099999999 0.0099999998 -0.2
0.09999999400000001 0.0099999998 -0.30000001
0.09999999400000001 0.0099999998 -0.28
0.09999999400000001 0.0099999998 -0.25999999
0.099999987 0.0099999998 -0.23999999
0.099999987 0.0099999998 -0.22
0.099999987 0.0099999998 -0.2
0.11999999 0.0099999998 -0.30000001
0.11999999 0.0099999998 -0.28
0.11999998 0.0099999998 -0.25999999
0.11999998 0.0099999998 -0.24000001
0.11999998 0.0099999998 -0.22
0.11999998 0.0099999998 -0.2
0.13999999 0.0099999998 -0.30000001
0.13999999 0.0099999998 -0.28
0.13999999 0.0099999998 -0.25999999
0.13999997 0.0099999998 -0.24000001
0.13999997 0.0099999998 -0.22
0.13999997 0.0099999998 -0.2
0.15999998 0.0099999998 -0.30000001
0.15999998 0.0099999998 -0.28
0.15999997 0.0099999998 -0.26000002
0.15999997 0.0099999998 -0.24000001
0.15999997 0.0099999998 -0.22
0.15999997 0.0099999998 -0.2
0.17999998 0.0099999998 -0.30000001
0.17999996 0.0099999998 -0.28
0.17999996 0.0099999998 -0.26000002
0.17999995 0.0099999998 -0.24000001
0.17999995 0.0099999998 -0.22000001
0.17999995 0.0099999998 -0.2
0.19999996 0.0099999998 -0.30000001
0.19999994 0.0099999998 -0.28
0.19999994 0.0099999998 -0.26000002
0.19999993 0.0099999998 -0.24000001
0.19999993 0.0099999998 -0.22000001
0.19999993 0.0099999998 -0.2
0.21999994 0.0099999998 -0.30000001
0.21999992 0.0099999998 -0.28000003
0.21999991 0.0099999998 -0.26000002
0.21999991 0.0099999998 -0.24000001
0.21999989 0.0099999998 -0.22000001
0.21999989 0.0099999998 -0.20000002
0.23999991 0.0099999998 -0.30000004
0.23999989 0.0099999998 -0.28000003
0.23999988 0.0099999998 -0.26000002
0.23999988 0.0099999998 -0.24000002
0.23999986 0.0099999998 -0.22000001
0.23999986 0.0099999998 -0.20000002
0.25999987 0.0099999998 -0.30000007
0.25999984 0.0099999998 -0.28000006
0.25999984 0.0099999998 -0.26000005
0.25999981 0.0099999998 -0.24000002
0.25999981 0.0099999998 -0.22000003
0.25999981 0.0099999998 -0.20000002
0.27999979 0.0099999998 -0.3000001
0.27999979 0.0099999998 -0.28000009
0.27999976 0.0099999998 -0.26000005
0.27999973 0.0099999998 -0.24000004
0.27999973 0.0099999998 -0.22000003
0.27999973 0.0099999998 -0.20000003
0.29999971 0.0099999998 -0.30000013
0.29999968 0.0099999998 -0.28000012
0.29999965 0.0099999998 -0.26000008
0.29999965 0.0099999998 -0.24000005
0.29999962 0.0099999998 -0.22000004
0.29999962 0.0099999998 -0.20000003
0.31999961 0.0099999998 -0.30000019
0.31999958 0.0099999998 -0.28000015
0.31999955 0.0099999998 -0.26000011
0.31999952 0.0099999998 -0.24000008
0.31999952 0.0099999998 -0.22000006
0.31999949 0.0099999998 -0.20000005
0.33999944 0.0099999998 -0.30000025
0.33999941 0.0099999998 -0.28000021
0.33999938 0.0099999998 -0.26000014
0.33999935 0.0099999998 -0.24000011
0.33999932 0.0099999998 -0.22000009
0.33999932 0.0099999998 -0.20000006
0.35999924 0.0099999998 -0.30000037
0.35999918 0.0099999998 -0.28000027
0.35999912 0.0099999998 -0.2600002
0.35999909 0.0099999998 -0.24000014
0.35999909 0.0099999998 -0.22000012
0.35999906 0.0099999998 -0.20000008
0.37999895 0.0099999998 -0.30000049
0.37999889 0.0099999998 -0.28000036
0.37999883 0.0099999998 -0.26000026
0.37999877 0.0099999998 -0.24000019
0.37999877 0.0099999998 -0.22000015
0.37999874 0.0099999998 -0.20000011
0.39999858 0.0099999998 -0.30000064
0.39999849 0.0099999998 -0.28000048
0.3999984 0.0099999998 -0.26000035
0.39999837 0.0099999998 -0.24000025
0.39999834 0.0099999998 -0.22000019
0.39999834 0.0099999998 -0.20000014
0.41999808 0.0099999998 -0.30000088
0.41999793 0.0099999998 -0.28000063
0.41999784 0.0099999998 -0.26000044
0.41999781 0.0099999998 -0.24000032
0.41999781 0.0099999998 -0.22000024
0.41999781 0.0099999998 -0.20000018
0.43999738 0.0099999998 -0.30000114
0.4399972 0.0099999998 -0.28000084
0.43999711 0.0099999998 -0.26000056
0.43999708 0.0099999998 -0.24000041
0.43999711 0.0099999998 -0.22000031
0.43999711 0.0099999998 -0.20000024
0.45999643 0.0099999998 -0.3000015
0.45999622 0.0099999998 -0.28000107
0.45999616 0.0099999998 -0.26000074
0.45999613 0.0099999998 -0.24000053
0.45999616 0.0099999998 -0.22000042
0.45999622 0.0099999998 -0.20000035
0.47999513 0.0099999998 -0.30000198
0.47999492 0.0099999998 -0.28000137
0.47999489 0.0099999998 -0.26000094
0.47999492 0.0099999998 -0.24000071
0.47999498 0.0099999998 -0.22000057
0.47999504 0.0099999998 -0.20000048
0.49999335 0.0099999998 -0.30000263
0.49999321 0.0099999998 -0.28000179
0.49999323 0.0099999998 -0.26000124
0.49999335 0.0099999998 -0.24000098
0.49999347 0.0099999998 -0.22000082
0.49999356 0.0099999998 -0.20000072
0.51999092 0.0099999998 -0.30000353
0.51999098 0.0099999998 -0.28000236
0.51999116 0.0099999998 -0.26000169
0.5199914 0.0099999998 -0.24000141
0.51999158 0.0099999998 -0.22000122
0.5199917 0.0099999998 -0.20000106
0.53998774 0.0099999998 -0.30000481
0.53998816 0.0099999998 -0.28000325
0.5399887 0.0099999998 -0.26000243
0.53998905 0.0099999998 -0.2400021
0.53998929 0.0099999998 -0.22000182
0.53998941 0.0099999998 -0.20000154
0.55998367 0.0099999998 -0.30000681
0.55998486 0.0099999998 -0.28000474
0.55998582 0.0099999998 -0.26000366
0.55998635 0.0099999998 -0.24000306
0.55998659 0.0099999998 -0.22000259
0.55998677 0.0099999998 -0.20000218
0.57997888 0.0099999998 -0.30000997
0.57998115 0.0099999998 -0.2800073
0.57998252 0.0099999998 -0.2600055
0.57998317 0.0099999998 -0.24000433
0.57998359 0.0099999998 -0.22000356
0.57998389 0.0099999998 -0.20000292
0.59997392 0.0099999998 -0.30001521
0.59997714 0.0099999998 -0.28001153
0.59997886 0.0099999998 -0.26000822
0.59997988 0.0099999998 -0.24000612
0.59998041 0.0099999998 -0.22000474
0.59998083 0.0099999998 -0.2000038
0.61996955 0.0099999998 -0.30002385
0.6199733 0.0099999998 -0.2800189
0.61997527 0.0099999998 -0.26001322
0.6199764 0.0099999998 -0.24000888
0.6199773 0.0099999998 -0.22000635
0.61997795 0.0099999998 -0.20000485
0.63996655 0.0099999998 -0.30003715
0.63997066 0.0099999998 -0.280031
0.63997251 0.0099999998 -0.26002195
0.63997346 0.0099999998 -0.24001391
0.63997442 0.0099999998 -0.22000889
0.63997525 0.0099999998 -0.20000625
0.65996575 0.0099999998 -0.30005336
0.65996951 0.0099999998 -0.28004646
0.659971 0.0099999998 -0.2600337
0.65997159 0.0099999998 -0.24002089
0.65997243 0.0099999998 -0.22001265
0.65997332 0.0099999998 -0.20000824
0.67996812 0.0099999998 -0.30006763
0.67997062 0.0099999998 -0.28006035
0.67997158 0.0099999998 -0.26004446
0.67997175 0.0099999998 -0.24002755
0.67997235 0.0099999998 -0.2200163
0.67997319 0.0099999998 -0.20001023
0.69997436 0.0099999998 -0.30007708
0.69997489 0.0099999998 -0.28006956
0.69997519 0.0099999998 -0.26005182
0.69997519 0.0099999998 -0.24003235
0.69997561 0.0099999998 -0.22001918
0.69997621 0.0099999998 -0.20001195
0.71998203 0.0099999998 -0.30008262
0.71998179 0.0099999998 -0.28007454
0.71998173 0.0099999998 -0.26005575
0.71998191 0.0099999998 -0.240035
0.71998227 0.0099999998 -0.22002091
0.7199828 0.0099999998 -0.20001313
0.73998892 0.0099999998 -0.30008572
0.73998868 0.0099999998 -0.2800771
0.73998863 0.0099999998 -0.26005769
0.73998874 0.0099999998 -0.24003635
0.73998904 0.0099999998 -0.22002187
0.73998934 0.0099999998 -0.20001388
0.75999433 0.0099999998 -0.30008733
0.75999415 0.0099999998 -0.28007838
0.75999409 0.0099999998 -0.26005858
0.75999415 0.0099999998 -0.24003702
0.75999433 0.0099999998 -0.22002241
0.75999451 0.0099999998 -0.20001431
0.7799983 0.0099999998 -0.30008805
0.77999824 0.0099999998 -0.28007886
0.77999818 0.0099999998 -0.26005891
0.77999818 0.0099999998 -0.24003726
0.77999824 0.0099999998 -0.22002263
0.7799983 0.0099999998 -0.20001452
0.80000144 0.0099999998 -0.30008814
0.80000144 0.0099999998 -0.28007886
0.80000138 0.0099999998 -0.26005885
0.80000132 0.0099999998 -0.24003723
0.80000132 0.0099999998 -0.22002263
0.80000126 0.0099999998 -0.20001455
0.82000428 0.0099999998 -0.30008778
0.82000434 0.0099999998 -0.28007853
0.82000428 0.0099999998 -0.26005855
0.82000422 0.0099999998 -0.24003699
0.82000411 0.0099999998 -0.22002244
0.82000399 0.0099999998 -0.20001441
0.84000719 0.0099999998 -0.30008626
0.84000725 0.0099999998 -0.28007716
0.84000725 0.0099999998 -0.26005748
0.84000713 0.0099999998 -0.24003628
0.84000695 0.0099999998 -0.22002199
0.84000677 0.0099999998 -0.20001411
0.86001015 0.0099999998 -0.30008361
0.86001021 0.0099999998 -0.28007475
0.86001021 0.0099999998 -0.26005566
0.86001009 0.0099999998 -0.2400351
0.86000985 0.0099999998 -0.22002126
0.86000955 0.0099999998 -0.20001364
0.88001293 0.0099999998 -0.30007991
0.88001305 0.0099999998 -0.28007135
0.88001305 0.0099999998 -0.2600531
0.88001287 0.0099999998 -0.24003346
0.88001257 0.0099999998 -0.22002026
0.88001221 0.0099999998 -0.20001301
0.90001529 0.0099999998 -0.30007529
0.90001547 0.0099999998 -0.28006715
0.90001547 0.0099999998 -0.26004988
0.90001523 0.0099999998 -0.24003144
0.90001488 0.0099999998 -0.22001904
0.90001446 0.0099999998 -0.20001224
0.92001718 0.0099999998 -0.30006999
0.92001724 0.0099999998 -0.28006229
0.9200173 0.0099999998 -0.26004621
0.92001706 0.0099999998 -0.24002911
0.92001665 0.0099999998 -0.22001764
0.92001611 0.0099999998 -0.20001134
0.94001836 0.0099999998 -0.30006421
0.94001842 0.0099999998 -0.28005701
0.94001848 0.0099999998 -0.26004222
0.94001824 0.0099999998 -0.24002656
0.94001764 0.0099999998 -0.22001612
0.94001681 0.0099999998 -0.2000104
0.96001911 0.0099999998 -0.30005825
0.96001911 0.0099999998 -0.28005159
0.96001905 0.0099999998 -0.26003808
0.96001863 0.0099999998 -0.24002391
0.96001774 0.0099999998 -0.22001453
0.96001679 0.0099999998 -0.20000945
0.98001975 0.0099999998 -0.30005231
0.98001957 0.0099999998 -0.28004619
0.98001927 0.0099999998 -0.26003397
0.98001856 0.0099999998 -0.24002132
0.98001748 0.0099999998 -0.22001296
0.98001641 0.0099999998 -0.2000085
1.0000207 0.0099999998 -0.30004659
1.0000201 0.0099999998 -0.28004101
1.0000193000000002 0.0099999998 -0.26003012
1.0000184 0.0099999998 -0.2400189
1.000017 0.0099999998 -0.22001152
1.0000159 0.0099999998 -0.2000076
1.0200223 0.0099999998 -0.3000412
1.0200209999999998 0.0099999998 -0.28003624
1.0200197 0.0099999998 -0.26002672
1.0200182 0.0099999998 -0.24001685
1.0200166 0.0099999998 -0.2200103
1.0200152 0.0099999998 -0.20000684
1.0400245000000001 0.0099999998 -0.30003631
1.0400224 0.0099999998 -0.28003204
1.0400201 0.0099999998 -0.26002392
1.040018 0.0099999998 -0.2400153
1.0400159 0.0099999998 -0.22000942
1.0400145 0.0099999998 -0.20000622
1.0600273999999998 0.0099999998 -0.30003196
1.0600241000000001 0.0099999998 -0.28002846
1.0600208 0.0099999998 -0.26002181
1.0600178 0.0099999998 -0.24001431
1.0600154 0.0099999998 -0.22000889
1.0600139 0.0099999998 -0.20000578
1.0800296 0.0099999998 -0.30002815
1.0800256000000001 0.0099999998 -0.28002557
1.0800215 0.0099999998 -0.26002038
1.0800178999999999 0.0099999998 -0.24001391
1.0800152 0.0099999998 -0.22000876
1.0800133 0.0099999998 -0.20000558
1.1000261 0.0099999998 -0.28002325
1.1000219999999998 0.0099999998 -0.26001936
1.100018 0.0099999998 -0.24001394
1.1000149 0.0099999998 -0.22000898
1.1000128999999998 0.0099999998 -0.20000562
1.120026 0.0099999998 -0.28002116
1.1200222 0.0099999998 -0.26001853
1.1200184 0.0099999998 -0.24001421
1.120015 0.0099999998 -0.22000954
1.1200126 0.0099999998 -0.20000596
1.1400222 0.0099999998 -0.2600176
1.1400187 0.0099999998 -0.24001443
1.1400153999999998 0.0099999998 -0.22001034
1.1400126 0.0099999998 -0.20000662
1.1600221000000002 0.0099999998 -0.26001662
1.1600193 0.0099999998 -0.24001446
1.1600161 0.0099999998 -0.22001119
1.1600131999999999 0.0099999998 -0.20000763
1.1800196000000003 0.0099999998 -0.24001427
1.180017 0.0099999998 -0.22001185
1.1800143 0.0099999998 -0.20000874
1.2000178 0.0099999998 -0.22001219
1.2000157 0.0099999998 -0.20000964
1.2200181 0.0099999998 -0.2200122
1.2200168 0.0099999998 -0.20001023
-1.7210192e-09 0.0099999998 -0.18000001
-1.7976577e-09 0.0099999998 -0.16
-1.8579195e-09 0.0099999998 -0.14
-1.9050708e-09 0.0099999998 -0.12
-1.9412774e-09 0.0099999998 -0.1
-1.9685533e-09 0.0099999998 -0.079999998
-1.9883926e-09 0.0099999998 -0.059999999000000005
-2.0018263e-09 0.0099999998 -0.039999999
-2.0096129e-09 0.0099999998 -0.02
0.019999998 0.0099999998 -0.18000001
0.019999998 0.0099999998 -0.16
0.019999998 0.0099999998 -0.14
0.019999998 0.0099999998 -0.12
0.019999998 0.0099999998 -0.1
0.019999998 0.0099999998 -0.079999998
0.019999998 0.0099999998 -0.059999999000000005
0.019999998 0.0099999998 -0.039999999
0.019999998 0.0099999998 -0.02
0.039999995 0.0099999998 -0.18000001
0.039999995 0.0099999998 -0.16
0.039999995 0.0099999998 -0.14
0.039999995 0.0099999998 -0.12
0.039999995 0.0099999998 -0.1
0.039999995 0.0099999998 -0.079999998
0.039999995 0.0099999998 -0.059999999000000005
0.039999995 0.0099999998 -0.039999999
0.039999995 0.0099999998 -0.02
0.059999995 0.0099999998 -0.18000001
0.059999995 0.0099999998 -0.16
0.059999995 0.0099999998 -0.14
0.059999995 0.0099999998 -0.12
0.059999990999999996 0.0099999998 -0.1
0.059999990999999996 0.0099999998 -0.079999998
0.059999990999999996 0.0099999998 -0.059999999000000005
0.059999990999999996 0.0099999998 -0.039999999
0.059999990999999996 0.0099999998 -0.02
0.07999999099999999 0.0099999998 -0.18000001
0.07999999099999999 0.0099999998 -0.16
0.07999999099999999 0.0099999998 -0.14
0.07999999099999999 0.0099999998 -0.12
0.07999999099999999 0.0099999998 -0.1
0.07999999099999999 0.0099999998 -0.079999998
0.07999999099999999 0.0099999998 -0.059999999000000005
0.07999999099999999 0.0099999998 -0.039999999
0.07999999099999999 0.0099999998 -0.02
0.099999987 0.0099999998 -0.18000001
0.099999987 0.0099999998 -0.16
0.099999987 0.0099999998 -0.14
0.099999987 0.0099999998 -0.12
0.099999987 0.0099999998 -0.1
0.099999987 0.0099999998 -0.079999998
0.099999987 0.0099999998 -0.059999999000000005
0.099999987 0.0099999998 -0.039999999
0.099999987 0.0099999998 -0.02
0.11999998 0.0099999998 -0.18000001
0.11999998 0.0099999998 -0.16
0.11999998 0.0099999998 -0.14
0.11999998 0.0099999998 -0.12
0.11999998 0.0099999998 -0.1
0.11999998 0.0099999998 -0.079999998
0.11999998 0.0099999998 -0.059999999000000005
0.11999998 0.0099999998 -0.039999999
0.11999998 0.0099999998 -0.02
0.13999997 0.0099999998 -0.18000001
0.13999997 0.0099999998 -0.16
0.13999997 0.0099999998 -0.14
0.13999997 0.0099999998 -0.12
0.13999997 0.0099999998 -0.1
0.13999997 0.0099999998 -0.079999998
0.13999997 0.0099999998 -0.060000002000000004
0.13999997 0.0099999998 -0.039999999
0.13999997 0.0099999998 -0.02
0.15999997 0.0099999998 -0.18000001
0.15999997 0.0099999998 -0.16
0.15999997 0.0099999998 -0.14
0.15999995 0.0099999998 -0.12
0.15999995 0.0099999998 -0.1
0.15999995 0.0099999998 -0.079999998
0.15999995 0.0099999998 -0.060000002000000004
0.15999995 0.0099999998 -0.039999999
0.15999995 0.0099999998 -0.02
0.17999995 0.0099999998 -0.18000001
0.17999995 0.0099999998 -0.16000001
0.17999995 0.0099999998 -0.14
0.17999995 0.0099999998 -0.12
0.17999995 0.0099999998 -0.1
0.17999995 0.0099999998 -0.079999998
0.17999995 0.0099999998 -0.060000002000000004
0.17999995 0.0099999998 -0.039999999
0.17999995 0.0099999998 -0.02
0.19999993 0.0099999998 -0.18000001
0.19999993 0.0099999998 -0.16000001
0.19999991 0.0099999998 -0.14
0.19999991 0.0099999998 -0.12
0.19999991 0.0099999998 -0.1
0.19999991 0.0099999998 -0.080000006
0.19999991 0.0099999998 -0.060000002000000004
0.19999991 0.0099999998 -0.039999999
0.19999991 0.0099999998 -0.02
0.21999989 0.0099999998 -0.18000001
0.21999989 0.0099999998 -0.16000001
0.21999989 0.0099999998 -0.14
0.21999989 0.0099999998 -0.12
0.21999989 0.0099999998 -0.1
0.21999989 0.0099999998 -0.080000006
0.21999989 0.0099999998 -0.060000002000000004
0.21999989 0.0099999998 -0.040000003
0.21999989 0.0099999998 -0.020000001
0.23999986 0.0099999998 -0.18000001
0.23999985 0.0099999998 -0.16000001
0.23999985 0.0099999998 -0.14
0.23999985 0.0099999998 -0.12
0.23999985 0.0099999998 -0.1
0.23999985 0.0099999998 -0.080000006
0.23999985 0.0099999998 -0.060000002000000004
0.23999985 0.0099999998 -0.040000003
0.23999985 0.0099999998 -0.020000001
0.25999981 0.0099999998 -0.18000002
0.25999978 0.0099999998 -0.16000001
0.25999978 0.0099999998 -0.14000002
0.25999978 0.0099999998 -0.12
0.25999978 0.0099999998 -0.10000001
0.25999978 0.0099999998 -0.080000006
0.25999978 0.0099999998 -0.060000002000000004
0.25999978 0.0099999998 -0.040000003
0.25999978 0.0099999998 -0.020000001
0.27999973 0.0099999998 -0.18000002
0.27999973 0.0099999998 -0.16000001
0.2799997 0.0099999998 -0.14000002
0.2799997 0.0099999998 -0.12000001
0.2799997 0.0099999998 -0.10000001
0.2799997 0.0099999998 -0.080000006
0.2799997 0.0099999998 -0.060000002000000004
0.2799997 0.0099999998 -0.040000003
0.2799997 0.0099999998 -0.020000001
0.29999962 0.0099999998 -0.18000002
0.29999962 0.0099999998 -0.16000003
0.29999962 0.0099999998 -0.14000002
0.29999962 0.0099999998 -0.12000001
0.29999962 0.0099999998 -0.10000001
0.29999962 0.0099999998 -0.080000006
0.29999962 0.0099999998 -0.060000005999999995
0.29999962 0.0099999998 -0.040000003
0.29999962 0.0099999998 -0.020000001
0.31999949 0.0099999998 -0.18000004
0.31999949 0.0099999998 -0.16000003
0.31999949 0.0099999998 -0.14000002
0.31999949 0.0099999998 -0.12000002
0.31999949 0.0099999998 -0.10000002
0.31999949 0.0099999998 -0.080000013
0.31999949 0.0099999998 -0.060000005999999995
0.31999949 0.0099999998 -0.040000003
0.31999949 0.0099999998 -0.020000001
0.33999932 0.0099999998 -0.18000005
0.33999929 0.0099999998 -0.16000004
0.33999929 0.0099999998 -0.14000003
0.33999929 0.0099999998 -0.12000002
0.33999929 0.0099999998 -0.10000002
0.33999929 0.0099999998 -0.080000013
0.33999929 0.0099999998 -0.06000001
0.33999929 0.0099999998 -0.040000007000000004
0.33999929 0.0099999998 -0.020000003
0.35999906 0.0099999998 -0.18000007
0.35999906 0.0099999998 -0.16000006
0.35999906 0.0099999998 -0.14000005
0.35999906 0.0099999998 -0.12000003
0.35999906 0.0099999998 -0.10000002
0.35999906 0.0099999998 -0.08000002099999999
0.35999906 0.0099999998 -0.060000014000000004
0.35999906 0.0099999998 -0.040000007000000004
0.35999906 0.0099999998 -0.020000003
0.37999874 0.0099999998 -0.18000008
0.37999874 0.0099999998 -0.16000007
0.37999874 0.0099999998 -0.14000005
0.37999874 0.0099999998 -0.12000004
0.37999874 0.0099999998 -0.10000003
0.37999877 0.0099999998 -0.08000002099999999
0.37999877 0.0099999998 -0.060000017
0.37999877 0.0099999998 -0.04000001
0.37999877 0.0099999998 -0.020000005
0.39999834 0.0099999998 -0.18000011
0.39999834 0.0099999998 -0.16000009
0.39999837 0.0099999998 -0.14000008
0.39999837 0.0099999998 -0.12000006
0.39999837 0.0099999998 -0.10000005
0.39999837 0.0099999998 -0.080000035
0.39999837 0.0099999998 -0.060000025
0.39999837 0.0099999998 -0.040000018
0.39999837 0.0099999998 -0.020000009
0.41999781 0.0099999998 -0.18000014
0.41999784 0.0099999998 -0.16000012
0.41999784 0.0099999998 -0.14000009
0.41999784 0.0099999998 -0.12000008
0.41999784 0.0099999998 -0.10000006
0.41999787 0.0099999998 -0.08000005
0.41999787 0.0099999998 -0.060000036
0.41999787 0.0099999998 -0.040000021000000004
0.41999787 0.0099999998 -0.020000011
0.43999714 0.0099999998 -0.1800002
0.43999717 0.0099999998 -0.16000016
0.43999717 0.0099999998 -0.14000013
0.4399972 0.0099999998 -0.12000011
0.4399972 0.0099999998 -0.10000009
0.43999723 0.0099999998 -0.080000065
0.43999723 0.0099999998 -0.060000051
0.43999723 0.0099999998 -0.040000033
0.43999723 0.0099999998 -0.020000016000000002
0.45999625 0.0099999998 -0.18000029
0.45999628 0.0099999998 -0.16000023
0.45999631 0.0099999998 -0.14000019
0.45999634 0.0099999998 -0.12000016
0.45999637 0.0099999998 -0.10000013
0.45999637 0.0099999998 -0.080000095
0.45999637 0.0099999998 -0.060000069
0.45999637 0.0099999998 -0.040000047999999996
0.4599964 0.0099999998 -0.020000022
0.4799951 0.0099999998 -0.18000041
0.47999516 0.0099999998 -0.16000035
0.47999522 0.0099999998 -0.14000028
0.47999525 0.0099999998 -0.12000023
0.47999528 0.0099999998 -0.10000018
0.47999531 0.0099999998 -0.08000014
0.47999531 0.0099999998 -0.060000099
0.47999531 0.0099999998 -0.040000062
0.47999531 0.0099999998 -0.020000031
0.49999365 0.0099999998 -0.1800006
0.49999374 0.0099999998 -0.1600005
0.4999938 0.0099999998 -0.14000042
0.49999386 0.0099999998 -0.12000033
0.49999389 0.0099999998 -0.10000025
0.49999392 0.0099999998 -0.080000192
0.49999392 0.0099999998 -0.060000135999999996
0.49999392 0.0099999998 -0.040000088999999996
0.49999392 0.0099999998 -0.020000043999999998
0.51999182 0.0099999998 -0.18000089
0.51999193 0.0099999998 -0.16000073
0.51999199 0.0099999998 -0.14000058
0.51999205 0.0099999998 -0.12000046
0.51999211 0.0099999998 -0.10000035
0.51999217 0.0099999998 -0.080000266
0.51999217 0.0099999998 -0.060000185
0.51999217 0.0099999998 -0.040000118
0.51999217 0.0099999998 -0.020000059
0.53998959 0.0099999998 -0.18000129
0.53998971 0.0099999998 -0.16000104
0.53998983 0.0099999998 -0.14000082
0.53998989 0.0099999998 -0.12000064
0.53998995 0.0099999998 -0.10000049
0.53999001 0.0099999998 -0.080000356
0.53999007 0.0099999998 -0.060000252000000004
0.53999007 0.0099999998 -0.040000159
0.53999007 0.0099999998 -0.020000078
0.55998695 0.0099999998 -0.1800018
0.55998713 0.0099999998 -0.16000144
0.55998731 0.0099999998 -0.14000113
0.55998743 0.0099999998 -0.12000087
0.55998749 0.0099999998 -0.10000065
0.55998755 0.0099999998 -0.080000475
0.5599876 0.0099999998 -0.060000326
0.5599876 0.0099999998 -0.040000207999999995
0.5599876 0.0099999998 -0.0200001
0.57998413 0.0099999998 -0.18000241
0.57998437 0.0099999998 -0.16000193
0.57998455 0.0099999998 -0.14000151
0.57998472 0.0099999998 -0.12000114
0.57998484 0.0099999998 -0.10000085
0.5799849 0.0099999998 -0.080000609
0.5799849 0.0099999998 -0.060000415999999994
0.57998496 0.0099999998 -0.04000026
0.57998496 0.0099999998 -0.020000123999999998
0.59998125 0.0099999998 -0.18000308
0.59998155 0.0099999998 -0.16000247
0.59998184 0.0099999998 -0.14000192
0.59998202 0.0099999998 -0.12000146
0.5999822 0.0099999998 -0.10000107
0.59998226 0.0099999998 -0.08000075799999999
0.59998232 0.0099999998 -0.060000509
0.59998232 0.0099999998 -0.040000316
0.59998238 0.0099999998 -0.02000015
0.61997843 0.0099999998 -0.18000384
0.6199789 0.0099999998 -0.16000307
0.61997926 0.0099999998 -0.14000237
0.61997956 0.0099999998 -0.12000177
0.61997974 0.0099999998 -0.10000128
0.61997986 0.0099999998 -0.080000885
0.61997992 0.0099999998 -0.060000587
0.61997998 0.0099999998 -0.040000357
0.61997998 0.0099999998 -0.020000168999999998
0.63997597 0.0099999998 -0.18000479
0.63997656 0.0099999998 -0.16000377
0.63997698 0.0099999998 -0.14000289
0.63997734 0.0099999998 -0.12000212
0.63997757 0.0099999998 -0.10000148
0.63997769 0.0099999998 -0.080000997
0.63997781 0.0099999998 -0.060000639
0.63997787 0.0099999998 -0.040000378999999996
0.63997787 0.0099999998 -0.020000177
0.65997422 0.0099999998 -0.18000598
0.65997487 0.0099999998 -0.16000463
0.65997535 0.0099999998 -0.14000353
0.65997571 0.0099999998 -0.12000255
0.65997601 0.0099999998 -0.10000175
0.65997618 0.0099999998 -0.080001146
0.6599763 0.0099999998 -0.060000714000000004
0.65997642 0.0099999998 -0.040000413
0.65997642 0.0099999998 -0.020000188000000002
0.67997402 0.0099999998 -0.18000722
0.67997468 0.0099999998 -0.16000552
0.67997521 0.0099999998 -0.1400042
0.67997557 0.0099999998 -0.12000301
0.67997587 0.0099999998 -0.10000203
0.67997605 0.0099999998 -0.080001295
0.67997617 0.0099999998 -0.060000780999999996
0.67997622 0.0099999998 -0.040000435
0.67997628 0.0099999998 -0.020000195
0.69997686 0.0099999998 -0.18000834
0.69997746 0.0099999998 -0.16000636
0.69997787 0.0099999998 -0.14000481
0.69997823 0.0099999998 -0.12000342
0.69997847 0.0099999998 -0.10000226
0.69997859 0.0099999998 -0.08000139099999999
0.69997871 0.0099999998 -0.060000807
0.69997877 0.0099999998 -0.040000431
0.69997877 0.0099999998 -0.020000184
0.71998334 0.0099999998 -0.1800092
0.71998382 0.0099999998 -0.16000703
0.71998417 0.0099999998 -0.14000534
0.71998441 0.0099999998 -0.12000378
0.71998459 0.0099999998 -0.1000025
0.71998471 0.0099999998 -0.080001533
0.71998483 0.0099999998 -0.060000882
0.71998483 0.0099999998 -0.040000465
0.71998489 0.0099999998 -0.020000199
0.73998976 0.0099999998 -0.1800098
0.73999006 0.0099999998 -0.16000752
0.73999029 0.0099999998 -0.14000571
0.73999053 0.0099999998 -0.12000405
0.73999065 0.0099999998 -0.10000267
0.73999071 0.0099999998 -0.080001645
0.73999077 0.0099999998 -0.060000945
0.73999083 0.0099999998 -0.040000497999999995
0.73999083 0.0099999998 -0.020000212
0.75999469 0.0099999998 -0.18001017
0.75999492 0.0099999998 -0.16000783
0.75999504 0.0099999998 -0.14000596
0.75999522 0.0099999998 -0.12000423
0.75999528 0.0099999998 -0.1000028
0.75999534 0.0099999998 -0.080001719
0.7599954 0.0099999998 -0.060000986
0.7599954 0.0099999998 -0.040000521000000004
0.7599954 0.0099999998 -0.020000223
0.77999836 0.0099999998 -0.18001038
0.77999848 0.0099999998 -0.16000801
0.77999854 0.0099999998 -0.1400061
0.7799986 0.0099999998 -0.12000433
0.7799986 0.0099999998 -0.10000286
0.77999866 0.0099999998 -0.080001757
0.77999866 0.0099999998 -0.060001012
0.77999866 0.0099999998 -0.040000536
0.77999866 0.0099999998 -0.020000228999999998
0.80000126 0.0099999998 -0.18001041
0.8000012 0.0099999998 -0.16000806
0.8000012 0.0099999998 -0.14000614
0.8000012 0.0099999998 -0.12000436
0.8000012 0.0099999998 -0.10000288
0.8000012 0.0099999998 -0.080001771
0.8000012 0.0099999998 -0.060001019
0.8000012 0.0099999998 -0.040000539
0.8000012 0.0099999998 -0.020000231
0.82000387 0.0099999998 -0.18001032
0.82000375 0.0099999998 -0.16000798
0.82000369 0.0099999998 -0.14000608
0.82000363 0.0099999998 -0.12000433
0.82000357 0.0099999998 -0.10000286
0.82000357 0.0099999998 -0.080001757
0.82000351 0.0099999998 -0.060001012
0.82000351 0.0099999998 -0.040000536
0.82000351 0.0099999998 -0.020000228999999998
0.84000653 0.0099999998 -0.1800101
0.84000635 0.0099999998 -0.16000782
0.84000617 0.0099999998 -0.14000596
0.84000611 0.0099999998 -0.12000423
0.84000599 0.0099999998 -0.1000028
0.84000599 0.0099999998 -0.080001719
0.84000593 0.0099999998 -0.06000099
0.84000593 0.0099999998 -0.040000523999999996
0.84000593 0.0099999998 -0.020000223
0.86000925 0.0099999998 -0.18000975
0.86000896 0.0099999998 -0.16000755
0.86000878 0.0099999998 -0.14000575
0.8600086 0.0099999998 -0.12000409
0.86000854 0.0099999998 -0.1000027
0.86000848 0.0099999998 -0.08000166
0.86000842 0.0099999998 -0.060000955999999994
0.86000836 0.0099999998 -0.040000506
0.86000836 0.0099999998 -0.020000216
0.8800118 0.0099999998 -0.18000931
0.8800115 0.0099999998 -0.16000721
0.8800112 0.0099999998 -0.1400055
0.88001102 0.0099999998 -0.1200039
0.8800109 0.0099999998 -0.10000258
0.88001078 0.0099999998 -0.080001585
0.88001078 0.0099999998 -0.060000911
0.88001072 0.0099999998 -0.04000048
0.88001072 0.0099999998 -0.020000206
0.90001404 0.0099999998 -0.18000875
0.90001363 0.0099999998 -0.16000679
0.90001333 0.0099999998 -0.14000517
0.90001309 0.0099999998 -0.12000368
0.90001291 0.0099999998 -0.10000243
0.90001285 0.0099999998 -0.080001488
0.90001279 0.0099999998 -0.060000855
0.90001273 0.0099999998 -0.040000454
0.90001273 0.0099999998 -0.020000193
0.92001557 0.0099999998 -0.18000814
0.92001504 0.0099999998 -0.16000633
0.92001468 0.0099999998 -0.14000483
0.92001438 0.0099999998 -0.12000344
0.9200142 0.0099999998 -0.10000228
0.92001402 0.0099999998 -0.080001414
0.92001396 0.0099999998 -0.060000822
0.9200139 0.0099999998 -0.040000442000000004
0.92001384 0.0099999998 -0.020000193
0.94001609 0.0099999998 -0.18000753
0.94001549 0.0099999998 -0.16000587
0.94001502 0.0099999998 -0.14000449
0.94001466 0.0099999998 -0.1200032
0.94001442 0.0099999998 -0.10000215
0.94001424 0.0099999998 -0.080001347
0.94001412 0.0099999998 -0.060000807
0.94001406 0.0099999998 -0.04000045
0.940014 0.0099999998 -0.020000201000000002
0.96001595 0.0099999998 -0.18000689
0.9600153 0.0099999998 -0.16000539
0.96001482 0.0099999998 -0.14000413
0.96001446 0.0099999998 -0.12000296
0.96001422 0.0099999998 -0.10000199
0.96001405 0.0099999998 -0.080001272
0.96001393 0.0099999998 -0.06000077400000001
0.96001387 0.0099999998 -0.040000435
0.96001381 0.0099999998 -0.020000195
0.98001558 0.0099999998 -0.18000625
0.98001492 0.0099999998 -0.1600049
0.98001444 0.0099999998 -0.14000376
0.98001409 0.0099999998 -0.12000271
0.98001379 0.0099999998 -0.10000184
0.98001367 0.0099999998 -0.08000119
0.98001355 0.0099999998 -0.060000736
0.98001349 0.0099999998 -0.040000424
0.98001343 0.0099999998 -0.020000191
1.0000149999999999 0.0099999998 -0.18000564
1.0000143 0.0099999998 -0.16000445
1.0000138 0.0099999998 -0.14000341
1.0000135 0.0099999998 -0.12000248
1.0000132 0.0099999998 -0.10000171
1.0000130999999999 0.0099999998 -0.080001131
1.0000129999999998 0.0099999998 -0.06000071
1.0000129999999998 0.0099999998 -0.040000416000000004
1.0000129999999998 0.0099999998 -0.020000193
1.0200144 0.0099999998 -0.18000509
1.0200136999999998 0.0099999998 -0.16000403
1.0200132 0.0099999998 -0.1400031
1.0200129 0.0099999998 -0.12000228
1.0200126 0.0099999998 -0.1000016
1.0200125 0.0099999998 -0.08000107099999999
1.0200124 0.0099999998 -0.060000687999999996
1.0200124 0.0099999998 -0.040000409
1.0200124 0.0099999998 -0.020000191
1.0400136999999998 0.0099999998 -0.18000463
1.0400129999999999 0.0099999998 -0.16000365
1.0400125 0.0099999998 -0.14000283
1.0400121 0.0099999998 -0.1200021
1.0400119 0.0099999998 -0.10000149
1.0400118 0.0099999998 -0.080001019
1.0400118 0.0099999998 -0.060000665
1.0400116 0.0099999998 -0.040000401
1.0400116 0.0099999998 -0.020000188000000002
1.0600128999999998 0.0099999998 -0.18000424
1.0600121999999998 0.0099999998 -0.16000329
1.0600117 0.0099999998 -0.14000256
1.0600114 0.0099999998 -0.12000193
1.0600111 0.0099999998 -0.10000139
1.060011 0.0099999998 -0.080000967
1.0600108999999998 0.0099999998 -0.060000639
1.0600108999999998 0.0099999998 -0.04000039
1.0600108 0.0099999998 -0.020000184
1.0800121999999999 0.0099999998 -0.18000393
1.0800115 0.0099999998 -0.16000299
1.0800108999999998 0.0099999998 -0.14000231
1.0800105 0.0099999998 -0.12000177
1.0800103 0.0099999998 -0.1000013
1.0800101999999998 0.0099999998 -0.080000922
1.0800101 0.0099999998 -0.060000621
1.0800101 0.0099999998 -0.040000378999999996
1.0800098999999999 0.0099999998 -0.02000018
1.1000115 0.0099999998 -0.18000376
1.1000108 0.0099999998 -0.16000272
1.1000101999999998 0.0099999998 -0.14000209
1.1000098 0.0099999998 -0.12000161
1.1000096000000001 0.0099999998 -0.10000121
1.1000093 0.0099999998 -0.080000877
1.1000092 0.0099999998 -0.060000597999999995
1.1000092 0.0099999998 -0.040000372
1.1000092 0.0099999998 -0.020000178
1.1200111000000001 0.0099999998 -0.18000378
1.1200101 0.0099999998 -0.16000256
1.1200094999999999 0.0099999998 -0.14000188
1.1200091 0.0099999998 -0.12000145
1.1200088 0.0099999998 -0.1000011
1.1200086 0.0099999998 -0.080000818
1.1200085 0.0099999998 -0.06000057599999999
1.1200085 0.0099999998 -0.040000364
1.1200083 0.0099999998 -0.020000175
1.1400108 0.0099999998 -0.18000408
1.1400096000000002 0.0099999998 -0.16000259
1.1400089 0.0099999998 -0.14000176
1.1400084 0.0099999998 -0.12000129
1.1400082 0.0099999998 -0.10000099
1.140008 0.0099999998 -0.080000743
1.1400079 0.0099999998 -0.060000530999999996
1.1400077 0.0099999998 -0.040000342
1.1400077 0.0099999998 -0.020000167
1.1600108999999998 0.0099999998 -0.18000475
1.1600095 0.0099999998 -0.16000287
1.1600085 0.0099999998 -0.1400018
1.160008 0.0099999998 -0.12000121
1.1600076000000001 0.0099999998 -0.10000087
1.1600073999999998 0.0099999998 -0.080000654
1.1600072 0.0099999998 -0.060000461
1.1600071 0.0099999998 -0.040000301
1.1600071 0.0099999998 -0.020000147
1.1800117 0.0099999998 -0.18000582
1.1800097 0.0099999998 -0.1600036
1.1800085 0.0099999998 -0.14000216
1.1800077 0.0099999998 -0.12000132
1.1800072 0.0099999998 -0.10000086
1.1800069 0.0099999998 -0.080000579
1.1800066999999999 0.0099999998 -0.06000039
1.1800066 0.0099999998 -0.040000245
1.1800065 0.0099999998 -0.020000116999999998
1.2000133999999998 0.0099999998 -0.180007
1.2000110000000002 0.0099999998 -0.16000475
1.2000091 0.0099999998 -0.14000304
1.2000079 0.0099999998 -0.12000183
1.2000071 0.0099999998 -0.1000011
1.2000066 0.0099999998 -0.080000661
1.2000064 0.0099999998 -0.060000394000000006
1.2000062 0.0099999998 -0.040000223
1.2000061000000002 0.0099999998 -0.0200001
1.2200152 0.0099999998 -0.18000802
1.2200131 0.0099999998 -0.16000591
1.220011 0.0099999998 -0.14000417
1.2200091 0.0099999998 -0.12000283
1.2200078 0.0099999998 -0.1000018
1.2200069 0.0099999998 -0.080001079
1.2200065 0.0099999998 -0.060000602
1.2200061000000002 0.0099999998 -0.040000316
1.220006 0.0099999998 -0.020000132
1.240016 0.0099999998 -0.18000887
1.2400148000000002 0.0099999998 -0.16000701
1.2400132 0.0099999998 -0.14000529
1.2400116 0.0099999998 -0.12000387
1.2400098999999998 0.0099999998 -0.10000273
1.2400086000000001 0.0099999998 -0.080001824
1.2400076 0.0099999998 -0.060001124
1.240007 0.0099999998 -0.040000617999999995
1.2400068000000002 0.0099999998 -0.020000268
1.2600151000000002 0.0099999998 -0.16000792
1.2600145 0.0099999998 -0.14000636
1.2600136999999998 0.0099999998 -0.12000496
1.2600126 0.0099999998 -0.10000368
1.2600116000000001 0.0099999998 -0.080002561
1.2600106000000002 0.0099999998 -0.060001627
1.26001 0.0099999998 -0.040000916
1.2600096 0.0099999998 -0.020000404
1.2800141999999999 0.0099999998 -0.12000602
1.280014 0.0099999998 -0.1000047
1.2800136 0.0099999998 -0.080003388
1.2800132 0.0099999998 -0.060002177999999996
1.2800129999999998 0.0099999998 -0.040001228
1.2800127000000001 0.0099999998 -0.020000542
1.3000136999999998 0.0099999998 -0.08000426
1.3000138 0.0099999998 -0.060002755
1.3000139 0.0099999998 -0.040001556
1.3000139 0.0099999998 -0.020000681
-2.0121678e-09 0.0099999998 -2.2790222e-17
-2.0096127e-09 0.0099999998 0.02
-2.0018274e-09 0.0099999998 0.039999999
-1.9883928e-09 0.0099999998 0.059999999000000005
-1.9685535e-09 0.0099999998 0.079999998
-1.9412776e-09 0.0099999998 0.1
-1.9050705e-09 0.0099999998 0.12
-1.8579202e-09 0.0099999998 0.14
0.019999998 0.0099999998 1.4332046e-16
0.019999998 0.0099999998 0.02
0.019999998 0.0099999998 0.039999999
0.019999998 0.0099999998 0.059999999000000005
0.019999998 0.0099999998 0.079999998
0.019999998 0.0099999998 0.1
0.019999998 0.0099999998 0.12
0.019999998 0.0099999998 0.14
0.039999995 0.0099999998 -2.2158362e-16
0.039999995 0.0099999998 0.02
0.039999995 0.0099999998 0.039999999
0.039999995 0.0099999998 0.059999999000000005
0.039999995 0.0099999998 0.079999998
0.039999995 0.0099999998 0.1
0.039999995 0.0099999998 0.12
0.039999995 0.0099999998 0.14
0.059999990999999996 0.0099999998 4.7249568e-16
0.059999990999999996 0.0099999998 0.02
0.059999990999999996 0.0099999998 0.039999999
0.059999990999999996 0.0099999998 0.059999999000000005
0.059999990999999996 0.0099999998 0.079999998
0.059999990999999996 0.0099999998 0.1
0.059999995 0.0099999998 0.12
0.059999995 0.0099999998 0.14
0.07999999099999999 0.0099999998 2.568768e-16
0.07999999099999999 0.0099999998 0.02
0.07999999099999999 0.0099999998 0.039999999
0.07999999099999999 0.0099999998 0.059999999000000005
0.07999999099999999 0.0099999998 0.079999998
0.07999999099999999 0.0099999998 0.1
0.07999999099999999 0.0099999998 0.12
0.07999999099999999 0.0099999998 0.14
0.099999987 0.0099999998 -3.8579843999999996e-16
0.099999987 0.0099999998 0.02
0.099999987 0.0099999998 0.039999999
0.099999987 0.0099999998 0.059999999000000005
0.099999987 0.0099999998 0.079999998
0.099999987 0.0099999998 0.1
0.099999987 0.0099999998 0.12
0.099999987 0.0099999998 0.14
0.11999998 0.0099999998 -1.425769e-16
0.11999998 0.0099999998 0.02
0.11999998 0.0099999998 0.039999999
0.11999998 0.0099999998 0.059999999000000005
0.11999998 0.0099999998 0.079999998
0.11999998 0.0099999998 0.1
0.11999998 0.0099999998 0.12
0.11999998 0.0099999998 0.14
0.13999997 0.0099999998 -9.547068199999999e-16
0.13999997 0.0099999998 0.02
0.13999997 0.0099999998 0.039999999
0.13999997 0.0099999998 0.060000002000000004
0.13999997 0.0099999998 0.079999998
0.13999997 0.0099999998 0.1
0.13999997 0.0099999998 0.12
0.13999997 0.0099999998 0.14
0.15999995 0.0099999998 -7.505832099999999e-16
0.15999995 0.0099999998 0.02
0.15999995 0.0099999998 0.039999999
0.15999995 0.0099999998 0.060000002000000004
0.15999995 0.0099999998 0.079999998
0.15999995 0.0099999998 0.1
0.15999995 0.0099999998 0.12
0.15999997 0.0099999998 0.14
0.17999995 0.0099999998 1.9598189e-15
0.17999995 0.0099999998 0.02
0.17999995 0.0099999998 0.039999999
0.17999995 0.0099999998 0.060000002000000004
0.17999995 0.0099999998 0.079999998
0.17999995 0.0099999998 0.1
0.17999995 0.0099999998 0.12
0.17999995 0.0099999998 0.14
0.19999991 0.0099999998 2.8846710999999998e-15
0.19999991 0.0099999998 0.02
0.19999991 0.0099999998 0.039999999
0.19999991 0.0099999998 0.060000002000000004
0.19999991 0.0099999998 0.080000006
0.19999991 0.0099999998 0.1
0.19999991 0.0099999998 0.12
0.19999991 0.0099999998 0.14
0.21999989 0.0099999998 6.8877151e-16
0.21999989 0.0099999998 0.020000001
0.21999989 0.0099999998 0.040000003
0.21999989 0.0099999998 0.060000002000000004
0.21999989 0.0099999998 0.080000006
0.21999989 0.0099999998 0.1
0.21999989 0.0099999998 0.12
0.21999989 0.0099999998 0.14
0.23999985 0.0099999998 -7.7464983e-15
0.23999985 0.0099999998 0.020000001
0.23999985 0.0099999998 0.040000003
0.23999985 0.0099999998 0.060000002000000004
0.23999985 0.0099999998 0.080000006
0.23999985 0.0099999998 0.1
0.23999985 0.0099999998 0.12
0.23999985 0.0099999998 0.14
0.25999978 0.0099999998 6.6449163e-16
0.25999978 0.0099999998 0.020000001
0.25999978 0.0099999998 0.040000003
0.25999978 0.0099999998 0.060000002000000004
0.25999978 0.0099999998 0.080000006
0.25999978 0.0099999998 0.10000001
0.25999978 0.0099999998 0.12
0.25999978 0.0099999998 0.14000002
0.2799997 0.0099999998 3.1173135e-15
0.2799997 0.0099999998 0.020000001
0.2799997 0.0099999998 0.040000003
0.2799997 0.0099999998 0.060000002000000004
0.2799997 0.0099999998 0.080000006
0.2799997 0.0099999998 0.10000001
0.2799997 0.0099999998 0.12000001
0.2799997 0.0099999998 0.14000002
0.29999962 0.0099999998 -1.2482847e-14
0.29999962 0.0099999998 0.020000001
0.29999962 0.0099999998 0.040000003
0.29999962 0.0099999998 0.060000005999999995
0.29999962 0.0099999998 0.080000006
0.29999962 0.0099999998 0.10000001
0.29999962 0.0099999998 0.12000001
0.29999962 0.0099999998 0.14000002
0.31999949 0.0099999998 -8.914920100000001e-15
0.31999949 0.0099999998 0.020000001
0.31999949 0.0099999998 0.040000003
0.31999949 0.0099999998 0.060000005999999995
0.31999949 0.0099999998 0.080000013
0.31999949 0.0099999998 0.10000002
0.31999949 0.0099999998 0.12000002
0.31999949 0.0099999998 0.14000002
0.33999929 0.0099999998 5.1682742000000005e-14
0.33999929 0.0099999998 0.020000003
0.33999929 0.0099999998 0.040000007000000004
0.33999929 0.0099999998 0.06000001
0.33999929 0.0099999998 0.080000013
0.33999929 0.0099999998 0.10000002
0.33999929 0.0099999998 0.12000002
0.33999929 0.0099999998 0.14000003
0.35999906 0.0099999998 8.3071232e-15
0.35999906 0.0099999998 0.020000003
0.35999906 0.0099999998 0.040000007000000004
0.35999906 0.0099999998 0.060000014000000004
0.35999906 0.0099999998 0.08000002099999999
0.35999906 0.0099999998 0.10000002
0.35999906 0.0099999998 0.12000003
0.35999906 0.0099999998 0.14000005
0.37999877 0.0099999998 1.4288001e-14
0.37999877 0.0099999998 0.020000005
0.37999877 0.0099999998 0.04000001
0.37999877 0.0099999998 0.060000017
0.37999877 0.0099999998 0.08000002099999999
0.37999874 0.0099999998 0.10000003
0.37999874 0.0099999998 0.12000004
0.37999874 0.0099999998 0.14000005
0.39999837 0.0099999998 -1.6171894000000002e-14
0.39999837 0.0099999998 0.020000009
0.39999837 0.0099999998 0.040000018
0.39999837 0.0099999998 0.060000025
0.39999837 0.0099999998 0.080000035
0.39999837 0.0099999998 0.10000005
0.39999837 0.0099999998 0.12000006
0.39999837 0.0099999998 0.14000008
0.41999787 0.0099999998 -2.7720127000000003e-14
0.41999787 0.0099999998 0.020000011
0.41999787 0.0099999998 0.040000021000000004
0.41999787 0.0099999998 0.060000036
0.41999787 0.0099999998 0.08000005
0.41999784 0.0099999998 0.10000006
0.41999784 0.0099999998 0.12000008
0.41999784 0.0099999998 0.14000009
0.43999723 0.0099999998 -8.763512599999999e-14
0.43999723 0.0099999998 0.020000016000000002
0.43999723 0.0099999998 0.040000033
0.43999723 0.0099999998 0.060000051
0.43999723 0.0099999998 0.080000065
0.4399972 0.0099999998 0.10000009
0.4399972 0.0099999998 0.12000011
0.43999717 0.0099999998 0.14000013
0.4599964 0.0099999998 -9.448508199999999e-14
0.4599964 0.0099999998 0.020000022
0.45999637 0.0099999998 0.040000047999999996
0.45999637 0.0099999998 0.060000069
0.45999637 0.0099999998 0.080000095
0.45999637 0.0099999998 0.10000013
0.45999634 0.0099999998 0.12000016
0.45999631 0.0099999998 0.14000019
0.47999531 0.0099999998 1.8365742e-13
0.47999531 0.0099999998 0.020000031
0.47999531 0.0099999998 0.040000062
0.47999531 0.0099999998 0.060000099
0.47999531 0.0099999998 0.08000014
0.47999528 0.0099999998 0.10000018
0.47999525 0.0099999998 0.12000023
0.47999522 0.0099999998 0.14000028
0.49999392 0.0099999998 3.6761132e-13
0.49999392 0.0099999998 0.020000043999999998
0.49999392 0.0099999998 0.040000088999999996
0.49999392 0.0099999998 0.060000135999999996
0.49999392 0.0099999998 0.080000192
0.49999389 0.0099999998 0.10000025
0.49999386 0.0099999998 0.12000033
0.4999938 0.0099999998 0.14000042
0.51999217 0.0099999998 4.5218828e-13
0.51999217 0.0099999998 0.020000059
0.51999217 0.0099999998 0.040000118
0.51999217 0.0099999998 0.060000185
0.51999217 0.0099999998 0.080000266
0.51999211 0.0099999998 0.10000035
0.51999205 0.0099999998 0.12000046
0.51999199 0.0099999998 0.14000058
0.53999007 0.0099999998 -5.1262098e-13
0.53999007 0.0099999998 0.020000078
0.53999007 0.0099999998 0.040000159
0.53999007 0.0099999998 0.060000252000000004
0.53999001 0.0099999998 0.080000356
0.53998995 0.0099999998 0.10000049
0.53998989 0.0099999998 0.12000064
0.53998983 0.0099999998 0.14000082
0.5599876 0.0099999998 -7.7356584e-13
0.5599876 0.0099999998 0.0200001
0.5599876 0.0099999998 0.040000207999999995
0.5599876 0.0099999998 0.060000326
0.55998755 0.0099999998 0.080000475
0.55998749 0.0099999998 0.10000065
0.55998743 0.0099999998 0.12000087
0.55998731 0.0099999998 0.14000113
0.57998496 0.0099999998 -7.5430639e-13
0.57998496 0.0099999998 0.020000123999999998
0.57998496 0.0099999998 0.04000026
0.5799849 0.0099999998 0.060000415999999994
0.5799849 0.0099999998 0.080000609
0.57998484 0.0099999998 0.10000085
0.57998472 0.0099999998 0.12000114
0.57998455 0.0099999998 0.14000151
0.59998238 0.0099999998 -5.4441575e-13
0.59998238 0.0099999998 0.02000015
0.59998232 0.0099999998 0.040000316
0.59998232 0.0099999998 0.060000509
0.59998226 0.0099999998 0.08000075799999999
0.5999822 0.0099999998 0.10000107
0.59998202 0.0099999998 0.12000146
0.59998184 0.0099999998 0.14000192
0.61997998 0.0099999998 1.1816978e-12
0.61997998 0.0099999998 0.020000168999999998
0.61997998 0.0099999998 0.040000357
0.61997992 0.0099999998 0.060000587
0.61997986 0.0099999998 0.080000885
0.61997974 0.0099999998 0.10000128
0.61997956 0.0099999998 0.12000177
0.61997926 0.0099999998 0.14000237
0.63997793 0.0099999998 -8.563384400000001e-13
0.63997787 0.0099999998 0.020000177
0.63997787 0.0099999998 0.040000378999999996
0.63997781 0.0099999998 0.060000639
0.63997769 0.0099999998 0.080000997
0.63997757 0.0099999998 0.10000148
0.63997734 0.0099999998 0.12000212
0.63997698 0.0099999998 0.14000289
0.65997648 0.0099999998 -5.9321498e-13
0.65997642 0.0099999998 0.020000188000000002
0.65997642 0.0099999998 0.040000413
0.6599763 0.0099999998 0.060000714000000004
0.65997618 0.0099999998 0.080001146
0.65997601 0.0099999998 0.10000175
0.65997571 0.0099999998 0.12000255
0.65997535 0.0099999998 0.14000353
0.67997628 0.0099999998 3.2026059e-12
0.67997628 0.0099999998 0.020000195
0.67997622 0.0099999998 0.040000435
0.67997617 0.0099999998 0.060000780999999996
0.67997605 0.0099999998 0.080001295
0.67997587 0.0099999998 0.10000203
0.67997557 0.0099999998 0.12000301
0.67997521 0.0099999998 0.1400042
0.69997877 0.0099999998 4.1385441e-12
0.69997877 0.0099999998 0.020000184
0.69997877 0.0099999998 0.040000431
0.69997871 0.0099999998 0.060000807
0.69997859 0.0099999998 0.08000139099999999
0.69997847 0.0099999998 0.10000226
0.69997823 0.0099999998 0.12000342
0.69997787 0.0099999998 0.14000481
0.71998489 0.0099999998 1.7301179000000001e-12
0.71998489 0.0099999998 0.020000199
0.71998483 0.0099999998 0.040000465
0.71998483 0.0099999998 0.060000882
0.71998471 0.0099999998 0.080001533
0.71998459 0.0099999998 0.1000025
0.71998441 0.0099999998 0.12000378
0.71998417 0.0099999998 0.14000534
0.73999083 0.0099999998 2.7209107000000004e-12
0.73999083 0.0099999998 0.020000212
0.73999083 0.0099999998 0.040000497999999995
0.73999077 0.0099999998 0.060000945
0.73999071 0.0099999998 0.080001645
0.73999065 0.0099999998 0.10000267
0.73999053 0.0099999998 0.12000405
0.73999029 0.0099999998 0.14000571
0.7599954 0.0099999998 5.2039154000000005e-12
0.7599954 0.0099999998 0.020000223
0.7599954 0.0099999998 0.040000521000000004
0.7599954 0.0099999998 0.060000986
0.75999534 0.0099999998 0.080001719
0.75999528 0.0099999998 0.1000028
0.75999522 0.0099999998 0.12000423
0.75999504 0.0099999998 0.14000596
0.77999866 0.0099999998 -6.5361705e-12
0.77999866 0.0099999998 0.020000228999999998
0.77999866 0.0099999998 0.040000536
0.77999866 0.0099999998 0.060001012
0.77999866 0.0099999998 0.080001757
0.7799986 0.0099999998 0.10000286
0.7799986 0.0099999998 0.12000433
0.77999854 0.0099999998 0.1400061
0.8000012 0.0099999998 -6.517788e-12
0.8000012 0.0099999998 0.020000231
0.8000012 0.0099999998 0.040000539
0.8000012 0.0099999998 0.060001019
0.8000012 0.0099999998 0.080001771
0.8000012 0.0099999998 0.10000288
0.8000012 0.0099999998 0.12000436
0.8000012 0.0099999998 0.14000614
0.82000351 0.0099999998 9.4864123e-13
0.82000351 0.0099999998 0.020000228999999998
0.82000351 0.0099999998 0.040000536
0.82000351 0.0099999998 0.060001012
0.82000357 0.0099999998 0.080001757
0.82000357 0.0099999998 0.10000286
0.82000363 0.0099999998 0.12000433
0.82000369 0.0099999998 0.14000608
0.84000593 0.0099999998 -8.641038200000001e-13
0.84000593 0.0099999998 0.020000223
0.84000593 0.0099999998 0.040000523999999996
0.84000593 0.0099999998 0.06000099
0.84000599 0.0099999998 0.080001719
0.84000599 0.0099999998 0.1000028
0.84000611 0.0099999998 0.12000423
0.84000617 0.0099999998 0.14000596
0.86000836 0.0099999998 9.8857866e-12
0.86000836 0.0099999998 0.020000216
0.86000836 0.0099999998 0.040000506
0.86000842 0.0099999998 0.060000955999999994
0.86000848 0.0099999998 0.08000166
0.86000854 0.0099999998 0.1000027
0.8600086 0.0099999998 0.12000409
0.86000878 0.0099999998 0.14000575
0.88001072 0.0099999998 1.2460302e-12
0.88001072 0.0099999998 0.020000206
0.88001072 0.0099999998 0.04000048
0.88001078 0.0099999998 0.060000911
0.88001078 0.0099999998 0.080001585
0.8800109 0.0099999998 0.10000258
0.88001102 0.0099999998 0.1200039
0.8800112 0.0099999998 0.1400055
0.90001273 0.0099999998 -1.3109841e-11
0.90001273 0.0099999998 0.020000193
0.90001273 0.0099999998 0.040000454
0.90001279 0.0099999998 0.060000855
0.90001285 0.0099999998 0.080001488
0.90001291 0.0099999998 0.10000243
0.90001309 0.0099999998 0.12000368
0.90001333 0.0099999998 0.14000517
0.92001384 0.0099999998 -3.9345415e-12
0.92001384 0.0099999998 0.020000193
0.9200139 0.0099999998 0.040000442000000004
0.92001396 0.0099999998 0.060000822
0.92001402 0.0099999998 0.080001414
0.9200142 0.0099999998 0.10000228
0.92001438 0.0099999998 0.12000344
0.92001468 0.0099999998 0.14000483
0.940014 0.0099999998 -2.3100068e-12
0.940014 0.0099999998 0.020000201000000002
0.94001406 0.0099999998 0.04000045
0.94001412 0.0099999998 0.060000807
0.94001424 0.0099999998 0.080001347
0.94001442 0.0099999998 0.10000215
0.94001466 0.0099999998 0.1200032
0.94001502 0.0099999998 0.14000449
0.96001381 0.0099999998 -7.2245604e-12
0.96001381 0.0099999998 0.020000195
0.96001387 0.0099999998 0.040000435
0.96001393 0.0099999998 0.06000077400000001
0.96001405 0.0099999998 0.080001272
0.96001422 0.0099999998 0.10000199
0.96001446 0.0099999998 0.12000296
0.96001482 0.0099999998 0.14000413
0.98001343 0.0099999998 -1.3530281e-12
0.98001343 0.0099999998 0.020000191
0.98001349 0.0099999998 0.040000424
0.98001355 0.0099999998 0.060000736
0.98001367 0.0099999998 0.08000119
0.98001379 0.0099999998 0.10000184
0.98001409 0.0099999998 0.12000271
0.98001444 0.0099999998 0.14000376
1.0000129999999998 0.0099999998 4.6008715999999995e-14
1.0000129999999998 0.0099999998 0.020000193
1.0000129999999998 0.0099999998 0.040000416000000004
1.0000129999999998 0.0099999998 0.06000071
1.0000130999999999 0.0099999998 0.080001131
1.0000132 0.0099999998 0.10000171
1.0000135 0.0099999998 0.12000248
1.0000138 0.0099999998 0.14000341
1.0200124 0.0099999998 3.9933995e-14
1.0200124 0.0099999998 0.020000191
1.0200124 0.0099999998 0.040000409
1.0200124 0.0099999998 0.060000687999999996
1.0200125 0.0099999998 0.08000107099999999
1.0200126 0.0099999998 0.1000016
1.0200129 0.0099999998 0.12000228
1.0200132 0.0099999998 0.1400031
1.0400116 0.0099999998 2.3017914e-12
1.0400116 0.0099999998 0.020000188000000002
1.0400116 0.0099999998 0.040000401
1.0400118 0.0099999998 0.060000665
1.0400118 0.0099999998 0.080001019
1.0400119 0.0099999998 0.10000149
1.0400121 0.0099999998 0.1200021
1.0400125 0.0099999998 0.14000283
1.0600108 0.0099999998 1.6962294999999998e-12
1.0600108 0.0099999998 0.020000184
1.0600108999999998 0.0099999998 0.04000039
1.0600108999999998 0.0099999998 0.060000639
1.060011 0.0099999998 0.080000967
1.0600111 0.0099999998 0.10000139
1.0600114 0.0099999998 0.12000193
1.0600117 0.0099999998 0.14000256
1.0800098999999999 0.0099999998 -7.874524599999999e-13
1.0800098999999999 0.0099999998 0.02000018
1.0800101 0.0099999998 0.040000378999999996
1.0800101 0.0099999998 0.060000621
1.0800101999999998 0.0099999998 0.080000922
1.0800103 0.0099999998 0.1000013
1.0800105 0.0099999998 0.12000177
1.0800108999999998 0.0099999998 0.14000231
1.1000091 0.0099999998 -2.5233353e-13
1.1000092 0.0099999998 0.020000178
1.1000092 0.0099999998 0.040000372
1.1000092 0.0099999998 0.060000597999999995
1.1000093 0.0099999998 0.080000877
1.1000096000000001 0.0099999998 0.10000121
1.1000098 0.0099999998 0.12000161
1.1000101999999998 0.0099999998 0.14000209
1.1200083 0.0099999998 -6.8178758e-13
1.1200083 0.0099999998 0.020000175
1.1200085 0.0099999998 0.040000364
1.1200085 0.0099999998 0.06000057599999999
1.1200086 0.0099999998 0.080000818
1.1200088 0.0099999998 0.1000011
1.1200091 0.0099999998 0.12000145
1.1200094999999999 0.0099999998 0.14000188
1.1400076000000001 0.0099999998 -3.6691087e-13
1.1400077 0.0099999998 0.020000167
1.1400077 0.0099999998 0.040000342
1.1400079 0.0099999998 0.060000530999999996
1.140008 0.0099999998 0.080000743
1.1400082 0.0099999998 0.10000099
1.1400084 0.0099999998 0.12000129
1.1400089 0.0099999998 0.14000176
1.1600071 0.0099999998 -1.1636549999999999e-12
1.1600071 0.0099999998 0.020000147
1.1600071 0.0099999998 0.040000301
1.1600072 0.0099999998 0.060000461
1.1600073999999998 0.0099999998 0.080000654
1.1600076000000001 0.0099999998 0.10000087
1.160008 0.0099999998 0.12000121
1.1600085 0.0099999998 0.1400018
1.1800065 0.0099999998 -5.305153000000001e-13
1.1800065 0.0099999998 0.020000116999999998
1.1800066 0.0099999998 0.040000245
1.1800066999999999 0.0099999998 0.06000039
1.1800069 0.0099999998 0.080000579
1.1800072 0.0099999998 0.10000086
1.1800077 0.0099999998 0.12000132
1.1800085 0.0099999998 0.14000216
1.2000061000000002 0.0099999998 3.161028e-13
1.2000061000000002 0.0099999998 0.0200001
1.2000062 0.0099999998 0.040000223
1.2000064 0.0099999998 0.060000394000000006
1.2000066 0.0099999998 0.080000661
1.2000071 0.0099999998 0.1000011
1.2000079 0.0099999998 0.12000183
1.2000091 0.0099999998 0.14000304
1.220006 0.0099999998 -8.9141619e-14
1.220006 0.0099999998 0.020000132
1.2200061000000002 0.0099999998 0.040000316
1.2200065 0.0099999998 0.060000602
1.2200069 0.0099999998 0.080001079
1.2200078 0.0099999998 0.1000018
1.2200091 0.0099999998 0.12000283
1.220011 0.0099999998 0.14000417
1.2400067 0.0099999998 -4.874725800000001e-13
1.2400068000000002 0.0099999998 0.020000268
1.240007 0.0099999998 0.040000617999999995
1.2400076 0.0099999998 0.060001124
1.2400086000000001 0.0099999998 0.080001824
1.2400098999999998 0.0099999998 0.10000273
1.2400116 0.0099999998 0.12000387
1.2400132 0.0099999998 0.14000529
1.2600095 0.0099999998 -6.2031343e-13
1.2600096 0.0099999998 0.020000404
1.26001 0.0099999998 0.040000916
1.2600106000000002 0.0099999998 0.060001627
1.2600116000000001 0.0099999998 0.080002561
1.2600126 0.0099999998 0.10000368
1.2600136999999998 0.0099999998 0.12000496
1.2600145 0.0099999998 0.14000636
1.2800127000000001 0.0099999998 4.3285593e-13
1.2800127000000001 0.0099999998 0.020000542
1.2800129999999998 0.0099999998 0.040001228
1.2800132 0.0099999998 0.060002177999999996
1.2800136 0.0099999998 0.080003388
1.280014 0.0099999998 0.1000047
1.2800141999999999 0.0099999998 0.12000602
1.3000139 0.0099999998 9.585024800000001e-14
1.3000139 0.0099999998 0.020000681
1.3000139 0.0099999998 0.040001556
1.3000138 0.0099999998 0.060002755
1.3000136999999998 0.0099999998 0.08000426
-1.7976577e-09 0.0099999998 0.16
-1.7210191e-09 0.0099999998 0.18000001
-1.6247848e-09 0.0099999998 0.2
-1.5051894e-09 0.0099999998 0.22
-1.3593046e-09 0.0099999998 0.23999999
-1.1822029e-09 0.0099999998 0.25999999
-9.7374353e-10 0.0099999998 0.28
0.019999998 0.0099999998 0.16
0.019999998 0.0099999998 0.18000001
0.019999998 0.0099999998 0.2
0.019999998 0.0099999998 0.22
0.019999998 0.0099999998 0.23999999
0.019999998 0.0099999998 0.25999999
0.019999998 0.0099999998 0.28
0.02 0.0099999998 0.30000001
0.039999995 0.0099999998 0.16
0.039999995 0.0099999998 0.18000001
0.039999995 0.0099999998 0.2
0.039999995 0.0099999998 0.22
0.039999995 0.0099999998 0.23999999
0.039999995 0.0099999998 0.25999999
0.039999999 0.0099999998 0.28
0.039999999 0.0099999998 0.30000001
0.059999995 0.0099999998 0.16
0.059999995 0.0099999998 0.18000001
0.059999995 0.0099999998 0.2
0.059999995 0.0099999998 0.22
0.059999995 0.0099999998 0.23999999
0.059999995 0.0099999998 0.25999999
0.059999995 0.0099999998 0.28
0.059999999000000005 0.0099999998 0.30000001
0.07999999099999999 0.0099999998 0.16
0.07999999099999999 0.0099999998 0.18000001
0.07999999099999999 0.0099999998 0.2
0.07999999099999999 0.0099999998 0.22
0.07999999099999999 0.0099999998 0.23999999
0.07999999099999999 0.0099999998 0.25999999
0.079999998 0.0099999998 0.28
0.079999998 0.0099999998 0.30000001
0.099999987 0.0099999998 0.16
0.099999987 0.0099999998 0.18000001
0.099999987 0.0099999998 0.2
0.099999987 0.0099999998 0.22
0.099999987 0.0099999998 0.23999999
0.09999999400000001 0.0099999998 0.25999999
0.09999999400000001 0.0099999998 0.28
0.09999999400000001 0.0099999998 0.30000001
0.11999998 0.0099999998 0.16
0.11999998 0.0099999998 0.18000001
0.11999998 0.0099999998 0.2
0.11999998 0.0099999998 0.22
0.11999998 0.0099999998 0.24000001
0.11999998 0.0099999998 0.25999999
0.11999999 0.0099999998 0.28
0.11999999 0.0099999998 0.30000001
0.13999997 0.0099999998 0.16
0.13999997 0.0099999998 0.18000001
0.13999997 0.0099999998 0.2
0.13999997 0.0099999998 0.22
0.13999997 0.0099999998 0.24000001
0.13999999 0.0099999998 0.25999999
0.13999999 0.0099999998 0.28
0.13999999 0.0099999998 0.30000001
0.15999997 0.0099999998 0.16
0.15999997 0.0099999998 0.18000001
0.15999997 0.0099999998 0.2
0.15999997 0.0099999998 0.22
0.15999997 0.0099999998 0.24000001
0.15999997 0.0099999998 0.26000002
0.15999998 0.0099999998 0.28
0.15999998 0.0099999998 0.30000001
0.17999995 0.0099999998 0.16000001
0.17999995 0.0099999998 0.18000001
0.17999995 0.0099999998 0.2
0.17999995 0.0099999998 0.22000001
0.17999995 0.0099999998 0.24000001
0.17999996 0.0099999998 0.26000002
0.17999996 0.0099999998 0.28
0.17999998 0.0099999998 0.30000001
0.19999993 0.0099999998 0.16000001
0.19999993 0.0099999998 0.18000001
0.19999993 0.0099999998 0.2
0.19999993 0.0099999998 0.22000001
0.19999993 0.0099999998 0.24000001
0.19999994 0.0099999998 0.26000002
0.19999994 0.0099999998 0.28
0.19999996 0.0099999998 0.30000001
0.21999989 0.0099999998 0.16000001
0.21999989 0.0099999998 0.18000001
0.21999989 0.0099999998 0.20000002
0.21999989 0.0099999998 0.22000001
0.21999991 0.0099999998 0.24000001
0.21999991 0.0099999998 0.26000002
0.21999992 0.0099999998 0.28000003
0.21999994 0.0099999998 0.30000001
0.23999985 0.0099999998 0.16000001
0.23999986 0.0099999998 0.18000001
0.23999986 0.0099999998 0.20000002
0.23999986 0.0099999998 0.22000001
0.23999988 0.0099999998 0.24000002
0.23999988 0.0099999998 0.26000002
0.23999989 0.0099999998 0.28000003
0.23999991 0.0099999998 0.30000004
0.25999978 0.0099999998 0.16000001
0.25999981 0.0099999998 0.18000002
0.25999981 0.0099999998 0.20000002
0.25999981 0.0099999998 0.22000003
0.25999981 0.0099999998 0.24000002
0.25999984 0.0099999998 0.26000005
0.25999984 0.0099999998 0.28000006
0.25999987 0.0099999998 0.30000007
0.27999973 0.0099999998 0.16000001
0.27999973 0.0099999998 0.18000002
0.27999973 0.0099999998 0.20000003
0.27999973 0.0099999998 0.22000003
0.27999973 0.0099999998 0.24000004
0.27999976 0.0099999998 0.26000005
0.27999979 0.0099999998 0.28000009
0.27999979 0.0099999998 0.3000001
0.29999962 0.0099999998 0.16000003
0.29999962 0.0099999998 0.18000002
0.29999962 0.0099999998 0.20000003
0.29999962 0.0099999998 0.22000004
0.29999965 0.0099999998 0.24000005
0.29999965 0.0099999998 0.26000008
0.29999968 0.0099999998 0.28000012
0.29999971 0.0099999998 0.30000013
0.31999949 0.0099999998 0.16000003
0.31999949 0.0099999998 0.18000004
0.31999949 0.0099999998 0.20000005
0.31999952 0.0099999998 0.22000006
0.31999952 0.0099999998 0.24000008
0.31999955 0.0099999998 0.26000011
0.31999958 0.0099999998 0.28000015
0.31999961 0.0099999998 0.30000019
0.33999929 0.0099999998 0.16000004
0.33999932 0.0099999998 0.18000005
0.33999932 0.0099999998 0.20000006
0.33999932 0.0099999998 0.22000009
0.33999935 0.0099999998 0.24000011
0.33999938 0.0099999998 0.26000014
0.33999941 0.0099999998 0.28000021
0.33999944 0.0099999998 0.30000025
0.35999906 0.0099999998 0.16000006
0.35999906 0.0099999998 0.18000007
0.35999906 0.0099999998 0.20000008
0.35999909 0.0099999998 0.22000012
0.35999909 0.0099999998 0.24000014
0.35999912 0.0099999998 0.2600002
0.35999918 0.0099999998 0.28000027
0.35999924 0.0099999998 0.30000037
0.37999874 0.0099999998 0.16000007
0.37999874 0.0099999998 0.18000008
0.37999874 0.0099999998 0.20000011
0.37999877 0.0099999998 0.22000015
0.37999877 0.0099999998 0.24000019
0.37999883 0.0099999998 0.26000026
0.37999889 0.0099999998 0.28000036
0.37999895 0.0099999998 0.30000049
0.39999834 0.0099999998 0.16000009
0.39999834 0.0099999998 0.18000011
0.39999834 0.0099999998 0.20000014
0.39999834 0.0099999998 0.22000019
0.39999837 0.0099999998 0.24000025
0.3999984 0.0099999998 0.26000035
0.39999849 0.0099999998 0.28000048
0.39999858 0.0099999998 0.30000064
0.41999784 0.0099999998 0.16000012
0.41999781 0.0099999998 0.18000014
0.41999781 0.0099999998 0.20000018
0.41999781 0.0099999998 0.22000024
0.41999781 0.0099999998 0.24000032
0.41999784 0.0099999998 0.26000044
0.41999793 0.0099999998 0.28000063
0.41999808 0.0099999998 0.30000088
0.43999717 0.0099999998 0.16000016
0.43999714 0.0099999998 0.1800002
0.43999711 0.0099999998 0.20000024
0.43999711 0.0099999998 0.22000031
0.43999708 0.0099999998 0.24000041
0.43999711 0.0099999998 0.26000056
0.4399972 0.0099999998 0.28000084
0.43999738 0.0099999998 0.30000114
0.45999628 0.0099999998 0.16000023
0.45999625 0.0099999998 0.18000029
0.45999622 0.0099999998 0.20000035
0.45999616 0.0099999998 0.22000042
0.45999613 0.0099999998 0.24000053
0.45999616 0.0099999998 0.26000074
0.45999622 0.0099999998 0.28000107
0.45999643 0.0099999998 0.3000015
0.47999516 0.0099999998 0.16000035
0.4799951 0.0099999998 0.18000041
0.47999504 0.0099999998 0.20000048
0.47999498 0.0099999998 0.22000057
0.47999492 0.0099999998 0.24000071
0.47999489 0.0099999998 0.26000094
0.47999492 0.0099999998 0.28000137
0.47999513 0.0099999998 0.30000198
0.49999374 0.0099999998 0.1600005
0.49999365 0.0099999998 0.1800006
0.49999356 0.0099999998 0.20000072
0.49999347 0.0099999998 0.22000082
0.49999335 0.0099999998 0.24000098
0.49999323 0.0099999998 0.26000124
0.49999321 0.0099999998 0.28000179
0.49999335 0.0099999998 0.30000263
0.51999193 0.0099999998 0.16000073
0.51999182 0.0099999998 0.18000089
0.5199917 0.0099999998 0.20000106
0.51999158 0.0099999998 0.22000122
0.5199914 0.0099999998 0.24000141
0.51999116 0.0099999998 0.26000169
0.51999098 0.0099999998 0.28000236
0.51999092 0.0099999998 0.30000353
0.53998971 0.0099999998 0.16000104
0.53998959 0.0099999998 0.18000129
0.53998941 0.0099999998 0.20000154
0.53998929 0.0099999998 0.22000182
0.53998905 0.0099999998 0.2400021
0.5399887 0.0099999998 0.26000243
0.53998816 0.0099999998 0.28000325
0.53998774 0.0099999998 0.30000481
0.55998713 0.0099999998 0.16000144
0.55998695 0.0099999998 0.1800018
0.55998677 0.0099999998 0.20000218
0.55998659 0.0099999998 0.22000259
0.55998635 0.0099999998 0.24000306
0.55998582 0.0099999998 0.26000366
0.55998486 0.0099999998 0.28000474
0.55998367 0.0099999998 0.30000681
0.57998437 0.0099999998 0.16000193
0.57998413 0.0099999998 0.18000241
0.57998389 0.0099999998 0.20000292
0.57998359 0.0099999998 0.22000356
0.57998317 0.0099999998 0.24000433
0.57998252 0.0099999998 0.2600055
0.57998115 0.0099999998 0.2800073
0.57997888 0.0099999998 0.30000997
0.59998155 0.0099999998 0.16000247
0.59998125 0.0099999998 0.18000308
0.59998083 0.0099999998 0.2000038
0.59998041 0.0099999998 0.22000474
0.59997988 0.0099999998 0.24000612
0.59997886 0.0099999998 0.26000822
0.59997714 0.0099999998 0.28001153
0.59997392 0.0099999998 0.30001521
0.6199789 0.0099999998 0.16000307
0.61997843 0.0099999998 0.18000384
0.61997795 0.0099999998 0.20000485
0.6199773 0.0099999998 0.22000635
0.6199764 0.0099999998 0.24000888
0.61997527 0.0099999998 0.26001322
0.6199733 0.0099999998 0.2800189
0.61996955 0.0099999998 0.30002385
0.63997656 0.0099999998 0.16000377
0.63997597 0.0099999998 0.18000479
0.63997525 0.0099999998 0.20000625
0.63997442 0.0099999998 0.22000889
0.63997346 0.0099999998 0.24001391
0.63997251 0.0099999998 0.26002195
0.63997066 0.0099999998 0.280031
0.63996655 0.0099999998 0.30003715
0.65997487 0.0099999998 0.16000463
0.65997422 0.0099999998 0.18000598
0.65997332 0.0099999998 0.20000824
0.65997243 0.0099999998 0.22001265
0.65997159 0.0099999998 0.24002089
0.659971 0.0099999998 0.2600337
0.65996951 0.0099999998 0.28004646
0.65996575 0.0099999998 0.30005336
0.67997468 0.0099999998 0.16000552
0.67997402 0.0099999998 0.18000722
0.67997319 0.0099999998 0.20001023
0.67997235 0.0099999998 0.2200163
0.67997175 0.0099999998 0.24002755
0.67997158 0.0099999998 0.26004446
0.67997062 0.0099999998 0.28006035
0.67996812 0.0099999998 0.30006763
0.69997746 0.0099999998 0.16000636
0.69997686 0.0099999998 0.18000834
0.69997621 0.0099999998 0.20001195
0.69997561 0.0099999998 0.22001918
0.69997519 0.0099999998 0.24003235
0.69997519 0.0099999998 0.26005182
0.69997489 0.0099999998 0.28006956
0.69997436 0.0099999998 0.30007708
0.71998382 0.0099999998 0.16000703
0.71998334 0.0099999998 0.1800092
0.7199828 0.0099999998 0.20001313
0.71998227 0.0099999998 0.22002091
0.71998191 0.0099999998 0.240035
0.71998173 0.0099999998 0.26005575
0.71998179 0.0099999998 0.28007454
0.71998203 0.0099999998 0.30008262
0.73999006 0.0099999998 0.16000752
0.73998976 0.0099999998 0.1800098
0.73998934 0.0099999998 0.20001388
0.73998904 0.0099999998 0.22002187
0.73998874 0.0099999998 0.24003635
0.73998863 0.0099999998 0.26005769
0.73998868 0.0099999998 0.2800771
0.73998892 0.0099999998 0.30008572
0.75999492 0.0099999998 0.16000783
0.75999469 0.0099999998 0.18001017
0.75999451 0.0099999998 0.20001431
0.75999433 0.0099999998 0.22002241
0.75999415 0.0099999998 0.24003702
0.75999409 0.0099999998 0.26005858
0.75999415 0.0099999998 0.28007838
0.75999433 0.0099999998 0.30008733
0.77999848 0.0099999998 0.16000801
0.77999836 0.0099999998 0.18001038
0.7799983 0.0099999998 0.20001452
0.77999824 0.0099999998 0.22002263
0.77999818 0.0099999998 0.24003726
0.77999818 0.0099999998 0.26005891
0.77999824 0.0099999998 0.28007886
0.7799983 0.0099999998 0.30008805
0.8000012 0.0099999998 0.16000806
0.80000126 0.0099999998 0.18001041
0.80000126 0.0099999998 0.20001455
0.80000132 0.0099999998 0.22002263
0.80000132 0.0099999998 0.24003723
0.80000138 0.0099999998 0.26005885
0.80000144 0.0099999998 0.28007886
0.80000144 0.0099999998 0.30008814
0.82000375 0.0099999998 0.16000798
0.82000387 0.0099999998 0.18001032
0.82000399 0.0099999998 0.20001441
0.82000411 0.0099999998 0.22002244
0.82000422 0.0099999998 0.24003699
0.82000428 0.0099999998 0.26005855
0.82000434 0.0099999998 0.28007853
0.82000428 0.0099999998 0.30008778
0.84000635 0.0099999998 0.16000782
0.84000653 0.0099999998 0.1800101
0.84000677 0.0099999998 0.20001411
0.84000695 0.0099999998 0.22002199
0.84000713 0.0099999998 0.24003628
0.84000725 0.0099999998 0.26005748
0.84000725 0.0099999998 0.28007716
0.84000719 0.0099999998 0.30008626
0.86000896 0.0099999998 0.16000755
0.86000925 0.0099999998 0.18000975
0.86000955 0.0099999998 0.20001364
0.86000985 0.0099999998 0.22002126
0.86001009 0.0099999998 0.2400351
0.86001021 0.0099999998 0.26005566
0.86001021 0.0099999998 0.28007475
0.86001015 0.0099999998 0.30008361
0.8800115 0.0099999998 0.16000721
0.8800118 0.0099999998 0.18000931
0.88001221 0.0099999998 0.20001301
0.88001257 0.0099999998 0.22002026
0.88001287 0.0099999998 0.24003346
0.88001305 0.0099999998 0.2600531
0.88001305 0.0099999998 0.28007135
0.88001293 0.0099999998 0.30007991
0.90001363 0.0099999998 0.16000679
0.90001404 0.0099999998 0.18000875
0.90001446 0.0099999998 0.20001224
0.90001488 0.0099999998 0.22001904
0.90001523 0.0099999998 0.24003144
0.90001547 0.0099999998 0.26004988
0.90001547 0.0099999998 0.28006715
0.90001529 0.0099999998 0.30007529
0.92001504 0.0099999998 0.16000633
0.92001557 0.0099999998 0.18000814
0.92001611 0.0099999998 0.20001134
0.92001665 0.0099999998 0.22001764
0.92001706 0.0099999998 0.24002911
0.9200173 0.0099999998 0.26004621
0.92001724 0.0099999998 0.28006229
0.92001718 0.0099999998 0.30006999
0.94001549 0.0099999998 0.16000587
0.94001609 0.0099999998 0.18000753
0.94001681 0.0099999998 0.2000104
0.94001764 0.0099999998 0.22001612
0.94001824 0.0099999998 0.24002656
0.94001848 0.0099999998 0.26004222
0.94001842 0.0099999998 0.28005701
0.94001836 0.0099999998 0.30006421
0.9600153 0.0099999998 0.16000539
0.96001595 0.0099999998 0.18000689
0.96001679 0.0099999998 0.20000945
0.96001774 0.0099999998 0.22001453
0.96001863 0.0099999998 0.24002391
0.96001905 0.0099999998 0.26003808
0.96001911 0.0099999998 0.28005159
0.96001911 0.0099999998 0.30005825
0.98001492 0.0099999998 0.1600049
0.98001558 0.0099999998 0.18000625
0.98001641 0.0099999998 0.2000085
0.98001748 0.0099999998 0.22001296
0.98001856 0.0099999998 0.24002132
0.98001927 0.0099999998 0.26003397
0.98001957 0.0099999998 0.28004619
0.98001975 0.0099999998 0.30005231
1.0000143 0.0099999998 0.16000445
1.0000149999999999 0.0099999998 0.18000564
1.0000159 0.0099999998 0.2000076
1.000017 0.0099999998 0.22001152
1.0000184 0.0099999998 0.2400189
1.0000193000000002 0.0099999998 0.26003012
1.0000201 0.0099999998 0.28004101
1.0000207 0.0099999998 0.30004659
1.0200136999999998 0.0099999998 0.16000403
1.0200144 0.0099999998 0.18000509
1.0200152 0.0099999998 0.20000684
1.0200166 0.0099999998 0.2200103
1.0200182 0.0099999998 0.24001685
1.0200197 0.0099999998 0.26002672
1.0200209999999998 0.0099999998 0.28003624
1.0200223 0.0099999998 0.3000412
1.0400129999999999 0.0099999998 0.16000365
1.0400136999999998 0.0099999998 0.18000463
1.0400145 0.0099999998 0.20000622
1.0400159 0.0099999998 0.22000942
1.040018 0.0099999998 0.2400153
1.0400201 0.0099999998 0.26002392
1.0400224 0.0099999998 0.28003204
1.0400245000000001 0.0099999998 0.30003631
1.0600121999999998 0.0099999998 0.16000329
1.0600128999999998 0.0099999998 0.18000424
1.0600139 0.0099999998 0.20000578
1.0600154 0.0099999998 0.22000889
1.0600178 0.0099999998 0.24001431
1.0600208 0.0099999998 0.26002181
1.0600241000000001 0.0099999998 0.28002846
1.0600273999999998 0.0099999998 0.30003196
1.0800115 0.0099999998 0.16000299
1.0800121999999999 0.0099999998 0.18000393
1.0800133 0.0099999998 0.20000558
1.0800152 0.0099999998 0.22000876
1.0800178999999999 0.0099999998 0.24001391
1.0800215 0.0099999998 0.26002038
1.0800256000000001 0.0099999998 0.28002557
1.0800296 0.0099999998 0.30002815
1.1000108 0.0099999998 0.16000272
1.1000115 0.0099999998 0.18000376
1.1000128999999998 0.0099999998 0.20000562
1.1000149 0.0099999998 0.22000898
1.100018 0.0099999998 0.24001394
1.1000219999999998 0.0099999998 0.26001936
1.1000261 0.0099999998 0.28002325
1.1200101 0.0099999998 0.16000256
1.1200111000000001 0.0099999998 0.18000378
1.1200126 0.0099999998 0.20000596
1.120015 0.0099999998 0.22000954
1.1200184 0.0099999998 0.24001421
1.1200222 0.0099999998 0.26001853
1.120026 0.0099999998 0.28002116
1.1400096000000002 0.0099999998 0.16000259
1.1400108 0.0099999998 0.18000408
1.1400126 0.0099999998 0.20000662
1.1400153999999998 0.0099999998 0.22001034
1.1400187 0.0099999998 0.24001443
1.1400222 0.0099999998 0.2600176
1.1600095 0.0099999998 0.16000287
1.1600108999999998 0.0099999998 0.18000475
1.1600131999999999 0.0099999998 0.20000763
1.1600161 0.0099999998 0.22001119
1.1600193 0.0099999998 0.24001446
1.1600221000000002 0.0099999998 0.26001662
1.1800097 0.0099999998 0.1600036
1.1800117 0.0099999998 0.18000582
1.1800143 0.0099999998 0.20000874
1.180017 0.0099999998 0.22001185
1.1800196000000003 0.0099999998 0.24001427
1.2000110000000002 0.0099999998 0.16000475
1.2000133999999998 0.0099999998 0.180007
1.2000157 0.0099999998 0.20000964
1.2000178 0.0099999998 0.22001219
1.2200131 0.0099999998 0.16000591
1.2200152 0.0099999998 0.18000802
1.2200168 0.0099999998 0.20001023
1.2200181 0.0099999998 0.2200122
1.2400148000000002 0.0099999998 0.16000701
1.240016 0.0099999998 0.18000887
1.2600151000000002 0.0099999998 0.16000792
VERTICES 2975 5950
1 0
1 1
1 2
1 3
1 4
1 5
1 6
1 7
1 8
1 9
1 10
1 11
1 12
1 13
1 14
1 15
1 16
1 17
1 18
1 19
1 20
1 21
1 22
1 23
1 24
1 25
1 26
1 27
1 28
1 29
1 30
1 31
1 32
1 33
1 34
1 35
1 36
1 37
1 38
1 39
1 40
1 41
1 42
1 43
1 44
1 45
1 46
1 47
1 48
1 49
1 50
1 51
1 52
1 53
1 54
1 55
1 56
1 57
1 58
1 59
1 60
1 61
1 62
1 63
1 64
1 65
1 66
1 67
1 68
1 69
1 70
1 71
1 72
1 73
1 74
1 75
1 76
1 77
1 78
1 79
1 80
1 81
1 82
1 83
1 84
1 85
1 86
1 87
1 88
1 89
1 90
1 91
1 92
1 93
1 94
1 95
1 96
1 97
1 98
1 99
1 100
1 101
1 102
1 103
1 104
1 105
1 106
1 107
1 108
1 109
1 110
1 111
1 112
1 113
1 114
1 115
1 116
1 117
1 118
1 119
1 120
1 121
1 122
1 123
1 124
1 125
1 126
1 127
1 128
1 129
1 130
1 131
1 132
1 133
1 134
1 135
1 136
1 137
1 138
1 139
1 140
1 141
1 142
1 143
1 144
1 145
1 146
1 147
1 148
1 149
1 150
1 151
1 152
1 153
1 154
1 155
1 156
1 157
1 158
1 159
1 160
1 161
1 162
1 163
1 164
1 165
1 166
1 167
1 168
1 169
1 170
1 171
1 172
1 173
1 174
1 175
1 176
1 177
1 178
1 179
1 180
1 181
1 182
1 183
1 184
1 185
1 186
1 187
1 188
1 189
1 190
1 191
1 192
1 193
1 194
1 195
1 196
1 197
1 198
1 199
1 200
1 201
1 202
1 203
1 204
1 205
1 206
1 207
1 208
1 209
1 210
1 211
1 212
1 213
1 214
1 215
1 216
1 217
1 218
1 219
1 220
1 221
1 222
1 223
1 224
1 225
1 226
1 227
1 228
1 229
1 230
1 231
1 232
1 233
1 234
1 235
1 236
1 237
1 238
1 239
1 240
1 241
1 242
1 243
1 244
1 245
1 246
1 247
1 248
1 249
1 250
1 251
1 252
1 253
1 254
1 255
1 256
1 257
1 258
1 259
1 260
1 261
1 262
1 263
1 264
1 265
1 266
1 267
1 268
1 269
1 270
1 271
1 272
1 273
1 274
1 275
1 276
1 277
1 278
1 279
1 280
1 281
1 282
1 283
1 284
1 285
1 286
1 287
1 288
1 289
1 290
1 291
1 292
1 293
1 294
1 295
1 296
1 297
1 298
1 299
1 300
1 301
1 302
1 303
1 304
1 305
1 306
1 307
1 308
1 309
1 310
1 311
1 312
1 313
1 314
1 315
1 316
1 317
1 318
1 319
1 320
1 321
1 322
1 323
1 324
1 325
1 326
1 327
1 328
1 329
1 330
1 331
1 332
1 333
1 334
1 335
1 336
1 337
1 338
1 339
1 340
1 341
1 342
1 343
1 344
1 345
1 346
1 347
1 348
1 349
1 350
1 351
1 352
1 353
1 354
1 355
1 356
1 357
1 358
1 359
1 360
1 361
1 362
1 363
1 364
1 365
1 366
1 367
1 368
1 369
1 370
1 371
1 372
1 373
1 374
1 375
1 376
1 377
1 378
1 379
1 380
1 381
1 382
1 383
1 384
1 385
1 386
1 387
1 388
1 389
1 390
1 391
1 392
1 393
1 394
1 395
1 396
1 397
1 398
1 399
1 400
1 401
1 402
1 403
1 404
1 405
1 406
1 407
1 408
1 409
1 410
1 411
1 412
1 413
1 414
1 415
1 416
1 417
1 418
1 419
1 420
1 421
1 422
1 423
1 424
1 425
1 426
1 427
1 428
1 429
1 430
1 431
1 432
1 433
1 434
1 435
1 436
1 437
1 438
1 439
1 440
1 441
1 442
1 443
1 444
1 445
1 446
1 447
1 448
1 449
1 450
1 451
1 452
1 453
1 454
1 455
1 456
1 457
1 458
1 459
1 460
1 461
1 462
1 463
1 464
1 465
1 466
1 467
1 468
1 469
1 470
1 471
1 472
1 473
1 474
1 475
1 476
1 477
1 478
1 479
1 480
1 481
1 482
1 483
1 484
1 485
1 486
1 487
1 488
1 489
1 490
1 491
1 492
1 493
1 494
1 495
1 496
1 497
1 498
1 499
1 500
1 501
1 502
1 503
1 504
1 505
1 506
1 507
1 508
1 509
1 510
1 511
1 512
1 513
1 514
1 515
1 516
1 517
1 518
1 519
1 520
1 521
1 522
1 523
1 524
1 525
1 526
1 527
1 528
1 529
1 530
1 531
1 532
1 533
1 534
1 535
1 536
1 537
1 538
1 539
1 540
1 541
1 542
1 543
1 544
1 545
1 546
1 547
1 548
1 549
1 550
1 551
1 552
1 553
1 554
1 555
1 556
1 557
1 558
1 559
1 560
1 561
1 562
1 563
1 564
1 565
1 566
1 567
1 568
1 569
1 570
1 571
1 572
1 573
1 574
1 575
1 576
1 577
1 578
1 579
1 580
1 581
1 582
1 583
1 584
1 585
1 586
1 587
1 588
1 589
1 590
1 591
1 592
1 593
1 594
1 595
1 596
1 597
1 598
1 599
1 600
1 601
1 602
1 603
1 604
1 605
1 606
1 607
1 608
1 609
1 610
1 611
1 612
1 613
1 614
1 615
1 616
1 617
1 618
1 619
1 620
1 621
1 622
1 623
1 624
1 625
1 626
1 627
1 628
1 629
1 630
1 631
1 632
1 633
1 634
1 635
1 636
1 637
1 638
1 639
1 640
1 641
1 642
1 643
1 644
1 645
1 646
1 647
1 648
1 649
1 650
1 651
1 652
1 653
1 654
1 655
1 656
1 657
1 658
1 659
1 660
1 661
1 662
1 663
1 664
1 665
1 666
1 667
1 668
1 669
1 670
1 671
1 672
1 673
1 674
1 675
1 676
1 677
1 678
1 679
1 680
1 681
1 682
1 683
1 684
1 685
1 686
1 687
1 688
1 689
1 690
1 691
1 692
1 693
1 694
1 695
1 696
1 697
1 698
1 699
1 700
1 701
1 702
1 703
1 704
1 705
1 706
1 707
1 708
1 709
1 710
1 711
1 712
1 713
1 714
1 715
1 716
1 717
1 718
1 719
1 720
1 721
1 722
1 723
1 724
1 725
1 726
1 727
1 728
1 729
1 730
1 731
1 732
1 733
1 734
1 735
1 736
1 737
1 738
1 739
1 740
1 741
1 742
1 743
1 744
1 745
1 746
1 747
1 748
1 749
1 750
1 751
1 752
1 753
1 754
1 755
1 756
1 757
1 758
1 759
1 760
1 761
1 762
1 763
1 764
1 765
1 766
1 767
1 768
1 769
1 770
1 771
1 772
1 773
1 774
1 775
1 776
1 777
1 778
1 779
1 780
1 781
1 782
1 783
1 784
1 785
1 786
1 787
1 788
1 789
1 790
1 791
1 792
1 793
1 794
1 795
1 796
1 797
1 798
1 799
1 800
1 801
1 802
1 803
1 804
1 805
1 806
1 807
1 808
1 809
1 810
1 811
1 812
1 813
1 814
1 815
1 816
1 817
1 818
1 819
1 820
1 821
1 822
1 823
1 824
1 825
1 826
1 827
1 828
1 829
1 830
1 831
1 832
1 833
1 834
1 835
1 836
1 837
1 838
1 839
1 840
1 841
1 842
1 843
1 844
1 845
1 846
1 847
1 848
1 849
1 850
1 851
1 852
1 853
1 854
1 855
1 856
1 857
1 858
1 859
1 860
1 861
1 862
1 863
1 864
1 865
1 866
1 867
1 868
1 869
1 870
1 871
1 872
1 873
1 874
1 875
1 876
1 877
1 878
1 879
1 880
1 881
1 882
1 883
1 884
1 885
1 886
1 887
1 888
1 889
1 890
1 891
1 892
1 893
1 894
1 895
1 896
1 897
1 898
1 899
1 900
1 901
1 902
1 903
1 904
1 905
1 906
1 907
1 908
1 909
1 910
1 911
1 912
1 913
1 914
1 915
1 916
1 917
1 918
1 919
1 920
1 921
1 922
1 923
1 924
1 925
1 926
1 927
1 928
1 929
1 930
1 931
1 932
1 933
1 934
1 935
1 936
1 937
1 938
1 939
1 940
1 941
1 942
1 943
1 944
1 945
1 946
1 947
1 948
1 949
1 950
1 951
1 952
1 953
1 954
1 955
1 956
1 957
1 958
1 959
1 960
1 961
1 962
1 963
1 964
1 965
1 966
1 967
1 968
1 969
1 970
1 971
1 972
1 973
1 974
1 975
1 976
1 977
1 978
1 979
1 980
1 981
1 982
1 983
1 984
1 985
1 986
1 987
1 988
1 989
1 990
1 991
1 992
1 993
1 994
1 995
1 996
1 997
1 998
1 999
1 1000
1 1001
1 1002
1 1003
1 1004
1 1005
1 1006
1 1007
1 1008
1 1009
1 1010
1 1011
1 1012
1 1013
1 1014
1 1015
1 1016
1 1017
1 1018
1 1019
1 1020
1 1021
1 1022
1 1023
1 1024
1 1025
1 1026
1 1027
1 1028
1 1029
1 1030
1 1031
1 1032
1 1033
1 1034
1 1035
1 1036
1 1037
1 1038
1 1039
1 1040
1 1041
1 1042
1 1043
1 1044
1 1045
1 1046
1 1047
1 1048
1 1049
1 1050
1 1051
1 1052
1 1053
1 1054
1 1055
1 1056
1 1057
1 1058
1 1059
1 1060
1 1061
1 1062
1 1063
1 1064
1 1065
1 1066
1 1067
1 1068
1 1069
1 1070
1 1071
1 1072
1 1073
1 1074
1 1075
1 1076
1 1077
1 1078
1 1079
1 1080
1 1081
1 1082
1 1083
1 1084
1 1085
1 1086
1 1087
1 1088
1 1089
1 1090
1 1091
1 1092
1 1093
1 1094
1 1095
1 1096
1 1097
1 1098
1 1099
1 1100
1 1101
1 1102
1 1103
1 1104
1 1105
1 1106
1 1107
1 1108
1 1109
1 1110
1 1111
1 1112
1 1113
1 1114
1 1115
1 1116
1 1117
1 1118
1 1119
1 1120
1 1121
1 1122
1 1123
1 1124
1 1125
1 1126
1 1127
1 1128
1 1129
1 1130
1 1131
1 1132
1 1133
1 1134
1 1135
1 1136
1 1137
1 1138
1 1139
1 1140
1 1141
1 1142
1 1143
1 1144
1 1145
1 1146
1 1147
1 1148
1 1149
1 1150
1 1151
1 1152
1 1153
1 1154
1 1155
1 1156
1 1157
1 1158
1 1159
1 1160
1 1161
1 1162
1 1163
1 1164
1 1165
1 1166
1 1167
1 1168
1 1169
1 1170
1 1171
1 1172
1 1173
1 1174
1 1175
1 1176
1 1177
1 1178
1 1179
1 1180
1 1181
1 1182
1 1183
1 1184
1 1185
1 1186
1 1187
1 1188
1 1189
1 1190
1 1191
1 1192
1 1193
1 1194
1 1195
1 1196
1 1197
1 1198
1 1199
1 1200
1 1201
1 1202
1 1203
1 1204
1 1205
1 1206
1 1207
1 1208
1 1209
1 1210
1 1211
1 1212
1 1213
1 1214
1 1215
1 1216
1 1217
1 1218
1 1219
1 1220
1 1221
1 1222
1 1223
1 1224
1 1225
1 1226
1 1227
1 1228
1 1229
1 1230
1 1231
1 1232
1 1233
1 1234
1 1235
1 1236
1 1237
1 1238
1 1239
1 1240
1 1241
1 1242
1 1243
1 1244
1 1245
1 1246
1 1247
1 1248
1 1249
1 1250
1 1251
1 1252
1 1253
1 1254
1 1255
1 1256
1 1257
1 1258
1 1259
1 1260
1 1261
1 1262
1 1263
1 1264
1 1265
1 1266
1 1267
1 1268
1 1269
1 1270
1 1271
1 1272
1 1273
1 1274
1 1275
1 1276
1 1277
1 1278
1 1279
1 1280
1 1281
1 1282
1 1283
1 1284
1 1285
1 1286
1 1287
1 1288
1 1289
1 1290
1 1291
1 1292
1 1293
1 1294
1 1295
1 1296
1 1297
1 1298
1 1299
1 1300
1 1301
1 1302
1 1303
1 1304
1 1305
1 1306
1 1307
1 1308
1 1309
1 1310
1 1311
1 1312
1 1313
1 1314
1 1315
1 1316
1 1317
1 1318
1 1319
1 1320
1 1321
1 1322
1 1323
1 1324
1 1325
1 1326
1 1327
1 1328
1 1329
1 1330
1 1331
1 1332
1 1333
1 1334
1 1335
1 1336
1 1337
1 1338
1 1339
1 1340
1 1341
1 1342
1 1343
1 1344
1 1345
1 1346
1 1347
1 1348
1 1349
1 1350
1 1351
1 1352
1 1353
1 1354
1 1355
1 1356
1 1357
1 1358
1 1359
1 1360
1 1361
1 1362
1 1363
1 1364
1 1365
1 1366
1 1367
1 1368
1 1369
1 1370
1 1371
1 1372
1 1373
1 1374
1 1375
1 1376
1 1377
1 1378
1 1379
1 1380
1 1381
1 1382
1 1383
1 1384
1 1385
1 1386
1 1387
1 1388
1 1389
1 1390
1 1391
1 1392
1 1393
1 1394
1 1395
1 1396
1 1397
1 1398
1 1399
1 1400
1 1401
1 1402
1 1403
1 1404
1 1405
1 1406
1 1407
1 1408
1 1409
1 1410
1 1411
1 1412
1 1413
1 1414
1 1415
1 1416
1 1417
1 1418
1 1419
1 1420
1 1421
1 1422
1 1423
1 1424
1 1425
1 1426
1 1427
1 1428
1 1429
1 1430
1 1431
1 1432
1 1433
1 1434
1 1435
1 1436
1 1437
1 1438
1 1439
1 1440
1 1441
1 1442
1 1443
1 1444
1 1445
1 1446
1 1447
1 1448
1 1449
1 1450
1 1451
1 1452
1 1453
1 1454
1 1455
1 1456
1 1457
1 1458
1 1459
1 1460
1 1461
1 1462
1 1463
1 1464
1 1465
1 1466
1 1467
1 1468
1 1469
1 1470
1 1471
1 1472
1 1473
1 1474
1 1475
1 1476
1 1477
1 1478
1 1479
1 1480
1 1481
1 1482
1 1483
1 1484
1 1485
1 1486
1 1487
1 1488
1 1489
1 1490
1 1491
1 1492
1 1493
1 1494
1 1495
1 1496
1 1497
1 1498
1 1499
1 1500
1 1501
1 1502
1 1503
1 1504
1 1505
1 1506
1 1507
1 1508
1 1509
1 1510
1 1511
1 1512
1 1513
1 1514
1 1515
1 1516
1 1517
1 1518
1 1519
1 1520
1 1521
1 1522
1 1523
1 1524
1 1525
1 1526
1 1527
1 1528
1 1529
1 1530
1 1531
1 1532
1 1533
1 1534
1 1535
1 1536
1 1537
1 1538
1 1539
1 1540
1 1541
1 1542
1 1543
1 1544
1 1545
1 1546
1 1547
1 1548
1 1549
1 1550
1 1551
1 1552
1 1553
1 1554
1 1555
1 1556
1 1557
1 1558
1 1559
1 1560
1 1561
1 1562
1 1563
1 1564
1 1565
1 1566
1 1567
1 1568
1 1569
1 1570
1 1571
1 1572
1 1573
1 1574
1 1575
1 1576
1 1577
1 1578
1 1579
1 1580
1 1581
1 1582
1 1583
1 1584
1 1585
1 1586
1 1587
1 1588
1 1589
1 1590
1 1591
1 1592
1 1593
1 1594
1 1595
1 1596
1 1597
1 1598
1 1599
1 1600
1 1601
1 1602
1 1603
1 1604
1 1605
1 1606
1 1607
1 1608
1 1609
1 1610
1 1611
1 1612
1 1613
1 1614
1 1615
1 1616
1 1617
1 1618
1 1619
1 1620
1 1621
1 1622
1 1623
1 1624
1 1625
1 1626
1 1627
1 1628
1 1629
1 1630
1 1631
1 1632
1 1633
1 1634
1 1635
1 1636
1 1637
1 1638
1 1639
1 1640
1 1641
1 1642
1 1643
1 1644
1 1645
1 1646
1 1647
1 1648
1 1649
1 1650
1 1651
1 1652
1 1653
1 1654
1 1655
1 1656
1 1657
1 1658
1 1659
1 1660
1 1661
1 1662
1 1663
1 1664
1 1665
1 1666
1 1667
1 1668
1 1669
1 1670
1 1671
1 1672
1 1673
1 1674
1 1675
1 1676
1 1677
1 1678
1 1679
1 1680
1 1681
1 1682
1 1683
1 1684
1 1685
1 1686
1 1687
1 1688
1 1689
1 1690
1 1691
1 1692
1 1693
1 1694
1 1695
1 1696
1 1697
1 1698
1 1699
1 1700
1 1701
1 1702
1 1703
1 1704
1 1705
1 1706
1 1707
1 1708
1 1709
1 1710
1 1711
1 1712
1 1713
1 1714
1 1715
1 1716
1 1717
1 1718
1 1719
1 1720
1 1721
1 1722
1 1723
1 1724
1 1725
1 1726
1 1727
1 1728
1 1729
1 1730
1 1731
1 1732
1 1733
1 1734
1 1735
1 1736
1 1737
1 1738
1 1739
1 1740
1 1741
1 1742
1 1743
1 1744
1 1745
1 1746
1 1747
1 1748
1 1749
1 1750
1 1751
1 1752
1 1753
1 1754
1 1755
1 1756
1 1757
1 1758
1 1759
1 1760
1 1761
1 1762
1 1763
1 1764
1 1765
1 1766
1 1767
1 1768
1 1769
1 1770
1 1771
1 1772
1 1773
1 1774
1 1775
1 1776
1 1777
1 1778
1 1779
1 1780
1 1781
1 1782
1 1783
1 1784
1 1785
1 1786
1 1787
1 1788
1 1789
1 1790
1 1791
1 1792
1 1793
1 1794
1 1795
1 1796
1 1797
1 1798
1 1799
1 1800
1 1801
1 1802
1 1803
1 1804
1 1805
1 1806
1 1807
1 1808
1 1809
1 1810
1 1811
1 1812
1 1813
1 1814
1 1815
1 1816
1 1817
1 1818
1 1819
1 1820
1 1821
1 1822
1 1823
1 1824
1 1825
1 1826
1 1827
1 1828
1 1829
1 1830
1 1831
1 1832
1 1833
1 1834
1 1835
1 1836
1 1837
1 1838
1 1839
1 1840
1 1841
1 1842
1 1843
1 1844
1 1845
1 1846
1 1847
1 1848
1 1849
1 1850
1 1851
1 1852
1 1853
1 1854
1 1855
1 1856
1 1857
1 1858
1 1859
1 1860
1 1861
1 1862
1 1863
1 1864
1 1865
1 1866
1 1867
1 1868
1 1869
1 1870
1 1871
1 1872
1 1873
1 1874
1 1875
1 1876
1 1877
1 1878
1 1879
1 1880
1 1881
1 1882
1 1883
1 1884
1 1885
1 1886
1 1887
1 1888
1 1889
1 1890
1 1891
1 1892
1 1893
1 1894
1 1895
1 1896
1 1897
1 1898
1 1899
1 1900
1 1901
1 1902
1 1903
1 1904
1 1905
1 1906
1 1907
1 1908
1 1909
1 1910
1 1911
1 1912
1 1913
1 1914
1 1915
1 1916
1 1917
1 1918
1 1919
1 1920
1 1921
1 1922
1 1923
1 1924
1 1925
1 1926
1 1927
1 1928
1 1929
1 1930
1 1931
1 1932
1 1933
1 1934
1 1935
1 1936
1 1937
1 1938
1 1939
1 1940
1 1941
1 1942
1 1943
1 1944
1 1945
1 1946
1 1947
1 1948
1 1949
1 1950
1 1951
1 1952
1 1953
1 1954
1 1955
1 1956
1 1957
1 1958
1 1959
1 1960
1 1961
1 1962
1 1963
1 1964
1 1965
1 1966
1 1967
1 1968
1 1969
1 1970
1 1971
1 1972
1 1973
1 1974
1 1975
1 1976
1 1977
1 1978
1 1979
1 1980
1 1981
1 1982
1 1983
1 1984
1 1985
1 1986
1 1987
1 1988
1 1989
1 1990
1 1991
1 1992
1 1993
1 1994
1 1995
1 1996
1 1997
1 1998
1 1999
1 2000
1 2001
1 2002
1 2003
1 2004
1 2005
1 2006
1 2007
1 2008
1 2009
1 2010
1 2011
1 2012
1 2013
1 2014
1 2015
1 2016
1 2017
1 2018
1 2019
1 2020
1 2021
1 2022
1 2023
1 2024
1 2025
1 2026
1 2027
1 2028
1 2029
1 2030
1 2031
1 2032
1 2033
1 2034
1 2035
1 2036
1 2037
1 2038
1 2039
1 2040
1 2041
1 2042
1 2043
1 2044
1 2045
1 2046
1 2047
1 2048
1 2049
1 2050
1 2051
1 2052
1 2053
1 2054
1 2055
1 2056
1 2057
1 2058
1 2059
1 2060
1 2061
1 2062
1 2063
1 2064
1 2065
1 2066
1 2067
1 2068
1 2069
1 2070
1 2071
1 2072
1 2073
1 2074
1 2075
1 2076
1 2077
1 2078
1 2079
1 2080
1 2081
1 2082
1 2083
1 2084
1 2085
1 2086
1 2087
1 2088
1 2089
1 2090
1 2091
1 2092
1 2093
1 2094
1 2095
1 2096
1 2097
1 2098
1 2099
1 2100
1 2101
1 2102
1 2103
1 2104
1 2105
1 2106
1 2107
1 2108
1 2109
1 2110
1 2111
1 2112
1 2113
1 2114
1 2115
1 2116
1 2117
1 2118
1 2119
1 2120
1 2121
1 2122
1 2123
1 2124
1 2125
1 2126
1 2127
1 2128
1 2129
1 2130
1 2131
1 2132
1 2133
1 2134
1 2135
1 2136
1 2137
1 2138
1 2139
1 2140
1 2141
1 2142
1 2143
1 2144
1 2145
1 2146
1 2147
1 2148
1 2149
1 2150
1 2151
1 2152
1 2153
1 2154
1 2155
1 2156
1 2157
1 2158
1 2159
1 2160
1 2161
1 2162
1 2163
1 2164
1 2165
1 2166
1 2167
1 2168
1 2169
1 2170
1 2171
1 2172
1 2173
1 2174
1 2175
1 2176
1 2177
1 2178
1 2179
1 2180
1 2181
1 2182
1 2183
1 2184
1 2185
1 2186
1 2187
1 2188
1 2189
1 2190
1 2191
1 2192
1 2193
1 2194
1 2195
1 2196
1 2197
1 2198
1 2199
1 2200
1 2201
1 2202
1 2203
1 2204
1 2205
1 2206
1 2207
1 2208
1 2209
1 2210
1 2211
1 2212
1 2213
1 2214
1 2215
1 2216
1 2217
1 2218
1 2219
1 2220
1 2221
1 2222
1 2223
1 2224
1 2225
1 2226
1 2227
1 2228
1 2229
1 2230
1 2231
1 2232
1 2233
1 2234
1 2235
1 2236
1 2237
1 2238
1 2239
1 2240
1 2241
1 2242
1 2243
1 2244
1 2245
1 2246
1 2247
1 2248
1 2249
1 2250
1 2251
1 2252
1 2253
1 2254
1 2255
1 2256
1 2257
1 2258
1 2259
1 2260
1 2261
1 2262
1 2263
1 2264
1 2265
1 2266
1 2267
1 2268
1 2269
1 2270
1 2271
1 2272
1 2273
1 2274
1 2275
1 2276
1 2277
1 2278
1 2279
1 2280
1 2281
1 2282
1 2283
1 2284
1 2285
1 2286
1 2287
1 2288
1 2289
1 2290
1 2291
1 2292
1 2293
1 2294
1 2295
1 2296
1 2297
1 2298
1 2299
1 2300
1 2301
1 2302
1 2303
1 2304
1 2305
1 2306
1 2307
1 2308
1 2309
1 2310
1 2311
1 2312
1 2313
1 2314
1 2315
1 2316
1 2317
1 2318
1 2319
1 2320
1 2321
1 2322
1 2323
1 2324
1 2325
1 2326
1 2327
1 2328
1 2329
1 2330
1 2331
1 2332
1 2333
1 2334
1 2335
1 2336
1 2337
1 2338
1 2339
1 2340
1 2341
1 2342
1 2343
1 2344
1 2345
1 2346
1 2347
1 2348
1 2349
1 2350
1 2351
1 2352
1 2353
1 2354
1 2355
1 2356
1 2357
1 2358
1 2359
1 2360
1 2361
1 2362
1 2363
1 2364
1 2365
1 2366
1 2367
1 2368
1 2369
1 2370
1 2371
1 2372
1 2373
1 2374
1 2375
1 2376
1 2377
1 2378
1 2379
1 2380
1 2381
1 2382
1 2383
1 2384
1 2385
1 2386
1 2387
1 2388
1 2389
1 2390
1 2391
1 2392
1 2393
1 2394
1 2395
1 2396
1 2397
1 2398
1 2399
1 2400
1 2401
1 2402
1 2403
1 2404
1 2405
1 2406
1 2407
1 2408
1 2409
1 2410
1 2411
1 2412
1 2413
1 2414
1 2415
1 2416
1 2417
1 2418
1 2419
1 2420
1 2421
1 2422
1 2423
1 2424
1 2425
1 2426
1 2427
1 2428
1 2429
1 2430
1 2431
1 2432
1 2433
1 2434
1 2435
1 2436
1 2437
1 2438
1 2439
1 2440
1 2441
1 2442
1 2443
1 2444
1 2445
1 2446
1 2447
1 2448
1 2449
1 2450
1 2451
1 2452
1 2453
1 2454
1 2455
1 2456
1 2457
1 2458
1 2459
1 2460
1 2461
1 2462
1 2463
1 2464
1 2465
1 2466
1 2467
1 2468
1 2469
1 2470
1 2471
1 2472
1 2473
1 2474
1 2475
1 2476
1 2477
1 2478
1 2479
1 2480
1 2481
1 2482
1 2483
1 2484
1 2485
1 2486
1 2487
1 2488
1 2489
1 2490
1 2491
1 2492
1 2493
1 2494
1 2495
1 2496
1 2497
1 2498
1 2499
1 2500
1 2501
1 2502
1 2503
1 2504
1 2505
1 2506
1 2507
1 2508
1 2509
1 2510
1 2511
1 2512
1 2513
1 2514
1 2515
1 2516
1 2517
1 2518
1 2519
1 2520
1 2521
1 2522
1 2523
1 2524
1 2525
1 2526
1 2527
1 2528
1 2529
1 2530
1 2531
1 2532
1 2533
1 2534
1 2535
1 2536
1 2537
1 2538
1 2539
1 2540
1 2541
1 2542
1 2543
1 2544
1 2545
1 2546
1 2547
1 2548
1 2549
1 2550
1 2551
1 2552
1 2553
1 2554
1 2555
1 2556
1 2557
1 2558
1 2559
1 2560
1 2561
1 2562
1 2563
1 2564
1 2565
1 2566
1 2567
1 2568
1 2569
1 2570
1 2571
1 2572
1 2573
1 2574
1 2575
1 2576
1 2577
1 2578
1 2579
1 2580
1 2581
1 2582
1 2583
1 2584
1 2585
1 2586
1 2587
1 2588
1 2589
1 2590
1 2591
1 2592
1 2593
1 2594
1 2595
1 2596
1 2597
1 2598
1 2599
1 2600
1 2601
1 2602
1 2603
1 2604
1 2605
1 2606
1 2607
1 2608
1 2609
1 2610
1 2611
1 2612
1 2613
1 2614
1 2615
1 2616
1 2617
1 2618
1 2619
1 2620
1 2621
1 2622
1 2623
1 2624
1 2625
1 2626
1 2627
1 2628
1 2629
1 2630
1 2631
1 2632
1 2633
1 2634
1 2635
1 2636
1 2637
1 2638
1 2639
1 2640
1 2641
1 2642
1 2643
1 2644
1 2645
1 2646
1 2647
1 2648
1 2649
1 2650
1 2651
1 2652
1 2653
1 2654
1 2655
1 2656
1 2657
1 2658
1 2659
1 2660
1 2661
1 2662
1 2663
1 2664
1 2665
1 2666
1 2667
1 2668
1 2669
1 2670
1 2671
1 2672
1 2673
1 2674
1 2675
1 2676
1 2677
1 2678
1 2679
1 2680
1 2681
1 2682
1 2683
1 2684
1 2685
1 2686
1 2687
1 2688
1 2689
1 2690
1 2691
1 2692
1 2693
1 2694
1 2695
1 2696
1 2697
1 2698
1 2699
1 2700
1 2701
1 2702
1 2703
1 2704
1 2705
1 2706
1 2707
1 2708
1 2709
1 2710
1 2711
1 2712
1 2713
1 2714
1 2715
1 2716
1 2717
1 2718
1 2719
1 2720
1 2721
1 2722
1 2723
1 2724
1 2725
1 2726
1 2727
1 2728
1 2729
1 2730
1 2731
1 2732
1 2733
1 2734
1 2735
1 2736
1 2737
1 2738
1 2739
1 2740
1 2741
1 2742
1 2743
1 2744
1 2745
1 2746
1 2747
1 2748
1 2749
1 2750
1 2751
1 2752
1 2753
1 2754
1 2755
1 2756
1 2757
1 2758
1 2759
1 2760
1 2761
1 2762
1 2763
1 2764
1 2765
1 2766
1 2767
1 2768
1 2769
1 2770
1 2771
1 2772
1 2773
1 2774
1 2775
1 2776
1 2777
1 2778
1 2779
1 2780
1 2781
1 2782
1 2783
1 2784
1 2785
1 2786
1 2787
1 2788
1 2789
1 2790
1 2791
1 2792
1 2793
1 2794
1 2795
1 2796
1 2797
1 2798
1 2799
1 2800
1 2801
1 2802
1 2803
1 2804
1 2805
1 2806
1 2807
1 2808
1 2809
1 2810
1 2811
1 2812
1 2813
1 2814
1 2815
1 2816
1 2817
1 2818
1 2819
1 2820
1 2821
1 2822
1 2823
1 2824
1 2825
1 2826
1 2827
1 2828
1 2829
1 2830
1 2831
1 2832
1 2833
1 2834
1 2835
1 2836
1 2837
1 2838
1 2839
1 2840
1 2841
1 2842
1 2843
1 2844
1 2845
1 2846
1 2847
1 2848
1 2849
1 2850
1 2851
1 2852
1 2853
1 2854
1 2855
1 2856
1 2857
1 2858
1 2859
1 2860
1 2861
1 2862
1 2863
1 2864
1 2865
1 2866
1 2867
1 2868
1 2869
1 2870
1 2871
1 2872
1 2873
1 2874
1 2875
1 2876
1 2877
1 2878
1 2879
1 2880
1 2881
1 2882
1 2883
1 2884
1 2885
1 2886
1 2887
1 2888
1 2889
1 2890
1 2891
1 2892
1 2893
1 2894
1 2895
1 2896
1 2897
1 2898
1 2899
1 2900
1 2901
1 2902
1 2903
1 2904
1 2905
1 2906
1 2907
1 2908
1 2909
1 2910
1 2911
1 2912
1 2913
1 2914
1 2915
1 2916
1 2917
1 2918
1 2919
1 2920
1 2921
1 2922
1 2923
1 2924
1 2925
1 2926
1 2927
1 2928
1 2929
1 2930
1 2931
1 2932
1 2933
1 2934
1 2935
1 2936
1 2937
1 2938
1 2939
1 2940
1 2941
1 2942
1 2943
1 2944
1 2945
1 2946
1 2947
1 2948
1 2949
1 2950
1 2951
1 2952
1 2953
1 2954
1 2955
1 2956
1 2957
1 2958
1 2959
1 2960
1 2961
1 2962
1 2963
1 2964
1 2965
1 2966
1 2967
1 2968
1 2969
1 2970
1 2971
1 2972
1 2973
1 2974
POINT_DATA 2975
SCALARS Idp unsigned_int
LOOKUP_TABLE default
0 1 39 40 41 80 81 82 121 122 123 162 163 164 203 204 205 244 245 246 285 286 287 326 327 328 367 368 369 408 409 410 449 450 451 461 462 463 471 472 473 481 482 483 491 492 493 501 502 503 511 512 513 521 522 523 531 532 533 541 542 543 551 552 2 3 4 5 6 7 8 9 42 43 44 45 46 47 48 49 83 84 85 86 87 88 89 90 124 125 126 127 128 129 130 131 165 166 167 168 169 170 171 172 206 207 208 209 210 211 212 213 247 248 249 250 251 252 253 254 288 289 290 291 292 293 294 295 329 330 331 332 333 334 335 336 370 371 372 373 374 375 376 377 411 412 413 414 415 416 417 418 452 453 454 464 465 474 475 484 485 494 495 504 505 514 515 524 525 534 535 544 545 553 554 10 11 12 13 14 15 16 17 18 50 51 52 53 54 55 56 57 58 91 92 93 94 95 96 97 98 99 132 133 134 135 136 137 138 139 140 173 174 175 176 177 178 179 180 181 214 215 216 217 218 219 220 221 222 255 256 257 258 259 260 261 262 263 296 297 298 299 300 301 302 303 304 337 338 339 340 341 342 343 344 345 378 379 380 381 382 383 384 385 386 419 420 421 422 423 424 425 426 427 19 20 21 22 23 24 25 26 59 60 61 62 63 64 65 66 100 101 102 103 104 105 106 107 141 142 143 144 145 146 147 148 182 183 184 185 186 187 188 189 223 224 225 226 227 228 229 230 264 265 266 267 268 269 270 271 305 306 307 308 309 310 311 312 346 347 348 349 350 351 352 353 387 388 389 390 391 392 393 394 428 429 430 431 432 433 434 435 27 28 29 30 31 32 33 34 35 67 68 69 70 71 72 73 74 75 108 109 110 111 112 113 114 115 116 149 150 151 152 153 154 155 156 157 190 191 192 193 194 195 196 197 198 231 232 233 234 235 236 237 238 239 272 273 274 275 276 277 278 279 280 313 314 315 316 317 318 319 320 321 354 355 356 357 358 359 360 361 362 395 396 397 398 399 400 401 402 403 436 437 438 439 440 441 442 443 444 455 456 466 476 486 496 506 516 526 536 546 555 36 37 38 76 77 78 79 117 118 119 120 158 159 160 161 199 200 201 202 240 241 242 243 281 282 283 284 322 323 324 325 363 364 365 366 404 405 406 407 445 446 447 448 457 458 459 460 467 468 469 470 477 478 479 480 487 488 489 490 497 498 499 500 507 508 509 510 517 518 519 520 527 528 529 530 537 538 539 540 547 548 549 550 556 557 558 559 560 561 562 563 564 565 566 567 568 569 570 571 572 573 574 575 576 577 578 579 580 581 582 583 584 585 586 587 588 589 590 591 592 593 594 595 596 597 598 599 600 601 602 603 604 605 606 607 608 609 610 611 612 613 614 615 616 617 618 619 620 621 622 623 624 625 626 627 628 629 630 631 632 633 634 635 636 637 638 639 640 641 642 643 644 645 646 647 648 649 650 651 652 653 654 655 656 657 658 659 660 661 662 663 664 665 666 667 668 669 670 671 672 673 674 675 676 677 678 679 680 681 682 683 684 685 686 687 688 689 690 691 692 693 694 695 696 697 698 699 700 701 702 703 704 705 706 707 708 709 710 711 712 713 714 715 716 717 718 719 720 721 722 723 724 725 726 727 728 729 730 731 732 733 734 735 736 737 738 739 740 741 742 743 744 745 746 747 748 749 750 751 752 753 754 755 756 757 758 759 760 761 762 763 764 765 766 767 768 769 770 771 772 773 774 775 776 777 778 779 780 781 782 783 784 785 786 787 788 789 790 791 792 793 794 795 796 797 798 799 800 801 802 803 804 805 806 807 808 809 810 811 812 813 814 815 816 817 818 819 820 821 822 823 824 825 826 827 828 829 830 831 832 833 834 835 836 837 838 839 840 841 842 843 844 845 846 847 848 849 850 851 852 853 854 855 856 857 858 859 860 861 862 863 864 865 866 867 868 869 870 871 872 873 874 875 876 877 878 879 880 881 882 883 884 885 886 887 888 889 890 891 892 893 894 895 896 897 898 899 900 901 902 903 904 905 906 907 908 909 910 911 912 913 914 915 916 917 918 919 920 921 922 923 924 925 926 927 928 929 930 931 932 933 934 935 936 937 938 939 940 941 942 943 944 945 946 947 948 949 950 951 952 953 954 955 956 957 958 959 960 961 962 963 964 965 966 967 968 969 970 971 972 973 974 975 976 977 978 979 980 981 982 983 984 985 986 987 988 989 990 991 992 993 994 995 996 997 998 999 1000 1001 1002 1003 1004 1005 1006 1007 1008 1009 1010 1011 1012 1013 1014 1015 1016 1017 1018 1019 1020 1021 1022 1023 1024 1025 1026 1027 1028 1029 1030 1031 1032 1033 1034 1035 1060 1061 1062 1063 1064 1065 1091 1092 1093 1094 1095 1096 1122 1123 1124 1125 1126 1127 1153 1154 1155 1156 1157 1158 1184 1185 1186 1187 1188 1189 1215 1216 1217 1218 1219 1220 1246 1247 1248 1249 1250 1251 1277 1278 1279 1280 1281 1282 1308 1309 1310 1311 1312 1313 1339 1340 1341 1342 1343 1344 1370 1371 1372 1373 1374 1375 1401 1402 1403 1404 1405 1406 1432 1433 1434 1435 1436 1437 1463 1464 1465 1466 1467 1468 1494 1495 1496 1497 1498 1499 1525 1526 1527 1528 1529 1530 1556 1557 1558 1559 1560 1561 1587 1588 1589 1590 1591 1592 1618 1619 1620 1621 1622 1623 1649 1650 1651 1652 1653 1654 1680 1681 1682 1683 1684 1685 1711 1712 1713 1714 1715 1716 1742 1743 1744 1745 1746 1747 1773 1774 1775 1776 1777 1778 1804 1805 1806 1807 1808 1809 1835 1836 1837 1838 1839 1840 1866 1867 1868 1869 1870 1871 1897 1898 1899 1900 1901 1902 1928 1929 1930 1931 1932 1933 1959 1960 1961 1962 1963 1964 1990 1991 1992 1993 1994 1995 2021 2022 2023 2024 2025 2026 2052 2053 2054 2055 2056 2057 2083 2084 2085 2086 2087 2088 2114 2115 2116 2117 2118 2119 2145 2146 2147 2148 2149 2150 2176 2177 2178 2179 2180 2181 2207 2208 2209 2210 2211 2212 2238 2239 2240 2241 2242 2243 2269 2270 2271 2272 2273 2274 2300 2301 2302 2303 2304 2305 2331 2332 2333 2334 2335 2336 2362 2363 2364 2365 2366 2367 2393 2394 2395 2396 2397 2398 2424 2425 2426 2427 2428 2429 2455 2456 2457 2458 2459 2460 2486 2487 2488 2489 2490 2491 2517 2518 2519 2520 2521 2522 2548 2549 2550 2551 2552 2553 2579 2580 2581 2582 2583 2584 2610 2611 2612 2613 2614 2615 2641 2642 2643 2644 2645 2646 2672 2673 2674 2675 2676 2677 2703 2704 2705 2706 2707 2708 2734 2735 2736 2737 2738 2763 2764 2765 2766 2767 2792 2793 2794 2795 2819 2820 2821 2822 2846 2847 2848 2871 2872 2894 2895 1036 1037 1038 1039 1040 1041 1042 1043 1044 1066 1067 1068 1069 1070 1071 1072 1073 1074 1097 1098 1099 1100 1101 1102 1103 1104 1105 1128 1129 1130 1131 1132 1133 1134 1135 1136 1159 1160 1161 1162 1163 1164 1165 1166 1167 1190 1191 1192 1193 1194 1195 1196 1197 1198 1221 1222 1223 1224 1225 1226 1227 1228 1229 1252 1253 1254 1255 1256 1257 1258 1259 1260 1283 1284 1285 1286 1287 1288 1289 1290 1291 1314 1315 1316 1317 1318 1319 1320 1321 1322 1345 1346 1347 1348 1349 1350 1351 1352 1353 1376 1377 1378 1379 1380 1381 1382 1383 1384 1407 1408 1409 1410 1411 1412 1413 1414 1415 1438 1439 1440 1441 1442 1443 1444 1445 1446 1469 1470 1471 1472 1473 1474 1475 1476 1477 1500 1501 1502 1503 1504 1505 1506 1507 1508 1531 1532 1533 1534 1535 1536 1537 1538 1539 1562 1563 1564 1565 1566 1567 1568 1569 1570 1593 1594 1595 1596 1597 1598 1599 1600 1601 1624 1625 1626 1627 1628 1629 1630 1631 1632 1655 1656 1657 1658 1659 1660 1661 1662 1663 1686 1687 1688 1689 1690 1691 1692 1693 1694 1717 1718 1719 1720 1721 1722 1723 1724 1725 1748 1749 1750 1751 1752 1753 1754 1755 1756 1779 1780 1781 1782 1783 1784 1785 1786 1787 1810 1811 1812 1813 1814 1815 1816 1817 1818 1841 1842 1843 1844 1845 1846 1847 1848 1849 1872 1873 1874 1875 1876 1877 1878 1879 1880 1903 1904 1905 1906 1907 1908 1909 1910 1911 1934 1935 1936 1937 1938 1939 1940 1941 1942 1965 1966 1967 1968 1969 1970 1971 1972 1973 1996 1997 1998 1999 2000 2001 2002 2003 2004 2027 2028 2029 2030 2031 2032 2033 2034 2035 2058 2059 2060 2061 2062 2063 2064 2065 2066 2089 2090 2091 2092 2093 2094 2095 2096 2097 2120 2121 2122 2123 2124 2125 2126 2127 2128 2151 2152 2153 2154 2155 2156 2157 2158 2159 2182 2183 2184 2185 2186 2187 2188 2189 2190 2213 2214 2215 2216 2217 2218 2219 2220 2221 2244 2245 2246 2247 2248 2249 2250 2251 2252 2275 2276 2277 2278 2279 2280 2281 2282 2283 2306 2307 2308 2309 2310 2311 2312 2313 2314 2337 2338 2339 2340 2341 2342 2343 2344 2345 2368 2369 2370 2371 2372 2373 2374 2375 2376 2399 2400 2401 2402 2403 2404 2405 2406 2407 2430 2431 2432 2433 2434 2435 2436 2437 2438 2461 2462 2463 2464 2465 2466 2467 2468 2469 2492 2493 2494 2495 2496 2497 2498 2499 2500 2523 2524 2525 2526 2527 2528 2529 2530 2531 2554 2555 2556 2557 2558 2559 2560 2561 2562 2585 2586 2587 2588 2589 2590 2591 2592 2593 2616 2617 2618 2619 2620 2621 2622 2623 2624 2647 2648 2649 2650 2651 2652 2653 2654 2655 2678 2679 2680 2681 2682 2683 2684 2685 2686 2709 2710 2711 2712 2713 2714 2715 2716 2717 2739 2740 2741 2742 2743 2744 2745 2746 2747 2768 2769 2770 2771 2772 2773 2774 2775 2776 2796 2797 2798 2799 2800 2801 2802 2803 2804 2823 2824 2825 2826 2827 2828 2829 2830 2831 2849 2850 2851 2852 2853 2854 2855 2856 2857 2873 2874 2875 2876 2877 2878 2879 2880 2881 2896 2897 2898 2899 2900 2901 2902 2903 2904 2917 2918 2919 2920 2921 2922 2923 2924 2925 2936 2937 2938 2939 2940 2941 2942 2943 2953 2954 2955 2956 2957 2958 2966 2967 2968 2969 1045 1046 1047 1048 1049 1050 1051 1052 1075 1076 1077 1078 1079 1080 1081 1082 1106 1107 1108 1109 1110 1111 1112 1113 1137 1138 1139 1140 1141 1142 1143 1144 1168 1169 1170 1171 1172 1173 1174 1175 1199 1200 1201 1202 1203 1204 1205 1206 1230 1231 1232 1233 1234 1235 1236 1237 1261 1262 1263 1264 1265 1266 1267 1268 1292 1293 1294 1295 1296 1297 1298 1299 1323 1324 1325 1326 1327 1328 1329 1330 1354 1355 1356 1357 1358 1359 1360 1361 1385 1386 1387 1388 1389 1390 1391 1392 1416 1417 1418 1419 1420 1421 1422 1423 1447 1448 1449 1450 1451 1452 1453 1454 1478 1479 1480 1481 1482 1483 1484 1485 1509 1510 1511 1512 1513 1514 1515 1516 1540 1541 1542 1543 1544 1545 1546 1547 1571 1572 1573 1574 1575 1576 1577 1578 1602 1603 1604 1605 1606 1607 1608 1609 1633 1634 1635 1636 1637 1638 1639 1640 1664 1665 1666 1667 1668 1669 1670 1671 1695 1696 1697 1698 1699 1700 1701 1702 1726 1727 1728 1729 1730 1731 1732 1733 1757 1758 1759 1760 1761 1762 1763 1764 1788 1789 1790 1791 1792 1793 1794 1795 1819 1820 1821 1822 1823 1824 1825 1826 1850 1851 1852 1853 1854 1855 1856 1857 1881 1882 1883 1884 1885 1886 1887 1888 1912 1913 1914 1915 1916 1917 1918 1919 1943 1944 1945 1946 1947 1948 1949 1950 1974 1975 1976 1977 1978 1979 1980 1981 2005 2006 2007 2008 2009 2010 2011 2012 2036 2037 2038 2039 2040 2041 2042 2043 2067 2068 2069 2070 2071 2072 2073 2074 2098 2099 2100 2101 2102 2103 2104 2105 2129 2130 2131 2132 2133 2134 2135 2136 2160 2161 2162 2163 2164 2165 2166 2167 2191 2192 2193 2194 2195 2196 2197 2198 2222 2223 2224 2225 2226 2227 2228 2229 2253 2254 2255 2256 2257 2258 2259 2260 2284 2285 2286 2287 2288 2289 2290 2291 2315 2316 2317 2318 2319 2320 2321 2322 2346 2347 2348 2349 2350 2351 2352 2353 2377 2378 2379 2380 2381 2382 2383 2384 2408 2409 2410 2411 2412 2413 2414 2415 2439 2440 2441 2442 2443 2444 2445 2446 2470 2471 2472 2473 2474 2475 2476 2477 2501 2502 2503 2504 2505 2506 2507 2508 2532 2533 2534 2535 2536 2537 2538 2539 2563 2564 2565 2566 2567 2568 2569 2570 2594 2595 2596 2597 2598 2599 2600 2601 2625 2626 2627 2628 2629 2630 2631 2632 2656 2657 2658 2659 2660 2661 2662 2663 2687 2688 2689 2690 2691 2692 2693 2694 2718 2719 2720 2721 2722 2723 2724 2725 2748 2749 2750 2751 2752 2753 2754 2755 2777 2778 2779 2780 2781 2782 2783 2784 2805 2806 2807 2808 2809 2810 2811 2812 2832 2833 2834 2835 2836 2837 2838 2839 2858 2859 2860 2861 2862 2863 2864 2865 2882 2883 2884 2885 2886 2887 2888 2889 2905 2906 2907 2908 2909 2910 2911 2912 2926 2927 2928 2929 2930 2931 2932 2933 2944 2945 2946 2947 2948 2949 2950 2951 2959 2960 2961 2962 2963 2964 2965 2970 2971 2972 2973 2974 1053 1054 1055 1056 1057 1058 1059 1083 1084 1085 1086 1087 1088 1089 1090 1114 1115 1116 1117 1118 1119 1120 1121 1145 1146 1147 1148 1149 1150 1151 1152 1176 1177 1178 1179 1180 1181 1182 1183 1207 1208 1209 1210 1211 1212 1213 1214 1238 1239 1240 1241 1242 1243 1244 1245 1269 1270 1271 1272 1273 1274 1275 1276 1300 1301 1302 1303 1304 1305 1306 1307 1331 1332 1333 1334 1335 1336 1337 1338 1362 1363 1364 1365 1366 1367 1368 1369 1393 1394 1395 1396 1397 1398 1399 1400 1424 1425 1426 1427 1428 1429 1430 1431 1455 1456 1457 1458 1459 1460 1461 1462 1486 1487 1488 1489 1490 1491 1492 1493 1517 1518 1519 1520 1521 1522 1523 1524 1548 1549 1550 1551 1552 1553 1554 1555 1579 1580 1581 1582 1583 1584 1585 1586 1610 1611 1612 1613 1614 1615 1616 1617 1641 1642 1643 1644 1645 1646 1647 1648 1672 1673 1674 1675 1676 1677 1678 1679 1703 1704 1705 1706 1707 1708 1709 1710 1734 1735 1736 1737 1738 1739 1740 1741 1765 1766 1767 1768 1769 1770 1771 1772 1796 1797 1798 1799 1800 1801 1802 1803 1827 1828 1829 1830 1831 1832 1833 1834 1858 1859 1860 1861 1862 1863 1864 1865 1889 1890 1891 1892 1893 1894 1895 1896 1920 1921 1922 1923 1924 1925 1926 1927 1951 1952 1953 1954 1955 1956 1957 1958 1982 1983 1984 1985 1986 1987 1988 1989 2013 2014 2015 2016 2017 2018 2019 2020 2044 2045 2046 2047 2048 2049 2050 2051 2075 2076 2077 2078 2079 2080 2081 2082 2106 2107 2108 2109 2110 2111 2112 2113 2137 2138 2139 2140 2141 2142 2143 2144 2168 2169 2170 2171 2172 2173 2174 2175 2199 2200 2201 2202 2203 2204 2205 2206 2230 2231 2232 2233 2234 2235 2236 2237 2261 2262 2263 2264 2265 2266 2267 2268 2292 2293 2294 2295 2296 2297 2298 2299 2323 2324 2325 2326 2327 2328 2329 2330 2354 2355 2356 2357 2358 2359 2360 2361 2385 2386 2387 2388 2389 2390 2391 2392 2416 2417 2418 2419 2420 2421 2422 2423 2447 2448 2449 2450 2451 2452 2453 2454 2478 2479 2480 2481 2482 2483 2484 2485 2509 2510 2511 2512 2513 2514 2515 2516 2540 2541 2542 2543 2544 2545 2546 2547 2571 2572 2573 2574 2575 2576 2577 2578 2602 2603 2604 2605 2606 2607 2608 2609 2633 2634 2635 2636 2637 2638 2639 2640 2664 2665 2666 2667 2668 2669 2670 2671 2695 2696 2697 2698 2699 2700 2701 2702 2726 2727 2728 2729 2730 2731 2732 2733 2756 2757 2758 2759 2760 2761 2762 2785 2786 2787 2788 2789 2790 2791 2813 2814 2815 2816 2817 2818 2840 2841 2842 2843 2844 2845 2866 2867 2868 2869 2870 2890 2891 2892 2893 2913 2914 2915 2916 2934 2935 2952 
FIELD FieldData 12
Idp 1 2975 float
0 1 39 40 41 80 81 82 121 122 123 162 163 164 203 204 205 244 245 246 285 286 287 326 327 328 367 368 369 408 409 410 449 450 451 461 462 463 471 472 473 481 482 483 491 492 493 501 502 503 511 512 513 521 522 523 531 532 533 541 542 543 551 552 2 3 4 5 6 7 8 9 42 43 44 45 46 47 48 49 83 84 85 86 87 88 89 90 124 125 126 127 128 129 130 131 165 166 167 168 169 170 171 172 206 207 208 209 210 211 212 213 247 248 249 250 251 252 253 254 288 289 290 291 292 293 294 295 329 330 331 332 333 334 335 336 370 371 372 373 374 375 376 377 411 412 413 414 415 416 417 418 452 453 454 464 465 474 475 484 485 494 495 504 505 514 515 524 525 534 535 544 545 553 554 10 11 12 13 14 15 16 17 18 50 51 52 53 54 55 56 57 58 91 92 93 94 95 96 97 98 99 132 133 134 135 136 137 138 139 140 173 174 175 176 177 178 179 180 181 214 215 216 217 218 219 220 221 222 255 256 257 258 259 260 261 262 263 296 297 298 299 300 301 302 303 304 337 338 339 340 341 342 343 344 345 378 379 380 381 382 383 384 385 386 419 420 421 422 423 424 425 426 427 19 20 21 22 23 24 25 26 59 60 61 62 63 64 65 66 100 101 102 103 104 105 106 107 141 142 143 144 145 146 147 148 182 183 184 185 186 187 188 189 223 224 225 226 227 228 229 230 264 265 266 267 268 269 270 271 305 306 307 308 309 310 311 312 346 347 348 349 350 351 352 353 387 388 389 390 391 392 393 394 428 429 430 431 432 433 434 435 27 28 29 30 31 32 33 34 35 67 68 69 70 71 72 73 74 75 108 109 110 111 112 113 114 115 116 149 150 151 152 153 154 155 156 157 190 191 192 193 194 195 196 197 198 231 232 233 234 235 236 237 238 239 272 273 274 275 276 277 278 279 280 313 314 315 316 317 318 319 320 321 354 355 356 357 358 359 360 361 362 395 396 397 398 399 400 401 402 403 436 437 438 439 440 441 442 443 444 455 456 466 476 486 496 506 516 526 536 546 555 36 37 38 76 77 78 79 117 118 119 120 158 159 160 161 199 200 201 202 240 241 242 243 281 282 283 284 322 323 324 325 363 364 365 366 404 405 406 407 445 446 447 448 457 458 459 460 467 468 469 470 477 478 479 480 487 488 489 490 497 498 499 500 507 508 509 510 517 518 519 520 527 528 529 530 537 538 539 540 547 548 549 550 556 557 558 559 560 561 562 563 564 565 566 567 568 569 570 571 572 573 574 575 576 577 578 579 580 581 582 583 584 585 586 587 588 589 590 591 592 593 594 595 596 597 598 599 600 601 602 603 604 605 606 607 608 609 610 611 612 613 614 615 616 617 618 619 620 621 622 623 624 625 626 627 628 629 630 631 632 633 634 635 636 637 638 639 640 641 642 643 644 645 646 647 648 649 650 651 652 653 654 655 656 657 658 659 660 661 662 663 664 665 666 667 668 669 670 671 672 673 674 675 676 677 678 679 680 681 682 683 684 685 686 687 688 689 690 691 692 693 694 695 696 697 698 699 700 701 702 703 704 705 706 707 708 709 710 711 712 713 714 715 716 717 718 719 720 721 722 723 724 725 726 727 728 729 730 731 732 733 734 735 736 737 738 739 740 741 742 743 744 745 746 747 748 749 750 751 752 753 754 755 756 757 758 759 760 761 762 763 764 765 766 767 768 769 770 771 772 773 774 775 776 777 778 779 780 781 782 783 784 785 786 787 788 789 790 791 792 793 794 795 796 797 798 799 800 801 802 803 804 805 806 807 808 809 810 811 812 813 814 815 816 817 818 819 820 821 822 823 824 825 826 827 828 829 830 831 832 833 834 835 836 837 838 839 840 841 842 843 844 845 846 847 848 849 850 851 852 853 854 855 856 857 858 859 860 861 862 863 864 865 866 867 868 869 870 871 872 873 874 875 876 877 878 879 880 881 882 883 884 885 886 887 888 889 890 891 892 893 894 895 896 897 898 899 900 901 902 903 904 905 906 907 908 909 910 911 912 913 914 915 916 917 918 919 920 921 922 923 924 925 926 927 928 929 930 931 932 933 934 935 936 937 938 939 940 941 942 943 944 945 946 947 948 949 950 951 952 953 954 955 956 957 958 959 960 961 962 963 964 965 966 967 968 969 970 971 972 973 974 975 976 977 978 979 980 981 982 983 984 985 986 987 988 989 990 991 992 993 994 995 996 997 998 999 1000 1001 1002 1003 1004 1005 1006 1007 1008 1009 1010 1011 1012 1013 1014 1015 1016 1017 1018 1019 1020 1021 1022 1023 1024 1025 1026 1027 1028 1029 1030 1031 1032 1033 1034 1035 1060 1061 1062 1063 1064 1065 1091 1092 1093 1094 1095 1096 1122 1123 1124 1125 1126 1127 1153 1154 1155 1156 1157 1158 1184 1185 1186 1187 1188 1189 1215 1216 1217 1218 1219 1220 1246 1247 1248 1249 1250 1251 1277 1278 1279 1280 1281 1282 1308 1309 1310 1311 1312 1313 1339 1340 1341 1342 1343 1344 1370 1371 1372 1373 1374 1375 1401 1402 1403 1404 1405 1406 1432 1433 1434 1435 1436 1437 1463 1464 1465 1466 1467 1468 1494 1495 1496 1497 1498 1499 1525 1526 1527 1528 1529 1530 1556 1557 1558 1559 1560 1561 1587 1588 1589 1590 1591 1592 1618 1619 1620 1621 1622 1623 1649 1650 1651 1652 1653 1654 1680 1681 1682 1683 1684 1685 1711 1712 1713 1714 1715 1716 1742 1743 1744 1745 1746 1747 1773 1774 1775 1776 1777 1778 1804 1805 1806 1807 1808 1809 1835 1836 1837 1838 1839 1840 1866 1867 1868 1869 1870 1871 1897 1898 1899 1900 1901 1902 1928 1929 1930 1931 1932 1933 1959 1960 1961 1962 1963 1964 1990 1991 1992 1993 1994 1995 2021 2022 2023 2024 2025 2026 2052 2053 2054 2055 2056 2057 2083 2084 2085 2086 2087 2088 2114 2115 2116 2117 2118 2119 2145 2146 2147 2148 2149 2150 2176 2177 2178 2179 2180 2181 2207 2208 2209 2210 2211 2212 2238 2239 2240 2241 2242 2243 2269 2270 2271 2272 2273 2274 2300 2301 2302 2303 2304 2305 2331 2332 2333 2334 2335 2336 2362 2363 2364 2365 2366 2367 2393 2394 2395 2396 2397 2398 2424 2425 2426 2427 2428 2429 2455 2456 2457 2458 2459 2460 2486 2487 2488 2489 2490 2491 2517 2518 2519 2520 2521 2522 2548 2549 2550 2551 2552 2553 2579 2580 2581 2582 2583 2584 2610 2611 2612 2613 2614 2615 2641 2642 2643 2644 2645 2646 2672 2673 2674 2675 2676 2677 2703 2704 2705 2706 2707 2708 2734 2735 2736 2737 2738 2763 2764 2765 2766 2767 2792 2793 2794 2795 2819 2820 2821 2822 2846 2847 2848 2871 2872 2894 2895 1036 1037 1038 1039 1040 1041 1042 1043 1044 1066 1067 1068 1069 1070 1071 1072 1073 1074 1097 1098 1099 1100 1101 1102 1103 1104 1105 1128 1129 1130 1131 1132 1133 1134 1135 1136 1159 1160 1161 1162 1163 1164 1165 1166 1167 1190 1191 1192 1193 1194 1195 1196 1197 1198 1221 1222 1223 1224 1225 1226 1227 1228 1229 1252 1253 1254 1255 1256 1257 1258 1259 1260 1283 1284 1285 1286 1287 1288 1289 1290 1291 1314 1315 1316 1317 1318 1319 1320 1321 1322 1345 1346 1347 1348 1349 1350 1351 1352 1353 1376 1377 1378 1379 1380 1381 1382 1383 1384 1407 1408 1409 1410 1411 1412 1413 1414 1415 1438 1439 1440 1441 1442 1443 1444 1445 1446 1469 1470 1471 1472 1473 1474 1475 1476 1477 1500 1501 1502 1503 1504 1505 1506 1507 1508 1531 1532 1533 1534 1535 1536 1537 1538 1539 1562 1563 1564 1565 1566 1567 1568 1569 1570 1593 1594 1595 1596 1597 1598 1599 1600 1601 1624 1625 1626 1627 1628 1629 1630 1631 1632 1655 1656 1657 1658 1659 1660 1661 1662 1663 1686 1687 1688 1689 1690 1691 1692 1693 1694 1717 1718 1719 1720 1721 1722 1723 1724 1725 1748 1749 1750 1751 1752 1753 1754 1755 1756 1779 1780 1781 1782 1783 1784 1785 1786 1787 1810 1811 1812 1813 1814 1815 1816 1817 1818 1841 1842 1843 1844 1845 1846 1847 1848 1849 1872 1873 1874 1875 1876 1877 1878 1879 1880 1903 1904 1905 1906 1907 1908 1909 1910 1911 1934 1935 1936 1937 1938 1939 1940 1941 1942 1965 1966 1967 1968 1969 1970 1971 1972 1973 1996 1997 1998 1999 2000 2001 2002 2003 2004 2027 2028 2029 2030 2031 2032 2033 2034 2035 2058 2059 2060 2061 2062 2063 2064 2065 2066 2089 2090 2091 2092 2093 2094 2095 2096 2097 2120 2121 2122 2123 2124 2125 2126 2127 2128 2151 2152 2153 2154 2155 2156 2157 2158 2159 2182 2183 2184 2185 2186 2187 2188 2189 2190 2213 2214 2215 2216 2217 2218 2219 2220 2221 2244 2245 2246 2247 2248 2249 2250 2251 2252 2275 2276 2277 2278 2279 2280 2281 2282 2283 2306 2307 2308 2309 2310 2311 2312 2313 2314 2337 2338 2339 2340 2341 2342 2343 2344 2345 2368 2369 2370 2371 2372 2373 2374 2375 2376 2399 2400 2401 2402 2403 2404 2405 2406 2407 2430 2431 2432 2433 2434 2435 2436 2437 2438 2461 2462 2463 2464 2465 2466 2467 2468 2469 2492 2493 2494 2495 2496 2497 2498 2499 2500 2523 2524 2525 2526 2527 2528 2529 2530 2531 2554 2555 2556 2557 2558 2559 2560 2561 2562 2585 2586 2587 2588 2589 2590 2591 2592 2593 2616 2617 2618 2619 2620 2621 2622 2623 2624 2647 2648 2649 2650 2651 2652 2653 2654 2655 2678 2679 2680 2681 2682 2683 2684 2685 2686 2709 2710 2711 2712 2713 2714 2715 2716 2717 2739 2740 2741 2742 2743 2744 2745 2746 2747 2768 2769 2770 2771 2772 2773 2774 2775 2776 2796 2797 2798 2799 2800 2801 2802 2803 2804 2823 2824 2825 2826 2827 2828 2829 2830 2831 2849 2850 2851 2852 2853 2854 2855 2856 2857 2873 2874 2875 2876 2877 2878 2879 2880 2881 2896 2897 2898 2899 2900 2901 2902 2903 2904 2917 2918 2919 2920 2921 2922 2923 2924 2925 2936 2937 2938 2939 2940 2941 2942 2943 2953 2954 2955 2956 2957 2958 2966 2967 2968 2969 1045 1046 1047 1048 1049 1050 1051 1052 1075 1076 1077 1078 1079 1080 1081 1082 1106 1107 1108 1109 1110 1111 1112 1113 1137 1138 1139 1140 1141 1142 1143 1144 1168 1169 1170 1171 1172 1173 1174 1175 1199 1200 1201 1202 1203 1204 1205 1206 1230 1231 1232 1233 1234 1235 1236 1237 1261 1262 1263 1264 1265 1266 1267 1268 1292 1293 1294 1295 1296 1297 1298 1299 1323 1324 1325 1326 1327 1328 1329 1330 1354 1355 1356 1357 1358 1359 1360 1361 1385 1386 1387 1388 1389 1390 1391 1392 1416 1417 1418 1419 1420 1421 1422 1423 1447 1448 1449 1450 1451 1452 1453 1454 1478 1479 1480 1481 1482 1483 1484 1485 1509 1510 1511 1512 1513 1514 1515 1516 1540 1541 1542 1543 1544 1545 1546 1547 1571 1572 1573 1574 1575 1576 1577 1578 1602 1603 1604 1605 1606 1607 1608 1609 1633 1634 1635 1636 1637 1638 1639 1640 1664 1665 1666 1667 1668 1669 1670 1671 1695 1696 1697 1698 1699 1700 1701 1702 1726 1727 1728 1729 1730 1731 1732 1733 1757 1758 1759 1760 1761 1762 1763 1764 1788 1789 1790 1791 1792 1793 1794 1795 1819 1820 1821 1822 1823 1824 1825 1826 1850 1851 1852 1853 1854 1855 1856 1857 1881 1882 1883 1884 1885 1886 1887 1888 1912 1913 1914 1915 1916 1917 1918 1919 1943 1944 1945 1946 1947 1948 1949 1950 1974 1975 1976 1977 1978 1979 1980 1981 2005 2006 2007 2008 2009 2010 2011 2012 2036 2037 2038 2039 2040 2041 2042 2043 2067 2068 2069 2070 2071 2072 2073 2074 2098 2099 2100 2101 2102 2103 2104 2105 2129 2130 2131 2132 2133 2134 2135 2136 2160 2161 2162 2163 2164 2165 2166 2167 2191 2192 2193 2194 2195 2196 2197 2198 2222 2223 2224 2225 2226 2227 2228 2229 2253 2254 2255 2256 2257 2258 2259 2260 2284 2285 2286 2287 2288 2289 2290 2291 2315 2316 2317 2318 2319 2320 2321 2322 2346 2347 2348 2349 2350 2351 2352 2353 2377 2378 2379 2380 2381 2382 2383 2384 2408 2409 2410 2411 2412 2413 2414 2415 2439 2440 2441 2442 2443 2444 2445 2446 2470 2471 2472 2473 2474 2475 2476 2477 2501 2502 2503 2504 2505 2506 2507 2508 2532 2533 2534 2535 2536 2537 2538 2539 2563 2564 2565 2566 2567 2568 2569 2570 2594 2595 2596 2597 2598 2599 2600 2601 2625 2626 2627 2628 2629 2630 2631 2632 2656 2657 2658 2659 2660 2661 2662 2663 2687 2688 2689 2690 2691 2692 2693 2694 2718 2719 2720 2721 2722 2723 2724 2725 2748 2749 2750 2751 2752 2753 2754 2755 2777 2778 2779 2780 2781 2782 2783 2784 2805 2806 2807 2808 2809 2810 2811 2812 2832 2833 2834 2835 2836 2837 2838 2839 2858 2859 2860 2861 2862 2863 2864 2865 2882 2883 2884 2885 2886 2887 2888 2889 2905 2906 2907 2908 2909 2910 2911 2912 2926 2927 2928 2929 2930 2931 2932 2933 2944 2945 2946 2947 2948 2949 2950 2951 2959 2960 2961 2962 2963 2964 2965 2970 2971 2972 2973 2974 1053 1054 1055 1056 1057 1058 1059 1083 1084 1085 1086 1087 1088 1089 1090 1114 1115 1116 1117 1118 1119 1120 1121 1145 1146 1147 1148 1149 1150 1151 1152 1176 1177 1178 1179 1180 1181 1182 1183 1207 1208 1209 1210 1211 1212 1213 1214 1238 1239 1240 1241 1242 1243 1244 1245 1269 1270 1271 1272 1273 1274 1275 1276 1300 1301 1302 1303 1304 1305 1306 1307 1331 1332 1333 1334 1335 1336 1337 1338 1362 1363 1364 1365 1366 1367 1368 1369 1393 1394 1395 1396 1397 1398 1399 1400 1424 1425 1426 1427 1428 1429 1430 1431 1455 1456 1457 1458 1459 1460 1461 1462 1486 1487 1488 1489 1490 1491 1492 1493 1517 1518 1519 1520 1521 1522 1523 1524 1548 1549 1550 1551 1552 1553 1554 1555 1579 1580 1581 1582 1583 1584 1585 1586 1610 1611 1612 1613 1614 1615 1616 1617 1641 1642 1643 1644 1645 1646 1647 1648 1672 1673 1674 1675 1676 1677 1678 1679 1703 1704 1705 1706 1707 1708 1709 1710 1734 1735 1736 1737 1738 1739 1740 1741 1765 1766 1767 1768 1769 1770 1771 1772 1796 1797 1798 1799 1800 1801 1802 1803 1827 1828 1829 1830 1831 1832 1833 1834 1858 1859 1860 1861 1862 1863 1864 1865 1889 1890 1891 1892 1893 1894 1895 1896 1920 1921 1922 1923 1924 1925 1926 1927 1951 1952 1953 1954 1955 1956 1957 1958 1982 1983 1984 1985 1986 1987 1988 1989 2013 2014 2015 2016 2017 2018 2019 2020 2044 2045 2046 2047 2048 2049 2050 2051 2075 2076 2077 2078 2079 2080 2081 2082 2106 2107 2108 2109 2110 2111 2112 2113 2137 2138 2139 2140 2141 2142 2143 2144 2168 2169 2170 2171 2172 2173 2174 2175 2199 2200 2201 2202 2203 2204 2205 2206 2230 2231 2232 2233 2234 2235 2236 2237 2261 2262 2263 2264 2265 2266 2267 2268 2292 2293 2294 2295 2296 2297 2298 2299 2323 2324 2325 2326 2327 2328 2329 2330 2354 2355 2356 2357 2358 2359 2360 2361 2385 2386 2387 2388 2389 2390 2391 2392 2416 2417 2418 2419 2420 2421 2422 2423 2447 2448 2449 2450 2451 2452 2453 2454 2478 2479 2480 2481 2482 2483 2484 2485 2509 2510 2511 2512 2513 2514 2515 2516 2540 2541 2542 2543 2544 2545 2546 2547 2571 2572 2573 2574 2575 2576 2577 2578 2602 2603 2604 2605 2606 2607 2608 2609 2633 2634 2635 2636 2637 2638 2639 2640 2664 2665 2666 2667 2668 2669 2670 2671 2695 2696 2697 2698 2699 2700 2701 2702 2726 2727 2728 2729 2730 2731 2732 2733 2756 2757 2758 2759 2760 2761 2762 2785 2786 2787 2788 2789 2790 2791 2813 2814 2815 2816 2817 2818 2840 2841 2842 2843 2844 2845 2866 2867 2868 2869 2870 2890 2891 2892 2893 2913 2914 2915 2916 2934 2935 2952 
Rhop 1 2975 float
1000.0 1000.0 1000.0 1000.0 1000.0 1000.0 1000.0 1000.0 1000.0 1000.0 1000.0 1000.0 1000.0 1000.0 1000.0 1000.0 1000.0 1000.0 1000.0 1000.0 1000.0 1000.0 1000.0 1000.0 1000.0 1000.0 1000.0 1000.0 1000.0 1000.0 1000.0 1000.0 1000.0 1000.0 1000.0 1000.0 1000.0 1000.0 1000.0 1000.0 1000.0 1000.0 1000.0 1000.0 1000.0 1000.0 1000.0 1000.0 1000.0 1000.0 1000.0 1000.0 1000.0001 1000.0 1000.0001 1000.0001 1000.0 1000.0001 1000.0002 1000.0001 1000.0002 1000.0003 1000.0003 1000.0004 1000.0 1000.0 1000.0 1000.0 1000.0 1000.0 1000.0 1000.0 1000.0 1000.0 1000.0 1000.0 1000.0 1000.0 1000.0 1000.0 1000.0 1000.0 1000.0 1000.0 1000.0 1000.0 1000.0 1000.0 1000.0 1000.0 1000.0 1000.0 1000.0 1000.0 1000.0 1000.0 1000.0 1000.0 1000.0 1000.0 1000.0 1000.0 1000.0 1000.0 1000.0 1000.0 1000.0 1000.0 1000.0 1000.0 1000.0 1000.0 1000.0 1000.0 1000.0 1000.0 1000.0 1000.0 1000.0 1000.0 1000.0 1000.0 1000.0 1000.0 1000.0 1000.0 1000.0 1000.0 1000.0 1000.0 1000.0 1000.0 1000.0 1000.0 1000.0 1000.0 1000.0 1000.0 1000.0 1000.0 1000.0 1000.0 1000.0 1000.0 1000.0 1000.0 1000.0 1000.0 1000.0 1000.0 1000.0 1000.0 1000.0 1000.0 1000.0 1000.0 1000.0 1000.0 1000.0 1000.0 1000.0 1000.0 1000.0001 1000.0001 1000.0001 1000.0001 1000.0001 1000.0002 1000.0002 1000.0003 1000.0004 1000.0004 1000.0006 1000.0007 1000.0009 1000.0 1000.0 1000.0 1000.0 1000.0 1000.0 1000.0 1000.0 1000.0 1000.0 1000.0 1000.0 1000.0 1000.0 1000.0 1000.0 1000.0 1000.0 1000.0 1000.0 1000.0 1000.0 1000.0 1000.0 1000.0 1000.0 1000.0 1000.0 1000.0 1000.0 1000.0 1000.0 1000.0 1000.0 1000.0 1000.0 1000.0 1000.0 1000.0 1000.0 1000.0 1000.0 1000.0 1000.0 1000.0 1000.0 1000.0 1000.0 1000.0 1000.0 1000.0 1000.0 1000.0 1000.0 1000.0 1000.0 1000.0 1000.0 1000.0 1000.0 1000.0 1000.0 1000.0 1000.0 1000.0 1000.0 1000.0 1000.0 1000.0 1000.0 1000.0 1000.0 1000.0 1000.0 1000.0 1000.0 1000.0 1000.0 1000.0 1000.0 1000.0 1000.0 1000.0 1000.0 1000.0 1000.0 1000.0 1000.0 1000.0 1000.0 1000.0 1000.0 1000.0 1000.0 1000.0 1000.0 1000.0 1000.0 1000.0 1000.0 1000.0 1000.0 1000.0 1000.0 1000.0 1000.0 1000.0 1000.0 1000.0 1000.0 1000.0 1000.0 1000.0 1000.0 1000.0 1000.0 1000.0 1000.0 1000.0 1000.0 1000.0 1000.0 1000.0 1000.0 1000.0 1000.0 1000.0 1000.0 1000.0 1000.0 1000.0 1000.0 1000.0 1000.0 1000.0 1000.0 1000.0 1000.0 1000.0 1000.0 1000.0 1000.0 1000.0 1000.0 1000.0 1000.0 1000.0 1000.0 1000.0 1000.0 1000.0 1000.0 1000.0 1000.0 1000.0 1000.0 1000.0 1000.0 1000.0 1000.0 1000.0 1000.0 1000.0 1000.0 1000.0 1000.0 1000.0 1000.0 1000.0 1000.0 1000.0 1000.0 1000.0 1000.0 1000.0 1000.0 1000.0 1000.0 1000.0 1000.0 1000.0 1000.0 1000.0 1000.0 1000.0 1000.0 1000.0 1000.0 1000.0 1000.0 1000.0 1000.0 1000.0 1000.0 1000.0 1000.0 1000.0 1000.0 1000.0 1000.0 1000.0 1000.0 1000.0 1000.0 1000.0 1000.0 1000.0 1000.0 1000.0 1000.0 1000.0 1000.0 1000.0 1000.0 1000.0 1000.0 1000.0 1000.0 1000.0 1000.0 1000.0 1000.0 1000.0 1000.0 1000.0 1000.0 1000.0 1000.0 1000.0 1000.0 1000.0 1000.0 1000.0 1000.0 1000.0 1000.0 1000.0 1000.0 1000.0 1000.0 1000.0 1000.0 1000.0 1000.0 1000.0 1000.0 1000.0 1000.0 1000.0 1000.0 1000.0 1000.0 1000.0 1000.0 1000.0 1000.0 1000.0 1000.0 1000.0 1000.0 1000.0 1000.0 1000.0 1000.0 1000.0 1000.0 1000.0 1000.0 1000.0 1000.0 1000.0 1000.0 1000.0 1000.0 1000.0 1000.0 1000.0 1000.0 1000.0 1000.0 1000.0 1000.0 1000.0 1000.0 1000.0 1000.0 1000.0 1000.0 1000.0 1000.0 1000.0 1000.0001 1000.0001 1000.0001 1000.0002 1000.0004 1000.0006 1000.0009 1000.0 1000.0 1000.0 1000.0 1000.0 1000.0 1000.0 1000.0 1000.0 1000.0 1000.0 1000.0 1000.0 1000.0 1000.0 1000.0 1000.0 1000.0 1000.0 1000.0 1000.0 1000.0 1000.0 1000.0 1000.0 1000.0 1000.0 1000.0 1000.0 1000.0 1000.0 1000.0 1000.0 1000.0 1000.0 1000.0 1000.0 1000.0 1000.0 1000.0 1000.0 1000.0 1000.0 1000.0 1000.0 1000.0 1000.0 1000.0 1000.0 1000.0 1000.0 1000.0 1000.0 1000.0 1000.0 1000.0 1000.0 1000.0 1000.0 1000.0 1000.0 1000.0 1000.0 1000.0001 1000.0 1000.0 1000.0 1000.0001 1000.0001 1000.0 1000.0 1000.0002 1000.0001 1000.0001 1000.0 1000.0003 1000.0002 1000.0001 1000.0 1000.0004 1000.0003 1000.0002 1000.0001 1000.0007 1000.0004 1000.0003 1000.0 1000.0 1000.0 1000.0 1000.0 1000.0 1000.0 1000.0 1000.0 1000.0 1000.0 1000.0 1000.0 1000.0 1000.0 1000.0 1000.0 1000.0 1000.0 1000.0 1000.0 1000.0 1000.0 1000.0 1000.0 1000.0 1000.0 1000.0 1000.0 1000.0 1000.0 1000.0 1000.0 1000.0 1000.0 1000.0 1000.0 1000.0 1000.0 1000.0 1000.0 1000.0 1000.0 1000.0 1000.0 1000.0 1000.0 1000.0 1000.0 1000.0 1000.0 1000.0 1000.0 1000.0 1000.0 1000.0 1000.0 1000.0 1000.0 1000.0 1000.0 1000.0 1000.0 1000.0 1000.0 1000.0 1000.0 1000.0 1000.0 1000.0 1000.0 1000.0 1000.0 1000.0 1000.0 1000.0 1000.0 1000.0 1000.0 1000.0 1000.0 1000.0 1000.0 1000.0 1000.0 1000.0 1000.0 1000.0 1000.0 1000.0 1000.0 1000.0 1000.0 1000.0 1000.0 1000.0 1000.0 1000.0 1000.0 1000.0 1000.0 1000.0 1000.0 1000.0 1000.0 1000.0 1000.0 1000.0 1000.0 1000.0 1000.0 1000.0 1000.0 1000.0 1000.0 1000.0 1000.0 1000.0 1000.0 1000.0 1000.0 1000.0 1000.0 1000.0 1000.0 1000.0 1000.0 1000.0 1000.0 1000.0 1000.0 1000.0 1000.0 1000.0 1000.0 1000.0 1000.0 1000.0 1000.0 1000.0 1000.0 1000.0 1000.0 1000.0 1000.0 1000.0 1000.0 1000.0 1000.0 1000.0 1000.0 1000.0 1000.0 1000.0 1000.0 1000.0 1000.0 1000.0 1000.0 1000.0 1000.0 1000.0 1000.0 1000.0 1000.0 1000.0 1000.0 1000.0 1000.0 1000.0 1000.0 1000.0 1000.0 1000.0 1000.0 1000.0 1000.0 1000.0 1000.0 1000.0 1000.0 1000.0 1000.0 1000.0 1000.0 1000.0 1000.0 1000.0 1000.0 1000.0 1000.0 1000.0 1000.0 1000.0 1000.0 1000.0 1000.0 1000.0 1000.0 1000.0 1000.0 1000.0 1000.0 1000.0 1000.0 1000.0 1000.0 1000.0 1000.0 1000.0 1000.0 1000.0 1000.0 1000.0 1000.0 1000.0 1000.0 1000.0 1000.0 1000.0 1000.0 1000.0 1000.0 1000.0 1000.0 1000.0 1000.0 1000.0 1000.0 1000.0 1000.0 1000.0 1000.0 1000.0 1000.0 1000.0 1000.0 1000.0 1000.0 1000.0 1000.0 1000.0 1000.0 1000.0 1000.0 1000.0 1000.0 1000.0 1000.0 1000.0 1000.0 1000.0 1000.0 1000.0 1000.0 1000.0 1000.0 1000.0 1000.0 1000.0 1000.0 1000.0 1000.0 1000.0 1000.0 1000.0 1000.0 1000.0 1000.0 1000.0 1000.0 1000.0 1000.0 1000.0 1000.0 1000.0 1000.0 1000.0 1000.0 1000.0 1000.0 1000.0 1000.0 1000.0 1000.0 1000.0 1000.0 1000.0 1000.0 1000.0 1000.0 1000.0 1000.0 1000.0 1000.0 1000.0 1000.0 1000.0 1000.0 1000.0 1000.0 1000.0 1000.0 1000.0 1000.0 1000.0 1000.0 1000.0 1000.0 1000.0 1000.0 1000.0 1000.0 1000.0 1000.0 1000.0 1000.0 1000.0 1000.0 1000.0 1000.0 1000.0 1000.0 1000.0 1000.0 1000.0 1000.0 1000.0 1000.0 1000.0 1000.0 1000.0 1000.0 1000.0 1000.0 1000.0 1000.0 1000.0 1000.0 1000.0 1000.0 1000.0 1000.0 1000.0 1000.0 1000.0 1000.0 1000.0 1000.0 1000.0 1000.0 1000.0 1000.0 1000.0 1000.0 1000.0 1000.0 1000.0 1000.0 1000.0 1000.0 1000.0 1000.0 1000.0 1000.0 1000.0 1000.0 1000.0 1000.0 1000.0 1000.0 1000.0 1000.0 1000.0 1000.0 1000.0 1000.0 1000.0 1000.0 1000.0 1000.0 1000.0 1000.0 1000.0 1000.0 1000.0 1000.0 1000.0 1000.0 1000.0 1000.0 1000.0 1000.0 1000.0 1000.0 1000.0 1000.0 1000.0 1000.0 1000.0 1000.0 1000.0 1000.0 1000.0 1000.0 1000.0 1000.0 1000.0 1000.0 1000.0 1000.0 1000.0 1000.0 1000.0 1000.0 1000.0 1000.0 1000.0 1000.0 1000.0 1000.0 1000.0 1000.0 1000.0 1000.0 1000.0 1000.0 1000.0 1000.0 1000.0 1000.0 1000.0 1000.0 1000.0 1000.0 1000.0 1000.0 1000.0 1000.0 1000.0 1000.0 1000.0 1000.0 1000.0 1000.0 1000.0 1000.0 1000.0 1000.0 1000.0 1000.0 1000.0 1000.0 1000.0 1000.0 1000.0 1000.0 1000.0 1000.0 1000.0 1000.0 1000.0 1000.0 1000.0 1000.0 1000.0 1000.0 1000.0 1000.0 1000.0 1000.0 1000.0 1000.0 1000.0 1000.0 1000.0 1000.0 1000.0 1000.0 1000.0001 1000.0001 1000.0001 1000.0001 1000.0 1000.0001 1000.0001 1000.0001 1000.0001 1000.0001 1000.0001 1000.0001 1000.0001 1000.0001 1000.0001 1000.0001 1000.0001 1000.0001 1000.0001 1000.0001 1000.0002 1000.0002 1000.0001 1000.0002 1000.0002 1000.0002 1000.0002 1000.0002 1000.0002 1000.0002 1000.0003 1000.0003 1000.0004 1000.0004 1000.0004 1000.0004 1000.0004 1000.0004 1000.0004 1000.0004 1000.0005 1000.0006 1000.0006 1000.0007 1000.0007 1000.0007 1000.0009 1000.0009 1000.0009 1000.0009 1000.0009 1000.001 1000.0012 1000.0012 1000.0012 1000.0012 1000.0012 1000.0013 1000.0018 1000.0018 1000.0018 1000.0018 1000.0018 1000.0018 1000.0021 1000.0024 1000.0024 1000.0024 1000.0024 1000.0024 1000.0028 1000.0031 1000.0031 1000.0031 1000.0032 1000.0034 1000.0038 1000.004 1000.0042 1000.0042 1000.0045 1000.0045 1000.0051 1000.0054 1000.0056 1000.0057 1000.0059 1000.006 1000.007 1000.0073 1000.0074 1000.0076 1000.0079 1000.0081 1000.0097 1000.0099 1000.0101 1000.0102 1000.0104 1000.0107 1000.0129 1000.0131 1000.0134 1000.0136 1000.0138 1000.0141 1000.0171 1000.0175 1000.0177 1000.0179 1000.0182 1000.0185 1000.0226 1000.0233 1000.0235 1000.0236 1000.0239 1000.0242 1000.0301 1000.0308 1000.0311 1000.031 1000.0312 1000.0313 1000.0397 1000.0407 1000.0407 1000.0403 1000.0402 1000.0402 1000.0526 1000.0538 1000.0532 1000.0522 1000.0516 1000.0514 1000.069 1000.0706 1000.0685 1000.0663 1000.0652 1000.0649 1000.0892 1000.0901 1000.0861 1000.082 1000.0804 1000.08 1000.1149 1000.1146 1000.1065 1000.1003 1000.0984 1000.0986 1000.1489 1000.1452 1000.1314 1000.1227 1000.1213 1000.1229 1000.2037 1000.1944 1000.1736 1000.1634 1000.1638 1000.1686 1000.3182 1000.3012 1000.2759 1000.2651 1000.269 1000.2797 1000.5934 1000.5718 1000.5492 1000.5403 1000.5503 1000.5699 1001.2299 1001.2113 1001.2067 1001.2108 1001.2312 1001.2628 1002.4086 1002.4023 1002.4432 1002.4781 1002.5163 1002.5637 1003.884 1003.8927 1003.9966 1004.0768 1004.1378 1004.2026 1005.0345 1005.0463 1005.2001 1005.3179 1005.3996 1005.4806 1005.6398 1005.6395 1005.812 1005.9489 1006.0438 1006.1379 1005.8933 1005.8796 1006.0496 1006.1902 1006.2911 1006.3937 1005.9988 1005.9727 1006.1345 1006.2719 1006.3748 1006.4828 1006.0547 1006.0202 1006.1738 1006.3073 1006.4107 1006.5215 1006.0947 1006.0555 1006.2042 1006.3347 1006.4379 1006.5498 1006.1234 1006.0834 1006.2305 1006.3595 1006.462 1006.5739 1006.1374 1006.1 1006.2485 1006.3779 1006.4798 1006.5903 1006.051 1006.0161 1006.1636 1006.2914 1006.3915 1006.4998 1005.8641 1005.8309 1005.9745 1006.0986 1006.1957 1006.3008 1005.5909 1005.5593 1005.6963 1005.8149 1005.9081 1006.009 1005.2482 1005.2184 1005.3467 1005.4582 1005.5468 1005.6429 1004.8538 1004.8263 1004.9443 1005.048 1005.1314 1005.222 1004.4244 1004.4 1004.5074 1004.6025 1004.6802 1004.765 1003.9769 1003.9557 1004.053 1004.1396 1004.2116 1004.2903 1003.5285 1003.5104 1003.5977 1003.6759 1003.7422 1003.8147 1003.0959 1003.0798 1003.1564 1003.2268 1003.2875 1003.3537 1002.6937 1002.6776 1002.7432 1002.8062 1002.8613 1002.9213 1002.3304 1002.3138 1002.3679 1002.4241 1002.4736 1002.5268 1002.0095 1001.9937 1002.0367 1002.0877 1002.1315 1002.1776 1001.7315 1001.7184 1001.7514 1001.7986 1001.8377 1001.876 1001.4899 1001.5123 1001.5549 1001.5906 1001.622 1001.3076 1001.3172 1001.3519 1001.3862 1001.4126 1001.1621 1001.1854 1001.2178 1001.2426 1001.0398 1001.0511 1001.0788 1001.1051 1000.9448 1000.9647 1000.9917 1000.874 1000.8969 1000.8064 1000.8217 1000.0001 1000.0001 1000.0001 1000.0001 1000.0001 1000.0001 1000.0001 1000.0001 1000.0001 1000.0001 1000.0001 1000.0001 1000.0001 1000.0001 1000.0001 1000.0001 1000.0001 1000.0001 1000.0001 1000.0001 1000.0001 1000.0001 1000.0001 1000.0001 1000.0001 1000.0001 1000.0001 1000.0001 1000.0001 1000.0001 1000.0001 1000.0001 1000.0001 1000.0001 1000.0001 1000.0001 1000.0002 1000.0002 1000.0002 1000.0002 1000.0002 1000.0002 1000.0002 1000.0002 1000.0002 1000.0002 1000.0003 1000.0003 1000.0003 1000.0003 1000.0003 1000.0003 1000.0003 1000.0003 1000.0004 1000.0004 1000.0004 1000.0004 1000.0004 1000.0004 1000.0004 1000.0004 1000.0004 1000.0005 1000.0005 1000.0005 1000.0005 1000.0006 1000.0006 1000.0006 1000.0006 1000.0006 1000.0007 1000.0008 1000.0008 1000.0009 1000.0009 1000.0009 1000.0009 1000.0009 1000.0009 1000.001 1000.001 1000.0011 1000.0011 1000.0011 1000.0011 1000.0011 1000.0011 1000.0011 1000.0014 1000.0015 1000.0015 1000.0016 1000.0016 1000.0016 1000.0016 1000.0016 1000.0016 1000.002 1000.002 1000.002 1000.002 1000.002 1000.002 1000.002 1000.002 1000.0021 1000.0026 1000.0026 1000.0026 1000.0026 1000.0027 1000.0027 1000.0027 1000.0027 1000.0027 1000.0035 1000.0036 1000.0037 1000.0037 1000.0037 1000.0037 1000.0038 1000.0038 1000.0038 1000.0047 1000.0048 1000.0049 1000.0049 1000.0049 1000.0049 1000.0049 1000.0049 1000.0049 1000.0062 1000.0062 1000.0065 1000.0065 1000.0066 1000.0066 1000.0066 1000.0066 1000.0066 1000.0083 1000.0084 1000.0085 1000.0085 1000.0086 1000.0086 1000.0086 1000.0086 1000.0086 1000.011 1000.0112 1000.0113 1000.0114 1000.0114 1000.0115 1000.0114 1000.0114 1000.0114 1000.0144 1000.0145 1000.0147 1000.0148 1000.0148 1000.0148 1000.0149 1000.0149 1000.0149 1000.0189 1000.019 1000.0192 1000.0192 1000.0192 1000.0192 1000.0193 1000.0193 1000.0192 1000.0245 1000.0247 1000.0248 1000.0248 1000.0248 1000.0248 1000.0248 1000.0248 1000.0248 1000.0317 1000.0318 1000.0319 1000.0319 1000.0318 1000.0319 1000.0318 1000.0317 1000.0317 1000.0404 1000.0406 1000.0404 1000.0405 1000.0404 1000.0405 1000.0405 1000.0405 1000.0404 1000.0517 1000.0516 1000.0515 1000.0514 1000.0515 1000.0513 1000.0515 1000.0515 1000.0515 1000.0648 1000.0649 1000.0648 1000.0646 1000.0647 1000.0646 1000.0648 1000.0648 1000.0648 1000.08 1000.0801 1000.08 1000.08 1000.0801 1000.0801 1000.0803 1000.0804 1000.0808 1000.0991 1000.0997 1000.0998 1000.1 1000.1002 1000.1004 1000.1008 1000.1011 1000.1014 1000.1251 1000.1269 1000.1279 1000.1285 1000.129 1000.1296 1000.1302 1000.1307 1000.131 1000.1742 1000.1785 1000.1813 1000.1829 1000.184 1000.1849 1000.1859 1000.1866 1000.1872 1000.2912 1000.3004 1000.3063 1000.3098 1000.312 1000.3136 1000.3151 1000.3162 1000.317 1000.5905 1000.6074 1000.6185 1000.625 1000.6291 1000.6318 1000.6341 1000.6358 1000.6369 1001.296 1001.3234 1001.3422 1001.3533 1001.3599 1001.3644 1001.3679 1001.3703 1001.3718 1002.6118 1002.6525 1002.6807 1002.6978 1002.708 1002.7146 1002.7194 1002.7228 1002.725 1004.2674 1004.3223 1004.3611 1004.385 1004.3992 1004.4084 1004.4149 1004.4196 1004.4225 1005.5611 1005.6299 1005.6793 1005.7097 1005.7282 1005.7401 1005.7483 1005.7543 1005.7578 1006.2314 1006.3122 1006.3705 1006.4069 1006.4291 1006.4433 1006.4534 1006.4604 1006.4648 1006.4973 1006.5869 1006.6519 1006.693 1006.718 1006.7341 1006.7455 1006.7537 1006.7586 1006.5927 1006.6884 1006.7579 1006.8019 1006.8289 1006.8463 1006.8586 1006.8674 1006.8729 1006.635 1006.7339 1006.8058 1006.8514 1006.8795 1006.8976 1006.9105 1006.9199 1006.9256 1006.6647 1006.7649 1006.8376 1006.8839 1006.9122 1006.9307 1006.9439 1006.9534 1006.9593 1006.6885 1006.7885 1006.8611 1006.9071 1006.9352 1006.9537 1006.967 1006.9766 1006.9825 1006.7037 1006.8022 1006.8738 1006.9191 1006.9469 1006.9651 1006.9783 1006.9877 1006.9936 1006.6108 1006.7073 1006.777 1006.8211 1006.8482 1006.866 1006.8788 1006.8881 1006.8939 1006.4083 1006.5016 1006.5691 1006.6119 1006.638 1006.6552 1006.6675 1006.6765 1006.6821 1006.1122 1006.2017 1006.2662 1006.307 1006.332 1006.3484 1006.3602 1006.3687 1006.374 1005.7409 1005.8256 1005.8868 1005.9252 1005.9488 1005.9641 1005.9753 1005.9833 1005.9882 1005.3141 1005.3936 1005.4504 1005.4861 1005.508 1005.5221 1005.5324 1005.5397 1005.5443 1004.8508 1004.9241 1004.9766 1005.0092 1005.0291 1005.0419 1005.0511 1005.0577 1005.0618 1004.3693 1004.4366 1004.4843 1004.5136 1004.5314 1004.5428 1004.5509 1004.5568 1004.5605 1003.8871 1003.9484 1003.9915 1004.0179 1004.0336 1004.0437 1004.0508 1004.0559 1004.0591 1003.4199 1003.4755 1003.5146 1003.5385 1003.5525 1003.5614 1003.5677 1003.5721 1003.5748 1002.9811 1003.0318 1003.0674 1003.0894 1003.1022 1003.1102 1003.1157 1003.1196 1003.1219 1002.5803 1002.6263 1002.6594 1002.6802 1002.6924 1002.7 1002.705 1002.7084 1002.7104 1002.2242 1002.2658 1002.2969 1002.3173 1002.3297 1002.337 1002.3418 1002.345 1002.3468 1001.9156 1001.9523 1001.9818 1002.0023 1002.0153 1002.0233 1002.0281 1002.0313 1002.033 1001.654 1001.6855 1001.7129 1001.7339 1001.7482 1001.7573 1001.7629 1001.7663 1001.768 1001.4376 1001.4635 1001.4882 1001.509 1001.5247 1001.5354 1001.5421 1001.5462 1001.5483 1001.2625 1001.2827 1001.3037 1001.3232 1001.3395 1001.3517 1001.36 1001.3652 1001.368 1001.1237 1001.1395 1001.1562 1001.173 1001.1885 1001.2009 1001.2103 1001.2166 1001.2202 1001.013 1001.0282 1001.0413 1001.0545 1001.0674 1001.0787 1001.0879 1001.0945 1001.0985 1000.9208 1000.9398 1000.9532 1000.9638 1000.9733 1000.9821 1000.9897 1000.9955 1000.9992 1000.8417 1000.863 1000.8807 1000.8934 1000.9019 1000.9082 1000.9135 1000.9177 1000.9205 1000.7855 1000.7993 1000.815 1000.8301 1000.8419 1000.85 1000.8553 1000.8587 1000.8608 1000.7631 1000.7678 1000.7756 1000.7853 1000.7944 1000.801 1000.8052 1000.8074 1000.7505 1000.7495 1000.7513 1000.7532 1000.7543 1000.7549 1000.7487 1000.7454 1000.7416 1000.7391 1000.0001 1000.0001 1000.0001 1000.0001 1000.0001 1000.0001 1000.0001 1000.0001 1000.0001 1000.0001 1000.0001 1000.0001 1000.0001 1000.0001 1000.0001 1000.0001 1000.0001 1000.0001 1000.0001 1000.0001 1000.0001 1000.0001 1000.0001 1000.0001 1000.0001 1000.0001 1000.0001 1000.0001 1000.0001 1000.0001 1000.0001 1000.0001 1000.0002 1000.0002 1000.0002 1000.0002 1000.0002 1000.0002 1000.0002 1000.0002 1000.0003 1000.0003 1000.0003 1000.0003 1000.0003 1000.0003 1000.0003 1000.0003 1000.0004 1000.0004 1000.0004 1000.0004 1000.0004 1000.0004 1000.0004 1000.0004 1000.0006 1000.0006 1000.0006 1000.0006 1000.0006 1000.0006 1000.0005 1000.0005 1000.0009 1000.0009 1000.0009 1000.0009 1000.0009 1000.0009 1000.0009 1000.0008 1000.0011 1000.0011 1000.0011 1000.0011 1000.0011 1000.0011 1000.0011 1000.0011 1000.0016 1000.0016 1000.0016 1000.0016 1000.0016 1000.0016 1000.0016 1000.0015 1000.0021 1000.0021 1000.002 1000.002 1000.002 1000.002 1000.002 1000.002 1000.0027 1000.0027 1000.0027 1000.0027 1000.0027 1000.0027 1000.0026 1000.0026 1000.0038 1000.0038 1000.0038 1000.0038 1000.0037 1000.0037 1000.0037 1000.0037 1000.0049 1000.0049 1000.0049 1000.0049 1000.0049 1000.0049 1000.0049 1000.0049 1000.0066 1000.0066 1000.0066 1000.0066 1000.0066 1000.0066 1000.0065 1000.0065 1000.0086 1000.0086 1000.0086 1000.0086 1000.0086 1000.0086 1000.0085 1000.0085 1000.0114 1000.0114 1000.0114 1000.0114 1000.0115 1000.0114 1000.0114 1000.0113 1000.0149 1000.0149 1000.0149 1000.0149 1000.0148 1000.0148 1000.0148 1000.0147 1000.0192 1000.0192 1000.0193 1000.0193 1000.0192 1000.0192 1000.0192 1000.0192 1000.0248 1000.0248 1000.0248 1000.0248 1000.0248 1000.0248 1000.0248 1000.0248 1000.0317 1000.0317 1000.0317 1000.0318 1000.0319 1000.0318 1000.0319 1000.0319 1000.0404 1000.0404 1000.0405 1000.0405 1000.0405 1000.0404 1000.0405 1000.0404 1000.0515 1000.0515 1000.0515 1000.0515 1000.0513 1000.0515 1000.0514 1000.0515 1000.0648 1000.0648 1000.0648 1000.0648 1000.0646 1000.0647 1000.0646 1000.0648 1000.0808 1000.0808 1000.0804 1000.0803 1000.0801 1000.0801 1000.08 1000.08 1000.1014 1000.1014 1000.1011 1000.1008 1000.1004 1000.1002 1000.1 1000.0998 1000.1312 1000.131 1000.1307 1000.1302 1000.1296 1000.129 1000.1285 1000.1279 1000.1873 1000.1872 1000.1866 1000.1859 1000.1849 1000.184 1000.1829 1000.1813 1000.3172 1000.317 1000.3162 1000.3151 1000.3136 1000.312 1000.3098 1000.3063 1000.6373 1000.6369 1000.6358 1000.6341 1000.6318 1000.6291 1000.625 1000.6185 1001.3723 1001.3718 1001.3703 1001.3679 1001.3644 1001.3599 1001.3533 1001.3422 1002.7257 1002.725 1002.7228 1002.7194 1002.7146 1002.708 1002.6978 1002.6807 1004.4235 1004.4225 1004.4196 1004.4149 1004.4084 1004.3992 1004.385 1004.3611 1005.7592 1005.7578 1005.7543 1005.7483 1005.7401 1005.7282 1005.7097 1005.6793 1006.4662 1006.4648 1006.4604 1006.4534 1006.4433 1006.4291 1006.4069 1006.3705 1006.7603 1006.7586 1006.7537 1006.7455 1006.7341 1006.718 1006.693 1006.6519 1006.8748 1006.8729 1006.8674 1006.8586 1006.8463 1006.8289 1006.8019 1006.7579 1006.9276 1006.9256 1006.9199 1006.9105 1006.8976 1006.8795 1006.8514 1006.8058 1006.9612 1006.9593 1006.9534 1006.9439 1006.9307 1006.9122 1006.8839 1006.8376 1006.9846 1006.9825 1006.9766 1006.967 1006.9537 1006.9352 1006.9071 1006.8611 1006.9956 1006.9936 1006.9877 1006.9783 1006.9651 1006.9469 1006.9191 1006.8738 1006.8958 1006.8939 1006.8881 1006.8788 1006.866 1006.8482 1006.8211 1006.777 1006.684 1006.6821 1006.6765 1006.6675 1006.6552 1006.638 1006.6119 1006.5691 1006.3759 1006.374 1006.3687 1006.3602 1006.3484 1006.332 1006.307 1006.2662 1005.9899 1005.9882 1005.9833 1005.9753 1005.9641 1005.9488 1005.9252 1005.8868 1005.5459 1005.5443 1005.5397 1005.5324 1005.5221 1005.508 1005.4861 1005.4504 1005.0633 1005.0618 1005.0577 1005.0511 1005.0419 1005.0291 1005.0092 1004.9766 1004.5616 1004.5605 1004.5568 1004.5509 1004.5428 1004.5314 1004.5136 1004.4843 1004.0602 1004.0591 1004.0559 1004.0508 1004.0437 1004.0336 1004.0179 1003.9915 1003.5757 1003.5748 1003.5721 1003.5677 1003.5614 1003.5525 1003.5385 1003.5146 1003.1228 1003.1219 1003.1196 1003.1157 1003.1102 1003.1022 1003.0894 1003.0674 1002.7111 1002.7104 1002.7084 1002.705 1002.7 1002.6924 1002.6802 1002.6594 1002.3475 1002.3468 1002.345 1002.3418 1002.337 1002.3297 1002.3173 1002.2969 1002.0336 1002.033 1002.0313 1002.0281 1002.0233 1002.0153 1002.0023 1001.9818 1001.7686 1001.768 1001.7663 1001.7629 1001.7573 1001.7482 1001.7339 1001.7129 1001.549 1001.5483 1001.5462 1001.5421 1001.5354 1001.5247 1001.509 1001.4882 1001.3689 1001.368 1001.3652 1001.36 1001.3517 1001.3395 1001.3232 1001.3037 1001.2213 1001.2202 1001.2166 1001.2103 1001.2009 1001.1885 1001.173 1001.1562 1001.0999 1001.0985 1001.0945 1001.0879 1001.0787 1001.0674 1001.0545 1001.0413 1001.0005 1000.9992 1000.9955 1000.9897 1000.9821 1000.9733 1000.9638 1000.9532 1000.9215 1000.9205 1000.9177 1000.9135 1000.9082 1000.9019 1000.8934 1000.8807 1000.8616 1000.8608 1000.8587 1000.8553 1000.85 1000.8419 1000.8301 1000.815 1000.8083 1000.8074 1000.8052 1000.801 1000.7944 1000.7853 1000.7756 1000.7678 1000.755 1000.7549 1000.7543 1000.7532 1000.7513 1000.7495 1000.7505 1000.7382 1000.7391 1000.7416 1000.7454 1000.7487 1000.0001 1000.0001 1000.0 1000.0 1000.0 1000.0 1000.0 1000.0001 1000.0001 1000.0001 1000.0001 1000.0001 1000.0001 1000.0 1000.0 1000.0001 1000.0001 1000.0001 1000.0001 1000.0001 1000.0001 1000.0001 1000.0 1000.0001 1000.0001 1000.0001 1000.0001 1000.0001 1000.0001 1000.0001 1000.0001 1000.0002 1000.0002 1000.0002 1000.0002 1000.0001 1000.0001 1000.0001 1000.0001 1000.0003 1000.0002 1000.0002 1000.0002 1000.0002 1000.0002 1000.0002 1000.0001 1000.0004 1000.0004 1000.0004 1000.0004 1000.0003 1000.0003 1000.0002 1000.0002 1000.0005 1000.0005 1000.0004 1000.0004 1000.0004 1000.0004 1000.0004 1000.0004 1000.0008 1000.0007 1000.0007 1000.0007 1000.0007 1000.0006 1000.0006 1000.0005 1000.001 1000.001 1000.001 1000.0009 1000.0009 1000.0009 1000.0009 1000.0009 1000.0015 1000.0014 1000.0013 1000.0012 1000.0012 1000.0012 1000.0012 1000.0012 1000.002 1000.002 1000.0018 1000.0018 1000.0018 1000.0018 1000.0018 1000.0018 1000.0026 1000.0026 1000.0024 1000.0024 1000.0024 1000.0024 1000.0024 1000.0021 1000.0036 1000.0035 1000.0034 1000.0032 1000.0031 1000.0031 1000.0031 1000.0028 1000.0048 1000.0047 1000.0045 1000.0045 1000.0042 1000.0042 1000.004 1000.0038 1000.0062 1000.0062 1000.006 1000.0059 1000.0057 1000.0056 1000.0054 1000.0051 1000.0084 1000.0083 1000.0081 1000.0079 1000.0076 1000.0074 1000.0073 1000.007 1000.0112 1000.011 1000.0107 1000.0104 1000.0102 1000.0101 1000.0099 1000.0097 1000.0145 1000.0144 1000.0141 1000.0138 1000.0136 1000.0134 1000.0131 1000.0129 1000.019 1000.0189 1000.0185 1000.0182 1000.0179 1000.0177 1000.0175 1000.0171 1000.0247 1000.0245 1000.0242 1000.0239 1000.0236 1000.0235 1000.0233 1000.0226 1000.0318 1000.0317 1000.0313 1000.0312 1000.031 1000.0311 1000.0308 1000.0301 1000.0406 1000.0404 1000.0402 1000.0402 1000.0403 1000.0407 1000.0407 1000.0397 1000.0516 1000.0517 1000.0514 1000.0516 1000.0522 1000.0532 1000.0538 1000.0526 1000.0649 1000.0648 1000.0649 1000.0652 1000.0663 1000.0685 1000.0706 1000.069 1000.0801 1000.08 1000.08 1000.0804 1000.082 1000.0861 1000.0901 1000.0892 1000.0997 1000.0991 1000.0986 1000.0984 1000.1003 1000.1065 1000.1146 1000.1149 1000.1269 1000.1251 1000.1229 1000.1213 1000.1227 1000.1314 1000.1452 1000.1489 1000.1785 1000.1742 1000.1686 1000.1638 1000.1634 1000.1736 1000.1944 1000.2037 1000.3004 1000.2912 1000.2797 1000.269 1000.2651 1000.2759 1000.3012 1000.3182 1000.6074 1000.5905 1000.5699 1000.5503 1000.5403 1000.5492 1000.5718 1000.5934 1001.3234 1001.296 1001.2628 1001.2312 1001.2108 1001.2067 1001.2113 1001.2299 1002.6525 1002.6118 1002.5637 1002.5163 1002.4781 1002.4432 1002.4023 1002.4086 1004.3223 1004.2674 1004.2026 1004.1378 1004.0768 1003.9966 1003.8927 1003.884 1005.6299 1005.5611 1005.4806 1005.3996 1005.3179 1005.2001 1005.0463 1005.0345 1006.3122 1006.2314 1006.1379 1006.0438 1005.9489 1005.812 1005.6395 1005.6398 1006.5869 1006.4973 1006.3937 1006.2911 1006.1902 1006.0496 1005.8796 1005.8933 1006.6884 1006.5927 1006.4828 1006.3748 1006.2719 1006.1345 1005.9727 1005.9988 1006.7339 1006.635 1006.5215 1006.4107 1006.3073 1006.1738 1006.0202 1006.0547 1006.7649 1006.6647 1006.5498 1006.4379 1006.3347 1006.2042 1006.0555 1006.0947 1006.7885 1006.6885 1006.5739 1006.462 1006.3595 1006.2305 1006.0834 1006.1234 1006.8022 1006.7037 1006.5903 1006.4798 1006.3779 1006.2485 1006.1 1006.1374 1006.7073 1006.6108 1006.4998 1006.3915 1006.2914 1006.1636 1006.0161 1006.051 1006.5016 1006.4083 1006.3008 1006.1957 1006.0986 1005.9745 1005.8309 1005.8641 1006.2017 1006.1122 1006.009 1005.9081 1005.8149 1005.6963 1005.5593 1005.5909 1005.8256 1005.7409 1005.6429 1005.5468 1005.4582 1005.3467 1005.2184 1005.2482 1005.3936 1005.3141 1005.222 1005.1314 1005.048 1004.9443 1004.8263 1004.8538 1004.9241 1004.8508 1004.765 1004.6802 1004.6025 1004.5074 1004.4 1004.4244 1004.4366 1004.3693 1004.2903 1004.2116 1004.1396 1004.053 1003.9557 1003.9769 1003.9484 1003.8871 1003.8147 1003.7422 1003.6759 1003.5977 1003.5104 1003.5285 1003.4755 1003.4199 1003.3537 1003.2875 1003.2268 1003.1564 1003.0798 1003.0959 1003.0318 1002.9811 1002.9213 1002.8613 1002.8062 1002.7432 1002.6776 1002.6937 1002.6263 1002.5803 1002.5268 1002.4736 1002.4241 1002.3679 1002.3138 1002.3304 1002.2658 1002.2242 1002.1776 1002.1315 1002.0877 1002.0367 1001.9937 1002.0095 1001.9523 1001.9156 1001.876 1001.8377 1001.7986 1001.7514 1001.7184 1001.7315 1001.6855 1001.654 1001.622 1001.5906 1001.5549 1001.5123 1001.4899 1001.4635 1001.4376 1001.4126 1001.3862 1001.3519 1001.3172 1001.3076 1001.2827 1001.2625 1001.2426 1001.2178 1001.1854 1001.1621 1001.1395 1001.1237 1001.1051 1001.0788 1001.0511 1001.0398 1001.0282 1001.013 1000.9917 1000.9647 1000.9448 1000.9398 1000.9208 1000.8969 1000.874 1000.863 1000.8417 1000.8217 1000.8064 1000.7993 1000.7855 1000.7631 
Mass 1 2975 float
0.40000001 0.40000001 0.40000001 0.40000001 0.40000001 0.40000001 0.40000001 0.40000001 0.40000001 0.40000001 0.40000001 0.40000001 0.40000001 0.40000001 0.40000001 0.40000001 0.40000001 0.40000001 0.40000001 0.40000001 0.40000001 0.40000001 0.40000001 0.40000001 0.40000001 0.40000001 0.40000001 0.40000001 0.40000001 0.40000001 0.40000001 0.40000001 0.40000001 0.40000001 0.40000001 0.40000001 0.40000001 0.40000001 0.40000001 0.40000001 0.40000001 0.40000001 0.40000001 0.40000001 0.40000001 0.40000001 0.40000001 0.40000001 0.40000001 0.40000001 0.40000001 0.40000001 0.40000001 0.40000001 0.40000001 0.40000001 0.40000001 0.40000001 0.40000001 0.40000001 0.40000001 0.40000001 0.40000001 0.40000001 0.40000001 0.40000001 0.40000001 0.40000001 0.40000001 0.40000001 0.40000001 0.40000001 0.40000001 0.40000001 0.40000001 0.40000001 0.40000001 0.40000001 0.40000001 0.40000001 0.40000001 0.40000001 0.40000001 0.40000001 0.40000001 0.40000001 0.40000001 0.40000001 0.40000001 0.40000001 0.40000001 0.40000001 0.40000001 0.40000001 0.40000001 0.40000001 0.40000001 0.40000001 0.40000001 0.40000001 0.40000001 0.40000001 0.40000001 0.40000001 0.40000001 0.40000001 0.40000001 0.40000001 0.40000001 0.40000001 0.40000001 0.40000001 0.40000001 0.40000001 0.40000001 0.40000001 0.40000001 0.40000001 0.40000001 0.40000001 0.40000001 0.40000001 0.40000001 0.40000001 0.40000001 0.40000001 0.40000001 0.40000001 0.40000001 0.40000001 0.40000001 0.40000001 0.40000001 0.40000001 0.40000001 0.40000001 0.40000001 0.40000001 0.40000001 0.40000001 0.40000001 0.40000001 0.40000001 0.40000001 0.40000001 0.40000001 0.40000001 0.40000001 0.40000001 0.40000001 0.40000001 0.40000001 0.40000001 0.40000001 0.40000001 0.40000001 0.40000001 0.40000001 0.40000001 0.40000001 0.40000001 0.40000001 0.40000001 0.40000001 0.40000001 0.40000001 0.40000001 0.40000001 0.40000001 0.40000001 0.40000001 0.40000001 0.40000001 0.40000001 0.40000001 0.40000001 0.40000001 0.40000001 0.40000001 0.40000001 0.40000001 0.40000001 0.40000001 0.40000001 0.40000001 0.40000001 0.40000001 0.40000001 0.40000001 0.40000001 0.40000001 0.40000001 0.40000001 0.40000001 0.40000001 0.40000001 0.40000001 0.40000001 0.40000001 0.40000001 0.40000001 0.40000001 0.40000001 0.40000001 0.40000001 0.40000001 0.40000001 0.40000001 0.40000001 0.40000001 0.40000001 0.40000001 0.40000001 0.40000001 0.40000001 0.40000001 0.40000001 0.40000001 0.40000001 0.40000001 0.40000001 0.40000001 0.40000001 0.40000001 0.40000001 0.40000001 0.40000001 0.40000001 0.40000001 0.40000001 0.40000001 0.40000001 0.40000001 0.40000001 0.40000001 0.40000001 0.40000001 0.40000001 0.40000001 0.40000001 0.40000001 0.40000001 0.40000001 0.40000001 0.40000001 0.40000001 0.40000001 0.40000001 0.40000001 0.40000001 0.40000001 0.40000001 0.40000001 0.40000001 0.40000001 0.40000001 0.40000001 0.40000001 0.40000001 0.40000001 0.40000001 0.40000001 0.40000001 0.40000001 0.40000001 0.40000001 0.40000001 0.40000001 0.40000001 0.40000001 0.40000001 0.40000001 0.40000001 0.40000001 0.40000001 0.40000001 0.40000001 0.40000001 0.40000001 0.40000001 0.40000001 0.40000001 0.40000001 0.40000001 0.40000001 0.40000001 0.40000001 0.40000001 0.40000001 0.40000001 0.40000001 0.40000001 0.40000001 0.40000001 0.40000001 0.40000001 0.40000001 0.40000001 0.40000001 0.40000001 0.40000001 0.40000001 0.40000001 0.40000001 0.40000001 0.40000001 0.40000001 0.40000001 0.40000001 0.40000001 0.40000001 0.40000001 0.40000001 0.40000001 0.40000001 0.40000001 0.40000001 0.40000001 0.40000001 0.40000001 0.40000001 0.40000001 0.40000001 0.40000001 0.40000001 0.40000001 0.40000001 0.40000001 0.40000001 0.40000001 0.40000001 0.40000001 0.40000001 0.40000001 0.40000001 0.40000001 0.40000001 0.40000001 0.40000001 0.40000001 0.40000001 0.40000001 0.40000001 0.40000001 0.40000001 0.40000001 0.40000001 0.40000001 0.40000001 0.40000001 0.40000001 0.40000001 0.40000001 0.40000001 0.40000001 0.40000001 0.40000001 0.40000001 0.40000001 0.40000001 0.40000001 0.40000001 0.40000001 0.40000001 0.40000001 0.40000001 0.40000001 0.40000001 0.40000001 0.40000001 0.40000001 0.40000001 0.40000001 0.40000001 0.40000001 0.40000001 0.40000001 0.40000001 0.40000001 0.40000001 0.40000001 0.40000001 0.40000001 0.40000001 0.40000001 0.40000001 0.40000001 0.40000001 0.40000001 0.40000001 0.40000001 0.40000001 0.40000001 0.40000001 0.40000001 0.40000001 0.40000001 0.40000001 0.40000001 0.40000001 0.40000001 0.40000001 0.40000001 0.40000001 0.40000001 0.40000001 0.40000001 0.40000001 0.40000001 0.40000001 0.40000001 0.40000001 0.40000001 0.40000001 0.40000001 0.40000001 0.40000001 0.40000001 0.40000001 0.40000001 0.40000001 0.40000001 0.40000001 0.40000001 0.40000001 0.40000001 0.40000001 0.40000001 0.40000001 0.40000001 0.40000001 0.40000001 0.40000001 0.40000001 0.40000001 0.40000001 0.40000001 0.40000001 0.40000001 0.40000001 0.40000001 0.40000001 0.40000001 0.40000001 0.40000001 0.40000001 0.40000001 0.40000001 0.40000001 0.40000001 0.40000001 0.40000001 0.40000001 0.40000001 0.40000001 0.40000001 0.40000001 0.40000001 0.40000001 0.40000001 0.40000001 0.40000001 0.40000001 0.40000001 0.40000001 0.40000001 0.40000001 0.40000001 0.40000001 0.40000001 0.40000001 0.40000001 0.40000001 0.40000001 0.40000001 0.40000001 0.40000001 0.40000001 0.40000001 0.40000001 0.40000001 0.40000001 0.40000001 0.40000001 0.40000001 0.40000001 0.40000001 0.40000001 0.40000001 0.40000001 0.40000001 0.40000001 0.40000001 0.40000001 0.40000001 0.40000001 0.40000001 0.40000001 0.40000001 0.40000001 0.40000001 0.40000001 0.40000001 0.40000001 0.40000001 0.40000001 0.40000001 0.40000001 0.40000001 0.40000001 0.40000001 0.40000001 0.40000001 0.40000001 0.40000001 0.40000001 0.40000001 0.40000001 0.40000001 0.40000001 0.40000001 0.40000001 0.40000001 0.40000001 0.40000001 0.40000001 0.40000001 0.40000001 0.40000001 0.40000001 0.40000001 0.40000001 0.40000001 0.40000001 0.40000001 0.40000001 0.40000001 0.40000001 0.40000001 0.40000001 0.40000001 0.40000001 0.40000001 0.40000001 0.40000001 0.40000001 0.40000001 0.40000001 0.40000001 0.40000001 0.40000001 0.40000001 0.40000001 0.40000001 0.40000001 0.40000001 0.40000001 0.40000001 0.40000001 0.40000001 0.40000001 0.40000001 0.40000001 0.40000001 0.40000001 0.40000001 0.40000001 0.40000001 0.40000001 0.40000001 0.40000001 0.40000001 0.40000001 0.40000001 0.40000001 0.40000001 0.40000001 0.40000001 0.40000001 0.40000001 0.40000001 0.40000001 0.40000001 0.40000001 0.40000001 0.40000001 0.40000001 0.40000001 0.40000001 0.40000001 0.40000001 0.40000001 0.40000001 0.40000001 0.40000001 0.40000001 0.40000001 0.40000001 0.40000001 0.40000001 0.40000001 0.40000001 0.40000001 0.40000001 0.40000001 0.40000001 0.40000001 0.40000001 0.40000001 0.40000001 0.40000001 0.40000001 0.40000001 0.40000001 0.40000001 0.40000001 0.40000001 0.40000001 0.40000001 0.40000001 0.40000001 0.40000001 0.40000001 0.40000001 0.40000001 0.40000001 0.40000001 0.40000001 0.40000001 0.40000001 0.40000001 0.40000001 0.40000001 0.40000001 0.40000001 0.40000001 0.40000001 0.40000001 0.40000001 0.40000001 0.40000001 0.40000001 0.40000001 0.40000001 0.40000001 0.40000001 0.40000001 0.40000001 0.40000001 0.40000001 0.40000001 0.40000001 0.40000001 0.40000001 0.40000001 0.40000001 0.40000001 0.40000001 0.40000001 0.40000001 0.40000001 0.40000001 0.40000001 0.40000001 0.40000001 0.40000001 0.40000001 0.40000001 0.40000001 0.40000001 0.40000001 0.40000001 0.40000001 0.40000001 0.40000001 0.40000001 0.40000001 0.40000001 0.40000001 0.40000001 0.40000001 0.40000001 0.40000001 0.40000001 0.40000001 0.40000001 0.40000001 0.40000001 0.40000001 0.40000001 0.40000001 0.40000001 0.40000001 0.40000001 0.40000001 0.40000001 0.40000001 0.40000001 0.40000001 0.40000001 0.40000001 0.40000001 0.40000001 0.40000001 0.40000001 0.40000001 0.40000001 0.40000001 0.40000001 0.40000001 0.40000001 0.40000001 0.40000001 0.40000001 0.40000001 0.40000001 0.40000001 0.40000001 0.40000001 0.40000001 0.40000001 0.40000001 0.40000001 0.40000001 0.40000001 0.40000001 0.40000001 0.40000001 0.40000001 0.40000001 0.40000001 0.40000001 0.40000001 0.40000001 0.40000001 0.40000001 0.40000001 0.40000001 0.40000001 0.40000001 0.40000001 0.40000001 0.40000001 0.40000001 0.40000001 0.40000001 0.40000001 0.40000001 0.40000001 0.40000001 0.40000001 0.40000001 0.40000001 0.40000001 0.40000001 0.40000001 0.40000001 0.40000001 0.40000001 0.40000001 0.40000001 0.40000001 0.40000001 0.40000001 0.40000001 0.40000001 0.40000001 0.40000001 0.40000001 0.40000001 0.40000001 0.40000001 0.40000001 0.40000001 0.40000001 0.40000001 0.40000001 0.40000001 0.40000001 0.40000001 0.40000001 0.40000001 0.40000001 0.40000001 0.40000001 0.40000001 0.40000001 0.40000001 0.40000001 0.40000001 0.40000001 0.40000001 0.40000001 0.40000001 0.40000001 0.40000001 0.40000001 0.40000001 0.40000001 0.40000001 0.40000001 0.40000001 0.40000001 0.40000001 0.40000001 0.40000001 0.40000001 0.40000001 0.40000001 0.40000001 0.40000001 0.40000001 0.40000001 0.40000001 0.40000001 0.40000001 0.40000001 0.40000001 0.40000001 0.40000001 0.40000001 0.40000001 0.40000001 0.40000001 0.40000001 0.40000001 0.40000001 0.40000001 0.40000001 0.40000001 0.40000001 0.40000001 0.40000001 0.40000001 0.40000001 0.40000001 0.40000001 0.40000001 0.40000001 0.40000001 0.40000001 0.40000001 0.40000001 0.40000001 0.40000001 0.40000001 0.40000001 0.40000001 0.40000001 0.40000001 0.40000001 0.40000001 0.40000001 0.40000001 0.40000001 0.40000001 0.40000001 0.40000001 0.40000001 0.40000001 0.40000001 0.40000001 0.40000001 0.40000001 0.40000001 0.40000001 0.40000001 0.40000001 0.40000001 0.40000001 0.40000001 0.40000001 0.40000001 0.40000001 0.40000001 0.40000001 0.40000001 0.40000001 0.40000001 0.40000001 0.40000001 0.40000001 0.40000001 0.40000001 0.40000001 0.40000001 0.40000001 0.40000001 0.40000001 0.40000001 0.40000001 0.40000001 0.40000001 0.40000001 0.40000001 0.40000001 0.40000001 0.40000001 0.40000001 0.40000001 0.40000001 0.40000001 0.40000001 0.40000001 0.40000001 0.40000001 0.40000001 0.40000001 0.40000001 0.40000001 0.40000001 0.40000001 0.40000001 0.40000001 0.40000001 0.40000001 0.40000001 0.40000001 0.40000001 0.40000001 0.40000001 0.40000001 0.40000001 0.40000001 0.40000001 0.40000001 0.40000001 0.40000001 0.40000001 0.40000001 0.40000001 0.40000001 0.40000001 0.40000001 0.40000001 0.40000001 0.40000001 0.40000001 0.40000001 0.40000001 0.40000001 0.40000001 0.40000001 0.40000001 0.40000001 0.40000001 0.40000001 0.40000001 0.40000001 0.40000001 0.40000001 0.40000001 0.40000001 0.40000001 0.40000001 0.40000001 0.40000001 0.40000001 0.40000001 0.40000001 0.40000001 0.40000001 0.40000001 0.40000001 0.40000001 0.40000001 0.40000001 0.40000001 0.40000001 0.40000001 0.40000001 0.40000001 0.40000001 0.40000001 0.40000001 0.40000001 0.40000001 0.40000001 0.40000001 0.40000001 0.40000001 0.40000001 0.40000001 0.40000001 0.40000001 0.40000001 0.40000001 0.40000001 0.40000001 0.40000001 0.40000001 0.40000001 0.40000001 0.40000001 0.40000001 0.40000001 0.40000001 0.40000001 0.40000001 0.40000001 0.40000001 0.40000001 0.40000001 0.40000001 0.40000001 0.40000001 0.40000001 0.40000001 0.40000001 0.40000001 0.40000001 0.40000001 0.40000001 0.40000001 0.40000001 0.40000001 0.40000001 0.40000001 0.40000001 0.40000001 0.40000001 0.40000001 0.40000001 0.40000001 0.40000001 0.40000001 0.40000001 0.40000001 0.40000001 0.40000001 0.40000001 0.40000001 0.40000001 0.40000001 0.40000001 0.40000001 0.40000001 0.40000001 0.40000001 0.40000001 0.40000001 0.40000001 0.40000001 0.40000001 0.40000001 0.40000001 0.40000001 0.40000001 0.40000001 0.40000001 0.40000001 0.40000001 0.40000001 0.40000001 0.40000001 0.40000001 0.40000001 0.40000001 0.40000001 0.40000001 0.40000001 0.40000001 0.40000001 0.40000001 0.40000001 0.40000001 0.40000001 0.40000001 0.40000001 0.40000001 0.40000001 0.40000001 0.40000001 0.40000001 0.40000001 0.40000001 0.40000001 0.40000001 0.40000001 0.40000001 0.40000001 0.40000001 0.40000001 0.40000001 0.40000001 0.40000001 0.40000001 0.40000001 0.40000001 0.40000001 0.40000001 0.40000001 0.40000001 0.40000001 0.40000001 0.40000001 0.40000001 0.40000001 0.40000001 0.40000001 0.40000001 0.40000001 0.40000001 0.40000001 0.40000001 0.40000001 0.40000001 0.40000001 0.40000001 0.40000001 0.40000001 0.40000001 0.40000001 0.40000001 0.40000001 0.40000001 0.40000001 0.40000001 0.40000001 0.40000001 0.40000001 0.40000001 0.40000001 0.40000001 0.40000001 0.40000001 0.40000001 0.40000001 0.40000001 0.40000001 0.40000001 0.40000001 0.40000001 0.40000001 0.40000001 0.40000001 0.40000001 0.40000001 0.40000001 0.40000001 0.40000001 0.40000001 0.40000001 0.40000001 0.40000001 0.40000001 0.40000001 0.40000001 0.40000001 0.40000001 0.40000001 0.40000001 0.40000001 0.40000001 0.40000001 0.40000001 0.40000001 0.40000001 0.40000001 0.40000001 0.40000001 0.40000001 0.40000001 0.40000001 0.40000001 0.40000001 0.40000001 0.40000001 0.40000021 0.40000024 0.40000024 0.40000021 0.40000024 0.40000024 0.40000072 0.40000069 0.40000075 0.40000069 0.40000072 0.4000006 0.40000159 0.40000162 0.40000159 0.40000159 0.40000162 0.40000159 0.40000436 0.40000445 0.40000439 0.40000442 0.40000442 0.40000448 0.40001169 0.40001166 0.40001166 0.40001175 0.40001175 0.40001169 0.40003145 0.40003145 0.40003142 0.40003145 0.40003151 0.40003142 0.40008396 0.40008393 0.40008396 0.40008396 0.40008393 0.40008396 0.40021726 0.40021724 0.40021729 0.40021726 0.40021732 0.40021726 0.4005225 0.40052244 0.40052247 0.40052253 0.40052253 0.4005225 0.40108147 0.40108144 0.40108144 0.40108144 0.40108144 0.40108132 0.40178341 0.40178341 0.40178335 0.40178332 0.40178329 0.40178323 0.40234289 0.40234292 0.40234274 0.40234262 0.40234259 0.40234253 0.40264866 0.40264854 0.40264833 0.40264833 0.40264815 0.40264806 0.40278217 0.40278217 0.40278196 0.40278175 0.40278172 0.40278164 0.40283477 0.40283471 0.40283459 0.40283442 0.40283427 0.40283418 0.40285456 0.40285456 0.40285441 0.40285423 0.40285414 0.40285408 0.40286186 0.40286192 0.40286171 0.40286154 0.40286145 0.40286136 0.40286344 0.40286344 0.40286326 0.40286312 0.40286306 0.40286294 0.4028607 0.4028607 0.40286049 0.4028604 0.40286022 0.40286016 0.40281445 0.40281442 0.4028143 0.40281409 0.40281406 0.40281394 0.40272343 0.40272346 0.40272328 0.40272319 0.40272304 0.40272295 0.4025929 0.40259293 0.40259275 0.40259263 0.40259254 0.40259242 0.40242985 0.40242985 0.40242973 0.40242958 0.40242955 0.40242946 0.40224272 0.40224269 0.40224263 0.40224254 0.40224245 0.40224236 0.40204039 0.40204045 0.40204036 0.40204021 0.40204021 0.40204015 0.40183184 0.40183178 0.40183172 0.40183166 0.4018316 0.40183166 0.40162498 0.40162492 0.40162483 0.40162477 0.4016248 0.40162477 0.40142652 0.40142661 0.40142652 0.40142646 0.40142646 0.40142637 0.40124214 0.40124217 0.40124214 0.40124214 0.40124211 0.40124205 0.40107539 0.40107539 0.40107539 0.40107542 0.40107536 0.40107536 0.40092859 0.40092859 0.40092856 0.40092856 0.40092856 0.40092856 0.40080243 0.40080252 0.40080243 0.40080249 0.40080246 0.40080249 0.40069672 0.40069669 0.40069669 0.40069675 0.40069675 0.40060994 0.40060994 0.40061 0.40060997 0.40061 0.40054044 0.40054038 0.40054035 0.40054038 0.40048584 0.40048587 0.40048581 0.4004859 0.40044388 0.40044388 0.40044388 0.40041232 0.40041232 0.40038905 0.40038911 0.40000001 0.40000001 0.40000001 0.40000001 0.40000001 0.40000001 0.40000001 0.40000001 0.40000001 0.40000001 0.40000001 0.40000001 0.40000001 0.40000001 0.40000001 0.40000001 0.40000001 0.40000001 0.40000001 0.40000001 0.40000001 0.40000001 0.40000001 0.40000001 0.40000001 0.40000001 0.40000001 0.40000001 0.40000001 0.40000001 0.40000001 0.40000001 0.40000001 0.40000001 0.40000001 0.40000001 0.40000001 0.40000001 0.40000001 0.40000001 0.40000001 0.40000001 0.40000001 0.40000001 0.40000001 0.40000001 0.40000001 0.40000001 0.40000001 0.40000001 0.40000001 0.40000001 0.40000001 0.40000001 0.40000001 0.40000001 0.40000001 0.40000001 0.40000001 0.40000001 0.40000001 0.40000001 0.40000001 0.40000001 0.40000001 0.40000001 0.40000001 0.40000001 0.40000001 0.40000001 0.40000001 0.40000001 0.40000001 0.40000001 0.40000001 0.40000001 0.40000001 0.40000001 0.40000001 0.40000001 0.40000001 0.40000001 0.40000001 0.40000001 0.40000001 0.40000001 0.40000001 0.40000001 0.40000001 0.40000001 0.40000001 0.40000001 0.40000001 0.40000001 0.40000001 0.40000001 0.40000001 0.40000001 0.40000001 0.40000001 0.40000001 0.40000001 0.40000001 0.40000001 0.40000001 0.40000001 0.40000001 0.40000001 0.40000001 0.40000001 0.40000001 0.40000001 0.40000001 0.40000001 0.40000001 0.40000001 0.40000001 0.40000001 0.40000001 0.40000001 0.40000001 0.40000001 0.40000001 0.40000001 0.40000001 0.40000001 0.40000001 0.40000001 0.40000001 0.40000001 0.40000001 0.40000001 0.40000001 0.40000001 0.40000001 0.40000001 0.40000001 0.40000001 0.40000001 0.40000001 0.40000001 0.40000001 0.40000001 0.40000001 0.40000001 0.40000001 0.40000001 0.40000001 0.40000001 0.40000001 0.40000001 0.40000001 0.40000001 0.40000001 0.40000001 0.40000001 0.40000001 0.40000001 0.40000001 0.40000001 0.40000001 0.40000001 0.40000001 0.40000001 0.40000001 0.40000001 0.40000001 0.40000001 0.40000001 0.40000001 0.40000001 0.40000001 0.40000001 0.40000001 0.40000001 0.40000001 0.40000001 0.40000001 0.40000001 0.40000001 0.40000001 0.40000001 0.40000001 0.40000001 0.40000001 0.40000001 0.40000001 0.40000001 0.40000001 0.40000001 0.40000001 0.40000001 0.40000001 0.40000001 0.40000001 0.40000001 0.40000001 0.40000001 0.40000001 0.40000001 0.40000001 0.40000001 0.40000001 0.40000001 0.40000001 0.40000001 0.40000001 0.40000027 0.40000024 0.40000027 0.40000027 0.40000018 0.40000021 0.40000018 0.40000024 0.40000024 0.40000075 0.40000075 0.40000075 0.40000066 0.40000072 0.40000072 0.40000072 0.40000072 0.40000072 0.40000156 0.40000162 0.40000153 0.40000156 0.40000159 0.40000153 0.40000156 0.40000159 0.40000162 0.40000442 0.40000448 0.40000442 0.40000448 0.40000445 0.40000445 0.40000451 0.40000448 0.40000445 0.40001169 0.40001169 0.40001166 0.40001166 0.40001163 0.40001166 0.40001172 0.40001169 0.40001169 0.40003142 0.40003142 0.40003142 0.40003145 0.40003148 0.40003142 0.40003151 0.40003151 0.40003148 0.40008396 0.40008393 0.40008393 0.40008396 0.40008393 0.4000839 0.40008393 0.40008396 0.40008393 0.40021721 0.40021726 0.40021726 0.40021724 0.40021724 0.40021732 0.40021735 0.40021726 0.40021726 0.40052241 0.40052244 0.40052256 0.40052244 0.4005225 0.40052247 0.4005225 0.40052247 0.40052244 0.40108132 0.40108144 0.40108135 0.40108129 0.40108135 0.40108135 0.40108129 0.40108129 0.40108132 0.4017832 0.4017832 0.40178314 0.40178314 0.40178311 0.40178311 0.40178308 0.40178311 0.40178311 0.40234241 0.40234244 0.40234238 0.40234232 0.40234232 0.40234226 0.40234229 0.40234226 0.40234229 0.402648 0.40264791 0.40264788 0.40264791 0.40264779 0.40264788 0.40264791 0.40264788 0.40264782 0.40278149 0.40278143 0.40278137 0.40278134 0.40278128 0.40278131 0.40278125 0.40278128 0.40278128 0.40283406 0.40283397 0.40283391 0.40283391 0.40283388 0.40283379 0.40283379 0.40283385 0.40283388 0.40285388 0.40285382 0.40285373 0.4028537 0.40285367 0.40285367 0.40285367 0.40285367 0.40285367 0.40286118 0.40286115 0.40286109 0.40286106 0.40286103 0.40286097 0.40286094 0.40286097 0.40286097 0.40286276 0.40286273 0.40286267 0.40286255 0.40286252 0.40286252 0.40286261 0.40286258 0.40286246 0.40285999 0.40285993 0.40285987 0.40285981 0.40285978 0.40285978 0.40285978 0.40285978 0.40285975 0.40281385 0.40281373 0.40281361 0.40281361 0.40281355 0.40281358 0.40281355 0.40281352 0.40281352 0.40272287 0.40272272 0.40272266 0.40272269 0.40272263 0.40272266 0.4027226 0.4027226 0.40272257 0.40259236 0.40259224 0.40259224 0.40259221 0.40259212 0.40259221 0.40259221 0.40259218 0.40259215 0.4024294 0.40242928 0.40242931 0.40242928 0.40242919 0.40242922 0.40242922 0.40242922 0.40242925 0.40224227 0.40224224 0.40224221 0.40224212 0.40224212 0.40224212 0.40224215 0.40224215 0.40224209 0.40204009 0.40204003 0.40204 0.40203997 0.40203995 0.40203997 0.40203995 0.40203992 0.40204 0.40183157 0.40183145 0.40183148 0.40183139 0.40183145 0.40183139 0.40183139 0.40183145 0.40183139 0.40162471 0.40162468 0.40162471 0.40162468 0.40162459 0.40162462 0.40162456 0.40162459 0.40162462 0.40142637 0.4014264 0.40142629 0.40142632 0.40142637 0.40142637 0.40142635 0.40142637 0.4014264 0.40124205 0.40124202 0.40124199 0.40124199 0.40124196 0.40124202 0.40124199 0.40124199 0.40124199 0.40107539 0.40107533 0.40107524 0.4010753 0.40107527 0.40107527 0.4010753 0.40107527 0.40107527 0.40092853 0.40092853 0.40092853 0.4009285 0.40092853 0.40092856 0.40092853 0.40092853 0.40092847 0.40080246 0.40080246 0.40080249 0.40080249 0.4008024 0.40080246 0.40080243 0.40080249 0.40080246 0.40069664 0.40069669 0.40069672 0.40069664 0.40069661 0.40069667 0.40069667 0.40069672 0.40069667 0.40060997 0.40061006 0.40061003 0.40060997 0.40060997 0.40061 0.40061003 0.40060997 0.40061 0.40054047 0.40054041 0.40054041 0.40054047 0.40054038 0.40054038 0.40054047 0.40054044 0.40054041 0.40048584 0.40048587 0.4004859 0.40048587 0.40048578 0.40048584 0.40048578 0.40048584 0.40048584 0.40044388 0.40044385 0.40044388 0.40044388 0.40044382 0.40044388 0.40044385 0.40044385 0.40044382 0.40041238 0.40041229 0.40041235 0.40041232 0.40041235 0.40041232 0.40041238 0.40041229 0.40041235 0.40038902 0.40038911 0.40038908 0.40038908 0.40038905 0.40038905 0.40038908 0.40038908 0.40038902 0.40037221 0.40037224 0.40037227 0.40037227 0.40037221 0.40037224 0.40037218 0.40037224 0.40037227 0.40036044 0.40036038 0.40036041 0.40036041 0.40036035 0.40036038 0.40036044 0.40036035 0.40035221 0.40035218 0.40035209 0.40035209 0.40035212 0.40035212 0.40034652 0.40034652 0.40034655 0.40034652 0.40000001 0.40000001 0.40000001 0.40000001 0.40000001 0.40000001 0.40000001 0.40000001 0.40000001 0.40000001 0.40000001 0.40000001 0.40000001 0.40000001 0.40000001 0.40000001 0.40000001 0.40000001 0.40000001 0.40000001 0.40000001 0.40000001 0.40000001 0.40000001 0.40000001 0.40000001 0.40000001 0.40000001 0.40000001 0.40000001 0.40000001 0.40000001 0.40000001 0.40000001 0.40000001 0.40000001 0.40000001 0.40000001 0.40000001 0.40000001 0.40000001 0.40000001 0.40000001 0.40000001 0.40000001 0.40000001 0.40000001 0.40000001 0.40000001 0.40000001 0.40000001 0.40000001 0.40000001 0.40000001 0.40000001 0.40000001 0.40000001 0.40000001 0.40000001 0.40000001 0.40000001 0.40000001 0.40000001 0.40000001 0.40000001 0.40000001 0.40000001 0.40000001 0.40000001 0.40000001 0.40000001 0.40000001 0.40000001 0.40000001 0.40000001 0.40000001 0.40000001 0.40000001 0.40000001 0.40000001 0.40000001 0.40000001 0.40000001 0.40000001 0.40000001 0.40000001 0.40000001 0.40000001 0.40000001 0.40000001 0.40000001 0.40000001 0.40000001 0.40000001 0.40000001 0.40000001 0.40000001 0.40000001 0.40000001 0.40000001 0.40000001 0.40000001 0.40000001 0.40000001 0.40000001 0.40000001 0.40000001 0.40000001 0.40000001 0.40000001 0.40000001 0.40000001 0.40000001 0.40000001 0.40000001 0.40000001 0.40000001 0.40000001 0.40000001 0.40000001 0.40000001 0.40000001 0.40000001 0.40000001 0.40000001 0.40000001 0.40000001 0.40000001 0.40000001 0.40000001 0.40000001 0.40000001 0.40000001 0.40000001 0.40000001 0.40000001 0.40000001 0.40000001 0.40000001 0.40000001 0.40000001 0.40000001 0.40000001 0.40000001 0.40000001 0.40000001 0.40000001 0.40000001 0.40000001 0.40000001 0.40000001 0.40000001 0.40000001 0.40000001 0.40000001 0.40000001 0.40000001 0.40000001 0.40000001 0.40000001 0.40000001 0.40000001 0.40000001 0.40000001 0.40000001 0.40000001 0.40000001 0.40000001 0.40000001 0.40000001 0.40000001 0.40000001 0.40000001 0.40000001 0.40000001 0.40000001 0.40000001 0.40000001 0.40000001 0.40000001 0.40000001 0.40000001 0.40000001 0.40000001 0.40000024 0.40000024 0.40000024 0.40000018 0.40000021 0.40000018 0.40000027 0.40000027 0.40000072 0.40000072 0.40000072 0.40000072 0.40000072 0.40000072 0.40000066 0.40000075 0.40000162 0.40000162 0.40000159 0.40000156 0.40000153 0.40000159 0.40000156 0.40000153 0.40000445 0.40000445 0.40000448 0.40000451 0.40000445 0.40000445 0.40000448 0.40000442 0.40001172 0.40001169 0.40001169 0.40001172 0.40001166 0.40001163 0.40001166 0.40001166 0.40003145 0.40003148 0.40003151 0.40003151 0.40003142 0.40003148 0.40003145 0.40003142 0.40008396 0.40008393 0.40008396 0.40008393 0.4000839 0.40008393 0.40008396 0.40008393 0.40021729 0.40021726 0.40021726 0.40021735 0.40021732 0.40021724 0.40021724 0.40021726 0.40052244 0.40052244 0.40052247 0.4005225 0.40052247 0.4005225 0.40052244 0.40052256 0.40108138 0.40108132 0.40108129 0.40108129 0.40108135 0.40108135 0.40108129 0.40108135 0.40178314 0.40178311 0.40178311 0.40178308 0.40178311 0.40178311 0.40178314 0.40178314 0.40234232 0.40234229 0.40234226 0.40234229 0.40234226 0.40234232 0.40234232 0.40234238 0.40264782 0.40264782 0.40264788 0.40264791 0.40264788 0.40264779 0.40264791 0.40264788 0.40278128 0.40278128 0.40278128 0.40278125 0.40278131 0.40278128 0.40278134 0.40278137 0.40283379 0.40283388 0.40283385 0.40283379 0.40283379 0.40283388 0.40283391 0.40283391 0.40285361 0.40285367 0.40285367 0.40285367 0.40285367 0.40285367 0.4028537 0.40285373 0.40286094 0.40286097 0.40286097 0.40286094 0.40286097 0.40286103 0.40286106 0.40286109 0.40286252 0.40286246 0.40286258 0.40286261 0.40286252 0.40286252 0.40286255 0.40286267 0.40285975 0.40285975 0.40285978 0.40285978 0.40285978 0.40285978 0.40285981 0.40285987 0.40281349 0.40281352 0.40281352 0.40281355 0.40281358 0.40281355 0.40281361 0.40281361 0.40272263 0.40272257 0.4027226 0.4027226 0.40272266 0.40272263 0.40272269 0.40272266 0.40259212 0.40259215 0.40259218 0.40259221 0.40259221 0.40259212 0.40259221 0.40259224 0.40242925 0.40242925 0.40242922 0.40242922 0.40242922 0.40242919 0.40242928 0.40242931 0.40224218 0.40224209 0.40224215 0.40224215 0.40224212 0.40224212 0.40224212 0.40224221 0.40203992 0.40204 0.40203992 0.40203995 0.40203997 0.40203995 0.40203997 0.40204 0.40183136 0.40183139 0.40183145 0.40183139 0.40183139 0.40183145 0.40183139 0.40183148 0.40162468 0.40162462 0.40162459 0.40162456 0.40162462 0.40162459 0.40162468 0.40162471 0.40142643 0.4014264 0.40142637 0.40142635 0.40142637 0.40142637 0.40142632 0.40142629 0.40124199 0.40124199 0.40124199 0.40124199 0.40124202 0.40124196 0.40124199 0.40124199 0.40107524 0.40107527 0.40107527 0.4010753 0.40107527 0.40107527 0.4010753 0.40107524 0.40092844 0.40092847 0.40092853 0.40092853 0.40092856 0.40092853 0.4009285 0.40092853 0.40080249 0.40080246 0.40080249 0.40080243 0.40080246 0.4008024 0.40080249 0.40080249 0.40069667 0.40069667 0.40069672 0.40069667 0.40069667 0.40069661 0.40069664 0.40069672 0.40060997 0.40061 0.40060997 0.40061003 0.40061 0.40060997 0.40060997 0.40061003 0.40054038 0.40054041 0.40054044 0.40054047 0.40054038 0.40054038 0.40054047 0.40054041 0.40048587 0.40048584 0.40048584 0.40048578 0.40048584 0.40048578 0.40048587 0.4004859 0.40044382 0.40044382 0.40044385 0.40044385 0.40044388 0.40044382 0.40044388 0.40044388 0.40041226 0.40041235 0.40041229 0.40041238 0.40041232 0.40041235 0.40041232 0.40041235 0.40038908 0.40038902 0.40038908 0.40038908 0.40038905 0.40038905 0.40038908 0.40038908 0.40037227 0.40037227 0.40037224 0.40037218 0.40037224 0.40037221 0.40037227 0.40037227 0.40036038 0.40036035 0.40036044 0.40036038 0.40036035 0.40036041 0.40036041 0.40036038 0.40035215 0.40035212 0.40035212 0.40035209 0.40035209 0.40035218 0.40035221 0.40034655 0.40034652 0.40034655 0.40034652 0.40034652 0.40000001 0.40000001 0.40000001 0.40000001 0.40000001 0.40000001 0.40000001 0.40000001 0.40000001 0.40000001 0.40000001 0.40000001 0.40000001 0.40000001 0.40000001 0.40000001 0.40000001 0.40000001 0.40000001 0.40000001 0.40000001 0.40000001 0.40000001 0.40000001 0.40000001 0.40000001 0.40000001 0.40000001 0.40000001 0.40000001 0.40000001 0.40000001 0.40000001 0.40000001 0.40000001 0.40000001 0.40000001 0.40000001 0.40000001 0.40000001 0.40000001 0.40000001 0.40000001 0.40000001 0.40000001 0.40000001 0.40000001 0.40000001 0.40000001 0.40000001 0.40000001 0.40000001 0.40000001 0.40000001 0.40000001 0.40000001 0.40000001 0.40000001 0.40000001 0.40000001 0.40000001 0.40000001 0.40000001 0.40000001 0.40000001 0.40000001 0.40000001 0.40000001 0.40000001 0.40000001 0.40000001 0.40000001 0.40000001 0.40000001 0.40000001 0.40000001 0.40000001 0.40000001 0.40000001 0.40000001 0.40000001 0.40000001 0.40000001 0.40000001 0.40000001 0.40000001 0.40000001 0.40000001 0.40000001 0.40000001 0.40000001 0.40000001 0.40000001 0.40000001 0.40000001 0.40000001 0.40000001 0.40000001 0.40000001 0.40000001 0.40000001 0.40000001 0.40000001 0.40000001 0.40000001 0.40000001 0.40000001 0.40000001 0.40000001 0.40000001 0.40000001 0.40000001 0.40000001 0.40000001 0.40000001 0.40000001 0.40000001 0.40000001 0.40000001 0.40000001 0.40000001 0.40000001 0.40000001 0.40000001 0.40000001 0.40000001 0.40000001 0.40000001 0.40000001 0.40000001 0.40000001 0.40000001 0.40000001 0.40000001 0.40000001 0.40000001 0.40000001 0.40000001 0.40000001 0.40000001 0.40000001 0.40000001 0.40000001 0.40000001 0.40000001 0.40000001 0.40000001 0.40000001 0.40000001 0.40000001 0.40000001 0.40000001 0.40000001 0.40000001 0.40000001 0.40000001 0.40000001 0.40000001 0.40000001 0.40000001 0.40000001 0.40000001 0.40000001 0.40000001 0.40000001 0.40000001 0.40000001 0.40000001 0.40000001 0.40000001 0.40000001 0.40000001 0.40000001 0.40000001 0.40000001 0.40000001 0.40000001 0.40000001 0.40000001 0.40000001 0.40000001 0.40000001 0.40000001 0.40000024 0.40000027 0.40000024 0.40000024 0.40000021 0.40000024 0.40000024 0.40000021 0.40000075 0.40000075 0.4000006 0.40000072 0.40000069 0.40000075 0.40000069 0.40000072 0.40000162 0.40000156 0.40000159 0.40000162 0.40000159 0.40000159 0.40000162 0.40000159 0.40000448 0.40000442 0.40000448 0.40000442 0.40000442 0.40000439 0.40000445 0.40000436 0.40001169 0.40001169 0.40001169 0.40001175 0.40001175 0.40001166 0.40001166 0.40001169 0.40003142 0.40003142 0.40003142 0.40003151 0.40003145 0.40003142 0.40003145 0.40003145 0.40008393 0.40008396 0.40008396 0.40008393 0.40008396 0.40008396 0.40008393 0.40008396 0.40021726 0.40021721 0.40021726 0.40021732 0.40021726 0.40021729 0.40021724 0.40021726 0.40052244 0.40052241 0.4005225 0.40052253 0.40052253 0.40052247 0.40052244 0.4005225 0.40108144 0.40108132 0.40108132 0.40108144 0.40108144 0.40108144 0.40108144 0.40108147 0.4017832 0.4017832 0.40178323 0.40178329 0.40178332 0.40178335 0.40178341 0.40178341 0.40234244 0.40234241 0.40234253 0.40234259 0.40234262 0.40234274 0.40234292 0.40234289 0.40264791 0.402648 0.40264806 0.40264815 0.40264833 0.40264833 0.40264854 0.40264866 0.40278143 0.40278149 0.40278164 0.40278172 0.40278175 0.40278196 0.40278217 0.40278217 0.40283397 0.40283406 0.40283418 0.40283427 0.40283442 0.40283459 0.40283471 0.40283477 0.40285382 0.40285388 0.40285408 0.40285414 0.40285423 0.40285441 0.40285456 0.40285456 0.40286115 0.40286118 0.40286136 0.40286145 0.40286154 0.40286171 0.40286192 0.40286186 0.40286273 0.40286276 0.40286294 0.40286306 0.40286312 0.40286326 0.40286344 0.40286344 0.40285993 0.40285999 0.40286016 0.40286022 0.4028604 0.40286049 0.4028607 0.4028607 0.40281373 0.40281385 0.40281394 0.40281406 0.40281409 0.4028143 0.40281442 0.40281445 0.40272272 0.40272287 0.40272295 0.40272304 0.40272319 0.40272328 0.40272346 0.40272343 0.40259224 0.40259236 0.40259242 0.40259254 0.40259263 0.40259275 0.40259293 0.4025929 0.40242928 0.4024294 0.40242946 0.40242955 0.40242958 0.40242973 0.40242985 0.40242985 0.40224224 0.40224227 0.40224236 0.40224245 0.40224254 0.40224263 0.40224269 0.40224272 0.40204003 0.40204009 0.40204015 0.40204021 0.40204021 0.40204036 0.40204045 0.40204039 0.40183145 0.40183157 0.40183166 0.4018316 0.40183166 0.40183172 0.40183178 0.40183184 0.40162468 0.40162471 0.40162477 0.4016248 0.40162477 0.40162483 0.40162492 0.40162498 0.4014264 0.40142637 0.40142637 0.40142646 0.40142646 0.40142652 0.40142661 0.40142652 0.40124202 0.40124205 0.40124205 0.40124211 0.40124214 0.40124214 0.40124217 0.40124214 0.40107533 0.40107539 0.40107536 0.40107536 0.40107542 0.40107539 0.40107539 0.40107539 0.40092853 0.40092853 0.40092856 0.40092856 0.40092856 0.40092856 0.40092859 0.40092859 0.40080246 0.40080246 0.40080249 0.40080246 0.40080249 0.40080243 0.40080252 0.40080243 0.40069669 0.40069664 0.40069675 0.40069675 0.40069669 0.40069669 0.40069672 0.40061006 0.40060997 0.40061 0.40060997 0.40061 0.40060994 0.40060994 0.40054041 0.40054047 0.40054038 0.40054035 0.40054038 0.40054044 0.40048587 0.40048584 0.4004859 0.40048581 0.40048587 0.40048584 0.40044385 0.40044388 0.40044388 0.40044388 0.40044388 0.40041229 0.40041238 0.40041232 0.40041232 0.40038911 0.40038902 0.40038911 0.40038905 0.40037224 0.40037221 0.40036044 
Press 1 2975 float
0.0 0.0 0.0 0.0 0.0 0.0 0.0 0.0 0.0 0.0 0.0 0.0 0.0 0.0 0.0 0.0 0.0 0.0 0.0 0.0 0.0 0.0 0.0 0.0 0.0 0.0 0.0 0.0 0.0 0.0 0.0 0.0 0.0 0.0 0.0 0.0 0.0 0.0 0.0 0.0 0.0 0.0 0.0 0.0 0.0 0.0 0.0 0.0 0.0 0.0 0.0 0.0 0.09876262400000001 0.0 0.09876262400000001 0.09876262400000001 0.0 0.09876262400000001 0.19752525 0.09876262400000001 0.19752525 0.29628786 0.29628786 0.3950505 0.0 0.0 0.0 0.0 0.0 0.0 0.0 0.0 0.0 0.0 0.0 0.0 0.0 0.0 0.0 0.0 0.0 0.0 0.0 0.0 0.0 0.0 0.0 0.0 0.0 0.0 0.0 0.0 0.0 0.0 0.0 0.0 0.0 0.0 0.0 0.0 0.0 0.0 0.0 0.0 0.0 0.0 0.0 0.0 0.0 0.0 0.0 0.0 0.0 0.0 0.0 0.0 0.0 0.0 0.0 0.0 0.0 0.0 0.0 0.0 0.0 0.0 0.0 0.0 0.0 0.0 0.0 0.0 0.0 0.0 0.0 0.0 0.0 0.0 0.0 0.0 0.0 0.0 0.0 0.0 0.0 0.0 0.0 0.0 0.0 0.0 0.0 0.0 0.0 0.0 0.0 0.0 0.0 0.0 0.0 0.0 0.0 0.0 0.09876262400000001 0.09876262400000001 0.09876262400000001 0.09876262400000001 0.09876262400000001 0.19752525 0.19752525 0.29628786 0.29628786 0.3950505 0.49381313 0.59257573 0.79010099 0.0 0.0 0.0 0.0 0.0 0.0 0.0 0.0 0.0 0.0 0.0 0.0 0.0 0.0 0.0 0.0 0.0 0.0 0.0 0.0 0.0 0.0 0.0 0.0 0.0 0.0 0.0 0.0 0.0 0.0 0.0 0.0 0.0 0.0 0.0 0.0 0.0 0.0 0.0 0.0 0.0 0.0 0.0 0.0 0.0 0.0 0.0 0.0 0.0 0.0 0.0 0.0 0.0 0.0 0.0 0.0 0.0 0.0 0.0 0.0 0.0 0.0 0.0 0.0 0.0 0.0 0.0 0.0 0.0 0.0 0.0 0.0 0.0 0.0 0.0 0.0 0.0 0.0 0.0 0.0 0.0 0.0 0.0 0.0 0.0 0.0 0.0 0.0 0.0 0.0 0.0 0.0 0.0 0.0 0.0 0.0 0.0 0.0 0.0 0.0 0.0 0.0 0.0 0.0 0.0 0.0 0.0 0.0 0.0 0.0 0.0 0.0 0.0 0.0 0.0 0.0 0.0 0.0 0.0 0.0 0.0 0.0 0.0 0.0 0.0 0.0 0.0 0.0 0.0 0.0 0.0 0.0 0.0 0.0 0.0 0.0 0.0 0.0 0.0 0.0 0.0 0.0 0.0 0.0 0.0 0.0 0.0 0.0 0.0 0.0 0.0 0.0 0.0 0.0 0.0 0.0 0.0 0.0 0.0 0.0 0.0 0.0 0.0 0.0 0.0 0.0 0.0 0.0 0.0 0.0 0.0 0.0 0.0 0.0 0.0 0.0 0.0 0.0 0.0 0.0 0.0 0.0 0.0 0.0 0.0 0.0 0.0 0.0 0.0 0.0 0.0 0.0 0.0 0.0 0.0 0.0 0.0 0.0 0.0 0.0 0.0 0.0 0.0 0.0 0.0 0.0 0.0 0.0 0.0 0.0 0.0 0.0 0.0 0.0 0.0 0.0 0.0 0.0 0.0 0.0 0.0 0.0 0.0 0.0 0.0 0.0 0.0 0.0 0.0 0.0 0.0 0.0 0.0 0.0 0.0 0.0 0.0 0.0 0.0 0.0 0.0 0.0 0.0 0.0 0.0 0.0 0.0 0.0 0.0 0.0 0.0 0.0 0.0 0.0 0.0 0.0 0.0 0.0 0.0 0.0 0.0 0.0 0.0 0.0 0.0 0.0 0.0 0.0 0.0 0.0 0.0 0.0 0.0 0.0 0.0 0.0 0.0 0.0 0.0 0.0 0.0 0.0 0.0 0.0 0.0 0.0 0.0 0.0 0.0 0.0 0.0 0.09876262400000001 0.09876262400000001 0.09876262400000001 0.19752525 0.29628786 0.49381313 0.79010099 0.0 0.0 0.0 0.0 0.0 0.0 0.0 0.0 0.0 0.0 0.0 0.0 0.0 0.0 0.0 0.0 0.0 0.0 0.0 0.0 0.0 0.0 0.0 0.0 0.0 0.0 0.0 0.0 0.0 0.0 0.0 0.0 0.0 0.0 0.0 0.0 0.0 0.0 0.0 0.0 0.0 0.0 0.0 0.0 0.0 0.0 0.0 0.0 0.0 0.0 0.0 0.0 0.0 0.0 0.0 0.0 0.0 0.0 0.0 0.0 0.0 0.0 0.0 0.09876262400000001 0.0 0.0 0.0 0.09876262400000001 0.09876262400000001 0.0 0.0 0.19752525 0.09876262400000001 0.09876262400000001 0.0 0.29628786 0.19752525 0.09876262400000001 0.0 0.3950505 0.29628786 0.19752525 0.09876262400000001 0.59257573 0.3950505 0.29628786 0.0 0.0 0.0 0.0 0.0 0.0 0.0 0.0 0.0 0.0 0.0 0.0 0.0 0.0 0.0 0.0 0.0 0.0 0.0 0.0 0.0 0.0 0.0 0.0 0.0 0.0 0.0 0.0 0.0 0.0 0.0 0.0 0.0 0.0 0.0 0.0 0.0 0.0 0.0 0.0 0.0 0.0 0.0 0.0 0.0 0.0 0.0 0.0 0.0 0.0 0.0 0.0 0.0 0.0 0.0 0.0 0.0 0.0 0.0 0.0 0.0 0.0 0.0 0.0 0.0 0.0 0.0 0.0 0.0 0.0 0.0 0.0 0.0 0.0 0.0 0.0 0.0 0.0 0.0 0.0 0.0 0.0 0.0 0.0 0.0 0.0 0.0 0.0 0.0 0.0 0.0 0.0 0.0 0.0 0.0 0.0 0.0 0.0 0.0 0.0 0.0 0.0 0.0 0.0 0.0 0.0 0.0 0.0 0.0 0.0 0.0 0.0 0.0 0.0 0.0 0.0 0.0 0.0 0.0 0.0 0.0 0.0 0.0 0.0 0.0 0.0 0.0 0.0 0.0 0.0 0.0 0.0 0.0 0.0 0.0 0.0 0.0 0.0 0.0 0.0 0.0 0.0 0.0 0.0 0.0 0.0 0.0 0.0 0.0 0.0 0.0 0.0 0.0 0.0 0.0 0.0 0.0 0.0 0.0 0.0 0.0 0.0 0.0 0.0 0.0 0.0 0.0 0.0 0.0 0.0 0.0 0.0 0.0 0.0 0.0 0.0 0.0 0.0 0.0 0.0 0.0 0.0 0.0 0.0 0.0 0.0 0.0 0.0 0.0 0.0 0.0 0.0 0.0 0.0 0.0 0.0 0.0 0.0 0.0 0.0 0.0 0.0 0.0 0.0 0.0 0.0 0.0 0.0 0.0 0.0 0.0 0.0 0.0 0.0 0.0 0.0 0.0 0.0 0.0 0.0 0.0 0.0 0.0 0.0 0.0 0.0 0.0 0.0 0.0 0.0 0.0 0.0 0.0 0.0 0.0 0.0 0.0 0.0 0.0 0.0 0.0 0.0 0.0 0.0 0.0 0.0 0.0 0.0 0.0 0.0 0.0 0.0 0.0 0.0 0.0 0.0 0.0 0.0 0.0 0.0 0.0 0.0 0.0 0.0 0.0 0.0 0.0 0.0 0.0 0.0 0.0 0.0 0.0 0.0 0.0 0.0 0.0 0.0 0.0 0.0 0.0 0.0 0.0 0.0 0.0 0.0 0.0 0.0 0.0 0.0 0.0 0.0 0.0 0.0 0.0 0.0 0.0 0.0 0.0 0.0 0.0 0.0 0.0 0.0 0.0 0.0 0.0 0.0 0.0 0.0 0.0 0.0 0.0 0.0 0.0 0.0 0.0 0.0 0.0 0.0 0.0 0.0 0.0 0.0 0.0 0.0 0.0 0.0 0.0 0.0 0.0 0.0 0.0 0.0 0.0 0.0 0.0 0.0 0.0 0.0 0.0 0.0 0.0 0.0 0.0 0.0 0.0 0.0 0.0 0.0 0.0 0.0 0.0 0.0 0.0 0.0 0.0 0.0 0.0 0.0 0.0 0.0 0.0 0.0 0.0 0.0 0.0 0.0 0.0 0.0 0.0 0.0 0.0 0.0 0.0 0.0 0.0 0.0 0.0 0.0 0.0 0.0 0.0 0.0 0.0 0.0 0.0 0.0 0.0 0.0 0.0 0.0 0.0 0.0 0.0 0.0 0.0 0.0 0.0 0.0 0.0 0.0 0.0 0.0 0.0 0.0 0.0 0.0 0.0 0.0 0.0 0.0 0.0 0.0 0.0 0.0 0.0 0.0 0.0 0.0 0.0 0.0 0.0 0.0 0.0 0.0 0.0 0.0 0.0 0.0 0.0 0.0 0.0 0.0 0.0 0.0 0.0 0.0 0.0 0.0 0.0 0.0 0.0 0.0 0.0 0.0 0.0 0.0 0.0 0.0 0.0 0.0 0.0 0.0 0.0 0.0 0.0 0.0 0.0 0.0 0.0 0.0 0.0 0.0 0.0 0.0 0.0 0.0 0.0 0.0 0.0 0.0 0.0 0.0 0.0 0.0 0.0 0.0 0.0 0.09876262400000001 0.09876262400000001 0.09876262400000001 0.09876262400000001 0.0 0.09876262400000001 0.09876262400000001 0.09876262400000001 0.09876262400000001 0.09876262400000001 0.09876262400000001 0.09876262400000001 0.09876262400000001 0.09876262400000001 0.09876262400000001 0.09876262400000001 0.09876262400000001 0.09876262400000001 0.09876262400000001 0.09876262400000001 0.19752525 0.19752525 0.09876262400000001 0.19752525 0.19752525 0.19752525 0.19752525 0.19752525 0.19752525 0.19752525 0.29628786 0.29628786 0.29628786 0.29628786 0.29628786 0.29628786 0.3950505 0.3950505 0.3950505 0.3950505 0.3950505 0.49381313 0.49381313 0.59257573 0.59257573 0.59257573 0.69133836 0.69133836 0.79010099 0.79010099 0.79010099 0.79010099 0.98762625 0.98762625 0.98762625 0.98762625 0.98762625 1.0863888000000002 1.4814393999999997 1.4814393999999997 1.4814393999999997 1.4814393999999997 1.4814393999999997 1.4814393999999997 1.7777272000000002 1.9752525 1.9752525 1.9752525 1.9752525 1.9752525 2.3703027000000003 2.5678278999999997 2.5678278999999997 2.5678278999999997 2.6665907000000004 2.864116 3.1604037 3.357929 3.4566915000000003 3.4566915000000003 3.6542168 3.7529795 4.2467918 4.4443169000000005 4.641842400000001 4.740604900000001 4.8393674 4.938129900000001 5.8269934999999995 6.0245185 6.1232815 6.320806500000001 6.5183315 6.715857000000001 7.9997702 8.197295200000001 8.2960577 8.4935827 8.6911087 8.8886337 10.666359 10.863883999999999 11.061409 11.258934 11.456458999999999 11.653984 14.123047 14.419334 14.616859 14.913147 15.110672000000001 15.308197 18.666121 19.258696 19.456221 19.554983 19.752508 20.048796 24.888153 25.579491 25.777016 25.678253 25.875778 25.974541000000002 32.887904999999996 33.776768 33.776768 33.381718 33.282955 33.282955 43.554226 44.640614 44.048038 43.257938 42.764126 42.566601 57.183395 58.467304000000006 56.78834499999999 54.911861 54.022999 53.825478000000004 73.874161 74.664253 71.306343 67.948425 66.56575 66.269463 95.206673 95.009148 88.194565 83.058937 81.478737 81.676262 123.35365 120.29202 108.83563999999998 101.72478000000001 100.44088 101.82354000000001 168.78372 161.08031 143.79701 135.40227 135.69856000000001 139.64902 263.59406 249.56992999999997 228.53377000000003 219.64525 222.8056 231.69412000000003 491.63177 473.65729000000005 454.99149000000006 447.58440999999993 455.88034000000005 472.17587000000003 1018.91 1003.5034 999.65173 1003.1083 1019.9964 1046.1678 1995.4354 1990.2012 2024.0757 2053.0122 2084.6152 2123.9216 3217.6472 3224.8564 3310.9739 3377.4382 3428.0024 3481.6284 4170.7017 4180.4785 4307.9736 4405.5454 4473.1938 4540.3486 4672.0947 4671.7983 4814.6968 4928.166 5006.7749 5084.6924 4882.0122 4870.6558 5011.4761 5127.9053 5211.5483 5296.5737 4969.126 4947.5986 5081.6006 5195.4575 5280.6772 5370.1436 5015.2876 4986.6523 5113.834 5224.4268 5310.1362 5401.9678 5048.0273 5015.6416 5138.668 5246.7847 5332.291 5425.0049 5071.2627 5038.2876 5160.0195 5266.8433 5351.749 5444.356 5082.29 5051.293 5174.3916 5281.4985 5365.8018 5457.3115 5009.9907 4980.9731 5103.1631 5208.9692 5291.877 5381.4961 4854.0479 4826.6157 4945.522 5048.2451 5128.6675 5215.6025 4626.585 4600.3442 4713.7896 4811.9443 4889.0869 4972.543 4341.21 4316.5581 4422.7588 4514.957 4588.2227 4667.7012 4012.7207 3990.0532 4087.6216 4173.2651 4242.2529 4317.1543 3655.0349 3634.9446 3723.6763 3802.166 3866.4749 3936.4951 3282.0781 3264.6641 3344.9453 3416.3721 3475.894 3540.8276 2908.1736 2893.3374 2965.2581 3029.7119 3084.3403 3144.0784 2547.0444 2533.8042 2596.8674 2654.7332 2704.7522 2759.1848 2210.8115 2197.6033 2251.416 2303.1743 2348.4753 2397.592 1906.5442 1892.8914 1937.1692 1983.2024 2023.6766 2067.1741 1636.9579 1624.0436 1659.1011 1700.6649 1736.3047 1773.8865 1402.4728 1391.8534 1418.6012 1456.8394 1488.511 1519.5065 1197.6844 1215.7026 1250.0121 1278.6671 1303.8716 1040.7976 1048.3907 1076.0996 1103.4288 1124.4 913.09735 931.45911 956.8461300000001 976.42529 803.55756 812.3120700000001 833.78088 854.0519400000001 715.04309 730.11115 750.50214 644.4005099999999 661.2771 575.9903 586.88989 0.09876262400000001 0.09876262400000001 0.09876262400000001 0.09876262400000001 0.09876262400000001 0.09876262400000001 0.09876262400000001 0.09876262400000001 0.09876262400000001 0.09876262400000001 0.09876262400000001 0.09876262400000001 0.09876262400000001 0.09876262400000001 0.09876262400000001 0.09876262400000001 0.09876262400000001 0.09876262400000001 0.09876262400000001 0.09876262400000001 0.09876262400000001 0.09876262400000001 0.09876262400000001 0.09876262400000001 0.09876262400000001 0.09876262400000001 0.09876262400000001 0.09876262400000001 0.09876262400000001 0.09876262400000001 0.09876262400000001 0.09876262400000001 0.09876262400000001 0.09876262400000001 0.09876262400000001 0.09876262400000001 0.19752525 0.19752525 0.19752525 0.19752525 0.19752525 0.19752525 0.19752525 0.19752525 0.19752525 0.19752525 0.29628786 0.29628786 0.29628786 0.29628786 0.29628786 0.29628786 0.29628786 0.29628786 0.29628786 0.29628786 0.3950505 0.3950505 0.3950505 0.3950505 0.3950505 0.3950505 0.3950505 0.3950505 0.49381313 0.49381313 0.49381313 0.49381313 0.49381313 0.49381313 0.49381313 0.49381313 0.59257573 0.69133836 0.69133836 0.69133836 0.69133836 0.69133836 0.69133836 0.69133836 0.69133836 0.79010099 0.79010099 0.88886362 0.88886362 0.88886362 0.88886362 0.88886362 0.88886362 0.88886362 1.1851515 1.1851515 1.2839141 1.2839141 1.2839141 1.2839141 1.2839141 1.2839141 1.2839141 1.580202 1.580202 1.580202 1.580202 1.580202 1.580202 1.6789646 1.6789646 1.6789646 2.1727777 2.1727777 2.1727777 2.1727777 2.2715403999999997 2.2715403999999997 2.2715403999999997 2.2715403999999997 2.2715403999999997 2.9628785 2.9628785 3.0616412 3.0616412 3.0616412 3.0616412 3.1604037 3.1604037 3.1604037 3.8517419999999998 3.9505047999999996 4.0492672999999995 4.0492672999999995 4.0492672999999995 4.0492672999999995 4.0492672999999995 4.0492672999999995 4.0492672999999995 5.1356554 5.1356554 5.333180400000001 5.333180400000001 5.4319429 5.4319429 5.4319429 5.4319429 5.4319429 6.9133821 6.9133821 7.0121446 7.1109076 7.1109076 7.1109076 7.1109076 7.1109076 7.1109076 9.0861588 9.2836838 9.3824463 9.3824463 9.481208800000001 9.481208800000001 9.481208800000001 9.481208800000001 9.481208800000001 11.950273 12.049035 12.147798 12.24656 12.24656 12.24656 12.345322999999999 12.345322999999999 12.345322999999999 15.604485999999998 15.802010999999998 15.900773000000001 15.900773000000001 15.900773000000001 15.900773000000001 15.999535999999999 15.999535999999999 15.900773000000001 20.345083 20.443846 20.542607999999998 20.542607999999998 20.542607999999998 20.542607999999998 20.542607999999998 20.542607999999998 20.542607999999998 26.270828 26.369590999999996 26.468353000000004 26.369590999999996 26.369590999999996 26.369590999999996 26.369590999999996 26.270828 26.270828 33.48048 33.579243 33.48048 33.48048 33.48048 33.579243 33.48048 33.48048 33.48048 42.862888 42.764126 42.665363 42.566601 42.665363 42.566601 42.665363 42.665363 42.665363 53.726715000000006 53.726715000000006 53.627953000000005 53.52919 53.627953000000005 53.52919 53.726715000000006 53.627953000000005 53.627953000000005 66.269463 66.368225 66.269463 66.269463 66.368225 66.368225 66.56575 66.664513 66.9608 82.071312 82.565125 82.663887 82.861412 83.058937 83.1577 83.55274200000001 83.75026700000001 84.046555 103.70002 105.08268999999999 105.97153999999999 106.46535 106.8604 107.35421000000001 107.84801999999999 108.24306000000001 108.53935 144.29082 147.84624 150.21652 151.50043 152.38928 153.17937 154.06822 154.56204 155.05585 241.27397000000002 248.8786 253.71791000000002 256.582 258.45847000000003 259.84112999999996 261.02625 262.01385 262.60641 489.26151 503.1868 512.4703400000001 517.80341 521.16125 523.4328 525.30927 526.79065 527.6795 1073.7219 1096.3381 1111.9423 1121.2257 1126.5587 1130.3116 1133.1757 1135.2496 1136.5336 2163.8203 2197.3987 2220.8047 2235.0259 2243.4204 2248.9509 2252.9014 2255.6667 2257.5432 3535.353 3580.7817 3612.9771 3632.7288 3644.481 3652.0854 3657.5171 3661.3687 3663.8376 4607.0093 4663.9922 4704.8774 4730.1592 4745.4668 4755.2437 4762.0576 4766.9956 4769.9585 5162.2153 5229.1709 5277.3633 5307.5825 5326.0493 5337.7026 5346.0967 5351.9233 5355.5771 5382.291 5456.5522 5510.3726 5544.4419 5565.0811 5578.4126 5587.8931 5594.7065 5598.7554 5461.1899 5540.3862 5597.9565 5634.4937 5656.8105 5671.228 5681.3989 5688.7065 5693.249 5495.873 5577.8301 5637.4712 5675.1909 5698.396 5713.5034 5724.168 5731.8701 5736.6099 5520.1875 5603.1265 5663.356 5701.666 5725.0669 5740.4697 5751.4297 5759.2295 5764.1665 5539.4312 5622.165 5682.2905 5720.3994 5743.6992 5759.002 5769.9609 5777.958 5782.7954 5551.1904 5632.8286 5692.1567 5729.5698 5752.6694 5767.7729 5778.6318 5786.4307 5791.2676 5473.3853 5553.332 5610.9727 5647.5903 5669.9951 5684.7012 5695.2622 5703.0596 5707.7969 5304.6099 5381.874 5437.7256 5473.1509 5494.7612 5508.9707 5519.1348 5526.6343 5531.1733 5057.9717 5131.9585 5185.3271 5219.1631 5239.8794 5253.394 5263.1602 5270.2627 5274.6035 4748.7568 4818.8667 4869.4526 4901.2046 4920.7285 4933.4492 4942.6196 4949.2266 4953.3677 4393.3364 4458.9731 4506.082 4535.5493 4553.585 4565.3135 4573.7891 4579.8008 4583.6445 4007.303 4067.9678 4111.2012 4138.1851 4154.6313 4165.1689 4172.8506 4178.2671 4181.7139 3606.0559 3661.5447 3700.8979 3725.1003 3739.7595 3749.2051 3755.895 3760.7158 3763.7659 3203.7178 3254.2197 3289.7871 3311.501 3324.4702 3332.822 3338.717 3342.8438 3345.4966 2813.6179 2859.4197 2891.5889 2911.2043 2922.6792 2930.0352 2935.2332 2938.8621 2941.1179 2446.8062 2488.3889 2517.6436 2535.5483 2546.1155 2552.6707 2557.2693 2560.4001 2562.3569 2110.9639 2148.6094 2175.7219 2192.6919 2202.7371 2208.8816 2212.9775 2215.7085 2217.4639 1811.8566 1845.7479 1871.0934 1887.6992 1897.7988 1903.7224 1907.6068 1910.2289 1911.6855 1551.5637 1581.3033 1605.2496 1621.8575 1632.3823 1638.7551 1642.714 1645.2244 1646.6729 1329.6509 1354.9507 1376.9919 1393.8584 1405.3583 1412.7374 1417.1456 1419.9248 1421.2665 1144.3271 1164.9181 1184.5599 1201.0703 1213.5956 1222.1355 1227.4492 1230.6753 1232.3834 992.06964 1007.9009 1024.3875 1039.7499 1052.5831 1062.1377 1068.6012 1072.7228 1074.8773 868.42615 880.68079 893.5799 906.5708599999999 918.5481599999999 928.1300699999999 935.40851 940.2915 943.0555400000001 766.65302 778.11218 788.03711 798.05188 807.7957200000001 816.36652 823.31329 828.2753299999999 831.34265 678.94513 692.9218099999999 702.76733 710.59088 717.53497 724.03931 729.66455 733.97137 736.69604 601.19562 616.3532700000001 629.04199 638.15436 644.20111 648.71466 652.46167 655.44196 657.40045 540.35455 549.8688400000001 560.6956799999999 571.11279 579.15161 584.8118900000001 588.42145 590.71838 592.19495 502.89587 505.96054000000004 511.14685 517.59052 523.56281 527.88501 530.71411 532.12872 471.8075 471.13333 472.25787 473.45730999999995 474.13205 474.50692999999995 447.64474 445.72 443.43892999999997 441.94202 0.09876262400000001 0.09876262400000001 0.09876262400000001 0.09876262400000001 0.09876262400000001 0.09876262400000001 0.09876262400000001 0.09876262400000001 0.09876262400000001 0.09876262400000001 0.09876262400000001 0.09876262400000001 0.09876262400000001 0.09876262400000001 0.09876262400000001 0.09876262400000001 0.09876262400000001 0.09876262400000001 0.09876262400000001 0.09876262400000001 0.09876262400000001 0.09876262400000001 0.09876262400000001 0.09876262400000001 0.09876262400000001 0.09876262400000001 0.09876262400000001 0.09876262400000001 0.09876262400000001 0.09876262400000001 0.09876262400000001 0.09876262400000001 0.19752525 0.19752525 0.19752525 0.19752525 0.19752525 0.19752525 0.19752525 0.19752525 0.29628786 0.29628786 0.29628786 0.29628786 0.29628786 0.29628786 0.29628786 0.29628786 0.3950505 0.3950505 0.3950505 0.3950505 0.3950505 0.3950505 0.3950505 0.3950505 0.49381313 0.49381313 0.49381313 0.49381313 0.49381313 0.49381313 0.49381313 0.49381313 0.69133836 0.69133836 0.69133836 0.69133836 0.69133836 0.69133836 0.69133836 0.69133836 0.88886362 0.88886362 0.88886362 0.88886362 0.88886362 0.88886362 0.88886362 0.88886362 1.2839141 1.2839141 1.2839141 1.2839141 1.2839141 1.2839141 1.2839141 1.2839141 1.6789646 1.6789646 1.6789646 1.6789646 1.580202 1.580202 1.580202 1.580202 2.2715403999999997 2.2715403999999997 2.2715403999999997 2.2715403999999997 2.2715403999999997 2.2715403999999997 2.1727777 2.1727777 3.1604037 3.1604037 3.1604037 3.1604037 3.0616412 3.0616412 3.0616412 3.0616412 4.0492672999999995 4.0492672999999995 4.0492672999999995 4.0492672999999995 4.0492672999999995 4.0492672999999995 4.0492672999999995 4.0492672999999995 5.4319429 5.4319429 5.4319429 5.4319429 5.4319429 5.4319429 5.333180400000001 5.333180400000001 7.1109076 7.1109076 7.1109076 7.1109076 7.1109076 7.1109076 7.1109076 7.0121446 9.481208800000001 9.481208800000001 9.481208800000001 9.481208800000001 9.481208800000001 9.481208800000001 9.3824463 9.3824463 12.345322999999999 12.345322999999999 12.345322999999999 12.345322999999999 12.24656 12.24656 12.24656 12.147798 15.900773000000001 15.900773000000001 15.999535999999999 15.999535999999999 15.900773000000001 15.900773000000001 15.900773000000001 15.900773000000001 20.542607999999998 20.542607999999998 20.542607999999998 20.542607999999998 20.542607999999998 20.542607999999998 20.542607999999998 20.542607999999998 26.270828 26.270828 26.270828 26.369590999999996 26.369590999999996 26.369590999999996 26.369590999999996 26.468353000000004 33.48048 33.48048 33.48048 33.48048 33.579243 33.48048 33.48048 33.48048 42.665363 42.665363 42.665363 42.665363 42.566601 42.665363 42.566601 42.665363 53.726715000000006 53.627953000000005 53.627953000000005 53.726715000000006 53.52919 53.627953000000005 53.52919 53.627953000000005 66.9608 66.9608 66.664513 66.56575 66.368225 66.368225 66.269463 66.269463 84.046555 84.046555 83.75026700000001 83.55274200000001 83.1577 83.058937 82.861412 82.663887 108.63811000000001 108.53935 108.24306000000001 107.84801999999999 107.35421000000001 106.8604 106.46535 105.97153999999999 155.1546 155.05585 154.56204 154.06822 153.17937 152.38928 151.50043 150.21652 262.80396 262.60641 262.01385 261.02625 259.84112999999996 258.45847000000003 256.582 253.71791000000002 527.97577 527.6795 526.79065 525.30927 523.4328 521.16125 517.80341 512.4703400000001 1136.9286 1136.5336 1135.2496 1133.1757 1130.3116 1126.5587 1121.2257 1111.9423 2258.1357 2257.5432 2255.6667 2252.9014 2248.9509 2243.4204 2235.0259 2220.8047 3664.6277 3663.8376 3661.3687 3657.5171 3652.0854 3644.481 3632.7288 3612.9771 4771.1436 4769.9585 4766.9956 4762.0576 4755.2437 4745.4668 4730.1592 4704.8774 5356.7622 5355.5771 5351.9233 5346.0967 5337.7026 5326.0493 5307.5825 5277.3633 5600.2368 5598.7554 5594.7065 5587.8931 5578.4126 5565.0811 5544.4419 5510.3726 5694.8291 5693.249 5688.7065 5681.3989 5671.228 5656.8105 5634.4937 5597.9565 5738.2881 5736.6099 5731.8701 5724.168 5713.5034 5698.396 5675.1909 5637.4712 5765.7461 5764.1665 5759.2295 5751.4297 5740.4697 5725.0669 5701.666 5663.356 5784.5728 5782.7954 5777.958 5769.9609 5759.002 5743.6992 5720.3994 5682.2905 5792.9458 5791.2676 5786.4307 5778.6318 5767.7729 5752.6694 5729.5698 5692.1567 5709.376 5707.7969 5703.0596 5695.2622 5684.7012 5669.9951 5647.5903 5610.9727 5532.752 5531.1733 5526.6343 5519.1348 5508.9707 5494.7612 5473.1509 5437.7256 5276.1816 5274.6035 5270.2627 5263.1602 5253.394 5239.8794 5219.1631 5185.3271 4954.7485 4953.3677 4949.2266 4942.6196 4933.4492 4920.7285 4901.2046 4869.4526 4584.9258 4583.6445 4579.8008 4573.7891 4565.3135 4553.585 4535.5493 4506.082 4182.8955 4181.7139 4178.2671 4172.8506 4165.1689 4154.6313 4138.1851 4111.2012 3764.7495 3763.7659 3760.7158 3755.895 3749.2051 3739.7595 3725.1003 3700.8979 3346.479 3345.4966 3342.8438 3338.717 3332.822 3324.4702 3311.501 3289.7871 2941.9026 2941.1179 2938.8621 2935.2332 2930.0352 2922.6792 2911.2043 2891.5889 2563.042 2562.3569 2560.4001 2557.2693 2552.6707 2546.1155 2535.5483 2517.6436 2218.0491 2217.4639 2215.7085 2212.9775 2208.8816 2202.7371 2192.6919 2175.7219 1912.2682 1911.6855 1910.2289 1907.6068 1903.7224 1897.7988 1887.6992 1871.0934 1647.1556 1646.6729 1645.2244 1642.714 1638.7551 1632.3823 1621.8575 1605.2496 1421.7456 1421.2665 1419.9248 1417.1456 1412.7374 1405.3583 1393.8584 1376.9919 1232.9528 1232.3834 1230.6753 1227.4492 1222.1355 1213.5956 1201.0703 1184.5599 1075.6267 1074.8773 1072.7228 1068.6012 1062.1377 1052.5831 1039.7499 1024.3875 943.8847 943.0555400000001 940.2915 935.40851 928.1300699999999 918.5481599999999 906.5708599999999 893.5799 832.33514 831.34265 828.2753299999999 823.31329 816.36652 807.7957200000001 798.05188 788.03711 737.6628400000001 736.69604 733.97137 729.66455 724.03931 717.53497 710.59088 702.76733 658.1668099999999 657.40045 655.44196 652.46167 648.71466 644.20111 638.15436 629.04199 592.7691 592.19495 590.71838 588.42145 584.8118900000001 579.15161 571.11279 560.6956799999999 532.67883 532.12872 530.71411 527.88501 523.56281 517.59052 511.14685 505.96054000000004 474.58197 474.50692999999995 474.13205 473.45730999999995 472.25787 471.13333 471.8075 441.37177 441.94202 443.43892999999997 445.72 447.64474 0.09876262400000001 0.09876262400000001 0.0 0.0 0.0 0.0 0.0 0.09876262400000001 0.09876262400000001 0.09876262400000001 0.09876262400000001 0.09876262400000001 0.09876262400000001 0.0 0.0 0.09876262400000001 0.09876262400000001 0.09876262400000001 0.09876262400000001 0.09876262400000001 0.09876262400000001 0.09876262400000001 0.0 0.09876262400000001 0.09876262400000001 0.09876262400000001 0.09876262400000001 0.09876262400000001 0.09876262400000001 0.09876262400000001 0.09876262400000001 0.19752525 0.19752525 0.19752525 0.19752525 0.09876262400000001 0.09876262400000001 0.09876262400000001 0.09876262400000001 0.29628786 0.19752525 0.19752525 0.19752525 0.19752525 0.19752525 0.19752525 0.09876262400000001 0.29628786 0.29628786 0.29628786 0.29628786 0.29628786 0.29628786 0.19752525 0.19752525 0.49381313 0.3950505 0.3950505 0.3950505 0.3950505 0.3950505 0.29628786 0.29628786 0.69133836 0.59257573 0.59257573 0.59257573 0.59257573 0.49381313 0.49381313 0.3950505 0.79010099 0.79010099 0.79010099 0.79010099 0.79010099 0.79010099 0.69133836 0.69133836 1.1851515 1.1851515 1.0863888000000002 0.98762625 0.98762625 0.98762625 0.98762625 0.98762625 1.580202 1.580202 1.4814393999999997 1.4814393999999997 1.4814393999999997 1.4814393999999997 1.4814393999999997 1.4814393999999997 2.1727777 2.1727777 1.9752525 1.9752525 1.9752525 1.9752525 1.9752525 1.7777272000000002 2.9628785 2.9628785 2.864116 2.6665907000000004 2.5678278999999997 2.5678278999999997 2.5678278999999997 2.3703027000000003 3.9505047999999996 3.8517419999999998 3.7529795 3.6542168 3.4566915000000003 3.4566915000000003 3.357929 3.1604037 5.1356554 5.1356554 4.938129900000001 4.8393674 4.740604900000001 4.641842400000001 4.4443169000000005 4.2467918 6.9133821 6.9133821 6.715857000000001 6.5183315 6.320806500000001 6.1232815 6.0245185 5.8269934999999995 9.2836838 9.0861588 8.8886337 8.6911087 8.4935827 8.2960577 8.197295200000001 7.9997702 12.049035 11.950273 11.653984 11.456458999999999 11.258934 11.061409 10.863883999999999 10.666359 15.802010999999998 15.604485999999998 15.308197 15.110672000000001 14.913147 14.616859 14.419334 14.123047 20.443846 20.345083 20.048796 19.752508 19.554983 19.456221 19.258696 18.666121 26.369590999999996 26.270828 25.974541000000002 25.875778 25.678253 25.777016 25.579491 24.888153 33.579243 33.48048 33.282955 33.282955 33.381718 33.776768 33.776768 32.887904999999996 42.764126 42.862888 42.566601 42.764126 43.257938 44.048038 44.640614 43.554226 53.726715000000006 53.726715000000006 53.825478000000004 54.022999 54.911861 56.78834499999999 58.467304000000006 57.183395 66.368225 66.269463 66.269463 66.56575 67.948425 71.306343 74.664253 73.874161 82.565125 82.071312 81.676262 81.478737 83.058937 88.194565 95.009148 95.206673 105.08268999999999 103.70002 101.82354000000001 100.44088 101.72478000000001 108.83563999999998 120.29202 123.35365 147.84624 144.29082 139.64902 135.69856000000001 135.40227 143.79701 161.08031 168.78372 248.8786 241.27397000000002 231.69412000000003 222.8056 219.64525 228.53377000000003 249.56992999999997 263.59406 503.1868 489.26151 472.17587000000003 455.88034000000005 447.58440999999993 454.99149000000006 473.65729000000005 491.63177 1096.3381 1073.7219 1046.1678 1019.9964 1003.1083 999.65173 1003.5034 1018.91 2197.3987 2163.8203 2123.9216 2084.6152 2053.0122 2024.0757 1990.2012 1995.4354 3580.7817 3535.353 3481.6284 3428.0024 3377.4382 3310.9739 3224.8564 3217.6472 4663.9922 4607.0093 4540.3486 4473.1938 4405.5454 4307.9736 4180.4785 4170.7017 5229.1709 5162.2153 5084.6924 5006.7749 4928.166 4814.6968 4671.7983 4672.0947 5456.5522 5382.291 5296.5737 5211.5483 5127.9053 5011.4761 4870.6558 4882.0122 5540.3862 5461.1899 5370.1436 5280.6772 5195.4575 5081.6006 4947.5986 4969.126 5577.8301 5495.873 5401.9678 5310.1362 5224.4268 5113.834 4986.6523 5015.2876 5603.1265 5520.1875 5425.0049 5332.291 5246.7847 5138.668 5015.6416 5048.0273 5622.165 5539.4312 5444.356 5351.749 5266.8433 5160.0195 5038.2876 5071.2627 5632.8286 5551.1904 5457.3115 5365.8018 5281.4985 5174.3916 5051.293 5082.29 5553.332 5473.3853 5381.4961 5291.877 5208.9692 5103.1631 4980.9731 5009.9907 5381.874 5304.6099 5215.6025 5128.6675 5048.2451 4945.522 4826.6157 4854.0479 5131.9585 5057.9717 4972.543 4889.0869 4811.9443 4713.7896 4600.3442 4626.585 4818.8667 4748.7568 4667.7012 4588.2227 4514.957 4422.7588 4316.5581 4341.21 4458.9731 4393.3364 4317.1543 4242.2529 4173.2651 4087.6216 3990.0532 4012.7207 4067.9678 4007.303 3936.4951 3866.4749 3802.166 3723.6763 3634.9446 3655.0349 3661.5447 3606.0559 3540.8276 3475.894 3416.3721 3344.9453 3264.6641 3282.0781 3254.2197 3203.7178 3144.0784 3084.3403 3029.7119 2965.2581 2893.3374 2908.1736 2859.4197 2813.6179 2759.1848 2704.7522 2654.7332 2596.8674 2533.8042 2547.0444 2488.3889 2446.8062 2397.592 2348.4753 2303.1743 2251.416 2197.6033 2210.8115 2148.6094 2110.9639 2067.1741 2023.6766 1983.2024 1937.1692 1892.8914 1906.5442 1845.7479 1811.8566 1773.8865 1736.3047 1700.6649 1659.1011 1624.0436 1636.9579 1581.3033 1551.5637 1519.5065 1488.511 1456.8394 1418.6012 1391.8534 1402.4728 1354.9507 1329.6509 1303.8716 1278.6671 1250.0121 1215.7026 1197.6844 1164.9181 1144.3271 1124.4 1103.4288 1076.0996 1048.3907 1040.7976 1007.9009 992.06964 976.42529 956.8461300000001 931.45911 913.09735 880.68079 868.42615 854.0519400000001 833.78088 812.3120700000001 803.55756 778.11218 766.65302 750.50214 730.11115 715.04309 692.9218099999999 678.94513 661.2771 644.4005099999999 616.3532700000001 601.19562 586.88989 575.9903 549.8688400000001 540.35455 502.89587 
Type 1 2975 float
0 0 0 0 0 0 0 0 0 0 0 0 0 0 0 0 0 0 0 0 0 0 0 0 0 0 0 0 0 0 0 0 0 0 0 0 0 0 0 0 0 0 0 0 0 0 0 0 0 0 0 0 0 0 0 0 0 0 0 0 0 0 0 0 0 0 0 0 0 0 0 0 0 0 0 0 0 0 0 0 0 0 0 0 0 0 0 0 0 0 0 0 0 0 0 0 0 0 0 0 0 0 0 0 0 0 0 0 0 0 0 0 0 0 0 0 0 0 0 0 0 0 0 0 0 0 0 0 0 0 0 0 0 0 0 0 0 0 0 0 0 0 0 0 0 0 0 0 0 0 0 0 0 0 0 0 0 0 0 0 0 0 0 0 0 0 0 0 0 0 0 0 0 0 0 0 0 0 0 0 0 0 0 0 0 0 0 0 0 0 0 0 0 0 0 0 0 0 0 0 0 0 0 0 0 0 0 0 0 0 0 0 0 0 0 0 0 0 0 0 0 0 0 0 0 0 0 0 0 0 0 0 0 0 0 0 0 0 0 0 0 0 0 0 0 0 0 0 0 0 0 0 0 0 0 0 0 0 0 0 0 0 0 0 0 0 0 0 0 0 0 0 0 0 0 0 0 0 0 0 0 0 0 0 0 0 0 0 0 0 0 0 0 0 0 0 0 0 0 0 0 0 0 0 0 0 0 0 0 0 0 0 0 0 0 0 0 0 0 0 0 0 0 0 0 0 0 0 0 0 0 0 0 0 0 0 0 0 0 0 0 0 0 0 0 0 0 0 0 0 0 0 0 0 0 0 0 0 0 0 0 0 0 0 0 0 0 0 0 0 0 0 0 0 0 0 0 0 0 0 0 0 0 0 0 0 0 0 0 0 0 0 0 0 0 0 0 0 0 0 0 0 0 0 0 0 0 0 0 0 0 0 0 0 0 0 0 0 0 0 0 0 0 0 0 0 0 0 0 0 0 0 0 0 0 0 0 0 0 0 0 0 0 0 0 0 0 0 0 0 0 0 0 0 0 0 0 0 0 0 0 0 0 0 0 0 0 0 0 0 0 0 0 0 0 0 0 0 0 0 0 0 0 0 0 0 0 0 0 0 0 0 0 0 0 0 0 0 0 0 0 0 0 0 0 0 0 0 0 0 0 0 0 0 0 0 0 0 0 0 0 0 0 0 0 0 0 0 0 0 0 0 0 0 0 0 0 0 0 0 0 0 0 0 0 0 0 0 0 0 0 0 0 0 0 0 0 0 0 0 0 0 0 0 0 0 0 0 0 0 0 0 0 0 0 0 0 0 0 0 0 0 0 0 0 0 0 0 0 0 0 0 0 0 0 0 0 0 0 0 0 0 0 0 0 0 0 0 0 0 0 0 0 0 0 0 0 0 0 0 0 0 0 0 0 0 0 0 0 0 0 0 0 0 0 0 0 0 0 0 0 0 0 0 0 0 0 0 0 0 0 0 0 0 0 0 0 0 0 0 0 0 0 0 0 0 0 0 0 0 0 0 0 0 0 0 0 0 0 0 0 0 0 0 0 0 0 0 0 0 0 0 0 0 0 0 0 0 0 0 0 0 0 0 0 0 0 0 0 0 0 0 0 0 0 0 0 0 0 0 0 0 0 0 0 0 0 0 0 0 0 0 0 0 0 0 0 0 0 0 0 0 0 0 0 0 0 0 0 0 0 0 0 0 0 0 0 0 0 0 0 0 0 0 0 0 0 0 0 0 0 0 0 0 0 0 0 0 0 0 0 0 0 0 0 0 0 0 0 0 0 0 0 0 0 0 0 0 0 0 0 0 0 0 0 0 0 0 0 0 0 0 0 0 0 0 0 0 0 0 0 0 0 0 0 0 0 0 0 0 0 0 0 0 0 0 0 0 0 0 0 0 0 0 0 0 0 0 0 0 0 0 0 0 0 0 0 0 0 0 0 0 0 0 0 0 0 0 0 0 0 0 0 0 0 0 0 0 0 0 0 0 0 0 0 0 0 0 0 0 0 0 0 0 0 0 0 0 0 0 0 0 0 0 0 0 0 0 0 0 0 0 0 0 0 0 0 0 0 0 0 0 0 0 0 0 0 0 0 0 0 0 0 0 0 0 0 0 0 0 0 0 0 0 0 0 0 0 0 0 0 0 0 0 0 0 0 0 0 0 0 0 0 0 0 0 0 0 0 0 0 0 0 0 0 0 0 0 0 0 0 0 0 0 0 0 0 0 0 0 0 0 0 0 0 0 0 0 0 0 0 0 0 0 0 0 0 0 0 0 0 0 0 0 0 0 0 0 0 0 0 0 0 0 0 0 0 0 0 0 0 3 3 3 3 3 3 3 3 3 3 3 3 3 3 3 3 3 3 3 3 3 3 3 3 3 3 3 3 3 3 3 3 3 3 3 3 3 3 3 3 3 3 3 3 3 3 3 3 3 3 3 3 3 3 3 3 3 3 3 3 3 3 3 3 3 3 3 3 3 3 3 3 3 3 3 3 3 3 3 3 3 3 3 3 3 3 3 3 3 3 3 3 3 3 3 3 3 3 3 3 3 3 3 3 3 3 3 3 3 3 3 3 3 3 3 3 3 3 3 3 3 3 3 3 3 3 3 3 3 3 3 3 3 3 3 3 3 3 3 3 3 3 3 3 3 3 3 3 3 3 3 3 3 3 3 3 3 3 3 3 3 3 3 3 3 3 3 3 3 3 3 3 3 3 3 3 3 3 3 3 3 3 3 3 3 3 3 3 3 3 3 3 3 3 3 3 3 3 3 3 3 3 3 3 3 3 3 3 3 3 3 3 3 3 3 3 3 3 3 3 3 3 3 3 3 3 3 3 3 3 3 3 3 3 3 3 3 3 3 3 3 3 3 3 3 3 3 3 3 3 3 3 3 3 3 3 3 3 3 3 3 3 3 3 3 3 3 3 3 3 3 3 3 3 3 3 3 3 3 3 3 3 3 3 3 3 3 3 3 3 3 3 3 3 3 3 3 3 3 3 3 3 3 3 3 3 3 3 3 3 3 3 3 3 3 3 3 3 3 3 3 3 3 3 3 3 3 3 3 3 3 3 3 3 3 3 3 3 3 3 3 3 3 3 3 3 3 3 3 3 3 3 3 3 3 3 3 3 3 3 3 3 3 3 3 3 3 3 3 3 3 3 3 3 3 3 3 3 3 3 3 3 3 3 3 3 3 3 3 3 3 3 3 3 3 3 3 3 3 3 3 3 3 3 3 3 3 3 3 3 3 3 3 3 3 3 3 3 3 3 3 3 3 3 3 3 3 3 3 3 3 3 3 3 3 3 3 3 3 3 3 3 3 3 3 3 3 3 3 3 3 3 3 3 3 3 3 3 3 3 3 3 3 3 3 3 3 3 3 3 3 3 3 3 3 3 3 3 3 3 3 3 3 3 3 3 3 3 3 3 3 3 3 3 3 3 3 3 3 3 3 3 3 3 3 3 3 3 3 3 3 3 3 3 3 3 3 3 3 3 3 3 3 3 3 3 3 3 3 3 3 3 3 3 3 3 3 3 3 3 3 3 3 3 3 3 3 3 3 3 3 3 3 3 3 3 3 3 3 3 3 3 3 3 3 3 3 3 3 3 3 3 3 3 3 3 3 3 3 3 3 3 3 3 3 3 3 3 3 3 3 3 3 3 3 3 3 3 3 3 3 3 3 3 3 3 3 3 3 3 3 3 3 3 3 3 3 3 3 3 3 3 3 3 3 3 3 3 3 3 3 3 3 3 3 3 3 3 3 3 3 3 3 3 3 3 3 3 3 3 3 3 3 3 3 3 3 3 3 3 3 3 3 3 3 3 3 3 3 3 3 3 3 3 3 3 3 3 3 3 3 3 3 3 3 3 3 3 3 3 3 3 3 3 3 3 3 3 3 3 3 3 3 3 3 3 3 3 3 3 3 3 3 3 3 3 3 3 3 3 3 3 3 3 3 3 3 3 3 3 3 3 3 3 3 3 3 3 3 3 3 3 3 3 3 3 3 3 3 3 3 3 3 3 3 3 3 3 3 3 3 3 3 3 3 3 3 3 3 3 3 3 3 3 3 3 3 3 3 3 3 3 3 3 3 3 3 3 3 3 3 3 3 3 3 3 3 3 3 3 3 3 3 3 3 3 3 3 3 3 3 3 3 3 3 3 3 3 3 3 3 3 3 3 3 3 3 3 3 3 3 3 3 3 3 3 3 3 3 3 3 3 3 3 3 3 3 3 3 3 3 3 3 3 3 3 3 3 3 3 3 3 3 3 3 3 3 3 3 3 3 3 3 3 3 3 3 3 3 3 3 3 3 3 3 3 3 3 3 3 3 3 3 3 3 3 3 3 3 3 3 3 3 3 3 3 3 3 3 3 3 3 3 3 3 3 3 3 3 3 3 3 3 3 3 3 3 3 3 3 3 3 3 3 3 3 3 3 3 3 3 3 3 3 3 3 3 3 3 3 3 3 3 3 3 3 3 3 3 3 3 3 3 3 3 3 3 3 3 3 3 3 3 3 3 3 3 3 3 3 3 3 3 3 3 3 3 3 3 3 3 3 3 3 3 3 3 3 3 3 3 3 3 3 3 3 3 3 3 3 3 3 3 3 3 3 3 3 3 3 3 3 3 3 3 3 3 3 3 3 3 3 3 3 3 3 3 3 3 3 3 3 3 3 3 3 3 3 3 3 3 3 3 3 3 3 3 3 3 3 3 3 3 3 3 3 3 3 3 3 3 3 3 3 3 3 3 3 3 3 3 3 3 3 3 3 3 3 3 3 3 3 3 3 3 3 3 3 3 3 3 3 3 3 3 3 3 3 3 3 3 3 3 3 3 3 3 3 3 3 3 3 3 3 3 3 3 3 3 3 3 3 3 3 3 3 3 3 3 3 3 3 3 3 3 3 3 3 3 3 3 3 3 3 3 3 3 3 3 3 3 3 3 3 3 3 3 3 3 3 3 3 3 3 3 3 3 3 3 3 3 3 3 3 3 3 3 3 3 3 3 3 3 3 3 3 3 3 3 3 3 3 3 3 3 3 3 3 3 3 3 3 3 3 3 3 3 3 3 3 3 3 3 3 3 3 3 3 3 3 3 3 3 3 3 3 3 3 3 3 3 3 3 3 3 3 3 3 3 3 3 3 3 3 3 3 3 3 3 3 3 3 3 3 3 3 3 3 3 3 3 3 3 3 3 3 3 3 3 3 3 3 3 3 3 3 3 3 3 3 3 3 3 3 3 3 3 3 3 3 3 3 3 3 3 3 3 3 3 3 3 3 3 3 3 3 3 3 3 3 3 3 3 3 3 3 3 3 3 3 3 3 3 3 3 3 3 3 3 3 3 3 3 3 3 3 3 3 3 3 3 3 3 3 3 3 3 3 3 3 3 3 3 3 3 3 3 3 3 3 3 3 3 3 3 3 3 3 3 3 3 3 3 3 3 3 3 3 3 3 3 3 3 3 3 3 3 3 3 3 3 3 3 3 3 3 3 3 3 3 3 3 3 3 3 3 3 3 3 3 3 3 3 3 3 3 3 3 3 3 3 3 3 3 3 3 3 3 3 3 3 3 3 3 3 3 3 3 3 3 3 3 3 3 3 3 3 3 3 3 3 3 3 3 3 3 3 3 3 3 3 3 3 3 3 3 3 3 3 3 3 3 3 3 3 3 3 3 3 3 3 3 3 3 3 3 3 3 3 3 3 3 3 3 3 3 3 3 3 3 3 3 3 3 3 3 3 3 3 3 3 3 3 3 3 3 3 3 3 3 3 3 3 3 3 3 3 3 3 3 3 3 3 3 3 3 3 3 3 3 3 3 3 3 3 3 3 3 3 3 3 3 3 3 3 3 3 3 3 3 3 3 3 3 3 3 3 3 3 3 3 3 3 3 3 3 3 3 3 3 3 3 3 3 3 3 3 3 3 3 3 3 3 3 3 3 3 3 3 3 3 3 3 3 3 3 3 3 3 3 3 3 3 3 3 3 3 3 3 3 3 3 3 3 3 3 3 3 3 3 3 3 3 3 3 3 3 3 3 3 3 3 3 3 3 3 3 3 3 3 3 3 3 3 3 3 3 3 3 3 3 3 3 3 3 3 3 3 3 3 3 3 3 3 3 3 3 3 3 3 3 3 3 3 3 3 3 3 3 3 3 3 3 3 3 3 3 3 3 3 3 3 3 3 3 3 3 3 3 3 3 3 3 3 3 3 3 3 3 3 3 3 3 3 3 3 3 3 3 3 3 3 3 3 3 3 3 3 3 3 3 3 3 3 3 3 3 3 3 3 3 3 3 3 3 3 3 3 3 3 3 3 3 3 3 3 3 3 3 3 3 3 3 3 3 3 3 3 3 3 3 3 3 3 3 3 3 3 3 3 3 3 3 3 3 3 3 3 3 3 3 3 3 3 3 3 3 3 3 3 3 3 3 3 3 3 3 3 3 3 3 3 3 3 3 3 3 3 3 3 3 3 3 3 3 3 3 3 3 3 3 3 3 3 3 3 3 3 3 3 3 3 3 3 3 3 3 3 3 3 3 3 3 3 3 3 3 3 3 3 3 3 3 3 3 3 3 3 3 3 3 3 3 3 3 3 3 3 3 3 3 3 3 3 3 3 3 3 3 3 3 3 3 3 3 3 3 3 3 3 3 3 3 3 3 3 3 3 3 3 3 3 3 3 3 3 3 3 3 3 3 3 3 3 
CellOffSpring 1 2975 float
0 0 0 0 0 0 0 0 0 0 0 0 0 0 0 0 0 0 0 0 0 0 0 0 0 0 0 0 0 0 0 0 0 0 0 0 0 0 0 0 0 0 0 0 0 0 0 0 0 0 0 0 0 0 0 0 0 0 0 0 0 0 0 0 0 0 0 0 0 0 0 0 0 0 0 0 0 0 0 0 0 0 0 0 0 0 0 0 0 0 0 0 0 0 0 0 0 0 0 0 0 0 0 0 0 0 0 0 0 0 0 0 0 0 0 0 0 0 0 0 0 0 0 0 0 0 0 0 0 0 0 0 0 0 0 0 0 0 0 0 0 0 0 0 0 0 0 0 0 0 0 0 0 0 0 0 0 0 0 0 0 0 0 0 0 0 0 0 0 0 0 0 0 0 0 0 0 0 0 0 0 0 0 0 0 0 0 0 0 0 0 0 0 0 0 0 0 0 0 0 0 0 0 0 0 0 0 0 0 0 0 0 0 0 0 0 0 0 0 0 0 0 0 0 0 0 0 0 0 0 0 0 0 0 0 0 0 0 0 0 0 0 0 0 0 0 0 0 0 0 0 0 0 0 0 0 0 0 0 0 0 0 0 0 0 0 0 0 0 0 0 0 0 0 0 0 0 0 0 0 0 0 0 0 0 0 0 0 0 0 0 0 0 0 0 0 0 0 0 0 0 0 0 0 0 0 0 0 0 0 0 0 0 0 0 0 0 0 0 0 0 0 0 0 0 0 0 0 0 0 0 0 0 0 0 0 0 0 0 0 0 0 0 0 0 0 0 0 0 0 0 0 0 0 0 0 0 0 0 0 0 0 0 0 0 0 0 0 0 0 0 0 0 0 0 0 0 0 0 0 0 0 0 0 0 0 0 0 0 0 0 0 0 0 0 0 0 0 0 0 0 0 0 0 0 0 0 0 0 0 0 0 0 0 0 0 0 0 0 0 0 0 0 0 0 0 0 0 0 0 0 0 0 0 0 0 0 0 0 0 0 0 0 0 0 0 0 0 0 0 0 0 0 0 0 0 0 0 0 0 0 0 0 0 0 0 0 0 0 0 0 0 0 0 0 0 0 0 0 0 0 0 0 0 0 0 0 0 0 0 0 0 0 0 0 0 0 0 0 0 0 0 0 0 0 0 0 0 0 0 0 0 0 0 0 0 0 0 0 0 0 0 0 0 0 0 0 0 0 0 0 0 0 0 0 0 0 0 0 0 0 0 0 0 0 0 0 0 0 0 0 0 0 0 0 0 0 0 0 0 0 0 0 0 0 0 0 0 0 0 0 0 0 0 0 0 0 0 0 0 0 0 0 0 0 0 0 0 0 0 0 0 0 0 0 0 0 0 0 0 0 0 0 0 0 0 0 0 0 0 0 0 0 0 0 0 0 0 0 0 0 0 0 0 0 0 0 0 0 0 0 0 0 0 0 0 0 0 0 0 0 0 0 0 0 0 0 0 0 0 0 0 0 0 0 0 0 0 0 0 0 0 0 0 0 0 0 0 0 0 0 0 0 0 0 0 0 0 0 0 0 0 0 0 0 0 0 0 0 0 0 0 0 0 0 0 0 0 0 0 0 0 0 0 0 0 0 0 0 0 0 0 0 0 0 0 0 0 0 0 0 0 0 0 0 0 0 0 0 0 0 0 0 0 0 0 0 0 0 0 0 0 0 0 0 0 0 0 0 0 0 0 0 0 0 0 0 0 0 0 0 0 0 0 0 0 0 0 0 0 0 0 0 0 0 0 0 0 0 0 0 0 0 0 0 0 0 0 0 0 0 0 0 0 0 0 0 0 0 0 0 0 0 0 0 0 0 0 0 0 0 0 0 0 0 0 0 0 0 0 0 0 0 0 0 0 0 0 0 0 0 0 0 0 0 0 0 0 0 0 0 0 0 0 0 0 0 0 0 0 0 0 0 0 0 0 0 0 0 0 0 0 0 0 0 0 0 0 0 0 0 0 0 0 0 0 0 0 0 0 0 0 0 0 0 0 0 0 0 0 0 0 0 0 0 0 0 0 0 0 0 0 0 0 0 0 0 0 0 0 0 0 0 0 0 0 0 0 0 0 0 0 0 0 0 0 0 0 0 0 0 0 0 0 0 0 0 0 0 0 0 0 0 0 0 0 0 0 0 0 0 0 0 0 0 0 0 0 0 0 0 0 0 0 0 0 0 0 0 0 0 0 0 0 0 0 0 0 0 0 0 0 0 0 0 0 0 0 0 0 0 0 0 0 0 0 0 0 0 0 0 0 0 0 0 0 0 0 0 0 0 0 0 0 0 0 0 0 0 0 0 0 0 0 0 0 0 0 0 0 0 0 0 0 0 0 0 0 0 0 0 0 0 0 0 0 0 0 0 0 0 0 0 0 0 0 0 0 0 0 0 0 0 0 0 0 0 0 0 0 0 0 0 0 0 0 0 0 0 0 0 0 0 0 0 0 0 0 0 0 0 0 0 0 0 0 0 0 0 0 0 0 0 0 0 0 0 0 0 0 0 0 0 0 0 0 0 0 0 0 0 0 0 0 0 0 0 0 0 0 0 0 0 0 0 0 0 0 0 0 0 0 0 0 0 0 0 0 0 0 0 0 0 0 0 0 0 0 0 0 0 0 0 0 0 0 0 0 0 0 0 0 0 0 0 0 0 0 0 0 0 0 0 0 0 0 0 0 0 0 0 0 0 0 0 0 0 0 0 0 0 0 0 0 0 0 0 0 0 0 0 0 0 0 0 0 0 0 0 0 0 0 0 0 0 0 0 0 0 0 0 0 0 0 0 0 0 0 0 0 0 0 0 0 0 0 0 0 0 0 0 0 0 0 0 0 0 0 0 0 0 0 0 0 0 0 0 0 0 0 0 0 0 0 0 0 0 0 0 0 0 0 0 0 0 0 0 0 0 0 0 0 0 0 0 0 0 0 0 0 0 0 0 0 0 0 0 0 0 0 0 0 0 0 0 0 0 0 0 0 0 0 0 0 0 0 0 0 0 0 0 0 0 0 0 0 0 0 0 0 0 0 0 0 0 0 0 0 0 0 0 0 0 0 0 0 0 0 0 0 0 0 0 0 0 0 0 0 0 0 0 0 0 0 0 0 0 0 0 0 0 0 0 0 0 0 0 0 0 0 0 0 0 0 0 0 0 0 0 0 0 0 0 0 0 0 0 0 0 0 0 0 0 0 0 0 0 0 0 0 0 0 0 0 0 0 0 0 0 0 0 0 0 0 0 0 0 0 0 0 0 0 0 0 0 0 0 0 0 0 0 0 0 0 0 0 0 0 0 0 0 0 0 0 0 0 0 0 0 0 0 0 0 0 0 0 0 0 0 0 0 0 0 0 0 0 0 0 0 0 0 0 0 0 0 0 0 0 0 0 0 0 0 0 0 0 0 0 0 0 0 0 0 0 0 0 0 0 0 0 0 0 0 0 0 0 0 0 0 0 0 0 0 0 0 0 0 0 0 0 0 0 0 0 0 0 0 0 0 0 0 0 0 0 0 0 0 0 0 0 0 0 0 0 0 0 0 0 0 0 0 0 0 0 0 0 0 0 0 0 0 0 0 0 0 0 0 0 0 0 0 0 0 0 0 0 0 0 0 0 0 0 0 0 0 0 0 0 0 0 0 0 0 0 0 0 0 0 0 0 0 0 0 0 0 0 0 0 0 0 0 0 0 0 0 0 0 0 0 0 0 0 0 0 0 0 0 0 0 0 0 0 0 0 0 0 0 0 0 0 0 0 0 0 0 0 0 0 0 0 0 0 0 0 0 0 0 0 0 0 0 0 0 0 0 0 0 0 0 0 0 0 0 0 0 0 0 0 0 0 0 0 0 0 0 0 0 0 0 0 0 0 0 0 0 0 0 0 0 0 0 0 0 0 0 0 0 0 0 0 0 0 0 0 0 0 0 0 0 0 0 0 0 0 0 0 0 0 0 0 0 0 0 0 0 0 0 0 0 0 0 0 0 0 0 0 0 0 0 0 0 0 0 0 0 0 0 0 0 0 0 0 0 0 0 0 0 0 0 0 0 0 0 0 0 0 0 0 0 0 0 0 0 0 0 0 0 0 0 0 0 0 0 0 0 0 0 0 0 0 0 0 0 0 0 0 0 0 0 0 0 0 0 0 0 0 0 0 0 0 0 0 0 0 0 0 0 0 0 0 0 0 0 0 0 0 0 0 0 0 0 0 0 0 0 0 0 0 0 0 0 0 0 0 0 0 0 0 0 0 0 0 0 0 0 0 0 0 0 0 0 0 0 0 0 0 0 0 0 0 0 0 0 0 0 0 0 0 0 0 0 0 0 0 0 0 0 0 0 0 0 0 0 0 0 0 0 0 0 0 0 0 0 0 0 0 0 0 0 0 0 0 0 0 0 0 0 0 0 0 0 0 0 0 0 0 0 0 0 0 0 0 0 0 0 0 0 0 0 0 0 0 0 0 0 0 0 0 0 0 0 0 0 0 0 0 0 0 0 0 0 0 0 0 0 0 0 0 0 0 0 0 0 0 0 0 0 0 0 0 0 0 0 0 0 0 0 0 0 0 0 0 0 0 0 0 0 0 0 0 0 0 0 0 0 0 0 0 0 0 0 0 0 0 0 0 0 0 0 0 0 0 0 0 0 0 0 0 0 0 0 0 0 0 0 0 0 0 0 0 0 0 0 0 0 0 0 0 0 0 0 0 0 0 0 0 0 0 0 0 0 0 0 0 0 0 0 0 0 0 0 0 0 0 0 0 0 0 0 0 0 0 0 0 0 0 0 0 0 0 0 0 0 0 0 0 0 0 0 0 0 0 0 0 0 0 0 0 0 0 0 0 0 0 0 0 0 0 0 0 0 0 0 0 0 0 0 0 0 0 0 0 0 0 0 0 0 0 0 0 0 0 0 0 0 0 0 0 0 0 0 0 0 0 0 0 0 0 0 0 0 0 0 0 0 0 0 0 0 0 0 0 0 0 0 0 0 0 0 0 0 0 0 0 0 0 0 0 0 0 0 0 0 0 0 0 0 0 0 0 0 0 0 0 0 0 0 0 0 0 0 0 0 0 0 0 0 0 0 0 0 0 0 0 0 0 0 0 0 0 0 0 0 0 0 0 0 0 0 0 0 0 0 0 0 0 0 0 0 0 0 0 0 0 0 0 0 0 0 0 0 0 0 0 0 0 0 0 0 0 0 0 0 0 0 0 0 0 0 0 0 0 0 0 0 0 0 0 0 0 0 0 0 0 0 0 0 0 0 0 0 0 0 0 0 0 0 0 0 0 0 0 0 0 0 0 0 0 0 0 0 0 0 0 0 0 0 0 0 0 0 0 0 0 0 0 0 0 0 0 0 0 0 0 0 0 0 0 0 0 0 0 0 0 0 0 0 0 0 0 0 0 0 0 0 0 0 0 0 0 0 0 0 0 0 0 0 0 0 0 0 0 0 0 0 0 0 0 0 0 0 0 0 0 0 0 0 0 0 0 0 0 0 0 0 0 0 0 0 0 0 0 0 0 0 0 0 0 0 0 0 0 0 0 0 0 0 0 0 0 0 0 0 0 0 0 0 0 0 0 0 0 0 0 0 0 0 0 0 0 0 0 0 0 0 0 0 0 0 0 0 0 0 0 0 0 0 0 0 0 0 0 0 0 0 0 0 0 0 0 0 0 0 0 0 0 0 0 0 0 0 0 0 0 0 0 0 0 0 0 0 0 0 0 0 0 0 0 0 0 0 0 0 0 0 0 0 0 0 0 0 0 0 0 0 0 0 0 0 0 0 0 0 0 0 0 0 0 0 0 0 0 0 0 0 0 0 0 0 0 0 0 0 0 0 0 0 0 0 0 0 0 0 0 0 0 0 0 0 0 0 0 0 0 0 0 0 0 0 0 0 0 0 0 0 0 0 0 0 0 0 0 0 0 0 0 0 0 0 0 0 0 0 0 0 0 0 0 0 0 0 0 0 0 0 0 0 0 0 0 0 0 0 0 0 0 0 0 0 0 0 0 0 0 0 0 0 0 0 0 0 0 0 0 0 0 0 0 0 0 0 0 0 0 0 0 0 0 0 0 0 0 0 0 0 0 0 0 0 0 0 0 0 0 0 0 0 0 0 0 0 0 0 0 0 0 0 0 0 0 0 0 0 0 0 0 0 0 0 0 0 0 0 0 0 0 0 0 0 0 0 0 0 0 0 0 0 0 0 0 0 0 0 0 0 0 0 0 0 0 0 0 0 0 0 0 0 0 0 0 0 0 0 0 0 0 0 0 0 0 0 0 0 0 0 0 0 0 0 0 0 0 0 0 0 0 0 0 0 0 0 0 0 0 0 0 0 0 0 0 0 0 0 0 0 0 0 0 0 0 0 0 0 0 0 0 0 0 0 0 0 0 0 0 0 0 0 0 0 0 0 0 0 0 0 0 0 0 0 0 0 0 0 0 0 0 0 0 0 0 0 0 0 0 0 0 0 0 0 0 0 0 0 0 0 0 0 0 0 0 0 0 0 0 0 0 0 0 0 0 0 0 0 0 0 0 0 0 0 0 0 0 0 0 0 0 0 0 0 0 0 0 0 0 0 0 0 0 0 0 0 0 0 0 0 0 0 0 0 0 0 0 0 0 0 0 0 0 0 0 0 0 0 0 0 0 0 0 0 0 0 0 0 0 0 0 0 0 0 0 0 0 0 0 0 0 0 0 0 0 0 0 0 0 0 
GradVel 1 2975 float
0.0 0.0 0.0 0.0 0.0 0.0 0.0 0.0 0.0 0.0 0.0 0.0 0.0 -1.3705301e-09 0.0 -7.4221207e-09 -5.049685500000001e-08 -1.4204221999999999e-08 -1.0278802e-07 -3.2519688000000004e-07 -1.230157e-07 -4.6929769999999997e-07 -1.1356467e-06 -4.5695040000000005e-07 -1.3506291999999999e-06 -2.8656495e-06 -1.143947e-06 -2.9780290000000003e-06 -5.8701339000000005e-06 -2.2696445e-06 -5.5221462e-06 -1.0422112999999999e-05 -3.8803992e-06 -9.1095617e-06 -1.6746548e-05 -6.034897499999999e-06 -1.3918842999999999e-05 -2.518208e-05 -8.8835823e-06 -2.0329891e-05 -3.6438782e-05 -1.2753320000000002e-05 -2.9086623e-05 -5.1853625e-05 -1.8262692e-05 -4.1580788e-05 -7.3928881e-05 -2.6584686999999997e-05 -6.0451304e-05 -0.00010738615 -4.0028135e-05 -9.073139499999999e-05 -0.00016094875 -6.3405023e-05 -0.00014190331 -0.00024998973999999997 -0.00010651923999999999 -0.00022982736000000002 -0.00039746943999999993 -0.00018715335 -0.00037504443999999997 -0.000627045 -0.0006004679 -0.00095651869 0.0 0.0 0.0 0.0 0.0 0.0 0.0 0.0 0.0 0.0 0.0 0.0 0.0 0.0 0.0 0.0 0.0 0.0 0.0 0.0 0.0 0.0 0.0 0.0 0.0 -2.4728325e-10 -1.5744718e-09 -3.7183894e-09 -5.5416995e-09 -6.5484111e-09 -7.2614816e-09 -7.8456859e-09 -1.1864827e-08 -3.8692114e-08 -8.2456822e-08 -1.3621923e-07 -1.8907332e-07 -2.3240587999999998e-07 -2.6369849999999997e-07 -2.8624748e-07 -1.5157195e-07 -3.2103392e-07 -5.521033000000001e-07 -8.170160300000001e-07 -1.0766371e-06 -1.3002816000000002e-06 -1.477429e-06 -1.6131378000000002e-06 -7.134019599999999e-07 -1.2822374999999999e-06 -2.0092152e-06 -2.8178777e-06 -3.6037657000000002e-06 -4.2892079e-06 -4.8487327e-06 -5.292905400000001e-06 -2.163227e-06 -3.5808564e-06 -5.3358713e-06 -7.251736e-06 -9.097279e-06 -1.0708827e-05 -1.2039484e-05 -1.3114448e-05 -5.052141200000001e-06 -7.9681686e-06 -1.1508146e-05 -1.5318688e-05 -1.8949231e-05 -2.2103148e-05 -2.4715999000000002e-05 -2.684693e-05 -9.8729315e-06 -1.5093463e-05 -2.1338890000000003e-05 -2.7965441e-05 -3.4186261e-05 -3.9541595e-05 -4.3976717e-05 -4.7614802e-05 -1.7005243000000002e-05 -2.5435793e-05 -3.5363308e-05 -4.5707504e-05 -5.5239256e-05 -6.336751500000001e-05 -7.0090187e-05 -7.5623997e-05 -2.6766034e-05 -3.9372975e-05 -5.3895546000000005e-05 -3.9663322e-05 -5.7564044e-05 -5.6831872000000004e-05 -8.1684411e-05 -8.037453499999999e-05 -0.00011482565 -0.00011411623999999999 -0.00016214068 -0.00016519395 -0.00023301446 -0.00024642376 -0.00034374578000000004 -0.00037955797999999997 -0.00052086276 -0.0005960674 -0.00080189831 -0.0009273197500000001 -0.0012260741 -0.0013913098000000001 -0.0018186105 0.0 0.0 0.0 0.0 0.0 0.0 0.0 0.0 0.0 0.0 0.0 0.0 0.0 0.0 0.0 0.0 0.0 0.0 0.0 0.0 0.0 0.0 0.0 0.0 0.0 0.0 0.0 -8.3186018e-09 -8.6975946e-09 -8.9994581e-09 -9.2386996e-09 -9.4262518e-09 -9.5697619e-09 -9.6750705e-09 -9.7467661e-09 -9.7883168e-09 -3.0424607e-07 -3.1879375e-07 -3.3043918e-07 -3.3966759e-07 -3.4688563000000003e-07 -3.5241192e-07 -3.5648460999999997e-07 -3.5927562e-07 -3.6090358e-07 -1.7180649e-06 -1.8021053e-06 -1.8695403999999999e-06 -1.9230106e-06 -1.9647962e-06 -1.9967595e-06 -2.0203252e-06 -2.0365064e-06 -2.0459668e-06 -5.644144e-06 -5.9240192000000006e-06 -6.1482992000000006e-06 -6.326206400000001e-06 -6.4651617e-06 -6.5713552000000004e-06 -6.649605400000001e-06 -6.7033488e-06 -6.7347964e-06 -1.397892e-05 -1.4673597999999999e-05 -1.5229983e-05 -1.5671263e-05 -1.6015696e-05 -1.6278649e-05 -1.6472221999999998e-05 -1.6605096e-05 -1.6682841e-05 -2.8579969e-05 -2.9984358000000002e-05 -3.1112253e-05 -3.2006529999999995e-05 -3.2703923e-05 -3.3235738e-05 -3.3626788e-05 -3.3894983e-05 -3.4051813e-05 -5.0597281999999995e-05 -5.3030370000000004e-05 -5.4990002999999995e-05 -5.6543646e-05 -5.7753809e-05 -5.8675483000000004e-05 -5.9352369e-05 -5.9816193000000006e-05 -6.0087299e-05 -8.0185404e-05 -8.3924126e-05 -8.694044700000001e-05 -8.9330024e-05 -9.118832500000001e-05 -9.2601542e-05 -9.363814e-05 -9.4347975e-05 -9.476263899999999e-05 0.0 0.0 0.0 0.0 0.0 0.0 0.0 0.0 0.0 0.0 0.0 0.0 0.0 0.0 0.0 0.0 0.0 0.0 0.0 0.0 0.0 0.0 0.0 0.0 -9.8019246e-09 -9.7883195e-09 -9.7467669e-09 -9.6750714e-09 -9.5697619e-09 -9.4262536e-09 -9.2387005e-09 -8.9994554e-09 -3.6143854e-07 -3.6090361000000003e-07 -3.5927553e-07 -3.5648463e-07 -3.5241192e-07 -3.4688557000000003e-07 -3.3966765e-07 -3.3043921000000003e-07 -2.0490797e-06 -2.0459668e-06 -2.0365062e-06 -2.0203246999999998e-06 -1.9967597e-06 -1.9647965999999998e-06 -1.9230108000000003e-06 -1.8695405e-06 -6.745152900000001e-06 -6.7347964e-06 -6.7033492999999995e-06 -6.6496068e-06 -6.5713571e-06 -6.4651626e-06 -6.326206400000001e-06 -6.1482997e-06 -1.670844e-05 -1.6682838e-05 -1.6605096e-05 -1.6472226e-05 -1.6278647000000002e-05 -1.6015696e-05 -1.5671267e-05 -1.5229988e-05 -3.4103467999999995e-05 -3.405182e-05 -3.3894994000000004e-05 -3.3626777000000005e-05 -3.3235745e-05 -3.2703927e-05 -3.2006508e-05 -3.1112246e-05 -6.0176564e-05 -6.0087317e-05 -5.9816208e-05 -5.9352395e-05 -5.8675487e-05 -5.7753798e-05 -5.6543630999999997e-05 -5.499e-05 -9.4899107e-05 -9.476262500000001e-05 -9.4347954e-05 -9.363816199999999e-05 -9.260152700000001e-05 -9.118834e-05 -8.933000899999999e-05 -8.6940468e-05 0.0 0.0 0.0 0.0 0.0 0.0 0.0 0.0 0.0 0.0 0.0 0.0 0.0 0.0 0.0 0.0 0.0 0.0 0.0 0.0 0.0 0.0 0.0 0.0 0.0 0.0 0.0 -8.6975938e-09 -8.3186036e-09 -7.8456894e-09 -7.2614816e-09 -6.5484111e-09 -5.5417022e-09 -3.7183903e-09 -1.5744722e-09 -2.472833e-10 -3.1879375e-07 -3.0424619e-07 -2.8624751e-07 -2.6369849999999997e-07 -2.3240592000000002e-07 -1.8907335999999997e-07 -1.3621926e-07 -8.2456857e-08 -3.8692122e-08 -1.8021053e-06 -1.7180651e-06 -1.6131379999999998e-06 -1.4774288999999998e-06 -1.3002815e-06 -1.0766373e-06 -8.170162600000001e-07 -5.5210336e-07 -3.2103404e-07 -5.9240183e-06 -5.6441436e-06 -5.292903599999999e-06 -4.8487336e-06 -4.2892079e-06 -3.6037666e-06 -2.8178783e-06 -2.0092157e-06 -1.2822383e-06 -1.4673598999999998e-05 -1.397892e-05 -1.3114450999999999e-05 -1.2039482e-05 -1.0708826e-05 -9.097279e-06 -7.2517377999999994e-06 -5.3358726e-06 -3.5808571e-06 -2.9984369000000002e-05 -2.8579976000000002e-05 -2.6846941e-05 -2.4716004e-05 -2.2103150999999998e-05 -1.8949233e-05 -1.531869e-05 -1.1508148e-05 -7.9681686e-06 -5.3030380999999994e-05 -5.05973e-05 -4.7614813000000006e-05 -4.3976732e-05 -3.9541599e-05 -3.4186269000000004e-05 -2.7965439999999998e-05 -2.1338890000000003e-05 -1.5093467e-05 -8.392414e-05 -8.0185411e-05 -7.562399e-05 -7.0090202e-05 -6.336753e-05 -5.5239263000000004e-05 -4.5707508e-05 -3.5363326e-05 -2.5435796e-05 -5.389555e-05 -3.9372979e-05 -5.7564055e-05 -8.1684426e-05 -0.00011482569 -0.00016214074 -0.00023301455000000003 -0.00034374575 -0.00052086276 -0.00080189825 -0.0012260744 -0.0018186111 0.0 0.0 0.0 0.0 0.0 0.0 0.0 0.0 0.0 0.0 0.0 0.0 0.0 0.0 0.0 -1.186483e-08 -1.3705306e-09 0.0 0.0 -1.5157198e-07 -5.0496872000000004e-08 -7.4221225e-09 0.0 -7.134021899999999e-07 -3.2519696e-07 -1.0278803999999999e-07 -1.4204223999999998e-08 -2.1632281e-06 -1.1356468000000001e-06 -4.6929772999999997e-07 -1.2301575e-07 -5.0521421e-06 -2.8656509e-06 -1.3506291999999999e-06 -4.5695053999999997e-07 -9.8729342e-06 -5.870136200000001e-06 -2.9780297000000003e-06 -1.1439477e-06 -1.7005248e-05 -1.0422114999999999e-05 -5.5221467000000005e-06 -2.2696448999999997e-06 -2.6766039999999997e-05 -1.6746551e-05 -9.1095608e-06 -3.8804001e-06 -3.9663333e-05 -2.5182084e-05 -1.3918842999999999e-05 -6.0348984000000006e-06 -5.6831886e-05 -3.6438789000000004e-05 -2.0329891e-05 -8.8835823e-06 -8.0374542e-05 -5.1853647e-05 -2.9086623e-05 -1.2753322e-05 -0.00011411625 -7.3928881e-05 -4.1580792e-05 -1.8262693999999997e-05 -0.00016519403000000003 -0.00010738618999999999 -6.0451286e-05 -2.6584686999999997e-05 -0.00024642376 -0.00016094881000000002 -9.073139499999999e-05 -4.002815e-05 -0.00037955803999999995 -0.00024998977 -0.00014190332 -6.3405038e-05 -0.00059606752 -0.00039746949999999997 -0.00022982732999999998 -0.00010651923 -0.0009273198699999999 -0.00062704494 -0.00037504443999999997 -0.00018715338 -0.0013913098000000001 -0.00095651881 -0.0006004679 0.0 0.0 0.0 0.0 0.0 0.0 0.0 0.0 0.0 0.0 0.0 0.0 0.0 0.0 0.0 0.0 0.0 0.0 0.0 0.0 0.0 0.0 0.0 0.0 0.0 0.0 0.0 0.0 0.0 0.0 0.0 0.0 0.0 0.0 0.0 0.0 0.0 0.0 0.0 0.0 0.0 0.0 0.0 0.0 0.0 0.0 0.0 0.0 0.0 0.0 0.0 0.0 0.0 0.0 0.0 0.0 0.0 0.0 0.0 0.0 0.0 0.0 0.0 0.0 0.0 0.0 0.0 0.0 0.0 0.0 0.0 0.0 0.0 0.0 0.0 0.0 0.0 0.0 0.0 0.0 0.0 0.0 0.0 0.0 0.0 0.0 0.0 0.0 0.0 0.0 0.0 0.0 0.0 0.0 0.0 0.0 0.0 0.0 0.0 0.0 0.0 0.0 0.0 0.0 0.0 0.0 0.0 0.0 0.0 0.0 0.0 0.0 0.0 0.0 0.0 0.0 0.0 0.0 0.0 0.0 0.0 0.0 0.0 0.0 0.0 0.0 0.0 0.0 0.0 0.0 0.0 0.0 0.0 0.0 0.0 0.0 0.0 0.0 0.0 0.0 0.0 0.0 0.0 0.0 0.0 0.0 0.0 0.0 0.0 0.0 0.0 0.0 0.0 0.0 0.0 0.0 0.0 0.0 0.0 0.0 0.0 0.0 0.0 0.0 0.0 0.0 0.0 0.0 0.0 0.0 0.0 0.0 0.0 0.0 0.0 0.0 0.0 0.0 0.0 0.0 0.0 0.0 0.0 0.0 0.0 0.0 0.0 0.0 0.0 0.0 0.0 0.0 0.0 0.0 0.0 0.0 0.0 0.0 0.0 0.0 0.0 0.0 0.0 0.0 0.0 0.0 0.0 0.0 0.0 0.0 0.0 0.0 0.0 0.0 0.0 0.0 0.0 0.0 0.0 0.0 0.0 0.0 0.0 0.0 0.0 0.0 0.0 0.0 0.0 0.0 0.0 0.0 0.0 0.0 0.0 0.0 0.0 0.0 0.0 0.0 0.0 0.0 0.0 0.0 0.0 0.0 0.0 0.0 0.0 0.0 0.0 0.0 0.0 0.0 0.0 0.0 0.0 0.0 0.0 0.0 0.0 0.0 0.0 0.0 0.0 0.0 0.0 0.0 0.0 0.0 0.0 0.0 0.0 0.0 0.0 0.0 0.0 0.0 0.0 0.0 0.0 0.0 0.0 0.0 0.0 0.0 0.0 0.0 0.0 0.0 0.0 0.0 0.0 0.0 0.0 0.0 0.0 0.0 0.0 0.0 0.0 0.0 0.0 0.0 0.0 0.0 0.0 0.0 0.0 0.0 0.0 0.0 0.0 0.0 0.0 0.0 0.0 0.0 0.0 0.0 0.0 0.0 0.0 0.0 0.0 0.0 0.0 0.0 0.0 0.0 0.0 0.0 0.0 0.0 0.0 0.0 0.0 0.0 0.0 0.0 0.0 0.0 0.0 0.0 0.0 0.0 0.0 0.0 0.0 0.0 0.0 0.0 0.0 0.0 0.0 0.0 0.0 0.0 0.0 0.0 0.0 0.0 0.0 0.0 0.0 0.0 0.0 0.0 0.0 0.0 0.0 0.0 0.0 0.0 0.0 0.0 0.0 0.0 0.0 0.0 0.0 0.0 0.0 0.0 0.0 0.0 0.0 0.0 0.0 0.0 0.0 0.0 0.0 0.0 0.0 0.0 0.0 0.0 0.0 0.0 0.0 0.0 0.0 0.0 0.0 0.0 0.0 0.0 0.0 0.0 0.0 0.0 0.0 0.0 0.0 0.0 0.0 0.0 0.0 0.0 0.0 0.0 0.0 0.0 0.0 0.0 0.0 0.0 0.0 0.0 0.0 0.0 0.0 0.0 0.0 0.0 0.0 0.0 0.0 0.0 0.0 0.0 0.0 0.0 0.0 0.0 0.0 0.0 0.0 0.0 0.0 0.0 0.0 0.0 0.0 0.0 0.0 0.0 0.0 0.0 0.0 0.0 0.0 0.0 0.0 0.0 0.0 0.0 0.0 0.0 0.0 0.0 -6.8557943e-05 -8.197790199999999e-05 -9.3308699e-05 -0.00010265318000000001 -0.00011034823999999998 -7.7219665e-05 -9.7682925e-05 -0.00011579686000000002 -0.00013094019 -0.00014333293 -0.00015349446 -0.00010858348999999998 -0.00013638732 -0.00016073784 -0.0001808185 -0.00019705006999999998 -0.00021024249 -0.00015180648000000002 -0.00018975261 -0.00022260936000000002 -0.00024931667999999996 -0.00027059109 -0.00028767908 -0.00021329134999999999 -0.00026496398 -0.00030911807 -0.00034457407 -0.00037248083 -0.00039460475 -0.00030505002 -0.0003741144 -0.00043173652000000004 -0.00047740045999999995 -0.00051328423 -0.00054173107 -0.00044870589000000006 -0.0005377952500000001 -0.0006083193599999999 -0.0006631449799999999 -0.00070674735 -0.0007422121700000001 -0.00067962019 -0.0007873234 -0.0008643231100000001 -0.0009224769300000002 -0.0009707305 -0.0010126483 -0.0010471857 -0.0011623143 -0.0012299535000000002 -0.0012796854 -0.0013268341 -0.0013737422 -0.0015974268 -0.0016973716 -0.0017312338 -0.0017582544 -0.0017989539000000001 -0.0018505157 -0.002334855 -0.0023987892 -0.00237981 -0.0023772756 -0.0024126987 -0.0024728603 -0.0031574601 -0.0032285035 -0.0031733408 -0.0031557756 -0.003199154 -0.0032780278000000005 -0.0039873775 -0.0041510491 -0.0041249823 -0.0041292585 -0.0042033852000000005 -0.0043149963 -0.0049386885999999994 -0.0052365288 -0.0053027811999999995 -0.0053657512 -0.0054916259999999995 -0.005648253000000001 -0.006251609 -0.0066658738 -0.0068325093 -0.0069663664 -0.0071513578 -0.0073590497 -0.0081846928 -0.008624456800000001 -0.0088623073 -0.0090480307 -0.009286520999999999 -0.009545642 -0.010825852 -0.011258502 -0.011519922 -0.011732456 -0.012016737 -0.012326508 -0.014205488999999998 -0.014645432 -0.014927227 -0.015163221999999999 -0.015488926 -0.015845843000000002 -0.018404689 -0.01893774 -0.019277111 -0.019532202 -0.019886814 -0.020274904 -0.02366348 -0.024409009 -0.02483888 -0.025083361000000002 -0.025427345 -0.025809929 -0.030366305 -0.031412628 -0.031935528 -0.03209671 -0.032353747999999995 -0.032665502 -0.03887501 -0.040374059 -0.040942866 -0.040874604 -0.040915057000000005 -0.041053291 -0.049672097000000005 -0.051779047 -0.05223731 -0.051681116 -0.051308788 -0.051128253 -0.06316158200000001 -0.066044509 -0.06604062 -0.064598083 -0.063548177 -0.06287632900000001 -0.079610482 -0.083324775 -0.08218471 -0.079267398 -0.077241793 -0.07591950900000001 -0.09869564300000001 -0.10309057 -0.099625923 -0.09449029 -0.09124154599999999 -0.089226797 -0.11894771 -0.12331156 -0.11583748 -0.10769276 -0.10320557 -0.10075854 -0.13716401 -0.1400149 -0.12633689 -0.11452632 -0.10926315 -0.10716985 -0.14738557 -0.14632757 -0.12426658 -0.10907815 -0.10414149 -0.10370897 -0.13961449 -0.13133505 -0.10174429 -0.08459550099999999 -0.081138887 -0.0843779 -0.099152565 -0.082194 -0.051463290999999994 -0.033166528 -0.033332601 -0.042691372000000005 -0.0020882785 0.020111121000000003 0.041324437 0.051384315 0.044676020999999996 0.026313633 0.17033982 0.19950248 0.1907409 0.17457594 0.15364993 0.12331637 0.39856777 0.43894854 0.38666677 0.3283276 0.28701463 0.24234334 0.60692227 0.6685701 0.58231896 0.4873209 0.42738086 0.36944732 0.74382174 0.83118457 0.7370345 0.62474322 0.55358958 0.4856019 0.81246543 0.91682267 0.8330726 0.72063649 0.64637017 0.57249057 0.83152264 0.94755375 0.87664557 0.77099466 0.69762254 0.62088764 0.81947881 0.94273758 0.88213146 0.78319842 0.71169972 0.63395822 0.79332089 0.91968238 0.86490822 0.77040958 0.70058525 0.62291586 0.76589954 0.89194399 0.8384878 0.74578953 0.67706001 0.60006368 0.74352318 0.86695075 0.81104112 0.71772474 0.64948308 0.57353574 0.71764255 0.83721495 0.78002369 0.68728006 0.62002337 0.54560834 0.68489099 0.79959249 0.74288148 0.65236658 0.58674902 0.51435077 0.64303881 0.75167489 0.69692451 0.61014044 0.54675639 0.47682196 0.59226143 0.69349855 0.64163023 0.55968058 0.49897856 0.43189746 0.5357151 0.62751758 0.57947087 0.50299537 0.44524843 0.38136211 0.47845274 0.5594759 0.51501209 0.44424868 0.38964421 0.32924849 0.42552873 0.49539477 0.45325589 0.38815981 0.33680063 0.28006065 0.37919089 0.43790495 0.39787978 0.3382901 0.29017109 0.23710276 0.33818868 0.3867465 0.35015535 0.29597196 0.2511096 0.20179109 0.30100635 0.34121972 0.30935222 0.26054883 0.21913771 0.17389508 0.26909494 0.30016184 0.27396423 0.23036671 0.19281831 0.15226293 0.24345857 0.26393551 0.24327989 0.20410773 0.17057505 0.13556015 0.22575057 0.23412183 0.21750739 0.18170686 0.15174678 0.12275603 0.2077456 0.19593248 0.16431548 0.13660191 0.11324205 0.18289188 0.17757565 0.15310949 0.12627099 0.10663156 0.16306992 0.14810327 0.12263227 0.10322416 0.15436155 0.14846888 0.12700811 0.10505085 0.1525702 0.13813029 0.11472272 0.151434 0.13233128 0.15973897 0.15029734 -0.00011670747 -0.00012193236000000001 -0.00012614716 -0.00012947885 -0.00013206415 -0.00013402663 -0.00013546443 -0.00013644823 -0.00013702281 -0.0001618814 -0.00016876811000000002 -0.00017430935000000003 -0.00017867287 -0.00018204932000000001 -0.00018460734 -0.00018647901999999998 -0.00018775872999999998 -0.00018850592 -0.00022107444 -0.00022993384 -0.00023702589 -0.00024258139 -0.00024686701 -0.00025010749 -0.0002524755 -0.00025409329 -0.00025503751 -0.00030159627 -0.0003129059 -0.00032189538 -0.00032889491000000004 -0.00033427722999999996 -0.00033833925000000003 -0.00034130417000000004 -0.00034332805 -0.00034450852999999993 -0.00041244601000000003 -0.00042683337 -0.00043818081 -0.00044696472 -0.00045369638 -0.00045876668 -0.00046246309999999996 -0.00046498447999999997 -0.00046645442000000005 -0.00056450022 -0.00058271212 -0.00059697329 -0.0006079534099999999 -0.00061633863 -0.0006226406 -0.00062722899 -0.00063035567 -0.00063217682 -0.0007709848 -0.0007938920200000001 -0.00081170769 -0.00082534709 -0.00083572534 -0.00084350532 -0.0008491585000000001 -0.00085300457 -0.0008552422500000001 -0.0010482395 -0.0010768983 -0.0010990149 -0.0011158233 -0.0011285496000000002 -0.0011380545 -0.0011449405999999999 -0.0011496127 -0.0011523255 -0.0014168588 -0.0014525375 -0.0014798870999999999 -0.001500437 -0.0015158667 -0.0015273186 -0.0015355707999999998 -0.0015411448000000002 -0.0015443708999999999 -0.0019027185999999998 -0.0019471957000000001 -0.0019810128 -0.0020059660999999997 -0.0020244338000000002 -0.0020379876 -0.0020476682 -0.0020541612 -0.0020579001999999997 -0.0025379348 -0.0025939764 -0.0026358792 -0.0026659884000000003 -0.0026877569000000002 -0.002703435 -0.0027144686 -0.0027217888 -0.0027259709 -0.0033625809000000003 -0.0034340722 -0.0034860275 -0.0035220409999999996 -0.0035471939 -0.0035647813 -0.0035768682 -0.0035847484 -0.0035891999 -0.0044272193 -0.0045186216 -0.0045826635 -0.0046250755 -0.0046532885 -0.0046721543 -0.0046846368 -0.0046925503 -0.0046969353999999994 -0.005795416899999999 -0.005910743 -0.005988409300000001 -0.0060369875 -0.0060671708 -0.0060859951 -0.0060976869 -0.0061047189 -0.0061084819 -0.0075457487 -0.0076876925 -0.007779210799999999 -0.0078322757 -0.0078620426 -0.0078784619 -0.0078873821 -0.0078921085 -0.0078943875 -0.0097740134 -0.0099431528 -0.010046209 -0.010099710999999999 -0.010124705 -0.01013488 -0.010138029 -0.010138356 -0.010137949 -0.012596102 -0.012789156000000001 -0.012897435 -0.012943808000000001 -0.012957001000000001 -0.0129552 -0.01294836 -0.012941493 -0.012936806 -0.016150051999999998 -0.016357288 -0.016458699 -0.016485712 -0.0164767 -0.016455045 -0.016432738 -0.016415196 -0.016404372 -0.02059599 -0.020798381 -0.020873139 -0.020862726 -0.020817325 -0.020765835 -0.020721633 -0.020689661 -0.020670766 -0.026114212 -0.026280148 -0.026298866 -0.026226517 -0.026126916 -0.026034115 -0.02596149 -0.025911694 -0.025883278 -0.032897875 -0.03298017 -0.032903071 -0.032738335 -0.032564431 -0.032419037000000005 -0.032312725 -0.032243446 -0.032205299 -0.041133083 -0.04106804 -0.040846363 -0.040555891000000004 -0.040288769 -0.04008276 -0.039941613 -0.039854746 -0.039809071 -0.050950509000000005 -0.050661467 -0.050242573 -0.049796198 -0.04942430900000001 -0.049158398 -0.048989437999999996 -0.048893385 -0.04884655 -0.062324475 -0.061733115 -0.061070994 -0.060451057 -0.05997828 -0.059668973 -0.059492894000000004 -0.059406575 -0.059371464000000006 -0.074899137 -0.073950417 -0.073023163 -0.072237022 -0.071692146 -0.07137867099999999 -0.071235761 -0.071192943 -0.071191706 -0.087748453 -0.086464308 -0.08530499 -0.084402092 -0.083848335 -0.083599739 -0.083554618 -0.083607011 -0.083672978 -0.099096186 -0.097693473 -0.096458919 -0.095562138 -0.09511181699999999 -0.095033675 -0.095179498 -0.09540002 -0.095579006 -0.10607024 -0.10514956 -0.10425447 -0.10363432 -0.10348129 -0.1037311 -0.10419844 -0.10468629 -0.10504041 -0.10457542 -0.10533404 -0.10563371 -0.10583165 -0.1063199 -0.10714269 -0.10812011 -0.10901479 -0.10963035 -0.089343108 -0.09370175 -0.096637741 -0.098592691 -0.10030385 -0.10208359 -0.10384887 -0.10535006 -0.10634975 -0.054529913 -0.065040246 -0.072616607 -0.077692389 -0.081490517 -0.084787689 -0.08773106300000001 -0.09011306599999999 -0.09166418 0.0046180934 -0.014851488000000001 -0.029354375 -0.039178423999999996 -0.046140297999999996 -0.051667619000000005 -0.056283385 -0.059889436 -0.062199946 0.08926598 0.058421198 0.034937087 0.018827148000000002 0.007625669200000001 -0.00087723508 -0.0076950286 -0.012895465 -0.016189811999999998 0.19458199 0.15106344 0.1173747 0.093969472 0.077755749 0.065700337 0.056250833 0.049148805 0.044682093 0.30861601 0.25272241 0.20886701 0.17803976 0.15661997 0.14081398 0.12856066 0.11942483 0.11370186 0.41397256 0.34752563 0.29481781 0.25739932 0.2312595 0.21198441 0.19710071 0.18604144 0.17912543 0.49322724 0.41896522 0.3595733 0.31708521 0.28723347 0.26515973 0.24810904 0.23544443 0.22752592 0.53699994 0.45780784 0.39413893 0.34834912 0.31600866 0.29198363 0.27337015 0.25952259 0.25085723 0.54783481 0.46618056 0.4003633 0.35288543 0.31920683 0.29405701 0.27448687 0.2598882 0.25074017 0.53624952 0.45394719 0.38757384 0.3396396 0.30553156 0.2799376 0.25993127 0.24496154 0.23556575 0.51396596 0.43221974 0.36634767 0.31878239 0.28487444 0.25933349 0.23928899 0.22424841 0.214793 0.48875326 0.40835777 0.34366691 0.29699713 0.26370141 0.23855627 0.21876232 0.20387557 0.19450423 0.46274298 0.38430119 0.32129064 0.27589297 0.24350411 0.21900681 0.19968294 0.18512571 0.17595288 0.43395633 0.35802665 0.29716352 0.25338575 0.22217041 0.19854484 0.17988592 0.1658159 0.15694532 0.39943963 0.32660326 0.26839408 0.22662322 0.1968756 0.1743615 0.15657143 0.14315204 0.13469097 0.35806525 0.28893584 0.23394126 0.19462143 0.16668466 0.14555997 0.12887061 0.11628406 0.10835121 0.31160682 0.2468031 0.19559991 0.1592017 0.13345094 0.11402355 0.09868914599999999 0.087132141 0.079853475 0.26401132 0.20404096 0.15709798 0.12400842 0.10075888 0.083290868 0.069527559 0.059165262 0.052644777999999996 0.21954863 0.16462587 0.12212862 0.092498563 0.071878359 0.056483227999999996 0.044388272 0.035294913 0.029578462000000003 0.18122463 0.13117339 0.092925318 0.066584684 0.048471425 0.035070992999999995 0.024594482 0.016735043 0.011800142 0.1503351 0.10467105 0.070123509 0.046596646 0.030634252 0.018980572 0.009950378900000001 0.0032050069 -0.0010222495 0.12679374 0.084975325 0.053353637 0.031938932999999996 0.01759306 0.0073151924 -0.00051873922 -0.0063152947 -0.0099324323 0.10978259 0.071454495 0.041961807999999996 0.021830145 0.0084480643 -0.00090751424 -0.0078399219 -0.012870945 -0.015979763 0.098304741 0.06345059 0.035489351 0.015788317 0.0026455894 -0.006309431 -0.012676913 -0.017142484 -0.019848045 0.09140937 0.060374461 0.033767816 0.013807729 0.00014588237 -0.0090159662 -0.015237225 -0.01939065 -0.021823511 0.088209577 0.061577442999999996 0.036651142000000005 0.01623597 0.001382716 -0.0086762775 -0.015306199 -0.019523224 -0.02189023 0.087597519 0.065972246 0.043547450999999994 0.023232443 0.0070614386 -0.0045010559 -0.01218353 -0.016975369 -0.019592106 0.08843957599999999 0.071968228 0.053088687 0.034105022 0.017446868 0.0044782702 -0.0046645924 -0.010522028000000001 -0.013738551000000002 0.09036892699999999 0.077886589 0.063341863 0.04718837099999999 0.031588043999999996 0.018323503 0.008219396700000001 0.0013050194999999999 -0.0026668990000000004 0.09608534 0.083442032 0.072417371 0.060265284 0.047461979 0.035558477000000005 0.02572955 0.018517951 0.01414049 0.1102948 0.09281845400000001 0.080858618 0.07142774 0.062414467 0.053486057000000004 0.045423917 0.039033717999999995 0.034934774 0.13290566 0.11288643 0.09562315 0.083342955 0.075248905 0.069098637 0.063782252 0.059314757999999995 0.05624124 0.14693819 0.13595428 0.12128188 0.10622939 0.093944758 0.08540468699999999 0.07987655 0.076291524 0.07411164 0.14072628 0.13907322 0.13282308 0.12341128 0.11398927 0.1068706 0.10234405 0.099803559 0.1355266 0.13857722 0.13774382 0.13622853 0.13535847 0.1349103 0.12329879 0.12754257 0.13194796 0.13500592 -0.00013721191 -0.00013702281 -0.00013644825 -0.00013546445 -0.00013402662 -0.00013206416999999999 -0.00012947884 -0.00012614718999999998 -0.00018875182 -0.00018850589 -0.00018775876 -0.00018647905 -0.00018460731 -0.00018204935 -0.00017867281000000002 -0.00017430935000000003 -0.00025534813 -0.00025503742 -0.00025409332 -0.00025247561 -0.00025010749 -0.00024686701 -0.00024258127 -0.00023702585999999998 -0.00034489686 -0.00034450841 -0.00034332792999999996 -0.00034130422999999996 -0.00033833925000000003 -0.00033427743 -0.00032889482 -0.00032189535 -0.00046693764000000005 -0.00046645422 -0.00046498435999999996 -0.00046246309999999996 -0.00045876653 -0.00045369655999999995 -0.00044696492999999997 -0.00043818078 -0.00063277519 -0.00063217652 -0.00063035556 -0.00062722922 -0.00062264054 -0.0006163386900000001 -0.00060795323 -0.0005969732299999999 -0.00085597689 -0.0008552419599999999 -0.0008530046899999999 -0.0008491585000000001 -0.00084350549 -0.0008357252199999999 -0.00082534755 -0.00081170799 -0.001153215 -0.0011523253 -0.0011496125 -0.0011449405 -0.0011380545 -0.0011285492999999998 -0.0011158236 -0.0010990149 -0.0015454275 -0.0015443708999999999 -0.0015411451 -0.0015355707 -0.0015273183999999999 -0.0015158667999999999 -0.0015004369 -0.0014798868 -0.0020591214000000003 -0.0020578997 -0.0020541602 -0.0020476676999999998 -0.0020379894 -0.002024435 -0.0020059657 -0.0019810139 -0.0027273346000000003 -0.0027259734999999998 -0.0027217878999999997 -0.0027144698 -0.0027034355 -0.0026877574 -0.0026659871999999995 -0.0026358778000000003 -0.0035906427 -0.0035892013 -0.0035847477000000003 -0.0035768677000000003 -0.0035647815 -0.0035471928 -0.0035220435999999996 -0.0034860285999999997 -0.0046983436 -0.0046969353999999994 -0.0046925503 -0.0046846387 -0.0046721525 -0.0046532885 -0.004625075 -0.0045826631 -0.0061096624 -0.0061084777 -0.0061047161 -0.0060976851 -0.0060859947 -0.006067175 -0.006036988 -0.005988414399999999 -0.0078950627 -0.007894388399999999 -0.007892102 -0.0078873783 -0.00787846 -0.0078620426 -0.0078322757 -0.0077792117 -0.010137729 -0.010137953 -0.010138356999999999 -0.010138026 -0.010134876999999999 -0.010124705999999999 -0.0100997 -0.010046209 -0.012935173000000001 -0.012936805 -0.012941488999999999 -0.012948359 -0.012955201999999999 -0.012956998999999999 -0.012943808999999999 -0.012897437 -0.01640073 -0.016404368 -0.016415199 -0.016432738 -0.016455043 -0.016476691 -0.016485704 -0.016458696000000002 -0.02066456 -0.02067077 -0.020689663 -0.02072165 -0.020765838999999998 -0.020817326 -0.020862725 -0.020873118 -0.025874092999999997 -0.025883282 -0.025911694 -0.025961474 -0.02603412 -0.026126906000000002 -0.026226509 -0.026298877000000002 -0.032193203 -0.032205299 -0.032243453 -0.032312728 -0.032419045 -0.032564446000000004 -0.032738342999999996 -0.032903079 -0.039794974 -0.039809089 -0.039854754 -0.039941616 -0.040082768 -0.040288776 -0.040555867999999995 -0.040846344 -0.048832782000000005 -0.048846528 -0.048893402999999995 -0.048989445 -0.04915840900000001 -0.049424305999999994 -0.049796198 -0.05024258 -0.059362587 -0.05937146 -0.059406552 -0.059492879000000005 -0.059668958 -0.059978305999999995 -0.060451057 -0.061070994 -0.07119540099999999 -0.071191728 -0.071192943 -0.071235768 -0.071378663 -0.07169212400000001 -0.072237022 -0.073023207 -0.08370066400000001 -0.083672971 -0.083607078 -0.083554655 -0.083599746 -0.083848342 -0.084402084 -0.08530496800000001 -0.09564624699999999 -0.095578946 -0.095400006 -0.09517948300000001 -0.095033705 -0.09511181 -0.095562175 -0.096458912 -0.10516839 -0.10504039 -0.10468628 -0.10419849 -0.10373114 -0.10348128 -0.1036343 -0.10425447 -0.10984834 -0.10963032 -0.10901481 -0.10812012 -0.10714269 -0.1063199 -0.10583165 -0.10563372 -0.10669913 -0.10634977 -0.10535008 -0.10384885 -0.10208357 -0.10030393 -0.098592721 -0.096637815 -0.09220149400000001 -0.091664225 -0.090113074 -0.08773102599999999 -0.084787689 -0.08149052400000001 -0.07769236 -0.072616652 -0.062995188 -0.06219992 -0.059889514000000005 -0.056283392 -0.051667612 -0.046140302 -0.039178416 -0.02935439 -0.017318945 -0.016189776 -0.012895443999999999 -0.0076950211 -0.0008772499900000001 0.0076257363 0.018827155 0.034937128 0.04315519 0.044682085999999996 0.049148828 0.056250848 0.065700367 0.077755772 0.093969502 0.11737473 0.11174822 0.11370185 0.11942485 0.12856072 0.14081404 0.15661997 0.17803973 0.20886695 0.17676568 0.17912537 0.18604152 0.1971008 0.2119844 0.23125967 0.25739941 0.29481792 0.22482421 0.22752586 0.2354444 0.24810919 0.26515961 0.28723344 0.31708515 0.3595736 0.24789974 0.25085729 0.25952253 0.27337006 0.29198366 0.31600869 0.34834924 0.39413893 0.24761595 0.25074005 0.2598882 0.27448693 0.29405695 0.31920671 0.35288543 0.40036345 0.2323547 0.23556577 0.2449615 0.25993121 0.27993765 0.30553162 0.3396396 0.3875739 0.21155949 0.21479298 0.2242485 0.23928893 0.25933352 0.28487444 0.31878245 0.36634776 0.19129753 0.19450422 0.2038756 0.21876225 0.23855624 0.26370129 0.29699713 0.34366679 0.1728127 0.17595287 0.18512565 0.19968292 0.21900685 0.24350409 0.27589312 0.32129076 0.15390798 0.15694529 0.16581592 0.17988589 0.19854484 0.22217047 0.25338575 0.29716343 0.13179402 0.13469101 0.14315203 0.15657145 0.17436144 0.1968756 0.22662324 0.26839411 0.105636 0.10835122 0.11628406 0.12887062 0.14555998 0.1666847 0.19462144 0.23394138 0.077363506 0.07985349 0.08713212599999999 0.098689109 0.11402349 0.13345091 0.1592017 0.19559985 0.050415426 0.052644782 0.059165265 0.069527566 0.08329086 0.1007589 0.12400848 0.157098 0.027625097 0.029578494 0.03529492 0.044388268 0.056483230999999995 0.071878389 0.0924986 0.12212858 0.010114782 0.011800123999999999 0.01673504 0.024594471 0.035071008 0.048471399000000005 0.066584691 0.09292531 -0.0024647769 -0.0010222588000000001 0.0032049902 0.0099503696 0.018980561 0.030634217000000002 0.046596684000000006 0.07012355299999999 -0.011164771 -0.0099324379 -0.006315287199999999 -0.00051873922 0.0073151886 0.017593011000000002 0.03193891 0.053353705 -0.017034888 -0.015979791 -0.012870945 -0.0078399461 -0.0009074956199999999 0.0084480532 0.021830097000000003 0.041961819000000004 -0.020758733 -0.019848045 -0.017142506000000002 -0.012676932 -0.0063094534 0.0026455559000000003 0.015788313 0.035489395 -0.02262966 -0.021823512000000003 -0.019390658 -0.015237248 -0.0090159755 0.00014586002 0.013807755 0.033767822999999995 -0.022656638 -0.021890244 -0.019523194 -0.01530621 -0.0086762756 0.0013827048 0.016235974 0.036651172 -0.020423928 -0.01959211 -0.016975369 -0.012183525 -0.004501041 0.007061461 0.023232415 0.043547474 -0.014760435 -0.013738556 -0.010522001999999999 -0.0046645999 0.0044782646 0.017446881 0.034105002999999995 0.053088684000000004 -0.0039598066 -0.0026669102000000003 0.0013050269 0.0082194069 0.018323511 0.031588055 0.047188383 0.063341834 0.012674909 0.014140501000000001 0.018517943000000002 0.025729547999999998 0.035558477000000005 0.047461987000000004 0.060265303 0.072417378 0.033533722 0.034934781 0.039033733 0.045423925 0.053486042000000004 0.062414471 0.07142774 0.080858678 0.055156435999999996 0.056241229000000004 0.059314760999999994 0.063782245 0.069098637 0.075248897 0.08334294 0.09562314300000001 0.073364466 0.074111633 0.076291546 0.079876527 0.085404694 0.093944788 0.10622942 0.12128186 0.09897925 0.099803589 0.10234411 0.10687062 0.11398936 0.1234113 0.13282309 0.13907322 0.13474648 0.13491023 0.13535848 0.1362285 0.13774386 0.13857722 0.13552654 0.13604864 0.13500585 0.13194792 0.12754259 0.12329881 -0.00012193239 -0.0001167075 -0.00011034823999999998 -0.00010265321 -9.330873600000001e-05 -8.197793100000001e-05 -6.855795100000001e-05 -0.00016876805 -0.00016188135000000001 -0.0001534945 -0.00014333299 -0.00013094023000000002 -0.00011579686000000002 -9.768291800000001e-05 -7.7219665e-05 -0.00022993384 -0.00022107437999999998 -0.00021024249 -0.00019705023000000002 -0.00018081858 -0.00016073791 -0.00013638733 -0.00010858348 -0.00031290605 -0.00030159624 -0.00028767917 -0.00027059123 -0.0002493168 -0.00022260944 -0.00018975267 -0.00015180648000000002 -0.00042683365999999996 -0.00041244589 -0.00039460487 -0.00037248083 -0.00034457415999999995 -0.00030911832999999997 -0.00026496403999999997 -0.00021329132000000002 -0.00058271224 -0.00056449999 -0.00054173102 -0.00051328441 -0.00047740067000000004 -0.00043173660999999995 -0.00037411443 -0.00030505011 -0.0007938920200000001 -0.00077098462 -0.0007422121700000001 -0.00070674758 -0.00066314515 -0.00060831942 -0.00053779519 -0.00044870597999999997 -0.0010768983 -0.0010482398 -0.0010126489 -0.0009707310800000001 -0.00092247711 -0.0008643231699999999 -0.00078732375 -0.00067962037 -0.0014525376 -0.0014168593 -0.0013737426 -0.0013268343 -0.0012796861 -0.0012299537 -0.0011623146 -0.0010471861 -0.0019471960999999998 -0.00190272 -0.0018505160999999998 -0.0017989547 -0.0017582548000000002 -0.0017312343 -0.0016973723999999999 -0.0015974267000000001 -0.0025939764 -0.0025379355 -0.0024728614 -0.0024126982 -0.0023772751 -0.0023798107000000002 -0.0023987899 -0.0023348555 -0.0034340720000000003 -0.0033625825 -0.0032780275 -0.0031991547 -0.0031557753999999997 -0.0031733409999999997 -0.0032285041999999997 -0.0031574606 -0.0045186225 -0.0044272216 -0.0043149949 -0.0042033866 -0.004129258 -0.0041249840999999995 -0.0041510491 -0.0039873789000000005 -0.0059107412 -0.005795416899999999 -0.005648254399999999 -0.005491626899999999 -0.0053657526 -0.0053027822 -0.005236531599999999 -0.0049386905 -0.0076876953 -0.0075457510999999994 -0.0073590497 -0.007151355999999999 -0.0069663692 -0.006832508399999999 -0.0066658766000000005 -0.0062516113 -0.0099431509 -0.0097740162 -0.0095456429 -0.0092865191 -0.0090480354 -0.0088623045 -0.008624455 -0.0081846938 -0.01278916 -0.012596113 -0.012326505 -0.01201674 -0.011732453 -0.011519929 -0.011258507 -0.010825857 -0.016357288 -0.016150046 -0.015845841 -0.015488937 -0.015163237 -0.014927235 -0.014645436999999999 -0.014205495 -0.0207984 -0.020596001 -0.020274917 -0.019886823 -0.019532203999999997 -0.019277113000000002 -0.018937748 -0.018404698 -0.026280144 -0.026114224 -0.025809936000000002 -0.025427345 -0.025083359 -0.024838883 -0.024409023999999998 -0.023663484 -0.032980174 -0.032897878 -0.032665513 -0.03235377 -0.032096703 -0.031935528 -0.03141265 -0.030366327999999998 -0.041068066 -0.04113308 -0.041053317 -0.040915083 -0.040874623 -0.040942896 -0.040374078 -0.038875021 -0.050661467 -0.05095052 -0.05112827599999999 -0.0513088 -0.051681139 -0.052237317000000005 -0.051779032 -0.049672104 -0.061733101 -0.062324472 -0.062876321 -0.063548192 -0.06459809799999999 -0.066040628 -0.066044532 -0.06316158200000001 -0.07395038 -0.074899204 -0.075919554 -0.077241808 -0.079267405 -0.082184732 -0.08332479 -0.079610489 -0.08646433099999999 -0.08774846800000001 -0.08922673800000001 -0.09124157599999999 -0.09449033400000001 -0.09962593 -0.10309057 -0.09869562800000001 -0.09769351800000001 -0.09909626099999999 -0.10075848 -0.10320558 -0.10769276 -0.11583752 -0.12331156 -0.11894776 -0.10514956 -0.10607024 -0.10716981 -0.10926312 -0.11452627 -0.12633686 -0.14001489 -0.13716406 -0.10533404 -0.10457538 -0.10370892 -0.10414146 -0.10907815 -0.12426656 -0.14632753 -0.14738561 -0.093701825 -0.08934313099999999 -0.084377989 -0.081138887 -0.08459549400000001 -0.10174435 -0.13133509 -0.13961451 -0.065040261 -0.054529957000000004 -0.042691297999999996 -0.033332646 -0.033166587000000004 -0.051463202 -0.082193904 -0.099152535 -0.014851518000000001 0.0046181381 0.026313573 0.044676028 0.051384352 0.041324422 0.020111158 -0.0020882934 0.058421161 0.08926589800000001 0.12331635 0.15364984 0.17457598 0.1907409 0.1995025 0.17033993 0.15106344 0.19458194 0.24234344 0.28701451 0.32832778 0.38666674 0.43894854 0.39856786 0.2527225 0.30861622 0.36944744 0.42738083 0.48732084 0.58231902 0.66857028 0.60692251 0.34752557 0.41397268 0.48560178 0.55358958 0.62474316 0.73703444 0.83118474 0.74382168 0.41896504 0.49322712 0.57249045 0.64636999 0.72063661 0.83307278 0.91682279 0.81246555 0.45780778 0.53699958 0.6208877 0.69762242 0.77099466 0.87664568 0.94755405 0.83152258 0.46618068 0.54783487 0.63395828 0.7116996 0.78319865 0.8821314 0.94273758 0.81947827 0.45394728 0.53624946 0.62291586 0.70058513 0.77040988 0.8649081 0.91968191 0.79332042 0.43221968 0.51396573 0.60006368 0.67705989 0.74578983 0.83848822 0.89194381 0.76589936 0.40835795 0.48875341 0.57353556 0.64948308 0.71772462 0.81104082 0.86695099 0.74352288 0.3843011 0.46274292 0.5456084 0.62002343 0.68728036 0.78002363 0.83721507 0.71764266 0.35802686 0.43395621 0.51435077 0.58674878 0.65236676 0.7428816 0.79959232 0.68489099 0.32660332 0.39943957 0.47682214 0.54675663 0.61014062 0.69692457 0.75167549 0.64303875 0.28893587 0.3580651 0.43189734 0.49897879 0.55968076 0.64163023 0.69349861 0.59226161 0.24680319 0.31160694 0.38136217 0.4452486 0.50299537 0.57947105 0.62751746 0.53571492 0.20404103 0.26401135 0.32924843 0.38964418 0.44424874 0.51501232 0.55947602 0.47845283 0.16462593 0.21954878 0.28006062 0.33680061 0.3881599 0.45325574 0.495395 0.42552873 0.13117336 0.18122455 0.2371027 0.29017103 0.33829001 0.39787972 0.43790492 0.37919074 0.1046711 0.15033509 0.20179109 0.25110966 0.29597202 0.35015553 0.38674647 0.3381888 0.084975339 0.12679371 0.1738952 0.21913768 0.26054883 0.30935222 0.34121978 0.30100632 0.071454525 0.10978262 0.1522629 0.19281821 0.23036668 0.27396405 0.30016166 0.26909477 0.063450575 0.09830482300000001 0.13556018 0.17057504 0.20410766 0.24327978 0.26393548 0.24345845 0.060374431 0.09140937 0.12275603 0.15174684 0.18170689 0.21750741 0.23412172 0.22575045 0.06157741 0.08820958400000001 0.11324204 0.13660198 0.16431548 0.19593248 0.20774564 0.065972276 0.08759751199999999 0.10663155 0.12627101 0.1531096 0.17757575 0.18289191 0.071968235 0.08843960599999999 0.10322416 0.12263227 0.14810321 0.16307001 0.077886626 0.090368919 0.10505091 0.12700821 0.148469 0.1543615 0.083441988 0.09608534 0.11472274 0.13813038 0.1525702 0.09281842400000001 0.11029479 0.13233128 0.15143408 0.11288647 0.13290574 0.15029736 0.15973899 0.13595425 0.14693823 0.14072622 
VonMises3D 1 2975 float
0.0 0.0 0.0 0.0 0.0 0.0 0.0 0.0 0.0 0.0 0.0 0.0 0.0 5.7448148e-07 0.0 4.3950231e-06 2.4790872e-05 9.8404898e-06 6.9528556e-05 0.00018195111000000001 9.6104959e-05 0.00035387647000000006 0.0007091769900000001 0.00039707389 0.0011269214 0.00198776 0.0011044167 0.0027502356 0.004529695 0.0024341105 0.0056428545999999994 0.008944452700000001 0.0046052835 0.010256873 0.015908511 0.0078564351 0.017113781 0.026205892 0.012517893 0.026943715 0.04092915 0.019126287 0.040913079 0.061831683 0.028573472000000003 0.060907107 0.091861241 0.043200232000000005 0.090158209 0.13662228 0.079591133 0.138546 0.20781045 0.22027741 0.26074028 0.32786334 0.69110221 0.65841907 0.52716058 1.9605675999999999 1.716073 0.82815385 3.8126771 1.3218188 0.0 0.0 0.0 0.0 0.0 0.0 0.0 0.0 0.0 0.0 0.0 0.0 0.0 0.0 0.0 0.0 0.0 0.0 0.0 0.0 0.0 0.0 0.0 0.0 0.0 3.6292914e-08 1.118735e-07 5.993334200000001e-08 8.8132452e-08 1.4946885e-07 1.6751901999999997e-07 1.8053136999999998e-07 3.5849396000000003e-06 7.598625400000001e-06 9.2022092e-06 6.762029e-06 1.2405015e-06 4.6885225e-06 8.262864900000001e-06 9.3159724e-06 5.3967538000000005e-05 7.4695723e-05 7.5694959e-05 5.4856049000000005e-05 1.8256469e-05 2.1231179000000004e-05 5.0834442e-05 6.6189707e-05 0.00028996138 0.00034427183 0.00032427392000000004 0.00023045618 8.5317341e-05 6.791929600000001e-05 0.00018659676 0.00025501451 0.0009877138099999999 0.0010900162 0.0009871844699999997 0.00069090334 0.00026371927000000005 0.00017949157 0.00052516256 0.0007296540400000001 0.0025824506 0.0027391161 0.0024245162 0.0016759547 0.00064196455 0.00041235104 0.0012314682000000002 0.0017182783999999999 0.0056646783 0.0058771325 0.0051283538 0.0035012396999999995 0.0013212917999999999 0.00085531175 0.0025262798 0.0035130015999999997 0.010952701 0.011221476999999999 0.009688491 0.0065142005 0.0023793170999999998 0.0016426129 0.0046798359 0.006450485400000001 0.019252665 0.019570478999999998 0.016693292 0.031473193 0.031794116000000004 0.048855036 0.049030233 0.073438406 0.073277034 0.10875984 0.10793457 0.16413973 0.16427407 0.27941605 0.31135258 0.59093422 0.78725457 1.3751028 2.0472667 2.9376242 4.685760500000001 5.2339201 8.8930311 0.0 0.0 0.0 0.0 0.0 0.0 0.0 0.0 0.0 0.0 0.0 0.0 0.0 0.0 0.0 0.0 0.0 0.0 0.0 0.0 0.0 0.0 0.0 0.0 0.0 0.0 0.0 1.891743e-07 1.9469073e-07 1.9814657e-07 2.0015189000000003e-07 2.012507e-07 2.0186266e-07 2.0215123e-07 2.0226793e-07 2.0231168e-07 9.6520725e-06 9.74675e-06 9.68944e-06 9.553687099999999e-06 9.3889284e-06 9.227384900000002e-06 9.0889525e-06 8.9845316e-06 8.9197274e-06 7.0384631e-05 7.053740399999999e-05 6.9335125e-05 6.7450535e-05 6.5370397e-05 6.3408312e-05 6.1754094e-05 6.0516562000000005e-05 5.9754202e-05 0.00028165829 0.00028370308999999997 0.00027723967999999997 0.00026759345 0.00025706395000000003 0.00024717027999999997 0.00023883287 0.00023258905 0.00022874022 0.0008156868300000001 0.00082904164 0.00080814766 0.00077626569 0.0007414415 0.00070865743 0.00068097311 0.0006601936200000001 0.00064736389 0.0019249419 0.0019598610000000002 0.0019095496 0.0018275982999999998 0.0017380699 0.0016536610999999999 0.0015822610999999998 0.0015285671 0.0014953614 0.003925744 0.0039871344 0.0038777292 0.0036991234 0.0035046303999999996 0.003321389 0.0031663156 0.0030495732 0.0029772848 0.007170184499999999 0.007249617 0.007026726800000001 0.0066811121 0.0063072089 0.0059559424 0.0056588831000000004 0.005435164100000001 0.0052965116000000005 0.0 0.0 0.0 0.0 0.0 0.0 0.0 0.0 0.0 0.0 0.0 0.0 0.0 0.0 0.0 0.0 0.0 0.0 0.0 0.0 0.0 0.0 0.0 0.0 2.0231857000000003e-07 2.0231168e-07 2.0226793e-07 2.0215124e-07 2.0186269e-07 2.0125074e-07 2.0015186e-07 1.9814657e-07 8.8978004e-06 8.9197256e-06 8.984528e-06 9.0889525e-06 9.227385800000001e-06 9.3889284e-06 9.553688900000001e-06 9.6894428e-06 5.949671e-05 5.9754198e-05 6.0516562000000005e-05 6.1754094e-05 6.3408319e-05 6.5370412e-05 6.7450543e-05 6.9335132e-05 0.00022744146 0.00022874016 0.00023258898999999996 0.00023883287 0.00024717027999999997 0.00025706401 0.00026759351 0.00027723971 0.00064303051 0.00064736378 0.0006601935000000001 0.0006809731699999999 0.0007086575500000001 0.0007414416199999999 0.0007762659200000001 0.00080814777 0.0014841354 0.0014953616 0.0015285669 0.0015822610999999998 0.0016536609 0.0017380703 0.0018275987 0.0019095498999999998 0.0029528257 0.0029772848 0.0030495729 0.0031663158 0.0033213894 0.0035046309 0.0036991234 0.0038777303000000003 0.0052495641000000004 0.0052965116000000005 0.0054351636 0.0056588831000000004 0.005955942 0.0063072093999999995 0.006681114 0.0070267281999999995 0.0 0.0 0.0 0.0 0.0 0.0 0.0 0.0 0.0 0.0 0.0 0.0 0.0 0.0 0.0 0.0 0.0 0.0 0.0 0.0 0.0 0.0 0.0 0.0 0.0 0.0 0.0 1.9469076e-07 1.8917437e-07 1.8053143e-07 1.6751899999999998e-07 1.4946883e-07 8.813252399999999e-08 5.9933328e-08 1.1187348e-07 3.6292892e-08 9.7467509e-06 9.6520762e-06 9.3159724e-06 8.262863e-06 4.6885229000000006e-06 1.2405005e-06 6.7620299e-06 9.2022074e-06 7.5986213e-06 7.0537419e-05 7.038464500000001e-05 6.6189707e-05 5.0834442e-05 2.1231173e-05 1.8256475e-05 5.4856049000000005e-05 7.5694945e-05 7.469569400000001e-05 0.00028370312 0.00028165831 0.00025501451 0.00018659678 6.7919311e-05 8.5317348e-05 0.00023045621 0.00032427389 0.0003442718 0.00082904182 0.0008156869400000001 0.0007296540400000001 0.00052516273 0.00017949153000000002 0.0002637193 0.00069090351 0.00098718423 0.0010900161000000001 0.0019598615 0.0019249420999999998 0.0017182783999999999 0.0012314684 0.00041235122 0.00064196473 0.0016759553 0.0024245165 0.0027391159 0.003987135399999999 0.0039257454 0.0035130035 0.0025262812 0.0008553123300000001 0.0013212909 0.0035012404 0.0051283538 0.0058771325 0.0072496198 0.0071701835999999994 0.0064504873 0.0046798368 0.0016426135999999998 0.0023793164 0.0065142005 0.009688491 0.011221473999999999 0.016693293999999997 0.019570478999999998 0.03179412 0.049030248 0.073277041 0.10793459 0.16427414 0.31135267 0.78725481 2.0472677 4.685760500000001 8.893034 0.0 0.0 0.0 0.0 0.0 0.0 0.0 0.0 0.0 0.0 0.0 0.0 0.0 0.0 0.0 3.5849382000000003e-06 5.7448136e-07 0.0 0.0 5.3967527e-05 2.4790863e-05 4.3950226e-06 0.0 0.00028996138 0.00018195111000000001 6.9528556e-05 9.8404898e-06 0.0009877138099999999 0.0007091769900000001 0.00035387641 9.6104966e-05 0.0025824504 0.0019877602 0.0011269210000000001 0.00039707383 0.0056646778 0.0045296964 0.0027502360999999997 0.0011044167 0.010952702 0.0089444546 0.0056428545999999994 0.0024341105 0.019252663 0.015908511 0.010256873 0.004605283 0.031473193 0.026205895 0.017113779 0.0078564351 0.048855055 0.040929157 0.026943715 0.012517891000000001 0.073438413 0.061831683 0.040913082999999996 0.019126287 0.10875984 0.091861241 0.060907103 0.028573478 0.16413975 0.13662231 0.09015820199999999 0.043200235999999996 0.27941608 0.20781046 0.138546 0.07959114 0.59093404 0.32786334 0.26074028 0.22027743 1.3751029 0.52716053 0.65841919 0.69110233 2.9376245 0.82815367 1.716073 1.9605682 5.233919599999999 1.3218188 3.8126767 0.0 0.0 0.0 0.0 0.0 0.0 0.0 0.0 0.0 0.0 0.0 0.0 0.0 0.0 0.0 0.0 0.0 0.0 0.0 0.0 0.0 0.0 0.0 0.0 0.0 0.0 0.0 0.0 0.0 0.0 0.0 0.0 0.0 0.0 0.0 0.0 0.0 0.0 0.0 0.0 0.0 0.0 0.0 0.0 0.0 0.0 0.0 0.0 0.0 0.0 0.0 0.0 0.0 0.0 0.0 0.0 0.0 0.0 0.0 0.0 0.0 0.0 0.0 0.0 0.0 0.0 0.0 0.0 0.0 0.0 0.0 0.0 0.0 0.0 0.0 0.0 0.0 0.0 0.0 0.0 0.0 0.0 0.0 0.0 0.0 0.0 0.0 0.0 0.0 0.0 0.0 0.0 0.0 0.0 0.0 0.0 0.0 0.0 0.0 0.0 0.0 0.0 0.0 0.0 0.0 0.0 0.0 0.0 0.0 0.0 0.0 0.0 0.0 0.0 0.0 0.0 0.0 0.0 0.0 0.0 0.0 0.0 0.0 0.0 0.0 0.0 0.0 0.0 0.0 0.0 0.0 0.0 0.0 0.0 0.0 0.0 0.0 0.0 0.0 0.0 0.0 0.0 0.0 0.0 0.0 0.0 0.0 0.0 0.0 0.0 0.0 0.0 0.0 0.0 0.0 0.0 0.0 0.0 0.0 0.0 0.0 0.0 0.0 0.0 0.0 0.0 0.0 0.0 0.0 0.0 0.0 0.0 0.0 0.0 0.0 0.0 0.0 0.0 0.0 0.0 0.0 0.0 0.0 0.0 0.0 0.0 0.0 0.0 0.0 0.0 0.0 0.0 0.0 0.0 0.0 0.0 0.0 0.0 0.0 0.0 0.0 0.0 0.0 0.0 0.0 0.0 0.0 0.0 0.0 0.0 0.0 0.0 0.0 0.0 0.0 0.0 0.0 0.0 0.0 0.0 0.0 0.0 0.0 0.0 0.0 0.0 0.0 0.0 0.0 0.0 0.0 0.0 0.0 0.0 0.0 0.0 0.0 0.0 0.0 0.0 0.0 0.0 0.0 0.0 0.0 0.0 0.0 0.0 0.0 0.0 0.0 0.0 0.0 0.0 0.0 0.0 0.0 0.0 0.0 0.0 0.0 0.0 0.0 0.0 0.0 0.0 0.0 0.0 0.0 0.0 0.0 0.0 0.0 0.0 0.0 0.0 0.0 0.0 0.0 0.0 0.0 0.0 0.0 0.0 0.0 0.0 0.0 0.0 0.0 0.0 0.0 0.0 0.0 0.0 0.0 0.0 0.0 0.0 0.0 0.0 0.0 0.0 0.0 0.0 0.0 0.0 0.0 0.0 0.0 0.0 0.0 0.0 0.0 0.0 0.0 0.0 0.0 0.0 0.0 0.0 0.0 0.0 0.0 0.0 0.0 0.0 0.0 0.0 0.0 0.0 0.0 0.0 0.0 0.0 0.0 0.0 0.0 0.0 0.0 0.0 0.0 0.0 0.0 0.0 0.0 0.0 0.0 0.0 0.0 0.0 0.0 0.0 0.0 0.0 0.0 0.0 0.0 0.0 0.0 0.0 0.0 0.0 0.0 0.0 0.0 0.0 0.0 0.0 0.0 0.0 0.0 0.0 0.0 0.0 0.0 0.0 0.0 0.0 0.0 0.0 0.0 0.0 0.0 0.0 0.0 0.0 0.0 0.0 0.0 0.0 0.0 0.0 0.0 0.0 0.0 0.0 0.0 0.0 0.0 0.0 0.0 0.0 0.0 0.0 0.0 0.0 0.0 0.0 0.0 0.0 0.0 0.0 0.0 0.0 0.0 0.0 0.0 0.0 0.0 0.0 0.0 0.0 0.0 0.0 0.0 0.0 0.0 0.0 0.0 0.0 0.0 0.0 0.0 0.0 0.0 0.0 0.0 0.0 0.0 0.0 0.0 0.0 0.0 0.0 0.0 0.0 0.0 0.0 0.0 0.0 0.0 0.0 0.0 0.0 0.0 0.0 0.0 0.0 0.0 0.0 0.0 0.0 0.0 0.0 0.0 0.0 0.0 0.0 0.0 0.0 0.0 0.0 0.01087913 0.0038400510999999997 0.0029445965999999996 0.0079917172 0.010887956 0.025613662000000002 0.017029725 0.00572317 0.0049894867 0.012856908 0.017291818 0.039120592 0.025516132 0.0081129996 0.0081434902 0.01992904 0.026439194 0.057991479000000005 0.037256207 0.011137228 0.012979562 0.030236755 0.039560985 0.084591031 0.053528629 0.01487012 0.020441321999999998 0.045362331 0.058521807 0.12773883 0.0797019 0.02244723 0.032621086 0.067944705 0.086197853 0.26083758 0.17359783 0.076766692 0.060036622000000005 0.10316579 0.12739789 0.73003739 0.523844 0.28002739 0.14714506 0.16324626 0.19066991 1.9519988999999998 1.4165066000000002 0.7815848 0.36991686 0.27566546 0.29090127 4.408763400000001 3.1464615 1.7199008000000002 0.78798687 0.47896308 0.4514915 8.0974522 5.6721268 3.0413396 1.3799181 0.80023807 0.70379215 11.965743 8.262165099999999 4.3583813 2.0185006000000003 1.2553908999999999 1.0857545 14.193467000000002 9.7456188 5.125091599999999 2.6027253 1.8905574 1.6432333 13.723864 9.4242325 5.189978099999999 3.3088428999999997 2.8047156 2.4295859 11.144679 7.895898799999999 5.3205152 4.534635099999999 4.1009569 3.5029998 8.6851034 7.3238478 6.6994429 6.4793625 5.8574471 4.931381200000001 9.6380301 9.441885899999999 9.437871000000001 9.1518383 8.166988400000001 6.8023906 13.703245 13.438528 13.232476 12.640506 11.168341 9.2274828 19.581757 18.769039000000003 18.139179000000002 17.147968 15.036613000000001 12.343886 27.753335999999997 25.801584 24.450798000000002 22.910795 19.978247 16.33246 38.792759000000004 34.807732 32.379829 30.204109000000003 26.27553 21.462334 53.283611 45.968703999999995 42.191948 39.444714000000005 34.388317 28.183331 71.121765 59.07056800000001 54.294197 51.432896 45.179394 37.29538 92.55477900000001 74.228264 69.831245 67.878731 60.329432999999995 50.227314 116.57831000000002 91.906715 91.493607 92.31480400000001 83.049583 69.500374 142.14063000000002 114.1521 125.2821 131.68538 119.32365 99.53433199999999 171.1855 148.45831 183.24634 198.45662 179.54097 147.88648999999998 210.22194 210.43481 285.68204 311.362 279.33905 226.42777999999998 283.48107999999996 330.25284 458.67307 492.34252999999995 438.72107 351.22098 444.02853 561.6700400000001 725.31964 764.39301 679.62573 539.71606 811.69958 974.315 1121.9124 1150.8052 1018.3219 805.2669099999999 1595.7767 1738.9386 1739.5654 1668.7043 1458.8256 1149.8451 3006.3032 3039.1628 2654.23 2334.9917 1987.5142 1558.5265 4820.8506 4706.8828 3775.0547 3090.0774 2564.01 1998.5055 6334.8042 6167.8965 4799.5034 3807.2051 3118.1819 2423.8428 7169.0479 7083.002 5543.8545 4392.2168 3593.5696 2793.7034 7520.6553 7539.2266 6002.0698 4812.3325 3957.7839 3082.418 7634.5151 7745.8911 6265.4019 5089.4121 4209.0439 3283.8376 7652.2441 7829.7881 6405.459 5252.3125 4360.6689 3405.9312 7641.3853 7851.4229 6462.2632 5326.1289 4431.0029 3462.6782 7621.6069 7834.4819 6457.415 5329.8604 4436.458 3467.2278 7603.7661 7793.0947 6404.0186 5275.3228 4387.5786 3428.0945 7473.4722 7644.9712 6270.1548 5158.2583 4287.5537 3348.9487 7224.1641 7385.3613 6054.5156 4979.6797 4137.9941 3231.2317 6865.0806 7021.2158 5761.1621 4742.2954 3941.0681 3076.6462 6412.6309 6566.4434 5398.8994 4451.9043 3701.2673 2888.6975 5888.9253 6038.7441 4980.7593 4117.7256 3425.9019 2673.1956 5316.854 5461.3867 4522.0894 3751.3481 3124.7266 2438.0742 4719.0669 4860.8521 4040.9199 3366.3242 2809.0759 2192.6064 4116.9741 4257.0801 3557.9114 2978.3511 2491.3367 1946.6671 3523.324 3669.1399 3092.7056 2602.637 2183.375 1709.7048 2946.1829 3115.5227 2661.7551 2251.448 1894.5964 1489.2712 2400.7258 2606.0247 2274.6226 1931.9733 1630.4242 1289.3654 1893.6733 2145.2808 1933.3531 1647.1265 1392.293 1110.7635 1447.837 1736.2587 1636.9077 1399.175 1181.6378 952.65527 1368.256 1378.0162 1191.5118 1001.3899 815.09125 1028.7191 1132.4358 1020.7114 854.13812 698.81061 875.2196 862.92865 736.77856 603.4314 646.5210599999999 683.58459 631.01276 524.63849 501.66125 504.78168 448.91525 365.04677999999996 351.39932000000005 343.56314 242.98322000000002 0.012019603 0.012085873 0.01166456 0.01105262 0.010397699 0.0097850477 0.0092676962 0.0088780895 0.0086364737 0.018942153 0.018933551 0.018191988 0.017178457 0.01610758 0.015110713000000001 0.014270501000000001 0.013637992 0.013245606000000002 0.028723598 0.028533738 0.027292671 0.025683183 0.024005266 0.022451917000000002 0.02114586 0.02016367 0.019554561 0.042615753 0.042068586 0.04005228 0.03754935 0.034975316 0.032607336 0.030622985 0.029133841 0.028211672 0.062505633 0.06131291 0.058086593 0.054223336 0.050304323 0.04672483400000001 0.043739028 0.041506231 0.040127262000000004 0.09119550900000001 0.088843055 0.083700813 0.077742934 0.071783185 0.06638424799999999 0.061908435 0.058578505999999995 0.056530092000000004 0.13297904 0.1283958 0.12012754 0.11090601 0.10183532 0.093701616 0.08701261099999999 0.082069613 0.079044499 0.19473743 0.18550514 0.17190894 0.15751393 0.14368935 0.13146694 0.12152092 0.11423282 0.10979997 0.28753504 0.26846719 0.24546094 0.22271568 0.20161329 0.18332754 0.16865277 0.15801002 0.15158299 0.42813 0.38938487 0.34973723 0.31343088 0.28120792 0.25402302 0.23258974 0.21723819 0.2080441 0.63976473 0.56487566 0.49678102 0.43876094 0.38973054 0.3496657 0.31874603 0.29692322 0.28397772 0.95184427 0.81614941 0.70198524 0.61031008 0.53643674 0.47809887 0.43414503 0.40363544 0.38573161 1.3989837 1.1686433999999999 0.98410755 0.84245068 0.73299795 0.64941239 0.58799464 0.54612285 0.52183998 2.0204020000000003 1.6518370999999998 1.3653798000000001 1.1527572 0.99418485 0.87677675 0.7926079 0.73627168 0.70400214 2.8609996 2.2999107999999997 1.8722538 1.5630666000000002 1.3391739 1.1778923000000001 1.0649004 0.99060059 0.94855762 3.9746120000000005 3.1536326 2.5374951 2.1018372000000003 1.7940692999999999 1.5775079 1.4287978000000001 1.3325239 1.2786343999999998 5.4282246 4.264355200000001 3.4045317 2.8087645 2.3964612 2.1116319 1.9189726999999999 1.7956505 1.7271457 7.3062716 5.701171400000001 4.535489599999999 3.7429620999999997 3.2030317999999998 2.8341179 2.5863211 2.4283302000000004 2.3407412 9.721509 7.563959599999999 6.025240900000001 4.996387 4.301268599999999 3.8262491 3.5054687999999996 3.2995415 3.1847022000000003 12.836857 10.007038 8.0244598 6.7140985 5.825904799999999 5.2093668 4.784207299999999 4.5059223 4.3485403 16.908472 13.279422 10.774389999999999 9.121886300000002 7.979455499999999 7.159506299999999 6.573767200000001 6.1791186 5.9515395 22.361988 17.784916 14.6523 12.558861 11.054167999999999 9.9214468 9.0775776 8.4912882 8.146575 29.910156 24.157785 20.217955 17.505281 15.447972 13.816951000000001 12.554482 11.655242999999999 11.118746 40.717220000000005 33.343338 28.243603000000004 24.588335 21.661398000000002 19.238047 17.310195999999998 15.914441 15.07419 56.637890000000006 46.681019 39.714191 34.550686 30.260601 26.614674 23.668404000000002 21.516266 20.213898 80.640953 66.048302 55.822796 48.192703 41.81023 36.352345 31.917294000000002 28.662951 26.687464000000002 117.59951000000001 94.235863 78.066513 66.345016 56.809978 48.764267 42.243118 37.448685 34.530792 175.28766000000002 135.59093000000001 108.55762 89.954369 75.685036 64.032692 54.683617000000005 47.809447999999996 43.614414000000004 264.66376 196.42975 150.34753 120.2641 98.848984 82.216049 69.116676 59.505047 53.623466 398.23007 284.33316 207.25385 158.83978000000002 126.75522 103.27893 85.276375 72.133781 64.073204 585.91229 405.75397000000004 282.73282 207.15503999999999 159.79004 127.08952 102.7889 85.190575 74.38290400000001 829.67865 562.43427 377.91098 265.68872000000005 197.94388 153.35291 121.21784 98.172043 84.014648 1119.0323 748.2616 489.67474000000004 332.90036000000003 240.35367000000002 181.4742 140.09528 110.68948 92.62769300000001 1430.5074 948.7307099999999 610.1264 404.79941 285.03864 210.44731000000002 158.91693 122.52923999999999 100.17416 1732.9043 1144.2544 728.29047 475.70288 329.19006 238.94632000000001 177.16488999999999 133.65881000000002 106.90286 1997.1589 1316.2227 833.47565 539.90967 369.92123 265.62453999999997 194.39731 144.21156000000002 113.28877 2204.6572 1452.4086 918.3666400000001 593.27869 404.96729 289.3425 210.21502999999998 154.30315 119.76693 2350.0728 1548.9604 980.22614 633.85614 432.93512000000004 309.15735 224.0611 163.69002 126.30323999999999 2438.5598 1608.7317 1020.0523 661.51086 453.16708 324.26653999999996 235.17252000000002 171.7041 132.30855 2479.9995 1637.6616 1040.6683 677.1120599999999 465.51559000000003 334.077 242.78949 177.53242 136.95366 2483.7346 1641.4301 1044.9436 681.77716 470.15903 338.31018 246.41106000000002 180.55415 139.55261000000002 2455.7837 1623.7394 1034.895 676.48682 467.5087 337.06588999999997 245.94887000000003 180.55633999999998 139.81616 2398.8508 1586.3735 1011.7044 662.06818 458.17819000000003 330.8031 241.73377999999997 177.76756 137.90573 2314.0352 1530.2236 976.2058699999999 639.34125 442.95099000000005 320.23544 234.39255 172.73578999999998 134.31699 2202.6433 1456.3636 929.38025 609.24353 422.71472 306.17767000000003 224.65961000000001 166.1259 129.66926999999998 2067.3015 1366.7085 872.64807 572.89209 398.39404 289.41598999999997 213.21007000000003 158.5274 124.49766000000001 1912.3256 1264.2354 807.97644 531.60608 370.92227 270.64304 200.56668 150.33751 119.11842 1743.6041 1152.9191 737.8588900000001 486.91275 341.25174 250.4633 187.09618 141.74628 113.60463999999999 1568.12 1037.4956 665.22668 440.54031 310.38821 229.44997999999998 173.0851 132.83446 107.9039 1393.3613 923.12036 593.30865 394.38754 279.4104 208.19464 158.82237 123.69214 101.98918 1226.5742 814.9038099999999 525.39063 350.42365 249.43668 187.30476000000002 144.61276 114.44305 95.881866 1073.5948 717.2432299999999 464.44089 310.50467000000003 221.5486 167.36243000000002 130.73838999999998 105.19944 89.604401 937.72839 632.86865 412.64609 276.15268 196.70872 148.90146000000001 117.44422 96.034805 83.145149 819.22748 562.1518599999999 370.94196 248.34282000000002 175.71916000000002 132.44371 104.98268999999999 87.009178 76.460052 715.90588 503.01129000000003 338.45403999999996 227.27431 159.14548 118.53853000000001 93.699875 78.254311 69.540749 625.0543200000001 451.69600999999994 312.32473999999996 212.04195 147.09489 107.66371000000001 84.06665 70.082359 62.551398999999996 545.5354 404.76736 288.54172 200.12044 138.85573 99.933388 76.50529499999999 62.951977 55.893612 477.88457999999997 361.77954 264.20633 188.01164 132.30675 94.660461 71.038597 57.186413 49.999645 420.66684000000004 324.58398 240.54987000000003 174.04928999999998 124.68196 89.890854 66.828232 52.604786 44.98637 369.73026 292.12741 220.68402000000003 160.93993999999998 115.79141000000001 83.868217 62.252079 48.345802 40.536407000000004 314.82846 259.75217000000004 202.61948 150.50757 108.27196 77.37311600000001 56.61099599999999 43.432571 35.961479 237.2975 217.28569 179.33487 138.16937 100.79732 71.140869 50.533634 37.782745 30.856739 160.0126 150.52873 140.70642 116.58028 87.749802 62.211315 43.415062 31.617327000000003 25.403788 110.6862 86.244522 79.654678 64.75692 45.966049 30.340171999999995 20.348679 15.230685999999999 56.884884 37.693256 25.016071 13.362859 4.8059726 1.2169098999999999 32.76096 13.046011 2.0596595 3.8314449999999995 0.0085546132 0.0086364718 0.0088780895 0.0092676962 0.0097850468 0.010397702 0.011052621 0.011664563000000001 0.01311261 0.013245606000000002 0.013637993000000001 0.014270501000000001 0.015110713000000001 0.01610758 0.017178457 0.018191991 0.019348135 0.019554563 0.020163674 0.02114586 0.022451917000000002 0.024005271 0.025683185 0.027292676000000002 0.027899387999999997 0.028211672 0.029133847 0.030622989 0.032607339 0.034975316 0.037549347000000004 0.040052295 0.039661023999999996 0.040127262000000004 0.041506235 0.043739025 0.04672483400000001 0.050304315999999995 0.054223347000000005 0.058086589 0.05583908 0.056530092000000004 0.058578505999999995 0.061908443 0.066384263 0.071783178 0.077742949 0.083700843 0.078026898 0.079044499 0.08206960599999999 0.087012589 0.093701594 0.1018353 0.11090601 0.12012757 0.10831372 0.10979997 0.11423281 0.12152088 0.13146691 0.14368936 0.1575139 0.171909 0.1494361 0.15158296 0.15800996 0.16865274 0.18332753 0.20161329 0.22271568 0.24546108 0.2049859 0.20804405 0.21723808 0.23258966 0.25402296 0.28120789 0.31343091 0.34973732 0.27969232 0.28397772 0.29692307 0.31874597 0.34966564 0.38973057 0.438761 0.49678111 0.37983677 0.38573152 0.40363541 0.43414491 0.47809881 0.53643668 0.61031008 0.70198524 0.51389265 0.52184004 0.54612285 0.58799452 0.64941239 0.73299783 0.84245032 0.98410767 0.69350761 0.70400202 0.7362718 0.79260778 0.87677664 0.99418485 1.1527566999999999 1.3653796 0.93497092 0.94855738 0.99060059 1.0649003000000001 1.1778921999999998 1.3391739 1.5630662 1.8722538 1.261319 1.2786342 1.3325242 1.4287978000000001 1.5775079 1.7940691999999998 2.1018369 2.5374951 1.7052231 1.7271456000000003 1.7956502 1.9189726999999999 2.1116316000000004 2.3964615 2.8087645 3.404532 2.3127332000000003 2.3407412 2.4283304 2.5863211 2.8341181 3.2030311 3.7429616 4.535489599999999 3.1478565 3.1847026 3.2995417000000002 3.5054684000000003 3.8262484 4.301268599999999 4.9963875 6.0252395 4.2976741999999994 4.3485398 4.5059233 4.7842064 5.2093668 5.8259039 6.714098 8.0244608 5.8772817 5.9515400000000005 6.1791182000000004 6.573765799999999 7.1595073000000005 7.979456900000001 9.1218834 10.774394000000001 8.0330133 8.146575 8.491287199999999 9.0775757 9.9214458 11.054167999999999 12.558859 14.652303 10.940769 11.118748 11.655239 12.554482 13.816951000000001 15.447969 17.50528 20.217951 14.794324 15.074186 15.914442000000001 17.310194 19.238047 21.661396 24.588341 28.243599 19.779095 20.213898 21.516264000000003 23.668404000000002 26.614664 30.260596999999997 34.550694 39.714199 26.026779 26.687458000000003 28.662945 31.917282 36.352345 41.810219000000004 48.192696000000005 55.822784 33.553429 34.530792 37.448692 42.243126000000004 48.764267 56.809982 66.34503199999999 78.066505 42.206745 43.614426 47.809459999999994 54.683613 64.0327 75.685028 89.954369 108.55766000000001 51.645393 53.623451 59.505058 69.11666899999999 82.216042 98.849007 120.26414 150.34755 61.355877 64.073204 72.133797 85.276421 103.27893 126.75523000000001 158.83973999999998 207.25386 70.731567 74.38290400000001 85.190575 102.78891 127.08956 159.79002 207.15503 282.73285 79.222511 84.014656 98.17205 121.21786000000002 153.35294 197.94392 265.68872000000005 377.91092000000003 86.504143 92.62767 110.68948 140.09526 181.47421 240.35374 332.90045 489.67467999999997 92.584282 100.17413 122.52923999999999 158.91695 210.44738999999998 285.03873 404.7995 610.1264 97.80632 106.90287 133.65884 177.16493 238.94635 329.19012000000004 475.70285 728.29053 102.76069 113.28872 144.21153 194.39729 265.62453999999997 369.9212 539.90967 833.4754 107.99269 119.76695 154.30315 210.21507000000003 289.34252999999995 404.96704 593.27863 918.3663300000001 113.54193000000001 126.30318 163.68996 224.06102 309.1572 432.93503 633.85583 980.2262599999999 118.84875 132.30847 171.70406 235.17233 324.26642000000004 453.16699000000006 661.51068 1020.0522 123.07996999999999 136.95363 177.53239 242.78947000000002 334.0769 465.51538 677.1120599999999 1040.6683 125.52826 139.55266 180.55408 246.41112 338.31012000000004 470.15909000000005 681.77716 1044.9432 125.87798000000001 139.81621 180.5564 245.9489 337.0658 467.50858 676.48676 1034.8951 124.26723 137.90581 177.76761000000002 241.73389 330.80319 458.17812999999995 662.06805 1011.7041 121.17367 134.317 172.73592 234.39267 320.23547 442.95105 639.34113 976.2058699999999 117.20111000000001 129.66933 166.12601999999998 224.65967999999998 306.17758 422.71445 609.24347 929.38037 112.86603999999998 124.49775 158.5275 213.21007999999998 289.41589 398.3938 572.89209 872.64844 108.4564 119.11849 150.33758999999998 200.56668 270.64291000000003 370.92208999999997 531.6059 807.97632 104.00341 113.60466000000001 141.74634 187.09615 250.46317000000002 341.25162 486.91263 737.85901 99.407845 107.90395 132.83446 173.08505 229.44983 310.38821 440.54015999999996 665.22662 94.60323299999999 101.98917 123.69209 158.82227 208.1945 279.41022000000004 394.38745 593.30841 89.577415 95.881805 114.44299 144.61269 187.30461 249.43658 350.42355 525.39063 84.324219 89.60436999999999 105.19941999999999 130.7383 167.36229 221.54849 310.50455 464.44073 78.80663299999999 83.145096 96.034729 117.44408 148.90134 196.70859 276.15268 412.64603 72.949265 76.460014 87.009117 104.98262 132.44366000000002 175.71903999999998 248.34277000000003 370.94189 66.696732 69.540726 78.254295 93.699821 118.53848 159.14543 227.27428999999998 338.45401 60.156612 62.551398999999996 70.082321 84.066582 107.66368 147.09486 212.04199 312.32473999999996 53.69783 55.893604 62.951942 76.505241 99.933334 138.85573 200.12048000000001 288.54166000000004 47.777065 49.999645 57.186398 71.038574 94.660423 132.30671999999998 188.0116 264.2063 42.592548 44.986374 52.604767 66.828224 89.890839 124.68195 174.04924 240.54991 38.016921999999994 40.536407000000004 48.345787 62.252056 83.86820999999999 115.79143 160.93993 220.68402000000003 33.530758 35.961479 43.432552 56.610981 77.37311600000001 108.27196 150.50755 202.61954 28.656772999999998 30.856728000000004 37.782742 50.533623 71.140854 100.79729 138.16937 179.33488 23.496408 25.403772 31.617331 43.415058 62.211315 87.749809 116.58031000000001 140.70642 13.716856 15.230672 20.34865 30.340171999999995 45.966064 64.756927 79.654671 86.244522 2.3214327999999997 1.2169208999999999 4.8059688 13.362843 25.016071 37.693233 56.884907 5.610604299999999 3.8314489999999997 2.0596716 13.046027 32.760956 0.012085875 0.012019604 0.010887963 0.00799172 0.0029445987 0.0038400509 0.010879132 0.018933557 0.018942159 0.017291825 0.012856913999999999 0.0049894927000000006 0.0057231671999999996 0.017029725 0.02561366 0.028533749 0.028723612000000003 0.026439199 0.019929055 0.0081435023 0.0081129894 0.025516132 0.039120596 0.042068586 0.042615775 0.039561 0.030236769 0.012979576000000001 0.011137217 0.037256204 0.057991485999999995 0.061312914 0.06250567 0.058521832999999995 0.045362361 0.020441331 0.0148701 0.053528633 0.084591039 0.08884306300000001 0.091195554 0.08619786800000001 0.06794472 0.032621093 0.022447225 0.079701893 0.12773889 0.12839584 0.13297911 0.12739789 0.10316582 0.060036611 0.076766722 0.17359784 0.26083764 0.18550514 0.19473752 0.19066994 0.1632463 0.14714505 0.28002745 0.52384406 0.73003763 0.26846719 0.28753513 0.29090136 0.27566549 0.36991686 0.78158504 1.416507 1.9520004000000002 0.38938487 0.42813003 0.45149159 0.47896296 0.78798687 1.7199016 3.1464612 4.4087639 0.56487566 0.6397649 0.70379215 0.80023813 1.379918 3.0413398999999997 5.6721281999999995 8.097456900000001 0.81614941 0.95184439 1.0857546 1.2553906000000001 2.0184999 4.3583798 8.262165099999999 11.965743 1.1686436000000002 1.398984 1.6432338 1.8905576000000002 2.6027248 5.125090599999999 9.745617900000001 14.193469 1.6518372 2.0204022 2.4295859 2.8047156 3.3088428999999997 5.1899790999999995 9.4242344 13.723870999999999 2.2999104999999997 2.8609996 3.5030002999999996 4.100956 4.5346364999999995 5.320516099999999 7.8958998 11.144682000000001 3.1536334 3.9746129999999997 4.9313822 5.8574471 6.479362999999999 6.6994433 7.323846799999999 8.6851034 4.2643542000000005 5.4282246 6.802392 8.1669893 9.151840199999999 9.4378729 9.441888800000001 9.6380281 5.7011704000000005 7.3062739 9.2274828 11.168343 12.640509 13.232479000000001 13.438532 13.703242999999999 7.563958199999999 9.721509900000001 12.343888 15.036617000000001 17.147966 18.139185 18.769047 19.581764 10.00704 12.836861 16.332466 19.978254 22.910803 24.450804 25.801596 27.753342 13.279426 16.908478 21.462334 26.275532000000002 30.204117 32.379822 34.807728000000004 38.792767 17.784917999999998 22.361992 28.183342 34.388325 39.444728999999995 42.191963 45.968712 53.283618999999995 24.157784 29.91017 37.295383 45.179394 51.432907 54.294201 59.07056800000001 71.121765 33.343342 40.717242999999996 50.227333 60.329449 67.87874599999999 69.831245 74.22827099999999 92.554817 46.681026 56.637917 69.500389 83.049614 92.314819 91.49363699999999 91.9067 116.57833000000001 66.048294 80.640961 99.534348 119.3237 131.68538 125.2821 114.1521 142.14066 94.235901 117.59955 147.88651000000002 179.541 198.45667 183.2464 148.45827 171.18549 135.59093000000001 175.28766000000002 226.4278 279.33905 311.36203 285.68216 210.43486000000001 210.22197999999997 196.42972 264.66373 351.22098 438.7211 492.34259000000003 458.67312999999996 330.25284 283.48114 284.33316 398.23007 539.71625 679.6256099999999 764.39282 725.31964 561.67029 444.02862999999996 405.75378 585.91229 805.26666 1018.3217 1150.8053 1121.9121 974.31506 811.69934 562.43427 829.6787099999999 1149.845 1458.8256 1668.7043 1739.5659 1738.9385 1595.7771 748.2617799999999 1119.0326 1558.5267 1987.5143 2334.9922 2654.2297 3039.1626 3006.303 948.7308300000001 1430.5073 1998.5057 2564.0095 3090.0767 3775.0547 4706.8823 4820.8511 1144.2545 1732.9042 2423.8425 3118.1821 3807.2041 4799.5029 6167.894 6334.8047 1316.2227 1997.1588 2793.7031 3593.5698 4392.2163 5543.8545 7083.0 7169.0488 1452.4083 2204.6572 3082.4172 3957.7832 4812.3325 6002.0688 7539.2246 7520.6553 1548.9606 2350.0728 3283.8379 4209.043 5089.4111 6265.4014 7745.8901 7634.5161 1608.7317 2438.5598 3405.9307 4360.6685 5252.3125 6405.4585 7829.7871 7652.2441 1637.6615 2479.9988 3462.6772 4431.0029 5326.1284 6462.2622 7851.4209 7641.3853 1641.4296 2483.7349 3467.2271 4436.4575 5329.8594 6457.4136 7834.4839 7621.6099 1623.7394 2455.7837 3428.0942 4387.5786 5275.3208 6404.0171 7793.0918 7603.7646 1586.3735 2398.8506 3348.9482 4287.5537 5158.2568 6270.1543 7644.9722 7473.4712 1530.2239 2314.0352 3231.2322 4137.9932 4979.6797 6054.5156 7385.3608 7224.1641 1456.3636 2202.6438 3076.6458 3941.0671 4742.2949 5761.1616 7021.2173 6865.0825 1366.7084 2067.3013 2888.6975 3701.2678 4451.9033 5398.8979 6566.4419 6412.6309 1264.235 1912.3259 2673.1956 3425.9021 4117.7241 4980.7588 6038.7441 5888.9243 1152.9191 1743.6049 2438.0745 3124.7268 3751.3474 4522.0908 5461.3848 5316.8545 1037.4956 1568.1196 2192.6064 2809.0757 3366.3245 4040.9194 4860.8525 4719.0674 923.12048 1393.3608 1946.6677 2491.3364 2978.3506 3557.9109 4257.0801 4116.9746 814.90399 1226.5743 1709.7048 2183.3752 2602.6365 3092.7061 3669.1389 3523.325 717.24316 1073.5947 1489.271 1894.5962 2251.4478 2661.7554 3115.5229 2946.1831 632.86865 937.7285800000001 1289.3654 1630.4238 1931.9733 2274.6226 2606.0234 2400.7258 562.15179 819.2275400000001 1110.7635 1392.2926 1647.1262 1933.3531 2145.2815 1893.6733 503.01129000000003 715.90576 952.65527 1181.6378 1399.1749 1636.9075 1736.2583 1447.8367 451.69600999999994 625.0542 815.091 1001.3899 1191.5118 1378.0162 1368.2566 404.76724 545.5351 698.8104900000001 854.13806 1020.7115 1132.4359 1028.719 361.77951 477.88452 603.43127 736.77844 862.9287099999999 875.21985 324.58405 420.66684000000004 524.63837 631.01263 683.58453 646.5210599999999 292.12747 369.73016 448.91515999999996 504.78165 501.66115999999994 259.75226000000004 314.82846 351.39935 365.04697000000004 217.28567999999999 237.29755 242.98322000000002 343.56305 150.52867 160.0126 110.68621 
Vel 3 2975 float
0.0 0.0 0.0 0.0 0.0 0.0 0.0 0.0 0.0 0.0 0.0 0.0 0.0 0.0 0.0 0.0 0.0 0.0 0.0 0.0 0.0 0.0 0.0 0.0 0.0 0.0 0.0 0.0 0.0 0.0 0.0 0.0 0.0 0.0 0.0 0.0 0.0 0.0 0.0 0.0 0.0 0.0 0.0 0.0 0.0 0.0 0.0 0.0 0.0 0.0 0.0 0.0 0.0 0.0 0.0 0.0 0.0 0.0 0.0 0.0 0.0 0.0 0.0 0.0 0.0 0.0 0.0 0.0 0.0 0.0 0.0 0.0 0.0 0.0 0.0 0.0 0.0 0.0 0.0 0.0 0.0 0.0 0.0 0.0 0.0 0.0 0.0 0.0 0.0 0.0 0.0 0.0 0.0 0.0 0.0 0.0 0.0 0.0 0.0 0.0 0.0 0.0 0.0 0.0 0.0 0.0 0.0 0.0 0.0 0.0 0.0 0.0 0.0 0.0 0.0 0.0 0.0 0.0 0.0 0.0 0.0 0.0 0.0 0.0 0.0 0.0 0.0 0.0 0.0 0.0 0.0 0.0 0.0 0.0 0.0 0.0 0.0 0.0 0.0 0.0 0.0 0.0 0.0 0.0 0.0 0.0 0.0 0.0 0.0 0.0 0.0 0.0 0.0 0.0 0.0 0.0 0.0 0.0 0.0 0.0 0.0 0.0 0.0 0.0 0.0 0.0 0.0 0.0 0.0 0.0 0.0 0.0 0.0 0.0 0.0 0.0 0.0 0.0 0.0 0.0 0.0 0.0 0.0 0.0 0.0 0.0 0.0 0.0 0.0 0.0 0.0 0.0 0.0 0.0 0.0 0.0 0.0 0.0 0.0 0.0 0.0 0.0 0.0 0.0 0.0 0.0 0.0 0.0 0.0 0.0 0.0 0.0 0.0 0.0 0.0 0.0 0.0 0.0 0.0 0.0 0.0 0.0 0.0 0.0 0.0 0.0 0.0 0.0 0.0 0.0 0.0 0.0 0.0 0.0 0.0 0.0 0.0 0.0 0.0 0.0 0.0 0.0 0.0 0.0 0.0 0.0 0.0 0.0 0.0 0.0 0.0 0.0 0.0 0.0 0.0 0.0 0.0 0.0 0.0 0.0 0.0 0.0 0.0 0.0 0.0 0.0 0.0 0.0 0.0 0.0 0.0 0.0 0.0 0.0 0.0 0.0 0.0 0.0 0.0 0.0 0.0 0.0 0.0 0.0 0.0 0.0 0.0 0.0 0.0 0.0 0.0 0.0 0.0 0.0 0.0 0.0 0.0 0.0 0.0 0.0 0.0 0.0 0.0 0.0 0.0 0.0 0.0 0.0 0.0 0.0 0.0 0.0 0.0 0.0 0.0 0.0 0.0 0.0 0.0 0.0 0.0 0.0 0.0 0.0 0.0 0.0 0.0 0.0 0.0 0.0 0.0 0.0 0.0 0.0 0.0 0.0 0.0 0.0 0.0 0.0 0.0 0.0 0.0 0.0 0.0 0.0 0.0 0.0 0.0 0.0 0.0 0.0 0.0 0.0 0.0 0.0 0.0 0.0 0.0 0.0 0.0 0.0 0.0 0.0 0.0 0.0 0.0 0.0 0.0 0.0 0.0 0.0 0.0 0.0 0.0 0.0 0.0 0.0 0.0 0.0 0.0 0.0 0.0 0.0 0.0 0.0 0.0 0.0 0.0 0.0 0.0 0.0 0.0 0.0 0.0 0.0 0.0 0.0 0.0 0.0 0.0 0.0 0.0 0.0 0.0 0.0 0.0 0.0 0.0 0.0 0.0 0.0 0.0 0.0 0.0 0.0 0.0 0.0 0.0 0.0 0.0 0.0 0.0 0.0 0.0 0.0 0.0 0.0 0.0 0.0 0.0 0.0 0.0 0.0 0.0 0.0 0.0 0.0 0.0 0.0 0.0 0.0 0.0 0.0 0.0 0.0 0.0 0.0 0.0 0.0 0.0 0.0 0.0 0.0 0.0 0.0 0.0 0.0 0.0 0.0 0.0 0.0 0.0 0.0 0.0 0.0 0.0 0.0 0.0 0.0 0.0 0.0 0.0 0.0 0.0 0.0 0.0 0.0 0.0 0.0 0.0 0.0 0.0 0.0 0.0 0.0 0.0 0.0 0.0 0.0 0.0 0.0 0.0 0.0 0.0 0.0 0.0 0.0 0.0 0.0 0.0 0.0 0.0 0.0 0.0 0.0 0.0 0.0 0.0 0.0 0.0 0.0 0.0 0.0 0.0 0.0 0.0 0.0 0.0 0.0 0.0 0.0 0.0 0.0 0.0 0.0 0.0 0.0 0.0 0.0 0.0 0.0 0.0 0.0 0.0 0.0 0.0 0.0 0.0 0.0 0.0 0.0 0.0 0.0 0.0 0.0 0.0 0.0 0.0 0.0 0.0 0.0 0.0 0.0 0.0 0.0 0.0 0.0 0.0 0.0 0.0 0.0 0.0 0.0 0.0 0.0 0.0 0.0 0.0 0.0 0.0 0.0 0.0 0.0 0.0 0.0 0.0 0.0 0.0 0.0 0.0 0.0 0.0 0.0 0.0 0.0 0.0 0.0 0.0 0.0 0.0 0.0 0.0 0.0 0.0 0.0 0.0 0.0 0.0 0.0 0.0 0.0 0.0 0.0 0.0 0.0 0.0 0.0 0.0 0.0 0.0 0.0 0.0 0.0 0.0 0.0 0.0 0.0 0.0 0.0 0.0 0.0 0.0 0.0 0.0 0.0 0.0 0.0 0.0 0.0 0.0 0.0 0.0 0.0 0.0 0.0 0.0 0.0 0.0 0.0 0.0 0.0 0.0 0.0 0.0 0.0 0.0 0.0 0.0 0.0 0.0 0.0 0.0 0.0 0.0 0.0 0.0 0.0 0.0 0.0 0.0 0.0 0.0 0.0 0.0 0.0 0.0 0.0 0.0 0.0 0.0 0.0 0.0 0.0 0.0 0.0 0.0 0.0 0.0 0.0 0.0 0.0 0.0 0.0 0.0 0.0 0.0 0.0 0.0 0.0 0.0 0.0 0.0 0.0 0.0 0.0 0.0 0.0 0.0 0.0 0.0 0.0 0.0 0.0 0.0 0.0 0.0 0.0 0.0 0.0 0.0 0.0 0.0 0.0 0.0 0.0 0.0 0.0 0.0 0.0 0.0 0.0 0.0 0.0 0.0 0.0 0.0 0.0 0.0 0.0 0.0 0.0 0.0 0.0 0.0 0.0 0.0 0.0 0.0 0.0 0.0 0.0 0.0 0.0 0.0 0.0 0.0 0.0 0.0 0.0 0.0 0.0 0.0 0.0 0.0 0.0 0.0 0.0 0.0 0.0 0.0 0.0 0.0 0.0 0.0 0.0 0.0 0.0 0.0 0.0 0.0 0.0 0.0 0.0 0.0 0.0 0.0 0.0 0.0 0.0 0.0 0.0 0.0 0.0 0.0 0.0 0.0 0.0 0.0 0.0 0.0 0.0 0.0 0.0 0.0 0.0 0.0 0.0 0.0 0.0 0.0 0.0 0.0 0.0 0.0 0.0 0.0 0.0 0.0 0.0 0.0 0.0 0.0 0.0 0.0 0.0 0.0 0.0 0.0 0.0 0.0 0.0 0.0 0.0 0.0 0.0 0.0 0.0 0.0 0.0 0.0 0.0 0.0 0.0 0.0 0.0 0.0 0.0 0.0 0.0 0.0 0.0 0.0 0.0 0.0 0.0 0.0 0.0 0.0 0.0 0.0 0.0 0.0 0.0 0.0 0.0 0.0 0.0 0.0 0.0 0.0 0.0 0.0 0.0 0.0 0.0 0.0 0.0 0.0 0.0 0.0 0.0 0.0 0.0 0.0 0.0 0.0 0.0 0.0 0.0 0.0 0.0 0.0 0.0 0.0 0.0 0.0 0.0 0.0 0.0 0.0 0.0 0.0 0.0 0.0 0.0 0.0 0.0 0.0 0.0 0.0 0.0 0.0 0.0 0.0 0.0 0.0 0.0 0.0 0.0 0.0 0.0 0.0 0.0 0.0 0.0 0.0 0.0 0.0 0.0 0.0 0.0 0.0 0.0 0.0 0.0 0.0 0.0 0.0 0.0 0.0 0.0 0.0 0.0 0.0 0.0 0.0 0.0 0.0 0.0 0.0 0.0 0.0 0.0 0.0 0.0 0.0 0.0 0.0 0.0 0.0 0.0 0.0 0.0 0.0 0.0 0.0 0.0 0.0 0.0 0.0 0.0 0.0 0.0 0.0 0.0 0.0 0.0 0.0 0.0 0.0 0.0 0.0 0.0 0.0 0.0 0.0 0.0 0.0 0.0 0.0 0.0 0.0 0.0 0.0 0.0 0.0 0.0 0.0 0.0 0.0 0.0 0.0 0.0 0.0 0.0 0.0 0.0 0.0 0.0 0.0 0.0 0.0 0.0 0.0 0.0 0.0 0.0 0.0 0.0 0.0 0.0 0.0 0.0 0.0 0.0 0.0 0.0 0.0 0.0 0.0 0.0 0.0 0.0 0.0 0.0 0.0 0.0 0.0 0.0 0.0 0.0 0.0 0.0 0.0 0.0 0.0 0.0 0.0 0.0 0.0 0.0 0.0 0.0 0.0 0.0 0.0 0.0 0.0 0.0 0.0 0.0 0.0 0.0 0.0 0.0 0.0 0.0 0.0 0.0 0.0 0.0 0.0 0.0 0.0 0.0 0.0 0.0 0.0 0.0 0.0 0.0 0.0 0.0 0.0 0.0 0.0 0.0 0.0 0.0 0.0 0.0 0.0 0.0 0.0 0.0 0.0 0.0 0.0 0.0 0.0 0.0 0.0 0.0 0.0 0.0 0.0 0.0 0.0 0.0 0.0 0.0 0.0 0.0 0.0 0.0 0.0 0.0 0.0 0.0 0.0 0.0 0.0 0.0 0.0 0.0 0.0 0.0 0.0 0.0 0.0 0.0 0.0 0.0 0.0 0.0 0.0 0.0 0.0 0.0 0.0 0.0 0.0 0.0 0.0 0.0 0.0 0.0 0.0 0.0 0.0 0.0 0.0 0.0 0.0 0.0 0.0 0.0 0.0 0.0 0.0 0.0 0.0 0.0 0.0 0.0 0.0 0.0 0.0 0.0 0.0 0.0 0.0 0.0 0.0 0.0 0.0 0.0 0.0 0.0 0.0 0.0 0.0 0.0 0.0 0.0 0.0 0.0 0.0 0.0 0.0 0.0 0.0 0.0 0.0 0.0 0.0 0.0 0.0 0.0 0.0 0.0 0.0 0.0 0.0 0.0 0.0 0.0 0.0 0.0 0.0 0.0 0.0 0.0 0.0 0.0 0.0 0.0 0.0 0.0 0.0 0.0 0.0 0.0 0.0 0.0 0.0 0.0 0.0 0.0 0.0 0.0 0.0 0.0 0.0 0.0 0.0 0.0 0.0 0.0 0.0 0.0 0.0 0.0 0.0 0.0 0.0 0.0 0.0 0.0 0.0 0.0 0.0 0.0 0.0 0.0 0.0 0.0 0.0 0.0 0.0 0.0 0.0 0.0 0.0 0.0 0.0 0.0 0.0 0.0 0.0 0.0 0.0 0.0 0.0 0.0 0.0 0.0 0.0 0.0 0.0 0.0 0.0 0.0 0.0 0.0 0.0 0.0 0.0 0.0 0.0 0.0 0.0 0.0 0.0 0.0 0.0 0.0 0.0 0.0 0.0 0.0 0.0 0.0 0.0 0.0 0.0 0.0 0.0 0.0 0.0 0.0 0.0 0.0 0.0 0.0 0.0 0.0 0.0 0.0 0.0 0.0 0.0 0.0 0.0 0.0 0.0 0.0 0.0 0.0 0.0 0.0 0.0 0.0 0.0 0.0 0.0 0.0 0.0 0.0 0.0 0.0 0.0 0.0 0.0 0.0 0.0 0.0 0.0 0.0 0.0 0.0 0.0 0.0 0.0 0.0 0.0 0.0 0.0 0.0 0.0 0.0 0.0 0.0 0.0 0.0 0.0 0.0 0.0 0.0 0.0 0.0 0.0 0.0 0.0 0.0 0.0 0.0 0.0 0.0 0.0 0.0 0.0 0.0 0.0 0.0 0.0 0.0 0.0 0.0 0.0 0.0 0.0 0.0 0.0 0.0 0.0 0.0 0.0 0.0 0.0 0.0 0.0 0.0 0.0 0.0 0.0 0.0 0.0 0.0 0.0 0.0 0.0 0.0 0.0 0.0 0.0 0.0 0.0 0.0 0.0 0.0 0.0 0.0 0.0 0.0 0.0 0.0 0.0 0.0 0.0 0.0 0.0 0.0 0.0 0.0 0.0 0.0 0.0 0.0 0.0 0.0 0.0 0.0 0.0 0.0 0.0 0.0 0.0 0.0 0.0 0.0 0.0 0.0 0.0 0.0 0.0 0.0 0.0 0.0 0.0 0.0 0.0 0.0 0.0 0.0 0.0 0.0 0.0 0.0 0.0 0.0 0.0 0.0 0.0 0.0 0.0 0.0 0.0 0.0 0.0 0.0 0.0 0.0 0.0 0.0 0.0 0.0 0.0 0.0 0.0 0.0 0.0 0.0 0.0 0.0 0.0 0.0 0.0 0.0 0.0 0.0 0.0 0.0 0.0 0.0 0.0 0.0 0.0 0.0 0.0 0.0 0.0 0.0 0.0 0.0 0.0 0.0 0.0 0.0 0.0 0.0 0.0 0.0 0.0 0.0 0.0 0.0 0.0 0.0 0.0 0.0 0.0 0.0 0.0 0.0 0.0 0.0 0.0 0.0 0.0 0.0 0.0 0.0 0.0 0.0 0.0 0.0 0.0 0.0 0.0 0.0 0.0 0.0 0.0 0.0 0.0 0.0 0.0 0.0 0.0 0.0 0.0 0.0 0.0 0.0 0.0 0.0 0.0 0.0 0.0 0.0 0.0 0.0 0.0 0.0 0.0 0.0 0.0 0.0 0.0 0.0 0.0 0.0 0.0 0.0 0.0 0.0 0.0 0.0 0.0 0.0 0.0 0.0 0.0 0.0 0.0 0.0 0.0 0.0 0.0 0.0 0.0 0.0 0.0 0.0 0.0 0.0 0.0 0.0 0.0 0.0 0.0 0.0 0.0 0.0 0.0 0.0 0.0 0.0 0.0 0.0 0.0 0.0 0.0 0.0 0.0 0.0 0.0 0.0 0.0 0.0 0.0 0.0 0.0 0.0 0.0 0.0 0.0 0.0 0.0 0.0 0.0 0.0 0.0 0.0 0.0 0.0 0.0 0.0 0.0 0.0 0.0 0.0 0.0 0.0 0.0 0.0 0.0 0.0 0.0 0.0 0.0 0.0 0.0 0.0 0.0 0.0 0.0 0.0 0.0 0.0 0.0 0.0 0.0 0.0 0.0 0.0 0.0 0.0 0.0 0.0 0.0 0.0 0.0 0.0 0.0 0.0 0.0 0.0 0.0 0.0 0.0 0.0 0.0 0.0 0.0 0.0 0.0 0.0 0.0 0.0 0.0 0.0 0.0 0.0 0.0 0.0 0.0 0.0 0.0 0.0 0.0 0.0 0.0 0.0 0.0 0.0 0.0 0.0 0.0 0.0 0.0 0.0 0.0 0.0 0.0 0.0 0.0 0.0 0.0 0.0 0.0 0.0 0.0 0.0 0.0 0.0 0.0 0.0 0.0 0.0 0.0 0.0 0.0 0.0 0.0 0.0 0.0 0.0 0.0 0.0 0.0 0.0 0.0 0.0 0.0 0.0 0.0 0.0 0.0 0.0 0.0 0.0 0.0 0.0 0.0 0.0 0.0 0.0 0.0 0.0 0.0 0.0 0.0 0.0 0.0 0.0 0.0 0.0 0.0 0.0 0.0 0.0 0.0 0.0 0.0 0.0 0.0 0.0 0.0 0.0 0.0 0.0 0.0 0.0 0.0 0.0 0.0 0.0 0.0 0.0 0.0 0.0 0.0 0.0 0.0 0.0 0.0 0.0 0.0 0.0 0.0 0.0 0.0 0.0 0.0 0.0 0.0 0.0 0.0 0.0 0.0 0.0 0.0 0.0 0.0 0.0 0.0 0.0 0.0 0.0 0.0 0.0 0.0 0.0 0.0 0.0 0.0 0.0 0.0 0.0 0.0 0.0 0.0 0.0 0.0 0.0 0.0 0.0 0.0 0.0 0.0 0.0 0.0 0.0 0.0 0.0 0.0 0.0 0.0 0.0 0.0 0.0 0.0 0.0 0.0 0.0 0.0 0.0 0.0 0.0 0.0 0.0 0.0 0.0 0.0 0.0 0.0 0.0 0.0 0.0 0.0 0.0 0.0 0.0 0.0 0.0 0.0 0.0 0.0 0.0 0.0 0.0 0.0 0.0 0.0 0.0 0.0 0.0 0.0 0.0 0.0 0.0 0.0 0.0 0.0 0.0 0.0 0.0 0.0 0.0 0.0 0.0 0.0 0.0 0.0 0.0 0.0 0.0 0.0 0.0 0.0 0.0 0.0 0.0 0.0 0.0 0.0 0.0 0.0 0.0 0.0 0.0 0.0 0.0 0.0 0.0 0.0 0.0 0.0 0.0 0.0 0.0 0.0 0.0 0.0 0.0 0.0 0.0 0.0 0.0 0.0 0.0 0.0 0.0 0.0 0.0 0.0 0.0 0.0 0.0 0.0 0.0 0.0 0.0 0.0 0.0 0.0 0.0 0.0 0.0 0.0 0.0 0.0 0.0 0.0 0.0 0.0 0.0 0.0 0.0 0.0 0.0 0.0 0.0 0.0 0.0 0.0 0.0 0.0 0.0 0.0 0.0 0.0 0.0 0.0 0.0 0.0 0.0 0.0 0.0 0.0 0.0 0.0 0.0 0.0 0.0 0.0 0.0 0.0 0.0 0.0 0.0 0.0 0.0 0.0 0.0 0.0 0.0 0.0 0.0 0.0 0.0 0.0 0.0 0.0 0.0 0.0 0.0 0.0 0.0 0.0 0.0 0.0 0.0 0.0 0.0 0.0 0.0 0.0 0.0 0.0 0.0 0.0 0.0 0.0 0.0 0.0 0.0 0.0 0.0 0.0 0.0 0.0 0.0 0.0 0.0 0.0 0.0 0.0 0.0 0.0 0.0 0.0 0.0 0.0 0.0 0.0 0.0 0.0 0.0 0.0 0.0 0.0 0.0 0.0 0.0 0.0 0.0 0.0 0.0 0.0 0.0 0.0 0.0 0.0 0.0 0.0 0.0 0.0 0.0 0.0 0.0 0.0 0.0 0.0 0.0 0.0 0.0 0.0 0.0 0.0 0.0 0.0 0.0 0.0 0.0 0.0 0.0 0.0 0.0 0.0 0.0 0.0 0.0 0.0 0.0 0.0 0.0 0.0 0.0 0.0 0.0 0.0 0.0 0.0 0.0 0.0 0.0 0.0 0.0 0.0 0.0 0.0 0.0 0.0 0.0 0.0 0.0 0.0 0.0 0.0 0.0 0.0 0.0 0.0 0.0 0.0 0.0 0.0 0.0 0.0 0.0 0.0 0.0 0.0 0.0 0.0 0.0 0.0 0.0 0.0 0.0 0.0 0.0 0.0 0.0 0.0 0.0 0.0 0.0 0.0 0.0 0.0 0.0 0.0 0.0 0.0 0.0 0.0 0.0 0.0 0.0 0.0 0.0 0.0 0.0 0.0 0.0 0.0 0.0 0.0 0.0 0.0 0.0 0.0 0.0 0.0 0.0 0.0 0.0 0.0 0.0 0.0 0.0 0.0 0.0 0.0 0.0 0.0 0.0 0.0 0.0 0.0 0.0 0.0 0.0 0.0 0.0 0.0 0.0 0.0 0.0 0.0 0.0 0.0 0.0 0.0 0.0 0.0 0.0 0.0 0.0 0.0 0.0 0.0 0.0 0.0 0.0 0.0 0.0 0.0 0.0 0.0 0.0 0.0 0.0 0.0 0.0 0.0 0.0 0.0 0.0 0.0 0.0 0.0 0.0 0.0 0.0 0.0 0.0 0.0 0.0 0.0 0.0 0.0 0.0 0.0 0.0 0.0 0.0 0.0 0.0 0.0 0.0 0.0 0.0 0.0 0.0 0.0 0.0 0.0 0.0 0.0 0.0 0.0 0.0 0.0 0.0 0.0 0.0 0.0 0.0 0.0 0.0 0.0 0.0 0.0 0.0 0.0 0.0 0.0 0.0 0.0 0.0 0.0 0.0 0.0 0.0 0.0 0.0 0.0 0.0 0.0 0.0 0.0 0.0 0.0 0.0 0.0 0.0 0.0 0.0 0.0 0.0 0.0 0.0 0.0 0.0 0.0 0.0 0.0 0.0 0.0 0.0 0.0 0.0 0.0 0.0 0.0 0.0 0.0 0.0 0.0 0.0 0.0 0.0 0.0 0.0 0.0 0.0 0.0 0.0 0.0 0.0 0.0 0.0 0.0 0.0 0.0 0.0 0.0 0.0 0.0 0.0 0.0 0.0 0.0 0.0 0.0 0.0 0.0 0.0 0.0 0.0 0.0 0.0 0.0 0.0 0.0 0.0 0.0 0.0 0.0 0.0 0.0 0.0 0.0 0.0 0.0 0.0 0.0 0.0 0.0 0.0 0.0 0.0 0.0 0.0 0.0 0.0 0.0 0.0 0.0 0.0 0.0 0.0 0.0 0.0 0.0 0.0 0.0 0.0 0.0 0.0 0.0 0.0 0.0 0.0 0.0 0.0 0.0 0.0 0.0 0.0 0.0 0.0 0.0 0.0 0.0 0.0 0.0 0.0 0.0 0.0 0.0 0.0 0.0 0.0 0.0 0.0 0.0 0.0 0.0 0.0 0.0 0.0 0.0 0.0 0.0 0.0 0.0 0.0 0.0 0.0 0.0 0.0 0.0 0.0 0.0 0.0 0.0 0.0 0.0 0.0 0.0 0.0 0.0 0.0 0.0 0.0 0.0 0.0 0.0 0.0 0.0 0.0 0.0 0.0 0.0 0.0 0.0 0.0 0.0 0.0 0.0 0.0 0.0 0.0 0.0 0.0 0.0 0.0 0.0 0.0 0.0 0.0 0.0 0.0 0.0 0.0 0.0 0.0 0.0 0.0 0.0 0.0 0.0 0.0 0.0 0.0 0.0 0.0 0.0 0.0 0.0 0.0 0.0 0.0 0.0 0.0 0.0 0.0 0.0 0.0 0.0 0.0 0.0 0.0 0.0 0.0 0.0 0.0 0.0 0.0 0.0 0.0 0.0 0.0 0.0 0.0 0.0 0.0 0.0 0.0 0.0 0.0 0.0 0.0 0.0 0.0 0.0 0.0 0.0 0.0 0.0 0.0 0.0 0.0 0.0 0.0 0.0 0.0 0.0 0.0 0.0 0.0 0.0 0.0 0.0 0.0 0.0 0.0 0.0 0.0 0.0 0.0 0.0 0.0 0.0 0.0 0.0 0.0 0.0 0.0 0.0 0.0 0.0 0.0 0.0 0.0 0.0 0.0 0.0 0.0 0.0 0.0 0.0 0.0 0.0 0.0 0.0 0.0 0.0 0.0 0.0 0.0 0.0 0.0 0.0 0.0 0.0 0.0 0.0 0.0 0.0 0.0 0.0 0.0 0.0 0.0 0.0 0.0 0.0 0.0 0.0 0.0 0.0 0.0 0.0 0.0 0.0 0.0 0.0 0.0 0.0 0.0 0.0 0.0 0.0 0.0 0.0 0.0 0.0 0.0 0.0 0.0 0.0 0.0 0.0 0.0 0.0 0.0 0.0 0.0 0.0 0.0 0.0 0.0 0.0 0.0 0.0 0.0 0.0 0.0 0.0 0.0 0.0 0.0 0.0 0.0 0.0 0.0 0.0 0.0 0.0 0.0 0.0 0.0 0.0 0.0 0.0 0.0 0.0 0.0 0.0 0.0 0.0 0.0 0.0 0.0 0.0 0.0 0.0 0.0 0.0 0.0 0.0 0.0 0.0 0.0 0.0 0.0 0.0 0.0 0.0 0.0 0.0 0.0 0.0 0.0 0.0 0.0 0.0 0.0 0.0 0.0 0.0 0.0 0.0 0.0 0.0 0.0 0.0 0.0 0.0 0.0 0.0 0.0 0.0 0.0 0.0 0.0 0.0 0.0 0.0 0.0 0.0 0.0 0.0 0.0 0.0 0.0 0.0 0.0 0.0 0.0 0.0 0.0 0.0 0.0 0.0 0.0 0.0 0.0 0.0 0.0 0.0 0.0 0.0 0.0 0.0 0.0 0.0 0.0 0.0 0.0 0.0 0.0 0.0 0.0 0.0 0.0 0.0 0.0 0.0 0.0 0.0 0.0 0.0 0.0 0.0 0.0 0.0 0.0 0.0 0.0 0.0 0.0 0.0 0.0 0.0 0.0 0.0 0.0 0.0 0.0 0.0 0.0 0.0 0.0 0.0 0.0 0.0 0.0 0.0 0.0 0.0 0.0 0.0 0.0 0.0 0.0 0.0 0.0 0.0 0.0 0.0 0.0 0.0 0.0 0.0 0.0 0.0 0.0 0.0 0.0 0.0 0.0 0.0 0.0 0.0 0.0 0.0 0.0 0.0 0.0 0.0 0.0 0.0 0.0 0.0 0.0 0.0 0.0 0.0 0.0 0.0 0.0 0.0 0.0 0.0 0.0 0.0 0.0 0.0 0.0 0.0 0.0 0.0 0.0 0.0 0.0 0.0 0.0 0.0 0.0 0.0 0.0 0.0 0.0 0.0 0.0 0.0 0.0 0.0 0.0 0.0 0.0 0.0 0.0 0.0 0.0 0.0 0.0 0.0 0.0 0.0 0.0 0.0 0.0 0.0 0.0 0.0 0.0 0.0 0.0 0.0 0.0 0.0 0.0 0.0 0.0 0.0 0.0 0.0 0.0 0.0 0.0 0.0 0.0 0.0 0.0 0.0 0.0 0.0 0.0 0.0 0.0 0.0 0.0 0.0 0.0 0.0 0.0 0.0 0.0 0.0 0.0 0.0 0.0 0.0 0.0 0.0 0.0 0.0 0.0 0.0 0.0 0.0 0.0 0.0 0.0 0.0 0.0 0.0 0.0 0.0 0.0 0.0 0.0 0.0 0.0 0.0 0.0 0.0 0.0 0.0 0.0 0.0 0.0 0.0 0.0 0.0 0.0 0.0 0.0 0.0 0.0 0.0 0.0 0.0 0.0 0.0 0.0 0.0 0.0 0.0 0.0 0.0 0.0 0.0 0.0 0.0 0.0 0.0 0.0 0.0 0.0 0.0 0.0 0.0 0.0 0.0 0.0 0.0 0.0 0.0 0.0 0.0 0.0 0.0 0.0 0.0 0.0 0.0 0.0 0.0 0.0 0.0 0.0 0.0 0.0 0.0 0.0 0.0 0.0 0.0 0.0 0.0 0.0 0.0 0.0 0.0 0.0 0.0 0.0 0.0 0.0 0.0 0.0 0.0 0.0 0.0 0.0 0.0 0.0 0.0 0.0 0.0 0.0 0.0 0.0 0.0 0.0 0.0 0.0 0.0 0.0 0.0 0.0 0.0 0.0 0.0 0.0 0.0 0.0 0.0 0.0 0.0 0.0 0.0 0.0 0.0 0.0 0.0 0.0 0.0 0.0 0.0 0.0 0.0 0.0 0.0 0.0 0.0 0.0 0.0 0.0 0.0 0.0 0.0 0.0 0.0 0.0 0.0 0.0 0.0 0.0 0.0 0.0 0.0 0.0 0.0 0.0 0.0 0.0 0.0 0.0 0.0 0.0 0.0 -3.2944912999999997e-06 0.0 -1.2054463e-06 -3.9914252999999995e-06 0.0 -1.1609983000000002e-06 -4.5828147e-06 0.0 -1.0730471999999998e-06 -5.0666272e-06 0.0 -9.6567442e-07 -5.4601887e-06 0.0 -8.444906100000001e-07 -3.7249231000000005e-06 0.0 -1.7889686e-06 -5.0452886e-06 0.0 -1.7486561e-06 -6.1827540999999994e-06 0.0 -1.7056462e-06 -7.115461799999999e-06 0.0 -1.5958893e-06 -7.861731300000001e-06 0.0 -1.4474889999999998e-06 -8.458798199999999e-06 0.0 -1.2678496e-06 -5.697755099999999e-06 0.0 -2.4691689999999998e-06 -7.6859496e-06 0.0 -2.4714493e-06 -9.3916688e-06 0.0 -2.3946253999999997e-06 -1.079255e-05 0.0 -2.2351687e-06 -1.1901211e-05 0.0 -2.0285459e-06 -1.2775588e-05 0.0 -1.7785584e-06 -8.4931107e-06 0.0 -3.404281e-06 -1.1422679e-05 0.0 -3.4137367e-06 -1.3896683e-05 0.0 -3.3070996000000003e-06 -1.591434e-05 0.0 -3.0757467000000005e-06 -1.7494451e-05 0.0 -2.7853978e-06 -1.8726163e-05 0.0 -2.4375884e-06 -1.2409295999999999e-05 0.0 -4.7074186e-06 -1.6631795e-05 0.0 -4.6856389e-06 -2.0146059e-05 0.0 -4.517251e-06 -2.2974535999999997e-05 0.0 -4.1853305e-06 -2.5160061e-05 0.0 -3.7826567e-06 -2.6842645000000003e-05 0.0 -3.3035135e-06 -1.7914078999999998e-05 0.0 -6.5241129e-06 -2.3897559e-05 0.0 -6.4074424999999994e-06 -2.8799470000000002e-05 0.0 -6.1273208e-06 -3.2685537e-05 0.0 -5.6502199e-06 -3.5643832e-05 0.0 -5.095797900000001e-06 -3.7890091e-05 0.0 -4.4446524e-06 -2.5713063e-05 0.0 -9.051361300000001e-06 -3.4052354999999996e-05 0.0 -8.7666076e-06 -4.0783045e-05 0.0 -8.2882898e-06 -4.6032146e-05 0.0 -7.6023507000000006e-06 -4.997518e-05 0.0 -6.8357417e-06 -5.2928855000000004e-05 0.0 -5.955635099999999e-06 -3.6818983e-05 0.0 -1.2623524e-05 -4.8303064e-05 0.0 -1.2011331e-05 -5.7389828999999997e-05 0.0 -1.1218118e-05 -6.4354892e-05 0.0 -1.0243363999999999e-05 -6.9536698e-05 0.0 -9.180690499999999e-06 -7.3373129e-05 0.0 -7.9872789e-06 -5.2731481e-05 0.0 -1.7569291e-05 -6.8205314e-05 0.0 -1.6523255999999998e-05 -8.0289356e-05 0.0 -1.5251664e-05 -8.9411224e-05 0.0 -1.388724e-05 -9.6142714e-05 0.0 -1.240531e-05 -0.00010107489 0.0 -1.0742475e-05 -7.5599812e-05 0.0 -2.4274976e-05 -9.6123986e-05 0.0 -2.2522203e-05 -0.00011176691000000001 0.0 -2.0777141e-05 -0.00012356443000000001 0.0 -1.8863379999999998e-05 -0.00013219428 0.0 -1.6804599e-05 -0.00013844225 0.0 -1.4476330000000001e-05 -0.00010826695 0.0 -3.3383962999999996e-05 -0.00013489933999999998 0.0 -3.0670315e-05 -0.00015483967 0.0 -2.8248727e-05 -0.00016992106 0.0 -2.554148e-05 -0.00018080023 0.0 -2.2746783e-05 -0.00018859583 0.0 -1.9477398000000002e-05 -0.00015273207 0.0 -5.4049808e-05 -0.00018805655 0.0 -4.569826e-05 -0.00021340065 0.0 -4.0156607e-05 -0.00023247353 0.0 -3.5205423e-05 -0.00024598537 0.0 -3.086144e-05 -0.00025550736 0.0 -2.6145002e-05 -0.00022047966 0.0 -9.6623764e-05 -0.00026266318 0.0 -7.5109281e-05 -0.00029344624 0.0 -6.0380837000000004e-05 -0.00031671586 0.0 -4.9878534e-05 -0.00033296397000000006 0.0 -4.222503800000001e-05 -0.00034424513999999995 0.0 -3.5095101e-05 -0.00032014184 0.0 -0.00015526349 -0.00036769576 0.0 -0.00011913131000000002 -0.00040293165 0.0 -9.0666173e-05 -0.00042971575999999995 0.0 -7.130407199999999e-05 -0.00044836564000000004 0.0 -5.8144295000000005e-05 -0.00046124847999999997 0.0 -4.7033678e-05 -0.00045771012 0.0 -0.00022778740000000002 -0.00051101402 0.0 -0.00017498824000000002 -0.00055021199 0.0 -0.00013081801 -0.0005799522 0.0 -9.999230700000001e-05 -0.00060051348 0.0 -7.9197576e-05 -0.0006146467599999999 0.0 -6.2311301e-05 -0.0006403176799999999 0.0 -0.00031361621 -0.00070078677 0.0 -0.00024350938999999998 -0.00074474135 0.0 -0.00018076526 -0.00077762309 0.0 -0.00013619541999999998 -0.0007998306 0.0 -0.00010551811000000001 -0.0008147596400000001 0.0 -8.1257262e-05 -0.00087665743 0.0 -0.00042099855000000004 -0.0009478621699999999 0.0 -0.00032654157 -0.00099862309 0.0 -0.00024161072999999997 -0.0010357496 0.0 -0.00018057447 -0.0010596208 0.0 -0.00013777682 -0.0010747069 0.0 -0.0001042127 -0.0011798886 0.0 -0.00055568223 -0.0012675431 0.0 -0.00042971774000000006 -0.0013284201000000001 0.0 -0.00031647924 -0.0013712076000000001 0.0 -0.00023389078999999999 -0.0013967307000000001 0.0 -0.00017657873 -0.0014107773 0.0 -0.00013179782 -0.0015709839 0.0 -0.00072589202 -0.0016817363 0.0 -0.00055872463 -0.0017562809 0.0 -0.00040806288999999996 -0.0018056 0.0 -0.00029861202 -0.0018315024 0.0 -0.00022285499 -0.001842374 0.0 -0.00016479335 -0.0020790547 0.0 -0.00094379496 -0.0022191801 0.0 -0.00072037504 -0.0023097999 0.0 -0.00052014465 -0.0023647526 0.0 -0.00037628182 -0.0023880876 0.0 -0.00027806932 -0.0023917079 0.0 -0.00020473758999999998 -0.0027401740999999998 0.0 -0.0012198222 -0.0029152136 0.0 -0.00092169194 -0.0030226395000000003 0.0 -0.00065572193 -0.0030793995 0.0 -0.00046914318 -0.003094113 0.0 -0.00034475782999999994 -0.0030839907000000002 0.0 -0.00025463477 -0.0035999903999999997 0.0 -0.0015682111 -0.0038147368 0.0 -0.0011678685 -0.0039366018 0.0 -0.0008176122800000001 -0.0039870287 0.0 -0.00057982095 -0.0039831041 0.0 -0.00042694053 -0.0039489102 0.0 -0.00031984426 -0.0047193617 0.0 -0.0020027277 -0.0049756006 0.0 -0.0014650653 -0.0051040957 0.0 -0.0010074705 -0.0051337540999999995 0.0 -0.00071405747 -0.005096463 0.0 -0.0005313006099999999 -0.005023504099999999 0.0 -0.00041105555 -0.0061798608 0.0 -0.0025417123 -0.006471166899999999 0.0 -0.0018196295 -0.0065888315000000005 0.0 -0.0012351756 -0.0065749884 0.0 -0.00088493002 -0.0064842426000000005 0.0 -0.00067553204 -0.006354835400000001 0.0 -0.00054668001 -0.0080914879 0.0 -0.0032067103000000003 -0.0083913235 0.0 -0.0022407877 -0.008464242299999999 0.0 -0.0015155936 -0.008372161500000001 0.0 -0.0011198528999999998 -0.008203263399999999 0.0 -0.0008912552099999999 -0.0079988455 0.0 -0.00075591292 -0.010600621999999999 0.0 -0.004031715 -0.010838846999999999 0.0 -0.0027475068 -0.010803243 0.0 -0.0018828209 -0.010586548000000001 0.0 -0.0014656099 -0.010308725999999999 0.0 -0.0012324576 -0.010011639000000001 0.0 -0.0010880705 -0.013880068999999998 0.0 -0.0050726668 -0.013913943 0.0 -0.0034037334999999997 -0.01365973 0.0 -0.0024126631 -0.013254456000000001 0.0 -0.0020108372 -0.012837481000000001 0.0 -0.001784542 -0.012436885 0.0 -0.0016099312 -0.018092992 0.0 -0.0064500207 -0.017678043 0.0 -0.0043325177 -0.017038919 0.0 -0.0032497232 -0.016362155 0.0 -0.0028991676 -0.015784651 0.0 -0.0026632973 -0.015282977 0.0 -0.0023917847 -0.02329967 0.0 -0.0083777001 -0.022077182 0.0 -0.0057827616 -0.020845341 0.0 -0.0046394821 -0.019840663 0.0 -0.0042704339000000004 -0.019111203 0.0 -0.0039052812 -0.018522816 0.0 -0.0034519996999999997 -0.029319268 0.0 -0.011254146999999999 -0.026877401000000002 0.0 -0.0082164006 -0.024893282000000003 0.0 -0.0068619875 -0.023659492 0.0 -0.0061181961 -0.022784885 0.0 -0.005474310400000001 -0.022079436 0.0 -0.0047465567 -0.035582688 0.0 -0.015681284 -0.031795248 0.0 -0.01228031 -0.029275954 0.0 -0.009964304 -0.027703626000000002 0.0 -0.0085820565 -0.026643317000000003 0.0 -0.007383393100000001 -0.025710681000000003 0.0 -0.006334439399999999 -0.04125094 0.0 -0.022721017000000003 -0.036603034 0.0 -0.018968608 -0.03373849 0.0 -0.015146814 -0.031897172 0.0 -0.012014731 -0.030402262000000003 0.0 -0.0099102361 -0.029194658999999998 0.0 -0.008281282099999999 -0.045346927 0.0 -0.033349205 -0.04013573 0.0 -0.030073548 -0.037079934 0.0 -0.024555711 -0.035278749 0.0 -0.018165851 -0.033752742999999995 0.0 -0.013556258 -0.032314613 0.0 -0.010705035 -0.046981052 0.0 -0.046486362999999996 -0.041649248 0.0 -0.044769958 -0.0388785 0.0 -0.037907276000000004 -0.037587348 0.0 -0.027190247999999997 -0.036185324 0.0 -0.019060753 -0.034662955 0.0 -0.014087388000000001 -0.044435754 0.0 -0.058261096 -0.040691197 0.0 -0.058493339000000005 -0.038603872000000004 0.0 -0.050790317 -0.037917603 0.0 -0.036258958 -0.036811698 0.0 -0.024721742 -0.035373073 0.0 -0.017679784 -0.036089003 0.0 -0.06624510900000001 -0.035567496000000004 0.0 -0.067736596 -0.034701854 0.0 -0.059835047 -0.0344516 0.0 -0.043113612 -0.033711102 0.0 -0.029413221 -0.032552604 0.0 -0.020897044 -0.025449334 0.0 -0.07096857599999999 -0.02596627 0.0 -0.072406113 -0.026053719 0.0 -0.064475022 -0.025750772999999998 0.0 -0.046853690999999996 -0.025037497000000002 0.0 -0.032256089 -0.024070114 0.0 -0.023084266000000003 -0.01578819 0.0 -0.07365568 -0.016219316 0.0 -0.074694254 -0.016376808 0.0 -0.06651555 -0.016190475 0.0 -0.048651069000000005 -0.015706486999999998 0.0 -0.033818539 -0.01504773 0.0 -0.024430756 -0.0081831804 0.0 -0.07513049200000001 -0.0084794369 0.0 -0.075773902 -0.0086145699 0.0 -0.067398086 -0.0085447412 0.0 -0.04950992 -0.0082921972 0.0 -0.034668975 -0.0079258624 0.0 -0.025236353 -0.0025200229 0.0 -0.075864576 -0.0026809559000000004 0.0 -0.076207198 -0.0027780819 0.0 -0.067676529 -0.0027925167 0.0 -0.049809948 -0.0027275334999999996 0.0 -0.03502376 -0.0026051667999999997 0.0 -0.02561659 0.0019474337 0.0 -0.07609508200000001 0.0019123349 0.0 -0.076254465 0.0018567794 0.0 -0.06759771 0.0017805502 0.0 -0.049742568 0.0016958920999999999 0.0 -0.035015136 0.0016181539 0.0 -0.025659023 0.0060245767 0.0 -0.075868987 0.006100538199999999 0.0 -0.075995132 0.0060793716 0.0 -0.0672644 0.0059496677 0.0 -0.049399219 0.005737073299999999 0.0 -0.034713898 0.0054864530000000005 0.0 -0.025417107999999997 0.010152884000000001 0.0 -0.074700169 0.010324263 0.0 -0.074777074 0.010325191 0.0 -0.06608884799999999 0.010139429 0.0 -0.048456382 0.0098058609 0.0 -0.03400277 0.0093945973 0.0 -0.024874715 0.014330037 0.0 -0.072554238 0.014581673 0.0 -0.072547048 0.014593952 0.0 -0.064020358 0.014347453000000001 0.0 -0.046887562 0.013894686000000002 0.0 -0.032876103999999996 0.013329413 0.0 -0.024040407000000003 0.01829635 0.0 -0.069509923 0.018613435 0.0 -0.06937690099999999 0.018629046 0.0 -0.061110320999999995 0.018320311000000002 0.0 -0.044722705999999994 0.017752774 0.0 -0.031353489 0.017042862 0.0 -0.022930797000000003 0.021732941000000002 0.0 -0.06570342900000001 0.022100171000000002 0.0 -0.065404221 0.022113906000000003 0.0 -0.05747233 0.021746121 0.0 -0.042032067 0.021074655 0.0 -0.029478014 0.020236358 0.0 -0.02157593 0.024384864 0.0 -0.061314537999999995 0.024619419 0.0 -0.060747385 0.024794359 0.0 -0.053267919000000004 0.024375257999999997 0.0 -0.038926162 0.023594507999999997 0.0 -0.027318221 0.02254927 0.0 -0.020027543999999998 0.026142897000000002 0.0 -0.056564994 0.026257917000000002 0.0 -0.055700507 0.026529213 0.0 -0.048683826 0.026049782999999996 0.0 -0.03553091 0.024890454 0.0 -0.024968127000000003 0.023426875 0.0 -0.018371962 0.027286397 0.0 -0.051673412 0.027353974 0.0 -0.050558768 0.027394565 0.0 -0.04392093 0.026604554 0.0 -0.031991362999999995 0.02504498 0.0 -0.022525815 0.023355692999999997 0.0 -0.016665032 0.028317317 0.0 -0.046803642 0.028114522000000003 0.0 -0.045475565 0.027707659 0.0 -0.039191976 0.026543317 0.0 -0.028482297 0.024681242000000003 0.0 -0.02010118 0.02288196 0.0 -0.014963892 0.029670613 0.0 -0.042065285 0.028896177000000002 0.0 -0.040528484 0.027880717000000003 0.0 -0.034706034 0.026297328999999998 0.0 -0.025196287999999997 0.024093492 0.0 -0.017815787 0.022169081 0.0 -0.013354926000000001 0.031734518999999996 0.0 -0.037639879 0.030207822000000002 0.0 -0.03593871 0.028251232999999997 0.0 -0.030668847000000003 0.026002707000000003 0.0 -0.022336686 0.023389859 0.0 -0.0158344 0.021346971 0.0 -0.011922159 0.034949344 0.0 -0.033733379 0.032168131 0.0 -0.031858698 0.028957418999999998 0.0 -0.02725696 0.025741974 0.0 -0.020061335 0.022689492999999998 0.0 -0.014289198000000001 0.020499686 0.0 -0.010675271 0.038662214 0.0 -0.030293474 0.034488667 0.0 -0.028411053 0.029867066 0.0 -0.024611291 0.025541455 0.0 -0.018478762 0.022067517000000002 0.0 -0.013180295 0.019677498999999998 0.0 -0.0096774641 0.041266643 0.0 -0.027498987000000003 0.036105514 0.0 -0.025775537 0.030612117 0.0 -0.022741821000000002 0.025452923 0.0 -0.017557014 0.021623333999999998 0.0 -0.012533895 0.018937467 0.0 -0.008991098000000001 0.03644323 0.0 -0.023755617000000003 0.031007806000000002 0.0 -0.021356042000000002 0.025544947000000002 0.0 -0.017124063999999998 0.02136993 0.0 -0.012316691999999999 0.018363783 0.0 -0.008644713100000001 0.036035046 0.0 -0.021941544 0.031138033 0.0 -0.020134995 0.025913935 0.0 -0.01689643 0.021389371 0.0 -0.012493343 0.018038312 0.0 -0.0086408546 0.031077133 0.0 -0.018987142 0.026497481 0.0 -0.016605541 0.021859958999999998 0.0 -0.012953511000000001 0.018083349 0.0 -0.0090417638 0.030690916000000002 0.0 -0.017982701 0.027030357999999997 0.0 -0.016276268 0.022776162000000003 0.0 -0.013461761000000001 0.018708494 0.0 -0.0098828031 0.027175092999999997 0.0 -0.015931815 0.023748832 0.0 -0.013863648000000001 0.019933973 0.0 -0.010895888999999999 0.02434488 0.0 -0.014051051 0.021433362999999997 0.0 -0.011722026000000002 0.024245778 0.0 -0.013925908999999998 0.022438752000000003 0.0 -0.012212663 -5.773783e-06 0.0 -7.2445204e-07 -6.0209235999999995e-06 0.0 -6.1147807e-07 -6.212468200000001e-06 0.0 -5.1078416e-07 -6.360557599999999e-06 0.0 -4.1745593999999997e-07 -6.4727819e-06 0.0 -3.3376827e-07 -6.5564004e-06 0.0 -2.5715872e-07 -6.6168909000000006e-06 0.0 -1.8612073999999999e-07 -6.6577459e-06 0.0 -1.2069056e-07 -6.6814022999999995e-06 0.0 -5.9309212e-08 -8.9261412e-06 0.0 -1.0895761e-06 -9.289759900000001e-06 0.0 -9.198705e-07 -9.5693858e-06 0.0 -7.6698177e-07 -9.784114800000001e-06 0.0 -6.262951600000001e-07 -9.9461258e-06 0.0 -5.0004525e-07 -1.0066156e-05 0.0 -3.8442525000000004e-07 -1.0152315e-05 0.0 -2.7808341e-07 -1.0210115e-05 0.0 -1.8033455e-07 -1.024334e-05 0.0 -8.8559766e-08 -1.3451043e-05 0.0 -1.5284448000000001e-06 -1.3970732e-05 0.0 -1.2898895e-06 -1.4367302e-05 0.0 -1.0744249999999999e-06 -1.4670004e-05 0.0 -8.7660123e-07 -1.4897528e-05 0.0 -6.989603800000001e-07 -1.5065943e-05 0.0 -5.365837400000001e-07 -1.5186729e-05 0.0 -3.8792808000000003e-07 -1.5267662e-05 0.0 -2.5152264e-07 -1.5314195e-05 0.0 -1.2343077e-07 -1.9666300000000002e-05 0.0 -2.0912141e-06 -2.0382082e-05 0.0 -1.7621635e-06 -2.0924286e-05 0.0 -1.4650634e-06 -2.1335645e-05 0.0 -1.193243e-06 -2.1643778e-05 0.0 -9.5022818e-07 -2.1871792e-05 0.0 -7.2935626e-07 -2.2035596000000002e-05 0.0 -5.2742087e-07 -2.2145599e-05 0.0 -3.4217603999999994e-07 -2.2209018e-05 0.0 -1.6791803e-07 -2.8111421e-05 0.0 -2.8284326e-06 -2.9067302e-05 0.0 -2.3796672000000003e-06 -2.9786266e-05 0.0 -1.9738636e-06 -3.0328092e-05 0.0 -1.6050152e-06 -3.0732412e-05 0.0 -1.2765422999999999e-06 -3.1030907999999996e-05 0.0 -9.794714499999999e-07 -3.1245188e-05 0.0 -7.0857629e-07 -3.1389194000000005e-05 0.0 -4.6014969e-07 -3.1472387e-05 0.0 -2.259345e-07 -3.9563489e-05 0.0 -3.8000526000000003e-06 -4.0810632e-05 0.0 -3.1933419e-06 -4.1740713999999997e-05 0.0 -2.6420670999999997e-06 -4.2435269e-05 0.0 -2.1446469e-06 -4.295016e-05 0.0 -1.7029606999999998e-06 -4.3328352999999995e-05 0.0 -1.3049812e-06 -4.3598797000000005e-05 0.0 -9.437812300000001e-07 -4.3780186000000007e-05 0.0 -6.132094100000001e-07 -4.3884975e-05 0.0 -3.0120125e-07 -5.510268200000001e-05 0.0 -5.0863378e-06 -5.6701992e-05 0.0 -4.2690017e-06 -5.7881472e-05 0.0 -3.5208068e-06 -5.8751193e-05 0.0 -2.8504073e-06 -5.9389011e-05 0.0 -2.2574086e-06 -5.9853064000000006e-05 0.0 -1.725385e-06 -6.0182469000000004e-05 0.0 -1.2462897e-06 -6.040245e-05 0.0 -8.0975724e-07 -6.0529368e-05 0.0 -3.97598e-07 -7.616415e-05 0.0 -6.8021786e-06 -7.818622500000001e-05 0.0 -5.6931699000000005e-06 -7.9655998e-05 0.0 -4.6742275e-06 -8.0721569e-05 0.0 -3.7679167e-06 -8.1489874e-05 0.0 -2.971447e-06 -8.2041413e-05 0.0 -2.2623694e-06 -8.242896699999999e-05 0.0 -1.6305746000000003e-06 -8.2685954e-05 0.0 -1.0580077e-06 -8.2833387e-05 0.0 -5.1925235e-07 -0.00010460974 0.0 -9.104381199999998e-06 -0.00010712806 0.0 -7.5845883000000005e-06 -0.00010892986999999999 0.0 -6.186904099999999e-06 -0.00011021067 0.0 -4.954620599999999e-06 -0.00011111520000000001 0.0 -3.8833182e-06 -0.00011175236000000001 0.0 -2.9416142e-06 -0.00011219237 0.0 -2.1131175e-06 -0.00011248027 0.0 -1.3677296e-06 -0.00011264355 0.0 -6.702544499999999e-07 -0.0001428454 0.0 -1.2202017000000001e-05 -0.00014593457000000002 0.0 -1.0088027e-05 -0.0001481017 0.0 -8.1659127e-06 -0.00014960798999999998 0.0 -6.486032799999999e-06 -0.00015064578 0.0 -5.0448697999999995e-06 -0.00015135828 0.0 -3.7949342000000003e-06 -0.00015183669 0.0 -2.7120137999999997e-06 -0.00015214153 0.0 -1.7481632e-06 -0.00015231145000000002 0.0 -8.5453928e-07 -0.00019397683999999998 0.0 -1.6322322999999997e-05 -0.00019769084 0.0 -1.3367847e-05 -0.00020022647 0.0 -1.073305e-05 -0.00020194083 0.0 -8.447381300000001e-06 -0.00020308275 0.0 -6.5154222e-06 -0.00020384131999999998 0.0 -4.860693e-06 -0.00020433258 0.0 -3.4500567000000003e-06 -0.00020463538 0.0 -2.2111708e-06 -0.00020480026 0.0 -1.0779436e-06 -0.00026195237 0.0 -2.1711674e-05 -0.00026630261 0.0 -1.7599576e-05 -0.00026916494 0.0 -1.4013268000000001e-05 -0.0002710252 0.0 -1.0925352e-05 -0.00027220341 0.0 -8.3568239e-06 -0.00027294887999999997 0.0 -6.182783599999999e-06 -0.00027340726 0.0 -4.359164e-06 -0.00027367828 0.0 -2.777608e-06 -0.00027382082999999997 0.0 -1.3502666000000002e-06 -0.00035174763999999996 0.0 -2.8704048e-05 -0.00035665397000000004 0.0 -2.2991880999999997e-05 -0.00035971943999999997 0.0 -1.8138706e-05 -0.00036158983 0.0 -1.4008436e-05 -0.00036267453 0.0 -1.0632853000000001e-05 -0.00036329986000000007 0.0 -7.809429e-06 -0.00036364456 0.0 -5.476735599999999e-06 -0.00036382949 0.0 -3.4734632999999997e-06 -0.00036391901 0.0 -1.6851478999999997e-06 -0.00046961111 0.0 -3.7693283999999997e-05 -0.00047483059 0.0 -2.9761302e-05 -0.00047782714999999995 0.0 -2.3235008e-05 -0.00047944664000000006 0.0 -1.7785129e-05 -0.00048021422 0.0 -1.3404339e-05 -0.00048054237 0.0 -9.797027800000001e-06 -0.00048064434999999997 0.0 -6.8504187e-06 -0.00048065762 0.0 -4.3326477e-06 -0.00048064530999999993 0.0 -2.100571e-06 -0.00062343711 0.0 -4.8962924000000004e-05 -0.00062848965 0.0 -3.8119353e-05 -0.00063093746 0.0 -2.9445535e-05 -0.00063186901 0.0 -2.2364322000000002e-05 -0.00063196028 0.0 -1.6767246e-05 -0.0006317146499999999 0.0 -1.2226569999999999e-05 -0.00063137652 0.0 -8.5503134e-06 -0.00063108956 0.0 -5.4062079e-06 -0.00063090387 0.0 -2.6238658e-06 -0.0008232847900000001 0.0 -6.2878404e-05 -0.0008273659599999999 0.0 -4.8263286e-05 -0.00082849083 0.0 -3.6895231e-05 -0.0008280620699999999 0.0 -2.7894823000000002e-05 -0.00082693546 0.0 -2.0861116000000003e-05 -0.00082570658 0.0 -1.5232419e-05 -0.00082464237 0.0 -1.0678951e-05 -0.0008238701799999999 0.0 -6.7780948e-06 -0.00082340837 0.0 -3.2997825e-06 -0.0010818585000000002 0.0 -7.953740700000001e-05 -0.0010837388 0.0 -6.0494433e-05 -0.0010824008 0.0 -4.5837009e-05 -0.0010796294 0.0 -3.46056e-05 -0.0010765279 0.0 -2.5931236e-05 -0.0010737516 0.0 -1.9045896e-05 -0.0010715738 0.0 -1.3438735999999999e-05 -0.0010700685000000001 0.0 -8.5922047e-06 -0.0010691958 0.0 -4.2007164000000005e-06 -0.0014148109 0.0 -9.9447243e-05 -0.001412673 0.0 -7.5258875e-05 -0.001407292 0.0 -5.676796e-05 -0.0014008464000000002 0.0 -4.30363e-05 -0.0013947713 0.0 -3.2461307e-05 -0.0013897283 0.0 -2.4107319e-05 -0.0013859551000000002 0.0 -1.7187722e-05 -0.0013834148000000002 0.0 -1.1099689000000001e-05 -0.0013819678 0.0 -5.4587485e-06 -0.0018405875 0.0 -0.00012348223 -0.0018317903 0.0 -9.340333099999999e-05 -0.0018202338000000001 0.0 -7.0698494e-05 -0.0018083866000000001 0.0 -5.4171584999999994e-05 -0.0017980951999999998 0.0 -4.1358456999999996e-05 -0.0017899304999999999 0.0 -3.1212436e-05 -0.0017840123 0.0 -2.2549995e-05 -0.0017801048 0.0 -1.4730154e-05 -0.0017779117 0.0 -7.2926837e-06 -0.0023799401 0.0 -0.00015346109 -0.002360845 0.0 -0.00011682246 -0.0023401007 0.0 -8.9593646e-05 -0.0023206878 0.0 -6.9757072e-05 -0.0023046564 0.0 -5.4273689000000005e-05 -0.0022923977 0.0 -4.1712283e-05 -0.0022837496 0.0 -3.0560055e-05 -0.0022781468 0.0 -2.0178728e-05 -0.0022750427 0.0 -1.0053564e-05 -0.00305598 0.0 -0.000192689 -0.0030213969 0.0 -0.00014913596000000001 -0.0029874823999999998 0.0 -0.00011689692 -0.0029577289 0.0 -9.291181000000001e-05 -0.0029341221999999996 0.0 -7.3851021e-05 -0.0029166759999999996 0.0 -5.7685604e-05 -0.0029046834 0.0 -4.280037e-05 -0.0028970724 0.0 -2.8486784e-05 -0.0028929172999999997 0.0 -1.4264167999999999e-05 -0.0038958201 0.0 -0.00024739373 -0.0038387321 0.0 -0.0001962712 -0.0037863236 0.0 -0.00015826465 -0.0037426418 0.0 -0.00012856143 -0.0037092015000000002 0.0 -0.00010402138000000001 -0.0036852547999999996 0.0 -8.223506999999999e-05 -0.0036692489000000003 0.0 -6.1499821e-05 -0.0036593294 0.0 -4.1097028e-05 -0.0036540111 0.0 -2.0603893e-05 -0.0049338588000000004 0.0 -0.00032840698 -0.0048452741 0.0 -0.00026846473 -0.0047677271 0.0 -0.00022236792999999998 -0.0047055976 0.0 -0.00018380229 -0.0046594767 0.0 -0.00015026116000000001 -0.0046274113 0.0 -0.00011934378 -0.0046065408 0.0 -8.958044799999999e-05 -0.004593975399999999 0.0 -5.9910766e-05 -0.0045873829999999996 0.0 -3.0039037e-05 -0.0062149391000000005 0.0 -0.00045305945 -0.0060845469 0.0 -0.00038143038 -0.0059742234 0.0 -0.00032180152 -0.0058882497 0.0 -0.00026842392999999997 -0.0058259047 0.0 -0.00021989235 -0.005783659399999999 0.0 -0.00017424028000000003 -0.0057568979 0.0 -0.00013026356000000002 -0.005741215300000001 0.0 -8.686989900000001e-05 -0.0057331864000000005 0.0 -4.3487202e-05 -0.0077945557 0.0 -0.0006492158900000001 -0.007611841899999999 0.0 -0.0005582544799999999 -0.0074606575 0.0 -0.00047378679000000006 -0.007344795899999999 0.0 -0.00039445797999999995 -0.0072620925 0.0 -0.00032101606 -0.0072071101 0.0 -0.00025279567000000003 -0.0071730725 0.0 -0.00018791558000000002 -0.0071537616 0.0 -0.00012456141000000002 -0.007144173100000001 0.0 -6.2176456e-05 -0.0097320424 0.0 -0.0009559593699999999 -0.0094881691 0.0 -0.0008276527499999999 -0.0092881573 0.0 -0.0006997957799999999 -0.0091357334 0.0 -0.0005773838500000001 -0.0090279002 0.0 -0.00046440239999999996 -0.0089573096 0.0 -0.00036153221 -0.008914716500000001 0.0 -0.0002661912 -0.0088911196 0.0 -0.0001757384 -0.0088796681 0.0 -8.7497341e-05 -0.012077308 0.0 -0.0014190239999999998 -0.011765315 0.0 -0.0012198327000000001 -0.011508808 0.0 -0.0010203369 -0.011312794 0.0 -0.0008326335799999999 -0.011174336000000002 0.0 -0.00066220132 -0.011085099 0.0 -0.00050872751 -0.011032307 0.0 -0.00037041347 -0.011003958000000001 0.0 -0.00024223952 -0.010990745 0.0 -0.0001197333 -0.01484517 0.0 -0.0020824634 -0.01446183 0.0 -0.0017658824 -0.014141787 0.0 -0.0014583373000000002 -0.013894024 0.0 -0.0011740553 -0.013719559 0.0 -0.0009213986300000001 -0.013608188 0.0 -0.00070052571 -0.013543623000000001 0.0 -0.0005048482 -0.013510003999999999 0.0 -0.00032646104 -0.013494599 0.0 -0.00016015943 -0.017999483 0.0 -0.0029670405 -0.01753019 0.0 -0.002491306 -0.017135074 0.0 -0.0020353689 -0.016829025 0.0 -0.0016192454 -0.016614056999999998 0.0 -0.0012516226 -0.016477551 0.0 -0.0009371750599999999 -0.016399549 0.0 -0.00066684367 -0.016359411 0.0 -0.00042902835 -0.016342038 0.0 -0.00020936191000000003 -0.021407917000000002 0.0 -0.0040755956 -0.020829966000000002 0.0 -0.0033975777000000004 -0.020339284 0.0 -0.0027590734 -0.019965811 0.0 -0.0021649313000000002 -0.019703138999999998 0.0 -0.0016518893 -0.01953841 0.0 -0.0012185285000000001 -0.019444909 0.0 -0.0008537101699999999 -0.019397471 0.0 -0.0005414506299999999 -0.019376284 0.0 -0.00026421531000000005 -0.024870403 0.0 -0.0053636464 -0.024143966 0.0 -0.0044355947 -0.023534402000000003 0.0 -0.0035727553000000005 -0.023074848999999998 0.0 -0.0027808202000000003 -0.022753246 0.0 -0.0020960667 -0.022553333999999998 0.0 -0.0015224456 -0.022441065 0.0 -0.0010489819 -0.022382701 0.0 -0.0006583133900000001 -0.022355774 0.0 -0.00031570493999999997 -0.028159289 0.0 -0.006902106999999999 -0.027245408 0.0 -0.0056829574 -0.026516692999999997 0.0 -0.0045058401 -0.025964392000000003 0.0 -0.0034373002 -0.02557217 0.0 -0.0025283394 -0.025322362999999997 0.0 -0.0017948381 -0.025175791 0.0 -0.0012197332 -0.025094537000000004 0.0 -0.00075438939 -0.02505683 0.0 -0.00035862913 -0.031034658 0.0 -0.0087533854 -0.029994471 0.0 -0.0071182866 -0.029153612000000002 0.0 -0.0056011509 -0.028509998999999998 0.0 -0.00419774 -0.028052256 0.0 -0.0030007558 -0.027738351 0.0 -0.0020611095 -0.027535791 0.0 -0.0013580435000000001 -0.027420055 0.0 -0.0008185133900000001 -0.027357839 0.0 -0.00038741605000000004 -0.033264022000000004 0.0 -0.011041081999999999 -0.032102734 0.0 -0.0088457568 -0.031185791 0.0 -0.006886513 -0.030474035 0.0 -0.0050956076000000005 -0.029936467999999997 0.0 -0.0035886603999999997 -0.029553343 0.0 -0.0024112468 -0.029293842999999996 0.0 -0.0015445466 -0.029132575 0.0 -0.0009144839100000001 -0.029044477000000003 0.0 -0.00042809182 -0.033912882000000005 0.0 -0.01358951 -0.032705434 0.0 -0.010778184 -0.031760976 0.0 -0.0083230883 -0.031034751 0.0 -0.0060804337 -0.030491112 0.0 -0.0042073321999999995 -0.030096335 0.0 -0.0027709367999999997 -0.029829143 0.0 -0.0017346804 -0.029662816 0.0 -0.0010045455 -0.029573744 0.0 -0.0004632542 -0.031307939 0.0 -0.01590579 -0.030208427000000003 0.0 -0.012576878 -0.02933207 0.0 -0.0096738404 -0.028666316 0.0 -0.006997284 -0.028190065 0.0 -0.0047507649 -0.027863912 0.0 -0.0030396515999999998 -0.027655382000000003 0.0 -0.0018371204000000002 -0.027530787999999997 0.0 -0.0010252607 -0.027466562000000003 0.0 -0.00045734289000000003 -0.023056041 0.0 -0.017636597 -0.022148862000000002 0.0 -0.013965803 -0.021414621000000002 0.0 -0.010743328 -0.02086151 0.0 -0.0077598239 -0.020472355 0.0 -0.005255701999999999 -0.020216387 0.0 -0.0033460557 -0.020058285 0.0 -0.0020080972 -0.019966941000000002 0.0 -0.0011124912 -0.019920224 0.0 -0.00049319922 -0.014351003999999999 0.0 -0.018788378999999997 -0.013716321 0.0 -0.014926453000000001 -0.013191636999999999 0.0 -0.011499943 -0.01279057 0.0 -0.0083145881 -0.012506265 0.0 -0.005634889499999999 -0.012318394 0.0 -0.0035889831 -0.012201746000000001 0.0 -0.0021546665 -0.01213381 0.0 -0.0011941039 -0.012098763 0.0 -0.00052956451 -0.007523420699999999 0.0 -0.019521156 -0.0071438998 0.0 -0.015560391000000002 -0.0068212533 0.0 -0.012009612 -0.006570724799999999 0.0 -0.0086922916 -0.0063917427 0.0 -0.005894484 -0.0062728627 0.0 -0.0037561043 -0.006198436999999999 0.0 -0.0022562629999999997 -0.0061545847 0.0 -0.0012512646 -0.006131679300000001 0.0 -0.00055520487 -0.0024529409 0.0 -0.019895565 -0.0022962929 0.0 -0.015900031000000002 -0.0021557517000000003 0.0 -0.012289643000000001 -0.0020438754000000003 0.0 -0.0089021539 -0.0019630902 0.0 -0.0060395179 -0.0019089538 0.0 -0.0038500903 -0.0018745279999999999 0.0 -0.0023140686 -0.0018537170000000002 0.0 -0.0012842932 -0.0018425588 0.0 -0.0005702660400000001 0.0015595298 0.0 -0.01996891 0.0015228682 0.0 -0.015983235 0.0015021659 0.0 -0.012365158999999999 0.0014899763 0.0 -0.0089608254 0.0014823914000000001 0.0 -0.0060807369 0.0014779795 0.0 -0.0038774631 0.0014760103 0.0 -0.0023316734 0.0014756063 0.0 -0.0012949775 0.0014758556 0.0 -0.0005753765 0.0052423114000000005 0.0 -0.019782528 0.005033385 0.0 -0.015842323999999998 0.0048686848 0.0 -0.012260799 0.0047459062 0.0 -0.008886218100000001 0.004659628 0.0 -0.0060302997 0.0046029878000000005 0.0 -0.0038458204 0.0045683482 0.0 -0.0023134283 0.004548739600000001 0.0 -0.0012855105 0.004539012 0.0 -0.0005714818299999999 0.0089788213 0.0 -0.019355791 0.0086116465 0.0 -0.015502118999999998 0.0083163735 0.0 -0.011998048 0.0080943704 0.0 -0.0086948751 0.0079378709 0.0 -0.0058997083 0.0078345882 0.0 -0.0037624321 0.007770688299999999 0.0 -0.0022636163 0.0077337944 0.0 -0.0012582071000000002 0.0077150064 0.0 -0.0005595075800000001 0.012751917 0.0 -0.018704642 0.012238236999999999 0.0 -0.014980872 0.011824236 0.0 -0.011593728000000001 0.011513227 0.0 -0.0084001133 0.011294086000000002 0.0 -0.0056982948 0.011149313000000001 0.0 -0.0036332731 0.011059363999999999 0.0 -0.0021857503 0.01100705 0.0 -0.0012149889 0.010980166999999999 0.0 -0.00054034666 0.016316317 0.0 -0.017846391 0.015670043999999998 0.0 -0.014296135 0.015150391000000001 0.0 -0.011063443999999999 0.014761037 0.0 -0.008014105300000001 0.014487161 0.0 -0.0054345899 0.014306244 0.0 -0.0034638565999999997 0.014193626 0.0 -0.002083156 0.014127929 0.0 -0.0011577167999999999 0.014094029 0.0 -0.0005148247 0.019378021000000002 0.0 -0.016805379 0.018615813999999998 0.0 -0.013469085 0.018003987 0.0 -0.010424836 0.017545203 0.0 -0.007550389499999999 0.017221585 0.0 -0.0051182866999999995 0.01700671 0.0 -0.0032609170000000003 0.016872303999999998 0.0 -0.0019605434 0.016793532 0.0 -0.0010894564 0.016752385 0.0 -0.00048437744000000006 0.021464175 0.0 -0.015630331 0.020511828 0.0 -0.012542712 0.019760363 0.0 -0.0097142719 0.01918998 0.0 -0.0070441309 0.01876408 0.0 -0.0047918139000000005 0.01845997 0.0 -0.0030712715999999998 0.018253528 0.0 -0.0018648196 0.018122556 0.0 -0.0010492888 0.018054942 0.0 -0.00047300872 0.022061121 0.0 -0.0144017 0.020955496 0.0 -0.011577344 0.020108148 0.0 -0.008978300699999999 0.019462258 0.0 -0.0065306467 0.018974843999999998 0.0 -0.0044723651 0.018621798999999998 0.0 -0.0028996675 0.018380485 0.0 -0.0017893096 0.018226087 0.0 -0.0010256886 0.018142315 0.0 -0.00046780144 0.021892801 0.0 -0.013133613 0.02074042 0.0 -0.010578191 0.019856066999999998 0.0 -0.0082138255 0.019180221 0.0 -0.005995898 0.018684495 0.0 -0.0041253408 0.018331936 0.0 -0.0026962203 0.018088941 0.0 -0.0016835076 0.017935487 0.0 -0.00097928138 0.017854083 0.0 -0.00045360945 0.021371355 0.0 -0.011860784 0.02019701 0.0 -0.0095748268 0.019305054 0.0 -0.0074512917 0.018632591 0.0 -0.0054567903 0.018146759 0.0 -0.0037790667 0.01781925 0.0 -0.002493924 0.01760087 0.0 -0.0015788482999999998 0.017467148999999998 0.0 -0.00093137845 0.017391581 0.0 -0.00042908304000000003 0.020649338 0.0 -0.010640033 0.019508498 0.0 -0.0086130975 0.018622123 0.0 -0.0067198048 0.017963631 0.0 -0.004949226 0.017496485 0.0 -0.0034613947 0.017181419 0.0 -0.0023258276999999997 0.016981503000000002 0.0 -0.0014999243 0.016866958 0.0 -0.0008890823800000001 0.016805571000000002 0.0 -0.00041465987999999996 0.019864116 0.0 -0.0094959242 0.018715099 0.0 -0.0077175577000000006 0.017820173999999998 0.0 -0.0060425685 0.017169835 0.0 -0.0044946545000000004 0.016717581000000002 0.0 -0.0031917014 0.016426044 0.0 -0.0021791735 0.016249949 0.0 -0.0014257223999999998 0.016144857 0.0 -0.0008551678599999999 0.016093503999999998 0.0 -0.0004019975 0.018995706 0.0 -0.0085034482 0.017807465 0.0 -0.0068829022 0.016932538 0.0 -0.0054289163 0.016281325 0.0 -0.0040853852000000005 0.015840998000000002 0.0 -0.0029430478 0.015565913999999998 0.0 -0.0020461355 0.015395818 0.0 -0.0013510279999999998 0.015299827 0.0 -0.00081896962 0.015252335 0.0 -0.00038759306 0.018058183000000002 0.0 -0.0076414915 0.016858714 0.0 -0.0061314628 0.015974922 0.0 -0.0048697619 0.015325462 0.0 -0.0037030743 0.014896305 0.0 -0.0027181184999999996 0.014622113 0.0 -0.0019122858 0.014455003999999999 0.0 -0.0012798612 0.014362641 0.0 -0.0007847950900000001 0.014315072 0.0 -0.00037474942 0.017143233 0.0 -0.0068998104 0.015928196000000002 0.0 -0.0054892511 0.015006306 0.0 -0.0043235556 0.014371336 0.0 -0.0033513424 0.013934733000000001 0.0 -0.0024988363 0.013654456 0.0 -0.001788418 0.013481498 0.0 -0.0012148663 0.013382746000000001 0.0 -0.0007527231900000001 0.013331653999999998 0.0 -0.00036253556 0.016356489 0.0 -0.0063482663 0.015024677 0.0 -0.0048924214 0.014109645 0.0 -0.0038451373 0.013452081999999999 0.0 -0.0030020154 0.013010211 0.0 -0.0022867243 0.01271168 0.0 -0.0016677903 0.012525255 0.0 -0.0011515653 0.012415748999999998 0.0 -0.00072174595 0.012357956000000002 0.0 -0.00034787523 0.01576121 0.0 -0.0060537225 0.014273126 0.0 -0.0044432031 0.013281508999999999 0.0 -0.0034043193 0.012618313 0.0 -0.0026697232 0.012151326 0.0 -0.0020628977 0.011842768 0.0 -0.0015417132999999998 0.011637334 0.0 -0.0010854319 0.011511371000000001 0.0 -0.00068899448 0.011446281 0.0 -0.00033388763999999993 0.015442997 0.0 -0.006106193199999999 0.013724325 0.0 -0.0042272937 0.012610382 0.0 -0.003070452 0.011875723000000001 0.0 -0.0023499436 0.011400327 0.0 -0.0018331017000000002 0.01106419 0.0 -0.0013848026999999999 0.010847921000000002 0.0 -0.0009961543800000002 0.010711277 0.0 -0.00064063136 0.010638695 0.0 -0.00031395588 0.015571788999999999 0.0 -0.0066114366 0.013475353 0.0 -0.0043596732 0.012160819 0.0 -0.0029623796999999996 0.01130376 0.0 -0.0021217419 0.010752143999999998 0.0 -0.0015958479000000002 0.010400553 0.0 -0.001211757 0.010162332 0.0 -0.0008693086 0.010018313000000001 0.0 -0.00056618225 0.009938470999999999 0.0 -0.00027709536 0.016491471 0.0 -0.007683957 0.013799215 0.0 -0.0050420403 0.012046958 0.0 -0.0032369124 0.010967135 0.0 -0.0021370591 0.010281743000000001 0.0 -0.0014754976 0.0098528164 0.0 -0.0010492742 0.0095801959 0.0 -0.0007345078 0.009425386800000001 0.0 -0.00047487818 0.0093358615 0.0 -0.00022861513 0.018278726999999998 0.0 -0.0089222323 0.015180208999999998 0.0 -0.0063158595 0.012726673 0.0 -0.0041799643 0.011081806000000001 0.0 -0.0026337195000000002 0.010099341999999999 0.0 -0.0016682715 0.00951456 0.0 -0.0010760742 0.009159606899999999 0.0 -0.0006850944500000001 0.0089506013 0.0 -0.00041068232 0.0088446354 0.0 -0.0001930634 0.020217195 0.0 -0.009963721 0.017598735 0.0 -0.0076001738 0.014822626 0.0 -0.0055291433999999995 0.012391232 0.0 -0.0038455613 0.010712326999999999 0.0 -0.0024790148999999997 0.0096752038 0.0 -0.0015134751 0.0090875681 0.0 -0.0008802352199999999 0.0087730493 0.0 -0.00048134246 0.008614188100000001 0.0 -0.00021117907000000002 0.020853091 0.0 -0.010769951000000002 0.019401761 0.0 -0.0087481113 0.017524892 0.0 -0.0067685586 0.015355171 0.0 -0.0050639594 0.013233907 0.0 -0.0036481434999999997 0.011486311 0.0 -0.0024862478 0.010276396 0.0 -0.001553326 0.009565846999999999 0.0 -0.0008631538900000001 0.0092138946 0.0 -0.00037759496 0.019489052 0.0 -0.0096586524 0.018798223 0.0 -0.007933461999999999 0.017730832 0.0 -0.006282424599999999 0.016385227 0.0 -0.0047425222999999996 0.015012991000000002 0.0 -0.0033529876 0.013873893 0.0 -0.0021601475 0.013090902 0.0 -0.0012336716 0.012650336000000002 0.0 -0.00054919225 0.018016076000000002 0.0 -0.007444866 0.017758844 0.0 -0.005889438100000001 0.017308813 0.0 -0.0043052249 0.016858381999999998 0.0 -0.0028014083 0.016517878 0.0 -0.0015989813 0.016313227 0.0 -0.00070939469 0.017064873 0.0 -0.0052841888 0.017234186000000002 0.0 -0.0034584089 0.017330039 0.0 -0.0019676548 0.017373048000000002 0.0 -0.00086787133 -6.6891885000000005e-06 0.0 -3.0890937e-13 -6.6814046e-06 0.0 5.930896700000001e-08 -6.657750900000001e-06 0.0 1.2069053e-07 -6.6168914e-06 0.0 1.8612048999999998e-07 -6.5564004e-06 0.0 2.5715877e-07 -6.4727814999999995e-06 0.0 3.3376833000000003e-07 -6.3605556999999995e-06 0.0 4.1745517e-07 -6.212472299999999e-06 0.0 5.107843900000001e-07 -1.0254194e-05 0.0 4.1961112e-13 -1.0243336999999999e-05 0.0 8.855899800000001e-08 -1.0210115e-05 0.0 1.8033332000000003e-07 -1.0152308000000001e-05 0.0 2.7808272e-07 -1.0066161e-05 0.0 3.8442508000000005e-07 -9.9461313e-06 0.0 5.0004519e-07 -9.784115699999999e-06 0.0 6.2629476e-07 -9.5693804e-06 0.0 7.6698103e-07 -1.5329393e-05 0.0 -4.2386128e-13 -1.5314190000000003e-05 0.0 1.2343091e-07 -1.5267662e-05 0.0 2.5152144e-07 -1.5186724999999998e-05 0.0 3.8792774e-07 -1.5065944999999999e-05 0.0 5.3658317e-07 -1.4897532000000002e-05 0.0 6.989596999999999e-07 -1.4670008e-05 0.0 8.7660197e-07 -1.4367301e-05 0.0 1.0744236e-06 -2.2229767999999998e-05 0.0 -2.43437e-14 -2.2209018e-05 0.0 1.6791553e-07 -2.2145601000000003e-05 0.0 3.4217493e-07 -2.2035590999999998e-05 0.0 5.2742041e-07 -2.18718e-05 0.0 7.293554600000001e-07 -2.1643777e-05 0.0 9.5022705e-07 -2.1335659999999997e-05 0.0 1.1932418e-06 -2.0924283e-05 0.0 1.4650649e-06 -3.1499629e-05 0.0 3.008079e-12 -3.1472384e-05 0.0 2.2593164e-07 -3.1389194000000005e-05 0.0 4.6014668000000003e-07 -3.1245174e-05 0.0 7.085752099999999e-07 -3.1030907999999996e-05 0.0 9.7946997e-07 -3.0732415e-05 0.0 1.2765422e-06 -3.0328094000000002e-05 0.0 1.605017e-06 -2.9786268e-05 0.0 1.9738623000000003e-06 -4.3919259e-05 0.0 2.8235267000000005e-14 -4.3884993000000005e-05 0.0 3.0120609000000004e-07 -4.3780194e-05 0.0 6.132084399999999e-07 -4.35988e-05 0.0 9.4378174e-07 -4.3328379000000006e-05 0.0 1.3049802e-06 -4.2950163e-05 0.0 1.7029613999999998e-06 -4.2435258e-05 0.0 2.1446454e-06 -4.1740725e-05 0.0 2.6420623e-06 -6.0570812e-05 0.0 -2.1632422e-12 -6.0529364e-05 0.0 3.9759377e-07 -6.0402454e-05 0.0 8.0975286e-07 -6.0182475999999996e-05 0.0 1.2462885e-06 -5.9853046000000004e-05 0.0 1.7253828000000001e-06 -5.9389029e-05 0.0 2.2574112999999997e-06 -5.8751204e-05 0.0 2.8504076000000003e-06 -5.7881472e-05 0.0 3.5208112999999997e-06 -8.2881335e-05 0.0 1.0956427e-12 -8.283339400000001e-05 0.0 5.19254e-07 -8.268593199999999e-05 0.0 1.058005e-06 -8.2428953e-05 0.0 1.6305743999999998e-06 -8.2041428e-05 0.0 2.2623688e-06 -8.148992500000001e-05 0.0 2.9714481e-06 -8.0721584e-05 0.0 3.7679205999999997e-06 -7.9655991e-05 0.0 4.6742275e-06 -0.00011269615 0.0 -8.6659472e-13 -0.00011264355 0.0 6.7024217e-07 -0.00011248027 0.0 1.3677147e-06 -0.00011219236000000001 0.0 2.1131123e-06 -0.00011175233999999998 0.0 2.9416115e-06 -0.00011111516000000002 0.0 3.88332e-06 -0.0001102107 0.0 4.9546175e-06 -0.0001089299 0.0 6.186885e-06 -0.00015236567 0.0 1.1341844e-11 -0.00015231145000000002 0.0 8.5456935e-07 -0.00015214157 0.0 1.748152e-06 -0.00015183665 0.0 2.7120053999999997e-06 -0.00015135827 0.0 3.7949276000000005e-06 -0.00015064579 0.0 5.0448689e-06 -0.00014960801 0.0 6.486036900000001e-06 -0.00014810171 0.0 8.1659118e-06 -0.00020485213 0.0 3.6504836000000005e-12 -0.00020480026 0.0 1.0779393999999999e-06 -0.00020463542000000002 0.0 2.211184e-06 -0.00020433259 0.0 3.4500456000000002e-06 -0.00020384134999999997 0.0 4.8606794000000006e-06 -0.00020308269 0.0 6.5154127e-06 -0.0002019408 0.0 8.4473768e-06 -0.00020022650000000003 0.0 1.0733057e-05 -0.00027386475 0.0 2.7844272e-12 -0.00027382077 0.0 1.3502876000000001e-06 -0.00027367822 0.0 2.7776209e-06 -0.00027340729 0.0 4.3591467e-06 -0.00027294891 0.0 6.1827873e-06 -0.00027220330000000004 0.0 8.356820199999999e-06 -0.00027102526000000003 0.0 1.0925345e-05 -0.00026916494 0.0 1.4013226e-05 -0.00036394529000000005 0.0 -4.8395371e-11 -0.00036391907 0.0 1.6851665e-06 -0.00036382962999999995 0.0 3.4734492e-06 -0.00036364459 0.0 5.4767452e-06 -0.00036329977 0.0 7.8094135e-06 -0.00036267456 0.0 1.0632834e-05 -0.00036158986000000003 0.0 1.4008411000000001e-05 -0.00035971947 0.0 1.8138689e-05 -0.00048063858 0.0 1.5141126e-11 -0.00048064522 0.0 2.1005874e-06 -0.00048065752999999994 0.0 4.3326063e-06 -0.00048064432 0.0 6.8504140999999996e-06 -0.00048054248 0.0 9.797027800000001e-06 -0.00048021422 0.0 1.3404321e-05 -0.00047944669 0.0 1.7785156e-05 -0.00047782714999999995 0.0 2.3235005e-05 -0.00063084101 0.0 1.8921051999999998e-11 -0.0006309039900000001 0.0 2.6238513e-06 -0.00063108961 0.0 5.406159299999999e-06 -0.0006313766900000001 0.0 8.5502934e-06 -0.0006317146499999999 0.0 1.2226586e-05 -0.00063196028 0.0 1.6767233e-05 -0.0006318689599999999 0.0 2.2364306999999998e-05 -0.00063093723 0.0 2.9445662e-05 -0.00082325708 0.0 -1.3875226e-11 -0.00082340842 0.0 3.2996884e-06 -0.00082386984 0.0 6.7780984000000005e-06 -0.00082464219 0.0 1.0678873000000002e-05 -0.00082570658 0.0 1.5232397e-05 -0.00082693557 0.0 2.0861060000000003e-05 -0.0008280623 0.0 2.7894807999999998e-05 -0.0008284910000000001 0.0 3.6895126e-05 -0.0010689124000000001 0.0 3.5178083e-11 -0.0010691955 0.0 4.2006868e-06 -0.0010700681 0.0 8.5922511e-06 -0.0010715738 0.0 1.3438691e-05 -0.0010737511 0.0 1.9045838e-05 -0.0010765279 0.0 2.5931246000000003e-05 -0.0010796294 0.0 3.4605546e-05 -0.0010824004 0.0 4.5836889e-05 -0.0013815011999999999 0.0 1.1443031000000001e-10 -0.0013819676999999998 0.0 5.4587649e-06 -0.0013834148000000002 0.0 1.1099643e-05 -0.0013859551000000002 0.0 1.7187655e-05 -0.0013897279999999998 0.0 2.4107278000000002e-05 -0.0013947715 0.0 3.2461277e-05 -0.0014008464000000002 0.0 4.303622e-05 -0.001407292 0.0 5.6768006999999995e-05 -0.0017772081 0.0 1.3292008999999998e-10 -0.0017779114000000002 0.0 7.2928292e-06 -0.0017801054 0.0 1.4730083e-05 -0.0017840123 0.0 2.2549929999999998e-05 -0.0017899306 0.0 3.121241e-05 -0.0017980951999999998 0.0 4.135838800000001e-05 -0.0018083873000000002 0.0 5.4171396000000004e-05 -0.0018202334 0.0 7.0698414e-05 -0.0022740541 0.0 1.9907379e-10 -0.0022750427 0.0 1.0053795e-05 -0.0022781470000000003 0.0 2.0178812e-05 -0.0022837501000000002 0.0 3.0559986e-05 -0.0022923984 0.0 4.1712272e-05 -0.0023046564 0.0 5.4273522e-05 -0.0023206882 0.0 6.975708700000001e-05 -0.0023401007 0.0 8.9593683e-05 -0.0028916064000000003 0.0 1.1402884e-10 -0.0028929172999999997 0.0 1.4264016e-05 -0.0028970724 0.0 2.8486598e-05 -0.0029046843 0.0 4.2800417e-05 -0.0029166765 0.0 5.7685633e-05 -0.0029341229 0.0 7.385086100000001e-05 -0.0029577294000000002 0.0 9.291208e-05 -0.0029874817 0.0 0.00011689693000000001 -0.0036523461 0.0 4.8089262e-11 -0.0036540106 0.0 2.0603424e-05 -0.0036593294 0.0 4.1096471e-05 -0.0036692491 0.0 6.1499595e-05 -0.0036852551 0.0 8.223511399999999e-05 -0.0037092015000000002 0.0 0.00010402131 -0.0037426425 0.0 0.00012856111 -0.0037863238 0.0 0.00015826428999999998 -0.0045853439 0.0 1.5663179e-10 -0.0045873829999999996 0.0 3.0038964e-05 -0.0045939763 0.0 5.9910406000000005e-05 -0.0046065408 0.0 8.9580659e-05 -0.0046274113 0.0 0.00011934367 -0.004659479 0.0 0.00015026111 -0.0047055967 0.0 0.00018380236 -0.004767729 0.0 0.00022236789 -0.0057307379 0.0 1.7471949e-10 -0.005733188199999999 0.0 4.348707099999999e-05 -0.0057412144 0.0 8.6869979e-05 -0.0057568982999999995 0.0 0.00013026345 -0.0057836589 0.0 0.00017424017 -0.0058259061 0.0 0.00021989232000000004 -0.0058882497 0.0 0.00026842357999999996 -0.005974224300000001 0.0 0.00032180169 -0.007141288399999999 0.0 -2.9024855e-10 -0.0071441727000000005 0.0 6.2176296e-05 -0.0071537625 0.0 0.00012456122 -0.0071730735 0.0 0.00018791534 -0.0072071096 0.0 0.00025279549 -0.0072620939 0.0 0.00032101568999999997 -0.0073447963 0.0 0.00039445786 -0.007460657 0.0 0.00047378649000000007 -0.0088763637 0.0 3.7169492000000003e-10 -0.0088796681 0.0 8.7497225e-05 -0.0088911187 0.0 0.00017573862 -0.0089147184 0.0 0.00026619142999999995 -0.0089573087 0.0 0.00036153203 -0.0090278992 0.0 0.00046440208 -0.0091357324 0.0 0.00057738367 -0.0092881545 0.0 0.0006997959599999999 -0.010986766 0.0 4.4790605e-10 -0.010990746000000001 0.0 0.00011973246999999999 -0.011003956 0.0 0.00024223911 -0.011032307 0.0 0.00037041339 -0.011085096000000001 0.0 0.00050872751 -0.011174336000000002 0.0 0.0006622007300000001 -0.011312797 0.0 0.00083263364 -0.011508808 0.0 0.0010203359 -0.013490533999999998 0.0 3.0411429e-10 -0.013494599 0.0 0.0001601595 -0.013510003000000001 0.0 0.00032646194 -0.013543626000000001 0.0 0.0005048478500000001 -0.013608188 0.0 0.0007005250099999999 -0.013719559 0.0 0.0009213991000000001 -0.013894024 0.0 0.0011740536 -0.014141791 0.0 0.0014583382 -0.016337045 0.0 -9.270678099999999e-10 -0.016342036 0.0 0.00020936048999999998 -0.016359411 0.0 0.00042902645999999995 -0.016399549 0.0 0.0006668429700000001 -0.016477551 0.0 0.0009371750099999999 -0.016614059 0.0 0.0012516222999999999 -0.016829025 0.0 0.0016192447 -0.017135078 0.0 0.0020353689 -0.019370604 0.0 1.3669035e-10 -0.019376281999999998 0.0 0.00026421275000000004 -0.019397466999999998 0.0 0.00054145028 -0.019444911000000002 0.0 0.0008537101699999999 -0.01953841 0.0 0.0012185284 -0.01970314 0.0 0.0016518893 -0.019965813 0.0 0.0021649313000000002 -0.020339282 0.0 0.0027590718 -0.022349253 0.0 3.1615974e-10 -0.022355778 0.0 0.00031570299 -0.022382705 0.0 0.00065831229 -0.022441065 0.0 0.0010489823 -0.022553333999999998 0.0 0.0015224448 -0.022753246 0.0 0.0020960667 -0.023074837 0.0 0.0027808179 -0.02353441 0.0 0.0035727578000000005 -0.025045607 0.0 -4.1600397999999996e-10 -0.025056832999999997 0.0 0.00035862802 -0.025094533 0.0 0.0007543896799999999 -0.025175797000000003 0.0 0.0012197300999999999 -0.025322362999999997 0.0 0.0017948367000000002 -0.02557217 0.0 0.0025283399 -0.02596439 0.0 0.0034372997 -0.026516692999999997 0.0 0.0045058387 -0.027336807999999997 0.0 7.9842338e-10 -0.027357841 0.0 0.00038741339999999995 -0.027420059 0.0 0.00081851304 -0.027535794 0.0 0.0013580414 -0.027738351 0.0 0.0020611095 -0.028052257 0.0 0.0030007511 -0.028510004 0.0 0.0041977419 -0.029153612000000002 0.0 0.0056011509 -0.029019397000000002 0.0 4.3077226e-09 -0.029044478999999998 0.0 0.00042809597999999996 -0.029132582 0.0 0.0009144857800000001 -0.02929385 0.0 0.0015445424 -0.029553344 0.0 0.0024112448999999998 -0.02993647 0.0 0.0035886602 -0.030474043 0.0 0.0050956039000000005 -0.031185791 0.0 0.006886515300000001 -0.029548831 0.0 2.8909581e-09 -0.029573747999999997 0.0 0.00046325781 -0.029662812 0.0 0.0010045397 -0.029829144 0.0 0.0017346769 -0.030096339 0.0 0.0027709347 -0.03049111 0.0 0.0042073334999999995 -0.031034756 0.0 0.006080444 -0.031760972 0.0 0.0083230929 -0.02744744 0.0 8.9490761e-09 -0.027466564 0.0 0.00045733512 -0.027530787999999997 0.0 0.0010252530999999999 -0.027655382000000003 0.0 0.0018371319 -0.02786391 0.0 0.0030396469 -0.028190052 0.0 0.0047507719 -0.028666325 0.0 0.0069973082 -0.029332072999999997 0.0 0.0096738311 -0.019905925 0.0 4.0848516e-09 -0.019920221999999998 0.0 0.00049319898 -0.019966932 0.0 0.0011124858 -0.020058287 0.0 0.0020080972 -0.020216377 0.0 0.0033460578 -0.020472342 0.0 0.0052557024 -0.020861505 0.0 0.0077598258 -0.021414621000000002 0.0 0.010743339 -0.012087965 0.0 -4.2169033e-09 -0.012098761999999999 0.0 0.00052954408 -0.0121338 0.0 0.0011941151 -0.012201736999999999 0.0 0.0021546639 -0.012318398999999999 0.0 0.0035889808 -0.012506258000000001 0.0 0.0056348941 -0.012790568 0.0 0.0083146039 -0.013191642 0.0 0.011499955 -0.006124560699999999 0.0 1.7299568e-09 -0.0061316779 0.0 0.00055520277 -0.0061545828 0.0 0.0012512547 -0.0061984388 0.0 0.0022562563 -0.0062728472999999995 0.0 0.0037561024 -0.006391752 0.0 0.005894485400000001 -0.0065707224 0.0 0.0086922934 -0.0068212552 0.0 0.012009599 -0.0018390160999999998 0.0 -5.5145688e-09 -0.0018425507000000001 0.0 0.0005702656299999999 -0.0018537197 0.0 0.0012842910000000001 -0.0018745241 0.0 0.0023140628 -0.0019089461 0.0 0.0038500846999999995 -0.0019630898999999998 0.0 0.0060395151 -0.0020438787 0.0 0.008902166999999999 -0.0021557622 0.0 0.012289621 0.0014760173000000001 0.0 -1.9501571e-09 0.0014758584 0.0 0.00057539059 0.0014756096 0.0 0.0012949656 0.0014760124 0.0 0.0023316697 0.0014779741 0.0 0.0038774584000000004 0.0014823923999999998 0.0 0.0060807341 0.0014899756 0.0 0.0089608096 0.0015021735 0.0 0.012365167 0.004536083 0.0 4.4399213e-09 0.004539012 0.0 0.0005714728599999999 0.0045487406 0.0 0.0012855064 0.0045683403 0.0 0.0023134369 0.0046029892 0.0 0.0038458190000000003 0.004659635 0.0 0.0060303053 0.004745903 0.0 0.0088862199 0.0048686815 0.0 0.012260803 0.0077092792 0.0 -2.0092381e-10 0.0077150036 0.0 0.00055949332 0.0077338004 0.0 0.0012582011999999999 0.007770699 0.0 0.0022636168 0.0078345807 0.0 0.0037624328000000003 0.0079378663 0.0 0.005899705 0.0080943648 0.0 0.0086948657 0.0083163725 0.0 0.011998058 0.010971911 0.0 3.523111e-10 0.010980172 0.0 0.0005403336799999999 0.01100704 0.0 0.0012149921 0.011059368 0.0 0.0021857428 0.01114932 0.0 0.0036332756 0.011294086000000002 0.0 0.0056983004 0.011513213000000001 0.0 0.0084001077 0.011824246000000002 0.0 0.011593728000000001 0.014083585 0.0 6.274596400000001e-10 0.014094029 0.0 0.00051480584 0.014127925 0.0 0.0011577146 0.014193641000000002 0.0 0.0020831601999999998 0.014306242 0.0 0.0034638552 0.014487155 0.0 0.0054345923 0.014761034 0.0 0.0080140959 0.015150388 0.0 0.011063443999999999 0.016739815 0.0 -1.6968281000000004e-08 0.016752396 0.0 0.00048439615 0.016793525 0.0 0.0010894646 0.016872309 0.0 0.0019605416 0.017006708 0.0 0.0032609198 0.017221589 0.0 0.0051182844 0.017545201 0.0 0.0075503839 0.018003972 0.0 0.010424828 0.018035254 0.0 -7.6482989e-09 0.018054932 0.0 0.00047299982 0.018122545 0.0 0.0010492782000000001 0.01825352 0.0 0.0018648139000000002 0.018459974 0.0 0.0030712703999999998 0.018764084 0.0 0.0047918181 0.019189985 0.0 0.0070441272 0.019760365 0.0 0.00971427 0.018116513 0.0 2.8072247e-09 0.018142315 0.0 0.00046781191 0.018226082 0.0 0.0010256907000000001 0.018380487 0.0 0.0017893167000000002 0.018621806 0.0 0.0028996661 0.018974846 0.0 0.0044723623 0.019462258 0.0 0.0065306318000000006 0.020108145 0.0 0.0089782998 0.017825231 0.0 -1.4758335e-09 0.01785408 0.0 0.00045361079000000006 0.017935483000000002 0.0 0.00097928918 0.018088941 0.0 0.0016835141000000001 0.018331941 0.0 0.0026962204999999998 0.018684493 0.0 0.0041253390000000004 0.019180221 0.0 0.0059959022 0.019856071 0.0 0.0082138125 0.017368747 0.0 -1.2188583000000001e-10 0.017391572 0.0 0.00042908184999999996 0.017467145 0.0 0.00093138043 0.017600866 0.0 0.001578846 0.017819254 0.0 0.0024939263 0.018146759 0.0 0.0037790607 0.018632591 0.0 0.0054567884999999995 0.019305054 0.0 0.0074512856 0.016786765 0.0 1.0067285e-09 0.016805569 0.0 0.0004146568 0.016866954 0.0 0.00088907883 0.016981503000000002 0.0 0.0014999172 0.017181423 0.0 0.0023258249 0.017496493000000002 0.0 0.0034613924 0.017963635 0.0 0.0049492326 0.018622123 0.0 0.0067197974 0.016078483 0.0 4.2116741e-09 0.016093507 0.0 0.00040200373 0.016144851 0.0 0.0008551722300000001 0.016249949 0.0 0.0014257259 0.016426044 0.0 0.0021791728 0.016717583 0.0 0.0031917037 0.017169831 0.0 0.0044946526 0.017820181 0.0 0.0060425662 0.01523884 0.0 -3.7786636e-09 0.015252328 0.0 0.00038759593999999995 0.015299828 0.0 0.0008189700900000001 0.01539582 0.0 0.0013510267000000002 0.015565913999999998 0.0 0.0020461355 0.015840991999999998 0.0 0.0029430465999999997 0.016281333000000002 0.0 0.0040853843 0.016932532 0.0 0.0054289154000000004 0.014298756000000001 0.0 1.3650341e-09 0.01431507 0.0 0.00037475085 0.014362648 0.0 0.00078479387 0.014455001 0.0 0.0012798589 0.014622112 0.0 0.0019122864000000002 0.0148963 0.0 0.0027181183000000004 0.015325466999999999 0.0 0.003703075 0.01597493 0.0 0.0048697661 0.013316091 0.0 -2.5246054e-09 0.013331655 0.0 0.00036253818 0.013382745 0.0 0.00075272727 0.013481499 0.0 0.0012148677000000001 0.013654453 0.0 0.0017884207999999998 0.013934738 0.0 0.0024988365 0.01437134 0.0 0.0033513459000000002 0.015006305 0.0 0.0043235561 0.012340108999999998 0.0 -9.0737307e-10 0.012357957 0.0 0.00034787462 0.012415748999999998 0.0 0.00072174659 0.012525253 0.0 0.0011515648 0.012711678 0.0 0.0016677905 0.013010215 0.0 0.0022867247 0.013452085 0.0 0.0030020109999999997 0.014109647 0.0 0.0038451375 0.011425903999999999 0.0 1.553324e-10 0.011446278999999998 0.0 0.00033388892 0.011511371000000001 0.0 0.00068899634 0.011637333 0.0 0.0010854321000000001 0.011842769 0.0 0.001541714 0.012151327 0.0 0.0020628986 0.012618313999999999 0.0 0.0026697207000000002 0.013281511999999999 0.0 0.0034043171999999997 0.01061473 0.0 -2.475941e-09 0.0106387 0.0 0.00031395469 0.010711281999999999 0.0 0.00064063031 0.010847921000000002 0.0 0.0009961555499999998 0.011064191999999999 0.0 0.0013848025 0.011400333 0.0 0.0018331014 0.011875726999999999 0.0 0.0023499439 0.012610388 0.0 0.0030704527000000002 0.0099144112 0.0 -4.631891e-10 0.0099384673 0.0 0.00027709469 0.010018314 0.0 0.00056618248 0.010162335 0.0 0.00086930871 0.010400556 0.0 0.0012117574 0.010752145 0.0 0.001595847 0.011303758999999998 0.0 0.0021217417 0.012160822 0.0 0.0029623796999999996 0.0093118027 0.0 -5.6036226e-10 0.0093358625 0.0 0.00022861456000000002 0.0094253831 0.0 0.0004748785 0.009580197700000001 0.0 0.00073450833 0.0098528173 0.0 0.001049274 0.010281743000000001 0.0 0.0014754963 0.010967136 0.0 0.0021370576999999997 0.012046963999999999 0.0 0.0032369124 0.0088142017 0.0 -3.512502e-10 0.0088446382 0.0 0.00019306371 0.0089506041 0.0 0.00041068217 0.0091596097 0.0 0.0006850933999999999 0.0095145609 0.0 0.0010760737 0.010099341 0.0 0.0016682714000000002 0.011081806000000001 0.0 0.0026337195000000002 0.012726678 0.0 0.0041799676 0.0085661476 0.0 3.6033971e-11 0.0086141899 0.0 0.00021117677000000003 0.0087730493 0.0 0.00048134144 0.0090875691 0.0 0.0008802349900000001 0.0096752048 0.0 0.0015134747 0.010712328 0.0 0.0024790147 0.012391234 0.0 0.0038455601 0.014822628999999999 0.0 0.0055291433999999995 0.0091094123 0.0 -8.5072466e-10 0.0092138974 0.0 0.00037759435 0.0095658479 0.0 0.00086315424 0.010276393 0.0 0.0015533254 0.011486313 0.0 0.0024862476000000002 0.013233908 0.0 0.003648143 0.015355175 0.0 0.0050639585 0.017524896 0.0 0.0067685586 0.01251059 0.0 -3.2793207000000004e-10 0.012650337 0.0 0.00054919207 0.013090908 0.0 0.0012336711 0.013873896 0.0 0.0021601478 0.015012995 0.0 0.0033529872999999996 0.016385228999999998 0.0 0.0047425222999999996 0.017730833999999997 0.0 0.006282425 0.018798223 0.0 0.007933461999999999 0.016244875 0.0 8.646824900000001e-10 0.016313227 0.0 0.0007093944 0.016517878 0.0 0.0015989823000000002 0.016858384 0.0 0.0028014074 0.017308813 0.0 0.0043052244 0.017758846000000002 0.0 0.005889438100000001 0.018016078 0.0 0.007444865500000001 0.01738422 0.0 1.6311177e-10 0.017373046 0.0 0.00086787052 0.017330037 0.0 0.0019676562 0.017234189 0.0 0.0034584093 0.017064875 0.0 0.0052841874 -6.0209227e-06 0.0 6.114774499999999e-07 -5.7737816e-06 0.0 7.2445164e-07 -5.460191e-06 0.0 8.4449039e-07 -5.0666272e-06 0.0 9.656743e-07 -4.582816e-06 0.0 1.0730475e-06 -3.9914235000000006e-06 0.0 1.1609983000000002e-06 -3.2944917999999994e-06 0.0 1.2054467e-06 -9.2897553e-06 0.0 9.1986954e-07 -8.9261412e-06 0.0 1.0895765e-06 -8.458798199999999e-06 0.0 1.2678496e-06 -7.8617295e-06 0.0 1.4474892e-06 -7.115462300000001e-06 0.0 1.5958897e-06 -6.182755400000001e-06 0.0 1.7056458999999999e-06 -5.0452895e-06 0.0 1.7486562e-06 -3.7249245e-06 0.0 1.7889688e-06 -1.3970728e-05 0.0 1.2898892000000001e-06 -1.3451046e-05 0.0 1.5284452999999998e-06 -1.277559e-05 0.0 1.7785574e-06 -1.1901216e-05 0.0 2.0285456000000004e-06 -1.0792546999999999e-05 0.0 2.2351696e-06 -9.391669699999998e-06 0.0 2.3946261e-06 -7.6859487e-06 0.0 2.4714482e-06 -5.6977547e-06 0.0 2.4691701e-06 -2.0382082e-05 0.0 1.76216e-06 -1.9666299e-05 0.0 2.0912163999999998e-06 -1.8726165e-05 0.0 2.4375886e-06 -1.7494449e-05 0.0 2.7853982000000003e-06 -1.5914338000000002e-05 0.0 3.0757467000000005e-06 -1.3896683e-05 0.0 3.3071005e-06 -1.1422684999999999e-05 0.0 3.4137380999999997e-06 -8.4931116e-06 0.0 3.4042812e-06 -2.9067303e-05 0.0 2.3796647e-06 -2.8111426e-05 0.0 2.8284305e-06 -2.684265e-05 0.0 3.303513e-06 -2.5160069e-05 0.0 3.7826571e-06 -2.297454e-05 0.0 4.1853327e-06 -2.0146063e-05 0.0 4.517254200000001e-06 -1.6631793e-05 0.0 4.6856385e-06 -1.2409296999999998e-05 0.0 4.7074177e-06 -4.0810624e-05 0.0 3.1933382e-06 -3.9563496e-05 0.0 3.8000537000000004e-06 -3.789008e-05 0.0 4.4446505999999995e-06 -3.5643825e-05 0.0 5.0957956e-06 -3.268553e-05 0.0 5.650217200000001e-06 -2.8799477e-05 0.0 6.127319e-06 -2.3897566e-05 0.0 6.407442900000001e-06 -1.7914084e-05 0.0 6.5241156e-06 -5.6701985000000006e-05 0.0 4.268997099999999e-06 -5.510268200000001e-05 0.0 5.0863432e-06 -5.292887e-05 0.0 5.955643200000001e-06 -4.9975191000000004e-05 0.0 6.835742199999999e-06 -4.6032157e-05 0.0 7.6023507000000006e-06 -4.078307e-05 0.0 8.2882943e-06 -3.4052358e-05 0.0 8.7666085e-06 -2.5713078e-05 0.0 9.051361300000001e-06 -7.818622500000001e-05 0.0 5.6931717e-06 -7.6164135e-05 0.0 6.8021740999999995e-06 -7.3373143e-05 0.0 7.9872834e-06 -6.9536713e-05 0.0 9.1806914e-06 -6.4354892e-05 0.0 1.0243362e-05 -5.7389832e-05 0.0 1.1218115e-05 -4.8303067e-05 0.0 1.2011334999999999e-05 -3.6818987e-05 0.0 1.2623526e-05 -0.00010712806999999999 0.0 7.584585099999999e-06 -0.00010460974 0.0 9.104373e-06 -0.0001010749 0.0 1.0742472000000001e-05 -9.6142729e-05 0.0 1.2405307e-05 -8.9411245e-05 0.0 1.3887242000000001e-05 -8.0289356e-05 0.0 1.5251664e-05 -6.8205321e-05 0.0 1.6523254e-05 -5.273147e-05 0.0 1.7569295e-05 -0.00014593455 0.0 1.0088017e-05 -0.00014284538 0.0 1.2202016000000002e-05 -0.00013844225 0.0 1.4476332e-05 -0.0001321943 0.0 1.6804594999999998e-05 -0.00012356442 0.0 1.8863382e-05 -0.00011176693000000001 0.0 2.0777139e-05 -9.6123986e-05 0.0 2.2522196e-05 -7.5599812e-05 0.0 2.4274965e-05 -0.00019769093999999997 0.0 1.336783e-05 -0.00019397687 0.0 1.6322338e-05 -0.00018859589 0.0 1.9477393e-05 -0.00018080026000000002 0.0 2.2746786000000002e-05 -0.00016992108 0.0 2.5541482e-05 -0.00015483968 0.0 2.8248718e-05 -0.00013489943 0.0 3.0670311e-05 -0.00010826698999999998 0.0 3.338396e-05 -0.00026630261 0.0 1.7599545e-05 -0.00026195237 0.0 2.1711698000000002e-05 -0.00025550742000000003 0.0 2.6144978999999997e-05 -0.00024598534 0.0 3.086144e-05 -0.00023247357999999995 0.0 3.5205427e-05 -0.00021340062000000003 0.0 4.0156603e-05 -0.00018805661 0.0 4.5698274e-05 -0.00015273208999999998 0.0 5.4049804e-05 -0.00035665391 0.0 2.2991824e-05 -0.0003517477 0.0 2.8704056999999998e-05 -0.0003442452 0.0 3.5095075999999996e-05 -0.00033296391 0.0 4.2225045e-05 -0.00031671586 0.0 4.9878519e-05 -0.00029344633 0.0 6.0380851e-05 -0.0002626632 0.0 7.5109288e-05 -0.00022047963 0.0 9.6623742e-05 -0.00047483059 0.0 2.9761233000000003e-05 -0.00046961114 0.0 3.7693233e-05 -0.00046124854000000005 0.0 4.7033682e-05 -0.00044836567000000003 0.0 5.8144302e-05 -0.00042971602 0.0 7.1304079e-05 -0.00040293178999999997 0.0 9.0666159e-05 -0.00036769578999999996 0.0 0.00011913131000000002 -0.00032014181 0.0 0.00015526351000000002 -0.00062848965 0.0 3.8119364e-05 -0.0006234371700000001 0.0 4.8962915999999995e-05 -0.000614647 0.0 6.231133e-05 -0.00060051354 0.0 7.9197576e-05 -0.00057995209 0.0 9.9992278e-05 -0.00055021199 0.0 0.00013081802 -0.00051101414 0.0 0.00017498821 -0.0004577102099999999 0.0 0.00022778738999999998 -0.00082736602 0.0 4.8263242e-05 -0.00082328462 0.0 6.2878426e-05 -0.00081475993 0.0 8.1257225e-05 -0.00079983077 0.0 0.00010551811000000001 -0.00077762303 0.0 0.00013619541000000002 -0.0007447417599999999 0.0 0.00018076533 -0.0007007870599999999 0.0 0.00024350942000000002 -0.00064031774 0.0 0.00031361621 -0.001083739 0.0 6.0494224999999996e-05 -0.0010818586 0.0 7.953756e-05 -0.0010747071 0.0 0.00010421272 -0.0010596206 0.0 0.00013777688 -0.0010357497000000001 0.0 0.00018057447 -0.00099862332 0.0 0.0002416107 -0.00094786234 0.0 0.00032654157 -0.0008766575500000001 0.0 0.00042099849 -0.0014126729 0.0 7.525877999999999e-05 -0.0014148110999999998 0.0 9.9447301e-05 -0.0014107774 0.0 0.00013179764 -0.0013967309 0.0 0.00017657875 -0.0013712079 0.0 0.00023389078999999999 -0.0013284204999999998 0.0 0.00031647927000000005 -0.0012675434 0.0 0.00042971774000000006 -0.001179889 0.0 0.0005556822900000001 -0.0018317907 0.0 9.340318499999999e-05 -0.0018405876999999999 0.0 0.00012348218000000002 -0.0018423739 0.0 0.00016479331000000003 -0.0018315027999999999 0.0 0.00022285502999999998 -0.0018056002 0.0 0.00029861205000000004 -0.0017562812 0.0 0.00040806292 -0.0016817364000000002 0.0 0.0005587246900000001 -0.0015709839999999999 0.0 0.0007258921400000001 -0.002360845 0.0 0.00011682239 -0.0023799399 0.0 0.00015346102 -0.0023917079 0.0 0.00020473747 -0.0023880876 0.0 0.00027806932 -0.002364753 0.0 0.00037628182 -0.0023097997 0.0 0.00052014453 -0.0022191803 0.0 0.00072037522 -0.0020790547 0.0 0.00094379508 -0.0030213966999999998 0.0 0.00014913586 -0.00305598 0.0 0.00019268888 -0.0030839911 0.0 0.00025463494 -0.0030941139 0.0 0.00034475782999999994 -0.0030793995 0.0 0.00046914312000000005 -0.0030226402 0.0 0.0006557219900000001 -0.0029152143 0.0 0.00092169194 -0.0027401740999999998 0.0 0.0012198222 -0.0038387314000000003 0.0 0.00019627058999999996 -0.003895821 0.0 0.00024739312 -0.0039489106 0.0 0.00031984437 -0.0039831046000000005 0.0 0.00042694071 -0.003987029699999999 0.0 0.00057982095 -0.0039366027 0.0 0.00081761234 -0.0038147359000000004 0.0 0.0011678686999999999 -0.0035999913 0.0 0.0015682112 -0.0048452727 0.0 0.00026846497 -0.0049338592 0.0 0.0003284071 -0.005023504099999999 0.0 0.00041105568999999997 -0.0050964644 0.0 0.00053130044 -0.005133755 0.0 0.00071405742 -0.0051040966 0.0 0.0010074705 -0.0049756011 0.0 0.0014650654000000001 -0.0047193617 0.0 0.0020027279 -0.006084548299999999 0.0 0.00038143035000000005 -0.0062149386 0.0 0.00045305979000000006 -0.0063548371999999995 0.0 0.00054667983 -0.006484244 0.0 0.00067553215 -0.0065749898 0.0 0.0008849299000000001 -0.006588831999999999 0.0 0.0012351758 -0.006471169200000001 0.0 0.0018196296 -0.0061798608 0.0 0.0025417127 -0.0076118433 0.0 0.00055825408 -0.007794557099999999 0.0 0.00064921548 -0.0079988455 0.0 0.00075591326 -0.0082032643 0.0 0.0008912552099999999 -0.0083721643 0.0 0.001119853 -0.008464242299999999 0.0 0.0015155937 -0.0083913235 0.0 0.0022407882 -0.0080914898 0.0 0.0032067108 -0.0094881691 0.0 0.00082765258 -0.0097320415 0.0 0.00095595873 -0.010011639000000001 0.0 0.0010880706 -0.010308729 0.0 0.0012324583 -0.01058655 0.0 0.0014656101 -0.010803245 0.0 0.0018828214000000002 -0.010838846999999999 0.0 0.0027475075 -0.010600621999999999 0.0 0.004031715 -0.011765315 0.0 0.0012198305 -0.012077309 0.0 0.0014190242000000001 -0.012436885 0.0 0.001609931 -0.012837481999999999 0.0 0.0017845422 -0.013254458 0.0 0.0020108374 -0.013659731999999999 0.0 0.0024126631 -0.013913946000000002 0.0 0.0034037336999999997 -0.013880072 0.0 0.0050726668 -0.014461828999999999 0.0 0.0017658815 -0.014845173 0.0 0.0020824629 -0.015282977 0.0 0.0023917849 -0.015784653 0.0 0.0026632973 -0.016362155 0.0 0.0028991681 -0.017038921000000002 0.0 0.0032497236999999997 -0.017678043 0.0 0.0043325177 -0.018092996 0.0 0.0064500207 -0.01753019 0.0 0.0024913058 -0.017999478 0.0 0.0029670401000000002 -0.018522818 0.0 0.0034519990000000003 -0.01911121 0.0 0.0039052807 -0.019840663 0.0 0.0042704334 -0.020845342 0.0 0.0046394826 -0.022077186000000002 0.0 0.0057827621 -0.023299674 0.0 0.008377701999999999 -0.02082997 0.0 0.0033975793 -0.021407925 0.0 0.004075597 -0.02207944 0.0 0.0047465567 -0.022784885 0.0 0.005474310400000001 -0.023659497 0.0 0.006118195600000001 -0.024893286 0.0 0.0068619870999999995 -0.026877402999999998 0.0 0.008216401600000001 -0.02931927 0.0 0.011254149 -0.024143966 0.0 0.0044355923 -0.024870407 0.0 0.005363645 -0.025710685 0.0 0.0063344399 -0.026643325 0.0 0.007383392700000001 -0.027703627999999998 0.0 0.0085820565 -0.029275956000000002 0.0 0.009964305 -0.031795248 0.0 0.01228031 -0.035582691 0.0 0.015681285 -0.02724541 0.0 0.0056829592000000005 -0.028159289 0.0 0.0069021080000000005 -0.029194667999999997 0.0 0.0082812784 -0.030402267 0.0 0.009910236999999999 -0.03189718 0.0 0.012014731 -0.03373849 0.0 0.015146815 -0.036603037000000005 0.0 0.01896861 -0.041250947999999996 0.0 0.022721017000000003 -0.029994472999999997 0.0 0.0071182824 -0.031034662999999997 0.0 0.0087533854 -0.032314621 0.0 0.010705032 -0.033752747 0.0 0.013556257 -0.035278756 0.0 0.018165851 -0.03707993 0.0 0.024555715 -0.040135734 0.0 0.03007355 -0.04534693099999999 0.0 0.033349209 -0.032102741000000004 0.0 0.0088457549 -0.033264022000000004 0.0 0.011041081999999999 -0.034662958 0.0 0.014087388999999999 -0.036185324 0.0 0.019060748 -0.037587345 0.0 0.027190249 -0.038878515 0.0 0.037907273 -0.041649245 0.0 0.044769958 -0.046981062999999997 0.0 0.046486367 -0.032705434 0.0 0.010778191000000001 -0.03391289 0.0 0.013589516999999999 -0.035373081 0.0 0.017679775 -0.036811702 0.0 0.024721737999999997 -0.037917603 0.0 0.036258962 -0.038603868 0.0 0.050790321 -0.040691193 0.0 0.058493345999999995 -0.044435758 0.0 0.058261096 -0.030208427000000003 0.0 0.012576873999999998 -0.031307939 0.0 0.01590579 -0.032552604 0.0 0.020897035 -0.033711106 0.0 0.02941322 -0.034451607999999995 0.0 0.04311360400000001 -0.03470185 0.0 0.059835054000000006 -0.035567489 0.0 0.06773660299999999 -0.036088999 0.0 0.066245101 -0.022148859 0.0 0.013965798 -0.023056045 0.0 0.017636584 -0.024070108 0.0 0.023084264 -0.025037492 0.0 0.032256071000000004 -0.025750764 0.0 0.046853690999999996 -0.02605371 0.0 0.064475015 -0.025966267999999997 0.0 0.07240612099999999 -0.025449345 0.0 0.07096857599999999 -0.013716333999999998 0.0 0.014926443999999999 -0.014351002 0.0 0.018788381 -0.015047736 0.0 0.024430741000000002 -0.01570647 0.0 0.033818528 -0.016190471 0.0 0.048651058 -0.016376808 0.0 0.06651555 -0.016219312 0.0 0.074694261 -0.01578819 0.0 0.07365568 -0.00714389 0.0 0.015560393 -0.007523430500000001 0.0 0.019521158 -0.0079258662 0.0 0.025236337 -0.0082921972 0.0 0.03466896 -0.0085447449 0.0 0.049509924000000004 -0.008614568000000001 0.0 0.067398094 -0.008479419200000001 0.0 0.075773902 -0.0081831822 0.0 0.075130478 -0.0022962929 0.0 0.015900034 -0.0024529446 0.0 0.019895563 -0.0026051737 0.0 0.025616594 -0.0027275325 0.0 0.035023756 -0.0027925142 0.0 0.049809951 -0.002778105 0.0 0.067676529 -0.0026809464 0.0 0.076207198 -0.0025200092 0.0 0.075864583 0.0015228802 0.0 0.01598323 0.0015595232999999998 0.0 0.019968893 0.0016181588 0.0 0.025659025 0.0016959098999999999 0.0 0.035015132000000004 0.0017805538 0.0 0.049742565 0.0018567774 0.0 0.06759771 0.0019123426999999998 0.0 0.076254457 0.0019474272 0.0 0.076095074 0.0050333864 0.0 0.015842319 0.0052423333 0.0 0.019782528 0.0054864506000000006 0.0 0.025417092999999998 0.0057370816 0.0 0.03471389 0.005949670400000001 0.0 0.049399205 0.006079376700000001 0.0 0.06726439299999999 0.0061005251 0.0 0.07599514 0.0060245749 0.0 0.07586899400000001 0.0086116446 0.0 0.015502117 0.008978824100000001 0.0 0.019355785 0.0093946047 0.0 0.024874711 0.0098058609 0.0 0.034002766000000004 0.010139427 0.0 0.048456371 0.010325196 0.0 0.066088855 0.010324254 0.0 0.07477708200000001 0.01015287 0.0 0.074700177 0.012238253999999999 0.0 0.014980895 0.012751927 0.0 0.01870463 0.013329403 0.0 0.02404041 0.013894688999999998 0.0 0.032876097 0.014347453999999999 0.0 0.046887557999999996 0.014593941000000001 0.0 0.06402037299999999 0.014581668999999998 0.0 0.072547033 0.014330023999999998 0.0 0.072554238 0.015670048 0.0 0.014296126999999999 0.016316323 0.0 0.017846383 0.017042849 0.0 0.022930805 0.017752767 0.0 0.031353492000000004 0.018320307 0.0 0.04472271 0.018629042 0.0 0.061110314000000006 0.018613437 0.0 0.069376908 0.018296337 0.0 0.06950991599999999 0.018615818 0.0 0.01346907 0.019378033 0.0 0.016805362 0.020236351 0.0 0.021575937000000003 0.021074648999999997 0.0 0.029478017000000002 0.021746125 0.0 0.042032078 0.022113895 0.0 0.05747233 0.022100177000000002 0.0 0.06540423599999999 0.021732939 0.0 0.065703437 0.02051183 0.0 0.012542713 0.02146418 0.0 0.015630331 0.022549279 0.0 0.02002755 0.02359451 0.0 0.027318217000000002 0.024375248999999998 0.0 0.038926166 0.024794361 0.0 0.053267910999999994 0.024619428 0.0 0.060747385 0.024384853999999997 0.0 0.061314531 0.020955499 0.0 0.011577344 0.022061121 0.0 0.0144017 0.023426878999999998 0.0 0.018371963999999998 0.02489046 0.0 0.024968125 0.02604978 0.0 0.035530917 0.02652921 0.0 0.048683841 0.026257914 0.0 0.055700510999999994 0.026142903 0.0 0.056564994 0.020740418 0.0 0.0105782 0.021892805 0.0 0.013133607 0.023355697999999998 0.0 0.016665038 0.025044983 0.0 0.022525821 0.026604562999999998 0.0 0.031991362999999995 0.027394557000000003 0.0 0.043920923 0.02735398 0.0 0.050558776 0.027286382 0.0 0.051673405 0.02019701 0.0 0.0095748268 0.021371359 0.0 0.011860778999999998 0.022881974 0.0 0.014963892 0.024681252999999997 0.0 0.020101183999999998 0.026543316 0.0 0.028482296 0.027707677000000003 0.0 0.03919198 0.028114516000000003 0.0 0.045475561 0.028317319 0.0 0.046803638 0.019508496 0.0 0.0086130938 0.020649336 0.0 0.010640031000000001 0.022169085 0.0 0.013354921 0.024093488 0.0 0.017815782 0.02629732 0.0 0.025196287999999997 0.027880721 0.0 0.034706034 0.028896187 0.0 0.040528491 0.029670615 0.0 0.042065285 0.0187151 0.0 0.0077175437 0.019864108000000002 0.0 0.0094959224 0.021346975 0.0 0.011922157 0.023389861 0.0 0.015834397 0.026002711 0.0 0.02233669 0.028251234 0.0 0.030668855 0.030207826 0.0 0.03593871 0.031734518999999996 0.0 0.037639879 0.017807461 0.0 0.0068829074 0.0189957 0.0 0.008503449100000001 0.020499684 0.0 0.010675265 0.022689492000000002 0.0 0.014289201999999999 0.02574197 0.0 0.020061336000000003 0.028957418999999998 0.0 0.02725696 0.032168128 0.0 0.031858694 0.034949351000000003 0.0 0.033733375 0.016858714 0.0 0.006131461800000001 0.018058179 0.0 0.0076414854 0.01967749 0.0 0.0096774623 0.022067512999999997 0.0 0.013180291 0.02554146 0.0 0.018478762 0.02986707 0.0 0.024611291 0.034488671 0.0 0.028411051 0.038662218 0.0 0.030293467 0.0159282 0.0 0.005489253 0.017143238 0.0 0.0068998085 0.018937465 0.0 0.008991098000000001 0.021623336 0.0 0.012533896999999999 0.025452927 0.0 0.017557018 0.030612117 0.0 0.022741819 0.036105506 0.0 0.025775539 0.041266635 0.0 0.027498985 0.015024681000000002 0.0 0.0048924214 0.016356485 0.0 0.0063482649 0.018363789 0.0 0.0086447103 0.021369934 0.0 0.012316691999999999 0.025544951 0.0 0.017124068 0.031007802 0.0 0.021356043999999998 0.036443233 0.0 0.023755621 0.014273126 0.0 0.0044432096 0.01576121 0.0 0.0060537201 0.018038316000000002 0.0 0.0086408528 0.021389373 0.0 0.012493343 0.025913943 0.0 0.016896434 0.031138036 0.0 0.020134998 0.036035046 0.0 0.021941546 0.013724327 0.0 0.004227294600000001 0.015442996 0.0 0.0061061935999999995 0.018083349 0.0 0.009041761 0.021859955 0.0 0.012953511000000001 0.026497481 0.0 0.016605537 0.031077133 0.0 0.01898714 0.01347535 0.0 0.0043596756 0.015571791000000001 0.0 0.0066114352 0.018708501000000002 0.0 0.0098828012 0.022776166 0.0 0.013461762 0.02703036 0.0 0.01627627 0.03069091 0.0 0.017982698999999998 0.013799216000000001 0.0 0.0050420384000000006 0.016491468999999998 0.0 0.0076839533 0.019933978 0.0 0.010895887 0.023748836000000002 0.0 0.013863651000000001 0.027175095 0.0 0.015931813 0.015180208999999998 0.0 0.0063158576000000004 0.018278725 0.0 0.008922233199999999 0.021433365 0.0 0.011722025 0.024344886 0.0 0.014051053 0.017598739 0.0 0.007600174300000001 0.020217197 0.0 0.009963722900000001 0.022438753 0.0 0.012212665 0.024245778 0.0 0.01392591 0.019401761 0.0 0.0087481095 0.020853091 0.0 0.010769952 0.019489054 0.0 0.0096586524 
Acec 3 2975 float
0.0 0.0 0.0 0.0 0.0 0.0 0.0 0.0 0.0 0.0 0.0 0.0 0.0 0.0 0.0 0.0 0.0 0.0 0.0 0.0 0.0 0.0 0.0 0.0 0.0 0.0 0.0 0.0 0.0 0.0 0.0 0.0 0.0 0.0 0.0 0.0 0.0 0.0 0.0 0.0 0.0 0.0 0.0 0.0 0.0 0.0 0.0 0.0 0.0 0.0 0.0 0.0 0.0 0.0 0.0 0.0 0.0 0.0 0.0 0.0 0.0 0.0 0.0 0.0 0.0 0.0 0.0 0.0 0.0 0.0 0.0 0.0 0.0 0.0 0.0 0.0 0.0 0.0 0.0 0.0 0.0 0.0 0.0 0.0 0.0 0.0 0.0 0.0 0.0 0.0 0.0 0.0 0.0 0.0 0.0 0.0 0.0 0.0 0.0 0.0 0.0 0.0 0.0 0.0 0.0 0.0 0.0 0.0 0.0 0.0 0.0 0.0 0.0 0.0 0.0 0.0 0.0 0.0 0.0 0.0 0.0 0.0 0.0 0.0 0.0 0.0 0.0 0.0 0.0 0.0 0.0 0.0 0.0 0.0 0.0 0.0 0.0 0.0 0.0 0.0 0.0 0.0 0.0 0.0 0.0 0.0 0.0 0.0 0.0 0.0 0.0 0.0 0.0 0.0 0.0 0.0 0.0 0.0 0.0 0.0 0.0 0.0 0.0 0.0 0.0 0.0 0.0 0.0 0.0 0.0 0.0 0.0 0.0 0.0 0.0 0.0 0.0 0.0 0.0 0.0 0.0 0.0 0.0 0.0 0.0 0.0 0.0 0.0 0.0 0.0 0.0 0.0 0.0 0.0 0.0 0.0 0.0 0.0 0.0 0.0 0.0 0.0 0.0 0.0 0.0 0.0 0.0 0.0 0.0 0.0 0.0 0.0 0.0 0.0 0.0 0.0 0.0 0.0 0.0 0.0 0.0 0.0 0.0 0.0 0.0 0.0 0.0 0.0 0.0 0.0 0.0 0.0 0.0 0.0 0.0 0.0 0.0 0.0 0.0 0.0 0.0 0.0 0.0 0.0 0.0 0.0 0.0 0.0 0.0 0.0 0.0 0.0 0.0 0.0 0.0 0.0 0.0 0.0 0.0 0.0 0.0 0.0 0.0 0.0 0.0 0.0 0.0 0.0 0.0 0.0 0.0 0.0 0.0 0.0 0.0 0.0 0.0 0.0 0.0 0.0 0.0 0.0 0.0 0.0 0.0 0.0 0.0 0.0 0.0 0.0 0.0 0.0 0.0 0.0 0.0 0.0 0.0 0.0 0.0 0.0 0.0 0.0 0.0 0.0 0.0 0.0 0.0 0.0 0.0 0.0 0.0 0.0 0.0 0.0 0.0 0.0 0.0 0.0 0.0 0.0 0.0 0.0 0.0 0.0 0.0 0.0 0.0 0.0 0.0 0.0 0.0 0.0 0.0 0.0 0.0 0.0 0.0 0.0 0.0 0.0 0.0 0.0 0.0 0.0 0.0 0.0 0.0 0.0 0.0 0.0 0.0 0.0 0.0 0.0 0.0 0.0 0.0 0.0 0.0 0.0 0.0 0.0 0.0 0.0 0.0 0.0 0.0 0.0 0.0 0.0 0.0 0.0 0.0 0.0 0.0 0.0 0.0 0.0 0.0 0.0 0.0 0.0 0.0 0.0 0.0 0.0 0.0 0.0 0.0 0.0 0.0 0.0 0.0 0.0 0.0 0.0 0.0 0.0 0.0 0.0 0.0 0.0 0.0 0.0 0.0 0.0 0.0 0.0 0.0 0.0 0.0 0.0 0.0 0.0 0.0 0.0 0.0 0.0 0.0 0.0 0.0 0.0 0.0 0.0 0.0 0.0 0.0 0.0 0.0 0.0 0.0 0.0 0.0 0.0 0.0 0.0 0.0 0.0 0.0 0.0 0.0 0.0 0.0 0.0 0.0 0.0 0.0 0.0 0.0 0.0 0.0 0.0 0.0 0.0 0.0 0.0 0.0 0.0 0.0 0.0 0.0 0.0 0.0 0.0 0.0 0.0 0.0 0.0 0.0 0.0 0.0 0.0 0.0 0.0 0.0 0.0 0.0 0.0 0.0 0.0 0.0 0.0 0.0 0.0 0.0 0.0 0.0 0.0 0.0 0.0 0.0 0.0 0.0 0.0 0.0 0.0 0.0 0.0 0.0 0.0 0.0 0.0 0.0 0.0 0.0 0.0 0.0 0.0 0.0 0.0 0.0 0.0 0.0 0.0 0.0 0.0 0.0 0.0 0.0 0.0 0.0 0.0 0.0 0.0 0.0 0.0 0.0 0.0 0.0 0.0 0.0 0.0 0.0 0.0 0.0 0.0 0.0 0.0 0.0 0.0 0.0 0.0 0.0 0.0 0.0 0.0 0.0 0.0 0.0 0.0 0.0 0.0 0.0 0.0 0.0 0.0 0.0 0.0 0.0 0.0 0.0 0.0 0.0 0.0 0.0 0.0 0.0 0.0 0.0 0.0 0.0 0.0 0.0 0.0 0.0 0.0 0.0 0.0 0.0 0.0 0.0 0.0 0.0 0.0 0.0 0.0 0.0 0.0 0.0 0.0 0.0 0.0 0.0 0.0 0.0 0.0 0.0 0.0 0.0 0.0 0.0 0.0 0.0 0.0 0.0 0.0 0.0 0.0 0.0 0.0 0.0 0.0 0.0 0.0 0.0 0.0 0.0 0.0 0.0 0.0 0.0 0.0 0.0 0.0 0.0 0.0 0.0 0.0 0.0 0.0 0.0 0.0 0.0 0.0 0.0 0.0 0.0 0.0 0.0 0.0 0.0 0.0 0.0 0.0 0.0 0.0 0.0 0.0 0.0 0.0 0.0 0.0 0.0 0.0 0.0 0.0 0.0 0.0 0.0 0.0 0.0 0.0 0.0 0.0 0.0 0.0 0.0 0.0 0.0 0.0 0.0 0.0 0.0 0.0 0.0 0.0 0.0 0.0 0.0 0.0 0.0 0.0 0.0 0.0 0.0 0.0 0.0 0.0 0.0 0.0 0.0 0.0 0.0 0.0 0.0 0.0 0.0 0.0 0.0 0.0 0.0 0.0 0.0 0.0 0.0 0.0 0.0 0.0 0.0 0.0 0.0 0.0 0.0 0.0 0.0 0.0 0.0 0.0 0.0 0.0 0.0 0.0 0.0 0.0 0.0 0.0 0.0 0.0 0.0 0.0 0.0 0.0 0.0 0.0 0.0 0.0 0.0 0.0 0.0 0.0 0.0 0.0 0.0 0.0 0.0 0.0 0.0 0.0 0.0 0.0 0.0 0.0 0.0 0.0 0.0 0.0 0.0 0.0 0.0 0.0 0.0 0.0 0.0 0.0 0.0 0.0 0.0 0.0 0.0 0.0 0.0 0.0 0.0 0.0 0.0 0.0 0.0 0.0 0.0 0.0 0.0 0.0 0.0 0.0 0.0 0.0 0.0 0.0 0.0 0.0 0.0 0.0 0.0 0.0 0.0 0.0 0.0 0.0 0.0 0.0 0.0 0.0 0.0 0.0 0.0 0.0 0.0 0.0 0.0 0.0 0.0 0.0 0.0 0.0 0.0 0.0 0.0 0.0 0.0 0.0 0.0 0.0 0.0 0.0 0.0 0.0 0.0 0.0 0.0 0.0 0.0 0.0 0.0 0.0 0.0 0.0 0.0 0.0 0.0 0.0 0.0 0.0 0.0 0.0 0.0 0.0 0.0 0.0 0.0 0.0 0.0 0.0 0.0 0.0 0.0 0.0 0.0 0.0 0.0 0.0 0.0 0.0 0.0 0.0 0.0 0.0 0.0 0.0 0.0 0.0 0.0 0.0 0.0 0.0 0.0 0.0 0.0 0.0 0.0 0.0 0.0 0.0 0.0 0.0 0.0 0.0 0.0 0.0 0.0 0.0 0.0 0.0 0.0 0.0 0.0 0.0 0.0 0.0 0.0 0.0 0.0 0.0 0.0 0.0 0.0 0.0 0.0 0.0 0.0 0.0 0.0 0.0 0.0 0.0 0.0 0.0 0.0 0.0 0.0 0.0 0.0 0.0 0.0 0.0 0.0 0.0 0.0 0.0 0.0 0.0 0.0 0.0 0.0 0.0 0.0 0.0 0.0 0.0 0.0 0.0 0.0 0.0 0.0 0.0 0.0 0.0 0.0 0.0 0.0 0.0 0.0 0.0 0.0 0.0 0.0 0.0 0.0 0.0 0.0 0.0 0.0 0.0 0.0 0.0 0.0 0.0 0.0 0.0 0.0 0.0 0.0 0.0 0.0 0.0 0.0 0.0 0.0 0.0 0.0 0.0 0.0 0.0 0.0 0.0 0.0 0.0 0.0 0.0 0.0 0.0 0.0 0.0 0.0 0.0 0.0 0.0 0.0 0.0 0.0 0.0 0.0 0.0 0.0 0.0 0.0 0.0 0.0 0.0 0.0 0.0 0.0 0.0 0.0 0.0 0.0 0.0 0.0 0.0 0.0 0.0 0.0 0.0 0.0 0.0 0.0 0.0 0.0 0.0 0.0 0.0 0.0 0.0 0.0 0.0 0.0 0.0 0.0 0.0 0.0 0.0 0.0 0.0 0.0 0.0 0.0 0.0 0.0 0.0 0.0 0.0 0.0 0.0 0.0 0.0 0.0 0.0 0.0 0.0 0.0 0.0 0.0 0.0 0.0 0.0 0.0 0.0 0.0 0.0 0.0 0.0 0.0 0.0 0.0 0.0 0.0 0.0 0.0 0.0 0.0 0.0 0.0 0.0 0.0 0.0 0.0 0.0 0.0 0.0 0.0 0.0 0.0 0.0 0.0 0.0 0.0 0.0 0.0 0.0 0.0 0.0 0.0 0.0 0.0 0.0 0.0 0.0 0.0 0.0 0.0 0.0 0.0 0.0 0.0 0.0 0.0 0.0 0.0 0.0 0.0 0.0 0.0 0.0 0.0 0.0 0.0 0.0 0.0 0.0 0.0 0.0 0.0 0.0 0.0 0.0 0.0 0.0 0.0 0.0 0.0 0.0 0.0 0.0 0.0 0.0 0.0 0.0 0.0 0.0 0.0 0.0 0.0 0.0 0.0 0.0 0.0 0.0 0.0 0.0 0.0 0.0 0.0 0.0 0.0 0.0 0.0 0.0 0.0 0.0 0.0 0.0 0.0 0.0 0.0 0.0 0.0 0.0 0.0 0.0 0.0 0.0 0.0 0.0 0.0 0.0 0.0 0.0 0.0 0.0 0.0 0.0 0.0 0.0 0.0 0.0 0.0 0.0 0.0 0.0 0.0 0.0 0.0 0.0 0.0 0.0 0.0 0.0 0.0 0.0 0.0 0.0 0.0 0.0 0.0 0.0 0.0 0.0 0.0 0.0 0.0 0.0 0.0 0.0 0.0 0.0 0.0 0.0 0.0 0.0 0.0 0.0 0.0 0.0 0.0 0.0 0.0 0.0 0.0 0.0 0.0 0.0 0.0 0.0 0.0 0.0 0.0 0.0 0.0 0.0 0.0 0.0 0.0 0.0 0.0 0.0 0.0 0.0 0.0 0.0 0.0 0.0 0.0 0.0 0.0 0.0 0.0 0.0 0.0 0.0 0.0 0.0 0.0 0.0 0.0 0.0 0.0 0.0 0.0 0.0 0.0 0.0 0.0 0.0 0.0 0.0 0.0 0.0 0.0 0.0 0.0 0.0 0.0 0.0 0.0 0.0 0.0 0.0 0.0 0.0 0.0 0.0 0.0 0.0 0.0 0.0 0.0 0.0 0.0 0.0 0.0 0.0 0.0 0.0 0.0 0.0 0.0 0.0 0.0 0.0 0.0 0.0 0.0 0.0 0.0 0.0 0.0 0.0 0.0 0.0 0.0 0.0 0.0 0.0 0.0 0.0 0.0 0.0 0.0 0.0 0.0 0.0 0.0 0.0 0.0 0.0 0.0 0.0 0.0 0.0 0.0 0.0 0.0 0.0 0.0 0.0 0.0 0.0 0.0 0.0 0.0 0.0 0.0 0.0 0.0 0.0 0.0 0.0 0.0 0.0 0.0 0.0 0.0 0.0 0.0 0.0 0.0 0.0 0.0 0.0 0.0 0.0 0.0 0.0 0.0 0.0 0.0 0.0 0.0 0.0 0.0 0.0 0.0 0.0 0.0 0.0 0.0 0.0 0.0 0.0 0.0 0.0 0.0 0.0 0.0 0.0 0.0 0.0 0.0 0.0 0.0 0.0 0.0 0.0 0.0 0.0 0.0 0.0 0.0 0.0 0.0 0.0 0.0 0.0 0.0 0.0 0.0 0.0 0.0 0.0 0.0 0.0 0.0 0.0 0.0 0.0 0.0 0.0 0.0 0.0 0.0 0.0 0.0 0.0 0.0 0.0 0.0 0.0 0.0 0.0 0.0 0.0 0.0 0.0 0.0 0.0 0.0 0.0 0.0 0.0 0.0 0.0 0.0 0.0 0.0 0.0 0.0 0.0 0.0 0.0 0.0 0.0 0.0 0.0 0.0 0.0 0.0 0.0 0.0 0.0 0.0 0.0 0.0 0.0 0.0 0.0 0.0 0.0 0.0 0.0 0.0 0.0 0.0 0.0 0.0 0.0 0.0 0.0 0.0 0.0 0.0 0.0 0.0 0.0 0.0 0.0 0.0 0.0 0.0 0.0 0.0 0.0 0.0 0.0 0.0 0.0 0.0 0.0 0.0 0.0 0.0 0.0 0.0 0.0 0.0 0.0 0.0 0.0 0.0 0.0 0.0 0.0 0.0 0.0 0.0 0.0 0.0 0.0 0.0 0.0 0.0 0.0 0.0 0.0 0.0 0.0 0.0 0.0 0.0 0.0 0.0 0.0 0.0 0.0 0.0 0.0 0.0 0.0 0.0 0.0 0.0 0.0 0.0 0.0 0.0 0.0 0.0 0.0 0.0 0.0 0.0 0.0 0.0 0.0 0.0 0.0 0.0 0.0 0.0 0.0 0.0 0.0 0.0 0.0 0.0 0.0 0.0 0.0 0.0 0.0 0.0 0.0 0.0 0.0 0.0 0.0 0.0 0.0 0.0 0.0 0.0 0.0 0.0 0.0 0.0 0.0 0.0 0.0 0.0 0.0 0.0 0.0 0.0 0.0 0.0 0.0 0.0 0.0 0.0 0.0 0.0 0.0 0.0 0.0 0.0 0.0 0.0 0.0 0.0 0.0 0.0 0.0 0.0 0.0 0.0 0.0 0.0 0.0 0.0 0.0 0.0 0.0 0.0 0.0 0.0 0.0 0.0 0.0 0.0 0.0 0.0 0.0 0.0 0.0 0.0 0.0 0.0 0.0 0.0 0.0 0.0 0.0 0.0 0.0 0.0 0.0 0.0 0.0 0.0 0.0 0.0 0.0 0.0 0.0 0.0 0.0 0.0 0.0 0.0 0.0 0.0 0.0 0.0 0.0 0.0 0.0 0.0 0.0 0.0 0.0 0.0 0.0 0.0 0.0 0.0 0.0 0.0 0.0 0.0 0.0 0.0 0.0 0.0 0.0 0.0 0.0 0.0 0.0 0.0 0.0 0.0 0.0 0.0 0.0 0.0 0.0 0.0 0.0 0.0 0.0 0.0 0.0 0.0 0.0 0.0 0.0 0.0 0.0 0.0 0.0 0.0 0.0 0.0 0.0 0.0 0.0 0.0 0.0 0.0 0.0 0.0 0.0 0.0 0.0 0.0 0.0 0.0 0.0 0.0 0.0 0.0 0.0 0.0 0.0 0.0 0.0 0.0 0.0 0.0 0.0 0.0 0.0 0.0 0.0 0.0 0.0 0.0 0.0 0.0 0.0 0.0 0.0 0.0 0.0 0.0 0.0 0.0 0.0 0.0 0.0 0.0 0.0 0.0 0.0 0.0 0.0 0.0 0.0 0.0 0.0 0.0 0.0 0.0 0.0 0.0 0.0 0.0 0.0 0.0 0.0 0.0 0.0 0.0 0.0 0.0 0.0 0.0 0.0 0.0 0.0 0.0 0.0 0.0 0.0 0.0 0.0 0.0 0.0 0.0 0.0 0.0 0.0 0.0 0.0 0.0 0.0 0.0 0.0 0.0 0.0 0.0 0.0 0.0 0.0 0.0 0.0 0.0 0.0 0.0 0.0 0.0 0.0 0.0 0.0 0.0 0.0 0.0 0.0 0.0 0.0 0.0 0.0 0.0 0.0 0.0 0.0 0.0 0.0 0.0 0.0 0.0 0.0 0.0 0.0 0.0 0.0 0.0 0.0 0.0 0.0 0.0 0.0 0.0 0.0 0.0 0.0 0.0 0.0 0.0 0.0 0.0 0.0 0.0 0.0 0.0 0.0 0.0 0.0 0.0 0.0 0.0 0.0 0.0 0.0 0.0 0.0 0.0 0.0 0.0 0.0 0.0 0.0 0.0 0.0 0.0 0.0 0.0 0.0 0.0 0.0 0.0 0.0 0.0 0.0 0.0 0.0 0.0 0.0 0.0 0.0 0.0 0.0 0.0 0.0 0.0 0.0 0.0 0.0 0.0 0.0 0.0 0.0 0.0 0.0 0.0 0.0 0.0 0.0 0.0 0.0 0.0 0.0 0.0 0.0 0.0 0.0 0.0 0.0 0.0 0.0 0.0 0.0 0.0 0.0 0.0 0.0 0.0 0.0 0.0 0.0 0.0 0.0 0.0 0.0 0.0 0.0 0.0 0.0 0.0 0.0 0.0 0.0 0.0 0.0 0.0 0.0 0.0 0.0 0.0 0.0 0.0 0.0 0.0 0.0 0.0 0.0 0.0 0.0 0.0 0.0 0.0 0.0 0.0 0.0 0.0 0.0 0.0 0.0 0.0 0.0 0.0 0.0 0.0 0.0 0.0 0.0 0.0 0.0 0.0 0.0 0.0 0.0 0.0 0.0 0.0 0.0 0.0 0.0 0.0 0.0 0.0 0.0 0.0 0.0 0.0 0.0 0.0 0.0 0.0 0.0 0.0 0.0 0.0 0.0 0.0 0.0 0.0 0.0 0.0 0.0 0.0 0.0 0.0 0.0 0.0 0.0 0.0 0.0 0.0 0.0 0.0 0.0 0.0 0.0 0.0 0.0 0.0 0.0 0.0 0.0 0.0 0.0 0.0 0.0 0.0 0.0 0.0 0.0 0.0 0.0 0.0 0.0 0.0 0.0 0.0 0.0 0.0 0.0 0.0 0.0 0.0 0.0 0.0 0.0 0.0 0.0 0.0 0.0 0.0 0.0 0.0 0.0 0.0 0.0 0.0 0.0 0.0 0.0 0.0 0.0 0.0 0.0 0.0 0.0 0.0 0.0 0.0 0.0 0.0 0.0 0.0 0.0 0.0 0.0 0.0 0.0 0.0 0.0 0.0 0.0 0.0 0.0 0.0 0.0 0.0 0.0 0.0 0.0 0.0 0.0 0.0 0.0 0.0 0.0 0.0 0.0 0.0 0.0 0.0 0.0 0.0 0.0 0.0 0.0 0.0 0.0 0.0 0.0 0.0 0.0 0.0 0.0 0.0 0.0 0.0 0.0 0.0 0.0 0.0 0.0 0.0 0.0 0.0 0.0 0.0 0.0 0.0 0.0 0.0 0.0 0.0 0.0 0.0 0.0 0.0 0.0 0.0 0.0 0.0 0.0 0.0 0.0 0.0 0.0 0.0 0.0 0.0 0.0 0.0 0.0 0.0 0.0 0.0 0.0 0.0 0.0 0.0 0.0 0.0 0.0 0.0 0.0 0.0 0.0 0.0 0.0 0.0 0.0 0.0 0.0 0.0 0.0 0.0 0.0 0.0 0.0 0.0 0.0 0.0 0.0 0.0 0.0 0.0 0.0 0.0 0.0 0.0 0.0 0.0 0.0 0.0 0.0 0.0 0.0 0.0 0.0 0.0 0.0 0.0 0.0 0.0 0.0 0.0 0.0 0.0 0.0 0.0 0.0 0.0 0.0 0.0 0.0 0.0 0.0 0.0 0.0 0.0 0.0 0.0 0.0 0.0 0.0 0.0 0.0 0.0 0.0 0.0 0.0 0.0 0.0 0.0 0.0 0.0 0.0 0.0 0.0 0.0 0.0 0.0 0.0 0.0 0.0 0.0 0.0 0.0 0.0 0.0 0.0 0.0 0.0 0.0 0.0 0.0 0.0 0.0 0.0 0.0 0.0 0.0 0.0 0.0 0.0 0.0 0.0 0.0 0.0 0.0 0.0 0.0 0.0 0.0 0.0 0.0 0.0 0.0 0.0 0.0 0.0 0.0 0.0 0.0 0.0 0.0 0.0 0.0 0.0 0.0 0.0 0.0 0.0 0.0 0.0 0.0 0.0 0.0 0.0 0.0 0.0 0.0 0.0 0.0 0.0 0.0 0.0 0.0 0.0 0.0 0.0 0.0 0.0 0.0 0.0 0.0 0.0 0.0 0.0 0.0 0.0 0.0 0.0 0.0 0.0 0.0 0.0 0.0 0.0 0.0 0.0 0.0 0.0 0.0 0.0 0.0 0.0 0.0 0.0 0.0 0.0 0.0 0.0 0.0 0.0 0.0 0.0 0.0 0.0 0.0 0.0 0.0 0.0 0.0 0.0 0.0 0.0 0.0 0.0 0.0 0.0 0.0 0.0 0.0 0.0 0.0 0.0 0.0 0.0 0.0 0.0 0.0 0.0 0.0 0.0 0.0 0.0 0.0 0.0 0.0 0.0 0.0 0.0 0.0 0.0 0.0 0.0 0.0 0.0 0.0 0.0 0.0 0.0 0.0 0.0 0.0 0.0 0.0 0.0 0.0 0.0 0.0 0.0 0.0 0.0 0.0 0.0 0.0 0.0 0.0 0.0 0.0 0.0 0.0 0.0 0.0 0.0 0.0 0.0 0.0 0.0 0.0 0.0 0.0 0.0 0.0 0.0 0.0 0.0 0.0 0.0 0.0 0.0 0.0 0.0 0.0 0.0 0.0 0.0 0.0 0.0 0.0 0.0 0.0 0.0 0.0 0.0 0.0 0.0 0.0 0.0 0.0 0.0 0.0 0.0 0.0 0.0 0.0 0.0 0.0 0.0 0.0 0.0 0.0 0.0 0.0 0.0 0.0 0.0 0.0 0.0 0.0 0.0 0.0 0.0 0.0 0.0 0.0 0.0 0.0 0.0 0.0 0.0 0.0 0.0 0.0 0.0 0.0 0.0 0.0 0.0 0.0 0.0 0.0 0.0 0.0 0.0 0.0 0.0 0.0 0.0 0.0 0.0 0.0 0.0 0.0 0.0 0.0 0.0 0.0 0.0 0.0 0.0 0.0 0.0 0.0 0.0 0.0 0.0 0.0 0.0 0.0 0.0 0.0 0.0 0.0 0.0 0.0 0.0 0.0 0.0 0.0 0.0 0.0 0.0 0.0 0.0 0.0 0.0 0.0 0.0 0.0 0.0 0.0 0.0 0.0 0.0 0.0 0.0 0.0 0.0 0.0 0.0 0.0 0.0 0.0 0.0 0.0 0.0 0.0 0.0 0.0 0.0 0.0 0.0 0.0 0.0 0.0 0.0 0.0 0.0 0.0 0.0 0.0 0.0 0.0 0.0 0.0 0.0 0.0 0.0 0.0 0.0 0.0 0.0 0.0 0.0 0.0 0.0 0.0 0.0 0.0 0.0 0.0 0.0 0.0 0.0 0.0 0.0 0.0 0.0 0.0 0.0 0.0 0.0 0.0 0.0 0.0 0.0 0.0 0.0 0.0 0.0 0.0 0.0 0.0 0.0 0.0 0.0 0.0 0.0 0.0 0.0 0.0 0.0 0.0 0.0 0.0 0.0 0.0 0.0 0.0 0.0 0.0 0.0 0.0 0.0 0.0 0.0 0.0 0.0 0.0 0.0 0.0 0.0 0.0 0.0 0.0 0.0 0.0 0.0 0.0 0.0 0.0 0.0 0.0 0.0 0.0 0.0 0.0 0.0 0.0 0.0 0.0 0.0 0.0 0.0 0.0 0.0 0.0 0.0 0.0 0.0 0.0 0.0 0.0 0.0 0.0 0.0 0.0 0.0 0.0 0.0 0.0 0.0 0.0 0.0 0.0 0.0 0.0 0.0 0.0 0.0 0.0 0.0 0.0 0.0 0.0 0.0 0.0 0.0 0.0 0.0 0.0 0.0 0.0 0.0 0.0 0.0 0.0 0.0 0.0 0.0 0.0 0.0 0.0 0.0 0.0 0.0 0.0 0.0 0.0 0.0 0.0 0.0 0.0 0.0 0.0 0.0 0.0 0.0 0.0 0.0 0.0 0.0 0.0 0.0 0.0 0.0 0.0 0.0 0.0 0.0 0.0 0.0 0.0 0.0 0.0 0.0 0.0 0.0 0.0 0.0 0.0 0.0 0.0 0.0 0.0 0.0 0.0 0.0 0.0 0.0 0.0 0.0 0.0 0.0 0.0 0.0 0.0 0.0 0.0 0.0 0.0 0.0 0.0 0.0 0.0 0.0 0.0 0.0 0.0 0.0 0.0 0.0 0.0 0.0 0.0 0.0 0.0 0.0 0.0 0.0 0.0 0.0 0.0 0.0 0.0 0.0 0.0 0.0 0.0 0.0 0.0 0.0 0.0 0.0 0.0 0.0 0.0 0.0 0.0 0.0 0.0 0.0 0.0 0.0 0.0 0.0 0.0 0.0 0.0 0.0 0.0 0.0 0.0 0.0 0.0 0.0 0.0 0.0 0.0 0.0 0.0 0.0 0.0 0.0 0.0 0.0 0.0 0.0 0.0 0.0 0.0 0.0 0.0 0.0 0.0 0.0 0.0 0.0 0.0 0.0 0.0 0.0 0.0 0.0 0.0 0.0 0.0 0.0 0.0 0.0 0.0 0.0 0.0 0.0 0.0 0.0 0.0 0.0 0.0 0.0 0.0 0.0 0.0 0.0 0.0 0.0 0.0 0.0 0.0 0.0 0.0 0.0 0.0 0.0 0.0 0.0 0.0 0.0 0.0 0.0 0.0 0.0 0.0 0.0 0.0 0.0 0.0 0.0 0.0 0.0 0.0 0.0 0.0 0.0 0.0 0.0 0.0 0.0 0.0 0.0 0.0 0.0 0.0 0.0 0.0 0.0 0.0 0.0 0.0 0.0 0.0 0.0 0.0 0.0 0.0 0.0 0.0 0.0 0.0 0.0 0.0 0.0 0.0 0.0 0.0 0.0 0.0 0.0 0.0 0.0 0.0 0.0 0.0 0.0 0.0 0.0 0.0 0.0 0.0 0.0 0.0 0.0 0.0 0.0 0.0 0.0 0.0 0.0 0.0 0.0 0.0 0.0 0.0 0.0 0.0 0.0 0.0 0.0 0.0 0.0 0.0 0.0 0.0 0.0 0.0 0.0 0.0 0.0 0.0 0.0 0.0 0.0 0.0 0.0 0.0 0.0 0.0 0.0 0.0 0.0 0.0 0.0 0.0 0.0 0.0 0.0 0.0 0.0 0.0 0.0 0.0 0.0 0.0 0.0 0.0 0.0 0.0 0.0 0.0 0.0 0.0 0.0 0.0 0.0 0.0 0.0 0.0 0.0 0.0 0.0 0.0 0.0 0.0 0.0 0.0 0.0 0.0 0.0 0.0 0.0 0.0 0.0 0.0 0.0 0.0 0.0 0.0 0.0 0.0 0.0 0.0 0.0 0.0 0.0 0.0 0.0 0.0 0.0 0.0 0.0 0.0 0.0 0.0 0.0 0.0 -0.0075845960999999995 0.0 -0.0028034834999999996 -0.0091088936 0.0 -0.0026877956 -0.010396493 0.0 -0.0024727526999999997 -0.011447879 0.0 -0.0022183135 -0.012304686 0.0 -0.0019367934 -0.0084373243 0.0 -0.0040858304 -0.01130175 0.0 -0.0039413152 -0.013718193 0.0 -0.0038278446999999998 -0.015681688 0.0 -0.0035665085999999997 -0.017247546000000002 0.0 -0.0032269815 -0.018503153999999997 0.0 -0.0028217590999999997 -0.012608686000000001 0.0 -0.0054492638000000005 -0.016782392 0.0 -0.005383662900000001 -0.020281568 0.0 -0.0051868353 -0.023130827000000003 0.0 -0.0048201783 -0.025379673 0.0 -0.0043654339 -0.027158154 0.0 -0.0038221385 -0.018364504 0.0 -0.0072625279 -0.024331141 0.0 -0.0071757333 -0.029234555 0.0 -0.0069105653 -0.033198562 0.0 -0.0063969838000000005 -0.036296014 0.0 -0.005782344799999999 -0.038718756 0.0 -0.0050535868 -0.026227606 0.0 -0.009725479399999999 -0.03458415 0.0 -0.0095153013 -0.041327011000000004 0.0 -0.009108119599999999 -0.046696968 0.0 -0.0083968192 -0.050835185 0.0 -0.0075777833999999995 -0.054032410999999995 0.0 -0.0066102864 -0.037021305 0.0 -0.013087071 -0.048542641 0.0 -0.012579848999999999 -0.057652585 0.0 -0.011926107 -0.064780608 0.0 -0.010938995 -0.070185468 0.0 -0.0098546073 -0.074300319 0.0 -0.0085878028 -0.051985297 0.0 -0.017636146000000002 -0.067586109 0.0 -0.016654922 -0.079691179 0.0 -0.015578945 -0.08898221699999999 0.0 -0.014206591999999999 -0.095924065 0.0 -0.01276262 -0.10112932 0.0 -0.01111551 -0.072866097 0.0 -0.02390426 -0.09371595099999999 0.0 -0.022096422 -0.10947573 0.0 -0.020368725 -0.12130647 0.0 -0.018492872 -0.13006255 0.0 -0.016561126000000002 -0.13654384 0.0 -0.014411578000000001 -0.10205879 0.0 -0.032445937 -0.12932828 0.0 -0.02947842 -0.14948103 0.0 -0.026773214 -0.16430013 0.0 -0.024235994 -0.17514451 0.0 -0.021651242 -0.1830866 0.0 -0.018761477 -0.14335486 0.0 -0.043497466 -0.17796516 0.0 -0.039048299 -0.20297042 0.0 -0.03532134 -0.2212117 0.0 -0.03190361 -0.23443963 0.0 -0.028407851 -0.24395807 0.0 -0.024513606 -0.20122662 0.0 -0.057937123 -0.24399486 0.0 -0.051545203 -0.27401105 0.0 -0.046807654000000004 -0.29615492 0.0 -0.042043589000000006 -0.31192952 0.0 -0.037403449 -0.32313281 0.0 -0.032024451 -0.27795371 0.0 -0.092539057 -0.33223486 0.0 -0.07514143 -0.36815262 0.0 -0.064757064 -0.39439803 0.0 -0.056380145 -0.41271999 0.0 -0.049367584000000006 -0.42544222 0.0 -0.041834634 -0.39228797 0.0 -0.16715777 -0.45293438 0.0 -0.12344205 -0.49314195 0.0 -0.09653142099999999 -0.52280992 0.0 -0.078481451 -0.54306614 0.0 -0.066006154 -0.55680597 0.0 -0.054822307 -0.55761045 0.0 -0.26584452 -0.61886215 0.0 -0.19431329 -0.65970147 0.0 -0.14332166 -0.68998462 0.0 -0.11051116 -0.71056509 0.0 -0.089281134 -0.72443092 0.0 -0.071866736 -0.78005743 0.0 -0.38131887 -0.83890069 0.0 -0.28147835 -0.87699264 0.0 -0.20370279 -0.90518653 0.0 -0.15274709 -0.92408025 0.0 -0.11939941 -0.93679547 0.0 -0.093088925 -1.0658108999999998 0.0 -0.51107389 -1.1206426999999999 0.0 -0.38149795 -1.1543012 0.0 -0.27604854 -1.1785101999999998 0.0 -0.20432298 -1.1939732 0.0 -0.15570216 -1.2038702 0.0 -0.11833649 -1.4227991000000002 0.0 -0.6637156 -1.4741899 0.0 -0.49744037 -1.5028336000000002 0.0 -0.35988271 -1.5223018 0.0 -0.26441482 -1.5327071 0.0 -0.19883497 -1.5378194 0.0 -0.14764097 -1.8627851999999998 0.0 -0.84852523 -1.9145499 0.0 -0.63420349 -1.9384593999999997 0.0 -0.45753035 -1.9519136000000001 0.0 -0.33261815 -1.9556811 0.0 -0.24773622 -1.9530196 0.0 -0.18089871 -2.4090437999999996 0.0 -1.0723319 -2.4636586 0.0 -0.79915541 -2.4824035 0.0 -0.57215285 -2.48785 0.0 -0.41160294 -2.4804168 0.0 -0.3014746 -2.4660118 0.0 -0.21766034 -3.0927942 0.0 -1.3478953000000002 -3.1496925 0.0 -0.99780267 -3.1604269 0.0 -0.70753646 -3.1527514 0.0 -0.50168985 -3.1283147000000002 0.0 -0.36112005 -3.0949707 0.0 -0.25847477 -3.9498134 0.0 -1.6841110000000001 -4.0056791 0.0 -1.2371054 -4.002347 0.0 -0.86425197 -3.9726241 0.0 -0.60395682 -3.9211687999999993 0.0 -0.42898491 -3.8590481 0.0 -0.30518433 -5.0220585 0.0 -2.0915605999999998 -5.070617700000001 0.0 -1.5180116000000001 -5.0428805 0.0 -1.04356 -4.9769573 0.0 -0.71751928 -4.8834047 0.0 -0.50732416 -4.7780765999999995 0.0 -0.36156404 -6.3625097 0.0 -2.5817297000000003 -6.3925753 0.0 -1.8466467 -6.323010900000001 0.0 -1.2400223999999997 -6.199049 0.0 -0.84548354 -6.0425625 0.0 -0.59846812 -5.8733629999999994 0.0 -0.43778792 -8.039415400000001 0.0 -3.1634127999999997 -8.029372200000001 0.0 -2.2205665 -7.889262700000001 0.0 -1.4622973999999997 -7.6750412 0.0 -0.994892 -7.426908 0.0 -0.71653247 -7.1677084 0.0 -0.5531497 -10.142911 0.0 -3.8485087999999994 -10.048853999999999 0.0 -2.6357267 -9.792860000000001 0.0 -1.7118642 -9.441201199999998 0.0 -1.1855658000000002 -9.0638409 0.0 -0.88803077 -8.6843605 0.0 -0.73216575 -12.789639999999999 0.0 -4.646565 -12.527550999999999 0.0 -3.0886979 -12.081521 0.0 -1.9990659 -11.534612 0.0 -1.447956 -10.976403999999999 0.0 -1.1591496000000001 -10.441179 0.0 -1.0269209000000001 -16.102757999999998 0.0 -5.542546700000001 -15.538767000000002 0.0 -3.5948504999999997 -14.789497 0.0 -2.3586726000000002 -13.97131 0.0 -1.8446293000000002 -13.175654000000002 0.0 -1.6059332 -12.449489999999999 0.0 -1.5187697 -20.204521 0.0 -6.5621614 -19.129501 0.0 -4.1838951 -17.933542000000003 0.0 -2.8837013 -16.726601000000002 0.0 -2.5093267000000004 -15.641954 0.0 -2.3761194 -14.683917000000001 0.0 -2.3291707 -25.119591 0.0 -7.7128820000000005 -23.264967000000002 0.0 -4.9549432 -21.422808 0.0 -3.734122 -19.627251 0.0 -3.7305653 -18.163462 0.0 -3.7654765 -17.120964 0.0 -3.4990461 -30.696116999999997 0.0 -9.095177699999999 -27.724564 0.0 -6.0435691 -24.734825 0.0 -5.4841347 -22.445589000000002 0.0 -5.5831051 -20.938515 0.0 -5.4319749 -19.721848 0.0 -4.9928212 -36.41502 0.0 -10.688551 -31.846302 0.0 -8.056310700000001 -27.869736 0.0 -7.734834700000001 -25.526972 0.0 -7.8137765 -23.781986 0.0 -7.455551600000001 -22.355377 0.0 -6.884145299999999 -41.877934 0.0 -12.390962 -35.935555 0.0 -10.452291 -31.582394 0.0 -10.362722 -28.597336 0.0 -10.452475 -26.490321999999995 0.0 -10.087969000000001 -24.871786 0.0 -9.207912400000001 -46.107857 0.0 -14.641657999999998 -39.420349 0.0 -14.245946 -34.178146000000005 0.0 -15.571994 -30.995707 0.0 -14.825069000000001 -28.759496999999996 0.0 -13.414106 -27.003086 0.0 -11.943486 -48.534985 0.0 -17.303234 -40.881840000000004 0.0 -19.98584 -35.400203999999995 0.0 -23.933262 -32.50938 0.0 -21.916475 -30.455494 0.0 -18.5973 -28.693759999999997 0.0 -15.717247 -46.925793 0.0 -20.058199 -40.530262 0.0 -26.236555 -35.650894 0.0 -33.208084 -33.3069 0.0 -29.977396000000002 -31.428266999999998 0.0 -24.527060000000002 -29.703153999999998 0.0 -20.097147 -38.674484 0.0 -22.475803 -36.433758000000005 0.0 -30.930922999999996 -33.300499 0.0 -40.213260999999996 -31.792158 0.0 -36.514336 -30.398746000000003 0.0 -29.740065 -28.851374 0.0 -24.181995 -27.360253999999998 0.0 -24.079884 -26.711534999999998 0.0 -32.717166999999996 -25.771112 0.0 -43.490916999999996 -24.717655 0.0 -40.031025 -23.507832 0.0 -32.926048 -22.190741 0.0 -26.912036999999998 -17.044151 0.0 -25.144194 -16.778997 0.0 -33.419559 -16.360792 0.0 -44.535202000000005 -15.753836999999999 0.0 -41.491234000000006 -14.976484 0.0 -34.561398 -14.097610999999999 0.0 -28.513536 -8.9060898 0.0 -25.883098999999998 -8.876466800000001 0.0 -33.701397 -8.7444782 0.0 -44.852951000000004 -8.4831314 0.0 -42.129234000000004 -8.097453100000001 0.0 -35.434917 -7.6259689 0.0 -29.46245 -2.8254737999999997 0.0 -26.402742 -2.9186976000000002 0.0 -33.843826 -2.9627687999999996 0.0 -44.88092 -2.9433917999999997 0.0 -42.310459 -2.8559592 0.0 -35.782757000000004 -2.7109027 0.0 -29.899025 1.9917837 0.0 -26.770567 1.831908 0.0 -33.969421000000004 1.6705053 0.0 -44.803715000000004 1.5123481 0.0 -42.217327000000004 1.3693056000000001 0.0 -35.753807 1.2525631000000002 0.0 -29.934446 6.4024301 0.0 -26.879644 6.1775842 0.0 -34.013615 5.9052242999999995 0.0 -44.635899 5.5886102 0.0 -41.909003999999996 5.245091400000001 0.0 -35.417995 4.9007707 0.0 -29.634415 10.875518 0.0 -26.696451 10.559381 0.0 -33.660725 10.154647 0.0 -43.940643 9.6700325 0.0 -41.12373 9.128767 0.0 -34.686648999999996 8.5676966 0.0 -28.997227000000002 15.407135999999998 0.0 -26.189545000000003 14.97405 0.0 -32.846188 14.416988 0.0 -42.648453 13.752070000000002 0.0 -39.820366 13.009417 0.0 -33.548409 12.235425 0.0 -28.031126 19.718857 0.0 -25.391996 19.158934 0.0 -31.604698 18.445179 0.0 -40.783535 17.600147 0.0 -38.015068 16.661123 0.0 -32.016487 15.684448999999999 0.0 -26.751998999999998 23.469278 0.0 -24.359175 22.791185000000002 0.0 -30.004305 21.934244 0.0 -38.422859 20.925713000000002 0.0 -35.761753000000006 19.809839 0.0 -30.129109999999997 18.652971 0.0 -25.191010000000002 26.384632 0.0 -23.147465 25.283894 0.0 -27.957634000000002 24.637806 0.0 -35.673088 23.49618 0.0 -33.14888 22.208945999999997 0.0 -27.950943 20.783184 0.0 -23.403727 28.399047999999997 0.0 -21.895355 26.955225 0.0 -25.786635999999998 26.415521999999996 0.0 -32.660454 25.156641 0.0 -30.280490999999998 23.362551 0.0 -25.577904 21.468292 0.0 -21.476128 29.866809999999997 0.0 -20.678345 28.187878 0.0 -23.690821 27.338371000000002 0.0 -29.509733 25.682623 0.0 -27.27651 23.443392000000003 0.0 -23.104164 21.364759 0.0 -19.477331 31.084754999999998 0.0 -19.385309 29.209526 0.0 -21.727789 27.717484000000002 0.0 -26.344440000000002 25.624121 0.0 -24.271910000000002 23.133051000000002 0.0 -20.630432 20.988708 0.0 -17.466413 32.476456 0.0 -18.047379 30.141379999999998 0.0 -19.69453 27.964246999999997 0.0 -23.290522 25.423752 0.0 -21.410879 22.655964 0.0 -18.25708 20.441826000000002 0.0 -15.568288 34.657455 0.0 -16.958021 31.609740999999996 0.0 -17.788883 28.425131 0.0 -20.484671 25.167284 0.0 -18.865629000000002 22.095137 0.0 -16.148615 19.822309 0.0 -13.82934 38.290623 0.0 -16.353682 33.796654 0.0 -16.165051000000002 29.235044 0.0 -18.067167 24.99391 0.0 -16.74325 21.563168 0.0 -14.386066 19.173482999999997 0.0 -12.231392999999999 42.424847 0.0 -16.096033 36.31208 0.0 -14.987043 30.122313000000002 0.0 -16.231355999999998 24.878376 0.0 -15.166078 21.137242999999998 0.0 -12.945391 18.569193 0.0 -10.843032000000001 44.839737 0.0 -16.722534 37.728333 0.0 -14.665017 30.837529999999997 0.0 -15.043223000000001 24.947374 0.0 -14.053821 20.92174 0.0 -11.847118 18.034678 0.0 -9.7489758 38.296265000000005 0.0 -14.802325 31.550974 0.0 -14.164447000000001 25.258387 0.0 -13.283156 20.897070000000003 0.0 -11.078563 17.682049 0.0 -8.928376199999999 38.80117 0.0 -14.851132999999999 32.426235 0.0 -13.414064000000002 26.14142 0.0 -12.631544 21.129103 0.0 -10.659182000000001 17.568005 0.0 -8.379632 33.249103999999996 0.0 -13.113083 27.544069 0.0 -11.898113 21.989179999999998 0.0 -10.447004 17.792313 0.0 -8.1677675 33.611709999999995 0.0 -13.323804999999998 28.704040999999997 0.0 -11.762288999999999 23.473116 0.0 -10.318225 18.635212 0.0 -8.3689356 29.429987 0.0 -12.076694999999999 24.950653 0.0 -10.522395 20.069885 0.0 -8.8962078 25.980926999999998 0.0 -11.037932000000001 21.720995000000002 0.0 -9.6025629 26.15513 0.0 -11.550966 23.085888 0.0 -10.316930000000001 -0.012987067 0.0 -0.0016621226 -0.013522478999999999 0.0 -0.0014062484 -0.01393261 0.0 -0.0011818964 -0.014246081 0.0 -0.0009723218400000001 -0.014480683999999999 0.0 -0.00078236603 -0.014653842 0.0 -0.0006058317400000001 -0.014778794 0.0 -0.00043935352 -0.01486334 0.0 -0.00028478404 -0.014912392 0.0 -0.00014005021000000002 -0.019483786 0.0 -0.0024261721 -0.020240959 0.0 -0.0020517332 -0.020813745 0.0 -0.0017191932 -0.021246377 0.0 -0.0014112010000000002 -0.021566886 0.0 -0.0011325043 -0.021800434 0.0 -0.00087408413 -0.021966476000000002 0.0 -0.0006335673400000001 -0.022077588 0.0 -0.00041116902 -0.02214152 0.0 -0.00020220933999999998 -0.028527907999999998 0.0 -0.0032847563 -0.029569792999999997 0.0 -0.0027735233 -0.030347243 0.0 -0.0023173804 -0.030926757000000003 0.0 -0.0018972759 -0.031351656 0.0 -0.0015180235 -0.031659633 0.0 -0.0011686586 -0.031877704 0.0 -0.0008467061000000001 -0.032023106 0.0 -0.0005499821900000001 -0.032106731 0.0 -0.00027060055 -0.040561434 0.0 -0.004332880999999999 -0.041944444000000004 0.0 -0.0036470857000000002 -0.042963665 0.0 -0.0030337751000000003 -0.043713983 0.0 -0.0024724479 -0.044258885 0.0 -0.0019717857 -0.044652618 0.0 -0.0015170837 -0.04493181 0.0 -0.0011001348 -0.045118585 0.0 -0.00071606884 -0.045226339000000004 0.0 -0.00035261959 -0.056432746 0.0 -0.005653568100000001 -0.058211148 0.0 -0.0047451262 -0.059509065 0.0 -0.0039281687 -0.060454607 0.0 -0.003187655 -0.061136529 0.0 -0.0025342817 -0.06162706 0.0 -0.0019488053 -0.061974786 0.0 -0.0014151599 -0.062207688 0.0 -0.00092350243 -0.062342539 0.0 -0.00045542329 -0.077348091 0.0 -0.007334168100000001 -0.07957750599999999 0.0 -0.0061449637 -0.0811878 0.0 -0.0050663189 -0.082347289 0.0 -0.0040971613 -0.083176322 0.0 -0.0032482638 -0.08376926900000001 0.0 -0.0024949906 -0.08418823800000001 0.0 -0.0018132334 -0.08446829 0.0 -0.0011855997 -0.08463048199999999 0.0 -0.00058532774 -0.10493149 0.0 -0.0094868978 -0.10766972 0.0 -0.0079414211 -0.10962074 0.0 -0.0065235635 -0.11100352 0.0 -0.0052581755 -0.11197843 0.0 -0.0041563576000000005 -0.1126679 0.0 -0.0031860289000000003 -0.11315072 0.0 -0.0023149366 -0.11347137 0.0 -0.0015157638 -0.11365673 0.0 -0.0007480463799999999 -0.14121382 0.0 -0.012272792 -0.14451189 0.0 -0.010253484 -0.14681721 0.0 -0.0083879698 -0.14841484 0.0 -0.0067342054 -0.14951639 0.0 -0.0053014639 -0.1502776 0.0 -0.0040494584999999994 -0.15079962 0.0 -0.0029368433000000003 -0.15114096 0.0 -0.0019209369000000001 -0.15133597 0.0 -0.00094742462 -0.18870726 0.0 -0.015906708000000002 -0.19258483 0.0 -0.01323848 -0.19522817 0.0 -0.010768475 -0.19700088 0.0 -0.0085948976 -0.19817664 0.0 -0.0067241117 -0.19895361 0.0 -0.0051053888 -0.1994625 0.0 -0.003687348 -0.19978301 0.0 -0.0024042057 -0.19996038 0.0 -0.0011830863 -0.25055599 0.0 -0.020671252 -0.25499499 0.0 -0.017075144 -0.25791159 0.0 -0.013786778999999999 -0.25976881 0.0 -0.010909686000000002 -0.26091757 0.0 -0.008458891 -0.26161364 0.0 -0.006363103199999999 -0.26202253 0.0 -0.0045605628 -0.26224992 0.0 -0.002955165 -0.26236439 0.0 -0.0014482393 -0.33065242 0.0 -0.02685147 -0.33555663 0.0 -0.021949167999999998 -0.33858225 0.0 -0.017562863999999997 -0.34035349 0.0 -0.013741192 -0.34131077 0.0 -0.01053473 -0.34178492 0.0 -0.0078290636 -0.34198108 0.0 -0.0055478844 -0.34203467 0.0 -0.0035603037 -0.34203762 0.0 -0.0017362604999999998 -0.43374154 0.0 -0.034715299 -0.43889791 0.0 -0.028025901000000002 -0.44176859 0.0 -0.022187827 -0.44318864 0.0 -0.017135287 -0.44370857 0.0 -0.01297786 -0.44375852 0.0 -0.0095139286 -0.4435904 0.0 -0.0066593839 -0.44337177 0.0 -0.0042277095 -0.44320619 0.0 -0.002049329 -0.56552553 0.0 -0.044632468 -0.57052737 0.0 -0.035501978999999996 -0.57283026 0.0 -0.02775174 -0.57349992 0.0 -0.021125367000000003 -0.5732168 0.0 -0.015803082 -0.57254606 0.0 -0.011422344 -0.57178575 0.0 -0.0079041384 -0.57113761 0.0 -0.0049665049 -0.5707134 0.0 -0.0023938704 -0.73280311 0.0 -0.057063802999999996 -0.73693466 0.0 -0.044546623 -0.73796201 0.0 -0.034292392000000005 -0.737239 0.0 -0.025707578 -0.73560905 0.0 -0.018972121 -0.73377919 0.0 -0.013552005 -0.7320984 0.0 -0.0092900982 -0.73079729 0.0 -0.0057850191 -0.72998267 0.0 -0.0027754537 -0.94361377 0.0 -0.07213850299999999 -0.94572312 0.0 -0.055208176 -0.94439524 0.0 -0.041845679 -0.94130898 0.0 -0.030896332000000002 -0.93753076 0.0 -0.022507165 -0.93391031 0.0 -0.015909171 -0.93084711 0.0 -0.010843635 -0.92857873 0.0 -0.0067054196 -0.92719436 0.0 -0.0032090646999999996 -1.2074964 0.0 -0.09015761300000001 -1.2058883 0.0 -0.067489162 -1.2005752 0.0 -0.050201718 -1.1937524 0.0 -0.03666357 -1.1866947 0.0 -0.026436109 -1.180407 0.0 -0.018564418 -1.1753261000000002 0.0 -0.012603213 -1.171667 0.0 -0.0077890405 -1.169471 0.0 -0.0037299921 -1.5357615 0.0 -0.11017174 -1.5280619 0.0 -0.081346348 -1.5165322 0.0 -0.05949242 -1.5040136999999998 0.0 -0.042972811 -1.4921544 0.0 -0.030885011 -1.4820248 0.0 -0.021697221000000003 -1.4740918 0.0 -0.014758897 -1.4684968 0.0 -0.0091823479 -1.4651878999999999 0.0 -0.0044131582 -1.9418714 0.0 -0.13251351 -1.9246291000000002 0.0 -0.096638985 -1.9039173999999999 0.0 -0.069806628 -1.8831495999999999 0.0 -0.050266175999999996 -1.8645004 0.0 -0.036257129 -1.8490438000000002 0.0 -0.025743457 -1.8372313000000002 0.0 -0.017722581 -1.8290421000000001 0.0 -0.01119386 -1.8242552 0.0 -0.0054289121 -2.4409533 0.0 -0.15711629 -2.409339 0.0 -0.11361551 -2.3757091 0.0 -0.081857584 -2.3434196 0.0 -0.059486054000000003 -2.3155313 0.0 -0.043452889 -2.2930052000000005 0.0 -0.031637937000000005 -2.2761471 0.0 -0.022291323 -2.2646296 0.0 -0.0143995 -2.2579724999999997 0.0 -0.0070772478 -3.0492093999999996 0.0 -0.18498343 -2.9972453 0.0 -0.1334991 -2.9453428 0.0 -0.097442567 -2.8975375 0.0 -0.07237111 -2.8574439999999997 0.0 -0.05449862 -2.8258467 0.0 -0.041146979 -2.8026652000000003 0.0 -0.029891409 -2.7870555 0.0 -0.019789506000000002 -2.7781241000000003 0.0 -0.009870993 -3.7830915000000003 0.0 -0.21866676 -3.7025881000000003 0.0 -0.16003175 -3.6258248999999996 0.0 -0.12020697 -3.5576477 0.0 -0.092514224 -3.5019187999999994 0.0 -0.0727892 -3.4590513999999994 0.0 -0.057038060999999994 -3.4281828 0.0 -0.042770725 -3.4077134 0.0 -0.028894875 -3.3961241 0.0 -0.014614008000000001 -4.6591821 0.0 -0.26404887 -4.5396271 0.0 -0.1992839 -4.4296303 0.0 -0.1568355 -4.3352399 0.0 -0.12626085 -4.260025499999999 0.0 -0.10368233 -4.203486 0.0 -0.083942436 -4.16363 0.0 -0.064224251 -4.1375966 0.0 -0.043906297999999996 -4.1230278 0.0 -0.022323392 -5.6948996 0.0 -0.3323341 -5.5231075 0.0 -0.26324147 -5.369912599999999 0.0 -0.21837762 -5.242611900000001 0.0 -0.18323661 -5.1436834000000005 0.0 -0.15501657 -5.0710416 0.0 -0.12767819 -5.0207977 0.0 -0.099008389 -4.9886446 0.0 -0.067859873 -4.9708476 0.0 -0.034561037999999995 -6.9089766 0.0 -0.4418672 -6.669676299999999 0.0 -0.37072381 -6.4624081 0.0 -0.32149932 -6.2949715 0.0 -0.27825832 -6.1680012 0.0 -0.23787051 -6.0768027 0.0 -0.19651549 -6.015001799999999 0.0 -0.15197311 -5.9761128 0.0 -0.10375755 -5.954944599999999 0.0 -0.052514995999999994 -8.3215151 0.0 -0.62539458 -7.9990811 0.0 -0.55230838 -7.7268519 0.0 -0.48980215 -7.512148900000001 0.0 -0.42838973 -7.3526316 0.0 -0.36527002 -7.240622500000001 0.0 -0.29948887 -7.166071400000001 0.0 -0.2300034 -7.1201262000000005 0.0 -0.15605837 -7.0955566999999995 0.0 -0.079088487 -9.9524937 0.0 -0.92997682 -9.532795 0.0 -0.84689063 -9.1861629 0.0 -0.75486606 -8.9176388 0.0 -0.65647143 -8.7212543 0.0 -0.55267495 -8.5857439 0.0 -0.44650632 -8.4977598 0.0 -0.33812466 -8.444490400000001 0.0 -0.22835214 -8.415922199999999 0.0 -0.116045 -11.817736 0.0 -1.4223447 -11.288936999999999 0.0 -1.3026395 -10.86092 0.0 -1.1471781 -10.532862 0.0 -0.98022288 -10.294782000000001 0.0 -0.815027 -10.13308 0.0 -0.64930892 -10.029935 0.0 -0.4855279 -9.9688597 0.0 -0.3232832 -9.937283500000001 0.0 -0.16074586 -13.910260999999998 0.0 -2.1730235 -13.283657999999999 0.0 -1.9356531000000003 -12.764316 0.0 -1.6857665000000002 -12.367182000000001 0.0 -1.4173436000000001 -12.081037 0.0 -1.1552051 -11.890503 0.0 -0.90998065 -11.770418 0.0 -0.67761534 -11.701559 0.0 -0.44446388 -11.666461 0.0 -0.21842894 -16.219006 0.0 -3.1924212000000005 -15.478364000000001 0.0 -2.8093457 -14.864926 0.0 -2.4035747000000005 -14.392929 0.0 -1.9984988999999997 -14.057601000000002 0.0 -1.6026758999999997 -13.834985000000001 0.0 -1.234108 -13.697884 0.0 -0.89871144 -13.618326000000001 0.0 -0.59512544 -13.580706 0.0 -0.29360119 -18.681288000000002 0.0 -4.5051336 -17.81212 0.0 -3.9291279 -17.090429 0.0 -3.3253427 -16.535946 0.0 -2.7133765 -16.145044 0.0 -2.1367127999999997 -15.886776000000001 0.0 -1.6313393999999999 -15.729822 0.0 -1.167992 -15.642192000000001 0.0 -0.74917537 -15.595426000000002 0.0 -0.37508857 -21.167419 0.0 -6.122848 -20.167522 0.0 -5.2316971 -19.315327 0.0 -4.365917700000001 -18.680193 0.0 -3.5136260999999998 -18.214962 0.0 -2.7387240000000004 -17.912441 0.0 -2.0479121 -17.732929000000002 0.0 -1.4366093 -17.626785 0.0 -0.92343831 -17.572129999999998 0.0 -0.44108668 -23.53027 0.0 -8.107666 -22.373409 0.0 -6.942023799999999 -21.404873000000002 0.0 -5.6870775 -20.697096 0.0 -4.4416199 -20.165663000000002 0.0 -3.338161 -19.80122 0.0 -2.4317269 -19.57357 0.0 -1.7010740000000002 -19.437637 0.0 -1.0738524 -19.368853 0.0 -0.51219821 -25.518909 0.0 -10.423738 -24.263721 0.0 -8.8102388 -23.218479000000002 0.0 -7.146274099999999 -22.389826 0.0 -5.511881400000001 -21.794777 0.0 -4.0535383000000005 -21.381145 0.0 -2.8657546000000003 -21.075449 0.0 -1.9561449 -20.903791000000002 0.0 -1.1973479 -20.802568 0.0 -0.5717864 -27.177953999999996 0.0 -13.300056 -25.863751999999998 0.0 -11.079442 -24.775665 0.0 -8.863386199999999 -23.899759 0.0 -6.7484836999999995 -23.202494 0.0 -4.9214268 -22.692526 0.0 -3.429261 -22.333761 0.0 -2.2648661 -22.102648000000002 0.0 -1.3748418 -21.978872 0.0 -0.66365427 -28.061728999999996 0.0 -16.723297 -26.653507 0.0 -13.771567000000001 -25.513873999999998 0.0 -10.894881 -24.595974 0.0 -8.1873369 -23.900558 0.0 -5.8523207 -23.36455 0.0 -4.0183606 -22.99411 0.0 -2.6198709 -22.748102 0.0 -1.5728226 -22.612143 0.0 -0.7423411 -27.307146000000003 0.0 -19.938667000000002 -25.929756 0.0 -16.343039 -24.808191 0.0 -12.854121000000001 -23.926609 0.0 -9.5553837 -23.271694 0.0 -6.720047 -22.801497 0.0 -4.495202099999999 -22.48477 0.0 -2.8572626 -22.28631 0.0 -1.6740745 -22.179989000000003 0.0 -0.77374202 -20.880879999999998 0.0 -22.234661 -19.710707 0.0 -18.238297 -18.745827 0.0 -14.341165 -18.000598999999998 0.0 -10.637186999999999 -17.459316 0.0 -7.4584827 -17.088151999999997 0.0 -4.9622345 -16.846664 0.0 -3.1336912999999997 -16.699023999999998 0.0 -1.8246582999999998 -16.619671 0.0 -0.83907324 -13.210764000000001 0.0 -23.693154999999997 -12.398666 0.0 -19.493776 -11.712328999999999 0.0 -15.355488000000001 -11.173232 0.0 -11.403841 -10.777863 0.0 -8.0033064 -10.504854 0.0 -5.3287654 -10.325895 0.0 -3.3676322 -10.21544 0.0 -1.9622068 -10.155482000000001 0.0 -0.90283322 -7.1238136 0.0 -24.610813 -6.643523200000001 0.0 -20.314262 -6.2243333 0.0 -16.034195 -5.8889294 0.0 -11.923794000000001 -5.6402969 0.0 -8.3758984 -5.467144 0.0 -5.5814915 -5.3523068 0.0 -3.530617 -5.2803617 0.0 -2.0592 -5.2407875 0.0 -0.94815987 -2.5285428 0.0 -25.070147 -2.3344896 0.0 -20.747187 -2.1542548999999998 0.0 -16.40321 -2.0055671000000004 0.0 -12.210851 -1.8934883000000002 0.0 -8.5836983 -1.8141749 0.0 -5.7240915 -1.7603354 0.0 -3.6241267 -1.7254883 0.0 -2.1158831 -1.7057468999999996 0.0 -0.97507674 1.1691201999999998 0.0 -25.149803 1.1171848 0.0 -20.846319 1.0871801 0.0 -16.49861 1.0694734 0.0 -12.289173 1.0588362 0.0 -8.6424561 1.053275 0.0 -5.7663417 1.0515303999999999 0.0 -3.6536601 1.0520251 0.0 -2.1350384 1.0531667 0.0 -0.98458028 4.5833955 0.0 -24.905441 4.3127146 0.0 -20.656326 4.0954881 0.0 -16.355129 3.9297369 0.0 -12.184458 3.8099952000000004 0.0 -8.570017800000002 3.7286987000000003 0.0 -5.7197471 3.6769209000000003 0.0 -3.6260567000000004 3.6462790999999997 0.0 -2.1203467999999996 3.6304333 0.0 -0.97838736 8.031353 0.0 -24.365938 7.558908 0.0 -20.210707 7.1716942999999995 0.0 -16.002352 6.8731008000000005 0.0 -11.920237 6.6560345000000005 0.0 -8.3833551 6.5070548 0.0 -5.595439900000001 6.4104605 0.0 -3.5481701 6.3517871 0.0 -2.0756195 6.320498000000001 0.0 -0.95809221 11.489947 0.0 -23.550248999999997 10.829495 0.0 -19.532534 10.287194 0.0 -15.462616 9.8692904 0.0 -11.514864 9.565312400000002 0.0 -8.0958929 9.3561888 0.0 -5.4024673 9.2196646 0.0 -3.4256349000000004 9.135978699999999 0.0 -2.0041225 9.0909576 0.0 -0.92523271 14.744508999999999 0.0 -22.478014 13.912897000000001 0.0 -18.643457 13.232154000000001 0.0 -14.756098999999999 12.708967 0.0 -10.984748 12.32898 0.0 -7.7196193 12.067391 0.0 -5.149001599999999 11.896152 0.0 -3.2636857000000004 11.79075 0.0 -1.9089285 11.733775 0.0 -0.88116014 17.541168 0.0 -21.177767000000003 16.559698 0.0 -17.569729000000002 15.757301000000002 0.0 -13.90538 15.140585 0.0 -10.347893 14.690664000000002 0.0 -7.2679070999999995 14.379826999999999 0.0 -4.8446569 14.175276 0.0 -3.0692958999999997 14.049126999999999 0.0 -1.7947249 13.97995 0.0 -0.82818478 19.400479999999998 0.0 -19.69961 18.182238 0.0 -16.353725 17.208218 0.0 -12.947622 16.458597 0.0 -9.636961 15.872731 0.0 -6.7838997999999995 15.442609 0.0 -4.540629900000001 15.148129 0.0 -2.8944718999999997 14.947909 0.0 -1.7051171999999999 14.841076000000001 0.0 -0.79256696 19.824301000000002 0.0 -18.117287 18.474210999999997 0.0 -15.045957999999999 17.413135999999998 0.0 -11.921548 16.597614 0.0 -8.884487199999999 15.963662 0.0 -6.2815094 15.486903 0.0 -4.2361951 15.157022 0.0 -2.7226572 14.944251999999999 0.0 -1.6139008 14.820801999999999 0.0 -0.74683851 19.668034 0.0 -16.470551 18.299938 0.0 -13.695554999999999 17.216476 0.0 -10.852658 16.353235 0.0 -8.1226664 15.710797 0.0 -5.7563944000000005 15.252666 0.0 -3.889446 14.927979 0.0 -2.5106034 14.712219000000001 0.0 -1.5054172 14.608657000000001 0.0 -0.72632575 19.264324 0.0 -14.834615 17.868292 0.0 -12.349103 16.768818 0.0 -9.816185 15.929870000000001 0.0 -7.354897 15.282008 0.0 -5.2285981 14.854679 0.0 -3.5487292 14.557075 0.0 -2.3160715 14.370757999999999 0.0 -1.4158705 14.246388 0.0 -0.66212648 18.682714 0.0 -13.258389000000001 17.293905 0.0 -11.059905 16.214760000000002 0.0 -8.803085300000001 15.397151000000001 0.0 -6.612124400000001 14.799626000000002 0.0 -4.7188277 14.381928 0.0 -3.2507482000000003 14.085296 0.0 -2.1623959999999998 13.919424 0.0 -1.3100911 13.816891 0.0 -0.61421812 18.073656 0.0 -11.750625999999999 16.694429 0.0 -9.8152037 15.600660000000001 0.0 -7.8437657000000005 14.784877 0.0 -5.9388051 14.198432999999998 0.0 -4.2990937 13.801566000000001 0.0 -2.9985192000000005 13.56395 0.0 -2.0177932000000003 13.396569 0.0 -1.2274923 13.314748000000002 0.0 -0.58110726 17.426052 0.0 -10.391098 16.001854 0.0 -8.6659384 14.928845 0.0 -6.974955099999999 14.109096 0.0 -5.338107099999999 13.538352 0.0 -3.9154677 13.183714000000002 0.0 -2.7936897000000003 12.943585 0.0 -1.8726993000000003 12.796158 0.0 -1.1431777 12.726661 0.0 -0.54246032 16.716677 0.0 -9.1916008 15.288047 0.0 -7.6488857 14.195898000000001 0.0 -6.1990628 13.386576000000002 0.0 -4.7947583 12.850762 0.0 -3.5911131000000003 12.505591 0.0 -2.5742192000000004 12.279437 0.0 -1.7409663 12.149727 0.0 -1.0749226 12.088239999999999 0.0 -0.52038735 16.035936 0.0 -8.1213341 14.588345 0.0 -6.7586546 13.471045000000002 0.0 -5.4527564 12.678175999999999 0.0 -4.289979 12.161311999999999 0.0 -3.2588158 11.825777 0.0 -2.3716271 11.606883999999999 0.0 -1.6228379 11.484502 0.0 -1.0100566999999998 11.415928 0.0 -0.5018844 15.467535999999999 0.0 -7.2267022 13.931738000000001 0.0 -5.9131155 12.821099 0.0 -4.7808375 12.024837 0.0 -3.7926900000000003 11.512255999999999 0.0 -2.9410328999999997 11.165389999999999 0.0 -2.1656485 10.952946 0.0 -1.5100459 10.822032 0.0 -0.95598775 10.754760000000001 0.0 -0.46963066 15.081791 0.0 -6.569766499999999 13.403284 0.0 -5.2120252 12.231247999999999 0.0 -4.1629385999999995 11.45163 0.0 -3.3357637 10.917059 0.0 -2.6178019 10.570036 0.0 -1.9788580000000002 10.338824 0.0 -1.4002017 10.196943 0.0 -0.90037525 10.130055 0.0 -0.43869302 14.940972 0.0 -6.1833258 13.047302 0.0 -4.705273200000001 11.787841 0.0 -3.6634021 10.939939 0.0 -2.8951432999999995 10.402103 0.0 -2.3041275000000003 10.031487 0.0 -1.7623921999999999 9.7928286 0.0 -1.2821708 9.643507000000001 0.0 -0.82515287 9.5703859 0.0 -0.40370777 15.194837 0.0 -6.1749573 12.960469 0.0 -4.4965949 11.521502 0.0 -3.3417343999999995 10.570072 0.0 -2.5483658 9.966876 0.0 -1.9899266 9.5768795 0.0 -1.5423641000000001 9.3201761 0.0 -1.1245848 9.168436999999999 0.0 -0.73764348 9.085662800000001 0.0 -0.35916588 16.158628 0.0 -6.727383099999999 13.328782 0.0 -4.7400150000000005 11.524064 0.0 -3.3132949000000003 10.387139999999999 0.0 -2.3858078 9.6719141 0.0 -1.7625656000000003 9.2171049 0.0 -1.3199821000000003 8.9341459 0.0 -0.95408708 8.7733641 0.0 -0.63003653 8.685521099999999 0.0 -0.30669305 17.849834 0.0 -7.6566467000000005 14.563212 0.0 -5.6370726 12.12923 0.0 -3.8683834000000004 10.517233000000001 0.0 -2.5903167999999996 9.576739300000002 0.0 -1.7691871 9.0059109 0.0 -1.2358421 8.6581326 0.0 -0.84519958 8.4508162 0.0 -0.53334653 8.3492966 0.0 -0.25976393 19.875944 0.0 -8.6215515 16.825666000000002 0.0 -6.6953797 13.898183 0.0 -4.9873719 11.531656 0.0 -3.5295142999999998 10.013414 0.0 -2.2965467 9.102049800000001 0.0 -1.4583071 8.5903769 0.0 -0.90834373 8.3183317 0.0 -0.53264719 8.1774921 0.0 -0.24798046 20.987103 0.0 -9.5526457 18.841406 0.0 -7.774391199999999 16.561766 0.0 -6.036725 14.21778 0.0 -4.5617361 12.070414999999999 0.0 -3.3337052000000003 10.384003 0.0 -2.3050921000000004 9.281000099999998 0.0 -1.4588239 8.6793222 0.0 -0.82267368 8.3941011 0.0 -0.36630222 19.489607 0.0 -8.8269815 18.143154 0.0 -7.2340603 16.673727 0.0 -5.678854 15.091344 0.0 -4.2839775 13.616966 0.0 -3.0451745999999997 12.447610000000001 0.0 -1.9830537 11.663107 0.0 -1.1480786 11.227746 0.0 -0.51706356 17.506798 0.0 -6.916597400000001 16.782792999999998 0.0 -5.4357470999999995 16.012547 0.0 -3.9569172999999993 15.356798000000001 0.0 -2.580193 14.894478 0.0 -1.4818811 14.626953 0.0 -0.66167402 16.472332 0.0 -5.025946599999999 16.326229 0.0 -3.287009 16.208988 0.0 -1.873848 16.132326000000003 0.0 -0.82900321 -0.014928641000000001 0.0 -1.3101258e-09 -0.014912409 0.0 0.00014004996 -0.014863351 0.0 0.00028478436000000003 -0.014778795 0.0 0.00043935294000000004 -0.014653843 0.0 0.00060583197 -0.014480681 0.0 0.00078236591 -0.014246074 0.0 0.0009723191000000001 -0.013932625 0.0 0.0011818979 -0.022162559 0.0 2.3401325e-10 -0.022141509 0.0 0.00020220638999999998 -0.02207759 0.0 0.0004111653 -0.021966452 0.0 0.00063356501 -0.021800444 0.0 0.00087408413 -0.021566905 0.0 0.0011325048 -0.021246377 0.0 0.0014111983 -0.020813726 0.0 0.0017191916000000001 -0.032134183 0.0 -1.952829e-10 -0.032106712 0.0 0.00027060319999999997 -0.032023102000000005 0.0 0.00054997945 -0.031877685 0.0 0.00084670517 -0.03165964 0.0 0.001168658 -0.031351673999999996 0.0 0.0015180217999999999 -0.030926767999999997 0.0 0.0018972791 -0.030347238999999998 0.0 0.0023173771 -0.045261785 0.0 -7.3256157e-09 -0.045226358 0.0 0.00035261779000000004 -0.045118585 0.0 0.0007160656399999999 -0.044931792000000005 0.0 0.001100135 -0.044652637 0.0 0.0015170828 -0.04425887 0.0 0.0019717806 -0.043714024000000004 0.0 0.0024724402 -0.04296365 0.0 0.0030337833 -0.062386940999999994 0.0 1.0741551999999999e-08 -0.062342539 0.0 0.00045541022000000005 -0.062207673 0.0 0.00092349539 -0.061974738 0.0 0.0014151578 -0.061627037999999995 0.0 0.0019488027 -0.061136536 0.0 0.0025342826 -0.060454622 0.0 0.0031876592 -0.059509084000000004 0.0 0.0039281611999999995 -0.084683873 0.0 5.3520992e-09 -0.08463053400000001 0.0 0.00058534619 -0.08446832 0.0 0.001185602 -0.08418820800000001 0.0 0.0018132346 -0.08376937400000001 0.0 0.0024949885000000002 -0.083176352 0.0 0.0032482676 -0.082347244 0.0 0.004097160900000001 -0.081187822 0.0 0.0050662942 -0.11371735 0.0 -9.8684652e-09 -0.11365669 0.0 0.0007480344500000001 -0.11347134 0.0 0.0015157507999999998 -0.11315066 0.0 0.0023149343 -0.11266783 0.0 0.0031860236 -0.11197846 0.0 0.0041563669 -0.11100355 0.0 0.0052581849 -0.10962074 0.0 0.00652357 -0.15139937 0.0 1.5237166000000003e-08 -0.15133601 0.0 0.0009474654800000001 -0.15114091 0.0 0.0019209338 -0.15079951 0.0 0.0029368359000000004 -0.15027764 0.0 0.0040494618 -0.14951658 0.0 0.0053014685 -0.14841484 0.0 0.0067342403 -0.14681715 0.0 0.0083879661 -0.2000166 0.0 -3.9818033e-09 -0.19996037 0.0 0.0011830515 -0.19978297 0.0 0.0024041862 -0.19946241 0.0 0.0036873515000000003 -0.19895354 0.0 0.0051053781 -0.1981765 0.0 0.006724121 -0.19700101 0.0 0.0085948892 -0.19522831 0.0 0.010768423000000001 -0.2623986 0.0 3.6712528e-08 -0.26236448 0.0 0.0014482826000000002 -0.26225004 0.0 0.0029551438 -0.26202229 0.0 0.0045605307 -0.26161352 0.0 0.0063630813 -0.26091754 0.0 0.0084589049 -0.25976884 0.0 0.010909702 -0.25791168 0.0 0.013786782 -0.34203306 0.0 1.8806546000000002e-08 -0.34203762 0.0 0.0017362438 -0.34203464 0.0 0.0035603107 -0.34198117 0.0 0.0055478470999999994 -0.34178495 0.0 0.007829009599999999 -0.34131038 0.0 0.010534743000000001 -0.34035337 0.0 0.013741211000000001 -0.33858228 0.0 0.017562905 -0.44314429 0.0 3.7174161e-08 -0.44320607 0.0 0.0020494351999999997 -0.44337147 0.0 0.0042277467 -0.44359019 0.0 0.006659361999999999 -0.44375873 0.0 0.009513929499999999 -0.44370827 0.0 0.012977873999999999 -0.44318876 0.0 0.017135272 -0.44176844 0.0 0.022187732 -0.570566 0.0 -1.9356354999999998e-07 -0.57071382 0.0 0.0023939009 -0.57113791 0.0 0.0049664234 -0.57178569 0.0 0.0079041785 -0.57254571 0.0 0.011422278000000001 -0.5732168 0.0 0.015803024 -0.57350004 0.0 0.021125328 -0.57283032 0.0 0.027751705 -0.72970676 0.0 2.8834904e-08 -0.7299825 0.0 0.0027756549 -0.73079717 0.0 0.005784954399999999 -0.73209858 0.0 0.0092900973 -0.73377955 0.0 0.013552025 -0.73560888 0.0 0.01897213 -0.73723912 0.0 0.025707663999999998 -0.73796195 0.0 0.034292433 -0.92673111 0.0 1.0319525e-08 -0.92719436 0.0 0.0032089707 -0.92857885 0.0 0.0067053571999999995 -0.93084747 0.0 0.010843561000000002 -0.93391031 0.0 0.015909277 -0.9375307 0.0 0.022507112000000003 -0.94130921 0.0 0.030896343 -0.94439465 0.0 0.041846115 -1.1687435 0.0 1.4981457999999998e-07 -1.1694712999999999 0.0 0.0037297669 -1.1716659 0.0 0.0077890162 -1.1753256 0.0 0.012602977 -1.180407 0.0 0.018564399 -1.1866948999999998 0.0 0.026435993999999997 -1.1937528 0.0 0.036663435 -1.2005758 0.0 0.050201174 -1.4640973999999998 0.0 1.6605384000000001e-07 -1.4651863999999999 0.0 0.0044130944 -1.4684972 0.0 0.0091826366 -1.4740919 0.0 0.014758789 -1.482024 0.0 0.021697165 -1.4921551000000002 0.0 0.030885139 -1.5040133999999998 0.0 0.042972662 -1.5165316 0.0 0.059492294 -1.8226856 0.0 9.7103225e-08 -1.8242547999999998 0.0 0.0054286406 -1.8290418000000002 0.0 0.01119335 -1.8372306 0.0 0.017722484 -1.8490428 0.0 0.025743315 -1.8645017 0.0 0.036257042999999996 -1.8831488999999997 0.0 0.050266128 -1.9039166 0.0 0.069807418 -2.2557982999999995 0.0 3.4538652e-07 -2.2579708 0.0 0.0070780455 -2.2646303 0.0 0.014399695 -2.2761462000000003 0.0 0.022291206 -2.2930042999999998 0.0 0.031637982 -2.3155315 0.0 0.043452795999999995 -2.3434209999999998 0.0 0.059486277000000004 -2.3757076 0.0 0.081857271 -2.7752225 0.0 7.227128e-07 -2.7781229 0.0 0.0098707536 -2.7870564 0.0 0.01978958 -2.8026655 0.0 0.029891143999999998 -2.8258491 0.0 0.041146945 -2.8574447999999997 0.0 0.054497968 -2.8975389 0.0 0.072371356 -2.9453417999999996 0.0 0.09744200900000001 -3.3923862000000002 0.0 6.845296000000001e-07 -3.3961224999999997 0.0 0.014614024 -3.4077156000000004 0.0 0.028894912000000002 -3.4281857000000002 0.0 0.042770989 -3.4590525999999997 0.0 0.057038035 -3.5019195 0.0 0.072788768 -3.5576502999999997 0.0 0.092514493 -3.6258239999999997 0.0 0.12020647 -4.1183543 0.0 1.1074803e-07 -4.1230259 0.0 0.022322321000000003 -4.1375961000000006 0.0 0.043905713 -4.1636281 0.0 0.064223751 -4.2034874 0.0 0.08394254699999999 -4.2600241 0.0 0.1036827 -4.3352413 0.0 0.12626043 -4.4296317 0.0 0.15683471 -4.9651761 0.0 1.77812e-06 -4.970848999999999 0.0 0.034560706000000004 -4.9886456 0.0 0.06785947099999999 -5.0207977 0.0 0.09900908900000001 -5.0710382 0.0 0.12767829 -5.143688200000001 0.0 0.15501615 -5.242609 0.0 0.18323712 -5.369914499999999 0.0 0.21837839 -5.9482098 0.0 2.3892035000000003e-06 -5.9549475 0.0 0.05251522 -5.9761128 0.0 0.10375814 -6.0150032 0.0 0.15197325 -6.0767994000000005 0.0 0.19651586 -6.1680044999999994 0.0 0.23787132 -6.2949705 0.0 0.27825767 -6.4624095 0.0 0.32150227 -7.0878334 0.0 -1.5171295000000001e-06 -7.0955585999999995 0.0 0.07908888900000001 -7.120126700000001 0.0 0.15605761 -7.1660728 0.0 0.23000284 -7.2406297 0.0 0.29948774 -7.3526368 0.0 0.36526966 -7.512150800000001 0.0 0.42838806 -7.7268514999999995 0.0 0.48980179 -8.4071226 0.0 -3.9322003e-07 -8.4159193 0.0 0.11604199 -8.4444914 0.0 0.2283524 -8.497763599999999 0.0 0.3381249 -8.585742999999999 0.0 0.4465065 -8.7212543 0.0 0.55267537 -8.9176331 0.0 0.65647095 -9.1861591 0.0 0.7548663 -9.926933300000002 0.0 -1.744329e-06 -9.9372883 0.0 0.16074176 -9.9688501 0.0 0.32327983 -10.029933 0.0 0.48552829 -10.133068 0.0 0.6493091 -10.294773 0.0 0.8150264 -10.532871 0.0 0.98022068 -10.860924 0.0 1.1471775 -11.656310000000001 0.0 6.7158771e-06 -11.666456 0.0 0.21842644 -11.701566 0.0 0.44446939 -11.770430000000001 0.0 0.67761421 -11.890500999999999 0.0 0.90997922 -12.081043 0.0 1.1552079 -12.367177 0.0 1.417343 -12.764325 0.0 1.6857698 -13.569351999999999 0.0 2.5298559e-06 -13.580706 0.0 0.29359484 -13.618321 0.0 0.59512174 -13.697873999999999 0.0 0.89871174 -13.834979999999998 0.0 1.234108 -14.057604000000001 0.0 1.6026751000000001 -14.392926000000001 0.0 1.9984978 -14.864935999999998 0.0 2.4035747000000005 -15.582088 0.0 5.7381403e-06 -15.595413 0.0 0.37508017 -15.642171 0.0 0.74917644 -15.729810999999998 0.0 1.1679893 -15.886779 0.0 1.6313417 -16.145035 0.0 2.1367133 -16.535954999999998 0.0 2.7133708 -17.090418 0.0 3.3253415 -17.559027 0.0 3.1945092e-06 -17.57214 0.0 0.44109431 -17.626791 0.0 0.92342699 -17.732937 0.0 1.436609 -17.912449 0.0 2.0479152 -18.21496 0.0 2.7387245 -18.680182000000002 0.0 3.5136247000000003 -19.315325 0.0 4.365932 -19.348978 0.0 -3.5132107000000004e-06 -19.368843 0.0 0.51220107 -19.437620000000003 0.0 1.0738491000000001 -19.573572 0.0 1.7010651 -19.801222 0.0 2.4317248 -20.165653 0.0 3.3381547999999994 -20.697096 0.0 4.4416289 -21.404871 0.0 5.6870685 -20.757151 0.0 1.5195226000000001e-05 -20.802567 0.0 0.57179302 -20.903812 0.0 1.1973454 -21.075439000000003 0.0 1.9561452000000001 -21.381132 0.0 2.8657539 -21.79475 0.0 4.0535359 -22.389828 0.0 5.5118799 -23.218472 0.0 7.146275999999999 -21.947094 0.0 3.3494551e-05 -21.97888 0.0 0.66366702 -22.102654 0.0 1.3748608999999998 -22.333784 0.0 2.264859 -22.692545000000003 0.0 3.4292562000000006 -23.202479999999998 0.0 4.9214244 -23.899782000000002 0.0 6.7484913 -24.775658 0.0 8.8634081 -22.582235 0.0 -2.963189e-05 -22.612157999999997 0.0 0.74233711 -22.748104 0.0 1.5728176999999999 -22.99411 0.0 2.6198609 -23.364573999999998 0.0 4.0183558 -23.900554999999997 0.0 5.852337400000001 -24.595978 0.0 8.187356 -25.513863 0.0 10.894863 -22.147272 0.0 7.023801999999999e-06 -22.179976 0.0 0.77374136 -22.286301 0.0 1.6740761000000002 -22.484773999999998 0.0 2.857265 -22.801482999999998 0.0 4.4951944 -23.271683 0.0 6.7200599 -23.926634 0.0 9.5554056 -24.808189000000002 0.0 12.854119 -16.594662 0.0 2.0378036e-05 -16.619675 0.0 0.83907866 -16.699013 0.0 1.8246403999999998 -16.846664 0.0 3.1336911 -17.088129000000002 0.0 4.9622335 -17.459282 0.0 7.4584961 -18.000582 0.0 10.637179 -18.745819 0.0 14.341171 -10.136483 0.0 -1.2775534e-05 -10.155493 0.0 0.90277672 -10.215428999999999 0.0 1.9622416 -10.325891 0.0 3.3676205 -10.504847999999999 0.0 5.3287606 -10.777864 0.0 8.003293 -11.173232 0.0 11.403865 -11.712324 0.0 15.355498999999998 -5.2281097999999995 0.0 -1.9083672999999998e-05 -5.2407742 0.0 0.94812256 -5.2803617 0.0 2.0591908 -5.3522992 0.0 3.5306102999999998 -5.4671144 0.0 5.5814762 -5.640286 0.0 8.3758783 -5.8889154999999995 0.0 11.923809 -6.2243357 0.0 16.034203 -1.6993200000000002 0.0 1.3043347000000001e-05 -1.7057457999999999 0.0 0.97504479 -1.7254958999999999 0.0 2.1158938 -1.7603002 0.0 3.6241446 -1.8141667000000001 0.0 5.7240934 -1.8934886000000002 0.0 8.583703 -2.0055648999999995 0.0 12.210859 -2.1542706000000003 0.0 16.403212 1.0537083999999999 0.0 2.6405905e-06 1.0531780000000002 0.0 0.98464352 1.0520391000000002 0.0 2.1350517000000004 1.0515379999999999 0.0 3.6536652999999997 1.0532711000000001 0.0 5.7663402999999995 1.0588473 0.0 8.642429400000001 1.0694536000000001 0.0 12.289159 1.0871966999999998 0.0 16.498642 3.6255326 0.0 2.1415937e-05 3.6304266000000003 0.0 0.97840613 3.6462742999999995 0.0 2.1203383999999996 3.6769263999999997 0.0 3.6260684000000003 3.7286875 0.0 5.719735099999999 3.8100042000000003 0.0 8.570035899999999 3.9297261 0.0 12.184464 4.0954904999999995 0.0 16.355145 6.310721400000001 0.0 4.9399678e-06 6.3205099 0.0 0.95807433 6.351789 0.0 2.0756135 6.410481900000001 0.0 3.5481724999999997 6.507062400000001 0.0 5.595436599999999 6.656009700000001 0.0 8.383379 6.8730946 0.0 11.920204 7.1716909 0.0 16.002377 9.0767593 0.0 -2.1875661e-05 9.0909586 0.0 0.92519546 9.135947199999999 0.0 2.0041227 9.2196789 0.0 3.4256244 9.356190699999999 0.0 5.402474400000001 9.5653076 0.0 8.095898599999998 9.869281800000001 0.0 11.514867 10.287218 0.0 15.462619 11.715755999999999 0.0 -7.910421099999999e-07 11.733791 0.0 0.88115656 11.790733 0.0 1.9089256999999997 11.89616 0.0 3.2636886 12.067401 0.0 5.1489997 12.32896 0.0 7.719628299999999 12.708974000000001 0.0 10.984753 13.232132 0.0 14.756110000000001 13.958023 0.0 -8.9935493e-06 13.979968 0.0 0.8281917 14.049145999999999 0.0 1.7947397 14.175297 0.0 3.0693071 14.37981 0.0 4.8446593 14.690682999999998 0.0 7.2679038 15.140576999999999 0.0 10.347875 15.757276999999998 0.0 13.905366 14.817571 0.0 -7.1804971e-07 14.841045000000001 0.0 0.79255223 14.947888 0.0 1.7051345000000002 15.148129 0.0 2.894464 15.442614 0.0 4.540627 15.872770999999998 0.0 6.7839017 16.458609 0.0 9.636956199999998 17.208225 0.0 12.947657000000001 14.780760999999998 0.0 1.355345e-05 14.820817000000002 0.0 0.7468695 14.944234 0.0 1.6139047 15.157032000000001 0.0 2.722646 15.486917000000002 0.0 4.2361937 15.963657000000001 0.0 6.2815061 16.597595000000002 0.0 8.8844614 17.413137 0.0 11.921553999999999 14.566479999999999 0.0 3.0051655e-05 14.608641 0.0 0.72633111 14.712214000000001 0.0 1.5054059 14.927985999999999 0.0 2.5106153 15.252654000000001 0.0 3.8894365 15.710778 0.0 5.756388200000001 16.353251999999998 0.0 8.1226635 17.216467 0.0 10.852665 14.202798000000001 0.0 4.4138578e-06 14.246401 0.0 0.662112 14.370741 0.0 1.415875 14.557073 0.0 2.3160651000000003 14.854676000000001 0.0 3.5487285 15.282009 0.0 5.228592900000001 15.929853 0.0 7.354901299999999 16.768798999999998 0.0 9.816181199999999 13.782648000000002 0.0 -6.1618921e-06 13.816891 0.0 0.61419189 13.919395000000002 0.0 1.3100764999999999 14.085279000000002 0.0 2.1623826 14.381932 0.0 3.2507465 14.799635 0.0 4.718817700000001 15.397141 0.0 6.6121507 16.214745 0.0 8.8030758 13.296254000000001 0.0 9.3437557e-06 13.314748999999999 0.0 0.58110607 13.396564999999999 0.0 1.2274905 13.563922 0.0 2.0178196 13.801573000000001 0.0 2.9985194 14.198421 0.0 4.2991028 14.784873000000001 0.0 5.938811299999999 15.600674 0.0 7.8437591 12.711794 0.0 -1.6990962e-05 12.726624000000001 0.0 0.54247266 12.796165 0.0 1.1431733 12.943601 0.0 1.8727006999999998 13.183709 0.0 2.7936968999999996 13.538342000000002 0.0 3.9154682000000003 14.109105 0.0 5.3381004 14.928831 0.0 6.974966499999999 12.059375 0.0 6.2068284e-07 12.088225 0.0 0.52038598 12.149747999999999 0.0 1.0749161 12.279427 0.0 1.7409686999999998 12.50559 0.0 2.5742209 12.850748 0.0 3.5911169000000003 13.386586 0.0 4.7947612 14.195910000000001 0.0 6.199071900000001 11.395553 0.0 -6.8707595e-06 11.415927 0.0 0.50189674 11.48451 0.0 1.0100628 11.606869999999999 0.0 1.6228368999999998 11.825747 0.0 2.3716342 12.161321000000001 0.0 3.2588223999999997 12.678168 0.0 4.2899899 13.471041 0.0 5.4527683 10.73656 0.0 -4.0512532e-07 10.754771 0.0 0.46963435 10.822052000000001 0.0 0.95599192 10.952936 0.0 1.5100479 11.165391 0.0 2.165648 11.512255 0.0 2.9410286 12.024848 0.0 3.7926824 12.821096 0.0 4.780845200000001 10.111563 0.0 4.1408202e-06 10.130051 0.0 0.43869513 10.196943 0.0 0.90038455 10.338827 0.0 1.4002037 10.570028 0.0 1.9788584999999999 10.917062 0.0 2.6178052000000003 11.451628999999999 0.0 3.3357592000000005 12.231235 0.0 4.162939499999999 9.546257 0.0 -1.1462107e-05 9.5703983 0.0 0.40370646 9.6435213 0.0 0.82514501 9.7928133 0.0 1.2821719999999999 10.031498 0.0 1.7623941000000003 10.402113 0.0 2.3041259999999997 10.939954 0.0 2.8951416 11.787848 0.0 3.6634052 9.0545282 0.0 4.279849200000001e-06 9.085651400000001 0.0 0.3591699 9.1684361 0.0 0.73765147 9.320178 0.0 1.1245856 9.5768805 0.0 1.5423671 9.9668703 0.0 1.9899237 10.570077000000001 0.0 2.548368 11.521505 0.0 3.3417342000000003 8.6596451 0.0 3.4958139e-06 8.685521099999999 0.0 0.30670038 8.7733517 0.0 0.6300298 8.934144 0.0 0.95408839 9.2171049 0.0 1.3199819 9.6719055 0.0 1.7625654999999998 10.387141999999999 0.0 2.3858006 11.524077 0.0 3.3132980000000005 8.3200827 0.0 -4.2031752000000005e-07 8.349299400000001 0.0 0.25976354 8.45082 0.0 0.53334492 8.6581411 0.0 0.84519893 9.0059099 0.0 1.2358398000000002 9.576733599999999 0.0 1.7691898000000001 10.517228999999999 0.0 2.5903162999999996 12.129228 0.0 3.8683875 8.1335297 0.0 -1.5557307e-06 8.1774988 0.0 0.24797241 8.3183317 0.0 0.53264821 8.590374 0.0 0.90834457 9.1020584 0.0 1.4583043 10.013418 0.0 2.2965486 11.531655 0.0 3.5295131 13.898185999999999 0.0 4.9873690999999996 8.3119402 0.0 -4.22413e-07 8.3941031 0.0 0.36630279 8.679323199999999 0.0 0.82267118 9.281000099999998 0.0 1.4588254999999999 10.384007 0.0 2.3050921000000004 12.070414999999999 0.0 3.3337044999999996 14.217779 0.0 4.5617332 16.561768 0.0 6.0367298 11.090777000000001 0.0 1.5253318000000002e-06 11.227737 0.0 0.51706362 11.663108 0.0 1.1480803 12.44762 0.0 1.9830526999999998 13.616973999999999 0.0 3.0451753 15.091344 0.0 4.283976999999999 16.673735 0.0 5.678854900000001 18.143154 0.0 7.2340603 14.539860000000001 0.0 8.3935447e-07 14.626952 0.0 0.66167611 14.894476000000001 0.0 1.4818811 15.356798000000001 0.0 2.5801911 16.012545000000003 0.0 3.9569172999999993 16.782792999999998 0.0 5.4357462 17.506805 0.0 6.9165959 16.105885999999998 0.0 2.4100154e-07 16.132324 0.0 0.82900321 16.208986 0.0 1.8738495 16.326237 0.0 3.2870097 16.472334 0.0 5.0259471 -0.013522475 0.0 0.0014062463 -0.01298706 0.0 0.0016621207 -0.01230469 0.0 0.0019367917000000002 -0.01144788 0.0 0.0022183121 -0.010396502 0.0 0.0024727546 -0.0091088861 0.0 0.0026877958 -0.007584596999999999 0.0 0.0028034854 -0.020240944 0.0 0.0020517292 -0.019483786 0.0 0.0024261731 -0.018503156 0.0 0.0028217586 -0.017247535 0.0 0.0032269824 -0.015681688 0.0 0.0035665096 -0.013718198000000001 0.0 0.0038278433 -0.011301756000000001 0.0 0.0039413143 -0.0084373262 0.0 0.0040858313 -0.029569782000000003 0.0 0.0027735246999999997 -0.02852793 0.0 0.0032847582 -0.027158171000000002 0.0 0.0038221353000000005 -0.025379691 0.0 0.0043654339 -0.023130819 0.0 0.0048201811 -0.020281568 0.0 0.0051868367 -0.016782392 0.0 0.0053836573 -0.012608683 0.0 0.0054492685 -0.041944444000000004 0.0 0.0036470728999999998 -0.040561438 0.0 0.0043328889 -0.038718753 0.0 0.0050535901 -0.036296003 0.0 0.0057823434 -0.033198554 0.0 0.0063969865 -0.029234551 0.0 0.006910566700000001 -0.024331164 0.0 0.0071757385 -0.018364506000000003 0.0 0.0072625279 -0.058211148 0.0 0.004745122 -0.056432761 0.0 0.0056535648 -0.054032419000000005 0.0 0.0066102929 -0.0508352 0.0 0.0075777872 -0.046696965 0.0 0.0083968276 -0.041327026 0.0 0.0091081299 -0.034584139 0.0 0.0095152976 -0.026227605 0.0 0.0097254766 -0.079577498 0.0 0.0061449669 -0.077348091 0.0 0.0073341583 -0.074300274 0.0 0.0085877925 -0.070185453 0.0 0.0098546026 -0.064780571 0.0 0.010938986000000001 -0.057652589000000004 0.0 0.011926098000000001 -0.048542667000000005 0.0 0.012579847 -0.037021317000000005 0.0 0.013087085 -0.10766969 0.0 0.0079414127 -0.10493147 0.0 0.0094869127 -0.10112936 0.0 0.011115536 -0.09592410900000001 0.0 0.012762626000000001 -0.08898225400000001 0.0 0.014206594 -0.079691261 0.0 0.015578961 -0.067586116 0.0 0.016654927 -0.051985338 0.0 0.017636145 -0.14451186 0.0 0.0102535 -0.14121377 0.0 0.012272787 -0.13654388 0.0 0.014411607 -0.13006254 0.0 0.016561138 -0.12130646 0.0 0.01849285 -0.10947576 0.0 0.020368712 -0.09371595099999999 0.0 0.022096429 -0.072866097 0.0 0.023904275 -0.19258481 0.0 0.013238453 -0.18870719 0.0 0.015906647 -0.18308662 0.0 0.018761484 -0.17514446 0.0 0.021651238 -0.16430013 0.0 0.024236001 -0.14948103 0.0 0.026773207 -0.12932827 0.0 0.029478422999999997 -0.10205878 0.0 0.032445941 -0.25499505 0.0 0.01707514 -0.25055593 0.0 0.020671226 -0.24395801 0.0 0.024513606 -0.23443979 0.0 0.028407842000000003 -0.22121161 0.0 0.031903617 -0.20297045 0.0 0.03532134 -0.17796507 0.0 0.039048262 -0.14335486 0.0 0.043497457999999996 -0.33555683 0.0 0.021949042999999998 -0.33065248 0.0 0.026851537 -0.32313287 0.0 0.032024421000000004 -0.31192958 0.0 0.037403467999999995 -0.29615507 0.0 0.042043597 -0.27401096 0.0 0.046807624000000006 -0.24399514 0.0 0.051545232999999996 -0.20122674 0.0 0.057937092999999995 -0.43889803 0.0 0.028025776000000002 -0.43374139 0.0 0.03471544 -0.42544222 0.0 0.0418345 -0.41271985 0.0 0.049367562000000004 -0.39439821 0.0 0.056380145 -0.36815247 0.0 0.064757049 -0.33223504 0.0 0.07514146 -0.27795374 0.0 0.09253904199999999 -0.57052732 0.0 0.035501879 -0.56552577 0.0 0.04463264 -0.55680615 0.0 0.054822255 -0.54306591 0.0 0.066006154 -0.5228098 0.0 0.078481421 -0.49314201 0.0 0.096531436 -0.45293435 0.0 0.1234421 -0.39228782 0.0 0.16715769 -0.73693424 0.0 0.04454631 -0.7328034 0.0 0.057063702 -0.72443086 0.0 0.071866818 -0.71056509 0.0 0.089281186 -0.68998522 0.0 0.11051119 -0.65970194 0.0 0.14332165 -0.61886197 0.0 0.19431329 -0.55761033 0.0 0.26584452 -0.94572276 0.0 0.055208053 -0.94361401 0.0 0.07213857 -0.93679583 0.0 0.09308894 -0.92408043 0.0 0.11939942 -0.90518653 0.0 0.15274698 -0.87699258 0.0 0.20370284 -0.83890092 0.0 0.28147829 -0.78005749 0.0 0.38131878 -1.2058878999999998 0.0 0.06748914 -1.2074958 0.0 0.090157486 -1.2038708999999999 0.0 0.11833639 -1.1939732 0.0 0.15570217 -1.1785097 0.0 0.20432293 -1.1543018999999999 0.0 0.27604875 -1.1206436000000002 0.0 0.38149795 -1.0658108999999998 0.0 0.51107383 -1.5280622 0.0 0.081346221 -1.5357618 0.0 0.11017206 -1.5378195 0.0 0.14764114 -1.532707 0.0 0.19883513 -1.5223011999999998 0.0 0.26441479 -1.5028343000000002 0.0 0.35988259 -1.4741901000000002 0.0 0.49744037 -1.4227993 0.0 0.66371554 -1.9246286 0.0 0.09663887300000001 -1.9418718000000001 0.0 0.13251385 -1.9530199000000001 0.0 0.18089804 -1.9556816000000004 0.0 0.24773644 -1.9519136000000001 0.0 0.33261803 -1.9384603999999999 0.0 0.45753029 -1.9145506999999997 0.0 0.63420326 -1.8627863000000002 0.0 0.8485254 -2.4093394 0.0 0.1136153 -2.4409537 0.0 0.15711586 -2.4660125 0.0 0.21766064 -2.4804173 0.0 0.30147496 -2.4878502 0.0 0.41160294 -2.4824045 0.0 0.57215273 -2.4636586 0.0 0.79915529 -2.4090443 0.0 1.0723321000000001 -2.9972444 0.0 0.13349845 -3.0492089 0.0 0.18498367 -3.0949702 0.0 0.25847393 -3.1283162 0.0 0.3611204 -3.1527529 0.0 0.50168985 -3.1604266 0.0 0.70753604 -3.1496918 0.0 0.99780291 -3.0927949 0.0 1.3478953000000002 -3.7025888 0.0 0.16003133 -3.7830904000000003 0.0 0.21866685 -3.8590477 0.0 0.30518466 -3.9211697999999995 0.0 0.42898491 -3.9726248 0.0 0.60395694 -4.0023494 0.0 0.86425185 -4.0056801 0.0 1.2371056999999999 -3.9498131 0.0 1.6841111 -4.5396241999999996 0.0 0.19928324 -4.6591825 0.0 0.26404732 -4.7780765999999995 0.0 0.36156493 -4.8834038 0.0 0.50732458 -4.9769568 0.0 0.71751893 -5.042882 0.0 1.0435599 -5.070613400000001 0.0 1.5180118 -5.0220613 0.0 2.0915605999999998 -5.5231056 0.0 0.26324344 -5.6948981 0.0 0.33233446 -5.8733606 0.0 0.43778801 -6.042565799999999 0.0 0.59846771 -6.1990485 0.0 0.84548336 -6.3230095 0.0 1.2400223999999997 -6.3925748 0.0 1.8466473 -6.3625102 0.0 2.5817308 -6.6696773 0.0 0.37072468 -6.9089746 0.0 0.44186807 -7.1677113 0.0 0.55314916 -7.426908500000001 0.0 0.71653342 -7.675044099999999 0.0 0.99489158 -7.8892641 0.0 1.4622979 -8.0293751 0.0 2.2205665 -8.0394144 0.0 3.1634127999999997 -7.999083000000001 0.0 0.55230677 -8.3215237 0.0 0.62539256 -8.6843529 0.0 0.73216575 -9.0638371 0.0 0.88803136 -9.441205 0.0 1.1855655 -9.7928562 0.0 1.711864 -10.048850999999999 0.0 2.6357276 -10.142914999999999 0.0 3.8485093 -9.532795 0.0 0.84689432 -9.9524889 0.0 0.92997307 -10.441175999999999 0.0 1.0269228000000001 -10.976412 0.0 1.1591518 -11.534616999999999 0.0 1.4479568 -12.08152 0.0 1.9990666000000001 -12.527547 0.0 3.0886979 -12.789639 0.0 4.646565 -11.288945 0.0 1.3026381 -11.817739 0.0 1.4223486 -12.449483 0.0 1.5187693000000002 -13.175649 0.0 1.6059344 -13.971314999999999 0.0 1.8446278999999999 -14.789504999999998 0.0 2.3586717 -15.538773999999998 0.0 3.5948508 -16.102757999999998 0.0 5.5425463 -13.283655 0.0 1.9356506999999998 -13.910260999999998 0.0 2.1730254 -14.683923000000002 0.0 2.329174 -15.641948999999999 0.0 2.3761175 -16.726592999999998 0.0 2.509325 -17.93355 0.0 2.8837015999999998 -19.129492000000003 0.0 4.1838946 -20.204523000000002 0.0 6.562160499999999 -15.478364000000001 0.0 2.8093481 -16.219006 0.0 3.1924231 -17.120962 0.0 3.4990451 -18.163488 0.0 3.7654729 -19.627243 0.0 3.7305650999999997 -21.422792 0.0 3.7341218 -23.264971 0.0 4.9549437 -25.119598 0.0 7.7128835 -17.812138 0.0 3.9291312999999994 -18.68129 0.0 4.5051350999999995 -19.721851 0.0 4.9928212 -20.938503 0.0 5.4319749 -22.445585 0.0 5.5831032 -24.734831 0.0 5.4841337 -27.724569 0.0 6.0435658 -30.696121 0.0 9.0951805 -20.167507 0.0 5.231696599999999 -21.167419 0.0 6.122842299999999 -22.355358 0.0 6.88415 -23.781986 0.0 7.4555545 -25.526978 0.0 7.813775099999999 -27.869736 0.0 7.7348356 -31.846297999999997 0.0 8.056311599999999 -36.415012 0.0 10.688556 -22.373413 0.0 6.9420071 -23.530273 0.0 8.107667 -24.87179 0.0 9.2079086 -26.490345 0.0 10.087976 -28.597343 0.0 10.452468 -31.582378000000002 0.0 10.36272 -35.935543 0.0 10.452287 -41.877949 0.0 12.390961 -24.26371 0.0 8.810232199999998 -25.518921 0.0 10.423747 -27.003097999999998 0.0 11.943480000000001 -28.75948 0.0 13.414106 -30.995715999999998 0.0 14.825067 -34.178123 0.0 15.571979 -39.420372 0.0 14.245954000000001 -46.107872 0.0 14.641665 -25.863764 0.0 11.079426 -27.177944 0.0 13.300051999999999 -28.693727000000003 0.0 15.717254 -30.455494 0.0 18.597282 -32.509384000000004 0.0 21.916475 -35.400219 0.0 23.933262 -40.881821 0.0 19.985834 -48.535011 0.0 17.303242 -26.653509000000003 0.0 13.771576000000001 -28.061721999999996 0.0 16.723297 -29.703176000000003 0.0 20.097148999999998 -31.428271999999996 0.0 24.52705 -33.306866 0.0 29.977397999999997 -35.650890000000004 0.0 33.208073 -40.530254 0.0 26.236563 -46.925804 0.0 20.058199 -25.929735 0.0 16.343021 -27.307138000000002 0.0 19.938679 -28.851370000000003 0.0 24.181959 -30.398756 0.0 29.740065 -31.792191 0.0 36.514317 -33.300484000000004 0.0 40.213245 -36.43375 0.0 30.930940999999997 -38.674473 0.0 22.475796 -19.710698999999998 0.0 18.238295 -20.880886 0.0 22.234631 -22.190720000000002 0.0 26.912015999999998 -23.507832 0.0 32.926018 -24.717651 0.0 40.031021 -25.771097 0.0 43.49094 -26.711541999999998 0.0 32.717171 -27.360271 0.0 24.079891 -12.398684 0.0 19.49374 -13.210754000000001 0.0 23.69315 -14.097653 0.0 28.513527000000003 -14.976482 0.0 34.561378000000005 -15.753827 0.0 41.491215000000004 -16.360781 0.0 44.535202000000005 -16.778997 0.0 33.419582 -17.044167 0.0 25.144196 -6.6434994000000005 0.0 20.314247 -7.123822200000001 0.0 24.610810999999998 -7.625973700000001 0.0 29.462408 -8.0974674 0.0 35.434886999999996 -8.483133300000002 0.0 42.129234000000004 -8.7444992 0.0 44.852924 -8.8764296 0.0 33.701423999999996 -8.906099300000001 0.0 25.883095 -2.3344841 0.0 20.7472 -2.5285398999999997 0.0 25.070135 -2.7108839 0.0 29.899044 -2.8559582000000003 0.0 35.782768 -2.9433908 0.0 42.310486 -2.9627947999999997 0.0 44.880924 -2.9186606 0.0 33.843826 -2.8254535 0.0 26.402756 1.117205 0.0 20.846283 1.1690961000000002 0.0 25.149778 1.2525618 0.0 29.934428999999998 1.369337 0.0 35.753819 1.5123805000000001 0.0 42.217339 1.6704895 0.0 44.803753 1.8319556000000001 0.0 33.969402 1.991775 0.0 26.770540000000004 4.312746 0.0 20.65634 4.583449400000001 0.0 24.905434 4.9007607 0.0 29.634418 5.245104799999999 0.0 35.418003000000006 5.5886278 0.0 41.908989 5.9052253 0.0 44.635899 6.1775551 0.0 34.013634 6.4023943 0.0 26.879656 7.5588951 0.0 20.210649 8.0313444 0.0 24.365935999999998 8.567689900000001 0.0 28.997219 9.1287775 0.0 34.686638 9.6700668 0.0 41.123726 10.154649000000001 0.0 43.940651 10.559389 0.0 33.660744 10.875487 0.0 26.696457000000002 10.829508 0.0 19.532587 11.489972999999999 0.0 23.550268 12.235406 0.0 28.031132 13.009431 0.0 33.548389 13.752094 0.0 39.820362 14.417007 0.0 42.648472 14.974059 0.0 32.846184 15.407132 0.0 26.189554 13.912906 0.0 18.64348 14.744485999999998 0.0 22.478018 15.684429999999999 0.0 26.752033 16.661112 0.0 32.016498999999996 17.600143 0.0 38.015068 18.445196 0.0 40.783539000000005 19.158967999999998 0.0 31.604691 19.718819 0.0 25.391987 16.559696 0.0 17.569717 17.541155 0.0 21.177753 18.652943 0.0 25.191013 19.809855 0.0 30.129109999999997 20.925703 0.0 35.761776 21.934231 0.0 38.422855 22.791218 0.0 30.004313 23.469271 0.0 24.359184 18.182209 0.0 16.353729 19.400496 0.0 19.6996 20.783199 0.0 23.403719 22.208931 0.0 27.950946999999996 23.496154999999998 0.0 33.14888 24.637798 0.0 35.673084 25.283907 0.0 27.957626 26.384626 0.0 23.147463000000002 18.474218 0.0 15.045957000000001 19.824291 0.0 18.117287 21.468285 0.0 21.476129999999998 23.362551 0.0 25.577894 25.156658 0.0 30.280490999999998 26.415497 0.0 32.66048 26.955204 0.0 25.786655 28.399057 0.0 21.895344 18.299934 0.0 13.695571 19.668035999999997 0.0 16.470551 21.364777 0.0 19.477341 23.443376999999998 0.0 23.104167999999998 25.682665 0.0 27.276506 27.338354 0.0 29.509728999999997 28.187872 0.0 23.690807 29.866802000000003 0.0 20.678341 17.868277 0.0 12.349079 19.264328 0.0 14.834593 20.988735000000002 0.0 17.466419000000002 23.133078 0.0 20.63044 25.624098 0.0 24.271906 27.717496999999998 0.0 26.344448 29.209505 0.0 21.727787 31.084759000000002 0.0 19.385303 17.293877 0.0 11.059892999999999 18.682709 0.0 13.258375 20.441858 0.0 15.568285999999999 22.655949 0.0 18.257065 25.423702 0.0 21.410881 27.964249 0.0 23.290526999999997 30.141379999999998 0.0 19.69454 32.476456 0.0 18.047373 16.694443 0.0 9.8151855 18.07366 0.0 11.750630000000001 19.822315 0.0 13.829344 22.095146 0.0 16.148609 25.167274 0.0 18.865631 28.425154 0.0 20.484673 31.609749 0.0 17.788881 34.657447999999995 0.0 16.958017 16.001854 0.0 8.6659431 17.426056 0.0 10.391105 19.173462 0.0 12.231382 21.563154 0.0 14.386064999999999 24.99391 0.0 16.743244 29.235044 0.0 18.06716 33.796642 0.0 16.165062 38.290611 0.0 16.353676 15.288041 0.0 7.6488762 16.716663 0.0 9.1915817 18.569162 0.0 10.843033 21.137234 0.0 12.945391 24.878373999999997 0.0 15.166077 30.122321999999997 0.0 16.231358 36.312084000000006 0.0 14.987035999999998 42.424847 0.0 16.096029 14.588339999999999 0.0 6.758657 16.035951999999998 0.0 8.1213284 18.034678 0.0 9.7489758 20.921741 0.0 11.847122 24.947371 0.0 14.053835000000001 30.837536 0.0 15.043219 37.72834 0.0 14.665017 44.839721999999995 0.0 16.722538 13.93175 0.0 5.9131130999999995 15.467533999999999 0.0 7.2266984 17.682072 0.0 8.928376199999999 20.897091 0.0 11.078566 25.258398 0.0 13.283154999999999 31.55098 0.0 14.164442000000001 38.296265000000005 0.0 14.802325 13.403288 0.0 5.2120452 15.0818 0.0 6.569771799999999 17.567999 0.0 8.379629099999999 21.129105 0.0 10.659179 26.141441 0.0 12.631545 32.426243 0.0 13.414064999999999 38.801167 0.0 14.851141 13.047297 0.0 4.7052708 14.940966 0.0 6.1833239 17.792310999999998 0.0 8.167761800000001 21.989182 0.0 10.447008 27.544075 0.0 11.898108 33.249107 0.0 13.113076999999999 12.960456 0.0 4.4965978 15.194842000000001 0.0 6.1749535 18.635214 0.0 8.3689337 23.473108 0.0 10.31823 28.704033000000003 0.0 11.762298 33.611709999999995 0.0 13.323803 13.328785 0.0 4.7400107 16.158615 0.0 6.7273788 20.069885 0.0 8.8962135 24.950644 0.0 10.522402 29.429981 0.0 12.076697 14.563208 0.0 5.637070700000001 17.849825 0.0 7.6566467000000005 21.721004 0.0 9.6025591 25.980934 0.0 11.037931 16.825658999999998 0.0 6.6953788 19.875942000000002 0.0 8.621556300000002 23.085884 0.0 10.316931 26.155120999999998 0.0 11.550968 18.841394 0.0 7.7743921 20.987097 0.0 9.5526466 19.489611 0.0 8.8269787 
StrainDot 3 2975 float
0.0 0.0 0.0 0.0 0.0 0.0 0.0 0.0 0.0 0.0 0.0 0.0 0.0 0.0 0.0 0.0 0.0 0.0 0.0 0.0 0.0 0.0 0.0 0.0 0.0 0.0 0.0 0.0 0.0 0.0 0.0 0.0 0.0 0.0 0.0 0.0 0.0 0.0 0.0 -1.0944154e-09 0.0 -2.7611463e-10 0.0 0.0 0.0 -5.3460374e-09 0.0 -2.0760833e-09 -3.8717278e-08 0.0 -1.1779576e-08 -9.6241841e-09 0.0 -4.5800377e-09 -7.035505699999999e-08 0.0 -3.243296799999999e-08 -2.3992092e-07 0.0 -8.527594999999999e-08 -7.877633099999999e-08 0.0 -4.423936400000001e-08 -3.0649750000000004e-07 0.0 -1.6280020999999997e-07 -8.0801016e-07 0.0 -3.2763651000000003e-07 -2.7682376e-07 0.0 -1.8012664999999998e-07 -8.405478399999999e-07 0.0 -5.100814099999999e-07 -1.9632366000000003e-06 0.0 -9.0241303e-07 -6.5196315e-07 0.0 -4.9198388e-07 -1.7572756e-06 0.0 -1.2207535e-06 -3.8558322999999994e-06 0.0 -2.0143016e-06 -1.2092398e-06 0.0 -1.0604047e-06 -3.0756189e-06 0.0 -2.4465272999999997e-06 -6.5408462e-06 0.0 -3.8812667999999994e-06 -1.9277395000000003e-06 0.0 -1.9526598999999998e-06 -4.7857698e-06 0.0 -4.323791900000001e-06 -1.0040038e-05 0.0 -6.7065098e-06 -2.8095493999999996e-06 0.0 -3.2253481e-06 -6.9390153e-06 0.0 -6.9798275e-06 -1.4500404e-05 0.0 -1.0681676e-05 -3.9324195e-06 0.0 -4.951162299999999e-06 -9.7473321e-06 0.0 -1.0582559e-05 -2.0380432e-05 0.0 -1.6058351e-05 -5.4926986e-06 0.0 -7.260621700000001e-06 -1.3666089e-05 0.0 -1.5420534e-05 -2.8580551e-05 0.0 -2.3273076e-05 -7.8770117e-06 0.0 -1.038568e-05 -1.9591731e-05 0.0 -2.1989059e-05 -4.0841722e-05 0.0 -3.3087155e-05 -1.1845568000000001e-05 0.0 -1.4739117e-05 -2.9279488e-05 0.0 -3.1171814e-05 -6.0528163999999996e-05 0.0 -4.6857989e-05 -1.8856404e-05 0.0 -2.1171731e-05 -4.6021098e-05 0.0 -4.4710298000000006e-05 -9.3797658e-05 0.0 -6.7151101e-05 -3.1716063e-05 0.0 -3.1688960000000005e-05 -7.5728094e-05 0.0 -6.6175213e-05 -0.00015116973 0.0 -9.8820004e-05 -5.5310712999999994e-05 0.0 -5.1208528e-05 -0.00012706153 0.0 -0.00010276583 -0.00024678634 0.0 -0.00015068312 -9.5521769e-05 0.0 -9.1631569e-05 -0.00020646799 0.0 -0.00016857646 -0.00038905905 0.0 -0.00023798597000000002 -0.00031180072 0.0 -0.00028866719 -0.00057134713 0.0 -0.00038517152999999996 0.0 0.0 0.0 0.0 0.0 0.0 0.0 0.0 0.0 0.0 0.0 0.0 0.0 0.0 0.0 0.0 0.0 0.0 0.0 0.0 0.0 0.0 0.0 0.0 0.0 0.0 0.0 0.0 0.0 0.0 0.0 0.0 0.0 0.0 0.0 0.0 0.0 0.0 0.0 0.0 0.0 0.0 0.0 0.0 0.0 0.0 0.0 0.0 0.0 0.0 0.0 0.0 0.0 0.0 0.0 0.0 0.0 0.0 0.0 0.0 0.0 0.0 0.0 0.0 0.0 0.0 0.0 0.0 0.0 0.0 0.0 0.0 0.0 0.0 0.0 -2.2856725e-10 0.0 -1.8715986999999998e-11 -1.511262e-09 0.0 -6.320978499999999e-11 -3.661131e-09 0.0 -5.7258462e-11 -5.5341718e-09 0.0 -7.5278768e-12 -6.5606658e-09 0.0 1.2254794e-11 -7.2757862e-09 0.0 1.4304629e-11 -7.8605593e-09 0.0 1.4873632000000002e-11 -1.011313e-08 0.0 -1.7516973e-09 -3.4895457000000006e-08 0.0 -3.7966581e-09 -7.7526508e-08 0.0 -4.9303122e-09 -1.3190523999999999e-07 0.0 -4.3139852e-09 -1.8684567000000002e-07 0.0 -2.2276567e-09 -2.3254783e-07 0.0 1.4195765e-10 -2.6521681e-07 0.0 1.5183101e-09 -2.880353e-07 0.0 1.7878174e-09 -1.2564792000000002e-07 0.0 -2.5924037999999997e-08 -2.8410291999999996e-07 0.0 -3.6931008999999995e-08 -5.124971400000001e-07 0.0 -3.9606149e-08 -7.845329200000001e-07 0.0 -3.2483107999999995e-08 -1.0586771e-06 0.0 -1.7959975e-08 -1.2985506999999998e-06 0.0 -1.7309038e-09 -1.4877636e-06 0.0 1.033461e-08 -1.6292339999999999e-06 0.0 1.6096218999999998e-08 -5.757163399999999e-07 0.0 -1.376856e-07 -1.11458e-06 0.0 -1.6765750000000002e-07 -1.8437565e-06 0.0 -1.6545872e-07 -2.6874982e-06 0.0 -1.3037956e-07 -3.5322868999999995e-06 0.0 -7.147872299999999e-08 -4.2815382e-06 0.0 -7.6695423e-09 -4.8903070999999995e-06 0.0 4.1574452000000004e-08 -5.3615368e-06 0.0 6.863142900000001e-08 -1.7016423e-06 0.0 -4.6158479e-07 -3.0600644999999997e-06 0.0 -5.207919e-07 -4.8441674999999996e-06 0.0 -4.917037e-07 -6.874463900000001e-06 0.0 -3.7727213e-07 -8.8946672e-06 0.0 -2.0261196999999999e-07 -1.0691306e-05 0.0 -1.7521558999999998e-08 -1.216622e-05 0.0 1.2673554e-07 -1.3323686000000001e-05 0.0 2.0923869e-07 -3.8679846e-06 0.0 -1.1841566e-06 -6.6868024e-06 0.0 -1.2813658999999999e-06 -1.0330151e-05 0.0 -1.1779948e-06 -1.443328e-05 0.0 -8.854079300000001e-07 -1.8486282e-05 0.0 -4.6294949e-07 -2.2078915e-05 0.0 -2.423192e-08 -2.5033013999999997e-05 0.0 3.1701497999999996e-07 -2.7361788e-05 0.0 5.1485802e-07 -7.3319056e-06 0.0 -2.5410259e-06 -1.2408754e-05 0.0 -2.6847093999999997e-06 -1.8913397e-05 0.0 -2.4254934e-06 -2.6176741999999998e-05 0.0 -1.7887001999999998e-06 -3.3282561999999995e-05 0.0 -9.0369895e-07 -3.9535611e-05 0.0 -5.9837038e-09 -4.4661425e-05 0.0 6.847068900000001e-07 -4.8699945e-05 0.0 1.0851437e-06 -1.2216095e-05 0.0 -4.7891481e-06 -2.0446549e-05 0.0 -4.9892437e-06 -3.0914922000000005e-05 0.0 -4.4483862999999995e-06 -4.2493702e-05 0.0 -3.2138004999999997e-06 -5.3684198e-05 0.0 -1.5550582e-06 -6.3446925e-05 0.0 7.940815299999999e-08 -7.1407208e-05 0.0 1.3170213999999998e-06 -7.7652992e-05 0.0 2.0289976e-06 -1.8594372e-05 0.0 -8.171662599999999e-06 -3.0937063e-05 0.0 -8.4359135e-06 -4.6481337999999996e-05 0.0 -7.4142076e-06 -2.6756094e-05 0.0 -1.2907229e-05 -4.4336048e-05 0.0 -1.3227997e-05 -3.7558373e-05 0.0 -1.9273498999999998e-05 -6.2079474e-05 0.0 -1.9604937e-05 -5.2592779e-05 0.0 -2.7781758e-05 -8.6746557e-05 0.0 -2.8079094e-05 -7.4772885e-05 0.0 -3.9343347e-05 -0.00012259296 0.0 -3.9547729e-05 -0.00010961893999999998 0.0 -5.557501599999999e-05 -0.00017744643 0.0 -5.556802399999999e-05 -0.00016695753000000002 0.0 -7.9466234e-05 -0.00026477076 0.0 -7.8975012e-05 -0.00026298437 0.0 -0.00011657361999999999 -0.00040581674 0.0 -0.00011504604 -0.0004191179799999999 0.0 -0.00017694943 -0.00062832318 0.0 -0.00017357514 -0.00064962293 0.0 -0.00027769685000000004 -0.00095421332 0.0 -0.00027186077000000003 -0.0009467046499999999 0.0 -0.00044460515999999995 -0.0013822587 0.0 -0.00043635171999999997 0.0 0.0 0.0 0.0 0.0 0.0 0.0 0.0 0.0 0.0 0.0 0.0 0.0 0.0 0.0 0.0 0.0 0.0 0.0 0.0 0.0 0.0 0.0 0.0 0.0 0.0 0.0 0.0 0.0 0.0 0.0 0.0 0.0 0.0 0.0 0.0 0.0 0.0 0.0 0.0 0.0 0.0 0.0 0.0 0.0 0.0 0.0 0.0 0.0 0.0 0.0 0.0 0.0 0.0 0.0 0.0 0.0 0.0 0.0 0.0 0.0 0.0 0.0 0.0 0.0 0.0 0.0 0.0 0.0 0.0 0.0 0.0 0.0 0.0 0.0 0.0 0.0 0.0 0.0 0.0 0.0 -8.3328562e-09 0.0 1.4254182000000001e-11 -8.7106518e-09 0.0 1.3056722000000001e-11 -9.0113312e-09 0.0 1.1872869e-11 -9.24961e-09 0.0 1.0910271e-11 -9.4363752e-09 0.0 1.0123661999999999e-11 -9.5792068e-09 0.0 9.4450142e-12 -9.6838395e-09 0.0 8.7689604e-12 -9.7549044e-09 0.0 8.1384292e-12 -9.7960076e-09 0.0 7.6905019e-12 -3.0600063e-07 0.0 1.7545675e-09 -3.2044035999999996e-07 0.0 1.6466064e-09 -3.3195428e-07 0.0 1.5151111e-09 -3.4106009e-07 0.0 1.3924848e-09 -3.4817293e-07 0.0 1.2872995e-09 -3.5360728000000003e-07 0.0 1.1953551e-09 -3.5759726e-07 0.0 1.1126584e-09 -3.6031813e-07 0.0 1.042495e-09 -3.6189740999999995e-07 0.0 9.9382325e-10 -1.7349791999999998e-06 0.0 1.6914200000000003e-08 -1.818203e-06 0.0 1.6097765e-08 -1.8844914e-06 0.0 1.4951071000000002e-08 -1.9367923999999998e-06 0.0 1.3781862e-08 -1.9775221000000002e-06 0.0 1.2725851000000001e-08 -2.0085613e-06 0.0 1.1801943000000002e-08 -2.0313273000000003e-06 0.0 1.1002106000000002e-08 -2.0468588e-06 0.0 1.0352433000000001e-08 -2.0558839e-06 0.0 9.9171578e-09 -5.7213074e-06 0.0 7.716316499999999e-08 -5.999209400000001e-06 0.0 7.519013e-08 -6.218628200000001e-06 0.0 7.0329008e-08 -6.391240299999999e-06 0.0 6.5033788e-08 -6.5252279e-06 0.0 6.0066e-08 -6.6270395e-06 0.0 5.568436699999999e-08 -6.701562599999999e-06 0.0 5.1957182999999995e-08 -6.7523583e-06 0.0 4.9009560999999996e-08 -6.7818732999999995e-06 0.0 4.707699500000001e-08 -1.4218442e-05 0.0 2.3952194e-07 -1.4912222e-05 0.0 2.3862414999999997e-07 -1.5454634000000002e-05 0.0 2.2465163e-07 -1.5879552e-05 0.0 2.0828836e-07 -1.6208189e-05 0.0 1.9249282e-07 -1.6457079e-05 0.0 1.7843097000000002e-07 -1.6638784e-05 0.0 1.6656185999999997e-07 -1.676242e-05 0.0 1.5732461e-07 -1.6834198e-05 0.0 1.5135718e-07 -2.9170549000000002e-05 0.0 5.905805e-07 -3.0577219e-05 0.0 5.9286117e-07 -3.1674062e-05 0.0 5.618093199999999e-07 -3.2528402000000004e-05 0.0 5.2187045e-07 -3.3186432e-05 0.0 4.8251002e-07 -3.3682914e-05 0.0 4.4717495e-07 -3.4044224e-05 0.0 4.1743640999999996e-07 -3.4289489e-05 0.0 3.945068e-07 -3.443165e-05 0.0 3.7983887e-07 -5.1836618e-05 0.0 1.239336e-06 -5.427506e-05 0.0 1.2446923999999999e-06 -5.6173008e-05 0.0 1.183005e-06 -5.7643658e-05 0.0 1.1000105e-06 -5.8770852999999995e-05 0.0 1.0170452e-06 -5.9617563e-05 0.0 9.420792800000001e-07 -6.0231387999999994e-05 0.0 8.790186099999999e-07 -6.0646845999999996e-05 0.0 8.3065135e-07 -6.0887203e-05 0.0 7.999045100000001e-07 -8.2485036e-05 0.0 2.2996305e-06 -8.6227483e-05 0.0 2.3033543999999996e-06 -8.912944799999999e-05 0.0 2.1890035e-06 -9.136582200000001e-05 0.0 2.0358016e-06 -9.3069517e-05 0.0 1.8811913e-06 -9.4342366e-05 0.0 1.7408203e-06 -9.526081700000001e-05 0.0 1.6226748999999997e-06 -9.5880299e-05 0.0 1.5323213000000001e-06 -9.6237753e-05 0.0 1.4751149e-06 0.0 0.0 0.0 0.0 0.0 0.0 0.0 0.0 0.0 0.0 0.0 0.0 0.0 0.0 0.0 0.0 0.0 0.0 0.0 0.0 0.0 0.0 0.0 0.0 0.0 0.0 0.0 0.0 0.0 0.0 0.0 0.0 0.0 0.0 0.0 0.0 0.0 0.0 0.0 0.0 0.0 0.0 0.0 0.0 0.0 0.0 0.0 0.0 0.0 0.0 0.0 0.0 0.0 0.0 0.0 0.0 0.0 0.0 0.0 0.0 0.0 0.0 0.0 0.0 0.0 0.0 0.0 0.0 0.0 0.0 0.0 0.0 -9.809451e-09 0.0 7.5264257e-12 -9.7960102e-09 0.0 7.6904819e-12 -9.7549053e-09 0.0 8.138436099999999e-12 -9.6838404e-09 0.0 8.7689847e-12 -9.5792068e-09 0.0 9.4450316e-12 -9.436377e-09 0.0 1.0123666000000001e-11 -9.2496109e-09 0.0 1.0910253999999999e-11 -9.0113286e-09 0.0 1.1872866e-11 -3.6241479999999997e-07 0.0 9.762446400000001e-10 -3.6189743e-07 0.0 9.9382336e-10 -3.6031804e-07 0.0 1.0424958e-09 -3.5759729e-07 0.0 1.1126597e-09 -3.5360728000000003e-07 0.0 1.1953565e-09 -3.4817288e-07 0.0 1.2872998e-09 -3.4106014000000004e-07 0.0 1.3924846e-09 -3.3195430999999997e-07 0.0 1.5151118e-09 -2.0588425e-06 0.0 9.7626431e-09 -2.0558839e-06 0.0 9.9171586e-09 -2.0468588e-06 0.0 1.0352439e-08 -2.0313269e-06 0.0 1.1002114999999998e-08 -2.0085618e-06 0.0 1.1801948999999999e-08 -1.9775225e-06 0.0 1.2725855e-08 -1.9367926e-06 0.0 1.3781863999999999e-08 -1.8844916000000001e-06 0.0 1.4951075e-08 -6.7915526e-06 0.0 4.6399580999999994e-08 -6.7818732999999995e-06 0.0 4.7076998000000005e-08 -6.7523587999999996e-06 0.0 4.900956400000001e-08 -6.701563999999999e-06 0.0 5.1957198e-08 -6.6270413e-06 0.0 5.5684389000000006e-08 -6.525228900000001e-06 0.0 6.006604299999999e-08 -6.391240299999999e-06 0.0 6.5033781e-08 -6.2186286e-06 0.0 7.032903e-08 -1.6857721e-05 0.0 1.4928143e-07 -1.6834195999999998e-05 0.0 1.5135721e-07 -1.676242e-05 0.0 1.5732468e-07 -1.6638787e-05 0.0 1.665619e-07 -1.6457079e-05 0.0 1.7843105e-07 -1.6208189e-05 0.0 1.9249292e-07 -1.5879556e-05 0.0 2.0828847e-07 -1.545464e-05 0.0 2.2465164e-07 -3.4478235e-05 0.0 3.7476548000000003e-07 -3.4431658e-05 0.0 3.7983880999999996e-07 -3.42895e-05 0.0 3.9450690999999996e-07 -3.4044213e-05 0.0 4.1743644e-07 -3.3682921999999996e-05 0.0 4.4717521000000005e-07 -3.3186435999999996e-05 0.0 4.8251013e-07 -3.2528380000000004e-05 0.0 5.2187062e-07 -3.1674055e-05 0.0 5.618094300000001e-07 -6.0965878000000005e-05 0.0 7.893132800000001e-07 -6.0887221e-05 0.0 7.999045699999999e-07 -6.0646859999999994e-05 0.0 8.306514e-07 -6.0231414000000006e-05 0.0 8.790188399999999e-07 -5.9617567e-05 0.0 9.4207996e-07 -5.8770842000000005e-05 0.0 1.0170459e-06 -5.7643643e-05 0.0 1.1000111e-06 -5.6173005000000006e-05 0.0 1.1830046999999998e-06 -9.6354568e-05 0.0 1.4554623999999998e-06 -9.623773800000001e-05 0.0 1.4751145e-06 -9.5880278e-05 0.0 1.5323213000000001e-06 -9.5260839e-05 0.0 1.6226752e-06 -9.434235099999999e-05 0.0 1.7408206999999998e-06 -9.3069531e-05 0.0 1.8811917e-06 -9.1365815e-05 0.0 2.0358023e-06 -8.9129469e-05 0.0 2.1890035e-06 0.0 0.0 0.0 0.0 0.0 0.0 0.0 0.0 0.0 0.0 0.0 0.0 0.0 0.0 0.0 0.0 0.0 0.0 0.0 0.0 0.0 0.0 0.0 0.0 0.0 0.0 0.0 0.0 0.0 0.0 0.0 0.0 0.0 0.0 0.0 0.0 0.0 0.0 0.0 0.0 0.0 0.0 0.0 0.0 0.0 0.0 0.0 0.0 0.0 0.0 0.0 0.0 0.0 0.0 0.0 0.0 0.0 0.0 0.0 0.0 0.0 0.0 0.0 0.0 0.0 0.0 0.0 0.0 0.0 0.0 0.0 0.0 0.0 0.0 0.0 0.0 0.0 0.0 0.0 0.0 0.0 -8.7106509e-09 0.0 1.3056759e-11 -8.332858e-09 0.0 1.4254205999999999e-11 -7.8605629e-09 0.0 1.4873620000000002e-11 -7.2757862e-09 0.0 1.4304604e-11 -6.5606658e-09 0.0 1.2254777000000001e-11 -5.5341745e-09 0.0 -7.5278776e-12 -3.6611318e-09 0.0 -5.7258471999999995e-11 -1.5112624e-09 0.0 -6.320977800000001e-11 -2.2856733e-10 0.0 -1.8715982e-11 -3.2044035999999996e-07 0.0 1.6466077e-09 -3.0600074e-07 0.0 1.7545686e-09 -2.8803532e-07 0.0 1.7878173e-09 -2.6521681e-07 0.0 1.5183088e-09 -2.3254788000000001e-07 0.0 1.419564e-10 -1.8684570999999998e-07 0.0 -2.2276569e-09 -1.3190527e-07 0.0 -4.3139856e-09 -7.7526543e-08 0.0 -4.9303113e-09 -3.4895464e-08 0.0 -3.7966577e-09 -1.818203e-06 0.0 1.6097768e-08 -1.7349793e-06 0.0 1.6914198e-08 -1.6292342e-06 0.0 1.6096221e-08 -1.4877635000000001e-06 0.0 1.0334608e-08 -1.2985506e-06 0.0 -1.7309112e-09 -1.0586773000000002e-06 0.0 -1.7959977e-08 -7.845331400000001e-07 0.0 -3.2483107999999995e-08 -5.1249719e-07 0.0 -3.9606142e-08 -2.8410303999999997e-07 0.0 -3.6930999e-08 -5.9992085e-06 0.0 7.5190123e-08 -5.721306900000001e-06 0.0 7.716316499999999e-08 -5.3615349e-06 0.0 6.863140799999999e-08 -4.890308e-06 0.0 4.157443799999999e-08 -4.2815386e-06 0.0 -7.6695414e-09 -3.5322878e-06 0.0 -7.1478716e-08 -2.6874989e-06 0.0 -1.3037953e-07 -1.843757e-06 0.0 -1.6545868999999999e-07 -1.1145808000000001e-06 0.0 -1.6765749e-07 -1.4912222999999999e-05 0.0 2.3862421e-07 -1.4218442e-05 0.0 2.3952191e-07 -1.3323688999999999e-05 0.0 2.0923868e-07 -1.2166216999999999e-05 0.0 1.2673551e-07 -1.0691304999999999e-05 0.0 -1.7521502e-08 -8.8946672e-06 0.0 -2.0261193e-07 -6.8744657000000005e-06 0.0 -3.7727219e-07 -4.8441689e-06 0.0 -4.917037e-07 -3.0600653999999996e-06 0.0 -5.2079173e-07 -3.057723e-05 0.0 5.92861e-07 -2.9170556e-05 0.0 5.9058061e-07 -2.7361799e-05 0.0 5.148579e-07 -2.5033018999999998e-05 0.0 3.1701512e-07 -2.2078919e-05 0.0 -2.4231737999999997e-08 -1.8486284e-05 0.0 -4.6294952e-07 -1.4433283e-05 0.0 -8.854081600000001e-07 -1.0330153e-05 0.0 -1.1779949999999998e-06 -6.6868024e-06 0.0 -1.2813657e-06 -5.4275071e-05 0.0 1.2446922e-06 -5.1836635999999996e-05 0.0 1.2393359e-06 -4.8699956000000004e-05 0.0 1.085145e-06 -4.4661439e-05 0.0 6.847070600000001e-07 -3.9535614999999996e-05 0.0 -5.9833951e-09 -3.3282569e-05 0.0 -9.0369866e-07 -2.617674e-05 0.0 -1.7887003999999999e-06 -1.8913397e-05 0.0 -2.4254939e-06 -1.2408756e-05 0.0 -2.6847099e-06 -8.6227497e-05 0.0 2.3033549e-06 -8.248504300000001e-05 0.0 2.2996298e-06 -7.7652985e-05 0.0 2.0289976e-06 -7.1407223e-05 0.0 1.3170213999999998e-06 -6.344694e-05 0.0 7.9408863e-08 -5.3684205000000004e-05 0.0 -1.5550583999999998e-06 -4.2493706e-05 0.0 -3.2138012e-06 -3.091494e-05 0.0 -4.4483862999999995e-06 -2.0446552e-05 0.0 -4.9892437e-06 -4.648134200000001e-05 0.0 -7.4142085e-06 -3.0937063e-05 0.0 -8.435915300000001e-06 -4.4336054999999994e-05 0.0 -1.3227999e-05 -6.2079482e-05 0.0 -1.960494e-05 -8.6746586e-05 0.0 -2.8079108000000002e-05 -0.00012259302 0.0 -3.9547729e-05 -0.00017744653000000002 0.0 -5.5568019999999995e-05 -0.00026477072999999996 0.0 -7.8975027e-05 -0.00040581671 0.0 -0.00011504601999999998 -0.0006283230599999999 0.0 -0.00017357519 -0.0009542136099999999 0.0 -0.00027186083 -0.0013822593 0.0 -0.00043635175 0.0 0.0 0.0 0.0 0.0 0.0 0.0 0.0 0.0 0.0 0.0 0.0 0.0 0.0 0.0 0.0 0.0 0.0 0.0 0.0 0.0 0.0 0.0 0.0 0.0 0.0 0.0 0.0 0.0 0.0 0.0 0.0 0.0 0.0 0.0 0.0 0.0 0.0 0.0 0.0 0.0 0.0 0.0 0.0 0.0 -1.0113133e-08 0.0 -1.7516965e-09 -1.094416e-09 0.0 -2.7611452e-10 0.0 0.0 0.0 0.0 0.0 0.0 -1.2564794e-07 0.0 -2.5924034e-08 -3.8717300000000005e-08 0.0 -1.1779571000000002e-08 -5.3460396e-09 0.0 -2.0760831e-09 0.0 0.0 0.0 -5.7571663e-07 0.0 -1.3768557e-07 -2.3992101e-07 0.0 -8.527595699999999e-08 -7.035507099999999e-08 0.0 -3.2432965e-08 -9.6241859e-09 0.0 -4.5800381e-09 -1.7016433e-06 0.0 -4.6158473e-07 -8.0801027e-07 0.0 -3.2763657000000004e-07 -3.0649753000000004e-07 0.0 -1.6280019e-07 -7.8776381e-08 0.0 -4.4239371e-08 -3.867985e-06 0.0 -1.1841568999999998e-06 -1.9632378e-06 0.0 -9.0241321e-07 -8.405478399999999e-07 0.0 -5.1008129e-07 -2.768239e-07 0.0 -1.8012664999999998e-07 -7.331908400000001e-06 0.0 -2.5410259e-06 -3.855834200000001e-06 0.0 -2.0143023e-06 -1.7572761e-06 0.0 -1.2207536e-06 -6.519636e-07 0.0 -4.91984e-07 -1.22161e-05 0.0 -4.7891481e-06 -6.5408481e-06 0.0 -3.8812673e-06 -3.0756194e-06 0.0 -2.4465272999999997e-06 -1.2092403e-06 0.0 -1.0604048e-06 -1.8594377e-05 0.0 -8.1716635e-06 -1.0040041e-05 0.0 -6.7065102e-06 -4.7857698e-06 0.0 -4.3237915e-06 -1.9277402e-06 0.0 -1.9526597e-06 -2.6756102999999998e-05 0.0 -1.290723e-05 -1.4500406e-05 0.0 -1.0681678e-05 -6.9390157e-06 0.0 -6.9798275e-06 -2.8095502999999995e-06 0.0 -3.2253481e-06 -3.755838e-05 0.0 -1.9273504000000002e-05 -2.0380434e-05 0.0 -1.6058353e-05 -9.7473321e-06 0.0 -1.0582558e-05 -3.9324214e-06 0.0 -4.9511609e-06 -5.2592775e-05 0.0 -2.7781765e-05 -2.8580558e-05 0.0 -2.3273089e-05 -1.3666089999999999e-05 0.0 -1.5420532e-05 -5.492700899999999e-06 0.0 -7.260621700000001e-06 -7.4772899e-05 0.0 -3.9343355000000004e-05 -4.0841729e-05 0.0 -3.3087155e-05 -1.9591732999999998e-05 0.0 -2.1989059e-05 -7.8770136e-06 0.0 -1.0385681e-05 -0.00010961899 0.0 -5.5575033999999995e-05 -6.0528193e-05 0.0 -4.6857996e-05 -2.9279486999999998e-05 0.0 -3.1171799e-05 -1.184557e-05 0.0 -1.4739117e-05 -0.00016695754 0.0 -7.946622599999999e-05 -9.379768e-05 0.0 -6.7151122e-05 -4.6021098e-05 0.0 -4.4710301e-05 -1.8856414e-05 0.0 -2.1171734000000002e-05 -0.00026298442 0.0 -0.00011657361000000001 -0.00015116975 0.0 -9.882001200000001e-05 -7.5728109e-05 0.0 -6.6175206e-05 -3.1716066999999996e-05 0.0 -3.1688967e-05 -0.00041911803 0.0 -0.00017694947 -0.0002467864 0.0 -0.0001506831 -0.00012706155 0.0 -0.00010276578000000001 -5.5310712999999994e-05 0.0 -5.1208523999999995e-05 -0.00064962299 0.0 -0.00027769687999999997 -0.00038905902 0.0 -0.00023798593999999998 -0.000206468 0.0 -0.00016857644 -9.5521806e-05 0.0 -9.1631577e-05 -0.0009467046499999999 0.0 -0.00044460519 -0.00057134725 0.0 -0.00038517159 -0.00031180069 0.0 -0.00028866719 0.0 0.0 0.0 0.0 0.0 0.0 0.0 0.0 0.0 0.0 0.0 0.0 0.0 0.0 0.0 0.0 0.0 0.0 0.0 0.0 0.0 0.0 0.0 0.0 0.0 0.0 0.0 0.0 0.0 0.0 0.0 0.0 0.0 0.0 0.0 0.0 0.0 0.0 0.0 0.0 0.0 0.0 0.0 0.0 0.0 0.0 0.0 0.0 0.0 0.0 0.0 0.0 0.0 0.0 0.0 0.0 0.0 0.0 0.0 0.0 0.0 0.0 0.0 0.0 0.0 0.0 0.0 0.0 0.0 0.0 0.0 0.0 0.0 0.0 0.0 0.0 0.0 0.0 0.0 0.0 0.0 0.0 0.0 0.0 0.0 0.0 0.0 0.0 0.0 0.0 0.0 0.0 0.0 0.0 0.0 0.0 0.0 0.0 0.0 0.0 0.0 0.0 0.0 0.0 0.0 0.0 0.0 0.0 0.0 0.0 0.0 0.0 0.0 0.0 0.0 0.0 0.0 0.0 0.0 0.0 0.0 0.0 0.0 0.0 0.0 0.0 0.0 0.0 0.0 0.0 0.0 0.0 0.0 0.0 0.0 0.0 0.0 0.0 0.0 0.0 0.0 0.0 0.0 0.0 0.0 0.0 0.0 0.0 0.0 0.0 0.0 0.0 0.0 0.0 0.0 0.0 0.0 0.0 0.0 0.0 0.0 0.0 0.0 0.0 0.0 0.0 0.0 0.0 0.0 0.0 0.0 0.0 0.0 0.0 0.0 0.0 0.0 0.0 0.0 0.0 0.0 0.0 0.0 0.0 0.0 0.0 0.0 0.0 0.0 0.0 0.0 0.0 0.0 0.0 0.0 0.0 0.0 0.0 0.0 0.0 0.0 0.0 0.0 0.0 0.0 0.0 0.0 0.0 0.0 0.0 0.0 0.0 0.0 0.0 0.0 0.0 0.0 0.0 0.0 0.0 0.0 0.0 0.0 0.0 0.0 0.0 0.0 0.0 0.0 0.0 0.0 0.0 0.0 0.0 0.0 0.0 0.0 0.0 0.0 0.0 0.0 0.0 0.0 0.0 0.0 0.0 0.0 0.0 0.0 0.0 0.0 0.0 0.0 0.0 0.0 0.0 0.0 0.0 0.0 0.0 0.0 0.0 0.0 0.0 0.0 0.0 0.0 0.0 0.0 0.0 0.0 0.0 0.0 0.0 0.0 0.0 0.0 0.0 0.0 0.0 0.0 0.0 0.0 0.0 0.0 0.0 0.0 0.0 0.0 0.0 0.0 0.0 0.0 0.0 0.0 0.0 0.0 0.0 0.0 0.0 0.0 0.0 0.0 0.0 0.0 0.0 0.0 0.0 0.0 0.0 0.0 0.0 0.0 0.0 0.0 0.0 0.0 0.0 0.0 0.0 0.0 0.0 0.0 0.0 0.0 0.0 0.0 0.0 0.0 0.0 0.0 0.0 0.0 0.0 0.0 0.0 0.0 0.0 0.0 0.0 0.0 0.0 0.0 0.0 0.0 0.0 0.0 0.0 0.0 0.0 0.0 0.0 0.0 0.0 0.0 0.0 0.0 0.0 0.0 0.0 0.0 0.0 0.0 0.0 0.0 0.0 0.0 0.0 0.0 0.0 0.0 0.0 0.0 0.0 0.0 0.0 0.0 0.0 0.0 0.0 0.0 0.0 0.0 0.0 0.0 0.0 0.0 0.0 0.0 0.0 0.0 0.0 0.0 0.0 0.0 0.0 0.0 0.0 0.0 0.0 0.0 0.0 0.0 0.0 0.0 0.0 0.0 0.0 0.0 0.0 0.0 0.0 0.0 0.0 0.0 0.0 0.0 0.0 0.0 0.0 0.0 0.0 0.0 0.0 0.0 0.0 0.0 0.0 0.0 0.0 0.0 0.0 0.0 0.0 0.0 0.0 0.0 0.0 0.0 0.0 0.0 0.0 0.0 0.0 0.0 0.0 0.0 0.0 0.0 0.0 0.0 0.0 0.0 0.0 0.0 0.0 0.0 0.0 0.0 0.0 0.0 0.0 0.0 0.0 0.0 0.0 0.0 0.0 0.0 0.0 0.0 0.0 0.0 0.0 0.0 0.0 0.0 0.0 0.0 0.0 0.0 0.0 0.0 0.0 0.0 0.0 0.0 0.0 0.0 0.0 0.0 0.0 0.0 0.0 0.0 0.0 0.0 0.0 0.0 0.0 0.0 0.0 0.0 0.0 0.0 0.0 0.0 0.0 0.0 0.0 0.0 0.0 0.0 0.0 0.0 0.0 0.0 0.0 0.0 0.0 0.0 0.0 0.0 0.0 0.0 0.0 0.0 0.0 0.0 0.0 0.0 0.0 0.0 0.0 0.0 0.0 0.0 0.0 0.0 0.0 0.0 0.0 0.0 0.0 0.0 0.0 0.0 0.0 0.0 0.0 0.0 0.0 0.0 0.0 0.0 0.0 0.0 0.0 0.0 0.0 0.0 0.0 0.0 0.0 0.0 0.0 0.0 0.0 0.0 0.0 0.0 0.0 0.0 0.0 0.0 0.0 0.0 0.0 0.0 0.0 0.0 0.0 0.0 0.0 0.0 0.0 0.0 0.0 0.0 0.0 0.0 0.0 0.0 0.0 0.0 0.0 0.0 0.0 0.0 0.0 0.0 0.0 0.0 0.0 0.0 0.0 0.0 0.0 0.0 0.0 0.0 0.0 0.0 0.0 0.0 0.0 0.0 0.0 0.0 0.0 0.0 0.0 0.0 0.0 0.0 0.0 0.0 0.0 0.0 0.0 0.0 0.0 0.0 0.0 0.0 0.0 0.0 0.0 0.0 0.0 0.0 0.0 0.0 0.0 0.0 0.0 0.0 0.0 0.0 0.0 0.0 0.0 0.0 0.0 0.0 0.0 0.0 0.0 0.0 0.0 0.0 0.0 0.0 0.0 0.0 0.0 0.0 0.0 0.0 0.0 0.0 0.0 0.0 0.0 0.0 0.0 0.0 0.0 0.0 0.0 0.0 0.0 0.0 0.0 0.0 0.0 0.0 0.0 0.0 0.0 0.0 0.0 0.0 0.0 0.0 0.0 0.0 0.0 0.0 0.0 0.0 0.0 0.0 0.0 0.0 0.0 0.0 0.0 0.0 0.0 0.0 0.0 0.0 0.0 0.0 0.0 0.0 0.0 0.0 0.0 0.0 0.0 0.0 0.0 0.0 0.0 0.0 0.0 0.0 0.0 0.0 0.0 0.0 0.0 0.0 0.0 0.0 0.0 0.0 0.0 0.0 0.0 0.0 0.0 0.0 0.0 0.0 0.0 0.0 0.0 0.0 0.0 0.0 0.0 0.0 0.0 0.0 0.0 0.0 0.0 0.0 0.0 0.0 0.0 0.0 0.0 0.0 0.0 0.0 0.0 0.0 0.0 0.0 0.0 0.0 0.0 0.0 0.0 0.0 0.0 0.0 0.0 0.0 0.0 0.0 0.0 0.0 0.0 0.0 0.0 0.0 0.0 0.0 0.0 0.0 0.0 0.0 0.0 0.0 0.0 0.0 0.0 0.0 0.0 0.0 0.0 0.0 0.0 0.0 0.0 0.0 0.0 0.0 0.0 0.0 0.0 0.0 0.0 0.0 0.0 0.0 0.0 0.0 0.0 0.0 0.0 0.0 0.0 0.0 0.0 0.0 0.0 0.0 0.0 0.0 0.0 0.0 0.0 0.0 0.0 0.0 0.0 0.0 0.0 0.0 0.0 0.0 0.0 0.0 0.0 0.0 0.0 0.0 0.0 0.0 0.0 0.0 0.0 0.0 0.0 0.0 0.0 0.0 0.0 0.0 0.0 0.0 0.0 0.0 0.0 0.0 0.0 0.0 0.0 0.0 0.0 0.0 0.0 0.0 0.0 0.0 0.0 0.0 0.0 0.0 0.0 0.0 0.0 0.0 0.0 0.0 0.0 0.0 0.0 0.0 0.0 0.0 0.0 0.0 0.0 0.0 0.0 0.0 0.0 0.0 0.0 0.0 0.0 0.0 0.0 0.0 0.0 0.0 0.0 0.0 0.0 0.0 0.0 0.0 0.0 0.0 0.0 0.0 0.0 0.0 0.0 0.0 0.0 0.0 0.0 0.0 0.0 0.0 0.0 0.0 0.0 0.0 0.0 0.0 0.0 0.0 0.0 0.0 0.0 0.0 0.0 0.0 0.0 0.0 0.0 0.0 0.0 0.0 0.0 0.0 0.0 0.0 0.0 0.0 0.0 0.0 0.0 0.0 0.0 0.0 0.0 0.0 0.0 0.0 0.0 0.0 0.0 0.0 0.0 0.0 0.0 0.0 0.0 0.0 0.0 0.0 0.0 0.0 0.0 0.0 0.0 0.0 0.0 0.0 0.0 0.0 0.0 0.0 0.0 0.0 0.0 0.0 0.0 0.0 0.0 0.0 0.0 0.0 0.0 0.0 0.0 0.0 0.0 0.0 0.0 0.0 0.0 0.0 0.0 0.0 0.0 0.0 0.0 0.0 0.0 0.0 0.0 0.0 0.0 0.0 0.0 0.0 0.0 0.0 0.0 0.0 0.0 0.0 0.0 0.0 0.0 0.0 0.0 0.0 0.0 0.0 0.0 0.0 0.0 0.0 0.0 0.0 0.0 0.0 0.0 0.0 0.0 0.0 0.0 0.0 0.0 0.0 0.0 0.0 0.0 0.0 0.0 0.0 0.0 0.0 0.0 0.0 0.0 0.0 0.0 0.0 0.0 0.0 0.0 0.0 0.0 0.0 0.0 0.0 0.0 0.0 0.0 0.0 0.0 0.0 0.0 0.0 0.0 0.0 0.0 0.0 0.0 0.0 0.0 0.0 0.0 0.0 0.0 0.0 0.0 0.0 0.0 0.0 0.0 0.0 0.0 0.0 0.0 0.0 0.0 0.0 0.0 0.0 0.0 0.0 0.0 0.0 0.0 0.0 0.0 0.0 0.0 0.0 0.0 0.0 0.0 0.0 0.0 0.0 0.0 0.0 0.0 0.0 0.0 0.0 0.0 0.0 0.0 0.0 0.0 0.0 0.0 0.0 0.0 0.0 0.0 0.0 0.0 0.0 0.0 0.0 0.0 0.0 0.0 0.0 0.0 0.0 0.0 0.0 0.0 0.0 0.0 0.0 0.0 0.0 0.0 0.0 0.0 0.0 0.0 0.0 0.0 0.0 0.0 0.0 0.0 0.0 0.0 0.0 0.0 0.0 0.0 0.0 0.0 0.0 0.0 0.0 0.0 0.0 0.0 0.0 0.0 0.0 0.0 0.0 0.0 0.0 0.0 0.0 0.0 0.0 0.0 0.0 0.0 0.0 0.0 0.0 0.0 0.0 0.0 0.0 0.0 0.0 0.0 0.0 0.0 0.0 0.0 0.0 0.0 0.0 0.0 0.0 0.0 0.0 0.0 0.0 0.0 0.0 0.0 0.0 0.0 0.0 0.0 0.0 0.0 0.0 0.0 0.0 0.0 0.0 0.0 0.0 0.0 0.0 0.0 0.0 0.0 0.0 0.0 0.0 0.0 0.0 0.0 0.0 0.0 0.0 0.0 0.0 0.0 0.0 0.0 0.0 0.0 0.0 0.0 0.0 0.0 0.0 0.0 0.0 0.0 0.0 0.0 0.0 0.0 0.0 0.0 0.0 0.0 0.0 0.0 0.0 0.0 0.0 0.0 0.0 0.0 0.0 0.0 0.0 0.0 0.0 0.0 0.0 0.0 0.0 0.0 0.0 0.0 0.0 0.0 0.0 0.0 0.0 0.0 0.0 0.0 0.0 0.0 0.0 0.0 0.0 0.0 0.0 0.0 0.0 0.0 0.0 0.0 0.0 0.0 0.0 0.0 0.0 0.0 0.0 0.0 0.0 0.0 0.0 0.0 0.0 0.0 0.0 0.0 0.0 0.0 0.0 0.0 0.0 0.0 0.0 0.0 0.0 0.0 0.0 0.0 0.0 0.0 0.0 0.0 0.0 0.0 0.0 0.0 0.0 0.0 0.0 0.0 0.0 0.0 0.0 0.0 0.0 0.0 0.0 0.0 0.0 0.0 0.0 0.0 0.0 0.0 0.0 0.0 0.0 0.0 0.0 0.0 0.0 0.0 0.0 0.0 0.0 0.0 0.0 0.0 0.0 0.0 0.0 0.0 0.0 0.0 0.0 0.0 0.0 0.0 0.0 0.0 0.0 0.0 0.0 0.0 0.0 0.0 0.0 0.0 0.0 0.0 0.0 0.0 0.0 0.0 0.0 0.0 -6.3385931e-05 0.0 -5.1720158e-06 -7.9566686e-05 0.0 -2.4112194e-06 -9.359383e-05 0.0 2.8512727e-07 -0.00010495101999999999 0.0 2.2978311000000004e-06 -0.00011379120000000001 0.0 3.4429636e-06 -6.628695e-05 0.0 -1.0932713000000002e-05 -8.990484599999999e-05 0.0 -7.7780805e-06 -0.00011232614999999999 0.0 -3.4707095e-06 -0.0001315983 0.0 6.5811014e-07 -0.00014703721 0.0 3.7042732e-06 -0.00015890917 0.0 5.4147131000000005e-06 -9.2551192e-05 0.0 -1.6032294e-05 -0.0001252135 0.0 -1.1173814999999999e-05 -0.00015595854999999998 0.0 -4.7792882000000005e-06 -0.00018207506000000003 0.0 1.2565574e-06 -0.00020270697 0.0 5.6568997e-06 -0.00021833045 0.0 8.0879581e-06 -0.00012903713 0.0 -2.2769356e-05 -0.00017412067 0.0 -1.5631942e-05 -0.00021619334999999998 0.0 -6.4160085e-06 -0.00025149167 0.0 2.1749929e-06 -0.00027895207 0.0 8.3609866e-06 -0.00029939416 0.0 1.1715078e-05 -0.00018151397 0.0 -3.1777374e-05 -0.00024344449000000002 0.0 -2.1519489e-05 -0.0003006646 0.0 -8.4534822e-06 -0.00034816227999999997 0.0 3.5882158e-06 -0.00038463049 0.0 1.2149661000000002e-05 -0.00041130476000000003 0.0 1.6700018e-05 -0.00026110446 0.0 -4.3945554e-05 -0.0003448550700000001 0.0 -2.9259323e-05 -0.00042091022 0.0 -1.082631e-05 -0.00048331544000000003 0.0 5.9149879e-06 -0.00053090398 0.0 1.7619721e-05 -0.00056542293 0.0 2.3691829e-05 -0.00038824827000000006 0.0 -6.0457627e-05 -0.00049863412 0.0 -3.9161136e-05 -0.0005953240900000001 0.0 -1.2995283999999999e-05 -0.0006733805099999999 0.0 1.0235509e-05 -0.00073275645 0.0 2.6009099999999998e-05 -0.00077605166 0.0 3.38395e-05 -0.00059687998 0.0 -8.274022499999999e-05 -0.00073623785 0.0 -5.1085539e-05 -0.0008509772 0.0 -1.3345902000000001e-05 -0.00094145321 0.0 1.8976263e-05 -0.0010105612 0.0 3.9830735e-05 -0.0010619289999999999 0.0 4.9280701e-05 -0.0009348033300000001 0.0 -0.00011238236000000001 -0.0010986163 0.0 -6.3698026e-05 -0.0012218013000000001 0.0 -8.152212099999999e-06 -0.0013165976999999999 0.0 3.6912279e-05 -0.0013904929 0.0 6.365875e-05 -0.0014474641000000001 0.0 7.372188e-05 -0.0014475422 0.0 -0.00014988466999999998 -0.0016242692 0.0 -7.3102456e-05 -0.0017413845999999999 0.0 1.0150783e-05 -0.0018307039000000002 0.0 7.2449606e-05 -0.0019038454999999999 0.0 0.00010489163 -0.0019633973 0.0 0.0001128815 -0.0021425369 0.0 -0.00019231813999999998 -0.0023287125 0.0 -7.007664e-05 -0.0024345955 0.0 5.4785458e-05 -0.0025158823 0.0 0.00013860666 -0.0025868043 0.0 0.00017410573 -0.0026474096999999997 0.0 0.00017454935 -0.0029769288 0.0 -0.0001805314 -0.0032074782000000002 0.0 -2.1025203999999997e-05 -0.0033236222999999997 0.0 0.00015028156 -0.0034093463 0.0 0.00025357072999999996 -0.0034835390000000003 0.0 0.00028438502 -0.0035460037 0.0 0.00026797605 -0.0040015774 0.0 1.4199903999999999e-05 -0.0042999582000000005 0.0 0.00014890938 -0.0044579543 0.0 0.00033297221 -0.0045674122 0.0 0.00043815360000000003 -0.0046526776 0.0 0.00044929239 -0.0047176732 0.0 0.00040267672999999993 -0.0053613679000000004 0.0 0.00042267915 -0.005724584699999999 0.0 0.0004880561 -0.005935419399999999 0.0 0.00063263834 -0.006075521899999999 0.0 0.0007097706 -0.006172056800000001 0.0 0.0006804308500000001 -0.0062356163 0.0 0.0005873633799999999 -0.007251834 0.0 0.0010002252 -0.0076464475 0.0 0.00098057371 -0.0078884065 0.0 0.0010558972 -0.008043156899999999 0.0 0.0010767906 -0.0081379646 0.0 0.00098660681 -0.008189017 0.0 0.0008299670299999999 -0.0098656565 0.0 0.0016809639999999999 -0.010227645 0.0 0.001603188 -0.01045437 0.0 0.0015920624 -0.01059165 0.0 0.0015436197 -0.010662898999999998 0.0 0.0013763787 -0.010684761999999999 0.0 0.0011391203 -0.013328052 0.0 0.0025022002 -0.013595823 0.0 0.0023373214 -0.013764223999999999 0.0 0.0022443018 -0.013854871000000001 0.0 0.0021224143 -0.013880054 0.0 0.0018633163 -0.013852037 0.0 0.0015255286 -0.017715408000000002 0.0 0.0035099182 -0.017876673 0.0 0.0032312410999999997 -0.01797346 0.0 0.0030462334000000003 -0.017999582 0.0 0.0028363594000000002 -0.017954681 0.0 0.002465755 -0.017847385 0.0 0.0020015431 -0.023199123999999998 0.0 0.0047944346 -0.023287416000000002 0.0 0.0043496741 -0.023310458 0.0 0.0040333471 -0.023246048 0.0 0.0037138469 -0.023089317999999998 0.0 0.0032025035 -0.02285422 0.0 0.0025793163 -0.030168146 0.0 0.0065046661 -0.030173698 0.0 0.0057646888 -0.03007816 0.0 0.005239279 -0.029857311 0.0 0.0047739502 -0.02951481 0.0 0.0040874649 -0.029080977999999997 0.0 0.003271048 -0.039084051 0.0 0.0087177455 -0.038920671000000004 0.0 0.0075080423 -0.038605776 0.0 0.0066702496 -0.038120348 0.0 0.006023636999999999 -0.037485647999999996 0.0 0.0051318998 -0.036757572999999995 0.0 0.0040920726 -0.050395567 0.0 0.011520556000000001 -0.049924265999999995 0.0 0.0095502073 -0.049239039000000005 0.0 0.008296174 -0.048336048 0.0 0.0074614431 -0.047266677 0.0 0.0063516208999999995 -0.04612340400000001 0.0 0.0050701135999999996 -0.06454106400000001 0.0 0.014868967 -0.063561253 0.0 0.011782207 -0.062297784 0.0 0.010060475 -0.060776748 0.0 0.009095633399999999 -0.059095148 0.0 0.0077863606 -0.057393532000000004 0.0 0.0062652775 -0.081822939 0.0 0.018661361 -0.08007504 0.0 0.014030532 -0.077974141 0.0 0.011933522 -0.075595543 0.0 0.010997456000000001 -0.07309829400000001 0.0 0.0095501179 -0.070680834 0.0 0.007804509300000001 -0.10218343 0.0 0.022572948 -0.09937687199999999 0.0 0.016052095 -0.096155547 0.0 0.013970838999999999 -0.0926679 0.0 0.013400506000000001 -0.089148171 0.0 0.011906375 -0.08585616199999999 0.0 0.0099366531 -0.12486279 0.0 0.026167147 -0.12073668 0.0 0.017646115 -0.11615115 0.0 0.016525222 -0.11135153 0.0 0.016861234 -0.10664757 0.0 0.015406017 -0.10235127 0.0 0.013124473999999999 -0.14798854 0.0 0.02904083 -0.14242257 0.0 0.019111006 -0.136379 0.0 0.020541517 -0.13021317 0.0 0.022520414 -0.12428898 0.0 0.021083407000000002 -0.1189443 0.0 0.018185765 -0.16826482 0.0 0.031100811000000003 -0.16143207 0.0 0.021417167 -0.1541367 0.0 0.027799808999999998 -0.14682733 0.0 0.032301005 -0.13987419 0.0 0.030611036 -0.1336005 0.0 0.026430655 -0.18088937 0.0 0.033503797 -0.17339863 0.0 0.027071061 -0.16549389 0.0 0.041227311 -0.15765569 0.0 0.04857754 -0.15018892 0.0 0.046047437999999996 -0.14336117 0.0 0.039652195 -0.17985971 0.0 0.040245216 -0.1727778 0.0 0.041442758999999996 -0.16535282 0.0 0.063608535 -0.15800115 0.0 0.073405653 -0.15090311 0.0 0.069764219 -0.14422481 0.0 0.059846908 -0.1589919 0.0 0.059839334 -0.15365413 0.0 0.071460128 -0.14805736 0.0 0.096594065 -0.14247213 0.0 0.10930561 -0.1368998 0.0 0.1035672 -0.13136414 0.0 0.088672765 -0.11393337 0.0 0.11184509 -0.11157998 0.0 0.1316911 -0.1090851 0.0 0.15040953 -0.10650437 0.0 0.15788868 -0.10362306 0.0 0.14829908 -0.1002955 0.0 0.12660913 -0.04474283 0.0 0.21508266 -0.046153102 0.0 0.24565558 -0.047545452 0.0 0.23828635 -0.048713923 0.0 0.22328986 -0.04926409599999999 0.0 0.20291401 -0.04891596 0.0 0.17223233 0.042191278 0.0 0.3563765 0.037045896 0.0 0.40190265 0.031833585 0.0 0.35483319 0.027023507000000002 0.0 0.3013041 0.023065297000000002 0.0 0.26394933 0.020267388 0.0 0.22207595 0.13396089 0.0 0.47296137 0.12615049 0.0 0.54241961 0.11816522 0.0 0.46415374 0.1106938 0.0 0.37662709 0.10410865 0.0 0.3232722 0.098654807 0.0 0.27079251 0.21366502 0.0 0.53015673 0.20504613 0.0 0.62613845 0.19604094 0.0 0.54099357 0.1874086 0.0 0.43733463 0.17941999 0.0 0.37416959 0.17224292 0.0 0.31335896 0.26667222 0.0 0.54579318 0.25891724 0.0 0.6579054 0.25056446 0.0 0.58250815 0.24217424 0.0 0.47846228 0.2339454 0.0 0.4124248 0.22603449 0.0 0.34645608 0.28733194 0.0 0.5441907 0.28123668 0.0 0.66631711 0.27444032 0.0 0.60220528 0.26714221 0.0 0.50385249 0.25945643 0.0 0.43816611 0.2515755 0.0 0.36931217 0.28054118 0.0 0.53893763 0.27619451 0.0 0.66654307 0.27109835 0.0 0.61103314 0.26514792 0.0 0.51805049 0.25836623 0.0 0.45333347 0.25098065 0.0 0.38297755 0.25757989 0.0 0.53574097 0.25468513 0.0 0.66499722 0.25098553 0.0 0.61392272 0.24622132 0.0 0.52418828 0.2403619 0.0 0.46022338 0.23365507 0.0 0.38926083 0.2299436 0.0 0.53595591 0.22802646 0.0 0.66391754 0.2252503 0.0 0.6132375 0.22133109 0.0 0.52445847 0.21622632 0.0 0.46083367 0.21018514 0.0 0.38987854 0.20482557 0.0 0.5386976 0.2034006 0.0 0.66355014 0.20109519 0.0 0.60994595 0.1976708 0.0 0.52005392 0.19309208 0.0 0.45639098 0.18759097 0.0 0.38594475 0.18385914 0.0 0.53378344 0.1825431 0.0 0.65467185 0.18036304 0.0 0.59966063 0.17713885 0.0 0.51014119 0.17284518 0.0 0.44717821 0.16769236 0.0 0.37791598 0.164803 0.0 0.52008802 0.16333684 0.0 0.63625562 0.16102912 0.0 0.58185238 0.15774523 0.0 0.49462137 0.15347701 0.0 0.433272 0.14843041 0.0 0.36592039 0.14461879 0.0 0.49842 0.14279407 0.0 0.60888082 0.14012088 0.0 0.55680364 0.13649645 0.0 0.47364402 0.13195205 0.0 0.41480431 0.12673484 0.0 0.35008714 0.12203225 0.0 0.47022921 0.11959247 0.0 0.57390606 0.11625598 0.0 0.52537423 0.11195268 0.0 0.44772792 0.10679582 0.0 0.39218274 0.10113637 0.0 0.33076108 0.09839888699999999 0.0 0.43731621 0.09498658 0.0 0.53253102 0.090587355 0.0 0.48888353 0.08520512300000001 0.0 0.41779026 0.07909955099999999 0.0 0.36614889 0.072787493 0.0 0.30857462 0.076895572 0.0 0.40155718 0.072061479 0.0 0.48741442 0.066124216 0.0 0.44888785 0.059247065 0.0 0.3850016 0.051909252999999995 0.0 0.33773494 0.044823255 0.0 0.28442523 0.060635172 0.0 0.36489356 0.053953364000000004 0.0 0.44144142 0.046085887 0.0 0.40717 0.037412845 0.0 0.35074696 0.028652325 0.0 0.30814832 0.020689849 0.0 0.2593708 0.050796062 0.0 0.32839483 0.042056654000000006 0.0 0.3958483 0.03212335 0.0 0.36575642 0.021607412000000003 0.0 0.3166827 0.011423537 0.0 0.27874756 0.0025488867 0.0 0.23455387 0.046301025999999995 0.0 0.29188764 0.035463762 0.0 0.35128275 0.02359839 0.0 0.32655695 0.011524312 0.0 0.28444764 0.0002358075 0.0 0.2508738 -0.0093375631 0.0 0.21112865 0.044986654 0.0 0.25601968 0.031793449 0.0 0.30942628 0.018161533 0.0 0.29119068 0.0051429374 0.0 0.2554059 -0.0065136733 0.0 0.22565138 -0.016170898 0.0 0.19006598 0.04636218 0.0 0.22273275 0.028982891 0.0 0.27117896 0.013237571000000002 0.0 0.26072666 -3.1938143e-05 0.0 0.23039864 -0.010929082 0.0 0.20374739 -0.019663326000000002 0.0 0.17192626 0.052723698 0.0 0.19073488 0.027009937999999997 0.0 0.23692556 0.0075707142 0.0 0.23570918 -0.0057182806 0.0 0.20982601 -0.01464319 0.0 0.18521824 -0.021265436000000002 0.0 0.15682559 0.064191923 0.0 0.16155864 0.026360757999999998 0.0 0.20776108 0.0017248110000000001 0.0 0.21578258 -0.01194945 0.0 0.19365631 -0.018135033999999998 0.0 0.16988182 -0.021722342999999998 0.0 0.14447838 0.026003161 0.0 0.18174243 -0.002306235 0.0 0.19823872 -0.016905766000000003 0.0 0.18122125 -0.020809025 0.0 0.15741093 -0.021129811000000002 0.0 0.13437186 0.027921399 0.0 0.15497048 -0.0017724568 0.0 0.17934811 -0.017727648999999998 0.0 0.17083713 -0.021424693999999998 0.0 0.14769569 -0.019346414 0.0 0.12597798 0.0056588189 0.0 0.1574111 -0.011817882 0.0 0.15992115 -0.018089661 0.0 0.14072193 -0.016013555 0.0 0.11923771 0.019079811999999998 0.0 0.13528173 0.0019334126 0.0 0.14653547 -0.0084471852 0.0 0.1354553 -0.0098348549 0.0 0.11488571 0.02023856 0.0 0.13233164 0.0084468024 0.0 0.12968349 0.0020852867000000002 0.0 0.11263744 0.029040556000000002 0.0 0.12239344 0.022048188 0.0 0.1102831 0.045485865 0.0 0.11425311 0.04368371099999999 0.0 0.10661364 -0.00012057493 0.0 3.8674607e-06 -0.00012579036 0.0 3.8580015e-06 -0.00012980754 0.0 3.6603762999999997e-06 -0.00013288073 0.0 3.4018678e-06 -0.00013520389999999998 0.0 3.1397492e-06 -0.00013692753 0.0 2.9008886e-06 -0.00013816412 0.0 2.6996918e-06 -0.00013899438 0.0 2.5461459e-06 -0.00013947205 0.0 2.4492347000000003e-06 -0.00016790868999999999 0.0 6.0272855e-06 -0.00017475283 0.0 5.9847293000000005e-06 -0.00017997395 0.0 5.6646035999999994e-06 -0.00018392988 0.0 5.2570117e-06 -0.00018689205000000002 0.0 4.8427328e-06 -0.00018907133000000003 0.0 4.4639942e-06 -0.00019062386000000001 0.0 4.144832e-06 -0.00019166054 0.0 3.9018028e-06 -0.00019225481 0.0 3.7488952999999997e-06 -0.00022999495999999998 0.0 8.9205096e-06 -0.0002387464 0.0 8.8125662e-06 -0.0002453429 0.0 8.3170135e-06 -0.00025028331 0.0 7.7019222e-06 -0.00025394291 0.0 7.0758979e-06 -0.00025660952 0.0 6.5020286e-06 -0.00025849382 0.0 6.0183233e-06 -0.00025974418 0.0 5.650874299999999e-06 -0.00026045792000000003 0.0 5.420408300000001e-06 -0.00031439848999999996 0.0 1.2802216000000001e-05 -0.00032548414 0.0 1.2578248e-05 -0.00033372562000000006 0.0 1.1830252e-05 -0.00033981737 0.0 1.0922458e-05 -0.0003442759 0.0 9.9986837e-06 -0.00034748967000000007 0.0 9.1504298e-06 -0.0003497398 0.0 8.435637e-06 -0.000351222 0.0 7.8939629e-06 -0.00035206383 0.0 7.5552962e-06 -0.00043052863 0.0 1.8082619e-05 -0.00044449727 0.0 1.7663901e-05 -0.00045472595999999997 0.0 1.6545162e-05 -0.00046217880999999995 0.0 1.5214081e-05 -0.00046755935 0.0 1.3862958000000001e-05 -0.00047138907 0.0 1.262239e-05 -0.00047404144 0.0 1.1578339e-05 -0.000475774 0.0 1.0789509e-05 -0.0004767524099999999 0.0 1.0297998e-05 -0.0005898902900000001 0.0 2.5390089e-05 -0.0006073517700000001 0.0 2.4639679e-05 -0.0006199327200000001 0.0 2.2959409999999996e-05 -0.0006289550800000001 0.0 2.1001701e-05 -0.0006353640900000001 0.0 1.9025467000000002e-05 -0.00063985615 0.0 1.7215581e-05 -0.0006429262 0.0 1.5697207000000002e-05 -0.00064491044 0.0 1.4554770000000001e-05 -0.00064602261 0.0 1.3845818e-05 -0.00080670102 0.0 3.5716206000000005e-05 -0.0008282332000000001 0.0 3.4341185e-05 -0.0008434773199999999 0.0 3.1769643e-05 -0.00085420924 0.0 2.8862172e-05 -0.0008616842100000001 0.0 2.5958868999999998e-05 -0.00086682168 0.0 2.3316366e-05 -0.00087027089 0.0 2.1112404000000002e-05 -0.00087246852 0.0 1.9463947e-05 -0.0008736883800000001 0.0 1.8446121e-05 -0.001098946 0.0 5.0706414000000005e-05 -0.0011249187 0.0 4.8020378e-05 -0.0011429625 0.0 4.3947628e-05 -0.0011553832000000001 0.0 3.955988e-05 -0.0011638169000000001 0.0 3.5267309e-05 -0.0011694606 0.0 3.1406078000000004e-05 -0.0011731562 0.0 2.8215574e-05 -0.0011754611 0.0 2.5848347e-05 -0.0011767213 0.0 2.4395757e-05 -0.0014899260000000001 0.0 7.3067284e-05 -0.0015201156 0.0 6.757817e-05 -0.0015407443 0.0 6.0857321e-05 -0.0015545384 0.0 5.4101369000000005e-05 -0.0015635774 0.0 4.7710753e-05 -0.0015693909 0.0 4.2072209999999994e-05 -0.0015730470000000002 0.0 3.7476144e-05 -0.0015752463 0.0 3.4101544e-05 -0.0015764171 0.0 3.2046242e-05 -0.0020095978 0.0 0.00010687927 -0.0020429783 0.0 9.5782583e-05 -0.0020653913 0.0 8.437856700000001e-05 -0.0020797634 0.0 7.3797251e-05 -0.0020886681 0.0 6.4234155e-05 -0.0020940118 0.0 5.6024269999999996e-05 -0.0020971219 0.0 4.945368e-05 -0.0020988535 0.0 4.469242e-05 -0.0020997184 0.0 4.181829e-05 -0.0026955507 0.0 0.00015761581 -0.0027303046 0.0 0.00013632816 -0.0027528390999999996 0.0 0.00011695996000000002 -0.0027662837 0.0 0.00010029525999999999 -0.0027737447999999997 0.0 8.598778399999999e-05 -0.0027775443 0.0 7.410928100000001e-05 -0.002779285 0.0 6.481629e-05 -0.0027799776 0.0 5.8188855999999994e-05 -0.0027802009000000003 0.0 5.423e-05 -0.0035943326 0.0 0.00023175175 -0.0036277096 0.0 0.00019363743000000002 -0.0036475621 0.0 0.00016153469999999998 -0.0036575892 0.0 0.00013554824 -0.003661515 0.0 0.00011432103000000001 -0.0036621066 0.0 9.732534100000001e-05 -0.0036612381 0.0 8.4370018e-05 -0.0036600488000000002 0.0 7.5300486e-05 -0.0036591487 0.0 6.9948845e-05 -0.0047633187 0.0 0.00033609924 -0.0047910954 0.0 0.00027247387 -0.0048039733 0.0 0.00022130951 -0.0048067919 0.0 0.00018171633000000002 -0.0048040464 0.0 0.000150758 -0.0047990009 0.0 0.00012684654 -0.0047937562 0.0 0.00010911919 -0.0047895131 0.0 9.6962889e-05 -0.0047868248 0.0 8.988945799999999e-05 -0.0062726713 0.0 0.00047725444999999997 -0.006288310500000001 0.0 0.00037756731 -0.0062879315 0.0 0.00029952236 -0.0062780464 0.0 0.00024105868999999998 -0.0062641655 0.0 0.00019699452000000001 -0.0062500909 0.0 0.00016409556 -0.006238078199999999 0.0 0.00014039122 -0.0062292148 0.0 0.00012449578000000002 -0.0062238728 0.0 0.00011539071000000001 -0.0082073091 0.0 0.0006615605700000001 -0.0082011297 0.0 0.00051343726 -0.0081785228 0.0 0.00039931209000000005 -0.0081481999 0.0 0.00031592409 -0.0081170434 0.0 0.00025500075 -0.0080893934 0.0 0.00021093115000000003 -0.0080674626 0.0 0.00018008011000000002 -0.0080519887 0.0 0.00015988052 -0.0080428971 0.0 0.00014850996 -0.01066957 0.0 0.00089555728 -0.010627626000000001 0.0 0.0006844725599999999 -0.010570056999999999 0.0 0.0005238476400000001 -0.010508689 0.0 0.00040897791 -0.010452056 0.0 0.00032735112 -0.010404931 0.0 0.00027005075 -0.010369116999999999 0.0 0.00023108772000000001 -0.010344573000000001 0.0 0.00020621701 -0.010330434 0.0 0.00019248526999999998 -0.013782508 0.0 0.0011864051 -0.0136845 0.0 0.0008953440699999999 -0.013574286000000001 0.0 0.00067685178 -0.013467665 0.0 0.00052385678 -0.013374964 0.0 0.00041796237999999997 -0.013300951 0.0 0.00034575103 -0.013246427 0.0 0.00029806669999999996 -0.013209926 0.0 0.00026843345 -0.013189221999999999 0.0 0.00025241505 -0.017691918 0.0 0.0015418667 -0.017509073 0.0 0.0011517856 -0.017322415 0.0 0.00086371659 -0.017152198 0.0 0.00066648645 -0.017010158 0.0 0.0005334579 -0.016900263999999998 0.0 0.00044521797 -0.016821317 0.0 0.0003885802 -0.016769512 0.0 0.00035431521 -0.016740566000000002 0.0 0.00033619508 -0.022567015 0.0 0.0019710253 -0.022260504 0.0 0.0014621225 -0.021966765 0.0 0.0010936268 -0.021710141000000002 0.0 0.00084741489 -0.021502733 0.0 0.0006854079 -0.02134634 0.0 0.00058050448 -0.02123639 0.0 0.00051475607 -0.021165542000000002 0.0 0.00047588229000000004 -0.021126486 0.0 0.00045571985999999997 -0.0286003 0.0 0.0024860878 -0.028120529 0.0 0.0018403807 -0.027682181 0.0 0.001383315 -0.027312066 0.0 0.0010855497 -0.027020568 0.0 0.0008936521499999999 -0.026805386 0.0 0.0007712716499999999 -0.026656944 0.0 0.0006954544199999999 -0.026562784 0.0 0.00065108872 -0.026511561 0.0 0.00062828348 -0.036005065 0.0 0.0031071884999999996 -0.035292391 0.0 0.0023122213000000003 -0.034666196 0.0 0.0017631234 -0.034151918999999996 0.0 0.0014135819 -0.033755135 0.0 0.0011907051 -0.033467192 0.0 0.0010481562 -0.033271495 0.0 0.0009587697599999999 -0.033149112 0.0 0.00090566679 -0.033083305 0.0 0.0008780048199999999 -0.045005575 0.0 0.0038724928000000002 -0.04399292900000001 0.0 0.0029248884 -0.043132175 0.0 0.0022858107 -0.042440902 0.0 0.0018850104999999999 -0.041915711 0.0 0.0016269430999999999 -0.041539144 0.0 0.0014563825 -0.041286029 0.0 0.0013444169 -0.041129448 0.0 0.0012747012 -0.04104602 0.0 0.0012369499 -0.05580573900000001 0.0 0.0048552291 -0.054422385999999996 0.0 0.0037609206 -0.053279652999999996 0.0 0.0030370816 -0.052377962 0.0 0.002581764 -0.051699974 0.0 0.0022756634 -0.051217236 0.0 0.002058838 -0.050894870999999994 0.0 0.0019054344 -0.05069679 0.0 0.0018034073 -0.050591968 0.0 0.0017454163 -0.068512686 0.0 0.006188210600000001 -0.06668715900000001 0.0 0.0049540424 -0.065216027 0.0 0.0041450332 -0.06407053 0.0 0.003619473 -0.063214242 0.0 0.0032359606 -0.062606275 0.0 0.0029373027000000004 -0.062201187000000005 0.0 0.0027082919 -0.061953075 0.0 0.0025465006 -0.061822235999999996 0.0 0.0024507701999999998 -0.082995892 0.0 0.0080967527 -0.08065567900000001 0.0 0.0067052613 -0.07880874 0.0 0.0057855751 -0.077384651 0.0 0.0051476257 -0.076322764 0.0 0.0046306205999999996 -0.075568482 0.0 0.0041898112 -0.07506568 0.0 0.0038299181 -0.07475789599999999 0.0 0.003564955 -0.074595742 0.0 0.0034040364 -0.098696359 0.0 0.010947901999999999 -0.095765457 0.0 0.0093011502 -0.09348926699999999 0.0 0.0081842802 -0.091746569 0.0 0.007344474100000001 -0.090447679 0.0 0.0065993462 -0.089523152 0.0 0.0059234108999999995 -0.088905185 0.0 0.005350566 -0.088525891 0.0 0.0049188808 -0.08832583599999999 0.0 0.0046528582 -0.1144339 0.0 0.015337712 -0.11084598 0.0 0.013152513000000001 -0.108082 0.0 0.011623083000000001 -0.10597368 0.0 0.010411545 -0.10440143 0.0 0.009289616700000001 -0.10327844 0.0 0.0082447622 -0.10252378 0.0 0.007344283199999999 -0.10205763 0.0 0.0066576055 -0.10181009 0.0 0.0062310826 -0.12827599 0.0 0.022205759 -0.12401619 0.0 0.01886663 -0.12072618 0.0 0.016471708 -0.11821207 0.0 0.014577751000000002 -0.1163324 0.0 0.012851101 -0.11498319 0.0 0.011252082 -0.11406882 0.0 0.009870381999999999 -0.1134974 0.0 0.0088111097 -0.11319026 0.0 0.0081498548 -0.13745248 0.0 0.032877065 -0.13263461 0.0 0.027300576 -0.12886031 0.0 0.023226606 -0.12594888 0.0 0.020117231 -0.12375799 0.0 0.01743808 -0.1221744 0.0 0.015031716 -0.12108912 0.0 0.012969006000000002 -0.12040039 0.0 0.011385608 -0.1200242 0.0 0.010393853 -0.13823663 0.0 0.048893519 -0.13318811 0.0 0.03948636 -0.12912911 0.0 0.032491371 -0.12594117 0.0 0.027348481 -0.12351315 0.0 0.023209302 -0.12173999 0.0 0.019656398999999998 -0.12050883 0.0 0.016659958 -0.11971429 0.0 0.014364227 -0.11927302 0.0 0.01292327 -0.12608504 0.0 0.07155513 -0.12138031 0.0 0.056340065 -0.11743963 0.0 0.044823021 -0.11425842 0.0 0.03656603 -0.11178999 0.0 0.03029947 -0.10996041 0.0 0.025172727000000002 -0.10867051 0.0 0.020939451 -0.10782404 0.0 0.017710978 -0.10734665 0.0 0.015682468 -0.096653171 0.0 0.10127126 -0.093043976 0.0 0.078192487 -0.089798264 0.0 0.060443889 -0.087064169 0.0 0.04788574599999999 -0.08488454699999999 0.0 0.038744247999999995 -0.083235949 0.0 0.03156833 -0.082052492 0.0 0.025769107000000003 -0.081262499 0.0 0.021373065 -0.080810651 0.0 0.018610705 -0.047696552999999996 0.0 0.13696253 -0.04591969 0.0 0.10434089 -0.043998565999999996 0.0 0.078935653 -0.042229055999999994 0.0 0.061056204 -0.040749978 0.0 0.048375648 -0.039596401 0.0 0.038719166 -0.038748417 0.0 0.031053387999999998 -0.038171034 0.0 0.025275568999999998 -0.037835598 0.0 0.021645786 0.018700689 0.0 0.1758813 0.018162416 0.0 0.13290103 0.018258431999999998 0.0 0.099116266 0.018609913 0.0 0.07535956099999999 0.019005513 0.0 0.058750237999999996 0.019358071 0.0 0.046342269000000005 0.019639998999999998 0.0 0.036610834 0.019844502 0.0 0.029304301 0.019968944 0.0 0.024713151000000003 0.094483964 0.0 0.21413206 0.09156607800000001 0.0 0.16115633 0.089638419 0.0 0.11922859 0.08834031199999999 0.0 0.08969944699999999 0.087438308 0.0 0.069181651 0.086812869 0.0 0.0540011 0.086393729 0.0 0.042166933 0.08613167699999999 0.0 0.03329315 0.08599028 0.0 0.02771158 0.16610533 0.0 0.24786724 0.16117716 0.0 0.18634847 0.15740138 0.0 0.13741641 0.15453272 0.0 0.1028666 0.15237571 0.0 0.07888378900000001 0.15080257 0.0 0.061181847000000004 0.14970714 0.0 0.047393579000000005 0.14899811 0.0 0.037043326 0.1486036 0.0 0.030521821 0.21875487 0.0 0.27447239 0.2124584 0.0 0.2065068 0.20730223 0.0 0.15227109 0.20320806 0.0 0.11387716 0.20006214 0.0 0.08717132400000001 0.1977478 0.0 0.067411944 0.19613214 0.0 0.051976907999999995 0.19508576 0.0 0.040358666 0.19450313 0.0 0.033022799 0.24390453 0.0 0.29309538 0.23693264 0.0 0.22087519 0.2309844 0.0 0.16315451 0.22614276 0.0 0.12220635 0.22238645 0.0 0.09362220800000001 0.21961881 0.0 0.072364829 0.21769221 0.0 0.055677921 0.21644987 0.0 0.043072719 0.21576084 0.0 0.035096377000000005 0.24346833 0.0 0.3043665 0.23640031 0.0 0.22978024 0.23020551 0.0 0.17015779 0.22508863 0.0 0.1277968 0.22109839 0.0 0.098108448 0.21815997 0.0 0.075897045 0.21612139 0.0 0.058365487 0.21481355 0.0 0.04507466 0.21409209 0.0 0.03664808 0.22660986 0.0 0.30963969 0.21982734 0.0 0.23411985 0.2137841 0.0 0.17378974 0.20875224 0.0 0.13088736 0.20481886 0.0 0.10071272 0.20192419 0.0 0.078013405 0.19992192 0.0 0.060009334000000004 0.19864282 0.0 0.04631872099999999 0.19794051 0.0 0.037625231 0.20370893 0.0 0.31025705 0.19738989 0.0 0.23482987 0.19171427 0.0 0.17463341 0.18697104 0.0 0.13181134 0.18325855 0.0 0.10161589 0.18052594 0.0 0.078807563 0.17863733 0.0 0.06065166 0.17743319 0.0 0.04681522 0.17677329 0.0 0.038019709 0.18163635 0.0 0.3071169 0.17579331 0.0 0.23256446 0.17053375 0.0 0.17313315 0.16613543 0.0 0.13086171 0.16268922 0.0 0.10101218 0.16014753 0.0 0.078408726 0.15838686 0.0 0.060375463 0.15726139 0.0 0.046614181 0.15664309 0.0 0.037861131 0.16211425 0.0 0.30062875 0.15664643 0.0 0.22765474 0.15173781 0.0 0.16955283 0.14764145 0.0 0.12825154 0.14443061 0.0 0.099073492 0.14205514 0.0 0.076951675 0.14040019 0.0 0.05928275400000001 0.1393345 0.0 0.045791201 0.13874508 0.0 0.037207792999999996 0.14302629 0.0 0.29093003 0.13778067 0.0 0.22024599 0.13311484 0.0 0.16404867 0.12924576 0.0 0.12413999 0.12621978 0.0 0.095950641 0.1239754 0.0 0.074569441 0.12240081 0.0 0.057485107 0.12137703 0.0 0.044438875999999995 0.1208055 0.0 0.036139823 0.12129094 0.0 0.27814871 0.11612812 0.0 0.21047515 0.11162452 0.0 0.15676956 0.10794158 0.0 0.11868164 0.10508259 0.0 0.09179300800000001 0.10296381 0.0 0.071397685 0.10146992 0.0 0.055101517999999995 0.10049058 0.0 0.042661465999999995 0.09993922699999999 0.0 0.034751747 0.09548731099999999 0.0 0.26257795 0.09034513699999999 0.0 0.1985907 0.086010374 0.0 0.14793089 0.082554743 0.0 0.11206669 0.079916634 0.0 0.086768024 0.077977687 0.0 0.067582287 0.076612666 0.0 0.05225794 0.07571551900000001 0.0 0.040568545 0.07520867099999999 0.0 0.033142537 0.0668706 0.0 0.24473624 0.061803222000000005 0.0 0.18499988 0.057753999 0.0 0.13784592 0.054662533 0.0 0.10453916 0.052379388 0.0 0.081071556 0.050740685 0.0 0.063282862 0.049604833 0.0 0.049084313 0.048865455999999995 0.0 0.038266685 0.048450167999999995 0.0 0.031403311 0.038660098 0.0 0.22535123 0.033783436 0.0 0.17025752 0.030177577999999997 0.0 0.1269204 0.027612571000000002 0.0 0.09639585 0.025832895 0.0 0.074925981 0.024622107 0.0 0.058668762 0.023819266000000002 0.0 0.045708295 0.023315158 0.0 0.035850104 0.023039298 0.0 0.02960548 0.014255765 0.0 0.20529287 0.0096016796 0.0 0.15502419 0.0065014614 0.0 0.11562716 0.0045297961 0.0 0.08796876699999999 0.0033111856 0.0 0.068567172 0.0025739816 0.0 0.053909245999999994 0.0021393704 0.0 0.042248901 0.0018962637 0.0 0.033398651 0.0017760936999999999 0.0 0.027802369 -0.0042778165 0.0 0.18550244 -0.0088428762 0.0 0.14001626 -0.011547876 0.0 0.1044732 -0.013018566 0.0 0.079603247 -0.013757829 0.0 0.062229253 -0.014093237 0.0 0.049164228 -0.014218986000000001 0.0 0.038813468 -0.014245746 0.0 0.03098079 -0.014237817 0.0 0.026037959 -0.016579553 0.0 0.16691466 -0.021280397000000003 0.0 0.12595144 -0.023845991 0.0 0.093969502 -0.025045579 0.0 0.071642227 -0.025500872999999997 0.0 0.056135125 -0.025595753 0.0 0.044576325 -0.025540864 0.0 0.035491243 -0.025445493 0.0 0.0286505 -0.025367886 0.0 0.024345636 -0.02355998 0.0 0.15035373 -0.028512159 0.0 0.11348748 -0.031243853 0.0 0.084597491 -0.032472417 0.0 0.06441135 -0.032896567 0.0 0.050489627 -0.032950725 0.0 0.040265918 -0.032866448 0.0 0.032347709 -0.032756443999999996 0.0 0.026441149 -0.032674301 0.0 0.022741868999999998 -0.026606645 0.0 0.13638924 -0.031680997 0.0 0.10313549 -0.034809705 0.0 0.076771513 -0.036374446 0.0 0.05820459099999999 -0.037029482 0.0 0.045477547 -0.037240867000000004 0.0 0.036333352 -0.037267543 0.0 0.029427622 -0.037236679 0.0 0.024365734 -0.037204232000000004 0.0 0.021224469 -0.026913201 0.0 0.12521794 -0.031719185 0.0 0.095169775 -0.035309627999999996 0.0 0.070798978 -0.037489798 0.0 0.053278115 -0.03863164 0.0 0.04127723 -0.039187778 0.0 0.032878347 -0.039447717 0.0 0.026770804 -0.039569533999999996 0.0 0.02242705 -0.039625518 0.0 0.019777473 -0.025227081000000002 0.0 0.11663645 -0.029191775 0.0 0.089566238 -0.033053797 0.0 0.066821612 -0.036038343 0.0 0.049846072000000005 -0.037935376 0.0 0.038081259 -0.039048608 0.0 0.030032642000000002 -0.039679576 0.0 0.02444235 -0.040030036 0.0 0.020639386000000003 -0.040209871 0.0 0.01838636 -0.021899194 0.0 0.11010877 -0.024394941 0.0 0.085972384 -0.028091742000000003 0.0 0.064742886 -0.031814888 0.0 0.048050857999999995 -0.034716858999999996 0.0 0.036099575 -0.036661219 0.0 0.027984941 -0.037876274 0.0 0.022570075 -0.038590603 0.0 0.019067379 -0.038963009 0.0 0.017072778 -0.017300661999999998 0.0 0.10489818 -0.017767278 0.0 0.08373952700000001 -0.020624684 0.0 0.064172134 -0.024604217999999997 0.0 0.047836660999999996 -0.028457677 0.0 0.035519116 -0.031476591 0.0 0.026975535 -0.033550053999999996 0.0 0.021366523999999998 -0.034844805 0.0 0.017869435 -0.0355413 0.0 0.015949193 -0.011931579 0.0 0.10037115 -0.010084186 0.0 0.082052417 -0.011334515 0.0 0.064423203 -0.01471911 0.0 0.04882413099999999 -0.018882893 0.0 0.036329761 -0.022753527000000003 0.0 0.027231797999999998 -0.025784289 0.0 0.021119697000000003 -0.027840767000000002 0.0 0.017318739 -0.028999146 0.0 0.015260595 -0.0060585323 0.0 0.096427456 -0.0023444623 0.0 0.080231048 -0.0013501581 0.0 0.06469202 -0.0031476768 0.0 0.050336048 -0.006566382900000001 0.0 0.038154427000000005 -0.010414661 0.0 0.028738162999999997 -0.01385735 0.0 0.022076746 -0.016462378 0.0 0.017767398 -0.018048471 0.0 0.015381572 0.0019488025 0.0 0.09413653599999999 0.0050139320000000005 0.0 0.078428097 0.0079661887 0.0 0.06445118 0.008623751800000001 0.0 0.051641531 0.007108615699999999 0.0 0.040353362000000004 0.0044304812 0.0 0.031127997 0.0015336896 0.0 0.024195861000000003 -0.0009307942800000002 0.0 0.019448744 -0.0025548835 0.0 0.016695373 0.016963776 0.0 0.093331032 0.014976543 0.0 0.077841908 0.016527666 0.0 0.06433095 0.018878212 0.0 0.052549526 0.020002225 0.0 0.04241224 0.019591067 0.0 0.03389499 0.018263256000000002 0.0 0.027160661000000003 0.016744118 0.0 0.022289602000000002 0.015606588000000001 0.0 0.019328188 0.040141456 0.0 0.092764214 0.034738965 0.0 0.078147464 0.030364409 0.0 0.065258741 0.029165233999999998 0.0 0.054177724000000003 0.030589975 0.0 0.04465892900000001 0.032260217 0.0 0.036838422999999995 0.033166729 0.0 0.030615522000000003 0.033340503 0.0 0.025974257 0.033192646 0.0 0.023048595 0.053822663 0.0 0.093115523 0.056354250999999994 0.0 0.07960002099999999 0.054229032 0.0 0.067052849 0.049711134000000004 0.0 0.056518264000000006 0.04622845 0.0 0.047716308 0.04498126400000001 0.0 0.040423423 0.045304425 0.0 0.034572123999999996 0.04609918599999999 0.0 0.030192338 0.046698295 0.0 0.027413344 0.057660785 0.0 0.083065502 0.068184912 0.0 0.07088831799999999 0.072327621 0.0 0.060495462 0.07178656 0.0 0.051624715 0.069659948 0.0 0.044329323 0.06822874400000001 0.0 0.038641855 0.067840122 0.0 0.034503928999999996 0.06789597900000001 0.0 0.031907581000000004 0.067793176 0.0 0.067733414 0.080705985 0.0 0.057871237 0.088352591 0.0 0.049391221 0.093317755 0.0 0.042910773 0.09673205 0.0 0.038626421 0.098786965 0.0 0.036123335 0.06638216200000001 0.0 0.056916635 0.079773359 0.0 0.047769211 0.089458637 0.0 0.042489331 0.095176205 0.0 0.03982972 -0.00013962793 0.0 2.416012e-06 -0.00013947205 0.0 2.4492348999999997e-06 -0.00013899439 0.0 2.5461466e-06 -0.00013816415 0.0 2.6996938e-06 -0.00013692751 0.0 2.9008893e-06 -0.00013520393 0.0 3.1397506e-06 -0.00013288071000000002 0.0 3.4018688e-06 -0.00012980756999999998 0.0 3.6603758e-06 -0.00019244839 0.0 3.6965848e-06 -0.00019225478 0.0 3.7488956000000004e-06 -0.00019166057000000002 0.0 3.9018041e-06 -0.00019062389 0.0 4.1448302e-06 -0.00018907130000000001 0.0 4.4639955e-06 -0.00018689207999999998 0.0 4.8427359999999995e-06 -0.00018392982 0.0 5.2570122e-06 -0.00017997395 0.0 5.6646068e-06 -0.00026068988 0.0 5.341733400000001e-06 -0.00026045783 0.0 5.4204079e-06 -0.00025974421000000004 0.0 5.650876599999999e-06 -0.00025849394 0.0 6.0183265e-06 -0.00025660952 0.0 6.5020286e-06 -0.00025394291 0.0 7.0759029e-06 -0.00025028319 0.0 7.7019185e-06 -0.00024534287999999996 0.0 8.3170198e-06 -0.00035233678999999996 0.0 7.4399377000000005e-06 -0.00035206371 0.0 7.5552975e-06 -0.00035122190999999997 0.0 7.893966500000001e-06 -0.00034973989000000003 0.0 8.435645199999999e-06 -0.00034748969 0.0 9.150437099999999e-06 -0.00034427611000000007 0.0 9.9986828e-06 -0.00033981728 0.0 1.0922465e-05 -0.00033372559 0.0 1.1830252e-05 -0.00047706859000000006 0.0 1.013096e-05 -0.0004767522 0.0 1.0297996000000001e-05 -0.00047577388 0.0 1.0789513999999999e-05 -0.00047404144 0.0 1.1578352999999999e-05 -0.00047138892 0.0 1.2622391e-05 -0.00046755953000000004 0.0 1.3862963e-05 -0.00046217900999999997 0.0 1.5214088999999999e-05 -0.00045472595999999997 0.0 1.6545166e-05 -0.00064638071 0.0 1.3605499e-05 -0.00064602232 0.0 1.3845818999999999e-05 -0.00064491032 0.0 1.4554771e-05 -0.00064292643 0.0 1.5697212999999998e-05 -0.00063985615 0.0 1.7215591e-05 -0.00063536415 0.0 1.9025483e-05 -0.00062895496 0.0 2.100171e-05 -0.00061993266 0.0 2.2959412999999998e-05 -0.00087407901 0.0 1.8102102e-05 -0.0008736880800000001 0.0 1.8446117e-05 -0.0008724686300000001 0.0 1.9463950999999998e-05 -0.00087027089 0.0 2.1112412e-05 -0.00086682185 0.0 2.331637e-05 -0.00086168409 0.0 2.5958883e-05 -0.0008542097099999999 0.0 2.8862176e-05 -0.00084347761 0.0 3.1769647e-05 -0.0011771214 0.0 2.3906445e-05 -0.0011767211 0.0 2.4395754999999998e-05 -0.0011754608 0.0 2.5848334e-05 -0.0011731561 0.0 2.8215578e-05 -0.0011694606 0.0 3.1406074e-05 -0.0011638167 0.0 3.5267316e-05 -0.0011553835 0.0 3.9559890999999996e-05 -0.0011429625 0.0 4.3947646000000005e-05 -0.0015767841 0.0 3.1356634e-05 -0.0015764171 0.0 3.2046224000000004e-05 -0.0015752467000000002 0.0 3.4101515e-05 -0.0015730467999999999 0.0 3.7476108e-05 -0.0015693906 0.0 4.2072209999999994e-05 -0.0015635776 0.0 4.7710730999999995e-05 -0.0015545383 0.0 5.4101376e-05 -0.0015407442000000002 0.0 6.0857357e-05 -0.0020999797 0.0 4.0858366e-05 -0.002099718 0.0 4.1818261e-05 -0.0020988525 0.0 4.4692380000000005e-05 -0.0020971214 0.0 4.9453654e-05 -0.0020940136 0.0 5.6024259e-05 -0.0020886692 0.0 6.423413999999999e-05 -0.002079763 0.0 7.3797222e-05 -0.0020653924 0.0 8.4378582e-05 -0.0027802493 0.0 5.2914806e-05 -0.0027802035 0.0 5.4229997000000006e-05 -0.0027799766999999998 0.0 5.8188819999999996e-05 -0.0027792860999999998 0.0 6.4816268e-05 -0.0027775447999999997 0.0 7.4109266e-05 -0.0027737452000000003 0.0 8.598777599999999e-05 -0.0027662825 0.0 0.0001002952 -0.0027528377 0.0 0.00011695996000000002 -0.0036588246000000004 0.0 6.818181300000001e-05 -0.0036591501 0.0 6.9948816e-05 -0.0036600481 0.0 7.5300501e-05 -0.0036612377 0.0 8.4369967e-05 -0.0036621068 0.0 9.732529699999999e-05 -0.0036615138 0.0 0.00011432102 -0.0036575918 0.0 0.00013554825000000001 -0.0036475633 0.0 0.00016153461000000002 -0.0047859144 0.0 8.7570661e-05 -0.0047868248 0.0 8.9889472e-05 -0.0047895131 0.0 9.6962875e-05 -0.0047937579999999995 0.0 0.0001091192 -0.0047989991 0.0 0.00012684651 -0.0048040464 0.0 0.00015075794 -0.0048067914000000005 0.0 0.00018171626 -0.0048039728 0.0 0.0002213095 -0.0062220925 0.0 0.00011243036 -0.0062238686 0.0 0.00011539075 -0.006229212 0.0 0.0001244958 -0.0062380764000000005 0.0 0.00014039128 -0.0062500904 0.0 0.00016409566000000003 -0.0062641697 0.0 0.00019699453 -0.0062780469 0.0 0.0002410587 -0.0062879366 0.0 0.00029952236 -0.0080399103 0.0 0.000144848 -0.008042898 0.0 0.00014851004 -0.008051982099999999 0.0 0.00015988061000000002 -0.0080674589 0.0 0.0001800802 -0.008089391500000001 0.0 0.0002109312 -0.0081170434 0.0 0.00025500057 -0.0081481999 0.0 0.00031592402999999997 -0.0081785237 0.0 0.00039931203 -0.01032584 0.0 0.00018811066000000003 -0.010330439 0.0 0.0001924854 -0.010344574 0.0 0.00020621718 -0.010369115 0.0 0.00023108772000000001 -0.010404928 0.0 0.00027005082999999997 -0.010452056999999999 0.0 0.00032735117999999996 -0.010508678 0.0 0.00040897785000000006 -0.010570056999999999 0.0 0.0005238472900000001 -0.013182546000000002 0.0 0.00024737348 -0.013189221000000001 0.0 0.00025241528 -0.013209923 0.0 0.00026843374 -0.013246426 0.0 0.000298067 -0.013300953 0.0 0.00034575093999999996 -0.013374961999999999 0.0 0.0004179625 -0.013467666000000001 0.0 0.00052385655 -0.013574289 0.0 0.00067685166 -0.016731294 0.0 0.00033056454 -0.016740562 0.0 0.00033619508 -0.016769515 0.0 0.00035431536 -0.016821317 0.0 0.00038858013999999995 -0.016900262 0.0 0.00044521832 -0.017010149 0.0 0.0005334579599999999 -0.01715219 0.0 0.00066648645 -0.017322412 0.0 0.00086371659 -0.021114087 0.0 0.00044952729000000006 -0.02112649 0.0 0.00045571990999999993 -0.021165543999999998 0.0 0.00047588249000000006 -0.021236407000000002 0.0 0.0005147561900000001 -0.021346344 0.0 0.0005805049400000001 -0.021502735 0.0 0.0006854081299999999 -0.021710139 0.0 0.00084741507 -0.021966746000000002 0.0 0.001093627 -0.026495412000000003 0.0 0.0006213191099999999 -0.026511565 0.0 0.00062828395 -0.026562784 0.0 0.0006510886599999999 -0.026656927999999996 0.0 0.00069545466 -0.026805392 0.0 0.00077127159 -0.027020559 0.0 0.0008936522099999999 -0.027312061000000002 0.0 0.0010855508 -0.027682191000000002 0.0 0.0013833145999999998 -0.033062693 0.0 0.0008694884599999999 -0.033083305 0.0 0.0008780045300000001 -0.033149119 0.0 0.0009056670199999999 -0.033271498999999996 0.0 0.0009587700500000001 -0.0334672 0.0 0.0010481562 -0.03375515 0.0 0.0011907042 -0.034151927 0.0 0.001413582 -0.034666203 0.0 0.0017631226000000002 -0.041020036 0.0 0.0012250617 -0.041046038 0.0 0.0012369497 -0.041129455 0.0 0.0012747009 -0.041286033 0.0 0.0013444179000000002 -0.041539151 0.0 0.0014563821 -0.041915718 0.0 0.0016269439000000001 -0.04244088 0.0 0.0018850107000000001 -0.043132156 0.0 0.0022858104000000002 -0.05055945 0.0 0.0017266698000000002 -0.050591942 0.0 0.0017454157 -0.050696809 0.0 0.0018034072 -0.050894879000000004 0.0 0.0019054343 -0.051217247 0.0 0.002058838 -0.05169997 0.0 0.0022756639 -0.052377962 0.0 0.002581764 -0.053279664000000004 0.0 0.003037083 -0.061781771 0.0 0.0024191837 -0.061822232000000005 0.0 0.0024507701999999998 -0.061953053 0.0 0.0025464999 -0.062201168 0.0 0.0027082907 -0.06260626 0.0 0.002937302 -0.063214265 0.0 0.0032359594 -0.06407053 0.0 0.0036194718 -0.065216027 0.0 0.0041450327000000006 -0.074545667 0.0 0.003350263 -0.07459576400000001 0.0 0.0034040371000000004 -0.07475789599999999 0.0 0.0035649571 -0.075065687 0.0 0.0038299181 -0.075568475 0.0 0.0041898097999999995 -0.07632274900000001 0.0 0.0046306248 -0.077384651 0.0 0.0051476266 -0.078808784 0.0 0.005785576999999999 -0.088263966 0.0 0.0045633046 -0.08832582800000001 0.0 0.0046528601000000004 -0.088525958 0.0 0.004918878 -0.088905223 0.0 0.0053505683 -0.089523159 0.0 0.0059234099 -0.090447687 0.0 0.0065993471 -0.09174655400000001 0.0 0.0073444708 -0.093489252 0.0 0.0081842812 -0.10173316 0.0 0.0060869115 -0.10181003 0.0 0.0062310826 -0.10205761 0.0 0.0066576065000000005 -0.10252377 0.0 0.007344285999999999 -0.10327847 0.0 0.008244765 -0.10440142 0.0 0.0092896149 -0.10597372 0.0 0.010411543 -0.108082 0.0 0.011623083999999999 -0.1130941 0.0 0.0079257125 -0.11319024 0.0 0.0081498586 -0.11349739 0.0 0.008811111600000001 -0.11406887 0.0 0.0098703839 -0.11498322 0.0 0.011252083000000001 -0.11633238 0.0 0.012851103000000001 -0.11821205 0.0 0.014577756 -0.12072616 0.0 0.016471695 -0.11990527 0.0 0.010056932 -0.12002417 0.0 0.010393860999999999 -0.12040041 0.0 0.011385608 -0.12108912 0.0 0.012968998999999998 -0.12217441 0.0 0.015031721000000001 -0.12375798 0.0 0.017438084 -0.12594886 0.0 0.020117213999999998 -0.12886034 0.0 0.023226617 -0.11913203 0.0 0.012432901000000001 -0.11927303 0.0 0.012923266999999999 -0.1197143 0.0 0.014364222 -0.12050881 0.0 0.016659958 -0.12173998 0.0 0.019656403 -0.12351322 0.0 0.023209296 -0.12594119 0.0 0.027348464 -0.12912919 0.0 0.032491367 -0.10719267 0.0 0.014991174 -0.1073467 0.0 0.015682474 -0.10782406 0.0 0.017710991000000002 -0.10867048 0.0 0.020939456000000002 -0.10996042 0.0 0.025172733 -0.11179 0.0 0.030299475 -0.1142584 0.0 0.036566037999999995 -0.11743969 0.0 0.044823039 -0.080663592 0.0 0.017668406 -0.080810621 0.0 0.018610698999999998 -0.08126258900000001 0.0 0.021373075 -0.082052499 0.0 0.025769105 -0.08323594200000001 0.0 0.03156833 -0.084884532 0.0 0.03874423 -0.08706417699999999 0.0 0.047885761 -0.08979824900000001 0.0 0.06044386 -0.03772556 0.0 0.020406615 -0.037835572000000005 0.0 0.021645796000000002 -0.038171008 0.0 0.025275564 -0.038748412999999995 0.0 0.031053392000000003 -0.039596416 0.0 0.038719166 -0.040749934 0.0 0.04837567 -0.042229052999999996 0.0 0.061056208 -0.043998547 0.0 0.078935675 0.020010849 0.0 0.02314434 0.019968957 0.0 0.024713131 0.019844526 0.0 0.0293043 0.019640017 0.0 0.036610831 0.019358083999999998 0.0 0.04634228 0.019005533 0.0 0.058750237999999996 0.018609941 0.0 0.07535956099999999 0.018258445 0.0 0.099116281 0.08594586 0.0 0.025802363 0.085990295 0.0 0.027711557 0.086131699 0.0 0.033293147 0.086393766 0.0 0.042166947999999996 0.086812936 0.0 0.0540011 0.087438263 0.0 0.069181703 0.08834029 0.0 0.08969944 0.089638405 0.0 0.11922854 0.14847727 0.0 0.028288405 0.14860354 0.0 0.030521832000000002 0.14899817 0.0 0.037043344 0.14970721 0.0 0.047393594000000004 0.15080252 0.0 0.061181873 0.15237583 0.0 0.078883842 0.15453279 0.0 0.10286661 0.15740146 0.0 0.13741648 0.19431667 0.0 0.030507537999999997 0.19450305 0.0 0.03302281 0.19508572 0.0 0.040358674 0.19613227 0.0 0.051976923 0.19774769 0.0 0.06741192900000001 0.20006211 0.0 0.087171338 0.20320798 0.0 0.11387717 0.20730244 0.0 0.15227115 0.21554102 0.0 0.032358727999999996 0.21576093 0.0 0.035096362 0.21644981 0.0 0.043072708 0.21769214 0.0 0.055677932 0.21961878 0.0 0.072364867 0.22238648 0.0 0.093622223 0.22614287 0.0 0.12220637 0.2309844 0.0 0.16315454 0.21386243 0.0 0.033753517999999996 0.214092 0.0 0.036648065 0.21481356 0.0 0.045074653 0.21612144 0.0 0.05836549 0.21815993 0.0 0.07589703099999999 0.2210983 0.0 0.09810840300000001 0.22508858 0.0 0.12779686 0.23020564 0.0 0.17015779 0.19771755 0.0 0.034637149 0.19794053 0.0 0.037625238 0.19864276 0.0 0.046318736 0.19992186 0.0 0.060009349000000003 0.20192423 0.0 0.07801342 0.20481887 0.0 0.10071273 0.20875221 0.0 0.1308874 0.21378426 0.0 0.17378965 0.17656416 0.0 0.034995332000000004 0.17677325 0.0 0.038019727999999996 0.17743331 0.0 0.046815194000000004 0.17863727 0.0 0.060651656 0.18052593 0.0 0.078807592 0.18325861 0.0 0.10161582 0.1869711 0.0 0.13181134 0.1917143 0.0 0.17463346 0.1564469 0.0 0.034850631 0.15664311 0.0 0.037861112999999995 0.15726142 0.0 0.046614185 0.1583868 0.0 0.060375452 0.16014758 0.0 0.078408659 0.16268913 0.0 0.10101216 0.16613546 0.0 0.13086167 0.17053375 0.0 0.17313305 0.13855718 0.0 0.034255512 0.13874508 0.0 0.037207778999999996 0.13933444 0.0 0.045791201 0.14040019 0.0 0.059282739 0.14205518 0.0 0.076951668 0.14443061 0.0 0.099073485 0.14764154 0.0 0.12825158 0.15173788 0.0 0.16955288 0.12062229 0.0 0.0332857 0.12080545 0.0 0.036139842 0.12137704 0.0 0.044438890999999994 0.12240075 0.0 0.057485145 0.1239754 0.0 0.074569441 0.12621981 0.0 0.095950671 0.12924579 0.0 0.12413996 0.13311486 0.0 0.16404858 0.099761628 0.0 0.032032389 0.099939264 0.0 0.034751747 0.10049052 0.0 0.042661514000000005 0.10146993 0.0 0.055101529 0.1029638 0.0 0.07139764 0.10508258 0.0 0.091793031 0.10794157 0.0 0.11868167 0.11162453 0.0 0.15676959 0.07504503400000001 0.0 0.030590966 0.075208656 0.0 0.033142559 0.075715497 0.0 0.04056856 0.076612681 0.0 0.052257936 0.077977702 0.0 0.06758227900000001 0.079916656 0.0 0.086768046 0.082554713 0.0 0.11206674 0.08601043400000001 0.0 0.14793094 0.048316482 0.0 0.029047025 0.048450164000000004 0.0 0.031403325 0.04886546 0.0 0.03826667 0.049604796 0.0 0.049084313 0.050740655999999995 0.0 0.06328284 0.052379395999999995 0.0 0.081071518 0.054662537000000004 0.0 0.10453916 0.057754017000000005 0.0 0.13784583 0.022951715 0.0 0.027463714 0.023039302 0.0 0.02960548 0.023315147 0.0 0.035850119 0.023819285 0.0 0.045708284 0.024622138999999998 0.0 0.05866872099999999 0.025832922999999997 0.0 0.074925974 0.027612582000000004 0.0 0.096395895 0.030177571 0.0 0.12692042 0.0017402635 0.0 0.025884833 0.0017760959 0.0 0.027802398 0.0018962671 0.0 0.033398654 0.0021393844 0.0 0.042248882 0.0025739952 0.0 0.053909235 0.0033111894 0.0 0.068567201 0.0045298012 0.0 0.087968796 0.006501469300000001 0.0 0.11562712 -0.014231212 0.0 0.024345994 -0.014237815 0.0 0.026037939 -0.014245741000000001 0.0 0.030980781000000002 -0.014218983000000001 0.0 0.038813453 -0.014093228999999999 0.0 0.04916423599999999 -0.013757825 0.0 0.06222922400000001 -0.013018553 0.0 0.079603247 -0.011547868999999999 0.0 0.10447318 -0.02533876 0.0 0.022873982999999997 -0.025367897 0.0 0.024345638 -0.025445493 0.0 0.028650482999999997 -0.025540847000000002 0.0 0.035491217 -0.025595748999999998 0.0 0.04457631 -0.025500871 0.0 0.056135088 -0.025045583 0.0 0.071642265 -0.023845988999999998 0.0 0.093969546 -0.032644589 0.0 0.021479817000000002 -0.032674301 0.0 0.022741864 -0.032756411 0.0 0.026441122999999997 -0.032866444 0.0 0.032347705 -0.032950718 0.0 0.040265907000000004 -0.032896582 0.0 0.050489593 -0.032472417 0.0 0.064411327 -0.031243859 0.0 0.084597565 -0.037191648 0.0 0.02015676 -0.037204243 0.0 0.021224452 -0.037236663999999996 0.0 0.024365718999999997 -0.037267555 0.0 0.029427607999999997 -0.037240852000000005 0.0 0.036333356000000004 -0.037029482 0.0 0.045477536 -0.036374476 0.0 0.058204572999999996 -0.034809723 0.0 0.076771542 -0.039642189 0.0 0.018883456 -0.039625518 0.0 0.019777473 -0.039569549 0.0 0.022427042999999997 -0.039447725 0.0 0.026770792999999998 -0.039187789 0.0 0.032878336 -0.038631644 0.0 0.0412772 -0.037489798 0.0 0.053278110999999996 -0.035309627999999996 0.0 0.070799023 -0.040265862 0.0 0.017636202 -0.040209871 0.0 0.018386358000000002 -0.040030047 0.0 0.02063939 -0.039679583 0.0 0.024442336000000002 -0.039048608 0.0 0.030032633 -0.037935376 0.0 0.038081236 -0.036038343 0.0 0.049846098 -0.033053812 0.0 0.066821635 -0.039078623 0.0 0.016421985 -0.038963027000000004 0.0 0.017072784 -0.03859058 0.0 0.019067386000000002 -0.037876278 0.0 0.022570068 -0.036661219 0.0 0.027984942999999998 -0.034716856000000004 0.0 0.036099561 -0.031814896 0.0 0.048050869 -0.028091737999999998 0.0 0.064742908 -0.035759684 0.0 0.015335755 -0.035541311 0.0 0.015949201 -0.034844805 0.0 0.017869435 -0.033550031 0.0 0.021366507000000003 -0.03147658 0.0 0.026975539 -0.028457666 0.0 0.035519127000000005 -0.024604231 0.0 0.047836646 -0.020624668999999998 0.0 0.064172141 -0.029370367999999997 0.0 0.014609933 -0.028999154 0.0 0.015260598 -0.027840754 0.0 0.017318752 -0.025784303999999997 0.0 0.021119704 -0.022753527000000003 0.0 0.027231792 -0.018882887 0.0 0.036329769 -0.01471912 0.0 0.048824124 -0.011334512 0.0 0.064423196 -0.018578982 0.0 0.014619175 -0.018048476 0.0 0.015381566000000001 -0.016462384 0.0 0.017767411 -0.013857341 0.0 0.022076747999999997 -0.010414666 0.0 0.028738178 -0.0065663783 0.0 0.038154434 -0.0031476812 0.0 0.050336063 -0.0013501581 0.0 0.06469199099999999 -0.0031195615999999996 0.0 0.015794471 -0.0025548816 0.0 0.016695381999999998 -0.0009308019099999999 0.0 0.019448744 0.0015336878 0.0 0.024195861000000003 0.004430476599999999 0.0 0.031128 0.0071086208 0.0 0.040353365 0.0086237621 0.0 0.05164153900000001 0.007966201800000001 0.0 0.06445118 0.015193606 0.0 0.018340116 0.015606591000000001 0.0 0.01932819 0.016744127 0.0 0.022289608 0.018263263999999998 0.0 0.027160662999999998 0.019591069 0.0 0.033894975 0.020002224 0.0 0.042412248 0.018878212 0.0 0.052549526 0.016527677 0.0 0.064331003 0.033102978 0.0 0.022053457999999998 0.033192649 0.0 0.02304858 0.033340506 0.0 0.025974255 0.033166729 0.0 0.030615517999999998 0.032260217 0.0 0.036838416 0.030589968 0.0 0.04465892900000001 0.029165236 0.0 0.054177705 0.030364389 0.0 0.065258756 0.046905077999999996 0.0 0.02645939 0.046698309 0.0 0.027413325 0.046099212 0.0 0.030192338 0.045304414 0.0 0.034572117 0.044981282000000004 0.0 0.040423416000000004 0.046228483 0.0 0.047716300999999996 0.049711164 0.0 0.056518253 0.05422899900000001 0.0 0.067052864 0.067964047 0.0 0.031015201000000003 0.067896001 0.0 0.031907588 0.067840174 0.0 0.03450394 0.068228759 0.0 0.038641866000000004 0.069660015 0.0 0.044329345 0.071786582 0.0 0.051624715 0.072327621 0.0 0.060495477 0.06818489 0.0 0.07088834 0.099461854 0.0 0.03528462 0.098786905 0.0 0.036123327999999996 0.09673205800000001 0.0 0.038626417999999996 0.09331774 0.0 0.042910758 0.088352636 0.0 0.049391229 0.080705985 0.0 0.057871241 0.06779313099999999 0.0 0.067733407 0.097044319 0.0 0.039004322 0.095176131 0.0 0.039829712 0.089458585 0.0 0.042489335 0.079773366 0.0 0.047769226 0.06638217 0.0 0.056916642999999996 -0.00012579039 0.0 3.8580019e-06 -0.00012057496000000001 0.0 3.8674593e-06 -0.00011379120000000001 0.0 3.442965e-06 -0.00010495105 0.0 2.2978311000000004e-06 -9.359386599999999e-05 0.0 2.8512828999999995e-07 -7.9566715e-05 0.0 -2.4112192e-06 -6.3385931e-05 0.0 -5.172016700000001e-06 -0.00017475278999999998 0.0 5.9847298e-06 -0.00016790863999999997 0.0 6.0272882e-06 -0.00015890921 0.0 5.414714e-06 -0.00014703727 0.0 3.7042755e-06 -0.00013159834 0.0 6.581115e-07 -0.00011232614999999999 0.0 -3.4707095e-06 -8.9904839e-05 0.0 -7.7780778e-06 -6.628695e-05 0.0 -1.0932714000000001e-05 -0.0002387464 0.0 8.8125635e-06 -0.0002299949 0.0 8.9205123e-06 -0.00021833046 0.0 8.087961799999999e-06 -0.00020270713 0.0 5.6568997e-06 -0.00018207513 0.0 1.2565606000000002e-06 -0.00015595862 0.0 -4.779284599999999e-06 -0.00012521351000000002 0.0 -1.1173816e-05 -9.255118500000001e-05 0.0 -1.6032292e-05 -0.00032548429 0.0 1.2578252e-05 -0.00031439846 0.0 1.280222e-05 -0.00029939425 0.0 1.1715074999999999e-05 -0.00027895221000000004 0.0 8.360983e-06 -0.00025149179 0.0 2.1749952000000003e-06 -0.00021619343999999997 0.0 -6.4160049000000005e-06 -0.00017412074000000002 0.0 -1.5631935e-05 -0.00012903713 0.0 -2.2769354e-05 -0.00044449755999999995 0.0 1.7663895e-05 -0.00043052851 0.0 1.8082617000000002e-05 -0.00041130488 0.0 1.6700014e-05 -0.00038463049 0.0 1.2149653000000001e-05 -0.00034816237 0.0 3.5882231e-06 -0.00030066486 0.0 -8.4534822e-06 -0.00024344455000000002 0.0 -2.1519496e-05 -0.00018151395 0.0 -3.1777367e-05 -0.00060735189 0.0 2.4639679e-05 -0.00058989011 0.0 2.5390100000000003e-05 -0.00056542287 0.0 2.3691831e-05 -0.00053090416 0.0 1.7619728e-05 -0.00048331567000000004 0.0 5.9149897e-06 -0.00042091030999999993 0.0 -1.0826307999999999e-05 -0.0003448551 0.0 -2.9259332e-05 -0.00026110455000000004 0.0 -4.3945558e-05 -0.0008282332000000001 0.0 3.4341185e-05 -0.0008067008500000001 0.0 3.5716203000000004e-05 -0.00077605166 0.0 3.3839508e-05 -0.00073275669 0.0 2.6009115000000002e-05 -0.00067338068 0.0 1.0235515e-05 -0.00059532415 0.0 -1.2995271e-05 -0.00049863406 0.0 -3.9161125e-05 -0.00038824836 0.0 -6.0457623000000005e-05 -0.0011249187 0.0 4.8020363e-05 -0.0010989462 0.0 5.0706410999999996e-05 -0.0010619296 0.0 4.9280683e-05 -0.0010105618 0.0 3.9830742e-05 -0.00094145339 0.0 1.8976274000000002e-05 -0.00085097726 0.0 -1.3345882999999999e-05 -0.0007362382 0.0 -5.1085523999999996e-05 -0.00059688016 0.0 -8.2740233e-05 -0.0015201157999999999 0.0 6.7578185e-05 -0.0014899267000000002 0.0 7.3067335e-05 -0.0014474645 0.0 7.3721851e-05 -0.0013904929999999998 0.0 6.365873599999999e-05 -0.0013165984 0.0 3.6912272e-05 -0.0012218015 0.0 -8.1522157e-06 -0.0010986165 0.0 -6.3698011e-05 -0.00093480368 0.0 -0.00011238235 -0.0020429788000000003 0.0 9.5782634e-05 -0.0020095992 0.0 0.00010687928 -0.0019633975 0.0 0.00011288143 -0.0019038463 0.0 0.00010489161 -0.0018307044 0.0 7.2449606e-05 -0.0017413851 0.0 1.0150811999999999e-05 -0.00162427 0.0 -7.310237600000001e-05 -0.0014475420999999998 0.0 -0.00014988465 -0.0027303046 0.0 0.00013632828 -0.0026955514 0.0 0.00015761582 -0.0026474108 0.0 0.00017454936000000002 -0.0025868039000000002 0.0 0.00017410573 -0.0025158818 0.0 0.00013860659 -0.0024345962 0.0 5.4785531000000004e-05 -0.0023287132 0.0 -7.0076589e-05 -0.0021425374 0.0 -0.00019231817999999998 -0.0036277093 0.0 0.00019363743000000002 -0.0035943342 0.0 0.00023175175999999998 -0.0035460037 0.0 0.00026797617000000004 -0.0034835396999999997 0.0 0.00028438497 -0.0034093460999999998 0.0 0.00025357067000000003 -0.0033236225 0.0 0.00015028159 -0.0032074789 0.0 -2.1025218e-05 -0.0029769293 0.0 -0.00018053118 -0.0047910963 0.0 0.0002724739 -0.004763321 0.0 0.0003360993 -0.0047176718 0.0 0.00040267681000000005 -0.004652679 0.0 0.00044929239 -0.0045674117 0.0 0.00043815370999999997 -0.0044579562 0.0 0.00033297224 -0.0042999582000000005 0.0 0.00014890921 -0.0040015788 0.0 1.4199992e-05 -0.0062883081999999995 0.0 0.00037756714 -0.0062726713 0.0 0.00047725450999999995 -0.0062356181000000005 0.0 0.00058736349 -0.006172058199999999 0.0 0.00068043132 -0.0060755233 0.0 0.00070977077 -0.0059354203 0.0 0.00063263834 -0.0057245879000000005 0.0 0.0004880561 -0.0053613698 0.0 0.00042267924000000004 -0.0082011325 0.0 0.00051343709 -0.0082073119 0.0 0.00066156086 -0.008189017 0.0 0.00082996732 -0.0081379628 0.0 0.00098660693 -0.0080431588 0.0 0.0010767898 -0.0078884056 0.0 0.0010558974 -0.007646450799999999 0.0 0.00098057406 -0.0072518368000000005 0.0 0.0010002257 -0.010627623000000001 0.0 0.0006844722099999999 -0.010669574 0.0 0.00089555775 -0.010684763 0.0 0.0011391204 -0.010662897 0.0 0.0013763787 -0.010591655 0.0 0.0015436201000000001 -0.010454368 0.0 0.0015920632 -0.010227645 0.0 0.0016031894 -0.0098656584 0.0 0.0016809645999999998 -0.013684503999999998 0.0 0.0008953440699999999 -0.013782518 0.0 0.0011864055 -0.013852036000000002 0.0 0.0015255304000000001 -0.013880056000000002 0.0 0.0018633165 -0.01385487 0.0 0.0021224164 -0.013764231000000002 0.0 0.0022443016 -0.013595828 0.0 0.0023373212 -0.013328056000000001 0.0 0.0025021995000000003 -0.017509073 0.0 0.0011517851 -0.017691914 0.0 0.0015418675 -0.017847383 0.0 0.0020015433 -0.017954692 0.0 0.0024657554 -0.017999597 0.0 0.0028363591999999997 -0.01797347 0.0 0.0030462346000000003 -0.017876681000000002 0.0 0.0032312439000000003 -0.017715413 0.0 0.0035099187 -0.022260522 0.0 0.0014621221 -0.022567026 0.0 0.001971026 -0.022854235 0.0 0.0025793179 -0.023089327000000003 0.0 0.0032025038 -0.023246052000000003 0.0 0.0037138481 -0.02331046 0.0 0.0040333476 -0.023287421000000003 0.0 0.0043496727 -0.023199134 0.0 0.0047944356 -0.028120525 0.0 0.0018403805 -0.028600313 0.0 0.002486089 -0.029080985 0.0 0.0032710491 -0.02951481 0.0 0.0040874658000000005 -0.02985731 0.0 0.0047739511 -0.030078162999999998 0.0 0.0052392804 -0.030173712999999998 0.0 0.0057646893000000005 -0.030168151 0.0 0.0065046684 -0.035292394 0.0 0.0023122225 -0.036005065 0.0 0.0031071871 -0.036757592 0.0 0.0040920773 -0.037485674 0.0 0.0051319035999999995 -0.038120344 0.0 0.0060236403 -0.038605783 0.0 0.0066702543 -0.038920693 0.0 0.0075080437 -0.039084073 0.0 0.0087177465 -0.043992955 0.0 0.0029248884 -0.045005570999999994 0.0 0.0038724921000000004 -0.046123434000000005 0.0 0.0050701145 -0.047266703 0.0 0.0063516208999999995 -0.048336066 0.0 0.007461444499999999 -0.049239069 0.0 0.008296172099999999 -0.049924284000000006 0.0 0.0095502082 -0.050395582 0.0 0.011520559 -0.05442239 0.0 0.0037609218 -0.05580575 0.0 0.0048552323 -0.057393555 0.0 0.0062652794 -0.059095159 0.0 0.0077863587 -0.06077677 0.0 0.0090956325 -0.062297799 0.0 0.01006048 -0.06356123799999999 0.0 0.011782207 -0.064541072 0.0 0.014868965 -0.066687144 0.0 0.0049540433000000005 -0.068512686 0.0 0.006188211999999999 -0.070680834 0.0 0.0078045125 -0.073098309 0.0 0.0095501151 -0.075595558 0.0 0.010997456000000001 -0.077974163 0.0 0.011933533 -0.080075063 0.0 0.014030533000000001 -0.081822954 0.0 0.018661373999999998 -0.080655642 0.0 0.0067052604 -0.082995951 0.0 0.0080967499 -0.08585620699999999 0.0 0.0099366521 -0.08914817900000001 0.0 0.011906373999999999 -0.09266792199999999 0.0 0.013400516999999999 -0.09615557599999999 0.0 0.013970841999999999 -0.099376887 0.0 0.016052093 -0.10218345 0.0 0.022572959 -0.095765479 0.0 0.0093011521 -0.098696366 0.0 0.010947901000000001 -0.10235122 0.0 0.013124479 -0.1066476 0.0 0.01540602 -0.11135158 0.0 0.016861243 -0.11615116 0.0 0.016525233 -0.12073669 0.0 0.017646121 -0.12486278 0.0 0.026167149 -0.11084604 0.0 0.013152513999999999 -0.11443398 0.0 0.015337718 -0.11894423 0.0 0.018185753 -0.124289 0.0 0.021083413 -0.13021319 0.0 0.022520419 -0.13637903 0.0 0.020541513 -0.14242259 0.0 0.019111022 -0.14798859 0.0 0.029040826000000002 -0.12401619 0.0 0.018866628 -0.12827599 0.0 0.022205757000000003 -0.13360047 0.0 0.026430657000000003 -0.13987416 0.0 0.030611037999999997 -0.1468273 0.0 0.032301024 -0.15413667 0.0 0.027799815 -0.16143207 0.0 0.021417184 -0.16826487 0.0 0.031100817000000003 -0.13263461 0.0 0.02730057 -0.13745245 0.0 0.032877073 -0.14336114 0.0 0.03965221 -0.15018889 0.0 0.04604743 -0.1576557 0.0 0.048577551 -0.16549389 0.0 0.041227322000000004 -0.1733986 0.0 0.027071067999999997 -0.18088944 0.0 0.033503827 -0.13318819 0.0 0.039486363999999996 -0.13823667 0.0 0.048893537 -0.14422487 0.0 0.059846882000000004 -0.15090311 0.0 0.069764219 -0.15800115 0.0 0.073405661 -0.16535291 0.0 0.063608564 -0.17277789 0.0 0.0414428 -0.17985971 0.0 0.040245205 -0.1213803 0.0 0.056340039 -0.12608507 0.0 0.071555115 -0.13136412 0.0 0.088672824 -0.13689984 0.0 0.1035672 -0.14247216 0.0 0.10930558 -0.14805733 0.0 0.096594125 -0.15365405 0.0 0.07146015 -0.1589919 0.0 0.059839368 -0.09304401300000001 0.0 0.078192495 -0.096653201 0.0 0.10127134 -0.10029554 0.0 0.12660912 -0.10362308 0.0 0.14829911 -0.10650439 0.0 0.15788874 -0.10908508 0.0 0.1504095 -0.11158001 0.0 0.13169117 -0.11393338 0.0 0.11184508 -0.045919697999999995 0.0 0.10434086 -0.047696587 0.0 0.13696249 -0.048915964000000006 0.0 0.17223231 -0.049264080999999994 0.0 0.20291393 -0.048713915 0.0 0.22328991 -0.04754542900000001 0.0 0.23828633 -0.04615309099999999 0.0 0.24565558 -0.044742807999999995 0.0 0.21508273 0.018162441 0.0 0.132901 0.018700693 0.0 0.17588125 0.020267412 0.0 0.22207603 0.023065327000000004 0.0 0.26394919 0.027023578 0.0 0.30130419 0.031833645 0.0 0.3548331 0.037045915 0.0 0.40190262 0.042191342 0.0 0.35637653 0.09156612300000001 0.0 0.16115639 0.094484039 0.0 0.21413217 0.098654859 0.0 0.27079257 0.10410873 0.0 0.32327211 0.11069383 0.0 0.376627 0.11816525 0.0 0.46415374 0.12615055 0.0 0.54241973 0.1339609 0.0 0.47296157 0.16117711 0.0 0.18634845 0.16610539 0.0 0.2478673 0.17224298 0.0 0.31335878 0.17942001 0.0 0.37416959 0.1874087 0.0 0.43733448 0.19604094 0.0 0.54099351 0.20504625 0.0 0.62613851 0.21366499 0.0 0.53015667 0.21245828 0.0 0.20650674 0.2187549 0.0 0.27447224 0.22603449 0.0 0.34645596 0.23394547 0.0 0.4124245 0.24217428 0.0 0.47846231 0.25056449 0.0 0.58250833 0.25891721 0.0 0.65790558 0.26667225 0.0 0.54579329 0.23693259 0.0 0.2208752 0.24390444 0.0 0.29309514 0.25157547 0.0 0.36931223 0.25945655 0.0 0.4381659 0.26714221 0.0 0.50385243 0.27444038 0.0 0.60220534 0.28123671 0.0 0.66631734 0.28733191 0.0 0.5441907 0.23640046 0.0 0.22978023 0.24346831 0.0 0.30436653 0.25098073 0.0 0.38297755 0.25836629 0.0 0.45333335 0.26514804 0.0 0.51805061 0.27109838 0.0 0.61103302 0.27619451 0.0 0.66654307 0.28054097 0.0 0.53893727 0.21982734 0.0 0.23411994 0.22660992 0.0 0.30963954 0.23365512 0.0 0.38926071 0.24036193 0.0 0.46022323 0.24622135 0.0 0.52418852 0.25098544 0.0 0.61392266 0.25468513 0.0 0.6649968 0.25757965 0.0 0.53574073 0.19738989 0.0 0.23482981 0.20370883 0.0 0.31025693 0.2101851 0.0 0.3898786 0.21622638 0.0 0.46083349 0.22133106 0.0 0.52445877 0.22525033 0.0 0.61323786 0.22802645 0.0 0.66391736 0.22994339 0.0 0.53595597 0.17579331 0.0 0.23256464 0.18163633 0.0 0.30711707 0.18759094 0.0 0.3859446 0.19309215 0.0 0.45639092 0.19767083 0.0 0.5200538 0.20109518 0.0 0.60994565 0.20340052 0.0 0.66355044 0.20482549 0.0 0.53869736 0.15664643 0.0 0.22765467 0.16211422 0.0 0.30062869 0.16769236 0.0 0.37791604 0.17284526 0.0 0.44717816 0.17713886 0.0 0.51014149 0.18036307 0.0 0.59966058 0.18254301 0.0 0.65467209 0.18385908 0.0 0.53378361 0.13778074 0.0 0.22024611 0.14302634 0.0 0.29092985 0.14843036 0.0 0.36592042 0.15347703 0.0 0.43327177 0.15774529 0.0 0.49462149 0.16102917 0.0 0.58185244 0.16333687 0.0 0.63625544 0.16480292 0.0 0.52008808 0.11612816 0.0 0.21047516 0.12129095 0.0 0.27814862 0.12673484 0.0 0.35008729 0.13195209 0.0 0.41480452 0.13649653 0.0 0.47364408 0.14012089 0.0 0.55680364 0.14279413 0.0 0.60888135 0.14461881 0.0 0.49841991 0.09034513699999999 0.0 0.19859073 0.09548730400000001 0.0 0.2625778 0.10113637 0.0 0.33076096 0.10679592 0.0 0.39218286 0.11195272 0.0 0.44772804 0.11625601 0.0 0.52537423 0.11959256 0.0 0.57390606 0.12203228 0.0 0.47022933 0.06180324400000001 0.0 0.18499994 0.066870652 0.0 0.2447363 0.072787561 0.0 0.30857462 0.07909961 0.0 0.36614898 0.08520519 0.0 0.4177902 0.09058743 0.0 0.48888364 0.094986625 0.0 0.53253084 0.098398946 0.0 0.437316 0.033783442999999996 0.0 0.1702576 0.038660098 0.0 0.22535126 0.044823233 0.0 0.2844252 0.051909287 0.0 0.33773488 0.059247095 0.0 0.38500163 0.066124298 0.0 0.44888803 0.07206156799999999 0.0 0.48741445 0.076895587 0.0 0.40155724 0.0096016796 0.0 0.15502425 0.01425578 0.0 0.205293 0.020689854 0.0 0.25937077 0.028652361 0.0 0.30814824 0.037412871 0.0 0.35074702 0.046085905 0.0 0.40716985 0.053953428 0.0 0.44144157 0.060635213 0.0 0.36489353 -0.0088428818 0.0 0.14001624 -0.0042778226 0.0 0.18550238 0.0025488804 0.0 0.23455383 0.011423528999999998 0.0 0.2787475 0.021607418 0.0 0.31668258 0.032123357000000005 0.0 0.36575636 0.042056675999999994 0.0 0.39584824 0.050796095 0.0 0.32839465 -0.021280399 0.0 0.1259515 -0.016579567 0.0 0.16691466 -0.009337578000000001 0.0 0.21112867 0.0002357929 0.0 0.25087386 0.011524303 0.0 0.28444773 0.023598379 0.0 0.32655716 0.035463758 0.0 0.35128272 0.04630103 0.0 0.29188776 -0.02851215 0.0 0.11348749 -0.023559997000000003 0.0 0.15035371 -0.016170928 0.0 0.19006613 -0.0065136952 0.0 0.22565138 0.0051429118 0.0 0.25540593 0.018161507 0.0 0.29119071 0.031793442000000005 0.0 0.30942634 0.044986621 0.0 0.25601971 -0.03168099 0.0 0.10313552 -0.026606664 0.0 0.13638929 -0.019663341 0.0 0.17192625 -0.010929109 0.0 0.20374732 -3.1965392e-05 0.0 0.23039864 0.013237526999999999 0.0 0.26072651 0.028982842 0.0 0.27117881 0.046362165 0.0 0.22273259 -0.031719163 0.0 0.095169738 -0.026913207 0.0 0.12521803 -0.021265443 0.0 0.15682563 -0.014643214 0.0 0.18521824 -0.0057183001 0.0 0.20982596 0.007570685400000001 0.0 0.2357091 0.027009876000000002 0.0 0.23692559 0.052723683 0.0 0.19073476 -0.02919179 0.0 0.08956622300000001 -0.025227085 0.0 0.11663646 -0.021722334 0.0 0.14447837 -0.018135048 0.0 0.1698819 -0.011949461000000001 0.0 0.19365636 0.0017247997 0.0 0.21578261 0.026360678999999998 0.0 0.20776105 0.064191855 0.0 0.16155858 -0.024394944 0.0 0.085972354 -0.021899186 0.0 0.11010877 -0.021129807 0.0 0.13437185 -0.020809047 0.0 0.15741102 -0.016905781 0.0 0.18122126 -0.0023062371 0.0 0.19823872 0.026003182000000003 0.0 0.18174246 -0.017767282 0.0 0.08373955599999999 -0.01730066 0.0 0.10489817 -0.019346416 0.0 0.12597796 -0.021424672999999998 0.0 0.14769568 -0.017727634 0.0 0.17083722 -0.0017724430999999999 0.0 0.1793482 0.027921412000000003 0.0 0.1549705 -0.01008417 0.0 0.082052402 -0.011931566000000001 0.0 0.10037117 -0.016013533 0.0 0.11923769 -0.018089652 0.0 0.14072192 -0.011817875 0.0 0.15992108 0.0056588356 0.0 0.15741117 -0.0023444495 0.0 0.080231078 -0.0060585225 0.0 0.096427441 -0.0098348269 0.0 0.11488573 -0.0084471498 0.0 0.13545537 0.001933465 0.0 0.14653553 0.019079803 0.0 0.1352817 0.0050139297 0.0 0.07842806 0.0019488275 0.0 0.094136514 0.0020853234 0.0 0.11263742 0.008446856400000001 0.0 0.12968352 0.020238588999999998 0.0 0.13233161 0.014976556 0.0 0.07784187 0.016963784 0.0 0.093331002 0.022048187 0.0 0.11028309 0.029040601 0.0 0.12239347 0.034738977000000004 0.0 0.078147493 0.040141504 0.0 0.092764229 0.043683723 0.0 0.10661364 0.045485854000000006 0.0 0.11425313 0.056354247 0.0 0.079599999 0.05382267 0.0 0.093115561 0.057660750999999996 0.0 0.083065473 
Force 3 2975 float
0.0 0.0 0.0 0.0 0.0 0.0 0.0 0.0 0.0 0.0 0.0 0.0 0.0 0.0 0.0 0.0 0.0 0.0 0.0 0.0 0.0 0.0 0.0 0.0 0.0 0.0 0.0 0.0 0.0 0.0 0.0 0.0 0.0 0.0 0.0 0.0 0.0 0.0 0.0 0.0 0.0 0.0 0.0 0.0 0.0 0.0 0.0 0.0 0.0 0.0 0.0 0.0 0.0 0.0 0.0 0.0 0.0 0.0 0.0 0.0 0.0 0.0 0.0 0.0 0.0 0.0 0.0 0.0 0.0 0.0 0.0 0.0 0.0 0.0 0.0 0.0 0.0 0.0 0.0 0.0 0.0 0.0 0.0 0.0 0.0 0.0 0.0 0.0 0.0 0.0 0.0 0.0 0.0 0.0 0.0 0.0 0.0 0.0 0.0 0.0 0.0 0.0 0.0 0.0 0.0 0.0 0.0 0.0 0.0 0.0 0.0 0.0 0.0 0.0 0.0 0.0 0.0 0.0 0.0 0.0 0.0 0.0 0.0 0.0 0.0 0.0 0.0 0.0 0.0 0.0 0.0 0.0 0.0 0.0 0.0 0.0 0.0 0.0 0.0 0.0 0.0 0.0 0.0 0.0 0.0 0.0 0.0 0.0 0.0 0.0 0.0 0.0 0.0 0.0 0.0 0.0 0.0 0.0 0.0 0.0 0.0 0.0 0.0 0.0 0.0 0.0 0.0 0.0 0.0 0.0 0.0 0.0 0.0 0.0 0.0 0.0 0.0 0.0 0.0 0.0 0.0 0.0 0.0 0.0 0.0 0.0 0.0 0.0 0.0 0.0 0.0 0.0 0.0 0.0 0.0 0.0 0.0 0.0 0.0 0.0 0.0 0.0 0.0 0.0 0.0 0.0 0.0 0.0 0.0 0.0 0.0 0.0 0.0 0.0 0.0 0.0 0.0 0.0 0.0 0.0 0.0 0.0 0.0 0.0 0.0 0.0 0.0 0.0 0.0 0.0 0.0 0.0 0.0 0.0 0.0 0.0 0.0 0.0 0.0 0.0 0.0 0.0 0.0 0.0 0.0 0.0 0.0 0.0 0.0 0.0 0.0 0.0 0.0 0.0 0.0 0.0 0.0 0.0 0.0 0.0 0.0 0.0 0.0 0.0 0.0 0.0 0.0 0.0 0.0 0.0 0.0 0.0 0.0 0.0 0.0 0.0 0.0 0.0 0.0 0.0 0.0 0.0 0.0 0.0 0.0 0.0 0.0 0.0 0.0 0.0 0.0 0.0 0.0 0.0 0.0 0.0 0.0 0.0 0.0 0.0 0.0 0.0 0.0 0.0 0.0 0.0 0.0 0.0 0.0 0.0 0.0 0.0 0.0 0.0 0.0 0.0 0.0 0.0 0.0 0.0 0.0 0.0 0.0 0.0 0.0 0.0 0.0 0.0 0.0 0.0 0.0 0.0 0.0 0.0 0.0 0.0 0.0 0.0 0.0 0.0 0.0 0.0 0.0 0.0 0.0 0.0 0.0 0.0 0.0 0.0 0.0 0.0 0.0 0.0 0.0 0.0 0.0 0.0 0.0 0.0 0.0 0.0 0.0 0.0 0.0 0.0 0.0 0.0 0.0 0.0 0.0 0.0 0.0 0.0 0.0 0.0 0.0 0.0 0.0 0.0 0.0 0.0 0.0 0.0 0.0 0.0 0.0 0.0 0.0 0.0 0.0 0.0 0.0 0.0 0.0 0.0 0.0 0.0 0.0 0.0 0.0 0.0 0.0 0.0 0.0 0.0 0.0 0.0 0.0 0.0 0.0 0.0 0.0 0.0 0.0 0.0 0.0 0.0 0.0 0.0 0.0 0.0 0.0 0.0 0.0 0.0 0.0 0.0 0.0 0.0 0.0 0.0 0.0 0.0 0.0 0.0 0.0 0.0 0.0 0.0 0.0 0.0 0.0 0.0 0.0 0.0 0.0 0.0 0.0 0.0 0.0 0.0 0.0 0.0 0.0 0.0 0.0 0.0 0.0 0.0 0.0 0.0 0.0 0.0 0.0 0.0 0.0 0.0 0.0 0.0 0.0 0.0 0.0 0.0 0.0 0.0 0.0 0.0 0.0 0.0 0.0 0.0 0.0 0.0 0.0 0.0 0.0 0.0 0.0 0.0 0.0 0.0 0.0 0.0 0.0 0.0 0.0 0.0 0.0 0.0 0.0 0.0 0.0 0.0 0.0 0.0 0.0 0.0 0.0 0.0 0.0 0.0 0.0 0.0 0.0 0.0 0.0 0.0 0.0 0.0 0.0 0.0 0.0 0.0 0.0 0.0 0.0 0.0 0.0 0.0 0.0 0.0 0.0 0.0 0.0 0.0 0.0 0.0 0.0 0.0 0.0 0.0 0.0 0.0 0.0 0.0 0.0 0.0 0.0 0.0 0.0 0.0 0.0 0.0 0.0 0.0 0.0 0.0 0.0 0.0 0.0 0.0 0.0 0.0 0.0 0.0 0.0 0.0 0.0 0.0 0.0 0.0 0.0 0.0 0.0 0.0 0.0 0.0 0.0 0.0 0.0 0.0 0.0 0.0 0.0 0.0 0.0 0.0 0.0 0.0 0.0 0.0 0.0 0.0 0.0 0.0 0.0 0.0 0.0 0.0 0.0 0.0 0.0 0.0 0.0 0.0 0.0 0.0 0.0 0.0 0.0 0.0 0.0 0.0 0.0 0.0 0.0 0.0 0.0 0.0 0.0 0.0 0.0 0.0 0.0 0.0 0.0 0.0 0.0 0.0 0.0 0.0 0.0 0.0 0.0 0.0 0.0 0.0 0.0 0.0 0.0 0.0 0.0 0.0 0.0 0.0 0.0 0.0 0.0 0.0 0.0 0.0 0.0 0.0 0.0 0.0 0.0 0.0 0.0 0.0 0.0 0.0 0.0 0.0 0.0 0.0 0.0 0.0 0.0 0.0 0.0 0.0 0.0 0.0 0.0 0.0 0.0 0.0 0.0 0.0 0.0 0.0 0.0 0.0 0.0 0.0 0.0 0.0 0.0 0.0 0.0 0.0 0.0 0.0 0.0 0.0 0.0 0.0 0.0 0.0 0.0 0.0 0.0 0.0 0.0 0.0 0.0 0.0 0.0 0.0 0.0 0.0 0.0 0.0 0.0 0.0 0.0 0.0 0.0 0.0 0.0 0.0 0.0 0.0 0.0 0.0 0.0 0.0 0.0 0.0 0.0 0.0 0.0 0.0 0.0 0.0 0.0 0.0 0.0 0.0 0.0 0.0 0.0 0.0 0.0 0.0 0.0 0.0 0.0 0.0 0.0 0.0 0.0 0.0 0.0 0.0 0.0 0.0 0.0 0.0 0.0 0.0 0.0 0.0 0.0 0.0 0.0 0.0 0.0 0.0 0.0 0.0 0.0 0.0 0.0 0.0 0.0 0.0 0.0 0.0 0.0 0.0 0.0 0.0 0.0 0.0 0.0 0.0 0.0 0.0 0.0 0.0 0.0 0.0 0.0 0.0 0.0 0.0 0.0 0.0 0.0 0.0 0.0 0.0 0.0 0.0 0.0 0.0 0.0 0.0 0.0 0.0 0.0 0.0 0.0 0.0 0.0 0.0 0.0 0.0 0.0 0.0 0.0 0.0 0.0 0.0 0.0 0.0 0.0 0.0 0.0 0.0 0.0 0.0 0.0 0.0 0.0 0.0 0.0 0.0 0.0 0.0 0.0 0.0 0.0 0.0 0.0 0.0 0.0 0.0 0.0 0.0 0.0 0.0 0.0 0.0 0.0 0.0 0.0 0.0 0.0 0.0 0.0 0.0 0.0 0.0 0.0 0.0 0.0 0.0 0.0 0.0 0.0 0.0 0.0 0.0 0.0 0.0 0.0 0.0 0.0 0.0 0.0 0.0 0.0 0.0 0.0 0.0 0.0 0.0 0.0 0.0 0.0 0.0 0.0 0.0 0.0 0.0 0.0 0.0 0.0 0.0 0.0 0.0 0.0 0.0 0.0 0.0 0.0 0.0 0.0 0.0 0.0 0.0 0.0 0.0 0.0 0.0 0.0 0.0 0.0 0.0 0.0 0.0 0.0 0.0 0.0 0.0 0.0 0.0 0.0 0.0 0.0 0.0 0.0 0.0 0.0 0.0 0.0 0.0 0.0 0.0 0.0 0.0 0.0 0.0 0.0 0.0 0.0 0.0 0.0 0.0 0.0 0.0 0.0 0.0 0.0 0.0 0.0 0.0 0.0 0.0 0.0 0.0 0.0 0.0 0.0 0.0 0.0 0.0 0.0 0.0 0.0 0.0 0.0 0.0 0.0 0.0 0.0 0.0 0.0 0.0 0.0 0.0 0.0 0.0 0.0 0.0 0.0 0.0 0.0 0.0 0.0 0.0 0.0 0.0 0.0 0.0 0.0 0.0 0.0 0.0 0.0 0.0 0.0 0.0 0.0 0.0 0.0 0.0 0.0 0.0 0.0 0.0 0.0 0.0 0.0 0.0 0.0 0.0 0.0 0.0 0.0 0.0 0.0 0.0 0.0 0.0 0.0 0.0 0.0 0.0 0.0 0.0 0.0 0.0 0.0 0.0 0.0 0.0 0.0 0.0 0.0 0.0 0.0 0.0 0.0 0.0 0.0 0.0 0.0 0.0 0.0 0.0 0.0 0.0 0.0 0.0 0.0 0.0 0.0 0.0 0.0 0.0 0.0 0.0 0.0 0.0 0.0 0.0 0.0 0.0 0.0 0.0 0.0 0.0 0.0 0.0 0.0 0.0 0.0 0.0 0.0 0.0 0.0 0.0 0.0 0.0 0.0 0.0 0.0 0.0 0.0 0.0 0.0 0.0 0.0 0.0 0.0 0.0 0.0 0.0 0.0 0.0 0.0 0.0 0.0 0.0 0.0 0.0 0.0 0.0 0.0 0.0 0.0 0.0 0.0 0.0 0.0 0.0 0.0 0.0 0.0 0.0 0.0 0.0 0.0 0.0 0.0 0.0 0.0 0.0 0.0 0.0 0.0 0.0 0.0 0.0 0.0 0.0 0.0 0.0 0.0 0.0 0.0 0.0 0.0 0.0 0.0 0.0 0.0 0.0 0.0 0.0 0.0 0.0 0.0 0.0 0.0 0.0 0.0 0.0 0.0 0.0 0.0 0.0 0.0 0.0 0.0 0.0 0.0 0.0 0.0 0.0 0.0 0.0 0.0 0.0 0.0 0.0 0.0 0.0 0.0 0.0 0.0 0.0 0.0 0.0 0.0 0.0 0.0 0.0 0.0 0.0 0.0 0.0 0.0 0.0 0.0 0.0 0.0 0.0 0.0 0.0 0.0 0.0 0.0 0.0 0.0 0.0 0.0 0.0 0.0 0.0 0.0 0.0 0.0 0.0 0.0 0.0 0.0 0.0 0.0 0.0 0.0 0.0 0.0 0.0 0.0 0.0 0.0 0.0 0.0 0.0 0.0 0.0 0.0 0.0 0.0 0.0 0.0 0.0 0.0 0.0 0.0 0.0 0.0 0.0 0.0 0.0 0.0 0.0 0.0 0.0 0.0 0.0 0.0 0.0 0.0 0.0 0.0 0.0 0.0 0.0 0.0 0.0 0.0 0.0 0.0 0.0 0.0 0.0 0.0 0.0 0.0 0.0 0.0 0.0 0.0 0.0 0.0 0.0 0.0 0.0 0.0 0.0 0.0 0.0 0.0 0.0 0.0 0.0 0.0 0.0 0.0 0.0 0.0 0.0 0.0 0.0 0.0 0.0 0.0 0.0 0.0 0.0 0.0 0.0 0.0 0.0 0.0 0.0 0.0 0.0 0.0 0.0 0.0 0.0 0.0 0.0 0.0 0.0 0.0 0.0 0.0 0.0 0.0 0.0 0.0 0.0 0.0 0.0 0.0 0.0 0.0 0.0 0.0 0.0 0.0 0.0 0.0 0.0 0.0 0.0 0.0 0.0 0.0 0.0 0.0 0.0 0.0 0.0 0.0 0.0 0.0 0.0 0.0 0.0 0.0 0.0 0.0 0.0 0.0 0.0 0.0 0.0 0.0 0.0 0.0 0.0 0.0 0.0 0.0 0.0 0.0 0.0 0.0 0.0 0.0 0.0 0.0 0.0 0.0 0.0 0.0 0.0 0.0 0.0 0.0 0.0 0.0 0.0 0.0 0.0 0.0 0.0 0.0 0.0 0.0 0.0 0.0 0.0 0.0 0.0 0.0 0.0 0.0 0.0 0.0 0.0 0.0 0.0 0.0 0.0 0.0 0.0 0.0 0.0 0.0 0.0 0.0 0.0 0.0 0.0 0.0 0.0 0.0 0.0 0.0 0.0 0.0 0.0 0.0 0.0 0.0 0.0 0.0 0.0 0.0 0.0 0.0 0.0 0.0 0.0 0.0 0.0 0.0 0.0 0.0 0.0 0.0 0.0 0.0 0.0 0.0 0.0 0.0 0.0 0.0 0.0 0.0 0.0 0.0 0.0 0.0 0.0 0.0 0.0 0.0 0.0 0.0 0.0 0.0 0.0 0.0 0.0 0.0 0.0 0.0 0.0 0.0 0.0 0.0 0.0 0.0 0.0 0.0 0.0 0.0 0.0 0.0 0.0 0.0 0.0 0.0 0.0 0.0 0.0 0.0 0.0 0.0 0.0 0.0 0.0 0.0 0.0 0.0 0.0 0.0 0.0 0.0 0.0 0.0 0.0 0.0 0.0 0.0 0.0 0.0 0.0 0.0 0.0 0.0 0.0 0.0 0.0 0.0 0.0 0.0 0.0 0.0 0.0 0.0 0.0 0.0 0.0 0.0 0.0 0.0 0.0 0.0 0.0 0.0 0.0 0.0 0.0 0.0 0.0 0.0 0.0 0.0 0.0 0.0 0.0 0.0 0.0 0.0 0.0 0.0 0.0 0.0 0.0 0.0 0.0 0.0 0.0 0.0 0.0 0.0 0.0 0.0 0.0 0.0 0.0 0.0 0.0 0.0 0.0 0.0 0.0 0.0 0.0 0.0 0.0 0.0 0.0 0.0 0.0 0.0 0.0 0.0 0.0 0.0 0.0 0.0 0.0 0.0 0.0 0.0 0.0 0.0 0.0 0.0 0.0 0.0 0.0 0.0 0.0 0.0 0.0 0.0 0.0 0.0 0.0 0.0 0.0 0.0 0.0 0.0 0.0 0.0 0.0 0.0 0.0 0.0 0.0 0.0 0.0 0.0 0.0 0.0 0.0 0.0 0.0 0.0 0.0 0.0 0.0 0.0 0.0 0.0 0.0 0.0 0.0 0.0 0.0 0.0 0.0 0.0 0.0 0.0 0.0 0.0 0.0 0.0 0.0 0.0 0.0 0.0 0.0 0.0 0.0 0.0 0.0 0.0 0.0 0.0 0.0 0.0 0.0 0.0 0.0 0.0 0.0 0.0 0.0 0.0 0.0 0.0 0.0 0.0 0.0 0.0 0.0 0.0 0.0 0.0 0.0 0.0 0.0 0.0 0.0 0.0 0.0 0.0 0.0 0.0 0.0 0.0 0.0 0.0 0.0 0.0 0.0 0.0 0.0 0.0 0.0 0.0 0.0 0.0 0.0 0.0 0.0 0.0 0.0 0.0 0.0 0.0 0.0 0.0 0.0 0.0 0.0 0.0 0.0 0.0 0.0 0.0 0.0 0.0 0.0 0.0 0.0 0.0 0.0 0.0 0.0 0.0 0.0 0.0 0.0 0.0 0.0 0.0 0.0 0.0 0.0 0.0 0.0 0.0 0.0 0.0 0.0 0.0 0.0 0.0 0.0 0.0 0.0 0.0 0.0 0.0 0.0 0.0 0.0 0.0 0.0 0.0 0.0 0.0 0.0 0.0 0.0 0.0 0.0 0.0 0.0 0.0 0.0 0.0 0.0 0.0 0.0 0.0 0.0 0.0 0.0 0.0 0.0 0.0 0.0 0.0 0.0 0.0 0.0 0.0 0.0 0.0 0.0 0.0 0.0 0.0 0.0 0.0 0.0 0.0 0.0 0.0 0.0 0.0 0.0 0.0 0.0 0.0 0.0 0.0 0.0 0.0 0.0 0.0 0.0 0.0 0.0 0.0 0.0 0.0 0.0 0.0 0.0 0.0 0.0 0.0 0.0 0.0 0.0 0.0 0.0 0.0 0.0 0.0 0.0 0.0 0.0 0.0 0.0 0.0 0.0 0.0 0.0 0.0 0.0 0.0 0.0 0.0 0.0 0.0 0.0 0.0 0.0 0.0 0.0 0.0 0.0 0.0 0.0 0.0 0.0 0.0 0.0 0.0 0.0 0.0 0.0 0.0 0.0 0.0 0.0 0.0 0.0 0.0 0.0 0.0 0.0 0.0 0.0 0.0 0.0 0.0 0.0 0.0 0.0 0.0 0.0 0.0 0.0 0.0 0.0 0.0 0.0 0.0 0.0 0.0 0.0 0.0 0.0 0.0 0.0 0.0 0.0 0.0 0.0 0.0 0.0 0.0 0.0 0.0 0.0 0.0 0.0 0.0 0.0 0.0 0.0 0.0 0.0 0.0 0.0 0.0 0.0 0.0 0.0 0.0 0.0 0.0 0.0 0.0 0.0 0.0 0.0 0.0 0.0 0.0 0.0 0.0 0.0 0.0 0.0 0.0 0.0 0.0 0.0 0.0 0.0 0.0 0.0 0.0 0.0 0.0 0.0 0.0 0.0 0.0 0.0 0.0 0.0 0.0 0.0 0.0 0.0 0.0 0.0 0.0 0.0 0.0 0.0 0.0 0.0 0.0 0.0 0.0 0.0 0.0 0.0 0.0 0.0 0.0 0.0 0.0 0.0 0.0 0.0 0.0 0.0 0.0 0.0 0.0 0.0 0.0 0.0 0.0 0.0 0.0 0.0 0.0 0.0 0.0 0.0 0.0 0.0 0.0 0.0 0.0 0.0 0.0 0.0 0.0 0.0 0.0 0.0 0.0 0.0 0.0 0.0 0.0 0.0 0.0 0.0 0.0 0.0 0.0 0.0 0.0 0.0 0.0 0.0 0.0 0.0 0.0 0.0 0.0 0.0 0.0 0.0 0.0 0.0 0.0 0.0 0.0 0.0 0.0 0.0 0.0 0.0 0.0 0.0 0.0 0.0 0.0 0.0 0.0 0.0 0.0 0.0 0.0 0.0 0.0 0.0 0.0 0.0 0.0 0.0 0.0 0.0 0.0 0.0 0.0 0.0 0.0 0.0 0.0 0.0 0.0 0.0 0.0 0.0 0.0 0.0 0.0 0.0 0.0 0.0 0.0 0.0 0.0 0.0 0.0 0.0 0.0 0.0 0.0 0.0 0.0 0.0 0.0 0.0 0.0 0.0 0.0 0.0 0.0 0.0 0.0 0.0 0.0 0.0 0.0 0.0 0.0 0.0 0.0 0.0 0.0 0.0 0.0 0.0 0.0 0.0 0.0 0.0 0.0 0.0 0.0 0.0 0.0 0.0 0.0 0.0 0.0 0.0 0.0 0.0 0.0 0.0 0.0 0.0 0.0 0.0 0.0 0.0 0.0 0.0 0.0 0.0 0.0 0.0 0.0 0.0 0.0 0.0 0.0 0.0 0.0 0.0 0.0 0.0 0.0 0.0 0.0 0.0 0.0 0.0 0.0 0.0 0.0 0.0 0.0 0.0 0.0 0.0 0.0 0.0 0.0 0.0 0.0 0.0 0.0 0.0 0.0 0.0 0.0 0.0 0.0 0.0 0.0 0.0 0.0 0.0 0.0 0.0 0.0 0.0 0.0 0.0 0.0 0.0 0.0 0.0 0.0 0.0 0.0 0.0 0.0 0.0 0.0 0.0 0.0 0.0 0.0 0.0 0.0 0.0 0.0 0.0 0.0 0.0 0.0 0.0 0.0 0.0 0.0 0.0 0.0 0.0 0.0 0.0 0.0 0.0 0.0 0.0 0.0 0.0 0.0 0.0 0.0 0.0 0.0 0.0 0.0 0.0 0.0 0.0 0.0 0.0 0.0 0.0 0.0 0.0 0.0 0.0 0.0 0.0 0.0 0.0 0.0 0.0 0.0 0.0 0.0 0.0 0.0 0.0 0.0 0.0 0.0 0.0 0.0 0.0 0.0 0.0 0.0 0.0 0.0 0.0 0.0 0.0 0.0 0.0 0.0 0.0 0.0 0.0 0.0 0.0 0.0 0.0 0.0 0.0 0.0 0.0 0.0 0.0 0.0 0.0 0.0 0.0 0.0 0.0 0.0 0.0 0.0 0.0 0.0 0.0 0.0 0.0 0.0 0.0 0.0 0.0 0.0 0.0 0.0 0.0 0.0 0.0 0.0 0.0 0.0 0.0 0.0 0.0 0.0 0.0 0.0 0.0 0.0 0.0 0.0 0.0 0.0 0.0 0.0 0.0 0.0 0.0 0.0 0.0 0.0 0.0 0.0 0.0 0.0 0.0 0.0 0.0 0.0 0.0 0.0 0.0 0.0 0.0 0.0 0.0 0.0 0.0 0.0 0.0 0.0 0.0 0.0 0.0 0.0 0.0 0.0 0.0 0.0 0.0 0.0 0.0 0.0 0.0 0.0 0.0 0.0 0.0 0.0 0.0 0.0 0.0 0.0 0.0 0.0 0.0 0.0 0.0 0.0 0.0 0.0 0.0 0.0 0.0 0.0 0.0 0.0 0.0 0.0 0.0 0.0 0.0 0.0 0.0 0.0 0.0 0.0 0.0 0.0 0.0 0.0 0.0 0.0 0.0 0.0 0.0 0.0 0.0 0.0 0.0 0.0 0.0 0.0 0.0 0.0 0.0 0.0 0.0 0.0 0.0 0.0 0.0 0.0 0.0 0.0 0.0 0.0 0.0 0.0 0.0 0.0 0.0 0.0 0.0 0.0 0.0 0.0 0.0 0.0 0.0 0.0 0.0 0.0 0.0 0.0 0.0 0.0 0.0 0.0 0.0 0.0 0.0 0.0 0.0 0.0 0.0 0.0 0.0 0.0 0.0 0.0 0.0 0.0 0.0 0.0 0.0 0.0 0.0 0.0 0.0 0.0 0.0 0.0 0.0 0.0 0.0 0.0 0.0 0.0 0.0 0.0 0.0 0.0 0.0 0.0 0.0 0.0 0.0 0.0 0.0 0.0 0.0 0.0 0.0 0.0 0.0 0.0 0.0 0.0 0.0 0.0 0.0 0.0 0.0 0.0 0.0 0.0 0.0 0.0 0.0 0.0 0.0 0.0 0.0 0.0 0.0 0.0 0.0 0.0 0.0 0.0 0.0 0.0 0.0 0.0 0.0 0.0 0.0 0.0 0.0 0.0 0.0 0.0 0.0 0.0 0.0 0.0 0.0 0.0 0.0 0.0 0.0 0.0 0.0 0.0 0.0 0.0 0.0 0.0 0.0 0.0 0.0 0.0 0.0 0.0 0.0 0.0 0.0 0.0 0.0 0.0 0.0 0.0 0.0 0.0 0.0 0.0 0.0 0.0 0.0 0.0 0.0 0.0 0.0 0.0 0.0 0.0 0.0 0.0 0.0 0.0 0.0 0.0 0.0 0.0 0.0 0.0 0.0 0.0 0.0 0.0 0.0 0.0 0.0 0.0 0.0 0.0 0.0 0.0 0.0 0.0 0.0 0.0 0.0 0.0 0.0 0.0 0.0 0.0 0.0 0.0 0.0 0.0 0.0 0.0 0.0 0.0 0.0 0.0 0.0 0.0 0.0 0.0 0.0 0.0 0.0 0.0 0.0 0.0 0.0 0.0 0.0 0.0 0.0 0.0 0.0 0.0 0.0 0.0 0.0 0.0 0.0 0.0 0.0 0.0 0.0 0.0 0.0 0.0 0.0 0.0 0.0 0.0 0.0 0.0 0.0 0.0 0.0 0.0 0.0 0.0 0.0 0.0 0.0 0.0 0.0 0.0 0.0 0.0 0.0 0.0 0.0 0.0 0.0 0.0 0.0 0.0 0.0 0.0 0.0 0.0 0.0 0.0 0.0 0.0 0.0 0.0 0.0 0.0 0.0 0.0 0.0 0.0 0.0 0.0 0.0 0.0 0.0 0.0 0.0 0.0 0.0 0.0 0.0 0.0 0.0 0.0 0.0 0.0 0.0 0.0 0.0 0.0 0.0 0.0 0.0 0.0 0.0 0.0 0.0 0.0 0.0 0.0 0.0 0.0 0.0 0.0 0.0 0.0 0.0 0.0 0.0 0.0 0.0 0.0 0.0 0.0 0.0 0.0 0.0 0.0 0.0 0.0 0.0 0.0 0.0 0.0 0.0 0.0 0.0 0.0 0.0 0.0 0.0 0.0 0.0 0.0 0.0 0.0 0.0 0.0 0.0 0.0 0.0 0.0 0.0 0.0 0.0 0.0 0.0 0.0 0.0 0.0 0.0 0.0 0.0 0.0 0.0 0.0 0.0 0.0 0.0 0.0 0.0 0.0 0.0 0.0 0.0 0.0 0.0 0.0 0.0 0.0 0.0 0.0 0.0 0.0 0.0 0.0 0.0 0.0 0.0 0.0 0.0 0.0 0.0 0.0 0.0 0.0 0.0 0.0 0.0 0.0 0.0 0.0 0.0 0.0 0.0 0.0 0.0 0.0 0.0 0.0 0.0 0.0 0.0 0.0 0.0 0.0 0.0 0.0 0.0 0.0 0.0 0.0 0.0 0.0 0.0 0.0 0.0 0.0 0.0 0.0 0.0 0.0 0.0 0.0 0.0 0.0 0.0 0.0 0.0 0.0 0.0 0.0 0.0 0.0 0.0 0.0 0.0 0.0 0.0 0.0 0.0 0.0 0.0 0.0 0.0 0.0 0.0 0.0 0.0 0.0 0.0 0.0 0.0 0.0 0.0 0.0 0.0 0.0 0.0 0.0 0.0 0.0 0.0 0.0 0.0 0.0 0.0 0.0 0.0 0.0 0.0 0.0 0.0 0.0 0.0 0.0 0.0 0.0 0.0 0.0 0.0 0.0 0.0 0.0 0.0 0.0 0.0 0.0 0.0 0.0 0.0 0.0 0.0 0.0 0.0 0.0 0.0 0.0 0.0 0.0 0.0 0.0 0.0 0.0 0.0 0.0 0.0 0.0 0.0 0.0 0.0 0.0 0.0 0.0 0.0 0.0 0.0 0.0 0.0 0.0 0.0 0.0 0.0 0.0 0.0 0.0 0.0 0.0 0.0 0.0 0.0 0.0 0.0 0.0 0.0 0.0 0.0 0.0 0.0 0.0 0.0 0.0 0.0 0.0 0.0 0.0 0.0 0.0 0.0 0.0 0.0 0.0 0.0 0.0 0.0 0.0 0.0 0.0 0.0 0.0 0.0 0.0 0.0 0.0 0.0 0.0 0.0 0.0 0.0 0.0 0.0 0.0 0.0 0.0 0.0 0.0 0.0 0.0 0.0 0.0 0.0 0.0 0.0 0.0 0.0 0.0 0.0 0.0 0.0 0.0 0.0 0.0 0.0 0.0 0.0 0.0 0.0 0.0 0.0 0.0 0.0 0.0 0.0 0.0 0.0 0.0 0.0 0.0 0.0 0.0 0.0 0.0 0.0 0.0 0.0 0.0 0.0 0.0 0.0 0.0 0.0 0.0 0.0 0.0 0.0 0.0 0.0 0.0 0.0 0.0 0.0 0.0 0.0 0.0 0.0 0.0 0.0 0.0 0.0 0.0 0.0 0.0 0.0 0.0 0.0 0.0 0.0 0.0 0.0 0.0 0.0 0.0 -0.003033838515845961 0.0 -0.0011213934280348348 -0.003643557531088936 0.0 -0.001075118266877956 -0.0041585973039649305 0.0 -0.000989101104727527 -0.0045791517144787896 0.0 -0.0008873254221831351 -0.004921874523046861 0.0 -0.0007747173793679341 -0.003374929804373243 0.0 -0.001634332200858304 -0.0045207001130175 0.0 -0.001576526119413152 -0.00548727733718193 0.0 -0.001531137918278447 -0.00627267535681688 0.0 -0.001426603475665086 -0.006899018572475461 0.0 -0.001290792632269815 -0.007401261785031539 0.0 -0.0011287036682175909 -0.005043474526086861 0.0 -0.0021797055744926385 -0.00671295696782392 0.0 -0.002153465213836629 -0.00811262740281568 0.0 -0.0020747341718683533 -0.009252331031308271 0.0 -0.0019280713682017833 -0.01015186945379673 0.0 -0.0017461736036543391 -0.01086326187158154 0.0 -0.001528855438221385 -0.00734580178364504 0.0 -0.002905011232625279 -0.00973245664331141 0.0 -0.002870293391757333 -0.01169382229234555 0.0 -0.0027642261891056533 -0.013279425131985621 0.0 -0.0025587935839698384 -0.014518405962960142 0.0 -0.002312937977823448 -0.01548750278718756 0.0 -0.002021434770535868 -0.010491042662276061 0.0 -0.0038901918572547935 -0.0138336603458415 0.0 -0.0038061206151530137 -0.01653080481327011 0.0 -0.0036432479310811957 -0.01867878766696968 0.0 -0.0033587277639681922 -0.02033407450835185 0.0 -0.0030311134357778337 -0.02161296494032411 0.0 -0.0026441146261028644 -0.014808522370213049 0.0 -0.005234828530870711 -0.01941705688542641 0.0 -0.00503193972579849 -0.02306103457652585 0.0 -0.00477044291926107 -0.025912243847806084 0.0 -0.00437559810938995 -0.02807418790185468 0.0 -0.003941843018546073 -0.029720128343003194 0.0 -0.0034351212058780283 -0.02079411931985297 0.0 -0.007054458576361461 -0.027034444275861092 0.0 -0.00666196896654922 -0.03187647239691179 0.0 -0.0062315781557894506 -0.03559288768982217 0.0 -0.00568263694206592 -0.038369626959240656 0.0 -0.0051050481276262005 -0.0404517290112932 0.0 -0.0044462041111551 -0.029146439528660972 0.0 -0.0095617042390426 -0.03748638133715951 0.0 -0.008838569020964221 -0.0437902930947573 0.0 -0.008147490203687251 -0.0485225892130647 0.0 -0.00739714898492872 -0.0520250213006255 0.0 -0.006624450565611261 -0.0546175373654384 0.0 -0.005764631344115781 -0.0408235170205879 0.0 -0.01297837512445937 -0.051731313293282795 0.0 -0.0117913682947842 -0.0597924134948103 0.0 -0.01070928586773214 -0.06572005364300129 0.0 -0.009694397842359941 -0.0700578057514451 0.0 -0.008660497016512421 -0.073234641830866 0.0 -0.00750459098761477 -0.057341945433548605 0.0 -0.01739898683497466 -0.07118606577965161 0.0 -0.015619319990482992 -0.08118817002970422 0.0 -0.0141285363532134 -0.08848468221211701 0.0 -0.0127614443190361 -0.09377585434439631 0.0 -0.011363140684078512 -0.0975832304395807 0.0 -0.00980544264513606 -0.0804906500122662 0.0 -0.02317484977937123 -0.09759794643994861 0.0 -0.02061808171545203 -0.1096044227401105 0.0 -0.018723062068076543 -0.1184619709615492 0.0 -0.016817436020435894 -0.12477181111929521 0.0 -0.01496137997403449 -0.1292531272313281 0.0 -0.012809780720244511 -0.11118148677953711 0.0 -0.03701562372539057 -0.1328939473223486 0.0 -0.0300565727514143 -0.1472610516815262 0.0 -0.02590282624757064 -0.15775921594398032 0.0 -0.02255205856380145 -0.1650880001271999 0.0 -0.019747034093675845 -0.1701768922544222 0.0 -0.01673385401834634 -0.1569151919228797 0.0 -0.06686310967157771 -0.1811737565293438 0.0 -0.0493768212344205 -0.19725678493141952 0.0 -0.03861256936531421 -0.20912397322809922 0.0 -0.03139258118481451 -0.2172264614306614 0.0 -0.02640246226006154 -0.2227223935680597 0.0 -0.02192892334822307 -0.2230441855761045 0.0 -0.10633781065844519 -0.2475448661886215 0.0 -0.07772531794313291 -0.26388059459701474 0.0 -0.057328665433216595 -0.27599385489984624 0.0 -0.0442044651051116 -0.2842260431056509 0.0 -0.03571245449281134 -0.2897723752443092 0.0 -0.02874669511866736 -0.3120229798005743 0.0 -0.1525275518131887 -0.3355602843890069 0.0 -0.1125913428147835 -0.3507970647699264 0.0 -0.0814811180370279 -0.36207462105186533 0.0 -0.0610988375274709 -0.36963210924080253 0.0 -0.0477597651939941 -0.3747181973679547 0.0 -0.03723557093088925 -0.4263243706581089 0.0 -0.20442956111073893 -0.448257091206427 0.0 -0.1525991838149795 -0.461720491543012 0.0 -0.1104194187604854 -0.47140409178510195 0.0 -0.0817291940432298 -0.47758929193973204 0.0 -0.06228086555702161 -0.48154809203870197 0.0 -0.047334597183364906 -0.5691196542279912 0.0 -0.265486246637156 -0.589675974741899 0.0 -0.1989761529744037 -0.6011334550283361 0.0 -0.1439530875988271 -0.608920735223018 0.0 -0.1057659306441482 -0.6130828553270711 0.0 -0.07953398998834971 -0.6151277753781941 0.0 -0.059056389476409704 -0.7451140986278519 0.0 -0.33941010048525233 -0.765819979145499 0.0 -0.2536814023420349 -0.7753837793845939 0.0 -0.1830121445753035 -0.7807654595191361 0.0 -0.1330472633261815 -0.782272459556811 0.0 -0.09909449047736221 -0.781207859530196 0.0 -0.0723594858089871 -0.9636175440904379 0.0 -0.42893277072331903 -0.9854634646365861 0.0 -0.3196621719915541 -0.9929614248240352 0.0 -0.22886114572152852 -0.9951400248785 0.0 -0.1646411801160294 -0.992166744804168 0.0 -0.120589843014746 -0.9864047446601181 0.0 -0.08706413817660341 -1.237117710927942 0.0 -0.5391581334789531 -1.259877031496925 0.0 -0.3991210779780267 -1.264170791604269 0.0 -0.28301459107536464 -1.2611005915275142 0.0 -0.2006759450168985 -1.2513259112831472 0.0 -0.14444802361120052 -1.2379883109497072 0.0 -0.10338991058474771 -1.5799253994981342 0.0 -0.6736444168411101 -1.602271680056791 0.0 -0.494842172371054 -1.60093884002347 0.0 -0.3457007966425197 -1.589049679726241 0.0 -0.2415827340395682 -1.568467559211688 0.0 -0.1715939682898491 -1.543619278590481 0.0 -0.12207373505184331 -2.0088234502205853 0.0 -0.8366242609156059 -2.0282471307061773 0.0 -0.6072046551801161 -2.017152250428805 0.0 -0.4174240104356 -1.990782969769573 0.0 -0.2870077191751928 -1.953361928834047 0.0 -0.20292966907324161 -1.9112306877807659 0.0 -0.14462561961564038 -2.545003943625097 0.0 -1.0326919058172972 -2.557030183925753 0.0 -0.738658698466467 -2.5292044232301096 0.0 -0.4960089724002239 -2.47961966199049 0.0 -0.3381934244548354 -2.417025060425625 0.0 -0.23938725398468122 -2.34934525873363 0.0 -0.1751151723778792 -3.2157678482772347 0.0 -1.265365784316688 -3.2117508070493286 0.0 -0.88822713293596 -3.1557069734230483 0.0 -0.584919310951376 -3.070018091758652 0.0 -0.39795700892732 -2.97076498245792 0.0 -0.2866131599677928 -2.8670850802500163 0.0 -0.221260012755928 -4.0571717028959196 0.0 -1.5394062909263357 -4.019548533709259 0.0 -1.054292498651423 -3.9171513446450006 0.0 -0.68474696389815 -3.776486994428827 0.0 -0.47422713804040206 -3.625542885965448 0.0 -0.35521294738215436 -3.4737494106163 0.0 -0.29286673929944995 -5.1158763355276 0.0 -1.85863338803835 -5.011040694632619 0.0 -1.235484163690598 -4.83262760961839 0.0 -0.799629538514781 -4.61386314003308 0.0 -0.57918470225004 -4.390579381774479 0.0 -0.46366171782235205 -4.17648820147461 0.0 -0.4107699928042311 -6.441173408024879 0.0 -2.217042845503612 -6.215575947513151 0.0 -1.437956197084725 -5.91586372589183 0.0 -0.943479394572714 -5.588585753190201 0.0 -0.7378598732615061 -5.270319836390681 0.0 -0.642380378224744 -4.9798517737151995 0.0 -0.607514684088256 -8.08204459085049 0.0 -2.6249412716667657 -7.652023449981661 0.0 -1.673606824216866 -7.173625905099721 0.0 -1.153514143957158 -6.690836937561751 0.0 -1.003760164588725 -6.2569653929595 0.0 -0.95047567940295 -5.87373845498973 0.0 -0.931695508005483 -10.04862641113695 0.0 -3.0853953701389 -9.306718483212151 0.0 -1.98213311296364 -8.56979630462736 0.0 -1.4937661261132402 -7.851517677043951 0.0 -1.492343446278685 -7.265957130687619 0.0 -1.506309250164515 -6.84892354068888 0.0 -1.3997283800284621 -12.281024045983319 0.0 -3.6388347111196917 -11.09215252265652 0.0 -2.417934876754563 -9.896006735907001 0.0 -2.194114327949412 -8.980120131652441 0.0 -2.2337107975041963 -8.377163369563949 0.0 -2.173245865653357 -7.890395046358081 0.0 -1.9975476772679521 -14.5739195272452 0.0 -4.2777425945902605 -12.74543909064648 0.0 -3.2242744329364683 -11.15395021493544 0.0 -3.0956145822319634 -10.21633478993672 0.0 -3.12720822108239 -9.51796270119752 0.0 -2.983840880473712 -8.947007729207021 0.0 -2.755153769407878 -16.773054820515 0.0 -4.962859077645 -14.3929961713542 0.0 -4.18637709491004 -12.649458453393182 0.0 -4.15050301136334 -11.453877365980079 0.0 -4.18645173176175 -10.609970787954659 0.0 -4.04045886644157 -9.961709908185 0.0 -3.6879760942290005 -18.49300706410979 0.0 -5.872497713877259 -15.810770342222561 0.0 -5.71378453584224 -13.708220014210243 0.0 -6.2456377771913605 -12.43180279737808 0.0 -5.946060022619361 -11.534900470435678 0.0 -5.38014895079264 -10.83043337695352 0.0 -4.79030913028152 -19.50055177759885 0.0 -6.95215236054794 -16.425645082274404 0.0 -8.0299789469144 -14.223212553803398 0.0 -9.6159861827877 -13.0617266275416 0.0 -8.805674088197 -12.236508577895261 0.0 -7.472084379117001 -11.528671573644798 0.0 -6.31492626636781 -18.88025917116177 0.0 -8.07027375385511 -16.30706396144504 0.0 -10.5560921494406 -14.34387837540956 0.0 -13.361031506710159 -13.400785410077999 0.0 -12.06118404741752 -12.644930343991529 0.0 -9.868280845485401 -11.950842129339618 0.0 -8.08593696976191 -15.572229158791439 0.0 -9.04985196037398 -14.669999465413321 0.0 -12.454290986802418 -13.40839031051667 0.0 -16.19180238550413 -12.80105932579614 0.0 -14.70243641145888 -12.2399988392199 0.0 -11.97478215312975 -11.61694976943444 0.0 -9.7368333736797 -11.02022247787118 0.0 -9.69894793086828 -10.75893003133095 0.0 -13.177891520512388 -10.380139002739519 0.0 -17.517356791457317 -9.95582033679625 0.0 -16.12376630379375 -9.46852500643104 0.0 -13.26201024624256 -8.93802305279524 0.0 -10.839674398600678 -6.86597664793027 0.0 -10.12895560682538 -6.75916239058587 0.0 -13.46255835809289 -6.59069293739528 0.0 -17.940319838237183 -6.34618779066954 0.0 -16.714097183474284 -6.03304099930668 0.0 -13.922515533509458 -5.678999567143979 0.0 -11.48622689346048 -3.587858887699488 0.0 -10.427124459081439 -3.5759251270686083 0.0 -13.57676145982032 -3.5227516060188617 0.0 -18.069209111863913 -3.417465368135822 0.0 -16.971940123559822 -3.2620925047908345 0.0 -14.27510301400638 -3.072152685318112 0.0 -11.869068189296 -1.1382756304492678 0.0 -10.63665775122012 -1.175832119035392 0.0 -13.63438872250592 -1.1935861051026477 0.0 -18.0808041775732 -1.1857793533713719 0.0 -17.04525667084686 -1.15055586445284 0.0 -14.415493370017652 -1.0921179485496721 0.0 -12.045161874174001 0.8024168331179281 0.0 -10.78488271237048 0.7380087586435201 0.0 -13.685037798868242 0.6729852110052781 0.0 -18.049770685010902 0.6092692740920721 0.0 -17.007804073280244 0.5516426440911361 0.0 -14.403888094669421 0.5046112530015141 0.0 -12.059478922831241 2.57928747178707 0.0 -10.8287521975908 2.48870589512094 0.0 -13.702748748430501 2.3789815550579068 0.0 -17.98204014273051 2.25142974061608 0.0 -16.883478115041598 2.113038675324108 0.0 -14.2685012576589 1.974325268325312 0.0 -11.9385251684064 4.3808158016351 0.0 -10.75371622651695 4.25347093307402 0.0 -13.5590254176545 4.0904370230521 0.0 -17.6999193515949 3.895225341757925 0.0 -16.5652178773557 3.6771956980640197 0.0 -13.972269911484938 3.4511876241706037 0.0 -11.68048725694438 6.204814656396479 0.0 -10.54714339253935 6.030401226213 0.0 -13.227930479170478 5.80605669508064 0.0 -17.17552487908584 5.538277499503301 0.0 -16.03658482248754 5.23919196286768 0.0 -13.510717259643359 4.92748645050375 0.0 -11.288777754541702 7.9386718243153 0.0 -10.2226373064284 7.71325137473662 0.0 -12.72382796958514 7.42589533785225 0.0 -16.41915551037125 7.08568946911661 0.0 -15.30458620574884 6.7076438278224195 0.0 -12.88959882320698 6.31444027927658 0.0 -10.770152017247579 9.444738025148299 0.0 -9.80285914137375 9.171853160872251 0.0 -12.074627960504248 8.826991890674119 0.0 -15.462500773198071 8.42112589379054 0.0 -14.391587239853743 7.97206459434245 0.0 -12.1248441792005 7.5065050469256605 0.0 -10.1376045511546 10.61302614187904 0.0 -9.310899282704801 10.170261536234861 0.0 -11.24575390619546 9.910375882869781 0.0 -14.349236737341439 9.4511631234972 0.0 -13.333889689355198 8.933380850957699 0.0 -11.243055792130349 8.35987698047424 0.0 -9.413970381275721 11.41756433354872 0.0 -8.80281706338845 10.837090788851249 0.0 -10.367270741426198 10.620105974467918 0.0 -13.13082068392344 10.11398123053461 0.0 -12.17397496054311 9.39268491017571 0.0 -10.28334589551984 8.6311153359238 0.0 -8.6342657225392 12.001435217230398 0.0 -8.3092174195048 11.326785191162841 0.0 -9.519724772091381 10.985424640928121 0.0 -11.85794676813076 10.320091033244179 0.0 -10.9605652923066 9.420295716787201 0.0 -9.2839831867824 8.585036574469939 0.0 -7.826608248099459 12.4844141051799 0.0 -7.7856243394188205 11.73127354298792 0.0 -8.72642151890188 11.132029799527722 0.0 -10.5805812364452 10.29128170307717 0.0 -9.7482002712107 9.2908069812648 0.0 -8.2856931259136 8.42958502309716 0.0 -7.01494410385001 13.03691071401312 0.0 -7.24469654709108 12.0995519941218 0.0 -7.9059084134433 11.22559035763044 0.0 -9.34943319544344 10.20576676527792 0.0 -8.59489336245834 9.09470342640744 0.0 -7.3288749943367995 8.205888007351621 0.0 -6.24952133895456 13.9060314111537 0.0 -6.8042726362049395 12.683161071977969 0.0 -7.137650016796109 11.405360392220341 0.0 -8.21931322923594 10.09817489014776 0.0 -7.569685352406061 8.86549939061907 0.0 -6.4795043561776495 7.95354389889345 0.0 -5.548912731747 15.357426553067969 0.0 -6.55905938608598 13.555006183745057 0.0 -6.48340413419489 11.725456673967159 0.0 -7.24629605072013 10.024442950692201 0.0 -6.715306025915 8.64845536834048 0.0 -5.76989659993376 7.690011596678879 0.0 -4.90571035077648 17.00933408867573 0.0 -6.453359815283469 14.5585510343672 0.0 -6.00873401825937 12.07689557495928 0.0 -6.507614187927359 9.974451464818559 0.0 -6.08051381338768 8.47452439836008 0.0 -5.19017697226696 7.444919809852079 0.0 -4.34728120579392 17.97187555016091 0.0 -6.702432262957619 15.12161094179916 0.0 -5.87777576944284 12.359756959197899 0.0 -6.029360333431891 9.99896961816126 0.0 -5.632806450814289 8.3854848594804 0.0 -4.74835403831028 7.22834384874822 0.0 -3.9074137755897422 15.345187773750803 0.0 -5.931243075874 12.64237084807606 0.0 -5.675647028580431 10.120952065639031 0.0 -5.322516641953641 8.3733880335225 0.0 -4.43914418877025 7.085139567640749 0.0 -3.5775713261173494 15.5441343856298 0.0 -5.94951150006202 12.990272057775899 0.0 -5.3738073741961605 10.472514266200001 0.0 -5.060322841840001 8.46452931895691 0.0 -4.27017458124454 7.03791848305 0.0 -3.3569643755200005 13.317610745765759 0.0 -5.2523200345765195 11.032511864006219 0.0 -4.76567470230294 8.807553853413 0.0 -4.1844466386114 7.126539810098939 0.0 -3.2715206982016496 13.461013913186397 0.0 -5.335995237421199 11.495562832400669 0.0 -4.71063054335643 9.40064987448396 0.0 -4.13230269688725 7.4631396495108 0.0 -3.35164070580804 11.785058182629559 0.0 -4.8360386033766 9.991336295853639 0.0 -4.213628680692599 8.0368626205538 0.0 -3.562431968718264 10.403083255820638 0.0 -4.419723960122241 8.6973540006584 0.0 -3.8449844887349283 10.4722276533265 0.0 -4.624880303322301 9.24333814987968 0.0 -4.1307864206323 -0.0051948269298706705 0.0 -0.0006648490566212261 -0.00540899173522479 0.0 -0.0005624993740624841 -0.0055730441393261 0.0 -0.00047275857181896397 -0.0056984325424608104 0.0 -0.00038892874572321845 -0.00579227374480684 0.0 -0.00031294641982366036 -0.00586153694653842 0.0 -0.00024233270205831746 -0.00591151774778794 0.0 -0.0001757414123935352 -0.0059453361486334 0.0 -0.00011391361884784041 -0.0059649569491239205 0.0 -5.602008540050211e-05 -0.00779351459483786 0.0 -0.000970468864261721 -0.00809638380240959 0.0 -0.0008206933005173321 -0.00832549820813745 0.0 -0.000687677297191932 -0.00849855101246377 0.0 -0.0005644804141120101 -0.00862675461566886 0.0 -0.000453001731325043 -0.00872017381800434 0.0 -0.00034963366074084135 -0.00878659061966476 0.0 -0.0002534269423356734 -0.00883103542077588 0.0 -0.0001644676121116902 -0.0088566082214152 0.0 -8.08837380220934e-05 -0.01141116348527908 0.0 -0.001313902552847563 -0.01182791749569793 0.0 -0.001109409347735233 -0.01213889750347243 0.0 -0.0009269521831738041 -0.012370703109267571 0.0 -0.000758910378972759 -0.01254066271351656 0.0 -0.0006072094151802351 -0.012663853516596331 0.0 -0.00046746345168658597 -0.01275108191877704 0.0 -0.00033868244846706105 -0.01280924272023106 0.0 -0.00021999288149982194 -0.012842692721067311 0.0 -0.0001082402227060055 -0.01622457400561434 0.0 -0.0017331524433288098 -0.016777778019444443 0.0 -0.0014588343164708571 -0.01718546642963665 0.0 -0.0012135100703377511 -0.01748559363713983 0.0 -0.000988979184724479 -0.01770355444258885 0.0 -0.000788714299717857 -0.01786104764652618 0.0 -0.000606833495170837 -0.017972724449318103 0.0 -0.00044005393100134805 -0.01804743445118585 0.0 -0.0002864275431606884 -0.018090536052263392 0.0 -0.0001410478395261959 -0.02257309896432746 0.0 -0.0022614272965356813 -0.02328445978211148 0.0 -0.001898050527451262 -0.02380362659509065 0.0 -0.001571267519281687 -0.02418184340454607 0.0 -0.0012750620318765502 -0.02445461221136529 0.0 -0.001013712705342817 -0.0246508246162706 0.0 -0.000779522139488053 -0.02478991501974786 0.0 -0.000566063974151599 -0.02488307582207688 0.0 -0.0003694009812350243 -0.024937016223425392 0.0 -0.0001821693205542329 -0.030939237173480908 0.0 -0.0029336673133416816 -0.03183100319577506 0.0 -0.002457985541449637 -0.032475120811878005 0.0 -0.002026527610663189 -0.032938916423472894 0.0 -0.001638864560971613 -0.03327052963176322 0.0 -0.0012993055524826381 -0.03350770843769269 0.0 -0.000997996264949906 -0.03367529604188239 0.0 -0.000725293378132334 -0.033787316844682905 0.0 -0.00047423989185599704 -0.03385219364630482 0.0 -0.00023413110185327744 -0.0419725970493149 0.0 -0.003794759214868978 -0.0430678890766972 0.0 -0.003176568519414211 -0.0438482970962074 0.0 -0.002609425465235635 -0.0444014091100352 0.0 -0.002103270252581755 -0.0447913731197843 0.0 -0.0016625430815635763 -0.045067161126679 0.0 -0.0012744115918602891 -0.0452602891315072 0.0 -0.000925974663149366 -0.045388549134713706 0.0 -0.0006063055351576381 -0.0454626931365673 0.0 -0.00029921855948046377 -0.0564855294121382 0.0 -0.00490911692272792 -0.057804757445118905 0.0 -0.00410139370253484 -0.058726885468172105 0.0 -0.0033551880038796985 -0.0593659374841484 0.0 -0.0026936822273420542 -0.0598065574951639 0.0 -0.002120585613014639 -0.060111041502776005 0.0 -0.001619783440494585 -0.0603198495079962 0.0 -0.0011747373493684332 -0.0604563855114096 0.0 -0.0007683747792093691 -0.060534389513359696 0.0 -0.0003789698574742462 -0.0754829058870726 0.0 -0.006362683359067081 -0.07703393392584831 0.0 -0.0052953921323848005 -0.0780912699522817 0.0 -0.00430739010768475 -0.0788003539700088 0.0 -0.003437959125948976 -0.0792706579817664 0.0 -0.0026896447472411172 -0.0795814459895361 0.0 -0.002042155571053888 -0.079785001994625 0.0 -0.00147493923687348 -0.07991320599783011 0.0 -0.0009616823040420571 -0.0799841539996038 0.0 -0.000473234531830863 -0.1002223985055599 0.0 -0.00826850100671252 -0.1019979985499499 0.0 -0.006830057770751441 -0.10316463857911591 0.0 -0.00551471173786779 -0.10390752659768811 0.0 -0.004363874509096861 -0.1043670306091757 0.0 -0.00338355648458891 -0.1046454586161364 0.0 -0.002545241343631032 -0.1048090146202253 0.0 -0.001824225165605628 -0.10489997062249921 0.0 -0.00118206602955165 -0.1049457586236439 0.0 -0.0005792957344823929 -0.1322609713065242 0.0 -0.0107405882685147 -0.13422265535556632 0.0 -0.008779667419491679 -0.1354329033858225 0.0 -0.0070251457756286394 -0.1361413994035349 0.0 -0.00549647693741192 -0.1365243114131077 0.0 -0.004213892105347301 -0.1367139714178492 0.0 -0.003131625518290636 -0.13679243541981082 0.0 -0.002219153815478844 -0.1368138714203467 0.0 -0.001424121515603037 -0.1368150514203762 0.0 -0.000694504217362605 -0.1734966203374154 0.0 -0.01388611994715299 -0.17555916838897911 0.0 -0.011210360680259011 -0.1767074404176859 0.0 -0.00887513102187827 -0.1772754604318864 0.0 -0.00685411497135287 -0.17748343243708573 0.0 -0.0051911441297786 -0.1775034124375852 0.0 -0.0038055715351392864 -0.17743616443590401 0.0 -0.0026637536265938394 -0.17734871243371772 0.0 -0.0016910838422770952 -0.1772824804320619 0.0 -0.00081973162049329 -0.22621021765525534 0.0 -0.017852987646324682 -0.2282109537052737 0.0 -0.01420079195501979 -0.2291321097283026 0.0 -0.0111006962775174 -0.22939997373499924 0.0 -0.008450147011253671 -0.229286725732168 0.0 -0.00632123295803082 -0.2290184297254606 0.0 -0.00456893771422344 -0.2287143057178575 0.0 -0.003161655439041384 -0.2284550497113761 0.0 -0.001986602009665049 -0.22828536570713404 0.0 -0.000957548183938704 -0.29312125132803113 0.0 -0.02282552177063803 -0.2947738713693466 0.0 -0.01781864964546623 -0.2951848113796201 0.0 -0.013716957142923923 -0.29489560737239 0.0 -0.01028303145707578 -0.2942436273560905 0.0 -0.007588848589721211 -0.29351168333779193 0.0 -0.005420802135520051 -0.29283936732098403 0.0 -0.0037160393729009818 -0.29231892330797293 0.0 -0.002314007697850191 -0.2919930752998267 0.0 -0.001110181507754537 -0.37744551743613775 0.0 -0.028855401921385027 -0.37828925745723124 0.0 -0.02208327095208176 -0.3777581054439524 0.0 -0.01673827201845679 -0.3765236014130898 0.0 -0.01235853310896332 -0.3750123133753076 0.0 -0.00900286622507165 -0.3735641333391031 0.0 -0.00636366855909171 -0.3723388533084711 0.0 -0.00433745410843635 -0.37143150128578734 0.0 -0.002682167907054196 -0.3708777532719436 0.0 -0.001283625912090647 -0.482998572074964 0.0 -0.03606304610157614 -0.48235533205888304 0.0 -0.026995665474891625 -0.48023009200575206 0.0 -0.02008068770201718 -0.477500971937524 0.0 -0.0146654283666357 -0.4746778918669471 0.0 -0.01057444386436109 -0.47216281180407 0.0 -0.00742576738564418 -0.47013045175326107 0.0 -0.0050412853260321305 -0.46866681171667 0.0 -0.0031156162778904054 -0.46778841169470997 0.0 -0.001491996877299921 -0.614304615357615 0.0 -0.0440686971017174 -0.611224775280619 0.0 -0.03253854001346348 -0.606612895165322 0.0 -0.0237969685949242 -0.6016054950401369 0.0 -0.01718912482972811 -0.596861774921544 0.0 -0.01235400470885011 -0.592809934820248 0.0 -0.008678888616972212 -0.589636734740918 0.0 -0.0059035589475889706 -0.5873987346849681 0.0 -0.0036729392518234792 -0.586075174651879 0.0 -0.0017652633241315822 -0.776748579418714 0.0 -0.053005405325135105 -0.7698516592462911 0.0 -0.03865559496638985 -0.761566979039174 0.0 -0.02792265189806628 -0.7532598588314959 0.0 -0.02010647090266176 -0.745800178645004 0.0 -0.01450285196257129 -0.7396175384904381 0.0 -0.010297383057434571 -0.7348925383723132 0.0 -0.007089032577225811 -0.7316168582904211 0.0 -0.0044775441119386 -0.729702098242552 0.0 -0.002171564894289121 -0.976381344409533 0.0 -0.0628465175711629 -0.9637356240933901 0.0 -0.045446205136155104 -0.9502836637570911 0.0 -0.03274303441857584 -0.937367863434196 0.0 -0.023794422194860543 -0.926212543155313 0.0 -0.017381156034528892 -0.9172021029300522 0.0 -0.012655175116379373 -0.9104588627614711 0.0 -0.00891652942291323 -0.9058518626462961 0.0 -0.005759800143995001 -0.9031890225797249 0.0 -0.002830899190772478 -1.2196837904920939 0.0 -0.0739933738498343 -1.198898149972453 0.0 -0.053399641334991005 -1.178137149453428 0.0 -0.03897702777442567 -1.159015028975375 0.0 -0.0289484447237111 -1.14297762857444 0.0 -0.0217994485449862 -1.130338708258467 0.0 -0.01645879201146979 -1.1210661080266522 0.0 -0.01195656389891409 -1.114822227870555 0.0 -0.007915802597895061 -1.1112496677812411 0.0 -0.00394839729870993 -1.5132366378309152 0.0 -0.0874667061866676 -1.4810352770258812 0.0 -0.06401270160031751 -1.450329996258249 0.0 -0.0480827892020697 -1.4230591155764771 0.0 -0.03700569052514224 -1.4007675550191878 0.0 -0.029115680727892 -1.3836205945905138 0.0 -0.022815224970380608 -1.3712731542818282 0.0 -0.017108290427707253 -1.3630853940771341 0.0 -0.011557950288948751 -1.358449673961241 0.0 -0.005845603346140081 -1.863672886591821 0.0 -0.1056195506404887 -1.815850885396271 0.0 -0.07971356199283901 -1.7718521642963032 0.0 -0.06273420156835499 -1.7340960033523993 0.0 -0.050504341262608506 -1.7040102426002548 0.0 -0.041472933036823305 -1.68139444203486 0.0 -0.03357697523942436 -1.6654520416363001 0.0 -0.02568970104224251 -1.655038681375966 0.0 -0.01756251963906298 -1.649211161230278 0.0 -0.00892935702323392 -2.277959896948996 0.0 -0.132933643323341 -2.209243055231075 0.0 -0.1052965906324147 -2.147965093699126 0.0 -0.0873510501837762 -2.0970448124261196 0.0 -0.0732946458323661 -2.0574734114368343 0.0 -0.0620066295501657 -2.028416690710416 0.0 -0.0510712772767819 -2.008319130207977 0.0 -0.03960335659008389 -1.995457889886446 0.0 -0.027143949878598733 -1.988339089708476 0.0 -0.01382441554561038 -2.763592505423682 0.0 -0.176746999304144 -2.6678721207223117 0.0 -0.1482896129737144 -2.584964984850187 0.0 -0.1285998148048164 -2.517990299642305 0.0 -0.1113034031297464 -2.467201590240216 0.0 -0.0951482468166918 -2.4307223561285674 0.0 -0.0786062372682529 -2.406001802700324 0.0 -0.060789271355159796 -2.390446554267072 0.0 -0.041503044901812 -2.381979269186704 0.0 -0.02100601100359904 -3.328612281136325 0.0 -0.250158301045935 -3.199638439310825 0.0 -0.220923766231285 -3.090746555138925 0.0 -0.1959212273516125 -3.0048645180182745 0.0 -0.1713561747372218 -2.9410579338947516 0.0 -0.14610827099441437 -2.8962542132482 0.0 -0.1197957636319864 -2.866433719571408 0.0 -0.092001525602448 -2.848055606490864 0.0 -0.062423460362026395 -2.8382277888008236 0.0 -0.03163545174371064 -3.981013005890172 0.0 -0.3719921787638392 -3.8131334431279003 0.0 -0.3387576239628206 -3.674479214829237 0.0 -0.3019475789450718 -3.567069431516528 0.0 -0.26258959609543076 -3.488515586794337 0.0 -0.2210708587531705 -3.434310696188167 0.0 -0.1786032111546696 -3.399117176505288 0.0 -0.1352503914744696 -3.3778095867397364 0.0 -0.09134121907990261 -3.3663825137939636 0.0 -0.0464181879929 -4.7271466343931206 0.0 -0.5689441667635741 -4.51562537443776 0.0 -0.52106163582496 -4.3444160052664005 0.0 -0.45887631052720207 -4.21319198722176 0.0 -0.3920935433985024 -4.1179586117799 0.0 -0.32601442687015 -4.053277092206 0.0 -0.25972645742469397 -4.01201923500685 0.0 -0.194213349730829 -3.9875885404914557 0.0 -0.129314728308736 -3.974957620911576 0.0 -0.06429905931907699 -5.564267010951089 0.0 -0.8692348026447151 -5.313618485962019 0.0 -0.7742838677847391 -5.105875231924561 0.0 -0.67432625603739 -4.947017001342121 0.0 -0.5669539662263761 -4.83255530246031 0.0 -0.46209547503531306 -4.75633984326498 0.0 -0.36400287037437895 -4.70830514929896 0.0 -0.2710540776517848 -4.68076039122471 0.0 -0.1777907477827572 -4.66672078092909 0.0 -0.08737412943430858 -6.4881120011685205 0.0 -1.2770687858741043 -6.191831930196881 0.0 -1.1238265496418942 -5.9464374559749205 0.0 -0.9615054003170743 -5.75762425761705 0.0 -0.7994624127904049 -5.6234829332794805 0.0 -0.6411208122373319 -5.5344286952287005 0.0 -0.49368197567336003 -5.479585220324839 0.0 -0.3595128943974744 -5.447759513452261 0.0 -0.2380689284026144 -5.4327099206248795 0.0 -0.1174497185654612 -7.474083680940481 0.0 -1.802431691017056 -7.126342971231599 0.0 -1.571980931704647 -6.8376059997059695 0.0 -1.330416176012811 -6.61576675802616 0.0 -1.08557841509094 -6.4593726535429195 0.0 -0.8548644543053039 -6.356043300506401 0.0 -0.65267262937566 -6.29324900396046 0.0 -0.46729482956855994 -6.258190118440321 0.0 -0.2997330487640652 -6.23947932410418 0.0 -0.1500669091836801 -8.471565375080989 0.0 -2.45046914381408 -8.071390395829722 0.0 -2.0938154785119463 -7.73032724794402 0.0 -1.7473156192795023 -7.476135285127319 0.0 -1.4062137401339638 -7.28994181834488 0.0 -1.0960845604017602 -7.16886913167812 0.0 -0.819609892257572 -7.0970258521181515 0.0 -0.574955967031355 -7.054543595309101 0.0 -0.3695759502072306 -7.032669720963799 0.0 -0.1765305024920968 -9.424400448350701 0.0 -3.24730192579506 -8.96105236379796 0.0 -2.7804363109140717 -8.573134530434881 0.0 -2.2778028392184 -8.289651390834239 0.0 -1.7789684399005559 -8.076801758917501 0.0 -1.3370085891225 -7.9308335434134 0.0 -0.9739612643534431 -7.839655190325 0.0 -0.6813184111650001 -7.78521038220339 0.0 -0.43010201566342804 -7.75766026356132 0.0 -0.2051468768328324 -10.23515770667988 0.0 -4.18076659637416 -9.73172815843824 0.0 -3.5336232646478725 -9.31249890226665 0.0 -2.866237263498035 -8.98014029495554 0.0 -2.2107125022390064 -8.74147858210895 0.0 -1.6257986136407052 -8.57557850114575 0.0 -1.14940072373671 -8.452968272249208 0.0 -0.784573119918921 -8.38411946017039 0.0 -0.48023384031079097 -8.34352143282976 0.0 -0.22933284407004803 -10.919645327572798 0.0 -5.3437390598592 -10.391621042566399 0.0 -4.4515336609744 -9.9544444792881 0.0 -3.5611591384686676 -9.60252021626326 0.0 -2.711426971224818 -9.32237019907634 0.0 -1.977346165341348 -9.11747367003586 0.0 -1.37781914958171 -8.97332728256388 0.0 -0.909984877445588 -8.880470652675282 0.0 -0.552388214161998 -8.83073954645192 0.0 -0.26664507656537967 -11.290423674626888 0.0 -6.728491618125769 -10.723837040937081 0.0 -5.540885869403481 -10.265312788180118 0.0 -4.3834723513567795 -9.896001241819679 0.0 -3.294112122967608 -9.616205955014559 0.0 -2.3546362878220237 -9.400545850883 0.0 -1.616756285298956 -9.2515028739119 0.0 -1.054084857410361 -9.15252276939052 0.0 -0.632812999463076 -9.09782139642747 0.0 -0.298675218135119 -10.995167722608002 0.0 -8.028264390216002 -10.44056206020996 0.0 -6.5804904963984905 -9.98896551278508 0.0 -5.17568456991348 -9.633999107237189 0.0 -3.847455276053067 -9.37029615865626 0.0 -2.70581207324613 -9.180974427876361 0.0 -1.8099835957365478 -9.053445647330701 0.0 -1.150470814211166 -8.9735354745228 0.0 -0.67406254838706 -8.930724218473982 0.0 -0.3115455375953964 -8.4104319589112 0.0 -8.95570988722489 -7.93910675177101 0.0 -7.34604734642471 -7.55046988084299 0.0 -5.776354086096051 -7.250305386022659 0.0 -4.28446043369058 -7.032285646404481 0.0 -3.004137208763856 -6.882788248039119 0.0 -1.9986953124371951 -6.78552038425 0.0 -1.2621920989281248 -6.726054261470719 0.0 -0.7349382056366239 -6.694092358558881 0.0 -0.3379629936209472 -5.32174569782184 0.0 -9.544409822859299 -4.99460384748402 0.0 -7.85275517637072 -4.7181232862763895 0.0 -6.18571127099808 -4.50095673389712 0.0 -4.59385385904831 -4.3416883703984395 0.0 -3.2240029699408317 -4.23171015021666 0.0 -2.146606762102866 -4.15961941799205 0.0 -1.356596042452038 -4.115125024644 0.0 -0.79044331974018 -4.09097221733016 0.0 -0.3636918090054936 -2.869855949156768 0.0 -9.91456150700444 -2.676368699378624 0.0 -8.18367804718084 -2.507495886668209 0.0 -6.45943526329735 -2.37237699782878 0.0 -4.8035445309378 -2.272214306054623 0.0 -3.374261409987128 -2.20245902481848 0.0 -2.248524334848805 -2.156196437345956 0.0 -1.4223220158143899 -2.127213089772439 0.0 -0.829556277264 -2.111270478065125 0.0 -0.3819696833762229 -1.018651736088504 0.0 -10.09978900319346 -0.9404751649190399 0.0 -8.35823561408505 -0.8678654771518408 0.0 -6.6082150600989005 -0.8079648878071262 0.0 -4.91927637736206 -0.7628126468309491 0.0 -3.458037538347249 -0.730860259963653 0.0 -2.306013054058755 -0.709170373959276 0.0 -1.460019089041098 -0.695131890261651 0.0 -0.8524067180726069 -0.6871788507084928 0.0 -0.3928203613008378 0.47099499054375193 0.0 -10.131919050036279 0.450072118442504 0.0 -8.39820498279087 0.437984277856867 0.0 -6.6466740758887 0.4308507810811699 0.0 -4.95084757217115 0.426565419799224 0.0 -3.4817216434353724 0.424325020753 0.0 -2.323042948443084 0.42362228143834396 0.0 -1.471923043938861 0.42382154601075805 0.0 -0.8601270782230721 0.424281327552082 0.0 -0.3966504336682888 1.846466665296045 0.0 -10.03340571220559 1.7374199018659777 0.0 -8.32160604641718 1.649907803552547 0.0 -6.5888251427732305 1.5831330608839889 0.0 -4.90862843483298 1.5348938280730562 0.0 -3.452515485504085 1.5021427379682861 0.0 -2.3042560583616383 1.4812835448514021 0.0 -1.4607924044295262 1.4689391960445979 0.0 -0.8542024453717039 1.462555451629675 0.0 -0.39415288725276004 3.2351402226390493 0.0 -9.814937294641298 3.04483192620684 0.0 -8.14115027260711 2.888856070799423 0.0 -6.445965177610719 2.7685785451418883 0.0 -4.80163369802557 2.6811408858674755 0.0 -3.3769290287416047 2.621130039244184 0.0 -2.253919177793842 2.582220351139775 0.0 -1.4292509939848552 2.558585720041592 0.0 -0.8360875969756401 2.54598204753296 0.0 -0.3859324955946792 4.62726443198789 0.0 -9.484223866494629 4.361283682626399 0.0 -7.866195220972479 4.14288613161604 0.0 -6.22714584607856 3.974587178279176 0.0 -4.63729700506416 3.852167766499613 0.0 -3.2603992808863276 3.7679492409982083 0.0 -2.175696001619018 3.71296729883996 0.0 -1.3795805935787402 3.6792650956086197 0.0 -0.8071054239184999 3.6611338084330316 0.0 -0.37261209481926466 5.936026675351239 0.0 -9.04947670437304 5.60122436811928 0.0 -7.50571111497368 5.32716251888496 0.0 -5.940690950071759 5.1165311113470695 0.0 -4.42237397361308 4.9635501956376 0.0 -3.107857899579916 4.85823761162411 0.0 -2.072947933437536 4.789298124175921 0.0 -1.313934438708397 4.746863746335 0.0 -0.76851968627913 4.723925704866249 0.0 -0.35474815525690095 7.059081713539199 0.0 -8.5225560671498 6.664107343157441 0.0 -7.070573391265121 6.34119976889231 0.0 -5.595932478687799 6.0930147203288 0.0 -4.16429512950704 5.911952014082161 0.0 -2.9248179672482486 5.786862563344939 0.0 -1.949631497434618 5.70454526396472 0.0 -1.2351743549861978 5.653779220290939 0.0 -0.722249741621578 5.6259407935375005 0.0 -0.333285779876815 7.803693114289599 0.0 -7.9240158445147 7.3136641413331205 0.0 -6.578158976344 6.921871638481779 0.0 -5.20808008752462 6.62034094950564 0.0 -3.8763916229973194 6.38468096762972 0.0 -2.7287702374195755 6.211667782491079 0.0 -1.8264325971113882 6.09321597743735 0.0 -1.164278600170585 6.01267905416435 0.0 -0.68587000852998 5.96970542808884 0.0 -0.3188037904553464 7.970163758227091 0.0 -7.283875696035831 7.4273723446663285 0.0 -6.049077405698739 7.00077719744 0.0 -4.79293915792 6.672904234631581 0.0 -3.5719189673533838 6.418029872296899 0.0 -2.52541772510053 6.22635401751291 0.0 -1.703119750918147 6.093728367028899 0.0 -1.09461696455514 6.008185878539839 0.0 -0.648852548519936 5.95855523608 0.0 -0.3002589545604 7.90323698103338 0.0 -6.618387367095071 7.3534906214501 0.0 -5.5033047242047495 6.91812203146448 0.0 -4.36093962607384 6.571243151046651 0.0 -3.263942330018296 6.3130923391656495 0.0 -2.31310030852388 6.12899997998574 0.0 -1.56290149250994 5.99853055146081 0.0 -1.008839253960726 5.91183229348755 0.0 -0.60492397633094 5.870216948343231 0.0 -0.2918604857152925 7.737028539846039 0.0 -5.95794794733665 7.17634705664656 0.0 -4.95970454066204 6.7347716662927795 0.0 -3.9424224539313504 6.397828941191601 0.0 -2.9539081540579604 6.13763019737672 0.0 -2.099933568187279 5.96600480859698 0.0 -1.425257016432904 5.846478841762 0.0 -0.93019119711604 5.77164978973922 0.0 -0.568648409055595 5.72170016687256 0.0 -0.26592629592193756 7.49973406276818 0.0 -5.32226696831793 6.942230026092 0.0 -4.439737848492 6.509030950040401 0.0 -3.5337898725325374 6.180821664414321 0.0 -2.6542807652742084 5.94096014253762 0.0 -1.894261874266449 5.773285150641359 0.0 -1.304936049710034 5.6542089619496 0.0 -0.8680427335345999 5.587623848810879 0.0 -0.5259051146423069 5.5464648133224 0.0 -0.246563368726368 7.2519107844348 0.0 -4.7148452650233 6.698506414706579 0.0 -3.9382721592994736 6.2596398637134 0.0 -3.147248158561743 5.93231346938523 0.0 -2.3828979765461487 5.697007085848679 0.0 -1.7249767824116522 5.53776822100332 0.0 -1.2031319008167842 5.4424262902605 0.0 -0.8096233589764681 5.3752660047323095 0.0 -0.492521453161677 5.342435983868521 0.0 -0.2331646334058474 6.989160602060279 0.0 -4.16761368287822 6.417948873661821 0.0 -3.4756941035396722 5.9875900912978 0.0 -2.7974817907217235 5.6588099109288 0.0 -2.1409829065646298 5.429898183755039 0.0 -1.570397264953779 5.287661652152781 0.0 -1.120479850723719 5.1913522369505 0.0 -0.7510934335572902 5.13222252481266 0.0 -0.45850030468547903 5.10434899677347 0.0 -0.21756741930828638 6.70219273609481 0.0 -3.685174997090824 6.129414210280911 0.0 -3.066656499839021 5.6915405171699405 0.0 -2.485381135781684 5.367059835816001 0.0 -1.92235525308155 5.15223711803986 0.0 -1.439779696246743 5.01384859157896 0.0 -1.0320779969803522 4.92317662563761 0.0 -0.698003059438539 4.87117218601131 0.0 -0.43096713788177804 4.846519568192799 0.0 -0.2086381040428545 6.42724259720256 0.0 -3.255050685761886 5.8470445633287005 0.0 -2.708885389970316 5.399228378902051 0.0 -2.185478342483436 5.0814445094582394 0.0 -1.71943426524771 4.8742830367488 0.0 -1.30614119379792 4.739800513011421 0.0 -0.9505539758826661 4.6520673119281195 0.0 -0.650437373816097 4.603016998009981 0.0 -0.40483324040118296 4.57553202558288 0.0 -0.20115650215562403 6.19778970427904 0.0 -2.895715289820608 5.582401302547221 0.0 -2.369365808437695 5.13737231609528 0.0 -1.9156659051029998 4.8183117824476795 0.0 -1.5197181395616002 4.61292195265216 0.0 -1.178461912928469 4.473934592251299 0.0 -0.8677681423404949 4.38880898888982 0.0 -0.605070363677153 4.33635272613504 0.0 -0.38306115578518 4.3093965186492005 0.0 -0.18817944159190217 6.04191584005627 0.0 -2.6319139604720045 5.3694904074370395 0.0 -2.087989728093512 4.89996062821744 0.0 -1.6677149574341579 4.5876371507511 0.0 -1.336340195784089 4.37348267847823 0.0 -1.048717540624943 4.23446212196 0.0 -0.7927503033800002 4.1418365928047205 0.0 -0.560934845043051 4.08499702932171 0.0 -0.36069930189124244 4.0582013335500005 0.0 -0.1757448107422 5.98446394713684 0.0 -2.476672222095126 5.22597169247382 0.0 -1.8846520566900122 4.72150666715481 0.0 -1.467340579128861 4.38188830883133 0.0 -1.1596220580993508 4.16646228841914 0.0 -0.92289610441845 4.018015614945059 0.0 -0.7059092414970359 3.922424170073442 0.0 -0.513561294852276 3.8626145369230804 0.0 -0.3305070936170628 3.833326292244219 0.0 -0.16170127571598572 6.085317059608079 0.0 -2.472982961254632 5.190484703073031 0.0 -1.800822720564063 4.6141990978218 0.0 -1.33831750874496 4.23316448088264 0.0 -1.020584494491246 3.99159210902328 0.0 -0.7969373065437481 3.83540463113628 0.0 -0.617694982174344 3.732597995145858 0.0 -0.450380220804144 3.6718291934320795 0.0 -0.2954157687083232 3.6386792984147522 0.0 -0.14384084915113918 6.470623691796639 0.0 -2.6939393908104274 5.3374287798907 0.0 -1.8981098556577503 4.614740901528319 0.0 -1.3267886653402121 4.159466643703199 0.0 -0.9553821323662639 3.873058228915862 0.0 -0.7058085018645921 3.690933248523012 0.0 -0.5285787536545481 3.5776237806577154 0.0 -0.382058303550458 3.513239697655785 0.0 -0.2522942537138405 3.478063247974602 0.0 -0.122813336509451 7.147294514544921 0.0 -3.0658161279661464 5.83128906667548 0.0 -2.257153148662254 4.8566934879904995 0.0 -1.54894848789499 4.21122966551056 0.0 -1.0371947594229758 3.8346446884503553 0.0 -0.7084043643006849 3.606077677182288 0.0 -0.494846402414672 3.466823480721588 0.0 -0.3384283754028004 3.3838106670110983 0.0 -0.2135585054408537 3.34316147245301 0.0 -0.10401268565653549 7.95810973973488 0.0 -3.4519745559645303 6.736813434897261 0.0 -2.680757119195067 5.56468070504164 0.0 -1.9968892466588521 4.61714913671648 0.0 -1.413178983423844 4.0092613187167 0.0 -0.9195121514936351 3.6443610724746907 0.0 -0.5838901943772551 3.4394931038442524 0.0 -0.3636909103784684 3.330569176497836 0.0 -0.21326611836868523 3.274178047976742 0.0 -0.0992886533585492 8.40265280960763 0.0 -3.824613870255997 7.543575924969439 0.0 -3.1126504193802877 6.630871848628819 0.0 -2.4169372916157497 5.6924048529606 0.0 -1.826392637497947 4.832658729167149 0.0 -1.334722918412492 4.15746654127672 0.0 -0.9228948874833042 3.7158542426172176 0.0 -0.584072505079102 3.474959670895728 0.0 -0.3293757040506432 3.360765312016497 0.0 -0.1466572513274394 7.80286763394708 0.0 -3.53397419721186 7.26380002983852 0.0 -2.8962311306509143 6.67550017794807 0.0 -2.27358831577014 6.04197667129104 0.0 -1.715134988330775 5.451693273698099 0.0 -1.2191671686671097 4.9835298696918 0.0 -0.7939361328924059 4.66944665028708 0.0 -0.459645253450584 4.4951443182711 0.0 -0.207011747853846 7.00888526932358 0.0 -2.769075054770254 6.7190277640387395 0.0 -2.176213201413678 6.410656657673231 0.0 -1.5841601110121566 6.14812617500782 0.0 -1.03298566015337 5.963035843593359 0.0 -0.5932742399729319 5.85593164269036 0.0 -0.26490259665592236 6.594640792484641 0.0 -2.0121202310158317 6.53614896487308 0.0 -1.3159426143586799 6.489212424791401 0.0 -0.7501885820244 6.4585205736055205 0.0 -0.33188855019232916 -0.005971456549286411 0.0 -5.24050333101258e-10 -0.00596496374912409 0.0 5.601998540049961e-05 -0.0059453405486335105 0.0 0.00011391374684784361 -0.0059115181477879504 0.0 0.00017574118039352942 -0.00586153734653843 0.0 0.0002423327940583197 -0.00579227254480681 0.0 0.0003129463718236591 -0.00569842974246074 0.0 0.00038892764972319106 -0.005573050139326251 0.0 0.000472759171818979 -0.00886502382162559 0.0 9.360530234013251e-11 -0.00885660382141509 0.0 8.08825580220639e-05 -0.008831036220775901 0.0 0.000164466124111653 -0.00878658101966452 0.0 0.0002534260103356501 -0.00872017781800444 0.0 0.00034963366074084135 -0.00862676221566905 0.0 0.000453001931325048 -0.00849855101246377 0.0 0.000564479334111983 -0.00832549060813726 0.0 0.000687676657191916 -0.012853673521341829 0.0 -7.8113161952829e-11 -0.012842685121067121 0.0 0.00010824128270603199 -0.012809241120231022 0.0 0.0002199917854997945 -0.012751074318776852 0.0 0.0003386820764670517 -0.012663856316596401 0.0 0.00046746321168658 -0.012540669913516739 0.0 0.000607208735180218 -0.01237070750926768 0.0 0.0007589116589727911 -0.01213889590347239 0.0 0.000926950863173771 -0.01810471445261785 0.0 -2.930246353256157e-09 -0.01809054365226358 0.0 0.00014104711952617793 -0.01804743445118585 0.0 0.0002864262631606564 -0.017972717249317923 0.0 0.00044005401100135 -0.017861055246526373 0.0 0.000606833135170828 -0.0177035484425887 0.0 0.0007887122597178061 -0.01748561003714024 0.0 0.000988976104724402 -0.0171854604296365 0.0 0.001213513350337833 -0.024954777023869407 0.0 4.29662090741552e-09 -0.024937016223425392 0.0 0.00018216409255410223 -0.02488306982207673 0.0 0.0003693981652349539 -0.02478989581974738 0.0 0.0005660631341515781 -0.02465081581627038 0.0 0.000779521099488027 -0.02445461501136536 0.0 0.001013713065342826 -0.02418184940454622 0.0 0.001275063711876592 -0.023803634195090843 0.0 0.0015712645192816118 -0.03387355004683874 0.0 2.140839733520992e-09 -0.033852214446305345 0.0 0.00023413848185346192 -0.033787328844683204 0.0 0.00047424081185602003 -0.03367528404188209 0.0 0.000725293858132346 -0.033507750437693745 0.0 0.0009979954249498852 -0.03327054163176352 0.0 0.001299307072482676 -0.03293889842347244 0.0 0.0016388644009716093 -0.03247512961187823 0.0 0.002026517730662942 -0.0454869411371735 0.0 -3.947386178684652e-09 -0.045462677136566904 0.0 0.00029921378748034455 -0.04538853713471341 0.0 0.0006063003351575079 -0.045260265131506605 0.0 0.000925973743149343 -0.0450671331266783 0.0 0.001274409471860236 -0.0447913851197846 0.0 0.001662546801563669 -0.044401421110035505 0.0 0.0021032740125818492 -0.0438482970962074 0.0 0.0026094280652357 -0.060559749513993705 0.0 6.0948665523716614e-09 -0.0605344055133601 0.0 0.0003789862014746549 -0.0604563655114091 0.0 0.000768373539209338 -0.0603198055079951 0.0 0.0011747343893683591 -0.0601110575027764 0.0 0.0016197847604946182 -0.05980663349516581 0.0 0.002120587453014685 -0.0593659374841484 0.0 0.002693696187342403 -0.05872686146817151 0.0 0.003355186523879661 -0.080006642000166 0.0 -1.592721359818033e-09 -0.0799841499996037 0.0 0.000473220611830515 -0.0799131899978297 0.0 0.0009616745040418621 -0.0797849659946241 0.0 0.0014749406368735152 -0.07958141798953541 0.0 0.002042151291053781 -0.079270601981765 0.0 0.00268964846724121 -0.0788004059700101 0.0 0.0034379557659488923 -0.0780913259522831 0.0 0.004307369307684231 -0.104959442623986 0.0 1.468501156712528e-08 -0.10494579462364481 0.0 0.000579313054482826 -0.10490001862250041 0.0 0.001182057549551438 -0.1048089186202229 0.0 0.001824212325605307 -0.1046454106161352 0.0 0.002545232583630813 -0.10436701860917541 0.0 0.003383562044589049 -0.1039075385976884 0.0 0.00436388090909702 -0.1031646745791168 0.0 0.00551471293786782 -0.1368132274203306 0.0 7.522618588065461e-09 -0.1368150514203762 0.0 0.000694497537362438 -0.1368138594203464 0.0 0.001424124315603107 -0.1367924714198117 0.0 0.0022191388954784707 -0.1367139834178495 0.0 0.0031316039182900956 -0.1365241554131038 0.0 0.004213897305347431 -0.1361413514035337 0.0 0.005496484537412111 -0.1354329153858228 0.0 0.00702516217562905 -0.17725772043144292 0.0 1.486966477174161e-08 -0.1772824324320607 0.0 0.0008197741004943519 -0.1773485924337147 0.0 0.001691098722277467 -0.1774360804359019 0.0 0.00266374486659362 -0.1775034964375873 0.0 0.0038055718951392945 -0.1774833124370827 0.0 0.00519114972977874 -0.1772755084318876 0.0 0.00685410897135272 -0.1767073804176844 0.0 0.008875093021877322 -0.22822640570566002 0.0 -7.742542193563549e-08 -0.22828553370713822 0.0 0.000957560383939009 -0.2284551697113791 0.0 0.001986569409664234 -0.2287142817178569 0.0 0.003161671479041785 -0.2290182897254571 0.0 0.004568911314222781 -0.229286725732168 0.0 0.00632120975803024 -0.2294000217350004 0.0 0.00845013141125328 -0.2291321337283032 0.0 0.011100682277517052 -0.2918827112970676 0.0 1.153396188834904e-08 -0.291993007299825 0.0 0.001110261987756549 -0.29231887530797174 0.0 0.002313981817849544 -0.29283943932098583 0.0 0.003716039012900973 -0.2935118273377955 0.0 0.00542081013552025 -0.2942435593560888 0.0 0.0075888521897213 -0.2948956553723912 0.0 0.01028306585707664 -0.2951847873796195 0.0 0.013716973542924329 -0.3706924532673111 0.0 4.12781010319525e-09 -0.3708777532719436 0.0 0.0012835883120897072 -0.3714315492857885 0.0 0.002682142947053572 -0.3723389973084747 0.0 0.004337424508435611 -0.3735641333391031 0.0 0.00636371095909277 -0.37501228937530706 0.0 0.009002845025071121 -0.3765236934130921 0.0 0.01235853750896343 -0.3777578694439465 0.0 0.01673844641846115 -0.46749741168743497 0.0 5.99258334981458e-08 -0.46778853169471296 0.0 0.0014919067972976692 -0.46866637171665904 0.0 0.0031156065578901624 -0.47013025175325607 0.0 0.00504119092602977 -0.47216281180407 0.0 0.00742575978564399 -0.47467797186694893 0.0 0.010574397864359939 -0.477501131937528 0.0 0.014665374366634351 -0.480230332005758 0.0 0.020080470102011742 -0.5856389746409739 0.0 6.64215376605384e-08 -0.586074574651864 0.0 0.0017652378041309441 -0.5873988946849721 0.0 0.0036730547318263662 -0.589636774740919 0.0 0.00590351574758789 -0.5928096148202401 0.0 0.008678866216971651 -0.5968620549215511 0.0 0.012354055908851391 -0.601605375040134 0.0 0.017189065229726623 -0.606612655165316 0.0 0.023796918194922943 -0.729074258226856 0.0 3.8841290971032254e-08 -0.7297019382425479 0.0 0.0021714562942864064 -0.7316167382904181 0.0 0.0044773401119335 -0.7348922583723061 0.0 0.00708899377722484 -0.7396171384904281 0.0 0.01029732625743315 -0.745800698645017 0.0 0.014502817562570429 -0.7532595788314889 0.0 0.02010645170266128 -0.7615666590391661 0.0 0.02792296789807418 -0.9023193425579829 0.0 1.381546114538652e-07 -0.9031883425797079 0.0 0.0028312182707804553 -0.905852142646303 0.0 0.00575987814399695 -0.9104585027614622 0.0 0.00891648262291206 -0.917201742930043 0.0 0.012655193116379821 -0.926212623155315 0.0 0.017381118834527958 -0.9373684234342099 0.0 0.023794511394862772 -0.950283063757076 0.0 0.03274290921857271 -1.110089027752225 0.0 2.8908512722712803e-07 -1.1112491877812292 0.0 0.0039483015387075365 -1.114822587870564 0.0 0.007915832197895802 -1.121066228026655 0.0 0.01195645789891144 -1.1303396682584912 0.0 0.01645877841146945 -1.142977948574448 0.0 0.02179918774497968 -1.159015588975389 0.0 0.02894854312371356 -1.1781367494534178 0.0 0.0389768045744201 -1.3569545139238621 0.0 2.7381184684529607e-07 -1.358449033961225 0.0 0.00584560974614024 -1.3630862740771563 0.0 0.01155796508894912 -1.371274314281857 0.0 0.01710839602770989 -1.383621074590526 0.0 0.02281521457038035 -1.400767835019195 0.0 0.029115507927887682 -1.423060155576503 0.0 0.037005798125144936 -1.4503296362582399 0.0 0.0480825892020647 -1.647341761183543 0.0 4.42992131074803e-08 -1.649210401230259 0.0 0.008928928623223212 -1.6550384813759613 0.0 0.01756228563905713 -1.6654512816362812 0.0 0.02568950104223751 -1.6813950020348742 0.0 0.03357701963942547 -1.704009682600241 0.0 0.041473081036827 -1.734096563352413 0.0 0.050504173262604306 -1.771852724296317 0.0 0.0627338855683471 -1.9860704896517611 0.0 7.112480177812e-07 -1.9883396497084898 0.0 0.013824282745607062 -1.9954582898864561 0.0 0.02714378907859471 -2.008319130207977 0.0 0.0396036365900909 -2.028415330710382 0.0 0.0510713172767829 -2.0574753314368825 0.0 0.0620064615501615 -2.09704365242609 0.0 0.07329484983237121 -2.147965853699145 0.0 0.08735135818378391 -2.379285347570352 0.0 9.5568197340884e-07 -2.3819804291874003 0.0 0.0210061006036528 -2.390446554267072 0.0 0.0415032809019536 -2.4060023627005758 0.0 0.060789327355185 -2.430721036127874 0.0 0.0786063852683306 -2.4672029102408097 0.0 0.0951485708168376 -2.5179898996420347 0.0 0.1113031431295709 -2.5849655448505646 0.0 0.12860099480561288 -2.835138463240048 0.0 -6.0685289233324e-07 -2.8382285488021917 0.0 0.03163561254400008 -2.848055806491224 0.0 0.0624231563614792 -2.866434279572416 0.0 0.09200130160204478 -2.896257093253384 0.0 0.1197953116311728 -2.941060013898496 0.0 0.14610812699415518 -3.0048652780195284 0.0 0.1713555067361196 -3.090746395138625 0.0 0.1959210833513425 -3.3628626595386115 0.0 -1.572886490164486e-07 -3.3663813537892664 0.0 0.0464169839880238 -3.3778099867413265 0.0 0.091341323080316 -3.3991186965112155 0.0 0.135250487474844 -3.4343103361867895 0.0 0.17860328315494498 -3.488515586794337 0.0 0.2210710267538383 -3.5670671515076355 0.0 0.262589404094682 -3.674477694823423 0.0 0.301947674945439 -3.970817494853186 0.0 -6.9773936226405e-07 -3.9749595409329355 0.0 0.064297419300832 -3.9875847004484477 0.0 0.1293133802936384 -4.01201843499783 0.0 0.1942135057325879 -4.0532722921526 0.0 0.259726529425495 -4.11795501173985 0.0 0.32601418686748 -4.21319558726208 0.0 0.3920926633886464 -4.344417605284081 0.0 0.45887607052455004 -4.662660611953201 0.0 2.686429550079612e-06 -4.66671878087064 0.0 0.0873731294050836 -4.680763191306539 0.0 0.1777929518471691 -4.708309949439601 0.0 0.2710536256385412 -4.75633904324166 0.0 0.3640022983577052 -4.83255770253009 0.0 0.462096595067877 -4.94701500128382 0.0 0.56695372621938 -5.1058788320295 0.0 0.674327576075868 -5.4281675561204 0.0 1.012021923968055e-06 -5.4327099206248795 0.0 0.1174471783655632 -5.44775751329471 0.0 0.23806744828602736 -5.479581220009739 0.0 0.3595130144069274 -5.534426695071599 0.0 0.49368197567336003 -5.62348413337392 0.0 0.6411204922121481 -5.757623057522701 0.0 0.79946197275581 -5.9464414562891195 0.0 0.9615054003170743 -6.234143472108481 0.0 2.295737894259588e-06 -6.23947412301309 0.0 0.1500635484786681 -6.25818171667716 0.0 0.29973347685390245 -6.293244603037229 0.0 0.46729374934194895 -6.356044500758101 0.0 0.65267354956863 -6.45936905278755 0.0 0.8548646543472689 -6.615770358781799 0.0 1.085576134612368 -6.837601598782739 0.0 1.330415695912095 -7.02742620097683 0.0 1.278497814904068e-06 -7.0326737231364005 0.0 0.1765335561497906 -7.054545996612661 0.0 0.3695714197478474 -7.09702905385695 0.0 0.5749558469661501 -7.1688723334166795 0.0 0.8196111329312639 -7.2899410179104 0.0 1.0960847605103798 -7.476130882737681 0.0 1.406213179829828 -7.730326447509501 0.0 1.74732134238632 -7.749699880066319 0.0 -1.407119721798108e-06 -7.757656258336919 0.0 0.2051480223270108 -7.785203573321401 0.0 0.4301006939392771 -7.83965599137 0.0 0.68131484651475 -7.93083434445834 0.0 0.9739604232562561 -8.0767977536925 0.0 1.3370061058829998 -8.289651390834239 0.0 1.7789720446025161 -8.573133729389761 0.0 2.27779923451536 -8.32530676794838 0.0 6.09452221349188e-06 -8.343521031748441 0.0 0.2293354992283864 -8.384127882877479 0.0 0.4802328376075659 -8.45296426143631 0.0 0.784573240243308 -8.5755732870882 0.0 1.149400442979765 -8.7414677529125 0.0 1.625797651045465 -8.98014109711812 0.0 2.210711900617071 -9.312496094697199 0.0 2.8662380255525997 -8.81797234119516 0.0 1.345754587367014e-05 -8.8307427607168 0.0 0.2666501993000322 -8.880473063373941 0.0 0.5523958882193989 -8.973336523574721 0.0 0.90998202478572 -9.117481303914952 0.0 1.3778172210227821 -9.322364574112799 0.0 1.9773452010618842 -9.60252945727548 0.0 2.711430024776682 -9.954441666806119 0.0 3.5611679375194334 -9.085788820685199 0.0 -1.19221633685848e-05 -9.097827431561818 0.0 0.2986736127893819 -9.15252357407504 0.0 0.632811027986002 -9.2515028739119 0.0 1.054080833987461 -9.40055550709724 0.0 1.616754354056108 -9.616204747987599 0.0 2.354643006938768 -9.896002851188959 0.0 3.2941198077059197 -10.26530836241394 0.0 4.38346510919394 -8.91755078974704 0.0 2.8281185634116396e-06 -8.93071898405232 0.0 0.3115452718478352 -8.97353185069188 0.0 0.6740631926236681 -9.05344725792234 0.0 1.15047178056615 -9.18096879080604 0.0 1.809980495347872 -9.37029172953057 0.0 2.705817267402621 -9.63400917343494 0.0 3.847464094042296 -9.988964707489322 0.0 5.1756837646177205 -6.68401920152736 0.0 8.20789142396608e-06 -6.694093969684 0.0 0.3379651766954848 -6.726049830876641 0.0 0.734930995851712 -6.78552038425 0.0 1.262192018371875 -6.882778984068991 0.0 1.998694909655885 -7.032271951840961 0.0 3.004142606033008 -7.25029853873988 0.0 4.28445721143986 -7.550466658592031 0.0 5.77635650278427 -4.083317864160571 0.0 -5.14641678049386e-06 -4.090976648502839 0.0 0.36366904889127355 -4.11512059347165 0.0 0.79045733835816 -4.1596178066568905 0.0 1.3565913292966951 -4.23170773321392 0.0 2.1466048285006742 -4.3416887732323195 0.0 3.2239975719668394 -4.50095673389712 0.0 4.59386352706215 -4.71812127210684 0.0 6.185715702171089 -2.106162906406378 0.0 -7.68792656010953e-06 -2.1112651201113137 0.0 0.38195465290579517 -2.127213089772439 0.0 0.829552571010236 -2.156193375658064 0.0 1.422319316694801 -2.202447100349848 0.0 2.248518171187654 -2.2722099149496198 0.0 3.374253312628361 -2.3723713981623495 0.0 4.8035505737432995 -2.507496853517161 0.0 6.4594384861271905 -0.6845896525608001 0.0 5.254655033166181e-06 -0.6871784075614259 0.0 0.3928074898928463 -0.695134952005023 0.0 0.8524110286849859 -0.709156193254188 0.0 1.460026300251924 -0.730856956503699 0.0 2.306013819494598 -0.7628127676892581 0.0 3.45803943179409 -0.8079640015127938 0.0 4.9192796002505395 -0.867871802070954 0.0 6.608215865821079 0.42449962136916797 0.0 1.06379494311806e-06 0.42428587989788 0.0 0.3966759106902592 0.42382718608687814 0.0 0.8601324362953863 0.42362534319417994 0.0 1.471925138824433 0.42432344958917206 0.0 2.323042384435556 0.426569891573196 0.0 3.481710887006088 0.43084280440268 0.0 4.950841932095449 0.4379909653771889 0.0 6.64668696749414 1.4605811568528502 0.0 8.62761902583575e-06 1.4625527524693502 0.0 0.3941604489302675 1.4689372623176538 0.0 0.8541990613495518 1.481285760580192 0.0 1.460797117888952 1.50213822593875 0.0 2.3042512240442776 1.534897453811076 0.0 3.4525227772661014 1.583128709998041 0.0 4.90863085199184 1.6499087704162347 0.0 6.58883158853115 2.5420437115516865 0.0 1.989885670005622e-06 2.545986841013848 0.0 0.3859252932889416 2.5585864853872797 0.0 0.8360851800945198 2.5822289713497453 0.0 1.429251960737375 2.621133100627392 0.0 2.253917848509028 2.6811308960914357 0.0 3.37693865598545 2.768576047697506 0.0 4.80162040517644 2.8888547012331487 0.0 6.44597524795097 3.6554163771729598 0.0 -8.809823730908431e-06 3.661134211155602 0.0 0.3725970934035322 3.679252409846719 0.0 0.80710550446302 3.71297305777314 0.0 1.3795763649914399 3.7679500061712616 0.0 2.1756988609499044 3.8521658334309885 0.0 3.2604015764053176 3.9745837148640426 0.0 4.6372982132322305 4.14289579695988 0.0 6.22714705424654 4.71667104544272 0.0 -3.184673200741732e-07 4.723932146340649 0.0 0.35474671397700397 4.74685690226794 0.0 0.768518559021026 4.7893013449136 0.0 1.313935606225806 4.85824163754621 0.0 2.072947168512337 4.9635421437952 0.0 3.107861522908996 5.11653392949254 0.0 4.42237598657413 5.32715366185568 0.0 5.9406953785864 5.617116727372751 0.0 -3.619267299637025e-06 5.625948037264 0.0 0.333288564687225 5.6537868664461195 0.0 0.722255697574034 5.70455371497834 0.0 1.2351788621934618 5.7868557220482 0.0 1.949632463264746 5.911959660236769 0.0 2.924816639231922 6.093011500894559 0.0 4.16428788578 6.341190110588869 0.0 5.59592684467746 5.96025206134478 0.0 -2.888298806987678e-07 5.969692958584051 0.0 0.31879786542936067 6.0126706070792 0.0 0.6858769673191751 6.09321597743735 0.0 1.1642754224576002 6.21166979370168 0.0 1.8264314306092397 6.384697057314519 0.0 2.728771001679604 6.620345776411079 0.0 3.876389692235143 6.9218744541772494 0.0 5.20809416600197 5.942455969979119 0.0 5.449027953724e-06 5.958561266680001 0.0 0.30027141378 6.00817864182128 0.0 0.648854116475624 6.0937323874284 0.0 1.0946124617077 6.226359646072491 0.0 1.7031191880621892 6.4180278620971505 0.0 2.525416398368695 6.672896595872151 0.0 3.571908594722158 7.00077759948 0.0 4.79294157016 5.8532684688128 0.0 1.20756973989008e-05 5.87021051904099 0.0 0.2918626395315429 5.9118302843303 0.0 0.604919435635555 5.99853336428054 0.0 1.008844035754267 6.128995158009061 0.0 1.562897675111735 6.3130847043681 0.0 2.3130978171688903 6.571249982180279 0.0 3.263941164707265 6.918118414981161 0.0 4.360942438894201 5.704194201854641 0.0 1.7727142264905038e-06 5.72170538799262 0.0 0.26592048039744 5.771642962121191 0.0 0.56865021636625 5.84647803851288 0.0 0.9301886267188562 5.96600360372312 0.0 1.42525673529567 6.1376305990013105 0.0 2.099931479739411 6.39782211357204 0.0 2.953909881044084 6.734764035423289 0.0 3.9424209277574516 5.532719182586641 0.0 -2.473546347748203e-06 5.5464648133224 0.0 0.246552839311896 5.58761220744615 0.0 0.525899253817305 5.654202137701651 0.0 0.86803735442151 5.77328675634684 0.0 1.3049353672852049 5.94096375537495 0.0 1.894257860002749 6.18081765015112 0.0 2.654291322786424 6.509024928646051 0.0 3.5337860589827823 5.3350154145054605 0.0 3.749107131141843e-06 5.34243638511051 0.0 0.2331641559278793 5.375264399764349 0.0 0.492520730926095 5.44241505548478 0.0 0.8096339517650041 5.53777102969746 0.0 1.203131981065188 5.69700227094516 0.0 1.724980433713488 5.9323118644172705 0.0 2.382900464246487 6.25964548110126 0.0 3.1472455103646086 5.09838582938056 0.0 -6.81465416198088e-06 5.104334156988481 0.0 0.2175723685771182 5.13222533233955 0.0 0.45849853995429096 5.1913586541553 0.0 0.7510939950627099 5.28765964677643 0.0 1.1204827384656628 5.4298941730023405 0.0 1.5703974654914141 5.6588135206065004 0.0 2.14098021936012 5.98758447624444 0.0 2.7974863629794595 4.834946406125 0.0 2.488494027759696e-07 4.84651355426575 0.0 0.2086375547708506 4.87118060551044 0.0 0.43096453184633304 4.92317261635231 0.0 0.6980040216670109 5.0138481906504 0.0 1.032078678558904 5.15223150504044 0.0 1.4397812197751572 5.367063845101 0.0 1.9223564157742001 5.6915453283123005 0.0 2.4853847842313073 4.56736601732697 0.0 -2.7538175157911554e-06 4.57553162478042 0.0 0.2011614480579804 4.6030202044299005 0.0 0.40483568529637204 4.6520617006941 0.0 0.6504369730136669 4.73978848893762 0.0 0.950556821580132 4.8742866439704 0.0 1.3061438390937599 5.08144130303832 0.0 1.719438633994851 5.39922677569209 0.0 2.185483112033067 4.3021038392552 0.0 -1.623323666566844e-07 4.30940092631257 0.0 0.18818092016261448 4.33636074006944 0.0 0.3830628266905024 4.388804981923119 0.0 0.605071165070493 4.47393499294797 0.0 0.86776794199216 4.61292155195555 0.0 1.178460189933046 4.81831619011072 0.0 1.519715094267136 5.137371114005121 0.0 1.9156689904677444 4.05079295008311 0.0 1.6588538560973938e-06 4.05819973111 0.0 0.1757456560293 4.08499702932171 0.0 0.36070302756396344 4.14183779463481 0.0 0.560935646263111 4.23445891708 0.0 0.792750503685 4.3734838803081395 0.0 1.048718862637844 4.5876367501411295 0.0 1.336338393039224 4.89995542028705 0.0 1.6677153179831847 3.82366140635766 0.0 -4.59103669338066e-06 3.8333312589453032 0.0 0.1617007510080486 3.862620264651372 0.0 0.33050394536920435 3.922418041804251 0.0 0.5135617755008399 4.01802002088924 0.0 0.705910002523758 4.16646629382294 0.0 0.9228955036078799 4.3818943169383795 0.0 1.159621377180552 4.72150947093768 0.0 1.467341820804132 3.626210603616534 0.0 1.7140191303308044e-06 3.6386747328761766 0.0 0.14384245910421598 3.6718288329948234 0.0 0.2954189685901848 3.7325987560688403 0.0 0.45038054119276805 3.8354050316221198 0.0 0.617696183631864 3.991589826254334 0.0 0.796936145134986 4.233166483311991 0.0 1.02058537556016 4.6142002992795 0.0 1.3383174286477801 3.467701363688282 0.0 1.399877072125098e-06 3.478063247974602 0.0 0.1228162717626516 3.5132347321520445 0.0 0.25229155872673 3.5776230198144 0.0 0.3820588281319015 3.690933248523012 0.0 0.5285786735657719 3.87305478509901 0.0 0.70580846182021 4.159467444590959 0.0 0.9553792491703279 4.6147461072987594 0.0 1.32678990671624 3.3314631172939024 0.0 -1.6830028810079523e-07 3.34316259360759 0.0 0.104012529495719 3.3838121885778003 0.0 0.21355786077706682 3.466826884226818 0.0 0.3384281151347534 3.6060772767699683 0.0 0.49484548146633606 3.834642406099959 0.0 0.70840544541403 4.211228063861279 0.0 1.0371945592168157 4.8566926871658 0.0 1.548950129585625 3.2565764737356764 0.0 -6.22897583700756e-07 3.274180730583176 0.0 0.0992854302269382 3.330569176497836 0.0 0.21326652676554678 3.4394919427159203 0.0 0.3636912467052956 3.6443645158205205 0.0 0.5838890732879151 4.0092629202729 0.0 0.91951291223283 4.6171487363274 0.0 1.413178502956948 5.56468190620888 0.0 1.996888125569428 3.327870365978254 0.0 -1.6912245168751e-07 3.360766112761037 0.0 0.1466574795396333 3.4749600712679674 0.0 0.3293747031200432 3.7158542426172176 0.0 0.58407314567459 4.15746814276568 0.0 0.9228948874833042 4.832658729167149 0.0 1.3347226381519448 5.692404452588329 0.0 1.8263914764183637 6.63087264937336 0.0 2.416939213402646 4.44030769421526 0.0 6.106824190740841e-07 4.49514071502795 0.0 0.20701177187546696 4.66944705064752 0.0 0.459645934063332 4.983533873295601 0.0 0.793935732532026 5.451696476580899 0.0 1.219167448919355 6.04197667129104 0.0 1.7151347881505696 6.67550338083135 0.0 2.2735886760945094 7.26380002983852 0.0 2.8962311306509143 5.821064211699 0.0 3.360373666766105e-07 5.855931242338239 0.0 0.2649034333918532 5.96303504288912 0.0 0.5932742399729319 6.14812617500782 0.0 1.0329848994843989 6.4106558569690515 0.0 1.5841601110121566 6.7190277640387395 0.0 2.176212841096716 7.00888807178905 0.0 2.769074454241939 6.447935894793299 0.0 9.648413508368699e-08 6.45851977291248 0.0 0.33188855019232916 6.4892116240983 0.0 0.7501891825442251 6.536152167645239 0.0 1.315942894601244 6.59464159317768 0.0 2.012120431189092 -0.0054089901352247505 0.0 0.000562498534062463 -0.0051948241298706 0.0 0.0006648482966212071 -0.0049218761230469 0.0 0.0007747166993679171 -0.0045791521144788 0.0 0.0008873248621831211 -0.00415860090396502 0.0 0.0009891018647275461 -0.003643554531088861 0.0 0.0010751183468779581 -0.00303383887584597 0.0 0.001121394188034854 -0.008096377802409441 0.0 0.0008206917005172921 -0.00779351459483786 0.0 0.0009704692642617309 -0.00740126258503156 0.0 0.001128703468217586 -0.006899014172475351 0.0 0.001290792992269824 -0.00627267535681688 0.0 0.001426603875665096 -0.0054872793371819805 0.0 0.001531137358278433 -0.00452070251301756 0.0 0.0015765257594131431 -0.003374930564373262 0.0 0.0016343325608583132 -0.011827913095697822 0.0 0.001109409907735247 -0.0114111722852793 0.0 0.0013139033128475822 -0.010863268671581711 0.0 0.0015288541582213532 -0.01015187665379691 0.0 0.0017461736036543391 -0.00925232783130819 0.0 0.001928072488201811 -0.00811262740281568 0.0 0.002074734731868367 -0.00671295696782392 0.0 0.002153462973836573 -0.005043473326086831 0.0 0.002179707454492685 -0.016777778019444443 0.0 0.001458829196470729 -0.01622457560561438 0.0 0.0017331556033288891 -0.015487501587187532 0.0 0.002021436090535901 -0.014518401562960031 0.0 0.002312937417823434 -0.01327942193198554 0.0 0.0025587946639698653 -0.011693820692345511 0.0 0.0027642267491056675 -0.00973246584331164 0.0 0.002870295471757385 -0.007345802583645061 0.0 0.002905011232625279 -0.02328445978211148 0.0 0.0018980488474512201 -0.02257310496432761 0.0 0.002261425976535648 -0.021612968140324193 0.0 0.002644117226102929 -0.020334080508352 0.0 0.0030311149557778723 -0.01867878646696965 0.0 0.0033587311239682764 -0.01653081081327026 0.0 0.003643252051081299 -0.01383365594584139 0.0 0.0038061191351529762 -0.01049104226227605 0.0 0.003890190737254766 -0.03183099999577498 0.0 0.0024579868214496692 -0.030939237173480908 0.0 0.0029336633933415832 -0.029720110343002742 0.0 0.003435117085877925 -0.02807418190185453 0.0 0.003941841138546026 -0.02591222904780571 0.0 0.004375594509389861 -0.02306103617652589 0.0 0.004770439319260981 -0.01941706728542667 0.0 0.0050319389257984706 -0.014808527170213172 0.0 0.0052348341308708505 -0.0430678770766969 0.0 0.0031765651594141274 -0.0419725890493147 0.0 0.0037947651748691273 -0.0404517450112936 0.0 0.004446214511155361 -0.03836964455924109 0.0 0.00510505052762626 -0.035592902489822546 0.0 0.00568263774206594 -0.03187650519691261 0.0 0.006231584555789611 -0.02703444707586116 0.0 0.00666197096654927 -0.02079413571985338 0.0 0.00705445817636145 -0.0578047454451186 0.0 0.004101400102535 -0.056485509412137695 0.0 0.004909114922727871 -0.0546175533654388 0.0 0.00576464294411607 -0.052025017300625406 0.0 0.00662445536561138 -0.0485225852130646 0.0 0.007397140184928501 -0.043790305094757606 0.0 0.008147485003687121 -0.03748638133715951 0.0 0.008838571820964291 -0.029146439528660972 0.0 0.00956171023904275 -0.0770339259258481 0.0 0.0052953813323845305 -0.0754828778870719 0.0 0.00636265895906647 -0.07323464983086621 0.0 0.00750459378761484 -0.0700577857514446 0.0 0.00866049541651238 -0.06572005364300129 0.0 0.009694400642360011 -0.0597924134948103 0.0 0.01070928306773207 -0.0517313092932827 0.0 0.011791369494784229 -0.0408235130205878 0.0 0.01297837672445941 -0.10199802254995051 0.0 0.0068300561707514 -0.10022237450555929 0.0 0.00826849060671226 -0.0975832064395801 0.0 0.00980544264513606 -0.09377591834439791 0.0 0.011363137084078422 -0.0884846462121161 0.0 0.012761447119036172 -0.0811881820297045 0.0 0.0141285363532134 -0.0711860297796507 0.0 0.015619305190482621 -0.057341945433548605 0.0 0.01739898363497458 -0.1342227353555683 0.0 0.00877961741949043 -0.13226099530652483 0.0 0.01074061506851537 -0.12925315123132872 0.0 0.012809768720244212 -0.1247718351192958 0.0 0.014961387574034679 -0.11846203096155071 0.0 0.01681743922043597 -0.10960438674010961 0.0 0.018723050068076244 -0.09759805843995141 0.0 0.02061809371545233 -0.0804906980122674 0.0 0.02317483777937093 -0.1755592163889803 0.0 0.011210310680257761 -0.1734965603374139 0.0 0.0138861763471544 -0.1701768922544222 0.0 0.016733800418345 -0.16508794412719852 0.0 0.019747025293675623 -0.1577592879439821 0.0 0.02255205856380145 -0.1472609916815247 0.0 0.02590282024757049 -0.1328940193223504 0.0 0.030056584751414598 -0.11118149877953741 0.0 0.037015617725390415 -0.22821093370527318 0.0 0.01420075195501879 -0.22621031365525773 0.0 0.017853056446326402 -0.22272246556806152 0.0 0.02192890254822255 -0.21722636943065912 0.0 0.02640246226006154 -0.209123925228098 0.0 0.03139256918481421 -0.1972568089314201 0.0 0.03861257536531436 -0.1811737445293435 0.0 0.049376841234421 -0.1569151319228782 0.0 0.0668630776715769 -0.2947737033693424 0.0 0.0178185244454631 -0.293121367328034 0.0 0.022825481370637023 -0.2897723512443086 0.0 0.02874672791866818 -0.2842260431056509 0.0 0.03571247529281186 -0.2759940948998522 0.0 0.0442044771051119 -0.2638807825970194 0.0 0.0573286614332165 -0.24754479418861972 0.0 0.07772531794313291 -0.22304413757610334 0.0 0.10633781065844519 -0.3782891134572276 0.0 0.02208322175208053 -0.37744561343614014 0.0 0.0288554287213857 -0.37471834136795834 0.0 0.0372355769308894 -0.36963218124080427 0.0 0.0477597691939942 -0.36207462105186533 0.0 0.0610987935274698 -0.35079704076992585 0.0 0.0814811380370284 -0.3355603763890092 0.0 0.11259131881478292 -0.3120230038005749 0.0 0.15252751581318783 -0.48235517205887896 0.0 0.026995656674891403 -0.482998332074958 0.0 0.03606299530157486 -0.481548372038709 0.0 0.0473345571833639 -0.47758929193973204 0.0 0.0622808695570217 -0.471403891785097 0.0 0.08172917404322931 -0.461720771543019 0.0 0.11041950276048751 -0.4482574512064361 0.0 0.1525991838149795 -0.4263243706581089 0.0 0.2044295371107383 -0.611224895280622 0.0 0.03253848921346221 -0.614304735357618 0.0 0.0440688251017206 -0.6151278153781949 0.0 0.0590564574764114 -0.6130828153270701 0.0 0.0795340539883513 -0.608920495223012 0.0 0.1057659186441479 -0.6011337350283431 0.0 0.1439530395988259 -0.5896760547419011 0.0 0.1989761529744037 -0.5691197342279931 0.0 0.26548622263715543 -0.769851459246286 0.0 0.03865555016638874 -0.7767487394187181 0.0 0.053005541325138496 -0.781207979530199 0.0 0.07235921780898041 -0.7822726595568161 0.0 0.0990945784773644 -0.7807654595191361 0.0 0.1330472153261803 -0.775384179384604 0.0 0.18301212057530292 -0.7658202991455069 0.0 0.2536813103420326 -0.7451145386278631 0.0 0.339410168485254 -0.963735784093394 0.0 0.045446121136153005 -0.9763815044095371 0.0 0.0628463455711586 -0.9864050246601251 0.0 0.0870642581766064 -0.9921669448041731 0.0 0.12058998701474961 -0.995140104878502 0.0 0.1646411801160294 -0.992961824824045 0.0 0.2288610977215273 -0.9854634646365861 0.0 0.3196621239915529 -0.9636177440904431 0.0 0.42893285072332105 -1.198897789972444 0.0 0.0533993813349845 -1.219683590492089 0.0 0.0739934698498367 -1.2379881109497022 0.0 0.10338957458473931 -1.251326511283162 0.0 0.14444816361120402 -1.261101191527529 0.0 0.2006759450168985 -1.264170671604266 0.0 0.2830144230753604 -1.259876751496918 0.0 0.3991211739780291 -1.237117990927949 0.0 0.5391581334789531 -1.481035557025888 0.0 0.06401253360031331 -1.5132361978309041 0.0 0.0874667421866685 -1.543619118590477 0.0 0.1220738670518466 -1.568467959211698 0.0 0.1715939682898491 -1.5890499597262482 0.0 0.2415827820395694 -1.600939800023494 0.0 0.34570074864251854 -1.602272080056801 0.0 0.494842292371057 -1.579925279498131 0.0 0.6736444568411111 -1.815849725396242 0.0 0.0797132979928324 -1.863673046591825 0.0 0.10561893064047319 -1.9112306877807659 0.0 0.1446259756156493 -1.953361568834038 0.0 0.20292983707324583 -1.9907827697695681 0.0 0.2870075791751893 -2.01715285042882 0.0 0.41742397043559903 -2.0282454107061345 0.0 0.6072047351801181 -2.008824570220613 0.0 0.8366242609156059 -2.209242295231056 0.0 0.10529737863243441 -2.277959296948981 0.0 0.1329337873233446 -2.349344298733606 0.0 0.1751152083778801 -2.417026380425658 0.0 0.23938708998467711 -2.479619461990485 0.0 0.3381933524548336 -2.5292038632300953 0.0 0.4960089724002239 -2.557029983925748 0.0 0.7386589384664731 -2.545004143625102 0.0 1.032692345817308 -2.667872520722552 0.0 0.1482899609739232 -2.7635917054231416 0.0 0.1767473473043789 -2.867086240250712 0.0 0.2212597967557984 -2.9707651824580403 0.0 0.2866135399680208 -3.070019251759261 0.0 0.3979568409272318 -3.155707533423384 0.0 0.5849195109514961 -3.2117519670500236 0.0 0.88822713293596 -3.2157674482770244 0.0 1.265365784316688 -3.19963919931225 0.0 0.22092312223007748 -3.3286157211427754 0.0 0.25015749304442003 -3.47374637061174 0.0 0.29286673929944995 -3.6255413659627123 0.0 0.3552131833825792 -3.77648851443145 0.0 0.474227018040195 -3.91714982464215 0.0 0.6847468838980001 -4.019547333707189 0.0 1.054292858652044 -4.057173302898799 0.0 1.5394064909266958 -3.8131334431279003 0.0 0.3387590999687984 -3.981011085882684 0.0 0.37199067875798913 -4.17648700146984 0.0 0.41077075280725206 -4.39058258178744 0.0 0.463662597825916 -4.61386514004103 0.0 0.5791850222513121 -4.8326272096168 0.0 0.7996298185158941 -5.01103909462614 0.0 1.235484163690598 -5.11587593552601 0.0 1.85863338803835 -4.5156285744736 0.0 0.521061075818688 -4.72714783440638 0.0 0.5689457267808121 -4.97984897368384 0.0 0.6075145240864641 -5.27031783636858 0.0 0.6423808582300481 -5.5885877532123 0.0 0.737859313255318 -5.915866925926949 0.0 0.9434790345687629 -6.215578747544299 0.0 1.43795631708606 -6.441173408024879 0.0 2.217042685501868 -5.3136172859269495 0.0 0.7742829077566828 -5.564267010951089 0.0 0.869235562666926 -5.873740855059871 0.0 0.93169682804406 -6.256963392900749 0.0 0.950474919380625 -6.690833737467749 0.0 1.00375948456875 -7.173629105193 0.0 1.153514263960656 -7.652019849876721 0.0 1.6736066242110361 -8.082045390873871 0.0 2.6249409116562443 -6.191831930196881 0.0 1.123827509717302 -6.4881120011685205 0.0 1.2770695459338022 -6.84892274062604 0.0 1.3997279799970421 -7.26596753150688 0.0 1.506307810051079 -7.85151447679235 0.0 1.4923433662723948 -8.56978990412464 0.0 1.4937660461069562 -9.30672008333795 0.0 1.9821333129793652 -10.0486292113571 0.0 3.085395970186075 -7.12635017274234 0.0 1.5719822919900086 -7.474084481108401 0.0 1.802432291142996 -7.890396246609961 0.0 1.9975476772679521 -8.37715856855679 0.0 2.173245865653357 -8.9801185313166 0.0 2.233710037344672 -9.896009136410761 0.0 2.1941139278654522 -11.09215452307617 0.0 2.417933556477594 -12.281025646319161 0.0 3.63883583135478 -8.07138439257082 0.0 2.0938152784033157 -8.471565375080989 0.0 2.4504668625759827 -8.94700012507908 0.0 2.7551556504290002 -9.51796270119752 0.0 2.98384204110394 -10.21633719124028 0.0 3.1272076607782258 -11.15395021493544 0.0 3.0956149424275243 -12.745437489777519 0.0 3.2242747931319835 -14.57391632550712 0.0 4.27774459567656 -8.96105396588772 0.0 2.780429622189324 -9.42440164991793 0.0 3.24730232631747 -9.961711510275 0.0 3.6879745722435 -10.60997999997285 0.0 4.04046167009928 -11.45388016963779 0.0 4.186448928104039 -12.649452045033662 0.0 4.1505022103184 -14.39299136508492 0.0 4.18637549282028 -16.773060828352502 0.0 4.9628586771225 -9.7317237465424 0.0 3.5336206175103673 -10.23516251965572 0.0 4.1807702061060406 -10.83043818992936 0.0 4.7903067237936 -11.5348936520512 0.0 5.38014895079264 -12.43180640711104 0.0 5.946059220456481 -13.70821078933712 0.0 6.2456317609697605 -15.81077956709568 0.0 5.713787744493761 -18.49301308033184 0.0 5.87250052144755 -10.3916258639648 0.0 4.4515272324432 -10.9196413097408 0.0 5.343737452726399 -11.52865831479821 0.0 6.31492907885042 -12.236508577895261 0.0 7.47207714701778 -13.06172823467488 0.0 8.805674088197 -14.223218580553649 0.0 9.6159861827877 -16.42563744838961 0.0 8.02997653621394 -19.50056222396751 0.0 6.952155574815221 -10.723837845621961 0.0 5.540889490485441 -11.290420858230018 0.0 6.728491618125769 -11.95085098087528 0.0 8.085937774446968 -12.644932355704478 0.0 9.8682768220595 -13.40077173042892 0.0 12.061184852102759 -14.343876766038601 0.0 13.36102708094002 -16.30706074270168 0.0 10.55609536818396 -18.88026359693356 0.0 8.07027375385511 -10.440553604603851 0.0 6.58048324873611 -10.995164501424002 0.0 8.028269221992 -11.6169481588422 0.0 9.736818878349538 -12.240002865701399 0.0 11.97478215312975 -12.80107261319103 0.0 14.70242876114061 -13.408384270791721 0.0 16.19179594313085 -14.669996244225 0.0 12.45429823447614 -15.57222472965618 0.0 9.04984914183336 -7.939103529519569 0.0 7.34604654086185 -8.41043437560014 0.0 8.95569780378019 -8.938014594380801 0.0 10.839665940186238 -9.46852500643104 0.0 13.26199816279096 -9.95581872566925 0.0 16.12376469266675 -10.380132961010121 0.0 17.5173660554424 -10.758932850806138 0.0 13.17789313164107 -11.02022932516807 0.0 9.698950750343469 -4.994611098495479 0.0 7.8527406743478 -5.3217416694812405 0.0 9.544407808689 -5.679016486179539 0.0 11.48622326795286 -6.03304019363814 0.0 13.922507476824062 -6.3461837623253405 0.0 16.714089529620303 -6.590688506214789 0.0 17.940319838237183 -6.75916239058587 0.0 13.46256762329122 -6.865983093286591 0.0 10.12895641249492 -2.676359111457708 0.0 8.18367200437354 -2.8698594137001363 0.0 9.91456070129668 -3.0721546190176965 0.0 11.86905126942464 -3.262098265605036 0.0 14.275090928382179 -3.4174661335588596 0.0 16.971940123559822 -3.5227600659614717 0.0 18.06919823479484 -3.5759101408789755 0.0 13.576772336893438 -3.5878627148178084 0.0 10.427122847663199 -0.9404729491827151 0.0 8.35824085128 -1.0186505677910818 0.0 10.0997841688593 -1.0921103747561038 0.0 12.04516952853984 -1.1505554615913902 0.0 14.415497801493599 -1.185778950509832 0.0 17.04526754810844 -1.1935965795071077 0.0 18.08080578902004 -1.1758172131443518 0.0 13.63438872250592 -1.1382674523535101 0.0 10.636663391286161 0.45008025626965 0.0 8.39819047973259 0.47098528155123603 0.0 10.13190897846728 0.504610729279692 0.0 12.05947207416126 0.55165529399122 0.0 14.40389292902614 0.6092823268571601 0.0 17.00780890763768 0.6729788457657699 0.0 18.04978599381478 0.7380279349432641 0.0 13.685030144462882 0.8024133282060001 0.0 10.784871835057602 1.7374325516677798 0.0 8.3216116864562 1.8464883794495064 0.0 10.03340289218566 1.9743212397237122 0.0 11.93852637698688 2.1130440736510554 0.0 14.268504480540662 2.25143683095912 0.0 16.8834720721356 2.378981957918397 0.0 17.98204014273051 2.4886941718745703 0.0 13.702756402783802 2.57927304937401 0.0 10.828757031919201 3.044826729909723 0.0 8.141126909410769 3.23513675843994 0.0 9.814936489013599 3.4511849253172064 0.0 11.68048403443286 3.6771999276116496 0.0 13.97226548053028 3.8952391582812123 0.0 16.56521626609934 4.090437828680701 0.0 17.6999225741093 4.25347415558938 0.0 13.55903307112848 4.380803314387149 0.0 10.753718643403651 4.36128891802176 0.0 7.866216565276639 4.62727490278251 0.0 9.48423151822916 4.9274787987677 0.0 11.2887801708794 5.23919760099024 0.0 13.51070920518256 5.53828716485986 0.0 16.03658321159478 5.80606434682296 0.0 17.17553253082816 6.03040485072414 0.0 13.22792886827664 6.20481304550276 0.0 10.54714701705022 5.60122799144944 0.0 7.5057203745952 5.936017415726959 0.0 9.04947831474248 6.314432630020599 0.0 10.77016570538986 6.70763939930448 0.0 12.889603654317458 7.085687858746089 0.0 15.30458620574884 7.425902181929 0.0 16.419157120742252 7.713265062896239 0.0 12.72382515143463 7.9386565257851 0.0 10.2226336830923 6.66410653829888 0.0 7.070568562113761 7.059076481957 0.0 8.5225504331382 7.50649377890078 0.0 10.137605758442982 7.97207103321525 0.0 12.1248441792005 8.42112186949474 0.0 14.39159649573408 8.82698665908763 0.0 15.46249916347915 9.1718664410573 0.0 12.074631179943049 9.444735208139349 0.0 9.802862763242398 7.313652476308159 0.0 6.57816058531296 7.803699550165921 0.0 7.924011822092 8.35988301410964 0.0 9.41396716333684 8.93337481732095 0.0 11.243057401100147 9.4511530674337 0.0 13.333889689355198 9.91037266492874 0.0 14.349235128370921 10.17026676538983 0.0 11.24575068825394 10.61302372842272 0.0 9.310898478219361 7.42737515894654 0.0 6.04907700365871 7.97015973782619 0.0 7.283875696035831 8.63111252164275 0.0 8.634266526619498 9.39268491017571 0.0 10.28334187511774 10.11398806521818 0.0 12.17397496054311 10.62009592345892 0.0 13.1308311369728 10.837082346001798 0.0 10.36727838019475 11.41756795191223 0.0 8.802812640944161 7.3534890141243 0.0 5.5033111535079495 7.903237784696519 0.0 6.618387367095071 8.585043807439819 0.0 7.826612266416059 9.420289689313199 0.0 9.283984794108799 10.320107910173899 0.0 10.96056368497996 10.98541780978888 0.0 11.85794516080388 11.32678278017216 0.0 9.51971914644646 12.001432002575681 0.0 8.30921581217744 7.17634103227636 0.0 4.95969490166972 7.737030146344879 0.0 5.95793911159303 8.42959586696595 0.0 7.014946513598631 9.2908178251344 0.0 8.285696338912 10.291272465707461 0.0 9.748198664711621 11.132035020650509 0.0 10.58058444944384 11.7312651088646 0.0 8.72642071565204 12.484415711679821 0.0 7.785621929668941 6.942218786152799 0.0 4.4397330313752 7.499732055636329 0.0 5.322261348348749 8.205900852995459 0.0 6.249520536101819 9.094697405010539 0.0 7.3288689729399 10.20574669395492 0.0 8.59489416531126 11.22559116048348 0.0 9.34943520257604 12.0995519941218 0.0 7.9059124277094 13.03691071401312 0.0 7.24469413853196 6.698512032094859 0.0 3.9382648566947096 7.251912389403 0.0 4.714846869991501 7.95354630634575 0.0 5.5489143367152005 8.865503001798059 0.0 6.47950194872499 10.09817087772636 0.0 7.5696861548903405 11.40536962078956 0.0 8.21931403172022 12.68316428191533 0.0 7.13764921431177 13.906028602458719 0.0 6.804271031236381 6.417948873661821 0.0 3.475695988593723 6.989162206361839 0.0 4.167616490405949 7.69000317409632 0.0 4.90570593894752 8.64844975328544 0.0 5.769896198858399 10.024442950692201 0.0 6.715303619462481 11.725456673967159 0.0 7.2462932431924 13.555001370840378 0.0 6.4834085460241795 15.35742174016329 0.0 6.55905697963364 6.12941180470973 0.0 3.066652691017986 6.70218712309539 0.0 3.685167339355901 7.444907381066719 0.0 4.34728160672248 8.474520790003039 0.0 5.19017697226696 9.974450662961438 0.0 6.08051341245912 12.076899183316318 0.0 6.5076149897844795 14.558552638081562 0.0 6.008731211759239 17.00933408867573 0.0 6.45335821156911 5.8470425593163995 0.0 2.7088863518962203 6.42724901004192 0.0 3.255048401187864 7.22834384874822 0.0 3.9074137755897422 8.385485260282861 0.0 4.748355641520121 9.99896841575379 0.0 5.63281206204915 12.35975936401248 0.0 6.02935873022217 15.1216137474168 0.0 5.87777576944284 17.97186953812446 0.0 6.70243386616734 5.5824061109075 0.0 2.369364846765639 6.197788902885759 0.0 2.895713767173376 7.085148783666001 0.0 3.5775713261173494 8.37339644815425 0.0 4.4391453908605 10.12095647330262 0.0 5.32251624125695 12.642373252256201 0.0 5.675645025096981 15.345187773750803 0.0 5.931243075874 5.36949200987728 0.0 2.0879977402947123 6.041919445545999 0.0 2.6319160837048456 7.03791607939 0.0 3.356963213751 8.46453012017685 0.0 4.27017337941463 10.47252267901 0.0 5.06032324245 12.99027526265542 0.0 5.3738077748060995 15.54413318379998 0.0 5.94951470494154 5.2259696897717705 0.0 1.884651095393028 5.984461543894019 0.0 2.476671461068233 7.126539009018178 0.0 3.2715184151214842 8.8075546544937 0.0 4.1844482407728 11.0325142672485 0.0 4.76567269960104 13.31761194738708 0.0 5.252317631333879 5.190479496756721 0.0 1.8008238819730862 6.08531906203728 0.0 2.4729814394084397 7.463140450482601 0.0 3.35163994488483 9.40064667059748 0.0 4.1323046993162995 11.495559628513712 0.0 4.71063414772926 13.461013913186397 0.0 5.3359944364495195 5.337429981222249 0.0 1.898108133749195 6.4706184860262 0.0 2.693937668901744 8.0368626205538 0.0 3.56243425124838 9.99133269185872 0.0 4.21363148379976 11.78505577996628 0.0 4.836039404264359 5.83128746502632 0.0 2.2571523878789033 7.1472909108335 0.0 3.0658161279661464 8.69735760436928 0.0 3.844982967168112 10.40308605870688 0.0 4.41972355970992 6.736810632173489 0.0 2.680756758844868 7.9581089389568405 0.0 3.4519764778318267 9.24333654832324 0.0 4.1307868210214105 10.47222404982505 0.0 4.6248811041004 7.54357112050256 0.0 3.112650779715304 8.40265040737437 0.0 3.824614230590986 7.802869235388839 0.0 3.533973076202628 
TENSORS Ellispoids float
0.01 0.0 0.0 0.0 0.01 0.0 0.0 0.0 0.01 0.01 0.0 0.0 0.0 0.01 0.0 0.0 0.0 0.01 0.01 0.0 0.0 0.0 0.01 0.0 0.0 0.0 0.01 0.01 0.0 0.0 0.0 0.01 0.0 0.0 0.0 0.01 0.01 0.0 0.0 0.0 0.01 0.0 0.0 0.0 0.01 0.01 0.0 0.0 0.0 0.01 0.0 0.0 0.0 0.01 0.01 0.0 0.0 0.0 0.01 0.0 0.0 0.0 0.01 0.01 0.0 0.0 0.0 0.01 0.0 0.0 0.0 0.01 0.01 0.0 0.0 0.0 0.01 0.0 0.0 0.0 0.01 0.01 0.0 0.0 0.0 0.01 0.0 0.0 0.0 0.01 0.01 0.0 0.0 0.0 0.01 0.0 0.0 0.0 0.01 0.01 0.0 0.0 0.0 0.01 0.0 0.0 0.0 0.01 0.01 0.0 0.0 0.0 0.01 0.0 0.0 0.0 0.01 0.01 0.0 0.0 0.0 0.01 0.0 0.0 0.0 0.01 0.01 0.0 0.0 0.0 0.01 0.0 0.0 0.0 0.01 0.01 0.0 0.0 0.0 0.01 0.0 0.0 0.0 0.01 0.01 0.0 0.0 0.0 0.01 0.0 0.0 0.0 0.01 0.01 0.0 0.0 0.0 0.01 0.0 0.0 0.0 0.01 0.01 0.0 0.0 0.0 0.01 0.0 0.0 0.0 0.01 0.01 0.0 0.0 0.0 0.01 0.0 0.0 0.0 0.01 0.01 0.0 0.0 0.0 0.01 0.0 0.0 0.0 0.01 0.01 0.0 0.0 0.0 0.01 0.0 0.0 0.0 0.01 0.01 0.0 0.0 0.0 0.01 0.0 0.0 0.0 0.01 0.01 0.0 0.0 0.0 0.01 0.0 0.0 0.0 0.01 0.01 0.0 0.0 0.0 0.01 0.0 0.0 0.0 0.01 0.01 0.0 0.0 0.0 0.01 0.0 0.0 0.0 0.01 0.01 0.0 0.0 0.0 0.01 0.0 0.0 0.0 0.01 0.01 0.0 0.0 0.0 0.01 0.0 0.0 0.0 0.01 0.01 0.0 0.0 0.0 0.01 0.0 0.0 0.0 0.01 0.01 0.0 0.0 0.0 0.01 0.0 0.0 0.0 0.01 0.01 0.0 0.0 0.0 0.01 0.0 0.0 0.0 0.01 0.01 0.0 0.0 0.0 0.01 0.0 0.0 0.0 0.01 0.01 0.0 0.0 0.0 0.01 0.0 0.0 0.0 0.01 0.01 0.0 0.0 0.0 0.01 0.0 0.0 0.0 0.01 0.01 0.0 0.0 0.0 0.01 0.0 0.0 0.0 0.01 0.01 0.0 0.0 0.0 0.01 0.0 0.0 0.0 0.01 0.01 0.0 0.0 0.0 0.01 0.0 0.0 0.0 0.01 0.01 0.0 0.0 0.0 0.01 0.0 0.0 0.0 0.01 0.01 0.0 0.0 0.0 0.01 0.0 0.0 0.0 0.01 0.01 0.0 0.0 0.0 0.01 0.0 0.0 0.0 0.01 0.01 0.0 0.0 0.0 0.01 0.0 0.0 0.0 0.01 0.01 0.0 0.0 0.0 0.01 0.0 0.0 0.0 0.01 0.01 0.0 0.0 0.0 0.01 0.0 0.0 0.0 0.01 0.01 0.0 0.0 0.0 0.01 0.0 0.0 0.0 0.01 0.01 0.0 0.0 0.0 0.01 0.0 0.0 0.0 0.01 0.01 0.0 0.0 0.0 0.01 0.0 0.0 0.0 0.01 0.01 0.0 0.0 0.0 0.01 0.0 0.0 0.0 0.01 0.01 0.0 0.0 0.0 0.01 0.0 0.0 0.0 0.01 0.01 0.0 0.0 0.0 0.01 0.0 0.0 0.0 0.01 0.01 0.0 0.0 0.0 0.01 0.0 0.0 0.0 0.01 0.01 0.0 0.0 0.0 0.01 0.0 0.0 0.0 0.01 0.01 0.0 0.0 0.0 0.01 0.0 0.0 0.0 0.01 0.01 0.0 0.0 0.0 0.01 0.0 0.0 0.0 0.01 0.01 0.0 0.0 0.0 0.01 0.0 0.0 0.0 0.01 0.01 0.0 0.0 0.0 0.01 0.0 0.0 0.0 0.01 0.01 0.0 0.0 0.0 0.01 0.0 0.0 0.0 0.01 0.01 0.0 0.0 0.0 0.01 0.0 0.0 0.0 0.01 0.01 0.0 0.0 0.0 0.01 0.0 0.0 0.0 0.01 0.01 0.0 0.0 0.0 0.01 0.0 0.0 0.0 0.01 0.01 0.0 0.0 0.0 0.01 0.0 0.0 0.0 0.01 0.01 0.0 0.0 0.0 0.01 0.0 0.0 0.0 0.01 0.01 0.0 0.0 0.0 0.01 0.0 0.0 0.0 0.01 0.01 0.0 0.0 0.0 0.01 0.0 0.0 0.0 0.01 0.01 0.0 0.0 0.0 0.01 0.0 0.0 0.0 0.01 0.01 0.0 0.0 0.0 0.01 0.0 0.0 0.0 0.01 0.01 0.0 0.0 0.0 0.01 0.0 0.0 0.0 0.01 0.01 0.0 0.0 0.0 0.01 0.0 0.0 0.0 0.01 0.01 0.0 0.0 0.0 0.01 0.0 0.0 0.0 0.01 0.01 0.0 0.0 0.0 0.01 0.0 0.0 0.0 0.01 0.01 0.0 0.0 0.0 0.01 0.0 0.0 0.0 0.01 0.01 0.0 0.0 0.0 0.01 0.0 0.0 0.0 0.01 0.01 0.0 0.0 0.0 0.01 0.0 0.0 0.0 0.01 0.01 0.0 0.0 0.0 0.01 0.0 0.0 0.0 0.01 0.01 0.0 0.0 0.0 0.01 0.0 0.0 0.0 0.01 0.01 0.0 0.0 0.0 0.01 0.0 0.0 0.0 0.01 0.01 0.0 0.0 0.0 0.01 0.0 0.0 0.0 0.01 0.01 0.0 0.0 0.0 0.01 0.0 0.0 0.0 0.01 0.01 0.0 0.0 0.0 0.01 0.0 0.0 0.0 0.01 0.01 0.0 0.0 0.0 0.01 0.0 0.0 0.0 0.01 0.01 0.0 0.0 0.0 0.01 0.0 0.0 0.0 0.01 0.01 0.0 0.0 0.0 0.01 0.0 0.0 0.0 0.01 0.01 0.0 0.0 0.0 0.01 0.0 0.0 0.0 0.01 0.01 0.0 0.0 0.0 0.01 0.0 0.0 0.0 0.01 0.01 0.0 0.0 0.0 0.01 0.0 0.0 0.0 0.01 0.01 0.0 0.0 0.0 0.01 0.0 0.0 0.0 0.01 0.01 0.0 0.0 0.0 0.01 0.0 0.0 0.0 0.01 0.01 0.0 0.0 0.0 0.01 0.0 0.0 0.0 0.01 0.01 0.0 0.0 0.0 0.01 0.0 0.0 0.0 0.01 0.01 0.0 0.0 0.0 0.01 0.0 0.0 0.0 0.01 0.01 0.0 0.0 0.0 0.01 0.0 0.0 0.0 0.01 0.01 0.0 0.0 0.0 0.01 0.0 0.0 0.0 0.01 0.01 0.0 0.0 0.0 0.01 0.0 0.0 0.0 0.01 0.01 0.0 0.0 0.0 0.01 0.0 0.0 0.0 0.01 0.01 0.0 0.0 0.0 0.01 0.0 0.0 0.0 0.01 0.01 0.0 0.0 0.0 0.01 0.0 0.0 0.0 0.01 0.01 0.0 0.0 0.0 0.01 0.0 0.0 0.0 0.01 0.01 0.0 0.0 0.0 0.01 0.0 0.0 0.0 0.01 0.01 0.0 0.0 0.0 0.01 0.0 0.0 0.0 0.01 0.01 0.0 0.0 0.0 0.01 0.0 0.0 0.0 0.01 0.01 0.0 0.0 0.0 0.01 0.0 0.0 0.0 0.01 0.01 0.0 0.0 0.0 0.01 0.0 0.0 0.0 0.01 0.01 0.0 0.0 0.0 0.01 0.0 0.0 0.0 0.01 0.01 0.0 0.0 0.0 0.01 0.0 0.0 0.0 0.01 0.01 0.0 0.0 0.0 0.01 0.0 0.0 0.0 0.01 0.01 0.0 0.0 0.0 0.01 0.0 0.0 0.0 0.01 0.01 0.0 0.0 0.0 0.01 0.0 0.0 0.0 0.01 0.01 0.0 0.0 0.0 0.01 0.0 0.0 0.0 0.01 0.01 0.0 0.0 0.0 0.01 0.0 0.0 0.0 0.01 0.01 0.0 0.0 0.0 0.01 0.0 0.0 0.0 0.01 0.01 0.0 0.0 0.0 0.01 0.0 0.0 0.0 0.01 0.01 0.0 0.0 0.0 0.01 0.0 0.0 0.0 0.01 0.01 0.0 0.0 0.0 0.01 0.0 0.0 0.0 0.01 0.01 0.0 0.0 0.0 0.01 0.0 0.0 0.0 0.01 0.01 0.0 0.0 0.0 0.01 0.0 0.0 0.0 0.01 0.01 0.0 0.0 0.0 0.01 0.0 0.0 0.0 0.01 0.01 0.0 0.0 0.0 0.01 0.0 0.0 0.0 0.01 0.01 0.0 0.0 0.0 0.01 0.0 0.0 0.0 0.01 0.01 0.0 0.0 0.0 0.01 0.0 0.0 0.0 0.01 0.01 0.0 0.0 0.0 0.01 0.0 0.0 0.0 0.01 0.01 0.0 0.0 0.0 0.01 0.0 0.0 0.0 0.01 0.01 0.0 0.0 0.0 0.01 0.0 0.0 0.0 0.01 0.01 0.0 0.0 0.0 0.01 0.0 0.0 0.0 0.01 0.01 0.0 0.0 0.0 0.01 0.0 0.0 0.0 0.01 0.01 0.0 0.0 0.0 0.01 0.0 0.0 0.0 0.01 0.01 0.0 0.0 0.0 0.01 0.0 0.0 0.0 0.01 0.01 0.0 0.0 0.0 0.01 0.0 0.0 0.0 0.01 0.01 0.0 0.0 0.0 0.01 0.0 0.0 0.0 0.01 0.01 0.0 0.0 0.0 0.01 0.0 0.0 0.0 0.01 0.01 0.0 0.0 0.0 0.01 0.0 0.0 0.0 0.01 0.01 0.0 0.0 0.0 0.01 0.0 0.0 0.0 0.01 0.01 0.0 0.0 0.0 0.01 0.0 0.0 0.0 0.01 0.01 0.0 0.0 0.0 0.01 0.0 0.0 0.0 0.01 0.01 0.0 0.0 0.0 0.01 0.0 0.0 0.0 0.01 0.01 0.0 0.0 0.0 0.01 0.0 0.0 0.0 0.01 0.01 0.0 0.0 0.0 0.01 0.0 0.0 0.0 0.01 0.01 0.0 0.0 0.0 0.01 0.0 0.0 0.0 0.01 0.01 0.0 0.0 0.0 0.01 0.0 0.0 0.0 0.01 0.01 0.0 0.0 0.0 0.01 0.0 0.0 0.0 0.01 0.01 0.0 0.0 0.0 0.01 0.0 0.0 0.0 0.01 0.01 0.0 0.0 0.0 0.01 0.0 0.0 0.0 0.01 0.01 0.0 0.0 0.0 0.01 0.0 0.0 0.0 0.01 0.01 0.0 0.0 0.0 0.01 0.0 0.0 0.0 0.01 0.01 0.0 0.0 0.0 0.01 0.0 0.0 0.0 0.01 0.01 0.0 0.0 0.0 0.01 0.0 0.0 0.0 0.01 0.01 0.0 0.0 0.0 0.01 0.0 0.0 0.0 0.01 0.01 0.0 0.0 0.0 0.01 0.0 0.0 0.0 0.01 0.01 0.0 0.0 0.0 0.01 0.0 0.0 0.0 0.01 0.01 0.0 0.0 0.0 0.01 0.0 0.0 0.0 0.01 0.01 0.0 0.0 0.0 0.01 0.0 0.0 0.0 0.01 0.01 0.0 0.0 0.0 0.01 0.0 0.0 0.0 0.01 0.01 0.0 0.0 0.0 0.01 0.0 0.0 0.0 0.01 0.01 0.0 0.0 0.0 0.01 0.0 0.0 0.0 0.01 0.01 0.0 0.0 0.0 0.01 0.0 0.0 0.0 0.01 0.01 0.0 0.0 0.0 0.01 0.0 0.0 0.0 0.01 0.01 0.0 0.0 0.0 0.01 0.0 0.0 0.0 0.01 0.01 0.0 0.0 0.0 0.01 0.0 0.0 0.0 0.01 0.01 0.0 0.0 0.0 0.01 0.0 0.0 0.0 0.01 0.01 0.0 0.0 0.0 0.01 0.0 0.0 0.0 0.01 0.01 0.0 0.0 0.0 0.01 0.0 0.0 0.0 0.01 0.01 0.0 0.0 0.0 0.01 0.0 0.0 0.0 0.01 0.01 0.0 0.0 0.0 0.01 0.0 0.0 0.0 0.01 0.01 0.0 0.0 0.0 0.01 0.0 0.0 0.0 0.01 0.01 0.0 0.0 0.0 0.01 0.0 0.0 0.0 0.01 0.01 0.0 0.0 0.0 0.01 0.0 0.0 0.0 0.01 0.01 0.0 0.0 0.0 0.01 0.0 0.0 0.0 0.01 0.01 0.0 0.0 0.0 0.01 0.0 0.0 0.0 0.01 0.01 0.0 0.0 0.0 0.01 0.0 0.0 0.0 0.01 0.01 0.0 0.0 0.0 0.01 0.0 0.0 0.0 0.01 0.01 0.0 0.0 0.0 0.01 0.0 0.0 0.0 0.01 0.01 0.0 0.0 0.0 0.01 0.0 0.0 0.0 0.01 0.01 0.0 0.0 0.0 0.01 0.0 0.0 0.0 0.01 0.01 0.0 0.0 0.0 0.01 0.0 0.0 0.0 0.01 0.01 0.0 0.0 0.0 0.01 0.0 0.0 0.0 0.01 0.01 0.0 0.0 0.0 0.01 0.0 0.0 0.0 0.01 0.01 0.0 0.0 0.0 0.01 0.0 0.0 0.0 0.01 0.01 0.0 0.0 0.0 0.01 0.0 0.0 0.0 0.01 0.01 0.0 0.0 0.0 0.01 0.0 0.0 0.0 0.01 0.01 0.0 0.0 0.0 0.01 0.0 0.0 0.0 0.01 0.01 0.0 0.0 0.0 0.01 0.0 0.0 0.0 0.01 0.01 0.0 0.0 0.0 0.01 0.0 0.0 0.0 0.01 0.01 0.0 0.0 0.0 0.01 0.0 0.0 0.0 0.01 0.01 0.0 0.0 0.0 0.01 0.0 0.0 0.0 0.01 0.01 0.0 0.0 0.0 0.01 0.0 0.0 0.0 0.01 0.01 0.0 0.0 0.0 0.01 0.0 0.0 0.0 0.01 0.01 0.0 0.0 0.0 0.01 0.0 0.0 0.0 0.01 0.01 0.0 0.0 0.0 0.01 0.0 0.0 0.0 0.01 0.01 0.0 0.0 0.0 0.01 0.0 0.0 0.0 0.01 0.01 0.0 0.0 0.0 0.01 0.0 0.0 0.0 0.01 0.01 0.0 0.0 0.0 0.01 0.0 0.0 0.0 0.01 0.01 0.0 0.0 0.0 0.01 0.0 0.0 0.0 0.01 0.01 0.0 0.0 0.0 0.01 0.0 0.0 0.0 0.01 0.01 0.0 0.0 0.0 0.01 0.0 0.0 0.0 0.01 0.01 0.0 0.0 0.0 0.01 0.0 0.0 0.0 0.01 0.01 0.0 0.0 0.0 0.01 0.0 0.0 0.0 0.01 0.01 0.0 0.0 0.0 0.01 0.0 0.0 0.0 0.01 0.01 0.0 0.0 0.0 0.01 0.0 0.0 0.0 0.01 0.01 0.0 0.0 0.0 0.01 0.0 0.0 0.0 0.01 0.01 0.0 0.0 0.0 0.01 0.0 0.0 0.0 0.01 0.01 0.0 0.0 0.0 0.01 0.0 0.0 0.0 0.01 0.01 0.0 0.0 0.0 0.01 0.0 0.0 0.0 0.01 0.01 0.0 0.0 0.0 0.01 0.0 0.0 0.0 0.01 0.01 0.0 0.0 0.0 0.01 0.0 0.0 0.0 0.01 0.01 0.0 0.0 0.0 0.01 0.0 0.0 0.0 0.01 0.01 0.0 0.0 0.0 0.01 0.0 0.0 0.0 0.01 0.01 0.0 0.0 0.0 0.01 0.0 0.0 0.0 0.01 0.01 0.0 0.0 0.0 0.01 0.0 0.0 0.0 0.01 0.01 0.0 0.0 0.0 0.01 0.0 0.0 0.0 0.01 0.01 0.0 0.0 0.0 0.01 0.0 0.0 0.0 0.01 0.01 0.0 0.0 0.0 0.01 0.0 0.0 0.0 0.01 0.01 0.0 0.0 0.0 0.01 0.0 0.0 0.0 0.01 0.01 0.0 0.0 0.0 0.01 0.0 0.0 0.0 0.01 0.01 0.0 0.0 0.0 0.01 0.0 0.0 0.0 0.01 0.01 0.0 0.0 0.0 0.01 0.0 0.0 0.0 0.01 0.01 0.0 0.0 0.0 0.01 0.0 0.0 0.0 0.01 0.01 0.0 0.0 0.0 0.01 0.0 0.0 0.0 0.01 0.01 0.0 0.0 0.0 0.01 0.0 0.0 0.0 0.01 0.01 0.0 0.0 0.0 0.01 0.0 0.0 0.0 0.01 0.01 0.0 0.0 0.0 0.01 0.0 0.0 0.0 0.01 0.01 0.0 0.0 0.0 0.01 0.0 0.0 0.0 0.01 0.01 0.0 0.0 0.0 0.01 0.0 0.0 0.0 0.01 0.01 0.0 0.0 0.0 0.01 0.0 0.0 0.0 0.01 0.01 0.0 0.0 0.0 0.01 0.0 0.0 0.0 0.01 0.01 0.0 0.0 0.0 0.01 0.0 0.0 0.0 0.01 0.01 0.0 0.0 0.0 0.01 0.0 0.0 0.0 0.01 0.01 0.0 0.0 0.0 0.01 0.0 0.0 0.0 0.01 0.01 0.0 0.0 0.0 0.01 0.0 0.0 0.0 0.01 0.01 0.0 0.0 0.0 0.01 0.0 0.0 0.0 0.01 0.01 0.0 0.0 0.0 0.01 0.0 0.0 0.0 0.01 0.01 0.0 0.0 0.0 0.01 0.0 0.0 0.0 0.01 0.01 0.0 0.0 0.0 0.01 0.0 0.0 0.0 0.01 0.01 0.0 0.0 0.0 0.01 0.0 0.0 0.0 0.01 0.01 0.0 0.0 0.0 0.01 0.0 0.0 0.0 0.01 0.01 0.0 0.0 0.0 0.01 0.0 0.0 0.0 0.01 0.01 0.0 0.0 0.0 0.01 0.0 0.0 0.0 0.01 0.01 0.0 0.0 0.0 0.01 0.0 0.0 0.0 0.01 0.01 0.0 0.0 0.0 0.01 0.0 0.0 0.0 0.01 0.01 0.0 0.0 0.0 0.01 0.0 0.0 0.0 0.01 0.01 0.0 0.0 0.0 0.01 0.0 0.0 0.0 0.01 0.01 0.0 0.0 0.0 0.01 0.0 0.0 0.0 0.01 0.01 0.0 0.0 0.0 0.01 0.0 0.0 0.0 0.01 0.01 0.0 0.0 0.0 0.01 0.0 0.0 0.0 0.01 0.01 0.0 0.0 0.0 0.01 0.0 0.0 0.0 0.01 0.01 0.0 0.0 0.0 0.01 0.0 0.0 0.0 0.01 0.01 0.0 0.0 0.0 0.01 0.0 0.0 0.0 0.01 0.01 0.0 0.0 0.0 0.01 0.0 0.0 0.0 0.01 0.01 0.0 0.0 0.0 0.01 0.0 0.0 0.0 0.01 0.01 0.0 0.0 0.0 0.01 0.0 0.0 0.0 0.01 0.01 0.0 0.0 0.0 0.01 0.0 0.0 0.0 0.01 0.01 0.0 0.0 0.0 0.01 0.0 0.0 0.0 0.01 0.01 0.0 0.0 0.0 0.01 0.0 0.0 0.0 0.01 0.01 0.0 0.0 0.0 0.01 0.0 0.0 0.0 0.01 0.01 0.0 0.0 0.0 0.01 0.0 0.0 0.0 0.01 0.01 0.0 0.0 0.0 0.01 0.0 0.0 0.0 0.01 0.01 0.0 0.0 0.0 0.01 0.0 0.0 0.0 0.01 0.01 0.0 0.0 0.0 0.01 0.0 0.0 0.0 0.01 0.01 0.0 0.0 0.0 0.01 0.0 0.0 0.0 0.01 0.01 0.0 0.0 0.0 0.01 0.0 0.0 0.0 0.01 0.01 0.0 0.0 0.0 0.01 0.0 0.0 0.0 0.01 0.01 0.0 0.0 0.0 0.01 0.0 0.0 0.0 0.01 0.01 0.0 0.0 0.0 0.01 0.0 0.0 0.0 0.01 0.01 0.0 0.0 0.0 0.01 0.0 0.0 0.0 0.01 0.01 0.0 0.0 0.0 0.01 0.0 0.0 0.0 0.01 0.01 0.0 0.0 0.0 0.01 0.0 0.0 0.0 0.01 0.01 0.0 0.0 0.0 0.01 0.0 0.0 0.0 0.01 0.01 0.0 0.0 0.0 0.01 0.0 0.0 0.0 0.01 0.01 0.0 0.0 0.0 0.01 0.0 0.0 0.0 0.01 0.01 0.0 0.0 0.0 0.01 0.0 0.0 0.0 0.01 0.01 0.0 0.0 0.0 0.01 0.0 0.0 0.0 0.01 0.01 0.0 0.0 0.0 0.01 0.0 0.0 0.0 0.01 0.01 0.0 0.0 0.0 0.01 0.0 0.0 0.0 0.01 0.01 0.0 0.0 0.0 0.01 0.0 0.0 0.0 0.01 0.01 0.0 0.0 0.0 0.01 0.0 0.0 0.0 0.01 0.01 0.0 0.0 0.0 0.01 0.0 0.0 0.0 0.01 0.01 0.0 0.0 0.0 0.01 0.0 0.0 0.0 0.01 0.01 0.0 0.0 0.0 0.01 0.0 0.0 0.0 0.01 0.01 0.0 0.0 0.0 0.01 0.0 0.0 0.0 0.01 0.01 0.0 0.0 0.0 0.01 0.0 0.0 0.0 0.01 0.01 0.0 0.0 0.0 0.01 0.0 0.0 0.0 0.01 0.01 0.0 0.0 0.0 0.01 0.0 0.0 0.0 0.01 0.01 0.0 0.0 0.0 0.01 0.0 0.0 0.0 0.01 0.01 0.0 0.0 0.0 0.01 0.0 0.0 0.0 0.01 0.01 0.0 0.0 0.0 0.01 0.0 0.0 0.0 0.01 0.01 0.0 0.0 0.0 0.01 0.0 0.0 0.0 0.01 0.01 0.0 0.0 0.0 0.01 0.0 0.0 0.0 0.01 0.01 0.0 0.0 0.0 0.01 0.0 0.0 0.0 0.01 0.01 0.0 0.0 0.0 0.01 0.0 0.0 0.0 0.01 0.01 0.0 0.0 0.0 0.01 0.0 0.0 0.0 0.01 0.01 0.0 0.0 0.0 0.01 0.0 0.0 0.0 0.01 0.01 0.0 0.0 0.0 0.01 0.0 0.0 0.0 0.01 0.01 0.0 0.0 0.0 0.01 0.0 0.0 0.0 0.01 0.01 0.0 0.0 0.0 0.01 0.0 0.0 0.0 0.01 0.01 0.0 0.0 0.0 0.01 0.0 0.0 0.0 0.01 0.01 0.0 0.0 0.0 0.01 0.0 0.0 0.0 0.01 0.01 0.0 0.0 0.0 0.01 0.0 0.0 0.0 0.01 0.01 0.0 0.0 0.0 0.01 0.0 0.0 0.0 0.01 0.01 0.0 0.0 0.0 0.01 0.0 0.0 0.0 0.01 0.01 0.0 0.0 0.0 0.01 0.0 0.0 0.0 0.01 0.01 0.0 0.0 0.0 0.01 0.0 0.0 0.0 0.01 0.01 0.0 0.0 0.0 0.01 0.0 0.0 0.0 0.01 0.01 0.0 0.0 0.0 0.01 0.0 0.0 0.0 0.01 0.01 0.0 0.0 0.0 0.01 0.0 0.0 0.0 0.01 0.01 0.0 0.0 0.0 0.01 0.0 0.0 0.0 0.01 0.01 0.0 0.0 0.0 0.01 0.0 0.0 0.0 0.01 0.01 0.0 0.0 0.0 0.01 0.0 0.0 0.0 0.01 0.01 0.0 0.0 0.0 0.01 0.0 0.0 0.0 0.01 0.01 0.0 0.0 0.0 0.01 0.0 0.0 0.0 0.01 0.01 0.0 0.0 0.0 0.01 0.0 0.0 0.0 0.01 0.01 0.0 0.0 0.0 0.01 0.0 0.0 0.0 0.01 0.01 0.0 0.0 0.0 0.01 0.0 0.0 0.0 0.01 0.01 0.0 0.0 0.0 0.01 0.0 0.0 0.0 0.01 0.01 0.0 0.0 0.0 0.01 0.0 0.0 0.0 0.01 0.01 0.0 0.0 0.0 0.01 0.0 0.0 0.0 0.01 0.01 0.0 0.0 0.0 0.01 0.0 0.0 0.0 0.01 0.01 0.0 0.0 0.0 0.01 0.0 0.0 0.0 0.01 0.01 0.0 0.0 0.0 0.01 0.0 0.0 0.0 0.01 0.01 0.0 0.0 0.0 0.01 0.0 0.0 0.0 0.01 0.01 0.0 0.0 0.0 0.01 0.0 0.0 0.0 0.01 0.01 0.0 0.0 0.0 0.01 0.0 0.0 0.0 0.01 0.01 0.0 0.0 0.0 0.01 0.0 0.0 0.0 0.01 0.01 0.0 0.0 0.0 0.01 0.0 0.0 0.0 0.01 0.01 0.0 0.0 0.0 0.01 0.0 0.0 0.0 0.01 0.01 0.0 0.0 0.0 0.01 0.0 0.0 0.0 0.01 0.01 0.0 0.0 0.0 0.01 0.0 0.0 0.0 0.01 0.01 0.0 0.0 0.0 0.01 0.0 0.0 0.0 0.01 0.01 0.0 0.0 0.0 0.01 0.0 0.0 0.0 0.01 0.01 0.0 0.0 0.0 0.01 0.0 0.0 0.0 0.01 0.01 0.0 0.0 0.0 0.01 0.0 0.0 0.0 0.01 0.01 0.0 0.0 0.0 0.01 0.0 0.0 0.0 0.01 0.01 0.0 0.0 0.0 0.01 0.0 0.0 0.0 0.01 0.01 0.0 0.0 0.0 0.01 0.0 0.0 0.0 0.01 0.01 0.0 0.0 0.0 0.01 0.0 0.0 0.0 0.01 0.01 0.0 0.0 0.0 0.01 0.0 0.0 0.0 0.01 0.01 0.0 0.0 0.0 0.01 0.0 0.0 0.0 0.01 0.01 0.0 0.0 0.0 0.01 0.0 0.0 0.0 0.01 0.01 0.0 0.0 0.0 0.01 0.0 0.0 0.0 0.01 0.01 0.0 0.0 0.0 0.01 0.0 0.0 0.0 0.01 0.01 0.0 0.0 0.0 0.01 0.0 0.0 0.0 0.01 0.01 0.0 0.0 0.0 0.01 0.0 0.0 0.0 0.01 0.01 0.0 0.0 0.0 0.01 0.0 0.0 0.0 0.01 0.01 0.0 0.0 0.0 0.01 0.0 0.0 0.0 0.01 0.01 0.0 0.0 0.0 0.01 0.0 0.0 0.0 0.01 0.01 0.0 0.0 0.0 0.01 0.0 0.0 0.0 0.01 0.01 0.0 0.0 0.0 0.01 0.0 0.0 0.0 0.01 0.01 0.0 0.0 0.0 0.01 0.0 0.0 0.0 0.01 0.01 0.0 0.0 0.0 0.01 0.0 0.0 0.0 0.01 0.01 0.0 0.0 0.0 0.01 0.0 0.0 0.0 0.01 0.01 0.0 0.0 0.0 0.01 0.0 0.0 0.0 0.01 0.01 0.0 0.0 0.0 0.01 0.0 0.0 0.0 0.01 0.01 0.0 0.0 0.0 0.01 0.0 0.0 0.0 0.01 0.01 0.0 0.0 0.0 0.01 0.0 0.0 0.0 0.01 0.01 0.0 0.0 0.0 0.01 0.0 0.0 0.0 0.01 0.01 0.0 0.0 0.0 0.01 0.0 0.0 0.0 0.01 0.01 0.0 0.0 0.0 0.01 0.0 0.0 0.0 0.01 0.01 0.0 0.0 0.0 0.01 0.0 0.0 0.0 0.01 0.01 0.0 0.0 0.0 0.01 0.0 0.0 0.0 0.01 0.01 0.0 0.0 0.0 0.01 0.0 0.0 0.0 0.01 0.01 0.0 0.0 0.0 0.01 0.0 0.0 0.0 0.01 0.01 0.0 0.0 0.0 0.01 0.0 0.0 0.0 0.01 0.01 0.0 0.0 0.0 0.01 0.0 0.0 0.0 0.01 0.01 0.0 0.0 0.0 0.01 0.0 0.0 0.0 0.01 0.01 0.0 0.0 0.0 0.01 0.0 0.0 0.0 0.01 0.01 0.0 0.0 0.0 0.01 0.0 0.0 0.0 0.01 0.01 0.0 0.0 0.0 0.01 0.0 0.0 0.0 0.01 0.01 0.0 0.0 0.0 0.01 0.0 0.0 0.0 0.01 0.01 0.0 0.0 0.0 0.01 0.0 0.0 0.0 0.01 0.01 0.0 0.0 0.0 0.01 0.0 0.0 0.0 0.01 0.01 0.0 0.0 0.0 0.01 0.0 0.0 0.0 0.01 0.01 0.0 0.0 0.0 0.01 0.0 0.0 0.0 0.01 0.01 0.0 0.0 0.0 0.01 0.0 0.0 0.0 0.01 0.01 0.0 0.0 0.0 0.01 0.0 0.0 0.0 0.01 0.01 0.0 0.0 0.0 0.01 0.0 0.0 0.0 0.01 0.01 0.0 0.0 0.0 0.01 0.0 0.0 0.0 0.01 0.01 0.0 0.0 0.0 0.01 0.0 0.0 0.0 0.01 0.01 0.0 0.0 0.0 0.01 0.0 0.0 0.0 0.01 0.01 0.0 0.0 0.0 0.01 0.0 0.0 0.0 0.01 0.01 0.0 0.0 0.0 0.01 0.0 0.0 0.0 0.01 0.01 0.0 0.0 0.0 0.01 0.0 0.0 0.0 0.01 0.01 0.0 0.0 0.0 0.01 0.0 0.0 0.0 0.01 0.01 0.0 0.0 0.0 0.01 0.0 0.0 0.0 0.01 0.01 0.0 0.0 0.0 0.01 0.0 0.0 0.0 0.01 0.01 0.0 0.0 0.0 0.01 0.0 0.0 0.0 0.01 0.01 0.0 0.0 0.0 0.01 0.0 0.0 0.0 0.01 0.01 0.0 0.0 0.0 0.01 0.0 0.0 0.0 0.01 0.01 0.0 0.0 0.0 0.01 0.0 0.0 0.0 0.01 0.01 0.0 0.0 0.0 0.01 0.0 0.0 0.0 0.01 0.01 0.0 0.0 0.0 0.01 0.0 0.0 0.0 0.01 0.01 0.0 0.0 0.0 0.01 0.0 0.0 0.0 0.01 0.01 0.0 0.0 0.0 0.01 0.0 0.0 0.0 0.01 0.01 0.0 0.0 0.0 0.01 0.0 0.0 0.0 0.01 0.01 0.0 0.0 0.0 0.01 0.0 0.0 0.0 0.01 0.01 0.0 0.0 0.0 0.01 0.0 0.0 0.0 0.01 0.01 0.0 0.0 0.0 0.01 0.0 0.0 0.0 0.01 0.01 0.0 0.0 0.0 0.01 0.0 0.0 0.0 0.01 0.01 0.0 0.0 0.0 0.01 0.0 0.0 0.0 0.01 0.01 0.0 0.0 0.0 0.01 0.0 0.0 0.0 0.01 0.01 0.0 0.0 0.0 0.01 0.0 0.0 0.0 0.01 0.01 0.0 0.0 0.0 0.01 0.0 0.0 0.0 0.01 0.01 0.0 0.0 0.0 0.01 0.0 0.0 0.0 0.01 0.01 0.0 0.0 0.0 0.01 0.0 0.0 0.0 0.01 0.01 0.0 0.0 0.0 0.01 0.0 0.0 0.0 0.01 0.01 0.0 0.0 0.0 0.01 0.0 0.0 0.0 0.01 0.01 0.0 0.0 0.0 0.01 0.0 0.0 0.0 0.01 0.01 0.0 0.0 0.0 0.01 0.0 0.0 0.0 0.01 0.01 0.0 0.0 0.0 0.01 0.0 0.0 0.0 0.01 0.01 0.0 0.0 0.0 0.01 0.0 0.0 0.0 0.01 0.01 0.0 0.0 0.0 0.01 0.0 0.0 0.0 0.01 0.01 0.0 0.0 0.0 0.01 0.0 0.0 0.0 0.01 0.01 0.0 0.0 0.0 0.01 0.0 0.0 0.0 0.01 0.01 0.0 0.0 0.0 0.01 0.0 0.0 0.0 0.01 0.01 0.0 0.0 0.0 0.01 0.0 0.0 0.0 0.01 0.01 0.0 0.0 0.0 0.01 0.0 0.0 0.0 0.01 0.01 0.0 0.0 0.0 0.01 0.0 0.0 0.0 0.01 0.01 0.0 0.0 0.0 0.01 0.0 0.0 0.0 0.01 0.01 0.0 0.0 0.0 0.01 0.0 0.0 0.0 0.01 0.01 0.0 0.0 0.0 0.01 0.0 0.0 0.0 0.01 0.01 0.0 0.0 0.0 0.01 0.0 0.0 0.0 0.01 0.01 0.0 0.0 0.0 0.01 0.0 0.0 0.0 0.01 0.01 0.0 0.0 0.0 0.01 0.0 0.0 0.0 0.01 0.01 0.0 0.0 0.0 0.01 0.0 0.0 0.0 0.01 0.01 0.0 0.0 0.0 0.01 0.0 0.0 0.0 0.01 0.01 0.0 0.0 0.0 0.01 0.0 0.0 0.0 0.01 0.01 0.0 0.0 0.0 0.01 0.0 0.0 0.0 0.01 0.01 0.0 0.0 0.0 0.01 0.0 0.0 0.0 0.01 0.01 0.0 0.0 0.0 0.01 0.0 0.0 0.0 0.01 0.01 0.0 0.0 0.0 0.01 0.0 0.0 0.0 0.01 0.01 0.0 0.0 0.0 0.01 0.0 0.0 0.0 0.01 0.01 0.0 0.0 0.0 0.01 0.0 0.0 0.0 0.01 0.01 0.0 0.0 0.0 0.01 0.0 0.0 0.0 0.01 0.01 0.0 0.0 0.0 0.01 0.0 0.0 0.0 0.01 0.01 0.0 0.0 0.0 0.01 0.0 0.0 0.0 0.01 0.01 0.0 0.0 0.0 0.01 0.0 0.0 0.0 0.01 0.01 0.0 0.0 0.0 0.01 0.0 0.0 0.0 0.01 0.01 0.0 0.0 0.0 0.01 0.0 0.0 0.0 0.01 0.01 0.0 0.0 0.0 0.01 0.0 0.0 0.0 0.01 0.01 0.0 0.0 0.0 0.01 0.0 0.0 0.0 0.01 0.01 0.0 0.0 0.0 0.01 0.0 0.0 0.0 0.01 0.01 0.0 0.0 0.0 0.01 0.0 0.0 0.0 0.01 0.01 0.0 0.0 0.0 0.01 0.0 0.0 0.0 0.01 0.01 0.0 0.0 0.0 0.01 0.0 0.0 0.0 0.01 0.01 0.0 0.0 0.0 0.01 0.0 0.0 0.0 0.01 0.01 0.0 0.0 0.0 0.01 0.0 0.0 0.0 0.01 0.01 0.0 0.0 0.0 0.01 0.0 0.0 0.0 0.01 0.01 0.0 0.0 0.0 0.01 0.0 0.0 0.0 0.01 0.01 0.0 0.0 0.0 0.01 0.0 0.0 0.0 0.01 0.01 0.0 0.0 0.0 0.01 0.0 0.0 0.0 0.01 0.01 0.0 0.0 0.0 0.01 0.0 0.0 0.0 0.01 0.01 0.0 0.0 0.0 0.01 0.0 0.0 0.0 0.01 0.01 0.0 0.0 0.0 0.01 0.0 0.0 0.0 0.01 0.01 0.0 0.0 0.0 0.01 0.0 0.0 0.0 0.01 0.01 0.0 0.0 0.0 0.01 0.0 0.0 0.0 0.01 0.01 0.0 0.0 0.0 0.01 0.0 0.0 0.0 0.01 0.01 0.0 0.0 0.0 0.01 0.0 0.0 0.0 0.01 0.01 0.0 0.0 0.0 0.01 0.0 0.0 0.0 0.01 0.01 0.0 0.0 0.0 0.01 0.0 0.0 0.0 0.01 0.01 0.0 0.0 0.0 0.01 0.0 0.0 0.0 0.01 0.01 0.0 0.0 0.0 0.01 0.0 0.0 0.0 0.01 0.01 0.0 0.0 0.0 0.01 0.0 0.0 0.0 0.01 0.01 0.0 0.0 0.0 0.01 0.0 0.0 0.0 0.01 0.01 0.0 0.0 0.0 0.01 0.0 0.0 0.0 0.01 0.01 0.0 0.0 0.0 0.01 0.0 0.0 0.0 0.01 0.01 0.0 0.0 0.0 0.01 0.0 0.0 0.0 0.01 0.01 0.0 0.0 0.0 0.01 0.0 0.0 0.0 0.01 0.01 0.0 0.0 0.0 0.01 0.0 0.0 0.0 0.01 0.01 0.0 0.0 0.0 0.01 0.0 0.0 0.0 0.01 0.01 0.0 0.0 0.0 0.01 0.0 0.0 0.0 0.01 0.01 0.0 0.0 0.0 0.01 0.0 0.0 0.0 0.01 0.01 0.0 0.0 0.0 0.01 0.0 0.0 0.0 0.01 0.01 0.0 0.0 0.0 0.01 0.0 0.0 0.0 0.01 0.01 0.0 0.0 0.0 0.01 0.0 0.0 0.0 0.01 0.01 0.0 0.0 0.0 0.01 0.0 0.0 0.0 0.01 0.01 0.0 0.0 0.0 0.01 0.0 0.0 0.0 0.01 0.01 0.0 0.0 0.0 0.01 0.0 0.0 0.0 0.01 0.01 0.0 0.0 0.0 0.01 0.0 0.0 0.0 0.01 0.01 0.0 0.0 0.0 0.01 0.0 0.0 0.0 0.01 0.01 0.0 0.0 0.0 0.01 0.0 0.0 0.0 0.01 0.01 0.0 0.0 0.0 0.01 0.0 0.0 0.0 0.01 0.01 0.0 0.0 0.0 0.01 0.0 0.0 0.0 0.01 0.01 0.0 0.0 0.0 0.01 0.0 0.0 0.0 0.01 0.01 0.0 0.0 0.0 0.01 0.0 0.0 0.0 0.01 0.01 0.0 0.0 0.0 0.01 0.0 0.0 0.0 0.01 0.01 0.0 0.0 0.0 0.01 0.0 0.0 0.0 0.01 0.01 0.0 0.0 0.0 0.01 0.0 0.0 0.0 0.01 0.01 0.0 0.0 0.0 0.01 0.0 0.0 0.0 0.01 0.01 0.0 0.0 0.0 0.01 0.0 0.0 0.0 0.01 0.01 0.0 0.0 0.0 0.01 0.0 0.0 0.0 0.01 0.01 0.0 0.0 0.0 0.01 0.0 0.0 0.0 0.01 0.01 0.0 0.0 0.0 0.01 0.0 0.0 0.0 0.01 0.01 0.0 0.0 0.0 0.01 0.0 0.0 0.0 0.01 0.01 0.0 0.0 0.0 0.01 0.0 0.0 0.0 0.01 0.01 0.0 0.0 0.0 0.01 0.0 0.0 0.0 0.01 0.01 0.0 0.0 0.0 0.01 0.0 0.0 0.0 0.01 0.01 0.0 0.0 0.0 0.01 0.0 0.0 0.0 0.01 0.01 0.0 0.0 0.0 0.01 0.0 0.0 0.0 0.01 0.01 0.0 0.0 0.0 0.01 0.0 0.0 0.0 0.01 0.01 0.0 0.0 0.0 0.01 0.0 0.0 0.0 0.01 0.01 0.0 0.0 0.0 0.01 0.0 0.0 0.0 0.01 0.01 0.0 0.0 0.0 0.01 0.0 0.0 0.0 0.01 0.01 0.0 0.0 0.0 0.01 0.0 0.0 0.0 0.01 0.01 0.0 0.0 0.0 0.01 0.0 0.0 0.0 0.01 0.01 0.0 0.0 0.0 0.01 0.0 0.0 0.0 0.01 0.01 0.0 0.0 0.0 0.01 0.0 0.0 0.0 0.01 0.01 0.0 0.0 0.0 0.01 0.0 0.0 0.0 0.01 0.01 0.0 0.0 0.0 0.01 0.0 0.0 0.0 0.01 0.01 0.0 0.0 0.0 0.01 0.0 0.0 0.0 0.01 0.01 0.0 0.0 0.0 0.01 0.0 0.0 0.0 0.01 0.01 0.0 0.0 0.0 0.01 0.0 0.0 0.0 0.01 0.01 0.0 0.0 0.0 0.01 0.0 0.0 0.0 0.01 0.01 0.0 0.0 0.0 0.01 0.0 0.0 0.0 0.01 0.01 0.0 0.0 0.0 0.01 0.0 0.0 0.0 0.01 0.01 0.0 0.0 0.0 0.01 0.0 0.0 0.0 0.01 0.01 0.0 0.0 0.0 0.01 0.0 0.0 0.0 0.01 0.01 0.0 0.0 0.0 0.01 0.0 0.0 0.0 0.01 0.01 0.0 0.0 0.0 0.01 0.0 0.0 0.0 0.01 0.01 0.0 0.0 0.0 0.01 0.0 0.0 0.0 0.01 0.01 0.0 0.0 0.0 0.01 0.0 0.0 0.0 0.01 0.01 0.0 0.0 0.0 0.01 0.0 0.0 0.0 0.01 0.01 0.0 0.0 0.0 0.01 0.0 0.0 0.0 0.01 0.01 0.0 0.0 0.0 0.01 0.0 0.0 0.0 0.01 0.01 0.0 0.0 0.0 0.01 0.0 0.0 0.0 0.01 0.01 0.0 0.0 0.0 0.01 0.0 0.0 0.0 0.01 0.01 0.0 0.0 0.0 0.01 0.0 0.0 0.0 0.01 0.01 0.0 0.0 0.0 0.01 0.0 0.0 0.0 0.01 0.01 0.0 0.0 0.0 0.01 0.0 0.0 0.0 0.01 0.01 0.0 0.0 0.0 0.01 0.0 0.0 0.0 0.01 0.01 0.0 0.0 0.0 0.01 0.0 0.0 0.0 0.01 0.01 0.0 0.0 0.0 0.01 0.0 0.0 0.0 0.01 0.01 0.0 0.0 0.0 0.01 0.0 0.0 0.0 0.01 0.01 0.0 0.0 0.0 0.01 0.0 0.0 0.0 0.01 0.01 0.0 0.0 0.0 0.01 0.0 0.0 0.0 0.01 0.01 0.0 0.0 0.0 0.01 0.0 0.0 0.0 0.01 0.01 0.0 0.0 0.0 0.01 0.0 0.0 0.0 0.01 0.01 0.0 0.0 0.0 0.01 0.0 0.0 0.0 0.01 0.01 0.0 0.0 0.0 0.01 0.0 0.0 0.0 0.01 0.01 0.0 0.0 0.0 0.01 0.0 0.0 0.0 0.01 0.01 0.0 0.0 0.0 0.01 0.0 0.0 0.0 0.01 0.01 0.0 0.0 0.0 0.01 0.0 0.0 0.0 0.01 0.01 0.0 0.0 0.0 0.01 0.0 0.0 0.0 0.01 0.01 0.0 0.0 0.0 0.01 0.0 0.0 0.0 0.01 0.01 0.0 0.0 0.0 0.01 0.0 0.0 0.0 0.01 0.01 0.0 0.0 0.0 0.01 0.0 0.0 0.0 0.01 0.01 0.0 0.0 0.0 0.01 0.0 0.0 0.0 0.01 0.01 0.0 0.0 0.0 0.01 0.0 0.0 0.0 0.01 0.01 0.0 0.0 0.0 0.01 0.0 0.0 0.0 0.01 0.01 0.0 0.0 0.0 0.01 0.0 0.0 0.0 0.01 0.01 0.0 0.0 0.0 0.01 0.0 0.0 0.0 0.01 0.01 0.0 0.0 0.0 0.01 0.0 0.0 0.0 0.01 0.01 0.0 0.0 0.0 0.01 0.0 0.0 0.0 0.01 0.01 0.0 0.0 0.0 0.01 0.0 0.0 0.0 0.01 0.01 0.0 0.0 0.0 0.01 0.0 0.0 0.0 0.01 0.01 0.0 0.0 0.0 0.01 0.0 0.0 0.0 0.01 0.01 0.0 0.0 0.0 0.01 0.0 0.0 0.0 0.01 0.01 0.0 0.0 0.0 0.01 0.0 0.0 0.0 0.01 0.01 0.0 0.0 0.0 0.01 0.0 0.0 0.0 0.01 0.01 0.0 0.0 0.0 0.01 0.0 0.0 0.0 0.01 0.01 0.0 0.0 0.0 0.01 0.0 0.0 0.0 0.01 0.01 0.0 0.0 0.0 0.01 0.0 0.0 0.0 0.01 0.01 0.0 0.0 0.0 0.01 0.0 0.0 0.0 0.01 0.01 0.0 0.0 0.0 0.01 0.0 0.0 0.0 0.01 0.01 0.0 0.0 0.0 0.01 0.0 0.0 0.0 0.01 0.01 0.0 0.0 0.0 0.01 0.0 0.0 0.0 0.01 0.01 0.0 0.0 0.0 0.01 0.0 0.0 0.0 0.01 0.01 0.0 0.0 0.0 0.01 0.0 0.0 0.0 0.01 0.01 0.0 0.0 0.0 0.01 0.0 0.0 0.0 0.01 0.01 0.0 0.0 0.0 0.01 0.0 0.0 0.0 0.01 0.01 0.0 0.0 0.0 0.01 0.0 0.0 0.0 0.01 0.01 0.0 0.0 0.0 0.01 0.0 0.0 0.0 0.01 0.01 0.0 0.0 0.0 0.01 0.0 0.0 0.0 0.01 0.01 0.0 0.0 0.0 0.01 0.0 0.0 0.0 0.01 0.01 0.0 0.0 0.0 0.01 0.0 0.0 0.0 0.01 0.01 0.0 0.0 0.0 0.01 0.0 0.0 0.0 0.01 0.01 0.0 0.0 0.0 0.01 0.0 0.0 0.0 0.01 0.01 0.0 0.0 0.0 0.01 0.0 0.0 0.0 0.01 0.01 0.0 0.0 0.0 0.01 0.0 0.0 0.0 0.01 0.01 0.0 0.0 0.0 0.01 0.0 0.0 0.0 0.01 0.01 0.0 0.0 0.0 0.01 0.0 0.0 0.0 0.01 0.01 0.0 0.0 0.0 0.01 0.0 0.0 0.0 0.01 0.01 0.0 0.0 0.0 0.01 0.0 0.0 0.0 0.01 0.01 0.0 0.0 0.0 0.01 0.0 0.0 0.0 0.01 0.01 0.0 0.0 0.0 0.01 0.0 0.0 0.0 0.01 0.01 0.0 0.0 0.0 0.01 0.0 0.0 0.0 0.01 0.01 0.0 0.0 0.0 0.01 0.0 0.0 0.0 0.01 0.01 0.0 0.0 0.0 0.01 0.0 0.0 0.0 0.01 0.01 0.0 0.0 0.0 0.01 0.0 0.0 0.0 0.01 0.01 0.0 0.0 0.0 0.01 0.0 0.0 0.0 0.01 0.01 0.0 0.0 0.0 0.01 0.0 0.0 0.0 0.01 0.01 0.0 0.0 0.0 0.01 0.0 0.0 0.0 0.01 0.01 0.0 0.0 0.0 0.01 0.0 0.0 0.0 0.01 0.01 0.0 0.0 0.0 0.01 0.0 0.0 0.0 0.01 0.01 0.0 0.0 0.0 0.01 0.0 0.0 0.0 0.01 0.01 0.0 0.0 0.0 0.01 0.0 0.0 0.0 0.01 0.01 0.0 0.0 0.0 0.01 0.0 0.0 0.0 0.01 0.01 0.0 0.0 0.0 0.01 0.0 0.0 0.0 0.01 0.01 0.0 0.0 0.0 0.01 0.0 0.0 0.0 0.01 0.01 0.0 0.0 0.0 0.01 0.0 0.0 0.0 0.01 0.01 0.0 0.0 0.0 0.01 0.0 0.0 0.0 0.01 0.01 0.0 0.0 0.0 0.01 0.0 0.0 0.0 0.01 0.01 0.0 0.0 0.0 0.01 0.0 0.0 0.0 0.01 0.01 0.0 0.0 0.0 0.01 0.0 0.0 0.0 0.01 0.01 0.0 0.0 0.0 0.01 0.0 0.0 0.0 0.01 0.01 0.0 0.0 0.0 0.01 0.0 0.0 0.0 0.01 0.01 0.0 0.0 0.0 0.01 0.0 0.0 0.0 0.01 0.01 0.0 0.0 0.0 0.01 0.0 0.0 0.0 0.01 0.01 0.0 0.0 0.0 0.01 0.0 0.0 0.0 0.01 0.01 0.0 0.0 0.0 0.01 0.0 0.0 0.0 0.01 0.01 0.0 0.0 0.0 0.01 0.0 0.0 0.0 0.01 0.01 0.0 0.0 0.0 0.01 0.0 0.0 0.0 0.01 0.01 0.0 0.0 0.0 0.01 0.0 0.0 0.0 0.01 0.01 0.0 0.0 0.0 0.01 0.0 0.0 0.0 0.01 0.01 0.0 0.0 0.0 0.01 0.0 0.0 0.0 0.01 0.01 0.0 0.0 0.0 0.01 0.0 0.0 0.0 0.01 0.01 0.0 0.0 0.0 0.01 0.0 0.0 0.0 0.01 0.01 0.0 0.0 0.0 0.01 0.0 0.0 0.0 0.01 0.01 0.0 0.0 0.0 0.01 0.0 0.0 0.0 0.01 0.01 0.0 0.0 0.0 0.01 0.0 0.0 0.0 0.01 0.01 0.0 0.0 0.0 0.01 0.0 0.0 0.0 0.01 0.01 0.0 0.0 0.0 0.01 0.0 0.0 0.0 0.01 0.01 0.0 0.0 0.0 0.01 0.0 0.0 0.0 0.01 0.01 0.0 0.0 0.0 0.01 0.0 0.0 0.0 0.01 0.01 0.0 0.0 0.0 0.01 0.0 0.0 0.0 0.01 0.01 0.0 0.0 0.0 0.01 0.0 0.0 0.0 0.01 0.01 0.0 0.0 0.0 0.01 0.0 0.0 0.0 0.01 0.01 0.0 0.0 0.0 0.01 0.0 0.0 0.0 0.01 0.01 0.0 0.0 0.0 0.01 0.0 0.0 0.0 0.01 0.01 0.0 0.0 0.0 0.01 0.0 0.0 0.0 0.01 0.01 0.0 0.0 0.0 0.01 0.0 0.0 0.0 0.01 0.01 0.0 0.0 0.0 0.01 0.0 0.0 0.0 0.01 0.01 0.0 0.0 0.0 0.01 0.0 0.0 0.0 0.01 0.01 0.0 0.0 0.0 0.01 0.0 0.0 0.0 0.01 0.01 0.0 0.0 0.0 0.01 0.0 0.0 0.0 0.01 0.01 0.0 0.0 0.0 0.01 0.0 0.0 0.0 0.01 0.01 0.0 0.0 0.0 0.01 0.0 0.0 0.0 0.01 0.01 0.0 0.0 0.0 0.01 0.0 0.0 0.0 0.01 0.01 0.0 0.0 0.0 0.01 0.0 0.0 0.0 0.01 0.01 0.0 0.0 0.0 0.01 0.0 0.0 0.0 0.01 0.01 0.0 0.0 0.0 0.01 0.0 0.0 0.0 0.01 0.01 0.0 0.0 0.0 0.01 0.0 0.0 0.0 0.01 0.01 0.0 0.0 0.0 0.01 0.0 0.0 0.0 0.01 0.01 0.0 0.0 0.0 0.01 0.0 0.0 0.0 0.01 0.01 0.0 0.0 0.0 0.01 0.0 0.0 0.0 0.01 0.01 0.0 0.0 0.0 0.01 0.0 0.0 0.0 0.01 0.01 0.0 0.0 0.0 0.01 0.0 0.0 0.0 0.01 0.01 0.0 0.0 0.0 0.01 0.0 0.0 0.0 0.01 0.01 0.0 0.0 0.0 0.01 0.0 0.0 0.0 0.01 0.01 0.0 0.0 0.0 0.01 0.0 0.0 0.0 0.01 0.01 0.0 0.0 0.0 0.01 0.0 0.0 0.0 0.01 0.01 0.0 0.0 0.0 0.01 0.0 0.0 0.0 0.01 0.01 0.0 0.0 0.0 0.01 0.0 0.0 0.0 0.01 0.01 0.0 0.0 0.0 0.01 0.0 0.0 0.0 0.01 0.01 0.0 0.0 0.0 0.01 0.0 0.0 0.0 0.01 0.01 0.0 0.0 0.0 0.01 0.0 0.0 0.0 0.01 0.01 0.0 0.0 0.0 0.01 0.0 0.0 0.0 0.01 0.01 0.0 0.0 0.0 0.01 0.0 0.0 0.0 0.01 0.01 0.0 0.0 0.0 0.01 0.0 0.0 0.0 0.01 0.01 0.0 0.0 0.0 0.01 0.0 0.0 0.0 0.01 0.01 0.0 0.0 0.0 0.01 0.0 0.0 0.0 0.01 0.01 0.0 0.0 0.0 0.01 0.0 0.0 0.0 0.01 0.01 0.0 0.0 0.0 0.01 0.0 0.0 0.0 0.01 0.01 0.0 0.0 0.0 0.01 0.0 0.0 0.0 0.01 0.01 0.0 0.0 0.0 0.01 0.0 0.0 0.0 0.01 0.01 0.0 0.0 0.0 0.01 0.0 0.0 0.0 0.01 0.01 0.0 0.0 0.0 0.01 0.0 0.0 0.0 0.01 0.01 0.0 0.0 0.0 0.01 0.0 0.0 0.0 0.01 0.01 0.0 0.0 0.0 0.01 0.0 0.0 0.0 0.01 0.01 0.0 0.0 0.0 0.01 0.0 0.0 0.0 0.01 0.01 0.0 0.0 0.0 0.01 0.0 0.0 0.0 0.01 0.01 0.0 0.0 0.0 0.01 0.0 0.0 0.0 0.01 0.01 0.0 0.0 0.0 0.01 0.0 0.0 0.0 0.01 0.01 0.0 0.0 0.0 0.01 0.0 0.0 0.0 0.01 0.01 0.0 0.0 0.0 0.01 0.0 0.0 0.0 0.01 0.01 0.0 0.0 0.0 0.01 0.0 0.0 0.0 0.01 0.01 0.0 0.0 0.0 0.01 0.0 0.0 0.0 0.01 0.01 0.0 0.0 0.0 0.01 0.0 0.0 0.0 0.01 0.01 0.0 0.0 0.0 0.01 0.0 0.0 0.0 0.01 0.01 0.0 0.0 0.0 0.01 0.0 0.0 0.0 0.01 0.01 0.0 0.0 0.0 0.01 0.0 0.0 0.0 0.01 0.01 0.0 0.0 0.0 0.01 0.0 0.0 0.0 0.01 0.01 0.0 0.0 0.0 0.01 0.0 0.0 0.0 0.01 0.01 0.0 0.0 0.0 0.01 0.0 0.0 0.0 0.01 0.01 0.0 0.0 0.0 0.01 0.0 0.0 0.0 0.01 0.01 0.0 0.0 0.0 0.01 0.0 0.0 0.0 0.01 0.01 0.0 0.0 0.0 0.01 0.0 0.0 0.0 0.01 0.01 0.0 0.0 0.0 0.01 0.0 0.0 0.0 0.01 0.01 0.0 0.0 0.0 0.01 0.0 0.0 0.0 0.01 0.01 0.0 0.0 0.0 0.01 0.0 0.0 0.0 0.01 0.01 0.0 0.0 0.0 0.01 0.0 0.0 0.0 0.01 0.01 0.0 0.0 0.0 0.01 0.0 0.0 0.0 0.01 0.01 0.0 0.0 0.0 0.01 0.0 0.0 0.0 0.01 0.01 0.0 0.0 0.0 0.01 0.0 0.0 0.0 0.01 0.01 0.0 0.0 0.0 0.01 0.0 0.0 0.0 0.01 0.01 0.0 0.0 0.0 0.01 0.0 0.0 0.0 0.01 0.01 0.0 0.0 0.0 0.01 0.0 0.0 0.0 0.01 0.01 0.0 0.0 0.0 0.01 0.0 0.0 0.0 0.01 0.01 0.0 0.0 0.0 0.01 0.0 0.0 0.0 0.01 0.01 0.0 0.0 0.0 0.01 0.0 0.0 0.0 0.01 0.01 0.0 0.0 0.0 0.01 0.0 0.0 0.0 0.01 0.01 0.0 0.0 0.0 0.01 0.0 0.0 0.0 0.01 0.01 0.0 0.0 0.0 0.01 0.0 0.0 0.0 0.01 0.01 0.0 0.0 0.0 0.01 0.0 0.0 0.0 0.01 0.01 0.0 0.0 0.0 0.01 0.0 0.0 0.0 0.01 0.01 0.0 0.0 0.0 0.01 0.0 0.0 0.0 0.01 0.01 0.0 0.0 0.0 0.01 0.0 0.0 0.0 0.01 0.01 0.0 0.0 0.0 0.01 0.0 0.0 0.0 0.01 0.01 0.0 0.0 0.0 0.01 0.0 0.0 0.0 0.01 0.01 0.0 0.0 0.0 0.01 0.0 0.0 0.0 0.01 0.01 0.0 0.0 0.0 0.01 0.0 0.0 0.0 0.01 0.01 0.0 0.0 0.0 0.01 0.0 0.0 0.0 0.01 0.01 0.0 0.0 0.0 0.01 0.0 0.0 0.0 0.01 0.01 0.0 0.0 0.0 0.01 0.0 0.0 0.0 0.01 0.01 0.0 0.0 0.0 0.01 0.0 0.0 0.0 0.01 0.01 0.0 0.0 0.0 0.01 0.0 0.0 0.0 0.01 0.01 0.0 0.0 0.0 0.01 0.0 0.0 0.0 0.01 0.01 0.0 0.0 0.0 0.01 0.0 0.0 0.0 0.01 0.01 0.0 0.0 0.0 0.01 0.0 0.0 0.0 0.01 0.01 0.0 0.0 0.0 0.01 0.0 0.0 0.0 0.01 0.01 0.0 0.0 0.0 0.01 0.0 0.0 0.0 0.01 0.01 0.0 0.0 0.0 0.01 0.0 0.0 0.0 0.01 0.01 0.0 0.0 0.0 0.01 0.0 0.0 0.0 0.01 0.01 0.0 0.0 0.0 0.01 0.0 0.0 0.0 0.01 0.01 0.0 0.0 0.0 0.01 0.0 0.0 0.0 0.01 0.01 0.0 0.0 0.0 0.01 0.0 0.0 0.0 0.01 0.01 0.0 0.0 0.0 0.01 0.0 0.0 0.0 0.01 0.01 0.0 0.0 0.0 0.01 0.0 0.0 0.0 0.01 0.01 0.0 0.0 0.0 0.01 0.0 0.0 0.0 0.01 0.01 0.0 0.0 0.0 0.01 0.0 0.0 0.0 0.01 0.01 0.0 0.0 0.0 0.01 0.0 0.0 0.0 0.01 0.01 0.0 0.0 0.0 0.01 0.0 0.0 0.0 0.01 0.01 0.0 0.0 0.0 0.01 0.0 0.0 0.0 0.01 0.01 0.0 0.0 0.0 0.01 0.0 0.0 0.0 0.01 0.01 0.0 0.0 0.0 0.01 0.0 0.0 0.0 0.01 0.01 0.0 0.0 0.0 0.01 0.0 0.0 0.0 0.01 0.01 0.0 0.0 0.0 0.01 0.0 0.0 0.0 0.01 0.01 0.0 0.0 0.0 0.01 0.0 0.0 0.0 0.01 0.01 0.0 0.0 0.0 0.01 0.0 0.0 0.0 0.01 0.01 0.0 0.0 0.0 0.01 0.0 0.0 0.0 0.01 0.01 0.0 0.0 0.0 0.01 0.0 0.0 0.0 0.01 0.01 0.0 0.0 0.0 0.01 0.0 0.0 0.0 0.01 0.01 0.0 0.0 0.0 0.01 0.0 0.0 0.0 0.01 0.01 0.0 0.0 0.0 0.01 0.0 0.0 0.0 0.01 0.01 0.0 0.0 0.0 0.01 0.0 0.0 0.0 0.01 0.01 0.0 0.0 0.0 0.01 0.0 0.0 0.0 0.01 0.01 0.0 0.0 0.0 0.01 0.0 0.0 0.0 0.01 0.01 0.0 0.0 0.0 0.01 0.0 0.0 0.0 0.01 0.01 0.0 0.0 0.0 0.01 0.0 0.0 0.0 0.01 0.01 0.0 0.0 0.0 0.01 0.0 0.0 0.0 0.01 0.01 0.0 0.0 0.0 0.01 0.0 0.0 0.0 0.01 0.01 0.0 0.0 0.0 0.01 0.0 0.0 0.0 0.01 0.01 0.0 0.0 0.0 0.01 0.0 0.0 0.0 0.01 0.01 0.0 0.0 0.0 0.01 0.0 0.0 0.0 0.01 0.01 0.0 0.0 0.0 0.01 0.0 0.0 0.0 0.01 0.01 0.0 0.0 0.0 0.01 0.0 0.0 0.0 0.01 0.01 0.0 0.0 0.0 0.01 0.0 0.0 0.0 0.01 0.01 0.0 0.0 0.0 0.01 0.0 0.0 0.0 0.01 0.01 0.0 0.0 0.0 0.01 0.0 0.0 0.0 0.01 0.01 0.0 0.0 0.0 0.01 0.0 0.0 0.0 0.01 0.01 0.0 0.0 0.0 0.01 0.0 0.0 0.0 0.01 0.01 0.0 0.0 0.0 0.01 0.0 0.0 0.0 0.01 0.01 0.0 0.0 0.0 0.01 0.0 0.0 0.0 0.01 0.01 0.0 0.0 0.0 0.01 0.0 0.0 0.0 0.01 0.01 0.0 0.0 0.0 0.01 0.0 0.0 0.0 0.01 0.01 0.0 0.0 0.0 0.01 0.0 0.0 0.0 0.01 0.01 0.0 0.0 0.0 0.01 0.0 0.0 0.0 0.01 0.01 0.0 0.0 0.0 0.01 0.0 0.0 0.0 0.01 0.01 0.0 0.0 0.0 0.01 0.0 0.0 0.0 0.01 0.01 0.0 0.0 0.0 0.01 0.0 0.0 0.0 0.01 0.01 0.0 0.0 0.0 0.01 0.0 0.0 0.0 0.01 0.01 0.0 0.0 0.0 0.01 0.0 0.0 0.0 0.01 0.01 0.0 0.0 0.0 0.01 0.0 0.0 0.0 0.01 0.01 0.0 0.0 0.0 0.01 0.0 0.0 0.0 0.01 0.01 0.0 0.0 0.0 0.01 0.0 0.0 0.0 0.01 0.01 0.0 0.0 0.0 0.01 0.0 0.0 0.0 0.01 0.01 0.0 0.0 0.0 0.01 0.0 0.0 0.0 0.01 0.01 0.0 0.0 0.0 0.01 0.0 0.0 0.0 0.01 0.01 0.0 0.0 0.0 0.01 0.0 0.0 0.0 0.01 0.01 0.0 0.0 0.0 0.01 0.0 0.0 0.0 0.01 0.01 0.0 0.0 0.0 0.01 0.0 0.0 0.0 0.01 0.01 0.0 0.0 0.0 0.01 0.0 0.0 0.0 0.01 0.01 0.0 0.0 0.0 0.01 0.0 0.0 0.0 0.01 0.01 0.0 0.0 0.0 0.01 0.0 0.0 0.0 0.01 0.01 0.0 0.0 0.0 0.01 0.0 0.0 0.0 0.01 0.01 0.0 0.0 0.0 0.01 0.0 0.0 0.0 0.01 0.01 0.0 0.0 0.0 0.01 0.0 0.0 0.0 0.01 0.01 0.0 0.0 0.0 0.01 0.0 0.0 0.0 0.01 0.01 0.0 0.0 0.0 0.01 0.0 0.0 0.0 0.01 0.01 0.0 0.0 0.0 0.01 0.0 0.0 0.0 0.01 0.01 0.0 0.0 0.0 0.01 0.0 0.0 0.0 0.01 0.01 0.0 0.0 0.0 0.01 0.0 0.0 0.0 0.01 0.01 0.0 0.0 0.0 0.01 0.0 0.0 0.0 0.01 0.01 0.0 0.0 0.0 0.01 0.0 0.0 0.0 0.01 0.01 0.0 0.0 0.0 0.01 0.0 0.0 0.0 0.01 0.01 0.0 0.0 0.0 0.01 0.0 0.0 0.0 0.01 0.01 0.0 0.0 0.0 0.01 0.0 0.0 0.0 0.01 0.01 0.0 0.0 0.0 0.01 0.0 0.0 0.0 0.01 0.01 0.0 0.0 0.0 0.01 0.0 0.0 0.0 0.01 0.01 0.0 0.0 0.0 0.01 0.0 0.0 0.0 0.01 0.01 0.0 0.0 0.0 0.01 0.0 0.0 0.0 0.01 0.01 0.0 0.0 0.0 0.01 0.0 0.0 0.0 0.01 0.01 0.0 0.0 0.0 0.01 0.0 0.0 0.0 0.01 0.01 0.0 0.0 0.0 0.01 0.0 0.0 0.0 0.01 0.01 0.0 0.0 0.0 0.01 0.0 0.0 0.0 0.01 0.01 0.0 0.0 0.0 0.01 0.0 0.0 0.0 0.01 0.01 0.0 0.0 0.0 0.01 0.0 0.0 0.0 0.01 0.01 0.0 0.0 0.0 0.01 0.0 0.0 0.0 0.01 0.01 0.0 0.0 0.0 0.01 0.0 0.0 0.0 0.01 0.01 0.0 0.0 0.0 0.01 0.0 0.0 0.0 0.01 0.01 0.0 0.0 0.0 0.01 0.0 0.0 0.0 0.01 0.01 0.0 0.0 0.0 0.01 0.0 0.0 0.0 0.01 0.01 0.0 0.0 0.0 0.01 0.0 0.0 0.0 0.01 0.01 0.0 0.0 0.0 0.01 0.0 0.0 0.0 0.01 0.01 0.0 0.0 0.0 0.01 0.0 0.0 0.0 0.01 0.01 0.0 0.0 0.0 0.01 0.0 0.0 0.0 0.01 0.01 0.0 0.0 0.0 0.01 0.0 0.0 0.0 0.01 0.01 0.0 0.0 0.0 0.01 0.0 0.0 0.0 0.01 0.01 0.0 0.0 0.0 0.01 0.0 0.0 0.0 0.01 0.01 0.0 0.0 0.0 0.01 0.0 0.0 0.0 0.01 0.01 0.0 0.0 0.0 0.01 0.0 0.0 0.0 0.01 0.01 0.0 0.0 0.0 0.01 0.0 0.0 0.0 0.01 0.01 0.0 0.0 0.0 0.01 0.0 0.0 0.0 0.01 0.01 0.0 0.0 0.0 0.01 0.0 0.0 0.0 0.01 0.01 0.0 0.0 0.0 0.01 0.0 0.0 0.0 0.01 0.01 0.0 0.0 0.0 0.01 0.0 0.0 0.0 0.01 0.01 0.0 0.0 0.0 0.01 0.0 0.0 0.0 0.01 0.01 0.0 0.0 0.0 0.01 0.0 0.0 0.0 0.01 0.01 0.0 0.0 0.0 0.01 0.0 0.0 0.0 0.01 0.01 0.0 0.0 0.0 0.01 0.0 0.0 0.0 0.01 0.01 0.0 0.0 0.0 0.01 0.0 0.0 0.0 0.01 0.01 0.0 0.0 0.0 0.01 0.0 0.0 0.0 0.01 0.01 0.0 0.0 0.0 0.01 0.0 0.0 0.0 0.01 0.01 0.0 0.0 0.0 0.01 0.0 0.0 0.0 0.01 0.01 0.0 0.0 0.0 0.01 0.0 0.0 0.0 0.01 0.01 0.0 0.0 0.0 0.01 0.0 0.0 0.0 0.01 0.01 0.0 0.0 0.0 0.01 0.0 0.0 0.0 0.01 0.01 0.0 0.0 0.0 0.01 0.0 0.0 0.0 0.01 0.01 0.0 0.0 0.0 0.01 0.0 0.0 0.0 0.01 0.01 0.0 0.0 0.0 0.01 0.0 0.0 0.0 0.01 0.01 0.0 0.0 0.0 0.01 0.0 0.0 0.0 0.01 0.01 0.0 0.0 0.0 0.01 0.0 0.0 0.0 0.01 0.01 0.0 0.0 0.0 0.01 0.0 0.0 0.0 0.01 0.01 0.0 0.0 0.0 0.01 0.0 0.0 0.0 0.01 0.01 0.0 0.0 0.0 0.01 0.0 0.0 0.0 0.01 0.01 0.0 0.0 0.0 0.01 0.0 0.0 0.0 0.01 0.01 0.0 0.0 0.0 0.01 0.0 0.0 0.0 0.01 0.01 0.0 0.0 0.0 0.01 0.0 0.0 0.0 0.01 0.01 0.0 0.0 0.0 0.01 0.0 0.0 0.0 0.01 0.01 0.0 0.0 0.0 0.01 0.0 0.0 0.0 0.01 0.01 0.0 0.0 0.0 0.01 0.0 0.0 0.0 0.01 0.01 0.0 0.0 0.0 0.01 0.0 0.0 0.0 0.01 0.01 0.0 0.0 0.0 0.01 0.0 0.0 0.0 0.01 0.01 0.0 0.0 0.0 0.01 0.0 0.0 0.0 0.01 0.01 0.0 0.0 0.0 0.01 0.0 0.0 0.0 0.01 0.01 0.0 0.0 0.0 0.01 0.0 0.0 0.0 0.01 0.01 0.0 0.0 0.0 0.01 0.0 0.0 0.0 0.01 0.01 0.0 0.0 0.0 0.01 0.0 0.0 0.0 0.01 0.01 0.0 0.0 0.0 0.01 0.0 0.0 0.0 0.01 0.01 0.0 0.0 0.0 0.01 0.0 0.0 0.0 0.01 0.01 0.0 0.0 0.0 0.01 0.0 0.0 0.0 0.01 0.01 0.0 0.0 0.0 0.01 0.0 0.0 0.0 0.01 0.01 0.0 0.0 0.0 0.01 0.0 0.0 0.0 0.01 0.01 0.0 0.0 0.0 0.01 0.0 0.0 0.0 0.01 0.01 0.0 0.0 0.0 0.01 0.0 0.0 0.0 0.01 0.01 0.0 0.0 0.0 0.01 0.0 0.0 0.0 0.01 0.01 0.0 0.0 0.0 0.01 0.0 0.0 0.0 0.01 0.01 0.0 0.0 0.0 0.01 0.0 0.0 0.0 0.01 0.01 0.0 0.0 0.0 0.01 0.0 0.0 0.0 0.01 0.01 0.0 0.0 0.0 0.01 0.0 0.0 0.0 0.01 0.01 0.0 0.0 0.0 0.01 0.0 0.0 0.0 0.01 0.01 0.0 0.0 0.0 0.01 0.0 0.0 0.0 0.01 0.01 0.0 0.0 0.0 0.01 0.0 0.0 0.0 0.01 0.01 0.0 0.0 0.0 0.01 0.0 0.0 0.0 0.01 0.01 0.0 0.0 0.0 0.01 0.0 0.0 0.0 0.01 0.01 0.0 0.0 0.0 0.01 0.0 0.0 0.0 0.01 0.01 0.0 0.0 0.0 0.01 0.0 0.0 0.0 0.01 0.01 0.0 0.0 0.0 0.01 0.0 0.0 0.0 0.01 0.01 0.0 0.0 0.0 0.01 0.0 0.0 0.0 0.01 0.01 0.0 0.0 0.0 0.01 0.0 0.0 0.0 0.01 0.01 0.0 0.0 0.0 0.01 0.0 0.0 0.0 0.01 0.01 0.0 0.0 0.0 0.01 0.0 0.0 0.0 0.01 0.01 0.0 0.0 0.0 0.01 0.0 0.0 0.0 0.01 0.01 0.0 0.0 0.0 0.01 0.0 0.0 0.0 0.01 0.01 0.0 0.0 0.0 0.01 0.0 0.0 0.0 0.01 0.01 0.0 0.0 0.0 0.01 0.0 0.0 0.0 0.01 0.01 0.0 0.0 0.0 0.01 0.0 0.0 0.0 0.01 0.01 0.0 0.0 0.0 0.01 0.0 0.0 0.0 0.01 0.01 0.0 0.0 0.0 0.01 0.0 0.0 0.0 0.01 0.01 0.0 0.0 0.0 0.01 0.0 0.0 0.0 0.01 0.01 0.0 0.0 0.0 0.01 0.0 0.0 0.0 0.01 0.01 0.0 0.0 0.0 0.01 0.0 0.0 0.0 0.01 0.01 0.0 0.0 0.0 0.01 0.0 0.0 0.0 0.01 0.01 0.0 0.0 0.0 0.01 0.0 0.0 0.0 0.01 0.01 0.0 0.0 0.0 0.01 0.0 0.0 0.0 0.01 0.01 0.0 0.0 0.0 0.01 0.0 0.0 0.0 0.01 0.01 0.0 0.0 0.0 0.01 0.0 0.0 0.0 0.01 0.01 0.0 0.0 0.0 0.01 0.0 0.0 0.0 0.01 0.01 0.0 0.0 0.0 0.01 0.0 0.0 0.0 0.01 0.01 0.0 0.0 0.0 0.01 0.0 0.0 0.0 0.01 0.01 0.0 0.0 0.0 0.01 0.0 0.0 0.0 0.01 0.01 0.0 0.0 0.0 0.01 0.0 0.0 0.0 0.01 0.01 0.0 0.0 0.0 0.01 0.0 0.0 0.0 0.01 0.01 0.0 0.0 0.0 0.01 0.0 0.0 0.0 0.01 0.01 0.0 0.0 0.0 0.01 0.0 0.0 0.0 0.01 0.01 0.0 0.0 0.0 0.01 0.0 0.0 0.0 0.01 0.01 0.0 0.0 0.0 0.01 0.0 0.0 0.0 0.01 0.01 0.0 0.0 0.0 0.01 0.0 0.0 0.0 0.01 0.01 0.0 0.0 0.0 0.01 0.0 0.0 0.0 0.01 0.01 0.0 0.0 0.0 0.01 0.0 0.0 0.0 0.01 0.01 0.0 0.0 0.0 0.01 0.0 0.0 0.0 0.01 0.01 0.0 0.0 0.0 0.01 0.0 0.0 0.0 0.01 0.01 0.0 0.0 0.0 0.01 0.0 0.0 0.0 0.01 0.01 0.0 0.0 0.0 0.01 0.0 0.0 0.0 0.01 0.01 0.0 0.0 0.0 0.01 0.0 0.0 0.0 0.01 0.01 0.0 0.0 0.0 0.01 0.0 0.0 0.0 0.01 0.01 0.0 0.0 0.0 0.01 0.0 0.0 0.0 0.01 0.01 0.0 0.0 0.0 0.01 0.0 0.0 0.0 0.01 0.01 0.0 0.0 0.0 0.01 0.0 0.0 0.0 0.01 0.01 0.0 0.0 0.0 0.01 0.0 0.0 0.0 0.01 0.01 0.0 0.0 0.0 0.01 0.0 0.0 0.0 0.01 0.01 0.0 0.0 0.0 0.01 0.0 0.0 0.0 0.01 0.01 0.0 0.0 0.0 0.01 0.0 0.0 0.0 0.01 0.01 0.0 0.0 0.0 0.01 0.0 0.0 0.0 0.01 0.01 0.0 0.0 0.0 0.01 0.0 0.0 0.0 0.01 0.01 0.0 0.0 0.0 0.01 0.0 0.0 0.0 0.01 0.01 0.0 0.0 0.0 0.01 0.0 0.0 0.0 0.01 0.01 0.0 0.0 0.0 0.01 0.0 0.0 0.0 0.01 0.01 0.0 0.0 0.0 0.01 0.0 0.0 0.0 0.01 0.01 0.0 0.0 0.0 0.01 0.0 0.0 0.0 0.01 0.01 0.0 0.0 0.0 0.01 0.0 0.0 0.0 0.01 0.01 0.0 0.0 0.0 0.01 0.0 0.0 0.0 0.01 0.01 0.0 0.0 0.0 0.01 0.0 0.0 0.0 0.01 0.01 0.0 0.0 0.0 0.01 0.0 0.0 0.0 0.01 0.01 0.0 0.0 0.0 0.01 0.0 0.0 0.0 0.01 0.01 0.0 0.0 0.0 0.01 0.0 0.0 0.0 0.01 0.01 0.0 0.0 0.0 0.01 0.0 0.0 0.0 0.01 0.01 0.0 0.0 0.0 0.01 0.0 0.0 0.0 0.01 0.01 0.0 0.0 0.0 0.01 0.0 0.0 0.0 0.01 0.01 0.0 0.0 0.0 0.01 0.0 0.0 0.0 0.01 0.01 0.0 0.0 0.0 0.01 0.0 0.0 0.0 0.01 0.01 0.0 0.0 0.0 0.01 0.0 0.0 0.0 0.01 0.01 0.0 0.0 0.0 0.01 0.0 0.0 0.0 0.01 0.01 0.0 0.0 0.0 0.01 0.0 0.0 0.0 0.01 0.01 0.0 0.0 0.0 0.01 0.0 0.0 0.0 0.01 0.01 0.0 0.0 0.0 0.01 0.0 0.0 0.0 0.01 0.01 0.0 0.0 0.0 0.01 0.0 0.0 0.0 0.01 0.01 0.0 0.0 0.0 0.01 0.0 0.0 0.0 0.01 0.01 0.0 0.0 0.0 0.01 0.0 0.0 0.0 0.01 0.01 0.0 0.0 0.0 0.01 0.0 0.0 0.0 0.01 0.01 0.0 0.0 0.0 0.01 0.0 0.0 0.0 0.01 0.01 0.0 0.0 0.0 0.01 0.0 0.0 0.0 0.01 0.01 0.0 0.0 0.0 0.01 0.0 0.0 0.0 0.01 0.01 0.0 0.0 0.0 0.01 0.0 0.0 0.0 0.01 0.01 0.0 0.0 0.0 0.01 0.0 0.0 0.0 0.01 0.01 0.0 0.0 0.0 0.01 0.0 0.0 0.0 0.01 0.01 0.0 0.0 0.0 0.01 0.0 0.0 0.0 0.01 0.01 0.0 0.0 0.0 0.01 0.0 0.0 0.0 0.01 0.01 0.0 0.0 0.0 0.01 0.0 0.0 0.0 0.01 0.01 0.0 0.0 0.0 0.01 0.0 0.0 0.0 0.01 0.01 0.0 0.0 0.0 0.01 0.0 0.0 0.0 0.01 0.01 0.0 0.0 0.0 0.01 0.0 0.0 0.0 0.01 0.01 0.0 0.0 0.0 0.01 0.0 0.0 0.0 0.01 0.01 0.0 0.0 0.0 0.01 0.0 0.0 0.0 0.01 0.01 0.0 0.0 0.0 0.01 0.0 0.0 0.0 0.01 0.01 0.0 0.0 0.0 0.01 0.0 0.0 0.0 0.01 0.01 0.0 0.0 0.0 0.01 0.0 0.0 0.0 0.01 0.01 0.0 0.0 0.0 0.01 0.0 0.0 0.0 0.01 0.01 0.0 0.0 0.0 0.01 0.0 0.0 0.0 0.01 0.01 0.0 0.0 0.0 0.01 0.0 0.0 0.0 0.01 0.01 0.0 0.0 0.0 0.01 0.0 0.0 0.0 0.01 0.01 0.0 0.0 0.0 0.01 0.0 0.0 0.0 0.01 0.01 0.0 0.0 0.0 0.01 0.0 0.0 0.0 0.01 0.01 0.0 0.0 0.0 0.01 0.0 0.0 0.0 0.01 0.01 0.0 0.0 0.0 0.01 0.0 0.0 0.0 0.01 0.01 0.0 0.0 0.0 0.01 0.0 0.0 0.0 0.01 0.01 0.0 0.0 0.0 0.01 0.0 0.0 0.0 0.01 0.01 0.0 0.0 0.0 0.01 0.0 0.0 0.0 0.01 0.01 0.0 0.0 0.0 0.01 0.0 0.0 0.0 0.01 0.01 0.0 0.0 0.0 0.01 0.0 0.0 0.0 0.01 0.01 0.0 0.0 0.0 0.01 0.0 0.0 0.0 0.01 0.01 0.0 0.0 0.0 0.01 0.0 0.0 0.0 0.01 0.01 0.0 0.0 0.0 0.01 0.0 0.0 0.0 0.01 0.01 0.0 0.0 0.0 0.01 0.0 0.0 0.0 0.01 0.01 0.0 0.0 0.0 0.01 0.0 0.0 0.0 0.01 0.01 0.0 0.0 0.0 0.01 0.0 0.0 0.0 0.01 0.01 0.0 0.0 0.0 0.01 0.0 0.0 0.0 0.01 0.01 0.0 0.0 0.0 0.01 0.0 0.0 0.0 0.01 0.01 0.0 0.0 0.0 0.01 0.0 0.0 0.0 0.01 0.01 0.0 0.0 0.0 0.01 0.0 0.0 0.0 0.01 0.01 0.0 0.0 0.0 0.01 0.0 0.0 0.0 0.01 0.01 0.0 0.0 0.0 0.01 0.0 0.0 0.0 0.01 0.01 0.0 0.0 0.0 0.01 0.0 0.0 0.0 0.01 0.01 0.0 0.0 0.0 0.01 0.0 0.0 0.0 0.01 0.01 0.0 0.0 0.0 0.01 0.0 0.0 0.0 0.01 0.01 0.0 0.0 0.0 0.01 0.0 0.0 0.0 0.01 0.01 0.0 0.0 0.0 0.01 0.0 0.0 0.0 0.01 0.01 0.0 0.0 0.0 0.01 0.0 0.0 0.0 0.01 0.01 0.0 0.0 0.0 0.01 0.0 0.0 0.0 0.01 0.01 0.0 0.0 0.0 0.01 0.0 0.0 0.0 0.01 0.01 0.0 0.0 0.0 0.01 0.0 0.0 0.0 0.01 0.01 0.0 0.0 0.0 0.01 0.0 0.0 0.0 0.01 0.01 0.0 0.0 0.0 0.01 0.0 0.0 0.0 0.01 0.01 0.0 0.0 0.0 0.01 0.0 0.0 0.0 0.01 0.01 0.0 0.0 0.0 0.01 0.0 0.0 0.0 0.01 0.01 0.0 0.0 0.0 0.01 0.0 0.0 0.0 0.01 0.01 0.0 0.0 0.0 0.01 0.0 0.0 0.0 0.01 0.01 0.0 0.0 0.0 0.01 0.0 0.0 0.0 0.01 0.01 0.0 0.0 0.0 0.01 0.0 0.0 0.0 0.01 0.01 0.0 0.0 0.0 0.01 0.0 0.0 0.0 0.01 0.01 0.0 0.0 0.0 0.01 0.0 0.0 0.0 0.01 0.01 0.0 0.0 0.0 0.01 0.0 0.0 0.0 0.01 0.01 0.0 0.0 0.0 0.01 0.0 0.0 0.0 0.01 0.01 0.0 0.0 0.0 0.01 0.0 0.0 0.0 0.01 0.01 0.0 0.0 0.0 0.01 0.0 0.0 0.0 0.01 0.01 0.0 0.0 0.0 0.01 0.0 0.0 0.0 0.01 0.01 0.0 0.0 0.0 0.01 0.0 0.0 0.0 0.01 0.01 0.0 0.0 0.0 0.01 0.0 0.0 0.0 0.01 0.01 0.0 0.0 0.0 0.01 0.0 0.0 0.0 0.01 0.01 0.0 0.0 0.0 0.01 0.0 0.0 0.0 0.01 0.01 0.0 0.0 0.0 0.01 0.0 0.0 0.0 0.01 0.01 0.0 0.0 0.0 0.01 0.0 0.0 0.0 0.01 0.01 0.0 0.0 0.0 0.01 0.0 0.0 0.0 0.01 0.01 0.0 0.0 0.0 0.01 0.0 0.0 0.0 0.01 0.01 0.0 0.0 0.0 0.01 0.0 0.0 0.0 0.01 0.01 0.0 0.0 0.0 0.01 0.0 0.0 0.0 0.01 0.01 0.0 0.0 0.0 0.01 0.0 0.0 0.0 0.01 0.01 0.0 0.0 0.0 0.01 0.0 0.0 0.0 0.01 0.01 0.0 0.0 0.0 0.01 0.0 0.0 0.0 0.01 0.01 0.0 0.0 0.0 0.01 0.0 0.0 0.0 0.01 0.01 0.0 0.0 0.0 0.01 0.0 0.0 0.0 0.01 0.01 0.0 0.0 0.0 0.01 0.0 0.0 0.0 0.01 0.01 0.0 0.0 0.0 0.01 0.0 0.0 0.0 0.01 0.01 0.0 0.0 0.0 0.01 0.0 0.0 0.0 0.01 0.01 0.0 0.0 0.0 0.01 0.0 0.0 0.0 0.01 0.01 0.0 0.0 0.0 0.01 0.0 0.0 0.0 0.01 0.01 0.0 0.0 0.0 0.01 0.0 0.0 0.0 0.01 0.009999999999999998 0.0 0.0 0.0 0.01 0.0 0.0 0.0 0.009999999999999998 0.01 0.0 -1.734723475976807e-18 0.0 0.01 0.0 -1.734723475976807e-18 0.0 0.01 0.009999999500000037 0.0 3.878566299209832e-12 0.0 0.01 0.0 3.878566299209832e-12 0.0 0.01 0.009999999500000037 0.0 -3.843897113746256e-18 0.0 0.01 0.0 -3.843897113746256e-18 0.0 0.01 0.009999999500000037 0.0 4.003729199184333e-11 0.0 0.01 0.0 4.003729199184333e-11 0.0 0.01 0.009999999999999998 0.0 -1.734723475976807e-18 0.0 0.01 0.0 -1.734723475976807e-18 0.0 0.009999999999999998 0.01 0.0 -1.734723475976807e-18 0.0 0.01 0.0 -1.734723475976807e-18 0.0 0.01 0.009999999500000037 0.0 2.69110389945175e-11 0.0 0.01 0.0 2.69110389945175e-11 0.0 0.01 0.009999999500000037 0.0 8.662149198235288e-12 0.0 0.01 0.0 8.662149198235288e-12 0.0 0.01 0.009999999500000039 0.0 -4.861706590792775e-18 0.0 0.01 0.0 -4.861706590792775e-18 0.0 0.010000000000000002 0.009999999500000037 0.0 -2.7497563994398005e-11 0.0 0.01 0.0 -2.7497563994398005e-11 0.0 0.01 0.009999999500000039 0.0 -7.121278491879951e-18 0.0 0.01 0.0 -7.121278491879951e-18 0.0 0.010000000000000002 0.009999999500000037 0.0 -4.009098999183239e-11 0.0 0.01 0.0 -4.009098999183239e-11 0.0 0.01 0.009999999500000037 0.0 1.3741380997200515e-11 0.0 0.01 0.0 1.3741380997200515e-11 0.0 0.01 0.009999999500000039 0.0 -5.5165975921921626e-18 0.0 0.01 0.0 -5.5165975921921626e-18 0.0 0.010000000000000002 0.00999999900000015 0.0 -6.8014399702754934e-18 0.0 0.01 0.0 -6.8014399702754934e-18 0.0 0.01 0.00999999900000015 0.0 -4.810319378180505e-18 0.0 0.01 0.0 -4.810319378180505e-18 0.0 0.01 0.009999999500000037 0.0 4.045874445430541e-15 0.0 0.01 0.0 4.045874445430541e-15 0.0 0.01 0.009999999500000035 0.0 1.0823513690998068e-15 0.0 0.01 0.0 1.0823513690998068e-15 0.0 0.009999999999999998 0.00999999900000015 0.0 -4.108726149162943e-12 0.0 0.01 0.0 -4.108726149162943e-12 0.0 0.01 0.00999999900000015 0.0 -3.7070085386761554e-18 0.0 0.01 0.0 -3.7070085386761554e-18 0.0 0.01 0.009999998500000338 0.0 -3.4976430122572695e-18 0.0 0.01 0.0 -3.4976430122572695e-18 0.0 0.01 0.009999998500000338 0.0 -1.021053599791984e-11 0.0 0.01 0.0 -1.021053599791984e-11 0.0 0.01 0.009999999500000037 0.0 5.065025615179526e-13 0.0 0.01 0.0 5.065025615179526e-13 0.0 0.009999999999999998 0.009999999000000152 0.0 2.931266603346783e-13 0.0 0.01 0.0 2.931266607581948e-13 0.0 0.009999999999999998 0.009999998500000336 0.0 1.0666143602516836e-13 0.0 0.01 0.0 1.0666143613104748e-13 0.0 0.01 0.00999999850000034 0.0 1.2318742234115972e-14 0.0 0.01 0.0 1.2318742220881083e-14 0.0 0.01 0.009999998500000338 0.0 -2.967512731974194e-18 0.0 0.01 0.0 -2.967512731974194e-18 0.0 0.01 0.009999998500000338 0.0 -3.81948554045435e-18 0.0 0.01 0.0 -3.81948554045435e-18 0.0 0.01 0.00999999900000015 0.0 5.297661703036142e-12 0.0 0.01 0.0 5.297661696259878e-12 0.0 0.009999999999999998 0.009999998500000336 0.0 3.4773310160420446e-12 0.0 0.01 0.0 3.477331012653913e-12 0.0 0.009999999999999997 0.0099999980000006 0.0 1.6913545928664165e-12 0.0 0.01 0.0 1.6913545962545483e-12 0.0 0.01 0.00999999750000094 0.0 5.025183612090078e-13 0.0 0.01 0.0 5.025183612090078e-13 0.0 0.009999999999999998 0.009999997500000937 0.0 6.20803517819844e-14 0.0 0.01 0.0 6.20803517819844e-14 0.0 0.010000000000000002 0.009999997000001351 0.0 4.194617000417105e-12 0.0 0.01 0.0 4.194617000417105e-12 0.0 0.01 0.00999999850000034 0.0 2.6485334514740264e-11 0.0 0.01 0.0 2.6485334568950372e-11 0.0 0.010000000000000002 0.009999997500000938 0.0 1.883744542459636e-11 0.0 0.01 0.0 1.8837445438148887e-11 0.0 0.009999999999999998 0.009999997000001348 0.0 1.0006648999271329e-11 0.0 0.01 0.0 1.0006648999271329e-11 0.0 0.009999999999999998 0.009999996500001836 0.0 3.7598143253826134e-12 0.0 0.01 0.0 3.7598143253826134e-12 0.0 0.009999999999999998 0.009999996500001836 0.0 8.383695095163764e-13 0.0 0.01 0.0 8.383695095163764e-13 0.0 0.009999999999999998 0.009999996500001836 0.0 6.831084415942494e-14 0.0 0.01 0.0 6.831084418589472e-14 0.0 0.010000000000000002 0.009999997000001351 0.0 9.240392338013409e-11 0.0 0.01 0.0 9.240392338013409e-11 0.0 0.009999999999999998 0.009999996500001837 0.0 6.763040453182378e-11 0.0 0.01 0.0 6.763040450471873e-11 0.0 0.01 0.009999996000002403 0.0 3.728986410834242e-11 0.0 0.01 0.0 3.728986410834242e-11 0.0 0.01 0.009999995500003037 0.0 1.5259437207467818e-11 0.0 0.01 0.0 1.5259437207467818e-11 0.0 0.010000000000000002 0.00999999500000375 0.0 4.2207425332834326e-12 0.0 0.01 0.0 4.2207425332834326e-12 0.0 0.009999999999999998 0.009999994500004536 0.0 6.207838878312914e-13 0.0 0.01 0.0 6.207838876195332e-13 0.0 0.009999999999999998 0.00999999500000376 0.0 2.5467576994769175e-10 0.0 0.01 0.0 2.5467576994769175e-10 0.0 0.009999999500000047 0.009999994000005405 0.0 1.8551003300778385e-10 0.0 0.01 0.0 1.8551003306199396e-10 0.0 0.010000000000000005 0.00999999300000735 0.0 1.0265563719176127e-10 0.0 0.01 0.0 1.0265563721886632e-10 0.0 0.010000000000000002 0.00999999300000735 0.0 4.319706764055291e-11 0.0 0.01 0.0 4.319706764055291e-11 0.0 0.01 0.009999992500008437 0.0 1.3100705260470514e-11 0.0 0.01 0.0 1.3100705257082382e-11 0.0 0.009999999999999997 0.009999992500008437 0.0 2.4474740967110663e-12 0.0 0.01 0.0 2.44747409628755e-12 0.0 0.009999999999999998 0.009999992500008489 0.0 5.725764128236208e-10 0.0 0.01 0.0 5.725764128236208e-10 0.0 0.009999999500000089 0.00999999150001086 0.0 4.0828244946130784e-10 0.0 0.01 0.0 4.0828244946130784e-10 0.0 0.010000000000000024 0.009999991000012157 0.0 2.2223739493641703e-10 0.0 0.01 0.0 2.2223739504483725e-10 0.0 0.010000000000000009 0.009999990000014997 0.0 9.339159491323495e-11 0.0 0.01 0.0 9.339159491323495e-11 0.0 0.009999999999999998 0.009999990000015002 0.0 2.927637428342647e-11 0.0 0.01 0.0 2.927637428342647e-11 0.0 0.01000000050000004 0.009999989500016538 0.0 6.06973489668299e-12 0.0 0.01 0.0 6.069734895835957e-12 0.0 0.01000000050000004 0.009999989500016697 0.0 1.0384686088479866e-09 0.0 0.01 0.0 1.0384686086311462e-09 0.0 0.009999999000000311 0.009999987500023516 0.0 7.257416890756388e-10 0.0 0.01 0.0 7.25741689184059e-10 0.0 0.010000000000000077 0.009999986500027362 0.0 3.8601961834276374e-10 0.0 0.01 0.0 3.8601961834276374e-10 0.0 0.010000000000000026 0.009999986000029402 0.0 1.5953037194483145e-10 0.0 0.01 0.0 1.5953037194483145e-10 0.0 0.010000000500000038 0.0099999860000294 0.0 5.0044742418294767e-11 0.0 0.01 0.0 5.004474240474224e-11 0.0 0.01000000100000015 0.0099999860000294 0.0 1.0737622560201391e-11 0.0 0.01 0.0 1.0737622561895457e-11 0.0 0.01000000100000015 0.009999984000038747 0.0 1.513518240424394e-09 0.0 0.01 0.0 1.5135182406412345e-09 0.0 0.009999999000000493 0.00999998300004351 0.0 1.0407331962371258e-09 0.0 0.01 0.0 1.0407331961287056e-09 0.0 0.01000000000000016 0.009999982500045983 0.0 5.406989211833441e-10 0.0 0.01 0.0 5.40698921129134e-10 0.0 0.010000000500000083 0.009999980500057045 0.0 2.176862109217999e-10 0.0 0.01 0.0 2.1768621089469486e-10 0.0 0.010000001000000156 0.009999980500057036 0.0 6.681795909076844e-11 0.0 0.01 0.0 6.681795909076844e-11 0.0 0.010000001450000316 0.009999980500057036 0.0 1.4129583789408294e-11 0.0 0.01 0.0 1.4129583790255327e-11 0.0 0.010000001000000149 0.00999997750007641 0.0 1.7690870293208052e-09 0.0 0.01 0.0 1.7690870293208052e-09 0.0 0.01000000000000047 0.009999976500083057 0.0 1.2051708920103946e-09 0.0 0.01 0.0 1.205170892227235e-09 0.0 0.010000000500000257 0.009999975000093808 0.0 6.105613931648747e-10 0.0 0.01 0.0 6.105613931377697e-10 0.0 0.01000000145000037 0.009999974000101408 0.0 2.3707094477082823e-10 0.0 0.01 0.0 2.3707094477082823e-10 0.0 0.010000001950000578 0.009999973500105336 0.0 6.961985362394316e-11 0.0 0.01 0.0 6.961985362394316e-11 0.0 0.010000001950000571 0.0099999720001176 0.0 1.3816347514043845e-11 0.0 0.01 0.0 1.3816347514043845e-11 0.0 0.010000001950000571 0.009999970000135423 0.0 1.6725646872269712e-09 0.0 0.01 0.0 1.672564687118551e-09 0.0 0.010000001450000734 0.00999996700016354 0.0 1.1257483412802603e-09 0.0 0.01 0.0 1.1257483412802603e-09 0.0 0.010000002450001093 0.009999965500178584 0.0 5.52067487346675e-10 0.0 0.01 0.0 5.5206748731957e-10 0.0 0.010000002950001353 0.00999996450018904 0.0 2.0326570128134137e-10 0.0 0.01 0.0 2.0326570128134137e-10 0.0 0.01000000340000174 0.00999996300020535 0.0 5.532691115688916e-11 0.0 0.01 0.0 5.532691115350103e-11 0.0 0.010000003400001737 0.009999963000205352 0.0 9.607556428875406e-12 0.0 0.01 0.0 9.607556428875406e-12 0.0 0.010000002950001306 0.009999957000277592 0.0 1.2771701051340206e-09 0.0 0.01 0.0 1.2771701051882307e-09 0.0 0.010000004400003147 0.009999954000317505 0.0 8.361252953296028e-10 0.0 0.01 0.0 8.361252953296028e-10 0.0 0.010000004900003709 0.009999952500338456 0.0 3.896043759420327e-10 0.0 0.01 0.0 3.896043759420327e-10 0.0 0.010000005850005154 0.009999951500352839 0.0 1.3203629530190606e-10 0.0 0.01 0.0 1.3203629529851793e-10 0.0 0.010000005850005137 0.009999951000360146 0.0 3.149232130447195e-11 0.0 0.01 0.0 3.149232130447195e-11 0.0 0.010000005350004292 0.009999950500367534 0.0 4.182272020637069e-12 0.0 0.01 0.0 4.182272020742948e-12 0.0 0.010000004900003604 0.009999940000540082 0.0 7.546532476883101e-10 0.0 0.01 0.0 7.546532476747575e-10 0.0 0.010000008300010422 0.00999993700059538 0.0 4.689787370433388e-10 0.0 0.01 0.0 4.689787370568913e-10 0.0 0.01000000830001037 0.009999935500624032 0.0 2.0005297857059135e-10 0.0 0.01 0.0 2.0005297856720322e-10 0.0 0.010000008800011619 0.009999934000653393 0.0 5.915655800060686e-11 0.0 0.01 0.0 5.915655800060686e-11 0.0 0.010000008300010335 0.00999993350066333 0.0 1.0977380779964119e-11 0.0 0.01 0.0 1.0977380779964119e-11 0.0 0.010000006850007034 0.009999933000673342 0.0 7.85714851962374e-13 0.0 0.01 0.0 7.857148519756089e-13 0.0 0.010000006350006049 0.009999916501045838 0.0 3.0614144674038146e-10 0.0 0.01 0.0 3.061414467471577e-10 0.0 0.010000013200026149 0.009999914001109389 0.0 1.7208947578718293e-10 0.0 0.01 0.0 1.7208947578718293e-10 0.0 0.010000013200026138 0.009999912501148421 0.0 6.322150565632863e-11 0.0 0.01 0.0 6.322150565632863e-11 0.0 0.010000012700024192 0.00999991150117482 0.0 1.4211941910788925e-11 0.0 0.01 0.0 1.4211941910577167e-11 0.0 0.010000012700024194 0.009999910001214985 0.0 1.417019455240089e-12 0.0 0.01 0.0 1.4170194552136193e-12 0.0 0.010000010750017338 0.009999910001214982 0.0 2.7120054144609884e-16 0.0 0.01 0.0 2.7120054144609884e-16 0.0 0.010000008300010334 0.009999885001983712 0.0 5.946713412410771e-11 0.0 0.01 0.0 5.946713412326068e-11 0.0 0.010000019050054433 0.009999883502035801 0.0 2.8225851271289267e-11 0.0 0.01 0.0 2.8225851271289267e-11 0.0 0.010000017600046464 0.009999882502070899 0.0 7.301900081682381e-12 0.0 0.01 0.0 7.301900081576502e-12 0.0 0.010000017600046467 0.009999881502106298 0.0 6.154878461518764e-13 0.0 0.01 0.0 6.154878461518764e-13 0.0 0.010000016100038884 0.009999881502106296 0.0 -8.960192251123189e-16 0.0 0.01 0.0 -8.960192251123189e-16 0.0 0.010000014150030033 0.00999988200208856 0.0 3.4111996644665525e-16 0.0 0.01 0.0 3.4111996644665525e-16 0.0 0.010000012200022326 0.009999844503626946 0.0 9.861859952565554e-13 0.0 0.01 0.0 9.861859952565554e-13 0.0 0.01000002635010415 0.009999843003697257 0.0 1.4039881301576106e-13 0.0 0.01 0.0 1.4039881301576106e-13 0.0 0.010000024900093005 0.009999843003697254 0.0 -2.9918767156267553e-14 0.0 0.01 0.0 -2.9918767156267553e-14 0.0 0.010000023450082485 0.009999842503720843 0.0 -1.046495972259728e-14 0.0 0.01 0.0 -1.0464959722493883e-14 0.0 0.010000021950072274 0.00999984250372084 0.0 -1.3550948566009526e-15 0.0 0.01 0.0 -1.3550948566009526e-15 0.0 0.010000018550051615 0.009999843503673741 0.0 8.049904866145715e-16 0.0 0.01 0.0 8.049904866145715e-16 0.0 0.010000015600036504 0.00999979150652061 0.0 -9.56838849937656e-14 0.0 0.01 0.0 -9.568388499293842e-14 0.0 0.010000037100206461 0.009999791006551923 0.0 -8.923651854907785e-14 0.0 0.01 0.0 -8.923651854907785e-14 0.0 0.010000033700170358 0.009999790506583308 0.0 -4.766623453527461e-14 0.0 0.01 0.0 -4.766623453527461e-14 0.0 0.010000031250146485 0.009999791506520611 0.0 -1.6636692309654116e-14 0.0 0.01 0.0 -1.6636692309550718e-14 0.0 0.010000029300128775 0.009999792506458216 0.0 -2.4156678853672783e-15 0.0 0.01 0.0 -2.4156678853672783e-15 0.0 0.010000024900093003 0.00999979400636518 0.0 7.114598071328424e-16 0.0 0.01 0.0 7.114598071328424e-16 0.0 0.01000002100006615 0.009999722011592063 0.0 -1.389110507735969e-13 0.0 0.01 0.0 -1.3891105077525126e-13 0.0 0.010000051750401714 0.009999722511550402 0.0 -1.360452386461792e-13 0.0 0.01 0.0 -1.3604523864700637e-13 0.0 0.010000045400309176 0.009999723011508818 0.0 -7.376181386333998e-14 0.0 0.01 0.0 -7.376181386333998e-14 0.0 0.010000041000252152 0.009999725011343233 0.0 -2.5769714283673663e-14 0.0 0.01 0.0 -2.5769714283466868e-14 0.0 0.010000038100217745 0.0099997280110971 0.0 -4.80156664950533e-15 0.0 0.01 0.0 -4.80156664950533e-15 0.0 0.010000032700160396 0.009999731510813353 0.0 7.435414927651499e-16 0.0 0.01 0.0 7.435414927651499e-16 0.0 0.010000025900100622 0.009999630020533735 0.0 -1.9044145173224159e-13 0.0 0.01 0.0 -1.9044145173224159e-13 0.0 0.010000069350721424 0.009999632020312357 0.0 -2.0367755720734907e-13 0.0 0.01 0.0 -2.036775572056947e-13 0.0 0.010000058100506349 0.00999963551992783 0.0 -1.1686913288032673e-13 0.0 0.01 0.0 -1.1686913288032673e-13 0.0 0.010000053200424542 0.009999640519384878 0.0 -4.268875342301896e-14 0.0 0.01 0.0 -4.268875342343255e-14 0.0 0.01000004980037201 0.009999646518743235 0.0 -8.814134664960635e-15 0.0 0.01 0.0 -8.814134664934785e-15 0.0 0.010000042000264603 0.009999651518216779 0.0 5.625386372331904e-16 0.0 0.01 0.0 5.625386372331904e-16 0.0 0.010000033700170356 0.009999510535938604 0.0 -2.2540635063354427e-13 0.0 0.01 0.0 -2.2540635063354427e-13 0.0 0.010000092301277913 0.009999517034990532 0.0 -3.070780484102316e-13 0.0 0.01 0.0 -3.070780484094044e-13 0.0 0.010000074700837023 0.009999525533769869 0.0 -1.897193550180873e-13 0.0 0.01 0.0 -1.8971935501726012e-13 0.0 0.010000067400681423 0.009999534032570872 0.0 -7.417829600668646e-14 0.0 0.01 0.0 -7.417829600668646e-14 0.0 0.010000063000595359 0.00999954403118803 0.0 -1.8474493561147144e-14 0.0 0.01 0.0 -1.8474493561147144e-14 0.0 0.01000005420044065 0.009999552030103352 0.0 -2.5856714912426387e-15 0.0 0.01 0.0 -2.5856714912426387e-15 0.0 0.010000043950289743 0.009999361561145831 0.0 -2.440367064755426e-13 0.0 0.01 0.0 -2.4403670647678335e-13 0.0 0.010000117702078034 0.00999937355886919 0.0 -4.875309031110612e-13 0.0 0.01 0.0 -4.875309031118884e-13 0.0 0.010000092751290402 0.009999387056359593 0.0 -3.3216813545516623e-13 0.0 0.01 0.0 -3.3216813545516623e-13 0.0 0.01000008495108249 0.009999402553545606 0.0 -1.4242018301369772e-13 0.0 0.01 0.0 -1.424201830141113e-13 0.0 0.010000081550997573 0.009999417550890996 0.0 -4.531328895356658e-14 0.0 0.01 0.0 -4.531328895366998e-14 0.0 0.010000071300762562 0.009999431548474245 0.0 -1.236421641387067e-14 0.0 0.01 0.0 -1.236421641387067e-14 0.0 0.010000058100506347 0.009999178101338718 0.0 -2.6269495096294243e-13 0.0 0.01 0.0 -2.6269495096294243e-13 0.0 0.010000147453261308 0.009999199096227306 0.0 -8.543982034143833e-13 0.0 0.01 0.0 -8.543982034143833e-13 0.0 0.010000112801908613 0.009999222090780828 0.0 -6.325690668049208e-13 0.0 0.01 0.0 -6.325690668049208e-13 0.0 0.010000108401762615 0.009999245585379802 0.0 -2.934370744617582e-13 0.0 0.01 0.0 -2.934370744621718e-13 0.0 0.010000108901778914 0.009999268080363798 0.0 -1.0514081799557247e-13 0.0 0.01 0.0 -1.0514081799557247e-13 0.0 0.010000097151415742 0.0099992875761394 0.0 -3.9538553503110724e-14 0.0 0.01 0.0 -3.9538553503110724e-14 0.0 0.01000007960095044 0.009998970159107686 0.0 -3.781879374494976e-13 0.0 0.01 0.0 -3.78187937449084e-13 0.0 0.010000177254712774 0.009999001149675231 0.0 -1.7148305385195972e-12 0.0 0.01 0.0 -1.714830538522906e-12 0.0 0.010000136252784673 0.009999034139950867 0.0 -1.3472987451332702e-12 0.0 0.01 0.0 -1.3472987451349245e-12 0.0 0.010000144053112637 0.009999067130553051 0.0 -6.428329809100521e-13 0.0 0.01 0.0 -6.428329809083977e-13 0.0 0.010000151853458851 0.009999098621887022 0.0 -2.3658198538903884e-13 0.0 0.01 0.0 -2.3658198538903884e-13 0.0 0.010000136702803095 0.009999126114564714 0.0 -9.689818535399611e-14 0.0 0.01 0.0 -9.689818535399611e-14 0.0 0.010000113751940898 0.009998750734138778 0.0 -1.0554477519933678e-12 0.0 0.01 0.0 -1.0554477519933678e-12 0.0 0.010000209456580623 0.00999879371830244 0.0 -3.944647519362397e-12 0.0 0.01 0.0 -3.944647519362397e-12 0.0 0.010000170904381147 0.009998838702323173 0.0 -3.142638066675655e-12 0.0 0.01 0.0 -3.142638066675655e-12 0.0 0.010000206556399657 0.009998881187789127 0.0 -1.4859162732421653e-12 0.0 0.01 0.0 -1.485916273240511e-12 0.0 0.010000225107600786 0.009998922674119674 0.0 -5.170782614058709e-13 0.0 0.01 0.0 -5.170782614058709e-13 0.0 0.01000020410624874 0.009998957163148992 0.0 -1.8682519798112756e-13 0.0 0.01 0.0 -1.8682519798112756e-13 0.0 0.010000168454256431 0.00999855481334505 0.0 -3.399225821685207e-12 0.0 0.01 0.0 -3.3992258216885156e-12 0.0 0.010000249509337927 0.009998606791208705 0.0 -9.707405105690398e-12 0.0 0.01 0.0 -9.707405105677163e-12 0.0 0.010000233908206703 0.009998660269279865 0.0 -7.724230883447169e-12 0.0 0.01 0.0 -7.724230883447169e-12 0.0 0.010000318365202815 0.009998712748595094 0.0 -3.5360176173941574e-12 0.0 0.01 0.0 -3.536017617400775e-12 0.0 0.010000351568539198 0.00999876123022061 0.0 -1.0809668489796777e-12 0.0 0.01 0.0 -1.0809668489788506e-12 0.0 0.01000031691506464 0.009998804214519638 0.0 -2.823957836063317e-13 0.0 0.01 0.0 -2.823957836059181e-13 0.0 0.010000258810047048 0.009998425871759984 0.0 -9.68069232213657e-12 0.0 0.01 0.0 -9.680692322129952e-12 0.0 0.01000032471581537 0.0099984828453336 0.0 -2.348351754512933e-11 0.0 0.01 0.0 -2.348351754512933e-11 0.0 0.01000035986942497 0.009998540819443335 0.0 -1.860606622130896e-11 0.0 0.01 0.0 -1.8606066221295724e-11 0.0 0.010000509788980073 0.009998596295613229 0.0 -8.304400360525242e-12 0.0 0.01 0.0 -8.30440036053186e-12 0.0 0.010000555246241334 0.009998650773111111 0.0 -2.2388002897537322e-12 0.0 0.01 0.0 -2.2388002897553866e-12 0.0 0.010000497587136479 0.009998698254225438 0.0 -2.815938927419203e-13 0.0 0.01 0.0 -2.815938927419203e-13 0.0 0.010000401874224137 0.009998424372468567 0.0 -2.3332236051789814e-11 0.0 0.01 0.0 -2.333223605180305e-11 0.0 0.010000496136920336 0.009998475848526483 0.0 -5.2126518853300726e-11 0.0 0.01 0.0 -5.2126518853300726e-11 0.0 0.010000612356242436 0.009998530823835228 0.0 -4.100720085884755e-11 0.0 0.01 0.0 -4.100720085884755e-11 0.0 0.010000809648318947 0.009998583800899805 0.0 -1.8102422508378674e-11 0.0 0.01 0.0 -1.810242250839191e-11 0.0 0.010000864362055351 0.00999863427982969 0.0 -4.487194665546339e-12 0.0 0.01 0.0 -4.487194665546339e-12 0.0 0.010000774990082137 0.009998681260906795 0.0 -6.608422840640415e-14 0.0 0.01 0.0 -6.608422840645585e-14 0.0 0.010000621157870773 0.009998606791208705 0.0 -4.694268092928509e-11 0.0 0.01 0.0 -4.694268092933803e-11 0.0 0.010000892219394111 0.009998644775544793 0.0 -9.98800682809098e-11 0.0 0.01 0.0 -9.988006828085686e-11 0.0 0.010001069971701424 0.00999868375991881 0.0 -7.829729476751973e-11 0.0 0.01 0.0 -7.829729476751973e-11 0.0 0.010001255136265517 0.009998722744748832 0.0 -3.4855942164716495e-11 0.0 0.01 0.0 -3.4855942164663555e-11 0.0 0.01000130495539185 0.009998761230220612 0.0 -8.355760742186867e-12 0.0 0.01 0.0 -8.355760742186867e-12 0.0 0.010001165753815613 0.009998801715417307 0.0 4.786639869110936e-13 0.0 0.01 0.0 4.7866398691068e-13 0.0 0.010000930779936567 0.009999008647436473 0.0 -7.812191753255622e-11 0.0 0.01 0.0 -7.812191753255622e-11 0.0 0.010001754361559706 0.009999022643302597 0.0 -1.6022708752767217e-10 0.0 0.01 0.0 -1.6022708752767217e-10 0.0 0.0100019244053579 0.009999036639227483 0.0 -1.263118649355714e-10 0.0 0.01 0.0 -1.2631186493567728e-10 0.0 0.01000195467296263 0.009999052634642175 0.0 -5.696037099606233e-11 0.0 0.01 0.0 -5.696037099606233e-11 0.0 0.010001897039677424 0.009999072629018495 0.0 -1.3814657140849027e-11 0.0 0.01 0.0 -1.3814657140835792e-11 0.0 0.010001674270383353 0.009999096122563935 0.0 1.1247833588941451e-12 0.0 0.01 0.0 1.1247833588941451e-12 0.0 0.010001334717172945 0.00999961902177277 0.0 -1.0470646235243682e-10 0.0 0.01 0.0 -1.0470646235248976e-10 0.0 0.010003320503129237 0.009999605023402216 0.0 -2.1210373856823952e-10 0.0 0.01 0.0 -2.1210373856823952e-10 0.0 0.01000339672988261 0.009999590525151824 0.0 -1.6803679964368077e-10 0.0 0.01 0.0 -1.6803679964378665e-10 0.0 0.010003003802882915 0.009999578526647469 0.0 -7.708876866398615e-11 0.0 0.01 0.0 -7.708876866398615e-11 0.0 0.01000266461464743 0.009999573027347409 0.0 -1.9270559357829177e-11 0.0 0.01 0.0 -1.9270559357842412e-11 0.0 0.010002288385266466 0.00999957502709183 0.0 1.41303674164023e-12 0.0 0.01 0.0 1.41303674164023e-12 0.0 0.010001815444256039 0.010000372570820319 0.0 -1.1059450894684332e-10 0.0 0.01 0.0 -1.1059450894681685e-10 0.0 0.010005347536365445 0.01000033156648973 0.0 -2.2356977068209964e-10 0.0 0.01 0.0 -2.2356977068215258e-10 0.0 0.010005301563007354 0.010000291012702773 0.0 -1.7897993535486705e-10 0.0 0.01 0.0 -1.7897993535481412e-10 0.0 0.01000430452774957 0.010000253909670192 0.0 -8.381231309233086e-11 0.0 0.01 0.0 -8.381231309227792e-11 0.0 0.010003541930902886 0.010000224607567061 0.0 -2.1981826025718563e-11 0.0 0.01 0.0 -2.1981826025705328e-11 0.0 0.010002961264844266 0.010000204106248732 0.0 1.0142675456661759e-12 0.0 0.01 0.0 1.014267545667003e-12 0.0 0.010002335768117107 0.010001149598206027 0.0 -9.48009746405429e-11 0.0 0.01 0.0 -9.48009746405429e-11 0.0 0.010007038173416045 0.010001090978509155 0.0 -1.857174690869305e-10 0.0 0.01 0.0 -1.8571746908698343e-10 0.0 0.010006977997076899 0.01000103140954891 0.0 -1.51008672659848e-10 0.0 0.01 0.0 -1.5100867265990095e-10 0.0 0.010005500635221815 0.010000978193510665 0.0 -7.231125073002961e-11 0.0 0.01 0.0 -7.231125073000314e-11 0.0 0.010004378373845867 0.010000931780215981 0.0 -1.9907346905364062e-11 0.0 0.01 0.0 -1.9907346905377297e-11 0.0 0.010003610354257914 0.010000893669782577 0.0 2.9527624998925976e-13 0.0 0.01 0.0 2.9527624998925976e-13 0.0 0.010002839609049156 0.01000180223709173 0.0 -7.171363048732663e-11 0.0 0.01 0.0 -7.171363048732663e-11 0.0 0.010007963602754497 0.010001740704402308 0.0 -1.2659530720185473e-10 0.0 0.01 0.0 -1.2659530720190767e-10 0.0 0.010008025751574409 0.010001676671589896 0.0 -1.025358251406313e-10 0.0 0.01 0.0 -1.025358251406313e-10 0.0 0.010006366424547539 0.010001617092163505 0.0 -4.986537648744789e-11 0.0 0.01 0.0 -4.986537648747436e-11 0.0 0.010005059987932257 0.010001562866306334 0.0 -1.4171339477670533e-11 0.0 0.01 0.0 -1.417133947767715e-11 0.0 0.010004168154579334 0.01000151449398434 0.0 -2.1971857906523423e-13 0.0 0.01 0.0 -2.1971857906523423e-13 0.0 0.010003279462526053 0.010002218037735534 0.0 -4.1059405467573765e-11 0.0 0.01 0.0 -4.1059405467573765e-11 0.0 0.010008342477940609 0.010002163301778765 0.0 -7.299696316041203e-11 0.0 0.01 0.0 -7.299696316041203e-11 0.0 0.010008532859040258 0.010002106615487399 0.0 -5.7774055114197524e-11 0.0 0.01 0.0 -5.7774055114197524e-11 0.0 0.010006891868135623 0.01000204993015981 0.0 -2.7839373749863728e-11 0.0 0.01 0.0 -2.7839373749850493e-11 0.0 0.010005547112156614 0.010001996697861183 0.0 -7.884876265177793e-12 0.0 0.01 0.0 -7.88487626518441e-12 0.0 0.010004594965116442 0.010001945367521017 0.0 -3.0347079328630667e-13 0.0 0.01 0.0 -3.034707932860999e-13 0.0 0.01000362306804257 0.010002359234635659 0.0 -1.3748856966825647e-11 0.0 0.01 0.0 -1.3748856966828956e-11 0.0 0.01000845796849625 0.010002317705514898 0.0 -3.161709790405528e-11 0.0 0.01 0.0 -3.161709790405528e-11 0.0 0.010008755635763977 0.010002273224897842 0.0 -2.5061448131950686e-11 0.0 0.01 0.0 -2.5061448131950686e-11 0.0 0.010007188393527983 0.010002224842268273 0.0 -1.1737190402589938e-11 0.0 0.01 0.0 -1.1737190402596555e-11 0.0 0.010005865506592137 0.010002176510373457 0.0 -3.2099559553083442e-12 0.0 0.01 0.0 -3.2099559553050355e-12 0.0 0.010004888332033729 0.010002126678221724 0.0 -1.8104733382484987e-13 0.0 0.01 0.0 -1.8104733382505666e-13 0.0 0.01000386158562542 0.010002278628585685 0.0 9.737504483116818e-14 0.0 0.01 0.0 9.737504483116818e-14 0.0 0.010008471703316186 0.010002249308680893 0.0 -8.020867425246165e-12 0.0 0.01 0.0 -8.020867425246165e-12 0.0 0.010008844219211367 0.010002216086438264 0.0 -6.894861988095414e-12 0.0 0.01 0.0 -6.894861988095414e-12 0.0 0.01000734498440159 0.010002178911941752 0.0 -3.1450094970955248e-12 0.0 0.01 0.0 -3.1450094970955248e-12 0.0 0.010006053342009536 0.010002134983528624 0.0 -8.133154649322719e-13 0.0 0.01 0.0 -8.133154649326855e-13 0.0 0.010005065846822172 0.01000208950472209 0.0 -6.98898355486948e-14 0.0 0.01 0.0 -6.98898355486431e-14 0.0 0.010004007307490615 0.01000207244407569 0.0 2.451609229896983e-12 0.0 0.01 0.0 2.451609229896983e-12 0.0 0.01000846187840274 0.01000205338228371 0.0 1.47392953759888e-13 0.0 0.01 0.0 1.4739295375986216e-13 0.0 0.010008869185429545 0.010002029917917765 0.0 -3.560016296050056e-13 0.0 0.01 0.0 -3.5600162960510897e-13 0.0 0.010007411080483683 0.010001999149329952 0.0 -1.814304472399146e-13 0.0 0.01 0.0 -1.814304472398112e-13 0.0 0.01000614090197356 0.010001962977841061 0.0 -4.417193588394971e-14 0.0 0.01 0.0 -4.417193588394971e-14 0.0 0.010005149474834437 0.01000192145365578 0.0 -2.0722054419262817e-14 0.0 0.01 0.0 -2.0722054419262817e-14 0.0 0.010004075239783989 0.010001836956037178 0.0 4.61693965432613e-13 0.0 0.01 0.0 4.61693965432613e-13 0.0 0.010008451151234362 0.010001824699307658 0.0 1.9605489906262722e-13 0.0 0.01 0.0 1.9605489906262722e-13 0.0 0.010008858456951453 0.010001807640016258 0.0 -1.823661361695696e-14 0.0 0.01 0.0 -1.823661361695696e-14 0.0 0.010007412533710212 0.01000178172606907 0.0 -6.018715268465097e-14 0.0 0.01 0.0 -6.018715268465097e-14 0.0 0.010006150219130214 0.010001750459509025 0.0 -2.4551732290589092e-14 0.0 0.01 0.0 -2.4551732290589092e-14 0.0 0.010005160742241897 0.010001713340229642 0.0 3.591392014287283e-15 0.0 0.01 0.0 3.591392014287283e-15 0.0 0.010004084551171539 0.010001629798349837 0.0 -1.8109635204084668e-12 0.0 0.01 0.0 -1.8109635204084668e-12 0.0 0.01000845064996566 0.010001620493814943 0.0 -3.1894827684275398e-12 0.0 0.01 0.0 -3.1894827684267126e-12 0.0 0.010008830031664608 0.010001605386507144 0.0 -2.5865721775144065e-12 0.0 0.01 0.0 -2.5865721775152337e-12 0.0 0.010007364076463647 0.01000158337598255 0.0 -1.2506849023503175e-12 0.0 0.01 0.0 -1.2506849023503175e-12 0.0 0.010006096871246662 0.010001555062657787 0.0 -3.2728070741356524e-13 0.0 0.01 0.0 -3.2728070741335844e-13 0.0 0.010005111816931055 0.010001520346647818 0.0 1.901391836216213e-14 0.0 0.01 0.0 1.901391836216213e-14 0.0 0.0100040444523167 0.010001460770015028 0.0 -4.6740215131373665e-12 0.0 0.01 0.0 -4.6740215131373665e-12 0.0 0.01000833019727902 0.010001451465951869 0.0 -9.19241926099857e-12 0.0 0.01 0.0 -9.192419261000224e-12 0.0 0.010008686104168007 0.010001436809603963 0.0 -7.361712347454858e-12 0.0 0.01 0.0 -7.361712347454858e-12 0.0 0.010007229532370371 0.010001416300829395 0.0 -3.4771069521287713e-12 0.0 0.01 0.0 -3.4771069521304256e-12 0.0 0.010005976553612596 0.010001388939319284 0.0 -9.176499532420736e-13 0.0 0.01 0.0 -9.176499532420736e-13 0.0 0.010005006206808236 0.010001357226259475 0.0 1.6620994036581683e-14 0.0 0.01 0.0 1.6620994036581683e-14 0.0 0.01000395940028679 0.010001307856528573 0.0 -9.573252785274495e-12 0.0 0.01 0.0 -9.573252785274495e-12 0.0 0.010008081586259631 0.01000129760252216 0.0 -1.8301636036554266e-11 0.0 0.01 0.0 -1.8301636036554266e-11 0.0 0.010008421777015265 0.010001282946850668 0.0 -1.4524736839583267e-11 0.0 0.01 0.0 -1.4524736839586576e-11 0.0 0.01000700345038345 0.010001260488284562 0.0 -6.863605605472992e-12 0.0 0.01 0.0 -6.863605605476301e-12 0.0 0.010005787720782073 0.010001233628238255 0.0 -1.8486261627230417e-12 0.0 0.01 0.0 -1.8486261627230417e-12 0.0 0.010004846771403206 0.010001202366818137 0.0 -3.120135394186063e-14 0.0 0.01 0.0 -3.120135394186063e-14 0.0 0.010003832752373092 0.010001147647534004 0.0 -1.6681704806149845e-11 0.0 0.01 0.0 -1.6681704806153154e-11 0.0 0.010007715971253118 0.01000113544335547 0.0 -3.003975591348065e-11 0.0 0.01 0.0 -3.003975591348065e-11 0.0 0.010008042391616238 0.010001116386920143 0.0 -2.3599192072180608e-11 0.0 0.01 0.0 -2.3599192072180608e-11 0.0 0.010006693714879503 0.01000109197883663 0.0 -1.1169120422985302e-11 0.0 0.01 0.0 -1.116912042299192e-11 0.0 0.010005536344274637 0.010001062669365932 0.0 -3.0560979686228647e-12 0.0 0.01 0.0 -3.0560979686228647e-12 0.0 0.010004637524000735 0.010001028008498496 0.0 -9.731651263081877e-14 0.0 0.01 0.0 -9.731651263081877e-14 0.0 0.010003664112875057 0.010000967440373027 0.0 -2.4712138211348102e-11 0.0 0.01 0.0 -2.4712138211348102e-11 0.0 0.010007252031172361 0.010000949335168478 0.0 -4.2605153185239094e-11 0.0 0.01 0.0 -4.260515318522586e-11 0.0 0.010007567681811397 0.010000925428446822 0.0 -3.3148072597240334e-11 0.0 0.01 0.0 -3.31480725972271e-11 0.0 0.01000631016771125 0.010000896120440389 0.0 -1.5642275978584093e-11 0.0 0.01 0.0 -1.5642275978597328e-11 0.0 0.010005228197250688 0.010000860961175358 0.0 -4.297022053602881e-12 0.0 0.01 0.0 -4.297022053602881e-12 0.0 0.010004380326408907 0.010000822351428162 0.0 -1.6208379978058734e-13 0.0 0.01 0.0 -1.6208379978048394e-13 0.0 0.010003459794698978 0.0100007774406527 0.0 -3.1634288740421585e-11 0.0 0.01 0.0 -3.16342887404282e-11 0.0 0.010006715258152438 0.010000752534937804 0.0 -5.3704832794660863e-11 0.0 0.01 0.0 -5.37048327946741e-11 0.0 0.010007014223002797 0.010000720277812548 0.0 -4.114004039990987e-11 0.0 0.01 0.0 -4.114004039992311e-11 0.0 0.010005866508352973 0.010000680719500547 0.0 -1.9228433664479163e-11 0.0 0.01 0.0 -1.9228433664479163e-11 0.0 0.01000487416130272 0.01000063776100568 0.0 -5.219126923879663e-12 0.0 0.01 0.0 -5.219126923876354e-12 0.0 0.01000408650356255 0.01000059235262809 0.0 -1.79385550929837e-13 0.0 0.01 0.0 -1.793855509297336e-13 0.0 0.010003226661029605 0.010000606005081875 0.0 -3.59515314319076e-11 0.0 0.01 0.0 -3.5951531431894367e-11 0.0 0.010006130633094495 0.010000568898543151 0.0 -7.361022652055792e-11 0.0 0.01 0.0 -7.361022652058439e-11 0.0 0.010006410458832963 0.010000523991182139 0.0 -4.895801961635247e-11 0.0 0.01 0.0 -4.895801961637894e-11 0.0 0.010005382292244168 0.010000471733377756 0.0 -2.1002766800608042e-11 0.0 0.01 0.0 -2.1002766800608042e-11 0.0 0.010004486417386112 0.010000416526022649 0.0 -5.592274129394556e-12 0.0 0.01 0.0 -5.592274129391247e-12 0.0 0.010003765325584345 0.010000363769848314 0.0 -1.8150501805371047e-13 0.0 0.01 0.0 -1.8150501805371047e-13 0.0 0.010002972024414528 0.010000477084139222 0.0 -3.609053444480509e-11 0.0 0.01 0.0 -3.609053444480509e-11 0.0 0.010005524124022785 0.010000425327133973 0.0 -4.95648552411198e-10 0.0 0.01 0.0 -4.956485524110921e-10 0.0 0.01000578822165081 0.010000362819744793 0.0 -4.097474021067866e-10 0.0 0.01 0.0 -4.097474021066807e-10 0.0 0.010004877115619789 0.010000294463005762 0.0 -1.4692743781130057e-10 0.0 0.01 0.0 -1.4692743781140645e-10 0.0 0.010004082098169073 0.010000226557699029 0.0 -1.646701862600793e-11 0.0 0.01 0.0 -1.646701862600793e-11 0.0 0.010003430964920639 0.010000164554061618 0.0 -1.7514774162249412e-13 0.0 0.01 0.0 -1.7514774162249412e-13 0.0 0.010002708600079862 0.010000401874224138 0.0 -1.5889836199123846e-11 0.0 0.01 0.0 -1.588983619911723e-11 0.0 0.010004916223012339 0.010000332066540184 0.0 -2.1440484393704534e-09 0.0 0.01 0.0 -2.1440484393704534e-09 0.0 0.010005166601309508 0.010000251959522847 0.0 -2.045688696176244e-09 0.0 0.01 0.0 -2.045688696175397e-09 0.0 0.010004375419971245 0.010000166004133655 0.0 -9.639298644132048e-10 0.0 0.01 0.0 -9.639298644127813e-10 0.0 0.010003679279569185 0.0100000849510825 0.0 -2.361508782088066e-10 0.0 0.01 0.0 -2.3615087820870073e-10 0.0 0.010003099590523869 0.010000012700024194 0.0 -1.992245801217277e-11 0.0 0.01 0.0 -1.992245801217277e-11 0.0 0.010002449149456232 0.010000372570820346 0.0 4.2242431001284595e-10 0.0 0.01 0.0 4.224243100126342e-10 0.0 0.010004318245477031 0.010000282711992667 0.0 -5.297193431770872e-09 0.0 0.01 0.0 -5.297193431770872e-09 0.0 0.010004566125526611 0.010000186055196921 0.0 -5.520691991128476e-09 0.0 0.01 0.0 -5.520691991125088e-09 0.0 0.010003898278306398 0.010000085951109338 0.0 -2.845153811448242e-09 0.0 0.01 0.0 -2.845153811448242e-09 0.0 0.010003295578411214 0.0099999920000097 0.0 -8.142397067669811e-10 0.0 0.01 0.0 -8.142397067669811e-10 0.0 0.010002783862051945 0.009999912001161583 0.0 -1.0178737569784214e-10 0.0 0.01 0.0 -1.0178737569789508e-10 0.0 0.010002202877686779 0.010000369170442412 0.0 1.627288289212628e-09 0.0 0.01 0.0 1.627288289211781e-09 0.0 0.01000373599260408 0.010000259310096866 0.0 -8.548290267894126e-09 0.0 0.01 0.0 -8.548290267890738e-09 0.0 0.010004004854555928 0.010000146953253635 0.0 -9.803655918525617e-09 0.0 0.01 0.0 -9.803655918529005e-09 0.0 0.010003464199284811 0.010000037100210373 0.0 -5.104587811888679e-09 0.0 0.01 0.0 -5.104587811888679e-09 0.0 0.01000294414969631 0.009999937500586187 0.0 -1.3102710960289526e-09 0.0 0.01 0.0 -1.3102710960289526e-09 0.0 0.010002494082757388 0.00999985300324127 0.0 -4.111832104292867e-11 0.0 0.01 0.0 -4.111832104295514e-11 0.0 0.010001980087957017 0.010000389172717793 0.0 2.1067720892399506e-09 0.0 0.01 0.0 2.1067720892416447e-09 0.0 0.010003183669718472 0.01000024270884637 0.0 -8.376571463238535e-09 0.0 0.01 0.0 -8.376571463238535e-09 0.0 0.010003494030395027 0.010000112301911897 0.0 -1.1596949078022608e-08 0.0 0.01 0.0 -1.1596949078022608e-08 0.0 0.010003085877828968 0.009999999000004913 0.0 -5.634987192907058e-09 0.0 0.01 0.0 -5.634987192907058e-09 0.0 0.010002636292143876 0.009999904001382402 0.0 -3.893041783101584e-10 0.0 0.01 0.0 -3.8930417831037017e-10 0.0 0.010002238551442617 0.009999824504620013 0.0 8.607037562036239e-10 0.0 0.01 0.0 8.607037562044709e-10 0.0 0.010001786628692388 0.010000450230407023 0.0 -4.27052327845278e-09 0.0 0.01 0.0 -4.27052327845278e-09 0.0 0.010002660711534014 0.010000233408171903 0.0 -1.2926347147743173e-09 0.0 0.01 0.0 -1.2926347147734703e-09 0.0 0.010003037032975613 0.01000007180077953 0.0 -6.448432985375435e-09 0.0 0.01 0.0 -6.448432985372047e-09 0.0 0.010002769199851842 0.009999958000265085 0.0 -1.8033638534307455e-09 0.0 0.01 0.0 -1.8033638534298985e-09 0.0 0.010002373394683529 0.009999877502252844 0.0 3.611057639492127e-09 0.0 0.01 0.0 3.611057639488739e-09 0.0 0.010002016709905779 0.009999813505219205 0.0 3.6779864626358867e-09 0.0 0.01 0.0 3.6779864626324986e-09 0.0 0.010001621494303347 0.010000563997832843 0.0 -2.8571920148047622e-08 0.0 0.01 0.0 -2.8571920148074727e-08 0.0 0.010002176510495907 0.010000238308532174 0.0 9.593591390883707e-09 0.0 0.01 0.0 9.593591390883707e-09 0.0 0.010002634340610852 0.010000031750159875 0.0 7.60237073801521e-09 0.0 0.01 0.0 7.60237073801521e-09 0.0 0.010002509744515222 0.009999913501132081 0.0 8.065733441758253e-09 0.0 0.01 0.0 8.065733441758253e-09 0.0 0.010002157948319976 0.009999853003261915 0.0 1.1733337398812276e-08 0.0 0.01 0.0 1.1733337398812276e-08 0.0 0.010001828601465876 0.009999815505119225 0.0 9.432325058882887e-09 0.0 0.01 0.0 9.432325058876111e-09 0.0 0.010001484230388939 0.010000250509429839 0.0 1.0619893911824622e-08 0.0 0.01 0.0 1.0619893911824622e-08 0.0 0.010002262467599294 0.010000006350105846 0.0 2.5798205206386334e-08 0.0 0.01 0.0 2.5798205206386334e-08 0.0 0.010002284482690565 0.009999880002243257 0.0 2.356896873433284e-08 0.0 0.01 0.0 2.356896873433284e-08 0.0 0.010001985441223315 0.009999839003971847 0.0 2.3639095552747567e-08 0.0 0.01 0.0 2.3639095552747567e-08 0.0 0.01000166986825968 0.00999982600459257 0.0 1.849497804289979e-08 0.0 0.01 0.0 1.849497804288624e-08 0.0 0.010001368430890518 0.010000279311720874 0.0 -1.1272384715176162e-08 0.0 0.01 0.0 -1.1272384715176162e-08 0.0 0.010001890686087995 0.010000018050247212 0.0 3.6368181680507825e-08 0.0 0.01 0.0 3.636818168048072e-08 0.0 0.010002055333684165 0.009999880502397107 0.0 4.1245149830416604e-08 0.0 0.01 0.0 4.1245149830416604e-08 0.0 0.010001847211957824 0.009999842503934857 0.0 3.7776759083824876e-08 0.0 0.01 0.0 3.7776759083770666e-08 0.0 0.010001543307410142 0.009999851503444878 0.0 3.023782076371764e-08 0.0 0.01 0.0 3.023782076371764e-08 0.0 0.010001270742313974 0.010000083001120222 0.0 2.4066271069901873e-08 0.0 0.01 0.0 2.4066271069874768e-08 0.0 0.010001803237719532 0.009999934001073513 0.0 5.2928541132172754e-08 0.0 0.01 0.0 5.2928541132172754e-08 0.0 0.010001719693920413 0.009999880002565253 0.0 5.198550553605404e-08 0.0 0.01 0.0 5.198550553610825e-08 0.0 0.010001451466357269 0.009999892002027829 0.0 4.3074299540721804e-08 0.0 0.01 0.0 4.3074299540776014e-08 0.0 0.010001191113056978 0.010000208006562442 0.0 -2.200435546205709e-08 0.0 0.01 0.0 -2.2004355462084194e-08 0.0 0.010001537454564911 0.010000056150774001 0.0 4.480594293390606e-08 0.0 0.01 0.0 4.480594293390606e-08 0.0 0.01000157752350957 0.009999970500698424 0.0 6.153541973284021e-08 0.0 0.01 0.0 6.153541973284021e-08 0.0 0.010001385038264303 0.009999956500737817 0.0 5.5018213409240794e-08 0.0 0.01 0.0 5.5018213409349214e-08 0.0 0.01000113644415036 0.010000223157469689 0.0 4.0157734874266164e-10 0.0 0.01 0.0 4.015773487418146e-10 0.0 0.010001422153320515 0.01000012450275452 0.0 5.3510725586789105e-08 0.0 0.01 0.0 5.3510725586734895e-08 0.0 0.010001323513136044 0.010000072251368234 0.0 6.246596939392998e-08 0.0 0.01 0.0 6.246596939392998e-08 0.0 0.010001106634253928 0.010000315464936517 0.0 7.929003433874656e-09 0.0 0.01 0.0 7.929003433874656e-09 0.0 0.010001250734620867 0.01000025976055225 0.0 5.362595777180269e-08 0.0 0.01 0.0 5.362595777180269e-08 0.0 0.010001077824662084 0.01000048588641219 0.0 -8.172850503610982e-08 0.0 0.01 0.0 -8.172850503610982e-08 0.0 0.010001176008418398 0.010000464382354487 0.0 7.68040295134908e-09 0.0 0.01 0.0 7.680402951321975e-09 0.0 0.010001043113198917 0.009999999500000037 0.0 2.474977267694377e-18 0.0 0.01 0.0 2.474977267694377e-18 0.0 0.01 0.009999999500000037 0.0 -1.8385964996254285e-11 0.0 0.01 0.0 -1.8385964996254285e-11 0.0 0.01 0.009999999500000037 0.0 -1.704210699652807e-11 0.0 0.01 0.0 -1.704210699652807e-11 0.0 0.01 0.009999999500000037 0.0 -2.889173299411398e-12 0.0 0.01 0.0 -2.889173299411398e-12 0.0 0.01 0.009999999500000037 0.0 1.0618693997836687e-12 0.0 0.01 0.0 1.0618693997836687e-12 0.0 0.01 0.009999999500000037 0.0 1.7637704996406728e-12 0.0 0.01 0.0 1.7637704996406728e-12 0.0 0.01 0.009999999500000037 0.0 -9.38492559808804e-12 0.0 0.01 0.0 -9.38492559808804e-12 0.0 0.01 0.009999999500000037 0.0 -2.8201266994254642e-12 0.0 0.01 0.0 -2.8201266994254642e-12 0.0 0.01 0.009999999500000037 0.0 2.3324416995248185e-12 0.0 0.01 0.0 2.3324416995248185e-12 0.0 0.01 0.009999999500000037 0.0 -2.7457469994406176e-11 0.0 0.01 0.0 -2.7457469994406176e-11 0.0 0.01 0.009999999500000037 0.0 -2.7731250456861625e-18 0.0 0.01 0.0 -2.7731250456861625e-18 0.0 0.01 0.009999999500000037 0.0 -7.682994298434769e-12 0.0 0.01 0.0 -7.682994298434769e-12 0.0 0.01 0.009999999500000037 0.0 -2.201322099551532e-13 0.0 0.01 0.0 -2.201322099551532e-13 0.0 0.01 0.009999999500000037 0.0 1.905767999611744e-12 0.0 0.01 0.0 1.905767999611744e-12 0.0 0.01 0.009999999500000037 0.0 2.6318256994638263e-12 0.0 0.01 0.0 2.6318256994638263e-12 0.0 0.01 0.009999999500000037 0.0 -6.750835798624673e-12 0.0 0.01 0.0 -6.750835798624673e-12 0.0 0.01 0.009999999500000037 0.0 -7.53995009846391e-12 0.0 0.01 0.0 -7.53995009846391e-12 0.0 0.01 0.009999999500000037 0.0 -1.6037363996732761e-12 0.0 0.01 0.0 -1.6037363996732761e-12 0.0 0.01 0.00999999900000015 0.0 -3.3442980989530813e-18 0.0 0.01 0.0 -3.3442980989530813e-18 0.0 0.01 0.00999999900000015 0.0 -1.064620199783108e-11 0.0 0.01 0.0 -1.064620199783108e-11 0.0 0.01 0.00999999900000015 0.0 2.5870651994729452e-12 0.0 0.01 0.0 2.5870651994729452e-12 0.0 0.01 0.00999999900000015 0.0 -7.127505998547936e-12 0.0 0.01 0.0 -7.127505998547936e-12 0.0 0.01 0.00999999900000015 0.0 -3.740854199237887e-12 0.0 0.01 0.0 -3.740854199237887e-12 0.0 0.01 0.00999999900000015 0.0 -4.014238899182192e-13 0.0 0.01 0.0 -4.014238899182192e-13 0.0 0.01 0.00999999900000015 0.0 2.9600592493969564e-12 0.0 0.01 0.0 2.9600592493969564e-12 0.0 0.01 0.00999999900000015 0.0 -2.030823949586267e-12 0.0 0.01 0.0 -2.030823949586267e-12 0.0 0.01 0.00999999900000015 0.0 -2.16510334955891e-12 0.0 0.01 0.0 -2.16510334955891e-12 0.0 0.01 0.009999998500000338 0.0 -8.000779665036694e-12 0.0 0.01 0.0 -8.000779665036694e-12 0.0 0.01 0.009999998500000338 0.0 -3.192341866016301e-12 0.0 0.01 0.0 -3.192341866016301e-12 0.0 0.01 0.009999998500000338 0.0 2.2318448662119798e-13 0.0 0.01 0.0 2.2318448662119798e-13 0.0 0.01 0.009999998500000338 0.0 -1.9569679329346467e-12 0.0 0.01 0.0 -1.9569679329346467e-12 0.0 0.01 0.009999998500000338 0.0 -4.411794332434532e-12 0.0 0.01 0.0 -4.411794332434532e-12 0.0 0.01 0.009999998500000338 0.0 3.3331250326542865e-13 0.0 0.01 0.0 3.3331250326542865e-13 0.0 0.01 0.009999998500000338 0.0 -1.9183314996091846e-12 0.0 0.01 0.0 -1.9183314996091846e-12 0.0 0.01 0.009999998500000338 0.0 -1.8842980329494513e-12 0.0 0.01 0.0 -1.8842980329494513e-12 0.0 0.01 0.009999998500000338 0.0 -2.936753566068371e-13 0.0 0.01 0.0 -2.936753566068371e-13 0.0 0.01 0.009999998500000338 0.0 -5.919111665723256e-18 0.0 0.01 0.0 -5.919111665723256e-18 0.0 0.01 0.0099999980000006 0.0 5.967799498784198e-12 0.0 0.01 0.0 5.967799498784198e-12 0.0 0.01 0.0099999980000006 0.0 -3.1220182493639614e-12 0.0 0.01 0.0 -3.1220182493639614e-12 0.0 0.01 0.009999997500000938 0.0 -3.11786380049908e-12 0.0 0.01 0.0 -3.11786380049908e-12 0.0 0.01 0.009999997500000938 0.0 -2.548925000408009e-12 0.0 0.01 0.0 -2.548925000408009e-12 0.0 0.01 0.009999997500000938 0.0 -1.6042150202567884e-12 0.0 0.01 0.0 -1.6042150202567884e-12 0.0 0.01 0.009999997500000938 0.0 6.041967000967145e-13 0.0 0.01 0.0 6.041967000967145e-13 0.0 0.01 0.009999997500000938 0.0 5.584834200893971e-14 0.0 0.01 0.0 5.584834200893971e-14 0.0 0.01 0.009999997500000938 0.0 -3.6475044005838596e-13 0.0 0.01 0.0 -3.6475044005838596e-13 0.0 0.01 0.009999997000001351 0.0 9.010722000896009e-13 0.0 0.01 0.0 9.010722000896009e-13 0.0 0.01 0.009999997000001351 0.0 6.116285167274859e-12 0.0 0.01 0.0 6.116285167274859e-12 0.0 0.01 0.009999997000001351 0.0 3.3321418494398277e-18 0.0 0.01 0.0 3.3321418494398277e-18 0.0 0.01 0.009999997000001351 0.0 4.2615586670904277e-13 0.0 0.01 0.0 4.2615586670904277e-13 0.0 0.01 0.009999997000001351 0.0 -9.073486500902252e-13 0.0 0.01 0.0 -9.073486500902252e-13 0.0 0.01 0.009999997000001351 0.0 2.1415916668796226e-12 0.0 0.01 0.0 2.1415916668796226e-12 0.0 0.01 0.009999997000001351 0.0 2.6352093335953735e-12 0.0 0.01 0.0 2.6352093335953735e-12 0.0 0.01 0.009999996500001837 0.0 9.687526143400891e-13 0.0 0.01 0.0 9.687526143400891e-13 0.0 0.01 0.009999996500001837 0.0 -8.274780000464455e-14 0.0 0.01 0.0 -8.274780000464455e-14 0.0 0.01 0.009999996500001837 0.0 -2.5440610652015393e-18 0.0 0.01 0.0 -2.5440610652015393e-18 0.0 0.01 0.009999996500001837 0.0 3.4137314586250234e-18 0.0 0.01 0.0 3.4137314586250234e-18 0.0 0.01 0.0099999960000024 0.0 4.003026399292038e-18 0.0 0.01 0.0 4.003026399292038e-18 0.0 0.01 0.0099999960000024 0.0 3.6617228750865885e-12 0.0 0.01 0.0 3.6617228750865885e-12 0.0 0.01 0.0099999960000024 0.0 2.371249375056072e-13 0.0 0.01 0.0 2.371249375056072e-13 0.0 0.01 0.009999995500003037 0.0 1.4468404444421052e-12 0.0 0.01 0.0 1.4468404444421052e-12 0.0 0.01 0.009999995500003037 0.0 6.575562666656036e-13 0.0 0.01 0.0 6.575562666656036e-13 0.0 0.01 0.009999995500003037 0.0 5.556265666657683e-13 0.0 0.01 0.0 5.556265666657683e-13 0.0 0.01 0.009999995500003037 0.0 -5.739112777768498e-13 0.0 0.01 0.0 -5.739112777768498e-13 0.0 0.01 0.009999994000005404 0.0 1.6721567451048406e-14 0.0 0.01 0.0 1.672156745435713e-14 0.0 0.010000000000000004 0.0099999940000054 0.0 -9.16992250091184e-13 0.0 0.01 0.0 -9.16992250091184e-13 0.0 0.01 0.0099999940000054 0.0 4.718826554291084e-18 0.0 0.01 0.0 4.718826554291084e-18 0.0 0.01 0.0099999940000054 0.0 8.225052250817885e-13 0.0 0.01 0.0 8.225052250817885e-13 0.0 0.01 0.0099999940000054 0.0 5.999910667263286e-13 0.0 0.01 0.0 5.999910667263286e-13 0.0 0.01 0.0099999940000054 0.0 1.234258916789399e-12 0.0 0.01 0.0 1.234258916789399e-12 0.0 0.01 0.0099999940000054 0.0 2.593539166924563e-12 0.0 0.01 0.0 2.593539166924563e-12 0.0 0.01 0.009999993500006337 0.0 2.5971541536804436e-13 0.0 0.01 0.0 2.5971541536804436e-13 0.0 0.01 0.009999993500006337 0.0 8.591726153297962e-13 0.0 0.01 0.0 8.591726153297962e-13 0.0 0.01 0.00999999250000844 0.0 1.6952333931070258e-13 0.0 0.01 0.0 1.6952333931070258e-13 0.0 0.010000000000000004 0.009999992000009601 0.0 1.4767946775962967e-17 0.0 0.01 0.0 1.4767946775962967e-17 0.0 0.01 0.009999992000009601 0.0 6.495790205349542e-18 0.0 0.01 0.0 6.495790205349542e-18 0.0 0.01 0.009999992000009601 0.0 2.217287125052432e-13 0.0 0.01 0.0 2.217287125052432e-13 0.0 0.01 0.009999992000009601 0.0 9.979453125235983e-14 0.0 0.01 0.0 9.979453125235983e-14 0.0 0.01 0.009999991500010838 0.0 7.688281176549562e-13 0.0 0.01 0.0 7.688281176549562e-13 0.0 0.01 0.009999991500010838 0.0 1.0144084705986552e-12 0.0 0.01 0.0 1.0144084705986552e-12 0.0 0.01 0.009999991500010838 0.0 8.556170000087888e-13 0.0 0.01 0.0 8.556170000087888e-13 0.0 0.01 0.009999991500010838 0.0 2.6025458235561453e-13 0.0 0.01 0.0 2.6025458235561453e-13 0.0 0.01 0.009999989500016538 0.0 5.788132317589658e-13 0.0 0.01 0.0 5.788132318648449e-13 0.0 0.010000000500000036 0.009999989500016538 0.0 2.363256055206704e-15 0.0 0.01 0.0 2.363256055206704e-15 0.0 0.010000000500000038 0.009999989500016538 0.0 2.904291575442914e-18 0.0 0.01 0.0 2.904291575442914e-18 0.0 0.01 0.009999989500016538 0.0 2.499612463287214e-18 0.0 0.01 0.0 2.499612463287214e-18 0.0 0.01 0.009999989500016538 0.0 -1.1265521428227947e-12 0.0 0.01 0.0 -1.1265521428227947e-12 0.0 0.01 0.009999989500016538 0.0 -7.836927618808673e-13 0.0 0.01 0.0 -7.836927618808673e-13 0.0 0.01 0.009999989500016538 0.0 1.4674179523362113e-12 0.0 0.01 0.0 1.4674179523362113e-12 0.0 0.01 0.009999989500016538 0.0 7.077097618831841e-13 0.0 0.01 0.0 7.077097618831841e-13 0.0 0.01 0.009999989500016538 0.0 8.412817618791115e-13 0.0 0.01 0.0 8.412817618791115e-13 0.0 0.01 0.009999985000033752 0.0 1.1489964009957118e-12 0.0 0.01 0.0 1.1489964009957118e-12 0.0 0.010000000500000038 0.009999984500036042 0.0 1.1687681203222288e-14 0.0 0.01 0.0 1.1687681202395108e-14 0.0 0.010000000500000042 0.009999984500036039 0.0 6.492219892685165e-18 0.0 0.01 0.0 6.492219892685165e-18 0.0 0.010000000500000038 0.009999984500036039 0.0 -9.825789241521823e-13 0.0 0.01 0.0 -9.825789241521823e-13 0.0 0.010000000500000038 0.009999984500036039 0.0 -3.854442538472591e-18 0.0 0.01 0.0 -3.854442538472591e-18 0.0 0.01 0.009999984500036039 0.0 -3.0452878199789246e-18 0.0 0.01 0.0 -3.0452878199789246e-18 0.0 0.01 0.009999984500036039 0.0 2.8642610323468034e-13 0.0 0.01 0.0 2.8642610323468034e-13 0.0 0.01 0.009999984500036039 0.0 3.5296980646254836e-13 0.0 0.01 0.0 3.5296980646254836e-13 0.0 0.01 0.009999984500036039 0.0 6.83074580666324e-13 0.0 0.01 0.0 6.83074580666324e-13 0.0 0.01 0.009999979500063037 0.0 1.4962889231769623e-12 0.0 0.01 0.0 1.4962889231769623e-12 0.0 0.010000001000000147 0.00999997950006304 0.0 1.5058759954190743e-14 0.0 0.01 0.0 1.5058759953363563e-14 0.0 0.010000001000000154 0.009999979500063037 0.0 8.324200028257134e-18 0.0 0.01 0.0 8.324200028257134e-18 0.0 0.010000000500000038 0.00999997900006615 0.0 9.248226562418132e-18 0.0 0.01 0.0 9.248226562418132e-18 0.0 0.010000000500000038 0.00999997900006615 0.0 -2.270669067802884e-18 0.0 0.01 0.0 -2.270669067802884e-18 0.0 0.010000000500000038 0.00999997900006615 0.0 8.164820873420884e-13 0.0 0.01 0.0 8.164820873420884e-13 0.0 0.010000000500000038 0.00999997900006615 0.0 5.471247142927282e-13 0.0 0.01 0.0 5.471247142927282e-13 0.0 0.01 0.00999997900006615 0.0 6.00488000007698e-13 0.0 0.01 0.0 6.00488000007698e-13 0.0 0.01 0.00999997900006615 0.0 6.274879523889965e-13 0.0 0.01 0.0 6.274879523889965e-13 0.0 0.01 0.009999972000117598 0.0 1.2765335619582836e-12 0.0 0.01 0.0 1.2765335619582836e-12 0.0 0.01000000195000057 0.009999972000117603 0.0 5.095791862120845e-15 0.0 0.01 0.0 5.09579186191405e-15 0.0 0.010000001000000154 0.0099999720001176 0.0 5.588199867897833e-18 0.0 0.01 0.0 5.588199867897833e-18 0.0 0.01000000100000015 0.0099999720001176 0.0 -2.3185628098206523e-18 0.0 0.01 0.0 -2.3185628098206523e-18 0.0 0.01000000100000015 0.0099999720001176 0.0 -7.565597395731029e-13 0.0 0.01 0.0 -7.565597395731029e-13 0.0 0.010000000500000038 0.0099999720001176 0.0 2.6261731669788426e-18 0.0 0.01 0.0 2.6261731669788426e-18 0.0 0.010000000500000038 0.0099999720001176 0.0 7.032815088396688e-13 0.0 0.01 0.0 7.032815088396688e-13 0.0 0.010000000500000038 0.009999971500121838 0.0 4.1528949578347435e-18 0.0 0.01 0.0 4.1528949578347435e-18 0.0 0.010000000500000038 0.009999971500121838 0.0 2.3130916615541258e-18 0.0 0.01 0.0 2.3130916615541258e-18 0.0 0.01 0.009999963000205348 0.0 6.307847309829862e-13 0.0 0.01 0.0 6.307847309829862e-13 0.0 0.010000002450000904 0.009999962500210936 0.0 7.455384743939428e-17 0.0 0.01 0.0 7.455384743939428e-17 0.0 0.01000000195000057 0.009999962000216599 0.0 1.4845340610041802e-17 0.0 0.01 0.0 1.4845340610041802e-17 0.0 0.010000001450000314 0.009999962000216599 0.0 -1.0478991841954231e-17 0.0 0.01 0.0 -1.0478991841954231e-17 0.0 0.01000000100000015 0.009999961500222337 0.0 -1.2802438986179715e-17 0.0 0.01 0.0 -1.2802438986179715e-17 0.0 0.01000000100000015 0.009999961500222337 0.0 -4.005274420328345e-18 0.0 0.01 0.0 -4.005274420328345e-18 0.0 0.01000000100000015 0.009999961500222337 0.0 5.035724796169149e-18 0.0 0.01 0.0 5.035724796169149e-18 0.0 0.010000000500000038 0.009999961500222337 0.0 6.181899263204789e-18 0.0 0.01 0.0 6.181899263204789e-18 0.0 0.010000000500000038 0.009999961500222337 0.0 4.3791125266749e-13 0.0 0.01 0.0 4.3791125266749e-13 0.0 0.010000000500000038 0.009999949000390149 0.0 1.0453622861350187e-13 0.0 0.01 0.0 1.0453622861350187e-13 0.0 0.010000003400001735 0.009999948500397832 0.0 6.726358015374305e-17 0.0 0.01 0.0 6.726358015374305e-17 0.0 0.010000002950001304 0.009999949000390147 0.0 -3.305263131514032e-18 0.0 0.01 0.0 -3.305263131514032e-18 0.0 0.01000000195000057 0.009999949000390147 0.0 -1.640343331186074e-17 0.0 0.01 0.0 -1.640343331186074e-17 0.0 0.01000000195000057 0.009999949000390147 0.0 -3.4356396326999617e-18 0.0 0.01 0.0 -3.4356396326999617e-18 0.0 0.01000000100000015 0.009999949000390147 0.0 -3.9351035367489225e-18 0.0 0.01 0.0 -3.9351035367489225e-18 0.0 0.01000000100000015 0.009999949000390147 0.0 2.9557217821609656e-18 0.0 0.01 0.0 2.9557217821609656e-18 0.0 0.01000000100000015 0.009999949000390147 0.0 8.668838983869464e-18 0.0 0.01 0.0 8.668838983869464e-18 0.0 0.01000000100000015 0.009999949000390147 0.0 3.1563332275815055e-18 0.0 0.01 0.0 3.1563332275815055e-18 0.0 0.01000000100000015 0.00999993250068343 0.0 2.0168656478073784e-16 0.0 0.01 0.0 2.0168656478073784e-16 0.0 0.010000005350004294 0.00999993200069359 0.0 1.652679159566595e-16 0.0 0.01 0.0 1.652679159566595e-16 0.0 0.010000003900002281 0.00999993250068343 0.0 1.7554897024370482e-17 0.0 0.01 0.0 1.7554897024370482e-17 0.0 0.010000002950001304 0.00999993200069359 0.0 -5.653788985139627e-18 0.0 0.01 0.0 -5.653788985139627e-18 0.0 0.01000000195000057 0.00999993200069359 0.0 -1.1456301997015057e-17 0.0 0.01 0.0 -1.1456301997015057e-17 0.0 0.01000000195000057 0.00999993200069359 0.0 -8.619002961087929e-18 0.0 0.01 0.0 -8.619002961087929e-18 0.0 0.010000001450000314 0.00999993250068343 0.0 2.9059416044495156e-13 0.0 0.01 0.0 2.9059416044495156e-13 0.0 0.01000000100000015 0.009999933000673342 0.0 1.0179941718764333e-17 0.0 0.01 0.0 1.0179941718764333e-17 0.0 0.01000000100000015 0.009999933000673342 0.0 3.718591436005559e-18 0.0 0.01 0.0 3.718591436005559e-18 0.0 0.01000000100000015 0.009999909501228518 0.0 2.9995868378112755e-16 0.0 0.01 0.0 2.9995868378112755e-16 0.0 0.010000006350006049 0.009999910001214982 0.0 2.0479976956101521e-16 0.0 0.01 0.0 2.0479976956101521e-16 0.0 0.010000005350004294 0.00999991050120152 0.0 1.3529740278591053e-17 0.0 0.01 0.0 1.3529740278591053e-17 0.0 0.010000003900002281 0.009999911001188133 0.0 1.1705231914838775e-17 0.0 0.01 0.0 1.1705231914838775e-17 0.0 0.010000002950001304 0.009999911001188133 0.0 -7.486811741080144e-18 0.0 0.01 0.0 -7.486811741080144e-18 0.0 0.01000000195000057 0.00999991150117482 0.0 6.305461139403009e-18 0.0 0.01 0.0 6.305461139403009e-18 0.0 0.01000000195000057 0.009999911001188133 0.0 7.805343581768187e-18 0.0 0.01 0.0 7.805343581768187e-18 0.0 0.01000000195000057 0.009999911001188133 0.0 6.134322441019605e-18 0.0 0.01 0.0 6.134322441019605e-18 0.0 0.010000001450000314 0.009999911001188133 0.0 2.5640953770627317e-18 0.0 0.01 0.0 2.5640953770627317e-18 0.0 0.010000001450000314 0.009999881502106296 0.0 3.8506300381008245e-16 0.0 0.01 0.0 3.8506300381008245e-16 0.0 0.010000008800011615 0.009999881502106296 0.0 1.219085542003458e-16 0.0 0.01 0.0 1.219085542003458e-16 0.0 0.010000006350006049 0.009999882502070897 0.0 1.9353326929574286e-17 0.0 0.01 0.0 1.9353326929574286e-17 0.0 0.010000005350004294 0.00999988300205331 0.0 -2.2894993587784118e-17 0.0 0.01 0.0 -2.2894993587784118e-17 0.0 0.010000003900002281 0.009999883502035798 0.0 -9.944549791144627e-18 0.0 0.01 0.0 -9.944549791144627e-18 0.0 0.010000003400001733 0.009999883502035798 0.0 7.95828235393545e-18 0.0 0.01 0.0 7.95828235393545e-18 0.0 0.0100000024500009 0.009999884502000999 0.0 9.182311602556987e-18 0.0 0.01 0.0 9.182311602556987e-18 0.0 0.01000000195000057 0.009999884502000999 0.0 1.3226152226000921e-17 0.0 0.01 0.0 1.3226152226000921e-17 0.0 0.01000000195000057 0.009999884502000999 0.0 1.1148095620379683e-17 0.0 0.01 0.0 1.1148095620379683e-17 0.0 0.01000000195000057 0.009999843503673741 0.0 4.563280078266965e-16 0.0 0.01 0.0 4.563280078266965e-16 0.0 0.010000012200022326 0.009999844003650305 0.0 1.4639672855449282e-16 0.0 0.01 0.0 1.4639672855449282e-16 0.0 0.010000009300012973 0.009999845503580445 0.0 -7.054843253346527e-17 0.0 0.01 0.0 -7.054843253346527e-17 0.0 0.010000006850007037 0.009999846503534247 0.0 -7.722420389131766e-17 0.0 0.01 0.0 -7.722420389131766e-17 0.0 0.010000005350004294 0.00999984750348835 0.0 -4.567311287519136e-17 0.0 0.01 0.0 -4.567311287519136e-17 0.0 0.010000004400002904 0.009999848003465511 0.0 1.7418088252236602e-17 0.0 0.01 0.0 1.7418088252236602e-17 0.0 0.010000003400001733 0.00999984850344275 0.0 2.3727081404488573e-17 0.0 0.01 0.0 2.3727081404488573e-17 0.0 0.010000003400001733 0.00999984850344275 0.0 2.6170820617210333e-17 0.0 0.01 0.0 2.6170820617210333e-17 0.0 0.010000003400001733 0.00999984850344275 0.0 5.62558514825779e-18 0.0 0.01 0.0 5.62558514825779e-18 0.0 0.010000002950001304 0.009999796506211626 0.0 6.553547789377016e-16 0.0 0.01 0.0 6.553547789377016e-16 0.0 0.010000015600036504 0.009999798006120393 0.0 1.4840764870894315e-16 0.0 0.01 0.0 1.4840764870894315e-16 0.0 0.010000011250018984 0.009999799506029836 0.0 -1.1833987102846112e-16 0.0 0.01 0.0 -1.1833987102846112e-16 0.0 0.010000009300012973 0.009999801005939953 0.0 -1.3937898776632427e-16 0.0 0.01 0.0 -1.3937898776632427e-16 0.0 0.010000006850007037 0.009999802005880406 0.0 -3.621538868625675e-17 0.0 0.01 0.0 -3.621538868625675e-17 0.0 0.010000005850005133 0.009999802505850744 0.0 5.353138348496231e-18 0.0 0.01 0.0 5.353138348496231e-18 0.0 0.010000004900003601 0.009999803005821158 0.0 3.646622972996292e-17 0.0 0.01 0.0 3.646622972996292e-17 0.0 0.010000004900003601 0.009999804005762211 0.0 3.0144191398633195e-17 0.0 0.01 0.0 3.0144191398633195e-17 0.0 0.010000003900002281 0.009999804005762211 0.0 1.6463299377076452e-17 0.0 0.01 0.0 1.6463299377076452e-17 0.0 0.010000003400001733 0.009999735010533285 0.0 4.568614747338508e-16 0.0 0.01 0.0 4.568614747338508e-16 0.0 0.010000020500063036 0.00999973851025689 0.0 9.798496923487667e-17 0.0 0.01 0.0 9.798496923487667e-17 0.0 0.010000015150034429 0.009999739510178594 0.0 -3.6364694923501245e-16 0.0 0.01 0.0 -3.6364694923501245e-16 0.0 0.010000011250018984 0.00999974200998417 0.0 -2.7467802319592986e-16 0.0 0.01 0.0 -2.7467802319592986e-16 0.0 0.010000009300012973 0.009999744009829982 0.0 -1.4162941278740057e-16 0.0 0.01 0.0 -1.4162941278740057e-16 0.0 0.010000008300010334 0.00999974450979162 0.0 -2.836523596794749e-17 0.0 0.01 0.0 -2.836523596794749e-17 0.0 0.010000007300007994 0.009999745509715125 0.0 -1.465084766178965e-17 0.0 0.01 0.0 -1.465084766178965e-17 0.0 0.010000006350006049 0.009999745509715125 0.0 3.910715397528199e-17 0.0 0.01 0.0 3.910715397528199e-17 0.0 0.010000005350004294 0.00999974600967699 0.0 2.9528648660642526e-17 0.0 0.01 0.0 2.9528648660642526e-17 0.0 0.010000005350004294 0.009999657017646341 0.0 3.0032516517570454e-16 0.0 0.01 0.0 3.0032516517570454e-16 0.0 0.010000025900100622 0.009999662017135634 0.0 -4.8921742453504e-16 0.0 0.01 0.0 -4.8921742453504e-16 0.0 0.01000002000006 0.009999665516782602 0.0 -5.895723922503711e-16 0.0 0.01 0.0 -5.895723922503711e-16 0.0 0.010000016100038882 0.009999668016532685 0.0 -6.238284687502313e-16 0.0 0.01 0.0 -6.238284687502313e-16 0.0 0.010000013200026137 0.009999670016334101 0.0 -2.079517317830728e-16 0.0 0.01 0.0 -2.079517317830728e-16 0.0 0.010000010750017335 0.009999671516185952 0.0 6.412810705977737e-14 0.0 0.01 0.0 6.412810705977737e-14 0.0 0.01000001025001576 0.009999673016038477 0.0 -3.8426519914656245e-17 0.0 0.01 0.0 -3.8426519914656245e-17 0.0 0.010000008800011615 0.009999674015940534 0.0 -1.3131714197318217e-17 0.0 0.01 0.0 -1.3131714197318217e-17 0.0 0.010000008800011615 0.009999674515891675 0.0 1.0667247455749574e-17 0.0 0.01 0.0 1.0667247455749574e-17 0.0 0.010000008300010334 0.00999956002903787 0.0 -7.073184960827858e-16 0.0 0.01 0.0 -7.073184960827858e-16 0.0 0.010000034200175447 0.00999956702812132 0.0 -1.791922782845398e-15 0.0 0.01 0.0 -1.791922782845398e-15 0.0 0.010000026850108139 0.009999573027347403 0.0 -1.9215685015416342e-15 0.0 0.01 0.0 -1.9215685015416342e-15 0.0 0.01000002195007227 0.009999575527028124 0.0 -1.2231083226212292e-15 0.0 0.01 0.0 -1.2231083226212292e-15 0.0 0.010000018550051615 0.009999579026584285 0.0 -5.958466615990576e-16 0.0 0.01 0.0 -5.958466615990576e-16 0.0 0.010000016100038882 0.009999581526269506 0.0 -2.775753686950467e-16 0.0 0.01 0.0 -2.775753686950467e-16 0.0 0.010000013650027948 0.009999582526144118 0.0 -5.644525420741451e-17 0.0 0.01 0.0 -5.644525420741451e-17 0.0 0.010000011700020532 0.0099995840259566 0.0 3.2470855322144127e-18 0.0 0.01 0.0 3.2470855322144127e-18 0.0 0.010000011700020532 0.0099995840259566 0.0 4.624222107521912e-17 0.0 0.01 0.0 4.624222107521912e-17 0.0 0.010000010750017335 0.00999944354644953 0.0 -6.829445914812204e-15 0.0 0.01 0.0 -6.829445914812204e-15 0.0 0.010000046850329241 0.009999452045041489 0.0 -7.256366005346707e-15 0.0 0.01 0.0 -7.256366005346707e-15 0.0 0.010000038100217745 0.009999460043736067 0.0 -5.5226590579577676e-15 0.0 0.01 0.0 -5.5226590579577676e-15 0.0 0.010000031250146486 0.00999946404309055 0.0 -3.0007392040024713e-15 0.0 0.01 0.0 -3.0007392040024713e-15 0.0 0.01000002635010415 0.009999468542370084 0.0 -1.3715974724172995e-15 0.0 0.01 0.0 -1.3715974724172995e-15 0.0 0.010000022950079004 0.00999947104197245 0.0 -4.8584662605403375e-16 0.0 0.01 0.0 -4.8584662605403375e-16 0.0 0.01000002000006 0.009999473041655691 0.0 -1.9471150540923588e-17 0.0 0.01 0.0 -1.9471150540923588e-17 0.0 0.01000001805004887 0.009999474041497763 0.0 -5.468985209379159e-17 0.0 0.01 0.0 -5.468985209379159e-17 0.0 0.010000016100038882 0.009999475041340133 0.0 2.2694482401965062e-17 0.0 0.01 0.0 2.2694482401965062e-17 0.0 0.010000015150034429 0.009999302572967456 0.0 -2.5615360105177018e-14 0.0 0.01 0.0 -2.5615360105280415e-14 0.0 0.010000064950632784 0.009999315570273018 0.0 -2.152039637183308e-14 0.0 0.01 0.0 -2.152039637183308e-14 0.0 0.010000051250393986 0.009999324568437334 0.0 -1.5943967919895275e-14 0.0 0.01 0.0 -1.5943967919869426e-14 0.0 0.01000004345028319 0.009999332066926152 0.0 -8.650341388907418e-15 0.0 0.01 0.0 -8.650341388907418e-15 0.0 0.010000037100206464 0.009999337065928066 0.0 -3.593753484092951e-15 0.0 0.01 0.0 -3.593753484092951e-15 0.0 0.010000032700160394 0.009999341065134995 0.0 -1.1790949418863651e-15 0.0 0.01 0.0 -1.1790949418863651e-15 0.0 0.010000028800124417 0.009999343564641765 0.0 -3.120566196000913e-16 0.0 0.01 0.0 -3.120566196000913e-16 0.0 0.010000025400096774 0.00999934556424853 0.0 -8.059792986689959e-17 0.0 0.01 0.0 -8.059792986689959e-17 0.0 0.010000022950079004 0.009999346064150408 0.0 1.240644102509673e-17 0.0 0.01 0.0 1.240644102509673e-17 0.0 0.01000002100006615 0.009999147109125837 0.0 -6.561146386356422e-14 0.0 0.01 0.0 -6.561146386356422e-14 0.0 0.010000090801236714 0.009999163105070695 0.0 -5.6436566930962734e-14 0.0 0.01 0.0 -5.6436566930859336e-14 0.0 0.010000074700837027 0.009999176101832414 0.0 -4.120358913285404e-14 0.0 0.01 0.0 -4.1203589132750644e-14 0.0 0.010000062500585943 0.009999185099620223 0.0 -2.2279479022716928e-14 0.0 0.01 0.0 -2.2279479022716928e-14 0.0 0.010000054200440653 0.009999191598037629 0.0 -9.738233797054609e-15 0.0 0.01 0.0 -9.738233797054609e-15 0.0 0.010000046400322947 0.009999196596828871 0.0 -3.705304708218246e-15 0.0 0.01 0.0 -3.705304708218246e-15 0.0 0.010000039550234633 0.009999199596107214 0.0 -8.55065424069365e-16 0.0 0.01 0.0 -8.55065424069365e-16 0.0 0.010000034650180095 0.009999202095507899 0.0 -3.26442166781585e-16 0.0 0.01 0.0 -3.26442166781585e-16 0.0 0.01000003025013726 0.009999202595388258 0.0 -8.355186995606755e-18 0.0 0.01 0.0 -8.355186995606755e-18 0.0 0.010000028300120135 0.009998985154507613 0.0 -1.2877592908461206e-13 0.0 0.01 0.0 -1.2877592908461206e-13 0.0 0.010000133802685425 0.009999007147882875 0.0 -1.2153198125389106e-13 0.0 0.01 0.0 -1.2153198125389106e-13 0.0 0.010000107401730244 0.009999023143156044 0.0 -9.093364778962879e-14 0.0 0.01 0.0 -9.093364778962879e-14 0.0 0.010000089351197535 0.009999035139661293 0.0 -5.2603801667104745e-14 0.0 0.01 0.0 -5.2603801667104745e-14 0.0 0.01000007615086984 0.009999044137068562 0.0 -2.441638332214574e-14 0.0 0.01 0.0 -2.441638332214574e-14 0.0 0.010000064450623078 0.009999051135068786 0.0 -9.301106833683766e-15 0.0 0.01 0.0 -9.301106833683766e-15 0.0 0.010000054700448817 0.009999054134216239 0.0 -2.8312542005211093e-15 0.0 0.01 0.0 -2.8312542005211093e-15 0.0 0.01000004685032924 0.00999905713336639 0.0 -5.185646897531294e-16 0.0 0.01 0.0 -5.185646897531294e-16 0.0 0.010000041000252152 0.009999058632942478 0.0 8.832856423017575e-18 0.0 0.01 0.0 8.832856423017575e-18 0.0 0.010000037600212066 0.009998839701974974 0.0 -1.7966740534997307e-13 0.0 0.01 0.0 -1.7966740534997307e-13 0.0 0.010000201656099612 0.009998865693027038 0.0 -1.977091799980675e-13 0.0 0.01 0.0 -1.977091799982743e-13 0.0 0.010000156253662202 0.009998886186114846 0.0 -1.6550916252684751e-13 0.0 0.01 0.0 -1.6550916252684751e-13 0.0 0.010000126002381452 0.009998902180807514 0.0 -1.0093593794605013e-13 0.0 0.01 0.0 -1.0093593794594673e-13 0.0 0.010000105451667986 0.00999891267736629 0.0 -4.927908503134272e-14 0.0 0.01 0.0 -4.927908503134272e-14 0.0 0.010000088401172202 0.009998922174281291 0.0 -1.9263807035647943e-14 0.0 0.01 0.0 -1.9263807035647943e-14 0.0 0.01000007420082586 0.009998927172668471 0.0 -6.010606967664846e-15 0.0 0.01 0.0 -6.010606967664846e-15 0.0 0.010000062500585943 0.00999893017170438 0.0 -1.6425089875223434e-15 0.0 0.01 0.0 -1.6425089875223434e-15 0.0 0.01000005420044065 0.009998932670903031 0.0 -1.5872875726148312e-16 0.0 0.01 0.0 -1.5872875726148312e-16 0.0 0.010000048850357952 0.009998738238846363 0.0 -9.926544875340574e-14 0.0 0.01 0.0 -9.926544875361253e-14 0.0 0.01000030616405989 0.009998769727072967 0.0 -2.300471178820165e-13 0.0 0.01 0.0 -2.300471178820165e-13 0.0 0.0100002300079353 0.00999879571757936 0.0 -2.390013197903277e-13 0.0 0.01 0.0 -2.390013197905345e-13 0.0 0.010000177254712776 0.009998814710769896 0.0 -1.588928047075979e-13 0.0 0.01 0.0 -1.588928047075979e-13 0.0 0.010000142603050289 0.009998828205997361 0.0 -8.149333824502578e-14 0.0 0.01 0.0 -8.149333824512918e-14 0.0 0.010000118152093953 0.009998839202149038 0.0 -3.3405307958947747e-14 0.0 0.01 0.0 -3.3405307958947747e-14 0.0 0.010000097651430355 0.009998846199718988 0.0 -1.151712760085405e-14 0.0 0.01 0.0 -1.151712760085405e-14 0.0 0.01000008055097326 0.009998850198336986 0.0 -2.930863626598953e-15 0.0 0.01 0.0 -2.930863626598953e-15 0.0 0.010000069800730815 0.009998852197647784 0.0 -4.960747695530591e-16 0.0 0.01 0.0 -4.960747695530591e-16 0.0 0.010000061500567344 0.009998723244557304 0.0 2.98449797095916e-13 0.0 0.01 0.0 2.984497970955024e-13 0.0 0.010000463432213426 0.00999875923096438 0.0 -1.1430495509594195e-13 0.0 0.01 0.0 -1.1430495509594195e-13 0.0 0.010000335466879949 0.009998786720842673 0.0 -2.6688833556665286e-13 0.0 0.01 0.0 -2.6688833556665286e-13 0.0 0.010000249009300535 0.009998809712551366 0.0 -2.0543083561005178e-13 0.0 0.01 0.0 -2.0543083561025858e-13 0.0 0.010000192405552843 0.009998825706877046 0.0 -1.1013234619024581e-13 0.0 0.01 0.0 -1.1013234619014241e-13 0.0 0.010000155753638808 0.009998837702671667 0.0 -4.557491252528897e-14 0.0 0.01 0.0 -4.5574912525237274e-14 0.0 0.010000126952417495 0.009998844700238476 0.0 -1.4933884019067715e-14 0.0 0.01 0.0 -1.4933884019067715e-14 0.0 0.010000103501606867 0.009998850198336986 0.0 -4.0453075634671745e-15 0.0 0.01 0.0 -4.0453075634671745e-15 0.0 0.010000086451121057 0.009998853197303632 0.0 -4.893349485276269e-16 0.0 0.01 0.0 -4.893349485276269e-16 0.0 0.010000076650881295 0.009998840201800988 0.0 1.1947430371703196e-12 0.0 0.01 0.0 1.1947430371711468e-12 0.0 0.010000686120607767 0.009998873190483573 0.0 2.530483784001052e-13 0.0 0.01 0.0 2.530483783996916e-13 0.0 0.010000483935126718 0.0099989026806429 0.0 -2.0318585974514293e-13 0.0 0.01 0.0 -2.0318585974472934e-13 0.0 0.010000344267777234 0.009998925173312698 0.0 -2.1595596419615153e-13 0.0 0.01 0.0 -2.1595596419615153e-13 0.0 0.01000025685989621 0.009998941668033695 0.0 -1.2347893358612787e-13 0.0 0.01 0.0 -1.2347893358612787e-13 0.0 0.010000200206012208 0.009998953664245691 0.0 -5.124174644065181e-14 0.0 0.01 0.0 -5.124174644065181e-14 0.0 0.010000160653871366 0.009998962661433025 0.0 -1.600714397289793e-14 0.0 0.01 0.0 -1.600714397289793e-14 0.0 0.010000128902492337 0.009998968159726127 0.0 -3.679086189309417e-15 0.0 0.01 0.0 -3.679086189309417e-15 0.0 0.010000105451667985 0.009998970159107686 0.0 -3.223916812900627e-16 0.0 0.01 0.0 -3.223916812900627e-16 0.0 0.010000091801264105 0.009999123615221005 0.0 2.4698458396593817e-12 0.0 0.01 0.0 2.4698458396577273e-12 0.0 0.01000097769336396 0.009999149608487159 0.0 8.589554403296774e-13 0.0 0.01 0.0 8.589554403288503e-13 0.0 0.010000677318807901 0.009999173602451223 0.0 -3.9591569261778556e-14 0.0 0.01 0.0 -3.9591569261778556e-14 0.0 0.010000466332617886 0.009999193097674216 0.0 -1.873805134244804e-13 0.0 0.01 0.0 -1.873805134244804e-13 0.0 0.010000334966829666 0.00999920909383978 0.0 -1.1851110894374042e-13 0.0 0.01 0.0 -1.1851110894374042e-13 0.0 0.010000253409632141 0.009999219591365155 0.0 -4.816436305946062e-14 0.0 0.01 0.0 -4.816436305946062e-14 0.0 0.010000197755865957 0.009999227589501917 0.0 -1.3594380962686054e-14 0.0 0.01 0.0 -1.3594380962686054e-14 0.0 0.010000157253709233 0.009999232588347137 0.0 -2.8490881486473405e-15 0.0 0.01 0.0 -2.8490881486473405e-15 0.0 0.010000126452398492 0.009999236087543252 0.0 -1.0709845130850172e-16 0.0 0.01 0.0 -1.0709845130850172e-16 0.0 0.010000108901778914 0.009999585025831965 0.0 3.589147344646136e-12 0.0 0.01 0.0 3.589147344646136e-12 0.0 0.01000132446308391 0.009999598024238976 0.0 1.4403420079017468e-12 0.0 0.01 0.0 1.4403420079034012e-12 0.0 0.01000090637321197 0.009999613022463903 0.0 1.4432634977046744e-13 0.0 0.01 0.0 1.4432634977046744e-13 0.0 0.010000608955619527 0.009999625521036224 0.0 -1.3834729947393713e-13 0.0 0.01 0.0 -1.3834729947435072e-13 0.0 0.010000426277255297 0.00999963651981864 0.0 -1.0184422625037307e-13 0.0 0.01 0.0 -1.0184422625037307e-13 0.0 0.010000315464927094 0.009999644518955917 0.0 -3.900647589322888e-14 0.0 0.01 0.0 -3.900647589322888e-14 0.0 0.010000240708690824 0.009999650018373931 0.0 -9.425560975001416e-15 0.0 0.01 0.0 -9.425560975001416e-15 0.0 0.01000018800530177 0.009999654517904508 0.0 -9.271955152388416e-16 0.0 0.01 0.0 -9.271955152388416e-16 0.0 0.010000148953327997 0.009999656017749381 0.0 9.846248062536472e-17 0.0 0.01 0.0 9.846248062536472e-17 0.0 0.010000125002343799 0.010000193855636856 0.0 3.836732871856906e-12 0.0 0.01 0.0 3.836732871856906e-12 0.0 0.010001699633214785 0.0100001909054666 0.0 1.6404687352017916e-12 0.0 0.01 0.0 1.6404687352017916e-12 0.0 0.010001155000072969 0.010000192855578849 0.0 2.352772175357037e-13 0.0 0.01 0.0 2.352772175357037e-13 0.0 0.010000766188047626 0.010000196305780244 0.0 -1.0054842965985161e-13 0.0 0.01 0.0 -1.0054842965985161e-13 0.0 0.010000524441252911 0.010000199705982211 0.0 -8.254334180140995e-14 0.0 0.01 0.0 -8.254334180306431e-14 0.0 0.010000380371701293 0.010000201656099614 0.0 -3.03798363672202e-14 0.0 0.01 0.0 -3.037983636639302e-14 0.0 0.01000028616228286 0.010000204606279386 0.0 -5.842505385691515e-15 0.0 0.01 0.0 -5.842505385691515e-15 0.0 0.010000219757243772 0.010000205556337837 0.0 2.329426085535333e-16 0.0 0.01 0.0 2.329426085535333e-16 0.0 0.010000170904381147 0.01000020605636871 0.0 1.9254125546952482e-16 0.0 0.01 0.0 1.9254125546952482e-16 0.0 0.010000141603007655 0.010000865362314832 0.0 3.0629668311926517e-12 0.0 0.01 0.0 3.0629668311959604e-12 0.0 0.01000206654041193 0.010000847257664671 0.0 1.317029054430771e-12 0.0 0.01 0.0 1.317029054430771e-12 0.0 0.010001399243627628 0.01000083455446055 0.0 1.7164985098767172e-13 0.0 0.01 0.0 1.71649850984363e-13 0.0 0.010000920527089922 0.010000826252392674 0.0 -9.23355181160606e-14 0.0 0.01 0.0 -9.23355181160606e-14 0.0 0.010000623608328254 0.010000821401193908 0.0 -7.005115391281466e-14 0.0 0.01 0.0 -7.005115391281466e-14 0.0 0.010000445829812863 0.010000817950345476 0.0 -2.4032229313198323e-14 0.0 0.01 0.0 -2.4032229313198323e-14 0.0 0.010000331566489724 0.010000815049635058 0.0 -3.755515773726622e-15 0.0 0.01 0.0 -3.755515773726622e-15 0.0 0.010000251459484463 0.01000081259903685 0.0 3.679542805077598e-16 0.0 0.01 0.0 3.679542805077598e-16 0.0 0.010000193355607813 0.010000812098914987 0.0 1.2935732526063322e-16 0.0 0.01 0.0 1.2935732526063322e-16 0.0 0.010000158203754186 0.010001474426025725 0.0 1.8042478274633132e-12 0.0 0.01 0.0 1.8042478274600045e-12 0.0 0.010002386604110085 0.010001442211936306 0.0 7.131673070849243e-13 0.0 0.01 0.0 7.131673070981592e-13 0.0 0.01000161464097565 0.010001418751871428 0.0 2.5627948187198337e-14 0.0 0.01 0.0 2.5627948187405133e-14 0.0 0.01000105876812476 0.010001400194026608 0.0 -1.0097229874837298e-13 0.0 0.01 0.0 -1.0097229874878657e-13 0.0 0.010000712976243024 0.010001387488715329 0.0 -6.049104543894718e-14 0.0 0.01 0.0 -6.049104543894718e-14 0.0 0.010000506888537795 0.010001376734257402 0.0 -1.9900146528024925e-14 0.0 0.01 0.0 -1.9900146528076624e-14 0.0 0.010000374020982708 0.010001370381640414 0.0 -3.4195585171408495e-15 0.0 0.01 0.0 -3.4195585171408495e-15 0.0 0.010000280761823637 0.010001366480039131 0.0 3.7517318846071185e-17 0.0 0.01 0.0 3.7517318846071185e-17 0.0 0.010000213856860018 0.010001364029035533 0.0 1.675979572225637e-16 0.0 0.01 0.0 1.675979572225637e-16 0.0 0.010000173354507664 0.01000189849050311 0.0 7.440774205540136e-13 0.0 0.01 0.0 7.440774205540136e-13 0.0 0.010002638243682319 0.010001857917650469 0.0 2.1380429226202972e-13 0.0 0.01 0.0 2.1380429226202972e-13 0.0 0.010001785127888492 0.010001826200129255 0.0 -8.082234420958647e-14 0.0 0.01 0.0 -8.082234420937967e-14 0.0 0.010001170105339938 0.010001800286037804 0.0 -9.713051822582569e-14 0.0 0.01 0.0 -9.713051822582569e-14 0.0 0.010000787192941155 0.010001781225801804 0.0 -4.971820773112857e-14 0.0 0.01 0.0 -4.971820773107687e-14 0.0 0.010000557646642002 0.010001766568004142 0.0 -1.6348997323343153e-14 0.0 0.01 0.0 -1.6348997323343153e-14 0.0 0.01000041017523518 0.010001757313113894 0.0 -3.0051481353293477e-15 0.0 0.01 0.0 -3.0051481353293477e-15 0.0 0.010000307164151893 0.010001751460034406 0.0 -1.3841032841009872e-16 0.0 0.01 0.0 -1.3841032841009872e-16 0.0 0.010000232408101778 0.010001747057724981 0.0 9.409381402581202e-17 0.0 0.01 0.0 9.409381402581202e-17 0.0 0.0100001865052175 0.01000207874799938 0.0 1.6797243752245417e-13 0.0 0.01 0.0 1.6797243752286776e-13 0.0 0.010002815638726936 0.01000203482090596 0.0 -2.8214904657155227e-14 0.0 0.01 0.0 -2.8214904657155227e-14 0.0 0.010001906294955556 0.010001997198160787 0.0 -1.0071574648295039e-13 0.0 0.01 0.0 -1.0071574648295039e-13 0.0 0.010001250734611437 0.010001967380435605 0.0 -7.300854618824781e-14 0.0 0.01 0.0 -7.300854618824781e-14 0.0 0.010000841906309002 0.01000194491725837 0.0 -3.3957052840170175e-14 0.0 0.01 0.0 -3.3957052840221874e-14 0.0 0.010000597203493545 0.01000192875787257 0.0 -1.1088238212005707e-14 0.0 0.01 0.0 -1.1088238212005707e-14 0.0 0.01000043997903553 0.010001916550834303 0.0 -2.6711449391045247e-15 0.0 0.01 0.0 -2.6711449391045247e-15 0.0 0.010000328116148325 0.010001910197188626 0.0 -3.877727254270813e-16 0.0 0.01 0.0 -3.877727254270813e-16 0.0 0.01000024755919253 0.010001905794669592 0.0 1.9020878167175463e-17 0.0 0.01 0.0 1.9020878167175463e-17 0.0 0.010000197755865954 0.010002043125984038 0.0 -1.980358405376082e-14 0.0 0.01 0.0 -1.980358405376082e-14 0.0 0.010002923131205045 0.010002000099899959 0.0 -6.830068605724799e-14 0.0 0.01 0.0 -6.830068606386543e-14 0.0 0.010001981538818844 0.010001961026693065 0.0 -6.536246648341814e-14 0.0 0.01 0.0 -6.536246648321134e-14 0.0 0.010001301504042832 0.010001930258741017 0.0 -3.9633788419829354e-14 0.0 0.01 0.0 -3.9633788419829354e-14 0.0 0.010000879015886758 0.010001906795241591 0.0 -1.8074747506863556e-14 0.0 0.01 0.0 -1.8074747506863556e-14 0.0 0.010000625058599857 0.010001889685501768 0.0 -6.239906142946277e-15 0.0 0.01 0.0 -6.239906142946277e-15 0.0 0.010000460481804571 0.01000187747860656 0.0 -1.663365044168596e-15 0.0 0.01 0.0 -1.663365044168596e-15 0.0 0.010000343267674097 0.01000187062475466 0.0 -2.0190004845794612e-16 0.0 0.01 0.0 -2.0190004845794612e-16 0.0 0.010000258310008265 0.010001865772035925 0.0 -2.5600946695170666e-17 0.0 0.01 0.0 -2.5600946695170666e-17 0.0 0.010000205556337837 0.010001878479170057 0.0 -3.1625119561202604e-14 0.0 0.01 0.0 -3.1625119561306e-14 0.0 0.01000297302530655 0.01000183695603718 0.0 -3.320376451285966e-14 0.0 0.01 0.0 -3.320376451244607e-14 0.0 0.01000201771050911 0.010001800286037801 0.0 -2.3910544417720705e-14 0.0 0.01 0.0 -2.3910544417720705e-14 0.0 0.010001328864835336 0.010001770019834651 0.0 -1.3202665406892312e-14 0.0 0.01 0.0 -1.3202665406892312e-14 0.0 0.010000899071234831 0.010001745556939005 0.0 -5.852271623208947e-15 0.0 0.01 0.0 -5.852271623208947e-15 0.0 0.01000064116165797 0.010001728948285984 0.0 -2.0687615861155746e-15 0.0 0.01 0.0 -2.0687615861155746e-15 0.0 0.010000473183583287 0.010001717742494545 0.0 -5.432195457755736e-16 0.0 0.01 0.0 -5.432195457755736e-16 0.0 0.010000353068697745 0.01000171088897102 0.0 -1.2650270261102575e-16 0.0 0.01 0.0 -1.2650270261102575e-16 0.0 0.010000265160546144 0.01000170598645919 0.0 2.2593676621462932e-18 0.0 0.01 0.0 2.2593676621462932e-18 0.0 0.01000021095667522 0.010001673269881137 0.0 7.922043359267423e-15 0.0 0.01 0.0 7.922043359267423e-15 0.0 0.01000298083227464 0.010001634700749632 0.0 2.776121600797298e-15 0.0 0.01 0.0 2.776121600797298e-15 0.0 0.010002023063752485 0.010001599983910375 0.0 -2.624661272395418e-16 0.0 0.01 0.0 -2.624661272395418e-16 0.0 0.010001334266992762 0.010001572170680394 0.0 -7.514620954606248e-16 0.0 0.01 0.0 -7.514620954606248e-16 0.0 0.010000904922817976 0.01000155066060769 0.0 -4.1748852539444926e-16 0.0 0.01 0.0 -4.1748852539444926e-16 0.0 0.010000646562701094 0.010001534052925568 0.0 -1.4762891158706566e-16 0.0 0.01 0.0 -1.4762891158706566e-16 0.0 0.010000477584210823 0.010001523297994835 0.0 -4.550910984485905e-17 0.0 0.01 0.0 -4.550910984485905e-17 0.0 0.010000355969006188 0.010001516444871026 0.0 -1.3670443988310346e-17 0.0 0.01 0.0 -1.3670443988310346e-17 0.0 0.010000268060778101 0.0100015125430988 0.0 -3.2132399130159716e-18 0.0 0.01 0.0 -3.2132399130159716e-18 0.0 0.010000213406831177 0.010001483730152961 0.0 5.70943923320105e-14 0.0 0.01 0.0 5.70943923320622e-14 0.0 0.01000295100575146 0.010001448564690171 0.0 2.248511113116941e-14 0.0 0.01 0.0 2.2485111131221108e-14 0.0 0.010002003551972264 0.01000141680104191 0.0 3.626994646183285e-15 0.0 0.01 0.0 3.626994646183285e-15 0.0 0.010001321561932735 0.010001390890132498 0.0 -7.467468375816005e-16 0.0 0.01 0.0 -7.467468375816005e-16 0.0 0.010000898571099995 0.010001370381640414 0.0 -6.636726586711531e-16 0.0 0.01 0.0 -6.636726586711531e-16 0.0 0.010000641661754187 0.01000135527546596 0.0 -2.9444619262328493e-16 0.0 0.01 0.0 -2.9444619262328493e-16 0.0 0.010000475133860683 0.010001345471495325 0.0 -4.0034082703469746e-17 0.0 0.01 0.0 -4.0034082703469746e-17 0.0 0.010000355018904868 0.010001338668757135 0.0 -2.6450031262844293e-17 0.0 0.01 0.0 -2.6450031262844293e-17 0.0 0.010000267110701839 0.010001335217373215 0.0 -1.2749153596350815e-17 0.0 0.01 0.0 -1.2749153596350815e-17 0.0 0.010000212406767305 0.010001322062131036 0.0 1.1273785282578039e-13 0.0 0.01 0.0 1.12737852825677e-13 0.0 0.010002887950557217 0.010001289299301046 0.0 3.512822108114325e-14 0.0 0.01 0.0 3.512822108114325e-14 0.0 0.010001961026693063 0.010001259037736493 0.0 -3.918725185520616e-15 0.0 0.01 0.0 -3.918725185520616e-15 0.0 0.01000129565176353 0.010001234578590017 0.0 -7.745067650364373e-15 0.0 0.01 0.0 -7.745067650390223e-15 0.0 0.01000088046626948 0.010001215071423913 0.0 -4.097586145228985e-15 0.0 0.01 0.0 -4.097586145228985e-15 0.0 0.0100006289593335 0.01000120136645753 0.0 -1.4955823607747372e-15 0.0 0.01 0.0 -1.4955823607747372e-15 0.0 0.010000466332617888 0.010001192613315056 0.0 -3.1746771005312074e-16 0.0 0.01 0.0 -3.1746771005312074e-16 0.0 0.010000349118281685 0.010001185760870987 0.0 -4.949231246035808e-17 0.0 0.01 0.0 -4.949231246035808e-17 0.0 0.010000262710352148 0.01000118280982277 0.0 8.41472834811699e-18 0.0 0.01 0.0 8.41472834811699e-18 0.0 0.010000208506521065 0.010001168154655921 0.0 1.8304693930024669e-13 0.0 0.01 0.0 1.8304693930024669e-13 0.0 0.010002795121469009 0.010001134943185169 0.0 5.0524424676731314e-14 0.0 0.01 0.0 5.052442467683471e-14 0.0 0.010001897489933602 0.010001106133502639 0.0 -1.3609907358807062e-14 0.0 0.01 0.0 -1.3609907358703664e-14 0.0 0.01000125268534378 0.01000108222565651 0.0 -1.5917997638088607e-14 0.0 0.01 0.0 -1.5917997638088607e-14 0.0 0.010000851658786052 0.010001065120147978 0.0 -7.723751368778366e-15 0.0 0.01 0.0 -7.723751368778366e-15 0.0 0.010000610405884756 0.010001050465498484 0.0 -2.492387350680659e-15 0.0 0.01 0.0 -2.492387350680659e-15 0.0 0.010000451680600462 0.010001041662736587 0.0 -5.453566652466646e-16 0.0 0.01 0.0 -5.453566652466646e-16 0.0 0.010000338867223872 0.010001035810913413 0.0 -5.629548768400355e-17 0.0 0.01 0.0 -5.629548768400355e-17 0.0 0.010000254909746516 0.010001032409858513 0.0 -9.028762405596518e-15 0.0 0.01 0.0 -9.028762405596518e-15 0.0 0.010000202656160261 0.010000993798125583 0.0 2.6838921480139234e-13 0.0 0.01 0.0 2.6838921480139234e-13 0.0 0.010002670969730927 0.010000960588391783 0.0 7.62564671717302e-14 0.0 0.01 0.0 7.625646717152341e-14 0.0 0.01000181349319438 0.010000931280076234 0.0 -1.767863511421886e-14 0.0 0.01 0.0 -1.767863511432226e-14 0.0 0.010001197965233724 0.010000909324015487 0.0 -1.986611461458886e-14 0.0 0.01 0.0 -1.986611461376168e-14 0.0 0.010000814549512826 0.010000891219126578 0.0 -8.561711342263691e-15 0.0 0.01 0.0 -8.561711342263691e-15 0.0 0.010000584051163382 0.01000087851575493 0.0 -1.815046869514834e-15 0.0 0.01 0.0 -1.815046869514834e-15 0.0 0.010000432628073439 0.010000869763460112 0.0 3.056443479602368e-17 0.0 0.01 0.0 3.056443479602368e-17 0.0 0.010000324215766698 0.01000086341180912 0.0 -1.219003886610796e-16 0.0 0.01 0.0 -1.219003886610796e-16 0.0 0.010000244658978408 0.010000860461046241 0.0 -2.3847951018071696e-17 0.0 0.01 0.0 -2.3847951018071696e-17 0.0 0.010000195805750834 0.010000784742363425 0.0 3.7498678983960237e-13 0.0 0.01 0.0 3.749867898387752e-13 0.0 0.01000252145333853 0.010000751084610742 0.0 1.1080184479036092e-13 0.0 0.01 0.0 1.1080184479036092e-13 0.0 0.010001710388714384 0.01000072272834289 0.0 -1.2872776967116388e-14 0.0 0.01 0.0 -1.2872776967116388e-14 0.0 0.010001130091537172 0.010000700773655679 0.0 -1.7357808579346244e-14 0.0 0.01 0.0 -1.7357808578519063e-14 0.0 0.010000770088946419 0.010000683670104331 0.0 -4.908169900535308e-15 0.0 0.01 0.0 -4.908169900535308e-15 0.0 0.010000551295585672 0.010000670967523571 0.0 6.920977260955116e-16 0.0 0.01 0.0 6.920977260955116e-16 0.0 0.010000410175235178 0.010000662665863087 0.0 1.0167242110906851e-15 0.0 0.01 0.0 1.0167242110906851e-15 0.0 0.01000030761419339 0.010000656814705168 0.0 3.4870155000818053e-16 0.0 0.01 0.0 3.4870155000818053e-16 0.0 0.010000233908206702 0.010000653864125153 0.0 -2.969689233381367e-17 0.0 0.01 0.0 -2.969689233381367e-17 0.0 0.010000187005245513 0.010000551795668413 0.0 4.508778299687198e-13 0.0 0.01 0.0 4.508778299687198e-13 0.0 0.01000234897739508 0.010000517140112316 0.0 1.3940742344925146e-13 0.0 0.01 0.0 1.3940742344945826e-13 0.0 0.01000159363086797 0.010000489285907762 0.0 -2.5548619218502333e-15 0.0 0.01 0.0 -2.5548619218502333e-15 0.0 0.010001052916271558 0.010000468282891275 0.0 -9.202363934473103e-15 0.0 0.01 0.0 -9.202363934473103e-15 0.0 0.010000717377187121 0.010000453630865281 0.0 1.7151815471076471e-15 0.0 0.01 0.0 1.7151815471076471e-15 0.0 0.010000515639879935 0.010000442879419591 0.0 3.49768670626367e-15 0.0 0.01 0.0 3.497686706056875e-15 0.0 0.010000385272264066 0.010000435578457638 0.0 1.5611959176921537e-15 0.0 0.01 0.0 1.5611959176921537e-15 0.0 0.010000290062619962 0.010000430677820912 0.0 3.067855363166337e-16 0.0 0.01 0.0 3.067855363166337e-16 0.0 0.010000221207339687 0.010000428727569524 0.0 -7.386947463448115e-17 0.0 0.01 0.0 -7.386947463448115e-17 0.0 0.010000178204763429 0.010000318865250612 0.0 4.604303103042637e-13 0.0 0.01 0.0 4.604303103034365e-13 0.0 0.010002162301129786 0.010000282711988462 0.0 1.3559192700446515e-13 0.0 0.01 0.0 1.3559192700425835e-13 0.0 0.010001466122364204 0.010000257809969553 0.0 4.613069112536816e-15 0.0 0.01 0.0 4.613069112536816e-15 0.0 0.010000968890794217 0.010000239258586426 0.0 3.4481849965723227e-16 0.0 0.01 0.0 3.4481849965723227e-16 0.0 0.010000662165763717 0.010000227057733048 0.0 7.998368636118913e-15 0.0 0.01 0.0 7.998368636118913e-15 0.0 0.010000476584067691 0.010000218757177997 0.0 5.8107606739277e-15 0.0 0.01 0.0 5.8107606739277e-15 0.0 0.010000357419161356 0.010000213406831176 0.0 1.647168631754652e-15 0.0 0.01 0.0 1.6471686318580496e-15 0.0 0.010000271011016646 0.01000020995661208 0.0 -7.47977635044844e-16 0.0 0.01 0.0 -7.479776354584343e-16 0.0 0.010000207056430677 0.010000208006489824 0.0 -2.947995256528495e-16 0.0 0.01 0.0 -2.947995256528495e-16 0.0 0.010000169454307118 0.010000114251958 0.0 3.6589094912416024e-13 0.0 0.01 0.0 3.6589094912416024e-13 0.0 0.010001970782444468 0.010000078600926708 0.0 9.206171219823305e-14 0.0 0.01 0.0 9.206171219812966e-14 0.0 0.010001335717573561 0.01000005520045706 0.0 4.371471103878294e-16 0.0 0.01 0.0 4.371471103878294e-16 0.0 0.010000884417315264 0.010000040550246649 0.0 8.665315437991977e-15 0.0 0.01 0.0 8.665315437991977e-15 0.0 0.010000604554818564 0.010000031250146485 0.0 1.3172808703857377e-14 0.0 0.01 0.0 1.3172808703857377e-14 0.0 0.010000438028778702 0.010000026850108142 0.0 7.478202341496338e-15 0.0 0.01 0.0 7.478202341496338e-15 0.0 0.010000329616296324 0.0100000224500756 0.0 1.3610945227207167e-15 0.0 0.01 0.0 1.3610945227207167e-15 0.0 0.01000025195952222 0.01000002100006615 0.0 -7.386572550960215e-16 0.0 0.01 0.0 -7.386572550960215e-16 0.0 0.010000193855636856 0.010000020500063036 0.0 -3.337349608261266e-16 0.0 0.01 0.0 -3.337349608261266e-16 0.0 0.010000159203801796 0.009999958000264597 0.0 1.9280104674106464e-13 0.0 0.01 0.0 1.9280104674106464e-13 0.0 0.0100017812258018 0.009999919500972027 0.0 2.0722650780269467e-14 0.0 0.01 0.0 2.0722650780269467e-14 0.0 0.010001207718752464 0.00999989750157591 0.0 5.062900950390173e-15 0.0 0.01 0.0 5.062900950390173e-15 0.0 0.010000800396084829 0.0099998855019665 0.0 2.1266619021759362e-14 0.0 0.01 0.0 2.126661902181106e-14 0.0 0.01000054839510728 0.009999879502177995 0.0 1.9455193621906813e-14 0.0 0.01 0.0 1.9455193621906813e-14 0.0 0.010000398973875753 0.00999987550232499 0.0 8.70052333399408e-15 0.0 0.01 0.0 8.700523333942382e-15 0.0 0.010000301763658645 0.009999875002343702 0.0 1.8024561172575618e-15 0.0 0.01 0.0 1.8024561172575618e-15 0.0 0.010000231958070434 0.009999874502362489 0.0 -1.1444868400975809e-15 0.0 0.01 0.0 -1.1444868400975809e-15 0.0 0.010000181654949659 0.00999987400238135 0.0 -5.073964073143603e-16 0.0 0.01 0.0 -5.073964073143603e-16 0.0 0.01000015040339311 0.009999850003374914 0.0 -1.7055025673066119e-12 0.0 0.01 0.0 -1.7055025673082662e-12 0.0 0.010001604886266334 0.00999981000541483 0.0 -1.488868036079659e-14 0.0 0.01 0.0 -1.488868036079659e-14 0.0 0.010001090528361883 0.009999786506837093 0.0 3.5249060861491865e-14 0.0 0.01 0.0 3.5249060861543564e-14 0.0 0.010000723228451342 0.009999775007593466 0.0 4.713154124432806e-14 0.0 0.01 0.0 4.713154124432806e-14 0.0 0.010000496136920336 0.009999770507900237 0.0 2.833104837724283e-14 0.0 0.01 0.0 2.8331048377139434e-14 0.0 0.010000361369587254 0.009999769008003843 0.0 1.0398574271089112e-14 0.0 0.01 0.0 1.0398574271063263e-14 0.0 0.010000275411377296 0.009999768508038527 0.0 8.523677083432238e-16 0.0 0.01 0.0 8.523677083432238e-16 0.0 0.010000214356892134 0.009999768008073288 0.0 -1.3118296316140314e-15 0.0 0.01 0.0 -1.3118296316140314e-15 0.0 0.010000169904330024 0.009999767508108123 0.0 -5.67370556937034e-16 0.0 0.01 0.0 -5.67370556937034e-16 0.0 0.010000142103028933 0.009999788006741362 0.0 4.040056774486395e-11 0.0 0.01 0.0 4.040056774481101e-11 0.0 0.010001448564690171 0.009999743009906928 0.0 1.5890564353852381e-12 0.0 0.01 0.0 1.5890564353868925e-12 0.0 0.010000987446238261 0.009999718011928041 0.0 1.2885259876855474e-13 0.0 0.01 0.0 1.2885259876855474e-13 0.0 0.01000065681470517 0.0099997055130089 0.0 9.472063312288472e-14 0.0 0.01 0.0 9.472063312288472e-14 0.0 0.010000451680600464 0.00999969951354436 0.0 4.32803212872515e-14 0.0 0.01 0.0 4.32803212872515e-14 0.0 0.010000328116148326 0.009999697013770655 0.0 1.1253689898617472e-14 0.0 0.01 0.0 1.1253689898617472e-14 0.0 0.01000025050941293 0.009999696513816138 0.0 -6.867083566347328e-16 0.0 0.01 0.0 -6.867083566347328e-16 0.0 0.010000197255836327 0.009999697013770655 0.0 -2.1069112905223102e-15 0.0 0.01 0.0 -2.1069112905223102e-15 0.0 0.010000158203754186 0.009999697013770655 0.0 -7.53180592428562e-16 0.0 0.01 0.0 -7.53180592428562e-16 0.0 0.010000134752723697 0.009999760508603716 0.0 3.5953229895962455e-10 0.0 0.01 0.0 3.5953229895962455e-10 0.0 0.010001316159795923 0.009999713012354763 0.0 3.334745805725875e-11 0.0 0.01 0.0 3.334745805725875e-11 0.0 0.010000904922817981 0.009999682015167797 0.0 3.101532788657984e-13 0.0 0.01 0.0 3.1015327886497124e-13 0.0 0.010000603554637335 0.00999966601673247 0.0 1.807548360408562e-13 0.0 0.01 0.0 1.8075483604168338e-13 0.0 0.010000414075717386 0.009999657517594933 0.0 6.759092725395473e-14 0.0 0.01 0.0 6.759092725416153e-14 0.0 0.01000029981348268 0.009999654017956366 0.0 1.3405999751739343e-14 0.0 0.01 0.0 1.3405999751739343e-14 0.0 0.010000229007866452 0.00999965251811239 0.0 -2.7773494444470418e-15 0.0 0.01 0.0 -2.7773494444470418e-15 0.0 0.010000180654895312 0.009999651518216779 0.0 -3.747196915099233e-15 0.0 0.01 0.0 -3.747196915099233e-15 0.0 0.010000146503219415 0.009999651018269088 0.0 -1.0867916530243603e-15 0.0 0.01 0.0 -1.0867916530243603e-15 0.0 0.010000126952417497 0.009999759008712125 0.0 1.4769695699046257e-09 0.0 0.01 0.0 1.4769695699046257e-09 0.0 0.01000120966945996 0.009999711512484246 0.0 2.202825202464734e-10 0.0 0.01 0.0 2.2028252024604988e-10 0.0 0.010000842856549107 0.009999675015842898 0.0 3.8249940449729505e-12 0.0 0.01 0.0 3.824994044966333e-12 0.0 0.010000567448295986 0.009999652518112388 0.0 3.2785134886799286e-13 0.0 0.01 0.0 3.2785134886799286e-13 0.0 0.010000386722431977 0.009999640519384878 0.0 1.140645197258316e-13 0.0 0.01 0.0 1.140645197260384e-13 0.0 0.010000277361538988 0.009999632520257196 0.0 2.094064916184842e-14 0.0 0.01 0.0 2.094064916184842e-14 0.0 0.010000209956612082 0.009999629020644872 0.0 -4.295115954402262e-15 0.0 0.01 0.0 -4.295115954402262e-15 0.0 0.010000166504158452 0.009999626020980094 0.0 -5.484395290730928e-15 0.0 0.01 0.0 -5.484395290730928e-15 0.0 0.010000136702803098 0.009999626020980092 0.0 -1.5342511200206483e-15 0.0 0.01 0.0 -1.5342511200206483e-15 0.0 0.010000120102163645 0.009999776507495246 0.0 4.233719849330018e-09 0.0 0.01 0.0 4.233719849330018e-09 0.0 0.010001128591031595 0.009999734010613067 0.0 9.561964561056378e-10 0.0 0.01 0.0 9.561964561039438e-10 0.0 0.010000803296782627 0.009999695013953043 0.0 6.776449386686311e-11 0.0 0.01 0.0 6.776449386686311e-11 0.0 0.010000548395107283 0.009999665016832809 0.0 5.70493415086338e-13 0.0 0.01 0.0 5.704934150896467e-13 0.0 0.010000372570820319 0.009999644518955915 0.0 2.133740513398317e-13 0.0 0.01 0.0 2.133740513398317e-13 0.0 0.010000263210391592 0.009999633020202115 0.0 4.89919141538023e-14 0.0 0.01 0.0 4.89919141538023e-14 0.0 0.010000196305780243 0.009999625521036224 0.0 7.467255428329346e-17 0.0 0.01 0.0 7.467255428329346e-17 0.0 0.01000015480359455 0.009999621021544792 0.0 -5.864522664757579e-15 0.0 0.01 0.0 -5.864522664757579e-15 0.0 0.010000127952455735 0.009999619021772769 0.0 -1.990886409140403e-15 0.0 0.01 0.0 -1.990886409140403e-15 0.0 0.010000112801908613 0.009999810505400119 0.0 9.57490133612405e-09 0.0 0.01 0.0 9.574901336110498e-09 0.0 0.010001063669698667 0.009999781007195266 0.0 3.033850645312459e-09 0.0 0.01 0.0 3.033850645315847e-09 0.0 0.01000077939110949 0.009999742009984207 0.0 4.934159109896256e-10 0.0 0.01 0.0 4.934159109896256e-10 0.0 0.010000544944541482 0.009999704013141755 0.0 2.3423071777147227e-11 0.0 0.01 0.0 2.3423071777200166e-11 0.0 0.010000373070876247 0.009999675015842893 0.0 4.0763858358413754e-13 0.0 0.01 0.0 4.0763858358413754e-13 0.0 0.01000025931008591 0.009999655517801017 0.0 1.2702219646897e-13 0.0 0.01 0.0 1.2702219646938358e-13 0.0 0.010000188955355486 0.009999642019223454 0.0 2.397300119259054e-14 0.0 0.01 0.0 2.397300119259054e-14 0.0 0.010000146003197478 0.009999634520037317 0.0 4.538384613410758e-14 0.0 0.01 0.0 4.538384613410758e-14 0.0 0.010000120102163645 0.009999631020422894 0.0 -9.08297061910274e-16 0.0 0.01 0.0 -9.08297061910274e-16 0.0 0.01000010595168384 0.009999860502968697 0.0 1.8209053389493498e-08 0.0 0.01 0.0 1.8209053389466393e-08 0.0 0.010001011853606162 0.009999846503543167 0.0 7.711627729781439e-09 0.0 0.01 0.0 7.711627729767886e-09 0.0 0.010000766688171516 0.009999815005134284 0.0 2.1523265906697665e-09 0.0 0.01 0.0 2.1523265906731547e-09 0.0 0.010000553745992492 0.009999773507695065 0.0 3.3651397899434613e-10 0.0 0.01 0.0 3.3651397899519316e-10 0.0 0.010000385272264083 0.009999735510493572 0.0 2.03273434635928e-11 0.0 0.01 0.0 2.03273434635928e-11 0.0 0.010000267110701837 0.009999705013053108 0.0 2.938543639255243e-13 0.0 0.01 0.0 2.938543639255243e-13 0.0 0.010000191405495268 0.009999684514930253 0.0 9.30603815905452e-14 0.0 0.01 0.0 9.30603815905452e-14 0.0 0.010000142603050287 0.009999672016136722 0.0 2.1982799497136664e-14 0.0 0.01 0.0 2.1982799497136664e-14 0.0 0.010000115251992426 0.009999664516883094 0.0 3.1891455988571356e-15 0.0 0.01 0.0 3.1891455988571356e-15 0.0 0.010000101051531691 0.009999918501129593 0.0 2.9808986630691734e-08 0.0 0.01 0.0 2.9808986630637524e-08 0.0 0.010000965940071264 0.00999992600086033 0.0 1.6113282276118603e-08 0.0 0.01 0.0 1.6113282276145708e-08 0.0 0.010000756435859562 0.009999906001331871 0.0 6.579967768959309e-09 0.0 0.01 0.0 6.579967768959309e-09 0.0 0.01000056644813238 0.009999870002535514 0.0 1.9483842891195578e-09 0.0 0.01 0.0 1.9483842891195578e-09 0.0 0.010000406274758105 0.009999828504411733 0.0 3.932889195824125e-10 0.0 0.01 0.0 3.932889195824125e-10 0.0 0.010000285662239991 0.009999790006614771 0.0 4.6421460887928985e-11 0.0 0.01 0.0 4.6421460887928985e-11 0.0 0.010000202156129902 0.009999761008567807 0.0 2.1034429896671456e-12 0.0 0.01 0.0 2.1034429896671456e-12 0.0 0.010000148953327999 0.009999740010139561 0.0 7.627029063196975e-14 0.0 0.01 0.0 7.627029063196975e-14 0.0 0.010000116702042873 0.009999729011015653 0.0 1.53271814496808e-14 0.0 0.01 0.0 1.53271814496808e-14 0.0 0.010000099601488049 0.009999982000319253 0.0 4.248015799773698e-08 0.0 0.01 0.0 4.248015799762856e-08 0.0 0.010000926378981423 0.010000005850122277 0.0 2.7947024998560034e-08 0.0 0.01 0.0 2.7947024998505824e-08 0.0 0.010000742782867897 0.010000006350040069 0.0 1.5060268532046325e-08 0.0 0.01 0.0 1.5060268532046325e-08 0.0 0.010000576699917604 0.009999984500042532 0.0 6.579993812484827e-09 0.0 0.01 0.0 6.579993812484827e-09 0.0 0.010000430227769292 0.009999949000390956 0.0 2.321437361473542e-09 0.0 0.01 0.0 2.3214373614870946e-09 0.0 0.0100003115145564 0.009999910501201583 0.0 6.505453848683861e-10 0.0 0.01 0.0 6.505453848683861e-10 0.0 0.010000224107533469 0.009999878002232556 0.0 1.3337674633783527e-10 0.0 0.01 0.0 1.3337674633698824e-10 0.0 0.010000163554012403 0.009999852003285521 0.0 1.7960641450567668e-11 0.0 0.01 0.0 1.7960641450673547e-11 0.0 0.010000126452398493 0.009999837003985242 0.0 7.239894090830192e-13 0.0 0.01 0.0 7.239894090797104e-13 0.0 0.010000106451699773 0.01000006640109787 0.0 5.3948711957485e-08 0.0 0.01 0.0 5.3948711957485e-08 0.0 0.010000899071671409 0.010000084951332366 0.0 4.081658984433391e-08 0.0 0.01 0.0 4.081658984444233e-08 0.0 0.010000728579866407 0.01000010205167121 0.0 2.696403533948826e-08 0.0 0.01 0.0 2.696403533948826e-08 0.0 0.010000580600669698 0.010000101551581988 0.0 1.5297744073773135e-08 0.0 0.01 0.0 1.5297744073827346e-08 0.0 0.01000045023043939 0.01000008300104161 0.0 7.414973755229953e-09 0.0 0.01 0.0 7.414973755121533e-09 0.0 0.010000339367282987 0.010000055650465932 0.0 3.0403431810729128e-09 0.0 0.01 0.0 3.040343181100018e-09 0.0 0.010000251959523608 0.010000027850116498 0.0 1.0096981353769317e-09 0.0 0.01 0.0 1.0096981353769317e-09 0.0 0.010000188955355638 0.010000003900002292 0.0 2.4806487635583544e-10 0.0 0.01 0.0 2.480648763524473e-10 0.0 0.010000146503219426 0.009999989000018148 0.0 3.310083886183529e-11 0.0 0.01 0.0 3.310083886225881e-11 0.0 0.01000012255225282 0.010000210957235472 0.0 6.111825787233783e-08 0.0 0.01 0.0 6.111825787222941e-08 0.0 0.01000088681851328 0.010000186505627067 0.0 5.225596729310257e-08 0.0 0.01 0.0 5.225596729299415e-08 0.0 0.010000722228644112 0.010000192405784664 0.0 3.93140376175969e-08 0.0 0.01 0.0 3.93140376175969e-08 0.0 0.010000582551132717 0.01000020605647292 0.0 2.6358851880261408e-08 0.0 0.01 0.0 2.6358851880261408e-08 0.0 0.010000462932248157 0.010000210956711485 0.0 1.554957793428735e-08 0.0 0.01 0.0 1.554957793450419e-08 0.0 0.01000036376988458 0.010000203106196962 0.0 7.879586269706959e-09 0.0 0.01 0.0 7.879586269706959e-09 0.0 0.010000283212040214 0.010000189455385496 0.0 3.299511287238252e-09 0.0 0.01 0.0 3.299511287238252e-09 0.0 0.010000221707374543 0.010000175304609813 0.0 1.0537606247654208e-09 0.0 0.01 0.0 1.0537606247654208e-09 0.0 0.010000177254712939 0.01000016405403698 0.0 1.9664855033523117e-10 0.0 0.01 0.0 1.9664855038944128e-10 0.0 0.010000150403393119 0.010000425827584947 0.0 5.080744787649277e-08 0.0 0.01 0.0 5.080744787627593e-08 0.0 0.010000880966788795 0.01000037112116205 0.0 5.7938654695341776e-08 0.0 0.01 0.0 5.793865469555862e-08 0.0 0.010000723228954863 0.010000327666467175 0.0 4.920296943901163e-08 0.0 0.01 0.0 4.920296943879479e-08 0.0 0.010000590852724985 0.010000311514754065 0.0 3.637618318456243e-08 0.0 0.01 0.0 3.637618318456243e-08 0.0 0.010000480034761243 0.01000031836528853 0.0 2.390553993170466e-08 0.0 0.01 0.0 2.390553993170466e-08 0.0 0.010000389172802847 0.010000328616225667 0.0 1.3683889367108182e-08 0.0 0.01 0.0 1.368388936624082e-08 0.0 0.010000313964813549 0.010000334966836097 0.0 6.547062183300152e-09 0.0 0.01 0.0 6.547062183300152e-09 0.0 0.01000025635986415 0.010000334466780328 0.0 2.413801357631449e-09 0.0 0.01 0.0 2.413801357658554e-09 0.0 0.01000021340683205 0.010000333016634316 0.0 5.13603060593921e-10 0.0 0.01 0.0 5.136030605871447e-10 0.0 0.010000187005245555 0.010000562047381055 0.0 3.5594052847897077e-10 0.0 0.01 0.0 3.5594052848066484e-10 0.0 0.010000887818219202 0.010000572799453392 0.0 4.0193771869406064e-08 0.0 0.01 0.0 4.01937718685387e-08 0.0 0.010000738832115132 0.010000545444988716 0.0 4.936313707099016e-08 0.0 0.01 0.0 4.93631370701228e-08 0.0 0.01000060940606726 0.010000501037922603 0.0 4.2373044764794365e-08 0.0 0.01 0.0 4.2373044764794365e-08 0.0 0.010000503438284233 0.010000467782956336 0.0 3.003012878644018e-08 0.0 0.01 0.0 3.00301287860065e-08 0.0 0.010000417026220431 0.01000045558118097 0.0 1.820987434301459e-08 0.0 0.01 0.0 1.820987434323143e-08 0.0 0.010000349118331423 0.010000457531411199 0.0 9.261186574354915e-09 0.0 0.01 0.0 9.261186574354915e-09 0.0 0.010000294463018623 0.010000463432215417 0.0 3.6490125568248207e-09 0.0 0.01 0.0 3.6490125568248207e-09 0.0 0.010000254909748508 0.010000467782821168 0.0 8.221871159632267e-10 0.0 0.01 0.0 8.22187115970003e-10 0.0 0.010000228507832238 0.010000599653982612 0.0 -1.811094119596665e-08 0.0 0.01 0.0 -1.811094119574981e-08 0.0 0.01000077694058531 0.01000068266996147 0.0 2.0348238518198142e-08 0.0 0.01 0.0 2.034823851733078e-08 0.0 0.010000648013044783 0.010000710025779347 0.0 3.327256414462597e-08 0.0 0.01 0.0 3.327256414440913e-08 0.0 0.010000542544315974 0.010000699273470815 0.0 2.9459407904428025e-08 0.0 0.01 0.0 2.9459407904211185e-08 0.0 0.01000045463113169 0.01000067731886502 0.0 1.9514395998318328e-08 0.0 0.01 0.0 1.9514395998318328e-08 0.0 0.010000385772379012 0.010000665116366778 0.0 1.0230594565680939e-08 0.0 0.01 0.0 1.0230594565626729e-08 0.0 0.010000333016649968 0.010000662165766224 0.0 4.087960140170444e-09 0.0 0.01 0.0 4.087960140156891e-09 0.0 0.010000294463008264 0.010000662165763848 0.0 9.318417730895686e-10 0.0 0.01 0.0 9.318417730861805e-10 0.0 0.010000271011016776 0.010000684170217093 0.0 -8.232918156676067e-09 0.0 0.01 0.0 -8.232918156676067e-09 0.0 0.010000613356436466 0.010000792594231492 0.0 8.411389323069712e-09 0.0 0.01 0.0 8.411389323178132e-09 0.0 0.010000515189820956 0.010000855109686624 0.0 1.072315912459135e-08 0.0 0.01 0.0 1.072315912448293e-08 0.0 0.010000433628220631 0.010000896120447274 0.0 6.77548924393279e-09 0.0 0.01 0.0 6.775489243987e-09 0.0 0.010000373570939133 0.010000923978045763 0.0 2.851236739690301e-09 0.0 0.01 0.0 2.851236739690301e-09 0.0 0.010000333516685486 0.010000942983365938 0.0 6.566960631982792e-10 0.0 0.01 0.0 6.566960631982792e-10 0.0 0.010000310564467008 0.010000670967563774 0.0 -1.6372161809217675e-08 0.0 0.01 0.0 -1.6372161809217675e-08 0.0 0.01000050588842607 0.010000788643287581 0.0 -4.936216849496782e-09 0.0 0.01 0.0 -4.936216849523887e-09 0.0 0.010000418976333357 0.010000875614991996 0.0 -1.095852294413053e-09 0.0 0.01 0.0 -1.095852294413053e-09 0.0 0.010000370120547549 0.010000926378710733 0.0 -1.497865212092065e-10 0.0 0.01 0.0 -1.497865212092065e-10 0.0 0.010000344767828913 0.009999999500000037 0.0 8.016116798366904e-18 0.0 0.01 0.0 8.016116798366904e-18 0.0 0.01 0.009999999500000037 0.0 2.7045205994490167e-12 0.0 0.01 0.0 2.7045205994490167e-12 0.0 0.01 0.009999999500000037 0.0 2.799112899429746e-12 0.0 0.01 0.0 2.799112899429746e-12 0.0 0.01 0.009999999500000037 0.0 -7.017256598570396e-13 0.0 0.01 0.0 -7.017256598570396e-13 0.0 0.01 0.009999999500000037 0.0 -9.794858598004526e-13 0.0 0.01 0.0 -9.794858598004526e-13 0.0 0.01 0.009999999500000037 0.0 2.092178599573767e-11 0.0 0.01 0.0 2.092178599573767e-11 0.0 0.01 0.009999999500000037 0.0 2.208542599550061e-11 0.0 0.01 0.0 2.208542599550061e-11 0.0 0.01 0.009999999500000037 0.0 -1.2188648997516845e-11 0.0 0.01 0.0 -1.2188648997516845e-11 0.0 0.01 0.009999999500000037 0.0 -7.725620098426085e-19 0.0 0.01 0.0 -7.725620098426085e-19 0.0 0.01 0.009999999500000037 0.0 5.4316490988934275e-12 0.0 0.01 0.0 5.4316490988934275e-12 0.0 0.01 0.009999999500000037 0.0 3.5058248992857696e-12 0.0 0.01 0.0 3.5058248992857696e-12 0.0 0.01 0.009999999500000037 0.0 -6.2981358987169e-14 0.0 0.01 0.0 -6.2981358987169e-14 0.0 0.01 0.009999999500000037 0.0 2.286824299534113e-13 0.0 0.01 0.0 2.286824299534113e-13 0.0 0.01 0.009999999500000037 0.0 1.1641815997628251e-11 0.0 0.01 0.0 1.1641815997628251e-11 0.0 0.01 0.009999999500000037 0.0 2.6751957994549905e-11 0.0 0.01 0.0 2.6751957994549905e-11 0.0 0.01 0.009999999500000037 0.0 1.7146080996506887e-11 0.0 0.01 0.0 1.7146080996506887e-11 0.0 0.01 0.00999999900000015 0.0 -1.3687660497211457e-17 0.0 0.01 0.0 -1.3687660497211457e-17 0.0 0.01 0.00999999900000015 0.0 1.4155000497116248e-12 0.0 0.01 0.0 1.4155000497116248e-12 0.0 0.01 0.00999999900000015 0.0 -4.597845949063295e-13 0.0 0.01 0.0 -4.597845949063295e-13 0.0 0.01 0.00999999900000015 0.0 -1.0844391497790706e-12 0.0 0.01 0.0 -1.0844391497790706e-12 0.0 0.01 0.00999999900000015 0.0 -1.5293555496884295e-12 0.0 0.01 0.0 -1.5293555496884295e-12 0.0 0.01 0.00999999900000015 0.0 -6.834630498607603e-12 0.0 0.01 0.0 -6.834630498607603e-12 0.0 0.01 0.00999999900000015 0.0 4.503371699082542e-12 0.0 0.01 0.0 4.503371699082542e-12 0.0 0.01 0.00999999900000015 0.0 1.6819408496573437e-11 0.0 0.01 0.0 1.6819408496573437e-11 0.0 0.01 0.009999998500000338 0.0 -2.3400548328566013e-18 0.0 0.01 0.0 -2.3400548328566013e-18 0.0 0.01 0.009999998500000338 0.0 1.7436702996447677e-12 0.0 0.01 0.0 1.7436702996447677e-12 0.0 0.01 0.009999998500000338 0.0 3.3546096659832427e-13 0.0 0.01 0.0 3.3546096659832427e-13 0.0 0.01 0.009999998500000338 0.0 6.070100998763358e-13 0.0 0.01 0.0 6.070100998763358e-13 0.0 0.01 0.009999998500000338 0.0 -2.8031029660955996e-12 0.0 0.01 0.0 -2.8031029660955996e-12 0.0 0.01 0.009999998500000338 0.0 -2.229401566212478e-12 0.0 0.01 0.0 -2.229401566212478e-12 0.0 0.01 0.009999998500000338 0.0 4.8959016656692394e-12 0.0 0.01 0.0 4.8959016656692394e-12 0.0 0.01 0.009999998500000338 0.0 -4.486313999086017e-12 0.0 0.01 0.0 -4.486313999086017e-12 0.0 0.01 0.009999997500000938 0.0 -4.426974600708631e-18 0.0 0.01 0.0 -4.426974600708631e-18 0.0 0.01 0.009999997500000938 0.0 8.054518401289296e-13 0.0 0.01 0.0 8.054518401289296e-13 0.0 0.01 0.009999997500000938 0.0 9.8568810015778e-13 0.0 0.01 0.0 9.8568810015778e-13 0.0 0.01 0.009999997500000938 0.0 7.336055001174291e-13 0.0 0.01 0.0 7.336055001174291e-13 0.0 0.01 0.009999997500000938 0.0 8.541808201367295e-13 0.0 0.01 0.0 8.541808201367295e-13 0.0 0.01 0.009999997500000938 0.0 -2.4434436003911244e-12 0.0 0.01 0.0 -2.4434436003911244e-12 0.0 0.01 0.009999997500000938 0.0 4.450035800712322e-12 0.0 0.01 0.0 4.450035800712322e-12 0.0 0.01 0.0099999980000006 0.0 2.7911389994313703e-12 0.0 0.01 0.0 2.7911389994313703e-12 0.0 0.01 0.009999996500001837 0.0 -1.0977041286330414e-18 0.0 0.01 0.0 -1.0977041286330414e-18 0.0 0.01 0.009999996500001837 0.0 1.1255188857774599e-13 0.0 0.01 0.0 1.1255188857774599e-13 0.0 0.01 0.009999996500001837 0.0 2.5827812858592544e-14 0.0 0.01 0.0 2.5827812858592544e-14 0.0 0.01 0.009999997000001351 0.0 2.395992833571586e-12 0.0 0.01 0.0 2.395992833571586e-12 0.0 0.01 0.009999997000001351 0.0 2.3484071669001877e-12 0.0 0.01 0.0 2.3484071669001877e-12 0.0 0.01 0.009999997000001351 0.0 8.848361834213198e-13 0.0 0.01 0.0 8.848361834213198e-13 0.0 0.01 0.009999997000001351 0.0 3.567423833688071e-12 0.0 0.01 0.0 3.567423833688071e-12 0.0 0.01 0.009999997000001351 0.0 6.257979500622282e-12 0.0 0.01 0.0 6.257979500622282e-12 0.0 0.01 0.009999995500003037 0.0 -4.44139611110393e-19 0.0 0.01 0.0 -4.44139611110393e-19 0.0 0.01 0.009999995500003037 0.0 1.1997324444425045e-13 0.0 0.01 0.0 1.1997324444425045e-13 0.0 0.01 0.009999995500003037 0.0 -5.824267777768361e-13 0.0 0.01 0.0 -5.824267777768361e-13 0.0 0.01 0.009999995500003037 0.0 6.638482555544821e-13 0.0 0.01 0.0 6.638482555544821e-13 0.0 0.01 0.009999995500003037 0.0 2.2925958888851824e-12 0.0 0.01 0.0 2.2925958888851824e-12 0.0 0.01 0.0099999960000024 0.0 -2.9592922500699775e-13 0.0 0.01 0.0 -2.9592922500699775e-13 0.0 0.01 0.0099999960000024 0.0 4.981710625117802e-12 0.0 0.01 0.0 4.981710625117802e-12 0.0 0.01 0.0099999960000024 0.0 3.5536536250840323e-12 0.0 0.01 0.0 3.5536536250840323e-12 0.0 0.01 0.009999993500006337 0.0 -1.760467307579982e-18 0.0 0.01 0.0 -1.760467307579982e-18 0.0 0.01 0.009999993500006337 0.0 8.58593769175987e-13 0.0 0.01 0.0 8.58593769175987e-13 0.0 0.01 0.009999993500006337 0.0 -4.067251461278953e-13 0.0 0.01 0.0 -4.067251461278953e-13 0.0 0.01 0.0099999940000054 0.0 1.6922736668349431e-12 0.0 0.01 0.0 1.6922736668349431e-12 0.0 0.01 0.0099999940000054 0.0 3.0538035836369977e-12 0.0 0.01 0.0 3.0538035836369977e-12 0.0 0.01 0.0099999940000054 0.0 1.6803716668337597e-13 0.0 0.01 0.0 1.6803716668337597e-13 0.0 0.01 0.0099999940000054 0.0 -1.249933250124291e-12 0.0 0.01 0.0 -1.249933250124291e-12 0.0 0.01 0.0099999940000054 0.0 2.8600954259819245e-18 0.0 0.01 0.0 2.8600954259819245e-18 0.0 0.01 0.009999991500010838 0.0 -3.0926913529729442e-18 0.0 0.01 0.0 -3.0926913529729442e-18 0.0 0.01 0.009999991500010838 0.0 4.1493456471014454e-13 0.0 0.01 0.0 4.1493456471014454e-13 0.0 0.01 0.009999991500010838 0.0 -4.69044194122465e-13 0.0 0.01 0.0 -4.69044194122465e-13 0.0 0.01 0.009999991500010838 0.0 -3.5325379412127566e-13 0.0 0.01 0.0 -3.5325379412127566e-13 0.0 0.01 0.009999991500010838 0.0 7.822269411845055e-13 0.0 0.01 0.0 7.822269411845055e-13 0.0 0.01 0.009999992000009601 0.0 -2.9076164105475093e-18 0.0 0.01 0.0 -2.9076164105475093e-18 0.0 0.01 0.009999992000009601 0.0 6.367510625150573e-13 0.0 0.01 0.0 6.367510625150573e-13 0.0 0.01 0.009999992000009601 0.0 5.4994774376300466e-14 0.0 0.01 0.0 5.4994774376300466e-14 0.0 0.01 0.009999989500016538 0.0 2.464326238020101e-18 0.0 0.01 0.0 2.464326238020101e-18 0.0 0.01 0.009999989500016538 0.0 4.149271380825871e-13 0.0 0.01 0.0 4.149271380825871e-13 0.0 0.01 0.009999989500016538 0.0 2.1564045713628231e-13 0.0 0.01 0.0 2.1564045713628231e-13 0.0 0.01 0.009999989500016538 0.0 1.3427406190066792e-12 0.0 0.01 0.0 1.3427406190066792e-12 0.0 0.01 0.009999989500016538 0.0 -1.720146761852315e-13 0.0 0.01 0.0 -1.720146761852315e-13 0.0 0.01 0.009999989500016538 0.0 -3.792361926681115e-18 0.0 0.01 0.0 -3.792361926681115e-18 0.0 0.01 0.009999989500016538 0.0 3.563119952272314e-13 0.0 0.01 0.0 3.563119952272314e-13 0.0 0.01 0.009999989500016538 0.0 -3.835513109133245e-18 0.0 0.01 0.0 -3.835513109133245e-18 0.0 0.01 0.009999984500036039 0.0 2.9879175162216022e-18 0.0 0.01 0.0 2.9879175162216022e-18 0.0 0.01 0.009999984500036039 0.0 2.1369738387758843e-13 0.0 0.01 0.0 2.1369738387758843e-13 0.0 0.01 0.009999984500036039 0.0 -5.306939355003126e-13 0.0 0.01 0.0 -5.306939355003126e-13 0.0 0.01 0.009999984500036039 0.0 -2.6352630323397087e-13 0.0 0.01 0.0 -2.6352630323397087e-13 0.0 0.01 0.009999984500036039 0.0 -6.078717419543166e-13 0.0 0.01 0.0 -6.078717419543166e-13 0.0 0.01 0.009999984500036039 0.0 -3.738715057372051e-18 0.0 0.01 0.0 -3.738715057372051e-18 0.0 0.01 0.009999984500036039 0.0 -4.219907086095147e-13 0.0 0.01 0.0 -4.219907086095147e-13 0.0 0.010000000500000038 0.009999984500036039 0.0 7.444293249711706e-18 0.0 0.01 0.0 7.444293249711706e-18 0.0 0.010000000500000038 0.00999997900006615 0.0 -2.1019945476459943e-18 0.0 0.01 0.0 -2.1019945476459943e-18 0.0 0.01 0.00999997900006615 0.0 -2.307496523839105e-14 0.0 0.01 0.0 -2.307496523839105e-14 0.0 0.01 0.00999997900006615 0.0 -4.77995214291842e-13 0.0 0.01 0.0 -4.77995214291842e-13 0.0 0.01 0.00999997900006615 0.0 7.465169285809986e-13 0.0 0.01 0.0 7.465169285809986e-13 0.0 0.01 0.00999997900006615 0.0 5.244302355279201e-13 0.0 0.01 0.0 5.244302355279201e-13 0.0 0.010000000500000038 0.00999997900006615 0.0 -2.609868474821336e-18 0.0 0.01 0.0 -2.609868474821336e-18 0.0 0.010000000500000038 0.00999997900006615 0.0 3.519047729294531e-18 0.0 0.01 0.0 3.519047729294531e-18 0.0 0.010000000500000038 0.009999979500063037 0.0 -2.7468056097958682e-18 0.0 0.01 0.0 -2.7468056097958682e-18 0.0 0.010000000500000038 0.009999971500121838 0.0 7.579180175587587e-19 0.0 0.01 0.0 7.579180175587587e-19 0.0 0.01 0.009999971500121838 0.0 4.7255475439525435e-15 0.0 0.01 0.0 4.7255475439525435e-15 0.0 0.01 0.009999971500121838 0.0 4.1185519301306323e-13 0.0 0.01 0.0 4.1185519301306323e-13 0.0 0.010000000500000038 0.0099999720001176 0.0 2.9665765628438467e-18 0.0 0.01 0.0 2.9665765628438467e-18 0.0 0.010000000500000038 0.0099999720001176 0.0 2.5967601882848026e-18 0.0 0.01 0.0 2.5967601882848026e-18 0.0 0.010000000500000038 0.0099999720001176 0.0 -5.061667270565203e-13 0.0 0.01 0.0 -5.061667270565203e-13 0.0 0.010000000500000038 0.0099999720001176 0.0 -1.4713658409913513e-17 0.0 0.01 0.0 -1.4713658409913513e-17 0.0 0.01000000100000015 0.0099999720001176 0.0 -6.35787125081071e-18 0.0 0.01 0.0 -6.35787125081071e-18 0.0 0.01000000100000015 0.009999961500222337 0.0 3.513023765416411e-19 0.0 0.01 0.0 3.513023765416411e-19 0.0 0.010000000500000038 0.009999961500222337 0.0 -2.5434566656500337e-13 0.0 0.01 0.0 -2.5434566656500337e-13 0.0 0.010000000500000038 0.009999961500222337 0.0 -2.995275790807875e-14 0.0 0.01 0.0 -2.995275790807875e-14 0.0 0.010000000500000038 0.009999961500222337 0.0 -2.9907473290429626e-13 0.0 0.01 0.0 -2.9907473290429626e-13 0.0 0.010000000500000038 0.009999961500222337 0.0 -2.728784196938616e-13 0.0 0.01 0.0 -2.728784196938616e-13 0.0 0.01000000100000015 0.009999961500222337 0.0 -6.801180743261409e-18 0.0 0.01 0.0 -6.801180743261409e-18 0.0 0.01000000100000015 0.009999962000216599 0.0 -1.3072658947069827e-17 0.0 0.01 0.0 -1.3072658947069827e-17 0.0 0.01000000100000015 0.009999962000216599 0.0 1.1678231858314747e-13 0.0 0.01 0.0 1.1678231858314747e-13 0.0 0.010000001450000314 0.009999949000390147 0.0 -2.9686736436036434e-18 0.0 0.01 0.0 -2.9686736436036434e-18 0.0 0.010000000500000038 0.009999949000390147 0.0 -2.5975680182024594e-18 0.0 0.01 0.0 -2.5975680182024594e-18 0.0 0.01000000100000015 0.009999949000390147 0.0 -2.939319855184986e-18 0.0 0.01 0.0 -2.939319855184986e-18 0.0 0.01000000100000015 0.009999949000390147 0.0 2.4831660262798507e-18 0.0 0.01 0.0 2.4831660262798507e-18 0.0 0.01000000100000015 0.009999949000390147 0.0 6.912688672080691e-14 0.0 0.01 0.0 6.912688672080691e-14 0.0 0.01000000100000015 0.009999949000390147 0.0 3.553618047691393e-13 0.0 0.01 0.0 3.553618047691393e-13 0.0 0.01000000100000015 0.009999949000390147 0.0 -1.3911100649059826e-17 0.0 0.01 0.0 -1.3911100649059826e-17 0.0 0.01000000195000057 0.009999949000390147 0.0 -1.451473470748431e-17 0.0 0.01 0.0 -1.451473470748431e-17 0.0 0.01000000195000057 0.009999933000673342 0.0 1.4718456618858887e-18 0.0 0.01 0.0 1.4718456618858887e-18 0.0 0.01000000100000015 0.009999933000673342 0.0 -1.208477988491114e-13 0.0 0.01 0.0 -1.208477988491114e-13 0.0 0.01000000100000015 0.009999933000673342 0.0 1.0895999618977972e-13 0.0 0.01 0.0 1.0895999618977972e-13 0.0 0.01000000100000015 0.00999993250068343 0.0 6.9446471907834e-14 0.0 0.01 0.0 6.9446471907834e-14 0.0 0.01000000100000015 0.00999993200069359 0.0 -4.7566154672355304e-18 0.0 0.01 0.0 -4.7566154672355304e-18 0.0 0.010000001450000314 0.00999993200069359 0.0 -8.445976321709136e-18 0.0 0.01 0.0 -8.445976321709136e-18 0.0 0.01000000195000057 0.00999993200069359 0.0 -3.3495218146984198e-18 0.0 0.01 0.0 -3.3495218146984198e-18 0.0 0.01000000195000057 0.00999993250068343 0.0 5.193988709228378e-18 0.0 0.01 0.0 5.193988709228378e-18 0.0 0.010000002950001304 0.009999911001188133 0.0 3.424747262769224e-19 0.0 0.01 0.0 3.424747262769224e-19 0.0 0.010000001450000314 0.009999911001188133 0.0 -1.5488803240954337e-13 0.0 0.01 0.0 -1.5488803240954337e-13 0.0 0.010000001450000314 0.009999911001188133 0.0 6.640345904829755e-14 0.0 0.01 0.0 6.640345904829755e-14 0.0 0.010000001450000314 0.009999911001188133 0.0 7.013522920917884e-18 0.0 0.01 0.0 7.013522920917884e-18 0.0 0.01000000195000057 0.00999991150117482 0.0 7.016881903375063e-18 0.0 0.01 0.0 7.016881903375063e-18 0.0 0.01000000195000057 0.009999911001188133 0.0 -1.6134831623514395e-13 0.0 0.01 0.0 -1.6134831623514395e-13 0.0 0.01000000195000057 0.009999911001188133 0.0 2.9789827488162026e-17 0.0 0.01 0.0 2.9789827488162026e-17 0.0 0.010000002950001304 0.00999991050120152 0.0 1.6327337357282536e-17 0.0 0.01 0.0 1.6327337357282536e-17 0.0 0.010000003900002281 0.009999884502000999 0.0 -6.316620644271354e-19 0.0 0.01 0.0 -6.316620644271354e-19 0.0 0.01000000195000057 0.009999884502000999 0.0 3.1336972754265238e-18 0.0 0.01 0.0 3.1336972754265238e-18 0.0 0.01000000195000057 0.009999884502000999 0.0 3.868847553959281e-18 0.0 0.01 0.0 3.868847553959281e-18 0.0 0.01000000195000057 0.009999884502000999 0.0 -5.146547841578276e-18 0.0 0.01 0.0 -5.146547841578276e-18 0.0 0.01000000195000057 0.009999883502035798 0.0 1.1999371221222465e-17 0.0 0.01 0.0 1.1999371221222465e-17 0.0 0.0100000024500009 0.009999883502035798 0.0 1.3693366692489848e-17 0.0 0.01 0.0 1.3693366692489848e-17 0.0 0.010000003400001733 0.00999988300205331 0.0 -5.079541325820143e-18 0.0 0.01 0.0 -5.079541325820143e-18 0.0 0.010000003900002281 0.009999882502070897 0.0 -2.3702290269194398e-17 0.0 0.01 0.0 -2.3702290269194398e-17 0.0 0.010000005350004294 0.00999984850344275 0.0 1.334103769532565e-18 0.0 0.01 0.0 1.334103769532565e-18 0.0 0.0100000024500009 0.00999984850344275 0.0 5.6836815083471303e-14 0.0 0.01 0.0 5.6836815083471303e-14 0.0 0.010000002950001304 0.00999984850344275 0.0 -8.182091548882151e-14 0.0 0.01 0.0 -8.182091548882151e-14 0.0 0.010000003400001733 0.00999984850344275 0.0 1.2675361917717003e-17 0.0 0.01 0.0 1.2675361917717003e-17 0.0 0.010000003400001733 0.009999848003465511 0.0 6.237968456166322e-18 0.0 0.01 0.0 6.237968456166322e-18 0.0 0.010000003400001733 0.00999984750348835 0.0 -3.293415936973442e-17 0.0 0.01 0.0 -3.293415936973442e-17 0.0 0.010000004400002904 0.009999846503534247 0.0 -6.399671283815435e-17 0.0 0.01 0.0 -6.399671283815435e-17 0.0 0.010000005350004294 0.009999845503580445 0.0 -4.5915673586107e-17 0.0 0.01 0.0 -4.5915673586107e-17 0.0 0.010000006850007037 0.009999804005762211 0.0 1.734357736125276e-19 0.0 0.01 0.0 1.734357736125276e-19 0.0 0.010000003400001733 0.009999804005762211 0.0 1.2423220594555515e-17 0.0 0.01 0.0 1.2423220594555515e-17 0.0 0.010000003400001733 0.009999804005762211 0.0 1.9273485136665595e-17 0.0 0.01 0.0 1.9273485136665595e-17 0.0 0.010000003900002281 0.009999803005821158 0.0 2.0083714790097765e-17 0.0 0.01 0.0 2.0083714790097765e-17 0.0 0.010000004900003601 0.009999802505850744 0.0 2.1850342746095106e-17 0.0 0.01 0.0 2.1850342746095106e-17 0.0 0.010000004900003601 0.009999802005880406 0.0 -6.372694823776807e-18 0.0 0.01 0.0 -6.372694823776807e-18 0.0 0.010000005850005133 0.009999801005939953 0.0 -1.4114666181802003e-16 0.0 0.01 0.0 -1.4114666181802003e-16 0.0 0.010000006850007037 0.009999799506029836 0.0 -6.207715963558426e-17 0.0 0.01 0.0 -6.207715963558426e-17 0.0 0.010000009300012973 0.00999974600967699 0.0 5.419029504149939e-19 0.0 0.01 0.0 5.419029504149939e-19 0.0 0.010000005350004294 0.00999974600967699 0.0 1.1308544221692521e-17 0.0 0.01 0.0 1.1308544221692521e-17 0.0 0.010000005350004294 0.009999745509715125 0.0 8.221820731570307e-18 0.0 0.01 0.0 8.221820731570307e-18 0.0 0.010000005350004294 0.009999745509715125 0.0 -2.6528775538036548e-17 0.0 0.01 0.0 -2.6528775538036548e-17 0.0 0.010000006350006049 0.00999974450979162 0.0 -2.7710455845302845e-17 0.0 0.01 0.0 -2.7710455845302845e-17 0.0 0.010000007300007994 0.009999744009829982 0.0 -1.2340712483311321e-16 0.0 0.01 0.0 -1.2340712483311321e-16 0.0 0.010000008300010334 0.00999974200998417 0.0 -3.345160909498103e-16 0.0 0.01 0.0 -3.345160909498103e-16 0.0 0.010000009300012973 0.009999739510178594 0.0 -2.81787964718688e-16 0.0 0.01 0.0 -2.81787964718688e-16 0.0 0.010000011250018984 0.009999674515891675 0.0 -2.7396249991926238e-19 0.0 0.01 0.0 -2.7396249991926238e-19 0.0 0.010000007800009127 0.009999674515891675 0.0 -6.524392323569618e-14 0.0 0.01 0.0 -6.524392323569618e-14 0.0 0.010000008300010334 0.009999674015940534 0.0 2.0839620457520224e-17 0.0 0.01 0.0 2.0839620457520224e-17 0.0 0.010000008800011615 0.009999673016038477 0.0 -3.355230805906168e-17 0.0 0.01 0.0 -3.355230805906168e-17 0.0 0.010000008800011615 0.009999671516185952 0.0 -4.745304522637533e-17 0.0 0.01 0.0 -4.745304522637533e-17 0.0 0.01000001025001576 0.009999670016334101 0.0 -2.0970370288682027e-16 0.0 0.01 0.0 -2.0970370288682027e-16 0.0 0.010000010750017335 0.009999668016532685 0.0 -5.510304499253269e-16 0.0 0.01 0.0 -5.510304499253269e-16 0.0 0.010000013200026137 0.009999665516782602 0.0 -9.036052441649227e-16 0.0 0.01 0.0 -9.036052441649227e-16 0.0 0.010000016100038882 0.0099995840259566 0.0 2.0365859034467897e-18 0.0 0.01 0.0 2.0365859034467897e-18 0.0 0.010000010750017335 0.0099995840259566 0.0 1.6243459609154735e-17 0.0 0.01 0.0 1.6243459609154735e-17 0.0 0.010000010750017335 0.0099995840259566 0.0 -1.5931422847282982e-17 0.0 0.01 0.0 -1.5931422847282982e-17 0.0 0.010000011700020532 0.009999582526144118 0.0 -5.149405058467021e-17 0.0 0.01 0.0 -5.149405058467021e-17 0.0 0.010000011700020532 0.009999581526269506 0.0 -2.557653931484234e-16 0.0 0.01 0.0 -2.557653931484234e-16 0.0 0.010000013650027948 0.009999579026584285 0.0 -5.358791536922498e-16 0.0 0.01 0.0 -5.358791536922498e-16 0.0 0.010000016100038882 0.009999575527028124 0.0 -1.0477446008489547e-15 0.0 0.01 0.0 -1.0477446008489547e-15 0.0 0.010000018550051615 0.009999573027347403 0.0 -1.8971768335046017e-15 0.0 0.01 0.0 -1.8971768335046017e-15 0.0 0.01000002195007227 0.009999475041340133 0.0 2.9419250346381546e-18 0.0 0.01 0.0 2.9419250346381546e-18 0.0 0.010000015150034429 0.009999475041340133 0.0 2.8932226860143335e-18 0.0 0.01 0.0 2.8932226860143335e-18 0.0 0.010000015150034429 0.009999474041497763 0.0 -2.035988079205522e-17 0.0 0.01 0.0 -2.035988079205522e-17 0.0 0.010000016100038882 0.009999473041655691 0.0 -1.330165053055043e-16 0.0 0.01 0.0 -1.330165053055043e-16 0.0 0.01000001805004887 0.00999947104197245 0.0 -4.1923905148071347e-16 0.0 0.01 0.0 -4.1923905148071347e-16 0.0 0.01000002000006 0.009999468542370084 0.0 -1.3882407528429763e-15 0.0 0.01 0.0 -1.3882407528429763e-15 0.0 0.010000022950079004 0.00999946404309055 0.0 -2.870911628866621e-15 0.0 0.01 0.0 -2.870911628866621e-15 0.0 0.01000002635010415 0.009999460043736067 0.0 -5.928444091929188e-15 0.0 0.01 0.0 -5.928444091929188e-15 0.0 0.010000031250146486 0.009999346064150408 0.0 -2.668730263278373e-19 0.0 0.01 0.0 -2.668730263278373e-19 0.0 0.01000002000006 0.009999346064150408 0.0 -4.246369012968442e-18 0.0 0.01 0.0 -4.246369012968442e-18 0.0 0.01000002100006615 0.00999934556424853 0.0 -9.367992059510049e-17 0.0 0.01 0.0 -9.367992059510049e-17 0.0 0.010000022950079004 0.009999343564641765 0.0 -3.4683561729601667e-16 0.0 0.01 0.0 -3.4683561729601667e-16 0.0 0.010000025400096774 0.009999341065134995 0.0 -1.166137416743823e-15 0.0 0.01 0.0 -1.166137416743823e-15 0.0 0.010000028800124417 0.009999337065928066 0.0 -3.472407606553748e-15 0.0 0.01 0.0 -3.472407606553748e-15 0.0 0.010000032700160394 0.009999332066926152 0.0 -8.530650715638999e-15 0.0 0.01 0.0 -8.530650715638999e-15 0.0 0.010000037100206464 0.009999324568437334 0.0 -1.6140686269863646e-14 0.0 0.01 0.0 -1.6140686269837797e-14 0.0 0.01000004345028319 0.009999202595388258 0.0 8.586089326522938e-19 0.0 0.01 0.0 8.586089326522938e-19 0.0 0.010000028300120135 0.009999202595388258 0.0 -7.530687124722598e-17 0.0 0.01 0.0 -7.530687124722598e-17 0.0 0.010000028300120135 0.009999202095507899 0.0 -2.561734189602322e-16 0.0 0.01 0.0 -2.561734189602322e-16 0.0 0.01000003025013726 0.009999199596107214 0.0 -8.997808373731907e-16 0.0 0.01 0.0 -8.997808373731907e-16 0.0 0.010000034650180095 0.009999196596828871 0.0 -3.677354011094035e-15 0.0 0.01 0.0 -3.677354011094035e-15 0.0 0.010000039550234633 0.009999191598037629 0.0 -9.849954026024533e-15 0.0 0.01 0.0 -9.849954026024533e-15 0.0 0.010000046400322947 0.009999185099620223 0.0 -2.2276162901136137e-14 0.0 0.01 0.0 -2.2276162901136137e-14 0.0 0.010000054200440653 0.009999176101832418 0.0 -4.062449177860267e-14 0.0 0.01 0.0 -4.062449177860267e-14 0.0 0.010000062500585946 0.009999058632942478 0.0 -2.2576134668466666e-18 0.0 0.01 0.0 -2.2576134668466666e-18 0.0 0.010000036600200936 0.009999058632942478 0.0 3.134450024768518e-17 0.0 0.01 0.0 3.134450024768518e-17 0.0 0.010000037600212066 0.00999905713336639 0.0 -6.8353057036386385e-16 0.0 0.01 0.0 -6.8353057036386385e-16 0.0 0.010000041000252152 0.009999054134216239 0.0 -2.665969842320598e-15 0.0 0.01 0.0 -2.665969842320598e-15 0.0 0.01000004685032924 0.009999051135068786 0.0 -9.152429777478162e-15 0.0 0.01 0.0 -9.152429777478162e-15 0.0 0.010000054700448817 0.009999044137068562 0.0 -2.4996856196123397e-14 0.0 0.01 0.0 -2.4996856196123397e-14 0.0 0.010000064450623078 0.009999035139661293 0.0 -5.256699657418417e-14 0.0 0.01 0.0 -5.256699657418417e-14 0.0 0.01000007615086984 0.009999023143156044 0.0 -9.067009288021626e-14 0.0 0.01 0.0 -9.067009288021626e-14 0.0 0.010000089351197535 0.009998933670583016 0.0 -2.5020209147459347e-19 0.0 0.01 0.0 -2.5020209147459347e-19 0.0 0.010000047350336307 0.009998932670903031 0.0 -2.0831914516705427e-16 0.0 0.01 0.0 -2.0831914516705427e-16 0.0 0.010000048850357952 0.00999893017170438 0.0 -1.5305298493340169e-15 0.0 0.01 0.0 -1.5305298493340169e-15 0.0 0.01000005420044065 0.009998927172668471 0.0 -6.20853146809658e-15 0.0 0.01 0.0 -6.20853146809658e-15 0.0 0.010000062500585943 0.009998922174281291 0.0 -1.9037400124707576e-14 0.0 0.01 0.0 -1.9037400124707576e-14 0.0 0.01000007420082586 0.00999891267736629 0.0 -4.941548858993953e-14 0.0 0.01 0.0 -4.941548858993953e-14 0.0 0.010000088401172202 0.009998902180807515 0.0 -1.003491553046006e-13 0.0 0.01 0.0 -1.0034915530449721e-13 0.0 0.010000105451667988 0.009998886186114844 0.0 -1.6518775015815986e-13 0.0 0.01 0.0 -1.6518775015815986e-13 0.0 0.01000012600238145 0.009998853697131669 0.0 5.793543890815617e-18 0.0 0.01 0.0 5.793543890815617e-18 0.0 0.010000059550531935 0.009998852197647784 0.0 -5.553778899072398e-16 0.0 0.01 0.0 -5.553778899072398e-16 0.0 0.010000061500567344 0.009998850198336986 0.0 -2.987665673241367e-15 0.0 0.01 0.0 -2.987665673241367e-15 0.0 0.010000069800730815 0.009998846199718987 0.0 -1.1344704363118548e-14 0.0 0.01 0.0 -1.1344704363118548e-14 0.0 0.010000080550973258 0.009998839202149038 0.0 -3.32156587073931e-14 0.0 0.01 0.0 -3.32156587073931e-14 0.0 0.010000097651430355 0.009998828205997361 0.0 -8.174859789577786e-14 0.0 0.01 0.0 -8.174859789598466e-14 0.0 0.010000118152093953 0.009998814710769896 0.0 -1.5922764232950347e-13 0.0 0.01 0.0 -1.5922764232950347e-13 0.0 0.010000142603050289 0.00999879571757936 0.0 -2.423621519551955e-13 0.0 0.01 0.0 -2.423621519549887e-13 0.0 0.010000177254712776 0.009998853697131669 0.0 -1.1872179605966961e-18 0.0 0.01 0.0 -1.1872179605966961e-18 0.0 0.010000073250804846 0.009998853197303632 0.0 -6.037661168972798e-16 0.0 0.01 0.0 -6.037661168972798e-16 0.0 0.010000076650881295 0.009998850198336986 0.0 -3.924819634570309e-15 0.0 0.01 0.0 -3.924819634570309e-15 0.0 0.010000086451121057 0.009998844700238476 0.0 -1.507019451007454e-14 0.0 0.01 0.0 -1.507019451007454e-14 0.0 0.010000103501606867 0.009998837702671667 0.0 -4.59642470514347e-14 0.0 0.01 0.0 -4.59642470514347e-14 0.0 0.010000126952417495 0.009998825706877044 0.0 -1.1003353128960279e-13 0.0 0.01 0.0 -1.1003353128960279e-13 0.0 0.010000155753638806 0.009998809712551364 0.0 -2.047477378745652e-13 0.0 0.01 0.0 -2.047477378745652e-13 0.0 0.010000192405552841 0.009998786720842673 0.0 -2.666204993131818e-13 0.0 0.01 0.0 -2.66620499312975e-13 0.0 0.010000249009300535 0.009998971658644643 0.0 1.2103580111411234e-18 0.0 0.01 0.0 1.2103580111411234e-18 0.0 0.010000087401145831 0.009998970159107686 0.0 -3.7825102046001003e-16 0.0 0.01 0.0 -3.7825102046001003e-16 0.0 0.010000091801264105 0.009998968159726127 0.0 -3.823502618653768e-15 0.0 0.01 0.0 -3.823502618653768e-15 0.0 0.010000105451667985 0.009998962661433025 0.0 -1.6149590059684002e-14 0.0 0.01 0.0 -1.6149590059684002e-14 0.0 0.010000128902492337 0.009998953664245691 0.0 -5.116574153948526e-14 0.0 0.01 0.0 -5.116574153948526e-14 0.0 0.010000160653871366 0.009998941668033695 0.0 -1.2343121972886375e-13 0.0 0.01 0.0 -1.2343121972886375e-13 0.0 0.010000200206012208 0.009998925173312696 0.0 -2.1708321586650994e-13 0.0 0.01 0.0 -2.1708321586671673e-13 0.0 0.010000256859896209 0.009998902680642893 0.0 -2.0358742437725141e-13 0.0 0.01 0.0 -2.03587424377665e-13 0.0 0.010000344267777227 0.009999236587428713 0.0 -3.996028393604584e-18 0.0 0.01 0.0 -3.996028393604584e-18 0.0 0.010000102551577501 0.009999236087543252 0.0 -1.9696883547870203e-16 0.0 0.01 0.0 -1.9696883547870203e-16 0.0 0.010000108901778914 0.009999232588347137 0.0 -2.5267920887167487e-15 0.0 0.01 0.0 -2.5267920887167487e-15 0.0 0.010000126452398492 0.009999227589501917 0.0 -1.3574076836435715e-14 0.0 0.01 0.0 -1.3574076836435715e-14 0.0 0.010000157253709233 0.009999219591365155 0.0 -4.827547184758529e-14 0.0 0.01 0.0 -4.827547184758529e-14 0.0 0.010000197755865957 0.009999209093839782 0.0 -1.1785880154203286e-13 0.0 0.01 0.0 -1.1785880154203286e-13 0.0 0.010000253409632143 0.009999193097674214 0.0 -1.8910600125975962e-13 0.0 0.01 0.0 -1.8910600125955283e-13 0.0 0.010000334966829665 0.009999173602451223 0.0 -3.8203453247888275e-14 0.0 0.01 0.0 -3.8203453247888275e-14 0.0 0.010000466332617886 0.009999656517697823 0.0 -5.5610119955033806e-18 0.0 0.01 0.0 -5.5610119955033806e-18 0.0 0.010000117202060416 0.009999656017749381 0.0 1.5268288955021618e-16 0.0 0.01 0.0 1.5268288955021618e-16 0.0 0.010000125002343799 0.009999654517904508 0.0 -9.145469881284019e-16 0.0 0.01 0.0 -9.145469881284019e-16 0.0 0.010000148953327997 0.009999650018373931 0.0 -9.162765860475676e-15 0.0 0.01 0.0 -9.162765860475676e-15 0.0 0.01000018800530177 0.009999644518955913 0.0 -3.944055341921164e-14 0.0 0.01 0.0 -3.944055341931504e-14 0.0 0.01000024070869082 0.009999636519818639 0.0 -1.0170696723926775e-13 0.0 0.01 0.0 -1.0170696723926775e-13 0.0 0.010000315464927093 0.009999625521036223 0.0 -1.3806340726923643e-13 0.0 0.01 0.0 -1.3806340726923643e-13 0.0 0.010000426277255295 0.009999613022463903 0.0 1.4878208810660217e-13 0.0 0.01 0.0 1.4878208810660217e-13 0.0 0.010000608955619527 0.010000207056430678 0.0 8.062779180760895e-18 0.0 0.01 0.0 8.062779180760895e-18 0.0 0.01000013185260772 0.01000020605636871 0.0 9.352023180769838e-17 0.0 0.01 0.0 9.352023180769838e-17 0.0 0.010000141603007655 0.010000205556337837 0.0 -4.7000711987300803e-17 0.0 0.01 0.0 -4.7000711987300803e-17 0.0 0.010000170904381147 0.01000020460627939 0.0 -5.793652276557965e-15 0.0 0.01 0.0 -5.793652275730784e-15 0.0 0.010000219757243776 0.010000201656099616 0.0 -3.040112542489638e-14 0.0 0.01 0.0 -3.04011254240692e-14 0.0 0.010000286162282861 0.010000199705982215 0.0 -8.279698387110926e-14 0.0 0.01 0.0 -8.279698387028208e-14 0.0 0.010000380371701296 0.010000196305780243 0.0 -1.0191790270454823e-13 0.0 0.01 0.0 -1.0191790270454823e-13 0.0 0.01000052444125291 0.010000192855578847 0.0 2.351994913547624e-13 0.0 0.01 0.0 2.3519949135558956e-13 0.0 0.010000766188047624 0.010000812098914987 0.0 1.3156873354374803e-17 0.0 0.01 0.0 1.3156873354374803e-17 0.0 0.010000145503175614 0.010000812098914987 0.0 1.906297371819622e-16 0.0 0.01 0.0 1.906297371819622e-16 0.0 0.010000158203754186 0.01000081259903685 0.0 1.4283232498487632e-16 0.0 0.01 0.0 1.4283232498487632e-16 0.0 0.010000193355607813 0.010000815049635058 0.0 -3.829301426315037e-15 0.0 0.01 0.0 -3.829301426315037e-15 0.0 0.010000251459484463 0.010000817950345476 0.0 -2.3836464562139866e-14 0.0 0.01 0.0 -2.3836464562139866e-14 0.0 0.010000331566489724 0.010000821401193908 0.0 -7.010888488552417e-14 0.0 0.01 0.0 -7.010888488511058e-14 0.0 0.010000445829812863 0.010000826252392672 0.0 -9.29793781216713e-14 0.0 0.01 0.0 -9.29793781216713e-14 0.0 0.010000623608328253 0.010000834554460552 0.0 1.6976842076664704e-13 0.0 0.01 0.0 1.6976842076333831e-13 0.0 0.010000920527089924 0.010001363078646868 0.0 2.0781302727729294e-18 0.0 0.01 0.0 2.0781302727729294e-18 0.0 0.010000158703777955 0.010001364029035533 0.0 9.450688998084389e-17 0.0 0.01 0.0 9.450688998084389e-17 0.0 0.010000173354507664 0.010001366480039131 0.0 1.1393991949434297e-16 0.0 0.01 0.0 1.1393991949434297e-16 0.0 0.010000213856860018 0.010001370381640414 0.0 -3.296804320167204e-15 0.0 0.01 0.0 -3.296804320167204e-15 0.0 0.010000280761823637 0.010001376734257402 0.0 -1.9989285932689226e-14 0.0 0.01 0.0 -1.9989285932715076e-14 0.0 0.010000374020982708 0.010001387488715329 0.0 -6.051681776074269e-14 0.0 0.01 0.0 -6.051681776074269e-14 0.0 0.010000506888537795 0.01000140019402661 0.0 -1.0102947686871624e-13 0.0 0.01 0.0 -1.0102947686871624e-13 0.0 0.010000712976243026 0.01000141875187143 0.0 2.5980751766276465e-14 0.0 0.01 0.0 2.5980751766276465e-14 0.0 0.010001058768124762 0.010001746557462913 0.0 5.4410084990349645e-18 0.0 0.01 0.0 5.4410084990349645e-18 0.0 0.010000170404355548 0.010001747057724981 0.0 4.8896024694483235e-17 0.0 0.01 0.0 4.8896024694483235e-17 0.0 0.0100001865052175 0.010001751460034406 0.0 -2.638254306149875e-16 0.0 0.01 0.0 -2.638254306149875e-16 0.0 0.010000232408101778 0.010001757313113894 0.0 -3.0354135554167602e-15 0.0 0.01 0.0 -3.0354135554167602e-15 0.0 0.010000307164151893 0.010001766568004142 0.0 -1.6280646011322544e-14 0.0 0.01 0.0 -1.6280646011322544e-14 0.0 0.01000041017523518 0.010001781225801802 0.0 -4.9525199535214714e-14 0.0 0.01 0.0 -4.9525199535111316e-14 0.0 0.010000557646642 0.010001800286037803 0.0 -9.793379490996464e-14 0.0 0.01 0.0 -9.793379491017143e-14 0.0 0.010000787192941153 0.010001826200129257 0.0 -8.177487719119412e-14 0.0 0.01 0.0 -8.177487719119412e-14 0.0 0.01000117010533994 0.010001904844126473 0.0 5.630064043843964e-20 0.0 0.01 0.0 5.630064043843964e-20 0.0 0.010000180204870953 0.010001905794669592 0.0 -3.648590253774411e-17 0.0 0.01 0.0 -3.648590253774411e-17 0.0 0.010000197755865954 0.010001910197188626 0.0 -2.880307059228268e-16 0.0 0.01 0.0 -2.880307059228268e-16 0.0 0.01000024755919253 0.010001916550834303 0.0 -2.5579027204289537e-15 0.0 0.01 0.0 -2.5579027204289537e-15 0.0 0.010000328116148325 0.01000192875787257 0.0 -1.1555931843951099e-14 0.0 0.01 0.0 -1.1555931843951099e-14 0.0 0.01000043997903553 0.01000194491725837 0.0 -3.432200946604747e-14 0.0 0.01 0.0 -3.432200946609917e-14 0.0 0.010000597203493545 0.010001967380435605 0.0 -7.281369910526047e-14 0.0 0.01 0.0 -7.281369910526047e-14 0.0 0.010000841906309002 0.010001997198160788 0.0 -1.002030968075571e-13 0.0 0.01 0.0 -1.002030968077639e-13 0.0 0.010001250734611439 0.010001864771476238 0.0 3.487063916852125e-18 0.0 0.01 0.0 3.487063916852125e-18 0.0 0.010000188005301766 0.010001865772035925 0.0 -1.1961956636573145e-17 0.0 0.01 0.0 -1.1961956636573145e-17 0.0 0.010000205556337837 0.01000187062475466 0.0 -2.3530218239822955e-16 0.0 0.01 0.0 -2.3530218239822955e-16 0.0 0.010000258310008265 0.01000187747860656 0.0 -1.4787151008967437e-15 0.0 0.01 0.0 -1.4787151008967437e-15 0.0 0.010000343267674097 0.010001889685501768 0.0 -6.225015394968983e-15 0.0 0.01 0.0 -6.225015394968983e-15 0.0 0.010000460481804571 0.010001906795241591 0.0 -1.8013308179941143e-14 0.0 0.01 0.0 -1.8013308179941143e-14 0.0 0.010000625058599857 0.010001930258741017 0.0 -4.008023599357052e-14 0.0 0.01 0.0 -4.008023599357052e-14 0.0 0.010000879015886758 0.010001961026693065 0.0 -6.539931951259258e-14 0.0 0.01 0.0 -6.539931951238579e-14 0.0 0.010001301504042832 0.010001705536228873 0.0 -5.368728433604169e-19 0.0 0.01 0.0 -5.368728433604169e-19 0.0 0.010000192855578847 0.01000170598645919 0.0 -2.0543009105442368e-17 0.0 0.01 0.0 -2.0543009105442368e-17 0.0 0.01000021095667522 0.01000171088897102 0.0 -1.2420470662648906e-16 0.0 0.01 0.0 -1.2420470662648906e-16 0.0 0.010000265160546144 0.010001717742494545 0.0 -5.651623600743023e-16 0.0 0.01 0.0 -5.651623600743023e-16 0.0 0.010000353068697745 0.010001728948285984 0.0 -2.149520555890647e-15 0.0 0.01 0.0 -2.149520555890647e-15 0.0 0.010000473183583287 0.010001745556939005 0.0 -5.84466890207115e-15 0.0 0.01 0.0 -5.84466890207115e-15 0.0 0.01000064116165797 0.010001770019834651 0.0 -1.3727263879011275e-14 0.0 0.01 0.0 -1.3727263879011275e-14 0.0 0.010000899071234831 0.010001800286037808 0.0 -2.3798423307661026e-14 0.0 0.01 0.0 -2.3798423307661026e-14 0.0 0.010001328864835343 0.010001512042871922 0.0 2.52528273023634e-18 0.0 0.01 0.0 2.52528273023634e-18 0.0 0.010000194355665971 0.0100015125430988 0.0 -6.196161810664432e-18 0.0 0.01 0.0 -6.196161810664432e-18 0.0 0.010000213406831177 0.010001516444871026 0.0 -1.8780140946953222e-17 0.0 0.01 0.0 -1.8780140946953222e-17 0.0 0.010000268060778101 0.010001523297994835 0.0 -5.510094911553731e-17 0.0 0.01 0.0 -5.510094911553731e-17 0.0 0.010000355969006188 0.010001534052925568 0.0 -1.544680498135321e-16 0.0 0.01 0.0 -1.544680498135321e-16 0.0 0.010000477584210823 0.01000155066060769 0.0 -4.0119110527978324e-16 0.0 0.01 0.0 -4.0119110527978324e-16 0.0 0.010000646562701094 0.010001572170680394 0.0 -7.194455022636879e-16 0.0 0.01 0.0 -7.194455022636879e-16 0.0 0.010000904922817976 0.010001599983910375 0.0 -2.619402908667432e-16 0.0 0.01 0.0 -2.619402908667432e-16 0.0 0.010001334266992762 0.010001334717172943 0.0 -5.1634934847326784e-18 0.0 0.01 0.0 -5.1634934847326784e-18 0.0 0.010000193855636856 0.010001335217373215 0.0 1.4981129302293406e-14 0.0 0.01 0.0 1.4981129302293406e-14 0.0 0.010000212406767305 0.010001338668757135 0.0 -3.044541794190565e-17 0.0 0.01 0.0 -3.044541794190565e-17 0.0 0.010000267110701839 0.010001345471495325 0.0 -7.606260288723744e-17 0.0 0.01 0.0 -7.606260288723744e-17 0.0 0.010000355018904868 0.01000135527546596 0.0 -2.829546731178555e-16 0.0 0.01 0.0 -2.829546731178555e-16 0.0 0.010000475133860683 0.010001370381640414 0.0 -7.576350111669552e-16 0.0 0.01 0.0 -7.576350111669552e-16 0.0 0.010000641661754187 0.010001390890132498 0.0 -8.8882992029822e-16 0.0 0.01 0.0 -8.8882992029822e-16 0.0 0.010000898571099995 0.01000141680104191 0.0 3.5146205506880747e-15 0.0 0.01 0.0 3.5146205506880747e-15 0.0 0.010001321561932735 0.010001181359308503 0.0 9.283846944775813e-19 0.0 0.01 0.0 9.283846944775813e-19 0.0 0.010000190455440853 0.01000118280982277 0.0 1.348834852833546e-17 0.0 0.01 0.0 1.348834852833546e-17 0.0 0.010000208506521065 0.010001185760870987 0.0 -4.122995208684642e-17 0.0 0.01 0.0 -4.122995208684642e-17 0.0 0.010000262710352148 0.010001192613315056 0.0 -3.7782095496240537e-16 0.0 0.01 0.0 -3.7782095496240537e-16 0.0 0.010000349118281685 0.01000120136645753 0.0 -1.5044399261430323e-15 0.0 0.01 0.0 -1.5044399261430323e-15 0.0 0.010000466332617888 0.010001215071423913 0.0 -4.033374387342968e-15 0.0 0.01 0.0 -4.033374387342968e-15 0.0 0.0100006289593335 0.010001234578590017 0.0 -8.038393690176137e-15 0.0 0.01 0.0 -8.038393690176137e-15 0.0 0.01000088046626948 0.010001259037736496 0.0 -4.253198723879567e-15 0.0 0.01 0.0 -4.253198723879567e-15 0.0 0.010001295651763534 0.010001031409548906 0.0 1.5217625986341787e-18 0.0 0.01 0.0 1.5217625986341787e-18 0.0 0.01000018555516448 0.010001032409858513 0.0 -2.464093570849088e-14 0.0 0.01 0.0 -2.464093570849088e-14 0.0 0.010000202656160261 0.010001035810913413 0.0 -4.65526486646457e-17 0.0 0.01 0.0 -4.65526486646457e-17 0.0 0.010000254909746516 0.010001041662736587 0.0 -4.818630639956915e-16 0.0 0.01 0.0 -4.818630639956915e-16 0.0 0.010000338867223872 0.010001050465498484 0.0 -2.7083641572878202e-15 0.0 0.01 0.0 -2.7083641572878202e-15 0.0 0.010000451680600462 0.010001065120147978 0.0 -7.731830899045255e-15 0.0 0.01 0.0 -7.731830899045255e-15 0.0 0.010000610405884756 0.010001082225656512 0.0 -1.6600595109319764e-14 0.0 0.01 0.0 -1.6600595109319764e-14 0.0 0.010000851658786053 0.010001106133502635 0.0 -1.4501885886669708e-14 0.0 0.01 0.0 -1.4501885886669708e-14 0.0 0.010001252685343777 0.010000858510543399 0.0 -6.6328316647429696e-18 0.0 0.01 0.0 -6.6328316647429696e-18 0.0 0.010000178204763429 0.010000860461046241 0.0 -2.4903055668933057e-18 0.0 0.01 0.0 -2.4903055668933057e-18 0.0 0.010000195805750834 0.01000086341180912 0.0 2.0055049954545241e-16 0.0 0.01 0.0 2.0055049954545241e-16 0.0 0.010000244658978408 0.010000869763460112 0.0 -1.8669285683894221e-16 0.0 0.01 0.0 -1.8669285683894221e-16 0.0 0.010000324215766698 0.01000087851575493 0.0 -1.9482161065573367e-15 0.0 0.01 0.0 -1.9482161065573367e-15 0.0 0.010000432628073439 0.010000891219126578 0.0 -8.552894891523234e-15 0.0 0.01 0.0 -8.552894891574932e-15 0.0 0.010000584051163382 0.01000090932401549 0.0 -1.9702034693570023e-14 0.0 0.01 0.0 -1.9702034693156433e-14 0.0 0.01000081454951283 0.010000931280076236 0.0 -1.7048498900097935e-14 0.0 0.01 0.0 -1.704849890030473e-14 0.0 0.010001197965233726 0.010000653364027105 0.0 9.235523185383309e-18 0.0 0.01 0.0 9.235523185383309e-18 0.0 0.010000170404355548 0.010000653864125153 0.0 5.400435095929006e-18 0.0 0.01 0.0 5.400435095929006e-18 0.0 0.010000187005245513 0.010000656814705168 0.0 2.483309459329405e-16 0.0 0.01 0.0 2.483309459329405e-16 0.0 0.010000233908206702 0.010000662665863087 0.0 8.303211843679956e-16 0.0 0.01 0.0 8.303211843679956e-16 0.0 0.01000030761419339 0.010000670967523571 0.0 8.083520271447592e-16 0.0 0.01 0.0 8.083520271447592e-16 0.0 0.010000410175235178 0.01000068367010433 0.0 -4.720932520031965e-15 0.0 0.01 0.0 -4.720932520083664e-15 0.0 0.01000055129558567 0.010000700773655676 0.0 -1.648955954580786e-14 0.0 0.01 0.0 -1.648955954663504e-14 0.0 0.010000770088946415 0.01000072272834289 0.0 -1.3155923145118953e-14 0.0 0.01 0.0 -1.3155923145118953e-14 0.0 0.010001130091537172 0.010000427277383334 0.0 1.7221429654306842e-17 0.0 0.01 0.0 1.7221429654306842e-17 0.0 0.01000016260396592 0.010000428727569524 0.0 -1.8496327294832341e-16 0.0 0.01 0.0 -1.8496327294832341e-16 0.0 0.010000178204763429 0.010000430677820912 0.0 2.0476314596006426e-16 0.0 0.01 0.0 2.0476314596006426e-16 0.0 0.010000221207339687 0.010000435578457638 0.0 1.477645724243603e-15 0.0 0.01 0.0 1.477645724243603e-15 0.0 0.010000290062619962 0.010000442879419591 0.0 3.474252795418726e-15 0.0 0.01 0.0 3.4742527953153285e-15 0.0 0.010000385272264066 0.010000453630865281 0.0 1.6197111179548547e-15 0.0 0.01 0.0 1.6197111179548547e-15 0.0 0.010000515639879935 0.010000468282891273 0.0 -8.710258924618452e-15 0.0 0.01 0.0 -8.710258924618452e-15 0.0 0.01000071737718712 0.010000489285907762 0.0 -1.860152740432648e-15 0.0 0.01 0.0 -1.860152740432648e-15 0.0 0.010001052916271558 0.010000207506458662 0.0 -6.899699502647771e-17 0.0 0.01 0.0 -6.899699502647771e-17 0.0 0.01000015480359455 0.010000208006489824 0.0 -2.6847814541959543e-16 0.0 0.01 0.0 -2.6847814541959543e-16 0.0 0.010000169454307118 0.010000209956612086 0.0 -4.639427890445669e-16 0.0 0.01 0.0 -4.639427890445669e-16 0.0 0.010000207056430682 0.01000021340683118 0.0 1.567999879516397e-15 0.0 0.01 0.0 1.567999879516397e-15 0.0 0.010000271011016651 0.010000218757177997 0.0 5.898305739685943e-15 0.0 0.01 0.0 5.898305739685943e-15 0.0 0.010000357419161356 0.010000227057733046 0.0 7.289777852434128e-15 0.0 0.01 0.0 7.289777852434128e-15 0.0 0.01000047658406769 0.010000239258586426 0.0 1.142710195072617e-15 0.0 0.01 0.0 1.142710195072617e-15 0.0 0.010000662165763717 0.010000257809969553 0.0 2.35404019635898e-15 0.0 0.01 0.0 2.35404019635898e-15 0.0 0.010000968890794217 0.010000019050054435 0.0 -7.494094098350988e-17 0.0 0.01 0.0 -7.494094098350988e-17 0.0 0.010000146953239225 0.010000020500063036 0.0 -3.820219424011848e-16 0.0 0.01 0.0 -3.820219424011848e-16 0.0 0.010000159203801796 0.01000002100006615 0.0 -8.470312477147966e-16 0.0 0.01 0.0 -8.470312477147966e-16 0.0 0.010000193855636856 0.0100000224500756 0.0 1.3162676276410211e-15 0.0 0.01 0.0 1.3162676276410211e-15 0.0 0.01000025195952222 0.010000026850108142 0.0 7.713021396732492e-15 0.0 0.01 0.0 7.713021396732492e-15 0.0 0.010000329616296324 0.010000031250146485 0.0 1.3386520246520398e-14 0.0 0.01 0.0 1.3386520246520398e-14 0.0 0.010000438028778702 0.010000040550246649 0.0 8.350303958139436e-15 0.0 0.01 0.0 8.350303958139436e-15 0.0 0.010000604554818564 0.01000005520045706 0.0 1.1316795830618101e-15 0.0 0.01 0.0 1.1316795830618101e-15 0.0 0.010000884417315264 0.00999987400238135 0.0 -1.4706353046879e-17 0.0 0.01 0.0 -1.4706353046879e-17 0.0 0.010000139152904475 0.00999987400238135 0.0 -5.007167828627807e-16 0.0 0.01 0.0 -5.007167828627807e-16 0.0 0.01000015040339311 0.009999874502362489 0.0 -1.0627375015218453e-15 0.0 0.01 0.0 -1.0627375015218453e-15 0.0 0.010000181654949659 0.009999875002343702 0.0 1.3762333292648677e-15 0.0 0.01 0.0 1.3762333292648677e-15 0.0 0.010000231958070434 0.00999987550232499 0.0 8.612182985155271e-15 0.0 0.01 0.0 8.612182985103572e-15 0.0 0.010000301763658645 0.009999879502177997 0.0 1.995483649143792e-14 0.0 0.01 0.0 1.995483649143792e-14 0.0 0.010000398973875755 0.0099998855019665 0.0 2.1358628009672663e-14 0.0 0.01 0.0 2.1358628009672663e-14 0.0 0.01000054839510728 0.00999989750157591 0.0 4.2915038057277744e-15 0.0 0.01 0.0 4.2915038057277744e-15 0.0 0.010000800396084829 0.009999767508108123 0.0 1.6936622099295109e-18 0.0 0.01 0.0 1.6936622099295109e-18 0.0 0.010000132302625551 0.009999767508108123 0.0 -5.265177608652677e-16 0.0 0.01 0.0 -5.265177608652677e-16 0.0 0.010000142103028933 0.009999768008073288 0.0 -1.112804585332931e-15 0.0 0.01 0.0 -1.112804585332931e-15 0.0 0.010000169904330024 0.009999768508038527 0.0 9.291854608208765e-16 0.0 0.01 0.0 9.291854608208765e-16 0.0 0.010000214356892134 0.009999769008003843 0.0 1.0254712312741916e-14 0.0 0.01 0.0 1.0254712312716066e-14 0.0 0.010000275411377296 0.009999770507900239 0.0 2.890673276412428e-14 0.0 0.01 0.0 2.890673276402088e-14 0.0 0.010000361369587256 0.009999775007593465 0.0 4.866745620670507e-14 0.0 0.01 0.0 4.8667456206911866e-14 0.0 0.010000496136920334 0.009999786506837095 0.0 3.740174343842374e-14 0.0 0.01 0.0 3.740174343847544e-14 0.0 0.010000723228451344 0.009999696513816138 0.0 9.842502479637669e-19 0.0 0.01 0.0 9.842502479637669e-19 0.0 0.01000012600238145 0.009999697013770655 0.0 -7.161900759359909e-16 0.0 0.01 0.0 -7.161900759359909e-16 0.0 0.010000134752723697 0.009999697013770655 0.0 -1.956626754522169e-15 0.0 0.01 0.0 -1.956626754522169e-15 0.0 0.010000158203754186 0.009999696513816138 0.0 -3.4807396310223597e-16 0.0 0.01 0.0 -3.4807396310223597e-16 0.0 0.010000197255836327 0.009999697013770655 0.0 1.1248154442224967e-14 0.0 0.01 0.0 1.1248154442173268e-14 0.0 0.01000025050941293 0.00999969951354436 0.0 4.273600803250212e-14 0.0 0.01 0.0 4.273600803250212e-14 0.0 0.010000328116148326 0.0099997055130089 0.0 9.592905661260363e-14 0.0 0.01 0.0 9.592905661260363e-14 0.0 0.010000451680600464 0.009999718011928043 0.0 1.2585563528703613e-13 0.0 0.01 0.0 1.2585563528662254e-13 0.0 0.010000656814705172 0.009999650518321471 0.0 -3.208296095416122e-18 0.0 0.01 0.0 -3.208296095416122e-18 0.0 0.010000119152129552 0.009999651018269088 0.0 -1.0519633630266566e-15 0.0 0.01 0.0 -1.0519633630266566e-15 0.0 0.010000126952417497 0.009999651518216779 0.0 -3.560599418744445e-15 0.0 0.01 0.0 -3.560599418744445e-15 0.0 0.010000146503219415 0.00999965251811239 0.0 -2.7893393443848192e-15 0.0 0.01 0.0 -2.7893393443848192e-15 0.0 0.010000180654895312 0.009999654017956366 0.0 1.3322884710222957e-14 0.0 0.01 0.0 1.3322884710222957e-14 0.0 0.010000229007866452 0.009999657517594933 0.0 6.744019321920801e-14 0.0 0.01 0.0 6.744019321920801e-14 0.0 0.01000029981348268 0.009999666016732467 0.0 1.8299460794295946e-13 0.0 0.01 0.0 1.8299460794337305e-13 0.0 0.010000414075717383 0.009999682015167793 0.0 3.081912148300943e-13 0.0 0.01 0.0 3.0819121483092147e-13 0.0 0.010000603554637331 0.009999626020980092 0.0 -2.6204185713287905e-18 0.0 0.01 0.0 -2.6204185713287905e-18 0.0 0.010000114251957997 0.009999626020980092 0.0 -1.6386568438605609e-15 0.0 0.01 0.0 -1.6386568438605609e-15 0.0 0.010000120102163645 0.009999626020980094 0.0 -5.35717981878698e-15 0.0 0.01 0.0 -5.35717981878698e-15 0.0 0.010000136702803098 0.009999629020644872 0.0 -4.492473350792022e-15 0.0 0.01 0.0 -4.492473350792022e-15 0.0 0.010000166504158452 0.009999632520257195 0.0 2.075334558787092e-14 0.0 0.01 0.0 2.075334558787092e-14 0.0 0.01000020995661208 0.009999640519384878 0.0 1.1403134513471997e-13 0.0 0.01 0.0 1.1403134513471997e-13 0.0 0.010000277361538988 0.009999652518112391 0.0 3.280400399781494e-13 0.0 0.01 0.0 3.2804003997732223e-13 0.0 0.01000038672243198 0.009999675015842893 0.0 3.8261618874469e-12 0.0 0.01 0.0 3.8261618874469e-12 0.0 0.010000567448295982 0.009999618021887206 0.0 -5.545406844850929e-18 0.0 0.01 0.0 -5.545406844850929e-18 0.0 0.010000107901746392 0.009999619021772769 0.0 -2.0664060710765075e-15 0.0 0.01 0.0 -2.0664060710765075e-15 0.0 0.010000112801908613 0.009999621021544792 0.0 -5.8362887279441475e-15 0.0 0.01 0.0 -5.8362887279441475e-15 0.0 0.010000127952455735 0.009999625521036224 0.0 -9.683150906985584e-17 0.0 0.01 0.0 -9.683150906985584e-17 0.0 0.01000015480359455 0.009999633020202113 0.0 4.892225093728514e-14 0.0 0.01 0.0 4.892225093738854e-14 0.0 0.01000019630578024 0.009999644518955915 0.0 2.1313120470132282e-13 0.0 0.01 0.0 2.1313120470132282e-13 0.0 0.010000263210391592 0.00999966501683281 0.0 5.701294130368654e-13 0.0 0.01 0.0 5.701294130368654e-13 0.0 0.010000372570820322 0.009999695013953041 0.0 6.77678339887188e-11 0.0 0.01 0.0 6.77678339887188e-11 0.0 0.010000548395107282 0.009999630020533733 0.0 1.2797201813986577e-18 0.0 0.01 0.0 1.2797201813986577e-18 0.0 0.010000101051531691 0.009999631020422894 0.0 -1.063535036789038e-15 0.0 0.01 0.0 -1.063535036789038e-15 0.0 0.01000010595168384 0.009999634520037317 0.0 7.832048212077126e-18 0.0 0.01 0.0 7.832048212077126e-18 0.0 0.010000120102163645 0.009999642019223454 0.0 2.385598541351644e-14 0.0 0.01 0.0 2.3855985413413042e-14 0.0 0.010000146003197478 0.009999655517801014 0.0 1.2659976132471706e-13 0.0 0.01 0.0 1.2659976132471706e-13 0.0 0.010000188955355482 0.009999675015842893 0.0 4.0768218315504984e-13 0.0 0.01 0.0 4.0768218315504984e-13 0.0 0.01000025931008591 0.009999704013141751 0.0 2.342435579206263e-11 0.0 0.01 0.0 2.342435579206263e-11 0.0 0.010000373070876246 0.009999742009984205 0.0 4.934162060035778e-10 0.0 0.01 0.0 4.934162060018837e-10 0.0 0.010000544944541482 0.009999663017034392 0.0 -1.178868335226687e-18 0.0 0.01 0.0 -1.178868335226687e-18 0.0 0.010000096201388189 0.009999664516883094 0.0 3.193566993382156e-15 0.0 0.01 0.0 3.193566993382156e-15 0.0 0.010000101051531691 0.009999672016136722 0.0 2.2045428498558055e-14 0.0 0.01 0.0 2.2045428498558055e-14 0.0 0.010000115251992426 0.009999684514930255 0.0 9.333116956792858e-14 0.0 0.01 0.0 9.333116956792858e-14 0.0 0.010000142603050289 0.00999970501305311 0.0 2.937521605132096e-13 0.0 0.01 0.0 2.937521605132096e-13 0.0 0.01000019140549527 0.009999735510493579 0.0 2.0328167463967212e-11 0.0 0.01 0.0 2.0328167463914273e-11 0.0 0.010000267110701844 0.009999773507695065 0.0 3.365120039472942e-10 0.0 0.01 0.0 3.3651200394814126e-10 0.0 0.010000385272264083 0.009999815005134286 0.0 2.152335891183007e-09 0.0 0.01 0.0 2.152335891183007e-09 0.0 0.010000553745992496 0.009999725511302019 0.0 6.414183459851574e-18 0.0 0.01 0.0 6.414183459851574e-18 0.0 0.010000095201359476 0.009999729011015654 0.0 1.4876098046628133e-14 0.0 0.01 0.0 1.487609804673153e-14 0.0 0.01000009960148805 0.009999740010139563 0.0 7.635425382710802e-14 0.0 0.01 0.0 7.635425382710802e-14 0.0 0.010000116702042875 0.009999761008567809 0.0 2.104394276812594e-12 0.0 0.01 0.0 2.104394276812594e-12 0.0 0.010000148953327999 0.00999979000661477 0.0 4.64212023880848e-11 0.0 0.01 0.0 4.64212023880848e-11 0.0 0.0100002021561299 0.009999828504411735 0.0 3.9328819457133755e-10 0.0 0.01 0.0 3.9328819457133755e-10 0.0 0.010000285662239993 0.009999870002535516 0.0 1.9483822890376e-09 0.0 0.01 0.0 1.9483822890443763e-09 0.0 0.010000406274758107 0.009999906001331873 0.0 6.579975269497044e-09 0.0 0.01 0.0 6.579975269469939e-09 0.0 0.01000056644813238 0.009999832504208321 0.0 -1.3692825261833072e-18 0.0 0.01 0.0 -1.3692825261833072e-18 0.0 0.010000099601488049 0.009999837003985244 0.0 7.240004589851581e-13 0.0 0.01 0.0 7.240004589884668e-13 0.0 0.010000106451699775 0.00999985200328552 0.0 1.7960634450687392e-11 0.0 0.01 0.0 1.796063445079327e-11 0.0 0.01000012645239849 0.009999878002232556 0.0 1.3337708133936591e-10 0.0 0.01 0.0 1.3337708133851888e-10 0.0 0.010000163554012401 0.009999910501201584 0.0 6.505457348759524e-10 0.0 0.01 0.0 6.505457348759524e-10 0.0 0.010000224107533469 0.009999949000390956 0.0 2.321441561645653e-09 0.0 0.01 0.0 2.321441561645653e-09 0.0 0.0100003115145564 0.009999984500042532 0.0 6.579999312750868e-09 0.0 0.01 0.0 6.579999312777973e-09 0.0 0.010000430227769289 0.01000000635004007 0.0 1.5060278032801543e-08 0.0 0.01 0.0 1.5060278032855753e-08 0.0 0.010000576699917605 0.009999983500040837 0.0 5.514196758295488e-18 0.0 0.01 0.0 5.514196758295488e-18 0.0 0.010000115251992422 0.009999989000018148 0.0 3.3100296352902686e-11 0.0 0.01 0.0 3.31002963533262e-11 0.0 0.010000122552252818 0.010000003900002288 0.0 2.4806650638942726e-10 0.0 0.01 0.0 2.4806650638942726e-10 0.0 0.010000146503219424 0.010000027850116494 0.0 1.009699535407197e-09 0.0 0.01 0.0 1.009699535407197e-09 0.0 0.010000188955355635 0.010000055650465932 0.0 3.0403454811807167e-09 0.0 0.01 0.0 3.0403454811807167e-09 0.0 0.010000251959523608 0.010000083001041611 0.0 7.414976755434205e-09 0.0 0.01 0.0 7.414976755434205e-09 0.0 0.01000033936728299 0.01000010155158199 0.0 1.5297746574051765e-08 0.0 0.01 0.0 1.5297746573943345e-08 0.0 0.01000045023043939 0.010000102051671208 0.0 2.6964048340915453e-08 0.0 0.01 0.0 2.6964048340807033e-08 0.0 0.010000580600669695 0.010000160153847306 0.0 3.397077787486523e-16 0.0 0.01 0.0 3.397077787486523e-16 0.0 0.010000142603050287 0.010000164054036975 0.0 1.9664875535786198e-10 0.0 0.01 0.0 1.9664875535786198e-10 0.0 0.010000150403393113 0.010000175304609813 0.0 1.0537606247654208e-09 0.0 0.01 0.0 1.0537606247654208e-09 0.0 0.010000177254712939 0.0100001894553855 0.0 3.2995131371039987e-09 0.0 0.01 0.0 3.2995131371039987e-09 0.0 0.01000022170737454 0.010000203106196962 0.0 7.879588769985589e-09 0.0 0.01 0.0 7.87958877009401e-09 0.0 0.010000283212040216 0.010000210956711485 0.0 1.5549578934355435e-08 0.0 0.01 0.0 1.5549578934355435e-08 0.0 0.010000363769884576 0.010000206056472921 0.0 2.6358859380772037e-08 0.0 0.01 0.0 2.6358859380772037e-08 0.0 0.010000462932248157 0.010000192405784664 0.0 3.931406012021299e-08 0.0 0.01 0.0 3.931406012021299e-08 0.0 0.010000582551132715 0.010000333016634272 0.0 4.1221520822011686e-17 0.0 0.01 0.0 4.1221520822011686e-17 0.0 0.010000178704790197 0.010000333016634317 0.0 5.136026105483755e-10 0.0 0.01 0.0 5.136026105551517e-10 0.0 0.010000187005245555 0.010000334466780326 0.0 2.4138032078495613e-09 0.0 0.01 0.0 2.413803207795351e-09 0.0 0.010000213406832046 0.010000334966836093 0.0 6.547065183504404e-09 0.0 0.01 0.0 6.547065183504404e-09 0.0 0.01000025635986415 0.010000328616225669 0.0 1.3683900367857105e-08 0.0 0.01 0.0 1.3683900367857105e-08 0.0 0.010000313964813549 0.010000318365288535 0.0 2.3905541931407148e-08 0.0 0.01 0.0 2.3905541931407148e-08 0.0 0.010000389172802854 0.010000311514754067 0.0 3.63761866852344e-08 0.0 0.01 0.0 3.637618668436704e-08 0.0 0.010000480034761243 0.01000032766646717 0.0 4.92029619374168e-08 0.0 0.01 0.0 4.920296193785048e-08 0.0 0.01000059085272498 0.010000469283031919 0.0 -1.9887852744152385e-17 0.0 0.01 0.0 -1.9887852744152385e-17 0.0 0.010000221207339687 0.01000046778282117 0.0 8.221865159047581e-10 0.0 0.01 0.0 8.221865159047581e-10 0.0 0.010000228507832238 0.01000046343221542 0.0 3.6490195575453535e-09 0.0 0.01 0.0 3.6490195575724586e-09 0.0 0.010000254909748514 0.010000457531411197 0.0 9.261187574314579e-09 0.0 0.01 0.0 9.261187574423e-09 0.0 0.010000294463018622 0.010000455581180972 0.0 1.8209880344290455e-08 0.0 0.01 0.0 1.8209880344290455e-08 0.0 0.010000349118331423 0.010000467782956336 0.0 3.00301377879203e-08 0.0 0.01 0.0 3.0030137787486616e-08 0.0 0.010000417026220428 0.010000501037922604 0.0 4.237307076829927e-08 0.0 0.01 0.0 4.237307076829927e-08 0.0 0.010000503438284234 0.010000545444988716 0.0 4.936314407146675e-08 0.0 0.01 0.0 4.936314407146675e-08 0.0 0.01000060940606726 0.010000662665863087 0.0 -1.5901261040495715e-17 0.0 0.01 0.0 -1.5901261040495715e-17 0.0 0.010000263210391592 0.01000066216576385 0.0 9.318460236770808e-10 0.0 0.01 0.0 9.318460236804689e-10 0.0 0.010000271011016778 0.010000662165766224 0.0 4.087966691123258e-09 0.0 0.01 0.0 4.087966691123258e-09 0.0 0.010000294463008264 0.01000066511636678 0.0 1.0230605067154761e-08 0.0 0.01 0.0 1.0230605067154761e-08 0.0 0.010000333016649971 0.010000677318865022 0.0 1.951440900039604e-08 0.0 0.01 0.0 1.951440900039604e-08 0.0 0.010000385772379014 0.010000699273470817 0.0 2.945942090639732e-08 0.0 0.01 0.0 2.945942090661416e-08 0.0 0.010000454631131693 0.01000071002577935 0.0 3.3272575147109615e-08 0.0 0.01 0.0 3.3272575147109615e-08 0.0 0.010000542544315974 0.01000068266996147 0.0 2.0348238518198142e-08 0.0 0.01 0.0 2.034823851733078e-08 0.0 0.010000648013044783 0.010000947884755794 0.0 -1.8426270429860576e-17 0.0 0.01 0.0 -1.8426270429860576e-17 0.0 0.010000303213790234 0.010000942983365938 0.0 6.56694462900626e-10 0.0 0.01 0.0 6.56694462898932e-10 0.0 0.010000310564467006 0.01000092397804576 0.0 2.8512385900439385e-09 0.0 0.01 0.0 2.8512385900371622e-09 0.0 0.010000333516685483 0.010000896120447272 0.0 6.775494745011983e-09 0.0 0.01 0.0 6.775494745011983e-09 0.0 0.01000037357093913 0.010000855109686626 0.0 1.0723162625317535e-08 0.0 0.01 0.0 1.0723162625317535e-08 0.0 0.010000433628220624 0.010000792594231494 0.0 8.411390323354636e-09 0.0 0.01 0.0 8.411390323300426e-09 0.0 0.010000515189820954 0.010000684170217093 0.0 -8.232909654796311e-09 0.0 0.01 0.0 -8.232909654796311e-09 0.0 0.010000613356436467 0.010000942983365877 0.0 -1.2069571404946925e-17 0.0 0.01 0.0 -1.2069571404946925e-17 0.0 0.010000337917127428 0.010000926378710733 0.0 -1.4978602611463718e-10 0.0 0.01 0.0 -1.497860261150607e-10 0.0 0.010000344767828913 0.010000875614991996 0.0 -1.0958546448515546e-09 0.0 0.01 0.0 -1.0958546448515546e-09 0.0 0.010000370120547549 0.01000078864328758 0.0 -4.936224300865948e-09 0.0 0.01 0.0 -4.936224300865948e-09 0.0 0.010000418976333358 0.01000067096756378 0.0 -1.6372159808756247e-08 0.0 0.01 0.0 -1.6372159808864667e-08 0.0 0.010000505888426076 0.009999999500000037 0.0 -2.1960883995525978e-11 0.0 0.01 0.0 -2.1960883995525978e-11 0.0 0.01 0.009999999500000037 0.0 2.913715899406398e-11 0.0 0.01 0.0 2.913715899406398e-11 0.0 0.01 0.009999999500000037 0.0 1.2600089997433025e-11 0.0 0.01 0.0 1.2600089997433025e-11 0.0 0.01 0.009999999500000037 0.0 -3.0039967993880054e-12 0.0 0.01 0.0 -3.0039967993880054e-12 0.0 0.01 0.009999999500000037 0.0 -9.79680679800413e-14 0.0 0.01 0.0 -9.79680679800413e-14 0.0 0.01 0.009999999999999998 0.0 0.0 0.0 0.01 0.0 0.0 0.0 0.009999999999999998 0.009999999999999998 0.0 1.734723475976807e-18 0.0 0.01 0.0 1.734723475976807e-18 0.0 0.009999999999999998 0.009999999500000037 0.0 3.4403705992991046e-11 0.0 0.01 0.0 3.4403705992991046e-11 0.0 0.01 0.009999999500000037 0.0 2.622588158529999e-18 0.0 0.01 0.0 2.622588158529999e-18 0.0 0.01 0.009999999500000037 0.0 2.26543809953847e-11 0.0 0.01 0.0 2.26543809953847e-11 0.0 0.01 0.009999999500000037 0.0 2.8926656994106868e-11 0.0 0.01 0.0 2.8926656994106868e-11 0.0 0.01 0.009999999500000037 0.0 -1.8859845996157744e-12 0.0 0.01 0.0 -1.8859845996157744e-12 0.0 0.01 0.009999999500000037 0.0 -3.888988499207709e-11 0.0 0.01 0.0 -3.888988499207709e-11 0.0 0.01 0.009999999999999998 0.0 -1.734723475976807e-18 0.0 0.01 0.0 -1.734723475976807e-18 0.0 0.009999999999999998 0.009999999999999998 0.0 1.734723475976807e-18 0.0 0.01 0.0 1.734723475976807e-18 0.0 0.009999999999999998 0.00999999900000015 0.0 1.8593752996211954e-11 0.0 0.01 0.0 1.8593752996211954e-11 0.0 0.01 0.00999999900000015 0.0 9.299907998105362e-12 0.0 0.01 0.0 9.299907998105362e-12 0.0 0.01 0.00999999900000015 0.0 -9.383562498088317e-12 0.0 0.01 0.0 -9.383562498088317e-12 0.0 0.01 0.00999999900000015 0.0 -1.2063500997542343e-11 0.0 0.01 0.0 -1.2063500997542343e-11 0.0 0.01 0.009999999500000037 0.0 -2.65088670521908e-18 0.0 0.01 0.0 -2.65088670521908e-18 0.0 0.01 0.009999999500000037 0.0 -2.61588300663525e-18 0.0 0.01 0.0 -2.61588300663525e-18 0.0 0.01 0.009999999500000037 0.0 -8.808646098205443e-12 0.0 0.01 0.0 -8.808646098205443e-12 0.0 0.01 0.009999999500000037 0.0 2.991011699390651e-11 0.0 0.01 0.0 2.991011699390651e-11 0.0 0.01 0.009999998500000338 0.0 4.1119443324956195e-12 0.0 0.01 0.0 4.1119443324956195e-12 0.0 0.01 0.009999998500000338 0.0 5.891719998799699e-12 0.0 0.01 0.0 5.891719998799699e-12 0.0 0.01 0.009999998500000338 0.0 -4.1326113324914104e-13 0.0 0.01 0.0 -4.1326113324914104e-13 0.0 0.01 0.009999998500000338 0.0 -2.5693681689430784e-18 0.0 0.01 0.0 -2.5693681689430784e-18 0.0 0.01 0.00999999900000015 0.0 -1.6603737496617373e-11 0.0 0.01 0.0 -1.6603737496617373e-11 0.0 0.01 0.00999999900000015 0.0 -5.756357998827276e-12 0.0 0.01 0.0 -5.756357998827276e-12 0.0 0.01 0.00999999950000004 0.0 1.0859805677891016e-15 0.0 0.01 0.0 1.085980571097824e-15 0.0 0.010000000000000004 0.009999999500000039 0.0 4.0537637103012675e-15 0.0 0.01 0.0 4.053763697066378e-15 0.0 0.010000000000000002 0.0099999980000006 0.0 7.102645748553001e-12 0.0 0.01 0.0 7.102645748553001e-12 0.0 0.01 0.009999998500000338 0.0 2.7027724912520436e-18 0.0 0.01 0.0 2.7027724912520436e-18 0.0 0.01 0.009999998500000338 0.0 5.84523299880917e-12 0.0 0.01 0.0 5.84523299880917e-12 0.0 0.01 0.009999998500000338 0.0 -1.4357286997075035e-11 0.0 0.01 0.0 -1.4357286997075035e-11 0.0 0.01 0.009999998500000341 0.0 1.2318157225516995e-14 0.0 0.01 0.0 1.2318157225516995e-14 0.0 0.010000000000000004 0.009999998500000336 0.0 1.0666422117537805e-13 0.0 0.01 0.0 1.0666422096361982e-13 0.0 0.01 0.009999999000000152 0.0 2.9312458510395755e-13 0.0 0.01 0.0 2.931245859509905e-13 0.0 0.009999999999999998 0.009999999500000042 0.0 5.065277133142884e-13 0.0 0.01 0.0 5.065277116202225e-13 0.0 0.010000000000000004 0.009999997000001351 0.0 5.670529945902931e-18 0.0 0.01 0.0 5.670529945902931e-18 0.0 0.01 0.009999997000001351 0.0 2.934794528576087e-18 0.0 0.01 0.0 2.934794528576087e-18 0.0 0.01 0.009999997000001351 0.0 4.0829955616572424e-18 0.0 0.01 0.0 4.0829955616572424e-18 0.0 0.01 0.009999997500000937 0.0 6.207829179785668e-14 0.0 0.01 0.0 6.207829179785668e-14 0.0 0.010000000000000002 0.00999999750000094 0.0 5.025142111710827e-13 0.0 0.01 0.0 5.025142115945992e-13 0.0 0.01 0.0099999980000006 0.0 1.6913535933675387e-12 0.0 0.01 0.0 1.6913535933675387e-12 0.0 0.010000000000000002 0.009999998500000341 0.0 3.4773219121319275e-12 0.0 0.01 0.0 3.4773219121319275e-12 0.0 0.01 0.009999999000000152 0.0 5.297680696902951e-12 0.0 0.01 0.0 5.2976806901266875e-12 0.0 0.01 0.009999996500001837 0.0 -5.807297857468814e-12 0.0 0.01 0.0 -5.807297857468814e-12 0.0 0.01 0.009999996500001837 0.0 7.05075679839761e-18 0.0 0.01 0.0 7.05075679839761e-18 0.0 0.01 0.009999996500001837 0.0 6.830932418527087e-14 0.0 0.01 0.0 6.830932415880109e-14 0.0 0.010000000000000002 0.009999996500001834 0.0 8.383684096440944e-13 0.0 0.01 0.0 8.383684096440944e-13 0.0 0.009999999999999998 0.00999999650000184 0.0 3.759813175111871e-12 0.0 0.01 0.0 3.759813175111871e-12 0.0 0.010000000000000004 0.009999997000001346 0.0 1.000665650059511e-11 0.0 0.01 0.0 1.000665650059511e-11 0.0 0.009999999999999997 0.00999999750000094 0.0 1.883743441994431e-11 0.0 0.01 0.0 1.883743440639178e-11 0.0 0.009999999999999998 0.00999999850000034 0.0 2.6485353054597413e-11 0.0 0.01 0.0 2.6485353054597413e-11 0.0 0.010000000000000002 0.0099999940000054 0.0 -3.0933348663724926e-18 0.0 0.01 0.0 -3.0933348663724926e-18 0.0 0.01 0.009999994000005402 0.0 1.6732305443230704e-14 0.0 0.01 0.0 1.6732305443230704e-14 0.0 0.010000000000000002 0.009999994500004536 0.0 6.207938881140249e-13 0.0 0.01 0.0 6.207938879022667e-13 0.0 0.01 0.009999995000003752 0.0 4.220727982951465e-12 0.0 0.01 0.0 4.2207279846455305e-12 0.0 0.01 0.009999995500003037 0.0 1.5259433704139548e-11 0.0 0.01 0.0 1.5259433704139548e-11 0.0 0.01 0.009999996000002403 0.0 3.728986410834242e-11 0.0 0.01 0.0 3.728986410834242e-11 0.0 0.01 0.00999999650000184 0.0 6.763043451001385e-11 0.0 0.01 0.0 6.76304344829088e-11 0.0 0.010000000000000004 0.009999997000001353 0.0 9.240393845054429e-11 0.0 0.01 0.0 9.240393845054429e-11 0.0 0.010000000000000004 0.009999992000009601 0.0 -1.0668098125252267e-12 0.0 0.01 0.0 -1.0668098125252267e-12 0.0 0.01 0.009999992500008437 0.0 1.6954023925912664e-13 0.0 0.01 0.0 1.695402393120662e-13 0.0 0.009999999999999998 0.00999999250000844 0.0 2.447487946546787e-12 0.0 0.01 0.0 2.447487946546787e-12 0.0 0.01 0.009999992500008437 0.0 1.3100682759887303e-11 0.0 0.01 0.0 1.3100682759887303e-11 0.0 0.009999999999999998 0.009999993000007349 0.0 4.319707463365692e-11 0.0 0.01 0.0 4.3197074660761975e-11 0.0 0.01 0.009999993000007354 0.0 1.0265561222800625e-10 0.0 0.01 0.0 1.0265561220090119e-10 0.0 0.010000000000000004 0.009999994000005405 0.0 1.8551006304018403e-10 0.0 0.01 0.0 1.8551006304018403e-10 0.0 0.010000000000000004 0.00999999500000376 0.0 2.546758549491421e-10 0.0 0.01 0.0 2.5467585484072186e-10 0.0 0.009999999500000046 0.009999989500016538 0.0 2.364614753129562e-15 0.0 0.01 0.0 2.364614753129562e-15 0.0 0.010000000500000038 0.00999998950001654 0.0 5.787924318061548e-13 0.0 0.01 0.0 5.787924317002756e-13 0.0 0.010000000500000038 0.00999998950001654 0.0 6.069737395430184e-12 0.0 0.01 0.0 6.069737395430184e-12 0.0 0.01000000050000004 0.009999990000015002 0.0 2.927633278558832e-11 0.0 0.01 0.0 2.927633278558832e-11 0.0 0.010000000500000042 0.009999990000015 0.0 9.339158492502244e-11 0.0 0.01 0.0 9.339158491146991e-11 0.0 0.010000000000000002 0.009999991000012155 0.0 2.2223741998148722e-10 0.0 0.01 0.0 2.2223741998148722e-10 0.0 0.010000000000000007 0.00999999150001086 0.0 4.0828244946130784e-10 0.0 0.01 0.0 4.0828244946130784e-10 0.0 0.010000000000000024 0.009999992500008489 0.0 5.725764128236208e-10 0.0 0.01 0.0 5.725764128236208e-10 0.0 0.009999999500000089 0.00999998450003604 0.0 1.1682185215054778e-14 0.0 0.01 0.0 1.1682185215054778e-14 0.0 0.01000000050000004 0.00999998500003375 0.0 1.148999901041729e-12 0.0 0.01 0.0 1.148999901041729e-12 0.0 0.010000000500000036 0.0099999860000294 0.0 1.0737601561407596e-11 0.0 0.01 0.0 1.0737601561407596e-11 0.0 0.010000001000000149 0.0099999860000294 0.0 5.004470741211712e-11 0.0 0.01 0.0 5.0044707418893386e-11 0.0 0.01000000100000015 0.009999986000029402 0.0 1.5953037194483145e-10 0.0 0.01 0.0 1.5953037194483145e-10 0.0 0.010000000500000038 0.009999986500027359 0.0 3.860196782991439e-10 0.0 0.01 0.0 3.86019678353354e-10 0.0 0.010000000000000021 0.009999987500023514 0.0 7.257416393107591e-10 0.0 0.01 0.0 7.257416393107591e-10 0.0 0.010000000000000077 0.009999989500016699 0.0 1.0384693088089092e-09 0.0 0.01 0.0 1.0384693088089092e-09 0.0 0.009999999000000313 0.009999979500063037 0.0 1.504247950200694e-14 0.0 0.01 0.0 1.504247950200694e-14 0.0 0.01000000100000015 0.009999979500063039 0.0 1.4962691232524246e-12 0.0 0.01 0.0 1.4962691232524246e-12 0.0 0.010000001000000149 0.009999980500057041 0.0 1.4129551290448174e-11 0.0 0.01 0.0 1.4129551289601141e-11 0.0 0.010000001000000154 0.009999980500057036 0.0 6.681781909316292e-11 0.0 0.01 0.0 6.681781908638666e-11 0.0 0.010000001450000314 0.009999980500057043 0.0 2.17686095928607e-10 0.0 0.01 0.0 2.17686095928607e-10 0.0 0.010000001000000154 0.009999982500045981 0.0 5.406986712205332e-10 0.0 0.01 0.0 5.406986712205332e-10 0.0 0.010000000500000081 0.009999983000043513 0.0 1.0407329960934047e-09 0.0 0.01 0.0 1.0407329960934047e-09 0.0 0.01000000000000016 0.009999984000038745 0.0 1.5135180404975135e-09 0.0 0.01 0.0 1.5135180404975135e-09 0.0 0.009999999000000493 0.009999972000117601 0.0 5.077892434671361e-15 0.0 0.01 0.0 5.077892434464566e-15 0.0 0.010000001000000152 0.0099999720001176 0.0 1.2765237120238982e-12 0.0 0.01 0.0 1.2765237120238982e-12 0.0 0.01000000195000057 0.009999972000117596 0.0 1.381635651376891e-11 0.0 0.01 0.0 1.3816356512074844e-11 0.0 0.01000000195000057 0.00999997350010534 0.0 6.961978862602292e-11 0.0 0.01 0.0 6.961978862941105e-11 0.0 0.010000001950000571 0.00999997400010141 0.0 2.3707089976288554e-10 0.0 0.01 0.0 2.3707089976288554e-10 0.0 0.01000000195000058 0.009999975000093805 0.0 6.105615932272806e-10 0.0 0.01 0.0 6.105615932001755e-10 0.0 0.010000001450000373 0.009999976500083054 0.0 1.2051710420639752e-09 0.0 0.01 0.0 1.2051710421723955e-09 0.0 0.010000000500000255 0.009999977500076406 0.0 1.7690875794449876e-09 0.0 0.01 0.0 1.7690875793365674e-09 0.0 0.010000000000000469 0.009999962500210936 0.0 1.4210685220792467e-17 0.0 0.01 0.0 1.4210685220792467e-17 0.0 0.01000000195000057 0.009999963000205347 0.0 6.30724181282738e-13 0.0 0.01 0.0 6.307241813092078e-13 0.0 0.010000002450000899 0.00999996300020535 0.0 9.607418429844123e-12 0.0 0.01 0.0 9.607418429420606e-12 0.0 0.010000002950001304 0.00999996300020535 0.0 5.5326791152649326e-11 0.0 0.01 0.0 5.5326791152649326e-11 0.0 0.010000003400001737 0.009999964500189045 0.0 2.0326567627692877e-10 0.0 0.01 0.0 2.032656762904813e-10 0.0 0.010000003400001744 0.009999965500178584 0.0 5.520675873101153e-10 0.0 0.01 0.0 5.520675872830103e-10 0.0 0.01000000295000135 0.009999967000163538 0.0 1.1257485912430712e-09 0.0 0.01 0.0 1.125748591188861e-09 0.0 0.01000000245000109 0.009999970000135418 0.0 1.672565387296314e-09 0.0 0.01 0.0 1.6725653871878937e-09 0.0 0.01000000145000073 0.009999948500397832 0.0 -1.5604957356942433e-17 0.0 0.01 0.0 -1.5604957356942433e-17 0.0 0.010000002950001304 0.009999949000390149 0.0 1.0451279377941997e-13 0.0 0.01 0.0 1.0451279377941997e-13 0.0 0.010000003400001735 0.009999950500367533 0.0 4.182231571002189e-12 0.0 0.01 0.0 4.182231571002189e-12 0.0 0.010000004900003603 0.009999951000360148 0.0 3.149236130390882e-11 0.0 0.01 0.0 3.149236130390882e-11 0.0 0.010000005350004294 0.009999951500352836 0.0 1.320362802992585e-10 0.0 0.01 0.0 1.3203628030264663e-10 0.0 0.010000005850005133 0.00999995250033846 0.0 3.8960449094877815e-10 0.0 0.01 0.0 3.8960449094877815e-10 0.0 0.010000005850005158 0.009999954000317505 0.0 8.361257952823296e-10 0.0 0.01 0.0 8.361257952552246e-10 0.0 0.01000000490000371 0.00999995700027759 0.0 1.2771705551321323e-09 0.0 0.01 0.0 1.2771705551321323e-09 0.0 0.010000004400003145 0.00999993200069359 0.0 8.954500902805489e-17 0.0 0.01 0.0 8.954500902805489e-17 0.0 0.010000003900002281 0.00999993250068343 0.0 2.0283492407673464e-16 0.0 0.01 0.0 2.0283492407673464e-16 0.0 0.010000005350004294 0.009999933000673342 0.0 7.855959030594166e-13 0.0 0.01 0.0 7.855959030594166e-13 0.0 0.010000006350006049 0.00999993350066333 0.0 1.0977055282778423e-11 0.0 0.01 0.0 1.0977055282566665e-11 0.0 0.010000006850007036 0.009999934000653398 0.0 5.915658299993727e-11 0.0 0.01 0.0 5.915658299993727e-11 0.0 0.010000008300010335 0.009999935500624033 0.0 2.0005284856458648e-10 0.0 0.01 0.0 2.0005284856458648e-10 0.0 0.01000000880001162 0.009999937000595375 0.0 4.689787120524787e-10 0.0 0.01 0.0 4.689787120389262e-10 0.0 0.010000008300010365 0.009999940000540082 0.0 7.546528476719185e-10 0.0 0.01 0.0 7.546528476719185e-10 0.0 0.01000000830001042 0.009999910001214982 0.0 1.2314726134070553e-16 0.0 0.01 0.0 1.2314726134070553e-16 0.0 0.010000005350004294 0.009999909501228518 0.0 2.1631345459557303e-16 0.0 0.01 0.0 2.1631345459557303e-16 0.0 0.010000006350006049 0.009999910001214982 0.0 2.3663780501122336e-16 0.0 0.01 0.0 2.3663780501122336e-16 0.0 0.010000008300010334 0.009999910001214984 0.0 1.416808657750396e-12 0.0 0.01 0.0 1.4168086577239261e-12 0.0 0.010000010750017335 0.00999991150117482 0.0 1.4211903910985087e-11 0.0 0.01 0.0 1.4211903910985087e-11 0.0 0.010000012700024192 0.009999912501148425 0.0 6.322159065523785e-11 0.0 0.01 0.0 6.322159065439082e-11 0.0 0.010000012700024194 0.00999991400110939 0.0 1.7208930079356415e-10 0.0 0.01 0.0 1.7208930079017602e-10 0.0 0.010000013200026142 0.009999916501045838 0.0 3.0614031175011346e-10 0.0 0.01 0.0 3.061403117568897e-10 0.0 0.010000013200026149 0.009999881502106296 0.0 5.105129119216651e-17 0.0 0.01 0.0 5.105129119216651e-17 0.0 0.010000006350006049 0.009999881502106296 0.0 4.0684072045584405e-16 0.0 0.01 0.0 4.0684072045584405e-16 0.0 0.010000008800011615 0.00999988200208856 0.0 4.706753004098275e-16 0.0 0.01 0.0 4.706753004098275e-16 0.0 0.010000012200022326 0.009999881502106296 0.0 -1.1133627231603487e-15 0.0 0.01 0.0 -1.1133627231603487e-15 0.0 0.010000014150030033 0.0099998815021063 0.0 6.155092958252801e-13 0.0 0.01 0.0 6.155092958186627e-13 0.0 0.010000016100038884 0.009999882502070897 0.0 7.301395089215436e-12 0.0 0.01 0.0 7.301395089215436e-12 0.0 0.010000017600046469 0.0099998835020358 0.0 2.8226182266777582e-11 0.0 0.01 0.0 2.8226182266354066e-11 0.0 0.010000017600046464 0.00999988500198371 0.0 5.94686941004515e-11 0.0 0.01 0.0 5.94686941004515e-11 0.0 0.010000019050054432 0.009999844003650305 0.0 -2.975822817296209e-17 0.0 0.01 0.0 -2.975822817296209e-17 0.0 0.010000009300012973 0.009999843503673741 0.0 2.944783110484414e-16 0.0 0.01 0.0 2.944783110484414e-16 0.0 0.010000012200022326 0.009999843503673741 0.0 3.5107990496445096e-16 0.0 0.01 0.0 3.5107990496445096e-16 0.0 0.010000015600036504 0.009999842503720841 0.0 -1.9069337049593553e-15 0.0 0.01 0.0 -1.9069337049593553e-15 0.0 0.010000018550051617 0.009999842503720841 0.0 -1.074430404289863e-14 0.0 0.01 0.0 -1.074430404289863e-14 0.0 0.010000021950072272 0.009999843003697257 0.0 -2.985485493643042e-14 0.0 0.01 0.0 -2.985485493663721e-14 0.0 0.010000023450082489 0.009999843003697254 0.0 1.402348962619083e-13 0.0 0.01 0.0 1.4023489626356267e-13 0.0 0.010000024900093002 0.009999844503626943 0.0 9.880290595536768e-13 0.0 0.01 0.0 9.880290595602943e-13 0.0 0.010000026350104151 0.009999798006120393 0.0 8.573687186680646e-17 0.0 0.01 0.0 8.573687186680646e-17 0.0 0.010000011250018984 0.009999796506211626 0.0 6.243811019265481e-16 0.0 0.01 0.0 6.243811019265481e-16 0.0 0.010000015600036504 0.00999979400636518 0.0 5.781786556553885e-16 0.0 0.01 0.0 5.781786556553885e-16 0.0 0.01000002100006615 0.009999792506458216 0.0 -2.938236222313095e-15 0.0 0.01 0.0 -2.938236222313095e-15 0.0 0.010000024900093003 0.009999791506520611 0.0 -1.6499784989689058e-14 0.0 0.01 0.0 -1.6499784989689058e-14 0.0 0.010000029300128775 0.009999790506583313 0.0 -4.751857698333573e-14 0.0 0.01 0.0 -4.751857698333573e-14 0.0 0.01000003125014649 0.009999791006551923 0.0 -8.908379256498161e-14 0.0 0.01 0.0 -8.908379256498161e-14 0.0 0.010000033700170358 0.00999979150652061 0.0 -9.526253082568077e-14 0.0 0.01 0.0 -9.526253082568077e-14 0.0 0.010000037100206461 0.00999973851025689 0.0 -3.155546645453859e-16 0.0 0.01 0.0 -3.155546645453859e-16 0.0 0.010000015150034429 0.009999735010533285 0.0 6.489979481815506e-16 0.0 0.01 0.0 6.489979481815506e-16 0.0 0.010000020500063036 0.009999731510813353 0.0 7.992292663052929e-16 0.0 0.01 0.0 7.992292663052929e-16 0.0 0.010000025900100622 0.009999728011097102 0.0 -5.0821990762911584e-15 0.0 0.01 0.0 -5.0821990762911584e-15 0.0 0.010000032700160397 0.009999725011343233 0.0 -2.6425301987559948e-14 0.0 0.01 0.0 -2.642530198745655e-14 0.0 0.010000038100217745 0.009999723011508818 0.0 -7.401894476041941e-14 0.0 0.01 0.0 -7.4018944760833e-14 0.0 0.010000041000252152 0.009999722511550402 0.0 -1.3348844266014812e-13 0.0 0.01 0.0 -1.3348844266014812e-13 0.0 0.010000045400309176 0.009999722011592061 0.0 -1.3881328409256292e-13 0.0 0.01 0.0 -1.3881328409256292e-13 0.0 0.010000051750401712 0.009999662017135634 0.0 -8.48438079865573e-16 0.0 0.01 0.0 -8.48438079865573e-16 0.0 0.01000002000006 0.009999657017646341 0.0 3.7447401332103816e-16 0.0 0.01 0.0 3.7447401332103816e-16 0.0 0.010000025900100622 0.009999651518216779 0.0 3.426737491331821e-16 0.0 0.01 0.0 3.426737491331821e-16 0.0 0.010000033700170356 0.009999646518743235 0.0 -9.21480844368608e-15 0.0 0.01 0.0 -9.21480844368608e-15 0.0 0.010000042000264603 0.009999640519384876 0.0 -4.242153783666232e-14 0.0 0.01 0.0 -4.242153783666232e-14 0.0 0.010000049800372009 0.009999635519927826 0.0 -1.1604619130702396e-13 0.0 0.01 0.0 -1.1604619130702396e-13 0.0 0.010000053200424538 0.009999632020312357 0.0 -2.013245865826446e-13 0.0 0.01 0.0 -2.013245865826446e-13 0.0 0.010000058100506349 0.009999630020533733 0.0 -1.9015309473684618e-13 0.0 0.01 0.0 -1.9015309473684618e-13 0.0 0.010000069350721423 0.00999956702812132 0.0 -2.1434753656306082e-15 0.0 0.01 0.0 -2.1434753656306082e-15 0.0 0.010000026850108139 0.00999956002903787 0.0 -1.4379900206827594e-15 0.0 0.01 0.0 -1.4379900206827594e-15 0.0 0.010000034200175447 0.009999552030103352 0.0 -2.9432138218190912e-15 0.0 0.01 0.0 -2.9432138218190912e-15 0.0 0.010000043950289743 0.00999954403118803 0.0 -1.8892610361656153e-14 0.0 0.01 0.0 -1.8892610361656153e-14 0.0 0.01000005420044065 0.009999534032570872 0.0 -7.397813810611557e-14 0.0 0.01 0.0 -7.397813810590878e-14 0.0 0.010000063000595359 0.009999525533769867 0.0 -1.8963838496234707e-13 0.0 0.01 0.0 -1.896383849615199e-13 0.0 0.010000067400681422 0.009999517034990534 0.0 -3.0680118036541913e-13 0.0 0.01 0.0 -3.068011803662463e-13 0.0 0.010000074700837025 0.009999510535938606 0.0 -2.2672467208978387e-13 0.0 0.01 0.0 -2.2672467208978387e-13 0.0 0.010000092301277913 0.009999452045041489 0.0 -7.202272142662811e-15 0.0 0.01 0.0 -7.202272142662811e-15 0.0 0.010000038100217745 0.00999944354644953 0.0 -7.42291104667764e-15 0.0 0.01 0.0 -7.42291104667764e-15 0.0 0.010000046850329241 0.009999431548474245 0.0 -1.258527498998553e-14 0.0 0.01 0.0 -1.258527498993383e-14 0.0 0.010000058100506347 0.009999417550890998 0.0 -4.5042365727603546e-14 0.0 0.01 0.0 -4.5042365727603546e-14 0.0 0.010000071300762563 0.009999402553545606 0.0 -1.424573701361585e-13 0.0 0.01 0.0 -1.424573701357449e-13 0.0 0.010000081550997573 0.009999387056359594 0.0 -3.3153896029019005e-13 0.0 0.01 0.0 -3.315389602885357e-13 0.0 0.010000084951082492 0.009999373558869191 0.0 -4.850635856457507e-13 0.0 0.01 0.0 -4.850635856457507e-13 0.0 0.010000092751290404 0.009999361561145831 0.0 -2.4595027699324187e-13 0.0 0.01 0.0 -2.4595027699324187e-13 0.0 0.010000117702078034 0.009999315570273018 0.0 -2.2537122297439763e-14 0.0 0.01 0.0 -2.2537122297439763e-14 0.0 0.010000051250393986 0.009999302572967455 0.0 -2.5302459793294703e-14 0.0 0.01 0.0 -2.5302459793346402e-14 0.0 0.010000064950632782 0.009999287576139394 0.0 -4.043738317497296e-14 0.0 0.01 0.0 -4.043738317486956e-14 0.0 0.010000079600950436 0.009999268080363798 0.0 -1.0546652198035089e-13 0.0 0.01 0.0 -1.0546652198035089e-13 0.0 0.010000097151415742 0.009999245585379804 0.0 -2.9454677700200806e-13 0.0 0.01 0.0 -2.9454677700159447e-13 0.0 0.010000108901778916 0.009999222090780828 0.0 -6.333833350230599e-13 0.0 0.01 0.0 -6.333833350230599e-13 0.0 0.010000108401762615 0.009999199096227306 0.0 -8.487820331516253e-13 0.0 0.01 0.0 -8.487820331516253e-13 0.0 0.010000112801908613 0.009999178101338718 0.0 -2.6193912243634907e-13 0.0 0.01 0.0 -2.6193912243634907e-13 0.0 0.010000147453261308 0.00999916310507069 0.0 -5.758943011020998e-14 0.0 0.01 0.0 -5.758943011031337e-14 0.0 0.010000074700837022 0.009999147109125837 0.0 -6.599746973282736e-14 0.0 0.01 0.0 -6.599746973272396e-14 0.0 0.010000090801236714 0.009999126114564714 0.0 -9.778186958438217e-14 0.0 0.01 0.0 -9.778186958438217e-14 0.0 0.010000113751940898 0.009999098621887026 0.0 -2.3801090646961487e-13 0.0 0.01 0.0 -2.3801090647002846e-13 0.0 0.010000136702803098 0.009999067130553051 0.0 -6.448080494951214e-13 0.0 0.01 0.0 -6.448080494959486e-13 0.0 0.010000151853458853 0.009999034139950872 0.0 -1.3456017043564804e-12 0.0 0.01 0.0 -1.3456017043581348e-12 0.0 0.010000144053112638 0.009999001149675227 0.0 -1.7138021715976331e-12 0.0 0.01 0.0 -1.7138021716009419e-12 0.0 0.010000136252784673 0.009998970159107685 0.0 -3.833559064341385e-13 0.0 0.01 0.0 -3.833559064349657e-13 0.0 0.010000177254712772 0.009999007147882877 0.0 -1.21731874700891e-13 0.0 0.01 0.0 -1.217318747010978e-13 0.0 0.010000107401730246 0.009998985154507613 0.0 -1.287911320751114e-13 0.0 0.01 0.0 -1.287911320751114e-13 0.0 0.010000133802685425 0.00999895716314899 0.0 -1.8716761806392632e-13 0.0 0.01 0.0 -1.8716761806351273e-13 0.0 0.01000016845425643 0.00999892267411967 0.0 -5.139113262822416e-13 0.0 0.01 0.0 -5.139113262822416e-13 0.0 0.010000204106248736 0.00999888118778913 0.0 -1.485848832282036e-12 0.0 0.01 0.0 -1.4858488322836903e-12 0.0 0.010000225107600789 0.009998838702323173 0.0 -3.1417279970302316e-12 0.0 0.01 0.0 -3.141727997026923e-12 0.0 0.010000206556399657 0.00999879371830244 0.0 -3.946488933325009e-12 0.0 0.01 0.0 -3.946488933331626e-12 0.0 0.010000170904381147 0.009998750734138782 0.0 -1.049565619595644e-12 0.0 0.01 0.0 -1.049565619595644e-12 0.0 0.010000209456580629 0.009998865693027041 0.0 -1.992653366620882e-13 0.0 0.01 0.0 -1.992653366620882e-13 0.0 0.010000156253662205 0.009998839701974972 0.0 -1.7876199056625299e-13 0.0 0.01 0.0 -1.7876199056625299e-13 0.0 0.01000020165609961 0.009998804214519638 0.0 -2.823273832213301e-13 0.0 0.01 0.0 -2.823273832209165e-13 0.0 0.010000258810047048 0.009998761230220612 0.0 -1.0814207362050949e-12 0.0 0.01 0.0 -1.0814207362050949e-12 0.0 0.010000316915064637 0.009998712748595097 0.0 -3.5353444618946253e-12 0.0 0.01 0.0 -3.5353444618946253e-12 0.0 0.010000351568539196 0.009998660269279862 0.0 -7.725835137624335e-12 0.0 0.01 0.0 -7.725835137617717e-12 0.0 0.010000318365202812 0.009998606791208703 0.0 -9.699460987415993e-12 0.0 0.01 0.0 -9.699460987402758e-12 0.0 0.010000233908206703 0.00999855481334505 0.0 -3.408182464979873e-12 0.0 0.01 0.0 -3.408182464979873e-12 0.0 0.010000249509337929 0.009998769727072967 0.0 -2.2978147274602926e-13 0.0 0.01 0.0 -2.2978147274602926e-13 0.0 0.0100002300079353 0.009998738238846363 0.0 -9.936680922183718e-14 0.0 0.01 0.0 -9.936680922204397e-14 0.0 0.01000030616405989 0.009998698254225438 0.0 -2.9070551760510783e-13 0.0 0.01 0.0 -2.9070551760510783e-13 0.0 0.010000401874224138 0.009998650773111111 0.0 -2.2417496629031423e-12 0.0 0.01 0.0 -2.241749662901488e-12 0.0 0.01000049758713648 0.009998596295613229 0.0 -8.30976467765933e-12 0.0 0.01 0.0 -8.30976467765933e-12 0.0 0.010000555246241336 0.009998540819443335 0.0 -1.8603834539182375e-11 0.0 0.01 0.0 -1.8603834539182375e-11 0.0 0.010000509788980072 0.009998482845333598 0.0 -2.349006140888643e-11 0.0 0.01 0.0 -2.349006140888643e-11 0.0 0.010000359869424965 0.009998425871759982 0.0 -9.689718130204329e-12 0.0 0.01 0.0 -9.689718130210946e-12 0.0 0.01000032471581537 0.009998759230964384 0.0 -1.1307538209660453e-13 0.0 0.01 0.0 -1.1307538209660453e-13 0.0 0.010000335466879952 0.009998723244557303 0.0 2.945618665149079e-13 0.0 0.01 0.0 2.945618665149079e-13 0.0 0.010000463432213424 0.009998681260906793 0.0 -6.0199974271901e-14 0.0 0.01 0.0 -6.0199974271901e-14 0.0 0.010000621157870771 0.00999863427982969 0.0 -4.491284303050794e-12 0.0 0.01 0.0 -4.491284303050794e-12 0.0 0.010000774990082137 0.009998583800899801 0.0 -1.8106158199054418e-11 0.0 0.01 0.0 -1.8106158199041183e-11 0.0 0.010000864362055351 0.009998530823835226 0.0 -4.1006269450989656e-11 0.0 0.01 0.0 -4.1006269451042596e-11 0.0 0.010000809648318945 0.009998475848526488 0.0 -5.2121064599359734e-11 0.0 0.01 0.0 -5.2121064599359734e-11 0.0 0.010000612356242436 0.009998424372468569 0.0 -2.3315071331838167e-11 0.0 0.01 0.0 -2.3315071331838167e-11 0.0 0.010000496136920337 0.009998873190483572 0.0 2.5025709262040725e-13 0.0 0.01 0.0 2.5025709262040725e-13 0.0 0.010000483935126717 0.00999884020180099 0.0 1.1890724401909406e-12 0.0 0.01 0.0 1.1890724401917678e-12 0.0 0.010000686120607765 0.009998801715417314 0.0 4.762841074616522e-13 0.0 0.01 0.0 4.762841074612386e-13 0.0 0.010000930779936572 0.009998761230220608 0.0 -8.35649573411572e-12 0.0 0.01 0.0 -8.35649573411572e-12 0.0 0.010001165753815615 0.009998722744748828 0.0 -3.484991063984897e-11 0.0 0.01 0.0 -3.484991063987544e-11 0.0 0.010001304955391851 0.009998683759918811 0.0 -7.83015197287383e-11 0.0 0.01 0.0 -7.83015197287383e-11 0.0 0.01000125513626552 0.00999864477554479 0.0 -9.986942373671096e-11 0.0 0.01 0.0 -9.986942373665802e-11 0.0 0.010001069971701426 0.009998606791208705 0.0 -4.696015311583061e-11 0.0 0.01 0.0 -4.696015311583061e-11 0.0 0.010000892219394115 0.00999914960848716 0.0 8.567654472109566e-13 0.0 0.01 0.0 8.567654472093022e-13 0.0 0.010000677318807903 0.009999123615221003 0.0 2.4732546914029185e-12 0.0 0.01 0.0 2.473254691401264e-12 0.0 0.01000097769336396 0.009999096122563934 0.0 1.1208788566704233e-12 0.0 0.01 0.0 1.1208788566704233e-12 0.0 0.010001334717172945 0.009999072629018496 0.0 -1.379962595746195e-11 0.0 0.01 0.0 -1.3799625957455333e-11 0.0 0.010001674270383355 0.009999052634642172 0.0 -5.696276633718336e-11 0.0 0.01 0.0 -5.696276633720983e-11 0.0 0.010001897039677425 0.009999036639227485 0.0 -1.2632263653672403e-10 0.0 0.01 0.0 -1.263226365366711e-10 0.0 0.010001954672962632 0.0099990226433026 0.0 -1.6022018654770413e-10 0.0 0.01 0.0 -1.6022018654770413e-10 0.0 0.010001924405357906 0.009999008647436474 0.0 -7.812863830144723e-11 0.0 0.01 0.0 -7.812863830144723e-11 0.0 0.010001754361559707 0.009999598024238976 0.0 1.4432486277794827e-12 0.0 0.01 0.0 1.443248627781137e-12 0.0 0.010000906373211967 0.009999585025831963 0.0 3.5843879954895153e-12 0.0 0.01 0.0 3.5843879954895153e-12 0.0 0.010001324463083909 0.009999575027091829 0.0 1.4021229159265845e-12 0.0 0.01 0.0 1.4021229159265845e-12 0.0 0.010001815444256037 0.009999573027347407 0.0 -1.928781017296244e-11 0.0 0.01 0.0 -1.928781017296244e-11 0.0 0.010002288385266468 0.009999578526647467 0.0 -7.709252492741135e-11 0.0 0.01 0.0 -7.709252492735841e-11 0.0 0.010002664614647428 0.00999959052515183 0.0 -1.680425068637997e-10 0.0 0.01 0.0 -1.680425068637997e-10 0.0 0.010003003802882916 0.009999605023402212 0.0 -2.1207140401573203e-10 0.0 0.01 0.0 -2.120714040158379e-10 0.0 0.01000339672988261 0.00999961902177277 0.0 -1.0475033168701759e-10 0.0 0.01 0.0 -1.0475033168701759e-10 0.0 0.010003320503129241 0.0100001909054666 0.0 1.6408509123449246e-12 0.0 0.01 0.0 1.6408509123449246e-12 0.0 0.010001155000072967 0.010000193855636857 0.0 3.836039174878652e-12 0.0 0.01 0.0 3.836039174872034e-12 0.0 0.010001699633214785 0.010000204106248736 0.0 1.0272708981456614e-12 0.0 0.01 0.0 1.0272708981456614e-12 0.0 0.010002335768117107 0.010000224607567056 0.0 -2.1973296451201503e-11 0.0 0.01 0.0 -2.1973296451214738e-11 0.0 0.010002961264844262 0.010000253909670192 0.0 -8.380572434257735e-11 0.0 0.01 0.0 -8.380572434263029e-11 0.0 0.010003541930902884 0.010000291012702774 0.0 -1.7895481805045405e-10 0.0 0.01 0.0 -1.78954818050507e-10 0.0 0.010004304527749567 0.010000331566489733 0.0 -2.2355398235096938e-10 0.0 0.01 0.0 -2.2355398235091644e-10 0.0 0.010005301563007355 0.010000372570820322 0.0 -1.1056494359742974e-10 0.0 0.01 0.0 -1.1056494359740327e-10 0.0 0.010005347536365446 0.010000847257664673 0.0 1.3218566808486273e-12 0.0 0.01 0.0 1.3218566808486273e-12 0.0 0.01000139924362763 0.010000865362314834 0.0 3.066990850355011e-12 0.0 0.01 0.0 3.066990850355011e-12 0.0 0.010002066540411933 0.010000893669782579 0.0 2.8717653105872075e-13 0.0 0.01 0.0 2.8717653105872075e-13 0.0 0.010002839609049158 0.01000093178021598 0.0 -1.991624246303147e-11 0.0 0.01 0.0 -1.9916242463018234e-11 0.0 0.01000361035425791 0.010000978193510666 0.0 -7.232554220602895e-11 0.0 0.01 0.0 -7.232554220600248e-11 0.0 0.010004378373845869 0.01000103140954891 0.0 -1.5101237128104002e-10 0.0 0.01 0.0 -1.5101237128104002e-10 0.0 0.010005500635221813 0.010001090978509155 0.0 -1.8573824420807068e-10 0.0 0.01 0.0 -1.8573824420807068e-10 0.0 0.010006977997076894 0.010001149598206025 0.0 -9.485420495351985e-11 0.0 0.01 0.0 -9.485420495349338e-11 0.0 0.010007038173416045 0.010001442211936308 0.0 7.173362180687318e-13 0.0 0.01 0.0 7.173362180621144e-13 0.0 0.01000161464097565 0.010001474426025721 0.0 1.8063190265322505e-12 0.0 0.01 0.0 1.8063190265322505e-12 0.0 0.010002386604110082 0.01000151449398434 0.0 -2.1638304170340883e-13 0.0 0.01 0.0 -2.1638304170340883e-13 0.0 0.010003279462526053 0.010001562866306333 0.0 -1.4175846349651923e-11 0.0 0.01 0.0 -1.4175846349645305e-11 0.0 0.010004168154579331 0.010001617092163505 0.0 -4.985993954598684e-11 0.0 0.01 0.0 -4.985993954601331e-11 0.0 0.010005059987932257 0.010001676671589894 0.0 -1.0254156706186367e-10 0.0 0.01 0.0 -1.025415670618372e-10 0.0 0.010006366424547537 0.010001740704402308 0.0 -1.2658319948412837e-10 0.0 0.01 0.0 -1.2658319948412837e-10 0.0 0.010008025751574409 0.010001802237091732 0.0 -7.170074663495183e-11 0.0 0.01 0.0 -7.170074663493859e-11 0.0 0.0100079636027545 0.010001857917650467 0.0 2.124951121135699e-13 0.0 0.01 0.0 2.1249511211026117e-13 0.0 0.01000178512788849 0.010001898490503109 0.0 7.436357701439246e-13 0.0 0.01 0.0 7.436357701455789e-13 0.0 0.01000263824368232 0.01000194536752101 0.0 -3.036220395445827e-13 0.0 0.01 0.0 -3.036220395445827e-13 0.0 0.010003623068042563 0.010001996697861185 0.0 -7.87916161874382e-12 0.0 0.01 0.0 -7.879161618737202e-12 0.0 0.010004594965116444 0.01000204993015981 0.0 -2.7846219044138804e-11 0.0 0.01 0.0 -2.7846219044138804e-11 0.0 0.010005547112156616 0.010002106615487399 0.0 -5.777712925952861e-11 0.0 0.01 0.0 -5.777712925952861e-11 0.0 0.010006891868135623 0.010002163301778765 0.0 -7.299896136253891e-11 0.0 0.01 0.0 -7.299896136256538e-11 0.0 0.010008532859040256 0.01000221803773553 0.0 -4.1088762917515e-11 0.0 0.01 0.0 -4.1088762917515e-11 0.0 0.010008342477940612 0.010002034820905956 0.0 -2.8318739016934237e-14 0.0 0.01 0.0 -2.8318739016107056e-14 0.0 0.010001906294955553 0.010002078747999382 0.0 1.712053498211971e-13 0.0 0.01 0.0 1.712053498211971e-13 0.0 0.010002815638726938 0.01000212667822172 0.0 -1.7890047661914693e-13 0.0 0.01 0.0 -1.7890047661914693e-13 0.0 0.010003861585625417 0.010002176510373457 0.0 -3.2040131622358212e-12 0.0 0.01 0.0 -3.2040131622374756e-12 0.0 0.010004888332033729 0.010002224842268275 0.0 -1.1732748016179734e-11 0.0 0.01 0.0 -1.1732748016179734e-11 0.0 0.010005865506592139 0.010002273224897844 0.0 -2.507320079464138e-11 0.0 0.01 0.0 -2.5073200794647996e-11 0.0 0.01000718839352798 0.0100023177055149 0.0 -3.161834046540985e-11 0.0 0.01 0.0 -3.161834046540985e-11 0.0 0.010008755635763979 0.01000235923463566 0.0 -1.374351981721786e-11 0.0 0.01 0.0 -1.374351981721786e-11 0.0 0.010008457968496252 0.010002000099899957 0.0 -6.796253418608495e-14 0.0 0.01 0.0 -6.796253417285006e-14 0.0 0.010001981538818842 0.010002043125984038 0.0 -2.1570816873301013e-14 0.0 0.01 0.0 -2.1570816873301013e-14 0.0 0.010002923131205045 0.01000208950472209 0.0 -7.162852461688141e-14 0.0 0.01 0.0 -7.162852461688141e-14 0.0 0.010004007307490615 0.010002134983528626 0.0 -8.139350836895574e-13 0.0 0.01 0.0 -8.13935083689971e-13 0.0 0.010005065846822174 0.010002178911941748 0.0 -3.1444155643327777e-12 0.0 0.01 0.0 -3.1444155643327777e-12 0.0 0.010006053342009534 0.010002216086438264 0.0 -6.896776731270258e-12 0.0 0.01 0.0 -6.896776731270258e-12 0.0 0.01000734498440159 0.010002249308680895 0.0 -8.036692726390034e-12 0.0 0.01 0.0 -8.036692726390034e-12 0.0 0.010008844219211367 0.010002278628585685 0.0 9.664005603869868e-14 0.0 0.01 0.0 9.664005603869868e-14 0.0 0.010008471703316186 0.010001836956037177 0.0 -3.3600440782378715e-14 0.0 0.01 0.0 -3.3600440782378715e-14 0.0 0.010002017710509107 0.010001878479170057 0.0 -3.1155958809268874e-14 0.0 0.01 0.0 -3.1155958809320573e-14 0.0 0.01000297302530655 0.01000192145365578 0.0 -2.1387434557224502e-14 0.0 0.01 0.0 -2.1387434557224502e-14 0.0 0.010004075239783989 0.010001962977841061 0.0 -4.2920671962948996e-14 0.0 0.01 0.0 -4.2920671962948996e-14 0.0 0.010005149474834437 0.010001999149329952 0.0 -1.8186122275539744e-13 0.0 0.01 0.0 -1.8186122275529404e-13 0.0 0.01000614090197356 0.010002029917917769 0.0 -3.5179799284888934e-13 0.0 0.01 0.0 -3.5179799284888934e-13 0.0 0.010007411080483686 0.01000205338228371 0.0 1.4528288591746497e-13 0.0 0.01 0.0 1.4528288591741327e-13 0.0 0.010008869185429545 0.01000207244407569 0.0 2.4513336950257812e-12 0.0 0.01 0.0 2.4513336950257812e-12 0.0 0.01000846187840274 0.010001634700749632 0.0 2.779144158563634e-15 0.0 0.01 0.0 2.779144158563634e-15 0.0 0.010002023063752485 0.010001673269881137 0.0 7.906905296190622e-15 0.0 0.01 0.0 7.906905296190622e-15 0.0 0.01000298083227464 0.010001713340229642 0.0 3.9810943747331806e-15 0.0 0.01 0.0 3.9810943747331806e-15 0.0 0.010004084551171539 0.010001750459509025 0.0 -2.4413269355984482e-14 0.0 0.01 0.0 -2.4413269355984482e-14 0.0 0.010005160742241897 0.01000178172606907 0.0 -6.027904692426024e-14 0.0 0.01 0.0 -6.027904692426024e-14 0.0 0.010006150219130214 0.010001807640016258 0.0 -1.781637051111775e-14 0.0 0.01 0.0 -1.781637051111775e-14 0.0 0.010007412533710212 0.010001824699307658 0.0 1.9485275501149282e-13 0.0 0.01 0.0 1.9485275501149282e-13 0.0 0.010008858456951453 0.010001836956037178 0.0 4.608804514728082e-13 0.0 0.01 0.0 4.608804514729116e-13 0.0 0.010008451151234362 0.010001448564690171 0.0 2.244836410953316e-14 0.0 0.01 0.0 2.2448364109636557e-14 0.0 0.010002003551972264 0.010001483730152961 0.0 5.66308241033237e-14 0.0 0.01 0.0 5.66308241033237e-14 0.0 0.01000295100575146 0.010001520346647818 0.0 1.9286069897438818e-14 0.0 0.01 0.0 1.9286069897438818e-14 0.0 0.0100040444523167 0.010001555062657787 0.0 -3.280031994015587e-13 0.0 0.01 0.0 -3.280031994013519e-13 0.0 0.010005111816931055 0.01000158337598255 0.0 -1.2508611051690048e-12 0.0 0.01 0.0 -1.2508611051690048e-12 0.0 0.010006096871246662 0.010001605386507144 0.0 -2.5884339298001816e-12 0.0 0.01 0.0 -2.5884339298001816e-12 0.0 0.010007364076463647 0.01000162049381494 0.0 -3.1944208999755143e-12 0.0 0.01 0.0 -3.1944208999755143e-12 0.0 0.010008830031664608 0.010001629798349836 0.0 -1.8090500805166483e-12 0.0 0.01 0.0 -1.8090500805166483e-12 0.0 0.01000845064996566 0.010001289299301044 0.0 3.46435258464416e-14 0.0 0.01 0.0 3.46435258464416e-14 0.0 0.010001961026693061 0.010001322062131036 0.0 1.1214748016846341e-13 0.0 0.01 0.0 1.1214748016836001e-13 0.0 0.010002887950557217 0.010001357226259475 0.0 1.504027214376237e-14 0.0 0.01 0.0 1.504027214376237e-14 0.0 0.01000395940028679 0.010001388939319287 0.0 -9.127956499388563e-13 0.0 0.01 0.0 -9.127956499384427e-13 0.0 0.01000500620680824 0.010001416300829399 0.0 -3.4790527080385506e-12 0.0 0.01 0.0 -3.4790527080368963e-12 0.0 0.0100059765536126 0.010001436809603961 0.0 -7.36367039028395e-12 0.0 0.01 0.0 -7.36367039028395e-12 0.0 0.010007229532370373 0.010001451465951865 0.0 -9.19074822296859e-12 0.0 0.01 0.0 -9.190748222970245e-12 0.0 0.010008686104168005 0.010001460770015024 0.0 -4.677699408510978e-12 0.0 0.01 0.0 -4.677699408510978e-12 0.0 0.01000833019727902 0.01000113494318517 0.0 5.09141318860001e-14 0.0 0.01 0.0 5.09141318861035e-14 0.0 0.010001897489933603 0.010001168154655921 0.0 1.8267422281616693e-13 0.0 0.01 0.0 1.8267422281616693e-13 0.0 0.010002795121469009 0.010001202366818137 0.0 -2.8582337969294137e-14 0.0 0.01 0.0 -2.8582337969294137e-14 0.0 0.010003832752373092 0.010001233628238253 0.0 -1.847202164833288e-12 0.0 0.01 0.0 -1.847202164833288e-12 0.0 0.010004846771403206 0.010001260488284563 0.0 -6.862276701642886e-12 0.0 0.01 0.0 -6.862276701639577e-12 0.0 0.010005787720782075 0.010001282946850668 0.0 -1.4529448690609673e-11 0.0 0.01 0.0 -1.4529448690606365e-11 0.0 0.010007003450383453 0.010001297602522156 0.0 -1.8305193717379853e-11 0.0 0.01 0.0 -1.8305193717383162e-11 0.0 0.010008421777015263 0.01000130785652857 0.0 -9.594744020563259e-12 0.0 0.01 0.0 -9.594744020566567e-12 0.0 0.010008081586259626 0.010000960588391785 0.0 7.52102819656328e-14 0.0 0.01 0.0 7.52102819657362e-14 0.0 0.010001813493194381 0.01000099379812558 0.0 2.725797124785905e-13 0.0 0.01 0.0 2.725797124785905e-13 0.0 0.010002670969730924 0.010001028008498496 0.0 -1.0118523409602695e-13 0.0 0.01 0.0 -1.0118523409602695e-13 0.0 0.010003664112875057 0.01000106266936593 0.0 -3.061420516623412e-12 0.0 0.01 0.0 -3.061420516623412e-12 0.0 0.010004637524000737 0.01000109197883663 0.0 -1.1164724055233231e-11 0.0 0.01 0.0 -1.1164724055239848e-11 0.0 0.010005536344274637 0.010001116386920143 0.0 -2.3602623088003665e-11 0.0 0.01 0.0 -2.3602623088003665e-11 0.0 0.010006693714879503 0.010001135443355473 0.0 -3.005925823256878e-11 0.0 0.01 0.0 -3.0059258232575396e-11 0.0 0.010008042391616238 0.010001147647534002 0.0 -1.671060519019751e-11 0.0 0.01 0.0 -1.67106051901942e-11 0.0 0.010007715971253116 0.010000751084610744 0.0 1.1140670806082452e-13 0.0 0.01 0.0 1.1140670806082452e-13 0.0 0.010001710388714386 0.010000784742363423 0.0 3.716553382702382e-13 0.0 0.01 0.0 3.716553382710654e-13 0.0 0.010002521453338529 0.010000822351428162 0.0 -1.6133319788506387e-13 0.0 0.01 0.0 -1.6133319788485708e-13 0.0 0.010003459794698978 0.01000086096117536 0.0 -4.292272121488907e-12 0.0 0.01 0.0 -4.292272121488907e-12 0.0 0.010004380326408909 0.010000896120440389 0.0 -1.563713626036881e-11 0.0 0.01 0.0 -1.563713626036881e-11 0.0 0.010005228197250686 0.010000925428446822 0.0 -3.315046869558235e-11 0.0 0.01 0.0 -3.315046869558235e-11 0.0 0.010006310167711249 0.01000094933516848 0.0 -4.259450960139033e-11 0.0 0.01 0.0 -4.259450960139033e-11 0.0 0.0100075676818114 0.01000096744037303 0.0 -2.469093509523948e-11 0.0 0.01 0.0 -2.469093509523948e-11 0.0 0.010007252031172363 0.010000517140112321 0.0 1.3908455124636938e-13 0.0 0.01 0.0 1.3908455124636938e-13 0.0 0.010001593630867976 0.010000551795668413 0.0 4.5088894980525724e-13 0.0 0.01 0.0 4.5088894980567083e-13 0.0 0.01000234897739508 0.01000059235262809 0.0 -1.8015504153900567e-13 0.0 0.01 0.0 -1.8015504153900567e-13 0.0 0.010003226661029605 0.01000063776100568 0.0 -5.218838219406372e-12 0.0 0.01 0.0 -5.218838219406372e-12 0.0 0.010004086503562555 0.010000680719500549 0.0 -1.922564284061118e-11 0.0 0.01 0.0 -1.922564284061118e-11 0.0 0.010004874161302722 0.010000720277812548 0.0 -4.113513856066064e-11 0.0 0.01 0.0 -4.1135138560647404e-11 0.0 0.010005866508352975 0.010000752534937806 0.0 -5.373044260227823e-11 0.0 0.01 0.0 -5.3730442602264997e-11 0.0 0.010007014223002797 0.010000777440652702 0.0 -3.1640516733760664e-11 0.0 0.01 0.0 -3.1640516733754046e-11 0.0 0.01000671525815244 0.010000282711988459 0.0 1.36083821014711e-13 0.0 0.01 0.0 1.360838210145042e-13 0.0 0.010001466122364201 0.010000318865250608 0.0 4.593619978213591e-13 0.0 0.01 0.0 4.593619978213591e-13 0.0 0.010002162301129783 0.010000363769848314 0.0 -1.746670028953361e-13 0.0 0.01 0.0 -1.746670028954395e-13 0.0 0.010002972024414528 0.010000416526022645 0.0 -5.598276392565933e-12 0.0 0.01 0.0 -5.598276392565933e-12 0.0 0.010003765325584344 0.010000471733377756 0.0 -2.1004211874689227e-11 0.0 0.01 0.0 -2.1004211874689227e-11 0.0 0.010004486417386108 0.010000523991182139 0.0 -4.8960426246953614e-11 0.0 0.01 0.0 -4.8960426246953614e-11 0.0 0.010005382292244168 0.010000568898543154 0.0 -7.361126760954749e-11 0.0 0.01 0.0 -7.361126760954749e-11 0.0 0.010006410458832963 0.010000606005081875 0.0 -3.596656811387523e-11 0.0 0.01 0.0 -3.596656811387523e-11 0.0 0.010006130633094492 0.010000078600926708 0.0 9.245214001178613e-14 0.0 0.01 0.0 9.245214001168273e-14 0.0 0.010001335717573561 0.010000114251957997 0.0 3.678239985359471e-13 0.0 0.01 0.0 3.678239985359471e-13 0.0 0.010001970782444464 0.010000164554061617 0.0 -1.7196477534661325e-13 0.0 0.01 0.0 -1.7196477534650985e-13 0.0 0.01000270860007986 0.010000226557699029 0.0 -1.6472458609164295e-11 0.0 0.01 0.0 -1.6472458609164295e-11 0.0 0.010003430964920639 0.010000294463005762 0.0 -1.4692874867144293e-10 0.0 0.01 0.0 -1.4692874867144293e-10 0.0 0.010004082098169078 0.010000362819744793 0.0 -4.0974125728022446e-10 0.0 0.01 0.0 -4.097412572801186e-10 0.0 0.010004877115619787 0.010000425327133971 0.0 -4.956216923960001e-10 0.0 0.01 0.0 -4.956216923958942e-10 0.0 0.010005788221650805 0.010000477084139217 0.0 -3.6091729019327836e-11 0.0 0.01 0.0 -3.609172901934107e-11 0.0 0.010005524124022783 0.009999919500972027 0.0 2.033904342929459e-14 0.0 0.01 0.0 2.033904342929459e-14 0.0 0.010001207718752464 0.009999958000264597 0.0 1.9208501998557195e-13 0.0 0.01 0.0 1.9208501998557195e-13 0.0 0.0100017812258018 0.010000012700024196 0.0 -1.9920605828441004e-11 0.0 0.01 0.0 -1.992060582842777e-11 0.0 0.010002449149456234 0.010000084951082502 0.0 -2.3615007782651656e-10 0.0 0.01 0.0 -2.3615007782651656e-10 0.0 0.010003099590523869 0.010000166004133655 0.0 -9.639258120767186e-10 0.0 0.01 0.0 -9.63925812077142e-10 0.0 0.010003679279569183 0.01000025195952285 0.0 -2.0457005544003364e-09 0.0 0.01 0.0 -2.0457005544003364e-09 0.0 0.010004375419971246 0.010000332066540182 0.0 -2.144048939783119e-09 0.0 0.01 0.0 -2.144048939783119e-09 0.0 0.010005166601309507 0.010000401874224142 0.0 -1.589760239025292e-11 0.0 0.01 0.0 -1.5897602390246303e-11 0.0 0.010004916223012339 0.00999981000541483 0.0 -1.3930121398101591e-14 0.0 0.01 0.0 -1.3930121398101591e-14 0.0 0.010001090528361883 0.009999850003374918 0.0 -1.7049510469741133e-12 0.0 0.01 0.0 -1.7049510469741133e-12 0.0 0.010001604886266337 0.009999912001161586 0.0 -1.0178743071533198e-10 0.0 0.01 0.0 -1.0178743071527905e-10 0.0 0.010002202877686783 0.009999992000009698 0.0 -8.142381561207053e-10 0.0 0.01 0.0 -8.142381561211288e-10 0.0 0.010002783862051943 0.01000008595110934 0.0 -2.8451472581254297e-09 0.0 0.01 0.0 -2.8451472581254297e-09 0.0 0.010003295578411212 0.010000186055196921 0.0 -5.520694492660715e-09 0.0 0.01 0.0 -5.520694492660715e-09 0.0 0.0100038982783064 0.010000282711992665 0.0 -5.297214947412314e-09 0.0 0.01 0.0 -5.297214947412314e-09 0.0 0.010004566125526611 0.010000372570820345 0.0 4.2243488244748886e-10 0.0 0.01 0.0 4.224348824477006e-10 0.0 0.01000431824547703 0.009999743009906928 0.0 1.587011211326091e-12 0.0 0.01 0.0 1.5870112113244366e-12 0.0 0.010000987446238258 0.009999788006741363 0.0 4.040005064893146e-11 0.0 0.01 0.0 4.040005064893146e-11 0.0 0.01000144856469017 0.00999985300324127 0.0 -4.112029308505179e-11 0.0 0.01 0.0 -4.112029308499885e-11 0.0 0.010001980087957019 0.009999937500586184 0.0 -1.310276648052942e-09 0.0 0.01 0.0 -1.310276648052942e-09 0.0 0.010002494082757385 0.01000003710021037 0.0 -5.104591813685674e-09 0.0 0.01 0.0 -5.104591813685674e-09 0.0 0.010002944149696312 0.010000146953253634 0.0 -9.803669926112754e-09 0.0 0.01 0.0 -9.803669926116142e-09 0.0 0.01000346419928481 0.010000259310096862 0.0 -8.54827826021954e-09 0.0 0.01 0.0 -8.54827826021954e-09 0.0 0.010004004854555926 0.010000369170442412 0.0 1.6272837864413845e-09 0.0 0.01 0.0 1.6272837864413845e-09 0.0 0.01000373599260408 0.009999713012354762 0.0 3.3346781494615506e-11 0.0 0.01 0.0 3.334678149456257e-11 0.0 0.01000090492281798 0.009999760508603711 0.0 3.595291234466578e-10 0.0 0.01 0.0 3.595291234466578e-10 0.0 0.010001316159795917 0.009999824504620013 0.0 8.60701805733233e-10 0.0 0.01 0.0 8.60701805733233e-10 0.0 0.01000178662869239 0.0099999040013824 0.0 -3.8930988514339504e-10 0.0 0.01 0.0 -3.893098851436068e-10 0.0 0.010002238551442614 0.009999999000004908 0.0 -5.634992695084006e-09 0.0 0.01 0.0 -5.634992695084006e-09 0.0 0.010002636292143874 0.01000011230191189 0.0 -1.1596939573459131e-08 0.0 0.01 0.0 -1.1596939573459131e-08 0.0 0.010003085877828962 0.01000024270884637 0.0 -8.376567460997695e-09 0.0 0.01 0.0 -8.376567460994307e-09 0.0 0.010003494030395028 0.010000389172717797 0.0 2.106778842859797e-09 0.0 0.01 0.0 2.10677884285895e-09 0.0 0.010003183669718476 0.009999711512484246 0.0 2.202805150793534e-10 0.0 0.01 0.0 2.202805150789299e-10 0.0 0.010000842856549105 0.009999759008712125 0.0 1.4769709701076858e-09 0.0 0.01 0.0 1.4769709701076858e-09 0.0 0.010001209669459962 0.009999813505219203 0.0 3.6779855124343265e-09 0.0 0.01 0.0 3.6779855124343265e-09 0.0 0.010001621494303345 0.009999877502252848 0.0 3.611054138494892e-09 0.0 0.01 0.0 3.611054138491504e-09 0.0 0.01000201670990578 0.009999958000265083 0.0 -1.803359651961827e-09 0.0 0.01 0.0 -1.803359651961827e-09 0.0 0.010002373394683527 0.010000071800779527 0.0 -6.448441989213692e-09 0.0 0.01 0.0 -6.4484419892103036e-09 0.0 0.01000276919985184 0.010000233408171902 0.0 -1.2926198074628549e-09 0.0 0.01 0.0 -1.2926198074628549e-09 0.0 0.010003037032975611 0.010000450230407023 0.0 -4.270512573460657e-09 0.0 0.01 0.0 -4.270512573460657e-09 0.0 0.010002660711534016 0.009999734010613067 0.0 9.562010564770996e-10 0.0 0.01 0.0 9.562010564770996e-10 0.0 0.010000803296782629 0.009999776507495246 0.0 4.233717048951003e-09 0.0 0.01 0.0 4.233717048957779e-09 0.0 0.0100011285910316 0.009999815505119218 0.0 9.432324558781083e-09 0.0 0.01 0.0 9.432324558787859e-09 0.0 0.010001484230388932 0.009999853003261915 0.0 1.1733337398812276e-08 0.0 0.01 0.0 1.1733337398812276e-08 0.0 0.010001828601465876 0.00999991350113208 0.0 8.065737943148833e-09 0.0 0.01 0.0 8.065737943155609e-09 0.0 0.01000215794831997 0.010000031750159878 0.0 7.602374739541155e-09 0.0 0.01 0.0 7.602374739547931e-09 0.0 0.010002509744515225 0.010000238308532174 0.0 9.593573383132655e-09 0.0 0.01 0.0 9.593573383125879e-09 0.0 0.010002634340610854 0.010000563997832845 0.0 -2.8571936654863067e-08 0.0 0.01 0.0 -2.8571936654863067e-08 0.0 0.01000217651049591 0.009999781007195266 0.0 3.033850845324043e-09 0.0 0.01 0.0 3.0338508453206547e-09 0.0 0.010000779391109486 0.009999810505400117 0.0 9.574891834880942e-09 0.0 0.01 0.0 9.57489183486739e-09 0.0 0.010001063669698667 0.009999826004592567 0.0 1.849498354384346e-08 0.0 0.01 0.0 1.849498354385701e-08 0.0 0.010001368430890513 0.009999839003971847 0.0 2.363910305445082e-08 0.0 0.01 0.0 2.3639103054423714e-08 0.0 0.010001669868259679 0.00999988000224326 0.0 2.3568955730696585e-08 0.0 0.01 0.0 2.3568955730683032e-08 0.0 0.010001985441223316 0.01000000635010585 0.0 2.5798219711385098e-08 0.0 0.01 0.0 2.5798219711385098e-08 0.0 0.010002284482690568 0.01000025050942984 0.0 1.0619899413899926e-08 0.0 0.01 0.0 1.061989941389315e-08 0.0 0.010002262467599296 0.009999846503543167 0.0 7.711627229733844e-09 0.0 0.01 0.0 7.711627229747397e-09 0.0 0.010000766688171521 0.009999860502968696 0.0 1.82090513891947e-08 0.0 0.01 0.0 1.820905138914049e-08 0.0 0.010001011853606159 0.00999985150344488 0.0 3.023781126209506e-08 0.0 0.01 0.0 3.023781126209506e-08 0.0 0.010001270742313972 0.009999842503934854 0.0 3.77767665853655e-08 0.0 0.01 0.0 3.77767665853655e-08 0.0 0.01000154330741014 0.009999880502397106 0.0 4.124515733230959e-08 0.0 0.01 0.0 4.1245157332336696e-08 0.0 0.010001847211957822 0.010000018050247212 0.0 3.636818918278028e-08 0.0 0.01 0.0 3.636818918278028e-08 0.0 0.010002055333684163 0.010000279311720872 0.0 -1.1272370710618015e-08 0.0 0.01 0.0 -1.1272370710618015e-08 0.0 0.010001890686087993 0.009999926000860327 0.0 1.61132987778383e-08 0.0 0.01 0.0 1.6113298777811194e-08 0.0 0.010000756435859562 0.009999918501129593 0.0 2.9808979129693214e-08 0.0 0.01 0.0 2.9808979129693214e-08 0.0 0.010000965940071266 0.009999892002027833 0.0 4.307430354126519e-08 0.0 0.01 0.0 4.307430354126519e-08 0.0 0.010001191113056978 0.00999988000256525 0.0 5.198547052906325e-08 0.0 0.01 0.0 5.198547052900904e-08 0.0 0.010001451466357263 0.009999934001073511 0.0 5.292853613096497e-08 0.0 0.01 0.0 5.292853613096497e-08 0.0 0.01000171969392041 0.010000083001120222 0.0 2.4066274570899108e-08 0.0 0.01 0.0 2.4066274570899108e-08 0.0 0.010001803237719533 0.010000005850122277 0.0 2.7947024998560034e-08 0.0 0.01 0.0 2.7947024998505824e-08 0.0 0.010000742782867897 0.00999998200031925 0.0 4.248016899924484e-08 0.0 0.01 0.0 4.248016899924484e-08 0.0 0.010000926378981425 0.00999995650073782 0.0 5.5018218410231735e-08 0.0 0.01 0.0 5.5018218410123314e-08 0.0 0.010001136444150365 0.009999970500698422 0.0 6.153543473597567e-08 0.0 0.01 0.0 6.153543473597567e-08 0.0 0.010001385038264303 0.010000056150774001 0.0 4.4805950435771943e-08 0.0 0.01 0.0 4.4805950435771943e-08 0.0 0.010001577523509572 0.010000208006562438 0.0 -2.2004347960082786e-08 0.0 0.01 0.0 -2.200434796010989e-08 0.0 0.01000153745456491 0.01000008495133237 0.0 4.0816586343878775e-08 0.0 0.01 0.0 4.0816586343987195e-08 0.0 0.01000072857986641 0.010000066401097867 0.0 5.394869695537954e-08 0.0 0.01 0.0 5.394869695537954e-08 0.0 0.010000899071671406 0.010000072251368234 0.0 6.246598939756848e-08 0.0 0.01 0.0 6.246598939756848e-08 0.0 0.010001106634253928 0.010000124502754521 0.0 5.351074058997877e-08 0.0 0.01 0.0 5.351074058997877e-08 0.0 0.010001323513136044 0.01000022315746969 0.0 4.015686165881053e-10 0.0 0.01 0.0 4.015686165876818e-10 0.0 0.010001422153320519 0.010000186505627064 0.0 5.225598729587371e-08 0.0 0.01 0.0 5.225598729587371e-08 0.0 0.01000072222864411 0.010000210957235474 0.0 6.111827287476855e-08 0.0 0.01 0.0 6.111827287476855e-08 0.0 0.010000886818513284 0.01000025976055225 0.0 5.362594276882987e-08 0.0 0.01 0.0 5.362594276882987e-08 0.0 0.010001077824662086 0.01000031546493652 0.0 7.928997932578623e-09 0.0 0.01 0.0 7.928997932578623e-09 0.0 0.010001250734620867 0.01000037112116205 0.0 5.79386646975405e-08 0.0 0.01 0.0 5.793866469732366e-08 0.0 0.010000723228954865 0.010000425827584942 0.0 5.080748288342936e-08 0.0 0.01 0.0 5.080748288342936e-08 0.0 0.010000880966788793 0.01000046438235449 0.0 7.680407952475547e-09 0.0 0.01 0.0 7.680407952502652e-09 0.0 0.01000104311319892 0.01000048588641219 0.0 -8.172848002985407e-08 0.0 0.01 0.0 -8.172848003007091e-08 0.0 0.010001176008418398 0.01000057279945339 0.0 4.0193786872162046e-08 0.0 0.01 0.0 4.0193786872162046e-08 0.0 0.01000073883211513 0.010000562047381053 0.0 3.559356974282502e-10 0.0 0.01 0.0 3.559356974282502e-10 0.0 0.010000887818219202 0.010000599653982612 0.0 -1.811094319610282e-08 0.0 0.01 0.0 -1.811094319631966e-08 0.0 0.01000077694058531 
