# vtk DataFile Version 3.0
Test VTK file for Force data
ASCII
DATASET POLYDATA
POINTS 2975 float
-0.22 0.0099999998 -0.38
-0.22 0.0099999998 -0.36000001
-0.2 0.0099999998 -0.40000001
-0.2 0.0099999998 -0.38
-0.2 0.0099999998 -0.36000001
-0.18000001 0.0099999998 -0.40000001
-0.18000001 0.0099999998 -0.38
-0.18000001 0.0099999998 -0.36000001
-0.16 0.0099999998 -0.40000001
-0.16 0.0099999998 -0.38
-0.16 0.0099999998 -0.36000001
-0.14 0.0099999998 -0.40000001
-0.14 0.0099999998 -0.38
-0.14 0.0099999998 -0.36000001
-0.12 0.0099999998 -0.40000001
-0.12 0.0099999998 -0.38
-0.12 0.0099999998 -0.36000001
-0.1 0.0099999998 -0.40000001
-0.1 0.0099999998 -0.38
-0.1 0.0099999998 -0.36000001
-0.079999998 0.0099999998 -0.40000001
-0.079999998 0.0099999998 -0.38
-0.079999998 0.0099999998 -0.36000001
-0.059999999000000005 0.0099999998 -0.40000001
-0.059999999000000005 0.0099999998 -0.38
-0.059999999000000005 0.0099999998 -0.36000001
-0.039999999 0.0099999998 -0.40000001
-0.039999999 0.0099999998 -0.38
-0.039999999 0.0099999998 -0.36000001
-0.02 0.0099999998 -0.40000001
-0.02 0.0099999998 -0.38
-0.02 0.0099999998 -0.36000001
0.0 0.0099999998 -0.40000001
0.0 0.0099999998 -0.38
0.0 0.0099999998 -0.36000001
0.02 0.0099999998 -0.40000001
0.02 0.0099999998 -0.38
0.02 0.0099999998 -0.36000001
0.039999999 0.0099999998 -0.40000001
0.039999999 0.0099999998 -0.38
0.039999999 0.0099999998 -0.36000001
0.059999999000000005 0.0099999998 -0.40000001
0.059999999000000005 0.0099999998 -0.38
0.059999999000000005 0.0099999998 -0.36000001
0.079999998 0.0099999998 -0.40000001
0.079999998 0.0099999998 -0.38
0.079999998 0.0099999998 -0.36000001
0.1 0.0099999998 -0.40000001
0.1 0.0099999998 -0.38
0.1 0.0099999998 -0.36000001
0.12 0.0099999998 -0.40000001
0.12 0.0099999998 -0.38
0.12 0.0099999998 -0.36000001
0.14 0.0099999998 -0.40000001
0.14 0.0099999998 -0.38
0.14 0.0099999998 -0.36000001
0.16 0.0099999998 -0.40000001
0.16 0.0099999998 -0.38
0.16 0.0099999998 -0.36000001
0.18000001 0.0099999998 -0.40000001
0.18000001 0.0099999998 -0.38
0.18000001 0.0099999998 -0.36000001
0.2 0.0099999998 -0.38
0.2 0.0099999998 -0.36000001
-0.22 0.0099999998 -0.34
-0.22 0.0099999998 -0.31999999
-0.22 0.0099999998 -0.30000001
-0.22 0.0099999998 -0.28
-0.22 0.0099999998 -0.25999999
-0.22 0.0099999998 -0.23999999
-0.22 0.0099999998 -0.22
-0.22 0.0099999998 -0.2
-0.2 0.0099999998 -0.34
-0.2 0.0099999998 -0.31999999
-0.2 0.0099999998 -0.30000001
-0.2 0.0099999998 -0.28
-0.2 0.0099999998 -0.25999999
-0.2 0.0099999998 -0.23999999
-0.2 0.0099999998 -0.22
-0.2 0.0099999998 -0.2
-0.18000001 0.0099999998 -0.34
-0.18000001 0.0099999998 -0.31999999
-0.18000001 0.0099999998 -0.30000001
-0.18000001 0.0099999998 -0.28
-0.18000001 0.0099999998 -0.25999999
-0.18000001 0.0099999998 -0.23999999
-0.18000001 0.0099999998 -0.22
-0.18000001 0.0099999998 -0.2
-0.16 0.0099999998 -0.34
-0.16 0.0099999998 -0.31999999
-0.16 0.0099999998 -0.30000001
-0.16 0.0099999998 -0.28
-0.16 0.0099999998 -0.25999999
-0.16 0.0099999998 -0.23999999
-0.16 0.0099999998 -0.22
-0.16 0.0099999998 -0.2
-0.14 0.0099999998 -0.34
-0.14 0.0099999998 -0.31999999
-0.14 0.0099999998 -0.30000001
-0.14 0.0099999998 -0.28
-0.14 0.0099999998 -0.25999999
-0.14 0.0099999998 -0.23999999
-0.14 0.0099999998 -0.22
-0.14 0.0099999998 -0.2
-0.12 0.0099999998 -0.34
-0.12 0.0099999998 -0.31999999
-0.12 0.0099999998 -0.30000001
-0.12 0.0099999998 -0.28
-0.12 0.0099999998 -0.25999999
-0.12 0.0099999998 -0.23999999
-0.12 0.0099999998 -0.22
-0.12 0.0099999998 -0.2
-0.1 0.0099999998 -0.34
-0.1 0.0099999998 -0.31999999
-0.1 0.0099999998 -0.30000001
-0.1 0.0099999998 -0.28
-0.1 0.0099999998 -0.25999999
-0.1 0.0099999998 -0.23999999
-0.1 0.0099999998 -0.22
-0.1 0.0099999998 -0.2
-0.079999998 0.0099999998 -0.34
-0.079999998 0.0099999998 -0.31999999
-0.079999998 0.0099999998 -0.30000001
-0.079999998 0.0099999998 -0.28
-0.079999998 0.0099999998 -0.25999999
-0.079999998 0.0099999998 -0.23999999
-0.079999998 0.0099999998 -0.22
-0.079999998 0.0099999998 -0.2
-0.059999999000000005 0.0099999998 -0.34
-0.059999999000000005 0.0099999998 -0.31999999
-0.059999999000000005 0.0099999998 -0.30000001
-0.059999999000000005 0.0099999998 -0.28
-0.059999999000000005 0.0099999998 -0.25999999
-0.059999999000000005 0.0099999998 -0.23999999
-0.059999999000000005 0.0099999998 -0.22
-0.059999999000000005 0.0099999998 -0.2
-0.039999999 0.0099999998 -0.34
-0.039999999 0.0099999998 -0.31999999
-0.039999999 0.0099999998 -0.30000001
-0.039999999 0.0099999998 -0.28
-0.039999999 0.0099999998 -0.25999999
-0.039999999 0.0099999998 -0.23999999
-0.039999999 0.0099999998 -0.22
-0.039999999 0.0099999998 -0.2
-0.02 0.0099999998 -0.34
-0.02 0.0099999998 -0.31999999
-0.02 0.0099999998 -0.30000001
-0.02 0.0099999998 -0.28
-0.02 0.0099999998 -0.25999999
-0.02 0.0099999998 -0.23999999
-0.02 0.0099999998 -0.22
-0.02 0.0099999998 -0.2
0.0 0.0099999998 -0.34
0.0 0.0099999998 -0.31999999
0.0 0.0099999998 -0.30000001
0.02 0.0099999998 -0.34
0.02 0.0099999998 -0.31999999
0.039999999 0.0099999998 -0.34
0.039999999 0.0099999998 -0.31999999
0.059999999000000005 0.0099999998 -0.34
0.059999999000000005 0.0099999998 -0.31999999
0.079999998 0.0099999998 -0.34
0.079999998 0.0099999998 -0.31999999
0.1 0.0099999998 -0.34
0.1 0.0099999998 -0.31999999
0.12 0.0099999998 -0.34
0.12 0.0099999998 -0.31999999
0.14 0.0099999998 -0.34
0.14 0.0099999998 -0.31999999
0.16 0.0099999998 -0.34
0.16 0.0099999998 -0.31999999
0.18000001 0.0099999998 -0.34
0.18000001 0.0099999998 -0.31999999
0.2 0.0099999998 -0.34
0.2 0.0099999998 -0.31999999
-0.22 0.0099999998 -0.18000001
-0.22 0.0099999998 -0.16
-0.22 0.0099999998 -0.14
-0.22 0.0099999998 -0.12
-0.22 0.0099999998 -0.1
-0.22 0.0099999998 -0.079999998
-0.22 0.0099999998 -0.059999999000000005
-0.22 0.0099999998 -0.039999999
-0.22 0.0099999998 -0.02
-0.2 0.0099999998 -0.18000001
-0.2 0.0099999998 -0.16
-0.2 0.0099999998 -0.14
-0.2 0.0099999998 -0.12
-0.2 0.0099999998 -0.1
-0.2 0.0099999998 -0.079999998
-0.2 0.0099999998 -0.059999999000000005
-0.2 0.0099999998 -0.039999999
-0.2 0.0099999998 -0.02
-0.18000001 0.0099999998 -0.18000001
-0.18000001 0.0099999998 -0.16
-0.18000001 0.0099999998 -0.14
-0.18000001 0.0099999998 -0.12
-0.18000001 0.0099999998 -0.1
-0.18000001 0.0099999998 -0.079999998
-0.18000001 0.0099999998 -0.059999999000000005
-0.18000001 0.0099999998 -0.039999999
-0.18000001 0.0099999998 -0.02
-0.16 0.0099999998 -0.18000001
-0.16 0.0099999998 -0.16
-0.16 0.0099999998 -0.14
-0.16 0.0099999998 -0.12
-0.16 0.0099999998 -0.1
-0.16 0.0099999998 -0.079999998
-0.16 0.0099999998 -0.059999999000000005
-0.16 0.0099999998 -0.039999999
-0.16 0.0099999998 -0.02
-0.14 0.0099999998 -0.18000001
-0.14 0.0099999998 -0.16
-0.14 0.0099999998 -0.14
-0.14 0.0099999998 -0.12
-0.14 0.0099999998 -0.1
-0.14 0.0099999998 -0.079999998
-0.14 0.0099999998 -0.059999999000000005
-0.14 0.0099999998 -0.039999999
-0.14 0.0099999998 -0.02
-0.12 0.0099999998 -0.18000001
-0.12 0.0099999998 -0.16
-0.12 0.0099999998 -0.14
-0.12 0.0099999998 -0.12
-0.12 0.0099999998 -0.1
-0.12 0.0099999998 -0.079999998
-0.12 0.0099999998 -0.059999999000000005
-0.12 0.0099999998 -0.039999999
-0.12 0.0099999998 -0.02
-0.1 0.0099999998 -0.18000001
-0.1 0.0099999998 -0.16
-0.1 0.0099999998 -0.14
-0.1 0.0099999998 -0.12
-0.1 0.0099999998 -0.1
-0.1 0.0099999998 -0.079999998
-0.1 0.0099999998 -0.059999999000000005
-0.1 0.0099999998 -0.039999999
-0.1 0.0099999998 -0.02
-0.079999998 0.0099999998 -0.18000001
-0.079999998 0.0099999998 -0.16
-0.079999998 0.0099999998 -0.14
-0.079999998 0.0099999998 -0.12
-0.079999998 0.0099999998 -0.1
-0.079999998 0.0099999998 -0.079999998
-0.079999998 0.0099999998 -0.059999999000000005
-0.079999998 0.0099999998 -0.039999999
-0.079999998 0.0099999998 -0.02
-0.059999999000000005 0.0099999998 -0.18000001
-0.059999999000000005 0.0099999998 -0.16
-0.059999999000000005 0.0099999998 -0.14
-0.059999999000000005 0.0099999998 -0.12
-0.059999999000000005 0.0099999998 -0.1
-0.059999999000000005 0.0099999998 -0.079999998
-0.059999999000000005 0.0099999998 -0.059999999000000005
-0.059999999000000005 0.0099999998 -0.039999999
-0.059999999000000005 0.0099999998 -0.02
-0.039999999 0.0099999998 -0.18000001
-0.039999999 0.0099999998 -0.16
-0.039999999 0.0099999998 -0.14
-0.039999999 0.0099999998 -0.12
-0.039999999 0.0099999998 -0.1
-0.039999999 0.0099999998 -0.079999998
-0.039999999 0.0099999998 -0.059999999000000005
-0.039999999 0.0099999998 -0.039999999
-0.039999999 0.0099999998 -0.02
-0.02 0.0099999998 -0.18000001
-0.02 0.0099999998 -0.16
-0.02 0.0099999998 -0.14
-0.02 0.0099999998 -0.12
-0.02 0.0099999998 -0.1
-0.02 0.0099999998 -0.079999998
-0.02 0.0099999998 -0.059999999000000005
-0.02 0.0099999998 -0.039999999
-0.02 0.0099999998 -0.02
-0.22 0.0099999998 0.0
-0.22 0.0099999998 0.02
-0.22 0.0099999998 0.039999999
-0.22 0.0099999998 0.059999999000000005
-0.22 0.0099999998 0.079999998
-0.22 0.0099999998 0.1
-0.22 0.0099999998 0.12
-0.22 0.0099999998 0.14
-0.2 0.0099999998 0.0
-0.2 0.0099999998 0.02
-0.2 0.0099999998 0.039999999
-0.2 0.0099999998 0.059999999000000005
-0.2 0.0099999998 0.079999998
-0.2 0.0099999998 0.1
-0.2 0.0099999998 0.12
-0.2 0.0099999998 0.14
-0.18000001 0.0099999998 0.0
-0.18000001 0.0099999998 0.02
-0.18000001 0.0099999998 0.039999999
-0.18000001 0.0099999998 0.059999999000000005
-0.18000001 0.0099999998 0.079999998
-0.18000001 0.0099999998 0.1
-0.18000001 0.0099999998 0.12
-0.18000001 0.0099999998 0.14
-0.16 0.0099999998 0.0
-0.16 0.0099999998 0.02
-0.16 0.0099999998 0.039999999
-0.16 0.0099999998 0.059999999000000005
-0.16 0.0099999998 0.079999998
-0.16 0.0099999998 0.1
-0.16 0.0099999998 0.12
-0.16 0.0099999998 0.14
-0.14 0.0099999998 0.0
-0.14 0.0099999998 0.02
-0.14 0.0099999998 0.039999999
-0.14 0.0099999998 0.059999999000000005
-0.14 0.0099999998 0.079999998
-0.14 0.0099999998 0.1
-0.14 0.0099999998 0.12
-0.14 0.0099999998 0.14
-0.12 0.0099999998 0.0
-0.12 0.0099999998 0.02
-0.12 0.0099999998 0.039999999
-0.12 0.0099999998 0.059999999000000005
-0.12 0.0099999998 0.079999998
-0.12 0.0099999998 0.1
-0.12 0.0099999998 0.12
-0.12 0.0099999998 0.14
-0.1 0.0099999998 0.0
-0.1 0.0099999998 0.02
-0.1 0.0099999998 0.039999999
-0.1 0.0099999998 0.059999999000000005
-0.1 0.0099999998 0.079999998
-0.1 0.0099999998 0.1
-0.1 0.0099999998 0.12
-0.1 0.0099999998 0.14
-0.079999998 0.0099999998 0.0
-0.079999998 0.0099999998 0.02
-0.079999998 0.0099999998 0.039999999
-0.079999998 0.0099999998 0.059999999000000005
-0.079999998 0.0099999998 0.079999998
-0.079999998 0.0099999998 0.1
-0.079999998 0.0099999998 0.12
-0.079999998 0.0099999998 0.14
-0.059999999000000005 0.0099999998 0.0
-0.059999999000000005 0.0099999998 0.02
-0.059999999000000005 0.0099999998 0.039999999
-0.059999999000000005 0.0099999998 0.059999999000000005
-0.059999999000000005 0.0099999998 0.079999998
-0.059999999000000005 0.0099999998 0.1
-0.059999999000000005 0.0099999998 0.12
-0.059999999000000005 0.0099999998 0.14
-0.039999999 0.0099999998 0.0
-0.039999999 0.0099999998 0.02
-0.039999999 0.0099999998 0.039999999
-0.039999999 0.0099999998 0.059999999000000005
-0.039999999 0.0099999998 0.079999998
-0.039999999 0.0099999998 0.1
-0.039999999 0.0099999998 0.12
-0.039999999 0.0099999998 0.14
-0.02 0.0099999998 0.0
-0.02 0.0099999998 0.02
-0.02 0.0099999998 0.039999999
-0.02 0.0099999998 0.059999999000000005
-0.02 0.0099999998 0.079999998
-0.02 0.0099999998 0.1
-0.02 0.0099999998 0.12
-0.02 0.0099999998 0.14
-0.22 0.0099999998 0.16
-0.22 0.0099999998 0.18000001
-0.22 0.0099999998 0.2
-0.22 0.0099999998 0.22
-0.22 0.0099999998 0.23999999
-0.22 0.0099999998 0.25999999
-0.22 0.0099999998 0.28
-0.22 0.0099999998 0.30000001
-0.22 0.0099999998 0.31999999
-0.2 0.0099999998 0.16
-0.2 0.0099999998 0.18000001
-0.2 0.0099999998 0.2
-0.2 0.0099999998 0.22
-0.2 0.0099999998 0.23999999
-0.2 0.0099999998 0.25999999
-0.2 0.0099999998 0.28
-0.2 0.0099999998 0.30000001
-0.2 0.0099999998 0.31999999
-0.18000001 0.0099999998 0.16
-0.18000001 0.0099999998 0.18000001
-0.18000001 0.0099999998 0.2
-0.18000001 0.0099999998 0.22
-0.18000001 0.0099999998 0.23999999
-0.18000001 0.0099999998 0.25999999
-0.18000001 0.0099999998 0.28
-0.18000001 0.0099999998 0.30000001
-0.18000001 0.0099999998 0.31999999
-0.16 0.0099999998 0.16
-0.16 0.0099999998 0.18000001
-0.16 0.0099999998 0.2
-0.16 0.0099999998 0.22
-0.16 0.0099999998 0.23999999
-0.16 0.0099999998 0.25999999
-0.16 0.0099999998 0.28
-0.16 0.0099999998 0.30000001
-0.16 0.0099999998 0.31999999
-0.14 0.0099999998 0.16
-0.14 0.0099999998 0.18000001
-0.14 0.0099999998 0.2
-0.14 0.0099999998 0.22
-0.14 0.0099999998 0.23999999
-0.14 0.0099999998 0.25999999
-0.14 0.0099999998 0.28
-0.14 0.0099999998 0.30000001
-0.14 0.0099999998 0.31999999
-0.12 0.0099999998 0.16
-0.12 0.0099999998 0.18000001
-0.12 0.0099999998 0.2
-0.12 0.0099999998 0.22
-0.12 0.0099999998 0.23999999
-0.12 0.0099999998 0.25999999
-0.12 0.0099999998 0.28
-0.12 0.0099999998 0.30000001
-0.12 0.0099999998 0.31999999
-0.1 0.0099999998 0.16
-0.1 0.0099999998 0.18000001
-0.1 0.0099999998 0.2
-0.1 0.0099999998 0.22
-0.1 0.0099999998 0.23999999
-0.1 0.0099999998 0.25999999
-0.1 0.0099999998 0.28
-0.1 0.0099999998 0.30000001
-0.1 0.0099999998 0.31999999
-0.079999998 0.0099999998 0.16
-0.079999998 0.0099999998 0.18000001
-0.079999998 0.0099999998 0.2
-0.079999998 0.0099999998 0.22
-0.079999998 0.0099999998 0.23999999
-0.079999998 0.0099999998 0.25999999
-0.079999998 0.0099999998 0.28
-0.079999998 0.0099999998 0.30000001
-0.079999998 0.0099999998 0.31999999
-0.059999999000000005 0.0099999998 0.16
-0.059999999000000005 0.0099999998 0.18000001
-0.059999999000000005 0.0099999998 0.2
-0.059999999000000005 0.0099999998 0.22
-0.059999999000000005 0.0099999998 0.23999999
-0.059999999000000005 0.0099999998 0.25999999
-0.059999999000000005 0.0099999998 0.28
-0.059999999000000005 0.0099999998 0.30000001
-0.059999999000000005 0.0099999998 0.31999999
-0.039999999 0.0099999998 0.16
-0.039999999 0.0099999998 0.18000001
-0.039999999 0.0099999998 0.2
-0.039999999 0.0099999998 0.22
-0.039999999 0.0099999998 0.23999999
-0.039999999 0.0099999998 0.25999999
-0.039999999 0.0099999998 0.28
-0.039999999 0.0099999998 0.30000001
-0.039999999 0.0099999998 0.31999999
-0.02 0.0099999998 0.16
-0.02 0.0099999998 0.18000001
-0.02 0.0099999998 0.2
-0.02 0.0099999998 0.22
-0.02 0.0099999998 0.23999999
-0.02 0.0099999998 0.25999999
-0.02 0.0099999998 0.28
-0.02 0.0099999998 0.30000001
-0.02 0.0099999998 0.31999999
0.0 0.0099999998 0.30000001
0.0 0.0099999998 0.31999999
0.02 0.0099999998 0.31999999
0.039999999 0.0099999998 0.31999999
0.059999999000000005 0.0099999998 0.31999999
0.079999998 0.0099999998 0.31999999
0.1 0.0099999998 0.31999999
0.12 0.0099999998 0.31999999
0.14 0.0099999998 0.31999999
0.16 0.0099999998 0.31999999
0.18000001 0.0099999998 0.31999999
0.2 0.0099999998 0.31999999
-0.22 0.0099999998 0.34
-0.22 0.0099999998 0.36000001
-0.22 0.0099999998 0.38
-0.2 0.0099999998 0.34
-0.2 0.0099999998 0.36000001
-0.2 0.0099999998 0.38
-0.2 0.0099999998 0.40000001
-0.18000001 0.0099999998 0.34
-0.18000001 0.0099999998 0.36000001
-0.18000001 0.0099999998 0.38
-0.18000001 0.0099999998 0.40000001
-0.16 0.0099999998 0.34
-0.16 0.0099999998 0.36000001
-0.16 0.0099999998 0.38
-0.16 0.0099999998 0.40000001
-0.14 0.0099999998 0.34
-0.14 0.0099999998 0.36000001
-0.14 0.0099999998 0.38
-0.14 0.0099999998 0.40000001
-0.12 0.0099999998 0.34
-0.12 0.0099999998 0.36000001
-0.12 0.0099999998 0.38
-0.12 0.0099999998 0.40000001
-0.1 0.0099999998 0.34
-0.1 0.0099999998 0.36000001
-0.1 0.0099999998 0.38
-0.1 0.0099999998 0.40000001
-0.079999998 0.0099999998 0.34
-0.079999998 0.0099999998 0.36000001
-0.079999998 0.0099999998 0.38
-0.079999998 0.0099999998 0.40000001
-0.059999999000000005 0.0099999998 0.34
-0.059999999000000005 0.0099999998 0.36000001
-0.059999999000000005 0.0099999998 0.38
-0.059999999000000005 0.0099999998 0.40000001
-0.039999999 0.0099999998 0.34
-0.039999999 0.0099999998 0.36000001
-0.039999999 0.0099999998 0.38
-0.039999999 0.0099999998 0.40000001
-0.02 0.0099999998 0.34
-0.02 0.0099999998 0.36000001
-0.02 0.0099999998 0.38
-0.02 0.0099999998 0.40000001
0.0 0.0099999998 0.34
0.0 0.0099999998 0.36000001
0.0 0.0099999998 0.38
0.0 0.0099999998 0.40000001
0.02 0.0099999998 0.34
0.02 0.0099999998 0.36000001
0.02 0.0099999998 0.38
0.02 0.0099999998 0.40000001
0.039999999 0.0099999998 0.34
0.039999999 0.0099999998 0.36000001
0.039999999 0.0099999998 0.38
0.039999999 0.0099999998 0.40000001
0.059999999000000005 0.0099999998 0.34
0.059999999000000005 0.0099999998 0.36000001
0.059999999000000005 0.0099999998 0.38
0.059999999000000005 0.0099999998 0.40000001
0.079999998 0.0099999998 0.34
0.079999998 0.0099999998 0.36000001
0.079999998 0.0099999998 0.38
0.079999998 0.0099999998 0.40000001
0.1 0.0099999998 0.34
0.1 0.0099999998 0.36000001
0.1 0.0099999998 0.38
0.1 0.0099999998 0.40000001
0.12 0.0099999998 0.34
0.12 0.0099999998 0.36000001
0.12 0.0099999998 0.38
0.12 0.0099999998 0.40000001
0.14 0.0099999998 0.34
0.14 0.0099999998 0.36000001
0.14 0.0099999998 0.38
0.14 0.0099999998 0.40000001
0.16 0.0099999998 0.34
0.16 0.0099999998 0.36000001
0.16 0.0099999998 0.38
0.16 0.0099999998 0.40000001
0.18000001 0.0099999998 0.34
0.18000001 0.0099999998 0.36000001
0.18000001 0.0099999998 0.38
0.18000001 0.0099999998 0.40000001
0.2 0.0099999998 0.34
0.2 0.0099999998 0.36000001
0.2 0.0099999998 0.38
1.92 0.0099999998 -0.36000001
1.92 0.0099999998 -0.34
1.92 0.0099999998 -0.31999999
1.9400001 0.0099999998 -0.38
1.9400001 0.0099999998 -0.36000001
1.9400001 0.0099999998 -0.34
1.9400001 0.0099999998 -0.31999999
1.9400001 0.0099999998 -0.30000001
1.9400001 0.0099999998 -0.28
1.9400001 0.0099999998 -0.25999999
1.9400001 0.0099999998 -0.23999999
1.9400001 0.0099999998 -0.22
1.96 0.0099999998 -0.38
1.96 0.0099999998 -0.36000001
1.96 0.0099999998 -0.34
1.96 0.0099999998 -0.31999999
1.96 0.0099999998 -0.30000001
1.96 0.0099999998 -0.28
1.96 0.0099999998 -0.25999999
1.96 0.0099999998 -0.23999999
1.96 0.0099999998 -0.22
1.96 0.0099999998 -0.2
1.96 0.0099999998 -0.18000001
1.96 0.0099999998 -0.16
1.96 0.0099999998 -0.14
1.96 0.0099999998 -0.12
1.98 0.0099999998 -0.38
1.98 0.0099999998 -0.36000001
1.98 0.0099999998 -0.34
1.98 0.0099999998 -0.31999999
1.98 0.0099999998 -0.30000001
1.98 0.0099999998 -0.28
1.98 0.0099999998 -0.25999999
1.98 0.0099999998 -0.23999999
1.98 0.0099999998 -0.22
1.98 0.0099999998 -0.2
1.98 0.0099999998 -0.18000001
1.98 0.0099999998 -0.16
1.98 0.0099999998 -0.14
1.98 0.0099999998 -0.12
1.98 0.0099999998 -0.1
1.98 0.0099999998 -0.079999998
1.98 0.0099999998 -0.059999999000000005
1.98 0.0099999998 -0.039999999
1.98 0.0099999998 -0.02
2.0 0.0099999998 -0.38
2.0 0.0099999998 -0.36000001
2.0 0.0099999998 -0.34
2.0 0.0099999998 -0.31999999
2.0 0.0099999998 -0.30000001
2.0 0.0099999998 -0.28
2.0 0.0099999998 -0.25999999
2.0 0.0099999998 -0.23999999
2.0 0.0099999998 -0.22
2.0 0.0099999998 -0.2
2.0 0.0099999998 -0.18000001
2.0 0.0099999998 -0.16
2.0 0.0099999998 -0.14
2.0 0.0099999998 -0.12
2.0 0.0099999998 -0.1
2.0 0.0099999998 -0.079999998
2.0 0.0099999998 -0.059999999000000005
2.0 0.0099999998 -0.039999999
2.0 0.0099999998 -0.02
2.0 0.0099999998 0.0
2.0 0.0099999998 0.02
2.0 0.0099999998 0.039999999
2.0 0.0099999998 0.059999999000000005
2.0 0.0099999998 0.079999998
2.02 0.0099999998 -0.40000001
2.02 0.0099999998 -0.38
2.02 0.0099999998 -0.36000001
2.02 0.0099999998 -0.34
2.02 0.0099999998 -0.31999999
2.02 0.0099999998 -0.30000001
2.02 0.0099999998 -0.28
2.02 0.0099999998 -0.25999999
2.02 0.0099999998 -0.23999999
2.02 0.0099999998 -0.22
2.02 0.0099999998 -0.2
2.02 0.0099999998 -0.18000001
2.02 0.0099999998 -0.16
2.02 0.0099999998 -0.14
2.02 0.0099999998 -0.12
2.02 0.0099999998 -0.1
2.02 0.0099999998 -0.079999998
2.02 0.0099999998 -0.059999999000000005
2.02 0.0099999998 -0.039999999
2.02 0.0099999998 -0.02
2.02 0.0099999998 0.0
2.02 0.0099999998 0.02
2.02 0.0099999998 0.039999999
2.02 0.0099999998 0.059999999000000005
2.02 0.0099999998 0.079999998
2.02 0.0099999998 0.1
2.02 0.0099999998 0.12
2.02 0.0099999998 0.14
2.02 0.0099999998 0.16
2.02 0.0099999998 0.18000001
2.04 0.0099999998 -0.40000001
2.04 0.0099999998 -0.38
2.04 0.0099999998 -0.36000001
2.04 0.0099999998 -0.34
2.04 0.0099999998 -0.31999999
2.04 0.0099999998 -0.30000001
2.04 0.0099999998 -0.28
2.04 0.0099999998 -0.25999999
2.04 0.0099999998 -0.23999999
2.04 0.0099999998 -0.22
2.04 0.0099999998 -0.2
2.04 0.0099999998 -0.18000001
2.04 0.0099999998 -0.16
2.04 0.0099999998 -0.14
2.04 0.0099999998 -0.12
2.04 0.0099999998 -0.1
2.04 0.0099999998 -0.079999998
2.04 0.0099999998 -0.059999999000000005
2.04 0.0099999998 -0.039999999
2.04 0.0099999998 -0.02
2.04 0.0099999998 0.0
2.04 0.0099999998 0.02
2.04 0.0099999998 0.039999999
2.04 0.0099999998 0.059999999000000005
2.04 0.0099999998 0.079999998
2.04 0.0099999998 0.1
2.04 0.0099999998 0.12
2.04 0.0099999998 0.14
2.04 0.0099999998 0.16
2.04 0.0099999998 0.18000001
2.04 0.0099999998 0.2
2.04 0.0099999998 0.22
2.04 0.0099999998 0.23999999
2.04 0.0099999998 0.25999999
2.04 0.0099999998 0.28
2.0599998999999998 0.0099999998 -0.40000001
2.0599998999999998 0.0099999998 -0.38
2.0599998999999998 0.0099999998 -0.36000001
2.0599998999999998 0.0099999998 -0.34
2.0599998999999998 0.0099999998 -0.31999999
2.0599998999999998 0.0099999998 -0.30000001
2.0599998999999998 0.0099999998 -0.28
2.0599998999999998 0.0099999998 -0.25999999
2.0599998999999998 0.0099999998 -0.23999999
2.0599998999999998 0.0099999998 -0.22
2.0599998999999998 0.0099999998 -0.2
2.0599998999999998 0.0099999998 -0.18000001
2.0599998999999998 0.0099999998 -0.16
2.0599998999999998 0.0099999998 -0.14
2.0599998999999998 0.0099999998 -0.12
2.0599998999999998 0.0099999998 -0.1
2.0599998999999998 0.0099999998 -0.079999998
2.0599998999999998 0.0099999998 -0.059999999000000005
2.0599998999999998 0.0099999998 -0.039999999
2.0599998999999998 0.0099999998 -0.02
2.0599998999999998 0.0099999998 0.0
2.0599998999999998 0.0099999998 0.02
2.0599998999999998 0.0099999998 0.039999999
2.0599998999999998 0.0099999998 0.059999999000000005
2.0599998999999998 0.0099999998 0.079999998
2.0599998999999998 0.0099999998 0.1
2.0599998999999998 0.0099999998 0.12
2.0599998999999998 0.0099999998 0.14
2.0599998999999998 0.0099999998 0.16
2.0599998999999998 0.0099999998 0.18000001
2.0599998999999998 0.0099999998 0.2
2.0599998999999998 0.0099999998 0.22
2.0599998999999998 0.0099999998 0.23999999
2.0599998999999998 0.0099999998 0.25999999
2.0599998999999998 0.0099999998 0.28
2.0599998999999998 0.0099999998 0.30000001
2.0599998999999998 0.0099999998 0.31999999
2.0599998999999998 0.0099999998 0.34
2.0599998999999998 0.0099999998 0.36000001
2.0599998999999998 0.0099999998 0.38
2.0799999 0.0099999998 -0.40000001
2.0799999 0.0099999998 -0.38
2.0799999 0.0099999998 -0.36000001
2.0799999 0.0099999998 -0.34
2.0799999 0.0099999998 -0.31999999
2.0799999 0.0099999998 -0.30000001
2.0799999 0.0099999998 -0.28
2.0799999 0.0099999998 -0.25999999
2.0799999 0.0099999998 -0.23999999
2.0799999 0.0099999998 -0.22
2.0799999 0.0099999998 -0.2
2.0799999 0.0099999998 -0.18000001
2.0799999 0.0099999998 -0.16
2.0799999 0.0099999998 -0.14
2.0799999 0.0099999998 -0.12
2.0799999 0.0099999998 -0.1
2.0799999 0.0099999998 -0.079999998
2.0799999 0.0099999998 -0.059999999000000005
2.0799999 0.0099999998 -0.039999999
2.0799999 0.0099999998 -0.02
2.0799999 0.0099999998 0.0
2.0799999 0.0099999998 0.02
2.0799999 0.0099999998 0.039999999
2.0799999 0.0099999998 0.059999999000000005
2.0799999 0.0099999998 0.079999998
2.0799999 0.0099999998 0.1
2.0799999 0.0099999998 0.12
2.0799999 0.0099999998 0.14
2.0799999 0.0099999998 0.16
2.0799999 0.0099999998 0.18000001
2.0799999 0.0099999998 0.2
2.0799999 0.0099999998 0.22
2.0799999 0.0099999998 0.23999999
2.0799999 0.0099999998 0.25999999
2.0799999 0.0099999998 0.28
2.0799999 0.0099999998 0.30000001
2.0799999 0.0099999998 0.31999999
2.0799999 0.0099999998 0.34
2.0799999 0.0099999998 0.36000001
2.0799999 0.0099999998 0.38
2.0799999 0.0099999998 0.40000001
2.0999999 0.0099999998 -0.40000001
2.0999999 0.0099999998 -0.38
2.0999999 0.0099999998 -0.36000001
2.0999999 0.0099999998 -0.34
2.0999999 0.0099999998 -0.31999999
2.0999999 0.0099999998 -0.30000001
2.0999999 0.0099999998 -0.28
2.0999999 0.0099999998 -0.25999999
2.0999999 0.0099999998 -0.23999999
2.0999999 0.0099999998 -0.22
2.0999999 0.0099999998 -0.2
2.0999999 0.0099999998 -0.18000001
2.0999999 0.0099999998 -0.16
2.0999999 0.0099999998 -0.14
2.0999999 0.0099999998 -0.12
2.0999999 0.0099999998 -0.1
2.0999999 0.0099999998 -0.079999998
2.0999999 0.0099999998 -0.059999999000000005
2.0999999 0.0099999998 -0.039999999
2.0999999 0.0099999998 -0.02
2.0999999 0.0099999998 0.0
2.0999999 0.0099999998 0.02
2.0999999 0.0099999998 0.039999999
2.0999999 0.0099999998 0.059999999000000005
2.0999999 0.0099999998 0.079999998
2.0999999 0.0099999998 0.1
2.0999999 0.0099999998 0.12
2.0999999 0.0099999998 0.14
2.0999999 0.0099999998 0.16
2.0999999 0.0099999998 0.18000001
2.0999999 0.0099999998 0.2
2.0999999 0.0099999998 0.22
2.0999999 0.0099999998 0.23999999
2.0999999 0.0099999998 0.25999999
2.0999999 0.0099999998 0.28
2.0999999 0.0099999998 0.30000001
2.0999999 0.0099999998 0.31999999
2.0999999 0.0099999998 0.34
2.0999999 0.0099999998 0.36000001
2.0999999 0.0099999998 0.38
2.0999999 0.0099999998 0.40000001
2.1199999 0.0099999998 -0.41999999
2.1199999 0.0099999998 -0.40000001
2.1199999 0.0099999998 -0.38
2.1199999 0.0099999998 -0.36000001
2.1199999 0.0099999998 -0.34
2.1199999 0.0099999998 -0.31999999
2.1199999 0.0099999998 -0.30000001
2.1199999 0.0099999998 -0.28
2.1199999 0.0099999998 -0.25999999
2.1199999 0.0099999998 -0.23999999
2.1199999 0.0099999998 -0.22
2.1199999 0.0099999998 -0.2
2.1199999 0.0099999998 -0.18000001
2.1199999 0.0099999998 -0.16
2.1199999 0.0099999998 -0.14
2.1199999 0.0099999998 -0.12
2.1199999 0.0099999998 -0.1
2.1199999 0.0099999998 -0.079999998
2.1199999 0.0099999998 -0.059999999000000005
2.1199999 0.0099999998 -0.039999999
2.1199999 0.0099999998 -0.02
2.1199999 0.0099999998 0.0
2.1199999 0.0099999998 0.02
2.1199999 0.0099999998 0.039999999
2.1199999 0.0099999998 0.059999999000000005
2.1199999 0.0099999998 0.079999998
2.1199999 0.0099999998 0.1
2.1199999 0.0099999998 0.12
2.1199999 0.0099999998 0.14
2.1199999 0.0099999998 0.16
2.1199999 0.0099999998 0.18000001
2.1199999 0.0099999998 0.2
2.1199999 0.0099999998 0.22
2.1199999 0.0099999998 0.23999999
2.1199999 0.0099999998 0.25999999
2.1199999 0.0099999998 0.28
2.1199999 0.0099999998 0.30000001
2.1199999 0.0099999998 0.31999999
2.1199999 0.0099999998 0.34
2.1199999 0.0099999998 0.36000001
2.1199999 0.0099999998 0.38
2.1199999 0.0099999998 0.40000001
2.1400001 0.0099999998 -0.38
2.1400001 0.0099999998 -0.36000001
2.1400001 0.0099999998 -0.34
2.1400001 0.0099999998 -0.31999999
2.1400001 0.0099999998 -0.30000001
2.1400001 0.0099999998 -0.28
2.1400001 0.0099999998 -0.25999999
2.1400001 0.0099999998 -0.23999999
2.1400001 0.0099999998 -0.22
2.1400001 0.0099999998 -0.2
2.1400001 0.0099999998 -0.18000001
2.1400001 0.0099999998 -0.16
2.1400001 0.0099999998 -0.14
2.1400001 0.0099999998 -0.12
2.1400001 0.0099999998 -0.1
2.1400001 0.0099999998 -0.079999998
2.1400001 0.0099999998 -0.059999999000000005
2.1400001 0.0099999998 -0.039999999
2.1400001 0.0099999998 -0.02
2.1400001 0.0099999998 0.0
2.1400001 0.0099999998 0.02
2.1400001 0.0099999998 0.039999999
2.1400001 0.0099999998 0.059999999000000005
2.1400001 0.0099999998 0.079999998
2.1400001 0.0099999998 0.1
2.1400001 0.0099999998 0.12
2.1400001 0.0099999998 0.14
2.1400001 0.0099999998 0.16
2.1400001 0.0099999998 0.18000001
2.1400001 0.0099999998 0.2
2.1400001 0.0099999998 0.22
2.1400001 0.0099999998 0.23999999
2.1400001 0.0099999998 0.25999999
2.1400001 0.0099999998 0.28
2.1400001 0.0099999998 0.30000001
2.1400001 0.0099999998 0.31999999
2.1400001 0.0099999998 0.34
2.1400001 0.0099999998 0.36000001
2.1400001 0.0099999998 0.38
2.1400001 0.0099999998 0.40000001
2.1600001 0.0099999998 -0.28
2.1600001 0.0099999998 -0.25999999
2.1600001 0.0099999998 -0.23999999
2.1600001 0.0099999998 -0.22
2.1600001 0.0099999998 -0.2
2.1600001 0.0099999998 -0.18000001
2.1600001 0.0099999998 -0.16
2.1600001 0.0099999998 -0.14
2.1600001 0.0099999998 -0.12
2.1600001 0.0099999998 -0.1
2.1600001 0.0099999998 -0.079999998
2.1600001 0.0099999998 -0.059999999000000005
2.1600001 0.0099999998 -0.039999999
2.1600001 0.0099999998 -0.02
2.1600001 0.0099999998 0.0
2.1600001 0.0099999998 0.02
2.1600001 0.0099999998 0.039999999
2.1600001 0.0099999998 0.059999999000000005
2.1600001 0.0099999998 0.079999998
2.1600001 0.0099999998 0.1
2.1600001 0.0099999998 0.12
2.1600001 0.0099999998 0.14
2.1600001 0.0099999998 0.16
2.1600001 0.0099999998 0.18000001
2.1600001 0.0099999998 0.2
2.1600001 0.0099999998 0.22
2.1600001 0.0099999998 0.23999999
2.1600001 0.0099999998 0.25999999
2.1600001 0.0099999998 0.28
2.1600001 0.0099999998 0.30000001
2.1600001 0.0099999998 0.31999999
2.1600001 0.0099999998 0.34
2.1600001 0.0099999998 0.36000001
2.1600001 0.0099999998 0.38
2.1600001 0.0099999998 0.40000001
2.1800001 0.0099999998 -0.18000001
2.1800001 0.0099999998 -0.16
2.1800001 0.0099999998 -0.14
2.1800001 0.0099999998 -0.12
2.1800001 0.0099999998 -0.1
2.1800001 0.0099999998 -0.079999998
2.1800001 0.0099999998 -0.059999999000000005
2.1800001 0.0099999998 -0.039999999
2.1800001 0.0099999998 -0.02
2.1800001 0.0099999998 0.0
2.1800001 0.0099999998 0.02
2.1800001 0.0099999998 0.039999999
2.1800001 0.0099999998 0.059999999000000005
2.1800001 0.0099999998 0.079999998
2.1800001 0.0099999998 0.1
2.1800001 0.0099999998 0.12
2.1800001 0.0099999998 0.14
2.1800001 0.0099999998 0.16
2.1800001 0.0099999998 0.18000001
2.1800001 0.0099999998 0.2
2.1800001 0.0099999998 0.22
2.1800001 0.0099999998 0.23999999
2.1800001 0.0099999998 0.25999999
2.1800001 0.0099999998 0.28
2.1800001 0.0099999998 0.30000001
2.1800001 0.0099999998 0.31999999
2.1800001 0.0099999998 0.34
2.1800001 0.0099999998 0.36000001
2.1800001 0.0099999998 0.38
2.1800001 0.0099999998 0.40000001
2.2 0.0099999998 -0.079999998
2.2 0.0099999998 -0.059999999000000005
2.2 0.0099999998 -0.039999999
2.2 0.0099999998 -0.02
2.2 0.0099999998 0.0
2.2 0.0099999998 0.02
2.2 0.0099999998 0.039999999
2.2 0.0099999998 0.059999999000000005
2.2 0.0099999998 0.079999998
2.2 0.0099999998 0.1
2.2 0.0099999998 0.12
2.2 0.0099999998 0.14
2.2 0.0099999998 0.16
2.2 0.0099999998 0.18000001
2.2 0.0099999998 0.2
2.2 0.0099999998 0.22
2.2 0.0099999998 0.23999999
2.2 0.0099999998 0.25999999
2.2 0.0099999998 0.28
2.2 0.0099999998 0.30000001
2.2 0.0099999998 0.31999999
2.2 0.0099999998 0.34
2.2 0.0099999998 0.36000001
2.2 0.0099999998 0.38
2.22 0.0099999998 0.02
2.22 0.0099999998 0.039999999
2.22 0.0099999998 0.059999999000000005
2.22 0.0099999998 0.079999998
2.22 0.0099999998 0.1
2.22 0.0099999998 0.12
2.22 0.0099999998 0.14
2.22 0.0099999998 0.16
2.22 0.0099999998 0.18000001
2.22 0.0099999998 0.2
2.22 0.0099999998 0.22
2.22 0.0099999998 0.23999999
2.22 0.0099999998 0.25999999
2.22 0.0099999998 0.28
2.22 0.0099999998 0.30000001
2.22 0.0099999998 0.31999999
2.22 0.0099999998 0.34
2.22 0.0099999998 0.36000001
2.22 0.0099999998 0.38
2.24 0.0099999998 0.12
2.24 0.0099999998 0.14
2.24 0.0099999998 0.16
2.24 0.0099999998 0.18000001
2.24 0.0099999998 0.2
2.24 0.0099999998 0.22
2.24 0.0099999998 0.23999999
2.24 0.0099999998 0.25999999
2.24 0.0099999998 0.28
2.24 0.0099999998 0.30000001
2.24 0.0099999998 0.31999999
2.24 0.0099999998 0.34
2.24 0.0099999998 0.36000001
2.24 0.0099999998 0.38
2.26 0.0099999998 0.22
2.26 0.0099999998 0.23999999
2.26 0.0099999998 0.25999999
2.26 0.0099999998 0.28
2.26 0.0099999998 0.30000001
2.26 0.0099999998 0.31999999
2.26 0.0099999998 0.34
2.26 0.0099999998 0.36000001
2.26 0.0099999998 0.38
2.28 0.0099999998 0.31999999
2.28 0.0099999998 0.34
2.28 0.0099999998 0.36000001
-6.8447768e-08 0.0099999998 -0.28000003
-8.27539e-08 0.0099999998 -0.26000002
-9.482830900000002e-08 0.0099999998 -0.24000002
-1.0435986e-07 0.0099999998 -0.22000001
-1.1170928999999999e-07 0.0099999998 -0.20000002
0.019999927 0.0099999998 -0.30000004
0.019999901 0.0099999998 -0.28000003
0.019999878000000002 0.0099999998 -0.26000002
0.01999986 0.0099999998 -0.24000002
0.019999845 0.0099999998 -0.22000003
0.019999836 0.0099999998 -0.20000002
0.039999895 0.0099999998 -0.30000004
0.039999858 0.0099999998 -0.28000003
0.039999823999999996 0.0099999998 -0.26000005
0.039999797999999996 0.0099999998 -0.24000004
0.039999776 0.0099999998 -0.22000004
0.039999761 0.0099999998 -0.20000003
0.059999853 0.0099999998 -0.30000004
0.059999797 0.0099999998 -0.28000006
0.059999752999999996 0.0099999998 -0.26000005
0.059999715999999995 0.0099999998 -0.24000005
0.059999689 0.0099999998 -0.22000004
0.059999671 0.0099999998 -0.20000003
0.079999797 0.0099999998 -0.30000007
0.079999723 0.0099999998 -0.28000006
0.079999663 0.0099999998 -0.26000005
0.079999618 0.0099999998 -0.24000005
0.079999581 0.0099999998 -0.22000006
0.079999559 0.0099999998 -0.20000005
0.099999726 0.0099999998 -0.30000007
0.099999629 0.0099999998 -0.28000009
0.099999547 0.0099999998 -0.26000008
0.099999487 0.0099999998 -0.24000007
0.09999944300000001 0.0099999998 -0.22000006
0.09999941300000001 0.0099999998 -0.20000005
0.11999962 0.0099999998 -0.3000001
0.1199995 0.0099999998 -0.28000009
0.1199994 0.0099999998 -0.26000008
0.11999933 0.0099999998 -0.24000008
0.11999927 0.0099999998 -0.22000007
0.11999924 0.0099999998 -0.20000006
0.13999949 0.0099999998 -0.30000013
0.13999933 0.0099999998 -0.28000012
0.13999921 0.0099999998 -0.26000011
0.13999912 0.0099999998 -0.2400001
0.13999905 0.0099999998 -0.22000009
0.13999902 0.0099999998 -0.20000008
0.15999933 0.0099999998 -0.30000019
0.15999912 0.0099999998 -0.28000015
0.15999897 0.0099999998 -0.26000014
0.15999885 0.0099999998 -0.24000013
0.15999877 0.0099999998 -0.22000012
0.15999873 0.0099999998 -0.20000009
0.17999908 0.0099999998 -0.30000022
0.17999883 0.0099999998 -0.28000021
0.17999865 0.0099999998 -0.26000017
0.17999852 0.0099999998 -0.24000016
0.17999843 0.0099999998 -0.22000015
0.17999837 0.0099999998 -0.20000012
0.19999875 0.0099999998 -0.30000028
0.19999845 0.0099999998 -0.28000024
0.19999824 0.0099999998 -0.26000023
0.19999808 0.0099999998 -0.2400002
0.19999798 0.0099999998 -0.22000019
0.19999792 0.0099999998 -0.20000017
0.21999833 0.0099999998 -0.30000046
0.21999797 0.0099999998 -0.28000036
0.21999772 0.0099999998 -0.26000032
0.21999754 0.0099999998 -0.24000028
0.21999742 0.0099999998 -0.22000025
0.21999736 0.0099999998 -0.20000021
0.23999773 0.0099999998 -0.30000085
0.23999733 0.0099999998 -0.28000063
0.23999704 0.0099999998 -0.26000047
0.23999685 0.0099999998 -0.2400004
0.23999672 0.0099999998 -0.22000033
0.23999666 0.0099999998 -0.20000027
0.25999689 0.0099999998 -0.30000132
0.25999647 0.0099999998 -0.28000098
0.25999618 0.0099999998 -0.26000074
0.25999597 0.0099999998 -0.24000056
0.25999585 0.0099999998 -0.22000046
0.25999579 0.0099999998 -0.20000036
0.27999577 0.0099999998 -0.30000186
0.27999535 0.0099999998 -0.2800014
0.27999505 0.0099999998 -0.26000103
0.27999485 0.0099999998 -0.24000078
0.27999476 0.0099999998 -0.22000062
0.2799947 0.0099999998 -0.20000048
0.29999438 0.0099999998 -0.3000024
0.29999396 0.0099999998 -0.28000185
0.29999366 0.0099999998 -0.26000139
0.29999349 0.0099999998 -0.24000105
0.2999934 0.0099999998 -0.22000082
0.29999334 0.0099999998 -0.20000063
0.31999272 0.0099999998 -0.30000299
0.31999227 0.0099999998 -0.28000236
0.31999198 0.0099999998 -0.26000178
0.31999177 0.0099999998 -0.24000135
0.31999171 0.0099999998 -0.22000104
0.31999168 0.0099999998 -0.20000079
0.33999076 0.0099999998 -0.30000368
0.33999023 0.0099999998 -0.28000292
0.3399899 0.0099999998 -0.26000223
0.33998969 0.0099999998 -0.24000169
0.33998963 0.0099999998 -0.2200013
0.33998966 0.0099999998 -0.20000097
0.35998836 0.0099999998 -0.30000454
0.35998774 0.0099999998 -0.28000361
0.35998732 0.0099999998 -0.26000276
0.35998714 0.0099999998 -0.2400021
0.35998708 0.0099999998 -0.22000159
0.35998714 0.0099999998 -0.20000118
0.37998542 0.0099999998 -0.30000558
0.37998465 0.0099999998 -0.28000441
0.3799842 0.0099999998 -0.26000336
0.37998399 0.0099999998 -0.24000254
0.37998396 0.0099999998 -0.22000192
0.37998411 0.0099999998 -0.2000014
0.3999818 0.0099999998 -0.30000684
0.39998087 0.0099999998 -0.2800054
0.39998034 0.0099999998 -0.2600041
0.39998013 0.0099999998 -0.24000306
0.39998019 0.0099999998 -0.22000229
0.3999804 0.0099999998 -0.20000167
0.41997731 0.0099999998 -0.30000839
0.41997623 0.0099999998 -0.28000659
0.41997564 0.0099999998 -0.26000494
0.41997543 0.0099999998 -0.24000366
0.41997558 0.0099999998 -0.22000273
0.41997594 0.0099999998 -0.200002
0.43997177 0.0099999998 -0.30001026
0.43997049 0.0099999998 -0.28000799
0.43996984 0.0099999998 -0.26000589
0.43996972 0.0099999998 -0.24000435
0.43997002 0.0099999998 -0.22000323
0.43997058 0.0099999998 -0.2000024
0.45996487 0.0099999998 -0.30001259
0.45996341 0.0099999998 -0.28000966
0.45996276 0.0099999998 -0.26000702
0.45996279 0.0099999998 -0.24000515
0.45996332 0.0099999998 -0.22000389
0.45996416 0.0099999998 -0.20000298
0.47995624 0.0099999998 -0.30001542
0.47995469 0.0099999998 -0.28001162
0.47995412 0.0099999998 -0.26000834
0.47995442 0.0099999998 -0.24000618
0.47995529 0.0099999998 -0.2200048
0.47995651 0.0099999998 -0.20000386
0.4999454 0.0099999998 -0.30001894
0.49994391 0.0099999998 -0.28001398
0.49994364 0.0099999998 -0.26000991
0.49994439 0.0099999998 -0.24000758
0.4999457 0.0099999998 -0.22000617
0.4999474 0.0099999998 -0.20000525
0.51993167 0.0099999998 -0.30002329
0.51993072 0.0099999998 -0.2800169
0.51993114 0.0099999998 -0.26001206
0.51993251 0.0099999998 -0.2400097
0.51993448 0.0099999998 -0.22000833
0.51993674 0.0099999998 -0.20000742
0.53991461 0.0099999998 -0.3000288
0.53991497 0.0099999998 -0.28002071
0.53991652 0.0099999998 -0.26001522
0.53991896 0.0099999998 -0.24001297
0.53992164 0.0099999998 -0.22001171
0.5399245 0.0099999998 -0.20001075
0.55989403 0.0099999998 -0.3000361
0.55989677 0.0099999998 -0.2800262
0.55990022 0.0099999998 -0.26002014
0.55990386 0.0099999998 -0.24001801
0.55990744 0.0099999998 -0.22001675
0.55991095 0.0099999998 -0.20001554
0.5798707 0.0099999998 -0.30004621
0.57987702 0.0099999998 -0.2800346
0.57988286 0.0099999998 -0.2600278
0.57988793 0.0099999998 -0.24002536
0.57989246 0.0099999998 -0.22002386
0.57989657 0.0099999998 -0.20002191
0.59984672 0.0099999998 -0.30006072
0.59985697 0.0099999998 -0.28004789
0.59986526 0.0099999998 -0.26003942
0.59987199 0.0099999998 -0.24003562
0.5998773 0.0099999998 -0.22003271
0.59988201 0.0099999998 -0.20002963
0.61982518 0.0099999998 -0.30008209
0.6198386 0.0099999998 -0.28006896
0.61984867 0.0099999998 -0.26005751
0.61985618 0.0099999998 -0.24004926
0.61986256 0.0099999998 -0.22004361
0.6198681 0.0099999998 -0.20003869
0.63980901 0.0099999998 -0.30011237
0.63982415 0.0099999998 -0.28010076
0.63983512 0.0099999998 -0.26008698
0.63984275 0.0099999998 -0.24007057
0.63984936 0.0099999998 -0.22005813
0.63985568 0.0099999998 -0.20004977
0.65980077 0.0099999998 -0.30014798
0.65981621 0.0099999998 -0.28014052
0.65982795 0.0099999998 -0.26012793
0.65983456 0.0099999998 -0.2401024
0.65984064 0.0099999998 -0.22007991
0.65984702 0.0099999998 -0.20006499
0.67980647 0.0099999998 -0.30018038
0.67981786 0.0099999998 -0.28017727
0.67982912 0.0099999998 -0.2601679
0.67983389 0.0099999998 -0.24013716
0.6798383 0.0099999998 -0.22010535
0.67984408 0.0099999998 -0.20008326
0.69983852 0.0099999998 -0.30020446
0.69983727 0.0099999998 -0.28020355
0.69984353 0.0099999998 -0.26019827
0.69984591 0.0099999998 -0.2401658
0.699848 0.0099999998 -0.22012888
0.69985259 0.0099999998 -0.20010164
0.71988636 0.0099999998 -0.30021986
0.71988147 0.0099999998 -0.28021812
0.71987933 0.0099999998 -0.26021484
0.71987903 0.0099999998 -0.24018325
0.71988112 0.0099999998 -0.22014444
0.71988535 0.0099999998 -0.20011477
0.73992985 0.0099999998 -0.30022919
0.73992616 0.0099999998 -0.28022552
0.73992407 0.0099999998 -0.260221
0.73992342 0.0099999998 -0.24018946
0.73992467 0.0099999998 -0.22015099
0.73992741 0.0099999998 -0.20012121
0.75996363 0.0099999998 -0.30023494
0.75996131 0.0099999998 -0.28022942
0.75995988 0.0099999998 -0.26022345
0.75995916 0.0099999998 -0.24019186
0.75995958 0.0099999998 -0.22015415
0.75996095 0.0099999998 -0.20012476
0.77998853 0.0099999998 -0.30023819
0.77998739 0.0099999998 -0.28023148
0.77998662 0.0099999998 -0.26022431
0.77998608 0.0099999998 -0.24019247
0.7799859 0.0099999998 -0.22015522
0.7799862 0.0099999998 -0.20012625
0.80000812 0.0099999998 -0.30023947
0.80000806 0.0099999998 -0.28023219
0.80000788 0.0099999998 -0.26022425
0.80000752 0.0099999998 -0.24019215
0.80000699 0.0099999998 -0.22015491
0.80000651 0.0099999998 -0.20012617
0.82002616 0.0099999998 -0.30023894
0.82002717 0.0099999998 -0.28023171
0.82002735 0.0099999998 -0.26022357
0.82002723 0.0099999998 -0.24019106
0.8200264 0.0099999998 -0.22015354
0.82002521 0.0099999998 -0.20012484
0.84004486 0.0099999998 -0.30023542
0.84004664 0.0099999998 -0.28022841
0.840047 0.0099999998 -0.26022017
0.84004706 0.0099999998 -0.24018779
0.84004599 0.0099999998 -0.2201505
0.84004408 0.0099999998 -0.20012221
0.86006403 0.0099999998 -0.30022886
0.86006653 0.0099999998 -0.280222
0.86006683 0.0099999998 -0.2602137
0.86006707 0.0099999998 -0.2401821
0.86006576 0.0099999998 -0.22014572
0.86006314 0.0099999998 -0.20011821
0.88008237 0.0099999998 -0.30021957
0.88008541 0.0099999998 -0.28021282
0.88008565 0.0099999998 -0.26020432
0.88008606 0.0099999998 -0.240174
0.88008446 0.0099999998 -0.22013921
0.88008112 0.0099999998 -0.20011294
0.90009856 0.0099999998 -0.30020803
0.90010178 0.0099999998 -0.28020123
0.90010166 0.0099999998 -0.26019239
0.90010232 0.0099999998 -0.24016361
0.90010059 0.0099999998 -0.2201311
0.90009665 0.0099999998 -0.20010646
0.92011142 0.0099999998 -0.30019471
0.92011416 0.0099999998 -0.2801877
0.92011386 0.0099999998 -0.26017851
0.9201147 0.0099999998 -0.24015151
0.92011285 0.0099999998 -0.22012168
0.9201079 0.0099999998 -0.20009902
0.9401201 0.0099999998 -0.30018017
0.94012254 0.0099999998 -0.28017306
0.94012213 0.0099999998 -0.26016364
0.94012284 0.0099999998 -0.24013853
0.94011873 0.0099999998 -0.2201115
0.94011158 0.0099999998 -0.20009103
0.96012604 0.0099999998 -0.30016509
0.96012813 0.0099999998 -0.28015795
0.96012729 0.0099999998 -0.26014856
0.96012592 0.0099999998 -0.24012549
0.96011925 0.0099999998 -0.22010104
0.96011126 0.0099999998 -0.20008275
0.98013103 0.0099999998 -0.30014983
0.98013228 0.0099999998 -0.28014278
0.98013026 0.0099999998 -0.26013368
0.98012608 0.0099999998 -0.24011268
0.98011786 0.0099999998 -0.22009057
0.98010933 0.0099999998 -0.20007454
1.0001369 0.0099999998 -0.30013469
1.0001363 0.0099999998 -0.28012788
1.0001321 0.0099999998 -0.26011935
1.0001252 0.0099999998 -0.24010034
1.0001154 0.0099999998 -0.22008058
1.0001065 0.0099999998 -0.2000668
1.0201452 0.0099999998 -0.30012012
1.020141 0.0099999998 -0.28011376
1.0201337 0.0099999998 -0.26010615
1.0201238000000001 0.0099999998 -0.24008916
1.0201126 0.0099999998 -0.22007187
1.0201033000000002 0.0099999998 -0.20005986
1.0401576 0.0099999998 -0.30010805
1.0401478000000002 0.0099999998 -0.28010178
1.040136 0.0099999998 -0.26009461
1.0401227 0.0099999998 -0.24007986
1.04011 0.0099999998 -0.22006465
1.0401 0.0099999998 -0.2000535
1.0601709 0.0099999998 -0.30009931
1.0601553 0.0099999998 -0.28009269
1.0601388 0.0099999998 -0.26008561
1.060122 0.0099999998 -0.24007268
1.0601076999999999 0.0099999998 -0.22005884
1.0600966 0.0099999998 -0.20004816
1.0801803 0.0099999998 -0.30009201
1.0801610000000001 0.0099999998 -0.28008553
1.0801415 0.0099999998 -0.26007852
1.0801221 0.0099999998 -0.2400672
1.0801061 0.0099999998 -0.22005445
1.0800937 0.0099999998 -0.2000439
1.100163 0.0099999998 -0.28007931
1.1001433 0.0099999998 -0.26007259
1.100123 0.0099999998 -0.240063
1.1001054 0.0099999998 -0.22005118
1.1000917 0.0099999998 -0.20004065
1.1201618999999998 0.0099999998 -0.28007415
1.1201441 0.0099999998 -0.26006791
1.1201248 0.0099999998 -0.24005975
1.120106 0.0099999998 -0.22004899
1.1200906000000002 0.0099999998 -0.2000384
1.1401436000000003 0.0099999998 -0.26006454
1.1401266 0.0099999998 -0.24005754
1.1401081 0.0099999998 -0.22004811
1.1400911 0.0099999998 -0.20003748
1.1601419 0.0099999998 -0.26006192
1.160128 0.0099999998 -0.24005637
1.1601113 0.0099999998 -0.22004826
1.1600939 0.0099999998 -0.20003828
1.1801277000000001 0.0099999998 -0.24005541
1.1801144 0.0099999998 -0.22004904
1.1800985000000002 0.0099999998 -0.20004036
1.2001157 0.0099999998 -0.22004944
1.2001034 0.0099999998 -0.20004259
1.2201133999999998 0.0099999998 -0.22004853
1.2201058999999999 0.0099999998 -0.20004408
-1.1714914e-07 0.0099999998 -0.18000001
-1.2108194000000002e-07 0.0099999998 -0.16000001
-1.2380363e-07 0.0099999998 -0.14000002
-1.2564594e-07 0.0099999998 -0.12
-1.2685157e-07 0.0099999998 -0.10000001
-1.2760988e-07 0.0099999998 -0.080000006
-1.2807125e-07 0.0099999998 -0.060000002000000004
-1.2833443e-07 0.0099999998 -0.040000003
-1.2846657e-07 0.0099999998 -0.020000001
0.019999826000000002 0.0099999998 -0.18000002
0.019999823 0.0099999998 -0.16000001
0.019999819 0.0099999998 -0.14000002
0.019999815 0.0099999998 -0.12000001
0.019999813 0.0099999998 -0.10000001
0.019999813 0.0099999998 -0.080000006
0.019999813 0.0099999998 -0.060000002000000004
0.019999813 0.0099999998 -0.040000003
0.019999811 0.0099999998 -0.020000001
0.039999753 0.0099999998 -0.18000002
0.039999746 0.0099999998 -0.16000003
0.039999738 0.0099999998 -0.14000002
0.039999738 0.0099999998 -0.12000001
0.039999735 0.0099999998 -0.10000001
0.039999735 0.0099999998 -0.080000006
0.039999735 0.0099999998 -0.060000005999999995
0.039999735 0.0099999998 -0.040000003
0.039999735 0.0099999998 -0.020000001
0.059999656 0.0099999998 -0.18000004
0.059999647999999996 0.0099999998 -0.16000003
0.059999641 0.0099999998 -0.14000002
0.059999637 0.0099999998 -0.12000002
0.059999637 0.0099999998 -0.10000002
0.059999637 0.0099999998 -0.080000013
0.059999634 0.0099999998 -0.060000005999999995
0.059999634 0.0099999998 -0.040000003
0.059999634 0.0099999998 -0.020000001
0.079999536 0.0099999998 -0.18000004
0.079999529 0.0099999998 -0.16000003
0.07999952099999999 0.0099999998 -0.14000003
0.07999952099999999 0.0099999998 -0.12000002
0.07999951400000001 0.0099999998 -0.10000002
0.07999951400000001 0.0099999998 -0.080000013
0.07999951400000001 0.0099999998 -0.06000001
0.07999951400000001 0.0099999998 -0.040000007000000004
0.07999951400000001 0.0099999998 -0.020000003
0.099999398 0.0099999998 -0.18000005
0.09999938300000001 0.0099999998 -0.16000004
0.099999376 0.0099999998 -0.14000003
0.099999368 0.0099999998 -0.12000003
0.099999368 0.0099999998 -0.10000002
0.099999368 0.0099999998 -0.080000013
0.099999368 0.0099999998 -0.06000001
0.099999368 0.0099999998 -0.040000007000000004
0.099999368 0.0099999998 -0.020000003
0.11999922 0.0099999998 -0.18000005
0.1199992 0.0099999998 -0.16000004
0.11999919 0.0099999998 -0.14000003
0.11999919 0.0099999998 -0.12000003
0.11999919 0.0099999998 -0.10000002
0.11999919 0.0099999998 -0.080000013
0.11999919 0.0099999998 -0.06000001
0.11999919 0.0099999998 -0.040000007000000004
0.11999919 0.0099999998 -0.020000003
0.13999899 0.0099999998 -0.18000007
0.13999897 0.0099999998 -0.16000006
0.13999896 0.0099999998 -0.14000005
0.13999896 0.0099999998 -0.12000003
0.13999896 0.0099999998 -0.10000002
0.13999896 0.0099999998 -0.08000002099999999
0.13999896 0.0099999998 -0.060000014000000004
0.13999896 0.0099999998 -0.04000001
0.13999897 0.0099999998 -0.020000003
0.1599987 0.0099999998 -0.18000008
0.15999869 0.0099999998 -0.16000007
0.15999867 0.0099999998 -0.14000006
0.15999867 0.0099999998 -0.12000004
0.15999867 0.0099999998 -0.10000003
0.15999869 0.0099999998 -0.08000002099999999
0.15999869 0.0099999998 -0.060000017
0.15999869 0.0099999998 -0.04000001
0.15999869 0.0099999998 -0.020000005
0.17999834 0.0099999998 -0.1800001
0.17999832 0.0099999998 -0.16000009
0.17999832 0.0099999998 -0.14000006
0.17999832 0.0099999998 -0.12000005
0.17999832 0.0099999998 -0.10000004
0.17999834 0.0099999998 -0.080000028
0.17999834 0.0099999998 -0.060000020999999994
0.17999834 0.0099999998 -0.04000001
0.17999834 0.0099999998 -0.020000005
0.19999789 0.0099999998 -0.18000013
0.19999787 0.0099999998 -0.1600001
0.19999787 0.0099999998 -0.14000009
0.19999789 0.0099999998 -0.12000006
0.19999789 0.0099999998 -0.10000005
0.1999979 0.0099999998 -0.080000035
0.1999979 0.0099999998 -0.060000025
0.19999792 0.0099999998 -0.040000014
0.19999792 0.0099999998 -0.020000007
0.21999733 0.0099999998 -0.18000017
0.21999732 0.0099999998 -0.16000013
0.21999732 0.0099999998 -0.1400001
0.21999733 0.0099999998 -0.12000008
0.21999735 0.0099999998 -0.10000006
0.21999736 0.0099999998 -0.08000004299999999
0.21999738 0.0099999998 -0.060000028
0.21999739 0.0099999998 -0.040000018
0.21999739 0.0099999998 -0.020000007
0.23999663 0.0099999998 -0.18000023
0.23999663 0.0099999998 -0.16000018
0.23999664 0.0099999998 -0.14000013
0.23999666 0.0099999998 -0.1200001
0.23999669 0.0099999998 -0.10000007
0.2399967 0.0099999998 -0.08000005
0.23999672 0.0099999998 -0.060000032
0.23999673 0.0099999998 -0.040000018
0.23999675 0.0099999998 -0.020000009
0.25999576 0.0099999998 -0.18000029
0.25999576 0.0099999998 -0.16000022
0.25999579 0.0099999998 -0.14000016
0.25999582 0.0099999998 -0.12000012
0.25999585 0.0099999998 -0.10000008
0.25999588 0.0099999998 -0.080000058
0.25999591 0.0099999998 -0.060000036
0.25999594 0.0099999998 -0.040000021000000004
0.25999594 0.0099999998 -0.020000011
0.2799947 0.0099999998 -0.18000038
0.27999473 0.0099999998 -0.16000028
0.27999476 0.0099999998 -0.14000021
0.27999482 0.0099999998 -0.12000015
0.27999485 0.0099999998 -0.10000011
0.2799949 0.0099999998 -0.080000065
0.27999493 0.0099999998 -0.060000042999999996
0.27999496 0.0099999998 -0.040000025
0.27999496 0.0099999998 -0.020000011
0.29999337 0.0099999998 -0.18000047
0.29999343 0.0099999998 -0.16000035
0.29999349 0.0099999998 -0.14000025
0.29999354 0.0099999998 -0.12000018
0.29999363 0.0099999998 -0.10000012
0.29999369 0.0099999998 -0.08000008
0.29999372 0.0099999998 -0.060000047
0.29999378 0.0099999998 -0.040000029
0.29999378 0.0099999998 -0.020000013
0.31999174 0.0099999998 -0.18000059
0.31999183 0.0099999998 -0.16000043
0.31999192 0.0099999998 -0.1400003
0.31999204 0.0099999998 -0.12000021
0.31999213 0.0099999998 -0.10000014
0.31999221 0.0099999998 -0.080000088
0.31999227 0.0099999998 -0.060000055
0.31999233 0.0099999998 -0.040000029
0.31999236 0.0099999998 -0.020000013
0.33998975 0.0099999998 -0.18000071
0.33998987 0.0099999998 -0.16000052
0.33999002 0.0099999998 -0.14000036
0.33999017 0.0099999998 -0.12000024
0.33999029 0.0099999998 -0.10000016
0.33999041 0.0099999998 -0.080000103
0.33999053 0.0099999998 -0.060000062
0.33999059 0.0099999998 -0.040000033
0.33999062 0.0099999998 -0.020000014
0.35998729 0.0099999998 -0.18000086
0.3599875 0.0099999998 -0.16000061
0.35998771 0.0099999998 -0.14000042
0.35998791 0.0099999998 -0.12000029
0.35998809 0.0099999998 -0.10000019
0.35998824 0.0099999998 -0.080000117
0.35998836 0.0099999998 -0.060000073
0.35998845 0.0099999998 -0.040000044
0.35998851 0.0099999998 -0.02000002
0.37998432 0.0099999998 -0.18000102
0.37998462 0.0099999998 -0.16000073
0.37998492 0.0099999998 -0.14000051
0.37998518 0.0099999998 -0.12000034
0.37998542 0.0099999998 -0.10000023
0.37998563 0.0099999998 -0.080000155
0.37998581 0.0099999998 -0.060000099
0.3799859 0.0099999998 -0.040000059
0.37998599 0.0099999998 -0.020000027
0.39998075 0.0099999998 -0.18000121
0.39998114 0.0099999998 -0.16000086
0.39998156 0.0099999998 -0.14000061
0.39998192 0.0099999998 -0.12000043
0.39998224 0.0099999998 -0.10000031
0.39998251 0.0099999998 -0.080000214
0.39998272 0.0099999998 -0.060000144000000005
0.39998287 0.0099999998 -0.040000088999999996
0.39998293 0.0099999998 -0.020000042
0.41997644 0.0099999998 -0.18000145
0.41997701 0.0099999998 -0.16000107
0.41997755 0.0099999998 -0.14000079
0.41997805 0.0099999998 -0.12000058
0.41997847 0.0099999998 -0.10000043
0.4199788 0.0099999998 -0.080000319
0.41997904 0.0099999998 -0.060000226
0.41997921 0.0099999998 -0.040000144
0.41997933 0.0099999998 -0.020000072
0.4399713 0.0099999998 -0.18000181
0.43997207 0.0099999998 -0.16000138
0.43997279 0.0099999998 -0.14000106
0.43997341 0.0099999998 -0.12000082
0.43997395 0.0099999998 -0.10000064
0.43997437 0.0099999998 -0.080000497
0.4399747 0.0099999998 -0.060000367
0.4399749 0.0099999998 -0.040000245
0.43997505 0.0099999998 -0.020000121000000003
0.45996517 0.0099999998 -0.18000235
0.45996618 0.0099999998 -0.16000187
0.45996714 0.0099999998 -0.14000152
0.45996794 0.0099999998 -0.12000123
0.45996863 0.0099999998 -0.100001
0.45996913 0.0099999998 -0.080000795
0.45996952 0.0099999998 -0.060000597999999995
0.45996979 0.0099999998 -0.040000401
0.45996994 0.0099999998 -0.020000203
0.47995785 0.0099999998 -0.1800032
0.47995919 0.0099999998 -0.16000268
0.47996041 0.0099999998 -0.14000225
0.47996143 0.0099999998 -0.12000189
0.47996226 0.0099999998 -0.10000156
0.47996289 0.0099999998 -0.080001257
0.47996336 0.0099999998 -0.060000949000000005
0.47996366 0.0099999998 -0.04000064
0.47996384 0.0099999998 -0.020000322
0.49994919 0.0099999998 -0.18000454
0.49995089 0.0099999998 -0.16000395
0.49995241 0.0099999998 -0.1400034
0.49995369 0.0099999998 -0.12000289
0.49995467 0.0099999998 -0.10000241
0.49995545 0.0099999998 -0.080001928
0.49995598 0.0099999998 -0.06000145900000001
0.49995634 0.0099999998 -0.040000983
0.49995652 0.0099999998 -0.020000493
0.51993901 0.0099999998 -0.18000662
0.51994109 0.0099999998 -0.16000587
0.51994294 0.0099999998 -0.14000511
0.51994449 0.0099999998 -0.12000435
0.51994568 0.0099999998 -0.10000361
0.51994658 0.0099999998 -0.080002882
0.51994723 0.0099999998 -0.060002163
0.51994765 0.0099999998 -0.040001445
0.51994783 0.0099999998 -0.020000723999999998
0.53992724 0.0099999998 -0.18000972
0.53992981 0.0099999998 -0.16000864
0.53993201 0.0099999998 -0.14000751
0.53993386 0.0099999998 -0.12000635
0.53993523 0.0099999998 -0.10000522
0.5399363 0.0099999998 -0.080004126
0.53993702 0.0099999998 -0.060003068
0.5399375 0.0099999998 -0.040002037000000004
0.53993773 0.0099999998 -0.020001017
0.55991423 0.0099999998 -0.18001407
0.55991715 0.0099999998 -0.16001245
0.55991977 0.0099999998 -0.14001071
0.55992192 0.0099999998 -0.12000898
0.55992353 0.0099999998 -0.1000073
0.55992472 0.0099999998 -0.08000572
0.55992556 0.0099999998 -0.060004216
0.55992609 0.0099999998 -0.040002777999999996
0.55992633 0.0099999998 -0.02000138
0.57990032 0.0099999998 -0.18001971
0.57990378 0.0099999998 -0.16001725
0.57990676 0.0099999998 -0.14001474
0.57990921 0.0099999998 -0.12001222
0.57991105 0.0099999998 -0.10000983
0.57991242 0.0099999998 -0.080007605
0.57991338 0.0099999998 -0.06000554599999999
0.57991397 0.0099999998 -0.040003624
0.57991427 0.0099999998 -0.02000179
0.59988636 0.0099999998 -0.18002632
0.59989035 0.0099999998 -0.16002294
0.59989381 0.0099999998 -0.14001949
0.59989661 0.0099999998 -0.120016
0.59989876 0.0099999998 -0.10001269
0.59990031 0.0099999998 -0.080009691
0.59990138 0.0099999998 -0.060006990999999996
0.59990203 0.0099999998 -0.04000454
0.59990245 0.0099999998 -0.020002237
0.61987317 0.0099999998 -0.18003416
0.61987776 0.0099999998 -0.16002972
0.61988175 0.0099999998 -0.14002506
0.61988491 0.0099999998 -0.12002033
0.61988735 0.0099999998 -0.10001589
0.61988908 0.0099999998 -0.080011941
0.61989033 0.0099999998 -0.060008507
0.61989111 0.0099999998 -0.040005479
0.61989158 0.0099999998 -0.020002686999999998
0.63986158 0.0099999998 -0.18004344
0.63986677 0.0099999998 -0.16003747
0.63987106 0.0099999998 -0.14003128
0.63987458 0.0099999998 -0.12002503
0.63987732 0.0099999998 -0.10001926
0.63987941 0.0099999998 -0.08001428099999999
0.63988084 0.0099999998 -0.060010068
0.63988185 0.0099999998 -0.040006428999999996
0.63988239 0.0099999998 -0.020003138
0.6598531 0.0099999998 -0.18005499
0.65985852 0.0099999998 -0.16004689
0.659863 0.0099999998 -0.14003882
0.65986669 0.0099999998 -0.12003078
0.65986967 0.0099999998 -0.10002343
0.659872 0.0099999998 -0.08001714900000001
0.65987366 0.0099999998 -0.060011957000000005
0.6598748 0.0099999998 -0.040007576
0.65987551 0.0099999998 -0.020003682
0.67985016 0.0099999998 -0.18006915
0.67985564 0.0099999998 -0.16005841
0.67986017 0.0099999998 -0.14004804
0.67986393 0.0099999998 -0.12003773
0.67986697 0.0099999998 -0.10002839
0.67986935 0.0099999998 -0.080020532
0.67987114 0.0099999998 -0.060014158
0.67987233 0.0099999998 -0.040008895
0.67987299 0.0099999998 -0.020004304
0.69985807 0.0099999998 -0.18008384
0.69986326 0.0099999998 -0.16007048
0.69986761 0.0099999998 -0.14005752
0.69987112 0.0099999998 -0.12004468
0.69987398 0.0099999998 -0.10003316
0.69987625 0.0099999998 -0.080023602
0.69987786 0.0099999998 -0.060016020999999996
0.69987893 0.0099999998 -0.040009946
0.69987959 0.0099999998 -0.020004776999999998
0.7198903 0.0099999998 -0.18009497
0.71989506 0.0099999998 -0.16007984
0.71989924 0.0099999998 -0.140065
0.71990258 0.0099999998 -0.12005033
0.71990514 0.0099999998 -0.10003724
0.71990705 0.0099999998 -0.080026425
0.71990836 0.0099999998 -0.060017869
0.71990925 0.0099999998 -0.040011063
0.71990979 0.0099999998 -0.020005303999999998
0.73993075 0.0099999998 -0.18010101
0.73993403 0.0099999998 -0.16008523
0.73993695 0.0099999998 -0.14006957
0.73993939 0.0099999998 -0.12005397
0.73994124 0.0099999998 -0.10004
0.73994261 0.0099999998 -0.08002843700000001
0.73994362 0.0099999998 -0.060019262000000004
0.73994428 0.0099999998 -0.040011942
0.7399447 0.0099999998 -0.020005731000000002
0.7599628 0.0099999998 -0.18010464
0.75996464 0.0099999998 -0.16008866
0.75996643 0.0099999998 -0.14007257
0.75996786 0.0099999998 -0.12005641
0.75996906 0.0099999998 -0.10004188
0.75996995 0.0099999998 -0.080029815
0.75997055 0.0099999998 -0.060020234000000006
0.75997102 0.0099999998 -0.040012561
0.75997126 0.0099999998 -0.020006035
0.7799868 0.0099999998 -0.18010634
0.77998751 0.0099999998 -0.16009039
0.77998823 0.0099999998 -0.14007413
0.77998888 0.0099999998 -0.12005772
0.77998936 0.0099999998 -0.10004292
0.77998978 0.0099999998 -0.08003059
0.77999008 0.0099999998 -0.06002079
0.77999032 0.0099999998 -0.040012926000000004
0.77999043 0.0099999998 -0.020006215
0.80000609 0.0099999998 -0.18010651
0.80000579 0.0099999998 -0.16009068
0.80000561 0.0099999998 -0.14007449
0.8000055 0.0099999998 -0.12005804
0.80000544 0.0099999998 -0.10004319
0.80000544 0.0099999998 -0.080030814
0.80000544 0.0099999998 -0.060020965
0.80000544 0.0099999998 -0.040013049
0.80000544 0.0099999998 -0.02000628
0.82002389 0.0099999998 -0.1801054
0.82002276 0.0099999998 -0.16008979
0.82002181 0.0099999998 -0.14007378
0.82002103 0.0099999998 -0.12005752
0.82002044 0.0099999998 -0.10004281
0.82002002 0.0099999998 -0.08003056
0.82001978 0.0099999998 -0.060020807999999995
0.8200196 0.0099999998 -0.040012959
0.82001948 0.0099999998 -0.020006241
0.840042 0.0099999998 -0.18010311
0.84004003 0.0099999998 -0.16008782
0.84003836 0.0099999998 -0.14007215
0.84003699 0.0099999998 -0.12005624
0.84003597 0.0099999998 -0.10004186
0.8400352 0.0099999998 -0.080029882
0.84003466 0.0099999998 -0.060020357
0.84003437 0.0099999998 -0.040012687000000005
0.84003413 0.0099999998 -0.020006113
0.86006021 0.0099999998 -0.1800997
0.86005747 0.0099999998 -0.16008489
0.86005515 0.0099999998 -0.14006972
0.86005324 0.0099999998 -0.12005431
0.86005181 0.0099999998 -0.10004041
0.86005074 0.0099999998 -0.080028847
0.86005002 0.0099999998 -0.06001965
0.86004949 0.0099999998 -0.040012248
0.86004925 0.0099999998 -0.020005902
0.88007742 0.0099999998 -0.18009523
0.88007396 0.0099999998 -0.16008106
0.88007098 0.0099999998 -0.14006655
0.88006866 0.0099999998 -0.12005181
0.88006681 0.0099999998 -0.10003852
0.8800655 0.0099999998 -0.080027483
0.88006461 0.0099999998 -0.060018715
0.88006395 0.0099999998 -0.040011662999999996
0.88006365 0.0099999998 -0.020005619
0.9000923 0.0099999998 -0.1800898
0.90008819 0.0099999998 -0.16007644
0.90008467 0.0099999998 -0.14006272
0.90008187 0.0099999998 -0.12004881
0.90007973 0.0099999998 -0.10003626
0.90007818 0.0099999998 -0.08002585200000001
0.90007704 0.0099999998 -0.060017589
0.90007633 0.0099999998 -0.040010959
0.90007591 0.0099999998 -0.02000528
0.9201023 0.0099999998 -0.18008363
0.92009711 0.0099999998 -0.16007121
0.92009282 0.0099999998 -0.14005841
0.92008942 0.0099999998 -0.12004545
0.92008674 0.0099999998 -0.1000338
0.92008466 0.0099999998 -0.080024138
0.92008317 0.0099999998 -0.060016476
0.92008215 0.0099999998 -0.040010296
0.92008156 0.0099999998 -0.020004973
0.94010478 0.0099999998 -0.18007706
0.940099 0.0099999998 -0.16006564
0.94009435 0.0099999998 -0.14005385
0.9400906 0.0099999998 -0.12004193
0.94008768 0.0099999998 -0.10003124
0.94008541 0.0099999998 -0.080022402
0.9400838 0.0099999998 -0.060015365
0.94008267 0.0099999998 -0.040009647999999995
0.94008201 0.0099999998 -0.020004673
0.96010411 0.0099999998 -0.1800703
0.96009815 0.0099999998 -0.1600599
0.96009338 0.0099999998 -0.14004914
0.96008956 0.0099999998 -0.1200383
0.96008658 0.0099999998 -0.10002859
0.96008426 0.0099999998 -0.080020539
0.96008265 0.0099999998 -0.060014118
0.96008152 0.0099999998 -0.04000888
0.96008092 0.0099999998 -0.020004306
0.980102 0.0099999998 -0.18006356
0.98009592 0.0099999998 -0.16005418
0.98009109 0.0099999998 -0.14004447
0.98008728 0.0099999998 -0.1200347
0.98008436 0.0099999998 -0.10002595
0.98008215 0.0099999998 -0.080018699
0.9800806 0.0099999998 -0.060012884
0.98007953 0.0099999998 -0.04000812
0.980079 0.0099999998 -0.020003941
1.0000991 0.0099999998 -0.18005714
1.0000931 0.0099999998 -0.16004878
1.0000882 0.0099999998 -0.14004008
1.0000844000000002 0.0099999998 -0.12003137
1.0000815 0.0099999998 -0.10002354
1.0000795 0.0099999998 -0.080017015
1.0000780999999999 0.0099999998 -0.060011771
1.0000771000000002 0.0099999998 -0.040007442000000004
1.0000765 0.0099999998 -0.020003616999999998
1.0200958 0.0099999998 -0.18005113
1.0200897 0.0099999998 -0.16004373
1.0200849 0.0099999998 -0.140036
1.0200812 0.0099999998 -0.12002829
1.0200783000000002 0.0099999998 -0.10002133
1.0200764 0.0099999998 -0.080015518
1.020075 0.0099999998 -0.060010798
1.0200741 0.0099999998 -0.040006846
1.0200735 0.0099999998 -0.020003326000000002
1.0400923 0.0099999998 -0.18004578
1.040086 0.0099999998 -0.16003899
1.0400810999999999 0.0099999998 -0.14003225
1.0400774 0.0099999998 -0.12002547
1.0400747 0.0099999998 -0.10001935
1.0400728000000001 0.0099999998 -0.080014192
1.0400715 0.0099999998 -0.06000993
1.0400707 0.0099999998 -0.040006306
1.0400702 0.0099999998 -0.020003065
1.0600885 0.0099999998 -0.18004091
1.0600822 0.0099999998 -0.16003464
1.0600771999999998 0.0099999998 -0.14002876
1.0600733999999998 0.0099999998 -0.12002293
1.0600708 0.0099999998 -0.1000176
1.0600688 0.0099999998 -0.08001301400000001
1.0600675 0.0099999998 -0.060009148
1.0600668 0.0099999998 -0.040005822
1.0600663000000001 0.0099999998 -0.020002831000000002
1.0800848 0.0099999998 -0.18003656
1.0800782 0.0099999998 -0.16003087
1.0800731000000001 0.0099999998 -0.14002551
1.0800694 0.0099999998 -0.12002062
1.0800667 0.0099999998 -0.10001601
1.0800648000000002 0.0099999998 -0.080011964
1.0800636000000001 0.0099999998 -0.060008455
1.0800627 0.0099999998 -0.040005393
1.0800623 0.0099999998 -0.020002622
1.1000816999999998 0.0099999998 -0.18003292
1.1000745 0.0099999998 -0.16002725
1.1000694 0.0099999998 -0.14002265
1.1000655000000001 0.0099999998 -0.12001839
1.1000627 0.0099999998 -0.10001453
1.1000608 0.0099999998 -0.080010965
1.1000596 0.0099999998 -0.060007822
1.1000588 0.0099999998 -0.040005006
1.1000583000000002 0.0099999998 -0.02000244
1.1200794 0.0099999998 -0.18003017
1.1200715 0.0099999998 -0.1600242
1.1200659 0.0099999998 -0.1400198
1.1200620000000001 0.0099999998 -0.12001625
1.1200591 0.0099999998 -0.10001297
1.1200572 0.0099999998 -0.080009997
1.1200558999999999 0.0099999998 -0.060007196
1.1200551 0.0099999998 -0.040004652
1.1200546 0.0099999998 -0.020002274
1.1400781999999998 0.0099999998 -0.18002857
1.1400692 0.0099999998 -0.16002204
1.1400632 0.0099999998 -0.14001746
1.1400589 0.0099999998 -0.12001413
1.140056 0.0099999998 -0.10001143
1.1400540000000001 0.0099999998 -0.080008879
1.1400527 0.0099999998 -0.060006517999999995
1.1400518 0.0099999998 -0.040004246
1.1400514 0.0099999998 -0.020002097
1.1600788999999998 0.0099999998 -0.18002857
1.1600683999999999 0.0099999998 -0.16002114
1.1600614 0.0099999998 -0.14001596
1.1600566 0.0099999998 -0.12001245
1.1600534 0.0099999998 -0.10000985
1.1600511999999998 0.0099999998 -0.080007732
1.1600498 0.0099999998 -0.06000569099999999
1.1600489999999999 0.0099999998 -0.040003754
1.1600483999999998 0.0099999998 -0.020001863999999998
1.1800828 0.0099999998 -0.18003078
1.1800698 0.0099999998 -0.16002224
1.1800608999999997 0.0099999998 -0.14001592
1.1800551000000001 0.0099999998 -0.12001166
1.1800514 0.0099999998 -0.10000879
1.1800489 0.0099999998 -0.080006622
1.1800473999999999 0.0099999998 -0.060004842
1.1800464 0.0099999998 -0.040003198999999996
1.180046 0.0099999998 -0.020001575
1.2000893 0.0099999998 -0.18003419
1.2000753 0.0099999998 -0.16002582
1.2000636 0.0099999998 -0.14001842
1.2000555 0.0099999998 -0.1200127
1.2000506000000002 0.0099999998 -0.10000887
1.2000476 0.0099999998 -0.080006279
1.2000456 0.0099999998 -0.060004313
1.2000445 0.0099999998 -0.040002726
1.2000438999999998 0.0099999998 -0.020001322
1.2200954 0.0099999998 -0.18003745
1.2200837 0.0099999998 -0.16003008
1.2200713 0.0099999998 -0.14002299
1.2200605 0.0099999998 -0.12001672
1.2200527 0.0099999998 -0.10001139
1.220048 0.0099999998 -0.080007479
1.2200452 0.0099999998 -0.06000476
1.2200437 0.0099999998 -0.040002834
1.2200428 0.0099999998 -0.020001322
1.2400966999999998 0.0099999998 -0.18003936
1.2400892 0.0099999998 -0.16003366
1.2400805 0.0099999998 -0.14002737
1.2400711000000002 0.0099999998 -0.12002143
1.2400618 0.0099999998 -0.10001609
1.240054 0.0099999998 -0.080011323
1.2400489 0.0099999998 -0.06000727
1.2400459 0.0099999998 -0.040004171
1.2400445 0.0099999998 -0.020001877
1.2600886 0.0099999998 -0.16003546
1.260084 0.0099999998 -0.1400308
1.2600788 0.0099999998 -0.12002556
1.2600731 0.0099999998 -0.10002005
1.2600673 0.0099999998 -0.080014631
1.2600625 0.0099999998 -0.060009707
1.260059 0.0099999998 -0.040005688
1.2600571000000003 0.0099999998 -0.020002581000000002
1.2800788 0.0099999998 -0.12002864
1.2800764999999998 0.0099999998 -0.10002385
1.2800742 0.0099999998 -0.080017947
1.2800726 0.0099999998 -0.060011946
1.2800711 0.0099999998 -0.040006954
1.2800703000000002 0.0099999998 -0.020003128999999998
1.3000723 0.0099999998 -0.080021039
1.3000723 0.0099999998 -0.060014229
1.3000724 0.0099999998 -0.040008221000000004
1.3000724 0.0099999998 -0.020003665
-1.2850711999999999e-07 0.0099999998 -7.809620100000001e-15
-1.2846661e-07 0.0099999998 0.020000001
-1.2833444999999998e-07 0.0099999998 0.040000003
-1.2807128e-07 0.0099999998 0.060000002000000004
-1.2760991e-07 0.0099999998 0.080000006
-1.268516e-07 0.0099999998 0.10000001
-1.2564597e-07 0.0099999998 0.12
-1.2380367e-07 0.0099999998 0.14000002
0.019999811 0.0099999998 -7.041059200000001e-15
0.019999811 0.0099999998 0.020000001
0.019999813 0.0099999998 0.040000003
0.019999813 0.0099999998 0.060000002000000004
0.019999813 0.0099999998 0.080000006
0.019999813 0.0099999998 0.10000001
0.019999815 0.0099999998 0.12000001
0.019999819 0.0099999998 0.14000002
0.039999735 0.0099999998 -7.3884338e-15
0.039999735 0.0099999998 0.020000001
0.039999735 0.0099999998 0.040000003
0.039999735 0.0099999998 0.060000005999999995
0.039999735 0.0099999998 0.080000006
0.039999735 0.0099999998 0.10000001
0.039999738 0.0099999998 0.12000001
0.039999738 0.0099999998 0.14000002
0.059999634 0.0099999998 -2.0788486e-14
0.059999634 0.0099999998 0.020000001
0.059999634 0.0099999998 0.040000003
0.059999634 0.0099999998 0.060000005999999995
0.059999637 0.0099999998 0.080000013
0.059999637 0.0099999998 0.10000002
0.059999637 0.0099999998 0.12000002
0.059999641 0.0099999998 0.14000002
0.07999951400000001 0.0099999998 -2.3683969999999998e-14
0.07999951400000001 0.0099999998 0.020000003
0.07999951400000001 0.0099999998 0.040000007000000004
0.07999951400000001 0.0099999998 0.06000001
0.07999951400000001 0.0099999998 0.080000013
0.07999951400000001 0.0099999998 0.10000002
0.07999952099999999 0.0099999998 0.12000002
0.07999952099999999 0.0099999998 0.14000003
0.099999368 0.0099999998 -5.4855112e-15
0.099999368 0.0099999998 0.020000003
0.099999368 0.0099999998 0.040000007000000004
0.099999368 0.0099999998 0.06000001
0.099999368 0.0099999998 0.080000013
0.099999368 0.0099999998 0.10000002
0.099999368 0.0099999998 0.12000003
0.099999376 0.0099999998 0.14000003
0.11999919 0.0099999998 -3.7323927e-15
0.11999919 0.0099999998 0.020000003
0.11999919 0.0099999998 0.040000007000000004
0.11999919 0.0099999998 0.06000001
0.11999919 0.0099999998 0.080000013
0.11999919 0.0099999998 0.10000002
0.11999919 0.0099999998 0.12000003
0.11999919 0.0099999998 0.14000003
0.13999897 0.0099999998 -4.5592829000000006e-14
0.13999897 0.0099999998 0.020000003
0.13999896 0.0099999998 0.04000001
0.13999896 0.0099999998 0.060000014000000004
0.13999896 0.0099999998 0.08000002099999999
0.13999896 0.0099999998 0.10000002
0.13999896 0.0099999998 0.12000003
0.13999896 0.0099999998 0.14000005
0.15999869 0.0099999998 -5.1103808e-14
0.15999869 0.0099999998 0.020000005
0.15999869 0.0099999998 0.04000001
0.15999869 0.0099999998 0.060000017
0.15999869 0.0099999998 0.08000002099999999
0.15999867 0.0099999998 0.10000003
0.15999867 0.0099999998 0.12000004
0.15999867 0.0099999998 0.14000006
0.17999834 0.0099999998 1.0115248e-13
0.17999834 0.0099999998 0.020000005
0.17999834 0.0099999998 0.04000001
0.17999834 0.0099999998 0.060000020999999994
0.17999834 0.0099999998 0.080000028
0.17999832 0.0099999998 0.10000004
0.17999832 0.0099999998 0.12000005
0.17999832 0.0099999998 0.14000006
0.19999792 0.0099999998 5.9084584e-15
0.19999792 0.0099999998 0.020000007
0.19999792 0.0099999998 0.040000014
0.1999979 0.0099999998 0.060000025
0.1999979 0.0099999998 0.080000035
0.19999789 0.0099999998 0.10000005
0.19999789 0.0099999998 0.12000006
0.19999787 0.0099999998 0.14000009
0.21999739 0.0099999998 4.4246755000000004e-14
0.21999739 0.0099999998 0.020000007
0.21999739 0.0099999998 0.040000018
0.21999738 0.0099999998 0.060000028
0.21999736 0.0099999998 0.08000004299999999
0.21999735 0.0099999998 0.10000006
0.21999733 0.0099999998 0.12000008
0.21999732 0.0099999998 0.1400001
0.23999675 0.0099999998 -1.4226982000000002e-13
0.23999675 0.0099999998 0.020000009
0.23999673 0.0099999998 0.040000018
0.23999672 0.0099999998 0.060000032
0.2399967 0.0099999998 0.08000005
0.23999669 0.0099999998 0.10000007
0.23999666 0.0099999998 0.1200001
0.23999664 0.0099999998 0.14000013
0.25999594 0.0099999998 -1.2236574e-13
0.25999594 0.0099999998 0.020000011
0.25999594 0.0099999998 0.040000021000000004
0.25999591 0.0099999998 0.060000036
0.25999588 0.0099999998 0.080000058
0.25999585 0.0099999998 0.10000008
0.25999582 0.0099999998 0.12000012
0.25999579 0.0099999998 0.14000016
0.27999499 0.0099999998 -4.1743721999999996e-13
0.27999496 0.0099999998 0.020000011
0.27999496 0.0099999998 0.040000025
0.27999493 0.0099999998 0.060000042999999996
0.2799949 0.0099999998 0.080000065
0.27999485 0.0099999998 0.10000011
0.27999482 0.0099999998 0.12000015
0.27999476 0.0099999998 0.14000021
0.29999381 0.0099999998 -2.1305293999999999e-13
0.29999378 0.0099999998 0.020000013
0.29999378 0.0099999998 0.040000029
0.29999372 0.0099999998 0.060000047
0.29999369 0.0099999998 0.08000008
0.29999363 0.0099999998 0.10000012
0.29999354 0.0099999998 0.12000018
0.29999349 0.0099999998 0.14000025
0.31999236 0.0099999998 -7.118910099999999e-14
0.31999236 0.0099999998 0.020000013
0.31999233 0.0099999998 0.040000029
0.31999227 0.0099999998 0.060000055
0.31999221 0.0099999998 0.080000088
0.31999213 0.0099999998 0.10000014
0.31999204 0.0099999998 0.12000021
0.31999192 0.0099999998 0.1400003
0.33999065 0.0099999998 -2.6351095e-13
0.33999062 0.0099999998 0.020000014
0.33999059 0.0099999998 0.040000033
0.33999053 0.0099999998 0.060000062
0.33999041 0.0099999998 0.080000103
0.33999029 0.0099999998 0.10000016
0.33999017 0.0099999998 0.12000024
0.33999002 0.0099999998 0.14000036
0.35998854 0.0099999998 -8.543627500000001e-13
0.35998851 0.0099999998 0.02000002
0.35998845 0.0099999998 0.040000044
0.35998836 0.0099999998 0.060000073
0.35998824 0.0099999998 0.080000117
0.35998809 0.0099999998 0.10000019
0.35998791 0.0099999998 0.12000029
0.35998771 0.0099999998 0.14000042
0.37998599 0.0099999998 -2.0100296e-13
0.37998599 0.0099999998 0.020000027
0.3799859 0.0099999998 0.040000059
0.37998581 0.0099999998 0.060000099
0.37998563 0.0099999998 0.080000155
0.37998542 0.0099999998 0.10000023
0.37998518 0.0099999998 0.12000034
0.37998492 0.0099999998 0.14000051
0.39998296 0.0099999998 4.983477299999999e-13
0.39998293 0.0099999998 0.020000042
0.39998287 0.0099999998 0.040000088999999996
0.39998272 0.0099999998 0.060000144000000005
0.39998251 0.0099999998 0.080000214
0.39998224 0.0099999998 0.10000031
0.39998192 0.0099999998 0.12000043
0.39998156 0.0099999998 0.14000061
0.41997936 0.0099999998 -1.219829e-12
0.41997933 0.0099999998 0.020000072
0.41997921 0.0099999998 0.040000144
0.41997904 0.0099999998 0.060000226
0.4199788 0.0099999998 0.080000319
0.41997847 0.0099999998 0.10000043
0.41997805 0.0099999998 0.12000058
0.41997755 0.0099999998 0.14000079
0.43997508 0.0099999998 -1.7040397000000001e-12
0.43997505 0.0099999998 0.020000121000000003
0.4399749 0.0099999998 0.040000245
0.4399747 0.0099999998 0.060000367
0.43997437 0.0099999998 0.080000497
0.43997395 0.0099999998 0.10000064
0.43997341 0.0099999998 0.12000082
0.43997279 0.0099999998 0.14000106
0.45996997 0.0099999998 2.4296194999999997e-13
0.45996994 0.0099999998 0.020000203
0.45996979 0.0099999998 0.040000401
0.45996952 0.0099999998 0.060000597999999995
0.45996913 0.0099999998 0.080000795
0.45996863 0.0099999998 0.100001
0.45996794 0.0099999998 0.12000123
0.45996714 0.0099999998 0.14000152
0.4799639 0.0099999998 2.219154e-13
0.47996384 0.0099999998 0.020000322
0.47996366 0.0099999998 0.04000064
0.47996336 0.0099999998 0.060000949000000005
0.47996289 0.0099999998 0.080001257
0.47996226 0.0099999998 0.10000156
0.47996143 0.0099999998 0.12000189
0.47996041 0.0099999998 0.14000225
0.49995661 0.0099999998 6.8387787e-13
0.49995652 0.0099999998 0.020000493
0.49995634 0.0099999998 0.040000983
0.49995598 0.0099999998 0.06000145900000001
0.49995545 0.0099999998 0.080001928
0.49995467 0.0099999998 0.10000241
0.49995369 0.0099999998 0.12000289
0.49995241 0.0099999998 0.1400034
0.51994795 0.0099999998 -1.1025298999999999e-12
0.51994783 0.0099999998 0.020000723999999998
0.51994765 0.0099999998 0.040001445
0.51994723 0.0099999998 0.060002163
0.51994658 0.0099999998 0.080002882
0.51994568 0.0099999998 0.10000361
0.51994449 0.0099999998 0.12000435
0.51994294 0.0099999998 0.14000511
0.53993779 0.0099999998 -1.2412233e-12
0.53993773 0.0099999998 0.020001017
0.5399375 0.0099999998 0.040002037000000004
0.53993702 0.0099999998 0.060003068
0.5399363 0.0099999998 0.080004126
0.53993523 0.0099999998 0.10000522
0.53993386 0.0099999998 0.12000635
0.53993201 0.0099999998 0.14000751
0.55992645 0.0099999998 -2.7543087000000003e-12
0.55992633 0.0099999998 0.02000138
0.55992609 0.0099999998 0.040002777999999996
0.55992556 0.0099999998 0.060004216
0.55992472 0.0099999998 0.08000572
0.55992353 0.0099999998 0.1000073
0.55992192 0.0099999998 0.12000898
0.55991977 0.0099999998 0.14001071
0.57991439 0.0099999998 -3.6754589e-13
0.57991427 0.0099999998 0.02000179
0.57991397 0.0099999998 0.040003624
0.57991338 0.0099999998 0.06000554599999999
0.57991242 0.0099999998 0.080007605
0.57991105 0.0099999998 0.10000983
0.57990921 0.0099999998 0.12001222
0.57990676 0.0099999998 0.14001474
0.59990257 0.0099999998 3.3929178999999996e-12
0.59990245 0.0099999998 0.020002237
0.59990203 0.0099999998 0.04000454
0.59990138 0.0099999998 0.060006990999999996
0.59990031 0.0099999998 0.080009691
0.59989876 0.0099999998 0.10001269
0.59989661 0.0099999998 0.120016
0.59989381 0.0099999998 0.14001949
0.61989176 0.0099999998 -4.3141766e-12
0.61989158 0.0099999998 0.020002686999999998
0.61989111 0.0099999998 0.040005479
0.61989033 0.0099999998 0.060008507
0.61988908 0.0099999998 0.080011941
0.61988735 0.0099999998 0.10001589
0.61988491 0.0099999998 0.12002033
0.61988175 0.0099999998 0.14002506
0.63988256 0.0099999998 1.9696631e-12
0.63988239 0.0099999998 0.020003138
0.63988185 0.0099999998 0.040006428999999996
0.63988084 0.0099999998 0.060010068
0.63987941 0.0099999998 0.08001428099999999
0.63987732 0.0099999998 0.10001926
0.63987458 0.0099999998 0.12002503
0.63987106 0.0099999998 0.14003128
0.65987569 0.0099999998 -2.8705571e-12
0.65987551 0.0099999998 0.020003682
0.6598748 0.0099999998 0.040007576
0.65987366 0.0099999998 0.060011957000000005
0.659872 0.0099999998 0.08001714900000001
0.65986967 0.0099999998 0.10002343
0.65986669 0.0099999998 0.12003078
0.659863 0.0099999998 0.14003882
0.67987323 0.0099999998 4.6830369000000004e-12
0.67987299 0.0099999998 0.020004304
0.67987233 0.0099999998 0.040008895
0.67987114 0.0099999998 0.060014158
0.67986935 0.0099999998 0.080020532
0.67986697 0.0099999998 0.10002839
0.67986393 0.0099999998 0.12003773
0.67986017 0.0099999998 0.14004804
0.69987977 0.0099999998 1.936379e-11
0.69987959 0.0099999998 0.020004776999999998
0.69987893 0.0099999998 0.040009946
0.69987786 0.0099999998 0.060016020999999996
0.69987625 0.0099999998 0.080023602
0.69987398 0.0099999998 0.10003316
0.69987112 0.0099999998 0.12004468
0.69986761 0.0099999998 0.14005752
0.71990991 0.0099999998 1.4073756e-12
0.71990979 0.0099999998 0.020005303999999998
0.71990925 0.0099999998 0.040011063
0.71990836 0.0099999998 0.060017869
0.71990705 0.0099999998 0.080026425
0.71990514 0.0099999998 0.10003724
0.71990258 0.0099999998 0.12005033
0.71989924 0.0099999998 0.140065
0.73994482 0.0099999998 7.061672900000001e-12
0.7399447 0.0099999998 0.020005731000000002
0.73994428 0.0099999998 0.040011942
0.73994362 0.0099999998 0.060019262000000004
0.73994261 0.0099999998 0.08002843700000001
0.73994124 0.0099999998 0.10004
0.73993939 0.0099999998 0.12005397
0.73993695 0.0099999998 0.14006957
0.75997132 0.0099999998 3.08619e-11
0.75997126 0.0099999998 0.020006035
0.75997102 0.0099999998 0.040012561
0.75997055 0.0099999998 0.060020234000000006
0.75996995 0.0099999998 0.080029815
0.75996906 0.0099999998 0.10004188
0.75996786 0.0099999998 0.12005641
0.75996643 0.0099999998 0.14007257
0.77999043 0.0099999998 -1.1656314e-11
0.77999043 0.0099999998 0.020006215
0.77999032 0.0099999998 0.040012926000000004
0.77999008 0.0099999998 0.06002079
0.77998978 0.0099999998 0.08003059
0.77998936 0.0099999998 0.10004292
0.77998888 0.0099999998 0.12005772
0.77998823 0.0099999998 0.14007413
0.80000544 0.0099999998 -3.5222391e-11
0.80000544 0.0099999998 0.02000628
0.80000544 0.0099999998 0.040013049
0.80000544 0.0099999998 0.060020965
0.80000544 0.0099999998 0.080030814
0.80000544 0.0099999998 0.10004319
0.8000055 0.0099999998 0.12005804
0.80000561 0.0099999998 0.14007449
0.82001948 0.0099999998 9.1972237e-12
0.82001948 0.0099999998 0.020006241
0.8200196 0.0099999998 0.040012959
0.82001978 0.0099999998 0.060020807999999995
0.82002002 0.0099999998 0.08003056
0.82002044 0.0099999998 0.10004281
0.82002103 0.0099999998 0.12005752
0.82002181 0.0099999998 0.14007378
0.84003407 0.0099999998 1.8232651e-11
0.84003413 0.0099999998 0.020006113
0.84003437 0.0099999998 0.040012687000000005
0.84003466 0.0099999998 0.060020357
0.8400352 0.0099999998 0.080029882
0.84003597 0.0099999998 0.10004186
0.84003699 0.0099999998 0.12005624
0.84003836 0.0099999998 0.14007215
0.86004913 0.0099999998 1.9744234e-11
0.86004925 0.0099999998 0.020005902
0.86004949 0.0099999998 0.040012248
0.86005002 0.0099999998 0.06001965
0.86005074 0.0099999998 0.080028847
0.86005181 0.0099999998 0.10004041
0.86005324 0.0099999998 0.12005431
0.86005515 0.0099999998 0.14006972
0.88006353 0.0099999998 -2.4004314e-11
0.88006365 0.0099999998 0.020005619
0.88006395 0.0099999998 0.040011662999999996
0.88006461 0.0099999998 0.060018715
0.8800655 0.0099999998 0.080027483
0.88006681 0.0099999998 0.10003852
0.88006866 0.0099999998 0.12005181
0.88007098 0.0099999998 0.14006655
0.90007579 0.0099999998 -5.420725699999999e-11
0.90007591 0.0099999998 0.02000528
0.90007633 0.0099999998 0.040010959
0.90007704 0.0099999998 0.060017589
0.90007818 0.0099999998 0.08002585200000001
0.90007973 0.0099999998 0.10003626
0.90008187 0.0099999998 0.12004881
0.90008467 0.0099999998 0.14006272
0.92008138 0.0099999998 -1.5438687e-12
0.92008156 0.0099999998 0.020004973
0.92008215 0.0099999998 0.040010296
0.92008317 0.0099999998 0.060016476
0.92008466 0.0099999998 0.080024138
0.92008674 0.0099999998 0.1000338
0.92008942 0.0099999998 0.12004545
0.92009282 0.0099999998 0.14005841
0.94008183 0.0099999998 1.0364713e-11
0.94008201 0.0099999998 0.020004673
0.94008267 0.0099999998 0.040009647999999995
0.9400838 0.0099999998 0.060015365
0.94008541 0.0099999998 0.080022402
0.94008768 0.0099999998 0.10003124
0.9400906 0.0099999998 0.12004193
0.94009435 0.0099999998 0.14005385
0.96008068 0.0099999998 -2.8657695e-12
0.96008092 0.0099999998 0.020004306
0.96008152 0.0099999998 0.04000888
0.96008265 0.0099999998 0.060014118
0.96008426 0.0099999998 0.080020539
0.96008658 0.0099999998 0.10002859
0.96008956 0.0099999998 0.1200383
0.96009338 0.0099999998 0.14004914
0.98007876 0.0099999998 4.7730526e-12
0.980079 0.0099999998 0.020003941
0.98007953 0.0099999998 0.04000812
0.9800806 0.0099999998 0.060012884
0.98008215 0.0099999998 0.080018699
0.98008436 0.0099999998 0.10002595
0.98008728 0.0099999998 0.1200347
0.98009109 0.0099999998 0.14004447
1.0000764000000002 0.0099999998 -6.2299081e-12
1.0000765 0.0099999998 0.020003616999999998
1.0000771000000002 0.0099999998 0.040007442000000004
1.0000780999999999 0.0099999998 0.060011771
1.0000795 0.0099999998 0.080017015
1.0000815 0.0099999998 0.10002354
1.0000844000000002 0.0099999998 0.12003137
1.0000882 0.0099999998 0.14004008
1.0200734 0.0099999998 1.9251388999999998e-12
1.0200735 0.0099999998 0.020003326000000002
1.0200741 0.0099999998 0.040006846
1.020075 0.0099999998 0.060010798
1.0200764 0.0099999998 0.080015518
1.0200783000000002 0.0099999998 0.10002133
1.0200812 0.0099999998 0.12002829
1.0200849 0.0099999998 0.140036
1.0400699 0.0099999998 1.3396626999999998e-11
1.0400702 0.0099999998 0.020003065
1.0400707 0.0099999998 0.040006306
1.0400715 0.0099999998 0.06000993
1.0400728000000001 0.0099999998 0.080014192
1.0400747 0.0099999998 0.10001935
1.0400774 0.0099999998 0.12002547
1.0400810999999999 0.0099999998 0.14003225
1.0600662 0.0099999998 8.1425864e-12
1.0600663000000001 0.0099999998 0.020002831000000002
1.0600668 0.0099999998 0.040005822
1.0600675 0.0099999998 0.060009148
1.0600688 0.0099999998 0.08001301400000001
1.0600708 0.0099999998 0.1000176
1.0600733999999998 0.0099999998 0.12002293
1.0600771999999998 0.0099999998 0.14002876
1.0800622 0.0099999998 1.2375841e-12
1.0800623 0.0099999998 0.020002622
1.0800627 0.0099999998 0.040005393
1.0800636000000001 0.0099999998 0.060008455
1.0800648000000002 0.0099999998 0.080011964
1.0800667 0.0099999998 0.10001601
1.0800694 0.0099999998 0.12002062
1.0800731000000001 0.0099999998 0.14002551
1.1000582 0.0099999998 -3.9239895e-13
1.1000583000000002 0.0099999998 0.02000244
1.1000588 0.0099999998 0.040005006
1.1000596 0.0099999998 0.060007822
1.1000608 0.0099999998 0.080010965
1.1000627 0.0099999998 0.10001453
1.1000655000000001 0.0099999998 0.12001839
1.1000694 0.0099999998 0.14002265
1.1200545 0.0099999998 -3.3058055e-12
1.1200546 0.0099999998 0.020002274
1.1200551 0.0099999998 0.040004652
1.1200558999999999 0.0099999998 0.060007196
1.1200572 0.0099999998 0.080009997
1.1200591 0.0099999998 0.10001297
1.1200620000000001 0.0099999998 0.12001625
1.1200659 0.0099999998 0.1400198
1.1400511 0.0099999998 -6.264171e-13
1.1400514 0.0099999998 0.020002097
1.1400518 0.0099999998 0.040004246
1.1400527 0.0099999998 0.060006517999999995
1.1400540000000001 0.0099999998 0.080008879
1.140056 0.0099999998 0.10001143
1.1400589 0.0099999998 0.12001413
1.1400632 0.0099999998 0.14001746
1.1600482 0.0099999998 5.6674565e-13
1.1600483999999998 0.0099999998 0.020001863999999998
1.1600489999999999 0.0099999998 0.040003754
1.1600498 0.0099999998 0.06000569099999999
1.1600511999999998 0.0099999998 0.080007732
1.1600534 0.0099999998 0.10000985
1.1600566 0.0099999998 0.12001245
1.1600614 0.0099999998 0.14001596
1.1800457 0.0099999998 9.902851099999999e-13
1.180046 0.0099999998 0.020001575
1.1800464 0.0099999998 0.040003198999999996
1.1800473999999999 0.0099999998 0.060004842
1.1800489 0.0099999998 0.080006622
1.1800514 0.0099999998 0.10000879
1.1800551000000001 0.0099999998 0.12001166
1.1800608999999997 0.0099999998 0.14001592
1.2000437 0.0099999998 -1.9708176e-12
1.2000438999999998 0.0099999998 0.020001322
1.2000445 0.0099999998 0.040002726
1.2000456 0.0099999998 0.060004313
1.2000476 0.0099999998 0.080006279
1.2000506000000002 0.0099999998 0.10000887
1.2000555 0.0099999998 0.1200127
1.2000636 0.0099999998 0.14001842
1.2200426000000002 0.0099999998 -2.1890162e-13
1.2200428 0.0099999998 0.020001322
1.2200437 0.0099999998 0.040002834
1.2200452 0.0099999998 0.06000476
1.220048 0.0099999998 0.080007479
1.2200527 0.0099999998 0.10001139
1.2200605 0.0099999998 0.12001672
1.2200713 0.0099999998 0.14002299
1.2400441 0.0099999998 -1.7335928e-12
1.2400445 0.0099999998 0.020001877
1.2400459 0.0099999998 0.040004171
1.2400489 0.0099999998 0.06000727
1.240054 0.0099999998 0.080011323
1.2400618 0.0099999998 0.10001609
1.2400711000000002 0.0099999998 0.12002143
1.2400805 0.0099999998 0.14002737
1.2600565000000001 0.0099999998 -9.3592788e-13
1.2600571000000003 0.0099999998 0.020002581000000002
1.260059 0.0099999998 0.040005688
1.2600625 0.0099999998 0.060009707
1.2600673 0.0099999998 0.080014631
1.2600731 0.0099999998 0.10002005
1.2600788 0.0099999998 0.12002556
1.260084 0.0099999998 0.1400308
1.2800701 0.0099999998 1.7930064999999998e-12
1.2800703000000002 0.0099999998 0.020003128999999998
1.2800711 0.0099999998 0.040006954
1.2800726 0.0099999998 0.060011946
1.2800742 0.0099999998 0.080017947
1.2800764999999998 0.0099999998 0.10002385
1.2800788 0.0099999998 0.12002864
1.3000724 0.0099999998 1.5268871000000001e-12
1.3000724 0.0099999998 0.020003665
1.3000724 0.0099999998 0.040008221000000004
1.3000723 0.0099999998 0.060014229
1.3000723 0.0099999998 0.080021039
-1.2108197e-07 0.0099999998 0.16000001
-1.1714921999999999e-07 0.0099999998 0.18000001
-1.1170928999999999e-07 0.0099999998 0.20000002
-1.0435988e-07 0.0099999998 0.22000001
-9.4828323e-08 0.0099999998 0.24000002
-8.275390700000001e-08 0.0099999998 0.26000002
-6.8447768e-08 0.0099999998 0.28000003
0.019999823 0.0099999998 0.16000001
0.019999826000000002 0.0099999998 0.18000002
0.019999836 0.0099999998 0.20000002
0.019999845 0.0099999998 0.22000003
0.01999986 0.0099999998 0.24000002
0.019999878000000002 0.0099999998 0.26000002
0.019999901 0.0099999998 0.28000003
0.019999927 0.0099999998 0.30000004
0.039999746 0.0099999998 0.16000003
0.039999753 0.0099999998 0.18000002
0.039999761 0.0099999998 0.20000003
0.039999776 0.0099999998 0.22000004
0.039999797999999996 0.0099999998 0.24000004
0.039999823999999996 0.0099999998 0.26000005
0.039999858 0.0099999998 0.28000003
0.039999895 0.0099999998 0.30000004
0.059999647999999996 0.0099999998 0.16000003
0.059999656 0.0099999998 0.18000004
0.059999671 0.0099999998 0.20000003
0.059999689 0.0099999998 0.22000004
0.059999715999999995 0.0099999998 0.24000005
0.059999752999999996 0.0099999998 0.26000005
0.059999797 0.0099999998 0.28000006
0.059999853 0.0099999998 0.30000004
0.079999529 0.0099999998 0.16000003
0.079999536 0.0099999998 0.18000004
0.079999559 0.0099999998 0.20000005
0.079999581 0.0099999998 0.22000006
0.079999618 0.0099999998 0.24000005
0.079999663 0.0099999998 0.26000005
0.079999723 0.0099999998 0.28000006
0.079999797 0.0099999998 0.30000007
0.09999938300000001 0.0099999998 0.16000004
0.099999398 0.0099999998 0.18000005
0.09999941300000001 0.0099999998 0.20000005
0.09999944300000001 0.0099999998 0.22000006
0.099999487 0.0099999998 0.24000007
0.099999547 0.0099999998 0.26000008
0.099999629 0.0099999998 0.28000009
0.099999726 0.0099999998 0.30000007
0.1199992 0.0099999998 0.16000004
0.11999922 0.0099999998 0.18000005
0.11999924 0.0099999998 0.20000006
0.11999927 0.0099999998 0.22000007
0.11999933 0.0099999998 0.24000008
0.1199994 0.0099999998 0.26000008
0.1199995 0.0099999998 0.28000009
0.11999962 0.0099999998 0.3000001
0.13999897 0.0099999998 0.16000006
0.13999899 0.0099999998 0.18000007
0.13999902 0.0099999998 0.20000008
0.13999905 0.0099999998 0.22000009
0.13999912 0.0099999998 0.2400001
0.13999921 0.0099999998 0.26000011
0.13999933 0.0099999998 0.28000012
0.13999949 0.0099999998 0.30000013
0.15999869 0.0099999998 0.16000007
0.1599987 0.0099999998 0.18000008
0.15999873 0.0099999998 0.20000009
0.15999877 0.0099999998 0.22000012
0.15999885 0.0099999998 0.24000013
0.15999897 0.0099999998 0.26000014
0.15999912 0.0099999998 0.28000015
0.15999933 0.0099999998 0.30000019
0.17999832 0.0099999998 0.16000009
0.17999834 0.0099999998 0.1800001
0.17999837 0.0099999998 0.20000012
0.17999843 0.0099999998 0.22000015
0.17999852 0.0099999998 0.24000016
0.17999865 0.0099999998 0.26000017
0.17999883 0.0099999998 0.28000021
0.17999908 0.0099999998 0.30000022
0.19999787 0.0099999998 0.1600001
0.19999789 0.0099999998 0.18000013
0.19999792 0.0099999998 0.20000017
0.19999798 0.0099999998 0.22000019
0.19999808 0.0099999998 0.2400002
0.19999824 0.0099999998 0.26000023
0.19999845 0.0099999998 0.28000024
0.19999875 0.0099999998 0.30000028
0.21999732 0.0099999998 0.16000013
0.21999733 0.0099999998 0.18000017
0.21999736 0.0099999998 0.20000021
0.21999742 0.0099999998 0.22000025
0.21999754 0.0099999998 0.24000028
0.21999772 0.0099999998 0.26000032
0.21999797 0.0099999998 0.28000036
0.21999833 0.0099999998 0.30000046
0.23999663 0.0099999998 0.16000018
0.23999663 0.0099999998 0.18000023
0.23999666 0.0099999998 0.20000027
0.23999672 0.0099999998 0.22000033
0.23999685 0.0099999998 0.2400004
0.23999704 0.0099999998 0.26000047
0.23999733 0.0099999998 0.28000063
0.23999773 0.0099999998 0.30000085
0.25999576 0.0099999998 0.16000022
0.25999576 0.0099999998 0.18000029
0.25999579 0.0099999998 0.20000036
0.25999585 0.0099999998 0.22000046
0.25999597 0.0099999998 0.24000056
0.25999618 0.0099999998 0.26000074
0.25999647 0.0099999998 0.28000098
0.25999689 0.0099999998 0.30000132
0.27999473 0.0099999998 0.16000028
0.2799947 0.0099999998 0.18000038
0.2799947 0.0099999998 0.20000048
0.27999476 0.0099999998 0.22000062
0.27999485 0.0099999998 0.24000078
0.27999505 0.0099999998 0.26000103
0.27999535 0.0099999998 0.2800014
0.27999577 0.0099999998 0.30000186
0.29999343 0.0099999998 0.16000035
0.29999337 0.0099999998 0.18000047
0.29999334 0.0099999998 0.20000063
0.2999934 0.0099999998 0.22000082
0.29999349 0.0099999998 0.24000105
0.29999366 0.0099999998 0.26000139
0.29999396 0.0099999998 0.28000185
0.29999438 0.0099999998 0.3000024
0.31999183 0.0099999998 0.16000043
0.31999174 0.0099999998 0.18000059
0.31999168 0.0099999998 0.20000079
0.31999171 0.0099999998 0.22000104
0.31999177 0.0099999998 0.24000135
0.31999198 0.0099999998 0.26000178
0.31999227 0.0099999998 0.28000236
0.31999272 0.0099999998 0.30000299
0.33998987 0.0099999998 0.16000052
0.33998975 0.0099999998 0.18000071
0.33998966 0.0099999998 0.20000097
0.33998963 0.0099999998 0.2200013
0.33998969 0.0099999998 0.24000169
0.3399899 0.0099999998 0.26000223
0.33999023 0.0099999998 0.28000292
0.33999076 0.0099999998 0.30000368
0.3599875 0.0099999998 0.16000061
0.35998729 0.0099999998 0.18000086
0.35998714 0.0099999998 0.20000118
0.35998708 0.0099999998 0.22000159
0.35998714 0.0099999998 0.2400021
0.35998732 0.0099999998 0.26000276
0.35998774 0.0099999998 0.28000361
0.35998836 0.0099999998 0.30000454
0.37998462 0.0099999998 0.16000073
0.37998432 0.0099999998 0.18000102
0.37998411 0.0099999998 0.2000014
0.37998396 0.0099999998 0.22000192
0.37998399 0.0099999998 0.24000254
0.3799842 0.0099999998 0.26000336
0.37998465 0.0099999998 0.28000441
0.37998542 0.0099999998 0.30000558
0.39998114 0.0099999998 0.16000086
0.39998075 0.0099999998 0.18000121
0.3999804 0.0099999998 0.20000167
0.39998019 0.0099999998 0.22000229
0.39998013 0.0099999998 0.24000306
0.39998034 0.0099999998 0.2600041
0.39998087 0.0099999998 0.2800054
0.3999818 0.0099999998 0.30000684
0.41997701 0.0099999998 0.16000107
0.41997644 0.0099999998 0.18000145
0.41997594 0.0099999998 0.200002
0.41997558 0.0099999998 0.22000273
0.41997543 0.0099999998 0.24000366
0.41997564 0.0099999998 0.26000494
0.41997623 0.0099999998 0.28000659
0.41997731 0.0099999998 0.30000839
0.43997207 0.0099999998 0.16000138
0.4399713 0.0099999998 0.18000181
0.43997058 0.0099999998 0.2000024
0.43997002 0.0099999998 0.22000323
0.43996972 0.0099999998 0.24000435
0.43996984 0.0099999998 0.26000589
0.43997049 0.0099999998 0.28000799
0.43997177 0.0099999998 0.30001026
0.45996618 0.0099999998 0.16000187
0.45996517 0.0099999998 0.18000235
0.45996416 0.0099999998 0.20000298
0.45996332 0.0099999998 0.22000389
0.45996279 0.0099999998 0.24000515
0.45996276 0.0099999998 0.26000702
0.45996341 0.0099999998 0.28000966
0.45996487 0.0099999998 0.30001259
0.47995919 0.0099999998 0.16000268
0.47995785 0.0099999998 0.1800032
0.47995651 0.0099999998 0.20000386
0.47995529 0.0099999998 0.2200048
0.47995442 0.0099999998 0.24000618
0.47995412 0.0099999998 0.26000834
0.47995469 0.0099999998 0.28001162
0.47995624 0.0099999998 0.30001542
0.49995089 0.0099999998 0.16000395
0.49994919 0.0099999998 0.18000454
0.4999474 0.0099999998 0.20000525
0.4999457 0.0099999998 0.22000617
0.49994439 0.0099999998 0.24000758
0.49994364 0.0099999998 0.26000991
0.49994391 0.0099999998 0.28001398
0.4999454 0.0099999998 0.30001894
0.51994109 0.0099999998 0.16000587
0.51993901 0.0099999998 0.18000662
0.51993674 0.0099999998 0.20000742
0.51993448 0.0099999998 0.22000833
0.51993251 0.0099999998 0.2400097
0.51993114 0.0099999998 0.26001206
0.51993072 0.0099999998 0.2800169
0.51993167 0.0099999998 0.30002329
0.53992981 0.0099999998 0.16000864
0.53992724 0.0099999998 0.18000972
0.5399245 0.0099999998 0.20001075
0.53992164 0.0099999998 0.22001171
0.53991896 0.0099999998 0.24001297
0.53991652 0.0099999998 0.26001522
0.53991497 0.0099999998 0.28002071
0.53991461 0.0099999998 0.3000288
0.55991715 0.0099999998 0.16001245
0.55991423 0.0099999998 0.18001407
0.55991095 0.0099999998 0.20001554
0.55990744 0.0099999998 0.22001675
0.55990386 0.0099999998 0.24001801
0.55990022 0.0099999998 0.26002014
0.55989677 0.0099999998 0.2800262
0.55989403 0.0099999998 0.3000361
0.57990378 0.0099999998 0.16001725
0.57990032 0.0099999998 0.18001971
0.57989657 0.0099999998 0.20002191
0.57989246 0.0099999998 0.22002386
0.57988793 0.0099999998 0.24002536
0.57988286 0.0099999998 0.2600278
0.57987702 0.0099999998 0.2800346
0.5798707 0.0099999998 0.30004621
0.59989035 0.0099999998 0.16002294
0.59988636 0.0099999998 0.18002632
0.59988201 0.0099999998 0.20002963
0.5998773 0.0099999998 0.22003271
0.59987199 0.0099999998 0.24003562
0.59986526 0.0099999998 0.26003942
0.59985697 0.0099999998 0.28004789
0.59984672 0.0099999998 0.30006072
0.61987776 0.0099999998 0.16002972
0.61987317 0.0099999998 0.18003416
0.6198681 0.0099999998 0.20003869
0.61986256 0.0099999998 0.22004361
0.61985618 0.0099999998 0.24004926
0.61984867 0.0099999998 0.26005751
0.6198386 0.0099999998 0.28006896
0.61982518 0.0099999998 0.30008209
0.63986677 0.0099999998 0.16003747
0.63986158 0.0099999998 0.18004344
0.63985568 0.0099999998 0.20004977
0.63984936 0.0099999998 0.22005813
0.63984275 0.0099999998 0.24007057
0.63983512 0.0099999998 0.26008698
0.63982415 0.0099999998 0.28010076
0.63980901 0.0099999998 0.30011237
0.65985852 0.0099999998 0.16004689
0.6598531 0.0099999998 0.18005499
0.65984702 0.0099999998 0.20006499
0.65984064 0.0099999998 0.22007991
0.65983456 0.0099999998 0.2401024
0.65982795 0.0099999998 0.26012793
0.65981621 0.0099999998 0.28014052
0.65980077 0.0099999998 0.30014798
0.67985564 0.0099999998 0.16005841
0.67985016 0.0099999998 0.18006915
0.67984408 0.0099999998 0.20008326
0.6798383 0.0099999998 0.22010535
0.67983389 0.0099999998 0.24013716
0.67982912 0.0099999998 0.2601679
0.67981786 0.0099999998 0.28017727
0.67980647 0.0099999998 0.30018038
0.69986326 0.0099999998 0.16007048
0.69985807 0.0099999998 0.18008384
0.69985259 0.0099999998 0.20010164
0.699848 0.0099999998 0.22012888
0.69984591 0.0099999998 0.2401658
0.69984353 0.0099999998 0.26019827
0.69983727 0.0099999998 0.28020355
0.69983852 0.0099999998 0.30020446
0.71989506 0.0099999998 0.16007984
0.7198903 0.0099999998 0.18009497
0.71988535 0.0099999998 0.20011477
0.71988112 0.0099999998 0.22014444
0.71987903 0.0099999998 0.24018325
0.71987933 0.0099999998 0.26021484
0.71988147 0.0099999998 0.28021812
0.71988636 0.0099999998 0.30021986
0.73993403 0.0099999998 0.16008523
0.73993075 0.0099999998 0.18010101
0.73992741 0.0099999998 0.20012121
0.73992467 0.0099999998 0.22015099
0.73992342 0.0099999998 0.24018946
0.73992407 0.0099999998 0.260221
0.73992616 0.0099999998 0.28022552
0.73992985 0.0099999998 0.30022919
0.75996464 0.0099999998 0.16008866
0.7599628 0.0099999998 0.18010464
0.75996095 0.0099999998 0.20012476
0.75995958 0.0099999998 0.22015415
0.75995916 0.0099999998 0.24019186
0.75995988 0.0099999998 0.26022345
0.75996131 0.0099999998 0.28022942
0.75996363 0.0099999998 0.30023494
0.77998751 0.0099999998 0.16009039
0.7799868 0.0099999998 0.18010634
0.7799862 0.0099999998 0.20012625
0.7799859 0.0099999998 0.22015522
0.77998608 0.0099999998 0.24019247
0.77998662 0.0099999998 0.26022431
0.77998739 0.0099999998 0.28023148
0.77998853 0.0099999998 0.30023819
0.80000579 0.0099999998 0.16009068
0.80000609 0.0099999998 0.18010651
0.80000651 0.0099999998 0.20012617
0.80000699 0.0099999998 0.22015491
0.80000752 0.0099999998 0.24019215
0.80000788 0.0099999998 0.26022425
0.80000806 0.0099999998 0.28023219
0.80000812 0.0099999998 0.30023947
0.82002276 0.0099999998 0.16008979
0.82002389 0.0099999998 0.1801054
0.82002521 0.0099999998 0.20012484
0.8200264 0.0099999998 0.22015354
0.82002723 0.0099999998 0.24019106
0.82002735 0.0099999998 0.26022357
0.82002717 0.0099999998 0.28023171
0.82002616 0.0099999998 0.30023894
0.84004003 0.0099999998 0.16008782
0.840042 0.0099999998 0.18010311
0.84004408 0.0099999998 0.20012221
0.84004599 0.0099999998 0.2201505
0.84004706 0.0099999998 0.24018779
0.840047 0.0099999998 0.26022017
0.84004664 0.0099999998 0.28022841
0.84004486 0.0099999998 0.30023542
0.86005747 0.0099999998 0.16008489
0.86006021 0.0099999998 0.1800997
0.86006314 0.0099999998 0.20011821
0.86006576 0.0099999998 0.22014572
0.86006707 0.0099999998 0.2401821
0.86006683 0.0099999998 0.2602137
0.86006653 0.0099999998 0.280222
0.86006403 0.0099999998 0.30022886
0.88007396 0.0099999998 0.16008106
0.88007742 0.0099999998 0.18009523
0.88008112 0.0099999998 0.20011294
0.88008446 0.0099999998 0.22013921
0.88008606 0.0099999998 0.240174
0.88008565 0.0099999998 0.26020432
0.88008541 0.0099999998 0.28021282
0.88008237 0.0099999998 0.30021957
0.90008819 0.0099999998 0.16007644
0.9000923 0.0099999998 0.1800898
0.90009665 0.0099999998 0.20010646
0.90010059 0.0099999998 0.2201311
0.90010232 0.0099999998 0.24016361
0.90010166 0.0099999998 0.26019239
0.90010178 0.0099999998 0.28020123
0.90009856 0.0099999998 0.30020803
0.92009711 0.0099999998 0.16007121
0.9201023 0.0099999998 0.18008363
0.9201079 0.0099999998 0.20009902
0.92011285 0.0099999998 0.22012168
0.9201147 0.0099999998 0.24015151
0.92011386 0.0099999998 0.26017851
0.92011416 0.0099999998 0.2801877
0.92011142 0.0099999998 0.30019471
0.940099 0.0099999998 0.16006564
0.94010478 0.0099999998 0.18007706
0.94011158 0.0099999998 0.20009103
0.94011873 0.0099999998 0.2201115
0.94012284 0.0099999998 0.24013853
0.94012213 0.0099999998 0.26016364
0.94012254 0.0099999998 0.28017306
0.9401201 0.0099999998 0.30018017
0.96009815 0.0099999998 0.1600599
0.96010411 0.0099999998 0.1800703
0.96011126 0.0099999998 0.20008275
0.96011925 0.0099999998 0.22010104
0.96012592 0.0099999998 0.24012549
0.96012729 0.0099999998 0.26014856
0.96012813 0.0099999998 0.28015795
0.96012604 0.0099999998 0.30016509
0.98009592 0.0099999998 0.16005418
0.980102 0.0099999998 0.18006356
0.98010933 0.0099999998 0.20007454
0.98011786 0.0099999998 0.22009057
0.98012608 0.0099999998 0.24011268
0.98013026 0.0099999998 0.26013368
0.98013228 0.0099999998 0.28014278
0.98013103 0.0099999998 0.30014983
1.0000931 0.0099999998 0.16004878
1.0000991 0.0099999998 0.18005714
1.0001065 0.0099999998 0.2000668
1.0001154 0.0099999998 0.22008058
1.0001252 0.0099999998 0.24010034
1.0001321 0.0099999998 0.26011935
1.0001363 0.0099999998 0.28012788
1.0001369 0.0099999998 0.30013469
1.0200897 0.0099999998 0.16004373
1.0200958 0.0099999998 0.18005113
1.0201033000000002 0.0099999998 0.20005986
1.0201126 0.0099999998 0.22007187
1.0201238000000001 0.0099999998 0.24008916
1.0201337 0.0099999998 0.26010615
1.020141 0.0099999998 0.28011376
1.0201452 0.0099999998 0.30012012
1.040086 0.0099999998 0.16003899
1.0400923 0.0099999998 0.18004578
1.0401 0.0099999998 0.2000535
1.04011 0.0099999998 0.22006465
1.0401227 0.0099999998 0.24007986
1.040136 0.0099999998 0.26009461
1.0401478000000002 0.0099999998 0.28010178
1.0401576 0.0099999998 0.30010805
1.0600822 0.0099999998 0.16003464
1.0600885 0.0099999998 0.18004091
1.0600966 0.0099999998 0.20004816
1.0601076999999999 0.0099999998 0.22005884
1.060122 0.0099999998 0.24007268
1.0601388 0.0099999998 0.26008561
1.0601553 0.0099999998 0.28009269
1.0601709 0.0099999998 0.30009931
1.0800782 0.0099999998 0.16003087
1.0800848 0.0099999998 0.18003656
1.0800937 0.0099999998 0.2000439
1.0801061 0.0099999998 0.22005445
1.0801221 0.0099999998 0.2400672
1.0801415 0.0099999998 0.26007852
1.0801610000000001 0.0099999998 0.28008553
1.0801803 0.0099999998 0.30009201
1.1000745 0.0099999998 0.16002725
1.1000816999999998 0.0099999998 0.18003292
1.1000917 0.0099999998 0.20004065
1.1001054 0.0099999998 0.22005118
1.100123 0.0099999998 0.240063
1.1001433 0.0099999998 0.26007259
1.100163 0.0099999998 0.28007931
1.1200715 0.0099999998 0.1600242
1.1200794 0.0099999998 0.18003017
1.1200906000000002 0.0099999998 0.2000384
1.120106 0.0099999998 0.22004899
1.1201248 0.0099999998 0.24005975
1.1201441 0.0099999998 0.26006791
1.1201618999999998 0.0099999998 0.28007415
1.1400692 0.0099999998 0.16002204
1.1400781999999998 0.0099999998 0.18002857
1.1400911 0.0099999998 0.20003748
1.1401081 0.0099999998 0.22004811
1.1401266 0.0099999998 0.24005754
1.1401436000000003 0.0099999998 0.26006454
1.1600683999999999 0.0099999998 0.16002114
1.1600788999999998 0.0099999998 0.18002857
1.1600939 0.0099999998 0.20003828
1.1601113 0.0099999998 0.22004826
1.160128 0.0099999998 0.24005637
1.1601419 0.0099999998 0.26006192
1.1800698 0.0099999998 0.16002224
1.1800828 0.0099999998 0.18003078
1.1800985000000002 0.0099999998 0.20004036
1.1801144 0.0099999998 0.22004904
1.1801277000000001 0.0099999998 0.24005541
1.2000753 0.0099999998 0.16002582
1.2000893 0.0099999998 0.18003419
1.2001034 0.0099999998 0.20004259
1.2001157 0.0099999998 0.22004944
1.2200837 0.0099999998 0.16003008
1.2200954 0.0099999998 0.18003745
1.2201058999999999 0.0099999998 0.20004408
1.2201133999999998 0.0099999998 0.22004853
1.2400892 0.0099999998 0.16003366
1.2400966999999998 0.0099999998 0.18003936
1.2600886 0.0099999998 0.16003546
VERTICES 2975 5950
1 0
1 1
1 2
1 3
1 4
1 5
1 6
1 7
1 8
1 9
1 10
1 11
1 12
1 13
1 14
1 15
1 16
1 17
1 18
1 19
1 20
1 21
1 22
1 23
1 24
1 25
1 26
1 27
1 28
1 29
1 30
1 31
1 32
1 33
1 34
1 35
1 36
1 37
1 38
1 39
1 40
1 41
1 42
1 43
1 44
1 45
1 46
1 47
1 48
1 49
1 50
1 51
1 52
1 53
1 54
1 55
1 56
1 57
1 58
1 59
1 60
1 61
1 62
1 63
1 64
1 65
1 66
1 67
1 68
1 69
1 70
1 71
1 72
1 73
1 74
1 75
1 76
1 77
1 78
1 79
1 80
1 81
1 82
1 83
1 84
1 85
1 86
1 87
1 88
1 89
1 90
1 91
1 92
1 93
1 94
1 95
1 96
1 97
1 98
1 99
1 100
1 101
1 102
1 103
1 104
1 105
1 106
1 107
1 108
1 109
1 110
1 111
1 112
1 113
1 114
1 115
1 116
1 117
1 118
1 119
1 120
1 121
1 122
1 123
1 124
1 125
1 126
1 127
1 128
1 129
1 130
1 131
1 132
1 133
1 134
1 135
1 136
1 137
1 138
1 139
1 140
1 141
1 142
1 143
1 144
1 145
1 146
1 147
1 148
1 149
1 150
1 151
1 152
1 153
1 154
1 155
1 156
1 157
1 158
1 159
1 160
1 161
1 162
1 163
1 164
1 165
1 166
1 167
1 168
1 169
1 170
1 171
1 172
1 173
1 174
1 175
1 176
1 177
1 178
1 179
1 180
1 181
1 182
1 183
1 184
1 185
1 186
1 187
1 188
1 189
1 190
1 191
1 192
1 193
1 194
1 195
1 196
1 197
1 198
1 199
1 200
1 201
1 202
1 203
1 204
1 205
1 206
1 207
1 208
1 209
1 210
1 211
1 212
1 213
1 214
1 215
1 216
1 217
1 218
1 219
1 220
1 221
1 222
1 223
1 224
1 225
1 226
1 227
1 228
1 229
1 230
1 231
1 232
1 233
1 234
1 235
1 236
1 237
1 238
1 239
1 240
1 241
1 242
1 243
1 244
1 245
1 246
1 247
1 248
1 249
1 250
1 251
1 252
1 253
1 254
1 255
1 256
1 257
1 258
1 259
1 260
1 261
1 262
1 263
1 264
1 265
1 266
1 267
1 268
1 269
1 270
1 271
1 272
1 273
1 274
1 275
1 276
1 277
1 278
1 279
1 280
1 281
1 282
1 283
1 284
1 285
1 286
1 287
1 288
1 289
1 290
1 291
1 292
1 293
1 294
1 295
1 296
1 297
1 298
1 299
1 300
1 301
1 302
1 303
1 304
1 305
1 306
1 307
1 308
1 309
1 310
1 311
1 312
1 313
1 314
1 315
1 316
1 317
1 318
1 319
1 320
1 321
1 322
1 323
1 324
1 325
1 326
1 327
1 328
1 329
1 330
1 331
1 332
1 333
1 334
1 335
1 336
1 337
1 338
1 339
1 340
1 341
1 342
1 343
1 344
1 345
1 346
1 347
1 348
1 349
1 350
1 351
1 352
1 353
1 354
1 355
1 356
1 357
1 358
1 359
1 360
1 361
1 362
1 363
1 364
1 365
1 366
1 367
1 368
1 369
1 370
1 371
1 372
1 373
1 374
1 375
1 376
1 377
1 378
1 379
1 380
1 381
1 382
1 383
1 384
1 385
1 386
1 387
1 388
1 389
1 390
1 391
1 392
1 393
1 394
1 395
1 396
1 397
1 398
1 399
1 400
1 401
1 402
1 403
1 404
1 405
1 406
1 407
1 408
1 409
1 410
1 411
1 412
1 413
1 414
1 415
1 416
1 417
1 418
1 419
1 420
1 421
1 422
1 423
1 424
1 425
1 426
1 427
1 428
1 429
1 430
1 431
1 432
1 433
1 434
1 435
1 436
1 437
1 438
1 439
1 440
1 441
1 442
1 443
1 444
1 445
1 446
1 447
1 448
1 449
1 450
1 451
1 452
1 453
1 454
1 455
1 456
1 457
1 458
1 459
1 460
1 461
1 462
1 463
1 464
1 465
1 466
1 467
1 468
1 469
1 470
1 471
1 472
1 473
1 474
1 475
1 476
1 477
1 478
1 479
1 480
1 481
1 482
1 483
1 484
1 485
1 486
1 487
1 488
1 489
1 490
1 491
1 492
1 493
1 494
1 495
1 496
1 497
1 498
1 499
1 500
1 501
1 502
1 503
1 504
1 505
1 506
1 507
1 508
1 509
1 510
1 511
1 512
1 513
1 514
1 515
1 516
1 517
1 518
1 519
1 520
1 521
1 522
1 523
1 524
1 525
1 526
1 527
1 528
1 529
1 530
1 531
1 532
1 533
1 534
1 535
1 536
1 537
1 538
1 539
1 540
1 541
1 542
1 543
1 544
1 545
1 546
1 547
1 548
1 549
1 550
1 551
1 552
1 553
1 554
1 555
1 556
1 557
1 558
1 559
1 560
1 561
1 562
1 563
1 564
1 565
1 566
1 567
1 568
1 569
1 570
1 571
1 572
1 573
1 574
1 575
1 576
1 577
1 578
1 579
1 580
1 581
1 582
1 583
1 584
1 585
1 586
1 587
1 588
1 589
1 590
1 591
1 592
1 593
1 594
1 595
1 596
1 597
1 598
1 599
1 600
1 601
1 602
1 603
1 604
1 605
1 606
1 607
1 608
1 609
1 610
1 611
1 612
1 613
1 614
1 615
1 616
1 617
1 618
1 619
1 620
1 621
1 622
1 623
1 624
1 625
1 626
1 627
1 628
1 629
1 630
1 631
1 632
1 633
1 634
1 635
1 636
1 637
1 638
1 639
1 640
1 641
1 642
1 643
1 644
1 645
1 646
1 647
1 648
1 649
1 650
1 651
1 652
1 653
1 654
1 655
1 656
1 657
1 658
1 659
1 660
1 661
1 662
1 663
1 664
1 665
1 666
1 667
1 668
1 669
1 670
1 671
1 672
1 673
1 674
1 675
1 676
1 677
1 678
1 679
1 680
1 681
1 682
1 683
1 684
1 685
1 686
1 687
1 688
1 689
1 690
1 691
1 692
1 693
1 694
1 695
1 696
1 697
1 698
1 699
1 700
1 701
1 702
1 703
1 704
1 705
1 706
1 707
1 708
1 709
1 710
1 711
1 712
1 713
1 714
1 715
1 716
1 717
1 718
1 719
1 720
1 721
1 722
1 723
1 724
1 725
1 726
1 727
1 728
1 729
1 730
1 731
1 732
1 733
1 734
1 735
1 736
1 737
1 738
1 739
1 740
1 741
1 742
1 743
1 744
1 745
1 746
1 747
1 748
1 749
1 750
1 751
1 752
1 753
1 754
1 755
1 756
1 757
1 758
1 759
1 760
1 761
1 762
1 763
1 764
1 765
1 766
1 767
1 768
1 769
1 770
1 771
1 772
1 773
1 774
1 775
1 776
1 777
1 778
1 779
1 780
1 781
1 782
1 783
1 784
1 785
1 786
1 787
1 788
1 789
1 790
1 791
1 792
1 793
1 794
1 795
1 796
1 797
1 798
1 799
1 800
1 801
1 802
1 803
1 804
1 805
1 806
1 807
1 808
1 809
1 810
1 811
1 812
1 813
1 814
1 815
1 816
1 817
1 818
1 819
1 820
1 821
1 822
1 823
1 824
1 825
1 826
1 827
1 828
1 829
1 830
1 831
1 832
1 833
1 834
1 835
1 836
1 837
1 838
1 839
1 840
1 841
1 842
1 843
1 844
1 845
1 846
1 847
1 848
1 849
1 850
1 851
1 852
1 853
1 854
1 855
1 856
1 857
1 858
1 859
1 860
1 861
1 862
1 863
1 864
1 865
1 866
1 867
1 868
1 869
1 870
1 871
1 872
1 873
1 874
1 875
1 876
1 877
1 878
1 879
1 880
1 881
1 882
1 883
1 884
1 885
1 886
1 887
1 888
1 889
1 890
1 891
1 892
1 893
1 894
1 895
1 896
1 897
1 898
1 899
1 900
1 901
1 902
1 903
1 904
1 905
1 906
1 907
1 908
1 909
1 910
1 911
1 912
1 913
1 914
1 915
1 916
1 917
1 918
1 919
1 920
1 921
1 922
1 923
1 924
1 925
1 926
1 927
1 928
1 929
1 930
1 931
1 932
1 933
1 934
1 935
1 936
1 937
1 938
1 939
1 940
1 941
1 942
1 943
1 944
1 945
1 946
1 947
1 948
1 949
1 950
1 951
1 952
1 953
1 954
1 955
1 956
1 957
1 958
1 959
1 960
1 961
1 962
1 963
1 964
1 965
1 966
1 967
1 968
1 969
1 970
1 971
1 972
1 973
1 974
1 975
1 976
1 977
1 978
1 979
1 980
1 981
1 982
1 983
1 984
1 985
1 986
1 987
1 988
1 989
1 990
1 991
1 992
1 993
1 994
1 995
1 996
1 997
1 998
1 999
1 1000
1 1001
1 1002
1 1003
1 1004
1 1005
1 1006
1 1007
1 1008
1 1009
1 1010
1 1011
1 1012
1 1013
1 1014
1 1015
1 1016
1 1017
1 1018
1 1019
1 1020
1 1021
1 1022
1 1023
1 1024
1 1025
1 1026
1 1027
1 1028
1 1029
1 1030
1 1031
1 1032
1 1033
1 1034
1 1035
1 1036
1 1037
1 1038
1 1039
1 1040
1 1041
1 1042
1 1043
1 1044
1 1045
1 1046
1 1047
1 1048
1 1049
1 1050
1 1051
1 1052
1 1053
1 1054
1 1055
1 1056
1 1057
1 1058
1 1059
1 1060
1 1061
1 1062
1 1063
1 1064
1 1065
1 1066
1 1067
1 1068
1 1069
1 1070
1 1071
1 1072
1 1073
1 1074
1 1075
1 1076
1 1077
1 1078
1 1079
1 1080
1 1081
1 1082
1 1083
1 1084
1 1085
1 1086
1 1087
1 1088
1 1089
1 1090
1 1091
1 1092
1 1093
1 1094
1 1095
1 1096
1 1097
1 1098
1 1099
1 1100
1 1101
1 1102
1 1103
1 1104
1 1105
1 1106
1 1107
1 1108
1 1109
1 1110
1 1111
1 1112
1 1113
1 1114
1 1115
1 1116
1 1117
1 1118
1 1119
1 1120
1 1121
1 1122
1 1123
1 1124
1 1125
1 1126
1 1127
1 1128
1 1129
1 1130
1 1131
1 1132
1 1133
1 1134
1 1135
1 1136
1 1137
1 1138
1 1139
1 1140
1 1141
1 1142
1 1143
1 1144
1 1145
1 1146
1 1147
1 1148
1 1149
1 1150
1 1151
1 1152
1 1153
1 1154
1 1155
1 1156
1 1157
1 1158
1 1159
1 1160
1 1161
1 1162
1 1163
1 1164
1 1165
1 1166
1 1167
1 1168
1 1169
1 1170
1 1171
1 1172
1 1173
1 1174
1 1175
1 1176
1 1177
1 1178
1 1179
1 1180
1 1181
1 1182
1 1183
1 1184
1 1185
1 1186
1 1187
1 1188
1 1189
1 1190
1 1191
1 1192
1 1193
1 1194
1 1195
1 1196
1 1197
1 1198
1 1199
1 1200
1 1201
1 1202
1 1203
1 1204
1 1205
1 1206
1 1207
1 1208
1 1209
1 1210
1 1211
1 1212
1 1213
1 1214
1 1215
1 1216
1 1217
1 1218
1 1219
1 1220
1 1221
1 1222
1 1223
1 1224
1 1225
1 1226
1 1227
1 1228
1 1229
1 1230
1 1231
1 1232
1 1233
1 1234
1 1235
1 1236
1 1237
1 1238
1 1239
1 1240
1 1241
1 1242
1 1243
1 1244
1 1245
1 1246
1 1247
1 1248
1 1249
1 1250
1 1251
1 1252
1 1253
1 1254
1 1255
1 1256
1 1257
1 1258
1 1259
1 1260
1 1261
1 1262
1 1263
1 1264
1 1265
1 1266
1 1267
1 1268
1 1269
1 1270
1 1271
1 1272
1 1273
1 1274
1 1275
1 1276
1 1277
1 1278
1 1279
1 1280
1 1281
1 1282
1 1283
1 1284
1 1285
1 1286
1 1287
1 1288
1 1289
1 1290
1 1291
1 1292
1 1293
1 1294
1 1295
1 1296
1 1297
1 1298
1 1299
1 1300
1 1301
1 1302
1 1303
1 1304
1 1305
1 1306
1 1307
1 1308
1 1309
1 1310
1 1311
1 1312
1 1313
1 1314
1 1315
1 1316
1 1317
1 1318
1 1319
1 1320
1 1321
1 1322
1 1323
1 1324
1 1325
1 1326
1 1327
1 1328
1 1329
1 1330
1 1331
1 1332
1 1333
1 1334
1 1335
1 1336
1 1337
1 1338
1 1339
1 1340
1 1341
1 1342
1 1343
1 1344
1 1345
1 1346
1 1347
1 1348
1 1349
1 1350
1 1351
1 1352
1 1353
1 1354
1 1355
1 1356
1 1357
1 1358
1 1359
1 1360
1 1361
1 1362
1 1363
1 1364
1 1365
1 1366
1 1367
1 1368
1 1369
1 1370
1 1371
1 1372
1 1373
1 1374
1 1375
1 1376
1 1377
1 1378
1 1379
1 1380
1 1381
1 1382
1 1383
1 1384
1 1385
1 1386
1 1387
1 1388
1 1389
1 1390
1 1391
1 1392
1 1393
1 1394
1 1395
1 1396
1 1397
1 1398
1 1399
1 1400
1 1401
1 1402
1 1403
1 1404
1 1405
1 1406
1 1407
1 1408
1 1409
1 1410
1 1411
1 1412
1 1413
1 1414
1 1415
1 1416
1 1417
1 1418
1 1419
1 1420
1 1421
1 1422
1 1423
1 1424
1 1425
1 1426
1 1427
1 1428
1 1429
1 1430
1 1431
1 1432
1 1433
1 1434
1 1435
1 1436
1 1437
1 1438
1 1439
1 1440
1 1441
1 1442
1 1443
1 1444
1 1445
1 1446
1 1447
1 1448
1 1449
1 1450
1 1451
1 1452
1 1453
1 1454
1 1455
1 1456
1 1457
1 1458
1 1459
1 1460
1 1461
1 1462
1 1463
1 1464
1 1465
1 1466
1 1467
1 1468
1 1469
1 1470
1 1471
1 1472
1 1473
1 1474
1 1475
1 1476
1 1477
1 1478
1 1479
1 1480
1 1481
1 1482
1 1483
1 1484
1 1485
1 1486
1 1487
1 1488
1 1489
1 1490
1 1491
1 1492
1 1493
1 1494
1 1495
1 1496
1 1497
1 1498
1 1499
1 1500
1 1501
1 1502
1 1503
1 1504
1 1505
1 1506
1 1507
1 1508
1 1509
1 1510
1 1511
1 1512
1 1513
1 1514
1 1515
1 1516
1 1517
1 1518
1 1519
1 1520
1 1521
1 1522
1 1523
1 1524
1 1525
1 1526
1 1527
1 1528
1 1529
1 1530
1 1531
1 1532
1 1533
1 1534
1 1535
1 1536
1 1537
1 1538
1 1539
1 1540
1 1541
1 1542
1 1543
1 1544
1 1545
1 1546
1 1547
1 1548
1 1549
1 1550
1 1551
1 1552
1 1553
1 1554
1 1555
1 1556
1 1557
1 1558
1 1559
1 1560
1 1561
1 1562
1 1563
1 1564
1 1565
1 1566
1 1567
1 1568
1 1569
1 1570
1 1571
1 1572
1 1573
1 1574
1 1575
1 1576
1 1577
1 1578
1 1579
1 1580
1 1581
1 1582
1 1583
1 1584
1 1585
1 1586
1 1587
1 1588
1 1589
1 1590
1 1591
1 1592
1 1593
1 1594
1 1595
1 1596
1 1597
1 1598
1 1599
1 1600
1 1601
1 1602
1 1603
1 1604
1 1605
1 1606
1 1607
1 1608
1 1609
1 1610
1 1611
1 1612
1 1613
1 1614
1 1615
1 1616
1 1617
1 1618
1 1619
1 1620
1 1621
1 1622
1 1623
1 1624
1 1625
1 1626
1 1627
1 1628
1 1629
1 1630
1 1631
1 1632
1 1633
1 1634
1 1635
1 1636
1 1637
1 1638
1 1639
1 1640
1 1641
1 1642
1 1643
1 1644
1 1645
1 1646
1 1647
1 1648
1 1649
1 1650
1 1651
1 1652
1 1653
1 1654
1 1655
1 1656
1 1657
1 1658
1 1659
1 1660
1 1661
1 1662
1 1663
1 1664
1 1665
1 1666
1 1667
1 1668
1 1669
1 1670
1 1671
1 1672
1 1673
1 1674
1 1675
1 1676
1 1677
1 1678
1 1679
1 1680
1 1681
1 1682
1 1683
1 1684
1 1685
1 1686
1 1687
1 1688
1 1689
1 1690
1 1691
1 1692
1 1693
1 1694
1 1695
1 1696
1 1697
1 1698
1 1699
1 1700
1 1701
1 1702
1 1703
1 1704
1 1705
1 1706
1 1707
1 1708
1 1709
1 1710
1 1711
1 1712
1 1713
1 1714
1 1715
1 1716
1 1717
1 1718
1 1719
1 1720
1 1721
1 1722
1 1723
1 1724
1 1725
1 1726
1 1727
1 1728
1 1729
1 1730
1 1731
1 1732
1 1733
1 1734
1 1735
1 1736
1 1737
1 1738
1 1739
1 1740
1 1741
1 1742
1 1743
1 1744
1 1745
1 1746
1 1747
1 1748
1 1749
1 1750
1 1751
1 1752
1 1753
1 1754
1 1755
1 1756
1 1757
1 1758
1 1759
1 1760
1 1761
1 1762
1 1763
1 1764
1 1765
1 1766
1 1767
1 1768
1 1769
1 1770
1 1771
1 1772
1 1773
1 1774
1 1775
1 1776
1 1777
1 1778
1 1779
1 1780
1 1781
1 1782
1 1783
1 1784
1 1785
1 1786
1 1787
1 1788
1 1789
1 1790
1 1791
1 1792
1 1793
1 1794
1 1795
1 1796
1 1797
1 1798
1 1799
1 1800
1 1801
1 1802
1 1803
1 1804
1 1805
1 1806
1 1807
1 1808
1 1809
1 1810
1 1811
1 1812
1 1813
1 1814
1 1815
1 1816
1 1817
1 1818
1 1819
1 1820
1 1821
1 1822
1 1823
1 1824
1 1825
1 1826
1 1827
1 1828
1 1829
1 1830
1 1831
1 1832
1 1833
1 1834
1 1835
1 1836
1 1837
1 1838
1 1839
1 1840
1 1841
1 1842
1 1843
1 1844
1 1845
1 1846
1 1847
1 1848
1 1849
1 1850
1 1851
1 1852
1 1853
1 1854
1 1855
1 1856
1 1857
1 1858
1 1859
1 1860
1 1861
1 1862
1 1863
1 1864
1 1865
1 1866
1 1867
1 1868
1 1869
1 1870
1 1871
1 1872
1 1873
1 1874
1 1875
1 1876
1 1877
1 1878
1 1879
1 1880
1 1881
1 1882
1 1883
1 1884
1 1885
1 1886
1 1887
1 1888
1 1889
1 1890
1 1891
1 1892
1 1893
1 1894
1 1895
1 1896
1 1897
1 1898
1 1899
1 1900
1 1901
1 1902
1 1903
1 1904
1 1905
1 1906
1 1907
1 1908
1 1909
1 1910
1 1911
1 1912
1 1913
1 1914
1 1915
1 1916
1 1917
1 1918
1 1919
1 1920
1 1921
1 1922
1 1923
1 1924
1 1925
1 1926
1 1927
1 1928
1 1929
1 1930
1 1931
1 1932
1 1933
1 1934
1 1935
1 1936
1 1937
1 1938
1 1939
1 1940
1 1941
1 1942
1 1943
1 1944
1 1945
1 1946
1 1947
1 1948
1 1949
1 1950
1 1951
1 1952
1 1953
1 1954
1 1955
1 1956
1 1957
1 1958
1 1959
1 1960
1 1961
1 1962
1 1963
1 1964
1 1965
1 1966
1 1967
1 1968
1 1969
1 1970
1 1971
1 1972
1 1973
1 1974
1 1975
1 1976
1 1977
1 1978
1 1979
1 1980
1 1981
1 1982
1 1983
1 1984
1 1985
1 1986
1 1987
1 1988
1 1989
1 1990
1 1991
1 1992
1 1993
1 1994
1 1995
1 1996
1 1997
1 1998
1 1999
1 2000
1 2001
1 2002
1 2003
1 2004
1 2005
1 2006
1 2007
1 2008
1 2009
1 2010
1 2011
1 2012
1 2013
1 2014
1 2015
1 2016
1 2017
1 2018
1 2019
1 2020
1 2021
1 2022
1 2023
1 2024
1 2025
1 2026
1 2027
1 2028
1 2029
1 2030
1 2031
1 2032
1 2033
1 2034
1 2035
1 2036
1 2037
1 2038
1 2039
1 2040
1 2041
1 2042
1 2043
1 2044
1 2045
1 2046
1 2047
1 2048
1 2049
1 2050
1 2051
1 2052
1 2053
1 2054
1 2055
1 2056
1 2057
1 2058
1 2059
1 2060
1 2061
1 2062
1 2063
1 2064
1 2065
1 2066
1 2067
1 2068
1 2069
1 2070
1 2071
1 2072
1 2073
1 2074
1 2075
1 2076
1 2077
1 2078
1 2079
1 2080
1 2081
1 2082
1 2083
1 2084
1 2085
1 2086
1 2087
1 2088
1 2089
1 2090
1 2091
1 2092
1 2093
1 2094
1 2095
1 2096
1 2097
1 2098
1 2099
1 2100
1 2101
1 2102
1 2103
1 2104
1 2105
1 2106
1 2107
1 2108
1 2109
1 2110
1 2111
1 2112
1 2113
1 2114
1 2115
1 2116
1 2117
1 2118
1 2119
1 2120
1 2121
1 2122
1 2123
1 2124
1 2125
1 2126
1 2127
1 2128
1 2129
1 2130
1 2131
1 2132
1 2133
1 2134
1 2135
1 2136
1 2137
1 2138
1 2139
1 2140
1 2141
1 2142
1 2143
1 2144
1 2145
1 2146
1 2147
1 2148
1 2149
1 2150
1 2151
1 2152
1 2153
1 2154
1 2155
1 2156
1 2157
1 2158
1 2159
1 2160
1 2161
1 2162
1 2163
1 2164
1 2165
1 2166
1 2167
1 2168
1 2169
1 2170
1 2171
1 2172
1 2173
1 2174
1 2175
1 2176
1 2177
1 2178
1 2179
1 2180
1 2181
1 2182
1 2183
1 2184
1 2185
1 2186
1 2187
1 2188
1 2189
1 2190
1 2191
1 2192
1 2193
1 2194
1 2195
1 2196
1 2197
1 2198
1 2199
1 2200
1 2201
1 2202
1 2203
1 2204
1 2205
1 2206
1 2207
1 2208
1 2209
1 2210
1 2211
1 2212
1 2213
1 2214
1 2215
1 2216
1 2217
1 2218
1 2219
1 2220
1 2221
1 2222
1 2223
1 2224
1 2225
1 2226
1 2227
1 2228
1 2229
1 2230
1 2231
1 2232
1 2233
1 2234
1 2235
1 2236
1 2237
1 2238
1 2239
1 2240
1 2241
1 2242
1 2243
1 2244
1 2245
1 2246
1 2247
1 2248
1 2249
1 2250
1 2251
1 2252
1 2253
1 2254
1 2255
1 2256
1 2257
1 2258
1 2259
1 2260
1 2261
1 2262
1 2263
1 2264
1 2265
1 2266
1 2267
1 2268
1 2269
1 2270
1 2271
1 2272
1 2273
1 2274
1 2275
1 2276
1 2277
1 2278
1 2279
1 2280
1 2281
1 2282
1 2283
1 2284
1 2285
1 2286
1 2287
1 2288
1 2289
1 2290
1 2291
1 2292
1 2293
1 2294
1 2295
1 2296
1 2297
1 2298
1 2299
1 2300
1 2301
1 2302
1 2303
1 2304
1 2305
1 2306
1 2307
1 2308
1 2309
1 2310
1 2311
1 2312
1 2313
1 2314
1 2315
1 2316
1 2317
1 2318
1 2319
1 2320
1 2321
1 2322
1 2323
1 2324
1 2325
1 2326
1 2327
1 2328
1 2329
1 2330
1 2331
1 2332
1 2333
1 2334
1 2335
1 2336
1 2337
1 2338
1 2339
1 2340
1 2341
1 2342
1 2343
1 2344
1 2345
1 2346
1 2347
1 2348
1 2349
1 2350
1 2351
1 2352
1 2353
1 2354
1 2355
1 2356
1 2357
1 2358
1 2359
1 2360
1 2361
1 2362
1 2363
1 2364
1 2365
1 2366
1 2367
1 2368
1 2369
1 2370
1 2371
1 2372
1 2373
1 2374
1 2375
1 2376
1 2377
1 2378
1 2379
1 2380
1 2381
1 2382
1 2383
1 2384
1 2385
1 2386
1 2387
1 2388
1 2389
1 2390
1 2391
1 2392
1 2393
1 2394
1 2395
1 2396
1 2397
1 2398
1 2399
1 2400
1 2401
1 2402
1 2403
1 2404
1 2405
1 2406
1 2407
1 2408
1 2409
1 2410
1 2411
1 2412
1 2413
1 2414
1 2415
1 2416
1 2417
1 2418
1 2419
1 2420
1 2421
1 2422
1 2423
1 2424
1 2425
1 2426
1 2427
1 2428
1 2429
1 2430
1 2431
1 2432
1 2433
1 2434
1 2435
1 2436
1 2437
1 2438
1 2439
1 2440
1 2441
1 2442
1 2443
1 2444
1 2445
1 2446
1 2447
1 2448
1 2449
1 2450
1 2451
1 2452
1 2453
1 2454
1 2455
1 2456
1 2457
1 2458
1 2459
1 2460
1 2461
1 2462
1 2463
1 2464
1 2465
1 2466
1 2467
1 2468
1 2469
1 2470
1 2471
1 2472
1 2473
1 2474
1 2475
1 2476
1 2477
1 2478
1 2479
1 2480
1 2481
1 2482
1 2483
1 2484
1 2485
1 2486
1 2487
1 2488
1 2489
1 2490
1 2491
1 2492
1 2493
1 2494
1 2495
1 2496
1 2497
1 2498
1 2499
1 2500
1 2501
1 2502
1 2503
1 2504
1 2505
1 2506
1 2507
1 2508
1 2509
1 2510
1 2511
1 2512
1 2513
1 2514
1 2515
1 2516
1 2517
1 2518
1 2519
1 2520
1 2521
1 2522
1 2523
1 2524
1 2525
1 2526
1 2527
1 2528
1 2529
1 2530
1 2531
1 2532
1 2533
1 2534
1 2535
1 2536
1 2537
1 2538
1 2539
1 2540
1 2541
1 2542
1 2543
1 2544
1 2545
1 2546
1 2547
1 2548
1 2549
1 2550
1 2551
1 2552
1 2553
1 2554
1 2555
1 2556
1 2557
1 2558
1 2559
1 2560
1 2561
1 2562
1 2563
1 2564
1 2565
1 2566
1 2567
1 2568
1 2569
1 2570
1 2571
1 2572
1 2573
1 2574
1 2575
1 2576
1 2577
1 2578
1 2579
1 2580
1 2581
1 2582
1 2583
1 2584
1 2585
1 2586
1 2587
1 2588
1 2589
1 2590
1 2591
1 2592
1 2593
1 2594
1 2595
1 2596
1 2597
1 2598
1 2599
1 2600
1 2601
1 2602
1 2603
1 2604
1 2605
1 2606
1 2607
1 2608
1 2609
1 2610
1 2611
1 2612
1 2613
1 2614
1 2615
1 2616
1 2617
1 2618
1 2619
1 2620
1 2621
1 2622
1 2623
1 2624
1 2625
1 2626
1 2627
1 2628
1 2629
1 2630
1 2631
1 2632
1 2633
1 2634
1 2635
1 2636
1 2637
1 2638
1 2639
1 2640
1 2641
1 2642
1 2643
1 2644
1 2645
1 2646
1 2647
1 2648
1 2649
1 2650
1 2651
1 2652
1 2653
1 2654
1 2655
1 2656
1 2657
1 2658
1 2659
1 2660
1 2661
1 2662
1 2663
1 2664
1 2665
1 2666
1 2667
1 2668
1 2669
1 2670
1 2671
1 2672
1 2673
1 2674
1 2675
1 2676
1 2677
1 2678
1 2679
1 2680
1 2681
1 2682
1 2683
1 2684
1 2685
1 2686
1 2687
1 2688
1 2689
1 2690
1 2691
1 2692
1 2693
1 2694
1 2695
1 2696
1 2697
1 2698
1 2699
1 2700
1 2701
1 2702
1 2703
1 2704
1 2705
1 2706
1 2707
1 2708
1 2709
1 2710
1 2711
1 2712
1 2713
1 2714
1 2715
1 2716
1 2717
1 2718
1 2719
1 2720
1 2721
1 2722
1 2723
1 2724
1 2725
1 2726
1 2727
1 2728
1 2729
1 2730
1 2731
1 2732
1 2733
1 2734
1 2735
1 2736
1 2737
1 2738
1 2739
1 2740
1 2741
1 2742
1 2743
1 2744
1 2745
1 2746
1 2747
1 2748
1 2749
1 2750
1 2751
1 2752
1 2753
1 2754
1 2755
1 2756
1 2757
1 2758
1 2759
1 2760
1 2761
1 2762
1 2763
1 2764
1 2765
1 2766
1 2767
1 2768
1 2769
1 2770
1 2771
1 2772
1 2773
1 2774
1 2775
1 2776
1 2777
1 2778
1 2779
1 2780
1 2781
1 2782
1 2783
1 2784
1 2785
1 2786
1 2787
1 2788
1 2789
1 2790
1 2791
1 2792
1 2793
1 2794
1 2795
1 2796
1 2797
1 2798
1 2799
1 2800
1 2801
1 2802
1 2803
1 2804
1 2805
1 2806
1 2807
1 2808
1 2809
1 2810
1 2811
1 2812
1 2813
1 2814
1 2815
1 2816
1 2817
1 2818
1 2819
1 2820
1 2821
1 2822
1 2823
1 2824
1 2825
1 2826
1 2827
1 2828
1 2829
1 2830
1 2831
1 2832
1 2833
1 2834
1 2835
1 2836
1 2837
1 2838
1 2839
1 2840
1 2841
1 2842
1 2843
1 2844
1 2845
1 2846
1 2847
1 2848
1 2849
1 2850
1 2851
1 2852
1 2853
1 2854
1 2855
1 2856
1 2857
1 2858
1 2859
1 2860
1 2861
1 2862
1 2863
1 2864
1 2865
1 2866
1 2867
1 2868
1 2869
1 2870
1 2871
1 2872
1 2873
1 2874
1 2875
1 2876
1 2877
1 2878
1 2879
1 2880
1 2881
1 2882
1 2883
1 2884
1 2885
1 2886
1 2887
1 2888
1 2889
1 2890
1 2891
1 2892
1 2893
1 2894
1 2895
1 2896
1 2897
1 2898
1 2899
1 2900
1 2901
1 2902
1 2903
1 2904
1 2905
1 2906
1 2907
1 2908
1 2909
1 2910
1 2911
1 2912
1 2913
1 2914
1 2915
1 2916
1 2917
1 2918
1 2919
1 2920
1 2921
1 2922
1 2923
1 2924
1 2925
1 2926
1 2927
1 2928
1 2929
1 2930
1 2931
1 2932
1 2933
1 2934
1 2935
1 2936
1 2937
1 2938
1 2939
1 2940
1 2941
1 2942
1 2943
1 2944
1 2945
1 2946
1 2947
1 2948
1 2949
1 2950
1 2951
1 2952
1 2953
1 2954
1 2955
1 2956
1 2957
1 2958
1 2959
1 2960
1 2961
1 2962
1 2963
1 2964
1 2965
1 2966
1 2967
1 2968
1 2969
1 2970
1 2971
1 2972
1 2973
1 2974
POINT_DATA 2975
SCALARS Idp unsigned_int
LOOKUP_TABLE default
0 1 39 40 41 80 81 82 121 122 123 162 163 164 203 204 205 244 245 246 285 286 287 326 327 328 367 368 369 408 409 410 449 450 451 461 462 463 471 472 473 481 482 483 491 492 493 501 502 503 511 512 513 521 522 523 531 532 533 541 542 543 551 552 2 3 4 5 6 7 8 9 42 43 44 45 46 47 48 49 83 84 85 86 87 88 89 90 124 125 126 127 128 129 130 131 165 166 167 168 169 170 171 172 206 207 208 209 210 211 212 213 247 248 249 250 251 252 253 254 288 289 290 291 292 293 294 295 329 330 331 332 333 334 335 336 370 371 372 373 374 375 376 377 411 412 413 414 415 416 417 418 452 453 454 464 465 474 475 484 485 494 495 504 505 514 515 524 525 534 535 544 545 553 554 10 11 12 13 14 15 16 17 18 50 51 52 53 54 55 56 57 58 91 92 93 94 95 96 97 98 99 132 133 134 135 136 137 138 139 140 173 174 175 176 177 178 179 180 181 214 215 216 217 218 219 220 221 222 255 256 257 258 259 260 261 262 263 296 297 298 299 300 301 302 303 304 337 338 339 340 341 342 343 344 345 378 379 380 381 382 383 384 385 386 419 420 421 422 423 424 425 426 427 19 20 21 22 23 24 25 26 59 60 61 62 63 64 65 66 100 101 102 103 104 105 106 107 141 142 143 144 145 146 147 148 182 183 184 185 186 187 188 189 223 224 225 226 227 228 229 230 264 265 266 267 268 269 270 271 305 306 307 308 309 310 311 312 346 347 348 349 350 351 352 353 387 388 389 390 391 392 393 394 428 429 430 431 432 433 434 435 27 28 29 30 31 32 33 34 35 67 68 69 70 71 72 73 74 75 108 109 110 111 112 113 114 115 116 149 150 151 152 153 154 155 156 157 190 191 192 193 194 195 196 197 198 231 232 233 234 235 236 237 238 239 272 273 274 275 276 277 278 279 280 313 314 315 316 317 318 319 320 321 354 355 356 357 358 359 360 361 362 395 396 397 398 399 400 401 402 403 436 437 438 439 440 441 442 443 444 455 456 466 476 486 496 506 516 526 536 546 555 36 37 38 76 77 78 79 117 118 119 120 158 159 160 161 199 200 201 202 240 241 242 243 281 282 283 284 322 323 324 325 363 364 365 366 404 405 406 407 445 446 447 448 457 458 459 460 467 468 469 470 477 478 479 480 487 488 489 490 497 498 499 500 507 508 509 510 517 518 519 520 527 528 529 530 537 538 539 540 547 548 549 550 556 557 558 559 560 561 562 563 564 565 566 567 568 569 570 571 572 573 574 575 576 577 578 579 580 581 582 583 584 585 586 587 588 589 590 591 592 593 594 595 596 597 598 599 600 601 602 603 604 605 606 607 608 609 610 611 612 613 614 615 616 617 618 619 620 621 622 623 624 625 626 627 628 629 630 631 632 633 634 635 636 637 638 639 640 641 642 643 644 645 646 647 648 649 650 651 652 653 654 655 656 657 658 659 660 661 662 663 664 665 666 667 668 669 670 671 672 673 674 675 676 677 678 679 680 681 682 683 684 685 686 687 688 689 690 691 692 693 694 695 696 697 698 699 700 701 702 703 704 705 706 707 708 709 710 711 712 713 714 715 716 717 718 719 720 721 722 723 724 725 726 727 728 729 730 731 732 733 734 735 736 737 738 739 740 741 742 743 744 745 746 747 748 749 750 751 752 753 754 755 756 757 758 759 760 761 762 763 764 765 766 767 768 769 770 771 772 773 774 775 776 777 778 779 780 781 782 783 784 785 786 787 788 789 790 791 792 793 794 795 796 797 798 799 800 801 802 803 804 805 806 807 808 809 810 811 812 813 814 815 816 817 818 819 820 821 822 823 824 825 826 827 828 829 830 831 832 833 834 835 836 837 838 839 840 841 842 843 844 845 846 847 848 849 850 851 852 853 854 855 856 857 858 859 860 861 862 863 864 865 866 867 868 869 870 871 872 873 874 875 876 877 878 879 880 881 882 883 884 885 886 887 888 889 890 891 892 893 894 895 896 897 898 899 900 901 902 903 904 905 906 907 908 909 910 911 912 913 914 915 916 917 918 919 920 921 922 923 924 925 926 927 928 929 930 931 932 933 934 935 936 937 938 939 940 941 942 943 944 945 946 947 948 949 950 951 952 953 954 955 956 957 958 959 960 961 962 963 964 965 966 967 968 969 970 971 972 973 974 975 976 977 978 979 980 981 982 983 984 985 986 987 988 989 990 991 992 993 994 995 996 997 998 999 1000 1001 1002 1003 1004 1005 1006 1007 1008 1009 1010 1011 1012 1013 1014 1015 1016 1017 1018 1019 1020 1021 1022 1023 1024 1025 1026 1027 1028 1029 1030 1031 1032 1033 1034 1035 1060 1061 1062 1063 1064 1065 1091 1092 1093 1094 1095 1096 1122 1123 1124 1125 1126 1127 1153 1154 1155 1156 1157 1158 1184 1185 1186 1187 1188 1189 1215 1216 1217 1218 1219 1220 1246 1247 1248 1249 1250 1251 1277 1278 1279 1280 1281 1282 1308 1309 1310 1311 1312 1313 1339 1340 1341 1342 1343 1344 1370 1371 1372 1373 1374 1375 1401 1402 1403 1404 1405 1406 1432 1433 1434 1435 1436 1437 1463 1464 1465 1466 1467 1468 1494 1495 1496 1497 1498 1499 1525 1526 1527 1528 1529 1530 1556 1557 1558 1559 1560 1561 1587 1588 1589 1590 1591 1592 1618 1619 1620 1621 1622 1623 1649 1650 1651 1652 1653 1654 1680 1681 1682 1683 1684 1685 1711 1712 1713 1714 1715 1716 1742 1743 1744 1745 1746 1747 1773 1774 1775 1776 1777 1778 1804 1805 1806 1807 1808 1809 1835 1836 1837 1838 1839 1840 1866 1867 1868 1869 1870 1871 1897 1898 1899 1900 1901 1902 1928 1929 1930 1931 1932 1933 1959 1960 1961 1962 1963 1964 1990 1991 1992 1993 1994 1995 2021 2022 2023 2024 2025 2026 2052 2053 2054 2055 2056 2057 2083 2084 2085 2086 2087 2088 2114 2115 2116 2117 2118 2119 2145 2146 2147 2148 2149 2150 2176 2177 2178 2179 2180 2181 2207 2208 2209 2210 2211 2212 2238 2239 2240 2241 2242 2243 2269 2270 2271 2272 2273 2274 2300 2301 2302 2303 2304 2305 2331 2332 2333 2334 2335 2336 2362 2363 2364 2365 2366 2367 2393 2394 2395 2396 2397 2398 2424 2425 2426 2427 2428 2429 2455 2456 2457 2458 2459 2460 2486 2487 2488 2489 2490 2491 2517 2518 2519 2520 2521 2522 2548 2549 2550 2551 2552 2553 2579 2580 2581 2582 2583 2584 2610 2611 2612 2613 2614 2615 2641 2642 2643 2644 2645 2646 2672 2673 2674 2675 2676 2677 2703 2704 2705 2706 2707 2708 2734 2735 2736 2737 2738 2763 2764 2765 2766 2767 2792 2793 2794 2795 2819 2820 2821 2822 2846 2847 2848 2871 2872 2894 2895 1036 1037 1038 1039 1040 1041 1042 1043 1044 1066 1067 1068 1069 1070 1071 1072 1073 1074 1097 1098 1099 1100 1101 1102 1103 1104 1105 1128 1129 1130 1131 1132 1133 1134 1135 1136 1159 1160 1161 1162 1163 1164 1165 1166 1167 1190 1191 1192 1193 1194 1195 1196 1197 1198 1221 1222 1223 1224 1225 1226 1227 1228 1229 1252 1253 1254 1255 1256 1257 1258 1259 1260 1283 1284 1285 1286 1287 1288 1289 1290 1291 1314 1315 1316 1317 1318 1319 1320 1321 1322 1345 1346 1347 1348 1349 1350 1351 1352 1353 1376 1377 1378 1379 1380 1381 1382 1383 1384 1407 1408 1409 1410 1411 1412 1413 1414 1415 1438 1439 1440 1441 1442 1443 1444 1445 1446 1469 1470 1471 1472 1473 1474 1475 1476 1477 1500 1501 1502 1503 1504 1505 1506 1507 1508 1531 1532 1533 1534 1535 1536 1537 1538 1539 1562 1563 1564 1565 1566 1567 1568 1569 1570 1593 1594 1595 1596 1597 1598 1599 1600 1601 1624 1625 1626 1627 1628 1629 1630 1631 1632 1655 1656 1657 1658 1659 1660 1661 1662 1663 1686 1687 1688 1689 1690 1691 1692 1693 1694 1717 1718 1719 1720 1721 1722 1723 1724 1725 1748 1749 1750 1751 1752 1753 1754 1755 1756 1779 1780 1781 1782 1783 1784 1785 1786 1787 1810 1811 1812 1813 1814 1815 1816 1817 1818 1841 1842 1843 1844 1845 1846 1847 1848 1849 1872 1873 1874 1875 1876 1877 1878 1879 1880 1903 1904 1905 1906 1907 1908 1909 1910 1911 1934 1935 1936 1937 1938 1939 1940 1941 1942 1965 1966 1967 1968 1969 1970 1971 1972 1973 1996 1997 1998 1999 2000 2001 2002 2003 2004 2027 2028 2029 2030 2031 2032 2033 2034 2035 2058 2059 2060 2061 2062 2063 2064 2065 2066 2089 2090 2091 2092 2093 2094 2095 2096 2097 2120 2121 2122 2123 2124 2125 2126 2127 2128 2151 2152 2153 2154 2155 2156 2157 2158 2159 2182 2183 2184 2185 2186 2187 2188 2189 2190 2213 2214 2215 2216 2217 2218 2219 2220 2221 2244 2245 2246 2247 2248 2249 2250 2251 2252 2275 2276 2277 2278 2279 2280 2281 2282 2283 2306 2307 2308 2309 2310 2311 2312 2313 2314 2337 2338 2339 2340 2341 2342 2343 2344 2345 2368 2369 2370 2371 2372 2373 2374 2375 2376 2399 2400 2401 2402 2403 2404 2405 2406 2407 2430 2431 2432 2433 2434 2435 2436 2437 2438 2461 2462 2463 2464 2465 2466 2467 2468 2469 2492 2493 2494 2495 2496 2497 2498 2499 2500 2523 2524 2525 2526 2527 2528 2529 2530 2531 2554 2555 2556 2557 2558 2559 2560 2561 2562 2585 2586 2587 2588 2589 2590 2591 2592 2593 2616 2617 2618 2619 2620 2621 2622 2623 2624 2647 2648 2649 2650 2651 2652 2653 2654 2655 2678 2679 2680 2681 2682 2683 2684 2685 2686 2709 2710 2711 2712 2713 2714 2715 2716 2717 2739 2740 2741 2742 2743 2744 2745 2746 2747 2768 2769 2770 2771 2772 2773 2774 2775 2776 2796 2797 2798 2799 2800 2801 2802 2803 2804 2823 2824 2825 2826 2827 2828 2829 2830 2831 2849 2850 2851 2852 2853 2854 2855 2856 2857 2873 2874 2875 2876 2877 2878 2879 2880 2881 2896 2897 2898 2899 2900 2901 2902 2903 2904 2917 2918 2919 2920 2921 2922 2923 2924 2925 2936 2937 2938 2939 2940 2941 2942 2943 2953 2954 2955 2956 2957 2958 2966 2967 2968 2969 1045 1046 1047 1048 1049 1050 1051 1052 1075 1076 1077 1078 1079 1080 1081 1082 1106 1107 1108 1109 1110 1111 1112 1113 1137 1138 1139 1140 1141 1142 1143 1144 1168 1169 1170 1171 1172 1173 1174 1175 1199 1200 1201 1202 1203 1204 1205 1206 1230 1231 1232 1233 1234 1235 1236 1237 1261 1262 1263 1264 1265 1266 1267 1268 1292 1293 1294 1295 1296 1297 1298 1299 1323 1324 1325 1326 1327 1328 1329 1330 1354 1355 1356 1357 1358 1359 1360 1361 1385 1386 1387 1388 1389 1390 1391 1392 1416 1417 1418 1419 1420 1421 1422 1423 1447 1448 1449 1450 1451 1452 1453 1454 1478 1479 1480 1481 1482 1483 1484 1485 1509 1510 1511 1512 1513 1514 1515 1516 1540 1541 1542 1543 1544 1545 1546 1547 1571 1572 1573 1574 1575 1576 1577 1578 1602 1603 1604 1605 1606 1607 1608 1609 1633 1634 1635 1636 1637 1638 1639 1640 1664 1665 1666 1667 1668 1669 1670 1671 1695 1696 1697 1698 1699 1700 1701 1702 1726 1727 1728 1729 1730 1731 1732 1733 1757 1758 1759 1760 1761 1762 1763 1764 1788 1789 1790 1791 1792 1793 1794 1795 1819 1820 1821 1822 1823 1824 1825 1826 1850 1851 1852 1853 1854 1855 1856 1857 1881 1882 1883 1884 1885 1886 1887 1888 1912 1913 1914 1915 1916 1917 1918 1919 1943 1944 1945 1946 1947 1948 1949 1950 1974 1975 1976 1977 1978 1979 1980 1981 2005 2006 2007 2008 2009 2010 2011 2012 2036 2037 2038 2039 2040 2041 2042 2043 2067 2068 2069 2070 2071 2072 2073 2074 2098 2099 2100 2101 2102 2103 2104 2105 2129 2130 2131 2132 2133 2134 2135 2136 2160 2161 2162 2163 2164 2165 2166 2167 2191 2192 2193 2194 2195 2196 2197 2198 2222 2223 2224 2225 2226 2227 2228 2229 2253 2254 2255 2256 2257 2258 2259 2260 2284 2285 2286 2287 2288 2289 2290 2291 2315 2316 2317 2318 2319 2320 2321 2322 2346 2347 2348 2349 2350 2351 2352 2353 2377 2378 2379 2380 2381 2382 2383 2384 2408 2409 2410 2411 2412 2413 2414 2415 2439 2440 2441 2442 2443 2444 2445 2446 2470 2471 2472 2473 2474 2475 2476 2477 2501 2502 2503 2504 2505 2506 2507 2508 2532 2533 2534 2535 2536 2537 2538 2539 2563 2564 2565 2566 2567 2568 2569 2570 2594 2595 2596 2597 2598 2599 2600 2601 2625 2626 2627 2628 2629 2630 2631 2632 2656 2657 2658 2659 2660 2661 2662 2663 2687 2688 2689 2690 2691 2692 2693 2694 2718 2719 2720 2721 2722 2723 2724 2725 2748 2749 2750 2751 2752 2753 2754 2755 2777 2778 2779 2780 2781 2782 2783 2784 2805 2806 2807 2808 2809 2810 2811 2812 2832 2833 2834 2835 2836 2837 2838 2839 2858 2859 2860 2861 2862 2863 2864 2865 2882 2883 2884 2885 2886 2887 2888 2889 2905 2906 2907 2908 2909 2910 2911 2912 2926 2927 2928 2929 2930 2931 2932 2933 2944 2945 2946 2947 2948 2949 2950 2951 2959 2960 2961 2962 2963 2964 2965 2970 2971 2972 2973 2974 1053 1054 1055 1056 1057 1058 1059 1083 1084 1085 1086 1087 1088 1089 1090 1114 1115 1116 1117 1118 1119 1120 1121 1145 1146 1147 1148 1149 1150 1151 1152 1176 1177 1178 1179 1180 1181 1182 1183 1207 1208 1209 1210 1211 1212 1213 1214 1238 1239 1240 1241 1242 1243 1244 1245 1269 1270 1271 1272 1273 1274 1275 1276 1300 1301 1302 1303 1304 1305 1306 1307 1331 1332 1333 1334 1335 1336 1337 1338 1362 1363 1364 1365 1366 1367 1368 1369 1393 1394 1395 1396 1397 1398 1399 1400 1424 1425 1426 1427 1428 1429 1430 1431 1455 1456 1457 1458 1459 1460 1461 1462 1486 1487 1488 1489 1490 1491 1492 1493 1517 1518 1519 1520 1521 1522 1523 1524 1548 1549 1550 1551 1552 1553 1554 1555 1579 1580 1581 1582 1583 1584 1585 1586 1610 1611 1612 1613 1614 1615 1616 1617 1641 1642 1643 1644 1645 1646 1647 1648 1672 1673 1674 1675 1676 1677 1678 1679 1703 1704 1705 1706 1707 1708 1709 1710 1734 1735 1736 1737 1738 1739 1740 1741 1765 1766 1767 1768 1769 1770 1771 1772 1796 1797 1798 1799 1800 1801 1802 1803 1827 1828 1829 1830 1831 1832 1833 1834 1858 1859 1860 1861 1862 1863 1864 1865 1889 1890 1891 1892 1893 1894 1895 1896 1920 1921 1922 1923 1924 1925 1926 1927 1951 1952 1953 1954 1955 1956 1957 1958 1982 1983 1984 1985 1986 1987 1988 1989 2013 2014 2015 2016 2017 2018 2019 2020 2044 2045 2046 2047 2048 2049 2050 2051 2075 2076 2077 2078 2079 2080 2081 2082 2106 2107 2108 2109 2110 2111 2112 2113 2137 2138 2139 2140 2141 2142 2143 2144 2168 2169 2170 2171 2172 2173 2174 2175 2199 2200 2201 2202 2203 2204 2205 2206 2230 2231 2232 2233 2234 2235 2236 2237 2261 2262 2263 2264 2265 2266 2267 2268 2292 2293 2294 2295 2296 2297 2298 2299 2323 2324 2325 2326 2327 2328 2329 2330 2354 2355 2356 2357 2358 2359 2360 2361 2385 2386 2387 2388 2389 2390 2391 2392 2416 2417 2418 2419 2420 2421 2422 2423 2447 2448 2449 2450 2451 2452 2453 2454 2478 2479 2480 2481 2482 2483 2484 2485 2509 2510 2511 2512 2513 2514 2515 2516 2540 2541 2542 2543 2544 2545 2546 2547 2571 2572 2573 2574 2575 2576 2577 2578 2602 2603 2604 2605 2606 2607 2608 2609 2633 2634 2635 2636 2637 2638 2639 2640 2664 2665 2666 2667 2668 2669 2670 2671 2695 2696 2697 2698 2699 2700 2701 2702 2726 2727 2728 2729 2730 2731 2732 2733 2756 2757 2758 2759 2760 2761 2762 2785 2786 2787 2788 2789 2790 2791 2813 2814 2815 2816 2817 2818 2840 2841 2842 2843 2844 2845 2866 2867 2868 2869 2870 2890 2891 2892 2893 2913 2914 2915 2916 2934 2935 2952 
FIELD FieldData 12
Idp 1 2975 float
0 1 39 40 41 80 81 82 121 122 123 162 163 164 203 204 205 244 245 246 285 286 287 326 327 328 367 368 369 408 409 410 449 450 451 461 462 463 471 472 473 481 482 483 491 492 493 501 502 503 511 512 513 521 522 523 531 532 533 541 542 543 551 552 2 3 4 5 6 7 8 9 42 43 44 45 46 47 48 49 83 84 85 86 87 88 89 90 124 125 126 127 128 129 130 131 165 166 167 168 169 170 171 172 206 207 208 209 210 211 212 213 247 248 249 250 251 252 253 254 288 289 290 291 292 293 294 295 329 330 331 332 333 334 335 336 370 371 372 373 374 375 376 377 411 412 413 414 415 416 417 418 452 453 454 464 465 474 475 484 485 494 495 504 505 514 515 524 525 534 535 544 545 553 554 10 11 12 13 14 15 16 17 18 50 51 52 53 54 55 56 57 58 91 92 93 94 95 96 97 98 99 132 133 134 135 136 137 138 139 140 173 174 175 176 177 178 179 180 181 214 215 216 217 218 219 220 221 222 255 256 257 258 259 260 261 262 263 296 297 298 299 300 301 302 303 304 337 338 339 340 341 342 343 344 345 378 379 380 381 382 383 384 385 386 419 420 421 422 423 424 425 426 427 19 20 21 22 23 24 25 26 59 60 61 62 63 64 65 66 100 101 102 103 104 105 106 107 141 142 143 144 145 146 147 148 182 183 184 185 186 187 188 189 223 224 225 226 227 228 229 230 264 265 266 267 268 269 270 271 305 306 307 308 309 310 311 312 346 347 348 349 350 351 352 353 387 388 389 390 391 392 393 394 428 429 430 431 432 433 434 435 27 28 29 30 31 32 33 34 35 67 68 69 70 71 72 73 74 75 108 109 110 111 112 113 114 115 116 149 150 151 152 153 154 155 156 157 190 191 192 193 194 195 196 197 198 231 232 233 234 235 236 237 238 239 272 273 274 275 276 277 278 279 280 313 314 315 316 317 318 319 320 321 354 355 356 357 358 359 360 361 362 395 396 397 398 399 400 401 402 403 436 437 438 439 440 441 442 443 444 455 456 466 476 486 496 506 516 526 536 546 555 36 37 38 76 77 78 79 117 118 119 120 158 159 160 161 199 200 201 202 240 241 242 243 281 282 283 284 322 323 324 325 363 364 365 366 404 405 406 407 445 446 447 448 457 458 459 460 467 468 469 470 477 478 479 480 487 488 489 490 497 498 499 500 507 508 509 510 517 518 519 520 527 528 529 530 537 538 539 540 547 548 549 550 556 557 558 559 560 561 562 563 564 565 566 567 568 569 570 571 572 573 574 575 576 577 578 579 580 581 582 583 584 585 586 587 588 589 590 591 592 593 594 595 596 597 598 599 600 601 602 603 604 605 606 607 608 609 610 611 612 613 614 615 616 617 618 619 620 621 622 623 624 625 626 627 628 629 630 631 632 633 634 635 636 637 638 639 640 641 642 643 644 645 646 647 648 649 650 651 652 653 654 655 656 657 658 659 660 661 662 663 664 665 666 667 668 669 670 671 672 673 674 675 676 677 678 679 680 681 682 683 684 685 686 687 688 689 690 691 692 693 694 695 696 697 698 699 700 701 702 703 704 705 706 707 708 709 710 711 712 713 714 715 716 717 718 719 720 721 722 723 724 725 726 727 728 729 730 731 732 733 734 735 736 737 738 739 740 741 742 743 744 745 746 747 748 749 750 751 752 753 754 755 756 757 758 759 760 761 762 763 764 765 766 767 768 769 770 771 772 773 774 775 776 777 778 779 780 781 782 783 784 785 786 787 788 789 790 791 792 793 794 795 796 797 798 799 800 801 802 803 804 805 806 807 808 809 810 811 812 813 814 815 816 817 818 819 820 821 822 823 824 825 826 827 828 829 830 831 832 833 834 835 836 837 838 839 840 841 842 843 844 845 846 847 848 849 850 851 852 853 854 855 856 857 858 859 860 861 862 863 864 865 866 867 868 869 870 871 872 873 874 875 876 877 878 879 880 881 882 883 884 885 886 887 888 889 890 891 892 893 894 895 896 897 898 899 900 901 902 903 904 905 906 907 908 909 910 911 912 913 914 915 916 917 918 919 920 921 922 923 924 925 926 927 928 929 930 931 932 933 934 935 936 937 938 939 940 941 942 943 944 945 946 947 948 949 950 951 952 953 954 955 956 957 958 959 960 961 962 963 964 965 966 967 968 969 970 971 972 973 974 975 976 977 978 979 980 981 982 983 984 985 986 987 988 989 990 991 992 993 994 995 996 997 998 999 1000 1001 1002 1003 1004 1005 1006 1007 1008 1009 1010 1011 1012 1013 1014 1015 1016 1017 1018 1019 1020 1021 1022 1023 1024 1025 1026 1027 1028 1029 1030 1031 1032 1033 1034 1035 1060 1061 1062 1063 1064 1065 1091 1092 1093 1094 1095 1096 1122 1123 1124 1125 1126 1127 1153 1154 1155 1156 1157 1158 1184 1185 1186 1187 1188 1189 1215 1216 1217 1218 1219 1220 1246 1247 1248 1249 1250 1251 1277 1278 1279 1280 1281 1282 1308 1309 1310 1311 1312 1313 1339 1340 1341 1342 1343 1344 1370 1371 1372 1373 1374 1375 1401 1402 1403 1404 1405 1406 1432 1433 1434 1435 1436 1437 1463 1464 1465 1466 1467 1468 1494 1495 1496 1497 1498 1499 1525 1526 1527 1528 1529 1530 1556 1557 1558 1559 1560 1561 1587 1588 1589 1590 1591 1592 1618 1619 1620 1621 1622 1623 1649 1650 1651 1652 1653 1654 1680 1681 1682 1683 1684 1685 1711 1712 1713 1714 1715 1716 1742 1743 1744 1745 1746 1747 1773 1774 1775 1776 1777 1778 1804 1805 1806 1807 1808 1809 1835 1836 1837 1838 1839 1840 1866 1867 1868 1869 1870 1871 1897 1898 1899 1900 1901 1902 1928 1929 1930 1931 1932 1933 1959 1960 1961 1962 1963 1964 1990 1991 1992 1993 1994 1995 2021 2022 2023 2024 2025 2026 2052 2053 2054 2055 2056 2057 2083 2084 2085 2086 2087 2088 2114 2115 2116 2117 2118 2119 2145 2146 2147 2148 2149 2150 2176 2177 2178 2179 2180 2181 2207 2208 2209 2210 2211 2212 2238 2239 2240 2241 2242 2243 2269 2270 2271 2272 2273 2274 2300 2301 2302 2303 2304 2305 2331 2332 2333 2334 2335 2336 2362 2363 2364 2365 2366 2367 2393 2394 2395 2396 2397 2398 2424 2425 2426 2427 2428 2429 2455 2456 2457 2458 2459 2460 2486 2487 2488 2489 2490 2491 2517 2518 2519 2520 2521 2522 2548 2549 2550 2551 2552 2553 2579 2580 2581 2582 2583 2584 2610 2611 2612 2613 2614 2615 2641 2642 2643 2644 2645 2646 2672 2673 2674 2675 2676 2677 2703 2704 2705 2706 2707 2708 2734 2735 2736 2737 2738 2763 2764 2765 2766 2767 2792 2793 2794 2795 2819 2820 2821 2822 2846 2847 2848 2871 2872 2894 2895 1036 1037 1038 1039 1040 1041 1042 1043 1044 1066 1067 1068 1069 1070 1071 1072 1073 1074 1097 1098 1099 1100 1101 1102 1103 1104 1105 1128 1129 1130 1131 1132 1133 1134 1135 1136 1159 1160 1161 1162 1163 1164 1165 1166 1167 1190 1191 1192 1193 1194 1195 1196 1197 1198 1221 1222 1223 1224 1225 1226 1227 1228 1229 1252 1253 1254 1255 1256 1257 1258 1259 1260 1283 1284 1285 1286 1287 1288 1289 1290 1291 1314 1315 1316 1317 1318 1319 1320 1321 1322 1345 1346 1347 1348 1349 1350 1351 1352 1353 1376 1377 1378 1379 1380 1381 1382 1383 1384 1407 1408 1409 1410 1411 1412 1413 1414 1415 1438 1439 1440 1441 1442 1443 1444 1445 1446 1469 1470 1471 1472 1473 1474 1475 1476 1477 1500 1501 1502 1503 1504 1505 1506 1507 1508 1531 1532 1533 1534 1535 1536 1537 1538 1539 1562 1563 1564 1565 1566 1567 1568 1569 1570 1593 1594 1595 1596 1597 1598 1599 1600 1601 1624 1625 1626 1627 1628 1629 1630 1631 1632 1655 1656 1657 1658 1659 1660 1661 1662 1663 1686 1687 1688 1689 1690 1691 1692 1693 1694 1717 1718 1719 1720 1721 1722 1723 1724 1725 1748 1749 1750 1751 1752 1753 1754 1755 1756 1779 1780 1781 1782 1783 1784 1785 1786 1787 1810 1811 1812 1813 1814 1815 1816 1817 1818 1841 1842 1843 1844 1845 1846 1847 1848 1849 1872 1873 1874 1875 1876 1877 1878 1879 1880 1903 1904 1905 1906 1907 1908 1909 1910 1911 1934 1935 1936 1937 1938 1939 1940 1941 1942 1965 1966 1967 1968 1969 1970 1971 1972 1973 1996 1997 1998 1999 2000 2001 2002 2003 2004 2027 2028 2029 2030 2031 2032 2033 2034 2035 2058 2059 2060 2061 2062 2063 2064 2065 2066 2089 2090 2091 2092 2093 2094 2095 2096 2097 2120 2121 2122 2123 2124 2125 2126 2127 2128 2151 2152 2153 2154 2155 2156 2157 2158 2159 2182 2183 2184 2185 2186 2187 2188 2189 2190 2213 2214 2215 2216 2217 2218 2219 2220 2221 2244 2245 2246 2247 2248 2249 2250 2251 2252 2275 2276 2277 2278 2279 2280 2281 2282 2283 2306 2307 2308 2309 2310 2311 2312 2313 2314 2337 2338 2339 2340 2341 2342 2343 2344 2345 2368 2369 2370 2371 2372 2373 2374 2375 2376 2399 2400 2401 2402 2403 2404 2405 2406 2407 2430 2431 2432 2433 2434 2435 2436 2437 2438 2461 2462 2463 2464 2465 2466 2467 2468 2469 2492 2493 2494 2495 2496 2497 2498 2499 2500 2523 2524 2525 2526 2527 2528 2529 2530 2531 2554 2555 2556 2557 2558 2559 2560 2561 2562 2585 2586 2587 2588 2589 2590 2591 2592 2593 2616 2617 2618 2619 2620 2621 2622 2623 2624 2647 2648 2649 2650 2651 2652 2653 2654 2655 2678 2679 2680 2681 2682 2683 2684 2685 2686 2709 2710 2711 2712 2713 2714 2715 2716 2717 2739 2740 2741 2742 2743 2744 2745 2746 2747 2768 2769 2770 2771 2772 2773 2774 2775 2776 2796 2797 2798 2799 2800 2801 2802 2803 2804 2823 2824 2825 2826 2827 2828 2829 2830 2831 2849 2850 2851 2852 2853 2854 2855 2856 2857 2873 2874 2875 2876 2877 2878 2879 2880 2881 2896 2897 2898 2899 2900 2901 2902 2903 2904 2917 2918 2919 2920 2921 2922 2923 2924 2925 2936 2937 2938 2939 2940 2941 2942 2943 2953 2954 2955 2956 2957 2958 2966 2967 2968 2969 1045 1046 1047 1048 1049 1050 1051 1052 1075 1076 1077 1078 1079 1080 1081 1082 1106 1107 1108 1109 1110 1111 1112 1113 1137 1138 1139 1140 1141 1142 1143 1144 1168 1169 1170 1171 1172 1173 1174 1175 1199 1200 1201 1202 1203 1204 1205 1206 1230 1231 1232 1233 1234 1235 1236 1237 1261 1262 1263 1264 1265 1266 1267 1268 1292 1293 1294 1295 1296 1297 1298 1299 1323 1324 1325 1326 1327 1328 1329 1330 1354 1355 1356 1357 1358 1359 1360 1361 1385 1386 1387 1388 1389 1390 1391 1392 1416 1417 1418 1419 1420 1421 1422 1423 1447 1448 1449 1450 1451 1452 1453 1454 1478 1479 1480 1481 1482 1483 1484 1485 1509 1510 1511 1512 1513 1514 1515 1516 1540 1541 1542 1543 1544 1545 1546 1547 1571 1572 1573 1574 1575 1576 1577 1578 1602 1603 1604 1605 1606 1607 1608 1609 1633 1634 1635 1636 1637 1638 1639 1640 1664 1665 1666 1667 1668 1669 1670 1671 1695 1696 1697 1698 1699 1700 1701 1702 1726 1727 1728 1729 1730 1731 1732 1733 1757 1758 1759 1760 1761 1762 1763 1764 1788 1789 1790 1791 1792 1793 1794 1795 1819 1820 1821 1822 1823 1824 1825 1826 1850 1851 1852 1853 1854 1855 1856 1857 1881 1882 1883 1884 1885 1886 1887 1888 1912 1913 1914 1915 1916 1917 1918 1919 1943 1944 1945 1946 1947 1948 1949 1950 1974 1975 1976 1977 1978 1979 1980 1981 2005 2006 2007 2008 2009 2010 2011 2012 2036 2037 2038 2039 2040 2041 2042 2043 2067 2068 2069 2070 2071 2072 2073 2074 2098 2099 2100 2101 2102 2103 2104 2105 2129 2130 2131 2132 2133 2134 2135 2136 2160 2161 2162 2163 2164 2165 2166 2167 2191 2192 2193 2194 2195 2196 2197 2198 2222 2223 2224 2225 2226 2227 2228 2229 2253 2254 2255 2256 2257 2258 2259 2260 2284 2285 2286 2287 2288 2289 2290 2291 2315 2316 2317 2318 2319 2320 2321 2322 2346 2347 2348 2349 2350 2351 2352 2353 2377 2378 2379 2380 2381 2382 2383 2384 2408 2409 2410 2411 2412 2413 2414 2415 2439 2440 2441 2442 2443 2444 2445 2446 2470 2471 2472 2473 2474 2475 2476 2477 2501 2502 2503 2504 2505 2506 2507 2508 2532 2533 2534 2535 2536 2537 2538 2539 2563 2564 2565 2566 2567 2568 2569 2570 2594 2595 2596 2597 2598 2599 2600 2601 2625 2626 2627 2628 2629 2630 2631 2632 2656 2657 2658 2659 2660 2661 2662 2663 2687 2688 2689 2690 2691 2692 2693 2694 2718 2719 2720 2721 2722 2723 2724 2725 2748 2749 2750 2751 2752 2753 2754 2755 2777 2778 2779 2780 2781 2782 2783 2784 2805 2806 2807 2808 2809 2810 2811 2812 2832 2833 2834 2835 2836 2837 2838 2839 2858 2859 2860 2861 2862 2863 2864 2865 2882 2883 2884 2885 2886 2887 2888 2889 2905 2906 2907 2908 2909 2910 2911 2912 2926 2927 2928 2929 2930 2931 2932 2933 2944 2945 2946 2947 2948 2949 2950 2951 2959 2960 2961 2962 2963 2964 2965 2970 2971 2972 2973 2974 1053 1054 1055 1056 1057 1058 1059 1083 1084 1085 1086 1087 1088 1089 1090 1114 1115 1116 1117 1118 1119 1120 1121 1145 1146 1147 1148 1149 1150 1151 1152 1176 1177 1178 1179 1180 1181 1182 1183 1207 1208 1209 1210 1211 1212 1213 1214 1238 1239 1240 1241 1242 1243 1244 1245 1269 1270 1271 1272 1273 1274 1275 1276 1300 1301 1302 1303 1304 1305 1306 1307 1331 1332 1333 1334 1335 1336 1337 1338 1362 1363 1364 1365 1366 1367 1368 1369 1393 1394 1395 1396 1397 1398 1399 1400 1424 1425 1426 1427 1428 1429 1430 1431 1455 1456 1457 1458 1459 1460 1461 1462 1486 1487 1488 1489 1490 1491 1492 1493 1517 1518 1519 1520 1521 1522 1523 1524 1548 1549 1550 1551 1552 1553 1554 1555 1579 1580 1581 1582 1583 1584 1585 1586 1610 1611 1612 1613 1614 1615 1616 1617 1641 1642 1643 1644 1645 1646 1647 1648 1672 1673 1674 1675 1676 1677 1678 1679 1703 1704 1705 1706 1707 1708 1709 1710 1734 1735 1736 1737 1738 1739 1740 1741 1765 1766 1767 1768 1769 1770 1771 1772 1796 1797 1798 1799 1800 1801 1802 1803 1827 1828 1829 1830 1831 1832 1833 1834 1858 1859 1860 1861 1862 1863 1864 1865 1889 1890 1891 1892 1893 1894 1895 1896 1920 1921 1922 1923 1924 1925 1926 1927 1951 1952 1953 1954 1955 1956 1957 1958 1982 1983 1984 1985 1986 1987 1988 1989 2013 2014 2015 2016 2017 2018 2019 2020 2044 2045 2046 2047 2048 2049 2050 2051 2075 2076 2077 2078 2079 2080 2081 2082 2106 2107 2108 2109 2110 2111 2112 2113 2137 2138 2139 2140 2141 2142 2143 2144 2168 2169 2170 2171 2172 2173 2174 2175 2199 2200 2201 2202 2203 2204 2205 2206 2230 2231 2232 2233 2234 2235 2236 2237 2261 2262 2263 2264 2265 2266 2267 2268 2292 2293 2294 2295 2296 2297 2298 2299 2323 2324 2325 2326 2327 2328 2329 2330 2354 2355 2356 2357 2358 2359 2360 2361 2385 2386 2387 2388 2389 2390 2391 2392 2416 2417 2418 2419 2420 2421 2422 2423 2447 2448 2449 2450 2451 2452 2453 2454 2478 2479 2480 2481 2482 2483 2484 2485 2509 2510 2511 2512 2513 2514 2515 2516 2540 2541 2542 2543 2544 2545 2546 2547 2571 2572 2573 2574 2575 2576 2577 2578 2602 2603 2604 2605 2606 2607 2608 2609 2633 2634 2635 2636 2637 2638 2639 2640 2664 2665 2666 2667 2668 2669 2670 2671 2695 2696 2697 2698 2699 2700 2701 2702 2726 2727 2728 2729 2730 2731 2732 2733 2756 2757 2758 2759 2760 2761 2762 2785 2786 2787 2788 2789 2790 2791 2813 2814 2815 2816 2817 2818 2840 2841 2842 2843 2844 2845 2866 2867 2868 2869 2870 2890 2891 2892 2893 2913 2914 2915 2916 2934 2935 2952 
Rhop 1 2975 float
1000.0 1000.0 1000.0 1000.0 1000.0 1000.0 1000.0 1000.0 1000.0 1000.0 1000.0 1000.0 1000.0 1000.0 1000.0 1000.0 1000.0 1000.0 1000.0 1000.0 1000.0 1000.0 1000.0 1000.0 1000.0 1000.0 1000.0 1000.0 1000.0001 1000.0 1000.0001 1000.0002 1000.0001 1000.0002 1000.0004 1000.0001 1000.0003 1000.0005 1000.0002 1000.0004 1000.0007 1000.0002 1000.0005 1000.001 1000.0003 1000.0007 1000.0013 1000.0004 1000.001 1000.0016 1000.0006 1000.0014 1000.0023 1000.0008 1000.002 1000.0034 1000.0013 1000.0031 1000.0051 1000.0021 1000.0045 1000.0074 1000.0068 1000.0107 1000.0 1000.0 1000.0 1000.0 1000.0 1000.0 1000.0 1000.0 1000.0 1000.0 1000.0 1000.0 1000.0 1000.0 1000.0 1000.0 1000.0 1000.0 1000.0 1000.0 1000.0 1000.0 1000.0 1000.0 1000.0 1000.0 1000.0 1000.0 1000.0 1000.0 1000.0 1000.0 1000.0 1000.0 1000.0 1000.0 1000.0 1000.0 1000.0 1000.0 1000.0 1000.0 1000.0 1000.0 1000.0 1000.0 1000.0 1000.0 1000.0 1000.0 1000.0 1000.0 1000.0001 1000.0001 1000.0001 1000.0001 1000.0 1000.0001 1000.0001 1000.0002 1000.0002 1000.0003 1000.0003 1000.0004 1000.0001 1000.0002 1000.0003 1000.0004 1000.0005 1000.0007 1000.0007 1000.0007 1000.0002 1000.0004 1000.0005 1000.0007 1000.001 1000.001 1000.0012 1000.0012 1000.0004 1000.0007 1000.001 1000.0012 1000.0015 1000.0016 1000.0018 1000.0019 1000.0007 1000.001 1000.0012 1000.0009 1000.0013 1000.0011 1000.0017 1000.0015 1000.0021 1000.002 1000.0028 1000.0026 1000.0037 1000.0037 1000.005 1000.0052 1000.007 1000.0075 1000.0101 1000.011 1000.0145 1000.0156 1000.0202 1000.0 1000.0 1000.0 1000.0 1000.0 1000.0 1000.0 1000.0 1000.0 1000.0 1000.0 1000.0 1000.0 1000.0 1000.0 1000.0 1000.0 1000.0 1000.0 1000.0 1000.0 1000.0 1000.0 1000.0 1000.0 1000.0 1000.0 1000.0 1000.0 1000.0 1000.0 1000.0 1000.0 1000.0 1000.0 1000.0 1000.0 1000.0 1000.0 1000.0 1000.0 1000.0 1000.0 1000.0 1000.0 1000.0 1000.0 1000.0 1000.0 1000.0 1000.0 1000.0 1000.0 1000.0 1000.0001 1000.0001 1000.0001 1000.0001 1000.0002 1000.0002 1000.0002 1000.0002 1000.0002 1000.0004 1000.0004 1000.0004 1000.0004 1000.0004 1000.0004 1000.0004 1000.0005 1000.0005 1000.0007 1000.0008 1000.0009 1000.0009 1000.0009 1000.0009 1000.0009 1000.0009 1000.0009 1000.0013 1000.0015 1000.0015 1000.0015 1000.0016 1000.0016 1000.0016 1000.0016 1000.0016 1000.0021 1000.0021 1000.0021 1000.0021 1000.0023 1000.0023 1000.0023 1000.0023 1000.0023 1000.0 1000.0 1000.0 1000.0 1000.0 1000.0 1000.0 1000.0 1000.0 1000.0 1000.0 1000.0 1000.0 1000.0 1000.0 1000.0 1000.0 1000.0 1000.0 1000.0 1000.0 1000.0 1000.0 1000.0 1000.0 1000.0 1000.0 1000.0 1000.0 1000.0 1000.0 1000.0 1000.0 1000.0 1000.0 1000.0 1000.0 1000.0 1000.0 1000.0 1000.0 1000.0 1000.0 1000.0 1000.0 1000.0 1000.0 1000.0 1000.0002 1000.0002 1000.0002 1000.0002 1000.0002 1000.0002 1000.0001 1000.0001 1000.0005 1000.0005 1000.0005 1000.0004 1000.0004 1000.0004 1000.0004 1000.0004 1000.0009 1000.0009 1000.0009 1000.0009 1000.0009 1000.0009 1000.0009 1000.0009 1000.0016 1000.0016 1000.0016 1000.0016 1000.0016 1000.0016 1000.0015 1000.0015 1000.0023 1000.0023 1000.0023 1000.0023 1000.0023 1000.0023 1000.0021 1000.0021 1000.0 1000.0 1000.0 1000.0 1000.0 1000.0 1000.0 1000.0 1000.0 1000.0 1000.0 1000.0 1000.0 1000.0 1000.0 1000.0 1000.0 1000.0 1000.0 1000.0 1000.0 1000.0 1000.0 1000.0 1000.0 1000.0 1000.0 1000.0 1000.0 1000.0 1000.0 1000.0 1000.0 1000.0 1000.0 1000.0 1000.0 1000.0 1000.0 1000.0 1000.0 1000.0 1000.0 1000.0 1000.0 1000.0 1000.0 1000.0 1000.0 1000.0 1000.0 1000.0 1000.0 1000.0 1000.0001 1000.0001 1000.0001 1000.0001 1000.0001 1000.0001 1000.0 1000.0 1000.0 1000.0004 1000.0004 1000.0004 1000.0003 1000.0003 1000.0002 1000.0002 1000.0001 1000.0001 1000.0008 1000.0007 1000.0007 1000.0007 1000.0007 1000.0005 1000.0004 1000.0003 1000.0002 1000.0015 1000.0013 1000.0012 1000.0012 1000.001 1000.001 1000.0007 1000.0005 1000.0004 1000.0021 1000.0021 1000.0019 1000.0018 1000.0016 1000.0015 1000.0012 1000.001 1000.0007 1000.0012 1000.001 1000.0013 1000.0017 1000.0021 1000.0028 1000.0037 1000.005 1000.007 1000.0101 1000.0145 1000.0202 1000.0 1000.0 1000.0 1000.0 1000.0 1000.0 1000.0 1000.0 1000.0 1000.0 1000.0 1000.0 1000.0 1000.0 1000.0 1000.0 1000.0 1000.0 1000.0 1000.0 1000.0 1000.0 1000.0 1000.0 1000.0 1000.0 1000.0 1000.0 1000.0 1000.0 1000.0 1000.0001 1000.0 1000.0 1000.0 1000.0002 1000.0001 1000.0 1000.0 1000.0004 1000.0002 1000.0001 1000.0 1000.0007 1000.0004 1000.0002 1000.0001 1000.0009 1000.0005 1000.0003 1000.0001 1000.0011 1000.0007 1000.0004 1000.0002 1000.0015 1000.001 1000.0005 1000.0002 1000.002 1000.0013 1000.0007 1000.0003 1000.0026 1000.0016 1000.001 1000.0004 1000.0037 1000.0023 1000.0014 1000.0006 1000.0052 1000.0034 1000.002 1000.0008 1000.0075 1000.0051 1000.0031 1000.0013 1000.011 1000.0074 1000.0045 1000.0021 1000.0156 1000.0107 1000.0068 1000.0 1000.0 1000.0 1000.0 1000.0 1000.0 1000.0 1000.0 1000.0 1000.0 1000.0 1000.0 1000.0 1000.0 1000.0 1000.0 1000.0 1000.0 1000.0 1000.0 1000.0 1000.0 1000.0 1000.0 1000.0 1000.0 1000.0 1000.0 1000.0 1000.0 1000.0 1000.0 1000.0 1000.0 1000.0 1000.0 1000.0 1000.0 1000.0 1000.0 1000.0 1000.0 1000.0 1000.0 1000.0 1000.0 1000.0 1000.0 1000.0 1000.0 1000.0 1000.0 1000.0 1000.0 1000.0 1000.0 1000.0 1000.0 1000.0 1000.0 1000.0 1000.0 1000.0 1000.0 1000.0 1000.0 1000.0 1000.0 1000.0 1000.0 1000.0 1000.0 1000.0 1000.0 1000.0 1000.0 1000.0 1000.0 1000.0 1000.0 1000.0 1000.0 1000.0 1000.0 1000.0 1000.0 1000.0 1000.0 1000.0 1000.0 1000.0 1000.0 1000.0 1000.0 1000.0 1000.0 1000.0 1000.0 1000.0 1000.0 1000.0 1000.0 1000.0 1000.0 1000.0 1000.0 1000.0 1000.0 1000.0 1000.0 1000.0 1000.0 1000.0 1000.0 1000.0 1000.0 1000.0 1000.0 1000.0 1000.0 1000.0 1000.0 1000.0 1000.0 1000.0 1000.0 1000.0 1000.0 1000.0 1000.0 1000.0 1000.0 1000.0 1000.0 1000.0 1000.0 1000.0 1000.0 1000.0 1000.0 1000.0 1000.0 1000.0 1000.0 1000.0 1000.0 1000.0 1000.0 1000.0 1000.0 1000.0 1000.0 1000.0 1000.0 1000.0 1000.0 1000.0 1000.0 1000.0 1000.0 1000.0 1000.0 1000.0 1000.0 1000.0 1000.0 1000.0 1000.0 1000.0 1000.0 1000.0 1000.0 1000.0 1000.0 1000.0 1000.0 1000.0 1000.0 1000.0 1000.0 1000.0 1000.0 1000.0 1000.0 1000.0 1000.0 1000.0 1000.0 1000.0 1000.0 1000.0 1000.0 1000.0 1000.0 1000.0 1000.0 1000.0 1000.0 1000.0 1000.0 1000.0 1000.0 1000.0 1000.0 1000.0 1000.0 1000.0 1000.0 1000.0 1000.0 1000.0 1000.0 1000.0 1000.0 1000.0 1000.0 1000.0 1000.0 1000.0 1000.0 1000.0 1000.0 1000.0 1000.0 1000.0 1000.0 1000.0 1000.0 1000.0 1000.0 1000.0 1000.0 1000.0 1000.0 1000.0 1000.0 1000.0 1000.0 1000.0 1000.0 1000.0 1000.0 1000.0 1000.0 1000.0 1000.0 1000.0 1000.0 1000.0 1000.0 1000.0 1000.0 1000.0 1000.0 1000.0 1000.0 1000.0 1000.0 1000.0 1000.0 1000.0 1000.0 1000.0 1000.0 1000.0 1000.0 1000.0 1000.0 1000.0 1000.0 1000.0 1000.0 1000.0 1000.0 1000.0 1000.0 1000.0 1000.0 1000.0 1000.0 1000.0 1000.0 1000.0 1000.0 1000.0 1000.0 1000.0 1000.0 1000.0 1000.0 1000.0 1000.0 1000.0 1000.0 1000.0 1000.0 1000.0 1000.0 1000.0 1000.0 1000.0 1000.0 1000.0 1000.0 1000.0 1000.0 1000.0 1000.0 1000.0 1000.0 1000.0 1000.0 1000.0 1000.0 1000.0 1000.0 1000.0 1000.0 1000.0 1000.0 1000.0 1000.0 1000.0 1000.0 1000.0 1000.0 1000.0 1000.0 1000.0 1000.0 1000.0 1000.0 1000.0 1000.0 1000.0 1000.0 1000.0 1000.0 1000.0 1000.0 1000.0 1000.0 1000.0 1000.0 1000.0 1000.0 1000.0 1000.0 1000.0 1000.0 1000.0 1000.0 1000.0 1000.0 1000.0 1000.0 1000.0 1000.0 1000.0 1000.0 1000.0 1000.0 1000.0 1000.0 1000.0 1000.0 1000.0 1000.0 1000.0 1000.0 1000.0 1000.0 1000.0 1000.0 1000.0 1000.0 1000.0 1000.0 1000.0 1000.0 1000.0 1000.0 1000.0 1000.0 1000.0 1000.0 1000.0 1000.0 1000.0 1000.0 1000.0 1000.0 1000.0 1000.0 1000.0 1000.0 1000.0 1000.0 1000.0 1000.0 1000.0 1000.0 1000.0 1000.0 1000.0 1000.0 1000.0 1000.0 1000.0 1000.0 1000.0 1000.0 1000.0 1000.0 1000.0 1000.0 1000.0 1000.0 1000.0 1000.0 1000.0 1000.0 1000.0 1000.0 1000.0 1000.0 1000.0 1000.0 1000.0 1000.0 1000.0 1000.0 1000.0 1000.0 1000.0 1000.0 1000.0 1000.0 1000.0 1000.0 1000.0 1000.0 1000.0 1000.0 1000.0 1000.0 1000.0 1000.0 1000.0 1000.0 1000.0 1000.0 1000.0 1000.0 1000.0 1000.0 1000.0 1000.0 1000.0 1000.0 1000.0 1000.0 1000.0 1000.0 1000.0 1000.0 1000.0 1000.0 1000.0 1000.0 1000.0 1000.0 1000.0017 1000.002 1000.0023 1000.0025 1000.0026 1000.0018 1000.0023 1000.0026 1000.0029 1000.0032 1000.0033 1000.0023 1000.0028 1000.0033 1000.0037 1000.004 1000.0042 1000.0028 1000.0037 1000.0042 1000.0047 1000.0049 1000.0052 1000.0037 1000.0046 1000.0052 1000.0059 1000.0063 1000.0065 1000.0048 1000.0059 1000.0068 1000.0073 1000.0078 1000.0082 1000.0066 1000.0078 1000.0089 1000.0094 1000.0099 1000.0104 1000.0093 1000.0107 1000.0115 1000.0122 1000.0126 1000.0129 1000.0135 1000.015 1000.0154 1000.0158 1000.0161 1000.0164 1000.0198 1000.0204 1000.0204 1000.0203 1000.0203 1000.0204 1000.0275 1000.0273 1000.0264 1000.0255 1000.0252 1000.0255 1000.035 1000.0347 1000.033 1000.0318 1000.0313 1000.0314 1000.0401 1000.0413 1000.0398 1000.0388 1000.0384 1000.0385 1000.0448 1000.0477 1000.0473 1000.0467 1000.0468 1000.0472 1000.0516 1000.0554 1000.0565 1000.0565 1000.0571 1000.0577 1000.0623 1000.0663 1000.0679 1000.0685 1000.0693 1000.0701 1000.0771 1000.0809 1000.0825 1000.0834 1000.0845 1000.0856 1000.0958 1000.0992 1000.1008 1000.1017 1000.1029 1000.1041 1000.1177 1000.1212 1000.123 1000.124 1000.1252 1000.1265 1000.1442 1000.1481 1000.1501 1000.1512 1000.1524 1000.1534 1000.1763 1000.1812 1000.1835 1000.1843 1000.1852 1000.1859 1000.2158 1000.2217 1000.2244 1000.2245 1000.2245 1000.2244 1000.2637 1000.2714 1000.2743 1000.2729 1000.2714 1000.2697 1000.3223 1000.3325 1000.335 1000.3308 1000.3264 1000.3226 1000.3916 1000.4059 1000.4064 1000.397 1000.3885 1000.3816 1000.4708 1000.4901 1000.4858 1000.4683 1000.4542 1000.4433 1000.5604 1000.5853 1000.5713 1000.5419 1000.5212 1000.5067 1000.6609 1000.689 1000.6588 1000.6144 1000.5873 1000.57 1000.7874 1000.8143 1000.7609 1000.7003 1000.6686 1000.6522 1000.9977 1001.0163 1000.9382 1000.8635 1000.8312 1000.8206 1001.4579 1001.4613 1001.3705 1001.29 1001.2633 1001.2648 1002.5103 1002.4954 1002.4225 1002.361 1002.3472 1002.3669 1004.4699 1004.4345 1004.415 1004.4198 1004.4376 1004.482 1006.9119 1006.8367 1006.8759 1006.9879 1007.0601 1007.1358 1008.7437 1008.6153 1008.6798 1008.8762 1009.0024 1009.1085 1009.6028 1009.4254 1009.4626 1009.6947 1009.8511 1009.9784 1009.9083 1009.7049 1009.6844 1009.8981 1010.0569 1010.1907 1010.0448 1009.8281 1009.7654 1009.9376 1010.0753 1010.2043 1010.1687 1009.9464 1009.8546 1009.9919 1010.1093 1010.2302 1010.3085 1010.0837 1009.9786 1010.095 1010.1984 1010.3121 1010.4406 1010.2164 1010.1107 1010.2202 1010.3173 1010.4263 1010.5322 1010.3101 1010.2131 1010.3282 1010.4261 1010.5327 1010.4316 1010.2144 1010.1265 1010.2468 1010.3462 1010.452 1010.1448 1009.9352 1009.8566 1009.9781 1010.079 1010.1844 1009.7071 1009.5088 1009.4403 1009.5605 1009.6617 1009.7675 1009.1516 1008.9705 1008.9142 1009.0311 1009.1318 1009.2382 1008.5072 1008.348 1008.3055 1008.4183 1008.5187 1008.6246 1007.7943 1007.6592 1007.6315 1007.7416 1007.8412 1007.9467 1007.0334 1006.9236 1006.9099 1007.0182 1007.1181 1007.222 1006.2554 1006.1668 1006.1644 1006.2707 1006.3704 1006.4719 1005.496 1005.4224 1005.4241 1005.5265 1005.6239 1005.7222 1004.7855 1004.7204 1004.7188 1004.814 1004.9067 1005.0005 1004.1157 1004.0723 1004.0725 1004.1577 1004.2432 1004.3297 1003.4706 1003.4805 1003.496 1003.5746 1003.6515 1003.7272 1002.8933 1002.9622 1002.9988 1003.073 1003.1401 1003.202 1002.5323 1002.5844 1002.6494 1002.7086 1002.7563 1002.1776 1002.237 1002.2929 1002.3494 1002.3873 1001.9386 1001.9885 1002.0458 1002.0866 1001.6821 1001.7192 1001.7794 1001.8347 1001.4902 1001.5382 1001.6072 1001.333 1001.3924 1001.204 1001.2121 1000.0028 1000.0029 1000.0029 1000.003 1000.0031 1000.0031 1000.0031 1000.0031 1000.0031 1000.0035 1000.0037 1000.0037 1000.0038 1000.0039 1000.004 1000.004 1000.004 1000.004 1000.0043 1000.0044 1000.0046 1000.0047 1000.0048 1000.0048 1000.0048 1000.0048 1000.0048 1000.0054 1000.0056 1000.0056 1000.0057 1000.0059 1000.0059 1000.0059 1000.0059 1000.0059 1000.0067 1000.007 1000.007 1000.007 1000.007 1000.0071 1000.0071 1000.0071 1000.0071 1000.0084 1000.0085 1000.0087 1000.0087 1000.0089 1000.0089 1000.0089 1000.0089 1000.0089 1000.0105 1000.0107 1000.0109 1000.0109 1000.0109 1000.0109 1000.0109 1000.0109 1000.0109 1000.0132 1000.0134 1000.0134 1000.0135 1000.0135 1000.0135 1000.0136 1000.0136 1000.0135 1000.0165 1000.0168 1000.0169 1000.0169 1000.0169 1000.0168 1000.0168 1000.0168 1000.0168 1000.0206 1000.0208 1000.0209 1000.0209 1000.0208 1000.0208 1000.0208 1000.0207 1000.0207 1000.0256 1000.0258 1000.0259 1000.0259 1000.0258 1000.0257 1000.0257 1000.0256 1000.0256 1000.0317 1000.0318 1000.0318 1000.0317 1000.0316 1000.0315 1000.0315 1000.0314 1000.0314 1000.0389 1000.0391 1000.0391 1000.0389 1000.0388 1000.0388 1000.0387 1000.0386 1000.0385 1000.0477 1000.048 1000.048 1000.048 1000.0477 1000.0475 1000.0474 1000.0473 1000.0472 1000.0583 1000.0587 1000.0587 1000.0585 1000.0582 1000.0578 1000.0577 1000.0576 1000.0574 1000.071 1000.0713 1000.0714 1000.0712 1000.071 1000.0706 1000.0703 1000.0699 1000.0699 1000.0864 1000.0868 1000.0869 1000.0865 1000.0859 1000.0855 1000.0851 1000.0847 1000.0845 1000.105 1000.1055 1000.1053 1000.1049 1000.104 1000.1035 1000.1028 1000.1022 1000.102 1000.1274 1000.1276 1000.1273 1000.1263 1000.1252 1000.1244 1000.1234 1000.1229 1000.1225 1000.1542 1000.1541 1000.1534 1000.1519 1000.1505 1000.1489 1000.1478 1000.147 1000.1464 1000.1863 1000.1855 1000.184 1000.1819 1000.1796 1000.1777 1000.1761 1000.1748 1000.1743 1000.224 1000.2224 1000.2198 1000.2167 1000.2136 1000.2109 1000.2087 1000.2072 1000.2062 1000.2677 1000.2648 1000.2607 1000.2565 1000.2523 1000.2489 1000.2462 1000.2443 1000.2429 1000.3187 1000.3138 1000.308 1000.3019 1000.2966 1000.2922 1000.2889 1000.2865 1000.2852 1000.3747 1000.3676 1000.3595 1000.3516 1000.345 1000.3397 1000.3359 1000.3333 1000.3317 1000.4333 1000.4232 1000.4128 1000.4032 1000.3953 1000.3893 1000.3853 1000.3824 1000.3812 1000.4938 1000.4811 1000.4684 1000.4572 1000.4485 1000.4421 1000.4381 1000.4357 1000.4346 1000.556 1000.5422 1000.5284 1000.5164 1000.5074 1000.5016 1000.4983 1000.4965 1000.4957 1000.6401 1000.6281 1000.6156 1000.6045 1000.5968 1000.5923 1000.5907 1000.5903 1000.5906 1000.8162 1000.811 1000.804 1000.7971 1000.7926 1000.7913 1000.7926 1000.7947 1000.7964 1001.2745 1001.283 1001.287 1001.2885 1001.2909 1001.2951 1001.3012 1001.3071 1001.3113 1002.398 1002.427 1002.449 1002.4645 1002.4774 1002.4906 1002.5039 1002.5153 1002.5231 1004.5402 1004.5964 1004.6419 1004.6765 1004.705 1004.7302 1004.7531 1004.7722 1004.7847 1007.2239 1007.3102 1007.3831 1007.4405 1007.4871 1007.5276 1007.5631 1007.5915 1007.6099 1009.2242 1009.3391 1009.4391 1009.5204 1009.5873 1009.6443 1009.6933 1009.7321 1009.7569 1010.1151 1010.2535 1010.3772 1010.4802 1010.566 1010.6392 1010.7017 1010.7507 1010.7823 1010.3395 1010.4939 1010.6354 1010.7557 1010.8571 1010.9442 1011.0182 1011.0762 1011.1133 1010.3565 1010.5193 1010.6714 1010.8028 1010.9149 1011.0117 1011.0944 1011.1589 1011.2003 1010.381 1010.5459 1010.7021 1010.8387 1010.9563 1011.0587 1011.1464 1011.2151 1011.2592 1010.4593 1010.6224 1010.778 1010.9149 1011.0338 1011.1381 1011.2277 1011.2982 1011.3434 1010.5694 1010.7287 1010.881 1011.0156 1011.1327 1011.2362 1011.3255 1011.3959 1011.4412 1010.6724 1010.8273 1010.9753 1011.1057 1011.2197 1011.3207 1011.4083 1011.4775 1011.5219 1010.5887 1010.7396 1010.8826 1011.0083 1011.1182 1011.2158 1011.3007 1011.3678 1011.4111 1010.3186 1010.465 1010.6028 1010.7238 1010.8289 1010.9224 1011.0037 1011.0682 1011.1097 1009.8992 1010.0409 1010.1729 1010.2877 1010.3873 1010.4758 1010.553 1010.6141 1010.6534 1009.3669 1009.5029 1009.6279 1009.7351 1009.8282 1009.9106 1009.9826 1010.0397 1010.0764 1008.7499 1008.8785 1008.9943 1009.0925 1009.1775 1009.2524 1009.3181 1009.37 1009.4036 1008.0667 1008.1863 1008.2916 1008.3797 1008.4549 1008.5217 1008.5799 1008.6264 1008.6562 1007.3358 1007.4458 1007.5402 1007.6174 1007.683 1007.741 1007.7915 1007.8322 1007.8582 1006.5798 1006.6805 1006.7649 1006.8324 1006.8885 1006.9385 1006.9822 1007.0168 1007.0393 1005.8249 1005.9183 1005.9946 1006.0542 1006.1033 1006.1459 1006.1832 1006.2128 1006.2319 1005.0975 1005.1859 1005.2568 1005.3115 1005.3552 1005.3925 1005.4246 1005.4496 1005.4661 1004.42 1004.5042 1004.573 1004.6256 1004.6664 1004.6998 1004.7277 1004.7495 1004.7632 1003.8082 1003.8879 1003.9565 1004.01 1004.0507 1004.0823 1004.1074 1004.1263 1004.1381 1003.2705 1003.3438 1003.4124 1003.4689 1003.5121 1003.5441 1003.5681 1003.5852 1003.5956 1002.8093 1002.8726 1002.9391 1002.9993 1003.047 1003.0824 1003.1074 1003.1242 1003.1339 1002.4243 1002.4742 1002.5344 1002.5953 1002.6481 1002.6888 1002.7174 1002.7361 1002.7465 1002.1124 1002.1466 1002.1954 1002.2516 1002.3058 1002.3513 1002.3849 1002.4073 1002.4199 1001.8654 1001.8876 1001.9208 1001.9658 1002.0151 1002.0605 1002.0973 1002.1233 1002.1386 1001.659 1001.6871 1001.7081 1001.737 1001.7739 1001.8126 1001.847 1001.8734 1001.8901 1001.4626 1001.5145 1001.5439 1001.5627 1001.5831 1001.6082 1001.6342 1001.6562 1001.6711 1001.2703 1001.3334 1001.387 1001.4207 1001.4383 1001.4506 1001.4638 1001.4769 1001.4869 1001.1451 1001.1721 1001.2131 1001.2573 1001.2952 1001.3198 1001.3334 1001.3414 1001.3467 1001.1109 1001.0998 1001.1047 1001.1247 1001.15 1001.1713 1001.1853 1001.1929 1001.0717 1001.0435 1001.0331 1001.0235 1001.018 1001.0153 1001.0784 1001.0563 1001.0317 1001.0153 1000.0031 1000.0031 1000.0031 1000.0031 1000.0031 1000.0031 1000.003 1000.0029 1000.004 1000.004 1000.004 1000.004 1000.004 1000.0039 1000.0038 1000.0037 1000.0048 1000.0048 1000.0048 1000.0048 1000.0048 1000.0048 1000.0047 1000.0046 1000.0059 1000.0059 1000.0059 1000.0059 1000.0059 1000.0059 1000.0057 1000.0056 1000.0071 1000.0071 1000.0071 1000.0071 1000.0071 1000.007 1000.007 1000.007 1000.0089 1000.0089 1000.0089 1000.0089 1000.0089 1000.0089 1000.0087 1000.0087 1000.0109 1000.0109 1000.0109 1000.0109 1000.0109 1000.0109 1000.0109 1000.0109 1000.0135 1000.0135 1000.0136 1000.0136 1000.0135 1000.0135 1000.0135 1000.0134 1000.0168 1000.0168 1000.0168 1000.0168 1000.0168 1000.0169 1000.0169 1000.0169 1000.0206 1000.0207 1000.0207 1000.0208 1000.0208 1000.0208 1000.0209 1000.0209 1000.0256 1000.0256 1000.0256 1000.0257 1000.0257 1000.0258 1000.0259 1000.0259 1000.0314 1000.0314 1000.0314 1000.0315 1000.0315 1000.0316 1000.0317 1000.0318 1000.0385 1000.0385 1000.0386 1000.0387 1000.0388 1000.0388 1000.0389 1000.0391 1000.0472 1000.0472 1000.0473 1000.0474 1000.0475 1000.0477 1000.048 1000.048 1000.0574 1000.0574 1000.0576 1000.0577 1000.0578 1000.0582 1000.0585 1000.0587 1000.0698 1000.0699 1000.0699 1000.0703 1000.0706 1000.071 1000.0712 1000.0714 1000.0845 1000.0845 1000.0847 1000.0851 1000.0855 1000.0859 1000.0865 1000.0869 1000.1019 1000.102 1000.1022 1000.1028 1000.1035 1000.104 1000.1049 1000.1053 1000.1223 1000.1225 1000.1229 1000.1234 1000.1244 1000.1252 1000.1263 1000.1273 1000.1461 1000.1464 1000.147 1000.1478 1000.1489 1000.1505 1000.1519 1000.1534 1000.174 1000.1743 1000.1748 1000.1761 1000.1777 1000.1796 1000.1819 1000.184 1000.2059 1000.2062 1000.2072 1000.2087 1000.2109 1000.2136 1000.2167 1000.2198 1000.2426 1000.2429 1000.2443 1000.2462 1000.2489 1000.2523 1000.2565 1000.2607 1000.2847 1000.2852 1000.2865 1000.2889 1000.2922 1000.2966 1000.3019 1000.308 1000.3312 1000.3317 1000.3333 1000.3359 1000.3397 1000.345 1000.3516 1000.3595 1000.3807 1000.3812 1000.3824 1000.3853 1000.3893 1000.3953 1000.4032 1000.4128 1000.4341 1000.4346 1000.4357 1000.4381 1000.4421 1000.4485 1000.4572 1000.4684 1000.4955 1000.4957 1000.4965 1000.4983 1000.5016 1000.5074 1000.5164 1000.5284 1000.5906 1000.5906 1000.5903 1000.5907 1000.5923 1000.5968 1000.6045 1000.6156 1000.7971 1000.7964 1000.7947 1000.7926 1000.7913 1000.7926 1000.7971 1000.804 1001.3128 1001.3113 1001.3071 1001.3012 1001.2951 1001.2909 1001.2885 1001.287 1002.5258 1002.5231 1002.5153 1002.5039 1002.4906 1002.4774 1002.4645 1002.449 1004.7891 1004.7847 1004.7722 1004.7531 1004.7302 1004.705 1004.6765 1004.6419 1007.6163 1007.6099 1007.5915 1007.5631 1007.5276 1007.4871 1007.4405 1007.3831 1009.7657 1009.7569 1009.7321 1009.6933 1009.6443 1009.5873 1009.5204 1009.4391 1010.7931 1010.7823 1010.7507 1010.7017 1010.6392 1010.566 1010.4802 1010.3772 1011.126 1011.1133 1011.0762 1011.0182 1010.9442 1010.8571 1010.7557 1010.6354 1011.2147 1011.2003 1011.1589 1011.0944 1011.0117 1010.9149 1010.8028 1010.6714 1011.2743 1011.2592 1011.2151 1011.1464 1011.0587 1010.9563 1010.8387 1010.7021 1011.3588 1011.3434 1011.2982 1011.2277 1011.1381 1011.0338 1010.9149 1010.778 1011.4569 1011.4412 1011.3959 1011.3255 1011.2362 1011.1327 1011.0156 1010.881 1011.5374 1011.5219 1011.4775 1011.4083 1011.3207 1011.2197 1011.1057 1010.9753 1011.426 1011.4111 1011.3678 1011.3007 1011.2158 1011.1182 1011.0083 1010.8826 1011.1242 1011.1097 1011.0682 1011.0037 1010.9224 1010.8289 1010.7238 1010.6028 1010.6672 1010.6534 1010.6141 1010.553 1010.4758 1010.3873 1010.2877 1010.1729 1010.089 1010.0764 1010.0397 1009.9826 1009.9106 1009.8282 1009.7351 1009.6279 1009.4153 1009.4036 1009.37 1009.3181 1009.2524 1009.1775 1009.0925 1008.9943 1008.6666 1008.6562 1008.6264 1008.5799 1008.5217 1008.4549 1008.3797 1008.2916 1007.8672 1007.8582 1007.8322 1007.7915 1007.741 1007.683 1007.6174 1007.5402 1007.0472 1007.0393 1007.0168 1006.9822 1006.9385 1006.8885 1006.8324 1006.7649 1006.2385 1006.2319 1006.2128 1006.1832 1006.1459 1006.1033 1006.0542 1005.9946 1005.4717 1005.4661 1005.4496 1005.4246 1005.3925 1005.3552 1005.3115 1005.2568 1004.7679 1004.7632 1004.7495 1004.7277 1004.6998 1004.6664 1004.6256 1004.573 1004.1422 1004.1381 1004.1263 1004.1074 1004.0823 1004.0507 1004.01 1003.9565 1003.5991 1003.5956 1003.5852 1003.5681 1003.5441 1003.5121 1003.4689 1003.4124 1003.1371 1003.1339 1003.1242 1003.1074 1003.0824 1003.047 1002.9993 1002.9391 1002.7499 1002.7465 1002.7361 1002.7174 1002.6888 1002.6481 1002.5953 1002.5344 1002.4241 1002.4199 1002.4073 1002.3849 1002.3513 1002.3058 1002.2516 1002.1954 1002.1437 1002.1386 1002.1233 1002.0973 1002.0605 1002.0151 1001.9658 1001.9208 1001.8956 1001.8901 1001.8734 1001.847 1001.8126 1001.7739 1001.737 1001.7081 1001.6763 1001.6711 1001.6562 1001.6342 1001.6082 1001.5831 1001.5627 1001.5439 1001.4906 1001.4869 1001.4769 1001.4638 1001.4506 1001.4383 1001.4207 1001.387 1001.3487 1001.3467 1001.3414 1001.3334 1001.3198 1001.2952 1001.2573 1001.2131 1001.1956 1001.1929 1001.1853 1001.1713 1001.15 1001.1247 1001.1047 1001.0998 1001.0144 1001.0153 1001.018 1001.0235 1001.0331 1001.0435 1001.0717 1001.0098 1001.0153 1001.0317 1001.0563 1001.0784 1000.0029 1000.0028 1000.0026 1000.0025 1000.0023 1000.002 1000.0017 1000.0037 1000.0035 1000.0033 1000.0032 1000.0029 1000.0026 1000.0023 1000.0018 1000.0044 1000.0043 1000.0042 1000.004 1000.0037 1000.0033 1000.0028 1000.0023 1000.0056 1000.0054 1000.0052 1000.0049 1000.0047 1000.0042 1000.0037 1000.0028 1000.007 1000.0067 1000.0065 1000.0063 1000.0059 1000.0052 1000.0046 1000.0037 1000.0085 1000.0084 1000.0082 1000.0078 1000.0073 1000.0068 1000.0059 1000.0048 1000.0107 1000.0105 1000.0104 1000.0099 1000.0094 1000.0089 1000.0078 1000.0066 1000.0134 1000.0132 1000.0129 1000.0126 1000.0122 1000.0115 1000.0107 1000.0093 1000.0168 1000.0165 1000.0164 1000.0161 1000.0158 1000.0154 1000.015 1000.0135 1000.0208 1000.0206 1000.0204 1000.0203 1000.0203 1000.0204 1000.0204 1000.0198 1000.0258 1000.0256 1000.0255 1000.0252 1000.0255 1000.0264 1000.0273 1000.0275 1000.0318 1000.0317 1000.0314 1000.0313 1000.0318 1000.033 1000.0347 1000.035 1000.0391 1000.0389 1000.0385 1000.0384 1000.0388 1000.0398 1000.0413 1000.0401 1000.048 1000.0477 1000.0472 1000.0468 1000.0467 1000.0473 1000.0477 1000.0448 1000.0587 1000.0583 1000.0577 1000.0571 1000.0565 1000.0565 1000.0554 1000.0516 1000.0713 1000.071 1000.0701 1000.0693 1000.0685 1000.0679 1000.0663 1000.0623 1000.0868 1000.0864 1000.0856 1000.0845 1000.0834 1000.0825 1000.0809 1000.0771 1000.1055 1000.105 1000.1041 1000.1029 1000.1017 1000.1008 1000.0992 1000.0958 1000.1276 1000.1274 1000.1265 1000.1252 1000.124 1000.123 1000.1212 1000.1177 1000.1541 1000.1542 1000.1534 1000.1524 1000.1512 1000.1501 1000.1481 1000.1442 1000.1855 1000.1863 1000.1859 1000.1852 1000.1843 1000.1835 1000.1812 1000.1763 1000.2224 1000.224 1000.2244 1000.2245 1000.2245 1000.2244 1000.2217 1000.2158 1000.2648 1000.2677 1000.2697 1000.2714 1000.2729 1000.2743 1000.2714 1000.2637 1000.3138 1000.3187 1000.3226 1000.3264 1000.3308 1000.335 1000.3325 1000.3223 1000.3676 1000.3747 1000.3816 1000.3885 1000.397 1000.4064 1000.4059 1000.3916 1000.4232 1000.4333 1000.4433 1000.4542 1000.4683 1000.4858 1000.4901 1000.4708 1000.4811 1000.4938 1000.5067 1000.5212 1000.5419 1000.5713 1000.5853 1000.5604 1000.5422 1000.556 1000.57 1000.5873 1000.6144 1000.6588 1000.689 1000.6609 1000.6281 1000.6401 1000.6522 1000.6686 1000.7003 1000.7609 1000.8143 1000.7874 1000.811 1000.8162 1000.8206 1000.8312 1000.8635 1000.9382 1001.0163 1000.9977 1001.283 1001.2745 1001.2648 1001.2633 1001.29 1001.3705 1001.4613 1001.4579 1002.427 1002.398 1002.3669 1002.3472 1002.361 1002.4225 1002.4954 1002.5103 1004.5964 1004.5402 1004.482 1004.4376 1004.4198 1004.415 1004.4345 1004.4699 1007.3102 1007.2239 1007.1358 1007.0601 1006.9879 1006.8759 1006.8367 1006.9119 1009.3391 1009.2242 1009.1085 1009.0024 1008.8762 1008.6798 1008.6153 1008.7437 1010.2535 1010.1151 1009.9784 1009.8511 1009.6947 1009.4626 1009.4254 1009.6028 1010.4939 1010.3395 1010.1907 1010.0569 1009.8981 1009.6844 1009.7049 1009.9083 1010.5193 1010.3565 1010.2043 1010.0753 1009.9376 1009.7654 1009.8281 1010.0448 1010.5459 1010.381 1010.2302 1010.1093 1009.9919 1009.8546 1009.9464 1010.1687 1010.6224 1010.4593 1010.3121 1010.1984 1010.095 1009.9786 1010.0837 1010.3085 1010.7287 1010.5694 1010.4263 1010.3173 1010.2202 1010.1107 1010.2164 1010.4406 1010.8273 1010.6724 1010.5327 1010.4261 1010.3282 1010.2131 1010.3101 1010.5322 1010.7396 1010.5887 1010.452 1010.3462 1010.2468 1010.1265 1010.2144 1010.4316 1010.465 1010.3186 1010.1843 1010.079 1009.9781 1009.8566 1009.9352 1010.1448 1010.0409 1009.8992 1009.7675 1009.6617 1009.5605 1009.4403 1009.5088 1009.7071 1009.5029 1009.3669 1009.2382 1009.1318 1009.0311 1008.9142 1008.9705 1009.1516 1008.8785 1008.7499 1008.6246 1008.5187 1008.4183 1008.3055 1008.348 1008.5072 1008.1863 1008.0667 1007.9467 1007.8412 1007.7416 1007.6315 1007.6592 1007.7943 1007.4458 1007.3358 1007.222 1007.1181 1007.0182 1006.9099 1006.9236 1007.0334 1006.6805 1006.5798 1006.4719 1006.3704 1006.2707 1006.1644 1006.1668 1006.2554 1005.9183 1005.8249 1005.7222 1005.6239 1005.5265 1005.4241 1005.4224 1005.496 1005.1859 1005.0975 1005.0005 1004.9067 1004.814 1004.7188 1004.7204 1004.7855 1004.5042 1004.42 1004.3297 1004.2432 1004.1577 1004.0725 1004.0723 1004.1157 1003.8879 1003.8082 1003.7272 1003.6515 1003.5746 1003.496 1003.4805 1003.4706 1003.3438 1003.2705 1003.202 1003.1401 1003.073 1002.9988 1002.9622 1002.8933 1002.8726 1002.8093 1002.7563 1002.7086 1002.6494 1002.5844 1002.5323 1002.4742 1002.4243 1002.3873 1002.3494 1002.2929 1002.237 1002.1776 1002.1466 1002.1124 1002.0866 1002.0458 1001.9885 1001.9386 1001.8876 1001.8654 1001.8347 1001.7794 1001.7192 1001.6821 1001.6871 1001.659 1001.6072 1001.5382 1001.4902 1001.5145 1001.4626 1001.3924 1001.333 1001.3334 1001.2703 1001.2121 1001.204 1001.1721 1001.1451 1001.1109 
Mass 1 2975 float
0.40000001 0.40000001 0.40000001 0.40000001 0.40000001 0.40000001 0.40000001 0.40000001 0.40000001 0.40000001 0.40000001 0.40000001 0.40000001 0.40000001 0.40000001 0.40000001 0.40000001 0.40000001 0.40000001 0.40000001 0.40000001 0.40000001 0.40000001 0.40000001 0.40000001 0.40000001 0.40000001 0.40000001 0.40000001 0.40000001 0.40000001 0.40000001 0.40000001 0.40000001 0.40000001 0.40000001 0.40000001 0.40000001 0.40000001 0.40000001 0.40000001 0.40000001 0.40000001 0.40000001 0.40000001 0.40000001 0.40000001 0.40000001 0.40000001 0.40000001 0.40000001 0.40000001 0.40000001 0.40000001 0.40000001 0.40000001 0.40000001 0.40000001 0.40000001 0.40000001 0.40000001 0.40000001 0.40000001 0.40000001 0.40000001 0.40000001 0.40000001 0.40000001 0.40000001 0.40000001 0.40000001 0.40000001 0.40000001 0.40000001 0.40000001 0.40000001 0.40000001 0.40000001 0.40000001 0.40000001 0.40000001 0.40000001 0.40000001 0.40000001 0.40000001 0.40000001 0.40000001 0.40000001 0.40000001 0.40000001 0.40000001 0.40000001 0.40000001 0.40000001 0.40000001 0.40000001 0.40000001 0.40000001 0.40000001 0.40000001 0.40000001 0.40000001 0.40000001 0.40000001 0.40000001 0.40000001 0.40000001 0.40000001 0.40000001 0.40000001 0.40000001 0.40000001 0.40000001 0.40000001 0.40000001 0.40000001 0.40000001 0.40000001 0.40000001 0.40000001 0.40000001 0.40000001 0.40000001 0.40000001 0.40000001 0.40000001 0.40000001 0.40000001 0.40000001 0.40000001 0.40000001 0.40000001 0.40000001 0.40000001 0.40000001 0.40000001 0.40000001 0.40000001 0.40000001 0.40000001 0.40000001 0.40000001 0.40000001 0.40000001 0.40000001 0.40000001 0.40000001 0.40000001 0.40000001 0.40000001 0.40000001 0.40000001 0.40000001 0.40000001 0.40000001 0.40000001 0.40000001 0.40000001 0.40000001 0.40000001 0.40000001 0.40000001 0.40000001 0.40000001 0.40000001 0.40000001 0.40000001 0.40000001 0.40000001 0.40000001 0.40000001 0.40000001 0.40000001 0.40000001 0.40000001 0.40000001 0.40000001 0.40000001 0.40000001 0.40000001 0.40000001 0.40000001 0.40000001 0.40000001 0.40000001 0.40000001 0.40000001 0.40000001 0.40000001 0.40000001 0.40000001 0.40000001 0.40000001 0.40000001 0.40000001 0.40000001 0.40000001 0.40000001 0.40000001 0.40000001 0.40000001 0.40000001 0.40000001 0.40000001 0.40000001 0.40000001 0.40000001 0.40000001 0.40000001 0.40000001 0.40000001 0.40000001 0.40000001 0.40000001 0.40000001 0.40000001 0.40000001 0.40000001 0.40000001 0.40000001 0.40000001 0.40000001 0.40000001 0.40000001 0.40000001 0.40000001 0.40000001 0.40000001 0.40000001 0.40000001 0.40000001 0.40000001 0.40000001 0.40000001 0.40000001 0.40000001 0.40000001 0.40000001 0.40000001 0.40000001 0.40000001 0.40000001 0.40000001 0.40000001 0.40000001 0.40000001 0.40000001 0.40000001 0.40000001 0.40000001 0.40000001 0.40000001 0.40000001 0.40000001 0.40000001 0.40000001 0.40000001 0.40000001 0.40000001 0.40000001 0.40000001 0.40000001 0.40000001 0.40000001 0.40000001 0.40000001 0.40000001 0.40000001 0.40000001 0.40000001 0.40000001 0.40000001 0.40000001 0.40000001 0.40000001 0.40000001 0.40000001 0.40000001 0.40000001 0.40000001 0.40000001 0.40000001 0.40000001 0.40000001 0.40000001 0.40000001 0.40000001 0.40000001 0.40000001 0.40000001 0.40000001 0.40000001 0.40000001 0.40000001 0.40000001 0.40000001 0.40000001 0.40000001 0.40000001 0.40000001 0.40000001 0.40000001 0.40000001 0.40000001 0.40000001 0.40000001 0.40000001 0.40000001 0.40000001 0.40000001 0.40000001 0.40000001 0.40000001 0.40000001 0.40000001 0.40000001 0.40000001 0.40000001 0.40000001 0.40000001 0.40000001 0.40000001 0.40000001 0.40000001 0.40000001 0.40000001 0.40000001 0.40000001 0.40000001 0.40000001 0.40000001 0.40000001 0.40000001 0.40000001 0.40000001 0.40000001 0.40000001 0.40000001 0.40000001 0.40000001 0.40000001 0.40000001 0.40000001 0.40000001 0.40000001 0.40000001 0.40000001 0.40000001 0.40000001 0.40000001 0.40000001 0.40000001 0.40000001 0.40000001 0.40000001 0.40000001 0.40000001 0.40000001 0.40000001 0.40000001 0.40000001 0.40000001 0.40000001 0.40000001 0.40000001 0.40000001 0.40000001 0.40000001 0.40000001 0.40000001 0.40000001 0.40000001 0.40000001 0.40000001 0.40000001 0.40000001 0.40000001 0.40000001 0.40000001 0.40000001 0.40000001 0.40000001 0.40000001 0.40000001 0.40000001 0.40000001 0.40000001 0.40000001 0.40000001 0.40000001 0.40000001 0.40000001 0.40000001 0.40000001 0.40000001 0.40000001 0.40000001 0.40000001 0.40000001 0.40000001 0.40000001 0.40000001 0.40000001 0.40000001 0.40000001 0.40000001 0.40000001 0.40000001 0.40000001 0.40000001 0.40000001 0.40000001 0.40000001 0.40000001 0.40000001 0.40000001 0.40000001 0.40000001 0.40000001 0.40000001 0.40000001 0.40000001 0.40000001 0.40000001 0.40000001 0.40000001 0.40000001 0.40000001 0.40000001 0.40000001 0.40000001 0.40000001 0.40000001 0.40000001 0.40000001 0.40000001 0.40000001 0.40000001 0.40000001 0.40000001 0.40000001 0.40000001 0.40000001 0.40000001 0.40000001 0.40000001 0.40000001 0.40000001 0.40000001 0.40000001 0.40000001 0.40000001 0.40000001 0.40000001 0.40000001 0.40000001 0.40000001 0.40000001 0.40000001 0.40000001 0.40000001 0.40000001 0.40000001 0.40000001 0.40000001 0.40000001 0.40000001 0.40000001 0.40000001 0.40000001 0.40000001 0.40000001 0.40000001 0.40000001 0.40000001 0.40000001 0.40000001 0.40000001 0.40000001 0.40000001 0.40000001 0.40000001 0.40000001 0.40000001 0.40000001 0.40000001 0.40000001 0.40000001 0.40000001 0.40000001 0.40000001 0.40000001 0.40000001 0.40000001 0.40000001 0.40000001 0.40000001 0.40000001 0.40000001 0.40000001 0.40000001 0.40000001 0.40000001 0.40000001 0.40000001 0.40000001 0.40000001 0.40000001 0.40000001 0.40000001 0.40000001 0.40000001 0.40000001 0.40000001 0.40000001 0.40000001 0.40000001 0.40000001 0.40000001 0.40000001 0.40000001 0.40000001 0.40000001 0.40000001 0.40000001 0.40000001 0.40000001 0.40000001 0.40000001 0.40000001 0.40000001 0.40000001 0.40000001 0.40000001 0.40000001 0.40000001 0.40000001 0.40000001 0.40000001 0.40000001 0.40000001 0.40000001 0.40000001 0.40000001 0.40000001 0.40000001 0.40000001 0.40000001 0.40000001 0.40000001 0.40000001 0.40000001 0.40000001 0.40000001 0.40000001 0.40000001 0.40000001 0.40000001 0.40000001 0.40000001 0.40000001 0.40000001 0.40000001 0.40000001 0.40000001 0.40000001 0.40000001 0.40000001 0.40000001 0.40000001 0.40000001 0.40000001 0.40000001 0.40000001 0.40000001 0.40000001 0.40000001 0.40000001 0.40000001 0.40000001 0.40000001 0.40000001 0.40000001 0.40000001 0.40000001 0.40000001 0.40000001 0.40000001 0.40000001 0.40000001 0.40000001 0.40000001 0.40000001 0.40000001 0.40000001 0.40000001 0.40000001 0.40000001 0.40000001 0.40000001 0.40000001 0.40000001 0.40000001 0.40000001 0.40000001 0.40000001 0.40000001 0.40000001 0.40000001 0.40000001 0.40000001 0.40000001 0.40000001 0.40000001 0.40000001 0.40000001 0.40000001 0.40000001 0.40000001 0.40000001 0.40000001 0.40000001 0.40000001 0.40000001 0.40000001 0.40000001 0.40000001 0.40000001 0.40000001 0.40000001 0.40000001 0.40000001 0.40000001 0.40000001 0.40000001 0.40000001 0.40000001 0.40000001 0.40000001 0.40000001 0.40000001 0.40000001 0.40000001 0.40000001 0.40000001 0.40000001 0.40000001 0.40000001 0.40000001 0.40000001 0.40000001 0.40000001 0.40000001 0.40000001 0.40000001 0.40000001 0.40000001 0.40000001 0.40000001 0.40000001 0.40000001 0.40000001 0.40000001 0.40000001 0.40000001 0.40000001 0.40000001 0.40000001 0.40000001 0.40000001 0.40000001 0.40000001 0.40000001 0.40000001 0.40000001 0.40000001 0.40000001 0.40000001 0.40000001 0.40000001 0.40000001 0.40000001 0.40000001 0.40000001 0.40000001 0.40000001 0.40000001 0.40000001 0.40000001 0.40000001 0.40000001 0.40000001 0.40000001 0.40000001 0.40000001 0.40000001 0.40000001 0.40000001 0.40000001 0.40000001 0.40000001 0.40000001 0.40000001 0.40000001 0.40000001 0.40000001 0.40000001 0.40000001 0.40000001 0.40000001 0.40000001 0.40000001 0.40000001 0.40000001 0.40000001 0.40000001 0.40000001 0.40000001 0.40000001 0.40000001 0.40000001 0.40000001 0.40000001 0.40000001 0.40000001 0.40000001 0.40000001 0.40000001 0.40000001 0.40000001 0.40000001 0.40000001 0.40000001 0.40000001 0.40000001 0.40000001 0.40000001 0.40000001 0.40000001 0.40000001 0.40000001 0.40000001 0.40000001 0.40000001 0.40000001 0.40000001 0.40000001 0.40000001 0.40000001 0.40000001 0.40000001 0.40000001 0.40000001 0.40000001 0.40000001 0.40000001 0.40000001 0.40000001 0.40000001 0.40000001 0.40000001 0.40000001 0.40000001 0.40000001 0.40000001 0.40000001 0.40000001 0.40000001 0.40000001 0.40000001 0.40000001 0.40000001 0.40000001 0.40000001 0.40000001 0.40000001 0.40000001 0.40000001 0.40000001 0.40000001 0.40000001 0.40000001 0.40000001 0.40000001 0.40000001 0.40000001 0.40000001 0.40000001 0.40000001 0.40000001 0.40000001 0.40000001 0.40000001 0.40000001 0.40000001 0.40000001 0.40000001 0.40000001 0.40000001 0.40000001 0.40000001 0.40000001 0.40000001 0.40000001 0.40000001 0.40000001 0.40000001 0.40000001 0.40000001 0.40000001 0.40000001 0.40000001 0.40000001 0.40000001 0.40000001 0.40000001 0.40000001 0.40000001 0.40000001 0.40000001 0.40000001 0.40000001 0.40000001 0.40000001 0.40000001 0.40000001 0.40000001 0.40000001 0.40000001 0.40000001 0.40000001 0.40000001 0.40000001 0.40000001 0.40000001 0.40000001 0.40000001 0.40000001 0.40000001 0.40000001 0.40000001 0.40000001 0.40000001 0.40000001 0.40000001 0.40000001 0.40000001 0.40000001 0.40000001 0.40000001 0.40000001 0.40000001 0.40000001 0.40000001 0.40000001 0.40000001 0.40000001 0.40000001 0.40000001 0.40000001 0.40000001 0.40000001 0.40000001 0.40000001 0.40000001 0.40000001 0.40000001 0.40000001 0.40000001 0.40000001 0.40000001 0.40000001 0.40000001 0.40000001 0.40000001 0.40000001 0.40000001 0.40000001 0.40000001 0.40000001 0.40000001 0.40000001 0.40000001 0.40000001 0.40000001 0.40000001 0.40000001 0.40000001 0.40000001 0.40000001 0.40000001 0.40000001 0.40000001 0.40000001 0.40000001 0.40000001 0.40000001 0.40000001 0.40000001 0.40000001 0.40000001 0.40000001 0.40000001 0.40000001 0.40000001 0.40000001 0.40000001 0.40000001 0.40000001 0.40000001 0.40000001 0.40000001 0.40000001 0.40000001 0.40000001 0.40000001 0.40000001 0.40000001 0.40000001 0.40000001 0.40000001 0.40000001 0.40000001 0.40000001 0.40000001 0.40000001 0.40000001 0.40000001 0.40000001 0.40000001 0.40000001 0.40000001 0.40000001 0.40000001 0.40000001 0.40000001 0.40000001 0.40000001 0.40000001 0.40000001 0.40000001 0.40000001 0.40000001 0.40000001 0.40000001 0.40000001 0.40000001 0.40000001 0.40000001 0.40000001 0.40000001 0.40000001 0.40000001 0.40000001 0.40000001 0.40000001 0.40000001 0.40000001 0.40000001 0.40000001 0.40000001 0.40000001 0.40000001 0.40000001 0.40000001 0.40000001 0.40000001 0.40000001 0.40000001 0.40000001 0.40000001 0.40000001 0.40000001 0.40000001 0.40000001 0.40000001 0.40000001 0.40000001 0.40000001 0.40000001 0.40000001 0.40000001 0.40000001 0.40000001 0.40000001 0.40000001 0.40000001 0.40000001 0.40000001 0.40000001 0.40000001 0.40000001 0.40000001 0.40000001 0.40000001 0.40000001 0.40000001 0.40000001 0.40000001 0.40000001 0.40000001 0.40000001 0.40000001 0.40000001 0.40000001 0.40000001 0.40000001 0.40000001 0.40000001 0.40000001 0.40000001 0.40000001 0.40000001 0.40000001 0.40000001 0.40000001 0.40000001 0.40000001 0.40000001 0.40000001 0.40000001 0.40000001 0.40000001 0.40000001 0.40000001 0.40000001 0.40000001 0.40000001 0.40000001 0.40000001 0.40000001 0.40000001 0.40000001 0.40000001 0.40000001 0.40000001 0.40000001 0.40000001 0.40000001 0.40000001 0.40000001 0.40000001 0.40000001 0.40000001 0.40000001 0.40000001 0.40000001 0.40000001 0.40000001 0.40000001 0.40000001 0.40000001 0.40000001 0.40000001 0.40000001 0.40000001 0.40000001 0.40000001 0.40000001 0.40000001 0.40000001 0.40000001 0.40000001 0.40000001 0.40000001 0.40000001 0.40000001 0.40000001 0.40000001 0.40000001 0.40000001 0.40000001 0.40000001 0.40000001 0.40000001 0.40000001 0.40000001 0.40000001 0.40000001 0.40000001 0.40000001 0.40000001 0.40000001 0.40000001 0.40000001 0.40000001 0.40000001 0.40000001 0.40000001 0.40000001 0.40000001 0.40000001 0.40000001 0.40000001 0.40000001 0.40000001 0.40000001 0.40000001 0.40000001 0.40000001 0.40000001 0.40000001 0.40000001 0.40000001 0.40000001 0.40000001 0.40000001 0.40000001 0.40000001 0.40000001 0.40000001 0.40000001 0.40000001 0.40000001 0.40000001 0.40000001 0.40000001 0.40000001 0.40000001 0.40000001 0.40000001 0.40000001 0.40000001 0.40000001 0.40000001 0.40000001 0.40000001 0.40000001 0.40000001 0.40000001 0.40000001 0.40000001 0.40000001 0.40000001 0.40000001 0.40000001 0.40000001 0.40000001 0.40000001 0.40000001 0.40000001 0.40000001 0.40000001 0.40000001 0.40000001 0.40000001 0.40000001 0.40000001 0.40000001 0.40000001 0.40000001 0.40000001 0.40000001 0.40000001 0.40000001 0.40000001 0.40000001 0.40000001 0.40000001 0.40000001 0.40000001 0.40000001 0.40000001 0.40000001 0.40000001 0.40000001 0.40000001 0.40000001 0.40000039 0.40000042 0.40000045 0.40000036 0.40000045 0.40000045 0.40000117 0.40000114 0.40000123 0.40000117 0.4000012 0.40000111 0.40000278 0.40000287 0.40000281 0.40000284 0.40000281 0.40000284 0.40000772 0.40000775 0.40000775 0.40000775 0.40000778 0.40000778 0.40002075 0.40002072 0.40002072 0.40002078 0.40002078 0.40002081 0.40005577 0.40005577 0.40005574 0.40005583 0.40005592 0.40005577 0.40014887 0.40014887 0.40014893 0.40014893 0.4001489 0.40014896 0.40038523 0.40038532 0.40038541 0.40038547 0.40038556 0.4003855 0.40092668 0.4009268 0.40092701 0.40092704 0.4009271 0.40092716 0.40191907 0.40191942 0.40191954 0.4019196 0.40191975 0.4019196 0.40316755 0.40316787 0.40316781 0.40316772 0.40316769 0.40316769 0.40416446 0.40416479 0.40416437 0.40416402 0.40416375 0.40416363 0.40471008 0.40471026 0.40470979 0.40470934 0.40470892 0.40470859 0.40494856 0.40494889 0.40494838 0.40494773 0.40494743 0.4049471 0.40504235 0.40504265 0.40504241 0.40504181 0.40504131 0.40504095 0.40507764 0.40507799 0.40507779 0.40507725 0.40507689 0.4050765 0.40509045 0.40509096 0.40509069 0.40509021 0.4050898 0.40508941 0.405094 0.40509453 0.40509433 0.40509379 0.40509346 0.40509298 0.40508807 0.40508854 0.40508828 0.40508786 0.40508741 0.40508705 0.40500575 0.40500617 0.4050059 0.4050054 0.4050051 0.40500468 0.40484369 0.40484414 0.40484387 0.40484348 0.40484309 0.40484273 0.40461129 0.40461162 0.40461141 0.40461102 0.40461066 0.40461031 0.4043211 0.40432137 0.40432119 0.40432075 0.40432048 0.40432027 0.40398809 0.40398824 0.40398809 0.40398782 0.4039875 0.40398729 0.40362811 0.40362832 0.40362814 0.40362784 0.40362769 0.40362749 0.40325695 0.40325704 0.40325701 0.40325674 0.40325657 0.40325648 0.40288904 0.40288901 0.40288889 0.4028888 0.40288869 0.40288857 0.40253621 0.40253633 0.40253615 0.40253603 0.40253606 0.4025358 0.40220815 0.4022083 0.40220839 0.40220824 0.40220812 0.40220809 0.40191174 0.4019118 0.40191185 0.40191188 0.40191177 0.40191171 0.4016507 0.40165085 0.40165073 0.40165076 0.40165082 0.40165073 0.40142649 0.40142664 0.40142649 0.40142658 0.40142649 0.40142661 0.40123856 0.4012385 0.40123853 0.40123865 0.40123856 0.40108427 0.40108433 0.40108436 0.40108427 0.40108436 0.40096074 0.40096062 0.40096065 0.40096065 0.40086362 0.40086368 0.40086365 0.40086374 0.40078908 0.40078908 0.40078914 0.40073302 0.40073299 0.4006916 0.40069172 0.40000001 0.40000001 0.40000001 0.40000001 0.40000001 0.40000001 0.40000001 0.40000001 0.40000001 0.40000001 0.40000001 0.40000001 0.40000001 0.40000001 0.40000001 0.40000001 0.40000001 0.40000001 0.40000001 0.40000001 0.40000001 0.40000001 0.40000001 0.40000001 0.40000001 0.40000001 0.40000001 0.40000001 0.40000001 0.40000001 0.40000001 0.40000001 0.40000001 0.40000001 0.40000001 0.40000001 0.40000001 0.40000001 0.40000001 0.40000001 0.40000001 0.40000001 0.40000001 0.40000001 0.40000001 0.40000001 0.40000001 0.40000001 0.40000001 0.40000001 0.40000001 0.40000001 0.40000001 0.40000001 0.40000001 0.40000001 0.40000001 0.40000001 0.40000001 0.40000001 0.40000001 0.40000001 0.40000001 0.40000001 0.40000001 0.40000001 0.40000001 0.40000001 0.40000001 0.40000001 0.40000001 0.40000001 0.40000001 0.40000001 0.40000001 0.40000001 0.40000001 0.40000001 0.40000001 0.40000001 0.40000001 0.40000001 0.40000001 0.40000001 0.40000001 0.40000001 0.40000001 0.40000001 0.40000001 0.40000001 0.40000001 0.40000001 0.40000001 0.40000001 0.40000001 0.40000001 0.40000001 0.40000001 0.40000001 0.40000001 0.40000001 0.40000001 0.40000001 0.40000001 0.40000001 0.40000001 0.40000001 0.40000001 0.40000001 0.40000001 0.40000001 0.40000001 0.40000001 0.40000001 0.40000001 0.40000001 0.40000001 0.40000001 0.40000001 0.40000001 0.40000001 0.40000001 0.40000001 0.40000001 0.40000001 0.40000001 0.40000001 0.40000001 0.40000001 0.40000001 0.40000001 0.40000001 0.40000001 0.40000001 0.40000001 0.40000001 0.40000001 0.40000001 0.40000001 0.40000001 0.40000001 0.40000001 0.40000001 0.40000001 0.40000001 0.40000001 0.40000001 0.40000001 0.40000001 0.40000001 0.40000001 0.40000001 0.40000001 0.40000001 0.40000001 0.40000001 0.40000001 0.40000001 0.40000001 0.40000001 0.40000001 0.40000001 0.40000001 0.40000001 0.40000001 0.40000001 0.40000001 0.40000001 0.40000001 0.40000001 0.40000001 0.40000001 0.40000001 0.40000001 0.40000001 0.40000001 0.40000001 0.40000001 0.40000001 0.40000001 0.40000001 0.40000001 0.40000001 0.40000001 0.40000001 0.40000001 0.40000001 0.40000001 0.40000001 0.40000001 0.40000001 0.40000001 0.40000001 0.40000001 0.40000001 0.40000001 0.40000001 0.40000001 0.40000001 0.40000001 0.40000001 0.40000001 0.40000001 0.40000001 0.40000001 0.40000001 0.40000001 0.40000039 0.40000036 0.40000048 0.40000045 0.40000039 0.40000039 0.40000036 0.40000039 0.40000039 0.40000129 0.40000126 0.40000123 0.40000117 0.40000126 0.4000012 0.40000126 0.40000123 0.4000012 0.40000275 0.40000281 0.40000275 0.40000278 0.40000278 0.40000269 0.40000272 0.40000284 0.40000284 0.40000775 0.40000787 0.40000775 0.40000778 0.40000778 0.40000775 0.4000079 0.40000778 0.40000775 0.40002066 0.40002078 0.40002063 0.40002072 0.40002069 0.40002075 0.40002078 0.40002072 0.40002072 0.40005577 0.40005577 0.40005577 0.40005583 0.40005589 0.4000558 0.40005586 0.40005592 0.40005589 0.40014896 0.40014893 0.40014896 0.40014893 0.40014893 0.40014893 0.40014893 0.40014899 0.40014893 0.40038544 0.40038553 0.40038553 0.40038544 0.4003855 0.40038553 0.40038568 0.40038556 0.40038559 0.40092707 0.40092716 0.40092734 0.40092719 0.40092725 0.40092719 0.40092725 0.40092722 0.40092719 0.40191972 0.40191978 0.40191975 0.40191969 0.40191981 0.40191981 0.40191975 0.40191975 0.40191975 0.40316752 0.40316758 0.40316752 0.40316743 0.40316737 0.40316743 0.40316734 0.40316743 0.4031674 0.40416336 0.40416327 0.40416309 0.40416291 0.40416291 0.40416276 0.40416279 0.40416262 0.40416268 0.4047083 0.40470791 0.40470776 0.40470755 0.40470731 0.40470731 0.40470725 0.40470722 0.40470713 0.40494671 0.4049463 0.40494609 0.40494579 0.40494555 0.40494552 0.40494531 0.40494522 0.40494525 0.4050405 0.40504017 0.40503973 0.40503961 0.4050394 0.40503916 0.40503907 0.40503898 0.40503901 0.40507591 0.40507555 0.40507522 0.40507492 0.40507472 0.40507457 0.40507445 0.40507439 0.40507436 0.40508893 0.40508854 0.40508822 0.40508789 0.40508774 0.4050875 0.40508741 0.40508735 0.40508726 0.40509254 0.40509212 0.40509176 0.40509146 0.40509126 0.40509117 0.40509108 0.40509093 0.40509081 0.40508661 0.40508613 0.40508583 0.40508559 0.40508527 0.40508518 0.40508509 0.405085 0.40508494 0.40500432 0.40500385 0.40500349 0.40500328 0.40500304 0.40500295 0.40500277 0.40500268 0.40500265 0.40484238 0.4048419 0.40484157 0.40484139 0.40484121 0.4048411 0.40484098 0.40484086 0.40484083 0.40461001 0.40460962 0.40460941 0.4046092 0.40460899 0.40460894 0.40460888 0.40460879 0.40460867 0.40431997 0.40431964 0.40431949 0.40431929 0.40431908 0.40431902 0.40431899 0.4043189 0.40431893 0.40398702 0.40398681 0.4039866 0.40398642 0.4039863 0.40398622 0.40398613 0.40398616 0.40398604 0.40362722 0.40362701 0.40362686 0.4036268 0.40362665 0.40362665 0.40362662 0.40362653 0.40362653 0.4032563 0.40325606 0.40325603 0.40325582 0.40325585 0.40325576 0.40325576 0.40325579 0.40325561 0.40288842 0.40288827 0.40288821 0.40288818 0.40288809 0.40288809 0.402888 0.40288794 0.402888 0.40253577 0.40253574 0.40253553 0.40253547 0.40253556 0.40253553 0.40253547 0.40253547 0.40253553 0.40220806 0.40220791 0.40220788 0.40220782 0.40220779 0.40220788 0.40220779 0.40220782 0.40220782 0.40191171 0.40191159 0.4019115 0.40191147 0.40191144 0.40191144 0.40191147 0.40191141 0.40191147 0.40165067 0.40165064 0.40165061 0.40165058 0.40165052 0.40165055 0.40165058 0.40165055 0.40165049 0.40142661 0.40142658 0.40142664 0.40142661 0.40142646 0.40142652 0.40142643 0.40142652 0.40142646 0.40123844 0.40123853 0.40123853 0.40123844 0.40123838 0.40123841 0.40123844 0.40123844 0.40123844 0.40108433 0.40108442 0.40108433 0.40108436 0.4010843 0.40108436 0.40108442 0.4010843 0.4010843 0.40096074 0.40096068 0.40096074 0.40096071 0.40096059 0.40096065 0.40096068 0.40096071 0.40096059 0.40086371 0.40086374 0.40086383 0.40086365 0.40086359 0.40086365 0.40086359 0.40086371 0.40086362 0.40078911 0.40078905 0.40078917 0.40078914 0.40078905 0.40078911 0.40078908 0.40078908 0.40078905 0.40073305 0.40073296 0.40073299 0.40073302 0.40073299 0.40073293 0.40073302 0.40073293 0.40073299 0.40069166 0.40069169 0.40069157 0.40069166 0.40069169 0.4006916 0.40069163 0.40069163 0.40069157 0.40066189 0.4006618 0.40066186 0.40066186 0.40066183 0.4006618 0.40066174 0.40066177 0.4006618 0.40064079 0.40064073 0.40064073 0.40064076 0.4006407 0.40064076 0.40064082 0.4006407 0.40062609 0.40062603 0.40062597 0.40062597 0.400626 0.40062597 0.40061602 0.40061608 0.40061617 0.40061611 0.40000001 0.40000001 0.40000001 0.40000001 0.40000001 0.40000001 0.40000001 0.40000001 0.40000001 0.40000001 0.40000001 0.40000001 0.40000001 0.40000001 0.40000001 0.40000001 0.40000001 0.40000001 0.40000001 0.40000001 0.40000001 0.40000001 0.40000001 0.40000001 0.40000001 0.40000001 0.40000001 0.40000001 0.40000001 0.40000001 0.40000001 0.40000001 0.40000001 0.40000001 0.40000001 0.40000001 0.40000001 0.40000001 0.40000001 0.40000001 0.40000001 0.40000001 0.40000001 0.40000001 0.40000001 0.40000001 0.40000001 0.40000001 0.40000001 0.40000001 0.40000001 0.40000001 0.40000001 0.40000001 0.40000001 0.40000001 0.40000001 0.40000001 0.40000001 0.40000001 0.40000001 0.40000001 0.40000001 0.40000001 0.40000001 0.40000001 0.40000001 0.40000001 0.40000001 0.40000001 0.40000001 0.40000001 0.40000001 0.40000001 0.40000001 0.40000001 0.40000001 0.40000001 0.40000001 0.40000001 0.40000001 0.40000001 0.40000001 0.40000001 0.40000001 0.40000001 0.40000001 0.40000001 0.40000001 0.40000001 0.40000001 0.40000001 0.40000001 0.40000001 0.40000001 0.40000001 0.40000001 0.40000001 0.40000001 0.40000001 0.40000001 0.40000001 0.40000001 0.40000001 0.40000001 0.40000001 0.40000001 0.40000001 0.40000001 0.40000001 0.40000001 0.40000001 0.40000001 0.40000001 0.40000001 0.40000001 0.40000001 0.40000001 0.40000001 0.40000001 0.40000001 0.40000001 0.40000001 0.40000001 0.40000001 0.40000001 0.40000001 0.40000001 0.40000001 0.40000001 0.40000001 0.40000001 0.40000001 0.40000001 0.40000001 0.40000001 0.40000001 0.40000001 0.40000001 0.40000001 0.40000001 0.40000001 0.40000001 0.40000001 0.40000001 0.40000001 0.40000001 0.40000001 0.40000001 0.40000001 0.40000001 0.40000001 0.40000001 0.40000001 0.40000001 0.40000001 0.40000001 0.40000001 0.40000001 0.40000001 0.40000001 0.40000001 0.40000001 0.40000001 0.40000001 0.40000001 0.40000001 0.40000001 0.40000001 0.40000001 0.40000001 0.40000001 0.40000001 0.40000001 0.40000001 0.40000001 0.40000001 0.40000001 0.40000001 0.40000001 0.40000001 0.40000001 0.40000001 0.40000001 0.40000045 0.40000039 0.40000039 0.40000036 0.40000039 0.40000039 0.40000045 0.40000048 0.40000123 0.4000012 0.40000123 0.40000126 0.4000012 0.40000126 0.40000117 0.40000123 0.40000287 0.40000284 0.40000284 0.40000272 0.40000269 0.40000278 0.40000278 0.40000275 0.40000778 0.40000775 0.40000778 0.4000079 0.40000775 0.40000778 0.40000778 0.40000775 0.40002084 0.40002072 0.40002072 0.40002078 0.40002075 0.40002069 0.40002072 0.40002063 0.40005583 0.40005589 0.40005592 0.40005586 0.4000558 0.40005589 0.40005583 0.40005577 0.40014899 0.40014893 0.40014899 0.40014893 0.40014893 0.40014893 0.40014893 0.40014896 0.40038556 0.40038559 0.40038556 0.40038568 0.40038553 0.4003855 0.40038544 0.40038553 0.40092713 0.40092719 0.40092722 0.40092725 0.40092719 0.40092725 0.40092719 0.40092734 0.40191984 0.40191975 0.40191975 0.40191975 0.40191981 0.40191981 0.40191969 0.40191975 0.4031674 0.4031674 0.40316743 0.40316734 0.40316743 0.40316737 0.40316743 0.40316752 0.40416279 0.40416268 0.40416262 0.40416279 0.40416276 0.40416291 0.40416291 0.40416309 0.4047071 0.40470713 0.40470722 0.40470725 0.40470731 0.40470731 0.40470755 0.40470776 0.40494522 0.40494525 0.40494522 0.40494531 0.40494552 0.40494555 0.40494579 0.40494609 0.40503889 0.40503901 0.40503898 0.40503907 0.40503916 0.4050394 0.40503961 0.40503973 0.40507418 0.40507436 0.40507439 0.40507445 0.40507457 0.40507472 0.40507492 0.40507522 0.4050872 0.40508726 0.40508735 0.40508741 0.4050875 0.40508774 0.40508789 0.40508822 0.40509081 0.40509081 0.40509093 0.40509108 0.40509117 0.40509126 0.40509146 0.40509176 0.40508485 0.40508494 0.405085 0.40508509 0.40508518 0.40508527 0.40508559 0.40508583 0.40500253 0.40500265 0.40500268 0.40500277 0.40500295 0.40500304 0.40500328 0.40500349 0.40484089 0.40484083 0.40484086 0.40484098 0.4048411 0.40484121 0.40484139 0.40484157 0.40460867 0.40460867 0.40460879 0.40460888 0.40460894 0.40460899 0.4046092 0.40460941 0.40431893 0.40431893 0.4043189 0.40431899 0.40431902 0.40431908 0.40431929 0.40431949 0.40398613 0.40398604 0.40398616 0.40398613 0.40398622 0.4039863 0.40398642 0.4039866 0.4036265 0.40362653 0.40362653 0.40362662 0.40362665 0.40362665 0.4036268 0.40362686 0.4032557 0.40325561 0.40325579 0.40325576 0.40325576 0.40325585 0.40325582 0.40325603 0.402888 0.402888 0.40288794 0.402888 0.40288809 0.40288809 0.40288818 0.40288821 0.40253553 0.40253553 0.40253547 0.40253547 0.40253553 0.40253556 0.40253547 0.40253553 0.40220773 0.40220782 0.40220782 0.40220779 0.40220788 0.40220779 0.40220782 0.40220788 0.40191141 0.40191147 0.40191141 0.40191147 0.40191144 0.40191144 0.40191147 0.4019115 0.40165049 0.40165049 0.40165055 0.40165058 0.40165055 0.40165052 0.40165058 0.40165061 0.40142652 0.40142646 0.40142652 0.40142643 0.40142652 0.40142646 0.40142661 0.40142664 0.40123835 0.40123844 0.40123844 0.40123844 0.40123841 0.40123838 0.40123844 0.40123853 0.40108427 0.4010843 0.4010843 0.40108442 0.40108436 0.4010843 0.40108436 0.40108433 0.40096065 0.40096059 0.40096071 0.40096068 0.40096065 0.40096059 0.40096071 0.40096074 0.40086368 0.40086362 0.40086371 0.40086359 0.40086365 0.40086359 0.40086365 0.40086383 0.40078902 0.40078905 0.40078908 0.40078908 0.40078911 0.40078905 0.40078914 0.40078917 0.4007329 0.40073299 0.40073293 0.40073302 0.40073293 0.40073299 0.40073302 0.40073299 0.40069157 0.40069157 0.40069163 0.40069163 0.4006916 0.40069169 0.40069166 0.40069157 0.40066183 0.4006618 0.40066177 0.40066174 0.4006618 0.40066183 0.40066186 0.40066186 0.40064076 0.4006407 0.40064082 0.40064076 0.4006407 0.40064076 0.40064073 0.40064073 0.40062603 0.40062597 0.400626 0.40062597 0.40062597 0.40062603 0.40062609 0.40061611 0.40061611 0.40061617 0.40061608 0.40061602 0.40000001 0.40000001 0.40000001 0.40000001 0.40000001 0.40000001 0.40000001 0.40000001 0.40000001 0.40000001 0.40000001 0.40000001 0.40000001 0.40000001 0.40000001 0.40000001 0.40000001 0.40000001 0.40000001 0.40000001 0.40000001 0.40000001 0.40000001 0.40000001 0.40000001 0.40000001 0.40000001 0.40000001 0.40000001 0.40000001 0.40000001 0.40000001 0.40000001 0.40000001 0.40000001 0.40000001 0.40000001 0.40000001 0.40000001 0.40000001 0.40000001 0.40000001 0.40000001 0.40000001 0.40000001 0.40000001 0.40000001 0.40000001 0.40000001 0.40000001 0.40000001 0.40000001 0.40000001 0.40000001 0.40000001 0.40000001 0.40000001 0.40000001 0.40000001 0.40000001 0.40000001 0.40000001 0.40000001 0.40000001 0.40000001 0.40000001 0.40000001 0.40000001 0.40000001 0.40000001 0.40000001 0.40000001 0.40000001 0.40000001 0.40000001 0.40000001 0.40000001 0.40000001 0.40000001 0.40000001 0.40000001 0.40000001 0.40000001 0.40000001 0.40000001 0.40000001 0.40000001 0.40000001 0.40000001 0.40000001 0.40000001 0.40000001 0.40000001 0.40000001 0.40000001 0.40000001 0.40000001 0.40000001 0.40000001 0.40000001 0.40000001 0.40000001 0.40000001 0.40000001 0.40000001 0.40000001 0.40000001 0.40000001 0.40000001 0.40000001 0.40000001 0.40000001 0.40000001 0.40000001 0.40000001 0.40000001 0.40000001 0.40000001 0.40000001 0.40000001 0.40000001 0.40000001 0.40000001 0.40000001 0.40000001 0.40000001 0.40000001 0.40000001 0.40000001 0.40000001 0.40000001 0.40000001 0.40000001 0.40000001 0.40000001 0.40000001 0.40000001 0.40000001 0.40000001 0.40000001 0.40000001 0.40000001 0.40000001 0.40000001 0.40000001 0.40000001 0.40000001 0.40000001 0.40000001 0.40000001 0.40000001 0.40000001 0.40000001 0.40000001 0.40000001 0.40000001 0.40000001 0.40000001 0.40000001 0.40000001 0.40000001 0.40000001 0.40000001 0.40000001 0.40000001 0.40000001 0.40000001 0.40000001 0.40000001 0.40000001 0.40000001 0.40000001 0.40000001 0.40000001 0.40000001 0.40000001 0.40000001 0.40000001 0.40000001 0.40000001 0.40000001 0.40000001 0.40000001 0.40000036 0.40000039 0.40000045 0.40000045 0.40000036 0.40000045 0.40000042 0.40000039 0.40000126 0.40000129 0.40000111 0.4000012 0.40000117 0.40000123 0.40000114 0.40000117 0.40000281 0.40000275 0.40000284 0.40000281 0.40000284 0.40000281 0.40000287 0.40000278 0.40000787 0.40000775 0.40000778 0.40000778 0.40000775 0.40000775 0.40000775 0.40000772 0.40002078 0.40002066 0.40002081 0.40002078 0.40002078 0.40002072 0.40002072 0.40002075 0.40005577 0.40005577 0.40005577 0.40005592 0.40005583 0.40005574 0.40005577 0.40005577 0.40014893 0.40014896 0.40014896 0.4001489 0.40014893 0.40014893 0.40014887 0.40014887 0.40038553 0.40038544 0.4003855 0.40038556 0.40038547 0.40038541 0.40038532 0.40038523 0.40092716 0.40092707 0.40092716 0.4009271 0.40092704 0.40092701 0.4009268 0.40092668 0.40191978 0.40191972 0.4019196 0.40191975 0.4019196 0.40191954 0.40191942 0.40191907 0.40316758 0.40316752 0.40316769 0.40316769 0.40316772 0.40316781 0.40316787 0.40316755 0.40416327 0.40416336 0.40416363 0.40416375 0.40416402 0.40416437 0.40416479 0.40416446 0.40470791 0.4047083 0.40470859 0.40470892 0.40470934 0.40470979 0.40471026 0.40471008 0.4049463 0.40494671 0.4049471 0.40494743 0.40494773 0.40494838 0.40494889 0.40494856 0.40504017 0.4050405 0.40504095 0.40504131 0.40504181 0.40504241 0.40504265 0.40504235 0.40507555 0.40507591 0.4050765 0.40507689 0.40507725 0.40507779 0.40507799 0.40507764 0.40508854 0.40508893 0.40508941 0.4050898 0.40509021 0.40509069 0.40509096 0.40509045 0.40509212 0.40509254 0.40509298 0.40509346 0.40509379 0.40509433 0.40509453 0.405094 0.40508613 0.40508661 0.40508705 0.40508741 0.40508786 0.40508828 0.40508854 0.40508807 0.40500385 0.40500432 0.40500468 0.4050051 0.4050054 0.4050059 0.40500617 0.40500575 0.4048419 0.40484238 0.40484273 0.40484309 0.40484348 0.40484387 0.40484414 0.40484369 0.40460962 0.40461001 0.40461031 0.40461066 0.40461102 0.40461141 0.40461162 0.40461129 0.40431964 0.40431997 0.40432027 0.40432048 0.40432075 0.40432119 0.40432137 0.4043211 0.40398681 0.40398702 0.40398729 0.4039875 0.40398782 0.40398809 0.40398824 0.40398809 0.40362701 0.40362722 0.40362749 0.40362769 0.40362784 0.40362814 0.40362832 0.40362811 0.40325606 0.4032563 0.40325648 0.40325657 0.40325674 0.40325701 0.40325704 0.40325695 0.40288827 0.40288842 0.40288857 0.40288869 0.4028888 0.40288889 0.40288901 0.40288904 0.40253574 0.40253577 0.4025358 0.40253606 0.40253603 0.40253615 0.40253633 0.40253621 0.40220791 0.40220806 0.40220809 0.40220812 0.40220824 0.40220839 0.4022083 0.40220815 0.40191159 0.40191171 0.40191171 0.40191177 0.40191188 0.40191185 0.4019118 0.40191174 0.40165064 0.40165067 0.40165073 0.40165082 0.40165076 0.40165073 0.40165085 0.4016507 0.40142658 0.40142661 0.40142661 0.40142649 0.40142658 0.40142649 0.40142664 0.40142649 0.40123853 0.40123844 0.40123856 0.40123865 0.40123853 0.4012385 0.40123856 0.40108442 0.40108433 0.40108436 0.40108427 0.40108436 0.40108433 0.40108427 0.40096068 0.40096074 0.40096065 0.40096065 0.40096062 0.40096074 0.40086374 0.40086371 0.40086374 0.40086365 0.40086368 0.40086362 0.40078905 0.40078911 0.40078914 0.40078908 0.40078908 0.40073296 0.40073305 0.40073299 0.40073302 0.40069169 0.40069166 0.40069172 0.4006916 0.4006618 0.40066189 0.40064079 
Press 1 2975 float
0.0 0.0 0.0 0.0 0.0 0.0 0.0 0.0 0.0 0.0 0.0 0.0 0.0 0.0 0.0 0.0 0.0 0.0 0.0 0.0 0.0 0.0 0.0 0.0 0.0 0.0 0.0 0.0 0.09876262400000001 0.0 0.09876262400000001 0.19752525 0.09876262400000001 0.19752525 0.29628786 0.09876262400000001 0.29628786 0.49381313 0.19752525 0.3950505 0.59257573 0.19752525 0.49381313 0.79010099 0.29628786 0.59257573 1.0863888000000002 0.3950505 0.79010099 1.3826767 0.49381313 1.1851515 1.8764898999999997 0.69133836 1.580202 2.8641162000000002 1.0863888000000002 2.5678282 4.1480303 1.7777272000000002 3.6542169999999996 6.1232829 5.6294694000000005 8.8886366 0.0 0.0 0.0 0.0 0.0 0.0 0.0 0.0 0.0 0.0 0.0 0.0 0.0 0.0 0.0 0.0 0.0 0.0 0.0 0.0 0.0 0.0 0.0 0.0 0.0 0.0 0.0 0.0 0.0 0.0 0.0 0.0 0.0 0.0 0.0 0.0 0.0 0.0 0.0 0.0 0.0 0.0 0.0 0.0 0.0 0.0 0.0 0.0 0.0 0.0 0.0 0.0 0.09876262400000001 0.09876262400000001 0.09876262400000001 0.09876262400000001 0.0 0.09876262400000001 0.09876262400000001 0.19752525 0.19752525 0.29628786 0.29628786 0.29628786 0.09876262400000001 0.19752525 0.29628786 0.3950505 0.3950505 0.59257573 0.59257573 0.59257573 0.19752525 0.29628786 0.49381313 0.59257573 0.79010099 0.88886362 0.98762625 0.98762625 0.3950505 0.59257573 0.79010099 0.98762625 1.1851515 1.3826767 1.4814393999999997 1.580202 0.59257573 0.79010099 0.98762625 0.79010099 1.0863888000000002 0.88886362 1.3826767 1.2839141 1.7777272000000002 1.580202 2.3703029 2.1727777 3.0616415 3.0616415 4.1480303 4.3455553 5.8269949 6.222045400000001 8.2960606 9.086161599999999 12.04904 12.937903 16.690884 0.0 0.0 0.0 0.0 0.0 0.0 0.0 0.0 0.0 0.0 0.0 0.0 0.0 0.0 0.0 0.0 0.0 0.0 0.0 0.0 0.0 0.0 0.0 0.0 0.0 0.0 0.0 0.0 0.0 0.0 0.0 0.0 0.0 0.0 0.0 0.0 0.0 0.0 0.0 0.0 0.0 0.0 0.0 0.0 0.0 0.0 0.0 0.0 0.0 0.0 0.0 0.0 0.0 0.0 0.09876262400000001 0.09876262400000001 0.09876262400000001 0.09876262400000001 0.19752525 0.19752525 0.19752525 0.19752525 0.19752525 0.29628786 0.29628786 0.29628786 0.3950505 0.3950505 0.3950505 0.3950505 0.3950505 0.3950505 0.59257573 0.69133836 0.69133836 0.79010099 0.79010099 0.79010099 0.79010099 0.79010099 0.79010099 1.0863888000000002 1.1851515 1.1851515 1.2839141 1.2839141 1.2839141 1.2839141 1.2839141 1.2839141 1.6789646 1.6789646 1.7777272000000002 1.7777272000000002 1.8764898999999997 1.8764898999999997 1.8764898999999997 1.8764898999999997 1.8764898999999997 0.0 0.0 0.0 0.0 0.0 0.0 0.0 0.0 0.0 0.0 0.0 0.0 0.0 0.0 0.0 0.0 0.0 0.0 0.0 0.0 0.0 0.0 0.0 0.0 0.0 0.0 0.0 0.0 0.0 0.0 0.0 0.0 0.0 0.0 0.0 0.0 0.0 0.0 0.0 0.0 0.0 0.0 0.0 0.0 0.0 0.0 0.0 0.0 0.19752525 0.19752525 0.19752525 0.19752525 0.19752525 0.19752525 0.09876262400000001 0.09876262400000001 0.3950505 0.3950505 0.3950505 0.3950505 0.3950505 0.3950505 0.3950505 0.29628786 0.79010099 0.79010099 0.79010099 0.79010099 0.79010099 0.79010099 0.79010099 0.69133836 1.2839141 1.2839141 1.2839141 1.2839141 1.2839141 1.2839141 1.2839141 1.1851515 1.8764898999999997 1.8764898999999997 1.8764898999999997 1.8764898999999997 1.8764898999999997 1.8764898999999997 1.7777272000000002 1.7777272000000002 0.0 0.0 0.0 0.0 0.0 0.0 0.0 0.0 0.0 0.0 0.0 0.0 0.0 0.0 0.0 0.0 0.0 0.0 0.0 0.0 0.0 0.0 0.0 0.0 0.0 0.0 0.0 0.0 0.0 0.0 0.0 0.0 0.0 0.0 0.0 0.0 0.0 0.0 0.0 0.0 0.0 0.0 0.0 0.0 0.0 0.0 0.0 0.0 0.0 0.0 0.0 0.0 0.0 0.0 0.09876262400000001 0.09876262400000001 0.09876262400000001 0.09876262400000001 0.09876262400000001 0.09876262400000001 0.0 0.0 0.0 0.29628786 0.29628786 0.29628786 0.29628786 0.29628786 0.19752525 0.19752525 0.09876262400000001 0.09876262400000001 0.69133836 0.59257573 0.59257573 0.59257573 0.59257573 0.3950505 0.3950505 0.29628786 0.19752525 1.1851515 1.0863888000000002 0.98762625 0.98762625 0.88886362 0.79010099 0.59257573 0.49381313 0.29628786 1.6789646 1.6789646 1.580202 1.4814393999999997 1.3826767 1.1851515 0.98762625 0.79010099 0.59257573 0.98762625 0.79010099 1.0863888000000002 1.3826767 1.7777272000000002 2.3703029 3.0616415 4.1480303 5.8269949 8.2960606 12.04904 16.690884 0.0 0.0 0.0 0.0 0.0 0.0 0.0 0.0 0.0 0.0 0.0 0.0 0.0 0.0 0.0 0.0 0.0 0.0 0.0 0.0 0.0 0.0 0.0 0.0 0.0 0.0 0.0 0.0 0.0 0.0 0.0 0.09876262400000001 0.0 0.0 0.0 0.19752525 0.09876262400000001 0.0 0.0 0.3950505 0.19752525 0.09876262400000001 0.0 0.59257573 0.29628786 0.19752525 0.09876262400000001 0.79010099 0.49381313 0.29628786 0.09876262400000001 0.88886362 0.59257573 0.3950505 0.19752525 1.2839141 0.79010099 0.49381313 0.19752525 1.580202 1.0863888000000002 0.59257573 0.29628786 2.1727777 1.3826767 0.79010099 0.3950505 3.0616415 1.8764898999999997 1.1851515 0.49381313 4.3455553 2.8641162000000002 1.580202 0.69133836 6.222045400000001 4.1480303 2.5678282 1.0863888000000002 9.086161599999999 6.1232829 3.6542169999999996 1.7777272000000002 12.937903 8.8886366 5.6294694000000005 0.0 0.0 0.0 0.0 0.0 0.0 0.0 0.0 0.0 0.0 0.0 0.0 0.0 0.0 0.0 0.0 0.0 0.0 0.0 0.0 0.0 0.0 0.0 0.0 0.0 0.0 0.0 0.0 0.0 0.0 0.0 0.0 0.0 0.0 0.0 0.0 0.0 0.0 0.0 0.0 0.0 0.0 0.0 0.0 0.0 0.0 0.0 0.0 0.0 0.0 0.0 0.0 0.0 0.0 0.0 0.0 0.0 0.0 0.0 0.0 0.0 0.0 0.0 0.0 0.0 0.0 0.0 0.0 0.0 0.0 0.0 0.0 0.0 0.0 0.0 0.0 0.0 0.0 0.0 0.0 0.0 0.0 0.0 0.0 0.0 0.0 0.0 0.0 0.0 0.0 0.0 0.0 0.0 0.0 0.0 0.0 0.0 0.0 0.0 0.0 0.0 0.0 0.0 0.0 0.0 0.0 0.0 0.0 0.0 0.0 0.0 0.0 0.0 0.0 0.0 0.0 0.0 0.0 0.0 0.0 0.0 0.0 0.0 0.0 0.0 0.0 0.0 0.0 0.0 0.0 0.0 0.0 0.0 0.0 0.0 0.0 0.0 0.0 0.0 0.0 0.0 0.0 0.0 0.0 0.0 0.0 0.0 0.0 0.0 0.0 0.0 0.0 0.0 0.0 0.0 0.0 0.0 0.0 0.0 0.0 0.0 0.0 0.0 0.0 0.0 0.0 0.0 0.0 0.0 0.0 0.0 0.0 0.0 0.0 0.0 0.0 0.0 0.0 0.0 0.0 0.0 0.0 0.0 0.0 0.0 0.0 0.0 0.0 0.0 0.0 0.0 0.0 0.0 0.0 0.0 0.0 0.0 0.0 0.0 0.0 0.0 0.0 0.0 0.0 0.0 0.0 0.0 0.0 0.0 0.0 0.0 0.0 0.0 0.0 0.0 0.0 0.0 0.0 0.0 0.0 0.0 0.0 0.0 0.0 0.0 0.0 0.0 0.0 0.0 0.0 0.0 0.0 0.0 0.0 0.0 0.0 0.0 0.0 0.0 0.0 0.0 0.0 0.0 0.0 0.0 0.0 0.0 0.0 0.0 0.0 0.0 0.0 0.0 0.0 0.0 0.0 0.0 0.0 0.0 0.0 0.0 0.0 0.0 0.0 0.0 0.0 0.0 0.0 0.0 0.0 0.0 0.0 0.0 0.0 0.0 0.0 0.0 0.0 0.0 0.0 0.0 0.0 0.0 0.0 0.0 0.0 0.0 0.0 0.0 0.0 0.0 0.0 0.0 0.0 0.0 0.0 0.0 0.0 0.0 0.0 0.0 0.0 0.0 0.0 0.0 0.0 0.0 0.0 0.0 0.0 0.0 0.0 0.0 0.0 0.0 0.0 0.0 0.0 0.0 0.0 0.0 0.0 0.0 0.0 0.0 0.0 0.0 0.0 0.0 0.0 0.0 0.0 0.0 0.0 0.0 0.0 0.0 0.0 0.0 0.0 0.0 0.0 0.0 0.0 0.0 0.0 0.0 0.0 0.0 0.0 0.0 0.0 0.0 0.0 0.0 0.0 0.0 0.0 0.0 0.0 0.0 0.0 0.0 0.0 0.0 0.0 0.0 0.0 0.0 0.0 0.0 0.0 0.0 0.0 0.0 0.0 0.0 0.0 0.0 0.0 0.0 0.0 0.0 0.0 0.0 0.0 0.0 0.0 0.0 0.0 0.0 0.0 0.0 0.0 0.0 0.0 0.0 0.0 0.0 0.0 0.0 0.0 0.0 0.0 0.0 0.0 0.0 0.0 0.0 0.0 0.0 0.0 0.0 0.0 0.0 0.0 0.0 0.0 0.0 0.0 0.0 0.0 0.0 0.0 0.0 0.0 0.0 0.0 0.0 0.0 0.0 0.0 0.0 0.0 0.0 0.0 0.0 0.0 0.0 0.0 0.0 0.0 0.0 0.0 0.0 0.0 0.0 0.0 0.0 0.0 0.0 0.0 0.0 0.0 0.0 0.0 0.0 0.0 0.0 0.0 0.0 0.0 0.0 0.0 0.0 0.0 0.0 0.0 0.0 0.0 0.0 0.0 1.3826767 1.580202 1.8764898999999997 2.0740151 2.1727777 1.4814393999999997 1.8764898999999997 2.1727777 2.3703029 2.6665909 2.7653534 1.8764898999999997 2.3703029 2.7653534 3.0616415 3.2591665 3.4566917 2.3703029 3.0616415 3.4566917 3.8517422999999997 4.0492678 4.3455553 3.0616415 3.7529797999999994 4.3455553 4.839368299999999 5.2344189000000005 5.3331819000000005 3.950505 4.938131299999999 5.6294694000000005 6.0245199000000005 6.518333 6.814621000000001 5.4319444 6.518333 7.407197 7.802247500000001 8.197298 8.6911106 7.7034845 8.8886366 9.5799742 10.073788 10.468838 10.765125999999999 11.258939 12.345328 12.740378 13.135429 13.332954 13.629242000000001 16.394596 16.987171 16.888409 16.789645999999998 16.789645999999998 16.888409 22.715403 22.61664 21.826539999999998 21.135202 20.838913 21.135202 29.036210999999998 28.739922999999997 27.258484000000003 26.369621000000002 25.974569 25.974569 33.184242 34.171867 32.986717 32.097854999999996 31.801565000000004 31.900328000000002 37.134743 39.505047 39.208759 38.714946999999995 38.714946999999995 39.109997 42.764214 45.924618 46.81348 46.81348 47.307293 47.801105 51.652840000000005 54.912006000000005 56.294681999999995 56.78849399999999 57.479836 58.072410999999995 63.899403 67.05980699999999 68.343719 69.13382 70.02268199999999 70.91154499999999 79.306366 82.170479 83.553154 84.24449200000001 85.232117 86.21974200000001 97.577431 100.34278 101.92298000000001 102.71308 103.79947 104.78709 119.40393999999999 122.76186000000001 124.44083 125.23093 126.21856000000001 127.10741999999999 146.06978999999998 150.11906000000002 151.99556 152.68688999999998 153.37823 154.06956 178.76015 183.69827 185.96982 186.06857 186.06857 185.96982 218.4626 224.88216 227.25246 226.06731000000002 224.78339 223.49947999999998 266.9548 275.44836000000004 277.5224 274.0657 270.4115 267.2511 324.4343 336.28577 336.68082000000004 328.97736000000003 321.86646 316.13824 390.11087000000003 406.0116 402.45615 387.93807999999996 376.28415 367.29677999999996 464.28067000000004 484.92197000000004 473.26804000000004 448.97256 431.78792999999996 419.73895 547.53613 570.84393 545.7583599999999 509.01895 486.50122000000005 472.27950999999996 652.32092 674.64105 630.39581 580.1261599999999 553.9542799999999 540.3252 826.63257 841.94055 777.25189 715.42725 688.56421 679.8731700000001 1207.8459 1210.6112 1135.3555 1068.6918 1046.5693 1047.8533 2079.6946 2067.3496 2007.007 1956.0466 1944.4917 1960.8859 3703.0859 3673.7544 3657.6567 3661.6069 3676.3223 3713.1594 5726.1108 5663.8931 5696.2856 5789.02 5848.8677 5911.5791 7243.623 7137.1631 7190.689 7353.3418 7457.8267 7545.8188 7955.104 7808.1567 7838.9683 8031.2437 8160.8105 8266.2803 8207.9883 8039.5171 8022.5317 8199.5947 8331.0342 8441.9326 8320.7529 8141.228 8089.2861 8231.9775 8346.0322 8452.8779 8422.9316 8238.7754 8162.7422 8276.4951 8373.7578 8473.8838 8538.1846 8351.9658 8264.9785 8361.3457 8446.9512 8541.1465 8646.7988 8461.0918 8373.6182 8464.251 8544.7139 8634.9521 8721.5527 8537.6455 8457.291 8552.749 8633.6963 8722.0469 8636.8076 8456.9775 8384.2354 8483.8232 8566.1387 8653.7842 8397.5596 8224.084 8158.9565 8259.6074 8343.0889 8430.3203 8032.7954 7868.7441 7812.0215 7911.459 7995.3096 8082.7119 7570.0205 7420.2349 7373.6919 7470.3276 7553.6519 7641.6104 7033.1938 6901.5249 6866.3413 6959.6709 7042.6538 7130.27 6438.9917 6327.4121 6304.4658 6395.4614 6477.793 6564.9512 5804.7168 5714.0068 5702.791 5792.124 5874.5713 5960.2661 5155.6768 5082.6743 5080.6123 5168.2549 5250.3965 5334.1113 4521.6875 4461.0771 4462.4526 4546.8008 4626.9336 4707.8506 3927.5894 3874.269 3872.9031 3951.0825 4027.2087 4104.1167 3367.0537 3331.5605 3331.7629 3401.4043 3471.436 3542.1492 2827.0601 2835.2278 2847.863 2911.8691 2974.5137 3036.186 2343.4346 2399.1609 2428.9148 2488.9871 2543.3608 2593.5801 2035.6498 2077.5437 2129.7883 2177.3359 2215.6807 1733.1953 1780.464 1824.9836 1869.9781 1900.1677 1523.1952 1562.3671 1607.4426 1639.5914 1299.9716 1328.6396 1375.1846 1417.9548 1127.7104 1163.9929 1216.2478 982.7163099999999 1026.5009 859.88635 865.68695 2.3703029 2.3703029 2.4690657000000003 2.4690657000000003 2.5678282 2.5678282 2.5678282 2.5678282 2.5678282 2.8641162000000002 3.0616415 3.0616415 3.160404 3.2591665 3.2591665 3.2591665 3.2591665 3.2591665 3.5554544999999997 3.6542169999999996 3.8517422999999997 3.8517422999999997 3.950505 3.950505 3.950505 3.950505 3.950505 4.543080799999999 4.6418433 4.6418433 4.7406058 4.839368299999999 4.839368299999999 4.839368299999999 4.839368299999999 4.839368299999999 5.5307069 5.7282324000000004 5.7282324000000004 5.7282324000000004 5.8269949 5.8269949 5.8269949 5.8269949 5.8269949 6.913383500000001 7.1109089999999995 7.2096715 7.2096715 7.308433999999999 7.308433999999999 7.308433999999999 7.308433999999999 7.308433999999999 8.6911106 8.8886366 8.9873991 8.9873991 8.9873991 8.9873991 8.9873991 8.9873991 8.9873991 10.962651 11.061414 11.160176 11.160176 11.258939 11.258939 11.258939 11.258939 11.258939 13.629242000000001 13.925529999999998 14.024293 14.024293 14.024293 13.925529999999998 13.925529999999998 13.925529999999998 13.925529999999998 17.085933999999998 17.283459 17.283459 17.283459 17.283459 17.184696 17.184696 17.184696 17.184696 21.233964999999998 21.43149 21.43149 21.530251999999997 21.43149 21.332727 21.332727 21.233964999999998 21.233964999999998 26.270859 26.369621000000002 26.369621000000002 26.270859 26.172096 26.073332 26.073332 25.974569 26.073332 32.196616999999996 32.394141999999995 32.394141999999995 32.29538 32.196616999999996 32.196616999999996 32.097854999999996 31.999090000000002 31.900328000000002 39.505047 39.702571999999996 39.801334000000004 39.702571999999996 39.505047 39.307522 39.307522 39.208759 39.109997 48.294918 48.689968 48.689968 48.393681 48.196156 47.899868 47.801105 47.702343 47.60358 58.862511 59.060036 59.158798 59.060036 58.862511 58.467461 58.269936 57.973648 57.874886 71.50412 71.899178 71.99794 71.70165300000001 71.207832 70.812782 70.51649499999999 70.121445 70.02268199999999 87.009842 87.4049 87.306129 86.911079 86.120979 85.72592900000001 85.133354 84.738304 84.540779 105.57718999999999 105.77472 105.47843 104.68833000000001 103.79947 103.00936999999999 102.21927 101.82422 101.52793 127.79876000000002 127.7 127.10741999999999 125.82351000000001 124.63836 123.35445 122.46558 121.77423999999999 121.28043000000001 154.36586 153.67451 152.39061 150.71164 148.83514 147.25494 145.87227 144.78589 144.39084 185.57477 184.19208 182.11807 179.55025 176.98242 174.71088 172.93317 171.64925 170.85915 221.82053 219.45022999999998 215.99353 212.53685 209.08015 206.21605 203.9445 202.3643 201.27792 264.0907 259.94268999999997 255.20209 250.06644 245.72089 242.06668 239.4001 237.32608 236.33846 310.41003 304.48427999999996 297.86722000000003 291.34891 285.81821 281.47266 278.31229 276.1395 274.75684 359.00076 350.60596 342.01364 334.01392000000004 327.49561 322.5575 319.19957999999997 316.82928 315.84164 409.07266 398.60388 388.1351 378.75269 371.54306 366.30865 362.95074 360.97552 359.98787999999996 460.62560999999994 449.16922 437.71286 427.83664000000005 420.33075 415.59018 412.82482999999996 411.34341 410.65207000000004 530.25146 520.37531 510.00534000000005 500.8205 494.401 490.74683 489.36414 489.06787 489.26538 676.1202400000001 671.87354 666.14532 660.41718 656.66425 655.57782 656.66425 658.4418900000001 659.82458 1055.8529 1062.9636 1066.2228 1067.5067 1069.4819 1072.9385 1077.9753 1082.8146 1086.37 1986.6624 2010.6611 2028.9318 2041.7706 2052.4368 2063.3992 2074.3616 2083.8425 2090.262 3761.354 3807.8699 3845.5959 3874.2363 3897.8398 3918.7769 3937.6399 3953.54 3963.9099 5984.5615 6056.0625 6116.5029 6164.0054 6202.6201 6236.1978 6265.6279 6289.1323 6304.4399 7641.6133 7736.8149 7819.6719 7887.0244 7942.4268 7989.6328 8030.2217 8062.3179 8082.958 8379.5527 8494.1084 8596.6162 8681.9404 8753.0439 8813.6787 8865.5254 8906.0146 8932.2842 8565.1758 8693.0596 8810.377 8910.0186 8993.957 9066.0469 9127.3721 9175.4639 9206.1758 8578.9805 8713.7725 8839.7754 8948.5967 9041.5176 9121.7021 9190.2334 9243.6563 9277.9219 8598.7939 8735.3564 8864.8096 8977.8711 9075.3311 9160.1523 9232.7285 9289.7031 9326.2383 8663.0859 8798.1582 8927.0107 9040.459 9138.8994 9225.2939 9299.4453 9357.8984 9395.3193 8753.5244 8885.4248 9011.5996 9122.9648 9220.0137 9305.71 9379.6572 9438.0059 9475.4238 8837.6436 8965.9736 9088.4805 9196.4756 9290.8477 9374.5596 9447.1152 9504.3701 9541.1914 8766.8936 8891.8486 9010.2881 9114.3174 9205.3184 9286.1533 9356.4277 9411.9951 9447.8232 8541.4316 8662.6094 8776.6807 8876.7393 8963.7734 9041.2354 9108.5332 9161.918 9196.2578 8191.7178 8309.0107 8418.2139 8513.2129 8595.6826 8668.9785 8732.8037 8783.3115 8815.9639 7748.2065 7860.6201 7964.0601 8052.7085 8129.7222 8197.959 8257.4199 8304.6533 8335.0244 7233.752 7340.0933 7435.79 7517.0977 7587.2686 7649.2588 7703.5635 7746.4341 7774.2271 6664.0249 6762.8032 6849.8613 6922.6406 6984.7827 7039.9331 7087.9927 7126.4995 7151.0215 6054.2246 6145.0347 6222.8574 6286.71 6340.8218 6388.6372 6430.3525 6463.9019 6485.3496 5423.0322 5506.0581 5575.6226 5631.2354 5677.5137 5718.7803 5754.7417 5783.333 5801.8052 4792.2979 4869.1929 4931.8657 4980.9058 5021.3145 5056.4272 5087.0278 5111.4492 5127.1421 4183.7632 4256.3643 4314.4844 4359.396 4395.207 4425.8325 4452.2505 4472.7979 4486.3003 3616.0789 3684.9368 3741.2129 3784.2249 3817.5808 3844.9873 3867.8091 3885.657 3896.873 3102.1287 3167.0989 3223.0376 3266.5454 3299.6616 3325.4941 3345.8879 3361.3291 3370.9431 2649.0105 2708.3018 2763.9229 2809.7908 2844.7463 2870.6255 2890.1309 2903.9392 2912.3401 2258.3347 2309.2275 2362.7065 2411.105 2449.4402 2477.9041 2497.9341 2511.543 2519.3059 1929.6892 1969.3602 2017.2841 2065.7756 2107.8137 2140.2673 2162.9468 2177.845 2186.1008 1659.8396 1686.734 1725.1469 1769.2714 1811.8959 1847.5875 1874.0049 1891.6165 1901.5464 1441.6521 1458.8948 1484.517 1519.2573 1557.4047 1592.5103 1620.8892 1640.9755 1652.8612 1255.5134 1276.8235 1292.6249 1314.5563 1342.4393 1371.764 1397.8396 1417.7794 1430.4108 1078.287 1116.6284 1138.3563 1152.1686 1167.2063 1185.7566 1204.8326 1221.0947 1232.0824 907.25092 952.30927 990.6441699999999 1014.6739 1027.2892 1036.0676 1045.5239 1054.8931 1062.047 787.73914 806.28455 834.50916 864.9504400000001 891.0462 907.9544099999999 917.39539 922.8956900000001 926.5069 732.1243900000001 724.8256200000001 728.05524 741.26373 757.92944 772.00128 781.19965 786.23145 673.67975 655.9981700000001 649.4823 643.4150400000001 639.97009 638.24786 644.8078 631.62097 616.86554 607.10004 2.5678282 2.5678282 2.5678282 2.5678282 2.5678282 2.5678282 2.4690657000000003 2.4690657000000003 3.2591665 3.2591665 3.2591665 3.2591665 3.2591665 3.2591665 3.160404 3.0616415 3.950505 3.950505 3.950505 3.950505 3.950505 3.950505 3.8517422999999997 3.8517422999999997 4.839368299999999 4.839368299999999 4.839368299999999 4.839368299999999 4.839368299999999 4.839368299999999 4.7406058 4.6418433 5.8269949 5.8269949 5.8269949 5.8269949 5.8269949 5.8269949 5.7282324000000004 5.7282324000000004 7.308433999999999 7.308433999999999 7.308433999999999 7.308433999999999 7.308433999999999 7.308433999999999 7.2096715 7.2096715 8.9873991 8.9873991 8.9873991 8.9873991 8.9873991 8.9873991 8.9873991 8.9873991 11.258939 11.258939 11.258939 11.258939 11.258939 11.258939 11.160176 11.160176 13.925529999999998 13.925529999999998 13.925529999999998 13.925529999999998 13.925529999999998 14.024293 14.024293 14.024293 17.085933999999998 17.184696 17.184696 17.184696 17.184696 17.283459 17.283459 17.283459 21.233964999999998 21.233964999999998 21.233964999999998 21.332727 21.332727 21.43149 21.530251999999997 21.43149 26.073332 26.073332 25.974569 26.073332 26.073332 26.172096 26.270859 26.369621000000002 31.900328000000002 31.900328000000002 31.999090000000002 32.097854999999996 32.196616999999996 32.196616999999996 32.29538 32.394141999999995 39.109997 39.109997 39.208759 39.307522 39.307522 39.505047 39.702571999999996 39.801334000000004 47.504818 47.60358 47.702343 47.801105 47.899868 48.196156 48.393681 48.689968 57.874886 57.874886 57.973648 58.269936 58.467461 58.862511 59.060036 59.158798 70.02268199999999 70.02268199999999 70.121445 70.51649499999999 70.812782 71.207832 71.70165300000001 71.99794 84.442017 84.540779 84.738304 85.133354 85.72592900000001 86.120979 86.911079 87.306129 101.33041 101.52793 101.82422 102.21927 103.00936999999999 103.79947 104.68833000000001 105.47843 121.0829 121.28043000000001 121.77423999999999 122.46558 123.35445 124.63836 125.82351000000001 127.10741999999999 144.09454 144.39084 144.78589 145.87227 147.25494 148.83514 150.71164 152.39061 170.56287 170.85915 171.64925 172.93317 174.71088 176.98242 179.55025 182.11807 200.98164 201.27792 202.3643 203.9445 206.21605 209.08015 212.53685 215.99353 235.84465 236.33846 237.32608 239.4001 242.06668 245.72089 250.06644 255.20209 274.46054 274.75684 276.1395 278.31229 281.47266 285.81821 291.34891 297.86722000000003 315.34783999999996 315.84164 316.82928 319.19957999999997 322.5575 327.49561 334.01392000000004 342.01364 359.69158999999996 359.98787999999996 360.97552 362.95074 366.30865 371.54306 378.75269 388.1351 410.55331 410.65207000000004 411.34341 412.82482999999996 415.59018 420.33075 427.83664000000005 437.71286 489.36414 489.26538 489.06787 489.36414 490.74683 494.401 500.8205 510.00534000000005 660.31836 659.82458 658.4418900000001 656.66425 655.57782 656.66425 660.41718 666.14532 1087.6539 1086.37 1082.8146 1077.9753 1072.9385 1069.4819 1067.5067 1066.2228 2092.5334 2090.262 2083.8425 2074.3616 2063.3992 2052.4368 2041.7706 2028.9318 3967.564 3963.9099 3953.54 3937.6399 3918.7769 3897.8398 3874.2363 3845.5959 6309.6743 6304.4399 6289.1323 6265.6279 6236.1978 6202.6201 6164.0054 6116.5029 8090.2661 8082.958 8062.3179 8030.2217 7989.6328 7942.4268 7887.0244 7819.6719 8941.1719 8932.2842 8906.0146 8865.5254 8813.6787 8753.0439 8681.9404 8596.6162 9216.7422 9206.1758 9175.4639 9127.3721 9066.0469 8993.957 8910.0186 8810.377 9289.7715 9277.9219 9243.6563 9190.2334 9121.7021 9041.5176 8948.5967 8839.7754 9338.7793 9326.2383 9289.7031 9232.7285 9160.1523 9075.3311 8977.8711 8864.8096 9408.1553 9395.3193 9357.8984 9299.4453 9225.2939 9138.8994 9040.459 8927.0107 9488.5547 9475.4238 9438.0059 9379.6572 9305.71 9220.0137 9122.9648 9011.5996 9553.9258 9541.1914 9504.3701 9447.1152 9374.5596 9290.8477 9196.4756 9088.4805 9460.1602 9447.8232 9411.9951 9356.4277 9286.1533 9205.3184 9114.3174 9010.2881 9208.2969 9196.2578 9161.918 9108.5332 9041.2354 8963.7734 8876.7393 8776.6807 8827.3086 8815.9639 8783.3115 8732.8037 8668.9785 8595.6826 8513.2129 8418.2139 8345.4775 8335.0244 8304.6533 8257.4199 8197.959 8129.7222 8052.7085 7964.0601 7783.9839 7774.2271 7746.4341 7703.5635 7649.2588 7587.2686 7517.0977 7435.79 7159.6875 7151.0215 7126.4995 7087.9927 7039.9331 6984.7827 6922.6406 6849.8613 6492.8271 6485.3496 6463.9019 6430.3525 6388.6372 6340.8218 6286.71 6222.8574 5808.29 5801.8052 5783.333 5754.7417 5718.7803 5677.5137 5631.2354 5575.6226 5132.5361 5127.1421 5111.4492 5087.0278 5056.4272 5021.3145 4980.9058 4931.8657 4490.8984 4486.3003 4472.7979 4452.2505 4425.8325 4395.207 4359.396 4314.4844 3900.6768 3896.873 3885.657 3867.8091 3844.9873 3817.5808 3784.2249 3741.2129 3374.2449 3370.9431 3361.3291 3345.8879 3325.4941 3299.6616 3266.5454 3223.0376 2915.1401 2912.3401 2903.9392 2890.1309 2870.6255 2844.7463 2809.7908 2763.9229 2521.8933 2519.3059 2511.543 2497.9341 2477.9041 2449.4402 2411.105 2362.7065 2188.8528 2186.1008 2177.845 2162.9468 2140.2673 2107.8137 2065.7756 2017.2841 1904.8253 1901.5464 1891.6165 1874.0049 1847.5875 1811.8959 1769.2714 1725.1469 1656.7311 1652.8612 1640.9755 1620.8892 1592.5103 1557.4047 1519.2573 1484.517 1434.561 1430.4108 1417.7794 1397.8396 1371.764 1342.4393 1314.5563 1292.6249 1235.9501 1232.0824 1221.0947 1204.8326 1185.7566 1167.2063 1152.1686 1138.3563 1064.6869 1062.047 1054.8931 1045.5239 1036.0676 1027.2892 1014.6739 990.6441699999999 927.90204 926.5069 922.8956900000001 917.39539 907.9544099999999 891.0462 864.9504400000001 834.50916 787.96106 786.23145 781.19965 772.00128 757.92944 741.26373 728.05524 724.8256200000001 637.6488 638.24786 639.97009 643.4150400000001 649.4823 655.9981700000001 673.67975 603.82111 607.10004 616.86554 631.62097 644.8078 2.3703029 2.3703029 2.1727777 2.0740151 1.8764898999999997 1.580202 1.3826767 3.0616415 2.8641162000000002 2.7653534 2.6665909 2.3703029 2.1727777 1.8764898999999997 1.4814393999999997 3.6542169999999996 3.5554544999999997 3.4566917 3.2591665 3.0616415 2.7653534 2.3703029 1.8764898999999997 4.6418433 4.543080799999999 4.3455553 4.0492678 3.8517422999999997 3.4566917 3.0616415 2.3703029 5.7282324000000004 5.5307069 5.3331819000000005 5.2344189000000005 4.839368299999999 4.3455553 3.7529797999999994 3.0616415 7.1109089999999995 6.913383500000001 6.814621000000001 6.518333 6.0245199000000005 5.6294694000000005 4.938131299999999 3.950505 8.8886366 8.6911106 8.6911106 8.197298 7.802247500000001 7.407197 6.518333 5.4319444 11.061414 10.962651 10.765125999999999 10.468838 10.073788 9.5799742 8.8886366 7.7034845 13.925529999999998 13.629242000000001 13.629242000000001 13.332954 13.135429 12.740378 12.345328 11.258939 17.283459 17.085933999999998 16.888409 16.789645999999998 16.789645999999998 16.888409 16.987171 16.394596 21.43149 21.233964999999998 21.135202 20.838913 21.135202 21.826539999999998 22.61664 22.715403 26.369621000000002 26.270859 25.974569 25.974569 26.369621000000002 27.258484000000003 28.739922999999997 29.036210999999998 32.394141999999995 32.196616999999996 31.900328000000002 31.801565000000004 32.097854999999996 32.986717 34.171867 33.184242 39.702571999999996 39.505047 39.109997 38.714946999999995 38.714946999999995 39.208759 39.505047 37.134743 48.689968 48.294918 47.801105 47.307293 46.81348 46.81348 45.924618 42.764214 59.060036 58.862511 58.072410999999995 57.479836 56.78849399999999 56.294681999999995 54.912006000000005 51.652840000000005 71.899178 71.50412 70.91154499999999 70.02268199999999 69.13382 68.343719 67.05980699999999 63.899403 87.4049 87.009842 86.21974200000001 85.232117 84.24449200000001 83.553154 82.170479 79.306366 105.77472 105.57718999999999 104.78709 103.79947 102.71308 101.92298000000001 100.34278 97.577431 127.7 127.79876000000002 127.10741999999999 126.21856000000001 125.23093 124.44083 122.76186000000001 119.40393999999999 153.67451 154.36586 154.06956 153.37823 152.68688999999998 151.99556 150.11906000000002 146.06978999999998 184.19208 185.57477 185.96982 186.06857 186.06857 185.96982 183.69827 178.76015 219.45022999999998 221.82053 223.49947999999998 224.78339 226.06731000000002 227.25246 224.88216 218.4626 259.94268999999997 264.0907 267.2511 270.4115 274.0657 277.5224 275.44836000000004 266.9548 304.48427999999996 310.41003 316.13824 321.86646 328.97736000000003 336.68082000000004 336.28577 324.4343 350.60596 359.00076 367.29677999999996 376.28415 387.93807999999996 402.45615 406.0116 390.11087000000003 398.60388 409.07266 419.73895 431.78792999999996 448.97256 473.26804000000004 484.92197000000004 464.28067000000004 449.16922 460.62560999999994 472.27950999999996 486.50122000000005 509.01895 545.7583599999999 570.84393 547.53613 520.37531 530.25146 540.3252 553.9542799999999 580.1261599999999 630.39581 674.64105 652.32092 671.87354 676.1202400000001 679.8731700000001 688.56421 715.42725 777.25189 841.94055 826.63257 1062.9636 1055.8529 1047.8533 1046.5693 1068.6918 1135.3555 1210.6112 1207.8459 2010.6611 1986.6624 1960.8859 1944.4917 1956.0466 2007.007 2067.3496 2079.6946 3807.8699 3761.354 3713.1594 3676.3223 3661.6069 3657.6567 3673.7544 3703.0859 6056.0625 5984.5615 5911.5791 5848.8677 5789.02 5696.2856 5663.8931 5726.1108 7736.8149 7641.6133 7545.8188 7457.8267 7353.3418 7190.689 7137.1631 7243.623 8494.1084 8379.5527 8266.2803 8160.8105 8031.2437 7838.9683 7808.1567 7955.104 8693.0596 8565.1758 8441.9326 8331.0342 8199.5947 8022.5317 8039.5171 8207.9883 8713.7725 8578.9805 8452.8779 8346.0322 8231.9775 8089.2861 8141.228 8320.7529 8735.3564 8598.7939 8473.8838 8373.7578 8276.4951 8162.7422 8238.7754 8422.9316 8798.1582 8663.0859 8541.1465 8446.9512 8361.3457 8264.9785 8351.9658 8538.1846 8885.4248 8753.5244 8634.9521 8544.7139 8464.251 8373.6182 8461.0918 8646.7988 8965.9736 8837.6436 8722.0469 8633.6963 8552.749 8457.291 8537.6455 8721.5527 8891.8486 8766.8936 8653.7842 8566.1387 8483.8232 8384.2354 8456.9775 8636.8076 8662.6094 8541.4316 8430.2217 8343.0889 8259.6074 8158.9565 8224.084 8397.5596 8309.0107 8191.7178 8082.7119 7995.3096 7911.459 7812.0215 7868.7441 8032.7954 7860.6201 7748.2065 7641.6104 7553.6519 7470.3276 7373.6919 7420.2349 7570.0205 7340.0933 7233.752 7130.27 7042.6538 6959.6709 6866.3413 6901.5249 7033.1938 6762.8032 6664.0249 6564.9512 6477.793 6395.4614 6304.4658 6327.4121 6438.9917 6145.0347 6054.2246 5960.2661 5874.5713 5792.124 5702.791 5714.0068 5804.7168 5506.0581 5423.0322 5334.1113 5250.3965 5168.2549 5080.6123 5082.6743 5155.6768 4869.1929 4792.2979 4707.8506 4626.9336 4546.8008 4462.4526 4461.0771 4521.6875 4256.3643 4183.7632 4104.1167 4027.2087 3951.0825 3872.9031 3874.269 3927.5894 3684.9368 3616.0789 3542.1492 3471.436 3401.4043 3331.7629 3331.5605 3367.0537 3167.0989 3102.1287 3036.186 2974.5137 2911.8691 2847.863 2835.2278 2827.0601 2708.3018 2649.0105 2593.5801 2543.3608 2488.9871 2428.9148 2399.1609 2343.4346 2309.2275 2258.3347 2215.6807 2177.3359 2129.7883 2077.5437 2035.6498 1969.3602 1929.6892 1900.1677 1869.9781 1824.9836 1780.464 1733.1953 1686.734 1659.8396 1639.5914 1607.4426 1562.3671 1523.1952 1458.8948 1441.6521 1417.9548 1375.1846 1328.6396 1299.9716 1276.8235 1255.5134 1216.2478 1163.9929 1127.7104 1116.6284 1078.287 1026.5009 982.7163099999999 952.30927 907.25092 865.68695 859.88635 806.28455 787.73914 732.1243900000001 
Type 1 2975 float
0 0 0 0 0 0 0 0 0 0 0 0 0 0 0 0 0 0 0 0 0 0 0 0 0 0 0 0 0 0 0 0 0 0 0 0 0 0 0 0 0 0 0 0 0 0 0 0 0 0 0 0 0 0 0 0 0 0 0 0 0 0 0 0 0 0 0 0 0 0 0 0 0 0 0 0 0 0 0 0 0 0 0 0 0 0 0 0 0 0 0 0 0 0 0 0 0 0 0 0 0 0 0 0 0 0 0 0 0 0 0 0 0 0 0 0 0 0 0 0 0 0 0 0 0 0 0 0 0 0 0 0 0 0 0 0 0 0 0 0 0 0 0 0 0 0 0 0 0 0 0 0 0 0 0 0 0 0 0 0 0 0 0 0 0 0 0 0 0 0 0 0 0 0 0 0 0 0 0 0 0 0 0 0 0 0 0 0 0 0 0 0 0 0 0 0 0 0 0 0 0 0 0 0 0 0 0 0 0 0 0 0 0 0 0 0 0 0 0 0 0 0 0 0 0 0 0 0 0 0 0 0 0 0 0 0 0 0 0 0 0 0 0 0 0 0 0 0 0 0 0 0 0 0 0 0 0 0 0 0 0 0 0 0 0 0 0 0 0 0 0 0 0 0 0 0 0 0 0 0 0 0 0 0 0 0 0 0 0 0 0 0 0 0 0 0 0 0 0 0 0 0 0 0 0 0 0 0 0 0 0 0 0 0 0 0 0 0 0 0 0 0 0 0 0 0 0 0 0 0 0 0 0 0 0 0 0 0 0 0 0 0 0 0 0 0 0 0 0 0 0 0 0 0 0 0 0 0 0 0 0 0 0 0 0 0 0 0 0 0 0 0 0 0 0 0 0 0 0 0 0 0 0 0 0 0 0 0 0 0 0 0 0 0 0 0 0 0 0 0 0 0 0 0 0 0 0 0 0 0 0 0 0 0 0 0 0 0 0 0 0 0 0 0 0 0 0 0 0 0 0 0 0 0 0 0 0 0 0 0 0 0 0 0 0 0 0 0 0 0 0 0 0 0 0 0 0 0 0 0 0 0 0 0 0 0 0 0 0 0 0 0 0 0 0 0 0 0 0 0 0 0 0 0 0 0 0 0 0 0 0 0 0 0 0 0 0 0 0 0 0 0 0 0 0 0 0 0 0 0 0 0 0 0 0 0 0 0 0 0 0 0 0 0 0 0 0 0 0 0 0 0 0 0 0 0 0 0 0 0 0 0 0 0 0 0 0 0 0 0 0 0 0 0 0 0 0 0 0 0 0 0 0 0 0 0 0 0 0 0 0 0 0 0 0 0 0 0 0 0 0 0 0 0 0 0 0 0 0 0 0 0 0 0 0 0 0 0 0 0 0 0 0 0 0 0 0 0 0 0 0 0 0 0 0 0 0 0 0 0 0 0 0 0 0 0 0 0 0 0 0 0 0 0 0 0 0 0 0 0 0 0 0 0 0 0 0 0 0 0 0 0 0 0 0 0 0 0 0 0 0 0 0 0 0 0 0 0 0 0 0 0 0 0 0 0 0 0 0 0 0 0 0 0 0 0 0 0 0 0 0 0 0 0 0 0 0 0 0 0 0 0 0 0 0 0 0 0 0 0 0 0 0 0 0 0 0 0 0 0 0 0 0 0 0 0 0 0 0 0 0 0 0 0 0 0 0 0 0 0 0 0 0 0 0 0 0 0 0 0 0 0 0 0 0 0 0 0 0 0 0 0 0 0 0 0 0 0 0 0 0 0 0 0 0 0 0 0 0 0 0 0 0 0 0 0 0 0 0 0 0 0 0 0 0 0 0 0 0 0 0 0 0 0 0 0 0 0 0 0 0 0 0 0 0 0 0 0 0 0 0 0 0 0 0 0 0 0 0 0 0 0 0 0 0 0 0 0 0 0 0 0 0 0 0 0 0 0 0 0 0 0 0 0 0 0 0 0 0 0 0 0 0 0 0 0 0 0 0 0 0 0 0 0 0 0 0 0 0 0 0 0 0 0 0 0 0 0 0 0 0 0 0 0 0 0 0 0 0 0 0 0 0 0 0 0 0 0 0 0 0 0 0 0 0 0 0 0 0 0 0 0 0 0 0 0 0 0 0 0 0 0 0 0 0 0 0 0 0 0 0 0 0 0 0 0 0 0 0 0 0 0 0 0 0 0 0 0 0 0 0 0 0 0 0 0 0 0 0 0 0 0 0 0 0 0 0 0 0 0 0 0 0 0 0 0 0 0 0 0 0 0 0 0 0 0 0 0 0 0 0 0 0 0 0 0 0 0 0 0 0 0 0 0 0 0 0 0 0 0 0 0 0 0 0 0 0 0 0 0 0 3 3 3 3 3 3 3 3 3 3 3 3 3 3 3 3 3 3 3 3 3 3 3 3 3 3 3 3 3 3 3 3 3 3 3 3 3 3 3 3 3 3 3 3 3 3 3 3 3 3 3 3 3 3 3 3 3 3 3 3 3 3 3 3 3 3 3 3 3 3 3 3 3 3 3 3 3 3 3 3 3 3 3 3 3 3 3 3 3 3 3 3 3 3 3 3 3 3 3 3 3 3 3 3 3 3 3 3 3 3 3 3 3 3 3 3 3 3 3 3 3 3 3 3 3 3 3 3 3 3 3 3 3 3 3 3 3 3 3 3 3 3 3 3 3 3 3 3 3 3 3 3 3 3 3 3 3 3 3 3 3 3 3 3 3 3 3 3 3 3 3 3 3 3 3 3 3 3 3 3 3 3 3 3 3 3 3 3 3 3 3 3 3 3 3 3 3 3 3 3 3 3 3 3 3 3 3 3 3 3 3 3 3 3 3 3 3 3 3 3 3 3 3 3 3 3 3 3 3 3 3 3 3 3 3 3 3 3 3 3 3 3 3 3 3 3 3 3 3 3 3 3 3 3 3 3 3 3 3 3 3 3 3 3 3 3 3 3 3 3 3 3 3 3 3 3 3 3 3 3 3 3 3 3 3 3 3 3 3 3 3 3 3 3 3 3 3 3 3 3 3 3 3 3 3 3 3 3 3 3 3 3 3 3 3 3 3 3 3 3 3 3 3 3 3 3 3 3 3 3 3 3 3 3 3 3 3 3 3 3 3 3 3 3 3 3 3 3 3 3 3 3 3 3 3 3 3 3 3 3 3 3 3 3 3 3 3 3 3 3 3 3 3 3 3 3 3 3 3 3 3 3 3 3 3 3 3 3 3 3 3 3 3 3 3 3 3 3 3 3 3 3 3 3 3 3 3 3 3 3 3 3 3 3 3 3 3 3 3 3 3 3 3 3 3 3 3 3 3 3 3 3 3 3 3 3 3 3 3 3 3 3 3 3 3 3 3 3 3 3 3 3 3 3 3 3 3 3 3 3 3 3 3 3 3 3 3 3 3 3 3 3 3 3 3 3 3 3 3 3 3 3 3 3 3 3 3 3 3 3 3 3 3 3 3 3 3 3 3 3 3 3 3 3 3 3 3 3 3 3 3 3 3 3 3 3 3 3 3 3 3 3 3 3 3 3 3 3 3 3 3 3 3 3 3 3 3 3 3 3 3 3 3 3 3 3 3 3 3 3 3 3 3 3 3 3 3 3 3 3 3 3 3 3 3 3 3 3 3 3 3 3 3 3 3 3 3 3 3 3 3 3 3 3 3 3 3 3 3 3 3 3 3 3 3 3 3 3 3 3 3 3 3 3 3 3 3 3 3 3 3 3 3 3 3 3 3 3 3 3 3 3 3 3 3 3 3 3 3 3 3 3 3 3 3 3 3 3 3 3 3 3 3 3 3 3 3 3 3 3 3 3 3 3 3 3 3 3 3 3 3 3 3 3 3 3 3 3 3 3 3 3 3 3 3 3 3 3 3 3 3 3 3 3 3 3 3 3 3 3 3 3 3 3 3 3 3 3 3 3 3 3 3 3 3 3 3 3 3 3 3 3 3 3 3 3 3 3 3 3 3 3 3 3 3 3 3 3 3 3 3 3 3 3 3 3 3 3 3 3 3 3 3 3 3 3 3 3 3 3 3 3 3 3 3 3 3 3 3 3 3 3 3 3 3 3 3 3 3 3 3 3 3 3 3 3 3 3 3 3 3 3 3 3 3 3 3 3 3 3 3 3 3 3 3 3 3 3 3 3 3 3 3 3 3 3 3 3 3 3 3 3 3 3 3 3 3 3 3 3 3 3 3 3 3 3 3 3 3 3 3 3 3 3 3 3 3 3 3 3 3 3 3 3 3 3 3 3 3 3 3 3 3 3 3 3 3 3 3 3 3 3 3 3 3 3 3 3 3 3 3 3 3 3 3 3 3 3 3 3 3 3 3 3 3 3 3 3 3 3 3 3 3 3 3 3 3 3 3 3 3 3 3 3 3 3 3 3 3 3 3 3 3 3 3 3 3 3 3 3 3 3 3 3 3 3 3 3 3 3 3 3 3 3 3 3 3 3 3 3 3 3 3 3 3 3 3 3 3 3 3 3 3 3 3 3 3 3 3 3 3 3 3 3 3 3 3 3 3 3 3 3 3 3 3 3 3 3 3 3 3 3 3 3 3 3 3 3 3 3 3 3 3 3 3 3 3 3 3 3 3 3 3 3 3 3 3 3 3 3 3 3 3 3 3 3 3 3 3 3 3 3 3 3 3 3 3 3 3 3 3 3 3 3 3 3 3 3 3 3 3 3 3 3 3 3 3 3 3 3 3 3 3 3 3 3 3 3 3 3 3 3 3 3 3 3 3 3 3 3 3 3 3 3 3 3 3 3 3 3 3 3 3 3 3 3 3 3 3 3 3 3 3 3 3 3 3 3 3 3 3 3 3 3 3 3 3 3 3 3 3 3 3 3 3 3 3 3 3 3 3 3 3 3 3 3 3 3 3 3 3 3 3 3 3 3 3 3 3 3 3 3 3 3 3 3 3 3 3 3 3 3 3 3 3 3 3 3 3 3 3 3 3 3 3 3 3 3 3 3 3 3 3 3 3 3 3 3 3 3 3 3 3 3 3 3 3 3 3 3 3 3 3 3 3 3 3 3 3 3 3 3 3 3 3 3 3 3 3 3 3 3 3 3 3 3 3 3 3 3 3 3 3 3 3 3 3 3 3 3 3 3 3 3 3 3 3 3 3 3 3 3 3 3 3 3 3 3 3 3 3 3 3 3 3 3 3 3 3 3 3 3 3 3 3 3 3 3 3 3 3 3 3 3 3 3 3 3 3 3 3 3 3 3 3 3 3 3 3 3 3 3 3 3 3 3 3 3 3 3 3 3 3 3 3 3 3 3 3 3 3 3 3 3 3 3 3 3 3 3 3 3 3 3 3 3 3 3 3 3 3 3 3 3 3 3 3 3 3 3 3 3 3 3 3 3 3 3 3 3 3 3 3 3 3 3 3 3 3 3 3 3 3 3 3 3 3 3 3 3 3 3 3 3 3 3 3 3 3 3 3 3 3 3 3 3 3 3 3 3 3 3 3 3 3 3 3 3 3 3 3 3 3 3 3 3 3 3 3 3 3 3 3 3 3 3 3 3 3 3 3 3 3 3 3 3 3 3 3 3 3 3 3 3 3 3 3 3 3 3 3 3 3 3 3 3 3 3 3 3 3 3 3 3 3 3 3 3 3 3 3 3 3 3 3 3 3 3 3 3 3 3 3 3 3 3 3 3 3 3 3 3 3 3 3 3 3 3 3 3 3 3 3 3 3 3 3 3 3 3 3 3 3 3 3 3 3 3 3 3 3 3 3 3 3 3 3 3 3 3 3 3 3 3 3 3 3 3 3 3 3 3 3 3 3 3 3 3 3 3 3 3 3 3 3 3 3 3 3 3 3 3 3 3 3 3 3 3 3 3 3 3 3 3 3 3 3 3 3 3 3 3 3 3 3 3 3 3 3 3 3 3 3 3 3 3 3 3 3 3 3 3 3 3 3 3 3 3 3 3 3 3 3 3 3 3 3 3 3 3 3 3 3 3 3 3 3 3 3 3 3 3 3 3 3 3 3 3 3 3 3 3 3 3 3 3 3 3 3 3 3 3 3 3 3 3 3 3 3 3 3 3 3 3 3 3 3 3 3 3 3 3 3 3 3 3 3 3 3 3 3 3 3 3 3 3 3 3 3 3 3 3 3 3 3 3 3 3 3 3 3 3 3 3 3 3 3 3 3 3 3 3 3 3 3 3 3 3 3 3 3 3 3 3 3 3 3 3 3 3 3 3 3 3 3 3 3 3 3 3 3 3 3 3 3 3 3 3 3 3 3 3 3 3 3 3 3 3 3 3 3 3 3 3 3 3 3 3 3 3 3 3 3 3 3 3 3 3 3 3 3 3 3 3 3 3 3 3 3 3 3 3 3 3 3 3 3 3 3 3 3 3 3 3 3 3 3 3 3 3 3 3 3 3 3 3 3 3 3 3 3 3 3 3 3 3 3 3 3 3 3 3 3 3 3 3 3 3 3 3 3 3 3 3 3 3 3 3 3 3 3 3 3 3 3 3 3 3 3 3 3 3 3 3 3 3 3 3 3 3 3 3 3 3 3 3 3 3 3 3 3 3 3 3 3 3 3 3 3 3 3 3 3 3 3 3 3 3 3 3 3 3 3 3 3 3 3 3 3 3 3 3 3 3 3 3 3 3 3 3 3 3 3 3 3 3 3 3 3 3 3 3 3 3 3 3 3 3 3 3 3 3 3 3 3 3 3 3 3 3 3 3 3 3 
CellOffSpring 1 2975 float
0 0 0 0 0 0 0 0 0 0 0 0 0 0 0 0 0 0 0 0 0 0 0 0 0 0 0 0 0 0 0 0 0 0 0 0 0 0 0 0 0 0 0 0 0 0 0 0 0 0 0 0 0 0 0 0 0 0 0 0 0 0 0 0 0 0 0 0 0 0 0 0 0 0 0 0 0 0 0 0 0 0 0 0 0 0 0 0 0 0 0 0 0 0 0 0 0 0 0 0 0 0 0 0 0 0 0 0 0 0 0 0 0 0 0 0 0 0 0 0 0 0 0 0 0 0 0 0 0 0 0 0 0 0 0 0 0 0 0 0 0 0 0 0 0 0 0 0 0 0 0 0 0 0 0 0 0 0 0 0 0 0 0 0 0 0 0 0 0 0 0 0 0 0 0 0 0 0 0 0 0 0 0 0 0 0 0 0 0 0 0 0 0 0 0 0 0 0 0 0 0 0 0 0 0 0 0 0 0 0 0 0 0 0 0 0 0 0 0 0 0 0 0 0 0 0 0 0 0 0 0 0 0 0 0 0 0 0 0 0 0 0 0 0 0 0 0 0 0 0 0 0 0 0 0 0 0 0 0 0 0 0 0 0 0 0 0 0 0 0 0 0 0 0 0 0 0 0 0 0 0 0 0 0 0 0 0 0 0 0 0 0 0 0 0 0 0 0 0 0 0 0 0 0 0 0 0 0 0 0 0 0 0 0 0 0 0 0 0 0 0 0 0 0 0 0 0 0 0 0 0 0 0 0 0 0 0 0 0 0 0 0 0 0 0 0 0 0 0 0 0 0 0 0 0 0 0 0 0 0 0 0 0 0 0 0 0 0 0 0 0 0 0 0 0 0 0 0 0 0 0 0 0 0 0 0 0 0 0 0 0 0 0 0 0 0 0 0 0 0 0 0 0 0 0 0 0 0 0 0 0 0 0 0 0 0 0 0 0 0 0 0 0 0 0 0 0 0 0 0 0 0 0 0 0 0 0 0 0 0 0 0 0 0 0 0 0 0 0 0 0 0 0 0 0 0 0 0 0 0 0 0 0 0 0 0 0 0 0 0 0 0 0 0 0 0 0 0 0 0 0 0 0 0 0 0 0 0 0 0 0 0 0 0 0 0 0 0 0 0 0 0 0 0 0 0 0 0 0 0 0 0 0 0 0 0 0 0 0 0 0 0 0 0 0 0 0 0 0 0 0 0 0 0 0 0 0 0 0 0 0 0 0 0 0 0 0 0 0 0 0 0 0 0 0 0 0 0 0 0 0 0 0 0 0 0 0 0 0 0 0 0 0 0 0 0 0 0 0 0 0 0 0 0 0 0 0 0 0 0 0 0 0 0 0 0 0 0 0 0 0 0 0 0 0 0 0 0 0 0 0 0 0 0 0 0 0 0 0 0 0 0 0 0 0 0 0 0 0 0 0 0 0 0 0 0 0 0 0 0 0 0 0 0 0 0 0 0 0 0 0 0 0 0 0 0 0 0 0 0 0 0 0 0 0 0 0 0 0 0 0 0 0 0 0 0 0 0 0 0 0 0 0 0 0 0 0 0 0 0 0 0 0 0 0 0 0 0 0 0 0 0 0 0 0 0 0 0 0 0 0 0 0 0 0 0 0 0 0 0 0 0 0 0 0 0 0 0 0 0 0 0 0 0 0 0 0 0 0 0 0 0 0 0 0 0 0 0 0 0 0 0 0 0 0 0 0 0 0 0 0 0 0 0 0 0 0 0 0 0 0 0 0 0 0 0 0 0 0 0 0 0 0 0 0 0 0 0 0 0 0 0 0 0 0 0 0 0 0 0 0 0 0 0 0 0 0 0 0 0 0 0 0 0 0 0 0 0 0 0 0 0 0 0 0 0 0 0 0 0 0 0 0 0 0 0 0 0 0 0 0 0 0 0 0 0 0 0 0 0 0 0 0 0 0 0 0 0 0 0 0 0 0 0 0 0 0 0 0 0 0 0 0 0 0 0 0 0 0 0 0 0 0 0 0 0 0 0 0 0 0 0 0 0 0 0 0 0 0 0 0 0 0 0 0 0 0 0 0 0 0 0 0 0 0 0 0 0 0 0 0 0 0 0 0 0 0 0 0 0 0 0 0 0 0 0 0 0 0 0 0 0 0 0 0 0 0 0 0 0 0 0 0 0 0 0 0 0 0 0 0 0 0 0 0 0 0 0 0 0 0 0 0 0 0 0 0 0 0 0 0 0 0 0 0 0 0 0 0 0 0 0 0 0 0 0 0 0 0 0 0 0 0 0 0 0 0 0 0 0 0 0 0 0 0 0 0 0 0 0 0 0 0 0 0 0 0 0 0 0 0 0 0 0 0 0 0 0 0 0 0 0 0 0 0 0 0 0 0 0 0 0 0 0 0 0 0 0 0 0 0 0 0 0 0 0 0 0 0 0 0 0 0 0 0 0 0 0 0 0 0 0 0 0 0 0 0 0 0 0 0 0 0 0 0 0 0 0 0 0 0 0 0 0 0 0 0 0 0 0 0 0 0 0 0 0 0 0 0 0 0 0 0 0 0 0 0 0 0 0 0 0 0 0 0 0 0 0 0 0 0 0 0 0 0 0 0 0 0 0 0 0 0 0 0 0 0 0 0 0 0 0 0 0 0 0 0 0 0 0 0 0 0 0 0 0 0 0 0 0 0 0 0 0 0 0 0 0 0 0 0 0 0 0 0 0 0 0 0 0 0 0 0 0 0 0 0 0 0 0 0 0 0 0 0 0 0 0 0 0 0 0 0 0 0 0 0 0 0 0 0 0 0 0 0 0 0 0 0 0 0 0 0 0 0 0 0 0 0 0 0 0 0 0 0 0 0 0 0 0 0 0 0 0 0 0 0 0 0 0 0 0 0 0 0 0 0 0 0 0 0 0 0 0 0 0 0 0 0 0 0 0 0 0 0 0 0 0 0 0 0 0 0 0 0 0 0 0 0 0 0 0 0 0 0 0 0 0 0 0 0 0 0 0 0 0 0 0 0 0 0 0 0 0 0 0 0 0 0 0 0 0 0 0 0 0 0 0 0 0 0 0 0 0 0 0 0 0 0 0 0 0 0 0 0 0 0 0 0 0 0 0 0 0 0 0 0 0 0 0 0 0 0 0 0 0 0 0 0 0 0 0 0 0 0 0 0 0 0 0 0 0 0 0 0 0 0 0 0 0 0 0 0 0 0 0 0 0 0 0 0 0 0 0 0 0 0 0 0 0 0 0 0 0 0 0 0 0 0 0 0 0 0 0 0 0 0 0 0 0 0 0 0 0 0 0 0 0 0 0 0 0 0 0 0 0 0 0 0 0 0 0 0 0 0 0 0 0 0 0 0 0 0 0 0 0 0 0 0 0 0 0 0 0 0 0 0 0 0 0 0 0 0 0 0 0 0 0 0 0 0 0 0 0 0 0 0 0 0 0 0 0 0 0 0 0 0 0 0 0 0 0 0 0 0 0 0 0 0 0 0 0 0 0 0 0 0 0 0 0 0 0 0 0 0 0 0 0 0 0 0 0 0 0 0 0 0 0 0 0 0 0 0 0 0 0 0 0 0 0 0 0 0 0 0 0 0 0 0 0 0 0 0 0 0 0 0 0 0 0 0 0 0 0 0 0 0 0 0 0 0 0 0 0 0 0 0 0 0 0 0 0 0 0 0 0 0 0 0 0 0 0 0 0 0 0 0 0 0 0 0 0 0 0 0 0 0 0 0 0 0 0 0 0 0 0 0 0 0 0 0 0 0 0 0 0 0 0 0 0 0 0 0 0 0 0 0 0 0 0 0 0 0 0 0 0 0 0 0 0 0 0 0 0 0 0 0 0 0 0 0 0 0 0 0 0 0 0 0 0 0 0 0 0 0 0 0 0 0 0 0 0 0 0 0 0 0 0 0 0 0 0 0 0 0 0 0 0 0 0 0 0 0 0 0 0 0 0 0 0 0 0 0 0 0 0 0 0 0 0 0 0 0 0 0 0 0 0 0 0 0 0 0 0 0 0 0 0 0 0 0 0 0 0 0 0 0 0 0 0 0 0 0 0 0 0 0 0 0 0 0 0 0 0 0 0 0 0 0 0 0 0 0 0 0 0 0 0 0 0 0 0 0 0 0 0 0 0 0 0 0 0 0 0 0 0 0 0 0 0 0 0 0 0 0 0 0 0 0 0 0 0 0 0 0 0 0 0 0 0 0 0 0 0 0 0 0 0 0 0 0 0 0 0 0 0 0 0 0 0 0 0 0 0 0 0 0 0 0 0 0 0 0 0 0 0 0 0 0 0 0 0 0 0 0 0 0 0 0 0 0 0 0 0 0 0 0 0 0 0 0 0 0 0 0 0 0 0 0 0 0 0 0 0 0 0 0 0 0 0 0 0 0 0 0 0 0 0 0 0 0 0 0 0 0 0 0 0 0 0 0 0 0 0 0 0 0 0 0 0 0 0 0 0 0 0 0 0 0 0 0 0 0 0 0 0 0 0 0 0 0 0 0 0 0 0 0 0 0 0 0 0 0 0 0 0 0 0 0 0 0 0 0 0 0 0 0 0 0 0 0 0 0 0 0 0 0 0 0 0 0 0 0 0 0 0 0 0 0 0 0 0 0 0 0 0 0 0 0 0 0 0 0 0 0 0 0 0 0 0 0 0 0 0 0 0 0 0 0 0 0 0 0 0 0 0 0 0 0 0 0 0 0 0 0 0 0 0 0 0 0 0 0 0 0 0 0 0 0 0 0 0 0 0 0 0 0 0 0 0 0 0 0 0 0 0 0 0 0 0 0 0 0 0 0 0 0 0 0 0 0 0 0 0 0 0 0 0 0 0 0 0 0 0 0 0 0 0 0 0 0 0 0 0 0 0 0 0 0 0 0 0 0 0 0 0 0 0 0 0 0 0 0 0 0 0 0 0 0 0 0 0 0 0 0 0 0 0 0 0 0 0 0 0 0 0 0 0 0 0 0 0 0 0 0 0 0 0 0 0 0 0 0 0 0 0 0 0 0 0 0 0 0 0 0 0 0 0 0 0 0 0 0 0 0 0 0 0 0 0 0 0 0 0 0 0 0 0 0 0 0 0 0 0 0 0 0 0 0 0 0 0 0 0 0 0 0 0 0 0 0 0 0 0 0 0 0 0 0 0 0 0 0 0 0 0 0 0 0 0 0 0 0 0 0 0 0 0 0 0 0 0 0 0 0 0 0 0 0 0 0 0 0 0 0 0 0 0 0 0 0 0 0 0 0 0 0 0 0 0 0 0 0 0 0 0 0 0 0 0 0 0 0 0 0 0 0 0 0 0 0 0 0 0 0 0 0 0 0 0 0 0 0 0 0 0 0 0 0 0 0 0 0 0 0 0 0 0 0 0 0 0 0 0 0 0 0 0 0 0 0 0 0 0 0 0 0 0 0 0 0 0 0 0 0 0 0 0 0 0 0 0 0 0 0 0 0 0 0 0 0 0 0 0 0 0 0 0 0 0 0 0 0 0 0 0 0 0 0 0 0 0 0 0 0 0 0 0 0 0 0 0 0 0 0 0 0 0 0 0 0 0 0 0 0 0 0 0 0 0 0 0 0 0 0 0 0 0 0 0 0 0 0 0 0 0 0 0 0 0 0 0 0 0 0 0 0 0 0 0 0 0 0 0 0 0 0 0 0 0 0 0 0 0 0 0 0 0 0 0 0 0 0 0 0 0 0 0 0 0 0 0 0 0 0 0 0 0 0 0 0 0 0 0 0 0 0 0 0 0 0 0 0 0 0 0 0 0 0 0 0 0 0 0 0 0 0 0 0 0 0 0 0 0 0 0 0 0 0 0 0 0 0 0 0 0 0 0 0 0 0 0 0 0 0 0 0 0 0 0 0 0 0 0 0 0 0 0 0 0 0 0 0 0 0 0 0 0 0 0 0 0 0 0 0 0 0 0 0 0 0 0 0 0 0 0 0 0 0 0 0 0 0 0 0 0 0 0 0 0 0 0 0 0 0 0 0 0 0 0 0 0 0 0 0 0 0 0 0 0 0 0 0 0 0 0 0 0 0 0 0 0 0 0 0 0 0 0 0 0 0 0 0 0 0 0 0 0 0 0 0 0 0 0 0 0 0 0 0 0 0 0 0 0 0 0 0 0 0 0 0 0 0 0 0 0 0 0 0 0 0 0 0 0 0 0 0 0 0 0 0 0 0 0 0 0 0 0 0 0 0 0 0 0 0 0 0 0 0 0 0 0 0 0 0 0 0 0 0 0 0 0 0 0 0 0 0 0 0 0 0 0 0 0 0 0 0 0 0 0 0 0 0 0 0 0 0 0 0 0 0 0 0 0 0 0 0 0 0 0 0 0 0 0 0 0 0 0 0 0 0 0 0 0 0 0 0 0 0 0 0 0 0 0 0 0 0 0 0 0 0 0 0 0 0 0 0 0 0 0 0 0 0 0 0 0 0 0 0 0 0 0 0 0 0 0 0 0 0 0 0 0 0 0 0 0 0 0 0 0 0 0 0 0 0 0 0 0 0 0 0 0 0 0 0 0 0 0 0 0 0 0 0 0 0 0 0 0 0 0 0 0 0 0 0 0 0 0 0 0 0 0 0 0 0 0 0 0 0 0 0 0 0 0 0 0 0 0 0 0 0 0 0 0 0 0 0 0 0 0 0 0 0 0 0 0 0 0 0 0 0 0 0 0 0 0 0 0 0 0 0 0 0 0 0 
GradVel 1 2975 float
0.0 0.0 0.0 0.0 0.0 0.0 0.0 0.0 0.0 0.0 0.0 0.0 0.0 -5.9355955e-08 -2.8352106e-23 -3.1546709999999997e-07 -2.1319865e-06 -5.8610527e-07 -4.2529537e-06 -1.3389994999999999e-05 -4.9745208e-06 -1.8890958e-05 -4.5413704e-05 -1.7934117e-05 -5.2519761e-05 -0.00011050078000000002 -4.3110751e-05 -0.00011075773000000001 -0.00021612847999999998 -8.1039223e-05 -0.00019389606 -0.00036169309000000003 -0.00012911241 -0.00029717240000000003 -0.0005391484599999999 -0.00018363703999999998 -0.00041438642 -0.0007389264599999999 -0.00024281702999999998 -0.00054324087 -0.00095898064 -0.00030910285 -0.00068955647 -0.0012111142 -0.00039053959000000005 -0.00087088731 -0.0015277016 -0.0005029068599999999 -0.0011215347 -0.0019698965 -0.00067493599 -0.0015022649 -0.002640968 -0.00096283644 -0.0021190501 -0.0037057563000000003 -0.0014728718 -0.00312989 -0.0053754365000000005 -0.00237802 -0.0046986109000000005 -0.0077960272 -0.0069639985 -0.010993221999999999 0.0 0.0 0.0 0.0 0.0 0.0 0.0 0.0 0.0 0.0 0.0 0.0 0.0 0.0 0.0 0.0 0.0 0.0 0.0 0.0 0.0 0.0 0.0 0.0 0.0 -1.0638787e-08 -6.7569786e-08 -1.5914163e-07 -2.3641323e-07 -2.7812837e-07 -3.0647928000000006e-07 -3.2832114e-07 -5.1114262e-07 -1.6581266000000002e-06 -3.5208959e-06 -5.799087400000001e-06 -8.020644599999999e-06 -9.810585699999999e-06 -1.105918e-05 -1.1906588999999999e-05 -6.3721764000000005e-06 -1.3451478999999999e-05 -2.3077611e-05 -3.4075874e-05 -4.4774228000000006e-05 -5.3841572999999996e-05 -6.0805014e-05 -6.5869695e-05 -2.924125e-05 -5.2383042e-05 -8.1895807e-05 -0.00011462416000000002 -0.00014619506 -0.00017328863999999998 -0.00019475512 -0.00021099451000000001 -8.604984000000001e-05 -0.00014194096999999999 -0.00021103348999999998 -0.00028624927000000004 -0.00035815351 -0.00041990014000000005 -0.00046937377 -0.00050750584 -0.00019365366000000003 -0.00030432086 -0.00043858361 -0.00058274099 -0.00071896985 -0.0008352169500000001 -0.0009285491499999999 -0.0010011383999999999 -0.00036112772000000004 -0.0005500539 -0.0007761179600000001 -0.0010153379 -0.0012377674 -0.0014254741 -0.0015758093 -0.0016932082000000002 -0.0005859381599999999 -0.00087302463 -0.0012111847 -0.0015621366 -0.0018814495 -0.0021476415 -0.0023599607 -0.0025258704999999997 -0.00085489114 -0.0012518307 -0.0017078312 -0.001153437 -0.0016642737 -0.001481071 -0.0021138659 -0.0018594153 -0.0026381062 -0.0023394963 -0.0033058936 -0.0030137273 -0.0042367661 -0.0040308293 -0.0056141187 -0.0056153224 -0.007698712900000001 -0.0080409124 -0.010797474 -0.011479632 -0.015118623000000001 -0.01588471 -0.020628765 0.0 0.0 0.0 0.0 0.0 0.0 0.0 0.0 0.0 0.0 0.0 0.0 0.0 0.0 0.0 0.0 0.0 0.0 0.0 0.0 0.0 0.0 0.0 0.0 0.0 0.0 0.0 -3.4450815000000007e-07 -3.5602864000000004e-07 -3.6388030000000003e-07 -3.6899035999999995e-07 -3.7215519999999997e-07 -3.7399758e-07 -3.7499268000000003e-07 -3.7548334999999995e-07 -3.7569271e-07 -1.2532816e-05 -1.2990402999999998e-05 -1.3312148e-05 -1.3529325e-05 -1.3669727000000001e-05 -1.3756341999999999e-05 -1.3807041999999998e-05 -1.3834736e-05 -1.3848082e-05 -6.9504509e-05 -7.2157731e-05 -7.4054849e-05 -7.536086900000001e-05 -7.622503499999999e-05 -7.6773351e-05 -7.7105251e-05 -7.7293844e-05 -7.7388315e-05 -0.00022298655 -0.00023173852000000003 -0.00023804327000000002 -0.00024243965 -0.00024539253 -0.00024729877000000003 -0.00024847582000000004 -0.00024915903 -0.00024950819 -0.0005362402300000001 -0.00055749115 -0.00057287433 -0.00058368262 -0.000591007 -0.00059578347 -0.00059876597 -0.0006005178400000001 -0.00060142239 -0.0010565235000000001 -0.0010979545 -0.0011281362 -0.0011494298 -0.0011639228999999998 -0.0011734229 -0.001179387 -0.0011829101 -0.0011847386 -0.0017834613 -0.0018515086 -0.0019013117000000002 -0.0019365082 -0.0019604797 -0.0019762041 -0.0019860864000000003 -0.001991929 -0.0019949647 -0.0026538563 -0.0027507484999999996 -0.0028217621000000003 -0.0028718549 -0.0029058564 -0.0029280786 -0.0029419871999999997 -0.0029501782 -0.0029544195 0.0 0.0 0.0 0.0 0.0 0.0 0.0 0.0 0.0 0.0 0.0 0.0 0.0 0.0 0.0 0.0 0.0 0.0 0.0 0.0 0.0 0.0 0.0 0.0 -3.7574861e-07 -3.7569288e-07 -3.7548341e-07 -3.7499265000000003e-07 -3.7399758e-07 -3.7215528000000005e-07 -3.6899035999999995e-07 -3.6388025e-07 -1.3852004e-05 -1.3848083999999998e-05 -1.3834734000000001e-05 -1.380704e-05 -1.3756344e-05 -1.3669729e-05 -1.3529328000000001e-05 -1.3312148e-05 -7.7416757e-05 -7.73883e-05 -7.7293844e-05 -7.710522200000001e-05 -7.6773365e-05 -7.6225064e-05 -7.5360884e-05 -7.4054886e-05 -0.00024961462 -0.00024950813 -0.00024915903 -0.00024847582000000004 -0.00024729886 -0.00024539256 -0.00024243973999999997 -0.0002380433 -0.0006017001599999999 -0.0006014225099999999 -0.00060051808 -0.00059876638 -0.00059578387 -0.00059100706 -0.0005836824400000001 -0.00057287427 -0.001185302 -0.0011847389 -0.0011829106 -0.0011793873 -0.0011734229 -0.0011639233 -0.0011494295 -0.0011281363 -0.0019959006 -0.0019949647 -0.0019919288 -0.0019860854 -0.0019762046 -0.0019604787 -0.0019365082 -0.0019013114999999999 -0.0029557238000000002 -0.0029544202 -0.0029501787 -0.0029419871999999997 -0.0029280796000000003 -0.0029058566 -0.0028718552 -0.0028217619 0.0 0.0 0.0 0.0 0.0 0.0 0.0 0.0 0.0 0.0 0.0 0.0 0.0 0.0 0.0 0.0 0.0 0.0 0.0 0.0 0.0 0.0 0.0 0.0 0.0 0.0 0.0 -3.5602858000000003e-07 -3.4450835e-07 -3.2832125e-07 -3.0647931e-07 -2.7812843e-07 -2.3641326e-07 -1.5914168000000001e-07 -6.756977900000001e-08 -1.0638787e-08 -1.2990401999999999e-05 -1.2532820999999999e-05 -1.1906591000000001e-05 -1.105918e-05 -9.810585699999999e-06 -8.020644599999999e-06 -5.7990887e-06 -3.5208968e-06 -1.6581270000000002e-06 -7.2157745e-05 -6.9504531e-05 -6.5869732e-05 -6.0805020999999995e-05 -5.3841566e-05 -4.4774238999999996e-05 -3.4075889e-05 -2.3077611e-05 -1.3451483e-05 -0.00023173864 -0.00022298655 -0.00021099453 -0.00019475514 -0.00017328867 -0.00014619508999999997 -0.00011462417999999999 -8.1895821e-05 -5.2383053e-05 -0.00055749126 -0.0005362402300000001 -0.00050750608 -0.00046937395 -0.00041990026 -0.00035815357000000005 -0.00028624939 -0.0002110335 -0.000141941 -0.0010979545 -0.0010565239 -0.0010011388 -0.00092854962 -0.0008352170699999999 -0.0007189699099999999 -0.00058274105 -0.00043858377999999996 -0.000304321 -0.0018515086 -0.001783461 -0.0016932085 -0.0015758098000000001 -0.0014254748000000002 -0.0012377675 -0.001015338 -0.0007761183099999999 -0.00055005401 -0.0027507484999999996 -0.0026538571999999996 -0.0025258702 -0.00235996 -0.002147641 -0.0018814497 -0.0015621363 -0.0012111848 -0.00087302481 -0.0017078312 -0.0012518312 -0.0016642741000000001 -0.0021138669 -0.0026381074 -0.0033058941 -0.0042367661 -0.0056141187 -0.0076987133 -0.010797475 -0.015118625 -0.020628768999999998 0.0 0.0 0.0 0.0 0.0 0.0 0.0 0.0 0.0 0.0 0.0 0.0 0.0 0.0 0.0 -5.1114262e-07 -5.9355962e-08 0.0 0.0 -6.3721777e-06 -2.1319865e-06 -3.1546713e-07 -2.83521e-23 -2.9241251000000003e-05 -1.3389999e-05 -4.252954599999999e-06 -5.861054399999999e-07 -8.6049855e-05 -4.5413711999999995e-05 -1.889096e-05 -4.9745227e-06 -0.00019365372 -0.00011050076999999999 -5.2519761e-05 -1.7934128e-05 -0.00036112787000000003 -0.00021612849 -0.0001107577 -4.3110769e-05 -0.00058593822 -0.00036169318 -0.00019389603 -8.103923799999999e-05 -0.0008548912599999999 -0.00053914858 -0.00029717232000000003 -0.00012911244 -0.0011534374000000001 -0.0007389267 -0.00041438638999999995 -0.00018363706 -0.0014810715 -0.0009589805800000001 -0.00054324087 -0.00024281702999999998 -0.0018594158 -0.0012111145 -0.00068955636 -0.00030910287999999996 -0.0023394972 -0.0015277021 -0.0008708873599999998 -0.00039053959000000005 -0.0030137275 -0.0019698972 -0.0011215348 -0.00050290703 -0.0040308302 -0.0026409687 -0.001502265 -0.00067493622 -0.005615321899999999 -0.0037057558 -0.0021190506 -0.00096283655 -0.0080409143 -0.0053754365000000005 -0.00312989 -0.0014728718 -0.011479633000000001 -0.0077960277 -0.0046986109000000005 -0.00237802 -0.015884712 -0.010993221999999999 -0.0069639995 0.0 0.0 0.0 0.0 0.0 0.0 0.0 0.0 0.0 0.0 0.0 0.0 0.0 0.0 0.0 0.0 0.0 0.0 0.0 0.0 0.0 0.0 0.0 0.0 0.0 0.0 0.0 0.0 0.0 0.0 0.0 0.0 0.0 0.0 0.0 0.0 0.0 0.0 0.0 0.0 0.0 0.0 0.0 0.0 0.0 0.0 0.0 0.0 0.0 0.0 0.0 0.0 0.0 0.0 0.0 0.0 0.0 0.0 0.0 0.0 0.0 0.0 0.0 0.0 0.0 0.0 0.0 0.0 0.0 0.0 0.0 0.0 0.0 0.0 0.0 0.0 0.0 0.0 0.0 0.0 0.0 0.0 0.0 0.0 0.0 0.0 0.0 0.0 0.0 0.0 0.0 0.0 0.0 0.0 0.0 0.0 0.0 0.0 0.0 0.0 0.0 0.0 0.0 0.0 0.0 0.0 0.0 0.0 0.0 0.0 0.0 0.0 0.0 0.0 0.0 0.0 0.0 0.0 0.0 0.0 0.0 0.0 0.0 0.0 0.0 0.0 0.0 0.0 0.0 0.0 0.0 0.0 0.0 0.0 0.0 0.0 0.0 0.0 0.0 0.0 0.0 0.0 0.0 0.0 0.0 0.0 0.0 0.0 0.0 0.0 0.0 0.0 0.0 0.0 0.0 0.0 0.0 0.0 0.0 0.0 0.0 0.0 0.0 0.0 0.0 0.0 0.0 0.0 0.0 0.0 0.0 0.0 0.0 0.0 0.0 0.0 0.0 0.0 0.0 0.0 0.0 0.0 0.0 0.0 0.0 0.0 0.0 0.0 0.0 0.0 0.0 0.0 0.0 0.0 0.0 0.0 0.0 0.0 0.0 0.0 0.0 0.0 0.0 0.0 0.0 0.0 0.0 0.0 0.0 0.0 0.0 0.0 0.0 0.0 0.0 0.0 0.0 0.0 0.0 0.0 0.0 0.0 0.0 0.0 0.0 0.0 0.0 0.0 0.0 0.0 0.0 0.0 0.0 0.0 0.0 0.0 0.0 0.0 0.0 0.0 0.0 0.0 0.0 0.0 0.0 0.0 0.0 0.0 0.0 0.0 0.0 0.0 0.0 0.0 0.0 0.0 0.0 0.0 0.0 0.0 0.0 0.0 0.0 0.0 0.0 0.0 0.0 0.0 0.0 0.0 0.0 0.0 0.0 0.0 0.0 0.0 0.0 0.0 0.0 0.0 0.0 0.0 0.0 0.0 0.0 0.0 0.0 0.0 0.0 0.0 0.0 0.0 0.0 0.0 0.0 0.0 0.0 0.0 0.0 0.0 0.0 0.0 0.0 0.0 0.0 0.0 0.0 0.0 0.0 0.0 0.0 0.0 0.0 0.0 0.0 0.0 0.0 0.0 0.0 0.0 0.0 0.0 0.0 0.0 0.0 0.0 0.0 0.0 0.0 0.0 0.0 0.0 0.0 0.0 0.0 0.0 0.0 0.0 0.0 0.0 0.0 0.0 0.0 0.0 0.0 0.0 0.0 0.0 0.0 0.0 0.0 0.0 0.0 0.0 0.0 0.0 0.0 0.0 0.0 0.0 0.0 0.0 0.0 0.0 0.0 0.0 0.0 0.0 0.0 0.0 0.0 0.0 0.0 0.0 0.0 0.0 0.0 0.0 0.0 0.0 0.0 0.0 0.0 0.0 0.0 0.0 0.0 0.0 0.0 0.0 0.0 0.0 0.0 0.0 0.0 0.0 0.0 0.0 0.0 0.0 0.0 0.0 0.0 0.0 0.0 0.0 0.0 0.0 0.0 0.0 0.0 0.0 0.0 0.0 0.0 0.0 0.0 0.0 0.0 0.0 0.0 0.0 0.0 0.0 0.0 0.0 0.0 0.0 0.0 0.0 0.0 0.0 0.0 0.0 0.0 0.0 0.0 0.0 0.0 0.0 0.0 0.0 0.0 0.0 0.0 0.0 0.0 0.0 0.0 0.0 0.0 0.0 0.0 0.0 0.0 0.0 0.0 0.0 0.0 0.0 0.0 0.0 0.0 0.0 0.0 0.0 0.0 0.0 0.0 0.0 0.0 0.0 -0.0021630162 -0.0025744538000000003 -0.0029126016999999997 -0.0031805196999999995 -0.0033889858 -0.0022140129 -0.0027897728 -0.0032861965999999997 -0.0036883738 -0.0040024268 -0.0042436831 -0.0027837451000000003 -0.0034776775 -0.0040681241 -0.0045365687 -0.004893889199999999 -0.005162132 -0.0034567227 -0.0042956308 -0.0049992288 -0.0055448608 -0.0059490753 -0.006242933199999999 -0.0043188346999999995 -0.0053344276 -0.006171883100000001 -0.0068079252 -0.0072660055000000005 -0.0075862156000000005 -0.0055361036 -0.0067467205 -0.0077141612 -0.0084312726 -0.0089379027 -0.009282317 -0.0073888679 -0.0087794662 -0.0098116416 -0.010546767 -0.011059913000000001 -0.011408297 -0.010292463 -0.011765771999999999 -0.012694005 -0.013301731 -0.013728458 -0.014033328000000001 -0.014741222 -0.016040588 -0.016561088999999998 -0.016814722 -0.017023368 -0.017220322 -0.021035919 -0.021717945 -0.021442872 -0.021108272 -0.020983901 -0.021023711 -0.028763201000000002 -0.028427152 -0.027093921 -0.026070292999999998 -0.025594027999999998 -0.025483271000000002 -0.035832539 -0.035181552000000005 -0.033053279 -0.031522978 -0.030825144 -0.030641147999999997 -0.039838128 -0.040720057000000004 -0.038902868 -0.037387572 -0.036717272999999995 -0.03657962 -0.042729333 -0.045389608 -0.044828325999999995 -0.043840144000000004 -0.043434363 -0.043444514000000004 -0.047388595 -0.05091149 -0.051604204 -0.051297497000000004 -0.051250406 -0.051435437 -0.055198696 -0.058733303 -0.060059771 -0.060236017999999995 -0.060454767 -0.060775474 -0.066020377 -0.06918988400000001 -0.07057909700000001 -0.07094785599999999 -0.071303621 -0.07169822599999999 -0.079310805 -0.082042985 -0.08325962 -0.083627596 -0.08403796699999999 -0.084465295 -0.094603121 -0.097142301 -0.09821637 -0.09854272 -0.098961361 -0.099366829 -0.11227397 -0.11477622 -0.11580175 -0.11606459 -0.11641955 -0.11671266 -0.13296349 -0.13542713 -0.13646564 -0.13661592 -0.13678356 -0.13682345 -0.15713426 -0.15960412 -0.16074736 -0.16066538 -0.16043213 -0.15999889 -0.18519354 -0.18784989 -0.18925177 -0.18865511 -0.18765654 -0.1864178 -0.21725646 -0.22060061 -0.22241053 -0.22074662 -0.21840967 -0.21590026 -0.25290489 -0.25782853 -0.26004857 -0.25635827 -0.2518892 -0.24751079 -0.29037541 -0.29842889 -0.30065528 -0.29351106 -0.28594261 -0.27907324 -0.32635707 -0.339414 -0.34068063 -0.32808879 -0.31653151 -0.30670112 -0.35558939 -0.37541085 -0.37365305 -0.35372937 -0.33747762 -0.32455492 -0.37041104 -0.39768454 -0.39045331 -0.36171091 -0.34068167 -0.32508636 -0.35948646 -0.39319077 -0.37850851 -0.34127215 -0.31623569 -0.29908773 -0.30655521 -0.34292945 -0.32161862 -0.27928185 -0.25266901 -0.23538399 -0.19258095 -0.22572687 -0.20306683 -0.16425619 -0.13862342 -0.12170462 -0.0078135654 -0.03650365 -0.011173137 0.012411505 0.034203708 0.050700784000000006 0.23336744 0.20707503 0.25490016 0.25832906 0.26633388 0.28018028 0.49726555 0.47176176 0.54613876 0.54299057 0.53729117 0.54786247 0.74497569 0.71244419 0.81846589 0.81758249 0.80639625 0.81651282 0.92158443 0.87718266 1.008389 1.0280612 1.0218987 1.0368098 0.99675095 0.93820894 1.0821339 1.1280698999999998 1.1421527 1.169052 0.99183953 0.9238621 1.0731678 1.1387088 1.1709735000000001 1.2088457000000001 0.93685937 0.8656413 1.0158753 1.092043 1.1354414 1.1808591 0.86595243 0.79460675 0.94405615 1.0229777 1.0701406 1.119066 0.80092049 0.73194456 0.87976182 0.95454669 0.99957377 1.0483093 0.74475169 0.67791963 0.82162958 0.8903749 0.93070424 0.9767586 0.6887902 0.62437648 0.76035243 0.82311738 0.85779822 0.8993243 0.6249671 0.56236243 0.68674558 0.74275917 0.77129495 0.80695367 0.54866195 0.48721257 0.59616625 0.64411181 0.66705751 0.69597268 0.46242675 0.40354997 0.49446309 0.53320217 0.55045325 0.57249844 0.37790844 0.32127473 0.39458907 0.42341837 0.43459129 0.45008051 0.30533668 0.2487382 0.30804288 0.32868069 0.33282197 0.34235007 0.24685556 0.19227399 0.24142459 0.25571382 0.25269142 0.25724813 0.20003669 0.15156317 0.19423756 0.20392573 0.19555953 0.19608685 0.16101737 0.12541854 0.16402072 0.16899963 0.15819308 0.1554538 0.14791536 0.11185133 0.14226888 0.14575595 0.13479447 0.12994348 0.18121898 0.11828692 0.12940428 0.12881322 0.11968642 0.11470407 0.22146299 0.13076994 0.11806936 0.11411017 0.10861908 0.10585676 0.14238368 0.1058184 0.10224989 0.099713519 0.10081206 0.16050275 0.10629653 0.096228324 0.093746342 0.097501874 0.12663548 0.10305651 0.09647546 0.095942825 0.16015476 0.13224483 0.11344288 0.10272366 0.17075023 0.14932825 0.12656671 0.19165792 0.16962308 0.19917363 0.214195 -0.0035495395 -0.0036710197999999996 -0.0037597588 -0.0038218945000000003 -0.0038636993 -0.0038907479 -0.003907491 -0.0039172387 -0.0039222352000000005 -0.0044277064 -0.0045657987 -0.0046654823 -0.0047340789 -0.0047793481 -0.004807991 -0.0048252637 -0.0048350384 -0.0048399176 -0.0053625763 -0.005510008 -0.0056137061 -0.0056826659 -0.0057264389 -0.005752834 -0.0057678199 -0.0057757036 -0.0057793604 -0.006455515500000001 -0.006606501999999999 -0.0067078751 -0.0067712772 -0.0068085318999999995 -0.0068286592 -0.0068383226 -0.006842218299999999 -0.0068434174 -0.007807774 -0.0079570748 -0.0080500543 -0.008102146 -0.008127856999999999 -0.008137621 -0.0081388196 -0.0081365295 -0.0081339739 -0.0095083406 -0.009649585 -0.009727601899999999 -0.0097623402 -0.009771278100000001 -0.0097664222 -0.0097559225 -0.009745165699999999 -0.0097375195 -0.011629516000000001 -0.011754222 -0.011809516 -0.01182003 -0.0118065 -0.011782527 -0.011756933999999998 -0.011735377 -0.01172124 -0.014229878 -0.014328215 -0.014351771999999999 -0.014330291 -0.014288068999999999 -0.014240208999999998 -0.014196038000000001 -0.014161268999999999 -0.014139259 -0.017365824 -0.017427078999999998 -0.017410345 -0.017349048 -0.017271783 -0.017195182 -0.017128874 -0.017078469 -0.017047156 -0.021099702 -0.021117335 -0.021055022000000003 -0.020947689 -0.020829668 -0.020719701 -0.020627744 -0.020559243999999997 -0.020517188999999998 -0.025496583 -0.025474589 -0.025366938 -0.025210403 -0.025047304 -0.02489976 -0.024778612000000002 -0.024689415 -0.024634997999999998 -0.030629246000000002 -0.030583682 -0.030436849 -0.030231334 -0.030020295 -0.029831152000000003 -0.029676937 -0.029563935 -0.029495187000000003 -0.036594762999999995 -0.036547154 -0.036370482 -0.036118238999999996 -0.035856735 -0.035621375 -0.035429113 -0.035288092 -0.035202317000000004 -0.043525882 -0.043492403 -0.043293618 -0.042995259 -0.042678814 -0.042390272 -0.042152602000000004 -0.04197740900000001 -0.04187049 -0.051590542999999996 -0.05157508 -0.051354807 -0.051004555 -0.050623010999999996 -0.050269097 -0.049974341 -0.049755420999999994 -0.049621224000000005 -0.060986377 -0.06097962 -0.060725077999999995 -0.060305294 -0.059838302 -0.059398405 -0.059027805999999995 -0.058750458 -0.05857957900000001 -0.071937218 -0.071914583 -0.071594387 -0.071070179 -0.070482247 -0.06992299099999999 -0.069447882 -0.069090024 -0.068868689 -0.084692352 -0.084606253 -0.08416569199999999 -0.083479367 -0.082714513 -0.081985325 -0.081363566 -0.080893673 -0.080602288 -0.09951674199999999 -0.099291243 -0.098646156 -0.09771092199999999 -0.09668697400000001 -0.095715903 -0.094888777 -0.09426365 -0.09387587 -0.11668426 -0.11620758 -0.11523572 -0.11392811 -0.11253133 -0.11122117 -0.11011171 -0.10927579 -0.10875809 -0.13646689 -0.13557784 -0.13410822 -0.13226035 -0.13034147 -0.12856911 -0.12708233 -0.12596899 -0.12528212 -0.15909515 -0.15756847 -0.15537052 -0.15276596 -0.15014087 -0.14776102 -0.14579017 -0.14432682 -0.14342877 -0.18465589 -0.18218774 -0.17896767 -0.17534597 -0.17180607 -0.16866459 -0.16610251 -0.16422065 -0.16307336 -0.21286808 -0.20907596 -0.20448655 -0.19956233 -0.19489861 -0.19085634 -0.18761763 -0.18526873 -0.18384849 -0.24272153 -0.23717074 -0.23084396 -0.22434419 -0.21838392 -0.21334998 -0.20939925 -0.20657685 -0.20488697 -0.27204326 -0.26431513 -0.25592163 -0.24763767 -0.24029006 -0.23426047 -0.22964121 -0.22640285 -0.22448809 -0.29710564 -0.28693318 -0.27628702 -0.26614857 -0.257456 -0.25055227 -0.24541646 -0.24190179 -0.23985833 -0.31242806 -0.299889 -0.28711596 -0.27530453 -0.26550952 -0.2580187 -0.25265515 -0.24910627 -0.24709351 -0.31093204 -0.29659328 -0.28229526 -0.26938891 -0.25902787 -0.2514576 -0.24632937 -0.24311984 -0.24137884 -0.28388843 -0.26877481 -0.25405559 -0.24111682 -0.23111805 -0.22427613 -0.22007632 -0.21775068 -0.2166297 -0.22029546 -0.20569375 -0.19202828 -0.18057232 -0.17230992 -0.16737036 -0.16508099 -0.16439864 -0.16438201 -0.10770085 -0.094955176 -0.083981216 -0.075835288 -0.071084261 -0.06960910599999999 -0.070526302 -0.072481826 -0.074200824 0.063182652 0.073095173 0.07991793 0.082923681 0.082213312 0.07840567799999999 0.072740875 0.066970341 0.06277260900000001 0.29130921 0.29828897 0.3001534 0.29663122 0.28874466 0.2779094 0.26595828 0.2551862 0.24776509 0.55888021 0.56392086 0.56098771 0.55035394 0.53422368 0.51512003 0.49574018 0.47907996 0.46788156 0.82943821 0.83424062 0.82750452 0.81010127 0.78563297 0.75795758 0.73082507 0.70803154 0.6929118 1.0544014 1.0607741000000002 1.0516831 1.0287474 0.99700654 0.96166635 0.927544 0.89921606 0.88056248 1.1938596000000001 1.2033823000000001 1.1937351 1.1673625 1.1305201 1.0895583999999998 1.050203 1.0176942 0.9963634 1.2405887 1.2540666 1.2456573 1.2182992 1.1790477 1.135047 1.0926844999999998 1.0577035 1.0347681 1.2179576 1.2352108999999998 1.2290857 1.2026629 1.1633356000000001 1.1186408 1.0753436 1.0394964 1.0159737 1.1591926000000001 1.1791499 1.1753993999999999 1.1508996 1.1129774 1.0692184999999998 1.0264996 0.99099112 0.96765184 1.0889848 1.1101178999999999 1.1081455 1.0857208 1.0498228 1.0078393 0.96655917 0.9321146 0.90943217 1.0158303 1.0366132 1.0355444999999999 1.0148646000000001 0.98104411 0.94111878 0.90165931 0.86863577 0.84685671 0.93508583 0.95425808 0.95328712 0.93394768 0.90210223 0.86432743 0.82687461 0.7954725 0.77474415 0.83813667 0.85483658 0.85349715 0.83536327 0.80558759 0.77017599 0.73498356 0.70543867 0.68592691 0.72185618 0.73579788 0.73416424 0.7175535 0.69029307 0.65772128 0.62523055 0.59790337 0.57984519 0.59314275 0.60471797 0.60337418 0.58895862 0.56490427 0.53582633 0.50660801 0.48194206 0.46561909 0.46615303 0.47604948 0.47562671 0.46397293 0.44364685 0.41854301 0.39301199 0.37132657 0.35693753 0.35451576 0.36309791 0.36374497 0.35488355 0.338285 0.31717202 0.29536062 0.27668488 0.2642464 0.26571393 0.27274266 0.2739754 0.26733792 0.25393769 0.23638789 0.2179762 0.20208021 0.19145116 0.20074342 0.20548208 0.20630953 0.20089045 0.18980318 0.17510873 0.15956762 0.14607778 0.13703074 0.15636614 0.15797153 0.15714246 0.15172049 0.14191553 0.12928361 0.11603751 0.10456128 0.09686186199999999 0.12789567 0.12590137 0.12221454 0.11554175 0.10599201 0.094666056 0.083186589 0.073377185 0.066827342 0.11109837 0.10589045 0.098598823 0.08953756800000001 0.07923904799999999 0.068456516 0.05822424599999999 0.049759395 0.044186249000000004 0.1027621 0.095797069 0.08515767 0.072910883 0.060819402 0.049663282999999996 0.040011249 0.032477975 0.027669147 0.10041158 0.09399105599999999 0.081534013 0.066214755 0.05136583 0.038683682999999996 0.028617606 0.021319471 0.016890153 0.10133249 0.098033816 0.086433806 0.06968471400000001 0.052106075 0.036857836 0.025164142 0.017084599 0.012386017 0.10254286 0.1042674 0.09666298300000001 0.081505522 0.063165002 0.045767151 0.031759739 0.021963395 0.016290061 0.1033355 0.1087714 0.10754739 0.097585194 0.081939355 0.06492959 0.049873348 0.038550022999999996 0.031676237 0.11286376 0.11135027 0.11463395 0.11256986 0.1036158 0.09069698300000001 0.077451155 0.066411763 0.059216082 0.14216864 0.12522832 0.12033077 0.1222844 0.12223223 0.11726468 0.1092397 0.10109489 0.095180534 0.18824849 0.16365711 0.14446339 0.13559744 0.13581574 0.1382134 0.13799442 0.13538492 0.13249341 0.21088162 0.20504744 0.19208349 0.17870997 0.16584879 0.16004221 0.15979326 0.16082567 0.16124675 0.20145237 0.21645521 0.2236484 0.22374377 0.220245 0.21518506 0.21225524 0.21075219 0.21324342 0.23571211 0.24895719 0.26549214 0.27659687 0.28229976 0.2078189 0.22160178 0.23930821 0.25134847 -0.0039237617 -0.0039222347999999995 -0.0039172391 -0.0039074915000000005 -0.0038907488 -0.0038636993 -0.0038218936 -0.003759759 -0.004841385399999999 -0.0048399186 -0.004835038 -0.0048252642 -0.0048079905 -0.0047793491 -0.0047340798 -0.0046654809 -0.0057804068 -0.005779363199999999 -0.0057757064 -0.0057678199 -0.0057528354000000005 -0.005726440300000001 -0.0056826668000000006 -0.0056137075 -0.0068436349 -0.006843416 -0.006842218299999999 -0.0068383235 -0.0068286606000000005 -0.006808532900000001 -0.00677128 -0.0067078779 -0.0081329355 -0.0081339749 -0.0081365276 -0.0081388196 -0.008137621 -0.0081278607 -0.008102145 -0.0080500543 -0.0097347759 -0.0097375186 -0.0097451676 -0.0097559234 -0.0097664222 -0.0097712846 -0.0097623393 -0.0097276038 -0.011716349 -0.011721245 -0.011735373 -0.011756937 -0.011782525 -0.011806496999999999 -0.011820033 -0.011809519 -0.014131732 -0.014139253000000001 -0.014161263 -0.014196037 -0.014240212 -0.014288068000000001 -0.01433029 -0.014351778999999999 -0.017036563 -0.017047159 -0.017078463000000002 -0.017128872 -0.017195184 -0.017271774 -0.017349048 -0.017410351 -0.02050302 -0.020517195 -0.020559251 -0.020627733 -0.02071969 -0.02082967 -0.020947685 -0.02105502 -0.024616737000000003 -0.024635011000000002 -0.024689397000000002 -0.024778601 -0.024899751 -0.0250473 -0.025210401 -0.02536694 -0.029472141 -0.029495197999999997 -0.029563921 -0.029676928999999998 -0.029831154 -0.030020289 -0.030231345 -0.030436836000000002 -0.035173543 -0.035202317000000004 -0.035288107 -0.035429128 -0.035621367 -0.035856701 -0.036118235 -0.036370475 -0.041834607999999995 -0.041870501 -0.041977394 -0.042152587000000005 -0.04239025 -0.042678811 -0.042995259 -0.04329364 -0.049576059000000006 -0.049621227999999996 -0.049755405999999995 -0.049974332999999996 -0.050269097 -0.050623007000000005 -0.051004562999999996 -0.05135481099999999 -0.058521952 -0.05857956 -0.058750425 -0.05902783599999999 -0.059398398 -0.059838317 -0.060305323 -0.060725044000000006 -0.06879387099999999 -0.068868712 -0.069090046 -0.069447905 -0.069922976 -0.070482284 -0.07107023900000001 -0.071594395 -0.080503672 -0.08060229599999999 -0.08089368799999999 -0.081363566 -0.08198534 -0.082714505 -0.08347936 -0.084165677 -0.093744569 -0.093875907 -0.09426365800000001 -0.09488880599999999 -0.09571594 -0.096686967 -0.097710885 -0.098646149 -0.10858298 -0.1087581 -0.10927578 -0.11011173 -0.11122122 -0.11253136 -0.11392804 -0.11523575 -0.12505013 -0.12528217 -0.12596905 -0.12708235 -0.12856913 -0.13034147 -0.13226035 -0.13410825 -0.14312623 -0.14342876 -0.14432678 -0.14579013 -0.14776103 -0.15014078 -0.15276591 -0.15537064 -0.16268818 -0.16307342 -0.16422063 -0.16610259 -0.16866459 -0.17180601 -0.175346 -0.17896771 -0.18337342 -0.18384847 -0.1852688 -0.18761761 -0.19085646 -0.19489872 -0.19956237 -0.20448665 -0.20432451 -0.20488693 -0.20657681 -0.20939916 -0.21335 -0.21838401 -0.22434421 -0.23084399 -0.22385496 -0.22448823 -0.22640297 -0.22964133 -0.23426041 -0.24029003 -0.24763775 -0.25592157 -0.23918825 -0.23985851 -0.24190176 -0.24541658 -0.25055215 -0.25745609 -0.26614857 -0.2762869 -0.24644189 -0.24709353 -0.24910641 -0.25265509 -0.25801861 -0.26550958 -0.2753045 -0.2871159 -0.24082878 -0.24137893 -0.24312007 -0.2463294 -0.25145766 -0.25902769 -0.26938891 -0.28229505 -0.21630082 -0.21662974 -0.2177507 -0.22007622 -0.22427601 -0.23111784 -0.24111679 -0.25405568 -0.16444057 -0.16438204 -0.16439867 -0.16508082 -0.16737029 -0.17231002 -0.18057233 -0.19202855 -0.074863762 -0.074200764 -0.072481811 -0.070526391 -0.069609061 -0.071084157 -0.075835094 -0.083981156 0.061250716 0.062772639 0.066970177 0.072740905 0.078405723 0.08221332 0.082923882 0.0799179 0.24513075 0.24776518 0.25518614 0.26595837 0.27790943 0.28874481 0.29663137 0.3001532 0.46394715 0.46788174 0.47908011 0.49574023 0.51512003 0.53422397 0.55035412 0.56098801 0.68763083 0.69291198 0.70803177 0.7308253 0.7579577 0.78563303 0.81010121 0.82750428 0.87406933 0.88056242 0.89921653 0.92754394 0.96166682 0.99700636 1.0287479 1.0516828999999999 0.98895085 0.99636304 1.0176945 1.0502027 1.0895586000000002 1.1305201 1.1673622 1.1937355 1.0268033 1.0347683 1.0577031000000001 1.0926844999999998 1.1350466000000001 1.1790479 1.2182989 1.2456573999999998 1.0078039 1.015974 1.0394964 1.075344 1.118641 1.1633356000000001 1.2026629 1.229085 0.95954084 0.96765155 0.99099082 1.0264995000000001 1.0692184999999998 1.1129774 1.1508999 1.1753995000000002 0.90154415 0.90943223 0.93211448 0.96655929 1.0078391 1.0498222 1.0857207 1.1081461000000001 0.83927906 0.84685713 0.86863565 0.90165937 0.94111884 0.98104393 1.0148647 1.0355443000000002 0.76752961 0.77474409 0.79547262 0.82687461 0.86432731 0.90210235 0.93394774 0.95328712 0.67913496 0.68592715 0.70543861 0.73498344 0.77017617 0.80558789 0.83536339 0.85349691 0.57355857 0.57984507 0.59790325 0.62523067 0.65772086 0.69029295 0.71755338 0.73416436 0.45993429 0.46561915 0.48194212 0.50660789 0.53582633 0.56490433 0.58895838 0.60337436 0.35192174 0.35693753 0.37132645 0.39301181 0.41854301 0.44364685 0.46397275 0.47562665 0.25990471 0.2642464 0.27668464 0.29536077 0.31717214 0.33828512 0.35488346 0.36374512 0.18773472 0.19145119 0.20208022 0.21797624 0.23638782 0.25393769 0.26733786 0.27397543 0.13386336 0.13703081 0.1460778 0.15956748 0.17510873 0.18980327 0.20089047 0.20630954 0.09416474400000001 0.096861869 0.10456134 0.11603752 0.12928352 0.14191532 0.15172045 0.15714239 0.06453542400000001 0.066827245 0.073377185 0.083186507 0.094666004 0.10599209 0.11554173 0.12221453 0.042245649 0.044186197 0.049759313 0.058224261 0.068456516 0.079239033 0.08953742699999999 0.09859888300000001 0.026015677 0.027669072000000003 0.0324779 0.040011137999999995 0.049663089 0.060819387 0.072910883 0.085157648 0.015404575 0.016890228 0.021319516 0.028617583 0.038683675 0.05136589 0.06621471 0.081533968 0.010848403000000001 0.01238592 0.017084658 0.025164232 0.036857813999999996 0.052106023 0.069684625 0.086433955 0.014442667 0.016290039 0.021963358 0.031759739 0.045767151 0.063165054 0.081505567 0.09666296099999999 0.029380906000000002 0.031676255 0.038550071 0.04987336 0.064929582 0.081939355 0.097585164 0.10754736 0.056725147999999996 0.059216107999999996 0.066411741 0.077451095 0.09069696099999999 0.10361579 0.11256982 0.11463399 0.093047209 0.09518048900000001 0.10109489 0.10923971 0.1172647 0.12223223 0.12228442 0.12033083 0.13130541 0.13249347 0.13538489 0.13799445 0.13821343 0.13581586 0.13559747 0.14446348 0.16126315 0.16124675 0.16082564 0.15979327 0.16004221 0.16584881 0.17871007 0.19208348 0.21027647 0.21075228 0.21225521 0.21518521 0.220245 0.223744 0.22364856 0.21645522 0.28406328 0.28229964 0.2765969 0.26549202 0.24895719 0.23571211 0.21324338 0.25531343 0.25134844 0.23930818 0.22160184 0.20781891 -0.0036710193 -0.0035495403999999996 -0.0033889851 -0.0031805196999999995 -0.0029126019 -0.0025744543 -0.0021630174 -0.0045657987 -0.0044277068 -0.0042436845 -0.0040024286 -0.0036883747999999997 -0.0032861969 -0.0027897728 -0.0022140141 -0.0055100089 -0.0053625763 -0.0051621352 -0.004893891 -0.0045365714 -0.0040681264 -0.0034776782 -0.0027837447999999997 -0.0066065015000000005 -0.006455518299999999 -0.006242936899999999 -0.0059490772 -0.0055448608 -0.004999232 -0.0042956327 -0.0034567234000000002 -0.0079570748 -0.007807773100000001 -0.0075862180000000005 -0.0072660055000000005 -0.0068079256000000005 -0.0061718849 -0.0053344285 -0.0043188346999999995 -0.0096495859 -0.0095083453 -0.009282320699999999 -0.0089379074 -0.0084312726 -0.0077141635 -0.0067467215 -0.0055361032 -0.011754221 -0.01162952 -0.011408298999999998 -0.01105992 -0.01054677 -0.0098116463 -0.0087794662 -0.0073888684 -0.014328218 -0.014229878999999999 -0.014033334 -0.013728461 -0.013301738 -0.012694006 -0.011765775 -0.010292465 -0.017427091000000002 -0.017365838999999997 -0.017220333 -0.017023373 -0.016814729 -0.016561093 -0.016040588 -0.014741221 -0.021117327999999998 -0.021099707000000002 -0.021023708999999998 -0.020983902999999998 -0.021108263999999998 -0.021442864 -0.021717951 -0.021035919 -0.025474576000000002 -0.025496592999999998 -0.025483266 -0.02559403 -0.026070287 -0.02709393 -0.028427154 -0.02876321 -0.030583678 -0.030629255 -0.030641155 -0.030825134 -0.031522978 -0.033053279 -0.035181556 -0.035832539 -0.03654718 -0.036594771 -0.03657965 -0.036717288 -0.037387576 -0.038902879 -0.040720053 -0.039838132000000005 -0.043492407000000004 -0.043525875 -0.043444514000000004 -0.043434355 -0.043840177 -0.04482832900000001 -0.045389615 -0.04272934 -0.051575102000000005 -0.051590536 -0.051435445 -0.051250458 -0.051297515999999994 -0.051604208 -0.050911497 -0.04738860599999999 -0.060979631 -0.06098636599999999 -0.060775474 -0.060454797000000005 -0.060236044 -0.060059775 -0.05873334 -0.055198677 -0.071914576 -0.071937196 -0.071698271 -0.071303576 -0.070947841 -0.070579104 -0.069189832 -0.066020355 -0.084606297 -0.084692374 -0.084465265 -0.08403793 -0.083627596 -0.083259583 -0.082043059 -0.07931079 -0.099291243 -0.09951669 -0.09936688800000001 -0.09896142 -0.09854272800000001 -0.09821636199999999 -0.097142279 -0.094603114 -0.11620759 -0.11668433 -0.11671271 -0.1164195 -0.11606452 -0.1158018 -0.11477622 -0.11227404 -0.13557786 -0.13646685 -0.13682337 -0.13678356 -0.13661587 -0.13646561 -0.13542707 -0.13296349 -0.15756848 -0.15909517 -0.15999892 -0.16043225 -0.16066532 -0.16074745 -0.15960422 -0.15713421 -0.18218781 -0.18465593 -0.18641798 -0.18765652 -0.18865508 -0.18925172 -0.18784994 -0.18519366 -0.20907599 -0.21286798 -0.2159003 -0.21840978 -0.22074667 -0.22241056 -0.22060066 -0.21725647 -0.23717083 -0.24272147 -0.24751088 -0.25188917 -0.25635833 -0.26004857 -0.25782847 -0.25290489 -0.26431522 -0.2720432 -0.27907309 -0.28594255 -0.29351103 -0.30065536 -0.29842907 -0.29037547 -0.28693306 -0.29710585 -0.3067013 -0.31653157 -0.32808864 -0.3406806 -0.33941412 -0.32635713 -0.299889 -0.31242827 -0.32455492 -0.33747754 -0.35372922 -0.37365291 -0.37541088 -0.3555896 -0.29659325 -0.31093204 -0.32508639 -0.34068173 -0.36171088 -0.39045343 -0.39768469 -0.37041098 -0.26877478 -0.28388855 -0.29908794 -0.31623578 -0.34127223 -0.37850854 -0.39319065 -0.35948664 -0.20569378 -0.22029555 -0.23538399 -0.25266907 -0.27928185 -0.32161871 -0.34292957 -0.30655551 -0.09495534 -0.10770099 -0.12170447 -0.13862325 -0.16425626 -0.20306695 -0.22572696 -0.19258112 0.073095143 0.063182637 0.05070076900000001 0.034203902 0.01241143 -0.011173032 -0.036503732000000004 -0.007813558 0.29828885 0.29130927 0.28018019 0.26633397 0.25832921 0.25490016 0.20707512 0.23336744 0.56392092 0.55888033 0.54786259 0.53729123 0.5429908 0.54613882 0.47176191 0.49726558 0.83424091 0.82943833 0.81651318 0.80639625 0.81758273 0.81846619 0.71244466 0.74497563 1.0607744 1.0544011999999998 1.0368102 1.021899 1.0280613 1.0083891999999999 0.87718272 0.92158437 1.2033827 1.1938596000000001 1.169052 1.1421525 1.1280700000000001 1.082134 0.93820894 0.99675071 1.2540662 1.2405888999999999 1.2088459999999999 1.1709738 1.1387086000000002 1.0731680000000001 0.92386228 0.99183971 1.2352108 1.2179571000000002 1.180859 1.1354415 1.092043 1.0158757999999999 0.86564165 0.93685973 1.1791492000000001 1.1591930000000001 1.1190659 1.070141 1.0229779 0.94405675 0.79460663 0.86595207 1.1101181999999998 1.0889852 1.0483096 0.99957401 0.95454681 0.87976217 0.7319448 0.80092025 1.0366135 1.0158305 0.97675848 0.93070394 0.8903749 0.82162941 0.67791981 0.74475181 0.95425808 0.93508559 0.89932442 0.85779852 0.82311773 0.76035249 0.62437654 0.68879062 0.8548367 0.83813632 0.80695367 0.77129519 0.74275947 0.68674529 0.56236267 0.62496704 0.73579764 0.72185612 0.69597268 0.66705739 0.64411187 0.59616661 0.48721266 0.54866195 0.60471821 0.59314263 0.57249874 0.55045319 0.53320223 0.49446326 0.40355003 0.46242678 0.4760496 0.46615309 0.4500801 0.43459129 0.4234181 0.39458898 0.32127464 0.37790871 0.36309782 0.35451567 0.34234995 0.33282188 0.32868069 0.30804285 0.24873815 0.30533662 0.27274263 0.26571405 0.25724816 0.25269133 0.25571373 0.24142435 0.192274 0.24685553 0.20548196 0.20074335 0.19608678 0.19555952 0.20392565 0.19423749 0.15156312 0.2000367 0.15797146 0.15636604 0.15545386 0.15819302 0.16899952 0.16402072 0.12541845 0.16101737 0.12590119 0.12789556 0.12994349 0.13479438 0.14575595 0.14226887 0.11185141 0.14791526 0.10589026 0.11109836 0.11470407 0.11968639 0.12881327 0.12940428 0.1182868 0.18121886 0.095797017 0.102762 0.10585672 0.10861911 0.11411008 0.11806928 0.13076979 0.22146302 0.09399112300000001 0.10041163 0.10081208 0.099713475 0.10224994 0.10581839 0.14238364 0.098033756 0.10133269 0.09750174 0.09374628199999999 0.096228436 0.10629658 0.16050261 0.10426745 0.10254282 0.09594277300000001 0.096475445 0.10305651 0.12663537 0.10877148 0.10333553 0.10272364 0.11344288 0.13224474 0.16015449 0.11135035 0.11286376 0.12656675 0.1493282 0.17075036 0.12522838 0.14216858 0.16962305 0.1916582 0.16365708 0.1882486 0.21419483 0.19917342 0.20504765 0.21088158 0.20145231 
VonMises3D 1 2975 float
0.0 0.0 0.0 0.0 0.0 0.0 0.0 0.0 0.0 0.0 0.0 0.0 0.0 7.072827400000001e-05 4.6655942999999996e-21 0.00052700873 0.0029639567 0.0011364296 0.008053417299999999 0.021025022 0.010780041 0.039436482 0.07867331799999999 0.04270475 0.11979008 0.20989971 0.1125359 0.27589464 0.45062587 0.23183809 0.52739048 0.82787699 0.40357867 0.8796013 1.3495148000000001 0.62240279 1.3238878 2.0029519000000002 0.88091463 1.8488287 2.7711097999999996 1.1786031000000001 2.4566424 3.6585279 1.5290802 3.1753848 4.7157521 2.021687 4.0745463 6.092852099999999 3.5324473 5.5345287 8.1597977 9.6795788 10.071657 11.594794 28.368349 25.185705 16.998583 73.650391 61.647465000000004 24.119339 125.87422 35.220192 0.0 0.0 0.0 0.0 0.0 0.0 0.0 0.0 0.0 0.0 0.0 0.0 0.0 0.0 0.0 0.0 0.0 0.0 0.0 0.0 0.0 0.0 0.0 0.0 0.0 4.4916404999999994e-06 1.3980160000000001e-05 7.9491747e-06 9.969147000000001e-06 1.7516813e-05 1.9583958e-05 2.0851912000000002e-05 0.00044141908 0.00093737664 0.0011422208 0.0008493497199999999 0.00016896661 0.0005662250299999999 0.0010067602 0.0011251239 0.0064600273 0.0089791212 0.009167768100000001 0.0067190393 0.0023024816 0.0025336591 0.0061756107 0.00800482 0.033535663 0.039997168 0.03798832 0.02735272 0.010439742 0.0077843148999999995 0.022087159 0.030231782999999998 0.10957129 0.12147862 0.1110482 0.07891814400000001 0.031258721 0.01937772 0.059654273 0.083527148 0.27250555 0.29048276 0.25983986 0.18279704 0.073192462 0.041488186 0.13274425 0.18766171 0.56295812 0.58743238 0.51878393 0.36120999 0.1434762 0.07972303 0.25564331 0.36165795 1.0126778 1.044484 0.91411245 0.62769932 0.24269691 0.14106156 0.43881676 0.6170224 1.6314351999999999 1.6704633999999998 1.444464 2.4016085 2.4426816000000002 3.2973111000000004 3.3244974999999997 4.322988 4.321364900000001 5.545231299999999 5.4983044 7.3101859 7.322628999999999 11.455172 13.066799000000001 23.400116 31.755415000000003 51.424561 76.566879 101.37521 160.35573 165.19863999999998 277.76653999999996 0.0 0.0 0.0 0.0 0.0 0.0 0.0 0.0 0.0 0.0 0.0 0.0 0.0 0.0 0.0 0.0 0.0 0.0 0.0 0.0 0.0 0.0 0.0 0.0 0.0 0.0 0.0 2.1498431999999998e-05 2.1711674e-05 2.1693717000000002e-05 2.1575886e-05 2.1394231e-05 2.1193490999999998e-05 2.1001913e-05 2.0838117000000003e-05 2.0730850999999998e-05 0.0011437777000000001 0.0011279491 0.0010939994 0.0010537761 0.0010138482 0.0009773816 0.0009462262400000001 0.0009222715199999999 0.0009070939300000001 0.0083787367 0.0082039274 0.0078545725 0.007440159599999999 0.0070286393 0.0066569764 0.006345899300000001 0.0061103301 0.0059629455000000005 0.033026531 0.032590117 0.031036192999999997 0.029136647 0.027223632 0.025490679 0.024046415 0.022960803 0.022285881 0.09281091400000001 0.09274669699999999 0.088244945 0.082455859 0.07653325799999999 0.07113345 0.066632316 0.063258708 0.061168257000000004 0.20987134 0.21080244 0.200891 0.18717246 0.17295004 0.15990064 0.14900532 0.14084676 0.13579939 0.40488368 0.4068712 0.38782367 0.3605026 0.33191371 0.30555955 0.28352019 0.26702005 0.25682047 0.68897706 0.69093663 0.65752846 0.60984856 0.55967706 0.51329935 0.47447267 0.44540626 0.42744941 0.0 0.0 0.0 0.0 0.0 0.0 0.0 0.0 0.0 0.0 0.0 0.0 0.0 0.0 0.0 0.0 0.0 0.0 0.0 0.0 0.0 0.0 0.0 0.0 2.0694399e-05 2.0730857e-05 2.0838114999999997e-05 2.1001913e-05 2.1193490999999998e-05 2.1394234999999998e-05 2.157589e-05 2.1693717000000002e-05 0.00090186659 0.0009070940400000001 0.0009222714599999999 0.00094622618 0.00097738171 0.0010138486 0.0010537766 0.0010939995 0.0059127323 0.0059629451 0.006110330600000001 0.006345899300000001 0.0066569773 0.007028641600000001 0.0074401624 0.0078545744 0.022056807 0.022285881 0.022960803 0.024046419 0.02549069 0.027223638999999997 0.029136652000000002 0.031036202000000002 0.060459953 0.061168268 0.06325873 0.06663233 0.071133479 0.076533295 0.082455873 0.088244967 0.13409045 0.13579939 0.1408468 0.14900535 0.1599007 0.17295009 0.18717246 0.20089103 0.25336918 0.25682053 0.26702008 0.28352031 0.30555964 0.33191377 0.36050272 0.38782373 0.42137644 0.42744941 0.44540635 0.47447282 0.51329947 0.55967718 0.60984874 0.65752858 0.0 0.0 0.0 0.0 0.0 0.0 0.0 0.0 0.0 0.0 0.0 0.0 0.0 0.0 0.0 0.0 0.0 0.0 0.0 0.0 0.0 0.0 0.0 0.0 0.0 0.0 0.0 2.171167e-05 2.1498438999999997e-05 2.0851918000000002e-05 1.9583962e-05 1.7516815e-05 9.969150599999999e-06 7.9491783e-06 1.3980162e-05 4.4916401e-06 0.0011279489999999998 0.0011437781 0.0011251241 0.0010067605 0.00056622515 0.0001689666 0.0008493500599999999 0.0011422210000000001 0.0009373765199999998 0.0082039274 0.0083787385 0.0080048218 0.006175612099999999 0.0025336603 0.0023024809 0.0067190407 0.009167768100000001 0.0089791212 0.032590125 0.033026535 0.030231792 0.022087167999999997 0.0077843238 0.01043974 0.027352726 0.03798832 0.039997172000000004 0.09274669699999999 0.092810944 0.08352717 0.059654307000000004 0.019377744 0.03125871 0.07891818099999999 0.11104818 0.1214786 0.21080247 0.20987137 0.18766175 0.13274436 0.041488249 0.073192433 0.1827971 0.25983989 0.29048282 0.40687126 0.40488377 0.36165801 0.25564346 0.079723135 0.14347614 0.36121011 0.51878417 0.58743244 0.69093692 0.68897724 0.61702263 0.43881705 0.14106178 0.24269687 0.62769949 0.91411287 1.0444841 1.4444643 1.6704637999999998 2.4426816000000002 3.3244983999999995 4.3213663 5.4983053 7.3226299 13.066801 31.755432 76.566879 160.35577 277.7666 0.0 0.0 0.0 0.0 0.0 0.0 0.0 0.0 0.0 0.0 0.0 0.0 0.0 0.0 0.0 0.00044141902 7.0728267e-05 0.0 0.0 0.0064600273 0.0029639564 0.00052700879 4.6655942999999996e-21 0.033535663 0.021025026000000002 0.0080534192 0.0011364297 0.10957128 0.07867331799999999 0.039436482 0.010780043999999999 0.27250555 0.20989975 0.11979007 0.042704760999999994 0.56295818 0.45062584 0.27589464 0.11253592 1.0126778 0.82787699 0.52739042 0.23183811 1.6314354 1.3495151 0.87960124 0.4035787 2.4016089 2.0029521 1.3238877 0.62240285 3.2973120000000002 2.7711103 1.8488287 0.88091475 4.3229885 3.6585282999999995 2.4566418999999997 1.1786032 5.5452318 4.7157521 3.1753842999999997 1.5290803 7.3101864 6.0928535 4.0745468 2.0216873 11.455172 8.159798599999998 5.5345287 3.5324483 23.400122 11.594796 10.071655999999999 9.679580699999999 51.42458 16.998589000000003 25.185709 28.368354999999998 101.37522 24.119339 61.647465000000004 73.650436 165.19863999999998 35.220196 125.87423000000001 0.0 0.0 0.0 0.0 0.0 0.0 0.0 0.0 0.0 0.0 0.0 0.0 0.0 0.0 0.0 0.0 0.0 0.0 0.0 0.0 0.0 0.0 0.0 0.0 0.0 0.0 0.0 0.0 0.0 0.0 0.0 0.0 0.0 0.0 0.0 0.0 0.0 0.0 0.0 0.0 0.0 0.0 0.0 0.0 0.0 0.0 0.0 0.0 0.0 0.0 0.0 0.0 0.0 0.0 0.0 0.0 0.0 0.0 0.0 0.0 0.0 0.0 0.0 0.0 0.0 0.0 0.0 0.0 0.0 0.0 0.0 0.0 0.0 0.0 0.0 0.0 0.0 0.0 0.0 0.0 0.0 0.0 0.0 0.0 0.0 0.0 0.0 0.0 0.0 0.0 0.0 0.0 0.0 0.0 0.0 0.0 0.0 0.0 0.0 0.0 0.0 0.0 0.0 0.0 0.0 0.0 0.0 0.0 0.0 0.0 0.0 0.0 0.0 0.0 0.0 0.0 0.0 0.0 0.0 0.0 0.0 0.0 0.0 0.0 0.0 0.0 0.0 0.0 0.0 0.0 0.0 0.0 0.0 0.0 0.0 0.0 0.0 0.0 0.0 0.0 0.0 0.0 0.0 0.0 0.0 0.0 0.0 0.0 0.0 0.0 0.0 0.0 0.0 0.0 0.0 0.0 0.0 0.0 0.0 0.0 0.0 0.0 0.0 0.0 0.0 0.0 0.0 0.0 0.0 0.0 0.0 0.0 0.0 0.0 0.0 0.0 0.0 0.0 0.0 0.0 0.0 0.0 0.0 0.0 0.0 0.0 0.0 0.0 0.0 0.0 0.0 0.0 0.0 0.0 0.0 0.0 0.0 0.0 0.0 0.0 0.0 0.0 0.0 0.0 0.0 0.0 0.0 0.0 0.0 0.0 0.0 0.0 0.0 0.0 0.0 0.0 0.0 0.0 0.0 0.0 0.0 0.0 0.0 0.0 0.0 0.0 0.0 0.0 0.0 0.0 0.0 0.0 0.0 0.0 0.0 0.0 0.0 0.0 0.0 0.0 0.0 0.0 0.0 0.0 0.0 0.0 0.0 0.0 0.0 0.0 0.0 0.0 0.0 0.0 0.0 0.0 0.0 0.0 0.0 0.0 0.0 0.0 0.0 0.0 0.0 0.0 0.0 0.0 0.0 0.0 0.0 0.0 0.0 0.0 0.0 0.0 0.0 0.0 0.0 0.0 0.0 0.0 0.0 0.0 0.0 0.0 0.0 0.0 0.0 0.0 0.0 0.0 0.0 0.0 0.0 0.0 0.0 0.0 0.0 0.0 0.0 0.0 0.0 0.0 0.0 0.0 0.0 0.0 0.0 0.0 0.0 0.0 0.0 0.0 0.0 0.0 0.0 0.0 0.0 0.0 0.0 0.0 0.0 0.0 0.0 0.0 0.0 0.0 0.0 0.0 0.0 0.0 0.0 0.0 0.0 0.0 0.0 0.0 0.0 0.0 0.0 0.0 0.0 0.0 0.0 0.0 0.0 0.0 0.0 0.0 0.0 0.0 0.0 0.0 0.0 0.0 0.0 0.0 0.0 0.0 0.0 0.0 0.0 0.0 0.0 0.0 0.0 0.0 0.0 0.0 0.0 0.0 0.0 0.0 0.0 0.0 0.0 0.0 0.0 0.0 0.0 0.0 0.0 0.0 0.0 0.0 0.0 0.0 0.0 0.0 0.0 0.0 0.0 0.0 0.0 0.0 0.0 0.0 0.0 0.0 0.0 0.0 0.0 0.0 0.0 0.0 0.0 0.0 0.0 0.0 0.0 0.0 0.0 0.0 0.0 0.0 0.0 0.0 0.0 0.0 0.0 0.0 0.0 0.0 0.0 0.0 0.0 0.0 0.0 0.0 0.0 0.0 0.0 0.0 0.0 0.0 0.0 0.0 0.0 0.0 0.0 0.0 0.0 0.0 0.0 0.0 0.0 0.0 0.0 0.0 0.0 0.0 0.0 0.0 0.0 0.0 0.0 0.0 0.0 0.0 0.0 0.0 0.0 0.0 0.0 0.0 0.0 0.0 0.0 0.0 0.0 0.0 0.95682013 0.36063769 0.23040327 0.68237895 0.95001251 1.9533163 1.3400506 0.48250729 0.35067952 0.98006684 1.3477715000000001 2.6322188 1.7594221999999997 0.59794253 0.50970918 1.3347653 1.8079523999999998 3.3887513 2.2175224 0.70136845 0.72028458 1.7618976999999998 2.3451176 4.2578354 2.7282951 0.78834629 1.0018624 2.2899835 2.9920354 5.6098299 3.5182722 1.0143862 1.4064043 2.9712927000000002 3.8049769 10.871036 7.203905099999999 3.1922523999999997 2.3016753 3.9296822999999996 4.8889618 28.809 20.239803 10.497689999999999 5.1310124 5.4925284 6.4513483 70.06716899999999 49.348225 26.200571 11.669877 8.3536949 8.8588371 141.76547 97.829796 51.361216999999996 22.330973 13.278334 12.651110000000001 230.85979 156.17076 80.505783 35.07056 20.574823000000002 18.473944 301.64981 199.968 101.6965 46.382233 30.44261 26.987848 317.19556 206.71761 105.85288999999999 55.968081999999995 43.825508 38.784797999999995 269.38815 176.45665 99.260757 69.923141 61.992034999999994 54.252529 204.19893000000002 143.91951 104.97198 93.622101 85.25698100000001 73.52325400000001 182.29539 149.86774 133.37118999999998 125.55078999999999 113.27463999999999 96.67004399999999 212.58772000000002 188.21616 174.24593000000002 163.28516000000002 146.04183999999998 123.92853000000001 264.88196 238.85201 222.1626 207.04066 184.2477 155.66481000000002 329.76794 299.2179 278.31186 258.25732 228.70187 192.21886999999998 411.87344 373.19125 344.88861 317.93698 279.86105 233.77504 515.25354 462.89578 422.4653 386.19965 337.72577 280.29999 643.53253 567.98401 509.70685 462.12912 401.8129 331.6843 796.7968099999999 685.14618 602.84515 543.8729900000001 471.54830999999996 388.29941 972.7605 806.71338 696.49316 629.8911099999999 547.5199 452.17697000000004 1162.3289 919.52124 785.37653 721.6723 634.02563 528.94495 1347.6591 1007.4116 868.99445 828.98297 743.36584 630.85577 1505.5295 1063.5586 961.9342 976.52911 901.26849 781.0416299999999 1614.559 1095.9584 1102.5255 1209.1144 1151.1549 1017.3573 1681.3903 1153.6099 1354.6512 1588.7938 1551.4948 1391.4829 1778.1727 1352.1122 1800.1345 2180.0286 2164.5867 1959.1993 2108.0532 1899.7329 2535.3904 3036.2275 3029.7346 2762.9922 3066.6724 3153.5503 3731.7129 4172.5269 4158.5781 3813.0347 5076.3501 5522.5254 5731.4551 5696.1968 5523.6416 5070.2314 7725.8384 8734.6416 8504.1377 7598.4331 7061.9956 6442.9092 9812.4072 11480.848 11103.35 9501.5059 8578.2715 7787.4028 10773.906 12984.33 12903.825 11018.108 9872.8115 8958.7178 10810.802 13266.902 13698.5 11962.203000000001 10804.837 9853.6475 10520.295 13046.485 13801.843 12382.401000000002 11370.345 10450.267 10297.517 12803.74 13745.621000000001 12567.85 11680.965 10794.081 10228.133 12683.868999999999 13680.073 12625.741000000002 11807.191 10940.808 10294.021 12687.944 13640.601999999999 12604.348999999998 11799.19 10939.086000000001 10432.4 12775.87 13619.55 12512.525 11680.222 10817.221000000001 10394.882 12685.983999999999 13443.313 12293.573 11444.02 10583.216 10149.605 12373.15 13065.243 11927.774 11083.86 10236.044 9727.5566 11854.136 12490.659 11410.486 10597.761 9775.7705 9176.248 11160.773000000001 11738.427 10750.77 9993.3164 9209.7119 8524.0303 10325.896999999999 10845.911 9974.3193 9288.2666 8554.123 7801.1064 9410.8486 9875.6748 9119.4658 8510.3223 7833.1206 7038.918 8460.5938 8877.002 8229.1279 7690.4839 7075.0791 6229.5596 7495.0605 7885.4453 7336.6343 6863.7612 6311.3389 5357.9756 6513.1343 6925.6201 6476.4585 6067.4238 5574.9839 4451.8354 5550.1851 6035.8125 5688.7163 5336.1514 4894.5137 3725.8701 4726.3018 5245.9082 5000.4419 4686.5039 4285.0791 3311.3118 4121.7534 4607.957 4424.457 4125.4839 3752.9316 3213.7534 3627.1941 4125.3213 3978.6626 3670.0771 3301.7976 3032.563 3717.2458 3671.6143 3337.0476 2941.6523 2461.0239 3193.7766 3419.4077 3109.5576 2681.02 2414.801 3026.9822 2918.6272 2501.2644 1870.8218 2326.4321 2612.0093 2343.9097 1555.0175 2005.5833 2086.7534 1253.0111 1564.5387 1428.9596 933.39044 1.0557016000000001 1.0550416 1.0013976 0.92661017 0.84781504 0.77488148 0.71378851 0.66806155 0.63982856 1.4883084 1.4811219999999998 1.4018488000000002 1.2944158000000001 1.1813692 1.0766586999999999 0.98891139 0.92325073 0.88273233 1.9806256000000002 1.9613525 1.8511493000000003 1.7062162 1.5541204 1.4131751000000001 1.2949891000000002 1.2065464 1.1519841 2.5449541 2.506079 2.3584577999999996 2.1699957999999997 1.9729543999999999 1.790284 1.6369444 1.5221206 1.4512695 3.2145438 3.1468978 2.9525832999999997 2.7110226 2.4595550999999998 2.2262583 2.0300908 1.8830098000000002 1.7921916000000002 4.0463324 3.9381552 3.6825193999999994 3.3720807999999995 3.0501342 2.7510569 2.4990262999999997 2.3097477000000004 2.1927621 5.1327915 4.961371400000001 4.618876 4.2132392 3.7942746 3.4045579 3.0754921000000004 2.8279933999999995 2.6749082000000004 6.6315489 6.3387246 5.8596711 5.3133335 4.7543135 4.2349682 3.7962985000000002 3.4662447 3.2620926 8.8060026 8.257034299999999 7.5415053 6.774147999999999 6.0059986 5.297924500000001 4.7018428 4.254207599999999 3.9776809 12.045959 10.987041 9.850598300000001 8.7251911 7.6396742 6.6560335 5.8351755 5.221878500000001 4.8441634 16.843603 14.875765 13.021192999999998 11.322607000000001 9.7584944 8.3768139 7.2402177 6.3982644 5.8823266 23.720957000000002 20.303114 17.313705 14.737556 12.471857 10.52885 8.959798800000002 7.8109193 7.1117558 33.133990999999995 27.619356 22.977251000000003 19.135431 15.884889000000001 13.177748999999999 11.035797 9.488776199999998 8.5552664 45.400467 37.091976 30.211423999999997 24.653126 20.087763 16.38438 13.513695000000002 11.470886 10.249991 60.701519 48.886696 39.144424 31.384851 25.151817 20.210539 16.455778 13.824860000000001 12.268927 79.152664 63.08375899999999 49.836384 39.385582 31.140518 24.738848 19.968817 16.680183 14.757563000000001 100.87339 79.716713 62.305446999999994 48.698612 38.144436 30.115807 24.253695999999998 20.282541000000002 17.990925 125.98333999999998 98.806282 76.573044 59.413647 46.349796000000005 36.627323 29.684841 25.0749 22.455141 154.59122 120.3901 92.73793 71.768982 56.15440400000001 44.817833 36.926407 31.808931 28.954924 186.76595 144.58737 111.10941000000001 86.320198 68.345451 55.660633 47.087357 41.684090000000005 38.741184000000004 222.59261 171.77028 132.44771 104.20258000000001 84.349503 70.777565 61.905338 56.499680000000005 53.64165500000001 262.44934 202.92931000000002 158.35924 127.503 106.54852 92.68705 83.930161 78.786766 76.16001899999999 307.62289 240.28502000000003 191.84792 159.71278 138.61801 125.03114 116.65756999999999 111.87191000000001 109.49656 361.32565 288.11765 237.94133 206.15553 185.78316 172.68958 164.53308 159.80389 157.42877 430.10529 353.6778 304.20309 274.21445 254.84328 241.664 232.73743 227.07324 223.993 525.6936599999999 448.06589 400.95972 373.18716 353.84542999999996 338.65778 326.71625 318.10895 312.96173 667.66931 587.34393 541.3134200000001 513.78809 491.42040999999995 470.39999000000006 451.52399 436.64539 427.22362999999996 886.4536099999999 794.20111 741.50006 707.70715 676.1145 642.9993900000001 611.25861 585.22247 568.32495 1223.6378 1098.7871 1021.5312 967.75317 916.18646 861.67365 808.84979 765.0466299999999 736.3804299999999 1725.7773 1535.6584 1404.276 1307.7906 1219.6383 1130.741 1046.0896 976.10895 930.25769 2430.7703 2134.6685 1910.3759 1740.3619 1593.1499 1453.1371 1323.5029 1217.3077 1147.8654 3350.1653 2906.96 2548.6375 2270.8696 2038.8875 1828.7266 1639.522 1486.1827 1386.2144 4452.457 3830.864 3305.1848 2890.0789 2549.7715 2251.4385 1988.7745 1777.9299 1640.876 5656.7949 4845.395 4137.3481 3568.895 3105.4717 2706.4102 2360.0737 2083.9624 1904.8882 6845.5137 5858.6846 4977.7759 4259.3706 3671.8755 3169.0383 2735.5649 2391.2107 2168.1409 7897.1904 6771.98 5749.9053 4904.0293 4206.5659 3608.3569 3092.9553 2683.7151 2418.6179 8724.9707 7509.4614 6390.0625 5451.668 4669.7661 3994.4385 3410.4333 2945.8457 2644.595 9298.8057 8037.2588 6864.0532 5870.6782 5034.1401 4304.8833 3670.387 3163.9622 2835.051 9639.5791 8362.7119 7169.7153 6152.8828 5288.6167 4527.9834 3861.6897 3327.8896 2980.5845 9791.0137 8516.6719 7325.5762 6306.9883 5435.1597 4661.6201 3979.9185 3431.9441 3074.8721 9796.335 8533.7432 7356.5068 6349.1221 5483.1431 4710.3794 4026.3589 3475.1873 3115.6465 9684.1406 8439.6074 7283.6162 6295.478 5444.3813 4682.4575 4006.3196 3460.752 3104.6658 9466.6689 8248.0205 7120.689 6158.8843 5330.1611 4587.2852 3927.3677 3394.6365 3046.8989 9146.7773 7964.9038 6875.9419 5948.8643 5150.3276 4434.2363 3797.9985 3284.4729 2949.3752 8726.6563 7594.7104 6555.9526 5673.5571 4913.7822 4232.2573 3626.8123 3138.4214 2819.929 8213.7305 7145.2378 6169.0142 5341.6245 4629.2686 3989.9092 3422.001 2964.2617 2666.0293 7622.644 6629.4771 5726.584 4963.2593 4305.9902 3715.5605 3191.1438 2768.863 2494.0417 6974.4141 6065.1597 5243.2432 4550.4204 3953.9336 3417.6709 2941.3877 2558.2505 2309.2009 6294.2549 5473.3755 4735.9126 4116.5425 3583.885 3105.0066 2679.854 2338.2097 2116.3938 5609.6445 4877.0068 4222.792 3675.8384 3206.9824 2786.4238 2413.6875 2114.6104 1920.6774 4948.1045 4298.7065 3721.8589 3242.2219 2833.9429 2470.2566 2149.5244 1892.9236 1726.7993 4334.2632 3758.5786 3249.2864 2828.3181 2474.3818 2163.7456 1892.8585 1677.4708 1538.4047 3784.8374 3271.7864 2818.0374 2444.7983 2136.5605 1872.8678 1647.7904 1471.053 1357.5814 3305.0591 2845.9375 2436.8049 2100.042 1827.5085 1602.6688 1417.3931 1275.2487 1185.0496 2891.323 2480.1016 2108.9175 1799.7432 1553.2125 1357.9525 1204.635 1091.3475 1021.025 2540.1213 2166.1267 1831.0618 1545.8401 1318.1129 1143.5182 1013.282 921.6325099999999 866.6297 2259.426 1897.957 1593.9379 1334.3762 1123.3989 962.96545 847.5228900000001 769.85712 724.9395099999999 2063.0369 1685.8148 1391.3724 1155.6586 964.14722 816.2067900000001 709.94824 639.79065 600.09998 1934.5006 1549.1404 1236.8578 1005.3681 830.61395 696.82623 598.76819 532.7139900000001 494.95325 1817.5743 1468.8618 1149.4108 899.81915 722.15527 596.79199 507.26654 445.72695999999996 409.39536 1605.0817 1384.4554 1100.0017 844.82751 650.8367900000001 517.62787 430.22427000000005 373.31744 339.75537 1153.8441 1186.6522 1019.0413 799.3290400000001 603.63458 459.99075 367.49481000000003 312.22885 281.74075 666.98798 764.37146 799.57208 695.2689799999999 541.69196 407.33038 315.90216000000004 262.56851 234.85367999999997 506.17435 453.78058 467.39917 406.17303 311.37457 235.03706 190.52585 168.70973 323.7941 256.17606 198.74487 139.83142 98.928894 76.919823 234.43901 148.50197 96.991653 70.03022 0.6302852 0.63982874 0.66806167 0.71378869 0.77488172 0.84781545 0.92661047 1.001398 0.86904216 0.88273257 0.92325103 0.98891157 1.0766591 1.1813695 1.2944161 1.4018489 1.1335539 1.1519843 1.2065465 1.2949898000000002 1.4131756000000002 1.5541208 1.7062163000000001 1.8511493000000003 1.4273388 1.4512698999999998 1.5221212 1.636945 1.7902846000000001 1.972955 2.169996 2.3584582999999997 1.7615107 1.7921916000000002 1.8830101000000001 2.0300915 2.2262588 2.4595559 2.7110224 2.9525837999999998 2.1532287999999995 2.1927626 2.3097482000000005 2.4990273 2.7510571 3.0501347 3.3720807999999995 3.6825209 2.6231606 2.6749082000000004 2.8279941 3.0754926 3.4045582000000003 3.794275 4.2132392 4.6188769 3.1930902000000003 3.2620928 3.4662447 3.7962985000000002 4.2349687000000005 4.7543139000000005 5.313333 5.859670599999999 3.8842828000000003 3.9776809 4.254207599999999 4.7018414 5.297924 6.0059986 6.7741485 7.5415058 4.7167735 4.8441634 5.221878500000001 5.8351765 6.6560326000000005 7.639675099999999 8.725192100000001 9.850600199999999 5.708725 5.8823276 6.3982658 7.2402177 8.3768148 9.758496300000001 11.322609 13.021194 6.877259700000001 7.1117558 7.810920200000001 8.9598007 10.528852 12.471862 14.737559 17.313707 8.2434311 8.5552692 9.48878 11.035802 13.177751999999998 15.884895000000002 19.135437 22.977255 9.844075199999999 10.249997 11.470892 13.513701000000001 16.384388 20.087774 24.653133 30.211428 11.754361 12.268931 13.824864999999999 16.45579 20.210545 25.151820999999998 31.384854999999998 39.14444 14.125554000000001 14.757570000000001 16.680191 19.96883 24.738861 31.140532 39.38559 49.836399 17.242874 17.990929 20.282555 24.253714000000002 30.115820000000003 38.144447 48.69862 62.30545 21.607185 22.455154 25.074917000000003 29.684858000000002 36.627338 46.349819000000004 59.413662 76.573082 28.040903000000004 28.954935 31.808945 36.926426 44.817856 56.154430000000005 71.769005 92.737946 37.811572999999996 38.741188 41.684104999999995 47.087371999999995 55.660652 68.34548199999999 86.320236 111.10941000000001 52.754996999999996 53.641663 56.499699 61.905342000000005 70.777588 84.349533 104.2026 132.44777 75.363152 76.160011 78.786774 83.93019100000001 92.687073 106.54856000000001 127.50303000000001 158.35928 108.79025 109.49655 111.87191000000001 116.65758999999998 125.03116999999999 138.61803999999998 159.71284 191.84792 156.71809 157.42876 159.80388 164.53308 172.68962 185.78319 206.15558000000001 237.94133 223.02507000000003 223.99302999999998 227.07332999999997 232.73746 241.66402999999997 254.84326000000001 274.21445 304.20309 311.2569 312.96173 318.10895 326.71628 338.65778 353.84546 373.18723 400.95966 424.01205 427.22375 436.64542 451.52405 470.39999000000006 491.42044000000004 513.78809 541.31335 562.4953 568.32495 585.22253 611.25873 642.99933 676.1145 707.7072099999999 741.50012 726.44678 736.38055 765.0466299999999 808.8496700000001 861.6735800000001 916.18658 967.75317 1021.5313 914.3499800000001 930.25781 976.1087 1046.0897 1130.741 1219.6383 1307.7909 1404.2761 1123.7749 1147.8651 1217.3075 1323.5031 1453.1371 1593.1501 1740.3617 1910.3759 1351.5531 1386.2141 1486.1827 1639.5221 1828.7264 2038.8877 2270.8696 2548.6382 1593.385 1640.8763 1777.9299 1988.7743 2251.4385 2549.772 2890.0789 3305.1848 1842.8661 1904.8879 2083.9629 2360.0742 2706.4104 3105.4724 3568.895 4137.3467 2090.8994 2168.1411 2391.2107 2735.5654 3169.0391 3671.8755 4259.3706 4977.7744 2326.812 2418.6182 2683.7158 3092.9563 3608.3579 4206.5659 4904.0283 5749.9053 2540.2219 2644.5952 2945.8457 3410.4336 3994.4382 4669.7666 5451.6665 6390.064 2721.0205 2835.0513 3163.9626 3670.387 4304.8838 5034.1401 5870.6782 6864.0532 2860.0977 2980.5857 3327.8901 3861.6899 4527.9834 5288.6162 6152.8823 7169.7139 2950.928 3074.8723 3431.9441 3979.9185 4661.6216 5435.1587 6306.9883 7325.5771 2990.7983 3115.6462 3475.1868 4026.3594 4710.3789 5483.1421 6349.1226 7356.5078 2980.9966 3104.6663 3460.752 4006.3196 4682.458 5444.3813 6295.4775 7283.6162 2926.1326 3046.8987 3394.6372 3927.3667 4587.2847 5330.1611 6158.8833 7120.689 2833.0239 2949.376 3284.4734 3797.998 4434.2354 5150.3276 5948.8628 6875.9419 2709.3879 2819.9297 3138.4229 3626.813 4232.2568 4913.7803 5673.5562 6555.9531 2562.5793 2666.0303 2964.2612 3422.0015 3989.9097 4629.2686 5341.6226 6169.0137 2398.7788 2494.0415 2768.8628 3191.144 3715.561 4305.9902 4963.2583 5726.585 2222.9385 2309.2002 2558.2495 2941.3877 3417.6702 3953.9336 4550.4204 5243.2432 2039.6211 2116.3933 2338.2095 2679.8538 3105.0054 3583.8845 4116.5425 4735.9131 1853.5981 1920.6766 2114.6099 2413.6868 2786.4236 3206.9824 3675.8376 4222.792 1669.3793 1726.799 1892.9229 2149.5234 2470.2561 2833.9424 3242.2212 3721.8584 1490.3823 1538.4044 1677.4702 1892.8584 2163.7451 2474.3809 2828.3179 3249.2861 1318.472 1357.5811 1471.053 1647.7896 1872.8678 2136.5598 2444.7976 2818.0376 1154.1012 1185.0496 1275.2484 1417.3925 1602.6686 1827.5083 2100.042 2436.8052 997.12445 1021.0248 1091.3472 1204.6348 1357.9521 1553.2123 1799.7427 2108.9175 848.2385300000001 866.6297599999999 921.6323199999999 1013.2816 1143.5179 1318.1129 1545.8398 1831.0618 710.21533 724.93964 769.85699 847.52264 962.9653900000001 1123.3989 1334.3763 1593.9376 587.26563 600.10004 639.7905900000001 709.94824 816.20673 964.14722 1155.6586 1391.3723 482.68204000000003 494.95325 532.7139900000001 598.76819 696.82623 830.61395 1005.3681 1236.8579 397.36331 409.39532 445.72684000000004 507.26648 596.79199 722.15521 899.81927 1149.4109 328.5556 339.75537 373.31737999999996 430.22437 517.6279900000001 650.8367900000001 844.8273300000001 1100.0018 271.79611 281.74075 312.22882000000004 367.49484 459.99080999999995 603.63464 799.3291 1019.0415 226.13539 234.85358 262.56845 315.90216000000004 407.33035 541.69208 695.2691 799.57196 162.0665 168.70967 190.52585 235.03706 311.37453999999997 406.17319 467.39910999999995 453.78052 70.09005 76.919853 98.928894 139.83144 198.7449 256.17599 323.79404 61.521317 70.03022 96.991646 148.50195 234.43901 1.0550419 1.0557020000000001 0.95001292 0.68237936 0.23040369 0.36063737 0.95682025 1.4811225000000001 1.4883087 1.3477721 0.98006713 0.35068008 0.48250699 1.3400506 1.9533163 1.9613528999999998 1.9806259999999998 1.8079525 1.334766 0.50970978 0.59794211 1.7594221999999997 2.6322193 2.5060794 2.5449547999999997 2.345119 1.7618985 0.72028536 0.70136786 2.2175224 3.388751 3.1468985000000003 3.214545 2.9920362999999996 2.2899845 1.0018635 0.7883451 2.7282951 4.2578349 3.9381549 4.046333799999999 3.8049777000000002 2.9712939 1.4064051000000002 1.0143843000000001 3.5182722 5.6098309 4.9613719000000005 5.1327939 4.888964700000001 3.9296849000000003 2.3016782000000005 3.1922517000000004 7.2039061 10.871034 6.3387237 6.6315508 6.4513512 5.4925308 5.131015799999999 10.497692 20.239815 28.809 8.257036200000002 8.806008300000002 8.858839 8.3536997 11.669881 26.200582999999998 49.348240000000004 70.06716899999999 10.987044000000001 12.045959 12.651114999999999 13.278336999999999 22.330984 51.361228999999994 97.829826 141.76549 14.875769 16.843607000000002 18.473951 20.574825 35.070572 80.505814 156.17082 230.8598 20.30312 23.720963 26.987854 30.442612 46.382233 101.69653000000001 199.96803 301.6499 27.619364 33.134007000000004 38.784809 43.825516 55.968081999999995 105.85288999999999 206.71764 317.19565 37.091984000000004 45.400482000000004 54.25254399999999 61.992034999999994 69.92315699999999 99.260773 176.45671000000002 269.38828 48.886711 60.701542 73.52327700000001 85.25698100000001 93.622108 104.97198 143.91956000000002 204.19897 63.083778 79.15271 96.670059 113.27465 125.55078999999999 133.37117 149.86772 182.29539 79.716728 100.87340999999999 123.9285 146.04181 163.28517 174.24594 188.21614 212.58771000000002 98.80630500000001 125.98333999999998 155.66481000000002 184.2477 207.04068 222.1626 238.85204 264.88196 120.39008000000001 154.59123 192.21893 228.70187 258.25735 278.31192000000004 299.21799 329.76804 144.58739 186.76601000000002 233.77508999999998 279.86105 317.93703999999997 344.8887 373.19131 411.87347 171.77034 222.59257999999997 280.29992999999996 337.7258 386.19965 422.46539 462.89581 515.25366 202.92934 262.44934 331.6843 401.8129 462.12920999999994 509.70690999999994 567.9841299999999 643.53265 240.28505 307.62282999999996 388.29935 471.54830999999996 543.87286 602.84515 685.14636 796.79675 288.11768 361.32559 452.177 547.5199 629.8911099999999 696.4930400000001 806.7133200000001 972.7605 353.67783 430.10537999999997 528.9450099999999 634.02576 721.6723599999999 785.37665 919.52124 1162.3289 448.06589 525.69373 630.8557099999999 743.36578 828.98291 868.99451 1007.4115 1347.6592 587.34406 667.66925 781.04169 901.2683699999999 976.52911 961.93433 1063.5586 1505.5294 794.20111 886.4536099999999 1017.3575 1151.1549 1209.1145 1102.5255 1095.9581 1614.5592 1098.7872 1223.6378 1391.483 1551.4948 1588.7938 1354.6512 1153.6099 1681.3903 1535.6584 1725.7771 1959.1992 2164.5867 2180.0283 1800.1348 1352.1124 1778.1727 2134.6685 2430.77 2762.9922 3029.7344 3036.2285 2535.3906 1899.7328 2108.0532 2906.9604 3350.1655 3813.0347 4158.5781 4172.5269 3731.7139 3153.5508 3066.6721 3830.8638 4452.4565 5070.2319 5523.6421 5696.1982 5731.4551 5522.5254 5076.3501 4845.396 5656.7964 6442.9092 7061.9956 7598.4331 8504.1377 8734.6406 7725.8369 5858.6831 6845.5142 7787.4009 8578.2715 9501.5078 11103.353000000001 11480.848 9812.4082 6771.98 7897.1909 8958.7188 9872.8125 11018.108 12903.828000000001 12984.331 10773.906 7509.46 8724.9688 9853.6475 10804.836000000001 11962.204 13698.503 13266.903 10810.802 8037.2568 9298.8047 10450.267 11370.343 12382.4 13801.848999999998 13046.488000000001 10520.296 8362.71 9639.5791 10794.079 11680.966999999999 12567.851999999999 13745.623 12803.742 10297.517 8516.6709 9791.0107 10940.806 11807.19 12625.742 13680.073 12683.871000000001 10228.135 8533.7422 9796.3359 10939.087 11799.191 12604.351 13640.6 12687.943000000001 10294.021 8439.6055 9684.1387 10817.22 11680.222 12512.521 13619.55 12775.87 10432.401 8248.0205 9466.667 10583.214 11444.02 12293.572 13443.312 12685.986 10394.883 7964.9048 9146.7754 10236.046 11083.857 11927.776000000002 13065.245 12373.146999999999 10149.608 7594.7114 8726.6572 9775.7715 10597.763 11410.486 12490.658000000001 11854.136 9727.5576 7145.2363 8213.7285 9209.7119 9993.3184 10750.768999999998 11738.423999999999 11160.773000000001 9176.249 6629.4771 7622.6431 8554.123 9288.2656 9974.3184 10845.911 10325.896999999999 8524.0303 6065.1611 6974.4155 7833.1187 8510.3232 9119.4688 9875.6748 9410.8477 7801.105 5473.3755 6294.2554 7075.0786 7690.4849 8229.1289 8877.001 8460.5938 7038.9185 4877.0068 5609.6445 6311.3394 6863.7617 7336.6323 7885.4453 7495.0596 6229.5591 4298.7075 4948.1064 5574.9839 6067.4238 6476.458 6925.6201 6513.1348 5357.9761 3758.5781 4334.2622 4894.5132 5336.1514 5688.7158 6035.814 5550.1846 4451.8359 3271.7864 3784.8386 4285.0791 4686.5029 5000.4434 5245.9072 4726.3003 3725.8694 2845.9382 3305.0598 3752.9321 4125.4834 4424.457 4607.957 4121.7529 3311.3115 2480.1013 2891.3228 3301.7981 3670.0779 3978.6626 4125.3208 3627.1934 3213.7527 2166.127 2540.1218 2941.6523 3337.0481 3671.6155 3717.2463 3032.5637 1897.957 2259.426 2681.0195 3109.5576 3419.4089 3193.7773 2461.0242 1685.8148 2063.0369 2501.2644 2918.6267 3026.9824 2414.8013 1549.1405 1934.5006 2343.9102 2612.0093 2326.4321 1870.8213 1468.8619 1817.5743 2086.7532 2005.5834 1555.0175 1384.4554 1605.0812 1564.5387 1253.0115 1186.652 1153.8446 933.3905599999999 1428.9594 764.3716400000001 666.98779 506.17432 
Vel 3 2975 float
0.0 0.0 0.0 0.0 0.0 0.0 0.0 0.0 0.0 0.0 0.0 0.0 0.0 0.0 0.0 0.0 0.0 0.0 0.0 0.0 0.0 0.0 0.0 0.0 0.0 0.0 0.0 0.0 0.0 0.0 0.0 0.0 0.0 0.0 0.0 0.0 0.0 0.0 0.0 0.0 0.0 0.0 0.0 0.0 0.0 0.0 0.0 0.0 0.0 0.0 0.0 0.0 0.0 0.0 0.0 0.0 0.0 0.0 0.0 0.0 0.0 0.0 0.0 0.0 0.0 0.0 0.0 0.0 0.0 0.0 0.0 0.0 0.0 0.0 0.0 0.0 0.0 0.0 0.0 0.0 0.0 0.0 0.0 0.0 0.0 0.0 0.0 0.0 0.0 0.0 0.0 0.0 0.0 0.0 0.0 0.0 0.0 0.0 0.0 0.0 0.0 0.0 0.0 0.0 0.0 0.0 0.0 0.0 0.0 0.0 0.0 0.0 0.0 0.0 0.0 0.0 0.0 0.0 0.0 0.0 0.0 0.0 0.0 0.0 0.0 0.0 0.0 0.0 0.0 0.0 0.0 0.0 0.0 0.0 0.0 0.0 0.0 0.0 0.0 0.0 0.0 0.0 0.0 0.0 0.0 0.0 0.0 0.0 0.0 0.0 0.0 0.0 0.0 0.0 0.0 0.0 0.0 0.0 0.0 0.0 0.0 0.0 0.0 0.0 0.0 0.0 0.0 0.0 0.0 0.0 0.0 0.0 0.0 0.0 0.0 0.0 0.0 0.0 0.0 0.0 0.0 0.0 0.0 0.0 0.0 0.0 0.0 0.0 0.0 0.0 0.0 0.0 0.0 0.0 0.0 0.0 0.0 0.0 0.0 0.0 0.0 0.0 0.0 0.0 0.0 0.0 0.0 0.0 0.0 0.0 0.0 0.0 0.0 0.0 0.0 0.0 0.0 0.0 0.0 0.0 0.0 0.0 0.0 0.0 0.0 0.0 0.0 0.0 0.0 0.0 0.0 0.0 0.0 0.0 0.0 0.0 0.0 0.0 0.0 0.0 0.0 0.0 0.0 0.0 0.0 0.0 0.0 0.0 0.0 0.0 0.0 0.0 0.0 0.0 0.0 0.0 0.0 0.0 0.0 0.0 0.0 0.0 0.0 0.0 0.0 0.0 0.0 0.0 0.0 0.0 0.0 0.0 0.0 0.0 0.0 0.0 0.0 0.0 0.0 0.0 0.0 0.0 0.0 0.0 0.0 0.0 0.0 0.0 0.0 0.0 0.0 0.0 0.0 0.0 0.0 0.0 0.0 0.0 0.0 0.0 0.0 0.0 0.0 0.0 0.0 0.0 0.0 0.0 0.0 0.0 0.0 0.0 0.0 0.0 0.0 0.0 0.0 0.0 0.0 0.0 0.0 0.0 0.0 0.0 0.0 0.0 0.0 0.0 0.0 0.0 0.0 0.0 0.0 0.0 0.0 0.0 0.0 0.0 0.0 0.0 0.0 0.0 0.0 0.0 0.0 0.0 0.0 0.0 0.0 0.0 0.0 0.0 0.0 0.0 0.0 0.0 0.0 0.0 0.0 0.0 0.0 0.0 0.0 0.0 0.0 0.0 0.0 0.0 0.0 0.0 0.0 0.0 0.0 0.0 0.0 0.0 0.0 0.0 0.0 0.0 0.0 0.0 0.0 0.0 0.0 0.0 0.0 0.0 0.0 0.0 0.0 0.0 0.0 0.0 0.0 0.0 0.0 0.0 0.0 0.0 0.0 0.0 0.0 0.0 0.0 0.0 0.0 0.0 0.0 0.0 0.0 0.0 0.0 0.0 0.0 0.0 0.0 0.0 0.0 0.0 0.0 0.0 0.0 0.0 0.0 0.0 0.0 0.0 0.0 0.0 0.0 0.0 0.0 0.0 0.0 0.0 0.0 0.0 0.0 0.0 0.0 0.0 0.0 0.0 0.0 0.0 0.0 0.0 0.0 0.0 0.0 0.0 0.0 0.0 0.0 0.0 0.0 0.0 0.0 0.0 0.0 0.0 0.0 0.0 0.0 0.0 0.0 0.0 0.0 0.0 0.0 0.0 0.0 0.0 0.0 0.0 0.0 0.0 0.0 0.0 0.0 0.0 0.0 0.0 0.0 0.0 0.0 0.0 0.0 0.0 0.0 0.0 0.0 0.0 0.0 0.0 0.0 0.0 0.0 0.0 0.0 0.0 0.0 0.0 0.0 0.0 0.0 0.0 0.0 0.0 0.0 0.0 0.0 0.0 0.0 0.0 0.0 0.0 0.0 0.0 0.0 0.0 0.0 0.0 0.0 0.0 0.0 0.0 0.0 0.0 0.0 0.0 0.0 0.0 0.0 0.0 0.0 0.0 0.0 0.0 0.0 0.0 0.0 0.0 0.0 0.0 0.0 0.0 0.0 0.0 0.0 0.0 0.0 0.0 0.0 0.0 0.0 0.0 0.0 0.0 0.0 0.0 0.0 0.0 0.0 0.0 0.0 0.0 0.0 0.0 0.0 0.0 0.0 0.0 0.0 0.0 0.0 0.0 0.0 0.0 0.0 0.0 0.0 0.0 0.0 0.0 0.0 0.0 0.0 0.0 0.0 0.0 0.0 0.0 0.0 0.0 0.0 0.0 0.0 0.0 0.0 0.0 0.0 0.0 0.0 0.0 0.0 0.0 0.0 0.0 0.0 0.0 0.0 0.0 0.0 0.0 0.0 0.0 0.0 0.0 0.0 0.0 0.0 0.0 0.0 0.0 0.0 0.0 0.0 0.0 0.0 0.0 0.0 0.0 0.0 0.0 0.0 0.0 0.0 0.0 0.0 0.0 0.0 0.0 0.0 0.0 0.0 0.0 0.0 0.0 0.0 0.0 0.0 0.0 0.0 0.0 0.0 0.0 0.0 0.0 0.0 0.0 0.0 0.0 0.0 0.0 0.0 0.0 0.0 0.0 0.0 0.0 0.0 0.0 0.0 0.0 0.0 0.0 0.0 0.0 0.0 0.0 0.0 0.0 0.0 0.0 0.0 0.0 0.0 0.0 0.0 0.0 0.0 0.0 0.0 0.0 0.0 0.0 0.0 0.0 0.0 0.0 0.0 0.0 0.0 0.0 0.0 0.0 0.0 0.0 0.0 0.0 0.0 0.0 0.0 0.0 0.0 0.0 0.0 0.0 0.0 0.0 0.0 0.0 0.0 0.0 0.0 0.0 0.0 0.0 0.0 0.0 0.0 0.0 0.0 0.0 0.0 0.0 0.0 0.0 0.0 0.0 0.0 0.0 0.0 0.0 0.0 0.0 0.0 0.0 0.0 0.0 0.0 0.0 0.0 0.0 0.0 0.0 0.0 0.0 0.0 0.0 0.0 0.0 0.0 0.0 0.0 0.0 0.0 0.0 0.0 0.0 0.0 0.0 0.0 0.0 0.0 0.0 0.0 0.0 0.0 0.0 0.0 0.0 0.0 0.0 0.0 0.0 0.0 0.0 0.0 0.0 0.0 0.0 0.0 0.0 0.0 0.0 0.0 0.0 0.0 0.0 0.0 0.0 0.0 0.0 0.0 0.0 0.0 0.0 0.0 0.0 0.0 0.0 0.0 0.0 0.0 0.0 0.0 0.0 0.0 0.0 0.0 0.0 0.0 0.0 0.0 0.0 0.0 0.0 0.0 0.0 0.0 0.0 0.0 0.0 0.0 0.0 0.0 0.0 0.0 0.0 0.0 0.0 0.0 0.0 0.0 0.0 0.0 0.0 0.0 0.0 0.0 0.0 0.0 0.0 0.0 0.0 0.0 0.0 0.0 0.0 0.0 0.0 0.0 0.0 0.0 0.0 0.0 0.0 0.0 0.0 0.0 0.0 0.0 0.0 0.0 0.0 0.0 0.0 0.0 0.0 0.0 0.0 0.0 0.0 0.0 0.0 0.0 0.0 0.0 0.0 0.0 0.0 0.0 0.0 0.0 0.0 0.0 0.0 0.0 0.0 0.0 0.0 0.0 0.0 0.0 0.0 0.0 0.0 0.0 0.0 0.0 0.0 0.0 0.0 0.0 0.0 0.0 0.0 0.0 0.0 0.0 0.0 0.0 0.0 0.0 0.0 0.0 0.0 0.0 0.0 0.0 0.0 0.0 0.0 0.0 0.0 0.0 0.0 0.0 0.0 0.0 0.0 0.0 0.0 0.0 0.0 0.0 0.0 0.0 0.0 0.0 0.0 0.0 0.0 0.0 0.0 0.0 0.0 0.0 0.0 0.0 0.0 0.0 0.0 0.0 0.0 0.0 0.0 0.0 0.0 0.0 0.0 0.0 0.0 0.0 0.0 0.0 0.0 0.0 0.0 0.0 0.0 0.0 0.0 0.0 0.0 0.0 0.0 0.0 0.0 0.0 0.0 0.0 0.0 0.0 0.0 0.0 0.0 0.0 0.0 0.0 0.0 0.0 0.0 0.0 0.0 0.0 0.0 0.0 0.0 0.0 0.0 0.0 0.0 0.0 0.0 0.0 0.0 0.0 0.0 0.0 0.0 0.0 0.0 0.0 0.0 0.0 0.0 0.0 0.0 0.0 0.0 0.0 0.0 0.0 0.0 0.0 0.0 0.0 0.0 0.0 0.0 0.0 0.0 0.0 0.0 0.0 0.0 0.0 0.0 0.0 0.0 0.0 0.0 0.0 0.0 0.0 0.0 0.0 0.0 0.0 0.0 0.0 0.0 0.0 0.0 0.0 0.0 0.0 0.0 0.0 0.0 0.0 0.0 0.0 0.0 0.0 0.0 0.0 0.0 0.0 0.0 0.0 0.0 0.0 0.0 0.0 0.0 0.0 0.0 0.0 0.0 0.0 0.0 0.0 0.0 0.0 0.0 0.0 0.0 0.0 0.0 0.0 0.0 0.0 0.0 0.0 0.0 0.0 0.0 0.0 0.0 0.0 0.0 0.0 0.0 0.0 0.0 0.0 0.0 0.0 0.0 0.0 0.0 0.0 0.0 0.0 0.0 0.0 0.0 0.0 0.0 0.0 0.0 0.0 0.0 0.0 0.0 0.0 0.0 0.0 0.0 0.0 0.0 0.0 0.0 0.0 0.0 0.0 0.0 0.0 0.0 0.0 0.0 0.0 0.0 0.0 0.0 0.0 0.0 0.0 0.0 0.0 0.0 0.0 0.0 0.0 0.0 0.0 0.0 0.0 0.0 0.0 0.0 0.0 0.0 0.0 0.0 0.0 0.0 0.0 0.0 0.0 0.0 0.0 0.0 0.0 0.0 0.0 0.0 0.0 0.0 0.0 0.0 0.0 0.0 0.0 0.0 0.0 0.0 0.0 0.0 0.0 0.0 0.0 0.0 0.0 0.0 0.0 0.0 0.0 0.0 0.0 0.0 0.0 0.0 0.0 0.0 0.0 0.0 0.0 0.0 0.0 0.0 0.0 0.0 0.0 0.0 0.0 0.0 0.0 0.0 0.0 0.0 0.0 0.0 0.0 0.0 0.0 0.0 0.0 0.0 0.0 0.0 0.0 0.0 0.0 0.0 0.0 0.0 0.0 0.0 0.0 0.0 0.0 0.0 0.0 0.0 0.0 0.0 0.0 0.0 0.0 0.0 0.0 0.0 0.0 0.0 0.0 0.0 0.0 0.0 0.0 0.0 0.0 0.0 0.0 0.0 0.0 0.0 0.0 0.0 0.0 0.0 0.0 0.0 0.0 0.0 0.0 0.0 0.0 0.0 0.0 0.0 0.0 0.0 0.0 0.0 0.0 0.0 0.0 0.0 0.0 0.0 0.0 0.0 0.0 0.0 0.0 0.0 0.0 0.0 0.0 0.0 0.0 0.0 0.0 0.0 0.0 0.0 0.0 0.0 0.0 0.0 0.0 0.0 0.0 0.0 0.0 0.0 0.0 0.0 0.0 0.0 0.0 0.0 0.0 0.0 0.0 0.0 0.0 0.0 0.0 0.0 0.0 0.0 0.0 0.0 0.0 0.0 0.0 0.0 0.0 0.0 0.0 0.0 0.0 0.0 0.0 0.0 0.0 0.0 0.0 0.0 0.0 0.0 0.0 0.0 0.0 0.0 0.0 0.0 0.0 0.0 0.0 0.0 0.0 0.0 0.0 0.0 0.0 0.0 0.0 0.0 0.0 0.0 0.0 0.0 0.0 0.0 0.0 0.0 0.0 0.0 0.0 0.0 0.0 0.0 0.0 0.0 0.0 0.0 0.0 0.0 0.0 0.0 0.0 0.0 0.0 0.0 0.0 0.0 0.0 0.0 0.0 0.0 0.0 0.0 0.0 0.0 0.0 0.0 0.0 0.0 0.0 0.0 0.0 0.0 0.0 0.0 0.0 0.0 0.0 0.0 0.0 0.0 0.0 0.0 0.0 0.0 0.0 0.0 0.0 0.0 0.0 0.0 0.0 0.0 0.0 0.0 0.0 0.0 0.0 0.0 0.0 0.0 0.0 0.0 0.0 0.0 0.0 0.0 0.0 0.0 0.0 0.0 0.0 0.0 0.0 0.0 0.0 0.0 0.0 0.0 0.0 0.0 0.0 0.0 0.0 0.0 0.0 0.0 0.0 0.0 0.0 0.0 0.0 0.0 0.0 0.0 0.0 0.0 0.0 0.0 0.0 0.0 0.0 0.0 0.0 0.0 0.0 0.0 0.0 0.0 0.0 0.0 0.0 0.0 0.0 0.0 0.0 0.0 0.0 0.0 0.0 0.0 0.0 0.0 0.0 0.0 0.0 0.0 0.0 0.0 0.0 0.0 0.0 0.0 0.0 0.0 0.0 0.0 0.0 0.0 0.0 0.0 0.0 0.0 0.0 0.0 0.0 0.0 0.0 0.0 0.0 0.0 0.0 0.0 0.0 0.0 0.0 0.0 0.0 0.0 0.0 0.0 0.0 0.0 0.0 0.0 0.0 0.0 0.0 0.0 0.0 0.0 0.0 0.0 0.0 0.0 0.0 0.0 0.0 0.0 0.0 0.0 0.0 0.0 0.0 0.0 0.0 0.0 0.0 0.0 0.0 0.0 0.0 0.0 0.0 0.0 0.0 0.0 0.0 0.0 0.0 0.0 0.0 0.0 0.0 0.0 0.0 0.0 0.0 0.0 0.0 0.0 0.0 0.0 0.0 0.0 0.0 0.0 0.0 0.0 0.0 0.0 0.0 0.0 0.0 0.0 0.0 0.0 0.0 0.0 0.0 0.0 0.0 0.0 0.0 0.0 0.0 0.0 0.0 0.0 0.0 0.0 0.0 0.0 0.0 0.0 0.0 0.0 0.0 0.0 0.0 0.0 0.0 0.0 0.0 0.0 0.0 0.0 0.0 0.0 0.0 0.0 0.0 0.0 0.0 0.0 0.0 0.0 0.0 0.0 0.0 0.0 0.0 0.0 0.0 0.0 0.0 0.0 0.0 0.0 0.0 0.0 0.0 0.0 0.0 0.0 0.0 0.0 0.0 0.0 0.0 0.0 0.0 0.0 0.0 0.0 0.0 0.0 0.0 0.0 0.0 0.0 0.0 0.0 0.0 0.0 0.0 0.0 0.0 0.0 0.0 0.0 0.0 0.0 0.0 0.0 0.0 0.0 0.0 0.0 0.0 0.0 0.0 0.0 0.0 0.0 0.0 0.0 0.0 0.0 0.0 0.0 0.0 0.0 0.0 0.0 0.0 0.0 0.0 0.0 0.0 0.0 0.0 0.0 0.0 0.0 0.0 0.0 0.0 0.0 0.0 0.0 0.0 0.0 0.0 0.0 0.0 0.0 0.0 0.0 0.0 0.0 0.0 0.0 0.0 0.0 0.0 0.0 0.0 0.0 0.0 0.0 0.0 0.0 0.0 0.0 0.0 0.0 0.0 0.0 0.0 0.0 0.0 0.0 0.0 0.0 0.0 0.0 0.0 0.0 0.0 0.0 0.0 0.0 0.0 0.0 0.0 0.0 0.0 0.0 0.0 0.0 0.0 0.0 0.0 0.0 0.0 0.0 0.0 0.0 0.0 0.0 0.0 0.0 0.0 0.0 0.0 0.0 0.0 0.0 0.0 0.0 0.0 0.0 0.0 0.0 0.0 0.0 0.0 0.0 0.0 0.0 0.0 0.0 0.0 0.0 0.0 0.0 0.0 0.0 0.0 0.0 0.0 0.0 0.0 0.0 0.0 0.0 0.0 0.0 0.0 0.0 0.0 0.0 0.0 0.0 0.0 0.0 0.0 0.0 0.0 0.0 0.0 0.0 0.0 0.0 0.0 0.0 0.0 0.0 0.0 0.0 0.0 0.0 0.0 0.0 0.0 0.0 0.0 0.0 0.0 0.0 0.0 0.0 0.0 0.0 0.0 0.0 0.0 0.0 0.0 0.0 0.0 0.0 0.0 0.0 0.0 0.0 0.0 0.0 0.0 0.0 0.0 0.0 0.0 0.0 0.0 0.0 0.0 0.0 0.0 0.0 0.0 0.0 0.0 0.0 0.0 0.0 0.0 0.0 0.0 0.0 0.0 0.0 0.0 0.0 0.0 0.0 0.0 0.0 0.0 0.0 0.0 0.0 0.0 0.0 0.0 0.0 0.0 0.0 0.0 0.0 0.0 0.0 0.0 0.0 0.0 0.0 0.0 0.0 0.0 0.0 0.0 0.0 0.0 0.0 0.0 0.0 0.0 0.0 0.0 0.0 0.0 0.0 0.0 0.0 0.0 0.0 0.0 0.0 0.0 0.0 0.0 0.0 0.0 0.0 0.0 0.0 0.0 0.0 0.0 0.0 0.0 0.0 0.0 0.0 0.0 0.0 0.0 0.0 0.0 0.0 0.0 0.0 0.0 0.0 0.0 0.0 0.0 0.0 0.0 0.0 0.0 0.0 0.0 0.0 0.0 0.0 0.0 0.0 0.0 0.0 0.0 0.0 0.0 0.0 0.0 0.0 0.0 0.0 0.0 0.0 0.0 0.0 0.0 0.0 0.0 0.0 0.0 0.0 0.0 0.0 0.0 0.0 0.0 0.0 0.0 0.0 0.0 0.0 0.0 0.0 0.0 0.0 0.0 0.0 0.0 0.0 0.0 0.0 0.0 0.0 0.0 0.0 0.0 0.0 0.0 0.0 0.0 0.0 0.0 0.0 0.0 0.0 0.0 0.0 0.0 0.0 0.0 0.0 0.0 0.0 0.0 0.0 0.0 0.0 0.0 0.0 0.0 0.0 0.0 0.0 0.0 0.0 0.0 0.0 0.0 0.0 0.0 0.0 0.0 0.0 0.0 0.0 0.0 0.0 0.0 0.0 0.0 0.0 0.0 0.0 0.0 0.0 0.0 0.0 0.0 0.0 0.0 0.0 0.0 0.0 0.0 0.0 0.0 0.0 0.0 0.0 0.0 0.0 0.0 0.0 0.0 0.0 0.0 0.0 0.0 0.0 0.0 0.0 0.0 0.0 0.0 0.0 0.0 0.0 0.0 0.0 0.0 0.0 0.0 0.0 0.0 0.0 0.0 0.0 0.0 0.0 0.0 0.0 0.0 0.0 0.0 0.0 0.0 0.0 0.0 0.0 0.0 0.0 0.0 0.0 0.0 0.0 0.0 0.0 0.0 0.0 0.0 0.0 0.0 0.0 0.0 0.0 0.0 0.0 0.0 0.0 0.0 0.0 0.0 0.0 0.0 0.0 0.0 0.0 0.0 0.0 0.0 0.0 0.0 0.0 0.0 0.0 0.0 0.0 0.0 0.0 0.0 0.0 0.0 0.0 0.0 0.0 0.0 0.0 0.0 0.0 0.0 0.0 0.0 0.0 0.0 0.0 0.0 0.0 0.0 0.0 0.0 0.0 0.0 0.0 0.0 0.0 0.0 0.0 0.0 0.0 0.0 0.0 0.0 0.0 0.0 0.0 0.0 0.0 0.0 0.0 0.0 0.0 0.0 0.0 0.0 0.0 0.0 0.0 0.0 0.0 0.0 0.0 0.0 0.0 0.0 0.0 0.0 0.0 0.0 0.0 0.0 0.0 0.0 0.0 0.0 0.0 0.0 0.0 0.0 0.0 0.0 0.0 0.0 0.0 0.0 0.0 0.0 0.0 0.0 0.0 0.0 0.0 0.0 0.0 0.0 0.0 0.0 0.0 0.0 0.0 0.0 0.0 0.0 0.0 0.0 0.0 0.0 0.0 0.0 0.0 0.0 0.0 0.0 0.0 0.0 0.0 0.0 0.0 0.0 0.0 0.0 0.0 0.0 0.0 0.0 0.0 0.0 0.0 0.0 0.0 0.0 0.0 0.0 0.0 0.0 0.0 0.0 0.0 0.0 0.0 0.0 0.0 0.0 0.0 0.0 0.0 0.0 0.0 0.0 0.0 0.0 0.0 0.0 0.0 0.0 0.0 0.0 0.0 0.0 0.0 0.0 0.0 0.0 0.0 0.0 0.0 0.0 0.0 0.0 0.0 0.0 0.0 0.0 0.0 0.0 0.0 0.0 0.0 0.0 0.0 0.0 0.0 0.0 0.0 0.0 0.0 0.0 0.0 0.0 0.0 0.0 0.0 0.0 0.0 0.0 0.0 0.0 0.0 0.0 0.0 0.0 0.0 0.0 0.0 0.0 0.0 0.0 0.0 0.0 0.0 0.0 0.0 0.0 0.0 0.0 0.0 0.0 0.0 0.0 0.0 0.0 0.0 0.0 0.0 0.0 0.0 0.0 0.0 0.0 0.0 0.0 0.0 0.0 0.0 0.0 0.0 0.0 0.0 0.0 0.0 0.0 0.0 0.0 0.0 0.0 0.0 0.0 0.0 0.0 0.0 0.0 0.0 0.0 0.0 0.0 0.0 0.0 0.0 0.0 0.0 0.0 0.0 0.0 0.0 0.0 0.0 0.0 0.0 0.0 0.0 0.0 0.0 0.0 0.0 0.0 0.0 0.0 0.0 0.0 0.0 0.0 0.0 0.0 0.0 0.0 0.0 0.0 0.0 0.0 0.0 0.0 0.0 0.0 0.0 0.0 0.0 0.0 0.0 0.0 0.0 0.0 0.0 0.0 0.0 0.0 0.0 0.0 0.0 0.0 0.0 0.0 0.0 0.0 0.0 0.0 0.0 0.0 0.0 0.0 0.0 0.0 0.0 0.0 0.0 0.0 0.0 0.0 0.0 0.0 0.0 0.0 0.0 0.0 0.0 0.0 0.0 0.0 0.0 0.0 0.0 0.0 0.0 0.0 0.0 0.0 0.0 0.0 0.0 0.0 0.0 0.0 0.0 0.0 0.0 0.0 0.0 0.0 0.0 0.0 0.0 0.0 0.0 0.0 0.0 0.0 0.0 0.0 0.0 0.0 0.0 0.0 0.0 0.0 0.0 0.0 0.0 0.0 0.0 0.0 0.0 0.0 0.0 0.0 0.0 0.0 0.0 0.0 0.0 0.0 0.0 0.0 0.0 0.0 0.0 0.0 0.0 0.0 0.0 0.0 0.0 0.0 0.0 0.0 0.0 0.0 0.0 0.0 0.0 0.0 0.0 0.0 0.0 0.0 0.0 0.0 0.0 0.0 0.0 0.0 0.0 0.0 0.0 0.0 0.0 0.0 0.0 0.0 0.0 0.0 0.0 0.0 0.0 0.0 0.0 0.0 0.0 0.0 0.0 0.0 0.0 0.0 0.0 0.0 0.0 0.0 0.0 0.0 0.0 0.0 0.0 0.0 0.0 0.0 0.0 0.0 0.0 0.0 0.0 0.0 0.0 0.0 0.0 0.0 0.0 0.0 0.0 0.0 0.0 0.0 0.0 0.0 0.0 0.0 0.0 0.0 0.0 0.0 0.0 0.0 0.0 0.0 0.0 0.0 0.0 0.0 0.0 0.0 0.0 0.0 0.0 0.0 0.0 0.0 0.0 0.0 0.0 0.0 0.0 0.0 0.0 0.0 0.0 0.0 0.0 0.0 0.0 0.0 0.0 0.0 0.0 0.0 0.0 0.0 0.0 0.0 0.0 0.0 0.0 0.0 0.0 0.0 0.0 0.0 0.0 0.0 0.0 0.0 0.0 0.0 0.0 0.0 0.0 0.0 0.0 0.0 0.0 0.0 0.0 0.0 0.0 0.0 0.0 0.0 0.0 0.0 0.0 0.0 0.0 0.0 0.0 0.0 0.0 0.0 0.0 0.0 0.0 0.0 0.0 0.0 0.0 0.0 0.0 0.0 0.0 0.0 0.0 0.0 0.0 0.0 0.0 0.0 0.0 0.0 0.0 0.0 0.0 0.0 0.0 0.0 0.0 0.0 0.0 0.0 0.0 0.0 0.0 0.0 0.0 0.0 0.0 0.0 0.0 0.0 0.0 0.0 0.0 0.0 0.0 0.0 0.0 0.0 0.0 0.0 0.0 0.0 0.0 0.0 0.0 0.0 0.0 0.0 0.0 0.0 0.0 0.0 0.0 0.0 0.0 0.0 0.0 0.0 0.0 0.0 0.0 0.0 0.0 0.0 0.0 0.0 0.0 0.0 0.0 0.0 0.0 0.0 0.0 0.0 0.0 0.0 0.0 0.0 0.0 0.0 0.0 0.0 0.0 0.0 0.0 0.0 0.0 0.0 0.0 0.0 0.0 0.0 0.0 0.0 0.0 0.0 0.0 0.0 0.0 0.0 0.0 0.0 0.0 0.0 0.0 0.0 0.0 0.0 0.0 0.0 0.0 0.0 0.0 0.0 0.0 0.0 0.0 0.0 0.0 0.0 0.0 0.0 0.0 0.0 0.0 0.0 0.0 0.0 0.0 0.0 0.0 0.0 0.0 0.0 0.0 0.0 0.0 0.0 0.0 0.0 0.0 0.0 0.0 0.0 0.0 0.0 0.0 0.0 0.0 0.0 0.0 0.0 0.0 0.0 0.0 0.0 0.0 0.0 0.0 0.0 0.0 0.0 0.0 0.0 0.0 0.0 0.0 0.0 0.0 0.0 0.0 0.0 0.0 0.0 0.0 0.0 0.0 0.0 0.0 0.0 0.0 0.0 0.0 0.0 0.0 0.0 0.0 0.0 0.0 0.0 0.0 0.0 0.0 0.0 0.0 0.0 0.0 0.0 0.0 0.0 0.0 0.0 0.0 0.0 0.0 0.0 0.0 0.0 0.0 0.0 0.0 0.0 0.0 0.0 0.0 0.0 0.0 0.0 0.0 0.0 0.0 0.0 0.0 0.0 0.0 0.0 0.0 0.0 0.0 0.0 0.0 0.0 0.0 0.0 0.0 0.0 0.0 0.0 0.0 0.0 0.0 0.0 0.0 0.0 0.0 0.0 0.0 0.0 0.0 0.0 0.0 0.0 0.0 0.0 0.0 0.0 0.0 0.0 0.0 0.0 0.0 0.0 0.0 0.0 0.0 0.0 0.0 0.0 0.0 0.0 0.0 0.0 0.0 0.0 0.0 0.0 0.0 0.0 0.0 0.0 0.0 0.0 0.0 0.0 0.0 0.0 0.0 0.0 0.0 0.0 0.0 0.0 0.0 0.0 0.0 0.0 0.0 0.0 0.0 0.0 0.0 0.0 0.0 0.0 0.0 0.0 0.0 0.0 0.0 0.0 0.0 0.0 0.0 0.0 0.0 0.0 0.0 0.0 0.0 0.0 0.0 0.0 0.0 0.0 0.0 0.0 0.0 0.0 0.0 0.0 0.0 0.0 0.0 0.0 0.0 0.0 0.0 0.0 0.0 0.0 0.0 0.0 0.0 0.0 0.0 0.0 -0.00010544946000000002 0.0 -4.0224615e-05 -0.00012759218 0.0 -3.8823047e-05 -0.00014627566 0.0 -3.5332869000000004e-05 -0.00016088616000000002 0.0 -3.0984495e-05 -0.00017196663000000002 0.0 -2.6128859e-05 -0.00010942924999999999 0.0 -5.5019624e-05 -0.00015082371999999999 0.0 -5.2416581e-05 -0.00018602348999999997 0.0 -5.1692405e-05 -0.00021434868 0.0 -4.8083206e-05 -0.0002358811 0.0 -4.2777367000000005e-05 -0.00025172369 0.0 -3.6349011e-05 -0.00015702181999999998 0.0 -6.5924542e-05 -0.00021573275 0.0 -6.4826541e-05 -0.00026566981 0.0 -6.3362357e-05 -0.00030600939999999996 0.0 -5.8850874000000005e-05 -0.00033618833 0.0 -5.2650979e-05 -0.00035793256 0.0 -4.4895616e-05 -0.00021851998 0.0 -7.818100900000001e-05 -0.00029923045 0.0 -7.674787000000001e-05 -0.00036664703 0.0 -7.5020274e-05 -0.00042066432000000003 0.0 -6.9444955e-05 -0.00046056358 0.0 -6.2021638e-05 -0.0004887314900000001 0.0 -5.2842366e-05 -0.00029629836 0.0 -9.3256422e-05 -0.00040388171 0.0 -8.9783061e-05 -0.00049203518 0.0 -8.711391299999999e-05 -0.0005614828599999999 0.0 -8.0175312e-05 -0.0006118415599999999 0.0 -7.1347895e-05 -0.00064659503 0.0 -6.0583711999999993e-05 -0.00039546806000000003 0.0 -0.00011209868999999999 -0.00053554808 0.0 -0.00010477805000000001 -0.00064784882 0.0 -0.00010015495 -0.00073454011 0.0 -9.136090399999999e-05 -0.0007959633900000001 0.0 -8.1031154e-05 -0.00083726685 0.0 -6.8612906e-05 -0.00052349747 0.0 -0.00013693503999999998 -0.00070269557 0.0 -0.00012325063 -0.0008427978 0.0 -0.00011529530000000001 -0.00094862224 0.0 -0.00010388719999999999 -0.0010216106 0.0 -9.1957932e-05 -0.0010693163 0.0 -7.7753204e-05 -0.0006911118400000001 0.0 -0.0001703556 -0.00091628288 0.0 -0.00014767016 -0.0010881304 0.0 -0.00013441716 -0.0012146024 0.0 -0.00011988332 -0.0012997548 0.0 -0.00010584803 -0.0013534282000000001 0.0 -8.963656699999999e-05 -0.0009136410099999999 0.0 -0.00021257718999999998 -0.0011896624 0.0 -0.00018018283 -0.0013964485999999998 0.0 -0.00016031321 -0.0015446942000000002 0.0 -0.00014304725 -0.0016425307000000001 0.0 -0.0001261039 -0.0017017398000000001 0.0 -0.00010671388000000001 -0.0012128399000000002 0.0 -0.00025790426 -0.0015397157000000001 0.0 -0.00022051123 -0.0017820421 0.0 -0.00019679351000000003 -0.0019534749 0.0 -0.00017655973000000003 -0.0020643293 0.0 -0.00015525128000000001 -0.0021277142000000002 0.0 -0.0001319779 -0.0016144825 0.0 -0.00030636284 -0.0019891588000000003 0.0 -0.00026846418 -0.0022646785 0.0 -0.00024433268 -0.0024593242 0.0 -0.00022183522999999998 -0.0025811002 0.0 -0.00019813307 -0.0026471056 0.0 -0.00016841169999999998 -0.0021083551 0.0 -0.00047757310999999996 -0.0025557771 0.0 -0.0003764201 -0.0028662685999999997 0.0 -0.00032713352000000005 -0.0030831840999999997 0.0 -0.00029045412999999996 -0.0032128119 0.0 -0.00025878981 -0.0032780534 0.0 -0.00021983171 -0.0027932518 0.0 -0.0009389129699999999 -0.0032850915999999997 0.0 -0.00065743423 -0.0036209456 0.0 -0.00050246663 -0.0038533621000000004 0.0 -0.00040968001000000006 -0.0039836685 0.0 -0.00035027714 -0.0040423125 0.0 -0.00029263072 -0.0037437484000000004 0.0 -0.0014765614 -0.0042384099 0.0 -0.0010602421000000001 -0.00457749 0.0 -0.00077092118 -0.004803468 0.0 -0.0005953500499999999 -0.0049214331 0.0 -0.00048745068 -0.0049659805 0.0 -0.00039328609 -0.0049618268 0.0 -0.001980993 -0.005434956899999999 0.0 -0.0014927107 -0.0057589435 0.0 -0.0010986786999999999 -0.0059621399 0.0 -0.0008402843400000001 -0.0060559441 0.0 -0.00066499546 -0.0060783918 0.0 -0.00052166829 -0.0064192163 0.0 -0.002465352 -0.0068752271999999994 0.0 -0.0019249534 -0.007176850500000001 0.0 -0.0014550309 -0.0073523172 0.0 -0.0011170455999999999 -0.007420144 0.0 -0.0008759512 -0.007412381 0.0 -0.00067586504 -0.0080959182 0.0 -0.002976448 -0.0085570738 0.0 -0.0023717545 -0.008851395 0.0 -0.0018358112 -0.0090071755 0.0 -0.0014233108 -0.009046755699999999 0.0 -0.0011103064999999999 -0.0090044737 0.0 -0.00085261679 -0.010011727 0.0 -0.0035411371000000002 -0.010511821000000001 0.0 -0.0028598571999999996 -0.010821805 0.0 -0.0022477489000000002 -0.010968706000000002 0.0 -0.0017606376 -0.010981435 0.0 -0.0013733757999999999 -0.010897337 0.0 -0.0010480164 -0.012228703 0.0 -0.0041898759 -0.012802901 0.0 -0.0034115240000000004 -0.01314654 0.0 -0.0027082502000000002 -0.013291388999999999 0.0 -0.0021353194 -0.013274774 0.0 -0.0016641757999999998 -0.013139713 0.0 -0.0012624272 -0.014838908 0.0 -0.0049460577 -0.015507273 0.0 -0.0040509179 -0.015893241000000002 0.0 -0.0032328658 -0.016036181 0.0 -0.0025542672 -0.015983172 0.0 -0.0019841441000000002 -0.015784534 0.0 -0.0014959589000000002 -0.017926194 0.0 -0.0058328453 -0.018699983 0.0 -0.0047979979 -0.01913283 0.0 -0.0038352567 -0.019270193 0.0 -0.0030233504 -0.019169193 0.0 -0.0023366443 -0.01888858 0.0 -0.0017517197 -0.021574205 0.0 -0.0068820561 -0.022465184 0.0 -0.0056758462 -0.022946972000000003 0.0 -0.0045257835 -0.023070626 0.0 -0.0035474985 -0.022902673 0.0 -0.0027276413 -0.02251368 0.0 -0.0020396032 -0.025886108999999997 0.0 -0.0081327148 -0.026905082 0.0 -0.006710443199999999 -0.027433824 0.0 -0.0053113746 -0.027527219 0.0 -0.0041313386 -0.02726285 0.0 -0.0031696649 -0.026728716 0.0 -0.0023821313 -0.030993935 0.0 -0.0096398164 -0.032145552 0.0 -0.007929947199999999 -0.032709699 0.0 -0.0061979648 -0.032742243 0.0 -0.0047876136 -0.032337844 0.0 -0.0036915957 -0.031609774 0.0 -0.0028235790999999997 -0.037071846 0.0 -0.011461253000000001 -0.038338974 0.0 -0.0093650362 -0.038907304 0.0 -0.0071994867 -0.038823497 0.0 -0.0055491356 -0.0382188 0.0 -0.0043496932 -0.037235998 0.0 -0.0034438295 -0.044349864 0.0 -0.013677165 -0.045660529000000005 0.0 -0.011051278999999999 -0.046157066 0.0 -0.0083538415 -0.045869429 0.0 -0.0064936359 -0.044986400999999995 0.0 -0.005253045400000001 -0.043679657999999996 0.0 -0.0043780165999999995 -0.053108782 0.0 -0.016392775 -0.054287005 0.0 -0.01305876 -0.054557945999999996 0.0 -0.0097543588 -0.053944495 0.0 -0.0077912314 -0.052681505999999996 0.0 -0.0066002136999999995 -0.050975322999999996 0.0 -0.005811150699999999 -0.063583188 0.0 -0.019699183999999998 -0.064316846 0.0 -0.015495539 -0.06411937599999999 0.0 -0.011590973999999999 -0.063013725 0.0 -0.0096871592 -0.061251279000000006 0.0 -0.0086544277 -0.059083544 0.0 -0.008000494 -0.07578534599999999 0.0 -0.023721769 -0.075630687 0.0 -0.018585244 -0.074658953 0.0 -0.01420343 -0.072854355 0.0 -0.012534816 -0.070481367 0.0 -0.011763888 -0.067817204 0.0 -0.011215881 -0.089216314 0.0 -0.028651245 -0.087709531 0.0 -0.022701593 -0.085650876 0.0 -0.018094987 -0.08296954599999999 0.0 -0.016740352 -0.079907946 0.0 -0.016329339 -0.076776795 0.0 -0.01571472 -0.10272285 0.0 -0.034799881 -0.09960231900000001 0.0 -0.028497545 -0.096277244 0.0 -0.023958696 -0.09264443800000001 0.0 -0.022815622 -0.08898957800000001 0.0 -0.022377981 -0.08557395599999999 0.0 -0.021294842 -0.11475334 0.0 -0.042527485999999996 -0.11026893 0.0 -0.036700387 -0.10581481 0.0 -0.032499757000000004 -0.10146724 0.0 -0.030797767 -0.0975352 0.0 -0.029477127000000002 -0.09384547900000001 0.0 -0.027662832000000002 -0.12409273 0.0 -0.051862668 -0.11891253 0.0 -0.047035296 -0.11382254 0.0 -0.044365339000000004 -0.10933764 0.0 -0.041008092 -0.10520137 0.0 -0.037852433 -0.10110264 0.0 -0.035107352 -0.12971821 0.0 -0.062039457 -0.12456266 0.0 -0.058030263 -0.11857442 0.0 -0.059788227 -0.1138792 0.0 -0.05659594 -0.11000204 0.0 -0.050349209000000006 -0.10599186 0.0 -0.045150455 -0.12933935 0.0 -0.071526542 -0.12577513 0.0 -0.068479292 -0.11892802 0.0 -0.074770272 -0.11424199 0.0 -0.07462886 -0.11126634 0.0 -0.066731922 -0.10781267 0.0 -0.05844378099999999 -0.11144996 0.0 -0.080234155 -0.11558561 0.0 -0.077311814 -0.1114784 0.0 -0.08782386800000001 -0.10796715 0.0 -0.09095668 -0.10704338 0.0 -0.083854243 -0.10466969 0.0 -0.073775269 -0.077981293 0.0 -0.087343395 -0.08406603300000001 0.0 -0.08366736 -0.087403625 0.0 -0.095754251 -0.088715486 0.0 -0.10256284 -0.088669389 0.0 -0.096911438 -0.086261824 0.0 -0.085844815 -0.047751915 0.0 -0.0922359 -0.052146528 0.0 -0.087096937 -0.054843292 0.0 -0.098179191 -0.056451852999999996 0.0 -0.10542835 -0.056739315 0.0 -0.10092951 -0.055276379 0.0 -0.090348303 -0.024672717 0.0 -0.09571298199999999 -0.027452806 0.0 -0.089327738 -0.029106133 0.0 -0.09906961 -0.030364905 0.0 -0.10592477 -0.030848432000000002 0.0 -0.10238148 -0.030308504 0.0 -0.092511594 -0.0080382228 0.0 -0.09796828 -0.009306994300000001 0.0 -0.09090370699999999 -0.010026409 0.0 -0.09955050800000001 -0.010800747 0.0 -0.10585919 -0.011343765 0.0 -0.10266197 -0.011418461000000001 0.0 -0.093192175 0.0049807192 0.0 -0.099126436 0.0050704386 0.0 -0.091705635 0.005097101 0.0 -0.099851839 0.0048523662 0.0 -0.10573744 0.0043718764 0.0 -0.10231516 0.0038867882 0.0 -0.092873231 0.017284281999999998 0.0 -0.099148057 0.01863409 0.0 -0.09171844300000001 0.019073933 0.0 -0.09993192599999999 0.019319844 0.0 -0.10546111 0.018976774 0.0 -0.10147043 0.018149423999999997 0.0 -0.09179128 0.030332385 0.0 -0.097974613 0.032739729 0.0 -0.090687811 0.033427328 0.0 -0.09890378300000001 0.03405026 0.0 -0.10414103 0.033865143 0.0 -0.09965544900000001 0.032657295 0.0 -0.08987233 0.043950893 0.0 -0.095555313 0.047307882 0.0 -0.08849296699999999 0.048108675 0.0 -0.096459523 0.048995048 0.0 -0.10141373 0.048949745 0.0 -0.096697487 0.047286708 0.0 -0.087059259 0.057174206 0.0 -0.092061616 0.061314929000000004 0.0 -0.08532948800000001 0.062052794 0.0 -0.09266871199999999 0.06321483900000001 0.0 -0.09726969199999999 0.063272722 0.0 -0.092599161 0.061131455 0.0 -0.08332736 0.06898075299999999 0.0 -0.08767882699999999 0.07362049799999999 0.0 -0.081268877 0.07398969700000001 0.0 -0.08767172699999999 0.075262092 0.0 -0.09152767099999999 0.075653493 0.0 -0.087336414 0.073146477 0.0 -0.078725189 0.078460574 0.0 -0.082569554 0.083185017 0.0 -0.076498583 0.083148032 0.0 -0.081758484 0.08437667 0.0 -0.08474735900000001 0.085041597 0.0 -0.08103364 0.081836112 0.0 -0.07340632400000001 0.085107781 0.0 -0.07693623 0.089977764 0.0 -0.071415827 0.08964760599999999 0.0 -0.075562693 0.090551294 0.0 -0.077755138 0.089250483 0.0 -0.074538201 0.084280446 0.0 -0.067663476 0.08980579699999999 0.0 -0.07100056099999999 0.094465971 0.0 -0.065897971 0.093960375 0.0 -0.069292121 0.09341490300000001 0.0 -0.07118572299999999 0.08968237 0.0 -0.06818775099999999 0.084023722 0.0 -0.061709929000000004 0.09369997699999999 0.0 -0.064862445 0.09780605099999999 0.0 -0.060152030999999995 0.09672845199999999 0.0 -0.063084349 0.09405647199999999 0.0 -0.065032125 0.088902026 0.0 -0.061666865 0.08286280900000001 0.0 -0.055853955 0.09791572400000001 0.0 -0.058624517 0.10052102 0.0 -0.054410249 0.09821973 0.0 -0.057071254 0.093710721 0.0 -0.058950588 0.08745746300000001 0.0 -0.055273585 0.081209518 0.0 -0.050394088 0.10334235 0.0 -0.052416217 0.10277934 0.0 -0.04914248400000001 0.098998591 0.0 -0.051474947 0.093114272 0.0 -0.052854280999999996 0.085898511 0.0 -0.049557459000000005 0.079486668 0.0 -0.045388295999999995 0.1105575 0.0 -0.047510453 0.10572828 0.0 -0.04459225 0.099803276 0.0 -0.04630294099999999 0.09251136300000001 0.0 -0.04721888900000001 0.08451729300000001 0.0 -0.044526339000000005 0.077509888 0.0 -0.040651433 0.11827902 0.0 -0.044538457000000004 0.10964158 0.0 -0.041449953 0.10131102 0.0 -0.042082105 0.09226995 0.0 -0.04223169400000001 0.083534829 0.0 -0.039858226000000004 0.075635627 0.0 -0.036475617 0.12347907 0.0 -0.041779999 0.11288744 0.0 -0.038786236 0.10283618 0.0 -0.038151771 0.09247528 0.0 -0.037637994 0.082833305 0.0 -0.035569336 0.074160933 0.0 -0.03251731 0.11438502 0.0 -0.036222767 0.10379512 0.0 -0.034428895 0.09312006800000001 0.0 -0.033644546000000004 0.082524776 0.0 -0.03164101 0.073097549 0.0 -0.028878747000000003 0.11404926 0.0 -0.034302957 0.10428268 0.0 -0.031799562 0.09391307800000001 0.0 -0.03037039 0.082846917 0.0 -0.02834348 0.072515577 0.0 -0.025616946 0.10411809 0.0 -0.030359475 0.094557665 0.0 -0.02822154 0.083939359 0.0 -0.026167581000000002 0.072780699 0.0 -0.0231483 0.10289086 0.0 -0.029537991 0.095060945 0.0 -0.027437527000000003 0.08540697400000001 0.0 -0.02501386 0.07440100599999999 0.0 -0.021968491 0.094396614 0.0 -0.027047902000000002 0.086563498 0.0 -0.02480296 0.076691099 0.0 -0.02196707 0.086492166 0.0 -0.02474935 0.078717873 0.0 -0.022501636000000002 0.08363793 0.0 -0.023691274 0.079117313 0.0 -0.022943031000000003 -0.00017994268 0.0 -2.1444406e-05 -0.00018549553 0.0 -1.7089864e-05 -0.00018911902 0.0 -1.3399816e-05 -0.00019136528000000003 0.0 -1.0246755e-05 -0.00019265531000000003 0.0 -7.628812500000001e-06 -0.00019331568999999998 0.0 -5.5141968e-06 -0.00019361159 0.0 -3.7623822e-06 -0.0001937098 0.0 -2.3347275e-06 -0.00019372621 0.0 -1.1143462e-06 -0.00026281737000000003 0.0 -2.9910068000000003e-05 -0.00027023377999999996 0.0 -2.3967821e-05 -0.00027487261 0.0 -1.891126e-05 -0.00027762417 0.0 -1.4481786e-05 -0.00027905119 0.0 -1.0856406e-05 -0.00027965798 0.0 -7.8832427e-06 -0.00027981636000000003 0.0 -5.4223883e-06 -0.00027976767 0.0 -3.3903154e-06 -0.00027968009999999996 0.0 -1.6218171e-06 -0.00037270051 0.0 -3.7151884e-05 -0.00038225300000000004 0.0 -2.9919094e-05 -0.00038801026 0.0 -2.3636350000000003e-05 -0.00039119466 0.0 -1.8191196e-05 -0.00039264862 0.0 -1.3692375e-05 -0.00039307913000000003 0.0 -9.9632043e-06 -0.00039298099 0.0 -6.8839895e-06 -0.00039269132000000005 0.0 -4.3170144e-06 -0.00039243602 0.0 -2.0706232e-06 -0.00050736958 0.0 -4.3688065e-05 -0.00051900174 0.0 -3.5228677e-05 -0.000525704 0.0 -2.7805931e-05 -0.00052908337 0.0 -2.144983e-05 -0.00053031801 0.0 -1.6179312e-05 -0.00053034676 0.0 -1.1768641e-05 -0.00052980002 0.0 -8.147329e-06 -0.0005291277200000001 0.0 -5.1077485999999995e-06 -0.00052861759 0.0 -2.4544181e-06 -0.00066892215 0.0 -4.9945913e-05 -0.0006822816800000001 0.0 -4.0271676000000004e-05 -0.0006895313900000001 0.0 -3.169306e-05 -0.0006926880999999999 0.0 -2.4455621e-05 -0.00069332158 0.0 -1.8413355e-05 -0.00069260475 0.0 -1.3386723e-05 -0.00069133827 0.0 -9.2701712e-06 -0.00069008925 0.0 -5.7984407e-06 -0.0006892069900000001 0.0 -2.7885897e-06 -0.00086285145 0.0 -5.6504129999999995e-05 -0.0008773646 0.0 -4.554772e-05 -0.0008845380499999999 0.0 -3.5721845e-05 -0.0008868642 0.0 -2.7531289999999998e-05 -0.0008863538400000001 0.0 -2.0654976000000002e-05 -0.0008844332199999999 0.0 -1.498829e-05 -0.0008820946699999999 0.0 -1.0349077e-05 -0.00088001299 0.0 -6.4626937999999995e-06 -0.00087860663 0.0 -3.1047537e-06 -0.0010975582 0.0 -6.4123422e-05 -0.001112443 0.0 -5.1675252e-05 -0.0011186652 0.0 -4.0488474e-05 -0.0011193558 0.0 -3.115147e-05 -0.0011169952 0.0 -2.3259725e-05 -0.001113284 0.0 -1.6822621999999997e-05 -0.0011094175 0.0 -1.1560652999999999e-05 -0.001106177 0.0 -7.200459099999999e-06 -0.0011040523 0.0 -3.4487587e-06 -0.0013835382 0.0 -7.402967499999999e-05 -0.0013977442 0.0 -5.9679725e-05 -0.0014019129 0.0 -4.6774145e-05 -0.0013999491 0.0 -3.5886875e-05 -0.0013948296 0.0 -2.6671556e-05 -0.0013885726 0.0 -1.9193485e-05 -0.0013825826 0.0 -1.3108162e-05 -0.0013777559 0.0 -8.1268154e-06 -0.0013746556 0.0 -3.8773383e-06 -0.0017325818 0.0 -8.808639499999999e-05 -0.0017447348999999998 0.0 -7.1012466e-05 -0.0017454766000000001 0.0 -5.5640761000000004e-05 -0.0017395705 0.0 -4.251238e-05 -0.0017305426 0.0 -3.1400225e-05 -0.0017207714000000002 0.0 -2.2420529000000003e-05 -0.0017118864 0.0 -1.5184221e-05 -0.0017049169 0.0 -9.3490216e-06 -0.0017005047 0.0 -4.4383087e-06 -0.0021575826999999997 0.0 -0.00010902245 -0.0021659369 0.0 -8.768188099999999e-05 -0.0021615810999999997 0.0 -6.836032799999999e-05 -0.0021501210999999997 0.0 -5.1881667e-05 -0.0021357357 0.0 -3.7960777e-05 -0.0021212143 0.0 -2.6798609000000003e-05 -0.0021084452 0.0 -1.7950613e-05 -0.0020986170999999997 0.0 -1.0942801999999998e-05 -0.0020924583 0.0 -5.1611414e-06 -0.0026735265 0.0 -0.00013947794 -0.0026759214 0.0 -0.00011152228999999999 -0.0026643148 0.0 -8.629520699999999e-05 -0.0026452746 0.0 -6.488326500000001e-05 -0.0026237206 0.0 -4.6831992e-05 -0.0026028838 0.0 -3.2561398e-05 -0.002584971 0.0 -2.1500486e-05 -0.00257137 0.0 -1.2925734e-05 -0.0025629138 0.0 -6.0487041e-06 -0.0032980777 0.0 -0.00018168874 -0.0032917662 0.0 -0.0001441035 -0.0032701737 0.0 -0.00011054637 -0.0032410284 0.0 -8.1975428e-05 -0.0032099879 0.0 -5.8303762e-05 -0.0031808603000000003 0.0 -3.9795414e-05 -0.0031562122 0.0 -2.5812570999999998e-05 -0.003137683 0.0 -1.5244439e-05 -0.0031262268 0.0 -7.0613451e-06 -0.004051992700000001 0.0 -0.00023833306 -0.0040332363000000005 0.0 -0.00018695946 -0.0039981692 0.0 -0.00014164208999999998 -0.0039556981 0.0 -0.00010322695 -0.00391219 0.0 -7.2247873e-05 -0.0038722777 0.0 -4.8270049e-05 -0.0038389170000000003 0.0 -3.0707135e-05 -0.0038140197 0.0 -1.7746448e-05 -0.0037986876 0.0 -8.0911568e-06 -0.0049597122999999995 0.0 -0.00031187726 -0.00492336 0.0 -0.00024042042999999997 -0.0048699901 0.0 -0.00017968033 -0.0048099286 0.0 -0.00012843388000000002 -0.004750201 0.0 -8.8345121e-05 -0.0046963599 0.0 -5.7603967e-05 -0.0046517807 0.0 -3.5734283e-05 -0.0046187458 0.0 -2.0180059e-05 -0.0045984625 0.0 -9.0152598e-06 -0.0060489461999999996 0.0 -0.00040455296000000004 -0.0059883309999999995 0.0 -0.0003056745 -0.0059103522999999995 0.0 -0.00022443162999999996 -0.0058271261 0.0 -0.00015707655 -0.0057463958 0.0 -0.00010588628 -0.0056746388 0.0 -6.723441e-05 -0.0056157191 0.0 -4.0427632e-05 -0.0055723051 0.0 -2.2148935e-05 -0.005545750699999999 0.0 -9.6621197e-06 -0.007351292299999999 0.0 -0.0005147383200000001 -0.0072579705000000005 0.0 -0.00038150182999999996 -0.0071475091 0.0 -0.00027464650000000003 -0.0070340172 0.0 -0.00018799935 -0.006926165400000001 0.0 -0.0001236192 -0.0068314928 0.0 -7.643343300000001e-05 -0.0067543531999999995 0.0 -4.4377637e-05 -0.006697773000000001 0.0 -2.3340868e-05 -0.006663304300000001 0.0 -9.8858009e-06 -0.008903225899999999 0.0 -0.00064108305 -0.0087670768 0.0 -0.00046743687999999995 -0.0086142765 0.0 -0.00032967358 -0.0084615573 0.0 -0.00022067672000000002 -0.0083188638 0.0 -0.00014135579 -0.0081949802 0.0 -8.455360500000001e-05 -0.0080948332 0.0 -4.7351877999999996e-05 -0.0080216741 0.0 -2.3698883999999997e-05 -0.0079772519 0.0 -9.6549966e-06 -0.010745109 0.0 -0.00077848701 -0.010554388 0.0 -0.0005601701599999999 -0.010347939 0.0 -0.00038896303 -0.010145035 0.0 -0.00025489496 -0.0099580782 0.0 -0.00015923145 -0.00979733 0.0 -9.2194961e-05 -0.009668334399999999 0.0 -4.9875678e-05 -0.009574479399999999 0.0 -2.3681774e-05 -0.0095176725 0.0 -9.2305772e-06 -0.012923563 0.0 -0.0009275868699999999 -0.012663337 0.0 -0.0006589117699999999 -0.012388831999999999 0.0 -0.00045062887 -0.012123155 0.0 -0.0002919714 -0.011880865 0.0 -0.00017936181 -0.011674176000000001 0.0 -0.00010171147 -0.011509382 0.0 -5.3620417e-05 -0.011390083 0.0 -2.4892992e-05 -0.011318055 0.0 -9.465638e-06 -0.01548792 0.0 -0.0010897382 -0.015140068999999999 0.0 -0.0007679096300000001 -0.014780295 0.0 -0.00052045472 -0.014436012 0.0 -0.00033628593999999995 -0.01412566 0.0 -0.00020702698 -0.013862603000000001 0.0 -0.00011871044 -0.013654188999999999 0.0 -6.378933200000001e-05 -0.013503978 0.0 -3.0801188e-05 -0.013413534 0.0 -1.2193348e-05 -0.018489689 0.0 -0.0012709408 -0.01803159 0.0 -0.00089613913 -0.017565353 0.0 -0.0006093798400000001 -0.017123945 0.0 -0.00040069758 -0.016730422 0.0 -0.00025401032 -0.016399294 0.0 -0.00015372947 -0.016138615 0.0 -8.9115987e-05 -0.015951565 0.0 -4.7620459000000004e-05 -0.015839262 0.0 -2.0625572e-05 -0.021982664 0.0 -0.0014848951999999998 -0.021385767000000003 0.0 -0.0010622457 -0.020787546 0.0 -0.00073862431 -0.020227313 0.0 -0.00050686329 -0.019733509 0.0 -0.00034083004000000003 -0.01932144 0.0 -0.00022459135 -0.01899928 0.0 -0.00014388918 -0.018769212 0.0 -8.530691399999999e-05 -0.01863149 0.0 -3.9802922e-05 -0.02602732 0.0 -0.0017633457999999998 -0.025255407999999997 0.0 -0.0013001808 -0.024494953 0.0 -0.0009449055699999999 -0.023791496000000002 0.0 -0.0006897936099999999 -0.023178415 0.0 -0.00049958105 -0.022671865 0.0 -0.00035856629000000003 -0.02227873 0.0 -0.00024945219 -0.021999507999999997 0.0 -0.0001583527 -0.021832907999999998 0.0 -7.7255492e-05 -0.030690558 0.0 -0.0021608097 -0.029703299 0.0 -0.0016668712 -0.028745856 0.0 -0.0012865058 -0.027872248999999998 0.0 -0.0010025086 -0.027120665 0.0 -0.0007768155199999999 -0.026506118 0.0 -0.00059425365 -0.026032891000000002 0.0 -0.00043603883 -0.025698854 0.0 -0.00028771034 -0.025500251 0.0 -0.00014326191999999998 -0.036046561 0.0 -0.002769338 -0.034800395 0.0 -0.0022528481 -0.033609897 0.0 -0.0018469437 -0.032540474 0.0 -0.0015182233999999999 -0.031630982 0.0 -0.0012339599 -0.030895874 0.0 -0.00098087534 -0.030334964 0.0 -0.00073967245 -0.029941695 0.0 -0.0004980324299999999 -0.029708769 0.0 -0.00025112194 -0.042163622000000005 0.0 -0.0037185996999999998 -0.040617999 0.0 -0.0031867449 -0.039162774 0.0 -0.002737212 -0.037873421000000004 0.0 -0.0023295952 -0.036790606000000003 0.0 -0.0019484417000000002 -0.035924919 0.0 -0.0015767323999999999 -0.035270445 0.0 -0.0012011272 -0.034814786 0.0 -0.00081253255 -0.034546357 0.0 -0.00041046861000000004 -0.049088284 0.0 -0.0051815738 -0.047207672 0.0 -0.0046192948 -0.045463413 0.0 -0.0040818583 -0.043938562 0.0 -0.0035426302000000002 -0.042670861 0.0 -0.0029958168 -0.041667186 0.0 -0.002435796 -0.040915702000000005 0.0 -0.0018535570999999999 -0.040395919 0.0 -0.0012521927 -0.040090777 0.0 -0.00063185475 -0.056793574000000006 0.0 -0.0073706186 -0.054562025 0.0 -0.0067209107999999995 -0.052523322000000004 0.0 -0.0060155634 -0.050756805 0.0 -0.0052451286 -0.049299866 0.0 -0.0044310614 -0.048155662 0.0 -0.0035895490999999996 -0.047302961 0.0 -0.0027253893 -0.046715923 0.0 -0.0018358991 -0.04637242900000001 0.0 -0.00092445331 -0.065120302 0.0 -0.010514401000000001 -0.06255856900000001 0.0 -0.009661920400000001 -0.060238793 0.0 -0.0086468952 -0.058232266 0.0 -0.0075156838 -0.056584105 0.0 -0.006324080300000001 -0.055295315 0.0 -0.0050998391 -0.05433863 0.0 -0.0038474184 -0.053680897000000005 0.0 -0.0025756257 -0.053294845 0.0 -0.0012912378 -0.073737435 0.0 -0.014765255 -0.070897721 0.0 -0.013452169 -0.06831266700000001 0.0 -0.011961835 -0.06607379 0.0 -0.010341029 -0.064237013 0.0 -0.0086329244 -0.06280542900000001 0.0 -0.0068952595 -0.061744038 0.0 -0.0051563241999999995 -0.061010554 0.0 -0.003427377 -0.06057813 0.0 -0.001711083 -0.082283005 0.0 -0.019768665 -0.079122521 0.0 -0.018005552 -0.076244086 0.0 -0.015998835 -0.073782988 0.0 -0.013727593 -0.071781039 0.0 -0.01134902 -0.070216134 0.0 -0.0089710234 -0.06904579 0.0 -0.0066553238 -0.068224117 0.0 -0.0044055721 -0.067731634 0.0 -0.0021950873 -0.09021268 0.0 -0.025635827000000003 -0.086746074 0.0 -0.023382267 -0.083630227 0.0 -0.020688584 -0.080977522 0.0 -0.017657196 -0.07880412 0.0 -0.014476744 -0.077068135 0.0 -0.011370642 -0.07576514 0.0 -0.008393349100000001 -0.074849762 0.0 -0.0055364887 -0.074295856 0.0 -0.0027530786999999998 -0.09708385900000001 0.0 -0.032484185 -0.093347795 0.0 -0.02950009 -0.090050578 0.0 -0.025928722999999997 -0.08722314199999999 0.0 -0.021868013 -0.08486278400000001 0.0 -0.01775695 -0.08295521900000001 0.0 -0.013853611000000002 -0.081509389 0.0 -0.010196494 -0.080482677 0.0 -0.0067228191 -0.07987063400000001 0.0 -0.0033446301 -0.10193104 0.0 -0.04097921 -0.09815116199999999 0.0 -0.036939994 -0.09481534400000001 0.0 -0.032223657 -0.091978781 0.0 -0.027015688 -0.08956711699999999 0.0 -0.021811791 -0.087546691 0.0 -0.016888728000000002 -0.08597105699999999 0.0 -0.012357557 -0.08484436599999999 0.0 -0.0081254486 -0.08417268800000001 0.0 -0.004038508499999999 -0.10398108 0.0 -0.052180726 -0.10031671 0.0 -0.046610440999999996 -0.097093955 0.0 -0.040496755 -0.094282895 0.0 -0.033754032 -0.091809228 0.0 -0.027012752 -0.08972177699999999 0.0 -0.020753341 -0.088081069 0.0 -0.015093955 -0.086906314 0.0 -0.009878376500000001 -0.086201057 0.0 -0.0048971786 -0.10118528 0.0 -0.06539534799999999 -0.097688124 0.0 -0.05797632 -0.094668865 0.0 -0.049799468 -0.09200640800000001 0.0 -0.040908705 -0.08960449699999999 0.0 -0.032303292000000004 -0.08752708099999999 0.0 -0.024529077000000003 -0.08589711 0.0 -0.017670022 -0.084733628 0.0 -0.011494285 -0.084034272 0.0 -0.0056828344 -0.082789242 0.0 -0.076091096 -0.079183966 0.0 -0.06725788099999999 -0.07584650799999999 0.0 -0.057393216 -0.072950147 0.0 -0.046834506 -0.070549779 0.0 -0.036789487999999995 -0.06863784 0.0 -0.027819458 -0.067190118 0.0 -0.019980259 -0.066172436 0.0 -0.012975436000000002 -0.065564841 0.0 -0.0064103911 -0.053015098 0.0 -0.080728367 -0.05057032 0.0 -0.07168772799999999 -0.048239369000000004 0.0 -0.061377354 -0.046172887 0.0 -0.050234947 -0.04443685 0.0 -0.039567523 -0.043040845999999994 0.0 -0.029995626 -0.04196883 0.0 -0.021590132 -0.041204844 0.0 -0.014044339 -0.040743987999999995 0.0 -0.0069456403 -0.029196238 0.0 -0.083297692 -0.027872119 0.0 -0.07435762900000001 -0.026531124 0.0 -0.063907057 -0.025296954 0.0 -0.052466128 -0.024233181 0.0 -0.041432675 -0.023358915 0.0 -0.031484008 -0.022672928999999998 0.0 -0.02270999 -0.022174215 0.0 -0.014798315 -0.021868831000000002 0.0 -0.0073265508 -0.01116647 0.0 -0.08435262 -0.010738708000000001 0.0 -0.075602911 -0.010236252 0.0 -0.065173015 -0.0097368071 0.0 -0.053631417 -0.009283145 0.0 -0.042438749000000005 -0.008891868399999999 0.0 -0.032311182 -0.008569614 0.0 -0.023350067000000002 -0.0083250375 0.0 -0.015239252 -0.0081705274 0.0 -0.0075527164 0.0034828356 0.0 -0.084270135 0.0031829253 0.0 -0.075702511 0.0029770966999999996 0.0 -0.065375239 0.0028410694 0.0 -0.053872649 0.0027587478999999996 0.0 -0.042684685 0.0027200459000000002 0.0 -0.032543413 0.0027141389 0.0 -0.023551803 0.0027264047 0.0 -0.015390578 0.0027416411 0.0 -0.0076343211999999995 0.017171605 0.0 -0.083281204 0.016228413 0.0 -0.074860923 0.015397565 0.0 -0.064686418 0.014703073999999998 0.0 -0.053330160999999994 0.01415012 0.0 -0.042279147 0.013732593999999999 0.0 -0.032260153 0.013435593999999999 0.0 -0.023369351 0.013240301000000001 0.0 -0.015285375 0.01313014 0.0 -0.0075870813 0.03110214 0.0 -0.081463933 0.029539771 0.0 -0.073200278 0.02812876 0.0 -0.063233994 0.026928937000000003 0.0 -0.052121025 0.025956176 0.0 -0.04132003 0.025202725 0.0 -0.03153703 0.0246477 0.0 -0.022857012000000003 0.024268012000000002 0.0 -0.014958518999999998 0.024046311 0.0 -0.0074279001 0.045129645999999995 0.0 -0.078830585 0.042956434 0.0 -0.070776589 0.040996842 0.0 -0.061094847 0.039333362000000004 0.0 -0.050324562999999996 0.037982537999999996 0.0 -0.03987772 0.036929458 0.0 -0.030430956000000002 0.036145587 0.0 -0.022057179 0.035602815 0.0 -0.014438156 0.03528256 0.0 -0.0071708946 0.058377396 0.0 -0.075392649 0.055622831 0.0 -0.067632981 0.053157296 0.0 -0.05832857599999999 0.051075842 0.0 -0.048002575 0.049389035 0.0 -0.038007803 0.048072267 0.0 -0.028987782 0.047088187000000004 0.0 -0.021004919 0.046403319000000005 0.0 -0.013748067 0.045997445 0.0 -0.0068281926000000005 0.069848724 0.0 -0.071206525 0.066573411 0.0 -0.063836865 0.063656919 0.0 -0.055005614 0.061201066 0.0 -0.045220565 0.059209595999999996 0.0 -0.035767026 0.057649337 0.0 -0.027254125 0.056478176 0.0 -0.019736415 0.055660568 0.0 -0.012913516000000002 0.055174727 0.0 -0.006412705899999999 0.077514291 0.0 -0.066417024 0.073342904 0.0 -0.059502605 0.06977395 0.0 -0.05122561 0.066791154 0.0 -0.042079452 0.064328209 0.0 -0.033269681 0.062350616 0.0 -0.02535956 0.060847267999999996 0.0 -0.018380782 0.059788778 0.0 -0.012037391000000001 0.059164099000000005 0.0 -0.0059814025 0.079121895 0.0 -0.061261412 0.07458575099999999 0.0 -0.054826163 0.070771538 0.0 -0.04715744400000001 0.06759063900000001 0.0 -0.038721133 0.06498277200000001 0.0 -0.030620687 0.062899105 0.0 -0.023362992000000003 0.061311759 0.0 -0.016953336 0.060202122000000004 0.0 -0.011113901 0.059546787000000004 0.0 -0.0055242795 0.07872206 0.0 -0.055948894000000006 0.074069284 0.0 -0.05002211 0.070189312 0.0 -0.042985345999999994 0.06697415599999999 0.0 -0.03528364 0.064342968 0.0 -0.027897321 0.062239122 0.0 -0.021278467000000002 0.060645270999999994 0.0 -0.015432848 0.059536498 0.0 -0.010111023 0.058883905 0.0 -0.0050240145 0.077423304 0.0 -0.050727997000000004 0.07272335099999999 0.0 -0.045296635 0.068814658 0.0 -0.038881835 0.065593332 0.0 -0.0318974 0.062972315 0.0 -0.025208908999999998 0.060897876 0.0 -0.019227773 0.059340674 0.0 -0.013947953 0.058256876 0.0 -0.009131657900000001 0.057618815 0.0 -0.0045324778 0.075698294 0.0 -0.045804135999999995 0.070951469 0.0 -0.040904243 0.066966891 0.0 -0.035083912 0.06374783099999999 0.0 -0.02881 0.061181128 0.0 -0.022785574 0.05919157 0.0 -0.017368268 0.057709996 0.0 -0.012571108999999999 0.056678455 0.0 -0.0082184132 0.056063253 0.0 -0.0040743668 0.07378628799999999 0.0 -0.04117075 0.068929873 0.0 -0.036774635 0.06487024599999999 0.0 -0.031567134 0.061637677 0.0 -0.025948687 0.059113994 0.0 -0.020516636 0.05718618599999999 0.0 -0.01564241 0.055756282000000004 0.0 -0.01132666 0.054766197 0.0 -0.007393124 0.054179318 0.0 -0.0036593361 0.071672074 0.0 -0.036967743 0.066629082 0.0 -0.032883365 0.062521651 0.0 -0.028321395 0.059259217 0.0 -0.023320675 0.056761134000000005 0.0 -0.018485846 0.054887023 0.0 -0.014114425 0.053515617 0.0 -0.010221746 0.052570265 0.0 -0.0066625513 0.05201216400000001 0.0 -0.0032936712 0.069379099 0.0 -0.033025589 0.064207032 0.0 -0.029269157 0.05998770900000001 0.0 -0.025246926 0.056701284000000005 0.0 -0.020943012 0.054208402 0.0 -0.016686356 0.052378065999999994 0.0 -0.012779943 0.051052041 0.0 -0.0092514539 0.050149299 0.0 -0.0060252026 0.049617272000000004 0.0 -0.0029736154 0.067203857 0.0 -0.029311557999999998 0.061795827000000005 0.0 -0.026056647000000002 0.057435058 0.0 -0.022421975 0.05411544099999999 0.0 -0.018765148 0.051610462 0.0 -0.015067845 0.049785409 0.0 -0.011606205 0.048486244000000005 0.0 -0.0084226923 0.047614433 0.0 -0.0054827179000000005 0.047112394 0.0 -0.0027013335 0.065396145 0.0 -0.025843235 0.059498511 0.0 -0.02284091 0.055063441 0.0 -0.019884864 0.051601170999999994 0.0 -0.016715456 0.049091455 0.0 -0.013611568999999999 0.047246367000000004 0.0 -0.010536462 0.045957490999999996 0.0 -0.007682157199999999 0.045099522999999996 0.0 -0.0050007216999999994 0.044611952999999996 0.0 -0.0024645389 0.064118311 0.0 -0.022750495 0.057640929 0.0 -0.019922979 0.052852757 0.0 -0.017266161999999998 0.049372118 0.0 -0.01474175 0.046741992 0.0 -0.012098683999999998 0.044893559000000006 0.0 -0.0095280623 0.043586597000000005 0.0 -0.006970948100000001 0.042734139000000004 0.0 -0.004562646599999999 0.042250674 0.0 -0.0022482884 0.063448645 0.0 -0.02016956 0.05633886900000001 0.0 -0.017406573999999998 0.051115159 0.0 -0.014951363999999998 0.047364958 0.0 -0.012712535 0.044716232 0.0 -0.010612455 0.042785335 0.0 -0.0084102741 0.041463528 0.0 -0.00625809 0.040601607000000005 0.0 -0.0041136034000000005 0.040120214 0.0 -0.0020413634 0.06389025599999999 0.0 -0.018509263 0.055802925999999996 0.0 -0.015530911000000001 0.049963322000000004 0.0 -0.013036486000000002 0.045844335 0.0 -0.010961255 0.042967878 0.0 -0.009067134000000001 0.040977522999999995 0.0 -0.007295156800000001 0.039608683 0.0 -0.005452790799999999 0.038734004 0.0 -0.0036269829 0.038246278 0.0 -0.0018154572 0.066242784 0.0 -0.018397525 0.056705773 0.0 -0.014763634 0.049661197000000004 0.0 -0.011892323 0.044906790999999995 0.0 -0.0096474634 0.041710395 0.0 -0.0078453477 0.039494608 0.0 -0.006186749300000001 0.03804813 0.0 -0.004639120300000001 0.037142444 0.0 -0.0031077241999999997 0.036635876 0.0 -0.0015533903 0.069424555 0.0 -0.0193488 0.059877797999999996 0.0 -0.015725153999999998 0.051250383 0.0 -0.01218437 0.045012087 0.0 -0.0093231946 0.041079041000000004 0.0 -0.0071750139 0.038553689 0.0 -0.0055131754000000005 0.036877245 0.0 -0.0040075951 0.03586534 0.0 -0.0026207515 0.035318516 0.0 -0.0012959902 0.071835101 0.0 -0.020458635 0.063806117 0.0 -0.017496124 0.055468671 0.0 -0.014095746000000001 0.047733516 0.0 -0.010861228 0.042010310999999995 0.0 -0.0079632085 0.038461387 0.0 -0.0056786719 0.036342822000000004 0.0 -0.0039283577 0.0351215 0.0 -0.0025077129 0.034465897999999995 0.0 -0.0012247945 0.071409993 0.0 -0.020567858999999997 0.065765947 0.0 -0.018671356 0.059485104000000004 0.0 -0.016237751 0.053145755 0.0 -0.013426293 0.046558097 0.0 -0.010677338 0.041176364 0.0 -0.0078598 0.037654549 0.0 -0.0052463645 0.03567379 0.0 -0.0031438852 0.034727279 0.0 -0.0014625941 0.06432166 0.0 -0.018449187 0.060283888 0.0 -0.017112235 0.056093801 0.0 -0.015313708 0.051942069 0.0 -0.012888096000000002 0.048171673 0.0 -0.0098983524 0.044890873 0.0 -0.0068344483 0.042579763 0.0 -0.0041299933 0.041254684 0.0 -0.0019128213 0.055061392 0.0 -0.015679853 0.052480791 0.0 -0.014211365 0.050306897999999996 0.0 -0.011433127 0.049217000999999996 0.0 -0.0078836652 0.048395757000000005 0.0 -0.0047078347 0.047836509000000006 0.0 -0.0021564898 0.048480712 0.0 -0.012273242 0.047490142 0.0 -0.0089471061 0.047269615999999993 0.0 -0.005282254399999999 0.047135402 0.0 -0.0023880105 -0.00019372557 0.0 -2.65367e-11 -0.00019372629 0.0 1.1143526999999998e-06 -0.0001937098 0.0 2.334735e-06 -0.00019361172 0.0 3.7623779e-06 -0.00019331583 0.0 5.5141809e-06 -0.00019265535 0.0 7.6288047e-06 -0.00019136535 0.0 1.0246746e-05 -0.00018911893 0.0 1.3399816e-05 -0.00027964116 0.0 -2.6472446000000003e-11 -0.00027968019 0.0 1.6217676e-06 -0.00027976772999999995 0.0 3.3903061e-06 -0.00027981642 0.0 5.4223879e-06 -0.00027965807 0.0 7.8832318e-06 -0.00027905127999999996 0.0 1.0856395999999999e-05 -0.00027762415 0.0 1.4481769999999999e-05 -0.00027487257999999997 0.0 1.8911242e-05 -0.0003923371 0.0 -1.2161263e-11 -0.00039243614 0.0 2.0706002e-06 -0.00039269129 0.0 4.317000299999999e-06 -0.00039298089999999995 0.0 6.883967700000001e-06 -0.00039307923999999997 0.0 9.9632034e-06 -0.00039264871 0.0 1.3692384999999999e-05 -0.00039119459999999997 0.0 1.8191149e-05 -0.00038801023 0.0 2.3636365e-05 -0.00052842975 0.0 -2.6759352e-11 -0.0005286177 0.0 2.4544065e-06 -0.0005291277200000001 0.0 5.1076954000000005e-06 -0.00052979996 0.0 8.1473027e-06 -0.00053034682 0.0 1.1768638e-05 -0.00053031807 0.0 1.6179278e-05 -0.00052908331 0.0 2.1449807000000002e-05 -0.0005257041200000001 0.0 2.7805856e-05 -0.00068889186 0.0 -1.511122e-11 -0.00068920705 0.0 2.7885807999999997e-06 -0.00069008913 0.0 5.7984680000000004e-06 -0.00069133833 0.0 9.2701503e-06 -0.00069260481 0.0 1.3386688999999998e-05 -0.0006933216900000001 0.0 1.8413319e-05 -0.00069268822 0.0 2.4455556e-05 -0.00068953156 0.0 3.1693125e-05 -0.00087811385 0.0 1.5914504e-13 -0.00087860686 0.0 3.1046752000000004e-06 -0.00088001299 0.0 6.462593799999999e-06 -0.0008820946699999999 0.0 1.0349063000000001e-05 -0.0008844333900000001 0.0 1.4988264e-05 -0.00088635396 0.0 2.0654922999999997e-05 -0.00088686426 0.0 2.7531276e-05 -0.00088453811 0.0 3.5721845e-05 -0.001103316 0.0 -1.1362711000000001e-10 -0.0011040524 0.0 3.4486936e-06 -0.001106177 0.0 7.2003522e-06 -0.0011094176 0.0 1.1560623e-05 -0.0011132846 0.0 1.6822609e-05 -0.001116995 0.0 2.3259679e-05 -0.0011193558 0.0 3.1151376e-05 -0.0011186650999999998 0.0 4.0488411999999996e-05 -0.0013735902 0.0 -6.4888455e-12 -0.0013746561 0.0 3.8774392e-06 -0.0013777559 0.0 8.1267308e-06 -0.0013825826999999998 0.0 1.3108179e-05 -0.0013885731 0.0 1.9193485e-05 -0.0013948292 0.0 2.6671514000000002e-05 -0.0013999485999999998 0.0 3.5886933e-05 -0.0014019129999999999 0.0 4.6774076e-05 -0.0016989973000000002 0.0 -1.6290495e-10 -0.0017005048 0.0 4.4382468e-06 -0.0017049172 0.0 9.3489843e-06 -0.0017118866000000001 0.0 1.5184156e-05 -0.0017207719 0.0 2.2420504999999997e-05 -0.0017305426 0.0 3.1400181e-05 -0.0017395706 0.0 4.2512333e-05 -0.0017454766000000001 0.0 5.5640801e-05 -0.0020903642 0.0 1.2240735e-11 -0.0020924588 0.0 5.1611078e-06 -0.0020986170999999997 0.0 1.0942691e-05 -0.0021084459 0.0 1.7950624e-05 -0.0021212141 0.0 2.6798532e-05 -0.0021357355 0.0 3.7960643e-05 -0.0021501210999999997 0.0 5.1881616000000005e-05 -0.0021615813 0.0 6.8360241e-05 -0.0025600477 0.0 -1.8152657e-10 -0.002562914 0.0 6.048730000000001e-06 -0.0025713698000000003 0.0 1.2925512000000001e-05 -0.0025849708 0.0 2.1500342e-05 -0.0026028845 0.0 3.2561315e-05 -0.0026237201 0.0 4.6832021000000006e-05 -0.0026452749 0.0 6.4883352e-05 -0.0026643153 0.0 8.6295244e-05 -0.0031223551000000003 0.0 -1.1969105e-10 -0.0031262268 0.0 7.0614092e-06 -0.0031376835 0.0 1.5244079e-05 -0.0031562126 0.0 2.5812521999999997e-05 -0.0031808597999999997 0.0 3.9795301e-05 -0.0032099881 0.0 5.8303779999999994e-05 -0.0032410285999999997 0.0 8.1975188e-05 -0.0032701741 0.0 0.00011054641000000001 -0.0037935202000000004 0.0 -3.2809347e-10 -0.0037986874 0.0 8.0913187e-06 -0.00381402 0.0 1.7746201000000002e-05 -0.0038389172 0.0 3.0707244000000003e-05 -0.0038722779 0.0 4.8270020000000005e-05 -0.0039121903999999996 0.0 7.2247807e-05 -0.0039556976 0.0 0.00010322688 -0.0039981692 0.0 0.00014164197 -0.0045916433 0.0 7.490308399999999e-11 -0.0045984625 0.0 9.0152625e-06 -0.0046187453 0.0 2.0180223e-05 -0.0046517802 0.0 3.5734163e-05 -0.0046963594 0.0 5.7603862e-05 -0.0047502015000000005 0.0 8.834499700000001e-05 -0.0048099281 0.0 0.0001284334 -0.0048699905 0.0 0.00017968029999999998 -0.0055368338 0.0 1.5679553e-10 -0.0055457503 0.0 9.661775e-06 -0.0055723032 0.0 2.2148295e-05 -0.0056157182 0.0 4.0427447e-05 -0.0056746388 0.0 6.7234119e-05 -0.005746396700000001 0.0 0.00010588608999999999 -0.005827125600000001 0.0 0.00015707691999999998 -0.0059103514000000005 0.0 0.00022443137999999998 -0.0066517368 0.0 3.5139728000000005e-11 -0.0066633029 0.0 9.8855835e-06 -0.0066977725 0.0 2.3340390000000004e-05 -0.006754352700000001 0.0 4.4377623e-05 -0.0068314937 0.0 7.6433163e-05 -0.0069261673 0.0 0.00012361906 -0.0070340177 0.0 0.00018799935 -0.0071475096 0.0 0.00027464674 -0.0079623638 0.0 -2.230332e-10 -0.0079772519 0.0 9.654771900000001e-06 -0.0080216732 0.0 2.3698341000000002e-05 -0.0080948342 0.0 4.7351436999999996e-05 -0.0081949783 0.0 8.455348900000001e-05 -0.0083188619 0.0 0.00014135565 -0.0084615573 0.0 0.00022067723 -0.0086142775 0.0 0.00032967335 -0.0094986493 0.0 -1.7772903e-10 -0.0095176734 0.0 9.2294931e-06 -0.0095744804 0.0 2.3682251e-05 -0.0096683372 0.0 4.9875231000000005e-05 -0.00979733 0.0 9.219459e-05 -0.0099580791 0.0 0.00015923157 -0.010145036999999999 0.0 0.00025489522000000003 -0.010347941 0.0 0.00038896364000000003 -0.011293953999999998 0.0 -2.4741006e-10 -0.011318055 0.0 9.465909e-06 -0.011390083999999998 0.0 2.4893783e-05 -0.011509382 0.0 5.3620173000000005e-05 -0.011674176999999999 0.0 0.00010171159 -0.011880866 0.0 0.00017936186 -0.012123153999999999 0.0 0.00029197143 -0.012388831000000001 0.0 0.00045062814000000005 -0.013383308 0.0 7.879124599999999e-10 -0.013413534 0.0 1.2191387999999999e-05 -0.013503977 0.0 3.0801154999999996e-05 -0.013654188000000001 0.0 6.378909200000001e-05 -0.013862603999999999 0.0 0.00011870978 -0.01412566 0.0 0.00020702624 -0.01443601 0.0 0.00033628527000000003 -0.014780297 0.0 0.00052045361 -0.015801789 0.0 3.632879e-10 -0.015839264 0.0 2.0625976e-05 -0.015951563000000002 0.0 4.76196e-05 -0.016138611 0.0 8.9115179e-05 -0.016399294 0.0 0.00015372966 -0.01673042 0.0 0.00025401008 -0.017123945 0.0 0.00040069636 -0.017565351 0.0 0.00060938013 -0.018585638999999998 0.0 -2.4703093e-09 -0.01863149 0.0 3.9804188e-05 -0.01876921 0.0 8.5307729e-05 -0.018999278999999997 0.0 0.0001438887 -0.019321445 0.0 0.00022459115000000003 -0.019733507 0.0 0.00034083024 -0.020227315 0.0 0.00050686265 -0.020787552 0.0 0.0007386264 -0.021777559 0.0 -1.4425638e-09 -0.021832904 0.0 7.7255812e-05 -0.021999504 0.0 0.00015835306999999998 -0.02227873 0.0 0.00024945129 -0.022671865 0.0 0.00035856580000000004 -0.023178417000000003 0.0 0.00049958157 -0.023791501 0.0 0.0006897948299999999 -0.024494959 0.0 0.00094490487 -0.025434402999999998 0.0 3.677631e-10 -0.025500252999999997 0.0 0.00014326233999999998 -0.025698861 0.0 0.00028770961 -0.026032892999999998 0.0 0.00043603827000000003 -0.026506118 0.0 0.00059425342 -0.02712067 0.0 0.0007768149400000001 -0.027872257 0.0 0.0010025088 -0.028745856 0.0 0.0012865055 -0.029631656 0.0 -6.6344036e-10 -0.029708765 0.0 0.00025112179 -0.029941699 0.0 0.0004980342299999999 -0.030334967999999997 0.0 0.0007396728 -0.030895872 0.0 0.0009808747599999999 -0.031630989 0.0 0.0012339586 -0.032540474 0.0 0.0015182238 -0.033609901 0.0 0.0018469470999999999 -0.03445771 0.0 7.855122099999999e-10 -0.034546349 0.0 0.0004104703 -0.034814786 0.0 0.00081253215 -0.035270441 0.0 0.001201127 -0.035924926 0.0 0.0015767320000000002 -0.036790613 0.0 0.0019484417000000002 -0.037873432 0.0 0.0023295935 -0.039162774 0.0 0.0027372073 -0.039990231 0.0 -3.0238823e-09 -0.040090777 0.0 0.00063185778 -0.040395912 0.0 0.0012521914999999999 -0.040915713 0.0 0.0018535558999999999 -0.041667193 0.0 0.002435796 -0.042670865 0.0 0.0029958158 -0.043938562 0.0 0.0035426334999999996 -0.045463413 0.0 0.0040818588 -0.046259422 0.0 3.3258638e-09 -0.046372432000000005 0.0 0.00092445523 -0.04671593 0.0 0.0018359002 -0.047302958 0.0 0.0027253890999999995 -0.048155665 0.0 0.00358955 -0.04929987 0.0 0.0044310624 -0.050756805 0.0 0.005245131 -0.052523322000000004 0.0 0.0060155634 -0.05316747 0.0 2.5401761e-09 -0.053294852000000004 0.0 0.0012912342 -0.053680904 0.0 0.0025756275 -0.05433863 0.0 0.0038474195 -0.055295315 0.0 0.0050998395 -0.056584094 0.0 0.006324080300000001 -0.058232263 0.0 0.0075156824 -0.06023879 0.0 0.0086468924 -0.060434725 0.0 2.9331104e-09 -0.060578125999999996 0.0 0.0017110863 -0.061010547000000005 0.0 0.00342738 -0.061744045 0.0 0.0051563247 -0.062805422 0.0 0.006895259 -0.064237013 0.0 0.0086329263 -0.066073798 0.0 0.010341028 -0.068312675 0.0 0.011961835 -0.06757009 0.0 -1.3622059e-09 -0.067731634 0.0 0.0021950852 -0.06822411 0.0 0.004405575300000001 -0.06904579 0.0 0.006655322900000001 -0.070216134 0.0 0.0089710243 -0.071781039 0.0 0.01134902 -0.073782988 0.0 0.013727595 -0.076244086 0.0 0.015998837 -0.07411379400000001 0.0 -1.3629211e-09 -0.074295856 0.0 0.0027530894 -0.074849762 0.0 0.0055364911 -0.075765148 0.0 0.008393351 -0.077068135 0.0 0.01137064 -0.078804106 0.0 0.014476744 -0.080977514 0.0 0.017657196 -0.083630219 0.0 0.02068859 -0.07966794099999999 0.0 3.3220696e-10 -0.07987063400000001 0.0 0.0033446278000000005 -0.080482699 0.0 0.0067228172 -0.081509389 0.0 0.01019649 -0.082955211 0.0 0.013853617 -0.08486278400000001 0.0 0.017756952 -0.087223157 0.0 0.02186802 -0.090050586 0.0 0.025928721000000002 -0.083950274 0.0 -1.4737579e-08 -0.08417268800000001 0.0 0.004038486599999999 -0.08484436599999999 0.0 0.0081254346 -0.08597105699999999 0.0 0.012357561999999999 -0.087546699 0.0 0.016888727 -0.08956711699999999 0.0 0.0218118 -0.09197876599999999 0.0 0.027015682000000003 -0.094815359 0.0 0.032223649 -0.08596652699999999 0.0 1.4146196e-09 -0.08620104199999999 0.0 0.0048971549 -0.086906321 0.0 0.009878375600000001 -0.088081084 0.0 0.015093961999999999 -0.089721754 0.0 0.020753352 -0.09180924300000001 0.0 0.027012751 -0.09428291 0.0 0.033754017000000004 -0.097093955 0.0 0.040496748 -0.083802238 0.0 1.2046908e-08 -0.08403429400000001 0.0 0.005682807 -0.084733628 0.0 0.011494275 -0.08589711800000001 0.0 0.017670017 -0.087527066 0.0 0.024529087999999998 -0.08960449699999999 0.0 0.032303274 -0.09200640800000001 0.0 0.040908724 -0.09466888 0.0 0.049799468 -0.065362327 0.0 -4.795673900000001e-10 -0.06556485599999999 0.0 0.006410388299999999 -0.066172414 0.0 0.012975444 -0.067190133 0.0 0.019980233 -0.068637796 0.0 0.027819445 -0.070549779 0.0 0.036789507 -0.07295016900000001 0.0 0.046834535999999996 -0.075846516 0.0 0.057393182 -0.040589526 0.0 2.2068103999999996e-08 -0.040743972999999996 0.0 0.0069456058999999995 -0.041204832000000004 0.0 0.014044338 -0.041968804000000005 0.0 0.021590129 -0.043040845999999994 0.0 0.029995631000000002 -0.044436830999999996 0.0 0.039567503999999996 -0.046172872000000004 0.0 0.050234981 -0.048239372999999995 0.0 0.061377369 -0.021765674 0.0 1.0716835e-08 -0.021868844 0.0 0.007326573100000001 -0.022174233999999998 0.0 0.014798307 -0.022672916 0.0 0.022709996 -0.0233589 0.0 0.031483992999999995 -0.024233209 0.0 0.04143266 -0.025296937999999998 0.0 0.052466094000000005 -0.02653111 0.0 0.063907057 -0.0081174383 0.0 -1.0540073e-10 -0.0081705125 0.0 0.0075527225 -0.0083250441 0.0 0.015239265 -0.0085696271 0.0 0.023350051 -0.008891847 0.0 0.03231116 -0.0092831543 0.0 0.042438742 -0.0097367913 0.0 0.053631421 -0.010236305 0.0 0.065172985 0.0027481306 0.0 -3.0133424999999996e-08 0.0027416525 0.0 0.007634318 0.0027264446999999995 0.0 0.01539056 0.0027141285 0.0 0.023551792000000002 0.0027200392999999997 0.0 0.032543413 0.0027587544 0.0 0.042684682 0.0028411134000000003 0.0 0.053872649 0.0029771023 0.0 0.065375239 0.013094623 0.0 7.4396374e-09 0.013130151000000001 0.0 0.0075870398 0.013240288000000001 0.0 0.015285358999999998 0.013435585 0.0 0.023369366000000003 0.013732601 0.0 0.032260127 0.014150117 0.0 0.042279162 0.014703051000000002 0.0 0.053330127000000005 0.015397569 0.0 0.064686425 0.023973322999999998 0.0 2.9119541e-08 0.024046313 0.0 0.0074278926 0.024268026 0.0 0.014958515 0.024647735 0.0 0.02285701 0.025202727 0.0 0.031537019 0.025956165 0.0 0.041320007 0.02692892 0.0 0.052121013 0.028128757999999997 0.0 0.063234024 0.035176456 0.0 8.8141201e-09 0.035282545 0.0 0.0071708746 0.035602827000000004 0.0 0.014438148 0.036145598 0.0 0.022057176 0.036929484 0.0 0.030430954 0.03798252 0.0 0.039877723999999996 0.039333377 0.0 0.050324537 0.040996827 0.0 0.061094847 0.045862678 0.0 -2.3140267999999997e-08 0.045997478 0.0 0.0068281679 0.046403334000000004 0.0 0.01374804 0.047088227999999996 0.0 0.021004922999999998 0.048072286 0.0 0.028987792999999998 0.049389042 0.0 0.038007822000000004 0.051075857 0.0 0.048002534000000006 0.053157326 0.0 0.058328588 0.055013220999999994 0.0 -3.0844904999999995e-08 0.055174722999999995 0.0 0.006412735699999999 0.055660561 0.0 0.012913528 0.056478205999999996 0.0 0.019736418999999998 0.057649337 0.0 0.027254117999999997 0.059209595999999996 0.0 0.03576703 0.061201077 0.0 0.045220554 0.063656934 0.0 0.055005606 0.058957167000000005 0.0 4.1008623e-09 0.059164096 0.0 0.0059814169 0.059788808 0.0 0.012037363999999998 0.060847245 0.0 0.018380791 0.062350623 0.0 0.025359545 0.064328216 0.0 0.033269674 0.066791169 0.0 0.04207947099999999 0.069773927 0.0 0.051225625 0.059330188 0.0 9.5300159e-09 0.059546790999999995 0.0 0.0055243098 0.060202133 0.0 0.011113913000000001 0.061311778 0.0 0.016953338000000002 0.062899105 0.0 0.023362993999999998 0.06498277200000001 0.0 0.030620655 0.06759063900000001 0.0 0.038721111 0.07077153 0.0 0.047157459000000006 0.058668215 0.0 8.4185858e-09 0.058883912999999996 0.0 0.0050240294 0.059536517000000004 0.0 0.010111037 0.060645267 0.0 0.015432835 0.062239137 0.0 0.021278465 0.06434296099999999 0.0 0.027897341000000003 0.06697415599999999 0.0 0.035283643999999996 0.070189327 0.0 0.042985382999999995 0.057406715999999997 0.0 -3.6837577e-10 0.057618812 0.0 0.0045324597 0.058256879000000004 0.0 0.0091316747 0.059340674 0.0 0.013947946000000001 0.060897887000000005 0.0 0.019227788 0.062972315 0.0 0.025208917999999997 0.065593354 0.0 0.031897411 0.06881467299999999 0.0 0.038881835 0.055858992 0.0 9.9786543e-09 0.056063242 0.0 0.0040743751 0.056678455 0.0 0.0082184225 0.057710011 0.0 0.01257111 0.05919158099999999 0.0 0.017368268 0.061181128 0.0 0.022785587000000003 0.063747846 0.0 0.028809996 0.066966921 0.0 0.03508392 0.053983983 0.0 3.4287371e-09 0.054179310999999994 0.0 0.003659341 0.054766204000000006 0.0 0.007393131999999999 0.055756282000000004 0.0 0.011326665 0.05718618599999999 0.0 0.015642411999999998 0.059114005 0.0 0.020516641000000002 0.061637681 0.0 0.02594869 0.064870261 0.0 0.031567141 0.051826715 0.0 7.3524142e-09 0.05201216400000001 0.0 0.0032936746999999997 0.052570276 0.0 0.0066625373 0.053515624000000005 0.0 0.010221744 0.054887038 0.0 0.014114421 0.056761137999999996 0.0 0.018485853 0.059259217 0.0 0.023320679 0.062521651 0.0 0.028321395 0.049444608 0.0 4.575158e-09 0.049617275999999995 0.0 0.0029736154 0.050149299 0.0 0.0060252119 0.051052049 0.0 0.0092514604 0.052378073 0.0 0.012779943 0.054208402 0.0 0.016686361 0.056701284000000005 0.0 0.02094302 0.059987715999999996 0.0 0.025246922 0.04694819099999999 0.0 2.260186e-09 0.047112402000000005 0.0 0.0027013365 0.047614422 0.0 0.005482722099999999 0.048486250999999994 0.0 0.0084226932 0.049785413 0.0 0.011606203999999998 0.051610459000000004 0.0 0.015067843000000001 0.05411544099999999 0.0 0.018765152 0.057435062 0.0 0.022421969 0.044453122000000005 0.0 2.9899359e-09 0.044611957 0.0 0.0024645375 0.045099519000000005 0.0 0.0050007235 0.045957498 0.0 0.0076821567000000006 0.047246367000000004 0.0 0.010536463000000001 0.049091455 0.0 0.013611568999999999 0.051601179000000004 0.0 0.01671546 0.055063441 0.0 0.019884864 0.042095645999999994 0.0 7.7195456e-10 0.042250678 0.0 0.0022482886 0.042734135 0.0 0.0045626517 0.043586597000000005 0.0 0.0069709476 0.044893552 0.0 0.0095280623 0.046741995999999994 0.0 0.012098685 0.049372114 0.0 0.01474175 0.052852765 0.0 0.01726616 0.039966315 0.0 1.3593651e-09 0.040120225 0.0 0.0020413636 0.040601611 0.0 0.0041136066 0.041463532000000004 0.0 0.0062580891 0.042785339000000006 0.0 0.0084102731 0.044716239000000005 0.0 0.010612453999999999 0.047364958 0.0 0.012712537 0.051115159 0.0 0.014951365 0.038092572000000005 0.0 2.182418e-09 0.038246285 0.0 0.0018154561999999999 0.038734008 0.0 0.003626985 0.039608683 0.0 0.0054527912 0.040977526 0.0 0.0072951559 0.042967875 0.0 0.009067134000000001 0.045844339000000005 0.0 0.01096126 0.049963333 0.0 0.013036486000000002 0.036466333999999996 0.0 1.6126253e-09 0.036635872 0.0 0.001553392 0.037142448 0.0 0.0031077204999999998 0.038048133 0.0 0.0046391212 0.039494611 0.0 0.0061867489000000005 0.041710392 0.0 0.0078453468 0.044906795 0.0 0.0096474625 0.049661208 0.0 0.011892328 0.035140023 0.0 4.1733632999999997e-10 0.035318524 0.0 0.0012959886 0.03586534 0.0 0.002620748 0.036877245 0.0 0.0040075956 0.038553689 0.0 0.0055131745 0.041079044 0.0 0.007175013 0.04501209 0.0 0.00932319 0.051250391 0.0 0.012184371999999999 0.034263327999999996 0.0 -1.0986714e-09 0.034465897999999995 0.0 0.0012247954 0.0351215 0.0 0.0025077148 0.036342829 0.0 0.0039283577 0.038461395 0.0 0.005678673299999999 0.042010318 0.0 0.0079632085 0.047733516 0.0 0.010861228999999998 0.055468682000000005 0.0 0.014095752 0.034440532 0.0 -2.5429125e-10 0.034727287 0.0 0.001462595 0.035673786 0.0 0.0031438852 0.037654553 0.0 0.0052463636 0.04117636 0.0 0.0078597991 0.046558092999999995 0.0 0.010677336 0.053145763 0.0 0.013426295 0.059485107999999995 0.0 0.016237751 0.040831032999999996 0.0 -4.5574910999999997e-10 0.041254692 0.0 0.0019128226 0.042579759 0.0 0.0041299928 0.044890884000000006 0.0 0.0068344483 0.048171673 0.0 0.009898350600000001 0.05194208 0.0 0.012888102 0.056093819 0.0 0.01531371 0.060283896 0.0 0.017112235 0.047634579 0.0 6.7594763e-10 0.047836501 0.0 0.0021564912 0.048395757000000005 0.0 0.0047078360999999996 0.049216993 0.0 0.0078836652 0.050306897999999996 0.0 0.011433128 0.052480797999999995 0.0 0.014211363999999999 0.055061396 0.0 0.015679851 0.047090836 0.0 1.7524631e-11 0.047135402 0.0 0.0023880098000000002 0.047269615999999993 0.0 0.0052822549 0.047490146 0.0 0.0089471061 0.04848071599999999 0.0 0.012273241 -0.00018549552 0.0 1.7089835e-05 -0.00017994287 0.0 2.1444412000000004e-05 -0.00017196669 0.0 2.6128855e-05 -0.00016088622 0.0 3.0984505e-05 -0.0001462756 0.0 3.5332872000000005e-05 -0.00012759221000000002 0.0 3.8823069e-05 -0.00010544952 0.0 4.0224622e-05 -0.00027023375 0.0 2.3967801e-05 -0.00026281737000000003 0.0 2.9910021e-05 -0.00025172377 0.0 3.6349011e-05 -0.00023588109 0.0 4.2777362999999993e-05 -0.00021434879000000002 0.0 4.808322e-05 -0.00018602354 0.0 5.1692426e-05 -0.00015082375 0.0 5.2416581e-05 -0.00010942928 0.0 5.5019598e-05 -0.00038225311000000004 0.0 2.9919085e-05 -0.00037270045 0.0 3.7151895e-05 -0.00035793261 0.0 4.4895573000000004e-05 -0.00033618849999999997 0.0 5.2650965e-05 -0.00030600939999999996 0.0 5.8850865999999996e-05 -0.00026566989 0.0 6.3362386e-05 -0.00021573277999999997 0.0 6.482657e-05 -0.00015702184 0.0 6.592452e-05 -0.00051900174 0.0 3.5228706e-05 -0.0005073697 0.0 4.3688098e-05 -0.0004887316 0.0 5.2842362000000004e-05 -0.00046056375 0.0 6.2021638e-05 -0.00042066434999999997 0.0 6.9444955e-05 -0.00036664717 0.0 7.5020282e-05 -0.00029923047999999997 0.0 7.6747856e-05 -0.00021852002999999998 0.0 7.818102299999999e-05 -0.00068228156 0.0 4.0271712e-05 -0.00066892215 0.0 4.9945883999999995e-05 -0.00064659503 0.0 6.0583631999999995e-05 -0.0006118415 0.0 7.134788800000001e-05 -0.00056148291 0.0 8.0175276e-05 -0.00049203518 0.0 8.7113993e-05 -0.00040388177000000004 0.0 8.9783069e-05 -0.00029629849999999997 0.0 9.3256509e-05 -0.00087736477 0.0 4.5547757e-05 -0.00086285145 0.0 5.6504163e-05 -0.0008372670299999999 0.0 6.8612862e-05 -0.00079596363 0.0 8.1031154e-05 -0.0007345401700000001 0.0 9.1360867e-05 -0.00064784888 0.0 0.00010015487 -0.00053554814 0.0 0.00010477799999999999 -0.00039546809 0.0 0.00011209874 -0.0011124432000000001 0.0 5.1675294999999996e-05 -0.0010975582 0.0 6.4123327e-05 -0.0010693165 0.0 7.7753226e-05 -0.0010216107 0.0 9.195790300000001e-05 -0.0009486224199999999 0.0 0.00010388718 -0.00084279809 0.0 0.00011529530000000001 -0.00070269569 0.0 0.00012325066 -0.00052349747 0.0 0.00013693506 -0.0013977442 0.0 5.967963800000001e-05 -0.0013835385 0.0 7.4029667e-05 -0.0013534285 0.0 8.9636589e-05 -0.0012997549 0.0 0.00010584793 -0.0012146026 0.0 0.00011988333999999999 -0.001088131 0.0 0.00013441731000000002 -0.00091628288 0.0 0.00014767013999999998 -0.00069111196 0.0 0.00017035565 -0.0017447352 0.0 7.101238599999999e-05 -0.0017325822 0.0 8.808648999999999e-05 -0.0017017401 0.0 0.00010671403999999998 -0.0016425304 0.0 0.00012610387 -0.0015446945999999999 0.0 0.00014304729 -0.0013964492000000002 0.0 0.00016031328 -0.0011896625 0.0 0.00018018294999999998 -0.0009136412400000001 0.0 0.00021257720000000002 -0.0021659370999999998 0.0 8.7681714e-05 -0.0021575831 0.0 0.00010902246999999999 -0.0021277147 0.0 0.00013197765 -0.0020643296 0.0 0.0001552512 -0.0019534754000000002 0.0 0.00017655971000000002 -0.0017820423999999999 0.0 0.00019679352 -0.0015397160999999998 0.0 0.00022051118 -0.0012128399000000002 0.0 0.00025790432 -0.0026759214 0.0 0.00011152233999999999 -0.0026735258000000002 0.0 0.00013947768 -0.0026471061 0.0 0.00016841158999999998 -0.0025811010999999997 0.0 0.00019813303 -0.0024593242 0.0 0.00022183519 -0.0022646787 0.0 0.00024433265 -0.0019891593 0.0 0.0002684643 -0.0016144831 0.0 0.00030636298 -0.0032917662 0.0 0.00014410353999999998 -0.0032980777 0.0 0.00018168859 -0.0032780541 0.0 0.00021983172000000003 -0.0032128128000000005 0.0 0.0002587896 -0.0030831848 0.0 0.00029045405 -0.0028662693 0.0 0.00032713337000000005 -0.0025557776 0.0 0.0003764201 -0.0021083551 0.0 0.00047757316 -0.0040332363000000005 0.0 0.00018695895 -0.0040519931 0.0 0.00023833306 -0.004042313 0.0 0.00029263095 -0.0039836694 0.0 0.00035027714 -0.0038533632 0.0 0.00040967995000000003 -0.0036209461 0.0 0.00050246663 -0.0032850925 0.0 0.00065743423 -0.0027932525 0.0 0.0009389128 -0.0049233595 0.0 0.00024042057 -0.0049597137 0.0 0.00031187694 -0.0049659809999999995 0.0 0.00039328553 -0.004921434000000001 0.0 0.00048745068 -0.0048034685 0.0 0.00059535011 -0.0045774909999999995 0.0 0.0007709212400000001 -0.0042384099 0.0 0.0010602421000000001 -0.0037437484000000004 0.0 0.0014765612 -0.0059883309999999995 0.0 0.00030567421 -0.0060489466000000006 0.0 0.00040455229 -0.0060783927 0.0 0.00052166829 -0.0060559437 0.0 0.00066499534 -0.0059621404000000005 0.0 0.0008402843400000001 -0.0057589443999999995 0.0 0.0010986784 -0.0054349587 0.0 0.0014927109 -0.0049618273 0.0 0.0019809932 -0.0072579705000000005 0.0 0.00038150157 -0.0073512937 0.0 0.0005147383200000001 -0.0074123829 0.0 0.00067586498 -0.0074201436 0.0 0.0008759512 -0.0073523181000000005 0.0 0.0011170455999999999 -0.0071768528 0.0 0.0014550311 -0.0068752291000000005 0.0 0.0019249536999999999 -0.0064192181000000004 0.0 0.002465352 -0.0087670768 0.0 0.00046743607000000005 -0.0089032268 0.0 0.00064108183 -0.009004475500000001 0.0 0.0008526169699999999 -0.0090467585 0.0 0.0011103064 -0.0090071764 0.0 0.0014233107000000001 -0.008851396899999999 0.0 0.0018358114 -0.0085570747 0.0 0.002371755 -0.008095919200000001 0.0 0.0029764484999999998 -0.010554388 0.0 0.00056016963 -0.010745111000000002 0.0 0.00077848742 -0.010897337 0.0 0.0010480157 -0.010981433999999998 0.0 0.0013733757999999999 -0.010968707 0.0 0.0017606376 -0.010821807 0.0 0.0022477491 -0.010511821999999999 0.0 0.0028598576 -0.010011728000000001 0.0 0.0035411371000000002 -0.012663341000000002 0.0 0.00065891078 -0.012923563999999998 0.0 0.00092758681 -0.013139713 0.0 0.0012624268 -0.013274775 0.0 0.0016641757 -0.013291388999999999 0.0 0.0021353194 -0.01314654 0.0 0.0027082504 -0.012802903000000001 0.0 0.0034115240000000004 -0.012228705 0.0 0.0041898754 -0.01514007 0.0 0.00076790917 -0.015487923 0.0 0.0010897375 -0.015784534 0.0 0.0014959609 -0.015983174 0.0 0.0019841441000000002 -0.016036181 0.0 0.0025542669000000002 -0.015893241000000002 0.0 0.0032328658 -0.015507276 0.0 0.0040509179 -0.01483891 0.0 0.0049460582 -0.018031593000000002 0.0 0.0008961376699999999 -0.018489687 0.0 0.0012709409 -0.01888858 0.0 0.0017517206 -0.019169189 0.0 0.0023366446 -0.019270191000000002 0.0 0.0030233501 -0.019132832 0.0 0.0038352564 -0.018699987 0.0 0.0047979979 -0.017926194 0.0 0.0058328453 -0.021385768 0.0 0.0010622444 -0.021982664 0.0 0.001484895 -0.022513672999999998 0.0 0.0020396045999999998 -0.022902675 0.0 0.002727642 -0.02307063 0.0 0.0035474987 -0.022946971 0.0 0.0045257835 -0.022465186 0.0 0.0056758458 -0.021574207 0.0 0.0068820561 -0.025255412 0.0 0.0013001811000000001 -0.026027323999999998 0.0 0.0017633467 -0.026728721 0.0 0.0023821287 -0.027262852 0.0 0.0031696641999999996 -0.027527222 0.0 0.004131339 -0.027433829 0.0 0.0053113736 -0.026905086 0.0 0.0067104422 -0.025886111 0.0 0.0081327148 -0.029703297000000004 0.0 0.0016668701 -0.030690562 0.0 0.0021608095000000003 -0.031609774 0.0 0.0028235801 -0.032337852 0.0 0.0036915973999999997 -0.032742247 0.0 0.0047876136 -0.032709695 0.0 0.0061979648 -0.032145556 0.0 0.0079299482 -0.030993937000000003 0.0 0.0096398164 -0.034800395 0.0 0.0022528481 -0.036046565 0.0 0.0027693387 -0.037236001 0.0 0.0034438310999999997 -0.038218804 0.0 0.0043496937 -0.038823504 0.0 0.0055491356 -0.038907312 0.0 0.0071994867 -0.038338977999999996 0.0 0.0093650352 -0.037071854 0.0 0.011461253999999999 -0.040617991 0.0 0.0031867446000000002 -0.042163625 0.0 0.0037185990000000004 -0.04367965099999999 0.0 0.0043780175 -0.044986397000000004 0.0 0.0052530449 -0.045869436 0.0 0.0064936359 -0.046157073 0.0 0.0083538415 -0.04566052599999999 0.0 0.011051278000000001 -0.044349864 0.0 0.013677165 -0.047207676 0.0 0.0046192928999999995 -0.049088281 0.0 0.0051815724 -0.050975322999999996 0.0 0.0058111502 -0.052681509 0.0 0.0066002142 -0.053944495 0.0 0.0077912323 -0.054557942000000005 0.0 0.0097543588 -0.054287009000000004 0.0 0.013058759 -0.053108777999999995 0.0 0.016392775 -0.054562025 0.0 0.006720914000000001 -0.056793582 0.0 0.0073706186 -0.059083544 0.0 0.0080004977 -0.06125129 0.0 0.0086544286 -0.063013732 0.0 0.0096871592 -0.06411937599999999 0.0 0.011590973999999999 -0.064316861 0.0 0.01549554 -0.063583188 0.0 0.019699183999999998 -0.06255856900000001 0.0 0.0096619213 -0.065120302 0.0 0.010514401999999999 -0.067817196 0.0 0.01121588 -0.070481367 0.0 0.011763888 -0.072854377 0.0 0.012534816 -0.074658953 0.0 0.014203432 -0.075630695 0.0 0.018585242 -0.075785354 0.0 0.023721769 -0.070897728 0.0 0.013452169 -0.07373745 0.0 0.014765257 -0.076776817 0.0 0.01571472 -0.079907946 0.0 0.016329337 -0.082969561 0.0 0.016740356 -0.08565089099999999 0.0 0.018094985 -0.087709539 0.0 0.022701595 -0.08921632199999999 0.0 0.028651241 -0.079122514 0.0 0.018005552 -0.082282998 0.0 0.019768665 -0.085573964 0.0 0.021294845 -0.08898960800000001 0.0 0.022377985 -0.092644416 0.0 0.022815624 -0.096277259 0.0 0.023958696 -0.09960231900000001 0.0 0.028497545 -0.10272285 0.0 0.034799881 -0.08674608199999999 0.0 0.023382269 -0.09021267300000001 0.0 0.025635825 -0.09384547900000001 0.0 0.027662832000000002 -0.09753520800000001 0.0 0.029477128999999998 -0.10146725 0.0 0.030797772 -0.1058148 0.0 0.03249976 -0.11026894 0.0 0.036700387 -0.11475334 0.0 0.042527474 -0.093347788 0.0 0.029500092999999998 -0.097083852 0.0 0.032484189 -0.10110261 0.0 0.035107344 -0.10520138 0.0 0.037852433 -0.10933762 0.0 0.041008092 -0.11382254 0.0 0.044365339000000004 -0.11891253 0.0 0.047035299 -0.12409277 0.0 0.051862665 -0.09815117699999999 0.0 0.03693999 -0.10193104 0.0 0.04097921 -0.10599188 0.0 0.045150450999999994 -0.11000203 0.0 0.050349213 -0.1138792 0.0 0.056595944 -0.11857443 0.0 0.059788223 -0.12456267 0.0 0.058030263 -0.12971823 0.0 0.062039461 -0.10031669 0.0 0.046610482 -0.10398108 0.0 0.052180734000000006 -0.1078127 0.0 0.058443777 -0.11126635 0.0 0.066731922 -0.11424201 0.0 0.074628867 -0.11892801 0.0 0.074770272 -0.12577513 0.0 0.068479285 -0.12933934 0.0 0.071526527 -0.097688131 0.0 0.057976305 -0.10118529 0.0 0.065395363 -0.10466969 0.0 0.073775277 -0.10704337 0.0 0.08385425099999999 -0.10796715 0.0 0.090956695 -0.11147841 0.0 0.087823875 -0.11558561 0.0 0.077311821 -0.11144996 0.0 0.08023414799999999 -0.079183951 0.0 0.06725787400000001 -0.08278925 0.0 0.076091066 -0.08626180900000001 0.0 0.08584482199999999 -0.088669389 0.0 0.096911438 -0.08871547099999999 0.0 0.10256286 -0.08740363300000001 0.0 0.095754273 -0.084066041 0.0 0.08366736799999999 -0.077981263 0.0 0.087343387 -0.05057035 0.0 0.071687736 -0.053015072 0.0 0.080728382 -0.055276368 0.0 0.09034828800000001 -0.056739304000000004 0.0 0.1009295 -0.05645185 0.0 0.10542836 -0.054843302999999996 0.0 0.098179191 -0.052146502000000004 0.0 0.087096937 -0.047751952 0.0 0.0922359 -0.027872106 0.0 0.07435759900000001 -0.029196259 0.0 0.0832977 -0.0303085 0.0 0.09251160900000001 -0.030848442 0.0 0.10238148 -0.030364901 0.0 0.10592477 -0.029106112000000003 0.0 0.09906961 -0.027452791 0.0 0.08932773 -0.024672724 0.0 0.095712997 -0.010738716 0.0 0.075602874 -0.011166477 0.0 0.084352627 -0.011418464 0.0 0.093192168 -0.011343777 0.0 0.10266197 -0.01080074 0.0 0.10585921 -0.010026413 0.0 0.099550515 -0.0093069682 0.0 0.09090372199999999 -0.0080382153 0.0 0.09796828 0.0031829466999999997 0.0 0.075702488 0.003482833 0.0 0.084270112 0.0038867840000000003 0.0 0.092873231 0.004371906599999999 0.0 0.10231517 0.0048523722 0.0 0.10573744 0.0050971238 0.0 0.099851839 0.0050704367 0.0 0.091705635 0.0049807173 0.0 0.09912644300000001 0.016228406 0.0 0.074860901 0.017171655 0.0 0.083281189 0.018149421000000002 0.0 0.09179125 0.0189768 0.0 0.10147043 0.019319868 0.0 0.10546112 0.019073935 0.0 0.09993192599999999 0.018634085 0.0 0.09171845 0.017284248000000002 0.0 0.099148057 0.029539786000000002 0.0 0.07320025599999999 0.031102134 0.0 0.081463896 0.032657307000000003 0.0 0.089872323 0.033865169 0.0 0.099655442 0.034050237000000004 0.0 0.10414102 0.03342732 0.0 0.098903775 0.032739702999999995 0.0 0.090687804 0.030332368 0.0 0.097974613 0.04295646 0.0 0.070776597 0.045129627 0.0 0.07883054 0.047286708 0.0 0.087059267 0.048949770999999996 0.0 0.09669747199999999 0.048995063 0.0 0.10141373 0.048108671 0.0 0.09645953800000001 0.04730789 0.0 0.088492975 0.043950859 0.0 0.095555313 0.055622797 0.0 0.06763295799999999 0.05837743 0.0 0.07539262599999999 0.061131489000000004 0.0 0.083327375 0.06327273 0.0 0.09259916800000001 0.063214861 0.0 0.09726969199999999 0.062052805 0.0 0.092668705 0.061314944 0.0 0.08532948 0.057174254 0.0 0.092061609 0.066573448 0.0 0.063836858 0.069848739 0.0 0.071206503 0.07314647 0.0 0.07872521099999999 0.07565348599999999 0.0 0.087336414 0.075262114 0.0 0.09152767099999999 0.073989689 0.0 0.087671742 0.07362049799999999 0.0 0.081268884 0.06898075299999999 0.0 0.08767882699999999 0.073342912 0.0 0.05950257900000001 0.077514321 0.0 0.066417031 0.081836097 0.0 0.073406316 0.08504159 0.0 0.081033617 0.084376656 0.0 0.08474736699999999 0.083148032 0.0 0.081758484 0.08318500200000001 0.0 0.07649859 0.078460611 0.0 0.08256954700000001 0.07458578099999999 0.0 0.054826155 0.079121873 0.0 0.061261419000000004 0.084280454 0.0 0.067663476 0.08925049 0.0 0.074538201 0.09055131699999999 0.0 0.07775513099999999 0.089647621 0.0 0.075562671 0.08997774900000001 0.0 0.071415827 0.085107781 0.0 0.076936238 0.074069291 0.0 0.05002211 0.078722082 0.0 0.055948890999999994 0.084023736 0.0 0.061709952 0.089682385 0.0 0.06818775099999999 0.093414925 0.0 0.071185715 0.093960382 0.0 0.069292121 0.09446595599999999 0.0 0.065897971 0.08980579699999999 0.0 0.07100056099999999 0.072723366 0.0 0.04529665 0.07742333400000001 0.0 0.050728012 0.082862794 0.0 0.055853963 0.088902026 0.0 0.061666857 0.094056487 0.0 0.065032125 0.096728466 0.0 0.063084349 0.097806059 0.0 0.060152030999999995 0.093699984 0.0 0.064862452 0.070951454 0.0 0.04090425 0.075698309 0.0 0.045804147 0.081209518 0.0 0.05039408099999999 0.08745746300000001 0.0 0.055273585 0.09371072800000001 0.0 0.058950588 0.09821973 0.0 0.05707125 0.10052103 0.0 0.054410249 0.097915709 0.0 0.058624521 0.068929851 0.0 0.03677462 0.073786296 0.0 0.041170765 0.079486683 0.0 0.0453883 0.085898541 0.0 0.049557459000000005 0.09311428699999999 0.0 0.052854280999999996 0.098998599 0.0 0.051474947 0.10277935 0.0 0.04914248 0.10334236 0.0 0.052416205 0.066629097 0.0 0.03288338 0.071672067 0.0 0.036967743 0.077509895 0.0 0.040651433 0.08451729300000001 0.0 0.044526342000000003 0.092511371 0.0 0.047218893 0.099803299 0.0 0.046302944000000006 0.1057283 0.0 0.044592254000000005 0.11055748 0.0 0.047510449 0.064207032 0.0 0.029269159 0.06937909099999999 0.0 0.033025578 0.075635612 0.0 0.036475621 0.083534837 0.0 0.039858222 0.092269942 0.0 0.042231700999999996 0.10131103 0.0 0.042082112000000005 0.10964158 0.0 0.041449953 0.118279 0.0 0.044538460999999994 0.061795830999999996 0.0 0.026056647000000002 0.06720385 0.0 0.029311552999999997 0.074160911 0.0 0.03251731 0.08283332 0.0 0.035569333 0.09247528 0.0 0.037637986 0.10283618 0.0 0.038151771 0.11288743 0.0 0.038786232000000004 0.12347907 0.0 0.041780006 0.05949851900000001 0.0 0.022840912999999997 0.065396145 0.0 0.025843235 0.07309755700000001 0.0 0.028878743 0.082524776 0.0 0.031641014 0.093120083 0.0 0.033644553 0.10379512 0.0 0.034428898 0.11438502 0.0 0.036222763 0.057640936 0.0 0.019922981 0.064118318 0.0 0.022750499 0.072515577 0.0 0.025616942 0.082846917 0.0 0.028343474 0.093913093 0.0 0.030370394 0.10428268 0.0 0.031799562 0.11404925 0.0 0.034302954 0.056338862 0.0 0.017406575 0.06344866 0.0 0.020169563999999997 0.072780706 0.0 0.0231483 0.083939366 0.0 0.026167585 0.09455767300000001 0.0 0.028221543999999998 0.10411809 0.0 0.030359477000000003 0.055802940999999995 0.0 0.015530915 0.063890263 0.0 0.018509259 0.074401014 0.0 0.021968497000000003 0.08540698099999999 0.0 0.025013864 0.095060945 0.0 0.027437523 0.10289084 0.0 0.029537982999999997 0.056705784 0.0 0.014763636 0.06624279200000001 0.0 0.018397525 0.076691091 0.0 0.021967066 0.08656351300000001 0.0 0.024802959 0.09439663599999999 0.0 0.027047903999999998 0.059877805 0.0 0.015725156 0.069424562 0.0 0.019348798 0.07871788 0.0 0.022501631 0.086492173 0.0 0.024749359 0.063806117 0.0 0.017496122 0.071835108 0.0 0.020458639 0.079117313 0.0 0.022943027 0.08363793 0.0 0.023691268999999997 0.065765962 0.0 0.018671362 0.071409993 0.0 0.020567855 0.06432166 0.0 0.018449184 
Acec 3 2975 float
0.0 0.0 0.0 0.0 0.0 0.0 0.0 0.0 0.0 0.0 0.0 0.0 0.0 0.0 0.0 0.0 0.0 0.0 0.0 0.0 0.0 0.0 0.0 0.0 0.0 0.0 0.0 0.0 0.0 0.0 0.0 0.0 0.0 0.0 0.0 0.0 0.0 0.0 0.0 0.0 0.0 0.0 0.0 0.0 0.0 0.0 0.0 0.0 0.0 0.0 0.0 0.0 0.0 0.0 0.0 0.0 0.0 0.0 0.0 0.0 0.0 0.0 0.0 0.0 0.0 0.0 0.0 0.0 0.0 0.0 0.0 0.0 0.0 0.0 0.0 0.0 0.0 0.0 0.0 0.0 0.0 0.0 0.0 0.0 0.0 0.0 0.0 0.0 0.0 0.0 0.0 0.0 0.0 0.0 0.0 0.0 0.0 0.0 0.0 0.0 0.0 0.0 0.0 0.0 0.0 0.0 0.0 0.0 0.0 0.0 0.0 0.0 0.0 0.0 0.0 0.0 0.0 0.0 0.0 0.0 0.0 0.0 0.0 0.0 0.0 0.0 0.0 0.0 0.0 0.0 0.0 0.0 0.0 0.0 0.0 0.0 0.0 0.0 0.0 0.0 0.0 0.0 0.0 0.0 0.0 0.0 0.0 0.0 0.0 0.0 0.0 0.0 0.0 0.0 0.0 0.0 0.0 0.0 0.0 0.0 0.0 0.0 0.0 0.0 0.0 0.0 0.0 0.0 0.0 0.0 0.0 0.0 0.0 0.0 0.0 0.0 0.0 0.0 0.0 0.0 0.0 0.0 0.0 0.0 0.0 0.0 0.0 0.0 0.0 0.0 0.0 0.0 0.0 0.0 0.0 0.0 0.0 0.0 0.0 0.0 0.0 0.0 0.0 0.0 0.0 0.0 0.0 0.0 0.0 0.0 0.0 0.0 0.0 0.0 0.0 0.0 0.0 0.0 0.0 0.0 0.0 0.0 0.0 0.0 0.0 0.0 0.0 0.0 0.0 0.0 0.0 0.0 0.0 0.0 0.0 0.0 0.0 0.0 0.0 0.0 0.0 0.0 0.0 0.0 0.0 0.0 0.0 0.0 0.0 0.0 0.0 0.0 0.0 0.0 0.0 0.0 0.0 0.0 0.0 0.0 0.0 0.0 0.0 0.0 0.0 0.0 0.0 0.0 0.0 0.0 0.0 0.0 0.0 0.0 0.0 0.0 0.0 0.0 0.0 0.0 0.0 0.0 0.0 0.0 0.0 0.0 0.0 0.0 0.0 0.0 0.0 0.0 0.0 0.0 0.0 0.0 0.0 0.0 0.0 0.0 0.0 0.0 0.0 0.0 0.0 0.0 0.0 0.0 0.0 0.0 0.0 0.0 0.0 0.0 0.0 0.0 0.0 0.0 0.0 0.0 0.0 0.0 0.0 0.0 0.0 0.0 0.0 0.0 0.0 0.0 0.0 0.0 0.0 0.0 0.0 0.0 0.0 0.0 0.0 0.0 0.0 0.0 0.0 0.0 0.0 0.0 0.0 0.0 0.0 0.0 0.0 0.0 0.0 0.0 0.0 0.0 0.0 0.0 0.0 0.0 0.0 0.0 0.0 0.0 0.0 0.0 0.0 0.0 0.0 0.0 0.0 0.0 0.0 0.0 0.0 0.0 0.0 0.0 0.0 0.0 0.0 0.0 0.0 0.0 0.0 0.0 0.0 0.0 0.0 0.0 0.0 0.0 0.0 0.0 0.0 0.0 0.0 0.0 0.0 0.0 0.0 0.0 0.0 0.0 0.0 0.0 0.0 0.0 0.0 0.0 0.0 0.0 0.0 0.0 0.0 0.0 0.0 0.0 0.0 0.0 0.0 0.0 0.0 0.0 0.0 0.0 0.0 0.0 0.0 0.0 0.0 0.0 0.0 0.0 0.0 0.0 0.0 0.0 0.0 0.0 0.0 0.0 0.0 0.0 0.0 0.0 0.0 0.0 0.0 0.0 0.0 0.0 0.0 0.0 0.0 0.0 0.0 0.0 0.0 0.0 0.0 0.0 0.0 0.0 0.0 0.0 0.0 0.0 0.0 0.0 0.0 0.0 0.0 0.0 0.0 0.0 0.0 0.0 0.0 0.0 0.0 0.0 0.0 0.0 0.0 0.0 0.0 0.0 0.0 0.0 0.0 0.0 0.0 0.0 0.0 0.0 0.0 0.0 0.0 0.0 0.0 0.0 0.0 0.0 0.0 0.0 0.0 0.0 0.0 0.0 0.0 0.0 0.0 0.0 0.0 0.0 0.0 0.0 0.0 0.0 0.0 0.0 0.0 0.0 0.0 0.0 0.0 0.0 0.0 0.0 0.0 0.0 0.0 0.0 0.0 0.0 0.0 0.0 0.0 0.0 0.0 0.0 0.0 0.0 0.0 0.0 0.0 0.0 0.0 0.0 0.0 0.0 0.0 0.0 0.0 0.0 0.0 0.0 0.0 0.0 0.0 0.0 0.0 0.0 0.0 0.0 0.0 0.0 0.0 0.0 0.0 0.0 0.0 0.0 0.0 0.0 0.0 0.0 0.0 0.0 0.0 0.0 0.0 0.0 0.0 0.0 0.0 0.0 0.0 0.0 0.0 0.0 0.0 0.0 0.0 0.0 0.0 0.0 0.0 0.0 0.0 0.0 0.0 0.0 0.0 0.0 0.0 0.0 0.0 0.0 0.0 0.0 0.0 0.0 0.0 0.0 0.0 0.0 0.0 0.0 0.0 0.0 0.0 0.0 0.0 0.0 0.0 0.0 0.0 0.0 0.0 0.0 0.0 0.0 0.0 0.0 0.0 0.0 0.0 0.0 0.0 0.0 0.0 0.0 0.0 0.0 0.0 0.0 0.0 0.0 0.0 0.0 0.0 0.0 0.0 0.0 0.0 0.0 0.0 0.0 0.0 0.0 0.0 0.0 0.0 0.0 0.0 0.0 0.0 0.0 0.0 0.0 0.0 0.0 0.0 0.0 0.0 0.0 0.0 0.0 0.0 0.0 0.0 0.0 0.0 0.0 0.0 0.0 0.0 0.0 0.0 0.0 0.0 0.0 0.0 0.0 0.0 0.0 0.0 0.0 0.0 0.0 0.0 0.0 0.0 0.0 0.0 0.0 0.0 0.0 0.0 0.0 0.0 0.0 0.0 0.0 0.0 0.0 0.0 0.0 0.0 0.0 0.0 0.0 0.0 0.0 0.0 0.0 0.0 0.0 0.0 0.0 0.0 0.0 0.0 0.0 0.0 0.0 0.0 0.0 0.0 0.0 0.0 0.0 0.0 0.0 0.0 0.0 0.0 0.0 0.0 0.0 0.0 0.0 0.0 0.0 0.0 0.0 0.0 0.0 0.0 0.0 0.0 0.0 0.0 0.0 0.0 0.0 0.0 0.0 0.0 0.0 0.0 0.0 0.0 0.0 0.0 0.0 0.0 0.0 0.0 0.0 0.0 0.0 0.0 0.0 0.0 0.0 0.0 0.0 0.0 0.0 0.0 0.0 0.0 0.0 0.0 0.0 0.0 0.0 0.0 0.0 0.0 0.0 0.0 0.0 0.0 0.0 0.0 0.0 0.0 0.0 0.0 0.0 0.0 0.0 0.0 0.0 0.0 0.0 0.0 0.0 0.0 0.0 0.0 0.0 0.0 0.0 0.0 0.0 0.0 0.0 0.0 0.0 0.0 0.0 0.0 0.0 0.0 0.0 0.0 0.0 0.0 0.0 0.0 0.0 0.0 0.0 0.0 0.0 0.0 0.0 0.0 0.0 0.0 0.0 0.0 0.0 0.0 0.0 0.0 0.0 0.0 0.0 0.0 0.0 0.0 0.0 0.0 0.0 0.0 0.0 0.0 0.0 0.0 0.0 0.0 0.0 0.0 0.0 0.0 0.0 0.0 0.0 0.0 0.0 0.0 0.0 0.0 0.0 0.0 0.0 0.0 0.0 0.0 0.0 0.0 0.0 0.0 0.0 0.0 0.0 0.0 0.0 0.0 0.0 0.0 0.0 0.0 0.0 0.0 0.0 0.0 0.0 0.0 0.0 0.0 0.0 0.0 0.0 0.0 0.0 0.0 0.0 0.0 0.0 0.0 0.0 0.0 0.0 0.0 0.0 0.0 0.0 0.0 0.0 0.0 0.0 0.0 0.0 0.0 0.0 0.0 0.0 0.0 0.0 0.0 0.0 0.0 0.0 0.0 0.0 0.0 0.0 0.0 0.0 0.0 0.0 0.0 0.0 0.0 0.0 0.0 0.0 0.0 0.0 0.0 0.0 0.0 0.0 0.0 0.0 0.0 0.0 0.0 0.0 0.0 0.0 0.0 0.0 0.0 0.0 0.0 0.0 0.0 0.0 0.0 0.0 0.0 0.0 0.0 0.0 0.0 0.0 0.0 0.0 0.0 0.0 0.0 0.0 0.0 0.0 0.0 0.0 0.0 0.0 0.0 0.0 0.0 0.0 0.0 0.0 0.0 0.0 0.0 0.0 0.0 0.0 0.0 0.0 0.0 0.0 0.0 0.0 0.0 0.0 0.0 0.0 0.0 0.0 0.0 0.0 0.0 0.0 0.0 0.0 0.0 0.0 0.0 0.0 0.0 0.0 0.0 0.0 0.0 0.0 0.0 0.0 0.0 0.0 0.0 0.0 0.0 0.0 0.0 0.0 0.0 0.0 0.0 0.0 0.0 0.0 0.0 0.0 0.0 0.0 0.0 0.0 0.0 0.0 0.0 0.0 0.0 0.0 0.0 0.0 0.0 0.0 0.0 0.0 0.0 0.0 0.0 0.0 0.0 0.0 0.0 0.0 0.0 0.0 0.0 0.0 0.0 0.0 0.0 0.0 0.0 0.0 0.0 0.0 0.0 0.0 0.0 0.0 0.0 0.0 0.0 0.0 0.0 0.0 0.0 0.0 0.0 0.0 0.0 0.0 0.0 0.0 0.0 0.0 0.0 0.0 0.0 0.0 0.0 0.0 0.0 0.0 0.0 0.0 0.0 0.0 0.0 0.0 0.0 0.0 0.0 0.0 0.0 0.0 0.0 0.0 0.0 0.0 0.0 0.0 0.0 0.0 0.0 0.0 0.0 0.0 0.0 0.0 0.0 0.0 0.0 0.0 0.0 0.0 0.0 0.0 0.0 0.0 0.0 0.0 0.0 0.0 0.0 0.0 0.0 0.0 0.0 0.0 0.0 0.0 0.0 0.0 0.0 0.0 0.0 0.0 0.0 0.0 0.0 0.0 0.0 0.0 0.0 0.0 0.0 0.0 0.0 0.0 0.0 0.0 0.0 0.0 0.0 0.0 0.0 0.0 0.0 0.0 0.0 0.0 0.0 0.0 0.0 0.0 0.0 0.0 0.0 0.0 0.0 0.0 0.0 0.0 0.0 0.0 0.0 0.0 0.0 0.0 0.0 0.0 0.0 0.0 0.0 0.0 0.0 0.0 0.0 0.0 0.0 0.0 0.0 0.0 0.0 0.0 0.0 0.0 0.0 0.0 0.0 0.0 0.0 0.0 0.0 0.0 0.0 0.0 0.0 0.0 0.0 0.0 0.0 0.0 0.0 0.0 0.0 0.0 0.0 0.0 0.0 0.0 0.0 0.0 0.0 0.0 0.0 0.0 0.0 0.0 0.0 0.0 0.0 0.0 0.0 0.0 0.0 0.0 0.0 0.0 0.0 0.0 0.0 0.0 0.0 0.0 0.0 0.0 0.0 0.0 0.0 0.0 0.0 0.0 0.0 0.0 0.0 0.0 0.0 0.0 0.0 0.0 0.0 0.0 0.0 0.0 0.0 0.0 0.0 0.0 0.0 0.0 0.0 0.0 0.0 0.0 0.0 0.0 0.0 0.0 0.0 0.0 0.0 0.0 0.0 0.0 0.0 0.0 0.0 0.0 0.0 0.0 0.0 0.0 0.0 0.0 0.0 0.0 0.0 0.0 0.0 0.0 0.0 0.0 0.0 0.0 0.0 0.0 0.0 0.0 0.0 0.0 0.0 0.0 0.0 0.0 0.0 0.0 0.0 0.0 0.0 0.0 0.0 0.0 0.0 0.0 0.0 0.0 0.0 0.0 0.0 0.0 0.0 0.0 0.0 0.0 0.0 0.0 0.0 0.0 0.0 0.0 0.0 0.0 0.0 0.0 0.0 0.0 0.0 0.0 0.0 0.0 0.0 0.0 0.0 0.0 0.0 0.0 0.0 0.0 0.0 0.0 0.0 0.0 0.0 0.0 0.0 0.0 0.0 0.0 0.0 0.0 0.0 0.0 0.0 0.0 0.0 0.0 0.0 0.0 0.0 0.0 0.0 0.0 0.0 0.0 0.0 0.0 0.0 0.0 0.0 0.0 0.0 0.0 0.0 0.0 0.0 0.0 0.0 0.0 0.0 0.0 0.0 0.0 0.0 0.0 0.0 0.0 0.0 0.0 0.0 0.0 0.0 0.0 0.0 0.0 0.0 0.0 0.0 0.0 0.0 0.0 0.0 0.0 0.0 0.0 0.0 0.0 0.0 0.0 0.0 0.0 0.0 0.0 0.0 0.0 0.0 0.0 0.0 0.0 0.0 0.0 0.0 0.0 0.0 0.0 0.0 0.0 0.0 0.0 0.0 0.0 0.0 0.0 0.0 0.0 0.0 0.0 0.0 0.0 0.0 0.0 0.0 0.0 0.0 0.0 0.0 0.0 0.0 0.0 0.0 0.0 0.0 0.0 0.0 0.0 0.0 0.0 0.0 0.0 0.0 0.0 0.0 0.0 0.0 0.0 0.0 0.0 0.0 0.0 0.0 0.0 0.0 0.0 0.0 0.0 0.0 0.0 0.0 0.0 0.0 0.0 0.0 0.0 0.0 0.0 0.0 0.0 0.0 0.0 0.0 0.0 0.0 0.0 0.0 0.0 0.0 0.0 0.0 0.0 0.0 0.0 0.0 0.0 0.0 0.0 0.0 0.0 0.0 0.0 0.0 0.0 0.0 0.0 0.0 0.0 0.0 0.0 0.0 0.0 0.0 0.0 0.0 0.0 0.0 0.0 0.0 0.0 0.0 0.0 0.0 0.0 0.0 0.0 0.0 0.0 0.0 0.0 0.0 0.0 0.0 0.0 0.0 0.0 0.0 0.0 0.0 0.0 0.0 0.0 0.0 0.0 0.0 0.0 0.0 0.0 0.0 0.0 0.0 0.0 0.0 0.0 0.0 0.0 0.0 0.0 0.0 0.0 0.0 0.0 0.0 0.0 0.0 0.0 0.0 0.0 0.0 0.0 0.0 0.0 0.0 0.0 0.0 0.0 0.0 0.0 0.0 0.0 0.0 0.0 0.0 0.0 0.0 0.0 0.0 0.0 0.0 0.0 0.0 0.0 0.0 0.0 0.0 0.0 0.0 0.0 0.0 0.0 0.0 0.0 0.0 0.0 0.0 0.0 0.0 0.0 0.0 0.0 0.0 0.0 0.0 0.0 0.0 0.0 0.0 0.0 0.0 0.0 0.0 0.0 0.0 0.0 0.0 0.0 0.0 0.0 0.0 0.0 0.0 0.0 0.0 0.0 0.0 0.0 0.0 0.0 0.0 0.0 0.0 0.0 0.0 0.0 0.0 0.0 0.0 0.0 0.0 0.0 0.0 0.0 0.0 0.0 0.0 0.0 0.0 0.0 0.0 0.0 0.0 0.0 0.0 0.0 0.0 0.0 0.0 0.0 0.0 0.0 0.0 0.0 0.0 0.0 0.0 0.0 0.0 0.0 0.0 0.0 0.0 0.0 0.0 0.0 0.0 0.0 0.0 0.0 0.0 0.0 0.0 0.0 0.0 0.0 0.0 0.0 0.0 0.0 0.0 0.0 0.0 0.0 0.0 0.0 0.0 0.0 0.0 0.0 0.0 0.0 0.0 0.0 0.0 0.0 0.0 0.0 0.0 0.0 0.0 0.0 0.0 0.0 0.0 0.0 0.0 0.0 0.0 0.0 0.0 0.0 0.0 0.0 0.0 0.0 0.0 0.0 0.0 0.0 0.0 0.0 0.0 0.0 0.0 0.0 0.0 0.0 0.0 0.0 0.0 0.0 0.0 0.0 0.0 0.0 0.0 0.0 0.0 0.0 0.0 0.0 0.0 0.0 0.0 0.0 0.0 0.0 0.0 0.0 0.0 0.0 0.0 0.0 0.0 0.0 0.0 0.0 0.0 0.0 0.0 0.0 0.0 0.0 0.0 0.0 0.0 0.0 0.0 0.0 0.0 0.0 0.0 0.0 0.0 0.0 0.0 0.0 0.0 0.0 0.0 0.0 0.0 0.0 0.0 0.0 0.0 0.0 0.0 0.0 0.0 0.0 0.0 0.0 0.0 0.0 0.0 0.0 0.0 0.0 0.0 0.0 0.0 0.0 0.0 0.0 0.0 0.0 0.0 0.0 0.0 0.0 0.0 0.0 0.0 0.0 0.0 0.0 0.0 0.0 0.0 0.0 0.0 0.0 0.0 0.0 0.0 0.0 0.0 0.0 0.0 0.0 0.0 0.0 0.0 0.0 0.0 0.0 0.0 0.0 0.0 0.0 0.0 0.0 0.0 0.0 0.0 0.0 0.0 0.0 0.0 0.0 0.0 0.0 0.0 0.0 0.0 0.0 0.0 0.0 0.0 0.0 0.0 0.0 0.0 0.0 0.0 0.0 0.0 0.0 0.0 0.0 0.0 0.0 0.0 0.0 0.0 0.0 0.0 0.0 0.0 0.0 0.0 0.0 0.0 0.0 0.0 0.0 0.0 0.0 0.0 0.0 0.0 0.0 0.0 0.0 0.0 0.0 0.0 0.0 0.0 0.0 0.0 0.0 0.0 0.0 0.0 0.0 0.0 0.0 0.0 0.0 0.0 0.0 0.0 0.0 0.0 0.0 0.0 0.0 0.0 0.0 0.0 0.0 0.0 0.0 0.0 0.0 0.0 0.0 0.0 0.0 0.0 0.0 0.0 0.0 0.0 0.0 0.0 0.0 0.0 0.0 0.0 0.0 0.0 0.0 0.0 0.0 0.0 0.0 0.0 0.0 0.0 0.0 0.0 0.0 0.0 0.0 0.0 0.0 0.0 0.0 0.0 0.0 0.0 0.0 0.0 0.0 0.0 0.0 0.0 0.0 0.0 0.0 0.0 0.0 0.0 0.0 0.0 0.0 0.0 0.0 0.0 0.0 0.0 0.0 0.0 0.0 0.0 0.0 0.0 0.0 0.0 0.0 0.0 0.0 0.0 0.0 0.0 0.0 0.0 0.0 0.0 0.0 0.0 0.0 0.0 0.0 0.0 0.0 0.0 0.0 0.0 0.0 0.0 0.0 0.0 0.0 0.0 0.0 0.0 0.0 0.0 0.0 0.0 0.0 0.0 0.0 0.0 0.0 0.0 0.0 0.0 0.0 0.0 0.0 0.0 0.0 0.0 0.0 0.0 0.0 0.0 0.0 0.0 0.0 0.0 0.0 0.0 0.0 0.0 0.0 0.0 0.0 0.0 0.0 0.0 0.0 0.0 0.0 0.0 0.0 0.0 0.0 0.0 0.0 0.0 0.0 0.0 0.0 0.0 0.0 0.0 0.0 0.0 0.0 0.0 0.0 0.0 0.0 0.0 0.0 0.0 0.0 0.0 0.0 0.0 0.0 0.0 0.0 0.0 0.0 0.0 0.0 0.0 0.0 0.0 0.0 0.0 0.0 0.0 0.0 0.0 0.0 0.0 0.0 0.0 0.0 0.0 0.0 0.0 0.0 0.0 0.0 0.0 0.0 0.0 0.0 0.0 0.0 0.0 0.0 0.0 0.0 0.0 0.0 0.0 0.0 0.0 0.0 0.0 0.0 0.0 0.0 0.0 0.0 0.0 0.0 0.0 0.0 0.0 0.0 0.0 0.0 0.0 0.0 0.0 0.0 0.0 0.0 0.0 0.0 0.0 0.0 0.0 0.0 0.0 0.0 0.0 0.0 0.0 0.0 0.0 0.0 0.0 0.0 0.0 0.0 0.0 0.0 0.0 0.0 0.0 0.0 0.0 0.0 0.0 0.0 0.0 0.0 0.0 0.0 0.0 0.0 0.0 0.0 0.0 0.0 0.0 0.0 0.0 0.0 0.0 0.0 0.0 0.0 0.0 0.0 0.0 0.0 0.0 0.0 0.0 0.0 0.0 0.0 0.0 0.0 0.0 0.0 0.0 0.0 0.0 0.0 0.0 0.0 0.0 0.0 0.0 0.0 0.0 0.0 0.0 0.0 0.0 0.0 0.0 0.0 0.0 0.0 0.0 0.0 0.0 0.0 0.0 0.0 0.0 0.0 0.0 0.0 0.0 0.0 0.0 0.0 0.0 0.0 0.0 0.0 0.0 0.0 0.0 0.0 0.0 0.0 0.0 0.0 0.0 0.0 0.0 0.0 0.0 0.0 0.0 0.0 0.0 0.0 0.0 0.0 0.0 0.0 0.0 0.0 0.0 0.0 0.0 0.0 0.0 0.0 0.0 0.0 0.0 0.0 0.0 0.0 0.0 0.0 0.0 0.0 0.0 0.0 0.0 0.0 0.0 0.0 0.0 0.0 0.0 0.0 0.0 0.0 0.0 0.0 0.0 0.0 0.0 0.0 0.0 0.0 0.0 0.0 0.0 0.0 0.0 0.0 0.0 0.0 0.0 0.0 0.0 0.0 0.0 0.0 0.0 0.0 0.0 0.0 0.0 0.0 0.0 0.0 0.0 0.0 0.0 0.0 0.0 0.0 0.0 0.0 0.0 0.0 0.0 0.0 0.0 0.0 0.0 0.0 0.0 0.0 0.0 0.0 0.0 0.0 0.0 0.0 0.0 0.0 0.0 0.0 0.0 0.0 0.0 0.0 0.0 0.0 0.0 0.0 0.0 0.0 0.0 0.0 0.0 0.0 0.0 0.0 0.0 0.0 0.0 0.0 0.0 0.0 0.0 0.0 0.0 0.0 0.0 0.0 0.0 0.0 0.0 0.0 0.0 0.0 0.0 0.0 0.0 0.0 0.0 0.0 0.0 0.0 0.0 0.0 0.0 0.0 0.0 0.0 0.0 0.0 0.0 0.0 0.0 0.0 0.0 0.0 0.0 0.0 0.0 0.0 0.0 0.0 0.0 0.0 0.0 0.0 0.0 0.0 0.0 0.0 0.0 0.0 0.0 0.0 0.0 0.0 0.0 0.0 0.0 0.0 0.0 0.0 0.0 0.0 0.0 0.0 0.0 0.0 0.0 0.0 0.0 0.0 0.0 0.0 0.0 0.0 0.0 0.0 0.0 0.0 0.0 0.0 0.0 0.0 0.0 0.0 0.0 0.0 0.0 0.0 0.0 0.0 0.0 0.0 0.0 0.0 0.0 0.0 0.0 0.0 0.0 0.0 0.0 0.0 0.0 0.0 0.0 0.0 0.0 0.0 0.0 0.0 0.0 0.0 0.0 0.0 0.0 0.0 0.0 0.0 0.0 0.0 0.0 0.0 0.0 0.0 0.0 0.0 0.0 0.0 0.0 0.0 0.0 0.0 0.0 0.0 0.0 0.0 0.0 0.0 0.0 0.0 0.0 0.0 0.0 0.0 0.0 0.0 0.0 0.0 0.0 0.0 0.0 0.0 0.0 0.0 0.0 0.0 0.0 0.0 0.0 0.0 0.0 0.0 0.0 0.0 0.0 0.0 0.0 0.0 0.0 0.0 0.0 0.0 0.0 0.0 0.0 0.0 0.0 0.0 0.0 0.0 0.0 0.0 0.0 0.0 0.0 0.0 0.0 0.0 0.0 0.0 0.0 0.0 0.0 0.0 0.0 0.0 0.0 0.0 0.0 0.0 0.0 0.0 0.0 0.0 0.0 0.0 0.0 0.0 0.0 0.0 0.0 0.0 0.0 0.0 0.0 0.0 0.0 0.0 0.0 0.0 0.0 0.0 0.0 0.0 0.0 0.0 0.0 0.0 0.0 0.0 0.0 0.0 0.0 0.0 0.0 0.0 0.0 0.0 0.0 0.0 0.0 0.0 0.0 0.0 0.0 0.0 0.0 0.0 0.0 0.0 0.0 0.0 0.0 0.0 0.0 0.0 0.0 0.0 0.0 0.0 0.0 0.0 0.0 0.0 0.0 0.0 0.0 0.0 0.0 0.0 0.0 0.0 0.0 0.0 0.0 0.0 0.0 0.0 0.0 0.0 0.0 0.0 0.0 0.0 0.0 0.0 0.0 0.0 0.0 0.0 0.0 0.0 0.0 0.0 0.0 0.0 0.0 0.0 0.0 0.0 0.0 0.0 0.0 0.0 0.0 0.0 0.0 0.0 0.0 0.0 0.0 0.0 0.0 0.0 0.0 0.0 0.0 0.0 0.0 0.0 0.0 0.0 0.0 0.0 0.0 0.0 0.0 0.0 0.0 0.0 0.0 0.0 0.0 0.0 0.0 0.0 0.0 0.0 0.0 0.0 0.0 0.0 0.0 0.0 0.0 0.0 0.0 0.0 0.0 0.0 0.0 0.0 0.0 0.0 0.0 0.0 0.0 0.0 0.0 0.0 0.0 0.0 0.0 0.0 0.0 0.0 0.0 0.0 0.0 0.0 0.0 0.0 0.0 0.0 0.0 0.0 0.0 0.0 0.0 0.0 0.0 0.0 0.0 0.0 0.0 0.0 0.0 0.0 0.0 0.0 0.0 0.0 0.0 0.0 0.0 0.0 0.0 0.0 0.0 0.0 0.0 0.0 0.0 0.0 0.0 0.0 0.0 0.0 0.0 0.0 0.0 0.0 0.0 0.0 0.0 0.0 0.0 0.0 0.0 0.0 0.0 0.0 0.0 0.0 0.0 0.0 0.0 0.0 0.0 0.0 0.0 0.0 0.0 0.0 0.0 0.0 0.0 0.0 0.0 0.0 0.0 0.0 0.0 0.0 0.0 0.0 0.0 0.0 0.0 0.0 0.0 0.0 0.0 0.0 0.0 0.0 0.0 0.0 0.0 0.0 0.0 0.0 0.0 0.0 0.0 0.0 0.0 0.0 0.0 0.0 0.0 0.0 0.0 0.0 0.0 0.0 0.0 0.0 0.0 0.0 0.0 0.0 0.0 0.0 0.0 0.0 0.0 0.0 0.0 0.0 0.0 0.0 0.0 0.0 0.0 0.0 0.0 0.0 0.0 0.0 0.0 0.0 0.0 0.0 0.0 0.0 0.0 0.0 0.0 0.0 0.0 0.0 0.0 0.0 0.0 0.0 0.0 0.0 0.0 0.0 0.0 0.0 0.0 0.0 0.0 0.0 0.0 0.0 0.0 0.0 0.0 0.0 0.0 0.0 0.0 0.0 0.0 0.0 0.0 0.0 0.0 0.0 0.0 0.0 0.0 0.0 0.0 0.0 0.0 0.0 0.0 0.0 0.0 0.0 0.0 0.0 0.0 0.0 0.0 0.0 0.0 0.0 0.0 0.0 0.0 0.0 0.0 0.0 0.0 0.0 0.0 0.0 0.0 0.0 0.0 0.0 0.0 0.0 0.0 0.0 0.0 0.0 0.0 0.0 0.0 0.0 0.0 0.0 0.0 0.0 0.0 0.0 0.0 0.0 0.0 0.0 0.0 0.0 0.0 0.0 0.0 0.0 0.0 0.0 0.0 0.0 0.0 0.0 0.0 0.0 0.0 0.0 0.0 0.0 0.0 0.0 0.0 0.0 0.0 0.0 0.0 0.0 0.0 -0.13872439 0.0 -0.053020515 -0.16457695 0.0 -0.050128914000000004 -0.18614823 0.0 -0.044803351 -0.20304033 0.0 -0.038700275 -0.21597379 0.0 -0.032122876 -0.14198288 0.0 -0.07161529400000001 -0.19018841 0.0 -0.065636456 -0.22888449 0.0 -0.063048832 -0.2592369 0.0 -0.05740048 -0.28229317 0.0 -0.050157618 -0.29944229 0.0 -0.041901253 -0.19771361 0.0 -0.08187808099999999 -0.26232681 0.0 -0.07684750900000001 -0.31371397 0.0 -0.072648615 -0.35411039 0.0 -0.065705337 -0.38428721 0.0 -0.057628106 -0.40635473 0.0 -0.048222709 -0.26829657 0.0 -0.092677325 -0.35304818 0.0 -0.08604109300000001 -0.41855925 0.0 -0.080802172 -0.46946225 0.0 -0.072579406 -0.50714099 0.0 -0.063347794 -0.53422678 0.0 -0.052834578 -0.35619178 0.0 -0.10576764 -0.46493262 0.0 -0.095207691 -0.54658782 0.0 -0.08820697699999999 -0.60871208 0.0 -0.078466073 -0.65396088 0.0 -0.067990087 -0.68584561 0.0 -0.056324814 -0.46666029 0.0 -0.12205553 -0.60373306 0.0 -0.10527268 -0.70341408 0.0 -0.095300555 -0.77738637 0.0 -0.083577305 -0.8300246 0.0 -0.07188030299999999 -0.86618429 0.0 -0.059160948 -0.60701877 0.0 -0.14389187 -0.77709597 0.0 -0.11742848 -0.89620161 0.0 -0.10304669 -0.98229408 0.0 -0.08855710900000001 -1.0416521 0.0 -0.075773805 -1.0812643 0.0 -0.062011264 -0.78747678 0.0 -0.17349333 -0.99409103 0.0 -0.13404357 -1.1333431999999999 0.0 -0.11323708 -1.2308083 0.0 -0.09523578 -1.2959155 0.0 -0.081175923 -1.3375921999999998 0.0 -0.066347815 -1.0226568999999999 0.0 -0.20963836 -1.2653767 0.0 -0.15658557 -1.4236863000000002 0.0 -0.12779891 -1.5304786 0.0 -0.10712416 -1.6000499 0.0 -0.091026977 -1.6421703 0.0 -0.074665174 -1.334281 0.0 -0.24239767 -1.6036892 0.0 -0.18400204 -1.7766334 0.0 -0.1502201 -1.8903708 0.0 -0.12711528 -1.9625120999999999 0.0 -0.10788423 -2.002568 0.0 -0.08983978599999999 -1.7457443 0.0 -0.27125382 -2.0284308999999996 0.0 -0.21381831 -2.2060151 0.0 -0.17969453 -2.3220207999999998 0.0 -0.15586385 -2.3920093 0.0 -0.13626167 -2.4271817 0.0 -0.11470375 -2.2385812 0.0 -0.41572094 -2.5509191 0.0 -0.29215002 -2.7256427000000003 0.0 -0.23634869 -2.8375217999999998 0.0 -0.20218617 -2.8988112999999998 0.0 -0.17988673 -2.9248868999999997 0.0 -0.15273076 -2.8977549 0.0 -0.86346436 -3.202579 0.0 -0.53855002 -3.3577559 0.0 -0.37604737 -3.4527242 0.0 -0.29286498 -3.4957263 0.0 -0.24948792 -3.5058806000000002 0.0 -0.20974211 -3.7964562999999996 0.0 -1.3499362 -4.0322685 0.0 -0.8871811 -4.1361156 0.0 -0.59614891 -4.1863251 0.0 -0.44076672 -4.1958694 0.0 -0.35887319 -4.1824131 0.0 -0.29184359 -4.9213324 0.0 -1.7540436000000001 -5.045445 0.0 -1.2305073999999998 -5.0647779 0.0 -0.85513908 -5.048417099999999 0.0 -0.6355741 -5.0121384 0.0 -0.50003028 -4.9667821 0.0 -0.39781904 -6.218246 0.0 -2.1014004 -6.2156625 0.0 -1.5434819 -6.1347108 0.0 -1.1209669 -6.040505400000001 0.0 -0.84638143 -5.9546871 0.0 -0.66450375 -5.8708334 0.0 -0.52517754 -7.6502261 0.0 -2.4417789 -7.5234041 0.0 -1.8402174999999998 -7.3409829 0.0 -1.3852198 -7.170331 0.0 -1.0723228 -7.029957799999999 0.0 -0.8459664 -6.905069800000001 0.0 -0.66916078 -9.2110968 0.0 -2.7933195 -8.9724112 0.0 -2.143621 -8.6942329 0.0 -1.6521573 -8.4467344 0.0 -1.3098154 -8.2513533 0.0 -1.0453465 -8.082701700000001 0.0 -0.83114517 -10.938863000000001 0.0 -3.1726775000000003 -10.59427 0.0 -2.4628103 -10.214192 0.0 -1.9352194 -9.884796099999999 0.0 -1.5637937 -9.6305904 0.0 -1.2614836999999999 -9.4147825 0.0 -1.0067399 -12.888766 0.0 -3.5878737000000003 -12.420307000000001 0.0 -2.8135691 -11.921391 0.0 -2.2467017000000005 -11.498289999999999 0.0 -1.8422326 -11.179961 0.0 -1.4972298000000002 -10.914341 0.0 -1.19723 -15.096657 0.0 -4.0479608 -14.471105999999999 0.0 -3.2066031 -13.828857000000001 0.0 -2.5976477000000004 -13.299110999999998 0.0 -2.1517568 -12.91163 0.0 -1.7560182 -12.594463000000001 0.0 -1.4046195 -17.585491 0.0 -4.567458599999999 -16.763115 0.0 -3.6597483 -15.948782000000001 0.0 -2.9984066 -15.299631 0.0 -2.4969432 -14.838314000000002 0.0 -2.0394938000000002 -14.467293 0.0 -1.628041 -20.379475 0.0 -5.166542099999999 -19.313221 0.0 -4.1927142 -18.295271 0.0 -3.4604404000000004 -17.513367000000002 0.0 -2.8804536 -16.973177 0.0 -2.3478892000000005 -16.546694 0.0 -1.8720231999999999 -23.508516 0.0 -5.8860574 -22.141998 0.0 -4.8289504 -20.882919 0.0 -3.9865502999999998 -19.956177 0.0 -3.29883 -19.332142 0.0 -2.6776462000000003 -18.84388 0.0 -2.1379306000000002 -27.012415 0.0 -6.754610499999999 -25.277199 0.0 -5.6058559 -23.73583 0.0 -4.582752200000001 -22.644522 0.0 -3.7494678 -21.919912 0.0 -3.0565505 -21.364672 0.0 -2.4309251 -30.939989 0.0 -7.8073936 -28.753071000000002 0.0 -6.5482373 -26.887565999999996 0.0 -5.240611599999999 -25.594124 0.0 -4.2248054 -24.749094 0.0 -3.4555571000000005 -24.119469 0.0 -2.8157859 -35.400539 0.0 -9.180994 -32.610245 0.0 -7.6938105 -30.359941 0.0 -6.0153341 -28.808297999999997 0.0 -4.7320185 -27.825302 0.0 -3.9436817000000004 -27.093759999999996 0.0 -3.3211746 -40.449165 0.0 -10.945561 -36.864807 0.0 -9.0473461 -34.108902 0.0 -6.8232446 -32.278 0.0 -5.3596768 -31.123323 0.0 -4.539363900000001 -30.267366 0.0 -3.9715455000000004 -46.047259999999994 0.0 -13.112855999999999 -41.467940999999996 0.0 -10.629441 -38.115111999999996 0.0 -7.7350330000000005 -35.961315 0.0 -6.0915337 -34.575325 0.0 -5.3030949 -33.58712 0.0 -4.8444042000000005 -51.957691 0.0 -15.692765 -46.216782 0.0 -12.462886 -42.219906 0.0 -8.842995599999998 -39.701736 0.0 -6.9691525 -38.03233 0.0 -6.2969718 -36.858398 0.0 -6.003574400000001 -57.643218999999995 0.0 -18.727724 -50.755435999999996 0.0 -14.547317999999999 -46.142502 0.0 -10.1626 -43.215992 0.0 -8.1725388 -41.216824 0.0 -7.682135099999999 -39.779964 0.0 -7.7369127 -62.492916 0.0 -22.315485 -54.745472 0.0 -16.797316 -49.657036 0.0 -11.70444 -46.024826000000004 0.0 -10.053489 -43.71468 0.0 -9.64153 -42.305008 0.0 -9.5233364 -66.082672 0.0 -26.406536 -57.934216000000006 0.0 -18.933765 -52.383308 0.0 -13.210676000000001 -48.382042 0.0 -11.375635 -45.916592 0.0 -11.145576 -44.445503 0.0 -11.299755000000001 -68.156456 0.0 -31.172064000000002 -60.423382 0.0 -19.574274 -54.650101 0.0 -13.196094 -50.000546 0.0 -12.682446 -47.392532 0.0 -12.79841 -45.861462 0.0 -13.395225 -69.400276 0.0 -34.956676 -62.115233999999994 0.0 -20.307112 -56.325092000000005 0.0 -12.56606 -50.333218 0.0 -14.123145999999998 -47.169651 0.0 -16.149452 -45.864697 0.0 -17.155869 -62.236191000000005 0.0 -38.757729 -60.022971999999996 0.0 -22.223791000000002 -55.023281000000004 0.0 -13.335823999999999 -48.175197999999995 0.0 -15.980844 -45.581196000000006 0.0 -21.356693 -45.145599 0.0 -23.969824 -42.688877000000005 0.0 -43.176398999999996 -43.501740000000005 0.0 -25.122017 -42.978527 0.0 -14.552223000000001 -41.649845 0.0 -18.896036 -41.813076 0.0 -27.932228000000002 -41.604664 0.0 -31.400438 -25.439857 0.0 -46.507453999999996 -26.593805 0.0 -27.090670000000003 -26.587194 0.0 -15.165195 -26.309223 0.0 -19.061464 -27.008166999999997 0.0 -28.643988 -27.105919 0.0 -32.53833 -12.945214 0.0 -48.725456 -14.078938 0.0 -28.477676000000002 -14.077976000000001 0.0 -15.492709 -14.175697 0.0 -18.502472 -14.877173999999998 0.0 -28.1224 -15.227609 0.0 -32.568779 -4.421697099999999 0.0 -50.263153 -5.0551486 0.0 -29.74267 -5.162044 0.0 -15.944007000000001 -5.3310957000000005 0.0 -18.208042000000003 -5.8982167 0.0 -27.68305 -6.2887254 0.0 -32.204021000000004 2.1656458 0.0 -51.185210999999995 2.0198278000000003 0.0 -30.431721000000003 1.868179 0.0 -16.512398 1.7146342 0.0 -18.355534 1.3720545 0.0 -27.514946000000002 1.0319577 0.0 -31.724337 8.665014300000001 0.0 -51.4366 8.9386368 0.0 -30.365026 8.6637936 0.0 -16.955359 8.387673399999999 0.0 -18.743917 8.296561200000001 0.0 -27.515334999999997 8.011127499999999 0.0 -31.229645 15.971257000000001 0.0 -51.061085 16.513931 0.0 -30.068987 16.030958 0.0 -17.211126 15.461073999999998 0.0 -19.035221 15.534243 0.0 -27.447474 15.253319 0.0 -30.634534999999996 23.946724 0.0 -49.967281 24.621976999999998 0.0 -29.429043 23.852421 0.0 -17.393137 22.915506 0.0 -19.027096 23.075264 0.0 -26.940920000000002 22.649467 0.0 -29.841856 31.871113 0.0 -48.176052 32.517471 0.0 -28.607256 31.437772999999996 0.0 -17.308168 30.084797 0.0 -18.700718 30.339626000000003 0.0 -26.075363 29.717840000000002 0.0 -28.775440000000003 39.064125 0.0 -45.811363 39.56419 0.0 -27.404951 38.048512 0.0 -16.983214999999998 36.079792 0.0 -17.79044 36.540199 0.0 -24.588060000000002 35.932358 0.0 -27.40761 44.964176 0.0 -43.224407 45.325066 0.0 -25.981228 43.268265 0.0 -16.317492 40.565841999999996 0.0 -16.668541 41.052246000000004 0.0 -22.475105 40.498253000000005 0.0 -25.777535999999998 49.210541 0.0 -40.297829 49.818034999999995 0.0 -24.743176000000002 47.060757 0.0 -15.627526000000001 43.769657 0.0 -15.656495000000001 43.009377 0.0 -21.013201000000002 41.483143 0.0 -24.006408999999998 52.282589 0.0 -37.132853999999995 52.700527 0.0 -23.16469 49.504715000000004 0.0 -14.752254 45.645554 0.0 -14.877275 43.637904999999996 0.0 -20.434376 41.469013000000004 0.0 -22.200981 54.980652 0.0 -33.941994 54.68277 0.0 -21.371571 50.826190999999994 0.0 -13.750382 46.220467 0.0 -14.617673000000002 43.656017 0.0 -19.468937 41.199352000000005 0.0 -20.499935 57.923477 0.0 -30.843196999999996 55.802261 0.0 -19.754011 50.963383 0.0 -13.170862 46.368866 0.0 -14.627114 43.431034000000004 0.0 -18.132692000000002 40.849026 0.0 -19.019114000000002 61.707012 0.0 -27.810083000000002 56.47576899999999 0.0 -18.65152 50.562309 0.0 -12.555758 46.672363 0.0 -14.05001 43.289009 0.0 -16.729311 40.601017 0.0 -17.519686 66.71597299999999 0.0 -24.890493 57.698002 0.0 -17.12145 50.957054 0.0 -12.13374 47.022331 0.0 -12.951858999999999 43.320004 0.0 -15.396844 40.113116999999995 0.0 -16.173191 72.30442 0.0 -21.986877 60.736042000000005 0.0 -15.74022 52.511002000000005 0.0 -11.877869 47.667633 0.0 -11.858384 43.915558000000004 0.0 -13.199029999999999 40.065243 0.0 -14.673063 77.143799 0.0 -19.687859 64.33356500000001 0.0 -14.961360999999998 54.625232999999994 0.0 -11.28536 48.595141999999996 0.0 -10.587639 44.246604999999995 0.0 -11.26375 40.221523 0.0 -12.477367 68.255661 0.0 -14.433760999999999 57.233321999999994 0.0 -10.648413 50.045002000000004 0.0 -9.5270147 44.83638 0.0 -9.547587400000001 40.354149 0.0 -10.486774 71.95298000000001 0.0 -14.267619 60.581408999999994 0.0 -10.561909 52.087925 0.0 -8.673815699999999 45.874416 0.0 -8.2528172 40.775902 0.0 -8.531977699999999 64.427986 0.0 -11.153822 54.845177 0.0 -8.4351768 47.720215 0.0 -7.5498166 41.69059 0.0 -7.158168799999999 68.015884 0.0 -12.064436 58.549179 0.0 -9.2664642 50.407059000000004 0.0 -7.4658012000000005 43.498932 0.0 -6.5932655 62.273075 0.0 -10.4758 53.762783 0.0 -8.192438099999999 46.181618 0.0 -6.805965400000001 57.401481999999994 0.0 -9.368673300000001 49.747925 0.0 -7.7016034 59.570873 0.0 -9.8072758 53.382252 0.0 -8.948986999999999 -0.22527096 0.0 -0.025891732 -0.23160318 0.0 -0.020146357 -0.23549041 0.0 -0.015327657 -0.23762965 0.0 -0.011295874 -0.23859945 0.0 -0.0080555817 -0.23884633 0.0 -0.005577940500000001 -0.23874122 0.0 -0.0036417018 -0.23850706 0.0 -0.0021885084 -0.23830929 0.0 -0.0010192477 -0.31148455 0.0 -0.033790633 -0.31929535 0.0 -0.026395941000000003 -0.32376635 0.0 -0.020204486 -0.32597661 0.0 -0.014905721 -0.32665962 0.0 -0.010718746999999999 -0.32648396 0.0 -0.007448113100000001 -0.32593197 0.0 -0.0049240855 -0.32532299 0.0 -0.0029890139000000003 -0.32488179 0.0 -0.0013947675 -0.42137685 0.0 -0.039061829 -0.43072161 0.0 -0.030649591 -0.43573794 0.0 -0.023409184 -0.4377985 0.0 -0.017326653 -0.43796682 0.0 -0.012487015 -0.43714583 0.0 -0.0086690914 -0.43595144 0.0 -0.0057444461 -0.43482012 0.0 -0.0034822905 -0.43403488 0.0 -0.0016333372 -0.55217814 0.0 -0.042649459 -0.56280416 0.0 -0.033450209 -0.56801277 0.0 -0.025437966 -0.56955433 0.0 -0.018803261 -0.56886709 0.0 -0.013529464 -0.5670988 0.0 -0.0093275737 -0.56500947 0.0 -0.0061679352 -0.56317008 0.0 -0.0037074722 -0.56193054 0.0 -0.0017424070999999999 -0.70631337 0.0 -0.04517008 -0.71767294 0.0 -0.035333425 -0.72250855 0.0 -0.026653677 -0.72297323 0.0 -0.019622244 -0.72094953 0.0 -0.013949513 -0.71780443 0.0 -0.0095731281 -0.71449763 0.0 -0.0062941578 -0.71171892 0.0 -0.0037341378999999997 -0.70988518 0.0 -0.0017517535000000002 -0.88840133 0.0 -0.047282949000000005 -0.89972472 0.0 -0.03677278 -0.90337288 0.0 -0.027510699 -0.9020105 0.0 -0.020132183999999997 -0.8979919 0.0 -0.014140485 -0.89293337 0.0 -0.0096208118 -0.88800943 0.0 -0.0062014031999999995 -0.88399148 0.0 -0.0036645527 -0.88139194 0.0 -0.0016998957000000001 -1.1041777 0.0 -0.049561325 -1.1143887 0.0 -0.038338374 -1.1157421 0.0 -0.028630682999999997 -1.1115966 0.0 -0.020861948 -1.1047658999999999 0.0 -0.01448807 -1.0971255 0.0 -0.0097647933 -1.0900652 0.0 -0.0061942451 -1.0844591000000001 0.0 -0.0036247479999999997 -1.0808866000000001 0.0 -0.0016465157000000001 -1.3598745 0.0 -0.053162206 -1.3675784 0.0 -0.04115352 -1.3653293 0.0 -0.030845148 -1.3572556 0.0 -0.022364078 -1.3465818 0.0 -0.01549741 -1.3355383 0.0 -0.010388867 -1.3257073 0.0 -0.0065131988 -1.3180563 0.0 -0.0037812021999999996 -1.3132365 0.0 -0.0017036338 -1.6621386000000002 0.0 -0.060002793 -1.6656661 0.0 -0.046732857999999995 -1.6582741 0.0 -0.035339206 -1.6448890999999999 0.0 -0.025667093999999998 -1.6291893 0.0 -0.017840181 -1.6137538 0.0 -0.011947653 -1.6003598999999997 0.0 -0.0074628438 -1.5900941000000002 0.0 -0.0043121274 -1.5836796999999998 0.0 -0.0019353805 -2.0179753000000002 0.0 -0.072910123 -2.0153488999999998 0.0 -0.057268944 -2.0010855 0.0 -0.043614149000000005 -1.9807917000000002 0.0 -0.03190767 -1.9586819 0.0 -0.022243455 -1.9376782 0.0 -0.014909493999999999 -1.9197828999999997 0.0 -0.0093278317 -1.9062176 0.0 -0.0053770891 -1.897791 0.0 -0.0024139509 -2.4350897999999996 0.0 -0.094617091 -2.4240375 0.0 -0.07493654599999999 -2.4009044 0.0 -0.057259005 -2.371799 0.0 -0.042289793 -2.3416929 0.0 -0.029435892 -2.3137321 0.0 -0.019715402 -2.2902207000000003 0.0 -0.012367841000000001 -2.2725489 0.0 -0.0071054548 -2.2616272 0.0 -0.0031992276 -2.9220867000000004 0.0 -0.12746628 -2.9001334 0.0 -0.10117064 -2.8657152999999997 0.0 -0.077578165 -2.8257136000000003 0.0 -0.057295020999999995 -2.7856629 0.0 -0.039922919 -2.7491064 0.0 -0.026659815 -2.718648 0.0 -0.016725893999999998 -2.6959095 0.0 -0.009565898199999999 -2.6819129 0.0 -0.0043111807 -3.4887269 0.0 -0.1736747 -3.452672 0.0 -0.13818033 -3.4043911000000002 0.0 -0.1052807 -3.3510652000000003 0.0 -0.07717218299999999 -3.2987761 0.0 -0.053743422 -3.2517044999999998 0.0 -0.035627604 -3.2127695 0.0 -0.022346322999999998 -3.1838422000000004 0.0 -0.012710165 -3.1660695 0.0 -0.0056969202 -4.1462202 0.0 -0.2356804 -4.0922718 0.0 -0.185331 -4.0266099 0.0 -0.14084326 -3.9569947999999995 0.0 -0.10212624 -3.8898639999999998 0.0 -0.070924088 -3.8300636 0.0 -0.04650023599999999 -3.7808352 0.0 -0.028826341000000002 -3.7444277 0.0 -0.016325178 -3.7220612 0.0 -0.0072479788 -4.906039700000001 0.0 -0.31570989 -4.8298559 0.0 -0.24474062 -4.7425804000000005 0.0 -0.18380991 -4.6531614999999995 0.0 -0.13150415 -4.5681901 0.0 -0.09055914699999999 -4.4931097 0.0 -0.058749441 -4.4315009000000005 0.0 -0.035758078 -4.3860035 0.0 -0.019811593 -4.358159099999999 0.0 -0.0087705031 -5.7800746 0.0 -0.41190168 -5.676579 0.0 -0.31530905 -5.563242400000001 0.0 -0.23366077 -5.4499011 0.0 -0.1647002 -5.3433871 0.0 -0.1112345 -5.2499080000000005 0.0 -0.071162343 -5.173580599999999 0.0 -0.042586554000000006 -5.1171865 0.0 -0.022952248999999997 -5.0827413 0.0 -0.010031484 -6.780419800000001 0.0 -0.52216345 -6.644628999999999 0.0 -0.39648539 -6.5002203000000005 0.0 -0.28975704 -6.3582134 0.0 -0.20093766 -6.2258830000000005 0.0 -0.1330124 -6.1102319000000005 0.0 -0.082785897 -6.0162044 0.0 -0.04866891 -5.946724400000001 0.0 -0.025190389 -5.904326 0.0 -0.010761221999999999 -7.918414100000001 0.0 -0.64239979 -7.745456699999999 0.0 -0.48293591 -7.5657005 0.0 -0.35159242 -7.3897061 0.0 -0.23909709 -7.226408500000001 0.0 -0.15533592 -7.084274300000001 0.0 -0.093178086 -6.968897800000001 0.0 -0.053376149000000005 -6.883681299999999 0.0 -0.02609911 -6.831668400000001 0.0 -0.010757418999999999 -9.208993 0.0 -0.77694076 -8.993 0.0 -0.57587874 -8.7711926 0.0 -0.4127917 -8.555990199999998 0.0 -0.27731824 -8.356263199999999 0.0 -0.17732243 -8.1825333 0.0 -0.1023109 -8.0411415 0.0 -0.055117550999999994 -7.9372063 0.0 -0.02574851 -7.8735671 0.0 -0.010059092 -10.663669 0.0 -0.92032576 -10.400621000000001 0.0 -0.67580664 -10.130805 0.0 -0.47846177 -9.8684235 0.0 -0.31355062 -9.6264944 0.0 -0.19845685 -9.4150391 0.0 -0.11120977 -9.2426538 0.0 -0.05686488 -9.116003 0.0 -0.025180519 -9.0383091 0.0 -0.0092372997 -12.295811 0.0 -1.0749345 -11.981193 0.0 -0.78357738 -11.656462 0.0 -0.54984641 -11.339686 0.0 -0.35687909 -11.04711 0.0 -0.22362234 -10.790796 0.0 -0.12368856 -10.581522 0.0 -0.061877344 -10.427538 0.0 -0.026834035 -10.332952 0.0 -0.009499328199999999 -14.117832 0.0 -1.2416755 -13.74606 0.0 -0.90468699 -13.358877 0.0 -0.63304311 -12.978543 0.0 -0.41456932 -12.626524 0.0 -0.26095676 -12.31732 0.0 -0.14743578 -12.064375 0.0 -0.076734684 -11.877818 0.0 -0.03547556 -11.763077000000001 0.0 -0.013086027 -16.141008 0.0 -1.4252903000000001 -15.702706 0.0 -1.0555214 -15.246839000000001 0.0 -0.74125499 -14.793099 0.0 -0.50008833 -14.371878 0.0 -0.32540795 -14.000696 0.0 -0.19597566 -13.696707 0.0 -0.11256351 -13.471917000000001 0.0 -0.058775928 -13.333442000000002 0.0 -0.024423443 -18.374023 0.0 -1.6399659 -17.863518 0.0 -1.2431712 -17.327288 0.0 -0.89722109 -16.789097 0.0 -0.64207184 -16.288828 0.0 -0.44051939 -15.846638 0.0 -0.29079601 -15.483728 0.0 -0.18726018 -15.214870000000001 0.0 -0.10996605 -15.049104000000002 0.0 -0.049524280999999996 -20.827297 0.0 -1.9201965 -20.233589000000002 0.0 -1.4975247 -19.605791 0.0 -1.1382358 -18.97514 0.0 -0.8702811 -18.382486 0.0 -0.63921112 -17.860210000000002 0.0 -0.46247703 -17.431242 0.0 -0.32291073 -17.113331 0.0 -0.206843 -16.916876000000002 0.0 -0.10007687 -23.496786 0.0 -2.3069917999999996 -22.815233 0.0 -1.8723298 -22.086937 0.0 -1.5174578 -21.349768 0.0 -1.2133243 -20.657475 0.0 -0.96153522 -20.047003 0.0 -0.7443971 -19.545704 0.0 -0.5496642 -19.174152 0.0 -0.36563021 -18.945501 0.0 -0.18302076 -26.380781 0.0 -2.8244032999999997 -25.603197 0.0 -2.4237621 -24.759052 0.0 -2.0648415 -23.911316 0.0 -1.75105 -23.114710000000002 0.0 -1.4627466999999998 -22.41131 0.0 -1.1844406 -21.836567000000002 0.0 -0.90283489 -21.411291000000002 0.0 -0.61458361 -21.14929 0.0 -0.31134635 -29.458855 0.0 -3.5516434 -28.565088 0.0 -3.1904922000000004 -27.607994 0.0 -2.8636247999999997 -26.651010999999997 0.0 -2.5436792 -25.749847 0.0 -2.2001432999999997 -24.956844 0.0 -1.8218961 -24.3062 0.0 -1.4156708999999998 -23.823036 0.0 -0.97247416 -23.527128 0.0 -0.49857509 -32.645901 0.0 -4.5341477 -31.642084000000004 0.0 -4.277226000000001 -30.586851 0.0 -3.9955172999999995 -29.525976 0.0 -3.6389019 -28.532099 0.0 -3.1937678 -27.651474 0.0 -2.6777346 -26.923582 0.0 -2.0815501 -26.384281 0.0 -1.4217983 -26.052232999999998 0.0 -0.7196905 -35.751869 0.0 -6.0017948 -34.689629 0.0 -5.7826934 -33.576218 0.0 -5.4599957 -32.444817 0.0 -5.028194 -31.376154 0.0 -4.4584904000000005 -30.420694 0.0 -3.7363172 -29.629065 0.0 -2.8955203999999997 -29.038013 0.0 -1.9710902 -28.671783 0.0 -0.99702168 -38.652702000000005 0.0 -7.6764922 -37.546603999999995 0.0 -7.571863700000001 -36.378277000000004 0.0 -7.317804300000001 -35.215492 0.0 -6.796408199999999 -34.102467 0.0 -6.0594187 -33.107304 0.0 -5.092135900000001 -32.2757 0.0 -3.9505572 -31.639753000000002 0.0 -2.6769571 -31.240698 0.0 -1.3368282 -41.166 0.0 -9.5400524 -40.044044 0.0 -9.5631132 -38.894833 0.0 -9.3274174 -37.737362 0.0 -8.7936773 -36.629295 0.0 -7.9200406 -35.595352 0.0 -6.7056179 -34.701561 0.0 -5.264178299999999 -34.027557 0.0 -3.5999741999999997 -33.597572 0.0 -1.8116804 -43.272877 0.0 -11.588399 -42.161045 0.0 -11.756189 -41.060992999999996 0.0 -11.665731 -39.883663 0.0 -10.972764 -38.758109999999995 0.0 -9.8431959 -37.728221999999995 0.0 -8.3468275 -36.860797999999996 0.0 -6.5632591 -36.164558 0.0 -4.5421366999999995 -35.721924 0.0 -2.3279586 -44.608311 0.0 -14.009435999999999 -43.577103 0.0 -14.526251 -42.427859999999995 0.0 -14.304768 -41.255936 0.0 -13.468262 -40.280429999999996 0.0 -12.203773 -39.298737 0.0 -10.396974 -38.473137 0.0 -8.1605911 -37.8055 0.0 -5.648954900000001 -37.374886 0.0 -2.8954804 -44.9184 0.0 -17.972382999999997 -44.032764 0.0 -18.450344 -43.138626 0.0 -18.302849 -42.258369 0.0 -17.414072 -41.298321 0.0 -15.67415 -40.311764000000004 0.0 -13.314313 -39.433056 0.0 -10.462477999999999 -38.743195 0.0 -7.2248015 -38.291515000000004 0.0 -3.6976068 -44.550808 0.0 -24.65765 -43.840771000000004 0.0 -24.7672 -43.280811 0.0 -24.041521 -42.586117 0.0 -22.197466 -41.679092 0.0 -19.617058 -40.601089 0.0 -16.449625 -39.641018 0.0 -12.846432 -38.884972 0.0 -8.843250300000001 -38.384232 0.0 -4.5176983 -40.733124 0.0 -31.558761999999998 -39.64143 0.0 -31.090346999999998 -38.372078 0.0 -29.358778000000004 -37.025818 0.0 -26.512220000000003 -35.728297999999995 0.0 -23.052059 -34.517368 0.0 -19.156765 -33.490982 0.0 -14.88234 -32.707767 0.0 -10.226817 -32.215218 0.0 -5.222015900000001 -26.648689 0.0 -33.175734999999996 -25.950160999999998 0.0 -32.949352000000005 -25.088120999999997 0.0 -31.299353000000004 -24.150892000000002 0.0 -28.424923 -23.215189000000002 0.0 -24.826373999999998 -22.343329999999998 0.0 -20.711979 -21.589725 0.0 -16.137698999999998 -21.004816 0.0 -11.111281 -20.63271 0.0 -5.679932599999999 -15.176538 0.0 -33.727264 -14.916295999999999 0.0 -33.854221 -14.496989000000001 0.0 -32.409565 -13.9848 0.0 -29.611326000000002 -13.438820999999999 0.0 -25.985526999999998 -12.90702 0.0 -21.760258 -12.43185 0.0 -17.003222 -12.053746 0.0 -11.730871 -11.809285000000001 0.0 -6.003767 -6.4540367 0.0 -33.716946 -6.483151 0.0 -34.123470000000005 -6.399437 0.0 -32.868801 -6.2384830000000004 0.0 -30.173695000000002 -6.032220400000001 0.0 -26.579603000000002 -5.8075957 0.0 -22.327026 -5.5904346 0.0 -17.489719 -5.408009099999999 0.0 -12.088600999999999 -5.2858524000000005 0.0 -6.193615 0.75636595 0.0 -33.385696 0.52960181 0.0 -33.948170000000005 0.35451329 0.0 -32.822025 0.22813611 0.0 -30.219984000000004 0.14664367 0.0 -26.687752000000003 0.10466418 0.0 -22.468407 0.09345904699999999 0.0 -17.634552 0.10011905 0.0 -12.206828999999999 0.11111428 0.0 -6.2599998 7.6351089000000005 0.0 -32.855846 7.2331294999999995 0.0 -33.449833 6.8330564 0.0 -32.381316999999996 6.4592443 0.0 -29.849131 6.1301847 0.0 -26.393108 5.8578639 0.0 -22.250229 5.6477995000000005 0.0 -17.486078 5.5003233 0.0 -12.116989 5.4131255 0.0 -6.2182422 14.726334 0.0 -32.137268 14.126752999999999 0.0 -32.678646 13.503715 0.0 -31.61495 12.900909 0.0 -29.135237 12.350735 0.0 -25.766256 11.875926 0.0 -21.733229 11.491974 0.0 -17.091686 11.209599 0.0 -11.851457 11.036499000000001 0.0 -6.0846376 21.911829 0.0 -31.186531 21.083038000000002 0.0 -31.632633000000002 20.229939 0.0 -30.549046 19.407705 0.0 -28.119555 18.654819 0.0 -24.852747 17.998638 0.0 -20.960055999999998 17.461033 0.0 -16.486658 17.060152 0.0 -11.435214 16.811982999999998 0.0 -5.8723225999999995 28.737164 0.0 -29.958944 27.666574 0.0 -30.299128999999997 26.586582 0.0 -29.194937 25.55793 0.0 -26.827299 24.620197 0.0 -23.683432 23.802187 0.0 -19.961388 23.129112 0.0 -15.697536 22.624844 0.0 -10.887713 22.311298 0.0 -5.5914693 34.717312 0.0 -28.442040999999996 33.421715 0.0 -28.683842 32.132884999999995 0.0 -27.571648 30.916128000000004 0.0 -25.284685 29.809668 0.0 -22.287088 28.844658000000003 0.0 -18.765022000000002 28.048777 0.0 -14.747902999999999 27.448221000000004 0.0 -10.2262 27.073930999999998 0.0 -5.251248400000001 38.749813 0.0 -26.673804999999998 36.996165999999995 0.0 -26.808701 35.37455 0.0 -25.698431 33.888065000000005 0.0 -23.5154 32.570029999999996 0.0 -20.690538 31.397543 0.0 -17.399582000000002 30.448324 0.0 -13.663023 29.753159999999998 0.0 -9.468688 29.324859999999997 0.0 -4.8601813 39.437560999999995 0.0 -24.738595999999998 37.593185 0.0 -24.755879999999998 35.909058 0.0 -23.65502 34.369797 0.0 -21.594593 32.99873 0.0 -18.963587 31.810364 0.0 -15.924922 30.835743 0.0 -12.485509 30.119293 0.0 -8.640255900000001 29.681165999999997 0.0 -4.431839900000001 39.375095 0.0 -22.786797 37.487633 0.0 -22.661285 35.787022 0.0 -21.581764 34.25103 0.0 -19.649355 32.87249 0.0 -17.204824 31.683714000000002 0.0 -14.410932999999998 30.707195000000002 0.0 -11.271202 29.981918 0.0 -7.7833395 29.537003000000002 0.0 -3.9858835 39.052444 0.0 -20.929707 37.128409999999995 0.0 -20.699663 35.39497 0.0 -19.599957 33.836464 0.0 -17.764185 32.456947 0.0 -15.490067999999999 31.277357000000002 0.0 -12.920047 30.29471 0.0 -10.082103 29.556585 0.0 -6.9481173 29.087519 0.0 -3.5498489999999996 38.67905 0.0 -19.281682999999997 36.672169 0.0 -18.950968 34.834773999999996 0.0 -17.830633 33.234718 0.0 -16.091064000000003 31.83103 0.0 -13.989266 30.619853999999997 0.0 -11.646068 29.628823999999998 0.0 -9.0328569 28.900392999999998 0.0 -6.1946392 28.444069 0.0 -3.1555657000000004 38.195229 0.0 -17.689569 36.063084 0.0 -17.318752 34.157902 0.0 -16.230902 32.500671000000004 0.0 -14.582739000000002 31.077140999999997 0.0 -12.588526 29.87286 0.0 -10.383026 28.88686 0.0 -8.008747099999999 28.142511 0.0 -5.4564986 27.684215999999996 0.0 -2.7669683 37.668789000000004 0.0 -16.21929 35.390514 0.0 -15.742405999999999 33.363525 0.0 -14.748745999999999 31.647903000000003 0.0 -13.190719 30.199877 0.0 -11.309648 28.987517999999998 0.0 -9.2482452 28.014011 0.0 -7.0698819 27.275640000000003 0.0 -4.7837033 26.826355 0.0 -2.4118142000000002 37.023132000000004 0.0 -14.782124 34.607094000000004 0.0 -14.245017 32.483826 0.0 -13.275922 30.694675 0.0 -11.885581 29.214709999999997 0.0 -10.157774 28.01882 0.0 -8.2561512 27.064056 0.0 -6.2405156999999996 26.360806 0.0 -4.179316 25.913432999999998 0.0 -2.0937214 36.649784000000004 0.0 -13.061835 33.842682 0.0 -12.805421 31.544439 0.0 -11.932702 29.704119 0.0 -10.664176 28.195628999999997 0.0 -9.1129246 26.991207 0.0 -7.3799944 26.050787 0.0 -5.5727877999999995 25.360426 0.0 -3.7172796999999997 24.947231 0.0 -1.8533578000000002 36.393009 0.0 -11.133446000000001 33.153835 0.0 -11.182051 30.712553000000003 0.0 -10.605578 28.710642 0.0 -9.556904800000002 27.165569 0.0 -8.2105227 25.946487 0.0 -6.645691900000001 25.000925 0.0 -5.0035453 24.326746 0.0 -3.3234601 23.909376 0.0 -1.6491406000000002 36.341614 0.0 -9.2455711 32.704166 0.0 -9.5175552 29.902586 0.0 -9.176912300000001 27.838068 0.0 -8.414240800000002 26.193981 0.0 -7.2923484 24.940970999999998 0.0 -5.971098400000001 23.999086 0.0 -4.4816151 23.324921 0.0 -2.9597373 22.924738 0.0 -1.4630829 36.672259999999994 0.0 -7.4273872 32.567631 0.0 -7.7917179999999995 29.373833 0.0 -7.7476401 27.044378000000002 0.0 -7.2104421 25.345078 0.0 -6.3658814 24.037203 0.0 -5.2282805 23.081964000000003 0.0 -3.9726825 22.413509 0.0 -2.6283216 22.028145000000002 0.0 -1.3030462 37.632008 0.0 -6.1408887000000005 32.883453 0.0 -6.2194858 29.211781 0.0 -6.2953157 26.532273999999997 0.0 -6.031403500000001 24.619608 0.0 -5.3796477 23.265284 0.0 -4.5042586 22.270582 0.0 -3.4375212 21.606832999999998 0.0 -2.3031108 21.224463 0.0 -1.157797 39.685814 0.0 -5.8923635 34.025005 0.0 -5.1499882 29.586761 0.0 -5.0237179 26.434040000000003 0.0 -4.844389 24.230042 0.0 -4.4618845 22.663748000000002 0.0 -3.7647227999999995 21.6371 0.0 -2.9126543999999996 20.925062 0.0 -1.9825711 20.540470000000003 0.0 -1.0024110000000002 42.521439 0.0 -6.3192825 36.413821999999996 0.0 -5.2262987999999995 31.126759000000003 0.0 -4.2288389 26.991056 0.0 -3.9244144 24.282984 0.0 -3.5825591 22.430967000000003 0.0 -3.1304147 21.218842000000002 0.0 -2.451678 20.471395 0.0 -1.6697819999999999 20.045223 0.0 -0.83822012 46.063171000000004 0.0 -7.2349243 39.418659000000005 0.0 -6.0182219 33.905533 0.0 -4.685493 29.013863 0.0 -3.6813321000000006 25.156244 0.0 -3.1768975 22.734644 0.0 -2.6686671000000004 21.229031 0.0 -2.108119 20.336229 0.0 -1.4829073 19.855816 0.0 -0.7712186 49.097 0.0 -7.8772755000000005 42.774776 0.0 -6.709065 36.863704999999996 0.0 -5.8325372 32.25185 0.0 -4.7418332 27.681461 0.0 -4.0084925 24.120251 0.0 -3.2206693 21.94903 0.0 -2.325187 20.697657 0.0 -1.5393755 20.117638 0.0 -0.75896049 45.296005 0.0 -7.106784299999999 39.942657000000004 0.0 -6.3485708 34.860374 0.0 -5.9470735 30.584375 0.0 -5.622265799999999 27.401654999999998 0.0 -4.757062 24.980663 0.0 -3.4628305 23.403898 0.0 -2.1582427 22.52673 0.0 -1.0219255999999999 37.454586 0.0 -6.0363417 33.174923 0.0 -6.0167222 29.541357 0.0 -5.6400394 27.764463 0.0 -4.0630937000000005 26.836166 0.0 -2.4665303 26.321331 0.0 -1.1465052 32.133205 0.0 -5.681585299999999 29.413103000000003 0.0 -4.927875 28.364546 0.0 -2.9439659 27.730304999999998 0.0 -1.3400016000000001 -0.2382341 0.0 -6.433214099999999e-08 -0.2383092 0.0 0.0010192655999999999 -0.23850703 0.0 0.0021885345 -0.23874155 0.0 0.0036417209 -0.23884678 0.0 0.005577911600000001 -0.23859918 0.0 0.008055570500000001 -0.23762965 0.0 0.011295878999999998 -0.23548993 0.0 0.015327644 -0.3247205 0.0 -9.499286999999999e-08 -0.32488197 0.0 0.0013946610999999998 -0.32532269 0.0 0.0029890153000000004 -0.32593179 0.0 0.0049240948 -0.32648408 0.0 0.0074481075 -0.32665992 0.0 0.010718723000000001 -0.32597643 0.0 0.014905656000000002 -0.32376629 0.0 0.020204447 -0.43375465 0.0 3.0008664e-08 -0.43403524 0.0 0.0016333793 -0.43482026 0.0 0.0034822882 -0.43595105 0.0 0.0057444628 -0.43714607 0.0 0.008669096999999999 -0.43796724 0.0 0.012487078 -0.43779835 0.0 0.017326484 -0.43573746 0.0 0.023409227 -0.5614956 0.0 7.560814200000001e-08 -0.56193089 0.0 0.0017424665 -0.56316996 0.0 0.0037074815 -0.56500971 0.0 0.0061678849 -0.56709933 0.0 0.0093275644 -0.56886786 0.0 0.013529416 -0.56955421 0.0 0.018803272 -0.56801307 0.0 0.025437738999999997 -0.70924985 0.0 1.1828058000000001e-07 -0.70988572 0.0 0.0017519863 -0.71171856 0.0 0.0037343222999999997 -0.71449733 0.0 0.006294189 -0.71780437 0.0 0.0095730349 -0.72094959 0.0 0.013949521999999999 -0.72297359 0.0 0.019621998 -0.72250891 0.0 0.026653832000000002 -0.88049841 0.0 5.7412080000000004e-08 -0.88139236 0.0 0.0016996170999999999 -0.88399082 0.0 0.0036642819 -0.88800913 0.0 0.0062012486 -0.89293402 0.0 0.009620795 -0.89799172 0.0 0.014140351 -0.90201068 0.0 0.020132303 -0.90337318 0.0 0.027510546 -1.0796611 0.0 -3.7363042999999996e-07 -1.0808864 0.0 0.0016468157999999999 -1.0844593 0.0 0.0036244311 -1.0900653999999999 0.0 0.0061941109999999995 -1.0971265 0.0 0.0097648511 -1.104766 0.0 0.014488071000000002 -1.1115962 0.0 0.020861721 -1.1157426000000001 0.0 0.028630124 -1.3115914 0.0 7.284802499999999e-08 -1.3132373 0.0 0.0017037247 -1.3180563 0.0 0.0037808153000000004 -1.325707 0.0 0.0065132594 -1.335539 0.0 0.010388932 -1.3465813 0.0 0.015497288 -1.3572540000000002 0.0 0.022364216 -1.3653298999999999 0.0 0.030844637999999997 -1.5814995 0.0 -7.481634200000001e-07 -1.5836803 0.0 0.0019357457999999998 -1.5900948000000001 0.0 0.0043120706 -1.6003604 0.0 0.007462803299999999 -1.6137533000000002 0.0 0.011947569 -1.6291891 0.0 0.017840089 -1.6448889 0.0 0.025667185 -1.6582723999999998 0.0 0.035339616000000004 -1.8949325000000001 0.0 -2.2370840999999999e-07 -1.8977909 0.0 0.0024141173 -1.9062176 0.0 0.005376640699999999 -1.9197828999999997 0.0 0.0093279555 -1.9376765 0.0 0.01490929 -1.9586811000000002 0.0 0.02224322 -1.9807911 0.0 0.031908043 -2.0010866999999997 0.0 0.043614082 -2.257931 0.0 -8.0586528e-07 -2.2616286 0.0 0.0031987503000000003 -2.2725489 0.0 0.0071055363 -2.2902202999999997 0.0 0.012367475 -2.3137321 0.0 0.019715374 -2.3416922000000002 0.0 0.029436171 -2.3717985 0.0 0.04229001 -2.4009051 0.0 0.057259493 -2.6771884 0.0 -4.1596127000000003e-07 -2.6819136 0.0 0.0043109092 -2.6959119 0.0 0.0095651178 -2.7186487 0.0 0.016725761999999998 -2.7491076 0.0 0.02665988 -2.7856638 0.0 0.039923325 -2.8257152999999997 0.0 0.057295352 -2.865716 0.0 0.077578217 -3.160084 0.0 -9.228817800000001e-07 -3.1660678 0.0 0.0056964382999999995 -3.1838443 0.0 0.01270976 -3.2127719 0.0 0.02234708 -3.2517049 0.0 0.035627942999999995 -3.2987754000000002 0.0 0.053744093 -3.3510621 0.0 0.077172332 -3.4043883999999998 0.0 0.10528015 -3.7145443 0.0 5.987772099999999e-07 -3.7220612 0.0 0.007249299 -3.7444267 0.0 0.016325388 -3.7808335 0.0 0.028826457000000003 -3.8300638 0.0 0.046499940999999996 -3.8898652 0.0 0.070924163 -3.9569913999999997 0.0 0.10212686 -4.0266123 0.0 0.14084275 -4.3487892 0.0 2.7466208e-06 -4.358158599999999 0.0 0.0087690158 -4.3859987 0.0 0.019810198 -4.4314981 0.0 0.035758127 -4.4931097 0.0 0.058749616 -4.5681891 0.0 0.090558574 -4.6531606 0.0 0.1315058 -4.7425804000000005 0.0 0.18381044 -5.0711308 0.0 1.4696266e-06 -5.0827384 0.0 0.010030705 -5.117182700000001 0.0 0.022952113 -5.173574400000001 0.0 0.042587920999999994 -5.249910400000001 0.0 0.071162701 -5.34339 0.0 0.11123488 -5.4499025 0.0 0.16470084 -5.563246299999999 0.0 0.23366278 -5.8900228 0.0 -1.6902004000000003e-07 -5.9043264 0.0 0.010765496999999999 -5.9467267999999995 0.0 0.025190527999999997 -6.0162072 0.0 0.048668373 -6.1102319000000005 0.0 0.082786322 -6.2258749 0.0 0.13301198 -6.3582168 0.0 0.20094015 -6.5002208 0.0 0.28975624 -6.814118400000001 0.0 -1.0108350999999999e-07 -6.8316693 0.0 0.010751833 -6.8836842 0.0 0.026099663 -6.9688931 0.0 0.053376477 -7.0842791 0.0 0.09317811599999999 -7.2264118 0.0 0.15533568 -7.3897071 0.0 0.23909879 -7.5657024 0.0 0.35159397 -7.852073700000001 0.0 1.1853853999999999e-06 -7.873569 0.0 0.010061346 -7.937213400000001 0.0 0.025750187999999997 -8.0411425 0.0 0.055118822000000005 -8.1825352 0.0 0.10231192 -8.356266999999999 0.0 0.1773231 -8.555994 0.0 0.27731761 -8.7711954 0.0 0.41279247 -9.0120487 0.0 4.2901602000000005e-06 -9.0383139 0.0 0.0092374524 -9.1160021 0.0 0.025180675 -9.2426624 0.0 0.056863643 -9.41504 0.0 0.11121062 -9.6264963 0.0 0.19845599 -9.8684177 0.0 0.31354761 -10.130816000000001 0.0 0.4784632 -10.300989999999999 0.0 -2.7675342e-06 -10.332949000000001 0.0 0.0095025105 -10.427531 0.0 0.026836526 -10.581512 0.0 0.061876241 -10.790801 0.0 0.12368996 -11.0471 0.0 0.22362429 -11.339683 0.0 0.35687527 -11.656463 0.0 0.5498507 -11.724436 0.0 -6.1037144e-06 -11.763077000000001 0.0 0.013087949 -11.877823 0.0 0.035473395 -12.064374 0.0 0.076735161 -12.317335 0.0 0.14743468 -12.626532000000001 0.0 0.26095834 -12.978539 0.0 0.41456559 -13.358876 0.0 0.63304436 -13.286945999999999 0.0 3.6815127e-06 -13.333449 0.0 0.024415426 -13.471913 0.0 0.058785323 -13.696722 0.0 0.11256422 -14.000704 0.0 0.19597593 -14.371885 0.0 0.32540777 -14.793092999999999 0.0 0.50009257 -15.246839999999999 0.0 0.74125385 -14.993271 0.0 1.4906955e-06 -15.049106 0.0 0.049525388 -15.214884 0.0 0.10996235 -15.483737 0.0 0.18725759 -15.846618 0.0 0.29079604 -16.288839000000003 0.0 0.44052005 -16.789101000000002 0.0 0.64206767 -17.327295 0.0 0.89722002 -16.850355 0.0 -2.0576508e-06 -16.916864 0.0 0.10006808 -17.113331 0.0 0.20684052 -17.431257000000002 0.0 0.32291478 -17.860218 0.0 0.46247715 -18.382517 0.0 0.63920712 -18.975147 0.0 0.87028414 -19.605778 0.0 1.1382388 -18.868303 0.0 2.486629e-06 -18.945478 0.0 0.18301849 -19.174164 0.0 0.36562896 -19.545692000000003 0.0 0.54966784 -20.047022 0.0 0.74439871 -20.657492 0.0 0.96153462 -21.349766 0.0 1.2133193000000002 -22.086939 0.0 1.5174393999999998 -21.060839 0.0 -4.927788700000001e-06 -21.149310999999997 0.0 0.31135657 -21.411270000000002 0.0 0.61457735 -21.836565 0.0 0.90283251 -22.411312 0.0 1.1844419 -23.114704 0.0 1.4627424 -23.911317999999998 0.0 1.7510526999999998 -24.759058 0.0 2.0648406 -23.427732000000002 0.0 1.2387049e-05 -23.527142 0.0 0.4985792 -23.823059 0.0 0.97247976 -24.306175 0.0 1.4156699 -24.95685 0.0 1.8218981 -25.749861 0.0 2.2001437999999998 -26.651020000000003 0.0 2.5436799999999997 -27.607985 0.0 2.8636236 -25.939295 0.0 1.0879639e-05 -26.052219 0.0 0.71968478 -26.384249 0.0 1.421814 -26.923576 0.0 2.0815542000000002 -27.651460999999998 0.0 2.6777349 -28.532106 0.0 3.1937704 -29.526001 0.0 3.6389079 -30.586853 0.0 3.995517 -28.550397999999998 0.0 1.4578422000000001e-05 -28.671799 0.0 0.9970296 -29.038002000000002 0.0 1.971094 -29.629078000000003 0.0 2.8955224 -30.420709999999996 0.0 3.7363157 -31.376106 0.0 4.458487 -32.444817 0.0 5.0281954 -33.576225 0.0 5.4600015 -31.120457000000002 0.0 -8.764836800000001e-06 -31.240658000000003 0.0 1.3368149 -31.639788 0.0 2.6769567000000003 -32.275673 0.0 3.9505562999999992 -33.107265000000005 0.0 5.0921392 -34.102455 0.0 6.0594144 -35.215454 0.0 6.7964144 -36.378258 0.0 7.317812400000001 -33.476692 0.0 4.7662179e-06 -33.597522999999995 0.0 1.8116767 -34.027576 0.0 3.599992 -34.701607 0.0 5.264174 -35.595352 0.0 6.7056227 -36.629257 0.0 7.920041099999999 -37.737301 0.0 8.793679199999998 -38.894855 0.0 9.3274183 -35.569687 0.0 -1.6700185e-05 -35.721942999999996 0.0 2.3279519 -36.164615999999995 0.0 4.542138099999999 -36.860809 0.0 6.5632539 -37.728226 0.0 8.346836099999999 -38.758086999999996 0.0 9.843195 -39.883656 0.0 10.972754 -41.060970000000005 0.0 11.665719000000001 -37.226677 0.0 -1.9895902000000003e-05 -37.374882 0.0 2.8954258 -37.805504 0.0 5.648956299999999 -38.473087 0.0 8.1605682 -39.298756 0.0 10.396971 -40.280476 0.0 12.203778999999999 -41.255913 0.0 13.468257999999999 -42.427864 0.0 14.304789999999999 -38.139846999999996 0.0 -1.0709628e-05 -38.291515000000004 0.0 3.6975943999999994 -38.743183 0.0 7.224791499999999 -39.433083 0.0 10.462495 -40.311729 0.0 13.314323000000002 -41.298306 0.0 15.674137 -42.258354 0.0 17.414082 -43.138626 0.0 18.302811 -38.212143 0.0 1.0449439e-06 -38.384246999999995 0.0 4.5176978 -38.884983 0.0 8.8431969 -39.640999 0.0 12.846422 -40.601078 0.0 16.449631 -41.679111 0.0 19.617054 -42.586086 0.0 22.197489 -43.28083 0.0 24.041529 -32.046848 0.0 4.6486384e-06 -32.21521 0.0 5.2220297 -32.707771 0.0 10.226808 -33.490974 0.0 14.882323000000001 -34.517353 0.0 19.15675 -35.728321 0.0 23.052101 -37.025871 0.0 26.512251000000003 -38.372101 0.0 29.358686 -20.504868 0.0 3.6469079e-05 -20.632704 0.0 5.6799488 -21.004787 0.0 11.11132 -21.589699 0.0 16.137678 -22.343321 0.0 20.712006 -23.215187 0.0 24.826324 -24.150873 0.0 28.424954999999997 -25.08811 0.0 31.299371999999998 -11.724609 0.0 -2.2291729999999997e-05 -11.809301 0.0 6.0037503 -12.053818 0.0 11.73088 -12.431838 0.0 17.003204 -12.906983 0.0 21.760258 -13.438820999999999 0.0 25.985525 -13.984805999999999 0.0 29.611342999999998 -14.496958 0.0 32.409534 -5.2428031 0.0 1.8674706000000002e-05 -5.2858596 0.0 6.1936555 -5.407977099999999 0.0 12.08863 -5.590437400000001 0.0 17.489693 -5.8075809000000005 0.0 22.327021 -6.0322371 0.0 26.579601 -6.2384791 0.0 30.173685 -6.3995013 0.0 32.868805 0.11607677 0.0 -2.9108254e-05 0.11112237 0.0 6.2599678 0.10013265 0.0 12.206814999999999 0.09343259 0.0 17.63455 0.10464093 0.0 22.468409 0.14664033 0.0 26.687752000000003 0.22818369 0.0 30.220005 0.35451075 0.0 32.822021 5.3842816 0.0 -3.0133640000000002e-05 5.4131093 0.0 6.218221700000001 5.5003324000000005 0.0 12.117009 5.6477709 0.0 17.486076 5.8578448 0.0 22.25021 6.1301274 0.0 26.393105 6.4592152 0.0 29.849078999999996 6.8330584000000005 0.0 32.381325 10.978141 0.0 2.0407198e-05 11.036535 0.0 6.084682 11.209589 0.0 11.851448 11.491985000000001 0.0 17.09169 11.875933999999999 0.0 21.733225 12.35078 0.0 25.766235 12.900934 0.0 29.135247999999997 13.503693 0.0 31.614901 16.727767999999998 0.0 1.2520468e-07 16.81193 0.0 5.8722677 17.06019 0.0 11.435177000000001 17.46101 0.0 16.486681 17.998646 0.0 20.960077 18.65481 0.0 24.852747 19.407754999999998 0.0 28.119549 20.229969 0.0 30.549028000000003 22.204735 0.0 -1.2312084e-05 22.311306 0.0 5.591486 22.624855 0.0 10.887711999999999 23.129162 0.0 15.697534 23.802217000000002 0.0 19.961385999999997 24.620237 0.0 23.683472000000002 25.557972 0.0 26.827271000000003 26.58659 0.0 29.194925 26.946733000000002 0.0 4.4764602e-06 27.073944 0.0 5.2512932 27.448202000000002 0.0 10.226192999999999 28.048815 0.0 14.747901999999998 28.844679 0.0 18.765022000000002 29.809611999999998 0.0 22.287094 30.916168 0.0 25.284691 32.132931 0.0 27.571641999999997 29.179989000000003 0.0 2.0210282e-06 29.324907 0.0 4.8602028 29.753195 0.0 9.4687023 30.448345 0.0 13.663029000000002 31.397543 0.0 17.399573999999998 32.569992 0.0 20.690545999999998 33.888039 0.0 23.515388 35.374542 0.0 25.698446 29.533676 0.0 1.8913415e-05 29.6812 0.0 4.4318419 30.119284000000004 0.0 8.640263599999999 30.835793 0.0 12.485505999999999 31.810318 0.0 15.924941 32.998749 0.0 18.963554000000002 34.369781 0.0 21.59458 35.908978000000005 0.0 23.655027 29.387407 0.0 3.4620810999999996e-05 29.537005999999998 0.0 3.9858617999999995 29.981951000000002 0.0 7.7833109 30.707129 0.0 11.271177 31.683629999999997 0.0 14.410953 32.872467 0.0 17.204807000000002 34.250999 0.0 19.649345 35.787003000000006 0.0 21.58182 28.931519 0.0 1.5340571e-05 29.087507000000002 0.0 3.5498157 29.556573999999998 0.0 6.9481149 30.294682 0.0 10.082104 31.277396999999997 0.0 12.920064 32.45694 0.0 15.49005 33.836529 0.0 17.764193 35.394946999999995 0.0 19.599968 28.288845000000002 0.0 6.020072e-05 28.444035999999997 0.0 3.1555512 28.900387 0.0 6.1946544999999995 29.628878000000004 0.0 9.0328541 30.61989 0.0 11.646078999999999 31.831041 0.0 13.989275 33.234707 0.0 16.091059 34.834812 0.0 17.830667000000002 27.529321999999997 0.0 1.3508223e-05 27.684164000000003 0.0 2.7669516 28.1425 0.0 5.4565234 28.886881 0.0 8.0087461 29.872840999999998 0.0 10.38303 31.077121999999996 0.0 12.588528 32.500664 0.0 14.582733 34.157879 0.0 16.230906 26.671232 0.0 -4.819507e-06 26.826368 0.0 2.4118264 27.275667 0.0 4.783702900000001 28.01404 0.0 7.069880499999999 28.987546999999996 0.0 9.24823 30.199917 0.0 11.309659 31.647907 0.0 13.190732999999998 33.36351 0.0 14.748754000000002 25.751247 0.0 -1.4734396e-06 25.913464 0.0 2.0936996999999997 26.360785999999997 0.0 4.1793222000000005 27.064059999999998 0.0 6.2405352999999995 28.01882 0.0 8.2561474 29.214696999999997 0.0 10.15778 30.694671999999997 0.0 11.885562 32.483837 0.0 13.275915 24.815334 0.0 6.955931900000001e-06 24.947235 0.0 1.8533585 25.360392 0.0 3.7172828 26.050801999999997 0.0 5.572783900000001 26.991213000000002 0.0 7.379987700000001 28.195641 0.0 9.112925500000001 29.704071000000003 0.0 10.664178 31.544479 0.0 11.932692 23.786392000000003 0.0 7.0952956e-06 23.909376 0.0 1.6491288 24.326757 0.0 3.3234608 25.000912 0.0 5.0035429 25.946487 0.0 6.6456943 27.165561999999998 0.0 8.210514100000001 28.71064 0.0 9.5569143 30.712584999999997 0.0 10.605573 22.801981 0.0 6.1468745e-06 22.924749 0.0 1.4630718 23.324913000000002 0.0 2.9597439999999997 23.999117000000002 0.0 4.4816098 24.940966 0.0 5.9710908 26.193979000000002 0.0 7.2923546 27.838070000000002 0.0 8.4142466 29.902632 0.0 9.1769133 21.911005 0.0 -2.6575581e-06 22.028128 0.0 1.3030393999999998 22.413505999999998 0.0 2.6283298 23.081966 0.0 3.9726751000000005 24.037224 0.0 5.228278599999999 25.345091 0.0 6.365881 27.044369 0.0 7.2104454 29.373825 0.0 7.747637299999999 21.102766 0.0 4.3358013e-06 21.224476 0.0 1.1577951000000002 21.606817000000003 0.0 2.3031187 22.270585999999998 0.0 3.4375281 23.265301 0.0 4.5042558 24.619612 0.0 5.379646299999999 26.532259000000003 0.0 6.031404 29.211810999999997 0.0 6.295318099999999 20.397312 0.0 -1.049164e-06 20.540468 0.0 1.0024290999999999 20.925079 0.0 1.9825683 21.637087 0.0 2.9126608 22.663748000000002 0.0 3.7647204 24.23004 0.0 4.4618839999999995 26.434052 0.0 4.8443917999999995 29.586767 0.0 5.023733099999999 19.899303 0.0 -2.5298505e-08 20.045242000000002 0.0 0.83822018 20.471407 0.0 1.6697769 21.218834 0.0 2.4516833 22.430969 0.0 3.1304127999999998 24.282988 0.0 3.5825586000000005 26.991076 0.0 3.9244065000000004 31.126776 0.0 4.2288332 19.711184 0.0 -3.3476026e-06 19.855814000000002 0.0 0.77121913 20.336226 0.0 1.4829077 21.229034 0.0 2.1081216 22.734648 0.0 2.6686678 25.156244 0.0 3.1769022999999996 29.013857 0.0 3.6813331 33.905537 0.0 4.6854963 19.91297 0.0 -1.9824365e-06 20.117645 0.0 0.75896722 20.697664000000003 0.0 1.5393753000000001 21.949026 0.0 2.3251934 24.120256 0.0 3.2206671 27.681475 0.0 4.0084934 32.25185 0.0 4.7418346 36.863731 0.0 5.8325295 22.250683 0.0 -1.2596138e-07 22.526733 0.0 1.021924 23.403913 0.0 2.158241 24.980673 0.0 3.4628308 27.401657 0.0 4.7570629 30.584387 0.0 5.6222715 34.860386 0.0 5.9470806 39.942661 0.0 6.3485656 26.111694 0.0 1.8367427e-06 26.321321 0.0 1.1465014999999998 26.836171999999998 0.0 2.4665310000000003 27.764458 0.0 4.0630937000000005 29.541349 0.0 5.640040900000001 33.174931 0.0 6.0167198 37.454597 0.0 6.0363517 27.561152000000003 0.0 -6.933696600000001e-07 27.730301 0.0 1.3400034 28.364548 0.0 2.9439647 29.413099 0.0 4.9278746 32.133198 0.0 5.681582499999999 -0.23160264 0.0 0.020146281999999998 -0.22527128 0.0 0.025891729 -0.21597394 0.0 0.032122839 -0.20304048 0.0 0.038700293999999996 -0.18614784 0.0 0.044803351 -0.16457713 0.0 0.050128959 -0.1387246 0.0 0.053020559 -0.31929517 0.0 0.026395801 -0.31148452 0.0 0.033790492000000005 -0.29944244 0.0 0.041901253 -0.28229329 0.0 0.050157636 -0.25923723 0.0 0.057400517000000005 -0.22888461 0.0 0.06304886900000001 -0.19018838 0.0 0.065636456 -0.14198303 0.0 0.07161513 -0.43072191 0.0 0.03064953 -0.42137659 0.0 0.039061952000000004 -0.40635476 0.0 0.048222624000000006 -0.38428715 0.0 0.057628035999999994 -0.35411054 0.0 0.065705337 -0.31371421 0.0 0.072648719 -0.2623269 0.0 0.076847643 -0.19771355 0.0 0.081878036 -0.56280434 0.0 0.033450261 -0.55217874 0.0 0.04264947 -0.53422672 0.0 0.05283457 -0.50714129 0.0 0.063347839 -0.46946242 0.0 0.072579376 -0.41855931 0.0 0.080802128 -0.35304824 0.0 0.086041003 -0.26829672 0.0 0.092677295 -0.71767282 0.0 0.035333399 -0.7063126 0.0 0.04516996400000001 -0.68584549 0.0 0.056324605 -0.65396059 0.0 0.067989975 -0.6087119 0.0 0.078465968 -0.54658794 0.0 0.088207215 -0.46493274 0.0 0.095207721 -0.35619187 0.0 0.1057677 -0.89972532 0.0 0.036772769 -0.88840175 0.0 0.047283079000000006 -0.86618423 0.0 0.059160660999999996 -0.83002502 0.0 0.071880266 -0.77738625 0.0 0.083577231 -0.70341396 0.0 0.095300138 -0.60373354 0.0 0.10527265 -0.46666026 0.0 0.12205571 -1.1143886 0.0 0.038338546 -1.1041776 0.0 0.049561504000000006 -1.081264 0.0 0.062011123 -1.0416515 0.0 0.07577379 -0.98229384 0.0 0.088556975 -0.89620161 0.0 0.10304648 -0.77709568 0.0 0.1174286 -0.60701823 0.0 0.14389163 -1.3675786 0.0 0.041153796 -1.3598741 0.0 0.053162064 -1.3375914 0.0 0.066347539 -1.2959157 0.0 0.081175715 -1.2308086999999999 0.0 0.095235914 -1.1333445 0.0 0.11323717 -0.99409103 0.0 0.13404363 -0.78747678 0.0 0.17349315 -1.6656668999999997 0.0 0.046732325 -1.6621400000000002 0.0 0.06000315 -1.6421703999999997 0.0 0.07466579200000001 -1.6000483 0.0 0.09102688 -1.5304806999999998 0.0 0.10712419 -1.4236867 0.0 0.12779915 -1.2653768 0.0 0.15658575 -1.0226579 0.0 0.20963812 -2.0153487 0.0 0.057268877 -2.0179758000000003 0.0 0.07291024900000001 -2.002568 0.0 0.089839324 -1.9625099999999998 0.0 0.10788401 -1.8903716 0.0 0.12711501 -1.7766332999999999 0.0 0.15021986 -1.6036901000000001 0.0 0.18400204 -1.3342812 0.0 0.2423979 -2.4240365 0.0 0.074936159 -2.4350896 0.0 0.094617143 -2.4271822 0.0 0.11470348 -2.3920121 0.0 0.13626195 -2.3220215 0.0 0.15586394 -2.2060161 0.0 0.17969447 -2.0284324000000002 0.0 0.21381867 -1.7457448 0.0 0.2712543 -2.9001322 0.0 0.10117074 -2.9220874 0.0 0.12746531 -2.9248874 0.0 0.15273076 -2.8988147 0.0 0.17988624 -2.8375201 0.0 0.20218605 -2.7256419999999997 0.0 0.23634839 -2.5509193 0.0 0.29215014 -2.2385802000000004 0.0 0.41572142 -3.4526696000000006 0.0 0.13817737 -3.4887288 0.0 0.17367528 -3.5058808 0.0 0.20974207 -3.4957290000000003 0.0 0.2494877 -3.4527276 0.0 0.29286483 -3.3577573 0.0 0.37604749 -3.2025812 0.0 0.53855026 -2.8977556 0.0 0.86346376 -4.0922699 0.0 0.18533133 -4.1462202 0.0 0.23568045 -4.1824126 0.0 0.29184175 -4.1958709 0.0 0.35887289 -4.1863279 0.0 0.4407663 -4.1361156 0.0 0.59614909 -4.0322685 0.0 0.8871811 -3.7964566 0.0 1.349936 -4.8298497000000005 0.0 0.24473792 -4.9060426 0.0 0.31570739 -4.9667788 0.0 0.39781815 -5.012136 0.0 0.50003064 -5.0484114 0.0 0.63557428 -5.0647802 0.0 0.85513848 -5.0454512000000005 0.0 1.2305082 -4.921331400000001 0.0 1.7540435 -5.676577099999999 0.0 0.3153089 -5.780074099999999 0.0 0.41190264 -5.8708348 0.0 0.52517837 -5.9546871 0.0 0.66450387 -6.040503500000001 0.0 0.84638166 -6.134711299999999 0.0 1.1209673999999998 -6.2156668 0.0 1.5434828 -6.2182474 0.0 2.1014009 -6.6446209000000005 0.0 0.39648622 -6.780421700000001 0.0 0.52216136 -6.9050651 0.0 0.66916275 -7.029964 0.0 0.84596592 -7.1703296000000005 0.0 1.0723223999999998 -7.3409834 0.0 1.3852196 -7.5234008 0.0 1.8402186999999999 -7.6502261 0.0 2.4417787 -7.7454543000000005 0.0 0.48293379 -7.918412200000001 0.0 0.64239895 -8.0827055 0.0 0.83114046 -8.2513542 0.0 1.0453466 -8.446729699999999 0.0 1.3098149 -8.694237699999999 0.0 1.6521572 -8.9724121 0.0 2.1436229 -9.2110949 0.0 2.7933202 -8.993006699999999 0.0 0.57587373 -9.208991099999999 0.0 0.77694237 -9.414773 0.0 1.0067383 -9.630587599999998 0.0 1.2614832 -9.884784699999999 0.0 1.5637931 -10.214184 0.0 1.9352198 -10.59427 0.0 2.4628092999999995 -10.938868 0.0 3.1726772999999997 -10.400619 0.0 0.6758045 -10.663675999999999 0.0 0.92032886 -10.91435 0.0 1.1972313 -11.179952 0.0 1.4972288999999999 -11.498286 0.0 1.8422328000000001 -11.921379 0.0 2.2467027 -12.420316 0.0 2.8135692999999997 -12.888772 0.0 3.5878730000000005 -11.981199 0.0 0.78356665 -12.295808000000001 0.0 1.0749342 -12.594472999999999 0.0 1.4046223999999998 -12.911612 0.0 1.7560202 -13.299107999999999 0.0 2.1517556 -13.828856 0.0 2.5976479 -14.471107 0.0 3.2066011000000003 -15.096656 0.0 4.0479593000000005 -13.746056 0.0 0.90468502 -14.117828 0.0 1.2416797 -14.467277 0.0 1.6280451999999999 -14.838319 0.0 2.0394955 -15.299635999999998 0.0 2.4969435 -15.948770999999999 0.0 2.9984083 -16.763119 0.0 3.6597477999999994 -17.585499 0.0 4.567455799999999 -15.702724 0.0 1.0555171 -16.141014000000002 0.0 1.4252837999999999 -16.546705 0.0 1.8720218999999998 -16.973166 0.0 2.3478894 -17.513357 0.0 2.8804526000000004 -18.295284 0.0 3.4604404000000004 -19.313236 0.0 4.192714700000001 -20.379478 0.0 5.166540599999999 -17.863504000000002 0.0 1.2431678999999998 -18.374025 0.0 1.6399633999999998 -18.843882 0.0 2.1379356 -19.33215 0.0 2.6776487999999996 -19.956173 0.0 3.2988281 -20.882917000000003 0.0 3.9865515 -22.142001999999998 0.0 4.828953299999999 -23.508507 0.0 5.8860602 -20.233582000000002 0.0 1.4975226000000001 -20.827299 0.0 1.9201943 -21.364674 0.0 2.4309298999999998 -21.919941 0.0 3.0565512000000004 -22.644517999999998 0.0 3.7494709000000004 -23.73584 0.0 4.582752200000001 -25.277197 0.0 5.6058578 -27.012421000000003 0.0 6.7546091 -22.815214 0.0 1.8723289 -23.496799 0.0 2.3069868 -24.119457 0.0 2.815788 -24.749079000000002 0.0 3.4555572999999997 -25.594117999999998 0.0 4.224807299999999 -26.88755 0.0 5.2406144 -28.753075 0.0 6.5482402 -30.93998 0.0 7.8073883 -25.603189 0.0 2.4237592 -26.380789 0.0 2.8244022999999996 -27.093759999999996 0.0 3.3211732000000005 -27.825283000000002 0.0 3.9436852999999994 -28.808279 0.0 4.7320199 -30.359942999999998 0.0 6.0153356 -32.610248999999996 0.0 7.6938114 -35.400524 0.0 9.180998800000001 -28.565058 0.0 3.1904882999999997 -29.458853 0.0 3.5516336 -30.267366 0.0 3.9715488 -31.123323 0.0 4.5393672 -32.278 0.0 5.3596773 -34.108902 0.0 6.8232474000000005 -36.864822 0.0 9.0473442 -40.449165 0.0 10.94556 -31.642069 0.0 4.2772431 -32.645885 0.0 4.5341449 -33.587132000000004 0.0 4.8443937 -34.575302 0.0 5.3030939 -35.961365 0.0 6.091529799999999 -38.115139 0.0 7.735035400000001 -41.467945 0.0 10.629442 -46.047268 0.0 13.112857 -34.689625 0.0 5.7827005 -35.751884000000004 0.0 6.0017953 -36.858429 0.0 6.0035758 -38.032340999999995 0.0 6.2969637 -39.701725 0.0 6.9691539 -42.219959 0.0 8.8429966 -46.216763 0.0 12.462888000000001 -51.957695 0.0 15.692765 -37.5466 0.0 7.5718665 -38.652664 0.0 7.6764808 -39.780003 0.0 7.736917500000001 -41.216831 0.0 7.6821384 -43.215953999999996 0.0 8.1725435 -46.142471 0.0 10.1626 -50.755432 0.0 14.547317999999999 -57.643242 0.0 18.727722 -40.044083 0.0 9.5631189 -41.166027 0.0 9.5400581 -42.304989 0.0 9.523333500000001 -43.714695 0.0 9.6415367 -46.024811 0.0 10.053493 -49.656982 0.0 11.70444 -54.745499 0.0 16.797316 -62.492931000000006 0.0 22.315481 -42.161057 0.0 11.756193 -43.272842 0.0 11.588425 -44.445492 0.0 11.299750999999999 -45.916592 0.0 11.145557 -48.381992 0.0 11.375628 -52.383305 0.0 13.210675 -57.93425 0.0 18.933756 -66.082726 0.0 26.406528 -43.57711 0.0 14.526251 -44.608292 0.0 14.009432 -45.861439000000004 0.0 13.395219 -47.39249 0.0 12.798428999999999 -50.000572 0.0 12.682444 -54.65015 0.0 13.196079000000001 -60.423401 0.0 19.574266 -68.156494 0.0 31.172077 -44.032749 0.0 18.450397 -44.91843 0.0 17.972404 -45.864689 0.0 17.155884 -47.169655 0.0 16.149481 -50.333221 0.0 14.123154999999999 -56.325127 0.0 12.566059 -62.115233999999994 0.0 20.307098 -69.400253 0.0 34.956665 -43.840717 0.0 24.767236999999998 -44.5508 0.0 24.657682 -45.145603 0.0 23.969858 -45.581184 0.0 21.356673999999998 -48.175197999999995 0.0 15.980849 -55.023272999999996 0.0 13.335814000000001 -60.02294499999999 0.0 22.223786999999998 -62.236164 0.0 38.757725 -39.641396 0.0 31.090334000000002 -40.733109000000006 0.0 31.558758 -41.60463 0.0 31.400478000000003 -41.813084 0.0 27.932260999999997 -41.649840999999995 0.0 18.896061 -42.97858 0.0 14.552207000000001 -43.501717 0.0 25.122002 -42.688839 0.0 43.176392 -25.950207000000002 0.0 32.949371 -26.648642 0.0 33.175781 -27.105906 0.0 32.538311 -27.008205 0.0 28.644011 -26.309240000000003 0.0 19.061464 -26.587184999999998 0.0 15.16518 -26.593819 0.0 27.090646999999997 -25.439869 0.0 46.507453999999996 -14.916313 0.0 33.854198 -15.176534 0.0 33.727261 -15.227614 0.0 32.56881 -14.877142999999998 0.0 28.122408 -14.175713 0.0 18.502445 -14.077901999999998 0.0 15.492718 -14.078879999999998 0.0 28.477673 -12.945219 0.0 48.725456 -6.483193900000001 0.0 34.123470000000005 -6.4540319 0.0 33.716946 -6.288770700000001 0.0 32.204025 -5.898214299999999 0.0 27.683064 -5.3310814 0.0 18.208033 -5.162075499999999 0.0 15.944021 -5.0551682 0.0 29.742651000000002 -4.4216919 0.0 50.263126 0.52958435 0.0 33.948192999999996 0.75640851 0.0 33.385677 1.0319748 0.0 31.724361 1.3720886 0.0 27.514944 1.7145953999999999 0.0 18.355549 1.8682075 0.0 16.512424 2.0198567 0.0 30.431719 2.1656473 0.0 51.185223 7.233158099999999 0.0 33.449837 7.6351981 0.0 32.855858000000005 8.0111284 0.0 31.229658 8.2965288 0.0 27.515348 8.387669599999999 0.0 18.743931 8.6637669 0.0 16.955353 8.9386148 0.0 30.365021000000002 8.6650152 0.0 51.436588 14.126781 0.0 32.678665 14.726360999999999 0.0 32.137257 15.253310999999998 0.0 30.634528999999997 15.534199 0.0 27.447474 15.460998000000002 0.0 19.035229 16.030912 0.0 17.211128 16.513849 0.0 30.068979 15.971278 0.0 51.061085 21.083015 0.0 31.632609999999996 21.911797 0.0 31.186502 22.649475 0.0 29.841848 23.075239 0.0 26.940914000000003 22.915514 0.0 19.027098000000002 23.852432 0.0 17.393139 24.622015 0.0 29.429053999999997 23.946665 0.0 49.967258 27.666586 0.0 30.29917 28.737158 0.0 29.958966999999998 29.717865000000003 0.0 28.775440000000003 30.339640000000003 0.0 26.075360999999997 30.084801000000002 0.0 18.70071 31.437759000000003 0.0 17.308178 32.517540000000004 0.0 28.607265 31.871202 0.0 48.176052 33.421721999999995 0.0 28.683853000000003 34.717323 0.0 28.44207 35.93235 0.0 27.407595 36.540192 0.0 24.588045 36.079754 0.0 17.790442000000002 38.048592 0.0 16.98324 39.564156 0.0 27.404949 39.064163 0.0 45.811375 36.996132 0.0 26.808715999999997 38.749790000000004 0.0 26.673832 40.498245000000004 0.0 25.777542 41.052242 0.0 22.475101000000002 40.565841999999996 0.0 16.668539000000003 43.268260999999995 0.0 16.31749 45.325066 0.0 25.981222 44.964169 0.0 43.224407 37.593239000000004 0.0 24.755863 39.4375 0.0 24.738594 41.48315 0.0 24.006401 43.009415000000004 0.0 21.013184 43.769672 0.0 15.656464999999999 47.06078 0.0 15.627536 49.818001 0.0 24.743174 49.210526 0.0 40.297847999999995 37.487637 0.0 22.661282999999997 39.375137 0.0 22.786773999999998 41.468967 0.0 22.200979 43.637852 0.0 20.434345 45.645546 0.0 14.87726 49.504723 0.0 14.752257 52.700539 0.0 23.164713 52.282593 0.0 37.132853999999995 37.128437 0.0 20.699684 39.052471000000004 0.0 20.929737 41.199326 0.0 20.499926000000002 43.655968 0.0 19.468926999999997 46.220459000000005 0.0 14.617668 50.826159999999994 0.0 13.750385000000001 54.682747 0.0 21.371574 54.980602000000005 0.0 33.942001 36.672157 0.0 18.950976999999998 38.679134000000005 0.0 19.281685 40.849083 0.0 19.019114000000002 43.430977 0.0 18.132692000000002 46.368912 0.0 14.627116000000001 50.963364 0.0 13.170876999999999 55.802277000000004 0.0 19.754005 57.923527 0.0 30.843208 36.06308 0.0 17.318742999999998 38.195278 0.0 17.689585 40.601017 0.0 17.519674 43.289051 0.0 16.729309 46.672394 0.0 14.050001000000002 50.562325 0.0 12.555753 56.475803000000006 0.0 18.651510000000002 61.70694399999999 0.0 27.810062 35.390526 0.0 15.742432 37.66877 0.0 16.219288 40.113106 0.0 16.173195 43.320007000000004 0.0 15.396846 47.022304999999996 0.0 12.951852 50.957066 0.0 12.133755 57.698032 0.0 17.121441 66.715942 0.0 24.890495 34.607113 0.0 14.245034 37.023106 0.0 14.782135 40.065216 0.0 14.673057 43.915603999999995 0.0 13.199025 47.667598999999996 0.0 11.858381 52.510994 0.0 11.877891 60.736034 0.0 15.740234 72.304428 0.0 21.98687 33.842705 0.0 12.805416000000001 36.649757 0.0 13.061849 40.221462 0.0 12.477375 44.246613 0.0 11.263751 48.595184 0.0 10.587629 54.625232999999994 0.0 11.285349 64.333534 0.0 14.961359 77.14376800000001 0.0 19.687864 33.153839000000005 0.0 11.182063000000001 36.392998 0.0 11.133433 40.354178999999995 0.0 10.486789 44.836346 0.0 9.5475912 50.045002000000004 0.0 9.5270138 57.23333 0.0 10.648401 68.255669 0.0 14.433763 32.704163 0.0 9.5175505 36.341652 0.0 9.245566400000001 40.775940000000006 0.0 8.5319605 45.874401 0.0 8.252821899999999 52.087928999999995 0.0 8.673811 60.581398 0.0 10.561905 71.952972 0.0 14.267610999999999 32.567638 0.0 7.7917171000000005 36.672272 0.0 7.427386299999999 41.690624 0.0 7.1581602 47.720219 0.0 7.5498338 54.845195999999994 0.0 8.4351788 64.427971 0.0 11.15382 32.883465 0.0 6.219501 37.632011 0.0 6.140892 43.498936 0.0 6.593272200000001 50.407089 0.0 7.465799799999999 58.54916 0.0 9.2664576 68.01589200000001 0.0 12.064432 34.025028000000006 0.0 5.1500068 39.685825 0.0 5.8923755 46.18158 0.0 6.8059678 53.762817000000005 0.0 8.192448599999999 62.27308299999999 0.0 10.475800999999999 36.413845 0.0 5.2263031 42.521465 0.0 6.3192797 49.747944 0.0 7.7016063 57.401447 0.0 9.3686905 39.418673999999996 0.0 6.0182223 46.063171000000004 0.0 7.2349243 53.382278 0.0 8.9489717 59.57089200000001 0.0 9.8072748 42.774769 0.0 6.7090664 49.096985 0.0 7.8772755000000005 45.29599 0.0 7.106782400000001 
StrainDot 3 2975 float
0.0 0.0 0.0 0.0 0.0 0.0 0.0 0.0 0.0 0.0 0.0 0.0 0.0 0.0 0.0 0.0 0.0 0.0 0.0 0.0 0.0 0.0 0.0 0.0 0.0 0.0 0.0 0.0 0.0 0.0 0.0 0.0 0.0 0.0 0.0 0.0 0.0 0.0 0.0 -4.6895973e-08 0.0 -1.2459982000000001e-08 -2.0002381e-23 0.0 -8.3497251e-24 -2.2374195e-07 0.0 -9.1725148e-08 -1.6134093999999999e-06 0.0 -5.1857705e-07 -3.8994017e-07 0.0 -1.9616509000000002e-07 -2.8616705e-06 0.0 -1.3912833999999998e-06 -9.7453221e-06 0.0 -3.6446725e-06 -3.1269342e-06 0.0 -1.8475864999999998e-06 -1.2138504e-05 0.0 -6.7524547000000006e-06 -3.1901491e-05 0.0 -1.3512215000000002e-05 -1.0683409999999999e-05 0.0 -7.2507073000000005e-06 -3.2219661e-05 0.0 -2.03001e-05 -7.4854208e-05 0.0 -3.5646568000000004e-05 -2.4222179000000003e-05 0.0 -1.8888572e-05 -6.4576314e-05 0.0 -4.6181409e-05 -0.00014060393999999998 0.0 -7.552454899999999e-05 -4.2672604e-05 0.0 -3.8366619e-05 -0.00010692336999999999 0.0 -8.697268599999999e-05 -0.00022510162999999996 0.0 -0.00013659148000000001 -6.3481959e-05 0.0 -6.563044700000001e-05 -0.00015473447 0.0 -0.00014243792 -0.00032066659 0.0 -0.00021848186 -8.4585976e-05 0.0 -9.905106e-05 -0.0002047373 0.0 -0.00020964912 -0.00042203776 0.0 -0.00031688873 -0.00010627501 0.0 -0.00013654202 -0.00025827656000000003 0.0 -0.00028496431 -0.00053257926 0.0 -0.00042640137999999997 -0.00013202493 0.0 -0.00017707792000000002 -0.00032277267999999997 0.0 -0.00036678376000000003 -0.0006662344099999999 0.0 -0.00054487988 -0.00016885843000000002 0.0 -0.00022168113999999998 -0.00041353155 0.0 -0.00045735578000000003 -0.0008514472900000001 0.0 -0.00067625433 -0.00022876936 0.0 -0.00027413748 -0.00055698375 0.0 -0.00056455092 -0.0011369048 0.0 -0.00083299162 -0.00033139085 0.0 -0.00034354513999999993 -0.0007953501799999999 0.0 -0.0007069147 -0.0015984992 0.0 -0.0010424687 -0.00050985318 0.0 -0.00045298328000000003 -0.0011944389 0.0 -0.00092461123 -0.0023477231 0.0 -0.0013580332 -0.00081406825 0.0 -0.0006588035599999999 -0.0018326184 0.0 -0.0012972716 -0.0035013771 0.0 -0.0018740592 -0.0012876841000000001 0.0 -0.0010903360000000001 -0.0027265153 0.0 -0.0019720953 -0.0050514382 0.0 -0.0027445890000000004 -0.0037748963 0.0 -0.0031891022999999998 -0.0067977696 0.0 -0.0041954527 0.0 0.0 0.0 0.0 0.0 0.0 0.0 0.0 0.0 0.0 0.0 0.0 0.0 0.0 0.0 0.0 0.0 0.0 0.0 0.0 0.0 0.0 0.0 0.0 0.0 0.0 0.0 0.0 0.0 0.0 0.0 0.0 0.0 0.0 0.0 0.0 0.0 0.0 0.0 0.0 0.0 0.0 0.0 0.0 0.0 0.0 0.0 0.0 0.0 0.0 0.0 0.0 0.0 0.0 0.0 0.0 0.0 0.0 0.0 0.0 0.0 0.0 0.0 0.0 0.0 0.0 0.0 0.0 0.0 0.0 0.0 0.0 0.0 0.0 0.0 -9.7942037e-09 0.0 -8.445830699999999e-10 -6.4716417e-08 0.0 -2.8533722e-09 -1.5656418e-07 0.0 -2.5774534e-09 -2.3611959e-07 0.0 -2.9364206e-10 -2.7877792e-07 0.0 6.4955308e-10 -3.0724217e-07 0.0 7.628948e-10 -3.2910668e-07 0.0 7.8555584e-10 -4.3221189e-07 0.0 -7.893069699999999e-08 -1.4872816e-06 0.0 -1.7084507e-07 -3.2996427e-06 0.0 -2.2125323000000002e-07 -5.6074355e-06 0.0 -1.9165208e-07 -7.9264837e-06 0.0 -9.4160896e-08 -9.827206699999999e-06 0.0 1.6621049e-08 -1.114054e-05 0.0 8.1359424e-08 -1.2000537999999999e-05 0.0 9.394936e-08 -5.232177500000001e-06 0.0 -1.1399991000000002e-06 -1.1828565000000001e-05 0.0 -1.6229141999999998e-06 -2.1340455e-05 0.0 -1.737156e-06 -3.2663978000000004e-05 0.0 -1.4118954e-06 -4.4027522e-05 0.0 -7.467053799999999e-07 -5.3845352999999996e-05 0.0 3.7809826e-09 -6.1371611e-05 0.0 5.6659599e-07 -6.6701832e-05 0.0 8.321355300000001e-07 -2.3367818000000003e-05 0.0 -5.8734307999999995e-06 -4.5235432e-05 0.0 -7.147611099999999e-06 -7.4850257e-05 0.0 -7.045548e-06 -0.00010911443999999999 0.0 -5.5097194e-06 -0.00014329673000000002 0.0 -2.8983322000000006e-06 -0.00017326322 0.0 -2.542782e-08 -0.00019697956999999998 0.0 2.2244465e-06 -0.00021445217 0.0 3.4576603e-06 -6.7065244e-05 0.0 -1.89846e-05 -0.00012053254999999999 0.0 -2.1408412e-05 -0.00019082872 0.0 -2.0204763e-05 -0.00027084019 0.0 -1.5409087e-05 -0.00035018765 0.0 -7.965876599999998e-06 -0.00041997072 0.0 7.0591021e-08 -0.00047582797999999994 0.0 6.454199599999999e-06 -0.00051763415 0.0 1.0128313e-05 -0.00014703104999999999 0.0 -4.6622601000000006e-05 -0.00025387938 0.0 -5.0441475e-05 -0.00039218293 0.0 -4.6400663e-05 -0.00054802117 0.0 -3.4719829e-05 -0.00070144655 0.0 -1.7523294000000002e-05 -0.00083592243 0.0 7.0545366e-07 -0.0009437439100000001 0.0 1.5194788000000001e-05 -0.0010248412 0.0 2.3702873e-05 -0.00026618695 0.0 -9.4940769e-05 -0.00044969024000000006 0.0 -0.00010036365999999999 -0.00068527483 0.0 -9.084310299999999e-05 -0.0009485572199999999 0.0 -6.6780703e-05 -0.0012051607 0.0 -3.2606666e-05 -0.0014282645000000002 0.0 2.790501e-06 -0.0016064596 0.0 3.0650261999999996e-05 -0.0017402865 0.0 4.70782e-05 -0.00041798165 0.0 -0.00016795651999999998 -0.0006978052000000001 0.0 -0.00017521944 -0.0010544721000000001 0.0 -0.00015671259 -0.00144923 0.0 -0.00011290658 -0.001828756 0.0 -5.2693500000000006e-05 -0.0021554176 0.0 7.776137e-06 -0.0024145526999999997 0.0 5.4592081e-05 -0.0026079218 0.0 8.205144700000001e-05 -0.00058961555 0.0 -0.00026527558999999996 -0.00097747077 0.0 -0.00027435992 -0.0014660176 0.0 -0.0002418136 -0.00077213836 0.0 -0.0003812986 -0.0012730489 0.0 -0.00039122472 -0.0009723816199999999 0.0 -0.00050868938 -0.001597165 0.0 -0.00051670091 -0.0012144974 0.0 -0.00064491795 -0.0019894203 0.0 -0.0006486858499999999 -0.0015441303 0.0 -0.00079536613 -0.0025128473 0.0 -0.00079304632 -0.0020381507999999997 0.0 -0.0009755763499999999 -0.0032715762 0.0 -0.0009651897699999999 -0.002813119 0.0 -0.0012177104 -0.004418238499999999 0.0 -0.0011958804 -0.0040332843 0.0 -0.0015820379999999998 -0.0061566662 0.0 -0.0015420467 -0.0058670281 0.0 -0.0021738841 -0.0086923838 0.0 -0.0021050896 -0.0083166705 0.0 -0.0031629612 -0.012063388999999999 0.0 -0.0030552347 -0.011099468000000001 0.0 -0.004785242 -0.015991896000000002 0.0 -0.0046368693 0.0 0.0 0.0 0.0 0.0 0.0 0.0 0.0 0.0 0.0 0.0 0.0 0.0 0.0 0.0 0.0 0.0 0.0 0.0 0.0 0.0 0.0 0.0 0.0 0.0 0.0 0.0 0.0 0.0 0.0 0.0 0.0 0.0 0.0 0.0 0.0 0.0 0.0 0.0 0.0 0.0 0.0 0.0 0.0 0.0 0.0 0.0 0.0 0.0 0.0 0.0 0.0 0.0 0.0 0.0 0.0 0.0 0.0 0.0 0.0 0.0 0.0 0.0 0.0 0.0 0.0 0.0 0.0 0.0 0.0 0.0 0.0 0.0 0.0 0.0 0.0 0.0 0.0 0.0 0.0 0.0 -3.4525164e-07 0.0 7.434705099999999e-10 -3.5669128999999997e-07 0.0 6.6266581e-10 -3.6445104e-07 0.0 5.7072952e-10 -3.6947463e-07 0.0 4.842903900000001e-10 -3.7256009000000006e-07 0.0 4.0488934e-10 -3.7433452000000003e-07 0.0 3.3695172e-10 -3.7527474e-07 0.0 2.8204616000000003e-10 -3.7572386e-07 0.0 2.4051811e-10 -3.7590769e-07 0.0 2.1497269e-10 -1.2623563e-05 0.0 9.0746965e-08 -1.3073026999999999e-05 0.0 8.2623856e-08 -1.3384451e-05 0.0 7.2302591e-08 -1.359106e-05 0.0 6.173496599999999e-08 -1.3721718e-05 0.0 5.1990465e-08 -1.3799908e-05 0.0 4.3565734e-08 -1.3843744999999999e-05 0.0 3.6704008999999995e-08 -1.3866362e-05 0.0 3.1625735e-08 -1.3876575e-05 0.0 2.8493293e-08 -7.0361115e-05 0.0 8.5660719e-07 -7.294937700000001e-05 0.0 7.9164528e-07 -7.4755786e-05 0.0 7.009374499999999e-07 -7.5964439e-05 0.0 6.035678000000001e-07 -7.6736447e-05 0.0 5.1141211e-07 -7.7204233e-05 0.0 4.3088528000000005e-07 -7.747062e-05 0.0 3.6536855e-07 -7.7610799e-05 0.0 3.1695635e-07 -7.7675533e-05 0.0 2.8721671999999996e-07 -0.00022678381 0.0 3.7972582e-06 -0.00023533541 0.0 3.5968908e-06 -0.00024125957999999997 0.0 3.216303e-06 -0.00024522978 0.0 2.7901331e-06 -0.00024777019 0.0 2.3776536e-06 -0.00024931214 0.0 2.0133746000000003e-06 -0.00025019184 0.0 1.7160181e-06 -0.00025065549 0.0 1.4964719e-06 -0.00025087001 0.0 1.3618393e-06 -0.0005476012000000001 0.0 1.1360958e-05 -0.0005685135299999999 0.0 1.102236e-05 -0.00058282266 0.0 9.948317699999999e-06 -0.00059236732 0.0 8.6847149e-06 -0.00059844478 0.0 7.4377954e-06 -0.00060210895 0.0 6.3254697e-06 -0.0006041798 0.0 5.4138368e-06 -0.0006052580999999999 0.0 4.7402518e-06 -0.00060574978 0.0 4.3273826e-06 -0.0010832766 0.0 2.6753096000000002e-05 -0.0011241808999999999 0.0 2.6226351e-05 -0.0011520265 0.0 2.3890254e-05 -0.0011703916 0.0 2.0961776e-05 -0.0011819492 0.0 1.8026263e-05 -0.001188808 0.0 1.5385054e-05 -0.0011925988 0.0 1.3211821e-05 -0.001194514 0.0 1.1603924e-05 -0.0011953567 0.0 1.0618142e-05 -0.0018365594000000001 0.0 5.3098046999999994e-05 -0.0019037251 0.0 5.2216517000000004e-05 -0.0019491359 0.0 4.7824204e-05 -0.0019786272 0.0 4.2118976e-05 -0.0019968131 0.0 3.6333553e-05 -0.0020072986 0.0 3.1094423e-05 -0.0020128558 0.0 2.6769509e-05 -0.0020154945000000002 0.0 2.3565406e-05 -0.0020165648 0.0 2.1600252e-05 -0.0027459394 0.0 9.2083108e-05 -0.0028412552 0.0 9.050653899999999e-05 -0.0029048203000000003 0.0 8.3058163e-05 -0.0029451926 0.0 7.3337636e-05 -0.0029692587 0.0 6.3402302e-05 -0.0029824446 0.0 5.4365929999999996e-05 -0.0029888760999999997 0.0 4.6888734000000004e-05 -0.0029915217 0.0 4.1343563e-05 -0.0029923611 0.0 3.7941655999999996e-05 0.0 0.0 0.0 0.0 0.0 0.0 0.0 0.0 0.0 0.0 0.0 0.0 0.0 0.0 0.0 0.0 0.0 0.0 0.0 0.0 0.0 0.0 0.0 0.0 0.0 0.0 0.0 0.0 0.0 0.0 0.0 0.0 0.0 0.0 0.0 0.0 0.0 0.0 0.0 0.0 0.0 0.0 0.0 0.0 0.0 0.0 0.0 0.0 0.0 0.0 0.0 0.0 0.0 0.0 0.0 0.0 0.0 0.0 0.0 0.0 0.0 0.0 0.0 0.0 0.0 0.0 0.0 0.0 0.0 0.0 0.0 0.0 -3.7595501e-07 0.0 2.0638444e-10 -3.7590786e-07 0.0 2.1497242999999998e-10 -3.7572391e-07 0.0 2.4051777e-10 -3.7527471000000004e-07 0.0 2.8204672000000004e-10 -3.7433452000000003e-07 0.0 3.3695252e-10 -3.7256017999999996e-07 0.0 4.0488932e-10 -3.6947463e-07 0.0 4.8429016e-10 -3.6445098e-07 0.0 5.7072935e-10 -1.3879433e-05 0.0 2.7429127e-08 -1.3876576999999999e-05 0.0 2.8493284e-08 -1.386636e-05 0.0 3.1625753e-08 -1.3843744e-05 0.0 3.6704037000000004e-08 -1.379991e-05 0.0 4.356576599999999e-08 -1.3721719e-05 0.0 5.199047599999999e-08 -1.3591063e-05 0.0 6.1734958e-08 -1.3384451e-05 0.0 7.2302583e-08 -7.769394100000001e-05 0.0 2.7718457e-07 -7.7675519e-05 0.0 2.8721675e-07 -7.7610799e-05 0.0 3.1695643e-07 -7.7470591e-05 0.0 3.6536871999999996e-07 -7.7204248e-05 0.0 4.3088553999999993e-07 -7.6736476e-05 0.0 5.114122800000001e-07 -7.5964454e-05 0.0 6.0356774e-07 -7.4755822e-05 0.0 7.0093762e-07 -0.0002509311 0.0 1.3164838000000001e-06 -0.00025086994999999997 0.0 1.3618395000000002e-06 -0.00025065549 0.0 1.4964722e-06 -0.00025019184 0.0 1.7160186e-06 -0.00024931222999999996 0.0 2.0133759e-06 -0.00024777022 0.0 2.3776545e-06 -0.00024522986 0.0 2.7901331e-06 -0.00024125961 0.0 3.2163036e-06 -0.0006058884900000001 0.0 4.1883136e-06 -0.0006057499 0.0 4.3273817e-06 -0.00060525833 0.0 4.7402535999999996e-06 -0.00060418021 0.0 5.4138368e-06 -0.00060210936 0.0 6.325472900000001e-06 -0.0005984448400000001 0.0 7.4377995e-06 -0.0005923671400000001 0.0 8.6847158e-06 -0.0005828226 0.0 9.9483232e-06 -0.001195588 0.0 1.0286015e-05 -0.0011953571 0.0 1.0618141000000001e-05 -0.0011945146 0.0 1.1603928e-05 -0.0011925992 0.0 1.3211827e-05 -0.001188808 0.0 1.5385065e-05 -0.0011819495 0.0 1.802627e-05 -0.0011703911999999999 0.0 2.0961774000000002e-05 -0.0011520266 0.0 2.3890263e-05 -0.0020168389000000003 0.0 2.093812e-05 -0.0020165648 0.0 2.1600255e-05 -0.0020154942999999997 0.0 2.3565413e-05 -0.0020128549 0.0 2.6769521e-05 -0.0020072991 0.0 3.1094438e-05 -0.0019968122000000002 0.0 3.6333571e-05 -0.0019786272 0.0 4.2119002e-05 -0.0019491357 0.0 4.7824225e-05 -0.0029925192 0.0 3.679546e-05 -0.0029923618 0.0 3.7941645e-05 -0.0029915221999999996 0.0 4.1343592e-05 -0.0029888760999999997 0.0 4.6888784999999996e-05 -0.0029824455 0.0 5.4365966e-05 -0.0029692589 0.0 6.3402331e-05 -0.0029451929 0.0 7.3337629e-05 -0.00290482 0.0 8.3058192e-05 0.0 0.0 0.0 0.0 0.0 0.0 0.0 0.0 0.0 0.0 0.0 0.0 0.0 0.0 0.0 0.0 0.0 0.0 0.0 0.0 0.0 0.0 0.0 0.0 0.0 0.0 0.0 0.0 0.0 0.0 0.0 0.0 0.0 0.0 0.0 0.0 0.0 0.0 0.0 0.0 0.0 0.0 0.0 0.0 0.0 0.0 0.0 0.0 0.0 0.0 0.0 0.0 0.0 0.0 0.0 0.0 0.0 0.0 0.0 0.0 0.0 0.0 0.0 0.0 0.0 0.0 0.0 0.0 0.0 0.0 0.0 0.0 0.0 0.0 0.0 0.0 0.0 0.0 0.0 0.0 0.0 -3.5669123e-07 0.0 6.626660299999999e-10 -3.4525182999999997e-07 0.0 7.4347145e-10 -3.291068e-07 0.0 7.855563400000001e-10 -3.0724220000000003e-07 0.0 7.6289475e-10 -2.7877796999999995e-07 0.0 6.4955308e-10 -2.3611961999999997e-07 0.0 -2.9364222e-10 -1.5656423e-07 0.0 -2.5774543e-09 -6.471641e-08 0.0 -2.8533722e-09 -9.7942037e-09 0.0 -8.445829e-10 -1.3073026e-05 0.0 8.2623878e-08 -1.2623567e-05 0.0 9.0747029e-08 -1.200054e-05 0.0 9.394941699999998e-08 -1.114054e-05 0.0 8.135946000000001e-08 -9.827206699999999e-06 0.0 1.6621049e-08 -7.9264837e-06 0.0 -9.416090300000001e-08 -5.607436400000001e-06 0.0 -1.9165215e-07 -3.2996436e-06 0.0 -2.2125323000000002e-07 -1.4872819e-06 0.0 -1.7084508e-07 -7.294939099999999e-05 0.0 7.916453299999999e-07 -7.0361137e-05 0.0 8.5660781e-07 -6.6701868e-05 0.0 8.321361e-07 -6.1371618e-05 0.0 5.665961599999999e-07 -5.3845346e-05 0.0 3.7810972e-09 -4.4027533e-05 0.0 -7.467056099999999e-07 -3.2663993e-05 0.0 -1.4118952999999999e-06 -2.1340456e-05 0.0 -1.7371556999999999e-06 -1.1828569e-05 0.0 -1.6229141999999998e-06 -0.00023533552000000005 0.0 3.5968912e-06 -0.00022678381 0.0 3.7972602e-06 -0.0002144522 0.0 3.4576617000000003e-06 -0.00019697958 0.0 2.2244471e-06 -0.00017326325 0.0 -2.542755e-08 -0.00014329675 0.0 -2.8983333999999995e-06 -0.00010911447 0.0 -5.5097212e-06 -7.4850272e-05 0.0 -7.045548e-06 -4.5235442999999995e-05 0.0 -7.147611500000001e-06 -0.00056851364 0.0 1.1022366e-05 -0.0005476012000000001 0.0 1.1360959e-05 -0.00051763438 0.0 1.0128314000000001e-05 -0.00047582816 0.0 6.454208700000001e-06 -0.00041997085999999996 0.0 7.059296099999999e-08 -0.00035018771 0.0 -7.9658748e-06 -0.00027084027999999997 0.0 -1.5409096e-05 -0.00019082875 0.0 -2.0204756e-05 -0.00012053258 0.0 -2.1408412e-05 -0.0011241808999999999 0.0 2.6226362e-05 -0.0010832769 0.0 2.67531e-05 -0.0010248416999999999 0.0 2.3702885000000002e-05 -0.00094374444 0.0 1.5194798e-05 -0.0008359225500000001 0.0 7.0546224e-07 -0.0007014466099999999 0.0 -1.7523294000000002e-05 -0.00054802123 0.0 -3.4719844e-05 -0.00039218314 0.0 -4.6400654999999995e-05 -0.00025387952 0.0 -5.0441475e-05 -0.0019037251999999998 0.0 5.2216539000000004e-05 -0.001836559 0.0 5.3098032e-05 -0.0017402867000000002 0.0 4.7078243000000004e-05 -0.0016064601000000001 0.0 3.0650292e-05 -0.0014282651999999998 0.0 2.7905070999999997e-06 -0.0012051609 0.0 -3.2606658e-05 -0.00094855728 0.0 -6.6780711e-05 -0.00068527518 0.0 -9.0843118e-05 -0.00044969032999999997 0.0 -0.00010036370000000001 -0.0028412552 0.0 9.0506597e-05 -0.0027459403 0.0 9.2083166e-05 -0.0026079218 0.0 8.205149799999999e-05 -0.002414552 0.0 5.4592138999999995e-05 -0.0021554171 0.0 7.7761688e-06 -0.0018287563 0.0 -5.2693475e-05 -0.0014492298 0.0 -0.00011290658 -0.0010544722 0.0 -0.00015671261999999998 -0.0006978053100000001 0.0 -0.00017521949 -0.0014660174 0.0 -0.00024181372000000003 -0.00097747124 0.0 -0.00027435992 -0.0012730493 0.0 -0.00039122481 -0.0015971657999999998 0.0 -0.00051670102 -0.0019894214 0.0 -0.0006486859599999999 -0.0025128478 0.0 -0.00079304632 -0.0032715765 0.0 -0.00096518954 -0.0044182381 0.0 -0.0011958805 -0.0061566667000000005 0.0 -0.0015420467 -0.008692386600000001 0.0 -0.0021050891 -0.012063391000000001 0.0 -0.0030552341999999996 -0.0159919 0.0 -0.0046368688 0.0 0.0 0.0 0.0 0.0 0.0 0.0 0.0 0.0 0.0 0.0 0.0 0.0 0.0 0.0 0.0 0.0 0.0 0.0 0.0 0.0 0.0 0.0 0.0 0.0 0.0 0.0 0.0 0.0 0.0 0.0 0.0 0.0 0.0 0.0 0.0 0.0 0.0 0.0 0.0 0.0 0.0 0.0 0.0 0.0 -4.3221191999999995e-07 0.0 -7.893067499999999e-08 -4.6895984000000007e-08 0.0 -1.2459979999999999e-08 0.0 0.0 0.0 0.0 0.0 0.0 -5.2321789e-06 0.0 -1.1399987e-06 -1.6134096e-06 0.0 -5.1857694e-07 -2.2374198e-07 0.0 -9.1725148e-08 -2.0002376000000002e-23 0.0 -8.3497235e-24 -2.3367824e-05 0.0 -5.8734286e-06 -9.745326699999999e-06 0.0 -3.6446725e-06 -2.8616707e-06 0.0 -1.3912836999999999e-06 -3.8994031e-07 0.0 -1.9616516e-07 -6.706525899999999e-05 0.0 -1.8984598000000002e-05 -3.1901498e-05 0.0 -1.3512212e-05 -1.2138504e-05 0.0 -6.752455599999999e-06 -3.1269356e-06 0.0 -1.847587e-06 -0.00014703111000000002 0.0 -4.6622605000000004e-05 -7.4854208e-05 0.0 -3.5646561e-05 -3.2219657e-05 0.0 -2.0300101999999998e-05 -1.0683418e-05 0.0 -7.2507096e-06 -0.00026618707 0.0 -9.4940791e-05 -0.00014060395 0.0 -7.5524542e-05 -6.4576299e-05 0.0 -4.6181402e-05 -2.4222192e-05 0.0 -1.8888577e-05 -0.00041798168 0.0 -0.00016795655 -0.00022510166 0.0 -0.00013659152 -0.00010692336000000002 0.0 -8.6972672e-05 -4.2672611e-05 0.0 -3.8366623e-05 -0.00058961561 0.0 -0.00026527562 -0.00032066669999999996 0.0 -0.00021848189 -0.00015473443 0.0 -0.00014243789 -6.3481966e-05 0.0 -6.5630469e-05 -0.00077213871 0.0 -0.00038129871 -0.00042203785 0.0 -0.00031688882 -0.00020473728 0.0 -0.00020964911 -8.4585998e-05 0.0 -9.9051067e-05 -0.0009723820300000001 0.0 -0.0005086894400000001 -0.0005325792 0.0 -0.00042640137999999997 -0.00025827656000000003 0.0 -0.00028496431 -0.00010627501 0.0 -0.00013654202 -0.0012144977 0.0 -0.00064491801 -0.00066623453 0.0 -0.00054487999 -0.00032277266 0.0 -0.00036678373 -0.00013202493 0.0 -0.00017707793 -0.0015441310999999998 0.0 -0.00079536613 -0.00085144758 0.0 -0.00067625451 -0.00041353158 0.0 -0.00045735578000000003 -0.00016885843000000002 0.0 -0.00022168116 -0.002038151 0.0 -0.0009755765199999999 -0.0011369053 0.0 -0.00083299197 -0.00055698387 0.0 -0.00056455098 -0.00022876945 0.0 -0.00027413756 -0.0028131194 0.0 -0.001217711 -0.0015984996 0.0 -0.0010424689 -0.00079535035 0.0 -0.00070691458 -0.00033139097 0.0 -0.00034354525000000004 -0.0040332838 0.0 -0.0015820379 -0.0023477231 0.0 -0.0013580328 -0.0011944391 0.0 -0.0009246115199999999 -0.00050985324 0.0 -0.00045298328000000003 -0.0058670295 0.0 -0.0021738842999999997 -0.0035013772999999996 0.0 -0.001874059 -0.0018326185 0.0 -0.0012972715 -0.00081406819 0.0 -0.0006588035599999999 -0.008316671500000001 0.0 -0.0031629619 -0.0050514382 0.0 -0.0027445892 -0.0027265158000000004 0.0 -0.0019720951 -0.0012876841000000001 0.0 -0.0010903360000000001 -0.01109947 0.0 -0.0047852425 -0.0067977705000000005 0.0 -0.0041954517 -0.0037748974 0.0 -0.003189102 0.0 0.0 0.0 0.0 0.0 0.0 0.0 0.0 0.0 0.0 0.0 0.0 0.0 0.0 0.0 0.0 0.0 0.0 0.0 0.0 0.0 0.0 0.0 0.0 0.0 0.0 0.0 0.0 0.0 0.0 0.0 0.0 0.0 0.0 0.0 0.0 0.0 0.0 0.0 0.0 0.0 0.0 0.0 0.0 0.0 0.0 0.0 0.0 0.0 0.0 0.0 0.0 0.0 0.0 0.0 0.0 0.0 0.0 0.0 0.0 0.0 0.0 0.0 0.0 0.0 0.0 0.0 0.0 0.0 0.0 0.0 0.0 0.0 0.0 0.0 0.0 0.0 0.0 0.0 0.0 0.0 0.0 0.0 0.0 0.0 0.0 0.0 0.0 0.0 0.0 0.0 0.0 0.0 0.0 0.0 0.0 0.0 0.0 0.0 0.0 0.0 0.0 0.0 0.0 0.0 0.0 0.0 0.0 0.0 0.0 0.0 0.0 0.0 0.0 0.0 0.0 0.0 0.0 0.0 0.0 0.0 0.0 0.0 0.0 0.0 0.0 0.0 0.0 0.0 0.0 0.0 0.0 0.0 0.0 0.0 0.0 0.0 0.0 0.0 0.0 0.0 0.0 0.0 0.0 0.0 0.0 0.0 0.0 0.0 0.0 0.0 0.0 0.0 0.0 0.0 0.0 0.0 0.0 0.0 0.0 0.0 0.0 0.0 0.0 0.0 0.0 0.0 0.0 0.0 0.0 0.0 0.0 0.0 0.0 0.0 0.0 0.0 0.0 0.0 0.0 0.0 0.0 0.0 0.0 0.0 0.0 0.0 0.0 0.0 0.0 0.0 0.0 0.0 0.0 0.0 0.0 0.0 0.0 0.0 0.0 0.0 0.0 0.0 0.0 0.0 0.0 0.0 0.0 0.0 0.0 0.0 0.0 0.0 0.0 0.0 0.0 0.0 0.0 0.0 0.0 0.0 0.0 0.0 0.0 0.0 0.0 0.0 0.0 0.0 0.0 0.0 0.0 0.0 0.0 0.0 0.0 0.0 0.0 0.0 0.0 0.0 0.0 0.0 0.0 0.0 0.0 0.0 0.0 0.0 0.0 0.0 0.0 0.0 0.0 0.0 0.0 0.0 0.0 0.0 0.0 0.0 0.0 0.0 0.0 0.0 0.0 0.0 0.0 0.0 0.0 0.0 0.0 0.0 0.0 0.0 0.0 0.0 0.0 0.0 0.0 0.0 0.0 0.0 0.0 0.0 0.0 0.0 0.0 0.0 0.0 0.0 0.0 0.0 0.0 0.0 0.0 0.0 0.0 0.0 0.0 0.0 0.0 0.0 0.0 0.0 0.0 0.0 0.0 0.0 0.0 0.0 0.0 0.0 0.0 0.0 0.0 0.0 0.0 0.0 0.0 0.0 0.0 0.0 0.0 0.0 0.0 0.0 0.0 0.0 0.0 0.0 0.0 0.0 0.0 0.0 0.0 0.0 0.0 0.0 0.0 0.0 0.0 0.0 0.0 0.0 0.0 0.0 0.0 0.0 0.0 0.0 0.0 0.0 0.0 0.0 0.0 0.0 0.0 0.0 0.0 0.0 0.0 0.0 0.0 0.0 0.0 0.0 0.0 0.0 0.0 0.0 0.0 0.0 0.0 0.0 0.0 0.0 0.0 0.0 0.0 0.0 0.0 0.0 0.0 0.0 0.0 0.0 0.0 0.0 0.0 0.0 0.0 0.0 0.0 0.0 0.0 0.0 0.0 0.0 0.0 0.0 0.0 0.0 0.0 0.0 0.0 0.0 0.0 0.0 0.0 0.0 0.0 0.0 0.0 0.0 0.0 0.0 0.0 0.0 0.0 0.0 0.0 0.0 0.0 0.0 0.0 0.0 0.0 0.0 0.0 0.0 0.0 0.0 0.0 0.0 0.0 0.0 0.0 0.0 0.0 0.0 0.0 0.0 0.0 0.0 0.0 0.0 0.0 0.0 0.0 0.0 0.0 0.0 0.0 0.0 0.0 0.0 0.0 0.0 0.0 0.0 0.0 0.0 0.0 0.0 0.0 0.0 0.0 0.0 0.0 0.0 0.0 0.0 0.0 0.0 0.0 0.0 0.0 0.0 0.0 0.0 0.0 0.0 0.0 0.0 0.0 0.0 0.0 0.0 0.0 0.0 0.0 0.0 0.0 0.0 0.0 0.0 0.0 0.0 0.0 0.0 0.0 0.0 0.0 0.0 0.0 0.0 0.0 0.0 0.0 0.0 0.0 0.0 0.0 0.0 0.0 0.0 0.0 0.0 0.0 0.0 0.0 0.0 0.0 0.0 0.0 0.0 0.0 0.0 0.0 0.0 0.0 0.0 0.0 0.0 0.0 0.0 0.0 0.0 0.0 0.0 0.0 0.0 0.0 0.0 0.0 0.0 0.0 0.0 0.0 0.0 0.0 0.0 0.0 0.0 0.0 0.0 0.0 0.0 0.0 0.0 0.0 0.0 0.0 0.0 0.0 0.0 0.0 0.0 0.0 0.0 0.0 0.0 0.0 0.0 0.0 0.0 0.0 0.0 0.0 0.0 0.0 0.0 0.0 0.0 0.0 0.0 0.0 0.0 0.0 0.0 0.0 0.0 0.0 0.0 0.0 0.0 0.0 0.0 0.0 0.0 0.0 0.0 0.0 0.0 0.0 0.0 0.0 0.0 0.0 0.0 0.0 0.0 0.0 0.0 0.0 0.0 0.0 0.0 0.0 0.0 0.0 0.0 0.0 0.0 0.0 0.0 0.0 0.0 0.0 0.0 0.0 0.0 0.0 0.0 0.0 0.0 0.0 0.0 0.0 0.0 0.0 0.0 0.0 0.0 0.0 0.0 0.0 0.0 0.0 0.0 0.0 0.0 0.0 0.0 0.0 0.0 0.0 0.0 0.0 0.0 0.0 0.0 0.0 0.0 0.0 0.0 0.0 0.0 0.0 0.0 0.0 0.0 0.0 0.0 0.0 0.0 0.0 0.0 0.0 0.0 0.0 0.0 0.0 0.0 0.0 0.0 0.0 0.0 0.0 0.0 0.0 0.0 0.0 0.0 0.0 0.0 0.0 0.0 0.0 0.0 0.0 0.0 0.0 0.0 0.0 0.0 0.0 0.0 0.0 0.0 0.0 0.0 0.0 0.0 0.0 0.0 0.0 0.0 0.0 0.0 0.0 0.0 0.0 0.0 0.0 0.0 0.0 0.0 0.0 0.0 0.0 0.0 0.0 0.0 0.0 0.0 0.0 0.0 0.0 0.0 0.0 0.0 0.0 0.0 0.0 0.0 0.0 0.0 0.0 0.0 0.0 0.0 0.0 0.0 0.0 0.0 0.0 0.0 0.0 0.0 0.0 0.0 0.0 0.0 0.0 0.0 0.0 0.0 0.0 0.0 0.0 0.0 0.0 0.0 0.0 0.0 0.0 0.0 0.0 0.0 0.0 0.0 0.0 0.0 0.0 0.0 0.0 0.0 0.0 0.0 0.0 0.0 0.0 0.0 0.0 0.0 0.0 0.0 0.0 0.0 0.0 0.0 0.0 0.0 0.0 0.0 0.0 0.0 0.0 0.0 0.0 0.0 0.0 0.0 0.0 0.0 0.0 0.0 0.0 0.0 0.0 0.0 0.0 0.0 0.0 0.0 0.0 0.0 0.0 0.0 0.0 0.0 0.0 0.0 0.0 0.0 0.0 0.0 0.0 0.0 0.0 0.0 0.0 0.0 0.0 0.0 0.0 0.0 0.0 0.0 0.0 0.0 0.0 0.0 0.0 0.0 0.0 0.0 0.0 0.0 0.0 0.0 0.0 0.0 0.0 0.0 0.0 0.0 0.0 0.0 0.0 0.0 0.0 0.0 0.0 0.0 0.0 0.0 0.0 0.0 0.0 0.0 0.0 0.0 0.0 0.0 0.0 0.0 0.0 0.0 0.0 0.0 0.0 0.0 0.0 0.0 0.0 0.0 0.0 0.0 0.0 0.0 0.0 0.0 0.0 0.0 0.0 0.0 0.0 0.0 0.0 0.0 0.0 0.0 0.0 0.0 0.0 0.0 0.0 0.0 0.0 0.0 0.0 0.0 0.0 0.0 0.0 0.0 0.0 0.0 0.0 0.0 0.0 0.0 0.0 0.0 0.0 0.0 0.0 0.0 0.0 0.0 0.0 0.0 0.0 0.0 0.0 0.0 0.0 0.0 0.0 0.0 0.0 0.0 0.0 0.0 0.0 0.0 0.0 0.0 0.0 0.0 0.0 0.0 0.0 0.0 0.0 0.0 0.0 0.0 0.0 0.0 0.0 0.0 0.0 0.0 0.0 0.0 0.0 0.0 0.0 0.0 0.0 0.0 0.0 0.0 0.0 0.0 0.0 0.0 0.0 0.0 0.0 0.0 0.0 0.0 0.0 0.0 0.0 0.0 0.0 0.0 0.0 0.0 0.0 0.0 0.0 0.0 0.0 0.0 0.0 0.0 0.0 0.0 0.0 0.0 0.0 0.0 0.0 0.0 0.0 0.0 0.0 0.0 0.0 0.0 0.0 0.0 0.0 0.0 0.0 0.0 0.0 0.0 0.0 0.0 0.0 0.0 0.0 0.0 0.0 0.0 0.0 0.0 0.0 0.0 0.0 0.0 0.0 0.0 0.0 0.0 0.0 0.0 0.0 0.0 0.0 0.0 0.0 0.0 0.0 0.0 0.0 0.0 0.0 0.0 0.0 0.0 0.0 0.0 0.0 0.0 0.0 0.0 0.0 0.0 0.0 0.0 0.0 0.0 0.0 0.0 0.0 0.0 0.0 0.0 0.0 0.0 0.0 0.0 0.0 0.0 0.0 0.0 0.0 0.0 0.0 0.0 0.0 0.0 0.0 0.0 0.0 0.0 0.0 0.0 0.0 0.0 0.0 0.0 0.0 0.0 0.0 0.0 0.0 0.0 0.0 0.0 0.0 0.0 0.0 0.0 0.0 0.0 0.0 0.0 0.0 0.0 0.0 0.0 0.0 0.0 0.0 0.0 0.0 0.0 0.0 0.0 0.0 0.0 0.0 0.0 0.0 0.0 0.0 0.0 0.0 0.0 0.0 0.0 0.0 0.0 0.0 0.0 0.0 0.0 0.0 0.0 0.0 0.0 0.0 0.0 0.0 0.0 0.0 0.0 0.0 0.0 0.0 0.0 0.0 0.0 0.0 0.0 0.0 0.0 0.0 0.0 0.0 0.0 0.0 0.0 0.0 0.0 0.0 0.0 0.0 0.0 0.0 0.0 0.0 0.0 0.0 0.0 0.0 0.0 0.0 0.0 0.0 0.0 0.0 0.0 0.0 0.0 0.0 0.0 0.0 0.0 0.0 0.0 0.0 0.0 0.0 0.0 0.0 0.0 0.0 0.0 0.0 0.0 0.0 0.0 0.0 0.0 0.0 0.0 0.0 0.0 0.0 0.0 0.0 0.0 0.0 0.0 0.0 0.0 0.0 0.0 0.0 0.0 0.0 0.0 0.0 0.0 0.0 0.0 0.0 0.0 0.0 0.0 0.0 0.0 0.0 0.0 0.0 0.0 0.0 0.0 0.0 0.0 0.0 0.0 0.0 0.0 0.0 0.0 0.0 0.0 0.0 0.0 0.0 0.0 0.0 0.0 0.0 0.0 0.0 0.0 0.0 0.0 0.0 0.0 0.0 0.0 0.0 0.0 0.0 0.0 0.0 0.0 0.0 0.0 0.0 0.0 0.0 0.0 0.0 0.0 0.0 0.0 0.0 0.0 0.0 0.0 0.0 0.0 0.0 0.0 0.0 0.0 0.0 0.0 0.0 0.0 0.0 0.0 0.0 0.0 0.0 0.0 0.0 0.0 0.0 0.0 0.0 0.0 0.0 0.0 0.0 0.0 0.0 0.0 0.0 0.0 0.0 0.0 0.0 0.0 0.0 0.0 0.0 0.0 0.0 0.0 0.0 0.0 0.0 0.0 0.0 0.0 0.0 0.0 0.0 0.0 0.0 0.0 0.0 0.0 0.0 0.0 0.0 0.0 0.0 0.0 0.0 0.0 0.0 0.0 0.0 0.0 0.0 0.0 0.0 0.0 0.0 0.0 0.0 0.0 0.0 0.0 0.0 0.0 0.0 0.0 0.0 0.0 0.0 0.0 0.0 0.0 0.0 0.0 0.0 0.0 0.0 0.0 0.0 0.0 0.0 0.0 0.0 0.0 0.0 0.0 0.0 0.0 0.0 0.0 0.0 0.0 0.0 0.0 0.0 0.0 0.0 -0.0019958215 0.0 -0.00016719487 -0.0024994106 0.0 -7.5043223e-05 -0.0029295590000000004 0.0 1.6957209e-05 -0.0032676281 0.0 8.7108492e-05 -0.0035168412 0.0 0.00012785544 -0.0018966307 0.0 -0.00031738213 -0.0025630156 0.0 -0.00022675717999999997 -0.0031896608000000003 0.0 -9.653582700000001e-05 -0.0037189735999999998 0.0 3.0599746e-05 -0.0041287364 0.0 0.00012630963 -0.004424856 0.0 0.00018117316000000003 -0.0023694814000000002 0.0 -0.00041426366 -0.0031902599 0.0 -0.0002874175 -0.0039526233 0.0 -0.00011550081 -0.0045854468 0.0 4.8878050000000005e-05 -0.0050646625 0.0 0.00017077343 -0.0054014171 0.0 0.00023928509 -0.002942326 0.0 -0.00051439676 -0.0039469479 0.0 -0.00034868292 -0.004867835 0.0 -0.00013139396 -0.00561724 0.0 7.237934900000001e-05 -0.0061697913 0.0 0.00022071609 -0.0065447772 0.0 0.00030184386 -0.0036981842 0.0 -0.00062065077 -0.0049226992 0.0 -0.00041172822000000003 -0.006027772099999999 0.0 -0.00014411096000000001 -0.0069101676 0.0 0.00010224234 -0.0075439693999999995 0.0 0.00027796396 -0.0079572499 0.0 0.00037103449 -0.0047967331 0.0 -0.0007393703599999999 -0.0062677548 0.0 -0.00047896586999999997 -0.0075618112 0.0 -0.00015234979 -0.0085732359 0.0 0.0001419632 -0.0092849098 0.0 0.00034700663 -0.0097342767 0.0 0.00045195949 -0.0065100240000000005 0.0 -0.0008788439999999999 -0.0082280561 0.0 -0.0005514097900000001 -0.0096623171 0.0 -0.00014932427 -0.010749673999999999 0.0 0.00020290766 -0.011499926 0.0 0.00044001277999999996 -0.011963888 0.0 0.00055559084 -0.009244516500000001 0.0 -0.001047947 -0.011140408000000001 0.0 -0.00062536367 -0.012577056999999999 0.0 -0.0001169481 -0.013613153999999999 0.0 0.0003114228 -0.014312769 0.0 0.0005843112000000001 -0.014738477 0.0 0.0007051492 -0.01348577 0.0 -0.0012554528999999999 -0.015354313 0.0 -0.00068627473 -0.016543448 0.0 -1.7641287e-05 -0.017331753000000002 0.0 0.0005170315900000001 -0.017852232 0.0 0.0008288644 -0.018161975 0.0 0.0009416518699999999 -0.019513128 0.0 -0.0015227913 -0.021016216 0.0 -0.00070172868 -0.021662347000000002 0.0 0.00021947507000000003 -0.022009282999999998 0.0 0.0009010115199999998 -0.022231227000000003 0.0 0.0012473257 -0.022348737 0.0 0.0013250254999999998 -0.026878884 0.0 -0.0018843175 -0.027808761 0.0 -0.00061839126 -0.027796535 0.0 0.00070261484 -0.027646768999999998 0.0 0.0015764765 -0.027529206 0.0 0.0019351785999999998 -0.02741221 0.0 0.0019289383 -0.034284271 0.0 -0.0015482685999999998 -0.035072572999999996 0.0 -0.00010897953000000001 -0.03468496 0.0 0.0016316827 -0.034204733 0.0 0.0026817559000000004 -0.03381535 0.0 0.0029902067 -0.033467244 0.0 0.0028260959999999997 -0.041697107000000004 0.0 0.0018589810999999998 -0.04265007 0.0 0.0019300118 -0.042302571 0.0 0.0033997053000000004 -0.041749489 0.0 0.0043619149 -0.041202269 0.0 0.0044849967 -0.04064697 0.0 0.0040673506 -0.050082792 0.0 0.0073534604 -0.05113720099999999 0.0 0.005747594399999999 -0.051003255 0.0 0.006174929 -0.050512318 0.0 0.0066721728 -0.049868725 0.0 0.0064343628 -0.049110241 0.0 0.0056657251 -0.060268018 0.0 0.012879425 -0.061258823 0.0 0.010347333 -0.061261725 0.0 0.0096575189 -0.060795552999999995 0.0 0.0094980551 -0.06002815400000001 0.0 0.0087777479 -0.059034857999999996 0.0 0.0075994198999999995 -0.072770223 0.0 0.017571528 -0.073492132 0.0 0.01475883 -0.073429957 0.0 0.013370183999999999 -0.072860263 0.0 0.012624244 -0.071894847 0.0 0.011440081000000001 -0.070614792 0.0 0.0098393196 -0.08768905699999999 0.0 0.021668682 -0.087986439 0.0 0.018796554 -0.087701276 0.0 0.017122181 -0.086925 0.0 0.015977146 -0.085696541 0.0 0.014392921999999999 -0.084073849 0.0 0.012375623 -0.10489316 0.0 0.025582362 -0.10480113 0.0 0.022758147000000003 -0.10427753 0.0 0.021017911 -0.10326241 0.0 0.019634817 -0.10172085 0.0 0.017682886000000002 -0.099681906 0.0 0.015216615 -0.12455677 0.0 0.029953651 -0.1242738 0.0 0.027131496 -0.1235617 0.0 0.025345327 -0.12227302 0.0 0.023730297 -0.1203249 0.0 0.021363541 -0.11773916 0.0 0.018372331000000002 -0.14752044 0.0 0.035246469 -0.14709751 0.0 0.032321293 -0.14612591 0.0 0.030324157 -0.14441893 0.0 0.028354341 -0.14187936 0.0 0.025459818999999998 -0.13854712 0.0 0.021834465 -0.17468332 0.0 0.041719823999999996 -0.17395072 0.0 0.038523585 -0.17250559 0.0 0.036039947999999995 -0.1701314 0.0 0.033515483 -0.16673067 0.0 0.029947118999999998 -0.16238216 0.0 0.02555871 -0.20672078 0.0 0.049586527000000005 -0.20540711 0.0 0.045802996 -0.20317179 0.0 0.04242442900000001 -0.19978049 0.0 0.039115116 -0.19515863 0.0 0.034726507999999996 -0.18945399 0.0 0.029455087999999997 -0.24419053 0.0 0.058996982999999996 -0.24190088 0.0 0.054050978 -0.23843598 0.0 0.049184222 -0.23356566 0.0 0.044910543 -0.22727461 0.0 0.039618075 -0.21981883 0.0 0.033401027 -0.28723782 0.0 0.069981359 -0.28344047 0.0 0.062839858 -0.27818304 0.0 0.055772517 -0.2712774 0.0 0.05053078 -0.26281223 0.0 0.044402555 -0.25319526 0.0 0.037295002 -0.33504713 0.0 0.082142219 -0.32911658 0.0 0.071288057 -0.32143655 0.0 0.061387975 -0.31191611 0.0 0.055557836 -0.30079633 0.0 0.048907131 -0.28866956 0.0 0.041158766 -0.38515738 0.0 0.09478195 -0.37650657 0.0 0.07807766599999999 -0.36584699 0.0 0.065191716 -0.35325325 0.0 0.059742175 -0.33915809 0.0 0.05321545900000001 -0.32435155 0.0 0.045278315 -0.43288073 0.0 0.10652366 -0.42117015 0.0 0.081756137 -0.40725574 0.0 0.06657511 -0.39145282 0.0 0.063364036 -0.37440628 0.0 0.057874765 -0.35707906 0.0 0.050377939000000004 -0.4710412 0.0 0.1154518 -0.45642322 0.0 0.081012368 -0.43952054 0.0 0.065867491 -0.42093825 0.0 0.06720887099999999 -0.40151319 0.0 0.064035557 -0.38231027 0.0 0.057755362000000005 -0.48993981 0.0 0.11952878 -0.47334394 0.0 0.075659394 -0.4545908 0.0 0.064137481 -0.43452719 0.0 0.072816275 -0.41407117 0.0 0.0733895 -0.39426014 0.0 0.06917377599999999 -0.47731292 0.0 0.11782647 -0.4606905 0.0 0.067499727 -0.44234037 0.0 0.063831873 -0.42318973 0.0 0.08191757599999999 -0.40401602 0.0 0.087780334 -0.38559869 0.0 0.08651096400000001 -0.41907707 0.0 0.11252184 -0.4053072 0.0 0.062377762 -0.39050341 0.0 0.06888479 -0.37548965 0.0 0.09620781199999999 -0.36067054 0.0 0.10800152 -0.34629795 0.0 0.11091397 -0.3020995 0.0 0.10951854 -0.29444554 0.0 0.068718664 -0.28652117 0.0 0.08345433299999999 -0.27894896 0.0 0.11469278 -0.27162042 0.0 0.13299701 -0.26410788 0.0 0.14240326 -0.1195523 0.0 0.11173873 -0.12081899 0.0 0.084315345 -0.12245376 0.0 0.11128063 -0.12484117 0.0 0.13725267 -0.1273839 0.0 0.16158761 -0.12897782 0.0 0.1796786 0.12208783 0.0 0.11127961 0.11052652 0.0 0.09654852 0.09801767800000001 0.0 0.15688246 0.084637083 0.0 0.17369199 0.071400642 0.0 0.19493324 0.059868053 0.0 0.22031221 0.39679074 0.0 0.1004748 0.37610796 0.0 0.095653802 0.35362855 0.0 0.19251023 0.33044535 0.0 0.2125452 0.30790439 0.0 0.22938679 0.28758907 0.0 0.2602734 0.65765339 0.0 0.087322287 0.63268268 0.0 0.079761535 0.60459691 0.0 0.21386899 0.57574785 0.0 0.24183464 0.54767728 0.0 0.25871894 0.52154583 0.0 0.294967 0.85093099 0.0 0.070653461 0.82830447 0.0 0.048878215 0.80180985 0.0 0.20657915 0.77364677 0.0 0.25441435 0.74508882 0.0 0.27680993 0.71682703 0.0 0.31998274 0.94535381 0.0 0.051397167 0.92926365 0.0 0.0089452928 0.90975785 0.0 0.17237608 0.88734704 0.0 0.24072279 0.86236668 0.0 0.27978599 0.83519477 0.0 0.33385721 0.94727612 0.0 0.044563412999999996 0.93861586 0.0 -0.014753755 0.92723387 0.0 0.1459339 0.91207874 0.0 0.22663008 0.89249372 0.0 0.27847987 0.86850828 0.0 0.34033749 0.88936919 0.0 0.047490165 0.88696498 0.0 -0.021323681 0.88222939 0.0 0.13364601 0.87329131 0.0 0.2187517 0.8588745 0.0 0.27656695 0.83870202 0.0 0.34215713 0.80945587 0.0 0.056496542000000004 0.81103396 0.0 -0.01642723 0.81034255 0.0 0.13371363 0.80539674 0.0 0.21758093 0.79469991 0.0 0.27544063 0.77776015 0.0 0.34130588 0.7333824 0.0 0.06753806799999999 0.73635006 0.0 -0.0044054934 0.73699301 0.0 0.14276883 0.7335996 0.0 0.2209471 0.72471029 0.0 0.27486348 0.7097159 0.0 0.33859348 0.66869241 0.0 0.076059267 0.67079413 0.0 0.007125478199999999 0.67052352 0.0 0.15110604 0.66654074 0.0 0.22383417 0.65755683 0.0 0.27314737 0.64297378 0.0 0.33378479 0.60882956 0.0 0.07996067400000001 0.60852164 0.0 0.015854811 0.60572553 0.0 0.15462692 0.59945846 0.0 0.22365895 0.58870584 0.0 0.26909241 0.57306373 0.0 0.32626057 0.54317182 0.0 0.08179529 0.5395565 0.0 0.022805923999999998 0.53314364 0.0 0.15360193 0.5232808 0.0 0.21947837 0.5093646 0.0 0.26193038 0.49141756 0.0 0.31553614 0.46647906 0.0 0.082182854 0.45898849 0.0 0.028224075 0.44818571 0.0 0.14798053 0.43370956 0.0 0.21040224 0.41553673 0.0 0.25152081 0.39440051 0.0 0.3015722 0.38245365 0.0 0.079973109 0.37066925 0.0 0.032880716000000004 0.35494381 0.0 0.13951927 0.33520174 0.0 0.1980004 0.31219226 0.0 0.238261 0.28765783 0.0 0.28484061 0.30096364 0.0 0.07694480599999999 0.28458816 0.0 0.036686581 0.26371258 0.0 0.1308765 0.23867467 0.0 0.1847437 0.21115339 0.0 0.22343792 0.18388677 0.0 0.26619375 0.23231529 0.0 0.073021397 0.21127793 0.0 0.037460264 0.18540989 0.0 0.122633 0.15575638 0.0 0.17292431 0.1247851 0.0 0.20803687 0.09580951900000001 0.0 0.24654053 0.18161933 0.0 0.065236218 0.15641192 0.0 0.03586207 0.12623188 0.0 0.1151927 0.09319042400000001 0.0 0.16252339 0.060137755999999994 0.0 0.19255367 0.030416269 0.0 0.22683187 0.14785418 0.0 0.05218251 0.1193615 0.0 0.032201666000000004 0.08585157199999999 0.0 0.10838598 0.050879478 0.0 0.15304625 0.017308924 0.0 0.17825061 -0.01209455 0.0 0.2081814 0.12708831 0.0 0.033929069 0.094823584 0.0 0.030594965 0.05901870099999999 0.0 0.10500202 0.023695817 0.0 0.14530382 -0.0085887853 0.0 0.16678187 -0.036245111 0.0 0.19169891 0.11820626 0.0 0.029709101 0.077235453 0.0 0.034615882 0.038920749 0.0 0.10334814 0.0048105316 0.0 0.14094542 -0.024087194 0.0 0.15888166 -0.048144534 0.0 0.17808801 0.12571216 0.0 0.055506822000000004 0.06525043400000001 0.0 0.053036489000000006 0.021671697 0.0 0.10773257 -0.011055978999999999 0.0 0.1398692 -0.034725334 0.0 0.15441176 -0.053221647000000004 0.0 0.16792572 0.14614452 0.0 0.075318471 0.059857883 0.0 0.070912056 0.0070861280000000006 0.0 0.11098323 -0.025471341 0.0 0.13958152 -0.043430860999999994 0.0 0.15204994 -0.054973949 0.0 0.16083071 0.060924318 0.0 0.08145936599999999 -0.0018733449 0.0 0.10769174 -0.035806107999999996 0.0 0.138056 -0.050384375999999995 0.0 0.15009789 -0.055055972 0.0 0.15586804 0.06883808200000001 0.0 0.091664664 0.00029986224 0.0 0.10599667 -0.037509821 0.0 0.13373815 -0.053283609 0.0 0.14702995 -0.054081142 0.0 0.15158302 0.017270426999999998 0.0 0.10936505 -0.026239056 0.0 0.12929556 -0.047594823 0.0 0.14407028 -0.051081765 0.0 0.14702459 0.0457865 0.0 0.11436827 0.0016007532 0.0 0.13064407 -0.028259374 0.0 0.14170225 -0.040989677999999995 0.0 0.14371334 0.03915542 0.0 0.13159481 0.0075290211999999995 0.0 0.14179923 -0.016659014 0.0 0.14322571 0.051511407 0.0 0.14014651 0.025526265 0.0 0.14409681 0.072984353 0.0 0.12618928 0.070553884 0.0 0.14364111 -0.003691989 0.0 0.00014244941000000002 -0.0038106795 0.0 0.00013965984 -0.0038879340999999996 0.0 0.00012817528 -0.003935243 0.0 0.00011334844999999999 -0.003961836 0.0 9.813669e-05 -0.0039750109 0.0 8.4262945e-05 -0.0039802552 0.0 7.2764044e-05 -0.0039814687 0.0 6.4230175e-05 -0.0039812294 0.0 5.8994156000000005e-05 -0.0046278615 0.0 0.00020015497 -0.004761307 0.0 0.00019550849 -0.0048447507 0.0 0.00017926838 -0.0048927384999999995 0.0 0.00015865947 -0.004916843 0.0 0.00013749496 -0.0049261469 0.0 0.0001181558 -0.0049273688 0.0 0.00010210521999999999 -0.004925225399999999 0.0 9.0186732e-05 -0.0049227909000000005 0.0 8.287311400000001e-05 -0.0056242919999999995 0.0 0.0002617157 -0.005764371700000001 0.0 0.00025436358 -0.0058465428 0.0 0.00023283667999999998 -0.0058887624 0.0 0.00020609678 -0.005905102 0.0 0.00017866319 -0.0059063951000000005 0.0 0.00015356113999999999 -0.0059005185 0.0 0.00013269848 -0.0058928975 0.0 0.00011719383 -0.0058870362 0.0 0.00010767572 -0.0067818159999999995 0.0 0.00032630059 -0.0069216602000000006 0.0 0.00031515819 -0.0069956733 0.0 0.0002877982 -0.0070258789 0.0 0.00025460167999999996 -0.0070291529 0.0 0.00022062102000000003 -0.007018148399999999 0.0 0.00018948923 -0.0070018889 0.0 0.0001635661 -0.006986489100000001 0.0 0.00014427093 -0.006975831500000001 0.0 0.00013241413 -0.008203947900000001 0.0 0.00039617383000000003 -0.0083371392 0.0 0.00038006413 -0.0083961654 0.0 0.0003461116 -0.0084079579 0.0 0.00030581231 -0.008392526800000001 0.0 0.00026467 -0.008364521 0.0 0.00022689993999999998 -0.0083341757 0.0 0.00019535593 -0.0083083445 0.0 0.0001718155 -0.0082912976 0.0 0.00015732381 -0.009985169399999999 0.0 0.00047682880999999996 -0.010104143000000001 0.0 0.00045455779999999997 -0.010140385 0.0 0.00041278265 -0.010126438 0.0 0.0003640982 -0.010085721 0.0 0.0003144423 -0.010035103 0.0 0.000268681 -0.0099862106 0.0 0.00023028767999999997 -0.0099466909 0.0 0.00020152563 -0.0099212928 0.0 0.00018377283 -0.012207703 0.0 0.0005781867099999999 -0.012301913000000001 0.0 0.00054769008 -0.012305347 0.0 0.00049583154 -0.012256406999999999 0.0 0.00043637722000000004 -0.012182143000000001 0.0 0.00037564259 -0.012101863999999999 0.0 0.00031933758999999997 -0.012028748999999998 0.0 0.00027181531 -0.011971421999999999 0.0 0.00023604557999999998 -0.011935138999999999 0.0 0.00021389914000000002 -0.014947991 0.0 0.00071811338 -0.015001711000000001 0.0 0.00067349488 -0.014958558 0.0 0.0006067853 -0.014862368 0.0 0.00053207704 -0.014743832 0.0 0.0004557629900000001 -0.014624813 0.0 0.00038460342 -0.014520228999999999 0.0 0.00032419029999999996 -0.01443978 0.0 0.0002785114 -0.01438941 0.0 0.00025015025 -0.018293043999999998 0.0 0.0009272192300000001 -0.018280936 0.0 0.0008538570800000001 -0.01817221 0.0 0.0007618652900000001 -0.01801247 0.0 0.00066342211 -0.017835699 0.0 0.0005639164599999999 -0.017666256 0.0 0.00047107364 -0.017520895 0.0 0.00039202164 -0.017410561 0.0 0.00033209252 -0.017341976999999998 0.0 0.00029482177000000003 -0.022350428999999998 0.0 0.0012507275999999999 -0.022237981 0.0 0.0011206452 -0.022038187999999997 0.0 0.00098316616 -0.021793511 0.0 0.00084582239 -0.02154042 0.0 0.0007107511 -0.021305591000000002 0.0 0.0005858897299999999 -0.021107625 0.0 0.00047988057 -0.02095883 0.0 0.00039958552 -0.020866854 0.0 0.00034966427 -0.027240949 0.0 0.0017443659 -0.026988665 0.0 0.0015140749 -0.026665065 0.0 0.0012981272000000001 -0.026307955 0.0 0.0010975531 -0.025955372999999997 0.0 0.00090806955 -0.025636067999999998 0.0 0.00073630735 -0.025370482000000003 0.0 0.00059187133 -0.025172438 0.0 0.00048302364 -0.025050532 0.0 0.0004155332 -0.033093136 0.0 0.0024638905 -0.032659899 0.0 0.0020762172 -0.032173056 0.0 0.0017362070999999998 -0.031669259 0.0 0.0014379248999999998 -0.031188039 0.0 0.0011677437 -0.03076013 0.0 0.0009289776800000001 -0.030408071000000002 0.0 0.00073113386 -0.030147264 0.0 0.00058332755 -0.02998732 0.0 0.0004921326200000001 -0.04004642 0.0 0.0034516584000000004 -0.039389312 0.0 0.0028421581 -0.038693994 0.0 0.0023235129 -0.038002472 0.0 0.0018842331 -0.037356753 0.0 0.0015000177 -0.036790453 0.0 0.0011690778 -0.036328587999999995 0.0 0.0008994754199999999 -0.035988337999999995 0.0 0.0007002458400000001 -0.035780437000000005 0.0 0.00057812041 -0.048252996 0.0 0.0047271131 -0.047325362 0.0 0.0038329596 -0.046371248 0.0 0.0030776295000000003 -0.045443825 0.0 0.0024485648999999997 -0.044590607000000004 0.0 0.0019117924 -0.043849904 0.0 0.0014596339000000002 -0.043250032 0.0 0.0010974297 -0.042810302 0.0 0.0008328938300000001 -0.042542413 0.0 0.00067192386 -0.057878628 0.0 0.006288085600000001 -0.056628887 0.0 0.0050538075 -0.05535977 0.0 0.004004962700000001 -0.054140307 0.0 0.0031357503 -0.053028665 0.0 0.0024056558 -0.0520707 0.0 0.0018016023000000001 -0.051299535 0.0 0.0013251922 -0.050736737000000004 0.0 0.00098131446 -0.050394904000000004 0.0 0.00077367859 -0.069107994 0.0 0.008121615300000001 -0.06747687599999999 0.0 0.0064972565000000005 -0.065826416 0.0 0.0051013394 -0.06424861400000001 0.0 0.0039433218 -0.062818728 0.0 0.0029804259999999996 -0.061593775 0.0 0.0021953706 -0.060612839 0.0 0.0015850341 -0.059900064 0.0 0.0011496043 -0.059468385 0.0 0.00088880508 -0.082152501 0.0 0.010215285 -0.080063656 0.0 0.0081490716 -0.07794923299999999 0.0 0.0063548447 -0.075933762 0.0 0.0048635849 -0.074116029 0.0 0.0036337855 -0.072567374 0.0 0.0026443838 -0.071333773 0.0 0.0018858926000000001 -0.070441291 0.0 0.0013512692 -0.069902532 0.0 0.0010338408000000001 -0.097250365 0.0 0.012558013 -0.094598025 0.0 0.0099917706 -0.09191498199999999 0.0 0.0077492911 -0.08936718099999999 0.0 0.0058878125 -0.08708199900000001 0.0 0.004367484699999999 -0.085146859 0.0 0.0031615312 -0.083614387 0.0 0.002250819 -0.082511097 0.0 0.0016174245 -0.081847362 0.0 0.0012450723 -0.11465361 0.0 0.015136866 -0.11129539 0.0 0.012004145 -0.10791413 0.0 0.0092679802 -0.10472389 0.0 0.0070129666 -0.10188314 0.0 0.0051961648 -0.099495217 0.0 0.0037793124 -0.09761674699999999 0.0 0.002727974 -0.09627190199999999 0.0 0.0020082546 -0.095466085 0.0 0.0015902109 -0.13461034 0.0 0.01792608 -0.13036683 0.0 0.01415925 -0.12613504 0.0 0.010899317 -0.12218066 0.0 0.0082525564 -0.11869235 0.0 0.006161021500000001 -0.11578578 0.0 0.0045646033 -0.11351724 0.0 0.0034055244 -0.1119034 0.0 0.0026276142 -0.11094075 0.0 0.0021826574 -0.15734552 0.0 0.020878633 -0.1520057 0.0 0.016427865 -0.1467572 0.0 0.012648983 -0.14191446 0.0 0.0096541075 -0.13769086 0.0 0.0073493798 -0.13420723 0.0 0.0056381202 -0.13151205 0.0 0.0044297199 -0.12960844 0.0 0.0036394375 -0.1284788 0.0 0.0031966646000000003 -0.18302666 0.0 0.023931509 -0.17636399 0.0 0.018795518 -0.16993475 0.0 0.014564225 -0.16409194 0.0 0.011325992 -0.15906154 0.0 0.0089206649 -0.15495825 0.0 0.007197224499999999 -0.15181391 0.0 0.006023731500000001 -0.14960983 0.0 0.0052830158 -0.14830898 0.0 0.0048802085 -0.21169011 0.0 0.027034227 -0.20348759 0.0 0.021299848 -0.19574139 0.0 0.016773719 -0.18882029 0.0 0.01347431 -0.18294284 0.0 0.011136766999999999 -0.17820334 0.0 0.009538753 -0.17460585 0.0 0.0085033271 -0.17210343 0.0 0.0078827823 -0.17063425 0.0 0.0075608953 -0.24307665 0.0 0.030208578 -0.23316641 0.0 0.02409046 -0.2240274 0.0 0.019540841 -0.21600707 0.0 0.016444737 -0.20928952 0.0 0.014390913 -0.20393167 0.0 0.013075335 -0.19990006 0.0 0.012282427 -0.19711457 0.0 0.011845835 -0.19548707 0.0 0.01163858 -0.27636018 0.0 0.033638664 -0.26467311 0.0 0.027502369 -0.25416052 0.0 0.023316562000000002 -0.24509935 0.0 0.020755164 -0.23760635 0.0 0.019222429 -0.23168534 0.0 0.018335352 -0.22726084 0.0 0.017861584 -0.2242189 0.0 0.017642053 -0.2224474 0.0 0.017560428 -0.30982229 0.0 0.037779044 -0.2964395 0.0 0.032124367 -0.28469333 0.0 0.0287717 -0.27473789 0.0 0.027100215 -0.26659206 0.0 0.026301997 -0.26019606 0.0 0.025935596 -0.25543442 0.0 0.025793212000000003 -0.252168 0.0 0.025765151 -0.2502678 0.0 0.025779713 -0.34057716 0.0 0.043471515 -0.32578385 0.0 0.038850665 -0.31308147 0.0 0.036794442999999996 -0.30246454 0.0 0.036315985 -0.29383686 0.0 0.036380846 -0.28707743 0.0 0.03652516 -0.28204161 0.0 0.036625151 -0.27858022 0.0 0.036678441 -0.27656251 0.0 0.036704178999999997 -0.36446542 0.0 0.052037343 -0.34880871 0.0 0.048919719 -0.33558518 0.0 0.048469212000000005 -0.32462603 0.0 0.049321495 -0.31573284 0.0 0.05022331 -0.30874214 0.0 0.050723433 -0.30350181 0.0 0.05084667 -0.2998741 0.0 0.050767824 -0.29774657 0.0 0.050653055 -0.37615934 0.0 0.065227292 -0.36048803 0.0 0.063894749 -0.34735855 0.0 0.06506329 -0.33648029 0.0 0.06709139 -0.32760012 0.0 0.06857226 -0.32054827 0.0 0.069090657 -0.3151978 0.0 0.068868428 -0.31144837 0.0 0.068328522 -0.30922738 0.0 0.067848541 -0.36880329 0.0 0.084914856 -0.35425958 0.0 0.085484765 -0.34202722 0.0 0.08797162800000001 -0.3317816 0.0 0.090664767 -0.32328489 0.0 0.092166841 -0.31641847 0.0 0.092142344 -0.31111446 0.0 0.091038145 -0.30733716 0.0 0.089586481 -0.30507165 0.0 0.088441953 -0.33284631 0.0 0.11255085 -0.32086477 0.0 0.11517102 -0.31052938 0.0 0.11850109 -0.3016277 0.0 0.12105538 -0.29402521 0.0 0.12171529 -0.28771469 0.0 0.12034433 -0.28272972 0.0 0.11764873 -0.27911419 0.0 0.11471555 -0.27691796 0.0 0.11253595 -0.25631902 0.0 0.14861816 -0.24861993 0.0 0.15366475 -0.24140289 0.0 0.15742168 -0.23476115 0.0 0.15892586 -0.22877154 0.0 0.15768728 -0.22358927 0.0 0.15398017 -0.21937206 0.0 0.14884576 -0.21625046 0.0 0.14376864 -0.21432932 0.0 0.14012849 -0.12889175 0.0 0.1920744 -0.12718351 0.0 0.20027868 -0.12442548 0.0 0.20434341 -0.12113585 0.0 0.20405953 -0.11769657 0.0 0.19990988 -0.11444403 0.0 0.19284971 -0.11165059 0.0 0.18439147 -0.10951357 0.0 0.17648391 -0.10817315 0.0 0.17094576 0.051253583 0.0 0.24005564 0.045828752 0.0 0.25246021 0.042975068 0.0 0.25717834 0.041811951 0.0 0.25481927 0.041662969 0.0 0.2470817 0.042044240999999996 0.0 0.23586516 0.042620525 0.0 0.22333775 0.043173458 0.0 0.21201274 0.043561392000000004 0.0 0.20420371 0.27080661 0.0 0.28807363 0.25807622 0.0 0.30584466 0.24894981 0.0 0.31203791 0.24244694 0.0 0.30790699 0.23776245 0.0 0.29646125 0.23437767 0.0 0.28074238 0.23197795 0.0 0.26376224 0.23037668 0.0 0.2487033 0.22946012 0.0 0.23842143 0.49844247 0.0 0.33099571 0.47915789 0.0 0.35508272 0.46370637 0.0 0.36379811 0.45138848 0.0 0.35871282 0.44155052 0.0 0.34408247 0.43380502 0.0 0.32415256 0.42793939 0.0 0.30288568 0.42382988 0.0 0.28420162 0.42139712 0.0 0.27151468 0.68985617 0.0 0.36454523 0.6654104 0.0 0.39536366 0.64422786 0.0 0.40745518 0.62624955 0.0 0.40249792 0.61126113 0.0 0.38574544 0.59914386 0.0 0.36252251 0.58982766 0.0 0.33771631 0.58324271 0.0 0.31597337 0.57932311 0.0 0.30123937 0.80695504 0.0 0.38690457 0.77937967 0.0 0.42400259 0.75396323 0.0 0.43977183 0.73145133 0.0 0.43591106 0.71222943 0.0 0.41829064 0.6965192 0.0 0.39303914 0.68439144 0.0 0.36581156 0.67580903 0.0 0.34188518 0.67069983 0.0 0.32566357 0.84130287 0.0 0.39928582 0.81293708 0.0 0.44112951 0.78546524 0.0 0.46019211 0.76035345 0.0 0.45794576 0.73856282 0.0 0.44048485 0.72063959 0.0 0.41440734 0.70678174 0.0 0.38590279 0.6969794 0.0 0.36072406 0.69114667 0.0 0.3436214 0.81385821 0.0 0.40409938 0.78647703 0.0 0.44873384 0.7589193 0.0 0.47016639 0.73315465 0.0 0.46950823 0.71056014 0.0 0.45277542 0.69190496 0.0 0.42673579 0.67747188 0.0 0.39787173 0.66726655 0.0 0.37222993 0.66119927 0.0 0.35477445 0.75547689 0.0 0.4037157 0.72989935 0.0 0.44925049 0.70350158 0.0 0.47189781 0.67850024 0.0 0.47239938 0.65645975 0.0 0.45651764 0.63823617 0.0 0.43098232 0.62413734 0.0 0.40236232 0.61417186 0.0 0.37681928 0.60825032 0.0 0.35940149 0.68935031 0.0 0.39963454 0.6655587 0.0 0.44455925 0.64080286 0.0 0.46734256 0.61729908 0.0 0.46842167 0.59657776 0.0 0.45324507 0.57945812 0.0 0.42838117 0.56622183 0.0 0.40033737 0.55687064 0.0 0.37524396 0.55131507 0.0 0.35811713 0.62348169 0.0 0.39234862 0.60097134 0.0 0.43564186 0.57779646 0.0 0.45774806 0.55596977 0.0 0.45889479 0.53682899 0.0 0.44421512 0.52106547 0.0 0.4200533 0.50889975 0.0 0.39275956 0.50030953 0.0 0.36832622 0.49520558 0.0 0.35165113 0.55335712 0.0 0.38172871 0.53147566 0.0 0.42278239 0.50957572 0.0 0.4437114 0.48933703 0.0 0.44461069 0.47179461 0.0 0.43030766 0.4574452 0.0 0.4068822 0.44640851 0.0 0.38046607 0.43862459 0.0 0.35684788 0.43399933 0.0 0.34074482 0.47058561 0.0 0.36755106 0.44880655 0.0 0.40603003 0.42795867 0.0 0.42553845 0.40928078 0.0 0.42608246 0.39341217 0.0 0.41217542 0.38058367 0.0 0.38959232 0.37077695 0.0 0.36420661 0.36387917 0.0 0.3415595 0.35978362 0.0 0.32614329 0.37195554 0.0 0.34990063 0.35017672 0.0 0.38562116 0.33053505 0.0 0.40362918 0.31370091 0.0 0.40385261 0.29982767 0.0 0.39046538 0.28882268 0.0 0.3688986 0.28049901 0.0 0.34473151 0.27467701 0.0 0.32322639 0.27122965 0.0 0.30861554 0.26382574 0.0 0.329317 0.24254952 0.0 0.36216843 0.22470815 0.0 0.37866604 0.21030135 0.0 0.37865725 0.19895381 0.0 0.36595047 0.19022857 0.0 0.34559777 0.18375877 0.0 0.32284924 0.17928816 0.0 0.30265388 0.17666014 0.0 0.28895897 0.1594785 0.0 0.30667454 0.13946933 0.0 0.33658016 0.12405477 0.0 0.35157195 0.11256076 0.0 0.35141215 0.10411783 0.0 0.33952901 0.097974181 0.0 0.32056883 0.093598381 0.0 0.29941362 0.090659484 0.0 0.2806671 0.08896370199999999 0.0 0.26797381 0.071561597 0.0 0.28295416 0.053229227999999996 0.0 0.30986866 0.040389813 0.0 0.32335517 0.031785867999999995 0.0 0.32309768 0.026143212000000002 0.0 0.31214178 0.022462087000000002 0.0 0.29470992 0.020080827 0.0 0.27527979 0.01860524 0.0 0.25807965 0.017803416000000002 0.0 0.24644299 0.00660461 0.0 0.25910932 -0.010260696 0.0 0.28300336 -0.020995437999999998 0.0 0.29497084 -0.027295087000000003 0.0 0.294633 -0.030728202000000003 0.0 0.28466588 -0.0324664 0.0 0.26885429 -0.033264857 0.0 0.25124106 -0.033570837 0.0 0.23565105 -0.033653852000000005 0.0 0.22510502 -0.035310935 0.0 0.23605436 -0.051351052 0.0 0.25683314 -0.06091359599999999 0.0 0.26722312 -0.065885805 0.0 0.26677626 -0.068014324 0.0 0.25781751 -0.068573132 0.0 0.24368186 -0.068380892 0.0 0.22794852 -0.06793748599999999 0.0 0.21401526 -0.06755325200000001 0.0 0.20458399 -0.058363850999999994 0.0 0.21472999 -0.074116245 0.0 0.23208778 -0.083607078 0.0 0.24074954 -0.088374861 0.0 0.24009535 -0.090194337 0.0 0.23210987 -0.09038218099999999 0.0 0.2196658 -0.089813881 0.0 0.20585139 -0.08905413 0.0 0.19361541 -0.088462539 0.0 0.1853244 -0.068104312 0.0 0.19599998 -0.083558358 0.0 0.20945972 -0.09385657300000001 0.0 0.21607111 -0.09947278400000001 0.0 0.21501453 -0.10189385 0.0 0.20788586 -0.10242244 0.0 0.19708849 -0.10200766 0.0 0.18519425 -0.1013019 0.0 0.17467909 -0.10072391 0.0 0.16755125 -0.069341056 0.0 0.18043943 -0.083709694 0.0 0.18960014 -0.095101386 0.0 0.19370021 -0.10239487 0.0 0.19193244 -0.10618373 0.0 0.18542278 -0.10765806 0.0 0.17611457 -0.10783628 0.0 0.16606052 -0.10748108 0.0 0.15724048 -0.10708869 0.0 0.15127493 -0.06551434099999999 0.0 0.16827644 -0.077291511 0.0 0.17308858 -0.08909256 0.0 0.17425023 -0.098427646 0.0 0.17133853 -0.10423931 0.0 0.16505872 -0.10724928 0.0 0.15691257 -0.10846169 0.0 0.14847293 -0.10873909 0.0 0.14121707 -0.10868403 0.0 0.13635318 -0.058824655 0.0 0.15923624 -0.06620039 0.0 0.16019145 -0.076833397 0.0 0.15836741 -0.087634176 0.0 0.15384893 -0.095921315 0.0 0.14728715 -0.10111248 0.0 0.13979617 -0.10392925 0.0 0.13254686 -0.10523713 0.0 0.12655661 -0.1057355 0.0 0.12262565 -0.051188435 0.0 0.15252092 -0.052664533 0.0 0.15069835 -0.059940285999999995 0.0 0.14637409 -0.070407227 0.0 0.14009194 -0.080633052 0.0 0.13273913 -0.08843716199999999 0.0 0.125295 -0.09347488699999999 0.0 0.11863903 -0.096346721 0.0 0.11343132 -0.09774200599999999 0.0 0.11012802 -0.044321466 0.0 0.14686432 -0.039426204 0.0 0.14369361 -0.041236442000000005 0.0 0.13789943 -0.048766690999999994 0.0 0.13027221 -0.058808886 0.0 0.12197389 -0.068314165 0.0 0.11408132 -0.075629599 0.0 0.10738934 -0.080411777 0.0 0.10237517 -0.082999036 0.0 0.09928909699999999 -0.038066912 0.0 0.14140241 -0.029032441000000003 0.0 0.13780384 -0.024194472999999998 0.0 0.13174187 -0.026175315 0.0 0.12376051 -0.033043809 0.0 0.11498316 -0.041694429 0.0 0.10662401 -0.049669024000000006 0.0 0.09954237199999999 -0.055689465 0.0 0.09423948800000001 -0.059297699 0.0 0.09097393599999999 -0.025353487999999997 0.0 0.13821726 -0.021106614 0.0 0.13245688 -0.011886256000000001 0.0 0.1265202 -0.006625180600000001 0.0 0.11919504 -0.0073284241000000005 0.0 0.11094422 -0.012027448 0.0 0.10272443 -0.018019635 0.0 0.095470786 -0.023402726000000002 0.0 0.089814492 -0.027000233999999998 0.0 0.086216316 0.0034417212 0.0 0.13872692 -0.0052037691 0.0 0.13043208 -0.0023692315 0.0 0.12270001 0.0066217934 0.0 0.1156626 0.013556866 0.0 0.10867536 0.015672013000000002 0.0 0.10159267 0.014352073 0.0 0.094887629 0.011778117 0.0 0.08931677800000001 0.0095818928 0.0 0.08559864 0.047759563 0.0 0.14048892 0.03075411 0.0 0.13290301 0.020969765 0.0 0.12349363 0.020080953999999998 0.0 0.11551648 0.02724025 0.0 0.10857549 0.035589683999999996 0.0 0.10262372 0.040861156 0.0 0.097133264 0.043099745999999994 0.0 0.092285164 0.043651029 0.0 0.088842385 0.075381622 0.0 0.1355 0.07044468799999999 0.0 0.13460276 0.06358312099999999 0.0 0.12850037 0.057746809 0.0 0.12096316 0.051611107 0.0 0.11423768 0.052163090999999995 0.0 0.10787912 0.0573886 0.0 0.10240466 0.062814564 0.0 0.09801111400000001 0.06629391 0.0 0.094952829 0.073761217 0.0 0.12769115 0.086076126 0.0 0.13037908 0.095237598 0.0 0.1284108 0.10109598 0.0 0.12264778 0.10453575 0.0 0.11570925 0.10533483 0.0 0.10985024 0.10678812 0.0 0.10546711 0.10815766 0.0 0.10259454 0.08110886099999999 0.0 0.13213457 0.10294104 0.0 0.13277106 0.12342122 0.0 0.12553596 0.14768088 0.0 0.11781128 0.16355762 0.0 0.11303926 0.17193931 0.0 0.11036046 0.070692845 0.0 0.13712604 0.094255015 0.0 0.12734677 0.11885117 0.0 0.12045704 0.13386874 0.0 0.11747973 -0.0039809919000000004 0.0 5.7230151e-05 -0.0039812289 0.0 5.8994166e-05 -0.0039814692 0.0 6.4230233e-05 -0.0039802557 0.0 7.2764131e-05 -0.0039750119 0.0 8.4263047e-05 -0.003961836 0.0 9.8136748e-05 -0.0039352421 0.0 0.00011334848 -0.0038879340999999996 0.0 0.00012817523000000001 -0.0049217949 0.0 8.0409365e-05 -0.0049227917999999996 0.0 8.2873128e-05 -0.0049252249 0.0 9.018680399999999e-05 -0.0049273693 0.0 0.00010210528 -0.0049261465 0.0 0.00011815588 -0.004916844 0.0 0.00013749507 -0.0048927395 0.0 0.00015865956 -0.0048447493 0.0 0.00017926857 -0.005884876 0.0 0.00010446915 -0.005887039 0.0 0.00010767581 -0.0058929003 0.0 0.00011719402 -0.0059005185 0.0 0.00013269861999999998 -0.0059063965 0.0 0.0001535613 -0.005905103399999999 0.0 0.00017866325 -0.0058887638 0.0 0.00020609697000000001 -0.0058465442000000005 0.0 0.00023283671000000003 -0.0069720531 0.0 0.00012841818 -0.0069758301 0.0 0.00013241425 -0.006986489499999999 0.0 0.00014427106000000002 -0.0070018899 0.0 0.00016356635 -0.0070181503000000004 0.0 0.00018948957 -0.0070291539000000005 0.0 0.00022062122000000004 -0.0070258817 0.0 0.00025460182 -0.0069956761 0.0 0.00028779841 -0.0082853716 0.0 0.00015243582 -0.0082912985 0.0 0.00015732393 -0.0083083436 0.0 0.0001718157 -0.0083341757 0.0 0.00019535612 -0.008364521 0.0 0.00022690012999999998 -0.0083925305 0.0 0.00026467018 -0.0084079579 0.0 0.00030581248999999997 -0.0083961664 0.0 0.00034611192000000003 -0.0099125532 0.0 0.00017777731 -0.0099212918 0.0 0.00018377281000000003 -0.0099466937 0.0 0.00020152575000000002 -0.0099862115 0.0 0.00023028784 -0.010035103 0.0 0.00026868118 -0.010085727 0.0 0.00031444252999999995 -0.010126438 0.0 0.00036409835 -0.010140386 0.0 0.00041278273999999996 -0.011922758 0.0 0.00020640883 -0.011935143999999998 0.0 0.00021389915 -0.011971418999999999 0.0 0.00023604543999999997 -0.012028752 0.0 0.00027181517000000004 -0.012101863000000001 0.0 0.00031933758999999997 -0.012182141 0.0 0.00037564297 -0.012256411000000002 0.0 0.00043637750999999997 -0.01230535 0.0 0.0004958316000000001 -0.014372277 0.0 0.00024054507999999997 -0.014389403 0.0 0.00025015004 -0.014439773999999999 0.0 0.00027851107999999996 -0.014520228 0.0 0.00032419022 -0.014624815 0.0 0.00038460345 -0.014743831 0.0 0.00045576302 -0.014862367 0.0 0.00053207716 -0.014958563999999999 0.0 0.0006067858200000001 -0.017318752 0.0 0.00028218949 -0.017341981 0.0 0.00029482166000000003 -0.017410556 0.0 0.00033209214 -0.017520893 0.0 0.00039202144 -0.017666258 0.0 0.00047107340999999996 -0.01783569 0.0 0.00056391658 -0.01801247 0.0 0.00066342205 -0.018172218 0.0 0.0007618658099999999 -0.020835766999999998 0.0 0.00033274677000000004 -0.020866858000000002 0.0 0.00034966398 -0.020958837 0.0 0.00039958508999999996 -0.021107614 0.0 0.00047987990999999995 -0.02130558 0.0 0.0005858890900000001 -0.021540422000000004 0.0 0.0007107514500000001 -0.021793509 0.0 0.0008458228 -0.022038186 0.0 0.00098316604 -0.025009425 0.0 0.00039268931000000006 -0.025050545 0.0 0.00041553302 -0.02517242 0.0 0.0004830228 -0.025370471000000002 0.0 0.0005918708599999999 -0.025636058 0.0 0.00073630712 -0.02595537 0.0 0.00090806989 -0.026307955 0.0 0.0010975536 -0.026665067 0.0 0.0012981283 -0.029933473 0.0 0.00046133308 -0.02998733 0.0 0.00049213227 -0.030147247000000002 0.0 0.00058332691 -0.030408064 0.0 0.00073113386 -0.030760132000000003 0.0 0.0009289778500000001 -0.031188034 0.0 0.0011677438 -0.03166927 0.0 0.001437925 -0.032173045 0.0 0.0017362089999999998 -0.03571054 0.0 0.0005369980400000001 -0.035780437000000005 0.0 0.0005781201799999999 -0.035988353 0.0 0.0007002455499999999 -0.036328603 0.0 0.0008994752999999999 -0.036790445 0.0 0.0011690777 -0.037356719 0.0 0.0015000185 -0.038002469 0.0 0.0018842341 -0.038693991000000004 0.0 0.0023235148000000003 -0.042452518 0.0 0.0006179112200000001 -0.042542424 0.0 0.0006719239200000001 -0.042810287 0.0 0.0008328937700000001 -0.043250017 0.0 0.0010974295 -0.043849885 0.0 0.0014596342 -0.044590604000000006 0.0 0.0019117939999999999 -0.045443825 0.0 0.0024485658 -0.046371274000000004 0.0 0.0030776320000000003 -0.050280329000000006 0.0 0.00070427032 -0.050394907999999995 0.0 0.0007736788799999999 -0.050736722000000005 0.0 0.00098131469 -0.051299527000000004 0.0 0.0013251926999999998 -0.0520707 0.0 0.0018016031 -0.053028662000000004 0.0 0.0024056556 -0.054140314 0.0 0.0031357508000000004 -0.055359773 0.0 0.0040049623 -0.059323937 0.0 0.00080198364 -0.059468365999999995 0.0 0.0008888052000000001 -0.05990003 0.0 0.0011496044 -0.060612872000000005 0.0 0.0015850354000000002 -0.061593771 0.0 0.0021953732 -0.062818743 0.0 0.0029804278 -0.06424864400000001 0.0 0.0039433199 -0.065826386 0.0 0.0051013413 -0.069722518 0.0 0.0009286508999999999 -0.069902554 0.0 0.0010338407 -0.07044131299999999 0.0 0.0013512702 -0.07133379599999999 0.0 0.0018858946 -0.072567366 0.0 0.0026443871000000002 -0.074116074 0.0 0.0036337874 -0.075933821 0.0 0.0048635863 -0.077949241 0.0 0.0063548460999999995 -0.081626013 0.0 0.0011223407000000001 -0.08184737 0.0 0.0012450728 -0.082511112 0.0 0.0016174259 -0.083614387 0.0 0.002250822 -0.085146874 0.0 0.003161534 -0.087081991 0.0 0.004367487 -0.08936718099999999 0.0 0.0058878176 -0.09191497400000001 0.0 0.0077493 -0.095197894 0.0 0.0014533233 -0.09546612199999999 0.0 0.0015902117999999999 -0.09627191 0.0 0.0020082556 -0.09761677699999999 0.0 0.002727974 -0.099495254 0.0 0.0037793146999999996 -0.10188314 0.0 0.0051961718 -0.10472385 0.0 0.0070129666 -0.10791413 0.0 0.0092679774 -0.11062117 0.0 0.0020381915 -0.11094075 0.0 0.0021826564 -0.1119034 0.0 0.002627617 -0.11351725 0.0 0.003405527 -0.11578583 0.0 0.0045646084000000005 -0.11869239 0.0 0.006161024300000001 -0.1221806 0.0 0.0082525611 -0.12613507 0.0 0.010899319 -0.12810472 0.0 0.0030545869 -0.12847884 0.0 0.0031966678999999997 -0.1296085 0.0 0.0036394377000000004 -0.13151208 0.0 0.0044297203 -0.13420725 0.0 0.005638122099999999 -0.13769086 0.0 0.0073493859 -0.14191446 0.0 0.0096541094 -0.14675723 0.0 0.012648985 -0.14787944 0.0 0.0047532013 -0.14830896 0.0 0.0048802118 -0.1496098 0.0 0.005283021800000001 -0.15181386 0.0 0.0060237356999999995 -0.15495826 0.0 0.007197226899999999 -0.15906145 0.0 0.0089206696 -0.1640919 0.0 0.011325991 -0.16993487 0.0 0.014564229 -0.17015055 0.0 0.0074623725 -0.17063431 0.0 0.0075608939 -0.17210342 0.0 0.0078827823 -0.17460591 0.0 0.0085033234 -0.17820334 0.0 0.0095387613 -0.18294278 0.0 0.01113677 -0.1888203 0.0 0.013474306 -0.19574143 0.0 0.016773721000000002 -0.19495244 0.0 0.011579022 -0.19548704 0.0 0.011638573000000001 -0.19711465 0.0 0.011845837 -0.19990005 0.0 0.012282435 -0.20393179 0.0 0.013075342 -0.20928964 0.0 0.014390915 -0.2160071 0.0 0.016444728 -0.2240275 0.0 0.01954085 -0.2218665 0.0 0.017541984 -0.22244735 0.0 0.017560419 -0.22421886 0.0 0.017642055 -0.22726075 0.0 0.017861584 -0.23168534 0.0 0.01833535 -0.23760645 0.0 0.019222433 -0.24509937 0.0 0.020755162 -0.25416055 0.0 0.023316563999999998 -0.24964517 0.0 0.025790222 -0.25026795 0.0 0.025779724 -0.25216812 0.0 0.025765148999999998 -0.25543454 0.0 0.025793206000000003 -0.260196 0.0 0.025935594 -0.26659203 0.0 0.026301991 -0.27473798 0.0 0.027100231000000002 -0.28469327 0.0 0.028771704 -0.27590033 0.0 0.03671208 -0.27656269 0.0 0.036704183 -0.27858019 0.0 0.036678441 -0.28204173 0.0 0.036625139 -0.28707734 0.0 0.036525182 -0.29383692 0.0 0.036380839 -0.30246457 0.0 0.036315996 -0.31308135 0.0 0.036794461 -0.29704577 0.0 0.050603878 -0.29774657 0.0 0.050653037000000005 -0.29987422 0.0 0.050767809000000004 -0.30350175 0.0 0.050846681 -0.30874205 0.0 0.050723425999999995 -0.31573287 0.0 0.050223287 -0.324626 0.0 0.049321495 -0.33558512 0.0 0.048469223 -0.3084918 0.0 0.06766301400000001 -0.30922753 0.0 0.0678486 -0.31144857 0.0 0.0683285 -0.31519783 0.0 0.068868428 -0.32054833 0.0 0.069090657 -0.32759991 0.0 0.068572231 -0.33648029 0.0 0.067091376 -0.34735835 0.0 0.065063283 -0.30431628 0.0 0.08801546699999999 -0.30507168 0.0 0.08844193800000001 -0.30733716 0.0 0.08958645900000001 -0.31111437 0.0 0.09103815300000001 -0.31641832 0.0 0.092142321 -0.32328472 0.0 0.092166863 -0.33178157 0.0 0.090664782 -0.34202728 0.0 0.08797159800000001 -0.27618068 0.0 0.11174012 -0.27691802 0.0 0.11253598 -0.27911425 0.0 0.11471557 -0.2827296 0.0 0.11764879 -0.28771466 0.0 0.12034436 -0.2940253 0.0 0.12171527 -0.30162776 0.0 0.12105542 -0.31052962 0.0 0.11850107 -0.21368028 0.0 0.13881652 -0.21432918 0.0 0.14012842 -0.21625043 0.0 0.14376862 -0.21937209 0.0 0.1488457 -0.22358926 0.0 0.1539802 -0.22877151 0.0 0.15768735 -0.23476093 0.0 0.15892583 -0.24140279 0.0 0.15742163 -0.1077162 0.0 0.16896692 -0.10817308 0.0 0.17094572 -0.10951365 0.0 0.17648382 -0.11165058 0.0 0.18439148 -0.11444396 0.0 0.19284968 -0.11769649 0.0 0.19990981 -0.12113576 0.0 0.20405965 -0.12442539 0.0 0.20434329 0.043700155 0.0 0.20143059 0.043561425 0.0 0.20420375 0.04317347 0.0 0.21201268 0.042620557999999996 0.0 0.2233378 0.042044252000000004 0.0 0.23586518 0.041663028 0.0 0.24708179 0.041811906 0.0 0.25481945 0.042974994 0.0 0.25717819 0.22916198 0.0 0.23478517 0.22946022 0.0 0.2384215 0.23037675 0.0 0.24870336 0.23197806 0.0 0.26376218 0.23437765 0.0 0.28074238 0.23776254 0.0 0.29646143 0.24244699 0.0 0.30790716 0.24894989 0.0 0.31203812 0.42059174 0.0 0.26703909 0.42139706 0.0 0.27151492 0.42383006 0.0 0.28420174 0.42793953 0.0 0.30288574 0.43380511 0.0 0.32415262 0.44155067 0.0 0.34408236 0.45138845 0.0 0.35871276 0.46370628 0.0 0.36379799 0.5780223 0.0 0.29604706 0.57932299 0.0 0.30123946 0.58324307 0.0 0.31597343 0.58982772 0.0 0.33771622 0.59914416 0.0 0.36252263 0.61126095 0.0 0.38574541 0.62624991 0.0 0.40249798 0.64422786 0.0 0.40745512 0.66900361 0.0 0.31994721 0.67069942 0.0 0.3256636 0.67580938 0.0 0.34188512 0.68439114 0.0 0.36581159 0.69651932 0.0 0.39303926 0.71222961 0.0 0.41829053 0.73145109 0.0 0.43591109 0.75396347 0.0 0.43977198 0.68921179 0.0 0.33759147 0.69114709 0.0 0.34362128 0.69697911 0.0 0.36072403 0.70678186 0.0 0.38590264 0.72063929 0.0 0.41440728 0.73856288 0.0 0.44048506 0.76035303 0.0 0.45794585 0.78546518 0.0 0.46019226 0.65918726 0.0 0.34861663 0.66119951 0.0 0.35477453 0.66726649 0.0 0.37222987 0.67747205 0.0 0.39787191 0.6919052 0.0 0.42673579 0.71056008 0.0 0.45277542 0.73315442 0.0 0.4695085 0.75891888 0.0 0.47016615 0.60628712 0.0 0.35325369 0.60825002 0.0 0.35940152 0.61417174 0.0 0.37681907 0.6241374 0.0 0.40236217 0.63823628 0.0 0.43098223 0.65645987 0.0 0.45651755 0.67850029 0.0 0.47239962 0.7035017 0.0 0.4718979 0.54947329 0.0 0.35207087 0.55131501 0.0 0.35811722 0.55687064 0.0 0.37524387 0.56622189 0.0 0.40033743 0.57945782 0.0 0.42838126 0.59657729 0.0 0.45324489 0.61729914 0.0 0.46842152 0.64080352 0.0 0.46734259 0.49351346 0.0 0.34576556 0.49520576 0.0 0.35165137 0.50030947 0.0 0.36832619 0.50889981 0.0 0.39275953 0.52106553 0.0 0.42005333 0.53682888 0.0 0.44421509 0.55596977 0.0 0.45889488 0.57779634 0.0 0.45774797 0.43246549 0.0 0.33506408 0.4339993 0.0 0.34074479 0.43862477 0.0 0.35684785 0.44640842 0.0 0.38046616 0.4574452 0.0 0.40688211 0.47179469 0.0 0.43030769 0.48933682 0.0 0.44461092 0.50957566 0.0 0.44371146 0.35842553 0.0 0.32070944 0.35978359 0.0 0.32614353 0.36387902 0.0 0.34155959 0.37077671 0.0 0.36420676 0.38058367 0.0 0.3895925 0.3934122 0.0 0.41217566 0.40928078 0.0 0.42608258 0.42795876 0.0 0.42553818 0.27008793 0.0 0.30347067 0.27122971 0.0 0.30861536 0.27467695 0.0 0.32322627 0.2804991 0.0 0.3447316 0.2888225 0.0 0.36889836 0.29982764 0.0 0.39046529 0.31370097 0.0 0.40385237 0.33053514 0.0 0.40362918 0.17579268 0.0 0.2841416 0.17666022 0.0 0.28895891 0.17928807 0.0 0.30265403 0.18375875 0.0 0.32284915 0.19022854 0.0 0.34559777 0.19895384 0.0 0.36595047 0.21030127 0.0 0.37865713 0.22470817 0.0 0.37866622 0.088409081 0.0 0.26351264 0.088963725 0.0 0.26797381 0.09065944 0.0 0.28066701 0.093598351 0.0 0.29941347 0.09797423300000001 0.0 0.32056877 0.10411787 0.0 0.33952898 0.11256073 0.0 0.351412 0.12405477 0.0 0.35157189 0.017549535 0.0 0.24235518 0.017803386 0.0 0.246443 0.018605234 0.0 0.25807941 0.020080818 0.0 0.27527997 0.022462088999999998 0.0 0.29471004 0.026143175 0.0 0.31214195 0.031785838 0.0 0.32309762 0.040389806 0.0 0.32335532 -0.033665206 0.0 0.22139993 -0.033653889 0.0 0.22510508 -0.033570848 0.0 0.23565106 -0.033264875 0.0 0.25124112 -0.032466441 0.0 0.26885426 -0.030728245 0.0 0.28466594 -0.027295137 0.0 0.294633 -0.020995464 0.0 0.2949709 -0.067405634 0.0 0.20126899 -0.067553245 0.0 0.20458406 -0.067937478 0.0 0.21401528 -0.068380944 0.0 0.22794843 -0.068573169 0.0 0.24368191 -0.068014383 0.0 0.25781766 -0.065885857 0.0 0.26677632 -0.060913634 0.0 0.26722318 -0.088243037 0.0 0.18240778 -0.088462576 0.0 0.18532445 -0.089054152 0.0 0.1936155 -0.08981390300000001 0.0 0.20585142 -0.09038224800000001 0.0 0.21966577 -0.09019441199999999 0.0 0.23210974 -0.088374883 0.0 0.24009533 -0.083607212 0.0 0.2407496 -0.10050632 0.0 0.16504174 -0.10072394 0.0 0.16755119 -0.10130195 0.0 0.17467913 -0.10200772 0.0 0.18519422 -0.10242245 0.0 0.19708845 -0.10189388 0.0 0.20788597 -0.099472798 0.0 0.21501453 -0.09385663300000001 0.0 0.21607116 -0.10692947 0.0 0.14917512 -0.10708872 0.0 0.15127492 -0.10748106 0.0 0.15724038 -0.10783629 0.0 0.16606055 -0.10765807 0.0 0.17611459 -0.10618372 0.0 0.18542275 -0.10239497 0.0 0.1919324 -0.095101431 0.0 0.19370031 -0.1086309 0.0 0.13464658 -0.10868411 0.0 0.13635318 -0.10873914 0.0 0.14121704 -0.10846172 0.0 0.14847286 -0.10724934 0.0 0.15691243 -0.10423933 0.0 0.16505872 -0.098427691 0.0 0.17133857 -0.089092597 0.0 0.17425025 -0.10585432 0.0 0.1212589 -0.10573547 0.0 0.1226257 -0.10523709 0.0 0.12655661 -0.10392929 0.0 0.13254687 -0.10111249 0.0 0.13979617 -0.095921345 0.0 0.14728723 -0.087634221 0.0 0.15384893 -0.076833412 0.0 0.15836738 -0.09814891199999999 0.0 0.10899732 -0.09774202900000001 0.0 0.11012795 -0.096346691 0.0 0.11343135 -0.09347485 0.0 0.11863908 -0.08843714 0.0 0.12529495 -0.080633059 0.0 0.13273908 -0.07040730099999999 0.0 0.14009193 -0.059940270999999996 0.0 0.14637423 -0.083806567 0.0 0.098249234 -0.082999058 0.0 0.09928909699999999 -0.080411755 0.0 0.10237511 -0.075629599 0.0 0.10738934 -0.068314165 0.0 0.11408132 -0.058808848 0.0 0.1219739 -0.048766684000000005 0.0 0.13027225 -0.041236407999999995 0.0 0.13789937 -0.060490418 0.0 0.089871325 -0.059297688 0.0 0.090973943 -0.055689454000000006 0.0 0.094239525 -0.049669005 0.0 0.09954236400000001 -0.041694447 0.0 0.10662403 -0.033043809 0.0 0.11498316 -0.02617529 0.0 0.12376045 -0.024194481 0.0 0.13174184 -0.028254751 0.0 0.084979899 -0.027000222 0.0 0.086216331 -0.023402711 0.0 0.089814454 -0.018019646 0.0 0.095470741 -0.012027441000000002 0.0 0.1027244 -0.007328419 0.0 0.11094421 -0.0066251792 0.0 0.11919501 -0.011886228 0.0 0.12652022 0.0087531516 0.0 0.084294058 0.0095818769 0.0 0.08559861 0.011778125 0.0 0.08931676300000001 0.014352083 0.0 0.094887629 0.015672022 0.0 0.10159267 0.013556902 0.0 0.10867532 0.0066217962 0.0 0.11566263 -0.0023692236 0.0 0.12270005 0.043707672999999996 0.0 0.087597743 0.04365104400000001 0.0 0.088842429 0.043099754000000004 0.0 0.092285126 0.040861182 0.0 0.097133271 0.03558971 0.0 0.10262372 0.027240299 0.0 0.10857555 0.020080991 0.0 0.11551648 0.020969812 0.0 0.12349367 0.06742712099999999 0.0 0.09383603199999999 0.066293947 0.0 0.094952799 0.062814571 0.0 0.098011069 0.057388622 0.0 0.10240465 0.052163072000000005 0.0 0.10787914 0.051611125 0.0 0.11423768 0.057746835 0.0 0.12096325 0.063583083 0.0 0.12850039 0.10871249 0.0 0.10156398 0.10815775 0.0 0.10259452 0.10678806 0.0 0.10546714 0.10533497 0.0 0.10985024 0.10453577 0.0 0.11570923 0.1010962 0.0 0.1226478 0.09523776199999999 0.0 0.1284108 0.086076178 0.0 0.13037905 0.17461601 0.0 0.10944727 0.17193921 0.0 0.11036044 0.16355766 0.0 0.11303924 0.14768074 0.0 0.11781129 0.1234212 0.0 0.12553599 0.10294104 0.0 0.13277107 0.081108779 0.0 0.1321346 0.13870271 0.0 0.11661072 0.13386872 0.0 0.11747973 0.11885114 0.0 0.12045705 0.09425503 0.0 0.12734681 0.070692867 0.0 0.13712604 -0.0038106790999999996 0.0 0.00013965985 -0.0036919899 0.0 0.00014244947 -0.0035168405 0.0 0.00012785546999999998 -0.0032676281 0.0 8.710854999999999e-05 -0.0029295592 0.0 1.6957204999999998e-05 -0.0024994111 0.0 -7.5043223e-05 -0.0019958224 0.0 -0.00016719488000000002 -0.0047613075 0.0 0.00019550860000000001 -0.004627862 0.0 0.00020015497 -0.0044248574 0.0 0.00018117315 -0.0041287383 0.0 0.00012630968 -0.0037189745 0.0 3.0599716e-05 -0.0031896611 0.0 -9.653581899999999e-05 -0.0025630156 0.0 -0.00022675727000000002 -0.0018966319 0.0 -0.00031738227999999997 -0.0057643726000000005 0.0 0.00025436372 -0.0056242919999999995 0.0 0.00026171572999999994 -0.005401420400000001 0.0 0.00023928532000000002 -0.0050646644 0.0 0.00017077348000000002 -0.0045854496 0.0 4.8878050000000005e-05 -0.0039526257 0.0 -0.00011550079 -0.0031902606 0.0 -0.00028741756000000003 -0.0023694810999999997 0.0 -0.00041426369 -0.0069216602000000006 0.0 0.0003151584 -0.0067818188 0.0 0.00032630068 -0.0065447809 0.0 0.00030184408999999997 -0.0061697932 0.0 0.00022071606 -0.0056172404 0.0 7.2379422e-05 -0.0048678382 0.0 -0.00013139375 -0.0039469497 0.0 -0.00034868297999999994 -0.0029423266999999997 0.0 -0.0005143968200000001 -0.0083371392 0.0 0.00038006422 -0.008203947 0.0 0.00039617394000000003 -0.0079572527 0.0 0.00037103468999999997 -0.0075439693999999995 0.0 0.00027796399 -0.006910168100000001 0.0 0.00010224248 -0.0060277740000000005 0.0 -0.00014411079 -0.0049227001 0.0 -0.00041172822000000003 -0.0036981842 0.0 -0.00062065077 -0.010104144 0.0 0.00045455794 -0.0099851741 0.0 0.00047682913 -0.0097342804 0.0 0.0004519597 -0.0092849145 0.0 0.00034700675 -0.0085732359 0.0 0.0001419632 -0.007561814 0.0 -0.00015234965 -0.006267755799999999 0.0 -0.00047896573 -0.0047967327 0.0 -0.00073937047 -0.012301912 0.0 0.0005476899099999999 -0.012207706 0.0 0.00057818665 -0.01196389 0.0 0.00055559102 -0.011499934 0.0 0.00044001336 -0.010749678 0.0 0.00020290789 -0.0096623218 0.0 -0.00014932433 -0.0082280571 0.0 -0.0005514095500000001 -0.0065100244 0.0 -0.00087884406 -0.015001713 0.0 0.00067349547 -0.014947993 0.0 0.00071811379 -0.014738484 0.0 0.00070514967 -0.014312773 0.0 0.00058431184 -0.013613161 0.0 0.00031142341 -0.012577058 0.0 -0.00011694775 -0.011140411999999999 0.0 -0.0006253635500000001 -0.0092445184 0.0 -0.0010479467 -0.018280948 0.0 0.0008538576699999999 -0.018293058 0.0 0.00092721981 -0.018161986 0.0 0.0009416518699999999 -0.017852239 0.0 0.00082886522 -0.01733176 0.0 0.0005170316400000001 -0.016543452 0.0 -1.7640821e-05 -0.015354313999999999 0.0 -0.00068627438 -0.013485768 0.0 -0.0012554525 -0.022237972999999998 0.0 0.001120646 -0.022350434 0.0 0.0012507273 -0.022348735 0.0 0.0013250264000000001 -0.022231228999999998 0.0 0.0012473257 -0.022009276 0.0 0.00090101198 -0.02166234 0.0 0.00021947554 -0.021016221 0.0 -0.0007017285099999999 -0.019513128 0.0 -0.0015227907999999998 -0.026988652000000002 0.0 0.0015140760999999999 -0.02724096 0.0 0.0017443672 -0.027412204 0.0 0.0019289381 -0.027529208 0.0 0.0019351785 -0.027646765 0.0 0.0015764770000000002 -0.027796544 0.0 0.00070261484 -0.027808762999999997 0.0 -0.00061839115 -0.026878892999999997 0.0 -0.0018843169000000001 -0.032659896 0.0 0.0020762184 -0.033093147 0.0 0.0024638923 -0.033467252 0.0 0.0028260967 -0.033815343 0.0 0.0029902079 -0.034204733 0.0 0.0026817559000000004 -0.034684964 0.0 0.0016316829999999999 -0.035072576 0.0 -0.00010897953000000001 -0.034284271 0.0 -0.0015482685999999998 -0.039389342 0.0 0.0028421616 -0.040046431 0.0 0.0034516598 -0.040647 0.0 0.0040673492 -0.041202284 0.0 0.0044849976 -0.041749492 0.0 0.0043619154 -0.042302582000000005 0.0 0.0033997034 -0.042650062999999995 0.0 0.0019300105 -0.041697111 0.0 0.0018589788000000001 -0.047325369000000006 0.0 0.0038329614000000003 -0.048252992 0.0 0.0047271191 -0.049110238 0.0 0.0056657246 -0.049868718 0.0 0.0064343633 -0.050512351 0.0 0.0066721728 -0.051003259 0.0 0.006174929399999999 -0.051137209 0.0 0.0057475958 -0.050082802999999995 0.0 0.0073534637 -0.056628912999999996 0.0 0.0050538098 -0.057878625 0.0 0.0062880875 -0.059034865 0.0 0.0075994194 -0.060028202999999995 0.0 0.008777746 -0.060795575 0.0 0.0094980616 -0.061261725 0.0 0.0096575161 -0.06125883 0.0 0.010347331999999999 -0.060268025999999995 0.0 0.012879422 -0.067476884 0.0 0.0064972537 -0.069107987 0.0 0.0081216199 -0.0706148 0.0 0.0098393243 -0.071894877 0.0 0.011440078999999999 -0.072860286 0.0 0.012624241999999999 -0.073429957 0.0 0.013370181 -0.07349216900000001 0.0 0.014758829 -0.072770208 0.0 0.017571531 -0.08006364099999999 0.0 0.008149067900000001 -0.082152478 0.0 0.010215284 -0.08407389400000001 0.0 0.012375623999999998 -0.085696496 0.0 0.014392924 -0.086924993 0.0 0.01597715 -0.08770129800000001 0.0 0.017122191999999998 -0.08798638 0.0 0.018796546 -0.08768905 0.0 0.021668697 -0.09459807 0.0 0.0099917743 -0.09725038 0.0 0.012558008999999998 -0.099681869 0.0 0.015216601000000001 -0.10172082 0.0 0.017682895 -0.10326242 0.0 0.019634818999999998 -0.1042775 0.0 0.021017917 -0.10480119 0.0 0.022758136 -0.10489316 0.0 0.025582364 -0.11129539 0.0 0.012004141999999999 -0.11465356 0.0 0.01513687 -0.11773922 0.0 0.018372338000000002 -0.12032495 0.0 0.021363534 -0.12227302 0.0 0.023730291 -0.1235617 0.0 0.025345331000000002 -0.12427379 0.0 0.027131513 -0.12455676 0.0 0.029953652999999997 -0.13036685 0.0 0.014159254 -0.1346104 0.0 0.017926075 -0.13854717 0.0 0.021834454 -0.14187931 0.0 0.025459806 -0.14441887 0.0 0.028354342999999997 -0.14612597 0.0 0.030324168999999998 -0.14709751 0.0 0.032321288999999996 -0.14752051 0.0 0.035246477000000005 -0.15200573 0.0 0.016427881999999998 -0.15734549 0.0 0.020878643 -0.16238208 0.0 0.02555871 -0.16673069 0.0 0.029947137000000002 -0.17013134 0.0 0.033515468 -0.17250557 0.0 0.03603996 -0.17395067 0.0 0.0385236 -0.1746833 0.0 0.041719813 -0.17636402 0.0 0.018795533 -0.18302667 0.0 0.023931503 -0.189454 0.0 0.029455077000000003 -0.19515875 0.0 0.034726504 -0.19978045 0.0 0.039115135 -0.20317186 0.0 0.042424407000000004 -0.20540722 0.0 0.045802987999999996 -0.20672075 0.0 0.049586549 -0.20348765 0.0 0.021299837000000002 -0.21169016 0.0 0.027034218999999998 -0.21981898 0.0 0.033401001 -0.22727461 0.0 0.039618086000000004 -0.23356563 0.0 0.044910545999999996 -0.23843594 0.0 0.049184211 -0.24190091 0.0 0.05405096 -0.24419065 0.0 0.058996987 -0.23316646 0.0 0.024090469 -0.24307655 0.0 0.030208573 -0.25319532 0.0 0.03729501 -0.26281235 0.0 0.044402573 -0.27127743 0.0 0.050530760999999993 -0.27818307 0.0 0.055772517 -0.2834405 0.0 0.062839828 -0.28723782 0.0 0.069981351 -0.2646732 0.0 0.027502367000000003 -0.27636012 0.0 0.033638649 -0.28866965 0.0 0.041158766 -0.30079633 0.0 0.04890715 -0.31191617 0.0 0.055557836 -0.32143655 0.0 0.061387977999999996 -0.32911652 0.0 0.071288042 -0.33504713 0.0 0.082142249 -0.29643959 0.0 0.03212437 -0.30982226 0.0 0.037779052 -0.32435137 0.0 0.045278292000000005 -0.339158 0.0 0.053215444 -0.35325325 0.0 0.059742197000000004 -0.36584699 0.0 0.065191641 -0.37650669 0.0 0.07807762900000001 -0.38515744 0.0 0.09478198 -0.32578373 0.0 0.038850665 -0.34057733 0.0 0.043471485 -0.35707921 0.0 0.050377917 -0.37440634 0.0 0.057874765 -0.3914527 0.0 0.063364059 -0.40725568 0.0 0.066575065 -0.42117026 0.0 0.081756137 -0.43288076 0.0 0.10652363 -0.34880874 0.0 0.048919737000000005 -0.36446559 0.0 0.052037332 -0.38231027 0.0 0.057755365999999995 -0.4015131 0.0 0.064035572 -0.42093807 0.0 0.06720886400000001 -0.43952036 0.0 0.065867461 -0.45642325 0.0 0.081012376 -0.47104141 0.0 0.11545182 -0.360488 0.0 0.063894749 -0.37615934 0.0 0.065227315 -0.39426017 0.0 0.069173791 -0.4140712 0.0 0.073389463 -0.43452713 0.0 0.07281626 -0.45459086 0.0 0.06413743599999999 -0.47334406 0.0 0.07565935 -0.48993981 0.0 0.11952882 -0.35425964 0.0 0.085484862 -0.36880338 0.0 0.08491483300000001 -0.3855989 0.0 0.08651096400000001 -0.40401608 0.0 0.087780304 -0.42318976 0.0 0.081917517 -0.4423404 0.0 0.063831873 -0.46069038 0.0 0.06749972 -0.47731307 0.0 0.11782642 -0.32086486 0.0 0.11517107 -0.3328464 0.0 0.11255085 -0.34629798 0.0 0.11091399 -0.36067066 0.0 0.10800158 -0.37548965 0.0 0.09620779 -0.39050347 0.0 0.068884768 -0.40530732 0.0 0.062377758 -0.41907725 0.0 0.11252175 -0.24862011 0.0 0.15366477 -0.25631905 0.0 0.14861806 -0.26410782 0.0 0.14240335 -0.27162027 0.0 0.13299702 -0.27894908 0.0 0.11469282 -0.28652123 0.0 0.08345428099999999 -0.29444554 0.0 0.068718575 -0.3020995 0.0 0.10951838 -0.12718354 0.0 0.20027868 -0.12889169 0.0 0.19207433 -0.12897775 0.0 0.17967851 -0.12738384 0.0 0.16158774 -0.12484118 0.0 0.13725261 -0.12245372 0.0 0.11128069 -0.12081899 0.0 0.084315255 -0.11955222 0.0 0.11173867 0.045828741 0.0 0.25246012 0.051253621 0.0 0.24005565 0.059868049000000007 0.0 0.22031213 0.071400635 0.0 0.19493333 0.084637158 0.0 0.17369205 0.098017715 0.0 0.15688244 0.1105266 0.0 0.096548527 0.12208791 0.0 0.11127954 0.25807622 0.0 0.30584469 0.27080667 0.0 0.28807366 0.28758904 0.0 0.26027355 0.30790436 0.0 0.22938688 0.33044553 0.0 0.21254525 0.35362849 0.0 0.19251032 0.37610811 0.0 0.095653802 0.39679077 0.0 0.10047481 0.47915816 0.0 0.35508278 0.49844238 0.0 0.33099592 0.52154613 0.0 0.29496706 0.54767734 0.0 0.25871891 0.57574791 0.0 0.2418348 0.60459721 0.0 0.21386899 0.63268304 0.0 0.079761632 0.65765357 0.0 0.087322071 0.66541082 0.0 0.39536363 0.68985599 0.0 0.36454511 0.71682727 0.0 0.31998283 0.74508888 0.0 0.27681014 0.77364677 0.0 0.2544145 0.80180985 0.0 0.20657936 0.82830453 0.0 0.048878171 0.85093093 0.0 0.070653461 0.77938008 0.0 0.42400259 0.80695492 0.0 0.38690466 0.83519483 0.0 0.33385718 0.86236656 0.0 0.27978599 0.88734704 0.0 0.24072297 0.90975791 0.0 0.17237608 0.92926353 0.0 0.0089453971 0.94535369 0.0 0.051397022 0.8129366 0.0 0.44112968 0.84130305 0.0 0.39928579 0.86850822 0.0 0.34033778 0.89249378 0.0 0.27847993 0.9120785 0.0 0.22663009 0.92723399 0.0 0.14593402 0.93861604 0.0 -0.014753736000000002 0.94727606 0.0 0.044563655 0.78647679 0.0 0.44873396 0.81385773 0.0 0.40409943 0.83870178 0.0 0.34215719 0.85887456 0.0 0.27656704 0.87329125 0.0 0.2187518 0.88222975 0.0 0.13364607 0.88696516 0.0 -0.021323526000000002 0.88936949 0.0 0.047490258 0.72989869 0.0 0.4492504 0.75547707 0.0 0.40371603 0.77775997 0.0 0.34130591 0.79470021 0.0 0.27544078 0.80539697 0.0 0.21758097 0.81034309 0.0 0.13371366 0.81103379 0.0 -0.016427183999999997 0.80945551 0.0 0.056496545999999995 0.66555876 0.0 0.44455943 0.68935066 0.0 0.39963454 0.70971608 0.0 0.33859351 0.72471046 0.0 0.27486354 0.73359954 0.0 0.22094728 0.73699343 0.0 0.14276876 0.73635024 0.0 -0.0044054301 0.73338228 0.0 0.067537978 0.60097152 0.0 0.43564191 0.62348181 0.0 0.39234868 0.6429736 0.0 0.33378485 0.65755653 0.0 0.2731474 0.66654068 0.0 0.2238342 0.67052335 0.0 0.15110604 0.67079437 0.0 0.0071254373 0.66869253 0.0 0.076059312 0.53147584 0.0 0.42278221 0.55335701 0.0 0.38172859 0.57306385 0.0 0.3262606 0.58870602 0.0 0.2690925 0.59945869 0.0 0.22365904 0.60572553 0.0 0.15462698 0.60852158 0.0 0.015854955 0.6088298 0.0 0.07996083799999999 0.44880661 0.0 0.40603009 0.47058547 0.0 0.36755085 0.49141738 0.0 0.31553632 0.50936484 0.0 0.26193035 0.52328098 0.0 0.21947847 0.53314346 0.0 0.15360184 0.5395568 0.0 0.022805864 0.54317188 0.0 0.081795178 0.35017666 0.0 0.38562101 0.37195551 0.0 0.34990057 0.3944006 0.0 0.30157205 0.41553667 0.0 0.25152072 0.43370953 0.0 0.21040234 0.44818586 0.0 0.14798072 0.45898849 0.0 0.028224181 0.46647906 0.0 0.082182854 0.24254963 0.0 0.36216858 0.26382571 0.0 0.32931688 0.28765795 0.0 0.28484079 0.31219226 0.0 0.23826095 0.33520174 0.0 0.19800051 0.3549439 0.0 0.13951935 0.37066925 0.0 0.032880797999999996 0.3824538 0.0 0.07997299 0.13946921 0.0 0.3365804 0.15947856 0.0 0.30667454 0.18388669 0.0 0.26619342 0.21115345 0.0 0.22343783 0.2386746 0.0 0.18474351 0.26371258 0.0 0.13087639 0.2845881 0.0 0.036686547 0.30096373 0.0 0.076944962 0.053229209000000006 0.0 0.3098686 0.071561672 0.0 0.28295401 0.095809497 0.0 0.24654044 0.12478503 0.0 0.20803685 0.1557564 0.0 0.1729243 0.18540989 0.0 0.12263296 0.21127802 0.0 0.037460137000000004 0.23231526 0.0 0.073021375 -0.01026072 0.0 0.28300336 0.0066045839000000005 0.0 0.25910947 0.030416295 0.0 0.22683187 0.060137749000000004 0.0 0.19255358 0.09319039400000001 0.0 0.16252334 0.1262318 0.0 0.11519255 0.15641195 0.0 0.035862055 0.18161933 0.0 0.065236196 -0.051351085 0.0 0.25683305 -0.035310991 0.0 0.23605433 -0.012094595 0.0 0.20818138 0.017308911 0.0 0.17825061 0.050879437 0.0 0.15304622 0.085851513 0.0 0.10838597 0.11936148 0.0 0.03220164 0.14785416 0.0 0.052182537 -0.07411629 0.0 0.23208775 -0.05836387 0.0 0.21472991 -0.036245145 0.0 0.19169901 -0.0085887993 0.0 0.16678183 0.023695819 0.0 0.14530371 0.059018675 0.0 0.10500204 0.094823524 0.0 0.030594934 0.12708834 0.0 0.033929039 -0.083558425 0.0 0.20945962 -0.068104364 0.0 0.19599994 -0.04814457900000001 0.0 0.17808807 -0.024087247000000003 0.0 0.15888163 0.0048105041 0.0 0.14094545 0.038920712 0.0 0.10334815 0.077235445 0.0 0.034615964 0.11820618 0.0 0.029709075 -0.083709717 0.0 0.18959998 -0.06934103400000001 0.0 0.1804394 -0.053221690999999995 0.0 0.16792576 -0.034725368 0.0 0.15441176 -0.011056015 0.0 0.13986929 0.021671716 0.0 0.10773256 0.065250374 0.0 0.053036422 0.12571201 0.0 0.055506863 -0.077291548 0.0 0.17308857 -0.06551441599999999 0.0 0.16827641 -0.054973949 0.0 0.16083066 -0.043430924 0.0 0.15205003 -0.025471391 0.0 0.13958147 0.0070860703 0.0 0.11098322 0.059857747999999995 0.0 0.070912041 0.14614448 0.0 0.075318545 -0.066200383 0.0 0.16019151 -0.058824636 0.0 0.15923627 -0.055055997999999995 0.0 0.15586808 -0.050384399 0.0 0.15009788 -0.035806122999999995 0.0 0.13805605 -0.0018733934 0.0 0.10769179 0.06092428 0.0 0.081459358 -0.052664544 0.0 0.1506983 -0.051188417 0.0 0.1525211 -0.054081198 0.0 0.15158294 -0.05328365400000001 0.0 0.14702994 -0.037509818 0.0 0.13373825 0.00029987446 0.0 0.10599671 0.068837963 0.0 0.09166465 -0.039426193 0.0 0.14369364 -0.044321503 0.0 0.14686432 -0.051081784000000005 0.0 0.14702456 -0.047594792999999996 0.0 0.14407024 -0.026239041 0.0 0.12929554 0.017270362 0.0 0.10936501 -0.029032403999999998 0.0 0.13780388 -0.038066894 0.0 0.14140242 -0.040989637 0.0 0.14371328 -0.028259372 0.0 0.14170225 0.0016007255999999999 0.0 0.13064401 0.045786299 0.0 0.11436819 -0.021106606 0.0 0.13245696 -0.025353489 0.0 0.13821726 -0.016659025 0.0 0.14322577 0.0075290417 0.0 0.14179917 0.039155483 0.0 0.13159488 -0.0052037062 0.0 0.13043208 0.0034416937 0.0 0.13872689 0.025526211 0.0 0.14409684 0.051511562999999996 0.0 0.14014664 0.030754117 0.0 0.13290296 0.04775963 0.0 0.14048897 0.070553727 0.0 0.14364111 0.07298424099999999 0.0 0.12618917 0.07044486700000001 0.0 0.13460279 0.075381562 0.0 0.13550001 0.073761165 0.0 0.12769115 
Force 3 2975 float
0.0 0.0 0.0 0.0 0.0 0.0 0.0 0.0 0.0 0.0 0.0 0.0 0.0 0.0 0.0 0.0 0.0 0.0 0.0 0.0 0.0 0.0 0.0 0.0 0.0 0.0 0.0 0.0 0.0 0.0 0.0 0.0 0.0 0.0 0.0 0.0 0.0 0.0 0.0 0.0 0.0 0.0 0.0 0.0 0.0 0.0 0.0 0.0 0.0 0.0 0.0 0.0 0.0 0.0 0.0 0.0 0.0 0.0 0.0 0.0 0.0 0.0 0.0 0.0 0.0 0.0 0.0 0.0 0.0 0.0 0.0 0.0 0.0 0.0 0.0 0.0 0.0 0.0 0.0 0.0 0.0 0.0 0.0 0.0 0.0 0.0 0.0 0.0 0.0 0.0 0.0 0.0 0.0 0.0 0.0 0.0 0.0 0.0 0.0 0.0 0.0 0.0 0.0 0.0 0.0 0.0 0.0 0.0 0.0 0.0 0.0 0.0 0.0 0.0 0.0 0.0 0.0 0.0 0.0 0.0 0.0 0.0 0.0 0.0 0.0 0.0 0.0 0.0 0.0 0.0 0.0 0.0 0.0 0.0 0.0 0.0 0.0 0.0 0.0 0.0 0.0 0.0 0.0 0.0 0.0 0.0 0.0 0.0 0.0 0.0 0.0 0.0 0.0 0.0 0.0 0.0 0.0 0.0 0.0 0.0 0.0 0.0 0.0 0.0 0.0 0.0 0.0 0.0 0.0 0.0 0.0 0.0 0.0 0.0 0.0 0.0 0.0 0.0 0.0 0.0 0.0 0.0 0.0 0.0 0.0 0.0 0.0 0.0 0.0 0.0 0.0 0.0 0.0 0.0 0.0 0.0 0.0 0.0 0.0 0.0 0.0 0.0 0.0 0.0 0.0 0.0 0.0 0.0 0.0 0.0 0.0 0.0 0.0 0.0 0.0 0.0 0.0 0.0 0.0 0.0 0.0 0.0 0.0 0.0 0.0 0.0 0.0 0.0 0.0 0.0 0.0 0.0 0.0 0.0 0.0 0.0 0.0 0.0 0.0 0.0 0.0 0.0 0.0 0.0 0.0 0.0 0.0 0.0 0.0 0.0 0.0 0.0 0.0 0.0 0.0 0.0 0.0 0.0 0.0 0.0 0.0 0.0 0.0 0.0 0.0 0.0 0.0 0.0 0.0 0.0 0.0 0.0 0.0 0.0 0.0 0.0 0.0 0.0 0.0 0.0 0.0 0.0 0.0 0.0 0.0 0.0 0.0 0.0 0.0 0.0 0.0 0.0 0.0 0.0 0.0 0.0 0.0 0.0 0.0 0.0 0.0 0.0 0.0 0.0 0.0 0.0 0.0 0.0 0.0 0.0 0.0 0.0 0.0 0.0 0.0 0.0 0.0 0.0 0.0 0.0 0.0 0.0 0.0 0.0 0.0 0.0 0.0 0.0 0.0 0.0 0.0 0.0 0.0 0.0 0.0 0.0 0.0 0.0 0.0 0.0 0.0 0.0 0.0 0.0 0.0 0.0 0.0 0.0 0.0 0.0 0.0 0.0 0.0 0.0 0.0 0.0 0.0 0.0 0.0 0.0 0.0 0.0 0.0 0.0 0.0 0.0 0.0 0.0 0.0 0.0 0.0 0.0 0.0 0.0 0.0 0.0 0.0 0.0 0.0 0.0 0.0 0.0 0.0 0.0 0.0 0.0 0.0 0.0 0.0 0.0 0.0 0.0 0.0 0.0 0.0 0.0 0.0 0.0 0.0 0.0 0.0 0.0 0.0 0.0 0.0 0.0 0.0 0.0 0.0 0.0 0.0 0.0 0.0 0.0 0.0 0.0 0.0 0.0 0.0 0.0 0.0 0.0 0.0 0.0 0.0 0.0 0.0 0.0 0.0 0.0 0.0 0.0 0.0 0.0 0.0 0.0 0.0 0.0 0.0 0.0 0.0 0.0 0.0 0.0 0.0 0.0 0.0 0.0 0.0 0.0 0.0 0.0 0.0 0.0 0.0 0.0 0.0 0.0 0.0 0.0 0.0 0.0 0.0 0.0 0.0 0.0 0.0 0.0 0.0 0.0 0.0 0.0 0.0 0.0 0.0 0.0 0.0 0.0 0.0 0.0 0.0 0.0 0.0 0.0 0.0 0.0 0.0 0.0 0.0 0.0 0.0 0.0 0.0 0.0 0.0 0.0 0.0 0.0 0.0 0.0 0.0 0.0 0.0 0.0 0.0 0.0 0.0 0.0 0.0 0.0 0.0 0.0 0.0 0.0 0.0 0.0 0.0 0.0 0.0 0.0 0.0 0.0 0.0 0.0 0.0 0.0 0.0 0.0 0.0 0.0 0.0 0.0 0.0 0.0 0.0 0.0 0.0 0.0 0.0 0.0 0.0 0.0 0.0 0.0 0.0 0.0 0.0 0.0 0.0 0.0 0.0 0.0 0.0 0.0 0.0 0.0 0.0 0.0 0.0 0.0 0.0 0.0 0.0 0.0 0.0 0.0 0.0 0.0 0.0 0.0 0.0 0.0 0.0 0.0 0.0 0.0 0.0 0.0 0.0 0.0 0.0 0.0 0.0 0.0 0.0 0.0 0.0 0.0 0.0 0.0 0.0 0.0 0.0 0.0 0.0 0.0 0.0 0.0 0.0 0.0 0.0 0.0 0.0 0.0 0.0 0.0 0.0 0.0 0.0 0.0 0.0 0.0 0.0 0.0 0.0 0.0 0.0 0.0 0.0 0.0 0.0 0.0 0.0 0.0 0.0 0.0 0.0 0.0 0.0 0.0 0.0 0.0 0.0 0.0 0.0 0.0 0.0 0.0 0.0 0.0 0.0 0.0 0.0 0.0 0.0 0.0 0.0 0.0 0.0 0.0 0.0 0.0 0.0 0.0 0.0 0.0 0.0 0.0 0.0 0.0 0.0 0.0 0.0 0.0 0.0 0.0 0.0 0.0 0.0 0.0 0.0 0.0 0.0 0.0 0.0 0.0 0.0 0.0 0.0 0.0 0.0 0.0 0.0 0.0 0.0 0.0 0.0 0.0 0.0 0.0 0.0 0.0 0.0 0.0 0.0 0.0 0.0 0.0 0.0 0.0 0.0 0.0 0.0 0.0 0.0 0.0 0.0 0.0 0.0 0.0 0.0 0.0 0.0 0.0 0.0 0.0 0.0 0.0 0.0 0.0 0.0 0.0 0.0 0.0 0.0 0.0 0.0 0.0 0.0 0.0 0.0 0.0 0.0 0.0 0.0 0.0 0.0 0.0 0.0 0.0 0.0 0.0 0.0 0.0 0.0 0.0 0.0 0.0 0.0 0.0 0.0 0.0 0.0 0.0 0.0 0.0 0.0 0.0 0.0 0.0 0.0 0.0 0.0 0.0 0.0 0.0 0.0 0.0 0.0 0.0 0.0 0.0 0.0 0.0 0.0 0.0 0.0 0.0 0.0 0.0 0.0 0.0 0.0 0.0 0.0 0.0 0.0 0.0 0.0 0.0 0.0 0.0 0.0 0.0 0.0 0.0 0.0 0.0 0.0 0.0 0.0 0.0 0.0 0.0 0.0 0.0 0.0 0.0 0.0 0.0 0.0 0.0 0.0 0.0 0.0 0.0 0.0 0.0 0.0 0.0 0.0 0.0 0.0 0.0 0.0 0.0 0.0 0.0 0.0 0.0 0.0 0.0 0.0 0.0 0.0 0.0 0.0 0.0 0.0 0.0 0.0 0.0 0.0 0.0 0.0 0.0 0.0 0.0 0.0 0.0 0.0 0.0 0.0 0.0 0.0 0.0 0.0 0.0 0.0 0.0 0.0 0.0 0.0 0.0 0.0 0.0 0.0 0.0 0.0 0.0 0.0 0.0 0.0 0.0 0.0 0.0 0.0 0.0 0.0 0.0 0.0 0.0 0.0 0.0 0.0 0.0 0.0 0.0 0.0 0.0 0.0 0.0 0.0 0.0 0.0 0.0 0.0 0.0 0.0 0.0 0.0 0.0 0.0 0.0 0.0 0.0 0.0 0.0 0.0 0.0 0.0 0.0 0.0 0.0 0.0 0.0 0.0 0.0 0.0 0.0 0.0 0.0 0.0 0.0 0.0 0.0 0.0 0.0 0.0 0.0 0.0 0.0 0.0 0.0 0.0 0.0 0.0 0.0 0.0 0.0 0.0 0.0 0.0 0.0 0.0 0.0 0.0 0.0 0.0 0.0 0.0 0.0 0.0 0.0 0.0 0.0 0.0 0.0 0.0 0.0 0.0 0.0 0.0 0.0 0.0 0.0 0.0 0.0 0.0 0.0 0.0 0.0 0.0 0.0 0.0 0.0 0.0 0.0 0.0 0.0 0.0 0.0 0.0 0.0 0.0 0.0 0.0 0.0 0.0 0.0 0.0 0.0 0.0 0.0 0.0 0.0 0.0 0.0 0.0 0.0 0.0 0.0 0.0 0.0 0.0 0.0 0.0 0.0 0.0 0.0 0.0 0.0 0.0 0.0 0.0 0.0 0.0 0.0 0.0 0.0 0.0 0.0 0.0 0.0 0.0 0.0 0.0 0.0 0.0 0.0 0.0 0.0 0.0 0.0 0.0 0.0 0.0 0.0 0.0 0.0 0.0 0.0 0.0 0.0 0.0 0.0 0.0 0.0 0.0 0.0 0.0 0.0 0.0 0.0 0.0 0.0 0.0 0.0 0.0 0.0 0.0 0.0 0.0 0.0 0.0 0.0 0.0 0.0 0.0 0.0 0.0 0.0 0.0 0.0 0.0 0.0 0.0 0.0 0.0 0.0 0.0 0.0 0.0 0.0 0.0 0.0 0.0 0.0 0.0 0.0 0.0 0.0 0.0 0.0 0.0 0.0 0.0 0.0 0.0 0.0 0.0 0.0 0.0 0.0 0.0 0.0 0.0 0.0 0.0 0.0 0.0 0.0 0.0 0.0 0.0 0.0 0.0 0.0 0.0 0.0 0.0 0.0 0.0 0.0 0.0 0.0 0.0 0.0 0.0 0.0 0.0 0.0 0.0 0.0 0.0 0.0 0.0 0.0 0.0 0.0 0.0 0.0 0.0 0.0 0.0 0.0 0.0 0.0 0.0 0.0 0.0 0.0 0.0 0.0 0.0 0.0 0.0 0.0 0.0 0.0 0.0 0.0 0.0 0.0 0.0 0.0 0.0 0.0 0.0 0.0 0.0 0.0 0.0 0.0 0.0 0.0 0.0 0.0 0.0 0.0 0.0 0.0 0.0 0.0 0.0 0.0 0.0 0.0 0.0 0.0 0.0 0.0 0.0 0.0 0.0 0.0 0.0 0.0 0.0 0.0 0.0 0.0 0.0 0.0 0.0 0.0 0.0 0.0 0.0 0.0 0.0 0.0 0.0 0.0 0.0 0.0 0.0 0.0 0.0 0.0 0.0 0.0 0.0 0.0 0.0 0.0 0.0 0.0 0.0 0.0 0.0 0.0 0.0 0.0 0.0 0.0 0.0 0.0 0.0 0.0 0.0 0.0 0.0 0.0 0.0 0.0 0.0 0.0 0.0 0.0 0.0 0.0 0.0 0.0 0.0 0.0 0.0 0.0 0.0 0.0 0.0 0.0 0.0 0.0 0.0 0.0 0.0 0.0 0.0 0.0 0.0 0.0 0.0 0.0 0.0 0.0 0.0 0.0 0.0 0.0 0.0 0.0 0.0 0.0 0.0 0.0 0.0 0.0 0.0 0.0 0.0 0.0 0.0 0.0 0.0 0.0 0.0 0.0 0.0 0.0 0.0 0.0 0.0 0.0 0.0 0.0 0.0 0.0 0.0 0.0 0.0 0.0 0.0 0.0 0.0 0.0 0.0 0.0 0.0 0.0 0.0 0.0 0.0 0.0 0.0 0.0 0.0 0.0 0.0 0.0 0.0 0.0 0.0 0.0 0.0 0.0 0.0 0.0 0.0 0.0 0.0 0.0 0.0 0.0 0.0 0.0 0.0 0.0 0.0 0.0 0.0 0.0 0.0 0.0 0.0 0.0 0.0 0.0 0.0 0.0 0.0 0.0 0.0 0.0 0.0 0.0 0.0 0.0 0.0 0.0 0.0 0.0 0.0 0.0 0.0 0.0 0.0 0.0 0.0 0.0 0.0 0.0 0.0 0.0 0.0 0.0 0.0 0.0 0.0 0.0 0.0 0.0 0.0 0.0 0.0 0.0 0.0 0.0 0.0 0.0 0.0 0.0 0.0 0.0 0.0 0.0 0.0 0.0 0.0 0.0 0.0 0.0 0.0 0.0 0.0 0.0 0.0 0.0 0.0 0.0 0.0 0.0 0.0 0.0 0.0 0.0 0.0 0.0 0.0 0.0 0.0 0.0 0.0 0.0 0.0 0.0 0.0 0.0 0.0 0.0 0.0 0.0 0.0 0.0 0.0 0.0 0.0 0.0 0.0 0.0 0.0 0.0 0.0 0.0 0.0 0.0 0.0 0.0 0.0 0.0 0.0 0.0 0.0 0.0 0.0 0.0 0.0 0.0 0.0 0.0 0.0 0.0 0.0 0.0 0.0 0.0 0.0 0.0 0.0 0.0 0.0 0.0 0.0 0.0 0.0 0.0 0.0 0.0 0.0 0.0 0.0 0.0 0.0 0.0 0.0 0.0 0.0 0.0 0.0 0.0 0.0 0.0 0.0 0.0 0.0 0.0 0.0 0.0 0.0 0.0 0.0 0.0 0.0 0.0 0.0 0.0 0.0 0.0 0.0 0.0 0.0 0.0 0.0 0.0 0.0 0.0 0.0 0.0 0.0 0.0 0.0 0.0 0.0 0.0 0.0 0.0 0.0 0.0 0.0 0.0 0.0 0.0 0.0 0.0 0.0 0.0 0.0 0.0 0.0 0.0 0.0 0.0 0.0 0.0 0.0 0.0 0.0 0.0 0.0 0.0 0.0 0.0 0.0 0.0 0.0 0.0 0.0 0.0 0.0 0.0 0.0 0.0 0.0 0.0 0.0 0.0 0.0 0.0 0.0 0.0 0.0 0.0 0.0 0.0 0.0 0.0 0.0 0.0 0.0 0.0 0.0 0.0 0.0 0.0 0.0 0.0 0.0 0.0 0.0 0.0 0.0 0.0 0.0 0.0 0.0 0.0 0.0 0.0 0.0 0.0 0.0 0.0 0.0 0.0 0.0 0.0 0.0 0.0 0.0 0.0 0.0 0.0 0.0 0.0 0.0 0.0 0.0 0.0 0.0 0.0 0.0 0.0 0.0 0.0 0.0 0.0 0.0 0.0 0.0 0.0 0.0 0.0 0.0 0.0 0.0 0.0 0.0 0.0 0.0 0.0 0.0 0.0 0.0 0.0 0.0 0.0 0.0 0.0 0.0 0.0 0.0 0.0 0.0 0.0 0.0 0.0 0.0 0.0 0.0 0.0 0.0 0.0 0.0 0.0 0.0 0.0 0.0 0.0 0.0 0.0 0.0 0.0 0.0 0.0 0.0 0.0 0.0 0.0 0.0 0.0 0.0 0.0 0.0 0.0 0.0 0.0 0.0 0.0 0.0 0.0 0.0 0.0 0.0 0.0 0.0 0.0 0.0 0.0 0.0 0.0 0.0 0.0 0.0 0.0 0.0 0.0 0.0 0.0 0.0 0.0 0.0 0.0 0.0 0.0 0.0 0.0 0.0 0.0 0.0 0.0 0.0 0.0 0.0 0.0 0.0 0.0 0.0 0.0 0.0 0.0 0.0 0.0 0.0 0.0 0.0 0.0 0.0 0.0 0.0 0.0 0.0 0.0 0.0 0.0 0.0 0.0 0.0 0.0 0.0 0.0 0.0 0.0 0.0 0.0 0.0 0.0 0.0 0.0 0.0 0.0 0.0 0.0 0.0 0.0 0.0 0.0 0.0 0.0 0.0 0.0 0.0 0.0 0.0 0.0 0.0 0.0 0.0 0.0 0.0 0.0 0.0 0.0 0.0 0.0 0.0 0.0 0.0 0.0 0.0 0.0 0.0 0.0 0.0 0.0 0.0 0.0 0.0 0.0 0.0 0.0 0.0 0.0 0.0 0.0 0.0 0.0 0.0 0.0 0.0 0.0 0.0 0.0 0.0 0.0 0.0 0.0 0.0 0.0 0.0 0.0 0.0 0.0 0.0 0.0 0.0 0.0 0.0 0.0 0.0 0.0 0.0 0.0 0.0 0.0 0.0 0.0 0.0 0.0 0.0 0.0 0.0 0.0 0.0 0.0 0.0 0.0 0.0 0.0 0.0 0.0 0.0 0.0 0.0 0.0 0.0 0.0 0.0 0.0 0.0 0.0 0.0 0.0 0.0 0.0 0.0 0.0 0.0 0.0 0.0 0.0 0.0 0.0 0.0 0.0 0.0 0.0 0.0 0.0 0.0 0.0 0.0 0.0 0.0 0.0 0.0 0.0 0.0 0.0 0.0 0.0 0.0 0.0 0.0 0.0 0.0 0.0 0.0 0.0 0.0 0.0 0.0 0.0 0.0 0.0 0.0 0.0 0.0 0.0 0.0 0.0 0.0 0.0 0.0 0.0 0.0 0.0 0.0 0.0 0.0 0.0 0.0 0.0 0.0 0.0 0.0 0.0 0.0 0.0 0.0 0.0 0.0 0.0 0.0 0.0 0.0 0.0 0.0 0.0 0.0 0.0 0.0 0.0 0.0 0.0 0.0 0.0 0.0 0.0 0.0 0.0 0.0 0.0 0.0 0.0 0.0 0.0 0.0 0.0 0.0 0.0 0.0 0.0 0.0 0.0 0.0 0.0 0.0 0.0 0.0 0.0 0.0 0.0 0.0 0.0 0.0 0.0 0.0 0.0 0.0 0.0 0.0 0.0 0.0 0.0 0.0 0.0 0.0 0.0 0.0 0.0 0.0 0.0 0.0 0.0 0.0 0.0 0.0 0.0 0.0 0.0 0.0 0.0 0.0 0.0 0.0 0.0 0.0 0.0 0.0 0.0 0.0 0.0 0.0 0.0 0.0 0.0 0.0 0.0 0.0 0.0 0.0 0.0 0.0 0.0 0.0 0.0 0.0 0.0 0.0 0.0 0.0 0.0 0.0 0.0 0.0 0.0 0.0 0.0 0.0 0.0 0.0 0.0 0.0 0.0 0.0 0.0 0.0 0.0 0.0 0.0 0.0 0.0 0.0 0.0 0.0 0.0 0.0 0.0 0.0 0.0 0.0 0.0 0.0 0.0 0.0 0.0 0.0 0.0 0.0 0.0 0.0 0.0 0.0 0.0 0.0 0.0 0.0 0.0 0.0 0.0 0.0 0.0 0.0 0.0 0.0 0.0 0.0 0.0 0.0 0.0 0.0 0.0 0.0 0.0 0.0 0.0 0.0 0.0 0.0 0.0 0.0 0.0 0.0 0.0 0.0 0.0 0.0 0.0 0.0 0.0 0.0 0.0 0.0 0.0 0.0 0.0 0.0 0.0 0.0 0.0 0.0 0.0 0.0 0.0 0.0 0.0 0.0 0.0 0.0 0.0 0.0 0.0 0.0 0.0 0.0 0.0 0.0 0.0 0.0 0.0 0.0 0.0 0.0 0.0 0.0 0.0 0.0 0.0 0.0 0.0 0.0 0.0 0.0 0.0 0.0 0.0 0.0 0.0 0.0 0.0 0.0 0.0 0.0 0.0 0.0 0.0 0.0 0.0 0.0 0.0 0.0 0.0 0.0 0.0 0.0 0.0 0.0 0.0 0.0 0.0 0.0 0.0 0.0 0.0 0.0 0.0 0.0 0.0 0.0 0.0 0.0 0.0 0.0 0.0 0.0 0.0 0.0 0.0 0.0 0.0 0.0 0.0 0.0 0.0 0.0 0.0 0.0 0.0 0.0 0.0 0.0 0.0 0.0 0.0 0.0 0.0 0.0 0.0 0.0 0.0 0.0 0.0 0.0 0.0 0.0 0.0 0.0 0.0 0.0 0.0 0.0 0.0 0.0 0.0 0.0 0.0 0.0 0.0 0.0 0.0 0.0 0.0 0.0 0.0 0.0 0.0 0.0 0.0 0.0 0.0 0.0 0.0 0.0 0.0 0.0 0.0 0.0 0.0 0.0 0.0 0.0 0.0 0.0 0.0 0.0 0.0 0.0 0.0 0.0 0.0 0.0 0.0 0.0 0.0 0.0 0.0 0.0 0.0 0.0 0.0 0.0 0.0 0.0 0.0 0.0 0.0 0.0 0.0 0.0 0.0 0.0 0.0 0.0 0.0 0.0 0.0 0.0 0.0 0.0 0.0 0.0 0.0 0.0 0.0 0.0 0.0 0.0 0.0 0.0 0.0 0.0 0.0 0.0 0.0 0.0 0.0 0.0 0.0 0.0 0.0 0.0 0.0 0.0 0.0 0.0 0.0 0.0 0.0 0.0 0.0 0.0 0.0 0.0 0.0 0.0 0.0 0.0 0.0 0.0 0.0 0.0 0.0 0.0 0.0 0.0 0.0 0.0 0.0 0.0 0.0 0.0 0.0 0.0 0.0 0.0 0.0 0.0 0.0 0.0 0.0 0.0 0.0 0.0 0.0 0.0 0.0 0.0 0.0 0.0 0.0 0.0 0.0 0.0 0.0 0.0 0.0 0.0 0.0 0.0 0.0 0.0 0.0 0.0 0.0 0.0 0.0 0.0 0.0 0.0 0.0 0.0 0.0 0.0 0.0 0.0 0.0 0.0 0.0 0.0 0.0 0.0 0.0 0.0 0.0 0.0 0.0 0.0 0.0 0.0 0.0 0.0 0.0 0.0 0.0 0.0 0.0 0.0 0.0 0.0 0.0 0.0 0.0 0.0 0.0 0.0 0.0 0.0 0.0 0.0 0.0 0.0 0.0 0.0 0.0 0.0 0.0 0.0 0.0 0.0 0.0 0.0 0.0 0.0 0.0 0.0 0.0 0.0 0.0 0.0 0.0 0.0 0.0 0.0 0.0 0.0 0.0 0.0 0.0 0.0 0.0 0.0 0.0 0.0 0.0 0.0 0.0 0.0 0.0 0.0 0.0 0.0 0.0 0.0 0.0 0.0 0.0 0.0 0.0 0.0 0.0 0.0 0.0 0.0 0.0 0.0 0.0 0.0 0.0 0.0 0.0 0.0 0.0 0.0 0.0 0.0 0.0 0.0 0.0 0.0 0.0 0.0 0.0 0.0 0.0 0.0 0.0 0.0 0.0 0.0 0.0 0.0 0.0 0.0 0.0 0.0 0.0 0.0 0.0 0.0 0.0 0.0 0.0 0.0 0.0 0.0 0.0 0.0 0.0 0.0 0.0 0.0 0.0 0.0 0.0 0.0 0.0 0.0 0.0 0.0 0.0 0.0 0.0 0.0 0.0 0.0 0.0 0.0 0.0 0.0 0.0 0.0 0.0 0.0 0.0 0.0 0.0 0.0 0.0 0.0 0.0 0.0 0.0 0.0 0.0 0.0 0.0 0.0 0.0 0.0 0.0 0.0 0.0 0.0 0.0 0.0 0.0 0.0 0.0 0.0 0.0 0.0 0.0 0.0 0.0 0.0 0.0 0.0 0.0 0.0 0.0 0.0 0.0 0.0 0.0 0.0 0.0 0.0 0.0 0.0 0.0 0.0 0.0 0.0 0.0 0.0 0.0 0.0 0.0 0.0 0.0 0.0 0.0 0.0 0.0 0.0 0.0 0.0 0.0 0.0 0.0 0.0 0.0 0.0 0.0 0.0 0.0 0.0 0.0 0.0 0.0 0.0 0.0 0.0 0.0 0.0 0.0 0.0 0.0 0.0 0.0 0.0 0.0 0.0 0.0 0.0 0.0 0.0 0.0 0.0 0.0 0.0 0.0 0.0 0.0 0.0 0.0 0.0 0.0 0.0 0.0 0.0 0.0 0.0 0.0 0.0 0.0 0.0 0.0 0.0 0.0 0.0 0.0 0.0 0.0 0.0 0.0 0.0 0.0 0.0 0.0 0.0 0.0 0.0 0.0 0.0 0.0 0.0 0.0 0.0 0.0 0.0 0.0 0.0 0.0 0.0 0.0 0.0 0.0 0.0 0.0 0.0 0.0 0.0 0.0 0.0 0.0 0.0 0.0 0.0 0.0 0.0 0.0 0.0 0.0 0.0 0.0 0.0 0.0 0.0 0.0 0.0 0.0 0.0 0.0 0.0 0.0 0.0 0.0 0.0 0.0 0.0 0.0 0.0 0.0 0.0 0.0 0.0 0.0 0.0 0.0 0.0 0.0 0.0 0.0 0.0 0.0 0.0 0.0 0.0 0.0 0.0 0.0 0.0 0.0 0.0 0.0 0.0 0.0 0.0 0.0 0.0 0.0 0.0 0.0 0.0 0.0 0.0 0.0 0.0 0.0 0.0 0.0 0.0 0.0 0.0 0.0 0.0 0.0 0.0 0.0 0.0 0.0 0.0 0.0 0.0 0.0 0.0 0.0 0.0 0.0 0.0 0.0 0.0 0.0 0.0 0.0 0.0 0.0 0.0 0.0 0.0 0.0 0.0 0.0 0.0 0.0 0.0 0.0 0.0 0.0 0.0 0.0 0.0 0.0 0.0 0.0 0.0 0.0 0.0 0.0 0.0 0.0 0.0 0.0 0.0 0.0 0.0 0.0 0.0 0.0 0.0 0.0 0.0 0.0 0.0 0.0 0.0 0.0 0.0 0.0 0.0 0.0 0.0 0.0 0.0 0.0 0.0 0.0 0.0 0.0 0.0 0.0 0.0 0.0 0.0 0.0 0.0 0.0 0.0 0.0 0.0 0.0 0.0 0.0 0.0 0.0 0.0 0.0 0.0 0.0 0.0 0.0 0.0 0.0 0.0 0.0 0.0 0.0 0.0 0.0 0.0 0.0 0.0 0.0 0.0 0.0 0.0 0.0 0.0 0.0 0.0 0.0 0.0 0.0 0.0 0.0 0.0 0.0 0.0 0.0 0.0 0.0 0.0 0.0 0.0 0.0 0.0 0.0 0.0 0.0 0.0 0.0 0.0 0.0 0.0 0.0 0.0 0.0 0.0 0.0 0.0 0.0 0.0 0.0 0.0 0.0 0.0 0.0 0.0 0.0 0.0 0.0 0.0 0.0 0.0 0.0 0.0 0.0 0.0 0.0 0.0 0.0 0.0 0.0 0.0 0.0 0.0 0.0 0.0 0.0 0.0 0.0 0.0 0.0 0.0 0.0 0.0 0.0 0.0 0.0 0.0 0.0 0.0 0.0 0.0 0.0 0.0 0.0 0.0 0.0 0.0 0.0 0.0 0.0 0.0 0.0 0.0 0.0 0.0 0.0 0.0 0.0 0.0 0.0 0.0 0.0 0.0 0.0 0.0 0.0 0.0 0.0 0.0 0.0 0.0 0.0 0.0 0.0 0.0 0.0 0.0 0.0 0.0 0.0 0.0 0.0 0.0 0.0 0.0 0.0 0.0 0.0 0.0 0.0 0.0 0.0 0.0 0.0 0.0 0.0 0.0 0.0 0.0 0.0 0.0 0.0 0.0 0.0 0.0 0.0 0.0 0.0 0.0 0.0 0.0 0.0 0.0 0.0 0.0 0.0 0.0 0.0 0.0 0.0 0.0 0.0 0.0 0.0 0.0 0.0 0.0 0.0 0.0 0.0 0.0 0.0 0.0 0.0 0.0 0.0 0.0 0.0 0.0 0.0 0.0 0.0 0.0 0.0 0.0 0.0 0.0 0.0 0.0 0.0 0.0 0.0 0.0 0.0 0.0 0.0 0.0 0.0 0.0 -0.055489757387243904 0.0 -0.02120820653020515 -0.0658307816457695 0.0 -0.020051566101289144 -0.0744592938614823 0.0 -0.01792134084803351 -0.0812161340304033 0.0 -0.015480110387002751 -0.0863895181597379 0.0 -0.012849150721228761 -0.0567931534198288 0.0 -0.028646118316152946 -0.0760753659018841 0.0 -0.02625458305636456 -0.0915537982888449 0.0 -0.02521953343048832 -0.103694762592369 0.0 -0.0229601925740048 -0.1129172708229317 0.0 -0.02006304770157618 -0.1197769189944229 0.0 -0.01676050161901253 -0.07908544597713611 0.0 -0.03275123321878081 -0.10493072662326812 0.0 -0.030739004368475095 -0.1254855911371397 0.0 -0.02905944672648615 -0.1416441595411039 0.0 -0.026282135457053372 -0.1537148878428721 0.0 -0.02305124297628106 -0.1625418960635473 0.0 -0.01928908408222709 -0.10731863068296571 0.0 -0.03707093092677325 -0.1412192755304818 0.0 -0.034416438060410934 -0.1674237041855925 0.0 -0.032320869608021725 -0.18778490469462253 0.0 -0.02903176312579406 -0.20285640107140993 0.0 -0.02533911823347794 -0.21369071734226783 0.0 -0.021133831728345782 -0.14247671556191782 0.0 -0.0423070570576764 -0.1859730526493262 0.0 -0.03808307735207691 -0.21863513346587818 0.0 -0.03528279168206977 -0.24348483808712082 0.0 -0.03138642998466073 -0.2615843585396088 0.0 -0.027196035479900873 -0.2743382508584561 0.0 -0.022529926163248143 -0.1866641206666029 0.0 -0.0488222132205553 -0.24149323003733061 0.0 -0.0421090730527268 -0.28136563903414086 0.0 -0.03812022295300555 -0.3109545557738637 0.0 -0.03343092283577305 -0.332009848300246 0.0 -0.02875212191880303 -0.3464737246618429 0.0 -0.02366437979160948 -0.24280751407018772 0.0 -0.057556749438918704 -0.3108383957709597 0.0 -0.0469713931742848 -0.3584806529620161 0.0 -0.0412186770304669 -0.3929176418229408 0.0 -0.03542284448557109 -0.41666085041652107 0.0 -0.03030952275773805 -0.432505730812643 0.0 -0.024804506220112644 -0.3149907198747678 0.0 -0.0693973337349333 -0.3976364219409103 0.0 -0.0536174293404357 -0.453337291333432 0.0 -0.0452948331323708 -0.49232333230808306 0.0 -0.0380943129523578 -0.518366212959155 0.0 -0.03247037001175923 -0.535036893375922 0.0 -0.026539126663478154 -0.40906277022656895 0.0 -0.0838553460963836 -0.506150692653767 0.0 -0.06263422956585571 -0.5694745342368631 0.0 -0.051119565277989096 -0.612191455304786 0.0 -0.0428496650712416 -0.640019976000499 0.0 -0.03641079171026977 -0.656868136421703 0.0 -0.02986607034665174 -0.53371241334281 0.0 -0.09695907042397671 -0.641475696036892 0.0 -0.0736008178400204 -0.710653377766334 0.0 -0.060088041502201 -0.756148338903708 0.0 -0.0508461132711528 -0.785004859625121 0.0 -0.0431536930788423 -0.80102722002568 0.0 -0.03593591529839786 -0.698297737457443 0.0 -0.1085015307125382 -0.8113723802843089 0.0 -0.0855273261381831 -0.882406062060151 0.0 -0.0718778137969453 -0.928808343220208 0.0 -0.0623455415586385 -0.9568037439200929 0.0 -0.054504669362616706 -0.9708727042718172 0.0 -0.0458815011470375 -0.8954325023858121 0.0 -0.1662883801572094 -1.0203676655091911 0.0 -0.11686001092150021 -1.090257107256427 0.0 -0.0945394783634869 -1.135008748375218 0.0 -0.0808744700218617 -1.159524548988113 0.0 -0.0719546937988673 -1.1699547892488689 0.0 -0.0610923055273076 -1.159101988977549 0.0 -0.3453857526346436 -1.2810316320257902 0.0 -0.21542001338550018 -1.343102393577559 0.0 -0.1504189517604737 -1.381089714527242 0.0 -0.1171459949286498 -1.398290554957263 0.0 -0.09979517049487921 -1.4023522750588062 0.0 -0.08389684609742111 -1.5185825579645629 0.0 -0.539974493499362 -1.612907440322685 0.0 -0.354872448871811 -1.654446281361156 0.0 -0.23845956996148912 -1.6745300818632511 0.0 -0.17630669240766722 -1.6783478019586942 0.0 -0.1435492795887319 -1.672965281824131 0.0 -0.1167374389184359 -1.968533009213324 0.0 -0.7016174575404361 -2.01817805045445 0.0 -0.4922029723050739 -2.025911210647779 0.0 -0.3420556405513908 -2.0193668904841706 0.0 -0.254229646355741 -2.0048554101213845 0.0 -0.20001211700030283 -1.986712889667821 0.0 -0.15912761997819042 -2.48729846218246 0.0 -0.8405601810140041 -2.486265062156625 0.0 -0.617392775434819 -2.453884381347108 0.0 -0.448386771209669 -2.4162022204050544 0.0 -0.3385525804638143 -2.381874899546871 0.0 -0.2658015066450375 -2.3483334187083345 0.0 -0.21007102125177543 -3.060090516502261 0.0 -0.976711584417789 -3.009361715234041 0.0 -0.7360870184021749 -2.936393233409829 0.0 -0.554087933852198 -2.8681324717033103 0.0 -0.428929130723228 -2.811983190299578 0.0 -0.338386568459664 -2.7620279890506985 0.0 -0.26766431869160784 -3.6844388121109684 0.0 -1.117327827933195 -3.588964569724112 0.0 -0.85744842143621 -3.4776932469423287 0.0 -0.660862936521573 -3.378693844467344 0.0 -0.523926173098154 -3.300541402513533 0.0 -0.418138610453465 -3.2330807608270176 0.0 -0.3324580763114517 -4.375545309388631 0.0 -1.2690710317267753 -4.2377081059427 0.0 -0.985124144628103 -4.085676902141921 0.0 -0.7740877793521941 -3.9539185388479607 0.0 -0.625517495637937 -3.8522362563059045 0.0 -0.504593492614837 -3.765913094147825 0.0 -0.402695970067399 -5.155506528887661 0.0 -1.435149515878737 -4.968122924203071 0.0 -1.1254276681356912 -4.76855651921391 0.0 -0.8986807024670173 -4.5993161149829 0.0 -0.736893058422326 -4.471984511799611 0.0 -0.5988919349722981 -4.36573650914341 0.0 -0.4788920119723 -6.038662950966571 0.0 -1.6191843604796081 -5.78844254471106 0.0 -1.2826412720660312 -5.53154293828857 0.0 -1.0390591059764773 -5.319644532991109 0.0 -0.860702741517568 -5.1646521291163 0.0 -0.702407297560182 -5.037785325944631 0.0 -0.561847814046195 -7.034196575854911 0.0 -1.8269834856745857 -6.70524616763115 0.0 -1.463899356597483 -6.379512959487821 0.0 -1.199362669984066 -6.11985255299631 0.0 -0.9987773049694321 -5.935325748383141 0.0 -0.8157975403949381 -5.78691734467293 0.0 -0.65121641628041 -8.15179020379475 0.0 -2.066616891665421 -7.72528859313221 0.0 -1.6770857219271422 -7.31810858295271 0.0 -1.3841761946044042 -7.005346975133671 0.0 -1.152181468804536 -6.789270969731771 0.0 -0.9391557034788922 -6.6186777654669395 0.0 -0.7488092987202319 -9.40341556832124 0.0 -2.354425255562386 -8.856808499639161 0.0 -1.9315821881591682 -8.35317699731355 0.0 -1.594621913947635 -7.98247798422372 0.0 -1.3195331875788001 -7.732865499463901 0.0 -1.07105968494079 -7.537560479745999 0.0 -0.8551732020687701 -10.804997604525552 0.0 -2.701852102894285 -10.11090841600686 0.0 -2.242348750675726 -9.4943611950709 0.0 -1.8331065167852063 -9.05783529409074 0.0 -1.4997915068773262 -8.7679911038944 0.0 -1.2226238678606 -8.545892514785919 0.0 -0.972372738326861 -12.37608161316942 0.0 -3.122979144554208 -11.50131092131377 0.0 -2.619313713441051 -10.755101954060459 0.0 -2.0962593661185958 -10.237722287312161 0.0 -1.6899341584473362 -9.899707144954139 0.0 -1.382232550115451 -9.64785609929196 0.0 -1.126322356831956 -14.160488892161082 0.0 -3.67246847727368 -13.044350729398749 0.0 -3.0775838270313747 -12.14421168954275 0.0 -2.406180258839275 -11.523542464309498 0.0 -1.8928440731433749 -11.13033728084956 0.0 -1.577503361843626 -10.837714789452798 0.0 -1.328495678738388 -16.18050532017375 0.0 -4.378451520390749 -14.74668663880104 0.0 -3.6191259010111922 -13.64426753644944 0.0 -2.7294392176281117 -12.911870736840001 0.0 -2.143982094083904 -12.44997594265194 0.0 -1.8158398879818423 -12.10757626388646 0.0 -1.5887008478618552 -18.421472055690195 0.0 -5.245873703979119 -16.589489067069568 0.0 -4.2523692039245695 -15.248169336342878 0.0 -3.09444435073942 -14.38653372021645 0.0 -2.4369535703264713 -13.832063452174 0.0 -2.121534509066808 -13.436721153682399 0.0 -1.9380318524222342 -20.790811341459168 0.0 -6.27944218192555 -18.49359309233634 0.0 -4.98700974983882 -16.894250210600582 0.0 -3.5385152273347074 -15.88660717954248 0.0 -2.788698915881825 -15.218595013937 0.0 -2.5197263391010196 -14.74884962696608 0.0 -2.402324052442624 -23.079493497255367 0.0 -7.498304081116519 -20.321731484599518 0.0 -5.824532572571759 -18.47478458169582 0.0 -4.068956767666 -17.303055268436243 0.0 -3.272165788531236 -16.50262115866144 0.0 -3.0758159640091556 -15.927320776122 0.0 -3.09774765984585 -25.055077335398877 0.0 -8.946873313639799 -21.9489269034496 0.0 -6.7344941524688 -19.908846968942356 0.0 -4.692626132924399 -18.452597254695043 0.0 -4.03071558644256 -17.526399879828 0.0 -3.865550662463 -16.96122671121728 0.0 -3.818164216576624 -26.55988607335504 0.0 -10.61329039104152 -23.284886492874723 0.0 -7.609847847216301 -21.053875055038322 0.0 -5.30962882100904 -19.4456909678232 0.0 -4.572090668946 -18.454785177492003 0.0 -4.4796271195260005 -17.8635187875588 0.0 -4.541593009698 -27.4784713822028 0.0 -12.5675646713232 -24.360766219136337 0.0 -7.891718355376379 -22.033161536448812 0.0 -5.3202403185341405 -20.15860612957512 0.0 -5.113152837843121 -19.107137649691083 0.0 -5.159905395372901 -18.48985969456278 0.0 -5.400521920280251 -28.04912507339096 0.0 -14.12824607893496 -25.104790505410858 0.0 -8.20741965698648 -22.764595323372042 0.0 -5.0787537232822 -20.342875726416363 0.0 -5.70806746240692 -19.06426303435125 0.0 -6.527023080765 -18.53684242837011 0.0 -6.93377829084447 -25.187613838505285 0.0 -15.68564360420832 -24.29191260409272 0.0 -8.99419623379566 -22.268460498620993 0.0 -5.39713853051696 -19.496952586949316 0.0 -6.467596827882959 -18.447116605468324 0.0 -8.643244158801561 -18.270811715995407 0.0 -9.700793673588159 -17.286799269167123 0.0 -17.48422060103544 -17.615981326068603 0.0 -10.17313289871113 -17.40408488343626 0.0 -5.8928991292487405 -16.86601018760185 0.0 -7.651906884198279 -16.932097666594682 0.0 -11.31108394277404 -16.8476880332744 0.0 -12.7155163068298 -10.30421946294395 0.0 -18.837488460676898 -10.77162525078325 0.0 -10.972876767075501 -10.76894113289754 0.0 -6.142547130919951 -10.65633530361363 0.0 -7.72068987980984 -10.939423342378769 0.0 -11.60199842314428 -10.97900718238305 0.0 -13.179356094613501 -5.24381673641496 0.0 -19.737592724403843 -5.703067906374621 0.0 -11.535679753951241 -5.70267540575304 0.0 -6.275752322833109 -5.74225235759325 0.0 -7.494930475962001 -6.02639937590886 0.0 -11.391734331336 -6.168346557088499 0.0 -13.1928470065935 -1.7911872680026948 0.0 -20.36112326718885 -2.0477949993166558 0.0 -12.0484867432632 -2.09109596577036 0.0 -6.45876879699483 -2.159574676643097 0.0 -7.375899557468821 -2.38930742335966 0.0 -11.214121187890001 -2.5474960619380136 0.0 -13.045507866517612 0.8772901197052001 0.0 -20.734821864834 0.8182211933219341 0.0 -12.327723715586131 0.75678872032507 0.0 -6.689078804503341 0.6945876665416181 0.0 -7.4357128355338595 0.55581030471357 0.0 -11.14612467685316 0.41803881992694597 0.0 -12.85130621385426 3.5100939193094014 0.0 -20.836353021362 3.6209393309022717 0.0 -12.30052404940204 3.5096012476990084 0.0 -6.868417214092521 3.3977446679849237 0.0 -7.59293322554762 3.3608324884144922 0.0 -11.146115790432349 3.2452040061488745 0.0 -12.65072476559725 6.468450919727751 0.0 -20.68003302623875 6.6882439459542695 0.0 -12.17812526064979 6.492632572652199 0.0 -6.9706075756434 6.261818459799599 0.0 -7.709367295193401 6.2914476396393 0.0 -11.1163669521174 6.17766558053292 0.0 -12.407130044623798 9.694680107571559 0.0 -20.22893841930689 9.968063103664779 0.0 -11.91417560435802 9.656506426509269 0.0 -7.041504894520189 9.27719319500088 0.0 -7.70299575893408 9.341861180325761 0.0 -10.906845300242802 9.16947205332491 0.0 -12.08125845130688 12.895412144665771 0.0 -19.49257454682708 13.15694661961302 0.0 -11.57482819391472 12.720081660789928 0.0 -7.003082258996879 12.172640400662939 0.0 -7.566516584712359 12.27573610001316 0.0 -10.55036983316958 12.0241444549304 0.0 -11.6428396987864 15.794449990537498 0.0 -18.5225006806593 15.996647503740302 0.0 -11.08040733310287 15.383819649569281 0.0 -6.866673698825849 14.587808561284 0.0 -7.1930440436300005 14.77395079897552 0.0 -9.941456221468801 14.52818068829666 0.0 -11.0814522752547 18.16499158066384 0.0 -17.46214562531263 18.31079364122384 0.0 -10.49611057275872 17.47986373496385 0.0 -6.592072426670281 16.388106076044437 0.0 -6.7338875411706205 16.584594230925003 0.0 -9.0796614811875 16.36077947920437 0.0 -10.413796911517439 19.862757655907508 0.0 -16.26533655637319 20.107969772751197 0.0 -9.98704656034432 18.99504581490198 0.0 -6.307709252181641 17.666652112450883 0.0 -6.319397258820801 17.35977548684913 0.0 -8.48150977913569 16.74373688640107 0.0 -9.68964660858341 21.08331737824355 0.0 -14.974081448835298 21.25185852446008 0.0 -9.3413243219176 19.963123351802153 0.0 -5.948949838800541 18.40687730153396 0.0 -5.9993614165835 17.597271892285846 0.0 -8.24029637585032 16.722648211454242 0.0 -8.95268945060688 22.15110210285408 0.0 -13.67485737834576 22.0310870693577 0.0 -8.61037108233471 20.477307674917988 0.0 -5.53987614105598 18.6217084850696 0.0 -5.889296733762401 17.58851549974773 0.0 -7.84381452362253 16.59874801220664 0.0 -8.25918949724295 23.31629690160217 0.0 -12.41550362466337 22.46243734864213 0.0 -7.951707090719629 20.51460398379545 0.0 -5.3017480816613 18.665139235241977 0.0 -5.8879403999174205 17.48255730808604 0.0 -7.299062394873521 16.4431953601308 0.0 -7.655874269281201 24.819063138547797 0.0 -11.18544203477645 22.7150230406827 0.0 -7.501796151616001 20.33658489757251 0.0 -5.050031210409621 18.772008978871117 0.0 -5.6510297940824 17.41119092655308 0.0 -6.72866472620532 16.33005749962753 0.0 -7.04655944345974 26.813932794223017 0.0 -10.00378135108782 23.1895078402236 0.0 -6.88131278811 20.4802438436899 0.0 -4.876693890819 18.898833454192282 0.0 -5.205506000184919 17.410819484047078 0.0 -6.18817282445388 16.121931446900067 0.0 -6.50019485096661 29.041120906094 0.0 -8.831044537863901 24.394682894935702 0.0 -6.322072742187 21.091082286331464 0.0 -4.77075475469437 19.14574102185108 0.0 -4.76292894597184 17.63871988145756 0.0 -5.3014012227046 16.092234098577393 0.0 -5.89344646528599 30.96756445783551 0.0 -7.903228133984911 25.825206837171603 0.0 -6.005888876057039 21.92801554862217 0.0 -4.530242453186401 19.507381657674358 0.0 -4.25015971404462 17.76175933956645 0.0 -4.5215676267375 16.14598962692703 0.0 -5.00874713653587 27.38680313148816 0.0 -5.79138147902416 22.964212269296997 0.0 -4.2725532595005 20.07998303632706 0.0 -3.822605373516391 17.990088582086997 0.0 -3.8308610791330104 16.19164063478544 0.0 -4.20769809880544 28.859208457624607 0.0 -5.72251755125313 24.298253839220965 0.0 -4.23621619478597 20.891652062353 0.0 -3.4789318187924514 18.39950665303632 0.0 -3.3100751621054445 16.35457655709272 0.0 -3.4220428153387714 25.83309294326964 0.0 -4.47224472294828 21.99075617392974 0.0 -3.382173719537616 19.13392842453975 0.0 -3.0271793713167896 16.716286065283498 0.0 -2.8701440148577197 27.265093477740077 0.0 -4.83619348821832 23.47023935491872 0.0 -3.714588939800256 20.206357656505354 0.0 -2.9927683192063803 17.43714456752568 0.0 -2.6430010671429702 24.958368438021 0.0 -4.198586244264 21.54753633680964 0.0 -3.2834397290559476 18.50909096202852 0.0 -2.727757019535756 23.002669234335638 0.0 -3.7543367449023664 19.93563473154575 0.0 -3.086286558276166 23.869548415766797 0.0 -3.9296930319432795 21.38982637135344 0.0 -3.585784993287639 -0.0901083862527096 0.0 -0.01035669305891732 -0.09264127431603181 0.0 -0.00805854300146357 -0.0941961663549041 0.0 -0.00613106295327657 -0.09505186237629651 0.0 -0.004518349712958739 -0.0954397823859945 0.0 -0.003222232760555817 -0.0955385343884633 0.0 -0.002231176255779405 -0.0954964903874122 0.0 -0.0014566807564170181 -0.0954028263850706 0.0 -0.0008754033818850841 -0.0953237183830929 0.0 -0.00040769909019247705 -0.12459382311484551 0.0 -0.013516253537906331 -0.1277181431929535 0.0 -0.010558376663959411 -0.1295065432376635 0.0 -0.00808179460204486 -0.1303906472597661 0.0 -0.005962288549057211 -0.1306638512665962 0.0 -0.00428749890718747 -0.1305935872648396 0.0 -0.0029792453144811314 -0.13037279125931972 0.0 -0.001969634249240855 -0.1301291992532299 0.0 -0.001195605589890139 -0.1299527192488179 0.0 -0.000557907013947675 -0.1685507442137685 0.0 -0.01562473199061829 -0.1722886483072161 0.0 -0.01225983670649591 -0.1742951803573794 0.0 -0.00936367383409184 -0.175119404377985 0.0 -0.006930661373266531 -0.1751867323796682 0.0 -0.004994806124870151 -0.1748583363714583 0.0 -0.0034676366466909144 -0.17438058035951443 0.0 -0.002297778497444461 -0.1739280523482012 0.0 -0.0013929162348229052 -0.17361395634034882 0.0 -0.000653334896333372 -0.2208712615217814 0.0 -0.017059784026494593 -0.22512166962804162 0.0 -0.013380083934502091 -0.2272051136801277 0.0 -0.01017518665437966 -0.2278217376955433 0.0 -0.007521304588032611 -0.22754684168867093 0.0 -0.00541178573529464 -0.226839525670988 0.0 -0.003731029573275737 -0.2260037936500947 0.0 -0.002467174141679352 -0.2252680376317008 0.0 -0.0014829889170747221 -0.2247722216193054 0.0 -0.000696962857424071 -0.28252535506313375 0.0 -0.018068032451700803 -0.2870691831767294 0.0 -0.014133370353334252 -0.28900342722508554 0.0 -0.010661471066536771 -0.2891892992297323 0.0 -0.007848897796222441 -0.2883798192094953 0.0 -0.00557980533949513 -0.2871217791780443 0.0 -0.003829251335731281 -0.28579905914497633 0.0 -0.002517663182941578 -0.28468757511718923 0.0 -0.001493655197341379 -0.28395407909885184 0.0 -0.0007007014175175351 -0.3553605408840133 0.0 -0.018913180072829494 -0.3598898969972472 0.0 -0.0147091123677278 -0.3613491610337288 0.0 -0.01100427987510699 -0.360804209020105 0.0 -0.008052873801321839 -0.359196768979919 0.0 -0.00565619414140485 -0.3571733569293337 0.0 -0.003848324816208118 -0.3552037808800943 0.0 -0.0024805613420140317 -0.35359660083991484 0.0 -0.001465821116645527 -0.3525567848139194 0.0 -0.000679958296998957 -0.441671091041777 0.0 -0.019824530495613252 -0.44575549114388696 0.0 -0.01533534998338374 -0.44629685115742107 0.0 -0.011452273486306829 -0.444638651115966 0.0 -0.00834477940861948 -0.44190637104765895 0.0 -0.005795228144880701 -0.438850210971255 0.0 -0.003905917417647933 -0.436026090900652 0.0 -0.002477698101942451 -0.4337836508445911 0.0 -0.0014498992362474798 -0.4323546508088661 0.0 -0.0006586062964651571 -0.5439498135987451 0.0 -0.02126488293162206 -0.547031373675784 0.0 -0.0164614084115352 -0.546131733653293 0.0 -0.01233805950845148 -0.5429022535725561 0.0 -0.00894563142364078 -0.5386327334658181 0.0 -0.0061989641549741 -0.5342153333553831 0.0 -0.00415554690388867 -0.530282933257073 0.0 -0.002605279585131988 -0.527222533180563 0.0 -0.001512480917812022 -0.525294613132365 0.0 -0.0006814535370363381 -0.6648554566213861 0.0 -0.02400111780002793 -0.666266456656661 0.0 -0.01869314366732858 -0.6633096565827411 0.0 -0.01413568275339206 -0.657955656448891 0.0 -0.01026683785667094 -0.651675736291893 0.0 -0.00713607257840181 -0.645501536137538 0.0 -0.0047790613194765305 -0.640143976003599 0.0 -0.002985137594628438 -0.6360376559009411 0.0 -0.001724851003121274 -0.633471895836797 0.0 -0.000774152219353805 -0.8071901401797531 0.0 -0.029164049929101227 -0.806139580153489 0.0 -0.02290757817268944 -0.800434220010855 0.0 -0.017445660036141494 -0.7923166998079171 0.0 -0.0127630683190767 -0.783472779586819 0.0 -0.00889738222243455 -0.775071299376782 0.0 -0.00596379774909494 -0.767913179197829 0.0 -0.0037311327732783175 -0.7624870590621761 0.0 -0.0021508356937708912 -0.75911641897791 0.0 -0.0009655803841395091 -0.9740359443508979 0.0 -0.03784683734617091 -0.9696150242403749 0.0 -0.02997461914936546 -0.960361784009044 0.0 -0.02290360257259005 -0.9487196237179901 0.0 -0.01691591762289793 -0.9366771834169291 0.0 -0.011774357094358921 -0.9254928631373212 0.0 -0.00788616099715402 -0.9160883029022072 0.0 -0.004947136523678411 -0.909019582725489 0.0 -0.002842181991054548 -0.904650902616272 0.0 -0.001279691071992276 -1.1688347092208673 0.0 -0.0509865132746628 -1.160053389001334 0.0 -0.04046825701170641 -1.146286148657153 0.0 -0.031031266775781653 -1.1302854682571362 0.0 -0.02291800897295021 -1.1142651878566292 0.0 -0.015969167999229192 -1.099642587491064 0.0 -0.01066392626659815 -1.08745922718648 0.0 -0.00669035776725894 -1.078363826959095 0.0 -0.003826359375658982 -1.072765186819129 0.0 -0.0017244723231118072 -1.395490794887269 0.0 -0.069469881736747 -1.3810688345267201 0.0 -0.0552721333818033 -1.3617564740439112 0.0 -0.042112281052807 -1.340426113510652 0.0 -0.03086887397172183 -1.3195104729877611 0.0 -0.021497369337434222 -1.300681832517045 0.0 -0.01425104195627604 -1.285107832127695 0.0 -0.008938529423463229 -1.273536911838422 0.0 -0.00508406612710165 -1.266427831660695 0.0 -0.002278768136969202 -1.658488121462202 0.0 -0.09427216235680401 -1.636908760922718 0.0 -0.07413240185331 -1.6106440002660993 0.0 -0.056337305408432604 -1.582797959569948 0.0 -0.0408504970212624 -1.55594563889864 0.0 -0.02836963590924088 -1.532025478300636 0.0 -0.01860009486500236 -1.512334117808352 0.0 -0.01153053668826341 -1.4977711174442772 0.0 -0.00653007136325178 -1.488824517220612 0.0 -0.002899191592479788 -1.9624159290603975 0.0 -0.1262839591570989 -1.931942408298559 0.0 -0.0978962504474062 -1.8970322074258044 0.0 -0.0735239658380991 -1.861264646531615 0.0 -0.052601661315041494 -1.827276085681901 0.0 -0.036223659705591466 -1.797243924931097 0.0 -0.02349977698749441 -1.7726004043150092 0.0 -0.01430323155758078 -1.754401443860035 0.0 -0.007924637398115929 -1.7432636835815907 0.0 -0.0035082013277050314 -2.312029897800746 0.0 -0.1647606761190168 -2.27063165676579 0.0 -0.1261236231530905 -2.2252970156324245 0.0 -0.0934643103366077 -2.179960494499011 0.0 -0.065880081647002 -2.137354893433871 0.0 -0.044493801112345 -2.09996325249908 0.0 -0.028464937911623432 -2.0694322917358057 0.0 -0.01703462202586554 -2.046874651171865 0.0 -0.00918089982952249 -2.0330965708274134 0.0 -0.00401259370031484 -2.7121679878041984 0.0 -0.2088653852216345 -2.6578516664462897 0.0 -0.1585941599648539 -2.6000881850022033 0.0 -0.11590281889757041 -2.5432854235821343 0.0 -0.0803750660093766 -2.4903532622588305 0.0 -0.053204961330124007 -2.4440928211023194 0.0 -0.03311435962785897 -2.4064818201620444 0.0 -0.019467564486689102 -2.3786898194672443 0.0 -0.010076155851903891 -2.36173045904326 0.0 -0.00430448890761222 -3.1673657191841413 0.0 -0.2569599224239979 -3.0981827574545666 0.0 -0.19317436882935912 -3.026280275657005 0.0 -0.14063697151592422 -2.955882513897061 0.0 -0.09563883839097091 -2.8905634722640854 0.0 -0.0621343695533592 -2.8337097908427435 0.0 -0.03727123533178086 -2.787559189688978 0.0 -0.021350460133761493 -2.753472588836813 0.0 -0.0104396442609911 -2.7326674283166845 0.0 -0.00430296770757419 -3.68359729208993 0.0 -0.3107763117694076 -3.5972000899300003 0.0 -0.23035150175878738 -3.508477127711926 0.0 -0.165116684127917 -3.4223961655599013 0.0 -0.1109272987731824 -3.3425053635626316 0.0 -0.07092897377322431 -3.2730134018253327 0.0 -0.040924361023109 -3.216456680411415 0.0 -0.022047020951175507 -3.174882599372063 0.0 -0.0102994042574851 -3.149426918735671 0.0 -0.00402363690059092 -4.265467706636691 0.0 -0.3681303132032576 -4.16024850400621 0.0 -0.27032266275806643 -4.05232210130805 0.0 -0.19138471278461772 -3.9473694986842354 0.0 -0.1254202511355062 -3.8505978562649443 0.0 -0.0793827419845685 -3.766015734150391 0.0 -0.0444839091120977 -3.697061612426538 0.0 -0.0227459525686488 -3.64640129116003 0.0 -0.01007220785180519 -3.615323730383091 0.0 -0.0036949199723729973 -4.918324522958111 0.0 -0.429973810749345 -4.79247731981193 0.0 -0.3134309598357738 -4.66258491656462 0.0 -0.2199385694984641 -4.535874513396861 0.0 -0.14275163956879092 -4.4188441104711 0.0 -0.08944893823622341 -4.31631850790796 0.0 -0.049475425236885605 -4.23260890581522 0.0 -0.02475093821877344 -4.171015304275381 0.0 -0.01073361426834035 -4.133180903329521 0.0 -0.003799731374993282 -5.64713294117832 0.0 -0.496670212416755 -5.4984241374606 0.0 -0.3618748050468699 -5.34355093358877 0.0 -0.25321725033043113 -5.1914173297854305 0.0 -0.1658277321456932 -5.0506097262652405 0.0 -0.10438270660956761 -4.926928123173201 0.0 -0.058974313474357797 -4.82575012064375 0.0 -0.03069387436734684 -4.75112731877818 0.0 -0.014190224354755601 -4.705230917630771 0.0 -0.00523441093086027 -6.45640336141008 0.0 -0.5701161342529031 -6.28108255702706 0.0 -0.422208570555214 -6.098735752468391 0.0 -0.2965020034125499 -5.91723974793099 0.0 -0.2000353370008833 -5.74875134371878 0.0 -0.1301631832540795 -5.60027854000696 0.0 -0.07839026595975661 -5.47868293696707 0.0 -0.045025405125635104 -5.388766934719171 0.0 -0.02351037178775928 -5.333376933334421 0.0 -0.00976937744423443 -7.34961636586897 0.0 -0.6559869995867009 -7.1454136308664795 0.0 -0.497268927541632 -6.93092351709824 0.0 -0.35888886666612324 -6.715646355093651 0.0 -0.256829024932328 -6.515537552642919 0.0 -0.1762079278025621 -6.33866138018882 0.0 -0.1163185174104439 -6.19349677414208 0.0 -0.0749041394136648 -6.0859539337993 0.0 -0.043986462886759496 -6.01964746915056 0.0 -0.019809731714469588 -8.33094566721313 0.0 -0.768081077053485 -8.09346109432214 0.0 -0.599011766881122 -7.842340515122929 0.0 -0.45529572003003393 -7.5900782009138 0.0 -0.348113458228887 -7.353017561932361 0.0 -0.2556852534060112 -7.144105432252001 0.0 -0.184991366972436 -6.972518763364921 0.0 -0.1291646988675198 -6.8453534493971295 0.0 -0.08273745441689 -6.766770700251201 0.0 -0.040030868092244 -9.3987790161615 0.0 -0.9228030642274498 -9.126157310804729 0.0 -0.7489371812467379 -8.83483553907675 0.0 -0.60698729300895 -8.53996655235504 0.0 -0.48533309304155403 -8.263047427780501 0.0 -0.3846167610679116 -8.01885512643807 0.0 -0.297760842428199 -7.81833476431488 0.0 -0.219867175086624 -7.66971525459168 0.0 -0.1462531223897964 -7.578254205222841 0.0 -0.0732088237789584 -10.552516851052749 0.0 -1.1297832091255748 -10.24148029716039 0.0 -0.9695239150077269 -9.903812682653 0.0 -0.825952602521625 -9.56471243003848 0.0 -0.7004336231689999 -9.2460638324438 0.0 -0.5851100601693259 -8.9646976876525 0.0 -0.47378541941465 -8.734799308879301 0.0 -0.361141088395631 -8.56468297984398 0.0 -0.24583822546048575 -8.4598799069975 0.0 -0.1245409529342125 -11.784150619944299 0.0 -1.4207307369526438 -11.42662878252864 0.0 -1.2762631784279161 -11.043767152916221 0.0 -1.145508996579624 -10.660956608947918 0.0 -1.017524385033024 -10.30047156433443 0.0 -0.8801028409648769 -9.983255454513 0.0 -0.728796244344075 -9.722985082836 0.0 -0.566297777641302 -9.52970801330592 0.0 -0.3890098136645952 -9.411338682092161 0.0 -0.1994403664758648 -13.06018106189877 0.0 -1.8139119494172289 -12.65859827902468 0.0 -1.7111289408940202 -12.236446228680268 0.0 -1.5984297499998208 -11.812038835240081 0.0 -1.455763919893077 -11.41443425901311 0.0 -1.277685619682342 -11.062132552249201 0.0 -1.07124325759068 -10.77093675129052 0.0 -0.832736315388586 -10.555187808993521 0.0 -0.5687988269609361 -10.42234925930237 0.0 -0.28791642350204505 -14.30607319840624 0.0 -2.401611947353408 -13.881017926446969 0.0 -2.313938576528062 -13.435488713433278 0.0 -2.1848116009594722 -12.982758806595811 0.0 -2.01202644893242 -12.55513445061522 0.0 -1.7840601629752724 -12.17280815395742 0.0 -1.4950833297205959 -11.856038656650451 0.0 -1.158639389853172 -11.61953157355687 0.0 -0.7887297527288979 -11.47298328864219 0.0 -0.3989571584388024 -15.47597909745888 0.0 -3.073555707153568 -15.033116942240117 0.0 -3.031664660612261 -14.565335717131811 0.0 -2.9299429530917793 -14.099770259236479 0.0 -2.7211828875766075 -13.6541333010285 0.0 -2.42610338590885 -13.255685458911119 0.0 -2.0388175311535273 -12.922728091976001 0.0 -1.581746530900896 -12.66810022316668 0.0 -1.071814967579476 -12.50832530074182 0.0 -0.5352467475856381 -16.50456376362 0.0 -3.824865256378468 -16.05474483583504 0.0 -3.834111816034512 -15.59400193443422 0.0 -3.739616647251716 -15.129934504672779 0.0 -3.525624329655787 -14.68568251378875 0.0 -3.17536009764635 -14.27114445442088 0.0 -2.688464541860701 -13.91280142243725 0.0 -2.110552529328675 -13.64257383140154 0.0 -1.4433276480777237 -13.47018013278268 0.0 -0.726351931950076 -17.39222260743444 0.0 -4.6576060813282805 -16.9453579309701 0.0 -4.72504489651842 -16.50322404131175 0.0 -4.68868768708725 -16.03002946902447 0.0 -4.41016990532316 -15.577652207159097 0.0 -3.9561754259207786 -15.163719817877817 0.0 -3.3547553229027747 -14.815082716960498 0.0 -2.637903456657225 -14.5352501102205 0.0 -1.825574446929825 -14.357346763599 0.0 -0.9356525385223501 -17.98462211725872 0.0 -5.648149568718719 -17.56887515992074 0.0 -5.856513462142581 -17.105535095107196 0.0 -5.76721783873536 -16.63304968936448 0.0 -5.429964577106659 -16.2397550255691 0.0 -4.92016306448701 -15.84397079853591 0.0 -4.19172128735682 -15.51111230574558 0.0 -3.290083806614674 -15.241946274865 0.0 -2.277474629218907 -15.0683356139164 0.0 -1.16736330461896 -18.154371469824 0.0 -7.2637787004868795 -17.79642588537828 0.0 -7.4569513636648805 -17.43504038251434 0.0 -7.39733600764341 -17.07926538689379 0.0 -7.03812201446952 -16.69124959347411 0.0 -6.3349100757765 -16.29251379870864 0.0 -5.38114948958388 -15.93737393118624 0.0 -4.2285442987936195 -15.6585511983709 0.0 -2.91999470321993 -15.476001323660201 0.0 -1.494434673874224 -18.030081769306403 0.0 -9.979155613495001 -17.742706804198612 0.0 -10.023481748552 -17.51608007079336 0.0 -9.729790110902961 -17.23492307508335 0.0 -8.9834820810683 -16.86783320656252 0.0 -7.93916677329398 -16.43155751226059 0.0 -6.65728348425875 -16.0430073819805 0.0 -5.1990441670320005 -15.737028917897838 0.0 -3.5789272446771663 -15.53437236997416 0.0 -1.8283447131988793 -16.494744551822038 0.0 -12.779616843573018 -16.052650405209 0.0 -12.589920983366099 -15.53862295127502 0.0 -11.888722358278022 -14.993449120406222 0.0 -10.736011872553801 -14.468015284173898 0.0 -9.33482871038745 -13.97765353379136 0.0 -7.7574461644428 -13.56201608819442 0.0 -6.0265337848254 -13.244853903523738 0.0 -4.14130065996474 -13.0453995068145 0.0 -2.1146305341294753 -10.793798316904502 0.0 -13.4375162922675 -10.510857622967368 0.0 -13.345811135469841 -10.161685756047328 0.0 -12.67748148829469 -9.782067876832121 0.0 -11.51321972620003 -9.4030662234466 0.0 -10.055659629135599 -9.049923614802799 0.0 -8.38916257609764 -8.74468213555575 0.0 -6.5363985948999295 -8.50776924772768 0.0 -4.50050192273338 -8.357052432017099 0.0 -2.3005942771707253 -6.14764994099958 0.0 -13.662102156610239 -6.0422268061628 0.0 -13.713517191396551 -5.87237100851258 0.0 -13.1283116724793 -5.664891741216 0.0 -11.994805510543921 -5.443726653705119 0.0 -10.52608007357744 -5.2283055764814 0.0 -8.81452715243906 -5.0358248012325 0.0 -6.8875707998779 -4.88266380816494 0.0 -4.75187541449369 -4.783638563432601 0.0 -2.4319720751141203 -2.6144588209837307 0.0 -13.65836157800778 -2.6262501731895402 0.0 -13.823026642033803 -2.5923365433321397 0.0 -13.31476409062422 -2.5271339152708703 0.0 -12.222998441053551 -2.443578529017896 0.0 -10.76707130936722 -2.35258442312375 0.0 -9.044399144775 -2.264614672888386 0.0 -7.08486497133779 -2.1907160750948846 0.0 -4.8969393442973495 -2.1412314654804243 0.0 -2.5089545298449 0.306398203855013 0.0 -13.524296392307841 0.21453751996873718 0.0 -13.752136155420402 0.1436104125894904 0.0 -13.295931874013998 0.09241598987862061 0.0 -12.241857439736641 0.059404069051324206 0.0 -10.810975084247522 0.042398535133290595 0.0 -9.10175327966619 0.037859426285000754 0.0 -7.143599714996159 0.0405573190752165 0.0 -4.94487571196097 0.0450113736877668 0.0 -2.535868389581838 3.0928803812818293 0.0 -13.309463274822061 2.930040436943835 0.0 -13.550063399116288 2.767974323230812 0.0 -13.117212673438107 2.616546788219637 0.0 -12.09145284212229 2.483247524349369 0.0 -10.69145928031916 2.372933852347002 0.0 -9.01323801950622 2.287839368759455 0.0 -7.083349480377019 2.2280984639805 0.0 -4.908410489065 2.19277561837997 0.0 -2.5189162684924677 5.9642288877628795 0.0 -13.015732372997759 5.72138935299905 0.0 -13.2349774427871 5.46905170296535 0.0 -12.804165086175502 5.224910459981521 0.0 -11.799866548577361 5.0020852212344 0.0 -10.435412009418238 4.8097850639817 0.0 -8.80202185802555 4.654281302767981 0.0 -6.92218017397022 4.5399176367253204 0.0 -4.79987184690476 4.469811341722351 0.0 -2.46429435228964 8.87083700251302 0.0 -12.625629433983779 8.5352971616922 0.0 -12.8062152457227 8.189920265764231 0.0 -12.36752374464222 7.85704226890995 0.0 -11.38395973238145 7.55223949629099 0.0 -10.06141616730387 7.2865884064218 0.0 -8.4854921271016 7.06894171153234 0.0 -6.6744747816448395 6.90664660741072 0.0 -4.62944187004404 6.806177151665889 0.0 -2.377355955411758 11.627344213411641 0.0 -12.121688631429441 11.194161992841881 0.0 -12.259319071020979 10.75718125693662 0.0 -11.81254623455717 10.340973610956 0.0 -10.8545719865508 9.96155304177103 0.0 -9.58252950125368 9.630577651751778 0.0 -8.07655603960872 9.35824410171456 0.0 -6.35136245971968 9.15421075477876 0.0 -4.40526438279727 9.02734460975366 0.0 -2.262356956818831 14.03690254632064 0.0 -11.499685163858768 13.513055776982599 0.0 -11.597440671256878 12.991951675428648 0.0 -11.14775465781952 12.499986922509121 0.0 -10.22308588707365 12.05261754086544 0.0 -9.01109491603904 11.66244385479516 0.0 -7.58705530531844 11.34065318737523 0.0 -5.962857245577969 11.097834521676901 0.0 -4.13464593518 10.94650281281383 0.0 -2.1231791342522124 15.65442147942726 0.0 -10.775870994011099 14.945963084570456 0.0 -10.830361597233809 14.290844181029998 0.0 -10.381821765024599 13.690318060077303 0.0 -9.499902260868 13.157845910589 0.0 -8.3586938916294 12.684174713857459 0.0 -7.0291913617600414 12.30070057774612 0.0 -5.51967178587099 12.019864856265599 0.0 -3.82521890535808 11.846834064954399 0.0 -1.963445397069052 15.918073110010418 0.0 -9.98517073018312 15.17362485792685 0.0 -9.9921418243188 14.493860326097879 0.0 -9.5478014458372 13.8725711797596 0.0 -8.7161564698924 13.3191668441545 0.0 -7.6542090927935496 12.839510656600599 0.0 -6.4277229183713 12.44612672227866 0.0 -5.03948379664958 12.15694571964329 0.0 -3.4874365072290274 11.980106038933979 0.0 -1.7888081603525472 15.8782551218485 0.0 -9.1889194470711 15.117115182305982 0.0 -9.138300503637101 14.43133241724266 0.0 -8.70297647103692 13.8119271884946 0.0 -7.9237167629961 13.2560238965665 0.0 -6.9379459262204 12.77664016869264 0.0 -5.81129173922408 12.3828532571932 0.0 -4.5451771286235205 12.09038202880522 0.0 -3.138676718910705 11.91096216233683 0.0 -1.607329882181435 15.733777460298482 0.0 -8.43233658429294 14.958600872750697 0.0 -8.33965141565301 14.260216106303702 0.0 -7.8965915918069705 13.632311398595519 0.0 -7.156980163833301 13.07651738406123 0.0 -6.240763910490119 12.60127462197813 0.0 -5.20533305854023 12.20537512248 0.0 -4.061958313464 11.9079916440849 0.0 -2.799312665875362 11.719012354872001 0.0 -1.430191563912 15.5697011746185 0.0 -7.761567113300909 14.761858685820057 0.0 -7.628441927596319 14.022234214520218 0.0 -7.177463304890489 13.37815283044746 0.0 -6.477224010040081 12.8131214864268 0.0 -5.63117702329896 12.325579158412618 0.0 -4.68795615479604 11.92665259438728 0.0 -3.6360452976842432 11.633433279439709 0.0 -2.4935620018524243 11.44974839027157 0.0 -1.270227311499321 15.362428957345738 0.0 -7.114887229726139 14.504857643794441 0.0 -6.96573904572832 13.73857734866776 0.0 -6.52819668390776 13.07202403144722 0.0 -5.865291662818981 12.499468201128389 0.0 -5.06320322181754 12.0150996901368 0.0 -4.1761348754448795 11.618520120639399 0.0 -3.221180471759909 11.31913799863602 0.0 -2.194646406739052 11.134808165769119 0.0 -1.1128962879521058 15.13952740061919 0.0 -6.5187225788859 14.223857752657262 0.0 -6.327055425885539 13.4091843780375 0.0 -5.927690627979 12.71965521714741 0.0 -5.30150126364693 12.13767605289288 0.0 -4.54547691357312 11.650415101405919 0.0 -3.716975545805088 11.25915234160617 0.0 -2.841466627155393 10.962390931052402 0.0 -1.9226249383246532 10.781819772791849 0.0 -0.9693357904888741 14.870365773298442 0.0 -5.93725000862308 13.899961453640161 0.0 -5.72152019486088 13.04714852803386 0.0 -5.33228216961242 12.3285340166615 0.0 -4.7738505022869795 11.734103463149198 0.0 -4.07987520914248 11.253774463351 0.0 -3.3160876703631597 10.87029378955248 0.0 -2.506506750404106 10.5878322283433 0.0 -1.6786245700238 10.40814306203217 0.0 -0.8409442262334861 14.712198548352243 0.0 -5.2433681444293505 13.585352093287561 0.0 -5.14043635749018 12.66277815845496 0.0 -4.79010446998128 11.92402379320659 0.0 -4.28088402012336 11.318471536943338 0.0 -3.6581690624249155 10.83498629660964 0.0 -2.962525469611488 10.45747442410041 0.0 -2.2370643117015536 10.180347554897521 0.0 -1.492214653837644 10.01447862713226 0.0 -0.7439868607673881 14.602274158065958 0.0 -4.46716650486424 13.30259601926255 0.0 -4.4866697056250295 12.323059618267092 0.0 -4.25536652652034 11.51981320747848 0.0 -3.8345975731805124 10.899868897338221 0.0 -3.2943768271012264 10.41072718896567 0.0 -2.666506851305879 10.031332145556998 0.0 -2.007614710641332 9.76082561531624 0.0 -1.333499945926244 9.59336072761344 0.0 -0.661698601684664 14.57605190230862 0.0 -3.7082536901108627 13.11713145169372 0.0 -3.817343107209984 11.993458671077379 0.0 -3.6807157213142596 11.165413687416478 0.0 -3.3748203861538886 10.505994533598301 0.0 -2.92484645337012 10.003433391313559 0.0 -2.3949141802610243 9.62565948884012 0.0 -1.797505993046742 9.3552596118403 0.0 -1.18710416315439 9.1947524934134 0.0 -0.5868195807884701 14.704136507072397 0.0 -2.978090667978528 13.058339471749079 0.0 -3.12417254764824 11.77775381631642 0.0 -3.1064995077496738 10.843733004388382 0.0 -2.891103983829891 10.16237742847602 0.0 -2.552467562014026 9.63797253906195 0.0 -2.096334747662325 9.25495998117552 0.0 -1.5928894766241 8.98693648223139 0.0 -1.053853694844336 8.832418015805551 0.0 -0.522470173149258 15.085306341629678 0.0 -2.461659426979077 13.181783953694222 0.0 -2.493166338664892 11.709946412781228 0.0 -2.523564362561131 10.6358241984401 0.0 -2.4177704216327753 9.86910444727272 0.0 -2.156504889957243 9.326206662526602 0.0 -1.8055935429398902 8.92746545190938 0.0 -1.377977088933108 8.66139523773043 0.0 -0.9232335398290679 8.508115070736059 0.0 -0.46411869664513994 15.90564207268554 0.0 -2.361595122961485 13.63684943019525 0.0 -2.06405887818921 11.858053384178369 0.0 -2.013451727455143 10.594476158325602 0.0 -1.9415785011354598 9.7111355146401 0.0 -1.788274449964725 9.08338339018428 0.0 -1.5088599004087078 8.671913402868 0.0 -1.1673600773339519 8.386536347922961 0.0 -0.794592847203588 8.232395457853501 0.0 -0.40175535239955007 17.03974594085895 0.0 -2.532345350036625 14.59221867497312 0.0 -2.094350187968448 12.473519203079412 0.0 -1.6946352566253111 10.81620738386912 0.0 -1.572642434243488 9.73099278444216 0.0 -1.435649619994709 8.98882712864331 0.0 -1.254460254846071 8.50309063556284 0.0 -0.9824683290075599 8.20356209953735 0.0 -0.6691366333212599 8.03278214800677 0.0 -0.3359024549657588 18.457128452853862 0.0 -2.898973827741338 15.794729092243712 0.0 -2.411451503906011 13.585661249456809 0.0 -1.87743754639401 11.62561292848258 0.0 -1.4750790701602863 10.07989792241236 0.0 -1.272956428231775 9.1095808797904 0.0 -1.0693124901663602 8.50629503471053 0.0 -0.84470563834397 8.14855674606327 0.0 -0.594188543175899 7.956058086671121 0.0 -0.309020791647202 19.671296813330002 0.0 -3.1561240898806955 17.138218746756802 0.0 -2.688066059217 14.769880611791297 0.0 -2.336875203071192 12.922086209440998 0.0 -1.8998717097217521 11.090904821333629 0.0 -1.606049940591275 9.6640631821118 0.0 -1.29039915894274 8.7941365511122 0.0 -0.93161346924538 8.292759888472888 0.0 -0.616768912524635 8.0603690528284 0.0 -0.304086476052282 18.147427227043952 0.0 -2.847267676311597 16.002655258619612 0.0 -2.543496039768684 13.96648568743302 0.0 -2.382639868403655 12.253347244125 0.0 -2.2525088430340077 10.9782182403585 0.0 -1.9058726496234002 10.00827180962388 0.0 -1.38735104327118 9.376556885916361 0.0 -0.8646801250870141 9.025124875911 0.0 -0.40942498773192 15.00528434174874 0.0 -2.4183159731749533 13.29073769704569 0.0 -2.4104555285988662 11.83503480324129 0.0 -2.259546255463218 11.12316492090411 0.0 -1.6277808547633892 10.751265839915998 0.0 -0.9881561679678 10.54500876356607 0.0 -0.459319757860044 12.8730766969441 0.0 -2.2761340901765057 11.78336202449624 0.0 -1.97418596523 11.36329578230882 0.0 -1.179400343468603 11.10920691821355 0.0 -0.5368262283857761 -0.095293642382341 0.0 -2.5732857043321408e-08 -0.09532368238309201 0.0 0.00040770625019265596 -0.09540281438507031 0.0 0.0008754138218853451 -0.0954966223874155 0.0 0.001456688396417209 -0.09553871438846781 0.0 0.0022311646957791165 -0.0954396743859918 0.0 0.0032222282805557056 -0.09505186237629651 0.0 0.0045183517129587895 -0.09419597435489929 0.0 0.00613105775327644 -0.12988820324720501 0.0 -3.79971489499287e-08 -0.12995279124881973 0.0 0.0005578644539466109 -0.13012907925322692 0.0 0.0011956061498901531 -0.1303727192593179 0.0 0.001969637969240948 -0.1305936352648408 0.0 0.0029792430744810753 -0.1306639712665992 0.0 0.004287489307187231 -0.1303905752597643 0.0 0.005962262549056561 -0.1295065192376629 0.0 0.008081779002044471 -0.17350186433754652 0.0 1.200346590008664e-08 -0.1736141003403524 0.0 0.000653351736333793 -0.1739281083482026 0.0 0.0013929153148228822 -0.1743804243595105 0.0 0.002297785177444628 -0.1748584323714607 0.0 0.0034676388866909697 -0.1751869003796724 0.0 0.00499483132487078 -0.17511934437798352 0.0 0.00693059377326484 -0.17429498835737461 0.0 0.009363691034092271 -0.224598245614956 0.0 3.0243257556081425e-08 -0.22477236161930889 0.0 0.000696986617424665 -0.2252679896316996 0.0 0.001482992637074815 -0.2260038896500971 0.0 0.0024671540216788493 -0.2268397376709933 0.0 0.0037310258532756444 -0.22754714968867862 0.0 0.005411766535294161 -0.2278216896955421 0.0 0.00752130898803272 -0.2272052336801307 0.0 0.010175095854377389 -0.2836999470924985 0.0 4.731223318280581e-08 -0.2839542950988572 0.0 0.0007007945375198631 -0.2846874311171856 0.0 0.0014937289573432229 -0.28579893914497334 0.0 0.0025176756629418902 -0.2871217551780437 0.0 0.0038292140557303488 -0.28837984320949595 0.0 0.00557980893949522 -0.28918944322973594 0.0 0.00784879939621998 -0.2890035712250891 0.0 0.01066153306653832 -0.3521993728049841 0.0 2.29648325741208e-08 -0.35255695281392363 0.0 0.000679846856996171 -0.3535963368399082 0.0 0.001465712796642819 -0.3552036608800913 0.0 0.002480499502012486 -0.3571736169293402 0.0 0.00384831809620795 -0.35919669697991724 0.0 0.00565614054140351 -0.3608042810201068 0.0 0.008052921401323031 -0.3613492810337318 0.0 0.01100421867510546 -0.431864450796611 0.0 -1.4945217573630428e-07 -0.432354570808864 0.0 0.000658726336468158 -0.43378373084459304 0.0 0.0014497724762443111 -0.436026170900654 0.0 0.00247764446194111 -0.438850610971265 0.0 0.003905940537648511 -0.44190641104766 0.0 0.005795228544880711 -0.444638491115962 0.0 0.00834468860861721 -0.4462970511574261 0.0 0.01145204988630124 -0.524636573115914 0.0 2.913921072848025e-08 -0.525294933132373 0.0 0.0006814898970372471 -0.527222533180563 0.0 0.0015123261578081533 -0.53028281325707 0.0 0.002605303825132594 -0.53421561335539 0.0 0.00415557290388932 -0.538632533465813 0.0 0.00619891535497288 -0.5429016135725401 0.0 0.00894568662364216 -0.546131973653299 0.0 0.012337855508446379 -0.632599815814995 0.0 -2.992653754816342e-07 -0.633472135836803 0.0 0.000774298339357458 -0.636037935900948 0.0 0.001724828283120706 -0.6401441760036041 0.0 0.002985121394628033 -0.6455013361375331 0.0 0.00477902771947569 -0.6516756562918911 0.0 0.00713603577840089 -0.657955576448889 0.0 0.01026687425667185 -0.6633089765827239 0.0 0.014135846753396162 -0.7579730189493251 0.0 -8.94833662370841e-08 -0.759116378977909 0.0 0.000965646944141173 -0.7624870590621761 0.0 0.002150656333766407 -0.767913179197829 0.0 0.003731182293279555 -0.775070619376765 0.0 0.0059637161490929 -0.7834724595868111 0.0 0.0088972882224322 -0.792316459807911 0.0 0.01276321751908043 -0.8004347000108669 0.0 0.01744563323614082 -0.9031724225793101 0.0 -3.2234612005865283e-07 -0.904651462616286 0.0 0.0012795001519875031 -0.909019582725489 0.0 0.002842214591055363 -0.9160881429022029 0.0 0.00494699012367475 -0.9254928631373212 0.0 0.007886149797153741 -0.9366769034169221 0.0 0.01177446869436171 -0.9487194237179851 0.0 0.016916004422900102 -0.9603620640090511 0.0 0.022903797772594933 -1.070875386771884 0.0 -1.663845121596127e-07 -1.0727654668191362 0.0 0.0017243637231090922 -1.078364786959119 0.0 0.0038260472156511783 -1.0874595071864872 0.0 0.00669030496725762 -1.099643067491076 0.0 0.010663952266598801 -1.1142655478566381 0.0 0.01596933039923325 -1.130286148257153 0.0 0.022918141372953522 -1.1462864286571601 0.0 0.031031287575782173 -1.26403363160084 0.0 -3.6915272122881787e-07 -1.266427151660678 0.0 0.002278575376964383 -1.273537751838443 0.0 0.0050839041270976 -1.2851087921277191 0.0 0.0089388322234708 -1.300681992517049 0.0 0.014251177556279429 -1.3195101929877542 0.0 0.02149763773744093 -1.340424873510621 0.0 0.03086893357172332 -1.361755394043884 0.0 0.042112061052801505 -1.4858177571454432 0.0 2.395108899877721e-07 -1.488824517220612 0.0 0.00289971967249299 -1.4977707174442672 0.0 0.00653015536325388 -1.512333437808335 0.0 0.011530583088264571 -1.5320255583006381 0.0 0.01859997686499941 -1.555946118898652 0.0 0.028369665909241632 -1.582796599569914 0.0 0.0408507450212686 -1.610644960266123 0.0 0.0563371014084275 -1.739515723487892 0.0 1.098648347466208e-06 -1.743263483581586 0.0 0.003507606407690158 -1.754399523859987 0.0 0.00792407939810198 -1.772599284314981 0.0 0.01430325115758127 -1.797243924931097 0.0 0.02349984698749616 -1.827275685681891 0.0 0.03622343050558574 -1.861264286531606 0.0 0.05260232131505801 -1.8970322074258044 0.0 0.0735241778381044 -2.028452370711308 0.0 5.87850654696266e-07 -2.033095410827384 0.0 0.00401228210030705 -2.0468731311718273 0.0 0.00918084542952113 -2.0694298117357444 0.0 0.01703516882587921 -2.0999642124991045 0.0 0.02846508111162701 -2.1373560534339 0.0 0.0444939531123488 -2.1799610544990253 0.0 0.0658803376470084 -2.225298575632463 0.0 0.0934651143366278 -2.3560091789002278 0.0 -6.760801769020042e-08 -2.3617306190432643 0.0 0.00430619890765497 -2.378690779467268 0.0 0.010076211451905279 -2.406482940162072 0.0 0.019467349686683733 -2.4440928211023194 0.0 0.033114529627863216 -2.490350022258749 0.0 0.0532047933301198 -2.543286783582168 0.0 0.0803760620094015 -2.6000883850022083 0.0 0.1159024988975624 -2.725647428141184 0.0 -4.0433405010835095e-08 -2.732667788316693 0.0 0.00430073330751833 -2.7534737488368424 0.0 0.01043986546099663 -2.787557309688931 0.0 0.02135059133376477 -2.833711710842791 0.0 0.03727124733178116 -2.890564792264118 0.0 0.0621342735533568 -2.9558829138970713 0.0 0.0956395183909879 -3.026281035657024 0.0 0.14063759151593969 -3.1408295585207373 0.0 4.74154171853854e-07 -3.14942767873569 0.0 0.004024538500613461 -3.1748854393721344 0.0 0.010300075457501879 -3.2164570804114248 0.0 0.022047529351188224 -3.273014161825352 0.0 0.0409247690231192 -3.34250688356267 0.0 0.07092924177323101 -3.42239768555994 0.0 0.11092704677317611 -3.5084782477119543 0.0 0.16511699212792472 -3.604819570120487 0.0 1.7160641229016022e-06 -3.6153256503831392 0.0 0.0036949810523745244 -3.646400931160021 0.0 0.01007227025180675 -3.697065052426624 0.0 0.02274545776863643 -3.7660160941504 0.0 0.0444842491121062 -3.850598616264963 0.0 0.0793823979845599 -3.947367178684177 0.0 0.1254190471354761 -4.05232650130816 0.0 0.191385284784632 -4.1203961030099 0.0 -1.1070137076753421e-06 -4.133179703329491 0.0 0.0038010042950251052 -4.171012504275311 0.0 0.010734610668365261 -4.23260490581512 0.0 0.02475049701876241 -4.31632050790801 0.0 0.049475985236899604 -4.418840110471001 0.0 0.08944971823624291 -4.535873313396831 0.0 0.14275011156875272 -4.6625853165646305 0.0 0.21994028549850703 -4.68977451724436 0.0 -2.441485821037144e-06 -4.705230917630771 0.0 0.00523517973087949 -4.75112931877823 0.0 0.01418935835473395 -4.82574972064374 0.0 0.03069406516735161 -4.92693412317335 0.0 0.05897387347434681 -5.0506129262653205 0.0 0.1043833386095834 -5.1914157297853905 0.0 0.1658262401456559 -5.34355053358876 0.0 0.2532177503304436 -5.314778532869459 0.0 1.4726051168151271e-06 -5.33337973333449 0.0 0.00976617064415426 -5.388765334719131 0.0 0.023514129787853232 -5.47868893696722 0.0 0.045025689125642206 -5.60028174000704 0.0 0.0783903739597593 -5.748754143718851 0.0 0.1301631112540777 -5.9172373479309295 0.0 0.20003703300092568 -6.098736152468399 0.0 0.29650154741253854 -5.99731514697195 0.0 5.96278870812975e-07 -6.0196482691513395 0.0 0.01981017451490132 -6.085959533804759 0.0 0.0439849828853165 -6.19350037414532 0.0 0.0749031034127324 -6.33865338018102 0.0 0.11631852941045559 -6.515541952647211 0.0 0.1762081918028195 -6.715647955095451 0.0 0.2568273569304515 -6.9309263171016 0.0 0.3588884386656096 -6.74016272593665 0.0 -8.23062850910484e-07 -6.7667659002368 0.0 0.040027352081696 -6.8453534493971295 0.0 0.0827364624138396 -6.972524763383821 0.0 0.1291663188726228 -7.1441086322616 0.0 0.18499141497258 -7.35302996197142 0.0 0.2556836534009712 -7.59008100092199 0.0 0.3481146742324438 -7.84233531510694 0.0 0.455296920033724 -7.5473753520296105 0.0 9.946587366252302e-07 -7.578245005157521 0.0 0.07320791577251161 -7.669720054625761 0.0 0.14625262238624642 -7.81832996428224 0.0 0.2198686310965248 -8.018862726489179 0.0 0.2977614864325299 -8.26305422782776 0.0 0.3846165210662436 -8.53996575234948 0.0 0.4853310930276541 -8.834836339082251 0.0 0.60697993295835 -8.424499453327421 0.0 -1.9711538181960863e-06 -8.459888307160249 0.0 0.1245450410134175 -8.5646745796806 0.0 0.245835721411783 -8.7347985088635 0.0 0.361140136376829 -8.964698487667999 0.0 0.47378593942472497 -9.24606143239712 0.0 0.585108340135872 -9.56471323005404 0.0 0.7004347031900059 -9.9038150826995 0.0 0.82595224251465 -9.37158103393488 0.0 4.955077746101159e-06 -9.41134428238224 0.0 0.199442010561024 -9.52971721378248 0.0 0.3890120537806272 -9.7229750823165 0.0 0.566297377620522 -9.983257854637499 0.0 0.728797044385575 -10.30047716462409 0.0 0.880103040975222 -10.660960209134402 0.0 1.0175247050496 -11.04376355273055 0.0 1.145508516554868 -10.377166190839851 0.0 4.35246301024537e-06 -10.42234365851991 0.0 0.2879141351823542 -10.555175007204081 0.0 0.5688051078388799 -10.77093435095536 0.0 0.8327379556176121 -11.062127351523799 0.0 1.07124337760742 -11.41443705940434 0.0 1.2776866598276562 -11.81204883663583 0.0 1.455766320228057 -12.23644702879181 0.0 1.5984296299830898 -11.424412923798018 0.0 5.83354083909378e-06 -11.47298969102507 0.0 0.398960327618328 -11.61952717191798 0.0 0.7887312732950599 -11.856043858586542 0.0 1.158640190151032 -12.172814556340299 0.0 1.4950827294972011 -12.555115243466581 0.0 1.78405880246891 -12.982758806595811 0.0 2.012027009140922 -13.435491514476 0.0 2.18481392182344 -12.46018160340092 0.0 -3.509314090476608e-06 -12.508309285318221 0.0 0.535241422457291 -12.668114236661278 0.0 1.071814807425252 -12.92271728156264 0.0 1.5817461705537839 -13.255669843875452 0.0 2.0388188524257758 -13.6541284964025 0.0 2.4261016642512 -14.09975504458976 0.0 2.721185369966336 -14.56532810980674 0.0 2.9299461962145723 -13.42171404545396 0.0 1.910906063601627e-06 -13.470160487350368 0.0 0.726350448519473 -13.64258144901872 0.0 1.4433347845822397 -13.912819865090752 0.0 2.1105508053415 -14.27114445442088 0.0 2.6884664663112128 -14.685667278553252 0.0 3.1753602981099744 -15.12991004811419 0.0 3.525625091417447 -15.5940107548357 0.0 3.7396170080863222 -14.29616290789008 0.0 -6.712135683170399e-06 -14.357354400074248 0.0 0.9356498456600251 -14.535273421565998 0.0 1.8255750096174748 -14.815087138077752 0.0 2.6379013666745252 -15.163721425557059 0.0 3.3547587794131406 -15.577642963003468 0.0 3.9561750641929496 -16.030026655586642 0.0 4.41016588612626 -16.503214797157504 0.0 4.688682864050251 -15.0085825767298 0.0 -8.021379079994801e-06 -15.0683340012468 0.0 1.16734129167892 -15.24194788753472 0.0 2.2774751936533084 -15.51109214737858 0.0 3.290074574082588 -15.843978458717078 0.0 4.19172007785453 -16.23977357126812 0.0 4.92016548349123 -16.63304041651359 0.0 5.42996296443694 -17.10553670777728 0.0 5.767226708420799 -15.414706973693129 0.0 -4.32843313234212e-06 -15.476001323660201 0.0 1.4944296622569917 -15.65854634841946 0.0 2.9199906615937294 -15.93738484358157 0.0 4.22855116956105 -16.29249965301204 0.0 5.38115353121148 -16.69124353103046 0.0 6.33490482165867 -17.07925932445014 0.0 7.03812605609862 -17.43504038251434 0.0 7.397320649445989 -15.4647255783153 0.0 4.2289621543168996e-07 -15.53437844058111 0.0 1.828344510845314 -15.737033369677258 0.0 3.578905633311618 -16.04299969254275 0.0 5.1990401199595 -16.43155306048018 0.0 6.65728591250261 -16.867840896001407 0.0 7.93916515446474 -17.234910529149303 0.0 8.983491389341951 -17.5160877602408 0.0 9.72979334856504 -12.977217913666559 0.0 1.882443899588448e-06 -13.0453962672525 0.0 2.114636122373925 -13.24485552330462 0.0 4.14129701545776 -13.562012848631941 0.0 6.0265269007551305 -13.97764745960856 0.0 7.757440090259999 -14.46802459792155 0.0 9.33484571810055 -14.993470582533092 0.0 10.736024425873293 -15.538632265035089 0.0 11.888685103237739 -8.305268974316519 0.0 1.477139527748231e-05 -8.35705000178304 0.0 2.300600838802688 -8.50775750159726 0.0 4.500517719253599 -8.74467160453993 0.0 6.53639008907946 -9.04991996945036 0.0 8.38917351215496 -9.4030654133678 0.0 10.0556393771656 -9.78206018107953 0.0 11.513232687467548 -10.161681300610299 0.0 12.67748918404956 -4.74933637649562 0.0 -9.029804250531399e-06 -4.78364504462236 0.0 2.4319653103723082 -4.88269297352102 0.0 4.7518790601632 -5.0358199403391 0.0 6.8875635085377995 -5.22829058872231 0.0 8.81452715243906 -5.443726653705119 0.0 10.526079263428 -5.6648941716655195 0.0 11.99481239681756 -5.87235845118076 0.0 13.128299115147481 -2.12379242793032 0.0 7.564884364363201e-06 -2.141234382108696 0.0 2.50897093587893 -2.1907031122996847 0.0 4.8969510918305 -2.264615807133134 0.0 7.084854439065129 -2.35257842782875 0.0 9.0443971193375 -2.4435852939831535 0.0 10.767070499191739 -2.527132335428099 0.0 12.22299439017465 -2.592362590504686 0.0 13.3147657109771 0.0470216327814837 0.0 -1.179148619054574e-05 0.0450146508724197 0.0 2.5358554266759183 0.0405628283118645 0.0 4.94487004068795 0.0378487087902972 0.0 7.1435989048140005 0.0423891167635881 0.0 9.10175408984853 0.059402716046515806 0.0 10.810975084247522 0.0924352641302874 0.0 12.2418659466573 0.14360938365642 0.0 13.29593025364696 2.1810909042937596 0.0 -1.2206681039354e-05 2.192769056003942 0.0 2.5189079642511985 2.228102150254 0.0 4.908418590765 2.287827783325881 0.0 7.08334867020684 2.372926115220064 0.0 9.0132303228878 2.483224312963398 0.0 10.69145806506335 2.616535000228968 0.0 12.091431777671609 2.767975133402472 0.0 13.117215914124747 4.446174879696731 0.0 8.26496682021094e-06 4.46982592181775 0.0 2.4643123344073 4.539913586698519 0.0 4.79986820188064 4.65428575779845 0.0 6.9221817939813 4.809788304005299 0.0 8.80202023801375 5.0021034463711995 0.0 10.435403504354401 5.22492058506352 0.0 11.79987100361344 5.469042792888571 0.0 12.804145241004491 6.7720844848335195 0.0 5.0687974083365196e-08 6.8061556951019 0.0 2.377333729650191 6.9066619913634 0.0 4.629426890932221 7.068932400189801 0.0 6.674484092987381 7.2865916451506 0.0 8.485500628764699 7.5522358527201 0.0 10.06141616730387 7.85706251097945 0.0 11.38395730333311 8.18993241101133 0.0 12.367516457493961 8.98422829605245 0.0 -4.98157593216828e-06 9.02734784662302 0.0 2.26236371378362 9.15421520547545 0.0 4.405263978188479 9.35826433215856 0.0 6.35136165050192 9.63058979001998 0.0 8.076555230390838 9.96156922613063 0.0 9.582545685613281 10.3409906045424 0.0 10.8545606574932 10.7571844938119 0.0 11.81254137924425 10.895074253555691 0.0 1.809917598251586e-06 10.94650806895992 0.0 2.123197247740276 11.0978268396178 0.0 4.134643104947699 11.34066855149685 0.0 5.962856841258979 11.662452345494579 0.0 7.58705530531844 12.05259489899696 0.0 9.01109734195352 12.50000309528072 0.0 10.22308831298939 12.99197027412519 0.0 11.14775223190258 11.788310829552572 0.0 8.16467361138866e-07 11.846853052298279 0.0 1.9634540827689118 12.0198789957812 0.0 3.825224682360168 12.30070906145485 0.0 5.5196742097877705 12.684174713857459 0.0 7.029188129870279 13.1578305591096 0.0 8.3586971235198 13.69030755643038 0.0 9.499897413030961 14.290840949137198 0.0 10.3818278248236 11.920574276014 0.0 7.6339554994975e-06 11.980119762235999 0.0 1.788808967605607 12.156942087004522 0.0 3.4874396151533076 12.446146903609659 0.0 5.039482585769719 12.8394920897747 0.0 6.42773058727765 13.319174513060847 0.0 7.6541957731141 13.872564721730802 0.0 8.716151222744001 14.49382803594908 0.0 9.54780427122522 11.8506393809699 0.0 1.3961039374372698e-05 11.910963372103659 0.0 1.6073211315346978 12.09039533624629 0.0 3.138665185795111 12.38282664231304 0.0 4.54516704722952 12.776606295208799 0.0 5.81129980433928 13.25601462168195 0.0 6.937939070870952 13.81191468756418 0.0 7.9237127304379 14.431324755378093 0.0 8.7029990533746 11.656161826872001 0.0 6.180531969048e-06 11.719007520216001 0.0 1.4301781477416 11.90798721231756 0.0 2.799311698944306 12.205363841616002 0.0 4.061958716352 12.601290737501728 0.0 5.20533990763776 13.0765145638446 0.0 6.2407566585045 13.63233758632722 0.0 7.156983386938739 14.260206839874868 0.0 7.89659602357728 11.38726521516285 0.0 2.42329287315816e-05 11.449735106599078 0.0 1.270221474734136 11.63343086422689 0.0 2.4935681606451148 11.926674331302662 0.0 3.636044170584927 12.3255936496917 0.0 4.687960582686869 12.81312591431796 0.0 5.631180646119 13.37814840255729 0.0 6.47722199736273 14.02224951087036 0.0 7.17747699109851 11.072506110059058 0.0 5.43311170916379e-06 11.13478725096248 0.0 1.112889571081512 11.31913357435 0.0 2.194656381492988 11.61852856700299 0.0 3.221180069552119 12.01509204818708 0.0 4.1761364842764 12.49946055918038 0.0 5.06320402623312 13.07202121599248 0.0 5.86528924957206 13.738568097886521 0.0 6.5281982927392805 10.719472459557121 0.0 -1.93701485387487e-06 10.781824997640959 0.0 0.9693406938088079 10.96240178266047 0.0 1.9226247775600893 11.2591639970388 0.0 2.841466064479335 11.650426756837678 0.0 3.7169694367512 12.13769212935048 0.0 4.54548133459896 12.71965682479329 0.0 5.301506890407509 13.409178349364998 0.0 5.927693843271 10.343000975661031 0.0 -5.91807737325404e-07 10.40815551319736 0.0 0.840935510417853 10.5878241953323 0.0 1.6786270602572102 10.870295396154798 0.0 2.5065146227554735 11.253774463351 0.0 3.31608614409107 11.73409824169244 0.0 4.0798776190456 12.328532811709758 0.0 4.77384287092596 13.047152946190572 0.0 5.33227935805815 9.961533170257681 0.0 2.7922955359739883e-06 10.0144802328381 0.0 0.74398714176591 10.180333906395841 0.0 1.4922158982598561 10.45748044549686 0.0 2.2370627461384776 10.834988705168762 0.0 2.9625227800538045 11.31847635406086 0.0 3.6581694237087303 11.92400452472931 0.0 4.28088482297658 12.66279421552056 0.0 4.79010045571488 9.544012678533202 0.0 2.84690469930626e-06 9.59336072761344 0.0 0.6616938670710719 9.760830028939079 0.0 1.333500226793152 10.031326929457279 0.0 2.007613747669076 10.41072718896567 0.0 2.666507814278063 10.89986608866956 0.0 3.2943733764511585 11.5198124050016 0.0 3.834601384945692 12.323072457900048 0.0 4.2553645203276895 9.145515903938872 0.0 2.465414671614115e-06 9.1947569053407 0.0 0.58681512875274 9.355256403165901 0.0 1.1871068504192 9.62567192245714 0.0 1.797503867299316 10.003431385891759 0.0 2.394911132019888 10.505993731429701 0.0 2.92484894009278 11.1654144895852 0.0 3.374822712443176 11.99347712095656 0.0 3.6807161223985894 8.78545080695325 0.0 -1.065576223188765e-06 8.83241119947552 0.0 0.522467446617246 8.98693527934926 0.0 1.053856982722158 9.25496078309688 0.0 1.5928865095150682 9.637980959235598 0.0 2.0963339858370897 10.16238264096369 0.0 2.55246740162979 10.84372939574199 0.0 2.891105307000234 11.7777506086305 0.0 3.1064983850596017 8.45933243693888 0.0 1.738065264866784e-06 8.50812028196312 0.0 0.46411793500426207 8.661388823911071 0.0 0.923236706652377 8.927467055363739 0.0 1.3779798548918791 9.32621347720865 0.0 1.8055924205216702 9.86910605072708 0.0 2.1565043287482166 10.635818185485352 0.0 2.4177706220646002 11.709958438696129 0.0 2.5235653246343226 8.175018687114239 0.0 -4.2049341137928e-07 8.2323946562754 0.0 0.40176260668135494 8.38654316133732 0.0 0.7945917249941641 8.67190819260996 0.0 1.167362642384064 9.08338339018428 0.0 1.5088589385148439 9.711134713061998 0.0 1.7882742495701998 10.59448096779528 0.0 1.9415796233450517 11.858055788913388 0.0 2.013457819450527 7.9743053991687 0.0 -1.0137943274314501e-08 8.03278976193358 0.0 0.3359024790097382 8.20356690833251 0.0 0.669134589583317 8.503087429698681 0.0 0.982470452892566 8.98882793010917 0.0 1.2544594934535038 9.73099438737412 0.0 1.4356494196282141 10.81621539852952 0.0 1.57263926845263 12.47352601554024 0.0 1.6946329724472682 7.89810526351888 0.0 -1.341356141530082e-06 7.956057285287981 0.0 0.3090210040137341 8.14855554398838 0.0 0.594188703452551 8.50629623678542 0.0 0.8447066801422081 9.1095824825568 0.0 1.06931277065048 10.07989792241236 0.0 1.2729583515518867 11.62561052433262 0.0 1.475079470851946 13.585662852223091 0.0 1.877438868676191 7.9783670009351 0.0 -7.94286635948795e-07 8.060371857461 0.0 0.30408917250619605 8.292762693105281 0.0 0.616768832392281 8.79413494846524 0.0 0.9316160334805159 9.664065185420801 0.0 1.29039827748678 11.09091043059925 0.0 1.6060503011869218 12.922086209440998 0.0 1.8998722706483557 14.769891028999659 0.0 2.33687211797487 8.91453054763908 0.0 -5.04652630138488e-08 9.0251260778331 0.0 0.40942434670680006 9.376562895528659 0.0 0.86467944399762 10.00827581603148 0.0 1.387351163463408 10.9782190416399 0.0 1.90587301020003 12.253352051814119 0.0 2.25251112668634 13.966490495121779 0.0 2.382642712952838 16.00265686118253 0.0 2.5434939564368877 10.46102430379482 0.0 7.358469360324811e-07 10.545004757306371 0.0 0.45931827554395493 10.751268243671998 0.0 0.988156448406 11.12316291777426 0.0 1.6277808547633892 11.83503159823353 0.0 2.2595468564021735 13.290740902053932 0.0 2.410454567096394 15.00528874863573 0.0 2.4183199794358528 11.041441501358722 0.0 -2.7777505598122266e-07 11.109205315749112 0.0 0.536826949494774 11.36329658354116 0.0 1.179399862729199 11.783360422031919 0.0 1.9741858049835679 12.873073892631961 0.0 2.27613296845165 -0.0926410583160264 0.0 0.00805851300146282 -0.0901085142527128 0.0 0.01035669185891729 -0.08638957815973941 0.0 0.01284913592122839 -0.0812161940304048 0.0 0.01548011798700294 -0.07445913786147841 0.0 0.01792134084803351 -0.06583085364577129 0.0 0.020051584101289592 -0.055489841387246004 0.0 0.02120822413020559 -0.1277180711929517 0.0 0.01055832066395801 -0.1245938111148452 0.0 0.013516197137904922 -0.1197769789944244 0.0 0.01676050161901253 -0.11291731882293289 0.0 0.02006305490157636 -0.1036948945923723 0.0 0.022960207374005174 -0.0915538462888461 0.0 0.025219548230488695 -0.0760753539018838 0.0 0.02625458305636456 -0.056793213419830305 0.0 0.0286460527161513 -0.1722887683072191 0.0 0.012259812306495302 -0.1685506402137659 0.0 0.015624781190619523 -0.1625419080635476 0.0 0.01928905008222624 -0.1537148638428715 0.0 0.02305121497628036 -0.1416442195411054 0.0 0.026282135457053372 -0.12548568713714212 0.0 0.029059488326487193 -0.10493076262326899 0.0 0.030739057968476428 -0.0790854219771355 0.0 0.03275121521878036 -0.2251217416280434 0.0 0.013380104734502612 -0.22087150152178742 0.0 0.0170597884264947 -0.21369069334226723 0.0 0.0211338285283457 -0.2028565210714129 0.0 0.02533913623347839 -0.1877849726946242 0.0 0.029031751125793762 -0.16742372818559312 0.0 0.03232085200802128 -0.1412192995304824 0.0 0.03441640206041004 -0.1073186906829672 0.0 0.03707091892677295 -0.2870691351767282 0.0 0.014133359953333991 -0.282525047063126 0.0 0.018067986051699642 -0.2743382028584549 0.0 0.022529842563246052 -0.2615842425396059 0.0 0.027195990679899747 -0.243484766087119 0.0 0.03138638798465968 -0.2186351814658794 0.0 0.03528288688207215 -0.1859731006493274 0.0 0.03808308935207721 -0.14247675156191872 0.0 0.042307081057677005 -0.35989013699725325 0.0 0.014709107967727689 -0.3553607088840175 0.0 0.018913232072830792 -0.3464737006618423 0.0 0.02366426499160661 -0.33201001630025023 0.0 0.02875210711880266 -0.31095450777386247 0.0 0.033430893235772315 -0.2813655910341396 0.0 0.03812005615300138 -0.24149342203733543 0.0 0.0421090610527265 -0.1866641086666026 0.0 0.0488222852205571 -0.44575545114388604 0.0 0.01533541878338546 -0.44167105104177606 0.0 0.019824602095615044 -0.43250561081264 0.0 0.02480444982011123 -0.416660610416515 0.0 0.0303095167577379 -0.3929175458229384 0.0 0.03542279088556975 -0.3584806529620161 0.0 0.0412185930304648 -0.3108382797709568 0.0 0.046971441174286 -0.2428072980701823 0.0 0.0575566534389163 -0.5470314536757861 0.0 0.01646151881153796 -0.543949653598741 0.0 0.021264826131620642 -0.535036573375914 0.0 0.02653901626347539 -0.5183662929591569 0.0 0.03247028681175715 -0.492323492308087 0.0 0.03809436655235914 -0.45333781133344503 0.0 0.0452948691323717 -0.3976364219409103 0.0 0.0536174533404363 -0.3149907198747678 0.0 0.0693972617349315 -0.6662667766566689 0.0 0.01869293046732325 -0.6648560166214001 0.0 0.0240012606000315 -0.6568681764217039 0.0 0.029866317546657924 -0.6400193360004831 0.0 0.0364107529102688 -0.6121922953048069 0.0 0.0428496770712419 -0.569474694236867 0.0 0.0511196612779915 -0.5061507326537681 0.0 0.0626343015658575 -0.409063170226579 0.0 0.08385525009638121 -0.8061395001534871 0.0 0.02290755137268877 -0.8071903401797582 0.0 0.029164100329102497 -0.80102722002568 0.0 0.03593573049839324 -0.7850040196250999 0.0 0.043153605078840106 -0.756148658903716 0.0 0.0508460052711501 -0.710653337766333 0.0 0.060087945502198606 -0.641476056036901 0.0 0.0736008178400204 -0.533712493342812 0.0 0.096959162423979 -0.9696146242403652 0.0 0.02997446434936159 -0.9740358643508961 0.0 0.03784685814617143 -0.9708729042718219 0.0 0.0458813931470348 -0.9568048639201211 0.0 0.0545047813626195 -0.9288086232202151 0.0 0.062345577558639405 -0.8824064620601609 0.0 0.0718777897969447 -0.8113729802843241 0.0 0.08552747013818669 -0.6982979374574481 0.0 0.108501722712543 -1.160052909001322 0.0 0.0404682970117074 -1.168834989220874 0.0 0.0509861252746531 -1.1699549892488739 0.0 0.0610923055273076 -1.1595259089881471 0.0 0.0719544977988624 -1.135008068375201 0.0 0.0808744220218605 -1.09025682725642 0.0 0.0945393583634839 -1.020367745509193 0.0 0.1168600589215014 -0.8954321023858022 0.0 0.1662885721572142 -1.3810678745266962 0.0 0.0552709493817737 -1.3954915548872882 0.0 0.0694701137367528 -1.402352355058808 0.0 0.0838968300974207 -1.3982916349572903 0.0 0.09979508249487701 -1.381091074527276 0.0 0.11714593492864832 -1.343102953577573 0.0 0.1504189997604749 -1.2810325120258121 0.0 0.2154201093855026 -1.159102268977556 0.0 0.3453855126346376 -1.636908000922699 0.0 0.0741325338533133 -1.658488121462202 0.0 0.09427218235680451 -1.6729650818241262 0.0 0.1167367029184175 -1.6783484019587092 0.0 0.1435491595887289 -1.6745312018632792 0.0 0.176306524407663 -1.654446281361156 0.0 0.23845964196149094 -1.612907440322685 0.0 0.354872448871811 -1.5185826779645661 0.0 0.53997441349936 -1.9319399282984973 0.0 0.0978951704473792 -1.9624170890604262 0.0 0.1262829591570739 -1.9867115696677882 0.0 0.1591272639781815 -2.00485445012136 0.0 0.2000122610003064 -2.019364610484114 0.0 0.2542297183557428 -2.0259121306478023 0.0 0.34205540055138484 -2.0181805304545124 0.0 0.49220329230508203 -1.9685326092133144 0.0 0.701617417540435 -2.2706308967657707 0.0 0.126123563153089 -2.3120296978007406 0.0 0.16476106011902641 -2.348333978708348 0.0 0.21007135325178372 -2.381874899546871 0.0 0.2658015546450387 -2.4162014604050355 0.0 0.33855267246381665 -2.4538845813471126 0.0 0.44838697120967397 -2.486266782156668 0.0 0.617393135434828 -2.4872990221824742 0.0 0.840560381014009 -2.6578484264462094 0.0 0.1585944919648622 -2.7121687478042174 0.0 0.20886454922161363 -2.7620261090506513 0.0 0.2676651066916275 -2.81198567029964 0.0 0.33838637645965924 -2.8681319117032964 0.0 0.42892897072322395 -2.936393433409834 0.0 0.554087853852196 -3.0093603952340082 0.0 0.736087498402187 -3.060090516502261 0.0 0.976711504417787 -3.098181797454543 0.0 0.1931735208293379 -3.1673649591841224 0.0 0.25695958642398953 -3.233082280827055 0.0 0.3324561923114046 -3.300541762513542 0.0 0.41813865045346604 -3.3786919644672966 0.0 0.523925973098149 -3.4776951669423766 0.0 0.660862896521572 -3.588964929724121 0.0 0.8574491814362291 -3.6844380521109494 0.0 1.117328107933202 -3.5972027699300666 0.0 0.2303494977587373 -3.6835965320899104 0.0 0.3107769557694237 -3.7659092941477303 0.0 0.40269533006738306 -3.8522351363058753 0.0 0.504593292614832 -3.953913978847847 0.0 0.625517255637931 -4.08567370214184 0.0 0.774087939352198 -4.2377081059427 0.0 0.9851237446280928 -4.37554730938868 0.0 1.2690709517267729 -4.16024770400619 0.0 0.270321806758045 -4.26547050663676 0.0 0.3681315532032886 -4.3657401091435 0.0 0.4788925319723131 -4.471980911799521 0.0 0.598891574972289 -4.5993145149828605 0.0 0.7368931384223281 -4.76855171921379 0.0 0.8986811024670271 -4.96812652420316 0.0 1.125427748135693 -5.15550892888772 0.0 1.4351492358787303 -4.792479719811991 0.0 0.31342666783566653 -4.918323322958081 0.0 0.429973690749342 -5.03778932594473 0.0 0.5618489740462239 -5.16464492911612 0.0 0.7024080975602021 -5.319643332991079 0.0 0.860702261517556 -5.53154253828856 0.0 1.039059185976479 -5.78844294471107 0.0 1.2826404720660112 -6.03866255096656 0.0 1.6191837604795933 -5.49842253746056 0.0 0.3618740170468502 -5.64713134117828 0.0 0.496671892416797 -5.78691094467277 0.0 0.651218096280452 -5.93532774838319 0.0 0.8157982203949551 -6.119854552996359 0.0 0.998777424969435 -6.37950855948771 0.0 1.199363349984083 -6.705247767631191 0.0 1.463899156597478 -7.03419977585499 0.0 1.8269823656745579 -6.281089757027241 0.0 0.42220685055517104 -6.456405761410141 0.0 0.570113534252838 -6.61868216546705 0.0 0.748808778720219 -6.78926656973166 0.0 0.9391557834788941 -7.00534297513357 0.0 1.1521810688045262 -7.31811378295284 0.0 1.3841761946044042 -7.72529459313236 0.0 1.6770859219271474 -8.15179140379478 0.0 2.066616291665406 -7.145408030861441 0.0 0.4972676075404439 -7.349617165869749 0.0 0.6559859995857259 -7.5375612797469005 0.0 0.85517520207102 -7.7328686994675 0.0 1.07106072494196 -7.98247638422228 0.0 1.319532427578116 -8.353176197312651 0.0 1.594622393948175 -8.856810099640839 0.0 1.931583348160386 -9.40341196831773 0.0 2.354426375563478 -8.09345829431332 0.0 0.5990109268784761 -8.33094646721571 0.0 0.768080197050647 -8.54589331478814 0.0 0.9723746583321888 -8.7680027039292 0.0 1.2226241478614401 -9.05783369408606 0.0 1.4997927468809533 -9.4943651950832 0.0 1.8331065167852063 -10.11090761600458 0.0 2.242349510677892 -10.805000004532571 0.0 2.701851542892647 -9.12614971075134 0.0 0.748936821244209 -9.39878421619725 0.0 0.9228010642137 -9.64785129925788 0.0 1.1263231968379201 -9.89970114491199 0.0 1.3822326301160128 -10.23771988729512 0.0 1.689934918452732 -10.7550955540155 0.0 2.096260486126464 -11.50131252132525 0.0 2.6193148734493743 -12.376078013144399 0.0 3.122977024539474 -10.24147709709743 0.0 0.969522754984904 -10.55252005111475 0.0 1.1297828091178248 -10.837714789452798 0.0 1.328495118727496 -11.13032968070174 0.0 1.5775048018716338 -11.523534864162249 0.0 1.892844633154225 -12.14421248955825 0.0 2.4061808588509 -13.044352329429747 0.0 3.07758418703835 -14.160482892045279 0.0 3.6724703973107364 -11.42661678190524 0.0 1.276261618346874 -11.78414981990298 0.0 1.4207268167501759 -12.10757626388646 0.0 1.588702167930528 -12.44997594265194 0.0 1.815841208050416 -12.911870736840001 0.0 2.143982294094294 -13.64426753644944 0.0 2.7294403376861283 -14.746692639111838 0.0 3.619125140971824 -16.18050532017375 0.0 4.37845112037 -12.658592278188129 0.0 1.7111357818476869 -13.06017466100645 0.0 1.813910829261073 -13.43672595435164 0.0 1.938027651836649 -13.832054250887841 0.0 2.1215341090108883 -14.38655372300795 0.0 2.4369520101087336 -15.248180137847859 0.0 3.0944453108731964 -16.589490667292647 0.0 4.252369603980339 -18.42147525613636 0.0 5.24587410403489 -13.88101632585125 0.0 2.313941417585465 -14.306079200640642 0.0 2.401612147427888 -14.74886203158384 0.0 2.402324612651168 -15.218599415574896 0.0 2.51972309789493 -15.886602777904251 0.0 2.788699476090327 -16.894271418493872 0.0 3.538515627483638 -18.493585489507808 0.0 4.98701055013656 -20.79081294205465 0.0 6.27944218192555 -15.033115340697998 0.0 3.031665781691745 -15.47596388281216 0.0 3.073551142759552 -15.927336391156501 0.0 3.09774958169625 -16.50262396136036 0.0 3.075817285281504 -17.30304005378838 0.0 3.272167670342945 -18.47477216974811 0.0 4.068956767666 -20.32172988305824 0.0 5.824532572571759 -23.079502706115658 0.0 7.498303280346059 -16.054760471994282 0.0 3.8341141013193236 -16.50457458865089 0.0 3.824867541662767 -16.96121909360124 0.0 3.8181630538878606 -17.5264058937345 0.0 3.8655533486745695 -18.45259124078944 0.0 4.03071719015072 -19.908825318883817 0.0 4.692626132924399 -21.9489377284732 0.0 6.7344941524688 -25.055083349299082 0.0 8.94687170993308 -16.94536275400746 0.0 4.72504650419754 -17.392208540244237 0.0 4.6576165312410005 -17.8635143664432 0.0 4.541591402019599 -18.454785177492003 0.0 4.47961948305075 -19.4456708718432 0.0 4.5720878555088005 -21.0538738492797 0.0 5.3096284190895 -23.284900158135002 0.0 7.60984422994152 -26.559907776984815 0.0 10.61328717568896 -17.5688779820938 0.0 5.856513462142581 -17.98461445707584 0.0 5.64814795604864 -18.489850421705913 0.0 5.40051950127411 -19.1071207166481 0.0 5.159913055559009 -20.15861661193584 0.0 5.11315203150768 -22.0331812916715 0.0 5.32023427101699 -24.36077387932587 0.0 7.89171513003342 -27.478486702569697 0.0 12.56756991250135 -17.79641982292923 0.0 7.456972784318189 -18.154383594724802 0.0 7.2637871879174405 -18.53683919506107 0.0 6.93378435329892 -19.064264651006248 0.0 6.52703480151375 -20.34287693890842 0.0 5.7080710998830995 -22.76460946912499 0.0 5.07875331911783 -25.104790505410858 0.0 8.207413998679419 -28.04911577760838 0.0 14.128241633125901 -17.74268494997147 0.0 10.02349672274467 -18.03007853164 0.0 9.9791685641606 -18.270813334829768 0.0 9.700807433680218 -18.44711174896128 0.0 8.64323646933208 -19.496952586949316 0.0 6.467598851429659 -22.268457260942668 0.0 5.397134483419061 -24.291901676915696 0.0 8.994194614954619 -25.187602911333123 0.0 15.685641985368001 -16.052636637034798 0.0 12.5899157190642 -16.494738477621393 0.0 12.77961522378618 -16.847674265073 0.0 12.715532504713801 -16.93210090617412 0.0 11.311097306039228 -16.86600856781093 0.0 7.65191700789153 -17.4041063457004 0.0 5.892892650074661 -17.61597201224413 0.0 10.17312682447778 -17.286783881121842 0.0 17.48421776639552 -10.51087625481519 0.0 13.34581883123307 -10.793779280001 0.0 13.437534924130501 -10.9790019168507 0.0 13.179348398835451 -10.939438733948549 0.0 11.60200773909441 -10.656342189324402 0.0 7.72068987980984 -10.76893748751585 0.0 6.1425410552838 -10.77163092138035 0.0 10.97286745109455 -10.30422432345215 0.0 18.837488460676898 -6.042233692447151 0.0 13.713507874658898 -6.14764832069594 0.0 13.662100941382509 -6.168348582471 0.0 13.192859563965 -6.026386818525269 0.0 11.39173757195112 -5.74225883882925 0.0 7.494919538876251 -5.702645429996579 0.0 6.27575596853322 -5.7030444118512 0.0 11.535678538717269 -5.24381876180316 0.0 19.737592724403843 -2.6262675514879064 0.0 13.823026642033803 -2.614456876556867 0.0 13.65836157800778 -2.547514412488287 0.0 13.04550948687525 -2.3893064511441398 0.0 11.2141268591472 -2.159568883853094 0.0 7.37589591165693 -2.0911087261270946 0.0 6.458774468264489 -2.047802939099472 0.0 12.048479046534961 -1.7911851615323549 0.0 20.3611123297467 0.214530447060322 0.0 13.752145472539159 0.3064154445935154 0.0 13.524288695549581 0.418045747016904 0.0 12.85131593608578 0.555824118400556 0.0 11.14612386666624 0.694571948902566 0.0 7.43571891194071 0.756800265513475 0.0 6.68908933695592 0.818232900553851 0.0 12.32772290539707 0.8772907273462 0.0 20.734826725962 2.9300520224071525 0.0 13.55006501946081 3.0929165150074414 0.0 13.309468135861382 3.2452043707272202 0.0 12.6507300317289 3.360819363582408 0.0 11.14612105656868 3.3977431286510558 0.0 7.59293889677766 3.5095904318419326 0.0 6.86841478356284 3.620930418954392 0.0 12.30052202395934 3.5100942838886637 0.0 20.83634816030516 5.721400693106849 0.0 13.234985137860251 5.964239822879519 0.0 13.015727917950239 6.17766234049548 0.0 12.40712761459572 6.291429819414899 0.0 11.1163669521174 6.261787679389201 0.0 7.709370535236601 6.4926139423808 0.0 6.970608385655199 6.6882107354483304 0.0 12.17812202060043 6.4684594248485 0.0 20.68003302623875 8.5352878503285 0.0 12.806205934358998 8.87082404755686 0.0 12.62561769355476 9.16947529206675 0.0 12.08125521256504 9.34185105924851 0.0 10.906842871184262 9.27719643374872 0.0 7.702996568621041 9.65651087979184 0.0 7.04150570420793 9.968078487742101 0.0 11.91418005764356 9.69465622179385 0.0 20.22892910790202 11.19416684815732 0.0 12.2593356600154 11.62734178575158 0.0 12.12169793745967 12.02415457018815 0.0 11.6428396987864 12.275741764562401 0.0 10.550369023948258 12.17264201910702 0.0 7.5665133478242 12.720075996230191 0.0 7.003086305110981 13.156974537814802 0.0 11.574831835419301 12.89544815507058 0.0 19.49257454682708 13.513058607220078 0.0 11.59744511877292 14.03690699384031 0.0 11.4996968891379 14.528177453734498 0.0 11.08144621045065 14.773947968732159 0.0 9.9414501566616 14.5877931970955 0.0 7.193044852271501 15.383851995264479 0.0 6.866683806855599 15.996633756813718 0.0 11.08040652446013 15.7944653547393 0.0 18.522505532512497 14.945949349018921 0.0 10.830367657035959 15.6544121877258 0.0 10.77588190166064 16.360776247306053 0.0 10.41379933544118 16.584592614975 0.0 9.0796598652375 16.388106076044437 0.0 6.733886733194981 17.47986211901149 0.0 6.5920716186941 18.31079364122384 0.0 10.49610814882928 18.16498875274721 0.0 17.46214562531263 15.173646653785392 0.0 9.99213496265963 15.918048488750001 0.0 9.98516992292868 16.7437397117935 0.0 9.68964337956349 17.35979082470135 0.0 8.48150291746496 17.66665816686848 0.0 6.3193851499855995 18.9950550983492 0.0 6.30771328846304 20.10795604938832 0.0 9.98704575308768 19.86275160148586 0.0 16.265344225307278 15.11711679533022 0.0 9.13829969712498 15.878272058613101 0.0 9.188910172176199 16.722629661656157 0.0 8.95268864409392 17.59725051968764 0.0 8.24028387489665 18.40687407548004 0.0 5.9993553677324 19.96312657785823 0.0 5.948951048571571 21.25186336354456 0.0 9.34133359682952 21.083318991271348 0.0 14.974081448835298 14.958611750733988 0.0 8.33965987630668 15.733788338285823 0.0 8.43234867094554 16.59873753710382 0.0 8.25918587124582 17.58849575820192 0.0 7.843810494735629 18.621705261959203 0.0 5.8892947193184 20.477295185362397 0.0 5.539877349722651 22.03107780291047 0.0 8.61037229100174 22.15108195840208 0.0 13.674860198569037 14.761853855391179 0.0 7.628445550417979 15.569734987623182 0.0 7.76156791837245 16.4432183046714 0.0 7.655874269281201 17.48253436353062 0.0 7.299062394873521 18.66515775189936 0.0 5.88794120498948 20.514596335608598 0.0 5.301754119703549 22.46244378922341 0.0 7.95170467550165 23.31631702841267 0.0 12.41550805256168 14.504856034962799 0.0 6.96573542585713 15.36244866554068 0.0 7.1148936650551 16.33005749962753 0.0 7.04655461696266 17.41120781929412 0.0 6.728663921789081 18.77202144732656 0.0 5.651026174208241 20.336591332906753 0.0 5.05002919936767 22.715036715764903 0.0 7.501792129533001 24.819035788393595 0.0 11.1854335884053 14.22386257559634 0.0 6.3270658755868805 15.1395197642967 0.0 6.518721775062479 16.12192702587126 0.0 6.500196458613449 17.41082068978239 0.0 6.18817362827742 18.898823004483397 0.0 5.20550318680176 20.4802486666321 0.0 4.87669991949675 23.189519897577597 0.0 6.8813091709038 26.813920334959082 0.0 10.0037821549113 13.899969085002319 0.0 5.7215270229217605 14.870355330381019 0.0 5.93725442678045 16.09222325400768 0.0 5.89344405538161 17.63873835739528 0.0 5.301399214450501 19.14572736572524 0.0 4.76292774101956 21.09107907312562 0.0 4.7707635910104305 24.3946796817289 0.0 6.3220783652989 29.041124119299603 0.0 8.831041726309001 13.5853613260989 0.0 5.14043435035728 14.71218770983377 0.0 5.24337376440189 16.145965139903822 0.0 5.008750347948751 17.76176255097837 0.0 4.52156802816399 19.50739851759072 0.0 4.250155699778819 21.92801554862217 0.0 4.53023803749501 25.82519439294576 0.0 6.00588807320376 30.967552013614327 0.0 7.903230141117361 13.302597624216672 0.0 4.48667452048739 14.602269744443118 0.0 4.46716128876452 16.19165267194224 0.0 4.20770411738384 17.9900749399729 0.0 3.8308626038398796 20.07998303632706 0.0 3.822605012401714 22.964215479205002 0.0 4.2725484446385 27.38680634139664 0.0 5.7913822815012805 13.11713024844046 0.0 3.8173412221132104 14.57606714351316 0.0 3.7082518050145126 16.3545917982984 0.0 3.42203591668778 18.39950063677227 0.0 3.3100770472015126 20.891653666690438 0.0 3.47892993369596 24.29824942729334 0.0 4.2362145904486495 28.859205248950442 0.0 5.72251434257897 13.058342278473841 0.0 3.1241721867836283 14.704141318601279 0.0 2.978090307113862 16.716299697945598 0.0 2.8701405665961297 19.13393002838235 0.0 3.0271862678399697 21.990763792181518 0.0 3.3821745214588557 25.83308692885854 0.0 4.4722439210267995 13.181788764059101 0.0 2.4931724317937403 15.085307544220809 0.0 2.4616607498293197 17.43714617098064 0.0 2.6430037529300288 20.206369682414852 0.0 2.99276775799727 23.4702317385088 0.0 3.714586294099968 27.26509668464904 0.0 4.836191884763839 13.636858648343402 0.0 2.06406633286554 15.90564648136575 0.0 2.361599932430805 18.509075732041197 0.0 2.727757981429692 21.547549963638364 0.0 3.283443937341288 24.95837164433364 0.0 4.19858664505308 14.592227891831202 0.0 2.0943519111201763 17.03975635991825 0.0 2.532344227984085 19.93564234547256 0.0 3.086287720401837 23.00265520867994 0.0 3.75434363751031 15.794735102619057 0.0 2.4114516641826866 18.457128452853862 0.0 2.898973827741338 21.38983678933816 0.0 3.5857788627043234 23.8695560289072 0.0 3.92969263125168 17.1382159421242 0.0 2.68806662014352 19.67129080340165 0.0 3.1561240898806955 18.147421217432104 0.0 2.847266915094097 
TENSORS Ellispoids float
0.01 0.0 0.0 0.0 0.01 0.0 0.0 0.0 0.01 0.01 0.0 0.0 0.0 0.01 0.0 0.0 0.0 0.01 0.01 0.0 0.0 0.0 0.01 0.0 0.0 0.0 0.01 0.01 0.0 0.0 0.0 0.01 0.0 0.0 0.0 0.01 0.01 0.0 0.0 0.0 0.01 0.0 0.0 0.0 0.01 0.01 0.0 0.0 0.0 0.01 0.0 0.0 0.0 0.01 0.01 0.0 0.0 0.0 0.01 0.0 0.0 0.0 0.01 0.01 0.0 0.0 0.0 0.01 0.0 0.0 0.0 0.01 0.01 0.0 0.0 0.0 0.01 0.0 0.0 0.0 0.01 0.01 0.0 0.0 0.0 0.01 0.0 0.0 0.0 0.01 0.01 0.0 0.0 0.0 0.01 0.0 0.0 0.0 0.01 0.01 0.0 0.0 0.0 0.01 0.0 0.0 0.0 0.01 0.01 0.0 0.0 0.0 0.01 0.0 0.0 0.0 0.01 0.01 0.0 0.0 0.0 0.01 0.0 0.0 0.0 0.01 0.01 0.0 0.0 0.0 0.01 0.0 0.0 0.0 0.01 0.01 0.0 0.0 0.0 0.01 0.0 0.0 0.0 0.01 0.01 0.0 0.0 0.0 0.01 0.0 0.0 0.0 0.01 0.01 0.0 0.0 0.0 0.01 0.0 0.0 0.0 0.01 0.01 0.0 0.0 0.0 0.01 0.0 0.0 0.0 0.01 0.01 0.0 0.0 0.0 0.01 0.0 0.0 0.0 0.01 0.01 0.0 0.0 0.0 0.01 0.0 0.0 0.0 0.01 0.01 0.0 0.0 0.0 0.01 0.0 0.0 0.0 0.01 0.01 0.0 0.0 0.0 0.01 0.0 0.0 0.0 0.01 0.01 0.0 0.0 0.0 0.01 0.0 0.0 0.0 0.01 0.01 0.0 0.0 0.0 0.01 0.0 0.0 0.0 0.01 0.01 0.0 0.0 0.0 0.01 0.0 0.0 0.0 0.01 0.01 0.0 0.0 0.0 0.01 0.0 0.0 0.0 0.01 0.01 0.0 0.0 0.0 0.01 0.0 0.0 0.0 0.01 0.01 0.0 0.0 0.0 0.01 0.0 0.0 0.0 0.01 0.01 0.0 0.0 0.0 0.01 0.0 0.0 0.0 0.01 0.01 0.0 0.0 0.0 0.01 0.0 0.0 0.0 0.01 0.01 0.0 0.0 0.0 0.01 0.0 0.0 0.0 0.01 0.01 0.0 0.0 0.0 0.01 0.0 0.0 0.0 0.01 0.01 0.0 0.0 0.0 0.01 0.0 0.0 0.0 0.01 0.01 0.0 0.0 0.0 0.01 0.0 0.0 0.0 0.01 0.01 0.0 0.0 0.0 0.01 0.0 0.0 0.0 0.01 0.01 0.0 0.0 0.0 0.01 0.0 0.0 0.0 0.01 0.01 0.0 0.0 0.0 0.01 0.0 0.0 0.0 0.01 0.01 0.0 0.0 0.0 0.01 0.0 0.0 0.0 0.01 0.01 0.0 0.0 0.0 0.01 0.0 0.0 0.0 0.01 0.01 0.0 0.0 0.0 0.01 0.0 0.0 0.0 0.01 0.01 0.0 0.0 0.0 0.01 0.0 0.0 0.0 0.01 0.01 0.0 0.0 0.0 0.01 0.0 0.0 0.0 0.01 0.01 0.0 0.0 0.0 0.01 0.0 0.0 0.0 0.01 0.01 0.0 0.0 0.0 0.01 0.0 0.0 0.0 0.01 0.01 0.0 0.0 0.0 0.01 0.0 0.0 0.0 0.01 0.01 0.0 0.0 0.0 0.01 0.0 0.0 0.0 0.01 0.01 0.0 0.0 0.0 0.01 0.0 0.0 0.0 0.01 0.01 0.0 0.0 0.0 0.01 0.0 0.0 0.0 0.01 0.01 0.0 0.0 0.0 0.01 0.0 0.0 0.0 0.01 0.01 0.0 0.0 0.0 0.01 0.0 0.0 0.0 0.01 0.01 0.0 0.0 0.0 0.01 0.0 0.0 0.0 0.01 0.01 0.0 0.0 0.0 0.01 0.0 0.0 0.0 0.01 0.01 0.0 0.0 0.0 0.01 0.0 0.0 0.0 0.01 0.01 0.0 0.0 0.0 0.01 0.0 0.0 0.0 0.01 0.01 0.0 0.0 0.0 0.01 0.0 0.0 0.0 0.01 0.01 0.0 0.0 0.0 0.01 0.0 0.0 0.0 0.01 0.01 0.0 0.0 0.0 0.01 0.0 0.0 0.0 0.01 0.01 0.0 0.0 0.0 0.01 0.0 0.0 0.0 0.01 0.01 0.0 0.0 0.0 0.01 0.0 0.0 0.0 0.01 0.01 0.0 0.0 0.0 0.01 0.0 0.0 0.0 0.01 0.01 0.0 0.0 0.0 0.01 0.0 0.0 0.0 0.01 0.01 0.0 0.0 0.0 0.01 0.0 0.0 0.0 0.01 0.01 0.0 0.0 0.0 0.01 0.0 0.0 0.0 0.01 0.01 0.0 0.0 0.0 0.01 0.0 0.0 0.0 0.01 0.01 0.0 0.0 0.0 0.01 0.0 0.0 0.0 0.01 0.01 0.0 0.0 0.0 0.01 0.0 0.0 0.0 0.01 0.01 0.0 0.0 0.0 0.01 0.0 0.0 0.0 0.01 0.01 0.0 0.0 0.0 0.01 0.0 0.0 0.0 0.01 0.01 0.0 0.0 0.0 0.01 0.0 0.0 0.0 0.01 0.01 0.0 0.0 0.0 0.01 0.0 0.0 0.0 0.01 0.01 0.0 0.0 0.0 0.01 0.0 0.0 0.0 0.01 0.01 0.0 0.0 0.0 0.01 0.0 0.0 0.0 0.01 0.01 0.0 0.0 0.0 0.01 0.0 0.0 0.0 0.01 0.01 0.0 0.0 0.0 0.01 0.0 0.0 0.0 0.01 0.01 0.0 0.0 0.0 0.01 0.0 0.0 0.0 0.01 0.01 0.0 0.0 0.0 0.01 0.0 0.0 0.0 0.01 0.01 0.0 0.0 0.0 0.01 0.0 0.0 0.0 0.01 0.01 0.0 0.0 0.0 0.01 0.0 0.0 0.0 0.01 0.01 0.0 0.0 0.0 0.01 0.0 0.0 0.0 0.01 0.01 0.0 0.0 0.0 0.01 0.0 0.0 0.0 0.01 0.01 0.0 0.0 0.0 0.01 0.0 0.0 0.0 0.01 0.01 0.0 0.0 0.0 0.01 0.0 0.0 0.0 0.01 0.01 0.0 0.0 0.0 0.01 0.0 0.0 0.0 0.01 0.01 0.0 0.0 0.0 0.01 0.0 0.0 0.0 0.01 0.01 0.0 0.0 0.0 0.01 0.0 0.0 0.0 0.01 0.01 0.0 0.0 0.0 0.01 0.0 0.0 0.0 0.01 0.01 0.0 0.0 0.0 0.01 0.0 0.0 0.0 0.01 0.01 0.0 0.0 0.0 0.01 0.0 0.0 0.0 0.01 0.01 0.0 0.0 0.0 0.01 0.0 0.0 0.0 0.01 0.01 0.0 0.0 0.0 0.01 0.0 0.0 0.0 0.01 0.01 0.0 0.0 0.0 0.01 0.0 0.0 0.0 0.01 0.01 0.0 0.0 0.0 0.01 0.0 0.0 0.0 0.01 0.01 0.0 0.0 0.0 0.01 0.0 0.0 0.0 0.01 0.01 0.0 0.0 0.0 0.01 0.0 0.0 0.0 0.01 0.01 0.0 0.0 0.0 0.01 0.0 0.0 0.0 0.01 0.01 0.0 0.0 0.0 0.01 0.0 0.0 0.0 0.01 0.01 0.0 0.0 0.0 0.01 0.0 0.0 0.0 0.01 0.01 0.0 0.0 0.0 0.01 0.0 0.0 0.0 0.01 0.01 0.0 0.0 0.0 0.01 0.0 0.0 0.0 0.01 0.01 0.0 0.0 0.0 0.01 0.0 0.0 0.0 0.01 0.01 0.0 0.0 0.0 0.01 0.0 0.0 0.0 0.01 0.01 0.0 0.0 0.0 0.01 0.0 0.0 0.0 0.01 0.01 0.0 0.0 0.0 0.01 0.0 0.0 0.0 0.01 0.01 0.0 0.0 0.0 0.01 0.0 0.0 0.0 0.01 0.01 0.0 0.0 0.0 0.01 0.0 0.0 0.0 0.01 0.01 0.0 0.0 0.0 0.01 0.0 0.0 0.0 0.01 0.01 0.0 0.0 0.0 0.01 0.0 0.0 0.0 0.01 0.01 0.0 0.0 0.0 0.01 0.0 0.0 0.0 0.01 0.01 0.0 0.0 0.0 0.01 0.0 0.0 0.0 0.01 0.01 0.0 0.0 0.0 0.01 0.0 0.0 0.0 0.01 0.01 0.0 0.0 0.0 0.01 0.0 0.0 0.0 0.01 0.01 0.0 0.0 0.0 0.01 0.0 0.0 0.0 0.01 0.01 0.0 0.0 0.0 0.01 0.0 0.0 0.0 0.01 0.01 0.0 0.0 0.0 0.01 0.0 0.0 0.0 0.01 0.01 0.0 0.0 0.0 0.01 0.0 0.0 0.0 0.01 0.01 0.0 0.0 0.0 0.01 0.0 0.0 0.0 0.01 0.01 0.0 0.0 0.0 0.01 0.0 0.0 0.0 0.01 0.01 0.0 0.0 0.0 0.01 0.0 0.0 0.0 0.01 0.01 0.0 0.0 0.0 0.01 0.0 0.0 0.0 0.01 0.01 0.0 0.0 0.0 0.01 0.0 0.0 0.0 0.01 0.01 0.0 0.0 0.0 0.01 0.0 0.0 0.0 0.01 0.01 0.0 0.0 0.0 0.01 0.0 0.0 0.0 0.01 0.01 0.0 0.0 0.0 0.01 0.0 0.0 0.0 0.01 0.01 0.0 0.0 0.0 0.01 0.0 0.0 0.0 0.01 0.01 0.0 0.0 0.0 0.01 0.0 0.0 0.0 0.01 0.01 0.0 0.0 0.0 0.01 0.0 0.0 0.0 0.01 0.01 0.0 0.0 0.0 0.01 0.0 0.0 0.0 0.01 0.01 0.0 0.0 0.0 0.01 0.0 0.0 0.0 0.01 0.01 0.0 0.0 0.0 0.01 0.0 0.0 0.0 0.01 0.01 0.0 0.0 0.0 0.01 0.0 0.0 0.0 0.01 0.01 0.0 0.0 0.0 0.01 0.0 0.0 0.0 0.01 0.01 0.0 0.0 0.0 0.01 0.0 0.0 0.0 0.01 0.01 0.0 0.0 0.0 0.01 0.0 0.0 0.0 0.01 0.01 0.0 0.0 0.0 0.01 0.0 0.0 0.0 0.01 0.01 0.0 0.0 0.0 0.01 0.0 0.0 0.0 0.01 0.01 0.0 0.0 0.0 0.01 0.0 0.0 0.0 0.01 0.01 0.0 0.0 0.0 0.01 0.0 0.0 0.0 0.01 0.01 0.0 0.0 0.0 0.01 0.0 0.0 0.0 0.01 0.01 0.0 0.0 0.0 0.01 0.0 0.0 0.0 0.01 0.01 0.0 0.0 0.0 0.01 0.0 0.0 0.0 0.01 0.01 0.0 0.0 0.0 0.01 0.0 0.0 0.0 0.01 0.01 0.0 0.0 0.0 0.01 0.0 0.0 0.0 0.01 0.01 0.0 0.0 0.0 0.01 0.0 0.0 0.0 0.01 0.01 0.0 0.0 0.0 0.01 0.0 0.0 0.0 0.01 0.01 0.0 0.0 0.0 0.01 0.0 0.0 0.0 0.01 0.01 0.0 0.0 0.0 0.01 0.0 0.0 0.0 0.01 0.01 0.0 0.0 0.0 0.01 0.0 0.0 0.0 0.01 0.01 0.0 0.0 0.0 0.01 0.0 0.0 0.0 0.01 0.01 0.0 0.0 0.0 0.01 0.0 0.0 0.0 0.01 0.01 0.0 0.0 0.0 0.01 0.0 0.0 0.0 0.01 0.01 0.0 0.0 0.0 0.01 0.0 0.0 0.0 0.01 0.01 0.0 0.0 0.0 0.01 0.0 0.0 0.0 0.01 0.01 0.0 0.0 0.0 0.01 0.0 0.0 0.0 0.01 0.01 0.0 0.0 0.0 0.01 0.0 0.0 0.0 0.01 0.01 0.0 0.0 0.0 0.01 0.0 0.0 0.0 0.01 0.01 0.0 0.0 0.0 0.01 0.0 0.0 0.0 0.01 0.01 0.0 0.0 0.0 0.01 0.0 0.0 0.0 0.01 0.01 0.0 0.0 0.0 0.01 0.0 0.0 0.0 0.01 0.01 0.0 0.0 0.0 0.01 0.0 0.0 0.0 0.01 0.01 0.0 0.0 0.0 0.01 0.0 0.0 0.0 0.01 0.01 0.0 0.0 0.0 0.01 0.0 0.0 0.0 0.01 0.01 0.0 0.0 0.0 0.01 0.0 0.0 0.0 0.01 0.01 0.0 0.0 0.0 0.01 0.0 0.0 0.0 0.01 0.01 0.0 0.0 0.0 0.01 0.0 0.0 0.0 0.01 0.01 0.0 0.0 0.0 0.01 0.0 0.0 0.0 0.01 0.01 0.0 0.0 0.0 0.01 0.0 0.0 0.0 0.01 0.01 0.0 0.0 0.0 0.01 0.0 0.0 0.0 0.01 0.01 0.0 0.0 0.0 0.01 0.0 0.0 0.0 0.01 0.01 0.0 0.0 0.0 0.01 0.0 0.0 0.0 0.01 0.01 0.0 0.0 0.0 0.01 0.0 0.0 0.0 0.01 0.01 0.0 0.0 0.0 0.01 0.0 0.0 0.0 0.01 0.01 0.0 0.0 0.0 0.01 0.0 0.0 0.0 0.01 0.01 0.0 0.0 0.0 0.01 0.0 0.0 0.0 0.01 0.01 0.0 0.0 0.0 0.01 0.0 0.0 0.0 0.01 0.01 0.0 0.0 0.0 0.01 0.0 0.0 0.0 0.01 0.01 0.0 0.0 0.0 0.01 0.0 0.0 0.0 0.01 0.01 0.0 0.0 0.0 0.01 0.0 0.0 0.0 0.01 0.01 0.0 0.0 0.0 0.01 0.0 0.0 0.0 0.01 0.01 0.0 0.0 0.0 0.01 0.0 0.0 0.0 0.01 0.01 0.0 0.0 0.0 0.01 0.0 0.0 0.0 0.01 0.01 0.0 0.0 0.0 0.01 0.0 0.0 0.0 0.01 0.01 0.0 0.0 0.0 0.01 0.0 0.0 0.0 0.01 0.01 0.0 0.0 0.0 0.01 0.0 0.0 0.0 0.01 0.01 0.0 0.0 0.0 0.01 0.0 0.0 0.0 0.01 0.01 0.0 0.0 0.0 0.01 0.0 0.0 0.0 0.01 0.01 0.0 0.0 0.0 0.01 0.0 0.0 0.0 0.01 0.01 0.0 0.0 0.0 0.01 0.0 0.0 0.0 0.01 0.01 0.0 0.0 0.0 0.01 0.0 0.0 0.0 0.01 0.01 0.0 0.0 0.0 0.01 0.0 0.0 0.0 0.01 0.01 0.0 0.0 0.0 0.01 0.0 0.0 0.0 0.01 0.01 0.0 0.0 0.0 0.01 0.0 0.0 0.0 0.01 0.01 0.0 0.0 0.0 0.01 0.0 0.0 0.0 0.01 0.01 0.0 0.0 0.0 0.01 0.0 0.0 0.0 0.01 0.01 0.0 0.0 0.0 0.01 0.0 0.0 0.0 0.01 0.01 0.0 0.0 0.0 0.01 0.0 0.0 0.0 0.01 0.01 0.0 0.0 0.0 0.01 0.0 0.0 0.0 0.01 0.01 0.0 0.0 0.0 0.01 0.0 0.0 0.0 0.01 0.01 0.0 0.0 0.0 0.01 0.0 0.0 0.0 0.01 0.01 0.0 0.0 0.0 0.01 0.0 0.0 0.0 0.01 0.01 0.0 0.0 0.0 0.01 0.0 0.0 0.0 0.01 0.01 0.0 0.0 0.0 0.01 0.0 0.0 0.0 0.01 0.01 0.0 0.0 0.0 0.01 0.0 0.0 0.0 0.01 0.01 0.0 0.0 0.0 0.01 0.0 0.0 0.0 0.01 0.01 0.0 0.0 0.0 0.01 0.0 0.0 0.0 0.01 0.01 0.0 0.0 0.0 0.01 0.0 0.0 0.0 0.01 0.01 0.0 0.0 0.0 0.01 0.0 0.0 0.0 0.01 0.01 0.0 0.0 0.0 0.01 0.0 0.0 0.0 0.01 0.01 0.0 0.0 0.0 0.01 0.0 0.0 0.0 0.01 0.01 0.0 0.0 0.0 0.01 0.0 0.0 0.0 0.01 0.01 0.0 0.0 0.0 0.01 0.0 0.0 0.0 0.01 0.01 0.0 0.0 0.0 0.01 0.0 0.0 0.0 0.01 0.01 0.0 0.0 0.0 0.01 0.0 0.0 0.0 0.01 0.01 0.0 0.0 0.0 0.01 0.0 0.0 0.0 0.01 0.01 0.0 0.0 0.0 0.01 0.0 0.0 0.0 0.01 0.01 0.0 0.0 0.0 0.01 0.0 0.0 0.0 0.01 0.01 0.0 0.0 0.0 0.01 0.0 0.0 0.0 0.01 0.01 0.0 0.0 0.0 0.01 0.0 0.0 0.0 0.01 0.01 0.0 0.0 0.0 0.01 0.0 0.0 0.0 0.01 0.01 0.0 0.0 0.0 0.01 0.0 0.0 0.0 0.01 0.01 0.0 0.0 0.0 0.01 0.0 0.0 0.0 0.01 0.01 0.0 0.0 0.0 0.01 0.0 0.0 0.0 0.01 0.01 0.0 0.0 0.0 0.01 0.0 0.0 0.0 0.01 0.01 0.0 0.0 0.0 0.01 0.0 0.0 0.0 0.01 0.01 0.0 0.0 0.0 0.01 0.0 0.0 0.0 0.01 0.01 0.0 0.0 0.0 0.01 0.0 0.0 0.0 0.01 0.01 0.0 0.0 0.0 0.01 0.0 0.0 0.0 0.01 0.01 0.0 0.0 0.0 0.01 0.0 0.0 0.0 0.01 0.01 0.0 0.0 0.0 0.01 0.0 0.0 0.0 0.01 0.01 0.0 0.0 0.0 0.01 0.0 0.0 0.0 0.01 0.01 0.0 0.0 0.0 0.01 0.0 0.0 0.0 0.01 0.01 0.0 0.0 0.0 0.01 0.0 0.0 0.0 0.01 0.01 0.0 0.0 0.0 0.01 0.0 0.0 0.0 0.01 0.01 0.0 0.0 0.0 0.01 0.0 0.0 0.0 0.01 0.01 0.0 0.0 0.0 0.01 0.0 0.0 0.0 0.01 0.01 0.0 0.0 0.0 0.01 0.0 0.0 0.0 0.01 0.01 0.0 0.0 0.0 0.01 0.0 0.0 0.0 0.01 0.01 0.0 0.0 0.0 0.01 0.0 0.0 0.0 0.01 0.01 0.0 0.0 0.0 0.01 0.0 0.0 0.0 0.01 0.01 0.0 0.0 0.0 0.01 0.0 0.0 0.0 0.01 0.01 0.0 0.0 0.0 0.01 0.0 0.0 0.0 0.01 0.01 0.0 0.0 0.0 0.01 0.0 0.0 0.0 0.01 0.01 0.0 0.0 0.0 0.01 0.0 0.0 0.0 0.01 0.01 0.0 0.0 0.0 0.01 0.0 0.0 0.0 0.01 0.01 0.0 0.0 0.0 0.01 0.0 0.0 0.0 0.01 0.01 0.0 0.0 0.0 0.01 0.0 0.0 0.0 0.01 0.01 0.0 0.0 0.0 0.01 0.0 0.0 0.0 0.01 0.01 0.0 0.0 0.0 0.01 0.0 0.0 0.0 0.01 0.01 0.0 0.0 0.0 0.01 0.0 0.0 0.0 0.01 0.01 0.0 0.0 0.0 0.01 0.0 0.0 0.0 0.01 0.01 0.0 0.0 0.0 0.01 0.0 0.0 0.0 0.01 0.01 0.0 0.0 0.0 0.01 0.0 0.0 0.0 0.01 0.01 0.0 0.0 0.0 0.01 0.0 0.0 0.0 0.01 0.01 0.0 0.0 0.0 0.01 0.0 0.0 0.0 0.01 0.01 0.0 0.0 0.0 0.01 0.0 0.0 0.0 0.01 0.01 0.0 0.0 0.0 0.01 0.0 0.0 0.0 0.01 0.01 0.0 0.0 0.0 0.01 0.0 0.0 0.0 0.01 0.01 0.0 0.0 0.0 0.01 0.0 0.0 0.0 0.01 0.01 0.0 0.0 0.0 0.01 0.0 0.0 0.0 0.01 0.01 0.0 0.0 0.0 0.01 0.0 0.0 0.0 0.01 0.01 0.0 0.0 0.0 0.01 0.0 0.0 0.0 0.01 0.01 0.0 0.0 0.0 0.01 0.0 0.0 0.0 0.01 0.01 0.0 0.0 0.0 0.01 0.0 0.0 0.0 0.01 0.01 0.0 0.0 0.0 0.01 0.0 0.0 0.0 0.01 0.01 0.0 0.0 0.0 0.01 0.0 0.0 0.0 0.01 0.01 0.0 0.0 0.0 0.01 0.0 0.0 0.0 0.01 0.01 0.0 0.0 0.0 0.01 0.0 0.0 0.0 0.01 0.01 0.0 0.0 0.0 0.01 0.0 0.0 0.0 0.01 0.01 0.0 0.0 0.0 0.01 0.0 0.0 0.0 0.01 0.01 0.0 0.0 0.0 0.01 0.0 0.0 0.0 0.01 0.01 0.0 0.0 0.0 0.01 0.0 0.0 0.0 0.01 0.01 0.0 0.0 0.0 0.01 0.0 0.0 0.0 0.01 0.01 0.0 0.0 0.0 0.01 0.0 0.0 0.0 0.01 0.01 0.0 0.0 0.0 0.01 0.0 0.0 0.0 0.01 0.01 0.0 0.0 0.0 0.01 0.0 0.0 0.0 0.01 0.01 0.0 0.0 0.0 0.01 0.0 0.0 0.0 0.01 0.01 0.0 0.0 0.0 0.01 0.0 0.0 0.0 0.01 0.01 0.0 0.0 0.0 0.01 0.0 0.0 0.0 0.01 0.01 0.0 0.0 0.0 0.01 0.0 0.0 0.0 0.01 0.01 0.0 0.0 0.0 0.01 0.0 0.0 0.0 0.01 0.01 0.0 0.0 0.0 0.01 0.0 0.0 0.0 0.01 0.01 0.0 0.0 0.0 0.01 0.0 0.0 0.0 0.01 0.01 0.0 0.0 0.0 0.01 0.0 0.0 0.0 0.01 0.01 0.0 0.0 0.0 0.01 0.0 0.0 0.0 0.01 0.01 0.0 0.0 0.0 0.01 0.0 0.0 0.0 0.01 0.01 0.0 0.0 0.0 0.01 0.0 0.0 0.0 0.01 0.01 0.0 0.0 0.0 0.01 0.0 0.0 0.0 0.01 0.01 0.0 0.0 0.0 0.01 0.0 0.0 0.0 0.01 0.01 0.0 0.0 0.0 0.01 0.0 0.0 0.0 0.01 0.01 0.0 0.0 0.0 0.01 0.0 0.0 0.0 0.01 0.01 0.0 0.0 0.0 0.01 0.0 0.0 0.0 0.01 0.01 0.0 0.0 0.0 0.01 0.0 0.0 0.0 0.01 0.01 0.0 0.0 0.0 0.01 0.0 0.0 0.0 0.01 0.01 0.0 0.0 0.0 0.01 0.0 0.0 0.0 0.01 0.01 0.0 0.0 0.0 0.01 0.0 0.0 0.0 0.01 0.01 0.0 0.0 0.0 0.01 0.0 0.0 0.0 0.01 0.01 0.0 0.0 0.0 0.01 0.0 0.0 0.0 0.01 0.01 0.0 0.0 0.0 0.01 0.0 0.0 0.0 0.01 0.01 0.0 0.0 0.0 0.01 0.0 0.0 0.0 0.01 0.01 0.0 0.0 0.0 0.01 0.0 0.0 0.0 0.01 0.01 0.0 0.0 0.0 0.01 0.0 0.0 0.0 0.01 0.01 0.0 0.0 0.0 0.01 0.0 0.0 0.0 0.01 0.01 0.0 0.0 0.0 0.01 0.0 0.0 0.0 0.01 0.01 0.0 0.0 0.0 0.01 0.0 0.0 0.0 0.01 0.01 0.0 0.0 0.0 0.01 0.0 0.0 0.0 0.01 0.01 0.0 0.0 0.0 0.01 0.0 0.0 0.0 0.01 0.01 0.0 0.0 0.0 0.01 0.0 0.0 0.0 0.01 0.01 0.0 0.0 0.0 0.01 0.0 0.0 0.0 0.01 0.01 0.0 0.0 0.0 0.01 0.0 0.0 0.0 0.01 0.01 0.0 0.0 0.0 0.01 0.0 0.0 0.0 0.01 0.01 0.0 0.0 0.0 0.01 0.0 0.0 0.0 0.01 0.01 0.0 0.0 0.0 0.01 0.0 0.0 0.0 0.01 0.01 0.0 0.0 0.0 0.01 0.0 0.0 0.0 0.01 0.01 0.0 0.0 0.0 0.01 0.0 0.0 0.0 0.01 0.01 0.0 0.0 0.0 0.01 0.0 0.0 0.0 0.01 0.01 0.0 0.0 0.0 0.01 0.0 0.0 0.0 0.01 0.01 0.0 0.0 0.0 0.01 0.0 0.0 0.0 0.01 0.01 0.0 0.0 0.0 0.01 0.0 0.0 0.0 0.01 0.01 0.0 0.0 0.0 0.01 0.0 0.0 0.0 0.01 0.01 0.0 0.0 0.0 0.01 0.0 0.0 0.0 0.01 0.01 0.0 0.0 0.0 0.01 0.0 0.0 0.0 0.01 0.01 0.0 0.0 0.0 0.01 0.0 0.0 0.0 0.01 0.01 0.0 0.0 0.0 0.01 0.0 0.0 0.0 0.01 0.01 0.0 0.0 0.0 0.01 0.0 0.0 0.0 0.01 0.01 0.0 0.0 0.0 0.01 0.0 0.0 0.0 0.01 0.01 0.0 0.0 0.0 0.01 0.0 0.0 0.0 0.01 0.01 0.0 0.0 0.0 0.01 0.0 0.0 0.0 0.01 0.01 0.0 0.0 0.0 0.01 0.0 0.0 0.0 0.01 0.01 0.0 0.0 0.0 0.01 0.0 0.0 0.0 0.01 0.01 0.0 0.0 0.0 0.01 0.0 0.0 0.0 0.01 0.01 0.0 0.0 0.0 0.01 0.0 0.0 0.0 0.01 0.01 0.0 0.0 0.0 0.01 0.0 0.0 0.0 0.01 0.01 0.0 0.0 0.0 0.01 0.0 0.0 0.0 0.01 0.01 0.0 0.0 0.0 0.01 0.0 0.0 0.0 0.01 0.01 0.0 0.0 0.0 0.01 0.0 0.0 0.0 0.01 0.01 0.0 0.0 0.0 0.01 0.0 0.0 0.0 0.01 0.01 0.0 0.0 0.0 0.01 0.0 0.0 0.0 0.01 0.01 0.0 0.0 0.0 0.01 0.0 0.0 0.0 0.01 0.01 0.0 0.0 0.0 0.01 0.0 0.0 0.0 0.01 0.01 0.0 0.0 0.0 0.01 0.0 0.0 0.0 0.01 0.01 0.0 0.0 0.0 0.01 0.0 0.0 0.0 0.01 0.01 0.0 0.0 0.0 0.01 0.0 0.0 0.0 0.01 0.01 0.0 0.0 0.0 0.01 0.0 0.0 0.0 0.01 0.01 0.0 0.0 0.0 0.01 0.0 0.0 0.0 0.01 0.01 0.0 0.0 0.0 0.01 0.0 0.0 0.0 0.01 0.01 0.0 0.0 0.0 0.01 0.0 0.0 0.0 0.01 0.01 0.0 0.0 0.0 0.01 0.0 0.0 0.0 0.01 0.01 0.0 0.0 0.0 0.01 0.0 0.0 0.0 0.01 0.01 0.0 0.0 0.0 0.01 0.0 0.0 0.0 0.01 0.01 0.0 0.0 0.0 0.01 0.0 0.0 0.0 0.01 0.01 0.0 0.0 0.0 0.01 0.0 0.0 0.0 0.01 0.01 0.0 0.0 0.0 0.01 0.0 0.0 0.0 0.01 0.01 0.0 0.0 0.0 0.01 0.0 0.0 0.0 0.01 0.01 0.0 0.0 0.0 0.01 0.0 0.0 0.0 0.01 0.01 0.0 0.0 0.0 0.01 0.0 0.0 0.0 0.01 0.01 0.0 0.0 0.0 0.01 0.0 0.0 0.0 0.01 0.01 0.0 0.0 0.0 0.01 0.0 0.0 0.0 0.01 0.01 0.0 0.0 0.0 0.01 0.0 0.0 0.0 0.01 0.01 0.0 0.0 0.0 0.01 0.0 0.0 0.0 0.01 0.01 0.0 0.0 0.0 0.01 0.0 0.0 0.0 0.01 0.01 0.0 0.0 0.0 0.01 0.0 0.0 0.0 0.01 0.01 0.0 0.0 0.0 0.01 0.0 0.0 0.0 0.01 0.01 0.0 0.0 0.0 0.01 0.0 0.0 0.0 0.01 0.01 0.0 0.0 0.0 0.01 0.0 0.0 0.0 0.01 0.01 0.0 0.0 0.0 0.01 0.0 0.0 0.0 0.01 0.01 0.0 0.0 0.0 0.01 0.0 0.0 0.0 0.01 0.01 0.0 0.0 0.0 0.01 0.0 0.0 0.0 0.01 0.01 0.0 0.0 0.0 0.01 0.0 0.0 0.0 0.01 0.01 0.0 0.0 0.0 0.01 0.0 0.0 0.0 0.01 0.01 0.0 0.0 0.0 0.01 0.0 0.0 0.0 0.01 0.01 0.0 0.0 0.0 0.01 0.0 0.0 0.0 0.01 0.01 0.0 0.0 0.0 0.01 0.0 0.0 0.0 0.01 0.01 0.0 0.0 0.0 0.01 0.0 0.0 0.0 0.01 0.01 0.0 0.0 0.0 0.01 0.0 0.0 0.0 0.01 0.01 0.0 0.0 0.0 0.01 0.0 0.0 0.0 0.01 0.01 0.0 0.0 0.0 0.01 0.0 0.0 0.0 0.01 0.01 0.0 0.0 0.0 0.01 0.0 0.0 0.0 0.01 0.01 0.0 0.0 0.0 0.01 0.0 0.0 0.0 0.01 0.01 0.0 0.0 0.0 0.01 0.0 0.0 0.0 0.01 0.01 0.0 0.0 0.0 0.01 0.0 0.0 0.0 0.01 0.01 0.0 0.0 0.0 0.01 0.0 0.0 0.0 0.01 0.01 0.0 0.0 0.0 0.01 0.0 0.0 0.0 0.01 0.01 0.0 0.0 0.0 0.01 0.0 0.0 0.0 0.01 0.01 0.0 0.0 0.0 0.01 0.0 0.0 0.0 0.01 0.01 0.0 0.0 0.0 0.01 0.0 0.0 0.0 0.01 0.01 0.0 0.0 0.0 0.01 0.0 0.0 0.0 0.01 0.01 0.0 0.0 0.0 0.01 0.0 0.0 0.0 0.01 0.01 0.0 0.0 0.0 0.01 0.0 0.0 0.0 0.01 0.01 0.0 0.0 0.0 0.01 0.0 0.0 0.0 0.01 0.01 0.0 0.0 0.0 0.01 0.0 0.0 0.0 0.01 0.01 0.0 0.0 0.0 0.01 0.0 0.0 0.0 0.01 0.01 0.0 0.0 0.0 0.01 0.0 0.0 0.0 0.01 0.01 0.0 0.0 0.0 0.01 0.0 0.0 0.0 0.01 0.01 0.0 0.0 0.0 0.01 0.0 0.0 0.0 0.01 0.01 0.0 0.0 0.0 0.01 0.0 0.0 0.0 0.01 0.01 0.0 0.0 0.0 0.01 0.0 0.0 0.0 0.01 0.01 0.0 0.0 0.0 0.01 0.0 0.0 0.0 0.01 0.01 0.0 0.0 0.0 0.01 0.0 0.0 0.0 0.01 0.01 0.0 0.0 0.0 0.01 0.0 0.0 0.0 0.01 0.01 0.0 0.0 0.0 0.01 0.0 0.0 0.0 0.01 0.01 0.0 0.0 0.0 0.01 0.0 0.0 0.0 0.01 0.01 0.0 0.0 0.0 0.01 0.0 0.0 0.0 0.01 0.01 0.0 0.0 0.0 0.01 0.0 0.0 0.0 0.01 0.01 0.0 0.0 0.0 0.01 0.0 0.0 0.0 0.01 0.01 0.0 0.0 0.0 0.01 0.0 0.0 0.0 0.01 0.01 0.0 0.0 0.0 0.01 0.0 0.0 0.0 0.01 0.01 0.0 0.0 0.0 0.01 0.0 0.0 0.0 0.01 0.01 0.0 0.0 0.0 0.01 0.0 0.0 0.0 0.01 0.01 0.0 0.0 0.0 0.01 0.0 0.0 0.0 0.01 0.01 0.0 0.0 0.0 0.01 0.0 0.0 0.0 0.01 0.01 0.0 0.0 0.0 0.01 0.0 0.0 0.0 0.01 0.01 0.0 0.0 0.0 0.01 0.0 0.0 0.0 0.01 0.01 0.0 0.0 0.0 0.01 0.0 0.0 0.0 0.01 0.01 0.0 0.0 0.0 0.01 0.0 0.0 0.0 0.01 0.01 0.0 0.0 0.0 0.01 0.0 0.0 0.0 0.01 0.01 0.0 0.0 0.0 0.01 0.0 0.0 0.0 0.01 0.01 0.0 0.0 0.0 0.01 0.0 0.0 0.0 0.01 0.01 0.0 0.0 0.0 0.01 0.0 0.0 0.0 0.01 0.01 0.0 0.0 0.0 0.01 0.0 0.0 0.0 0.01 0.01 0.0 0.0 0.0 0.01 0.0 0.0 0.0 0.01 0.01 0.0 0.0 0.0 0.01 0.0 0.0 0.0 0.01 0.01 0.0 0.0 0.0 0.01 0.0 0.0 0.0 0.01 0.01 0.0 0.0 0.0 0.01 0.0 0.0 0.0 0.01 0.01 0.0 0.0 0.0 0.01 0.0 0.0 0.0 0.01 0.01 0.0 0.0 0.0 0.01 0.0 0.0 0.0 0.01 0.01 0.0 0.0 0.0 0.01 0.0 0.0 0.0 0.01 0.01 0.0 0.0 0.0 0.01 0.0 0.0 0.0 0.01 0.01 0.0 0.0 0.0 0.01 0.0 0.0 0.0 0.01 0.01 0.0 0.0 0.0 0.01 0.0 0.0 0.0 0.01 0.01 0.0 0.0 0.0 0.01 0.0 0.0 0.0 0.01 0.01 0.0 0.0 0.0 0.01 0.0 0.0 0.0 0.01 0.01 0.0 0.0 0.0 0.01 0.0 0.0 0.0 0.01 0.01 0.0 0.0 0.0 0.01 0.0 0.0 0.0 0.01 0.01 0.0 0.0 0.0 0.01 0.0 0.0 0.0 0.01 0.01 0.0 0.0 0.0 0.01 0.0 0.0 0.0 0.01 0.01 0.0 0.0 0.0 0.01 0.0 0.0 0.0 0.01 0.01 0.0 0.0 0.0 0.01 0.0 0.0 0.0 0.01 0.01 0.0 0.0 0.0 0.01 0.0 0.0 0.0 0.01 0.01 0.0 0.0 0.0 0.01 0.0 0.0 0.0 0.01 0.01 0.0 0.0 0.0 0.01 0.0 0.0 0.0 0.01 0.01 0.0 0.0 0.0 0.01 0.0 0.0 0.0 0.01 0.01 0.0 0.0 0.0 0.01 0.0 0.0 0.0 0.01 0.01 0.0 0.0 0.0 0.01 0.0 0.0 0.0 0.01 0.01 0.0 0.0 0.0 0.01 0.0 0.0 0.0 0.01 0.01 0.0 0.0 0.0 0.01 0.0 0.0 0.0 0.01 0.01 0.0 0.0 0.0 0.01 0.0 0.0 0.0 0.01 0.01 0.0 0.0 0.0 0.01 0.0 0.0 0.0 0.01 0.01 0.0 0.0 0.0 0.01 0.0 0.0 0.0 0.01 0.01 0.0 0.0 0.0 0.01 0.0 0.0 0.0 0.01 0.01 0.0 0.0 0.0 0.01 0.0 0.0 0.0 0.01 0.01 0.0 0.0 0.0 0.01 0.0 0.0 0.0 0.01 0.01 0.0 0.0 0.0 0.01 0.0 0.0 0.0 0.01 0.01 0.0 0.0 0.0 0.01 0.0 0.0 0.0 0.01 0.01 0.0 0.0 0.0 0.01 0.0 0.0 0.0 0.01 0.01 0.0 0.0 0.0 0.01 0.0 0.0 0.0 0.01 0.01 0.0 0.0 0.0 0.01 0.0 0.0 0.0 0.01 0.01 0.0 0.0 0.0 0.01 0.0 0.0 0.0 0.01 0.01 0.0 0.0 0.0 0.01 0.0 0.0 0.0 0.01 0.01 0.0 0.0 0.0 0.01 0.0 0.0 0.0 0.01 0.01 0.0 0.0 0.0 0.01 0.0 0.0 0.0 0.01 0.01 0.0 0.0 0.0 0.01 0.0 0.0 0.0 0.01 0.01 0.0 0.0 0.0 0.01 0.0 0.0 0.0 0.01 0.01 0.0 0.0 0.0 0.01 0.0 0.0 0.0 0.01 0.01 0.0 0.0 0.0 0.01 0.0 0.0 0.0 0.01 0.01 0.0 0.0 0.0 0.01 0.0 0.0 0.0 0.01 0.01 0.0 0.0 0.0 0.01 0.0 0.0 0.0 0.01 0.01 0.0 0.0 0.0 0.01 0.0 0.0 0.0 0.01 0.01 0.0 0.0 0.0 0.01 0.0 0.0 0.0 0.01 0.01 0.0 0.0 0.0 0.01 0.0 0.0 0.0 0.01 0.01 0.0 0.0 0.0 0.01 0.0 0.0 0.0 0.01 0.01 0.0 0.0 0.0 0.01 0.0 0.0 0.0 0.01 0.01 0.0 0.0 0.0 0.01 0.0 0.0 0.0 0.01 0.01 0.0 0.0 0.0 0.01 0.0 0.0 0.0 0.01 0.01 0.0 0.0 0.0 0.01 0.0 0.0 0.0 0.01 0.01 0.0 0.0 0.0 0.01 0.0 0.0 0.0 0.01 0.01 0.0 0.0 0.0 0.01 0.0 0.0 0.0 0.01 0.01 0.0 0.0 0.0 0.01 0.0 0.0 0.0 0.01 0.01 0.0 0.0 0.0 0.01 0.0 0.0 0.0 0.01 0.01 0.0 0.0 0.0 0.01 0.0 0.0 0.0 0.01 0.01 0.0 0.0 0.0 0.01 0.0 0.0 0.0 0.01 0.01 0.0 0.0 0.0 0.01 0.0 0.0 0.0 0.01 0.01 0.0 0.0 0.0 0.01 0.0 0.0 0.0 0.01 0.01 0.0 0.0 0.0 0.01 0.0 0.0 0.0 0.01 0.01 0.0 0.0 0.0 0.01 0.0 0.0 0.0 0.01 0.01 0.0 0.0 0.0 0.01 0.0 0.0 0.0 0.01 0.01 0.0 0.0 0.0 0.01 0.0 0.0 0.0 0.01 0.01 0.0 0.0 0.0 0.01 0.0 0.0 0.0 0.01 0.01 0.0 0.0 0.0 0.01 0.0 0.0 0.0 0.01 0.01 0.0 0.0 0.0 0.01 0.0 0.0 0.0 0.01 0.01 0.0 0.0 0.0 0.01 0.0 0.0 0.0 0.01 0.01 0.0 0.0 0.0 0.01 0.0 0.0 0.0 0.01 0.01 0.0 0.0 0.0 0.01 0.0 0.0 0.0 0.01 0.01 0.0 0.0 0.0 0.01 0.0 0.0 0.0 0.01 0.01 0.0 0.0 0.0 0.01 0.0 0.0 0.0 0.01 0.01 0.0 0.0 0.0 0.01 0.0 0.0 0.0 0.01 0.01 0.0 0.0 0.0 0.01 0.0 0.0 0.0 0.01 0.01 0.0 0.0 0.0 0.01 0.0 0.0 0.0 0.01 0.01 0.0 0.0 0.0 0.01 0.0 0.0 0.0 0.01 0.01 0.0 0.0 0.0 0.01 0.0 0.0 0.0 0.01 0.01 0.0 0.0 0.0 0.01 0.0 0.0 0.0 0.01 0.01 0.0 0.0 0.0 0.01 0.0 0.0 0.0 0.01 0.01 0.0 0.0 0.0 0.01 0.0 0.0 0.0 0.01 0.01 0.0 0.0 0.0 0.01 0.0 0.0 0.0 0.01 0.01 0.0 0.0 0.0 0.01 0.0 0.0 0.0 0.01 0.01 0.0 0.0 0.0 0.01 0.0 0.0 0.0 0.01 0.01 0.0 0.0 0.0 0.01 0.0 0.0 0.0 0.01 0.01 0.0 0.0 0.0 0.01 0.0 0.0 0.0 0.01 0.01 0.0 0.0 0.0 0.01 0.0 0.0 0.0 0.01 0.01 0.0 0.0 0.0 0.01 0.0 0.0 0.0 0.01 0.01 0.0 0.0 0.0 0.01 0.0 0.0 0.0 0.01 0.01 0.0 0.0 0.0 0.01 0.0 0.0 0.0 0.01 0.01 0.0 0.0 0.0 0.01 0.0 0.0 0.0 0.01 0.01 0.0 0.0 0.0 0.01 0.0 0.0 0.0 0.01 0.01 0.0 0.0 0.0 0.01 0.0 0.0 0.0 0.01 0.01 0.0 0.0 0.0 0.01 0.0 0.0 0.0 0.01 0.01 0.0 0.0 0.0 0.01 0.0 0.0 0.0 0.01 0.01 0.0 0.0 0.0 0.01 0.0 0.0 0.0 0.01 0.01 0.0 0.0 0.0 0.01 0.0 0.0 0.0 0.01 0.01 0.0 0.0 0.0 0.01 0.0 0.0 0.0 0.01 0.01 0.0 0.0 0.0 0.01 0.0 0.0 0.0 0.01 0.01 0.0 0.0 0.0 0.01 0.0 0.0 0.0 0.01 0.01 0.0 0.0 0.0 0.01 0.0 0.0 0.0 0.01 0.01 0.0 0.0 0.0 0.01 0.0 0.0 0.0 0.01 0.01 0.0 0.0 0.0 0.01 0.0 0.0 0.0 0.01 0.01 0.0 0.0 0.0 0.01 0.0 0.0 0.0 0.01 0.01 0.0 0.0 0.0 0.01 0.0 0.0 0.0 0.01 0.01 0.0 0.0 0.0 0.01 0.0 0.0 0.0 0.01 0.01 0.0 0.0 0.0 0.01 0.0 0.0 0.0 0.01 0.01 0.0 0.0 0.0 0.01 0.0 0.0 0.0 0.01 0.01 0.0 0.0 0.0 0.01 0.0 0.0 0.0 0.01 0.01 0.0 0.0 0.0 0.01 0.0 0.0 0.0 0.01 0.01 0.0 0.0 0.0 0.01 0.0 0.0 0.0 0.01 0.01 0.0 0.0 0.0 0.01 0.0 0.0 0.0 0.01 0.01 0.0 0.0 0.0 0.01 0.0 0.0 0.0 0.01 0.01 0.0 0.0 0.0 0.01 0.0 0.0 0.0 0.01 0.01 0.0 0.0 0.0 0.01 0.0 0.0 0.0 0.01 0.01 0.0 0.0 0.0 0.01 0.0 0.0 0.0 0.01 0.01 0.0 0.0 0.0 0.01 0.0 0.0 0.0 0.01 0.01 0.0 0.0 0.0 0.01 0.0 0.0 0.0 0.01 0.01 0.0 0.0 0.0 0.01 0.0 0.0 0.0 0.01 0.01 0.0 0.0 0.0 0.01 0.0 0.0 0.0 0.01 0.01 0.0 0.0 0.0 0.01 0.0 0.0 0.0 0.01 0.01 0.0 0.0 0.0 0.01 0.0 0.0 0.0 0.01 0.01 0.0 0.0 0.0 0.01 0.0 0.0 0.0 0.01 0.01 0.0 0.0 0.0 0.01 0.0 0.0 0.0 0.01 0.01 0.0 0.0 0.0 0.01 0.0 0.0 0.0 0.01 0.01 0.0 0.0 0.0 0.01 0.0 0.0 0.0 0.01 0.01 0.0 0.0 0.0 0.01 0.0 0.0 0.0 0.01 0.01 0.0 0.0 0.0 0.01 0.0 0.0 0.0 0.01 0.01 0.0 0.0 0.0 0.01 0.0 0.0 0.0 0.01 0.01 0.0 0.0 0.0 0.01 0.0 0.0 0.0 0.01 0.01 0.0 0.0 0.0 0.01 0.0 0.0 0.0 0.01 0.01 0.0 0.0 0.0 0.01 0.0 0.0 0.0 0.01 0.01 0.0 0.0 0.0 0.01 0.0 0.0 0.0 0.01 0.01 0.0 0.0 0.0 0.01 0.0 0.0 0.0 0.01 0.01 0.0 0.0 0.0 0.01 0.0 0.0 0.0 0.01 0.01 0.0 0.0 0.0 0.01 0.0 0.0 0.0 0.01 0.01 0.0 0.0 0.0 0.01 0.0 0.0 0.0 0.01 0.01 0.0 0.0 0.0 0.01 0.0 0.0 0.0 0.01 0.01 0.0 0.0 0.0 0.01 0.0 0.0 0.0 0.01 0.01 0.0 0.0 0.0 0.01 0.0 0.0 0.0 0.01 0.01 0.0 0.0 0.0 0.01 0.0 0.0 0.0 0.01 0.01 0.0 0.0 0.0 0.01 0.0 0.0 0.0 0.01 0.01 0.0 0.0 0.0 0.01 0.0 0.0 0.0 0.01 0.01 0.0 0.0 0.0 0.01 0.0 0.0 0.0 0.01 0.01 0.0 0.0 0.0 0.01 0.0 0.0 0.0 0.01 0.01 0.0 0.0 0.0 0.01 0.0 0.0 0.0 0.01 0.01 0.0 0.0 0.0 0.01 0.0 0.0 0.0 0.01 0.01 0.0 0.0 0.0 0.01 0.0 0.0 0.0 0.01 0.01 0.0 0.0 0.0 0.01 0.0 0.0 0.0 0.01 0.01 0.0 0.0 0.0 0.01 0.0 0.0 0.0 0.01 0.01 0.0 0.0 0.0 0.01 0.0 0.0 0.0 0.01 0.01 0.0 0.0 0.0 0.01 0.0 0.0 0.0 0.01 0.01 0.0 0.0 0.0 0.01 0.0 0.0 0.0 0.01 0.01 0.0 0.0 0.0 0.01 0.0 0.0 0.0 0.01 0.01 0.0 0.0 0.0 0.01 0.0 0.0 0.0 0.01 0.01 0.0 0.0 0.0 0.01 0.0 0.0 0.0 0.01 0.01 0.0 0.0 0.0 0.01 0.0 0.0 0.0 0.01 0.01 0.0 0.0 0.0 0.01 0.0 0.0 0.0 0.01 0.01 0.0 0.0 0.0 0.01 0.0 0.0 0.0 0.01 0.01 0.0 0.0 0.0 0.01 0.0 0.0 0.0 0.01 0.01 0.0 0.0 0.0 0.01 0.0 0.0 0.0 0.01 0.01 0.0 0.0 0.0 0.01 0.0 0.0 0.0 0.01 0.01 0.0 0.0 0.0 0.01 0.0 0.0 0.0 0.01 0.01 0.0 0.0 0.0 0.01 0.0 0.0 0.0 0.01 0.01 0.0 0.0 0.0 0.01 0.0 0.0 0.0 0.01 0.01 0.0 0.0 0.0 0.01 0.0 0.0 0.0 0.01 0.01 0.0 0.0 0.0 0.01 0.0 0.0 0.0 0.01 0.01 0.0 0.0 0.0 0.01 0.0 0.0 0.0 0.01 0.01 0.0 0.0 0.0 0.01 0.0 0.0 0.0 0.01 0.01 0.0 0.0 0.0 0.01 0.0 0.0 0.0 0.01 0.01 0.0 0.0 0.0 0.01 0.0 0.0 0.0 0.01 0.01 0.0 0.0 0.0 0.01 0.0 0.0 0.0 0.01 0.01 0.0 0.0 0.0 0.01 0.0 0.0 0.0 0.01 0.01 0.0 0.0 0.0 0.01 0.0 0.0 0.0 0.01 0.01 0.0 0.0 0.0 0.01 0.0 0.0 0.0 0.01 0.01 0.0 0.0 0.0 0.01 0.0 0.0 0.0 0.01 0.01 0.0 0.0 0.0 0.01 0.0 0.0 0.0 0.01 0.01 0.0 0.0 0.0 0.01 0.0 0.0 0.0 0.01 0.01 0.0 0.0 0.0 0.01 0.0 0.0 0.0 0.01 0.01 0.0 0.0 0.0 0.01 0.0 0.0 0.0 0.01 0.01 0.0 0.0 0.0 0.01 0.0 0.0 0.0 0.01 0.01 0.0 0.0 0.0 0.01 0.0 0.0 0.0 0.01 0.01 0.0 0.0 0.0 0.01 0.0 0.0 0.0 0.01 0.01 0.0 0.0 0.0 0.01 0.0 0.0 0.0 0.01 0.01 0.0 0.0 0.0 0.01 0.0 0.0 0.0 0.01 0.01 0.0 0.0 0.0 0.01 0.0 0.0 0.0 0.01 0.01 0.0 0.0 0.0 0.01 0.0 0.0 0.0 0.01 0.01 0.0 0.0 0.0 0.01 0.0 0.0 0.0 0.01 0.01 0.0 0.0 0.0 0.01 0.0 0.0 0.0 0.01 0.01 0.0 0.0 0.0 0.01 0.0 0.0 0.0 0.01 0.01 0.0 0.0 0.0 0.01 0.0 0.0 0.0 0.01 0.01 0.0 0.0 0.0 0.01 0.0 0.0 0.0 0.01 0.01 0.0 0.0 0.0 0.01 0.0 0.0 0.0 0.01 0.01 0.0 0.0 0.0 0.01 0.0 0.0 0.0 0.01 0.01 0.0 0.0 0.0 0.01 0.0 0.0 0.0 0.01 0.01 0.0 0.0 0.0 0.01 0.0 0.0 0.0 0.01 0.01 0.0 0.0 0.0 0.01 0.0 0.0 0.0 0.01 0.01 0.0 0.0 0.0 0.01 0.0 0.0 0.0 0.01 0.01 0.0 0.0 0.0 0.01 0.0 0.0 0.0 0.01 0.01 0.0 0.0 0.0 0.01 0.0 0.0 0.0 0.01 0.01 0.0 0.0 0.0 0.01 0.0 0.0 0.0 0.01 0.01 0.0 0.0 0.0 0.01 0.0 0.0 0.0 0.01 0.01 0.0 0.0 0.0 0.01 0.0 0.0 0.0 0.01 0.01 0.0 0.0 0.0 0.01 0.0 0.0 0.0 0.01 0.01 0.0 0.0 0.0 0.01 0.0 0.0 0.0 0.01 0.01 0.0 0.0 0.0 0.01 0.0 0.0 0.0 0.01 0.01 0.0 0.0 0.0 0.01 0.0 0.0 0.0 0.01 0.01 0.0 0.0 0.0 0.01 0.0 0.0 0.0 0.01 0.01 0.0 0.0 0.0 0.01 0.0 0.0 0.0 0.01 0.01 0.0 0.0 0.0 0.01 0.0 0.0 0.0 0.01 0.01 0.0 0.0 0.0 0.01 0.0 0.0 0.0 0.01 0.01 0.0 0.0 0.0 0.01 0.0 0.0 0.0 0.01 0.01 0.0 0.0 0.0 0.01 0.0 0.0 0.0 0.01 0.01 0.0 0.0 0.0 0.01 0.0 0.0 0.0 0.01 0.01 0.0 0.0 0.0 0.01 0.0 0.0 0.0 0.01 0.01 0.0 0.0 0.0 0.01 0.0 0.0 0.0 0.01 0.01 0.0 0.0 0.0 0.01 0.0 0.0 0.0 0.01 0.01 0.0 0.0 0.0 0.01 0.0 0.0 0.0 0.01 0.01 0.0 0.0 0.0 0.01 0.0 0.0 0.0 0.01 0.01 0.0 0.0 0.0 0.01 0.0 0.0 0.0 0.01 0.01 0.0 0.0 0.0 0.01 0.0 0.0 0.0 0.01 0.01 0.0 0.0 0.0 0.01 0.0 0.0 0.0 0.01 0.01 0.0 0.0 0.0 0.01 0.0 0.0 0.0 0.01 0.01 0.0 0.0 0.0 0.01 0.0 0.0 0.0 0.01 0.01 0.0 0.0 0.0 0.01 0.0 0.0 0.0 0.01 0.01 0.0 0.0 0.0 0.01 0.0 0.0 0.0 0.01 0.01 0.0 0.0 0.0 0.01 0.0 0.0 0.0 0.01 0.01 0.0 0.0 0.0 0.01 0.0 0.0 0.0 0.01 0.01 0.0 0.0 0.0 0.01 0.0 0.0 0.0 0.01 0.01 0.0 0.0 0.0 0.01 0.0 0.0 0.0 0.01 0.01 0.0 0.0 0.0 0.01 0.0 0.0 0.0 0.01 0.01 0.0 0.0 0.0 0.01 0.0 0.0 0.0 0.01 0.01 0.0 0.0 0.0 0.01 0.0 0.0 0.0 0.01 0.01 0.0 0.0 0.0 0.01 0.0 0.0 0.0 0.01 0.01 0.0 0.0 0.0 0.01 0.0 0.0 0.0 0.01 0.01 0.0 0.0 0.0 0.01 0.0 0.0 0.0 0.01 0.01 0.0 0.0 0.0 0.01 0.0 0.0 0.0 0.01 0.01 0.0 0.0 0.0 0.01 0.0 0.0 0.0 0.01 0.01 0.0 0.0 0.0 0.01 0.0 0.0 0.0 0.01 0.01 0.0 0.0 0.0 0.01 0.0 0.0 0.0 0.01 0.01 0.0 0.0 0.0 0.01 0.0 0.0 0.0 0.01 0.01 0.0 0.0 0.0 0.01 0.0 0.0 0.0 0.01 0.01 0.0 0.0 0.0 0.01 0.0 0.0 0.0 0.01 0.01 0.0 0.0 0.0 0.01 0.0 0.0 0.0 0.01 0.01 0.0 0.0 0.0 0.01 0.0 0.0 0.0 0.01 0.01 0.0 0.0 0.0 0.01 0.0 0.0 0.0 0.01 0.01 0.0 0.0 0.0 0.01 0.0 0.0 0.0 0.01 0.01 0.0 0.0 0.0 0.01 0.0 0.0 0.0 0.01 0.01 0.0 0.0 0.0 0.01 0.0 0.0 0.0 0.01 0.01 0.0 0.0 0.0 0.01 0.0 0.0 0.0 0.01 0.01 0.0 0.0 0.0 0.01 0.0 0.0 0.0 0.01 0.01 0.0 0.0 0.0 0.01 0.0 0.0 0.0 0.01 0.01 0.0 0.0 0.0 0.01 0.0 0.0 0.0 0.01 0.01 0.0 0.0 0.0 0.01 0.0 0.0 0.0 0.01 0.01 0.0 0.0 0.0 0.01 0.0 0.0 0.0 0.01 0.01 0.0 0.0 0.0 0.01 0.0 0.0 0.0 0.01 0.01 0.0 0.0 0.0 0.01 0.0 0.0 0.0 0.01 0.01 0.0 0.0 0.0 0.01 0.0 0.0 0.0 0.01 0.01 0.0 0.0 0.0 0.01 0.0 0.0 0.0 0.01 0.01 0.0 0.0 0.0 0.01 0.0 0.0 0.0 0.01 0.01 0.0 0.0 0.0 0.01 0.0 0.0 0.0 0.01 0.01 0.0 0.0 0.0 0.01 0.0 0.0 0.0 0.01 0.01 0.0 0.0 0.0 0.01 0.0 0.0 0.0 0.01 0.01 0.0 0.0 0.0 0.01 0.0 0.0 0.0 0.01 0.01 0.0 0.0 0.0 0.01 0.0 0.0 0.0 0.01 0.01 0.0 0.0 0.0 0.01 0.0 0.0 0.0 0.01 0.01 0.0 0.0 0.0 0.01 0.0 0.0 0.0 0.01 0.01 0.0 0.0 0.0 0.01 0.0 0.0 0.0 0.01 0.01 0.0 0.0 0.0 0.01 0.0 0.0 0.0 0.01 0.01 0.0 0.0 0.0 0.01 0.0 0.0 0.0 0.01 0.01 0.0 0.0 0.0 0.01 0.0 0.0 0.0 0.01 0.01 0.0 0.0 0.0 0.01 0.0 0.0 0.0 0.01 0.01 0.0 0.0 0.0 0.01 0.0 0.0 0.0 0.01 0.01 0.0 0.0 0.0 0.01 0.0 0.0 0.0 0.01 0.01 0.0 0.0 0.0 0.01 0.0 0.0 0.0 0.01 0.01 0.0 0.0 0.0 0.01 0.0 0.0 0.0 0.01 0.01 0.0 0.0 0.0 0.01 0.0 0.0 0.0 0.01 0.01 0.0 0.0 0.0 0.01 0.0 0.0 0.0 0.01 0.01 0.0 0.0 0.0 0.01 0.0 0.0 0.0 0.01 0.01 0.0 0.0 0.0 0.01 0.0 0.0 0.0 0.01 0.01 0.0 0.0 0.0 0.01 0.0 0.0 0.0 0.01 0.01 0.0 0.0 0.0 0.01 0.0 0.0 0.0 0.01 0.01 0.0 0.0 0.0 0.01 0.0 0.0 0.0 0.01 0.01 0.0 0.0 0.0 0.01 0.0 0.0 0.0 0.01 0.01 0.0 0.0 0.0 0.01 0.0 0.0 0.0 0.01 0.01 0.0 0.0 0.0 0.01 0.0 0.0 0.0 0.01 0.01 0.0 0.0 0.0 0.01 0.0 0.0 0.0 0.01 0.01 0.0 0.0 0.0 0.01 0.0 0.0 0.0 0.01 0.01 0.0 0.0 0.0 0.01 0.0 0.0 0.0 0.01 0.01 0.0 0.0 0.0 0.01 0.0 0.0 0.0 0.01 0.01 0.0 0.0 0.0 0.01 0.0 0.0 0.0 0.01 0.01 0.0 0.0 0.0 0.01 0.0 0.0 0.0 0.01 0.01 0.0 0.0 0.0 0.01 0.0 0.0 0.0 0.01 0.01 0.0 0.0 0.0 0.01 0.0 0.0 0.0 0.01 0.01 0.0 0.0 0.0 0.01 0.0 0.0 0.0 0.01 0.01 0.0 0.0 0.0 0.01 0.0 0.0 0.0 0.01 0.01 0.0 0.0 0.0 0.01 0.0 0.0 0.0 0.01 0.01 0.0 0.0 0.0 0.01 0.0 0.0 0.0 0.01 0.01 0.0 0.0 0.0 0.01 0.0 0.0 0.0 0.01 0.01 0.0 0.0 0.0 0.01 0.0 0.0 0.0 0.01 0.01 0.0 0.0 0.0 0.01 0.0 0.0 0.0 0.01 0.01 0.0 0.0 0.0 0.01 0.0 0.0 0.0 0.01 0.01 0.0 0.0 0.0 0.01 0.0 0.0 0.0 0.01 0.01 0.0 0.0 0.0 0.01 0.0 0.0 0.0 0.01 0.01 0.0 0.0 0.0 0.01 0.0 0.0 0.0 0.01 0.01 0.0 0.0 0.0 0.01 0.0 0.0 0.0 0.01 0.01 0.0 0.0 0.0 0.01 0.0 0.0 0.0 0.01 0.01 0.0 0.0 0.0 0.01 0.0 0.0 0.0 0.01 0.01 0.0 0.0 0.0 0.01 0.0 0.0 0.0 0.01 0.01 0.0 0.0 0.0 0.01 0.0 0.0 0.0 0.01 0.01 0.0 0.0 0.0 0.01 0.0 0.0 0.0 0.01 0.01 0.0 0.0 0.0 0.01 0.0 0.0 0.0 0.01 0.01 0.0 0.0 0.0 0.01 0.0 0.0 0.0 0.01 0.01 0.0 0.0 0.0 0.01 0.0 0.0 0.0 0.01 0.01 0.0 0.0 0.0 0.01 0.0 0.0 0.0 0.01 0.01 0.0 0.0 0.0 0.01 0.0 0.0 0.0 0.01 0.01 0.0 0.0 0.0 0.01 0.0 0.0 0.0 0.01 0.01 0.0 0.0 0.0 0.01 0.0 0.0 0.0 0.01 0.01 0.0 0.0 0.0 0.01 0.0 0.0 0.0 0.01 0.01 0.0 0.0 0.0 0.01 0.0 0.0 0.0 0.01 0.01 0.0 0.0 0.0 0.01 0.0 0.0 0.0 0.01 0.01 0.0 0.0 0.0 0.01 0.0 0.0 0.0 0.01 0.01 0.0 0.0 0.0 0.01 0.0 0.0 0.0 0.01 0.01 0.0 0.0 0.0 0.01 0.0 0.0 0.0 0.01 0.01 0.0 0.0 0.0 0.01 0.0 0.0 0.0 0.01 0.01 0.0 0.0 0.0 0.01 0.0 0.0 0.0 0.01 0.01 0.0 0.0 0.0 0.01 0.0 0.0 0.0 0.01 0.01 0.0 0.0 0.0 0.01 0.0 0.0 0.0 0.01 0.01 0.0 0.0 0.0 0.01 0.0 0.0 0.0 0.01 0.01 0.0 0.0 0.0 0.01 0.0 0.0 0.0 0.01 0.01 0.0 0.0 0.0 0.01 0.0 0.0 0.0 0.01 0.01 0.0 0.0 0.0 0.01 0.0 0.0 0.0 0.01 0.01 0.0 0.0 0.0 0.01 0.0 0.0 0.0 0.01 0.01 0.0 0.0 0.0 0.01 0.0 0.0 0.0 0.01 0.01 0.0 0.0 0.0 0.01 0.0 0.0 0.0 0.01 0.01 0.0 0.0 0.0 0.01 0.0 0.0 0.0 0.01 0.01 0.0 0.0 0.0 0.01 0.0 0.0 0.0 0.01 0.01 0.0 0.0 0.0 0.01 0.0 0.0 0.0 0.01 0.01 0.0 0.0 0.0 0.01 0.0 0.0 0.0 0.01 0.01 0.0 0.0 0.0 0.01 0.0 0.0 0.0 0.01 0.01 0.0 0.0 0.0 0.01 0.0 0.0 0.0 0.01 0.01 0.0 0.0 0.0 0.01 0.0 0.0 0.0 0.01 0.01 0.0 0.0 0.0 0.01 0.0 0.0 0.0 0.01 0.01 0.0 0.0 0.0 0.01 0.0 0.0 0.0 0.01 0.01 0.0 0.0 0.0 0.01 0.0 0.0 0.0 0.01 0.01 0.0 0.0 0.0 0.01 0.0 0.0 0.0 0.01 0.01 0.0 0.0 0.0 0.01 0.0 0.0 0.0 0.01 0.01 0.0 0.0 0.0 0.01 0.0 0.0 0.0 0.01 0.01 0.0 0.0 0.0 0.01 0.0 0.0 0.0 0.01 0.01 0.0 0.0 0.0 0.01 0.0 0.0 0.0 0.01 0.01 0.0 0.0 0.0 0.01 0.0 0.0 0.0 0.01 0.01 0.0 0.0 0.0 0.01 0.0 0.0 0.0 0.01 0.01 0.0 0.0 0.0 0.01 0.0 0.0 0.0 0.01 0.01 0.0 0.0 0.0 0.01 0.0 0.0 0.0 0.01 0.01 0.0 0.0 0.0 0.01 0.0 0.0 0.0 0.01 0.01 0.0 0.0 0.0 0.01 0.0 0.0 0.0 0.01 0.01 0.0 0.0 0.0 0.01 0.0 0.0 0.0 0.01 0.01 0.0 0.0 0.0 0.01 0.0 0.0 0.0 0.01 0.01 0.0 0.0 0.0 0.01 0.0 0.0 0.0 0.01 0.01 0.0 0.0 0.0 0.01 0.0 0.0 0.0 0.01 0.01 0.0 0.0 0.0 0.01 0.0 0.0 0.0 0.01 0.01 0.0 0.0 0.0 0.01 0.0 0.0 0.0 0.01 0.01 0.0 0.0 0.0 0.01 0.0 0.0 0.0 0.01 0.01 0.0 0.0 0.0 0.01 0.0 0.0 0.0 0.01 0.01 0.0 0.0 0.0 0.01 0.0 0.0 0.0 0.01 0.01 0.0 0.0 0.0 0.01 0.0 0.0 0.0 0.01 0.01 0.0 0.0 0.0 0.01 0.0 0.0 0.0 0.01 0.01 0.0 0.0 0.0 0.01 0.0 0.0 0.0 0.01 0.01 0.0 0.0 0.0 0.01 0.0 0.0 0.0 0.01 0.01 0.0 0.0 0.0 0.01 0.0 0.0 0.0 0.01 0.01 0.0 0.0 0.0 0.01 0.0 0.0 0.0 0.01 0.01 0.0 0.0 0.0 0.01 0.0 0.0 0.0 0.01 0.01 0.0 0.0 0.0 0.01 0.0 0.0 0.0 0.01 0.01 0.0 0.0 0.0 0.01 0.0 0.0 0.0 0.01 0.01 0.0 0.0 0.0 0.01 0.0 0.0 0.0 0.01 0.01 0.0 0.0 0.0 0.01 0.0 0.0 0.0 0.01 0.01 0.0 0.0 0.0 0.01 0.0 0.0 0.0 0.01 0.01 0.0 0.0 0.0 0.01 0.0 0.0 0.0 0.01 0.01 0.0 0.0 0.0 0.01 0.0 0.0 0.0 0.01 0.01 0.0 0.0 0.0 0.01 0.0 0.0 0.0 0.01 0.01 0.0 0.0 0.0 0.01 0.0 0.0 0.0 0.01 0.01 0.0 0.0 0.0 0.01 0.0 0.0 0.0 0.01 0.01 0.0 0.0 0.0 0.01 0.0 0.0 0.0 0.01 0.01 0.0 0.0 0.0 0.01 0.0 0.0 0.0 0.01 0.01 0.0 0.0 0.0 0.01 0.0 0.0 0.0 0.01 0.01 0.0 0.0 0.0 0.01 0.0 0.0 0.0 0.01 0.01 0.0 0.0 0.0 0.01 0.0 0.0 0.0 0.01 0.01 0.0 0.0 0.0 0.01 0.0 0.0 0.0 0.01 0.01 0.0 0.0 0.0 0.01 0.0 0.0 0.0 0.01 0.01 0.0 0.0 0.0 0.01 0.0 0.0 0.0 0.01 0.01 0.0 0.0 0.0 0.01 0.0 0.0 0.0 0.01 0.01 0.0 0.0 0.0 0.01 0.0 0.0 0.0 0.01 0.01 0.0 0.0 0.0 0.01 0.0 0.0 0.0 0.01 0.01 0.0 0.0 0.0 0.01 0.0 0.0 0.0 0.01 0.01 0.0 0.0 0.0 0.01 0.0 0.0 0.0 0.01 0.01 0.0 0.0 0.0 0.01 0.0 0.0 0.0 0.01 0.01 0.0 0.0 0.0 0.01 0.0 0.0 0.0 0.01 0.01 0.0 0.0 0.0 0.01 0.0 0.0 0.0 0.01 0.01 0.0 0.0 0.0 0.01 0.0 0.0 0.0 0.01 0.01 0.0 0.0 0.0 0.01 0.0 0.0 0.0 0.01 0.01 0.0 0.0 0.0 0.01 0.0 0.0 0.0 0.01 0.01 0.0 0.0 0.0 0.01 0.0 0.0 0.0 0.01 0.01 0.0 0.0 0.0 0.01 0.0 0.0 0.0 0.01 0.01 0.0 0.0 0.0 0.01 0.0 0.0 0.0 0.01 0.01 0.0 0.0 0.0 0.01 0.0 0.0 0.0 0.01 0.01 0.0 0.0 0.0 0.01 0.0 0.0 0.0 0.01 0.01 0.0 0.0 0.0 0.01 0.0 0.0 0.0 0.01 0.01 0.0 0.0 0.0 0.01 0.0 0.0 0.0 0.01 0.01 0.0 0.0 0.0 0.01 0.0 0.0 0.0 0.01 0.01 0.0 0.0 0.0 0.01 0.0 0.0 0.0 0.01 0.01 0.0 0.0 0.0 0.01 0.0 0.0 0.0 0.01 0.01 0.0 0.0 0.0 0.01 0.0 0.0 0.0 0.01 0.01 0.0 0.0 0.0 0.01 0.0 0.0 0.0 0.01 0.01 0.0 0.0 0.0 0.01 0.0 0.0 0.0 0.01 0.01 0.0 0.0 0.0 0.01 0.0 0.0 0.0 0.01 0.01 0.0 0.0 0.0 0.01 0.0 0.0 0.0 0.01 0.01 0.0 0.0 0.0 0.01 0.0 0.0 0.0 0.01 0.01 0.0 0.0 0.0 0.01 0.0 0.0 0.0 0.01 0.01 0.0 0.0 0.0 0.01 0.0 0.0 0.0 0.01 0.01 0.0 0.0 0.0 0.01 0.0 0.0 0.0 0.01 0.01 0.0 0.0 0.0 0.01 0.0 0.0 0.0 0.01 0.01 0.0 0.0 0.0 0.01 0.0 0.0 0.0 0.01 0.01 0.0 0.0 0.0 0.01 0.0 0.0 0.0 0.01 0.01 0.0 0.0 0.0 0.01 0.0 0.0 0.0 0.01 0.01 0.0 0.0 0.0 0.01 0.0 0.0 0.0 0.01 0.01 0.0 0.0 0.0 0.01 0.0 0.0 0.0 0.01 0.01 0.0 0.0 0.0 0.01 0.0 0.0 0.0 0.01 0.01 0.0 0.0 0.0 0.01 0.0 0.0 0.0 0.01 0.01 0.0 0.0 0.0 0.01 0.0 0.0 0.0 0.01 0.01 0.0 0.0 0.0 0.01 0.0 0.0 0.0 0.01 0.01 0.0 0.0 0.0 0.01 0.0 0.0 0.0 0.01 0.01 0.0 0.0 0.0 0.01 0.0 0.0 0.0 0.01 0.01 0.0 0.0 0.0 0.01 0.0 0.0 0.0 0.01 0.01 0.0 0.0 0.0 0.01 0.0 0.0 0.0 0.01 0.01 0.0 0.0 0.0 0.01 0.0 0.0 0.0 0.01 0.01 0.0 0.0 0.0 0.01 0.0 0.0 0.0 0.01 0.01 0.0 0.0 0.0 0.01 0.0 0.0 0.0 0.01 0.01 0.0 0.0 0.0 0.01 0.0 0.0 0.0 0.01 0.01 0.0 0.0 0.0 0.01 0.0 0.0 0.0 0.01 0.01 0.0 0.0 0.0 0.01 0.0 0.0 0.0 0.01 0.01 0.0 0.0 0.0 0.01 0.0 0.0 0.0 0.01 0.01 0.0 0.0 0.0 0.01 0.0 0.0 0.0 0.01 0.01 0.0 0.0 0.0 0.01 0.0 0.0 0.0 0.01 0.01 0.0 0.0 0.0 0.01 0.0 0.0 0.0 0.01 0.01 0.0 0.0 0.0 0.01 0.0 0.0 0.0 0.01 0.01 0.0 0.0 0.0 0.01 0.0 0.0 0.0 0.01 0.01 0.0 0.0 0.0 0.01 0.0 0.0 0.0 0.01 0.01 0.0 0.0 0.0 0.01 0.0 0.0 0.0 0.01 0.01 0.0 0.0 0.0 0.01 0.0 0.0 0.0 0.01 0.01 0.0 0.0 0.0 0.01 0.0 0.0 0.0 0.01 0.01 0.0 0.0 0.0 0.01 0.0 0.0 0.0 0.01 0.01 0.0 0.0 0.0 0.01 0.0 0.0 0.0 0.01 0.01 0.0 0.0 0.0 0.01 0.0 0.0 0.0 0.01 0.01 0.0 0.0 0.0 0.01 0.0 0.0 0.0 0.01 0.01 0.0 0.0 0.0 0.01 0.0 0.0 0.0 0.01 0.01 0.0 0.0 0.0 0.01 0.0 0.0 0.0 0.01 0.01 0.0 0.0 0.0 0.01 0.0 0.0 0.0 0.01 0.01 0.0 0.0 0.0 0.01 0.0 0.0 0.0 0.01 0.01 0.0 0.0 0.0 0.01 0.0 0.0 0.0 0.01 0.01 0.0 0.0 0.0 0.01 0.0 0.0 0.0 0.01 0.01 0.0 0.0 0.0 0.01 0.0 0.0 0.0 0.01 0.01 0.0 0.0 0.0 0.01 0.0 0.0 0.0 0.01 0.01 0.0 0.0 0.0 0.01 0.0 0.0 0.0 0.01 0.01 0.0 0.0 0.0 0.01 0.0 0.0 0.0 0.01 0.01 0.0 0.0 0.0 0.01 0.0 0.0 0.0 0.01 0.01 0.0 0.0 0.0 0.01 0.0 0.0 0.0 0.01 0.01 0.0 0.0 0.0 0.01 0.0 0.0 0.0 0.01 0.01 0.0 0.0 0.0 0.01 0.0 0.0 0.0 0.01 0.01 0.0 0.0 0.0 0.01 0.0 0.0 0.0 0.01 0.01 0.0 0.0 0.0 0.01 0.0 0.0 0.0 0.01 0.01 0.0 0.0 0.0 0.01 0.0 0.0 0.0 0.01 0.01 0.0 0.0 0.0 0.01 0.0 0.0 0.0 0.01 0.01 0.0 0.0 0.0 0.01 0.0 0.0 0.0 0.01 0.01 0.0 0.0 0.0 0.01 0.0 0.0 0.0 0.01 0.01 0.0 0.0 0.0 0.01 0.0 0.0 0.0 0.01 0.01 0.0 0.0 0.0 0.01 0.0 0.0 0.0 0.01 0.01 0.0 0.0 0.0 0.01 0.0 0.0 0.0 0.01 0.01 0.0 0.0 0.0 0.01 0.0 0.0 0.0 0.01 0.01 0.0 0.0 0.0 0.01 0.0 0.0 0.0 0.01 0.01 0.0 0.0 0.0 0.01 0.0 0.0 0.0 0.01 0.01 0.0 0.0 0.0 0.01 0.0 0.0 0.0 0.01 0.01 0.0 0.0 0.0 0.01 0.0 0.0 0.0 0.01 0.01 0.0 0.0 0.0 0.01 0.0 0.0 0.0 0.01 0.01 0.0 0.0 0.0 0.01 0.0 0.0 0.0 0.01 0.01 0.0 0.0 0.0 0.01 0.0 0.0 0.0 0.01 0.01 0.0 0.0 0.0 0.01 0.0 0.0 0.0 0.01 0.01 0.0 0.0 0.0 0.01 0.0 0.0 0.0 0.01 0.01 0.0 0.0 0.0 0.01 0.0 0.0 0.0 0.01 0.01 0.0 0.0 0.0 0.01 0.0 0.0 0.0 0.01 0.01 0.0 0.0 0.0 0.01 0.0 0.0 0.0 0.01 0.01 0.0 0.0 0.0 0.01 0.0 0.0 0.0 0.01 0.01 0.0 0.0 0.0 0.01 0.0 0.0 0.0 0.01 0.01 0.0 0.0 0.0 0.01 0.0 0.0 0.0 0.01 0.01 0.0 0.0 0.0 0.01 0.0 0.0 0.0 0.01 0.01 0.0 0.0 0.0 0.01 0.0 0.0 0.0 0.01 0.01 0.0 0.0 0.0 0.01 0.0 0.0 0.0 0.01 0.01 0.0 0.0 0.0 0.01 0.0 0.0 0.0 0.01 0.01 0.0 0.0 0.0 0.01 0.0 0.0 0.0 0.01 0.01 0.0 0.0 0.0 0.01 0.0 0.0 0.0 0.01 0.01 0.0 0.0 0.0 0.01 0.0 0.0 0.0 0.01 0.01 0.0 0.0 0.0 0.01 0.0 0.0 0.0 0.01 0.01 0.0 0.0 0.0 0.01 0.0 0.0 0.0 0.01 0.01 0.0 0.0 0.0 0.01 0.0 0.0 0.0 0.01 0.01 0.0 0.0 0.0 0.01 0.0 0.0 0.0 0.01 0.01 0.0 0.0 0.0 0.01 0.0 0.0 0.0 0.01 0.01 0.0 0.0 0.0 0.01 0.0 0.0 0.0 0.01 0.01 0.0 0.0 0.0 0.01 0.0 0.0 0.0 0.01 0.01 0.0 0.0 0.0 0.01 0.0 0.0 0.0 0.01 0.01 0.0 0.0 0.0 0.01 0.0 0.0 0.0 0.01 0.01 0.0 0.0 0.0 0.01 0.0 0.0 0.0 0.01 0.01 0.0 0.0 0.0 0.01 0.0 0.0 0.0 0.01 0.01 0.0 0.0 0.0 0.01 0.0 0.0 0.0 0.01 0.01 0.0 0.0 0.0 0.01 0.0 0.0 0.0 0.01 0.01 0.0 0.0 0.0 0.01 0.0 0.0 0.0 0.01 0.01 0.0 0.0 0.0 0.01 0.0 0.0 0.0 0.01 0.01 0.0 0.0 0.0 0.01 0.0 0.0 0.0 0.01 0.01 0.0 0.0 0.0 0.01 0.0 0.0 0.0 0.01 0.01 0.0 0.0 0.0 0.01 0.0 0.0 0.0 0.01 0.01 0.0 0.0 0.0 0.01 0.0 0.0 0.0 0.01 0.01 0.0 0.0 0.0 0.01 0.0 0.0 0.0 0.01 0.01 0.0 0.0 0.0 0.01 0.0 0.0 0.0 0.01 0.01 0.0 0.0 0.0 0.01 0.0 0.0 0.0 0.01 0.01 0.0 0.0 0.0 0.01 0.0 0.0 0.0 0.01 0.01 0.0 0.0 0.0 0.01 0.0 0.0 0.0 0.01 0.01 0.0 0.0 0.0 0.01 0.0 0.0 0.0 0.01 0.01 0.0 0.0 0.0 0.01 0.0 0.0 0.0 0.01 0.01 0.0 0.0 0.0 0.01 0.0 0.0 0.0 0.01 0.01 0.0 0.0 0.0 0.01 0.0 0.0 0.0 0.01 0.01 0.0 0.0 0.0 0.01 0.0 0.0 0.0 0.01 0.01 0.0 0.0 0.0 0.01 0.0 0.0 0.0 0.01 0.01 0.0 0.0 0.0 0.01 0.0 0.0 0.0 0.01 0.01 0.0 0.0 0.0 0.01 0.0 0.0 0.0 0.01 0.01 0.0 0.0 0.0 0.01 0.0 0.0 0.0 0.01 0.01 0.0 0.0 0.0 0.01 0.0 0.0 0.0 0.01 0.01 0.0 0.0 0.0 0.01 0.0 0.0 0.0 0.01 0.01 0.0 0.0 0.0 0.01 0.0 0.0 0.0 0.01 0.01 0.0 0.0 0.0 0.01 0.0 0.0 0.0 0.01 0.01 0.0 0.0 0.0 0.01 0.0 0.0 0.0 0.01 0.01 0.0 0.0 0.0 0.01 0.0 0.0 0.0 0.01 0.01 0.0 0.0 0.0 0.01 0.0 0.0 0.0 0.01 0.01 0.0 0.0 0.0 0.01 0.0 0.0 0.0 0.01 0.01 0.0 0.0 0.0 0.01 0.0 0.0 0.0 0.01 0.01 0.0 0.0 0.0 0.01 0.0 0.0 0.0 0.01 0.01 0.0 0.0 0.0 0.01 0.0 0.0 0.0 0.01 0.01 0.0 0.0 0.0 0.01 0.0 0.0 0.0 0.01 0.01 0.0 0.0 0.0 0.01 0.0 0.0 0.0 0.01 0.01 0.0 0.0 0.0 0.01 0.0 0.0 0.0 0.01 0.01 0.0 0.0 0.0 0.01 0.0 0.0 0.0 0.01 0.01 0.0 0.0 0.0 0.01 0.0 0.0 0.0 0.01 0.01 0.0 0.0 0.0 0.01 0.0 0.0 0.0 0.01 0.01 0.0 0.0 0.0 0.01 0.0 0.0 0.0 0.01 0.01 0.0 0.0 0.0 0.01 0.0 0.0 0.0 0.01 0.01 0.0 0.0 0.0 0.01 0.0 0.0 0.0 0.01 0.01 0.0 0.0 0.0 0.01 0.0 0.0 0.0 0.01 0.01 0.0 0.0 0.0 0.01 0.0 0.0 0.0 0.01 0.01 0.0 0.0 0.0 0.01 0.0 0.0 0.0 0.01 0.01 0.0 0.0 0.0 0.01 0.0 0.0 0.0 0.01 0.01 0.0 0.0 0.0 0.01 0.0 0.0 0.0 0.01 0.01 0.0 0.0 0.0 0.01 0.0 0.0 0.0 0.01 0.01 0.0 0.0 0.0 0.01 0.0 0.0 0.0 0.01 0.01 0.0 0.0 0.0 0.01 0.0 0.0 0.0 0.01 0.01 0.0 0.0 0.0 0.01 0.0 0.0 0.0 0.01 0.01 0.0 0.0 0.0 0.01 0.0 0.0 0.0 0.01 0.01 0.0 0.0 0.0 0.01 0.0 0.0 0.0 0.01 0.01 0.0 0.0 0.0 0.01 0.0 0.0 0.0 0.01 0.01 0.0 0.0 0.0 0.01 0.0 0.0 0.0 0.01 0.01 0.0 0.0 0.0 0.01 0.0 0.0 0.0 0.01 0.01 0.0 0.0 0.0 0.01 0.0 0.0 0.0 0.01 0.01 0.0 0.0 0.0 0.01 0.0 0.0 0.0 0.01 0.01 0.0 0.0 0.0 0.01 0.0 0.0 0.0 0.01 0.01 0.0 0.0 0.0 0.01 0.0 0.0 0.0 0.01 0.01 0.0 0.0 0.0 0.01 0.0 0.0 0.0 0.01 0.01 0.0 0.0 0.0 0.01 0.0 0.0 0.0 0.01 0.01 0.0 0.0 0.0 0.01 0.0 0.0 0.0 0.01 0.01 0.0 0.0 0.0 0.01 0.0 0.0 0.0 0.01 0.01 0.0 0.0 0.0 0.01 0.0 0.0 0.0 0.01 0.01 0.0 0.0 0.0 0.01 0.0 0.0 0.0 0.01 0.01 0.0 0.0 0.0 0.01 0.0 0.0 0.0 0.01 0.01 0.0 0.0 0.0 0.01 0.0 0.0 0.0 0.01 0.01 0.0 0.0 0.0 0.01 0.0 0.0 0.0 0.01 0.01 0.0 0.0 0.0 0.01 0.0 0.0 0.0 0.01 0.01 0.0 0.0 0.0 0.01 0.0 0.0 0.0 0.01 0.01 0.0 0.0 0.0 0.01 0.0 0.0 0.0 0.01 0.01 0.0 0.0 0.0 0.01 0.0 0.0 0.0 0.01 0.01 0.0 0.0 0.0 0.01 0.0 0.0 0.0 0.01 0.01 0.0 0.0 0.0 0.01 0.0 0.0 0.0 0.01 0.01 0.0 0.0 0.0 0.01 0.0 0.0 0.0 0.01 0.01 0.0 0.0 0.0 0.01 0.0 0.0 0.0 0.01 0.01 0.0 0.0 0.0 0.01 0.0 0.0 0.0 0.01 0.01 0.0 0.0 0.0 0.01 0.0 0.0 0.0 0.01 0.01 0.0 0.0 0.0 0.01 0.0 0.0 0.0 0.01 0.01 0.0 0.0 0.0 0.01 0.0 0.0 0.0 0.01 0.01 0.0 0.0 0.0 0.01 0.0 0.0 0.0 0.01 0.01 0.0 0.0 0.0 0.01 0.0 0.0 0.0 0.01 0.01 0.0 0.0 0.0 0.01 0.0 0.0 0.0 0.01 0.01 0.0 0.0 0.0 0.01 0.0 0.0 0.0 0.01 0.01 0.0 0.0 0.0 0.01 0.0 0.0 0.0 0.01 0.01 0.0 0.0 0.0 0.01 0.0 0.0 0.0 0.01 0.01 0.0 0.0 0.0 0.01 0.0 0.0 0.0 0.01 0.01 0.0 0.0 0.0 0.01 0.0 0.0 0.0 0.01 0.01 0.0 0.0 0.0 0.01 0.0 0.0 0.0 0.01 0.01 0.0 0.0 0.0 0.01 0.0 0.0 0.0 0.01 0.01 0.0 0.0 0.0 0.01 0.0 0.0 0.0 0.01 0.01 0.0 0.0 0.0 0.01 0.0 0.0 0.0 0.01 0.01 0.0 0.0 0.0 0.01 0.0 0.0 0.0 0.01 0.01 0.0 0.0 0.0 0.01 0.0 0.0 0.0 0.01 0.01 0.0 0.0 0.0 0.01 0.0 0.0 0.0 0.01 0.01 0.0 0.0 0.0 0.01 0.0 0.0 0.0 0.01 0.01 0.0 0.0 0.0 0.01 0.0 0.0 0.0 0.01 0.01 0.0 0.0 0.0 0.01 0.0 0.0 0.0 0.01 0.009999985000033752 0.0 2.1452353512800406e-16 0.0 0.01 0.0 2.1452353512800406e-16 0.0 0.009999999000000152 0.00999998000006 0.0 1.1188536434281218e-17 0.0 0.01 0.0 1.1188536434281218e-17 0.0 0.01 0.00999997700007935 0.0 -4.0170942909890004e-17 0.0 0.01 0.0 -4.0170942909890004e-17 0.0 0.01 0.009999973500105336 0.0 -4.1939129295769874e-17 0.0 0.01 0.0 -4.1939129295769874e-17 0.0 0.01 0.009999972500113436 0.0 6.374137184992485e-17 0.0 0.01 0.0 6.374137184992485e-17 0.0 0.010000000500000038 0.0099999860000294 0.0 4.518010068426787e-16 0.0 0.01 0.0 4.518010068426787e-16 0.0 0.00999999750000094 0.009999979500063037 0.0 8.714224743734242e-17 0.0 0.01 0.0 8.714224743734242e-17 0.0 0.009999998500000338 0.009999974500097536 0.0 -1.3392300270674177e-16 0.0 0.01 0.0 -1.3392300270674177e-16 0.0 0.009999999500000037 0.009999970500130536 0.0 -1.8097759916815532e-16 0.0 0.01 0.0 -1.8097759916815532e-16 0.0 0.01 0.009999967500158436 0.0 -2.31539128620044e-17 0.0 0.01 0.0 -2.31539128620044e-17 0.0 0.010000000500000038 0.00999996500018375 0.0 -1.3228208036193044e-16 0.0 0.01 0.0 -1.3228208036193044e-16 0.0 0.01000000100000015 0.009999980500057041 0.0 4.093962975497284e-16 0.0 0.01 0.0 4.093962975497284e-16 0.0 0.00999999650000184 0.009999974000101402 0.0 3.3832550366314517e-16 0.0 0.01 0.0 3.3832550366314517e-16 0.0 0.00999999750000094 0.009999968000153599 0.0 -2.069473361212944e-16 0.0 0.01 0.0 -2.069473361212944e-16 0.0 0.009999999500000037 0.009999963000205348 0.0 -1.94331191461319e-16 0.0 0.01 0.0 -1.94331191461319e-16 0.0 0.01 0.009999958500258335 0.0 -1.8472661279136692e-16 0.0 0.01 0.0 -1.8472661279136692e-16 0.0 0.01000000100000015 0.009999956000290399 0.0 -1.1138429908414419e-16 0.0 0.01 0.0 -1.1138429908414419e-16 0.0 0.010000001450000314 0.009999975500090038 0.0 1.9104060829937562e-13 0.0 0.01 0.0 1.9104060829937562e-13 0.0 0.009999996000002403 0.009999967500158437 0.0 5.089210281869266e-14 0.0 0.01 0.0 5.0892102815383935e-14 0.0 0.00999999750000094 0.009999960000240001 0.0 4.975379501349277e-16 0.0 0.01 0.0 4.975379501349277e-16 0.0 0.009999999000000152 0.009999953000331347 0.0 -9.953707326659469e-18 0.0 0.01 0.0 -9.953707326659469e-18 0.0 0.01 0.009999948000405597 0.0 -5.596656063406335e-17 0.0 0.01 0.0 -5.596656063406335e-17 0.0 0.010000001450000314 0.009999945000453746 0.0 1.370653045828856e-16 0.0 0.01 0.0 1.370653045828856e-16 0.0 0.0100000024500009 0.009999968500148837 0.0 2.1577412745416675e-11 0.0 0.01 0.0 2.1577412745416675e-11 0.0 0.009999994500004536 0.009999958000264597 0.0 1.2208216178716979e-11 0.0 0.01 0.0 1.2208216179140495e-11 0.0 0.009999996500001836 0.009999948500397838 0.0 4.2983463505283205e-12 0.0 0.01 0.0 4.2983463505283205e-12 0.0 0.009999999000000152 0.009999941000522145 0.0 4.749671621630502e-13 0.0 0.01 0.0 4.749671621630502e-13 0.0 0.010000000500000038 0.009999936000614395 0.0 7.346777170992992e-16 0.0 0.01 0.0 7.346777170992992e-16 0.0 0.010000002450000902 0.00999993200069359 0.0 3.5324398674142176e-16 0.0 0.01 0.0 3.5324398674142176e-16 0.0 0.0100000024500009 0.009999958500258343 0.0 2.051197131323402e-10 0.0 0.01 0.0 2.0511971313911647e-10 0.0 0.009999993500006344 0.009999946000437401 0.0 1.313329675521331e-10 0.0 0.01 0.0 1.313329675521331e-10 0.0 0.009999995500003042 0.009999933500663331 0.0 6.161613151531254e-11 0.0 0.01 0.0 6.161613151700661e-11 0.0 0.009999998500000338 0.009999924500855024 0.0 1.7414102397666457e-11 0.0 0.01 0.0 1.7414102398089973e-11 0.0 0.01000000100000015 0.009999919500972024 0.0 2.0118112467473756e-12 0.0 0.01 0.0 2.0118112467473756e-12 0.0 0.0100000024500009 0.009999914001109386 0.0 7.702596065044012e-16 0.0 0.01 0.0 7.702596065044012e-16 0.0 0.010000003400001733 0.009999943000487475 0.0 9.311546514585451e-10 0.0 0.01 0.0 9.3115465143144e-10 0.0 0.009999991500010968 0.009999926500810392 0.0 6.448074074059647e-10 0.0 0.01 0.0 6.448074073924122e-10 0.0 0.009999995000003814 0.009999913501122339 0.0 3.2976789207043566e-10 0.0 0.01 0.0 3.297678920636594e-10 0.0 0.009999998500000355 0.00999990450136802 0.0 1.175477316971553e-10 0.0 0.01 0.0 1.1754773169884937e-10 0.0 0.01000000145000032 0.009999897001591325 0.0 2.4403273415571776e-11 0.0 0.01 0.0 2.4403273415571776e-11 0.0 0.010000003400001735 0.009999892501733406 0.0 1.8116634185496693e-12 0.0 0.01 0.0 1.8116634185496693e-12 0.0 0.010000004900003601 0.009999916501047125 0.0 2.9458100140526515e-09 0.0 0.01 0.0 2.9458100140526515e-09 0.0 0.009999989500017839 0.009999899001530787 0.0 2.095027474798613e-09 0.0 0.01 0.0 2.095027474798613e-09 0.0 0.00999999400000606 0.009999885501966685 0.0 1.1109867521937565e-09 0.0 0.01 0.0 1.110986752180204e-09 0.0 0.009999999000000336 0.009999875502325017 0.0 4.3081687283781254e-10 0.0 0.01 0.0 4.3081687283781254e-10 0.0 0.01000000245000093 0.009999868502593785 0.0 1.1071969743827966e-10 0.0 0.01 0.0 1.107196974416678e-10 0.0 0.010000004900003606 0.009999864002774339 0.0 1.4767746805330917e-11 0.0 0.01 0.0 1.476774680511916e-11 0.0 0.010000006350006047 0.009999875502333087 0.0 7.347038069398758e-09 0.0 0.01 0.0 7.347038069398758e-09 0.0 0.009999988000029696 0.009999858003028562 0.0 5.187247065154173e-09 0.0 0.01 0.0 5.187247065208383e-09 0.0 0.009999993000011384 0.0099998450036048 0.0 2.7594730424025226e-09 0.0 0.01 0.0 2.7594730424296277e-09 0.0 0.010000000000001143 0.009999837503961011 0.0 1.1006345310789114e-09 0.0 0.01 0.0 1.100634531092464e-09 0.0 0.010000004900003783 0.009999831004284044 0.0 3.100966051491482e-10 0.0 0.01 0.0 3.100966051525363e-10 0.0 0.010000008300010348 0.009999827504463309 0.0 5.2420657816369074e-11 0.0 0.01 0.0 5.2420657816369074e-11 0.0 0.010000008800011619 0.009999818504974367 0.0 1.4873006618713706e-08 0.0 0.01 0.0 1.4873006618713706e-08 0.0 0.00999998500006693 0.009999802005896207 0.0 1.0263510897830057e-08 0.0 0.01 0.0 1.0263510897830057e-08 0.0 0.009999993000023152 0.009999794006369508 0.0 5.371127700969699e-09 0.0 0.01 0.0 5.371127700969699e-09 0.0 0.010000001450004641 0.009999788506710286 0.0 2.1422664147312124e-09 0.0 0.01 0.0 2.14226641471766e-09 0.0 0.010000008800012302 0.009999784506965845 0.0 6.24700153026525e-10 0.0 0.01 0.0 6.247001530231369e-10 0.0 0.010000011700020591 0.009999783007063097 0.0 1.1714976996444836e-10 0.0 0.01 0.0 1.1714976996444836e-10 0.0 0.010000012700024194 0.009999745509802243 0.0 2.4099592701217615e-08 0.0 0.01 0.0 2.4099592701217615e-08 0.0 0.009999980000147122 0.009999732010812949 0.0 1.6295630029822955e-08 0.0 0.01 0.0 1.6295630030039795e-08 0.0 0.00999999350004617 0.00999972851106678 0.0 8.342813312964877e-09 0.0 0.01 0.0 8.342813313019087e-09 0.0 0.01000000685001748 0.00999972801109871 0.0 3.279625516487369e-09 0.0 0.01 0.0 3.279625516487369e-09 0.0 0.010000015600038116 0.009999726511219966 0.0 9.59279373688763e-10 0.0 0.01 0.0 9.592793736955393e-10 0.0 0.01000002000006014 0.009999727011178848 0.0 1.8626779361805853e-10 0.0 0.01 0.0 1.8626779361805853e-10 0.0 0.010000019550057335 0.009999668016679756 0.0 3.131228400480787e-08 0.0 0.01 0.0 3.131228400480787e-08 0.0 0.009999984000185477 0.009999656017813814 0.0 2.0725002541823606e-08 0.0 0.01 0.0 2.0725002541715186e-08 0.0 0.009999999500064471 0.009999655517817162 0.0 1.0374983932571764e-08 0.0 0.01 0.0 1.0374983932571764e-08 0.0 0.010000016100055029 0.009999655017855106 0.0 3.983904930043381e-09 0.0 0.01 0.0 3.983904930043381e-09 0.0 0.010000026850110522 0.009999656017749579 0.0 1.1432920301465374e-09 0.0 0.01 0.0 1.1432920301465374e-09 0.0 0.01000003075014203 0.009999657017646347 0.0 2.188672937031199e-10 0.0 0.01 0.0 2.188672937031199e-10 0.0 0.010000027850116352 0.009999584026117019 0.0 3.270290481656186e-08 0.0 0.01 0.0 3.270290481667028e-08 0.0 0.01000001365018838 0.009999569027929422 0.0 2.1177714212762978e-08 0.0 0.01 0.0 2.1177714212762978e-08 0.0 0.010000018050116148 0.009999567028137306 0.0 1.0322468988870634e-08 0.0 0.01 0.0 1.0322468988870634e-08 0.0 0.010000035150201314 0.009999567528058613 0.0 3.8302449128515235e-09 0.0 0.01 0.0 3.8302449128515235e-09 0.0 0.010000044900304603 0.00999957002773318 0.0 1.0542105916385358e-09 0.0 0.01 0.0 1.054210591641924e-09 0.0 0.010000046400323115 0.009999572027475647 0.0 1.8915255322267985e-10 0.0 0.01 0.0 1.8915255322267985e-10 0.0 0.010000042000264608 0.009999486039734506 0.0 2.6895237290741614e-08 0.0 0.01 0.0 2.6895237290687404e-08 0.0 0.010000066400769864 0.009999467542574048 0.0 1.720181749028781e-08 0.0 0.01 0.0 1.720181749034202e-08 0.0 0.010000057150534312 0.009999462543341978 0.0 8.133504488514777e-09 0.0 0.01 0.0 8.133504488541882e-09 0.0 0.010000064950642708 0.009999462043413947 0.0 2.872649708080368e-09 0.0 0.01 0.0 2.872649708080368e-09 0.0 0.010000069800732054 0.009999463543171062 0.0 7.342600348605164e-10 0.0 0.01 0.0 7.342600348605164e-10 0.0 0.010000067400681505 0.009999468542370087 0.0 1.1473362512914398e-10 0.0 0.01 0.0 1.147336251295675e-10 0.0 0.010000059100523932 0.009999357561959764 0.0 1.7408475325338124e-08 0.0 0.01 0.0 1.7408475325338124e-08 0.0 0.010000126002426914 0.009999339565449841 0.0 1.0955890189290112e-08 0.0 0.01 0.0 1.0955890189263007e-08 0.0 0.010000105951701848 0.009999333566629626 0.0 4.960149970945527e-09 0.0 0.01 0.0 4.960149970945527e-09 0.0 0.010000102551581194 0.009999333566626328 0.0 1.6218638348902193e-09 0.0 0.01 0.0 1.6218638348936075e-09 0.0 0.010000102051562551 0.009999337065928085 0.0 3.6322882290356723e-10 0.0 0.01 0.0 3.632288229027202e-10 0.0 0.010000094251332501 0.009999343564641765 0.0 4.293169483614522e-11 0.0 0.01 0.0 4.293169483603934e-11 0.0 0.010000081050985378 0.009999195097202042 0.0 8.692494770244012e-09 0.0 0.01 0.0 8.69249477023046e-09 0.0 0.010000181654960992 0.00999918010085038 0.0 5.26806881088706e-09 0.0 0.01 0.0 5.268068810880284e-09 0.0 0.010000157253713395 0.009999174102328045 0.0 2.2052712715290267e-09 0.0 0.01 0.0 2.2052712715290267e-09 0.0 0.010000146003198212 0.009999176101832472 0.0 6.316174206952871e-10 0.0 0.01 0.0 6.316174206952871e-10 0.0 0.010000138652883699 0.00999918160047763 0.0 1.094463064524649e-10 0.0 0.01 0.0 1.094463064524649e-10 0.0 0.01000012355228974 0.009999191598037629 0.0 6.822576031158985e-12 0.0 0.01 0.0 6.822576031158985e-12 0.0 0.010000105451667986 0.009998991152687861 0.0 3.040919592980348e-09 0.0 0.01 0.0 3.040919592980348e-09 0.0 0.010000236808412855 0.009998982655270031 0.0 1.6843682899456928e-09 0.0 0.01 0.0 1.6843682899456928e-09 0.0 0.010000209006552803 0.009998980655880606 0.0 6.103404191375972e-10 0.0 0.01 0.0 6.103404191384442e-10 0.0 0.010000193355607869 0.009998984654659865 0.0 1.3247945070536562e-10 0.0 0.01 0.0 1.3247945070536562e-10 0.0 0.01000018115492245 0.009998993152081827 0.0 1.2102965068960252e-11 0.0 0.01 0.0 1.2102965068960252e-11 0.0 0.01000016065387137 0.009999008647436473 0.0 -4.788683278325893e-15 0.0 0.01 0.0 -4.788683278325893e-15 0.0 0.010000135252743948 0.00999874723545222 0.0 5.235154975485292e-10 0.0 0.01 0.0 5.235154975481056e-10 0.0 0.010000295913134208 0.009998744736392583 0.0 2.445076603864827e-10 0.0 0.01 0.0 2.445076603860592e-10 0.0 0.010000263660427167 0.009998746235828112 0.0 6.156105513127003e-11 0.0 0.01 0.0 6.156105513132297e-11 0.0 0.01000024465897841 0.009998754732642248 0.0 4.549255115620866e-12 0.0 0.01 0.0 4.5492551156274834e-12 0.0 0.01000022705773305 0.009998769227257526 0.0 -1.3692011540419826e-13 0.0 0.01 0.0 -1.3692011540419826e-13 0.0 0.010000201656099614 0.009998789719752202 0.0 -2.9255523318582194e-15 0.0 0.01 0.0 -2.9255523318582194e-15 0.0 0.01000017140440682 0.009998457357035534 0.0 5.356046479682322e-12 0.0 0.01 0.0 5.356046479682322e-12 0.0 0.0100003647699576 0.009998457856804211 0.0 -1.8045840272014655e-12 0.0 0.01 0.0 -1.80458402720312e-12 0.0 0.010000329116246914 0.009998465353343354 0.0 -2.011306005538949e-12 0.0 0.01 0.0 -2.0113060055406035e-12 0.0 0.010000305213972766 0.00999847684806946 0.0 -7.608334118798149e-13 0.0 0.01 0.0 -7.608334118806421e-13 0.0 0.010000283212030905 0.009998497838541166 0.0 -1.594050319436101e-13 0.0 0.01 0.0 -1.594050319436101e-13 0.0 0.010000249509337929 0.009998525826042413 0.0 8.003195927350198e-17 0.0 0.01 0.0 8.003195927350198e-17 0.0 0.010000209456580625 0.009998106537915604 0.0 -4.319993099451544e-12 0.0 0.01 0.0 -4.319993099451544e-12 0.0 0.010000451180532745 0.009998110535646275 0.0 -4.658208335435451e-12 0.0 0.01 0.0 -4.658208335435451e-12 0.0 0.010000408224995786 0.00999812052999394 0.0 -2.719358909662432e-12 0.0 0.01 0.0 -2.719358909662432e-12 0.0 0.010000376471258525 0.009998141518221591 0.0 -9.877721003979041e-13 0.0 0.01 0.0 -9.877721003979041e-13 0.0 0.010000346718031171 0.009998171501633237 0.0 -1.9116837408057073e-13 0.0 0.01 0.0 -1.9116837408057073e-13 0.0 0.01000030471392702 0.009998211479935052 0.0 6.272331750778763e-16 0.0 0.01 0.0 6.272331750778763e-16 0.0 0.010000254909746516 0.009997675310878262 0.0 -5.789250267053613e-12 0.0 0.01 0.0 -5.789250267050304e-12 0.0 0.01000056254746539 0.009997685303920796 0.0 -6.35224055610622e-12 0.0 0.01 0.0 -6.352240556109529e-12 0.0 0.010000504438166111 0.009997704290784169 0.0 -3.647938183945653e-12 0.0 0.01 0.0 -3.647938183945653e-12 0.0 0.010000459981735535 0.009997737268225032 0.0 -1.2840697411068969e-12 0.0 0.01 0.0 -1.284069741107724e-12 0.0 0.010000420426512287 0.009997781738321101 0.0 -2.3377793772891805e-13 0.0 0.01 0.0 -2.3377793772891805e-13 0.0 0.010000366720171567 0.009997838201208215 0.0 4.909841542776716e-16 0.0 0.01 0.0 4.909841542776716e-16 0.0 0.010000302263703948 0.009997145722500248 0.0 -7.331012131627032e-12 0.0 0.01 0.0 -7.331012131627032e-12 0.0 0.010000696872837996 0.009997167204164645 0.0 -8.473254468563956e-12 0.0 0.01 0.0 -8.473254468570574e-12 0.0 0.010000615306785705 0.009997203173773245 0.0 -4.8709388572849885e-12 0.0 0.01 0.0 -4.87093885728168e-12 0.0 0.010000553245908771 0.009997254131383377 0.0 -1.6919021919359864e-12 0.0 0.01 0.0 -1.6919021919359864e-12 0.0 0.010000501487720968 0.009997322575674152 0.0 -3.0507143235932014e-13 0.0 0.01 0.0 -3.0507143235932014e-13 0.0 0.010000434128268468 0.009997398015900627 0.0 -4.163549818039131e-15 0.0 0.01 0.0 -4.163549818039131e-15 0.0 0.010000356969113132 0.0099965033348555 0.0 -8.5335323797225e-12 0.0 0.01 0.0 -8.5335323797225e-12 0.0 0.010000860461046245 0.009996546290041156 0.0 -1.1115024989420283e-11 0.0 0.01 0.0 -1.1115024989420283e-11 0.0 0.010000741282416799 0.009996606727926063 0.0 -6.553635345068219e-12 0.0 0.01 0.0 -6.553635345071528e-12 0.0 0.010000651913743193 0.009996685148964402 0.0 -2.3254044673254998e-12 0.0 0.01 0.0 -2.3254044673246726e-12 0.0 0.010000587451760882 0.009996781554425816 0.0 -4.544649678477688e-13 0.0 0.01 0.0 -4.544649678477688e-13 0.0 0.010000507338606262 0.009996886954261675 0.0 -2.6450168715588044e-14 0.0 0.01 0.0 -2.6450168715588044e-14 0.0 0.010000414575779538 0.009995743219570441 0.0 -8.909371048848482e-12 0.0 0.01 0.0 -8.909371048851791e-12 0.0 0.01000104606411463 0.009995816127184285 0.0 -1.459025366192167e-11 0.0 0.01 0.0 -1.459025366192167e-11 0.0 0.01000087021357757 0.009995910010571077 0.0 -9.134437548173258e-12 0.0 0.01 0.0 -9.134437548176567e-12 0.0 0.010000751084610739 0.009996027368524655 0.0 -3.4665708448860123e-12 0.0 0.01 0.0 -3.466570844884358e-12 0.0 0.010000677318807905 0.00999616121157642 0.0 -8.067640975873965e-13 0.0 0.01 0.0 -8.067640975873965e-13 0.0 0.010000585501417771 0.009996304050017146 0.0 -1.0107943788241744e-13 0.0 0.01 0.0 -1.0107943788241744e-13 0.0 0.010000480484627604 0.009994868452621068 0.0 -8.134956474984524e-12 0.0 0.01 0.0 -8.134956474987832e-12 0.0 0.010001248283692931 0.009994984276148108 0.0 -1.981118364642973e-11 0.0 0.01 0.0 -1.9811183646436348e-11 0.0 0.010000989896965002 0.009995125566333292 0.0 -1.3574835814266375e-11 0.0 0.01 0.0 -1.3574835814266375e-11 0.0 0.010000841406182742 0.009995290828534256 0.0 -5.69447983138162e-12 0.0 0.01 0.0 -5.69447983138162e-12 0.0 0.010000772039397525 0.009995472576491618 0.0 -1.6429827592946585e-12 0.0 0.01 0.0 -1.6429827592946585e-12 0.0 0.010000674868310942 0.009995657829804572 0.0 -3.7021402896378265e-13 0.0 0.01 0.0 -3.7021402896398944e-13 0.0 0.010000558646809451 0.009993921546634399 0.0 -6.742000720363612e-12 0.0 0.01 0.0 -6.742000720365266e-12 0.0 0.010001445113192472 0.009994090742029463 0.0 -2.923446974011533e-11 0.0 0.01 0.0 -2.923446974011533e-11 0.0 0.010001082675802657 0.009994288896234143 0.0 -2.2180841775549015e-11 0.0 0.01 0.0 -2.2180841775549015e-11 0.0 0.010000924928308036 0.009994510523463609 0.0 -1.0304785649692852e-11 0.0 0.01 0.0 -1.0304785649689543e-11 0.0 0.010000879015886761 0.009994745644141503 0.0 -3.5220994520443896e-12 0.0 0.01 0.0 -3.522099452046044e-12 0.0 0.010000785242481177 0.009994978285177272 0.0 -1.1206372782114629e-12 0.0 0.01 0.0 -1.1206372782114629e-12 0.0 0.010000662165763721 0.009992982393937191 0.0 -7.634311192968019e-12 0.0 0.01 0.0 -7.63431119296471e-12 0.0 0.010001615141217923 0.00999321141898715 0.0 -4.881775130428841e-11 0.0 0.01 0.0 -4.881775130428841e-11 0.0 0.010001139344686372 0.009993472397007439 0.0 -4.0408592659897274e-11 0.0 0.01 0.0 -4.0408592659897274e-11 0.0 0.0100010157547427 0.009993751860768844 0.0 -2.0321291283403338e-11 0.0 0.01 0.0 -2.0321291283403338e-11 0.0 0.01000102700819021 0.009994040830989852 0.0 -7.601641855032471e-12 0.0 0.01 0.0 -7.601641855032471e-12 0.0 0.010000944933918142 0.009994318844998174 0.0 -2.72745258287401e-12 0.0 0.01 0.0 -2.7274525828748373e-12 0.0 0.010000815999867501 0.009992190657409248 0.0 -1.7240021592212996e-11 0.0 0.01 0.0 -1.7240021592216304e-11 0.0 0.010001732400077542 0.009992474004624526 0.0 -9.11498430803823e-11 0.0 0.01 0.0 -9.114984308039553e-11 0.0 0.01000116525364077 0.009992788308781685 0.0 -8.064888285549872e-11 0.0 0.01 0.0 -8.064888285551195e-11 0.0 0.010001152549224844 0.0099931196074901 0.0 -4.2670419058674696e-11 0.0 0.01 0.0 -4.267041905868131e-11 0.0 0.010001262439022607 0.009993451937188829 0.0 -1.6203453340381412e-11 0.0 0.01 0.0 -1.6203453340381412e-11 0.0 0.010001200916295359 0.00999376633363786 0.0 -5.443679066642679e-12 0.0 0.01 0.0 -5.443679066644333e-12 0.0 0.010001059718426675 0.009991735257198342 0.0 -4.505914744984145e-11 0.0 0.01 0.0 -4.5059147449848065e-11 0.0 0.010001803687876164 0.009992052484500162 0.0 -1.7891301135335819e-10 0.0 0.01 0.0 -1.7891301135330525e-10 0.0 0.010001214571241673 0.009992398176951254 0.0 -1.6688264564909012e-10 0.0 0.01 0.0 -1.6688264564909012e-10 0.0 0.010001401644636095 0.009992753883546772 0.0 -9.123987869120472e-11 0.0 0.01 0.0 -9.123987869121795e-11 0.0 0.010001650808685444 0.009993106135363765 0.0 -3.378200939065939e-11 0.0 0.01 0.0 -3.378200939065277e-11 0.0 0.010001613690515537 0.009993435968637228 0.0 -8.955658249009232e-12 0.0 0.01 0.0 -8.955658249005923e-12 0.0 0.01000144856469017 0.009991860947420815 0.0 -1.0154436427323906e-10 0.0 0.01 0.0 -1.0154436427322583e-10 0.0 0.01000190629495556 0.009992169706635608 0.0 -3.4631911002604716e-10 0.0 0.01 0.0 -3.463191100259942e-10 0.0 0.010001408997735278 0.009992503438199645 0.0 -3.368797648432454e-10 0.0 0.01 0.0 -3.3687976484319247e-10 0.0 0.01000185356522829 0.009992841194618313 0.0 -1.883443310575122e-10 0.0 0.01 0.0 -1.883443310575122e-10 0.0 0.010002260065953908 0.009993171500634022 0.0 -6.770019859698065e-11 0.0 0.01 0.0 -6.770019859698065e-11 0.0 0.010002253211315464 0.009993483874521678 0.0 -1.2637599677460907e-11 0.0 0.01 0.0 -1.2637599677460907e-11 0.0 0.010002044076566581 0.009992826725768253 0.0 -1.916700319445506e-10 0.0 0.01 0.0 -1.916700319445506e-10 0.0 0.010002244905714053 0.009993073203728829 0.0 -6.239441333239138e-10 0.0 0.01 0.0 -6.239441333240197e-10 0.0 0.01000196492899026 0.009993334170920293 0.0 -6.272810622627547e-10 0.0 0.01 0.0 -6.272810622626489e-10 0.0 0.010002607969871444 0.00999359565759803 0.0 -3.579049507657419e-10 0.0 0.01 0.0 -3.579049507657419e-10 0.0 0.010003148936746175 0.009993852673093892 0.0 -1.267930293442937e-10 0.0 0.01 0.0 -1.2679302934426724e-10 0.0 0.010003157745073602 0.009994104218138363 0.0 -1.636684013298955e-11 0.0 0.01 0.0 -1.636684013299286e-11 0.0 0.010002891403548894 0.009994837500463767 0.0 -2.9886800627994777e-10 0.0 0.01 0.0 -2.9886800627994777e-10 0.0 0.010003233517669597 0.00999496580402277 0.0 -9.841648577246373e-10 0.0 0.01 0.0 -9.84164857724849e-10 0.0 0.010003255989530235 0.00999509710811108 0.0 -1.0207079914595976e-09 0.0 0.01 0.0 -1.0207079914598094e-09 0.0 0.010003849371509083 0.009995226919520778 0.0 -5.973207177168091e-10 0.0 0.01 0.0 -5.97320717716915e-10 0.0 0.010004332413846025 0.009995357734596257 0.0 -2.1492363448653723e-10 0.0 0.01 0.0 -2.149236344864843e-10 0.0 0.010004339723346087 0.009995500039270461 0.0 -2.270508593534207e-11 0.0 0.01 0.0 -2.2705085935345378e-11 0.0 0.010004001901000557 0.00999795063015972 0.0 -3.6289707721669965e-10 0.0 0.01 0.0 -3.6289707721680553e-10 0.0 0.010005300110700279 0.00999791665123246 0.0 -1.2853335704963221e-09 0.0 0.01 0.0 -1.2853335704963221e-09 0.0 0.01000569335846153 0.00999787817551227 0.0 -1.3932238913194094e-09 0.0 0.01 0.0 -1.3932238913196211e-09 0.0 0.010005926163753428 0.009997835702830256 0.0 -8.454738455219998e-10 0.0 0.01 0.0 -8.454738455219998e-10 0.0 0.010005918800686436 0.009997804723097768 0.0 -3.1729180652043233e-10 0.0 0.01 0.0 -3.172918065203794e-10 0.0 0.010005772594582837 0.009997799226723697 0.0 -3.609923248586385e-11 0.0 0.01 0.0 -3.609923248585723e-11 0.0 0.010005336769127796 0.010001964928990211 0.0 -2.9501548898316554e-10 0.0 0.01 0.0 -2.950154889832714e-10 0.0 0.010008015978094567 0.010001755812323567 0.0 -1.3251227707258264e-09 0.0 0.01 0.0 -1.3251227707256146e-09 0.0 0.010008981836532743 0.010001534553156112 0.0 -1.552349099332356e-09 0.0 0.01 0.0 -1.5523490993319326e-09 0.0 0.010008809978698251 0.010001314209026559 0.0 -9.86044093673222e-10 0.0 0.01 0.0 -9.860440936734337e-10 0.0 0.010007913684057136 0.010001112485616128 0.0 -3.926114411257731e-10 0.0 0.01 0.0 -3.926114411257731e-10 0.0 0.010007392940261036 0.010000951285724466 0.0 -5.629476219017504e-11 0.0 0.01 0.0 -5.629476219017504e-11 0.0 0.01000679987947116 0.010006365422636544 0.0 -1.5549029316760016e-10 0.0 0.01 0.0 -1.554902931676531e-10 0.0 0.010010152640513048 0.01000601321947608 0.0 -1.0305617108496106e-09 0.0 0.01 0.0 -1.0305617108496106e-09 0.0 0.010011785953610278 0.01000563806458421 0.0 -1.362765801806925e-09 0.0 0.01 0.0 -1.3627658018073484e-09 0.0 0.010011510091878704 0.010005270263425833 0.0 -9.160339683952922e-10 0.0 0.01 0.0 -9.160339683957158e-10 0.0 0.010009914625501964 0.0100049274896318 0.0 -3.906670166020076e-10 0.0 0.01 0.0 -3.9066701660179586e-10 0.0 0.01000899893255967 0.010004631165168218 0.0 -7.168004843128539e-11 0.0 0.01 0.0 -7.168004843125892e-11 0.0 0.010008237216593892 0.010010368152525645 0.0 -2.3784702401230483e-10 0.0 0.01 0.0 -2.3784702401315186e-10 0.0 0.010011148014062088 0.010009955296480827 0.0 -6.975599945966604e-10 0.0 0.01 0.0 -6.975599945962369e-10 0.0 0.010013320518238736 0.01000950473384218 0.0 -9.480067742716903e-10 0.0 0.01 0.0 -9.480067742708433e-10 0.0 0.010013386682592168 0.010009059145364757 0.0 -6.683971942973679e-10 0.0 0.01 0.0 -6.683971942973679e-10 0.0 0.010011514958648509 0.010008636675955074 0.0 -3.0334903048746355e-10 0.0 0.01 0.0 -3.033490304876753e-10 0.0 0.01001037502386138 0.010008248494436468 0.0 -6.850090267823236e-11 0.0 0.01 0.0 -6.850090267823236e-11 0.0 0.010009494454603035 0.010013195522394816 0.0 -2.730284857765857e-10 0.0 0.01 0.0 -2.7302848577679747e-10 0.0 0.010011197981173253 0.010012816095812706 0.0 -5.752260836658542e-10 0.0 0.01 0.0 -5.752260836667012e-10 0.0 0.010013596027615325 0.01001239164493308 0.0 -5.891357754465065e-10 0.0 0.01 0.0 -5.8913577544693e-10 0.0 0.010014207470578584 0.01001195204360561 0.0 -3.9822826922598903e-10 0.0 0.01 0.0 -3.98228269225142e-10 0.0 0.010012512194134585 0.010011516463836486 0.0 -1.8483290222015873e-10 0.0 0.01 0.0 -1.848329022218528e-10 0.0 0.010011366048734316 0.010011089720044669 0.0 -4.8287085251891166e-11 0.0 0.01 0.0 -4.8287085251997045e-11 0.0 0.010010456828952522 0.010014455132328315 0.0 -7.1906018716363e-11 0.0 0.01 0.0 -7.190601871633653e-11 0.0 0.010010901600858463 0.010014166747747398 0.0 -3.0924082916974045e-10 0.0 0.01 0.0 -3.092408291688934e-10 0.0 0.010013339142518105 0.010013834807415719 0.0 -3.0244402879466757e-10 0.0 0.01 0.0 -3.024440287955146e-10 0.0 0.010014284950777054 0.010013463641718272 0.0 -1.8942232942167274e-10 0.0 0.01 0.0 -1.8942232942167274e-10 0.0 0.010012934702769025 0.010013065110034232 0.0 -8.496782590244298e-11 0.0 0.01 0.0 -8.49678259023371e-11 0.0 0.010011957914611666 0.010012643086790974 0.0 -2.4787391861737503e-11 0.0 0.01 0.0 -2.4787391861711033e-11 0.0 0.010011094586201658 0.01001431683718795 0.0 8.730824909017995e-11 0.0 0.01 0.0 8.730824909023289e-11 0.0 0.010010678229368214 0.010014130494300921 0.0 -6.572569115535705e-11 0.0 0.01 0.0 -6.572569115525117e-11 0.0 0.010013074446546597 0.010013900530085156 0.0 -8.674395858007946e-11 0.0 0.01 0.0 -8.674395858050297e-11 0.0 0.010014203553934464 0.010013621029409387 0.0 -5.4661931484008765e-11 0.0 0.01 0.0 -5.466193148379701e-11 0.0 0.010013113148174728 0.010013282266001431 0.0 -2.4435156654525417e-11 0.0 0.01 0.0 -2.4435156654578357e-11 0.0 0.010012279882348317 0.010012896003209974 0.0 -8.581153754822547e-12 0.0 0.01 0.0 -8.581153754849017e-12 0.0 0.010011460120093803 0.010013306763446715 0.0 8.767955255600806e-11 0.0 0.01 0.0 8.767955255600806e-11 0.0 0.010010616482555384 0.010013205813040464 0.0 2.4992591654868796e-11 0.0 0.01 0.0 2.4992591654868796e-11 0.0 0.010012952371199393 0.010013064106109727 0.0 1.6919022014766876e-12 0.0 0.01 0.0 1.6919022014733789e-12 0.0 0.01001412949005593 0.010012860215301145 0.0 -2.1545497919122123e-12 0.0 0.01 0.0 -2.1545497919122123e-12 0.0 0.010013169017853532 0.010012586222134362 0.0 -1.7013519799648678e-12 0.0 0.01 0.0 -1.701351979938398e-12 0.0 0.010012411719435442 0.010012244151229331 0.0 -1.4713285658263194e-12 0.0 0.01 0.0 -1.471328565829628e-12 0.0 0.010011616409841509 0.010012000567530032 0.0 2.497731841387053e-11 0.0 0.01 0.0 2.497731841384406e-11 0.0 0.010010700249832128 0.010011956961199718 0.0 1.556698647249594e-11 0.0 0.01 0.0 1.556698647249594e-11 0.0 0.010012972449074713 0.010011872158805626 0.0 6.638966615872646e-12 0.0 0.01 0.0 6.638966615872646e-12 0.0 0.010014100065811831 0.010011721727671022 0.0 1.80048934459176e-12 0.0 0.01 0.0 1.8004893445901057e-12 0.0 0.010013154811907636 0.010011496344545793 0.0 3.118186180423922e-13 0.0 0.01 0.0 3.118186180423922e-13 0.0 0.010012410765893844 0.010011196977810237 0.0 3.658593835835945e-14 0.0 0.01 0.0 3.6585938358566246e-14 0.0 0.010011621276766575 0.010010783015973213 0.0 -8.928337751833873e-12 0.0 0.01 0.0 -8.928337751833873e-12 0.0 0.010010866335962055 0.010010762951265652 0.0 -1.920007557441626e-11 0.0 0.01 0.0 -1.9200075574403026e-11 0.0 0.010013092567486517 0.010010701253045793 0.0 -2.135653121732662e-11 0.0 0.01 0.0 -2.1356531217339856e-11 0.0 0.010014108400980928 0.010010577308281157 0.0 -1.4341228851959412e-11 0.0 0.01 0.0 -1.4341228851959412e-11 0.0 0.010013081273260336 0.010010380892093593 0.0 -6.102509012610657e-12 0.0 0.01 0.0 -6.102509012610657e-12 0.0 0.010012303920774233 0.010010110512725802 0.0 -1.0240807062195519e-12 0.0 0.01 0.0 -1.024080706220379e-12 0.0 0.010011507131681582 0.010009752548300619 0.0 -1.9907895166682702e-11 0.0 0.01 0.0 -1.9907895166656232e-11 0.0 0.01001085800888586 0.010009728528246662 0.0 -6.52166494377468e-11 0.0 0.01 0.0 -6.52166494377468e-11 0.0 0.010013040112403908 0.010009665344796784 0.0 -6.892949915930112e-11 0.0 0.01 0.0 -6.892949915930112e-11 0.0 0.010013968162021113 0.010009543895525694 0.0 -4.334949758613447e-11 0.0 0.01 0.0 -4.334949758613447e-11 0.0 0.010012887671067897 0.010009355412203344 0.0 -1.8068619278045628e-11 0.0 0.01 0.0 -1.8068619278032393e-11 0.0 0.010012082412479958 0.010009100808649404 0.0 -3.795006098410972e-12 0.0 0.01 0.0 -3.795006098407663e-12 0.0 0.010011281763048623 0.010008806519573313 0.0 -4.5499332362581283e-11 0.0 0.01 0.0 -4.5499332362581283e-11 0.0 0.010010638051174128 0.010008760999833397 0.0 -1.3552735998950563e-10 0.0 0.01 0.0 -1.3552735998950563e-10 0.0 0.010012767560029747 0.010008676328753402 0.0 -1.4108195838834915e-10 0.0 0.01 0.0 -1.4108195838834915e-10 0.0 0.01001362494537001 0.010008537270316161 0.0 -8.750213111589656e-11 0.0 0.01 0.0 -8.750213111589656e-11 0.0 0.010012547978311819 0.010008338518048875 0.0 -3.642535266119576e-11 0.0 0.01 0.0 -3.642535266119576e-11 0.0 0.010011740844794005 0.010008081085046448 0.0 -8.26615689503392e-12 0.0 0.01 0.0 -8.26615689503392e-12 0.0 0.010010947149811057 0.010007792799703517 0.0 -9.524736198363069e-11 0.0 0.01 0.0 -9.524736198363069e-11 0.0 0.010010242264134587 0.010007714467778596 0.0 -2.2981824008870722e-10 0.0 0.01 0.0 -2.298182400888131e-10 0.0 0.01001229167570892 0.01000759018289421 0.0 -2.349015467700774e-10 0.0 0.01 0.0 -2.349015467700245e-10 0.0 0.010013084736818978 0.010007418396734009 0.0 -1.4388932238849423e-10 0.0 0.01 0.0 -1.4388932238838835e-10 0.0 0.010012057924019643 0.010007189896765422 0.0 -5.949572949617696e-11 0.0 0.01 0.0 -5.949572949612402e-11 0.0 0.010011277348142814 0.010006911458641816 0.0 -1.3489000744828386e-11 0.0 0.01 0.0 -1.3489000744828386e-11 0.0 0.010010497957959528 0.010006637452522888 0.0 -1.5283388874044375e-10 0.0 0.01 0.0 -1.5283388874044375e-10 0.0 0.010009721206928484 0.010006511704827246 0.0 -3.2945568983457613e-10 0.0 0.01 0.0 -3.2945568983457613e-10 0.0 0.01001164531044908 0.010006339523341831 0.0 -3.330489652026684e-10 0.0 0.01 0.0 -3.3304896520277427e-10 0.0 0.010012367656061023 0.010006116457084128 0.0 -2.0018684363242913e-10 0.0 0.01 0.0 -2.0018684363248207e-10 0.0 0.010011425300838829 0.010005841063721007 0.0 -8.097895515335335e-11 0.0 0.01 0.0 -8.097895515332688e-11 0.0 0.010010693377826655 0.010005529482898207 0.0 -1.731267796548162e-11 0.0 0.01 0.0 -1.731267796548162e-11 0.0 0.010009945015853568 0.010005402825426299 0.0 -1.9853310875965315e-10 0.0 0.01 0.0 -1.9853310875965315e-10 0.0 0.010009099805916835 0.010005221386586566 0.0 -4.148043460642552e-10 0.0 0.01 0.0 -4.148043460643611e-10 0.0 0.010010863376336233 0.010004985175319687 0.0 -4.098961534212066e-10 0.0 0.01 0.0 -4.0989615342110074e-10 0.0 0.01001151350363401 0.01000469225051725 0.0 -2.392224413411084e-10 0.0 0.01 0.0 -2.392224413411084e-10 0.0 0.010010678680811359 0.010004358798212919 0.0 -9.328014124420921e-11 0.0 0.01 0.0 -9.328014124420921e-11 0.0 0.010010014022036466 0.010004005805686944 0.0 -1.8019277797838832e-11 0.0 0.01 0.0 -1.801927779784545e-11 0.0 0.010009305923933867 0.010004242948865394 0.0 -2.2183275569644453e-10 0.0 0.01 0.0 -2.2183275569665629e-10 0.0 0.010008414408437746 0.010003991638705618 0.0 -4.973758085213683e-10 0.0 0.01 0.0 -4.973758085214742e-10 0.0 0.010010008154449445 0.010003677327416475 0.0 -4.50518173581516e-10 0.0 0.01 0.0 -4.5051817358162187e-10 0.0 0.01001059150325956 0.010003307790498165 0.0 -2.475946535941004e-10 0.0 0.01 0.0 -2.475946535941533e-10 0.0 0.010009861718866746 0.01000290701712113 0.0 -9.33403326258303e-11 0.0 0.01 0.0 -9.33403326258303e-11 0.0 0.010009266263652016 0.010002516549634667 0.0 -1.613093860583141e-11 0.0 0.01 0.0 -1.613093860583141e-11 0.0 0.010008605345063391 0.010003309241937841 0.0 -2.0923154518109948e-10 0.0 0.01 0.0 -2.0923154518115242e-10 0.0 0.010007699783879664 0.010002978380084383 0.0 -1.653802340067045e-09 0.0 0.01 0.0 -1.653802340067045e-09 0.0 0.010009125776788167 0.010002578146683769 0.0 -1.5098381078173544e-09 0.0 0.01 0.0 -1.5098381078169309e-09 0.0 0.010009652607960867 0.010002127628828145 0.0 -6.305493868167654e-10 0.0 0.01 0.0 -6.305493868168713e-10 0.0 0.010009021493433459 0.01000166641644904 0.0 -1.2006634533570808e-10 0.0 0.01 0.0 -1.200663453356816e-10 0.0 0.010008487343034014 0.010001242931693487 0.0 -1.2833240203106553e-11 0.0 0.01 0.0 -1.2833240203106553e-11 0.0 0.010007874541504437 0.010002669018168566 0.0 -1.1964680248437773e-10 0.0 0.01 0.0 -1.196468024843248e-10 0.0 0.010006940318522952 0.010002255162639646 0.0 -5.885487550029946e-09 0.0 0.01 0.0 -5.885487550028252e-09 0.0 0.010008234259304452 0.010001772421115489 0.0 -5.9671810600477385e-09 0.0 0.01 0.0 -5.9671810600477385e-09 0.0 0.010008736034430121 0.010001251234800449 0.0 -2.9936386944253676e-09 0.0 0.01 0.0 -2.9936386944253676e-09 0.0 0.010008194611756243 0.010000740782305728 0.0 -7.980944907583183e-10 0.0 0.01 0.0 -7.980944907583183e-10 0.0 0.010007713014420615 0.010000289562576491 0.0 -7.580558850832821e-11 0.0 0.01 0.0 -7.580558850832821e-11 0.0 0.01000715221581789 0.010002287884923307 0.0 9.824862647891345e-10 0.0 0.01 0.0 9.824862647891345e-10 0.0 0.01000611104717393 0.010001796884227143 0.0 -1.2714206282825118e-08 0.0 0.01 0.0 -1.271420628282173e-08 0.0 0.01000733180545462 0.010001243381889954 0.0 -1.3821045348477593e-08 0.0 0.01 0.0 -1.3821045348477593e-08 0.0 0.010007865219558838 0.010000670967531733 0.0 -7.380752263258454e-09 0.0 0.01 0.0 -7.380752263258454e-09 0.0 0.01000741644239977 0.010000130852568977 0.0 -2.1026729635646733e-09 0.0 0.01 0.0 -2.1026729635646733e-09 0.0 0.010006985813426622 0.009999667016632435 0.0 -2.2311468532451552e-10 0.0 0.01 0.0 -2.2311468532451552e-10 0.0 0.010006469673088885 0.010002080248936554 0.0 2.835770985133357e-09 0.0 0.01 0.0 2.835770985136745e-09 0.0 0.010005233104944968 0.010001507190712095 0.0 -1.5712374017182813e-08 0.0 0.01 0.0 -1.5712374017182813e-08 0.0 0.010006453992767993 0.01000089467010118 0.0 -1.8325186070608653e-08 0.0 0.01 0.0 -1.8325186070608653e-08 0.0 0.010007084170767431 0.010000297363274938 0.0 -8.844268826779426e-09 0.0 0.01 0.0 -8.844268826776038e-09 0.0 0.010006729937729861 0.009999760508603848 0.0 -1.0096884305958297e-09 0.0 0.01 0.0 -1.009688430595618e-09 0.0 0.010006344432670585 0.009999308571717686 0.0 8.655738273066241e-10 0.0 0.01 0.0 8.655738273068358e-10 0.0 0.01000586109884815 0.01000203772268073 0.0 -4.361981090920047e-09 0.0 0.01 0.0 -4.361981090916659e-09 0.0 0.010004568578883795 0.010001297102327738 0.0 -1.1930645454323842e-09 0.0 0.01 0.0 -1.1930645454328077e-09 0.0 0.010005740789718968 0.010000610905980234 0.0 -5.086769345393705e-09 0.0 0.01 0.0 -5.086769345393705e-09 0.0 0.010006427591787584 0.010000018050050434 0.0 3.231279093641918e-09 0.0 0.01 0.0 3.231279093641918e-09 0.0 0.010006172710654817 0.009999529533216185 0.0 9.401977499566628e-09 0.0 0.01 0.0 9.401977499566628e-09 0.0 0.010005808256473646 0.009999131613134418 0.0 6.811402065912871e-09 0.0 0.01 0.0 6.811402065911177e-09 0.0 0.010005344631718824 0.010002237551182201 0.0 -5.2369227149348836e-08 0.0 0.01 0.0 -5.2369227149457256e-08 0.0 0.010004291311133801 0.010001145196926986 0.0 3.96530084456609e-08 0.0 0.01 0.0 3.96530084456609e-08 0.0 0.010005290796153983 0.010000334016993373 0.0 4.157276721948545e-08 0.0 0.01 0.0 4.157276721948545e-08 0.0 0.010005950607507221 0.00999975350935575 0.0 4.0164060902009324e-08 0.0 0.01 0.0 4.0164060902009324e-08 0.0 0.010005747150909333 0.00999935656231486 0.0 3.722323927605011e-08 0.0 0.01 0.0 3.722323927605011e-08 0.0 0.010005378836880177 0.00999905413429524 0.0 2.2957099567454424e-08 0.0 0.01 0.0 2.2957099567454424e-08 0.0 0.01000492748971086 0.010002647056084033 0.0 -1.9018825627163845e-07 0.0 0.01 0.0 -1.901882562714216e-07 0.0 0.010004053718982006 0.010001073924030239 0.0 8.402707939815296e-08 0.0 0.01 0.0 8.402707939818006e-08 0.0 0.010004946068177624 0.010000081053168934 0.0 1.2069721428995613e-07 0.0 0.01 0.0 1.2069721428992902e-07 0.0 0.010005572506648021 0.00999949404009387 0.0 1.0623747666993607e-07 0.0 0.01 0.0 1.0623747666990897e-07 0.0 0.010005422859614302 0.009999206595573048 0.0 8.717777338250942e-08 0.0 0.01 0.0 8.717777338250942e-08 0.0 0.010005043864659429 0.009999034640251625 0.0 5.452054501248649e-08 0.0 0.01 0.0 5.452054501248649e-08 0.0 0.01000459937163349 0.010001079775554318 0.0 6.796200571488665e-08 0.0 0.01 0.0 6.796200571488665e-08 0.0 0.010004536786189722 0.009999928006782824 0.0 2.0015641168016213e-07 0.0 0.01 0.0 2.001564116800537e-07 0.0 0.010005173918648027 0.00999930557795265 0.0 1.9348502281797296e-07 0.0 0.01 0.0 1.9348502281808138e-07 0.0 0.010005148979678608 0.009999094126804895 0.0 1.57067924503782e-07 0.0 0.01 0.0 1.570679245037278e-07 0.0 0.010004773419352134 0.009999052136410311 0.0 1.041473482814824e-07 0.0 0.01 0.0 1.041473482815095e-07 0.0 0.010004340225624799 0.01000120921993264 0.0 -6.514717139263337e-08 0.0 0.01 0.0 -6.514717139263337e-08 0.0 0.010004105077001568 0.009999978507781412 0.0 2.2681799544067762e-07 0.0 0.01 0.0 2.2681799544067762e-07 0.0 0.010004744582231464 0.009999294086406634 0.0 2.787815977672338e-07 0.0 0.01 0.0 2.787815977672338e-07 0.0 0.010004873672232146 0.00999906364005105 0.0 2.383578525610129e-07 0.0 0.01 0.0 2.383578525609587e-07 0.0 0.010004544103969499 0.009999104624627763 0.0 1.704934590573818e-07 0.0 0.01 0.0 1.704934590573818e-07 0.0 0.010004123153013364 0.010000292965664619 0.0 1.3644571211893263e-07 0.0 0.01 0.0 1.3644571211893263e-07 0.0 0.010004326058388116 0.009999538047244953 0.0 3.187513140936408e-07 0.0 0.01 0.0 3.187513140936408e-07 0.0 0.010004584215551872 0.00999919811158999 0.0 3.176105373499556e-07 0.0 0.01 0.0 3.176105373499556e-07 0.0 0.010004355408902023 0.009999208103239109 0.0 2.472108537051416e-07 0.0 0.01 0.0 2.472108537050332e-07 0.0 0.01000393788397717 0.010000836056936824 0.0 -1.1836095307966909e-07 0.0 0.01 0.0 -1.1836095307961488e-07 0.0 0.010003922208450665 0.01000008156045512 0.0 2.5116997826480237e-07 0.0 0.01 0.0 2.5116997826480237e-07 0.0 0.010004307991672666 0.009999591544714572 0.0 3.6236926887422104e-07 0.0 0.01 0.0 3.6236926887422104e-07 0.0 0.010004196509802655 0.00999943506347459 0.0 3.2252701734553687e-07 0.0 0.01 0.0 3.2252701734553687e-07 0.0 0.010003802483321757 0.01000080234655442 0.0 2.2417823542866754e-09 0.0 0.01 0.0 2.2417823542875224e-09 0.0 0.010004013164532154 0.010000280275372912 0.0 3.010933147789413e-07 0.0 0.01 0.0 3.010933147789413e-07 0.0 0.010004056180138951 0.009999919021084448 0.0 3.661544287666659e-07 0.0 0.01 0.0 3.6615442876655746e-07 0.0 0.01000372915504348 0.010001114936702957 0.0 4.2293740760865296e-08 0.0 0.01 0.0 4.22937407608924e-08 0.0 0.010003872348369518 0.010000721791888253 0.0 3.028489867005872e-07 0.0 0.01 0.0 3.0284898670080405e-07 0.0 0.01000367243577038 0.010001653733623963 0.0 -3.9590212066575176e-07 0.0 0.01 0.0 -3.959021206655349e-07 0.0 0.010003589355079136 0.010001579974621555 0.0 4.104300421311417e-08 0.0 0.01 0.0 4.1043004213141276e-08 0.0 0.010003581022893098 0.009999971500121838 0.0 1.0284955574544493e-16 0.0 0.01 0.0 1.0284955574544493e-16 0.0 0.01000000100000015 0.009999969500139537 0.0 2.934707863958581e-17 0.0 0.01 0.0 2.934707863958581e-17 0.0 0.01000000100000015 0.009999969500139537 0.0 2.257802889882672e-17 0.0 0.01 0.0 2.257802889882672e-17 0.0 0.010000000500000038 0.00999996900014415 0.0 -3.84478406017755e-18 0.0 0.01 0.0 -3.84478406017755e-18 0.0 0.010000000500000038 0.009999968500148837 0.0 -6.310475656405451e-18 0.0 0.01 0.0 -6.310475656405451e-18 0.0 0.010000000500000038 0.009999968500148837 0.0 -6.929688256914359e-18 0.0 0.01 0.0 -6.929688256914359e-18 0.0 0.01 0.009999968000153599 0.0 4.03265239335163e-18 0.0 0.01 0.0 4.03265239335163e-18 0.0 0.01 0.009999967500158436 0.0 3.824347106288729e-18 0.0 0.01 0.0 3.824347106288729e-18 0.0 0.01 0.009999967500158436 0.0 -2.882595384592797e-13 0.0 0.01 0.0 -2.882595384592797e-13 0.0 0.01 0.009999963500199835 0.0 -2.0741530451525186e-17 0.0 0.01 0.0 -2.0741530451525186e-17 0.0 0.010000001450000314 0.009999961500222337 0.0 1.4250032305024526e-17 0.0 0.01 0.0 1.4250032305024526e-17 0.0 0.010000001450000314 0.009999961500222337 0.0 2.0577725750517972e-17 0.0 0.01 0.0 2.0577725750517972e-17 0.0 0.01000000100000015 0.009999961000228147 0.0 -1.4651494986356728e-17 0.0 0.01 0.0 -1.4651494986356728e-17 0.0 0.01000000100000015 0.009999960500234035 0.0 1.0867508740379814e-17 0.0 0.01 0.0 1.0867508740379814e-17 0.0 0.01000000100000015 0.00999996000024 0.0 5.406081468908052e-18 0.0 0.01 0.0 5.406081468908052e-18 0.0 0.010000000500000038 0.00999996000024 0.0 1.541917237587198e-13 0.0 0.01 0.0 1.541917237587198e-13 0.0 0.010000000500000038 0.00999996000024 0.0 2.2228335629555053e-18 0.0 0.01 0.0 2.2228335629555053e-18 0.0 0.01 0.00999996000024 0.0 9.694129500008816e-14 0.0 0.01 0.0 9.694129500008816e-14 0.0 0.01 0.009999953500324335 0.0 -2.6068601341652328e-17 0.0 0.01 0.0 -2.6068601341652328e-17 0.0 0.010000001450000314 0.009999953000331347 0.0 2.3800217385333222e-17 0.0 0.01 0.0 2.3800217385333222e-17 0.0 0.010000001450000314 0.009999952000345596 0.0 6.33703475192431e-18 0.0 0.01 0.0 6.33703475192431e-18 0.0 0.010000001450000314 0.009999952000345596 0.0 -1.3631994315121831e-17 0.0 0.01 0.0 -1.3631994315121831e-17 0.0 0.010000001450000314 0.009999951000360146 0.0 -8.767485966053266e-18 0.0 0.01 0.0 -8.767485966053266e-18 0.0 0.010000001450000314 0.009999951000360146 0.0 1.4600086459955603e-13 0.0 0.01 0.0 1.4600086459955603e-13 0.0 0.01000000100000015 0.009999951000360146 0.0 6.236319598893172e-18 0.0 0.01 0.0 6.236319598893172e-18 0.0 0.01000000100000015 0.009999951000360146 0.0 7.593645756402361e-18 0.0 0.01 0.0 7.593645756402361e-18 0.0 0.010000000500000038 0.009999951000360146 0.0 3.0683610625040047e-13 0.0 0.01 0.0 3.0683610625040047e-13 0.0 0.010000000500000038 0.009999943500478833 0.0 1.016360559859031e-16 0.0 0.01 0.0 1.016360559859031e-16 0.0 0.0100000024500009 0.009999941000522145 0.0 5.434681400307345e-17 0.0 0.01 0.0 5.434681400307345e-17 0.0 0.0100000024500009 0.009999941000522145 0.0 -1.5562342992493528e-17 0.0 0.01 0.0 -1.5562342992493528e-17 0.0 0.0100000024500009 0.009999941000522145 0.0 -2.989231509887181e-13 0.0 0.01 0.0 -2.989231509887181e-13 0.0 0.01000000195000057 0.009999941000522145 0.0 -1.2626708999995909e-17 0.0 0.01 0.0 -1.2626708999995909e-17 0.0 0.010000001450000314 0.009999941000522145 0.0 1.7874392997096723e-13 0.0 0.01 0.0 1.7874392997096723e-13 0.0 0.010000001450000314 0.009999941000522145 0.0 4.978428223739078e-18 0.0 0.01 0.0 4.978428223739078e-18 0.0 0.010000001450000314 0.009999940500531032 0.0 4.211936690213149e-18 0.0 0.01 0.0 4.211936690213149e-18 0.0 0.01000000100000015 0.009999940500531032 0.0 2.5470623208008117e-13 0.0 0.01 0.0 2.5470623208008117e-13 0.0 0.01000000100000015 0.00999992950074553 0.0 1.240872960605388e-16 0.0 0.01 0.0 1.240872960605388e-16 0.0 0.010000003400001733 0.009999928500766829 0.0 5.904397686514283e-17 0.0 0.01 0.0 5.904397686514283e-17 0.0 0.010000003400001733 0.00999992700079934 0.0 -3.069332068856425e-17 0.0 0.01 0.0 -3.069332068856425e-17 0.0 0.0100000024500009 0.009999926500810328 0.0 5.447238946155021e-18 0.0 0.01 0.0 5.447238946155021e-18 0.0 0.0100000024500009 0.009999926000821389 0.0 -8.547254464565883e-14 0.0 0.01 0.0 -8.547254464565883e-14 0.0 0.01000000195000057 0.009999926500810328 0.0 1.3756767355493936e-17 0.0 0.01 0.0 1.3756767355493936e-17 0.0 0.01000000195000057 0.009999926500810328 0.0 7.598258881892103e-18 0.0 0.01 0.0 7.598258881892103e-18 0.0 0.010000001450000314 0.009999926500810328 0.0 5.885725890008417e-18 0.0 0.01 0.0 5.885725890008417e-18 0.0 0.010000001450000314 0.009999926500810328 0.0 2.627276855733258e-18 0.0 0.01 0.0 2.627276855733258e-18 0.0 0.010000001450000314 0.00999991150117482 0.0 3.9066362249271453e-16 0.0 0.01 0.0 3.9066362249271453e-16 0.0 0.010000003900002281 0.00999991050120152 0.0 6.096728260891248e-17 0.0 0.01 0.0 6.096728260891248e-17 0.0 0.010000003400001733 0.009999909001242133 0.0 -4.175565033169087e-17 0.0 0.01 0.0 -4.175565033169087e-17 0.0 0.010000003400001733 0.009999908501255818 0.0 -1.6515228751751263e-17 0.0 0.01 0.0 -1.6515228751751263e-17 0.0 0.010000003400001733 0.009999909501228518 0.0 6.0342573027100725e-18 0.0 0.01 0.0 6.0342573027100725e-18 0.0 0.0100000024500009 0.009999909501228518 0.0 -2.438426761610399e-18 0.0 0.01 0.0 -2.438426761610399e-18 0.0 0.01000000195000057 0.009999910001214982 0.0 1.5479769739599927e-13 0.0 0.01 0.0 1.5479769739599927e-13 0.0 0.01000000195000057 0.009999909501228518 0.0 4.5939728805709715e-18 0.0 0.01 0.0 4.5939728805709715e-18 0.0 0.01000000195000057 0.009999909501228518 0.0 2.4747960929763917e-18 0.0 0.01 0.0 2.4747960929763917e-18 0.0 0.010000001450000314 0.009999890001814967 0.0 6.636399377422595e-16 0.0 0.01 0.0 6.636399377422595e-16 0.0 0.010000004900003601 0.009999888001881565 0.0 2.688269713063882e-16 0.0 0.01 0.0 2.688269713063882e-16 0.0 0.010000004900003601 0.009999887001915314 0.0 1.2376539567454478e-15 0.0 0.01 0.0 1.2376539567454478e-15 0.0 0.010000004900003601 0.009999887001915314 0.0 -1.3131312121654854e-17 0.0 0.01 0.0 -1.3131312121654854e-17 0.0 0.010000003400001733 0.009999887501898402 0.0 2.131682993973913e-14 0.0 0.01 0.0 2.131682993973913e-14 0.0 0.010000003400001733 0.009999887501898402 0.0 5.086984408295946e-18 0.0 0.01 0.0 5.086984408295946e-18 0.0 0.010000002950001304 0.009999888501864803 0.0 3.45977884728361e-18 0.0 0.01 0.0 3.45977884728361e-18 0.0 0.01000000195000057 0.009999888501864803 0.0 3.3182524728712133e-18 0.0 0.01 0.0 3.3182524728712133e-18 0.0 0.01000000195000057 0.009999888501864803 0.0 1.750063012045026e-13 0.0 0.01 0.0 1.750063012045026e-13 0.0 0.01000000195000057 0.00999986050291897 0.0 3.5310261768424753e-13 0.0 0.01 0.0 3.531026176809388e-13 0.0 0.010000006350006047 0.00999986000293993 0.0 2.8283402490650417e-16 0.0 0.01 0.0 2.8283402490650417e-16 0.0 0.010000006350006049 0.00999986000293993 0.0 5.1855097660510824e-17 0.0 0.01 0.0 5.1855097660510824e-17 0.0 0.010000005350004294 0.00999986050291897 0.0 9.145993842852767e-18 0.0 0.01 0.0 9.145993842852767e-18 0.0 0.010000004900003601 0.00999986050291897 0.0 1.0323914896934148e-13 0.0 0.01 0.0 1.0323914896934148e-13 0.0 0.010000004400002904 0.009999862002856534 0.0 9.695893740482679e-18 0.0 0.01 0.0 9.695893740482679e-18 0.0 0.010000003400001733 0.009999862002856534 0.0 5.0894883999285206e-18 0.0 0.01 0.0 5.0894883999285206e-18 0.0 0.010000002950001304 0.009999862002856534 0.0 -2.0320029761706596e-14 0.0 0.01 0.0 -2.0320029761706596e-14 0.0 0.010000002950001304 0.009999862002856534 0.0 5.242744902145316e-18 0.0 0.01 0.0 5.242744902145316e-18 0.0 0.0100000024500009 0.00999982600454127 0.0 3.194535289769128e-12 0.0 0.01 0.0 3.1945352897161885e-12 0.0 0.010000008800011617 0.009999824504619902 0.0 5.222024532150815e-16 0.0 0.01 0.0 5.222024532150815e-16 0.0 0.010000008300010334 0.009999824504619902 0.0 -5.2433667103917354e-17 0.0 0.01 0.0 -5.2433667103917354e-17 0.0 0.010000007300007994 0.009999825504567404 0.0 -3.894770156665487e-17 0.0 0.01 0.0 -3.894770156665487e-17 0.0 0.010000006850007037 0.009999826004541268 0.0 3.286252494510696e-18 0.0 0.01 0.0 3.286252494510696e-18 0.0 0.010000004900003601 0.00999982700448922 0.0 1.150910729890814e-17 0.0 0.01 0.0 1.150910729890814e-17 0.0 0.010000004900003601 0.009999828004437473 0.0 -2.854228799331806e-14 0.0 0.01 0.0 -2.854228799331806e-14 0.0 0.010000003900002281 0.009999829004386025 0.0 1.605012941779453e-17 0.0 0.01 0.0 1.605012941779453e-17 0.0 0.010000002950001304 0.009999829504360413 0.0 5.8109024579373695e-18 0.0 0.01 0.0 5.8109024579373695e-18 0.0 0.010000002950001304 0.009999781007193889 0.0 9.774005312046869e-12 0.0 0.01 0.0 9.774005311993929e-12 0.0 0.010000012200022328 0.009999781007193887 0.0 3.4099854869003533e-14 0.0 0.01 0.0 3.409985486921033e-14 0.0 0.010000011250018984 0.00999978250709568 0.0 -2.33571103093149e-18 0.0 0.01 0.0 -2.33571103093149e-18 0.0 0.010000008800011615 0.009999784006998148 0.0 -5.917793075930375e-17 0.0 0.01 0.0 -5.917793075930375e-17 0.0 0.010000008800011615 0.00999978550690129 0.0 -4.102823257897417e-18 0.0 0.01 0.0 -4.102823257897417e-18 0.0 0.010000006850007037 0.009999786506837093 0.0 1.94618062758983e-17 0.0 0.01 0.0 1.94618062758983e-17 0.0 0.010000006350006049 0.009999787506773198 0.0 1.673059901134712e-17 0.0 0.01 0.0 1.673059901134712e-17 0.0 0.010000004900003601 0.009999789006677915 0.0 2.8693789131140106e-17 0.0 0.01 0.0 2.8693789131140106e-17 0.0 0.010000003900002281 0.009999790506583308 0.0 -5.410748133188363e-18 0.0 0.01 0.0 -5.410748133188363e-18 0.0 0.010000003900002281 0.009999725511302023 0.0 1.734775490692499e-11 0.0 0.01 0.0 1.734775490692499e-11 0.0 0.010000016600041337 0.009999726011260889 0.0 1.4623876695292698e-13 0.0 0.01 0.0 1.4623876695292698e-13 0.0 0.01000001515003443 0.009999728511056337 0.0 -1.066529297600038e-16 0.0 0.01 0.0 -1.066529297600038e-16 0.0 0.010000012700024194 0.009999730510894048 0.0 -1.560612646152672e-17 0.0 0.01 0.0 -1.560612646152672e-17 0.0 0.010000011250018984 0.009999733510652864 0.0 -8.678465035866602e-18 0.0 0.01 0.0 -8.678465035866602e-18 0.0 0.010000008800011615 0.009999735010533285 0.0 -2.9647938965227065e-18 0.0 0.01 0.0 -2.9647938965227065e-18 0.0 0.010000007300007994 0.009999737510335486 0.0 2.7350570128416928e-17 0.0 0.01 0.0 2.7350570128416928e-17 0.0 0.010000006350006049 0.009999739510178594 0.0 2.7580327937538434e-17 0.0 0.01 0.0 2.7580327937538434e-17 0.0 0.010000005350004294 0.009999740010139561 0.0 1.6554098819038833e-17 0.0 0.01 0.0 1.6554098819038833e-17 0.0 0.010000004400002904 0.009999658017543598 0.0 2.0035043039693636e-11 0.0 0.01 0.0 2.0035043039693636e-11 0.0 0.010000024400089302 0.009999660017339018 0.0 1.6315542808232464e-13 0.0 0.01 0.0 1.6315542808315182e-13 0.0 0.01000002100006615 0.009999663516983883 0.0 -2.583576528121891e-16 0.0 0.01 0.0 -2.583576528121891e-16 0.0 0.010000016600041335 0.009999667516582518 0.0 -4.696393839443254e-17 0.0 0.01 0.0 -4.696393839443254e-17 0.0 0.010000014650032193 0.009999671516185952 0.0 1.8944446766410492e-17 0.0 0.01 0.0 1.8944446766410492e-17 0.0 0.010000011700020532 0.009999674515891675 0.0 1.9156496413642627e-17 0.0 0.01 0.0 1.9156496413642627e-17 0.0 0.010000009300012973 0.009999677015648507 0.0 -3.818256937632942e-18 0.0 0.01 0.0 -3.818256937632942e-18 0.0 0.010000007300007994 0.009999679015455324 0.0 2.2032130645131726e-17 0.0 0.01 0.0 2.2032130645131726e-17 0.0 0.010000006350006049 0.009999680015359181 0.0 -8.11372205498598e-18 0.0 0.01 0.0 -8.11372205498598e-18 0.0 0.010000005350004294 0.009999575027091829 0.0 1.494012459127847e-11 0.0 0.01 0.0 1.494012459127847e-11 0.0 0.010000036150196024 0.009999579526521179 0.0 4.641098404067955e-14 0.0 0.01 0.0 4.641098404067955e-14 0.0 0.010000027850116345 0.009999585025831963 0.0 -1.7416429100512916e-16 0.0 0.01 0.0 -1.7416429100512916e-16 0.0 0.010000023450082485 0.009999591525029133 0.0 -3.368223436114078e-17 0.0 0.01 0.0 -3.368223436114078e-17 0.0 0.010000018550051615 0.009999595524541383 0.0 8.742024792854445e-17 0.0 0.01 0.0 8.742024792854445e-17 0.0 0.010000014650032193 0.009999600023998401 0.0 3.352426739542014e-17 0.0 0.01 0.0 3.352426739542014e-17 0.0 0.010000011700020532 0.009999604523461492 0.0 -8.813826919086715e-18 0.0 0.01 0.0 -8.813826919086715e-18 0.0 0.010000009300012973 0.00999960602328387 0.0 4.0978126155676956e-17 0.0 0.01 0.0 4.0978126155676956e-17 0.0 0.010000007800009127 0.009999608023048095 0.0 -2.9656424962890825e-17 0.0 0.01 0.0 -2.9656424962890825e-17 0.0 0.010000006350006049 0.009999474541418913 0.0 6.317454351601625e-12 0.0 0.01 0.0 6.317454351601625e-12 0.0 0.010000048350350663 0.009999481540322853 0.0 2.363808203383763e-16 0.0 0.01 0.0 2.363808203383763e-16 0.0 0.010000039050228738 0.00999948853924149 0.0 -1.758089003382882e-16 0.0 0.01 0.0 -1.758089003382882e-16 0.0 0.010000031250146485 0.009999496538023647 0.0 5.713031052382509e-17 0.0 0.01 0.0 5.713031052382509e-17 0.0 0.01000002395008604 0.009999502537122859 0.0 1.945758959319611e-16 0.0 0.01 0.0 1.945758959319611e-16 0.0 0.010000019050054435 0.00999950903615919 0.0 5.082459730567424e-17 0.0 0.01 0.0 5.082459730567424e-17 0.0 0.010000015150034429 0.009999513035572463 0.0 -6.17647415262845e-17 0.0 0.01 0.0 -6.17647415262845e-17 0.0 0.010000011700020532 0.009999517034990532 0.0 -1.7349056774458542e-17 0.0 0.01 0.0 -1.7349056774458542e-17 0.0 0.010000009300012973 0.009999519534629265 0.0 -5.3111029197306025e-17 0.0 0.01 0.0 -5.3111029197306025e-17 0.0 0.010000007800009127 0.009999351563076022 0.0 8.714285475297592e-13 0.0 0.01 0.0 8.714285475281049e-13 0.0 0.010000065900651429 0.009999362061050107 0.0 5.875448837617944e-16 0.0 0.01 0.0 5.875448837617944e-16 0.0 0.010000051750401712 0.00999937305896319 0.0 -3.361091034043056e-17 0.0 0.01 0.0 -3.361091034043056e-17 0.0 0.010000039550234633 0.009999383557004981 0.0 1.1046893064258854e-16 0.0 0.01 0.0 1.1046893064258854e-16 0.0 0.010000031750151211 0.00999939305526176 0.0 3.7751619552008393e-16 0.0 0.01 0.0 3.7751619552008393e-16 0.0 0.010000023450082485 0.009999401053814777 0.0 1.2403558567031912e-16 0.0 0.01 0.0 1.2403558567031912e-16 0.0 0.010000018550051615 0.009999407552653237 0.0 1.5137631153115178e-17 0.0 0.01 0.0 1.5137631153115178e-17 0.0 0.010000013650027948 0.009999412051856518 0.0 -3.9893499761110144e-17 0.0 0.01 0.0 -3.9893499761110144e-17 0.0 0.010000010750017335 0.009999415051328746 0.0 -1.243305392305988e-16 0.0 0.01 0.0 -1.243305392305988e-16 0.0 0.010000008800011615 0.009999204095029794 0.0 3.804152840493408e-15 0.0 0.01 0.0 3.804152840493408e-15 0.0 0.010000085951108127 0.009999218091716645 0.0 9.500092997096171e-16 0.0 0.01 0.0 9.500092997096171e-16 0.0 0.010000066900671348 0.00999923358811708 0.0 5.065981874903853e-17 0.0 0.01 0.0 5.065981874903853e-17 0.0 0.010000051750401712 0.009999247085040679 0.0 3.276028868458859e-16 0.0 0.01 0.0 3.276028868458859e-16 0.0 0.010000039050228738 0.009999260582018929 0.0 4.130776194557803e-16 0.0 0.01 0.0 4.130776194557803e-16 0.0 0.01000003025013726 0.009999271079706466 0.0 -1.0403865889526287e-16 0.0 0.01 0.0 -1.0403865889526287e-16 0.0 0.0100000224500756 0.009999280577642726 0.0 -2.0579517730120862e-16 0.0 0.01 0.0 -2.0579517730120862e-16 0.0 0.010000016600041335 0.00999928707624629 0.0 -2.5788512017535986e-16 0.0 0.01 0.0 -2.5788512017535986e-16 0.0 0.010000013200026137 0.009999290075606054 0.0 -8.751211619650648e-17 0.0 0.01 0.0 -8.751211619650648e-17 0.0 0.010000010750017335 0.009999026142278303 0.0 5.512183236476554e-15 0.0 0.01 0.0 5.512183236476554e-15 0.0 0.010000108901778914 0.0099990456366388 0.0 5.906587555210642e-16 0.0 0.01 0.0 5.906587555210642e-16 0.0 0.010000085451095271 0.009999066130833033 0.0 -2.7342180834775537e-16 0.0 0.01 0.0 -2.7342180834775537e-16 0.0 0.010000064950632782 0.009999085625427421 0.0 2.73926952089096e-16 0.0 0.01 0.0 2.73926952089096e-16 0.0 0.010000048850357952 0.009999102620807868 0.0 3.1122940522257497e-16 0.0 0.01 0.0 3.1122940522257497e-16 0.0 0.010000036600200936 0.009999117116936141 0.0 -3.403155827008562e-17 0.0 0.01 0.0 -3.403155827008562e-17 0.0 0.010000027850116345 0.00999912711430272 0.0 -1.4683183921062843e-16 0.0 0.01 0.0 -1.4683183921062843e-16 0.0 0.010000020500063036 0.009999135612087887 0.0 -3.1893181842225167e-16 0.0 0.01 0.0 -3.1893181842225167e-16 0.0 0.010000016100038882 0.009999140110924102 0.0 -2.232263662503573e-16 0.0 0.01 0.0 -2.232263662503573e-16 0.0 0.010000013200026137 0.00999881371112559 0.0 4.966837105975989e-15 0.0 0.01 0.0 4.966837105975989e-15 0.0 0.010000136702803097 0.009998839701974974 0.0 -1.2644436643293292e-15 0.0 0.01 0.0 -1.2644436643293292e-15 0.0 0.010000105001653778 0.009998866692686936 0.0 -3.2293261504593875e-16 0.0 0.01 0.0 -3.2293261504593875e-16 0.0 0.010000080100962414 0.0099988921841156 0.0 5.970266045265383e-16 0.0 0.01 0.0 5.970266045265383e-16 0.0 0.010000060050540905 0.009998914676714567 0.0 6.446711258137306e-16 0.0 0.01 0.0 6.446711258137306e-16 0.0 0.010000044900302403 0.009998933170742986 0.0 7.257606544375872e-17 0.0 0.01 0.0 7.257606544375872e-17 0.0 0.010000032700160394 0.0099989481659765 0.0 -7.905019732103974e-17 0.0 0.01 0.0 -7.905019732103974e-17 0.0 0.010000025400096774 0.009998958162836321 0.0 -1.5532905854168123e-16 0.0 0.01 0.0 -1.5532905854168123e-16 0.0 0.01000002000006 0.009998964160966605 0.0 -2.2842063289328124e-16 0.0 0.01 0.0 -2.2842063289328124e-16 0.0 0.010000016600041335 0.009998558311829659 0.0 2.883160774572219e-15 0.0 0.01 0.0 2.883160774572219e-15 0.0 0.010000167004183467 0.009998593796666795 0.0 -3.460599690480173e-15 0.0 0.01 0.0 -3.460599690480173e-15 0.0 0.010000128902492335 0.009998631281060022 0.0 4.8394015867225135e-16 0.0 0.01 0.0 4.8394015867225135e-16 0.0 0.01000009715141574 0.009998663767875168 0.0 2.9534092417840888e-15 0.0 0.01 0.0 2.9534092417840888e-15 0.0 0.010000072250783018 0.009998692256573667 0.0 1.8441449821688152e-15 0.0 0.01 0.0 1.8441449821688152e-15 0.0 0.01000005420044065 0.00999871624724549 0.0 4.420180830174738e-16 0.0 0.01 0.0 4.420180830174738e-16 0.0 0.010000041000252152 0.009998734240362683 0.0 -1.5813843526905297e-16 0.0 0.01 0.0 -1.5813843526905297e-16 0.0 0.010000032250156011 0.009998746235828112 0.0 -2.446804289619338e-16 0.0 0.01 0.0 -2.446804289619338e-16 0.0 0.010000025400096774 0.009998753733015928 0.0 -2.139294908444259e-16 0.0 0.01 0.0 -2.139294908444259e-16 0.0 0.01000002195007227 0.009998257955313708 0.0 -1.2987957842595875e-15 0.0 0.01 0.0 -1.2987957842595875e-15 0.0 0.0100002011560694 0.009998305430832043 0.0 -4.418542944801735e-15 0.0 0.01 0.0 -4.418542944801735e-15 0.0 0.010000153303525224 0.009998351407768084 0.0 4.770663122117942e-15 0.0 0.01 0.0 4.770663122117942e-15 0.0 0.010000115702008011 0.009998394386781873 0.0 7.866115660371791e-15 0.0 0.01 0.0 7.866115660371791e-15 0.0 0.010000086901132759 0.009998430869402908 0.0 5.443914724317608e-15 0.0 0.01 0.0 5.443914724317608e-15 0.0 0.010000065900651429 0.009998459356110689 0.0 2.12031536182901e-15 0.0 0.01 0.0 2.12031536182901e-15 0.0 0.0100000508003871 0.009998481346016552 0.0 9.719933658908113e-16 0.0 0.01 0.0 9.719933658908113e-16 0.0 0.010000041000252152 0.00999849733876649 0.0 2.3102044811735532e-17 0.0 0.01 0.0 2.3102044811735532e-17 0.0 0.010000034200175447 0.009998506834498077 0.0 -3.055263735983006e-16 0.0 0.01 0.0 -3.055263735983006e-16 0.0 0.010000031250146485 0.00999790066126856 0.0 -4.2423571768142116e-15 0.0 0.01 0.0 -4.2423571768142116e-15 0.0 0.010000238758550576 0.009997964621583479 0.0 -2.6767637484145582e-15 0.0 0.01 0.0 -2.6767637484145582e-15 0.0 0.010000181154922448 0.009998023086382679 0.0 1.4262092238212097e-14 0.0 0.01 0.0 1.4262092238212097e-14 0.0 0.01000013720282364 0.009998077554511632 0.0 1.7261945807158582e-14 0.0 0.01 0.0 1.7261945807158582e-14 0.0 0.010000104001622429 0.009998122528867068 0.0 1.0603490625476064e-14 0.0 0.01 0.0 1.0603490625476064e-14 0.0 0.010000082051009844 0.0099981575093409 0.0 4.989518286715735e-15 0.0 0.01 0.0 4.989518286715735e-15 0.0 0.010000065450642562 0.009998184494528725 0.0 1.9170547433460227e-15 0.0 0.01 0.0 1.9170547433460227e-15 0.0 0.010000054700448817 0.009998202484775332 0.0 3.606840258650588e-16 0.0 0.01 0.0 3.606840258650588e-16 0.0 0.010000047850343446 0.00999821347886273 0.0 7.34367456230286e-18 0.0 0.01 0.0 7.34367456230286e-18 0.0 0.010000044450296373 0.009997481951404727 0.0 -9.042335243647044e-15 0.0 0.01 0.0 -9.042335243647044e-15 0.0 0.01000028026178156 0.009997565389388029 0.0 7.463333488133598e-15 0.0 0.01 0.0 7.463333488133598e-15 0.0 0.010000212906799203 0.009997640835111532 0.0 3.0771168490265234e-14 0.0 0.01 0.0 3.0771168490265234e-14 0.0 0.010000163103990352 0.009997706289407661 0.0 2.975915962881892e-14 0.0 0.01 0.0 2.975915962881892e-14 0.0 0.010000127452436579 0.009997761252023351 0.0 1.9256538291403114e-14 0.0 0.01 0.0 1.9256538291403114e-14 0.0 0.010000102551577501 0.00999780372375634 0.0 8.674194426798531e-15 0.0 0.01 0.0 8.674194426798531e-15 0.0 0.010000087901158979 0.00999783570283015 0.0 3.5013890838090686e-15 0.0 0.01 0.0 3.5013890838090686e-15 0.0 0.010000076650881295 0.009997858188300162 0.0 9.62063869985585e-16 0.0 0.01 0.0 9.62063869985585e-16 0.0 0.010000071300762562 0.00999786968093231 0.0 4.708978167872435e-16 0.0 0.01 0.0 4.708978167872435e-16 0.0 0.01000006785069055 0.009996996353825727 0.0 -2.3790770832003587e-15 0.0 0.01 0.0 -2.3790770832003587e-15 0.0 0.010000325215864117 0.009997100761325307 0.0 2.5848264677303498e-14 0.0 0.01 0.0 2.5848264677303498e-14 0.0 0.010000251009450544 0.009997196679231862 0.0 5.0344665205395e-14 0.0 0.01 0.0 5.0344665205395e-14 0.0 0.010000196305780246 0.009997275613746632 0.0 4.3015238305612554e-14 0.0 0.01 0.0 4.3015238305612554e-14 0.0 0.010000160153847307 0.009997342060072372 0.0 2.3919504068547092e-14 0.0 0.01 0.0 2.3919504068547092e-14 0.0 0.010000135252743948 0.009997392520197318 0.0 9.892567063003652e-15 0.0 0.01 0.0 9.892567063003652e-15 0.0 0.010000119652147461 0.009997428991852434 0.0 3.639902114243874e-15 0.0 0.01 0.0 3.639902114243874e-15 0.0 0.010000108901778914 0.00999745397266846 0.0 1.7297325065534684e-15 0.0 0.01 0.0 1.7297325065534684e-15 0.0 0.010000104501638067 0.009997468961247962 0.0 3.1240281970522516e-16 0.0 0.01 0.0 3.1240281970522516e-16 0.0 0.010000101551546887 0.009996444896712949 0.0 -4.842222055855264e-15 0.0 0.01 0.0 -4.842222055855264e-15 0.0 0.01000038137181556 0.00999657476064376 0.0 4.0317202002471354e-14 0.0 0.01 0.0 4.0317202002471354e-14 0.0 0.010000299313437745 0.009996689144990295 0.0 6.3132397180616e-14 0.0 0.01 0.0 6.3132397180616e-14 0.0 0.010000242708835854 0.009996784052013695 0.0 4.4001473792262444e-14 0.0 0.01 0.0 4.4001473792262444e-14 0.0 0.010000206556399657 0.009996861478166447 0.0 2.091657302544265e-14 0.0 0.01 0.0 2.091657302544265e-14 0.0 0.010000183105028995 0.00999692042315338 0.0 8.353132321379082e-15 0.0 0.01 0.0 8.353132321379082e-15 0.0 0.010000167954231198 0.009996962384626853 0.0 2.2256314343192907e-15 0.0 0.01 0.0 2.2256314343192907e-15 0.0 0.010000160153847306 0.009996990858784784 0.0 1.049751809660889e-15 0.0 0.01 0.0 1.049751809660889e-15 0.0 0.010000153803548257 0.009997006844383595 0.0 2.4374251149549473e-17 0.0 0.01 0.0 2.4374251149549473e-17 0.0 0.010000151853458851 0.00999583310589872 0.0 -9.945945763447775e-14 0.0 0.01 0.0 -9.945945763447775e-14 0.0 0.010000450730471865 0.00999599091220713 0.0 -1.5915914018444565e-14 0.0 0.01 0.0 -1.5915914018444565e-14 0.0 0.010000363769848314 0.00999612625205162 0.0 1.6252472959215648e-14 0.0 0.01 0.0 1.6252472959215648e-14 0.0 0.010000309564373921 0.009996237624386204 0.0 1.1594204652274958e-14 0.0 0.01 0.0 1.1594204652274958e-14 0.0 0.010000275411377296 0.009996325026807293 0.0 1.8719217131467144e-15 0.0 0.01 0.0 1.8719217131467144e-15 0.0 0.010000254909746516 0.009996391454180645 0.0 -1.333386780000964e-15 0.0 0.01 0.0 -1.333386780000964e-15 0.0 0.01000024270883585 0.00999643890311525 0.0 -8.242091232726394e-16 0.0 0.01 0.0 -8.242091232726394e-16 0.0 0.010000232408101778 0.009996471368565076 0.0 -6.604186326992446e-16 0.0 0.01 0.0 -6.604186326992446e-16 0.0 0.010000226557699027 0.009996489349565704 0.0 -1.2352694725583179e-16 0.0 0.01 0.0 -1.2352694725583179e-16 0.0 0.010000223157469667 0.009995191470518354 0.0 -5.141585893486763e-13 0.0 0.01 0.0 -5.141585893484695e-13 0.0 0.010000545944705088 0.009995377207508507 0.0 -3.432253255759266e-13 0.0 0.01 0.0 -3.4322532557603e-13 0.0 0.010000460981873684 0.009995532994903881 0.0 -2.3141109335346075e-13 0.0 0.01 0.0 -2.3141109335335735e-13 0.0 0.010000410675296747 0.009995658828502636 0.0 -1.3951428930675807e-13 0.0 0.01 0.0 -1.3951428930675807e-13 0.0 0.010000381371815558 0.009995757201728909 0.0 -7.164627733867938e-14 0.0 0.01 0.0 -7.164627733867938e-14 0.0 0.010000360869533084 0.009995831607773377 0.0 -2.877024970455256e-14 0.0 0.01 0.0 -2.877024970455256e-14 0.0 0.010000345217875484 0.009995884541944038 0.0 -9.561288466010588e-15 0.0 0.01 0.0 -9.561288466010588e-15 0.0 0.010000333516684265 0.009995919498932885 0.0 -2.3405820187709787e-15 0.0 0.01 0.0 -2.3405820187709787e-15 0.0 0.01000032471581537 0.009995939474519745 0.0 1.5116558874791174e-16 0.0 0.01 0.0 1.5116558874791174e-16 0.0 0.010000319815341625 0.009994567929316689 0.0 -1.520566470666895e-12 0.0 0.01 0.0 -1.520566470666895e-12 0.0 0.010000692471920963 0.009994781587618164 0.0 -1.2387291656798017e-12 0.0 0.01 0.0 -1.2387291656798017e-12 0.0 0.010000606005081873 0.009994955819132574 0.0 -9.536677842477264e-13 0.0 0.01 0.0 -9.536677842473128e-13 0.0 0.01000055814672569 0.009995096109581221 0.0 -5.815606075376209e-13 0.0 0.01 0.0 -5.815606075376209e-13 0.0 0.010000531292337734 0.009995204451799394 0.0 -2.908810372880009e-13 0.0 0.01 0.0 -2.908810372880009e-13 0.0 0.010000509338911273 0.009995286834184994 0.0 -1.207144516151856e-13 0.0 0.01 0.0 -1.2071445161515975e-13 0.0 0.010000488335768446 0.009995345252020046 0.0 -4.006871798296943e-14 0.0 0.01 0.0 -4.006871798296943e-14 0.0 0.010000470233165805 0.009995384197812462 0.0 -1.103683361736255e-14 0.0 0.01 0.0 -1.103683361736255e-14 0.0 0.010000455131069758 0.00999540616743466 0.0 -1.898479168942375e-15 0.0 0.01 0.0 -1.898479168942375e-15 0.0 0.010000446829946765 0.009994044324738287 0.0 -2.9249227319548687e-12 0.0 0.01 0.0 -2.9249227319548687e-12 0.0 0.01000092052708992 0.009994279911657437 0.0 -2.7322448238155154e-12 0.0 0.01 0.0 -2.732244823814688e-12 0.0 0.010000823851798585 0.009994469591198565 0.0 -2.3340860434418455e-12 0.0 0.01 0.0 -2.334086043442259e-12 0.0 0.010000771089177607 0.009994620843413887 0.0 -1.5287098106165192e-12 0.0 0.01 0.0 -1.5287098106161056e-12 0.0 0.010000740782305636 0.009994739154388435 0.0 -7.967370587711405e-13 0.0 0.01 0.0 -7.967370587711405e-13 0.0 0.010000711025826472 0.009994830012081799 0.0 -3.383358332267316e-13 0.0 0.01 0.0 -3.383358332266282e-13 0.0 0.010000678269001088 0.009994893913482161 0.0 -1.1558093877707713e-13 0.0 0.01 0.0 -1.1558093877705128e-13 0.0 0.010000647012788416 0.009994935849442242 0.0 -3.373256486136918e-14 0.0 0.01 0.0 -3.373256486136918e-14 0.0 0.010000622608141307 0.009994961310818397 0.0 -5.827409861403612e-15 0.0 0.01 0.0 -5.827409861403612e-15 0.0 0.010000605054909286 0.009993729402993137 0.0 -3.320550012224607e-12 0.0 0.01 0.0 -3.320550012224607e-12 0.0 0.01000127514385732 0.009993973951369126 0.0 -3.814701917036626e-12 0.0 0.01 0.0 -3.814701917036626e-12 0.0 0.010001149148050842 0.009994174594259433 0.0 -4.00092948843035e-12 0.0 0.01 0.0 -4.000929488429523e-12 0.0 0.010001072922649757 0.009994335316933153 0.0 -2.930360323006647e-12 0.0 0.01 0.0 -2.930360323007474e-12 0.0 0.010001023106990772 0.009994460606134528 0.0 -1.6242686579487117e-12 0.0 0.01 0.0 -1.6242686579487117e-12 0.0 0.010000975742792522 0.009994557446434913 0.0 -7.058586132499572e-13 0.0 0.01 0.0 -7.058586132503707e-13 0.0 0.010000922977767472 0.009994627332936493 0.0 -2.434823467948749e-13 0.0 0.01 0.0 -2.434823467948749e-13 0.0 0.010000869763460114 0.009994673758351516 0.0 -6.656294727550067e-14 0.0 0.01 0.0 -6.656294727550067e-14 0.0 0.01000082675251666 0.009994700715340992 0.0 -1.194613710574944e-14 0.0 0.01 0.0 -1.194613710574944e-14 0.0 0.010000795995031127 0.00999376583457236 0.0 3.007930837970413e-13 0.0 0.01 0.0 3.007930837970413e-13 0.0 0.01000180663947402 0.009994006891910046 0.0 -1.951389676734267e-12 0.0 0.01 0.0 -1.95138967673344e-12 0.0 0.010001617092163505 0.009994204042864777 0.0 -4.517514915202918e-12 0.0 0.01 0.0 -4.517514915202918e-12 0.0 0.010001490082985943 0.009994366763580632 0.0 -4.143172463578169e-12 0.0 0.01 0.0 -4.143172463578169e-12 0.0 0.010001398243207945 0.009994495049011601 0.0 -2.4959535640622414e-12 0.0 0.01 0.0 -2.4959535640618278e-12 0.0 0.010001314709223615 0.009994594885449869 0.0 -1.0883724369624077e-12 0.0 0.01 0.0 -1.0883724369624077e-12 0.0 0.010001226775709878 0.00999466826713966 0.0 -3.4259232112554274e-13 0.0 0.01 0.0 -3.4259232112564614e-13 0.0 0.010001141295353535 0.009994718187580307 0.0 -7.800460091696172e-14 0.0 0.01 0.0 -7.800460091696172e-14 0.0 0.010001069021396582 0.009994747640991144 0.0 -1.0112815327662249e-14 0.0 0.01 0.0 -1.0112815327662249e-14 0.0 0.010001022106683959 0.00999433980929319 0.0 1.116605320434555e-11 0.0 0.01 0.0 1.1166053204347204e-11 0.0 0.010002558581616104 0.009994550457865388 0.0 6.1483062664286365e-12 0.0 0.01 0.0 6.1483062664286365e-12 0.0 0.010002264418906795 0.009994729669387463 0.0 -1.6288714911020922e-12 0.0 0.01 0.0 -1.6288714911016786e-12 0.0 0.010002045527456255 0.009994879934946105 0.0 -3.874250316409011e-12 0.0 0.01 0.0 -3.874250316408184e-12 0.0 0.01000188043026975 0.009995002748376012 0.0 -2.7610987479943533e-12 0.0 0.01 0.0 -2.7610987479951805e-12 0.0 0.010001735301586255 0.009995098605906043 0.0 -1.1537826108550102e-12 0.0 0.01 0.0 -1.1537826108554238e-12 0.0 0.010001595131585557 0.009995171998691632 0.0 -2.566201150367782e-13 0.0 0.01 0.0 -2.566201150367782e-13 0.0 0.010001463221089753 0.009995223424531898 0.0 9.008024361148632e-15 0.0 0.01 0.0 9.008024361148632e-15 0.0 0.010001352324267685 0.00999525288240962 0.0 1.6138487660963678e-14 0.0 0.01 0.0 1.6138487660963678e-14 0.0 0.010001280045735623 0.009995650339578634 0.0 2.923865543256883e-11 0.0 0.01 0.0 2.9238655432575445e-11 0.0 0.010003543382444482 0.00999579864918627 0.0 2.16203311409693e-11 0.0 0.01 0.0 2.162033114096599e-11 0.0 0.010003104945504543 0.009995935479392794 0.0 6.138235134438188e-12 0.0 0.01 0.0 6.138235134438188e-12 0.0 0.010002751134895174 0.009996055834693745 0.0 -9.59449501375315e-13 0.0 0.01 0.0 -9.59449501375315e-13 0.0 0.01000247651966877 0.009996160212727761 0.0 -1.6788740928636871e-12 0.0 0.01 0.0 -1.6788740928636871e-12 0.0 0.010002242954401053 0.009996243617621867 0.0 -5.249977407095531e-13 0.0 0.01 0.0 -5.249977407095531e-13 0.0 0.010002029417613257 0.00999630804558604 0.0 1.8604128759633687e-13 0.0 0.01 0.0 1.8604128759638857e-13 0.0 0.01000183450468767 0.009996353495519434 0.0 2.3593588199448855e-13 0.0 0.01 0.0 2.3593588199443685e-13 0.0 0.010001673770132207 0.00999638146501735 0.0 7.953007328676901e-14 0.0 0.01 0.0 7.953007328676901e-14 0.0 0.010001570169737545 0.009997830206405 0.0 4.7010635029292804e-11 0.0 0.01 0.0 4.7010635029292804e-11 0.0 0.010004729402973452 0.009997886170430275 0.0 3.97908806667445e-11 0.0 0.01 0.0 3.979088066673127e-11 0.0 0.010004115339009042 0.009997955127396655 0.0 1.6952091207638233e-11 0.0 0.01 0.0 1.6952091207631616e-11 0.0 0.010003591784210746 0.009998026084605158 0.0 4.3068396256601835e-12 0.0 0.01 0.0 4.306839625663492e-12 0.0 0.010003178264563005 0.009998092046182114 0.0 8.556824292567058e-13 0.0 0.01 0.0 8.556824292567058e-13 0.0 0.010002834204452069 0.009998147514882342 0.0 8.879682487476337e-13 0.0 0.01 0.0 8.879682487476337e-13 0.0 0.010002525856670596 0.009998192989910858 0.0 9.887373677530773e-13 0.0 0.01 0.0 9.887373677530773e-13 0.0 0.010002252710977443 0.00999822597218789 0.0 6.099521631424894e-13 0.0 0.01 0.0 6.099521631422826e-13 0.0 0.010002030418222355 0.009998244962131829 0.0 1.743901935053839e-13 0.0 0.01 0.0 1.743901935053839e-13 0.0 0.010001885783292704 0.010000843356675579 0.0 5.2770811241536996e-11 0.0 0.01 0.0 5.2770811241536996e-11 0.0 0.010006029849481221 0.010000787192941155 0.0 5.046684665175606e-11 0.0 0.01 0.0 5.0466846651742826e-11 0.0 0.010005231151881372 0.010000767688392776 0.0 2.510284602302059e-11 0.0 0.01 0.0 2.510284602302059e-11 0.0 0.010004527022235072 0.010000768638611716 0.0 9.322559263949414e-12 0.0 0.01 0.0 9.322559263942797e-12 0.0 0.010003953493281106 0.010000778890991225 0.0 3.731910946039824e-12 0.0 0.01 0.0 3.731910946041478e-12 0.0 0.010003480316047223 0.010000791593983234 0.0 2.5137772409201554e-12 0.0 0.01 0.0 2.5137772409201554e-12 0.0 0.010003065859347902 0.010000804297023649 0.0 1.8509228926778085e-12 0.0 0.01 0.0 1.850922892679463e-12 0.0 0.010002703746141314 0.010000814549512831 0.0 9.81394894644736e-13 0.0 0.01 0.0 9.81394894644736e-13 0.0 0.010002410521311901 0.01000082140119391 0.0 2.631049338708747e-13 0.0 0.01 0.0 2.631049338708747e-13 0.0 0.010002221440000167 0.01000439449504164 0.0 4.136002553283124e-11 0.0 0.01 0.0 4.136002553283124e-11 0.0 0.010007323487171158 0.01000422287339365 0.0 4.602163347711723e-11 0.0 0.01 0.0 4.602163347709076e-11 0.0 0.010006352247534987 0.010004102122731786 0.0 2.5024646203403753e-11 0.0 0.01 0.0 2.5024646203403753e-11 0.0 0.010005475193380952 0.01000401902158248 0.0 1.0749659652320607e-11 0.0 0.01 0.0 1.0749659652320607e-11 0.0 0.010004749982207507 0.01000395985082155 0.0 5.104432316602436e-12 0.0 0.01 0.0 5.104432316655375e-12 0.0 0.01000414662775301 0.010003917851231586 0.0 3.350909404141391e-12 0.0 0.01 0.0 3.350909404141391e-12 0.0 0.010003621616466276 0.010003888016325735 0.0 2.248548672111681e-12 0.0 0.01 0.0 2.2485486721050635e-12 0.0 0.010003164101097063 0.010003867492468295 0.0 1.1242834184476811e-12 0.0 0.01 0.0 1.1242834184476811e-12 0.0 0.010002798524322565 0.010003856730008179 0.0 2.9743383014114325e-13 0.0 0.01 0.0 2.9743383014197043e-13 0.0 0.010002561533882334 0.010007913182869038 0.0 2.1042542143799346e-11 0.0 0.01 0.0 2.1042542143746406e-11 0.0 0.010008469748356612 0.010007636187807596 0.0 2.9267241781076974e-11 0.0 0.01 0.0 2.9267241781076974e-11 0.0 0.01000736898730043 0.010007418396734007 0.0 1.6740931736932765e-11 0.0 0.01 0.0 1.6740931736932765e-11 0.0 0.010006353199346662 0.01000724812268362 0.0 7.693121388173101e-12 0.0 0.01 0.0 7.693121388173101e-12 0.0 0.010005497229609818 0.010007115487325219 0.0 4.069457425541834e-12 0.0 0.01 0.0 4.069457425545142e-12 0.0 0.010004779324108763 0.010007012719844516 0.0 2.8367809542203447e-12 0.0 0.01 0.0 2.8367809542203447e-12 0.0 0.010004151033231738 0.010006937863419179 0.0 1.9019614220928464e-12 0.0 0.01 0.0 1.9019614220920192e-12 0.0 0.010003605448952383 0.010006887008104575 0.0 9.428531712994997e-13 0.0 0.01 0.0 9.42853171299086e-13 0.0 0.01000316945618135 0.01000685664559674 0.0 2.437996202139419e-13 0.0 0.01 0.0 2.437996202140453e-13 0.0 0.01000288649930091 0.010010689966909484 0.0 4.479387309482914e-12 0.0 0.01 0.0 4.479387309482914e-12 0.0 0.01000937401436679 0.010010334849317926 0.0 1.119105971180325e-11 0.0 0.01 0.0 1.1191059711790015e-11 0.0 0.010008189749825508 0.010010035085254478 0.0 6.222461718048139e-12 0.0 0.01 0.0 6.222461718051448e-12 0.0 0.010007081715507403 0.010009786297019324 0.0 2.7449890326520106e-12 0.0 0.01 0.0 2.7449890326520106e-12 0.0 0.010006133588524745 0.01000958651759877 0.0 1.7072017225464717e-12 0.0 0.01 0.0 1.7072017225472988e-12 0.0 0.010005326052004842 0.010009429320063667 0.0 1.4753526272894543e-12 0.0 0.01 0.0 1.4753526272898678e-12 0.0 0.01000461549345165 0.010009313795879004 0.0 1.085832653629193e-12 0.0 0.01 0.0 1.085832653629193e-12 0.0 0.010003996043979557 0.01000923397421319 0.0 5.579292419639607e-13 0.0 0.01 0.0 5.579292419639607e-13 0.0 0.010003499886523812 0.010009187445881978 0.0 1.4588472879391162e-13 0.0 0.01 0.0 1.4588472879391162e-13 0.0 0.010003177764086152 0.01001221961139869 0.0 -2.8773415798091263e-12 0.0 0.01 0.0 -2.8773415798107807e-12 0.0 0.01001000083251764 0.010011819271302938 0.0 3.091946299043018e-13 0.0 0.01 0.0 3.091946299043018e-13 0.0 0.010008777643542925 0.010011462076806229 0.0 -6.139745057629821e-13 0.0 0.01 0.0 -6.139745057629821e-13 0.0 0.010007619048648064 0.010011156341861989 0.0 -7.446675134812847e-13 0.0 0.01 0.0 -7.446675134812847e-13 0.0 0.010006615909752463 0.010010906466741137 0.0 -1.8750303609008508e-13 0.0 0.01 0.0 -1.8750303609008508e-13 0.0 0.010005753010764503 0.010010711034394798 0.0 2.6730647761757385e-13 0.0 0.01 0.0 2.6730647761778065e-13 0.0 0.01000498612674128 0.01001056406637697 0.0 3.4454430278600743e-13 0.0 0.01 0.0 3.4454430278600743e-13 0.0 0.010004310885959279 0.010010464653456267 0.0 2.0015827716284955e-13 0.0 0.01 0.0 2.0015827716284955e-13 0.0 0.010003769229993718 0.010010406371375409 0.0 5.357827583778621e-14 0.0 0.01 0.0 5.357827583778621e-14 0.0 0.01000341730089401 0.010012480375146328 0.0 -3.451224333233284e-12 0.0 0.01 0.0 -3.451224333233284e-12 0.0 0.010010371111712284 0.010012068211158336 0.0 -2.751423850864827e-12 0.0 0.01 0.0 -2.751423850864827e-12 0.0 0.010009138010241022 0.010011686454106872 0.0 -2.4392359304494054e-12 0.0 0.01 0.0 -2.4392359304502326e-12 0.0 0.010007962600363669 0.010011353305404761 0.0 -1.6371441797189075e-12 0.0 0.01 0.0 -1.6371441797189075e-12 0.0 0.010006937863419177 0.010011075974443664 0.0 -7.966950572228022e-13 0.0 0.01 0.0 -7.966950572223886e-13 0.0 0.010006046479569443 0.010010858008885858 0.0 -2.5669656812813037e-13 0.0 0.01 0.0 -2.5669656812818207e-13 0.0 0.01000524532412934 0.010010694882644156 0.0 -3.627363727480198e-14 0.0 0.01 0.0 -3.627363727480198e-14 0.0 0.010004536785496895 0.010010584631478006 0.0 1.0601966675397602e-14 0.0 0.01 0.0 1.0601966675397602e-14 0.0 0.010003965257243433 0.010010519024232617 0.0 4.97419286194722e-15 0.0 0.01 0.0 4.97419286194722e-15 0.0 0.010003592735234905 0.010011857506775971 0.0 -1.6591515212417157e-12 0.0 0.01 0.0 -1.6591515212417157e-12 0.0 0.010010534222126501 0.01001145861493117 0.0 -1.7701058453000426e-12 0.0 0.01 0.0 -1.7701058453000426e-12 0.0 0.010009308380780992 0.010011079887419208 0.0 -1.4980292527876498e-12 0.0 0.01 0.0 -1.4980292527868226e-12 0.0 0.010008137371757203 0.010010742886678739 0.0 -9.880151401082262e-13 0.0 0.01 0.0 -9.880151401082262e-13 0.0 0.010007111578996466 0.010010458785076738 0.0 -5.271316142918026e-13 0.0 0.01 0.0 -5.27131614291389e-13 0.0 0.010006213285944792 0.010010236396146158 0.0 -2.365245174951261e-13 0.0 0.01 0.0 -2.365245174951261e-13 0.0 0.010005399369833138 0.010010070842879058 0.0 -9.318320219988567e-14 0.0 0.01 0.0 -9.318320219988567e-14 0.0 0.010004673173743013 0.010009958706647011 0.0 -3.1956800662821246e-14 0.0 0.01 0.0 -3.1956800662821246e-14 0.0 0.010004086002949362 0.010009892108736587 0.0 -7.092381478846387e-15 0.0 0.01 0.0 -7.092381478846387e-15 0.0 0.010003703206045026 0.010010843762610909 0.0 -8.786723295177984e-14 0.0 0.01 0.0 -8.786723295136625e-14 0.0 0.01001054646074483 0.010010471023418384 0.0 -2.0287560259088712e-13 0.0 0.01 0.0 -2.0287560259088712e-13 0.0 0.01000933044234645 0.010010109058323594 0.0 -2.274760025593734e-13 0.0 0.01 0.0 -2.2747600255916663e-13 0.0 0.010008174061380024 0.010009785845696903 0.0 -1.732449750809678e-13 0.0 0.01 0.0 -1.732449750808644e-13 0.0 0.010007160533650012 0.010009514060398501 0.0 -1.0416435665135922e-13 0.0 0.01 0.0 -1.0416435665130753e-13 0.0 0.010006267136631 0.010009298102146904 0.0 -5.4855540789856713e-14 0.0 0.01 0.0 -5.4855540789856713e-14 0.0 0.010005453207379528 0.010009139464220005 0.0 -2.664200694681699e-14 0.0 0.01 0.0 -2.664200694681699e-14 0.0 0.010004724546092449 0.010009030267147726 0.0 -1.0947309676561688e-14 0.0 0.01 0.0 -1.0947309676561688e-14 0.0 0.01000413486315084 0.010008966144361768 0.0 -2.7298623698372447e-15 0.0 0.01 0.0 -2.7298623698372447e-15 0.0 0.010003749157373669 0.0100097878014278 0.0 6.521636070452402e-13 0.0 0.01 0.0 6.521636070452402e-13 0.0 0.010010437217616693 0.010009442056047564 0.0 6.780646401061285e-13 0.0 0.01 0.0 6.780646400995111e-13 0.0 0.010009236431007335 0.010009105671906682 0.0 3.7407596971264785e-13 0.0 0.01 0.0 3.7407596971347503e-13 0.0 0.010008098677674142 0.010008803110584497 0.0 1.710847547535473e-13 0.0 0.01 0.0 1.710847547539609e-13 0.0 0.01000710521544534 0.010008549050456535 0.0 7.800815880125678e-14 0.0 0.01 0.0 7.800815880120508e-14 0.0 0.010006225558815387 0.010008347841345772 0.0 4.125465334136328e-14 0.0 0.01 0.0 4.125465334136328e-14 0.0 0.010005422857920925 0.010008198571475824 0.0 2.3388964203140416e-14 0.0 0.01 0.0 2.3388964203140416e-14 0.0 0.010004702514968482 0.010008095269408537 0.0 1.0817931666689372e-14 0.0 0.01 0.0 1.0817931666689372e-14 0.0 0.010004117291418077 0.01000803652749564 0.0 2.8777565281138346e-15 0.0 0.01 0.0 2.8777565281138346e-15 0.0 0.010003734490922197 0.01000879478865583 0.0 7.25608901773335e-13 0.0 0.01 0.0 7.25608901773335e-13 0.0 0.010010222704213282 0.010008471202044393 0.0 9.41011835924423e-13 0.0 0.01 0.0 9.410118359277317e-13 0.0 0.01000904300160843 0.010008156919456845 0.0 3.8735868138648634e-13 0.0 0.01 0.0 3.8735868138648634e-13 0.0 0.010007932278183324 0.010007875994932879 0.0 9.368639738156474e-14 0.0 0.01 0.0 9.368639738156474e-14 0.0 0.010006960861298797 0.010007640597897981 0.0 2.049268546142871e-14 0.0 0.01 0.0 2.049268546142871e-14 0.0 0.010006103232874354 0.010007455128562036 0.0 2.2632244070222858e-14 0.0 0.01 0.0 2.2632244070222858e-14 0.0 0.010005319691859372 0.010007317123215766 0.0 2.4749311399028943e-14 0.0 0.01 0.0 2.4749311399028943e-14 0.0 0.010004615493451647 0.010007221665341789 0.0 1.6365069385156006e-14 0.0 0.01 0.0 1.6365069385156006e-14 0.0 0.01000404249995031 0.010007167849350835 0.0 5.034379774302855e-15 0.0 0.01 0.0 5.034379774302855e-15 0.0 0.010003667566670591 0.010007781022233271 0.0 6.011661125863553e-13 0.0 0.01 0.0 6.011661125867689e-13 0.0 0.010009907303775307 0.010007469310262798 0.0 1.1280160566863436e-12 0.0 0.01 0.0 1.128016056687998e-12 0.0 0.01000875809220591 0.010007172258822099 0.0 3.0265644499646386e-13 0.0 0.01 0.0 3.026564449956367e-13 0.0 0.010007680238858488 0.01000691241061308 0.0 -7.409182128606768e-14 0.0 0.01 0.0 -7.409182128606768e-14 0.0 0.010006741661376708 0.010006695217894027 0.0 -9.728815006035028e-14 0.0 0.01 0.0 -9.728815006035028e-14 0.0 0.010005912489499141 0.010006522976837597 0.0 -2.383338293571618e-14 0.0 0.01 0.0 -2.383338293571618e-14 0.0 0.01000515388163816 0.010006396732497327 0.0 2.0698256764105782e-14 0.0 0.01 0.0 2.0698256764105782e-14 0.0 0.010004473199638122 0.010006309165817155 0.0 2.0819962651772986e-14 0.0 0.01 0.0 2.0819962651772986e-14 0.0 0.010003918802348744 0.010006258821026414 0.0 6.765190968110652e-15 0.0 0.01 0.0 6.765190968110652e-15 0.0 0.01000355709704115 0.010006605188518572 0.0 8.921138678134897e-13 0.0 0.01 0.0 8.921138678130761e-13 0.0 0.010009490042061373 0.010006299397365503 0.0 1.7924311111816196e-12 0.0 0.01 0.0 1.792431111183274e-12 0.0 0.010008384533283378 0.010006017126517908 0.0 5.333641167913371e-13 0.0 0.01 0.0 5.333641167905099e-13 0.0 0.010007350847306657 0.010005774998742355 0.0 -3.5045150921878216e-14 0.0 0.01 0.0 -3.5045150921878216e-14 0.0 0.010006453040890522 0.010005576461071914 0.0 -8.973235876009351e-14 0.0 0.01 0.0 -8.973235876174787e-14 0.0 0.010005660552653525 0.010005420904747403 0.0 -6.232142243216894e-16 0.0 0.01 0.0 -6.232142243216894e-16 0.0 0.010004934299695767 0.010005306470808389 0.0 4.8752173240073295e-14 0.0 0.01 0.0 4.8752173240073295e-14 0.0 0.01000428204882185 0.010005226244191163 0.0 3.555244241791103e-14 0.0 0.01 0.0 3.555244241796273e-14 0.0 0.010003754062890606 0.010005180773282489 0.0 1.154348292446959e-14 0.0 0.01 0.0 1.154348292446959e-14 0.0 0.010003408992392373 0.010005208165925254 0.0 2.120819266081439e-12 0.0 0.01 0.0 2.120819266081439e-12 0.0 0.010008981836532475 0.010004905457167102 0.0 3.0648837106242935e-12 0.0 0.01 0.0 3.064883710625948e-12 0.0 0.010007929321158997 0.010004640428038513 0.0 1.1896297654089716e-12 0.0 0.01 0.0 1.1896297654097988e-12 0.0 0.010006951090938406 0.010004419928639399 0.0 2.830212445727796e-13 0.0 0.01 0.0 2.830212445727796e-13 0.0 0.010006104685531198 0.010004243399438461 0.0 9.134297887468887e-14 0.0 0.01 0.0 9.134297887468887e-14 0.0 0.010005354898171193 0.010004107028767986 0.0 1.1589422671745257e-13 0.0 0.01 0.0 1.1589422671786616e-13 0.0 0.010004670269676713 0.010004006806889315 0.0 1.1601367269061081e-13 0.0 0.01 0.0 1.160136726873021e-13 0.0 0.010004055215382704 0.010003937874808026 0.0 6.86923639894812e-14 0.0 0.01 0.0 6.869236398989479e-14 0.0 0.010003558048055425 0.01000389777771689 0.0 1.8815586127526814e-14 0.0 0.01 0.0 1.8815586127423416e-14 0.0 0.010003231065293078 0.010003670469863812 0.0 3.853934412317535e-12 0.0 0.01 0.0 3.853934412314226e-12 0.0 0.010008394859229297 0.010003376209048764 0.0 4.336094148465622e-12 0.0 0.01 0.0 4.336094148463968e-12 0.0 0.010007408625033411 0.010003134272934467 0.0 1.8744786802802916e-12 0.0 0.01 0.0 1.8744786802802916e-12 0.0 0.010006495573394216 0.010002943198853207 0.0 6.611311734340165e-13 0.0 0.01 0.0 6.61131173433603e-13 0.0 0.01000570753267347 0.010002797073105186 0.0 3.119209939791469e-13 0.0 0.01 0.0 3.119209939789401e-13 0.0 0.010005011564851531 0.0100026875830773 0.0 2.3759990144065586e-13 0.0 0.01 0.0 2.3759990144024227e-13 0.0 0.010004374919314057 0.010002608420223581 0.0 1.699036894430594e-13 0.0 0.01 0.0 1.69903689443473e-13 0.0 0.010003800515490335 0.01000255417824082 0.0 8.828975159288458e-14 0.0 0.01 0.0 8.828975159288458e-14 0.0 0.010003337620213012 0.010002524405571886 0.0 2.305889712954946e-14 0.0 0.01 0.0 2.3058897129446062e-14 0.0 0.010003035081198732 0.010002172107502745 0.0 4.703512168217729e-12 0.0 0.01 0.0 4.703512168216075e-12 0.0 0.01000775365856933 0.010001894588283738 0.0 4.520943812628834e-12 0.0 0.01 0.0 4.520943812628834e-12 0.0 0.010006840512495443 0.01000168497577585 0.0 1.9727361292318456e-12 0.0 0.01 0.0 1.9727361292318456e-12 0.0 0.010006000997476696 0.010001530601339369 0.0 7.722822501372458e-13 0.0 0.01 0.0 7.722822501376594e-13 0.0 0.010005278576565947 0.010001421202915261 0.0 3.922652533822692e-13 0.0 0.01 0.0 3.922652533820624e-13 0.0 0.010004638976019312 0.010001343020507173 0.0 2.6592515805475955e-13 0.0 0.01 0.0 2.6592515805517314e-13 0.0 0.010004055215382706 0.010001289299301046 0.0 1.708848773425809e-13 0.0 0.01 0.0 1.708848773426843e-13 0.0 0.010003528216368593 0.010001254135889079 0.0 7.579607944598462e-14 0.0 0.01 0.0 7.579607944598462e-14 0.0 0.010003102493222601 0.010001233128053224 0.0 1.799165111264774e-14 0.0 0.01 0.0 1.799165111264774e-14 0.0 0.010002825897403247 0.01000089366978258 0.0 3.585949510090636e-12 0.0 0.01 0.0 3.585949510090636e-12 0.0 0.010007090033163735 0.010000636310728549 0.0 3.1071419179328984e-12 0.0 0.01 0.0 3.1071419179328984e-12 0.0 0.010006252909946604 0.010000460481804573 0.0 1.3028039646961653e-12 0.0 0.01 0.0 1.3028039646961653e-12 0.0 0.010005489867489887 0.010000346217979203 0.0 5.336243233082682e-13 0.0 0.01 0.0 5.336243233082682e-13 0.0 0.01000483210012359 0.010000273461216748 0.0 2.888653060561195e-13 0.0 0.01 0.0 2.8886530605591273e-13 0.0 0.010004254663785036 0.010000228507832136 0.0 1.9489980521901145e-13 0.0 0.01 0.0 1.9489980521911485e-13 0.0 0.010003724730009017 0.010000199205952291 0.0 1.0895879636192404e-13 0.0 0.01 0.0 1.0895879636192404e-13 0.0 0.01000324863235641 0.010000182154976948 0.0 4.4427975266890234e-14 0.0 0.01 0.0 4.4427975266890234e-14 0.0 0.010002861577825671 0.010000173854533705 0.0 9.436808585830805e-15 0.0 0.01 0.0 9.436808585830805e-15 0.0 0.010002612373317706 0.009999937500585934 0.0 1.3083223018441191e-12 0.0 0.01 0.0 1.3083223018441191e-12 0.0 0.010006429545546832 0.00999969351409062 0.0 9.217308076482792e-13 0.0 0.01 0.0 9.217308076482792e-13 0.0 0.010005667915150238 0.009999546030915062 0.0 3.110155273190015e-13 0.0 0.01 0.0 3.110155273188981e-13 0.0 0.010004976862910743 0.009999463043251479 0.0 1.581245743397838e-13 0.0 0.01 0.0 1.581245743397838e-13 0.0 0.010004386184104893 0.009999420550368177 0.0 1.1510498415985987e-13 0.0 0.01 0.0 1.1510498415980817e-13 0.0 0.01000386944473223 0.0099994000539946 0.0 7.617523869406496e-14 0.0 0.01 0.0 7.617523869401326e-14 0.0 0.010003393826927706 0.009999392555352832 0.0 3.089229395047941e-14 0.0 0.01 0.0 3.089229395047941e-14 0.0 0.010002968120938512 0.009999391055626503 0.0 5.424308402807876e-15 0.0 0.01 0.0 5.424308402807876e-15 0.0 0.010002624582903847 0.009999390055809326 0.0 -2.141967742442269e-15 0.0 0.01 0.0 -2.141967742442269e-15 0.0 0.010002401264633943 0.009999308571717573 0.0 1.5449407950600105e-12 0.0 0.01 0.0 1.544940795060424e-12 0.0 0.01000580630306115 0.009999071629296828 0.0 -3.0945738214577206e-13 0.0 0.01 0.0 -3.0945738214566866e-13 0.0 0.010005111816931051 0.009998936169784292 0.0 -4.2510728302087236e-14 0.0 0.01 0.0 -4.2510728302087236e-14 0.0 0.010004485916712883 0.009998870691329521 0.0 6.624143961532211e-14 0.0 0.01 0.0 6.624143961532211e-14 0.0 0.010003955445595389 0.009998847199373037 0.0 2.1389552507591075e-14 0.0 0.01 0.0 2.1389552507591075e-14 0.0 0.010003493529860252 0.009998843200758637 0.0 -3.1627762726428837e-14 0.0 0.01 0.0 -3.1627762726428837e-14 0.0 0.01000307321611831 0.00999884819902739 0.0 -4.8023385340529464e-14 0.0 0.01 0.0 -4.8023385340529464e-14 0.0 0.010002698842169339 0.00999885469678797 0.0 -3.610785513236601e-14 0.0 0.01 0.0 -3.610785513236601e-14 0.0 0.01000239586074734 0.009998860194902967 0.0 -1.032101300735664e-14 0.0 0.01 0.0 -1.032101300735664e-14 0.0 0.010002198975111128 0.009998958662680113 0.0 2.8393741360104063e-10 0.0 0.01 0.0 2.839374136011465e-10 0.0 0.010005244372633783 0.009998717246860567 0.0 8.906347820510812e-12 0.0 0.01 0.0 8.906347820510812e-12 0.0 0.010004605729959393 0.009998580802175546 0.0 1.101745814438458e-12 0.0 0.01 0.0 1.101745814438458e-12 0.0 0.010004034690496178 0.009998517829589505 0.0 6.141239498964175e-13 0.0 0.01 0.0 6.141239498964175e-13 0.0 0.01000355414389331 0.009998496339217372 0.0 1.1267046105260198e-13 0.0 0.01 0.0 1.1267046105255028e-13 0.0 0.010003138677075913 0.009998494839894257 0.0 -1.0971742979045596e-13 0.0 0.01 0.0 -1.0971742979045596e-13 0.0 0.010002768249056302 0.00999850433561872 0.0 -1.3061055548384143e-13 0.0 0.01 0.0 -1.3061055548394483e-13 0.0 0.010002441343732956 0.009998515330701903 0.0 -7.574673736231854e-14 0.0 0.01 0.0 -7.574673736226685e-14 0.0 0.01000217891194175 0.009998523826927386 0.0 -2.0286054758659244e-14 0.0 0.01 0.0 -2.0286054758659244e-14 0.0 0.010002009405494339 0.00999880971255201 0.0 2.0766259791842373e-09 0.0 0.01 0.0 2.0766259791842373e-09 0.0 0.010004766105200439 0.009998568807305526 0.0 1.777225321631538e-10 0.0 0.01 0.0 1.777225321631538e-10 0.0 0.010004168605142303 0.009998414377209698 0.0 4.3999835128722995e-12 0.0 0.01 0.0 4.399983512868991e-12 0.0 0.010003634780784715 0.009998336914969791 0.0 2.1133486624981034e-12 0.0 0.01 0.0 2.1133486624981034e-12 0.0 0.01000318952531207 0.009998304931086223 0.0 4.792696042999946e-13 0.0 0.01 0.0 4.792696042997878e-13 0.0 0.010002813186657761 0.009998299433887145 0.0 -1.6090519900985998e-13 0.0 0.01 0.0 -1.6090519900991168e-13 0.0 0.010002485276182742 0.009998304931086223 0.0 -2.37582067324906e-13 0.0 0.01 0.0 -2.37582067324906e-13 0.0 0.01000220187702592 0.00999831392652245 0.0 -1.3340336116862386e-13 0.0 0.01 0.0 -1.3340336116862386e-13 0.0 0.01000197568534569 0.009998319923493428 0.0 -3.669724654683645e-14 0.0 0.01 0.0 -3.669724654683645e-14 0.0 0.01000183255361486 0.009998795217769633 0.0 8.00951452385024e-09 0.0 0.01 0.0 8.00951452385024e-09 0.0 0.010004379325104009 0.0099985683075204 0.0 1.1498696675443711e-09 0.0 0.01 0.0 1.1498696675443711e-09 0.0 0.010003809776053828 0.009998394886541107 0.0 2.6617060024451656e-11 0.0 0.01 0.0 2.6617060024451656e-11 0.0 0.010003298981774336 0.009998288439516194 0.0 5.0536917981481654e-12 0.0 0.01 0.0 5.05369179814982e-12 0.0 0.010002872337074259 0.009998234967411007 0.0 1.4216250025616566e-12 0.0 0.01 0.0 1.4216250025616566e-12 0.0 0.010002520952960257 0.009998212479398746 0.0 -6.640684558371312e-14 0.0 0.01 0.0 -6.640684558371312e-14 0.0 0.010002226343270016 0.009998207981814498 0.0 -3.354690176805306e-13 0.0 0.01 0.0 -3.354690176805306e-13 0.0 0.010001981538818842 0.009998209481008572 0.0 -2.0770778763201494e-13 0.0 0.01 0.0 -2.0770778763201494e-13 0.0 0.010001791031053957 0.009998213478862733 0.0 -5.651688649913293e-14 0.0 0.01 0.0 -5.651688649913293e-14 0.0 0.010001670318401355 0.009998871191235069 0.0 2.235074227590852e-08 0.0 0.01 0.0 2.235074227590852e-08 0.0 0.010004082098244023 0.009998683260119911 0.0 4.939189865330883e-09 0.0 0.01 0.0 4.939189865330883e-09 0.0 0.010003537025701666 0.009998498838090751 0.0 3.6456885487015754e-10 0.0 0.01 0.0 3.645688548703693e-10 0.0 0.010003035581654187 0.009998357404806502 0.0 1.012916758110724e-11 0.0 0.01 0.0 1.0129167581110548e-11 0.0 0.010002612823670499 0.009998268449843747 0.0 3.64333194764426e-12 0.0 0.01 0.0 3.64333194764426e-12 0.0 0.010002272274249966 0.009998221474585439 0.0 5.689680881836602e-13 0.0 0.01 0.0 5.68968088183867e-13 0.0 0.010001999149329952 0.009998199986124164 0.0 -2.6498483110267876e-13 0.0 0.01 0.0 -2.6498483110257536e-13 0.0 0.010001781726069072 0.009998190990995465 0.0 -2.4163432789945195e-13 0.0 0.01 0.0 -2.4163432789945195e-13 0.0 0.010001620493814941 0.009998187992624627 0.0 -7.243594111812084e-14 0.0 0.01 0.0 -7.243594111809499e-14 0.0 0.010001518895986683 0.009999007648111728 0.0 5.019536001477402e-08 0.0 0.01 0.0 5.019536001477402e-08 0.0 0.010003854778129725 0.009998890684651048 0.0 1.5634748212872674e-08 0.0 0.01 0.0 1.563474821287945e-08 0.0 0.010003339572203417 0.009998720245708585 0.0 2.584582203273467e-09 0.0 0.01 0.0 2.584582203273467e-09 0.0 0.010002846915278677 0.009998546816822591 0.0 1.3723418629491597e-10 0.0 0.01 0.0 1.3723418629486303e-10 0.0 0.010002419828051872 0.009998414377209696 0.0 8.089796192836357e-12 0.0 0.01 0.0 8.089796192836357e-12 0.0 0.010002075345880353 0.00999832991846903 0.0 2.5058576222465696e-12 0.0 0.01 0.0 2.505857622247397e-12 0.0 0.010001808090260363 0.009998280443632827 0.0 3.7304955297589096e-13 0.0 0.01 0.0 3.7304955297589096e-13 0.0 0.010001608287905315 0.009998254457144376 0.0 -8.623730515790319e-14 0.0 0.01 0.0 -8.623730515790319e-14 0.0 0.010001465672166279 0.009998242963185267 0.0 -4.908679753478722e-14 0.0 0.01 0.0 -4.908679753478722e-14 0.0 0.010001379685477287 0.009999180602116256 0.0 9.63914036339439e-08 0.0 0.01 0.0 9.6391403633971e-08 0.0 0.010003679280963067 0.009999159606191403 0.0 4.002622693890774e-08 0.0 0.01 0.0 4.002622693890774e-08 0.0 0.010003202688165111 0.009999035139680213 0.0 1.1234570763702517e-08 0.0 0.01 0.0 1.1234570763695741e-08 0.0 0.010002726714859687 0.009998858695416646 0.0 1.7979185753640644e-09 0.0 0.01 0.0 1.7979185753649114e-09 0.0 0.010002294739633379 0.009998687258538778 0.0 1.2035580515970915e-10 0.0 0.01 0.0 1.203558051596562e-10 0.0 0.010001939063849514 0.009998554813345049 0.0 6.5569618324794004e-12 0.0 0.01 0.0 6.5569618324794004e-12 0.0 0.010001665465974164 0.009998467852193483 0.0 2.1841045707136027e-12 0.0 0.01 0.0 2.1841045707136027e-12 0.0 0.010001466122364201 0.009998415876496615 0.0 5.257794678726608e-13 0.0 0.01 0.0 5.257794678722472e-13 0.0 0.010001332316212684 0.009998388389676913 0.0 7.28527954167716e-14 0.0 0.01 0.0 7.28527954167716e-14 0.0 0.010001254135889082 0.00999936106516591 0.0 1.6178609235943317e-07 0.0 0.01 0.0 1.6178609235943317e-07 0.0 0.010003526768760599 0.009999448046789051 0.0 8.517133897177512e-08 0.0 0.01 0.0 8.517133897174801e-08 0.0 0.010003097639798925 0.009999406553010405 0.0 3.4579241177531365e-08 0.0 0.01 0.0 3.4579241177531365e-08 0.0 0.010002654356646726 0.009999266580709328 0.0 1.0282412816908933e-08 0.0 0.01 0.0 1.0282412816902157e-08 0.0 0.010002231196529458 0.00999909062406039 0.0 2.0978623911958394e-09 0.0 0.01 0.0 2.0978623911949924e-09 0.0 0.010001865271756701 0.009998924673473956 0.0 2.5579778561064814e-10 0.0 0.01 0.0 2.5579778561064814e-10 0.0 0.010001578473658231 0.009998796217398775 0.0 1.5448390693683223e-11 0.0 0.01 0.0 1.5448390693683223e-11 0.0 0.010001370881846038 0.009998708750141997 0.0 1.9037677203384212e-12 0.0 0.01 0.0 1.9037677203384212e-12 0.0 0.010001232177701878 0.009998661768677404 0.0 3.89745386633976e-13 0.0 0.01 0.0 3.89745386633976e-13 0.0 0.010001153049397783 0.009999544039759492 0.0 2.391020139580133e-07 0.0 0.01 0.0 2.391020139580133e-07 0.0 0.010003389931534826 0.009999710516045958 0.0 1.5223766079843848e-07 0.0 0.01 0.0 1.5223766079838427e-07 0.0 0.010003000853701986 0.00999977750839772 0.0 8.051504575502712e-08 0.0 0.01 0.0 8.051504575502712e-08 0.0 0.010002603067012783 0.009999722011774084 0.0 3.484033217113734e-08 0.0 0.01 0.0 3.484033217113734e-08 0.0 0.010002207781111426 0.009999589025358807 0.0 1.2219695942203496e-08 0.0 0.01 0.0 1.2219695942203496e-08 0.0 0.01000184916280642 0.00999942954881764 0.0 3.4102370197693402e-09 0.0 0.01 0.0 3.4102370197693402e-09 0.0 0.010001553561959982 0.009999286576353331 0.0 6.988491009775571e-10 0.0 0.01 0.0 6.988491009775571e-10 0.0 0.010001330815613472 0.009999177601462031 0.0 9.549432960685109e-11 0.0 0.01 0.0 9.549432960685109e-11 0.0 0.010001178908441008 0.009999111118530588 0.0 4.413751802945967e-12 0.0 0.01 0.0 4.413751802942658e-12 0.0 0.010001092929148013 0.009999830519170812 0.0 3.1483351778589016e-07 0.0 0.01 0.0 3.1483351778589016e-07 0.0 0.010003300948575438 0.00999994100852034 0.0 2.309591285385706e-07 0.0 0.01 0.0 2.3095912853867903e-07 0.0 0.01000291092852777 0.010000092754585486 0.0 1.4823835088151154e-07 0.0 0.01 0.0 1.4823835088151154e-07 0.0 0.010002550778933061 0.010000156754700881 0.0 8.2279634555627e-08 0.0 0.01 0.0 8.2279634555627e-08 0.0 0.01000219847579679 0.010000119152360197 0.0 3.9217909419991164e-08 0.0 0.01 0.0 3.9217909419991164e-08 0.0 0.010001866222518595 0.010000020500100744 0.0 1.5856898414251053e-08 0.0 0.01 0.0 1.5856898414251053e-08 0.0 0.010001578473695935 0.00999990550134358 0.0 5.205713200255786e-09 0.0 0.01 0.0 5.205713200255786e-09 0.0 0.010001349373076087 0.009999805005703808 0.0 1.2681921416011615e-09 0.0 0.01 0.0 1.2681921415994674e-09 0.0 0.01000118576087123 0.009999739010217713 0.0 1.6849856856566305e-10 0.0 0.01 0.0 1.6849856856566305e-10 0.0 0.010001087577397968 0.010000412644783605 0.0 3.5827540191156124e-07 0.0 0.01 0.0 3.5827540191156124e-07 0.0 0.010003280432716378 0.010000295427091173 0.0 3.05576949384892e-07 0.0 0.01 0.0 3.0557694938510883e-07 0.0 0.010002878706561072 0.010000366227603438 0.0 2.234466436096174e-07 0.0 0.01 0.0 2.234466436096174e-07 0.0 0.010002514155312682 0.01000050494141446 0.0 1.4545364251396763e-07 0.0 0.01 0.0 1.4545364251407605e-07 0.0 0.010002188721537101 0.010000592803759338 0.0 8.372530466160561e-08 0.0 0.01 0.0 8.372530466149719e-08 0.0 0.010001896540444324 0.010000602104634273 0.0 4.157226055940969e-08 0.0 0.01 0.0 4.157226055940969e-08 0.0 0.01000163615172039 0.010000562047424975 0.0 1.7116785383741945e-08 0.0 0.01 0.0 1.711678538376905e-08 0.0 0.010001418251702565 0.010000507338610626 0.0 5.398074171157814e-09 0.0 0.01 0.0 5.398074171157814e-09 0.0 0.010001251234803476 0.010000462932144091 0.0 9.992572913664435e-10 0.0 0.01 0.0 9.992572913647494e-10 0.0 0.010001147147362024 0.010001293213045862 0.0 2.8564185976676787e-07 0.0 0.01 0.0 2.8564185976676787e-07 0.0 0.010003286781956361 0.010001040729500924 0.0 3.3731422565872436e-07 0.0 0.01 0.0 3.373142256585075e-07 0.0 0.010002908035060057 0.010000866824983247 0.0 2.863035398449013e-07 0.0 0.01 0.0 2.863035398446845e-07 0.0 0.010002547835675005 0.010000850214817978 0.0 2.0662103592016326e-07 0.0 0.01 0.0 2.0662103592016326e-07 0.0 0.01000222780064259 0.010000953238890699 0.0 1.319015990866243e-07 0.0 0.01 0.0 1.3190159908640746e-07 0.0 0.010001951273579753 0.010001064120643062 0.0 7.369595154418061e-08 0.0 0.01 0.0 7.369595154418061e-08 0.0 0.010001715792304659 0.010001130091716513 0.0 3.4580822367517167e-08 0.0 0.01 0.0 3.458082236762559e-08 0.0 0.010001518395938205 0.010001152049075646 0.0 1.2562043366897563e-08 0.0 0.01 0.0 1.2562043366897563e-08 0.0 0.010001364029059202 0.010001153999727624 0.0 2.647297971548196e-09 0.0 0.01 0.0 2.647297971575301e-09 0.0 0.010001262939213086 0.010001836956037746 0.0 1.946980526269714e-09 0.0 0.01 0.0 1.94698052626802e-09 0.0 0.010003250584258617 0.010001855023350185 0.0 2.208707996279296e-07 0.0 0.01 0.0 2.208707996279296e-07 0.0 0.010002963724338837 0.010001775384520468 0.0 2.8099342654639217e-07 0.0 0.01 0.0 2.8099342654639217e-07 0.0 0.010002632901292947 0.010001634709663592 0.0 2.4380655519115613e-07 0.0 0.01 0.0 2.4380655519072245e-07 0.0 0.010002331373951078 0.010001515498804682 0.0 1.706216127216574e-07 0.0 0.01 0.0 1.706216127216574e-07 0.0 0.010002070447198745 0.010001497387785338 0.0 1.0092680745614133e-07 0.0 0.01 0.0 1.0092680745614133e-07 0.0 0.010001845262150104 0.010001550160751148 0.0 5.0074580563216203e-08 0.0 0.01 0.0 5.0074580563216203e-08 0.0 0.010001656161715786 0.010001614641031938 0.0 1.9373190735449616e-08 0.0 0.01 0.0 1.9373190735449616e-08 0.0 0.010001512042928208 0.010001656661591021 0.0 4.316431996147273e-09 0.0 0.01 0.0 4.316431996147273e-09 0.0 0.010001416801044705 0.010001916552034725 0.0 -8.947338131645114e-08 0.0 0.01 0.0 -8.947338131634272e-08 0.0 0.010002982785220153 0.010002260067664453 0.0 1.0680361285783299e-07 0.0 0.01 0.0 1.0680361285783299e-07 0.0 0.010002752137431582 0.0100024765246156 0.0 1.816235416758974e-07 0.0 0.01 0.0 1.816235416758974e-07 0.0 0.010002487732957616 0.010002535167785575 0.0 1.6439651884464848e-07 0.0 0.01 0.0 1.643965188442148e-07 0.0 0.010002227297957661 0.010002513148863633 0.0 1.0939480515111816e-07 0.0 0.01 0.0 1.0939480515111816e-07 0.0 0.010001997650225096 0.010002486277413755 0.0 5.6872508285795743e-08 0.0 0.01 0.0 5.6872508285904164e-08 0.0 0.010001811542618906 0.010002487277750261 0.0 2.2419291405111064e-08 0.0 0.01 0.0 2.2419291405056854e-08 0.0 0.010001672769705514 0.01000249753534477 0.0 5.052659393072064e-09 0.0 0.01 0.0 5.0526593930788405e-09 0.0 0.010001584376461616 0.010002225843176562 0.0 -4.005062611384894e-08 0.0 0.01 0.0 -4.005062611374052e-08 0.0 0.010002700793989716 0.010002741377138608 0.0 4.308946662196292e-08 0.0 0.01 0.0 4.308946662217976e-08 0.0 0.010002466262345789 0.010003115205544526 0.0 5.619103672735871e-08 0.0 0.01 0.0 5.619103672746713e-08 0.0 0.010002196523968878 0.010003429964086874 0.0 3.6125726597614673e-08 0.0 0.01 0.0 3.612572659756046e-08 0.0 0.010001977136401283 0.010003628423899017 0.0 1.528119831768846e-08 0.0 0.01 0.0 1.528119831767491e-08 0.0 0.010001832053374973 0.010003742800236764 0.0 3.516409279226705e-09 0.0 0.01 0.0 3.516409279226705e-09 0.0 0.010001747057726837 0.010002138386614295 0.0 -7.771847966358755e-08 0.0 0.01 0.0 -7.771847966315387e-08 0.0 0.01000247652057461 0.010002666115935003 0.0 -2.420234996338951e-08 0.0 0.01 0.0 -2.420234996344372e-08 0.0 0.010002167704725683 0.010003095686902918 0.0 -5.42648076899189e-09 0.0 0.01 0.0 -5.42648076899189e-09 0.0 0.010001982989685715 0.010003351283913206 0.0 -7.444554975961283e-10 0.0 0.01 0.0 -7.444554975952813e-10 0.0 0.010001891136324334 0.009999967500158436 0.0 -1.1050299230682643e-17 0.0 0.01 0.0 -1.1050299230682643e-17 0.0 0.01 0.009999967500158436 0.0 -3.960147846122816e-13 0.0 0.01 0.0 -3.960147846122816e-13 0.0 0.01 0.009999967500158436 0.0 -3.9826258461226395e-13 0.0 0.01 0.0 -3.9826258461226395e-13 0.0 0.01 0.009999968000153599 0.0 3.6442217187326e-13 0.0 0.01 0.0 3.6442217187326e-13 0.0 0.01 0.009999968500148837 0.0 2.417113029139373e-18 0.0 0.01 0.0 2.417113029139373e-18 0.0 0.01 0.009999968500148837 0.0 -1.38008916274787e-14 0.0 0.01 0.0 -1.38008916274787e-14 0.0 0.010000000500000038 0.00999996900014415 0.0 2.7166723212752595e-18 0.0 0.01 0.0 2.7166723212752595e-18 0.0 0.010000000500000038 0.009999969500139537 0.0 8.707078318447677e-17 0.0 0.01 0.0 8.707078318447677e-17 0.0 0.010000000500000038 0.00999996000024 0.0 -7.871467750007159e-19 0.0 0.01 0.0 -7.871467750007159e-19 0.0 0.01 0.00999996000024 0.0 3.1378682727778823e-18 0.0 0.01 0.0 3.1378682727778823e-18 0.0 0.01 0.00999996000024 0.0 6.061338632024175e-18 0.0 0.01 0.0 6.061338632024175e-18 0.0 0.01 0.00999996000024 0.0 9.035101967019874e-18 0.0 0.01 0.0 9.035101967019874e-18 0.0 0.010000000500000038 0.00999996000024 0.0 7.326857088317393e-18 0.0 0.01 0.0 7.326857088317393e-18 0.0 0.010000000500000038 0.009999960500234035 0.0 9.854303591749145e-18 0.0 0.01 0.0 9.854303591749145e-18 0.0 0.01000000100000015 0.009999961000228147 0.0 1.8567165167602514e-17 0.0 0.01 0.0 1.8567165167602514e-17 0.0 0.01000000100000015 0.009999961500222337 0.0 4.9997415764764455e-17 0.0 0.01 0.0 4.9997415764764455e-17 0.0 0.01000000100000015 0.009999951000360146 0.0 8.456008806625162e-19 0.0 0.01 0.0 8.456008806625162e-19 0.0 0.010000000500000038 0.009999951000360146 0.0 -3.178924502375433e-14 0.0 0.01 0.0 -3.178924502375433e-14 0.0 0.010000000500000038 0.009999951000360146 0.0 3.7116619478213394e-18 0.0 0.01 0.0 3.7116619478213394e-18 0.0 0.010000000500000038 0.009999951000360146 0.0 3.2939490336534562e-18 0.0 0.01 0.0 3.2939490336534562e-18 0.0 0.01000000100000015 0.009999951000360146 0.0 1.0063021046391902e-17 0.0 0.01 0.0 1.0063021046391902e-17 0.0 0.01000000100000015 0.009999951000360146 0.0 5.559473847152492e-18 0.0 0.01 0.0 5.559473847152492e-18 0.0 0.010000001450000314 0.009999952000345596 0.0 -5.3825244166078174e-18 0.0 0.01 0.0 -5.3825244166078174e-18 0.0 0.010000001450000314 0.009999952000345596 0.0 2.6999803973780986e-17 0.0 0.01 0.0 2.6999803973780986e-17 0.0 0.010000001450000314 0.009999940500531032 0.0 -1.6013133832585543e-18 0.0 0.01 0.0 -1.6013133832585543e-18 0.0 0.01000000100000015 0.009999940500531032 0.0 1.4789789908608402e-13 0.0 0.01 0.0 1.4789789908608402e-13 0.0 0.01000000100000015 0.009999940500531032 0.0 2.5425620724169393e-13 0.0 0.01 0.0 2.5425620724169393e-13 0.0 0.01000000100000015 0.009999941000522145 0.0 2.120162590303898e-13 0.0 0.01 0.0 2.120162590303898e-13 0.0 0.010000001450000314 0.009999941000522145 0.0 -4.344757453815086e-14 0.0 0.01 0.0 -4.344757453815086e-14 0.0 0.010000001450000314 0.009999941000522145 0.0 -3.8121264418018346e-18 0.0 0.01 0.0 -3.8121264418018346e-18 0.0 0.010000001450000314 0.009999941000522145 0.0 -5.42423158212999e-18 0.0 0.01 0.0 -5.42423158212999e-18 0.0 0.01000000195000057 0.009999941000522145 0.0 -1.1619370938840811e-17 0.0 0.01 0.0 -1.1619370938840811e-17 0.0 0.0100000024500009 0.009999926500810328 0.0 7.037053055131831e-19 0.0 0.01 0.0 7.037053055131831e-19 0.0 0.010000001450000314 0.009999926500810328 0.0 1.3077165338612702e-13 0.0 0.01 0.0 1.3077165338612702e-13 0.0 0.010000001450000314 0.009999926500810328 0.0 5.632466127075162e-18 0.0 0.01 0.0 5.632466127075162e-18 0.0 0.010000001450000314 0.009999926500810328 0.0 5.213778652074998e-18 0.0 0.01 0.0 5.213778652074998e-18 0.0 0.010000001450000314 0.009999926500810328 0.0 1.5907011277676635e-17 0.0 0.01 0.0 1.5907011277676635e-17 0.0 0.01000000195000057 0.009999926000821389 0.0 4.4940201808655575e-18 0.0 0.01 0.0 4.4940201808655575e-18 0.0 0.01000000195000057 0.009999926500810328 0.0 7.853998296123148e-18 0.0 0.01 0.0 7.853998296123148e-18 0.0 0.0100000024500009 0.00999992700079934 0.0 -1.7754370114474707e-17 0.0 0.01 0.0 -1.7754370114474707e-17 0.0 0.0100000024500009 0.009999909501228518 0.0 2.4683200968950986e-18 0.0 0.01 0.0 2.4683200968950986e-18 0.0 0.010000001450000314 0.009999909501228518 0.0 8.610935451957401e-14 0.0 0.01 0.0 8.610935451957401e-14 0.0 0.010000001450000314 0.009999909501228518 0.0 -2.3125301426662037e-13 0.0 0.01 0.0 -2.3125301426662037e-13 0.0 0.01000000195000057 0.009999910001214982 0.0 1.8392681672490115e-13 0.0 0.01 0.0 1.8392681672490115e-13 0.0 0.01000000195000057 0.009999909501228518 0.0 7.63954452790732e-18 0.0 0.01 0.0 7.63954452790732e-18 0.0 0.01000000195000057 0.009999909501228518 0.0 1.3868599830901968e-17 0.0 0.01 0.0 1.3868599830901968e-17 0.0 0.0100000024500009 0.009999908501255818 0.0 2.7877190603307887e-18 0.0 0.01 0.0 2.7877190603307887e-18 0.0 0.010000003400001733 0.009999909001242133 0.0 -7.315540874037671e-17 0.0 0.01 0.0 -7.315540874037671e-17 0.0 0.010000003400001733 0.009999888501864803 0.0 1.795448917766215e-18 0.0 0.01 0.0 1.795448917766215e-18 0.0 0.01000000195000057 0.009999888501864803 0.0 -1.1767514855282663e-13 0.0 0.01 0.0 -1.1767514855282663e-13 0.0 0.01000000195000057 0.009999888501864803 0.0 6.27599549443245e-14 0.0 0.01 0.0 6.27599549443245e-14 0.0 0.01000000195000057 0.009999888501864803 0.0 6.042730133828557e-14 0.0 0.01 0.0 6.042730133828557e-14 0.0 0.01000000195000057 0.009999887501898402 0.0 8.900158748286572e-18 0.0 0.01 0.0 8.900158748286572e-18 0.0 0.010000002950001304 0.009999887501898402 0.0 -5.0180803792896296e-18 0.0 0.01 0.0 -5.0180803792896296e-18 0.0 0.010000003400001733 0.009999887001915314 0.0 -1.065100889770188e-17 0.0 0.01 0.0 -1.065100889770188e-17 0.0 0.010000003400001733 0.009999887001915314 0.0 2.225060070712368e-17 0.0 0.01 0.0 2.225060070712368e-17 0.0 0.010000004900003601 0.009999862002856534 0.0 1.7973506717516634e-18 0.0 0.01 0.0 1.7973506717516634e-18 0.0 0.0100000024500009 0.009999862002856534 0.0 8.937172000936218e-14 0.0 0.01 0.0 8.937172000936218e-14 0.0 0.0100000024500009 0.009999862002856534 0.0 2.695650792980947e-18 0.0 0.01 0.0 2.695650792980947e-18 0.0 0.010000002950001304 0.009999862002856534 0.0 6.1602672086725206e-18 0.0 0.01 0.0 6.1602672086725206e-18 0.0 0.010000002950001304 0.009999862002856534 0.0 1.0253993472456635e-17 0.0 0.01 0.0 1.0253993472456635e-17 0.0 0.010000003400001733 0.00999986050291897 0.0 -1.0803712536815033e-13 0.0 0.01 0.0 -1.0803712536815033e-13 0.0 0.010000004400002904 0.00999986050291897 0.0 2.9031999345660424e-17 0.0 0.01 0.0 2.9031999345660424e-17 0.0 0.010000004900003601 0.00999986000293993 0.0 4.578548475071475e-17 0.0 0.01 0.0 4.578548475071475e-17 0.0 0.010000005350004294 0.009999829504360413 0.0 4.715244977039075e-18 0.0 0.01 0.0 4.715244977039075e-18 0.0 0.010000002950001304 0.009999829504360413 0.0 -5.1667152745347165e-14 0.0 0.01 0.0 -5.1667152745347165e-14 0.0 0.010000002950001304 0.009999829004386025 0.0 4.191827184887777e-18 0.0 0.01 0.0 4.191827184887777e-18 0.0 0.010000002950001304 0.009999828004437473 0.0 9.815095513239931e-18 0.0 0.01 0.0 9.815095513239931e-18 0.0 0.010000003900002281 0.00999982700448922 0.0 5.251900073854232e-18 0.0 0.01 0.0 5.251900073854232e-18 0.0 0.010000004900003601 0.009999826004541268 0.0 1.931219364796608e-17 0.0 0.01 0.0 1.931219364796608e-17 0.0 0.010000004900003601 0.009999825504567404 0.0 2.1759537804270225e-17 0.0 0.01 0.0 2.1759537804270225e-17 0.0 0.010000006850007037 0.009999824504619902 0.0 4.961274877533992e-17 0.0 0.01 0.0 4.961274877533992e-17 0.0 0.010000007300007994 0.009999790506583308 0.0 -2.6941458492221294e-18 0.0 0.01 0.0 -2.6941458492221294e-18 0.0 0.010000003900002281 0.009999790506583308 0.0 -7.289664042607025e-14 0.0 0.01 0.0 -7.289664042607025e-14 0.0 0.010000003900002281 0.009999789006677915 0.0 1.4986658941461948e-17 0.0 0.01 0.0 1.4986658941461948e-17 0.0 0.010000003900002281 0.009999787506773198 0.0 6.0968391452601545e-18 0.0 0.01 0.0 6.0968391452601545e-18 0.0 0.010000004900003601 0.009999786506837093 0.0 1.5543515526392298e-17 0.0 0.01 0.0 1.5543515526392298e-17 0.0 0.010000006350006049 0.00999978550690129 0.0 4.890207482954618e-18 0.0 0.01 0.0 4.890207482954618e-18 0.0 0.010000006850007037 0.009999784006998148 0.0 -2.0140976021660256e-17 0.0 0.01 0.0 -2.0140976021660256e-17 0.0 0.010000008800011615 0.00999978250709568 0.0 4.007427148118407e-17 0.0 0.01 0.0 4.007427148118407e-17 0.0 0.010000008800011615 0.009999740010139561 0.0 3.079791083650936e-19 0.0 0.01 0.0 3.079791083650936e-19 0.0 0.010000003900002281 0.009999740010139561 0.0 1.4547047768986135e-17 0.0 0.01 0.0 1.4547047768986135e-17 0.0 0.010000004400002904 0.009999739510178594 0.0 1.2899855292945764e-17 0.0 0.01 0.0 1.2899855292945764e-17 0.0 0.010000005350004294 0.009999737510335486 0.0 -2.3343613084892873e-18 0.0 0.01 0.0 -2.3343613084892873e-18 0.0 0.010000006350006049 0.009999735010533285 0.0 9.145390486893433e-18 0.0 0.01 0.0 9.145390486893433e-18 0.0 0.010000007300007994 0.009999733510652864 0.0 1.7927164029536604e-17 0.0 0.01 0.0 1.7927164029536604e-17 0.0 0.010000008800011615 0.009999730510894048 0.0 -3.8325863361191886e-17 0.0 0.01 0.0 -3.8325863361191886e-17 0.0 0.010000011250018984 0.009999728511056337 0.0 -1.023332574493102e-16 0.0 0.01 0.0 -1.023332574493102e-16 0.0 0.010000012700024194 0.009999680015359181 0.0 -5.025369831649165e-19 0.0 0.01 0.0 -5.025369831649165e-19 0.0 0.010000005350004294 0.009999680015359181 0.0 -7.189922155741533e-18 0.0 0.01 0.0 -7.189922155741533e-18 0.0 0.010000005350004294 0.009999679015455324 0.0 -3.155532717687204e-18 0.0 0.01 0.0 -3.155532717687204e-18 0.0 0.010000006350006049 0.009999677015648507 0.0 -1.275136566301295e-17 0.0 0.01 0.0 -1.275136566301295e-17 0.0 0.010000007300007994 0.009999674515891675 0.0 2.022425277031402e-17 0.0 0.01 0.0 2.022425277031402e-17 0.0 0.010000009300012973 0.009999671516185952 0.0 3.1271002012623224e-17 0.0 0.01 0.0 3.1271002012623224e-17 0.0 0.010000011700020532 0.009999667516582518 0.0 1.011378330385655e-17 0.0 0.01 0.0 1.011378330385655e-17 0.0 0.010000014650032193 0.009999663516983883 0.0 -2.7592736473665004e-16 0.0 0.01 0.0 -2.7592736473665004e-16 0.0 0.010000016600041335 0.009999608023048095 0.0 5.119012294618477e-20 0.0 0.01 0.0 5.119012294618477e-20 0.0 0.010000005850005133 0.009999608023048095 0.0 -3.188749390209758e-17 0.0 0.01 0.0 -3.188749390209758e-17 0.0 0.010000006350006049 0.00999960602328387 0.0 2.7292629450300437e-18 0.0 0.01 0.0 2.7292629450300437e-18 0.0 0.010000007800009127 0.009999604523461492 0.0 4.1422328423799276e-17 0.0 0.01 0.0 4.1422328423799276e-17 0.0 0.010000009300012973 0.009999600023998401 0.0 6.593345473813687e-17 0.0 0.01 0.0 6.593345473813687e-17 0.0 0.010000011700020532 0.009999595524541383 0.0 5.036027508351773e-18 0.0 0.01 0.0 5.036027508351773e-18 0.0 0.010000014650032193 0.009999591525029133 0.0 -4.633595172069084e-18 0.0 0.01 0.0 -4.633595172069084e-18 0.0 0.010000018550051615 0.009999585025831963 0.0 -1.4931776528789344e-16 0.0 0.01 0.0 -1.4931776528789344e-16 0.0 0.010000023450082485 0.009999520534485282 0.0 1.3384630326073899e-18 0.0 0.01 0.0 1.3384630326073899e-18 0.0 0.010000006850007037 0.009999519534629265 0.0 -4.8421539202418065e-17 0.0 0.01 0.0 -4.8421539202418065e-17 0.0 0.010000007800009127 0.009999517034990532 0.0 -6.095425393649042e-17 0.0 0.01 0.0 -6.095425393649042e-17 0.0 0.010000009300012973 0.009999513035572463 0.0 -6.422917582615668e-17 0.0 0.01 0.0 -6.422917582615668e-17 0.0 0.010000011700020532 0.00999950903615919 0.0 4.036435992325619e-17 0.0 0.01 0.0 4.036435992325619e-17 0.0 0.010000015150034429 0.009999502537122859 0.0 2.562777877910316e-16 0.0 0.01 0.0 2.562777877910316e-16 0.0 0.010000019050054435 0.009999496538023647 0.0 1.2212499035112632e-16 0.0 0.01 0.0 1.2212499035112632e-16 0.0 0.01000002395008604 0.00999948853924149 0.0 -1.4550840808007404e-16 0.0 0.01 0.0 -1.4550840808007404e-16 0.0 0.010000031250146485 0.009999416551065872 0.0 -1.1120979416798382e-18 0.0 0.01 0.0 -1.1120979416798382e-18 0.0 0.010000007800009127 0.009999415051328746 0.0 -1.3455646541342722e-16 0.0 0.01 0.0 -1.3455646541342722e-16 0.0 0.010000008800011615 0.009999412051856518 0.0 -3.6328621931447625e-17 0.0 0.01 0.0 -3.6328621931447625e-17 0.0 0.010000010750017335 0.009999407552653237 0.0 -1.1315181542858531e-17 0.0 0.01 0.0 -1.1315181542858531e-17 0.0 0.010000013650027948 0.009999401053814777 0.0 1.3094083445557905e-16 0.0 0.01 0.0 1.3094083445557905e-16 0.0 0.010000018550051615 0.00999939305526176 0.0 4.236650160534103e-16 0.0 0.01 0.0 4.236650160534103e-16 0.0 0.010000023450082485 0.009999383557004981 0.0 2.374829100993534e-16 0.0 0.01 0.0 2.374829100993534e-16 0.0 0.010000031750151211 0.00999937305896319 0.0 -6.336116686619098e-17 0.0 0.01 0.0 -6.336116686619098e-17 0.0 0.010000039550234633 0.00999929207518073 0.0 3.4513628222076115e-18 0.0 0.01 0.0 3.4513628222076115e-18 0.0 0.010000009300012973 0.009999290075606054 0.0 -1.1560491965233918e-16 0.0 0.01 0.0 -1.1560491965233918e-16 0.0 0.010000010750017335 0.00999928707624629 0.0 -1.3346002589622448e-16 0.0 0.01 0.0 -1.3346002589622448e-16 0.0 0.010000013200026137 0.009999280577642726 0.0 -1.231342725270395e-16 0.0 0.01 0.0 -1.231342725270395e-16 0.0 0.010000016600041335 0.009999271079706466 0.0 -1.1429969642163026e-16 0.0 0.01 0.0 -1.1429969642163026e-16 0.0 0.0100000224500756 0.009999260582018929 0.0 1.699156034123632e-16 0.0 0.01 0.0 1.699156034123632e-16 0.0 0.01000003025013726 0.009999247085040679 0.0 2.853480219404773e-16 0.0 0.01 0.0 2.853480219404773e-16 0.0 0.010000039050228738 0.00999923358811708 0.0 4.2133706335534294e-17 0.0 0.01 0.0 4.2133706335534294e-17 0.0 0.010000051750401712 0.009999142110408811 0.0 3.5943178762207235e-18 0.0 0.01 0.0 3.5943178762207235e-18 0.0 0.010000012200022326 0.009999140110924102 0.0 -7.08536803125949e-18 0.0 0.01 0.0 -7.08536803125949e-18 0.0 0.010000013200026137 0.009999135612087887 0.0 -1.4965919469266008e-16 0.0 0.01 0.0 -1.4965919469266008e-16 0.0 0.010000016100038882 0.00999912711430272 0.0 -2.1563218152237406e-16 0.0 0.01 0.0 -2.1563218152237406e-16 0.0 0.010000020500063036 0.009999117116936141 0.0 -1.307600773975642e-16 0.0 0.01 0.0 -1.307600773975642e-16 0.0 0.010000027850116345 0.009999102620807868 0.0 2.9245365477918717e-16 0.0 0.01 0.0 2.9245365477918717e-16 0.0 0.010000036600200936 0.009999085625427421 0.0 4.3783500952750953e-16 0.0 0.01 0.0 4.3783500952750953e-16 0.0 0.010000048850357952 0.009999066130833033 0.0 -1.80044590450369e-16 0.0 0.01 0.0 -1.80044590450369e-16 0.0 0.010000064950632782 0.009998965660500864 0.0 1.1391182884293366e-18 0.0 0.01 0.0 1.1391182884293366e-18 0.0 0.010000015150034429 0.009998964160966605 0.0 -1.0963847051356366e-16 0.0 0.01 0.0 -1.0963847051356366e-16 0.0 0.010000016600041335 0.009998958162836321 0.0 -1.1817895853558708e-16 0.0 0.01 0.0 -1.1817895853558708e-16 0.0 0.01000002000006 0.0099989481659765 0.0 -2.701759964901637e-16 0.0 0.01 0.0 -2.701759964901637e-16 0.0 0.010000025400096774 0.009998933170742986 0.0 1.3402498716877628e-17 0.0 0.01 0.0 1.3402498716877628e-17 0.0 0.010000032700160394 0.009998914676714567 0.0 2.861561200140944e-16 0.0 0.01 0.0 2.861561200140944e-16 0.0 0.010000044900302403 0.0099988921841156 0.0 3.011870269857611e-16 0.0 0.01 0.0 3.011870269857611e-16 0.0 0.010000060050540905 0.009998866692686936 0.0 -3.292026093559868e-16 0.0 0.01 0.0 -3.292026093559868e-16 0.0 0.010000080100962414 0.009998756232082281 0.0 1.044599071130438e-18 0.0 0.01 0.0 1.044599071130438e-18 0.0 0.01000002100006615 0.009998753733015928 0.0 -1.5196991645944395e-16 0.0 0.01 0.0 -1.5196991645944395e-16 0.0 0.01000002195007227 0.009998746235828112 0.0 -1.446017570029767e-16 0.0 0.01 0.0 -1.446017570029767e-16 0.0 0.010000025400096774 0.009998734240362683 0.0 -2.785347949990243e-17 0.0 0.01 0.0 -2.785347949990243e-17 0.0 0.010000032250156011 0.00999871624724549 0.0 5.319877636360877e-16 0.0 0.01 0.0 5.319877636360877e-16 0.0 0.010000041000252152 0.009998692256573667 0.0 1.390364921998631e-15 0.0 0.01 0.0 1.390364921998631e-15 0.0 0.01000005420044065 0.009998663767875168 0.0 2.57304102142681e-15 0.0 0.01 0.0 2.57304102142681e-15 0.0 0.010000072250783018 0.009998631281060022 0.0 1.0558701215177963e-15 0.0 0.01 0.0 1.0558701215177963e-15 0.0 0.01000009715141574 0.009998509333379306 0.0 -2.3148641462399026e-18 0.0 0.01 0.0 -2.3148641462399026e-18 0.0 0.010000029300128775 0.009998506834498077 0.0 -1.1164592258940052e-16 0.0 0.01 0.0 -1.1164592258940052e-16 0.0 0.010000031250146485 0.00999849733876649 0.0 -7.428535394681618e-17 0.0 0.01 0.0 -7.428535394681618e-17 0.0 0.010000034200175447 0.009998481346016552 0.0 6.592612464074763e-16 0.0 0.01 0.0 6.592612464074763e-16 0.0 0.010000041000252152 0.009998459356110689 0.0 2.1838257158356433e-15 0.0 0.01 0.0 2.1838257158356433e-15 0.0 0.0100000508003871 0.009998430869402908 0.0 4.550494668917788e-15 0.0 0.01 0.0 4.550494668917788e-15 0.0 0.010000065900651429 0.009998394386781873 0.0 7.519931040529145e-15 0.0 0.01 0.0 7.519931040529145e-15 0.0 0.010000086901132759 0.009998351407768084 0.0 4.4036376322385746e-15 0.0 0.01 0.0 4.4036376322385746e-15 0.0 0.010000115702008011 0.009998217476721687 0.0 1.458324726765792e-18 0.0 0.01 0.0 1.458324726765792e-18 0.0 0.010000043950289743 0.00999821347886273 0.0 -6.835416407226374e-17 0.0 0.01 0.0 -6.835416407226374e-17 0.0 0.010000044450296373 0.009998202484775332 0.0 2.472134683265141e-16 0.0 0.01 0.0 2.472134683265141e-16 0.0 0.010000047850343446 0.009998184494528725 0.0 2.159753775959458e-15 0.0 0.01 0.0 2.159753775959458e-15 0.0 0.010000054700448817 0.0099981575093409 0.0 5.0056448870182215e-15 0.0 0.01 0.0 5.0056448870182215e-15 0.0 0.010000065450642562 0.009998122528867068 0.0 1.1151895895747394e-14 0.0 0.01 0.0 1.1151895895747394e-14 0.0 0.010000082051009844 0.009998077554511632 0.0 1.634598671443341e-14 0.0 0.01 0.0 1.634598671443341e-14 0.0 0.010000104001622429 0.009998023086382679 0.0 1.546965791415788e-14 0.0 0.01 0.0 1.546965791415788e-14 0.0 0.01000013720282364 0.009997874677741258 0.0 -1.3728593256319722e-18 0.0 0.01 0.0 -1.3728593256319722e-18 0.0 0.010000066400661351 0.00999786968093231 0.0 2.535730197378609e-16 0.0 0.01 0.0 2.535730197378609e-16 0.0 0.01000006785069055 0.009997858188300162 0.0 1.348136980405291e-15 0.0 0.01 0.0 1.348136980405291e-15 0.0 0.010000071300762562 0.00999783570283015 0.0 3.3834728195962515e-15 0.0 0.01 0.0 3.3834728195962515e-15 0.0 0.010000076650881295 0.00999780372375634 0.0 8.470564844821751e-15 0.0 0.01 0.0 8.470564844821751e-15 0.0 0.010000087901158979 0.009997761252023351 0.0 1.8461717051763757e-14 0.0 0.01 0.0 1.8461717051763757e-14 0.0 0.010000102551577501 0.009997706289407661 0.0 2.998148236539256e-14 0.0 0.01 0.0 2.998148236539256e-14 0.0 0.010000127452436579 0.009997640835111532 0.0 3.057491015999243e-14 0.0 0.01 0.0 3.057491015999243e-14 0.0 0.010000163103990352 0.00999747245859288 0.0 2.6446268485100373e-18 0.0 0.01 0.0 2.6446268485100373e-18 0.0 0.01000010060151808 0.009997468961247962 0.0 2.4701267744035497e-16 0.0 0.01 0.0 2.4701267744035497e-16 0.0 0.010000101551546887 0.00999745397266846 0.0 1.7061430986142459e-15 0.0 0.01 0.0 1.7061430986142459e-15 0.0 0.010000104501638067 0.009997428991852434 0.0 3.590041534878793e-15 0.0 0.01 0.0 3.590041534878793e-15 0.0 0.010000108901778914 0.009997392520197318 0.0 9.964884566578122e-15 0.0 0.01 0.0 9.964884566578122e-15 0.0 0.010000119652147461 0.009997342060072372 0.0 2.337421797983663e-14 0.0 0.01 0.0 2.337421797983663e-14 0.0 0.010000135252743948 0.009997275613746632 0.0 4.354010634945665e-14 0.0 0.01 0.0 4.354010634945665e-14 0.0 0.010000160153847307 0.009997196679231862 0.0 5.136137247032405e-14 0.0 0.01 0.0 5.136137247032405e-14 0.0 0.010000196305780246 0.00999701183989895 0.0 5.085030660360226e-19 0.0 0.01 0.0 5.085030660360226e-19 0.0 0.010000151853458851 0.009997006844383595 0.0 9.005991152132747e-17 0.0 0.01 0.0 9.005991152132747e-17 0.0 0.010000151853458851 0.009996990858784784 0.0 6.216624843916126e-16 0.0 0.01 0.0 6.216624843916126e-16 0.0 0.010000153803548257 0.009996962384626853 0.0 2.9224158665490907e-15 0.0 0.01 0.0 2.9224158665490907e-15 0.0 0.010000160153847306 0.00999692042315338 0.0 8.513064943083676e-15 0.0 0.01 0.0 8.513064943083676e-15 0.0 0.010000167954231198 0.009996861478166447 0.0 2.0352284786588003e-14 0.0 0.01 0.0 2.0352284786588003e-14 0.0 0.010000183105028995 0.009996784052013695 0.0 4.438908074771805e-14 0.0 0.01 0.0 4.438908074771805e-14 0.0 0.010000206556399657 0.009996689144990295 0.0 6.221464473804063e-14 0.0 0.01 0.0 6.221464473804063e-14 0.0 0.010000242708835854 0.009996494344305318 0.0 -5.422770658568067e-19 0.0 0.01 0.0 -5.422770658568067e-19 0.0 0.010000221707372905 0.009996489349565704 0.0 5.435216004294814e-17 0.0 0.01 0.0 5.435216004294814e-17 0.0 0.010000223157469667 0.009996471368565076 0.0 -5.082138070741533e-16 0.0 0.01 0.0 -5.082138070741533e-16 0.0 0.010000226557699027 0.00999643890311525 0.0 -2.968690565626252e-16 0.0 0.01 0.0 -2.968690565626252e-16 0.0 0.010000232408101778 0.009996391454180645 0.0 -1.5144069431417899e-15 0.0 0.01 0.0 -1.5144069431417899e-15 0.0 0.01000024270883585 0.009996325026807293 0.0 2.516135962255555e-15 0.0 0.01 0.0 2.516135962255555e-15 0.0 0.010000254909746516 0.009996237624386204 0.0 1.1649845534920423e-14 0.0 0.01 0.0 1.1649845534920423e-14 0.0 0.010000275411377296 0.00999612625205162 0.0 1.511572601166208e-14 0.0 0.01 0.0 1.511572601166208e-14 0.0 0.010000309564373921 0.009995944967827125 0.0 2.758101150126408e-18 0.0 0.01 0.0 2.758101150126408e-18 0.0 0.010000319365298478 0.009995939474519745 0.0 -4.1369899421068686e-16 0.0 0.01 0.0 -4.1369899421068686e-16 0.0 0.010000319815341625 0.009995919498932885 0.0 -1.943613930378199e-15 0.0 0.01 0.0 -1.943613930378199e-15 0.0 0.01000032471581537 0.009995884541944038 0.0 -8.914543061855006e-15 0.0 0.01 0.0 -8.914543061855006e-15 0.0 0.010000333516684265 0.009995831607773377 0.0 -2.9465574728844445e-14 0.0 0.01 0.0 -2.9465574728844445e-14 0.0 0.010000345217875484 0.009995757201728909 0.0 -7.165625652458497e-14 0.0 0.01 0.0 -7.165625652458497e-14 0.0 0.010000360869533084 0.009995658828502636 0.0 -1.4277466660952464e-13 0.0 0.01 0.0 -1.4277466660952464e-13 0.0 0.010000381371815558 0.009995532994903881 0.0 -2.326872314209038e-13 0.0 0.01 0.0 -2.326872314208004e-13 0.0 0.010000410675296747 0.009995412658487125 0.0 -1.3104964346365381e-18 0.0 0.01 0.0 -1.3104964346365381e-18 0.0 0.010000443379486062 0.00999540616743466 0.0 -1.4270662931076288e-15 0.0 0.01 0.0 -1.4270662931076288e-15 0.0 0.010000446829946765 0.009995384197812462 0.0 -9.564573028098382e-15 0.0 0.01 0.0 -9.564573028098382e-15 0.0 0.010000455131069758 0.009995345252020046 0.0 -3.899879347199183e-14 0.0 0.01 0.0 -3.899879347199183e-14 0.0 0.010000470233165805 0.009995286834184994 0.0 -1.18959619402997e-13 0.0 0.01 0.0 -1.18959619402997e-13 0.0 0.010000488335768446 0.009995204451799394 0.0 -2.9187087048079056e-13 0.0 0.01 0.0 -2.9187087048099735e-13 0.0 0.010000509338911273 0.009995096109581221 0.0 -5.813078234461227e-13 0.0 0.01 0.0 -5.813078234459159e-13 0.0 0.010000531292337734 0.009994955819132574 0.0 -9.523806009909026e-13 0.0 0.01 0.0 -9.52380600990489e-13 0.0 0.01000055814672569 0.009994970297232909 0.0 4.1413184010742753e-19 0.0 0.01 0.0 4.1413184010742753e-19 0.0 0.0100005991538435 0.009994961310818397 0.0 -6.132743162231492e-15 0.0 0.01 0.0 -6.132743162231492e-15 0.0 0.010000605054909286 0.009994935849442242 0.0 -3.278170029256865e-14 0.0 0.01 0.0 -3.278170029256865e-14 0.0 0.010000622608141307 0.009994893913482161 0.0 -1.1639747724738908e-13 0.0 0.01 0.0 -1.1639747724736324e-13 0.0 0.010000647012788416 0.009994830012081799 0.0 -3.382860717774359e-13 0.0 0.01 0.0 -3.382860717774359e-13 0.0 0.010000678269001088 0.009994739154388435 0.0 -7.991095384574163e-13 0.0 0.01 0.0 -7.991095384574163e-13 0.0 0.010000711025826472 0.009994620843413885 0.0 -1.5236055145663554e-12 0.0 0.01 0.0 -1.5236055145663554e-12 0.0 0.010000740782305636 0.009994469591198566 0.0 -2.3325989558730043e-12 0.0 0.01 0.0 -2.332598955872177e-12 0.0 0.010000771089177612 0.009994710200259535 0.0 2.4919640869352888e-18 0.0 0.01 0.0 2.4919640869352888e-18 0.0 0.010000787192941153 0.009994700715340992 0.0 -1.2107152262124109e-14 0.0 0.01 0.0 -1.2107152262124109e-14 0.0 0.010000795995031127 0.009994673758351516 0.0 -6.788876179826823e-14 0.0 0.01 0.0 -6.788876179826823e-14 0.0 0.01000082675251666 0.009994627332936493 0.0 -2.4435532671726907e-13 0.0 0.01 0.0 -2.4435532671737246e-13 0.0 0.010000869763460114 0.00999455744643491 0.0 -7.066761086237139e-13 0.0 0.01 0.0 -7.066761086241275e-13 0.0 0.010000922977767468 0.00999446060613453 0.0 -1.6259785865232862e-12 0.0 0.01 0.0 -1.6259785865228726e-12 0.0 0.010000975742792524 0.009994335316933153 0.0 -2.9250557191674764e-12 0.0 0.01 0.0 -2.9250557191674764e-12 0.0 0.010001023106990768 0.00999417459425943 0.0 -4.015034325339562e-12 0.0 0.01 0.0 -4.0150343253403894e-12 0.0 0.010001072922649753 0.0099947576252573 0.0 7.257295863060575e-19 0.0 0.01 0.0 7.257295863060575e-19 0.0 0.010001006001785578 0.009994747640991144 0.0 -9.317884611386141e-15 0.0 0.01 0.0 -9.317884611386141e-15 0.0 0.010001022106683959 0.009994718187580307 0.0 -7.598066083006191e-14 0.0 0.01 0.0 -7.598066083006191e-14 0.0 0.010001069021396582 0.00999466826713966 0.0 -3.4457541868018777e-13 0.0 0.01 0.0 -3.4457541868018777e-13 0.0 0.010001141295353535 0.009994594885449867 0.0 -1.0901987914127194e-12 0.0 0.01 0.0 -1.0901987914125126e-12 0.0 0.010001226775709877 0.0099944950490116 0.0 -2.4967493135093056e-12 0.0 0.01 0.0 -2.496749313508892e-12 0.0 0.010001314709223608 0.00999436676358063 0.0 -4.148586871284414e-12 0.0 0.01 0.0 -4.148586871284414e-12 0.0 0.010001398243207945 0.009994204042864779 0.0 -4.521878544444191e-12 0.0 0.01 0.0 -4.521878544442537e-12 0.0 0.01000149008298594 0.009995262868189992 0.0 -4.2481557285048674e-19 0.0 0.01 0.0 -4.2481557285048674e-19 0.0 0.010001255136265517 0.00999525288240962 0.0 1.7366037815716917e-14 0.0 0.01 0.0 1.7366037815716917e-14 0.0 0.010001280045735623 0.009995223424531898 0.0 8.539408230584762e-15 0.0 0.01 0.0 8.539408230584762e-15 0.0 0.010001352324267685 0.009995171998691628 0.0 -2.6020836266681707e-13 0.0 0.01 0.0 -2.6020836266681707e-13 0.0 0.01000146322108975 0.009995098605906045 0.0 -1.1506716048927512e-12 0.0 0.01 0.0 -1.150671604892958e-12 0.0 0.010001595131585559 0.009995002748376008 0.0 -2.7591215661795402e-12 0.0 0.01 0.0 -2.7591215661795402e-12 0.0 0.010001735301586254 0.009994879934946101 0.0 -3.878688757782288e-12 0.0 0.01 0.0 -3.878688757782288e-12 0.0 0.010001880430269746 0.009994729669387463 0.0 -1.6282499420216536e-12 0.0 0.01 0.0 -1.62824994202124e-12 0.0 0.010002045527456253 0.00999638945634559 0.0 -8.146107773990906e-19 0.0 0.01 0.0 -8.146107773990906e-19 0.0 0.010001533552695462 0.00999638146501735 0.0 7.981390602170731e-14 0.0 0.01 0.0 7.981390602170731e-14 0.0 0.010001570169737545 0.009996353495519436 0.0 2.3994962848348676e-13 0.0 0.01 0.0 2.3994962848343506e-13 0.0 0.010001673770132209 0.009996308045586039 0.0 1.825288319462635e-13 0.0 0.01 0.0 1.825288319462635e-13 0.0 0.010001834504687668 0.009996243617621869 0.0 -5.251704959216484e-13 0.0 0.01 0.0 -5.251704959216484e-13 0.0 0.010002029417613257 0.009996160212727761 0.0 -1.6818632262243692e-12 0.0 0.01 0.0 -1.6818632262243692e-12 0.0 0.010002242954401053 0.009996055834693747 0.0 -9.710782385719293e-13 0.0 0.01 0.0 -9.710782385719293e-13 0.0 0.010002476519668771 0.009995935479392792 0.0 6.136167042403561e-12 0.0 0.01 0.0 6.136167042403561e-12 0.0 0.010002751134895172 0.009998251958454238 0.0 -1.2157741400456404e-18 0.0 0.01 0.0 -1.2157741400456404e-18 0.0 0.01000183595548614 0.009998244962131829 0.0 1.7317940484014833e-13 0.0 0.01 0.0 1.7317940484014833e-13 0.0 0.010001885783292704 0.00999822597218789 0.0 6.096834028261173e-13 0.0 0.01 0.0 6.096834028259105e-13 0.0 0.010002030418222355 0.009998192989910856 0.0 9.897442349807853e-13 0.0 0.01 0.0 9.897442349811989e-13 0.0 0.010002252710977438 0.009998147514882339 0.0 8.841736158573689e-13 0.0 0.01 0.0 8.841736158573689e-13 0.0 0.010002525856670592 0.009998092046182109 0.0 8.59417297702306e-13 0.0 0.01 0.0 8.594172977025128e-13 0.0 0.010002834204452063 0.00999802608460516 0.0 4.303699008784939e-12 0.0 0.01 0.0 4.303699008786594e-12 0.0 0.010003178264563001 0.009997955127396653 0.0 1.6930145619730733e-11 0.0 0.01 0.0 1.6930145619730733e-11 0.0 0.010003591784210748 0.01000082285155156 0.0 -6.654151231366102e-18 0.0 0.01 0.0 -6.654151231366102e-18 0.0 0.010002155496724677 0.01000082140119391 0.0 2.632880824374845e-13 0.0 0.01 0.0 2.632880824374845e-13 0.0 0.010002221440000167 0.01000081454951283 0.0 9.784637271566186e-13 0.0 0.01 0.0 9.784637271557914e-13 0.0 0.010002410521311903 0.01000080429702365 0.0 1.8496867924839386e-12 0.0 0.01 0.0 1.8496867924839386e-12 0.0 0.010002703746141312 0.010000791593983236 0.0 2.5175649816315414e-12 0.0 0.01 0.0 2.5175649816331957e-12 0.0 0.010003065859347902 0.010000778890991229 0.0 3.740281591306732e-12 0.0 0.01 0.0 3.740281591305077e-12 0.0 0.010003480316047227 0.010000768638611717 0.0 9.335460897461529e-12 0.0 0.01 0.0 9.335460897464837e-12 0.0 0.010003953493281108 0.010000767688392776 0.0 2.5100579724219168e-11 0.0 0.01 0.0 2.5100579724219168e-11 0.0 0.01000452702223507 0.01000385427717329 0.0 1.5949153643191565e-17 0.0 0.01 0.0 1.5949153643191565e-17 0.0 0.01000247897149036 0.01000385673000818 0.0 2.96827496780066e-13 0.0 0.01 0.0 2.96827496780066e-13 0.0 0.010002561533882336 0.0100038674924683 0.0 1.1255469810395422e-12 0.0 0.01 0.0 1.1255469810378878e-12 0.0 0.010002798524322565 0.010003888016325738 0.0 2.2487391734809655e-12 0.0 0.01 0.0 2.2487391734809655e-12 0.0 0.010003164101097065 0.010003917851231586 0.0 3.352186146961304e-12 0.0 0.01 0.0 3.352186146961304e-12 0.0 0.010003621616466273 0.01000395985082155 0.0 5.108979841784545e-12 0.0 0.01 0.0 5.108979841837485e-12 0.0 0.01000414662775301 0.01000401902158248 0.0 1.0751203681495694e-11 0.0 0.01 0.0 1.0751203681469224e-11 0.0 0.010004749982207507 0.010004102122731784 0.0 2.5034878388802807e-11 0.0 0.01 0.0 2.5034878388802807e-11 0.0 0.010005475193380953 0.010006846875541603 0.0 6.2537806688829596e-18 0.0 0.01 0.0 6.2537806688829596e-18 0.0 0.010002787765312156 0.01000685664559674 0.0 2.448577150009593e-13 0.0 0.01 0.0 2.448577150010627e-13 0.0 0.01000288649930091 0.01000688700810458 0.0 9.411237152079204e-13 0.0 0.01 0.0 9.41123715208334e-13 0.0 0.010003169456181356 0.010006937863419177 0.0 1.9009380554024118e-12 0.0 0.01 0.0 1.9009380554024118e-12 0.0 0.010003605448952386 0.01000701271984452 0.0 2.8388526193989396e-12 0.0 0.01 0.0 2.838852619400594e-12 0.0 0.010004151033231738 0.010007115487325219 0.0 4.070374008959957e-12 0.0 0.01 0.0 4.070374008959957e-12 0.0 0.010004779324108763 0.01000724812268362 0.0 7.693121388173101e-12 0.0 0.01 0.0 7.693121388173101e-12 0.0 0.010005497229609818 0.010007418396734006 0.0 1.674055445863777e-11 0.0 0.01 0.0 1.674055445863777e-11 0.0 0.010006353199346662 0.010009172755498385 0.0 -1.140244763473532e-18 0.0 0.01 0.0 -1.140244763473532e-18 0.0 0.01000306535888792 0.010009187445881978 0.0 1.4589155143156124e-13 0.0 0.01 0.0 1.4589155143156124e-13 0.0 0.010003177764086152 0.010009233974213189 0.0 5.549893842277905e-13 0.0 0.01 0.0 5.549893842277905e-13 0.0 0.01000349988652381 0.010009313795879004 0.0 1.085853344880959e-12 0.0 0.01 0.0 1.085853344880959e-12 0.0 0.010003996043979557 0.010009429320063663 0.0 1.470693225533691e-12 0.0 0.01 0.0 1.4706932255341045e-12 0.0 0.010004615493451649 0.010009586517598767 0.0 1.7055713311278912e-12 0.0 0.01 0.0 1.7055713311278912e-12 0.0 0.01000532605200484 0.010009786297019319 0.0 2.7378292629014074e-12 0.0 0.01 0.0 2.7378292629014074e-12 0.0 0.010006133588524743 0.010010035085254481 0.0 6.213640107485301e-12 0.0 0.01 0.0 6.213640107485301e-12 0.0 0.010007081715507404 0.010010387261895804 0.0 8.834016218654955e-19 0.0 0.01 0.0 8.834016218654955e-19 0.0 0.010003294126976266 0.010010406371375409 0.0 5.4603268027072274e-14 0.0 0.01 0.0 5.4603268027072274e-14 0.0 0.01000341730089401 0.010010464653456267 0.0 2.0100981248607612e-13 0.0 0.01 0.0 2.0100981248607612e-13 0.0 0.010003769229993718 0.010010564066376968 0.0 3.4293343420052153e-13 0.0 0.01 0.0 3.4293343420052153e-13 0.0 0.010004310885959277 0.010010711034394798 0.0 2.6769802303123364e-13 0.0 0.01 0.0 2.6769802303123364e-13 0.0 0.01000498612674128 0.010010906466741137 0.0 -1.8748163770901382e-13 0.0 0.01 0.0 -1.8748163770901382e-13 0.0 0.010005753010764503 0.010011156341861987 0.0 -7.466875889107502e-13 0.0 0.01 0.0 -7.466875889107502e-13 0.0 0.01000661590975246 0.010011462076806227 0.0 -6.111159900048758e-13 0.0 0.01 0.0 -6.11115990004669e-13 0.0 0.010007619048648062 0.010010498459535914 0.0 3.1713780732426484e-18 0.0 0.01 0.0 3.1713780732426484e-18 0.0 0.01000346369875062 0.010010519024232617 0.0 5.7655437146407925e-15 0.0 0.01 0.0 5.7655437146407925e-15 0.0 0.010003592735234905 0.010010584631478006 0.0 1.022353403533659e-14 0.0 0.01 0.0 1.022353403533659e-14 0.0 0.010003965257243433 0.010010694882644156 0.0 -3.567233314856522e-14 0.0 0.01 0.0 -3.567233314856522e-14 0.0 0.010004536785496895 0.010010858008885858 0.0 -2.5723518197311183e-13 0.0 0.01 0.0 -2.5723518197311183e-13 0.0 0.01000524532412934 0.010011075974443662 0.0 -7.994151310860176e-13 0.0 0.01 0.0 -7.994151310858108e-13 0.0 0.01000604647956944 0.010011353305404761 0.0 -1.6387814635306065e-12 0.0 0.01 0.0 -1.6387814635306065e-12 0.0 0.010006937863419177 0.010011686454106874 0.0 -2.4435608020909646e-12 0.0 0.01 0.0 -2.4435608020909646e-12 0.0 0.01000796260036367 0.010009871046421112 0.0 -1.8008384834992414e-18 0.0 0.01 0.0 -1.8008384834992414e-18 0.0 0.010003570261104874 0.010009892108736587 0.0 -7.563204733664496e-15 0.0 0.01 0.0 -7.563204733664496e-15 0.0 0.010003703206045026 0.010009958706647011 0.0 -3.245256604459069e-14 0.0 0.01 0.0 -3.245256604459069e-14 0.0 0.010004086002949362 0.010010070842879058 0.0 -9.313163332546034e-14 0.0 0.01 0.0 -9.313163332546034e-14 0.0 0.010004673173743013 0.010010236396146158 0.0 -2.3674025766929007e-13 0.0 0.01 0.0 -2.3674025766929007e-13 0.0 0.010005399369833138 0.010010458785076738 0.0 -5.273907111420128e-13 0.0 0.01 0.0 -5.273907111415992e-13 0.0 0.010006213285944792 0.010010742886678737 0.0 -9.919701631881569e-13 0.0 0.01 0.0 -9.919701631885705e-13 0.0 0.010007111578996466 0.010011079887419205 0.0 -1.5010910115142356e-12 0.0 0.01 0.0 -1.5010910115134084e-12 0.0 0.0100081373717572 0.010008946541785755 0.0 1.805721219054861e-18 0.0 0.01 0.0 1.805721219054861e-18 0.0 0.010003615259570655 0.010008966144361768 0.0 -2.749505685186377e-15 0.0 0.01 0.0 -2.749505685186377e-15 0.0 0.010003749157373669 0.010009030267147726 0.0 -1.1039191372148221e-14 0.0 0.01 0.0 -1.1039191372148221e-14 0.0 0.01000413486315084 0.010009139464220005 0.0 -2.6631890939667542e-14 0.0 0.01 0.0 -2.6631890939667542e-14 0.0 0.010004724546092449 0.010009298102146904 0.0 -5.488882432528205e-14 0.0 0.01 0.0 -5.488882432528205e-14 0.0 0.010005453207379528 0.010009513558970071 0.0 -1.0423800790464984e-13 0.0 0.01 0.0 -1.0423800790459814e-13 0.0 0.010006267136631 0.010009785845696903 0.0 -1.7303593962825445e-13 0.0 0.01 0.0 -1.7303593962815105e-13 0.0 0.010007160533650012 0.010010109058323592 0.0 -2.2691917828481654e-13 0.0 0.01 0.0 -2.2691917828460975e-13 0.0 0.010008174061380022 0.010008016930381076 0.0 -2.9629301911515898e-18 0.0 0.01 0.0 -2.9629301911515898e-18 0.0 0.010003602045275234 0.01000803652749564 0.0 2.8209183448762865e-15 0.0 0.01 0.0 2.8209183448762865e-15 0.0 0.010003734490922197 0.010008095269408537 0.0 1.0881863133801209e-14 0.0 0.01 0.0 1.0881863133801209e-14 0.0 0.010004117291418077 0.010008198571475824 0.0 2.2904339613682657e-14 0.0 0.01 0.0 2.2904339613682657e-14 0.0 0.010004702514968482 0.010008347841345772 0.0 4.0933166203070423e-14 0.0 0.01 0.0 4.0933166203070423e-14 0.0 0.010005422857920925 0.010008549050456535 0.0 7.87300913616253e-14 0.0 0.01 0.0 7.87300913615736e-14 0.0 0.010006225558815387 0.010008803110584495 0.0 1.7095559704265502e-13 0.0 0.01 0.0 1.7095559704286182e-13 0.0 0.010007105215445337 0.01000910567190668 0.0 3.7618290262256944e-13 0.0 0.01 0.0 3.7618290262256944e-13 0.0 0.01000809867767414 0.010007149259484958 0.0 1.623254903100296e-18 0.0 0.01 0.0 1.623254903100296e-18 0.0 0.010003538477237473 0.010007167849350835 0.0 5.3860752490249815e-15 0.0 0.01 0.0 5.3860752490249815e-15 0.0 0.010003667566670591 0.010007221665341789 0.0 1.678208567225987e-14 0.0 0.01 0.0 1.678208567225987e-14 0.0 0.01000404249995031 0.010007317123215767 0.0 2.5766091619840455e-14 0.0 0.01 0.0 2.5766091619840455e-14 0.0 0.010004615493451649 0.010007455128562036 0.0 2.164544207296846e-14 0.0 0.01 0.0 2.164544207296846e-14 0.0 0.010005319691859372 0.010007640597897981 0.0 2.2328346596990495e-14 0.0 0.01 0.0 2.2328346596990495e-14 0.0 0.010006103232874354 0.010007875994932877 0.0 9.563223146549544e-14 0.0 0.01 0.0 9.563223146528864e-14 0.0 0.010006960861298795 0.010008156919456843 0.0 3.895332359814391e-13 0.0 0.01 0.0 3.895332359814391e-13 0.0 0.010007932278183319 0.01000624168894256 0.0 1.4300023899363978e-18 0.0 0.01 0.0 1.4300023899363978e-18 0.0 0.010003431465435494 0.010006258821026414 0.0 7.123467960317828e-15 0.0 0.01 0.0 7.123467960317828e-15 0.0 0.01000355709704115 0.010006309165817155 0.0 2.09638511751548e-14 0.0 0.01 0.0 2.09638511751548e-14 0.0 0.010003918802348744 0.010006396732497327 0.0 1.94772521130497e-14 0.0 0.01 0.0 1.94772521130497e-14 0.0 0.010004473199638122 0.010006522976837594 0.0 -2.52592915288036e-14 0.0 0.01 0.0 -2.5259291528855297e-14 0.0 0.010005153881638156 0.010006695217894027 0.0 -9.72657727948795e-14 0.0 0.01 0.0 -9.72657727948795e-14 0.0 0.010005912489499141 0.010006912410613083 0.0 -7.202159200947087e-14 0.0 0.01 0.0 -7.202159200947087e-14 0.0 0.010006741661376712 0.010007172258822097 0.0 2.9569748431210873e-13 0.0 0.01 0.0 2.9569748431210873e-13 0.0 0.01000768023885849 0.01000516414751031 0.0 4.960262783580099e-17 0.0 0.01 0.0 4.960262783580099e-17 0.0 0.010003288221148971 0.010005180773282489 0.0 1.1904927227353835e-14 0.0 0.01 0.0 1.1904927227353835e-14 0.0 0.010003408992392373 0.010005226244191165 0.0 3.763036794510613e-14 0.0 0.01 0.0 3.763036794510613e-14 0.0 0.010003754062890608 0.010005306470808389 0.0 4.796022228992716e-14 0.0 0.01 0.0 4.796022228992716e-14 0.0 0.01000428204882185 0.010005420904747403 0.0 -4.872041963132283e-16 0.0 0.01 0.0 -4.872041963132283e-16 0.0 0.010004934299695767 0.010005576461071912 0.0 -8.71368137455944e-14 0.0 0.01 0.0 -8.71368137455944e-14 0.0 0.010005660552653523 0.01000577499874236 0.0 -4.1413976875735633e-14 0.0 0.01 0.0 -4.1413976875632236e-14 0.0 0.010006453040890527 0.010006017126517908 0.0 5.43898962922806e-13 0.0 0.01 0.0 5.438989629219788e-13 0.0 0.010007350847306659 0.010003886564634107 0.0 -2.5238309289407044e-19 0.0 0.01 0.0 -2.5238309289407044e-19 0.0 0.010003117657362292 0.010003897777716896 0.0 1.8518974679583047e-14 0.0 0.01 0.0 1.8518974679583047e-14 0.0 0.010003231065293083 0.010003937874808019 0.0 6.879148535681886e-14 0.0 0.01 0.0 6.879148535681886e-14 0.0 0.010003558048055418 0.010004006806889319 0.0 1.1643635343057788e-13 0.0 0.01 0.0 1.1643635342726916e-13 0.0 0.010004055215382708 0.010004107028767988 0.0 1.1598770468207741e-13 0.0 0.01 0.0 1.15987704682491e-13 0.0 0.010004670269676715 0.010004243399438461 0.0 8.876920186278184e-14 0.0 0.01 0.0 8.876920186278184e-14 0.0 0.010005354898171193 0.010004419928639397 0.0 2.699703630989027e-13 0.0 0.01 0.0 2.699703630989027e-13 0.0 0.010006104685531196 0.010004640428038515 0.0 1.1876292411230638e-12 0.0 0.01 0.0 1.187629241123891e-12 0.0 0.010006951090938408 0.010002513647445976 0.0 2.5755004778844338e-17 0.0 0.01 0.0 2.5755004778844338e-17 0.0 0.010002929486781293 0.010002524405571886 0.0 2.3405952886046367e-14 0.0 0.01 0.0 2.340595288594297e-14 0.0 0.010003035081198732 0.01000255417824082 0.0 8.669525826275248e-14 0.0 0.01 0.0 8.669525826275248e-14 0.0 0.010003337620213012 0.01000260842022358 0.0 1.708735862400554e-13 0.0 0.01 0.0 1.708735862400554e-13 0.0 0.010003800515490333 0.0100026875830773 0.0 2.3712186538511507e-13 0.0 0.01 0.0 2.3712186538511507e-13 0.0 0.010004374919314057 0.010002797073105184 0.0 3.151990704993947e-13 0.0 0.01 0.0 3.151990704996015e-13 0.0 0.01000501156485153 0.010002943198853208 0.0 6.580538838814732e-13 0.0 0.01 0.0 6.580538838823004e-13 0.0 0.010005707532673472 0.010003134272934469 0.0 1.8706675306752078e-12 0.0 0.01 0.0 1.8706675306743806e-12 0.0 0.010006495573394218 0.010001227776078104 0.0 -2.987778150058321e-17 0.0 0.01 0.0 -2.987778150058321e-17 0.0 0.010002729617214903 0.010001233128053224 0.0 1.804481596846256e-14 0.0 0.01 0.0 1.804481596846256e-14 0.0 0.010002825897403247 0.010001254135889079 0.0 7.597883882308224e-14 0.0 0.01 0.0 7.597883882308224e-14 0.0 0.010003102493222601 0.010001289299301044 0.0 1.6992135143182957e-13 0.0 0.01 0.0 1.6992135143193296e-13 0.0 0.01000352821636859 0.010001343020507172 0.0 2.67565055160797e-13 0.0 0.01 0.0 2.67565055160797e-13 0.0 0.010004055215382704 0.010001421202915261 0.0 3.9271413115371344e-13 0.0 0.01 0.0 3.9271413115371344e-13 0.0 0.010004638976019312 0.010001530601339369 0.0 7.717229793391289e-13 0.0 0.01 0.0 7.717229793395425e-13 0.0 0.010005278576565945 0.010001684975775853 0.0 1.970973298596233e-12 0.0 0.01 0.0 1.97097329859706e-12 0.0 0.010006000997476694 0.010000169454307118 0.0 1.281666466094338e-17 0.0 0.01 0.0 1.281666466094338e-17 0.0 0.010002524905950678 0.010000173854533705 0.0 9.669990006235169e-15 0.0 0.01 0.0 9.669990006235169e-15 0.0 0.010002612373317706 0.010000182154976946 0.0 4.294536212431226e-14 0.0 0.01 0.0 4.294536212431226e-14 0.0 0.01000286157782567 0.010000199205952291 0.0 1.0978338763523747e-13 0.0 0.01 0.0 1.0978338763523747e-13 0.0 0.01000324863235641 0.010000228507832136 0.0 1.9296429305986103e-13 0.0 0.01 0.0 1.9296429305986103e-13 0.0 0.010003724730009017 0.01000027346121675 0.0 2.898390970967065e-13 0.0 0.01 0.0 2.898390970966031e-13 0.0 0.010004254663785038 0.010000346217979206 0.0 5.225684912721797e-13 0.0 0.01 0.0 5.225684912717661e-13 0.0 0.010004832100123593 0.010000460481804573 0.0 1.3001287787103693e-12 0.0 0.01 0.0 1.3001287787103693e-12 0.0 0.010005489867489887 0.009999390055809326 0.0 -4.55800669203093e-18 0.0 0.01 0.0 -4.55800669203093e-18 0.0 0.010002322608926318 0.009999390055809326 0.0 -3.0046498128351855e-15 0.0 0.01 0.0 -3.0046498128351855e-15 0.0 0.010002401264633943 0.009999391055626503 0.0 3.983235913730118e-15 0.0 0.01 0.0 3.983235913730118e-15 0.0 0.010002624582903847 0.009999392555352832 0.0 3.006916610109163e-14 0.0 0.01 0.0 3.006916610109163e-14 0.0 0.010002968120938512 0.0099994000539946 0.0 7.373535166104873e-14 0.0 0.01 0.0 7.373535166099704e-14 0.0 0.010003393826927706 0.009999420550368177 0.0 1.1534034524892214e-13 0.0 0.01 0.0 1.1534034524892214e-13 0.0 0.01000386944473223 0.009999463043251479 0.0 1.6119656200214208e-13 0.0 0.01 0.0 1.6119656200214208e-13 0.0 0.010004386184104893 0.009999546030915062 0.0 3.1297002242762465e-13 0.0 0.01 0.0 3.1297002242762465e-13 0.0 0.010004976862910743 0.009998862194219764 0.0 -2.424972010497887e-18 0.0 0.01 0.0 -2.424972010497887e-18 0.0 0.010002130580712748 0.009998860194902967 0.0 -1.0439209777349204e-14 0.0 0.01 0.0 -1.0439209777349204e-14 0.0 0.010002198975111128 0.00999885469678797 0.0 -3.386174549244103e-14 0.0 0.01 0.0 -3.386174549244103e-14 0.0 0.01000239586074734 0.00999884819902739 0.0 -4.734773362569937e-14 0.0 0.01 0.0 -4.734773362569937e-14 0.0 0.010002698842169339 0.009998843200758637 0.0 -3.103620476115716e-14 0.0 0.01 0.0 -3.103620476115716e-14 0.0 0.01000307321611831 0.009998847199373037 0.0 2.359921342033372e-14 0.0 0.01 0.0 2.359921342033372e-14 0.0 0.010003493529860252 0.009998870691329521 0.0 6.717569543295576e-14 0.0 0.01 0.0 6.717569543295576e-14 0.0 0.010003955445595389 0.009998936169784294 0.0 -5.769019912011454e-14 0.0 0.01 0.0 -5.769019912011454e-14 0.0 0.010004485916712885 0.009998525826042413 0.0 6.858626122974731e-19 0.0 0.01 0.0 6.858626122974731e-19 0.0 0.010001949319829062 0.009998523826927386 0.0 -2.075822499444661e-14 0.0 0.01 0.0 -2.075822499444661e-14 0.0 0.010002009405494339 0.009998515330701903 0.0 -7.461292437537433e-14 0.0 0.01 0.0 -7.461292437534848e-14 0.0 0.01000217891194175 0.00999850433561872 0.0 -1.3167911196352005e-13 0.0 0.01 0.0 -1.3167911196357175e-13 0.0 0.010002441343732956 0.009998494839894257 0.0 -1.1076840379037848e-13 0.0 0.01 0.0 -1.1076840379037848e-13 0.0 0.010002768249056302 0.009998496339217374 0.0 1.1619331952153195e-13 0.0 0.01 0.0 1.1619331952148025e-13 0.0 0.010003138677075914 0.009998517829589503 0.0 6.041946157966822e-13 0.0 0.01 0.0 6.041946157966822e-13 0.0 0.010003554143893308 0.009998580802175546 0.0 1.1203918250296501e-12 0.0 0.01 0.0 1.1203918250300637e-12 0.0 0.010004034690496178 0.009998321422737856 0.0 1.2597330581583024e-18 0.0 0.01 0.0 1.2597330581583024e-18 0.0 0.010001781726069069 0.009998319923493428 0.0 -3.569016057568741e-14 0.0 0.01 0.0 -3.569016057568741e-14 0.0 0.01000183255361486 0.00999831392652245 0.0 -1.3470537764160461e-13 0.0 0.01 0.0 -1.3470537764160461e-13 0.0 0.01000197568534569 0.009998304931086225 0.0 -2.379790774744022e-13 0.0 0.01 0.0 -2.379790774744022e-13 0.0 0.01000220187702592 0.009998299433887144 0.0 -1.6062104559067252e-13 0.0 0.01 0.0 -1.6062104559067252e-13 0.0 0.01000248527618274 0.009998304931086223 0.0 4.785867448543562e-13 0.0 0.01 0.0 4.785867448543562e-13 0.0 0.010002813186657761 0.00999833691496979 0.0 2.116233572604591e-12 0.0 0.01 0.0 2.116233572604591e-12 0.0 0.010003189525312072 0.009998414377209695 0.0 4.402234304257388e-12 0.0 0.01 0.0 4.402234304257388e-12 0.0 0.010003634780784714 0.009998215477791608 0.0 -2.2243660244832545e-18 0.0 0.01 0.0 -2.2243660244832545e-18 0.0 0.010001628797860965 0.009998213478862733 0.0 -5.682896604074225e-14 0.0 0.01 0.0 -5.682896604074225e-14 0.0 0.010001670318401355 0.009998209481008574 0.0 -2.0955308265544005e-13 0.0 0.01 0.0 -2.0955308265544005e-13 0.0 0.01000179103105396 0.009998207981814498 0.0 -3.3756347207160495e-13 0.0 0.01 0.0 -3.3756347207160495e-13 0.0 0.010001981538818842 0.009998212479398746 0.0 -6.594293008591605e-14 0.0 0.01 0.0 -6.594293008591605e-14 0.0 0.010002226343270016 0.009998234967411007 0.0 1.421218856550848e-12 0.0 0.01 0.0 1.4212188565500208e-12 0.0 0.010002520952960257 0.009998288439516199 0.0 5.046025464274219e-12 0.0 0.01 0.0 5.046025464272565e-12 0.0 0.010002872337074259 0.00999839488654111 0.0 2.661547912303902e-11 0.0 0.01 0.0 2.6615479123032403e-11 0.0 0.010003298981774336 0.009998187492896415 0.0 4.43808403276954e-18 0.0 0.01 0.0 4.43808403276954e-18 0.0 0.010001485681021643 0.009998187992624627 0.0 -7.269849955939367e-14 0.0 0.01 0.0 -7.269849955934197e-14 0.0 0.010001518895986683 0.009998190990995465 0.0 -2.4272239206747866e-13 0.0 0.01 0.0 -2.4272239206737526e-13 0.0 0.010001620493814941 0.009998199986124164 0.0 -2.653710800182854e-13 0.0 0.01 0.0 -2.653710800182854e-13 0.0 0.010001781726069072 0.009998221474585437 0.0 5.679729053213374e-13 0.0 0.01 0.0 5.679729053213374e-13 0.0 0.01000199914932995 0.009998268449843748 0.0 3.641347486853469e-12 0.0 0.01 0.0 3.641347486856778e-12 0.0 0.010002272274249964 0.009998357404806504 0.0 1.0125801091516259e-11 0.0 0.01 0.0 1.0125801091516259e-11 0.0 0.010002612823670497 0.009998498838090751 0.0 3.645803225080879e-10 0.0 0.01 0.0 3.645803225080879e-10 0.0 0.010003035581654187 0.009998239964767668 0.0 1.8265114824781756e-18 0.0 0.01 0.0 1.8265114824781756e-18 0.0 0.010001350373477038 0.009998242963185267 0.0 -4.9565622907394264e-14 0.0 0.01 0.0 -4.9565622907394264e-14 0.0 0.010001379685477287 0.009998254457144376 0.0 -8.779395972649152e-14 0.0 0.01 0.0 -8.779395972649152e-14 0.0 0.010001465672166279 0.009998280443632827 0.0 3.717655094782967e-13 0.0 0.01 0.0 3.717655094782967e-13 0.0 0.010001608287905315 0.009998329918469032 0.0 2.5073176523827137e-12 0.0 0.01 0.0 2.5073176523827137e-12 0.0 0.010001808090260364 0.009998414377209693 0.0 8.090355233863552e-12 0.0 0.01 0.0 8.090355233866861e-12 0.0 0.010002075345880353 0.009998546816822591 0.0 1.372309258223741e-10 0.0 0.01 0.0 1.372309258223741e-10 0.0 0.010002419828051869 0.009998720245708581 0.0 2.5845959565042327e-09 0.0 0.01 0.0 2.5845959565050798e-09 0.0 0.010002846915278673 0.009998380893310878 0.0 2.5031342494393252e-18 0.0 0.01 0.0 2.5031342494393252e-18 0.0 0.0100012287264282 0.009998388389676913 0.0 7.286937452706505e-14 0.0 0.01 0.0 7.286937452706505e-14 0.0 0.010001254135889082 0.009998415876496615 0.0 5.251430919368773e-13 0.0 0.01 0.0 5.251430919364637e-13 0.0 0.010001332316212684 0.009998467852193485 0.0 2.1827723839682544e-12 0.0 0.01 0.0 2.1827723839674272e-12 0.0 0.010001466122364204 0.00999855481334505 0.0 6.557360845639822e-12 0.0 0.01 0.0 6.557360845643131e-12 0.0 0.010001665465974165 0.009998687258538776 0.0 1.2035712528374497e-10 0.0 0.01 0.0 1.2035712528369203e-10 0.0 0.010001939063849514 0.009998858695416644 0.0 1.7979077234888053e-09 0.0 0.01 0.0 1.7979077234888053e-09 0.0 0.010002294739633379 0.009999035139680213 0.0 1.1234553259072095e-08 0.0 0.01 0.0 1.1234553259078871e-08 0.0 0.010002726714859689 0.009998646774732363 0.0 -1.9632108030913405e-20 0.0 0.01 0.0 -1.9632108030913405e-20 0.0 0.010001129091198255 0.009998661768677405 0.0 3.903975584980043e-13 0.0 0.01 0.0 3.903975584975907e-13 0.0 0.010001153049397785 0.009998708750141994 0.0 1.904807161096168e-12 0.0 0.01 0.0 1.904807161096168e-12 0.0 0.010001232177701876 0.009998796217398777 0.0 1.5446846155031054e-11 0.0 0.01 0.0 1.544684615501782e-11 0.0 0.010001370881846038 0.009998924673473958 0.0 2.557977256059871e-10 0.0 0.01 0.0 2.5579772560577537e-10 0.0 0.010001578473658233 0.00999909062406039 0.0 2.0978616910960035e-09 0.0 0.01 0.0 2.0978616910960035e-09 0.0 0.010001865271756703 0.009999266580709326 0.0 1.0282422819155089e-08 0.0 0.01 0.0 1.0282422819148313e-08 0.0 0.010002231196529456 0.0099994065530104 0.0 3.457926368447071e-08 0.0 0.01 0.0 3.4579263684484263e-08 0.0 0.010002654356646719 0.009999090124196164 0.0 4.259360531784668e-18 0.0 0.01 0.0 4.259360531784668e-18 0.0 0.010001063669684914 0.00999911111853059 0.0 4.414738633129129e-12 0.0 0.01 0.0 4.41473863312582e-12 0.0 0.010001092929148013 0.009999177601462027 0.0 9.549720976080554e-11 0.0 0.01 0.0 9.549720976080554e-11 0.0 0.010001178908441002 0.009999286576353333 0.0 6.988451006073892e-10 0.0 0.01 0.0 6.988451006073892e-10 0.0 0.010001330815613472 0.00999942954881764 0.0 3.410237919907865e-09 0.0 0.01 0.0 3.410237919907865e-09 0.0 0.010001553561959982 0.009999589025358807 0.0 1.2219699943072143e-08 0.0 0.01 0.0 1.2219699943072143e-08 0.0 0.01000184916280642 0.009999722011774086 0.0 3.4840343174298615e-08 0.0 0.01 0.0 3.4840343174298615e-08 0.0 0.010002207781111425 0.00999977750839772 0.0 8.051509077120975e-08 0.0 0.01 0.0 8.051509077120975e-08 0.0 0.010002603067012788 0.009999716012097827 0.0 -8.08420865643591e-18 0.0 0.01 0.0 -8.08420865643591e-18 0.0 0.01000105436672994 0.009999739010217711 0.0 1.684995286849203e-10 0.0 0.01 0.0 1.684995286849203e-10 0.0 0.010001087577397968 0.009999805005703808 0.0 1.2681915915193308e-09 0.0 0.01 0.0 1.2681915915210249e-09 0.0 0.010001185760871233 0.00999990550134358 0.0 5.205713200255786e-09 0.0 0.01 0.0 5.205713200255786e-09 0.0 0.010001349373076087 0.010000020500100749 0.0 1.585689991462423e-08 0.0 0.01 0.0 1.585689991462423e-08 0.0 0.01000157847369594 0.010000119152360204 0.0 3.9217894415527563e-08 0.0 0.01 0.0 3.9217894415473353e-08 0.0 0.0100018662225186 0.010000156754700881 0.0 8.227964956103928e-08 0.0 0.01 0.0 8.227964956103928e-08 0.0 0.010002198475796791 0.010000092754585492 0.0 1.482384859349383e-07 0.0 0.01 0.0 1.4823848593515515e-07 0.0 0.010002550778933065 0.010000446829946765 0.0 2.2325002482531964e-17 0.0 0.01 0.0 2.2325002482531964e-17 0.0 0.010001112985783033 0.010000462932144091 0.0 9.992576414502428e-10 0.0 0.01 0.0 9.992576414485487e-10 0.0 0.010001147147362024 0.010000507338610626 0.0 5.398071170343698e-09 0.0 0.01 0.0 5.398071170357251e-09 0.0 0.010001251234803473 0.01000056204742498 0.0 1.7116796387011638e-08 0.0 0.01 0.0 1.7116796387011638e-08 0.0 0.010001418251702567 0.010000602104634276 0.0 4.1572275564442495e-08 0.0 0.01 0.0 4.1572275564442495e-08 0.0 0.010001636151720393 0.010000592803759333 0.0 8.372527465034738e-08 0.0 0.01 0.0 8.372527465034738e-08 0.0 0.01000189654044432 0.010000504941414462 0.0 1.454536125017336e-07 0.0 0.01 0.0 1.454536125016252e-07 0.0 0.010002188721537101 0.010000366227603438 0.0 2.2344668862916105e-07 0.0 0.01 0.0 2.234466886289442e-07 0.0 0.010002514155312682 0.010001153049397781 0.0 1.0626600997688023e-16 0.0 0.01 0.0 1.0626600997688023e-16 0.0 0.0100012287264282 0.010001153999727622 0.0 2.647303523557786e-09 0.0 0.01 0.0 2.647303523584891e-09 0.0 0.010001262939213086 0.010001152049075646 0.0 1.2562048868898328e-08 0.0 0.01 0.0 1.2562048868898328e-08 0.0 0.010001364029059202 0.010001130091716513 0.0 3.458084087495667e-08 0.0 0.01 0.0 3.458084087506509e-08 0.0 0.010001518395938205 0.010001064120643064 0.0 7.369598155706515e-08 0.0 0.01 0.0 7.369598155706515e-08 0.0 0.010001715792304662 0.010000953238890702 0.0 1.319016140932834e-07 0.0 0.01 0.0 1.3190161409284973e-07 0.0 0.010001951273579756 0.010000850214817988 0.0 2.0662112596141896e-07 0.0 0.01 0.0 2.0662112596141896e-07 0.0 0.010002227800642598 0.010000866824983261 0.0 2.863036899214671e-07 0.0 0.01 0.0 2.863036899214671e-07 0.0 0.010002547835675016 0.01000167131890268 0.0 1.0405986483177204e-16 0.0 0.01 0.0 1.0405986483177204e-16 0.0 0.010001384587509307 0.010001656661591017 0.0 4.31643989981848e-09 0.0 0.01 0.0 4.31643989981848e-09 0.0 0.010001416801044702 0.010001614641031938 0.0 1.9373203741538877e-08 0.0 0.01 0.0 1.9373203741538877e-08 0.0 0.010001512042928208 0.010001550160751148 0.0 5.0074595570308994e-08 0.0 0.01 0.0 5.0074595570308994e-08 0.0 0.010001656161715788 0.01000149738778534 0.0 1.0092683747076059e-07 0.0 0.01 0.0 1.0092683747032691e-07 0.0 0.010001845262150103 0.010001515498804688 0.0 1.7062170276941832e-07 0.0 0.01 0.0 1.7062170276941832e-07 0.0 0.010002070447198749 0.0100016347096636 0.0 2.43806640240745e-07 0.0 0.01 0.0 2.438066402411787e-07 0.0 0.010002331373951083 0.010001775384520465 0.0 2.80993366507179e-07 0.0 0.01 0.0 2.80993366507179e-07 0.0 0.010002632901292944 0.010002503890105987 0.0 -7.286582221537336e-19 0.0 0.01 0.0 -7.286582221537336e-19 0.0 0.010001553561958237 0.010002497535344764 0.0 5.052670399811204e-09 0.0 0.01 0.0 5.052670399811204e-09 0.0 0.010001584376461611 0.010002487277750258 0.0 2.241931041697563e-08 0.0 0.01 0.0 2.241931041697563e-08 0.0 0.010001672769705513 0.010002486277413755 0.0 5.687256832446683e-08 0.0 0.01 0.0 5.687256832457525e-08 0.0 0.010001811542618907 0.010002513148863627 0.0 1.0939485018193751e-07 0.0 0.01 0.0 1.0939485018193751e-07 0.0 0.010001997650225091 0.010002535167785582 0.0 1.643966489371998e-07 0.0 0.01 0.0 1.6439664893633243e-07 0.0 0.010002227297957668 0.010002476524615604 0.0 1.8162358670931883e-07 0.0 0.01 0.0 1.8162358670931883e-07 0.0 0.01000248773295762 0.010002260067664456 0.0 1.0680363287263878e-07 0.0 0.01 0.0 1.0680363287307246e-07 0.0 0.010002752137431587 0.01000377899103716 0.0 -1.7968655348270017e-18 0.0 0.01 0.0 -1.7968655348270017e-18 0.0 0.01000171869298432 0.01000374280023676 0.0 3.5164071774974057e-09 0.0 0.01 0.0 3.5164071774940176e-09 0.0 0.010001747057726832 0.010003628423899019 0.0 1.528121533162592e-08 0.0 0.01 0.0 1.5281215331639474e-08 0.0 0.010001832053374972 0.010003429964086876 0.0 3.612574511264359e-08 0.0 0.01 0.0 3.612574511253517e-08 0.0 0.010001977136401283 0.010003115205544528 0.0 5.619104673541212e-08 0.0 0.01 0.0 5.619104673541212e-08 0.0 0.01000219652396888 0.010002741377138604 0.0 4.308949264281506e-08 0.0 0.01 0.0 4.308949264259822e-08 0.0 0.010002466262345787 0.01000222584317656 0.0 -4.0050592088332164e-08 0.0 0.01 0.0 -4.0050592088440584e-08 0.0 0.01000270079398971 0.010003433917959388 0.0 -3.003676883144653e-17 0.0 0.01 0.0 -3.003676883144653e-17 0.0 0.010001863820944815 0.010003351283913204 0.0 -7.444524451960123e-10 0.0 0.01 0.0 -7.444524451960123e-10 0.0 0.010001891136324336 0.010003095686902918 0.0 -5.426484772042494e-09 0.0 0.01 0.0 -5.42648477204927e-09 0.0 0.010001982989685713 0.010002666115935005 0.0 -2.4202368476737915e-08 0.0 0.01 0.0 -2.4202368476792125e-08 0.0 0.010002167704725685 0.010002138386614293 0.0 -7.77184996770923e-08 0.0 0.01 0.0 -7.771849967795966e-08 0.0 0.010002476520574607 0.009999969500139537 0.0 6.061446678412332e-17 0.0 0.01 0.0 6.061446678412332e-17 0.0 0.01000000100000015 0.009999971500121838 0.0 3.8566639912188705e-17 0.0 0.01 0.0 3.8566639912188705e-17 0.0 0.01000000100000015 0.009999972500113436 0.0 -1.9583375188344878e-17 0.0 0.01 0.0 -1.9583375188344878e-17 0.0 0.010000000500000038 0.009999973500105336 0.0 -8.914029067167212e-17 0.0 0.01 0.0 -8.914029067167212e-17 0.0 0.01 0.00999997700007935 0.0 -7.955050054996877e-17 0.0 0.01 0.0 -7.955050054996877e-17 0.0 0.01 0.00999998000006 0.0 4.010002520045823e-17 0.0 0.01 0.0 4.010002520045823e-17 0.0 0.01 0.009999985000033752 0.0 1.9560931053477055e-16 0.0 0.01 0.0 1.9560931053477055e-16 0.0 0.009999999000000152 0.009999961500222337 0.0 8.319668763234607e-17 0.0 0.01 0.0 8.319668763234607e-17 0.0 0.010000001450000314 0.009999963500199835 0.0 3.362197673324059e-17 0.0 0.01 0.0 3.362197673324059e-17 0.0 0.010000001450000314 0.00999996500018375 0.0 -5.411884899261712e-17 0.0 0.01 0.0 -5.411884899261712e-17 0.0 0.01000000100000015 0.009999967500158436 0.0 -1.552424198436455e-16 0.0 0.01 0.0 -1.552424198436455e-16 0.0 0.010000000500000038 0.009999970500130536 0.0 -2.1113939071143088e-16 0.0 0.01 0.0 -2.1113939071143088e-16 0.0 0.01 0.009999974500097536 0.0 -1.288004676769671e-16 0.0 0.01 0.0 -1.288004676769671e-16 0.0 0.009999999500000037 0.009999979500063037 0.0 1.0963005322805764e-16 0.0 0.01 0.0 1.0963005322805764e-16 0.0 0.009999998500000338 0.0099999860000294 0.0 2.459919212111361e-16 0.0 0.01 0.0 2.459919211852867e-16 0.0 0.00999999750000094 0.009999953000331347 0.0 6.61407030935565e-17 0.0 0.01 0.0 6.61407030935565e-17 0.0 0.010000001450000314 0.009999953500324335 0.0 -5.054978340802667e-17 0.0 0.01 0.0 -5.054978340802667e-17 0.0 0.010000001450000314 0.009999956000290399 0.0 -5.835065757603133e-17 0.0 0.01 0.0 -5.835065757603133e-17 0.0 0.010000001450000314 0.009999958500258335 0.0 -2.486337695658334e-16 0.0 0.01 0.0 -2.486337695658334e-16 0.0 0.01000000100000015 0.009999963000205348 0.0 -2.762110470337367e-16 0.0 0.01 0.0 -2.762110470337367e-16 0.0 0.01 0.009999968000153599 0.0 -1.9211159845939448e-16 0.0 0.01 0.0 -1.9211159845939448e-16 0.0 0.009999999500000037 0.009999974000101402 0.0 3.2480476645388406e-16 0.0 0.01 0.0 3.2480476645388406e-16 0.0 0.00999999750000094 0.00999998050005704 0.0 3.8685826528759547e-16 0.0 0.01 0.0 3.8685826528759547e-16 0.0 0.009999996500001839 0.009999941000522145 0.0 1.643632557902055e-17 0.0 0.01 0.0 1.643632557902055e-17 0.0 0.0100000024500009 0.009999943500478833 0.0 -2.819353842060691e-17 0.0 0.01 0.0 -2.819353842060691e-17 0.0 0.0100000024500009 0.009999945000453746 0.0 -5.0615826020274025e-17 0.0 0.01 0.0 -5.0615826020274025e-17 0.0 0.0100000024500009 0.009999948000405597 0.0 -1.695928290623788e-16 0.0 0.01 0.0 -1.695928290623788e-16 0.0 0.010000001450000314 0.009999953000331347 0.0 7.828504809000607e-17 0.0 0.01 0.0 7.828504809000607e-17 0.0 0.01 0.009999960000240001 0.0 3.6432529939039216e-16 0.0 0.01 0.0 3.6432529939039216e-16 0.0 0.009999999000000152 0.00999996750015844 0.0 5.0819218201150046e-14 0.0 0.01 0.0 5.0819218201150046e-14 0.0 0.009999997500000942 0.009999975500090035 0.0 1.9106506319935404e-13 0.0 0.01 0.0 1.9106506318611915e-13 0.0 0.0099999960000024 0.009999928500766829 0.0 -5.207502805403551e-18 0.0 0.01 0.0 -5.207502805403551e-18 0.0 0.010000003400001733 0.00999992950074553 0.0 1.4733524207302372e-17 0.0 0.01 0.0 1.4733524207302372e-17 0.0 0.010000003400001733 0.00999993200069359 0.0 1.7634299611313823e-16 0.0 0.01 0.0 1.7634299611313823e-16 0.0 0.0100000024500009 0.009999936000614393 0.0 4.121937744307566e-16 0.0 0.01 0.0 4.121937744307566e-16 0.0 0.0100000024500009 0.009999941000522143 0.0 4.749353874425697e-13 0.0 0.01 0.0 4.749353874425697e-13 0.0 0.010000000500000036 0.009999948500397836 0.0 4.298526899095039e-12 0.0 0.01 0.0 4.2985268989891595e-12 0.0 0.00999999900000015 0.009999958000264599 0.0 1.2208597176254236e-11 0.0 0.01 0.0 1.220859717583072e-11 0.0 0.009999996500001837 0.009999968500148835 0.0 2.1577663743301803e-11 0.0 0.01 0.0 2.1577663743301803e-11 0.0 0.009999994500004538 0.00999991050120152 0.0 1.895643317793214e-17 0.0 0.01 0.0 1.895643317793214e-17 0.0 0.010000003400001733 0.00999991150117482 0.0 2.0774087877507842e-16 0.0 0.01 0.0 2.0774087877507842e-16 0.0 0.010000003900002281 0.009999914001109386 0.0 5.957126691287148e-16 0.0 0.01 0.0 5.957126691287148e-16 0.0 0.010000003400001733 0.009999919500972025 0.0 2.0115597496951438e-12 0.0 0.01 0.0 2.0115597496951438e-12 0.0 0.010000002450000902 0.009999924500855028 0.0 1.7414269895890677e-11 0.0 0.01 0.0 1.7414269895890677e-11 0.0 0.010000001000000152 0.009999933500663331 0.0 6.161582651738296e-11 0.0 0.01 0.0 6.161582651738296e-11 0.0 0.009999998500000338 0.0099999460004374 0.0 1.3133288255745904e-10 0.0 0.01 0.0 1.3133288255745904e-10 0.0 0.009999995500003042 0.009999958500258345 0.0 2.051193381542426e-10 0.0 0.01 0.0 2.0511933814069006e-10 0.0 0.009999993500006348 0.009999888001881565 0.0 2.0535781593327634e-16 0.0 0.01 0.0 2.0535781593327634e-16 0.0 0.010000004900003601 0.009999890001814967 0.0 6.958742795727695e-16 0.0 0.01 0.0 6.958742795727695e-16 0.0 0.010000004900003601 0.009999892501733408 0.0 1.8113723730262044e-12 0.0 0.01 0.0 1.8113723730526742e-12 0.0 0.010000004900003603 0.009999897001591321 0.0 2.440332991478694e-11 0.0 0.01 0.0 2.4403329914363423e-11 0.0 0.010000003400001732 0.009999904501368019 0.0 1.1754792669599822e-10 0.0 0.01 0.0 1.1754792669599822e-10 0.0 0.010000001450000318 0.009999913501122339 0.0 3.2976809207185516e-10 0.0 0.01 0.0 3.297680920650789e-10 0.0 0.009999998500000355 0.00999992650081039 0.0 6.448077573999785e-10 0.0 0.01 0.0 6.448077573999785e-10 0.0 0.009999995000003812 0.009999943000487477 0.0 9.311547013589501e-10 0.0 0.01 0.0 9.311547014131602e-10 0.0 0.009999991500010966 0.00999986000293993 0.0 1.0468670130082486e-16 0.0 0.01 0.0 1.0468670130082486e-16 0.0 0.010000006350006049 0.00999986050291897 0.0 3.528643624403552e-13 0.0 0.01 0.0 3.528643624403552e-13 0.0 0.010000006350006047 0.009999864002774339 0.0 1.4767296314034293e-11 0.0 0.01 0.0 1.4767296314034293e-11 0.0 0.010000006350006049 0.00999986850259378 0.0 1.1071971744011568e-10 0.0 0.01 0.0 1.1071971744011568e-10 0.0 0.010000004900003603 0.00999987550232502 0.0 4.3081710283097464e-10 0.0 0.01 0.0 4.3081710283097464e-10 0.0 0.010000002450000928 0.009999885501966684 0.0 1.1109872521735883e-09 0.0 0.01 0.0 1.1109872522006934e-09 0.0 0.009999999000000336 0.00999989900153078 0.0 2.095027724869844e-09 0.0 0.01 0.0 2.095027724842739e-09 0.0 0.00999999400000606 0.009999916501047125 0.0 2.9458095140186095e-09 0.0 0.01 0.0 2.9458095140728197e-09 0.0 0.009999989500017837 0.009999824504619902 0.0 2.7640704273974847e-16 0.0 0.01 0.0 2.7640704273974847e-16 0.0 0.010000008300010334 0.009999826004541268 0.0 3.194405042942197e-12 0.0 0.01 0.0 3.1944050429686666e-12 0.0 0.010000008800011615 0.009999827504463309 0.0 5.242033782426226e-11 0.0 0.01 0.0 5.242033782426226e-11 0.0 0.010000008800011615 0.009999831004284046 0.0 3.1009675014085996e-10 0.0 0.01 0.0 3.100967501442481e-10 0.0 0.01000000830001035 0.009999837503961013 0.0 1.1006348810729252e-09 0.0 0.01 0.0 1.1006348810593727e-09 0.0 0.010000004900003783 0.009999845003604797 0.0 2.759474192361557e-09 0.0 0.01 0.0 2.759474192361557e-09 0.0 0.01000000000000114 0.009999858003028566 0.0 5.18724906523613e-09 0.0 0.01 0.0 5.18724906512771e-09 0.0 0.009999993000011385 0.009999875502333087 0.0 7.347039569392463e-09 0.0 0.01 0.0 7.347039569392463e-09 0.0 0.009999988000029696 0.009999781007193887 0.0 3.408279190085833e-14 0.0 0.01 0.0 3.408279190085833e-14 0.0 0.010000011250018984 0.009999781007193887 0.0 9.77397081313608e-12 0.0 0.01 0.0 9.773970813083141e-12 0.0 0.010000012200022326 0.009999783007063095 0.0 1.1714992996050177e-10 0.0 0.01 0.0 1.1714992996050177e-10 0.0 0.010000012700024194 0.009999784506965845 0.0 6.246998530277839e-10 0.0 0.01 0.0 6.246998530243957e-10 0.0 0.010000011700020591 0.00999978850671029 0.0 2.1422673646549458e-09 0.0 0.01 0.0 2.1422673646684983e-09 0.0 0.010000008800012304 0.009999794006369507 0.0 5.3711287009293625e-09 0.0 0.01 0.0 5.371128700983573e-09 0.0 0.01000000145000464 0.009999802005896207 0.0 1.0263512897640964e-08 0.0 0.01 0.0 1.0263512897640964e-08 0.0 0.00999999300002315 0.009999818504974367 0.0 1.4873008618849874e-08 0.0 0.01 0.0 1.4873008618741454e-08 0.0 0.00999998500006693 0.009999726011260889 0.0 1.4607614326683293e-13 0.0 0.01 0.0 1.460761432684873e-13 0.0 0.01000001515003443 0.009999725511302019 0.0 1.7347385421200762e-11 0.0 0.01 0.0 1.734738542130664e-11 0.0 0.010000016600041333 0.009999727011178844 0.0 1.8626820360402786e-10 0.0 0.01 0.0 1.8626820360318082e-10 0.0 0.010000019550057337 0.009999726511219964 0.0 9.592789237109801e-10 0.0 0.01 0.0 9.592789237109801e-10 0.0 0.01000002000006014 0.009999728011098712 0.0 3.2796252665110055e-09 0.0 0.01 0.0 3.279625266497453e-09 0.0 0.010000015600038121 0.009999728511066777 0.0 8.342814813012793e-09 0.0 0.01 0.0 8.342814813012793e-09 0.0 0.010000006850017482 0.009999732010812954 0.0 1.6295635529655315e-08 0.0 0.01 0.0 1.6295635529655315e-08 0.0 0.009999993500046175 0.009999745509802245 0.0 2.4099594701136942e-08 0.0 0.01 0.0 2.4099594701136942e-08 0.0 0.009999980000147122 0.009999660017339016 0.0 1.630009354741185e-13 0.0 0.01 0.0 1.6300093547577287e-13 0.0 0.010000021000066148 0.0099996580175436 0.0 2.0035255529555157e-11 0.0 0.01 0.0 2.0035255529661037e-11 0.0 0.010000024400089307 0.009999657017646348 0.0 2.1886759868749696e-10 0.0 0.01 0.0 2.18867598688344e-10 0.0 0.01000002785011635 0.009999656017749579 0.0 1.14329258012503e-09 0.0 0.01 0.0 1.14329258012503e-09 0.0 0.010000030750142032 0.009999655017855102 0.0 3.983904480072374e-09 0.0 0.01 0.0 3.983904480058822e-09 0.0 0.01000002685011052 0.00999965551781716 0.0 1.0374985932436881e-08 0.0 0.01 0.0 1.0374985932436881e-08 0.0 0.010000016100055027 0.009999656017813814 0.0 2.0725004541742933e-08 0.0 0.01 0.0 2.0725004541634513e-08 0.0 0.009999999500064473 0.009999668016679753 0.0 3.131228800475495e-08 0.0 0.01 0.0 3.131228800475495e-08 0.0 0.009999984000185477 0.009999579526521177 0.0 4.628844375773049e-14 0.0 0.01 0.0 4.628844375773049e-14 0.0 0.010000027850116344 0.009999575027091829 0.0 1.4939749113166715e-11 0.0 0.01 0.0 1.4939749113166715e-11 0.0 0.010000036150196024 0.009999572027475645 0.0 1.8915346816988178e-10 0.0 0.01 0.0 1.891534681707288e-10 0.0 0.010000042000264608 0.00999957002773318 0.0 1.0542105916385358e-09 0.0 0.01 0.0 1.054210591641924e-09 0.0 0.010000046400323115 0.009999567528058613 0.0 3.830244412898797e-09 0.0 0.01 0.0 3.830244412898797e-09 0.0 0.010000044900304603 0.009999567028137306 0.0 1.0322466989005517e-08 0.0 0.01 0.0 1.0322466989032622e-08 0.0 0.010000035150201314 0.009999569027929422 0.0 2.1177714212762978e-08 0.0 0.01 0.0 2.1177714212762978e-08 0.0 0.010000018050116148 0.009999584026117019 0.0 3.270290481656186e-08 0.0 0.01 0.0 3.270290481667028e-08 0.0 0.01000001365018838 0.009999481540322853 0.0 2.3494892831473416e-16 0.0 0.01 0.0 2.3494892831473416e-16 0.0 0.010000039050228738 0.009999474541418911 0.0 6.317033881680516e-12 0.0 0.01 0.0 6.317033881680516e-12 0.0 0.010000048350350661 0.009999468542370086 0.0 1.1473335014836798e-10 0.0 0.01 0.0 1.147333501487915e-10 0.0 0.010000059100523928 0.009999463543171057 0.0 7.342596348898647e-10 0.0 0.01 0.0 7.342596348915587e-10 0.0 0.010000067400681503 0.009999462043413947 0.0 2.872649708080368e-09 0.0 0.01 0.0 2.872649708080368e-09 0.0 0.010000069800732054 0.009999462543341981 0.0 8.13350548842023e-09 0.0 0.01 0.0 8.13350548842023e-09 0.0 0.010000064950642706 0.00999946754257405 0.0 1.720182298995754e-08 0.0 0.01 0.0 1.720182298995754e-08 0.0 0.010000057150534314 0.009999486039734506 0.0 2.689525028978356e-08 0.0 0.01 0.0 2.689525028978356e-08 0.0 0.01000006640076986 0.009999362061050107 0.0 6.999105527955699e-16 0.0 0.01 0.0 6.999105527955699e-16 0.0 0.010000051750401712 0.009999351563076025 0.0 8.716142313015489e-13 0.0 0.01 0.0 8.716142313015489e-13 0.0 0.010000065900651429 0.009999343564641761 0.0 4.293031245539953e-11 0.0 0.01 0.0 4.293031245550541e-11 0.0 0.010000081050985378 0.009999337065928085 0.0 3.632291978706534e-10 0.0 0.01 0.0 3.632291978706534e-10 0.0 0.010000094251332498 0.009999333566626332 0.0 1.621864884804498e-09 0.0 0.01 0.0 1.62186488480111e-09 0.0 0.010000102051562551 0.009999333566629623 0.0 4.960149520988073e-09 0.0 0.01 0.0 4.960149520988073e-09 0.0 0.01000010255158119 0.009999339565449837 0.0 1.095589218910102e-08 0.0 0.01 0.0 1.095589218910102e-08 0.0 0.010000105951701843 0.009999357561959762 0.0 1.740848082487233e-08 0.0 0.01 0.0 1.7408480824899434e-08 0.0 0.01000012600242691 0.009999218091716645 0.0 8.272650655529164e-16 0.0 0.01 0.0 8.272650655529164e-16 0.0 0.010000066900671348 0.009999204095029794 0.0 4.1192241339699125e-15 0.0 0.01 0.0 4.1192241339699125e-15 0.0 0.010000085951108127 0.009999191598037627 0.0 6.821927099603987e-12 0.0 0.01 0.0 6.821927099603987e-12 0.0 0.010000105451667988 0.00999918160047763 0.0 1.0944685139555843e-10 0.0 0.01 0.0 1.0944685139555843e-10 0.0 0.010000123552289738 0.009999176101832477 0.0 6.31618170618448e-10 0.0 0.01 0.0 6.31618170617601e-10 0.0 0.010000138652883699 0.009999174102328047 0.0 2.205270321622234e-09 0.0 0.01 0.0 2.2052703216188458e-09 0.0 0.010000146003198207 0.00999918010085038 0.0 5.268069310833011e-09 0.0 0.01 0.0 5.268069310833011e-09 0.0 0.010000157253713393 0.009999195097202044 0.0 8.692499769784832e-09 0.0 0.01 0.0 8.692499769784832e-09 0.0 0.010000181654960997 0.0099990456366388 0.0 8.9734507786319e-17 0.0 0.01 0.0 8.9734507786319e-17 0.0 0.010000085451095271 0.009999026142278303 0.0 5.3032368494598476e-15 0.0 0.01 0.0 5.3032368494598476e-15 0.0 0.010000108901778914 0.009999008647436473 0.0 -5.519257648969954e-15 0.0 0.01 0.0 -5.519257648969954e-15 0.0 0.010000135252743948 0.009998993152081824 0.0 1.2104027934041924e-11 0.0 0.01 0.0 1.210402793402869e-11 0.0 0.010000160653871368 0.009998984654659865 0.0 1.3247903075765356e-10 0.0 0.01 0.0 1.3247903075807708e-10 0.0 0.01000018115492245 0.009998980655880606 0.0 6.103396692313769e-10 0.0 0.01 0.0 6.103396692305299e-10 0.0 0.01000019335560787 0.009998982655270036 0.0 1.684366890110245e-09 0.0 0.01 0.0 1.684366890108551e-09 0.0 0.010000209006552805 0.009998991152687861 0.0 3.040916343362163e-09 0.0 0.01 0.0 3.040916343358775e-09 0.0 0.010000236808412857 0.009998839701974974 0.0 -1.5285134570187308e-15 0.0 0.01 0.0 -1.5285134570187308e-15 0.0 0.010000105001653778 0.00999881371112559 0.0 5.215061319802521e-15 0.0 0.01 0.0 5.215061319802521e-15 0.0 0.010000136702803097 0.009998789719752202 0.0 -2.7929382507054936e-15 0.0 0.01 0.0 -2.7929382507054936e-15 0.0 0.01000017140440682 0.009998769227257523 0.0 -1.350519738333036e-13 0.0 0.01 0.0 -1.350519738333036e-13 0.0 0.01000020165609961 0.009998754732642248 0.0 4.548843628477545e-12 0.0 0.01 0.0 4.548843628477545e-12 0.0 0.01000022705773305 0.009998746235828112 0.0 6.155939538249187e-11 0.0 0.01 0.0 6.155939538254481e-11 0.0 0.010000244658978408 0.00999874473639258 0.0 2.445071054687292e-10 0.0 0.01 0.0 2.445071054687292e-10 0.0 0.010000263660427165 0.009998747235452217 0.0 5.235133978499912e-10 0.0 0.01 0.0 5.235133978499912e-10 0.0 0.010000295913134208 0.009998593796666795 0.0 -4.030140198641622e-15 0.0 0.01 0.0 -4.030140198641622e-15 0.0 0.010000128902492335 0.009998558311829659 0.0 3.0579832415383342e-15 0.0 0.01 0.0 3.0579832415383342e-15 0.0 0.010000167004183467 0.009998525826042413 0.0 -5.917391699903078e-16 0.0 0.01 0.0 -5.917391699903078e-16 0.0 0.010000209456580625 0.009998497838541162 0.0 -1.605261012536626e-13 0.0 0.01 0.0 -1.605261012535592e-13 0.0 0.010000249509337925 0.009998476848069458 0.0 -7.612435855744739e-13 0.0 0.01 0.0 -7.612435855744739e-13 0.0 0.010000283212030904 0.009998465353343354 0.0 -2.0124106017915345e-12 0.0 0.01 0.0 -2.012410601793189e-12 0.0 0.01000030521397277 0.00999845785680421 0.0 -1.802695620879953e-12 0.0 0.01 0.0 -1.8026956208816074e-12 0.0 0.010000329116246912 0.009998457357035537 0.0 5.3622518830629785e-12 0.0 0.01 0.0 5.3622518830629785e-12 0.0 0.010000364769957599 0.009998305430832043 0.0 -4.762019818332262e-15 0.0 0.01 0.0 -4.762019818332262e-15 0.0 0.010000153303525224 0.009998257955313708 0.0 -9.477312960862527e-16 0.0 0.01 0.0 -9.477312960862527e-16 0.0 0.0100002011560694 0.009998211479935052 0.0 1.5977201182462055e-16 0.0 0.01 0.0 1.5977201182462055e-16 0.0 0.010000254909746516 0.009998171501633239 0.0 -1.9199156587807674e-13 0.0 0.01 0.0 -1.9199156587807674e-13 0.0 0.010000304713927021 0.009998141518221591 0.0 -9.872789122656579e-13 0.0 0.01 0.0 -9.872789122656579e-13 0.0 0.010000346718031176 0.009998120529993937 0.0 -2.7181117909000248e-12 0.0 0.01 0.0 -2.7181117909000248e-12 0.0 0.010000376471258525 0.009998110535646271 0.0 -4.661133985226873e-12 0.0 0.01 0.0 -4.6611339852301815e-12 0.0 0.010000408224995786 0.009998106537915602 0.0 -4.327638444992221e-12 0.0 0.01 0.0 -4.327638444992221e-12 0.0 0.010000451180532747 0.009997964621583479 0.0 -2.987169690476035e-15 0.0 0.01 0.0 -2.987169690476035e-15 0.0 0.010000181154922448 0.00999790066126856 0.0 -5.934662242256117e-15 0.0 0.01 0.0 -5.934662242256117e-15 0.0 0.010000238758550576 0.009997838201208215 0.0 -6.210498693158148e-16 0.0 0.01 0.0 -6.210498693158148e-16 0.0 0.010000302263703948 0.009997781738321103 0.0 -2.348579726777673e-13 0.0 0.01 0.0 -2.348579726777673e-13 0.0 0.010000366720171568 0.009997737268225032 0.0 -1.2850562683988528e-12 0.0 0.01 0.0 -1.28505626839968e-12 0.0 0.010000420426512283 0.009997704290784174 0.0 -3.649045428956291e-12 0.0 0.01 0.0 -3.649045428956291e-12 0.0 0.010000459981735535 0.009997685303920797 0.0 -6.348127173416135e-12 0.0 0.01 0.0 -6.3481271734194436e-12 0.0 0.010000504438166111 0.009997675310878262 0.0 -5.7872642921616504e-12 0.0 0.01 0.0 -5.7872642921616504e-12 0.0 0.010000562547465387 0.009997565389388029 0.0 8.28221550178362e-15 0.0 0.01 0.0 8.28221550178362e-15 0.0 0.010000212906799203 0.009997481951404727 0.0 -8.250109758957058e-15 0.0 0.01 0.0 -8.250109758957058e-15 0.0 0.01000028026178156 0.009997398015900627 0.0 -5.468054967220852e-15 0.0 0.01 0.0 -5.468054967220852e-15 0.0 0.010000356969113132 0.009997322575674154 0.0 -3.0532367744897105e-13 0.0 0.01 0.0 -3.0532367744897105e-13 0.0 0.010000434128268468 0.009997254131383379 0.0 -1.689097436536618e-12 0.0 0.01 0.0 -1.6890974365374452e-12 0.0 0.010000501487720966 0.009997203173773244 0.0 -4.8663051673007795e-12 0.0 0.01 0.0 -4.866305167304088e-12 0.0 0.01000055324590877 0.009997167204164648 0.0 -8.474001719914985e-12 0.0 0.01 0.0 -8.474001719914985e-12 0.0 0.010000615306785709 0.009997145722500246 0.0 -7.332083284849993e-12 0.0 0.01 0.0 -7.332083284849993e-12 0.0 0.010000696872837996 0.009997100761325307 0.0 2.524644133542494e-14 0.0 0.01 0.0 2.524644133542494e-14 0.0 0.010000251009450544 0.009996996353825727 0.0 -1.6216668073131192e-15 0.0 0.01 0.0 -1.6216668073131192e-15 0.0 0.010000325215864117 0.009996886954261675 0.0 -2.6048556845120554e-14 0.0 0.01 0.0 -2.6048556845120554e-14 0.0 0.010000414575779538 0.009996781554425816 0.0 -4.551899378968239e-13 0.0 0.01 0.0 -4.551899378968239e-13 0.0 0.010000507338606262 0.0099966851489644 0.0 -2.3245444193406437e-12 0.0 0.01 0.0 -2.3245444193398166e-12 0.0 0.01000058745176088 0.009996606727926061 0.0 -6.552709226070813e-12 0.0 0.01 0.0 -6.552709226074122e-12 0.0 0.010000651913743192 0.009996546290041153 0.0 -1.111559525728355e-11 0.0 0.01 0.0 -1.1115595257286858e-11 0.0 0.010000741282416799 0.009996503334855498 0.0 -8.548371009114763e-12 0.0 0.01 0.0 -8.548371009121381e-12 0.0 0.010000860461046243 0.00999657476064376 0.0 4.054489169211635e-14 0.0 0.01 0.0 4.054489169211635e-14 0.0 0.010000299313437745 0.009996444896712949 0.0 -2.976110063331328e-15 0.0 0.01 0.0 -2.976110063331328e-15 0.0 0.01000038137181556 0.009996304050017148 0.0 -1.0305012190478115e-13 0.0 0.01 0.0 -1.0305012190478115e-13 0.0 0.010000480484627606 0.00999616121157642 0.0 -8.072932892099263e-13 0.0 0.01 0.0 -8.072932892097195e-13 0.0 0.010000585501417771 0.009996027368524655 0.0 -3.4634375944900472e-12 0.0 0.01 0.0 -3.4634375944908744e-12 0.0 0.010000677318807901 0.009995910010571082 0.0 -9.132387575458812e-12 0.0 0.01 0.0 -9.132387575455503e-12 0.0 0.010000751084610744 0.009995816127184285 0.0 -1.458267143288224e-11 0.0 0.01 0.0 -1.458267143288224e-11 0.0 0.010000870213577574 0.009995743219570441 0.0 -8.90229595835639e-12 0.0 0.01 0.0 -8.90229595835639e-12 0.0 0.01000104606411463 0.00999599091220713 0.0 -1.670878724323064e-14 0.0 0.01 0.0 -1.670878724323064e-14 0.0 0.010000363769848314 0.00999583310589872 0.0 -9.626077666191801e-14 0.0 0.01 0.0 -9.626077666186631e-14 0.0 0.010000450730471865 0.009995657829804579 0.0 -3.6837976557524664e-13 0.0 0.01 0.0 -3.6837976557524664e-13 0.0 0.010000558646809458 0.009995472576491618 0.0 -1.6376132641592421e-12 0.0 0.01 0.0 -1.6376132641588285e-12 0.0 0.010000674868310942 0.009995290828534259 0.0 -5.696915392080405e-12 0.0 0.01 0.0 -5.696915392080405e-12 0.0 0.010000772039397527 0.009995125566333292 0.0 -1.357218591841336e-11 0.0 0.01 0.0 -1.357218591841336e-11 0.0 0.010000841406182744 0.00999498427614811 0.0 -1.9813536224774783e-11 0.0 0.01 0.0 -1.9813536224774783e-11 0.0 0.010000989896965004 0.009994868452621071 0.0 -8.126183089165549e-12 0.0 0.01 0.0 -8.12618308916224e-12 0.0 0.010001248283692935 0.009995377207508508 0.0 -3.459088742681732e-13 0.0 0.01 0.0 -3.459088742681732e-13 0.0 0.010000460981873686 0.009995191470518357 0.0 -5.128380342450481e-13 0.0 0.01 0.0 -5.128380342448413e-13 0.0 0.010000545944705092 0.00999497828517727 0.0 -1.1172643353953356e-12 0.0 0.01 0.0 -1.117264335394922e-12 0.0 0.01000066216576372 0.009994745644141505 0.0 -3.5231576421584925e-12 0.0 0.01 0.0 -3.5231576421584925e-12 0.0 0.01000078524248118 0.009994510523463604 0.0 -1.0311270161814943e-11 0.0 0.01 0.0 -1.0311270161818252e-11 0.0 0.010000879015886756 0.009994288896234145 0.0 -2.218333898132874e-11 0.0 0.01 0.0 -2.218333898132874e-11 0.0 0.010000924928308032 0.009994090742029461 0.0 -2.922244045630978e-11 0.0 0.01 0.0 -2.922244045630978e-11 0.0 0.010001082675802657 0.009993921546634397 0.0 -6.7678132649909965e-12 0.0 0.01 0.0 -6.7678132649909965e-12 0.0 0.010001445113192476 0.009994781587618162 0.0 -1.246799777990084e-12 0.0 0.01 0.0 -1.2467997779904976e-12 0.0 0.010000606005081875 0.009994567929316689 0.0 -1.5153593253666096e-12 0.0 0.01 0.0 -1.5153593253670232e-12 0.0 0.010000692471920963 0.009994318844998176 0.0 -2.7320380839006712e-12 0.0 0.01 0.0 -2.7320380839006712e-12 0.0 0.010000815999867504 0.00999404083098985 0.0 -7.60442176245398e-12 0.0 0.01 0.0 -7.604421762455634e-12 0.0 0.010000944933918144 0.009993751860768845 0.0 -2.0318655849175442e-11 0.0 0.01 0.0 -2.0318655849175442e-11 0.0 0.010001027008190213 0.00999347239700744 0.0 -4.0401472052319594e-11 0.0 0.01 0.0 -4.0401472052319594e-11 0.0 0.0100010157547427 0.009993211418987154 0.0 -4.881736613097137e-11 0.0 0.01 0.0 -4.881736613097137e-11 0.0 0.010001139344686374 0.009992982393937188 0.0 -7.620683247694047e-12 0.0 0.01 0.0 -7.620683247694047e-12 0.0 0.01000161514121792 0.009994279911657434 0.0 -2.7379104095560725e-12 0.0 0.01 0.0 -2.7379104095552453e-12 0.0 0.010000823851798587 0.009994044324738285 0.0 -2.915471575984321e-12 0.0 0.01 0.0 -2.9154715759826667e-12 0.0 0.01000092052708992 0.009993766333637856 0.0 -5.442442527138149e-12 0.0 0.01 0.0 -5.442442527138149e-12 0.0 0.010001059718426674 0.00999345193718883 0.0 -1.619940409112511e-11 0.0 0.01 0.0 -1.61994040911218e-11 0.0 0.010001200916295357 0.009993119607490102 0.0 -4.267031015054e-11 0.0 0.01 0.0 -4.267031015054662e-11 0.0 0.010001262439022609 0.009992788308781688 0.0 -8.064582563689023e-11 0.0 0.01 0.0 -8.064582563686376e-11 0.0 0.010001152549224847 0.009992474004624524 0.0 -9.112400775561608e-11 0.0 0.01 0.0 -9.112400775562932e-11 0.0 0.010001165253640767 0.009992190657409247 0.0 -1.7209482960289518e-11 0.0 0.01 0.0 -1.7209482960289518e-11 0.0 0.01000173240007754 0.009993973951369124 0.0 -3.81366452656266e-12 0.0 0.01 0.0 -3.8136645265618324e-12 0.0 0.010001149148050842 0.009993729402993137 0.0 -3.308552310231094e-12 0.0 0.01 0.0 -3.308552310231921e-12 0.0 0.01000127514385732 0.009993435968637228 0.0 -8.960511021912924e-12 0.0 0.01 0.0 -8.960511021912924e-12 0.0 0.010001448564690167 0.009993106135363769 0.0 -3.378084980997937e-11 0.0 0.01 0.0 -3.378084980997937e-11 0.0 0.01000161369051554 0.009992753883546772 0.0 -9.124279623999619e-11 0.0 0.01 0.0 -9.124279623999619e-11 0.0 0.010001650808685446 0.009992398176951254 0.0 -1.6687767527653747e-10 0.0 0.01 0.0 -1.6687767527656394e-10 0.0 0.010001401644636095 0.009992052484500158 0.0 -1.789061033376698e-10 0.0 0.01 0.0 -1.789061033376698e-10 0.0 0.01000121457124167 0.00999173525719834 0.0 -4.50729950136542e-11 0.0 0.01 0.0 -4.507299501366082e-11 0.0 0.010001803687876162 0.009994006891910047 0.0 -1.9492151553502023e-12 0.0 0.01 0.0 -1.9492151553502023e-12 0.0 0.010001617092163507 0.00999376583457236 0.0 3.018823647011685e-13 0.0 0.01 0.0 3.018823647011685e-13 0.0 0.01000180663947402 0.009993483874521678 0.0 -1.2627924673975806e-11 0.0 0.01 0.0 -1.2627924673974151e-11 0.0 0.010002044076566585 0.009993171500634024 0.0 -6.769386794625268e-11 0.0 0.01 0.0 -6.769386794623945e-11 0.0 0.01000225321131546 0.009992841194618313 0.0 -1.8835347932788294e-10 0.0 0.01 0.0 -1.8835347932788294e-10 0.0 0.010002260065953903 0.009992503438199648 0.0 -3.36897709637409e-10 0.0 0.01 0.0 -3.36897709637409e-10 0.0 0.010001853565228293 0.009992169706635603 0.0 -3.4629736099732976e-10 0.0 0.01 0.0 -3.4629736099732976e-10 0.0 0.010001408997735276 0.009991860947420812 0.0 -1.0157141894998873e-10 0.0 0.01 0.0 -1.0157141894998873e-10 0.0 0.010001906294955554 0.009994550457865386 0.0 6.137138107250513e-12 0.0 0.01 0.0 6.137138107248858e-12 0.0 0.010002264418906797 0.00999433980929319 0.0 1.119213605694113e-11 0.0 0.01 0.0 1.119213605694113e-11 0.0 0.0100025585816161 0.009994104218138365 0.0 -1.637596551581537e-11 0.0 0.01 0.0 -1.637596551581537e-11 0.0 0.010002891403548897 0.009993852673093896 0.0 -1.2677253854474416e-10 0.0 0.01 0.0 -1.2677253854477063e-10 0.0 0.010003157745073607 0.00999359565759803 0.0 -3.579071596856844e-10 0.0 0.01 0.0 -3.5790715968573736e-10 0.0 0.010003148936746175 0.00999333417092029 0.0 -6.272921555032286e-10 0.0 0.01 0.0 -6.272921555032286e-10 0.0 0.01000260796987144 0.009993073203728832 0.0 -6.239145553607238e-10 0.0 0.01 0.0 -6.239145553607238e-10 0.0 0.010001964928990257 0.009992826725768254 0.0 -1.917154133593619e-10 0.0 0.01 0.0 -1.917154133593619e-10 0.0 0.010002244905714053 0.009995798649186273 0.0 2.1610337787335863e-11 0.0 0.01 0.0 2.1610337787332554e-11 0.0 0.010003104945504545 0.009995650339578636 0.0 2.923553631080733e-11 0.0 0.01 0.0 2.923553631080733e-11 0.0 0.010003543382444484 0.009995500039270465 0.0 -2.2675598649073865e-11 0.0 0.01 0.0 -2.2675598649073865e-11 0.0 0.01000400190100056 0.00999535773459626 0.0 -2.1491631482162444e-10 0.0 0.01 0.0 -2.149163148215715e-10 0.0 0.010004339723346084 0.009995226919520777 0.0 -5.973018189740233e-10 0.0 0.01 0.0 -5.973018189740233e-10 0.0 0.010004332413846025 0.00999509710811108 0.0 -1.0206933437802507e-09 0.0 0.01 0.0 -1.020693343780039e-09 0.0 0.010003849371509084 0.009994965804022772 0.0 -9.84114571157328e-10 0.0 0.01 0.0 -9.841145711571162e-10 0.0 0.010003255989530235 0.009994837500463767 0.0 -2.9886507469669386e-10 0.0 0.01 0.0 -2.988650746966409e-10 0.0 0.010003233017184452 0.009997886170430273 0.0 3.9819902372479255e-11 0.0 0.01 0.0 3.9819902372479255e-11 0.0 0.010004115339009046 0.009997830206405002 0.0 4.703791949577108e-11 0.0 0.01 0.0 4.703791949575785e-11 0.0 0.010004729402973452 0.009997799226723699 0.0 -3.6098209505095355e-11 0.0 0.01 0.0 -3.6098209505095355e-11 0.0 0.010005336769127796 0.009997804723097766 0.0 -3.172818211673427e-10 0.0 0.01 0.0 -3.1728182116739566e-10 0.0 0.01000577259458284 0.009997835702830256 0.0 -8.454586869930589e-10 0.0 0.01 0.0 -8.454586869932707e-10 0.0 0.010005918800686435 0.009997878175512273 0.0 -1.3932116343316872e-09 0.0 0.01 0.0 -1.3932116343314755e-09 0.0 0.010005926163753431 0.009997916651232458 0.0 -1.2853230648131694e-09 0.0 0.01 0.0 -1.2853230648129577e-09 0.0 0.01000569335846153 0.009997950630159718 0.0 -3.62968857186812e-10 0.0 0.01 0.0 -3.6296885718670614e-10 0.0 0.010005300110700282 0.010000787192941155 0.0 5.043639418027875e-11 0.0 0.01 0.0 5.0436394180265514e-11 0.0 0.01000523115188137 0.01000084335667558 0.0 5.2735249608141074e-11 0.0 0.01 0.0 5.2735249608141074e-11 0.0 0.010006029849481225 0.010000951285724468 0.0 -5.629976800495525e-11 0.0 0.01 0.0 -5.629976800492878e-11 0.0 0.010006799879471161 0.010001112485616127 0.0 -3.926205627515843e-10 0.0 0.01 0.0 -3.926205627515843e-10 0.0 0.010007392940261034 0.010001314209026559 0.0 -9.86002035519599e-10 0.0 0.01 0.0 -9.860020355198108e-10 0.0 0.010007913684057134 0.010001534553156112 0.0 -1.552318902532824e-09 0.0 0.01 0.0 -1.552318902532824e-09 0.0 0.010008809978698251 0.010001755812323565 0.0 -1.3250308728929127e-09 0.0 0.01 0.0 -1.3250308728929127e-09 0.0 0.010008981836532739 0.010001964928990211 0.0 -2.9487709702356844e-10 0.0 0.01 0.0 -2.9487709702356844e-10 0.0 0.01000801597809457 0.010004222873393651 0.0 4.601917758558126e-11 0.0 0.01 0.0 4.6019177585528323e-11 0.0 0.010006352247534983 0.01000439449504164 0.0 4.13389755775841e-11 0.0 0.01 0.0 4.13389755775841e-11 0.0 0.010007323487171158 0.010004631165168218 0.0 -7.17038743608343e-11 0.0 0.01 0.0 -7.170387436080783e-11 0.0 0.010008237216593895 0.0100049274896318 0.0 -3.906661397727706e-10 0.0 0.01 0.0 -3.906661397729824e-10 0.0 0.01000899893255967 0.010005270263425837 0.0 -9.160563693386294e-10 0.0 0.01 0.0 -9.160563693386294e-10 0.0 0.010009914625501964 0.010005638064584214 0.0 -1.3627881090845117e-09 0.0 0.01 0.0 -1.3627881090845117e-09 0.0 0.010011510091878707 0.01000601321947608 0.0 -1.0306214701059122e-09 0.0 0.01 0.0 -1.0306214701059122e-09 0.0 0.010011785953610278 0.010006365422636545 0.0 -1.5554591575289777e-10 0.0 0.01 0.0 -1.5554591575284483e-10 0.0 0.010010152640513048 0.010007636187807596 0.0 2.927500973918295e-11 0.0 0.01 0.0 2.927500973918295e-11 0.0 0.010007368987300426 0.010007913182869036 0.0 2.1034485878336255e-11 0.0 0.01 0.0 2.1034485878389194e-11 0.0 0.010008469748356614 0.010008248494436467 0.0 -6.849351304612172e-11 0.0 0.01 0.0 -6.84935130462276e-11 0.0 0.010009494454603035 0.010008636675955078 0.0 -3.033475713342985e-10 0.0 0.01 0.0 -3.0334757133408674e-10 0.0 0.01001037502386138 0.010009059145364757 0.0 -6.683761294227206e-10 0.0 0.01 0.0 -6.683761294227206e-10 0.0 0.010011514958648509 0.010009504733842179 0.0 -9.480180127721736e-10 0.0 0.01 0.0 -9.480180127721736e-10 0.0 0.010013386682592168 0.010009955296480825 0.0 -6.975318967257134e-10 0.0 0.01 0.0 -6.97531896726137e-10 0.0 0.010013320518238736 0.010010368152525644 0.0 -2.3782839401517963e-10 0.0 0.01 0.0 -2.3782839401517963e-10 0.0 0.01001114801406209 0.010010334849317926 0.0 1.1203440550386689e-11 0.0 0.01 0.0 1.1203440550393306e-11 0.0 0.010008189749825508 0.01001068996690948 0.0 4.5296674288465455e-12 0.0 0.01 0.0 4.5296674288465455e-12 0.0 0.010009374014366789 0.01001108972004467 0.0 -4.8276712800562434e-11 0.0 0.01 0.0 -4.827671280066831e-11 0.0 0.01001045682895252 0.010011516463836488 0.0 -1.8484474277175565e-10 0.0 0.01 0.0 -1.8484474276836752e-10 0.0 0.010011366048734318 0.010011952043605608 0.0 -3.9822774229441584e-10 0.0 0.01 0.0 -3.9822774229441584e-10 0.0 0.010012512194134581 0.010012391644933085 0.0 -5.891071113848563e-10 0.0 0.01 0.0 -5.891071113844327e-10 0.0 0.010014207470578585 0.010012816095812706 0.0 -5.752451088415422e-10 0.0 0.01 0.0 -5.752451088415422e-10 0.0 0.010013596027615325 0.010013195522394812 0.0 -2.7306344839344294e-10 0.0 0.01 0.0 -2.7306344839344294e-10 0.0 0.010011197981173253 0.010011819271302933 0.0 2.8542699599446494e-13 0.0 0.01 0.0 2.8542699599425814e-13 0.0 0.01000877764354292 0.010012219611398691 0.0 -2.8577771654238504e-12 0.0 0.01 0.0 -2.8577771654238504e-12 0.0 0.010010000832517641 0.010012643086790972 0.0 -2.4807576561870534e-11 0.0 0.01 0.0 -2.4807576561844064e-11 0.0 0.010011094586201662 0.010013065110034235 0.0 -8.49709375526195e-11 0.0 0.01 0.0 -8.497093755272538e-11 0.0 0.010011957914611666 0.010013463641718278 0.0 -1.8940973468125694e-10 0.0 0.01 0.0 -1.8940973468083342e-10 0.0 0.01001293470276903 0.010013834807415717 0.0 -3.0245077718069725e-10 0.0 0.01 0.0 -3.0245077718069725e-10 0.0 0.010014284950777054 0.010014166747747398 0.0 -3.0920240105437535e-10 0.0 0.01 0.0 -3.0920240105395183e-10 0.0 0.010013339142518106 0.010014455132328317 0.0 -7.195651027234238e-11 0.0 0.01 0.0 -7.195651027236885e-11 0.0 0.010010901600858466 0.010012068211158336 0.0 -2.7491841918352405e-12 0.0 0.01 0.0 -2.7491841918352405e-12 0.0 0.01000913801024102 0.010012480375146326 0.0 -3.4526740410578375e-12 0.0 0.01 0.0 -3.4526740410611462e-12 0.0 0.010010371111712286 0.010012896003209973 0.0 -8.56996798800328e-12 0.0 0.01 0.0 -8.56996798800328e-12 0.0 0.010011460120093798 0.010013282266001431 0.0 -2.4427980709927952e-11 0.0 0.01 0.0 -2.4427980709927952e-11 0.0 0.010012279882348315 0.010013621029409385 0.0 -5.46683120023589e-11 0.0 0.01 0.0 -5.46683120023589e-11 0.0 0.010013113148174727 0.010013900530085154 0.0 -8.674134760483119e-11 0.0 0.01 0.0 -8.674134760440768e-11 0.0 0.010014203553934462 0.010014130494300923 0.0 -6.569784282211628e-11 0.0 0.01 0.0 -6.569784282222215e-11 0.0 0.010013074446546597 0.010014316837187953 0.0 8.729890916031428e-11 0.0 0.01 0.0 8.729890916031428e-11 0.0 0.010010678229368217 0.010011458614931173 0.0 -1.7777741828535868e-12 0.0 0.01 0.0 -1.7777741828519324e-12 0.0 0.010009308380780992 0.010011857506775973 0.0 -1.6601929613611776e-12 0.0 0.01 0.0 -1.6601929613611776e-12 0.0 0.010010534222126503 0.010012244151229331 0.0 -1.4676456156371843e-12 0.0 0.01 0.0 -1.4676456156371843e-12 0.0 0.010011616409841509 0.010012586222134362 0.0 -1.6998593470020156e-12 0.0 0.01 0.0 -1.6998593470020156e-12 0.0 0.010012411719435442 0.010012860215301147 0.0 -2.1530096943993695e-12 0.0 0.01 0.0 -2.1530096944126043e-12 0.0 0.010013169017853533 0.010013064106109732 0.0 1.7013550553694457e-12 0.0 0.01 0.0 1.7013550553694457e-12 0.0 0.010014129490055932 0.010013205813040464 0.0 2.4978789640934377e-11 0.0 0.01 0.0 2.4978789640934377e-11 0.0 0.010012952371199394 0.010013306763446717 0.0 8.770120162530856e-11 0.0 0.01 0.0 8.77012016253615e-11 0.0 0.010010616984149592 0.010010471023418382 0.0 -2.0268486718573753e-13 0.0 0.01 0.0 -2.0268486718615112e-13 0.0 0.010009330442346448 0.010010843762610907 0.0 -8.761856178592135e-14 0.0 0.01 0.0 -8.761856178592135e-14 0.0 0.010010546460744828 0.010011196977810236 0.0 3.6928292477950456e-14 0.0 0.01 0.0 3.6928292477950456e-14 0.0 0.010011621276766573 0.010011496344545796 0.0 3.122459317597588e-13 0.0 0.01 0.0 3.122459317601724e-13 0.0 0.010012410765893848 0.01001172172767102 0.0 1.800014175915006e-12 0.0 0.01 0.0 1.800014175915006e-12 0.0 0.010013154811907635 0.010011872158805625 0.0 6.640160755953516e-12 0.0 0.01 0.0 6.640160755953516e-12 0.0 0.010014100065811828 0.010011956961199721 0.0 1.556331327108031e-11 0.0 0.01 0.0 1.556331327108031e-11 0.0 0.010012972449074713 0.01001200056753003 0.0 2.498760887460696e-11 0.0 0.01 0.0 2.498760887460696e-11 0.0 0.01001070024983213 0.01000944205604757 0.0 6.776007929263415e-13 0.0 0.01 0.0 6.776007929263415e-13 0.0 0.010009236431007339 0.010009787801427803 0.0 6.499578287743699e-13 0.0 0.01 0.0 6.499578287743699e-13 0.0 0.010010437217616698 0.010010110512725797 0.0 -1.0289148979227806e-12 0.0 0.01 0.0 -1.0289148979236077e-12 0.0 0.01001150713168158 0.01001038089209359 0.0 -6.109309600599274e-12 0.0 0.01 0.0 -6.1093096005926564e-12 0.0 0.010012303920774233 0.010010577308281154 0.0 -1.4343639386164835e-11 0.0 0.01 0.0 -1.4343639386164835e-11 0.0 0.010013081273260335 0.010010701253045791 0.0 -2.1366408383106575e-11 0.0 0.01 0.0 -2.1366408383106575e-11 0.0 0.010014108400980928 0.010010762951265652 0.0 -1.9204073847370296e-11 0.0 0.01 0.0 -1.920407384735706e-11 0.0 0.010013092567486516 0.010010783015973213 0.0 -8.925281849236658e-12 0.0 0.01 0.0 -8.925281849448416e-12 0.0 0.010010866335962055 0.01000847120204439 0.0 9.403628840273992e-13 0.0 0.01 0.0 9.403628840307079e-13 0.0 0.010009043001608427 0.010008794788655826 0.0 7.333803787023288e-13 0.0 0.01 0.0 7.333803787015016e-13 0.0 0.010010222704213279 0.010009100808649406 0.0 -3.790073899575231e-12 0.0 0.01 0.0 -3.79007389957854e-12 0.0 0.010011281763048625 0.010009355412203338 0.0 -1.8055957148376762e-11 0.0 0.01 0.0 -1.8055957148376762e-11 0.0 0.010012082412479957 0.010009543895525698 0.0 -4.3353454369654506e-11 0.0 0.01 0.0 -4.3353454369601566e-11 0.0 0.010012887671067899 0.010009665344796784 0.0 -6.892436600554486e-11 0.0 0.01 0.0 -6.892436600554486e-11 0.0 0.010013968162021112 0.01000972852824666 0.0 -6.521209391485314e-11 0.0 0.01 0.0 -6.521209391487961e-11 0.0 0.010013040112403908 0.010009752548300619 0.0 -1.9914836080866067e-11 0.0 0.01 0.0 -1.9914836080866067e-11 0.0 0.010010858008885855 0.010007469310262803 0.0 1.1206838883645308e-12 0.0 0.01 0.0 1.1206838883628765e-12 0.0 0.010008758092205916 0.010007781022233273 0.0 5.977343233552158e-13 0.0 0.01 0.0 5.977343233548022e-13 0.0 0.010009907303775309 0.01000808108504645 0.0 -8.262735648683736e-12 0.0 0.01 0.0 -8.262735648683736e-12 0.0 0.01001094714981106 0.010008338518048877 0.0 -3.642097399974763e-11 0.0 0.01 0.0 -3.642097399976086e-11 0.0 0.010011740844794004 0.01000853727031616 0.0 -8.75024019707486e-11 0.0 0.01 0.0 -8.75024019707486e-11 0.0 0.010012547978311817 0.010008676328753399 0.0 -1.4108434134169273e-10 0.0 0.01 0.0 -1.4108434134179861e-10 0.0 0.010013624945370007 0.010008760999833395 0.0 -1.3552560433235152e-10 0.0 0.01 0.0 -1.3552560433240446e-10 0.0 0.010012767560029749 0.010008806519573317 0.0 -4.552171652301937e-11 0.0 0.01 0.0 -4.552171652307231e-11 0.0 0.01001063805117413 0.010006299397365505 0.0 1.7904811726082575e-12 0.0 0.01 0.0 1.7904811726099118e-12 0.0 0.01000838453328338 0.010006605188518572 0.0 8.843234901789032e-13 0.0 0.01 0.0 8.843234901789032e-13 0.0 0.010009490042061373 0.010006911458641816 0.0 -1.3502433762133928e-11 0.0 0.01 0.0 -1.3502433762140546e-11 0.0 0.010010497957959531 0.010007189896765424 0.0 -5.949125713047819e-11 0.0 0.01 0.0 -5.949125713050466e-11 0.0 0.010011277348142814 0.01000741839673401 0.0 -1.4387654011958965e-10 0.0 0.01 0.0 -1.438765401196426e-10 0.0 0.010012057924019642 0.010007590182894209 0.0 -2.348960296963085e-10 0.0 0.01 0.0 -2.348960296963614e-10 0.0 0.010013084736818972 0.010007714467778596 0.0 -2.2986115360732868e-10 0.0 0.01 0.0 -2.2986115360732868e-10 0.0 0.010012291675708922 0.010007792799703515 0.0 -9.524959802170361e-11 0.0 0.01 0.0 -9.524959802175655e-11 0.0 0.010010242264134585 0.010004905457167102 0.0 3.058130225682924e-12 0.0 0.01 0.0 3.0581302256796155e-12 0.0 0.010007929321158997 0.010005208165925254 0.0 2.1262349767005464e-12 0.0 0.01 0.0 2.1262349767022007e-12 0.0 0.010008981836532474 0.010005529482898207 0.0 -1.7307240865056307e-11 0.0 0.01 0.0 -1.7307240865056307e-11 0.0 0.010009945015853568 0.01000584106372101 0.0 -8.09758825457047e-11 0.0 0.01 0.0 -8.09758825457047e-11 0.0 0.010010693377826655 0.010006116457084132 0.0 -2.001710020180031e-10 0.0 0.01 0.0 -2.0017100201795017e-10 0.0 0.010011424799123116 0.01000633952334183 0.0 -3.330501284607552e-10 0.0 0.01 0.0 -3.330501284606493e-10 0.0 0.010012367656061024 0.010006511704827248 0.0 -3.29423497319753e-10 0.0 0.01 0.0 -3.2942349731996476e-10 0.0 0.010011645310449081 0.010006637452522891 0.0 -1.5282646555555812e-10 0.0 0.01 0.0 -1.5282646555545225e-10 0.0 0.010009721206928486 0.010003376209048764 0.0 4.324274348841726e-12 0.0 0.01 0.0 4.324274348838417e-12 0.0 0.010007408625033411 0.010003670469863814 0.0 3.882263166731033e-12 0.0 0.01 0.0 3.882263166729379e-12 0.0 0.0100083948592293 0.010004005805686944 0.0 -1.8009289381295748e-11 0.0 0.01 0.0 -1.8009289381302365e-11 0.0 0.01000930592393387 0.010004358798212916 0.0 -9.329089439216675e-11 0.0 0.01 0.0 -9.329089439219322e-11 0.0 0.01001001402203646 0.01000469225051725 0.0 -2.3922446600173874e-10 0.0 0.01 0.0 -2.392244660016858e-10 0.0 0.010010678680811357 0.010004985175319685 0.0 -4.099011106680838e-10 0.0 0.01 0.0 -4.099011106680838e-10 0.0 0.01001151350363401 0.010005221386586565 0.0 -4.148422172838331e-10 0.0 0.01 0.0 -4.1484221728393897e-10 0.0 0.010010863376336228 0.010005402825426299 0.0 -1.985340407840981e-10 0.0 0.01 0.0 -1.9853404078420397e-10 0.0 0.010009099805916835 0.010001894588283735 0.0 4.497303767823513e-12 0.0 0.01 0.0 4.497303767823513e-12 0.0 0.010006840512495438 0.010002172107502743 0.0 4.706468314694226e-12 0.0 0.01 0.0 4.706468314695881e-12 0.0 0.01000775365856933 0.010002516549634665 0.0 -1.6121648125610232e-11 0.0 0.01 0.0 -1.6121648125610232e-11 0.0 0.010008605345063395 0.010002907017121134 0.0 -9.33350880619893e-11 0.0 0.01 0.0 -9.33350880619893e-11 0.0 0.01000926626365202 0.010003307790498165 0.0 -2.4758404266276294e-10 0.0 0.01 0.0 -2.475840426628159e-10 0.0 0.010009861718866742 0.010003677327416478 0.0 -4.505146761074085e-10 0.0 0.01 0.0 -4.505146761073026e-10 0.0 0.010010591503259563 0.010003991638705616 0.0 -4.973892216471241e-10 0.0 0.01 0.0 -4.973892216469124e-10 0.0 0.010010008154449447 0.010004242948865394 0.0 -2.218970676394294e-10 0.0 0.01 0.0 -2.2189706763964116e-10 0.0 0.010008414408437746 0.01000063631072855 0.0 3.1151316674620126e-12 0.0 0.01 0.0 3.1151316674628397e-12 0.0 0.010006252909946606 0.010000893669782579 0.0 3.572062896029112e-12 0.0 0.01 0.0 3.5720628960307662e-12 0.0 0.010007090033163737 0.010001242931693483 0.0 -1.2848221169437286e-11 0.0 0.01 0.0 -1.2848221169433977e-11 0.0 0.010007874541504435 0.010001666416449038 0.0 -1.2007098238999631e-10 0.0 0.01 0.0 -1.2007098239002278e-10 0.0 0.010008487343034014 0.010002127628828147 0.0 -6.305548960185807e-10 0.0 0.01 0.0 -6.305548960184749e-10 0.0 0.010009021493433457 0.010002578146683773 0.0 -1.509838458459772e-09 0.0 0.01 0.0 -1.5098384584593484e-09 0.0 0.01000965260796087 0.010002978380084387 0.0 -1.6537227958335843e-09 0.0 0.01 0.0 -1.6537227958335843e-09 0.0 0.010009125776788167 0.010003309241937841 0.0 -2.092023019461661e-10 0.0 0.01 0.0 -2.0920230194621905e-10 0.0 0.010007699783879664 0.00999969351409062 0.0 9.280684506110975e-13 0.0 0.01 0.0 9.280684506110975e-13 0.0 0.010005667915150238 0.00999993750058593 0.0 1.3184627282322393e-12 0.0 0.01 0.0 1.318462728232653e-12 0.0 0.010006429545546832 0.010000289562576491 0.0 -7.578449999035767e-11 0.0 0.01 0.0 -7.578449999035767e-11 0.0 0.01000715221581789 0.010000740782305728 0.0 -7.980992968467662e-10 0.0 0.01 0.0 -7.980992968465544e-10 0.0 0.010007713014420617 0.010001251234800447 0.0 -2.9936436013693933e-09 0.0 0.01 0.0 -2.9936436013710874e-09 0.0 0.010008194611756243 0.010001772421115489 0.0 -5.9671810600477385e-09 0.0 0.01 0.0 -5.9671810600477385e-09 0.0 0.010008736034430121 0.01000225516263965 0.0 -5.8854830429439165e-09 0.0 0.01 0.0 -5.8854830429456106e-09 0.0 0.010008234259304454 0.010002669018168563 0.0 -1.1961222769923721e-10 0.0 0.01 0.0 -1.1961222769923721e-10 0.0 0.010006940318522948 0.009999071629296828 0.0 -3.1023397912820666e-13 0.0 0.01 0.0 -3.1023397912820666e-13 0.0 0.010005111816931051 0.009999308571717576 0.0 1.5393504093131378e-12 0.0 0.01 0.0 1.5393504093131378e-12 0.0 0.010005806303061153 0.009999667016632434 0.0 -2.23132977147707e-10 0.0 0.01 0.0 -2.23132977147707e-10 0.0 0.010006469673088887 0.010000130852568977 0.0 -2.1026827239736054e-09 0.0 0.01 0.0 -2.1026827239736054e-09 0.0 0.010006985813426619 0.010000670967531733 0.0 -7.380748759012001e-09 0.0 0.01 0.0 -7.380748759012001e-09 0.0 0.01000741644239977 0.010001243381889954 0.0 -1.3821054360776014e-08 0.0 0.01 0.0 -1.3821054360779403e-08 0.0 0.010007865219558838 0.010001796884227141 0.0 -1.2714199273234457e-08 0.0 0.01 0.0 -1.2714199273234457e-08 0.0 0.010007331805454614 0.01000228788492331 0.0 9.824628352983482e-10 0.0 0.01 0.0 9.824628352983482e-10 0.0 0.010006111047173931 0.009998717246860564 0.0 8.905239268331468e-12 0.0 0.01 0.0 8.905239268334776e-12 0.0 0.010004605729959391 0.009998958662680114 0.0 2.8394280199589357e-10 0.0 0.01 0.0 2.8394280199584063e-10 0.0 0.010005244372633788 0.009999308571717687 0.0 8.655655709099337e-10 0.0 0.01 0.0 8.655655709095102e-10 0.0 0.010005861098848153 0.009999760508603846 0.0 -1.009680423269601e-09 0.0 0.01 0.0 -1.0096804232693892e-09 0.0 0.010006344432670587 0.010000297363274934 0.0 -8.844257314656384e-09 0.0 0.01 0.0 -8.844257314656384e-09 0.0 0.010006729937729858 0.010000894670101181 0.0 -1.8325178561627695e-08 0.0 0.01 0.0 -1.8325178561627695e-08 0.0 0.010007084170767434 0.010001507190712099 0.0 -1.5712354994483002e-08 0.0 0.01 0.0 -1.571235499448978e-08 0.0 0.010006453992767998 0.010002080248936555 0.0 2.8357663300300143e-09 0.0 0.01 0.0 2.8357663300300143e-09 0.0 0.01000523310494497 0.009998568807305527 0.0 1.7772834454834236e-10 0.0 0.01 0.0 1.7772834454828942e-10 0.0 0.010004168605142307 0.00999880971255201 0.0 2.0766364347886846e-09 0.0 0.01 0.0 2.076636434788261e-09 0.0 0.01000476610520044 0.009999131613134416 0.0 6.811406568933142e-09 0.0 0.01 0.0 6.811406568933142e-09 0.0 0.010005344631718826 0.009999529533216183 0.0 9.402004020783153e-09 0.0 0.01 0.0 9.402004020783153e-09 0.0 0.010005808256473644 0.010000018050050434 0.0 3.2312886024642772e-09 0.0 0.01 0.0 3.23128860246343e-09 0.0 0.010006172710654817 0.010000610905980235 0.0 -5.086733807906175e-09 0.0 0.01 0.0 -5.086733807904481e-09 0.0 0.010006427591787586 0.010001297102327741 0.0 -1.1930759574704366e-09 0.0 0.01 0.0 -1.1930759574704366e-09 0.0 0.010005740789718972 0.010002037722680726 0.0 -4.361984794585161e-09 0.0 0.01 0.0 -4.361984794578385e-09 0.0 0.01000456857888379 0.0099985683075204 0.0 1.149866516420871e-09 0.0 0.01 0.0 1.1498665164204475e-09 0.0 0.010003809776053826 0.009998795217769633 0.0 8.009524528612084e-09 0.0 0.01 0.0 8.00952452861039e-09 0.0 0.01000437932510401 0.00999905413429524 0.0 2.2957077054009865e-08 0.0 0.01 0.0 2.2957077054003088e-08 0.0 0.010004927489710857 0.009999356562314859 0.0 3.722326929735077e-08 0.0 0.01 0.0 3.722326929735077e-08 0.0 0.010005378836880177 0.009999753509355749 0.0 4.016408292017678e-08 0.0 0.01 0.0 4.0164082920163225e-08 0.0 0.010005747150909336 0.010000334016993375 0.0 4.1572823272276985e-08 0.0 0.01 0.0 4.157282327229054e-08 0.0 0.010005950607507223 0.010001145196926986 0.0 3.96530084456609e-08 0.0 0.01 0.0 3.96530084456609e-08 0.0 0.010005290796153983 0.010002237551182203 0.0 -5.236920712982677e-08 0.0 0.01 0.0 -5.236920712982677e-08 0.0 0.010004291311133805 0.009998683260119915 0.0 4.9391680080573374e-09 0.0 0.01 0.0 4.939168008055643e-09 0.0 0.01000353702570167 0.009998871191235072 0.0 2.2350764785870078e-08 0.0 0.01 0.0 2.2350764785870078e-08 0.0 0.010004082098244028 0.009999034640251628 0.0 5.4520560020677035e-08 0.0 0.01 0.0 5.4520560020677035e-08 0.0 0.010004599371633496 0.009999206595573048 0.0 8.717780340168233e-08 0.0 0.01 0.0 8.717780340168233e-08 0.0 0.01000504386465943 0.009999494040093869 0.0 1.0623753171054356e-07 0.0 0.01 0.0 1.0623753171051646e-07 0.0 0.010005422859614302 0.010000081053168932 0.0 1.206971892687384e-07 0.0 0.01 0.0 1.206971892687655e-07 0.0 0.01000557250664802 0.010001073924030239 0.0 8.402706438469048e-08 0.0 0.01 0.0 8.402706438466337e-08 0.0 0.010004946068177626 0.01000264705608403 0.0 -1.901882112262908e-07 0.0 0.01 0.0 -1.9018821122650763e-07 0.0 0.010004053718982006 0.009998890684651048 0.0 1.5634780223582675e-08 0.0 0.01 0.0 1.5634780223582675e-08 0.0 0.010003339572203418 0.009999007648111728 0.0 5.019540503411438e-08 0.0 0.01 0.0 5.019540503411438e-08 0.0 0.010003854778129727 0.009999052136410315 0.0 1.0414732827131157e-07 0.0 0.01 0.0 1.0414732827128447e-07 0.0 0.0100043402256248 0.009999094126804896 0.0 1.570679695299393e-07 0.0 0.01 0.0 1.570679695299393e-07 0.0 0.010004773419352138 0.009999305577952658 0.0 1.9348517291828274e-07 0.0 0.01 0.0 1.9348517291828274e-07 0.0 0.010005148979678616 0.009999928006782824 0.0 2.0015648673758117e-07 0.0 0.01 0.0 2.0015648673758117e-07 0.0 0.010005173918648027 0.010001079775554318 0.0 6.79620457486453e-08 0.0 0.01 0.0 6.796204574861819e-08 0.0 0.010004536786189724 0.0099991596061914 0.0 4.002624544545278e-08 0.0 0.01 0.0 4.002624544545278e-08 0.0 0.01000320268816511 0.009999180602116253 0.0 9.639138862752874e-08 0.0 0.01 0.0 9.639138862755584e-08 0.0 0.010003679280963063 0.009999104624627764 0.0 1.7049344405001797e-07 0.0 0.01 0.0 1.7049344404996376e-07 0.0 0.01000412315301336 0.00999906364005105 0.0 2.3835788257725848e-07 0.0 0.01 0.0 2.3835788257725848e-07 0.0 0.0100045441039695 0.009999294086406653 0.0 2.7878180289514064e-07 0.0 0.01 0.0 2.7878180289514064e-07 0.0 0.010004873672232161 0.009999978507781414 0.0 2.2681807049386828e-07 0.0 0.01 0.0 2.268180704939225e-07 0.0 0.010004744582231466 0.01000120921993264 0.0 -6.514720642052216e-08 0.0 0.01 0.0 -6.514720642054926e-08 0.0 0.010004105077001566 0.009999448046789051 0.0 8.517133897177512e-08 0.0 0.01 0.0 8.517133897174801e-08 0.0 0.010003097639798925 0.009999361065165916 0.0 1.6178618239852047e-07 0.0 0.01 0.0 1.6178618239852047e-07 0.0 0.01000352676876061 0.009999208103239109 0.0 2.472108537051416e-07 0.0 0.01 0.0 2.472108537050332e-07 0.0 0.01000393788397717 0.009999198111589986 0.0 3.176105073339269e-07 0.0 0.01 0.0 3.176105073339269e-07 0.0 0.01000435540890202 0.00999953804724496 0.0 3.187514341680556e-07 0.0 0.01 0.0 3.187514341680556e-07 0.0 0.010004584215551882 0.010000292965664617 0.0 1.3644572712933224e-07 0.0 0.01 0.0 1.3644572712927803e-07 0.0 0.010004326058388115 0.009999710516045958 0.0 1.5223766079843848e-07 0.0 0.01 0.0 1.5223766079838427e-07 0.0 0.010003000853701986 0.009999544039759495 0.0 2.3910207398432446e-07 0.0 0.01 0.0 2.3910207398432446e-07 0.0 0.010003389931534828 0.00999943506347461 0.0 3.2252719743281876e-07 0.0 0.01 0.0 3.2252719743281876e-07 0.0 0.010003802483321774 0.009999591544714581 0.0 3.623692988911171e-07 0.0 0.01 0.0 3.623692988911171e-07 0.0 0.010004196509802662 0.01000008156045512 0.0 2.5116997826480237e-07 0.0 0.01 0.0 2.5116997826480237e-07 0.0 0.010004307991672666 0.010000836056936826 0.0 -1.1836091805462632e-07 0.0 0.01 0.0 -1.1836091805468053e-07 0.0 0.010003922208450667 0.009999941008520346 0.0 2.309591885643397e-07 0.0 0.01 0.0 2.309591885643397e-07 0.0 0.010002910928527776 0.009999830519170812 0.0 3.148335477999673e-07 0.0 0.01 0.0 3.1483354780007574e-07 0.0 0.01000330094857544 0.00999991902108445 0.0 3.661544587831283e-07 0.0 0.01 0.0 3.661544587831283e-07 0.0 0.010003729155043483 0.010000280275372921 0.0 3.010933748181545e-07 0.0 0.01 0.0 3.010933748181545e-07 0.0 0.010004056180138962 0.010000802346554424 0.0 2.241725313106797e-09 0.0 0.01 0.0 2.24172531310595e-09 0.0 0.010004013164532156 0.010000295427091185 0.0 3.05577069442068e-07 0.0 0.01 0.0 3.05577069442068e-07 0.0 0.010002878706561084 0.01000041264478358 0.0 3.582751917953486e-07 0.0 0.01 0.0 3.5827519179556545e-07 0.0 0.010003280432716354 0.010000721791888259 0.0 3.028490167201938e-07 0.0 0.01 0.0 3.0284901672041065e-07 0.0 0.010003672435770383 0.010001114936702957 0.0 4.229375527177296e-08 0.0 0.01 0.0 4.229375527174586e-08 0.0 0.010003872348369521 0.010001040729500916 0.0 3.3731413560510876e-07 0.0 0.01 0.0 3.373141356048919e-07 0.0 0.010002908035060048 0.010001293213045883 0.0 2.8564209993121e-07 0.0 0.01 0.0 2.8564209993142686e-07 0.0 0.01000328678195638 0.010001579974621555 0.0 4.104300771590034e-08 0.0 0.01 0.0 4.1043007715873235e-08 0.0 0.0100035810228931 0.010001653733623961 0.0 -3.9590209064180835e-07 0.0 0.01 0.0 -3.9590209064180835e-07 0.0 0.010003589355079131 0.010001855023350199 0.0 2.2087099476849129e-07 0.0 0.01 0.0 2.2087099476849129e-07 0.0 0.01000296372433885 0.010001836956037742 0.0 1.946931138595791e-09 0.0 0.01 0.0 1.9469311385974852e-09 0.0 0.010003250584258614 0.010001916552034723 0.0 -8.94733663053468e-08 0.0 0.01 0.0 -8.94733663053468e-08 0.0 0.01000298278522015 
