# vtk DataFile Version 3.0
Test VTK file for Force data
ASCII
DATASET POLYDATA
POINTS 2975 float
-0.22 0.0099999998 -0.38
-0.22 0.0099999998 -0.36000001
-0.2 0.0099999998 -0.40000001
-0.2 0.0099999998 -0.38
-0.2 0.0099999998 -0.36000001
-0.18000001 0.0099999998 -0.40000001
-0.18000001 0.0099999998 -0.38
-0.18000001 0.0099999998 -0.36000001
-0.16 0.0099999998 -0.40000001
-0.16 0.0099999998 -0.38
-0.16 0.0099999998 -0.36000001
-0.14 0.0099999998 -0.40000001
-0.14 0.0099999998 -0.38
-0.14 0.0099999998 -0.36000001
-0.12 0.0099999998 -0.40000001
-0.12 0.0099999998 -0.38
-0.12 0.0099999998 -0.36000001
-0.1 0.0099999998 -0.40000001
-0.1 0.0099999998 -0.38
-0.1 0.0099999998 -0.36000001
-0.079999998 0.0099999998 -0.40000001
-0.079999998 0.0099999998 -0.38
-0.079999998 0.0099999998 -0.36000001
-0.059999999000000005 0.0099999998 -0.40000001
-0.059999999000000005 0.0099999998 -0.38
-0.059999999000000005 0.0099999998 -0.36000001
-0.039999999 0.0099999998 -0.40000001
-0.039999999 0.0099999998 -0.38
-0.039999999 0.0099999998 -0.36000001
-0.02 0.0099999998 -0.40000001
-0.02 0.0099999998 -0.38
-0.02 0.0099999998 -0.36000001
0.0 0.0099999998 -0.40000001
0.0 0.0099999998 -0.38
0.0 0.0099999998 -0.36000001
0.02 0.0099999998 -0.40000001
0.02 0.0099999998 -0.38
0.02 0.0099999998 -0.36000001
0.039999999 0.0099999998 -0.40000001
0.039999999 0.0099999998 -0.38
0.039999999 0.0099999998 -0.36000001
0.059999999000000005 0.0099999998 -0.40000001
0.059999999000000005 0.0099999998 -0.38
0.059999999000000005 0.0099999998 -0.36000001
0.079999998 0.0099999998 -0.40000001
0.079999998 0.0099999998 -0.38
0.079999998 0.0099999998 -0.36000001
0.1 0.0099999998 -0.40000001
0.1 0.0099999998 -0.38
0.1 0.0099999998 -0.36000001
0.12 0.0099999998 -0.40000001
0.12 0.0099999998 -0.38
0.12 0.0099999998 -0.36000001
0.14 0.0099999998 -0.40000001
0.14 0.0099999998 -0.38
0.14 0.0099999998 -0.36000001
0.16 0.0099999998 -0.40000001
0.16 0.0099999998 -0.38
0.16 0.0099999998 -0.36000001
0.18000001 0.0099999998 -0.40000001
0.18000001 0.0099999998 -0.38
0.18000001 0.0099999998 -0.36000001
0.2 0.0099999998 -0.38
0.2 0.0099999998 -0.36000001
-0.22 0.0099999998 -0.34
-0.22 0.0099999998 -0.31999999
-0.22 0.0099999998 -0.30000001
-0.22 0.0099999998 -0.28
-0.22 0.0099999998 -0.25999999
-0.22 0.0099999998 -0.23999999
-0.22 0.0099999998 -0.22
-0.22 0.0099999998 -0.2
-0.2 0.0099999998 -0.34
-0.2 0.0099999998 -0.31999999
-0.2 0.0099999998 -0.30000001
-0.2 0.0099999998 -0.28
-0.2 0.0099999998 -0.25999999
-0.2 0.0099999998 -0.23999999
-0.2 0.0099999998 -0.22
-0.2 0.0099999998 -0.2
-0.18000001 0.0099999998 -0.34
-0.18000001 0.0099999998 -0.31999999
-0.18000001 0.0099999998 -0.30000001
-0.18000001 0.0099999998 -0.28
-0.18000001 0.0099999998 -0.25999999
-0.18000001 0.0099999998 -0.23999999
-0.18000001 0.0099999998 -0.22
-0.18000001 0.0099999998 -0.2
-0.16 0.0099999998 -0.34
-0.16 0.0099999998 -0.31999999
-0.16 0.0099999998 -0.30000001
-0.16 0.0099999998 -0.28
-0.16 0.0099999998 -0.25999999
-0.16 0.0099999998 -0.23999999
-0.16 0.0099999998 -0.22
-0.16 0.0099999998 -0.2
-0.14 0.0099999998 -0.34
-0.14 0.0099999998 -0.31999999
-0.14 0.0099999998 -0.30000001
-0.14 0.0099999998 -0.28
-0.14 0.0099999998 -0.25999999
-0.14 0.0099999998 -0.23999999
-0.14 0.0099999998 -0.22
-0.14 0.0099999998 -0.2
-0.12 0.0099999998 -0.34
-0.12 0.0099999998 -0.31999999
-0.12 0.0099999998 -0.30000001
-0.12 0.0099999998 -0.28
-0.12 0.0099999998 -0.25999999
-0.12 0.0099999998 -0.23999999
-0.12 0.0099999998 -0.22
-0.12 0.0099999998 -0.2
-0.1 0.0099999998 -0.34
-0.1 0.0099999998 -0.31999999
-0.1 0.0099999998 -0.30000001
-0.1 0.0099999998 -0.28
-0.1 0.0099999998 -0.25999999
-0.1 0.0099999998 -0.23999999
-0.1 0.0099999998 -0.22
-0.1 0.0099999998 -0.2
-0.079999998 0.0099999998 -0.34
-0.079999998 0.0099999998 -0.31999999
-0.079999998 0.0099999998 -0.30000001
-0.079999998 0.0099999998 -0.28
-0.079999998 0.0099999998 -0.25999999
-0.079999998 0.0099999998 -0.23999999
-0.079999998 0.0099999998 -0.22
-0.079999998 0.0099999998 -0.2
-0.059999999000000005 0.0099999998 -0.34
-0.059999999000000005 0.0099999998 -0.31999999
-0.059999999000000005 0.0099999998 -0.30000001
-0.059999999000000005 0.0099999998 -0.28
-0.059999999000000005 0.0099999998 -0.25999999
-0.059999999000000005 0.0099999998 -0.23999999
-0.059999999000000005 0.0099999998 -0.22
-0.059999999000000005 0.0099999998 -0.2
-0.039999999 0.0099999998 -0.34
-0.039999999 0.0099999998 -0.31999999
-0.039999999 0.0099999998 -0.30000001
-0.039999999 0.0099999998 -0.28
-0.039999999 0.0099999998 -0.25999999
-0.039999999 0.0099999998 -0.23999999
-0.039999999 0.0099999998 -0.22
-0.039999999 0.0099999998 -0.2
-0.02 0.0099999998 -0.34
-0.02 0.0099999998 -0.31999999
-0.02 0.0099999998 -0.30000001
-0.02 0.0099999998 -0.28
-0.02 0.0099999998 -0.25999999
-0.02 0.0099999998 -0.23999999
-0.02 0.0099999998 -0.22
-0.02 0.0099999998 -0.2
0.0 0.0099999998 -0.34
0.0 0.0099999998 -0.31999999
0.0 0.0099999998 -0.30000001
0.02 0.0099999998 -0.34
0.02 0.0099999998 -0.31999999
0.039999999 0.0099999998 -0.34
0.039999999 0.0099999998 -0.31999999
0.059999999000000005 0.0099999998 -0.34
0.059999999000000005 0.0099999998 -0.31999999
0.079999998 0.0099999998 -0.34
0.079999998 0.0099999998 -0.31999999
0.1 0.0099999998 -0.34
0.1 0.0099999998 -0.31999999
0.12 0.0099999998 -0.34
0.12 0.0099999998 -0.31999999
0.14 0.0099999998 -0.34
0.14 0.0099999998 -0.31999999
0.16 0.0099999998 -0.34
0.16 0.0099999998 -0.31999999
0.18000001 0.0099999998 -0.34
0.18000001 0.0099999998 -0.31999999
0.2 0.0099999998 -0.34
0.2 0.0099999998 -0.31999999
-0.22 0.0099999998 -0.18000001
-0.22 0.0099999998 -0.16
-0.22 0.0099999998 -0.14
-0.22 0.0099999998 -0.12
-0.22 0.0099999998 -0.1
-0.22 0.0099999998 -0.079999998
-0.22 0.0099999998 -0.059999999000000005
-0.22 0.0099999998 -0.039999999
-0.22 0.0099999998 -0.02
-0.2 0.0099999998 -0.18000001
-0.2 0.0099999998 -0.16
-0.2 0.0099999998 -0.14
-0.2 0.0099999998 -0.12
-0.2 0.0099999998 -0.1
-0.2 0.0099999998 -0.079999998
-0.2 0.0099999998 -0.059999999000000005
-0.2 0.0099999998 -0.039999999
-0.2 0.0099999998 -0.02
-0.18000001 0.0099999998 -0.18000001
-0.18000001 0.0099999998 -0.16
-0.18000001 0.0099999998 -0.14
-0.18000001 0.0099999998 -0.12
-0.18000001 0.0099999998 -0.1
-0.18000001 0.0099999998 -0.079999998
-0.18000001 0.0099999998 -0.059999999000000005
-0.18000001 0.0099999998 -0.039999999
-0.18000001 0.0099999998 -0.02
-0.16 0.0099999998 -0.18000001
-0.16 0.0099999998 -0.16
-0.16 0.0099999998 -0.14
-0.16 0.0099999998 -0.12
-0.16 0.0099999998 -0.1
-0.16 0.0099999998 -0.079999998
-0.16 0.0099999998 -0.059999999000000005
-0.16 0.0099999998 -0.039999999
-0.16 0.0099999998 -0.02
-0.14 0.0099999998 -0.18000001
-0.14 0.0099999998 -0.16
-0.14 0.0099999998 -0.14
-0.14 0.0099999998 -0.12
-0.14 0.0099999998 -0.1
-0.14 0.0099999998 -0.079999998
-0.14 0.0099999998 -0.059999999000000005
-0.14 0.0099999998 -0.039999999
-0.14 0.0099999998 -0.02
-0.12 0.0099999998 -0.18000001
-0.12 0.0099999998 -0.16
-0.12 0.0099999998 -0.14
-0.12 0.0099999998 -0.12
-0.12 0.0099999998 -0.1
-0.12 0.0099999998 -0.079999998
-0.12 0.0099999998 -0.059999999000000005
-0.12 0.0099999998 -0.039999999
-0.12 0.0099999998 -0.02
-0.1 0.0099999998 -0.18000001
-0.1 0.0099999998 -0.16
-0.1 0.0099999998 -0.14
-0.1 0.0099999998 -0.12
-0.1 0.0099999998 -0.1
-0.1 0.0099999998 -0.079999998
-0.1 0.0099999998 -0.059999999000000005
-0.1 0.0099999998 -0.039999999
-0.1 0.0099999998 -0.02
-0.079999998 0.0099999998 -0.18000001
-0.079999998 0.0099999998 -0.16
-0.079999998 0.0099999998 -0.14
-0.079999998 0.0099999998 -0.12
-0.079999998 0.0099999998 -0.1
-0.079999998 0.0099999998 -0.079999998
-0.079999998 0.0099999998 -0.059999999000000005
-0.079999998 0.0099999998 -0.039999999
-0.079999998 0.0099999998 -0.02
-0.059999999000000005 0.0099999998 -0.18000001
-0.059999999000000005 0.0099999998 -0.16
-0.059999999000000005 0.0099999998 -0.14
-0.059999999000000005 0.0099999998 -0.12
-0.059999999000000005 0.0099999998 -0.1
-0.059999999000000005 0.0099999998 -0.079999998
-0.059999999000000005 0.0099999998 -0.059999999000000005
-0.059999999000000005 0.0099999998 -0.039999999
-0.059999999000000005 0.0099999998 -0.02
-0.039999999 0.0099999998 -0.18000001
-0.039999999 0.0099999998 -0.16
-0.039999999 0.0099999998 -0.14
-0.039999999 0.0099999998 -0.12
-0.039999999 0.0099999998 -0.1
-0.039999999 0.0099999998 -0.079999998
-0.039999999 0.0099999998 -0.059999999000000005
-0.039999999 0.0099999998 -0.039999999
-0.039999999 0.0099999998 -0.02
-0.02 0.0099999998 -0.18000001
-0.02 0.0099999998 -0.16
-0.02 0.0099999998 -0.14
-0.02 0.0099999998 -0.12
-0.02 0.0099999998 -0.1
-0.02 0.0099999998 -0.079999998
-0.02 0.0099999998 -0.059999999000000005
-0.02 0.0099999998 -0.039999999
-0.02 0.0099999998 -0.02
-0.22 0.0099999998 0.0
-0.22 0.0099999998 0.02
-0.22 0.0099999998 0.039999999
-0.22 0.0099999998 0.059999999000000005
-0.22 0.0099999998 0.079999998
-0.22 0.0099999998 0.1
-0.22 0.0099999998 0.12
-0.22 0.0099999998 0.14
-0.2 0.0099999998 0.0
-0.2 0.0099999998 0.02
-0.2 0.0099999998 0.039999999
-0.2 0.0099999998 0.059999999000000005
-0.2 0.0099999998 0.079999998
-0.2 0.0099999998 0.1
-0.2 0.0099999998 0.12
-0.2 0.0099999998 0.14
-0.18000001 0.0099999998 0.0
-0.18000001 0.0099999998 0.02
-0.18000001 0.0099999998 0.039999999
-0.18000001 0.0099999998 0.059999999000000005
-0.18000001 0.0099999998 0.079999998
-0.18000001 0.0099999998 0.1
-0.18000001 0.0099999998 0.12
-0.18000001 0.0099999998 0.14
-0.16 0.0099999998 0.0
-0.16 0.0099999998 0.02
-0.16 0.0099999998 0.039999999
-0.16 0.0099999998 0.059999999000000005
-0.16 0.0099999998 0.079999998
-0.16 0.0099999998 0.1
-0.16 0.0099999998 0.12
-0.16 0.0099999998 0.14
-0.14 0.0099999998 0.0
-0.14 0.0099999998 0.02
-0.14 0.0099999998 0.039999999
-0.14 0.0099999998 0.059999999000000005
-0.14 0.0099999998 0.079999998
-0.14 0.0099999998 0.1
-0.14 0.0099999998 0.12
-0.14 0.0099999998 0.14
-0.12 0.0099999998 0.0
-0.12 0.0099999998 0.02
-0.12 0.0099999998 0.039999999
-0.12 0.0099999998 0.059999999000000005
-0.12 0.0099999998 0.079999998
-0.12 0.0099999998 0.1
-0.12 0.0099999998 0.12
-0.12 0.0099999998 0.14
-0.1 0.0099999998 0.0
-0.1 0.0099999998 0.02
-0.1 0.0099999998 0.039999999
-0.1 0.0099999998 0.059999999000000005
-0.1 0.0099999998 0.079999998
-0.1 0.0099999998 0.1
-0.1 0.0099999998 0.12
-0.1 0.0099999998 0.14
-0.079999998 0.0099999998 0.0
-0.079999998 0.0099999998 0.02
-0.079999998 0.0099999998 0.039999999
-0.079999998 0.0099999998 0.059999999000000005
-0.079999998 0.0099999998 0.079999998
-0.079999998 0.0099999998 0.1
-0.079999998 0.0099999998 0.12
-0.079999998 0.0099999998 0.14
-0.059999999000000005 0.0099999998 0.0
-0.059999999000000005 0.0099999998 0.02
-0.059999999000000005 0.0099999998 0.039999999
-0.059999999000000005 0.0099999998 0.059999999000000005
-0.059999999000000005 0.0099999998 0.079999998
-0.059999999000000005 0.0099999998 0.1
-0.059999999000000005 0.0099999998 0.12
-0.059999999000000005 0.0099999998 0.14
-0.039999999 0.0099999998 0.0
-0.039999999 0.0099999998 0.02
-0.039999999 0.0099999998 0.039999999
-0.039999999 0.0099999998 0.059999999000000005
-0.039999999 0.0099999998 0.079999998
-0.039999999 0.0099999998 0.1
-0.039999999 0.0099999998 0.12
-0.039999999 0.0099999998 0.14
-0.02 0.0099999998 0.0
-0.02 0.0099999998 0.02
-0.02 0.0099999998 0.039999999
-0.02 0.0099999998 0.059999999000000005
-0.02 0.0099999998 0.079999998
-0.02 0.0099999998 0.1
-0.02 0.0099999998 0.12
-0.02 0.0099999998 0.14
-0.22 0.0099999998 0.16
-0.22 0.0099999998 0.18000001
-0.22 0.0099999998 0.2
-0.22 0.0099999998 0.22
-0.22 0.0099999998 0.23999999
-0.22 0.0099999998 0.25999999
-0.22 0.0099999998 0.28
-0.22 0.0099999998 0.30000001
-0.22 0.0099999998 0.31999999
-0.2 0.0099999998 0.16
-0.2 0.0099999998 0.18000001
-0.2 0.0099999998 0.2
-0.2 0.0099999998 0.22
-0.2 0.0099999998 0.23999999
-0.2 0.0099999998 0.25999999
-0.2 0.0099999998 0.28
-0.2 0.0099999998 0.30000001
-0.2 0.0099999998 0.31999999
-0.18000001 0.0099999998 0.16
-0.18000001 0.0099999998 0.18000001
-0.18000001 0.0099999998 0.2
-0.18000001 0.0099999998 0.22
-0.18000001 0.0099999998 0.23999999
-0.18000001 0.0099999998 0.25999999
-0.18000001 0.0099999998 0.28
-0.18000001 0.0099999998 0.30000001
-0.18000001 0.0099999998 0.31999999
-0.16 0.0099999998 0.16
-0.16 0.0099999998 0.18000001
-0.16 0.0099999998 0.2
-0.16 0.0099999998 0.22
-0.16 0.0099999998 0.23999999
-0.16 0.0099999998 0.25999999
-0.16 0.0099999998 0.28
-0.16 0.0099999998 0.30000001
-0.16 0.0099999998 0.31999999
-0.14 0.0099999998 0.16
-0.14 0.0099999998 0.18000001
-0.14 0.0099999998 0.2
-0.14 0.0099999998 0.22
-0.14 0.0099999998 0.23999999
-0.14 0.0099999998 0.25999999
-0.14 0.0099999998 0.28
-0.14 0.0099999998 0.30000001
-0.14 0.0099999998 0.31999999
-0.12 0.0099999998 0.16
-0.12 0.0099999998 0.18000001
-0.12 0.0099999998 0.2
-0.12 0.0099999998 0.22
-0.12 0.0099999998 0.23999999
-0.12 0.0099999998 0.25999999
-0.12 0.0099999998 0.28
-0.12 0.0099999998 0.30000001
-0.12 0.0099999998 0.31999999
-0.1 0.0099999998 0.16
-0.1 0.0099999998 0.18000001
-0.1 0.0099999998 0.2
-0.1 0.0099999998 0.22
-0.1 0.0099999998 0.23999999
-0.1 0.0099999998 0.25999999
-0.1 0.0099999998 0.28
-0.1 0.0099999998 0.30000001
-0.1 0.0099999998 0.31999999
-0.079999998 0.0099999998 0.16
-0.079999998 0.0099999998 0.18000001
-0.079999998 0.0099999998 0.2
-0.079999998 0.0099999998 0.22
-0.079999998 0.0099999998 0.23999999
-0.079999998 0.0099999998 0.25999999
-0.079999998 0.0099999998 0.28
-0.079999998 0.0099999998 0.30000001
-0.079999998 0.0099999998 0.31999999
-0.059999999000000005 0.0099999998 0.16
-0.059999999000000005 0.0099999998 0.18000001
-0.059999999000000005 0.0099999998 0.2
-0.059999999000000005 0.0099999998 0.22
-0.059999999000000005 0.0099999998 0.23999999
-0.059999999000000005 0.0099999998 0.25999999
-0.059999999000000005 0.0099999998 0.28
-0.059999999000000005 0.0099999998 0.30000001
-0.059999999000000005 0.0099999998 0.31999999
-0.039999999 0.0099999998 0.16
-0.039999999 0.0099999998 0.18000001
-0.039999999 0.0099999998 0.2
-0.039999999 0.0099999998 0.22
-0.039999999 0.0099999998 0.23999999
-0.039999999 0.0099999998 0.25999999
-0.039999999 0.0099999998 0.28
-0.039999999 0.0099999998 0.30000001
-0.039999999 0.0099999998 0.31999999
-0.02 0.0099999998 0.16
-0.02 0.0099999998 0.18000001
-0.02 0.0099999998 0.2
-0.02 0.0099999998 0.22
-0.02 0.0099999998 0.23999999
-0.02 0.0099999998 0.25999999
-0.02 0.0099999998 0.28
-0.02 0.0099999998 0.30000001
-0.02 0.0099999998 0.31999999
0.0 0.0099999998 0.30000001
0.0 0.0099999998 0.31999999
0.02 0.0099999998 0.31999999
0.039999999 0.0099999998 0.31999999
0.059999999000000005 0.0099999998 0.31999999
0.079999998 0.0099999998 0.31999999
0.1 0.0099999998 0.31999999
0.12 0.0099999998 0.31999999
0.14 0.0099999998 0.31999999
0.16 0.0099999998 0.31999999
0.18000001 0.0099999998 0.31999999
0.2 0.0099999998 0.31999999
-0.22 0.0099999998 0.34
-0.22 0.0099999998 0.36000001
-0.22 0.0099999998 0.38
-0.2 0.0099999998 0.34
-0.2 0.0099999998 0.36000001
-0.2 0.0099999998 0.38
-0.2 0.0099999998 0.40000001
-0.18000001 0.0099999998 0.34
-0.18000001 0.0099999998 0.36000001
-0.18000001 0.0099999998 0.38
-0.18000001 0.0099999998 0.40000001
-0.16 0.0099999998 0.34
-0.16 0.0099999998 0.36000001
-0.16 0.0099999998 0.38
-0.16 0.0099999998 0.40000001
-0.14 0.0099999998 0.34
-0.14 0.0099999998 0.36000001
-0.14 0.0099999998 0.38
-0.14 0.0099999998 0.40000001
-0.12 0.0099999998 0.34
-0.12 0.0099999998 0.36000001
-0.12 0.0099999998 0.38
-0.12 0.0099999998 0.40000001
-0.1 0.0099999998 0.34
-0.1 0.0099999998 0.36000001
-0.1 0.0099999998 0.38
-0.1 0.0099999998 0.40000001
-0.079999998 0.0099999998 0.34
-0.079999998 0.0099999998 0.36000001
-0.079999998 0.0099999998 0.38
-0.079999998 0.0099999998 0.40000001
-0.059999999000000005 0.0099999998 0.34
-0.059999999000000005 0.0099999998 0.36000001
-0.059999999000000005 0.0099999998 0.38
-0.059999999000000005 0.0099999998 0.40000001
-0.039999999 0.0099999998 0.34
-0.039999999 0.0099999998 0.36000001
-0.039999999 0.0099999998 0.38
-0.039999999 0.0099999998 0.40000001
-0.02 0.0099999998 0.34
-0.02 0.0099999998 0.36000001
-0.02 0.0099999998 0.38
-0.02 0.0099999998 0.40000001
0.0 0.0099999998 0.34
0.0 0.0099999998 0.36000001
0.0 0.0099999998 0.38
0.0 0.0099999998 0.40000001
0.02 0.0099999998 0.34
0.02 0.0099999998 0.36000001
0.02 0.0099999998 0.38
0.02 0.0099999998 0.40000001
0.039999999 0.0099999998 0.34
0.039999999 0.0099999998 0.36000001
0.039999999 0.0099999998 0.38
0.039999999 0.0099999998 0.40000001
0.059999999000000005 0.0099999998 0.34
0.059999999000000005 0.0099999998 0.36000001
0.059999999000000005 0.0099999998 0.38
0.059999999000000005 0.0099999998 0.40000001
0.079999998 0.0099999998 0.34
0.079999998 0.0099999998 0.36000001
0.079999998 0.0099999998 0.38
0.079999998 0.0099999998 0.40000001
0.1 0.0099999998 0.34
0.1 0.0099999998 0.36000001
0.1 0.0099999998 0.38
0.1 0.0099999998 0.40000001
0.12 0.0099999998 0.34
0.12 0.0099999998 0.36000001
0.12 0.0099999998 0.38
0.12 0.0099999998 0.40000001
0.14 0.0099999998 0.34
0.14 0.0099999998 0.36000001
0.14 0.0099999998 0.38
0.14 0.0099999998 0.40000001
0.16 0.0099999998 0.34
0.16 0.0099999998 0.36000001
0.16 0.0099999998 0.38
0.16 0.0099999998 0.40000001
0.18000001 0.0099999998 0.34
0.18000001 0.0099999998 0.36000001
0.18000001 0.0099999998 0.38
0.18000001 0.0099999998 0.40000001
0.2 0.0099999998 0.34
0.2 0.0099999998 0.36000001
0.2 0.0099999998 0.38
1.92 0.0099999998 -0.36000001
1.92 0.0099999998 -0.34
1.92 0.0099999998 -0.31999999
1.9400001 0.0099999998 -0.38
1.9400001 0.0099999998 -0.36000001
1.9400001 0.0099999998 -0.34
1.9400001 0.0099999998 -0.31999999
1.9400001 0.0099999998 -0.30000001
1.9400001 0.0099999998 -0.28
1.9400001 0.0099999998 -0.25999999
1.9400001 0.0099999998 -0.23999999
1.9400001 0.0099999998 -0.22
1.96 0.0099999998 -0.38
1.96 0.0099999998 -0.36000001
1.96 0.0099999998 -0.34
1.96 0.0099999998 -0.31999999
1.96 0.0099999998 -0.30000001
1.96 0.0099999998 -0.28
1.96 0.0099999998 -0.25999999
1.96 0.0099999998 -0.23999999
1.96 0.0099999998 -0.22
1.96 0.0099999998 -0.2
1.96 0.0099999998 -0.18000001
1.96 0.0099999998 -0.16
1.96 0.0099999998 -0.14
1.96 0.0099999998 -0.12
1.98 0.0099999998 -0.38
1.98 0.0099999998 -0.36000001
1.98 0.0099999998 -0.34
1.98 0.0099999998 -0.31999999
1.98 0.0099999998 -0.30000001
1.98 0.0099999998 -0.28
1.98 0.0099999998 -0.25999999
1.98 0.0099999998 -0.23999999
1.98 0.0099999998 -0.22
1.98 0.0099999998 -0.2
1.98 0.0099999998 -0.18000001
1.98 0.0099999998 -0.16
1.98 0.0099999998 -0.14
1.98 0.0099999998 -0.12
1.98 0.0099999998 -0.1
1.98 0.0099999998 -0.079999998
1.98 0.0099999998 -0.059999999000000005
1.98 0.0099999998 -0.039999999
1.98 0.0099999998 -0.02
2.0 0.0099999998 -0.38
2.0 0.0099999998 -0.36000001
2.0 0.0099999998 -0.34
2.0 0.0099999998 -0.31999999
2.0 0.0099999998 -0.30000001
2.0 0.0099999998 -0.28
2.0 0.0099999998 -0.25999999
2.0 0.0099999998 -0.23999999
2.0 0.0099999998 -0.22
2.0 0.0099999998 -0.2
2.0 0.0099999998 -0.18000001
2.0 0.0099999998 -0.16
2.0 0.0099999998 -0.14
2.0 0.0099999998 -0.12
2.0 0.0099999998 -0.1
2.0 0.0099999998 -0.079999998
2.0 0.0099999998 -0.059999999000000005
2.0 0.0099999998 -0.039999999
2.0 0.0099999998 -0.02
2.0 0.0099999998 0.0
2.0 0.0099999998 0.02
2.0 0.0099999998 0.039999999
2.0 0.0099999998 0.059999999000000005
2.0 0.0099999998 0.079999998
2.02 0.0099999998 -0.40000001
2.02 0.0099999998 -0.38
2.02 0.0099999998 -0.36000001
2.02 0.0099999998 -0.34
2.02 0.0099999998 -0.31999999
2.02 0.0099999998 -0.30000001
2.02 0.0099999998 -0.28
2.02 0.0099999998 -0.25999999
2.02 0.0099999998 -0.23999999
2.02 0.0099999998 -0.22
2.02 0.0099999998 -0.2
2.02 0.0099999998 -0.18000001
2.02 0.0099999998 -0.16
2.02 0.0099999998 -0.14
2.02 0.0099999998 -0.12
2.02 0.0099999998 -0.1
2.02 0.0099999998 -0.079999998
2.02 0.0099999998 -0.059999999000000005
2.02 0.0099999998 -0.039999999
2.02 0.0099999998 -0.02
2.02 0.0099999998 0.0
2.02 0.0099999998 0.02
2.02 0.0099999998 0.039999999
2.02 0.0099999998 0.059999999000000005
2.02 0.0099999998 0.079999998
2.02 0.0099999998 0.1
2.02 0.0099999998 0.12
2.02 0.0099999998 0.14
2.02 0.0099999998 0.16
2.02 0.0099999998 0.18000001
2.04 0.0099999998 -0.40000001
2.04 0.0099999998 -0.38
2.04 0.0099999998 -0.36000001
2.04 0.0099999998 -0.34
2.04 0.0099999998 -0.31999999
2.04 0.0099999998 -0.30000001
2.04 0.0099999998 -0.28
2.04 0.0099999998 -0.25999999
2.04 0.0099999998 -0.23999999
2.04 0.0099999998 -0.22
2.04 0.0099999998 -0.2
2.04 0.0099999998 -0.18000001
2.04 0.0099999998 -0.16
2.04 0.0099999998 -0.14
2.04 0.0099999998 -0.12
2.04 0.0099999998 -0.1
2.04 0.0099999998 -0.079999998
2.04 0.0099999998 -0.059999999000000005
2.04 0.0099999998 -0.039999999
2.04 0.0099999998 -0.02
2.04 0.0099999998 0.0
2.04 0.0099999998 0.02
2.04 0.0099999998 0.039999999
2.04 0.0099999998 0.059999999000000005
2.04 0.0099999998 0.079999998
2.04 0.0099999998 0.1
2.04 0.0099999998 0.12
2.04 0.0099999998 0.14
2.04 0.0099999998 0.16
2.04 0.0099999998 0.18000001
2.04 0.0099999998 0.2
2.04 0.0099999998 0.22
2.04 0.0099999998 0.23999999
2.04 0.0099999998 0.25999999
2.04 0.0099999998 0.28
2.0599998999999998 0.0099999998 -0.40000001
2.0599998999999998 0.0099999998 -0.38
2.0599998999999998 0.0099999998 -0.36000001
2.0599998999999998 0.0099999998 -0.34
2.0599998999999998 0.0099999998 -0.31999999
2.0599998999999998 0.0099999998 -0.30000001
2.0599998999999998 0.0099999998 -0.28
2.0599998999999998 0.0099999998 -0.25999999
2.0599998999999998 0.0099999998 -0.23999999
2.0599998999999998 0.0099999998 -0.22
2.0599998999999998 0.0099999998 -0.2
2.0599998999999998 0.0099999998 -0.18000001
2.0599998999999998 0.0099999998 -0.16
2.0599998999999998 0.0099999998 -0.14
2.0599998999999998 0.0099999998 -0.12
2.0599998999999998 0.0099999998 -0.1
2.0599998999999998 0.0099999998 -0.079999998
2.0599998999999998 0.0099999998 -0.059999999000000005
2.0599998999999998 0.0099999998 -0.039999999
2.0599998999999998 0.0099999998 -0.02
2.0599998999999998 0.0099999998 0.0
2.0599998999999998 0.0099999998 0.02
2.0599998999999998 0.0099999998 0.039999999
2.0599998999999998 0.0099999998 0.059999999000000005
2.0599998999999998 0.0099999998 0.079999998
2.0599998999999998 0.0099999998 0.1
2.0599998999999998 0.0099999998 0.12
2.0599998999999998 0.0099999998 0.14
2.0599998999999998 0.0099999998 0.16
2.0599998999999998 0.0099999998 0.18000001
2.0599998999999998 0.0099999998 0.2
2.0599998999999998 0.0099999998 0.22
2.0599998999999998 0.0099999998 0.23999999
2.0599998999999998 0.0099999998 0.25999999
2.0599998999999998 0.0099999998 0.28
2.0599998999999998 0.0099999998 0.30000001
2.0599998999999998 0.0099999998 0.31999999
2.0599998999999998 0.0099999998 0.34
2.0599998999999998 0.0099999998 0.36000001
2.0599998999999998 0.0099999998 0.38
2.0799999 0.0099999998 -0.40000001
2.0799999 0.0099999998 -0.38
2.0799999 0.0099999998 -0.36000001
2.0799999 0.0099999998 -0.34
2.0799999 0.0099999998 -0.31999999
2.0799999 0.0099999998 -0.30000001
2.0799999 0.0099999998 -0.28
2.0799999 0.0099999998 -0.25999999
2.0799999 0.0099999998 -0.23999999
2.0799999 0.0099999998 -0.22
2.0799999 0.0099999998 -0.2
2.0799999 0.0099999998 -0.18000001
2.0799999 0.0099999998 -0.16
2.0799999 0.0099999998 -0.14
2.0799999 0.0099999998 -0.12
2.0799999 0.0099999998 -0.1
2.0799999 0.0099999998 -0.079999998
2.0799999 0.0099999998 -0.059999999000000005
2.0799999 0.0099999998 -0.039999999
2.0799999 0.0099999998 -0.02
2.0799999 0.0099999998 0.0
2.0799999 0.0099999998 0.02
2.0799999 0.0099999998 0.039999999
2.0799999 0.0099999998 0.059999999000000005
2.0799999 0.0099999998 0.079999998
2.0799999 0.0099999998 0.1
2.0799999 0.0099999998 0.12
2.0799999 0.0099999998 0.14
2.0799999 0.0099999998 0.16
2.0799999 0.0099999998 0.18000001
2.0799999 0.0099999998 0.2
2.0799999 0.0099999998 0.22
2.0799999 0.0099999998 0.23999999
2.0799999 0.0099999998 0.25999999
2.0799999 0.0099999998 0.28
2.0799999 0.0099999998 0.30000001
2.0799999 0.0099999998 0.31999999
2.0799999 0.0099999998 0.34
2.0799999 0.0099999998 0.36000001
2.0799999 0.0099999998 0.38
2.0799999 0.0099999998 0.40000001
2.0999999 0.0099999998 -0.40000001
2.0999999 0.0099999998 -0.38
2.0999999 0.0099999998 -0.36000001
2.0999999 0.0099999998 -0.34
2.0999999 0.0099999998 -0.31999999
2.0999999 0.0099999998 -0.30000001
2.0999999 0.0099999998 -0.28
2.0999999 0.0099999998 -0.25999999
2.0999999 0.0099999998 -0.23999999
2.0999999 0.0099999998 -0.22
2.0999999 0.0099999998 -0.2
2.0999999 0.0099999998 -0.18000001
2.0999999 0.0099999998 -0.16
2.0999999 0.0099999998 -0.14
2.0999999 0.0099999998 -0.12
2.0999999 0.0099999998 -0.1
2.0999999 0.0099999998 -0.079999998
2.0999999 0.0099999998 -0.059999999000000005
2.0999999 0.0099999998 -0.039999999
2.0999999 0.0099999998 -0.02
2.0999999 0.0099999998 0.0
2.0999999 0.0099999998 0.02
2.0999999 0.0099999998 0.039999999
2.0999999 0.0099999998 0.059999999000000005
2.0999999 0.0099999998 0.079999998
2.0999999 0.0099999998 0.1
2.0999999 0.0099999998 0.12
2.0999999 0.0099999998 0.14
2.0999999 0.0099999998 0.16
2.0999999 0.0099999998 0.18000001
2.0999999 0.0099999998 0.2
2.0999999 0.0099999998 0.22
2.0999999 0.0099999998 0.23999999
2.0999999 0.0099999998 0.25999999
2.0999999 0.0099999998 0.28
2.0999999 0.0099999998 0.30000001
2.0999999 0.0099999998 0.31999999
2.0999999 0.0099999998 0.34
2.0999999 0.0099999998 0.36000001
2.0999999 0.0099999998 0.38
2.0999999 0.0099999998 0.40000001
2.1199999 0.0099999998 -0.41999999
2.1199999 0.0099999998 -0.40000001
2.1199999 0.0099999998 -0.38
2.1199999 0.0099999998 -0.36000001
2.1199999 0.0099999998 -0.34
2.1199999 0.0099999998 -0.31999999
2.1199999 0.0099999998 -0.30000001
2.1199999 0.0099999998 -0.28
2.1199999 0.0099999998 -0.25999999
2.1199999 0.0099999998 -0.23999999
2.1199999 0.0099999998 -0.22
2.1199999 0.0099999998 -0.2
2.1199999 0.0099999998 -0.18000001
2.1199999 0.0099999998 -0.16
2.1199999 0.0099999998 -0.14
2.1199999 0.0099999998 -0.12
2.1199999 0.0099999998 -0.1
2.1199999 0.0099999998 -0.079999998
2.1199999 0.0099999998 -0.059999999000000005
2.1199999 0.0099999998 -0.039999999
2.1199999 0.0099999998 -0.02
2.1199999 0.0099999998 0.0
2.1199999 0.0099999998 0.02
2.1199999 0.0099999998 0.039999999
2.1199999 0.0099999998 0.059999999000000005
2.1199999 0.0099999998 0.079999998
2.1199999 0.0099999998 0.1
2.1199999 0.0099999998 0.12
2.1199999 0.0099999998 0.14
2.1199999 0.0099999998 0.16
2.1199999 0.0099999998 0.18000001
2.1199999 0.0099999998 0.2
2.1199999 0.0099999998 0.22
2.1199999 0.0099999998 0.23999999
2.1199999 0.0099999998 0.25999999
2.1199999 0.0099999998 0.28
2.1199999 0.0099999998 0.30000001
2.1199999 0.0099999998 0.31999999
2.1199999 0.0099999998 0.34
2.1199999 0.0099999998 0.36000001
2.1199999 0.0099999998 0.38
2.1199999 0.0099999998 0.40000001
2.1400001 0.0099999998 -0.38
2.1400001 0.0099999998 -0.36000001
2.1400001 0.0099999998 -0.34
2.1400001 0.0099999998 -0.31999999
2.1400001 0.0099999998 -0.30000001
2.1400001 0.0099999998 -0.28
2.1400001 0.0099999998 -0.25999999
2.1400001 0.0099999998 -0.23999999
2.1400001 0.0099999998 -0.22
2.1400001 0.0099999998 -0.2
2.1400001 0.0099999998 -0.18000001
2.1400001 0.0099999998 -0.16
2.1400001 0.0099999998 -0.14
2.1400001 0.0099999998 -0.12
2.1400001 0.0099999998 -0.1
2.1400001 0.0099999998 -0.079999998
2.1400001 0.0099999998 -0.059999999000000005
2.1400001 0.0099999998 -0.039999999
2.1400001 0.0099999998 -0.02
2.1400001 0.0099999998 0.0
2.1400001 0.0099999998 0.02
2.1400001 0.0099999998 0.039999999
2.1400001 0.0099999998 0.059999999000000005
2.1400001 0.0099999998 0.079999998
2.1400001 0.0099999998 0.1
2.1400001 0.0099999998 0.12
2.1400001 0.0099999998 0.14
2.1400001 0.0099999998 0.16
2.1400001 0.0099999998 0.18000001
2.1400001 0.0099999998 0.2
2.1400001 0.0099999998 0.22
2.1400001 0.0099999998 0.23999999
2.1400001 0.0099999998 0.25999999
2.1400001 0.0099999998 0.28
2.1400001 0.0099999998 0.30000001
2.1400001 0.0099999998 0.31999999
2.1400001 0.0099999998 0.34
2.1400001 0.0099999998 0.36000001
2.1400001 0.0099999998 0.38
2.1400001 0.0099999998 0.40000001
2.1600001 0.0099999998 -0.28
2.1600001 0.0099999998 -0.25999999
2.1600001 0.0099999998 -0.23999999
2.1600001 0.0099999998 -0.22
2.1600001 0.0099999998 -0.2
2.1600001 0.0099999998 -0.18000001
2.1600001 0.0099999998 -0.16
2.1600001 0.0099999998 -0.14
2.1600001 0.0099999998 -0.12
2.1600001 0.0099999998 -0.1
2.1600001 0.0099999998 -0.079999998
2.1600001 0.0099999998 -0.059999999000000005
2.1600001 0.0099999998 -0.039999999
2.1600001 0.0099999998 -0.02
2.1600001 0.0099999998 0.0
2.1600001 0.0099999998 0.02
2.1600001 0.0099999998 0.039999999
2.1600001 0.0099999998 0.059999999000000005
2.1600001 0.0099999998 0.079999998
2.1600001 0.0099999998 0.1
2.1600001 0.0099999998 0.12
2.1600001 0.0099999998 0.14
2.1600001 0.0099999998 0.16
2.1600001 0.0099999998 0.18000001
2.1600001 0.0099999998 0.2
2.1600001 0.0099999998 0.22
2.1600001 0.0099999998 0.23999999
2.1600001 0.0099999998 0.25999999
2.1600001 0.0099999998 0.28
2.1600001 0.0099999998 0.30000001
2.1600001 0.0099999998 0.31999999
2.1600001 0.0099999998 0.34
2.1600001 0.0099999998 0.36000001
2.1600001 0.0099999998 0.38
2.1600001 0.0099999998 0.40000001
2.1800001 0.0099999998 -0.18000001
2.1800001 0.0099999998 -0.16
2.1800001 0.0099999998 -0.14
2.1800001 0.0099999998 -0.12
2.1800001 0.0099999998 -0.1
2.1800001 0.0099999998 -0.079999998
2.1800001 0.0099999998 -0.059999999000000005
2.1800001 0.0099999998 -0.039999999
2.1800001 0.0099999998 -0.02
2.1800001 0.0099999998 0.0
2.1800001 0.0099999998 0.02
2.1800001 0.0099999998 0.039999999
2.1800001 0.0099999998 0.059999999000000005
2.1800001 0.0099999998 0.079999998
2.1800001 0.0099999998 0.1
2.1800001 0.0099999998 0.12
2.1800001 0.0099999998 0.14
2.1800001 0.0099999998 0.16
2.1800001 0.0099999998 0.18000001
2.1800001 0.0099999998 0.2
2.1800001 0.0099999998 0.22
2.1800001 0.0099999998 0.23999999
2.1800001 0.0099999998 0.25999999
2.1800001 0.0099999998 0.28
2.1800001 0.0099999998 0.30000001
2.1800001 0.0099999998 0.31999999
2.1800001 0.0099999998 0.34
2.1800001 0.0099999998 0.36000001
2.1800001 0.0099999998 0.38
2.1800001 0.0099999998 0.40000001
2.2 0.0099999998 -0.079999998
2.2 0.0099999998 -0.059999999000000005
2.2 0.0099999998 -0.039999999
2.2 0.0099999998 -0.02
2.2 0.0099999998 0.0
2.2 0.0099999998 0.02
2.2 0.0099999998 0.039999999
2.2 0.0099999998 0.059999999000000005
2.2 0.0099999998 0.079999998
2.2 0.0099999998 0.1
2.2 0.0099999998 0.12
2.2 0.0099999998 0.14
2.2 0.0099999998 0.16
2.2 0.0099999998 0.18000001
2.2 0.0099999998 0.2
2.2 0.0099999998 0.22
2.2 0.0099999998 0.23999999
2.2 0.0099999998 0.25999999
2.2 0.0099999998 0.28
2.2 0.0099999998 0.30000001
2.2 0.0099999998 0.31999999
2.2 0.0099999998 0.34
2.2 0.0099999998 0.36000001
2.2 0.0099999998 0.38
2.22 0.0099999998 0.02
2.22 0.0099999998 0.039999999
2.22 0.0099999998 0.059999999000000005
2.22 0.0099999998 0.079999998
2.22 0.0099999998 0.1
2.22 0.0099999998 0.12
2.22 0.0099999998 0.14
2.22 0.0099999998 0.16
2.22 0.0099999998 0.18000001
2.22 0.0099999998 0.2
2.22 0.0099999998 0.22
2.22 0.0099999998 0.23999999
2.22 0.0099999998 0.25999999
2.22 0.0099999998 0.28
2.22 0.0099999998 0.30000001
2.22 0.0099999998 0.31999999
2.22 0.0099999998 0.34
2.22 0.0099999998 0.36000001
2.22 0.0099999998 0.38
2.24 0.0099999998 0.12
2.24 0.0099999998 0.14
2.24 0.0099999998 0.16
2.24 0.0099999998 0.18000001
2.24 0.0099999998 0.2
2.24 0.0099999998 0.22
2.24 0.0099999998 0.23999999
2.24 0.0099999998 0.25999999
2.24 0.0099999998 0.28
2.24 0.0099999998 0.30000001
2.24 0.0099999998 0.31999999
2.24 0.0099999998 0.34
2.24 0.0099999998 0.36000001
2.24 0.0099999998 0.38
2.26 0.0099999998 0.22
2.26 0.0099999998 0.23999999
2.26 0.0099999998 0.25999999
2.26 0.0099999998 0.28
2.26 0.0099999998 0.30000001
2.26 0.0099999998 0.31999999
2.26 0.0099999998 0.34
2.26 0.0099999998 0.36000001
2.26 0.0099999998 0.38
2.28 0.0099999998 0.31999999
2.28 0.0099999998 0.34
2.28 0.0099999998 0.36000001
-2.8110534e-07 0.0099999998 -0.28000012
-3.403905e-07 0.0099999998 -0.26000011
-3.9040946999999994e-07 0.0099999998 -0.2400001
-4.2942628000000006e-07 0.0099999998 -0.22000009
-4.5883741e-07 0.0099999998 -0.20000006
0.019999711 0.0099999998 -0.30000013
0.019999599 0.0099999998 -0.28000015
0.019999506 0.0099999998 -0.26000014
0.01999943 0.0099999998 -0.24000013
0.019999371999999998 0.0099999998 -0.22000012
0.019999331000000002 0.0099999998 -0.20000009
0.039999586000000004 0.0099999998 -0.30000016
0.039999428999999996 0.0099999998 -0.28000018
0.039999295 0.0099999998 -0.26000017
0.039999187 0.0099999998 -0.24000016
0.039999109 0.0099999998 -0.22000013
0.039999053 0.0099999998 -0.20000012
0.059999425 0.0099999998 -0.30000019
0.059999212999999996 0.0099999998 -0.28000021
0.05999903400000001 0.0099999998 -0.2600002
0.05999888900000001 0.0099999998 -0.24000017
0.059998784000000006 0.0099999998 -0.22000016
0.05999871 0.0099999998 -0.20000014
0.079999223 0.0099999998 -0.30000025
0.07999894 0.0099999998 -0.28000024
0.079998709 0.0099999998 -0.26000023
0.079998523 0.0099999998 -0.2400002
0.079998396 0.0099999998 -0.22000018
0.07999829900000001 0.0099999998 -0.20000015
0.099998973 0.0099999998 -0.30000028
0.09999860099999999 0.0099999998 -0.28000027
0.09999831 0.0099999998 -0.26000026
0.099998079 0.0099999998 -0.24000023
0.099997923 0.0099999998 -0.22000021
0.09999781099999999 0.0099999998 -0.20000017
0.11999864 0.0099999998 -0.30000034
0.11999818 0.0099999998 -0.2800003
0.11999781 0.0099999998 -0.26000029
0.11999754 0.0099999998 -0.24000025
0.11999734 0.0099999998 -0.22000022
0.11999722 0.0099999998 -0.2000002
0.13999821 0.0099999998 -0.30000043
0.13999763 0.0099999998 -0.28000036
0.13999718 0.0099999998 -0.26000032
0.13999686 0.0099999998 -0.24000029
0.13999663 0.0099999998 -0.22000025
0.1399965 0.0099999998 -0.20000021
0.15999766 0.0099999998 -0.30000052
0.15999694 0.0099999998 -0.28000045
0.15999641 0.0099999998 -0.26000038
0.15999603 0.0099999998 -0.24000035
0.15999578 0.0099999998 -0.2200003
0.15999562 0.0099999998 -0.20000026
0.17999691 0.0099999998 -0.30000064
0.17999606 0.0099999998 -0.28000054
0.17999545 0.0099999998 -0.26000047
0.179995 0.0099999998 -0.24000043
0.17999472 0.0099999998 -0.22000037
0.17999455 0.0099999998 -0.20000032
0.19999589 0.0099999998 -0.30000076
0.19999494 0.0099999998 -0.28000066
0.19999424 0.0099999998 -0.26000059
0.19999373 0.0099999998 -0.24000053
0.19999342 0.0099999998 -0.22000048
0.19999325 0.0099999998 -0.20000041
0.21999465 0.0099999998 -0.30000117
0.21999352 0.0099999998 -0.28000093
0.21999273 0.0099999998 -0.2600008
0.21999218 0.0099999998 -0.24000071
0.21999183 0.0099999998 -0.22000064
0.21999167 0.0099999998 -0.20000054
0.23999295 0.0099999998 -0.30000231
0.23999169 0.0099999998 -0.28000161
0.23999085 0.0099999998 -0.26000124
0.23999025 0.0099999998 -0.24000101
0.23998991 0.0099999998 -0.22000086
0.23998976 0.0099999998 -0.20000073
0.25999057 0.0099999998 -0.30000362
0.25998932 0.0099999998 -0.28000262
0.25998846 0.0099999998 -0.2600019
0.25998789 0.0099999998 -0.24000148
0.25998756 0.0099999998 -0.22000122
0.25998744 0.0099999998 -0.20000099
0.27998754 0.0099999998 -0.30000487
0.27998635 0.0099999998 -0.2800037
0.27998552 0.0099999998 -0.26000273
0.27998498 0.0099999998 -0.2400021
0.27998474 0.0099999998 -0.22000167
0.27998465 0.0099999998 -0.20000133
0.29998392 0.0099999998 -0.30000606
0.29998276 0.0099999998 -0.28000477
0.29998198 0.0099999998 -0.26000363
0.2999815 0.0099999998 -0.2400028
0.29998133 0.0099999998 -0.2200022
0.29998133 0.0099999998 -0.20000173
0.31997976 0.0099999998 -0.30000734
0.31997856 0.0099999998 -0.28000587
0.31997779 0.0099999998 -0.26000458
0.31997737 0.0099999998 -0.24000357
0.31997722 0.0099999998 -0.22000282
0.31997731 0.0099999998 -0.20000219
0.33997497 0.0099999998 -0.30000877
0.33997369 0.0099999998 -0.28000712
0.33997285 0.0099999998 -0.26000562
0.33997244 0.0099999998 -0.24000442
0.33997235 0.0099999998 -0.22000349
0.33997253 0.0099999998 -0.2000027
0.35996941 0.0099999998 -0.30001044
0.35996792 0.0099999998 -0.28000852
0.35996699 0.0099999998 -0.26000679
0.35996658 0.0099999998 -0.24000537
0.35996655 0.0099999998 -0.22000423
0.35996681 0.0099999998 -0.20000327
0.37996283 0.0099999998 -0.30001241
0.37996107 0.0099999998 -0.28001016
0.37996003 0.0099999998 -0.2600081
0.37995958 0.0099999998 -0.24000645
0.37995964 0.0099999998 -0.22000507
0.37996006 0.0099999998 -0.20000388
0.39995497 0.0099999998 -0.30001476
0.39995292 0.0099999998 -0.2800121
0.39995176 0.0099999998 -0.26000965
0.39995131 0.0099999998 -0.24000764
0.39995149 0.0099999998 -0.22000599
0.39995208 0.0099999998 -0.20000458
0.4199456 0.0099999998 -0.30001757
0.41994321 0.0099999998 -0.2800144
0.4199419 0.0099999998 -0.26001143
0.41994151 0.0099999998 -0.24000901
0.41994184 0.0099999998 -0.22000702
0.41994271 0.0099999998 -0.20000537
0.43993437 0.0099999998 -0.30002093
0.43993166 0.0099999998 -0.28001708
0.43993023 0.0099999998 -0.26001346
0.4399299 0.0099999998 -0.24001054
0.4399305 0.0099999998 -0.22000821
0.43993172 0.0099999998 -0.20000632
0.45992088 0.0099999998 -0.30002502
0.45991781 0.0099999998 -0.2800203
0.45991632 0.0099999998 -0.26001579
0.4599162 0.0099999998 -0.2400123
0.45991713 0.0099999998 -0.22000965
0.45991883 0.0099999998 -0.20000757
0.47990456 0.0099999998 -0.30002999
0.47990125 0.0099999998 -0.28002408
0.47989982 0.0099999998 -0.26001847
0.47990006 0.0099999998 -0.2400144
0.47990149 0.0099999998 -0.2200115
0.47990382 0.0099999998 -0.20000932
0.49988469 0.0099999998 -0.3000361
0.49988139 0.0099999998 -0.28002858
0.49988028 0.0099999998 -0.26002163
0.49988112 0.0099999998 -0.2400171
0.49988329 0.0099999998 -0.22001408
0.49988639 0.0099999998 -0.20001191
0.51986033 0.0099999998 -0.30004367
0.5198577 0.0099999998 -0.28003407
0.51985741 0.0099999998 -0.26002562
0.51985919 0.0099999998 -0.24002089
0.51986235 0.0099999998 -0.22001794
0.51986641 0.0099999998 -0.20001586
0.53983074 0.0099999998 -0.30005312
0.53982979 0.0099999998 -0.28004104
0.53983116 0.0099999998 -0.26003113
0.53983438 0.0099999998 -0.24002647
0.53983879 0.0099999998 -0.2200238
0.53984392 0.0099999998 -0.2000218
0.55979568 0.0099999998 -0.30006528
0.55979812 0.0099999998 -0.28005043
0.55980211 0.0099999998 -0.26003927
0.55980724 0.0099999998 -0.24003483
0.55981308 0.0099999998 -0.22003245
0.55981934 0.0099999998 -0.20003036
0.57975662 0.0099999998 -0.30008134
0.57976407 0.0099999998 -0.28006393
0.57977152 0.0099999998 -0.26005149
0.57977891 0.0099999998 -0.24004698
0.57978642 0.0099999998 -0.2200447
0.57979375 0.0099999998 -0.20004188
0.59971696 0.0099999998 -0.30010337
0.59973013 0.0099999998 -0.2800841
0.59974122 0.0099999998 -0.26006979
0.59975111 0.0099999998 -0.24006395
0.59976 0.0099999998 -0.2200603
0.59976834 0.0099999998 -0.20005602
0.6196816 0.0099999998 -0.30013424
0.61969918 0.0099999998 -0.28011465
0.61971301 0.0099999998 -0.26009715
0.61972457 0.0099999998 -0.24008642
0.61973494 0.0099999998 -0.22007924
0.61974436 0.0099999998 -0.20007241
0.63965493 0.0099999998 -0.30017611
0.63967466 0.0099999998 -0.28015828
0.63968992 0.0099999998 -0.2601395
0.63970172 0.0099999998 -0.24011892
0.63971257 0.0099999998 -0.22010304
0.63972324 0.0099999998 -0.2000919
0.65964049 0.0099999998 -0.30022487
0.6596601 0.0099999998 -0.28021026
0.65967679 0.0099999998 -0.26019666
0.659688 0.0099999998 -0.2401672
0.65969801 0.0099999998 -0.22013821
0.65970862 0.0099999998 -0.20011809
0.67964637 0.0099999998 -0.30026948
0.67966002 0.0099999998 -0.28025839
0.67967677 0.0099999998 -0.26025215
0.67968655 0.0099999998 -0.24022144
0.67969424 0.0099999998 -0.22018178
0.67970365 0.0099999998 -0.20015155
0.69969952 0.0099999998 -0.30030397
0.69969034 0.0099999998 -0.28029487
0.69969893 0.0099999998 -0.26029637
0.69970572 0.0099999998 -0.24026798
0.69970936 0.0099999998 -0.22022533
0.69971633 0.0099999998 -0.20018885
0.71978992 0.0099999998 -0.30032846
0.7197749 0.0099999998 -0.28031749
0.71976614 0.0099999998 -0.2603218
0.7197628 0.0099999998 -0.24029852
0.71976388 0.0099999998 -0.22025758
0.71977007 0.0099999998 -0.20021902
0.73987138 0.0099999998 -0.30034474
0.73986059 0.0099999998 -0.28032961
0.73985356 0.0099999998 -0.26033074
0.73984963 0.0099999998 -0.2403077
0.73984951 0.0099999998 -0.22026831
0.7398532 0.0099999998 -0.20023049
0.75993353 0.0099999998 -0.3003557
0.7599268 0.0099999998 -0.28033665
0.75992244 0.0099999998 -0.26033422
0.75991946 0.0099999998 -0.24031034
0.75991863 0.0099999998 -0.22027242
0.75992 0.0099999998 -0.20023596
0.77997839 0.0099999998 -0.30036256
0.77997535 0.0099999998 -0.28034079
0.77997345 0.0099999998 -0.26033568
0.7799716 0.0099999998 -0.24031073
0.77997047 0.0099999998 -0.22027339
0.77997035 0.0099999998 -0.20023775
0.80001354 0.0099999998 -0.30036575
0.80001378 0.0099999998 -0.28034273
0.80001384 0.0099999998 -0.26033613
0.80001324 0.0099999998 -0.24031034
0.80001211 0.0099999998 -0.22027265
0.80001092 0.0099999998 -0.20023702
0.82004672 0.0099999998 -0.30036545
0.82005 0.0099999998 -0.28034246
0.82005125 0.0099999998 -0.26033571
0.82005179 0.0099999998 -0.24030919
0.82005084 0.0099999998 -0.22027053
0.82004875 0.0099999998 -0.20023432
0.84008181 0.0099999998 -0.30036044
0.84008759 0.0099999998 -0.28033805
0.8400898 0.0099999998 -0.26033139
0.84009117 0.0099999998 -0.24030477
0.84009033 0.0099999998 -0.22026573
0.84008729 0.0099999998 -0.20022947
0.86011839 0.0099999998 -0.30035082
0.8601265 0.0099999998 -0.2803292
0.86012924 0.0099999998 -0.26032245
0.86013126 0.0099999998 -0.24029632
0.86013049 0.0099999998 -0.22025785
0.86012626 0.0099999998 -0.20022231
0.88015383 0.0099999998 -0.30033711
0.88016385 0.0099999998 -0.28031629
0.88016677 0.0099999998 -0.26030916
0.88016951 0.0099999998 -0.24028385
0.88016862 0.0099999998 -0.22024688
0.88016319 0.0099999998 -0.20021276
0.90018541 0.0099999998 -0.30032003
0.90019667 0.0099999998 -0.28029996
0.90019912 0.0099999998 -0.26029196
0.90020227 0.0099999998 -0.24026741
0.90020162 0.0099999998 -0.22023277
0.90019524 0.0099999998 -0.20020099
0.92021054 0.0099999998 -0.30030021
0.92022187 0.0099999998 -0.28028077
0.92022407 0.0099999998 -0.26027191
0.92022711 0.0099999998 -0.24024795
0.92022669 0.0099999998 -0.22021599
0.92021859 0.0099999998 -0.20018736
0.94022804 0.0099999998 -0.30027848
0.94023943 0.0099999998 -0.28026003
0.94024146 0.0099999998 -0.26025042
0.94024372 0.0099999998 -0.24022718
0.9402383 0.0099999998 -0.22019845
0.9402256 0.0099999998 -0.20017269
0.96024013 0.0099999998 -0.30025566
0.96025127 0.0099999998 -0.28023839
0.96025252 0.0099999998 -0.2602284
0.96025068 0.0099999998 -0.24020696
0.96023959 0.0099999998 -0.22018118
0.96022499 0.0099999998 -0.20015752
0.98025042 0.0099999998 -0.30023256
0.98026007 0.0099999998 -0.28021637
0.98025894 0.0099999998 -0.26020664
0.98025149 0.0099999998 -0.24018756
0.98023736 0.0099999998 -0.22016385
0.98022181 0.0099999998 -0.20014259
1.000262 0.0099999998 -0.30020967
1.0002676 0.0099999998 -0.28019446
1.000262 0.0099999998 -0.26018575
1.0002502 0.0099999998 -0.24016874
1.0002334000000002 0.0099999998 -0.22014682
1.0002171999999998 0.0099999998 -0.20012861
1.0202777 0.0099999998 -0.30018765
1.0202754 0.0099999998 -0.28017393
1.0202643 0.0099999998 -0.26016623
1.0202483 0.0099999998 -0.240151
1.020229 0.0099999998 -0.22013164
1.0202121 0.0099999998 -0.2001159
1.0403 0.0099999998 -0.30016863
1.0402857 0.0099999998 -0.28015631
1.0402672 0.0099999998 -0.26014882
1.0402465 0.0099999998 -0.24013537
1.0402249 0.0099999998 -0.22011843
1.0402065999999999 0.0099999998 -0.20010406
1.0603235 0.0099999998 -0.30015394
1.060298 0.0099999998 -0.2801429
1.0602719999999999 0.0099999998 -0.26013494
1.0602455 0.0099999998 -0.24012251
1.0602216 0.0099999998 -0.22010693
1.0602011999999998 0.0099999998 -0.20009348
1.0803388 0.0099999998 -0.30014181
1.0803075 0.0099999998 -0.28013191
1.0802764999999999 0.0099999998 -0.26012319
1.0802456 0.0099999998 -0.2401116
1.0802191 0.0099999998 -0.22009724
1.0801966 0.0099999998 -0.20008411
1.1003114 0.0099999998 -0.28012207
1.1002793 0.0099999998 -0.2601127
1.1002473 0.0099999998 -0.24010241
1.1002178 0.0099999998 -0.22008902
1.1001931 0.0099999998 -0.20007606
1.1203098999999999 0.0099999998 -0.28011402
1.1202807 0.0099999998 -0.26010469
1.1202496000000002 0.0099999998 -0.24009489
1.1202185 0.0099999998 -0.22008246
1.1201912 0.0099999998 -0.20006944
1.1402802 0.0099999998 -0.26009941
1.140252 0.0099999998 -0.24008982
1.1402217 0.0099999998 -0.22007853
1.1401918 0.0099999998 -0.20006508
1.160277 0.0099999998 -0.2600956
1.1602541000000002 0.0099999998 -0.2400876
1.1602263000000002 0.0099999998 -0.22007695
1.1601962 0.0099999998 -0.20006402
1.1802531 0.0099999998 -0.24008618
1.1802306 0.0099999998 -0.22007726
1.1802033 0.0099999998 -0.2000657
1.2002317 0.0099999998 -0.22007757
1.2002102 0.0099999998 -0.20006837
1.2202255 0.0099999998 -0.22007509
1.2202129 0.0099999998 -0.20007023
-4.7979114e-07 0.0099999998 -0.18000005
-4.9415718e-07 0.0099999998 -0.16000004
-5.0329271e-07 0.0099999998 -0.14000003
-5.087265399999999e-07 0.0099999998 -0.12000003
-5.1161953e-07 0.0099999998 -0.10000002
-5.1287668e-07 0.0099999998 -0.080000013
-5.1323309e-07 0.0099999998 -0.06000001
-5.1316067e-07 0.0099999998 -0.040000007000000004
-5.1299594e-07 0.0099999998 -0.020000003
0.019999301 0.0099999998 -0.18000008
0.019999282 0.0099999998 -0.16000006
0.019999271000000002 0.0099999998 -0.14000005
0.019999264 0.0099999998 -0.12000003
0.019999262 0.0099999998 -0.10000002
0.01999926 0.0099999998 -0.08000002099999999
0.01999926 0.0099999998 -0.060000014000000004
0.019999262 0.0099999998 -0.040000007000000004
0.019999262 0.0099999998 -0.020000003
0.039999012 0.0099999998 -0.1800001
0.03999899 0.0099999998 -0.16000007
0.039998975 0.0099999998 -0.14000006
0.039998967 0.0099999998 -0.12000004
0.039998963 0.0099999998 -0.10000003
0.039998963 0.0099999998 -0.08000002099999999
0.039998963 0.0099999998 -0.060000017
0.039998967 0.0099999998 -0.04000001
0.039998967 0.0099999998 -0.020000005
0.059998660999999995 0.0099999998 -0.18000011
0.059998631 0.0099999998 -0.16000009
0.059998617000000004 0.0099999998 -0.14000008
0.059998609 0.0099999998 -0.12000005
0.059998605 0.0099999998 -0.10000004
0.059998609 0.0099999998 -0.080000028
0.059998609 0.0099999998 -0.060000020999999994
0.059998613 0.0099999998 -0.04000001
0.059998617000000004 0.0099999998 -0.020000005
0.07999824700000001 0.0099999998 -0.18000013
0.07999821 0.0099999998 -0.1600001
0.079998195 0.0099999998 -0.14000008
0.079998188 0.0099999998 -0.12000006
0.079998188 0.0099999998 -0.10000005
0.079998188 0.0099999998 -0.080000028
0.079998195 0.0099999998 -0.060000020999999994
0.079998203 0.0099999998 -0.040000014
0.079998203 0.0099999998 -0.020000007
0.099997744 0.0099999998 -0.18000014
0.099997714 0.0099999998 -0.16000012
0.099997692 0.0099999998 -0.14000009
0.099997692 0.0099999998 -0.12000006
0.099997692 0.0099999998 -0.10000005
0.09999769900000001 0.0099999998 -0.080000035
0.09999770699999999 0.0099999998 -0.060000025
0.099997714 0.0099999998 -0.040000014
0.099997722 0.0099999998 -0.020000007
0.11999715 0.0099999998 -0.18000016
0.11999711 0.0099999998 -0.16000013
0.1199971 0.0099999998 -0.14000009
0.1199971 0.0099999998 -0.12000007
0.11999711 0.0099999998 -0.10000005
0.11999712 0.0099999998 -0.080000035
0.11999713 0.0099999998 -0.060000025
0.11999714 0.0099999998 -0.040000018
0.11999715 0.0099999998 -0.020000007
0.13999642 0.0099999998 -0.18000017
0.13999639 0.0099999998 -0.16000015
0.13999638 0.0099999998 -0.1400001
0.13999639 0.0099999998 -0.12000009
0.13999641 0.0099999998 -0.10000006
0.13999642 0.0099999998 -0.08000004299999999
0.13999644 0.0099999998 -0.060000032
0.13999645 0.0099999998 -0.040000018
0.13999647 0.0099999998 -0.020000009
0.15999554 0.0099999998 -0.18000022
0.15999551 0.0099999998 -0.16000018
0.15999551 0.0099999998 -0.14000013
0.15999553 0.0099999998 -0.1200001
0.15999556 0.0099999998 -0.10000008
0.15999559 0.0099999998 -0.08000005
0.15999562 0.0099999998 -0.060000036
0.15999563 0.0099999998 -0.040000021000000004
0.15999565 0.0099999998 -0.020000011
0.17999448 0.0099999998 -0.18000026
0.17999445 0.0099999998 -0.16000022
0.17999446 0.0099999998 -0.14000016
0.17999449 0.0099999998 -0.12000012
0.17999454 0.0099999998 -0.10000009
0.17999458 0.0099999998 -0.080000065
0.17999461 0.0099999998 -0.060000042999999996
0.17999464 0.0099999998 -0.040000029
0.17999466 0.0099999998 -0.020000013
0.19999318 0.0099999998 -0.18000033
0.19999318 0.0099999998 -0.16000028
0.19999321 0.0099999998 -0.14000021
0.19999325 0.0099999998 -0.12000016
0.19999331 0.0099999998 -0.10000012
0.19999337 0.0099999998 -0.08000008
0.19999342 0.0099999998 -0.060000055
0.19999345 0.0099999998 -0.040000033
0.19999348 0.0099999998 -0.020000016000000002
0.21999161 0.0099999998 -0.18000045
0.21999162 0.0099999998 -0.16000037
0.21999168 0.0099999998 -0.14000028
0.21999176 0.0099999998 -0.12000021
0.21999183 0.0099999998 -0.10000015
0.21999191 0.0099999998 -0.08000011
0.21999198 0.0099999998 -0.060000069
0.21999203 0.0099999998 -0.040000044
0.21999206 0.0099999998 -0.02000002
0.23998973 0.0099999998 -0.1800006
0.23998977 0.0099999998 -0.16000047
0.23998986 0.0099999998 -0.14000037
0.23998997 0.0099999998 -0.12000027
0.23999007 0.0099999998 -0.1000002
0.23999017 0.0099999998 -0.080000132
0.23999026 0.0099999998 -0.060000088
0.23999032 0.0099999998 -0.040000051
0.23999035 0.0099999998 -0.020000023999999998
0.25998744 0.0099999998 -0.1800008
0.25998753 0.0099999998 -0.16000062
0.25998768 0.0099999998 -0.14000048
0.2599878 0.0099999998 -0.12000035
0.25998795 0.0099999998 -0.10000025
0.2599881 0.0099999998 -0.08000017
0.25998822 0.0099999998 -0.060000107000000004
0.25998828 0.0099999998 -0.040000062
0.25998834 0.0099999998 -0.020000029
0.27998471 0.0099999998 -0.18000104
0.27998486 0.0099999998 -0.1600008
0.27998504 0.0099999998 -0.1400006
0.27998525 0.0099999998 -0.12000044
0.27998546 0.0099999998 -0.10000031
0.27998561 0.0099999998 -0.080000207
0.27998576 0.0099999998 -0.060000129000000006
0.27998587 0.0099999998 -0.040000077
0.27998593 0.0099999998 -0.020000035
0.29998145 0.0099999998 -0.18000133
0.29998165 0.0099999998 -0.16000101
0.29998192 0.0099999998 -0.14000075
0.29998219 0.0099999998 -0.12000053
0.29998246 0.0099999998 -0.10000037
0.29998267 0.0099999998 -0.080000244
0.29998288 0.0099999998 -0.060000150999999995
0.29998299 0.0099999998 -0.040000088999999996
0.29998308 0.0099999998 -0.020000041
0.31997752 0.0099999998 -0.18000168
0.31997785 0.0099999998 -0.16000125
0.31997821 0.0099999998 -0.14000091
0.31997856 0.0099999998 -0.12000064
0.31997889 0.0099999998 -0.10000043
0.31997919 0.0099999998 -0.08000028099999999
0.31997943 0.0099999998 -0.060000174
0.31997961 0.0099999998 -0.0400001
0.31997973 0.0099999998 -0.020000043999999998
0.33997285 0.0099999998 -0.18000205
0.3399733 0.0099999998 -0.16000152
0.33997378 0.0099999998 -0.14000109
0.33997425 0.0099999998 -0.12000076
0.3399747 0.0099999998 -0.10000051
0.33997509 0.0099999998 -0.080000326
0.33997539 0.0099999998 -0.0600002
0.3399756 0.0099999998 -0.040000111
0.33997574 0.0099999998 -0.02000005
0.35996732 0.0099999998 -0.18000245
0.35996792 0.0099999998 -0.1600018
0.35996854 0.0099999998 -0.14000128
0.35996917 0.0099999998 -0.12000088
0.35996974 0.0099999998 -0.10000059
0.35997021 0.0099999998 -0.080000378
0.3599706 0.0099999998 -0.06000023
0.35997087 0.0099999998 -0.040000126000000004
0.35997105 0.0099999998 -0.020000056999999998
0.37996075 0.0099999998 -0.18000291
0.37996155 0.0099999998 -0.16000213
0.37996238 0.0099999998 -0.14000151
0.37996316 0.0099999998 -0.12000104
0.37996387 0.0099999998 -0.10000069
0.3799645 0.0099999998 -0.080000445
0.37996498 0.0099999998 -0.060000274000000006
0.37996534 0.0099999998 -0.040000156
0.37996554 0.0099999998 -0.02000007
0.39995301 0.0099999998 -0.18000342
0.39995405 0.0099999998 -0.1600025
0.39995512 0.0099999998 -0.14000179
0.39995614 0.0099999998 -0.12000124
0.39995706 0.0099999998 -0.10000085
0.39995781 0.0099999998 -0.08000056400000001
0.3999584 0.0099999998 -0.060000356
0.39995885 0.0099999998 -0.040000211
0.39995909 0.0099999998 -0.020000096000000002
0.41994393 0.0099999998 -0.18000403
0.4199453 0.0099999998 -0.16000299
0.41994667 0.0099999998 -0.14000218
0.41994795 0.0099999998 -0.12000155
0.41994908 0.0099999998 -0.1000011
0.41995004 0.0099999998 -0.080000766
0.41995078 0.0099999998 -0.060000509
0.41995129 0.0099999998 -0.040000312
0.41995162 0.0099999998 -0.020000149
0.43993333 0.0099999998 -0.18000482
0.43993512 0.0099999998 -0.16000366
0.43993688 0.0099999998 -0.14000276
0.43993849 0.0099999998 -0.12000206
0.43993989 0.0099999998 -0.10000153
0.43994102 0.0099999998 -0.080001116
0.43994194 0.0099999998 -0.060000780999999996
0.43994257 0.0099999998 -0.040000497999999995
0.43994296 0.0099999998 -0.020000244
0.45992097 0.0099999998 -0.18000594
0.45992327 0.0099999998 -0.16000468
0.45992547 0.0099999998 -0.14000367
0.45992747 0.0099999998 -0.12000288
0.4599292 0.0099999998 -0.10000224
0.4599306 0.0099999998 -0.080001704
0.45993167 0.0099999998 -0.060001239000000005
0.45993242 0.0099999998 -0.040000811000000004
0.45993289 0.0099999998 -0.020000402
0.47990662 0.0099999998 -0.18000761
0.47990951 0.0099999998 -0.16000625
0.47991225 0.0099999998 -0.14000514
0.4799147 0.0099999998 -0.12000419
0.47991678 0.0099999998 -0.10000338
0.47991845 0.0099999998 -0.080002651
0.47991973 0.0099999998 -0.060001969
0.47992063 0.0099999998 -0.04000131
0.47992116 0.0099999998 -0.020000656999999998
0.49988994 0.0099999998 -0.18001017
0.49989355 0.0099999998 -0.1600087
0.49989691 0.0099999998 -0.14000741
0.49989989 0.0099999998 -0.12000622
0.49990237 0.0099999998 -0.10000512
0.49990433 0.0099999998 -0.08000407400000001
0.49990585 0.0099999998 -0.060003065
0.4999069 0.0099999998 -0.040002052
0.49990749 0.0099999998 -0.02000103
0.51987082 0.0099999998 -0.18001407
0.51987523 0.0099999998 -0.16001239
0.51987922 0.0099999998 -0.14001079
0.51988274 0.0099999998 -0.1200092
0.51988572 0.0099999998 -0.10000765
0.51988798 0.0099999998 -0.08000613
0.51988971 0.0099999998 -0.060004614000000005
0.5198909 0.0099999998 -0.040003091
0.51989162 0.0099999998 -0.020001553000000002
0.53984922 0.0099999998 -0.1800198
0.53985447 0.0099999998 -0.16001774
0.53985918 0.0099999998 -0.14001557
0.53986329 0.0099999998 -0.12001334
0.53986669 0.0099999998 -0.1000111
0.53986931 0.0099999998 -0.080008887
0.53987128 0.0099999998 -0.060006682
0.53987265 0.0099999998 -0.040004473
0.53987342 0.0099999998 -0.020002244
0.55982566 0.0099999998 -0.18002787
0.55983162 0.0099999998 -0.16002509
0.55983704 0.0099999998 -0.14002204
0.55984175 0.0099999998 -0.12001885
0.55984563 0.0099999998 -0.10001566
0.55984861 0.0099999998 -0.080012485
0.55985087 0.0099999998 -0.060009342
0.55985236 0.0099999998 -0.04000622
0.55985326 0.0099999998 -0.020003108000000002
0.57980096 0.0099999998 -0.1800385
0.57980764 0.0099999998 -0.16003449
0.57981378 0.0099999998 -0.14003021
0.57981908 0.0099999998 -0.12002573
0.57982343 0.0099999998 -0.10002123
0.57982677 0.0099999998 -0.080016807
0.57982928 0.0099999998 -0.06001249
0.57983094 0.0099999998 -0.040008277
0.57983196 0.0099999998 -0.020004127
0.59977639 0.0099999998 -0.18005106
0.59978402 0.0099999998 -0.16004573
0.59979093 0.0099999998 -0.14004
0.59979683 0.0099999998 -0.12003389
0.5998016 0.0099999998 -0.10002775
0.5998053 0.0099999998 -0.080021791
0.59980804 0.0099999998 -0.060016099
0.59980994 0.0099999998 -0.040010639
0.59981108 0.0099999998 -0.020005299
0.61975342 0.0099999998 -0.18006577
0.61976206 0.0099999998 -0.16005893
0.61976969 0.0099999998 -0.14005139
0.61977613 0.0099999998 -0.12004329
0.61978132 0.0099999998 -0.10003518
0.61978543 0.0099999998 -0.080027431
0.61978853 0.0099999998 -0.06002016
0.61979067 0.0099999998 -0.040013269
0.61979192 0.0099999998 -0.020006595
0.63973355 0.0099999998 -0.18008289
0.63974297 0.0099999998 -0.16007394
0.63975114 0.0099999998 -0.14006406
0.63975805 0.0099999998 -0.12005346
0.63976377 0.0099999998 -0.100043
0.63976836 0.0099999998 -0.080033273
0.63977176 0.0099999998 -0.060024347
0.6397742 0.0099999998 -0.040016003
0.63977563 0.0099999998 -0.020007951
0.65971923 0.0099999998 -0.18010406
0.65972894 0.0099999998 -0.16009206
0.65973729 0.0099999998 -0.1400793
0.65974432 0.0099999998 -0.12006572
0.65975034 0.0099999998 -0.10005251
0.65975523 0.0099999998 -0.080040388
0.65975899 0.0099999998 -0.060029417
0.65976167 0.0099999998 -0.040019277
0.65976322 0.0099999998 -0.020009561000000002
0.67971396 0.0099999998 -0.18013136
0.67972356 0.0099999998 -0.16011529
0.67973179 0.0099999998 -0.1400989
0.67973882 0.0099999998 -0.12008161
0.67974478 0.0099999998 -0.10006484
0.67974979 0.0099999998 -0.080049552
0.67975366 0.0099999998 -0.060035914
0.6797564 0.0099999998 -0.040023472000000004
0.67975807 0.0099999998 -0.020011622
0.69972551 0.0099999998 -0.18016297
0.69973445 0.0099999998 -0.16014239
0.69974196 0.0099999998 -0.14012119
0.6997484 0.0099999998 -0.12009887
0.699754 0.0099999998 -0.1000776
0.69975877 0.0099999998 -0.080058634
0.69976252 0.0099999998 -0.060042094000000004
0.69976521 0.0099999998 -0.040027332
0.69976681 0.0099999998 -0.020013502
0.71977866 0.0099999998 -0.18018974
0.71978742 0.0099999998 -0.16016571
0.71979541 0.0099999998 -0.14014034
0.71980226 0.0099999998 -0.12011375
0.71980798 0.0099999998 -0.1000888
0.71981251 0.0099999998 -0.080066822
0.71981591 0.0099999998 -0.060047828
0.71981835 0.0099999998 -0.040031001000000004
0.71981978 0.0099999998 -0.020015303
0.73985881 0.0099999998 -0.18020126
0.73986477 0.0099999998 -0.16017658
0.73987037 0.0099999998 -0.14015001
0.73987526 0.0099999998 -0.12012194
0.73987937 0.0099999998 -0.10009547
0.73988271 0.0099999998 -0.08007203
0.73988521 0.0099999998 -0.060051683
0.739887 0.0099999998 -0.04003356
0.73988813 0.0099999998 -0.020016586
0.7599228 0.0099999998 -0.18020755
0.75992596 0.0099999998 -0.16018303
0.75992918 0.0099999998 -0.14015608
0.7599321 0.0099999998 -0.12012727
0.7599346 0.0099999998 -0.10009991
0.75993663 0.0099999998 -0.080075569
0.75993824 0.0099999998 -0.060054347
0.75993943 0.0099999998 -0.040035356
0.75994015 0.0099999998 -0.020017495
0.77997094 0.0099999998 -0.18021011
0.77997196 0.0099999998 -0.16018601
0.77997315 0.0099999998 -0.14015909
0.77997434 0.0099999998 -0.12013002
0.77997535 0.0099999998 -0.10010228
0.77997625 0.0099999998 -0.080077514
0.77997702 0.0099999998 -0.060055852
0.77997756 0.0099999998 -0.040036399
0.77997792 0.0099999998 -0.020018028
0.80000997 0.0099999998 -0.18020989
0.80000919 0.0099999998 -0.16018622
0.80000865 0.0099999998 -0.14015952
0.8000083 0.0099999998 -0.12013055
0.80000806 0.0099999998 -0.10010283
0.80000794 0.0099999998 -0.08007803599999999
0.80000794 0.0099999998 -0.06005631
0.80000794 0.0099999998 -0.040036742
0.80000794 0.0099999998 -0.020018214
0.82004631 0.0099999998 -0.18020745
0.82004404 0.0099999998 -0.16018414
0.82004195 0.0099999998 -0.14015782
0.82004029 0.0099999998 -0.12012921
0.82003897 0.0099999998 -0.10010182
0.82003796 0.0099999998 -0.080077328
0.82003725 0.0099999998 -0.060055847999999995
0.82003677 0.0099999998 -0.040036472999999996
0.82003647 0.0099999998 -0.020018095
0.84008342 0.0099999998 -0.18020296
0.84007961 0.0099999998 -0.16018008
0.84007615 0.0099999998 -0.14015429
0.84007329 0.0099999998 -0.12012628
0.8400709 0.0099999998 -0.1000995
0.84006912 0.0099999998 -0.080075577
0.8400678 0.0099999998 -0.060054610999999994
0.84006691 0.0099999998 -0.040035684
0.84006637 0.0099999998 -0.02001771
0.86012089 0.0099999998 -0.18019642
0.86011553 0.0099999998 -0.16017415
0.86011076 0.0099999998 -0.14014909
0.86010677 0.0099999998 -0.12012193
0.86010349 0.0099999998 -0.10009602
0.86010098 0.0099999998 -0.080072924
0.86009914 0.0099999998 -0.060052693
0.86009789 0.0099999998 -0.040034436
0.86009711 0.0099999998 -0.020017093
0.88015634 0.0099999998 -0.18018788
0.88014954 0.0099999998 -0.16016644
0.88014352 0.0099999998 -0.14014237
0.88013846 0.0099999998 -0.12011633
0.8801344 0.0099999998 -0.10009154
0.8801313 0.0099999998 -0.080069475
0.88012898 0.0099999998 -0.060050186
0.88012737 0.0099999998 -0.040032793
0.88012642 0.0099999998 -0.020016277
0.90018702 0.0099999998 -0.18017747
0.90017891 0.0099999998 -0.16015711
0.90017182 0.0099999998 -0.14013429
0.90016586 0.0099999998 -0.12010962
0.90016109 0.0099999998 -0.10008616
0.90015739 0.0099999998 -0.08006534
0.90015459 0.0099999998 -0.060047168
0.90015268 0.0099999998 -0.040030811
0.90015155 0.0099999998 -0.020015292
0.92020774 0.0099999998 -0.18016554
0.92019737 0.0099999998 -0.1601465
0.92018861 0.0099999998 -0.14012511
0.92018133 0.0099999998 -0.12010205
0.92017537 0.0099999998 -0.1000802
0.92017061 0.0099999998 -0.080060855
0.92016703 0.0099999998 -0.060043979000000004
0.92016453 0.0099999998 -0.040028762
0.92016304 0.0099999998 -0.020014288
0.94021249 0.0099999998 -0.18015277
0.94020104 0.0099999998 -0.16013509
0.94019157 0.0099999998 -0.14011528
0.94018376 0.0099999998 -0.120094
0.94017738 0.0099999998 -0.10007392
0.94017231 0.0099999998 -0.080056161
0.9401685 0.0099999998 -0.060040656
0.94016582 0.0099999998 -0.040026631
0.94016421 0.0099999998 -0.020013237
0.9602114 0.0099999998 -0.18013965
0.96019971 0.0099999998 -0.16012338
0.96019 0.0099999998 -0.14010517
0.96018201 0.0099999998 -0.12008575
0.96017557 0.0099999998 -0.10006744
0.96017045 0.0099999998 -0.080051228
0.96016663 0.0099999998 -0.06003708
0.96016395 0.0099999998 -0.040024277000000004
0.9601624 0.0099999998 -0.020012066000000002
0.9802078 0.0099999998 -0.18012671
0.98019594 0.0099999998 -0.16011186
0.98018616 0.0099999998 -0.14009528
0.98017818 0.0099999998 -0.12007765
0.98017174 0.0099999998 -0.10006105
0.98016673 0.0099999998 -0.080046393
0.98016298 0.0099999998 -0.060033582
0.98016042 0.0099999998 -0.040021982000000005
0.98015893 0.0099999998 -0.020010917
1.0002030000000002 0.0099999998 -0.18011452
1.000191 0.0099999998 -0.16010116
1.0001811 0.0099999998 -0.14008613
1.0001731 0.0099999998 -0.12007029
1.0001668 0.0099999998 -0.10005531
1.000162 0.0099999998 -0.080042027
1.0001584000000001 0.0099999998 -0.060030404
1.0001559000000002 0.0099999998 -0.040019885
1.0001544 0.0099999998 -0.020009864
1.0201976000000001 0.0099999998 -0.18010305
1.0201854 0.0099999998 -0.1600911
1.0201752 0.0099999998 -0.14007765
1.0201672 0.0099999998 -0.12006346
1.020161 0.0099999998 -0.10004998
1.0201563 0.0099999998 -0.080038026
1.0201528 0.0099999998 -0.060027529
1.0201504000000001 0.0099999998 -0.040017981
1.0201491 0.0099999998 -0.020008907
1.0401917 0.0099999998 -0.18009271
1.0401789000000001 0.0099999998 -0.1600816
1.0401685999999999 0.0099999998 -0.14006981
1.0401605 0.0099999998 -0.12005722
1.0401543 0.0099999998 -0.10004522
1.0401498 0.0099999998 -0.080034472
1.0401465 0.0099999998 -0.060024954000000005
1.0401441999999999 0.0099999998 -0.040016271
1.0401428 0.0099999998 -0.020008046
1.0601851999999998 0.0099999998 -0.18008302
1.0601721000000002 0.0099999998 -0.16007282
1.0601616000000003 0.0099999998 -0.14006241
1.0601534 0.0099999998 -0.12005153
1.0601472 0.0099999998 -0.10004096
1.0601426 0.0099999998 -0.080031328
1.0601393999999997 0.0099999998 -0.060022671
1.0601372 0.0099999998 -0.040014759
1.060136 0.0099999998 -0.020007279
1.080179 0.0099999998 -0.18007387
1.0801653999999998 0.0099999998 -0.16006495
1.0801544 0.0099999998 -0.14005557
1.0801461 0.0099999998 -0.12004633
1.0801399 0.0099999998 -0.1000371
1.0801353 0.0099999998 -0.080028534
1.0801321000000002 0.0099999998 -0.060020678
1.0801299 0.0099999998 -0.040013444
1.0801287 0.0099999998 -0.020006619
1.1001736 0.0099999998 -0.1800656
1.1001588 0.0099999998 -0.16005707
1.1001477 0.0099999998 -0.14004932
1.100139 0.0099999998 -0.12004133
1.1001326999999999 0.0099999998 -0.1000336
1.1001281 0.0099999998 -0.080025978
1.1001248 0.0099999998 -0.060018907999999996
1.1001226999999998 0.0099999998 -0.040012293
1.1001215 0.0099999998 -0.020006048999999998
1.1201698 0.0099999998 -0.18005861
1.1201535 0.0099999998 -0.16005
1.1201415000000001 0.0099999998 -0.14004292
1.1201326999999999 0.0099999998 -0.1200365
1.120126 0.0099999998 -0.10002991
1.1201214 0.0099999998 -0.080023549
1.120118 0.0099999998 -0.060017228
1.1201159 0.0099999998 -0.040011264
1.1201146999999998 0.0099999998 -0.020005547
1.1401677 0.0099999998 -0.18005334
1.1401497 0.0099999998 -0.16004421
1.1401364999999999 0.0099999998 -0.14003725
1.1401268999999998 0.0099999998 -0.12003151
1.1401203000000002 0.0099999998 -0.10002628
1.1401153999999998 0.0099999998 -0.080020815
1.1401119 0.0099999998 -0.060015492000000004
1.1401098 0.0099999998 -0.040010192
1.1401085 0.0099999998 -0.020005057
1.1601686000000002 0.0099999998 -0.18005082
1.160148 0.0099999998 -0.16004044
1.1601331 0.0099999998 -0.14003283
1.1601226 0.0099999998 -0.12002719
1.1601152 0.0099999998 -0.10002244
1.1601101999999999 0.0099999998 -0.080018058
1.1601066999999998 0.0099999998 -0.060013484000000006
1.1601044 0.0099999998 -0.040008972999999996
1.1601031000000002 0.0099999998 -0.020004496
1.1801752 0.0099999998 -0.18005247
1.1801503 0.0099999998 -0.16004008
1.1801323000000001 0.0099999998 -0.14003073
1.18012 0.0099999998 -0.12002421
1.1801116000000003 0.0099999998 -0.10001943
1.1801058999999998 0.0099999998 -0.08001527900000001
1.1801021 0.0099999998 -0.06001143900000001
1.1800998 0.0099999998 -0.040007662
1.1800983999999999 0.0099999998 -0.020003822
1.2001851000000001 0.0099999998 -0.18005662
1.2001593000000002 0.0099999998 -0.16004439
1.2001367 0.0099999998 -0.14003301
1.2001203999999999 0.0099999998 -0.12002416
1.20011 0.0099999998 -0.1000181
1.2001033 0.0099999998 -0.080013715
1.2000989 0.0099999998 -0.060009897
1.2000961 0.0099999998 -0.040006451
1.2000947 0.0099999998 -0.020003188
1.2201935 0.0099999998 -0.18006085
1.2201718000000001 0.0099999998 -0.16005032
1.220149 0.0099999998 -0.1400395
1.2201284 0.0099999998 -0.12002945
1.220113 0.0099999998 -0.10002091
1.2201034 0.0099999998 -0.08001459400000001
1.2200975 0.0099999998 -0.060009915
1.2200942 0.0099999998 -0.040006254
1.2200924 0.0099999998 -0.020003036000000002
1.2401936000000002 0.0099999998 -0.18006246
1.2401788999999999 0.0099999998 -0.16005473
1.2401623 0.0099999998 -0.14004602
1.2401447 0.0099999998 -0.12003703
1.2401271 0.0099999998 -0.10002848
1.2401124 0.0099999998 -0.080020577
1.2401024999999999 0.0099999998 -0.060013641
1.2400968 0.0099999998 -0.040008157
1.2400941 0.0099999998 -0.020003781
1.2601759 0.0099999998 -0.1600558
1.2601659 0.0099999998 -0.14004982
1.2601551000000002 0.0099999998 -0.12004283
1.2601436000000001 0.0099999998 -0.10003508
1.2601329 0.0099999998 -0.080026686
1.2601235 0.0099999998 -0.060018398
1.2601171 0.0099999998 -0.040011078
1.2601133999999998 0.0099999998 -0.020005103
1.2801533 0.0099999998 -0.12004565
1.2801472 0.0099999998 -0.10003963
1.2801412 0.0099999998 -0.08003132
1.2801373999999999 0.0099999998 -0.060021727999999996
1.2801348999999997 0.0099999998 -0.040012911
1.2801334 0.0099999998 -0.02000588
1.3001368999999998 0.0099999998 -0.08003452400000001
1.3001346999999999 0.0099999998 -0.060024735
1.3001339 0.0099999998 -0.04001474
1.3001336000000001 0.0099999998 -0.020006634
-5.1292119e-07 0.0099999998 -1.1443483e-14
-5.1299594e-07 0.0099999998 0.020000003
-5.1316067e-07 0.0099999998 0.040000007000000004
-5.1323315e-07 0.0099999998 0.06000001
-5.1287697e-07 0.0099999998 0.080000013
-5.1161953e-07 0.0099999998 0.10000002
-5.087266599999999e-07 0.0099999998 0.12000003
-5.0329282e-07 0.0099999998 0.14000003
0.019999262 0.0099999998 -3.0026285e-14
0.019999262 0.0099999998 0.020000003
0.019999262 0.0099999998 0.040000007000000004
0.01999926 0.0099999998 0.060000014000000004
0.01999926 0.0099999998 0.08000002099999999
0.019999262 0.0099999998 0.10000002
0.019999264 0.0099999998 0.12000003
0.019999271000000002 0.0099999998 0.14000005
0.039998967 0.0099999998 9.1850415e-15
0.039998967 0.0099999998 0.020000005
0.039998967 0.0099999998 0.04000001
0.039998963 0.0099999998 0.060000017
0.039998963 0.0099999998 0.08000002099999999
0.039998963 0.0099999998 0.10000003
0.039998967 0.0099999998 0.12000004
0.039998975 0.0099999998 0.14000006
0.059998617000000004 0.0099999998 -6.581448699999999e-14
0.059998617000000004 0.0099999998 0.020000005
0.059998613 0.0099999998 0.04000001
0.059998609 0.0099999998 0.060000020999999994
0.059998609 0.0099999998 0.080000028
0.059998605 0.0099999998 0.10000004
0.059998609 0.0099999998 0.12000005
0.059998617000000004 0.0099999998 0.14000008
0.079998203 0.0099999998 -5.1760954000000004e-14
0.079998203 0.0099999998 0.020000007
0.079998203 0.0099999998 0.040000014
0.079998195 0.0099999998 0.060000020999999994
0.079998188 0.0099999998 0.080000028
0.079998188 0.0099999998 0.10000005
0.079998188 0.0099999998 0.12000006
0.079998195 0.0099999998 0.14000008
0.099997722 0.0099999998 -3.758233e-14
0.099997722 0.0099999998 0.020000007
0.099997714 0.0099999998 0.040000014
0.09999770699999999 0.0099999998 0.060000025
0.09999769900000001 0.0099999998 0.080000035
0.099997692 0.0099999998 0.10000005
0.099997692 0.0099999998 0.12000006
0.099997692 0.0099999998 0.14000009
0.11999715 0.0099999998 -6.0812276e-14
0.11999715 0.0099999998 0.020000007
0.11999714 0.0099999998 0.040000018
0.11999713 0.0099999998 0.060000025
0.11999712 0.0099999998 0.080000035
0.11999711 0.0099999998 0.10000005
0.1199971 0.0099999998 0.12000007
0.1199971 0.0099999998 0.14000009
0.13999647 0.0099999998 -7.195326700000001e-14
0.13999647 0.0099999998 0.020000009
0.13999645 0.0099999998 0.040000018
0.13999644 0.0099999998 0.060000032
0.13999642 0.0099999998 0.08000004299999999
0.13999641 0.0099999998 0.10000006
0.13999639 0.0099999998 0.12000009
0.13999638 0.0099999998 0.1400001
0.15999565 0.0099999998 -1.0573391999999998e-13
0.15999565 0.0099999998 0.020000011
0.15999563 0.0099999998 0.040000021000000004
0.15999562 0.0099999998 0.060000036
0.15999559 0.0099999998 0.08000005
0.15999556 0.0099999998 0.10000008
0.15999553 0.0099999998 0.1200001
0.15999551 0.0099999998 0.14000013
0.17999466 0.0099999998 1.1765626e-14
0.17999466 0.0099999998 0.020000013
0.17999464 0.0099999998 0.040000029
0.17999461 0.0099999998 0.060000042999999996
0.17999458 0.0099999998 0.080000065
0.17999454 0.0099999998 0.10000009
0.17999449 0.0099999998 0.12000012
0.17999446 0.0099999998 0.14000016
0.19999348 0.0099999998 2.6820638e-13
0.19999348 0.0099999998 0.020000016000000002
0.19999345 0.0099999998 0.040000033
0.19999342 0.0099999998 0.060000055
0.19999337 0.0099999998 0.08000008
0.19999331 0.0099999998 0.10000012
0.19999325 0.0099999998 0.12000016
0.19999321 0.0099999998 0.14000021
0.21999207 0.0099999998 -4.2614287000000004e-13
0.21999206 0.0099999998 0.02000002
0.21999203 0.0099999998 0.040000044
0.21999198 0.0099999998 0.060000069
0.21999191 0.0099999998 0.08000011
0.21999183 0.0099999998 0.10000015
0.21999176 0.0099999998 0.12000021
0.21999168 0.0099999998 0.14000028
0.23999037 0.0099999998 -7.0056195e-13
0.23999035 0.0099999998 0.020000023999999998
0.23999032 0.0099999998 0.040000051
0.23999026 0.0099999998 0.060000088
0.23999017 0.0099999998 0.080000132
0.23999007 0.0099999998 0.1000002
0.23998997 0.0099999998 0.12000027
0.23998986 0.0099999998 0.14000037
0.25998837 0.0099999998 -9.425615300000001e-14
0.25998834 0.0099999998 0.020000029
0.25998828 0.0099999998 0.040000062
0.25998822 0.0099999998 0.060000107000000004
0.2599881 0.0099999998 0.08000017
0.25998795 0.0099999998 0.10000025
0.2599878 0.0099999998 0.12000035
0.25998768 0.0099999998 0.14000048
0.27998596 0.0099999998 1.096576e-13
0.27998593 0.0099999998 0.020000035
0.27998587 0.0099999998 0.040000077
0.27998576 0.0099999998 0.060000129000000006
0.27998561 0.0099999998 0.080000207
0.27998546 0.0099999998 0.10000031
0.27998525 0.0099999998 0.12000044
0.27998504 0.0099999998 0.1400006
0.29998311 0.0099999998 -1.3510097000000001e-13
0.29998308 0.0099999998 0.020000041
0.29998299 0.0099999998 0.040000088999999996
0.29998288 0.0099999998 0.060000150999999995
0.29998267 0.0099999998 0.080000244
0.29998246 0.0099999998 0.10000037
0.29998219 0.0099999998 0.12000053
0.29998192 0.0099999998 0.14000075
0.31997976 0.0099999998 -2.107948e-13
0.31997973 0.0099999998 0.020000043999999998
0.31997961 0.0099999998 0.0400001
0.31997943 0.0099999998 0.060000174
0.31997919 0.0099999998 0.08000028099999999
0.31997889 0.0099999998 0.10000043
0.31997856 0.0099999998 0.12000064
0.31997821 0.0099999998 0.14000091
0.33997577 0.0099999998 3.5008923e-13
0.33997574 0.0099999998 0.02000005
0.3399756 0.0099999998 0.040000111
0.33997539 0.0099999998 0.0600002
0.33997509 0.0099999998 0.080000326
0.3399747 0.0099999998 0.10000051
0.33997425 0.0099999998 0.12000076
0.33997378 0.0099999998 0.14000109
0.35997111 0.0099999998 -1.6589586999999999e-12
0.35997105 0.0099999998 0.020000056999999998
0.35997087 0.0099999998 0.040000126000000004
0.3599706 0.0099999998 0.06000023
0.35997021 0.0099999998 0.080000378
0.35996974 0.0099999998 0.10000059
0.35996917 0.0099999998 0.12000088
0.35996854 0.0099999998 0.14000128
0.3799656 0.0099999998 5.924902e-13
0.37996554 0.0099999998 0.02000007
0.37996534 0.0099999998 0.040000156
0.37996498 0.0099999998 0.060000274000000006
0.3799645 0.0099999998 0.080000445
0.37996387 0.0099999998 0.10000069
0.37996316 0.0099999998 0.12000104
0.37996238 0.0099999998 0.14000151
0.39995918 0.0099999998 -6.3751559e-13
0.39995909 0.0099999998 0.020000096000000002
0.39995885 0.0099999998 0.040000211
0.3999584 0.0099999998 0.060000356
0.39995781 0.0099999998 0.08000056400000001
0.39995706 0.0099999998 0.10000085
0.39995614 0.0099999998 0.12000124
0.39995512 0.0099999998 0.14000179
0.41995174 0.0099999998 -3.8133919e-12
0.41995162 0.0099999998 0.020000149
0.41995129 0.0099999998 0.040000312
0.41995078 0.0099999998 0.060000509
0.41995004 0.0099999998 0.080000766
0.41994908 0.0099999998 0.1000011
0.41994795 0.0099999998 0.12000155
0.41994667 0.0099999998 0.14000218
0.43994308 0.0099999998 -3.0016522999999995e-12
0.43994296 0.0099999998 0.020000244
0.43994257 0.0099999998 0.040000497999999995
0.43994194 0.0099999998 0.060000780999999996
0.43994102 0.0099999998 0.080001116
0.43993989 0.0099999998 0.10000153
0.43993849 0.0099999998 0.12000206
0.43993688 0.0099999998 0.14000276
0.45993304 0.0099999998 2.3582425e-12
0.45993289 0.0099999998 0.020000402
0.45993242 0.0099999998 0.040000811000000004
0.45993167 0.0099999998 0.060001239000000005
0.4599306 0.0099999998 0.080001704
0.4599292 0.0099999998 0.10000224
0.45992747 0.0099999998 0.12000288
0.45992547 0.0099999998 0.14000367
0.47992134 0.0099999998 -1.1631069e-12
0.47992116 0.0099999998 0.020000656999999998
0.47992063 0.0099999998 0.04000131
0.47991973 0.0099999998 0.060001969
0.47991845 0.0099999998 0.080002651
0.47991678 0.0099999998 0.10000338
0.4799147 0.0099999998 0.12000419
0.47991225 0.0099999998 0.14000514
0.4999077 0.0099999998 1.8595813000000004e-12
0.49990749 0.0099999998 0.02000103
0.4999069 0.0099999998 0.040002052
0.49990585 0.0099999998 0.060003065
0.49990433 0.0099999998 0.08000407400000001
0.49990237 0.0099999998 0.10000512
0.49989989 0.0099999998 0.12000622
0.49989691 0.0099999998 0.14000741
0.51989186 0.0099999998 -2.6357551e-12
0.51989162 0.0099999998 0.020001553000000002
0.5198909 0.0099999998 0.040003091
0.51988971 0.0099999998 0.060004614000000005
0.51988798 0.0099999998 0.08000613
0.51988572 0.0099999998 0.10000765
0.51988274 0.0099999998 0.1200092
0.51987922 0.0099999998 0.14001079
0.53987372 0.0099999998 1.9505072e-12
0.53987342 0.0099999998 0.020002244
0.53987265 0.0099999998 0.040004473
0.53987128 0.0099999998 0.060006682
0.53986931 0.0099999998 0.080008887
0.53986669 0.0099999998 0.1000111
0.53986329 0.0099999998 0.12001334
0.53985918 0.0099999998 0.14001557
0.55985355 0.0099999998 -2.8530351e-12
0.55985326 0.0099999998 0.020003108000000002
0.55985236 0.0099999998 0.04000622
0.55985087 0.0099999998 0.060009342
0.55984861 0.0099999998 0.080012485
0.55984563 0.0099999998 0.10001566
0.55984175 0.0099999998 0.12001885
0.55983704 0.0099999998 0.14002204
0.57983232 0.0099999998 -2.0211733e-13
0.57983196 0.0099999998 0.020004127
0.57983094 0.0099999998 0.040008277
0.57982928 0.0099999998 0.06001249
0.57982677 0.0099999998 0.080016807
0.57982343 0.0099999998 0.10002123
0.57981908 0.0099999998 0.12002573
0.57981378 0.0099999998 0.14003021
0.59981143 0.0099999998 6.275793700000001e-12
0.59981108 0.0099999998 0.020005299
0.59980994 0.0099999998 0.040010639
0.59980804 0.0099999998 0.060016099
0.5998053 0.0099999998 0.080021791
0.5998016 0.0099999998 0.10002775
0.59979683 0.0099999998 0.12003389
0.59979093 0.0099999998 0.14004
0.61979234 0.0099999998 -4.7277594e-12
0.61979192 0.0099999998 0.020006595
0.61979067 0.0099999998 0.040013269
0.61978853 0.0099999998 0.06002016
0.61978543 0.0099999998 0.080027431
0.61978132 0.0099999998 0.10003518
0.61977613 0.0099999998 0.12004329
0.61976969 0.0099999998 0.14005139
0.63977605 0.0099999998 6.7666844e-12
0.63977563 0.0099999998 0.020007951
0.6397742 0.0099999998 0.040016003
0.63977176 0.0099999998 0.060024347
0.63976836 0.0099999998 0.080033273
0.63976377 0.0099999998 0.100043
0.63975805 0.0099999998 0.12005346
0.63975114 0.0099999998 0.14006406
0.65976375 0.0099999998 -4.256578599999999e-12
0.65976322 0.0099999998 0.020009561000000002
0.65976167 0.0099999998 0.040019277
0.65975899 0.0099999998 0.060029417
0.65975523 0.0099999998 0.080040388
0.65975034 0.0099999998 0.10005251
0.65974432 0.0099999998 0.12006572
0.65973729 0.0099999998 0.1400793
0.67975861 0.0099999998 1.1773537e-12
0.67975807 0.0099999998 0.020011622
0.6797564 0.0099999998 0.040023472000000004
0.67975366 0.0099999998 0.060035914
0.67974979 0.0099999998 0.080049552
0.67974478 0.0099999998 0.10006484
0.67973882 0.0099999998 0.12008161
0.67973179 0.0099999998 0.1400989
0.69976735 0.0099999998 2.7764308000000002e-11
0.69976681 0.0099999998 0.020013502
0.69976521 0.0099999998 0.040027332
0.69976252 0.0099999998 0.060042094000000004
0.69975877 0.0099999998 0.080058634
0.699754 0.0099999998 0.1000776
0.6997484 0.0099999998 0.12009887
0.69974196 0.0099999998 0.14012119
0.71982026 0.0099999998 -5.3092457000000006e-12
0.71981978 0.0099999998 0.020015303
0.71981835 0.0099999998 0.040031001000000004
0.71981591 0.0099999998 0.060047828
0.71981251 0.0099999998 0.080066822
0.71980798 0.0099999998 0.1000888
0.71980226 0.0099999998 0.12011375
0.71979541 0.0099999998 0.14014034
0.73988849 0.0099999998 2.8033333e-11
0.73988813 0.0099999998 0.020016586
0.739887 0.0099999998 0.04003356
0.73988521 0.0099999998 0.060051683
0.73988271 0.0099999998 0.08007203
0.73987937 0.0099999998 0.10009547
0.73987526 0.0099999998 0.12012194
0.73987037 0.0099999998 0.14015001
0.75994039 0.0099999998 5.5538611999999996e-11
0.75994015 0.0099999998 0.020017495
0.75993943 0.0099999998 0.040035356
0.75993824 0.0099999998 0.060054347
0.75993663 0.0099999998 0.080075569
0.7599346 0.0099999998 0.10009991
0.7599321 0.0099999998 0.12012727
0.75992918 0.0099999998 0.14015608
0.77997804 0.0099999998 -6.3075035999999996e-12
0.77997792 0.0099999998 0.020018028
0.77997756 0.0099999998 0.040036399
0.77997702 0.0099999998 0.060055852
0.77997625 0.0099999998 0.080077514
0.77997535 0.0099999998 0.10010228
0.77997434 0.0099999998 0.12013002
0.77997315 0.0099999998 0.14015909
0.800008 0.0099999998 -6.7565328e-11
0.80000794 0.0099999998 0.020018214
0.80000794 0.0099999998 0.040036742
0.80000794 0.0099999998 0.06005631
0.80000794 0.0099999998 0.08007803599999999
0.80000806 0.0099999998 0.10010283
0.8000083 0.0099999998 0.12013055
0.80000865 0.0099999998 0.14015952
0.82003641 0.0099999998 1.6245954e-11
0.82003647 0.0099999998 0.020018095
0.82003677 0.0099999998 0.040036472999999996
0.82003725 0.0099999998 0.060055847999999995
0.82003796 0.0099999998 0.080077328
0.82003897 0.0099999998 0.10010182
0.82004029 0.0099999998 0.12012921
0.82004195 0.0099999998 0.14015782
0.84006619 0.0099999998 6.1210259e-11
0.84006637 0.0099999998 0.02001771
0.84006691 0.0099999998 0.040035684
0.8400678 0.0099999998 0.060054610999999994
0.84006912 0.0099999998 0.080075577
0.8400709 0.0099999998 0.1000995
0.84007329 0.0099999998 0.12012628
0.84007615 0.0099999998 0.14015429
0.86009687 0.0099999998 3.5139322e-11
0.86009711 0.0099999998 0.020017093
0.86009789 0.0099999998 0.040034436
0.86009914 0.0099999998 0.060052693
0.86010098 0.0099999998 0.080072924
0.86010349 0.0099999998 0.10009602
0.86010677 0.0099999998 0.12012193
0.86011076 0.0099999998 0.14014909
0.88012612 0.0099999998 -5.5894559999999996e-11
0.88012642 0.0099999998 0.020016277
0.88012737 0.0099999998 0.040032793
0.88012898 0.0099999998 0.060050186
0.8801313 0.0099999998 0.080069475
0.8801344 0.0099999998 0.10009154
0.88013846 0.0099999998 0.12011633
0.88014352 0.0099999998 0.14014237
0.90015113 0.0099999998 -8.7849505e-11
0.90015155 0.0099999998 0.020015292
0.90015268 0.0099999998 0.040030811
0.90015459 0.0099999998 0.060047168
0.90015739 0.0099999998 0.08006534
0.90016109 0.0099999998 0.10008616
0.90016586 0.0099999998 0.12010962
0.90017182 0.0099999998 0.14013429
0.92016256 0.0099999998 -6.882317599999999e-12
0.92016304 0.0099999998 0.020014288
0.92016453 0.0099999998 0.040028762
0.92016703 0.0099999998 0.060043979000000004
0.92017061 0.0099999998 0.080060855
0.92017537 0.0099999998 0.1000802
0.92018133 0.0099999998 0.12010205
0.92018861 0.0099999998 0.14012511
0.94016373 0.0099999998 2.3596618e-11
0.94016421 0.0099999998 0.020013237
0.94016582 0.0099999998 0.040026631
0.9401685 0.0099999998 0.060040656
0.94017231 0.0099999998 0.080056161
0.94017738 0.0099999998 0.10007392
0.94018376 0.0099999998 0.120094
0.94019157 0.0099999998 0.14011528
0.96016186 0.0099999998 -4.4182381999999997e-13
0.9601624 0.0099999998 0.020012066000000002
0.96016395 0.0099999998 0.040024277000000004
0.96016663 0.0099999998 0.06003708
0.96017045 0.0099999998 0.080051228
0.96017557 0.0099999998 0.10006744
0.96018201 0.0099999998 0.12008575
0.96019 0.0099999998 0.14010517
0.98015839 0.0099999998 -9.6711614e-12
0.98015893 0.0099999998 0.020010917
0.98016042 0.0099999998 0.040021982000000005
0.98016298 0.0099999998 0.060033582
0.98016673 0.0099999998 0.080046393
0.98017174 0.0099999998 0.10006105
0.98017818 0.0099999998 0.12007765
0.98018616 0.0099999998 0.14009528
1.0001539000000002 0.0099999998 -5.016446900000001e-12
1.0001544 0.0099999998 0.020009866
1.0001559000000002 0.0099999998 0.040019885
1.0001584000000001 0.0099999998 0.060030404
1.000162 0.0099999998 0.080042027
1.0001668 0.0099999998 0.10005531
1.0001731 0.0099999998 0.12007029
1.0001811 0.0099999998 0.14008613
1.0201486 0.0099999998 7.077567299999999e-12
1.0201491 0.0099999998 0.020008907
1.0201504000000001 0.0099999998 0.040017981
1.0201528 0.0099999998 0.060027529
1.0201563 0.0099999998 0.080038026
1.020161 0.0099999998 0.10004998
1.0201672 0.0099999998 0.12006346
1.0201752 0.0099999998 0.14007765
1.0401424000000001 0.0099999998 1.4196376e-11
1.0401428 0.0099999998 0.020008046
1.0401441999999999 0.0099999998 0.040016271
1.0401465 0.0099999998 0.060024954000000005
1.0401498 0.0099999998 0.080034472
1.0401543 0.0099999998 0.10004522
1.0401605 0.0099999998 0.12005722
1.0401685999999999 0.0099999998 0.14006981
1.0601355 0.0099999998 1.5157644e-11
1.060136 0.0099999998 0.020007279
1.0601372 0.0099999998 0.040014759
1.0601393999999997 0.0099999998 0.060022671
1.0601426 0.0099999998 0.080031328
1.0601472 0.0099999998 0.10004096
1.0601534 0.0099999998 0.12005153
1.0601616000000003 0.0099999998 0.14006241
1.0801281999999999 0.0099999998 3.1009142999999996e-12
1.0801287 0.0099999998 0.020006619
1.0801299 0.0099999998 0.040013444
1.0801321000000002 0.0099999998 0.060020678
1.0801353 0.0099999998 0.080028534
1.0801399 0.0099999998 0.1000371
1.0801461 0.0099999998 0.12004633
1.0801544 0.0099999998 0.14005557
1.100121 0.0099999998 -3.0220252999999995e-12
1.1001215 0.0099999998 0.020006048999999998
1.1001226999999998 0.0099999998 0.040012293
1.1001248 0.0099999998 0.060018907999999996
1.1001281 0.0099999998 0.080025978
1.1001326999999999 0.0099999998 0.1000336
1.100139 0.0099999998 0.12004133
1.1001477 0.0099999998 0.14004932
1.1201142 0.0099999998 -4.9024955e-12
1.1201146999999998 0.0099999998 0.020005547
1.1201159 0.0099999998 0.040011264
1.120118 0.0099999998 0.060017228
1.1201214 0.0099999998 0.080023549
1.120126 0.0099999998 0.10002991
1.1201326999999999 0.0099999998 0.1200365
1.1201415000000001 0.0099999998 0.14004292
1.1401081 0.0099999998 4.3390075e-13
1.1401085 0.0099999998 0.020005057
1.1401098 0.0099999998 0.040010192
1.1401119 0.0099999998 0.060015492000000004
1.1401153999999998 0.0099999998 0.080020815
1.1401203000000002 0.0099999998 0.10002628
1.1401268999999998 0.0099999998 0.12003151
1.1401364999999999 0.0099999998 0.14003725
1.1601027 0.0099999998 2.7919492000000004e-12
1.1601031000000002 0.0099999998 0.020004496
1.1601044 0.0099999998 0.040008972999999996
1.1601066999999998 0.0099999998 0.060013484000000006
1.1601101999999999 0.0099999998 0.080018058
1.1601152 0.0099999998 0.10002244
1.1601226 0.0099999998 0.12002719
1.1601331 0.0099999998 0.14003283
1.1800981000000001 0.0099999998 3.5797887999999997e-12
1.1800983999999999 0.0099999998 0.020003822
1.1800998 0.0099999998 0.040007662
1.1801021 0.0099999998 0.06001143900000001
1.1801058999999998 0.0099999998 0.08001527900000001
1.1801116000000003 0.0099999998 0.10001943
1.18012 0.0099999998 0.12002421
1.1801323000000001 0.0099999998 0.14003073
1.2000941999999999 0.0099999998 -1.2320286e-12
1.2000947 0.0099999998 0.020003188
1.2000961 0.0099999998 0.040006451
1.2000989 0.0099999998 0.060009897
1.2001033 0.0099999998 0.080013715
1.20011 0.0099999998 0.1000181
1.2001203999999999 0.0099999998 0.12002416
1.2001367 0.0099999998 0.14003301
1.2200918 0.0099999998 -9.543769599999999e-14
1.2200924 0.0099999998 0.020003036000000002
1.2200942 0.0099999998 0.040006254
1.2200975 0.0099999998 0.060009915
1.2201034 0.0099999998 0.08001459400000001
1.220113 0.0099999998 0.10002091
1.2201284 0.0099999998 0.12002945
1.220149 0.0099999998 0.1400395
1.2400931999999998 0.0099999998 -2.4867432e-12
1.2400941 0.0099999998 0.020003781
1.2400968 0.0099999998 0.040008157
1.2401024999999999 0.0099999998 0.060013641
1.2401124 0.0099999998 0.080020577
1.2401271 0.0099999998 0.10002848
1.2401447 0.0099999998 0.12003703
1.2401623 0.0099999998 0.14004602
1.2601122 0.0099999998 -8.1414687e-13
1.2601133999999998 0.0099999998 0.020005103
1.2601171 0.0099999998 0.040011078
1.2601235 0.0099999998 0.060018398
1.2601329 0.0099999998 0.080026686
1.2601436000000001 0.0099999998 0.10003508
1.2601551000000002 0.0099999998 0.12004283
1.2601659 0.0099999998 0.14004982
1.2801328 0.0099999998 2.7110607999999996e-12
1.2801334 0.0099999998 0.02000588
1.2801348999999997 0.0099999998 0.040012911
1.2801373999999999 0.0099999998 0.060021727999999996
1.2801412 0.0099999998 0.08003132
1.2801472 0.0099999998 0.10003963
1.2801533 0.0099999998 0.12004565
1.3001334999999998 0.0099999998 1.7534737000000001e-12
1.3001336000000001 0.0099999998 0.020006634
1.3001339 0.0099999998 0.04001474
1.3001346999999999 0.0099999998 0.060024735
1.3001368999999998 0.0099999998 0.08003452400000001
-4.9415723e-07 0.0099999998 0.16000004
-4.7979137e-07 0.0099999998 0.18000005
-4.5883752e-07 0.0099999998 0.20000006
-4.2942648e-07 0.0099999998 0.22000009
-3.9040954999999997e-07 0.0099999998 0.2400001
-3.4039056e-07 0.0099999998 0.26000011
-2.8110537e-07 0.0099999998 0.28000012
0.019999282 0.0099999998 0.16000006
0.019999301 0.0099999998 0.18000008
0.019999331000000002 0.0099999998 0.20000009
0.019999371999999998 0.0099999998 0.22000012
0.01999943 0.0099999998 0.24000013
0.019999506 0.0099999998 0.26000014
0.019999599 0.0099999998 0.28000015
0.019999711 0.0099999998 0.30000013
0.03999899 0.0099999998 0.16000007
0.039999012 0.0099999998 0.1800001
0.039999053 0.0099999998 0.20000012
0.039999109 0.0099999998 0.22000013
0.039999187 0.0099999998 0.24000016
0.039999295 0.0099999998 0.26000017
0.039999428999999996 0.0099999998 0.28000018
0.039999586000000004 0.0099999998 0.30000016
0.059998631 0.0099999998 0.16000009
0.059998660999999995 0.0099999998 0.18000011
0.05999871 0.0099999998 0.20000014
0.059998784000000006 0.0099999998 0.22000016
0.05999888900000001 0.0099999998 0.24000017
0.05999903400000001 0.0099999998 0.2600002
0.059999212999999996 0.0099999998 0.28000021
0.059999425 0.0099999998 0.30000019
0.07999821 0.0099999998 0.1600001
0.07999824700000001 0.0099999998 0.18000013
0.07999829900000001 0.0099999998 0.20000015
0.079998396 0.0099999998 0.22000018
0.079998523 0.0099999998 0.2400002
0.079998709 0.0099999998 0.26000023
0.07999894 0.0099999998 0.28000024
0.079999223 0.0099999998 0.30000025
0.099997714 0.0099999998 0.16000012
0.099997744 0.0099999998 0.18000014
0.09999781099999999 0.0099999998 0.20000017
0.099997923 0.0099999998 0.22000021
0.099998079 0.0099999998 0.24000023
0.09999831 0.0099999998 0.26000026
0.09999860099999999 0.0099999998 0.28000027
0.099998973 0.0099999998 0.30000028
0.11999711 0.0099999998 0.16000013
0.11999715 0.0099999998 0.18000016
0.11999722 0.0099999998 0.2000002
0.11999734 0.0099999998 0.22000022
0.11999754 0.0099999998 0.24000025
0.11999781 0.0099999998 0.26000029
0.11999818 0.0099999998 0.2800003
0.11999864 0.0099999998 0.30000034
0.13999639 0.0099999998 0.16000015
0.13999642 0.0099999998 0.18000017
0.1399965 0.0099999998 0.20000021
0.13999663 0.0099999998 0.22000025
0.13999686 0.0099999998 0.24000029
0.13999718 0.0099999998 0.26000032
0.13999763 0.0099999998 0.28000036
0.13999821 0.0099999998 0.30000043
0.15999551 0.0099999998 0.16000018
0.15999554 0.0099999998 0.18000022
0.15999562 0.0099999998 0.20000026
0.15999578 0.0099999998 0.2200003
0.15999603 0.0099999998 0.24000035
0.15999641 0.0099999998 0.26000038
0.15999694 0.0099999998 0.28000045
0.15999766 0.0099999998 0.30000052
0.17999445 0.0099999998 0.16000022
0.17999448 0.0099999998 0.18000026
0.17999455 0.0099999998 0.20000032
0.17999472 0.0099999998 0.22000037
0.179995 0.0099999998 0.24000043
0.17999545 0.0099999998 0.26000047
0.17999606 0.0099999998 0.28000054
0.17999691 0.0099999998 0.30000064
0.19999318 0.0099999998 0.16000028
0.19999318 0.0099999998 0.18000033
0.19999325 0.0099999998 0.20000041
0.19999342 0.0099999998 0.22000048
0.19999373 0.0099999998 0.24000053
0.19999424 0.0099999998 0.26000059
0.19999494 0.0099999998 0.28000066
0.19999589 0.0099999998 0.30000076
0.21999162 0.0099999998 0.16000037
0.21999161 0.0099999998 0.18000045
0.21999167 0.0099999998 0.20000054
0.21999183 0.0099999998 0.22000064
0.21999218 0.0099999998 0.24000071
0.21999273 0.0099999998 0.2600008
0.21999352 0.0099999998 0.28000093
0.21999465 0.0099999998 0.30000117
0.23998977 0.0099999998 0.16000047
0.23998973 0.0099999998 0.1800006
0.23998976 0.0099999998 0.20000073
0.23998991 0.0099999998 0.22000086
0.23999025 0.0099999998 0.24000101
0.23999085 0.0099999998 0.26000124
0.23999169 0.0099999998 0.28000161
0.23999295 0.0099999998 0.30000231
0.25998753 0.0099999998 0.16000062
0.25998744 0.0099999998 0.1800008
0.25998744 0.0099999998 0.20000099
0.25998756 0.0099999998 0.22000122
0.25998789 0.0099999998 0.24000148
0.25998846 0.0099999998 0.2600019
0.25998932 0.0099999998 0.28000262
0.25999057 0.0099999998 0.30000362
0.27998486 0.0099999998 0.1600008
0.27998471 0.0099999998 0.18000104
0.27998465 0.0099999998 0.20000133
0.27998474 0.0099999998 0.22000167
0.27998498 0.0099999998 0.2400021
0.27998552 0.0099999998 0.26000273
0.27998635 0.0099999998 0.2800037
0.27998754 0.0099999998 0.30000487
0.29998165 0.0099999998 0.16000101
0.29998145 0.0099999998 0.18000133
0.29998133 0.0099999998 0.20000173
0.29998133 0.0099999998 0.2200022
0.2999815 0.0099999998 0.2400028
0.29998198 0.0099999998 0.26000363
0.29998276 0.0099999998 0.28000477
0.29998392 0.0099999998 0.30000606
0.31997785 0.0099999998 0.16000125
0.31997752 0.0099999998 0.18000168
0.31997731 0.0099999998 0.20000219
0.31997722 0.0099999998 0.22000282
0.31997737 0.0099999998 0.24000357
0.31997779 0.0099999998 0.26000458
0.31997856 0.0099999998 0.28000587
0.31997976 0.0099999998 0.30000734
0.3399733 0.0099999998 0.16000152
0.33997285 0.0099999998 0.18000205
0.33997253 0.0099999998 0.2000027
0.33997235 0.0099999998 0.22000349
0.33997244 0.0099999998 0.24000442
0.33997285 0.0099999998 0.26000562
0.33997369 0.0099999998 0.28000712
0.33997497 0.0099999998 0.30000877
0.35996792 0.0099999998 0.1600018
0.35996732 0.0099999998 0.18000245
0.35996681 0.0099999998 0.20000327
0.35996655 0.0099999998 0.22000423
0.35996658 0.0099999998 0.24000537
0.35996699 0.0099999998 0.26000679
0.35996792 0.0099999998 0.28000852
0.35996941 0.0099999998 0.30001044
0.37996155 0.0099999998 0.16000213
0.37996075 0.0099999998 0.18000291
0.37996006 0.0099999998 0.20000388
0.37995964 0.0099999998 0.22000507
0.37995958 0.0099999998 0.24000645
0.37996003 0.0099999998 0.2600081
0.37996107 0.0099999998 0.28001016
0.37996283 0.0099999998 0.30001241
0.39995405 0.0099999998 0.1600025
0.39995301 0.0099999998 0.18000342
0.39995208 0.0099999998 0.20000458
0.39995149 0.0099999998 0.22000599
0.39995131 0.0099999998 0.24000764
0.39995176 0.0099999998 0.26000965
0.39995292 0.0099999998 0.2800121
0.39995497 0.0099999998 0.30001476
0.4199453 0.0099999998 0.16000299
0.41994393 0.0099999998 0.18000403
0.41994271 0.0099999998 0.20000537
0.41994184 0.0099999998 0.22000702
0.41994151 0.0099999998 0.24000901
0.4199419 0.0099999998 0.26001143
0.41994321 0.0099999998 0.2800144
0.4199456 0.0099999998 0.30001757
0.43993512 0.0099999998 0.16000366
0.43993333 0.0099999998 0.18000482
0.43993172 0.0099999998 0.20000632
0.4399305 0.0099999998 0.22000821
0.4399299 0.0099999998 0.24001054
0.43993023 0.0099999998 0.26001346
0.43993166 0.0099999998 0.28001708
0.43993437 0.0099999998 0.30002093
0.45992327 0.0099999998 0.16000468
0.45992097 0.0099999998 0.18000594
0.45991883 0.0099999998 0.20000757
0.45991713 0.0099999998 0.22000965
0.4599162 0.0099999998 0.2400123
0.45991632 0.0099999998 0.26001579
0.45991781 0.0099999998 0.2800203
0.45992088 0.0099999998 0.30002502
0.47990951 0.0099999998 0.16000625
0.47990662 0.0099999998 0.18000761
0.47990382 0.0099999998 0.20000932
0.47990149 0.0099999998 0.2200115
0.47990006 0.0099999998 0.2400144
0.47989982 0.0099999998 0.26001847
0.47990125 0.0099999998 0.28002408
0.47990456 0.0099999998 0.30002999
0.49989355 0.0099999998 0.1600087
0.49988994 0.0099999998 0.18001017
0.49988639 0.0099999998 0.20001191
0.49988329 0.0099999998 0.22001408
0.49988112 0.0099999998 0.2400171
0.49988028 0.0099999998 0.26002163
0.49988139 0.0099999998 0.28002858
0.49988469 0.0099999998 0.3000361
0.51987523 0.0099999998 0.16001239
0.51987082 0.0099999998 0.18001407
0.51986641 0.0099999998 0.20001586
0.51986235 0.0099999998 0.22001794
0.51985919 0.0099999998 0.24002089
0.51985741 0.0099999998 0.26002562
0.5198577 0.0099999998 0.28003407
0.51986033 0.0099999998 0.30004367
0.53985447 0.0099999998 0.16001774
0.53984922 0.0099999998 0.1800198
0.53984392 0.0099999998 0.2000218
0.53983879 0.0099999998 0.2200238
0.53983438 0.0099999998 0.24002647
0.53983116 0.0099999998 0.26003113
0.53982979 0.0099999998 0.28004104
0.53983074 0.0099999998 0.30005312
0.55983162 0.0099999998 0.16002509
0.55982566 0.0099999998 0.18002787
0.55981934 0.0099999998 0.20003036
0.55981308 0.0099999998 0.22003245
0.55980724 0.0099999998 0.24003483
0.55980211 0.0099999998 0.26003927
0.55979812 0.0099999998 0.28005043
0.55979568 0.0099999998 0.30006528
0.57980764 0.0099999998 0.16003449
0.57980096 0.0099999998 0.1800385
0.57979375 0.0099999998 0.20004188
0.57978642 0.0099999998 0.2200447
0.57977891 0.0099999998 0.24004698
0.57977152 0.0099999998 0.26005149
0.57976407 0.0099999998 0.28006393
0.57975662 0.0099999998 0.30008134
0.59978402 0.0099999998 0.16004573
0.59977639 0.0099999998 0.18005106
0.59976834 0.0099999998 0.20005602
0.59976 0.0099999998 0.2200603
0.59975111 0.0099999998 0.24006395
0.59974122 0.0099999998 0.26006979
0.59973013 0.0099999998 0.2800841
0.59971696 0.0099999998 0.30010337
0.61976206 0.0099999998 0.16005893
0.61975342 0.0099999998 0.18006577
0.61974436 0.0099999998 0.20007241
0.61973494 0.0099999998 0.22007924
0.61972457 0.0099999998 0.24008642
0.61971301 0.0099999998 0.26009715
0.61969918 0.0099999998 0.28011465
0.6196816 0.0099999998 0.30013424
0.63974297 0.0099999998 0.16007394
0.63973355 0.0099999998 0.18008289
0.63972324 0.0099999998 0.2000919
0.63971257 0.0099999998 0.22010304
0.63970172 0.0099999998 0.24011892
0.63968992 0.0099999998 0.2601395
0.63967466 0.0099999998 0.28015828
0.63965493 0.0099999998 0.30017611
0.65972894 0.0099999998 0.16009206
0.65971923 0.0099999998 0.18010406
0.65970862 0.0099999998 0.20011809
0.65969801 0.0099999998 0.22013821
0.659688 0.0099999998 0.2401672
0.65967679 0.0099999998 0.26019666
0.6596601 0.0099999998 0.28021026
0.65964049 0.0099999998 0.30022487
0.67972356 0.0099999998 0.16011529
0.67971396 0.0099999998 0.18013136
0.67970365 0.0099999998 0.20015155
0.67969424 0.0099999998 0.22018178
0.67968655 0.0099999998 0.24022144
0.67967677 0.0099999998 0.26025215
0.67966002 0.0099999998 0.28025839
0.67964637 0.0099999998 0.30026948
0.69973445 0.0099999998 0.16014239
0.69972551 0.0099999998 0.18016297
0.69971633 0.0099999998 0.20018885
0.69970936 0.0099999998 0.22022533
0.69970572 0.0099999998 0.24026798
0.69969893 0.0099999998 0.26029637
0.69969034 0.0099999998 0.28029487
0.69969952 0.0099999998 0.30030397
0.71978742 0.0099999998 0.16016571
0.71977866 0.0099999998 0.18018974
0.71977007 0.0099999998 0.20021902
0.71976388 0.0099999998 0.22025758
0.7197628 0.0099999998 0.24029852
0.71976614 0.0099999998 0.2603218
0.7197749 0.0099999998 0.28031749
0.71978992 0.0099999998 0.30032846
0.73986477 0.0099999998 0.16017658
0.73985881 0.0099999998 0.18020126
0.7398532 0.0099999998 0.20023049
0.73984951 0.0099999998 0.22026831
0.73984963 0.0099999998 0.2403077
0.73985356 0.0099999998 0.26033074
0.73986059 0.0099999998 0.28032961
0.73987138 0.0099999998 0.30034474
0.75992596 0.0099999998 0.16018303
0.7599228 0.0099999998 0.18020755
0.75992 0.0099999998 0.20023596
0.75991863 0.0099999998 0.22027242
0.75991946 0.0099999998 0.24031034
0.75992244 0.0099999998 0.26033422
0.7599268 0.0099999998 0.28033665
0.75993353 0.0099999998 0.3003557
0.77997196 0.0099999998 0.16018601
0.77997094 0.0099999998 0.18021011
0.77997035 0.0099999998 0.20023775
0.77997047 0.0099999998 0.22027339
0.7799716 0.0099999998 0.24031073
0.77997345 0.0099999998 0.26033568
0.77997535 0.0099999998 0.28034079
0.77997839 0.0099999998 0.30036256
0.80000919 0.0099999998 0.16018622
0.80000997 0.0099999998 0.18020989
0.80001092 0.0099999998 0.20023702
0.80001211 0.0099999998 0.22027265
0.80001324 0.0099999998 0.24031034
0.80001384 0.0099999998 0.26033613
0.80001378 0.0099999998 0.28034273
0.80001354 0.0099999998 0.30036575
0.82004404 0.0099999998 0.16018414
0.82004631 0.0099999998 0.18020745
0.82004875 0.0099999998 0.20023432
0.82005084 0.0099999998 0.22027053
0.82005179 0.0099999998 0.24030919
0.82005125 0.0099999998 0.26033571
0.82005 0.0099999998 0.28034246
0.82004672 0.0099999998 0.30036545
0.84007961 0.0099999998 0.16018008
0.84008342 0.0099999998 0.18020296
0.84008729 0.0099999998 0.20022947
0.84009033 0.0099999998 0.22026573
0.84009117 0.0099999998 0.24030477
0.8400898 0.0099999998 0.26033139
0.84008759 0.0099999998 0.28033805
0.84008181 0.0099999998 0.30036044
0.86011553 0.0099999998 0.16017415
0.86012089 0.0099999998 0.18019642
0.86012626 0.0099999998 0.20022231
0.86013049 0.0099999998 0.22025785
0.86013126 0.0099999998 0.24029632
0.86012924 0.0099999998 0.26032245
0.8601265 0.0099999998 0.2803292
0.86011839 0.0099999998 0.30035082
0.88014954 0.0099999998 0.16016644
0.88015634 0.0099999998 0.18018788
0.88016319 0.0099999998 0.20021276
0.88016862 0.0099999998 0.22024688
0.88016951 0.0099999998 0.24028385
0.88016677 0.0099999998 0.26030916
0.88016385 0.0099999998 0.28031629
0.88015383 0.0099999998 0.30033711
0.90017891 0.0099999998 0.16015711
0.90018702 0.0099999998 0.18017747
0.90019524 0.0099999998 0.20020099
0.90020162 0.0099999998 0.22023277
0.90020227 0.0099999998 0.24026741
0.90019912 0.0099999998 0.26029196
0.90019667 0.0099999998 0.28029996
0.90018541 0.0099999998 0.30032003
0.92019737 0.0099999998 0.1601465
0.92020774 0.0099999998 0.18016554
0.92021859 0.0099999998 0.20018736
0.92022669 0.0099999998 0.22021599
0.92022711 0.0099999998 0.24024795
0.92022407 0.0099999998 0.26027191
0.92022187 0.0099999998 0.28028077
0.92021054 0.0099999998 0.30030021
0.94020104 0.0099999998 0.16013509
0.94021249 0.0099999998 0.18015277
0.9402256 0.0099999998 0.20017269
0.9402383 0.0099999998 0.22019845
0.94024372 0.0099999998 0.24022718
0.94024146 0.0099999998 0.26025042
0.94023943 0.0099999998 0.28026003
0.94022804 0.0099999998 0.30027848
0.96019971 0.0099999998 0.16012338
0.9602114 0.0099999998 0.18013965
0.96022499 0.0099999998 0.20015752
0.96023959 0.0099999998 0.22018118
0.96025068 0.0099999998 0.24020696
0.96025252 0.0099999998 0.2602284
0.96025127 0.0099999998 0.28023839
0.96024013 0.0099999998 0.30025566
0.98019594 0.0099999998 0.16011186
0.9802078 0.0099999998 0.18012671
0.98022181 0.0099999998 0.20014259
0.98023736 0.0099999998 0.22016385
0.98025149 0.0099999998 0.24018756
0.98025894 0.0099999998 0.26020664
0.98026007 0.0099999998 0.28021637
0.98025042 0.0099999998 0.30023256
1.000191 0.0099999998 0.16010116
1.0002030000000002 0.0099999998 0.18011452
1.0002171999999998 0.0099999998 0.20012861
1.0002334000000002 0.0099999998 0.22014682
1.0002502 0.0099999998 0.24016874
1.000262 0.0099999998 0.26018575
1.0002676 0.0099999998 0.28019446
1.000262 0.0099999998 0.30020967
1.0201854 0.0099999998 0.1600911
1.0201976000000001 0.0099999998 0.18010305
1.0202121 0.0099999998 0.2001159
1.020229 0.0099999998 0.22013164
1.0202483 0.0099999998 0.240151
1.0202643 0.0099999998 0.26016623
1.0202754 0.0099999998 0.28017393
1.0202777 0.0099999998 0.30018765
1.0401789000000001 0.0099999998 0.1600816
1.0401917 0.0099999998 0.18009271
1.0402065999999999 0.0099999998 0.20010406
1.0402249 0.0099999998 0.22011843
1.0402465 0.0099999998 0.24013537
1.0402672 0.0099999998 0.26014882
1.0402857 0.0099999998 0.28015631
1.0403 0.0099999998 0.30016863
1.0601721000000002 0.0099999998 0.16007282
1.0601851999999998 0.0099999998 0.18008302
1.0602011999999998 0.0099999998 0.20009348
1.0602216 0.0099999998 0.22010693
1.0602455 0.0099999998 0.24012251
1.0602719999999999 0.0099999998 0.26013494
1.060298 0.0099999998 0.2801429
1.0603235 0.0099999998 0.30015394
1.0801653999999998 0.0099999998 0.16006495
1.080179 0.0099999998 0.18007387
1.0801966 0.0099999998 0.20008411
1.0802191 0.0099999998 0.22009724
1.0802456 0.0099999998 0.2401116
1.0802764999999999 0.0099999998 0.26012319
1.0803075 0.0099999998 0.28013191
1.0803388 0.0099999998 0.30014181
1.1001588 0.0099999998 0.16005707
1.1001736 0.0099999998 0.1800656
1.1001931 0.0099999998 0.20007606
1.1002178 0.0099999998 0.22008902
1.1002473 0.0099999998 0.24010241
1.1002793 0.0099999998 0.2601127
1.1003114 0.0099999998 0.28012207
1.1201535 0.0099999998 0.16005
1.1201698 0.0099999998 0.18005861
1.1201912 0.0099999998 0.20006944
1.1202185 0.0099999998 0.22008246
1.1202496000000002 0.0099999998 0.24009489
1.1202807 0.0099999998 0.26010469
1.1203098999999999 0.0099999998 0.28011402
1.1401497 0.0099999998 0.16004421
1.1401677 0.0099999998 0.18005334
1.1401918 0.0099999998 0.20006508
1.1402217 0.0099999998 0.22007853
1.140252 0.0099999998 0.24008982
1.1402802 0.0099999998 0.26009941
1.160148 0.0099999998 0.16004044
1.1601686000000002 0.0099999998 0.18005082
1.1601962 0.0099999998 0.20006402
1.1602263000000002 0.0099999998 0.22007695
1.1602541000000002 0.0099999998 0.2400876
1.160277 0.0099999998 0.2600956
1.1801503 0.0099999998 0.16004008
1.1801752 0.0099999998 0.18005247
1.1802033 0.0099999998 0.2000657
1.1802306 0.0099999998 0.22007726
1.1802531 0.0099999998 0.24008618
1.2001593000000002 0.0099999998 0.16004439
1.2001851000000001 0.0099999998 0.18005662
1.2002102 0.0099999998 0.20006837
1.2002317 0.0099999998 0.22007757
1.2201718000000001 0.0099999998 0.16005032
1.2201935 0.0099999998 0.18006085
1.2202129 0.0099999998 0.20007023
1.2202255 0.0099999998 0.22007509
1.2401788999999999 0.0099999998 0.16005473
1.2401936000000002 0.0099999998 0.18006246
1.2601759 0.0099999998 0.1600558
VERTICES 2975 5950
1 0
1 1
1 2
1 3
1 4
1 5
1 6
1 7
1 8
1 9
1 10
1 11
1 12
1 13
1 14
1 15
1 16
1 17
1 18
1 19
1 20
1 21
1 22
1 23
1 24
1 25
1 26
1 27
1 28
1 29
1 30
1 31
1 32
1 33
1 34
1 35
1 36
1 37
1 38
1 39
1 40
1 41
1 42
1 43
1 44
1 45
1 46
1 47
1 48
1 49
1 50
1 51
1 52
1 53
1 54
1 55
1 56
1 57
1 58
1 59
1 60
1 61
1 62
1 63
1 64
1 65
1 66
1 67
1 68
1 69
1 70
1 71
1 72
1 73
1 74
1 75
1 76
1 77
1 78
1 79
1 80
1 81
1 82
1 83
1 84
1 85
1 86
1 87
1 88
1 89
1 90
1 91
1 92
1 93
1 94
1 95
1 96
1 97
1 98
1 99
1 100
1 101
1 102
1 103
1 104
1 105
1 106
1 107
1 108
1 109
1 110
1 111
1 112
1 113
1 114
1 115
1 116
1 117
1 118
1 119
1 120
1 121
1 122
1 123
1 124
1 125
1 126
1 127
1 128
1 129
1 130
1 131
1 132
1 133
1 134
1 135
1 136
1 137
1 138
1 139
1 140
1 141
1 142
1 143
1 144
1 145
1 146
1 147
1 148
1 149
1 150
1 151
1 152
1 153
1 154
1 155
1 156
1 157
1 158
1 159
1 160
1 161
1 162
1 163
1 164
1 165
1 166
1 167
1 168
1 169
1 170
1 171
1 172
1 173
1 174
1 175
1 176
1 177
1 178
1 179
1 180
1 181
1 182
1 183
1 184
1 185
1 186
1 187
1 188
1 189
1 190
1 191
1 192
1 193
1 194
1 195
1 196
1 197
1 198
1 199
1 200
1 201
1 202
1 203
1 204
1 205
1 206
1 207
1 208
1 209
1 210
1 211
1 212
1 213
1 214
1 215
1 216
1 217
1 218
1 219
1 220
1 221
1 222
1 223
1 224
1 225
1 226
1 227
1 228
1 229
1 230
1 231
1 232
1 233
1 234
1 235
1 236
1 237
1 238
1 239
1 240
1 241
1 242
1 243
1 244
1 245
1 246
1 247
1 248
1 249
1 250
1 251
1 252
1 253
1 254
1 255
1 256
1 257
1 258
1 259
1 260
1 261
1 262
1 263
1 264
1 265
1 266
1 267
1 268
1 269
1 270
1 271
1 272
1 273
1 274
1 275
1 276
1 277
1 278
1 279
1 280
1 281
1 282
1 283
1 284
1 285
1 286
1 287
1 288
1 289
1 290
1 291
1 292
1 293
1 294
1 295
1 296
1 297
1 298
1 299
1 300
1 301
1 302
1 303
1 304
1 305
1 306
1 307
1 308
1 309
1 310
1 311
1 312
1 313
1 314
1 315
1 316
1 317
1 318
1 319
1 320
1 321
1 322
1 323
1 324
1 325
1 326
1 327
1 328
1 329
1 330
1 331
1 332
1 333
1 334
1 335
1 336
1 337
1 338
1 339
1 340
1 341
1 342
1 343
1 344
1 345
1 346
1 347
1 348
1 349
1 350
1 351
1 352
1 353
1 354
1 355
1 356
1 357
1 358
1 359
1 360
1 361
1 362
1 363
1 364
1 365
1 366
1 367
1 368
1 369
1 370
1 371
1 372
1 373
1 374
1 375
1 376
1 377
1 378
1 379
1 380
1 381
1 382
1 383
1 384
1 385
1 386
1 387
1 388
1 389
1 390
1 391
1 392
1 393
1 394
1 395
1 396
1 397
1 398
1 399
1 400
1 401
1 402
1 403
1 404
1 405
1 406
1 407
1 408
1 409
1 410
1 411
1 412
1 413
1 414
1 415
1 416
1 417
1 418
1 419
1 420
1 421
1 422
1 423
1 424
1 425
1 426
1 427
1 428
1 429
1 430
1 431
1 432
1 433
1 434
1 435
1 436
1 437
1 438
1 439
1 440
1 441
1 442
1 443
1 444
1 445
1 446
1 447
1 448
1 449
1 450
1 451
1 452
1 453
1 454
1 455
1 456
1 457
1 458
1 459
1 460
1 461
1 462
1 463
1 464
1 465
1 466
1 467
1 468
1 469
1 470
1 471
1 472
1 473
1 474
1 475
1 476
1 477
1 478
1 479
1 480
1 481
1 482
1 483
1 484
1 485
1 486
1 487
1 488
1 489
1 490
1 491
1 492
1 493
1 494
1 495
1 496
1 497
1 498
1 499
1 500
1 501
1 502
1 503
1 504
1 505
1 506
1 507
1 508
1 509
1 510
1 511
1 512
1 513
1 514
1 515
1 516
1 517
1 518
1 519
1 520
1 521
1 522
1 523
1 524
1 525
1 526
1 527
1 528
1 529
1 530
1 531
1 532
1 533
1 534
1 535
1 536
1 537
1 538
1 539
1 540
1 541
1 542
1 543
1 544
1 545
1 546
1 547
1 548
1 549
1 550
1 551
1 552
1 553
1 554
1 555
1 556
1 557
1 558
1 559
1 560
1 561
1 562
1 563
1 564
1 565
1 566
1 567
1 568
1 569
1 570
1 571
1 572
1 573
1 574
1 575
1 576
1 577
1 578
1 579
1 580
1 581
1 582
1 583
1 584
1 585
1 586
1 587
1 588
1 589
1 590
1 591
1 592
1 593
1 594
1 595
1 596
1 597
1 598
1 599
1 600
1 601
1 602
1 603
1 604
1 605
1 606
1 607
1 608
1 609
1 610
1 611
1 612
1 613
1 614
1 615
1 616
1 617
1 618
1 619
1 620
1 621
1 622
1 623
1 624
1 625
1 626
1 627
1 628
1 629
1 630
1 631
1 632
1 633
1 634
1 635
1 636
1 637
1 638
1 639
1 640
1 641
1 642
1 643
1 644
1 645
1 646
1 647
1 648
1 649
1 650
1 651
1 652
1 653
1 654
1 655
1 656
1 657
1 658
1 659
1 660
1 661
1 662
1 663
1 664
1 665
1 666
1 667
1 668
1 669
1 670
1 671
1 672
1 673
1 674
1 675
1 676
1 677
1 678
1 679
1 680
1 681
1 682
1 683
1 684
1 685
1 686
1 687
1 688
1 689
1 690
1 691
1 692
1 693
1 694
1 695
1 696
1 697
1 698
1 699
1 700
1 701
1 702
1 703
1 704
1 705
1 706
1 707
1 708
1 709
1 710
1 711
1 712
1 713
1 714
1 715
1 716
1 717
1 718
1 719
1 720
1 721
1 722
1 723
1 724
1 725
1 726
1 727
1 728
1 729
1 730
1 731
1 732
1 733
1 734
1 735
1 736
1 737
1 738
1 739
1 740
1 741
1 742
1 743
1 744
1 745
1 746
1 747
1 748
1 749
1 750
1 751
1 752
1 753
1 754
1 755
1 756
1 757
1 758
1 759
1 760
1 761
1 762
1 763
1 764
1 765
1 766
1 767
1 768
1 769
1 770
1 771
1 772
1 773
1 774
1 775
1 776
1 777
1 778
1 779
1 780
1 781
1 782
1 783
1 784
1 785
1 786
1 787
1 788
1 789
1 790
1 791
1 792
1 793
1 794
1 795
1 796
1 797
1 798
1 799
1 800
1 801
1 802
1 803
1 804
1 805
1 806
1 807
1 808
1 809
1 810
1 811
1 812
1 813
1 814
1 815
1 816
1 817
1 818
1 819
1 820
1 821
1 822
1 823
1 824
1 825
1 826
1 827
1 828
1 829
1 830
1 831
1 832
1 833
1 834
1 835
1 836
1 837
1 838
1 839
1 840
1 841
1 842
1 843
1 844
1 845
1 846
1 847
1 848
1 849
1 850
1 851
1 852
1 853
1 854
1 855
1 856
1 857
1 858
1 859
1 860
1 861
1 862
1 863
1 864
1 865
1 866
1 867
1 868
1 869
1 870
1 871
1 872
1 873
1 874
1 875
1 876
1 877
1 878
1 879
1 880
1 881
1 882
1 883
1 884
1 885
1 886
1 887
1 888
1 889
1 890
1 891
1 892
1 893
1 894
1 895
1 896
1 897
1 898
1 899
1 900
1 901
1 902
1 903
1 904
1 905
1 906
1 907
1 908
1 909
1 910
1 911
1 912
1 913
1 914
1 915
1 916
1 917
1 918
1 919
1 920
1 921
1 922
1 923
1 924
1 925
1 926
1 927
1 928
1 929
1 930
1 931
1 932
1 933
1 934
1 935
1 936
1 937
1 938
1 939
1 940
1 941
1 942
1 943
1 944
1 945
1 946
1 947
1 948
1 949
1 950
1 951
1 952
1 953
1 954
1 955
1 956
1 957
1 958
1 959
1 960
1 961
1 962
1 963
1 964
1 965
1 966
1 967
1 968
1 969
1 970
1 971
1 972
1 973
1 974
1 975
1 976
1 977
1 978
1 979
1 980
1 981
1 982
1 983
1 984
1 985
1 986
1 987
1 988
1 989
1 990
1 991
1 992
1 993
1 994
1 995
1 996
1 997
1 998
1 999
1 1000
1 1001
1 1002
1 1003
1 1004
1 1005
1 1006
1 1007
1 1008
1 1009
1 1010
1 1011
1 1012
1 1013
1 1014
1 1015
1 1016
1 1017
1 1018
1 1019
1 1020
1 1021
1 1022
1 1023
1 1024
1 1025
1 1026
1 1027
1 1028
1 1029
1 1030
1 1031
1 1032
1 1033
1 1034
1 1035
1 1036
1 1037
1 1038
1 1039
1 1040
1 1041
1 1042
1 1043
1 1044
1 1045
1 1046
1 1047
1 1048
1 1049
1 1050
1 1051
1 1052
1 1053
1 1054
1 1055
1 1056
1 1057
1 1058
1 1059
1 1060
1 1061
1 1062
1 1063
1 1064
1 1065
1 1066
1 1067
1 1068
1 1069
1 1070
1 1071
1 1072
1 1073
1 1074
1 1075
1 1076
1 1077
1 1078
1 1079
1 1080
1 1081
1 1082
1 1083
1 1084
1 1085
1 1086
1 1087
1 1088
1 1089
1 1090
1 1091
1 1092
1 1093
1 1094
1 1095
1 1096
1 1097
1 1098
1 1099
1 1100
1 1101
1 1102
1 1103
1 1104
1 1105
1 1106
1 1107
1 1108
1 1109
1 1110
1 1111
1 1112
1 1113
1 1114
1 1115
1 1116
1 1117
1 1118
1 1119
1 1120
1 1121
1 1122
1 1123
1 1124
1 1125
1 1126
1 1127
1 1128
1 1129
1 1130
1 1131
1 1132
1 1133
1 1134
1 1135
1 1136
1 1137
1 1138
1 1139
1 1140
1 1141
1 1142
1 1143
1 1144
1 1145
1 1146
1 1147
1 1148
1 1149
1 1150
1 1151
1 1152
1 1153
1 1154
1 1155
1 1156
1 1157
1 1158
1 1159
1 1160
1 1161
1 1162
1 1163
1 1164
1 1165
1 1166
1 1167
1 1168
1 1169
1 1170
1 1171
1 1172
1 1173
1 1174
1 1175
1 1176
1 1177
1 1178
1 1179
1 1180
1 1181
1 1182
1 1183
1 1184
1 1185
1 1186
1 1187
1 1188
1 1189
1 1190
1 1191
1 1192
1 1193
1 1194
1 1195
1 1196
1 1197
1 1198
1 1199
1 1200
1 1201
1 1202
1 1203
1 1204
1 1205
1 1206
1 1207
1 1208
1 1209
1 1210
1 1211
1 1212
1 1213
1 1214
1 1215
1 1216
1 1217
1 1218
1 1219
1 1220
1 1221
1 1222
1 1223
1 1224
1 1225
1 1226
1 1227
1 1228
1 1229
1 1230
1 1231
1 1232
1 1233
1 1234
1 1235
1 1236
1 1237
1 1238
1 1239
1 1240
1 1241
1 1242
1 1243
1 1244
1 1245
1 1246
1 1247
1 1248
1 1249
1 1250
1 1251
1 1252
1 1253
1 1254
1 1255
1 1256
1 1257
1 1258
1 1259
1 1260
1 1261
1 1262
1 1263
1 1264
1 1265
1 1266
1 1267
1 1268
1 1269
1 1270
1 1271
1 1272
1 1273
1 1274
1 1275
1 1276
1 1277
1 1278
1 1279
1 1280
1 1281
1 1282
1 1283
1 1284
1 1285
1 1286
1 1287
1 1288
1 1289
1 1290
1 1291
1 1292
1 1293
1 1294
1 1295
1 1296
1 1297
1 1298
1 1299
1 1300
1 1301
1 1302
1 1303
1 1304
1 1305
1 1306
1 1307
1 1308
1 1309
1 1310
1 1311
1 1312
1 1313
1 1314
1 1315
1 1316
1 1317
1 1318
1 1319
1 1320
1 1321
1 1322
1 1323
1 1324
1 1325
1 1326
1 1327
1 1328
1 1329
1 1330
1 1331
1 1332
1 1333
1 1334
1 1335
1 1336
1 1337
1 1338
1 1339
1 1340
1 1341
1 1342
1 1343
1 1344
1 1345
1 1346
1 1347
1 1348
1 1349
1 1350
1 1351
1 1352
1 1353
1 1354
1 1355
1 1356
1 1357
1 1358
1 1359
1 1360
1 1361
1 1362
1 1363
1 1364
1 1365
1 1366
1 1367
1 1368
1 1369
1 1370
1 1371
1 1372
1 1373
1 1374
1 1375
1 1376
1 1377
1 1378
1 1379
1 1380
1 1381
1 1382
1 1383
1 1384
1 1385
1 1386
1 1387
1 1388
1 1389
1 1390
1 1391
1 1392
1 1393
1 1394
1 1395
1 1396
1 1397
1 1398
1 1399
1 1400
1 1401
1 1402
1 1403
1 1404
1 1405
1 1406
1 1407
1 1408
1 1409
1 1410
1 1411
1 1412
1 1413
1 1414
1 1415
1 1416
1 1417
1 1418
1 1419
1 1420
1 1421
1 1422
1 1423
1 1424
1 1425
1 1426
1 1427
1 1428
1 1429
1 1430
1 1431
1 1432
1 1433
1 1434
1 1435
1 1436
1 1437
1 1438
1 1439
1 1440
1 1441
1 1442
1 1443
1 1444
1 1445
1 1446
1 1447
1 1448
1 1449
1 1450
1 1451
1 1452
1 1453
1 1454
1 1455
1 1456
1 1457
1 1458
1 1459
1 1460
1 1461
1 1462
1 1463
1 1464
1 1465
1 1466
1 1467
1 1468
1 1469
1 1470
1 1471
1 1472
1 1473
1 1474
1 1475
1 1476
1 1477
1 1478
1 1479
1 1480
1 1481
1 1482
1 1483
1 1484
1 1485
1 1486
1 1487
1 1488
1 1489
1 1490
1 1491
1 1492
1 1493
1 1494
1 1495
1 1496
1 1497
1 1498
1 1499
1 1500
1 1501
1 1502
1 1503
1 1504
1 1505
1 1506
1 1507
1 1508
1 1509
1 1510
1 1511
1 1512
1 1513
1 1514
1 1515
1 1516
1 1517
1 1518
1 1519
1 1520
1 1521
1 1522
1 1523
1 1524
1 1525
1 1526
1 1527
1 1528
1 1529
1 1530
1 1531
1 1532
1 1533
1 1534
1 1535
1 1536
1 1537
1 1538
1 1539
1 1540
1 1541
1 1542
1 1543
1 1544
1 1545
1 1546
1 1547
1 1548
1 1549
1 1550
1 1551
1 1552
1 1553
1 1554
1 1555
1 1556
1 1557
1 1558
1 1559
1 1560
1 1561
1 1562
1 1563
1 1564
1 1565
1 1566
1 1567
1 1568
1 1569
1 1570
1 1571
1 1572
1 1573
1 1574
1 1575
1 1576
1 1577
1 1578
1 1579
1 1580
1 1581
1 1582
1 1583
1 1584
1 1585
1 1586
1 1587
1 1588
1 1589
1 1590
1 1591
1 1592
1 1593
1 1594
1 1595
1 1596
1 1597
1 1598
1 1599
1 1600
1 1601
1 1602
1 1603
1 1604
1 1605
1 1606
1 1607
1 1608
1 1609
1 1610
1 1611
1 1612
1 1613
1 1614
1 1615
1 1616
1 1617
1 1618
1 1619
1 1620
1 1621
1 1622
1 1623
1 1624
1 1625
1 1626
1 1627
1 1628
1 1629
1 1630
1 1631
1 1632
1 1633
1 1634
1 1635
1 1636
1 1637
1 1638
1 1639
1 1640
1 1641
1 1642
1 1643
1 1644
1 1645
1 1646
1 1647
1 1648
1 1649
1 1650
1 1651
1 1652
1 1653
1 1654
1 1655
1 1656
1 1657
1 1658
1 1659
1 1660
1 1661
1 1662
1 1663
1 1664
1 1665
1 1666
1 1667
1 1668
1 1669
1 1670
1 1671
1 1672
1 1673
1 1674
1 1675
1 1676
1 1677
1 1678
1 1679
1 1680
1 1681
1 1682
1 1683
1 1684
1 1685
1 1686
1 1687
1 1688
1 1689
1 1690
1 1691
1 1692
1 1693
1 1694
1 1695
1 1696
1 1697
1 1698
1 1699
1 1700
1 1701
1 1702
1 1703
1 1704
1 1705
1 1706
1 1707
1 1708
1 1709
1 1710
1 1711
1 1712
1 1713
1 1714
1 1715
1 1716
1 1717
1 1718
1 1719
1 1720
1 1721
1 1722
1 1723
1 1724
1 1725
1 1726
1 1727
1 1728
1 1729
1 1730
1 1731
1 1732
1 1733
1 1734
1 1735
1 1736
1 1737
1 1738
1 1739
1 1740
1 1741
1 1742
1 1743
1 1744
1 1745
1 1746
1 1747
1 1748
1 1749
1 1750
1 1751
1 1752
1 1753
1 1754
1 1755
1 1756
1 1757
1 1758
1 1759
1 1760
1 1761
1 1762
1 1763
1 1764
1 1765
1 1766
1 1767
1 1768
1 1769
1 1770
1 1771
1 1772
1 1773
1 1774
1 1775
1 1776
1 1777
1 1778
1 1779
1 1780
1 1781
1 1782
1 1783
1 1784
1 1785
1 1786
1 1787
1 1788
1 1789
1 1790
1 1791
1 1792
1 1793
1 1794
1 1795
1 1796
1 1797
1 1798
1 1799
1 1800
1 1801
1 1802
1 1803
1 1804
1 1805
1 1806
1 1807
1 1808
1 1809
1 1810
1 1811
1 1812
1 1813
1 1814
1 1815
1 1816
1 1817
1 1818
1 1819
1 1820
1 1821
1 1822
1 1823
1 1824
1 1825
1 1826
1 1827
1 1828
1 1829
1 1830
1 1831
1 1832
1 1833
1 1834
1 1835
1 1836
1 1837
1 1838
1 1839
1 1840
1 1841
1 1842
1 1843
1 1844
1 1845
1 1846
1 1847
1 1848
1 1849
1 1850
1 1851
1 1852
1 1853
1 1854
1 1855
1 1856
1 1857
1 1858
1 1859
1 1860
1 1861
1 1862
1 1863
1 1864
1 1865
1 1866
1 1867
1 1868
1 1869
1 1870
1 1871
1 1872
1 1873
1 1874
1 1875
1 1876
1 1877
1 1878
1 1879
1 1880
1 1881
1 1882
1 1883
1 1884
1 1885
1 1886
1 1887
1 1888
1 1889
1 1890
1 1891
1 1892
1 1893
1 1894
1 1895
1 1896
1 1897
1 1898
1 1899
1 1900
1 1901
1 1902
1 1903
1 1904
1 1905
1 1906
1 1907
1 1908
1 1909
1 1910
1 1911
1 1912
1 1913
1 1914
1 1915
1 1916
1 1917
1 1918
1 1919
1 1920
1 1921
1 1922
1 1923
1 1924
1 1925
1 1926
1 1927
1 1928
1 1929
1 1930
1 1931
1 1932
1 1933
1 1934
1 1935
1 1936
1 1937
1 1938
1 1939
1 1940
1 1941
1 1942
1 1943
1 1944
1 1945
1 1946
1 1947
1 1948
1 1949
1 1950
1 1951
1 1952
1 1953
1 1954
1 1955
1 1956
1 1957
1 1958
1 1959
1 1960
1 1961
1 1962
1 1963
1 1964
1 1965
1 1966
1 1967
1 1968
1 1969
1 1970
1 1971
1 1972
1 1973
1 1974
1 1975
1 1976
1 1977
1 1978
1 1979
1 1980
1 1981
1 1982
1 1983
1 1984
1 1985
1 1986
1 1987
1 1988
1 1989
1 1990
1 1991
1 1992
1 1993
1 1994
1 1995
1 1996
1 1997
1 1998
1 1999
1 2000
1 2001
1 2002
1 2003
1 2004
1 2005
1 2006
1 2007
1 2008
1 2009
1 2010
1 2011
1 2012
1 2013
1 2014
1 2015
1 2016
1 2017
1 2018
1 2019
1 2020
1 2021
1 2022
1 2023
1 2024
1 2025
1 2026
1 2027
1 2028
1 2029
1 2030
1 2031
1 2032
1 2033
1 2034
1 2035
1 2036
1 2037
1 2038
1 2039
1 2040
1 2041
1 2042
1 2043
1 2044
1 2045
1 2046
1 2047
1 2048
1 2049
1 2050
1 2051
1 2052
1 2053
1 2054
1 2055
1 2056
1 2057
1 2058
1 2059
1 2060
1 2061
1 2062
1 2063
1 2064
1 2065
1 2066
1 2067
1 2068
1 2069
1 2070
1 2071
1 2072
1 2073
1 2074
1 2075
1 2076
1 2077
1 2078
1 2079
1 2080
1 2081
1 2082
1 2083
1 2084
1 2085
1 2086
1 2087
1 2088
1 2089
1 2090
1 2091
1 2092
1 2093
1 2094
1 2095
1 2096
1 2097
1 2098
1 2099
1 2100
1 2101
1 2102
1 2103
1 2104
1 2105
1 2106
1 2107
1 2108
1 2109
1 2110
1 2111
1 2112
1 2113
1 2114
1 2115
1 2116
1 2117
1 2118
1 2119
1 2120
1 2121
1 2122
1 2123
1 2124
1 2125
1 2126
1 2127
1 2128
1 2129
1 2130
1 2131
1 2132
1 2133
1 2134
1 2135
1 2136
1 2137
1 2138
1 2139
1 2140
1 2141
1 2142
1 2143
1 2144
1 2145
1 2146
1 2147
1 2148
1 2149
1 2150
1 2151
1 2152
1 2153
1 2154
1 2155
1 2156
1 2157
1 2158
1 2159
1 2160
1 2161
1 2162
1 2163
1 2164
1 2165
1 2166
1 2167
1 2168
1 2169
1 2170
1 2171
1 2172
1 2173
1 2174
1 2175
1 2176
1 2177
1 2178
1 2179
1 2180
1 2181
1 2182
1 2183
1 2184
1 2185
1 2186
1 2187
1 2188
1 2189
1 2190
1 2191
1 2192
1 2193
1 2194
1 2195
1 2196
1 2197
1 2198
1 2199
1 2200
1 2201
1 2202
1 2203
1 2204
1 2205
1 2206
1 2207
1 2208
1 2209
1 2210
1 2211
1 2212
1 2213
1 2214
1 2215
1 2216
1 2217
1 2218
1 2219
1 2220
1 2221
1 2222
1 2223
1 2224
1 2225
1 2226
1 2227
1 2228
1 2229
1 2230
1 2231
1 2232
1 2233
1 2234
1 2235
1 2236
1 2237
1 2238
1 2239
1 2240
1 2241
1 2242
1 2243
1 2244
1 2245
1 2246
1 2247
1 2248
1 2249
1 2250
1 2251
1 2252
1 2253
1 2254
1 2255
1 2256
1 2257
1 2258
1 2259
1 2260
1 2261
1 2262
1 2263
1 2264
1 2265
1 2266
1 2267
1 2268
1 2269
1 2270
1 2271
1 2272
1 2273
1 2274
1 2275
1 2276
1 2277
1 2278
1 2279
1 2280
1 2281
1 2282
1 2283
1 2284
1 2285
1 2286
1 2287
1 2288
1 2289
1 2290
1 2291
1 2292
1 2293
1 2294
1 2295
1 2296
1 2297
1 2298
1 2299
1 2300
1 2301
1 2302
1 2303
1 2304
1 2305
1 2306
1 2307
1 2308
1 2309
1 2310
1 2311
1 2312
1 2313
1 2314
1 2315
1 2316
1 2317
1 2318
1 2319
1 2320
1 2321
1 2322
1 2323
1 2324
1 2325
1 2326
1 2327
1 2328
1 2329
1 2330
1 2331
1 2332
1 2333
1 2334
1 2335
1 2336
1 2337
1 2338
1 2339
1 2340
1 2341
1 2342
1 2343
1 2344
1 2345
1 2346
1 2347
1 2348
1 2349
1 2350
1 2351
1 2352
1 2353
1 2354
1 2355
1 2356
1 2357
1 2358
1 2359
1 2360
1 2361
1 2362
1 2363
1 2364
1 2365
1 2366
1 2367
1 2368
1 2369
1 2370
1 2371
1 2372
1 2373
1 2374
1 2375
1 2376
1 2377
1 2378
1 2379
1 2380
1 2381
1 2382
1 2383
1 2384
1 2385
1 2386
1 2387
1 2388
1 2389
1 2390
1 2391
1 2392
1 2393
1 2394
1 2395
1 2396
1 2397
1 2398
1 2399
1 2400
1 2401
1 2402
1 2403
1 2404
1 2405
1 2406
1 2407
1 2408
1 2409
1 2410
1 2411
1 2412
1 2413
1 2414
1 2415
1 2416
1 2417
1 2418
1 2419
1 2420
1 2421
1 2422
1 2423
1 2424
1 2425
1 2426
1 2427
1 2428
1 2429
1 2430
1 2431
1 2432
1 2433
1 2434
1 2435
1 2436
1 2437
1 2438
1 2439
1 2440
1 2441
1 2442
1 2443
1 2444
1 2445
1 2446
1 2447
1 2448
1 2449
1 2450
1 2451
1 2452
1 2453
1 2454
1 2455
1 2456
1 2457
1 2458
1 2459
1 2460
1 2461
1 2462
1 2463
1 2464
1 2465
1 2466
1 2467
1 2468
1 2469
1 2470
1 2471
1 2472
1 2473
1 2474
1 2475
1 2476
1 2477
1 2478
1 2479
1 2480
1 2481
1 2482
1 2483
1 2484
1 2485
1 2486
1 2487
1 2488
1 2489
1 2490
1 2491
1 2492
1 2493
1 2494
1 2495
1 2496
1 2497
1 2498
1 2499
1 2500
1 2501
1 2502
1 2503
1 2504
1 2505
1 2506
1 2507
1 2508
1 2509
1 2510
1 2511
1 2512
1 2513
1 2514
1 2515
1 2516
1 2517
1 2518
1 2519
1 2520
1 2521
1 2522
1 2523
1 2524
1 2525
1 2526
1 2527
1 2528
1 2529
1 2530
1 2531
1 2532
1 2533
1 2534
1 2535
1 2536
1 2537
1 2538
1 2539
1 2540
1 2541
1 2542
1 2543
1 2544
1 2545
1 2546
1 2547
1 2548
1 2549
1 2550
1 2551
1 2552
1 2553
1 2554
1 2555
1 2556
1 2557
1 2558
1 2559
1 2560
1 2561
1 2562
1 2563
1 2564
1 2565
1 2566
1 2567
1 2568
1 2569
1 2570
1 2571
1 2572
1 2573
1 2574
1 2575
1 2576
1 2577
1 2578
1 2579
1 2580
1 2581
1 2582
1 2583
1 2584
1 2585
1 2586
1 2587
1 2588
1 2589
1 2590
1 2591
1 2592
1 2593
1 2594
1 2595
1 2596
1 2597
1 2598
1 2599
1 2600
1 2601
1 2602
1 2603
1 2604
1 2605
1 2606
1 2607
1 2608
1 2609
1 2610
1 2611
1 2612
1 2613
1 2614
1 2615
1 2616
1 2617
1 2618
1 2619
1 2620
1 2621
1 2622
1 2623
1 2624
1 2625
1 2626
1 2627
1 2628
1 2629
1 2630
1 2631
1 2632
1 2633
1 2634
1 2635
1 2636
1 2637
1 2638
1 2639
1 2640
1 2641
1 2642
1 2643
1 2644
1 2645
1 2646
1 2647
1 2648
1 2649
1 2650
1 2651
1 2652
1 2653
1 2654
1 2655
1 2656
1 2657
1 2658
1 2659
1 2660
1 2661
1 2662
1 2663
1 2664
1 2665
1 2666
1 2667
1 2668
1 2669
1 2670
1 2671
1 2672
1 2673
1 2674
1 2675
1 2676
1 2677
1 2678
1 2679
1 2680
1 2681
1 2682
1 2683
1 2684
1 2685
1 2686
1 2687
1 2688
1 2689
1 2690
1 2691
1 2692
1 2693
1 2694
1 2695
1 2696
1 2697
1 2698
1 2699
1 2700
1 2701
1 2702
1 2703
1 2704
1 2705
1 2706
1 2707
1 2708
1 2709
1 2710
1 2711
1 2712
1 2713
1 2714
1 2715
1 2716
1 2717
1 2718
1 2719
1 2720
1 2721
1 2722
1 2723
1 2724
1 2725
1 2726
1 2727
1 2728
1 2729
1 2730
1 2731
1 2732
1 2733
1 2734
1 2735
1 2736
1 2737
1 2738
1 2739
1 2740
1 2741
1 2742
1 2743
1 2744
1 2745
1 2746
1 2747
1 2748
1 2749
1 2750
1 2751
1 2752
1 2753
1 2754
1 2755
1 2756
1 2757
1 2758
1 2759
1 2760
1 2761
1 2762
1 2763
1 2764
1 2765
1 2766
1 2767
1 2768
1 2769
1 2770
1 2771
1 2772
1 2773
1 2774
1 2775
1 2776
1 2777
1 2778
1 2779
1 2780
1 2781
1 2782
1 2783
1 2784
1 2785
1 2786
1 2787
1 2788
1 2789
1 2790
1 2791
1 2792
1 2793
1 2794
1 2795
1 2796
1 2797
1 2798
1 2799
1 2800
1 2801
1 2802
1 2803
1 2804
1 2805
1 2806
1 2807
1 2808
1 2809
1 2810
1 2811
1 2812
1 2813
1 2814
1 2815
1 2816
1 2817
1 2818
1 2819
1 2820
1 2821
1 2822
1 2823
1 2824
1 2825
1 2826
1 2827
1 2828
1 2829
1 2830
1 2831
1 2832
1 2833
1 2834
1 2835
1 2836
1 2837
1 2838
1 2839
1 2840
1 2841
1 2842
1 2843
1 2844
1 2845
1 2846
1 2847
1 2848
1 2849
1 2850
1 2851
1 2852
1 2853
1 2854
1 2855
1 2856
1 2857
1 2858
1 2859
1 2860
1 2861
1 2862
1 2863
1 2864
1 2865
1 2866
1 2867
1 2868
1 2869
1 2870
1 2871
1 2872
1 2873
1 2874
1 2875
1 2876
1 2877
1 2878
1 2879
1 2880
1 2881
1 2882
1 2883
1 2884
1 2885
1 2886
1 2887
1 2888
1 2889
1 2890
1 2891
1 2892
1 2893
1 2894
1 2895
1 2896
1 2897
1 2898
1 2899
1 2900
1 2901
1 2902
1 2903
1 2904
1 2905
1 2906
1 2907
1 2908
1 2909
1 2910
1 2911
1 2912
1 2913
1 2914
1 2915
1 2916
1 2917
1 2918
1 2919
1 2920
1 2921
1 2922
1 2923
1 2924
1 2925
1 2926
1 2927
1 2928
1 2929
1 2930
1 2931
1 2932
1 2933
1 2934
1 2935
1 2936
1 2937
1 2938
1 2939
1 2940
1 2941
1 2942
1 2943
1 2944
1 2945
1 2946
1 2947
1 2948
1 2949
1 2950
1 2951
1 2952
1 2953
1 2954
1 2955
1 2956
1 2957
1 2958
1 2959
1 2960
1 2961
1 2962
1 2963
1 2964
1 2965
1 2966
1 2967
1 2968
1 2969
1 2970
1 2971
1 2972
1 2973
1 2974
POINT_DATA 2975
SCALARS Idp unsigned_int
LOOKUP_TABLE default
0 1 39 40 41 80 81 82 121 122 123 162 163 164 203 204 205 244 245 246 285 286 287 326 327 328 367 368 369 408 409 410 449 450 451 461 462 463 471 472 473 481 482 483 491 492 493 501 502 503 511 512 513 521 522 523 531 532 533 541 542 543 551 552 2 3 4 5 6 7 8 9 42 43 44 45 46 47 48 49 83 84 85 86 87 88 89 90 124 125 126 127 128 129 130 131 165 166 167 168 169 170 171 172 206 207 208 209 210 211 212 213 247 248 249 250 251 252 253 254 288 289 290 291 292 293 294 295 329 330 331 332 333 334 335 336 370 371 372 373 374 375 376 377 411 412 413 414 415 416 417 418 452 453 454 464 465 474 475 484 485 494 495 504 505 514 515 524 525 534 535 544 545 553 554 10 11 12 13 14 15 16 17 18 50 51 52 53 54 55 56 57 58 91 92 93 94 95 96 97 98 99 132 133 134 135 136 137 138 139 140 173 174 175 176 177 178 179 180 181 214 215 216 217 218 219 220 221 222 255 256 257 258 259 260 261 262 263 296 297 298 299 300 301 302 303 304 337 338 339 340 341 342 343 344 345 378 379 380 381 382 383 384 385 386 419 420 421 422 423 424 425 426 427 19 20 21 22 23 24 25 26 59 60 61 62 63 64 65 66 100 101 102 103 104 105 106 107 141 142 143 144 145 146 147 148 182 183 184 185 186 187 188 189 223 224 225 226 227 228 229 230 264 265 266 267 268 269 270 271 305 306 307 308 309 310 311 312 346 347 348 349 350 351 352 353 387 388 389 390 391 392 393 394 428 429 430 431 432 433 434 435 27 28 29 30 31 32 33 34 35 67 68 69 70 71 72 73 74 75 108 109 110 111 112 113 114 115 116 149 150 151 152 153 154 155 156 157 190 191 192 193 194 195 196 197 198 231 232 233 234 235 236 237 238 239 272 273 274 275 276 277 278 279 280 313 314 315 316 317 318 319 320 321 354 355 356 357 358 359 360 361 362 395 396 397 398 399 400 401 402 403 436 437 438 439 440 441 442 443 444 455 456 466 476 486 496 506 516 526 536 546 555 36 37 38 76 77 78 79 117 118 119 120 158 159 160 161 199 200 201 202 240 241 242 243 281 282 283 284 322 323 324 325 363 364 365 366 404 405 406 407 445 446 447 448 457 458 459 460 467 468 469 470 477 478 479 480 487 488 489 490 497 498 499 500 507 508 509 510 517 518 519 520 527 528 529 530 537 538 539 540 547 548 549 550 556 557 558 559 560 561 562 563 564 565 566 567 568 569 570 571 572 573 574 575 576 577 578 579 580 581 582 583 584 585 586 587 588 589 590 591 592 593 594 595 596 597 598 599 600 601 602 603 604 605 606 607 608 609 610 611 612 613 614 615 616 617 618 619 620 621 622 623 624 625 626 627 628 629 630 631 632 633 634 635 636 637 638 639 640 641 642 643 644 645 646 647 648 649 650 651 652 653 654 655 656 657 658 659 660 661 662 663 664 665 666 667 668 669 670 671 672 673 674 675 676 677 678 679 680 681 682 683 684 685 686 687 688 689 690 691 692 693 694 695 696 697 698 699 700 701 702 703 704 705 706 707 708 709 710 711 712 713 714 715 716 717 718 719 720 721 722 723 724 725 726 727 728 729 730 731 732 733 734 735 736 737 738 739 740 741 742 743 744 745 746 747 748 749 750 751 752 753 754 755 756 757 758 759 760 761 762 763 764 765 766 767 768 769 770 771 772 773 774 775 776 777 778 779 780 781 782 783 784 785 786 787 788 789 790 791 792 793 794 795 796 797 798 799 800 801 802 803 804 805 806 807 808 809 810 811 812 813 814 815 816 817 818 819 820 821 822 823 824 825 826 827 828 829 830 831 832 833 834 835 836 837 838 839 840 841 842 843 844 845 846 847 848 849 850 851 852 853 854 855 856 857 858 859 860 861 862 863 864 865 866 867 868 869 870 871 872 873 874 875 876 877 878 879 880 881 882 883 884 885 886 887 888 889 890 891 892 893 894 895 896 897 898 899 900 901 902 903 904 905 906 907 908 909 910 911 912 913 914 915 916 917 918 919 920 921 922 923 924 925 926 927 928 929 930 931 932 933 934 935 936 937 938 939 940 941 942 943 944 945 946 947 948 949 950 951 952 953 954 955 956 957 958 959 960 961 962 963 964 965 966 967 968 969 970 971 972 973 974 975 976 977 978 979 980 981 982 983 984 985 986 987 988 989 990 991 992 993 994 995 996 997 998 999 1000 1001 1002 1003 1004 1005 1006 1007 1008 1009 1010 1011 1012 1013 1014 1015 1016 1017 1018 1019 1020 1021 1022 1023 1024 1025 1026 1027 1028 1029 1030 1031 1032 1033 1034 1035 1060 1061 1062 1063 1064 1065 1091 1092 1093 1094 1095 1096 1122 1123 1124 1125 1126 1127 1153 1154 1155 1156 1157 1158 1184 1185 1186 1187 1188 1189 1215 1216 1217 1218 1219 1220 1246 1247 1248 1249 1250 1251 1277 1278 1279 1280 1281 1282 1308 1309 1310 1311 1312 1313 1339 1340 1341 1342 1343 1344 1370 1371 1372 1373 1374 1375 1401 1402 1403 1404 1405 1406 1432 1433 1434 1435 1436 1437 1463 1464 1465 1466 1467 1468 1494 1495 1496 1497 1498 1499 1525 1526 1527 1528 1529 1530 1556 1557 1558 1559 1560 1561 1587 1588 1589 1590 1591 1592 1618 1619 1620 1621 1622 1623 1649 1650 1651 1652 1653 1654 1680 1681 1682 1683 1684 1685 1711 1712 1713 1714 1715 1716 1742 1743 1744 1745 1746 1747 1773 1774 1775 1776 1777 1778 1804 1805 1806 1807 1808 1809 1835 1836 1837 1838 1839 1840 1866 1867 1868 1869 1870 1871 1897 1898 1899 1900 1901 1902 1928 1929 1930 1931 1932 1933 1959 1960 1961 1962 1963 1964 1990 1991 1992 1993 1994 1995 2021 2022 2023 2024 2025 2026 2052 2053 2054 2055 2056 2057 2083 2084 2085 2086 2087 2088 2114 2115 2116 2117 2118 2119 2145 2146 2147 2148 2149 2150 2176 2177 2178 2179 2180 2181 2207 2208 2209 2210 2211 2212 2238 2239 2240 2241 2242 2243 2269 2270 2271 2272 2273 2274 2300 2301 2302 2303 2304 2305 2331 2332 2333 2334 2335 2336 2362 2363 2364 2365 2366 2367 2393 2394 2395 2396 2397 2398 2424 2425 2426 2427 2428 2429 2455 2456 2457 2458 2459 2460 2486 2487 2488 2489 2490 2491 2517 2518 2519 2520 2521 2522 2548 2549 2550 2551 2552 2553 2579 2580 2581 2582 2583 2584 2610 2611 2612 2613 2614 2615 2641 2642 2643 2644 2645 2646 2672 2673 2674 2675 2676 2677 2703 2704 2705 2706 2707 2708 2734 2735 2736 2737 2738 2763 2764 2765 2766 2767 2792 2793 2794 2795 2819 2820 2821 2822 2846 2847 2848 2871 2872 2894 2895 1036 1037 1038 1039 1040 1041 1042 1043 1044 1066 1067 1068 1069 1070 1071 1072 1073 1074 1097 1098 1099 1100 1101 1102 1103 1104 1105 1128 1129 1130 1131 1132 1133 1134 1135 1136 1159 1160 1161 1162 1163 1164 1165 1166 1167 1190 1191 1192 1193 1194 1195 1196 1197 1198 1221 1222 1223 1224 1225 1226 1227 1228 1229 1252 1253 1254 1255 1256 1257 1258 1259 1260 1283 1284 1285 1286 1287 1288 1289 1290 1291 1314 1315 1316 1317 1318 1319 1320 1321 1322 1345 1346 1347 1348 1349 1350 1351 1352 1353 1376 1377 1378 1379 1380 1381 1382 1383 1384 1407 1408 1409 1410 1411 1412 1413 1414 1415 1438 1439 1440 1441 1442 1443 1444 1445 1446 1469 1470 1471 1472 1473 1474 1475 1476 1477 1500 1501 1502 1503 1504 1505 1506 1507 1508 1531 1532 1533 1534 1535 1536 1537 1538 1539 1562 1563 1564 1565 1566 1567 1568 1569 1570 1593 1594 1595 1596 1597 1598 1599 1600 1601 1624 1625 1626 1627 1628 1629 1630 1631 1632 1655 1656 1657 1658 1659 1660 1661 1662 1663 1686 1687 1688 1689 1690 1691 1692 1693 1694 1717 1718 1719 1720 1721 1722 1723 1724 1725 1748 1749 1750 1751 1752 1753 1754 1755 1756 1779 1780 1781 1782 1783 1784 1785 1786 1787 1810 1811 1812 1813 1814 1815 1816 1817 1818 1841 1842 1843 1844 1845 1846 1847 1848 1849 1872 1873 1874 1875 1876 1877 1878 1879 1880 1903 1904 1905 1906 1907 1908 1909 1910 1911 1934 1935 1936 1937 1938 1939 1940 1941 1942 1965 1966 1967 1968 1969 1970 1971 1972 1973 1996 1997 1998 1999 2000 2001 2002 2003 2004 2027 2028 2029 2030 2031 2032 2033 2034 2035 2058 2059 2060 2061 2062 2063 2064 2065 2066 2089 2090 2091 2092 2093 2094 2095 2096 2097 2120 2121 2122 2123 2124 2125 2126 2127 2128 2151 2152 2153 2154 2155 2156 2157 2158 2159 2182 2183 2184 2185 2186 2187 2188 2189 2190 2213 2214 2215 2216 2217 2218 2219 2220 2221 2244 2245 2246 2247 2248 2249 2250 2251 2252 2275 2276 2277 2278 2279 2280 2281 2282 2283 2306 2307 2308 2309 2310 2311 2312 2313 2314 2337 2338 2339 2340 2341 2342 2343 2344 2345 2368 2369 2370 2371 2372 2373 2374 2375 2376 2399 2400 2401 2402 2403 2404 2405 2406 2407 2430 2431 2432 2433 2434 2435 2436 2437 2438 2461 2462 2463 2464 2465 2466 2467 2468 2469 2492 2493 2494 2495 2496 2497 2498 2499 2500 2523 2524 2525 2526 2527 2528 2529 2530 2531 2554 2555 2556 2557 2558 2559 2560 2561 2562 2585 2586 2587 2588 2589 2590 2591 2592 2593 2616 2617 2618 2619 2620 2621 2622 2623 2624 2647 2648 2649 2650 2651 2652 2653 2654 2655 2678 2679 2680 2681 2682 2683 2684 2685 2686 2709 2710 2711 2712 2713 2714 2715 2716 2717 2739 2740 2741 2742 2743 2744 2745 2746 2747 2768 2769 2770 2771 2772 2773 2774 2775 2776 2796 2797 2798 2799 2800 2801 2802 2803 2804 2823 2824 2825 2826 2827 2828 2829 2830 2831 2849 2850 2851 2852 2853 2854 2855 2856 2857 2873 2874 2875 2876 2877 2878 2879 2880 2881 2896 2897 2898 2899 2900 2901 2902 2903 2904 2917 2918 2919 2920 2921 2922 2923 2924 2925 2936 2937 2938 2939 2940 2941 2942 2943 2953 2954 2955 2956 2957 2958 2966 2967 2968 2969 1045 1046 1047 1048 1049 1050 1051 1052 1075 1076 1077 1078 1079 1080 1081 1082 1106 1107 1108 1109 1110 1111 1112 1113 1137 1138 1139 1140 1141 1142 1143 1144 1168 1169 1170 1171 1172 1173 1174 1175 1199 1200 1201 1202 1203 1204 1205 1206 1230 1231 1232 1233 1234 1235 1236 1237 1261 1262 1263 1264 1265 1266 1267 1268 1292 1293 1294 1295 1296 1297 1298 1299 1323 1324 1325 1326 1327 1328 1329 1330 1354 1355 1356 1357 1358 1359 1360 1361 1385 1386 1387 1388 1389 1390 1391 1392 1416 1417 1418 1419 1420 1421 1422 1423 1447 1448 1449 1450 1451 1452 1453 1454 1478 1479 1480 1481 1482 1483 1484 1485 1509 1510 1511 1512 1513 1514 1515 1516 1540 1541 1542 1543 1544 1545 1546 1547 1571 1572 1573 1574 1575 1576 1577 1578 1602 1603 1604 1605 1606 1607 1608 1609 1633 1634 1635 1636 1637 1638 1639 1640 1664 1665 1666 1667 1668 1669 1670 1671 1695 1696 1697 1698 1699 1700 1701 1702 1726 1727 1728 1729 1730 1731 1732 1733 1757 1758 1759 1760 1761 1762 1763 1764 1788 1789 1790 1791 1792 1793 1794 1795 1819 1820 1821 1822 1823 1824 1825 1826 1850 1851 1852 1853 1854 1855 1856 1857 1881 1882 1883 1884 1885 1886 1887 1888 1912 1913 1914 1915 1916 1917 1918 1919 1943 1944 1945 1946 1947 1948 1949 1950 1974 1975 1976 1977 1978 1979 1980 1981 2005 2006 2007 2008 2009 2010 2011 2012 2036 2037 2038 2039 2040 2041 2042 2043 2067 2068 2069 2070 2071 2072 2073 2074 2098 2099 2100 2101 2102 2103 2104 2105 2129 2130 2131 2132 2133 2134 2135 2136 2160 2161 2162 2163 2164 2165 2166 2167 2191 2192 2193 2194 2195 2196 2197 2198 2222 2223 2224 2225 2226 2227 2228 2229 2253 2254 2255 2256 2257 2258 2259 2260 2284 2285 2286 2287 2288 2289 2290 2291 2315 2316 2317 2318 2319 2320 2321 2322 2346 2347 2348 2349 2350 2351 2352 2353 2377 2378 2379 2380 2381 2382 2383 2384 2408 2409 2410 2411 2412 2413 2414 2415 2439 2440 2441 2442 2443 2444 2445 2446 2470 2471 2472 2473 2474 2475 2476 2477 2501 2502 2503 2504 2505 2506 2507 2508 2532 2533 2534 2535 2536 2537 2538 2539 2563 2564 2565 2566 2567 2568 2569 2570 2594 2595 2596 2597 2598 2599 2600 2601 2625 2626 2627 2628 2629 2630 2631 2632 2656 2657 2658 2659 2660 2661 2662 2663 2687 2688 2689 2690 2691 2692 2693 2694 2718 2719 2720 2721 2722 2723 2724 2725 2748 2749 2750 2751 2752 2753 2754 2755 2777 2778 2779 2780 2781 2782 2783 2784 2805 2806 2807 2808 2809 2810 2811 2812 2832 2833 2834 2835 2836 2837 2838 2839 2858 2859 2860 2861 2862 2863 2864 2865 2882 2883 2884 2885 2886 2887 2888 2889 2905 2906 2907 2908 2909 2910 2911 2912 2926 2927 2928 2929 2930 2931 2932 2933 2944 2945 2946 2947 2948 2949 2950 2951 2959 2960 2961 2962 2963 2964 2965 2970 2971 2972 2973 2974 1053 1054 1055 1056 1057 1058 1059 1083 1084 1085 1086 1087 1088 1089 1090 1114 1115 1116 1117 1118 1119 1120 1121 1145 1146 1147 1148 1149 1150 1151 1152 1176 1177 1178 1179 1180 1181 1182 1183 1207 1208 1209 1210 1211 1212 1213 1214 1238 1239 1240 1241 1242 1243 1244 1245 1269 1270 1271 1272 1273 1274 1275 1276 1300 1301 1302 1303 1304 1305 1306 1307 1331 1332 1333 1334 1335 1336 1337 1338 1362 1363 1364 1365 1366 1367 1368 1369 1393 1394 1395 1396 1397 1398 1399 1400 1424 1425 1426 1427 1428 1429 1430 1431 1455 1456 1457 1458 1459 1460 1461 1462 1486 1487 1488 1489 1490 1491 1492 1493 1517 1518 1519 1520 1521 1522 1523 1524 1548 1549 1550 1551 1552 1553 1554 1555 1579 1580 1581 1582 1583 1584 1585 1586 1610 1611 1612 1613 1614 1615 1616 1617 1641 1642 1643 1644 1645 1646 1647 1648 1672 1673 1674 1675 1676 1677 1678 1679 1703 1704 1705 1706 1707 1708 1709 1710 1734 1735 1736 1737 1738 1739 1740 1741 1765 1766 1767 1768 1769 1770 1771 1772 1796 1797 1798 1799 1800 1801 1802 1803 1827 1828 1829 1830 1831 1832 1833 1834 1858 1859 1860 1861 1862 1863 1864 1865 1889 1890 1891 1892 1893 1894 1895 1896 1920 1921 1922 1923 1924 1925 1926 1927 1951 1952 1953 1954 1955 1956 1957 1958 1982 1983 1984 1985 1986 1987 1988 1989 2013 2014 2015 2016 2017 2018 2019 2020 2044 2045 2046 2047 2048 2049 2050 2051 2075 2076 2077 2078 2079 2080 2081 2082 2106 2107 2108 2109 2110 2111 2112 2113 2137 2138 2139 2140 2141 2142 2143 2144 2168 2169 2170 2171 2172 2173 2174 2175 2199 2200 2201 2202 2203 2204 2205 2206 2230 2231 2232 2233 2234 2235 2236 2237 2261 2262 2263 2264 2265 2266 2267 2268 2292 2293 2294 2295 2296 2297 2298 2299 2323 2324 2325 2326 2327 2328 2329 2330 2354 2355 2356 2357 2358 2359 2360 2361 2385 2386 2387 2388 2389 2390 2391 2392 2416 2417 2418 2419 2420 2421 2422 2423 2447 2448 2449 2450 2451 2452 2453 2454 2478 2479 2480 2481 2482 2483 2484 2485 2509 2510 2511 2512 2513 2514 2515 2516 2540 2541 2542 2543 2544 2545 2546 2547 2571 2572 2573 2574 2575 2576 2577 2578 2602 2603 2604 2605 2606 2607 2608 2609 2633 2634 2635 2636 2637 2638 2639 2640 2664 2665 2666 2667 2668 2669 2670 2671 2695 2696 2697 2698 2699 2700 2701 2702 2726 2727 2728 2729 2730 2731 2732 2733 2756 2757 2758 2759 2760 2761 2762 2785 2786 2787 2788 2789 2790 2791 2813 2814 2815 2816 2817 2818 2840 2841 2842 2843 2844 2845 2866 2867 2868 2869 2870 2890 2891 2892 2893 2913 2914 2915 2916 2934 2935 2952 
FIELD FieldData 12
Idp 1 2975 float
0 1 39 40 41 80 81 82 121 122 123 162 163 164 203 204 205 244 245 246 285 286 287 326 327 328 367 368 369 408 409 410 449 450 451 461 462 463 471 472 473 481 482 483 491 492 493 501 502 503 511 512 513 521 522 523 531 532 533 541 542 543 551 552 2 3 4 5 6 7 8 9 42 43 44 45 46 47 48 49 83 84 85 86 87 88 89 90 124 125 126 127 128 129 130 131 165 166 167 168 169 170 171 172 206 207 208 209 210 211 212 213 247 248 249 250 251 252 253 254 288 289 290 291 292 293 294 295 329 330 331 332 333 334 335 336 370 371 372 373 374 375 376 377 411 412 413 414 415 416 417 418 452 453 454 464 465 474 475 484 485 494 495 504 505 514 515 524 525 534 535 544 545 553 554 10 11 12 13 14 15 16 17 18 50 51 52 53 54 55 56 57 58 91 92 93 94 95 96 97 98 99 132 133 134 135 136 137 138 139 140 173 174 175 176 177 178 179 180 181 214 215 216 217 218 219 220 221 222 255 256 257 258 259 260 261 262 263 296 297 298 299 300 301 302 303 304 337 338 339 340 341 342 343 344 345 378 379 380 381 382 383 384 385 386 419 420 421 422 423 424 425 426 427 19 20 21 22 23 24 25 26 59 60 61 62 63 64 65 66 100 101 102 103 104 105 106 107 141 142 143 144 145 146 147 148 182 183 184 185 186 187 188 189 223 224 225 226 227 228 229 230 264 265 266 267 268 269 270 271 305 306 307 308 309 310 311 312 346 347 348 349 350 351 352 353 387 388 389 390 391 392 393 394 428 429 430 431 432 433 434 435 27 28 29 30 31 32 33 34 35 67 68 69 70 71 72 73 74 75 108 109 110 111 112 113 114 115 116 149 150 151 152 153 154 155 156 157 190 191 192 193 194 195 196 197 198 231 232 233 234 235 236 237 238 239 272 273 274 275 276 277 278 279 280 313 314 315 316 317 318 319 320 321 354 355 356 357 358 359 360 361 362 395 396 397 398 399 400 401 402 403 436 437 438 439 440 441 442 443 444 455 456 466 476 486 496 506 516 526 536 546 555 36 37 38 76 77 78 79 117 118 119 120 158 159 160 161 199 200 201 202 240 241 242 243 281 282 283 284 322 323 324 325 363 364 365 366 404 405 406 407 445 446 447 448 457 458 459 460 467 468 469 470 477 478 479 480 487 488 489 490 497 498 499 500 507 508 509 510 517 518 519 520 527 528 529 530 537 538 539 540 547 548 549 550 556 557 558 559 560 561 562 563 564 565 566 567 568 569 570 571 572 573 574 575 576 577 578 579 580 581 582 583 584 585 586 587 588 589 590 591 592 593 594 595 596 597 598 599 600 601 602 603 604 605 606 607 608 609 610 611 612 613 614 615 616 617 618 619 620 621 622 623 624 625 626 627 628 629 630 631 632 633 634 635 636 637 638 639 640 641 642 643 644 645 646 647 648 649 650 651 652 653 654 655 656 657 658 659 660 661 662 663 664 665 666 667 668 669 670 671 672 673 674 675 676 677 678 679 680 681 682 683 684 685 686 687 688 689 690 691 692 693 694 695 696 697 698 699 700 701 702 703 704 705 706 707 708 709 710 711 712 713 714 715 716 717 718 719 720 721 722 723 724 725 726 727 728 729 730 731 732 733 734 735 736 737 738 739 740 741 742 743 744 745 746 747 748 749 750 751 752 753 754 755 756 757 758 759 760 761 762 763 764 765 766 767 768 769 770 771 772 773 774 775 776 777 778 779 780 781 782 783 784 785 786 787 788 789 790 791 792 793 794 795 796 797 798 799 800 801 802 803 804 805 806 807 808 809 810 811 812 813 814 815 816 817 818 819 820 821 822 823 824 825 826 827 828 829 830 831 832 833 834 835 836 837 838 839 840 841 842 843 844 845 846 847 848 849 850 851 852 853 854 855 856 857 858 859 860 861 862 863 864 865 866 867 868 869 870 871 872 873 874 875 876 877 878 879 880 881 882 883 884 885 886 887 888 889 890 891 892 893 894 895 896 897 898 899 900 901 902 903 904 905 906 907 908 909 910 911 912 913 914 915 916 917 918 919 920 921 922 923 924 925 926 927 928 929 930 931 932 933 934 935 936 937 938 939 940 941 942 943 944 945 946 947 948 949 950 951 952 953 954 955 956 957 958 959 960 961 962 963 964 965 966 967 968 969 970 971 972 973 974 975 976 977 978 979 980 981 982 983 984 985 986 987 988 989 990 991 992 993 994 995 996 997 998 999 1000 1001 1002 1003 1004 1005 1006 1007 1008 1009 1010 1011 1012 1013 1014 1015 1016 1017 1018 1019 1020 1021 1022 1023 1024 1025 1026 1027 1028 1029 1030 1031 1032 1033 1034 1035 1060 1061 1062 1063 1064 1065 1091 1092 1093 1094 1095 1096 1122 1123 1124 1125 1126 1127 1153 1154 1155 1156 1157 1158 1184 1185 1186 1187 1188 1189 1215 1216 1217 1218 1219 1220 1246 1247 1248 1249 1250 1251 1277 1278 1279 1280 1281 1282 1308 1309 1310 1311 1312 1313 1339 1340 1341 1342 1343 1344 1370 1371 1372 1373 1374 1375 1401 1402 1403 1404 1405 1406 1432 1433 1434 1435 1436 1437 1463 1464 1465 1466 1467 1468 1494 1495 1496 1497 1498 1499 1525 1526 1527 1528 1529 1530 1556 1557 1558 1559 1560 1561 1587 1588 1589 1590 1591 1592 1618 1619 1620 1621 1622 1623 1649 1650 1651 1652 1653 1654 1680 1681 1682 1683 1684 1685 1711 1712 1713 1714 1715 1716 1742 1743 1744 1745 1746 1747 1773 1774 1775 1776 1777 1778 1804 1805 1806 1807 1808 1809 1835 1836 1837 1838 1839 1840 1866 1867 1868 1869 1870 1871 1897 1898 1899 1900 1901 1902 1928 1929 1930 1931 1932 1933 1959 1960 1961 1962 1963 1964 1990 1991 1992 1993 1994 1995 2021 2022 2023 2024 2025 2026 2052 2053 2054 2055 2056 2057 2083 2084 2085 2086 2087 2088 2114 2115 2116 2117 2118 2119 2145 2146 2147 2148 2149 2150 2176 2177 2178 2179 2180 2181 2207 2208 2209 2210 2211 2212 2238 2239 2240 2241 2242 2243 2269 2270 2271 2272 2273 2274 2300 2301 2302 2303 2304 2305 2331 2332 2333 2334 2335 2336 2362 2363 2364 2365 2366 2367 2393 2394 2395 2396 2397 2398 2424 2425 2426 2427 2428 2429 2455 2456 2457 2458 2459 2460 2486 2487 2488 2489 2490 2491 2517 2518 2519 2520 2521 2522 2548 2549 2550 2551 2552 2553 2579 2580 2581 2582 2583 2584 2610 2611 2612 2613 2614 2615 2641 2642 2643 2644 2645 2646 2672 2673 2674 2675 2676 2677 2703 2704 2705 2706 2707 2708 2734 2735 2736 2737 2738 2763 2764 2765 2766 2767 2792 2793 2794 2795 2819 2820 2821 2822 2846 2847 2848 2871 2872 2894 2895 1036 1037 1038 1039 1040 1041 1042 1043 1044 1066 1067 1068 1069 1070 1071 1072 1073 1074 1097 1098 1099 1100 1101 1102 1103 1104 1105 1128 1129 1130 1131 1132 1133 1134 1135 1136 1159 1160 1161 1162 1163 1164 1165 1166 1167 1190 1191 1192 1193 1194 1195 1196 1197 1198 1221 1222 1223 1224 1225 1226 1227 1228 1229 1252 1253 1254 1255 1256 1257 1258 1259 1260 1283 1284 1285 1286 1287 1288 1289 1290 1291 1314 1315 1316 1317 1318 1319 1320 1321 1322 1345 1346 1347 1348 1349 1350 1351 1352 1353 1376 1377 1378 1379 1380 1381 1382 1383 1384 1407 1408 1409 1410 1411 1412 1413 1414 1415 1438 1439 1440 1441 1442 1443 1444 1445 1446 1469 1470 1471 1472 1473 1474 1475 1476 1477 1500 1501 1502 1503 1504 1505 1506 1507 1508 1531 1532 1533 1534 1535 1536 1537 1538 1539 1562 1563 1564 1565 1566 1567 1568 1569 1570 1593 1594 1595 1596 1597 1598 1599 1600 1601 1624 1625 1626 1627 1628 1629 1630 1631 1632 1655 1656 1657 1658 1659 1660 1661 1662 1663 1686 1687 1688 1689 1690 1691 1692 1693 1694 1717 1718 1719 1720 1721 1722 1723 1724 1725 1748 1749 1750 1751 1752 1753 1754 1755 1756 1779 1780 1781 1782 1783 1784 1785 1786 1787 1810 1811 1812 1813 1814 1815 1816 1817 1818 1841 1842 1843 1844 1845 1846 1847 1848 1849 1872 1873 1874 1875 1876 1877 1878 1879 1880 1903 1904 1905 1906 1907 1908 1909 1910 1911 1934 1935 1936 1937 1938 1939 1940 1941 1942 1965 1966 1967 1968 1969 1970 1971 1972 1973 1996 1997 1998 1999 2000 2001 2002 2003 2004 2027 2028 2029 2030 2031 2032 2033 2034 2035 2058 2059 2060 2061 2062 2063 2064 2065 2066 2089 2090 2091 2092 2093 2094 2095 2096 2097 2120 2121 2122 2123 2124 2125 2126 2127 2128 2151 2152 2153 2154 2155 2156 2157 2158 2159 2182 2183 2184 2185 2186 2187 2188 2189 2190 2213 2214 2215 2216 2217 2218 2219 2220 2221 2244 2245 2246 2247 2248 2249 2250 2251 2252 2275 2276 2277 2278 2279 2280 2281 2282 2283 2306 2307 2308 2309 2310 2311 2312 2313 2314 2337 2338 2339 2340 2341 2342 2343 2344 2345 2368 2369 2370 2371 2372 2373 2374 2375 2376 2399 2400 2401 2402 2403 2404 2405 2406 2407 2430 2431 2432 2433 2434 2435 2436 2437 2438 2461 2462 2463 2464 2465 2466 2467 2468 2469 2492 2493 2494 2495 2496 2497 2498 2499 2500 2523 2524 2525 2526 2527 2528 2529 2530 2531 2554 2555 2556 2557 2558 2559 2560 2561 2562 2585 2586 2587 2588 2589 2590 2591 2592 2593 2616 2617 2618 2619 2620 2621 2622 2623 2624 2647 2648 2649 2650 2651 2652 2653 2654 2655 2678 2679 2680 2681 2682 2683 2684 2685 2686 2709 2710 2711 2712 2713 2714 2715 2716 2717 2739 2740 2741 2742 2743 2744 2745 2746 2747 2768 2769 2770 2771 2772 2773 2774 2775 2776 2796 2797 2798 2799 2800 2801 2802 2803 2804 2823 2824 2825 2826 2827 2828 2829 2830 2831 2849 2850 2851 2852 2853 2854 2855 2856 2857 2873 2874 2875 2876 2877 2878 2879 2880 2881 2896 2897 2898 2899 2900 2901 2902 2903 2904 2917 2918 2919 2920 2921 2922 2923 2924 2925 2936 2937 2938 2939 2940 2941 2942 2943 2953 2954 2955 2956 2957 2958 2966 2967 2968 2969 1045 1046 1047 1048 1049 1050 1051 1052 1075 1076 1077 1078 1079 1080 1081 1082 1106 1107 1108 1109 1110 1111 1112 1113 1137 1138 1139 1140 1141 1142 1143 1144 1168 1169 1170 1171 1172 1173 1174 1175 1199 1200 1201 1202 1203 1204 1205 1206 1230 1231 1232 1233 1234 1235 1236 1237 1261 1262 1263 1264 1265 1266 1267 1268 1292 1293 1294 1295 1296 1297 1298 1299 1323 1324 1325 1326 1327 1328 1329 1330 1354 1355 1356 1357 1358 1359 1360 1361 1385 1386 1387 1388 1389 1390 1391 1392 1416 1417 1418 1419 1420 1421 1422 1423 1447 1448 1449 1450 1451 1452 1453 1454 1478 1479 1480 1481 1482 1483 1484 1485 1509 1510 1511 1512 1513 1514 1515 1516 1540 1541 1542 1543 1544 1545 1546 1547 1571 1572 1573 1574 1575 1576 1577 1578 1602 1603 1604 1605 1606 1607 1608 1609 1633 1634 1635 1636 1637 1638 1639 1640 1664 1665 1666 1667 1668 1669 1670 1671 1695 1696 1697 1698 1699 1700 1701 1702 1726 1727 1728 1729 1730 1731 1732 1733 1757 1758 1759 1760 1761 1762 1763 1764 1788 1789 1790 1791 1792 1793 1794 1795 1819 1820 1821 1822 1823 1824 1825 1826 1850 1851 1852 1853 1854 1855 1856 1857 1881 1882 1883 1884 1885 1886 1887 1888 1912 1913 1914 1915 1916 1917 1918 1919 1943 1944 1945 1946 1947 1948 1949 1950 1974 1975 1976 1977 1978 1979 1980 1981 2005 2006 2007 2008 2009 2010 2011 2012 2036 2037 2038 2039 2040 2041 2042 2043 2067 2068 2069 2070 2071 2072 2073 2074 2098 2099 2100 2101 2102 2103 2104 2105 2129 2130 2131 2132 2133 2134 2135 2136 2160 2161 2162 2163 2164 2165 2166 2167 2191 2192 2193 2194 2195 2196 2197 2198 2222 2223 2224 2225 2226 2227 2228 2229 2253 2254 2255 2256 2257 2258 2259 2260 2284 2285 2286 2287 2288 2289 2290 2291 2315 2316 2317 2318 2319 2320 2321 2322 2346 2347 2348 2349 2350 2351 2352 2353 2377 2378 2379 2380 2381 2382 2383 2384 2408 2409 2410 2411 2412 2413 2414 2415 2439 2440 2441 2442 2443 2444 2445 2446 2470 2471 2472 2473 2474 2475 2476 2477 2501 2502 2503 2504 2505 2506 2507 2508 2532 2533 2534 2535 2536 2537 2538 2539 2563 2564 2565 2566 2567 2568 2569 2570 2594 2595 2596 2597 2598 2599 2600 2601 2625 2626 2627 2628 2629 2630 2631 2632 2656 2657 2658 2659 2660 2661 2662 2663 2687 2688 2689 2690 2691 2692 2693 2694 2718 2719 2720 2721 2722 2723 2724 2725 2748 2749 2750 2751 2752 2753 2754 2755 2777 2778 2779 2780 2781 2782 2783 2784 2805 2806 2807 2808 2809 2810 2811 2812 2832 2833 2834 2835 2836 2837 2838 2839 2858 2859 2860 2861 2862 2863 2864 2865 2882 2883 2884 2885 2886 2887 2888 2889 2905 2906 2907 2908 2909 2910 2911 2912 2926 2927 2928 2929 2930 2931 2932 2933 2944 2945 2946 2947 2948 2949 2950 2951 2959 2960 2961 2962 2963 2964 2965 2970 2971 2972 2973 2974 1053 1054 1055 1056 1057 1058 1059 1083 1084 1085 1086 1087 1088 1089 1090 1114 1115 1116 1117 1118 1119 1120 1121 1145 1146 1147 1148 1149 1150 1151 1152 1176 1177 1178 1179 1180 1181 1182 1183 1207 1208 1209 1210 1211 1212 1213 1214 1238 1239 1240 1241 1242 1243 1244 1245 1269 1270 1271 1272 1273 1274 1275 1276 1300 1301 1302 1303 1304 1305 1306 1307 1331 1332 1333 1334 1335 1336 1337 1338 1362 1363 1364 1365 1366 1367 1368 1369 1393 1394 1395 1396 1397 1398 1399 1400 1424 1425 1426 1427 1428 1429 1430 1431 1455 1456 1457 1458 1459 1460 1461 1462 1486 1487 1488 1489 1490 1491 1492 1493 1517 1518 1519 1520 1521 1522 1523 1524 1548 1549 1550 1551 1552 1553 1554 1555 1579 1580 1581 1582 1583 1584 1585 1586 1610 1611 1612 1613 1614 1615 1616 1617 1641 1642 1643 1644 1645 1646 1647 1648 1672 1673 1674 1675 1676 1677 1678 1679 1703 1704 1705 1706 1707 1708 1709 1710 1734 1735 1736 1737 1738 1739 1740 1741 1765 1766 1767 1768 1769 1770 1771 1772 1796 1797 1798 1799 1800 1801 1802 1803 1827 1828 1829 1830 1831 1832 1833 1834 1858 1859 1860 1861 1862 1863 1864 1865 1889 1890 1891 1892 1893 1894 1895 1896 1920 1921 1922 1923 1924 1925 1926 1927 1951 1952 1953 1954 1955 1956 1957 1958 1982 1983 1984 1985 1986 1987 1988 1989 2013 2014 2015 2016 2017 2018 2019 2020 2044 2045 2046 2047 2048 2049 2050 2051 2075 2076 2077 2078 2079 2080 2081 2082 2106 2107 2108 2109 2110 2111 2112 2113 2137 2138 2139 2140 2141 2142 2143 2144 2168 2169 2170 2171 2172 2173 2174 2175 2199 2200 2201 2202 2203 2204 2205 2206 2230 2231 2232 2233 2234 2235 2236 2237 2261 2262 2263 2264 2265 2266 2267 2268 2292 2293 2294 2295 2296 2297 2298 2299 2323 2324 2325 2326 2327 2328 2329 2330 2354 2355 2356 2357 2358 2359 2360 2361 2385 2386 2387 2388 2389 2390 2391 2392 2416 2417 2418 2419 2420 2421 2422 2423 2447 2448 2449 2450 2451 2452 2453 2454 2478 2479 2480 2481 2482 2483 2484 2485 2509 2510 2511 2512 2513 2514 2515 2516 2540 2541 2542 2543 2544 2545 2546 2547 2571 2572 2573 2574 2575 2576 2577 2578 2602 2603 2604 2605 2606 2607 2608 2609 2633 2634 2635 2636 2637 2638 2639 2640 2664 2665 2666 2667 2668 2669 2670 2671 2695 2696 2697 2698 2699 2700 2701 2702 2726 2727 2728 2729 2730 2731 2732 2733 2756 2757 2758 2759 2760 2761 2762 2785 2786 2787 2788 2789 2790 2791 2813 2814 2815 2816 2817 2818 2840 2841 2842 2843 2844 2845 2866 2867 2868 2869 2870 2890 2891 2892 2893 2913 2914 2915 2916 2934 2935 2952 
Rhop 1 2975 float
1000.0 1000.0 1000.0 1000.0 1000.0 1000.0 1000.0 1000.0 1000.0 1000.0 1000.0 1000.0 1000.0 1000.0 1000.0 1000.0 1000.0 1000.0 1000.0 1000.0 1000.0 1000.0 1000.0001 1000.0 1000.0001 1000.0003 1000.0001 1000.0002 1000.0006 1000.0002 1000.0006 1000.0011 1000.0004 1000.0009 1000.0016 1000.0005 1000.0012 1000.0021 1000.0007 1000.0016 1000.0028 1000.0009 1000.002 1000.0035 1000.0011 1000.0025 1000.0045 1000.0015 1000.0032 1000.0056 1000.002 1000.0043 1000.0075 1000.0026 1000.006 1000.0105 1000.0041 1000.0089 1000.015 1000.0065 1000.013 1000.0216 1000.0193 1000.0303 1000.0 1000.0 1000.0 1000.0 1000.0 1000.0 1000.0 1000.0 1000.0 1000.0 1000.0 1000.0 1000.0 1000.0 1000.0 1000.0 1000.0 1000.0 1000.0 1000.0 1000.0 1000.0 1000.0 1000.0 1000.0 1000.0 1000.0 1000.0 1000.0 1000.0 1000.0 1000.0 1000.0 1000.0 1000.0 1000.0 1000.0 1000.0 1000.0 1000.0 1000.0 1000.0 1000.0 1000.0 1000.0001 1000.0001 1000.0001 1000.0002 1000.0 1000.0001 1000.0002 1000.0003 1000.0004 1000.0005 1000.0006 1000.0006 1000.0002 1000.0004 1000.0006 1000.0009 1000.0011 1000.0013 1000.0014 1000.0015 1000.0006 1000.0009 1000.0014 1000.0018 1000.0022 1000.0026 1000.0029 1000.0031 1000.0011 1000.0016 1000.0024 1000.0031 1000.0038 1000.0043 1000.0048 1000.0052 1000.0018 1000.0027 1000.0038 1000.0047 1000.0058 1000.0066 1000.0073 1000.0077 1000.0026 1000.0038 1000.0051 1000.0035 1000.0051 1000.0043 1000.0063 1000.0055 1000.0077 1000.0068 1000.0096 1000.0086 1000.0122 1000.0115 1000.016 1000.0159 1000.0217 1000.0225 1000.0303 1000.032 1000.0422 1000.044 1000.0572 1000.0 1000.0 1000.0 1000.0 1000.0 1000.0 1000.0 1000.0 1000.0 1000.0 1000.0 1000.0 1000.0 1000.0 1000.0 1000.0 1000.0 1000.0 1000.0 1000.0 1000.0 1000.0 1000.0 1000.0 1000.0 1000.0 1000.0 1000.0 1000.0 1000.0 1000.0 1000.0 1000.0 1000.0 1000.0 1000.0 1000.0 1000.0 1000.0 1000.0 1000.0 1000.0 1000.0 1000.0 1000.0 1000.0002 1000.0002 1000.0002 1000.0002 1000.0002 1000.0002 1000.0002 1000.0002 1000.0002 1000.0006 1000.0006 1000.0007 1000.0007 1000.0007 1000.0007 1000.0007 1000.0007 1000.0007 1000.0016 1000.0017 1000.0017 1000.0018 1000.0018 1000.0018 1000.0018 1000.0019 1000.0019 1000.0032 1000.0034 1000.0035 1000.0036 1000.0036 1000.0036 1000.0036 1000.0036 1000.0036 1000.0054 1000.0057 1000.0059 1000.006 1000.0061 1000.0062 1000.0062 1000.0062 1000.0062 1000.0082 1000.0084 1000.0085 1000.0087 1000.0089 1000.009 1000.009 1000.009 1000.009 1000.0 1000.0 1000.0 1000.0 1000.0 1000.0 1000.0 1000.0 1000.0 1000.0 1000.0 1000.0 1000.0 1000.0 1000.0 1000.0 1000.0 1000.0 1000.0 1000.0 1000.0 1000.0 1000.0 1000.0 1000.0 1000.0 1000.0 1000.0 1000.0 1000.0 1000.0 1000.0 1000.0 1000.0 1000.0 1000.0 1000.0 1000.0 1000.0 1000.0 1000.0002 1000.0002 1000.0002 1000.0002 1000.0002 1000.0002 1000.0002 1000.0002 1000.0007 1000.0007 1000.0007 1000.0007 1000.0007 1000.0007 1000.0007 1000.0007 1000.0019 1000.0019 1000.0019 1000.0018 1000.0018 1000.0018 1000.0018 1000.0017 1000.0036 1000.0036 1000.0036 1000.0036 1000.0036 1000.0036 1000.0036 1000.0035 1000.0062 1000.0062 1000.0062 1000.0062 1000.0062 1000.0061 1000.006 1000.0059 1000.009 1000.009 1000.009 1000.009 1000.009 1000.0089 1000.0087 1000.0085 1000.0 1000.0 1000.0 1000.0 1000.0 1000.0 1000.0 1000.0 1000.0 1000.0 1000.0 1000.0 1000.0 1000.0 1000.0 1000.0 1000.0 1000.0 1000.0 1000.0 1000.0 1000.0 1000.0 1000.0 1000.0 1000.0 1000.0 1000.0 1000.0 1000.0 1000.0 1000.0 1000.0 1000.0 1000.0 1000.0 1000.0 1000.0 1000.0 1000.0 1000.0 1000.0 1000.0 1000.0 1000.0 1000.0002 1000.0002 1000.0002 1000.0001 1000.0001 1000.0001 1000.0 1000.0 1000.0 1000.0006 1000.0006 1000.0006 1000.0006 1000.0005 1000.0004 1000.0003 1000.0002 1000.0001 1000.0017 1000.0016 1000.0015 1000.0014 1000.0013 1000.0011 1000.0009 1000.0006 1000.0004 1000.0034 1000.0032 1000.0031 1000.0029 1000.0026 1000.0022 1000.0018 1000.0014 1000.0009 1000.0057 1000.0054 1000.0052 1000.0048 1000.0043 1000.0038 1000.0031 1000.0024 1000.0016 1000.0084 1000.0082 1000.0077 1000.0073 1000.0066 1000.0058 1000.0047 1000.0038 1000.0027 1000.0051 1000.0038 1000.0051 1000.0063 1000.0077 1000.0096 1000.0122 1000.016 1000.0217 1000.0303 1000.0422 1000.0572 1000.0 1000.0 1000.0 1000.0 1000.0 1000.0 1000.0 1000.0 1000.0 1000.0 1000.0 1000.0 1000.0 1000.0 1000.0 1000.0 1000.0 1000.0 1000.0 1000.0 1000.0 1000.0 1000.0 1000.0 1000.0 1000.0 1000.0 1000.0002 1000.0001 1000.0 1000.0 1000.0006 1000.0003 1000.0001 1000.0 1000.0011 1000.0006 1000.0002 1000.0001 1000.0018 1000.0011 1000.0006 1000.0002 1000.0026 1000.0016 1000.0009 1000.0004 1000.0035 1000.0021 1000.0012 1000.0005 1000.0043 1000.0028 1000.0016 1000.0007 1000.0055 1000.0035 1000.002 1000.0009 1000.0068 1000.0045 1000.0025 1000.0011 1000.0086 1000.0056 1000.0032 1000.0015 1000.0115 1000.0075 1000.0043 1000.002 1000.0159 1000.0105 1000.006 1000.0026 1000.0225 1000.015 1000.0089 1000.0041 1000.032 1000.0216 1000.013 1000.0065 1000.044 1000.0303 1000.0193 1000.0 1000.0 1000.0 1000.0 1000.0 1000.0 1000.0 1000.0 1000.0 1000.0 1000.0 1000.0 1000.0 1000.0 1000.0 1000.0 1000.0 1000.0 1000.0 1000.0 1000.0 1000.0 1000.0 1000.0 1000.0 1000.0 1000.0 1000.0 1000.0 1000.0 1000.0 1000.0 1000.0 1000.0 1000.0 1000.0 1000.0 1000.0 1000.0 1000.0 1000.0 1000.0 1000.0 1000.0 1000.0 1000.0 1000.0 1000.0 1000.0 1000.0 1000.0 1000.0 1000.0 1000.0 1000.0 1000.0 1000.0 1000.0 1000.0 1000.0 1000.0 1000.0 1000.0 1000.0 1000.0 1000.0 1000.0 1000.0 1000.0 1000.0 1000.0 1000.0 1000.0 1000.0 1000.0 1000.0 1000.0 1000.0 1000.0 1000.0 1000.0 1000.0 1000.0 1000.0 1000.0 1000.0 1000.0 1000.0 1000.0 1000.0 1000.0 1000.0 1000.0 1000.0 1000.0 1000.0 1000.0 1000.0 1000.0 1000.0 1000.0 1000.0 1000.0 1000.0 1000.0 1000.0 1000.0 1000.0 1000.0 1000.0 1000.0 1000.0 1000.0 1000.0 1000.0 1000.0 1000.0 1000.0 1000.0 1000.0 1000.0 1000.0 1000.0 1000.0 1000.0 1000.0 1000.0 1000.0 1000.0 1000.0 1000.0 1000.0 1000.0 1000.0 1000.0 1000.0 1000.0 1000.0 1000.0 1000.0 1000.0 1000.0 1000.0 1000.0 1000.0 1000.0 1000.0 1000.0 1000.0 1000.0 1000.0 1000.0 1000.0 1000.0 1000.0 1000.0 1000.0 1000.0 1000.0 1000.0 1000.0 1000.0 1000.0 1000.0 1000.0 1000.0 1000.0 1000.0 1000.0 1000.0 1000.0 1000.0 1000.0 1000.0 1000.0 1000.0 1000.0 1000.0 1000.0 1000.0 1000.0 1000.0 1000.0 1000.0 1000.0 1000.0 1000.0 1000.0 1000.0 1000.0 1000.0 1000.0 1000.0 1000.0 1000.0 1000.0 1000.0 1000.0 1000.0 1000.0 1000.0 1000.0 1000.0 1000.0 1000.0 1000.0 1000.0 1000.0 1000.0 1000.0 1000.0 1000.0 1000.0 1000.0 1000.0 1000.0 1000.0 1000.0 1000.0 1000.0 1000.0 1000.0 1000.0 1000.0 1000.0 1000.0 1000.0 1000.0 1000.0 1000.0 1000.0 1000.0 1000.0 1000.0 1000.0 1000.0 1000.0 1000.0 1000.0 1000.0 1000.0 1000.0 1000.0 1000.0 1000.0 1000.0 1000.0 1000.0 1000.0 1000.0 1000.0 1000.0 1000.0 1000.0 1000.0 1000.0 1000.0 1000.0 1000.0 1000.0 1000.0 1000.0 1000.0 1000.0 1000.0 1000.0 1000.0 1000.0 1000.0 1000.0 1000.0 1000.0 1000.0 1000.0 1000.0 1000.0 1000.0 1000.0 1000.0 1000.0 1000.0 1000.0 1000.0 1000.0 1000.0 1000.0 1000.0 1000.0 1000.0 1000.0 1000.0 1000.0 1000.0 1000.0 1000.0 1000.0 1000.0 1000.0 1000.0 1000.0 1000.0 1000.0 1000.0 1000.0 1000.0 1000.0 1000.0 1000.0 1000.0 1000.0 1000.0 1000.0 1000.0 1000.0 1000.0 1000.0 1000.0 1000.0 1000.0 1000.0 1000.0 1000.0 1000.0 1000.0 1000.0 1000.0 1000.0 1000.0 1000.0 1000.0 1000.0 1000.0 1000.0 1000.0 1000.0 1000.0 1000.0 1000.0 1000.0 1000.0 1000.0 1000.0 1000.0 1000.0 1000.0 1000.0 1000.0 1000.0 1000.0 1000.0 1000.0 1000.0 1000.0 1000.0 1000.0 1000.0 1000.0 1000.0 1000.0 1000.0 1000.0 1000.0 1000.0 1000.0 1000.0 1000.0 1000.0 1000.0 1000.0 1000.0 1000.0 1000.0 1000.0 1000.0 1000.0 1000.0 1000.0 1000.0 1000.0 1000.0 1000.0 1000.0 1000.0 1000.0 1000.0 1000.0 1000.0 1000.0 1000.0 1000.0 1000.0 1000.0 1000.0 1000.0 1000.0 1000.0 1000.0 1000.0 1000.0 1000.0 1000.0 1000.0 1000.0 1000.0 1000.0 1000.0 1000.0 1000.0 1000.0 1000.0 1000.0 1000.0 1000.0 1000.0 1000.0 1000.0 1000.0 1000.0 1000.0 1000.0 1000.0 1000.0 1000.0 1000.0 1000.0 1000.0 1000.0 1000.0 1000.0 1000.0 1000.0 1000.0 1000.0 1000.0 1000.0 1000.0 1000.0 1000.0 1000.0 1000.0 1000.0 1000.0 1000.0 1000.0 1000.0 1000.0 1000.0 1000.0 1000.0 1000.0 1000.0 1000.0 1000.0 1000.0 1000.0 1000.0 1000.0 1000.0 1000.0 1000.0 1000.0 1000.0 1000.0 1000.0 1000.0 1000.0 1000.0 1000.0 1000.0 1000.0 1000.0 1000.0 1000.0066 1000.0078 1000.0089 1000.0098 1000.0103 1000.0067 1000.0085 1000.0099 1000.0111 1000.0121 1000.0128 1000.0082 1000.0104 1000.0121 1000.0136 1000.0146 1000.0154 1000.0101 1000.0128 1000.0148 1000.0165 1000.0176 1000.0185 1000.0127 1000.0156 1000.0179 1000.02 1000.0214 1000.0221 1000.0159 1000.0195 1000.0224 1000.0244 1000.0259 1000.0269 1000.0211 1000.0251 1000.0283 1000.0302 1000.0317 1000.0329 1000.0292 1000.0334 1000.0361 1000.0379 1000.0391 1000.0399 1000.0416 1000.0455 1000.0468 1000.0477 1000.0482 1000.0488 1000.0593 1000.0611 1000.0604 1000.0594 1000.059 1000.0591 1000.0809 1000.0798 1000.076 1000.073 1000.0715 1000.0714 1000.1005 1000.0984 1000.0924 1000.088 1000.086 1000.0854 1000.1111 1000.1135 1000.1083 1000.1041 1000.1021 1000.1015 1000.1187 1000.126 1000.1244 1000.1215 1000.1204 1000.1204 1000.1317 1000.1409 1000.1429 1000.142 1000.142 1000.1425 1000.1532 1000.1625 1000.166 1000.1666 1000.1673 1000.168 1000.1833 1000.1915 1000.1951 1000.1962 1000.1974 1000.1986 1000.2205 1000.2276 1000.2308 1000.2318 1000.2332 1000.2344 1000.2635 1000.2701 1000.2732 1000.2741 1000.2754 1000.2766 1000.3139 1000.3207 1000.3235 1000.3242 1000.3253 1000.3262 1000.3736 1000.3808 1000.3834 1000.3835 1000.3842 1000.3844 1000.4449 1000.4521 1000.4548 1000.4539 1000.4531 1000.452 1000.5288 1000.537 1000.5394 1000.5363 1000.5334 1000.5299 1000.6279 1000.6377 1000.6397 1000.633 1000.6257 1000.619 1000.7415 1000.7549 1000.7552 1000.7415 1000.7281 1000.7166 1000.8663 1000.8854 1000.8815 1000.8566 1000.8348 1000.8168 1000.9998 1001.0272 1001.0139 1000.972 1000.9401 1000.9157 1001.1385 1001.1741 1001.1438 1001.0804 1001.0375 1001.008 1001.2958 1001.3373 1001.2816 1001.1942 1001.1427 1001.1118 1001.5373 1001.5787 1001.4953 1001.3871 1001.332 1001.3063 1002.061 1002.0951 1001.9985 1001.882 1001.8328 1001.8204 1003.2839 1003.3087 1003.237 1003.1452 1003.1124 1003.1208 1005.5973 1005.6174 1005.6067 1005.6007 1005.6066 1005.6419 1008.4702 1008.4885 1008.5222 1008.6443 1008.7207 1008.7908 1010.5532 1010.5527 1010.5919 1010.8011 1010.9473 1011.0518 1011.4112 1011.3793 1011.3704 1011.6121 1011.7933 1011.9196 1011.602 1011.5655 1011.4868 1011.6872 1011.8631 1011.9913 1011.6634 1011.6398 1011.5162 1011.6465 1011.7773 1011.8847 1011.7887 1011.7816 1011.6276 1011.7014 1011.7897 1011.8743 1011.9886 1011.9921 1011.8259 1011.867 1011.9283 1011.9962 1012.2039 1012.2124 1012.0472 1012.0792 1012.1307 1012.1903 1012.3713 1012.3795 1012.223 1012.2659 1012.322 1012.3812 1012.2939 1012.3002 1012.1553 1012.2109 1012.2758 1012.3393 1011.9846 1011.9901 1011.8594 1011.9249 1011.9995 1012.07 1011.4974 1011.5048 1011.3923 1011.4665 1011.5504 1011.6295 1010.8796 1010.8945 1010.8054 1010.8878 1010.9796 1011.0682 1010.1631 1010.1901 1010.1271 1010.2188 1010.318 1010.4141 1009.3641 1009.4027 1009.3678 1009.4694 1009.5743 1009.6773 1008.4977 1008.5479 1008.5385 1008.6462 1008.7576 1008.865 1007.5922 1007.6529 1007.66 1007.7697 1007.8873 1007.9965 1006.6926 1006.7565 1006.7665 1006.8759 1006.9958 1007.1048 1005.8408 1005.8954 1005.9017 1006.0058 1006.1225 1006.2287 1005.0285 1005.0922 1005.1029 1005.1964 1005.304 1005.4034 1004.2304 1004.3453 1004.3843 1004.4734 1004.5692 1004.6561 1003.5007 1003.6857 1003.7658 1003.8522 1003.9322 1004.0014 1003.1347 1003.2536 1003.3292 1003.3948 1003.4442 1002.6718 1002.8123 1002.8885 1002.9481 1002.9828 1002.4109 1002.5017 1002.5656 1002.6065 1002.0524 1002.1332 1002.219 1002.2855 1001.8047 1001.8861 1001.9819 1001.5891 1001.6761 1001.4305 1001.4122 1000.0108 1000.0112 1000.0114 1000.0117 1000.0117 1000.0118 1000.0119 1000.0119 1000.0119 1000.0132 1000.0138 1000.014 1000.0143 1000.0145 1000.0146 1000.0146 1000.0146 1000.0146 1000.016 1000.0164 1000.0168 1000.017 1000.0172 1000.0172 1000.0172 1000.0172 1000.0172 1000.0191 1000.0195 1000.0198 1000.02 1000.0201 1000.0201 1000.0201 1000.0201 1000.0201 1000.0228 1000.0233 1000.0235 1000.0235 1000.0236 1000.0236 1000.0236 1000.0236 1000.0236 1000.0275 1000.0279 1000.0281 1000.0282 1000.0283 1000.0283 1000.0281 1000.0281 1000.0281 1000.0333 1000.0337 1000.0339 1000.0339 1000.0338 1000.0337 1000.0335 1000.0335 1000.0334 1000.0405 1000.0407 1000.0407 1000.0406 1000.0405 1000.0404 1000.0403 1000.0402 1000.0402 1000.049 1000.0494 1000.0493 1000.0491 1000.0488 1000.0486 1000.0482 1000.0482 1000.048 1000.0593 1000.0593 1000.0591 1000.0587 1000.0584 1000.058 1000.0577 1000.0575 1000.0574 1000.0713 1000.0712 1000.0709 1000.0706 1000.0699 1000.0695 1000.0692 1000.0689 1000.0687 1000.0854 1000.0852 1000.0847 1000.084 1000.0834 1000.0828 1000.0825 1000.0821 1000.082 1000.1016 1000.1014 1000.1008 1000.1001 1000.0994 1000.0989 1000.0983 1000.0979 1000.0976 1000.1207 1000.1205 1000.12 1000.1193 1000.1183 1000.1174 1000.1169 1000.1165 1000.1162 1000.1429 1000.1429 1000.1423 1000.1414 1000.1403 1000.1391 1000.1385 1000.138 1000.1376 1000.1688 1000.1687 1000.1682 1000.1672 1000.1661 1000.1649 1000.1641 1000.1633 1000.1629 1000.1993 1000.1993 1000.1986 1000.1973 1000.1959 1000.1946 1000.1934 1000.1925 1000.1921 1000.2352 1000.2351 1000.2341 1000.2327 1000.2307 1000.2292 1000.2276 1000.2264 1000.2259 1000.2772 1000.2768 1000.2754 1000.2732 1000.2708 1000.2687 1000.2667 1000.2654 1000.2646 1000.3265 1000.3254 1000.3233 1000.3201 1000.317 1000.314 1000.3116 1000.3098 1000.3085 1000.3839 1000.3818 1000.3784 1000.3741 1000.3696 1000.3657 1000.3623 1000.3598 1000.3585 1000.4502 1000.4465 1000.4413 1000.4353 1000.4292 1000.4238 1000.4194 1000.4161 1000.4141 1000.5256 1000.5198 1000.5121 1000.5038 1000.4955 1000.4886 1000.4828 1000.4787 1000.476 1000.6116 1000.6024 1000.5914 1000.5798 1000.5692 1000.5601 1000.5529 1000.5475 1000.5445 1000.7045 1000.6912 1000.6761 1000.6609 1000.6472 1000.6359 1000.6271 1000.6207 1000.617 1000.7996 1000.7811 1000.7612 1000.7421 1000.7253 1000.7117 1000.7017 1000.6942 1000.6904 1000.8932 1000.8696 1000.8448 1000.8215 1000.8018 1000.7863 1000.775 1000.7673 1000.7631 1000.9818 1000.9545 1000.9261 1000.8995 1000.8777 1000.8611 1000.8496 1000.8419 1000.8376 1001.0859 1001.0586 1001.0293 1001.0015 1000.9792 1000.9628 1000.952 1000.9453 1000.9418 1001.2875 1001.266 1001.2409 1001.2162 1001.196 1001.1821 1001.174 1001.1697 1001.1675 1001.8163 1001.8089 1001.7947 1001.7783 1001.765 1001.7568 1001.7537 1001.7535 1001.7542 1003.14 1003.1542 1003.1593 1003.1583 1003.1568 1003.1586 1003.1641 1003.1704 1003.1753 1005.6902 1005.7333 1005.764 1005.7846 1005.8012 1005.8181 1005.8354 1005.8515 1005.8625 1008.8698 1008.9442 1009.004 1009.0503 1009.0892 1009.1253 1009.1592 1009.1876 1009.2064 1011.1571 1011.2586 1011.3465 1011.4197 1011.4835 1011.5414 1011.5939 1011.6367 1011.6646 1012.0419 1012.1632 1012.2736 1012.3713 1012.4589 1012.5391 1012.6108 1012.6686 1012.7063 1012.1187 1012.2501 1012.3763 1012.493 1012.6008 1012.7007 1012.7899 1012.8612 1012.9075 1012.0043 1012.137 1012.2707 1012.3989 1012.5207 1012.6347 1012.7368 1012.8183 1012.8712 1011.9825 1012.1104 1012.2443 1012.3765 1012.5046 1012.6261 1012.7355 1012.8231 1012.8798 1012.0936 1012.2145 1012.3439 1012.4741 1012.6024 1012.7255 1012.8369 1012.9267 1012.9847 1012.2806 1012.395 1012.5184 1012.6438 1012.7683 1012.889 1012.9987 1013.0873 1013.1448 1012.4689 1012.5789 1012.6971 1012.8168 1012.9359 1013.0521 1013.1581 1013.244 1013.2996 1012.4279 1012.5365 1012.6506 1012.7648 1012.8785 1012.9893 1013.0908 1013.173 1013.2264 1012.1621 1012.2703 1012.3814 1012.4913 1012.5993 1012.7048 1012.8011 1012.8795 1012.9303 1011.7266 1011.8353 1011.9434 1012.048 1012.1501 1012.2494 1012.3403 1012.4139 1012.4618 1011.17 1011.2782 1011.3821 1011.4798 1011.5747 1011.6664 1011.7505 1011.8188 1011.8632 1010.5194 1010.6249 1010.7213 1010.8098 1010.8953 1010.9775 1011.0535 1011.1151 1011.1552 1009.7828 1009.8823 1009.9691 1010.0467 1010.1204 1010.1923 1010.2587 1010.3132 1010.3483 1008.9686 1009.0604 1009.1368 1009.2026 1009.265 1009.326 1009.3827 1009.4297 1009.46 1008.0977 1008.1826 1008.2498 1008.3056 1008.3574 1008.4089 1008.4572 1008.4969 1008.523 1007.2039 1007.2844 1007.3455 1007.3942 1007.4388 1007.4822 1007.5231 1007.5571 1007.5792 1006.3255 1006.4047 1006.4637 1006.5095 1006.5496 1006.5875 1006.6229 1006.6517 1006.6708 1005.4963 1005.5759 1005.6373 1005.6843 1005.723 1005.7575 1005.7885 1005.8138 1005.83 1004.7408 1004.8203 1004.8868 1004.9388 1004.9797 1005.0135 1005.0417 1005.0638 1005.0779 1004.0729 1004.1483 1004.22 1004.2799 1004.3267 1004.3623 1004.39 1004.4103 1004.4229 1003.4968 1003.5624 1003.635 1003.7032 1003.7587 1003.8005 1003.8306 1003.851 1003.8629 1003.0142 1003.0633 1003.1296 1003.2014 1003.2661 1003.3169 1003.3531 1003.3768 1003.39 1002.6233 1002.6514 1002.7028 1002.769 1002.8368 1002.8956 1002.9398 1002.9696 1002.9862 1002.3143 1002.3272 1002.3564 1002.4064 1002.467 1002.5259 1002.575 1002.6102 1002.6311 1002.0491 1002.078 1002.0912 1002.1171 1002.1583 1002.2062 1002.251 1002.2863 1002.3088 1001.7816 1001.8539 1001.8884 1001.9012 1001.9166 1001.942 1001.9722 1001.9996 1002.0188 1001.5071 1001.6025 1001.6794 1001.7224 1001.7366 1001.741 1001.7493 1001.761 1001.7714 1001.3382 1001.3762 1001.4341 1001.4936 1001.544 1001.5726 1001.5818 1001.5838 1001.5853 1001.3099 1001.2837 1001.2824 1001.3003 1001.326 1001.3495 1001.3625 1001.3683 1001.2568 1001.2026 1001.1789 1001.1481 1001.1215 1001.1057 1001.2633 1001.2282 1001.1829 1001.1489 1000.0119 1000.0119 1000.0119 1000.0119 1000.0118 1000.0117 1000.0117 1000.0114 1000.0146 1000.0146 1000.0146 1000.0146 1000.0146 1000.0145 1000.0143 1000.014 1000.0172 1000.0172 1000.0172 1000.0172 1000.0172 1000.0172 1000.017 1000.0168 1000.0201 1000.0201 1000.0201 1000.0201 1000.0201 1000.0201 1000.02 1000.0198 1000.0236 1000.0236 1000.0236 1000.0236 1000.0236 1000.0236 1000.0235 1000.0235 1000.0281 1000.0281 1000.0281 1000.0281 1000.0283 1000.0283 1000.0282 1000.0281 1000.0334 1000.0334 1000.0335 1000.0335 1000.0337 1000.0338 1000.0339 1000.0339 1000.04 1000.0402 1000.0402 1000.0403 1000.0404 1000.0405 1000.0406 1000.0407 1000.048 1000.048 1000.0482 1000.0482 1000.0486 1000.0488 1000.0491 1000.0493 1000.0573 1000.0574 1000.0575 1000.0577 1000.058 1000.0584 1000.0587 1000.0591 1000.0687 1000.0687 1000.0689 1000.0692 1000.0695 1000.0699 1000.0706 1000.0709 1000.082 1000.082 1000.0821 1000.0825 1000.0828 1000.0834 1000.084 1000.0847 1000.0976 1000.0976 1000.0979 1000.0983 1000.0989 1000.0994 1000.1001 1000.1008 1000.1161 1000.1162 1000.1165 1000.1169 1000.1174 1000.1183 1000.1193 1000.12 1000.1376 1000.1376 1000.138 1000.1385 1000.1391 1000.1403 1000.1414 1000.1423 1000.1628 1000.1629 1000.1633 1000.1641 1000.1649 1000.1661 1000.1672 1000.1682 1000.1919 1000.1921 1000.1925 1000.1934 1000.1946 1000.1959 1000.1973 1000.1986 1000.2256 1000.2259 1000.2264 1000.2276 1000.2292 1000.2307 1000.2327 1000.2341 1000.2642 1000.2646 1000.2654 1000.2667 1000.2687 1000.2708 1000.2732 1000.2754 1000.3082 1000.3085 1000.3098 1000.3116 1000.314 1000.317 1000.3201 1000.3233 1000.3579 1000.3585 1000.3598 1000.3623 1000.3657 1000.3696 1000.3741 1000.3784 1000.4135 1000.4141 1000.4161 1000.4194 1000.4238 1000.4292 1000.4353 1000.4413 1000.4752 1000.476 1000.4787 1000.4828 1000.4886 1000.4955 1000.5038 1000.5121 1000.5434 1000.5445 1000.5475 1000.5529 1000.5601 1000.5692 1000.5798 1000.5914 1000.6158 1000.617 1000.6207 1000.6271 1000.6359 1000.6472 1000.6609 1000.6761 1000.6889 1000.6904 1000.6942 1000.7017 1000.7117 1000.7253 1000.7421 1000.7612 1000.7615 1000.7631 1000.7673 1000.775 1000.7863 1000.8018 1000.8215 1000.8448 1000.8362 1000.8376 1000.8419 1000.8496 1000.8611 1000.8777 1000.8995 1000.9261 1000.9406 1000.9418 1000.9453 1000.952 1000.9628 1000.9792 1001.0015 1001.0293 1001.1669 1001.1675 1001.1697 1001.174 1001.1821 1001.196 1001.2162 1001.2409 1001.7545 1001.7542 1001.7535 1001.7537 1001.7568 1001.765 1001.7783 1001.7947 1003.1771 1003.1753 1003.1704 1003.1641 1003.1586 1003.1568 1003.1583 1003.1593 1005.8665 1005.8625 1005.8515 1005.8354 1005.8181 1005.8012 1005.7846 1005.764 1009.2131 1009.2064 1009.1876 1009.1592 1009.1253 1009.0892 1009.0503 1009.004 1011.6746 1011.6646 1011.6367 1011.5939 1011.5414 1011.4835 1011.4197 1011.3465 1012.7192 1012.7063 1012.6686 1012.6108 1012.5391 1012.4589 1012.3713 1012.2736 1012.9235 1012.9075 1012.8612 1012.7899 1012.7007 1012.6008 1012.493 1012.3763 1012.8895 1012.8712 1012.8183 1012.7368 1012.6347 1012.5207 1012.3989 1012.2707 1012.8995 1012.8798 1012.8231 1012.7355 1012.6261 1012.5046 1012.3765 1012.2443 1013.0046 1012.9847 1012.9267 1012.8369 1012.7255 1012.6024 1012.4741 1012.3439 1013.1649 1013.1448 1013.0873 1012.9987 1012.889 1012.7683 1012.6438 1012.5184 1013.319 1013.2996 1013.244 1013.1581 1013.0521 1012.9359 1012.8168 1012.6971 1013.245 1013.2264 1013.173 1013.0908 1012.9893 1012.8785 1012.7648 1012.6506 1012.948 1012.9303 1012.8795 1012.8011 1012.7048 1012.5993 1012.4913 1012.3814 1012.4785 1012.4617 1012.4139 1012.3403 1012.2494 1012.1501 1012.048 1011.9434 1011.8784 1011.8632 1011.8188 1011.7505 1011.6664 1011.5747 1011.4798 1011.3821 1011.1691 1011.1552 1011.1151 1011.0535 1010.9775 1010.8953 1010.8098 1010.7213 1010.3605 1010.3483 1010.3132 1010.2587 1010.1923 1010.1204 1010.0467 1009.9691 1009.4706 1009.46 1009.4297 1009.3827 1009.326 1009.265 1009.2026 1009.1368 1008.5322 1008.523 1008.4969 1008.4572 1008.4089 1008.3574 1008.3056 1008.2498 1007.5869 1007.5792 1007.5571 1007.5231 1007.4822 1007.4388 1007.3942 1007.3455 1006.6776 1006.6708 1006.6517 1006.6229 1006.5875 1006.5496 1006.5095 1006.4637 1005.8357 1005.83 1005.8138 1005.7885 1005.7575 1005.723 1005.6843 1005.6373 1005.0829 1005.0779 1005.0638 1005.0417 1005.0135 1004.9797 1004.9388 1004.8868 1004.427 1004.4229 1004.4103 1004.39 1004.3623 1004.3267 1004.2799 1004.22 1003.8668 1003.8629 1003.851 1003.8306 1003.8005 1003.7587 1003.7032 1003.635 1003.3942 1003.39 1003.3768 1003.3531 1003.3169 1003.2661 1003.2014 1003.1296 1002.9919 1002.9862 1002.9696 1002.9398 1002.8956 1002.8368 1002.769 1002.7028 1002.6379 1002.6311 1002.6102 1002.575 1002.5259 1002.467 1002.4064 1002.3564 1002.3163 1002.3088 1002.2863 1002.251 1002.2062 1002.1583 1002.1171 1002.0912 1002.0255 1002.0188 1001.9996 1001.9722 1001.942 1001.9166 1001.9012 1001.8884 1001.7754 1001.7714 1001.761 1001.7493 1001.741 1001.7366 1001.7224 1001.6794 1001.5859 1001.5853 1001.5838 1001.5818 1001.5726 1001.544 1001.4936 1001.4341 1001.3701 1001.3683 1001.3625 1001.3495 1001.326 1001.3003 1001.2824 1001.2837 1001.1006 1001.1057 1001.1215 1001.1481 1001.1789 1001.2026 1001.2568 1001.1371 1001.1489 1001.1829 1001.2282 1001.2633 1000.0112 1000.0108 1000.0103 1000.0098 1000.0089 1000.0078 1000.0066 1000.0138 1000.0132 1000.0128 1000.0121 1000.0111 1000.0099 1000.0085 1000.0067 1000.0164 1000.016 1000.0154 1000.0146 1000.0136 1000.0121 1000.0104 1000.0082 1000.0195 1000.0191 1000.0185 1000.0176 1000.0165 1000.0148 1000.0128 1000.0101 1000.0233 1000.0228 1000.0221 1000.0214 1000.02 1000.0179 1000.0156 1000.0127 1000.0279 1000.0275 1000.0269 1000.0259 1000.0244 1000.0224 1000.0195 1000.0159 1000.0337 1000.0333 1000.0329 1000.0317 1000.0302 1000.0283 1000.0251 1000.0211 1000.0407 1000.0405 1000.0399 1000.0391 1000.0379 1000.0361 1000.0334 1000.0292 1000.0494 1000.049 1000.0488 1000.0482 1000.0477 1000.0468 1000.0455 1000.0416 1000.0593 1000.0593 1000.0591 1000.059 1000.0594 1000.0604 1000.0611 1000.0593 1000.0712 1000.0713 1000.0714 1000.0715 1000.073 1000.076 1000.0798 1000.0809 1000.0852 1000.0854 1000.0854 1000.086 1000.088 1000.0924 1000.0984 1000.1005 1000.1014 1000.1016 1000.1015 1000.1021 1000.1041 1000.1083 1000.1135 1000.1111 1000.1205 1000.1207 1000.1204 1000.1204 1000.1215 1000.1244 1000.126 1000.1187 1000.1429 1000.1429 1000.1425 1000.142 1000.142 1000.1429 1000.1409 1000.1317 1000.1687 1000.1688 1000.168 1000.1673 1000.1666 1000.166 1000.1625 1000.1532 1000.1993 1000.1993 1000.1986 1000.1974 1000.1962 1000.1951 1000.1915 1000.1833 1000.2351 1000.2352 1000.2344 1000.2332 1000.2318 1000.2308 1000.2276 1000.2205 1000.2768 1000.2772 1000.2766 1000.2754 1000.2741 1000.2732 1000.2701 1000.2635 1000.3254 1000.3265 1000.3262 1000.3253 1000.3242 1000.3235 1000.3207 1000.3139 1000.3818 1000.3839 1000.3844 1000.3842 1000.3835 1000.3834 1000.3808 1000.3736 1000.4465 1000.4502 1000.452 1000.4531 1000.4539 1000.4548 1000.4521 1000.4449 1000.5198 1000.5256 1000.5299 1000.5334 1000.5363 1000.5394 1000.537 1000.5288 1000.6024 1000.6116 1000.619 1000.6257 1000.633 1000.6397 1000.6377 1000.6279 1000.6912 1000.7045 1000.7166 1000.7281 1000.7415 1000.7552 1000.7549 1000.7415 1000.7811 1000.7996 1000.8168 1000.8348 1000.8566 1000.8815 1000.8854 1000.8663 1000.8696 1000.8932 1000.9157 1000.9401 1000.972 1001.0139 1001.0272 1000.9998 1000.9545 1000.9818 1001.008 1001.0375 1001.0804 1001.1438 1001.1741 1001.1385 1001.0586 1001.0859 1001.1118 1001.1427 1001.1942 1001.2816 1001.3373 1001.2958 1001.266 1001.2875 1001.3063 1001.332 1001.3871 1001.4953 1001.5787 1001.5373 1001.8089 1001.8163 1001.8204 1001.8328 1001.882 1001.9985 1002.0951 1002.061 1003.1542 1003.14 1003.1208 1003.1124 1003.1452 1003.237 1003.3087 1003.2839 1005.7333 1005.6902 1005.6419 1005.6066 1005.6007 1005.6067 1005.6174 1005.5973 1008.9442 1008.8698 1008.7908 1008.7207 1008.6443 1008.5222 1008.4885 1008.4702 1011.2586 1011.1571 1011.0518 1010.9473 1010.8011 1010.5919 1010.5527 1010.5532 1012.1632 1012.0419 1011.9196 1011.7933 1011.6121 1011.3704 1011.3793 1011.4112 1012.2501 1012.1187 1011.9913 1011.8631 1011.6872 1011.4868 1011.5655 1011.602 1012.137 1012.0043 1011.8847 1011.7773 1011.6465 1011.5162 1011.6398 1011.6634 1012.1104 1011.9825 1011.8743 1011.7897 1011.7014 1011.6276 1011.7816 1011.7887 1012.2145 1012.0936 1011.9962 1011.9283 1011.867 1011.8259 1011.9921 1011.9886 1012.395 1012.2806 1012.1903 1012.1307 1012.0792 1012.0472 1012.2124 1012.2039 1012.5789 1012.4689 1012.3812 1012.322 1012.2659 1012.223 1012.3795 1012.3713 1012.5365 1012.4279 1012.3393 1012.2758 1012.2109 1012.1553 1012.3002 1012.2939 1012.2703 1012.1621 1012.0699 1011.9995 1011.9249 1011.8594 1011.9901 1011.9846 1011.8353 1011.7266 1011.6295 1011.5504 1011.4665 1011.3923 1011.5048 1011.4974 1011.2782 1011.17 1011.0682 1010.9796 1010.8878 1010.8054 1010.8945 1010.8796 1010.6249 1010.5194 1010.4141 1010.318 1010.2188 1010.1271 1010.1901 1010.1631 1009.8823 1009.7828 1009.6773 1009.5743 1009.4694 1009.3678 1009.4027 1009.3641 1009.0604 1008.9686 1008.865 1008.7576 1008.6462 1008.5385 1008.5479 1008.4977 1008.1826 1008.0977 1007.9965 1007.8873 1007.7697 1007.66 1007.6529 1007.5922 1007.2844 1007.2039 1007.1048 1006.9958 1006.8759 1006.7665 1006.7565 1006.6926 1006.4047 1006.3255 1006.2287 1006.1225 1006.0058 1005.9017 1005.8954 1005.8408 1005.5759 1005.4963 1005.4034 1005.304 1005.1964 1005.1029 1005.0922 1005.0285 1004.8203 1004.7408 1004.6561 1004.5692 1004.4734 1004.3843 1004.3453 1004.2304 1004.1483 1004.0729 1004.0014 1003.9322 1003.8522 1003.7658 1003.6857 1003.5007 1003.5624 1003.4968 1003.4442 1003.3948 1003.3292 1003.2536 1003.1347 1003.0633 1003.0142 1002.9828 1002.9481 1002.8885 1002.8123 1002.6718 1002.6514 1002.6233 1002.6065 1002.5656 1002.5017 1002.4109 1002.3272 1002.3143 1002.2855 1002.219 1002.1332 1002.0524 1002.078 1002.0491 1001.9819 1001.8861 1001.8047 1001.8539 1001.7816 1001.6761 1001.5891 1001.6025 1001.5071 1001.4122 1001.4305 1001.3762 1001.3382 1001.3099 
Mass 1 2975 float
0.40000001 0.40000001 0.40000001 0.40000001 0.40000001 0.40000001 0.40000001 0.40000001 0.40000001 0.40000001 0.40000001 0.40000001 0.40000001 0.40000001 0.40000001 0.40000001 0.40000001 0.40000001 0.40000001 0.40000001 0.40000001 0.40000001 0.40000001 0.40000001 0.40000001 0.40000001 0.40000001 0.40000001 0.40000001 0.40000001 0.40000001 0.40000001 0.40000001 0.40000001 0.40000001 0.40000001 0.40000001 0.40000001 0.40000001 0.40000001 0.40000001 0.40000001 0.40000001 0.40000001 0.40000001 0.40000001 0.40000001 0.40000001 0.40000001 0.40000001 0.40000001 0.40000001 0.40000001 0.40000001 0.40000001 0.40000001 0.40000001 0.40000001 0.40000001 0.40000001 0.40000001 0.40000001 0.40000001 0.40000001 0.40000001 0.40000001 0.40000001 0.40000001 0.40000001 0.40000001 0.40000001 0.40000001 0.40000001 0.40000001 0.40000001 0.40000001 0.40000001 0.40000001 0.40000001 0.40000001 0.40000001 0.40000001 0.40000001 0.40000001 0.40000001 0.40000001 0.40000001 0.40000001 0.40000001 0.40000001 0.40000001 0.40000001 0.40000001 0.40000001 0.40000001 0.40000001 0.40000001 0.40000001 0.40000001 0.40000001 0.40000001 0.40000001 0.40000001 0.40000001 0.40000001 0.40000001 0.40000001 0.40000001 0.40000001 0.40000001 0.40000001 0.40000001 0.40000001 0.40000001 0.40000001 0.40000001 0.40000001 0.40000001 0.40000001 0.40000001 0.40000001 0.40000001 0.40000001 0.40000001 0.40000001 0.40000001 0.40000001 0.40000001 0.40000001 0.40000001 0.40000001 0.40000001 0.40000001 0.40000001 0.40000001 0.40000001 0.40000001 0.40000001 0.40000001 0.40000001 0.40000001 0.40000001 0.40000001 0.40000001 0.40000001 0.40000001 0.40000001 0.40000001 0.40000001 0.40000001 0.40000001 0.40000001 0.40000001 0.40000001 0.40000001 0.40000001 0.40000001 0.40000001 0.40000001 0.40000001 0.40000001 0.40000001 0.40000001 0.40000001 0.40000001 0.40000001 0.40000001 0.40000001 0.40000001 0.40000001 0.40000001 0.40000001 0.40000001 0.40000001 0.40000001 0.40000001 0.40000001 0.40000001 0.40000001 0.40000001 0.40000001 0.40000001 0.40000001 0.40000001 0.40000001 0.40000001 0.40000001 0.40000001 0.40000001 0.40000001 0.40000001 0.40000001 0.40000001 0.40000001 0.40000001 0.40000001 0.40000001 0.40000001 0.40000001 0.40000001 0.40000001 0.40000001 0.40000001 0.40000001 0.40000001 0.40000001 0.40000001 0.40000001 0.40000001 0.40000001 0.40000001 0.40000001 0.40000001 0.40000001 0.40000001 0.40000001 0.40000001 0.40000001 0.40000001 0.40000001 0.40000001 0.40000001 0.40000001 0.40000001 0.40000001 0.40000001 0.40000001 0.40000001 0.40000001 0.40000001 0.40000001 0.40000001 0.40000001 0.40000001 0.40000001 0.40000001 0.40000001 0.40000001 0.40000001 0.40000001 0.40000001 0.40000001 0.40000001 0.40000001 0.40000001 0.40000001 0.40000001 0.40000001 0.40000001 0.40000001 0.40000001 0.40000001 0.40000001 0.40000001 0.40000001 0.40000001 0.40000001 0.40000001 0.40000001 0.40000001 0.40000001 0.40000001 0.40000001 0.40000001 0.40000001 0.40000001 0.40000001 0.40000001 0.40000001 0.40000001 0.40000001 0.40000001 0.40000001 0.40000001 0.40000001 0.40000001 0.40000001 0.40000001 0.40000001 0.40000001 0.40000001 0.40000001 0.40000001 0.40000001 0.40000001 0.40000001 0.40000001 0.40000001 0.40000001 0.40000001 0.40000001 0.40000001 0.40000001 0.40000001 0.40000001 0.40000001 0.40000001 0.40000001 0.40000001 0.40000001 0.40000001 0.40000001 0.40000001 0.40000001 0.40000001 0.40000001 0.40000001 0.40000001 0.40000001 0.40000001 0.40000001 0.40000001 0.40000001 0.40000001 0.40000001 0.40000001 0.40000001 0.40000001 0.40000001 0.40000001 0.40000001 0.40000001 0.40000001 0.40000001 0.40000001 0.40000001 0.40000001 0.40000001 0.40000001 0.40000001 0.40000001 0.40000001 0.40000001 0.40000001 0.40000001 0.40000001 0.40000001 0.40000001 0.40000001 0.40000001 0.40000001 0.40000001 0.40000001 0.40000001 0.40000001 0.40000001 0.40000001 0.40000001 0.40000001 0.40000001 0.40000001 0.40000001 0.40000001 0.40000001 0.40000001 0.40000001 0.40000001 0.40000001 0.40000001 0.40000001 0.40000001 0.40000001 0.40000001 0.40000001 0.40000001 0.40000001 0.40000001 0.40000001 0.40000001 0.40000001 0.40000001 0.40000001 0.40000001 0.40000001 0.40000001 0.40000001 0.40000001 0.40000001 0.40000001 0.40000001 0.40000001 0.40000001 0.40000001 0.40000001 0.40000001 0.40000001 0.40000001 0.40000001 0.40000001 0.40000001 0.40000001 0.40000001 0.40000001 0.40000001 0.40000001 0.40000001 0.40000001 0.40000001 0.40000001 0.40000001 0.40000001 0.40000001 0.40000001 0.40000001 0.40000001 0.40000001 0.40000001 0.40000001 0.40000001 0.40000001 0.40000001 0.40000001 0.40000001 0.40000001 0.40000001 0.40000001 0.40000001 0.40000001 0.40000001 0.40000001 0.40000001 0.40000001 0.40000001 0.40000001 0.40000001 0.40000001 0.40000001 0.40000001 0.40000001 0.40000001 0.40000001 0.40000001 0.40000001 0.40000001 0.40000001 0.40000001 0.40000001 0.40000001 0.40000001 0.40000001 0.40000001 0.40000001 0.40000001 0.40000001 0.40000001 0.40000001 0.40000001 0.40000001 0.40000001 0.40000001 0.40000001 0.40000001 0.40000001 0.40000001 0.40000001 0.40000001 0.40000001 0.40000001 0.40000001 0.40000001 0.40000001 0.40000001 0.40000001 0.40000001 0.40000001 0.40000001 0.40000001 0.40000001 0.40000001 0.40000001 0.40000001 0.40000001 0.40000001 0.40000001 0.40000001 0.40000001 0.40000001 0.40000001 0.40000001 0.40000001 0.40000001 0.40000001 0.40000001 0.40000001 0.40000001 0.40000001 0.40000001 0.40000001 0.40000001 0.40000001 0.40000001 0.40000001 0.40000001 0.40000001 0.40000001 0.40000001 0.40000001 0.40000001 0.40000001 0.40000001 0.40000001 0.40000001 0.40000001 0.40000001 0.40000001 0.40000001 0.40000001 0.40000001 0.40000001 0.40000001 0.40000001 0.40000001 0.40000001 0.40000001 0.40000001 0.40000001 0.40000001 0.40000001 0.40000001 0.40000001 0.40000001 0.40000001 0.40000001 0.40000001 0.40000001 0.40000001 0.40000001 0.40000001 0.40000001 0.40000001 0.40000001 0.40000001 0.40000001 0.40000001 0.40000001 0.40000001 0.40000001 0.40000001 0.40000001 0.40000001 0.40000001 0.40000001 0.40000001 0.40000001 0.40000001 0.40000001 0.40000001 0.40000001 0.40000001 0.40000001 0.40000001 0.40000001 0.40000001 0.40000001 0.40000001 0.40000001 0.40000001 0.40000001 0.40000001 0.40000001 0.40000001 0.40000001 0.40000001 0.40000001 0.40000001 0.40000001 0.40000001 0.40000001 0.40000001 0.40000001 0.40000001 0.40000001 0.40000001 0.40000001 0.40000001 0.40000001 0.40000001 0.40000001 0.40000001 0.40000001 0.40000001 0.40000001 0.40000001 0.40000001 0.40000001 0.40000001 0.40000001 0.40000001 0.40000001 0.40000001 0.40000001 0.40000001 0.40000001 0.40000001 0.40000001 0.40000001 0.40000001 0.40000001 0.40000001 0.40000001 0.40000001 0.40000001 0.40000001 0.40000001 0.40000001 0.40000001 0.40000001 0.40000001 0.40000001 0.40000001 0.40000001 0.40000001 0.40000001 0.40000001 0.40000001 0.40000001 0.40000001 0.40000001 0.40000001 0.40000001 0.40000001 0.40000001 0.40000001 0.40000001 0.40000001 0.40000001 0.40000001 0.40000001 0.40000001 0.40000001 0.40000001 0.40000001 0.40000001 0.40000001 0.40000001 0.40000001 0.40000001 0.40000001 0.40000001 0.40000001 0.40000001 0.40000001 0.40000001 0.40000001 0.40000001 0.40000001 0.40000001 0.40000001 0.40000001 0.40000001 0.40000001 0.40000001 0.40000001 0.40000001 0.40000001 0.40000001 0.40000001 0.40000001 0.40000001 0.40000001 0.40000001 0.40000001 0.40000001 0.40000001 0.40000001 0.40000001 0.40000001 0.40000001 0.40000001 0.40000001 0.40000001 0.40000001 0.40000001 0.40000001 0.40000001 0.40000001 0.40000001 0.40000001 0.40000001 0.40000001 0.40000001 0.40000001 0.40000001 0.40000001 0.40000001 0.40000001 0.40000001 0.40000001 0.40000001 0.40000001 0.40000001 0.40000001 0.40000001 0.40000001 0.40000001 0.40000001 0.40000001 0.40000001 0.40000001 0.40000001 0.40000001 0.40000001 0.40000001 0.40000001 0.40000001 0.40000001 0.40000001 0.40000001 0.40000001 0.40000001 0.40000001 0.40000001 0.40000001 0.40000001 0.40000001 0.40000001 0.40000001 0.40000001 0.40000001 0.40000001 0.40000001 0.40000001 0.40000001 0.40000001 0.40000001 0.40000001 0.40000001 0.40000001 0.40000001 0.40000001 0.40000001 0.40000001 0.40000001 0.40000001 0.40000001 0.40000001 0.40000001 0.40000001 0.40000001 0.40000001 0.40000001 0.40000001 0.40000001 0.40000001 0.40000001 0.40000001 0.40000001 0.40000001 0.40000001 0.40000001 0.40000001 0.40000001 0.40000001 0.40000001 0.40000001 0.40000001 0.40000001 0.40000001 0.40000001 0.40000001 0.40000001 0.40000001 0.40000001 0.40000001 0.40000001 0.40000001 0.40000001 0.40000001 0.40000001 0.40000001 0.40000001 0.40000001 0.40000001 0.40000001 0.40000001 0.40000001 0.40000001 0.40000001 0.40000001 0.40000001 0.40000001 0.40000001 0.40000001 0.40000001 0.40000001 0.40000001 0.40000001 0.40000001 0.40000001 0.40000001 0.40000001 0.40000001 0.40000001 0.40000001 0.40000001 0.40000001 0.40000001 0.40000001 0.40000001 0.40000001 0.40000001 0.40000001 0.40000001 0.40000001 0.40000001 0.40000001 0.40000001 0.40000001 0.40000001 0.40000001 0.40000001 0.40000001 0.40000001 0.40000001 0.40000001 0.40000001 0.40000001 0.40000001 0.40000001 0.40000001 0.40000001 0.40000001 0.40000001 0.40000001 0.40000001 0.40000001 0.40000001 0.40000001 0.40000001 0.40000001 0.40000001 0.40000001 0.40000001 0.40000001 0.40000001 0.40000001 0.40000001 0.40000001 0.40000001 0.40000001 0.40000001 0.40000001 0.40000001 0.40000001 0.40000001 0.40000001 0.40000001 0.40000001 0.40000001 0.40000001 0.40000001 0.40000001 0.40000001 0.40000001 0.40000001 0.40000001 0.40000001 0.40000001 0.40000001 0.40000001 0.40000001 0.40000001 0.40000001 0.40000001 0.40000001 0.40000001 0.40000001 0.40000001 0.40000001 0.40000001 0.40000001 0.40000001 0.40000001 0.40000001 0.40000001 0.40000001 0.40000001 0.40000001 0.40000001 0.40000001 0.40000001 0.40000001 0.40000001 0.40000001 0.40000001 0.40000001 0.40000001 0.40000001 0.40000001 0.40000001 0.40000001 0.40000001 0.40000001 0.40000001 0.40000001 0.40000001 0.40000001 0.40000001 0.40000001 0.40000001 0.40000001 0.40000001 0.40000001 0.40000001 0.40000001 0.40000001 0.40000001 0.40000001 0.40000001 0.40000001 0.40000001 0.40000001 0.40000001 0.40000001 0.40000001 0.40000001 0.40000001 0.40000001 0.40000001 0.40000001 0.40000001 0.40000001 0.40000001 0.40000001 0.40000001 0.40000001 0.40000001 0.40000001 0.40000001 0.40000001 0.40000001 0.40000001 0.40000001 0.40000001 0.40000001 0.40000001 0.40000001 0.40000001 0.40000001 0.40000001 0.40000001 0.40000001 0.40000001 0.40000001 0.40000001 0.40000001 0.40000001 0.40000001 0.40000001 0.40000001 0.40000001 0.40000001 0.40000001 0.40000001 0.40000001 0.40000001 0.40000001 0.40000001 0.40000001 0.40000001 0.40000001 0.40000001 0.40000001 0.40000001 0.40000001 0.40000001 0.40000001 0.40000001 0.40000001 0.40000001 0.40000001 0.40000001 0.40000001 0.40000001 0.40000001 0.40000001 0.40000001 0.40000001 0.40000001 0.40000001 0.40000001 0.40000001 0.40000001 0.40000001 0.40000001 0.40000001 0.40000001 0.40000001 0.40000001 0.40000001 0.40000001 0.40000001 0.40000001 0.40000001 0.40000001 0.40000001 0.40000001 0.40000001 0.40000001 0.40000001 0.40000001 0.40000001 0.40000001 0.40000001 0.40000001 0.40000001 0.40000001 0.40000001 0.40000001 0.40000001 0.40000001 0.40000001 0.40000001 0.40000001 0.40000001 0.40000001 0.40000001 0.40000001 0.40000001 0.40000001 0.40000001 0.40000001 0.40000001 0.40000001 0.40000001 0.40000001 0.40000001 0.40000001 0.40000001 0.40000001 0.40000001 0.40000001 0.40000001 0.40000001 0.40000001 0.40000001 0.40000001 0.40000001 0.40000001 0.40000001 0.40000001 0.40000001 0.40000001 0.40000001 0.40000001 0.40000001 0.40000001 0.40000001 0.40000001 0.40000001 0.40000001 0.40000001 0.40000001 0.40000001 0.40000001 0.40000001 0.40000001 0.40000001 0.40000001 0.40000001 0.40000001 0.40000001 0.40000001 0.40000001 0.40000001 0.40000001 0.40000001 0.40000001 0.40000001 0.40000001 0.40000001 0.40000001 0.40000001 0.40000001 0.40000001 0.40000001 0.40000001 0.40000001 0.40000001 0.40000001 0.40000001 0.40000001 0.40000001 0.40000001 0.40000001 0.40000001 0.40000001 0.40000001 0.40000001 0.40000001 0.40000001 0.40000001 0.40000001 0.40000001 0.40000001 0.40000001 0.40000001 0.40000001 0.40000001 0.40000001 0.40000001 0.40000001 0.40000001 0.40000001 0.40000001 0.40000001 0.40000001 0.40000001 0.40000001 0.40000001 0.40000001 0.40000001 0.40000001 0.40000001 0.40000001 0.40000001 0.40000001 0.40000001 0.40000001 0.40000001 0.40000001 0.40000001 0.40000001 0.40000001 0.40000001 0.40000001 0.40000001 0.40000001 0.40000001 0.40000001 0.40000001 0.40000001 0.40000001 0.40000001 0.40000001 0.40000001 0.40000001 0.40000001 0.40000001 0.40000001 0.40000001 0.40000001 0.40000001 0.40000001 0.40000001 0.40000001 0.40000001 0.40000001 0.40000001 0.40000001 0.40000001 0.40000001 0.40000001 0.40000001 0.40000001 0.40000001 0.40000001 0.40000001 0.40000001 0.40000001 0.40000001 0.40000001 0.40000001 0.40000001 0.40000001 0.40000001 0.40000001 0.40000001 0.40000048 0.40000054 0.40000054 0.40000045 0.40000054 0.40000057 0.40000147 0.40000144 0.40000156 0.40000144 0.40000147 0.40000144 0.40000346 0.40000352 0.40000349 0.40000352 0.40000343 0.40000355 0.4000096 0.4000096 0.40000954 0.40000966 0.40000966 0.4000096 0.40002584 0.40002584 0.40002584 0.4000259 0.40002593 0.4000259 0.40006953 0.40006959 0.4000695 0.40006962 0.40006971 0.40006956 0.40018556 0.40018567 0.4001857 0.40018567 0.40018567 0.40018579 0.40048024 0.40048048 0.40048054 0.40048069 0.40048081 0.40048075 0.40115541 0.40115574 0.40115607 0.40115625 0.40115643 0.40115643 0.40239418 0.40239483 0.4023951 0.40239534 0.40239561 0.40239564 0.40395498 0.40395561 0.4039557 0.40395573 0.40395573 0.40395588 0.40520364 0.40520418 0.40520385 0.40520334 0.40520298 0.40520284 0.40588814 0.40588844 0.40588799 0.40588734 0.40588671 0.40588623 0.40618768 0.4061881 0.40618771 0.40618676 0.40618622 0.40618578 0.40630543 0.40630585 0.40630573 0.40630496 0.40630436 0.40630382 0.40634957 0.40635008 0.40635005 0.40634939 0.40634894 0.40634835 0.40636551 0.40636614 0.40636611 0.40636548 0.40636501 0.40636447 0.40637013 0.40637076 0.4063707 0.40637007 0.40636975 0.40636912 0.40636221 0.4063628 0.40636277 0.4063623 0.40636173 0.40636128 0.40625915 0.40625972 0.40625957 0.406259 0.40625858 0.40625808 0.40605634 0.40605688 0.40605676 0.40605626 0.40605578 0.40605536 0.40576556 0.40576592 0.40576583 0.40576535 0.40576488 0.40576443 0.40540239 0.40540275 0.40540263 0.40540212 0.40540174 0.40540147 0.40498576 0.40498596 0.40498582 0.40498549 0.40498504 0.40498477 0.40453541 0.40453565 0.4045355 0.40453511 0.40453488 0.40453467 0.40407127 0.40407136 0.40407136 0.40407097 0.40407079 0.40407065 0.40361118 0.40361112 0.40361103 0.40361086 0.4036108 0.40361053 0.40317005 0.4031702 0.40316996 0.40316984 0.40316981 0.40316963 0.40275985 0.40276009 0.40276021 0.40276006 0.40275994 0.40275994 0.40238932 0.4023895 0.40238956 0.40238962 0.40238953 0.4023895 0.40206307 0.40206319 0.40206313 0.40206325 0.40206331 0.40206322 0.40178284 0.40178302 0.4017829 0.40178302 0.40178299 0.40178311 0.40154797 0.40154791 0.401548 0.40154806 0.40154806 0.40135518 0.40135521 0.4013553 0.40135524 0.40135533 0.40120077 0.40120062 0.40120074 0.40120068 0.40107942 0.40107945 0.40107942 0.40107957 0.40098628 0.40098628 0.40098637 0.40091622 0.40091622 0.40086451 0.40086463 0.40000001 0.40000001 0.40000001 0.40000001 0.40000001 0.40000001 0.40000001 0.40000001 0.40000001 0.40000001 0.40000001 0.40000001 0.40000001 0.40000001 0.40000001 0.40000001 0.40000001 0.40000001 0.40000001 0.40000001 0.40000001 0.40000001 0.40000001 0.40000001 0.40000001 0.40000001 0.40000001 0.40000001 0.40000001 0.40000001 0.40000001 0.40000001 0.40000001 0.40000001 0.40000001 0.40000001 0.40000001 0.40000001 0.40000001 0.40000001 0.40000001 0.40000001 0.40000001 0.40000001 0.40000001 0.40000001 0.40000001 0.40000001 0.40000001 0.40000001 0.40000001 0.40000001 0.40000001 0.40000001 0.40000001 0.40000001 0.40000001 0.40000001 0.40000001 0.40000001 0.40000001 0.40000001 0.40000001 0.40000001 0.40000001 0.40000001 0.40000001 0.40000001 0.40000001 0.40000001 0.40000001 0.40000001 0.40000001 0.40000001 0.40000001 0.40000001 0.40000001 0.40000001 0.40000001 0.40000001 0.40000001 0.40000001 0.40000001 0.40000001 0.40000001 0.40000001 0.40000001 0.40000001 0.40000001 0.40000001 0.40000001 0.40000001 0.40000001 0.40000001 0.40000001 0.40000001 0.40000001 0.40000001 0.40000001 0.40000001 0.40000001 0.40000001 0.40000001 0.40000001 0.40000001 0.40000001 0.40000001 0.40000001 0.40000001 0.40000001 0.40000001 0.40000001 0.40000001 0.40000001 0.40000001 0.40000001 0.40000001 0.40000001 0.40000001 0.40000001 0.40000001 0.40000001 0.40000001 0.40000001 0.40000001 0.40000001 0.40000001 0.40000001 0.40000001 0.40000001 0.40000001 0.40000001 0.40000001 0.40000001 0.40000001 0.40000001 0.40000001 0.40000001 0.40000001 0.40000001 0.40000001 0.40000001 0.40000001 0.40000001 0.40000001 0.40000001 0.40000001 0.40000001 0.40000001 0.40000001 0.40000001 0.40000001 0.40000001 0.40000001 0.40000001 0.40000001 0.40000001 0.40000001 0.40000001 0.40000001 0.40000001 0.40000001 0.40000001 0.40000001 0.40000001 0.40000001 0.40000001 0.40000001 0.40000001 0.40000001 0.40000001 0.40000001 0.40000001 0.40000001 0.40000001 0.40000001 0.40000001 0.40000001 0.40000001 0.40000001 0.40000001 0.40000001 0.40000001 0.40000001 0.40000001 0.40000001 0.40000001 0.40000001 0.40000001 0.40000001 0.40000001 0.40000001 0.40000001 0.40000001 0.40000001 0.40000001 0.40000001 0.40000001 0.40000001 0.40000001 0.40000001 0.40000001 0.40000001 0.40000001 0.40000001 0.40000001 0.40000001 0.40000051 0.40000048 0.4000006 0.40000054 0.40000048 0.40000048 0.40000045 0.40000045 0.40000048 0.40000159 0.40000156 0.40000153 0.40000147 0.40000156 0.40000147 0.40000156 0.40000153 0.40000147 0.40000346 0.40000343 0.40000346 0.40000346 0.40000349 0.40000337 0.4000034 0.40000349 0.40000352 0.4000096 0.40000978 0.40000966 0.40000966 0.40000963 0.4000096 0.40000975 0.40000969 0.4000096 0.40002573 0.4000259 0.40002573 0.40002581 0.40002584 0.40002587 0.4000259 0.4000259 0.40002584 0.40006962 0.40006959 0.40006959 0.40006971 0.40006968 0.40006959 0.40006971 0.40006974 0.40006974 0.40018579 0.40018576 0.40018576 0.40018576 0.40018579 0.40018576 0.40018582 0.40018588 0.40018579 0.40048069 0.40048087 0.40048087 0.40048078 0.40048087 0.40048096 0.4004811 0.40048096 0.40048105 0.40115643 0.40115663 0.40115684 0.40115675 0.40115684 0.40115678 0.40115684 0.4011569 0.40115684 0.40239584 0.40239593 0.40239602 0.40239605 0.4023962 0.40239626 0.40239617 0.40239626 0.40239623 0.4039557 0.40395585 0.40395585 0.40395579 0.40395579 0.40395582 0.40395582 0.40395585 0.40395585 0.40520254 0.40520242 0.40520227 0.40520206 0.40520197 0.40520182 0.40520182 0.40520164 0.40520161 0.40588588 0.40588531 0.40588507 0.40588477 0.40588447 0.40588439 0.40588421 0.40588418 0.405884 0.40618521 0.40618461 0.40618432 0.40618384 0.40618348 0.40618333 0.40618303 0.40618289 0.40618286 0.40630314 0.40630269 0.40630203 0.40630171 0.40630138 0.40630102 0.40630075 0.40630057 0.40630054 0.40634763 0.4063471 0.40634659 0.40634617 0.40634573 0.40634549 0.40634516 0.40634504 0.40634498 0.40636382 0.40636331 0.40636277 0.4063623 0.406362 0.40636161 0.40636137 0.40636125 0.4063611 0.40636852 0.40636796 0.40636739 0.40636694 0.40636659 0.40636635 0.40636611 0.40636587 0.40636566 0.40636072 0.40636003 0.40635958 0.40635914 0.40635872 0.40635845 0.40635824 0.40635803 0.40635791 0.40625763 0.406257 0.40625647 0.40625614 0.40625572 0.40625551 0.40625519 0.40625504 0.40625489 0.40605488 0.40605423 0.40605378 0.40605348 0.40605322 0.40605289 0.40605271 0.40605253 0.40605244 0.40576404 0.40576348 0.40576324 0.40576288 0.40576252 0.4057624 0.40576223 0.40576208 0.4057619 0.40540105 0.40540057 0.40540037 0.4054001 0.40539971 0.40539956 0.4053995 0.40539929 0.40539932 0.40498438 0.40498421 0.40498388 0.40498361 0.40498343 0.40498328 0.40498313 0.40498307 0.40498295 0.40453431 0.40453413 0.40453389 0.40453374 0.40453357 0.40453351 0.40453342 0.40453333 0.40453333 0.40407047 0.40407014 0.40407008 0.4040699 0.40406984 0.40406972 0.40406969 0.40406972 0.40406951 0.40361044 0.40361026 0.4036102 0.40361011 0.40361002 0.40361005 0.40360987 0.40360981 0.40360987 0.40316951 0.40316951 0.40316927 0.40316924 0.4031693 0.40316921 0.40316918 0.40316918 0.40316921 0.40275991 0.4027597 0.40275967 0.40275964 0.40275958 0.40275967 0.40275958 0.40275955 0.40275955 0.40238947 0.40238935 0.4023892 0.40238923 0.4023892 0.40238917 0.4023892 0.40238911 0.4023892 0.40206316 0.40206316 0.4020631 0.4020631 0.40206301 0.40206307 0.4020631 0.40206301 0.40206298 0.40178311 0.40178311 0.40178314 0.40178311 0.40178296 0.40178302 0.40178296 0.40178305 0.40178293 0.40154797 0.40154809 0.40154809 0.40154794 0.40154788 0.40154794 0.40154794 0.40154794 0.40154794 0.40135533 0.40135545 0.40135536 0.40135542 0.40135536 0.40135533 0.40135545 0.40135533 0.4013553 0.40120086 0.40120077 0.40120086 0.4012008 0.40120068 0.40120077 0.4012008 0.40120074 0.40120065 0.40107954 0.4010796 0.40107971 0.40107954 0.40107945 0.40107954 0.40107945 0.40107951 0.40107948 0.40098637 0.40098622 0.4009864 0.40098637 0.40098625 0.40098631 0.40098625 0.40098628 0.40098628 0.40091622 0.40091622 0.40091625 0.40091625 0.40091625 0.40091619 0.40091628 0.40091619 0.40091622 0.4008646 0.40086457 0.40086448 0.40086454 0.40086463 0.40086451 0.40086451 0.40086451 0.40086448 0.40082735 0.4008272 0.40082729 0.40082729 0.40082732 0.40082726 0.40082717 0.40082717 0.40082723 0.400801 0.40080091 0.40080085 0.40080091 0.40080082 0.40080091 0.40080091 0.40080085 0.40078264 0.40078259 0.4007825 0.40078256 0.40078256 0.40078253 0.40077001 0.4007701 0.40077016 0.4007701 0.40000001 0.40000001 0.40000001 0.40000001 0.40000001 0.40000001 0.40000001 0.40000001 0.40000001 0.40000001 0.40000001 0.40000001 0.40000001 0.40000001 0.40000001 0.40000001 0.40000001 0.40000001 0.40000001 0.40000001 0.40000001 0.40000001 0.40000001 0.40000001 0.40000001 0.40000001 0.40000001 0.40000001 0.40000001 0.40000001 0.40000001 0.40000001 0.40000001 0.40000001 0.40000001 0.40000001 0.40000001 0.40000001 0.40000001 0.40000001 0.40000001 0.40000001 0.40000001 0.40000001 0.40000001 0.40000001 0.40000001 0.40000001 0.40000001 0.40000001 0.40000001 0.40000001 0.40000001 0.40000001 0.40000001 0.40000001 0.40000001 0.40000001 0.40000001 0.40000001 0.40000001 0.40000001 0.40000001 0.40000001 0.40000001 0.40000001 0.40000001 0.40000001 0.40000001 0.40000001 0.40000001 0.40000001 0.40000001 0.40000001 0.40000001 0.40000001 0.40000001 0.40000001 0.40000001 0.40000001 0.40000001 0.40000001 0.40000001 0.40000001 0.40000001 0.40000001 0.40000001 0.40000001 0.40000001 0.40000001 0.40000001 0.40000001 0.40000001 0.40000001 0.40000001 0.40000001 0.40000001 0.40000001 0.40000001 0.40000001 0.40000001 0.40000001 0.40000001 0.40000001 0.40000001 0.40000001 0.40000001 0.40000001 0.40000001 0.40000001 0.40000001 0.40000001 0.40000001 0.40000001 0.40000001 0.40000001 0.40000001 0.40000001 0.40000001 0.40000001 0.40000001 0.40000001 0.40000001 0.40000001 0.40000001 0.40000001 0.40000001 0.40000001 0.40000001 0.40000001 0.40000001 0.40000001 0.40000001 0.40000001 0.40000001 0.40000001 0.40000001 0.40000001 0.40000001 0.40000001 0.40000001 0.40000001 0.40000001 0.40000001 0.40000001 0.40000001 0.40000001 0.40000001 0.40000001 0.40000001 0.40000001 0.40000001 0.40000001 0.40000001 0.40000001 0.40000001 0.40000001 0.40000001 0.40000001 0.40000001 0.40000001 0.40000001 0.40000001 0.40000001 0.40000001 0.40000001 0.40000001 0.40000001 0.40000001 0.40000001 0.40000001 0.40000001 0.40000001 0.40000001 0.40000001 0.40000001 0.40000001 0.40000001 0.40000001 0.40000001 0.40000001 0.40000001 0.40000001 0.40000001 0.40000054 0.40000048 0.40000045 0.40000045 0.40000048 0.40000048 0.40000054 0.4000006 0.40000153 0.40000147 0.40000153 0.40000156 0.40000147 0.40000156 0.40000147 0.40000153 0.40000355 0.40000352 0.40000349 0.4000034 0.40000337 0.40000349 0.40000346 0.40000346 0.40000963 0.4000096 0.40000969 0.40000975 0.4000096 0.40000963 0.40000966 0.40000966 0.40002596 0.40002584 0.4000259 0.4000259 0.40002587 0.40002584 0.40002581 0.40002573 0.40006965 0.40006974 0.40006974 0.40006971 0.40006959 0.40006968 0.40006971 0.40006959 0.40018588 0.40018579 0.40018588 0.40018582 0.40018576 0.40018579 0.40018576 0.40018576 0.40048099 0.40048105 0.40048096 0.4004811 0.40048096 0.40048087 0.40048078 0.40048087 0.40115681 0.40115684 0.4011569 0.40115684 0.40115678 0.40115684 0.40115675 0.40115684 0.40239635 0.40239623 0.40239626 0.40239617 0.40239626 0.4023962 0.40239605 0.40239602 0.40395585 0.40395585 0.40395585 0.40395582 0.40395582 0.40395579 0.40395579 0.40395585 0.40520176 0.40520161 0.40520164 0.40520182 0.40520182 0.40520197 0.40520206 0.40520227 0.405884 0.405884 0.40588418 0.40588421 0.40588439 0.40588447 0.40588477 0.40588507 0.4061828 0.40618286 0.40618289 0.40618303 0.40618333 0.40618348 0.40618384 0.40618432 0.4063004 0.40630054 0.40630057 0.40630075 0.40630102 0.40630138 0.40630171 0.40630203 0.40634474 0.40634498 0.40634504 0.40634516 0.40634549 0.40634573 0.40634617 0.40634659 0.40636104 0.4063611 0.40636125 0.40636137 0.40636161 0.406362 0.4063623 0.40636277 0.40636563 0.40636566 0.40636587 0.40636611 0.40636635 0.40636659 0.40636694 0.40636739 0.4063578 0.40635791 0.40635803 0.40635824 0.40635845 0.40635872 0.40635914 0.40635958 0.4062548 0.40625489 0.40625504 0.40625519 0.40625551 0.40625572 0.40625614 0.40625647 0.4060525 0.40605244 0.40605253 0.40605271 0.40605289 0.40605322 0.40605348 0.40605378 0.4057619 0.4057619 0.40576208 0.40576223 0.4057624 0.40576252 0.40576288 0.40576324 0.40539935 0.40539932 0.40539929 0.4053995 0.40539956 0.40539971 0.4054001 0.40540037 0.40498298 0.40498295 0.40498307 0.40498313 0.40498328 0.40498343 0.40498361 0.40498388 0.40453324 0.40453333 0.40453333 0.40453342 0.40453351 0.40453357 0.40453374 0.40453389 0.4040696 0.40406951 0.40406972 0.40406969 0.40406972 0.40406984 0.4040699 0.40407008 0.40360984 0.40360987 0.40360981 0.40360987 0.40361005 0.40361002 0.40361011 0.4036102 0.40316921 0.40316921 0.40316918 0.40316918 0.40316921 0.4031693 0.40316924 0.40316927 0.40275949 0.40275955 0.40275955 0.40275958 0.40275967 0.40275958 0.40275964 0.40275967 0.40238917 0.4023892 0.40238911 0.4023892 0.40238917 0.4023892 0.40238923 0.4023892 0.40206295 0.40206298 0.40206301 0.4020631 0.40206307 0.40206301 0.4020631 0.4020631 0.40178302 0.40178293 0.40178305 0.40178296 0.40178302 0.40178296 0.40178311 0.40178314 0.40154782 0.40154794 0.40154794 0.40154794 0.40154794 0.40154788 0.40154794 0.40154809 0.40135527 0.4013553 0.40135533 0.40135545 0.40135533 0.40135536 0.40135542 0.40135536 0.40120077 0.40120065 0.40120074 0.4012008 0.40120077 0.40120068 0.4012008 0.40120086 0.40107951 0.40107948 0.40107951 0.40107945 0.40107954 0.40107945 0.40107954 0.40107971 0.40098622 0.40098628 0.40098628 0.40098625 0.40098631 0.40098625 0.40098637 0.4009864 0.40091616 0.40091622 0.40091619 0.40091628 0.40091619 0.40091625 0.40091625 0.40091625 0.40086445 0.40086448 0.40086451 0.40086451 0.40086451 0.40086463 0.40086454 0.40086448 0.40082729 0.40082723 0.40082717 0.40082717 0.40082726 0.40082732 0.40082729 0.40082729 0.40080088 0.40080085 0.40080091 0.40080091 0.40080082 0.40080091 0.40080085 0.40080091 0.40078259 0.40078253 0.40078256 0.40078256 0.4007825 0.40078259 0.40078264 0.4007701 0.4007701 0.40077016 0.4007701 0.40077001 0.40000001 0.40000001 0.40000001 0.40000001 0.40000001 0.40000001 0.40000001 0.40000001 0.40000001 0.40000001 0.40000001 0.40000001 0.40000001 0.40000001 0.40000001 0.40000001 0.40000001 0.40000001 0.40000001 0.40000001 0.40000001 0.40000001 0.40000001 0.40000001 0.40000001 0.40000001 0.40000001 0.40000001 0.40000001 0.40000001 0.40000001 0.40000001 0.40000001 0.40000001 0.40000001 0.40000001 0.40000001 0.40000001 0.40000001 0.40000001 0.40000001 0.40000001 0.40000001 0.40000001 0.40000001 0.40000001 0.40000001 0.40000001 0.40000001 0.40000001 0.40000001 0.40000001 0.40000001 0.40000001 0.40000001 0.40000001 0.40000001 0.40000001 0.40000001 0.40000001 0.40000001 0.40000001 0.40000001 0.40000001 0.40000001 0.40000001 0.40000001 0.40000001 0.40000001 0.40000001 0.40000001 0.40000001 0.40000001 0.40000001 0.40000001 0.40000001 0.40000001 0.40000001 0.40000001 0.40000001 0.40000001 0.40000001 0.40000001 0.40000001 0.40000001 0.40000001 0.40000001 0.40000001 0.40000001 0.40000001 0.40000001 0.40000001 0.40000001 0.40000001 0.40000001 0.40000001 0.40000001 0.40000001 0.40000001 0.40000001 0.40000001 0.40000001 0.40000001 0.40000001 0.40000001 0.40000001 0.40000001 0.40000001 0.40000001 0.40000001 0.40000001 0.40000001 0.40000001 0.40000001 0.40000001 0.40000001 0.40000001 0.40000001 0.40000001 0.40000001 0.40000001 0.40000001 0.40000001 0.40000001 0.40000001 0.40000001 0.40000001 0.40000001 0.40000001 0.40000001 0.40000001 0.40000001 0.40000001 0.40000001 0.40000001 0.40000001 0.40000001 0.40000001 0.40000001 0.40000001 0.40000001 0.40000001 0.40000001 0.40000001 0.40000001 0.40000001 0.40000001 0.40000001 0.40000001 0.40000001 0.40000001 0.40000001 0.40000001 0.40000001 0.40000001 0.40000001 0.40000001 0.40000001 0.40000001 0.40000001 0.40000001 0.40000001 0.40000001 0.40000001 0.40000001 0.40000001 0.40000001 0.40000001 0.40000001 0.40000001 0.40000001 0.40000001 0.40000001 0.40000001 0.40000001 0.40000001 0.40000001 0.40000001 0.40000001 0.40000001 0.40000001 0.40000001 0.40000001 0.40000048 0.40000051 0.40000057 0.40000054 0.40000045 0.40000054 0.40000054 0.40000048 0.40000156 0.40000159 0.40000144 0.40000147 0.40000144 0.40000156 0.40000144 0.40000147 0.40000343 0.40000346 0.40000355 0.40000343 0.40000352 0.40000349 0.40000352 0.40000346 0.40000978 0.4000096 0.4000096 0.40000966 0.40000966 0.40000954 0.4000096 0.4000096 0.4000259 0.40002573 0.4000259 0.40002593 0.4000259 0.40002584 0.40002584 0.40002584 0.40006959 0.40006962 0.40006956 0.40006971 0.40006962 0.4000695 0.40006959 0.40006953 0.40018576 0.40018579 0.40018579 0.40018567 0.40018567 0.4001857 0.40018567 0.40018556 0.40048087 0.40048069 0.40048075 0.40048081 0.40048069 0.40048054 0.40048048 0.40048024 0.40115663 0.40115643 0.40115643 0.40115643 0.40115625 0.40115607 0.40115574 0.40115541 0.40239593 0.40239584 0.40239564 0.40239561 0.40239534 0.4023951 0.40239483 0.40239418 0.40395585 0.4039557 0.40395588 0.40395573 0.40395573 0.4039557 0.40395561 0.40395498 0.40520242 0.40520254 0.40520284 0.40520298 0.40520334 0.40520385 0.40520418 0.40520364 0.40588531 0.40588588 0.40588623 0.40588671 0.40588734 0.40588799 0.40588844 0.40588814 0.40618461 0.40618521 0.40618578 0.40618622 0.40618676 0.40618771 0.4061881 0.40618768 0.40630269 0.40630314 0.40630382 0.40630436 0.40630496 0.40630573 0.40630585 0.40630543 0.4063471 0.40634763 0.40634835 0.40634894 0.40634939 0.40635005 0.40635008 0.40634957 0.40636331 0.40636387 0.40636447 0.40636501 0.40636548 0.40636611 0.40636614 0.40636551 0.40636796 0.40636852 0.40636912 0.40636975 0.40637007 0.4063707 0.40637076 0.40637013 0.40636003 0.40636072 0.40636128 0.40636173 0.4063623 0.40636277 0.4063628 0.40636221 0.406257 0.40625763 0.40625808 0.40625858 0.406259 0.40625957 0.40625972 0.40625915 0.40605423 0.40605488 0.40605536 0.40605578 0.40605626 0.40605676 0.40605688 0.40605634 0.40576348 0.40576404 0.40576443 0.40576488 0.40576535 0.40576583 0.40576592 0.40576556 0.40540057 0.40540105 0.40540147 0.40540174 0.40540212 0.40540263 0.40540275 0.40540239 0.40498421 0.40498438 0.40498477 0.40498504 0.40498549 0.40498582 0.40498596 0.40498576 0.40453413 0.40453431 0.40453467 0.40453488 0.40453511 0.4045355 0.40453565 0.40453541 0.40407014 0.40407047 0.40407065 0.40407079 0.40407097 0.40407136 0.40407136 0.40407127 0.40361026 0.40361044 0.40361053 0.4036108 0.40361086 0.40361103 0.40361112 0.40361118 0.40316951 0.40316951 0.40316963 0.40316981 0.40316984 0.40316996 0.4031702 0.40317005 0.4027597 0.40275991 0.40275994 0.40275994 0.40276006 0.40276021 0.40276009 0.40275985 0.40238935 0.40238947 0.4023895 0.40238953 0.40238962 0.40238956 0.4023895 0.40238932 0.40206316 0.40206316 0.40206322 0.40206331 0.40206325 0.40206313 0.40206319 0.40206307 0.40178311 0.40178311 0.40178311 0.40178299 0.40178302 0.4017829 0.40178302 0.40178284 0.40154809 0.40154797 0.40154806 0.40154806 0.401548 0.40154791 0.40154797 0.40135545 0.40135533 0.40135533 0.40135524 0.4013553 0.40135521 0.40135518 0.40120077 0.40120086 0.40120068 0.40120074 0.40120062 0.40120077 0.4010796 0.40107954 0.40107957 0.40107942 0.40107945 0.40107942 0.40098622 0.40098637 0.40098637 0.40098628 0.40098628 0.40091622 0.40091622 0.40091622 0.40091622 0.40086457 0.4008646 0.40086463 0.40086451 0.4008272 0.40082735 0.400801 
Press 1 2975 float
0.0 0.0 0.0 0.0 0.0 0.0 0.0 0.0 0.0 0.0 0.0 0.0 0.0 0.0 0.0 0.0 0.0 0.0 0.0 0.0 0.0 0.0 0.09876262400000001 0.0 0.09876262400000001 0.29628786 0.09876262400000001 0.19752525 0.49381313 0.19752525 0.49381313 0.88886362 0.29628786 0.69133836 1.2839141 0.3950505 0.98762625 1.7777272000000002 0.59257573 1.2839141 2.3703029 0.69133836 1.6789646 2.9628787 0.88886362 2.0740151 3.6542169999999996 1.2839141 2.6665909 4.6418433 1.580202 3.5554544999999997 6.222045400000001 2.1727777 5.0368938 8.6911106 3.3579292 7.308433999999999 12.345328 5.3331819000000005 10.765125999999999 17.876036 15.999545000000001 25.085707 0.0 0.0 0.0 0.0 0.0 0.0 0.0 0.0 0.0 0.0 0.0 0.0 0.0 0.0 0.0 0.0 0.0 0.0 0.0 0.0 0.0 0.0 0.0 0.0 0.0 0.0 0.0 0.0 0.0 0.0 0.0 0.0 0.0 0.0 0.0 0.0 0.0 0.0 0.0 0.0 0.0 0.0 0.0 0.0 0.09876262400000001 0.09876262400000001 0.09876262400000001 0.19752525 0.0 0.09876262400000001 0.19752525 0.29628786 0.3950505 0.3950505 0.49381313 0.49381313 0.19752525 0.3950505 0.49381313 0.69133836 0.88886362 1.0863888000000002 1.1851515 1.2839141 0.49381313 0.69133836 1.1851515 1.4814393999999997 1.7777272000000002 2.1727777 2.4690657000000003 2.5678282 0.88886362 1.2839141 1.9752525 2.5678282 3.160404 3.5554544999999997 3.950505 4.3455553 1.4814393999999997 2.2715403999999997 3.160404 3.8517422999999997 4.839368299999999 5.4319444 6.0245199000000005 6.4195704000000005 2.1727777 3.160404 4.1480303 2.9628787 4.1480303 3.5554544999999997 5.2344189000000005 4.543080799999999 6.4195704000000005 5.6294694000000005 7.999772500000001 7.1109089999999995 10.073788 9.5799742 13.234192000000002 13.234192000000002 17.974798 18.666135999999998 25.085707 26.468384000000004 34.961967 36.443409 47.406059 0.0 0.0 0.0 0.0 0.0 0.0 0.0 0.0 0.0 0.0 0.0 0.0 0.0 0.0 0.0 0.0 0.0 0.0 0.0 0.0 0.0 0.0 0.0 0.0 0.0 0.0 0.0 0.0 0.0 0.0 0.0 0.0 0.0 0.0 0.0 0.0 0.0 0.0 0.0 0.0 0.0 0.0 0.0 0.0 0.0 0.19752525 0.19752525 0.19752525 0.19752525 0.19752525 0.19752525 0.19752525 0.19752525 0.19752525 0.49381313 0.49381313 0.59257573 0.59257573 0.59257573 0.59257573 0.59257573 0.59257573 0.59257573 1.2839141 1.3826767 1.3826767 1.4814393999999997 1.4814393999999997 1.4814393999999997 1.4814393999999997 1.580202 1.580202 2.6665909 2.8641162000000002 2.8641162000000002 2.9628787 2.9628787 2.9628787 2.9628787 2.9628787 2.9628787 4.543080799999999 4.7406058 4.839368299999999 4.938131299999999 5.0368938 5.1356564 5.1356564 5.1356564 5.1356564 6.814621000000001 7.0121465 7.1109089999999995 7.2096715 7.308433999999999 7.407197 7.407197 7.407197 7.5059595 0.0 0.0 0.0 0.0 0.0 0.0 0.0 0.0 0.0 0.0 0.0 0.0 0.0 0.0 0.0 0.0 0.0 0.0 0.0 0.0 0.0 0.0 0.0 0.0 0.0 0.0 0.0 0.0 0.0 0.0 0.0 0.0 0.0 0.0 0.0 0.0 0.0 0.0 0.0 0.0 0.19752525 0.19752525 0.19752525 0.19752525 0.19752525 0.19752525 0.19752525 0.19752525 0.59257573 0.59257573 0.59257573 0.59257573 0.59257573 0.59257573 0.59257573 0.59257573 1.580202 1.580202 1.580202 1.4814393999999997 1.4814393999999997 1.4814393999999997 1.4814393999999997 1.3826767 2.9628787 2.9628787 2.9628787 2.9628787 2.9628787 2.9628787 2.9628787 2.8641162000000002 5.1356564 5.1356564 5.1356564 5.1356564 5.1356564 5.0368938 4.938131299999999 4.839368299999999 7.5059595 7.5059595 7.407197 7.407197 7.407197 7.308433999999999 7.2096715 7.1109089999999995 0.0 0.0 0.0 0.0 0.0 0.0 0.0 0.0 0.0 0.0 0.0 0.0 0.0 0.0 0.0 0.0 0.0 0.0 0.0 0.0 0.0 0.0 0.0 0.0 0.0 0.0 0.0 0.0 0.0 0.0 0.0 0.0 0.0 0.0 0.0 0.0 0.0 0.0 0.0 0.0 0.0 0.0 0.0 0.0 0.0 0.19752525 0.19752525 0.19752525 0.09876262400000001 0.09876262400000001 0.09876262400000001 0.0 0.0 0.0 0.49381313 0.49381313 0.49381313 0.49381313 0.3950505 0.3950505 0.29628786 0.19752525 0.09876262400000001 1.3826767 1.2839141 1.2839141 1.1851515 1.0863888000000002 0.88886362 0.69133836 0.49381313 0.3950505 2.8641162000000002 2.6665909 2.5678282 2.4690657000000003 2.1727777 1.7777272000000002 1.4814393999999997 1.1851515 0.69133836 4.7406058 4.543080799999999 4.3455553 3.950505 3.5554544999999997 3.160404 2.5678282 1.9752525 1.2839141 7.0121465 6.814621000000001 6.4195704000000005 6.0245199000000005 5.4319444 4.839368299999999 3.8517422999999997 3.160404 2.2715403999999997 4.1480303 3.160404 4.1480303 5.2344189000000005 6.4195704000000005 7.999772500000001 10.073788 13.234192000000002 17.974798 25.085707 34.961967 47.406059 0.0 0.0 0.0 0.0 0.0 0.0 0.0 0.0 0.0 0.0 0.0 0.0 0.0 0.0 0.0 0.0 0.0 0.0 0.0 0.0 0.0 0.0 0.0 0.0 0.0 0.0 0.0 0.19752525 0.09876262400000001 0.0 0.0 0.49381313 0.29628786 0.09876262400000001 0.0 0.88886362 0.49381313 0.19752525 0.09876262400000001 1.4814393999999997 0.88886362 0.49381313 0.19752525 2.1727777 1.2839141 0.69133836 0.29628786 2.9628787 1.7777272000000002 0.98762625 0.3950505 3.5554544999999997 2.3703029 1.2839141 0.59257573 4.543080799999999 2.9628787 1.6789646 0.69133836 5.6294694000000005 3.6542169999999996 2.0740151 0.88886362 7.1109089999999995 4.6418433 2.6665909 1.2839141 9.5799742 6.222045400000001 3.5554544999999997 1.580202 13.234192000000002 8.6911106 5.0368938 2.1727777 18.666135999999998 12.345328 7.308433999999999 3.3579292 26.468384000000004 17.876036 10.765125999999999 5.3331819000000005 36.443409 25.085707 15.999545000000001 0.0 0.0 0.0 0.0 0.0 0.0 0.0 0.0 0.0 0.0 0.0 0.0 0.0 0.0 0.0 0.0 0.0 0.0 0.0 0.0 0.0 0.0 0.0 0.0 0.0 0.0 0.0 0.0 0.0 0.0 0.0 0.0 0.0 0.0 0.0 0.0 0.0 0.0 0.0 0.0 0.0 0.0 0.0 0.0 0.0 0.0 0.0 0.0 0.0 0.0 0.0 0.0 0.0 0.0 0.0 0.0 0.0 0.0 0.0 0.0 0.0 0.0 0.0 0.0 0.0 0.0 0.0 0.0 0.0 0.0 0.0 0.0 0.0 0.0 0.0 0.0 0.0 0.0 0.0 0.0 0.0 0.0 0.0 0.0 0.0 0.0 0.0 0.0 0.0 0.0 0.0 0.0 0.0 0.0 0.0 0.0 0.0 0.0 0.0 0.0 0.0 0.0 0.0 0.0 0.0 0.0 0.0 0.0 0.0 0.0 0.0 0.0 0.0 0.0 0.0 0.0 0.0 0.0 0.0 0.0 0.0 0.0 0.0 0.0 0.0 0.0 0.0 0.0 0.0 0.0 0.0 0.0 0.0 0.0 0.0 0.0 0.0 0.0 0.0 0.0 0.0 0.0 0.0 0.0 0.0 0.0 0.0 0.0 0.0 0.0 0.0 0.0 0.0 0.0 0.0 0.0 0.0 0.0 0.0 0.0 0.0 0.0 0.0 0.0 0.0 0.0 0.0 0.0 0.0 0.0 0.0 0.0 0.0 0.0 0.0 0.0 0.0 0.0 0.0 0.0 0.0 0.0 0.0 0.0 0.0 0.0 0.0 0.0 0.0 0.0 0.0 0.0 0.0 0.0 0.0 0.0 0.0 0.0 0.0 0.0 0.0 0.0 0.0 0.0 0.0 0.0 0.0 0.0 0.0 0.0 0.0 0.0 0.0 0.0 0.0 0.0 0.0 0.0 0.0 0.0 0.0 0.0 0.0 0.0 0.0 0.0 0.0 0.0 0.0 0.0 0.0 0.0 0.0 0.0 0.0 0.0 0.0 0.0 0.0 0.0 0.0 0.0 0.0 0.0 0.0 0.0 0.0 0.0 0.0 0.0 0.0 0.0 0.0 0.0 0.0 0.0 0.0 0.0 0.0 0.0 0.0 0.0 0.0 0.0 0.0 0.0 0.0 0.0 0.0 0.0 0.0 0.0 0.0 0.0 0.0 0.0 0.0 0.0 0.0 0.0 0.0 0.0 0.0 0.0 0.0 0.0 0.0 0.0 0.0 0.0 0.0 0.0 0.0 0.0 0.0 0.0 0.0 0.0 0.0 0.0 0.0 0.0 0.0 0.0 0.0 0.0 0.0 0.0 0.0 0.0 0.0 0.0 0.0 0.0 0.0 0.0 0.0 0.0 0.0 0.0 0.0 0.0 0.0 0.0 0.0 0.0 0.0 0.0 0.0 0.0 0.0 0.0 0.0 0.0 0.0 0.0 0.0 0.0 0.0 0.0 0.0 0.0 0.0 0.0 0.0 0.0 0.0 0.0 0.0 0.0 0.0 0.0 0.0 0.0 0.0 0.0 0.0 0.0 0.0 0.0 0.0 0.0 0.0 0.0 0.0 0.0 0.0 0.0 0.0 0.0 0.0 0.0 0.0 0.0 0.0 0.0 0.0 0.0 0.0 0.0 0.0 0.0 0.0 0.0 0.0 0.0 0.0 0.0 0.0 0.0 0.0 0.0 0.0 0.0 0.0 0.0 0.0 0.0 0.0 0.0 0.0 0.0 0.0 0.0 0.0 0.0 0.0 0.0 0.0 0.0 0.0 0.0 0.0 0.0 0.0 0.0 0.0 0.0 0.0 0.0 0.0 0.0 0.0 0.0 0.0 0.0 0.0 0.0 0.0 0.0 0.0 0.0 0.0 0.0 0.0 0.0 0.0 0.0 0.0 0.0 0.0 0.0 0.0 0.0 0.0 0.0 0.0 0.0 0.0 0.0 0.0 0.0 0.0 0.0 0.0 0.0 0.0 0.0 0.0 0.0 0.0 0.0 0.0 0.0 0.0 0.0 0.0 0.0 0.0 0.0 0.0 0.0 5.4319444 6.4195704000000005 7.407197 8.098535499999999 8.5923481 5.5307069 7.0121465 8.197298 9.1849241 9.9750252 10.567601 6.814621000000001 8.5923481 10.073788 11.258939 12.147802 12.740378 8.3948231 10.567601 12.246566 13.629242000000001 14.518106 15.308207000000001 10.468838 12.937903 14.913157 16.493358999999998 17.678509 18.271085999999997 13.135429 16.197070999999998 18.567373 20.147575 21.530251999999997 22.320353 17.480984 20.74015 23.505505 24.986944 26.270859 27.258484000000003 24.196842 27.752296 29.925076 31.406515000000002 32.394141999999995 33.08548 34.468154999999996 37.628559 38.813713 39.505051 39.900101 40.492676 49.183788 50.665226000000004 50.072651 49.282551 48.887501 48.986263 67.059822 66.072197 62.911793 60.442726 59.257576 59.158813 83.256889 81.577927 76.541031 72.886818 71.20785500000001 70.714035 92.046768 94.022018 89.67645999999999 86.21977199999999 84.54081 84.046989 98.36756899999999 104.39208 103.00941 100.63911 99.750244 99.750244 109.13269 116.73741000000001 118.41637 117.62626999999999 117.62626999999999 118.02131999999999 126.90993999999999 134.61342 137.57631 137.97136 138.56393 139.25526000000002 151.89688 158.7115 161.67438 162.56325 163.55087 164.5385 182.61203 188.5378 191.20438000000001 192.09325 193.17963999999998 194.26602 218.36406000000002 223.79601 226.36382999999998 227.05517999999998 228.14156 229.12918 260.04184 265.77005 268.0416 268.63419 269.52304 270.31314 309.52182 315.44757000000004 317.62032999999997 317.71909 318.31167999999997 318.50919 368.5817 374.6062 376.77898999999996 376.08765 375.3963 374.50745 438.11035 444.92495999999994 446.90020999999996 444.33237 441.86330999999996 438.99920999999995 520.18164 528.28015 529.95911 524.42841 518.40393 512.7744799999999 614.30176 625.46191 625.6594200000001 614.30176 603.24036 593.6604 717.7052 733.60596 730.24805 709.60675 691.63202 676.71887 828.31781 850.93433 839.9717400000001 805.30627 778.8380099999999 758.69055 943.27515 972.7061800000001 947.6206699999999 895.07928 859.5250199999999 835.1308 1073.5396 1107.9086 1061.7869 989.39459 946.72949 921.15021 1273.6265 1307.8966 1238.7637 1149.1871 1103.5594 1082.2269 1707.4774 1735.723 1655.6279 1559.2373 1518.3502 1508.1779 2720.5503 2741.0925 2681.7375 2605.6921 2578.533 2585.4463 4637.0552 4653.7456 4644.8574 4639.9194 4644.8574 4674.0898 7017.082 7032.1924 7060.1406 7161.3682 7224.6714 7282.7412 8742.6553 8742.1621 8774.6523 8947.9717 9069.0469 9155.6572 9453.2188 9426.8516 9419.4443 9619.6211 9769.7285 9874.4082 9611.0635 9580.7461 9515.5693 9681.5723 9827.3301 9933.5879 9661.5625 9642.0117 9539.6094 9647.542 9755.8691 9844.8418 9764.8613 9758.9365 9631.458 9692.4814 9765.6514 9835.7588 9929.7861 9932.6494 9795.0107 9829.0752 9879.8252 9936.0068 10107.188 10114.197 9977.459 10003.819 10046.568000000001 10095.933 10244.546 10251.259 10121.743 10157.280999999999 10203.776 10252.739 10178.794 10183.926 10064.006 10110.0 10163.791 10216.396999999999 9920.4521 9924.9902 9816.8389 9871.0127 9932.7842 9991.2021 9514.2881 9520.4023 9427.377 9488.7354 9558.085 9623.5879 8999.4346 9011.6592 8937.999 9006.1357 9082.1631 9155.4297 8402.1953 8424.4648 8372.3291 8448.1162 8530.2109 8609.5498 7735.875 7767.7793 7738.9229 7822.8281 7909.4932 7994.585 7013.1401 7054.5547 7046.7817 7135.7207 7227.6152 7316.2646 6257.4482 6307.4536 6313.3491 6403.7441 6500.6279 6590.7319 5506.0405 5558.6055 5566.8472 5656.8872 5755.561 5845.2114 4793.7212 4838.6309 4843.7261 4929.1504 5024.9492 5112.1357 4113.7437 4165.9302 4174.624 4251.0991 4339.1812 4420.5327 3445.9414 3539.5723 3571.3484 3644.0073 3722.0056 3792.8157 2835.2842 2985.1602 3050.0732 3120.105 3184.9194 3240.9443 2519.7712 2615.3438 2676.2292 2728.9683 2768.6702 2126.3774 2238.2742 2299.0366 2346.4229 2374.165 1894.1995 1965.61 2015.7643 2048.0298 1586.006 1648.4059 1714.777 1766.2314 1365.5858 1427.2323 1499.8057 1171.4036 1235.6801 1021.563 1008.4749 8.9873991 9.2836866 9.4812117 9.6787367 9.6787367 9.777500199999999 9.8762627 9.8762627 9.8762627 10.962651 11.456465 11.65399 11.851515 11.950277 12.04904 12.04904 12.04904 12.04904 13.234192000000002 13.530479000000001 13.925529999999998 14.024293 14.221817999999999 14.221817999999999 14.221817999999999 14.221817999999999 14.221817999999999 15.80202 16.197070999999998 16.394596 16.493358999999998 16.690884 16.690884 16.690884 16.690884 16.690884 18.863660999999997 19.258710999999998 19.456238 19.456238 19.555 19.555 19.555 19.555 19.555 22.715403 23.110454999999998 23.30798 23.406742 23.505505 23.406742 23.30798 23.30798 23.30798 27.653534000000004 27.949823 28.048586 28.048586 27.949823 27.949823 27.752296 27.752296 27.752296 33.579291999999995 33.776817 33.776817 33.678055 33.579291999999995 33.48053 33.381766999999996 33.283004999999996 33.283004999999996 40.591438000000004 40.887726 40.788963 40.690201 40.393913 40.295151000000004 39.900101 39.900101 39.801338 49.183788 49.183788 48.986263 48.689972 48.393684 48.097396999999994 47.801109000000004 47.603584000000005 47.603584000000005 59.060051 59.060051 58.664997 58.467471999999994 57.973659999999995 57.578609 57.381083999999994 57.084796999999995 56.986034 70.81280500000001 70.615273 70.12146 69.627647 69.035072 68.640022 68.343735 68.04744699999999 67.948685 84.145752 84.046989 83.553177 82.96060200000001 82.368027 81.874214 81.380402 81.084114 80.886589 100.04653 99.849007 99.45395699999999 98.762619 97.97251899999999 97.281174 96.886124 96.491074 96.293549 118.41637 118.41637 117.8238 117.13246000000001 116.2436 115.25596999999999 114.76216000000001 114.36711000000001 114.07082 139.84784 139.74908 139.35403 138.46516 137.67506 136.58868 135.89733999999999 135.30476000000002 135.00848 165.13107 165.13107 164.5385 163.4521 162.26695 161.18057 160.19295 159.5016 159.10655 194.8586 194.75984 193.96974 192.78458 191.10562 189.92047 188.5378 187.64893 187.15511999999998 229.72176000000002 229.32671000000002 228.14156 226.36382999999998 224.28981000000002 222.61086 220.93187999999998 219.94426 219.25293 270.51065 269.6218 267.84409 265.17749 262.60965 260.14059 258.16534 256.58513999999997 255.59752000000003 318.01538 316.33643 313.47232 309.91687 306.26263 303.00347999999997 300.13937000000004 298.06534 296.97897 373.026 369.8656 365.61884 360.68068999999997 355.54504 351.10074 347.44653 344.77994 343.0022 435.44375999999994 430.70315999999997 424.2836 417.37021 410.5556 404.82739 399.98804 396.6301 394.35855 506.65117999999995 499.04648 489.96036 480.3804 471.59055 463.98584000000005 458.06009000000006 453.61578 451.14673 583.68542 572.62402 560.1799900000001 547.53839 536.1807299999999 526.79834 519.58868 514.25549 511.19388 662.49713 647.09021 630.6956799999999 614.79498 600.96826 589.6106 581.31458 575.09253 571.93213 740.0244799999999 720.37085 699.92706 680.5697 664.27393 651.43488 642.05249 635.7316900000001 632.27502 813.4032 790.78674 767.28137 745.25745 727.18402 713.45612 703.87622 697.45673 693.90125 899.7189300000001 877.0037800000001 852.70837 829.6969 811.22845 797.69812 788.71082 783.18018 780.21729 1066.7214 1048.8456 1028.007 1007.5634 990.8726800000001 979.3176300000001 972.60187 969.04645 967.2687400000001 1504.7212 1498.598 1486.8455 1473.3153 1462.254 1455.4396 1452.8717 1452.6742 1453.2668 2601.3467 2613.0991 2617.3459 2616.5557 2615.2717 2616.8518 2621.3948 2626.5303 2630.5796 4714.0879 4749.8384 4775.2197 4792.3052 4806.0327 4819.958 4834.376 4847.7085 4856.8931 7348.1191 7409.8433 7459.3213 7497.6396 7529.9336 7559.8574 7587.9048 7611.4092 7627.0132 9242.958 9327.0 9399.7842 9460.4199 9513.3535 9561.3496 9604.8027 9640.1582 9663.2666 9975.7314 10076.164 10167.71 10248.591 10321.176 10387.638 10446.989 10494.885 10526.091999999999 10039.056 10147.88 10252.458 10349.136999999999 10438.408000000001 10521.261999999999 10595.128 10654.183 10692.498 9943.9854 10053.793 10164.588 10270.841999999999 10371.664 10466.166 10550.695 10618.239 10661.983999999999 9925.3193 10031.271 10142.26 10251.766 10357.815999999999 10458.437 10549.083 10621.66 10668.662 10016.675 10116.795 10224.021999999999 10331.942 10438.184000000001 10540.08 10632.399 10706.748 10754.733 10170.669 10265.448 10367.632 10471.494 10574.566 10674.577 10765.407 10838.861 10886.35 10325.395 10416.509 10514.337 10613.447 10712.065 10808.313 10896.072 10967.246000000001 11013.248 10289.732 10379.646999999999 10474.104 10568.659 10662.818000000001 10754.511 10838.503999999999 10906.606000000002 10950.823999999999 10067.383 10156.982 10248.95 10339.833 10429.334 10516.565 10596.396 10661.228000000001 10703.264 9703.9883 9793.8574 9883.3311 9969.9453 10054.487 10136.563 10211.832 10272.697 10312.354 9239.6426 9329.0811 9415.0693 9495.9287 9574.4219 9650.252 9719.7705 9776.3721 9813.0547 8696.6748 8783.8975 8863.5303 8936.7588 9007.4238 9075.4268 9138.3047 9189.1592 9222.2744 8081.7451 8163.9805 8235.6777 8299.792 8360.6553 8420.042 8474.8965 8519.9043 8548.957 7401.7651 7477.5249 7540.5933 7594.9043 7646.46 7696.7363 7743.5679 7782.3325 7807.3228 6674.0566 6744.0186 6799.438 6845.4238 6888.167 6930.6147 6970.4087 7003.2266 7024.646 5926.7217 5993.0278 6043.3472 6083.3677 6120.0518 6155.8525 6189.4946 6217.3501 6235.5928 5191.5928 5256.665 5305.0059 5342.6802 5375.5591 5406.6763 5435.7373 5459.3188 5475.0723 4496.6147 4561.6748 4611.9097 4650.3423 4682.043 4710.2324 4735.6899 4756.3672 4769.6318 3861.874 3926.658 3980.8542 4023.2017 4056.5159 4084.0994 4107.0205 4125.085 4136.5449 3298.8965 3360.0308 3418.073 3466.553 3504.5066 3533.3821 3555.7871 3572.3008 3582.4407 2810.9543 2863.7744 2922.1487 2976.9744 3021.5439 3055.1868 3079.3403 3095.7307 3105.3152 2399.1484 2438.2632 2491.0361 2548.1702 2599.7029 2640.1313 2668.9822 2687.7732 2698.3074 2061.2729 2083.313 2123.7048 2175.801 2229.1111 2275.2993 2310.0576 2333.4795 2346.502 1788.5719 1798.5564 1821.1534 1859.8666 1906.6827 1952.2056 1990.0787 2017.3545 2033.4802 1550.6442 1572.6113 1582.6587 1602.1683 1633.3994 1669.6785 1703.6082 1730.3177 1747.3721 1313.4137 1366.8097 1392.2544 1401.7793 1413.0507 1431.7856 1454.1199 1474.3413 1488.4955 1076.3615 1144.5125 1199.4739 1230.1687 1240.3337 1243.5902 1249.4781 1257.915 1265.3271 920.5269199999999 946.6308 986.5170300000001 1027.4736 1062.2004 1081.9152 1088.252 1089.6586 1090.731 863.2004400000001 845.9367699999999 845.17206 856.9785199999999 873.8913 889.46613 898.0432699999999 901.9007 790.03687 755.95276 741.05133 721.7243 704.9426900000001 695.05353 755.3644400000001 734.4119900000001 707.32654 686.9404900000001 9.8762627 9.8762627 9.8762627 9.8762627 9.777500199999999 9.6787367 9.6787367 9.4812117 12.04904 12.04904 12.04904 12.04904 12.04904 11.950277 11.851515 11.65399 14.221817999999999 14.221817999999999 14.221817999999999 14.221817999999999 14.221817999999999 14.221817999999999 14.024293 13.925529999999998 16.690884 16.690884 16.690884 16.690884 16.690884 16.690884 16.493358999999998 16.394596 19.555 19.555 19.555 19.555 19.555 19.555 19.456238 19.456238 23.30798 23.30798 23.30798 23.30798 23.406742 23.505505 23.406742 23.30798 27.653534000000004 27.752296 27.752296 27.752296 27.949823 27.949823 28.048586 28.048586 33.184242 33.283004999999996 33.283004999999996 33.381766999999996 33.48053 33.579291999999995 33.678055 33.776817 39.801338 39.801338 39.900101 39.900101 40.295151000000004 40.393913 40.690201 40.788963 47.504822 47.603584000000005 47.603584000000005 47.801109000000004 48.097396999999994 48.393684 48.689972 48.986263 56.887271999999996 56.986034 57.084796999999995 57.381083999999994 57.578609 57.973659999999995 58.467471999999994 58.664997 67.948685 67.948685 68.04744699999999 68.343735 68.640022 69.035072 69.627647 70.12146 80.886589 80.886589 81.084114 81.380402 81.874214 82.368027 82.96060200000001 83.553177 96.194786 96.293549 96.491074 96.886124 97.281174 97.97251899999999 98.762619 99.45395699999999 113.97206000000001 114.07082 114.36711000000001 114.76216000000001 115.25596999999999 116.2436 117.13246000000001 117.8238 134.90971000000002 135.00848 135.30476000000002 135.89733999999999 136.58868 137.67506 138.46516 139.35403 159.00778 159.10655 159.5016 160.19295 161.18057 162.26695 163.4521 164.5385 186.9576 187.15511999999998 187.64893 188.5378 189.92047 191.10562 192.78458 193.96974 218.85788 219.25293 219.94426 220.93187999999998 222.61086 224.28981000000002 226.36382999999998 228.14156 255.30122000000003 255.59752000000003 256.58513999999997 258.16534 260.14059 262.60965 265.17749 267.84409 296.48514 296.97897 298.06534 300.13937000000004 303.00347999999997 306.26263 309.91687 313.47232 342.60715 343.0022 344.77994 347.44653 351.10074 355.54504 360.68068999999997 365.61884 393.66724 394.35855 396.6301 399.98804 404.82739 410.5556 417.37021 424.2836 450.15909000000005 451.14673 453.61578 458.06009000000006 463.98584000000005 471.59055 480.3804 489.96036 510.20624000000004 511.19388 514.25549 519.58868 526.79834 536.1807299999999 547.53839 560.1799900000001 570.7470099999999 571.93213 575.09253 581.31458 589.6106 600.96826 614.79498 630.6956799999999 630.89233 632.27502 635.7316900000001 642.05249 651.43488 664.27393 680.5697 699.92706 692.71613 693.90125 697.45673 703.87622 713.45612 727.18402 745.25745 767.28137 779.22968 780.21729 783.18018 788.71082 797.69812 811.22845 829.6969 852.70837 966.67615 967.2687400000001 969.04645 972.60187 979.3176300000001 990.8726800000001 1007.5634 1028.007 1453.4644 1453.2668 1452.6742 1452.8717 1455.4396 1462.254 1473.3153 1486.8455 2632.061 2630.5796 2626.5303 2621.3948 2616.8518 2615.2717 2616.5557 2617.3459 4860.0537 4856.8931 4847.7085 4834.376 4819.958 4806.0327 4792.3052 4775.2197 7632.5435 7627.0132 7611.4092 7587.9048 7559.8574 7529.9336 7497.6396 7459.3213 9671.5625 9663.2666 9640.1582 9604.8027 9561.3496 9513.3535 9460.4199 9399.7842 10536.758 10526.091999999999 10494.885 10446.989 10387.638 10321.176 10248.591 10167.71 10705.73 10692.498 10654.183 10595.128 10521.261999999999 10438.408000000001 10349.136999999999 10252.458 10677.191 10661.983999999999 10618.239 10550.695 10466.166 10371.664 10270.841999999999 10164.588 10684.954 10668.662 10621.66 10549.083 10458.437 10357.815999999999 10251.766 10142.26 10771.321000000002 10754.733 10706.748 10632.399 10540.08 10438.184000000001 10331.942 10224.021999999999 10903.034 10886.35 10838.861 10765.407 10674.577 10574.566 10471.494 10367.632 11029.339 11013.248 10967.246000000001 10896.072 10808.313 10712.065 10613.447 10514.337 10966.223 10950.823999999999 10906.606000000002 10838.503999999999 10754.511 10662.818000000001 10568.659 10474.104 10717.966999999999 10703.264 10661.228000000001 10596.396 10516.565 10429.334 10339.833 10248.95 10326.165 10312.354 10272.697 10211.832 10136.563 10054.487 9969.9453 9883.3311 9825.5781 9813.0547 9776.3721 9719.7705 9650.252 9574.4219 9495.9287 9415.0693 9233.8057 9222.2744 9189.1592 9138.3047 9075.4268 9007.4238 8936.7588 8863.5303 8559.002 8548.957 8519.9043 8474.8965 8420.042 8360.6553 8299.792 8235.6777 7816.0791 7807.3228 7782.3325 7743.5679 7696.7363 7646.46 7594.9043 7540.5933 7032.2119 7024.646 7003.2266 6970.4087 6930.6147 6888.167 6845.4238 6799.438 6241.9683 6235.5928 6217.3501 6189.4946 6155.8525 6120.0518 6083.3677 6043.3472 5480.5522 5475.0723 5459.3188 5435.7373 5406.6763 5375.5591 5342.6802 5305.0059 4774.2163 4769.6318 4756.3672 4735.6899 4710.2324 4682.043 4650.3423 4611.9097 4140.5269 4136.5449 4125.085 4107.0205 4084.0994 4056.5159 4023.2017 3980.8542 3585.7244 3582.4407 3572.3008 3555.7871 3533.3821 3504.5066 3466.553 3418.073 3108.478 3105.3152 3095.7307 3079.3403 3055.1868 3021.5439 2976.9744 2922.1487 2701.7241 2698.3074 2687.7732 2668.9822 2640.1313 2599.7029 2548.1702 2491.0361 2350.9993 2346.502 2333.4795 2310.0576 2275.2993 2229.1111 2175.801 2123.7048 2038.8248 2033.4802 2017.3545 1990.0787 1952.2056 1906.6827 1859.8666 1821.1534 1753.0566 1747.3721 1730.3177 1703.6082 1669.6785 1633.3994 1602.1683 1582.6587 1493.4186 1488.4955 1474.3413 1454.1199 1431.7856 1413.0507 1401.7793 1392.2544 1268.1382 1265.3271 1257.915 1249.4781 1243.5902 1240.3337 1230.1687 1199.4739 1091.1428 1090.731 1089.6586 1088.252 1081.9152 1062.2004 1027.4736 986.5170300000001 903.0029900000001 901.9007 898.0432699999999 889.46613 873.8913 856.9785199999999 845.17206 845.9367699999999 691.90692 695.05353 704.9426900000001 721.7243 741.05133 755.95276 790.03687 679.95514 686.9404900000001 707.32654 734.4119900000001 755.3644400000001 9.2836866 8.9873991 8.5923481 8.098535499999999 7.407197 6.4195704000000005 5.4319444 11.456465 10.962651 10.567601 9.9750252 9.1849241 8.197298 7.0121465 5.5307069 13.530479000000001 13.234192000000002 12.740378 12.147802 11.258939 10.073788 8.5923481 6.814621000000001 16.197070999999998 15.80202 15.308207000000001 14.518106 13.629242000000001 12.246566 10.567601 8.3948231 19.258710999999998 18.863660999999997 18.271085999999997 17.678509 16.493358999999998 14.913157 12.937903 10.468838 23.110454999999998 22.715403 22.320353 21.530251999999997 20.147575 18.567373 16.197070999999998 13.135429 27.949823 27.653534000000004 27.258484000000003 26.270859 24.986944 23.505505 20.74015 17.480984 33.776817 33.579291999999995 33.08548 32.394141999999995 31.406515000000002 29.925076 27.752296 24.196842 40.887726 40.591438000000004 40.492676 39.900101 39.505051 38.813713 37.628559 34.468154999999996 49.183788 49.183788 48.986263 48.887501 49.282551 50.072651 50.665226000000004 49.183788 59.060051 59.060051 59.158813 59.257576 60.442726 62.911793 66.072197 67.059822 70.615273 70.81280500000001 70.714035 71.20785500000001 72.886818 76.541031 81.577927 83.256889 84.046989 84.145752 84.046989 84.54081 86.21977199999999 89.67645999999999 94.022018 92.046768 99.849007 100.04653 99.750244 99.750244 100.63911 103.00941 104.39208 98.36756899999999 118.41637 118.41637 118.02131999999999 117.62626999999999 117.62626999999999 118.41637 116.73741000000001 109.13269 139.74908 139.84784 139.25526000000002 138.56393 137.97136 137.57631 134.61342 126.90993999999999 165.13107 165.13107 164.5385 163.55087 162.56325 161.67438 158.7115 151.89688 194.75984 194.8586 194.26602 193.17963999999998 192.09325 191.20438000000001 188.5378 182.61203 229.32671000000002 229.72176000000002 229.12918 228.14156 227.05517999999998 226.36382999999998 223.79601 218.36406000000002 269.6218 270.51065 270.31314 269.52304 268.63419 268.0416 265.77005 260.04184 316.33643 318.01538 318.50919 318.31167999999997 317.71909 317.62032999999997 315.44757000000004 309.52182 369.8656 373.026 374.50745 375.3963 376.08765 376.77898999999996 374.6062 368.5817 430.70315999999997 435.44375999999994 438.99920999999995 441.86330999999996 444.33237 446.90020999999996 444.92495999999994 438.11035 499.04648 506.65117999999995 512.7744799999999 518.40393 524.42841 529.95911 528.28015 520.18164 572.62402 583.68542 593.6604 603.24036 614.30176 625.6594200000001 625.46191 614.30176 647.09021 662.49713 676.71887 691.63202 709.60675 730.24805 733.60596 717.7052 720.37085 740.0244799999999 758.69055 778.8380099999999 805.30627 839.9717400000001 850.93433 828.31781 790.78674 813.4032 835.1308 859.5250199999999 895.07928 947.6206699999999 972.7061800000001 943.27515 877.0037800000001 899.7189300000001 921.15021 946.72949 989.39459 1061.7869 1107.9086 1073.5396 1048.8456 1066.7214 1082.2269 1103.5594 1149.1871 1238.7637 1307.8966 1273.6265 1498.598 1504.7212 1508.1779 1518.3502 1559.2373 1655.6279 1735.723 1707.4774 2613.0991 2601.3467 2585.4463 2578.533 2605.6921 2681.7375 2741.0925 2720.5503 4749.8384 4714.0879 4674.0898 4644.8574 4639.9194 4644.8574 4653.7456 4637.0552 7409.8433 7348.1191 7282.7412 7224.6714 7161.3682 7060.1406 7032.1924 7017.082 9327.0 9242.958 9155.6572 9069.0469 8947.9717 8774.6523 8742.1621 8742.6553 10076.164 9975.7314 9874.4082 9769.7285 9619.6211 9419.4443 9426.8516 9453.2188 10147.88 10039.056 9933.5879 9827.3301 9681.5723 9515.5693 9580.7461 9611.0635 10053.793 9943.9854 9844.8418 9755.8691 9647.542 9539.6094 9642.0117 9661.5625 10031.271 9925.3193 9835.7588 9765.6514 9692.4814 9631.458 9758.9365 9764.8613 10116.795 10016.773000000001 9936.0068 9879.8252 9829.0752 9795.0107 9932.6494 9929.7861 10265.448 10170.669 10095.933 10046.568000000001 10003.819 9977.459 10114.197 10107.188 10416.509 10325.395 10252.739 10203.776 10157.280999999999 10121.743 10251.259 10244.546 10379.646999999999 10289.732 10216.396999999999 10163.791 10110.0 10064.006 10183.926 10178.794 10156.982 10067.383 9991.1035 9932.7842 9871.0127 9816.8389 9924.9902 9920.4521 9793.8574 9703.9883 9623.5879 9558.085 9488.7354 9427.377 9520.4023 9514.2881 9329.0811 9239.6426 9155.4297 9082.1631 9006.1357 8937.999 9011.6592 8999.4346 8783.8975 8696.6748 8609.5498 8530.2109 8448.1162 8372.3291 8424.4648 8402.1953 8163.9805 8081.7451 7994.585 7909.4932 7822.8281 7738.9229 7767.7793 7735.875 7477.5249 7401.7651 7316.2646 7227.6152 7135.7207 7046.7817 7054.5547 7013.1401 6744.0186 6674.0566 6590.7319 6500.6279 6403.7441 6313.3491 6307.4536 6257.4482 5993.0278 5926.7217 5845.2114 5755.561 5656.8872 5566.8472 5558.6055 5506.0405 5256.665 5191.5928 5112.1357 5024.9492 4929.1504 4843.7261 4838.6309 4793.7212 4561.6748 4496.6147 4420.5327 4339.1812 4251.0991 4174.624 4165.9302 4113.7437 3926.658 3861.874 3792.8157 3722.0056 3644.0073 3571.3484 3539.5723 3445.9414 3360.0308 3298.8965 3240.9443 3184.9194 3120.105 3050.0732 2985.1602 2835.2842 2863.7744 2810.9543 2768.6702 2728.9683 2676.2292 2615.3438 2519.7712 2438.2632 2399.1484 2374.165 2346.4229 2299.0366 2238.2742 2126.3774 2083.313 2061.2729 2048.0298 2015.7643 1965.61 1894.1995 1798.5564 1788.5719 1766.2314 1714.777 1648.4059 1586.006 1572.6113 1550.6442 1499.8057 1427.2323 1365.5858 1366.8097 1313.4137 1235.6801 1171.4036 1144.5125 1076.3615 1008.4749 1021.563 946.6308 920.5269199999999 863.2004400000001 
Type 1 2975 float
0 0 0 0 0 0 0 0 0 0 0 0 0 0 0 0 0 0 0 0 0 0 0 0 0 0 0 0 0 0 0 0 0 0 0 0 0 0 0 0 0 0 0 0 0 0 0 0 0 0 0 0 0 0 0 0 0 0 0 0 0 0 0 0 0 0 0 0 0 0 0 0 0 0 0 0 0 0 0 0 0 0 0 0 0 0 0 0 0 0 0 0 0 0 0 0 0 0 0 0 0 0 0 0 0 0 0 0 0 0 0 0 0 0 0 0 0 0 0 0 0 0 0 0 0 0 0 0 0 0 0 0 0 0 0 0 0 0 0 0 0 0 0 0 0 0 0 0 0 0 0 0 0 0 0 0 0 0 0 0 0 0 0 0 0 0 0 0 0 0 0 0 0 0 0 0 0 0 0 0 0 0 0 0 0 0 0 0 0 0 0 0 0 0 0 0 0 0 0 0 0 0 0 0 0 0 0 0 0 0 0 0 0 0 0 0 0 0 0 0 0 0 0 0 0 0 0 0 0 0 0 0 0 0 0 0 0 0 0 0 0 0 0 0 0 0 0 0 0 0 0 0 0 0 0 0 0 0 0 0 0 0 0 0 0 0 0 0 0 0 0 0 0 0 0 0 0 0 0 0 0 0 0 0 0 0 0 0 0 0 0 0 0 0 0 0 0 0 0 0 0 0 0 0 0 0 0 0 0 0 0 0 0 0 0 0 0 0 0 0 0 0 0 0 0 0 0 0 0 0 0 0 0 0 0 0 0 0 0 0 0 0 0 0 0 0 0 0 0 0 0 0 0 0 0 0 0 0 0 0 0 0 0 0 0 0 0 0 0 0 0 0 0 0 0 0 0 0 0 0 0 0 0 0 0 0 0 0 0 0 0 0 0 0 0 0 0 0 0 0 0 0 0 0 0 0 0 0 0 0 0 0 0 0 0 0 0 0 0 0 0 0 0 0 0 0 0 0 0 0 0 0 0 0 0 0 0 0 0 0 0 0 0 0 0 0 0 0 0 0 0 0 0 0 0 0 0 0 0 0 0 0 0 0 0 0 0 0 0 0 0 0 0 0 0 0 0 0 0 0 0 0 0 0 0 0 0 0 0 0 0 0 0 0 0 0 0 0 0 0 0 0 0 0 0 0 0 0 0 0 0 0 0 0 0 0 0 0 0 0 0 0 0 0 0 0 0 0 0 0 0 0 0 0 0 0 0 0 0 0 0 0 0 0 0 0 0 0 0 0 0 0 0 0 0 0 0 0 0 0 0 0 0 0 0 0 0 0 0 0 0 0 0 0 0 0 0 0 0 0 0 0 0 0 0 0 0 0 0 0 0 0 0 0 0 0 0 0 0 0 0 0 0 0 0 0 0 0 0 0 0 0 0 0 0 0 0 0 0 0 0 0 0 0 0 0 0 0 0 0 0 0 0 0 0 0 0 0 0 0 0 0 0 0 0 0 0 0 0 0 0 0 0 0 0 0 0 0 0 0 0 0 0 0 0 0 0 0 0 0 0 0 0 0 0 0 0 0 0 0 0 0 0 0 0 0 0 0 0 0 0 0 0 0 0 0 0 0 0 0 0 0 0 0 0 0 0 0 0 0 0 0 0 0 0 0 0 0 0 0 0 0 0 0 0 0 0 0 0 0 0 0 0 0 0 0 0 0 0 0 0 0 0 0 0 0 0 0 0 0 0 0 0 0 0 0 0 0 0 0 0 0 0 0 0 0 0 0 0 0 0 0 0 0 0 0 0 0 0 0 0 0 0 0 0 0 0 0 0 0 0 0 0 0 0 0 0 0 0 0 0 0 0 0 0 0 0 0 0 0 0 0 0 0 0 0 0 0 0 0 0 0 0 0 0 0 0 0 0 0 0 0 0 0 0 0 0 0 0 0 0 0 0 0 0 0 0 0 0 0 0 0 0 0 0 0 0 0 0 0 0 0 0 0 0 0 0 0 0 0 0 0 0 0 0 0 0 0 0 0 0 0 0 0 0 0 0 0 0 0 0 0 0 0 0 0 0 0 0 0 0 0 0 0 0 0 0 0 0 0 0 0 0 0 0 0 0 0 0 0 0 0 0 0 0 0 0 0 0 0 0 0 0 0 0 0 0 0 0 0 0 0 0 0 0 0 0 0 0 0 0 0 0 0 0 0 0 0 0 0 0 0 0 0 0 0 0 0 0 0 0 0 0 0 0 0 0 0 0 0 0 0 0 0 0 0 0 0 0 0 0 0 0 0 0 0 0 0 0 0 0 0 0 0 0 0 0 0 0 0 0 0 0 0 0 0 0 0 0 0 0 0 0 0 0 0 0 0 0 0 0 3 3 3 3 3 3 3 3 3 3 3 3 3 3 3 3 3 3 3 3 3 3 3 3 3 3 3 3 3 3 3 3 3 3 3 3 3 3 3 3 3 3 3 3 3 3 3 3 3 3 3 3 3 3 3 3 3 3 3 3 3 3 3 3 3 3 3 3 3 3 3 3 3 3 3 3 3 3 3 3 3 3 3 3 3 3 3 3 3 3 3 3 3 3 3 3 3 3 3 3 3 3 3 3 3 3 3 3 3 3 3 3 3 3 3 3 3 3 3 3 3 3 3 3 3 3 3 3 3 3 3 3 3 3 3 3 3 3 3 3 3 3 3 3 3 3 3 3 3 3 3 3 3 3 3 3 3 3 3 3 3 3 3 3 3 3 3 3 3 3 3 3 3 3 3 3 3 3 3 3 3 3 3 3 3 3 3 3 3 3 3 3 3 3 3 3 3 3 3 3 3 3 3 3 3 3 3 3 3 3 3 3 3 3 3 3 3 3 3 3 3 3 3 3 3 3 3 3 3 3 3 3 3 3 3 3 3 3 3 3 3 3 3 3 3 3 3 3 3 3 3 3 3 3 3 3 3 3 3 3 3 3 3 3 3 3 3 3 3 3 3 3 3 3 3 3 3 3 3 3 3 3 3 3 3 3 3 3 3 3 3 3 3 3 3 3 3 3 3 3 3 3 3 3 3 3 3 3 3 3 3 3 3 3 3 3 3 3 3 3 3 3 3 3 3 3 3 3 3 3 3 3 3 3 3 3 3 3 3 3 3 3 3 3 3 3 3 3 3 3 3 3 3 3 3 3 3 3 3 3 3 3 3 3 3 3 3 3 3 3 3 3 3 3 3 3 3 3 3 3 3 3 3 3 3 3 3 3 3 3 3 3 3 3 3 3 3 3 3 3 3 3 3 3 3 3 3 3 3 3 3 3 3 3 3 3 3 3 3 3 3 3 3 3 3 3 3 3 3 3 3 3 3 3 3 3 3 3 3 3 3 3 3 3 3 3 3 3 3 3 3 3 3 3 3 3 3 3 3 3 3 3 3 3 3 3 3 3 3 3 3 3 3 3 3 3 3 3 3 3 3 3 3 3 3 3 3 3 3 3 3 3 3 3 3 3 3 3 3 3 3 3 3 3 3 3 3 3 3 3 3 3 3 3 3 3 3 3 3 3 3 3 3 3 3 3 3 3 3 3 3 3 3 3 3 3 3 3 3 3 3 3 3 3 3 3 3 3 3 3 3 3 3 3 3 3 3 3 3 3 3 3 3 3 3 3 3 3 3 3 3 3 3 3 3 3 3 3 3 3 3 3 3 3 3 3 3 3 3 3 3 3 3 3 3 3 3 3 3 3 3 3 3 3 3 3 3 3 3 3 3 3 3 3 3 3 3 3 3 3 3 3 3 3 3 3 3 3 3 3 3 3 3 3 3 3 3 3 3 3 3 3 3 3 3 3 3 3 3 3 3 3 3 3 3 3 3 3 3 3 3 3 3 3 3 3 3 3 3 3 3 3 3 3 3 3 3 3 3 3 3 3 3 3 3 3 3 3 3 3 3 3 3 3 3 3 3 3 3 3 3 3 3 3 3 3 3 3 3 3 3 3 3 3 3 3 3 3 3 3 3 3 3 3 3 3 3 3 3 3 3 3 3 3 3 3 3 3 3 3 3 3 3 3 3 3 3 3 3 3 3 3 3 3 3 3 3 3 3 3 3 3 3 3 3 3 3 3 3 3 3 3 3 3 3 3 3 3 3 3 3 3 3 3 3 3 3 3 3 3 3 3 3 3 3 3 3 3 3 3 3 3 3 3 3 3 3 3 3 3 3 3 3 3 3 3 3 3 3 3 3 3 3 3 3 3 3 3 3 3 3 3 3 3 3 3 3 3 3 3 3 3 3 3 3 3 3 3 3 3 3 3 3 3 3 3 3 3 3 3 3 3 3 3 3 3 3 3 3 3 3 3 3 3 3 3 3 3 3 3 3 3 3 3 3 3 3 3 3 3 3 3 3 3 3 3 3 3 3 3 3 3 3 3 3 3 3 3 3 3 3 3 3 3 3 3 3 3 3 3 3 3 3 3 3 3 3 3 3 3 3 3 3 3 3 3 3 3 3 3 3 3 3 3 3 3 3 3 3 3 3 3 3 3 3 3 3 3 3 3 3 3 3 3 3 3 3 3 3 3 3 3 3 3 3 3 3 3 3 3 3 3 3 3 3 3 3 3 3 3 3 3 3 3 3 3 3 3 3 3 3 3 3 3 3 3 3 3 3 3 3 3 3 3 3 3 3 3 3 3 3 3 3 3 3 3 3 3 3 3 3 3 3 3 3 3 3 3 3 3 3 3 3 3 3 3 3 3 3 3 3 3 3 3 3 3 3 3 3 3 3 3 3 3 3 3 3 3 3 3 3 3 3 3 3 3 3 3 3 3 3 3 3 3 3 3 3 3 3 3 3 3 3 3 3 3 3 3 3 3 3 3 3 3 3 3 3 3 3 3 3 3 3 3 3 3 3 3 3 3 3 3 3 3 3 3 3 3 3 3 3 3 3 3 3 3 3 3 3 3 3 3 3 3 3 3 3 3 3 3 3 3 3 3 3 3 3 3 3 3 3 3 3 3 3 3 3 3 3 3 3 3 3 3 3 3 3 3 3 3 3 3 3 3 3 3 3 3 3 3 3 3 3 3 3 3 3 3 3 3 3 3 3 3 3 3 3 3 3 3 3 3 3 3 3 3 3 3 3 3 3 3 3 3 3 3 3 3 3 3 3 3 3 3 3 3 3 3 3 3 3 3 3 3 3 3 3 3 3 3 3 3 3 3 3 3 3 3 3 3 3 3 3 3 3 3 3 3 3 3 3 3 3 3 3 3 3 3 3 3 3 3 3 3 3 3 3 3 3 3 3 3 3 3 3 3 3 3 3 3 3 3 3 3 3 3 3 3 3 3 3 3 3 3 3 3 3 3 3 3 3 3 3 3 3 3 3 3 3 3 3 3 3 3 3 3 3 3 3 3 3 3 3 3 3 3 3 3 3 3 3 3 3 3 3 3 3 3 3 3 3 3 3 3 3 3 3 3 3 3 3 3 3 3 3 3 3 3 3 3 3 3 3 3 3 3 3 3 3 3 3 3 3 3 3 3 3 3 3 3 3 3 3 3 3 3 3 3 3 3 3 3 3 3 3 3 3 3 3 3 3 3 3 3 3 3 3 3 3 3 3 3 3 3 3 3 3 3 3 3 3 3 3 3 3 3 3 3 3 3 3 3 3 3 3 3 3 3 3 3 3 3 3 3 3 3 3 3 3 3 3 3 3 3 3 3 3 3 3 3 3 3 3 3 3 3 3 3 3 3 3 3 3 3 3 3 3 3 3 3 3 3 3 3 3 3 3 3 3 3 3 3 3 3 3 3 3 3 3 3 3 3 3 3 3 3 3 3 3 3 3 3 3 3 3 3 3 3 3 3 3 3 3 3 3 3 3 3 3 3 3 3 3 3 3 3 3 3 3 3 3 3 3 3 3 3 3 3 3 3 3 3 3 3 3 3 3 3 3 3 3 3 3 3 3 3 3 3 3 3 3 3 3 3 3 3 3 3 3 3 3 3 3 3 3 3 3 3 3 3 3 3 3 3 3 3 3 3 3 3 3 3 3 3 3 3 3 3 3 3 3 3 3 3 3 3 3 3 3 3 3 3 3 3 3 3 3 3 3 3 3 3 3 3 3 3 3 3 3 3 3 3 3 3 3 3 3 3 3 3 3 3 3 3 3 3 3 3 3 3 3 3 3 3 3 3 3 3 3 3 3 3 3 3 3 3 3 3 3 3 3 3 3 3 3 3 3 3 3 3 3 3 3 3 3 3 3 3 3 3 3 3 3 3 3 3 3 3 3 3 3 3 3 3 3 3 3 3 3 3 3 3 3 3 3 3 3 3 3 3 3 3 3 3 3 3 3 3 3 3 3 3 3 3 3 3 3 3 3 3 3 3 3 3 3 3 3 3 3 3 3 3 3 3 3 3 3 3 3 3 3 3 3 3 3 3 3 3 3 3 3 3 3 3 3 3 3 3 3 3 3 3 3 3 3 3 3 3 3 3 3 3 3 3 3 3 3 3 3 3 3 3 3 3 3 3 3 3 3 3 3 3 3 3 3 3 3 3 3 3 3 3 3 3 3 3 3 3 3 3 3 3 3 3 3 3 3 3 3 3 3 3 3 3 3 3 3 3 3 3 3 3 3 3 3 3 3 3 3 3 3 3 3 3 3 3 3 3 3 3 3 3 3 3 3 3 3 3 3 3 3 3 3 3 3 3 3 3 3 3 3 3 3 3 3 3 3 3 3 3 3 3 3 3 3 3 3 3 3 3 3 3 3 3 
CellOffSpring 1 2975 float
0 0 0 0 0 0 0 0 0 0 0 0 0 0 0 0 0 0 0 0 0 0 0 0 0 0 0 0 0 0 0 0 0 0 0 0 0 0 0 0 0 0 0 0 0 0 0 0 0 0 0 0 0 0 0 0 0 0 0 0 0 0 0 0 0 0 0 0 0 0 0 0 0 0 0 0 0 0 0 0 0 0 0 0 0 0 0 0 0 0 0 0 0 0 0 0 0 0 0 0 0 0 0 0 0 0 0 0 0 0 0 0 0 0 0 0 0 0 0 0 0 0 0 0 0 0 0 0 0 0 0 0 0 0 0 0 0 0 0 0 0 0 0 0 0 0 0 0 0 0 0 0 0 0 0 0 0 0 0 0 0 0 0 0 0 0 0 0 0 0 0 0 0 0 0 0 0 0 0 0 0 0 0 0 0 0 0 0 0 0 0 0 0 0 0 0 0 0 0 0 0 0 0 0 0 0 0 0 0 0 0 0 0 0 0 0 0 0 0 0 0 0 0 0 0 0 0 0 0 0 0 0 0 0 0 0 0 0 0 0 0 0 0 0 0 0 0 0 0 0 0 0 0 0 0 0 0 0 0 0 0 0 0 0 0 0 0 0 0 0 0 0 0 0 0 0 0 0 0 0 0 0 0 0 0 0 0 0 0 0 0 0 0 0 0 0 0 0 0 0 0 0 0 0 0 0 0 0 0 0 0 0 0 0 0 0 0 0 0 0 0 0 0 0 0 0 0 0 0 0 0 0 0 0 0 0 0 0 0 0 0 0 0 0 0 0 0 0 0 0 0 0 0 0 0 0 0 0 0 0 0 0 0 0 0 0 0 0 0 0 0 0 0 0 0 0 0 0 0 0 0 0 0 0 0 0 0 0 0 0 0 0 0 0 0 0 0 0 0 0 0 0 0 0 0 0 0 0 0 0 0 0 0 0 0 0 0 0 0 0 0 0 0 0 0 0 0 0 0 0 0 0 0 0 0 0 0 0 0 0 0 0 0 0 0 0 0 0 0 0 0 0 0 0 0 0 0 0 0 0 0 0 0 0 0 0 0 0 0 0 0 0 0 0 0 0 0 0 0 0 0 0 0 0 0 0 0 0 0 0 0 0 0 0 0 0 0 0 0 0 0 0 0 0 0 0 0 0 0 0 0 0 0 0 0 0 0 0 0 0 0 0 0 0 0 0 0 0 0 0 0 0 0 0 0 0 0 0 0 0 0 0 0 0 0 0 0 0 0 0 0 0 0 0 0 0 0 0 0 0 0 0 0 0 0 0 0 0 0 0 0 0 0 0 0 0 0 0 0 0 0 0 0 0 0 0 0 0 0 0 0 0 0 0 0 0 0 0 0 0 0 0 0 0 0 0 0 0 0 0 0 0 0 0 0 0 0 0 0 0 0 0 0 0 0 0 0 0 0 0 0 0 0 0 0 0 0 0 0 0 0 0 0 0 0 0 0 0 0 0 0 0 0 0 0 0 0 0 0 0 0 0 0 0 0 0 0 0 0 0 0 0 0 0 0 0 0 0 0 0 0 0 0 0 0 0 0 0 0 0 0 0 0 0 0 0 0 0 0 0 0 0 0 0 0 0 0 0 0 0 0 0 0 0 0 0 0 0 0 0 0 0 0 0 0 0 0 0 0 0 0 0 0 0 0 0 0 0 0 0 0 0 0 0 0 0 0 0 0 0 0 0 0 0 0 0 0 0 0 0 0 0 0 0 0 0 0 0 0 0 0 0 0 0 0 0 0 0 0 0 0 0 0 0 0 0 0 0 0 0 0 0 0 0 0 0 0 0 0 0 0 0 0 0 0 0 0 0 0 0 0 0 0 0 0 0 0 0 0 0 0 0 0 0 0 0 0 0 0 0 0 0 0 0 0 0 0 0 0 0 0 0 0 0 0 0 0 0 0 0 0 0 0 0 0 0 0 0 0 0 0 0 0 0 0 0 0 0 0 0 0 0 0 0 0 0 0 0 0 0 0 0 0 0 0 0 0 0 0 0 0 0 0 0 0 0 0 0 0 0 0 0 0 0 0 0 0 0 0 0 0 0 0 0 0 0 0 0 0 0 0 0 0 0 0 0 0 0 0 0 0 0 0 0 0 0 0 0 0 0 0 0 0 0 0 0 0 0 0 0 0 0 0 0 0 0 0 0 0 0 0 0 0 0 0 0 0 0 0 0 0 0 0 0 0 0 0 0 0 0 0 0 0 0 0 0 0 0 0 0 0 0 0 0 0 0 0 0 0 0 0 0 0 0 0 0 0 0 0 0 0 0 0 0 0 0 0 0 0 0 0 0 0 0 0 0 0 0 0 0 0 0 0 0 0 0 0 0 0 0 0 0 0 0 0 0 0 0 0 0 0 0 0 0 0 0 0 0 0 0 0 0 0 0 0 0 0 0 0 0 0 0 0 0 0 0 0 0 0 0 0 0 0 0 0 0 0 0 0 0 0 0 0 0 0 0 0 0 0 0 0 0 0 0 0 0 0 0 0 0 0 0 0 0 0 0 0 0 0 0 0 0 0 0 0 0 0 0 0 0 0 0 0 0 0 0 0 0 0 0 0 0 0 0 0 0 0 0 0 0 0 0 0 0 0 0 0 0 0 0 0 0 0 0 0 0 0 0 0 0 0 0 0 0 0 0 0 0 0 0 0 0 0 0 0 0 0 0 0 0 0 0 0 0 0 0 0 0 0 0 0 0 0 0 0 0 0 0 0 0 0 0 0 0 0 0 0 0 0 0 0 0 0 0 0 0 0 0 0 0 0 0 0 0 0 0 0 0 0 0 0 0 0 0 0 0 0 0 0 0 0 0 0 0 0 0 0 0 0 0 0 0 0 0 0 0 0 0 0 0 0 0 0 0 0 0 0 0 0 0 0 0 0 0 0 0 0 0 0 0 0 0 0 0 0 0 0 0 0 0 0 0 0 0 0 0 0 0 0 0 0 0 0 0 0 0 0 0 0 0 0 0 0 0 0 0 0 0 0 0 0 0 0 0 0 0 0 0 0 0 0 0 0 0 0 0 0 0 0 0 0 0 0 0 0 0 0 0 0 0 0 0 0 0 0 0 0 0 0 0 0 0 0 0 0 0 0 0 0 0 0 0 0 0 0 0 0 0 0 0 0 0 0 0 0 0 0 0 0 0 0 0 0 0 0 0 0 0 0 0 0 0 0 0 0 0 0 0 0 0 0 0 0 0 0 0 0 0 0 0 0 0 0 0 0 0 0 0 0 0 0 0 0 0 0 0 0 0 0 0 0 0 0 0 0 0 0 0 0 0 0 0 0 0 0 0 0 0 0 0 0 0 0 0 0 0 0 0 0 0 0 0 0 0 0 0 0 0 0 0 0 0 0 0 0 0 0 0 0 0 0 0 0 0 0 0 0 0 0 0 0 0 0 0 0 0 0 0 0 0 0 0 0 0 0 0 0 0 0 0 0 0 0 0 0 0 0 0 0 0 0 0 0 0 0 0 0 0 0 0 0 0 0 0 0 0 0 0 0 0 0 0 0 0 0 0 0 0 0 0 0 0 0 0 0 0 0 0 0 0 0 0 0 0 0 0 0 0 0 0 0 0 0 0 0 0 0 0 0 0 0 0 0 0 0 0 0 0 0 0 0 0 0 0 0 0 0 0 0 0 0 0 0 0 0 0 0 0 0 0 0 0 0 0 0 0 0 0 0 0 0 0 0 0 0 0 0 0 0 0 0 0 0 0 0 0 0 0 0 0 0 0 0 0 0 0 0 0 0 0 0 0 0 0 0 0 0 0 0 0 0 0 0 0 0 0 0 0 0 0 0 0 0 0 0 0 0 0 0 0 0 0 0 0 0 0 0 0 0 0 0 0 0 0 0 0 0 0 0 0 0 0 0 0 0 0 0 0 0 0 0 0 0 0 0 0 0 0 0 0 0 0 0 0 0 0 0 0 0 0 0 0 0 0 0 0 0 0 0 0 0 0 0 0 0 0 0 0 0 0 0 0 0 0 0 0 0 0 0 0 0 0 0 0 0 0 0 0 0 0 0 0 0 0 0 0 0 0 0 0 0 0 0 0 0 0 0 0 0 0 0 0 0 0 0 0 0 0 0 0 0 0 0 0 0 0 0 0 0 0 0 0 0 0 0 0 0 0 0 0 0 0 0 0 0 0 0 0 0 0 0 0 0 0 0 0 0 0 0 0 0 0 0 0 0 0 0 0 0 0 0 0 0 0 0 0 0 0 0 0 0 0 0 0 0 0 0 0 0 0 0 0 0 0 0 0 0 0 0 0 0 0 0 0 0 0 0 0 0 0 0 0 0 0 0 0 0 0 0 0 0 0 0 0 0 0 0 0 0 0 0 0 0 0 0 0 0 0 0 0 0 0 0 0 0 0 0 0 0 0 0 0 0 0 0 0 0 0 0 0 0 0 0 0 0 0 0 0 0 0 0 0 0 0 0 0 0 0 0 0 0 0 0 0 0 0 0 0 0 0 0 0 0 0 0 0 0 0 0 0 0 0 0 0 0 0 0 0 0 0 0 0 0 0 0 0 0 0 0 0 0 0 0 0 0 0 0 0 0 0 0 0 0 0 0 0 0 0 0 0 0 0 0 0 0 0 0 0 0 0 0 0 0 0 0 0 0 0 0 0 0 0 0 0 0 0 0 0 0 0 0 0 0 0 0 0 0 0 0 0 0 0 0 0 0 0 0 0 0 0 0 0 0 0 0 0 0 0 0 0 0 0 0 0 0 0 0 0 0 0 0 0 0 0 0 0 0 0 0 0 0 0 0 0 0 0 0 0 0 0 0 0 0 0 0 0 0 0 0 0 0 0 0 0 0 0 0 0 0 0 0 0 0 0 0 0 0 0 0 0 0 0 0 0 0 0 0 0 0 0 0 0 0 0 0 0 0 0 0 0 0 0 0 0 0 0 0 0 0 0 0 0 0 0 0 0 0 0 0 0 0 0 0 0 0 0 0 0 0 0 0 0 0 0 0 0 0 0 0 0 0 0 0 0 0 0 0 0 0 0 0 0 0 0 0 0 0 0 0 0 0 0 0 0 0 0 0 0 0 0 0 0 0 0 0 0 0 0 0 0 0 0 0 0 0 0 0 0 0 0 0 0 0 0 0 0 0 0 0 0 0 0 0 0 0 0 0 0 0 0 0 0 0 0 0 0 0 0 0 0 0 0 0 0 0 0 0 0 0 0 0 0 0 0 0 0 0 0 0 0 0 0 0 0 0 0 0 0 0 0 0 0 0 0 0 0 0 0 0 0 0 0 0 0 0 0 0 0 0 0 0 0 0 0 0 0 0 0 0 0 0 0 0 0 0 0 0 0 0 0 0 0 0 0 0 0 0 0 0 0 0 0 0 0 0 0 0 0 0 0 0 0 0 0 0 0 0 0 0 0 0 0 0 0 0 0 0 0 0 0 0 0 0 0 0 0 0 0 0 0 0 0 0 0 0 0 0 0 0 0 0 0 0 0 0 0 0 0 0 0 0 0 0 0 0 0 0 0 0 0 0 0 0 0 0 0 0 0 0 0 0 0 0 0 0 0 0 0 0 0 0 0 0 0 0 0 0 0 0 0 0 0 0 0 0 0 0 0 0 0 0 0 0 0 0 0 0 0 0 0 0 0 0 0 0 0 0 0 0 0 0 0 0 0 0 0 0 0 0 0 0 0 0 0 0 0 0 0 0 0 0 0 0 0 0 0 0 0 0 0 0 0 0 0 0 0 0 0 0 0 0 0 0 0 0 0 0 0 0 0 0 0 0 0 0 0 0 0 0 0 0 0 0 0 0 0 0 0 0 0 0 0 0 0 0 0 0 0 0 0 0 0 0 0 0 0 0 0 0 0 0 0 0 0 0 0 0 0 0 0 0 0 0 0 0 0 0 0 0 0 0 0 0 0 0 0 0 0 0 0 0 0 0 0 0 0 0 0 0 0 0 0 0 0 0 0 0 0 0 0 0 0 0 0 0 0 0 0 0 0 0 0 0 0 0 0 0 0 0 0 0 0 0 0 0 0 0 0 0 0 0 0 0 0 0 0 0 0 0 0 0 0 0 0 0 0 0 0 0 0 0 0 0 0 0 0 0 0 0 0 0 0 0 0 0 0 0 0 0 0 0 0 0 0 0 0 0 0 0 0 0 0 0 0 0 0 0 0 0 0 0 0 0 0 0 0 0 0 0 0 0 0 0 0 0 0 0 0 0 0 0 0 0 0 0 0 0 0 0 0 0 0 0 0 0 0 0 0 0 0 0 0 0 0 0 0 0 0 0 0 0 0 0 0 0 0 0 0 0 0 0 0 0 0 0 0 0 0 0 0 0 0 0 0 0 0 0 0 0 0 0 0 0 0 0 0 0 0 0 0 0 0 0 0 0 0 0 0 0 0 0 0 0 0 0 0 0 0 0 0 0 0 0 0 0 0 0 0 0 0 0 0 0 0 0 0 0 0 0 0 0 0 0 0 0 0 0 0 0 0 0 0 0 0 0 0 0 0 0 0 0 0 0 0 0 0 0 0 0 0 0 0 0 0 0 0 0 0 0 0 0 0 0 0 0 0 0 0 0 0 0 0 0 0 0 0 0 0 0 0 0 0 0 0 0 0 0 0 0 0 0 0 0 0 0 0 0 0 0 0 0 0 0 0 0 0 0 0 0 0 0 0 0 0 0 0 0 0 0 0 0 0 0 0 0 
GradVel 1 2975 float
0.0 0.0 0.0 0.0 0.0 0.0 0.0 0.0 0.0 0.0 0.0 0.0 0.0 -1.9177045e-07 -5.8632157e-21 -1.0139e-06 -6.845980400000001e-06 -1.869478e-06 -1.3579485e-05 -4.2746713e-05 -1.5789377e-05 -5.9928767e-05 -0.00014400018 -5.6520184e-05 -0.00016524259 -0.00034737794000000004 -0.0001345304 -0.00034469773999999995 -0.00067184167 -0.00024948333 -0.000594721 -0.0011077508999999999 -0.00039020824000000003 -0.0008939913199999999 -0.0016190979999999998 -0.00054150703 -0.0012154009 -0.002163009 -0.0006938832799999999 -0.0015434214999999999 -0.0027190090999999997 -0.0008508035699999999 -0.0018870202 -0.0033082953000000003 -0.0010315733 -0.0022877929999999998 -0.0040085716 -0.0012742483999999999 -0.0028272865 -0.0049650259 -0.0016442256 -0.003642445 -0.0064092744 -0.0022633381 -0.0049604233 -0.0086906888 -0.0033513578000000004 -0.007098925799999999 -0.012221713 -0.005244085600000001 -0.010343937 -0.017213132 -0.014890815 -0.023587929 0.0 0.0 0.0 0.0 0.0 0.0 0.0 0.0 0.0 0.0 0.0 0.0 0.0 0.0 0.0 0.0 0.0 0.0 0.0 0.0 0.0 0.0 0.0 0.0 0.0 -3.4364483e-08 -2.1831822e-07 -5.1459739e-07 -7.6530483e-07 -9.011925500000001e-07 -9.9295812e-07 -1.0622638000000002e-06 -1.650684e-06 -5.3542752999999995e-06 -1.1374282000000001e-05 -1.8746199e-05 -2.5941797999999997e-05 -3.1735868e-05 -3.5757901e-05 -3.8447334999999996e-05 -2.0464868e-05 -4.3224609e-05 -7.421676099999999e-05 -0.00010967909 -0.0001442034 -0.00017343339 -0.00019576360000000002 -0.00021179467000000002 -9.3375791e-05 -0.00016738835 -0.00026193363 -0.00036694203 -0.0004683118 -0.0005551954400000001 -0.00062366738 -0.00067483482 -0.00027291139 -0.00045051335 -0.00067048363 -0.00091034337 -0.0011398073 -0.0013365793 -0.0014933738000000002 -0.001612775 -0.0006089052200000001 -0.00095772045 -0.0013818619 -0.0018380969 -0.0022695654 -0.002637187 -0.0029306441999999997 -0.0031560995 -0.0011228422999999999 -0.0017121119 -0.0024191325 -0.0031688593 -0.0038665074 -0.0044542649 -0.0049221232 -0.0052828528000000005 -0.0017951198 -0.0026781657 -0.0037216013 -0.0048069572 -0.0057950788 -0.006617295600000001 -0.0072688391000000005 -0.0077711414 -0.0025683728 -0.0037665570000000002 -0.0051472224 -0.0033780341 -0.0048818551000000005 -0.0042019011 -0.0060074427 -0.0050846529 -0.0072299978 -0.0061508807999999995 -0.008719136 -0.007620546999999999 -0.01075928 -0.0098257894 -0.013757419 -0.013236936999999999 -0.018251376 -0.018377025 -0.024812959 -0.025470756 -0.033713982 -0.034241382 -0.044671521 0.0 0.0 0.0 0.0 0.0 0.0 0.0 0.0 0.0 0.0 0.0 0.0 0.0 0.0 0.0 0.0 0.0 0.0 0.0 0.0 0.0 0.0 0.0 0.0 0.0 0.0 0.0 -1.1118937e-06 -1.1453307e-06 -1.1662016e-06 -1.1779161000000001e-06 -1.1834422e-06 -1.1851253e-06 -1.1847611e-06 -1.1836501e-06 -1.1826536999999999e-06 -4.0380662999999997e-05 -4.1733208000000004e-05 -4.2622300999999996e-05 -4.3162545e-05 -4.3456799e-05 -4.3590797e-05 -4.3631575e-05 -4.3627977e-05 -4.3613159999999995e-05 -0.00022302202999999998 -0.0002309109 -0.00023623856 -0.00023960252 -0.00024155081000000003 -0.00024254947 -0.00024296892999999995 -0.00024308383999999998 -0.00024308099999999997 -0.0007117931399999999 -0.0007378439200000001 -0.00075567618 -0.0007672063099999999 -0.00077412481 -0.0007778882300000001 -0.0007796694400000001 -0.00078034721 -0.00078052242 -0.0017008798999999998 -0.00176396 -0.0018075014000000001 -0.0018360479999999998 -0.0018535242000000001 -0.0018633355 -0.0018682431 -0.0018703310999999999 -0.0018710304999999998 -0.0033246023 -0.0034467728999999997 -0.0035318196999999996 -0.0035879931 -0.0036227289000000003 -0.0036425306 -0.0036526853000000002 -0.0036572039000000002 -0.0036588486 -0.0055544259999999995 -0.005752952800000001 -0.005891913100000001 -0.0059839729000000005 -0.0060410309 -0.0060736733 -0.0060905078000000005 -0.0060980716 -0.006100868299999999 -0.0081503028 -0.0084284972 -0.0086234491 -0.0087522455 -0.0088316444 -0.0088767055 -0.0088996384 -0.0089097042 -0.0089132776 0.0 0.0 0.0 0.0 0.0 0.0 0.0 0.0 0.0 0.0 0.0 0.0 0.0 0.0 0.0 0.0 0.0 0.0 0.0 0.0 0.0 0.0 0.0 0.0 -1.1822677e-06 -1.1826536000000002e-06 -1.1836501e-06 -1.1847612e-06 -1.1851254e-06 -1.1834423999999998e-06 -1.1779161000000001e-06 -1.1662016e-06 -4.3606164e-05 -4.3613159999999995e-05 -4.3627969999999994e-05 -4.3631564e-05 -4.3590804e-05 -4.3456806e-05 -4.3162549e-05 -4.2622304999999994e-05 -0.00024306827000000002 -0.00024308097999999997 -0.00024308391 -0.0002429689 -0.00024254945 -0.00024155081000000003 -0.00023960254 -0.00023623851000000002 -0.00078054273 -0.00078052253 -0.00078034727 -0.00077966973 -0.00077788817 -0.00077412487 -0.0007672063099999999 -0.00075567618 -0.0018711732000000001 -0.0018710301000000001 -0.0018703304 -0.0018682429 -0.0018633353 -0.0018535245999999998 -0.0018360479999999998 -0.0018075015 -0.0036592223 -0.0036588486 -0.0036572043 -0.0036526856 -0.0036425295 -0.0036227279 -0.0035879924 -0.0035318183 -0.0061015161 -0.0061008665000000005 -0.0060980719999999995 -0.0060905078000000005 -0.0060736728 -0.0060410323 -0.005983973399999999 -0.0058919149 -0.0089140683 -0.0089132786 -0.008909706 -0.0088996394 -0.0088767083 -0.008831651 -0.0087522473 -0.0086234482 0.0 0.0 0.0 0.0 0.0 0.0 0.0 0.0 0.0 0.0 0.0 0.0 0.0 0.0 0.0 0.0 0.0 0.0 0.0 0.0 0.0 0.0 0.0 0.0 0.0 0.0 0.0 -1.1453305e-06 -1.1118938999999998e-06 -1.062264e-06 -9.9295846e-07 -9.011925500000001e-07 -7.653048900000001e-07 -5.145974999999999e-07 -2.1831822e-07 -3.4364493e-08 -4.1733198000000003e-05 -4.0380666e-05 -3.8447331e-05 -3.5757890000000005e-05 -3.1735864000000004e-05 -2.5941796e-05 -1.8746201e-05 -1.1374284e-05 -5.3542752999999995e-06 -0.00023091092999999997 -0.00022302207 -0.00021179472 -0.00019576363 -0.00017343341 -0.00014420343000000002 -0.00010967912 -7.421676099999999e-05 -4.3224609e-05 -0.0007378438 -0.0007117930800000001 -0.00067483482 -0.0006236675 -0.00055519555 -0.0004683118 -0.00036694193999999995 -0.00026193366 -0.00016738835 -0.0017639595 -0.0017008804 -0.0016127754 -0.001493374 -0.0013365794 -0.0011398075 -0.0009103433099999999 -0.00067048386 -0.0004505134099999999 -0.0034467722 -0.0033246018 -0.0031561002000000003 -0.0029306444 -0.0026371863000000002 -0.0022695654 -0.0018380971 -0.0013818622 -0.0009577209699999999 -0.0057529514 -0.0055544259999999995 -0.0052828528000000005 -0.0049221264 -0.004454264 -0.0038665084000000004 -0.0031688605 -0.0024191332 -0.0017121126 -0.0084284991 -0.0081503028 -0.0077711404 -0.00726884 -0.006617295600000001 -0.0057950802 -0.0048069577 -0.003721603 -0.0026781664 -0.0051472215 -0.0037665584000000003 -0.004881857 -0.0060074427 -0.0072299968 -0.0087191351 -0.010759283 -0.013757421 -0.018251378000000002 -0.024812962999999997 -0.033713985 -0.044671506 0.0 0.0 0.0 0.0 0.0 0.0 0.0 0.0 0.0 0.0 0.0 0.0 0.0 0.0 0.0 -1.6506841e-06 -1.9177050000000002e-07 0.0 0.0 -2.0464868e-05 -6.8459816999999994e-06 -1.0139001e-06 -5.8632153e-21 -9.3375813e-05 -4.2746717e-05 -1.3579486999999999e-05 -1.8694783999999998e-06 -0.00027291145 -0.00014400022 -5.9928774000000003e-05 -1.5789378999999997e-05 -0.0006089052799999999 -0.00034737799 -0.00016524256 -5.6520192e-05 -0.0011228428 -0.00067184167 -0.00034469773999999995 -0.0001345304 -0.0017951203 -0.0011077512 -0.00059472094 -0.00024948339 -0.002568373 -0.0016190987 -0.0008939913199999999 -0.00039020827 -0.0033780346 -0.0021630095 -0.0012154006 -0.00054150703 -0.004201903 -0.0027190084000000003 -0.0015434214999999999 -0.0006938832799999999 -0.0050846543 -0.0033082955 -0.0018870202 -0.00085080368 -0.0061508799 -0.0040085725 -0.0022877939 -0.0010315735 -0.0076205479 -0.0049650259 -0.0028272867 -0.0012742486 -0.009825792199999999 -0.0064092753 -0.0036424457 -0.0016442257999999999 -0.01323694 -0.0086906897 -0.0049604243 -0.0022633383 -0.018377025 -0.012221714 -0.0070989248 -0.0033513573 -0.025470762 -0.017213132 -0.010343938 -0.0052440846 -0.034241377999999996 -0.023587931 -0.014890816000000001 0.0 0.0 0.0 0.0 0.0 0.0 0.0 0.0 0.0 0.0 0.0 0.0 0.0 0.0 0.0 0.0 0.0 0.0 0.0 0.0 0.0 0.0 0.0 0.0 0.0 0.0 0.0 0.0 0.0 0.0 0.0 0.0 0.0 0.0 0.0 0.0 0.0 0.0 0.0 0.0 0.0 0.0 0.0 0.0 0.0 0.0 0.0 0.0 0.0 0.0 0.0 0.0 0.0 0.0 0.0 0.0 0.0 0.0 0.0 0.0 0.0 0.0 0.0 0.0 0.0 0.0 0.0 0.0 0.0 0.0 0.0 0.0 0.0 0.0 0.0 0.0 0.0 0.0 0.0 0.0 0.0 0.0 0.0 0.0 0.0 0.0 0.0 0.0 0.0 0.0 0.0 0.0 0.0 0.0 0.0 0.0 0.0 0.0 0.0 0.0 0.0 0.0 0.0 0.0 0.0 0.0 0.0 0.0 0.0 0.0 0.0 0.0 0.0 0.0 0.0 0.0 0.0 0.0 0.0 0.0 0.0 0.0 0.0 0.0 0.0 0.0 0.0 0.0 0.0 0.0 0.0 0.0 0.0 0.0 0.0 0.0 0.0 0.0 0.0 0.0 0.0 0.0 0.0 0.0 0.0 0.0 0.0 0.0 0.0 0.0 0.0 0.0 0.0 0.0 0.0 0.0 0.0 0.0 0.0 0.0 0.0 0.0 0.0 0.0 0.0 0.0 0.0 0.0 0.0 0.0 0.0 0.0 0.0 0.0 0.0 0.0 0.0 0.0 0.0 0.0 0.0 0.0 0.0 0.0 0.0 0.0 0.0 0.0 0.0 0.0 0.0 0.0 0.0 0.0 0.0 0.0 0.0 0.0 0.0 0.0 0.0 0.0 0.0 0.0 0.0 0.0 0.0 0.0 0.0 0.0 0.0 0.0 0.0 0.0 0.0 0.0 0.0 0.0 0.0 0.0 0.0 0.0 0.0 0.0 0.0 0.0 0.0 0.0 0.0 0.0 0.0 0.0 0.0 0.0 0.0 0.0 0.0 0.0 0.0 0.0 0.0 0.0 0.0 0.0 0.0 0.0 0.0 0.0 0.0 0.0 0.0 0.0 0.0 0.0 0.0 0.0 0.0 0.0 0.0 0.0 0.0 0.0 0.0 0.0 0.0 0.0 0.0 0.0 0.0 0.0 0.0 0.0 0.0 0.0 0.0 0.0 0.0 0.0 0.0 0.0 0.0 0.0 0.0 0.0 0.0 0.0 0.0 0.0 0.0 0.0 0.0 0.0 0.0 0.0 0.0 0.0 0.0 0.0 0.0 0.0 0.0 0.0 0.0 0.0 0.0 0.0 0.0 0.0 0.0 0.0 0.0 0.0 0.0 0.0 0.0 0.0 0.0 0.0 0.0 0.0 0.0 0.0 0.0 0.0 0.0 0.0 0.0 0.0 0.0 0.0 0.0 0.0 0.0 0.0 0.0 0.0 0.0 0.0 0.0 0.0 0.0 0.0 0.0 0.0 0.0 0.0 0.0 0.0 0.0 0.0 0.0 0.0 0.0 0.0 0.0 0.0 0.0 0.0 0.0 0.0 0.0 0.0 0.0 0.0 0.0 0.0 0.0 0.0 0.0 0.0 0.0 0.0 0.0 0.0 0.0 0.0 0.0 0.0 0.0 0.0 0.0 0.0 0.0 0.0 0.0 0.0 0.0 0.0 0.0 0.0 0.0 0.0 0.0 0.0 0.0 0.0 0.0 0.0 0.0 0.0 0.0 0.0 0.0 0.0 0.0 0.0 0.0 0.0 0.0 0.0 0.0 0.0 0.0 0.0 0.0 0.0 0.0 0.0 0.0 0.0 0.0 0.0 0.0 0.0 0.0 0.0 0.0 0.0 0.0 0.0 0.0 0.0 0.0 0.0 0.0 0.0 0.0 0.0 0.0 0.0 0.0 0.0 0.0 0.0 0.0 0.0 0.0 0.0 0.0 0.0 0.0 0.0 0.0 0.0 0.0 0.0 0.0 0.0 0.0 0.0 0.0 0.0 0.0 0.0 0.0 0.0 0.0 0.0 0.0 0.0 0.0 0.0 -0.006527125799999999 -0.0077759861 -0.0088001713 -0.0096059861 -0.010223906999999999 -0.0064994656000000005 -0.0082038501 -0.0096717691 -0.010858393000000001 -0.011777731999999999 -0.012472373 -0.007918973499999999 -0.0099101607 -0.011603631000000001 -0.012943753999999998 -0.013956234 -0.01470114 -0.0094894823 -0.011816995 -0.013769921000000001 -0.015279995 -0.016385358 -0.017168466 -0.011424542 -0.014147423999999999 -0.016395921 -0.018098476999999998 -0.019306714 -0.020123363000000002 -0.014135672 -0.017273648 -0.019785307 -0.021640936 -0.022928562000000003 -0.023766682999999997 -0.018293476 -0.02177885 -0.02436118 -0.026190933 -0.027438207000000003 -0.028237373 -0.024844727 -0.02840759 -0.030613234 -0.03203601 -0.032996316 -0.033626366 -0.034842566 -0.037832595 -0.038904712 -0.039356548 -0.039695345 -0.039986018 -0.04881734 -0.05011701599999999 -0.049145024 -0.048075058 -0.04751259099999999 -0.047334540999999994 -0.065563425 -0.06416302900000001 -0.060584045999999996 -0.057784706 -0.056279428 -0.055639651 -0.079952151 -0.077551864 -0.07201133700000001 -0.067930825 -0.065784365 -0.064856552 -0.085561149 -0.08694317900000001 -0.08225528900000001 -0.078163013 -0.075958267 -0.07501617099999999 -0.08817178 -0.09321858 -0.09156083300000001 -0.08868151199999999 -0.086993739 -0.086276591 -0.094481155 -0.10057487 -0.1015667 -0.10024701 -0.099321134 -0.09889973699999999 -0.10618213 -0.1118372 -0.11397916 -0.11374368 -0.11338412 -0.11317319 -0.12258035 -0.12732485 -0.12947616 -0.12961528 -0.12950143 -0.12936257 -0.14245465 -0.14628622 -0.1479685 -0.14799006 -0.14789726 -0.14773536 -0.16493455 -0.16818492 -0.16928566 -0.16900849 -0.16882861 -0.1685669 -0.19029894 -0.19307317 -0.19357544 -0.19293043 -0.19257653 -0.19212094 -0.21924031 -0.22129613 -0.22111087 -0.22005068 -0.21941675 -0.2186514 -0.25218287 -0.2531386 -0.25222346 -0.25068057 -0.24961947 -0.24838524 -0.28934732 -0.28883317 -0.28726178 -0.28510469 -0.28336444 -0.28142503 -0.33053035 -0.32836267 -0.3263827 -0.32329816 -0.32046527 -0.31747997 -0.37473911 -0.37100357 -0.36903614 -0.36441386 -0.35986349 -0.35539228 -0.4193736 -0.41472578 -0.41322261 -0.4060072 -0.3989521 -0.39253917 -0.45941964 -0.45525607 -0.45447662 -0.44318771 -0.43290621 -0.42428723 -0.48732227 -0.48565507 -0.48512766 -0.46830329 -0.45445222 -0.4437868 -0.49252421 -0.49554265 -0.49447039 -0.47138718 -0.45425391 -0.44231206 -0.45987141 -0.4697586 -0.46807441 -0.43999556 -0.42130175 -0.40949345 -0.36854494 -0.38646182 -0.38767797 -0.35929412 -0.34180373 -0.3321504 -0.19151112 -0.2220953 -0.23485039 -0.21274248 -0.20027265 -0.19432357 0.09115342800000001 0.036221087 0.0097675622 0.011496276000000001 0.015164763000000001 0.017479852 0.46933037 0.36225092 0.33989918 0.32016987 0.30745643 0.30515385 0.88173437 0.71639526 0.70875239 0.68651944 0.65677017 0.64950597 1.2471762 1.0652146 1.0693487 1.0504044 1.0153526 1.0060303 1.5322396 1.3328935 1.3411281000000002 1.3434291999999999 1.3160478 1.3106354 1.6922998 1.4592322 1.4644508 1.4932339 1.4898243999999998 1.5007116000000003 1.7307172999999998 1.4672601 1.4714698999999998 1.5200806 1.5386097 1.5647751 1.6890866999999998 1.4069235 1.4079635 1.4679533 1.4993138000000001 1.5348892 1.6135241000000002 1.3260152 1.3238072 1.3856764 1.4200518 1.4583098 1.5349339 1.2512132 1.2483281000000002 1.3047468999999998 1.3343606000000001 1.3696901000000001 1.4588303999999999 1.1838876 1.180081 1.2287053999999997 1.2503102 1.279393 1.37628 1.1111538 1.1050889 1.1449435 1.157383 1.1784046000000001 1.2727565 1.0183353000000002 1.0074635 1.0372084000000001 1.040282 1.0522907 1.1411953000000001 0.89960885 0.8803947 0.89858919 0.89224875 0.89538932 0.98904097 0.76076555 0.73217249 0.73699218 0.72219956 0.71786582 0.83171964 0.61889356 0.58131623 0.5726862 0.5525378 0.54203224 0.6849981 0.49134594 0.44526052 0.42988175 0.40520972 0.38967234 0.56578028 0.38617742 0.33834016 0.32047755 0.29122514 0.27251607 0.47507602 0.30458224 0.26402155 0.24369565 0.21113876 0.19123481 0.40603116 0.24677104 0.21181627 0.19188544 0.15934201 0.13922289 0.34733361 0.20903036 0.17314124 0.15593588 0.12652668 0.10750768 0.30381587 0.19087905 0.14668831 0.1293792 0.10449546 0.088416867 0.29363304 0.18071726 0.12285352 0.10555711 0.088128611 0.076876812 0.17563051 0.098494574 0.083749466 0.07478093400000001 0.070121452 0.17895399 0.09199184199999999 0.067433432 0.064235143 0.065743521 0.11634232 0.069271259 0.063813284 0.063698322 0.15629742 0.10853849 0.08158645 0.071454987 0.16402219 0.12692963 0.10086022 0.18654422 0.1585907 0.18735653 0.21864045 -0.010688942 -0.011029493000000001 -0.011266948999999998 -0.011422121 -0.011516249 -0.011568361000000001 -0.011593788999999998 -0.011604088 -0.011607205 -0.012988646999999999 -0.013362333 -0.013618508 -0.013781399 -0.013876427 -0.013925779 -0.013947026000000001 -0.013953316 -0.013953644 -0.015240438 -0.015620054 -0.015870342 -0.016020216 -0.016099889 -0.016134278999999998 -0.016142655 -0.01613917 -0.016133426 -0.017711898 -0.01807528 -0.018297103999999998 -0.018413737 -0.018461404 -0.018467812 -0.01845365 -0.018433794 -0.018418146 -0.020656621 -0.020984432 -0.021156855 -0.021221146 -0.021220474 -0.021185792999999998 -0.021139191 -0.021096071 -0.021066459 -0.024272658 -0.02454357 -0.024645632 -0.024638791 -0.024573769 -0.024485108 -0.024396304 -0.02432311 -0.024275575 -0.028686213999999998 -0.028874068 -0.028883059 -0.02878554 -0.028640265 -0.028485211 -0.028344996 -0.028235443 -0.028166259 -0.033960421 -0.034036193 -0.033927478 -0.033719279 -0.033478282000000005 -0.033245462999999996 -0.033045746 -0.032894373 -0.032800443 -0.040131669 -0.040064856 -0.039816659 -0.039479889 -0.039129912999999995 -0.038809985 -0.038544497999999996 -0.038347393 -0.038226473999999996 -0.047238283 -0.047009565 -0.04661070900000001 -0.046134524 -0.045667186 -0.045254424 -0.044919497999999995 -0.044674415 -0.044525447999999995 -0.055309765 -0.05492680900000001 -0.054382458 -0.053767472999999996 -0.053181770999999996 -0.052675251 -0.052270442 -0.051977302999999996 -0.051800247 -0.064375073 -0.063876092 -0.06320877400000001 -0.062468532 -0.061772071 -0.061176293 -0.060704459 -0.060365114000000004 -0.060161009 -0.07450211799999999 -0.073940665 -0.07318411 -0.072342165 -0.07154981 -0.070873857 -0.070340544 -0.069958337 -0.069729 -0.08582287300000001 -0.08524308400000001 -0.084431566 -0.083514474 -0.082644247 -0.081899203 -0.081310913 -0.080889404 -0.08063665 -0.098528832 -0.09794981800000001 -0.097107463 -0.096135564 -0.09520210300000001 -0.09439706099999999 -0.093758546 -0.093299732 -0.093024269 -0.11284937 -0.11226651 -0.11139727 -0.11037643 -0.10938422 -0.10852069 -0.10783086 -0.10733268 -0.10703253 -0.12903409 -0.12842257 -0.12750573 -0.12642097 -0.12535776 -0.12442388 -0.12367118 -0.12312357 -0.12279175 -0.14734636 -0.14665425 -0.14564306 -0.14445436 -0.14328453 -0.14224823 -0.14140475 -0.14078517 -0.14040706 -0.16804181 -0.16719218 -0.16601214 -0.16464885 -0.16330646 -0.16210757 -0.16112161 -0.16039047 -0.15994075 -0.19136283 -0.19025359 -0.18879689 -0.18714839 -0.18552727 -0.18406905 -0.18285896 -0.18195368 -0.18139336 -0.21753693 -0.21603227 -0.2141452 -0.21204859 -0.2099902 -0.20813085 -0.20657836 -0.20541063 -0.2046847 -0.24674843 -0.24466139 -0.24212812 -0.23935437 -0.23663999 -0.23418705 -0.23213524 -0.23058949 -0.22962734 -0.27903247 -0.27610356 -0.27263063 -0.26887777 -0.26522681 -0.26193997 -0.25919828 -0.2571362 -0.25585434 -0.3140139 -0.30990019 -0.30511385 -0.30001235 -0.29509628 -0.29070559 -0.28706464 -0.28433761 -0.28264683 -0.3504647 -0.34475487 -0.33822241 -0.33136392 -0.32483715 -0.31907037 -0.31432807 -0.31079602 -0.30861354 -0.38576773 -0.37804687 -0.36933386 -0.36032203 -0.35186404 -0.34448326 -0.33847144 -0.33402252 -0.33128464 -0.41546771 -0.40545529 -0.39423159 -0.38275659 -0.37212595 -0.36296478 -0.35557684 -0.35014737 -0.34681934 -0.43309361 -0.42084557 -0.40705892 -0.39301741 -0.3801192 -0.36912173 -0.36033651 -0.35392255 -0.35000613 -0.43042618 -0.41649103 -0.40054655 -0.38419589 -0.36917481 -0.35643664 -0.34633166 -0.33899415 -0.33452666 -0.39758012 -0.38292852 -0.3656573 -0.347646 -0.3309325 -0.31672561 -0.30548346 -0.29734454 -0.29239678 -0.32166731 -0.30743247 -0.28982523 -0.27102745 -0.25329435 -0.23807199 -0.22599608 -0.21725889 -0.21194932 -0.18642102 -0.17358465 -0.15651301 -0.13781564 -0.11990286 -0.10434715 -0.09194415800000001 -0.082963288 -0.07750351700000001 0.02271086 0.033897534 0.050033346 0.06796252700000001 0.08516728900000001 0.1001464 0.11210383 0.12075594 0.12601593 0.30894226 0.31954268 0.33520505 0.35216573 0.36791337 0.38129982 0.39181858 0.39935312 0.403914 0.65422761 0.66667724 0.6833303 0.69971442 0.71354532 0.72437268 0.73236084 0.7378546 0.74112219 1.0145262 1.0318205 1.0514196000000002 1.0679711 1.0796936000000001 1.0872051999999999 1.0917362 1.0943843999999998 1.0958323 1.325963 1.3503478 1.3742676 1.3915803 1.4012601 1.4052361 1.4059979 1.4055221000000002 1.4049684999999998 1.5278896999999998 1.5606718000000002 1.5894921999999998 1.6082561000000002 1.6167424 1.6180861 1.6159041 1.6129513 1.6108046999999999 1.6025486999999998 1.6429929 1.6768806 1.6981686000000003 1.7071272000000002 1.7077196 1.7043506999999998 1.7003143 1.6974578000000002 1.5795921 1.6254734 1.6636123999999999 1.6878912 1.6986849 1.7003032999999999 1.6975126 1.6938269 1.6911831000000002 1.5054543 1.5536097 1.5941864 1.6209121000000002 1.6339537 1.6375534999999999 1.6364396 1.6340582000000001 1.6322567 1.415076 1.4622521000000002 1.5029997 1.5308819 1.5456696 1.5512562 1.5520653999999998 1.5512795 1.5505338 1.3198488000000002 1.3634053 1.4022459999999999 1.4297888 1.4453267 1.4522638 1.4545996 1.4551681 1.4553409 1.2119021 1.2501235000000002 1.2855899 1.3115706 1.3268776000000002 1.3343749 1.3376059999999999 1.3390574 1.3398565 1.0778003 1.1098989 1.1413194 1.1651433 1.179685 1.1872401000000001 1.1909056999999998 1.1928668 1.1940496 0.912835 0.93901402 0.96666336 0.98855627 1.0024633 1.0100992 1.0141337 1.0165038 1.0179901 0.72839642 0.74993253 0.77494502 0.79578853 0.80969203 0.81781602 0.82245302 0.82534242 0.82716775 0.54765505 0.56622094 0.58981681 0.61040956 0.62478614 0.63365608 0.6390053 0.64243233 0.64457476 0.39223737 0.40893584 0.43163916 0.45209584 0.46681875 0.47619617 0.48199108 0.48570976 0.48799023 0.27292252 0.28790459 0.30939057 0.3291465 0.34357637 0.35285926 0.35858315 0.36218506 0.36433554 0.189559 0.20217471 0.22149114 0.23957554 0.25286371 0.26137286 0.26650754 0.26960853 0.27138701 0.13537385 0.14467227 0.16055563 0.17587456 0.18722051 0.19443101 0.19864251 0.20102584 0.20230398 0.10194343 0.10723106 0.1184556 0.12997161 0.13873689 0.14434774 0.14753029 0.14918402 0.14997517 0.08243194200000001 0.08388393400000001 0.089680836 0.096492156 0.10211487 0.10589285 0.10804789 0.10908552 0.10950626 0.072498076 0.071532525 0.072181404 0.073676705 0.07546389099999999 0.076943994 0.077892169 0.07835157200000001 0.07850723 0.06952004099999999 0.068588547 0.06578306099999999 0.062212855 0.059369937000000005 0.057671085 0.05676810400000001 0.056313260999999996 0.056096703 0.070642948 0.072600432 0.069372237 0.062624641 0.055294975999999996 0.04948175 0.045700297 0.043538824000000004 0.04248538599999999 0.072272293 0.0792614 0.07921246400000001 0.072725564 0.063155852 0.053817026 0.046594933 0.041931123 0.039456159 0.07348568700000001 0.08355587 0.089336425 0.087227747 0.07932502799999999 0.069391496 0.060312897000000004 0.053559311 0.049574092 0.085832134 0.085081846 0.093843155 0.099103466 0.09745335599999999 0.091198109 0.083666585 0.07706861200000001 0.072721265 0.12195697 0.10117604 0.095924452 0.10294561 0.11004396 0.11209198 0.11025081 0.10700881 0.10430365 0.17877519 0.14469433 0.12024797 0.11110784 0.11537886 0.12498049 0.13204047 0.13551207 0.13662495 0.20281187 0.18891527 0.17056775 0.15416829 0.14271691 0.13975132 0.14590257 0.153868 0.15919505 0.17938279 0.19169417 0.19515686 0.196777 0.1971316 0.19590001 0.19810542 0.20169085 0.1769201 0.20107347 0.21181647 0.23015383 0.25374699 0.26985943 0.16876896 0.17960691 0.19625774 0.21548942 -0.011607744 -0.011607205 -0.011604088 -0.011593786000000002 -0.01156836 -0.011516249 -0.011422118 -0.01126695 -0.01395319 -0.013953648 -0.013953325 -0.013947028 -0.013925775 -0.01387643 -0.0137814 -0.01361851 -0.016130913 -0.016133424 -0.016139178 -0.016142659 -0.016134278999999998 -0.016099887 -0.016020213999999998 -0.015870346 -0.018412318 -0.018418143999999997 -0.0184338 -0.018453656000000002 -0.01846781 -0.018461399 -0.018413728 -0.018297099 -0.021055989 -0.021066459 -0.021096072999999996 -0.021139197000000002 -0.021185789 -0.021220481 -0.021221152000000004 -0.021156853 -0.024259133 -0.024275571 -0.024323123 -0.024396311 -0.024485113 -0.024573782000000002 -0.024638796 -0.024645632 -0.028142622000000003 -0.028166246000000002 -0.028235449 -0.028344991 -0.028485207000000002 -0.028640263 -0.028785525 -0.028883066000000002 -0.032768644 -0.03280044 -0.032894388 -0.033045739 -0.033245452 -0.033478282000000005 -0.033719275 -0.033927489 -0.038185778999999996 -0.038226459 -0.038347371 -0.038544483 -0.03880997 -0.039129912999999995 -0.039479867 -0.039816678 -0.044475485 -0.044525447999999995 -0.044674434000000006 -0.044919513 -0.045254409 -0.045667175 -0.046134512999999995 -0.046610739000000005 -0.051741040999999995 -0.05180027 -0.051977314000000004 -0.052270461 -0.052675251 -0.053181782000000004 -0.053767521 -0.054382477 -0.060092948 -0.060161013 -0.060365126 -0.060704459 -0.061176304 -0.061772062999999995 -0.062468573 -0.063208826 -0.06965261 -0.069728971 -0.06995828400000001 -0.070340551 -0.070873894 -0.071549818 -0.072342165 -0.073184088 -0.080552533 -0.08063665 -0.080889389 -0.081310958 -0.081899241 -0.082644232 -0.083514504 -0.084431559 -0.09293253 -0.093024284 -0.093299739 -0.09375855300000001 -0.094397046 -0.095202066 -0.096135601 -0.09710744800000001 -0.10693236 -0.10703254 -0.1073327 -0.10783091 -0.10852073 -0.10938418 -0.11037641 -0.11139734 -0.12268068 -0.1227917 -0.12312347 -0.12367119 -0.12442389 -0.12535772 -0.12642086 -0.12750576 -0.14028016 -0.14040715 -0.14078522 -0.14140475 -0.14224815 -0.14328456 -0.14445429 -0.14564306 -0.15978914 -0.15994076 -0.16039044 -0.16112164 -0.16210757 -0.16330636 -0.16464885 -0.1660122 -0.18120357 -0.18139321 -0.18195367 -0.18285894 -0.18406904 -0.18552727 -0.18714854 -0.18879706 -0.20443851 -0.20468487 -0.20541064 -0.20657854 -0.208131 -0.2099901 -0.21204862 -0.21414508 -0.22930066 -0.22962733 -0.23058948 -0.2321353 -0.23418696 -0.23664004 -0.23935434 -0.24212801 -0.25541884 -0.25585437 -0.2571362 -0.25919846 -0.26194015 -0.26522681 -0.26887774 -0.27263057 -0.28207341 -0.28264683 -0.28433764 -0.28706467 -0.29070562 -0.29509631 -0.30001226 -0.30511379 -0.30787492 -0.30861366 -0.3107959 -0.31432787 -0.31907034 -0.32483706 -0.33136395 -0.33822232 -0.33035937 -0.33128449 -0.33402246 -0.33847135 -0.34448323 -0.35186407 -0.36032191 -0.36933371 -0.34569693 -0.34681934 -0.35014746 -0.35557678 -0.3629646 -0.37212592 -0.38275677 -0.39423159 -0.34868705 -0.35000631 -0.35392261 -0.3603366 -0.36912173 -0.38011926 -0.39301735 -0.4070586 -0.33302391 -0.33452675 -0.33899438 -0.3463316 -0.35643646 -0.36917469 -0.38419589 -0.40054661 -0.29073331 -0.29239732 -0.2973446 -0.30548352 -0.31672567 -0.33093271 -0.34764588 -0.36565754 -0.21016295 -0.21194904 -0.21725883 -0.22599618 -0.23807183 -0.25329444 -0.27102768 -0.28982553 -0.075665683 -0.077503294 -0.082963213 -0.091943949 -0.10434714 -0.1199028 -0.13781574 -0.15651305 0.12778743 0.12601571 0.12075602 0.11210398 0.10014644 0.08516751199999999 0.067962497 0.05003342 0.40544987 0.40391412 0.39935309 0.391819 0.38129988 0.36791354 0.35216594 0.33520505 0.74221873 0.74112231 0.73785484 0.73236084 0.72437274 0.7135455 0.69971442 0.68333042 1.0963083999999998 1.0958321000000002 1.0943843999999998 1.0917363000000002 1.0872053999999998 1.0796936000000001 1.067971 1.0514203000000002 1.4047608 1.4049677999999999 1.4055221000000002 1.4059976 1.4052358999999999 1.4012601 1.3915801 1.3742671999999998 1.6100543 1.6108048000000001 1.6129521999999998 1.6159036 1.6180858999999999 1.6167431 1.6082571 1.5894918 1.6964650000000001 1.6974581000000002 1.7003143 1.7043506999999998 1.7077191000000003 1.7071273 1.6981685000000002 1.6768816000000002 1.6902664 1.6911819 1.6938276 1.697512 1.7003028000000002 1.6986851000000003 1.6878919999999997 1.6636126 1.6316338 1.632256 1.6340582000000001 1.6364388 1.6375532 1.6339535 1.6209122 1.5941864 1.550282 1.5505338 1.5512798 1.5520653 1.5512561000000002 1.5456696 1.5308825000000001 1.5029993000000001 1.4554138 1.4553409 1.455168 1.4545994 1.4522636 1.4453261999999998 1.4297893 1.402247 1.3401538 1.3398571000000001 1.3390572 1.3376062 1.334375 1.3268778 1.3115705 1.2855896999999998 1.1944878 1.1940501000000001 1.1928666 1.1909053 1.1872403999999999 1.1796848999999998 1.1651434999999999 1.1413198 1.0185366 1.0179898 1.0165033 1.0141337 1.0100992 1.0024633 0.98855603 0.96666312 0.82783079 0.82716739 0.82534182 0.82245332 0.81781614 0.80969167 0.79578865 0.77494496 0.64534038 0.64457494 0.64243251 0.63900536 0.63365597 0.6247862 0.61040944 0.58981723 0.48879197 0.48798999 0.48570997 0.48199132 0.47619623 0.46681878 0.45209605 0.43163905 0.3650786 0.36433533 0.36218482 0.35858321 0.35285944 0.34357664 0.32914633 0.30939037 0.27198926 0.27138695 0.26960865 0.26650757 0.26137289 0.25286359 0.23957573 0.22149113 0.20272163 0.20230386 0.20102605 0.19864261 0.19443125 0.18722069 0.17587456 0.16055578 0.15021543 0.14997518 0.14918387 0.14753047 0.14434779 0.13873686 0.12997161 0.11845557 0.10961543 0.10950617 0.10908578 0.10804786 0.10589282 0.10211495 0.09649196300000001 0.08968077599999999 0.078535959 0.078507155 0.078351974 0.077892274 0.076943934 0.075463757 0.073676705 0.072181381 0.056031331 0.056096777 0.056313321 0.05676806 0.057671204000000004 0.059369995999999994 0.062212989 0.065783069 0.0421772 0.042485207000000004 0.043538883 0.045700356 0.049481809 0.055294894000000004 0.062624678 0.069372408 0.03869544 0.039456188999999996 0.041931182000000004 0.046594985 0.053817055999999995 0.063155763 0.072725572 0.079212457 0.048269562 0.049574062 0.053559302999999996 0.060312919000000006 0.069391459 0.07932505 0.08722779900000001 0.08933638 0.071214922 0.072721295 0.07706856 0.08366648900000001 0.091198161 0.097453341 0.099103436 0.09384302800000001 0.10329631 0.10430361 0.10700872 0.11025078 0.11209197 0.110044 0.1029456 0.095924541 0.13684614 0.13662495 0.13551201 0.13204049 0.12498053 0.11537892 0.11110786 0.12024803 0.16108865 0.15919507 0.15386799 0.14590254 0.13975126 0.14271683 0.15416822 0.17056772 0.20318647 0.20169094 0.19810525 0.19590014 0.19713143 0.19677696 0.19515696 0.19169402 0.27516907 0.26985911 0.25374705 0.23015365 0.21181643 0.20107347 0.17691991 0.2223289 0.21548946 0.19625768 0.17960703 0.16876882 -0.011029493000000001 -0.010688941 -0.01022391 -0.009605987 -0.0088001704 -0.0077759856 -0.0065271277 -0.013362337 -0.012988646999999999 -0.012472378999999999 -0.011777734 -0.010858392 -0.009671771 -0.0082038511 -0.006499466 -0.015620051000000001 -0.015240436999999999 -0.014701146000000002 -0.013956238999999999 -0.012943757 -0.01160363 -0.009910159699999999 -0.0079189716 -0.018075278 -0.017711904 -0.017168472 -0.016385358 -0.015279998000000001 -0.013769925 -0.011816995 -0.0094894823 -0.020984439 -0.02065664 -0.020123376000000002 -0.019306716 -0.018098487 -0.016395923 -0.014147422 -0.011424541000000002 -0.024543572000000003 -0.024272667 -0.02376668 -0.022928568 -0.021640942000000003 -0.019785305 -0.017273643999999998 -0.014135673 -0.028874068 -0.028686229 -0.028237362999999998 -0.02743821 -0.026190948 -0.02436118 -0.02177885 -0.018293478000000002 -0.034036212 -0.033960423999999996 -0.033626374 -0.032996318999999996 -0.032036021 -0.030613243999999998 -0.028407598 -0.024844741 -0.040064845 -0.040131677000000004 -0.039986003 -0.039695363 -0.039356548 -0.038904727 -0.03783261 -0.034842569 -0.047009572 -0.04723829 -0.047334522000000004 -0.047512602 -0.048075054000000006 -0.049145035 -0.050117031 -0.048817359000000005 -0.05492682 -0.05530978 -0.055639654000000004 -0.056279439 -0.057784718 -0.060584072 -0.06416302900000001 -0.065563433 -0.063876107 -0.064375095 -0.064856596 -0.065784387 -0.067930847 -0.072011344 -0.07755189400000001 -0.079952165 -0.073940687 -0.074502125 -0.07501617099999999 -0.075958274 -0.078163013 -0.082255311 -0.086943194 -0.085561141 -0.085243061 -0.085822895 -0.086276554 -0.086993739 -0.088681489 -0.09156084099999999 -0.09321858699999999 -0.088171795 -0.09794983300000001 -0.09852884699999999 -0.09889973699999999 -0.099321172 -0.100247 -0.10156667 -0.10057484 -0.094481155 -0.11226656 -0.11284937 -0.11317319 -0.11338416 -0.11374371 -0.11397918 -0.11183717 -0.10618219 -0.12842259 -0.12903407 -0.1293626 -0.12950145 -0.12961529 -0.12947616 -0.12732486 -0.12258038 -0.14665429 -0.14734644 -0.14773527 -0.14789727 -0.14799005 -0.1479685 -0.14628623 -0.14245471 -0.16719222 -0.16804194 -0.16856693 -0.16882855 -0.16900846 -0.16928566 -0.16818498 -0.16493461 -0.19025367 -0.19136286 -0.19212109 -0.19257645 -0.19293046 -0.19357549 -0.19307321 -0.19029894 -0.21603221 -0.21753667 -0.21865149 -0.21941657 -0.22005069 -0.22111085 -0.22129621 -0.2192404 -0.24466124 -0.24674833 -0.24838549 -0.24961945 -0.25068057 -0.2522234 -0.2531386 -0.25218278 -0.27610356 -0.27903253 -0.28142512 -0.28336442 -0.28510475 -0.28726178 -0.28883308 -0.28934735 -0.30990034 -0.31401423 -0.31748 -0.32046524 -0.32329804 -0.32638282 -0.32836279 -0.33053035 -0.34475508 -0.35046461 -0.35539246 -0.35986361 -0.36441401 -0.36903614 -0.37100354 -0.3747392 -0.37804684 -0.3857677 -0.39253914 -0.39895222 -0.40600717 -0.41322243 -0.41472575 -0.41937363 -0.40545529 -0.41546786 -0.42428732 -0.43290609 -0.44318771 -0.45447636 -0.4552561 -0.45941967 -0.4208456 -0.43309376 -0.44378713 -0.45445216 -0.46830362 -0.48512781 -0.4856551 -0.48732227 -0.41649082 -0.43042609 -0.442312 -0.45425367 -0.47138754 -0.49447045 -0.495543 -0.49252415 -0.38292834 -0.39758039 -0.40949333 -0.42130166 -0.43999574 -0.46807462 -0.46975875 -0.45987141 -0.30743229 -0.32166773 -0.33215055 -0.34180385 -0.35929441 -0.38767809 -0.38646173 -0.36854476 -0.17358473 -0.18642107 -0.19432363 -0.20027278 -0.21274251 -0.23485044 -0.22209515 -0.19151102 0.033897579 0.022710845 0.017480016 0.015164867 0.01149638 0.0097675025 0.036221206 0.091153651 0.31954271 0.30894226 0.30515373 0.30745655 0.32016978 0.33989933 0.36225078 0.46933046 0.66667712 0.65422726 0.64950609 0.65677029 0.68651962 0.70875233 0.71639508 0.88173413 1.0318207 1.0145264 1.0060307 1.0153526 1.0504045 1.0693486 1.0652144 1.2471758999999998 1.3503486999999998 1.3259636000000001 1.3106360000000001 1.3160465000000001 1.343429 1.3411289 1.3328937 1.5322396999999999 1.5606716 1.5278901000000003 1.5007126 1.4898248 1.493234 1.4644506000000002 1.4592321000000001 1.6922996 1.6429924999999999 1.6025499 1.5647761999999998 1.5386101 1.5200806 1.4714695 1.4672601 1.7307168000000002 1.6254737 1.5795914 1.5348901000000001 1.4993141 1.4679536 1.4079638 1.4069233 1.6890857 1.5536097 1.505455 1.4583104 1.4200523999999999 1.3856773 1.3238071000000002 1.3260148 1.6135243000000001 1.4622531 1.4150764999999998 1.3696902 1.3343610000000001 1.3047468999999998 1.2483273000000001 1.2512133 1.5349338 1.3634053 1.3198485 1.2793938999999999 1.2503102 1.2287058000000002 1.1800814 1.1838875 1.4588306999999998 1.2501229999999999 1.2119024 1.1784048999999999 1.1573825 1.1449437 1.1050888 1.1111538 1.3762794 1.1098983999999998 1.0778002 1.0522908000000002 1.0402824000000002 1.0372086999999999 1.0074635 1.0183351 1.2727559 0.93901372 0.91283518 0.8953898 0.89224863 0.89858902 0.88039446 0.89960933 1.1411953000000001 0.74993205 0.72839653 0.71786571 0.72219986 0.736992 0.73217231 0.76076579 0.98904085 0.56622064 0.54765475 0.54203224 0.55253768 0.57268608 0.58131576 0.6188935 0.83171999 0.40893579 0.39223748 0.38967222 0.40520969 0.42988169 0.44526055 0.49134564 0.68499786 0.28790444 0.27292237 0.27251589 0.29122508 0.32047746 0.33834013 0.3861773 0.56578028 0.20217484 0.18955883 0.19123472 0.21113874 0.24369562 0.26402158 0.30458212 0.47507578 0.14467238 0.13537386 0.13922283 0.15934205 0.19188546 0.21181631 0.24677098 0.40603098 0.10723104 0.10194336 0.10750753 0.12652664 0.15593594 0.17314136 0.20903054 0.34733361 0.08388390400000001 0.08243176299999999 0.08841680699999999 0.10449541 0.12937915 0.1466884 0.1908792 0.30381596 0.071532503 0.07249803099999999 0.076876715 0.08812853699999999 0.10555711 0.12285359 0.18071711 0.29363328 0.06858848 0.069519967 0.070121393 0.07478091099999999 0.083749473 0.09849470099999999 0.17563038 0.072600335 0.070643015 0.065743484 0.06423515099999999 0.06743335 0.09199169300000001 0.17895383 0.079261288 0.072272278 0.063698165 0.06381315 0.069271415 0.11634236 0.083555758 0.073485576 0.07145504700000001 0.08158648 0.10853826 0.1562975 0.085081905 0.08583228300000001 0.10086001 0.1269297 0.1640224 0.10117598 0.12195671 0.15859081 0.18654409 0.14469439 0.17877519 0.21864037 0.18735616 0.18891512 0.20281175 0.17938261 
VonMises3D 1 2975 float
0.0 0.0 0.0 0.0 0.0 0.0 0.0 0.0 0.0 0.0 0.0 0.0 0.0 0.00031779933 2.4670208999999998e-18 0.0023561122 0.013235463999999999 0.0050426777 0.03573351 0.09313687699999999 0.047512729000000004 0.17338425 0.34506139 0.18632007 0.52062786 0.90945691 0.48450693 1.1819343999999998 1.9234365000000002 0.98128057 2.2189467 3.4687803 1.671499 3.6179504000000002 5.5251617 2.5080782999999998 5.2933373 7.966898 3.4316248999999996 7.1400833 10.638005 4.410482900000001 9.106741900000001 13.468216 5.469452400000001 11.242503999999998 16.567692 6.9395428 13.736934 20.413631 12.279964 17.989767 26.263928999999997 34.381622 33.559093 36.324921 99.256264 85.724068 51.942268 251.20172000000002 207.03287 70.64580500000001 412.46297999999996 99.209312 0.0 0.0 0.0 0.0 0.0 0.0 0.0 0.0 0.0 0.0 0.0 0.0 0.0 0.0 0.0 0.0 0.0 0.0 0.0 0.0 0.0 0.0 0.0 0.0 0.0 2.0190282e-05 6.2839048e-05 3.5619832e-05 4.5352554e-05 7.9795333e-05 8.9255082e-05 9.471528e-05 0.0019823404 0.0042054118 0.0051124217 0.0037687626 0.0006682448399999999 0.0026792441 0.0046825493 0.0052065956 0.028818235 0.039997596 0.040706728 0.0295322 0.009451706899999999 0.012535942 0.029065978 0.037240416 0.14832669 0.1765628 0.16705422 0.11895106 0.042593624000000004 0.039745167000000005 0.10430679 0.14060512 0.4795984 0.53049117 0.48290002 0.33915341 0.1260896 0.10055783 0.28077403 0.38643169 1.1778563 1.2524191 1.1153911 0.77513605 0.29107302 0.21615715 0.61977518 0.8602978 2.3965201 2.4944415 2.1933578999999996 1.5080415 0.56041789 0.41242933 1.1791675 1.6369038999999999 4.231271700000001 4.3537302 3.7942092000000005 2.5711553 0.9251191 0.7170949 1.9906028999999998 2.7454822 6.6599431 6.8031101 5.855616099999999 9.5212851 9.657469699999998 12.605898 12.65982 15.829193 15.734159 19.354364 19.045975 24.461462 24.398018 38.267497999999996 44.442734 79.77265899999999 109.80373 174.40933 260.7966 336.69247 532.8184200000001 534.24054 898.1795699999999 0.0 0.0 0.0 0.0 0.0 0.0 0.0 0.0 0.0 0.0 0.0 0.0 0.0 0.0 0.0 0.0 0.0 0.0 0.0 0.0 0.0 0.0 0.0 0.0 0.0 0.0 0.0 9.708764999999999e-05 9.7315715e-05 9.6370713e-05 9.4934527e-05 9.324991700000001e-05 9.1593676e-05 9.0141832e-05 8.900007400000001e-05 8.8283778e-05 0.0052526547 0.0051226341 0.0048987032 0.0046420796000000005 0.0043897051 0.004162366 0.0039725443 0.0038302653000000003 0.0037421259999999997 0.03863262 0.037364587000000005 0.035195455 0.032691553 0.030223785 0.028010819 0.02618123 0.024817562 0.02397676 0.15200384 0.1480832 0.13861887 0.12740162 0.11620627 0.1061244 0.09779234199999999 0.091596842 0.087784313 0.42468089 0.41886008 0.39160454 0.35793847 0.32386661 0.29298216 0.26740867 0.24839738 0.23670703 0.95143402 0.94317901 0.88308626 0.80446327 0.72394049 0.65049958 0.58953595 0.54419124 0.5163129 1.8121171000000003 1.7972901000000001 1.6829478999999998 1.5289674 1.369936 1.2242311000000001 1.1030316 1.0128293 0.95737487 3.0312479 3.0002105 2.8043611 2.5411532 2.2679327000000002 2.0169368000000003 1.8078828999999998 1.6522386000000002 1.5565632999999999 0.0 0.0 0.0 0.0 0.0 0.0 0.0 0.0 0.0 0.0 0.0 0.0 0.0 0.0 0.0 0.0 0.0 0.0 0.0 0.0 0.0 0.0 0.0 0.0 8.803968399999999e-05 8.828379199999999e-05 8.9000081e-05 9.0141839e-05 9.159369099999999e-05 9.324993899999999e-05 9.4934527e-05 9.6370684e-05 0.0037121772999999998 0.0037421265000000003 0.003830265 0.0039725443 0.004162367 0.0043897056 0.00464208 0.0048987032 0.023692842999999998 0.023976762000000002 0.024817564 0.02618123 0.028010821 0.030223788999999997 0.032691553 0.035195459 0.086498238 0.087784313 0.091596864 0.097792365 0.10612442 0.11620627 0.12740162 0.13861889 0.23276401 0.23670706 0.24839742 0.26740879 0.29298228 0.32386667 0.35793847 0.3916046 0.50690955 0.51631296 0.5441913 0.58953613 0.65049976 0.72394067 0.80446333 0.88308638 0.93867254 0.95737493 1.0128295 1.103032 1.2242315000000001 1.3699363000000002 1.5289677 1.6829485 1.5243034 1.5565632999999999 1.6522391 1.8078830000000001 2.0169373 2.2679329 2.5411537 2.8043616 0.0 0.0 0.0 0.0 0.0 0.0 0.0 0.0 0.0 0.0 0.0 0.0 0.0 0.0 0.0 0.0 0.0 0.0 0.0 0.0 0.0 0.0 0.0 0.0 0.0 0.0 0.0 9.7315693e-05 9.708769399999999e-05 9.471533100000001e-05 8.925512500000001e-05 7.9795347e-05 4.5352574999999995e-05 3.5619825e-05 6.2839048e-05 2.0190277000000003e-05 0.0051226341 0.0052526575 0.005206598 0.0046825511 0.0026792453000000003 0.00066824455 0.0037687635 0.0051124217 0.0042054099 0.037364591 0.038632635 0.037240433999999996 0.029065991 0.012535951000000002 0.0094517041 0.029532207 0.040706728 0.039997593 0.14808321 0.15200388 0.1406052 0.10430686 0.039745219 0.042593602 0.1189511 0.16705422 0.17656283 0.41886011 0.42468104 0.38643181 0.28077427 0.100558 0.12608953 0.33915347 0.48289996 0.53049123 0.94317907 0.9514342 0.86029828 0.61977571 0.21615748 0.29107282 0.77513623 1.1153915 1.2524194 1.7972903999999998 1.8121171000000003 1.6369046 1.1791681999999999 0.4124299 0.56041753 1.5080415 2.1933587 2.4944425 3.0002115000000003 3.0312486 2.7454834 1.9906043999999998 0.71709627 0.92511845 2.5711553 3.7942107000000003 4.3537316 5.855618499999999 6.8031125 9.657471699999999 12.659822 15.734159 19.045977 24.398022 44.442745 109.80373 260.7966 532.8184200000001 898.17944 0.0 0.0 0.0 0.0 0.0 0.0 0.0 0.0 0.0 0.0 0.0 0.0 0.0 0.0 0.0 0.0019823399 0.00031779933 0.0 0.0 0.028818231 0.013235463000000001 0.0023561127 2.4670213e-18 0.14832669 0.093136892 0.035733517 0.0050426791 0.47959837 0.34506136 0.17338425 0.047512744 1.1778562 0.90945691 0.52062774 0.1863201 2.3965206 1.9234362 1.1819342 0.48450702 4.2312732 3.468781 2.2189465 0.98128086 6.659944099999999 5.5251622000000005 3.6179504000000002 1.6714993000000002 9.521288900000002 7.9669008 5.2933373 2.5080782999999998 12.605902 10.638008000000001 7.140084700000001 3.4316254 15.829193 13.468216 9.1067438 4.4104834 19.354366 16.567692 11.242503999999998 5.4694529 24.461466 20.413632999999997 13.736938 6.939543700000001 38.267502 26.263931 17.989769 12.279964 79.772644 36.324923999999996 33.559090000000005 34.381622 174.40941 51.942284 85.724083 99.256279 336.6926 70.645821 207.03284 251.20177 534.2406599999999 99.209312 412.46304 0.0 0.0 0.0 0.0 0.0 0.0 0.0 0.0 0.0 0.0 0.0 0.0 0.0 0.0 0.0 0.0 0.0 0.0 0.0 0.0 0.0 0.0 0.0 0.0 0.0 0.0 0.0 0.0 0.0 0.0 0.0 0.0 0.0 0.0 0.0 0.0 0.0 0.0 0.0 0.0 0.0 0.0 0.0 0.0 0.0 0.0 0.0 0.0 0.0 0.0 0.0 0.0 0.0 0.0 0.0 0.0 0.0 0.0 0.0 0.0 0.0 0.0 0.0 0.0 0.0 0.0 0.0 0.0 0.0 0.0 0.0 0.0 0.0 0.0 0.0 0.0 0.0 0.0 0.0 0.0 0.0 0.0 0.0 0.0 0.0 0.0 0.0 0.0 0.0 0.0 0.0 0.0 0.0 0.0 0.0 0.0 0.0 0.0 0.0 0.0 0.0 0.0 0.0 0.0 0.0 0.0 0.0 0.0 0.0 0.0 0.0 0.0 0.0 0.0 0.0 0.0 0.0 0.0 0.0 0.0 0.0 0.0 0.0 0.0 0.0 0.0 0.0 0.0 0.0 0.0 0.0 0.0 0.0 0.0 0.0 0.0 0.0 0.0 0.0 0.0 0.0 0.0 0.0 0.0 0.0 0.0 0.0 0.0 0.0 0.0 0.0 0.0 0.0 0.0 0.0 0.0 0.0 0.0 0.0 0.0 0.0 0.0 0.0 0.0 0.0 0.0 0.0 0.0 0.0 0.0 0.0 0.0 0.0 0.0 0.0 0.0 0.0 0.0 0.0 0.0 0.0 0.0 0.0 0.0 0.0 0.0 0.0 0.0 0.0 0.0 0.0 0.0 0.0 0.0 0.0 0.0 0.0 0.0 0.0 0.0 0.0 0.0 0.0 0.0 0.0 0.0 0.0 0.0 0.0 0.0 0.0 0.0 0.0 0.0 0.0 0.0 0.0 0.0 0.0 0.0 0.0 0.0 0.0 0.0 0.0 0.0 0.0 0.0 0.0 0.0 0.0 0.0 0.0 0.0 0.0 0.0 0.0 0.0 0.0 0.0 0.0 0.0 0.0 0.0 0.0 0.0 0.0 0.0 0.0 0.0 0.0 0.0 0.0 0.0 0.0 0.0 0.0 0.0 0.0 0.0 0.0 0.0 0.0 0.0 0.0 0.0 0.0 0.0 0.0 0.0 0.0 0.0 0.0 0.0 0.0 0.0 0.0 0.0 0.0 0.0 0.0 0.0 0.0 0.0 0.0 0.0 0.0 0.0 0.0 0.0 0.0 0.0 0.0 0.0 0.0 0.0 0.0 0.0 0.0 0.0 0.0 0.0 0.0 0.0 0.0 0.0 0.0 0.0 0.0 0.0 0.0 0.0 0.0 0.0 0.0 0.0 0.0 0.0 0.0 0.0 0.0 0.0 0.0 0.0 0.0 0.0 0.0 0.0 0.0 0.0 0.0 0.0 0.0 0.0 0.0 0.0 0.0 0.0 0.0 0.0 0.0 0.0 0.0 0.0 0.0 0.0 0.0 0.0 0.0 0.0 0.0 0.0 0.0 0.0 0.0 0.0 0.0 0.0 0.0 0.0 0.0 0.0 0.0 0.0 0.0 0.0 0.0 0.0 0.0 0.0 0.0 0.0 0.0 0.0 0.0 0.0 0.0 0.0 0.0 0.0 0.0 0.0 0.0 0.0 0.0 0.0 0.0 0.0 0.0 0.0 0.0 0.0 0.0 0.0 0.0 0.0 0.0 0.0 0.0 0.0 0.0 0.0 0.0 0.0 0.0 0.0 0.0 0.0 0.0 0.0 0.0 0.0 0.0 0.0 0.0 0.0 0.0 0.0 0.0 0.0 0.0 0.0 0.0 0.0 0.0 0.0 0.0 0.0 0.0 0.0 0.0 0.0 0.0 0.0 0.0 0.0 0.0 0.0 0.0 0.0 0.0 0.0 0.0 0.0 0.0 0.0 0.0 0.0 0.0 0.0 0.0 0.0 0.0 0.0 0.0 0.0 0.0 0.0 0.0 0.0 0.0 0.0 0.0 0.0 0.0 0.0 0.0 0.0 0.0 0.0 0.0 0.0 3.8142529 1.3276767 1.1411517 3.026737 4.131732 7.6183181 5.1604589999999995 1.6916744 1.6789751 4.2196794 5.686749900000001 9.876241699999998 6.485320099999999 1.9617029 2.3428953 5.53686 7.3423796 12.13305 7.7569242 2.1076839 3.1614871 6.9954996 9.100587800000001 14.460811999999999 8.996457099999999 2.1168597 4.177089700000001 8.655158 11.030812 18.339523 11.154155000000001 2.8374481 5.518642400000001 10.638794 13.273848999999998 36.993179 24.359607999999998 10.972116 8.313199000000001 13.276748000000001 16.111164000000002 99.162033 69.24440799999999 35.744141 17.221964 17.513282999999998 20.125854 235.53807 164.47701999999998 86.41568000000001 37.541022999999996 25.375444 26.357794000000002 460.63327000000004 314.95605 163.44951 69.257767 38.881454 36.309719 720.88025 483.54265999999996 246.44211 104.60405 58.39550799999999 51.712215 903.0618300000001 593.13129 298.30582000000004 132.40691 84.038895 74.223434 914.19171 586.46747 296.21027000000004 152.70227 118.28002 105.13467 743.57874 477.74158 264.75906000000003 184.42963 164.1291 144.92511000000002 543.51007 377.1442 271.59308 241.32594 221.15149 193.14293999999998 475.827 385.30978 336.50824 315.33344 286.97482 249.12056 531.43115 464.43300999999997 424.76175 398.05084 360.50851 312.73773 625.08026 561.28796 521.13666 489.1604 442.88327000000004 384.41635 736.17377 670.84253 629.18475 591.9502 535.7488400000001 464.72427000000005 872.8241 801.86707 754.42737 709.01141 640.1814 553.95447 1041.766 959.22461 899.18304 841.12317 756.26349 651.76306 1248.8474 1144.2803 1062.1758 986.7897300000001 882.6859099999999 757.0928299999999 1496.2981 1353.7173 1237.3376 1141.8694 1016.9695 868.77704 1783.7111 1576.9982 1414.0253 1300.9098 1157.0372 987.1995199999999 2099.2837 1793.8669 1578.7441 1460.5009 1304.7457 1117.2577 2419.3018 1976.0245 1721.2272 1626.7744 1472.0343 1272.9518 2711.4436 2102.6611 1849.4957 1825.9117 1689.1213 1483.4955 2939.9192 2168.3301 2003.3492 2110.3767 2009.7648 1798.4591 3095.8865 2219.0867 2257.1663 2555.9915 2507.9805 2285.8162 3244.2075 2387.0488 2715.6514 3242.4917 3261.4709 3018.0034 3612.5479 2935.605 3508.8728 4233.6475 4313.229 4045.9922 4668.2227 4290.5552 4834.8179 5533.5981 5660.1484 5374.7124 6878.7109 6845.8062 7080.1846 7231.0376 7250.1509 6946.834 9776.2402 10115.530999999999 10203.586 9406.459 9030.0293 8644.5654 11910.183 12745.572 13006.566 11593.173 10785.205 10291.574 12807.252 14053.856000000002 14895.791000000001 13287.908000000001 12271.146999999999 11710.857 12834.354 14071.934 15530.825 14272.473999999998 13305.867 12769.389 12510.521999999999 13493.208 15217.71 14463.95 13810.373 13425.068000000001 12371.495 13047.375 14860.921999999999 14453.821000000002 14051.288 13783.193000000001 12474.04 12911.463 14682.087 14423.787 14142.073999999999 13928.163999999999 12727.218 13022.114 14686.329 14417.475 14137.286 13922.061000000002 13008.101 13264.403999999999 14806.795 14403.845 14044.523000000001 13792.568000000001 13027.714 13310.781 14759.287 14258.623 13828.285 13537.653 12753.563999999998 13087.448999999999 14456.783000000001 13927.989 13462.405 13145.072 12247.548999999999 12623.318000000001 13903.991000000002 13397.97 12935.876 12607.469 11573.41 11953.653999999999 13123.81 12670.22 12251.839 11930.393999999998 10763.243999999999 11116.52 12167.774 11781.306 11431.771999999999 11133.559 9849.3564 10191.716 11117.488000000001 10798.663999999999 10522.775 10248.155 8863.3232 9200.6543 10024.007 9791.3359 9564.5859 9308.8379 7811.6631 8149.5703 8934.1982 8793.4873 8588.8535 8353.1943 6670.6274 7061.9399 7892.7236 7829.3413 7639.854 7423.0703 5469.5376 6028.3413 6934.3813 6940.1416 6770.4595 6556.5825 4507.9907 5168.8667 6087.2935 6165.8789 6005.4009 5777.4399 4040.7385 4659.0635 5466.627 5548.7661 5360.9839 5101.0425 4277.6689 4290.0938 5078.5942 5134.8643 4882.9854 4544.27 3662.1892 4778.7554 4952.9448 4611.6855 4140.979 3063.9846 4239.0791 4826.499 4508.0283 3915.5459 3154.8994 4389.0938 4429.3179 3828.4329 2513.5002 3347.5732 4069.0693 3750.2146 2092.1326 3082.47 3422.885 1749.033 2524.0544 2269.7905 1357.5703 4.5391307 4.4766364 4.1725659 3.7707334 3.3531047999999997 2.9689741 2.6488214 2.4104424 2.2639412999999995 6.2063527 6.0940099000000005 5.6630816 5.105900800000001 4.527513 3.9952521 3.5514547999999997 3.221019 3.0179765 7.9446692 7.7599048999999996 7.1903524 6.4720321 5.7284269 5.0440483 4.473146900000001 4.0479698 3.7866948 9.743983300000002 9.4594326 8.7409801 7.858537200000001 6.9485788 6.1110692 5.4117994000000005 4.8905621 4.5700736 11.677121000000001 11.264700999999999 10.383475 9.327767399999999 8.243827799999998 7.2454146999999995 6.4101685999999996 5.7863945999999995 5.4023447 13.897898999999999 13.331874 12.264424 11.012519000000001 9.7304602 8.5464468 7.5522738 6.8074316999999995 6.3478131 16.666679000000002 15.904244 14.605038 13.109376999999999 11.577209 10.155008 8.954312300000002 8.0507889 7.4916182000000004 20.436092000000002 19.345928 17.712513 15.877563 13.998582999999998 12.244551 10.754916999999999 9.628751800000002 8.9297256 25.970982 24.214584 22.011314000000002 19.648165 17.253035999999998 15.014558 13.106887 11.660173 10.760351 34.395779 31.316759 28.075115000000004 24.8365 21.6436 18.685434 16.169981 14.262908 13.076664 47.09124 41.666039000000005 36.612877000000005 31.933079 27.507246000000002 23.486532 20.09889 17.54249 15.956202 65.437332 56.321236 48.385082000000004 41.45747 35.186729 29.636633000000003 25.028954000000002 21.581312 19.452095 90.49029499999999 76.170303 64.072243 53.884136 44.989746000000004 37.322746 31.066389 26.435738 23.593977 122.75415 101.76198000000001 84.150925 69.5662 57.148731000000005 46.684371999999996 38.288967 32.147125 28.404928 162.21696 133.27061 108.8372 88.691231 71.800629 57.816589 46.767731 38.776756 33.944202000000004 208.63797 170.59431 138.1162 111.29037 89.005478 70.80806 56.623684 46.477253000000005 40.387634000000006 261.84708 213.52058 171.83223999999998 137.30411 108.81761000000002 85.830078 68.135986 55.615704 48.160145 321.79251 261.83801 209.79631 166.70023999999998 131.42197 103.29329 81.917465 66.963036 58.133198 388.48996 315.35281000000003 251.89975 199.65427 157.35608 124.09402 99.174194 81.960426 71.893906 461.8092 373.88675 298.28058 236.82584 187.84341 149.96675 122.05613000000001 103.05996999999999 92.076637 541.34564 437.41582999999997 349.65047999999996 279.78983 225.25997999999998 183.94104 154.08026 134.11032 122.72157 626.6530799999999 506.54107999999997 407.90424 331.6803 273.7392 230.86812999999998 200.56857 180.71758 169.58391 718.0762900000001 583.43604 477.06284000000005 398.03232 339.85416000000004 297.92773 268.99695 250.46951 240.27872999999997 818.3431400000001 673.27594 564.45422 487.66434000000004 433.20029000000005 394.93948 369.08437999999995 352.86295 344.10989 934.9127800000001 785.92584 681.7902799999999 613.2506099999999 566.5708 534.2382200000001 512.44073 498.79055999999997 491.46047999999996 1082.9994 937.57562 845.7452400000001 791.20575 755.4315799999999 729.90002 711.6478900000001 699.53113 692.73273 1289.498 1152.4304 1077.958 1040.7845 1016.6416 996.35229 978.8504 965.36267 956.98474 1596.9789 1464.8074 1405.1613 1382.9828 1366.9733 1346.9194 1324.4362 1304.3607 1290.8043 2063.4431 1919.7936 1859.7363 1840.4071 1822.5219 1793.1938 1756.5535 1722.0752 1698.1006 2752.8608 2568.387 2478.4182 2437.5732 2399.178 2345.3821 2281.4612 2221.9844 2180.6519 3715.6099 3454.5398 3295.2327 3198.0613 3111.7732 3012.156 2903.7026 2805.8611 2738.583 4965.2319 4595.6802 4327.3999 4135.5044 3968.9399 3797.7122 3624.2947 3472.6218 3369.5691 6457.1689 5962.7778 5558.1914 5240.3354 4963.7334 4695.3154 4436.1113 4214.8208 4066.0071 8081.5342 7469.9741 6925.2427 6468.2349 6063.498 5679.1006 5317.3682 5013.3853 4810.481 9679.3623 8983.8643 8323.0918 7737.6484 7204.7769 6698.4087 6226.5386 5833.2866 5572.0068 11085.37 10355.101999999999 9623.2422 8941.3574 8299.6309 7681.5977 7105.1104 6625.8574 6308.1064 12178.73 11462.358999999999 10709.069 9973.9805 9257.2549 8552.9512 7890.8896 7339.4712 6973.8442 12916.968 12246.926000000001 11510.418 10763.048999999999 10009.411 9251.8838 8531.6338 7928.9658 7528.7056 13340.895 12719.85 12018.633999999998 11286.74 10527.287 9747.2422 8996.4502 8364.6318 7944.0449 13519.673999999999 12933.653999999999 12268.14 11563.168 10816.428 10035.949 9276.75 8634.5195 8206.0869 13517.46 12947.483999999999 12307.798999999999 11629.0 10902.018999999998 10133.694 9380.9219 8741.8086 8314.8447 13373.086000000001 12804.711000000001 12179.896 11521.661 10815.023000000001 10064.707 9327.126 8699.877 8280.6182 13099.0 12527.167 11911.581 11269.966 10583.146 9853.874 9136.8311 8527.1221 8119.7231 12693.163999999999 12121.806 11517.117 10893.028999999999 10227.863000000001 9523.0068 8830.9951 8243.3555 7851.1226 12153.171 11591.862 11005.463 10404.587 9766.1514 9090.8125 8429.0049 7868.0918 7494.291 11485.608999999999 10945.835 10387.716999999999 9818.3506 9213.8076 8574.5176 7948.9087 7419.7598 7067.7861 10708.88 10201.048 9680.6865 9151.0586 8587.7441 7991.2705 7407.9478 6915.4785 6588.5156 9850.5977 9382.1064 8906.3779 8422.7344 7906.6548 7358.8359 6823.0435 6371.3301 6071.8828 8942.876 8517.584 8089.8408 7655.562 7190.6367 6695.7583 6211.4297 5803.3931 5533.1455 8019.4609 7637.3701 7256.98 6872.1152 6459.8296 6020.4502 5590.2344 5227.7988 4987.7969 7114.3022 6770.2817 6432.2393 6093.2329 5732.4419 5349.3457 4974.7271 4659.0737 4449.9282 6260.0493 5942.4307 5637.3252 5336.9805 5023.6865 4695.5991 4376.7334 4108.3477 3930.3623 5482.4312 5176.1553 4890.7871 4618.897 4346.166 4069.2559 3804.4133 3582.6987 3435.717 4794.5293 4487.3511 4208.2437 3953.1729 3711.4373 3478.6824 3263.3931 3085.9072 2968.8152 4200.3901 3883.8257 3601.9697 3353.1382 3131.4524 2932.71 2759.0066 2620.4888 2530.4841 3708.3884 3364.7297 3077.9521 2829.4668 2618.137 2441.8064 2298.6367 2190.5679 2122.5503 3349.8396 2934.3967 2633.2969 2385.9023 2180.0476 2016.1602 1891.6705 1803.4989 1750.4575 3160.2534 2626.3584 2269.3572 2016.433 1817.0404 1660.9343 1545.9222 1467.7875 1422.4756 3101.3245 2485.0684 2021.75 1722.1942 1520.1105 1371.4373 1262.5172 1188.3997 1145.5098 3043.4219 2460.9243 1929.4955 1540.374 1293.8392 1138.5504 1034.043 963.2650800000001 921.3978300000001 2745.2344 2411.8625 1918.6234 1479.4985 1163.1256 966.99261 852.8375199999999 784.19592 744.7439 1923.2422 2093.5896 1830.4686 1440.5071 1095.6326 855.68939 716.80273 643.8692 606.68359 981.93365 1280.0044 1433.1683 1279.0979 1005.8965 767.00781 616.22766 539.08032 503.17184000000003 770.73877 741.29016 836.65918 763.7076400000001 605.25079 475.85745 407.58867999999995 378.57403999999997 530.34253 464.84354 401.7056 313.46277000000003 249.72203 217.49466 439.94724 330.15323 255.62759 215.87521 2.214556 2.2639412999999995 2.4104433 2.6488218 2.9689751 3.3531053 3.7707337999999995 4.1725669000000005 2.9495459 3.0179767999999996 3.2210193 3.5514555 3.9952536 4.5275135 5.1059016999999995 5.663082599999999 3.6986456 3.7866957 4.0479712 4.4731488 5.0440507000000006 5.7284274 6.4720325 7.1903524 4.462047599999999 4.570075 4.890564 5.4118009 6.1110720999999995 6.9485803 7.858539599999999 8.7409821 5.2728105 5.4023465999999996 5.786397 6.410171 7.245418099999999 8.2438307 9.327769300000002 10.383476 6.1926193 6.347815 6.8074341 7.552278 8.5464487 9.7304621 11.012523 12.264427 7.302533599999999 7.491619099999999 8.0507889 8.954314199999999 10.15501 11.577211 13.109379 14.605039000000001 8.6930056 8.9297266 9.628752699999998 10.754921000000001 12.244556 13.998588 15.877569 17.712519 10.455351 10.760352000000001 11.660174000000001 13.106891000000001 15.014560999999999 17.253038 19.648172 22.011322 12.674564 13.076661999999999 14.262908 16.169983 18.685438 21.64361 24.83651 28.075121000000003 15.41908 15.956204999999999 17.542492000000003 20.09889 23.486538 27.507257 31.933081 36.612888 18.732670000000002 19.452101000000003 21.581316 25.028959 29.636646000000002 35.186741 41.457478 48.385101 22.636545 23.593975 26.435743 31.066395 37.322753999999996 44.989765000000006 53.88414399999999 64.07225799999999 27.148365000000002 28.404936 32.147141 38.288982 46.684387 57.148757999999994 69.566216 84.150963 32.327412 33.944214 38.776768 46.767746 57.816616 71.800652 88.69124599999999 108.83721000000001 38.358112 40.387642 46.477276 56.623714 70.80809 89.005524 111.2904 138.11621 45.68557 48.16016 55.615726 68.13604000000001 85.830101 108.81765 137.30414 171.83223999999998 55.215702 58.133208999999994 66.963066 81.917511 103.29333000000001 131.42203 166.70032 209.79634 68.585075 71.89392099999999 81.96045699999999 99.17424 124.09407 157.35616000000002 199.65431 251.8998 88.488884 92.076637 103.06000999999999 122.05618 149.96681 187.84344 236.82596 298.28058 119.02989 122.72158999999999 134.11037 154.08029 183.94111999999998 225.26006 279.78992 349.65054 166.00935 169.58393999999998 180.71761 200.5686 230.86816000000002 273.73922999999996 331.6803 407.9043 237.045 240.27872999999997 250.46957 268.99695 297.92776000000003 339.85427999999996 398.03238 477.06284000000005 341.36664 344.10989 352.86301000000003 369.08437999999995 394.93948 433.20032000000003 487.66434000000004 564.45435 489.17404000000005 491.46047999999996 498.79062000000005 512.4408 534.2382200000001 566.5708 613.25079 681.79034 690.56165 692.73279 699.53113 711.64795 729.90002 755.43164 791.20575 845.74506 954.1641800000001 956.98462 965.3624900000001 978.8504 996.3524199999999 1016.6417 1040.7845 1077.958 1286.0575 1290.8043 1304.3606 1324.4359 1346.9193 1366.973 1382.9828 1405.1617 1689.5897 1698.1008 1722.0751 1756.5532 1793.1936 1822.5221 1840.407 1859.7365 2165.9626 2180.6516 2221.9841 2281.4614 2345.3821 2399.178 2437.5732 2478.4185 2714.7495 2738.5835 2805.8611 2903.7031 3012.156 3111.7727 3198.0605 3295.2319 3333.21 3369.5688 3472.6211 3624.2952 3797.7122 3968.9407 4135.5049 4327.4004 4013.6921 4066.0073 4214.8203 4436.1108 4695.3154 4963.7339 5240.3354 5558.1909 4739.3477 4810.4819 5013.3872 5317.3691 5679.1011 6063.4995 6468.2354 6925.2422 5480.5845 5572.0068 5833.2861 6226.5391 6698.4092 7204.7773 7737.6494 8323.0918 6197.0396 6308.1074 6625.8589 7105.1118 7681.5996 8299.6289 8941.3564 9623.2422 6846.064 6973.8462 7339.4727 7890.8896 8552.9512 9257.2559 9973.9805 10709.071000000002 7388.7568 7528.7046 7928.9668 8531.6328 9251.8857 10009.409 10763.05 11510.419 7796.8877 7944.0444 8364.6299 8996.4502 9747.2422 10527.287 11286.739 12018.636 8056.0908 8206.0869 8634.5195 9276.75 10035.949 10816.427 11563.17 12268.14 8165.3032 8314.8408 8741.8047 9380.9219 10133.693000000001 10902.018 11629.002 12307.801000000001 8133.7661 8280.6182 8699.877 9327.126 10064.709 10815.021 11521.66 12179.896 7977.0684 8119.7236 8527.124 9136.8291 9853.874 10583.146 11269.963 11911.582 7713.8618 7851.1211 8243.3574 8830.9951 9523.0059 10227.862 10893.028 11517.118 7363.5986 7494.292 7868.0947 8429.0049 9090.8125 9766.1504 10404.586 11005.463 6944.8516 7067.7856 7419.7607 7948.9102 8574.5176 9213.8076 9818.3506 10387.716999999999 6474.4409 6588.5151 6915.4795 7407.9482 7991.271 8587.7441 9151.0566 9680.6885 5967.5073 6071.8828 6371.3296 6823.0415 7358.8354 7906.6538 8422.7363 8906.377 5439.002 5533.1455 5803.3926 6211.4282 6695.7593 7190.6377 7655.5615 8089.8423 4904.188 4987.7964 5227.7983 5590.2349 6020.4507 6459.8291 6872.1147 7256.98 4377.0366 4449.9287 4659.0747 4974.7271 5349.3452 5732.4429 6093.2324 6432.2402 3868.2747 3930.3616 4108.3481 4376.7339 4695.6001 5023.6865 5336.9795 5637.3252 3384.4014 3435.7163 3582.6987 3804.4133 4069.2559 4346.167 4618.8965 4890.7866 2927.9675 2968.8154 3085.9072 3263.3931 3478.6829 3711.4365 3953.1729 4208.2437 2499.25 2530.4846 2620.4888 2759.0068 2932.7102 3131.4524 3353.1384 3601.9697 2099.2661 2122.5503 2190.5679 2298.6365 2441.8062 2618.1372 2829.4668 3077.9519 1732.6989 1750.457 1803.4988 1891.6708 2016.1598 2180.0476 2385.9023 2633.2969 1407.6168 1422.4756 1467.7872 1545.9225 1660.9346 1817.0404 2016.4331 2269.3572 1131.4619 1145.5095 1188.3999 1262.5172 1371.4371 1520.1108 1722.1943 2021.7501 907.4809 921.3977699999999 963.2650800000001 1034.0427 1138.5505 1293.8394 1540.3744 1929.4956 731.60645 744.74377 784.19604 852.8375900000001 966.99261 1163.1256 1479.4985 1918.6243 594.80872 606.68359 643.86914 716.80286 855.6895099999999 1095.6327 1440.5073 1830.4694 492.36774 503.17166 539.08032 616.22772 767.00793 1005.8967 1279.0988 1433.1682 370.37094 378.57401 407.58875 475.85745 605.25085 763.70801 836.65948 741.2901 207.83153000000001 217.4948 249.72192 313.46286000000003 401.70566 464.84340999999995 530.34235 203.50545 215.87528999999998 255.62762 330.15323 439.94724 4.4766364 4.539132599999999 4.1317339 3.0267386000000003 1.1411533 1.3276751 3.8142529 6.0940127 6.206355599999999 5.6867532999999995 4.2196812999999995 1.6789787 1.691673 5.1604581 7.618319500000001 7.7599053 7.9446707 7.3423829 5.5368629 2.3428986000000003 1.961701 6.485321 9.8762426 9.4594355 9.7439852 9.100592599999999 6.9955034 3.1614902000000003 2.1076803 7.7569218 12.13305 11.264702999999999 11.677123 11.030816 8.655161900000001 4.1770954 2.1168544 8.996454199999999 14.460807999999998 13.331875 13.897901999999998 13.273854 10.638799 5.5186462 2.8374372 11.154152 18.339520999999998 15.904243 16.666681 16.111166 13.276755 8.3132067 10.972107000000001 24.359607999999998 36.993183 19.345932 20.436098 20.12586 17.513292 17.221977 35.744156 69.24440799999999 99.162041 24.214592 25.970991 26.357798 25.375452 37.541039000000005 86.41570300000001 164.47704 235.53807 31.316765000000004 34.395782000000004 36.309727 38.881446999999994 69.25778199999999 163.44952 314.95615 460.63336 41.66605 47.091255 51.712219 58.395504 104.60407 246.44212000000002 483.54285 720.8804299999999 56.321243 65.43735500000001 74.223427 84.038887 132.40691 298.30585 593.13147 903.06195 76.17031899999999 90.490318 105.13468 118.28003000000001 152.70226 296.21024 586.46747 914.1918300000001 101.76199 122.7542 144.92514 164.1291 184.42966 264.75909 477.74172999999996 743.57892 133.27065 162.217 193.14296000000002 221.15149 241.32591000000002 271.59302 377.1442 543.51007 170.59431 208.63806 249.12056 286.97485 315.33344 336.50821 385.30978 475.827 213.5206 261.84708 312.73776000000004 360.50851 398.0509 424.76184000000006 464.43300999999997 531.43109 261.83807 321.79251 384.41632000000004 442.88339 489.16045999999994 521.13672 561.28796 625.0802 315.35281000000003 388.49005 464.72445999999997 535.7488400000001 591.95026 629.18488 670.84265 736.17383 373.8869 461.80927 553.95447 640.1814 709.01135 754.42749 801.86719 872.82416 437.41589000000005 541.34564 651.763 756.26355 841.12323 899.1831099999999 959.22479 1041.7661 506.54123 626.65314 757.09277 882.6859699999999 986.78986 1062.1757 1144.2804 1248.8475 583.43616 718.07635 868.7769800000001 1016.9697 1141.8696 1237.3376 1353.7175 1496.2977 673.2760599999999 818.3432 987.19971 1157.0372 1300.9097 1414.0253 1576.9983 1783.7111 785.9259 934.9127199999999 1117.2577 1304.746 1460.5009 1578.7444 1793.8671 2099.2839 937.5754400000001 1082.9991 1272.9518 1472.0344 1626.7744 1721.2271 1976.0245 2419.302 1152.4305 1289.4979 1483.4954 1689.1212 1825.9119 1849.4955 2102.6611 2711.4436 1464.8079 1596.9789 1798.4596 2009.7648 2110.3767 2003.3492 2168.3301 2939.9194 1919.7937 2063.4431 2285.8164 2507.9805 2555.9915 2257.1665 2219.0859 3095.8872 2568.3875 2752.8608 3018.0027 3261.4712 3242.4912 2715.6514 2387.0491 3244.2073 3454.54 3715.6091 4045.9917 4313.2285 4233.6484 3508.8726 2935.6045 3612.5479 4595.6812 4965.2319 5374.7129 5660.1484 5533.5981 4834.8184 4290.5542 4668.2222 5962.7773 6457.1685 6946.833 7250.1509 7231.0386 7080.1841 6845.8057 6878.71 7469.9731 8081.5361 8644.5654 9030.0293 9406.46 10203.585 10115.529 9776.2402 8983.8643 9679.3623 10291.572 10785.205 11593.175 13006.568000000001 12745.572 11910.181999999999 10355.104 11085.37 11710.862 12271.148000000001 13287.909 14895.793 14053.856000000002 12807.251 11462.358999999999 12178.726999999999 12769.389 13305.868999999999 14272.475 15530.829 14071.935 12834.354 12246.926000000001 12916.971000000001 13425.069 13810.37 14463.951000000001 15217.716 13493.208 12510.521999999999 12719.848999999998 13340.895 13783.193000000001 14051.292 14453.825 14860.923 13047.375 12371.496000000001 12933.656 13519.671999999999 13928.163 14142.073999999999 14423.788999999999 14682.087 12911.465 12474.04 12947.483999999999 13517.461000000001 13922.063 14137.287 14417.478000000001 14686.328000000001 13022.113000000001 12727.218 12804.712 13373.083999999999 13792.567 14044.524 14403.841 14806.795 13264.403999999999 13008.101999999999 12527.166000000001 13098.998 13537.653 13828.284 14258.621000000001 14759.285 13310.782 13027.716999999999 12121.806999999999 12693.163 13145.076000000001 13462.406 13927.99 14456.787 13087.448 12753.563999999998 11591.863000000001 12153.171 12607.47 12935.878999999999 13397.971000000001 13903.989 12623.318000000001 12247.548999999999 10945.833 11485.605 11930.395 12251.843 12670.219 13123.808 11953.655 11573.411 10201.048 10708.881000000001 11133.559 11431.771999999999 11781.308 12167.775 11116.52 10763.243999999999 9382.1074 9850.5996 10248.153 10522.776000000002 10798.667 11117.487 10191.714 9849.3574 8517.584 8942.875 9308.8369 9564.5859 9791.335 10024.007 9200.6543 8863.3223 7637.3701 8019.4604 8353.1953 8588.8525 8793.4854 8934.1973 8149.5703 7811.6636 6770.2832 7114.3022 7423.0693 7639.854 7829.3408 7892.7236 7061.9404 6670.6289 5942.4297 6260.0488 6556.5825 6770.4595 6940.1401 6934.3828 6028.3408 5469.5371 5176.1553 5482.4312 5777.439 6005.3999 6165.8799 6087.2935 5168.8662 4507.9897 4487.3511 4794.5293 5101.0444 5360.9834 5548.7661 5466.6274 4659.063 4040.7385 3883.8252 4200.3896 4544.2695 4882.9854 5134.8643 5078.5933 4290.0928 4277.6689 3364.7297 3708.3884 4140.9785 4611.686 4952.9468 4778.7563 3662.1895 2934.3967 3349.8401 3915.5442 4508.0283 4826.5 4239.0801 3063.9839 2626.3584 3160.2534 3828.4326 4429.3179 4389.0942 3154.8999 2485.0684 3101.3254 3750.2156 4069.0691 3347.573 2513.4993 2460.925 3043.4216 3422.8845 3082.4705 2092.1328 2411.863 2745.2341 2524.0542 1749.0336 2093.5896 1923.2426 1357.5704 2269.79 1280.0048 981.9334699999999 770.73871 
Vel 3 2975 float
0.0 0.0 0.0 0.0 0.0 0.0 0.0 0.0 0.0 0.0 0.0 0.0 0.0 0.0 0.0 0.0 0.0 0.0 0.0 0.0 0.0 0.0 0.0 0.0 0.0 0.0 0.0 0.0 0.0 0.0 0.0 0.0 0.0 0.0 0.0 0.0 0.0 0.0 0.0 0.0 0.0 0.0 0.0 0.0 0.0 0.0 0.0 0.0 0.0 0.0 0.0 0.0 0.0 0.0 0.0 0.0 0.0 0.0 0.0 0.0 0.0 0.0 0.0 0.0 0.0 0.0 0.0 0.0 0.0 0.0 0.0 0.0 0.0 0.0 0.0 0.0 0.0 0.0 0.0 0.0 0.0 0.0 0.0 0.0 0.0 0.0 0.0 0.0 0.0 0.0 0.0 0.0 0.0 0.0 0.0 0.0 0.0 0.0 0.0 0.0 0.0 0.0 0.0 0.0 0.0 0.0 0.0 0.0 0.0 0.0 0.0 0.0 0.0 0.0 0.0 0.0 0.0 0.0 0.0 0.0 0.0 0.0 0.0 0.0 0.0 0.0 0.0 0.0 0.0 0.0 0.0 0.0 0.0 0.0 0.0 0.0 0.0 0.0 0.0 0.0 0.0 0.0 0.0 0.0 0.0 0.0 0.0 0.0 0.0 0.0 0.0 0.0 0.0 0.0 0.0 0.0 0.0 0.0 0.0 0.0 0.0 0.0 0.0 0.0 0.0 0.0 0.0 0.0 0.0 0.0 0.0 0.0 0.0 0.0 0.0 0.0 0.0 0.0 0.0 0.0 0.0 0.0 0.0 0.0 0.0 0.0 0.0 0.0 0.0 0.0 0.0 0.0 0.0 0.0 0.0 0.0 0.0 0.0 0.0 0.0 0.0 0.0 0.0 0.0 0.0 0.0 0.0 0.0 0.0 0.0 0.0 0.0 0.0 0.0 0.0 0.0 0.0 0.0 0.0 0.0 0.0 0.0 0.0 0.0 0.0 0.0 0.0 0.0 0.0 0.0 0.0 0.0 0.0 0.0 0.0 0.0 0.0 0.0 0.0 0.0 0.0 0.0 0.0 0.0 0.0 0.0 0.0 0.0 0.0 0.0 0.0 0.0 0.0 0.0 0.0 0.0 0.0 0.0 0.0 0.0 0.0 0.0 0.0 0.0 0.0 0.0 0.0 0.0 0.0 0.0 0.0 0.0 0.0 0.0 0.0 0.0 0.0 0.0 0.0 0.0 0.0 0.0 0.0 0.0 0.0 0.0 0.0 0.0 0.0 0.0 0.0 0.0 0.0 0.0 0.0 0.0 0.0 0.0 0.0 0.0 0.0 0.0 0.0 0.0 0.0 0.0 0.0 0.0 0.0 0.0 0.0 0.0 0.0 0.0 0.0 0.0 0.0 0.0 0.0 0.0 0.0 0.0 0.0 0.0 0.0 0.0 0.0 0.0 0.0 0.0 0.0 0.0 0.0 0.0 0.0 0.0 0.0 0.0 0.0 0.0 0.0 0.0 0.0 0.0 0.0 0.0 0.0 0.0 0.0 0.0 0.0 0.0 0.0 0.0 0.0 0.0 0.0 0.0 0.0 0.0 0.0 0.0 0.0 0.0 0.0 0.0 0.0 0.0 0.0 0.0 0.0 0.0 0.0 0.0 0.0 0.0 0.0 0.0 0.0 0.0 0.0 0.0 0.0 0.0 0.0 0.0 0.0 0.0 0.0 0.0 0.0 0.0 0.0 0.0 0.0 0.0 0.0 0.0 0.0 0.0 0.0 0.0 0.0 0.0 0.0 0.0 0.0 0.0 0.0 0.0 0.0 0.0 0.0 0.0 0.0 0.0 0.0 0.0 0.0 0.0 0.0 0.0 0.0 0.0 0.0 0.0 0.0 0.0 0.0 0.0 0.0 0.0 0.0 0.0 0.0 0.0 0.0 0.0 0.0 0.0 0.0 0.0 0.0 0.0 0.0 0.0 0.0 0.0 0.0 0.0 0.0 0.0 0.0 0.0 0.0 0.0 0.0 0.0 0.0 0.0 0.0 0.0 0.0 0.0 0.0 0.0 0.0 0.0 0.0 0.0 0.0 0.0 0.0 0.0 0.0 0.0 0.0 0.0 0.0 0.0 0.0 0.0 0.0 0.0 0.0 0.0 0.0 0.0 0.0 0.0 0.0 0.0 0.0 0.0 0.0 0.0 0.0 0.0 0.0 0.0 0.0 0.0 0.0 0.0 0.0 0.0 0.0 0.0 0.0 0.0 0.0 0.0 0.0 0.0 0.0 0.0 0.0 0.0 0.0 0.0 0.0 0.0 0.0 0.0 0.0 0.0 0.0 0.0 0.0 0.0 0.0 0.0 0.0 0.0 0.0 0.0 0.0 0.0 0.0 0.0 0.0 0.0 0.0 0.0 0.0 0.0 0.0 0.0 0.0 0.0 0.0 0.0 0.0 0.0 0.0 0.0 0.0 0.0 0.0 0.0 0.0 0.0 0.0 0.0 0.0 0.0 0.0 0.0 0.0 0.0 0.0 0.0 0.0 0.0 0.0 0.0 0.0 0.0 0.0 0.0 0.0 0.0 0.0 0.0 0.0 0.0 0.0 0.0 0.0 0.0 0.0 0.0 0.0 0.0 0.0 0.0 0.0 0.0 0.0 0.0 0.0 0.0 0.0 0.0 0.0 0.0 0.0 0.0 0.0 0.0 0.0 0.0 0.0 0.0 0.0 0.0 0.0 0.0 0.0 0.0 0.0 0.0 0.0 0.0 0.0 0.0 0.0 0.0 0.0 0.0 0.0 0.0 0.0 0.0 0.0 0.0 0.0 0.0 0.0 0.0 0.0 0.0 0.0 0.0 0.0 0.0 0.0 0.0 0.0 0.0 0.0 0.0 0.0 0.0 0.0 0.0 0.0 0.0 0.0 0.0 0.0 0.0 0.0 0.0 0.0 0.0 0.0 0.0 0.0 0.0 0.0 0.0 0.0 0.0 0.0 0.0 0.0 0.0 0.0 0.0 0.0 0.0 0.0 0.0 0.0 0.0 0.0 0.0 0.0 0.0 0.0 0.0 0.0 0.0 0.0 0.0 0.0 0.0 0.0 0.0 0.0 0.0 0.0 0.0 0.0 0.0 0.0 0.0 0.0 0.0 0.0 0.0 0.0 0.0 0.0 0.0 0.0 0.0 0.0 0.0 0.0 0.0 0.0 0.0 0.0 0.0 0.0 0.0 0.0 0.0 0.0 0.0 0.0 0.0 0.0 0.0 0.0 0.0 0.0 0.0 0.0 0.0 0.0 0.0 0.0 0.0 0.0 0.0 0.0 0.0 0.0 0.0 0.0 0.0 0.0 0.0 0.0 0.0 0.0 0.0 0.0 0.0 0.0 0.0 0.0 0.0 0.0 0.0 0.0 0.0 0.0 0.0 0.0 0.0 0.0 0.0 0.0 0.0 0.0 0.0 0.0 0.0 0.0 0.0 0.0 0.0 0.0 0.0 0.0 0.0 0.0 0.0 0.0 0.0 0.0 0.0 0.0 0.0 0.0 0.0 0.0 0.0 0.0 0.0 0.0 0.0 0.0 0.0 0.0 0.0 0.0 0.0 0.0 0.0 0.0 0.0 0.0 0.0 0.0 0.0 0.0 0.0 0.0 0.0 0.0 0.0 0.0 0.0 0.0 0.0 0.0 0.0 0.0 0.0 0.0 0.0 0.0 0.0 0.0 0.0 0.0 0.0 0.0 0.0 0.0 0.0 0.0 0.0 0.0 0.0 0.0 0.0 0.0 0.0 0.0 0.0 0.0 0.0 0.0 0.0 0.0 0.0 0.0 0.0 0.0 0.0 0.0 0.0 0.0 0.0 0.0 0.0 0.0 0.0 0.0 0.0 0.0 0.0 0.0 0.0 0.0 0.0 0.0 0.0 0.0 0.0 0.0 0.0 0.0 0.0 0.0 0.0 0.0 0.0 0.0 0.0 0.0 0.0 0.0 0.0 0.0 0.0 0.0 0.0 0.0 0.0 0.0 0.0 0.0 0.0 0.0 0.0 0.0 0.0 0.0 0.0 0.0 0.0 0.0 0.0 0.0 0.0 0.0 0.0 0.0 0.0 0.0 0.0 0.0 0.0 0.0 0.0 0.0 0.0 0.0 0.0 0.0 0.0 0.0 0.0 0.0 0.0 0.0 0.0 0.0 0.0 0.0 0.0 0.0 0.0 0.0 0.0 0.0 0.0 0.0 0.0 0.0 0.0 0.0 0.0 0.0 0.0 0.0 0.0 0.0 0.0 0.0 0.0 0.0 0.0 0.0 0.0 0.0 0.0 0.0 0.0 0.0 0.0 0.0 0.0 0.0 0.0 0.0 0.0 0.0 0.0 0.0 0.0 0.0 0.0 0.0 0.0 0.0 0.0 0.0 0.0 0.0 0.0 0.0 0.0 0.0 0.0 0.0 0.0 0.0 0.0 0.0 0.0 0.0 0.0 0.0 0.0 0.0 0.0 0.0 0.0 0.0 0.0 0.0 0.0 0.0 0.0 0.0 0.0 0.0 0.0 0.0 0.0 0.0 0.0 0.0 0.0 0.0 0.0 0.0 0.0 0.0 0.0 0.0 0.0 0.0 0.0 0.0 0.0 0.0 0.0 0.0 0.0 0.0 0.0 0.0 0.0 0.0 0.0 0.0 0.0 0.0 0.0 0.0 0.0 0.0 0.0 0.0 0.0 0.0 0.0 0.0 0.0 0.0 0.0 0.0 0.0 0.0 0.0 0.0 0.0 0.0 0.0 0.0 0.0 0.0 0.0 0.0 0.0 0.0 0.0 0.0 0.0 0.0 0.0 0.0 0.0 0.0 0.0 0.0 0.0 0.0 0.0 0.0 0.0 0.0 0.0 0.0 0.0 0.0 0.0 0.0 0.0 0.0 0.0 0.0 0.0 0.0 0.0 0.0 0.0 0.0 0.0 0.0 0.0 0.0 0.0 0.0 0.0 0.0 0.0 0.0 0.0 0.0 0.0 0.0 0.0 0.0 0.0 0.0 0.0 0.0 0.0 0.0 0.0 0.0 0.0 0.0 0.0 0.0 0.0 0.0 0.0 0.0 0.0 0.0 0.0 0.0 0.0 0.0 0.0 0.0 0.0 0.0 0.0 0.0 0.0 0.0 0.0 0.0 0.0 0.0 0.0 0.0 0.0 0.0 0.0 0.0 0.0 0.0 0.0 0.0 0.0 0.0 0.0 0.0 0.0 0.0 0.0 0.0 0.0 0.0 0.0 0.0 0.0 0.0 0.0 0.0 0.0 0.0 0.0 0.0 0.0 0.0 0.0 0.0 0.0 0.0 0.0 0.0 0.0 0.0 0.0 0.0 0.0 0.0 0.0 0.0 0.0 0.0 0.0 0.0 0.0 0.0 0.0 0.0 0.0 0.0 0.0 0.0 0.0 0.0 0.0 0.0 0.0 0.0 0.0 0.0 0.0 0.0 0.0 0.0 0.0 0.0 0.0 0.0 0.0 0.0 0.0 0.0 0.0 0.0 0.0 0.0 0.0 0.0 0.0 0.0 0.0 0.0 0.0 0.0 0.0 0.0 0.0 0.0 0.0 0.0 0.0 0.0 0.0 0.0 0.0 0.0 0.0 0.0 0.0 0.0 0.0 0.0 0.0 0.0 0.0 0.0 0.0 0.0 0.0 0.0 0.0 0.0 0.0 0.0 0.0 0.0 0.0 0.0 0.0 0.0 0.0 0.0 0.0 0.0 0.0 0.0 0.0 0.0 0.0 0.0 0.0 0.0 0.0 0.0 0.0 0.0 0.0 0.0 0.0 0.0 0.0 0.0 0.0 0.0 0.0 0.0 0.0 0.0 0.0 0.0 0.0 0.0 0.0 0.0 0.0 0.0 0.0 0.0 0.0 0.0 0.0 0.0 0.0 0.0 0.0 0.0 0.0 0.0 0.0 0.0 0.0 0.0 0.0 0.0 0.0 0.0 0.0 0.0 0.0 0.0 0.0 0.0 0.0 0.0 0.0 0.0 0.0 0.0 0.0 0.0 0.0 0.0 0.0 0.0 0.0 0.0 0.0 0.0 0.0 0.0 0.0 0.0 0.0 0.0 0.0 0.0 0.0 0.0 0.0 0.0 0.0 0.0 0.0 0.0 0.0 0.0 0.0 0.0 0.0 0.0 0.0 0.0 0.0 0.0 0.0 0.0 0.0 0.0 0.0 0.0 0.0 0.0 0.0 0.0 0.0 0.0 0.0 0.0 0.0 0.0 0.0 0.0 0.0 0.0 0.0 0.0 0.0 0.0 0.0 0.0 0.0 0.0 0.0 0.0 0.0 0.0 0.0 0.0 0.0 0.0 0.0 0.0 0.0 0.0 0.0 0.0 0.0 0.0 0.0 0.0 0.0 0.0 0.0 0.0 0.0 0.0 0.0 0.0 0.0 0.0 0.0 0.0 0.0 0.0 0.0 0.0 0.0 0.0 0.0 0.0 0.0 0.0 0.0 0.0 0.0 0.0 0.0 0.0 0.0 0.0 0.0 0.0 0.0 0.0 0.0 0.0 0.0 0.0 0.0 0.0 0.0 0.0 0.0 0.0 0.0 0.0 0.0 0.0 0.0 0.0 0.0 0.0 0.0 0.0 0.0 0.0 0.0 0.0 0.0 0.0 0.0 0.0 0.0 0.0 0.0 0.0 0.0 0.0 0.0 0.0 0.0 0.0 0.0 0.0 0.0 0.0 0.0 0.0 0.0 0.0 0.0 0.0 0.0 0.0 0.0 0.0 0.0 0.0 0.0 0.0 0.0 0.0 0.0 0.0 0.0 0.0 0.0 0.0 0.0 0.0 0.0 0.0 0.0 0.0 0.0 0.0 0.0 0.0 0.0 0.0 0.0 0.0 0.0 0.0 0.0 0.0 0.0 0.0 0.0 0.0 0.0 0.0 0.0 0.0 0.0 0.0 0.0 0.0 0.0 0.0 0.0 0.0 0.0 0.0 0.0 0.0 0.0 0.0 0.0 0.0 0.0 0.0 0.0 0.0 0.0 0.0 0.0 0.0 0.0 0.0 0.0 0.0 0.0 0.0 0.0 0.0 0.0 0.0 0.0 0.0 0.0 0.0 0.0 0.0 0.0 0.0 0.0 0.0 0.0 0.0 0.0 0.0 0.0 0.0 0.0 0.0 0.0 0.0 0.0 0.0 0.0 0.0 0.0 0.0 0.0 0.0 0.0 0.0 0.0 0.0 0.0 0.0 0.0 0.0 0.0 0.0 0.0 0.0 0.0 0.0 0.0 0.0 0.0 0.0 0.0 0.0 0.0 0.0 0.0 0.0 0.0 0.0 0.0 0.0 0.0 0.0 0.0 0.0 0.0 0.0 0.0 0.0 0.0 0.0 0.0 0.0 0.0 0.0 0.0 0.0 0.0 0.0 0.0 0.0 0.0 0.0 0.0 0.0 0.0 0.0 0.0 0.0 0.0 0.0 0.0 0.0 0.0 0.0 0.0 0.0 0.0 0.0 0.0 0.0 0.0 0.0 0.0 0.0 0.0 0.0 0.0 0.0 0.0 0.0 0.0 0.0 0.0 0.0 0.0 0.0 0.0 0.0 0.0 0.0 0.0 0.0 0.0 0.0 0.0 0.0 0.0 0.0 0.0 0.0 0.0 0.0 0.0 0.0 0.0 0.0 0.0 0.0 0.0 0.0 0.0 0.0 0.0 0.0 0.0 0.0 0.0 0.0 0.0 0.0 0.0 0.0 0.0 0.0 0.0 0.0 0.0 0.0 0.0 0.0 0.0 0.0 0.0 0.0 0.0 0.0 0.0 0.0 0.0 0.0 0.0 0.0 0.0 0.0 0.0 0.0 0.0 0.0 0.0 0.0 0.0 0.0 0.0 0.0 0.0 0.0 0.0 0.0 0.0 0.0 0.0 0.0 0.0 0.0 0.0 0.0 0.0 0.0 0.0 0.0 0.0 0.0 0.0 0.0 0.0 0.0 0.0 0.0 0.0 0.0 0.0 0.0 0.0 0.0 0.0 0.0 0.0 0.0 0.0 0.0 0.0 0.0 0.0 0.0 0.0 0.0 0.0 0.0 0.0 0.0 0.0 0.0 0.0 0.0 0.0 0.0 0.0 0.0 0.0 0.0 0.0 0.0 0.0 0.0 0.0 0.0 0.0 0.0 0.0 0.0 0.0 0.0 0.0 0.0 0.0 0.0 0.0 0.0 0.0 0.0 0.0 0.0 0.0 0.0 0.0 0.0 0.0 0.0 0.0 0.0 0.0 0.0 0.0 0.0 0.0 0.0 0.0 0.0 0.0 0.0 0.0 0.0 0.0 0.0 0.0 0.0 0.0 0.0 0.0 0.0 0.0 0.0 0.0 0.0 0.0 0.0 0.0 0.0 0.0 0.0 0.0 0.0 0.0 0.0 0.0 0.0 0.0 0.0 0.0 0.0 0.0 0.0 0.0 0.0 0.0 0.0 0.0 0.0 0.0 0.0 0.0 0.0 0.0 0.0 0.0 0.0 0.0 0.0 0.0 0.0 0.0 0.0 0.0 0.0 0.0 0.0 0.0 0.0 0.0 0.0 0.0 0.0 0.0 0.0 0.0 0.0 0.0 0.0 0.0 0.0 0.0 0.0 0.0 0.0 0.0 0.0 0.0 0.0 0.0 0.0 0.0 0.0 0.0 0.0 0.0 0.0 0.0 0.0 0.0 0.0 0.0 0.0 0.0 0.0 0.0 0.0 0.0 0.0 0.0 0.0 0.0 0.0 0.0 0.0 0.0 0.0 0.0 0.0 0.0 0.0 0.0 0.0 0.0 0.0 0.0 0.0 0.0 0.0 0.0 0.0 0.0 0.0 0.0 0.0 0.0 0.0 0.0 0.0 0.0 0.0 0.0 0.0 0.0 0.0 0.0 0.0 0.0 0.0 0.0 0.0 0.0 0.0 0.0 0.0 0.0 0.0 0.0 0.0 0.0 0.0 0.0 0.0 0.0 0.0 0.0 0.0 0.0 0.0 0.0 0.0 0.0 0.0 0.0 0.0 0.0 0.0 0.0 0.0 0.0 0.0 0.0 0.0 0.0 0.0 0.0 0.0 0.0 0.0 0.0 0.0 0.0 0.0 0.0 0.0 0.0 0.0 0.0 0.0 0.0 0.0 0.0 0.0 0.0 0.0 0.0 0.0 0.0 0.0 0.0 0.0 0.0 0.0 0.0 0.0 0.0 0.0 0.0 0.0 0.0 0.0 0.0 0.0 0.0 0.0 0.0 0.0 0.0 0.0 0.0 0.0 0.0 0.0 0.0 0.0 0.0 0.0 0.0 0.0 0.0 0.0 0.0 0.0 0.0 0.0 0.0 0.0 0.0 0.0 0.0 0.0 0.0 0.0 0.0 0.0 0.0 0.0 0.0 0.0 0.0 0.0 0.0 0.0 0.0 0.0 0.0 0.0 0.0 0.0 0.0 0.0 0.0 0.0 0.0 0.0 0.0 0.0 0.0 0.0 0.0 0.0 0.0 0.0 0.0 0.0 0.0 0.0 0.0 0.0 0.0 0.0 0.0 0.0 0.0 0.0 0.0 0.0 0.0 0.0 0.0 0.0 0.0 0.0 0.0 0.0 0.0 0.0 0.0 0.0 0.0 0.0 0.0 0.0 0.0 0.0 0.0 0.0 0.0 0.0 0.0 0.0 0.0 0.0 0.0 0.0 0.0 0.0 0.0 0.0 0.0 0.0 0.0 0.0 0.0 0.0 0.0 0.0 0.0 0.0 0.0 0.0 0.0 0.0 0.0 0.0 0.0 0.0 0.0 0.0 0.0 0.0 0.0 0.0 0.0 0.0 0.0 0.0 0.0 0.0 0.0 0.0 0.0 0.0 0.0 0.0 0.0 0.0 0.0 0.0 0.0 0.0 0.0 0.0 0.0 0.0 0.0 0.0 0.0 0.0 0.0 0.0 0.0 0.0 0.0 0.0 0.0 0.0 0.0 0.0 0.0 0.0 0.0 0.0 0.0 0.0 0.0 0.0 0.0 0.0 0.0 0.0 0.0 0.0 0.0 0.0 0.0 0.0 0.0 0.0 0.0 0.0 0.0 0.0 0.0 0.0 0.0 0.0 0.0 0.0 0.0 0.0 0.0 0.0 0.0 0.0 0.0 0.0 0.0 0.0 0.0 0.0 0.0 0.0 0.0 0.0 0.0 0.0 0.0 0.0 0.0 0.0 0.0 0.0 0.0 0.0 0.0 0.0 0.0 0.0 0.0 0.0 0.0 0.0 0.0 0.0 0.0 0.0 0.0 0.0 0.0 0.0 0.0 0.0 0.0 0.0 0.0 0.0 0.0 0.0 0.0 0.0 0.0 0.0 0.0 0.0 0.0 0.0 0.0 0.0 0.0 0.0 0.0 0.0 0.0 0.0 0.0 0.0 0.0 0.0 0.0 0.0 0.0 0.0 0.0 0.0 0.0 0.0 0.0 0.0 0.0 0.0 0.0 0.0 0.0 0.0 0.0 0.0 0.0 0.0 0.0 0.0 0.0 0.0 0.0 0.0 0.0 0.0 0.0 0.0 0.0 0.0 0.0 0.0 0.0 0.0 0.0 0.0 0.0 0.0 0.0 0.0 0.0 0.0 0.0 0.0 0.0 0.0 0.0 0.0 0.0 0.0 0.0 0.0 0.0 0.0 0.0 0.0 0.0 0.0 0.0 0.0 0.0 0.0 0.0 0.0 0.0 0.0 0.0 0.0 0.0 0.0 0.0 0.0 0.0 0.0 0.0 0.0 0.0 0.0 0.0 0.0 0.0 0.0 0.0 0.0 0.0 0.0 0.0 0.0 0.0 0.0 0.0 0.0 0.0 0.0 0.0 0.0 0.0 0.0 0.0 0.0 0.0 0.0 0.0 0.0 0.0 0.0 0.0 0.0 0.0 0.0 0.0 0.0 0.0 0.0 0.0 0.0 0.0 0.0 0.0 0.0 0.0 0.0 0.0 0.0 0.0 0.0 0.0 0.0 0.0 0.0 0.0 0.0 0.0 0.0 0.0 0.0 0.0 0.0 0.0 0.0 0.0 0.0 0.0 0.0 0.0 0.0 0.0 0.0 0.0 0.0 0.0 0.0 0.0 0.0 0.0 0.0 0.0 0.0 0.0 0.0 0.0 0.0 0.0 0.0 0.0 0.0 0.0 0.0 0.0 0.0 0.0 0.0 0.0 0.0 0.0 0.0 0.0 0.0 0.0 0.0 0.0 0.0 0.0 0.0 0.0 0.0 0.0 0.0 0.0 0.0 0.0 0.0 0.0 0.0 0.0 0.0 0.0 0.0 0.0 0.0 0.0 0.0 0.0 0.0 0.0 0.0 0.0 0.0 0.0 0.0 0.0 0.0 0.0 0.0 0.0 0.0 0.0 0.0 0.0 0.0 0.0 0.0 0.0 0.0 0.0 0.0 0.0 0.0 0.0 0.0 0.0 0.0 0.0 0.0 0.0 0.0 0.0 0.0 0.0 0.0 0.0 0.0 0.0 0.0 0.0 0.0 0.0 0.0 0.0 0.0 0.0 0.0 0.0 0.0 0.0 0.0 0.0 0.0 0.0 0.0 0.0 0.0 0.0 0.0 0.0 0.0 0.0 0.0 0.0 0.0 0.0 0.0 0.0 0.0 0.0 0.0 0.0 0.0 0.0 0.0 0.0 0.0 0.0 0.0 0.0 0.0 0.0 0.0 0.0 0.0 0.0 0.0 0.0 0.0 0.0 0.0 0.0 0.0 0.0 0.0 0.0 0.0 0.0 0.0 0.0 0.0 0.0 0.0 0.0 0.0 0.0 0.0 0.0 0.0 0.0 0.0 0.0 0.0 0.0 0.0 0.0 0.0 0.0 0.0 0.0 0.0 0.0 0.0 0.0 0.0 0.0 0.0 0.0 0.0 0.0 0.0 0.0 0.0 0.0 0.0 0.0 0.0 0.0 0.0 0.0 0.0 0.0 0.0 0.0 0.0 0.0 0.0 0.0 0.0 0.0 0.0 0.0 0.0 0.0 0.0 0.0 0.0 0.0 0.0 0.0 0.0 0.0 0.0 0.0 0.0 0.0 0.0 0.0 0.0 0.0 0.0 0.0 0.0 0.0 0.0 0.0 0.0 0.0 0.0 0.0 0.0 0.0 0.0 0.0 0.0 0.0 0.0 0.0 0.0 0.0 0.0 0.0 0.0 0.0 0.0 0.0 0.0 0.0 0.0 0.0 0.0 0.0 0.0 0.0 0.0 0.0 0.0 0.0 0.0 0.0 0.0 0.0 0.0 0.0 0.0 0.0 0.0 0.0 0.0 0.0 0.0 0.0 0.0 0.0 0.0 0.0 0.0 0.0 0.0 0.0 0.0 0.0 0.0 0.0 0.0 0.0 0.0 0.0 0.0 0.0 0.0 0.0 0.0 0.0 0.0 0.0 0.0 0.0 0.0 0.0 0.0 0.0 0.0 0.0 0.0 0.0 0.0 0.0 0.0 0.0 0.0 0.0 0.0 0.0 0.0 0.0 0.0 0.0 0.0 0.0 0.0 0.0 0.0 0.0 0.0 0.0 0.0 0.0 0.0 0.0 0.0 0.0 0.0 0.0 0.0 0.0 0.0 0.0 0.0 0.0 0.0 0.0 0.0 0.0 0.0 0.0 0.0 0.0 0.0 0.0 0.0 0.0 0.0 0.0 0.0 0.0 0.0 0.0 0.0 0.0 0.0 0.0 0.0 0.0 0.0 0.0 0.0 0.0 0.0 0.0 0.0 0.0 0.0 0.0 0.0 0.0 0.0 0.0 0.0 0.0 0.0 0.0 0.0 0.0 0.0 0.0 0.0 0.0 0.0 0.0 0.0 0.0 0.0 0.0 0.0 0.0 0.0 0.0 0.0 0.0 0.0 0.0 0.0 0.0 0.0 0.0 0.0 0.0 0.0 0.0 0.0 0.0 0.0 0.0 0.0 0.0 0.0 0.0 0.0 0.0 0.0 0.0 0.0 0.0 0.0 0.0 0.0 0.0 0.0 0.0 0.0 0.0 0.0 0.0 0.0 0.0 0.0 0.0 0.0 0.0 0.0 0.0 0.0 0.0 0.0 0.0 0.0 0.0 0.0 0.0 0.0 0.0 0.0 0.0 0.0 0.0 0.0 0.0 0.0 0.0 0.0 0.0 0.0 0.0 0.0 0.0 0.0 0.0 0.0 0.0 0.0 0.0 0.0 0.0 0.0 0.0 0.0 0.0 0.0 0.0 0.0 0.0 0.0 0.0 0.0 0.0 0.0 0.0 0.0 0.0 0.0 0.0 0.0 0.0 0.0 0.0 0.0 0.0 0.0 0.0 0.0 0.0 0.0 0.0 0.0 0.0 0.0 0.0 0.0 0.0 0.0 0.0 0.0 0.0 0.0 0.0 0.0 0.0 0.0 0.0 0.0 0.0 0.0 0.0 0.0 0.0 0.0 0.0 0.0 0.0 0.0 0.0 0.0 0.0 0.0 0.0 0.0 0.0 0.0 0.0 0.0 0.0 0.0 0.0 0.0 0.0 0.0 0.0 0.0 0.0 0.0 0.0 0.0 0.0 0.0 0.0 0.0 0.0 0.0 0.0 0.0 0.0 0.0 0.0 0.0 0.0 0.0 0.0 0.0 0.0 0.0 0.0 0.0 0.0 0.0 0.0 0.0 0.0 0.0 0.0 0.0 -0.00032152738999999996 0.0 -0.00012283048999999998 -0.00038994010999999996 0.0 -0.00011822875 -0.00044760637999999997 0.0 -0.00010677428999999998 -0.0004923198700000001 0.0 -9.239828100000001e-05 -0.00052552676 0.0 -7.6513315e-05 -0.00032582684 0.0 -0.00016473707999999998 -0.00045286010999999996 0.0 -0.00015516358 -0.00056094036 0.0 -0.00015295969 -0.00064781046 0.0 -0.00014142773999999998 -0.00071313273 0.0 -0.00012429638 -0.0007600133 0.0 -0.00010386558000000001 -0.00046097412 0.0 -0.00018924702 -0.0006388505 0.0 -0.00018380028000000001 -0.0007904341900000001 0.0 -0.00017922051 -0.0009127394900000001 0.0 -0.00016547542 -0.0010031267999999999 0.0 -0.00014658447 -0.0010665925 0.0 -0.00012301549 -0.00063165557 0.0 -0.00021331891 -0.00087191974 0.0 -0.00020608319999999999 -0.0010731786 0.0 -0.00020066465 -0.0012339161 0.0 -0.00018488913 -0.0013513721 0.0 -0.00016348033 -0.0014320175 0.0 -0.000137041 -0.0008410064 0.0 -0.00024083522 -0.0011546606 0.0 -0.00022646305 -0.0014121545 0.0 -0.00021859037 -0.0016141946 0.0 -0.00020021503 -0.0017591817 0.0 -0.00017620414000000002 -0.0018562704999999999 0.0 -0.00014696232 -0.0010990165 0.0 -0.00027494057 -0.0014984782 0.0 -0.00024727482000000005 -0.0018185654999999998 0.0 -0.00023415632 -0.0020644183 0.0 -0.00021221028999999998 -0.0022367369 0.0 -0.00018588368999999998 -0.0023488467999999998 0.0 -0.00015428079 -0.0014218631 0.0 -0.00032043247 -0.0019208901 0.0 -0.0002724583 -0.0023099235 0.0 -0.0002504474 -0.0026021469 0.0 -0.00022325798999999998 -0.0028011509999999996 0.0 -0.00019531728 -0.0029266377000000004 0.0 -0.00016153978 -0.0018320348999999998 0.0 -0.00038343184999999996 -0.0024439114999999997 0.0 -0.00030826946 -0.0029073611 0.0 -0.00027396629000000003 -0.0032486396000000004 0.0 -0.0002390828 -0.0034740972 0.0 -0.00020902179 -0.0036105427000000002 0.0 -0.00017350918 -0.0023623256 0.0 -0.00046080935999999993 -0.0030927837 0.0 -0.00035904767 -0.0036363292 0.0 -0.00030898704 -0.0040257131 0.0 -0.00026950872 -0.0042772521 0.0 -0.00023596529 -0.0044222446 0.0 -0.00019714833 -0.0030639926 0.0 -0.0005250376999999999 -0.0038985830999999998 0.0 -0.00042100009000000006 -0.0045193559 0.0 -0.00036442998999999994 -0.0049575213 0.0 -0.00032261557999999996 -0.0052345414 0.0 -0.00028299185000000003 -0.005383248 0.0 -0.00024097944 -0.0039882632 0.0 -0.00057516294 -0.0049068867 0.0 -0.0004885997000000001 -0.005591544300000001 0.0 -0.00043913594000000004 -0.0060743238 0.0 -0.00040095398 -0.0063696029 0.0 -0.0003630553 -0.0065174815 0.0 -0.00031318078999999997 -0.0050877193 0.0 -0.00087954826 -0.006144430500000001 0.0 -0.00067051587 -0.0068884664 0.0 -0.00058285927 -0.0074098073 0.0 -0.00052715407 -0.007712519300000001 0.0 -0.00048473023 -0.0078511108 0.0 -0.00042307444000000004 -0.0065395366000000005 0.0 -0.0018675095999999998 -0.0076813879 0.0 -0.0012594571 -0.0084655313 0.0 -0.00094123051 -0.0090071447 0.0 -0.00077059196 -0.009299512 0.0 -0.00067912758 -0.0094154663 0.0 -0.0005856721499999999 -0.0085122325 0.0 -0.0029197009 -0.0096344342 0.0 -0.0020903726000000003 -0.010410156 0.0 -0.0015023282 -0.010918205 0.0 -0.0011682621 -0.01117131 0.0 -0.0009798959399999999 -0.011248122 0.0 -0.00081755558 -0.010973236 0.0 -0.003781917 -0.012017947 0.0 -0.0029062422 -0.012735695 0.0 -0.0021653597 -0.01317548 0.0 -0.0016870003 -0.013367482 0.0 -0.0013689328 -0.013389514 0.0 -0.0011165332000000001 -0.013802068 0.0 -0.0045505394 -0.014775527 0.0 -0.0036563512 -0.015425573 0.0 -0.0028454533 -0.015793622 0.0 -0.0022561457 -0.015924305 0.0 -0.0018246388 -0.015881065 0.0 -0.001472046 -0.016918838000000002 0.0 -0.0053169243 -0.01786547 0.0 -0.0043865386 -0.018483864 0.0 -0.0035289603000000004 -0.018803228 0.0 -0.0028561968 -0.018876068 0.0 -0.0023208656 -0.018766515 0.0 -0.0018770854999999999 -0.020321621 0.0 -0.0061345417 -0.021315947000000002 0.0 -0.0051472415 -0.021951587999999998 0.0 -0.0042313887 -0.022249592000000002 0.0 -0.0034909162 -0.022275182999999997 0.0 -0.0028614040999999997 -0.0220937 0.0 -0.0023196620999999997 -0.02410234 0.0 -0.007037787199999999 -0.025213074 0.0 -0.0059699202 -0.025902066 0.0 -0.004983862899999999 -0.026195269 0.0 -0.0041740243 -0.026177 0.0 -0.0034467128999999997 -0.025918534 0.0 -0.0028001075 -0.028398136 0.0 -0.0080493335 -0.029655535 0.0 -0.0068866759999999996 -0.030412592000000002 0.0 -0.0058156783 -0.030708287 0.0 -0.004919022800000001 -0.030641956 0.0 -0.0040839333 -0.030299019 0.0 -0.0033211114 -0.03330915 0.0 -0.0091944253 -0.034722906 0.0 -0.007926355999999999 -0.035553377000000004 0.0 -0.0067538926 -0.035854238999999996 0.0 -0.0057459893000000005 -0.035735656 0.0 -0.0047835642 -0.035298157000000004 0.0 -0.0038894465999999997 -0.038911472999999995 0.0 -0.010511577 -0.040493421 0.0 -0.0091243703 -0.041400891 0.0 -0.0078230174 -0.041706771000000004 0.0 -0.0066705602 -0.041530196 0.0 -0.005556492099999999 -0.040983409 0.0 -0.0045170016 -0.04530092 0.0 -0.012043341 -0.047059704 0.0 -0.010522897 -0.048046034 0.0 -0.0090434402 -0.048352930999999995 0.0 -0.0077015213 -0.048106842000000004 0.0 -0.0064152228 -0.047429275 0.0 -0.005224444 -0.052598808 0.0 -0.01385646 -0.054536365 0.0 -0.012171287 -0.055597767 0.0 -0.010432186999999999 -0.055894528 0.0 -0.0088514797 -0.055557555999999994 0.0 -0.0073848069 -0.054718032 0.0 -0.0060521080000000005 -0.060969934 0.0 -0.016032407 -0.063067228 0.0 -0.01412815 -0.06418503099999999 0.0 -0.012006969 -0.06444325299999999 0.0 -0.010143315 -0.063977487 0.0 -0.0085164243 -0.062933095 0.0 -0.0070796921 -0.07064219599999999 0.0 -0.018672926 -0.07282576 0.0 -0.016458219 -0.073943816 0.0 -0.013796618 -0.074103624 0.0 -0.011636858 -0.07344946299999999 0.0 -0.0099121798 -0.072146341 0.0 -0.0084400699 -0.08189977 0.0 -0.021911467999999996 -0.083989903 0.0 -0.019251278 -0.08498311 0.0 -0.015884578 -0.08493734900000001 0.0 -0.013482073 -0.084017083 0.0 -0.011760892 -0.082390673 0.0 -0.010342966 -0.094990626 0.0 -0.025902219 -0.096653871 0.0 -0.022636296 -0.09730224300000001 0.0 -0.0184687 -0.096909679 0.0 -0.015943743 -0.09561338300000001 0.0 -0.014354598 -0.093608342 0.0 -0.013057077 -0.10990044 0.0 -0.03083883 -0.11065986 0.0 -0.026841071 -0.11067916 0.0 -0.021879621000000002 -0.10975377 0.0 -0.019341365 -0.10796304 0.0 -0.018044328000000002 -0.10555877 0.0 -0.016853603999999998 -0.12601669 0.0 -0.037012286 -0.12537056 0.0 -0.032235313 -0.12446462 0.0 -0.026599826 -0.12286495 0.0 -0.02412474 -0.12052399 0.0 -0.023063597999999998 -0.11769642 0.0 -0.02195815 -0.14195424 0.0 -0.04483987 -0.13963954 0.0 -0.039437141 -0.13769239 0.0 -0.033273559 -0.13544179 0.0 -0.030586055 -0.13254847 0.0 -0.029563481000000003 -0.1293581 0.0 -0.02829014 -0.15595904 0.0 -0.054857965999999994 -0.1523723 0.0 -0.049049582 -0.14985776 0.0 -0.042162869000000006 -0.14681421 0.0 -0.039060835 -0.14348821 0.0 -0.037384093 -0.14003663 0.0 -0.035532109 -0.16630296 0.0 -0.067479439 -0.16269152 0.0 -0.061188787 -0.15977691 0.0 -0.054616254 -0.15656173 0.0 -0.049879245 -0.15300588 0.0 -0.046344921 -0.14913659 0.0 -0.043663535 -0.17229161 0.0 -0.082203716 -0.16930547 0.0 -0.07391518400000001 -0.16610377 0.0 -0.069892168 -0.1625282 0.0 -0.065224856 -0.15926409 0.0 -0.058848098 -0.15544999 0.0 -0.054019369000000005 -0.17206429 0.0 -0.096369281 -0.17111064 0.0 -0.08519148800000001 -0.16774637 0.0 -0.084572881 -0.16356689 0.0 -0.083897531 -0.16078632 0.0 -0.076225936 -0.15750167 0.0 -0.06879848200000001 -0.14968407 0.0 -0.10707616 -0.16059351 0.0 -0.09560009800000001 -0.16075227 0.0 -0.097762302 -0.15662789 0.0 -0.10148038 -0.15483804 0.0 -0.09665597199999999 -0.15267219 0.0 -0.088589214 -0.10306501 0.0 -0.11674274 -0.11624973 0.0 -0.10446998 -0.12575249 0.0 -0.10661287 -0.1307731 0.0 -0.1145558 -0.13273673 0.0 -0.11464573 -0.13154314 0.0 -0.10854296 -0.062000189000000004 0.0 -0.12510356 -0.07102570700000001 0.0 -0.11005713 -0.07788208099999999 0.0 -0.10954618 -0.08270127299999999 0.0 -0.1169334 -0.085125044 0.0 -0.1182938 -0.085001551 0.0 -0.11333744 -0.031978186 0.0 -0.13151562 -0.037356351 0.0 -0.11390026 -0.041335721 0.0 -0.11056736 -0.044570285999999994 0.0 -0.11679159 -0.046563651 0.0 -0.11850202 -0.047124743 0.0 -0.11453503 -0.011217923000000001 0.0 -0.13594714 -0.013432106000000001 0.0 -0.11652765 -0.015014864 0.0 -0.1111759 -0.016639566 0.0 -0.11641766 -0.017975498 0.0 -0.11798026 -0.018761808 0.0 -0.11430553 0.0049556457 0.0 -0.13832754 0.0054649953 0.0 -0.11823537 0.0057940516 0.0 -0.11180625 0.0056627593 0.0 -0.11636099 0.0050673475 0.0 -0.11749191 0.0043049445 0.0 -0.11335798 0.02095893 0.0 -0.13870022 0.023908412 0.0 -0.11866999 0.025685141 0.0 -0.11232549 0.026816839 0.0 -0.11656081 0.026928577999999998 0.0 -0.11699317 0.026184 0.0 -0.11188676 0.038845722 0.0 -0.13707115 0.043976407 0.0 -0.11754669 0.046953931 0.0 -0.11160858 0.049061533 0.0 -0.11575987 0.049771097 0.0 -0.11555597 0.048851997 0.0 -0.10974873 0.058167987000000004 0.0 -0.13375328 0.065343715 0.0 -0.11492652 0.069316201 0.0 -0.10939061 0.072178297 0.0 -0.11341174 0.07332538799999999 0.0 -0.11280458 0.071999855 0.0 -0.10670844 0.07728067 0.0 -0.12900026 0.086285882 0.0 -0.11103123 0.09099029 0.0 -0.10573831 0.09449805300000001 0.0 -0.10943977 0.095929518 0.0 -0.1086531 0.09411042900000001 0.0 -0.10259242 0.094487868 0.0 -0.12300773 0.10497423 0.0 -0.10613271 0.10998861 0.0 -0.10077927 0.11383528 0.0 -0.10388688 0.11554017 0.0 -0.10280143 0.11350745 0.0 -0.09736848599999999 0.10841865 0.0 -0.11603808 0.1198205 0.0 -0.10038313 0.12509076 0.0 -0.09495280699999999 0.12861851 0.0 -0.09700191 0.13056797 0.0 -0.09553395199999999 0.12790291 0.0 -0.09120544 0.11836503 0.0 -0.1082501 0.13049723 0.0 -0.09398168300000001 0.1358844 0.0 -0.08860711 0.13858746 0.0 -0.089356065 0.13743149 0.0 -0.088251963 0.13174687 0.0 -0.084573381 0.1254068 0.0 -0.09975885599999999 0.13777369 0.0 -0.08707729 0.14288948 0.0 -0.081769697 0.1430258 0.0 -0.082375571 0.13831443 0.0 -0.081827328 0.13167389 0.0 -0.07775799900000001 0.13144594 0.0 -0.09114571699999999 0.14320114 0.0 -0.079708897 0.14668195 0.0 -0.074946724 0.1435679 0.0 -0.07604604200000001 0.13767044 0.0 -0.075440109 0.13049084 0.0 -0.071146905 0.13822995 0.0 -0.08294352099999999 0.14756528 0.0 -0.072120115 0.14781076 0.0 -0.068531185 0.14311491 0.0 -0.069858335 0.13628262 0.0 -0.068677485 0.1287937 0.0 -0.065002538 0.14706533 0.0 -0.07532391 0.15119185 0.0 -0.064992093 0.14823605 0.0 -0.062197614000000005 0.14246315 0.0 -0.06353603299999999 0.13477829 0.0 -0.062343903 0.12689684 0.0 -0.059401844 0.15886857 0.0 -0.067145243 0.15549904 0.0 -0.058897898 0.14896731 0.0 -0.056201544000000006 0.14187138 0.0 -0.057300888 0.13344909 0.0 -0.056261267999999996 0.12484919 0.0 -0.053841464000000006 0.17021957 0.0 -0.058624163 0.16071364 0.0 -0.053675216 0.15089026 0.0 -0.051140740999999997 0.14153236 0.0 -0.051658380999999996 0.13226913 0.0 -0.050454099 0.12285086 0.0 -0.04829007 0.17624587 0.0 -0.052152175 0.16458017 0.0 -0.048931506 0.15264855 0.0 -0.046269778 0.14153904 0.0 -0.046073034000000006 0.13129492 0.0 -0.044939574 0.12103897 0.0 -0.04280987 0.16637981 0.0 -0.044564295999999996 0.15350893 0.0 -0.041390157999999996 0.1418695 0.0 -0.040707134 0.13062777 0.0 -0.039638902999999996 0.11958588 0.0 -0.037628423 0.16581294 0.0 -0.040902015 0.15412827 0.0 -0.037586097 0.14230312 0.0 -0.035868801 0.13048775 0.0 -0.034721091 0.11862247 0.0 -0.032769568 0.1541875 0.0 -0.035350867 0.14273751 0.0 -0.032537982 0.13121805 0.0 -0.031088376 0.11850745 0.0 -0.028780362 0.15260857 0.0 -0.033834527999999996 0.14348301 0.0 -0.031315081 0.1323978 0.0 -0.028882379 0.11975903 0.0 -0.026386356 0.1427138 0.0 -0.030758472000000002 0.1334115 0.0 -0.028179599 0.12188408 0.0 -0.02560661 0.13296685 0.0 -0.028034212000000003 0.12383099 0.0 -0.025870781000000002 0.12836646 0.0 -0.02613925 0.12355436 0.0 -0.026088188999999998 -0.00054858328 0.0 -6.140472399999999e-05 -0.00056377612 0.0 -4.749075e-05 -0.0005727570999999999 0.0 -3.5958394e-05 -0.00057740457 0.0 -2.6360850999999996e-05 -0.00057917199 0.0 -1.8696246e-05 -0.0005792040599999999 0.0 -1.2826094000000001e-05 -0.0005784324 0.0 -8.2947281e-06 -0.00057746028 0.0 -4.9236119e-06 -0.00057672377 0.0 -2.2659842000000003e-06 -0.0007915727900000001 0.0 -8.3520659e-05 -0.0008112471000000001 0.0 -6.5033491e-05 -0.0008220687700000001 0.0 -4.9552549e-05 -0.0008270178200000001 0.0 -3.6378595e-05 -0.00082806189 0.0 -2.6032004999999998e-05 -0.0008269512299999999 0.0 -1.7946291e-05 -0.00082495844 0.0 -1.1741082e-05 -0.00082295656 0.0 -7.0207961000000004e-06 -0.00082153879 0.0 -3.2577334e-06 -0.0011077703 0.0 -9.9553654e-05 -0.0011322952 0.0 -7.7966644e-05 -0.0011449165 0.0 -5.9412101e-05 -0.0011496264 0.0 -4.3825416999999995e-05 -0.0011493368 0.0 -3.1507068e-05 -0.0011464697 0.0 -2.1722037e-05 -0.0011426925 0.0 -1.428514e-05 -0.0011392252 0.0 -8.5460924e-06 -0.0011368491000000001 0.0 -3.988860000000001e-06 -0.0014827404 0.0 -0.00011065086000000001 -0.0015114606 0.0 -8.6732631e-05 -0.0015250391 0.0 -6.584623e-05 -0.0015285593 0.0 -4.8598224e-05 -0.001526046 0.0 -3.4806741e-05 -0.00152058 0.0 -2.3978930999999996e-05 -0.0015143519 0.0 -1.5740039e-05 -0.0015089236 0.0 -9.3976796e-06 -0.0015052884 0.0 -4.3819695999999996e-06 -0.0019151738 0.0 -0.00011817091999999998 -0.0019465970000000002 0.0 -9.2360715e-05 -0.0019596282000000002 0.0 -6.960873e-05 -0.0019605332 0.0 -5.1220395e-05 -0.0019545343 0.0 -3.6399182e-05 -0.0019454048 0.0 -2.4973964e-05 -0.0019359022 0.0 -1.6266185e-05 -0.0019279106 0.0 -9.680409699999999e-06 -0.0019226591 0.0 -4.4878734e-06 -0.002413881 0.0 -0.00012372584 -0.0024459441 0.0 -9.6146199e-05 -0.0024562557 0.0 -7.2152179e-05 -0.002452679 0.0 -5.2792155e-05 -0.0024415598999999997 0.0 -3.7219099e-05 -0.0024274481 0.0 -2.5351680999999998e-05 -0.0024136424 0.0 -1.6376502e-05 -0.0024023659 0.0 -9.6796812e-06 -0.0023950636 0.0 -4.4643352e-06 -0.0029953232 0.0 -0.00012981950000000002 -0.0030253481 0.0 -0.00010070728999999999 -0.003030299 0.0 -7.5605574e-05 -0.0030199313 0.0 -5.5066397e-05 -0.0030016901 0.0 -3.8696668e-05 -0.0029809913 0.0 -2.6179016999999998e-05 -0.0029616344 0.0 -1.6840466e-05 -0.0029461938 0.0 -9.9001909e-06 -0.0029363146000000004 0.0 -4.547104700000001e-06 -0.0036799712 0.0 -0.00014026854 -0.0037046839 0.0 -0.00010939633999999998 -0.0037011467 0.0 -8.2793893e-05 -0.003681205 0.0 -6.047518e-05 -0.0036534728000000003 0.0 -4.2690135e-05 -0.0036242481 0.0 -2.8903051999999996e-05 -0.0035978416 0.0 -1.8630953e-05 -0.0035771671999999997 0.0 -1.0959034e-05 -0.0035640714 0.0 -5.0379462999999995e-06 -0.0044887564 0.0 -0.00016075003 -0.0045042829999999996 0.0 -0.00012683129 -0.0044886707 0.0 -9.7421878e-05 -0.0044559217 0.0 -7.1992552e-05 -0.0044159181 0.0 -5.1419396e-05 -0.004375862 0.0 -3.5159333000000004e-05 -0.0043406044 0.0 -2.2878219e-05 -0.0043134033 0.0 -1.3566687e-05 -0.0042963158000000005 0.0 -6.2767322e-06 -0.0054420824 0.0 -0.00019917131 -0.0054439437 0.0 -0.00015930953999999999 -0.0054122717 0.0 -0.00012400723 -0.005363045699999999 0.0 -9.294175800000001e-05 -0.0053075515 0.0 -6.7269124e-05 -0.005253948299999999 0.0 -4.6654215000000006e-05 -0.0052076979 0.0 -3.0728366e-05 -0.0051724296 0.0 -1.8441204e-05 -0.0051504206 0.0 -8.597992699999999e-06 -0.0065623745 0.0 -0.00026329915 -0.006545549300000001 0.0 -0.00021297080000000002 -0.006493280600000001 0.0 -0.00016726405 -0.0064233947 0.0 -0.00012678749 -0.006348723499999999 0.0 -9.2616945e-05 -0.0062784161 0.0 -6.4999047e-05 -0.0062186625 0.0 -4.3204764e-05 -0.006173490500000001 0.0 -2.6184505e-05 -0.0061454587 0.0 -1.2289018000000001e-05 -0.0078753782 0.0 -0.00035989017 -0.0078344662 0.0 -0.00029251922 -0.0077563142 0.0 -0.00023096797000000003 -0.007660948199999999 0.0 -0.00017645161 -0.0075628697 0.0 -0.00012936718 -0.0074722003000000006 0.0 -9.1355265e-05 -0.0073959851 0.0 -6.1099672e-05 -0.0073387655 0.0 -3.7162699e-05 -0.0073033962 0.0 -1.7530632000000002e-05 -0.0094116414 0.0 -0.0004941378700000001 -0.0093393829 0.0 -0.00040257559 -0.009229337800000001 0.0 -0.00031771604 -0.009102948000000001 0.0 -0.00024277167 -0.0089763701 0.0 -0.00017838798999999999 -0.0088610752 0.0 -0.00012597893 -0.0087649543 0.0 -8.4652187e-05 -0.0086932071 0.0 -5.158472399999999e-05 -0.0086489702 0.0 -2.4346309000000002e-05 -0.011205696000000001 0.0 -0.0006751410000000001 -0.011093526999999999 0.0 -0.00054479798 -0.010943604 0.0 -0.00042881496 -0.010779483000000001 0.0 -0.00032570795 -0.010618318 0.0 -0.00023973153999999998 -0.010473421 0.0 -0.00016890718 -0.010353387 0.0 -0.00011325496000000001 -0.010264163 0.0 -6.9032787e-05 -0.010209336999999999 0.0 -3.256715e-05 -0.013296158999999998 0.0 -0.0009054647500000001 -0.01313347 0.0 -0.0007220812799999999 -0.012933806 0.0 -0.00056417158 -0.012723534 0.0 -0.00042520922999999996 -0.012520699 0.0 -0.00031136442 -0.012340176999999999 0.0 -0.00021916171000000003 -0.01219156 0.0 -0.0001463323 -0.012081406000000001 0.0 -8.891997300000001e-05 -0.012013923999999999 0.0 -4.1859665000000006e-05 -0.015724376 0.0 -0.0011800396000000001 -0.015498787 0.0 -0.0009317537199999998 -0.015238186 0.0 -0.0007217378 -0.014971683000000001 0.0 -0.0005389436299999999 -0.014718644 0.0 -0.00039170933 -0.014495275 0.0 -0.00027429359 -0.014312608000000001 0.0 -0.00018234247 -0.014177587 0.0 -0.00011033053999999998 -0.014094956 0.0 -5.1643208e-05 -0.018535573 0.0 -0.0014957357 -0.018233903 0.0 -0.0011709968 -0.017899818999999997 0.0 -0.0008995584800000001 -0.017565413999999998 0.0 -0.00066610228 -0.017251842 0.0 -0.00047946858 -0.016977048999999998 0.0 -0.00033302829 -0.016753538000000002 0.0 -0.00021925799 -0.016588969 0.0 -0.0001321657 -0.01648825 0.0 -6.1483748e-05 -0.021778494 0.0 -0.0018444635000000001 -0.021387272000000002 0.0 -0.0014337987 -0.020965798 0.0 -0.0010928083000000001 -0.02055043 0.0 -0.0008034692699999999 -0.020164493000000002 0.0 -0.00057251507 -0.019828213 0.0 -0.00039372741999999997 -0.019555809 0.0 -0.00025639619 -0.019355796 0.0 -0.00015331614 -0.019233622 0.0 -7.100201e-05 -0.025507053 0.0 -0.0022213561 -0.025012072000000003 0.0 -0.0017179004999999998 -0.024487125 0.0 -0.0012974903 -0.023975611 0.0 -0.00094630459 -0.023504131 0.0 -0.0006693197599999999 -0.023095015 0.0 -0.00045673209 -0.022764232000000002 0.0 -0.00029427055 -0.022521824 0.0 -0.00017427544999999998 -0.022374047 0.0 -8.0463717e-05 -0.029778887999999996 0.0 -0.0026293832 -0.029164137000000003 0.0 -0.0020250797 -0.028518437999999997 0.0 -0.0015199312 -0.027893072 0.0 -0.0011006298 -0.027319765 0.0 -0.00077262981 -0.026824498999999998 0.0 -0.00052520703 -0.026424407999999996 0.0 -0.00033628003 -0.026131522 0.0 -0.00019793586 -0.025953174 0.0 -9.128062099999999e-05 -0.034653746 0.0 -0.0030745827 -0.033899881 0.0 -0.0023626464 -0.033112776000000003 0.0 -0.0017681682000000002 -0.032353348999999997 0.0 -0.0012772708000000001 -0.031659607 0.0 -0.00089506526 -0.031061982999999998 0.0 -0.00060863927 -0.030580182999999997 0.0 -0.000390801 -0.030227505 0.0 -0.00023044072 -0.030012837 0.0 -0.00010662685 -0.040193655 0.0 -0.0035716284000000004 -0.039276231 0.0 -0.0027490524 -0.038322911 0.0 -0.0020638613 -0.037405849 0.0 -0.0014996845000000002 -0.036570363 0.0 -0.0010599893 -0.035852253 0.0 -0.00072893046 -0.035274118 0.0 -0.0004748000599999999 -0.034851056 0.0 -0.00028360554 -0.034593608 0.0 -0.00013280941999999998 -0.04646587 0.0 -0.0041505354 -0.045354079000000005 0.0 -0.0032214667 -0.044204291 0.0 -0.0024481018 -0.043102782 0.0 -0.0018096425 -0.042101867 0.0 -0.0013080138999999999 -0.041243125 0.0 -0.0009205437400000001 -0.040552332999999996 0.0 -0.0006159048599999999 -0.040047295 0.0 -0.00037647461 -0.039739847 0.0 -0.00017966991000000003 -0.053544354 0.0 -0.0048680399 -0.052201409000000004 0.0 -0.003847101 -0.050821871 0.0 -0.0029890921 -0.04950521099999999 0.0 -0.0022744881 -0.04831329 0.0 -0.0016988793 -0.047292724 0.0 -0.0012354571000000002 -0.046472497 0.0 -0.00085658859 -0.045873195 0.0 -0.00053784758 -0.04550812 0.0 -0.00026037607999999994 -0.061506297 0.0 -0.0058211782 -0.059892497999999995 0.0 -0.0047319233 -0.058248136 0.0 -0.0037921395 -0.056685612 0.0 -0.002992281 -0.055276915 0.0 -0.0023181548 -0.054073803 0.0 -0.0017472686 -0.05310788 0.0 -0.0012510137 -0.052401795999999994 0.0 -0.0008076318799999999 -0.05197173 0.0 -0.0003962784 -0.070420943 0.0 -0.007157819300000001 -0.068499297 0.0 -0.0060236449 -0.066557646 0.0 -0.0050008711 -0.06472082400000001 0.0 -0.0040863561 -0.063071609 0.0 -0.0032719746 -0.061667334000000004 0.0 -0.0025404289000000003 -0.06054110099999999 0.0 -0.0018651242000000002 -0.059718557 0.0 -0.0012274304 -0.059217162000000004 0.0 -0.00060937909 -0.080326885 0.0 -0.0090778638 -0.078067735 0.0 -0.007902926800000001 -0.07580713900000001 0.0 -0.006777002 -0.07367415 0.0 -0.005704666999999999 -0.071765535 0.0 -0.0046856534 -0.070144512 0.0 -0.0037171401 -0.068847418 0.0 -0.0027773452 -0.067900874 0.0 -0.0018515406 -0.067324072 0.0 -0.0009268362199999999 -0.09117853599999999 0.0 -0.011817999 -0.088568725 0.0 -0.010559868 -0.08597771800000001 0.0 -0.0092823748 -0.08354301 0.0 -0.007978945 -0.081368133 0.0 -0.006665526 -0.07952185 0.0 -0.0053545469 -0.078046858 0.0 -0.004042974699999999 -0.076970719 0.0 -0.0027144830999999998 -0.076314718 0.0 -0.0013644464000000002 -0.10274511 0.0 -0.015591381000000001 -0.099801041 0.0 -0.014200555 -0.09689850400000001 0.0 -0.012685509 -0.094172701 0.0 -0.011043164 -0.091733679 0.0 -0.009327351999999999 -0.08966408699999999 0.0 -0.0075471504 -0.088009059 0.0 -0.0057171877 -0.086801268 0.0 -0.0038449228999999996 -0.086063735 0.0 -0.0019334145999999998 -0.11454811 0.0 -0.020600392 -0.11131697 0.0 -0.018949719 -0.1081415 0.0 -0.017026667 -0.10515138 0.0 -0.014920685 -0.10247846 0.0 -0.012654533999999999 -0.10020505 0.0 -0.010264366 -0.09838373199999999 0.0 -0.0077883857 -0.097051062 0.0 -0.0052449903 -0.096233457 0.0 -0.0026416265999999996 -0.12596075 0.0 -0.026621036 -0.12244185 0.0 -0.024625792999999997 -0.11899989 0.0 -0.022313832999999998 -0.11577998 0.0 -0.019652903 -0.11291645 0.0 -0.01670967 -0.11047626 0.0 -0.013568371999999999 -0.10851819 0.0 -0.010314043 -0.10707329 0.0 -0.006961012700000001 -0.10618059 0.0 -0.0035072081 -0.13629118 0.0 -0.033485752 -0.13246921 0.0 -0.031177687000000003 -0.12882109 0.0 -0.02841316 -0.12546811 0.0 -0.025108237000000002 -0.12248933 0.0 -0.021424951 -0.11991354 0.0 -0.017467724 -0.11779758 0.0 -0.013298062 -0.11624385 0.0 -0.008983491 -0.11528252 0.0 -0.0045357724 -0.14504115 0.0 -0.041157782000000004 -0.14100029 0.0 -0.03843388 -0.13723847 0.0 -0.035065535 -0.13380224 0.0 -0.031003471 -0.13069566 0.0 -0.02639015 -0.12796268 0.0 -0.021483021 -0.12575701 0.0 -0.016378548 -0.12413153 0.0 -0.011105552 -0.12312531 0.0 -0.0056186551 -0.15128238 0.0 -0.050384264000000005 -0.1471664 0.0 -0.04700841 -0.14337555 0.0 -0.042910051 -0.1399691 0.0 -0.037857573 -0.13687354 0.0 -0.032216817 -0.13412033 0.0 -0.026300361 -0.13187353 0.0 -0.020134469 -0.13021974 0.0 -0.013675765 -0.12921651 0.0 -0.0069266193999999994 -0.15355699 0.0 -0.063448533 -0.14958985 0.0 -0.058910730999999994 -0.14599597 0.0 -0.053779069000000006 -0.14280996 0.0 -0.047613837 -0.13986607 0.0 -0.04066772 -0.13720824 0.0 -0.033242971 -0.1349782 0.0 -0.02548915 -0.13329066 0.0 -0.017357202 -0.13224158 0.0 -0.0088012842 -0.14938629 0.0 -0.081571698 -0.14591406 0.0 -0.075418584 -0.14303419 0.0 -0.06828558400000001 -0.14050801 0.0 -0.059773624000000004 -0.13790685 0.0 -0.050464798 -0.13532919 0.0 -0.040878445 -0.13310814 0.0 -0.03113538 -0.13140495 0.0 -0.021120798 -0.13034526 0.0 -0.010711433999999999 -0.12851664 0.0 -0.10048785 -0.12487058 0.0 -0.092759706 -0.12120156 0.0 -0.08307731900000001 -0.11762963 0.0 -0.07158133400000001 -0.11429326 0.0 -0.05967520900000001 -0.11136011 0.0 -0.047927900999999995 -0.10893525 0.0 -0.036320227999999996 -0.10710512 0.0 -0.024566185 -0.10595911 0.0 -0.012439158999999998 -0.083231293 0.0 -0.10599691 -0.080863789 0.0 -0.098451644 -0.07830575099999999 0.0 -0.08854527 -0.075771175 0.0 -0.076625161 -0.073399283 0.0 -0.06416823 -0.071285918 0.0 -0.051745072 -0.069510698 0.0 -0.039340489 -0.068154819 0.0 -0.026671436 -0.067299083 0.0 -0.013524026000000001 -0.046602894000000006 0.0 -0.10819313 -0.04557601 0.0 -0.10127116 -0.044290613 0.0 -0.091639027 -0.042910881 0.0 -0.079713315 -0.041551396000000004 0.0 -0.067050949 -0.040291499 0.0 -0.054275744 -0.039197676 0.0 -0.041393518 -0.038339954 0.0 -0.028127681 -0.037788708 0.0 -0.014281898999999999 -0.018994777 0.0 -0.10860398 -0.018902915 0.0 -0.10224154 -0.018597065 0.0 -0.09294644 -0.018168395 0.0 -0.081161149 -0.017680727 0.0 -0.068495974 -0.017179152 0.0 -0.055610064 -0.01670601 0.0 -0.042519543 -0.016311316 0.0 -0.028949345 -0.016047267 0.0 -0.014716905 0.0036009995000000003 0.0 -0.10789166 0.0030092020000000003 0.0 -0.10187943 0.0025438459 0.0 -0.09285669 0.0021932046 0.0 -0.08125846099999999 0.0019483464000000002 0.0 -0.068716273 0.001800655 0.0 -0.055899523 0.0017334763 0.0 -0.042819917 0.0017189591 0.0 -0.029197393 0.0017264467000000002 0.0 -0.014857181 0.02504563 0.0 -0.10639384 0.02383592 0.0 -0.10051057 0.022689622000000003 0.0 -0.091665551 0.021663295 0.0 -0.080264114 0.020789351 0.0 -0.067928538 0.020085063 0.0 -0.055315595 0.019552756 0.0 -0.042420529000000005 0.019184172 0.0 -0.028953947 0.018968288 0.0 -0.014743202 0.047160175 0.0 -0.10413899 0.045278795 0.0 -0.098269284 0.043457214 0.0 -0.08954978 0.04180035 0.0 -0.0783673 0.040361147 0.0 -0.06631159 0.039166965 0.0 -0.054011632000000004 0.038229427999999996 0.0 -0.04144137 0.037553396 0.0 -0.028301027000000003 0.037143853 0.0 -0.014416433000000001 0.069612443 0.0 -0.10102192 0.066984229 0.0 -0.09515322 0.06447027599999999 0.0 -0.086575665 0.062204413 0.0 -0.075669982 0.060241446 0.0 -0.063977145 0.058605372999999995 0.0 -0.052092038 0.057308499000000006 0.0 -0.039968841 0.056362617999999996 0.0 -0.02730019 0.055784125 0.0 -0.013908993 0.09095950400000001 0.0 -0.096940488 0.08756388699999999 0.0 -0.091136009 0.08437109 0.0 -0.08277262 0.08152958 0.0 -0.072232947 0.079084694 0.0 -0.060998023 0.077050149 0.0 -0.049628764000000006 0.075433895 0.0 -0.038065147 0.07425077299999999 0.0 -0.025997227 0.073524699 0.0 -0.013245255 0.1096329 0.0 -0.091886334 0.1055278 0.0 -0.08624526099999999 0.10171267 0.0 -0.078194357 0.09834169599999999 0.0 -0.068122208 0.095450237 0.0 -0.05744293 0.093042821 0.0 -0.04668661599999999 0.091127187 0.0 -0.035785921 0.089722596 0.0 -0.024433365 0.088859417 0.0 -0.012447035 0.12248821 0.0 -0.08602288400000001 0.11703898 0.0 -0.080594853 0.11219355 0.0 -0.072930403 0.1079937 0.0 -0.063430287 0.10439456 0.0 -0.053421527 0.10138863 0.0 -0.04339128 0.099003837 0.0 -0.033255327 0.097266912 0.0 -0.02270625 0.096214488 0.0 -0.01156815 0.12519474 0.0 -0.079684243 0.11925161 0.0 -0.074453719 0.11407892 0.0 -0.067218326 0.109631 0.0 -0.05837239 0.10583757 0.0 -0.049109247 0.10268692 0.0 -0.039865579 0.10019619 0.0 -0.030539379 0.098398082 0.0 -0.020844849 0.097312674 0.0 -0.010616038999999999 0.12493967 0.0 -0.073239252 0.11885992 0.0 -0.068180509 0.11358918 0.0 -0.061408530999999995 0.10906854 0.0 -0.053227536 0.10522866 0.0 -0.044697903 0.10204614 0.0 -0.036210805 0.09953851300000001 0.0 -0.027686127 0.097732432 0.0 -0.018866125 0.09664727699999999 0.0 -0.0095994473 0.12356757 0.0 -0.06701220599999999 0.1173596 0.0 -0.06219729400000001 0.11199766 0.0 -0.055838998 0.10742553 0.0 -0.048265185 0.10356322 0.0 -0.04041956 0.10038285 0.0 -0.032668591000000004 0.097885117 0.0 -0.024929449 0.09608195 0.0 -0.016956085 0.094989948 0.0 -0.00861248 0.12173356 0.0 -0.061223230999999996 0.11535808 0.0 -0.056766107999999996 0.10979544 0.0 -0.050841041 0.10514039 0.0 -0.043874490999999995 0.10127019 0.0 -0.036660269 0.098111339 0.0 -0.029541729 0.09562058699999999 0.0 -0.022444227999999997 0.093809105 0.0 -0.015207861999999999 0.092707098 0.0 -0.0077034892 0.11955947 0.0 -0.05574163 0.11297119 0.0 -0.05163328 0.1072146 0.0 -0.046201440999999996 0.10245107 0.0 -0.03982234 0.09854970099999999 0.0 -0.03315524 0.095396526 0.0 -0.026601412999999997 0.092926383 0.0 -0.020138444 0.09112999599999999 0.0 -0.013594071999999999 0.090029344 0.0 -0.0068677338 0.11711132 0.0 -0.05073918400000001 0.11018603 0.0 -0.046707992000000004 0.1042584 0.0 -0.041878879 0.09933172900000001 0.0 -0.036094531 0.095378064 0.0 -0.030001355 0.092228197 0.0 -0.02397819 0.089782327 0.0 -0.018066222 0.088004254 0.0 -0.012133389 0.086915933 0.0 -0.0061101918 0.11448968 0.0 -0.045695253 0.10715061 0.0 -0.042097500999999996 0.10095454 0.0 -0.03773234 0.095910922 0.0 -0.032624569 0.09186808 0.0 -0.027140154 0.08870734300000001 0.0 -0.021649275 0.086275071 0.0 -0.016219011999999998 0.084522568 0.0 -0.010835714 0.083451681 0.0 -0.005430466 0.11187222 0.0 -0.040476412 0.10414259 0.0 -0.037679262000000005 0.09758596900000001 0.0 -0.033824503 0.09234456699999999 0.0 -0.02947242 0.088213123 0.0 -0.024553675 0.085011899 0.0 -0.019566666 0.082588829 0.0 -0.014615338 0.08086049599999999 0.0 -0.0097117601 0.079817772 0.0 -0.0048505254 0.10959792 0.0 -0.03537368 0.10120452 0.0 -0.032954779 0.094417736 0.0 -0.030092398 0.088872924 0.0 -0.02631999 0.084607147 0.0 -0.022233062999999997 0.081320234 0.0 -0.017729109 0.078891493 0.0 -0.013214617 0.077180497 0.0 -0.0087523079 0.076157466 0.0 -0.004353537199999999 0.10787773 0.0 -0.030600142 0.09875585099999999 0.0 -0.02836884 0.09143339800000001 0.0 -0.026020274 0.085710779 0.0 -0.023246727999999998 0.08121945700000001 0.0 -0.01973949 0.07786025099999999 0.0 -0.015986813 0.075361729 0.0 -0.011942633999999999 0.073644981 0.0 -0.0079223653 0.07263699900000001 0.0 -0.0039373664000000004 0.10682151 0.0 -0.026365571 0.09697105 0.0 -0.024149461 0.08906141699999999 0.0 -0.022086607 0.082893923 0.0 -0.019887983999999997 0.07823760099999999 0.0 -0.017286619 0.07469920099999999 0.0 -0.014056453 0.072168946 0.0 -0.010658905 0.070429362 0.0 -0.0071080662 0.069417283 0.0 -0.0035517297 0.10694683 0.0 -0.023287903999999998 0.096031845 0.0 -0.020671127 0.087383531 0.0 -0.018516631999999998 0.080726013 0.0 -0.01662962 0.075662628 0.0 -0.014562756000000001 0.07200345400000001 0.0 -0.012132033 0.069342583 0.0 -0.0092318347 0.067579456 0.0 -0.0062212883 0.066571027 0.0 -0.0031566718 0.10914187 0.0 -0.022322774 0.096647955 0.0 -0.018676335 0.08670970800000001 0.0 -0.015859211 0.079316579 0.0 -0.013774473999999998 0.073807053 0.0 -0.012037049 0.069738835 0.0 -0.010052905 0.06694757900000001 0.0 -0.007775146 0.065133922 0.0 -0.0053015145999999996 0.064092368 0.0 -0.0026778653000000003 0.11220869 0.0 -0.022689657000000002 0.09990601199999999 0.0 -0.019078877 0.088178754 0.0 -0.015147094 0.07911182900000001 0.0 -0.012050896 0.072738782 0.0 -0.0099900207 0.068241186 0.0 -0.0083434517 0.065123633 0.0 -0.006451283100000001 0.063136198 0.0 -0.0043722992 0.062034007 0.0 -0.0022184926 0.11417391 0.0 -0.023389764 0.10360131 0.0 -0.02038108 0.092362709 0.0 -0.016811153 0.08189027 0.0 -0.012932858 0.073505662 0.0 -0.0096772639 0.067801006 0.0 -0.0074584987 0.064100474 0.0 -0.0056356038 0.061834339 0.0 -0.0038674199 0.06058694 0.0 -0.0019804982 0.11245176 0.0 -0.022702415 0.10464904 0.0 -0.020746953999999998 0.095898829 0.0 -0.018536633 0.086964399 0.0 -0.015707325 0.07826349099999999 0.0 -0.012302238 0.07048911599999999 0.0 -0.0091844723 0.06507690299999999 0.0 -0.006457215200000001 0.06186147400000001 0.0 -0.0042056195000000005 0.060206674 0.0 -0.0020766754 0.10162809 0.0 -0.019576292 0.095548406 0.0 -0.018323513 0.08894738599999999 0.0 -0.016778026 0.082525425 0.0 -0.014922138 0.07671823400000001 0.0 -0.012356259 0.071484268 0.0 -0.0093023153 0.067808539 0.0 -0.005969166800000001 0.065817207 0.0 -0.0028278094 0.086603791 0.0 -0.015919635 0.08185911900000001 0.0 -0.014943244 0.077173069 0.0 -0.013157473999999999 0.073992476 0.0 -0.010302710999999999 0.072429761 0.0 -0.0064619565 0.071633294 0.0 -0.0030028166 0.074491017 0.0 -0.012525003 0.071303427 0.0 -0.010282004 0.06942264 0.0 -0.0068895561 0.068859458 0.0 -0.0031769511 -0.00057645125 0.0 -1.7402876000000002e-11 -0.0005767234799999999 0.0 2.265974e-06 -0.0005774601 0.0 4.923674599999999e-06 -0.00057843275 0.0 8.2947154e-06 -0.00057920418 0.0 1.2826046e-05 -0.00057917211 0.0 1.869623e-05 -0.0005774048599999999 0.0 2.6360829e-05 -0.00057275733 0.0 3.5958397e-05 -0.0008210288900000001 0.0 1.0305663e-11 -0.0008215385000000001 0.0 3.257755e-06 -0.0008229562700000001 0.0 7.020718400000001e-06 -0.0008249580900000001 0.0 1.1741015e-05 -0.00082695129 0.0 1.7946255e-05 -0.00082806195 0.0 2.6031970000000002e-05 -0.0008270175299999999 0.0 3.6378562e-05 -0.0008220684799999999 0.0 4.9552479999999996e-05 -0.0011360089 0.0 2.0565501999999998e-11 -0.0011368498 0.0 3.988745e-06 -0.0011392254 0.0 8.546094300000001e-06 -0.0011426926 0.0 1.4285055e-05 -0.0011464702 0.0 2.172202e-05 -0.001149337 0.0 3.1507028e-05 -0.0011496261 0.0 4.3825308000000004e-05 -0.0011449159 0.0 5.9412174e-05 -0.0015040139 0.0 -3.2272279e-11 -0.0015052885 0.0 4.3819773e-06 -0.0015089237 0.0 9.3975996e-06 -0.0015143519 0.0 1.5740015e-05 -0.0015205794000000001 0.0 2.3978930999999996e-05 -0.0015260448000000001 0.0 3.4806737e-05 -0.0015285588 0.0 4.8598104e-05 -0.0015250394 0.0 6.5846245e-05 -0.0019208329999999998 0.0 1.6196243e-10 -0.0019226592999999998 0.0 4.487802500000001e-06 -0.0019279106 0.0 9.6801505e-06 -0.0019359019 0.0 1.6266047000000002e-05 -0.001945405 0.0 2.4973883999999998e-05 -0.0019545348000000002 0.0 3.6399097999999996e-05 -0.001960533 0.0 5.1220267999999994e-05 -0.0019596287 0.0 6.960878800000001e-05 -0.0023925414000000003 0.0 -1.7738046999999999e-10 -0.0023950632 0.0 4.4638873e-06 -0.0024023659 0.0 9.679389199999999e-06 -0.0024136428 0.0 1.6376387e-05 -0.0024274482999999997 0.0 2.5351605e-05 -0.0024415606 0.0 3.7218921e-05 -0.0024526785 0.0 5.279214e-05 -0.0024562557 0.0 7.215220099999999e-05 -0.0029329221999999998 0.0 -1.7289678e-10 -0.0029363143 0.0 4.5471484e-06 -0.0029461945000000002 0.0 9.8999144e-06 -0.0029616346999999997 0.0 1.6840286e-05 -0.0029809913 0.0 2.6178825000000003e-05 -0.0030016901 0.0 3.8696577e-05 -0.003019932 0.0 5.5066441000000004e-05 -0.0030302983 0.0 7.5605749e-05 -0.0035595965999999997 0.0 2.0916938000000002e-10 -0.0035640718 0.0 5.0376047999999995e-06 -0.0035771669 0.0 1.0959105e-05 -0.0035978416 0.0 1.8630806e-05 -0.0036242478999999996 0.0 2.890295e-05 -0.0036534728000000003 0.0 4.2690041e-05 -0.0036812052000000004 0.0 6.0475108e-05 -0.0037011465000000004 0.0 8.2793675e-05 -0.0042904974 0.0 2.0773575e-10 -0.0042963163 0.0 6.2764825e-06 -0.0043134033 0.0 1.3566297999999999e-05 -0.004340603 0.0 2.2877934e-05 -0.0043758624 0.0 3.5159304000000005e-05 -0.0044159186 0.0 5.1419291e-05 -0.004455922199999999 0.0 7.1992603e-05 -0.0044886716999999994 0.0 9.742174000000001e-05 -0.0051429477 0.0 -1.9164913e-10 -0.0051504215 0.0 8.5975234e-06 -0.0051724291 0.0 1.8441184000000002e-05 -0.0052076993 0.0 3.072805e-05 -0.0052539487 0.0 4.6653917000000004e-05 -0.0053075529 0.0 6.7269204e-05 -0.0053630471 0.0 9.2941635e-05 -0.005412272199999999 0.0 0.00012400723 -0.0061359606 0.0 2.6007022e-10 -0.0061454587 0.0 1.2288805e-05 -0.006173491 0.0 2.6184081e-05 -0.006218662 0.0 4.320428700000001e-05 -0.0062784166 0.0 6.4998821e-05 -0.006348724 0.0 9.261701800000001e-05 -0.0064233956 0.0 0.00012678702 -0.0064932811 0.0 0.00016726463 -0.0072914427 0.0 -3.8831272e-10 -0.0073033967 0.0 1.7530345e-05 -0.007338766500000001 0.0 3.716243e-05 -0.0073959846 0.0 6.1099367e-05 -0.0074721998999999996 0.0 9.1355214e-05 -0.0075628668999999996 0.0 0.00012936698999999998 -0.007660949100000001 0.0 0.00017645113000000002 -0.0077563138 0.0 0.00023096791000000002 -0.0086340476 0.0 4.4349989e-11 -0.0086489702 0.0 2.4346236e-05 -0.0086932071 0.0 5.1584208e-05 -0.0087649552 0.0 8.4652056e-05 -0.008861074200000001 0.0 0.00012597848 -0.008976371 0.0 0.00017838848 -0.0091029489 0.0 0.000242772 -0.009229337800000001 0.0 0.00031771715 -0.010190827 0.0 -2.6586303e-10 -0.010209336999999999 0.0 3.2566444e-05 -0.010264160999999999 0.0 6.903318e-05 -0.010353385 0.0 0.00011325504999999999 -0.01047342 0.0 0.00016890687 -0.010618318 0.0 0.00023973057 -0.010779485 0.0 0.00032570792 -0.010943605 0.0 0.00042881494000000006 -0.011991183 0.0 4.6444647999999997e-10 -0.012013923999999999 0.0 4.1858963000000006e-05 -0.012081406999999999 0.0 8.8920824e-05 -0.012191562 0.0 0.00014633218 -0.012340178 0.0 0.00021916124 -0.012520698 0.0 0.00031136398 -0.012723533 0.0 0.00042520979000000006 -0.012933803999999998 0.0 0.0005641716999999999 -0.014067204 0.0 -7.0815742e-10 -0.014094954 0.0 5.164271e-05 -0.014177587 0.0 0.00011032906000000001 -0.014312607 0.0 0.00018234223999999999 -0.01449528 0.0 0.00027429295 -0.014718646 0.0 0.00039170892 -0.014971683999999999 0.0 0.00053894339 -0.015238187 0.0 0.00072173733 -0.016454464 0.0 5.1805182e-10 -0.01648825 0.0 6.148421400000001e-05 -0.016588967 0.0 0.00013216391000000002 -0.016753538999999998 0.0 0.00021925713 -0.016977048 0.0 0.00033302797 -0.017251842 0.0 0.00047946794 -0.017565411 0.0 0.0006661018700000001 -0.017899817 0.0 0.0008995578399999999 -0.019192584 0.0 1.665976e-09 -0.019233622 0.0 7.0997929e-05 -0.0193558 0.0 0.00015331464 -0.019555813000000002 0.0 0.00025639523 -0.019828211999999998 0.0 0.00039372718 -0.020164497 0.0 0.00057251379 -0.020550434 0.0 0.00080346811 -0.020965802 0.0 0.0010928075999999999 -0.022324376 0.0 -1.6268721e-09 -0.022374045 0.0 8.0465135e-05 -0.022521826 0.0 0.00017427627000000002 -0.022764232000000002 0.0 0.00029427031 -0.023095014 0.0 0.00045673162000000006 -0.023504132 0.0 0.00066932017 -0.023975611 0.0 0.00094630424 -0.024487127 0.0 0.00129749 -0.025893182 0.0 4.1476367e-11 -0.02595317 0.0 9.1280366e-05 -0.026131524 0.0 0.00019793477 -0.02642441 0.0 0.00033627913 -0.026824498999999998 0.0 0.00052520703 -0.027319767999999998 0.0 0.00077262969 -0.027893066 0.0 0.0011006292 -0.028518436 0.0 0.0015199292000000002 -0.029940579 0.0 -1.5621335e-09 -0.030012839 0.0 0.00010662652 -0.030227507 0.0 0.00023044064999999997 -0.030580182999999997 0.0 0.00039080224999999997 -0.031061982999999998 0.0 0.00060863898 -0.031659603 0.0 0.00089506508 -0.032353348999999997 0.0 0.0012772704 -0.033112779 0.0 0.0017681692999999999 -0.034506865 0.0 -3.033588e-09 -0.034593605 0.0 0.0001328064 -0.034851047999999996 0.0 0.00028360312 -0.035274118 0.0 0.00047480114 -0.035852261 0.0 0.0007289305800000001 -0.036570366 0.0 0.0010599878 -0.037405852 0.0 0.0014996834 -0.038322911 0.0 0.0020638625 -0.039636292000000004 0.0 2.9069525e-09 -0.039739843 0.0 0.00017966673 -0.040047299 0.0 0.00037647571 -0.04055234 0.0 0.0006159031200000001 -0.041243136 0.0 0.00092054415 -0.042101867 0.0 0.0013080138999999999 -0.043102778 0.0 0.0018096424 -0.044204297999999996 0.0 0.0024481015 -0.045385512999999995 0.0 4.3338209e-09 -0.04550812 0.0 0.00026037436000000004 -0.045873187 0.0 0.00053784752 -0.046472497 0.0 0.00085658778 -0.047292732000000004 0.0 0.001235457 -0.048313300999999996 0.0 0.0016988789000000001 -0.04950521099999999 0.0 0.0022744893 -0.050821871 0.0 0.0029890917 -0.05182742 0.0 -1.0081781e-09 -0.051971734000000006 0.0 0.00039627976000000003 -0.0524018 0.0 0.00080762926 -0.053107873 0.0 0.0012510134 -0.054073811 0.0 0.0017472681 -0.055276908 0.0 0.0023181557 -0.056685615 0.0 0.0029922808 -0.058248136 0.0 0.0037921413 -0.059048682000000005 0.0 1.6828613e-09 -0.059217162000000004 0.0 0.0006093749 -0.059718553 0.0 0.0012274315 -0.060541093 0.0 0.0018651235999999998 -0.061667327 0.0 0.0025404289000000003 -0.06307160099999999 0.0 0.0032719737 -0.064720817 0.0 0.0040863557 -0.066557646 0.0 0.0050008688 -0.067130223 0.0 7.67579e-10 -0.06732408 0.0 0.0009268353999999999 -0.06790086599999999 0.0 0.0018515410999999998 -0.068847418 0.0 0.0027773448 -0.070144527 0.0 0.0037171396 -0.071765527 0.0 0.0046856534 -0.073674157 0.0 0.0057046679 -0.075807147 0.0 0.0067770057 -0.07609400200000001 0.0 1.5369211e-09 -0.076314718 0.0 0.001364449 -0.076970719 0.0 0.0027144833000000003 -0.078046858 0.0 0.0040429737 -0.079521827 0.0 0.0053545474 -0.081368126 0.0 0.0066655274 -0.08354301 0.0 0.007978946899999999 -0.085977711 0.0 0.0092823757 -0.08581531 0.0 -1.2584459e-09 -0.086063728 0.0 0.0019334145999999998 -0.086801276 0.0 0.0038449219 -0.088009059 0.0 0.0057171881 -0.089664094 0.0 0.007547150799999999 -0.09173367199999999 0.0 0.0093273539 -0.09417270900000001 0.0 0.011043165 -0.096898489 0.0 0.012685507 -0.095957339 0.0 -1.1448509e-09 -0.09623345 0.0 0.0026416283 -0.097051069 0.0 0.0052449893999999995 -0.098383754 0.0 0.0077883870999999995 -0.10020504 0.0 0.010264368000000001 -0.10247847 0.0 0.012654536000000001 -0.10515138 0.0 0.014920685 -0.1081415 0.0 0.017026667 -0.10587695 0.0 3.4745824e-09 -0.10618059 0.0 0.0035072098999999997 -0.10707328 0.0 0.0069610137 -0.1085182 0.0 0.010314041999999999 -0.11047625 0.0 0.013568371999999999 -0.11291645 0.0 0.016709674 -0.11577997 0.0 0.019652905 -0.11899991 0.0 0.022313832999999998 -0.11495562 0.0 -1.6142687e-09 -0.1152825 0.0 0.004535777 -0.11624388 0.0 0.0089834891 -0.11779758 0.0 0.013298062 -0.11991356 0.0 0.017467724 -0.12248933 0.0 0.021424955 -0.12546811 0.0 0.025108238999999997 -0.12882109 0.0 0.028413167000000003 -0.12279503 0.0 6.6518067e-09 -0.12312532 0.0 0.0056186537 -0.12413152 0.0 0.011105545 -0.12575701 0.0 0.016378554 -0.12796269 0.0 0.021483025 -0.13069566 0.0 0.026390152000000004 -0.13380222 0.0 0.03100347 -0.13723846 0.0 0.035065532 -0.12889679 0.0 6.8430395e-09 -0.12921651 0.0 0.0069266156999999995 -0.13021973 0.0 0.013675772 -0.13187352 0.0 0.020134479 -0.13412033 0.0 0.026300353999999998 -0.13687356 0.0 0.032216832 -0.1399691 0.0 0.03785757 -0.14337553 0.0 0.042910032 -0.13189535 0.0 -7.5217166e-09 -0.13224158 0.0 0.008801274 -0.13329065 0.0 0.017357206 -0.1349782 0.0 0.025489152999999997 -0.13720825 0.0 0.033242978 -0.13986607 0.0 0.040667713 -0.14280996 0.0 0.047613817999999995 -0.14599596 0.0 0.053779081 -0.12997152 0.0 -2.5528875e-09 -0.13034527 0.0 0.010711433000000001 -0.13140495 0.0 0.021120782999999997 -0.13310814 0.0 0.03113538 -0.1353292 0.0 0.04087846 -0.13790686 0.0 0.050464772000000005 -0.140508 0.0 0.059773627999999995 -0.14303422 0.0 0.068285577 -0.10556853 0.0 -6.9913355e-09 -0.1059591 0.0 0.012439161 -0.10710511 0.0 0.024566207000000003 -0.10893527 0.0 0.036320191 -0.11136007 0.0 0.047927897000000004 -0.11429325 0.0 0.059675213 -0.11762966 0.0 0.071581349 -0.12120157 0.0 0.083077252 -0.06700591 0.0 1.9148063e-08 -0.067299083 0.0 0.013523987 -0.068154797 0.0 0.026671454 -0.069510669 0.0 0.039340489 -0.071285926 0.0 0.051745068 -0.073399246 0.0 0.064168192 -0.075771168 0.0 0.07662519799999999 -0.078305788 0.0 0.08854527 -0.037598148 0.0 3.4595977999999994e-08 -0.037788726 0.0 0.014281948999999999 -0.038339972 0.0 0.028127698 -0.039197665 0.0 0.041393511 -0.040291477 0.0 0.054275718 -0.041551426 0.0 0.067050941 -0.042910893 0.0 0.079713292 -0.044290620999999995 0.0 0.091639027 -0.015954163 0.0 -3.7319384e-12 -0.016047264 0.0 0.014716908 -0.016311329 0.0 0.028949343 -0.016706012 0.0 0.042519521 -0.017179152 0.0 0.055610038 -0.017680746 0.0 0.068495937 -0.018168399 0.0 0.08116116400000001 -0.018597126000000002 0.0 0.092946395 0.0017318932999999999 0.0 -3.4837122e-08 0.0017264599 0.0 0.014857191 0.0017189962 0.0 0.029197389 0.001733425 0.0 0.042819899 0.0018007051000000001 0.0 0.055899515999999996 0.0019483505 0.0 0.06871625 0.0021932325 0.0 0.081258439 0.0025438545 0.0 0.09285668300000001 0.018897258 0.0 4.7923034e-09 0.018968295 0.0 0.014743157 0.019184163 0.0 0.028953929 0.019552739 0.0 0.04242054 0.020085068 0.0 0.055315562 0.020789385 0.0 0.067928538 0.021663262000000003 0.0 0.080264054 0.022689632999999997 0.0 0.09166553599999999 0.037006516 0.0 4.4196092e-08 0.037143845 0.0 0.014416425 0.037553377 0.0 0.028301017 0.038229451 0.0 0.041441362 0.039166957 0.0 0.054011609 0.04036111 0.0 0.06631156099999999 0.041800372 0.0 0.078367256 0.043457218 0.0 0.089549839 0.055588979000000004 0.0 1.9014108000000002e-08 0.055784069000000006 0.0 0.013908966000000002 0.05636261 0.0 0.027300186 0.057308505999999995 0.0 0.03996883 0.058605403 0.0 0.052092031 0.060241438 0.0 0.063977137 0.062204447 0.0 0.075669937 0.06447026900000001 0.0 0.086575642 0.073279321 0.0 -3.6872265e-08 0.073524743 0.0 0.013245231000000001 0.074250802 0.0 0.025997207999999997 0.07543394 0.0 0.038065139 0.077050172 0.0 0.049628768 0.07908472400000001 0.0 0.060998037000000005 0.081529595 0.0 0.072232924 0.08437115 0.0 0.082772627 0.088567577 0.0 -2.6435089e-08 0.088859424 0.0 0.012447053999999999 0.089722589 0.0 0.024433392999999998 0.09112719400000001 0.0 0.035785925 0.09304284300000001 0.0 0.046686605 0.095450193 0.0 0.057442937 0.09834172599999999 0.0 0.068122201 0.1017127 0.0 0.078194357 0.095861167 0.0 -1.2920681999999998e-08 0.096214496 0.0 0.011568153999999999 0.097266905 0.0 0.02270622 0.09900381400000001 0.0 0.033255339 0.10138863 0.0 0.043391260999999993 0.10439456 0.0 0.05342152 0.10799372 0.0 0.06343032400000001 0.11219355 0.0 0.07293044 0.096948072 0.0 1.6203744e-08 0.097312704 0.0 0.010616056 0.09839809699999999 0.0 0.020844853 0.10019619 0.0 0.030539382 0.10268691 0.0 0.039865597999999995 0.10583759 0.0 0.049109239000000006 0.10963101 0.0 0.05837236 0.11407894 0.0 0.06721833299999999 0.096285611 0.0 4.0682306e-09 0.096647292 0.0 0.0095994705 0.09773244699999999 0.0 0.018866142 0.099538498 0.0 0.02768611 0.10204615 0.0 0.036210809 0.10522864 0.0 0.044697922 0.10906854 0.0 0.05322754 0.11358918 0.0 0.06140855 0.094624154 0.0 -1.5663171999999998e-08 0.09498993300000001 0.0 0.0086124493 0.096081957 0.0 0.016956093000000002 0.097885124 0.0 0.024929443 0.10038283 0.0 0.032668609 0.10356322 0.0 0.040419567 0.10742555 0.0 0.048265204000000006 0.11199769 0.0 0.055838998 0.09233789099999999 0.0 -9.5154815e-11 0.092707112 0.0 0.0077034854000000005 0.093809128 0.0 0.015207861999999999 0.09562058699999999 0.0 0.022444235 0.098111324 0.0 0.029541742000000003 0.1012702 0.0 0.03666028 0.10514037 0.0 0.043874487000000004 0.10979546 0.0 0.050841055999999996 0.08965819300000001 0.0 1.2169758999999998e-08 0.090029344 0.0 0.0068677338 0.09112998800000001 0.0 0.013594065 0.092926383 0.0 0.020138446 0.095396526 0.0 0.026601434 0.098549716 0.0 0.033155248 0.10245107 0.0 0.039822351 0.10721458 0.0 0.046201445 0.086547881 0.0 2.9368941e-10 0.08691591 0.0 0.0061102016 0.088004254 0.0 0.012133373000000001 0.089782327 0.0 0.018066226 0.092228197 0.0 0.023978189 0.095378049 0.0 0.030001367 0.09933173699999999 0.0 0.036094539 0.1042584 0.0 0.041878879 0.083090901 0.0 5.2060436e-09 0.083451673 0.0 0.005430453000000001 0.084522568 0.0 0.010835717 0.086275071 0.0 0.016219022 0.08870735800000001 0.0 0.021649281 0.091868103 0.0 0.027140168 0.09591093699999999 0.0 0.03262458 0.10095454 0.0 0.037732344 0.079466149 0.0 3.0746086e-10 0.079817779 0.0 0.0048505212 0.08086049599999999 0.0 0.009711769399999999 0.08258881400000001 0.0 0.014615339 0.08501189199999999 0.0 0.019566672 0.08821313800000001 0.0 0.024553685 0.092344575 0.0 0.029472426 0.097585984 0.0 0.033824503 0.075817555 0.0 -6.0401222e-09 0.076157451 0.0 0.0043535386 0.077180512 0.0 0.0087523097 0.078891508 0.0 0.013214621000000001 0.081320234 0.0 0.017729111000000002 0.08460713199999999 0.0 0.022233068999999998 0.088872954 0.0 0.026319999 0.094417758 0.0 0.030092398 0.072302252 0.0 -4.4858437e-09 0.072637022 0.0 0.0039373678 0.073644981 0.0 0.007922371800000001 0.075361729 0.0 0.011942636999999999 0.07786024400000001 0.0 0.015986815 0.081219465 0.0 0.019739492 0.08571077099999999 0.0 0.023246727999999998 0.091433406 0.0 0.026020274 0.06909295900000001 0.0 3.2004484e-09 0.069417283 0.0 0.0035517276 0.07042937 0.0 0.0071080741 0.072168946 0.0 0.010658906000000001 0.074699193 0.0 0.014056453 0.078237616 0.0 0.017286617 0.082893915 0.0 0.019887988 0.089061424 0.0 0.022086612999999998 0.06624335099999999 0.0 2.7575457e-09 0.06657102 0.0 0.0031566746 0.06757944099999999 0.0 0.006221287 0.069342606 0.0 0.0092318347 0.072003469 0.0 0.01213203 0.07566265 0.0 0.014562755 0.080726013 0.0 0.016629623 0.08738353800000001 0.0 0.018516636 0.063746467 0.0 1.7768826e-09 0.064092375 0.0 0.0026778725 0.065133922 0.0 0.0053015114 0.06694757900000001 0.0 0.007775146 0.069738843 0.0 0.010052905 0.073807061 0.0 0.012037049 0.079316586 0.0 0.013774478 0.086709723 0.0 0.015859211 0.06171192599999999 0.0 1.7637412e-09 0.062034003 0.0 0.00221849 0.06313619 0.0 0.004372295 0.06512364 0.0 0.0064512817 0.068241194 0.0 0.0083434507 0.072738796 0.0 0.0099900197 0.079111837 0.0 0.012050896 0.088178769 0.0 0.015147098000000001 0.060199317 0.0 -1.7156072e-10 0.06058694 0.0 0.0019804989 0.061834343 0.0 0.0038674236 0.06410046700000001 0.0 0.0056356038 0.067801021 0.0 0.007458502 0.073505677 0.0 0.0096772695 0.081890285 0.0 0.012932856999999999 0.092362709 0.0 0.016811153 0.059752467999999996 0.0 5.2300642e-10 0.060206674 0.0 0.0020766777 0.061861478 0.0 0.0042056176 0.06507691 0.0 0.006457212800000001 0.070489123 0.0 0.0091844685 0.07826349099999999 0.0 0.012302235 0.086964421 0.0 0.015707327 0.095898859 0.0 0.018536631 0.06519077 0.0 1.4675461000000002e-10 0.065817207 0.0 0.0028278099 0.06780853099999999 0.0 0.0059691663 0.07148429 0.0 0.0093023162 0.07671824099999999 0.0 0.012356255 0.082525425 0.0 0.014922138 0.0889474 0.0 0.016778033 0.095548414 0.0 0.018323516 0.071357183 0.0 7.936557e-10 0.071633294 0.0 0.0030028208 0.072429769 0.0 0.006461957900000001 0.07399246799999999 0.0 0.010302710999999999 0.077173062 0.0 0.013157473999999999 0.081859134 0.0 0.014943241999999999 0.08660379800000001 0.0 0.015919628 0.06867968299999999 0.0 2.0324697e-10 0.06885944299999999 0.0 0.0031769481 0.069422655 0.0 0.006889556999999999 0.071303435 0.0 0.010282002 0.074491024 0.0 0.012525002 -0.00056377624 0.0 4.7490783e-05 -0.00054858346 0.0 6.1404746e-05 -0.00052552705 0.0 7.651333e-05 -0.00049232016 0.0 9.2398266e-05 -0.00044760635000000003 0.0 0.00010677431999999999 -0.00038994019 0.0 0.00011822875 -0.00032152736 0.0 0.00012283045 -0.00081124692 0.0 6.503357100000001e-05 -0.00079157244 0.0 8.3520579e-05 -0.00076001324 0.0 0.00010386549999999999 -0.0007131328500000001 0.0 0.00012429642 -0.00064781064 0.0 0.00014142781 -0.0005609404799999999 0.0 0.00015295978 -0.00045286008000000003 0.0 0.00015516355 -0.00032582704 0.0 0.00016473720000000002 -0.0011322956 0.0 7.7966528e-05 -0.0011077698 0.0 9.955350099999999e-05 -0.0010665925999999999 0.0 0.0001230153 -0.0010031267999999999 0.0 0.00014658448 -0.0009127399000000001 0.0 0.00016547543000000001 -0.00079043402 0.0 0.00017922063 -0.00063885085 0.0 0.00018380022 -0.00046097414000000005 0.0 0.0001892469 -0.0015114613 0.0 8.6732805e-05 -0.0014827407 0.0 0.00011065069 -0.0014320182 0.0 0.00013704096000000002 -0.0013513722 0.0 0.00016348028999999998 -0.0012339163000000002 0.0 0.00018488918000000002 -0.0010731789999999998 0.0 0.00020066470000000002 -0.00087191985 0.0 0.00020608334 -0.0006316556200000001 0.0 0.00021331906000000004 -0.0019465970000000002 0.0 9.2360504e-05 -0.0019151742 0.0 0.00011817087 -0.0018562707000000002 0.0 0.00014696222 -0.0017591821 0.0 0.00017620396 -0.0016141948 0.0 0.00020021498 -0.0014121545 0.0 0.00021859026000000002 -0.0011546606 0.0 0.00022646305 -0.0008410065199999999 0.0 0.00024083533 -0.0024459446 0.0 9.6146185e-05 -0.0024138812 0.0 0.00012372575 -0.0023488467999999998 0.0 0.0001542807 -0.0022367369 0.0 0.00018588363 -0.0020644179999999997 0.0 0.00021221032000000003 -0.0018185654999999998 0.0 0.00023415631000000002 -0.0014984782 0.0 0.00024727485 -0.0010990166 0.0 0.00027494074 -0.0030253483000000003 0.0 0.00010070732 -0.0029953229 0.0 0.00012981906000000002 -0.0029266381 0.0 0.00016153963 -0.0028011515 0.0 0.00019531733 -0.0026021479000000003 0.0 0.00022325790000000002 -0.0023099235 0.0 0.00025044757 -0.0019208905 0.0 0.00027245833 -0.0014218634 0.0 0.0003204325 -0.0037046839 0.0 0.0001093961 -0.0036799712 0.0 0.00014026833999999998 -0.003610543 0.0 0.00017350918999999997 -0.0034740975 0.0 0.00020902173 -0.0032486401 0.0 0.0002390828 -0.0029073621 0.0 0.00027396606 -0.0024439117000000002 0.0 0.00030826961 -0.0018320351000000001 0.0 0.00038343153 -0.0045042834000000006 0.0 0.00012683126 -0.0044887573 0.0 0.00016075038 -0.0044222455 0.0 0.0001971477 -0.0042772535 0.0 0.00023596533 -0.0040257140000000005 0.0 0.00026950866000000003 -0.0036363299 0.0 0.00030898713 -0.0030927840000000003 0.0 0.00035904741 -0.0023623258 0.0 0.00046080953 -0.0054439432 0.0 0.00015930951999999998 -0.005442082900000001 0.0 0.00019917193 -0.0053832489 0.0 0.00024097959999999999 -0.0052345418 0.0 0.00028299208 -0.0049575213 0.0 0.00032261561 -0.0045193564000000006 0.0 0.00036442972000000004 -0.0038985836 0.0 0.00042100047 -0.0030639931 0.0 0.00052503758 -0.006545549300000001 0.0 0.00021297114 -0.006562375 0.0 0.00026329904 -0.0065174815 0.0 0.00031318117 -0.0063696029 0.0 0.00036305550000000005 -0.0060743238 0.0 0.00040095381 -0.0055915462 0.0 0.00043913582000000003 -0.0049068872 0.0 0.00048859941 -0.0039882627 0.0 0.0005751627599999999 -0.0078344662 0.0 0.00029251863999999996 -0.007875380100000001 0.0 0.00035989081 -0.0078511108 0.0 0.00042307449999999996 -0.0077125210999999996 0.0 0.00048473075999999995 -0.0074098082 0.0 0.00052715425 -0.0068884646 0.0 0.00058285892 -0.0061444314 0.0 0.00067051535 -0.0050877193 0.0 0.00087954744 -0.0093393847 0.0 0.00040257507000000006 -0.0094116423 0.0 0.0004941384 -0.009415467299999999 0.0 0.0005856727900000001 -0.009299513 0.0 0.00067912787 -0.0090071447 0.0 0.0007705919 -0.0084655331 0.0 0.0009412308 -0.0076813875 0.0 0.0012594567 -0.006539537099999999 0.0 0.0018675099 -0.011093529 0.0 0.00054479908 -0.011205696999999999 0.0 0.00067514105 -0.011248123999999998 0.0 0.0008175552900000001 -0.011171312 0.0 0.00097989617 -0.010918207 0.0 0.0011682622 -0.010410157 0.0 0.0015023276000000001 -0.009634437 0.0 0.0020903728 -0.0085122334 0.0 0.0029197002000000004 -0.01313347 0.0 0.00072208134 -0.01329616 0.0 0.0009054656800000001 -0.013389514 0.0 0.0011165342 -0.013367482 0.0 0.0013689325 -0.013175483 0.0 0.0016870004 -0.012735695 0.0 0.0021653597 -0.012017948 0.0 0.0029062424 -0.010973236 0.0 0.0037819172999999998 -0.015498787 0.0 0.0009317534300000001 -0.015724378 0.0 0.0011800388 -0.015881063 0.0 0.0014720459 -0.015924305 0.0 0.0018246386 -0.015793622 0.0 0.0022561457 -0.015425576000000002 0.0 0.0028454533 -0.014775528000000001 0.0 0.003656351 -0.013802068999999998 0.0 0.0045505394 -0.018233903 0.0 0.0011709959 -0.018535573 0.0 0.0014957354000000001 -0.018766511 0.0 0.0018770858 -0.018876072 0.0 0.0023208654000000002 -0.018803231 0.0 0.0028561964000000002 -0.018483866 0.0 0.0035289605 -0.017865473 0.0 0.0043865386 -0.016918844 0.0 0.0053169238 -0.021387277000000003 0.0 0.0014337976 -0.021778494 0.0 0.0018444638 -0.022093707999999997 0.0 0.0023196614000000003 -0.022275187000000002 0.0 0.0028614046000000003 -0.022249593999999998 0.0 0.0034909169 -0.021951587999999998 0.0 0.0042313887 -0.021315947000000002 0.0 0.0051472415 -0.020321622 0.0 0.0061345422 -0.025012072000000003 0.0 0.0017178998 -0.025507051 0.0 0.002221355 -0.025918534 0.0 0.0028001068 -0.026176997999999996 0.0 0.0034467122 -0.026195267 0.0 0.0041740253 -0.025902067999999997 0.0 0.0049838624 -0.025213076 0.0 0.0059699188 -0.02410234 0.0 0.0070377877 -0.029164145 0.0 0.0020250799 -0.029778892 0.0 0.0026293828000000003 -0.030299019 0.0 0.0033211104999999997 -0.030641953 0.0 0.0040839333 -0.030708287 0.0 0.0049190223 -0.030412587999999997 0.0 0.0058156778 -0.029655542000000003 0.0 0.006886675 -0.028398141000000002 0.0 0.0080493335 -0.033899881 0.0 0.0023626441 -0.034653742 0.0 0.0030745815000000004 -0.035298157000000004 0.0 0.0038894452 -0.035735658999999996 0.0 0.0047835638 -0.035854246 0.0 0.0057459893000000005 -0.035553373 0.0 0.0067538912 -0.034722917 0.0 0.007926354200000001 -0.033309154 0.0 0.0091944234 -0.039276235 0.0 0.0027490505 -0.040193655 0.0 0.0035716274 -0.040983416 0.0 0.0045170011 -0.041530187999999996 0.0 0.0055564917 -0.041706771000000004 0.0 0.0066705598 -0.041400891 0.0 0.0078230165 -0.040493421 0.0 0.009124369399999999 -0.03891148 0.0 0.010511577 -0.045354082999999996 0.0 0.0032214667 -0.046465874000000004 0.0 0.0041505359 -0.047429278 0.0 0.0052244426 -0.048106845 0.0 0.0064152223 -0.04835293400000001 0.0 0.0077015194 -0.048046038 0.0 0.009043439300000001 -0.0470597 0.0 0.010522896 -0.04530092 0.0 0.012043342 -0.052201400999999995 0.0 0.0038471001 -0.053544357 0.0 0.0048680399 -0.054718047 0.0 0.0060521076 -0.055557567999999995 0.0 0.0073848055 -0.055894535 0.0 0.0088514788 -0.055597775 0.0 0.010432186999999999 -0.054536376 0.0 0.012171288 -0.052598815 0.0 0.013856461 -0.059892497999999995 0.0 0.0047319224 -0.061506305 0.0 0.005821174 -0.062933102 0.0 0.007079689300000001 -0.063977487 0.0 0.0085164253 -0.06444325299999999 0.0 0.010143314 -0.064185038 0.0 0.01200697 -0.063067235 0.0 0.014128149 -0.060969941 0.0 0.016032411 -0.068499304 0.0 0.006023646800000001 -0.070420943 0.0 0.0071578161 -0.072146334 0.0 0.0084400708 -0.07344946299999999 0.0 0.0099121798 -0.074103646 0.0 0.011636859 -0.073943816 0.0 0.013796618 -0.072825767 0.0 0.016458221000000002 -0.07064219599999999 0.0 0.018672924 -0.078067727 0.0 0.007902923000000001 -0.080326892 0.0 0.009077862800000001 -0.082390673 0.0 0.010342967 -0.08401706800000001 0.0 0.011760892 -0.08493735599999999 0.0 0.013482073999999998 -0.08498311800000001 0.0 0.015884578 -0.083989874 0.0 0.019251276 -0.08189977 0.0 0.021911472 -0.088568732 0.0 0.010559872 -0.09117853599999999 0.0 0.011817999 -0.093608364 0.0 0.013057078 -0.09561339 0.0 0.014354596 -0.096909687 0.0 0.015943743 -0.09730224300000001 0.0 0.018468698000000002 -0.096653894 0.0 0.022636298 -0.094990626 0.0 0.025902221 -0.09980106400000001 0.0 0.014200556999999999 -0.10274509 0.0 0.015591375 -0.10555875 0.0 0.016853599 -0.10796306 0.0 0.018044326 -0.1097538 0.0 0.019341365 -0.11067918 0.0 0.021879619 -0.11065987 0.0 0.026841072 -0.10990047 0.0 0.030838832000000004 -0.11131699 0.0 0.018949721 -0.11454812 0.0 0.020600388 -0.11769642 0.0 0.021958144 -0.120524 0.0 0.023063594 -0.12286495 0.0 0.02412474 -0.12446463 0.0 0.026599826 -0.12537056 0.0 0.032235313 -0.12601669 0.0 0.037012286 -0.12244187 0.0 0.024625791 -0.12596077 0.0 0.026621034 -0.12935811 0.0 0.028290138 -0.13254848 0.0 0.029563477 -0.13544181 0.0 0.030586051 -0.13769239 0.0 0.033273559 -0.13963953 0.0 0.039437141 -0.14195423 0.0 0.044839874 -0.13246922 0.0 0.031177692000000003 -0.13629116 0.0 0.033485747999999996 -0.14003663 0.0 0.035532106 -0.14348821 0.0 0.037384089 -0.14681421 0.0 0.039060835 -0.14985776 0.0 0.042162865 -0.15237229 0.0 0.049049586 -0.15595905 0.0 0.054857969000000006 -0.14100032 0.0 0.038433895 -0.14504117 0.0 0.041157782000000004 -0.1491366 0.0 0.043663535 -0.15300588 0.0 0.046344921 -0.15656173 0.0 0.049879242000000004 -0.15977693 0.0 0.054616254 -0.16269153 0.0 0.061188795 -0.16630295 0.0 0.06747945400000001 -0.14716642 0.0 0.047008417999999996 -0.15128238 0.0 0.050384272 -0.15544999 0.0 0.054019365 -0.1592641 0.0 0.058848102 -0.16252823 0.0 0.065224856 -0.16610378 0.0 0.069892168 -0.16930549 0.0 0.07391519099999999 -0.17229159 0.0 0.08220372299999999 -0.14958982 0.0 0.058910767999999995 -0.15355699 0.0 0.063448541 -0.15750167 0.0 0.06879848200000001 -0.16078635 0.0 0.076225944 -0.16356692 0.0 0.083897531 -0.16774639 0.0 0.084572881 -0.17111064 0.0 0.085191481 -0.17206429 0.0 0.096369267 -0.14591408 0.0 0.075418577 -0.14938629 0.0 0.081571691 -0.15267222 0.0 0.088589221 -0.15483806 0.0 0.096655995 -0.15662791 0.0 0.10148039 -0.16075227 0.0 0.097762309 -0.16059349 0.0 0.09560009800000001 -0.1496841 0.0 0.10707616 -0.12487061 0.0 0.09275968400000001 -0.12851669 0.0 0.10048782 -0.13154314 0.0 0.10854297 -0.13273674 0.0 0.11464575 -0.1307731 0.0 0.1145558 -0.12575251 0.0 0.10661288 -0.11624977 0.0 0.10446998 -0.10306502 0.0 0.11674274 -0.080863833 0.0 0.098451644 -0.083231322 0.0 0.10599693 -0.08500157300000001 0.0 0.11333743 -0.085125059 0.0 0.11829381 -0.082701281 0.0 0.11693344 -0.077882148 0.0 0.10954619 -0.071025692 0.0 0.11005712 -0.062000234 0.0 0.12510355 -0.04557598400000001 0.0 0.1012711 -0.046602946 0.0 0.10819315 -0.04712473599999999 0.0 0.11453508 -0.04656364 0.0 0.11850204 -0.044570319000000004 0.0 0.11679161 -0.041335735 0.0 0.11056737 -0.037356343 0.0 0.11390027 -0.031978231 0.0 0.13151559 -0.018902926 0.0 0.10224148 -0.018994803 0.0 0.10860402 -0.018761823 0.0 0.11430556 -0.017975493999999998 0.0 0.11798029 -0.016639585 0.0 0.11641769 -0.015014863 0.0 0.11117593 -0.013432103999999999 0.0 0.11652766 -0.011217913000000001 0.0 0.13594711 0.0030092384999999998 0.0 0.10187941 0.0036010265000000004 0.0 0.10789163 0.0043049473 0.0 0.113358 0.0050674071999999995 0.0 0.11749195 0.0056627537 0.0 0.11636101 0.005794067900000001 0.0 0.11180629 0.0054649943000000005 0.0 0.11823538 0.0049556601 0.0 0.13832754 0.023835881 0.0 0.10051056 0.025045674 0.0 0.10639384 0.026184008999999998 0.0 0.11188676 0.026928592 0.0 0.11699317 0.026816856 0.0 0.11656084 0.025685146000000002 0.0 0.1123255 0.023908412 0.0 0.11866999 0.020958915 0.0 0.13870019 0.04527884 0.0 0.098269269 0.047160219 0.0 0.10413895 0.048851997 0.0 0.10974876 0.049771145 0.0 0.11555598 0.049061495999999996 0.0 0.11575988 0.046953958 0.0 0.11160859 0.043976404000000004 0.0 0.11754667 0.038845744 0.0 0.13707116 0.066984288 0.0 0.09515322 0.069612466 0.0 0.10102189 0.07199987 0.0 0.10670845 0.07332541 0.0 0.11280458 0.072178297 0.0 0.11341176 0.069316171 0.0 0.10939062 0.06534376 0.0 0.11492656 0.05816792 0.0 0.13375327 0.08756387199999999 0.0 0.091136001 0.09095951199999999 0.0 0.096940465 0.094110489 0.0 0.10259243 0.095929556 0.0 0.10865311 0.09449811300000001 0.0 0.10943977 0.09099031199999999 0.0 0.10573832 0.08628593400000001 0.0 0.11103123 0.077280723 0.0 0.12900025 0.10552789 0.0 0.08624525400000001 0.10963295 0.0 0.091886304 0.11350747 0.0 0.097368509 0.11554018 0.0 0.10280144 0.11383534 0.0 0.10388691 0.10998861 0.0 0.10077929 0.10497422 0.0 0.10613272 0.094487838 0.0 0.12300771 0.11703897 0.0 0.080594823 0.12248826 0.0 0.086022906 0.12790291 0.0 0.09120544 0.13056798 0.0 0.09553395199999999 0.12861854 0.0 0.097001925 0.12509078 0.0 0.09495282199999999 0.11982051 0.0 0.10038314 0.10841867 0.0 0.11603808 0.11925163 0.0 0.074453719 0.12519477 0.0 0.07968425 0.13174689 0.0 0.084573396 0.13743155 0.0 0.088251963 0.1385875 0.0 0.08935605699999999 0.13588443 0.0 0.088607095 0.13049728 0.0 0.09398168300000001 0.11836501 0.0 0.10825011 0.11885991 0.0 0.068180516 0.12493965 0.0 0.073239267 0.1316739 0.0 0.077758014 0.1383144 0.0 0.081827335 0.1430258 0.0 0.082375564 0.14288951 0.0 0.081769705 0.13777368 0.0 0.08707728199999999 0.1254068 0.0 0.09975885599999999 0.11735961 0.0 0.062197315999999996 0.12356758 0.0 0.067012228 0.13049085 0.0 0.07114691299999999 0.13767043 0.0 0.075440094 0.14356792 0.0 0.07604605 0.14668195 0.0 0.074946731 0.14320114 0.0 0.079708904 0.13144594 0.0 0.091145724 0.11535808 0.0 0.056766115 0.12173359 0.0 0.061223239000000006 0.1287937 0.0 0.06500252299999999 0.13628261 0.0 0.06867747 0.14311492 0.0 0.069858342 0.14781076 0.0 0.068531185 0.14756526 0.0 0.072120123 0.13822994 0.0 0.08294351400000001 0.11297116 0.0 0.051633269 0.11955947 0.0 0.055741642 0.12689686 0.0 0.059401836 0.13477832 0.0 0.062343903 0.14246313 0.0 0.06353603299999999 0.14823608 0.0 0.062197614000000005 0.15119186 0.0 0.06499210700000001 0.14706533 0.0 0.075323902 0.11018603 0.0 0.04670799900000001 0.11711133 0.0 0.050739188 0.1248492 0.0 0.053841457 0.13344908 0.0 0.056261270999999995 0.14187141 0.0 0.057300888 0.14896733 0.0 0.056201555 0.15549906 0.0 0.058897900999999996 0.15886855 0.0 0.067145251 0.1071506 0.0 0.042097505 0.1144897 0.0 0.045695253 0.12285088 0.0 0.048290074 0.13226916 0.0 0.050454099 0.14153236 0.0 0.051658377000000005 0.15089025 0.0 0.051140740999999997 0.16071364 0.0 0.053675223 0.17021956 0.0 0.05862416 0.10414263 0.0 0.037679262000000005 0.1118722 0.0 0.040476412 0.12103896 0.0 0.042809863 0.13129494 0.0 0.044939574 0.14153907 0.0 0.04607303099999999 0.15264855 0.0 0.046269782 0.16458014 0.0 0.048931498 0.17624585 0.0 0.052152187 0.10120452 0.0 0.032954779 0.10959793 0.0 0.035373677 0.1195859 0.0 0.037628423 0.13062777 0.0 0.039638907 0.14186952 0.0 0.040707137000000004 0.15350895 0.0 0.041390166 0.16637981 0.0 0.044564284 0.098755859 0.0 0.028368837999999997 0.10787775 0.0 0.030600149 0.11862247 0.0 0.032769561 0.13048775 0.0 0.034721088 0.14230314 0.0 0.035868794 0.15412825 0.0 0.037586088999999996 0.16581292 0.0 0.040902007000000004 0.09697105 0.0 0.024149463 0.10682152 0.0 0.026365573 0.11850744 0.0 0.028780353999999998 0.13121803 0.0 0.031088373 0.14273752 0.0 0.032537993 0.15418749 0.0 0.03535087 0.09603185199999999 0.0 0.020671129 0.10694686 0.0 0.023287912999999997 0.11975905 0.0 0.026386363 0.13239782 0.0 0.028882384 0.143483 0.0 0.031315073 0.15260857 0.0 0.033834532 0.09664797 0.0 0.018676342 0.10914189 0.0 0.02232278 0.12188406 0.0 0.025606603999999998 0.13341151 0.0 0.028179601000000002 0.14271381 0.0 0.030758483 0.09990601199999999 0.0 0.019078875 0.11220869 0.0 0.02268965 0.12383102 0.0 0.025870782999999998 0.13296685 0.0 0.028034212000000003 0.10360132 0.0 0.020381087 0.11417392 0.0 0.023389764 0.12355438 0.0 0.026088186 0.12836646 0.0 0.026139241 0.10464903 0.0 0.020746953999999998 0.11245177 0.0 0.022702416 0.10162809 0.0 0.019576291000000003 
Acec 3 2975 float
0.0 0.0 0.0 0.0 0.0 0.0 0.0 0.0 0.0 0.0 0.0 0.0 0.0 0.0 0.0 0.0 0.0 0.0 0.0 0.0 0.0 0.0 0.0 0.0 0.0 0.0 0.0 0.0 0.0 0.0 0.0 0.0 0.0 0.0 0.0 0.0 0.0 0.0 0.0 0.0 0.0 0.0 0.0 0.0 0.0 0.0 0.0 0.0 0.0 0.0 0.0 0.0 0.0 0.0 0.0 0.0 0.0 0.0 0.0 0.0 0.0 0.0 0.0 0.0 0.0 0.0 0.0 0.0 0.0 0.0 0.0 0.0 0.0 0.0 0.0 0.0 0.0 0.0 0.0 0.0 0.0 0.0 0.0 0.0 0.0 0.0 0.0 0.0 0.0 0.0 0.0 0.0 0.0 0.0 0.0 0.0 0.0 0.0 0.0 0.0 0.0 0.0 0.0 0.0 0.0 0.0 0.0 0.0 0.0 0.0 0.0 0.0 0.0 0.0 0.0 0.0 0.0 0.0 0.0 0.0 0.0 0.0 0.0 0.0 0.0 0.0 0.0 0.0 0.0 0.0 0.0 0.0 0.0 0.0 0.0 0.0 0.0 0.0 0.0 0.0 0.0 0.0 0.0 0.0 0.0 0.0 0.0 0.0 0.0 0.0 0.0 0.0 0.0 0.0 0.0 0.0 0.0 0.0 0.0 0.0 0.0 0.0 0.0 0.0 0.0 0.0 0.0 0.0 0.0 0.0 0.0 0.0 0.0 0.0 0.0 0.0 0.0 0.0 0.0 0.0 0.0 0.0 0.0 0.0 0.0 0.0 0.0 0.0 0.0 0.0 0.0 0.0 0.0 0.0 0.0 0.0 0.0 0.0 0.0 0.0 0.0 0.0 0.0 0.0 0.0 0.0 0.0 0.0 0.0 0.0 0.0 0.0 0.0 0.0 0.0 0.0 0.0 0.0 0.0 0.0 0.0 0.0 0.0 0.0 0.0 0.0 0.0 0.0 0.0 0.0 0.0 0.0 0.0 0.0 0.0 0.0 0.0 0.0 0.0 0.0 0.0 0.0 0.0 0.0 0.0 0.0 0.0 0.0 0.0 0.0 0.0 0.0 0.0 0.0 0.0 0.0 0.0 0.0 0.0 0.0 0.0 0.0 0.0 0.0 0.0 0.0 0.0 0.0 0.0 0.0 0.0 0.0 0.0 0.0 0.0 0.0 0.0 0.0 0.0 0.0 0.0 0.0 0.0 0.0 0.0 0.0 0.0 0.0 0.0 0.0 0.0 0.0 0.0 0.0 0.0 0.0 0.0 0.0 0.0 0.0 0.0 0.0 0.0 0.0 0.0 0.0 0.0 0.0 0.0 0.0 0.0 0.0 0.0 0.0 0.0 0.0 0.0 0.0 0.0 0.0 0.0 0.0 0.0 0.0 0.0 0.0 0.0 0.0 0.0 0.0 0.0 0.0 0.0 0.0 0.0 0.0 0.0 0.0 0.0 0.0 0.0 0.0 0.0 0.0 0.0 0.0 0.0 0.0 0.0 0.0 0.0 0.0 0.0 0.0 0.0 0.0 0.0 0.0 0.0 0.0 0.0 0.0 0.0 0.0 0.0 0.0 0.0 0.0 0.0 0.0 0.0 0.0 0.0 0.0 0.0 0.0 0.0 0.0 0.0 0.0 0.0 0.0 0.0 0.0 0.0 0.0 0.0 0.0 0.0 0.0 0.0 0.0 0.0 0.0 0.0 0.0 0.0 0.0 0.0 0.0 0.0 0.0 0.0 0.0 0.0 0.0 0.0 0.0 0.0 0.0 0.0 0.0 0.0 0.0 0.0 0.0 0.0 0.0 0.0 0.0 0.0 0.0 0.0 0.0 0.0 0.0 0.0 0.0 0.0 0.0 0.0 0.0 0.0 0.0 0.0 0.0 0.0 0.0 0.0 0.0 0.0 0.0 0.0 0.0 0.0 0.0 0.0 0.0 0.0 0.0 0.0 0.0 0.0 0.0 0.0 0.0 0.0 0.0 0.0 0.0 0.0 0.0 0.0 0.0 0.0 0.0 0.0 0.0 0.0 0.0 0.0 0.0 0.0 0.0 0.0 0.0 0.0 0.0 0.0 0.0 0.0 0.0 0.0 0.0 0.0 0.0 0.0 0.0 0.0 0.0 0.0 0.0 0.0 0.0 0.0 0.0 0.0 0.0 0.0 0.0 0.0 0.0 0.0 0.0 0.0 0.0 0.0 0.0 0.0 0.0 0.0 0.0 0.0 0.0 0.0 0.0 0.0 0.0 0.0 0.0 0.0 0.0 0.0 0.0 0.0 0.0 0.0 0.0 0.0 0.0 0.0 0.0 0.0 0.0 0.0 0.0 0.0 0.0 0.0 0.0 0.0 0.0 0.0 0.0 0.0 0.0 0.0 0.0 0.0 0.0 0.0 0.0 0.0 0.0 0.0 0.0 0.0 0.0 0.0 0.0 0.0 0.0 0.0 0.0 0.0 0.0 0.0 0.0 0.0 0.0 0.0 0.0 0.0 0.0 0.0 0.0 0.0 0.0 0.0 0.0 0.0 0.0 0.0 0.0 0.0 0.0 0.0 0.0 0.0 0.0 0.0 0.0 0.0 0.0 0.0 0.0 0.0 0.0 0.0 0.0 0.0 0.0 0.0 0.0 0.0 0.0 0.0 0.0 0.0 0.0 0.0 0.0 0.0 0.0 0.0 0.0 0.0 0.0 0.0 0.0 0.0 0.0 0.0 0.0 0.0 0.0 0.0 0.0 0.0 0.0 0.0 0.0 0.0 0.0 0.0 0.0 0.0 0.0 0.0 0.0 0.0 0.0 0.0 0.0 0.0 0.0 0.0 0.0 0.0 0.0 0.0 0.0 0.0 0.0 0.0 0.0 0.0 0.0 0.0 0.0 0.0 0.0 0.0 0.0 0.0 0.0 0.0 0.0 0.0 0.0 0.0 0.0 0.0 0.0 0.0 0.0 0.0 0.0 0.0 0.0 0.0 0.0 0.0 0.0 0.0 0.0 0.0 0.0 0.0 0.0 0.0 0.0 0.0 0.0 0.0 0.0 0.0 0.0 0.0 0.0 0.0 0.0 0.0 0.0 0.0 0.0 0.0 0.0 0.0 0.0 0.0 0.0 0.0 0.0 0.0 0.0 0.0 0.0 0.0 0.0 0.0 0.0 0.0 0.0 0.0 0.0 0.0 0.0 0.0 0.0 0.0 0.0 0.0 0.0 0.0 0.0 0.0 0.0 0.0 0.0 0.0 0.0 0.0 0.0 0.0 0.0 0.0 0.0 0.0 0.0 0.0 0.0 0.0 0.0 0.0 0.0 0.0 0.0 0.0 0.0 0.0 0.0 0.0 0.0 0.0 0.0 0.0 0.0 0.0 0.0 0.0 0.0 0.0 0.0 0.0 0.0 0.0 0.0 0.0 0.0 0.0 0.0 0.0 0.0 0.0 0.0 0.0 0.0 0.0 0.0 0.0 0.0 0.0 0.0 0.0 0.0 0.0 0.0 0.0 0.0 0.0 0.0 0.0 0.0 0.0 0.0 0.0 0.0 0.0 0.0 0.0 0.0 0.0 0.0 0.0 0.0 0.0 0.0 0.0 0.0 0.0 0.0 0.0 0.0 0.0 0.0 0.0 0.0 0.0 0.0 0.0 0.0 0.0 0.0 0.0 0.0 0.0 0.0 0.0 0.0 0.0 0.0 0.0 0.0 0.0 0.0 0.0 0.0 0.0 0.0 0.0 0.0 0.0 0.0 0.0 0.0 0.0 0.0 0.0 0.0 0.0 0.0 0.0 0.0 0.0 0.0 0.0 0.0 0.0 0.0 0.0 0.0 0.0 0.0 0.0 0.0 0.0 0.0 0.0 0.0 0.0 0.0 0.0 0.0 0.0 0.0 0.0 0.0 0.0 0.0 0.0 0.0 0.0 0.0 0.0 0.0 0.0 0.0 0.0 0.0 0.0 0.0 0.0 0.0 0.0 0.0 0.0 0.0 0.0 0.0 0.0 0.0 0.0 0.0 0.0 0.0 0.0 0.0 0.0 0.0 0.0 0.0 0.0 0.0 0.0 0.0 0.0 0.0 0.0 0.0 0.0 0.0 0.0 0.0 0.0 0.0 0.0 0.0 0.0 0.0 0.0 0.0 0.0 0.0 0.0 0.0 0.0 0.0 0.0 0.0 0.0 0.0 0.0 0.0 0.0 0.0 0.0 0.0 0.0 0.0 0.0 0.0 0.0 0.0 0.0 0.0 0.0 0.0 0.0 0.0 0.0 0.0 0.0 0.0 0.0 0.0 0.0 0.0 0.0 0.0 0.0 0.0 0.0 0.0 0.0 0.0 0.0 0.0 0.0 0.0 0.0 0.0 0.0 0.0 0.0 0.0 0.0 0.0 0.0 0.0 0.0 0.0 0.0 0.0 0.0 0.0 0.0 0.0 0.0 0.0 0.0 0.0 0.0 0.0 0.0 0.0 0.0 0.0 0.0 0.0 0.0 0.0 0.0 0.0 0.0 0.0 0.0 0.0 0.0 0.0 0.0 0.0 0.0 0.0 0.0 0.0 0.0 0.0 0.0 0.0 0.0 0.0 0.0 0.0 0.0 0.0 0.0 0.0 0.0 0.0 0.0 0.0 0.0 0.0 0.0 0.0 0.0 0.0 0.0 0.0 0.0 0.0 0.0 0.0 0.0 0.0 0.0 0.0 0.0 0.0 0.0 0.0 0.0 0.0 0.0 0.0 0.0 0.0 0.0 0.0 0.0 0.0 0.0 0.0 0.0 0.0 0.0 0.0 0.0 0.0 0.0 0.0 0.0 0.0 0.0 0.0 0.0 0.0 0.0 0.0 0.0 0.0 0.0 0.0 0.0 0.0 0.0 0.0 0.0 0.0 0.0 0.0 0.0 0.0 0.0 0.0 0.0 0.0 0.0 0.0 0.0 0.0 0.0 0.0 0.0 0.0 0.0 0.0 0.0 0.0 0.0 0.0 0.0 0.0 0.0 0.0 0.0 0.0 0.0 0.0 0.0 0.0 0.0 0.0 0.0 0.0 0.0 0.0 0.0 0.0 0.0 0.0 0.0 0.0 0.0 0.0 0.0 0.0 0.0 0.0 0.0 0.0 0.0 0.0 0.0 0.0 0.0 0.0 0.0 0.0 0.0 0.0 0.0 0.0 0.0 0.0 0.0 0.0 0.0 0.0 0.0 0.0 0.0 0.0 0.0 0.0 0.0 0.0 0.0 0.0 0.0 0.0 0.0 0.0 0.0 0.0 0.0 0.0 0.0 0.0 0.0 0.0 0.0 0.0 0.0 0.0 0.0 0.0 0.0 0.0 0.0 0.0 0.0 0.0 0.0 0.0 0.0 0.0 0.0 0.0 0.0 0.0 0.0 0.0 0.0 0.0 0.0 0.0 0.0 0.0 0.0 0.0 0.0 0.0 0.0 0.0 0.0 0.0 0.0 0.0 0.0 0.0 0.0 0.0 0.0 0.0 0.0 0.0 0.0 0.0 0.0 0.0 0.0 0.0 0.0 0.0 0.0 0.0 0.0 0.0 0.0 0.0 0.0 0.0 0.0 0.0 0.0 0.0 0.0 0.0 0.0 0.0 0.0 0.0 0.0 0.0 0.0 0.0 0.0 0.0 0.0 0.0 0.0 0.0 0.0 0.0 0.0 0.0 0.0 0.0 0.0 0.0 0.0 0.0 0.0 0.0 0.0 0.0 0.0 0.0 0.0 0.0 0.0 0.0 0.0 0.0 0.0 0.0 0.0 0.0 0.0 0.0 0.0 0.0 0.0 0.0 0.0 0.0 0.0 0.0 0.0 0.0 0.0 0.0 0.0 0.0 0.0 0.0 0.0 0.0 0.0 0.0 0.0 0.0 0.0 0.0 0.0 0.0 0.0 0.0 0.0 0.0 0.0 0.0 0.0 0.0 0.0 0.0 0.0 0.0 0.0 0.0 0.0 0.0 0.0 0.0 0.0 0.0 0.0 0.0 0.0 0.0 0.0 0.0 0.0 0.0 0.0 0.0 0.0 0.0 0.0 0.0 0.0 0.0 0.0 0.0 0.0 0.0 0.0 0.0 0.0 0.0 0.0 0.0 0.0 0.0 0.0 0.0 0.0 0.0 0.0 0.0 0.0 0.0 0.0 0.0 0.0 0.0 0.0 0.0 0.0 0.0 0.0 0.0 0.0 0.0 0.0 0.0 0.0 0.0 0.0 0.0 0.0 0.0 0.0 0.0 0.0 0.0 0.0 0.0 0.0 0.0 0.0 0.0 0.0 0.0 0.0 0.0 0.0 0.0 0.0 0.0 0.0 0.0 0.0 0.0 0.0 0.0 0.0 0.0 0.0 0.0 0.0 0.0 0.0 0.0 0.0 0.0 0.0 0.0 0.0 0.0 0.0 0.0 0.0 0.0 0.0 0.0 0.0 0.0 0.0 0.0 0.0 0.0 0.0 0.0 0.0 0.0 0.0 0.0 0.0 0.0 0.0 0.0 0.0 0.0 0.0 0.0 0.0 0.0 0.0 0.0 0.0 0.0 0.0 0.0 0.0 0.0 0.0 0.0 0.0 0.0 0.0 0.0 0.0 0.0 0.0 0.0 0.0 0.0 0.0 0.0 0.0 0.0 0.0 0.0 0.0 0.0 0.0 0.0 0.0 0.0 0.0 0.0 0.0 0.0 0.0 0.0 0.0 0.0 0.0 0.0 0.0 0.0 0.0 0.0 0.0 0.0 0.0 0.0 0.0 0.0 0.0 0.0 0.0 0.0 0.0 0.0 0.0 0.0 0.0 0.0 0.0 0.0 0.0 0.0 0.0 0.0 0.0 0.0 0.0 0.0 0.0 0.0 0.0 0.0 0.0 0.0 0.0 0.0 0.0 0.0 0.0 0.0 0.0 0.0 0.0 0.0 0.0 0.0 0.0 0.0 0.0 0.0 0.0 0.0 0.0 0.0 0.0 0.0 0.0 0.0 0.0 0.0 0.0 0.0 0.0 0.0 0.0 0.0 0.0 0.0 0.0 0.0 0.0 0.0 0.0 0.0 0.0 0.0 0.0 0.0 0.0 0.0 0.0 0.0 0.0 0.0 0.0 0.0 0.0 0.0 0.0 0.0 0.0 0.0 0.0 0.0 0.0 0.0 0.0 0.0 0.0 0.0 0.0 0.0 0.0 0.0 0.0 0.0 0.0 0.0 0.0 0.0 0.0 0.0 0.0 0.0 0.0 0.0 0.0 0.0 0.0 0.0 0.0 0.0 0.0 0.0 0.0 0.0 0.0 0.0 0.0 0.0 0.0 0.0 0.0 0.0 0.0 0.0 0.0 0.0 0.0 0.0 0.0 0.0 0.0 0.0 0.0 0.0 0.0 0.0 0.0 0.0 0.0 0.0 0.0 0.0 0.0 0.0 0.0 0.0 0.0 0.0 0.0 0.0 0.0 0.0 0.0 0.0 0.0 0.0 0.0 0.0 0.0 0.0 0.0 0.0 0.0 0.0 0.0 0.0 0.0 0.0 0.0 0.0 0.0 0.0 0.0 0.0 0.0 0.0 0.0 0.0 0.0 0.0 0.0 0.0 0.0 0.0 0.0 0.0 0.0 0.0 0.0 0.0 0.0 0.0 0.0 0.0 0.0 0.0 0.0 0.0 0.0 0.0 0.0 0.0 0.0 0.0 0.0 0.0 0.0 0.0 0.0 0.0 0.0 0.0 0.0 0.0 0.0 0.0 0.0 0.0 0.0 0.0 0.0 0.0 0.0 0.0 0.0 0.0 0.0 0.0 0.0 0.0 0.0 0.0 0.0 0.0 0.0 0.0 0.0 0.0 0.0 0.0 0.0 0.0 0.0 0.0 0.0 0.0 0.0 0.0 0.0 0.0 0.0 0.0 0.0 0.0 0.0 0.0 0.0 0.0 0.0 0.0 0.0 0.0 0.0 0.0 0.0 0.0 0.0 0.0 0.0 0.0 0.0 0.0 0.0 0.0 0.0 0.0 0.0 0.0 0.0 0.0 0.0 0.0 0.0 0.0 0.0 0.0 0.0 0.0 0.0 0.0 0.0 0.0 0.0 0.0 0.0 0.0 0.0 0.0 0.0 0.0 0.0 0.0 0.0 0.0 0.0 0.0 0.0 0.0 0.0 0.0 0.0 0.0 0.0 0.0 0.0 0.0 0.0 0.0 0.0 0.0 0.0 0.0 0.0 0.0 0.0 0.0 0.0 0.0 0.0 0.0 0.0 0.0 0.0 0.0 0.0 0.0 0.0 0.0 0.0 0.0 0.0 0.0 0.0 0.0 0.0 0.0 0.0 0.0 0.0 0.0 0.0 0.0 0.0 0.0 0.0 0.0 0.0 0.0 0.0 0.0 0.0 0.0 0.0 0.0 0.0 0.0 0.0 0.0 0.0 0.0 0.0 0.0 0.0 0.0 0.0 0.0 0.0 0.0 0.0 0.0 0.0 0.0 0.0 0.0 0.0 0.0 0.0 0.0 0.0 0.0 0.0 0.0 0.0 0.0 0.0 0.0 0.0 0.0 0.0 0.0 0.0 0.0 0.0 0.0 0.0 0.0 0.0 0.0 0.0 0.0 0.0 0.0 0.0 0.0 0.0 0.0 0.0 0.0 0.0 0.0 0.0 0.0 0.0 0.0 0.0 0.0 0.0 0.0 0.0 0.0 0.0 0.0 0.0 0.0 0.0 0.0 0.0 0.0 0.0 0.0 0.0 0.0 0.0 0.0 0.0 0.0 0.0 0.0 0.0 0.0 0.0 0.0 0.0 0.0 0.0 0.0 0.0 0.0 0.0 0.0 0.0 0.0 0.0 0.0 0.0 0.0 0.0 0.0 0.0 0.0 0.0 0.0 0.0 0.0 0.0 0.0 0.0 0.0 0.0 0.0 0.0 0.0 0.0 0.0 0.0 0.0 0.0 0.0 0.0 0.0 0.0 0.0 0.0 0.0 0.0 0.0 0.0 0.0 0.0 0.0 0.0 0.0 0.0 0.0 0.0 0.0 0.0 0.0 0.0 0.0 0.0 0.0 0.0 0.0 0.0 0.0 0.0 0.0 0.0 0.0 0.0 0.0 0.0 0.0 0.0 0.0 0.0 0.0 0.0 0.0 0.0 0.0 0.0 0.0 0.0 0.0 0.0 0.0 0.0 0.0 0.0 0.0 0.0 0.0 0.0 0.0 0.0 0.0 0.0 0.0 0.0 0.0 0.0 0.0 0.0 0.0 0.0 0.0 0.0 0.0 0.0 0.0 0.0 0.0 0.0 0.0 0.0 0.0 0.0 0.0 0.0 0.0 0.0 0.0 0.0 0.0 0.0 0.0 0.0 0.0 0.0 0.0 0.0 0.0 0.0 0.0 0.0 0.0 0.0 0.0 0.0 0.0 0.0 0.0 0.0 0.0 0.0 0.0 0.0 0.0 0.0 0.0 0.0 0.0 0.0 0.0 0.0 0.0 0.0 0.0 0.0 0.0 0.0 0.0 0.0 0.0 0.0 0.0 0.0 0.0 0.0 0.0 0.0 0.0 0.0 0.0 0.0 0.0 0.0 0.0 0.0 0.0 0.0 0.0 0.0 0.0 0.0 0.0 0.0 0.0 0.0 0.0 0.0 0.0 0.0 0.0 0.0 0.0 0.0 0.0 0.0 0.0 0.0 0.0 0.0 0.0 0.0 0.0 0.0 0.0 0.0 0.0 0.0 0.0 0.0 0.0 0.0 0.0 0.0 0.0 0.0 0.0 0.0 0.0 0.0 0.0 0.0 0.0 0.0 0.0 0.0 0.0 0.0 0.0 0.0 0.0 0.0 0.0 0.0 0.0 0.0 0.0 0.0 0.0 0.0 0.0 0.0 0.0 0.0 0.0 0.0 0.0 0.0 0.0 0.0 0.0 0.0 0.0 0.0 0.0 0.0 0.0 0.0 0.0 0.0 0.0 0.0 0.0 0.0 0.0 0.0 0.0 0.0 0.0 0.0 0.0 0.0 0.0 0.0 0.0 0.0 0.0 0.0 0.0 0.0 0.0 0.0 0.0 0.0 0.0 0.0 0.0 0.0 0.0 0.0 0.0 0.0 0.0 0.0 0.0 0.0 0.0 0.0 0.0 0.0 0.0 0.0 0.0 0.0 0.0 0.0 0.0 0.0 0.0 0.0 0.0 0.0 0.0 0.0 0.0 0.0 0.0 0.0 0.0 0.0 0.0 0.0 0.0 0.0 0.0 0.0 0.0 0.0 0.0 0.0 0.0 0.0 0.0 0.0 0.0 0.0 0.0 0.0 0.0 0.0 0.0 0.0 0.0 0.0 0.0 0.0 0.0 0.0 0.0 0.0 0.0 0.0 0.0 0.0 0.0 0.0 0.0 0.0 0.0 0.0 0.0 0.0 0.0 0.0 0.0 0.0 0.0 0.0 0.0 0.0 0.0 0.0 0.0 0.0 0.0 0.0 0.0 0.0 0.0 0.0 0.0 0.0 0.0 0.0 0.0 0.0 0.0 0.0 0.0 0.0 0.0 0.0 0.0 0.0 0.0 0.0 0.0 0.0 0.0 0.0 0.0 0.0 0.0 0.0 0.0 0.0 0.0 0.0 0.0 0.0 0.0 0.0 0.0 0.0 0.0 0.0 0.0 0.0 0.0 0.0 0.0 0.0 0.0 0.0 0.0 0.0 0.0 0.0 0.0 0.0 0.0 0.0 0.0 0.0 0.0 0.0 0.0 0.0 0.0 0.0 0.0 0.0 0.0 0.0 0.0 0.0 0.0 0.0 0.0 0.0 0.0 0.0 0.0 0.0 0.0 0.0 0.0 0.0 0.0 0.0 0.0 0.0 0.0 0.0 0.0 0.0 0.0 0.0 0.0 0.0 0.0 0.0 0.0 0.0 0.0 0.0 0.0 0.0 0.0 0.0 0.0 0.0 0.0 0.0 0.0 0.0 0.0 0.0 0.0 0.0 0.0 0.0 0.0 0.0 0.0 0.0 0.0 0.0 0.0 0.0 0.0 0.0 0.0 0.0 0.0 0.0 0.0 0.0 0.0 0.0 0.0 0.0 0.0 0.0 0.0 0.0 0.0 0.0 0.0 0.0 0.0 0.0 0.0 0.0 0.0 0.0 0.0 0.0 0.0 0.0 0.0 0.0 0.0 0.0 0.0 0.0 0.0 0.0 0.0 0.0 0.0 0.0 0.0 0.0 0.0 0.0 0.0 0.0 0.0 0.0 0.0 0.0 0.0 0.0 0.0 0.0 0.0 0.0 0.0 0.0 0.0 0.0 0.0 0.0 0.0 0.0 0.0 0.0 0.0 0.0 0.0 0.0 0.0 0.0 0.0 0.0 0.0 0.0 0.0 0.0 0.0 0.0 0.0 0.0 0.0 0.0 0.0 0.0 0.0 0.0 0.0 0.0 0.0 0.0 0.0 0.0 0.0 0.0 0.0 0.0 0.0 0.0 0.0 0.0 0.0 0.0 0.0 0.0 0.0 0.0 0.0 0.0 0.0 0.0 0.0 0.0 0.0 0.0 0.0 0.0 0.0 0.0 0.0 0.0 0.0 0.0 0.0 0.0 0.0 0.0 0.0 0.0 0.0 0.0 0.0 0.0 0.0 0.0 0.0 0.0 0.0 0.0 0.0 0.0 0.0 0.0 0.0 0.0 0.0 0.0 0.0 0.0 0.0 0.0 0.0 0.0 0.0 0.0 0.0 0.0 0.0 0.0 0.0 0.0 0.0 0.0 0.0 0.0 0.0 0.0 0.0 0.0 0.0 0.0 0.0 0.0 0.0 0.0 0.0 0.0 0.0 0.0 0.0 0.0 0.0 0.0 0.0 0.0 0.0 0.0 0.0 0.0 0.0 0.0 0.0 0.0 0.0 0.0 0.0 0.0 0.0 0.0 0.0 0.0 0.0 0.0 0.0 0.0 0.0 0.0 0.0 0.0 0.0 0.0 0.0 0.0 0.0 0.0 0.0 0.0 0.0 0.0 0.0 0.0 0.0 0.0 0.0 0.0 0.0 0.0 0.0 0.0 0.0 0.0 0.0 0.0 0.0 0.0 0.0 0.0 0.0 0.0 0.0 0.0 0.0 0.0 0.0 0.0 0.0 0.0 0.0 0.0 0.0 0.0 0.0 0.0 0.0 0.0 0.0 0.0 0.0 0.0 0.0 0.0 0.0 0.0 0.0 0.0 0.0 0.0 0.0 0.0 0.0 0.0 0.0 0.0 0.0 0.0 0.0 0.0 0.0 0.0 0.0 0.0 0.0 0.0 0.0 0.0 0.0 0.0 0.0 0.0 0.0 0.0 0.0 0.0 0.0 0.0 0.0 0.0 0.0 0.0 0.0 0.0 0.0 0.0 0.0 0.0 0.0 0.0 0.0 0.0 0.0 0.0 0.0 0.0 0.0 0.0 0.0 0.0 0.0 0.0 0.0 0.0 0.0 0.0 0.0 0.0 0.0 0.0 0.0 0.0 0.0 0.0 0.0 0.0 0.0 0.0 0.0 0.0 0.0 0.0 0.0 0.0 0.0 0.0 0.0 0.0 0.0 0.0 0.0 0.0 0.0 0.0 0.0 0.0 0.0 0.0 0.0 0.0 0.0 0.0 0.0 0.0 0.0 0.0 0.0 0.0 0.0 0.0 0.0 0.0 0.0 0.0 0.0 0.0 0.0 0.0 0.0 0.0 0.0 0.0 0.0 0.0 0.0 0.0 0.0 0.0 0.0 0.0 0.0 0.0 0.0 0.0 0.0 0.0 0.0 0.0 0.0 0.0 0.0 0.0 0.0 0.0 0.0 0.0 0.0 0.0 0.0 0.0 0.0 0.0 0.0 0.0 0.0 0.0 0.0 0.0 0.0 0.0 0.0 0.0 0.0 0.0 0.0 0.0 0.0 0.0 0.0 0.0 0.0 0.0 0.0 0.0 0.0 0.0 0.0 0.0 0.0 0.0 0.0 0.0 0.0 0.0 0.0 0.0 0.0 0.0 0.0 0.0 0.0 0.0 0.0 0.0 0.0 0.0 0.0 0.0 0.0 0.0 0.0 0.0 0.0 0.0 0.0 0.0 0.0 0.0 0.0 0.0 0.0 0.0 0.0 0.0 0.0 0.0 0.0 0.0 0.0 0.0 0.0 0.0 0.0 0.0 0.0 0.0 0.0 0.0 0.0 0.0 0.0 0.0 0.0 0.0 0.0 0.0 0.0 0.0 0.0 0.0 0.0 0.0 0.0 0.0 0.0 0.0 0.0 0.0 0.0 0.0 0.0 0.0 0.0 0.0 0.0 0.0 0.0 0.0 0.0 0.0 0.0 0.0 0.0 0.0 0.0 0.0 0.0 0.0 0.0 0.0 0.0 0.0 0.0 0.0 0.0 0.0 0.0 0.0 0.0 0.0 0.0 0.0 0.0 0.0 0.0 0.0 0.0 0.0 0.0 0.0 0.0 0.0 0.0 0.0 0.0 0.0 0.0 0.0 0.0 0.0 0.0 0.0 0.0 0.0 0.0 0.0 0.0 0.0 0.0 0.0 0.0 0.0 0.0 0.0 0.0 0.0 0.0 0.0 0.0 0.0 0.0 0.0 0.0 0.0 0.0 0.0 0.0 0.0 0.0 0.0 0.0 0.0 0.0 0.0 0.0 0.0 0.0 0.0 0.0 0.0 0.0 0.0 -0.34246713 0.0 -0.13095063 -0.40435994 0.0 -0.1223186 -0.45553219 0.0 -0.10798903 -0.49564409 0.0 -0.09170343 -0.52610469 0.0 -0.074758068 -0.34240824 0.0 -0.17372316 -0.45694864 0.0 -0.15520242 -0.54680192 0.0 -0.14735439 -0.61661363 0.0 -0.13232134 -0.66943622 0.0 -0.11376949 -0.70847678 0.0 -0.09344912300000001 -0.46665269 0.0 -0.18905777 -0.61563087 0.0 -0.17205441 -0.73098457 0.0 -0.15982085 -0.82050514 0.0 -0.14254645 -0.88720274 0.0 -0.12331606 -0.93589187 0.0 -0.10160118 -0.62095892 0.0 -0.2018646 -0.81023097 0.0 -0.18035454 -0.95197433 0.0 -0.16597247 -1.0604143 0.0 -0.14712375 -1.1408813 0.0 -0.1266831 -1.198848 0.0 -0.1040822 -0.80788708 0.0 -0.21652293 -1.0435152 0.0 -0.18552262 -1.2138517 0.0 -0.16788751 -1.3413072 0.0 -0.14733183 -1.4347936000000001 0.0 -0.12583156 -1.5010567 0.0 -0.1025444 -1.0358485999999998 0.0 -0.23626149 -1.3248149 0.0 -0.18941534 -1.5255207 0.0 -0.16647422 -1.6717142 0.0 -0.14375511 -1.7768871 0.0 -0.12179267 -1.84992 0.0 -0.098271564 -1.3173522 0.0 -0.26442277 -1.6659019 0.0 -0.1952436 -1.8974004 0.0 -0.16385251 -2.0611634 0.0 -0.13781703 -2.1757019 0.0 -0.11630115 -2.2533376 0.0 -0.09317459199999999 -1.6683202000000001 0.0 -0.30663729 -2.0797894 0.0 -0.20790482 -2.3391964 0.0 -0.16545129 -2.518625 0.0 -0.13365906 -2.639678 0.0 -0.11265413 -2.7189262000000003 0.0 -0.09048435099999999 -2.1132672 0.0 -0.35724545 -2.5802417 0.0 -0.23008251 -2.8633914000000003 0.0 -0.17430842 -3.0520632 0.0 -0.13874733 -3.1761448 0.0 -0.1175878 -3.2539398999999998 0.0 -0.095910065 -2.6945388 0.0 -0.3837328 -3.1851909 0.0 -0.25633192 -3.4794862 0.0 -0.19453204 -3.6707091 0.0 -0.15911204 -3.7944720000000003 0.0 -0.13596264 -3.8655505 0.0 -0.11630115 -3.4508204 0.0 -0.38319874 -3.9239992999999993 0.0 -0.27992034 -4.204645200000001 0.0 -0.22509956 -4.3862009 0.0 -0.19694394 -4.500919799999999 0.0 -0.17840648 -4.5612288 0.0 -0.15808439 -4.326643 0.0 -0.57198763 -4.80832 0.0 -0.37488604 -5.054364700000001 0.0 -0.29735208 -5.2135362999999995 0.0 -0.26341105 -5.3058171 0.0 -0.24896869 -5.3480129000000005 0.0 -0.22753009 -5.4297504 0.0 -1.3320885 -5.8674464 0.0 -0.78483701 -6.0524502 0.0 -0.52476597 -6.1664314000000005 0.0 -0.41060638 -6.2198229000000005 0.0 -0.37004676 -6.2345809999999995 0.0 -0.335107 -6.8996668 0.0 -2.0715218 -7.1735864000000005 0.0 -1.3506076 -7.244975999999999 0.0 -0.88842154 -7.264067599999999 0.0 -0.66401374 -7.256315700000001 0.0 -0.56260133 -7.2318082 0.0 -0.49133223 -8.686635 0.0 -2.5897899 -8.720033599999999 0.0 -1.8541071 -8.6163826 0.0 -1.3005474 -8.507719 0.0 -0.98793608 -8.4219437 0.0 -0.81205487 -8.3497324 0.0 -0.69491124 -10.662500999999999 0.0 -3.0213787999999995 -10.430686 0.0 -2.2702303 -10.129767999999999 0.0 -1.6947581999999999 -9.8855181 0.0 -1.334095 -9.7182837 0.0 -1.0972364 -9.5949287 0.0 -0.93193692 -12.743314999999999 0.0 -3.4231608000000002 -12.255098 0.0 -2.6480243 -11.765081 0.0 -2.0568876 -11.390467999999998 0.0 -1.6699715 -11.144912 0.0 -1.3981801999999999 -10.972399000000001 0.0 -1.1965088 -14.905639 0.0 -3.8319786 -14.192988 0.0 -3.0145712000000002 -13.526032999999998 0.0 -2.4032287999999995 -13.026879 0.0 -2.0070335999999998 -12.705943 0.0 -1.7104408 -12.485119000000001 0.0 -1.4827259 -17.198219 0.0 -4.2640486 -16.277914000000003 0.0 -3.3845191 -15.431752 0.0 -2.7481167 -14.802594000000001 0.0 -2.3503098 -14.404248999999998 0.0 -2.0372753 -14.137468 0.0 -1.7846898000000002 -19.69602 0.0 -4.7174644 -18.544420000000002 0.0 -3.7693226 -17.495842 0.0 -3.1074702999999997 -16.730970000000003 0.0 -2.6988161 -16.241585 0.0 -2.3844309 -15.930760999999999 0.0 -2.1083136000000002 -22.434139000000002 0.0 -5.19946 -21.005211 0.0 -4.1764131 -19.719946 0.0 -3.4925612999999998 -18.798815 0.0 -3.0813884999999996 -18.218512 0.0 -2.7610514 -17.868082 0.0 -2.4580872000000005 -25.413202 0.0 -5.732091400000001 -23.663110999999997 0.0 -4.6201935 -22.102013 0.0 -3.9232848 -21.005585 0.0 -3.5081806 -20.334421 0.0 -3.1728085999999998 -19.953196 0.0 -2.8341265 -28.655277 0.0 -6.3034511 -26.518172999999997 0.0 -5.1181369000000005 -24.637537 0.0 -4.4120374 -23.346722 0.0 -3.9836419000000003 -22.588545 0.0 -3.6196562999999995 -22.189276 0.0 -3.2344236 -32.170066999999996 0.0 -6.9348502000000005 -29.572546000000003 0.0 -5.692319400000001 -27.324216999999997 0.0 -4.9730476999999995 -25.820707000000002 0.0 -4.5080838 -24.982443 0.0 -4.0991254 -24.580851000000003 0.0 -3.6515407999999994 -35.982513 0.0 -7.6608295 -32.834213 0.0 -6.368102599999999 -30.161606 0.0 -5.6053991 -28.430346999999998 0.0 -5.0721221 -27.518518 0.0 -4.600822900000001 -27.129219 0.0 -4.086870200000001 -40.140625 0.0 -8.5128546 -36.320339000000004 0.0 -7.1749325 -33.159271000000004 0.0 -6.3081169 -31.181425 0.0 -5.661828 -30.199378999999997 0.0 -5.1211247 -29.837957 0.0 -4.5286212 -44.714690999999995 0.0 -9.5347347 -40.054123 0.0 -8.139505400000001 -36.329376 0.0 -7.070005900000001 -34.072083 0.0 -6.2664232 -33.027778999999995 0.0 -5.633899700000001 -32.701389 0.0 -4.964262000000001 -49.764969 0.0 -10.772789 -44.041484999999994 0.0 -9.3003654 -39.660748 0.0 -7.901470699999999 -37.099709000000004 0.0 -6.892274900000001 -35.994278 0.0 -6.1678424000000005 -35.707896999999996 0.0 -5.4406300000000005 -55.254841000000006 0.0 -12.284721000000001 -48.226295 0.0 -10.710666 -43.106246999999996 0.0 -8.829306599999999 -40.220535 0.0 -7.4913106 -39.031395 0.0 -6.7195663 -38.804497 0.0 -5.9007292 -60.94400400000001 0.0 -14.257842000000002 -52.411316 0.0 -12.4234 -46.518929 0.0 -9.9225235 -43.310814 0.0 -8.1403036 -42.098763 0.0 -7.001288400000001 -41.864925 0.0 -6.3049879 -66.42063900000001 0.0 -17.082604999999997 -56.295067 0.0 -14.535445000000001 -49.681067999999996 0.0 -11.255754 -46.322796000000004 0.0 -8.530584300000001 -44.983376 0.0 -7.2878008 -44.668834999999994 0.0 -6.655355 -71.109085 0.0 -20.957632 -59.662479000000005 0.0 -17.196448999999998 -52.83746 0.0 -12.107546000000001 -49.071751 0.0 -8.982163400000001 -47.390598 0.0 -7.675722099999999 -47.020119 0.0 -7.150858400000001 -74.19459499999999 0.0 -26.569291999999997 -62.356064 0.0 -20.790281 -55.262535 0.0 -13.706786 -51.142899 0.0 -9.8541193 -49.289009 0.0 -8.0877619 -48.759575 0.0 -7.395440600000001 -75.753357 0.0 -33.888794 -63.839645 0.0 -25.469213 -56.873787 0.0 -15.303026000000001 -52.610085 0.0 -10.306333 -50.686459 0.0 -7.978604300000001 -50.200790000000005 0.0 -7.2447796 -75.184608 0.0 -42.119762 -64.096375 0.0 -28.73341 -57.74216800000001 0.0 -17.05584 -53.194016000000005 0.0 -11.563321 -51.168715999999996 0.0 -8.4584341 -50.607334 0.0 -7.717981299999999 -65.331276 0.0 -46.003498 -61.9897 0.0 -31.294638 -57.729416 0.0 -18.454071 -52.724388 0.0 -13.952063 -49.661289000000004 0.0 -11.772886 -48.821071999999994 0.0 -11.110380000000001 -43.590816 0.0 -49.673515 -44.389015 0.0 -34.952621 -45.2019 0.0 -20.35428 -45.595657 0.0 -15.943785 -45.380741 0.0 -16.012213 -45.769707000000004 0.0 -18.581116 -25.470121 0.0 -54.481556000000005 -26.18609 0.0 -37.819351 -27.124823 0.0 -21.336094 -28.160456 0.0 -14.845292 -29.125355 0.0 -15.233545999999999 -30.096203000000003 0.0 -18.403698000000002 -13.363782 0.0 -58.194649 -13.833973 0.0 -40.55162 -14.49505 0.0 -21.230785 -15.306938 0.0 -14.194489 -16.194693 0.0 -13.803374 -17.064285 0.0 -17.013594 -5.7325749 0.0 -60.66711 -5.8633265 0.0 -42.451060999999996 -6.1238079 0.0 -21.352421 -6.535862 0.0 -13.974198000000001 -7.070514200000001 0.0 -12.908924 -7.657420599999999 0.0 -15.800485 0.22756499 0.0 -61.985928 0.37999767 0.0 -44.005669 0.46838945 0.0 -21.66754 0.43968537 0.0 -13.869113 0.28623807 0.0 -12.722561 0.041278783 0.0 -15.181103 6.888669999999999 0.0 -62.299538 7.1720161 0.0 -44.587688 7.4402914 0.0 -22.20973 7.635061299999999 0.0 -14.309176 7.7300496 0.0 -13.158059 7.7246819 0.0 -14.894744000000001 15.188929000000002 0.0 -61.586895 15.442305 0.0 -44.152439 15.700892999999999 0.0 -22.486456 15.914989000000002 0.0 -14.936798999999999 16.057926000000002 0.0 -13.620168 16.110619 0.0 -14.885243 24.701271 0.0 -60.213843999999995 24.816902 0.0 -43.136990000000004 24.934332 0.0 -22.510153 25.011112 0.0 -15.391222 25.030529 0.0 -14.041865 24.973726 0.0 -14.943738 34.382496 0.0 -58.292061 34.321022 0.0 -41.763965999999996 34.242785999999995 0.0 -22.279208999999998 34.106891999999995 0.0 -15.660054999999998 33.909649 0.0 -14.279691 33.64542 0.0 -14.885207000000001 43.218052 0.0 -55.89357 42.988021999999994 0.0 -40.269321000000005 42.718456 0.0 -21.80505 42.366496999999995 0.0 -15.779572 41.791931 0.0 -14.034973 41.453007 0.0 -14.604113 50.499953999999995 0.0 -53.198376 50.130733 0.0 -38.706829 49.853722 0.0 -21.313147 49.115406 0.0 -15.648492000000001 48.260197 0.0 -13.557058999999999 47.648185999999995 0.0 -14.103523999999998 55.857063000000004 0.0 -50.118557 55.443665 0.0 -36.749214 55.054653 0.0 -20.460895999999998 53.610126 0.0 -14.868401 51.333878000000006 0.0 -12.869002 49.393684 0.0 -13.617288 59.698273 0.0 -46.532463 59.091064 0.0 -34.205696 58.523872 0.0 -19.41209 55.194702 0.0 -14.167320000000002 51.680977 0.0 -12.694116000000001 49.700096 0.0 -13.164142000000002 63.071789 0.0 -42.758282 61.952614000000004 0.0 -31.445073999999998 60.008492000000004 0.0 -18.264374 55.061062 0.0 -13.624504 51.776165 0.0 -12.617338 49.83041 0.0 -12.795696000000001 67.270546 0.0 -39.686572999999996 64.77350600000001 0.0 -28.537458 60.19935600000001 0.0 -17.153799 54.925674 0.0 -13.11151 51.814780999999996 0.0 -12.426044000000001 49.902264 0.0 -12.371767 73.241333 0.0 -37.536175 67.96418800000001 0.0 -25.572748 60.624275 0.0 -15.994422 55.116817000000005 0.0 -12.568473 51.977306 0.0 -12.023752 49.760036 0.0 -12.274613 81.60726899999999 0.0 -33.423618 71.760887 0.0 -23.343023000000002 61.570225 0.0 -14.938382 55.61584499999999 0.0 -12.066151 52.126358 0.0 -11.361531 49.849995 0.0 -11.58574 90.148674 0.0 -27.02883 75.749001 0.0 -20.911406 63.545925 0.0 -14.099877 56.376637 0.0 -11.727471000000001 52.448826000000004 0.0 -10.861979 49.817631 0.0 -10.643228 95.56259200000001 0.0 -23.076805 79.748932 0.0 -18.865696 66.190338 0.0 -13.397148000000001 57.745681999999995 0.0 -11.047611 52.986256000000004 0.0 -10.243979 49.829086 0.0 -9.730314300000002 84.33242 0.0 -17.390062 69.385864 0.0 -12.7196 59.710655 0.0 -10.222317 54.070301 0.0 -9.3659201 50.10828 0.0 -8.818594000000001 88.951706 0.0 -16.152241 73.86099200000001 0.0 -12.031933 62.525622999999996 0.0 -9.109019300000002 55.605231999999994 0.0 -8.2332392 50.837761 0.0 -7.7610478 79.379036 0.0 -11.989355999999999 66.534378 0.0 -8.5555859 58.069542000000006 0.0 -7.2706432 52.119372999999996 0.0 -6.683546499999999 84.774399 0.0 -12.253086 72.138786 0.0 -9.0661469 61.78893299999999 0.0 -6.8817477 54.333199 0.0 -5.964103700000001 78.18731700000001 0.0 -10.153426 67.004745 0.0 -7.4295482999999995 58.090942000000005 0.0 -5.9439554 72.926208 0.0 -8.7056913 63.470276 0.0 -6.8474193 77.177177 0.0 -9.079711 69.274239 0.0 -8.1033115 -0.54761922 0.0 -0.059064045999999995 -0.56170881 0.0 -0.04481449 -0.56957459 0.0 -0.033237647 -0.57301629 0.0 -0.02379711 -0.5735594 0.0 -0.016453533 -0.57245696 0.0 -0.010986468000000001 -0.57071364 0.0 -0.0069020586 -0.5690037 0.0 -0.0039791651 -0.56780648 0.0 -0.0017887144 -0.73544288 0.0 -0.073832333 -0.75207889 0.0 -0.056348138 -0.76045394 0.0 -0.041909251 -0.76322472 0.0 -0.029870709 -0.76234686 0.0 -0.020694464 -0.7595911 0.0 -0.0137383 -0.75626051 0.0 -0.0086423708 -0.75327766 0.0 -0.0049694902 -0.75125766 0.0 -0.0022405572 -0.96849716 0.0 -0.080713131 -0.98762465 0.0 -0.061862729000000005 -0.99629629 0.0 -0.045779191 -0.99783719 0.0 -0.032590008999999996 -0.99498081 0.0 -0.022501972000000002 -0.99007225 0.0 -0.014729375 -0.98470461 0.0 -0.0092041269 -0.98010457 0.0 -0.0052070757 -0.9770447 0.0 -0.0023496447 -1.2367219999999999 0.0 -0.082285561 -1.2576604 0.0 -0.062961861 -1.2658954 0.0 -0.046096947 -1.2654488000000002 0.0 -0.032529905 -1.2599809 0.0 -0.021987267 -1.2522761999999998 0.0 -0.014180887 -1.2444042 0.0 -0.0086200619 -1.2378373 0.0 -0.0047803703000000005 -1.2335327 0.0 -0.0021008167 -1.5430013 0.0 -0.080510065 -1.5646229999999999 0.0 -0.061014008 -1.5711982 0.0 -0.043952197 -1.5676819 0.0 -0.030538416000000002 -1.5586474 0.0 -0.02003384 -1.54738 0.0 -0.012549605 -1.5364053999999998 0.0 -0.0072828042 -1.5274312 0.0 -0.0038890187 -1.5216252000000001 0.0 -0.0016355895000000002 -1.8942248 0.0 -0.07662873 -1.914925 0.0 -0.05712170900000001 -1.9181588 0.0 -0.040639184 -1.9102143 0.0 -0.027481021 -1.896359 0.0 -0.017504089 -1.8805698 0.0 -0.010416861999999999 -1.8657131 0.0 -0.0057240007 -1.8538091 0.0 -0.0028229142 -1.8461767 0.0 -0.0011201357 -2.2977881 0.0 -0.072630696 -2.3154445 0.0 -0.053675089 -2.3134377 0.0 -0.037946172 -2.2993574 0.0 -0.025174242000000003 -2.2792517999999995 0.0 -0.015718302 -2.2577724 0.0 -0.0089687863 -2.238147 0.0 -0.0047064149 -2.2226798999999997 0.0 -0.0021591436 -2.2128415 0.0 -0.00079730334 -2.7609034 0.0 -0.07133896599999999 -2.7730422000000003 0.0 -0.053275462 -2.7635362 0.0 -0.038379222000000004 -2.7413836 0.0 -0.025757849 -2.7134099 0.0 -0.016464552 -2.6849246 0.0 -0.0096056089 -2.6595371 0.0 -0.0052378940999999995 -2.6397892999999995 0.0 -0.0025414394 -2.6273201 0.0 -0.00099661644 -3.2904484 0.0 -0.077563167 -3.2943332 0.0 -0.059947275 -3.2749705000000002 0.0 -0.045242172000000004 -3.2426574 0.0 -0.032069948 -3.2050822 0.0 -0.021996465 -3.168164 0.0 -0.014065401000000002 -3.1358936 0.0 -0.0086148391 -3.111069 0.0 -0.0047926432 -3.0954881000000003 0.0 -0.0021290258 -3.8931165 0.0 -0.097429544 -3.8857547999999995 0.0 -0.07907544799999999 -3.8541684000000003 0.0 -0.062784247 -3.8096094 0.0 -0.047366008 -3.7606175000000004 0.0 -0.034810312 -3.7137510999999996 0.0 -0.024249978 -3.6733954 0.0 -0.016194146 -3.6426351 0.0 -0.009796652900000001 -3.6234248 0.0 -0.0046222028 -4.5755014 0.0 -0.13776408 -4.554085700000001 0.0 -0.11603543 -4.507921700000001 0.0 -0.09537708 -4.4490581 0.0 -0.07503891 -4.3868537000000005 0.0 -0.057464387 -4.3284917 0.0 -0.042073004000000004 -4.2788415 0.0 -0.029264182000000003 -4.2412524000000005 0.0 -0.018423066000000002 -4.2178788 0.0 -0.0088841422 -5.3448105 0.0 -0.20449051 -5.3070283 0.0 -0.17495054 -5.2440495 0.0 -0.14623867 -5.168815599999999 0.0 -0.11814192 -5.0916195 0.0 -0.092212491 -5.0202498 0.0 -0.069287896 -4.9601220999999995 0.0 -0.049068075 -4.914827799999999 0.0 -0.031350274 -4.8867512 0.0 -0.015268818 -6.210519799999999 0.0 -0.29919267 -6.1530833 0.0 -0.25894836 -6.071103599999999 0.0 -0.21817365 -5.9774747 0.0 -0.17853771 -5.8836627 0.0 -0.14066105 -5.7978487 0.0 -0.10657734 -5.7259917 0.0 -0.07637925400000001 -5.6721554 0.0 -0.049162369000000004 -5.638863099999999 0.0 -0.023981119 -7.181819 0.0 -0.43004176 -7.101691199999999 0.0 -0.37070093 -6.9982038 0.0 -0.31284091 -6.8844886 0.0 -0.2563138 -6.7721148 0.0 -0.20339775 -6.670490299999999 0.0 -0.15469313 -6.585845900000001 0.0 -0.11112718 -6.5225200999999995 0.0 -0.071836889 -6.4835453 0.0 -0.035173288999999996 -8.2685719 0.0 -0.59725815 -8.1625261 0.0 -0.51107478 -8.034874900000002 0.0 -0.43099219 -7.8988924 0.0 -0.3519063 -7.7665391 0.0 -0.2789368 -7.6476107 0.0 -0.21327861 -7.549195299999999 0.0 -0.153613 -7.475635499999999 0.0 -0.099474005 -7.4304061 0.0 -0.048512235 -9.479216599999999 0.0 -0.79734194 -9.3443766 0.0 -0.67881787 -9.1900873 0.0 -0.57026768 -9.0299349 0.0 -0.46380797 -8.876298 0.0 -0.36757469 -8.7388735 0.0 -0.28123611 -8.625734300000001 0.0 -0.20202275 -8.5415659 0.0 -0.13110487 -8.489607800000002 0.0 -0.063916743 -10.820765 0.0 -1.0250181 -10.655116 0.0 -0.86914086 -10.473183 0.0 -0.72838145 -10.287811 0.0 -0.59350717 -10.111469999999999 0.0 -0.46812311 -9.954525 0.0 -0.35728937 -9.825843800000001 0.0 -0.25543195 -9.7304993 0.0 -0.16563535 -9.6713371 0.0 -0.080770463 -12.298924000000001 0.0 -1.2771457 -12.103465 0.0 -1.0834367 -11.892983000000001 0.0 -0.90310651 -11.681500999999999 0.0 -0.73475069 -11.482214 0.0 -0.57717562 -11.305072000000001 0.0 -0.43867147 -11.160017999999999 0.0 -0.31188479 -11.052287 0.0 -0.20015098 -10.98604 0.0 -0.09823741 -13.918612 0.0 -1.5464588 -13.695656 0.0 -1.3132631000000001 -13.457807999999998 0.0 -1.0892711000000002 -13.220964000000002 0.0 -0.88297969 -12.998365 0.0 -0.68857294 -12.801108000000001 0.0 -0.52241814 -12.638821 0.0 -0.3688342 -12.517992999999999 0.0 -0.2348731 -12.443752 0.0 -0.11529277 -15.685163000000001 0.0 -1.8352534 -15.439846 0.0 -1.5576441 -15.179031 0.0 -1.2889102 -14.91673 0.0 -1.0360296999999998 -14.670816 0.0 -0.80010641 -14.452620000000001 0.0 -0.60424292 -14.271938 0.0 -0.4232294 -14.136687 0.0 -0.26732671 -14.053569 0.0 -0.13099001 -17.604126 0.0 -2.1437976 -17.343554 0.0 -1.8141291000000002 -17.063688 0.0 -1.4962485 -16.778509 0.0 -1.1895681999999999 -16.509155 0.0 -0.90932459 -16.267422 0.0 -0.67817551 -16.06739 0.0 -0.47208688 -15.915946 0.0 -0.29574129 -15.822448000000001 0.0 -0.14436939 -19.681383 0.0 -2.4712462000000004 -19.41437 0.0 -2.0804157 -19.119764 0.0 -1.7074174 -18.814842000000002 0.0 -1.3415946 -18.521666 0.0 -1.0145831 -18.254215 0.0 -0.74741048 -18.031425 0.0 -0.51656747 -17.860764 0.0 -0.32006007 -17.754831 0.0 -0.15632281 -21.922213 0.0 -2.8153679 -21.659264 0.0 -2.3554304 -21.35359 0.0 -1.9243301 -21.032259 0.0 -1.4925803999999998 -20.714544 0.0 -1.1217248 -20.418067999999998 0.0 -0.81335503 -20.166726999999998 0.0 -0.55806005 -19.973051 0.0 -0.34225145 -19.851498 0.0 -0.16709094 -24.332035 0.0 -3.1725521 -24.083403 0.0 -2.6417537 -23.772783 0.0 -2.1407377999999997 -23.434995999999998 0.0 -1.6493527 -23.089361 0.0 -1.2326607 -22.760756 0.0 -0.88230348 -22.474455 0.0 -0.60539234 -22.252151 0.0 -0.36799642 -22.110756 0.0 -0.1744553 -26.915581 0.0 -3.541486 -26.690303999999998 0.0 -2.9441926 -26.37903 0.0 -2.3707632999999997 -26.024715 0.0 -1.8316424999999998 -25.646314999999998 0.0 -1.364933 -25.279819 0.0 -0.97923148 -24.953835 0.0 -0.66283077 -24.695104999999998 0.0 -0.40434611 -24.529287 0.0 -0.18838046 -29.673885 0.0 -3.9215279 -29.480515000000004 0.0 -3.2699845 -29.172388 0.0 -2.6511075 -28.799608000000003 0.0 -2.0586805 -28.383881 0.0 -1.544729 -27.971876 0.0 -1.1224777 -27.59532 0.0 -0.76368546 -27.294113 0.0 -0.47095311 -27.099184 0.0 -0.22320293 -32.595627 0.0 -4.3073072 -32.443993 0.0 -3.6267931000000004 -32.157501 0.0 -2.9730837 -31.76153 0.0 -2.3526002999999998 -31.302938 0.0 -1.79732 -30.83427 0.0 -1.3331082 -30.397461 0.0 -0.93112922 -30.045261 0.0 -0.58903915 -29.816105 0.0 -0.28493062 -35.666866 0.0 -4.7636937999999995 -35.563114 0.0 -4.0692391 -35.288273 0.0 -3.4111273 -34.873981 0.0 -2.772948 -34.3708 0.0 -2.18472 -33.836773 0.0 -1.6610868000000003 -33.338303 0.0 -1.1955489 -32.932419 0.0 -0.77377158 -32.666702 0.0 -0.37981346 -38.82782 0.0 -5.220764599999999 -38.7659 0.0 -4.5654755 -38.508293 0.0 -3.936173 -38.080212 0.0 -3.3276133999999997 -37.533169 0.0 -2.7358971000000003 -36.942245 0.0 -2.1588368 -36.380221999999996 0.0 -1.609464 -35.921448 0.0 -1.0791301000000002 -35.618683000000004 0.0 -0.54205704 -41.935642 0.0 -5.6854777 -41.913589 0.0 -5.186911599999999 -41.685417 0.0 -4.6328759 -41.254974 0.0 -4.069355000000001 -40.687042 0.0 -3.4810891 -40.050636 0.0 -2.8683593 -39.437611 0.0 -2.2218654 -38.933243 0.0 -1.526001 -38.602028000000004 0.0 -0.77833575 -44.747516999999995 0.0 -6.3054676 -44.783359999999995 0.0 -5.8885489 -44.611992 0.0 -5.4746237 -44.192448 0.0 -5.0198212 -43.615707 0.0 -4.4901562 -42.952396 0.0 -3.8321204 -42.318253000000006 0.0 -3.0692932999999996 -41.795048 0.0 -2.1565604 -41.456863 0.0 -1.1037164 -47.076698 0.0 -6.834260499999999 -47.130276 0.0 -6.6231451 -47.006889 0.0 -6.4238439000000005 -46.643135 0.0 -6.1145082 -46.123692 0.0 -5.702417400000001 -45.518902000000004 0.0 -5.0684347 -44.88736 0.0 -4.0940366 -44.377895 0.0 -2.9148498 -44.031634999999994 0.0 -1.5185326000000001 -48.875267 0.0 -7.1850553 -48.963097 0.0 -7.1552606 -48.905266 0.0 -7.2451105 -48.642734999999995 0.0 -7.271225 -48.225615999999995 0.0 -7.013874499999999 -47.657158 0.0 -6.3147812000000005 -47.070755 0.0 -5.1490445 -46.610775 0.0 -3.6811125 -46.310303000000005 0.0 -1.9181006999999999 -50.295615999999995 0.0 -7.1266289 -50.357941 0.0 -7.4415808000000006 -50.288033 0.0 -7.9559178 -50.069721 0.0 -8.350723299999999 -49.735434999999995 0.0 -8.275468799999999 -49.221123 0.0 -7.6305728 -48.726162 0.0 -6.4563375 -48.353305999999996 0.0 -4.6969051 -48.116085 0.0 -2.4787017999999996 -50.582253 0.0 -7.8838539 -50.659420000000004 0.0 -8.6246567 -50.5009 0.0 -9.533614199999999 -50.453854 0.0 -10.477459 -50.272018 0.0 -10.837463 -49.995540999999996 0.0 -10.346515 -49.69413 0.0 -8.9210625 -49.365364 0.0 -6.5596118 -49.147785 0.0 -3.4790349000000003 -48.944687 0.0 -11.582268 -49.173668 0.0 -12.557211 -49.550262 0.0 -13.816783 -50.076469 0.0 -14.965938000000001 -50.292507 0.0 -15.155555 -50.172604 0.0 -14.195251999999998 -49.921131 0.0 -12.041654 -49.660656 0.0 -8.7894144 -49.44865 0.0 -4.65025 -46.476421 0.0 -19.741685999999998 -46.987251 0.0 -20.903208 -47.255604 0.0 -21.596512 -47.114487 0.0 -21.402449 -46.572731 0.0 -20.34655 -45.815933 0.0 -18.317663 -45.032307 0.0 -15.187133 -44.341389 0.0 -10.928544 -43.859997 0.0 -5.7315254 -30.834153999999998 0.0 -20.216965 -31.321083 0.0 -21.7857 -31.507247999999997 0.0 -22.698191 -31.402777 0.0 -22.707674 -31.060965999999997 0.0 -21.805191 -30.563370000000003 0.0 -19.798191 -30.011940000000003 0.0 -16.504332 -29.515617 0.0 -11.916877000000001 -29.172296999999997 0.0 -6.2624483 -17.826973000000002 0.0 -19.355824 -18.405109 0.0 -21.463587 -18.75374 0.0 -22.848118 -18.874907999999998 0.0 -23.233560999999998 -18.802086 0.0 -22.579979 -18.58902 0.0 -20.67724 -18.304991 0.0 -17.337488 -18.026871 0.0 -12.564554 -17.826195000000002 0.0 -6.6159372 -8.2200804 0.0 -18.400209 -8.6968279 0.0 -20.873179999999998 -9.053199800000002 0.0 -22.601574 -9.2789354 0.0 -23.275768 -9.3821125 0.0 -22.833082 -9.3839788 0.0 -21.050801999999997 -9.3177929 0.0 -17.734722 -9.2259007 0.0 -12.892422 -9.150095 0.0 -6.8004136 -0.25057259 0.0 -17.649496 -0.55407029 0.0 -20.270157 -0.84503222 0.0 -22.166957999999997 -1.1030619 0.0 -23.001182999999997 -1.3132223 0.0 -22.696167000000003 -1.4677474 0.0 -21.019632 -1.5680290000000001 0.0 -17.768454000000002 -1.6242911 0.0 -12.946944 -1.6503091 0.0 -6.838312599999999 7.6290960000000005 0.0 -17.194798000000002 7.454432499999999 0.0 -19.767706 7.216258 0.0 -21.665756 6.9405508000000005 0.0 -22.532314000000003 6.655526200000001 0.0 -22.285379000000002 6.3886833 0.0 -20.685839 6.161910099999999 0.0 -17.520428 5.9905715 0.0 -12.784872 5.884313099999999 0.0 -6.7587399 16.06138 0.0 -16.94945 15.906451 0.0 -19.349556 15.656265 0.0 -21.127745 15.335678 0.0 -21.930744 14.976557000000001 0.0 -21.678795 14.614343 0.0 -20.129535999999998 14.28495 0.0 -17.061054000000002 14.021472 0.0 -12.458161 13.851072 0.0 -6.5890379 24.82531 0.0 -16.753467999999998 24.57933 0.0 -18.920528 24.243757000000002 0.0 -20.513819 23.838026 0.0 -21.199961 23.389727 0.0 -20.906814999999998 22.93396 0.0 -19.393507 22.512711 0.0 -16.433514000000002 22.17001 0.0 -12.000941000000001 21.945669 0.0 -6.3480773 33.310139 0.0 -16.454756 32.904167 0.0 -18.375546 32.434917 0.0 -19.764332 31.914648 0.0 -20.316734 31.362641999999997 0.0 -19.971420000000002 30.809631 0.0 -18.494298999999998 30.299796999999998 0.0 -15.659654999999999 29.88438 0.0 -11.432675 29.611662 0.0 -6.04706 40.915440000000004 0.0 -15.960214 40.337067 0.0 -17.647017 39.724045000000004 0.0 -18.83782 39.081043 0.0 -19.261132999999997 38.418385 0.0 -18.868853 37.763535 0.0 -17.438713 37.163906 0.0 -14.751135999999999 36.67662 0.0 -10.764726 36.357212 0.0 -5.6928444 46.615379 0.0 -15.277176999999998 45.641933 0.0 -16.727491 44.643139 0.0 -17.711979 43.688416 0.0 -18.007315 42.781078 0.0 -17.575417 41.945065 0.0 -16.205017 41.218154999999996 0.0 -13.688673000000001 40.652798 0.0 -9.9822712 40.293888 0.0 -5.2786784 48.027534 0.0 -14.536039 46.870090000000005 0.0 -15.68149 45.760754 0.0 -16.442766 44.734604 0.0 -16.619920999999998 43.772919 0.0 -16.152442999999998 42.894123 0.0 -14.846293 42.146716999999995 0.0 -12.513927 41.572102 0.0 -9.114607800000002 41.206024 0.0 -4.8168435 48.32777 0.0 -13.8559 47.122398 0.0 -14.666205 45.987808 0.0 -15.200973999999999 44.90435 0.0 -15.239765 43.902023 0.0 -14.715936 42.999485 0.0 -13.456910999999998 42.23336 0.0 -11.30038 41.6451 0.0 -8.2101898 41.283642 0.0 -4.337871099999999 48.374672 0.0 -13.319872 47.096264 0.0 -13.857092999999999 45.874851 0.0 -14.157518 44.735874 0.0 -14.020295999999998 43.685848 0.0 -13.404145000000002 42.739914 0.0 -12.166945 41.929691 0.0 -10.16184 41.305092 0.0 -7.3535261 40.91148 0.0 -3.8703132000000005 48.34449 0.0 -12.823797 46.963806 0.0 -13.251417000000002 45.641064 0.0 -13.381057 44.397083 0.0 -13.090539999999999 43.26619 0.0 -12.357215 42.238033 0.0 -11.095697999999999 41.343284999999995 0.0 -9.1752234 40.645759999999996 0.0 -6.583602000000001 40.22068 0.0 -3.447917 48.181872999999996 0.0 -12.351982000000001 46.742771000000005 0.0 -12.607918 45.270977 0.0 -12.61951 43.925098 0.0 -12.215496 42.702824 0.0 -11.374628999999999 41.595192 0.0 -10.077053 40.645073 0.0 -8.2516375 39.912109 0.0 -5.8913975 39.440033 0.0 -3.0744576 48.013268 0.0 -11.887626 46.338505 0.0 -11.944898 44.769981 0.0 -11.853745 43.288136 0.0 -11.395612 41.951183 0.0 -10.48808 40.771595 0.0 -9.1642323 39.760253999999996 0.0 -7.417524799999999 38.969231 0.0 -5.2411084 38.466045 0.0 -2.7209322 47.769897 0.0 -11.053048 45.846703000000005 0.0 -11.225226 44.058369 0.0 -11.145786 42.503502000000005 0.0 -10.541887 41.053921 0.0 -9.6118069 39.788082 0.0 -8.297039 38.715073 0.0 -6.6220612999999995 37.882683 0.0 -4.6281114 37.352303000000006 0.0 -2.3825901000000003 47.421734 0.0 -9.9363079 45.338753000000004 0.0 -10.278078 43.351585 0.0 -10.220336 41.586834 0.0 -9.8236876 40.012001 0.0 -8.8240337 38.690689 0.0 -7.5127997 37.575981 0.0 -5.9263735 36.722343 0.0 -4.0930252000000005 36.184986 0.0 -2.0963161 47.192585 0.0 -8.7631636 44.777233 0.0 -9.0290909 42.618629 0.0 -9.2217979 40.644591999999996 0.0 -8.832881 38.977356 0.0 -8.0553131 37.507359 0.0 -6.842587 36.367157 0.0 -5.3124442 35.498226 0.0 -3.6364558 34.957172 0.0 -1.8416953999999999 47.199593 0.0 -7.529988799999999 44.32761 0.0 -7.651422 41.905617 0.0 -7.921673299999999 39.737289000000004 0.0 -7.8600068 37.906757 0.0 -7.1764598 36.398148 0.0 -6.134071400000001 35.16571 0.0 -4.780771700000001 34.268597 0.0 -3.2643552000000002 33.728867 0.0 -1.6492863000000002 47.715678999999994 0.0 -6.367785 44.20285 0.0 -6.3382667999999995 41.393951 0.0 -6.4535551 38.99971 0.0 -6.586678 36.945518 0.0 -6.2680926 35.294212 0.0 -5.3776436 34.039341 0.0 -4.2293496 33.114506 0.0 -2.9085598 32.557915 0.0 -1.4793949 48.844139 0.0 -5.3666797 44.551327 0.0 -5.1162324 41.19278 0.0 -5.058582299999999 38.502968 0.0 -5.1055746 36.190189000000004 0.0 -5.085557499999999 34.410007 0.0 -4.5888186 33.026984999999996 0.0 -3.6183476000000003 32.081112 0.0 -2.5031025000000002 31.52277 0.0 -1.3103058 51.122799 0.0 -5.0100517 45.691456 0.0 -4.2366638 41.598766 0.0 -3.8900981 38.440674 0.0 -3.7087312000000003 35.825859 0.0 -3.7288504000000002 33.724655 0.0 -3.5660875 32.18959 0.0 -2.9728022000000003 31.189697 0.0 -2.0911539 30.589803999999997 0.0 -1.0792903999999999 55.082592000000005 0.0 -5.2572856 48.308372 0.0 -4.2421498 42.940022 0.0 -3.2415581 38.949005 0.0 -2.6101129000000003 35.932285 0.0 -2.3652140999999998 33.500842999999996 0.0 -2.4526696 31.746046000000003 0.0 -2.213423 30.554993 0.0 -1.6228876 29.899442999999998 0.0 -0.87664634 60.209892 0.0 -6.1082401 52.48724 0.0 -4.6689925 45.78141 0.0 -3.57741 40.679382000000004 0.0 -2.4016812 36.963531 0.0 -1.4248536 34.033012 0.0 -1.3186628 31.876897999999997 0.0 -1.3941283000000002 30.479664 0.0 -1.1815962 29.685312 0.0 -0.68346322 65.289909 0.0 -6.7030125 57.144127000000005 0.0 -5.118548400000001 50.019688 0.0 -4.0644665 43.80127 0.0 -3.2383139 39.332737 0.0 -1.8563383999999998 35.805618 0.0 -0.97896057 32.946251000000004 0.0 -0.77679098 31.148056 0.0 -0.7961483 30.047983000000002 0.0 -0.54092783 61.506702000000004 0.0 -5.433433999999999 54.514816 0.0 -4.2405996 47.977852 0.0 -3.298856 42.539894 0.0 -2.8802109000000002 38.258595 0.0 -2.5887032000000003 34.5751 0.0 -2.5811431000000002 31.953159000000003 0.0 -2.0704284 30.736411999999998 0.0 -1.0487583 52.040699 0.0 -3.2509727 46.458908 0.0 -2.6504617 41.314594 0.0 -2.6644769 36.940384 0.0 -3.2322366000000002 34.595215 0.0 -2.4450392999999995 33.721245 0.0 -1.1518452 45.342369 0.0 -2.3022804 41.195484 0.0 -2.4811046 37.607986 0.0 -2.7238927000000004 36.483303 0.0 -1.3458955 -0.56737769 0.0 -1.8440335e-07 -0.56780577 0.0 0.0017887338 -0.56900346 0.0 0.0039795227 -0.57071519 0.0 0.006902048399999999 -0.57245529 0.0 0.01098641 -0.57356036 0.0 0.016453467 -0.57301688 0.0 0.023796976 -0.56957531 0.0 0.033237714 -0.75054657 0.0 2.6750911e-08 -0.75125766 0.0 0.0022409954 -0.75327694 0.0 0.0049694772 -0.75625932 0.0 0.0086423382 -0.75959158 0.0 0.01373828 -0.76234639 0.0 0.020694403 -0.76322389 0.0 0.029870607 -0.7604531 0.0 0.041908842 -0.97597885 0.0 5.9738909e-08 -0.97704649 0.0 0.0023494875 -0.9801048 0.0 0.0052075274 -0.9847039 0.0 0.009204009499999999 -0.99007368 0.0 0.014729266999999999 -0.99498129 0.0 0.022501945 -0.99783492 0.0 0.032589912 -0.99629557 0.0 0.045779272999999995 -1.2320333 0.0 -1.4702425e-07 -1.2335327 0.0 0.0021005739 -1.2378383 0.0 0.0047805784 -1.2444051999999999 0.0 0.008620197 -1.2522748 0.0 0.014180942 -1.2599776000000003 0.0 0.021987552 -1.2654471 0.0 0.032529656000000004 -1.2658972 0.0 0.046096642 -1.5196180000000001 0.0 8.6498756e-07 -1.5216258999999999 0.0 0.0016342616000000001 -1.527433 0.0 0.0038880366 -1.5364051 0.0 0.007282379499999999 -1.5473795 0.0 0.012549713999999998 -1.5586483 0.0 0.020033943999999998 -1.5676813 0.0 0.030538427000000003 -1.5711976 0.0 0.043952189 -1.8435508000000003 0.0 -3.5144944e-07 -1.8461745999999999 0.0 0.0011197365 -1.8538085 0.0 0.0028217828000000004 -1.8657136000000003 0.0 0.00572372 -1.8805711999999999 0.0 0.010417155 -1.8963616 0.0 0.017503735 -1.9102113999999997 0.0 0.02748091 -1.9181583 0.0 0.040639572 -2.2094736 0.0 -9.6560439e-07 -2.2128415 0.0 0.0007979387299999999 -2.2226812999999996 0.0 0.0021595047 -2.2381467999999995 0.0 0.0047065415000000005 -2.257772 0.0 0.0089686345 -2.2792527999999996 0.0 0.015718542 -2.2993562 0.0 0.025174294 -2.3134357999999997 0.0 0.037946373 -2.6230643 0.0 1.75318e-06 -2.6273201 0.0 0.00099544961 -2.6397892999999995 0.0 0.0025419618 -2.6595353999999998 0.0 0.0052376832 -2.6849229 0.0 0.0096057309 -2.7134112999999997 0.0 0.016464213000000002 -2.7413852000000003 0.0 0.025757647999999998 -2.7635374 0.0 0.03837847 -3.0901813999999996 0.0 2.785398e-07 -3.0954874 0.0 0.002129178 -3.111068 0.0 0.0047921301 -3.135891 0.0 0.0086147413 -3.1681631 0.0 0.014065557 -3.2050781 0.0 0.021996562999999997 -3.2426591 0.0 0.032070477 -3.2749763 0.0 0.045241702 -3.6168966 0.0 -9.057916899999999e-07 -3.6234231 0.0 0.0046224761999999996 -3.6426334000000002 0.0 0.0097968634 -3.6733949 0.0 0.016192893 -3.7137527 0.0 0.024248891 -3.7606192000000003 0.0 0.034810841 -3.8096099000000003 0.0 0.047366578 -3.8541677000000005 0.0 0.06278403099999999 -4.2099557 0.0 -1.7902053e-06 -4.2178797999999995 0.0 0.0088837082 -4.241254799999999 0.0 0.018423166 -4.2788386 0.0 0.029263672999999997 -4.3284907 0.0 0.042072579000000006 -4.3868537000000005 0.0 0.057464819 -4.4490628 0.0 0.075038128 -4.507926 0.0 0.095379181 -4.8772502 0.0 4.7722688e-07 -4.8867497 0.0 0.015269837 -4.9148297 0.0 0.03135043 -4.960115900000001 0.0 0.049067274 -5.0202489 0.0 0.06928757599999999 -5.091613300000001 0.0 0.09221287800000001 -5.1688204 0.0 0.11814363 -5.2440515 0.0 0.14624028 -5.6275783 0.0 4.1817002e-06 -5.6388559 0.0 0.023982514 -5.672152 0.0 0.04916279 -5.7259974 0.0 0.07637964900000001 -5.7978477 0.0 0.10657603 -5.8836656 0.0 0.14066257 -5.9774837 0.0 0.17853794 -6.0711045 0.0 0.21817413 -6.4703093 0.0 -1.4875873e-06 -6.4835391 0.0 0.035172846 -6.5225153 0.0 0.07183902 -6.585838799999999 0.0 0.11112751 -6.670488799999999 0.0 0.15469179 -6.772119 0.0 0.20339561 -6.8844956999999996 0.0 0.25631312 -6.9982004 0.0 0.31283963 -7.415233099999999 0.0 2.3342086e-06 -7.4304109 0.0 0.048508205 -7.4756427 0.0 0.099474348 -7.5492015 0.0 0.15361229 -7.647609700000001 0.0 0.21327724 -7.7665334 0.0 0.27893537 -7.8988881 0.0 0.3519097 -8.034873 0.0 0.43098864 -8.4723091 0.0 -5.0386669999999994e-06 -8.4895992 0.0 0.063917592 -8.541564900000001 0.0 0.13110484 -8.625734300000001 0.0 0.20202233 -8.7388821 0.0 0.28123444 -8.8762913 0.0 0.36757308 -9.029932 0.0 0.46380839 -9.1900969 0.0 0.5702666 -9.6516132 0.0 1.9928475e-06 -9.671334300000002 0.0 0.080768183 -9.7304926 0.0 0.16563553 -9.8258476 0.0 0.2554315 -9.954519300000001 0.0 0.3572897 -10.111477 0.0 0.46812293 -10.287801 0.0 0.59350532 -10.473174 0.0 0.72837907 -10.963528 0.0 4.441364599999999e-06 -10.986032000000002 0.0 0.09822910300000001 -11.052294 0.0 0.20015055 -11.16002 0.0 0.31188324 -11.305074000000001 0.0 0.43867201 -11.482216000000001 0.0 0.5771721 -11.68149 0.0 0.73474991 -11.892986 0.0 0.90310061 -12.418353999999999 0.0 -5.0412737e-06 -12.443756 0.0 0.11529563 -12.517983000000001 0.0 0.23487532 -12.638823 0.0 0.3688387 -12.801102 0.0 0.5224188 -12.998362 0.0 0.68857521 -13.220958999999999 0.0 0.88297999 -13.4578 0.0 1.0892624 -14.024957999999998 0.0 -4.9212849e-07 -14.053569 0.0 0.13099135 -14.136682999999998 0.0 0.26732126 -14.271932999999999 0.0 0.4232249 -14.452611 0.0 0.60424167 -14.67082 0.0 0.80010468 -14.916732999999999 0.0 1.0360284 -15.179032000000001 0.0 1.2889041 -15.790215 0.0 2.7949072e-06 -15.822455 0.0 0.14436044 -15.915935999999999 0.0 0.2957375 -16.067383 0.0 0.47209042 -16.267416 0.0 0.67817259 -16.509151 0.0 0.90932643 -16.778494 0.0 1.1895738999999999 -17.063685999999997 0.0 1.4962456 -17.718056 0.0 -7.388289300000001e-07 -17.754832999999998 0.0 0.1563296 -17.86075 0.0 0.32005975 -18.03141 0.0 0.51657104 -18.254234 0.0 0.74741018 -18.521685 0.0 1.0145798000000001 -18.814854 0.0 1.3415878 -19.119749 0.0 1.7074247999999999 -19.809502 0.0 1.1961104e-05 -19.8515 0.0 0.16709195 -19.973043 0.0 0.34225771 -20.166771 0.0 0.55805826 -20.418083 0.0 0.81335914 -20.714529000000002 0.0 1.1217266000000001 -21.032217000000003 0.0 1.4925832 -21.353586 0.0 1.9243441000000003 -22.063576 0.0 1.3652108000000001e-05 -22.110756 0.0 0.17445132 -22.252110000000002 0.0 0.36799753 -22.474457 0.0 0.60539538 -22.760761 0.0 0.88230497 -23.089354999999998 0.0 1.2326609 -23.43499 0.0 1.6493584 -23.772791 0.0 2.140748 -24.472919 0.0 6.7346191e-06 -24.529298999999998 0.0 0.18837988 -24.695084 0.0 0.40433985 -24.95384 0.0 0.66282755 -25.279854 0.0 0.97923106 -25.646313 0.0 1.3649353000000002 -26.024748000000002 0.0 1.8316356 -26.379028 0.0 2.3707604 -27.031727000000004 0.0 4.7135145e-06 -27.099192 0.0 0.22319812 -27.294107 0.0 0.47094679 -27.595327 0.0 0.76368469 -27.971890999999996 0.0 1.1224775 -28.383919 0.0 1.5447273000000001 -28.799582 0.0 2.0586797999999997 -29.172379 0.0 2.6511139999999997 -29.73658 0.0 5.7577272e-06 -29.816095 0.0 0.28492865 -30.04525 0.0 0.58904022 -30.397457 0.0 0.93112695 -30.834272 0.0 1.3331126 -31.302931 0.0 1.7973238999999999 -31.761526 0.0 2.3525999 -32.157471 0.0 2.9730902 -32.574333 0.0 1.0572279000000001e-05 -32.666695000000004 0.0 0.37981364 -32.932457 0.0 0.77377242 -33.338291 0.0 1.1955492 -33.83672 0.0 1.6610889 -34.370841999999996 0.0 2.1847267 -34.87402 0.0 2.7729522999999996 -35.288273 0.0 3.4111407 -35.513157 0.0 -3.9092629e-06 -35.618725 0.0 0.54205716 -35.921459000000006 0.0 1.0791263999999998 -36.380219 0.0 1.6094633 -36.942253 0.0 2.1588349 -37.533221999999995 0.0 2.7359016 -38.080238 0.0 3.3276098 -38.508308 0.0 3.9361739 -38.487606 0.0 -2.3708599e-06 -38.602013 0.0 0.77833968 -38.933277000000004 0.0 1.5260031 -39.437618 0.0 2.2218635 -40.050671 0.0 2.8683605 -40.687016 0.0 3.481092 -41.254971000000005 0.0 4.069356 -41.685432 0.0 4.632880200000001 -41.336033 0.0 -9.324430699999999e-07 -41.456825 0.0 1.1037211 -41.795021000000006 0.0 2.1565652 -42.318188 0.0 3.0692849 -42.952393 0.0 3.8321135 -43.615707 0.0 4.490158999999999 -44.192436 0.0 5.0198183 -44.611988000000004 0.0 5.4746132 -43.910213 0.0 -7.7120203e-06 -44.031624 0.0 1.5185286 -44.377834 0.0 2.9148405 -44.887291 0.0 4.0940361 -45.518917 0.0 5.0684328 -46.123657 0.0 5.7024002000000005 -46.643162 0.0 6.1145086 -47.006904999999996 0.0 6.4238458 -46.226048 0.0 9.2582195e-07 -46.310326 0.0 1.9180999 -46.610802 0.0 3.6811104 -47.07077 0.0 5.1490507 -47.657215 0.0 6.3147807 -48.225574 0.0 7.0138588 -48.642624 0.0 7.271212599999999 -48.905239 0.0 7.2451119 -48.070427 0.0 1.1460739e-05 -48.116093 0.0 2.4787357000000005 -48.353302 0.0 4.696917099999999 -48.726089 0.0 6.4563445999999995 -49.221073 0.0 7.6305652 -49.735496999999995 0.0 8.2754679 -50.069756 0.0 8.3507309 -50.28801 0.0 7.9558835000000006 -49.084216999999995 0.0 9.7881421e-06 -49.147774 0.0 3.4790335 -49.365337 0.0 6.559609399999999 -49.694134000000005 0.0 8.9210386 -49.995585999999996 0.0 10.34652 -50.271976 0.0 10.837463 -50.453831 0.0 10.477449 -50.500873999999996 0.0 9.533631300000001 -49.363007 0.0 -1.8723775e-05 -49.448665999999996 0.0 4.6502752 -49.660645 0.0 8.7894192 -49.921158 0.0 12.041677 -50.172657 0.0 14.195271 -50.292519 0.0 15.155551 -50.076473 0.0 14.965928 -49.550346000000005 0.0 13.816730999999999 -43.688694 0.0 1.1721859e-05 -43.859974 0.0 5.731585 -44.341442 0.0 10.928588000000001 -45.032291 0.0 15.187126999999998 -45.815983 0.0 18.317656 -46.572703999999995 0.0 20.346536999999998 -47.114521 0.0 21.402428 -47.255592 0.0 21.596497 -29.049774 0.0 -1.9393628e-06 -29.172302000000002 0.0 6.262383 -29.515619 0.0 11.916929 -30.011921 0.0 16.504345 -30.563314000000002 0.0 19.798166000000002 -31.060935999999998 0.0 21.805187 -31.402826 0.0 22.707676 -31.507332 0.0 22.698180999999998 -17.753189000000003 0.0 3.1820382000000003e-06 -17.826181 0.0 6.616011599999999 -18.026926 0.0 12.564567 -18.304945 0.0 17.337471 -18.589048000000002 0.0 20.677231 -18.802094 0.0 22.579975 -18.874989000000003 0.0 23.23353 -18.753748 0.0 22.848082 -9.1210918 0.0 -2.7858069999999998e-05 -9.1500874 0.0 6.8003659 -9.2259264 0.0 12.892424 -9.317824400000001 0.0 17.734707 -9.383969300000002 0.0 21.050801999999997 -9.382081 0.0 22.833042000000003 -9.2789717 0.0 23.275721 -9.053092999999999 0.0 22.601545 -1.6575418999999998 0.0 -1.2472388000000002e-05 -1.6503273 0.0 6.8383307 -1.6243352 0.0 12.946941 -1.5680822 0.0 17.768421 -1.4676778 0.0 21.01964 -1.3131843 0.0 22.696146 -1.1031388999999998 0.0 23.001163000000002 -0.84503186 0.0 22.166916 5.8483176 0.0 -1.8127902999999998e-05 5.8842854 0.0 6.758729 5.9905858 0.0 12.784891 6.1619053 0.0 17.520414000000002 6.3886523 0.0 20.68586 6.655611500000001 0.0 22.285389000000002 6.9405035999999996 0.0 22.53228 7.216302400000001 0.0 21.665754 13.792122 0.0 -1.2130184999999998e-05 13.851048 0.0 6.589057 14.021507999999999 0.0 12.458138 14.28498 0.0 17.06106 14.614323 0.0 20.12953 14.976555 0.0 21.678778 15.335669000000001 0.0 21.930717 15.656285999999998 0.0 21.127756 21.867458 0.0 -6.910995600000001e-07 21.945567999999998 0.0 6.348029599999999 22.169991 0.0 12.000937 22.512703 0.0 16.433532999999997 22.933987 0.0 19.393494 23.389791 0.0 20.90679 23.838034 0.0 21.199949 24.243763 0.0 20.513810999999997 29.51643 0.0 8.6723594e-06 29.611665999999996 0.0 6.047039 29.884396000000002 0.0 11.432673 30.299796999999998 0.0 15.659639000000002 30.809681 0.0 18.494295 31.362701 0.0 19.971432 31.914773999999998 0.0 20.31674 32.435001 0.0 19.764366 36.245899 0.0 1.8693099e-05 36.357273 0.0 5.6928401 36.676678 0.0 10.764711 37.163944 0.0 14.751120000000002 37.763527 0.0 17.438728 38.418362 0.0 18.868843 39.081081 0.0 19.261131 39.724078999999996 0.0 18.837812 40.167721 0.0 -2.0947075e-05 40.293945 0.0 5.278646 40.652725 0.0 9.9822636 41.218132000000004 0.0 13.688680999999999 41.945156 0.0 16.205019 42.781105 0.0 17.575415 43.688423 0.0 18.007334 44.643166 0.0 17.711979 41.079781 0.0 2.3090891999999998e-05 41.205963 0.0 4.8168607 41.572109000000005 0.0 9.114607800000002 42.146716999999995 0.0 12.513932 42.894119 0.0 14.846294 43.77301 0.0 16.152476999999998 44.734684 0.0 16.619938 45.760760999999995 0.0 16.44277 41.151302 0.0 4.3601613e-06 41.283726 0.0 4.3378977999999995 41.645096 0.0 8.2101974 42.233395 0.0 11.300378 42.9995 0.0 13.456907000000001 43.902046 0.0 14.71594 44.904259 0.0 15.239767 45.987839 0.0 15.200941 40.778656 0.0 6.5645727e-06 40.911449 0.0 3.8703244 41.305161 0.0 7.353536099999999 41.929718 0.0 10.161845 42.739895000000004 0.0 12.166957 43.685837 0.0 13.404147 44.735882000000004 0.0 14.020271 45.874947 0.0 14.157513 40.074585 0.0 5.1232346e-06 40.220772 0.0 3.4478805 40.645844 0.0 6.583602900000001 41.343311 0.0 9.1752214 42.237926 0.0 11.0957 43.266193 0.0 12.357203 44.397045 0.0 13.090518 45.641026000000004 0.0 13.381062 39.275131 0.0 1.1498108999999999e-05 39.44001 0.0 3.0744631 39.912052 0.0 5.891397 40.645157 0.0 8.2516394 41.595284 0.0 10.077058000000001 42.702766 0.0 11.374618 43.925079 0.0 12.215498 45.270878 0.0 12.619512 38.291634 0.0 -3.1742675e-06 38.465977 0.0 2.7209494 38.969219 0.0 5.2411151 39.760220000000004 0.0 7.417532899999999 40.77153 0.0 9.164230300000002 41.951168 0.0 10.488078 43.288231 0.0 11.395624 44.769932 0.0 11.853734 37.168468 0.0 -5.4984994e-06 37.352333 0.0 2.3825986 37.882668 0.0 4.6281095 38.715121999999994 0.0 6.6220612999999995 39.788033 0.0 8.2970381 41.053898 0.0 9.6118059 42.50351 0.0 10.541889 44.058357 0.0 11.14579 36.001984 0.0 -3.4215627e-06 36.185013 0.0 2.0963326 36.722382 0.0 4.093028100000001 37.575935 0.0 5.9263783 38.690659000000004 0.0 7.5127988 40.011990000000004 0.0 8.8240385 41.586853000000005 0.0 9.823675199999998 43.351578 0.0 10.220335 34.774387 0.0 9.3410636e-06 34.957188 0.0 1.8416974999999998 35.498211 0.0 3.6364476999999997 36.367203 0.0 5.3124504 37.507381 0.0 6.8425856 38.977356 0.0 8.055315 40.644596 0.0 8.8328886 42.618656 0.0 9.2217903 33.54678 0.0 -6.9610542e-06 33.728889 0.0 1.6492951 34.268574 0.0 3.2643614 35.165695 0.0 4.780776 36.398078999999996 0.0 6.1340737 37.906754 0.0 7.176460700000001 39.73727 0.0 7.8600087 41.905590000000004 0.0 7.9216766000000005 32.377682 0.0 9.9921308e-06 32.557911 0.0 1.4794120000000002 33.114529 0.0 2.9085739 34.039367999999996 0.0 4.229343900000001 35.294185999999996 0.0 5.377636900000001 36.945572 0.0 6.2680864000000005 38.999722 0.0 6.5866642 41.393982 0.0 6.453568 31.335918 0.0 5.655019799999999e-07 31.522753 0.0 1.3102953000000002 32.081055 0.0 2.5030982 33.027015999999996 0.0 3.6183412000000006 34.410034 0.0 4.5888124 36.190258 0.0 5.0855508 38.502968 0.0 5.1055679000000005 41.192734 0.0 5.0585904 30.398932000000002 0.0 -4.9977243e-06 30.589796000000003 0.0 1.0792965 31.189688 0.0 2.0911443 32.189575 0.0 2.9728055 33.724667 0.0 3.5660872 35.825871 0.0 3.7288547 38.440670000000004 0.0 3.7087318999999996 41.598782 0.0 3.890089 29.751759000000003 0.0 -2.6763882000000004e-07 29.899439 0.0 0.87663919 30.555025 0.0 1.6228898999999999 31.746077000000003 0.0 2.2134204 33.500854 0.0 2.4526711 35.932293 0.0 2.3652179 38.949001 0.0 2.6101127 42.939991 0.0 3.2415694999999998 29.421232 0.0 -2.9324437e-06 29.685318 0.0 0.68346524 30.479675 0.0 1.1816018 31.876903999999996 0.0 1.3941244 34.032996999999995 0.0 1.3186725000000001 36.963516 0.0 1.4248581 40.679382000000004 0.0 2.401686 45.781414 0.0 3.5773985 29.817394 0.0 4.1130115e-06 30.047949 0.0 0.54093015 31.148058000000002 0.0 0.79615265 32.946251000000004 0.0 0.7767871 35.805640999999994 0.0 0.97895861 39.332737 0.0 1.8563362 43.801272999999995 0.0 3.2383167999999998 50.019726 0.0 4.0644784 30.389146999999998 0.0 -9.426148600000001e-07 30.736408 0.0 1.0487597 31.953159000000003 0.0 2.0704284 34.575115000000004 0.0 2.5811422000000004 38.258625 0.0 2.5886989 42.539909 0.0 2.8802016 47.977848 0.0 3.2988496 54.514843000000006 0.0 4.2405982 33.450653 0.0 -1.3649696e-07 33.721275 0.0 1.1518465 34.59523 0.0 2.4450386 36.940376 0.0 3.2322316000000004 41.31459 0.0 2.6644721000000002 46.458915999999995 0.0 2.6504607000000004 52.040718 0.0 3.2509701 36.17046 0.0 -1.3487006e-06 36.483299 0.0 1.3458940000000001 37.608002 0.0 2.7238919999999998 41.195484 0.0 2.4811107999999997 45.342365 0.0 2.302273 -0.56170893 0.0 0.044814885 -0.54761899 0.0 0.059064128 -0.5261054 0.0 0.074757978 -0.49564457 0.0 0.091703326 -0.45553172 0.0 0.10798906 -0.40436029 0.0 0.1223188 -0.34246713 0.0 0.13095039 -0.75207853 0.0 0.056348335 -0.73544168 0.0 0.073832266 -0.70847595 0.0 0.09344898199999999 -0.66943526 0.0 0.11376974 -0.61661434 0.0 0.13232152 -0.54680169 0.0 0.14735472 -0.4569487 0.0 0.15520224 -0.3424089 0.0 0.17372334 -0.98762584 0.0 0.061862535999999996 -0.96849465 0.0 0.08071287 -0.93589151 0.0 0.10160062 -0.88720214 0.0 0.12331624 -0.82050622 0.0 0.14254633 -0.73098433 0.0 0.15982133 -0.61563206 0.0 0.17205429 -0.46665269 0.0 0.18905747 -1.2576610000000001 0.0 0.062962063 -1.2367219999999999 0.0 0.082284898 -1.1988486999999999 0.0 0.10408258 -1.1408817 0.0 0.12668328 -1.0604143999999998 0.0 0.14712372 -0.95197421 0.0 0.16597223 -0.81023115 0.0 0.1803546 -0.62095857 0.0 0.2018649 -1.5646211 0.0 0.061013885 -1.5430005 0.0 0.080509782 -1.5010555 0.0 0.10254444 -1.4347931999999999 0.0 0.1258312 -1.3413066999999999 0.0 0.14733189 -1.2138518 0.0 0.16788757 -1.0435146999999998 0.0 0.1855225 -0.80788815 0.0 0.21652317 -1.9149246 0.0 0.057121739000000005 -1.8942241999999998 0.0 0.07662835 -1.8499191000000001 0.0 0.098271668 -1.7768871 0.0 0.12179245 -1.6717136000000001 0.0 0.1437549 -1.5255206000000001 0.0 0.16647416 -1.3248149999999999 0.0 0.18941557 -1.0358485999999998 0.0 0.23626125 -2.3154459 0.0 0.053674899000000005 -2.2977865 0.0 0.072629377 -2.2533371 0.0 0.09317377199999999 -2.1757021 0.0 0.11630163 -2.0611637 0.0 0.13781694 -1.8973991999999997 0.0 0.16385323 -1.665903 0.0 0.19524384 -1.3173534 0.0 0.26442254 -2.7730417000000003 0.0 0.053274717 -2.7609024 0.0 0.07133998 -2.7189267000000004 0.0 0.090483442 -2.6396778 0.0 0.11265422 -2.5186255 0.0 0.13365936 -2.3391967 0.0 0.16545141 -2.0797901000000003 0.0 0.20790553 -1.6683198000000001 0.0 0.30663633 -3.2943349000000004 0.0 0.059947445999999995 -3.2904477 0.0 0.07756418 -3.2539401000000003 0.0 0.09590723400000001 -3.1761467 0.0 0.11758825 -3.052062 0.0 0.13874692 -2.8633928 0.0 0.17430902 -2.5802400000000003 0.0 0.23008156 -2.1132677 0.0 0.35724568 -3.8857547999999995 0.0 0.079075322 -3.8931177000000003 0.0 0.09743069900000001 -3.8655546000000003 0.0 0.1163004 -3.7944705 0.0 0.13596398 -3.6707091 0.0 0.15911293 -3.4794841 0.0 0.19453192 -3.185189 0.0 0.25633311 -2.6945376 0.0 0.38373184 -4.554081 0.0 0.11603516 -4.5755019 0.0 0.13776328 -4.5612283 0.0 0.15808481 -4.5009189 0.0 0.17840779 -4.3861995 0.0 0.19694364 -4.2046447 0.0 0.22509861 -3.9239957000000003 0.0 0.27991939 -3.4508171 0.0 0.38320017 -5.3070283 0.0 0.17494872 -5.3448148 0.0 0.20448951 -5.3480101 0.0 0.2275286 -5.3058209000000005 0.0 0.24897048 -5.2135415 0.0 0.26341182 -5.0543613 0.0 0.29735088 -4.8083229 0.0 0.37488532 -4.326642 0.0 0.57198763 -6.153083799999999 0.0 0.25894606 -6.2105241 0.0 0.29919159 -6.2345805 0.0 0.33510908 -6.2198281 0.0 0.37004694 -6.1664276 0.0 0.41060591 -6.052454 0.0 0.52476656 -5.8674383 0.0 0.78483486 -5.4297528 0.0 1.3320913 -7.1016898 0.0 0.37070182 -7.1818209 0.0 0.43004134 -7.2318101 0.0 0.49133319 -7.256311900000001 0.0 0.56260264 -7.264069999999999 0.0 0.66401422 -7.2449732000000004 0.0 0.8884207 -7.1735815999999994 0.0 1.3506074 -6.8996687 0.0 2.0715206000000004 -8.1625261 0.0 0.51107478 -8.2685738 0.0 0.59726006 -8.3497276 0.0 0.69491267 -8.421936 0.0 0.8120538 -8.5077257 0.0 0.98793674 -8.6163864 0.0 1.3005471000000002 -8.720033599999999 0.0 1.8541078999999998 -8.686632199999998 0.0 2.5897906 -9.3443766 0.0 0.67881948 -9.4792156 0.0 0.7973417 -9.594931599999999 0.0 0.93193817 -9.7182827 0.0 1.0972368000000001 -9.8855114 0.0 1.334095 -10.129764999999999 0.0 1.6947589 -10.430684 0.0 2.2702296000000004 -10.662502 0.0 3.0213785 -10.655119000000001 0.0 0.86913377 -10.820755 0.0 1.0250196 -10.972389 0.0 1.1965058000000002 -11.144922 0.0 1.39818 -11.390469 0.0 1.6699703000000001 -11.765089 0.0 2.0568886 -12.255099000000001 0.0 2.6480236 -12.743319999999999 0.0 3.4231602999999997 -12.103477 0.0 1.0834326 -12.298928 0.0 1.2771477 -12.485136 0.0 1.4827255 -12.705947 0.0 1.7104417 -13.026863 0.0 2.0070338 -13.526039 0.0 2.4032278 -14.192992000000002 0.0 3.0145707 -14.90564 0.0 3.8319777999999998 -13.695651000000002 0.0 1.3132607 -13.918595999999999 0.0 1.546459 -14.137476000000001 0.0 1.7846868000000002 -14.404243 0.0 2.0372758 -14.802588 0.0 2.3503119999999997 -15.431754999999999 0.0 2.7481183999999996 -16.277912 0.0 3.3845181 -17.198229 0.0 4.2640476 -15.439865 0.0 1.5576463 -15.685163000000001 0.0 1.8352568 -15.930746 0.0 2.1083114 -16.241575 0.0 2.3844316 -16.730964999999998 0.0 2.6988165 -17.495835999999997 0.0 3.1074686000000002 -18.544437 0.0 3.7693214 -19.69602 0.0 4.7174625 -17.343538 0.0 1.814126 -17.604107 0.0 2.1437917 -17.868071 0.0 2.458087 -18.218504 0.0 2.7610507 -18.798820000000003 0.0 3.0813875 -19.719946 0.0 3.4925621 -21.00522 0.0 4.1764116 -22.43413 0.0 5.1994586 -19.414354 0.0 2.0804110000000002 -19.681387 0.0 2.4712355 -19.953215 0.0 2.8341322 -20.334406 0.0 3.1728041 -21.005592 0.0 3.5081787 -22.102016 0.0 3.923285 -23.663097 0.0 4.6201925 -25.4132 0.0 5.7320910000000005 -21.659273000000002 0.0 2.3554199000000002 -21.922226000000002 0.0 2.8153675 -22.189255 0.0 3.2344182 -22.588535 0.0 3.6196532 -23.346739000000003 0.0 3.9836369 -24.637562 0.0 4.4120359 -26.518156 0.0 5.1181339999999995 -28.65527 0.0 6.3034511 -24.083382 0.0 2.6417627 -24.332033 0.0 3.172554 -24.580854000000002 0.0 3.6515421999999997 -24.982443 0.0 4.0991192000000005 -25.820726 0.0 4.508082900000001 -27.324234000000004 0.0 4.9730476999999995 -29.572577000000003 0.0 5.6923184000000004 -32.170071 0.0 6.9348464000000005 -26.6903 0.0 2.9441977 -26.915604 0.0 3.5414790999999997 -27.129234000000004 0.0 4.0868669 -27.518509 0.0 4.6008234 -28.430346999999998 0.0 5.0721178 -30.161602000000002 0.0 5.6053963 -32.83424 0.0 6.3681059 -35.982529 0.0 7.6608262 -29.480546999999998 0.0 3.2699752 -29.673878000000002 0.0 3.9215205 -29.837957 0.0 4.528626 -30.199416999999997 0.0 5.1211352 -31.181454 0.0 5.6618285 -33.159286 0.0 6.308116 -36.320347 0.0 7.1749296000000005 -40.140621 0.0 8.512855499999999 -32.443993 0.0 3.6267896 -32.595657 0.0 4.3073182 -32.701412 0.0 4.964264900000001 -33.027824 0.0 5.633905400000001 -34.072078999999995 0.0 6.266426099999999 -36.329357 0.0 7.070002099999999 -40.0541 0.0 8.139501600000001 -44.714698999999996 0.0 9.5347319 -35.563107 0.0 4.0692401 -35.666843 0.0 4.7636995 -35.707912 0.0 5.4406171 -35.994259 0.0 6.1678367 -37.099731 0.0 6.892280099999999 -39.660796999999995 0.0 7.9014702 -44.041466 0.0 9.300369300000002 -49.76495 0.0 10.772791999999999 -38.765862 0.0 4.5654664 -38.827751 0.0 5.2207398000000005 -38.804516 0.0 5.900712 -39.031414 0.0 6.7195697 -40.220608 0.0 7.4913163 -43.106289000000004 0.0 8.829301800000001 -48.226242 0.0 10.710681 -55.254887 0.0 12.284716 -41.913658 0.0 5.1869178 -41.93568 0.0 5.6854724999999995 -41.864959999999996 0.0 6.304969799999999 -42.098713000000004 0.0 7.0012832 -43.310837 0.0 8.1403008 -46.518925 0.0 9.9225378 -52.411339 0.0 12.423404 -60.943977000000004 0.0 14.25785 -44.783295 0.0 5.8885427 -44.747585 0.0 6.305456200000001 -44.668877 0.0 6.6553607 -44.983429 0.0 7.287799799999999 -46.322796000000004 0.0 8.5305862 -49.68103 0.0 11.255766 -56.295017 0.0 14.535452 -66.42059300000001 0.0 17.082613000000002 -47.130314 0.0 6.623140299999999 -47.076640999999995 0.0 6.834260899999999 -47.020039000000004 0.0 7.1508493 -47.390549 0.0 7.675711200000001 -49.071651 0.0 8.982156800000002 -52.837414 0.0 12.107553 -59.662514 0.0 17.196455 -71.109116 0.0 20.957635999999997 -48.963173 0.0 7.1552811 -48.875336 0.0 7.18505 -48.759665999999996 0.0 7.395463499999999 -49.289032 0.0 8.0877495 -51.142899 0.0 9.8541231 -55.262501 0.0 13.706785 -62.35607099999999 0.0 20.790297 -74.19453399999999 0.0 26.569296 -50.357903 0.0 7.4415746 -50.295609000000006 0.0 7.126649900000001 -50.200759999999995 0.0 7.2447906 -50.686417 0.0 7.978614299999999 -52.610096 0.0 10.306339 -56.873692000000005 0.0 15.303026000000001 -63.839664 0.0 25.469227 -75.753304 0.0 33.88879 -50.659477 0.0 8.6246729 -50.582237 0.0 7.8838553 -50.607334 0.0 7.7179575 -51.168743 0.0 8.4584312 -53.194023 0.0 11.563316 -57.742268 0.0 17.05583 -64.096466 0.0 28.733412 -75.184624 0.0 42.119766 -49.173702 0.0 12.557232 -48.944744 0.0 11.582284 -48.821117 0.0 11.110385 -49.66135 0.0 11.772912 -52.724422 0.0 13.952065 -57.729427 0.0 18.454071 -61.989684999999994 0.0 31.294659000000003 -65.331253 0.0 46.003475 -46.987274 0.0 20.903195999999998 -46.476425 0.0 19.741676000000002 -45.76976 0.0 18.581129 -45.380767999999996 0.0 16.012220000000003 -45.595657 0.0 15.943804 -45.201912 0.0 20.354277 -44.389061 0.0 34.952599 -43.590839 0.0 49.673512 -31.321131 0.0 21.785677 -30.834190000000003 0.0 20.216969 -30.096272999999997 0.0 18.403736 -29.125326 0.0 15.233569000000001 -28.160453999999998 0.0 14.845291 -27.124908 0.0 21.3361 -26.186075 0.0 37.819359000000006 -25.470118 0.0 54.48154399999999 -18.405064000000003 0.0 21.463554000000002 -17.826988 0.0 19.355825 -17.064285 0.0 17.013624 -16.194677 0.0 13.803417999999999 -15.306992999999999 0.0 14.194517000000001 -14.495095000000001 0.0 21.230798999999998 -13.833941000000001 0.0 40.551643 -13.363829999999998 0.0 58.194618000000006 -8.6968517 0.0 20.873148 -8.2200785 0.0 18.400219 -7.6574364 0.0 15.800510000000001 -7.070436999999999 0.0 12.908964 -6.5358644 0.0 13.974228 -6.123745400000001 0.0 21.352460999999998 -5.8633175 0.0 42.451065 -5.7325563 0.0 60.667122 -0.5540241 0.0 20.270134 -0.25054142 0.0 17.649515 0.041363657000000005 0.0 15.181137 0.28632751 0.0 12.722599 0.4396044 0.0 13.869153 0.46831208 0.0 21.667574 0.37999511 0.0 44.005695 0.2276472 0.0 61.985928 7.4544067 0.0 19.767687 7.6291394 0.0 17.194809 7.7246728000000004 0.0 14.894764000000002 7.7300935 0.0 13.158083999999999 7.6350803 0.0 14.309204999999999 7.440282799999999 0.0 22.209753 7.1720648 0.0 44.587696 6.888662299999999 0.0 62.299530000000004 15.906494 0.0 19.349546 16.06138 0.0 16.949448 16.110607 0.0 14.885247 16.05794 0.0 13.620192000000001 15.91505 0.0 14.936822 15.700926999999998 0.0 22.486492000000002 15.442356 0.0 44.152423999999996 15.188964000000002 0.0 61.586884 24.579345999999997 0.0 18.920513 24.825314000000002 0.0 16.753473 24.973701000000002 0.0 14.943735 25.030544 0.0 14.041873999999998 25.011122 0.0 15.391236 24.934296 0.0 22.510141 24.816963 0.0 43.137012 24.701183 0.0 60.213843999999995 32.904171000000005 0.0 18.375544 33.310139 0.0 16.454754 33.645481 0.0 14.885214999999999 33.909649 0.0 14.279694000000001 34.106964000000005 0.0 15.660062 34.242859 0.0 22.279221 34.321037 0.0 41.764 34.382481 0.0 58.292033999999994 40.33709 0.0 17.647033999999998 40.915527000000004 0.0 15.960198000000002 41.452999 0.0 14.604113 41.791939 0.0 14.034965 42.366535 0.0 15.779589999999999 42.718445 0.0 21.80505 42.987946 0.0 40.269341 43.217987 0.0 55.893555000000006 45.641895 0.0 16.727484 46.615326 0.0 15.277175 47.648212 0.0 14.103537 48.260231 0.0 13.557057 49.115425 0.0 15.648494 49.853737 0.0 21.313145000000002 50.130764 0.0 38.706856 50.499969 0.0 53.198376 46.870152000000004 0.0 15.681494 48.027565 0.0 14.536025 49.393634999999996 0.0 13.617289999999999 51.333908 0.0 12.868995 53.610172 0.0 14.868388000000001 55.054683999999995 0.0 20.460909 55.443687 0.0 36.74921 55.857032999999994 0.0 50.118553000000006 47.122345 0.0 14.666234 48.327721000000004 0.0 13.85591 49.700012 0.0 13.164132 51.680901 0.0 12.694124 55.194729 0.0 14.16734 58.523891000000006 0.0 19.412086 59.091038 0.0 34.2057 59.69823100000001 0.0 46.532478000000005 47.09621 0.0 13.857087 48.374645 0.0 13.319864 49.830509 0.0 12.795693 51.77623 0.0 12.617336 55.061096 0.0 13.624505 60.008472 0.0 18.26437 61.952602 0.0 31.445057000000002 63.071743000000005 0.0 42.758278000000004 46.963882 0.0 13.251423999999998 48.344547 0.0 12.823803999999999 49.902245 0.0 12.371758 51.814789000000005 0.0 12.426044000000001 54.925613 0.0 13.111521 60.199387 0.0 17.153801 64.773514 0.0 28.537461999999998 67.270554 0.0 39.686569 46.742683 0.0 12.607904 48.18187 0.0 12.351975999999999 49.760063 0.0 12.274622 51.977385999999996 0.0 12.02374 55.116772 0.0 12.568469 60.624320999999995 0.0 15.994426 67.964233 0.0 25.572763000000002 73.241394 0.0 37.536182000000004 46.338459 0.0 11.944874 48.013259999999995 0.0 11.887630999999999 49.849949 0.0 11.585752000000001 52.126366 0.0 11.361523 55.615871 0.0 12.066158999999999 61.570229000000005 0.0 14.938392000000002 71.760902 0.0 23.343018 81.607239 0.0 33.423637 45.846588 0.0 11.225224 47.769897 0.0 11.05306 49.817627 0.0 10.643231 52.448864 0.0 10.861971 56.376675 0.0 11.727463 63.545853 0.0 14.099872 75.74895500000001 0.0 20.911419 90.148697 0.0 27.02882 45.338802 0.0 10.278077 47.421688 0.0 9.9363213 49.829071 0.0 9.7303295 52.986309 0.0 10.243979 57.745723999999996 0.0 11.047608 66.19034599999999 0.0 13.397132000000001 79.748901 0.0 18.865686 95.562561 0.0 23.076818 44.77721 0.0 9.0290928 47.192603999999996 0.0 8.7631731 50.108276000000004 0.0 8.8185959 54.070274 0.0 9.365936300000001 59.710663000000004 0.0 10.22232 69.385857 0.0 12.719595 84.332397 0.0 17.390048999999998 44.327591 0.0 7.6514087 47.199509 0.0 7.5299954 50.837784 0.0 7.7610497 55.605251 0.0 8.233241099999999 62.525688 0.0 9.1090202 73.861 0.0 12.031916 88.951706 0.0 16.152224 44.202911 0.0 6.338250599999999 47.715691 0.0 6.3677845 52.119392 0.0 6.6835241 58.069556999999996 0.0 7.2706479999999996 66.534355 0.0 8.5555906 79.378967 0.0 11.989371 44.551376 0.0 5.1162219 48.844165999999994 0.0 5.3666749000000005 54.333199 0.0 5.964097 61.788895 0.0 6.8817697 72.138817 0.0 9.0661297 84.774384 0.0 12.253108000000001 45.691437 0.0 4.236668099999999 51.122746 0.0 5.010069799999999 58.090968999999994 0.0 5.9439549000000005 67.004723 0.0 7.4295549 78.18731700000001 0.0 10.153425 48.308353000000004 0.0 4.242138400000001 55.08263 0.0 5.257253599999999 63.47029499999999 0.0 6.8474069 72.92617800000001 0.0 8.7056799 52.487235999999996 0.0 4.6690044 60.209862 0.0 6.108250599999999 69.274239 0.0 8.1033182 77.177193 0.0 9.0797024 57.144096 0.0 5.1185431 65.289909 0.0 6.703011999999999 61.50668 0.0 5.4334326 
StrainDot 3 2975 float
0.0 0.0 0.0 0.0 0.0 0.0 0.0 0.0 0.0 0.0 0.0 0.0 0.0 0.0 0.0 0.0 0.0 0.0 0.0 0.0 0.0 0.0 0.0 0.0 0.0 0.0 0.0 0.0 0.0 0.0 0.0 0.0 0.0 0.0 0.0 0.0 0.0 0.0 0.0 -1.5144228e-07 0.0 -4.0328178e-08 -4.133742599999999e-21 0.0 -1.7294731e-21 -7.183430200000001e-07 0.0 -2.9555702e-07 -5.1770694e-06 0.0 -1.6689112e-06 -1.2416378e-06 0.0 -6.2784011e-07 -9.1274223e-06 0.0 -4.4520634e-06 -3.1104046e-05 0.0 -1.1642666e-05 -9.912691e-06 0.0 -5.8766873e-06 -3.8504168e-05 0.0 -2.1424599e-05 -0.00010123465 0.0 -4.2765532e-05 -3.3674081e-05 0.0 -2.2846103e-05 -0.00010152309000000002 0.0 -6.371949e-05 -0.00023584282999999999 0.0 -0.0001115351 -7.5751675e-05 0.0 -5.8778725e-05 -0.00020169296000000002 0.0 -0.00014300477 -0.00043885165000000004 0.0 -0.00023299002 -0.00013199997 0.0 -0.00011748337 -0.00032997242 0.0 -0.00026474857999999994 -0.0006937288000000001 0.0 -0.00041402212999999997 -0.00019336292000000002 0.0 -0.00019684531000000003 -0.00046970553 0.0 -0.00042428583 -0.0009713805 0.0 -0.0006477174500000001 -0.00025219287 0.0 -0.00028931414 -0.00060781901 0.0 -0.00060758181 -0.0012495525 0.0 -0.0009134566099999999 -0.00030810456 0.0 -0.00038577869 -0.0007453390299999999 0.0 -0.0007980824400000001 -0.00153225 0.0 -0.0011867591 -0.00037022459 0.0 -0.00048057894999999995 -0.00090126449 0.0 -0.0009857557 -0.0018546978 0.0 -0.0014535976 -0.0004571797 0.0 -0.0005743936099999999 -0.0011155045 0.0 -0.0011722884 -0.0022902952 0.0 -0.0017182764999999999 -0.00059902074 0.0 -0.00067522761 -0.0014533629999999998 0.0 -0.0013739235000000002 -0.0029579776000000003 0.0 -0.0020070485999999998 -0.00084173336 0.0 -0.0008024921400000001 -0.0020119285000000002 0.0 -0.0016305165 -0.0040298072 0.0 -0.0023794672 -0.001258489 0.0 -0.0010048491 -0.0029329737 0.0 -0.0020274499 -0.005741194399999999 0.0 -0.0029494946 -0.0019521951000000001 0.0 -0.0013991628 -0.0043684579 0.0 -0.0027304678 -0.0083078118 0.0 -0.0039139008 -0.0029968440000000002 0.0 -0.0022472413 -0.00630575 0.0 -0.0040381872 -0.011626573000000001 0.0 -0.005586558 -0.0084665865 0.0 -0.0064242287 -0.015172818999999999 0.0 -0.0084151104 0.0 0.0 0.0 0.0 0.0 0.0 0.0 0.0 0.0 0.0 0.0 0.0 0.0 0.0 0.0 0.0 0.0 0.0 0.0 0.0 0.0 0.0 0.0 0.0 0.0 0.0 0.0 0.0 0.0 0.0 0.0 0.0 0.0 0.0 0.0 0.0 0.0 0.0 0.0 0.0 0.0 0.0 0.0 0.0 0.0 0.0 0.0 0.0 0.0 0.0 0.0 0.0 0.0 0.0 0.0 0.0 0.0 0.0 0.0 0.0 0.0 0.0 0.0 0.0 0.0 0.0 0.0 0.0 0.0 0.0 0.0 0.0 0.0 0.0 0.0 -3.1630715999999996e-08 0.0 -2.7337663e-09 -2.0908844e-07 0.0 -9.2297796e-09 -5.062928499999999e-07 0.0 -8.3045393e-09 -7.644605400000001e-07 0.0 -8.4428109e-10 -9.034679399999999e-07 0.0 2.275365e-09 -9.9562749e-07 0.0 2.6693177e-09 -1.064994e-06 0.0 2.7301525e-09 -1.3953871e-06 0.0 -2.5529681e-07 -4.8023626e-06 0.0 -5.5191288e-07 -1.066141e-05 0.0 -7.1287201e-07 -1.8133242e-05 0.0 -6.1295782e-07 -2.5650274e-05 0.0 -2.9152383000000003e-07 -3.1808657e-05 0.0 7.279027900000001e-08 -3.604337e-05 0.0 2.8546845e-07 -3.8772967e-05 0.0 3.2563133e-07 -1.6800421e-05 0.0 -3.6644465e-06 -3.801709e-05 0.0 -5.2075202e-06 -6.866199e-05 0.0 -5.5547725e-06 -0.00010520472 0.0 -4.4743642e-06 -0.00014191653 0.0 -2.2868567e-06 -0.00017361046000000002 0.0 1.7706386999999998e-07 -0.00019778407 0.0 2.0204707e-06 -0.00021467087000000002 0.0 2.8761992e-06 -7.464665399999999e-05 0.0 -1.8729137e-05 -0.00014464762 0.0 -2.2740725000000002e-05 -0.00023960942000000003 0.0 -2.2324222e-05 -0.00034966029000000004 0.0 -1.7281734e-05 -0.00045955612 0.0 -8.755695500000001e-06 -0.0005558123200000001 0.0 6.1689792e-07 -0.0006316106900000001 0.0 7.9433376e-06 -0.00068673928 0.0 1.1904441e-05 -0.00021296258999999997 0.0 -5.9948783000000005e-05 -0.00038308959 0.0 -6.7423774e-05 -0.0006071381500000001 0.0 -6.3345498e-05 -0.0008625600599999999 0.0 -4.7783280000000006e-05 -0.0011160912 0.0 -2.3716161999999998e-05 -0.001338842 0.0 2.2625977000000003e-06 -0.0015162431 0.0 2.2869313e-05 -0.0016473616 0.0 3.4586468e-05 -0.00046341552000000004 0.0 -0.00014548971 -0.0008007632600000001 0.0 -0.00015695719 -0.0012381611 0.0 -0.00014370072 -0.0017318095000000001 0.0 -0.00010628738000000001 -0.0022182295 0.0 -5.1335934e-05 -0.0026441049 0.0 6.9178463e-06 -0.0029838106 0.0 5.3166463000000005e-05 -0.0032361187 0.0 8.0019345e-05 -0.00083080557 0.0 -0.00029203677000000003 -0.0014042823999999999 0.0 -0.00030782944 -0.0021418273 0.0 -0.00027730528 -0.0029674717 0.0 -0.00020138749 -0.0037727986999999998 0.0 -9.3708724e-05 -0.0044721025 0.0 1.7837748999999998e-05 -0.0050276415 0.0 0.0001055184 -0.0054395054 0.0 0.00015665261999999998 -0.0012875744 0.0 -0.0005075454799999999 -0.0021501458 0.0 -0.00052801985 -0.0032515693 0.0 -0.0004700319 -0.0044727069 0.0 -0.00033425051 -0.005647359 0.0 -0.00014771985 -0.0066568288 0.0 3.953329e-05 -0.0074530803000000005 0.0 0.00018424111000000002 -0.008039291 0.0 0.00026814951 -0.001784427 0.0 -0.0007839457799999999 -0.0029580223 0.0 -0.00080853474 -0.004438275 0.0 -0.00070894742 -0.0022828358 0.0 -0.0010951983 -0.0037617481 0.0 -0.0011201072 -0.0027924934 0.0 -0.0014094078 -0.0045822719 0.0 -0.0014251709 -0.0033743731 0.0 -0.0017102798000000002 -0.0055207638 0.0 -0.0017092342 -0.0041452758 0.0 -0.002005605 -0.0067366138 0.0 -0.001982522 -0.0052911458 0.0 -0.0023294014 -0.0084790755 0.0 -0.0022802046 -0.007073028 0.0 -0.0027527611 -0.011085475 0.0 -0.0026719442 -0.0098319817 0.0 -0.0034049553999999996 -0.014970108000000001 0.0 -0.0032812676000000002 -0.013871785 0.0 -0.0045052385 -0.020493034 0.0 -0.0043199239000000006 -0.019071038999999998 0.0 -0.0063997172 -0.027577892000000003 0.0 -0.006136090500000001 -0.024680141000000003 0.0 -0.0095612407 -0.035444811 0.0 -0.0092267115 0.0 0.0 0.0 0.0 0.0 0.0 0.0 0.0 0.0 0.0 0.0 0.0 0.0 0.0 0.0 0.0 0.0 0.0 0.0 0.0 0.0 0.0 0.0 0.0 0.0 0.0 0.0 0.0 0.0 0.0 0.0 0.0 0.0 0.0 0.0 0.0 0.0 0.0 0.0 0.0 0.0 0.0 0.0 0.0 0.0 0.0 0.0 0.0 0.0 0.0 0.0 0.0 0.0 0.0 0.0 0.0 0.0 0.0 0.0 0.0 0.0 0.0 0.0 0.0 0.0 0.0 0.0 0.0 0.0 0.0 0.0 0.0 0.0 0.0 0.0 0.0 0.0 0.0 0.0 0.0 0.0 -1.1144506e-06 0.0 2.5569746e-09 -1.1475752e-06 0.0 2.2445485e-09 -1.1680885e-06 0.0 1.8869077e-09 -1.1794601000000002e-06 0.0 1.5439403e-09 -1.1846671999999999e-06 0.0 1.2250236e-09 -1.1860745e-06 0.0 9.4932862e-10 -1.1854885e-06 0.0 7.2738232e-10 -1.1842138999999998e-06 0.0 5.6385968e-10 -1.1831187e-06 0.0 4.6502324e-10 -4.0692095e-05 0.0 3.1143178999999996e-07 -4.2012398000000006e-05 0.0 2.7919037e-07 -4.286095999999999e-05 0.0 2.3865883e-07 -4.335941799999999e-05 0.0 1.9687135000000002e-07 -4.3614719999999996e-05 0.0 1.5791985999999997e-07 -4.371483e-05 0.0 1.2403432e-07 -4.3728064999999997e-05 0.0 9.6491789e-08 -4.3704258e-05 0.0 7.6281083e-08 -4.3677115e-05 0.0 6.3955071e-08 -0.00022594599999999998 0.0 2.9239727e-06 -0.00023357215 0.0 2.6612506e-06 -0.00023854153999999998 0.0 2.3029911e-06 -0.00024152097 0.0 1.9184586e-06 -0.00024310326 0.0 1.5524525e-06 -0.00024378057999999996 0.0 1.2311036999999998e-06 -0.00024393847000000001 0.0 9.695418199999999e-07 -0.00024386084 0.0 7.770054300000001e-07 -0.00024374039 0.0 6.5939656e-07 -0.0007246666900000001 0.0 1.2873568e-05 -0.00074984977 0.0 1.2005842e-05 -0.00076617394 0.0 1.0497769e-05 -0.0007760255199999999 0.0 8.8192119e-06 -0.00078131561 0.0 7.190820700000001e-06 -0.0007836360000000001 0.0 5.7477859999999995e-06 -0.00078423781 0.0 4.5683923e-06 -0.00078404613 0.0 3.698907e-06 -0.00078368955 0.0 3.1671618000000003e-06 -0.0017390634 0.0 3.8183542e-05 -0.0018004227 0.0 3.6462687000000004e-05 -0.001839696 0.0 3.2194534e-05 -0.0018632871 0.0 2.7239053e-05 -0.0018758739000000002 0.0 2.2349635e-05 -0.001881313 0.0 1.7977545000000002e-05 -0.0018826321 0.0 1.4389028e-05 -0.0018820695999999999 0.0 1.1738516e-05 -0.0018811467000000002 0.0 1.0116139e-05 -0.0034135154 0.0 8.8913192e-05 -0.0035325761 0.0 8.5803164e-05 -0.0036083045000000003 0.0 7.648484499999999e-05 -0.0036530697 0.0 6.5076587e-05 -0.0036763907 0.0 5.3661868e-05 -0.0036859054 0.0 4.3374777e-05 -0.0036875829 0.0 3.4897635e-05 -0.0036858284999999997 0.0 2.8624731999999998e-05 -0.0036836306 0.0 2.4781986000000003e-05 -0.0057284362 0.0 0.00017401036 -0.0059214463 0.0 0.0001684937 -0.0060429578 0.0 0.00015104449 -0.0061130086 0.0 0.00012903547 -0.0061478149 0.0 0.00010678389999999999 -0.006160283000000001 0.0 8.660974700000001e-05 -0.006160439 0.0 6.9931331e-05 -0.006155642199999999 0.0 5.7570454e-05 -0.0061508617 0.0 4.9993436e-05 -0.0084467949 0.0 0.00029649239 -0.0087154908 0.0 0.0002869931 -0.0088812532 0.0 0.00025780371 -0.0089730686 0.0 0.00022082296000000003 -0.0090148114 0.0 0.00018316686000000002 -0.009025592399999999 0.0 0.00014888693 -0.009020119 0.0 0.00012048086999999999 -0.0090091089 0.0 9.9404555e-05 -0.0089997575 0.0 8.6479544e-05 0.0 0.0 0.0 0.0 0.0 0.0 0.0 0.0 0.0 0.0 0.0 0.0 0.0 0.0 0.0 0.0 0.0 0.0 0.0 0.0 0.0 0.0 0.0 0.0 0.0 0.0 0.0 0.0 0.0 0.0 0.0 0.0 0.0 0.0 0.0 0.0 0.0 0.0 0.0 0.0 0.0 0.0 0.0 0.0 0.0 0.0 0.0 0.0 0.0 0.0 0.0 0.0 0.0 0.0 0.0 0.0 0.0 0.0 0.0 0.0 0.0 0.0 0.0 0.0 0.0 0.0 0.0 0.0 0.0 0.0 0.0 0.0 -1.1826995e-06 0.0 4.3176375999999996e-10 -1.1831186e-06 0.0 4.650203e-10 -1.1842138999999998e-06 0.0 5.6386096e-10 -1.1854886e-06 0.0 7.273846e-10 -1.1860746999999999e-06 0.0 9.4933128e-10 -1.1846673e-06 0.0 1.2250261e-09 -1.1794601000000002e-06 0.0 1.5439372e-09 -1.1680885e-06 0.0 1.8869029e-09 -4.3665968000000004e-05 0.0 5.9805139e-08 -4.3677115e-05 0.0 6.3955071e-08 -4.370425100000001e-05 0.0 7.6281133e-08 -4.3728058000000004e-05 0.0 9.649198800000001e-08 -4.3714837e-05 0.0 1.2403456e-07 -4.3614727e-05 0.0 1.5791989e-07 -4.3359421e-05 0.0 1.9687117e-07 -4.2860964e-05 0.0 2.3865871e-07 -0.00024368814999999999 0.0 6.198865799999999e-07 -0.00024374037 0.0 6.5939713e-07 -0.00024386091 0.0 7.770064499999999e-07 -0.00024393843999999997 0.0 9.6954273e-07 -0.00024378055 0.0 1.2311045e-06 -0.00024310326 0.0 1.5524528e-06 -0.00024152098999999998 0.0 1.9184579e-06 -0.00023854150000000003 0.0 2.3029903999999997e-06 -0.0007835311099999998 0.0 2.9883829e-06 -0.00078368967 0.0 3.1671641e-06 -0.00078404619 0.0 3.6989112999999998e-06 -0.0007842381 0.0 4.568396e-06 -0.00078363594 0.0 5.7477896e-06 -0.0007813156699999999 0.0 7.190820700000001e-06 -0.0007760255199999999 0.0 8.8192119e-06 -0.00076617394 0.0 1.0497769e-05 -0.0018807434 0.0 9.570221699999999e-06 -0.0018811462 0.0 1.0116146e-05 -0.0018820689 0.0 1.1738525999999999e-05 -0.0018826319 0.0 1.4389038000000001e-05 -0.0018813128 0.0 1.7977549e-05 -0.0018758742 0.0 2.2349636999999998e-05 -0.0018632871 0.0 2.7239056999999997e-05 -0.0018396960999999999 0.0 3.219453e-05 -0.0036827105 0.0 2.3488286e-05 -0.0036836306 0.0 2.4782001e-05 -0.0036858290000000003 0.0 2.8624749e-05 -0.0036875831 0.0 3.4897657e-05 -0.0036859042 0.0 4.3374788e-05 -0.0036763898 0.0 5.3661875e-05 -0.003653069 0.0 6.5076587e-05 -0.0036083031 0.0 7.648485899999999e-05 -0.006148958100000001 0.0 4.7442103e-05 -0.0061508599 0.0 4.9993465e-05 -0.0061556427 0.0 5.7570505e-05 -0.006160439 0.0 6.993133899999999e-05 -0.0061602825 0.0 8.660975399999999e-05 -0.0061478163 0.0 0.00010678393 -0.0061130091000000004 0.0 0.00012903549999999998 -0.0060429596 0.0 0.00015104453000000002 -0.0089961952 0.0 8.2127161e-05 -0.0089997584 0.0 8.647958000000001e-05 -0.0090091107 0.0 9.9404628e-05 -0.0090201199 0.0 0.00012048097 -0.0090255952 0.0 0.00014888698999999999 -0.009014817900000001 0.0 0.00018316694 -0.0089730704 0.0 0.00022082296000000003 -0.0088812523 0.0 0.0002578038 0.0 0.0 0.0 0.0 0.0 0.0 0.0 0.0 0.0 0.0 0.0 0.0 0.0 0.0 0.0 0.0 0.0 0.0 0.0 0.0 0.0 0.0 0.0 0.0 0.0 0.0 0.0 0.0 0.0 0.0 0.0 0.0 0.0 0.0 0.0 0.0 0.0 0.0 0.0 0.0 0.0 0.0 0.0 0.0 0.0 0.0 0.0 0.0 0.0 0.0 0.0 0.0 0.0 0.0 0.0 0.0 0.0 0.0 0.0 0.0 0.0 0.0 0.0 0.0 0.0 0.0 0.0 0.0 0.0 0.0 0.0 0.0 0.0 0.0 0.0 0.0 0.0 0.0 0.0 0.0 0.0 -1.1475751000000001e-06 0.0 2.2445485e-09 -1.1144508000000001e-06 0.0 2.5569791e-09 -1.0649942e-06 0.0 2.7301585e-09 -9.9562783e-07 0.0 2.6693223e-09 -9.034679399999999e-07 0.0 2.2753615e-09 -7.644605899999999e-07 0.0 -8.4428065e-10 -5.0629296e-07 0.0 -8.3045384e-09 -2.0908844e-07 0.0 -9.2297823e-09 -3.1630726000000006e-08 0.0 -2.7337672e-09 -4.2012386999999995e-05 0.0 2.791904e-07 -4.0692099e-05 0.0 3.1143216e-07 -3.8772963e-05 0.0 3.2563181999999997e-07 -3.6043359e-05 0.0 2.8546881e-07 -3.1808653e-05 0.0 7.279034299999999e-08 -2.5650272e-05 0.0 -2.9152389000000003e-07 -1.8133243e-05 0.0 -6.129580999999999e-07 -1.0661412e-05 0.0 -7.1287212e-07 -4.8023626e-06 0.0 -5.5191288e-07 -0.00023357217999999996 0.0 2.661252e-06 -0.00022594605 0.0 2.9239757000000002e-06 -0.00021467092 0.0 2.8762017000000003e-06 -0.0001977841 0.0 2.0204736e-06 -0.00017361048 0.0 1.7706557e-07 -0.00014191656 0.0 -2.2868571e-06 -0.00010520476 0.0 -4.474365099999999e-06 -6.866199e-05 0.0 -5.5547735e-06 -3.8017086e-05 0.0 -5.2075211000000004e-06 -0.00074984966 0.0 1.200585e-05 -0.00072466664 0.0 1.2873576000000001e-05 -0.00068673928 0.0 1.1904450999999999e-05 -0.0006316108599999999 0.0 7.9433457e-06 -0.00055581244 0.0 6.1690787e-07 -0.00045955612 0.0 -8.7556909e-06 -0.00034966019999999997 0.0 -1.7281742e-05 -0.00023960944 0.0 -2.2324229999999998e-05 -0.00014464762 0.0 -2.2740729e-05 -0.0018004222 0.0 3.646269e-05 -0.0017390639000000002 0.0 3.8183567e-05 -0.0016473619 0.0 3.4586479e-05 -0.0015162433 0.0 2.2869348e-05 -0.0013388420999999998 0.0 2.2626211e-06 -0.0011160914 0.0 -2.3716156999999997e-05 -0.00086256 0.0 -4.7783291e-05 -0.00060713832 0.0 -6.334551300000001e-05 -0.00038308962 0.0 -6.7423804e-05 -0.0035325753999999997 0.0 8.5803185e-05 -0.0034135148999999997 0.0 8.891325000000001e-05 -0.0032361196 0.0 8.0019374e-05 -0.0029838108 0.0 5.3166517000000007e-05 -0.0026441042 0.0 6.9179023e-06 -0.0022182295 0.0 -5.1335908e-05 -0.0017318097 0.0 -0.00010628738000000001 -0.0012381615 0.0 -0.00014370076000000002 -0.0008007637200000001 0.0 -0.00015695723 -0.0059214453000000005 0.0 0.00016849383000000002 -0.0057284366 0.0 0.00017401043 -0.0054395054 0.0 0.00015665275 -0.0050276448 0.0 0.00010551855 -0.004472102 0.0 1.7837885e-05 -0.0037727996 0.0 -9.3708695e-05 -0.0029674729 0.0 -0.00020138749 -0.0021418277 0.0 -0.00027730543 -0.0014042829 0.0 -0.00030782967 -0.0087154927 0.0 0.00028699313 -0.0084467959 0.0 0.00029649262000000005 -0.0080392901 0.0 0.00026814947999999995 -0.0074530812 0.0 0.00018424141 -0.0066568288 0.0 3.9533428e-05 -0.0056473603 0.0 -0.00014771977 -0.0044727073999999995 0.0 -0.00033425047999999995 -0.0032515707 0.0 -0.00047003219000000006 -0.0021501463 0.0 -0.0005280200900000001 -0.0044382740999999995 0.0 -0.00070894766 -0.0029580232000000002 0.0 -0.0008085350900000001 -0.0037617491999999996 0.0 -0.0011201076 -0.0045822714 0.0 -0.0014251713000000001 -0.0055207629 0.0 -0.0017092342 -0.006736614300000001 0.0 -0.0019825213 -0.0084790774 0.0 -0.0022802053 -0.011085477 0.0 -0.0026719444 -0.014970111000000001 0.0 -0.0032812678000000003 -0.020493038 0.0 -0.0043199244 -0.027577894 0.0 -0.0061360914 -0.035444796 0.0 -0.009226709599999999 0.0 0.0 0.0 0.0 0.0 0.0 0.0 0.0 0.0 0.0 0.0 0.0 0.0 0.0 0.0 0.0 0.0 0.0 0.0 0.0 0.0 0.0 0.0 0.0 0.0 0.0 0.0 0.0 0.0 0.0 0.0 0.0 0.0 0.0 0.0 0.0 0.0 0.0 0.0 0.0 0.0 0.0 0.0 0.0 0.0 -1.3953871999999997e-06 0.0 -2.5529684e-07 -1.5144231e-07 0.0 -4.032818499999999e-08 0.0 0.0 0.0 0.0 0.0 0.0 -1.6800421e-05 0.0 -3.6644469e-06 -5.1770703e-06 0.0 -1.6689113999999999e-06 -7.1834296e-07 0.0 -2.9555713e-07 -4.1337414e-21 0.0 -1.7294737e-21 -7.4646676e-05 0.0 -1.8729139e-05 -3.1104049e-05 0.0 -1.1642664999999999e-05 -9.1274214e-06 0.0 -4.4520657e-06 -1.2416379999999999e-06 0.0 -6.278404499999999e-07 -0.00021296267000000003 0.0 -5.994879e-05 -0.00010123468000000001 0.0 -4.2765547e-05 -3.8504168e-05 0.0 -2.1424607e-05 -9.912691e-06 0.0 -5.8766886e-06 -0.00046341555 0.0 -0.00014548973999999997 -0.00023584287999999998 0.0 -0.00011153511999999999 -0.00010152306999999999 0.0 -6.3719483e-05 -3.3674085e-05 0.0 -2.2846107e-05 -0.0008308057400000001 0.0 -0.00029203697 -0.00043885162000000005 0.0 -0.00023299006 -0.00020169298999999998 0.0 -0.00014300476000000001 -7.5751675e-05 0.0 -5.8778725e-05 -0.0012875746 0.0 -0.0005075456599999999 -0.0006937289100000001 0.0 -0.00041402218999999995 -0.00032997233000000003 0.0 -0.00026474861 -0.00013199999 0.0 -0.00011748341 -0.0017844272 0.0 -0.00078394584 -0.00097138091 0.0 -0.0006477177400000001 -0.00046970544000000003 0.0 -0.00042428587999999995 -0.00019336294999999998 0.0 -0.00019684531000000003 -0.0022828362 0.0 -0.0010951984 -0.0012495526 0.0 -0.0009134568400000001 -0.00060781877 0.0 -0.00060758193 -0.0002521929 0.0 -0.00028931416 -0.0027924948 0.0 -0.0014094083 -0.0015322495 0.0 -0.001186759 -0.00074533885 0.0 -0.00079808268 -0.00030810462000000003 0.0 -0.00038577869 -0.0033743733 0.0 -0.0017102807999999998 -0.0018546979 0.0 -0.0014535976 -0.0009012643699999999 0.0 -0.00098575582 -0.00037022464999999995 0.0 -0.00048057907 -0.0041452753 0.0 -0.0020056046 -0.0022902957 0.0 -0.0017182770999999999 -0.0011155049 0.0 -0.0011722889 -0.00045717964999999995 0.0 -0.0005743939 -0.0052911462 0.0 -0.0023294017000000003 -0.0029579776000000003 0.0 -0.0020070485999999998 -0.0014533631 0.0 -0.0013739237 -0.0005990208 0.0 -0.00067522778 -0.0070730299 0.0 -0.0027527618 -0.0040298076 0.0 -0.0023794675 -0.0020119294 0.0 -0.0016305163000000001 -0.0008417334800000001 0.0 -0.00080249226 -0.0098319836 0.0 -0.0034049558 -0.0057411948 0.0 -0.0029494946 -0.0029329746000000003 0.0 -0.0020274499 -0.0012584891 0.0 -0.0010048491 -0.013871787 0.0 -0.0045052385 -0.0083078137 0.0 -0.0039139008 -0.0043684575 0.0 -0.0027304674 -0.0019521947 0.0 -0.0013991626 -0.019071043 0.0 -0.0063997186 -0.011626575 0.0 -0.0055865561999999995 -0.0063057509 0.0 -0.0040381872 -0.0029968438 0.0 -0.0022472406 -0.024680139 0.0 -0.0095612388 -0.015172821000000001 0.0 -0.0084151104 -0.0084665874 0.0 -0.0064242287 0.0 0.0 0.0 0.0 0.0 0.0 0.0 0.0 0.0 0.0 0.0 0.0 0.0 0.0 0.0 0.0 0.0 0.0 0.0 0.0 0.0 0.0 0.0 0.0 0.0 0.0 0.0 0.0 0.0 0.0 0.0 0.0 0.0 0.0 0.0 0.0 0.0 0.0 0.0 0.0 0.0 0.0 0.0 0.0 0.0 0.0 0.0 0.0 0.0 0.0 0.0 0.0 0.0 0.0 0.0 0.0 0.0 0.0 0.0 0.0 0.0 0.0 0.0 0.0 0.0 0.0 0.0 0.0 0.0 0.0 0.0 0.0 0.0 0.0 0.0 0.0 0.0 0.0 0.0 0.0 0.0 0.0 0.0 0.0 0.0 0.0 0.0 0.0 0.0 0.0 0.0 0.0 0.0 0.0 0.0 0.0 0.0 0.0 0.0 0.0 0.0 0.0 0.0 0.0 0.0 0.0 0.0 0.0 0.0 0.0 0.0 0.0 0.0 0.0 0.0 0.0 0.0 0.0 0.0 0.0 0.0 0.0 0.0 0.0 0.0 0.0 0.0 0.0 0.0 0.0 0.0 0.0 0.0 0.0 0.0 0.0 0.0 0.0 0.0 0.0 0.0 0.0 0.0 0.0 0.0 0.0 0.0 0.0 0.0 0.0 0.0 0.0 0.0 0.0 0.0 0.0 0.0 0.0 0.0 0.0 0.0 0.0 0.0 0.0 0.0 0.0 0.0 0.0 0.0 0.0 0.0 0.0 0.0 0.0 0.0 0.0 0.0 0.0 0.0 0.0 0.0 0.0 0.0 0.0 0.0 0.0 0.0 0.0 0.0 0.0 0.0 0.0 0.0 0.0 0.0 0.0 0.0 0.0 0.0 0.0 0.0 0.0 0.0 0.0 0.0 0.0 0.0 0.0 0.0 0.0 0.0 0.0 0.0 0.0 0.0 0.0 0.0 0.0 0.0 0.0 0.0 0.0 0.0 0.0 0.0 0.0 0.0 0.0 0.0 0.0 0.0 0.0 0.0 0.0 0.0 0.0 0.0 0.0 0.0 0.0 0.0 0.0 0.0 0.0 0.0 0.0 0.0 0.0 0.0 0.0 0.0 0.0 0.0 0.0 0.0 0.0 0.0 0.0 0.0 0.0 0.0 0.0 0.0 0.0 0.0 0.0 0.0 0.0 0.0 0.0 0.0 0.0 0.0 0.0 0.0 0.0 0.0 0.0 0.0 0.0 0.0 0.0 0.0 0.0 0.0 0.0 0.0 0.0 0.0 0.0 0.0 0.0 0.0 0.0 0.0 0.0 0.0 0.0 0.0 0.0 0.0 0.0 0.0 0.0 0.0 0.0 0.0 0.0 0.0 0.0 0.0 0.0 0.0 0.0 0.0 0.0 0.0 0.0 0.0 0.0 0.0 0.0 0.0 0.0 0.0 0.0 0.0 0.0 0.0 0.0 0.0 0.0 0.0 0.0 0.0 0.0 0.0 0.0 0.0 0.0 0.0 0.0 0.0 0.0 0.0 0.0 0.0 0.0 0.0 0.0 0.0 0.0 0.0 0.0 0.0 0.0 0.0 0.0 0.0 0.0 0.0 0.0 0.0 0.0 0.0 0.0 0.0 0.0 0.0 0.0 0.0 0.0 0.0 0.0 0.0 0.0 0.0 0.0 0.0 0.0 0.0 0.0 0.0 0.0 0.0 0.0 0.0 0.0 0.0 0.0 0.0 0.0 0.0 0.0 0.0 0.0 0.0 0.0 0.0 0.0 0.0 0.0 0.0 0.0 0.0 0.0 0.0 0.0 0.0 0.0 0.0 0.0 0.0 0.0 0.0 0.0 0.0 0.0 0.0 0.0 0.0 0.0 0.0 0.0 0.0 0.0 0.0 0.0 0.0 0.0 0.0 0.0 0.0 0.0 0.0 0.0 0.0 0.0 0.0 0.0 0.0 0.0 0.0 0.0 0.0 0.0 0.0 0.0 0.0 0.0 0.0 0.0 0.0 0.0 0.0 0.0 0.0 0.0 0.0 0.0 0.0 0.0 0.0 0.0 0.0 0.0 0.0 0.0 0.0 0.0 0.0 0.0 0.0 0.0 0.0 0.0 0.0 0.0 0.0 0.0 0.0 0.0 0.0 0.0 0.0 0.0 0.0 0.0 0.0 0.0 0.0 0.0 0.0 0.0 0.0 0.0 0.0 0.0 0.0 0.0 0.0 0.0 0.0 0.0 0.0 0.0 0.0 0.0 0.0 0.0 0.0 0.0 0.0 0.0 0.0 0.0 0.0 0.0 0.0 0.0 0.0 0.0 0.0 0.0 0.0 0.0 0.0 0.0 0.0 0.0 0.0 0.0 0.0 0.0 0.0 0.0 0.0 0.0 0.0 0.0 0.0 0.0 0.0 0.0 0.0 0.0 0.0 0.0 0.0 0.0 0.0 0.0 0.0 0.0 0.0 0.0 0.0 0.0 0.0 0.0 0.0 0.0 0.0 0.0 0.0 0.0 0.0 0.0 0.0 0.0 0.0 0.0 0.0 0.0 0.0 0.0 0.0 0.0 0.0 0.0 0.0 0.0 0.0 0.0 0.0 0.0 0.0 0.0 0.0 0.0 0.0 0.0 0.0 0.0 0.0 0.0 0.0 0.0 0.0 0.0 0.0 0.0 0.0 0.0 0.0 0.0 0.0 0.0 0.0 0.0 0.0 0.0 0.0 0.0 0.0 0.0 0.0 0.0 0.0 0.0 0.0 0.0 0.0 0.0 0.0 0.0 0.0 0.0 0.0 0.0 0.0 0.0 0.0 0.0 0.0 0.0 0.0 0.0 0.0 0.0 0.0 0.0 0.0 0.0 0.0 0.0 0.0 0.0 0.0 0.0 0.0 0.0 0.0 0.0 0.0 0.0 0.0 0.0 0.0 0.0 0.0 0.0 0.0 0.0 0.0 0.0 0.0 0.0 0.0 0.0 0.0 0.0 0.0 0.0 0.0 0.0 0.0 0.0 0.0 0.0 0.0 0.0 0.0 0.0 0.0 0.0 0.0 0.0 0.0 0.0 0.0 0.0 0.0 0.0 0.0 0.0 0.0 0.0 0.0 0.0 0.0 0.0 0.0 0.0 0.0 0.0 0.0 0.0 0.0 0.0 0.0 0.0 0.0 0.0 0.0 0.0 0.0 0.0 0.0 0.0 0.0 0.0 0.0 0.0 0.0 0.0 0.0 0.0 0.0 0.0 0.0 0.0 0.0 0.0 0.0 0.0 0.0 0.0 0.0 0.0 0.0 0.0 0.0 0.0 0.0 0.0 0.0 0.0 0.0 0.0 0.0 0.0 0.0 0.0 0.0 0.0 0.0 0.0 0.0 0.0 0.0 0.0 0.0 0.0 0.0 0.0 0.0 0.0 0.0 0.0 0.0 0.0 0.0 0.0 0.0 0.0 0.0 0.0 0.0 0.0 0.0 0.0 0.0 0.0 0.0 0.0 0.0 0.0 0.0 0.0 0.0 0.0 0.0 0.0 0.0 0.0 0.0 0.0 0.0 0.0 0.0 0.0 0.0 0.0 0.0 0.0 0.0 0.0 0.0 0.0 0.0 0.0 0.0 0.0 0.0 0.0 0.0 0.0 0.0 0.0 0.0 0.0 0.0 0.0 0.0 0.0 0.0 0.0 0.0 0.0 0.0 0.0 0.0 0.0 0.0 0.0 0.0 0.0 0.0 0.0 0.0 0.0 0.0 0.0 0.0 0.0 0.0 0.0 0.0 0.0 0.0 0.0 0.0 0.0 0.0 0.0 0.0 0.0 0.0 0.0 0.0 0.0 0.0 0.0 0.0 0.0 0.0 0.0 0.0 0.0 0.0 0.0 0.0 0.0 0.0 0.0 0.0 0.0 0.0 0.0 0.0 0.0 0.0 0.0 0.0 0.0 0.0 0.0 0.0 0.0 0.0 0.0 0.0 0.0 0.0 0.0 0.0 0.0 0.0 0.0 0.0 0.0 0.0 0.0 0.0 0.0 0.0 0.0 0.0 0.0 0.0 0.0 0.0 0.0 0.0 0.0 0.0 0.0 0.0 0.0 0.0 0.0 0.0 0.0 0.0 0.0 0.0 0.0 0.0 0.0 0.0 0.0 0.0 0.0 0.0 0.0 0.0 0.0 0.0 0.0 0.0 0.0 0.0 0.0 0.0 0.0 0.0 0.0 0.0 0.0 0.0 0.0 0.0 0.0 0.0 0.0 0.0 0.0 0.0 0.0 0.0 0.0 0.0 0.0 0.0 0.0 0.0 0.0 0.0 0.0 0.0 0.0 0.0 0.0 0.0 0.0 0.0 0.0 0.0 0.0 0.0 0.0 0.0 0.0 0.0 0.0 0.0 0.0 0.0 0.0 0.0 0.0 0.0 0.0 0.0 0.0 0.0 0.0 0.0 0.0 0.0 0.0 0.0 0.0 0.0 0.0 0.0 0.0 0.0 0.0 0.0 0.0 0.0 0.0 0.0 0.0 0.0 0.0 0.0 0.0 0.0 0.0 0.0 0.0 0.0 0.0 0.0 0.0 0.0 0.0 0.0 0.0 0.0 0.0 0.0 0.0 0.0 0.0 0.0 0.0 0.0 0.0 0.0 0.0 0.0 0.0 0.0 0.0 0.0 0.0 0.0 0.0 0.0 0.0 0.0 0.0 0.0 0.0 0.0 0.0 0.0 0.0 0.0 0.0 0.0 0.0 0.0 0.0 0.0 0.0 0.0 0.0 0.0 0.0 0.0 0.0 0.0 0.0 0.0 0.0 0.0 0.0 0.0 0.0 0.0 0.0 0.0 0.0 0.0 0.0 0.0 0.0 0.0 0.0 0.0 0.0 0.0 0.0 0.0 0.0 0.0 0.0 0.0 0.0 0.0 0.0 0.0 0.0 0.0 0.0 0.0 0.0 0.0 0.0 0.0 0.0 0.0 0.0 0.0 0.0 0.0 0.0 0.0 0.0 0.0 0.0 0.0 0.0 0.0 0.0 0.0 0.0 0.0 0.0 0.0 0.0 0.0 0.0 0.0 0.0 0.0 0.0 0.0 0.0 0.0 0.0 0.0 0.0 0.0 0.0 0.0 0.0 0.0 0.0 0.0 0.0 0.0 0.0 0.0 0.0 0.0 0.0 0.0 0.0 0.0 0.0 0.0 0.0 0.0 0.0 0.0 0.0 0.0 0.0 0.0 0.0 0.0 0.0 0.0 0.0 0.0 0.0 0.0 0.0 0.0 0.0 0.0 0.0 0.0 0.0 0.0 0.0 0.0 0.0 0.0 0.0 0.0 0.0 0.0 0.0 0.0 0.0 0.0 0.0 0.0 0.0 0.0 0.0 0.0 0.0 0.0 0.0 0.0 0.0 0.0 0.0 0.0 0.0 0.0 0.0 0.0 0.0 0.0 0.0 0.0 0.0 0.0 0.0 0.0 0.0 0.0 0.0 0.0 0.0 0.0 0.0 0.0 0.0 0.0 0.0 0.0 0.0 0.0 0.0 0.0 0.0 0.0 0.0 0.0 0.0 0.0 0.0 0.0 0.0 0.0 0.0 0.0 0.0 0.0 0.0 0.0 0.0 0.0 0.0 0.0 0.0 0.0 0.0 0.0 0.0 0.0 0.0 0.0 0.0 0.0 0.0 0.0 0.0 0.0 0.0 0.0 0.0 0.0 0.0 0.0 0.0 0.0 0.0 0.0 0.0 0.0 0.0 0.0 0.0 0.0 0.0 0.0 0.0 0.0 0.0 0.0 0.0 0.0 0.0 0.0 0.0 0.0 0.0 0.0 0.0 0.0 0.0 0.0 0.0 0.0 0.0 0.0 0.0 0.0 0.0 0.0 0.0 0.0 0.0 0.0 0.0 0.0 0.0 0.0 0.0 0.0 0.0 0.0 0.0 0.0 0.0 0.0 0.0 0.0 0.0 0.0 0.0 0.0 0.0 0.0 0.0 0.0 0.0 0.0 0.0 0.0 0.0 0.0 0.0 0.0 0.0 0.0 0.0 0.0 0.0 0.0 0.0 0.0 0.0 0.0 0.0 0.0 0.0 0.0 0.0 0.0 0.0 0.0 0.0 0.0 0.0 0.0 0.0 0.0 0.0 0.0 0.0 0.0 0.0 0.0 0.0 0.0 0.0 0.0 0.0 0.0 0.0 0.0 0.0 0.0 0.0 0.0 0.0 0.0 0.0 0.0 0.0 0.0 0.0 0.0 0.0 0.0 0.0 0.0 0.0 0.0 0.0 0.0 0.0 0.0 0.0 -0.0060451054 0.0 -0.00048202052000000003 -0.0075727412 0.0 -0.00020324472 -0.008875304799999999 0.0 7.5133285e-05 -0.0098928362 0.0 0.00028685037999999995 -0.010632218 0.0 0.00040831001 -0.005603750699999999 0.0 -0.0008957146199999999 -0.0075721066000000005 0.0 -0.00063174352 -0.009422426999999999 0.0 -0.00024934238 -0.01098194 0.0 0.00012354684 -0.01218101 0.0 0.00040327862 -0.013033794 0.0 0.00056142057 -0.006794339 0.0 -0.0011246343 -0.009143931800000001 0.0 -0.00076622923 -0.01132359 0.0 -0.00028004101000000004 -0.013126882 0.0 0.00018312735 -0.014481 0.0 0.0005247653500000001 -0.015414691000000001 0.0 0.0007135501400000001 -0.008158559000000001 0.0 -0.0013309232999999998 -0.010936228000000001 0.0 -0.00088076771 -0.013476446999999999 0.0 -0.00029347377 -0.015533303 0.0 0.00025330775 -0.017033201 0.0 0.00064784335 -0.018027108 0.0 0.00085864129 -0.009906115 0.0 -0.0015184273 -0.013170603999999999 0.0 -0.00097682071 -0.016105579 0.0 -0.00029034127 -0.018432632 0.0 0.0003341554 -0.020080083999999998 0.0 0.0007733697999999999 -0.021121657000000002 0.0 0.00099829317 -0.012434326 0.0 -0.0017013457 -0.016211824 0.0 -0.0010618237 -0.01951422 0.0 -0.00027108709999999997 -0.022070294 0.0 0.00042935763 -0.023836019 0.0 0.0009074569099999999 -0.024907826 0.0 0.0011411416 -0.016393328000000002 0.0 -0.0019001470999999999 -0.020635016000000003 0.0 -0.0011438343 -0.024133576 0.0 -0.00022760342 -0.026748492999999998 0.0 0.00055756042 -0.028510116000000002 0.0 0.0010719094 -0.029545692999999998 0.0 0.0013083209 -0.022708463999999998 0.0 -0.0021362624 -0.027181757999999997 0.0 -0.0012258333999999999 -0.030480221000000002 0.0 -0.00013301393 -0.032801397 0.0 0.00076538662 -0.034315635 0.0 0.0013193175 -0.035173479 0.0 0.001547112 -0.032407422000000005 0.0 -0.0024351436 -0.036537051 0.0 -0.0012955435 -0.038976256 0.0 7.1546063e-05 -0.040498041 0.0 0.0011414939 -0.041439459 0.0 0.0017441126000000001 -0.041927386000000004 0.0 0.0019413670999999999 -0.04591601 0.0 -0.0029013306 -0.048794646 0.0 -0.0013223718 -0.049646202 0.0 0.00050117832 -0.049906991 0.0 0.0018319326 -0.04999879 0.0 0.0024861975 -0.049945954 0.0 0.0026114129 -0.061823968 0.0 -0.0037394562 -0.062885284 0.0 -0.0012777415 -0.061908852 0.0 0.0013248076 -0.060821146 0.0 0.0030364413 -0.060003214000000006 0.0 0.0037237871 -0.059340610999999995 0.0 0.0037009621000000004 -0.076645084 0.0 -0.0033070694 -0.076965608 0.0 -0.0005862531299999999 -0.074898727 0.0 0.0028873906 -0.07292442 0.0 0.004993597 -0.071413949 0.0 0.0056295805 -0.07019925099999999 0.0 0.0053427005 -0.089934841 0.0 0.0043736906 -0.09040691699999999 0.0 0.0034637358 -0.088319823 0.0 0.006064537900000001 -0.08613587199999999 0.0 0.0079728588 -0.084270716 0.0 0.0083124451 -0.082626432 0.0 0.007610258199999999 -0.10378375 0.0 0.015611969 -0.10433109 0.0 0.011112512 -0.10271723 0.0 0.011156397 -0.10072506 0.0 0.012043548999999999 -0.098738551 0.0 0.011744814 -0.096759379 0.0 0.010482788 -0.1195716 0.0 0.025090442999999997 -0.12001494 0.0 0.019440073999999998 -0.11884531 0.0 0.01727861 -0.1170921 0.0 0.016845081 -0.11503662 0.0 0.015715485 -0.11275298 0.0 0.013853242 -0.13797636 0.0 0.031794235 -0.13817254 0.0 0.026335334 -0.13719593 0.0 0.023216771 -0.13553882 0.0 0.021795137000000003 -0.13336471 0.0 0.019980587 -0.13077158 0.0 0.017598385 -0.15911682 0.0 0.036536474 -0.1589548 0.0 0.03162995 -0.15795286 0.0 0.028476696 -0.15625769 0.0 0.026642419 -0.15391982 0.0 0.024418382000000002 -0.15101378 0.0 0.021651214 -0.1827748 0.0 0.040320136 -0.18231769 0.0 0.036031473 -0.18124779 0.0 0.033279289 -0.1794844 0.0 0.031494334 -0.1769723 0.0 0.029075047000000003 -0.17374307 0.0 0.026007704 -0.20902674 0.0 0.044092197 -0.20851983 0.0 0.040334906000000004 -0.20744911 0.0 0.038163453 -0.20561357 0.0 0.036605079 -0.20288657 0.0 0.034057956 -0.19926681 0.0 0.030699911 -0.23872882 0.0 0.04842988 -0.23825622 0.0 0.045183047999999996 -0.23713616 0.0 0.043560721 -0.23511794 0.0 0.042187515999999994 -0.23203884 0.0 0.039462313 -0.22788233 0.0 0.035761394 -0.27279657 0.0 0.053556256 -0.27219287 0.0 0.050896740999999995 -0.2708261 0.0 0.04971524 -0.26840892 0.0 0.04835825 -0.26475266 0.0 0.045335904 -0.25983849 0.0 0.041187088999999996 -0.31183133 0.0 0.059648442999999995 -0.31083646 0.0 0.057697862 -0.30893114 0.0 0.05670768 -0.30580181 0.0 0.055121258 -0.30125302 0.0 0.051633555 -0.29528707 0.0 0.046901841 -0.35629073 0.0 0.0669434 -0.35452843 0.0 0.065695263 -0.35167417 0.0 0.06441237799999999 -0.34740853 0.0 0.062303856 -0.34155825 0.0 0.058193807 -0.33418146 0.0 0.052756421 -0.40618947 0.0 0.075659126 -0.40314525 0.0 0.074782573 -0.39880329 0.0 0.072420612 -0.39286837 0.0 0.069570199 -0.38523173 0.0 0.064766474 -0.37604806 0.0 0.058568105 -0.46047992 0.0 0.085740805 -0.45553502 0.0 0.084531464 -0.44907853 0.0 0.080042377 -0.44088933 0.0 0.076475471 -0.43096998 0.0 0.07110649299999999 -0.41960964 0.0 0.06421734400000001 -0.51623136 0.0 0.096857764 -0.50878924 0.0 0.09406346800000001 -0.49963644 0.0 0.086413831 -0.48869142 0.0 0.082684219 -0.47611022 0.0 0.07715813099999999 -0.46234149 0.0 0.06980230700000001 -0.56791264 0.0 0.10849299 -0.55762142 0.0 0.10236534 -0.5454548 0.0 0.09097816800000001 -0.53154719 0.0 0.08835949 -0.51623547 0.0 0.083329268 -0.50012296 0.0 0.075835742 -0.60715503 0.0 0.11983275 -0.59417051 0.0 0.10851543 -0.57921141 0.0 0.09408375599999999 -0.56267965 0.0 0.094376363 -0.54508859 0.0 0.090636387 -0.52716154 0.0 0.083374724 -0.62280101 0.0 0.13027681 -0.60809141 0.0 0.11254878 -0.59145445 0.0 0.096984066 -0.57350266 0.0 0.10211549 -0.55484098 0.0 0.10058708 -0.53623772 0.0 0.09392567 -0.60039866 0.0 0.14052723 -0.58602369 0.0 0.11626508 -0.5700686 0.0 0.10199418 -0.55315691 0.0 0.11316136 -0.53575987 0.0 0.11445811 -0.51848966 0.0 0.10899623 -0.5221833 0.0 0.15363835 -0.51127726 0.0 0.12481543 -0.49943978 0.0 0.11176182 -0.48710844 0.0 0.12781431 -0.47439855 0.0 0.13259484 -0.46146125 0.0 0.12931083 -0.36991164 0.0 0.17840052 -0.36609623 0.0 0.14400093 -0.36207724 0.0 0.12722684 -0.35807997 0.0 0.14533749 -0.35374463 0.0 0.15347198 -0.34853888 0.0 0.15421531 -0.13177395 0.0 0.22292738 -0.13814276 0.0 0.17436385 -0.1448922 0.0 0.15465976 -0.15207945 0.0 0.16357572 -0.15892833 0.0 0.1740931 -0.16419907 0.0 0.18167892 0.18777724 0.0 0.28155312 0.16991995 0.0 0.19233097 0.15116963 0.0 0.18872957 0.1318012 0.0 0.18836865 0.11289889 0.0 0.19455755 0.09617193 0.0 0.20898192 0.55824643 0.0 0.32348794 0.53088659 0.0 0.18550864 0.50169867 0.0 0.20705369 0.47188157 0.0 0.21463788 0.44278917 0.0 0.213981 0.41618752 0.0 0.23331848 0.91819829 0.0 0.32897782 0.88833213 0.0 0.17688254 0.85475862 0.0 0.2145901 0.82003593 0.0 0.23036851 0.7858513 0.0 0.22950135 0.75362396 0.0 0.25240642 1.1902344999999999 0.0 0.34200504 1.1675988000000002 0.0 0.16529469 1.1400245 0.0 0.20110361 1.1097976 0.0 0.23363158 1.0783279 0.0 0.23771986 1.0463991 0.0 0.26423636 1.3256401000000002 0.0 0.36665982 1.3156352 0.0 0.14359699 1.3018076 0.0 0.16264315 1.2839163999999998 0.0 0.20931754 1.2617393999999997 0.0 0.22808501 1.2352482 0.0 0.26546338 1.3320154 0.0 0.39870188 1.3346883999999999 0.0 0.13257168 1.3351282 0.0 0.13634168 1.3308102 0.0 0.18927042 1.3197846000000002 0.0 0.21882509 1.3010761 0.0 0.26369908 1.2565023000000002 0.0 0.43258438 1.2688903999999999 0.0 0.13803309 1.2799619 0.0 0.1280016 1.2860504 0.0 0.18190289 1.2841678 0.0 0.21514601 1.2726191 0.0 0.26227009 1.1535603 0.0 0.45996377 1.1713283 0.0 0.1546869 1.1878973999999998 0.0 0.13590978 1.1995069 0.0 0.18616951 1.2028591999999998 0.0 0.21719259 1.195884 0.0 0.26242581 1.0593538 0.0 0.47558013 1.077965 0.0 0.17324814 1.095066 0.0 0.15326214 1.1073545 0.0 0.19739236 1.1116829 0.0 0.22267766 1.1059208999999999 0.0 0.26376918 0.98247629 0.0 0.47635412 0.99811488 0.0 0.18577272 1.011793 0.0 0.16828801 1.0207919 0.0 0.20791349 1.0223483 0.0 0.2279619 1.0145583 0.0 0.2648347 0.91045451 0.0 0.46582547 0.92056084 0.0 0.19059302 0.92809707 0.0 0.17699184 0.93089426 0.0 0.21404918 0.92675751 0.0 0.23062547 0.91433495 0.0 0.26406968 0.82516539 0.0 0.4475911 0.82832587 0.0 0.19000952 0.8280161 0.0 0.17944738 0.82260084 0.0 0.21460755 0.81070203 0.0 0.22958001 0.79188299 0.0 0.26040766 0.71772474 0.0 0.42347053 0.71309179 0.0 0.18651707 0.70386982 0.0 0.17652485 0.68893886 0.0 0.20965034 0.66800362 0.0 0.22424515 0.6419037 0.0 0.25348565 0.59407127 0.0 0.3949697 0.58110797 0.0 0.17965759 0.56243032 0.0 0.1697422 0.53750348 0.0 0.19948868 0.5073086 0.0 0.21489093 0.47427347 0.0 0.24359234 0.47028166 0.0 0.36143801 0.44879714 0.0 0.17009644 0.42081198 0.0 0.16050425 0.38663092 0.0 0.1860553 0.34861636 0.0 0.20392147 0.31052983 0.0 0.23150238 0.36340484 0.0 0.32159325 0.33381635 0.0 0.15752961 0.29740965 0.0 0.14785087 0.25582007 0.0 0.17406169 0.21251996 0.0 0.19268976 0.17177302 0.0 0.21789932 0.28244853 0.0 0.28333175 0.2464055 0.0 0.13977191 0.20330459 0.0 0.13503557 0.15669268 0.0 0.16378488 0.11065841 0.0 0.18056674 0.06915523900000001 0.0 0.20336083 0.2266611 0.0 0.24841493 0.18672013 0.0 0.11786209 0.13890179 0.0 0.12511976 0.089718707 0.0 0.15397693 0.043271422000000004 0.0 0.16786733 0.0025699278 0.0 0.18866488 0.19047441 0.0 0.21555676 0.1471114 0.0 0.099659637 0.09632326699999999 0.0 0.115493 0.047126855999999995 0.0 0.14475858 0.0025964691 0.0 0.15674554 -0.035606347 0.0 0.17482924 0.17354922 0.0 0.1737844 0.11857921 0.0 0.090451159 0.06499096 0.0 0.10815029 0.018317403 0.0 0.13761848 -0.021675877000000003 0.0 0.14820255 -0.05530132 0.0 0.162809 0.17881757 0.0 0.12499829 0.09856703900000001 0.0 0.092312008 0.038588509 0.0 0.10809981 -0.0051146279999999995 0.0 0.13449383 -0.038223065 0.0 0.14271852 -0.065002225 0.0 0.15341909 0.19436039 0.0 0.09927263900000001 0.086115845 0.0 0.09460140800000001 0.015741285 0.0 0.10711224 -0.026402017000000003 0.0 0.13195913 -0.051718399000000005 0.0 0.13984701 -0.0700031 0.0 0.14687991 0.082757428 0.0 0.092873082 -0.00068784342 0.0 0.09918241900000001 -0.042992242 0.0 0.12674171 -0.06277623 0.0 0.13755716 -0.072596461 0.0 0.14271791 0.088021487 0.0 0.09093250300000001 -0.0014333659 0.0 0.093425207 -0.04949579 0.0 0.11692923 -0.06903303400000001 0.0 0.13326818 -0.073593706 0.0 0.13933723 0.018740478999999997 0.0 0.09760183800000001 -0.039650253999999996 0.0 0.10892151 -0.065135017 0.0 0.1289483 -0.072094068 0.0 0.13579239 0.05242601 0.0 0.1038714 -0.0058058836 0.0 0.11434437 -0.044740561 0.0 0.12632701 -0.062405605 0.0 0.13386059 0.041503403 0.0 0.12251879 -0.0029147025 0.0 0.12984432 -0.03511747 0.0 0.13597769 0.051620025 0.0 0.1349242 0.016483044 0.0 0.14210767 0.07108742 0.0 0.11626911 0.07222712 0.0 0.14641333 -0.011137246000000002 0.0 0.00044830457999999997 -0.011462374 0.0 0.00043288070999999994 -0.011655806999999999 0.0 0.00038885928 -0.011755683000000001 0.0 0.00033356165 -0.011793308 0.0 0.00027705877 -0.01179385 0.0 0.00022548861 -0.011776475 0.0 0.00018268666 -0.011754993 0.0 0.00015090505 -0.011738615 0.0 0.00013140979 -0.013599858000000001 0.0 0.0006112109400000001 -0.013950269 0.0 0.0005879360299999999 -0.01414609 0.0 0.00052758108 -0.014234237 0.0 0.00045283907 -0.014252828 0.0 0.00037640007000000003 -0.014232297 0.0 0.00030651881 -0.014195476 0.0 0.00024845 -0.014158625 0.0 0.00020530871 -0.014132483000000001 0.0 0.00017883863000000001 -0.01600912 0.0 0.00076868228 -0.016355479 0.0 0.00073542551 -0.016528964 0.0 0.0006586224199999999 -0.016585505 0.0 0.00056528865 -0.016569823 0.0 0.00046993431 -0.016516954 0.0 0.00038267547 -0.01645275 0.0 0.00031009506 -0.016395308 0.0 0.00025613836 -0.016356446 0.0 0.00022302080000000002 -0.018624991 0.0 0.00091309234 -0.018942719 0.0 0.0008674393800000001 -0.01907186 0.0 0.0007747557799999999 -0.019078361000000002 0.0 0.00066462351 -0.019013805 0.0 0.00055240066 -0.018917454 0.0 0.00044964219000000004 -0.018817721000000003 0.0 0.00036407078999999996 -0.018734181000000003 0.0 0.00030038654 -0.018679418 0.0 0.00026127047000000004 -0.021703221 0.0 0.0010465994 -0.021970946 0.0 0.00098651508 -0.022035539 0.0 0.0008786848599999999 -0.021974614 0.0 0.00075346814 -0.021846795 0.0 0.0006263214700000001 -0.021695548999999998 0.0 0.00050975563 -0.021551665 0.0 0.00041247348 -0.021435995 0.0 0.00033992252 -0.021361752999999997 0.0 0.00029529447999999996 -0.025452877999999998 0.0 0.0011802203 -0.025648486 0.0 0.0011049157000000002 -0.025628109 0.0 0.00098247558 -0.025481967 0.0 0.0008431760899999999 -0.025275737000000003 0.0 0.0007019678 -0.025057162999999997 0.0 0.00057205569 -0.024859456000000002 0.0 0.00046315262 -0.024704734 0.0 0.00038162437999999995 -0.024606912999999998 0.0 0.00033133887 -0.030021317000000002 0.0 0.0013351025 -0.03011797 0.0 0.0012439025999999998 -0.029989578 0.0 0.00110652 -0.029738262 0.0 0.0009527230900000001 -0.029436586 0.0 0.00079632149 -0.029136527000000002 0.0 0.00065131689 -0.028873816 0.0 0.00052882044 -0.028671999 0.0 0.00043655545 -0.02854567 0.0 0.00037941139 -0.035510071000000004 0.0 0.0015496492999999998 -0.03547205 0.0 0.0014358582 -0.035207231 0.0 0.0012797539 -0.034827154 0.0 0.0011078737 -0.034410134 0.0 0.0009318519199999999 -0.034012191000000004 0.0 0.000766729 -0.033671487 0.0 0.0006257414400000001 -0.03341306 0.0 0.00051868701 -0.033252477999999995 0.0 0.00045203402999999996 -0.042021297 0.0 0.0018896264 -0.041795336 0.0 0.0017304791 -0.041358516 0.0 0.0015418559 -0.040821191 0.0 0.0013413021 -0.04026553 0.0 0.0011356161 -0.039750561000000004 0.0 0.00094057602 -0.03931677 0.0 0.0007722715400000001 -0.038990825 0.0 0.00064343045 -0.038789269 0.0 0.00056279282 -0.049689285 0.0 0.0024510026 -0.049208775 0.0 0.00219921 -0.048556339000000004 0.0 0.0019456288 -0.047827654000000004 0.0 0.0016931307000000002 -0.047105834000000006 0.0 0.0014386467 -0.046451467999999996 0.0 0.0011970433 -0.04590692 0.0 0.00098742172 -0.045500547 0.0 0.0008261312 -0.045250285 0.0 0.0007248371799999999 -0.058658335 0.0 0.0033485703000000005 -0.057856809 0.0 0.0029300003999999996 -0.056937523 0.0 0.0025550629999999998 -0.055977147000000005 0.0 0.0022096748000000003 -0.055056367 0.0 0.0018745951000000002 -0.054235939000000004 0.0 0.0015606878 -0.053559694000000005 0.0 0.0012892508 -0.053057753 0.0 0.00108045 -0.052749511 0.0 0.0009492652000000001 -0.069065109 0.0 0.004690038 -0.067886345 0.0 0.0040102531 -0.06664511599999999 0.0 0.0034363414 -0.065406986 0.0 0.002938454 -0.06424864400000001 0.0 0.0024765711 -0.063230366 0.0 0.0020540718 -0.062397372 0.0 0.0016929117 -0.061781749000000004 0.0 0.0014166334 -0.061404519000000005 0.0 0.0012435103999999999 -0.081046142 0.0 0.006544020500000001 -0.079445846 0.0 0.0055051794999999995 -0.077828526 0.0 0.0046444149 -0.076262675 0.0 0.0039205123 -0.074822493 0.0 0.0032726836 -0.073568918 0.0 0.0026950640999999997 -0.07254938799999999 0.0 0.0022088448 -0.07179851799999999 0.0 0.0018401833 -0.071339257 0.0 0.0016102536999999999 -0.094741806 0.0 0.0089189336 -0.092685275 0.0 0.0074421931 -0.09064286199999999 0.0 0.006211294799999999 -0.088697493 0.0 0.0051830178 -0.086926095 0.0 0.0042818473 -0.08539382400000001 0.0 0.0034946208 -0.084152669 0.0 0.0028417574 -0.083240904 0.0 0.002351498 -0.082684085 0.0 0.002047431 -0.11029817 0.0 0.01176934 -0.10775997 0.0 0.0098101581 -0.10524971 0.0 0.0081422459 -0.10287117 0.0 0.0067356084 -0.10071372 0.0 0.0055116196 -0.098853201 0.0 0.0044561378 -0.097349666 0.0 0.0035911219 -0.096246921 0.0 0.0029471897999999996 -0.095574282 0.0 0.0025500113 -0.12787811 0.0 0.015028748 -0.12483981 0.0 0.012573301 -0.12181854 0.0 0.010421273 -0.11894856 0.0 0.0085721249 -0.11634356 0.0 0.0069593382 -0.11409807 0.0 0.005577384499999999 -0.11228502 0.0 0.0044541559 -0.11095662 0.0 0.0036239335 -0.11014691 0.0 0.0031143795 -0.14767894 0.0 0.01864486 -0.14411438 0.0 0.015691806000000003 -0.14052777 0.0 0.013022036 -0.13709769 0.0 0.010676712 -0.13397455 0.0 0.008616793900000001 -0.13127951 0.0 0.0068556358999999996 -0.12910326 0.0 0.005432079499999999 -0.12750936 0.0 0.0043857871 -0.12653816 0.0 0.0037464083000000002 -0.16993715 0.0 0.022590784 -0.16578928 0.0 0.019135026 -0.16156067 0.0 0.01591761 -0.15748629 0.0 0.013031933999999998 -0.15376273 0.0 0.010478197 -0.15054481 0.0 0.0082965735 -0.14794533 0.0 0.0065405811 -0.1460413 0.0 0.0052561364 -0.14488137 0.0 0.0044743102000000005 -0.19490345 0.0 0.02686164 -0.19007269 0.0 0.022880506000000002 -0.18509714 0.0 0.019085001 -0.18027593 0.0 0.015627084 -0.17585784 0.0 0.012551381 -0.17203556 0.0 0.0099279881 -0.16894718 0.0 0.0078255674 -0.16668548 0.0 0.0062950091 -0.16530778 0.0 0.0053670225 -0.22281386 0.0 0.031451035 -0.21715696 0.0 0.026903372000000002 -0.21130238 0.0 0.02250549 -0.20561561 0.0 0.018467214 -0.20040032 0.0 0.014873056 -0.19588794 0.0 0.011818885 -0.19224361 0.0 0.0093846451 -0.18957578 0.0 0.0076220883 -0.18795137 0.0 0.0065580145 -0.25385997 0.0 0.036323033 -0.24719778 0.0 0.031165508999999997 -0.24031283 0.0 0.026167633 -0.23363492 0.0 0.021586334 -0.22751912 0.0 0.017528916000000002 -0.22223492 0.0 0.014104067 -0.21797219 0.0 0.011393833999999999 -0.21485478 0.0 0.0094441455 -0.2129577 0.0 0.0082729887 -0.28814626 0.0 0.041397821 -0.28027833 0.0 0.035616927 -0.2722097 0.0 0.030081579 -0.26442447 0.0 0.025070101 -0.25732091 0.0 0.020680913999999998 -0.2511999 0.0 0.017012848 -0.24627158 0.0 0.014136345 -0.24267264 0.0 0.012083145 -0.24048455 0.0 0.010857202 -0.32559597 0.0 0.04656351 -0.3163234 0.0 0.040219847 -0.30694193 0.0 0.034311287 -0.29796889 0.0 0.029091125 -0.28982773 0.0 0.024600919 -0.282839 0.0 0.020899024 -0.27722654 0.0 0.018028261 -0.27313459 0.0 0.015998393 -0.27064955 0.0 0.014795227 -0.36573914 0.0 0.051725253 -0.35490164 0.0 0.045001451 -0.34413868 0.0 0.039024834 -0.33396453 0.0 0.033952165 -0.32480034 0.0 0.029704062000000003 -0.3169691 0.0 0.026263492000000003 -0.31069672 0.0 0.023632074 -0.30613101 0.0 0.021793403 -0.3033607 0.0 0.020713877 -0.40735921 0.0 0.056894522 -0.39488328 0.0 0.050128385 -0.38277173 0.0 0.044549324 -0.37148449 0.0 0.040120587 -0.36140275 0.0 0.036565617 -0.3528277 0.0 0.03375734 -0.34597674 0.0 0.031648651 -0.34099564 0.0 0.030199606 -0.33797446 0.0 0.029360915 -0.448075 0.0 0.06230728 -0.43403122 0.0 0.055984344000000005 -0.42074224 0.0 0.051408391 -0.40855584 0.0 0.048233810999999994 -0.39776805 0.0 0.045904010999999995 -0.38863325 0.0 0.04414998 -0.38134754 0.0 0.042876102 -0.37605181 0.0 0.042029305999999995 -0.37283942 0.0 0.041554786 -0.48402381 0.0 0.0685561 -0.46869001 0.0 0.063234709 -0.45456025 0.0 0.060328665999999996 -0.44182163 0.0 0.059065059 -0.430648 0.0 0.058522057 -0.42122203 0.0 0.058257259000000006 -0.41370854 0.0 0.058131687 -0.40824279 0.0 0.05809544 -0.40492287 0.0 0.058103543 -0.50978971 0.0 0.076696105 -0.49372244 0.0 0.072876863 -0.47928295 0.0 0.072224014 -0.46647888 0.0 0.07346148 -0.45534357 0.0 0.075224362 -0.44597569 0.0 0.076853953 -0.43850163 0.0 0.07816512099999999 -0.43304968 0.0 0.079127133 -0.42972931 0.0 0.079723172 -0.51862615 0.0 0.088199988 -0.5027253 0.0 0.08623427199999999 -0.48874146 0.0 0.088194892 -0.47651765 0.0 0.092321754 -0.46595472 0.0 0.09677992 -0.45707151 0.0 0.10063487 -0.4499574 0.0 0.10362574 -0.44473955 0.0 0.1057454 -0.4415454 0.0 0.10701875 -0.50223488 0.0 0.10465477 -0.48774365 0.0 0.10481513 -0.47519171 0.0 0.10953442 -0.46432 0.0 0.11667401 -0.45493734 0.0 0.12400483 -0.44700906 0.0 0.13028346 -0.44060448 0.0 0.13512103 -0.43586069 0.0 0.13851616 -0.43293285 0.0 0.14053607 -0.44887522 0.0 0.12720792 -0.43741605 0.0 0.12998356 -0.42743537 0.0 0.13761014 -0.41875115 0.0 0.1477237 -0.41117024 0.0 0.15787588 -0.40465856 0.0 0.16658656 -0.39930597 0.0 0.17330989 -0.39527842 0.0 0.17801954 -0.39276293 0.0 0.18081361 -0.34243354 0.0 0.15601252 -0.33603454 0.0 0.16244988 -0.32997802 0.0 0.17346501 -0.32440725 0.0 0.18659161 -0.31929442 0.0 0.19939156 -0.31469512 0.0 0.21034797 -0.31076887 0.0 0.21882471 -0.30772886 0.0 0.22476557 -0.30579323 0.0 0.22828971 -0.16709775 0.0 0.18980861 -0.16780965 0.0 0.20170718 -0.16714825 0.0 0.21718159 -0.16573609 0.0 0.23369862 -0.163877 0.0 0.24904428 -0.16180767 0.0 0.26195407 -0.15979074 0.0 0.27189457 -0.15809333 0.0 0.27884927 -0.15695786 0.0 0.2829738 0.083058961 0.0 0.22588329 0.07390601200000001 0.0 0.24563666 0.067948461 0.0 0.26725659 0.064163364 0.0 0.28800237 0.061880230999999994 0.0 0.30603313 0.06065417099999999 0.0 0.32064566 0.060128085 0.0 0.33169049 0.060002415999999996 0.0 0.3393507 0.060036402 0.0 0.34387761 0.39372316 0.0 0.26050442 0.37615988 0.0 0.29051736 0.36304677 0.0 0.32028353 0.35327873 0.0 0.34643573 0.34598258 0.0 0.36756277 0.34059656 0.0 0.38377613 0.33674663 0.0 0.39561424 0.33417839 0.0 0.40367618 0.33271369 0.0 0.40840849 0.72472215 0.0 0.28980413 0.70020658 0.0 0.33161393 0.6802392 0.0 0.37118044 0.66409415 0.0 0.40387696 0.65103716 0.0 0.42865646 0.64061886 0.0 0.44658628 0.63261563 0.0 0.45912057 0.62693566 0.0 0.46744883 0.62353992 0.0 0.47229245 1.0150962 0.0 0.31086689 0.98591965 0.0 0.36442804 0.95997655 0.0 0.41429102 0.93741977 0.0 0.45416057 0.91811574 0.0 0.48314434 0.90204453 0.0 0.50319159 0.88931024 0.0 0.51668763 0.8800661 0.0 0.52545595 0.87445515 0.0 0.53051329 1.2054268999999997 0.0 0.32246277 1.1743218999999998 0.0 0.38634986 1.1440766000000002 0.0 0.44541559 1.1160411 0.0 0.4922151 1.0910486000000001 0.0 0.52569377 1.0697193999999999 0.0 0.54836667 1.052562 0.0 0.56334209 1.0399851 0.0 0.57296628 1.0323036 0.0 0.57850111 1.2754041 0.0 0.32714465 1.2451105 0.0 0.39788231 1.2131096000000001 0.0 0.46377105 1.1818547 0.0 0.51631391 1.1531312 0.0 0.55399597 1.1282073000000001 0.0 0.57951224 1.1079748999999999 0.0 0.59637582 1.0930685 0.0 0.6072458 1.0839370000000002 0.0 0.61352074 1.2517377 0.0 0.32785442 1.2238308 0.0 0.40164256 1.1922101999999999 0.0 0.47140223 1.1600906000000002 0.0 0.52780074 1.1299523999999999 0.0 0.56873244 1.1035235 0.0 0.59677976 1.0819584 0.0 0.61555421 1.066025 0.0 0.6278019 1.0562493999999998 0.0 0.63493365 1.1785814 0.0 0.326873 1.15309 0.0 0.40051973 1.1228646999999998 0.0 0.47132167 1.0914806000000001 0.0 0.52943146 1.0617416000000002 0.0 0.5722121 1.0355617 0.0 0.60199183 1.0141726 0.0 0.62226695 0.99836463 0.0 0.63569355 0.98866528 0.0 0.6435914 1.0899290000000001 0.0 0.32514697 1.0657694 0.0 0.39648274 1.0369159 0.0 0.46608377 1.0069468000000001 0.0 0.52393508 0.97861671 0.0 0.5670529 0.95376199 0.0 0.59749424 0.93351883 0.0 0.61854649 0.91859514 0.0 0.63268435 0.90945488 0.0 0.64107889 0.99743879 0.0 0.32240993 0.97314864 0.0 0.39025673 0.94509703 0.0 0.45714891 0.91657829 0.0 0.51321048 0.8900041 0.0 0.55532259 0.86692971 0.0 0.58533412 0.8482784 0.0 0.60632122 0.83460027 0.0 0.62056786 0.826249 0.0 0.6290918 0.89411253 0.0 0.31778955 0.86846435 0.0 0.38165912 0.84061664 0.0 0.44497329 0.81336194 0.0 0.4982087 0.78858638 0.0 0.53829122 0.7674256 0.0 0.56694925 0.75051087 0.0 0.58709514 0.73819619 0.0 0.60086131 0.73070997 0.0 0.60914654 0.76733565 0.0 0.31046459 0.73967975 0.0 0.37021914 0.71180779 0.0 0.42951158 0.6858421 0.0 0.47930118 0.66300303 0.0 0.51668197 0.64391488 0.0 0.54332525 0.62887043 0.0 0.56203526 0.6180163 0.0 0.57485044 0.61145282 0.0 0.58259684 0.61273664 0.0 0.30009839 0.58328122 0.0 0.3557328 0.55586118 0.0 0.41080216 0.53173327 0.0 0.45682299 0.51134366 0.0 0.49111968 0.49475381 0.0 0.51534539 0.48190123 0.0 0.53223252 0.47272953 0.0 0.54377425 0.46722037 0.0 0.55076969 0.44143429 0.0 0.28696212 0.41141555 0.0 0.33851698 0.38564831 0.0 0.38929674 0.36437556 0.0 0.43141297 0.34724489 0.0 0.46244711 0.33377025 0.0 0.4840458 0.32356143 0.0 0.49889162 0.31637868 0.0 0.50896376 0.3121005 0.0 0.51506728 0.27592483 0.0 0.27173021 0.24695913 0.0 0.31926179 0.22404069 0.0 0.36577609 0.20642675 0.0 0.40398279 0.19306791 0.0 0.43171826 0.18303457 0.0 0.45062152 0.17567602 0.0 0.46332926 0.17060933 0.0 0.47182301 0.16763194 0.0 0.47694281 0.13713883 0.0 0.25509852 0.11022823 0.0 0.29870763 0.090563037 0.0 0.34107614 0.076599725 0.0 0.37549612 0.06678424 0.0 0.40003452 0.059893805999999994 0.0 0.41630235 0.055107761 0.0 0.42688331 0.051943 0.0 0.43376675 0.050133239 0.0 0.437857 0.035336547 0.0 0.23758596 0.010469696 0.0 0.27743489 -0.0064832927000000005 0.0 0.31587386 -0.017611191 0.0 0.34675768 -0.024769614 0.0 0.36834598 -0.029327476 0.0 0.38218674 -0.032194737 0.0 0.39077789 -0.033925775 0.0 0.39611083 -0.034847122 0.0 0.39918265 -0.030085932000000003 0.0 0.21964493 -0.053652952999999996 0.0 0.25582767 -0.06909354 0.0 0.29058468 -0.078694202 0.0 0.31826973 -0.08442682 0.0 0.33729053 -0.08769290099999999 0.0 0.34906575 -0.089441337 0.0 0.35594887 -0.090295821 0.0 0.35990435 -0.09065643 0.0 0.36204344 -0.066542685 0.0 0.20191653 -0.08953193599999999 0.0 0.23420422 -0.10487326 0.0 0.2654289 -0.11437508 0.0 0.29024965 -0.11993432 0.0 0.30715483 -0.12291399 0.0 0.31734499 -0.1242951 0.0 0.32293761 -0.12479068 0.0 0.32581651 -0.12489418 0.0 0.32719815 -0.083357453 0.0 0.18530089 -0.10582147 0.0 0.21305253 -0.12214862 0.0 0.24060422 -0.13280247 0.0 0.26277408 -0.13924591 0.0 0.2779828 -0.14275901 0.0 0.28710675 -0.14438063 0.0 0.29191092 -0.14493793 0.0 0.29412195 -0.14503188 0.0 0.29500705 -0.088294521 0.0 0.17072646 -0.10927268 0.0 0.19315661 -0.12684821 0.0 0.21652904 -0.13954096 0.0 0.23603311 -0.14767779 0.0 0.24979267 -0.15237285 0.0 0.2582657 -0.15472002 0.0 0.26276791 -0.15567555 0.0 0.26476106 -0.15595739 0.0 0.26546365 -0.08649756800000001 0.0 0.15899564 -0.10410481 0.0 0.17563733 -0.12190914 0.0 0.19409055 -0.13688843 0.0 0.21056513 -0.14735794 0.0 0.22282183 -0.15385342 0.0 0.23079741 -0.15742205 0.0 0.23531422 -0.15911375 0.0 0.23746532 -0.15977578 0.0 0.23828301 -0.080934197 0.0 0.15045424 -0.092942469 0.0 0.16153102 -0.10883806 0.0 0.17462112 -0.12514544 0.0 0.18735829 -0.13832547 0.0 0.1976954 -0.14729953 0.0 0.20497061 -0.15273865 0.0 0.20950675 -0.15565385 0.0 0.21196711 -0.15697847 0.0 0.21307518 -0.074044317 0.0 0.14468727 -0.078735314 0.0 0.15133575 -0.089950562 0.0 0.1593228 -0.10513074 0.0 0.16775538 -0.12013486 0.0 0.17542984 -0.13198493 0.0 0.18146668 -0.13997684 0.0 0.18567714 -0.14474362 0.0 0.18828245 -0.14715433 0.0 0.18963972 -0.068029918 0.0 0.14030221 -0.065160222 0.0 0.14442162 -0.06929224 0.0 0.1485047 -0.080076918 0.0 0.15280248 -0.094074152 0.0 0.15723 -0.10749043 0.0 0.16130745 -0.11801335 0.0 0.16460828 -0.12501197 0.0 0.16694309 -0.12884726 0.0 0.16830342 -0.062911421 0.0 0.13639711 -0.055614837 0.0 0.13917071 -0.051706728 0.0 0.14104316 -0.055151205999999994 0.0 0.14237896 -0.06446652900000001 0.0 0.14379156 -0.076155715 0.0 0.14554721 -0.08708678199999999 0.0 0.14739968 -0.09543923300000001 0.0 0.14899854 -0.10047941 0.0 0.1500535 -0.050179619 0.0 0.13601175 -0.049701437 0.0 0.13478328 -0.041168592999999996 0.0 0.13501175 -0.035816029 0.0 0.13491949 -0.037132862999999995 0.0 0.13458622 -0.043338037999999995 0.0 0.13453615 -0.051323675 0.0 0.13499026 -0.058623645 0.0 0.13569225 -0.063560806 0.0 0.13628207 -0.017621944 0.0 0.13957891 -0.033864017999999996 0.0 0.13504006 -0.034647603 0.0 0.13057205 -0.025727239 0.0 0.12867285 -0.01794352 0.0 0.12798747 -0.015517658 0.0 0.12760964 -0.017282225 0.0 0.12753303 -0.020773502 0.0 0.12778232 -0.02379035 0.0 0.128094 0.034618195 0.0 0.14415699 0.005379728 0.0 0.13931461 -0.011925228000000001 0.0 0.1321732 -0.01504004 0.0 0.12614788 -0.0083396491 0.0 0.12371852 0.0012374774 0.0 0.12374301 0.0076250224 0.0 0.12441545 0.010373558 0.0 0.12513851 0.010989903 0.0 0.12563504 0.066927038 0.0 0.13588482 0.050544009 0.0 0.13837126 0.03378563 0.0 0.13678212 0.022516066 0.0 0.13165222 0.015932785 0.0 0.12678413 0.014532335 0.0 0.12521897 0.02013959 0.0 0.12576298 0.026795727999999998 0.0 0.12707227 0.031194204 0.0 0.12800084 0.055545382000000004 0.0 0.1238374 0.06027608 0.0 0.13141809 0.060337767 0.0 0.13481909 0.061324610999999994 0.0 0.13545239 0.063128531 0.0 0.13400307 0.062893137 0.0 0.13300687 0.06501811 0.0 0.13308731 0.06799327599999999 0.0 0.13369757 0.049296085 0.0 0.12762402 0.063670583 0.0 0.13740288 0.070915699 0.0 0.14090078 0.08976109300000001 0.0 0.14039274 0.11404576 0.0 0.13970122 0.12938747 0.0 0.14047195 0.025208859 0.0 0.1435601 0.032729253 0.0 0.14687766 0.049596664000000006 0.0 0.14666107 0.068350881 0.0 0.14713854 -0.011732589 0.0 0.00012484486999999998 -0.011738615 0.0 0.00013140983 -0.011754993 0.0 0.00015090514 -0.011776472 0.0 0.00018268671000000003 -0.011793848999999999 0.0 0.00022548867999999997 -0.011793308 0.0 0.00027705892 -0.01175568 0.0 0.00033356178999999995 -0.011655809 0.0 0.00038885939 -0.014123116000000002 0.0 0.00016992522 -0.014132487 0.0 0.00017883867 -0.014158634 0.0 0.00020530891 -0.014195478000000001 0.0 0.00024845029 -0.014232294 0.0 0.00030651897999999997 -0.01425283 0.0 0.00037640038999999995 -0.014234239 0.0 0.00045283916 -0.014146091000000001 0.0 0.0005275812 -0.016342781 0.0 0.00021186797999999998 -0.016356443999999998 0.0 0.00022302080000000002 -0.016395316 0.0 0.00025613865 -0.016452754 0.0 0.00031009535 -0.016516954 0.0 0.00038267559 -0.016569821000000002 0.0 0.00046993472000000003 -0.016585503 0.0 0.00056528882 -0.016528968 0.0 0.0006586224799999999 -0.018660411000000002 0.0 0.0002480933 -0.018679416 0.0 0.00026127059 -0.018734187 0.0 0.00030038678 -0.018817727 0.0 0.00036407111000000004 -0.018917453 0.0 0.00044964248 -0.0190138 0.0 0.00055240106 -0.019078352 0.0 0.00066462363 -0.019071855 0.0 0.00077475584 -0.021336239 0.0 0.00028024896 -0.021361752999999997 0.0 0.00029529471 -0.021435997000000002 0.0 0.00033992292999999996 -0.021551671 0.0 0.00041247421 -0.021695545 0.0 0.00050975644 -0.021846802999999998 0.0 0.0006263221700000001 -0.021974619 0.0 0.0007534684299999999 -0.022035537 0.0 0.0008786847500000001 -0.024573496 0.0 0.00031436319 -0.02460691 0.0 0.00033133928 -0.024704747000000003 0.0 0.00038162517 -0.024859466 0.0 0.00046315344000000003 -0.025057171 0.0 0.00057205657 -0.025275752000000002 0.0 0.00070196897 -0.025481972999999998 0.0 0.00084317644 -0.025628109 0.0 0.0009824757 -0.028502701000000002 0.0 0.00036007983999999997 -0.028545657000000002 0.0 0.00037941187999999997 -0.028672003999999997 0.0 0.00043655612 -0.028873812000000002 0.0 0.0005288213099999999 -0.029136525 0.0 0.00065131794 -0.029436585 0.0 0.00079632254 -0.029738248999999998 0.0 0.0009527239 -0.029989587 0.0 0.0011065206 -0.03319807 0.0 0.0004294262 -0.033252474 0.0 0.00045203484000000003 -0.033413075 0.0 0.0005186884099999999 -0.033671482999999995 0.0 0.00062574324 -0.034012184 0.0 0.00076673046 -0.034410138 0.0 0.0009318536 -0.03482715 0.0 0.0011078753999999998 -0.035207245 0.0 0.0012797548 -0.038721152 0.0 0.0005353738099999999 -0.038789254 0.0 0.0005627936900000001 -0.038990803 0.0 0.00064343191 -0.039316755 0.0 0.0007722730499999999 -0.039750546 0.0 0.0009405780599999999 -0.04026553 0.0 0.0011356178 -0.040821172 0.0 0.0013413039000000002 -0.041358534 0.0 0.0015418568 -0.045165822 0.0 0.00069033878 -0.045250285 0.0 0.00072483777 -0.045500565 0.0 0.0008261328900000001 -0.045906939 0.0 0.00098742405 -0.046451453 0.0 0.0011970453 -0.047105823 0.0 0.0014386491 -0.047827645999999994 0.0 0.0016931335999999999 -0.048556369 0.0 0.0019456304999999998 -0.052645616 0.0 0.0009045756900000001 -0.052749537 0.0 0.0009492668300000001 -0.053057767 0.0 0.001080452 -0.053559712999999995 0.0 0.0012892535000000001 -0.054235942999999995 0.0 0.0015606907999999998 -0.055056382 0.0 0.0018745979999999999 -0.05597719599999999 0.0 0.0022096755 -0.056937542 0.0 0.0025550646 -0.061277545999999995 0.0 0.0011845957000000001 -0.061404525999999994 0.0 0.0012435116 -0.06178176 0.0 0.0014166357 -0.062397372 0.0 0.0016929142 -0.06323038 0.0 0.0020540759 -0.064248636 0.0 0.0024765739 -0.06540703 0.0 0.0029384552 -0.066645168 0.0 0.0034363435 -0.07118476900000001 0.0 0.0015321586999999998 -0.071339227 0.0 0.0016102546 -0.071798474 0.0 0.0018401860000000002 -0.072549403 0.0 0.002208848 -0.073568963 0.0 0.0026950679999999997 -0.074822508 0.0 0.0032726882000000002 -0.076262683 0.0 0.0039205155 -0.077828504 0.0 0.0046444153 -0.08249694099999999 0.0 0.0019444065 -0.082684085 0.0 0.0020474331 -0.083240889 0.0 0.0023515007999999997 -0.084152721 0.0 0.0028417602 -0.08539386800000001 0.0 0.003494625 -0.08692608 0.0 0.004281851 -0.08869752300000001 0.0 0.0051830192 -0.090642855 0.0 0.0062112962 -0.095348313 0.0 0.0024157804 -0.09557429699999999 0.0 0.0025500113 -0.096246935 0.0 0.0029471931 -0.097349681 0.0 0.0035911268 -0.098853186 0.0 0.004456142 -0.10071369 0.0 0.0055116246999999995 -0.10287121 0.0 0.0067356089000000004 -0.1052497 0.0 0.008142246899999999 -0.10987496 0.0 0.0029425896 -0.11014692 0.0 0.0031143791999999997 -0.11095663 0.0 0.0036239341999999997 -0.11228507 0.0 0.0044541592 -0.11409812 0.0 0.0055773901 -0.11634352 0.0 0.0069593432999999994 -0.11894854 0.0 0.0085721286 -0.12181862 0.0 0.010421278 -0.12621202 0.0 0.0035313349 -0.12653811 0.0 0.0037464101 -0.12750927 0.0 0.0043857894 -0.12910327 0.0 0.0054320837 -0.13127953 0.0 0.0068556401 -0.13397452 0.0 0.0086167976 -0.13709757 0.0 0.010676713999999999 -0.1405278 0.0 0.013022036 -0.14449205 0.0 0.0042118924 -0.14488146 0.0 0.0044743139000000005 -0.14604136 0.0 0.0052561406000000005 -0.14794533 0.0 0.0065405881 -0.15054473 0.0 0.0082965838 -0.15376276 0.0 0.010478198000000001 -0.15748622 0.0 0.013031933 -0.16156067 0.0 0.015917612 -0.16484538 0.0 0.0050562331 -0.16530779 0.0 0.0053670211 -0.16668545 0.0 0.0062950104 -0.1689472 0.0 0.0078255665 -0.17203556 0.0 0.009927989 -0.17585774 0.0 0.012551383000000001 -0.18027593 0.0 0.015627092 -0.1850972 0.0 0.019085001 -0.18740609 0.0 0.0062025152000000005 -0.18795122 0.0 0.006558015899999999 -0.18957576 0.0 0.0076220916 -0.19224359 0.0 0.0093846498 -0.19588792 0.0 0.01181889 -0.20040032 0.0 0.014873059 -0.20561577 0.0 0.018467227 -0.21130253 0.0 0.022505483 -0.21232134 0.0 0.007882827 -0.21295786 0.0 0.008272995200000001 -0.21485479 0.0 0.0094441455 -0.21797238 0.0 0.011393847 -0.22223507 0.0 0.014104067 -0.22751902 0.0 0.017528921 -0.23363496 0.0 0.021586337999999997 -0.24031274 0.0 0.026167659 -0.23975085 0.0 0.010450181999999999 -0.24048454 0.0 0.010857205 -0.24267262 0.0 0.012083146999999999 -0.24627165 0.0 0.014136362 -0.25119981 0.0 0.017012844 -0.25732094 0.0 0.02068091 -0.26442444 0.0 0.025070101 -0.27220961 0.0 0.030081603999999998 -0.26981628 0.0 0.01439745 -0.27064958 0.0 0.014795224 -0.27313459 0.0 0.015998391 -0.27722672 0.0 0.018028263 -0.28283918 0.0 0.020899029 -0.28982773 0.0 0.024600933999999998 -0.29796886 0.0 0.029091129 -0.30694187 0.0 0.034311291 -0.30243236 0.0 0.020358946 -0.3033607 0.0 0.020713869 -0.30613104 0.0 0.021793403 -0.31069675 0.0 0.023632074 -0.3169691 0.0 0.02626349 -0.32480037 0.0 0.029704067999999997 -0.33396441 0.0 0.03395215 -0.34413865 0.0 0.039024863 -0.33696243 0.0 0.029087519 -0.33797458 0.0 0.02936092 -0.34099549 0.0 0.0301996 -0.3459765 0.0 0.031648625 -0.35282767 0.0 0.033757322 -0.36140266 0.0 0.036565613 -0.37148452 0.0 0.040120564 -0.38277164 0.0 0.044549324 -0.37176275 0.0 0.041403379 -0.3728393 0.0 0.041554812 -0.37605178 0.0 0.042029332 -0.38134748 0.0 0.042876117000000005 -0.38863319 0.0 0.044149954000000005 -0.39776808 0.0 0.045904022 -0.40855575 0.0 0.048233829000000006 -0.42074209 0.0 0.051408373 -0.40380952 0.0 0.058112577 -0.40492287 0.0 0.058103535 -0.40824285 0.0 0.058095399000000006 -0.41370851 0.0 0.058131717 -0.42122185 0.0 0.05825725599999999 -0.43064797 0.0 0.05852206099999999 -0.44182181 0.0 0.059065059 -0.45456028 0.0 0.060328692 -0.42861363 0.0 0.07992658 -0.42972949 0.0 0.079723187 -0.43304974 0.0 0.079127133 -0.43850178 0.0 0.078165174 -0.44597569 0.0 0.076853961 -0.4553436 0.0 0.075224355 -0.46647877 0.0 0.073461421 -0.47928259 0.0 0.072223976 -0.44046918 0.0 0.10744528 -0.44154549 0.0 0.10701874 -0.44473979 0.0 0.1057454 -0.44995737 0.0 0.10362576 -0.45707136 0.0 0.1006349 -0.46595466 0.0 0.09677997199999999 -0.47651768 0.0 0.092321776 -0.48874155 0.0 0.088194922 -0.43194199 0.0 0.14120868 -0.43293327 0.0 0.14053597 -0.43586078 0.0 0.13851619 -0.44060454 0.0 0.13512102 -0.44700918 0.0 0.1302835 -0.45493758 0.0 0.12400486 -0.46431991 0.0 0.11667403 -0.47519192 0.0 0.10953438 -0.39190525 0.0 0.1817423 -0.3927626 0.0 0.18081357 -0.39527845 0.0 0.17801963 -0.399306 0.0 0.17330982 -0.40465841 0.0 0.16658658 -0.41117039 0.0 0.15787596 -0.41875124 0.0 0.14772354 -0.42743567 0.0 0.13761014 -0.30512729 0.0 0.22946161 -0.30579311 0.0 0.22828981 -0.30772874 0.0 0.22476552 -0.31076878 0.0 0.21882483 -0.31469521 0.0 0.21034807 -0.3192943 0.0 0.1993915 -0.32440719 0.0 0.18659145 -0.32997805 0.0 0.173465 -0.15655826 0.0 0.28434569 -0.15695788 0.0 0.28297359 -0.15809335 0.0 0.27884936 -0.15979059 0.0 0.27189457 -0.16180763 0.0 0.26195407 -0.16387689 0.0 0.2490444 -0.165736 0.0 0.2336985 -0.16714814 0.0 0.21718156 0.060067054 0.0 0.34538281 0.060036425 0.0 0.3438777 0.06000242 0.0 0.33935067 0.06012813400000001 0.0 0.33169088 0.060654245 0.0 0.32064563 0.061880287 0.0 0.30603325 0.064163379 0.0 0.28800255 0.067948483 0.0 0.26725656 0.33223921 0.0 0.40997952 0.33271369 0.0 0.40840861 0.33417848 0.0 0.40367639 0.33674663 0.0 0.39561421 0.34059662 0.0 0.38377616 0.34598261 0.0 0.36756289 0.35327861 0.0 0.34643584 0.36304674 0.0 0.32028371 0.62241018 0.0 0.47389817 0.62353975 0.0 0.4722923 0.62693554 0.0 0.46744892 0.6326158 0.0 0.45912045 0.64061904 0.0 0.4465864 0.65103734 0.0 0.42865622 0.66409409 0.0 0.40387684 0.68023962 0.0 0.37118068 0.87257308 0.0 0.5321877 0.87445462 0.0 0.53051317 0.88006651 0.0 0.52545565 0.88931006 0.0 0.51668757 0.90204436 0.0 0.50319153 0.91811579 0.0 0.48314431 0.93741953 0.0 0.45416063 0.95997608 0.0 0.41429114 1.0297198 0.0 0.58033442 1.0323037 0.0 0.57850116 1.0399855 0.0 0.57296675 1.0525615 0.0 0.56334203 1.0697193999999999 0.0 0.54836637 1.0910492 0.0 0.52569395 1.1160421 0.0 0.49221498 1.1440761000000002 0.0 0.44541574 1.0808598999999999 0.0 0.61560512 1.0839372 0.0 0.61352098 1.093069 0.0 0.60724533 1.1079748999999999 0.0 0.59637576 1.1282071000000002 0.0 0.57951206 1.1531311000000002 0.0 0.55399615 1.1818547 0.0 0.51631373 1.2131106000000003 0.0 0.46377102 1.0529534 0.0 0.63731295 1.0562483 0.0 0.63493359 1.0660256000000001 0.0 0.62780201 1.0819579 0.0 0.61555409 1.103523 0.0 0.59677988 1.1299525 0.0 0.5687325 1.1600912 0.0 0.52780074 1.1922104 0.0 0.47140217 0.98539531 0.0 0.64623839 0.98866504 0.0 0.64359105 0.99836463 0.0 0.63569361 1.0141721 0.0 0.62226677 1.0355618 0.0 0.60199147 1.0617409 0.0 0.57221258 1.0914805 0.0 0.5294317 1.1228646999999998 0.0 0.47132173 0.90637618 0.0 0.64390582 0.90945476 0.0 0.64107901 0.91859537 0.0 0.63268441 0.93351895 0.0 0.61854631 0.95376176 0.0 0.5974943 0.97861695 0.0 0.56705254 1.0069472 0.0 0.52393532 1.0369155 0.0 0.46608377 0.82344091 0.0 0.63197297 0.82624918 0.0 0.62909168 0.83460039 0.0 0.62056762 0.84827822 0.0 0.60632116 0.86692971 0.0 0.58533394 0.89000392 0.0 0.55532229 0.91657823 0.0 0.51321113 0.94509774 0.0 0.45714918 0.72819769 0.0 0.61195612 0.73071039 0.0 0.60914665 0.73819643 0.0 0.60086083 0.75051087 0.0 0.58709532 0.76742566 0.0 0.56694937 0.78858662 0.0 0.53829128 0.8133617 0.0 0.49820882 0.84061617 0.0 0.4449735 0.60925579 0.0 0.58523196 0.61145294 0.0 0.58259714 0.61801624 0.0 0.57485026 0.62887025 0.0 0.56203508 0.64391488 0.0 0.54332548 0.66300315 0.0 0.51668179 0.68584204 0.0 0.47930145 0.71180809 0.0 0.42951173 0.46538121 0.0 0.5531553 0.46722007 0.0 0.55076969 0.47272944 0.0 0.54377395 0.48190141 0.0 0.53223234 0.49475363 0.0 0.51534551 0.51134372 0.0 0.49111959 0.53173321 0.0 0.45682281 0.55586088 0.0 0.41080225 0.31067851 0.0 0.51715231 0.31210062 0.0 0.5150668 0.31637838 0.0 0.50896341 0.32356152 0.0 0.4988918 0.33377036 0.0 0.48404577 0.34724465 0.0 0.46244702 0.36437556 0.0 0.43141311 0.38564834 0.0 0.38929662 0.16664878 0.0 0.47869161 0.16763192 0.0 0.47694302 0.17060922 0.0 0.47182328 0.17567594 0.0 0.46332943 0.18303451 0.0 0.45062146 0.19306786 0.0 0.43171832 0.20642672 0.0 0.40398273 0.22404094 0.0 0.3657763 0.049543860999999995 0.0 0.43924811 0.050133232 0.0 0.43785676 0.051942959000000004 0.0 0.43376702 0.055107735 0.0 0.42688358 0.059893835 0.0 0.41630238 0.066784255 0.0 0.40003452 0.076599665 0.0 0.37549639 0.090562932 0.0 0.34107611 -0.035135448 0.0 0.40021405 -0.034847103 0.0 0.39918244 -0.033925787 0.0 0.39611062 -0.032194715 0.0 0.39077792 -0.029327432 0.0 0.38218686 -0.024769571 0.0 0.36834621 -0.017611142 0.0 0.34675747 -0.0064832638 0.0 0.31587362 -0.090751581 0.0 0.36274084 -0.09065639199999999 0.0 0.36204335 -0.09029582900000001 0.0 0.35990447 -0.089441285 0.0 0.35594884 -0.087692857 0.0 0.34906575 -0.084426813 0.0 0.33729041 -0.07869412 0.0 0.31826985 -0.069093563 0.0 0.29058468 -0.12489674 0.0 0.32761836 -0.12489417 0.0 0.32719803 -0.12479061 0.0 0.32581666 -0.12429506 0.0 0.32293767 -0.12291392 0.0 0.31734517 -0.11993429 0.0 0.30715498 -0.11437494 0.0 0.2902495 -0.1048732 0.0 0.26542899 -0.14502324 0.0 0.29523867 -0.1450319 0.0 0.29500708 -0.14493793 0.0 0.2941218 -0.14438051 0.0 0.29191098 -0.14275891 0.0 0.28710669 -0.13924588 0.0 0.27798274 -0.13280232 0.0 0.26277393 -0.12214857 0.0 0.24060413 -0.15600277 0.0 0.26561821 -0.15595745 0.0 0.26546362 -0.15567546 0.0 0.26476124 -0.15472002 0.0 0.26276788 -0.15237279 0.0 0.25826561 -0.14767769 0.0 0.24979264 -0.13954102 0.0 0.23603298 -0.12684821 0.0 0.21652898 -0.1599374 0.0 0.23847336 -0.15977584 0.0 0.23828299 -0.15911365 0.0 0.23746562 -0.15742199 0.0 0.23531426 -0.15385345 0.0 0.23079738 -0.147358 0.0 0.22282176 -0.13688844 0.0 0.21056515 -0.12190913 0.0 0.19409052 -0.15734614 0.0 0.21337748 -0.15697847 0.0 0.21307525 -0.15565389 0.0 0.21196721 -0.15273871 0.0 0.20950677 -0.14729959 0.0 0.20497079 -0.13832542 0.0 0.19769542 -0.12514539 0.0 0.18735838 -0.10883807 0.0 0.17462113 -0.14787576 0.0 0.19005296 -0.1471545 0.0 0.1896397 -0.14474362 0.0 0.1882825 -0.13997686 0.0 0.18567722 -0.13198487 0.0 0.18146668 -0.12013488 0.0 0.17542978 -0.10513072 0.0 0.1677554 -0.089950509 0.0 0.15932292 -0.13005233 0.0 0.16874777 -0.12884727 0.0 0.16830346 -0.12501198 0.0 0.16694316 -0.11801334 0.0 0.16460833 -0.10749043 0.0 0.16130748 -0.094074138 0.0 0.1572299 -0.08007685099999999 0.0 0.15280242 -0.069292232 0.0 0.14850469 -0.10214978 0.0 0.15041934 -0.10047935 0.0 0.15005341 -0.095439225 0.0 0.14899853 -0.08708676 0.0 0.14739968 -0.076155737 0.0 0.1455472 -0.06446653599999999 0.0 0.14379159 -0.055151187000000004 0.0 0.14237899 -0.051706731 0.0 0.14104311 -0.06529165099999999 0.0 0.13650657 -0.063560776 0.0 0.13628207 -0.058623724 0.0 0.13569228 -0.051323707999999996 0.0 0.1349902 -0.043338045 0.0 0.13453621 -0.037132856 0.0 0.1345862 -0.035816032000000005 0.0 0.13491946 -0.041168645 0.0 0.13501167 -0.024928687 0.0 0.128225 -0.023790357999999998 0.0 0.12809397 -0.020773521 0.0 0.12778224 -0.017282255 0.0 0.12753303 -0.015517659 0.0 0.12760963 -0.017943531000000002 0.0 0.12798753 -0.025727255 0.0 0.12867285 -0.034647528 0.0 0.13057207 0.01103779 0.0 0.12580834 0.010989903 0.0 0.12563504 0.010373538 0.0 0.12513848 0.0076250131 0.0 0.12441548 0.0012374872 0.0 0.12374304 -0.0083396025 0.0 0.12371852 -0.015040033000000001 0.0 0.1261479 -0.011925251000000001 0.0 0.13217328 0.032773279 0.0 0.12831536 0.031194193 0.0 0.12800087 0.026795721 0.0 0.12707227 0.020139556 0.0 0.12576298 0.014532276 0.0 0.12521897 0.015932685 0.0 0.12678415 0.022516087 0.0 0.13165213 0.033785618999999996 0.0 0.13678211 0.069192722 0.0 0.13399374 0.067993343 0.0 0.1336976 0.065017961 0.0 0.13308729 0.06289330900000001 0.0 0.13300683 0.063128479 0.0 0.13400295 0.061324563 0.0 0.13545239 0.060337804 0.0 0.13481916 0.060275960999999996 0.0 0.13141806 0.13426624 0.0 0.14090282 0.12938723 0.0 0.14047188 0.11404587 0.0 0.13970119 0.08976087699999999 0.0 0.14039277 0.070915617 0.0 0.14090082 0.063670613 0.0 0.13740285 0.049295958 0.0 0.12762395 0.074692287 0.0 0.14763661 0.068350881 0.0 0.14713858 0.049596641 0.0 0.14666104 0.032729309 0.0 0.14687772 0.02520879 0.0 0.14356004 -0.011462374 0.0 0.000432881 -0.011137245 0.0 0.00044830467000000004 -0.010632221 0.0 0.00040830997999999997 -0.0098928381 0.0 0.00028685064 -0.008875303900000001 0.0 7.5133634e-05 -0.0075727412 0.0 -0.0002032445 -0.006045106800000001 0.0 -0.00048202067000000003 -0.013950273000000001 0.0 0.00058793649 -0.013599858000000001 0.0 0.00061121129 -0.0130338 0.0 0.0005614209200000001 -0.012181013999999999 0.0 0.00040327917999999997 -0.01098194 0.0 0.00012354709999999998 -0.0094224289 0.0 -0.000249342 -0.0075721079000000005 0.0 -0.0006317434599999999 -0.0056037516 0.0 -0.0008957145599999999 -0.016355477 0.0 0.00073542586 -0.01600912 0.0 0.0007686829799999999 -0.015414696 0.0 0.0007135507799999999 -0.014481003999999999 0.0 0.00052476558 -0.013126885 0.0 0.00018312785 -0.01132359 0.0 -0.00028004061 -0.0091439309 0.0 -0.00076622906 -0.006794338100000001 0.0 -0.0011246338 -0.018942716999999998 0.0 0.00086743955 -0.018624997 0.0 0.00091309269 -0.018027114 0.0 0.0008586419900000001 -0.017033201 0.0 0.0006478437000000001 -0.015533306 0.0 0.00025330792 -0.013476452 0.0 -0.00029347325 -0.010936227 0.0 -0.00088076817 -0.008158559000000001 0.0 -0.0013309229 -0.021970953999999997 0.0 0.00098651508 -0.02170324 0.0 0.0010465998 -0.02112167 0.0 0.0009982934 -0.020080086 0.0 0.00077336957 -0.018432641 0.0 0.00033415551 -0.016105581 0.0 -0.00029034115 -0.013170602 0.0 -0.0009768202400000001 -0.009906115 0.0 -0.0015184267999999999 -0.025648487999999997 0.0 0.0011049155 -0.025452887999999996 0.0 0.0011802203 -0.024907822000000003 0.0 0.001141142 -0.023836024 0.0 0.0009074571400000001 -0.0220703 0.0 0.0004293583900000001 -0.01951422 0.0 -0.00027108617 -0.016211821 0.0 -0.001061823 -0.012434328 0.0 -0.0017013447 -0.03011797 0.0 0.001243903 -0.030021332 0.0 0.0013351029 -0.029545683 0.0 0.0013083206 -0.02851012 0.0 0.0010719101 -0.026748507999999997 0.0 0.0005575609400000001 -0.024133578 0.0 -0.00022760307000000001 -0.020635016000000003 0.0 -0.0011438334 -0.016393332 0.0 -0.0019001464999999999 -0.035472069 0.0 0.0014358576999999998 -0.035510073999999996 0.0 0.0015496502 -0.035173487 0.0 0.0015471120999999998 -0.034315637999999996 0.0 0.0013193181 -0.032801408 0.0 0.0007653861 -0.03048023 0.0 -0.00013301382 -0.027181765 0.0 -0.0012258327999999999 -0.022708479 0.0 -0.0021362619 -0.041795325 0.0 0.0017304795000000002 -0.042021304 0.0 0.0018896263 -0.041927371 0.0 0.0019413675 -0.041439474 0.0 0.0017441117 -0.040498041 0.0 0.0011414929 -0.038976271 0.0 7.1546063e-05 -0.036537066 0.0 -0.0012955430000000001 -0.032407425 0.0 -0.0024351426 -0.049208783 0.0 0.00219921 -0.049689292999999995 0.0 0.002451001 -0.049945932 0.0 0.0026114115 -0.049998797000000005 0.0 0.0024861966 -0.049906984 0.0 0.0018319318 -0.049646214 0.0 0.00050117681 -0.048794660999999996 0.0 -0.0013223713 -0.045916028 0.0 -0.0029013294 -0.057856820999999996 0.0 0.0029300023 -0.05865835 0.0 0.0033485712 -0.059340615 0.0 0.0037009609000000004 -0.060003225 0.0 0.0037237857 -0.060821157 0.0 0.0030364399 -0.061908878 0.0 0.0013248072 -0.062885284 0.0 -0.001277743 -0.061823972000000005 0.0 -0.0037394583000000003 -0.06788636 0.0 0.0040102541 -0.069065139 0.0 0.0046900408 -0.070199296 0.0 0.0053427014 -0.07141396400000001 0.0 0.0056295795 -0.07292444299999999 0.0 0.0049935975 -0.074898735 0.0 0.0028873899 -0.076965638 0.0 -0.00058625569 -0.076645091 0.0 -0.0033070765999999997 -0.079445869 0.0 0.0055051786 -0.081046142 0.0 0.0065440191 -0.082626425 0.0 0.007610254 -0.084270716 0.0 0.0083124414 -0.08613587199999999 0.0 0.007972860699999999 -0.088319853 0.0 0.0060645384 -0.090406932 0.0 0.0034637402000000004 -0.089934826 0.0 0.0043736873 -0.092685252 0.0 0.0074421936 -0.094741829 0.0 0.0089189326 -0.096759334 0.0 0.010482782 -0.098738544 0.0 0.011744806000000002 -0.10072503 0.0 0.012043547 -0.10271724 0.0 0.011156395 -0.1043311 0.0 0.011112513000000001 -0.10378376 0.0 0.015611961 -0.10776 0.0 0.0098101608 -0.11029819 0.0 0.011769343 -0.11275298 0.0 0.013853246000000001 -0.11503665 0.0 0.015715478 -0.11709207 0.0 0.016845079 -0.11884528 0.0 0.017278612 -0.12001492 0.0 0.019440081 -0.11957159 0.0 0.02509043 -0.12483985 0.0 0.012573295 -0.12787811 0.0 0.015028747 -0.13077159 0.0 0.017598396000000002 -0.13336474 0.0 0.019980583 -0.13553885 0.0 0.021795132999999998 -0.13719596 0.0 0.023216777999999997 -0.13817251 0.0 0.026335336 -0.13797644 0.0 0.031794254 -0.1441144 0.0 0.015691813 -0.14767894 0.0 0.018644871 -0.15101381 0.0 0.021651212000000003 -0.15391983 0.0 0.024418382000000002 -0.15625772 0.0 0.026642425 -0.15795286 0.0 0.028476695 -0.1589548 0.0 0.031629931 -0.15911685 0.0 0.03653647 -0.16578931 0.0 0.019135019 -0.16993722 0.0 0.022590779 -0.17374296 0.0 0.026007701 -0.17697233 0.0 0.029075051 -0.17948438 0.0 0.031494331 -0.18124779 0.0 0.033279285 -0.18231769 0.0 0.036031451 -0.18277486 0.0 0.040320139 -0.19007273 0.0 0.022880509 -0.19490358 0.0 0.026861632000000003 -0.19926684 0.0 0.030699905 -0.20288649 0.0 0.034057949 -0.20561355 0.0 0.03660509 -0.20744909 0.0 0.038163435 -0.20851988 0.0 0.040334899 -0.20902681 0.0 0.044092216 -0.21715707 0.0 0.026903389 -0.2228139 0.0 0.03145105 -0.22788246 0.0 0.035761364 -0.23203877 0.0 0.039462309 -0.23511799 0.0 0.04218751900000001 -0.23713621 0.0 0.043560725 -0.23825626 0.0 0.045183044000000006 -0.23872882 0.0 0.04842988 -0.24719772 0.0 0.031165514 -0.25385973 0.0 0.036323059 -0.25983855 0.0 0.041187067 -0.26475248 0.0 0.045335904 -0.26840892 0.0 0.048358232 -0.27082607 0.0 0.049715221 -0.27219293 0.0 0.050896723 -0.27279663 0.0 0.053556237 -0.28027818 0.0 0.035616931 -0.28814617 0.0 0.041397843999999996 -0.29528734 0.0 0.046901852 -0.30125302 0.0 0.051633563 -0.30580184 0.0 0.055121258 -0.30893105 0.0 0.056707642999999995 -0.31083646 0.0 0.05769787 -0.31183121 0.0 0.059648427999999996 -0.3163234 0.0 0.040219836 -0.32559603 0.0 0.046563521 -0.33418152 0.0 0.052756414 -0.34155822 0.0 0.058193802999999995 -0.34740856 0.0 0.062303826 -0.3516742 0.0 0.064412422 -0.35452837 0.0 0.065695271 -0.35629079 0.0 0.066943422 -0.35490179 0.0 0.045001455 -0.36573949 0.0 0.05172528 -0.37604812 0.0 0.058568127000000005 -0.38523173 0.0 0.06476649599999999 -0.39286822 0.0 0.06957019099999999 -0.39880344 0.0 0.072420619 -0.40314537 0.0 0.074782588 -0.40618953 0.0 0.075659171 -0.39488345 0.0 0.050128378 -0.40735915 0.0 0.056894537 -0.41960979 0.0 0.064217329 -0.43097007 0.0 0.07110647099999999 -0.44088951 0.0 0.076475509 -0.44907853 0.0 0.080042392 -0.45553499 0.0 0.084531464 -0.46048006 0.0 0.08574085699999999 -0.43403119 0.0 0.055984344000000005 -0.44807494 0.0 0.062307253 -0.46234149 0.0 0.069802351 -0.47611031 0.0 0.07715810099999999 -0.48869142 0.0 0.082684256 -0.49963629 0.0 0.086413868 -0.5087893 0.0 0.09406354300000001 -0.51623136 0.0 0.096857712 -0.46869001 0.0 0.063234709 -0.48402393 0.0 0.068556085 -0.50012308 0.0 0.07583575 -0.51623529 0.0 0.083329216 -0.53154719 0.0 0.08835949 -0.54545456 0.0 0.090978205 -0.55762148 0.0 0.10236537 -0.56791276 0.0 0.1084931 -0.49372241 0.0 0.072876811 -0.50978982 0.0 0.076696075 -0.52716184 0.0 0.083374709 -0.54508853 0.0 0.09063635800000001 -0.56268001 0.0 0.094376385 -0.57921159 0.0 0.094083779 -0.59417063 0.0 0.10851552 -0.60715503 0.0 0.11983274 -0.50272512 0.0 0.08623430900000001 -0.51862603 0.0 0.088199943 -0.53623772 0.0 0.0939257 -0.55484074 0.0 0.10058706 -0.57350302 0.0 0.10211548 -0.59145451 0.0 0.096984059 -0.60809177 0.0 0.11254877 -0.62280101 0.0 0.13027686 -0.48774347 0.0 0.10481513 -0.50223511 0.0 0.10465474 -0.51848954 0.0 0.10899621 -0.53575975 0.0 0.11445809 -0.55315709 0.0 0.11316136 -0.57006878 0.0 0.10199415 -0.58602375 0.0 0.11626501 -0.6003986 0.0 0.14052717 -0.43741584 0.0 0.12998353 -0.44887561 0.0 0.12720786 -0.46146137 0.0 0.12931082 -0.47439873 0.0 0.1325949 -0.48710868 0.0 0.12781425 -0.4994399 0.0 0.11176182 -0.51127714 0.0 0.12481539 -0.52218312 0.0 0.15363838 -0.33603457 0.0 0.16244984 -0.3424336 0.0 0.15601254 -0.34853888 0.0 0.15421525 -0.35374469 0.0 0.1534719 -0.35807994 0.0 0.14533743 -0.36207724 0.0 0.1272268 -0.36609611 0.0 0.14400096 -0.36991158 0.0 0.17840056 -0.16780967 0.0 0.20170724 -0.16709772 0.0 0.18980856 -0.16419895 0.0 0.18167897 -0.15892832 0.0 0.17409319 -0.15207943 0.0 0.16357581 -0.14489225 0.0 0.15465975 -0.13814272 0.0 0.17436393 -0.13177383 0.0 0.22292748 0.07390599 0.0 0.2456367 0.083058938 0.0 0.22588331 0.096171826 0.0 0.2089819 0.11289892 0.0 0.19455762 0.13180126 0.0 0.18836851 0.15116976 0.0 0.18872957 0.16991995 0.0 0.19233082 0.18777716 0.0 0.2815533 0.37615973 0.0 0.29051736 0.39372295 0.0 0.26050434 0.41618744 0.0 0.23331867 0.44278926 0.0 0.21398102 0.47188178 0.0 0.21463785 0.50169867 0.0 0.20705368 0.53088659 0.0 0.18550849 0.55824655 0.0 0.32348761 0.70020664 0.0 0.33161405 0.72472221 0.0 0.28980416 0.75362426 0.0 0.25240642 0.78585118 0.0 0.22950147 0.82003605 0.0 0.23036852 0.8547585 0.0 0.21459001 0.88833183 0.0 0.17688251 0.91819805 0.0 0.32897785 0.98592049 0.0 0.36442819 1.0150967 0.0 0.31086692 1.0463996 0.0 0.26423642 1.0783266000000002 0.0 0.23771995 1.1097975 0.0 0.23363151 1.1400251000000001 0.0 0.20110376 1.1675992 0.0 0.16529456 1.1902344999999999 0.0 0.34200507 1.1743215 0.0 0.38635007 1.2054268999999997 0.0 0.32246315 1.235249 0.0 0.26546362 1.2617397 0.0 0.22808507 1.2839163999999998 0.0 0.20931764 1.3018076 0.0 0.16264294 1.3156353 0.0 0.14359671 1.3256402 0.0 0.3666594 1.2451103000000001 0.0 0.39788219 1.2754048999999998 0.0 0.32714501 1.301077 0.0 0.26369917 1.3197849 0.0 0.21882524 1.3308101 0.0 0.18927053 1.3351278999999998 0.0 0.13634157 1.3346885 0.0 0.13257159 1.3320153000000001 0.0 0.39870152 1.2238308999999998 0.0 0.40164286 1.2517368 0.0 0.32785463 1.2726197 0.0 0.2622703 1.2841679 0.0 0.21514615 1.2860506 0.0 0.18190297 1.2799621 0.0 0.12800163 1.2688903 0.0 0.13803308 1.2565022 0.0 0.43258363 1.1530899 0.0 0.40051988 1.1785816999999998 0.0 0.32687336 1.1958843000000001 0.0 0.26242608 1.2028596 0.0 0.21719274 1.1995076999999998 0.0 0.18616965 1.1878973 0.0 0.13590978 1.1713278999999999 0.0 0.15468676 1.1535608 0.0 0.45996359 1.0657698999999998 0.0 0.39648318 1.0899292999999999 0.0 0.32514709 1.1059208999999999 0.0 0.26376927 1.1116832 0.0 0.22267774 1.1073543 0.0 0.19739255 1.0950652 0.0 0.15326203 1.0779653999999999 0.0 0.17324792 1.0593538 0.0 0.47557995 0.97314864 0.0 0.39025667 0.99743837 0.0 0.32241014 1.0145589 0.0 0.26483497 1.0223483 0.0 0.22796194 1.0207924000000002 0.0 0.20791337 1.0117933000000001 0.0 0.1682881 0.998115 0.0 0.18577246 0.98247635 0.0 0.47635436 0.86846399 0.0 0.38165897 0.89411253 0.0 0.31778985 0.91433507 0.0 0.26406986 0.9267571 0.0 0.23062544 0.93089455 0.0 0.21404919 0.92809701 0.0 0.17699181 0.92056072 0.0 0.19059318 0.91045439 0.0 0.4658249 0.7396794 0.0 0.37021905 0.76733536 0.0 0.31046483 0.79188299 0.0 0.26040784 0.81070226 0.0 0.22958012 0.82260108 0.0 0.21460761 0.82801616 0.0 0.17944731 0.82832569 0.0 0.19000944 0.82516515 0.0 0.44759077 0.58328092 0.0 0.35573277 0.61273688 0.0 0.3000983 0.641904 0.0 0.2534858 0.66800362 0.0 0.22424504 0.68893874 0.0 0.20965029 0.70386952 0.0 0.17652495 0.71309227 0.0 0.18651706 0.71772492 0.0 0.42347044 0.41141525 0.0 0.33851683 0.44143426 0.0 0.2869623 0.47427338 0.0 0.24359229 0.5073089 0.0 0.21489097 0.53750336 0.0 0.19948867 0.56243002 0.0 0.16974227 0.58110815 0.0 0.17965765 0.59407127 0.0 0.39496961 0.24695894 0.0 0.31926173 0.27592453 0.0 0.27173021 0.31052995 0.0 0.23150231 0.34861633 0.0 0.20392135 0.38663086 0.0 0.18605521 0.42081177 0.0 0.16050401 0.44879702 0.0 0.17009652 0.4702816 0.0 0.36143842 0.11022826 0.0 0.29870752 0.13713884 0.0 0.25509864 0.17177291 0.0 0.21789929 0.21251997 0.0 0.19268972 0.25582013 0.0 0.17406158 0.29740968 0.0 0.14785087 0.3338162 0.0 0.15752944 0.36340475 0.0 0.32159311 0.010469701 0.0 0.27743474 0.035336517000000005 0.0 0.23758586 0.069155194 0.0 0.20336071 0.11065833 0.0 0.18056676 0.15669256 0.0 0.16378489 0.20330453 0.0 0.1350356 0.24640544 0.0 0.13977188 0.28244838 0.0 0.28333187 -0.053652965 0.0 0.25582781 -0.030085953 0.0 0.21964478 0.0025698920000000003 0.0 0.18866482 0.043271434000000004 0.0 0.1678673 0.08971861 0.0 0.15397701 0.1389018 0.0 0.12511978 0.18671998 0.0 0.11786214 0.22666095 0.0 0.24841481 -0.089531884 0.0 0.23420426 -0.06654267 0.0 0.20191653 -0.035606351 0.0 0.17482919 0.0025964612 0.0 0.15674558 0.047126840999999996 0.0 0.14475861 0.096323274 0.0 0.11549304 0.14711125 0.0 0.09965971900000001 0.19047438 0.0 0.21555661 -0.10582142 0.0 0.21305245 -0.08335743799999999 0.0 0.1853008 -0.05530132 0.0 0.16280885 -0.021675872000000002 0.0 0.14820251 0.018317426 0.0 0.13761851 0.064991005 0.0 0.10815035 0.11857925 0.0 0.090451285 0.17354918 0.0 0.17378442 -0.10927267 0.0 0.19315657 -0.088294551 0.0 0.17072631 -0.065002225 0.0 0.15341903 -0.038223069 0.0 0.14271848 -0.005114642 0.0 0.1344938 0.038588524 0.0 0.10809988 0.09856717300000001 0.0 0.09231203 0.17881769 0.0 0.12499829 -0.10410485 0.0 0.17563735 -0.086497627 0.0 0.15899566 -0.07000313700000001 0.0 0.14687985 -0.051718425 0.0 0.13984697 -0.026402017000000003 0.0 0.13195913 0.015741276999999998 0.0 0.10711231 0.08611571800000001 0.0 0.0946014 0.19436051 0.0 0.099272758 -0.092942476 0.0 0.16153096 -0.080934212 0.0 0.15045418 -0.072596475 0.0 0.14271787 -0.06277622299999999 0.0 0.13755713 -0.042992234000000004 0.0 0.12674171 -0.00068779808 0.0 0.09918250099999999 0.082757398 0.0 0.092872977 -0.078735337 0.0 0.15133567 -0.07404425 0.0 0.14468727 -0.073593788 0.0 0.13933727 -0.069033071 0.0 0.13326822 -0.049495831 0.0 0.11692918 -0.0014334342000000002 0.0 0.093425125 0.088021405 0.0 0.09093242900000001 -0.06516026 0.0 0.14442155 -0.068029933 0.0 0.14030221 -0.07209415 0.0 0.13579232 -0.065135032 0.0 0.12894818 -0.039650183 0.0 0.1089216 0.018740566 0.0 0.097601794 -0.055614855 0.0 0.13917062 -0.062911414 0.0 0.13639699 -0.062405523 0.0 0.13386057 -0.04474047900000001 0.0 0.12632696 -0.0058060298 0.0 0.11434428 0.052426137000000005 0.0 0.10387136 -0.04970142599999999 0.0 0.13478333 -0.050179508 0.0 0.13601179 -0.035117574 0.0 0.13597758 -0.0029146299 0.0 0.12984432 0.041503515 0.0 0.12251889 -0.033864066 0.0 0.13504004 -0.017622158 0.0 0.13957886 0.016483044 0.0 0.14210777 0.051619912999999996 0.0 0.13492417 0.0053797639 0.0 0.13931462 0.034618266 0.0 0.14415693 0.072227091 0.0 0.14641328 0.071087092 0.0 0.11626907 0.050543845 0.0 0.13837127 0.066926874 0.0 0.13588487 0.055545244 0.0 0.12383736 
Force 3 2975 float
0.0 0.0 0.0 0.0 0.0 0.0 0.0 0.0 0.0 0.0 0.0 0.0 0.0 0.0 0.0 0.0 0.0 0.0 0.0 0.0 0.0 0.0 0.0 0.0 0.0 0.0 0.0 0.0 0.0 0.0 0.0 0.0 0.0 0.0 0.0 0.0 0.0 0.0 0.0 0.0 0.0 0.0 0.0 0.0 0.0 0.0 0.0 0.0 0.0 0.0 0.0 0.0 0.0 0.0 0.0 0.0 0.0 0.0 0.0 0.0 0.0 0.0 0.0 0.0 0.0 0.0 0.0 0.0 0.0 0.0 0.0 0.0 0.0 0.0 0.0 0.0 0.0 0.0 0.0 0.0 0.0 0.0 0.0 0.0 0.0 0.0 0.0 0.0 0.0 0.0 0.0 0.0 0.0 0.0 0.0 0.0 0.0 0.0 0.0 0.0 0.0 0.0 0.0 0.0 0.0 0.0 0.0 0.0 0.0 0.0 0.0 0.0 0.0 0.0 0.0 0.0 0.0 0.0 0.0 0.0 0.0 0.0 0.0 0.0 0.0 0.0 0.0 0.0 0.0 0.0 0.0 0.0 0.0 0.0 0.0 0.0 0.0 0.0 0.0 0.0 0.0 0.0 0.0 0.0 0.0 0.0 0.0 0.0 0.0 0.0 0.0 0.0 0.0 0.0 0.0 0.0 0.0 0.0 0.0 0.0 0.0 0.0 0.0 0.0 0.0 0.0 0.0 0.0 0.0 0.0 0.0 0.0 0.0 0.0 0.0 0.0 0.0 0.0 0.0 0.0 0.0 0.0 0.0 0.0 0.0 0.0 0.0 0.0 0.0 0.0 0.0 0.0 0.0 0.0 0.0 0.0 0.0 0.0 0.0 0.0 0.0 0.0 0.0 0.0 0.0 0.0 0.0 0.0 0.0 0.0 0.0 0.0 0.0 0.0 0.0 0.0 0.0 0.0 0.0 0.0 0.0 0.0 0.0 0.0 0.0 0.0 0.0 0.0 0.0 0.0 0.0 0.0 0.0 0.0 0.0 0.0 0.0 0.0 0.0 0.0 0.0 0.0 0.0 0.0 0.0 0.0 0.0 0.0 0.0 0.0 0.0 0.0 0.0 0.0 0.0 0.0 0.0 0.0 0.0 0.0 0.0 0.0 0.0 0.0 0.0 0.0 0.0 0.0 0.0 0.0 0.0 0.0 0.0 0.0 0.0 0.0 0.0 0.0 0.0 0.0 0.0 0.0 0.0 0.0 0.0 0.0 0.0 0.0 0.0 0.0 0.0 0.0 0.0 0.0 0.0 0.0 0.0 0.0 0.0 0.0 0.0 0.0 0.0 0.0 0.0 0.0 0.0 0.0 0.0 0.0 0.0 0.0 0.0 0.0 0.0 0.0 0.0 0.0 0.0 0.0 0.0 0.0 0.0 0.0 0.0 0.0 0.0 0.0 0.0 0.0 0.0 0.0 0.0 0.0 0.0 0.0 0.0 0.0 0.0 0.0 0.0 0.0 0.0 0.0 0.0 0.0 0.0 0.0 0.0 0.0 0.0 0.0 0.0 0.0 0.0 0.0 0.0 0.0 0.0 0.0 0.0 0.0 0.0 0.0 0.0 0.0 0.0 0.0 0.0 0.0 0.0 0.0 0.0 0.0 0.0 0.0 0.0 0.0 0.0 0.0 0.0 0.0 0.0 0.0 0.0 0.0 0.0 0.0 0.0 0.0 0.0 0.0 0.0 0.0 0.0 0.0 0.0 0.0 0.0 0.0 0.0 0.0 0.0 0.0 0.0 0.0 0.0 0.0 0.0 0.0 0.0 0.0 0.0 0.0 0.0 0.0 0.0 0.0 0.0 0.0 0.0 0.0 0.0 0.0 0.0 0.0 0.0 0.0 0.0 0.0 0.0 0.0 0.0 0.0 0.0 0.0 0.0 0.0 0.0 0.0 0.0 0.0 0.0 0.0 0.0 0.0 0.0 0.0 0.0 0.0 0.0 0.0 0.0 0.0 0.0 0.0 0.0 0.0 0.0 0.0 0.0 0.0 0.0 0.0 0.0 0.0 0.0 0.0 0.0 0.0 0.0 0.0 0.0 0.0 0.0 0.0 0.0 0.0 0.0 0.0 0.0 0.0 0.0 0.0 0.0 0.0 0.0 0.0 0.0 0.0 0.0 0.0 0.0 0.0 0.0 0.0 0.0 0.0 0.0 0.0 0.0 0.0 0.0 0.0 0.0 0.0 0.0 0.0 0.0 0.0 0.0 0.0 0.0 0.0 0.0 0.0 0.0 0.0 0.0 0.0 0.0 0.0 0.0 0.0 0.0 0.0 0.0 0.0 0.0 0.0 0.0 0.0 0.0 0.0 0.0 0.0 0.0 0.0 0.0 0.0 0.0 0.0 0.0 0.0 0.0 0.0 0.0 0.0 0.0 0.0 0.0 0.0 0.0 0.0 0.0 0.0 0.0 0.0 0.0 0.0 0.0 0.0 0.0 0.0 0.0 0.0 0.0 0.0 0.0 0.0 0.0 0.0 0.0 0.0 0.0 0.0 0.0 0.0 0.0 0.0 0.0 0.0 0.0 0.0 0.0 0.0 0.0 0.0 0.0 0.0 0.0 0.0 0.0 0.0 0.0 0.0 0.0 0.0 0.0 0.0 0.0 0.0 0.0 0.0 0.0 0.0 0.0 0.0 0.0 0.0 0.0 0.0 0.0 0.0 0.0 0.0 0.0 0.0 0.0 0.0 0.0 0.0 0.0 0.0 0.0 0.0 0.0 0.0 0.0 0.0 0.0 0.0 0.0 0.0 0.0 0.0 0.0 0.0 0.0 0.0 0.0 0.0 0.0 0.0 0.0 0.0 0.0 0.0 0.0 0.0 0.0 0.0 0.0 0.0 0.0 0.0 0.0 0.0 0.0 0.0 0.0 0.0 0.0 0.0 0.0 0.0 0.0 0.0 0.0 0.0 0.0 0.0 0.0 0.0 0.0 0.0 0.0 0.0 0.0 0.0 0.0 0.0 0.0 0.0 0.0 0.0 0.0 0.0 0.0 0.0 0.0 0.0 0.0 0.0 0.0 0.0 0.0 0.0 0.0 0.0 0.0 0.0 0.0 0.0 0.0 0.0 0.0 0.0 0.0 0.0 0.0 0.0 0.0 0.0 0.0 0.0 0.0 0.0 0.0 0.0 0.0 0.0 0.0 0.0 0.0 0.0 0.0 0.0 0.0 0.0 0.0 0.0 0.0 0.0 0.0 0.0 0.0 0.0 0.0 0.0 0.0 0.0 0.0 0.0 0.0 0.0 0.0 0.0 0.0 0.0 0.0 0.0 0.0 0.0 0.0 0.0 0.0 0.0 0.0 0.0 0.0 0.0 0.0 0.0 0.0 0.0 0.0 0.0 0.0 0.0 0.0 0.0 0.0 0.0 0.0 0.0 0.0 0.0 0.0 0.0 0.0 0.0 0.0 0.0 0.0 0.0 0.0 0.0 0.0 0.0 0.0 0.0 0.0 0.0 0.0 0.0 0.0 0.0 0.0 0.0 0.0 0.0 0.0 0.0 0.0 0.0 0.0 0.0 0.0 0.0 0.0 0.0 0.0 0.0 0.0 0.0 0.0 0.0 0.0 0.0 0.0 0.0 0.0 0.0 0.0 0.0 0.0 0.0 0.0 0.0 0.0 0.0 0.0 0.0 0.0 0.0 0.0 0.0 0.0 0.0 0.0 0.0 0.0 0.0 0.0 0.0 0.0 0.0 0.0 0.0 0.0 0.0 0.0 0.0 0.0 0.0 0.0 0.0 0.0 0.0 0.0 0.0 0.0 0.0 0.0 0.0 0.0 0.0 0.0 0.0 0.0 0.0 0.0 0.0 0.0 0.0 0.0 0.0 0.0 0.0 0.0 0.0 0.0 0.0 0.0 0.0 0.0 0.0 0.0 0.0 0.0 0.0 0.0 0.0 0.0 0.0 0.0 0.0 0.0 0.0 0.0 0.0 0.0 0.0 0.0 0.0 0.0 0.0 0.0 0.0 0.0 0.0 0.0 0.0 0.0 0.0 0.0 0.0 0.0 0.0 0.0 0.0 0.0 0.0 0.0 0.0 0.0 0.0 0.0 0.0 0.0 0.0 0.0 0.0 0.0 0.0 0.0 0.0 0.0 0.0 0.0 0.0 0.0 0.0 0.0 0.0 0.0 0.0 0.0 0.0 0.0 0.0 0.0 0.0 0.0 0.0 0.0 0.0 0.0 0.0 0.0 0.0 0.0 0.0 0.0 0.0 0.0 0.0 0.0 0.0 0.0 0.0 0.0 0.0 0.0 0.0 0.0 0.0 0.0 0.0 0.0 0.0 0.0 0.0 0.0 0.0 0.0 0.0 0.0 0.0 0.0 0.0 0.0 0.0 0.0 0.0 0.0 0.0 0.0 0.0 0.0 0.0 0.0 0.0 0.0 0.0 0.0 0.0 0.0 0.0 0.0 0.0 0.0 0.0 0.0 0.0 0.0 0.0 0.0 0.0 0.0 0.0 0.0 0.0 0.0 0.0 0.0 0.0 0.0 0.0 0.0 0.0 0.0 0.0 0.0 0.0 0.0 0.0 0.0 0.0 0.0 0.0 0.0 0.0 0.0 0.0 0.0 0.0 0.0 0.0 0.0 0.0 0.0 0.0 0.0 0.0 0.0 0.0 0.0 0.0 0.0 0.0 0.0 0.0 0.0 0.0 0.0 0.0 0.0 0.0 0.0 0.0 0.0 0.0 0.0 0.0 0.0 0.0 0.0 0.0 0.0 0.0 0.0 0.0 0.0 0.0 0.0 0.0 0.0 0.0 0.0 0.0 0.0 0.0 0.0 0.0 0.0 0.0 0.0 0.0 0.0 0.0 0.0 0.0 0.0 0.0 0.0 0.0 0.0 0.0 0.0 0.0 0.0 0.0 0.0 0.0 0.0 0.0 0.0 0.0 0.0 0.0 0.0 0.0 0.0 0.0 0.0 0.0 0.0 0.0 0.0 0.0 0.0 0.0 0.0 0.0 0.0 0.0 0.0 0.0 0.0 0.0 0.0 0.0 0.0 0.0 0.0 0.0 0.0 0.0 0.0 0.0 0.0 0.0 0.0 0.0 0.0 0.0 0.0 0.0 0.0 0.0 0.0 0.0 0.0 0.0 0.0 0.0 0.0 0.0 0.0 0.0 0.0 0.0 0.0 0.0 0.0 0.0 0.0 0.0 0.0 0.0 0.0 0.0 0.0 0.0 0.0 0.0 0.0 0.0 0.0 0.0 0.0 0.0 0.0 0.0 0.0 0.0 0.0 0.0 0.0 0.0 0.0 0.0 0.0 0.0 0.0 0.0 0.0 0.0 0.0 0.0 0.0 0.0 0.0 0.0 0.0 0.0 0.0 0.0 0.0 0.0 0.0 0.0 0.0 0.0 0.0 0.0 0.0 0.0 0.0 0.0 0.0 0.0 0.0 0.0 0.0 0.0 0.0 0.0 0.0 0.0 0.0 0.0 0.0 0.0 0.0 0.0 0.0 0.0 0.0 0.0 0.0 0.0 0.0 0.0 0.0 0.0 0.0 0.0 0.0 0.0 0.0 0.0 0.0 0.0 0.0 0.0 0.0 0.0 0.0 0.0 0.0 0.0 0.0 0.0 0.0 0.0 0.0 0.0 0.0 0.0 0.0 0.0 0.0 0.0 0.0 0.0 0.0 0.0 0.0 0.0 0.0 0.0 0.0 0.0 0.0 0.0 0.0 0.0 0.0 0.0 0.0 0.0 0.0 0.0 0.0 0.0 0.0 0.0 0.0 0.0 0.0 0.0 0.0 0.0 0.0 0.0 0.0 0.0 0.0 0.0 0.0 0.0 0.0 0.0 0.0 0.0 0.0 0.0 0.0 0.0 0.0 0.0 0.0 0.0 0.0 0.0 0.0 0.0 0.0 0.0 0.0 0.0 0.0 0.0 0.0 0.0 0.0 0.0 0.0 0.0 0.0 0.0 0.0 0.0 0.0 0.0 0.0 0.0 0.0 0.0 0.0 0.0 0.0 0.0 0.0 0.0 0.0 0.0 0.0 0.0 0.0 0.0 0.0 0.0 0.0 0.0 0.0 0.0 0.0 0.0 0.0 0.0 0.0 0.0 0.0 0.0 0.0 0.0 0.0 0.0 0.0 0.0 0.0 0.0 0.0 0.0 0.0 0.0 0.0 0.0 0.0 0.0 0.0 0.0 0.0 0.0 0.0 0.0 0.0 0.0 0.0 0.0 0.0 0.0 0.0 0.0 0.0 0.0 0.0 0.0 0.0 0.0 0.0 0.0 0.0 0.0 0.0 0.0 0.0 0.0 0.0 0.0 0.0 0.0 0.0 0.0 0.0 0.0 0.0 0.0 0.0 0.0 0.0 0.0 0.0 0.0 0.0 0.0 0.0 0.0 0.0 0.0 0.0 0.0 0.0 0.0 0.0 0.0 0.0 0.0 0.0 0.0 0.0 0.0 0.0 0.0 0.0 0.0 0.0 0.0 0.0 0.0 0.0 0.0 0.0 0.0 0.0 0.0 0.0 0.0 0.0 0.0 0.0 0.0 0.0 0.0 0.0 0.0 0.0 0.0 0.0 0.0 0.0 0.0 0.0 0.0 0.0 0.0 0.0 0.0 0.0 0.0 0.0 0.0 0.0 0.0 0.0 0.0 0.0 0.0 0.0 0.0 0.0 0.0 0.0 0.0 0.0 0.0 0.0 0.0 0.0 0.0 0.0 0.0 0.0 0.0 0.0 0.0 0.0 0.0 0.0 0.0 0.0 0.0 0.0 0.0 0.0 0.0 0.0 0.0 0.0 0.0 0.0 0.0 0.0 0.0 0.0 0.0 0.0 0.0 0.0 0.0 0.0 0.0 0.0 0.0 0.0 0.0 0.0 0.0 0.0 0.0 0.0 0.0 0.0 0.0 0.0 0.0 0.0 0.0 0.0 0.0 0.0 0.0 0.0 0.0 0.0 0.0 0.0 0.0 0.0 0.0 0.0 0.0 0.0 0.0 0.0 0.0 0.0 0.0 0.0 0.0 0.0 0.0 0.0 0.0 0.0 0.0 0.0 0.0 0.0 0.0 0.0 0.0 0.0 0.0 0.0 0.0 0.0 0.0 0.0 0.0 0.0 0.0 0.0 0.0 0.0 0.0 0.0 0.0 0.0 0.0 0.0 0.0 0.0 0.0 0.0 0.0 0.0 0.0 0.0 0.0 0.0 0.0 0.0 0.0 0.0 0.0 0.0 0.0 0.0 0.0 0.0 0.0 0.0 0.0 0.0 0.0 0.0 0.0 0.0 0.0 0.0 0.0 0.0 0.0 0.0 0.0 0.0 0.0 0.0 0.0 0.0 0.0 0.0 0.0 0.0 0.0 0.0 0.0 0.0 0.0 0.0 0.0 0.0 0.0 0.0 0.0 0.0 0.0 0.0 0.0 0.0 0.0 0.0 0.0 0.0 0.0 0.0 0.0 0.0 0.0 0.0 0.0 0.0 0.0 0.0 0.0 0.0 0.0 0.0 0.0 0.0 0.0 0.0 0.0 0.0 0.0 0.0 0.0 0.0 0.0 0.0 0.0 0.0 0.0 0.0 0.0 0.0 0.0 0.0 0.0 0.0 0.0 0.0 0.0 0.0 0.0 0.0 0.0 0.0 0.0 0.0 0.0 0.0 0.0 0.0 0.0 0.0 0.0 0.0 0.0 0.0 0.0 0.0 0.0 0.0 0.0 0.0 0.0 0.0 0.0 0.0 0.0 0.0 0.0 0.0 0.0 0.0 0.0 0.0 0.0 0.0 0.0 0.0 0.0 0.0 0.0 0.0 0.0 0.0 0.0 0.0 0.0 0.0 0.0 0.0 0.0 0.0 0.0 0.0 0.0 0.0 0.0 0.0 0.0 0.0 0.0 0.0 0.0 0.0 0.0 0.0 0.0 0.0 0.0 0.0 0.0 0.0 0.0 0.0 0.0 0.0 0.0 0.0 0.0 0.0 0.0 0.0 0.0 0.0 0.0 0.0 0.0 0.0 0.0 0.0 0.0 0.0 0.0 0.0 0.0 0.0 0.0 0.0 0.0 0.0 0.0 0.0 0.0 0.0 0.0 0.0 0.0 0.0 0.0 0.0 0.0 0.0 0.0 0.0 0.0 0.0 0.0 0.0 0.0 0.0 0.0 0.0 0.0 0.0 0.0 0.0 0.0 0.0 0.0 0.0 0.0 0.0 0.0 0.0 0.0 0.0 0.0 0.0 0.0 0.0 0.0 0.0 0.0 0.0 0.0 0.0 0.0 0.0 0.0 0.0 0.0 0.0 0.0 0.0 0.0 0.0 0.0 0.0 0.0 0.0 0.0 0.0 0.0 0.0 0.0 0.0 0.0 0.0 0.0 0.0 0.0 0.0 0.0 0.0 0.0 0.0 0.0 0.0 0.0 0.0 0.0 0.0 0.0 0.0 0.0 0.0 0.0 0.0 0.0 0.0 0.0 0.0 0.0 0.0 0.0 0.0 0.0 0.0 0.0 0.0 0.0 0.0 0.0 0.0 0.0 0.0 0.0 0.0 0.0 0.0 0.0 0.0 0.0 0.0 0.0 0.0 0.0 0.0 0.0 0.0 0.0 0.0 0.0 0.0 0.0 0.0 0.0 0.0 0.0 0.0 0.0 0.0 0.0 0.0 0.0 0.0 0.0 0.0 0.0 0.0 0.0 0.0 0.0 0.0 0.0 0.0 0.0 0.0 0.0 0.0 0.0 0.0 0.0 0.0 0.0 0.0 0.0 0.0 0.0 0.0 0.0 0.0 0.0 0.0 0.0 0.0 0.0 0.0 0.0 0.0 0.0 0.0 0.0 0.0 0.0 0.0 0.0 0.0 0.0 0.0 0.0 0.0 0.0 0.0 0.0 0.0 0.0 0.0 0.0 0.0 0.0 0.0 0.0 0.0 0.0 0.0 0.0 0.0 0.0 0.0 0.0 0.0 0.0 0.0 0.0 0.0 0.0 0.0 0.0 0.0 0.0 0.0 0.0 0.0 0.0 0.0 0.0 0.0 0.0 0.0 0.0 0.0 0.0 0.0 0.0 0.0 0.0 0.0 0.0 0.0 0.0 0.0 0.0 0.0 0.0 0.0 0.0 0.0 0.0 0.0 0.0 0.0 0.0 0.0 0.0 0.0 0.0 0.0 0.0 0.0 0.0 0.0 0.0 0.0 0.0 0.0 0.0 0.0 0.0 0.0 0.0 0.0 0.0 0.0 0.0 0.0 0.0 0.0 0.0 0.0 0.0 0.0 0.0 0.0 0.0 0.0 0.0 0.0 0.0 0.0 0.0 0.0 0.0 0.0 0.0 0.0 0.0 0.0 0.0 0.0 0.0 0.0 0.0 0.0 0.0 0.0 0.0 0.0 0.0 0.0 0.0 0.0 0.0 0.0 0.0 0.0 0.0 0.0 0.0 0.0 0.0 0.0 0.0 0.0 0.0 0.0 0.0 0.0 0.0 0.0 0.0 0.0 0.0 0.0 0.0 0.0 0.0 0.0 0.0 0.0 0.0 0.0 0.0 0.0 0.0 0.0 0.0 0.0 0.0 0.0 0.0 0.0 0.0 0.0 0.0 0.0 0.0 0.0 0.0 0.0 0.0 0.0 0.0 0.0 0.0 0.0 0.0 0.0 0.0 0.0 0.0 0.0 0.0 0.0 0.0 0.0 0.0 0.0 0.0 0.0 0.0 0.0 0.0 0.0 0.0 0.0 0.0 0.0 0.0 0.0 0.0 0.0 0.0 0.0 0.0 0.0 0.0 0.0 0.0 0.0 0.0 0.0 0.0 0.0 0.0 0.0 0.0 0.0 0.0 0.0 0.0 0.0 0.0 0.0 0.0 0.0 0.0 0.0 0.0 0.0 0.0 0.0 0.0 0.0 0.0 0.0 0.0 0.0 0.0 0.0 0.0 0.0 0.0 0.0 0.0 0.0 0.0 0.0 0.0 0.0 0.0 0.0 0.0 0.0 0.0 0.0 0.0 0.0 0.0 0.0 0.0 0.0 0.0 0.0 0.0 0.0 0.0 0.0 0.0 0.0 0.0 0.0 0.0 0.0 0.0 0.0 0.0 0.0 0.0 0.0 0.0 0.0 0.0 0.0 0.0 0.0 0.0 0.0 0.0 0.0 0.0 0.0 0.0 0.0 0.0 0.0 0.0 0.0 0.0 0.0 0.0 0.0 0.0 0.0 0.0 0.0 0.0 0.0 0.0 0.0 0.0 0.0 0.0 0.0 0.0 0.0 0.0 0.0 0.0 0.0 0.0 0.0 0.0 0.0 0.0 0.0 0.0 0.0 0.0 0.0 0.0 0.0 0.0 0.0 0.0 0.0 0.0 0.0 0.0 0.0 0.0 0.0 0.0 0.0 0.0 0.0 0.0 0.0 0.0 0.0 0.0 0.0 0.0 0.0 0.0 0.0 0.0 0.0 0.0 0.0 0.0 0.0 0.0 0.0 0.0 0.0 0.0 0.0 0.0 0.0 0.0 0.0 0.0 0.0 0.0 0.0 0.0 0.0 0.0 0.0 0.0 0.0 0.0 0.0 0.0 0.0 0.0 0.0 0.0 0.0 0.0 0.0 0.0 0.0 0.0 0.0 0.0 0.0 0.0 0.0 0.0 0.0 0.0 0.0 0.0 0.0 0.0 0.0 0.0 0.0 0.0 0.0 0.0 0.0 0.0 0.0 0.0 0.0 0.0 0.0 0.0 0.0 0.0 0.0 0.0 0.0 0.0 0.0 0.0 0.0 0.0 0.0 0.0 0.0 0.0 0.0 0.0 0.0 0.0 0.0 0.0 0.0 0.0 0.0 0.0 0.0 0.0 0.0 0.0 0.0 0.0 0.0 0.0 0.0 0.0 0.0 0.0 0.0 0.0 0.0 0.0 0.0 0.0 0.0 0.0 0.0 0.0 0.0 0.0 0.0 0.0 0.0 0.0 0.0 0.0 0.0 0.0 0.0 0.0 0.0 0.0 0.0 0.0 0.0 0.0 0.0 0.0 0.0 0.0 0.0 0.0 0.0 0.0 0.0 0.0 0.0 0.0 0.0 0.0 0.0 0.0 0.0 0.0 0.0 0.0 0.0 0.0 0.0 0.0 0.0 0.0 0.0 0.0 0.0 0.0 0.0 0.0 0.0 0.0 0.0 0.0 0.0 0.0 0.0 0.0 0.0 0.0 0.0 0.0 0.0 0.0 0.0 0.0 0.0 0.0 0.0 0.0 0.0 0.0 0.0 0.0 0.0 0.0 0.0 0.0 0.0 0.0 0.0 0.0 0.0 0.0 0.0 0.0 0.0 0.0 0.0 0.0 0.0 0.0 0.0 0.0 0.0 0.0 0.0 0.0 0.0 0.0 0.0 0.0 0.0 0.0 0.0 0.0 0.0 0.0 0.0 0.0 0.0 0.0 0.0 0.0 0.0 0.0 0.0 0.0 0.0 0.0 0.0 0.0 0.0 0.0 0.0 0.0 0.0 0.0 0.0 0.0 0.0 0.0 0.0 0.0 0.0 0.0 0.0 0.0 0.0 0.0 0.0 0.0 0.0 0.0 0.0 0.0 0.0 0.0 0.0 0.0 0.0 0.0 0.0 0.0 0.0 0.0 0.0 0.0 0.0 0.0 0.0 0.0 0.0 0.0 0.0 0.0 0.0 0.0 0.0 0.0 0.0 0.0 0.0 0.0 0.0 0.0 0.0 0.0 0.0 0.0 0.0 0.0 0.0 0.0 0.0 0.0 0.0 0.0 0.0 0.0 0.0 0.0 0.0 0.0 0.0 0.0 0.0 0.0 0.0 0.0 0.0 0.0 0.0 0.0 0.0 0.0 0.0 0.0 0.0 0.0 0.0 0.0 0.0 0.0 0.0 0.0 0.0 0.0 0.0 0.0 0.0 0.0 0.0 0.0 0.0 0.0 0.0 0.0 0.0 0.0 0.0 0.0 0.0 0.0 0.0 0.0 0.0 0.0 0.0 0.0 0.0 0.0 0.0 0.0 0.0 0.0 0.0 0.0 0.0 0.0 0.0 0.0 0.0 0.0 0.0 0.0 0.0 0.0 0.0 0.0 0.0 0.0 0.0 0.0 0.0 0.0 0.0 0.0 0.0 0.0 0.0 0.0 0.0 0.0 0.0 0.0 0.0 0.0 0.0 0.0 0.0 0.0 0.0 0.0 0.0 0.0 0.0 0.0 0.0 0.0 0.0 0.0 0.0 0.0 0.0 0.0 0.0 0.0 0.0 0.0 0.0 0.0 0.0 0.0 0.0 0.0 0.0 0.0 0.0 0.0 0.0 0.0 0.0 0.0 0.0 0.0 0.0 0.0 0.0 0.0 0.0 0.0 0.0 0.0 0.0 0.0 0.0 0.0 0.0 0.0 0.0 0.0 0.0 0.0 0.0 0.0 0.0 0.0 0.0 0.0 0.0 0.0 0.0 0.0 0.0 0.0 0.0 0.0 0.0 0.0 0.0 0.0 0.0 0.0 0.0 0.0 0.0 0.0 0.0 0.0 0.0 0.0 0.0 0.0 0.0 0.0 0.0 0.0 0.0 0.0 0.0 0.0 0.0 0.0 0.0 0.0 0.0 0.0 0.0 0.0 0.0 0.0 0.0 0.0 0.0 0.0 0.0 0.0 0.0 0.0 0.0 0.0 0.0 0.0 0.0 0.0 0.0 0.0 0.0 0.0 0.0 0.0 0.0 0.0 0.0 0.0 0.0 0.0 0.0 0.0 0.0 0.0 0.0 0.0 0.0 0.0 0.0 0.0 0.0 0.0 0.0 0.0 0.0 0.0 0.0 0.0 0.0 0.0 0.0 0.0 0.0 0.0 0.0 0.0 0.0 0.0 0.0 0.0 0.0 0.0 0.0 0.0 0.0 0.0 0.0 0.0 0.0 0.0 0.0 0.0 0.0 0.0 0.0 0.0 0.0 0.0 0.0 0.0 0.0 0.0 0.0 0.0 0.0 0.0 0.0 0.0 0.0 0.0 0.0 0.0 0.0 0.0 0.0 0.0 0.0 0.0 0.0 0.0 0.0 0.0 0.0 0.0 0.0 0.0 0.0 0.0 0.0 0.0 0.0 0.0 0.0 0.0 0.0 0.0 0.0 0.0 0.0 0.0 0.0 0.0 0.0 0.0 0.0 0.0 0.0 0.0 0.0 0.0 0.0 0.0 0.0 0.0 0.0 0.0 0.0 0.0 0.0 0.0 0.0 0.0 0.0 0.0 0.0 0.0 0.0 0.0 0.0 0.0 0.0 0.0 0.0 0.0 0.0 0.0 0.0 0.0 0.0 0.0 0.0 0.0 0.0 0.0 0.0 0.0 0.0 0.0 0.0 0.0 0.0 0.0 0.0 0.0 0.0 0.0 0.0 0.0 0.0 0.0 0.0 0.0 0.0 0.0 0.0 0.0 0.0 0.0 0.0 0.0 0.0 0.0 0.0 0.0 0.0 0.0 0.0 0.0 0.0 0.0 0.0 0.0 0.0 0.0 0.0 0.0 0.0 0.0 0.0 0.0 0.0 0.0 0.0 0.0 0.0 0.0 0.0 0.0 0.0 0.0 0.0 0.0 0.0 0.0 0.0 0.0 0.0 0.0 0.0 0.0 0.0 0.0 0.0 0.0 0.0 0.0 0.0 0.0 0.0 -0.13698685542467132 0.0 -0.052380253309506304 -0.16174398004359938 0.0 -0.048927441223186 -0.18221288055532192 0.0 -0.0431956130798903 -0.1982576409564409 0.0 -0.0366813729170343 -0.21044188126104693 0.0 -0.02990322794758068 -0.1369632994240824 0.0 -0.0694892657372316 -0.1827794605694864 0.0 -0.062080969552024204 -0.21872077346801924 0.0 -0.0589417574735439 -0.2466454581661363 0.0 -0.052928537323213405 -0.2677744946943622 0.0 -0.0455077971376949 -0.2833907190847678 0.0 -0.03737965013449124 -0.1866610806665269 0.0 -0.0756231098905777 -0.24625235415630872 0.0 -0.0688217657205441 -0.2923938353098457 0.0 -0.0639283415982085 -0.3282020642050514 0.0 -0.057018581425464496 -0.3548811048720274 0.0 -0.0493264252331606 -0.3743567573589187 0.0 -0.0406404730160118 -0.2483835742095892 0.0 -0.080745842018646 -0.3240923961023097 0.0 -0.07214181780354541 -0.3807897415197433 0.0 -0.0663889896597247 -0.424165730604143 0.0 -0.0588495014712375 -0.456352531408813 0.0 -0.050673241266831 -0.47953921198848 0.0 -0.041632881040822 -0.3231548400788708 0.0 -0.0866091741652293 -0.41740609043515203 0.0 -0.07420904985522621 -0.485540692138517 0.0 -0.0671550056788751 -0.536522893413072 0.0 -0.0589327334733183 -0.5739174543479361 0.0 -0.050332625258315604 -0.600422695010567 0.0 -0.041017761025444 -0.4143394503584859 0.0 -0.0945045983626149 -0.529925973248149 0.0 -0.0757661378941534 -0.610208295255207 0.0 -0.0665896896647422 -0.6686856967171421 0.0 -0.0575020454375511 -0.710754857768871 0.0 -0.048717069217926706 -0.7399680184992 0.0 -0.039308626582715646 -0.526940893173522 0.0 -0.1057691106442277 -0.666360776659019 0.0 -0.078097441952436 -0.758960178974004 0.0 -0.06554100563852511 -0.824465380611634 0.0 -0.055126813378170304 -0.8702807817570191 0.0 -0.046520461163011506 -0.901335062533376 0.0 -0.037269837731745914 -0.667328096683202 0.0 -0.12265491906637291 -0.8319157807978941 0.0 -0.0831619300790482 -0.9356785833919641 0.0 -0.0661805176545129 -1.0074500251862502 0.0 -0.0534636253365906 -1.05587122639678 0.0 -0.045061653126541305 -1.087570507189262 0.0 -0.036193741304843506 -0.845306901132672 0.0 -0.1428981835724545 -1.032096705802417 0.0 -0.0920330063008251 -1.145356588633914 0.0 -0.0697233697430842 -1.2208253105206321 0.0 -0.055498933387473304 -1.270457951761448 0.0 -0.047035121175878006 -1.301575992539399 0.0 -0.038364026959100656 -1.077815546945388 0.0 -0.153493123837328 -1.274076391851909 0.0 -0.1025327705633192 -1.391794514794862 0.0 -0.0778128179453204 -1.468283676707091 0.0 -0.06364481759112041 -1.5177888379447202 0.0 -0.0543850573596264 -1.546220238655505 0.0 -0.046520461163011506 -1.380328194508204 0.0 -0.1532794998319874 -1.5695997592399928 0.0 -0.1119681387992034 -1.6818581220464524 0.0 -0.0900398262509956 -1.7544804038620092 0.0 -0.0787775779694394 -1.8003679650091977 0.0 -0.0713625937840648 -1.8244915656122882 0.0 -0.0632337575808439 -1.73065724326643 0.0 -0.2287950577198763 -1.9233280480832002 0.0 -0.1499544197488604 -2.021745930543647 0.0 -0.11894083497352081 -2.0854145721353627 0.0 -0.1053644226341105 -2.122326893058171 0.0 -0.0995874784896869 -2.139205213480129 0.0 -0.0910120382753009 -2.171900214297504 0.0 -0.532835413320885 -2.346978618674464 0.0 -0.3139348118483701 -2.420980140524502 0.0 -0.20990639324765972 -2.4665726216643145 0.0 -0.1642425561060638 -2.4879292221982294 0.0 -0.1480187077004676 -2.49383246234581 0.0 -0.13404280335107 -2.759866788996668 0.0 -0.8286087407152181 -2.869434631735864 0.0 -0.540243053506076 -2.89799047244976 0.0 -0.3553686248842154 -2.905627112640676 0.0 -0.26560550264013744 -2.9025263525631573 0.0 -0.2250405376260133 -2.892723352318082 0.0 -0.1965328969133223 -3.4746540868663502 0.0 -1.035915985897899 -3.488013527200336 0.0 -0.741642858541071 -3.446553126163826 0.0 -0.520218973005474 -3.4030876850771903 0.0 -0.3951744418793608 -3.368777564219437 0.0 -0.3248219561205487 -3.3398930434973244 0.0 -0.2779645029491124 -4.26500050662501 0.0 -1.2085515502137878 -4.17227450430686 0.0 -0.9080921427023031 -4.051907301297679 0.0 -0.677903296947582 -3.9542073388551815 0.0 -0.5336380133409501 -3.8873135771828373 0.0 -0.43889457097236395 -3.8379715759492874 0.0 -0.3727747773193692 -5.09732612743315 0.0 -1.369264354231608 -4.90203932255098 0.0 -1.059209746480243 -4.706032517650811 0.0 -0.822755060568876 -4.55618731390468 0.0 -0.667988616699715 -4.45796491144912 0.0 -0.559272093981802 -4.3889597097239905 0.0 -0.478603531965088 -5.96225574905639 0.0 -1.532791478319786 -5.67719534192988 0.0 -1.2058285101457122 -5.41041333526033 0.0 -0.9612915440322879 -5.21075173026879 0.0 -0.8028134600703359 -5.08237732705943 0.0 -0.6841763371044081 -4.994047724851191 0.0 -0.593090374827259 -6.879287771982191 0.0 -1.705619482640486 -6.511165762779141 0.0 -1.353807673845191 -6.17270095431752 0.0 -1.0992467074811672 -5.921037748025941 0.0 -0.9401239435030979 -5.76169974404249 0.0 -0.8149101403727531 -5.654987341374681 0.0 -0.7138759378468981 -7.8784081969602004 0.0 -1.886985807174644 -7.417768185444201 0.0 -1.5077290776932262 -6.99833697495842 0.0 -1.242988151074703 -6.692388167309701 0.0 -1.079526466988161 -6.496634162415851 0.0 -0.953772383844309 -6.37230455930761 0.0 -0.8433254610831361 -8.97365582434139 0.0 -2.0797840519946003 -8.40208461005211 0.0 -1.6705652817641312 -7.88797859719946 0.0 -1.397024554925613 -7.519526187988151 0.0 -1.2325554308138849 -7.28740498218512 0.0 -1.104420587610514 -7.147232978680821 0.0 -0.9832349045808723 -10.16528105413202 0.0 -2.2928366173209143 -9.465244636631109 0.0 -1.8480774462019351 -8.84080542102013 0.0 -1.569313959232848 -8.40223421005585 0.0 -1.403272275081806 -8.13376860334421 0.0 -1.269123471728086 -7.98127859953196 0.0 -1.133650628341265 -11.46211108655277 0.0 -2.521380503034511 -10.60726946518173 0.0 -2.0472548111813693 -9.85501504637537 0.0 -1.764815004120374 -9.33868903346722 0.0 -1.593456799836419 -9.03541822588545 0.0 -1.4478625561965628 -8.875710621892761 0.0 -1.2937694723442361 -12.868042241632159 0.0 -2.7739434087280963 -11.829034369174842 0.0 -2.2769308338524765 -10.929701555077179 0.0 -1.9892217654457578 -10.328294419318151 0.0 -1.8032355486377099 -9.992990690519221 0.0 -1.6396523735277162 -9.83235441108507 0.0 -1.4606184013782557 -14.39305809429411 0.0 -3.064343061419365 -13.133732481266719 0.0 -2.5472502100677437 -12.064689452105359 0.0 -2.242168384422596 -11.372179739699678 0.0 -2.028856143855824 -11.00744765222146 0.0 -1.8403359232096634 -10.85172666607536 0.0 -1.6347539650930882 -16.056388886562498 0.0 -3.405171294476916 -14.528263447593282 0.0 -2.8699982557624 -13.263824125855793 0.0 -2.523268775327981 -12.472679758616 0.0 -2.26475112963456 -12.079855183869968 0.0 -2.048467445457721 -11.93528872474735 0.0 -1.8114645566052598 -17.8863056610336 0.0 -3.81398541345312 -16.0220337195808 0.0 -3.2558802992518405 -14.532096982247042 0.0 -2.8280698078562865 -13.62916233632178 0.0 -2.506629813648112 -13.211430648345138 0.0 -2.2536143034711023 -13.0808695333344 0.0 -1.9857524569152003 -19.90727352679896 0.0 -4.30939396886776 -17.6177320319724 0.0 -3.7203864814419365 -15.86532403372832 0.0 -3.160792454002888 -14.840844482463101 0.0 -2.7570884699199105 -14.39864453162854 0.0 -2.467296892153432 -14.284083634532298 0.0 -2.176392912317 -22.10577826909473 0.0 -4.914742556651131 -19.293874067869048 0.0 -4.28501175524694 -17.2454946841665 0.0 -3.5323362768087 -16.0910141536467 0.0 -2.997045785043972 -15.615278878545451 0.0 -2.6882949409667733 -15.524498040811318 0.0 -2.360702134723152 -24.38891036938224 0.0 -5.705782485161521 -20.974257609041718 0.0 -4.9716666526780005 -18.616210165115298 0.0 -3.97085201261395 -17.33236711883538 0.0 -3.257632850169412 -16.84732167732621 0.0 -2.8018152892172283 -16.75374808441575 0.0 -2.523166563701941 -26.600153447673364 0.0 -6.841245750225199 -22.545075453792162 0.0 -5.821161990613601 -19.89630094041672 0.0 -4.50771044002716 -18.55138530480924 0.0 -3.4163342865671673 -18.01497885701456 0.0 -2.918624367502648 -17.889008542426247 0.0 -2.66534156191625 -28.52579414789985 0.0 -8.40726745758912 -23.933945913479462 0.0 -6.898454223967259 -21.1960678023822 0.0 -4.85701557070422 -19.68543961209375 0.0 -3.6032509864312505 -19.01104310924514 0.0 -3.0791652753081027 -18.862423076215173 0.0 -2.868612827179512 -29.855473215457096 0.0 -10.691328467520558 -25.09175777274912 0.0 -8.36590158864723 -22.2373732975785 0.0 -5.5155435231486 -20.57966423169066 0.0 -3.9652516861240623 -19.83368084285049 0.0 -3.254479883285259 -19.620640388252998 0.0 -2.975893053318984 -30.60094581186786 0.0 -13.689547102494119 -25.78838273815845 0.0 -10.28843147363493 -22.974490439235897 0.0 -6.1817445799482 -21.25214529153705 0.0 -4.16330227063809 -20.475085546460072 0.0 -3.2230029243876395 -20.2789043011452 0.0 -2.926571318724048 -30.465076833573118 0.0 -17.06708087833368 -25.972119072847498 0.0 -11.6428978376538 -23.3973487809468 0.0 -6.9110920329839995 -21.554392951213444 0.0 -4.68549629069214 -20.73371620597368 0.0 -3.4273827034536177 -20.50623546162856 0.0 -3.1273479418268915 -26.517190099466642 0.0 -18.672274236713722 -25.160902629068 0.0 -12.70213179818472 -23.431676624113837 0.0 -7.4902857855072895 -21.40016159844792 0.0 -5.66296573858242 -20.15685720656919 0.0 -4.778457965745059 -19.815800858638557 0.0 -4.509550252067401 -17.70605242034688 0.0 -20.176769815295202 -18.0302896637215 0.0 -14.1973387140101 -18.360456248649 0.0 -8.2676583818988 -18.52035218690132 0.0 -6.4761543712866 -18.43303164758902 0.0 -6.50394027230486 -18.59100413816646 0.0 -7.547385095730481 -10.34864846505703 0.0 -22.136152037649083 -10.6395615556265 0.0 -15.36622355450335 -11.020971010135789 0.0 -8.668977248018619 -11.441732948661759 0.0 -6.031715772248321 -11.833758723047799 0.0 -6.189456158060559 -12.22820224639546 0.0 -7.4774927995263605 -5.43036706927374 0.0 -23.64737059745093 -5.62143603526784 0.0 -16.4781540311296 -5.890064292252501 0.0 -8.627130546289251 -6.21996491906782 0.0 -5.76792194651171 -6.58069633417542 0.0 -5.60898639332356 -6.934044053679751 0.0 -6.913445849469901 -2.329520722851699 0.0 -24.6530210953761 -2.38265735736471 0.0 -17.250673797474537 -2.488507994710269 0.0 -8.67690026085231 -2.6559486988437597 0.0 -5.678631677885041 -2.8732095735881424 0.0 -5.24573503034924 -3.1117036636860815 0.0 -6.420755712767949 0.09247561456974869 0.0 -25.18922961953064 0.1544199419561292 0.0 -17.88261715583844 0.190339748669115 0.0 -8.805053397078 0.1786749745848759 0.0 -5.63599242064791 0.1163184929463825 0.0 -5.17006393292975 0.016774422722380958 0.0 -6.169131466739359 2.7992951651606996 0.0 -25.316177943658978 2.91444054404108 0.0 -18.1187777412064 3.023457422911178 0.0 -9.0252074037521 3.1026010705089897 0.0 -5.814709670464801 3.141196328441808 0.0 -5.34693161868207 3.139011624476832 0.0 -6.05264723711232 6.1706413849503505 0.0 -25.02023961383925 6.2735865054546 0.0 -17.93735750545708 6.3786380387960095 0.0 -9.13533794538392 6.4656075161510005 0.0 -6.068209024940999 6.5236702145050804 0.0 -5.533310111041439 6.545069142551521 0.0 -6.04725024151344 10.03010769560814 0.0 -24.45021311197096 10.07707379738576 0.0 -17.5160715719912 10.124754064684321 0.0 -9.14039979428428 10.15591859716112 0.0 -6.24970204214972 10.16379097690762 0.0 -5.7017804452297 10.140715301471358 0.0 -6.067984913335679 13.951232743637762 0.0 -23.65291077521916 13.92630106717024 0.0 -16.94639408683872 13.894552482802379 0.0 -9.040141731628468 13.839394969792199 0.0 -6.3543076980942494 13.759344657327121 0.0 -5.7941971050520795 13.6521146684106 0.0 -6.03988753378701 17.52070157194428 0.0 -22.6593868636323 17.427462335860497 0.0 -16.32529347403275 17.31817441193928 0.0 -8.8398246172815 17.175467700773638 0.0 -6.39707194149264 16.94252154535994 0.0 -5.68980247505302 16.80510997372029 0.0 -5.92052887824611 20.451762250655037 0.0 -21.54458473512576 20.302243029508677 0.0 -15.675722301120839 20.190050484222038 0.0 -8.631522314575541 19.89102676545894 0.0 -6.33741220038108 19.54465781245288 0.0 -5.49040608139736 19.296789648127216 0.0 -5.711712423329479 22.59615988210083 0.0 -20.27473100460337 22.42893905915725 0.0 -14.866367172479102 22.2715615786815 0.0 -8.277158793807999 21.687178218523858 0.0 -6.0147902340591095 20.766344176664642 0.0 -5.20596017978976 19.98145765702428 0.0 -5.50866510737496 24.12235698791671 0.0 -18.80243142063801 23.87700659432704 0.0 -13.82154210246656 23.64782055150592 0.0 -7.843869606742399 22.302576776000937 0.0 -5.7246027347004 20.88277320436183 0.0 -5.12932148047164 20.0823500957824 0.0 -5.3192434146323 25.456479183001022 0.0 -17.25772065279276 25.00476392346768 0.0 -12.691581535622879 24.22008926486676 0.0 -7.37170280244522 22.22324258633332 0.0 -5.49899777651344 20.897419376582 0.0 -5.0924938840504 20.1120781902173 0.0 -5.164477644278881 27.121469394347297 0.0 -16.000437620738648 26.114747368721204 0.0 -11.5054526493516 24.27057195054576 0.0 -6.915896456678039 22.14437519847216 0.0 -5.2861653888584 20.890155410961608 0.0 -5.009805798531641 20.11907731304232 0.0 -4.98792072383621 29.498668292880048 0.0 -15.11806421257375 27.373262475656922 0.0 -10.29968228602732 24.41704573009775 0.0 -6.44191676354862 22.19885252192902 0.0 -5.062078939588379 20.93437664592164 0.0 -4.84268563409488 20.04134911375784 0.0 -4.94372239540322 32.83789347996707 0.0 -13.449306918959758 28.8758274394865 0.0 -9.392987353458501 24.775215746851 0.0 -6.01104896009192 22.379238735528897 0.0 -4.85529391575262 20.975100696231742 0.0 -4.5717611191704295 20.0591145630525 0.0 -4.6619801257299995 36.24545262486918 0.0 -10.8672943683081 30.455884981373195 0.0 -8.40770660374514 25.54947350424525 0.0 -5.669040679235009 22.66697389629025 0.0 -4.71518510454075 21.08774858717406 0.0 -4.36720322989049 20.02983713263182 0.0 -4.27925052087416 38.39540961152128 0.0 -9.2718642510262 32.04176674073464 0.0 -7.579916313281919 26.5941459536202 0.0 -5.3827449751692 23.201234505919636 0.0 -4.43874251136522 21.28897636458544 0.0 -4.11585651211721 20.02048514153746 0.0 -3.9094759407314736 33.863512056187396 0.0 -6.982944094274139 27.86174867274424 0.0 -5.107528796036 23.97669409394 0.0 -4.104750946716 21.71182447016606 0.0 -3.760867046270006 20.1208826239368 0.0 -3.54108931262764 35.701227972937076 0.0 -6.48278559395838 29.644493954968326 0.0 -4.829078995920931 25.0949901768519 0.0 -3.655953173857291 22.317451234615678 0.0 -3.304453695093408 20.40400634261613 0.0 -3.114937900914774 31.84693036505772 0.0 -4.81013885900412 26.69363370491436 0.0 -3.432506367543258 23.297543221861083 0.0 -2.916987432115968 20.910327888773637 0.0 -2.6814434006116197 34.001266781768585 0.0 -4.91446062609012 28.933384612547698 0.0 -3.636245212271205 24.78226941005886 0.0 -2.760127376102334 21.79193609164443 0.0 -2.3920801474314093 31.35204138701076 0.0 -4.07138452099528 26.867983439898598 0.0 -2.9791469348973236 23.29367596246054 0.0 -2.383445099287898 29.23729965029376 0.0 -3.4902528484828856 25.44626313627672 0.0 -2.745241462511046 30.93759124128827 0.0 -3.63973390095661 27.769592185266568 0.0 -3.248330966222245 -0.21904769347619218 0.0 -0.02362561899064046 -0.2246835296170881 0.0 -0.0179257964481449 -0.2278298416957459 0.0 -0.01329505913237647 -0.2292065217301629 0.0 -0.0095188442379711 -0.22942376573559403 0.0 -0.00658141336453533 -0.22898278972456962 0.0 -0.004394587309864681 -0.22828546170713643 0.0 -0.002760823509020586 -0.22760148569003702 0.0 -0.0015916660797916512 -0.2271225976780648 0.0 -0.000715485777887144 -0.29417715935442884 0.0 -0.02953293393832333 -0.30083156352078894 0.0 -0.02253925576348138 -0.3041815836045394 0.0 -0.016763700819092512 -0.3052898956322472 0.0 -0.01194828389870709 -0.3049387516234686 0.0 -0.00827778580694464 -0.303836447595911 0.0 -0.0054953201373830005 -0.30250421156260515 0.0 -0.003456948406423708 -0.3013110715327766 0.0 -0.001987796129694902 -0.30050307151257666 0.0 -0.0008962229024055719 -0.3873988736849716 0.0 -0.03228525320713131 -0.3950498698762465 0.0 -0.024745092218627293 -0.3985185259629629 0.0 -0.01831167685779191 -0.39913488597837193 0.0 -0.013036003925900088 -0.39799233394980815 0.0 -0.009000789025019721 -0.39602890990072254 0.0 -0.00589175014729375 -0.3938818538470461 0.0 -0.003681650852041269 -0.3920418378010457 0.0 -0.002082830332070757 -0.390817889770447 0.0 -0.000939857903496447 -0.49468881236721995 0.0 -0.03291422522285561 -0.5030641725766041 0.0 -0.025184745029618608 -0.506358172658954 0.0 -0.01843877926096947 -0.5061795326544881 0.0 -0.01301196232529905 -0.503992372599809 0.0 -0.00879490701987267 -0.500910492522762 0.0 -0.00567235494180887 -0.497761692444042 0.0 -0.003448024846200619 -0.495134932378373 0.0 -0.0019121481678037032 -0.49341309233532704 0.0 -0.0008403267010081671 -0.6172005354300131 0.0 -0.032204026805100656 -0.62584921564623 0.0 -0.02440560381014008 -0.628479295711982 0.0 -0.01758087923952197 -0.627072775676819 0.0 -0.012215366705384161 -0.623458975586474 0.0 -0.0080135362003384 -0.6189520154738 0.0 -0.00501984212549605 -0.614562175364054 0.0 -0.0029131217528280424 -0.6109724952743121 0.0 -0.001555607518890187 -0.6086500952162521 0.0 -0.0006542358163558951 -0.757689938942248 0.0 -0.030651492766287303 -0.76597001914925 0.0 -0.022848684171217094 -0.7672635391815881 0.0 -0.016255674006391843 -0.7640857391021431 0.0 -0.010992408674810212 -0.75854361896359 0.0 -0.007001635775040891 -0.752227938805698 0.0 -0.00416674490416862 -0.746285258657131 0.0 -0.002289600337240007 -0.7415236585380911 0.0 -0.001129165708229142 -0.738470698461767 0.0 -0.000448054291201357 -0.919115262977881 0.0 -0.029052279126306958 -0.926177823154445 0.0 -0.021470036136750893 -0.9253751031343771 0.0 -0.015178469179461722 -0.919742982993574 0.0 -0.010069697051742422 -0.9117007427925178 0.0 -0.00628732095718302 -0.903108982577724 0.0 -0.003587514609687863 -0.89525882238147 0.0 -0.001882566007064149 -0.889071982226799 0.0 -0.000863657461591436 -0.885136622128415 0.0 -0.00031892134397303344 -1.1043613876090341 0.0 -0.028535587113389656 -1.1092169077304221 0.0 -0.02131018533275462 -1.105414507635362 0.0 -0.015351689183792223 -1.096553467413836 0.0 -0.01030313985757849 -1.085363987134099 0.0 -0.006585820964645521 -1.0739698668492461 0.0 -0.003842243656056089 -1.063814866595371 0.0 -0.002095157692378941 -1.0559157463978928 0.0 -0.0010165757854143941 -1.050928066273201 0.0 -0.00039864658596616443 -1.316179392904484 0.0 -0.031025267575631673 -1.3177333129433322 0.0 -0.023978910599472752 -1.3099882327497052 0.0 -0.018096869252421724 -1.2970629924265742 0.0 -0.012827979520699482 -1.282032912050822 0.0 -0.00879858621996465 -1.26726563168164 0.0 -0.005626160540654011 -1.254357471358936 0.0 -0.003445935726148391 -1.24442763111069 0.0 -0.001917057327926432 -1.2381952709548811 0.0 -0.000851610341290258 -1.557246638931165 0.0 -0.03897181857429544 -1.554301958857548 0.0 -0.03163017999075448 -1.5416673985416842 0.0 -0.025113699427842473 -1.523843798096094 0.0 -0.01894640367366008 -1.5042470376061752 0.0 -0.013924125148103123 -1.4855004771375109 0.0 -0.00969999144249978 -1.469358196733954 0.0 -0.00647765856194146 -1.457054076426351 0.0 -0.00391866125796653 -1.4493699562342481 0.0 -0.001848881166222028 -1.8302006057550142 0.0 -0.05510563337764081 -1.8216343255408574 0.0 -0.0464141731603543 -1.8031687250792174 0.0 -0.0381508329537708 -1.7796232844905813 0.0 -0.030015564750389103 -1.7547415238685373 0.0 -0.02298575537464387 -1.731396723284917 0.0 -0.01682920202073004 -1.7115366427884153 0.0 -0.011705673092641821 -1.6965010024125242 0.0 -0.007369226584230661 -1.6871515621787883 0.0 -0.003553656968841422 -2.137924253448105 0.0 -0.0817962060449051 -2.122811373070283 0.0 -0.0699802177495054 -2.097619852440495 0.0 -0.0584954694623867 -2.067526291688156 0.0 -0.0472567691814192 -2.036647850916195 0.0 -0.036884997322124906 -2.008099970202498 0.0 -0.02771515909287896 -1.984048889601221 0.0 -0.019627230490680752 -1.965931169148278 0.0 -0.01254010991350274 -1.954700528867512 0.0 -0.0061075273526881805 -2.4842079821051977 0.0 -0.1196770709919267 -2.461233381530833 0.0 -0.1035793465894836 -2.4284415007110356 0.0 -0.0872694621817365 -2.390989939774747 0.0 -0.0714150857853771 -2.3534651388366274 0.0 -0.056264421406610504 -2.3191395379784874 0.0 -0.0426309370657734 -2.290396737259917 0.0 -0.030551702363792545 -2.2688622167215544 0.0 -0.019664948091623693 -2.2555452963886307 0.0 -0.00959244783981119 -2.87272767181819 0.0 -0.1720167083004176 -2.840676551016912 0.0 -0.1482803757070093 -2.799281589982038 0.0 -0.12513636712840912 -2.753795508844886 0.0 -0.102525522563138 -2.708845987721148 0.0 -0.0813591020339775 -2.6681961867049027 0.0 -0.061877253546931306 -2.6343384258584592 0.0 -0.044450873111271806 -2.6090081052252008 0.0 -0.02873475631836889 -2.5934181848354534 0.0 -0.01406931595173289 -3.307428842685719 0.0 -0.23890326597258152 -3.265010521625261 0.0 -0.2044299171107478 -3.2139500403487498 0.0 -0.1723968803099219 -3.159557038988924 0.0 -0.14076252351906302 -3.1066157176653912 0.0 -0.111574722789368 -3.0590443564761074 0.0 -0.0853114461327861 -3.0196781954919527 0.0 -0.06144520153613 -2.9902542747563547 0.0 -0.039789602994740055 -2.972162514304061 0.0 -0.01940489448512235 -3.7916867347921657 0.0 -0.3189367839734194 -3.7377507334437663 0.0 -0.27152715478817874 -3.6760350119008733 0.0 -0.22810707770267682 -3.6119740502993496 0.0 -0.1855231926380797 -3.55051928876298 0.0 -0.1470298796757469 -3.495549487388735 0.0 -0.11249444681236109 -3.450293806257344 0.0 -0.08080910202022751 -3.4166264454156594 0.0 -0.05244194931104871 -3.395843204896079 0.0 -0.02556669783916743 -4.32830610820765 0.0 -0.41000725025018103 -4.26204650655116 0.0 -0.3476563526914086 -4.18927330473183 0.0 -0.2913525872838145 -4.11512450287811 0.0 -0.2374028739350717 -4.0445881011147 0.0 -0.1872492486812311 -3.98181009954525 0.0 -0.1429157515728937 -3.930337618258439 0.0 -0.10217278255431951 -3.892199817304993 0.0 -0.0662541416563535 -3.8685349367133712 0.0 -0.03230818600770463 -4.919569722989241 0.0 -0.510858292771457 -4.84138612103465 0.0 -0.433374690834367 -4.757193318929831 0.0 -0.3612426130310651 -4.6726005168150095 0.0 -0.29390028334750695 -4.592885714822141 0.0 -0.2308702537717562 -4.522028913050721 0.0 -0.17546859238671472 -4.46400731160018 0.0 -0.12475391911884791 -4.42091491052287 0.0 -0.0800603940015098 -4.3944161098603995 0.0 -0.0392949649823741 -5.56744493918612 0.0 -0.618583535464588 -5.47826253695656 0.0 -0.5253052531326311 -5.383123334578079 0.0 -0.4357084508927111 -5.288385732209641 0.0 -0.3531918848297969 -5.19934612998365 0.0 -0.27542918288572943 -5.12044332801108 0.0 -0.2089672612241814 -5.05552852638821 0.0 -0.147533683688342 -5.00719732517993 0.0 -0.093949242348731 -4.97750092443752 0.0 -0.0461171091529277 -6.274065356851631 0.0 -0.7341013783525341 -6.17593855439846 0.0 -0.6230576555764411 -6.07161255179031 0.0 -0.515564092889102 -5.9666921491673 0.0 -0.41441189036029696 -5.86832654670816 0.0 -0.3200425720010641 -5.781048144526201 0.0 -0.2416971740424292 -5.70877534271938 0.0 -0.169291764232294 -5.654674941366871 0.0 -0.10693068667326712 -5.62142774053569 0.0 -0.0523960053099001 -7.041650576041261 0.0 -0.8575190614379761 -6.937421773435541 0.0 -0.7256516581412911 -6.82547537063688 0.0 -0.598499414962485 -6.71140376778509 0.0 -0.47582729189568196 -6.60366216509155 0.0 -0.3637298450932459 -6.50696896267422 0.0 -0.2712702107817551 -6.4269561606739005 0.0 -0.1888347567208688 -6.36637855915946 0.0 -0.1182965189574129 -6.328979358224481 0.0 -0.0577477574436939 -7.872553396813831 0.0 -0.9884985047124621 -7.765748194143701 0.0 -0.8321663008041571 -7.6479057911976405 0.0 -0.682966977074174 -7.5259369881484215 0.0 -0.536637853415946 -7.40866658521666 0.0 -0.40583325014583105 -7.3016861825421495 0.0 -0.2989641994741048 -7.21257018031425 0.0 -0.20662699316567473 -7.14430577860764 0.0 -0.12802403120060069 -7.10193257754831 0.0 -0.06252912556322811 -8.76888541922213 0.0 -1.126147188153679 -8.66370581659264 0.0 -0.942172183554304 -8.541436213535901 0.0 -0.769732059243301 -8.41290381032259 0.0 -0.597032174925804 -8.28581780714544 0.0 -0.448689931217248 -8.167227404180679 0.0 -0.3253420201335503 -8.06669100166727 0.0 -0.22322402558060053 -7.989220599730511 0.0 -0.13690058342251452 -7.94059939851498 0.0 -0.0668363776709094 -9.73282640933785 0.0 -1.2690224580015708 -9.63337276003344 0.0 -1.056702748041776 -9.5091274636698 0.0 -0.8562964044426798 -9.37401105489784 0.0 -0.659741970650458 -9.23575548289328 0.0 -0.49306487167713603 -9.104313325162881 0.0 -0.3529218155056704 -8.98979211350475 0.0 -0.242157208426553 -8.90087041346795 0.0 -0.147198733598389 -8.844313013162878 0.0 -0.069782203738544 -10.76627519577379 0.0 -1.41660003096274 -10.676163236874238 0.0 -1.177681632940456 -10.5516523599159 0.0 -0.9483089472678489 -10.40992425633105 0.0 -0.7326596925144749 -10.258566008251398 0.0 -0.54597532929548 -10.111964761333931 0.0 -0.39169403147027565 -9.9815729279826 0.0 -0.2651333420160012 -9.87807978351065 0.0 -0.1617390626495483 -9.81175085805189 0.0 -0.0753524609192762 -11.8696566716421 0.0 -1.568624728486534 -11.792307118166452 0.0 -1.308005016046835 -11.66905613646248 0.0 -1.06045217283195 -11.51994284664368 0.0 -0.8234793230345299 -11.35365145974469 0.0 -0.61789699110421 -11.18884466522212 0.0 -0.448994862749849 -11.038221824088001 0.0 -0.30547678053056404 -10.91774045645437 0.0 -0.1883828876263539 -10.83976898912768 0.0 -0.0892819576743136 -13.038563718019201 0.0 -1.7229642301491201 -12.977914502251538 0.0 -1.450752710036518 -12.863311041459662 0.0 -1.189262199988542 -12.7049188163798 0.0 -0.9410628461188979 -12.52147664729294 0.0 -0.7189453081916001 -12.334004008992 0.0 -0.5332560778387201 -12.15928077524475 0.0 -0.372460766509895 -12.018395538579089 0.0 -0.23562136778936346 -11.926728234608001 0.0 -0.11397498333395202 -14.26766410846218 0.0 -1.905600089841474 -14.226166684652599 0.0 -1.62780103329269 -14.11621716726429 0.0 -1.3645386883054291 -13.95049249744961 0.0 -1.10925076978788 -13.749208141472002 0.0 -0.8739444531648001 -13.535584557317511 0.0 -0.6644776923155161 -13.336184662047701 0.0 -0.47825052471651 -13.1738205496521 0.0 -0.309528672683922 -13.067524907579681 0.0 -0.1519351983798064 -15.533831192828401 0.0 -2.0886693096314515 -15.509057718981 0.0 -1.8265079114400449 -15.40599699210987 0.0 -1.5747431182790699 -15.234739371578522 0.0 -1.331277327930114 -15.01588291121592 0.0 -1.094549477309928 -14.779468810829549 0.0 -0.863684953452912 -14.554624865275619 0.0 -0.64389779573544 -14.37108436178352 0.0 -0.4317272985331741 -14.249957246952421 0.0 -0.2168606190579696 -16.78204802292718 0.0 -2.275247384901883 -16.77322146829264 0.0 -2.075728160698816 -16.68191028306192 0.0 -1.8540109630271842 -16.50965312397024 0.0 -1.6284979233848003 -16.28237604553318 0.0 -1.393082391543889 -16.02769420614336 0.0 -1.1478765464235678 -15.78237269687602 0.0 -0.889159027028628 -15.58053411120884 0.0 -0.6106840530658799 -15.44798307078212 0.0 -0.3114789069989925 -17.920516483946727 0.0 -2.525218015220644 -17.934878974323198 0.0 -2.358251186509543 -17.86624936859304 0.0 -2.192482062298619 -17.69822604514944 0.0 -2.010341909636536 -17.46725628502509 0.0 -1.798221661411894 -17.20161678438016 0.0 -1.5346912566275839 -16.9476605115183 0.0 -1.2291939570066297 -16.73812094628608 0.0 -0.863661379289984 -16.60268802394615 0.0 -0.44201750277422 -18.88512010586814 0.0 -2.741607543870015 -18.906622691129883 0.0 -2.656918568317013 -18.85713504947076 0.0 -2.5769689195772765 -18.711208446411252 0.0 -2.4528762373603503 -18.50283453185328 0.0 -2.2875637445450163 -18.260216155455563 0.0 -2.033236943892266 -18.006871493542402 0.0 -1.642350785300344 -17.8024987867255 0.0 -1.1693121097336199 -17.6635915566334 0.0 -0.6091697392529841 -19.66720411968928 0.0 -2.891236362889952 -19.70255095299521 0.0 -2.879247743529358 -19.67928439544132 0.0 -2.91540362966021 -19.573644425196747 0.0 -2.9259122186612503 -19.405804621059197 0.0 -2.8223564460768995 -19.177062141429083 0.0 -2.5410443375983123 -18.94109153100835 0.0 -2.071955785959565 -18.7560015357015 0.0 -1.4812659026392498 -18.635091337357693 0.0 -0.771836490440361 -20.317200768211197 0.0 -2.8788423659397298 -20.34238486090485 0.0 -3.0060700974076804 -20.31414511534305 0.0 -3.21383953742913 -20.22595370163459 0.0 -3.3733230277229063 -20.090916936418648 0.0 -3.3429235367243515 -19.88315910278586 0.0 -3.0824142924936964 -19.683216726162843 0.0 -2.60807510900925 -19.532600825540097 0.0 -1.8973422920398353 -19.43677401484725 0.0 -1.0012860925155298 -20.49605739452262 0.0 -3.194557625268906 -20.5273195797964 0.0 -3.4947317665092137 -20.463079317043 0.0 -3.8630421151442333 -20.44400557573924 0.0 -4.24548797036554 -20.370320729475463 0.0 -4.39136135740211 -20.258284205084617 0.0 -4.1924267086573 -20.1361519193166 0.0 -3.61483076133375 -20.00292645199696 0.0 -2.6579654591233517 -19.914761609933848 0.0 -1.4097105427261891 -19.86595735431956 0.0 -4.7010790395758395 -19.95886948001708 0.0 -5.09678747947041 -20.11171156038834 0.0 -5.60802593512981 -20.325276102477133 0.0 -6.074446302964261 -20.41294754866629 0.0 -6.1514044087308495 -20.36427676925156 0.0 -5.761631198916279 -20.26219881824151 0.0 -4.88751722088334 -20.15647463882208 0.0 -3.567484256424192 -20.0704158566 0.0 -1.887462071 -18.87803482393341 0.0 -8.01878087366406 -19.08549822240711 0.0 -8.49056138922888 -19.19448537692928 0.0 -8.77216454109184 -19.13714324929008 0.0 -8.693328920224161 -18.91707395068388 0.0 -8.264432484994 -18.609668232996892 0.0 -7.44032935515779 -18.29135890515021 0.0 -6.16875569895299 -18.01071353063421 0.0 -4.4389875854121605 -17.81517902105142 0.0 -2.328047379134644 -12.52801358944356 0.0 -8.214216360770099 -12.72584027661327 0.0 -8.851588513533 -12.801458822113439 0.0 -9.22232108062773 -12.759001993848669 0.0 -9.22616677632254 -12.620113349933078 0.0 -8.85947919446358 -12.4179284056374 0.0 -8.04402519745482 -12.193873730955001 0.0 -6.705722469849 -11.99221201100169 0.0 -4.841833917719891 -11.852720024140378 0.0 -2.544436126012082 -7.243948228623991 0.0 -7.86519320909712 -7.4788626673339005 0.0 -8.7216663330477 -7.6205182987466005 0.0 -9.28425483721762 -7.6697465749023594 0.0 -9.44086852781137 -7.64014736119278 0.0 -9.17527805013967 -7.5535644405198 0.0 -8.4021032196476 -7.43814449669356 0.0 -7.04500433535808 -7.32512961756984 0.0 -5.10554419771216 -7.243584850751101 0.0 -2.6883528692152563 -3.340343272051128 0.0 -7.47717921803838 -3.534071771944349 0.0 -8.482094515025798 -3.6788833480914467 0.0 -9.184438216999979 -3.77060953069542 0.0 -9.4583946187464 -3.812533999725 0.0 -9.278496867684 -3.813288733373868 0.0 -8.554237792511218 -3.7863910882202734 0.0 -7.20670592848914 -3.749048540827875 0.0 -5.2389807194475 -3.7182426693045 0.0 -2.76342355095096 -0.1018248125508668 0.0 -7.17219956826592 -0.22515641344390838 0.0 -8.23714234896972 -0.3433935377073058 0.0 -9.007928866699618 -0.44824788893358597 0.0 -9.346920352090018 -0.5336496679629571 0.0 -9.222963989860531 -0.5964431536599899 0.0 -8.5416711341832 -0.63719384509719 0.0 -7.2204975326939405 -0.660056465984757 0.0 -5.26119616240128 -0.6706289466255061 0.0 -2.778855412985316 3.10016494350912 0.0 -6.987290495534561 3.0291834143329748 0.0 -8.03280560319118 2.9323955700516398 0.0 -8.80408750854248 2.820356254214312 0.0 -9.156211739249962 2.704531107558464 0.0 -9.055858085154881 2.596095443328885 0.0 -8.40586547298955 2.5039429432742235 0.0 -7.119570286126719 2.4343168333141447 0.0 -5.19523539972216 2.3911371731016207 0.0 -2.746467419997609 6.525058173329399 0.0 -6.885843386803499 6.462107063907 0.0 -7.860892571891999 6.360458952284549 0.0 -8.58328310276015 6.23021334856292 0.0 -8.90949940476816 6.08431194715604 0.0 -8.8071344714574 5.93715736877993 0.0 -8.17773491374336 5.8033350763905 0.0 -6.931141734370261 5.69629366821888 0.0 -5.06119069538144 5.62706573174208 0.0 -2.676828867270331 10.0804382730128 0.0 -6.802827438323839 9.9805409170659 0.0 -7.682760428233441 9.84426917125146 0.0 -8.32971374718582 9.679513413630481 0.0 -8.60831793991428 9.49747396327094 0.0 -8.489279550694299 9.312400737144399 0.0 -7.87478956458523 9.14134731099681 0.0 -6.672872894522941 9.002188650625301 0.0 -4.873012455430731 8.91109244488236 0.0 -2.577652276973612 13.51605657360156 0.0 -6.6767482717742395 13.351309308421161 0.0 -7.45612549186008 13.16089701105108 0.0 -8.01963938875568 12.94977948666624 0.0 -8.24377650003392 12.72578465177784 0.0 -8.1036537071784 12.5013898176744 0.0 -7.504291148557599 12.294513199267309 0.0 -6.354096533830649 12.125948188310401 0.0 -4.638945987964 12.0152842352778 0.0 -2.453666555014 16.587162337212 0.0 -6.4702875138247 16.35266995392819 0.0 -7.154110750599691 16.104142540896653 0.0 -7.636859197993401 15.8434587403043 0.0 -7.8084652443132985 15.574802137668351 0.0 -7.649427534232631 15.309320473044599 0.0 -7.06964657716628 15.066228910447 0.0 -5.980103158832 14.8686757075998 0.0 -4.36401227744454 14.73918902189584 0.0 -2.307875248625808 18.878500362780017 0.0 -6.187018055495259 18.48426217887793 0.0 -6.774369727917111 18.07975164759932 0.0 -7.17306597789852 17.693092426861757 0.0 -7.292667435107149 17.32562770753754 0.0 -7.11775266034031 16.9870500035132 0.0 -6.562760937115761 16.692657424725148 0.0 -5.5436816370864905 16.46369493812986 0.0 -4.042650836148584 16.3183376292096 0.0 -2.1377747505332803 19.428785327691543 0.0 -5.880326506998091 18.9605510811717 0.0 -6.3436979142537 18.51177582495306 0.0 -6.651656092339739 18.09665666353896 0.0 -6.723318800634539 17.707615192390833 0.0 -6.534205431011509 17.35211013556173 0.0 -6.00582301777843 17.049755569782135 0.0 -5.06230168694034 16.817300857159662 0.0 -3.687162644977975 16.66921010477992 0.0 -1.948573741143855 19.5278247379519 0.0 -5.598760025273 19.04075395699572 0.0 -5.926175507618701 18.582297257584642 0.0 -6.14225878025792 18.144496214065 0.0 -6.1579303195735 17.739483409286322 0.0 -5.9462659049702395 17.3747898640942 0.0 -5.4375302598349196 17.0652206828584 0.0 -4.5661410434822 16.827523896372 0.0 -3.3174890936328563 16.681460993955422 0.0 -1.7528014498201607 19.52452265077568 0.0 -5.37603939866368 19.008535358068638 0.0 -5.59286490857418 18.515557787080198 0.0 -5.714118671483599 18.055851026086142 0.0 -5.658733210792559 17.63204598499696 0.0 -5.410047231532901 17.2502588265357 0.0 -4.91070127979725 16.92323713365017 0.0 -4.1014189213608 16.671140334152522 0.0 -2.967955272051041 16.512277124307598 0.0 -1.562096607511284 19.491024344499902 0.0 -5.17016395282947 18.93437465275506 0.0 -5.342567298695671 18.40107445490328 0.0 -5.39483098251839 17.89953821132692 0.0 -5.277703062989599 17.443599535967 0.0 -4.9820497214995 17.02907439656393 0.0 -4.47344379705858 16.668338311956298 0.0 -3.699167294494812 16.3871177296768 0.0 -2.6543054197863603 16.2157397812628 0.0 -1.39009397303557 19.405726833111427 0.0 -4.974883158641621 18.8261044251287 0.0 -5.0779612713046 18.23332375709759 0.0 -5.0826296831617 17.69125665744472 0.0 -4.91990877138144 17.19897145905392 0.0 -4.58124079869582 16.75286580350664 0.0 -4.05863054085251 16.37019253054934 0.0 -3.3234260538122498 16.074983060390952 0.0 -2.372816605971125 15.88484994306515 0.0 -1.23826715947008 19.32003346348796 0.0 -4.78345552569822 18.646120906921748 0.0 -4.8064997420363 18.0149568386052 0.0 -4.769818967554 17.41867971317528 0.0 -4.585471538058759 16.880702966423602 0.0 -4.220290120736 16.40604827162615 0.0 -3.6875878288841912 15.9990967988568 0.0 -2.9847318702521597 15.68079417947441 0.0 -2.1089649444895238 15.478321074714001 0.0 -1.09487373121224 19.20651574069452 0.0 -4.44402340651168 18.43327028376148 0.0 -4.513249837274159 17.7142444210839 0.0 -4.4813092710966 17.089089774976202 0.0 -4.2385037670697 16.50626304956221 0.0 -3.864552013752769 15.997318398331743 0.0 -3.33593297224973 15.5659022671063 0.0 -2.66248649466803 15.23122555385583 0.0 -1.860792400099314 15.017978254042943 0.0 -0.9579512757244981 19.05325176811274 0.0 -3.992240689979569 18.216345183861833 0.0 -4.12955814366258 17.4179359452769 0.0 -4.10635868993504 16.70888749957374 0.0 -3.946991755596436 16.07614019730296 0.0 -3.545346379125752 15.54526187230078 0.0 -3.018515352121094 15.09738887108376 0.0 -2.3811158868955604 14.75441497368615 0.0 -1.64450814858286 14.53850969708898 0.0 -0.8422640248641731 18.95008670580245 0.0 -3.518830554357892 17.98021238663497 0.0 -3.6256142053313813 17.11342907336861 0.0 -3.7029953331110113 16.320752189740478 0.0 -3.5468251698151403 15.65127466980528 0.0 -3.234593898041228 15.06100274129046 0.0 -2.7476267141207797 14.603156977006579 0.0 -2.133201024874948 14.25423952395444 0.0 -1.460211335391052 14.03698040482568 0.0 -0.739528993977476 18.94380822438069 0.0 -3.0222011397203037 17.7911278589745 0.0 -3.0709399199499 16.81904399705712 0.0 -3.179406039123888 15.948776316256382 0.0 -3.1546563304168562 15.21408010216752 0.0 -2.880310606554528 14.60859070192884 0.0 -2.461942250990562 14.113949361619499 0.0 -1.9187887770007652 13.75388405757201 0.0 -1.3101663585332162 13.537259533445102 0.0 -0.6619497977223902 19.143571450283936 0.0 -2.5547608182950996 17.7342174561945 0.0 -2.5429175206254357 16.60728873999786 0.0 -2.5891718561773858 15.646714851768001 0.0 -2.6425804829424 14.82256694455224 0.0 -2.514763013422968 14.16006503094324 0.0 -2.157514753105572 13.656610840672801 0.0 -1.69681844299968 13.28556431193444 0.0 -1.166916344094252 13.062256660644751 0.0 -0.593534195486685 19.59038480181606 0.0 -2.1524654254033377 17.8686284126292 0.0 -2.05201644449904 16.5215882564938 0.0 -2.0288947218951328 15.442752694074722 0.0 -2.047741512003684 14.515141099516052 0.0 -2.0397126050433747 13.80114977895678 0.0 -1.8404812532314438 13.246444978958248 0.0 -1.4512448653168202 12.867076681215119 0.0 -1.003943124179775 12.643136199759601 0.0 -0.525536768904984 20.49954559524963 0.0 -2.008962444695329 18.32164422773632 0.0 -1.6988438025728358 16.6805394227824 0.0 -1.55987643276584 15.414186327613379 0.0 -1.4871506611937442 14.36567685343875 0.0 -1.495217738707 13.52312496447305 0.0 -1.429952267762125 12.9075829831375 0.0 -1.1920528061697502 12.506640574357158 0.0 -0.838524023268492 12.266091711889118 0.0 -0.4327806425357119 22.08350457244224 0.0 -2.107731070212432 19.367609896593837 0.0 -1.700746662489756 17.215352595157498 0.0 -1.299593317609125 15.615289025831249 0.0 -1.046436675944625 14.40583695613125 0.0 -0.9482527674191249 13.431030337348169 0.0 -0.983314951360824 12.727506667028882 0.0 -0.88739731522644 12.24999137903667 0.0 -0.650641913390244 11.987171667665459 0.0 -0.3514617369096348 24.136014272623203 0.0 -2.4485772243904598 21.0402748930868 0.0 -1.8716336708457249 18.3521411133168 0.0 -1.4340565993968 16.30692175291428 0.0 -0.962748829464648 14.817372177808531 0.0 -0.571173411168168 13.64262667920412 0.0 -0.528605117177228 12.778317097089978 0.0 -0.5588565578566331 12.21821557432464 0.0 -0.473659981730862 11.89978715851776 0.0 -0.27397612828442564 26.16998120621115 0.0 -2.686750737391875 22.904920421854403 0.0 -2.0516534232364805 20.04925598768552 0.0 -1.629149092490785 17.556744352658303 0.0 -1.298004584706331 15.76563555997484 0.0 -0.7440711458850879 14.351867755546682 0.0 -0.39239408292113825 13.205752550439671 0.0 -0.3113589301949266 12.48498713748152 0.0 -0.319117869989311 12.04404979297709 0.0 -0.2168186037288109 24.651947668302004 0.0 -2.177725780634 21.84958786128256 0.0 -1.6996361786256362 19.2295638627742 0.0 -1.3221842888275999 17.05002822650354 0.0 -1.154391149711919 15.3340762480479 0.0 -1.0375543652966241 13.857731543341 0.0 -1.034524503320221 12.806855204574692 0.0 -0.829829586809844 12.319180055550198 0.0 -0.420343218084555 20.85700873266536 0.0 -1.302933421273928 18.61992147681172 0.0 -1.062258904821803 16.558166269805 0.0 -1.06787571317425 14.805061666903041 0.0 -1.295424059073696 13.865158831450401 0.0 -0.9799291099546078 13.514885885849852 0.0 -0.461639433424356 18.17186167755369 0.0 -0.9226849389308039 16.5099182422284 0.0 -0.9943525386524601 15.072158566497759 0.0 -1.091654913201832 14.6214169916403 0.0 -0.53939467412455 -0.22695108167377692 0.0 -7.376134184403351e-08 -0.2271223136780577 0.0 0.0007154935378873381 -0.22760138969003463 0.0 0.001591809119795227 -0.22828608170715192 0.0 0.002760819429020484 -0.2289821217245529 0.0 0.0043945641098641006 -0.2294241497356036 0.0 0.00658138696453467 -0.2292067577301688 0.0 0.009518790637969761 -0.2278301296957531 0.0 0.01329508593237714 -0.30021863550546574 0.0 1.070036466750911e-08 -0.30050307151257666 0.0 0.0008963981824099541 -0.3013107835327694 0.0 0.0019877909296947723 -0.3025037355625932 0.0 0.0034569353664233825 -0.30383663959591584 0.0 0.0054953121373828 -0.30493856362346394 0.0 0.00827776140694403 -0.3052895636322389 0.0 0.01194824309870607 -0.304181247604531 0.0 0.016763537219088423 -0.3903915497597885 0.0 2.389556419738909e-08 -0.3908186057704649 0.0 0.0009397950234948751 -0.392041929801048 0.0 0.002083011012075274 -0.393881569847039 0.0 0.003681603892040095 -0.3960294819007368 0.0 0.00589170694729267 -0.39799252594981294 0.0 0.00900077822501945 -0.3991339779783492 0.0 0.01303596512589912 -0.3985182379629557 0.0 0.01831170965779273 -0.4928133323203331 0.0 -5.88097014702425e-08 -0.49341309233532704 0.0 0.000840229581005739 -0.495135332378383 0.0 0.001912231407805784 -0.49776209244405195 0.0 0.00344807888620197 -0.500909932522748 0.0 0.00567237694180942 -0.5039910525997762 0.0 0.00879502101987552 -0.506178852654471 0.0 0.013011862725296561 -0.506358892658972 0.0 0.01843865726096642 -0.6078472151961801 0.0 3.459950326498756e-07 -0.608650375216259 0.0 0.0006537046563426161 -0.61097321527433 0.0 0.001555214678880366 -0.6145620553640511 0.0 0.0029129518728237946 -0.618951815473795 0.0 0.00501988572549714 -0.623459335586483 0.0 0.00801357780033944 -0.6270725356768131 0.0 0.012215371105384272 -0.628479055711976 0.0 0.01758087603952189 -0.7374203384355081 0.0 -1.405797795144944e-07 -0.738469858461746 0.0 0.000447894611197365 -0.741523418538085 0.0 0.0011287131482178281 -0.7462854586571361 0.0 0.0022894880572372 -0.752228498805712 0.0 0.00416686210417155 -0.7585446589636161 0.0 0.00700149417503735 -0.7640845791021139 0.0 0.0109923642748091 -0.7672633391815831 0.0 0.01625582920639572 -0.883789462094736 0.0 -3.862417656560439e-07 -0.885136622128415 0.0 0.00031917549997938726 -0.8890725422268129 0.0 0.000863801901595047 -0.8952587423814679 0.0 0.0018826166470654153 -0.9031088225777201 0.0 0.003587453889686345 -0.9117011427925279 0.0 0.00628741695718542 -0.9197425029935621 0.0 0.01006971785174294 -0.925374343134358 0.0 0.01517854957946373 -1.049225746230643 0.0 7.012720175318001e-07 -1.050928066273201 0.0 0.0003981798539544961 -1.0559157463978928 0.0 0.0010167847454196181 -1.0638141865953539 0.0 0.002095073332376832 -1.0739691868492292 0.0 0.003842292456057309 -1.085364547134113 0.0 0.006585685364642131 -1.096554107413852 0.0 0.01030305945757648 -1.105414987635374 0.0 0.015351388383784699 -1.236072590901814 0.0 1.1141592278539802e-07 -1.2381949909548742 0.0 0.00085167122129178 -1.24442723111068 0.0 0.001916852087921301 -1.25435643135891 0.0 0.003445896606147413 -1.267265271681631 0.0 0.00562622294065557 -1.2820312720507812 0.0 0.00879862541996563 -1.2970636724265912 0.0 0.01282819112070477 -1.309990552749763 0.0 0.01809668125241702 -1.4467586761689661 0.0 -3.6231668505791685e-07 -1.4493692762342312 0.0 0.001848990526224762 -1.4570533964263341 0.0 0.003918745457968634 -1.469357996733949 0.0 0.00647715736192893 -1.4855011171375272 0.0 0.00969955664248891 -1.5042477176061921 0.0 0.013924336748108411 -1.5238439980960992 0.0 0.01894663167366578 -1.5416671185416773 0.0 0.025113613027840306 -1.6839823220995571 0.0 -7.16082137902053e-07 -1.6871519621787978 0.0 0.003553483368837082 -1.6965019624125477 0.0 0.007369266584231661 -1.7115354827883862 0.0 0.01170546949263673 -1.731396323284907 0.0 0.016829032020725793 -1.7547415238685373 0.0 0.02298592817464819 -1.779625164490628 0.0 0.03001525195038128 -1.8031704450792603 0.0 0.03815167335379181 -1.950900128772502 0.0 1.908907567722688e-07 -1.954699928867497 0.0 0.0061079349526983705 -1.9659319291482973 0.0 0.0125401723135043 -1.9840464096011594 0.0 0.01962691009067274 -2.008099610202489 0.0 0.027715031092875757 -2.0366453709161334 0.0 0.036885152122128784 -2.067528211688204 0.0 0.0472574531814363 -2.0976206524405154 0.0 0.058496113462402806 -2.2510313762757828 0.0 1.6726801218170021e-06 -2.2555424163885593 0.0 0.00959300583982514 -2.26886085672152 0.0 0.0196651164916279 -2.290399017259974 0.0 0.030551860363796493 -2.3191391379784774 0.0 0.042630413065760306 -2.353466298836656 0.0 0.0562650294066257 -2.3909935397748368 0.0 0.07141517778537941 -2.428441860711045 0.0 0.0872696541817413 -2.588123784703093 0.0 -5.95034934875873e-07 -2.593415704835391 0.0 0.01406913875172846 -2.6090061852251534 0.0 0.028735608718390204 -2.6343355858583877 0.0 0.0444510051112751 -2.6681955867048877 0.0 0.0618767175469179 -2.70884766772119 0.0 0.08135824603395611 -2.753798348844957 0.0 0.1025252505631312 -2.799280229982004 0.0 0.12513585512839628 -2.9660933141523307 0.0 9.33683463342086e-07 -2.972164434304109 0.0 0.019403282485082052 -2.990257154756427 0.0 0.03978974019474348 -3.019680675492015 0.0 0.061444917536122905 -3.0590439564760974 0.0 0.0853108981327724 -3.106613437665334 0.0 0.1115741507893537 -3.159555318988881 0.0 0.140763883519097 -3.21394928034873 0.0 0.1723954603098864 -3.3889237247230914 0.0 -2.01546685038667e-06 -3.3958397648959924 0.0 0.02556703743917592 -3.4166260454156494 0.0 0.0524419373110484 -3.450293806257344 0.0 0.08080893402022331 -3.495552927388821 0.0 0.11249377881234439 -3.550516608762913 0.0 0.1470292356757308 -3.6119728902993202 0.0 0.18552336063808392 -3.6760388519009695 0.0 0.228106645702666 -3.860645376516132 0.0 7.971390199284751e-07 -3.868533816713344 0.0 0.03230727400768183 -3.892197137304926 0.0 0.06625421365635531 -3.930339138258476 0.0 0.102172602554315 -3.981807819545194 0.0 0.142915883572897 -4.044590901114771 0.0 0.1872491766812293 -4.1151205028780105 0.0 0.23740213393505322 -4.18926970473174 0.0 0.2913516352837907 -4.3854113096352805 0.0 1.7765458844136456e-06 -4.39441290986032 0.0 0.03929164218229104 -4.42091771052294 0.0 0.0800602220015055 -4.4640081116002 0.0 0.12475329911883241 -4.522029713050741 0.0 0.1754688083867201 -4.592886514822161 0.0 0.230868845771721 -4.6725961168149 0.0 0.2938999713474991 -4.75719451892986 0.0 0.3612402530310061 -4.96734172418354 0.0 -2.0165095304127373e-06 -4.97750252443756 0.0 0.0461182531529563 -5.007193325179831 0.0 0.0939501303487532 -5.05552932638823 0.0 0.147535483688387 -5.12044092801102 0.0 0.208967525224188 -5.19934492998362 0.0 0.2754300908857521 -5.2883837322095895 0.0 0.35319200482979995 -5.383120134578 0.0 0.435704970892624 -5.609983340249579 0.0 -1.9685140092128493e-07 -5.62142774053569 0.0 0.0523965413099135 -5.65467334136683 0.0 0.1069285066732126 -5.70877334271933 0.0 0.169289964232249 -5.78104454452611 0.0 0.24169667404241668 -5.8683281467082 0.0 0.32004188000104683 -5.96669334916733 0.0 0.414411370360284 -6.07161295179032 0.0 0.5155616528890411 -6.31608615790215 0.0 1.117962907949072e-06 -6.32898215822455 0.0 0.057744177443604404 -6.36637455915936 0.0 0.118295002957375 -6.4269533606738305 0.0 0.18883617272090422 -6.506966562674161 0.0 0.2712690427817259 -6.60366056509151 0.0 0.36373058109326434 -6.7113977677849395 0.0 0.47582957189573893 -6.825474570636859 0.0 0.598498254962456 -7.087222577180561 0.0 -2.955315793882894e-07 -7.101933377548329 0.0 0.06253184156329601 -7.1443001786075 0.0 0.1280239032005975 -7.212564180314101 0.0 0.2066284211657104 -7.3016937825423405 0.0 0.2989640794741018 -7.408674185216851 0.0 0.40583193014579805 -7.525941788148541 0.0 0.5366351334158781 -7.6478997911974895 0.0 0.682969937074248 -7.92380099809502 0.0 4.784441719611041e-06 -7.940600198515001 0.0 0.0668367816709195 -7.989217399730431 0.0 0.1369030874225771 -8.066708601667711 0.0 0.22322330958058262 -8.16723340418083 0.0 0.3253436641335914 -8.285811807145292 0.0 0.4486906512172661 -8.412887010322171 0.0 0.597033294925832 -8.541434613535861 0.0 0.7697376592434412 -8.82544231433104 0.0 5.460850572138321e-06 -8.844313013162878 0.0 0.0697806117366336 -8.900854013449502 0.0 0.1471991775988885 -8.989792913505651 0.0 0.24215842442792102 -9.10431532516528 0.0 0.3529224115063856 -9.2357530828904 0.0 0.49306495167723197 -9.3740086548946 0.0 0.659744250653536 -9.5091306636746 0.0 0.8563004844487999 -9.78920504356607 0.0 2.693857943967223e-06 -9.81175565806953 0.0 0.07535222891842361 -9.87807138347852 0.0 0.1617365586399705 -9.9815749279904 0.0 0.265132054010978 -10.11197876138538 0.0 0.39169386346965823 -10.25856520824828 0.0 0.5459762492990681 -10.409937456379561 0.0 0.7326569325043321 -10.551651559912841 0.0 0.948307787263412 -10.812786762630852 0.0 1.885422532976475e-06 -10.83977218915584 0.0 0.08928003365738241 -10.91773805643343 0.0 0.1883803596042971 -11.0382246241118 0.0 0.305476472527946 -11.18885066527267 0.0 0.44899478274917504 -11.35366665987731 0.0 0.617896311098277 -11.51993244655372 0.0 0.8234790430321078 -11.669052536431339 0.0 1.0604547728544398 -11.8949183632654 0.0 2.303146326912936e-06 -11.926724234512001 0.0 0.11397419531504001 -12.018391138472499 0.0 0.23562179579973178 -12.15927917520575 0.0 0.3724598584877625 -12.3340048090112 0.0 0.53325783788096 -12.521473847225531 0.0 0.718946868229157 -12.70491721634116 0.0 0.941062686115034 -12.86329904116986 0.0 1.189264800051332 -13.030578829684682 0.0 4.2291860563628405e-06 -13.067522107398803 0.0 0.15193527038445762 -13.1738357506363 0.0 0.309529008705678 -13.336179861736898 0.0 0.47825064472428 -13.5355633559464 0.0 0.664478532369843 -13.749224942557278 0.0 0.8739471333379281 -13.9505080984562 0.0 1.1092524898988627 -14.11621716726429 0.0 1.364544048650211 -14.20773629138505 0.0 -1.5639774401609848e-06 -14.2499740498815 0.0 0.21686066706633841 -14.371088762550663 0.0 0.43172581827513595 -14.55462366506649 0.0 0.6438975156866431 -14.77947201138627 0.0 0.8636841933206909 -15.015904114908958 0.0 1.094551277623488 -15.234749773390982 0.0 1.331275887679158 -15.406002993153718 0.0 1.574743478341701 -15.40219647620328 0.0 -9.487846554382119e-07 -15.44797706799527 0.0 0.31148047972914716 -15.580547717528761 0.0 0.610684893456228 -15.78237549817676 0.0 0.8891582666755701 -16.02770821264496 0.0 1.14787702664648 -16.28236564070264 0.0 1.3930835520826799 -16.509651923412964 0.0 1.62849832357056 -16.68191628584832 0.0 1.8540126838259523 -16.55429541851267 0.0 -3.7342572379223926e-07 -16.602672805666252 0.0 0.44201938503515503 -16.73811013330016 0.0 0.8636633015985921 -16.947634480246798 0.0 1.22919059296539 -17.20161558293728 0.0 1.53468849330896 -17.46725628502509 0.0 1.7982227827583297 -17.69822123938008 0.0 2.0103407482422737 -17.86624776666956 0.0 2.192477857249484 -17.61488097350053 0.0 -3.0937294622032427e-06 -17.66358714390816 0.0 0.609168134625624 -17.802474316154598 0.0 1.1693083789744498 -18.00684381372044 0.0 1.6423505847219242 -18.26022217280726 0.0 2.033236181694384 -18.50282049136388 0.0 2.2875568446473684 -18.711219277643497 0.0 2.45287639782305 -18.8571414679802 0.0 2.576969681775272 -18.6011929901248 0.0 3.725473734298825e-07 -18.635100592470984 0.0 0.7718361685233771 -18.75601240040052 0.0 1.481265057607104 -18.9410975669509 0.0 2.071958280815819 -19.1770850780159 0.0 2.541044136400182 -19.4057877204188 0.0 2.82235012845656 -19.5735997592352 0.0 2.92590722895023 -19.67927353074878 0.0 2.915404193014638 -19.41833019864795 0.0 4.62963256437315e-06 -19.43677724649405 0.0 1.0012997866188453 -19.5325992097167 0.0 1.8973471395100348 -19.683187237387983 0.0 2.6080779770955718 -19.88313890499486 0.0 3.082411222429464 -20.090941981677627 0.0 3.342923173164141 -20.22596784008724 0.0 3.373326097786911 -20.3141358243585 0.0 3.2138256817434754 -19.88901111662192 0.0 3.966172406050096e-06 -19.914757152716138 0.0 1.4097099754439348 -20.00291551155268 0.0 2.6579644866394156 -20.136153540123882 0.0 3.6148210770102516 -20.258302439166517 0.0 4.1924287346664 -20.370303710992722 0.0 4.39136135740211 -20.44399625609186 0.0 4.24548391834494 -20.463068781783978 0.0 3.863049044103051 -20.035654733188004 0.0 -7.599680692100001e-06 -20.070422350744 0.0 1.8874722992768003 -20.1564701740961 0.0 3.5674862046682554 -20.26220977711518 0.0 4.887526556220171 -20.36429828112423 0.0 5.7616389107196895 -20.41295241927993 0.0 6.15140278519297 -20.32527772601621 0.0 6.07444224411656 -20.11174565473422 0.0 5.60800482910617 -17.7455960572632 0.0 4.7612175098252e-06 -17.81516967884564 0.0 2.3280715876331 -18.01073505832738 0.0 4.439005457459321 -18.29135240622173 0.0 6.1687532618548095 -18.60968854216339 0.0 7.44032651187448 -18.917062983729917 0.0 8.26442720460876 -19.13715705954064 0.0 8.693320390363521 -19.19448050271744 0.0 8.772158448327039 -11.8029347961096 0.0 -7.879638813851201e-07 -11.852722055643081 0.0 2.5444095945868197 -11.99221282360283 0.0 4.84185504534953 -12.19386601124075 0.0 6.70572775175875 -12.41790565278028 0.0 8.04401503992932 -12.620101160891679 0.0 8.85947756925806 -12.75902190263246 0.0 9.226167588925959 -12.80149295148396 0.0 9.222317017607429 -7.21391496837586 0.0 1.293004485049068e-06 -7.24357916192138 0.0 2.688383101281768 -7.32515196654704 0.0 5.10554948019768 -7.4381258048162 0.0 7.04499742749036 -7.55357581819352 0.0 8.402099562538188 -7.64015061195862 0.0 9.17527642475675 -7.669779488942131 0.0 9.4408559310801 -7.620521549519321 0.0 9.28424020874038 -3.706456349783472 0.0 -1.1320434297592799e-05 -3.71823958096014 0.0 2.76340416752649 -3.749058984312 0.0 5.23898153217 -3.7864038886034286 0.0 7.2066998330685905 -3.8132848729385738 0.0 8.554237792511218 -3.8125211993219996 0.0 9.278480613204001 -3.77062428164691 0.0 9.4583755197183 -3.6788399485476093 0.0 9.18442643247965 -0.6735680584448969 0.0 -5.06834980722444e-06 -0.6706363424805181 0.0 2.778862768203762 -0.660074386719624 0.0 5.26119494330367 -0.6372154637742421 0.0 7.22048412261231 -0.5964148705620299 0.0 8.541674385114 -0.5336342260325371 0.0 9.22295545616214 -0.44827917918796595 0.0 9.346912224751222 -0.3433933914150454 0.0 9.00791179926924 2.3765094736372796 0.0 -7.366414781693399e-06 2.391125916987514 0.0 2.74646299069639 2.434322644233974 0.0 5.195243120524729 2.503940992754672 0.0 7.119564597111361 2.596082846216935 0.0 8.405874006517001 2.7045657699572803 0.0 9.055862148742081 2.8203370740629037 0.0 9.1561979230392 2.932413612416992 0.0 8.80408669582332 5.603115764685601 0.0 -4.927945881138e-06 5.62705598162472 0.0 2.67683662673873 5.69630829340032 0.0 5.06118135151552 5.8033472640462 0.0 6.9311441719014 5.93714924366973 0.0 8.177732476210299 6.0843111346446 0.0 8.80712756511016 6.23020969225766 0.0 8.90948843585238 6.360467483670419 0.0 8.58328757158132 8.879335989545 0.0 -2.8062270408690007e-07 8.91105143358592 0.0 2.577632908272224 9.00218093562723 0.0 4.87301083122061 9.14134406257513 0.0 6.672880609524428 9.31241170057243 0.0 7.87478428589766 9.49749995067702 0.0 8.4892693993638 9.67951666205832 0.0 8.60831306727252 9.84427160757414 0.0 8.329710498755578 11.976642718017 0.0 3.5189130276268597e-06 12.015285858325399 0.0 2.4536580340141 12.125954680503682 0.0 4.63894517643984 12.294513199267309 0.0 6.354090041634971 12.5014101057944 0.0 7.504289525508001 12.725808591766521 0.0 8.103658576328641 12.94983061278912 0.0 8.2437789346112 13.16093109516324 0.0 8.01965318470584 14.69406389476565 0.0 7.578170184085649e-06 14.73921375125436 0.0 2.307873505408732 14.868699220758621 0.0 4.364006196455191 15.066244315628001 0.0 5.980096672440001 15.309317229848121 0.0 7.06965265815968 15.574792813475021 0.0 7.64942348023553 15.843474145508099 0.0 7.808464433513099 16.10415632450923 0.0 7.63685595479044 16.26724335038858 0.0 -8.4832088557835e-06 16.31836071323775 0.0 2.1377616290857 16.46366537436575 0.0 4.042647758277252 16.69264811011316 0.0 5.54368487695153 16.987086856991677 0.0 6.56276174708232 17.325638642090148 0.0 7.117751850373449 17.69309526174703 0.0 7.29267512979574 18.079762582164083 0.0 7.17306597789852 16.61813690642044 0.0 9.34103335525008e-06 16.66918542824679 0.0 1.9485806991171313 16.817303688892974 0.0 3.687162644977975 17.049755569782135 0.0 5.0623037096074395 17.35210851742769 0.0 6.0058234223119396 17.7076520049457 0.0 6.534219185152889 18.09668902623816 0.0 6.72332567770812 18.51177865669029 0.0 6.6516577104753 16.6279901386192 0.0 1.7618086324264798e-06 16.681494935794262 0.0 1.7528122384760778 16.82752228009312 0.0 3.3174921645627284 17.06523482529755 0.0 4.56614023534282 17.37479592514 0.0 5.437528643556041 17.73949270289264 0.0 5.9462675212496 18.1444594437041 0.0 6.1579311277133 18.582309783757122 0.0 6.14224544594528 16.45866682357504 0.0 2.649526137115368e-06 16.51226461240163 0.0 1.562101127941828 16.67116818322941 0.0 2.9679593081491404 16.92324803111666 0.0 4.10142093941015 17.250251157944753 0.0 4.91070612311785 17.63204154528674 0.0 5.41004803875294 18.055854254967024 0.0 5.65872312053981 18.515596533659398 0.0 5.714116653432599 16.15683877552785 0.0 2.065530446326666e-06 16.21577687283012 0.0 1.390079257359405 16.387151595887918 0.0 2.6543057826386223 16.66834879435498 0.0 3.699166488156452 17.02903125745846 0.0 4.473444603397001 17.4436007454749 0.0 4.9820448834679 17.8995228908958 0.0 5.27769419326632 18.401059134471023 0.0 5.39483299836474 15.81843173124319 0.0 4.6309725168044094e-06 15.8848406795955 0.0 1.238269374647605 16.0749601030966 0.0 2.3728164045913505 16.37022636235406 0.0 3.3234268190554523 16.75290285739628 0.0 4.058632554650861 17.19894809899828 0.0 4.5812363683404405 17.691249005011557 0.0 4.91990957690072 18.233283883890262 0.0 5.0826304886810405 15.408138823203782 0.0 -1.277290864682975e-06 15.478293712248401 0.0 1.09488065230648 15.68078935080509 0.0 2.108967640496561 15.999083117624002 0.0 2.9847351296046796 16.4060221163301 0.0 3.6875870241058517 16.8806969305856 0.0 4.2202893159576 17.41871794015213 0.0 4.5854763667295195 18.0149371215344 0.0 4.7698145412728 14.944063891060598 0.0 -2.21074288933723e-06 15.017990315932341 0.0 0.9579546932598281 15.231219522910681 0.0 1.8607916361795949 15.565921968198198 0.0 2.66248649466803 15.99729869724131 0.0 3.335932610392967 16.50625380211298 0.0 3.864551611689759 17.089092991481 0.0 4.2385045711959 17.7142395963267 0.0 4.481310879349 14.46498585751168 0.0 -1.374725794725354e-06 14.538520545228089 0.0 0.842270654282518 14.754430643225101 0.0 1.6445093137537052 15.097370389067601 0.0 2.3811178154537678 15.54524981881018 0.0 3.0185149905163757 16.076135777690403 0.0 3.5453483076839603 16.70889513345283 0.0 3.9469867734858712 17.41793313279492 0.0 4.1063582881519 13.963579291686338 0.0 3.750883725061352e-06 14.03698682959272 0.0 0.7395298372281499 14.254233500735339 0.0 1.460208082852738 14.603175448211822 0.0 2.133203514472176 15.061011575345141 0.0 2.7476261519536638 15.65127466980528 0.0 3.2345946609822005 16.32075379593224 0.0 3.546828221579484 17.113439915167042 0.0 3.7029922813455274 13.4641769445306 0.0 -2.793855787925634e-06 13.537268363261703 0.0 0.6619533296490301 13.753874826399421 0.0 1.310168846936262 14.113943341287749 0.0 1.9187905028292 14.60856300841107 0.0 2.4619431741078213 15.21407889810144 0.0 2.8803109677743524 15.948768690503401 0.0 3.1546570929921542 16.8190331604624 0.0 3.1794073635965763 12.989950949215139 0.0 4.008850570900716e-06 13.062255055842149 0.0 0.5935410560178 13.285573539551459 0.0 1.166922001024686 13.6566216730944 0.0 1.6968161561551205 14.160054599723217 0.0 2.157512065060413 14.822588609388959 0.0 2.514760525978752 15.646719666177601 0.0 2.64257494637136 16.60730117722452 0.0 2.5891770316684797 12.568194636840179 0.0 2.2681125704242974e-07 12.643129381408441 0.0 0.525532557570444 12.867053819683049 0.0 1.003941399537882 13.246457412421199 0.0 1.4512422984083402 13.801160608104361 0.0 1.840478766538296 14.5151687739981 0.0 2.03970991781106 15.442752694074722 0.0 2.047738824770766 16.521569806827138 0.0 2.028897970640784 12.189552834717041 0.0 -2.004018575659146e-06 12.26608850399888 0.0 0.43278308855202 12.50663696548064 0.0 0.8385201738002038 12.907576968343749 0.0 1.192054129424375 13.52312977630877 0.0 1.429952147466232 14.36568166527375 0.0 1.495219462947875 15.414184723667901 0.0 1.4871509418842028 16.6805458385648 0.0 1.5598727837896 11.927960971525442 0.0 -1.0730072798133122e-07 11.98717006400058 0.0 0.3514588703586618 12.250004208354751 0.0 0.6506428354974809 12.727519095433562 0.0 0.887396272844112 13.431034747426258 0.0 0.983315552735109 14.40584016346125 0.0 0.948254290900875 15.61528742216625 0.0 1.046436595761375 17.215340166753748 0.0 1.2995978880543748 11.7939259840024 0.0 -1.175512430956465e-06 11.89978956370464 0.0 0.2739769380306752 12.218219983834251 0.0 0.473662226572118 12.77831950227704 0.0 0.5588549944850439 13.642620666236468 0.0 0.5286090055629751 14.817366164839079 0.0 0.571175215059003 16.30692175291428 0.0 0.9627507536144401 18.352142716774722 0.0 1.4340519894552801 11.951625231882261 0.0 1.648607253283835e-06 12.044036164851269 0.0 0.21681953364798448 12.484987939135861 0.0 0.3191196135875005 13.205752550439671 0.0 0.311357374985507 14.351876974573658 0.0 0.3923932972997086 15.76563555997484 0.0 0.744070264064984 17.556745555140168 0.0 1.298005747105472 20.049271219122538 0.0 1.629153862335536 12.17999686004936 0.0 -3.778008653890769e-07 12.319178452346799 0.0 0.42034377920574495 12.806855204574692 0.0 0.829829586809844 13.857737555354651 0.0 1.0345241425994023 15.334088272072501 0.0 1.037552641853098 17.050034238517192 0.0 1.154387422263456 19.2295622595708 0.0 1.32218172370216 21.849598682907132 0.0 1.699635617504362 13.40643934653127 0.0 -5.4705605155926394e-08 13.51489790932575 0.0 0.461639954441645 13.8651648431888 0.0 0.9799288294068161 14.805058460642561 0.0 1.2954220551608961 16.558164666675 0.0 1.06787378941825 18.619924683072437 0.0 1.0622585040392132 20.85701634753552 0.0 1.3029323792390641 14.496038871246 0.0 -5.4051887433206e-07 14.621415388559901 0.0 0.5393940729694001 15.07216497882032 0.0 1.09165463266272 16.5099182422284 0.0 0.9943550234270799 18.17186007447365 0.0 0.92268197323273 -0.22468357761708932 0.0 0.01792595444814885 -0.21904760147618993 0.0 0.023625651790641283 -0.210442165261054 0.0 0.02990319194757978 -0.19825783295644572 0.0 0.036681331317033265 -0.1822126925553172 0.0 0.0431956250798906 -0.16174412004360292 0.0 0.048927521223188004 -0.13698685542467132 0.0 0.052380157309503905 -0.30083141952078535 0.0 0.02253933456348335 -0.2941766793544168 0.0 0.02953290713832266 -0.2833903870847595 0.0 0.03737959373448982 -0.2677741106943526 0.0 0.0455078971376974 -0.24664574216614343 0.0 0.0529286093232152 -0.2187206814680169 0.0 0.0589418894735472 -0.182779484569487 0.0 0.062080897552022396 -0.13696356342408902 0.0 0.0694893377372334 -0.3950503458762584 0.0 0.02474501501862536 -0.3873978696849465 0.0 0.032285148807128704 -0.3743566133589151 0.0 0.0406402490160062 -0.3548808648720214 0.0 0.0493264972331624 -0.3282024962050622 0.0 0.0570185334254633 -0.2923937393098433 0.0 0.06392853359821331 -0.24625283015632063 0.0 0.06882171772054291 -0.1866610806665269 0.0 0.0756229898905747 -0.50306441257661 0.0 0.02518482582962063 -0.49468881236721995 0.0 0.03291396002284898 -0.479539491988487 0.0 0.0416330330408258 -0.456352691408817 0.0 0.0506733132668328 -0.4241657706041439 0.0 0.05884948947123721 -0.3807896935197421 0.0 0.06638889365972231 -0.3240924681023115 0.0 0.072141841803546 -0.2483834342095857 0.0 0.080745962018649 -0.625848455646211 0.0 0.02440555461013885 -0.617200215430005 0.0 0.03220391360509782 -0.600422215010555 0.0 0.0410177770254444 -0.5739172943479319 0.0 0.050332481258312 -0.5365226934130669 0.0 0.0589327574733189 -0.48554073213851806 0.0 0.06715502967887571 -0.4174058904351469 0.0 0.07420900185522501 -0.3231552680788815 0.0 0.0866092701652317 -0.765969859149246 0.0 0.022848696171217393 -0.7576896989422419 0.0 0.0306513407662835 -0.7399676584991911 0.0 0.03930866818271669 -0.710754857768871 0.0 0.0487169812179245 -0.6686854567171361 0.0 0.057501961437549 -0.6102082552552061 0.0 0.0665896656647416 -0.5299260132481499 0.0 0.07576622989415571 -0.4143394503584859 0.0 0.0945045023626125 -0.926178383154459 0.0 0.021469960136748994 -0.9191146229778651 0.0 0.02905175152629377 -0.901334862533371 0.0 0.03726950973173772 -0.870280861757021 0.0 0.046520653163016304 -0.8244655006116369 0.0 0.0551267773781694 -0.758959698973992 0.0 0.0655412936385323 -0.66636121665903 0.0 0.0780975379524384 -0.5269413731735341 0.0 0.1057690186442254 -1.1092167077304171 0.0 0.02130988733274717 -1.1043609876090241 0.0 0.0285359927133998 -1.0875707071892673 0.0 0.03619337770483442 -1.055871146396778 0.0 0.0450616891265422 -1.0074502251862552 0.0 0.05346374533659361 -0.935678703391967 0.0 0.0661805656545141 -0.8319160607979011 0.0 0.0831622140790553 -0.6673279366831981 0.0 0.12265453506636331 -1.3177339929433491 0.0 0.02397897899947446 -1.316179112904477 0.0 0.0310256727756418 -1.3015760725394012 0.0 0.038362894559072346 -1.270458711761467 0.0 0.047035301175882505 -1.22082483052062 0.0 0.0554987693874692 -1.145357148633928 0.0 0.0697236097430902 -1.0320960258024001 0.0 0.0920326263008156 -0.8453071011326772 0.0 0.14289827557245682 -1.554301958857548 0.0 0.031630129590753224 -1.5572471189311772 0.0 0.038972280574306996 -1.5462218786555462 0.0 0.046520161163004004 -1.5177882379447052 0.0 0.05438559335963981 -1.468283676707091 0.0 0.06364517359112931 -1.3917936747948412 0.0 0.0778127699453192 -1.27407563185189 0.0 0.1025332465633311 -1.077815066945376 0.0 0.1534927398373184 -1.8216324455408102 0.0 0.046414065160351604 -1.830200805755019 0.0 0.055105313377632796 -1.824491365612283 0.0 0.0632339255808481 -1.8003676050091892 0.0 0.0713631177840779 -1.754479843861995 0.0 0.0787774579694364 -1.6818579220464471 0.0 0.0900394462509861 -1.5695983192399572 0.0 0.1119677587991939 -1.3803268745081712 0.0 0.1532800718320017 -2.122811373070283 0.0 0.0699794897494872 -2.137925973448148 0.0 0.08179580604489511 -2.139204093480101 0.0 0.091011442275286 -2.1223284130582094 0.0 0.0995881944897048 -2.085416652135415 0.0 0.1053647306341182 -2.0217445705436132 0.0 0.1189403549735088 -1.9233292080832292 0.0 0.14995413174885322 -1.73065684326642 0.0 0.2287950577198763 -2.4612335815308377 0.0 0.10357842658946059 -2.484209702105241 0.0 0.11967663899191591 -2.493832262345805 0.0 0.13404363535109082 -2.487931302198281 0.0 0.1480187797004694 -2.4665711016642757 0.0 0.1642423681060591 -2.4209816605245402 0.0 0.2099066292476656 -2.346975378674383 0.0 0.3139339518483486 -2.171901174297528 0.0 0.5328365333209131 -2.840675991016898 0.0 0.14828073170701822 -2.872728431818209 0.0 0.1720165403004134 -2.892724112318101 0.0 0.1965332809133319 -2.9025248325631194 0.0 0.22504106162602644 -2.9056280726406998 0.0 0.2656056946401422 -2.8979893524497324 0.0 0.355368288884207 -2.869432711735816 0.0 0.540242973506074 -2.759867548996687 0.0 0.8286082607152062 -3.265010521625261 0.0 0.2044299171107478 -3.307429602685738 0.0 0.2389040299726006 -3.339891123497276 0.0 0.2779650749491267 -3.3687744842193603 0.0 0.32482152812053805 -3.403090365077257 0.0 0.3951747058793674 -3.446554646163864 0.0 0.5202188530054711 -3.488013527200336 0.0 0.741643178541079 -3.4746529668663215 0.0 1.0359162658979062 -3.7377507334437663 0.0 0.27152779878819483 -3.791686334792156 0.0 0.318936687973417 -3.837972735949316 0.0 0.3727752773193817 -3.887313177182827 0.0 0.4388947309723681 -3.9542046588551143 0.0 0.5336380133409501 -4.05190610129765 0.0 0.6779035769475891 -4.17227370430684 0.0 0.9080918627022962 -4.26500090662502 0.0 1.208551430213785 -4.262047706551191 0.0 0.3476535166913377 -4.32830210820755 0.0 0.41000785025019604 -4.3889557097238905 0.0 0.4786023319650581 -4.45796891144922 0.0 0.5592720139818 -4.55618771390469 0.0 0.667988136699703 -4.70603571765089 0.0 0.8227554605688862 -4.902039722550991 0.0 1.059209466480236 -5.0973281274332 0.0 1.3692641542316029 -4.84139092103477 0.0 0.43337305083432603 -4.91957132298928 0.0 0.510859092771477 -4.994054524851361 0.0 0.593090214827255 -5.08237892705947 0.0 0.6841766971044171 -5.21074533026863 0.0 0.802813540070338 -5.410415735260391 0.0 0.961291144032278 -5.677196941929921 0.0 1.205828310145707 -5.9622561490564 0.0 1.532791158319778 -5.478260536956511 0.0 0.5253042931326071 -5.56743853918596 0.0 0.6185836154645901 -5.654990541374761 0.0 0.7138747378468682 -5.76169734404243 0.0 0.8149103403727581 -5.92103534802588 0.0 0.94012482350312 -6.17270215431755 0.0 1.099247387481184 -6.51116496277912 0.0 1.3538072738451812 -6.879291771982291 0.0 1.705619082640476 -6.17594615439865 0.0 0.6230585355764631 -6.274065356851631 0.0 0.734102738352568 -6.37229855930746 0.0 0.8433245810831139 -6.496630162415751 0.0 0.953772663844316 -6.69238616730965 0.0 1.079526626988165 -6.998334574958359 0.0 1.2429874710746862 -7.417774985444369 0.0 1.507728597693214 -7.8784081969602004 0.0 1.886985047174625 -6.93741537343538 0.0 0.72565041814126 -7.04164297604107 0.0 0.857516701437917 -7.147228578680711 0.0 0.98323482458087 -7.28740178218504 0.0 1.104420307610507 -7.519528187988201 0.0 1.232555030813875 -7.88797859719946 0.0 1.3970248749256209 -8.4020882100522 0.0 1.670564681764116 -8.9736522243413 0.0 2.079783491994586 -7.7657417941435405 0.0 0.8321644208041101 -7.872554996813871 0.0 0.9884942247123552 -7.981286199532151 0.0 1.133652908341322 -8.13376260334406 0.0 1.2691216717280411 -8.40223701005592 0.0 1.4032715150817872 -8.84080662102016 0.0 1.56931403923285 -9.46523903663097 0.0 1.8480770462019251 -10.165280254132 0.0 2.2928364573209103 -8.66370941659273 0.0 0.9421679835541992 -8.768890619222262 0.0 1.126147028153675 -8.87570222189255 0.0 1.293767312344182 -9.03541422588535 0.0 1.4478613161965321 -9.338695833467392 0.0 1.593454799836369 -9.85502504637562 0.0 1.764814404120359 -10.607262665181562 0.0 2.04725365118134 -11.4621082865527 0.0 2.521380503034511 -9.63336436002336 0.0 1.056706348046096 -9.73282560933683 0.0 1.2690232180025398 -9.832355611086781 0.0 1.460618961379054 -9.992990690519221 0.0 1.6396498935243682 -10.328302019326701 0.0 1.8032351886373053 -10.929708355086362 0.0 1.9892217654457578 -11.829046769191581 0.0 2.2769304338519363 -12.86804384163408 0.0 2.7739418887262723 -10.676161636867999 0.0 1.177683672948412 -10.76628439581036 0.0 1.416597270951769 -10.85173266609696 0.0 1.634752645088336 -11.007444052208232 0.0 1.8403361232103983 -11.372179739699678 0.0 2.0288544238496318 -12.06468785209912 0.0 2.242167264418228 -13.1337432813056 0.0 2.547251530072496 -14.393064494317631 0.0 3.064341741414514 -11.79231991827621 0.0 1.308001296014936 -11.86965387161788 0.0 1.56862176846093 -11.93528872474735 0.0 1.8114664766222999 -12.079870384000309 0.0 2.048471645493736 -12.47269135871808 0.0 2.26475132963632 -13.263830125908141 0.0 2.52326841532484 -14.52826664762144 0.0 2.869997095752192 -16.05638728654866 0.0 3.4051716544800295 -12.977914502251538 0.0 1.450751310002288 -13.038575718307202 0.0 1.72296863025472 -13.080878733555199 0.0 1.9857536169430403 -13.211448648779841 0.0 2.2536165835261643 -13.629160736283138 0.0 2.506630973676126 -14.53208938206578 0.0 2.8280682878200336 -16.02202451936 0.0 3.2558787792153607 -17.8863088611104 0.0 3.8139842934262402 -14.226163884471301 0.0 1.62780143331859 -14.26765490787039 0.0 1.9056023699881353 -14.2840896349208 0.0 2.17638775198289 -14.398636931135869 0.0 2.4672946120056305 -14.8408532830329 0.0 2.7570905500545897 -15.86534363499448 0.0 3.1607922539899684 -17.61772443148144 0.0 3.7203880415427126 -19.907265926308 0.0 4.309395168945279 -15.509042516336578 0.0 1.8265042708067758 -15.53380358802462 0.0 2.0886593879048765 -15.52450564213296 0.0 2.3606952535267203 -15.61528647986994 0.0 2.688296301203787 -16.09104335872896 0.0 2.997048065440806 -17.2455114870855 0.0 3.5323343564751006 -19.293852864180778 0.0 4.28501775629079 -22.10579667229311 0.0 4.91474055630348 -16.77324908111008 0.0 2.075730641850528 -16.782063229987198 0.0 2.2752453039357747 -16.753762090918396 0.0 2.5231593203391416 -16.84730166804271 0.0 2.801813208251744 -17.33237632310579 0.0 3.2576317296495363 -18.6162085643725 0.0 3.97085773526946 -20.97426681331213 0.0 4.97166825342068 -24.38889956437212 0.0 5.705785686646 -17.93485294306665 0.0 2.358248703528149 -17.92054371663365 0.0 2.5252134497407783 -17.88902536261775 0.0 2.665343844656525 -18.01500008249749 0.0 2.918623967021838 -18.55138530480924 0.0 3.416335047480478 -19.8962857221562 0.0 4.50771524579364 -22.545055429768162 0.0 5.82116479397696 -26.600135025582322 0.0 6.841248954067121 -18.90663793508182 0.0 2.656916642765189 -18.88509723995163 0.0 2.7416077043325866 -18.862390983700774 0.0 2.868609176655999 -19.01102345258007 0.0 3.0791609027030167 -19.68539949646875 0.0 3.6032483388000007 -21.19604934920298 0.0 4.85701837879671 -23.93395995393036 0.0 6.8984566309017 -28.52580658371756 0.0 8.407269062210759 -19.70258153508589 0.0 2.879255992645923 -19.667231885002238 0.0 2.891234230192 -19.620677006256237 0.0 2.97590226817914 -19.83369009794952 0.0 3.2544748935796948 -20.57966423169066 0.0 3.965253215226354 -22.2373596161451 0.0 5.5155431207535 -25.091760589512926 0.0 8.36590802696451 -29.855448669412116 0.0 10.69133007709728 -20.34236951058255 0.0 3.00606759288141 -20.3171979405213 0.0 2.8788508490094302 -20.278892182468798 0.0 2.926575762238728 -20.47506858031941 0.0 3.223006963944939 -21.25214973505008 0.0 4.16330469437247 -22.9744520634444 0.0 6.1817445799482 -25.788390413315042 0.0 10.28843712901347 -30.60092440225392 0.0 13.6895454866742 -20.527342676334342 0.0 3.4947383307884183 -20.49605091128198 0.0 3.1945581925524618 -20.50623546162856 0.0 3.1273382979993 -20.73372714645414 0.0 3.427381528364976 -21.55439578763682 0.0 4.68549426467544 -23.3973893013318 0.0 6.9110879809455 -25.972155946427883 0.0 11.642898648062161 -30.465083316831358 0.0 17.06708249914824 -19.958883280117618 0.0 5.09679600306192 -19.865980489814717 0.0 4.70108553374992 -19.81581912351891 0.0 4.509552281498551 -20.1568819656585 0.0 4.77846851879952 -21.400175398617478 0.0 5.662966550357099 -23.431681088881728 0.0 7.4902857855072895 -25.160896540741398 0.0 12.702140321841961 -26.517180764039423 0.0 18.6722649012865 -19.08550756465314 0.0 8.490556515013559 -18.87803644867425 0.0 8.01877681181196 -18.5910256660128 0.0 7.5473903761456205 -18.43304261461696 0.0 6.503943115608401 -18.52035218690132 0.0 6.476162088835039 -18.36046112290152 0.0 8.26765716333567 -18.0303083483741 0.0 14.1973297778719 -17.70606176266352 0.0 20.17676859673216 -12.725859779142391 0.0 8.85157916857113 -12.528028216356601 0.0 8.21421798598266 -12.228230687662858 0.0 7.477508239071519 -11.83374694022136 0.0 6.18946550306084 -11.441732136051838 0.0 6.031715365943359 -11.02100554612284 0.0 8.668979685853 -10.63955546103875 0.0 15.366226804950154 -10.34864724614074 0.0 22.136147161983917 -7.478844381714402 0.0 8.721652923593401 -7.24395432383844 0.0 7.86519361544475 -6.934044053679751 0.0 6.913458039920401 -6.5806898325923795 0.0 5.60900427267692 -6.219987268284269 0.0 5.7679333242946305 -5.89008257800475 0.0 8.62713623518995 -5.62142303206528 0.0 16.47816337718144 -5.4303865740531 0.0 23.64735800061426 -3.534081443391127 0.0 8.48208151139988 -3.3403429109637948 0.0 7.47718420168753 -3.1117100842447076 0.0 6.4207658718797 -2.87317820220937 0.0 5.24575128494964 -2.655949674120912 0.0 5.67864386884944 -2.488482596828394 0.0 8.676916515496709 -2.38265370006945 0.0 17.2506754229391 -2.3295131644532128 0.0 24.65302597176222 -0.225137643307836 0.0 8.237133002506638 -0.10181214604409841 0.0 7.1722072892678 0.016808912895071842 0.0 6.169145283289439 0.1163548386568225 0.0 5.17007937498025 0.17864207080030803 0.0 5.636008675450711 0.190308307768056 0.0 8.805067213681799 0.1544189016469836 0.0 17.8826277214782 0.092509022258136 0.0 25.18922961953064 3.0291729302442008 0.0 8.032797882350609 3.100182579564368 0.0 6.98729496550248 3.139007926589184 0.0 6.05265536433792 3.141214167721755 0.0 5.346941777725319 3.10260879139269 0.0 5.814721454971499 3.0234539281913557 0.0 9.02521675009581 2.91446033390944 0.0 18.118780992108803 2.799292036171683 0.0 25.3161746927613 6.462124532958 0.0 7.860888509322 6.525058173329399 0.0 6.885842574288239 6.545064267454561 0.0 6.04725186654576 6.523675902125199 0.0 5.53331986124736 6.46563229795 0.0 6.068218368897999 6.37865185162139 0.0 9.135352570728442 6.27360722470032 0.0 17.937351411561277 6.170655604020601 0.0 25.0202351449886 9.980547413933579 0.0 7.68275433741999 10.08043989723232 0.0 6.80282946859824 10.14070515008736 0.0 6.0679836951696 10.16379706774432 0.0 5.701784099731719 10.15592265772372 0.0 6.24970772693736 10.12473944664096 0.0 9.14039492160316 10.07709856685544 0.0 17.51608050524256 10.03007196265022 0.0 24.45021311197096 13.351310931475082 0.0 7.4561246803331205 13.51605657360156 0.0 6.67674746024616 13.652139420040829 0.0 6.03989077990245 13.759344657327121 0.0 5.794198322346721 13.839424184897403 0.0 6.3543105384517 13.894582103707972 0.0 9.04014660081843 13.926307153659039 0.0 16.946407882880003 13.95122665715436 0.0 23.652899819549038 16.352679278141302 0.0 7.154117642409379 16.587197607103352 0.0 6.470281027407901 16.80510673050853 0.0 5.92052887824611 16.94252478857386 0.0 5.6897992318391 17.175483106054198 0.0 6.397079238730799 17.31816995251035 0.0 8.8398246172815 17.4274315252515 0.0 16.325301582087747 17.52067522078893 0.0 22.659380782596454 18.48424678947795 0.0 6.77436689302764 18.87847889860788 0.0 6.1870172455265 19.29680017773124 0.0 5.71171768813149 19.54467158194424 0.0 5.490405271427281 19.89103446018325 0.0 6.337413010352059 20.190056559009342 0.0 8.631521504603901 20.30225558407344 0.0 15.67573323574176 20.45176832544144 0.0 21.54458473512576 18.96057616228776 0.0 6.34369953239022 19.428797868255153 0.0 5.88032084351775 19.98143783482545 0.0 5.5086659164443 20.76635631271104 0.0 5.2059573480456 21.68719682713892 0.0 6.01478497510268 22.271574119281997 0.0 8.2771640527695 22.42894795894155 0.0 14.8663655543365 22.596147746038525 0.0 20.274729386461733 19.040732541278302 0.0 5.92618722565276 19.52780493849887 0.0 5.5987640659777 20.0823161538478 0.0 5.3192393739258 20.88274249498179 0.0 5.129324713037961 22.30258768591713 0.0 5.7246108161197995 23.647828228861762 0.0 7.8438679904569595 23.876996088471678 0.0 13.821543718752 24.12234001692337 0.0 18.80243748170706 19.0085135631146 0.0 5.59286248691262 19.5245117532938 0.0 5.376036169780161 20.11211814765977 0.0 5.16447643344729 20.897445611284 0.0 5.0924930768287995 22.22325630910256 0.0 5.4989981801243 24.22008119264616 0.0 7.3717011880011 25.00475908013424 0.0 12.691574674233841 25.456460616886744 0.0 17.257719038348043 18.93440529363782 0.0 5.34257012088224 19.49104732516197 0.0 5.17016677501604 20.119069652819352 0.0 4.98791709530954 20.89015863632009 0.0 5.009805798531641 22.14435060511192 0.0 5.28616982372664 24.27058444881452 0.0 6.9158972630179605 26.1147505940828 0.0 11.505454262032398 27.121472619707703 0.0 16.00043600805845 18.8260689822751 0.0 5.0779556326688 19.4057256248317 0.0 4.97488074208216 20.04135998827622 0.0 4.94372602024268 20.934408866716836 0.0 4.8426808009756 22.19883439772632 0.0 5.06207732854814 24.41706425706741 0.0 6.44191837458946 27.37328059986097 0.0 10.29968832742867 29.498692861230897 0.0 15.1180670318927 18.64610239701165 0.0 4.8064900846919 19.320030244372198 0.0 4.78345753764557 20.0590960531355 0.0 4.661984954404001 20.97510391534798 0.0 4.57175790005419 22.37924919765902 0.0 4.85529713486958 24.77521735640924 0.0 6.01105298398752 28.875833475329003 0.0 9.392985341511 32.83788140828748 0.0 13.44931456435684 18.43322404649808 0.0 4.51324903314784 19.20651574069452 0.0 4.4440282312696 20.029835524378942 0.0 4.27925172706382 21.08776386557984 0.0 4.36720001338401 22.66698917469375 0.0 4.71518188803475 25.54944455569989 0.0 5.6690386689193595 30.455866486466455 0.0 8.40771183056661 36.245461872319794 0.0 10.8672903476774 18.21636487123422 0.0 4.12955774187947 19.053233286089682 0.0 3.992246073873243 20.02047911479081 0.0 3.9094820478347447 21.28899765908391 0.0 4.11585651211721 23.20125138080648 0.0 4.43874130601616 26.594149167883398 0.0 5.3827385466428 32.04175428546102 0.0 7.57991229545172 38.39539715625324 0.0 9.27186947420312 17.9802031510289 0.0 3.6256149682727528 18.950094335213876 0.0 3.518834369063607 20.120881017744562 0.0 3.541090075568954 21.71181362836844 0.0 3.7608735513485785 23.976697306324002 0.0 4.1047521513600005 27.861745861908872 0.0 5.10752678829645 33.86350282058409 0.0 6.982938874150529 17.791120233220948 0.0 3.070934581922415 18.943774510532972 0.0 3.022203788665482 20.40401557378872 0.0 3.1149386634899012 22.317458860365242 0.0 3.3044544576683634 25.095016264946402 0.0 3.6559535350770602 29.64449716581 0.0 4.829072172882361 35.701227972937076 0.0 6.48277877092032 17.73424192944147 0.0 2.5429110211729617 19.14357626469426 0.0 2.55476061769467 20.910335511586556 0.0 2.6814344137163877 23.29754923987218 0.0 2.91698935787952 26.6936244773001 0.0 3.4325082531861724 31.84690268220459 0.0 4.81014487701567 17.868648065529598 0.0 2.0520122331632398 19.590395630963638 0.0 2.1524635002215464 21.79193609164443 0.0 2.3920774601982897 24.7822541690409 0.0 2.7601361998495744 28.93339704601065 0.0 3.636238313704665 34.00126076557728 0.0 4.914469449837361 18.32163660899814 0.0 1.6988455268135818 20.49952434297202 0.0 2.0089697025486255 23.293686789092526 0.0 2.383444898794713 26.86797461820044 0.0 2.979149581406772 31.35204138701076 0.0 4.071384120009 19.36760227918566 0.0 1.7007420920448484 22.0835198072586 0.0 2.1077182408933917 25.446270753684896 0.0 2.745236491149918 29.237287622807163 0.0 3.4902482780379778 21.040273289628516 0.0 1.871638441134108 24.1360022466852 0.0 2.44858143346876 27.769592185266568 0.0 3.2483336520152664 30.93759765512043 0.0 3.6397304535218242 22.9049079962112 0.0 2.05165129885232 26.16998120621115 0.0 2.6867505369782 24.65193885068 0.0 2.1777252195126 
TENSORS Ellispoids float
0.01 0.0 0.0 0.0 0.01 0.0 0.0 0.0 0.01 0.01 0.0 0.0 0.0 0.01 0.0 0.0 0.0 0.01 0.01 0.0 0.0 0.0 0.01 0.0 0.0 0.0 0.01 0.01 0.0 0.0 0.0 0.01 0.0 0.0 0.0 0.01 0.01 0.0 0.0 0.0 0.01 0.0 0.0 0.0 0.01 0.01 0.0 0.0 0.0 0.01 0.0 0.0 0.0 0.01 0.01 0.0 0.0 0.0 0.01 0.0 0.0 0.0 0.01 0.01 0.0 0.0 0.0 0.01 0.0 0.0 0.0 0.01 0.01 0.0 0.0 0.0 0.01 0.0 0.0 0.0 0.01 0.01 0.0 0.0 0.0 0.01 0.0 0.0 0.0 0.01 0.01 0.0 0.0 0.0 0.01 0.0 0.0 0.0 0.01 0.01 0.0 0.0 0.0 0.01 0.0 0.0 0.0 0.01 0.01 0.0 0.0 0.0 0.01 0.0 0.0 0.0 0.01 0.01 0.0 0.0 0.0 0.01 0.0 0.0 0.0 0.01 0.01 0.0 0.0 0.0 0.01 0.0 0.0 0.0 0.01 0.01 0.0 0.0 0.0 0.01 0.0 0.0 0.0 0.01 0.01 0.0 0.0 0.0 0.01 0.0 0.0 0.0 0.01 0.01 0.0 0.0 0.0 0.01 0.0 0.0 0.0 0.01 0.01 0.0 0.0 0.0 0.01 0.0 0.0 0.0 0.01 0.01 0.0 0.0 0.0 0.01 0.0 0.0 0.0 0.01 0.01 0.0 0.0 0.0 0.01 0.0 0.0 0.0 0.01 0.01 0.0 0.0 0.0 0.01 0.0 0.0 0.0 0.01 0.01 0.0 0.0 0.0 0.01 0.0 0.0 0.0 0.01 0.01 0.0 0.0 0.0 0.01 0.0 0.0 0.0 0.01 0.01 0.0 0.0 0.0 0.01 0.0 0.0 0.0 0.01 0.01 0.0 0.0 0.0 0.01 0.0 0.0 0.0 0.01 0.01 0.0 0.0 0.0 0.01 0.0 0.0 0.0 0.01 0.01 0.0 0.0 0.0 0.01 0.0 0.0 0.0 0.01 0.01 0.0 0.0 0.0 0.01 0.0 0.0 0.0 0.01 0.01 0.0 0.0 0.0 0.01 0.0 0.0 0.0 0.01 0.01 0.0 0.0 0.0 0.01 0.0 0.0 0.0 0.01 0.01 0.0 0.0 0.0 0.01 0.0 0.0 0.0 0.01 0.01 0.0 0.0 0.0 0.01 0.0 0.0 0.0 0.01 0.01 0.0 0.0 0.0 0.01 0.0 0.0 0.0 0.01 0.01 0.0 0.0 0.0 0.01 0.0 0.0 0.0 0.01 0.01 0.0 0.0 0.0 0.01 0.0 0.0 0.0 0.01 0.01 0.0 0.0 0.0 0.01 0.0 0.0 0.0 0.01 0.01 0.0 0.0 0.0 0.01 0.0 0.0 0.0 0.01 0.01 0.0 0.0 0.0 0.01 0.0 0.0 0.0 0.01 0.01 0.0 0.0 0.0 0.01 0.0 0.0 0.0 0.01 0.01 0.0 0.0 0.0 0.01 0.0 0.0 0.0 0.01 0.01 0.0 0.0 0.0 0.01 0.0 0.0 0.0 0.01 0.01 0.0 0.0 0.0 0.01 0.0 0.0 0.0 0.01 0.01 0.0 0.0 0.0 0.01 0.0 0.0 0.0 0.01 0.01 0.0 0.0 0.0 0.01 0.0 0.0 0.0 0.01 0.01 0.0 0.0 0.0 0.01 0.0 0.0 0.0 0.01 0.01 0.0 0.0 0.0 0.01 0.0 0.0 0.0 0.01 0.01 0.0 0.0 0.0 0.01 0.0 0.0 0.0 0.01 0.01 0.0 0.0 0.0 0.01 0.0 0.0 0.0 0.01 0.01 0.0 0.0 0.0 0.01 0.0 0.0 0.0 0.01 0.01 0.0 0.0 0.0 0.01 0.0 0.0 0.0 0.01 0.01 0.0 0.0 0.0 0.01 0.0 0.0 0.0 0.01 0.01 0.0 0.0 0.0 0.01 0.0 0.0 0.0 0.01 0.01 0.0 0.0 0.0 0.01 0.0 0.0 0.0 0.01 0.01 0.0 0.0 0.0 0.01 0.0 0.0 0.0 0.01 0.01 0.0 0.0 0.0 0.01 0.0 0.0 0.0 0.01 0.01 0.0 0.0 0.0 0.01 0.0 0.0 0.0 0.01 0.01 0.0 0.0 0.0 0.01 0.0 0.0 0.0 0.01 0.01 0.0 0.0 0.0 0.01 0.0 0.0 0.0 0.01 0.01 0.0 0.0 0.0 0.01 0.0 0.0 0.0 0.01 0.01 0.0 0.0 0.0 0.01 0.0 0.0 0.0 0.01 0.01 0.0 0.0 0.0 0.01 0.0 0.0 0.0 0.01 0.01 0.0 0.0 0.0 0.01 0.0 0.0 0.0 0.01 0.01 0.0 0.0 0.0 0.01 0.0 0.0 0.0 0.01 0.01 0.0 0.0 0.0 0.01 0.0 0.0 0.0 0.01 0.01 0.0 0.0 0.0 0.01 0.0 0.0 0.0 0.01 0.01 0.0 0.0 0.0 0.01 0.0 0.0 0.0 0.01 0.01 0.0 0.0 0.0 0.01 0.0 0.0 0.0 0.01 0.01 0.0 0.0 0.0 0.01 0.0 0.0 0.0 0.01 0.01 0.0 0.0 0.0 0.01 0.0 0.0 0.0 0.01 0.01 0.0 0.0 0.0 0.01 0.0 0.0 0.0 0.01 0.01 0.0 0.0 0.0 0.01 0.0 0.0 0.0 0.01 0.01 0.0 0.0 0.0 0.01 0.0 0.0 0.0 0.01 0.01 0.0 0.0 0.0 0.01 0.0 0.0 0.0 0.01 0.01 0.0 0.0 0.0 0.01 0.0 0.0 0.0 0.01 0.01 0.0 0.0 0.0 0.01 0.0 0.0 0.0 0.01 0.01 0.0 0.0 0.0 0.01 0.0 0.0 0.0 0.01 0.01 0.0 0.0 0.0 0.01 0.0 0.0 0.0 0.01 0.01 0.0 0.0 0.0 0.01 0.0 0.0 0.0 0.01 0.01 0.0 0.0 0.0 0.01 0.0 0.0 0.0 0.01 0.01 0.0 0.0 0.0 0.01 0.0 0.0 0.0 0.01 0.01 0.0 0.0 0.0 0.01 0.0 0.0 0.0 0.01 0.01 0.0 0.0 0.0 0.01 0.0 0.0 0.0 0.01 0.01 0.0 0.0 0.0 0.01 0.0 0.0 0.0 0.01 0.01 0.0 0.0 0.0 0.01 0.0 0.0 0.0 0.01 0.01 0.0 0.0 0.0 0.01 0.0 0.0 0.0 0.01 0.01 0.0 0.0 0.0 0.01 0.0 0.0 0.0 0.01 0.01 0.0 0.0 0.0 0.01 0.0 0.0 0.0 0.01 0.01 0.0 0.0 0.0 0.01 0.0 0.0 0.0 0.01 0.01 0.0 0.0 0.0 0.01 0.0 0.0 0.0 0.01 0.01 0.0 0.0 0.0 0.01 0.0 0.0 0.0 0.01 0.01 0.0 0.0 0.0 0.01 0.0 0.0 0.0 0.01 0.01 0.0 0.0 0.0 0.01 0.0 0.0 0.0 0.01 0.01 0.0 0.0 0.0 0.01 0.0 0.0 0.0 0.01 0.01 0.0 0.0 0.0 0.01 0.0 0.0 0.0 0.01 0.01 0.0 0.0 0.0 0.01 0.0 0.0 0.0 0.01 0.01 0.0 0.0 0.0 0.01 0.0 0.0 0.0 0.01 0.01 0.0 0.0 0.0 0.01 0.0 0.0 0.0 0.01 0.01 0.0 0.0 0.0 0.01 0.0 0.0 0.0 0.01 0.01 0.0 0.0 0.0 0.01 0.0 0.0 0.0 0.01 0.01 0.0 0.0 0.0 0.01 0.0 0.0 0.0 0.01 0.01 0.0 0.0 0.0 0.01 0.0 0.0 0.0 0.01 0.01 0.0 0.0 0.0 0.01 0.0 0.0 0.0 0.01 0.01 0.0 0.0 0.0 0.01 0.0 0.0 0.0 0.01 0.01 0.0 0.0 0.0 0.01 0.0 0.0 0.0 0.01 0.01 0.0 0.0 0.0 0.01 0.0 0.0 0.0 0.01 0.01 0.0 0.0 0.0 0.01 0.0 0.0 0.0 0.01 0.01 0.0 0.0 0.0 0.01 0.0 0.0 0.0 0.01 0.01 0.0 0.0 0.0 0.01 0.0 0.0 0.0 0.01 0.01 0.0 0.0 0.0 0.01 0.0 0.0 0.0 0.01 0.01 0.0 0.0 0.0 0.01 0.0 0.0 0.0 0.01 0.01 0.0 0.0 0.0 0.01 0.0 0.0 0.0 0.01 0.01 0.0 0.0 0.0 0.01 0.0 0.0 0.0 0.01 0.01 0.0 0.0 0.0 0.01 0.0 0.0 0.0 0.01 0.01 0.0 0.0 0.0 0.01 0.0 0.0 0.0 0.01 0.01 0.0 0.0 0.0 0.01 0.0 0.0 0.0 0.01 0.01 0.0 0.0 0.0 0.01 0.0 0.0 0.0 0.01 0.01 0.0 0.0 0.0 0.01 0.0 0.0 0.0 0.01 0.01 0.0 0.0 0.0 0.01 0.0 0.0 0.0 0.01 0.01 0.0 0.0 0.0 0.01 0.0 0.0 0.0 0.01 0.01 0.0 0.0 0.0 0.01 0.0 0.0 0.0 0.01 0.01 0.0 0.0 0.0 0.01 0.0 0.0 0.0 0.01 0.01 0.0 0.0 0.0 0.01 0.0 0.0 0.0 0.01 0.01 0.0 0.0 0.0 0.01 0.0 0.0 0.0 0.01 0.01 0.0 0.0 0.0 0.01 0.0 0.0 0.0 0.01 0.01 0.0 0.0 0.0 0.01 0.0 0.0 0.0 0.01 0.01 0.0 0.0 0.0 0.01 0.0 0.0 0.0 0.01 0.01 0.0 0.0 0.0 0.01 0.0 0.0 0.0 0.01 0.01 0.0 0.0 0.0 0.01 0.0 0.0 0.0 0.01 0.01 0.0 0.0 0.0 0.01 0.0 0.0 0.0 0.01 0.01 0.0 0.0 0.0 0.01 0.0 0.0 0.0 0.01 0.01 0.0 0.0 0.0 0.01 0.0 0.0 0.0 0.01 0.01 0.0 0.0 0.0 0.01 0.0 0.0 0.0 0.01 0.01 0.0 0.0 0.0 0.01 0.0 0.0 0.0 0.01 0.01 0.0 0.0 0.0 0.01 0.0 0.0 0.0 0.01 0.01 0.0 0.0 0.0 0.01 0.0 0.0 0.0 0.01 0.01 0.0 0.0 0.0 0.01 0.0 0.0 0.0 0.01 0.01 0.0 0.0 0.0 0.01 0.0 0.0 0.0 0.01 0.01 0.0 0.0 0.0 0.01 0.0 0.0 0.0 0.01 0.01 0.0 0.0 0.0 0.01 0.0 0.0 0.0 0.01 0.01 0.0 0.0 0.0 0.01 0.0 0.0 0.0 0.01 0.01 0.0 0.0 0.0 0.01 0.0 0.0 0.0 0.01 0.01 0.0 0.0 0.0 0.01 0.0 0.0 0.0 0.01 0.01 0.0 0.0 0.0 0.01 0.0 0.0 0.0 0.01 0.01 0.0 0.0 0.0 0.01 0.0 0.0 0.0 0.01 0.01 0.0 0.0 0.0 0.01 0.0 0.0 0.0 0.01 0.01 0.0 0.0 0.0 0.01 0.0 0.0 0.0 0.01 0.01 0.0 0.0 0.0 0.01 0.0 0.0 0.0 0.01 0.01 0.0 0.0 0.0 0.01 0.0 0.0 0.0 0.01 0.01 0.0 0.0 0.0 0.01 0.0 0.0 0.0 0.01 0.01 0.0 0.0 0.0 0.01 0.0 0.0 0.0 0.01 0.01 0.0 0.0 0.0 0.01 0.0 0.0 0.0 0.01 0.01 0.0 0.0 0.0 0.01 0.0 0.0 0.0 0.01 0.01 0.0 0.0 0.0 0.01 0.0 0.0 0.0 0.01 0.01 0.0 0.0 0.0 0.01 0.0 0.0 0.0 0.01 0.01 0.0 0.0 0.0 0.01 0.0 0.0 0.0 0.01 0.01 0.0 0.0 0.0 0.01 0.0 0.0 0.0 0.01 0.01 0.0 0.0 0.0 0.01 0.0 0.0 0.0 0.01 0.01 0.0 0.0 0.0 0.01 0.0 0.0 0.0 0.01 0.01 0.0 0.0 0.0 0.01 0.0 0.0 0.0 0.01 0.01 0.0 0.0 0.0 0.01 0.0 0.0 0.0 0.01 0.01 0.0 0.0 0.0 0.01 0.0 0.0 0.0 0.01 0.01 0.0 0.0 0.0 0.01 0.0 0.0 0.0 0.01 0.01 0.0 0.0 0.0 0.01 0.0 0.0 0.0 0.01 0.01 0.0 0.0 0.0 0.01 0.0 0.0 0.0 0.01 0.01 0.0 0.0 0.0 0.01 0.0 0.0 0.0 0.01 0.01 0.0 0.0 0.0 0.01 0.0 0.0 0.0 0.01 0.01 0.0 0.0 0.0 0.01 0.0 0.0 0.0 0.01 0.01 0.0 0.0 0.0 0.01 0.0 0.0 0.0 0.01 0.01 0.0 0.0 0.0 0.01 0.0 0.0 0.0 0.01 0.01 0.0 0.0 0.0 0.01 0.0 0.0 0.0 0.01 0.01 0.0 0.0 0.0 0.01 0.0 0.0 0.0 0.01 0.01 0.0 0.0 0.0 0.01 0.0 0.0 0.0 0.01 0.01 0.0 0.0 0.0 0.01 0.0 0.0 0.0 0.01 0.01 0.0 0.0 0.0 0.01 0.0 0.0 0.0 0.01 0.01 0.0 0.0 0.0 0.01 0.0 0.0 0.0 0.01 0.01 0.0 0.0 0.0 0.01 0.0 0.0 0.0 0.01 0.01 0.0 0.0 0.0 0.01 0.0 0.0 0.0 0.01 0.01 0.0 0.0 0.0 0.01 0.0 0.0 0.0 0.01 0.01 0.0 0.0 0.0 0.01 0.0 0.0 0.0 0.01 0.01 0.0 0.0 0.0 0.01 0.0 0.0 0.0 0.01 0.01 0.0 0.0 0.0 0.01 0.0 0.0 0.0 0.01 0.01 0.0 0.0 0.0 0.01 0.0 0.0 0.0 0.01 0.01 0.0 0.0 0.0 0.01 0.0 0.0 0.0 0.01 0.01 0.0 0.0 0.0 0.01 0.0 0.0 0.0 0.01 0.01 0.0 0.0 0.0 0.01 0.0 0.0 0.0 0.01 0.01 0.0 0.0 0.0 0.01 0.0 0.0 0.0 0.01 0.01 0.0 0.0 0.0 0.01 0.0 0.0 0.0 0.01 0.01 0.0 0.0 0.0 0.01 0.0 0.0 0.0 0.01 0.01 0.0 0.0 0.0 0.01 0.0 0.0 0.0 0.01 0.01 0.0 0.0 0.0 0.01 0.0 0.0 0.0 0.01 0.01 0.0 0.0 0.0 0.01 0.0 0.0 0.0 0.01 0.01 0.0 0.0 0.0 0.01 0.0 0.0 0.0 0.01 0.01 0.0 0.0 0.0 0.01 0.0 0.0 0.0 0.01 0.01 0.0 0.0 0.0 0.01 0.0 0.0 0.0 0.01 0.01 0.0 0.0 0.0 0.01 0.0 0.0 0.0 0.01 0.01 0.0 0.0 0.0 0.01 0.0 0.0 0.0 0.01 0.01 0.0 0.0 0.0 0.01 0.0 0.0 0.0 0.01 0.01 0.0 0.0 0.0 0.01 0.0 0.0 0.0 0.01 0.01 0.0 0.0 0.0 0.01 0.0 0.0 0.0 0.01 0.01 0.0 0.0 0.0 0.01 0.0 0.0 0.0 0.01 0.01 0.0 0.0 0.0 0.01 0.0 0.0 0.0 0.01 0.01 0.0 0.0 0.0 0.01 0.0 0.0 0.0 0.01 0.01 0.0 0.0 0.0 0.01 0.0 0.0 0.0 0.01 0.01 0.0 0.0 0.0 0.01 0.0 0.0 0.0 0.01 0.01 0.0 0.0 0.0 0.01 0.0 0.0 0.0 0.01 0.01 0.0 0.0 0.0 0.01 0.0 0.0 0.0 0.01 0.01 0.0 0.0 0.0 0.01 0.0 0.0 0.0 0.01 0.01 0.0 0.0 0.0 0.01 0.0 0.0 0.0 0.01 0.01 0.0 0.0 0.0 0.01 0.0 0.0 0.0 0.01 0.01 0.0 0.0 0.0 0.01 0.0 0.0 0.0 0.01 0.01 0.0 0.0 0.0 0.01 0.0 0.0 0.0 0.01 0.01 0.0 0.0 0.0 0.01 0.0 0.0 0.0 0.01 0.01 0.0 0.0 0.0 0.01 0.0 0.0 0.0 0.01 0.01 0.0 0.0 0.0 0.01 0.0 0.0 0.0 0.01 0.01 0.0 0.0 0.0 0.01 0.0 0.0 0.0 0.01 0.01 0.0 0.0 0.0 0.01 0.0 0.0 0.0 0.01 0.01 0.0 0.0 0.0 0.01 0.0 0.0 0.0 0.01 0.01 0.0 0.0 0.0 0.01 0.0 0.0 0.0 0.01 0.01 0.0 0.0 0.0 0.01 0.0 0.0 0.0 0.01 0.01 0.0 0.0 0.0 0.01 0.0 0.0 0.0 0.01 0.01 0.0 0.0 0.0 0.01 0.0 0.0 0.0 0.01 0.01 0.0 0.0 0.0 0.01 0.0 0.0 0.0 0.01 0.01 0.0 0.0 0.0 0.01 0.0 0.0 0.0 0.01 0.01 0.0 0.0 0.0 0.01 0.0 0.0 0.0 0.01 0.01 0.0 0.0 0.0 0.01 0.0 0.0 0.0 0.01 0.01 0.0 0.0 0.0 0.01 0.0 0.0 0.0 0.01 0.01 0.0 0.0 0.0 0.01 0.0 0.0 0.0 0.01 0.01 0.0 0.0 0.0 0.01 0.0 0.0 0.0 0.01 0.01 0.0 0.0 0.0 0.01 0.0 0.0 0.0 0.01 0.01 0.0 0.0 0.0 0.01 0.0 0.0 0.0 0.01 0.01 0.0 0.0 0.0 0.01 0.0 0.0 0.0 0.01 0.01 0.0 0.0 0.0 0.01 0.0 0.0 0.0 0.01 0.01 0.0 0.0 0.0 0.01 0.0 0.0 0.0 0.01 0.01 0.0 0.0 0.0 0.01 0.0 0.0 0.0 0.01 0.01 0.0 0.0 0.0 0.01 0.0 0.0 0.0 0.01 0.01 0.0 0.0 0.0 0.01 0.0 0.0 0.0 0.01 0.01 0.0 0.0 0.0 0.01 0.0 0.0 0.0 0.01 0.01 0.0 0.0 0.0 0.01 0.0 0.0 0.0 0.01 0.01 0.0 0.0 0.0 0.01 0.0 0.0 0.0 0.01 0.01 0.0 0.0 0.0 0.01 0.0 0.0 0.0 0.01 0.01 0.0 0.0 0.0 0.01 0.0 0.0 0.0 0.01 0.01 0.0 0.0 0.0 0.01 0.0 0.0 0.0 0.01 0.01 0.0 0.0 0.0 0.01 0.0 0.0 0.0 0.01 0.01 0.0 0.0 0.0 0.01 0.0 0.0 0.0 0.01 0.01 0.0 0.0 0.0 0.01 0.0 0.0 0.0 0.01 0.01 0.0 0.0 0.0 0.01 0.0 0.0 0.0 0.01 0.01 0.0 0.0 0.0 0.01 0.0 0.0 0.0 0.01 0.01 0.0 0.0 0.0 0.01 0.0 0.0 0.0 0.01 0.01 0.0 0.0 0.0 0.01 0.0 0.0 0.0 0.01 0.01 0.0 0.0 0.0 0.01 0.0 0.0 0.0 0.01 0.01 0.0 0.0 0.0 0.01 0.0 0.0 0.0 0.01 0.01 0.0 0.0 0.0 0.01 0.0 0.0 0.0 0.01 0.01 0.0 0.0 0.0 0.01 0.0 0.0 0.0 0.01 0.01 0.0 0.0 0.0 0.01 0.0 0.0 0.0 0.01 0.01 0.0 0.0 0.0 0.01 0.0 0.0 0.0 0.01 0.01 0.0 0.0 0.0 0.01 0.0 0.0 0.0 0.01 0.01 0.0 0.0 0.0 0.01 0.0 0.0 0.0 0.01 0.01 0.0 0.0 0.0 0.01 0.0 0.0 0.0 0.01 0.01 0.0 0.0 0.0 0.01 0.0 0.0 0.0 0.01 0.01 0.0 0.0 0.0 0.01 0.0 0.0 0.0 0.01 0.01 0.0 0.0 0.0 0.01 0.0 0.0 0.0 0.01 0.01 0.0 0.0 0.0 0.01 0.0 0.0 0.0 0.01 0.01 0.0 0.0 0.0 0.01 0.0 0.0 0.0 0.01 0.01 0.0 0.0 0.0 0.01 0.0 0.0 0.0 0.01 0.01 0.0 0.0 0.0 0.01 0.0 0.0 0.0 0.01 0.01 0.0 0.0 0.0 0.01 0.0 0.0 0.0 0.01 0.01 0.0 0.0 0.0 0.01 0.0 0.0 0.0 0.01 0.01 0.0 0.0 0.0 0.01 0.0 0.0 0.0 0.01 0.01 0.0 0.0 0.0 0.01 0.0 0.0 0.0 0.01 0.01 0.0 0.0 0.0 0.01 0.0 0.0 0.0 0.01 0.01 0.0 0.0 0.0 0.01 0.0 0.0 0.0 0.01 0.01 0.0 0.0 0.0 0.01 0.0 0.0 0.0 0.01 0.01 0.0 0.0 0.0 0.01 0.0 0.0 0.0 0.01 0.01 0.0 0.0 0.0 0.01 0.0 0.0 0.0 0.01 0.01 0.0 0.0 0.0 0.01 0.0 0.0 0.0 0.01 0.01 0.0 0.0 0.0 0.01 0.0 0.0 0.0 0.01 0.01 0.0 0.0 0.0 0.01 0.0 0.0 0.0 0.01 0.01 0.0 0.0 0.0 0.01 0.0 0.0 0.0 0.01 0.01 0.0 0.0 0.0 0.01 0.0 0.0 0.0 0.01 0.01 0.0 0.0 0.0 0.01 0.0 0.0 0.0 0.01 0.01 0.0 0.0 0.0 0.01 0.0 0.0 0.0 0.01 0.01 0.0 0.0 0.0 0.01 0.0 0.0 0.0 0.01 0.01 0.0 0.0 0.0 0.01 0.0 0.0 0.0 0.01 0.01 0.0 0.0 0.0 0.01 0.0 0.0 0.0 0.01 0.01 0.0 0.0 0.0 0.01 0.0 0.0 0.0 0.01 0.01 0.0 0.0 0.0 0.01 0.0 0.0 0.0 0.01 0.01 0.0 0.0 0.0 0.01 0.0 0.0 0.0 0.01 0.01 0.0 0.0 0.0 0.01 0.0 0.0 0.0 0.01 0.01 0.0 0.0 0.0 0.01 0.0 0.0 0.0 0.01 0.01 0.0 0.0 0.0 0.01 0.0 0.0 0.0 0.01 0.01 0.0 0.0 0.0 0.01 0.0 0.0 0.0 0.01 0.01 0.0 0.0 0.0 0.01 0.0 0.0 0.0 0.01 0.01 0.0 0.0 0.0 0.01 0.0 0.0 0.0 0.01 0.01 0.0 0.0 0.0 0.01 0.0 0.0 0.0 0.01 0.01 0.0 0.0 0.0 0.01 0.0 0.0 0.0 0.01 0.01 0.0 0.0 0.0 0.01 0.0 0.0 0.0 0.01 0.01 0.0 0.0 0.0 0.01 0.0 0.0 0.0 0.01 0.01 0.0 0.0 0.0 0.01 0.0 0.0 0.0 0.01 0.01 0.0 0.0 0.0 0.01 0.0 0.0 0.0 0.01 0.01 0.0 0.0 0.0 0.01 0.0 0.0 0.0 0.01 0.01 0.0 0.0 0.0 0.01 0.0 0.0 0.0 0.01 0.01 0.0 0.0 0.0 0.01 0.0 0.0 0.0 0.01 0.01 0.0 0.0 0.0 0.01 0.0 0.0 0.0 0.01 0.01 0.0 0.0 0.0 0.01 0.0 0.0 0.0 0.01 0.01 0.0 0.0 0.0 0.01 0.0 0.0 0.0 0.01 0.01 0.0 0.0 0.0 0.01 0.0 0.0 0.0 0.01 0.01 0.0 0.0 0.0 0.01 0.0 0.0 0.0 0.01 0.01 0.0 0.0 0.0 0.01 0.0 0.0 0.0 0.01 0.01 0.0 0.0 0.0 0.01 0.0 0.0 0.0 0.01 0.01 0.0 0.0 0.0 0.01 0.0 0.0 0.0 0.01 0.01 0.0 0.0 0.0 0.01 0.0 0.0 0.0 0.01 0.01 0.0 0.0 0.0 0.01 0.0 0.0 0.0 0.01 0.01 0.0 0.0 0.0 0.01 0.0 0.0 0.0 0.01 0.01 0.0 0.0 0.0 0.01 0.0 0.0 0.0 0.01 0.01 0.0 0.0 0.0 0.01 0.0 0.0 0.0 0.01 0.01 0.0 0.0 0.0 0.01 0.0 0.0 0.0 0.01 0.01 0.0 0.0 0.0 0.01 0.0 0.0 0.0 0.01 0.01 0.0 0.0 0.0 0.01 0.0 0.0 0.0 0.01 0.01 0.0 0.0 0.0 0.01 0.0 0.0 0.0 0.01 0.01 0.0 0.0 0.0 0.01 0.0 0.0 0.0 0.01 0.01 0.0 0.0 0.0 0.01 0.0 0.0 0.0 0.01 0.01 0.0 0.0 0.0 0.01 0.0 0.0 0.0 0.01 0.01 0.0 0.0 0.0 0.01 0.0 0.0 0.0 0.01 0.01 0.0 0.0 0.0 0.01 0.0 0.0 0.0 0.01 0.01 0.0 0.0 0.0 0.01 0.0 0.0 0.0 0.01 0.01 0.0 0.0 0.0 0.01 0.0 0.0 0.0 0.01 0.01 0.0 0.0 0.0 0.01 0.0 0.0 0.0 0.01 0.01 0.0 0.0 0.0 0.01 0.0 0.0 0.0 0.01 0.01 0.0 0.0 0.0 0.01 0.0 0.0 0.0 0.01 0.01 0.0 0.0 0.0 0.01 0.0 0.0 0.0 0.01 0.01 0.0 0.0 0.0 0.01 0.0 0.0 0.0 0.01 0.01 0.0 0.0 0.0 0.01 0.0 0.0 0.0 0.01 0.01 0.0 0.0 0.0 0.01 0.0 0.0 0.0 0.01 0.01 0.0 0.0 0.0 0.01 0.0 0.0 0.0 0.01 0.01 0.0 0.0 0.0 0.01 0.0 0.0 0.0 0.01 0.01 0.0 0.0 0.0 0.01 0.0 0.0 0.0 0.01 0.01 0.0 0.0 0.0 0.01 0.0 0.0 0.0 0.01 0.01 0.0 0.0 0.0 0.01 0.0 0.0 0.0 0.01 0.01 0.0 0.0 0.0 0.01 0.0 0.0 0.0 0.01 0.01 0.0 0.0 0.0 0.01 0.0 0.0 0.0 0.01 0.01 0.0 0.0 0.0 0.01 0.0 0.0 0.0 0.01 0.01 0.0 0.0 0.0 0.01 0.0 0.0 0.0 0.01 0.01 0.0 0.0 0.0 0.01 0.0 0.0 0.0 0.01 0.01 0.0 0.0 0.0 0.01 0.0 0.0 0.0 0.01 0.01 0.0 0.0 0.0 0.01 0.0 0.0 0.0 0.01 0.01 0.0 0.0 0.0 0.01 0.0 0.0 0.0 0.01 0.01 0.0 0.0 0.0 0.01 0.0 0.0 0.0 0.01 0.01 0.0 0.0 0.0 0.01 0.0 0.0 0.0 0.01 0.01 0.0 0.0 0.0 0.01 0.0 0.0 0.0 0.01 0.01 0.0 0.0 0.0 0.01 0.0 0.0 0.0 0.01 0.01 0.0 0.0 0.0 0.01 0.0 0.0 0.0 0.01 0.01 0.0 0.0 0.0 0.01 0.0 0.0 0.0 0.01 0.01 0.0 0.0 0.0 0.01 0.0 0.0 0.0 0.01 0.01 0.0 0.0 0.0 0.01 0.0 0.0 0.0 0.01 0.01 0.0 0.0 0.0 0.01 0.0 0.0 0.0 0.01 0.01 0.0 0.0 0.0 0.01 0.0 0.0 0.0 0.01 0.01 0.0 0.0 0.0 0.01 0.0 0.0 0.0 0.01 0.01 0.0 0.0 0.0 0.01 0.0 0.0 0.0 0.01 0.01 0.0 0.0 0.0 0.01 0.0 0.0 0.0 0.01 0.01 0.0 0.0 0.0 0.01 0.0 0.0 0.0 0.01 0.01 0.0 0.0 0.0 0.01 0.0 0.0 0.0 0.01 0.01 0.0 0.0 0.0 0.01 0.0 0.0 0.0 0.01 0.01 0.0 0.0 0.0 0.01 0.0 0.0 0.0 0.01 0.01 0.0 0.0 0.0 0.01 0.0 0.0 0.0 0.01 0.01 0.0 0.0 0.0 0.01 0.0 0.0 0.0 0.01 0.01 0.0 0.0 0.0 0.01 0.0 0.0 0.0 0.01 0.01 0.0 0.0 0.0 0.01 0.0 0.0 0.0 0.01 0.01 0.0 0.0 0.0 0.01 0.0 0.0 0.0 0.01 0.01 0.0 0.0 0.0 0.01 0.0 0.0 0.0 0.01 0.01 0.0 0.0 0.0 0.01 0.0 0.0 0.0 0.01 0.01 0.0 0.0 0.0 0.01 0.0 0.0 0.0 0.01 0.01 0.0 0.0 0.0 0.01 0.0 0.0 0.0 0.01 0.01 0.0 0.0 0.0 0.01 0.0 0.0 0.0 0.01 0.01 0.0 0.0 0.0 0.01 0.0 0.0 0.0 0.01 0.01 0.0 0.0 0.0 0.01 0.0 0.0 0.0 0.01 0.01 0.0 0.0 0.0 0.01 0.0 0.0 0.0 0.01 0.01 0.0 0.0 0.0 0.01 0.0 0.0 0.0 0.01 0.01 0.0 0.0 0.0 0.01 0.0 0.0 0.0 0.01 0.01 0.0 0.0 0.0 0.01 0.0 0.0 0.0 0.01 0.01 0.0 0.0 0.0 0.01 0.0 0.0 0.0 0.01 0.01 0.0 0.0 0.0 0.01 0.0 0.0 0.0 0.01 0.01 0.0 0.0 0.0 0.01 0.0 0.0 0.0 0.01 0.01 0.0 0.0 0.0 0.01 0.0 0.0 0.0 0.01 0.01 0.0 0.0 0.0 0.01 0.0 0.0 0.0 0.01 0.01 0.0 0.0 0.0 0.01 0.0 0.0 0.0 0.01 0.01 0.0 0.0 0.0 0.01 0.0 0.0 0.0 0.01 0.01 0.0 0.0 0.0 0.01 0.0 0.0 0.0 0.01 0.01 0.0 0.0 0.0 0.01 0.0 0.0 0.0 0.01 0.01 0.0 0.0 0.0 0.01 0.0 0.0 0.0 0.01 0.01 0.0 0.0 0.0 0.01 0.0 0.0 0.0 0.01 0.01 0.0 0.0 0.0 0.01 0.0 0.0 0.0 0.01 0.01 0.0 0.0 0.0 0.01 0.0 0.0 0.0 0.01 0.01 0.0 0.0 0.0 0.01 0.0 0.0 0.0 0.01 0.01 0.0 0.0 0.0 0.01 0.0 0.0 0.0 0.01 0.01 0.0 0.0 0.0 0.01 0.0 0.0 0.0 0.01 0.01 0.0 0.0 0.0 0.01 0.0 0.0 0.0 0.01 0.01 0.0 0.0 0.0 0.01 0.0 0.0 0.0 0.01 0.01 0.0 0.0 0.0 0.01 0.0 0.0 0.0 0.01 0.01 0.0 0.0 0.0 0.01 0.0 0.0 0.0 0.01 0.01 0.0 0.0 0.0 0.01 0.0 0.0 0.0 0.01 0.01 0.0 0.0 0.0 0.01 0.0 0.0 0.0 0.01 0.01 0.0 0.0 0.0 0.01 0.0 0.0 0.0 0.01 0.01 0.0 0.0 0.0 0.01 0.0 0.0 0.0 0.01 0.01 0.0 0.0 0.0 0.01 0.0 0.0 0.0 0.01 0.01 0.0 0.0 0.0 0.01 0.0 0.0 0.0 0.01 0.01 0.0 0.0 0.0 0.01 0.0 0.0 0.0 0.01 0.01 0.0 0.0 0.0 0.01 0.0 0.0 0.0 0.01 0.01 0.0 0.0 0.0 0.01 0.0 0.0 0.0 0.01 0.01 0.0 0.0 0.0 0.01 0.0 0.0 0.0 0.01 0.01 0.0 0.0 0.0 0.01 0.0 0.0 0.0 0.01 0.01 0.0 0.0 0.0 0.01 0.0 0.0 0.0 0.01 0.01 0.0 0.0 0.0 0.01 0.0 0.0 0.0 0.01 0.01 0.0 0.0 0.0 0.01 0.0 0.0 0.0 0.01 0.01 0.0 0.0 0.0 0.01 0.0 0.0 0.0 0.01 0.01 0.0 0.0 0.0 0.01 0.0 0.0 0.0 0.01 0.01 0.0 0.0 0.0 0.01 0.0 0.0 0.0 0.01 0.01 0.0 0.0 0.0 0.01 0.0 0.0 0.0 0.01 0.01 0.0 0.0 0.0 0.01 0.0 0.0 0.0 0.01 0.01 0.0 0.0 0.0 0.01 0.0 0.0 0.0 0.01 0.01 0.0 0.0 0.0 0.01 0.0 0.0 0.0 0.01 0.01 0.0 0.0 0.0 0.01 0.0 0.0 0.0 0.01 0.01 0.0 0.0 0.0 0.01 0.0 0.0 0.0 0.01 0.01 0.0 0.0 0.0 0.01 0.0 0.0 0.0 0.01 0.01 0.0 0.0 0.0 0.01 0.0 0.0 0.0 0.01 0.01 0.0 0.0 0.0 0.01 0.0 0.0 0.0 0.01 0.01 0.0 0.0 0.0 0.01 0.0 0.0 0.0 0.01 0.01 0.0 0.0 0.0 0.01 0.0 0.0 0.0 0.01 0.01 0.0 0.0 0.0 0.01 0.0 0.0 0.0 0.01 0.01 0.0 0.0 0.0 0.01 0.0 0.0 0.0 0.01 0.01 0.0 0.0 0.0 0.01 0.0 0.0 0.0 0.01 0.01 0.0 0.0 0.0 0.01 0.0 0.0 0.0 0.01 0.01 0.0 0.0 0.0 0.01 0.0 0.0 0.0 0.01 0.01 0.0 0.0 0.0 0.01 0.0 0.0 0.0 0.01 0.01 0.0 0.0 0.0 0.01 0.0 0.0 0.0 0.01 0.01 0.0 0.0 0.0 0.01 0.0 0.0 0.0 0.01 0.01 0.0 0.0 0.0 0.01 0.0 0.0 0.0 0.01 0.01 0.0 0.0 0.0 0.01 0.0 0.0 0.0 0.01 0.01 0.0 0.0 0.0 0.01 0.0 0.0 0.0 0.01 0.01 0.0 0.0 0.0 0.01 0.0 0.0 0.0 0.01 0.01 0.0 0.0 0.0 0.01 0.0 0.0 0.0 0.01 0.01 0.0 0.0 0.0 0.01 0.0 0.0 0.0 0.01 0.01 0.0 0.0 0.0 0.01 0.0 0.0 0.0 0.01 0.01 0.0 0.0 0.0 0.01 0.0 0.0 0.0 0.01 0.01 0.0 0.0 0.0 0.01 0.0 0.0 0.0 0.01 0.01 0.0 0.0 0.0 0.01 0.0 0.0 0.0 0.01 0.01 0.0 0.0 0.0 0.01 0.0 0.0 0.0 0.01 0.01 0.0 0.0 0.0 0.01 0.0 0.0 0.0 0.01 0.01 0.0 0.0 0.0 0.01 0.0 0.0 0.0 0.01 0.01 0.0 0.0 0.0 0.01 0.0 0.0 0.0 0.01 0.01 0.0 0.0 0.0 0.01 0.0 0.0 0.0 0.01 0.01 0.0 0.0 0.0 0.01 0.0 0.0 0.0 0.01 0.01 0.0 0.0 0.0 0.01 0.0 0.0 0.0 0.01 0.01 0.0 0.0 0.0 0.01 0.0 0.0 0.0 0.01 0.01 0.0 0.0 0.0 0.01 0.0 0.0 0.0 0.01 0.01 0.0 0.0 0.0 0.01 0.0 0.0 0.0 0.01 0.01 0.0 0.0 0.0 0.01 0.0 0.0 0.0 0.01 0.01 0.0 0.0 0.0 0.01 0.0 0.0 0.0 0.01 0.01 0.0 0.0 0.0 0.01 0.0 0.0 0.0 0.01 0.01 0.0 0.0 0.0 0.01 0.0 0.0 0.0 0.01 0.01 0.0 0.0 0.0 0.01 0.0 0.0 0.0 0.01 0.01 0.0 0.0 0.0 0.01 0.0 0.0 0.0 0.01 0.01 0.0 0.0 0.0 0.01 0.0 0.0 0.0 0.01 0.01 0.0 0.0 0.0 0.01 0.0 0.0 0.0 0.01 0.01 0.0 0.0 0.0 0.01 0.0 0.0 0.0 0.01 0.01 0.0 0.0 0.0 0.01 0.0 0.0 0.0 0.01 0.01 0.0 0.0 0.0 0.01 0.0 0.0 0.0 0.01 0.01 0.0 0.0 0.0 0.01 0.0 0.0 0.0 0.01 0.01 0.0 0.0 0.0 0.01 0.0 0.0 0.0 0.01 0.01 0.0 0.0 0.0 0.01 0.0 0.0 0.0 0.01 0.01 0.0 0.0 0.0 0.01 0.0 0.0 0.0 0.01 0.01 0.0 0.0 0.0 0.01 0.0 0.0 0.0 0.01 0.01 0.0 0.0 0.0 0.01 0.0 0.0 0.0 0.01 0.01 0.0 0.0 0.0 0.01 0.0 0.0 0.0 0.01 0.01 0.0 0.0 0.0 0.01 0.0 0.0 0.0 0.01 0.01 0.0 0.0 0.0 0.01 0.0 0.0 0.0 0.01 0.01 0.0 0.0 0.0 0.01 0.0 0.0 0.0 0.01 0.01 0.0 0.0 0.0 0.01 0.0 0.0 0.0 0.01 0.01 0.0 0.0 0.0 0.01 0.0 0.0 0.0 0.01 0.01 0.0 0.0 0.0 0.01 0.0 0.0 0.0 0.01 0.01 0.0 0.0 0.0 0.01 0.0 0.0 0.0 0.01 0.01 0.0 0.0 0.0 0.01 0.0 0.0 0.0 0.01 0.01 0.0 0.0 0.0 0.01 0.0 0.0 0.0 0.01 0.01 0.0 0.0 0.0 0.01 0.0 0.0 0.0 0.01 0.01 0.0 0.0 0.0 0.01 0.0 0.0 0.0 0.01 0.01 0.0 0.0 0.0 0.01 0.0 0.0 0.0 0.01 0.01 0.0 0.0 0.0 0.01 0.0 0.0 0.0 0.01 0.01 0.0 0.0 0.0 0.01 0.0 0.0 0.0 0.01 0.01 0.0 0.0 0.0 0.01 0.0 0.0 0.0 0.01 0.01 0.0 0.0 0.0 0.01 0.0 0.0 0.0 0.01 0.01 0.0 0.0 0.0 0.01 0.0 0.0 0.0 0.01 0.01 0.0 0.0 0.0 0.01 0.0 0.0 0.0 0.01 0.01 0.0 0.0 0.0 0.01 0.0 0.0 0.0 0.01 0.01 0.0 0.0 0.0 0.01 0.0 0.0 0.0 0.01 0.01 0.0 0.0 0.0 0.01 0.0 0.0 0.0 0.01 0.01 0.0 0.0 0.0 0.01 0.0 0.0 0.0 0.01 0.01 0.0 0.0 0.0 0.01 0.0 0.0 0.0 0.01 0.01 0.0 0.0 0.0 0.01 0.0 0.0 0.0 0.01 0.01 0.0 0.0 0.0 0.01 0.0 0.0 0.0 0.01 0.01 0.0 0.0 0.0 0.01 0.0 0.0 0.0 0.01 0.01 0.0 0.0 0.0 0.01 0.0 0.0 0.0 0.01 0.01 0.0 0.0 0.0 0.01 0.0 0.0 0.0 0.01 0.01 0.0 0.0 0.0 0.01 0.0 0.0 0.0 0.01 0.01 0.0 0.0 0.0 0.01 0.0 0.0 0.0 0.01 0.01 0.0 0.0 0.0 0.01 0.0 0.0 0.0 0.01 0.01 0.0 0.0 0.0 0.01 0.0 0.0 0.0 0.01 0.01 0.0 0.0 0.0 0.01 0.0 0.0 0.0 0.01 0.01 0.0 0.0 0.0 0.01 0.0 0.0 0.0 0.01 0.01 0.0 0.0 0.0 0.01 0.0 0.0 0.0 0.01 0.01 0.0 0.0 0.0 0.01 0.0 0.0 0.0 0.01 0.01 0.0 0.0 0.0 0.01 0.0 0.0 0.0 0.01 0.01 0.0 0.0 0.0 0.01 0.0 0.0 0.0 0.01 0.01 0.0 0.0 0.0 0.01 0.0 0.0 0.0 0.01 0.01 0.0 0.0 0.0 0.01 0.0 0.0 0.0 0.01 0.01 0.0 0.0 0.0 0.01 0.0 0.0 0.0 0.01 0.01 0.0 0.0 0.0 0.01 0.0 0.0 0.0 0.01 0.01 0.0 0.0 0.0 0.01 0.0 0.0 0.0 0.01 0.01 0.0 0.0 0.0 0.01 0.0 0.0 0.0 0.01 0.01 0.0 0.0 0.0 0.01 0.0 0.0 0.0 0.01 0.01 0.0 0.0 0.0 0.01 0.0 0.0 0.0 0.01 0.01 0.0 0.0 0.0 0.01 0.0 0.0 0.0 0.01 0.01 0.0 0.0 0.0 0.01 0.0 0.0 0.0 0.01 0.01 0.0 0.0 0.0 0.01 0.0 0.0 0.0 0.01 0.01 0.0 0.0 0.0 0.01 0.0 0.0 0.0 0.01 0.01 0.0 0.0 0.0 0.01 0.0 0.0 0.0 0.01 0.01 0.0 0.0 0.0 0.01 0.0 0.0 0.0 0.01 0.01 0.0 0.0 0.0 0.01 0.0 0.0 0.0 0.01 0.01 0.0 0.0 0.0 0.01 0.0 0.0 0.0 0.01 0.01 0.0 0.0 0.0 0.01 0.0 0.0 0.0 0.01 0.01 0.0 0.0 0.0 0.01 0.0 0.0 0.0 0.01 0.01 0.0 0.0 0.0 0.01 0.0 0.0 0.0 0.01 0.01 0.0 0.0 0.0 0.01 0.0 0.0 0.0 0.01 0.01 0.0 0.0 0.0 0.01 0.0 0.0 0.0 0.01 0.01 0.0 0.0 0.0 0.01 0.0 0.0 0.0 0.01 0.01 0.0 0.0 0.0 0.01 0.0 0.0 0.0 0.01 0.01 0.0 0.0 0.0 0.01 0.0 0.0 0.0 0.01 0.01 0.0 0.0 0.0 0.01 0.0 0.0 0.0 0.01 0.01 0.0 0.0 0.0 0.01 0.0 0.0 0.0 0.01 0.01 0.0 0.0 0.0 0.01 0.0 0.0 0.0 0.01 0.01 0.0 0.0 0.0 0.01 0.0 0.0 0.0 0.01 0.01 0.0 0.0 0.0 0.01 0.0 0.0 0.0 0.01 0.01 0.0 0.0 0.0 0.01 0.0 0.0 0.0 0.01 0.01 0.0 0.0 0.0 0.01 0.0 0.0 0.0 0.01 0.01 0.0 0.0 0.0 0.01 0.0 0.0 0.0 0.01 0.01 0.0 0.0 0.0 0.01 0.0 0.0 0.0 0.01 0.01 0.0 0.0 0.0 0.01 0.0 0.0 0.0 0.01 0.01 0.0 0.0 0.0 0.01 0.0 0.0 0.0 0.01 0.01 0.0 0.0 0.0 0.01 0.0 0.0 0.0 0.01 0.01 0.0 0.0 0.0 0.01 0.0 0.0 0.0 0.01 0.01 0.0 0.0 0.0 0.01 0.0 0.0 0.0 0.01 0.01 0.0 0.0 0.0 0.01 0.0 0.0 0.0 0.01 0.01 0.0 0.0 0.0 0.01 0.0 0.0 0.0 0.01 0.01 0.0 0.0 0.0 0.01 0.0 0.0 0.0 0.01 0.01 0.0 0.0 0.0 0.01 0.0 0.0 0.0 0.01 0.01 0.0 0.0 0.0 0.01 0.0 0.0 0.0 0.01 0.01 0.0 0.0 0.0 0.01 0.0 0.0 0.0 0.01 0.01 0.0 0.0 0.0 0.01 0.0 0.0 0.0 0.01 0.01 0.0 0.0 0.0 0.01 0.0 0.0 0.0 0.01 0.01 0.0 0.0 0.0 0.01 0.0 0.0 0.0 0.01 0.01 0.0 0.0 0.0 0.01 0.0 0.0 0.0 0.01 0.01 0.0 0.0 0.0 0.01 0.0 0.0 0.0 0.01 0.01 0.0 0.0 0.0 0.01 0.0 0.0 0.0 0.01 0.01 0.0 0.0 0.0 0.01 0.0 0.0 0.0 0.01 0.01 0.0 0.0 0.0 0.01 0.0 0.0 0.0 0.01 0.01 0.0 0.0 0.0 0.01 0.0 0.0 0.0 0.01 0.01 0.0 0.0 0.0 0.01 0.0 0.0 0.0 0.01 0.01 0.0 0.0 0.0 0.01 0.0 0.0 0.0 0.01 0.01 0.0 0.0 0.0 0.01 0.0 0.0 0.0 0.01 0.01 0.0 0.0 0.0 0.01 0.0 0.0 0.0 0.01 0.01 0.0 0.0 0.0 0.01 0.0 0.0 0.0 0.01 0.01 0.0 0.0 0.0 0.01 0.0 0.0 0.0 0.01 0.01 0.0 0.0 0.0 0.01 0.0 0.0 0.0 0.01 0.01 0.0 0.0 0.0 0.01 0.0 0.0 0.0 0.01 0.01 0.0 0.0 0.0 0.01 0.0 0.0 0.0 0.01 0.01 0.0 0.0 0.0 0.01 0.0 0.0 0.0 0.01 0.01 0.0 0.0 0.0 0.01 0.0 0.0 0.0 0.01 0.01 0.0 0.0 0.0 0.01 0.0 0.0 0.0 0.01 0.01 0.0 0.0 0.0 0.01 0.0 0.0 0.0 0.01 0.01 0.0 0.0 0.0 0.01 0.0 0.0 0.0 0.01 0.01 0.0 0.0 0.0 0.01 0.0 0.0 0.0 0.01 0.01 0.0 0.0 0.0 0.01 0.0 0.0 0.0 0.01 0.01 0.0 0.0 0.0 0.01 0.0 0.0 0.0 0.01 0.01 0.0 0.0 0.0 0.01 0.0 0.0 0.0 0.01 0.01 0.0 0.0 0.0 0.01 0.0 0.0 0.0 0.01 0.01 0.0 0.0 0.0 0.01 0.0 0.0 0.0 0.01 0.01 0.0 0.0 0.0 0.01 0.0 0.0 0.0 0.01 0.01 0.0 0.0 0.0 0.01 0.0 0.0 0.0 0.01 0.01 0.0 0.0 0.0 0.01 0.0 0.0 0.0 0.01 0.01 0.0 0.0 0.0 0.01 0.0 0.0 0.0 0.01 0.01 0.0 0.0 0.0 0.01 0.0 0.0 0.0 0.01 0.01 0.0 0.0 0.0 0.01 0.0 0.0 0.0 0.01 0.01 0.0 0.0 0.0 0.01 0.0 0.0 0.0 0.01 0.01 0.0 0.0 0.0 0.01 0.0 0.0 0.0 0.01 0.01 0.0 0.0 0.0 0.01 0.0 0.0 0.0 0.01 0.01 0.0 0.0 0.0 0.01 0.0 0.0 0.0 0.01 0.01 0.0 0.0 0.0 0.01 0.0 0.0 0.0 0.01 0.01 0.0 0.0 0.0 0.01 0.0 0.0 0.0 0.01 0.01 0.0 0.0 0.0 0.01 0.0 0.0 0.0 0.01 0.01 0.0 0.0 0.0 0.01 0.0 0.0 0.0 0.01 0.01 0.0 0.0 0.0 0.01 0.0 0.0 0.0 0.01 0.01 0.0 0.0 0.0 0.01 0.0 0.0 0.0 0.01 0.01 0.0 0.0 0.0 0.01 0.0 0.0 0.0 0.01 0.01 0.0 0.0 0.0 0.01 0.0 0.0 0.0 0.01 0.01 0.0 0.0 0.0 0.01 0.0 0.0 0.0 0.01 0.01 0.0 0.0 0.0 0.01 0.0 0.0 0.0 0.01 0.01 0.0 0.0 0.0 0.01 0.0 0.0 0.0 0.01 0.01 0.0 0.0 0.0 0.01 0.0 0.0 0.0 0.01 0.01 0.0 0.0 0.0 0.01 0.0 0.0 0.0 0.01 0.01 0.0 0.0 0.0 0.01 0.0 0.0 0.0 0.01 0.01 0.0 0.0 0.0 0.01 0.0 0.0 0.0 0.01 0.01 0.0 0.0 0.0 0.01 0.0 0.0 0.0 0.01 0.01 0.0 0.0 0.0 0.01 0.0 0.0 0.0 0.01 0.01 0.0 0.0 0.0 0.01 0.0 0.0 0.0 0.01 0.01 0.0 0.0 0.0 0.01 0.0 0.0 0.0 0.01 0.01 0.0 0.0 0.0 0.01 0.0 0.0 0.0 0.01 0.01 0.0 0.0 0.0 0.01 0.0 0.0 0.0 0.01 0.01 0.0 0.0 0.0 0.01 0.0 0.0 0.0 0.01 0.01 0.0 0.0 0.0 0.01 0.0 0.0 0.0 0.01 0.01 0.0 0.0 0.0 0.01 0.0 0.0 0.0 0.01 0.01 0.0 0.0 0.0 0.01 0.0 0.0 0.0 0.01 0.01 0.0 0.0 0.0 0.01 0.0 0.0 0.0 0.01 0.01 0.0 0.0 0.0 0.01 0.0 0.0 0.0 0.01 0.01 0.0 0.0 0.0 0.01 0.0 0.0 0.0 0.01 0.01 0.0 0.0 0.0 0.01 0.0 0.0 0.0 0.01 0.01 0.0 0.0 0.0 0.01 0.0 0.0 0.0 0.01 0.01 0.0 0.0 0.0 0.01 0.0 0.0 0.0 0.01 0.01 0.0 0.0 0.0 0.01 0.0 0.0 0.0 0.01 0.01 0.0 0.0 0.0 0.01 0.0 0.0 0.0 0.01 0.01 0.0 0.0 0.0 0.01 0.0 0.0 0.0 0.01 0.01 0.0 0.0 0.0 0.01 0.0 0.0 0.0 0.01 0.01 0.0 0.0 0.0 0.01 0.0 0.0 0.0 0.01 0.01 0.0 0.0 0.0 0.01 0.0 0.0 0.0 0.01 0.01 0.0 0.0 0.0 0.01 0.0 0.0 0.0 0.01 0.01 0.0 0.0 0.0 0.01 0.0 0.0 0.0 0.01 0.01 0.0 0.0 0.0 0.01 0.0 0.0 0.0 0.01 0.01 0.0 0.0 0.0 0.01 0.0 0.0 0.0 0.01 0.01 0.0 0.0 0.0 0.01 0.0 0.0 0.0 0.01 0.01 0.0 0.0 0.0 0.01 0.0 0.0 0.0 0.01 0.01 0.0 0.0 0.0 0.01 0.0 0.0 0.0 0.01 0.01 0.0 0.0 0.0 0.01 0.0 0.0 0.0 0.01 0.01 0.0 0.0 0.0 0.01 0.0 0.0 0.0 0.01 0.01 0.0 0.0 0.0 0.01 0.0 0.0 0.0 0.01 0.01 0.0 0.0 0.0 0.01 0.0 0.0 0.0 0.01 0.01 0.0 0.0 0.0 0.01 0.0 0.0 0.0 0.01 0.01 0.0 0.0 0.0 0.01 0.0 0.0 0.0 0.01 0.01 0.0 0.0 0.0 0.01 0.0 0.0 0.0 0.01 0.01 0.0 0.0 0.0 0.01 0.0 0.0 0.0 0.01 0.01 0.0 0.0 0.0 0.01 0.0 0.0 0.0 0.01 0.01 0.0 0.0 0.0 0.01 0.0 0.0 0.0 0.01 0.01 0.0 0.0 0.0 0.01 0.0 0.0 0.0 0.01 0.01 0.0 0.0 0.0 0.01 0.0 0.0 0.0 0.01 0.01 0.0 0.0 0.0 0.01 0.0 0.0 0.0 0.01 0.01 0.0 0.0 0.0 0.01 0.0 0.0 0.0 0.01 0.01 0.0 0.0 0.0 0.01 0.0 0.0 0.0 0.01 0.01 0.0 0.0 0.0 0.01 0.0 0.0 0.0 0.01 0.01 0.0 0.0 0.0 0.01 0.0 0.0 0.0 0.01 0.01 0.0 0.0 0.0 0.01 0.0 0.0 0.0 0.01 0.01 0.0 0.0 0.0 0.01 0.0 0.0 0.0 0.01 0.01 0.0 0.0 0.0 0.01 0.0 0.0 0.0 0.01 0.01 0.0 0.0 0.0 0.01 0.0 0.0 0.0 0.01 0.01 0.0 0.0 0.0 0.01 0.0 0.0 0.0 0.01 0.01 0.0 0.0 0.0 0.01 0.0 0.0 0.0 0.01 0.01 0.0 0.0 0.0 0.01 0.0 0.0 0.0 0.01 0.01 0.0 0.0 0.0 0.01 0.0 0.0 0.0 0.01 0.01 0.0 0.0 0.0 0.01 0.0 0.0 0.0 0.01 0.01 0.0 0.0 0.0 0.01 0.0 0.0 0.0 0.01 0.01 0.0 0.0 0.0 0.01 0.0 0.0 0.0 0.01 0.01 0.0 0.0 0.0 0.01 0.0 0.0 0.0 0.01 0.01 0.0 0.0 0.0 0.01 0.0 0.0 0.0 0.01 0.01 0.0 0.0 0.0 0.01 0.0 0.0 0.0 0.01 0.01 0.0 0.0 0.0 0.01 0.0 0.0 0.0 0.01 0.01 0.0 0.0 0.0 0.01 0.0 0.0 0.0 0.01 0.01 0.0 0.0 0.0 0.01 0.0 0.0 0.0 0.01 0.01 0.0 0.0 0.0 0.01 0.0 0.0 0.0 0.01 0.01 0.0 0.0 0.0 0.01 0.0 0.0 0.0 0.01 0.01 0.0 0.0 0.0 0.01 0.0 0.0 0.0 0.01 0.01 0.0 0.0 0.0 0.01 0.0 0.0 0.0 0.01 0.01 0.0 0.0 0.0 0.01 0.0 0.0 0.0 0.01 0.01 0.0 0.0 0.0 0.01 0.0 0.0 0.0 0.01 0.01 0.0 0.0 0.0 0.01 0.0 0.0 0.0 0.01 0.01 0.0 0.0 0.0 0.01 0.0 0.0 0.0 0.01 0.01 0.0 0.0 0.0 0.01 0.0 0.0 0.0 0.01 0.01 0.0 0.0 0.0 0.01 0.0 0.0 0.0 0.01 0.01 0.0 0.0 0.0 0.01 0.0 0.0 0.0 0.01 0.01 0.0 0.0 0.0 0.01 0.0 0.0 0.0 0.01 0.01 0.0 0.0 0.0 0.01 0.0 0.0 0.0 0.01 0.01 0.0 0.0 0.0 0.01 0.0 0.0 0.0 0.01 0.01 0.0 0.0 0.0 0.01 0.0 0.0 0.0 0.01 0.01 0.0 0.0 0.0 0.01 0.0 0.0 0.0 0.01 0.01 0.0 0.0 0.0 0.01 0.0 0.0 0.0 0.01 0.01 0.0 0.0 0.0 0.01 0.0 0.0 0.0 0.01 0.01 0.0 0.0 0.0 0.01 0.0 0.0 0.0 0.01 0.01 0.0 0.0 0.0 0.01 0.0 0.0 0.0 0.01 0.01 0.0 0.0 0.0 0.01 0.0 0.0 0.0 0.01 0.01 0.0 0.0 0.0 0.01 0.0 0.0 0.0 0.01 0.01 0.0 0.0 0.0 0.01 0.0 0.0 0.0 0.01 0.01 0.0 0.0 0.0 0.01 0.0 0.0 0.0 0.01 0.01 0.0 0.0 0.0 0.01 0.0 0.0 0.0 0.01 0.01 0.0 0.0 0.0 0.01 0.0 0.0 0.0 0.01 0.01 0.0 0.0 0.0 0.01 0.0 0.0 0.0 0.01 0.01 0.0 0.0 0.0 0.01 0.0 0.0 0.0 0.01 0.01 0.0 0.0 0.0 0.01 0.0 0.0 0.0 0.01 0.01 0.0 0.0 0.0 0.01 0.0 0.0 0.0 0.01 0.01 0.0 0.0 0.0 0.01 0.0 0.0 0.0 0.01 0.01 0.0 0.0 0.0 0.01 0.0 0.0 0.0 0.01 0.01 0.0 0.0 0.0 0.01 0.0 0.0 0.0 0.01 0.01 0.0 0.0 0.0 0.01 0.0 0.0 0.0 0.01 0.01 0.0 0.0 0.0 0.01 0.0 0.0 0.0 0.01 0.01 0.0 0.0 0.0 0.01 0.0 0.0 0.0 0.01 0.01 0.0 0.0 0.0 0.01 0.0 0.0 0.0 0.01 0.01 0.0 0.0 0.0 0.01 0.0 0.0 0.0 0.01 0.01 0.0 0.0 0.0 0.01 0.0 0.0 0.0 0.01 0.01 0.0 0.0 0.0 0.01 0.0 0.0 0.0 0.01 0.01 0.0 0.0 0.0 0.01 0.0 0.0 0.0 0.01 0.01 0.0 0.0 0.0 0.01 0.0 0.0 0.0 0.01 0.01 0.0 0.0 0.0 0.01 0.0 0.0 0.0 0.01 0.01 0.0 0.0 0.0 0.01 0.0 0.0 0.0 0.01 0.01 0.0 0.0 0.0 0.01 0.0 0.0 0.0 0.01 0.01 0.0 0.0 0.0 0.01 0.0 0.0 0.0 0.01 0.01 0.0 0.0 0.0 0.01 0.0 0.0 0.0 0.01 0.01 0.0 0.0 0.0 0.01 0.0 0.0 0.0 0.01 0.01 0.0 0.0 0.0 0.01 0.0 0.0 0.0 0.01 0.01 0.0 0.0 0.0 0.01 0.0 0.0 0.0 0.01 0.01 0.0 0.0 0.0 0.01 0.0 0.0 0.0 0.01 0.01 0.0 0.0 0.0 0.01 0.0 0.0 0.0 0.01 0.01 0.0 0.0 0.0 0.01 0.0 0.0 0.0 0.01 0.01 0.0 0.0 0.0 0.01 0.0 0.0 0.0 0.01 0.01 0.0 0.0 0.0 0.01 0.0 0.0 0.0 0.01 0.01 0.0 0.0 0.0 0.01 0.0 0.0 0.0 0.01 0.01 0.0 0.0 0.0 0.01 0.0 0.0 0.0 0.01 0.01 0.0 0.0 0.0 0.01 0.0 0.0 0.0 0.01 0.01 0.0 0.0 0.0 0.01 0.0 0.0 0.0 0.01 0.01 0.0 0.0 0.0 0.01 0.0 0.0 0.0 0.01 0.01 0.0 0.0 0.0 0.01 0.0 0.0 0.0 0.01 0.01 0.0 0.0 0.0 0.01 0.0 0.0 0.0 0.01 0.01 0.0 0.0 0.0 0.01 0.0 0.0 0.0 0.01 0.01 0.0 0.0 0.0 0.01 0.0 0.0 0.0 0.01 0.01 0.0 0.0 0.0 0.01 0.0 0.0 0.0 0.01 0.01 0.0 0.0 0.0 0.01 0.0 0.0 0.0 0.01 0.01 0.0 0.0 0.0 0.01 0.0 0.0 0.0 0.01 0.01 0.0 0.0 0.0 0.01 0.0 0.0 0.0 0.01 0.01 0.0 0.0 0.0 0.01 0.0 0.0 0.0 0.01 0.01 0.0 0.0 0.0 0.01 0.0 0.0 0.0 0.01 0.01 0.0 0.0 0.0 0.01 0.0 0.0 0.0 0.01 0.01 0.0 0.0 0.0 0.01 0.0 0.0 0.0 0.01 0.01 0.0 0.0 0.0 0.01 0.0 0.0 0.0 0.01 0.01 0.0 0.0 0.0 0.01 0.0 0.0 0.0 0.01 0.01 0.0 0.0 0.0 0.01 0.0 0.0 0.0 0.01 0.01 0.0 0.0 0.0 0.01 0.0 0.0 0.0 0.01 0.01 0.0 0.0 0.0 0.01 0.0 0.0 0.0 0.01 0.01 0.0 0.0 0.0 0.01 0.0 0.0 0.0 0.01 0.01 0.0 0.0 0.0 0.01 0.0 0.0 0.0 0.01 0.01 0.0 0.0 0.0 0.01 0.0 0.0 0.0 0.01 0.01 0.0 0.0 0.0 0.01 0.0 0.0 0.0 0.01 0.01 0.0 0.0 0.0 0.01 0.0 0.0 0.0 0.01 0.01 0.0 0.0 0.0 0.01 0.0 0.0 0.0 0.01 0.01 0.0 0.0 0.0 0.01 0.0 0.0 0.0 0.01 0.01 0.0 0.0 0.0 0.01 0.0 0.0 0.0 0.01 0.01 0.0 0.0 0.0 0.01 0.0 0.0 0.0 0.01 0.01 0.0 0.0 0.0 0.01 0.0 0.0 0.0 0.01 0.01 0.0 0.0 0.0 0.01 0.0 0.0 0.0 0.01 0.01 0.0 0.0 0.0 0.01 0.0 0.0 0.0 0.01 0.01 0.0 0.0 0.0 0.01 0.0 0.0 0.0 0.01 0.01 0.0 0.0 0.0 0.01 0.0 0.0 0.0 0.01 0.01 0.0 0.0 0.0 0.01 0.0 0.0 0.0 0.01 0.01 0.0 0.0 0.0 0.01 0.0 0.0 0.0 0.01 0.01 0.0 0.0 0.0 0.01 0.0 0.0 0.0 0.01 0.01 0.0 0.0 0.0 0.01 0.0 0.0 0.0 0.01 0.01 0.0 0.0 0.0 0.01 0.0 0.0 0.0 0.01 0.01 0.0 0.0 0.0 0.01 0.0 0.0 0.0 0.01 0.01 0.0 0.0 0.0 0.01 0.0 0.0 0.0 0.01 0.01 0.0 0.0 0.0 0.01 0.0 0.0 0.0 0.01 0.01 0.0 0.0 0.0 0.01 0.0 0.0 0.0 0.01 0.01 0.0 0.0 0.0 0.01 0.0 0.0 0.0 0.01 0.01 0.0 0.0 0.0 0.01 0.0 0.0 0.0 0.01 0.01 0.0 0.0 0.0 0.01 0.0 0.0 0.0 0.01 0.01 0.0 0.0 0.0 0.01 0.0 0.0 0.0 0.01 0.01 0.0 0.0 0.0 0.01 0.0 0.0 0.0 0.01 0.01 0.0 0.0 0.0 0.01 0.0 0.0 0.0 0.01 0.01 0.0 0.0 0.0 0.01 0.0 0.0 0.0 0.01 0.01 0.0 0.0 0.0 0.01 0.0 0.0 0.0 0.01 0.01 0.0 0.0 0.0 0.01 0.0 0.0 0.0 0.01 0.01 0.0 0.0 0.0 0.01 0.0 0.0 0.0 0.01 0.01 0.0 0.0 0.0 0.01 0.0 0.0 0.0 0.01 0.01 0.0 0.0 0.0 0.01 0.0 0.0 0.0 0.01 0.01 0.0 0.0 0.0 0.01 0.0 0.0 0.0 0.01 0.01 0.0 0.0 0.0 0.01 0.0 0.0 0.0 0.01 0.01 0.0 0.0 0.0 0.01 0.0 0.0 0.0 0.01 0.01 0.0 0.0 0.0 0.01 0.0 0.0 0.0 0.01 0.01 0.0 0.0 0.0 0.01 0.0 0.0 0.0 0.01 0.01 0.0 0.0 0.0 0.01 0.0 0.0 0.0 0.01 0.01 0.0 0.0 0.0 0.01 0.0 0.0 0.0 0.01 0.01 0.0 0.0 0.0 0.01 0.0 0.0 0.0 0.01 0.01 0.0 0.0 0.0 0.01 0.0 0.0 0.0 0.01 0.01 0.0 0.0 0.0 0.01 0.0 0.0 0.0 0.01 0.01 0.0 0.0 0.0 0.01 0.0 0.0 0.0 0.01 0.01 0.0 0.0 0.0 0.01 0.0 0.0 0.0 0.01 0.01 0.0 0.0 0.0 0.01 0.0 0.0 0.0 0.01 0.01 0.0 0.0 0.0 0.01 0.0 0.0 0.0 0.01 0.01 0.0 0.0 0.0 0.01 0.0 0.0 0.0 0.01 0.01 0.0 0.0 0.0 0.01 0.0 0.0 0.0 0.01 0.01 0.0 0.0 0.0 0.01 0.0 0.0 0.0 0.01 0.01 0.0 0.0 0.0 0.01 0.0 0.0 0.0 0.01 0.01 0.0 0.0 0.0 0.01 0.0 0.0 0.0 0.01 0.01 0.0 0.0 0.0 0.01 0.0 0.0 0.0 0.01 0.01 0.0 0.0 0.0 0.01 0.0 0.0 0.0 0.01 0.01 0.0 0.0 0.0 0.01 0.0 0.0 0.0 0.01 0.01 0.0 0.0 0.0 0.01 0.0 0.0 0.0 0.01 0.01 0.0 0.0 0.0 0.01 0.0 0.0 0.0 0.01 0.01 0.0 0.0 0.0 0.01 0.0 0.0 0.0 0.01 0.01 0.0 0.0 0.0 0.01 0.0 0.0 0.0 0.01 0.01 0.0 0.0 0.0 0.01 0.0 0.0 0.0 0.01 0.01 0.0 0.0 0.0 0.01 0.0 0.0 0.0 0.01 0.01 0.0 0.0 0.0 0.01 0.0 0.0 0.0 0.01 0.01 0.0 0.0 0.0 0.01 0.0 0.0 0.0 0.01 0.01 0.0 0.0 0.0 0.01 0.0 0.0 0.0 0.01 0.01 0.0 0.0 0.0 0.01 0.0 0.0 0.0 0.01 0.01 0.0 0.0 0.0 0.01 0.0 0.0 0.0 0.01 0.01 0.0 0.0 0.0 0.01 0.0 0.0 0.0 0.01 0.01 0.0 0.0 0.0 0.01 0.0 0.0 0.0 0.01 0.01 0.0 0.0 0.0 0.01 0.0 0.0 0.0 0.01 0.01 0.0 0.0 0.0 0.01 0.0 0.0 0.0 0.01 0.01 0.0 0.0 0.0 0.01 0.0 0.0 0.0 0.01 0.01 0.0 0.0 0.0 0.01 0.0 0.0 0.0 0.01 0.01 0.0 0.0 0.0 0.01 0.0 0.0 0.0 0.01 0.01 0.0 0.0 0.0 0.01 0.0 0.0 0.0 0.01 0.01 0.0 0.0 0.0 0.01 0.0 0.0 0.0 0.01 0.01 0.0 0.0 0.0 0.01 0.0 0.0 0.0 0.01 0.01 0.0 0.0 0.0 0.01 0.0 0.0 0.0 0.01 0.01 0.0 0.0 0.0 0.01 0.0 0.0 0.0 0.01 0.01 0.0 0.0 0.0 0.01 0.0 0.0 0.0 0.01 0.01 0.0 0.0 0.0 0.01 0.0 0.0 0.0 0.01 0.01 0.0 0.0 0.0 0.01 0.0 0.0 0.0 0.01 0.01 0.0 0.0 0.0 0.01 0.0 0.0 0.0 0.01 0.01 0.0 0.0 0.0 0.01 0.0 0.0 0.0 0.01 0.01 0.0 0.0 0.0 0.01 0.0 0.0 0.0 0.01 0.01 0.0 0.0 0.0 0.01 0.0 0.0 0.0 0.01 0.01 0.0 0.0 0.0 0.01 0.0 0.0 0.0 0.01 0.01 0.0 0.0 0.0 0.01 0.0 0.0 0.0 0.01 0.01 0.0 0.0 0.0 0.01 0.0 0.0 0.0 0.01 0.01 0.0 0.0 0.0 0.01 0.0 0.0 0.0 0.01 0.01 0.0 0.0 0.0 0.01 0.0 0.0 0.0 0.01 0.01 0.0 0.0 0.0 0.01 0.0 0.0 0.0 0.01 0.01 0.0 0.0 0.0 0.01 0.0 0.0 0.0 0.01 0.01 0.0 0.0 0.0 0.01 0.0 0.0 0.0 0.01 0.01 0.0 0.0 0.0 0.01 0.0 0.0 0.0 0.01 0.01 0.0 0.0 0.0 0.01 0.0 0.0 0.0 0.01 0.01 0.0 0.0 0.0 0.01 0.0 0.0 0.0 0.01 0.01 0.0 0.0 0.0 0.01 0.0 0.0 0.0 0.01 0.01 0.0 0.0 0.0 0.01 0.0 0.0 0.0 0.01 0.01 0.0 0.0 0.0 0.01 0.0 0.0 0.0 0.01 0.01 0.0 0.0 0.0 0.01 0.0 0.0 0.0 0.01 0.01 0.0 0.0 0.0 0.01 0.0 0.0 0.0 0.01 0.01 0.0 0.0 0.0 0.01 0.0 0.0 0.0 0.01 0.01 0.0 0.0 0.0 0.01 0.0 0.0 0.0 0.01 0.01 0.0 0.0 0.0 0.01 0.0 0.0 0.0 0.01 0.01 0.0 0.0 0.0 0.01 0.0 0.0 0.0 0.01 0.01 0.0 0.0 0.0 0.01 0.0 0.0 0.0 0.01 0.01 0.0 0.0 0.0 0.01 0.0 0.0 0.0 0.01 0.01 0.0 0.0 0.0 0.01 0.0 0.0 0.0 0.01 0.01 0.0 0.0 0.0 0.01 0.0 0.0 0.0 0.01 0.01 0.0 0.0 0.0 0.01 0.0 0.0 0.0 0.01 0.01 0.0 0.0 0.0 0.01 0.0 0.0 0.0 0.01 0.01 0.0 0.0 0.0 0.01 0.0 0.0 0.0 0.01 0.01 0.0 0.0 0.0 0.01 0.0 0.0 0.0 0.01 0.01 0.0 0.0 0.0 0.01 0.0 0.0 0.0 0.01 0.01 0.0 0.0 0.0 0.01 0.0 0.0 0.0 0.01 0.01 0.0 0.0 0.0 0.01 0.0 0.0 0.0 0.01 0.01 0.0 0.0 0.0 0.01 0.0 0.0 0.0 0.01 0.01 0.0 0.0 0.0 0.01 0.0 0.0 0.0 0.01 0.01 0.0 0.0 0.0 0.01 0.0 0.0 0.0 0.01 0.01 0.0 0.0 0.0 0.01 0.0 0.0 0.0 0.01 0.01 0.0 0.0 0.0 0.01 0.0 0.0 0.0 0.01 0.01 0.0 0.0 0.0 0.01 0.0 0.0 0.0 0.01 0.01 0.0 0.0 0.0 0.01 0.0 0.0 0.0 0.01 0.01 0.0 0.0 0.0 0.01 0.0 0.0 0.0 0.01 0.01 0.0 0.0 0.0 0.01 0.0 0.0 0.0 0.01 0.01 0.0 0.0 0.0 0.01 0.0 0.0 0.0 0.01 0.01 0.0 0.0 0.0 0.01 0.0 0.0 0.0 0.01 0.01 0.0 0.0 0.0 0.01 0.0 0.0 0.0 0.01 0.01 0.0 0.0 0.0 0.01 0.0 0.0 0.0 0.01 0.01 0.0 0.0 0.0 0.01 0.0 0.0 0.0 0.01 0.01 0.0 0.0 0.0 0.01 0.0 0.0 0.0 0.01 0.01 0.0 0.0 0.0 0.01 0.0 0.0 0.0 0.01 0.01 0.0 0.0 0.0 0.01 0.0 0.0 0.0 0.01 0.01 0.0 0.0 0.0 0.01 0.0 0.0 0.0 0.01 0.01 0.0 0.0 0.0 0.01 0.0 0.0 0.0 0.01 0.01 0.0 0.0 0.0 0.01 0.0 0.0 0.0 0.01 0.01 0.0 0.0 0.0 0.01 0.0 0.0 0.0 0.01 0.01 0.0 0.0 0.0 0.01 0.0 0.0 0.0 0.01 0.01 0.0 0.0 0.0 0.01 0.0 0.0 0.0 0.01 0.01 0.0 0.0 0.0 0.01 0.0 0.0 0.0 0.01 0.01 0.0 0.0 0.0 0.01 0.0 0.0 0.0 0.01 0.01 0.0 0.0 0.0 0.01 0.0 0.0 0.0 0.01 0.01 0.0 0.0 0.0 0.01 0.0 0.0 0.0 0.01 0.01 0.0 0.0 0.0 0.01 0.0 0.0 0.0 0.01 0.01 0.0 0.0 0.0 0.01 0.0 0.0 0.0 0.01 0.01 0.0 0.0 0.0 0.01 0.0 0.0 0.0 0.01 0.01 0.0 0.0 0.0 0.01 0.0 0.0 0.0 0.01 0.01 0.0 0.0 0.0 0.01 0.0 0.0 0.0 0.01 0.01 0.0 0.0 0.0 0.01 0.0 0.0 0.0 0.01 0.01 0.0 0.0 0.0 0.01 0.0 0.0 0.0 0.01 0.01 0.0 0.0 0.0 0.01 0.0 0.0 0.0 0.01 0.01 0.0 0.0 0.0 0.01 0.0 0.0 0.0 0.01 0.01 0.0 0.0 0.0 0.01 0.0 0.0 0.0 0.01 0.01 0.0 0.0 0.0 0.01 0.0 0.0 0.0 0.01 0.01 0.0 0.0 0.0 0.01 0.0 0.0 0.0 0.01 0.01 0.0 0.0 0.0 0.01 0.0 0.0 0.0 0.01 0.01 0.0 0.0 0.0 0.01 0.0 0.0 0.0 0.01 0.01 0.0 0.0 0.0 0.01 0.0 0.0 0.0 0.01 0.01 0.0 0.0 0.0 0.01 0.0 0.0 0.0 0.01 0.01 0.0 0.0 0.0 0.01 0.0 0.0 0.0 0.01 0.01 0.0 0.0 0.0 0.01 0.0 0.0 0.0 0.01 0.01 0.0 0.0 0.0 0.01 0.0 0.0 0.0 0.01 0.01 0.0 0.0 0.0 0.01 0.0 0.0 0.0 0.01 0.01 0.0 0.0 0.0 0.01 0.0 0.0 0.0 0.01 0.01 0.0 0.0 0.0 0.01 0.0 0.0 0.0 0.01 0.01 0.0 0.0 0.0 0.01 0.0 0.0 0.0 0.01 0.01 0.0 0.0 0.0 0.01 0.0 0.0 0.0 0.01 0.01 0.0 0.0 0.0 0.01 0.0 0.0 0.0 0.01 0.01 0.0 0.0 0.0 0.01 0.0 0.0 0.0 0.01 0.01 0.0 0.0 0.0 0.01 0.0 0.0 0.0 0.01 0.01 0.0 0.0 0.0 0.01 0.0 0.0 0.0 0.01 0.01 0.0 0.0 0.0 0.01 0.0 0.0 0.0 0.01 0.01 0.0 0.0 0.0 0.01 0.0 0.0 0.0 0.01 0.01 0.0 0.0 0.0 0.01 0.0 0.0 0.0 0.01 0.01 0.0 0.0 0.0 0.01 0.0 0.0 0.0 0.01 0.01 0.0 0.0 0.0 0.01 0.0 0.0 0.0 0.01 0.01 0.0 0.0 0.0 0.01 0.0 0.0 0.0 0.01 0.01 0.0 0.0 0.0 0.01 0.0 0.0 0.0 0.01 0.01 0.0 0.0 0.0 0.01 0.0 0.0 0.0 0.01 0.01 0.0 0.0 0.0 0.01 0.0 0.0 0.0 0.01 0.01 0.0 0.0 0.0 0.01 0.0 0.0 0.0 0.01 0.01 0.0 0.0 0.0 0.01 0.0 0.0 0.0 0.01 0.01 0.0 0.0 0.0 0.01 0.0 0.0 0.0 0.01 0.01 0.0 0.0 0.0 0.01 0.0 0.0 0.0 0.01 0.01 0.0 0.0 0.0 0.01 0.0 0.0 0.0 0.01 0.01 0.0 0.0 0.0 0.01 0.0 0.0 0.0 0.01 0.01 0.0 0.0 0.0 0.01 0.0 0.0 0.0 0.01 0.01 0.0 0.0 0.0 0.01 0.0 0.0 0.0 0.01 0.01 0.0 0.0 0.0 0.01 0.0 0.0 0.0 0.01 0.01 0.0 0.0 0.0 0.01 0.0 0.0 0.0 0.01 0.01 0.0 0.0 0.0 0.01 0.0 0.0 0.0 0.01 0.01 0.0 0.0 0.0 0.01 0.0 0.0 0.0 0.01 0.01 0.0 0.0 0.0 0.01 0.0 0.0 0.0 0.01 0.01 0.0 0.0 0.0 0.01 0.0 0.0 0.0 0.01 0.01 0.0 0.0 0.0 0.01 0.0 0.0 0.0 0.01 0.01 0.0 0.0 0.0 0.01 0.0 0.0 0.0 0.01 0.01 0.0 0.0 0.0 0.01 0.0 0.0 0.0 0.01 0.01 0.0 0.0 0.0 0.01 0.0 0.0 0.0 0.01 0.01 0.0 0.0 0.0 0.01 0.0 0.0 0.0 0.01 0.01 0.0 0.0 0.0 0.01 0.0 0.0 0.0 0.01 0.01 0.0 0.0 0.0 0.01 0.0 0.0 0.0 0.01 0.01 0.0 0.0 0.0 0.01 0.0 0.0 0.0 0.01 0.01 0.0 0.0 0.0 0.01 0.0 0.0 0.0 0.01 0.01 0.0 0.0 0.0 0.01 0.0 0.0 0.0 0.01 0.01 0.0 0.0 0.0 0.01 0.0 0.0 0.0 0.01 0.01 0.0 0.0 0.0 0.01 0.0 0.0 0.0 0.01 0.01 0.0 0.0 0.0 0.01 0.0 0.0 0.0 0.01 0.01 0.0 0.0 0.0 0.01 0.0 0.0 0.0 0.01 0.01 0.0 0.0 0.0 0.01 0.0 0.0 0.0 0.01 0.01 0.0 0.0 0.0 0.01 0.0 0.0 0.0 0.01 0.01 0.0 0.0 0.0 0.01 0.0 0.0 0.0 0.01 0.01 0.0 0.0 0.0 0.01 0.0 0.0 0.0 0.01 0.01 0.0 0.0 0.0 0.01 0.0 0.0 0.0 0.01 0.01 0.0 0.0 0.0 0.01 0.0 0.0 0.0 0.01 0.01 0.0 0.0 0.0 0.01 0.0 0.0 0.0 0.01 0.01 0.0 0.0 0.0 0.01 0.0 0.0 0.0 0.01 0.01 0.0 0.0 0.0 0.01 0.0 0.0 0.0 0.01 0.01 0.0 0.0 0.0 0.01 0.0 0.0 0.0 0.01 0.01 0.0 0.0 0.0 0.01 0.0 0.0 0.0 0.01 0.01 0.0 0.0 0.0 0.01 0.0 0.0 0.0 0.01 0.01 0.0 0.0 0.0 0.01 0.0 0.0 0.0 0.01 0.01 0.0 0.0 0.0 0.01 0.0 0.0 0.0 0.01 0.01 0.0 0.0 0.0 0.01 0.0 0.0 0.0 0.01 0.01 0.0 0.0 0.0 0.01 0.0 0.0 0.0 0.01 0.01 0.0 0.0 0.0 0.01 0.0 0.0 0.0 0.01 0.01 0.0 0.0 0.0 0.01 0.0 0.0 0.0 0.01 0.01 0.0 0.0 0.0 0.01 0.0 0.0 0.0 0.01 0.01 0.0 0.0 0.0 0.01 0.0 0.0 0.0 0.01 0.01 0.0 0.0 0.0 0.01 0.0 0.0 0.0 0.01 0.01 0.0 0.0 0.0 0.01 0.0 0.0 0.0 0.01 0.01 0.0 0.0 0.0 0.01 0.0 0.0 0.0 0.01 0.01 0.0 0.0 0.0 0.01 0.0 0.0 0.0 0.01 0.01 0.0 0.0 0.0 0.01 0.0 0.0 0.0 0.01 0.01 0.0 0.0 0.0 0.01 0.0 0.0 0.0 0.01 0.01 0.0 0.0 0.0 0.01 0.0 0.0 0.0 0.01 0.01 0.0 0.0 0.0 0.01 0.0 0.0 0.0 0.01 0.01 0.0 0.0 0.0 0.01 0.0 0.0 0.0 0.01 0.01 0.0 0.0 0.0 0.01 0.0 0.0 0.0 0.01 0.01 0.0 0.0 0.0 0.01 0.0 0.0 0.0 0.01 0.01 0.0 0.0 0.0 0.01 0.0 0.0 0.0 0.01 0.01 0.0 0.0 0.0 0.01 0.0 0.0 0.0 0.01 0.01 0.0 0.0 0.0 0.01 0.0 0.0 0.0 0.01 0.01 0.0 0.0 0.0 0.01 0.0 0.0 0.0 0.01 0.01 0.0 0.0 0.0 0.01 0.0 0.0 0.0 0.01 0.01 0.0 0.0 0.0 0.01 0.0 0.0 0.0 0.01 0.01 0.0 0.0 0.0 0.01 0.0 0.0 0.0 0.01 0.01 0.0 0.0 0.0 0.01 0.0 0.0 0.0 0.01 0.01 0.0 0.0 0.0 0.01 0.0 0.0 0.0 0.01 0.01 0.0 0.0 0.0 0.01 0.0 0.0 0.0 0.01 0.01 0.0 0.0 0.0 0.01 0.0 0.0 0.0 0.01 0.01 0.0 0.0 0.0 0.01 0.0 0.0 0.0 0.01 0.01 0.0 0.0 0.0 0.01 0.0 0.0 0.0 0.01 0.01 0.0 0.0 0.0 0.01 0.0 0.0 0.0 0.01 0.01 0.0 0.0 0.0 0.01 0.0 0.0 0.0 0.01 0.01 0.0 0.0 0.0 0.01 0.0 0.0 0.0 0.01 0.01 0.0 0.0 0.0 0.01 0.0 0.0 0.0 0.01 0.01 0.0 0.0 0.0 0.01 0.0 0.0 0.0 0.01 0.01 0.0 0.0 0.0 0.01 0.0 0.0 0.0 0.01 0.01 0.0 0.0 0.0 0.01 0.0 0.0 0.0 0.01 0.01 0.0 0.0 0.0 0.01 0.0 0.0 0.0 0.01 0.01 0.0 0.0 0.0 0.01 0.0 0.0 0.0 0.01 0.01 0.0 0.0 0.0 0.01 0.0 0.0 0.0 0.01 0.01 0.0 0.0 0.0 0.01 0.0 0.0 0.0 0.01 0.01 0.0 0.0 0.0 0.01 0.0 0.0 0.0 0.01 0.01 0.0 0.0 0.0 0.01 0.0 0.0 0.0 0.01 0.01 0.0 0.0 0.0 0.01 0.0 0.0 0.0 0.01 0.01 0.0 0.0 0.0 0.01 0.0 0.0 0.0 0.01 0.01 0.0 0.0 0.0 0.01 0.0 0.0 0.0 0.01 0.01 0.0 0.0 0.0 0.01 0.0 0.0 0.0 0.01 0.01 0.0 0.0 0.0 0.01 0.0 0.0 0.0 0.01 0.01 0.0 0.0 0.0 0.01 0.0 0.0 0.0 0.01 0.01 0.0 0.0 0.0 0.01 0.0 0.0 0.0 0.01 0.01 0.0 0.0 0.0 0.01 0.0 0.0 0.0 0.01 0.01 0.0 0.0 0.0 0.01 0.0 0.0 0.0 0.01 0.01 0.0 0.0 0.0 0.01 0.0 0.0 0.0 0.01 0.01 0.0 0.0 0.0 0.01 0.0 0.0 0.0 0.01 0.01 0.0 0.0 0.0 0.01 0.0 0.0 0.0 0.01 0.01 0.0 0.0 0.0 0.01 0.0 0.0 0.0 0.01 0.01 0.0 0.0 0.0 0.01 0.0 0.0 0.0 0.01 0.009999939000558145 0.0 3.1052033084599473e-15 0.0 0.01 0.0 3.1052033084599473e-15 0.0 0.00999999500000375 0.00999992300088934 0.0 5.858938071626565e-16 0.0 0.01 0.0 5.858938071626565e-16 0.0 0.0099999980000006 0.009999910001214982 0.0 -2.112361183171307e-16 0.0 0.01 0.0 -2.112361183171307e-16 0.0 0.01 0.009999899501515013 0.0 -3.215009015313463e-16 0.0 0.01 0.0 -3.215009015313463e-16 0.0 0.0100000024500009 0.009999892501733406 0.0 -3.773645674669931e-17 0.0 0.01 0.0 -3.773645674669931e-17 0.0 0.010000003400001733 0.009999943500478833 0.0 5.88687471971492e-15 0.0 0.01 0.0 5.88687471971492e-15 0.0 0.009999990500013536 0.009999922500900928 0.0 1.7400864749051175e-15 0.0 0.01 0.0 1.7400864749051175e-15 0.0 0.009999993500006339 0.009999903501396816 0.0 -1.7203143033885313e-15 0.0 0.01 0.0 -1.7203143033368325e-15 0.0 0.009999997500000938 0.009999887501898404 0.0 -2.4347962781234166e-15 0.0 0.01 0.0 -2.434796278097567e-15 0.0 0.010000001000000152 0.009999875502324992 0.0 -1.6758510082132865e-15 0.0 0.01 0.0 -1.6758510082132865e-15 0.0 0.010000003400001735 0.009999865502713475 0.0 -7.672204352807514e-16 0.0 0.01 0.0 -7.672204352807514e-16 0.0 0.010000004900003601 0.009999928500766832 0.0 6.360725831963154e-15 0.0 0.01 0.0 6.360725831756359e-15 0.0 0.009999988000021604 0.009999904501368017 0.0 3.596881088678901e-15 0.0 0.01 0.0 3.596881088678901e-15 0.0 0.009999991500010838 0.009999881502106298 0.0 -1.3163943087620959e-15 0.0 0.01 0.0 -1.3163943087620959e-15 0.0 0.009999997000001353 0.009999863002815286 0.0 -2.7631843677005762e-15 0.0 0.01 0.0 -2.763184367674727e-15 0.0 0.010000001450000314 0.009999847503488353 0.0 -2.722141531954404e-15 0.0 0.01 0.0 -2.722141531954404e-15 0.0 0.010000004900003604 0.009999838503912232 0.0 -1.4088441184524477e-15 0.0 0.01 0.0 -1.4088441184524477e-15 0.0 0.010000006850007037 0.00999991300113533 0.0 7.13425338116224e-13 0.0 0.01 0.0 7.134253381294589e-13 0.0 0.009999985500031536 0.009999883502035801 0.0 1.9418082498629372e-13 0.0 0.01 0.0 1.9418082497967628e-13 0.0 0.00999999050001354 0.009999856503088761 0.0 4.91665323799167e-15 0.0 0.01 0.0 4.91665323799167e-15 0.0 0.009999996500001836 0.009999833504158222 0.0 8.69370741818214e-16 0.0 0.01 0.0 8.69370741818214e-16 0.0 0.01000000195000057 0.009999816005078243 0.0 -8.747990045019859e-16 0.0 0.01 0.0 -8.747990045019859e-16 0.0 0.010000006850007037 0.009999806005645217 0.0 -9.91917069066482e-16 0.0 0.01 0.0 -9.91917069066482e-16 0.0 0.010000009300012973 0.009999891501765812 0.0 7.772640679783768e-11 0.0 0.01 0.0 7.772640679783768e-11 0.0 0.009999983000043353 0.009999855003153672 0.0 4.3662574796758235e-11 0.0 0.01 0.0 4.366257479633472e-11 0.0 0.00999998900001815 0.009999823504672701 0.0 1.5202220041036506e-11 0.0 0.01 0.0 1.5202220041036506e-11 0.0 0.009999996500001839 0.009999797506150728 0.0 1.6570452006977375e-12 0.0 0.01 0.0 1.6570452007109724e-12 0.0 0.010000002950001306 0.009999779507292774 0.0 6.1086750618239795e-15 0.0 0.01 0.0 6.1086750618239795e-15 0.0 0.010000008300010337 0.009999767508108123 0.0 1.9359622150160655e-15 0.0 0.01 0.0 1.9359622150160655e-15 0.0 0.01000000975001426 0.009999860502919046 0.0 7.202422681971011e-10 0.0 0.01 0.0 7.202422681903248e-10 0.0 0.009999980000060076 0.009999819004914031 0.0 4.5756711981382366e-10 0.0 0.01 0.0 4.5756711981382366e-10 0.0 0.009999987000025379 0.009999780007259741 0.0 2.120486110903226e-10 0.0 0.01 0.0 2.1204861109201667e-10 0.0 0.009999996500001846 0.00999975050933715 0.0 5.88117583850102e-11 0.0 0.01 0.0 5.88117583850102e-11 0.0 0.010000003900002283 0.00999973201077312 0.0 6.607960579604889e-12 0.0 0.01 0.0 6.607960579604889e-12 0.0 0.010000009300012973 0.009999718011928043 0.0 7.701454824192948e-15 0.0 0.01 0.0 7.701454824192948e-15 0.0 0.01000001220002233 0.009999813005246706 0.0 3.1822080331597204e-09 0.0 0.01 0.0 3.1822080331868254e-09 0.0 0.009999976000087922 0.009999763008425736 0.0 2.1857851053490394e-09 0.0 0.01 0.0 2.185785105335487e-09 0.0 0.009999986000030117 0.009999722011592245 0.0 1.103973534909554e-09 0.0 0.01 0.0 1.103973534909554e-09 0.0 0.00999999650000202 0.009999692014228893 0.0 3.8600514643588233e-10 0.0 0.01 0.0 3.8600514643418826e-10 0.0 0.010000005350004318 0.009999670016334106 0.0 7.779439656804393e-11 0.0 0.01 0.0 7.779439656804393e-11 0.0 0.01000001220002233 0.009999657517594934 0.0 5.524236621274976e-12 0.0 0.01 0.0 5.524236621301446e-12 0.0 0.010000015600036506 0.009999735510507918 0.0 9.778505734954132e-09 0.0 0.01 0.0 9.778505734954132e-09 0.0 0.009999971500136179 0.009999681515222665 0.0 6.8955764983094116e-09 0.0 0.01 0.0 6.8955764983094116e-09 0.0 0.009999983500047969 0.009999641019332949 0.0 3.612311202602376e-09 0.0 0.01 0.0 3.6123112025888233e-09 0.0 0.009999997000003306 0.009999612522522265 0.0 1.3746999076664416e-09 0.0 0.01 0.0 1.3746999076799942e-09 0.0 0.010000008300010617 0.009999593524784677 0.0 3.431348504725378e-10 0.0 0.01 0.0 3.431348504725378e-10 0.0 0.010000015600036521 0.009999581026332314 0.0 4.373433279420067e-11 0.0 0.01 0.0 4.373433279398891e-11 0.0 0.010000019050054435 0.00999961502231612 0.0 2.3635589324264017e-08 0.0 0.01 0.0 2.3635589324372437e-08 0.0 0.009999967500242237 0.00999956402855335 0.0 1.653729955568544e-08 0.0 0.01 0.0 1.653729955568544e-08 0.0 0.009999982500086962 0.009999531033002914 0.0 8.695298790538505e-09 0.0 0.01 0.0 8.695298790538505e-09 0.0 0.010000000000011344 0.009999510036013803 0.0 3.4076881702576256e-09 0.0 0.01 0.0 3.4076881702576256e-09 0.0 0.010000014150031775 0.009999495038250664 0.0 9.340773100167206e-10 0.0 0.01 0.0 9.340773100133325e-10 0.0 0.01000002295007914 0.00999948753939508 0.0 1.5114694658688622e-10 0.0 0.01 0.0 1.5114694658688622e-10 0.0 0.01000002540009678 0.009999448046021825 0.0 4.62193387733463e-08 0.0 0.01 0.0 4.621933877345472e-08 0.0 0.009999959500566494 0.009999406552980988 0.0 3.161026407045176e-08 0.0 0.01 0.0 3.161026407034334e-08 0.0 0.009999982000198492 0.00999938955594101 0.0 1.636254647443061e-08 0.0 0.01 0.0 1.636254647443061e-08 0.0 0.010000005850045297 0.009999381557381615 0.0 6.423719058374776e-09 0.0 0.01 0.0 6.423719058374776e-09 0.0 0.010000024400095495 0.00999937555849445 0.0 1.827305529674241e-09 0.0 0.01 0.0 1.8273055296810174e-09 0.0 0.010000033200165837 0.009999374558681438 0.0 3.2910767715926565e-10 0.0 0.01 0.0 3.291076771609597e-10 0.0 0.010000035150185346 0.00999924258683855 0.0 7.204117286052636e-08 0.0 0.01 0.0 7.204117286052636e-08 0.0 0.0099999485011764 0.00999921859194981 0.0 4.8332970482237864e-08 0.0 0.01 0.0 4.8332970482237864e-08 0.0 0.009999983000393797 0.009999220591221273 0.0 2.450609635758303e-08 0.0 0.01 0.0 2.450609635763724e-08 0.0 0.010000018550141706 0.009999227089631354 0.0 9.50465090960857e-09 0.0 0.01 0.0 9.504650909595018e-09 0.0 0.010000041000265702 0.009999231588578603 0.0 2.7212165955029974e-09 0.0 0.01 0.0 2.7212165955097737e-09 0.0 0.010000052250410622 0.009999236587428755 0.0 5.096360411311249e-10 0.0 0.01 0.0 5.096360411302778e-10 0.0 0.010000051750401754 0.009999039639572717 0.0 8.984654100102716e-08 0.0 0.01 0.0 8.984654100102716e-08 0.0 0.009999957001488364 0.009999021144264668 0.0 5.8991001918701734e-08 0.0 0.01 0.0 5.8991001918701734e-08 0.0 0.00999999600052446 0.009999035139790061 0.0 2.930042744856646e-08 0.0 0.01 0.0 2.930042744862067e-08 0.0 0.0100000420003934 0.009999049135657238 0.0 1.1132333238385631e-08 0.0 0.01 0.0 1.1132333238385631e-08 0.0 0.010000070800770495 0.009999060632379786 0.0 3.1395251455195567e-09 0.0 0.01 0.0 3.1395251455127804e-09 0.0 0.010000080100963893 0.009999071629296882 0.0 5.823514766361076e-10 0.0 0.01 0.0 5.823514766361076e-10 0.0 0.010000074200825911 0.009998838703549744 0.0 9.042961905431513e-08 0.0 0.01 0.0 9.042961905442355e-08 0.0 0.010000049301591398 0.009998816210737666 0.0 5.777983085893503e-08 0.0 0.01 0.0 5.777983085888082e-08 0.0 0.01000004930086543 0.00999882770629031 0.0 2.7948282731898085e-08 0.0 0.01 0.0 2.794828273187098e-08 0.0 0.010000088851301351 0.009998844200427674 0.0 1.02906685163235e-08 0.0 0.01 0.0 1.02906685163235e-08 0.0 0.010000114251973885 0.00999886069473323 0.0 2.7953371737354815e-09 0.0 0.01 0.0 2.7953371737388696e-09 0.0 0.01000011865211289 0.009998875189808194 0.0 4.881270966321209e-10 0.0 0.01 0.0 4.881270966321209e-10 0.0 0.010000107901746423 0.009998615288422212 0.0 7.094230680660361e-08 0.0 0.01 0.0 7.094230680665782e-08 0.0 0.010000197756621018 0.009998588299291178 0.0 4.471839934488313e-08 0.0 0.01 0.0 4.471839934493734e-08 0.0 0.010000152853804576 0.00999859379673301 0.0 2.1011041351161244e-08 0.0 0.01 0.0 2.101104135113414e-08 0.0 0.010000163554078633 0.009998607790799151 0.0 7.3935122196647565e-09 0.0 0.01 0.0 7.393512219671533e-09 0.0 0.010000175804644183 0.009998624283941809 0.0 1.873913239322869e-09 0.0 0.01 0.0 1.873913239322869e-09 0.0 0.010000170404356072 0.009998645275341583 0.0 2.8603512880689867e-10 0.0 0.01 0.0 2.860351288073222e-10 0.0 0.010000150403393122 0.009998341413008677 0.0 4.325686761094834e-08 0.0 0.01 0.0 4.325686761097545e-08 0.0 0.010000341817805828 0.009998315425872794 0.0 2.6910026590328028e-08 0.0 0.01 0.0 2.6910026590273818e-08 0.0 0.010000275411485945 0.00999831642528123 0.0 1.2162067071120491e-08 0.0 0.01 0.0 1.2162067071134043e-08 0.0 0.010000254909768708 0.00999832941872192 0.0 3.984766457679315e-09 0.0 0.01 0.0 3.984766457679315e-09 0.0 0.010000250509415312 0.009998349408757792 0.0 8.891644244070641e-10 0.0 0.01 0.0 8.891644244070641e-10 0.0 0.010000232908136794 0.009998375895742893 0.0 1.028822311837527e-10 0.0 0.01 0.0 1.0288223118364683e-10 0.0 0.0100002021561299 0.009998006096567716 0.0 2.024355192828918e-08 0.0 0.01 0.0 2.024355192828918e-08 0.0 0.01000046148200436 0.009997986608247513 0.0 1.2186388575430806e-08 0.0 0.01 0.0 1.2186388575437582e-08 0.0 0.010000389672797826 0.00999798660822918 0.0 5.1250038856783214e-09 0.0 0.01 0.0 5.1250038856783214e-09 0.0 0.01000035256864876 0.009998001599200848 0.0 1.4792857613666135e-09 0.0 0.01 0.0 1.4792857613674606e-09 0.0 0.010000333016634602 0.009998026084605167 0.0 2.5623480656899314e-10 0.0 0.01 0.0 2.5623480656899314e-10 0.0 0.010000300813572787 0.009998057566104026 0.0 1.5580107031099823e-11 0.0 0.01 0.0 1.5580107031086588e-11 0.0 0.01000026126023818 0.009997601363301481 0.0 6.675069420068584e-09 0.0 0.01 0.0 6.6750694200651956e-09 0.0 0.010000564997886473 0.009997592369783738 0.0 3.688576406120665e-09 0.0 0.01 0.0 3.6885764061189708e-09 0.0 0.010000493186484577 0.009997597366175144 0.0 1.3486077140218e-09 0.0 0.01 0.0 1.348607714020953e-09 0.0 0.010000450230404563 0.009997615852894744 0.0 2.9556517450713245e-10 0.0 0.01 0.0 2.955651745073442e-10 0.0 0.010000421426638576 0.009997645331930441 0.0 2.673788285475448e-11 0.0 0.01 0.0 2.673788285475448e-11 0.0 0.010000379921649974 0.009997686303226698 0.0 -8.625198202348263e-14 0.0 0.01 0.0 -8.625198202353433e-14 0.0 0.010000327666104057 0.009997130235805009 0.0 1.094878716650997e-09 0.0 0.01 0.0 1.0948787166514206e-09 0.0 0.01000066656664092 0.00999713123494434 0.0 5.085261983334487e-10 0.0 0.01 0.0 5.085261983334487e-10 0.0 0.010000593802886131 0.009997141725926799 0.0 1.274260843027228e-10 0.0 0.01 0.0 1.274260843027228e-10 0.0 0.010000549845346166 0.009997166205014393 0.0 8.208172534850145e-12 0.0 0.01 0.0 8.208172534853454e-12 0.0 0.010000514689733099 0.009997203673353876 0.0 -7.793004191326807e-13 0.0 0.01 0.0 -7.793004191326807e-13 0.0 0.010000465382485115 0.009997254630971649 0.0 -6.865725649319803e-14 0.0 0.01 0.0 -6.865725649317218e-14 0.0 0.010000404324520427 0.009996586248850536 0.0 6.196905647555866e-12 0.0 0.01 0.0 6.196905647554212e-12 0.0 0.010000778390874423 0.009996591743224295 0.0 -9.88485279509485e-12 0.0 0.01 0.0 -9.884852795091542e-12 0.0 0.010000706624890757 0.009996609225382905 0.0 -8.392301650318088e-12 0.0 0.01 0.0 -8.39230165031478e-12 0.0 0.010000660715475973 0.009996638196019108 0.0 -3.4828974839715203e-12 0.0 0.01 0.0 -3.4828974839715203e-12 0.0 0.01000062165796399 0.009996685648467375 0.0 -8.614788649008992e-13 0.0 0.01 0.0 -8.614788649008992e-13 0.0 0.010000561547296765 0.009996748086928851 0.0 -5.423986836842993e-14 0.0 0.01 0.0 -5.423986836842993e-14 0.0 0.010000486835549022 0.009995944967827129 0.0 -1.4758795521719942e-11 0.0 0.01 0.0 -1.475879552172325e-11 0.0 0.010000916125877616 0.009995953457501802 0.0 -1.7318827110760337e-11 0.0 0.01 0.0 -1.7318827110760337e-11 0.0 0.010000839955817017 0.009995975430877881 0.0 -1.0842278259265153e-11 0.0 0.01 0.0 -1.0842278259261844e-11 0.0 0.010000790143639181 0.009996017380452788 0.0 -4.3121483169379046e-12 0.0 0.01 0.0 -4.3121483169379046e-12 0.0 0.010000742282639351 0.009996078807568929 0.0 -9.819868752992877e-13 0.0 0.01 0.0 -9.819868752997013e-13 0.0 0.010000669517231997 0.009996160212727763 0.0 -4.700434032264618e-14 0.0 0.01 0.0 -4.700434032264618e-14 0.0 0.010000579650395294 0.009995176492180007 0.0 -1.9361754648262418e-11 0.0 0.01 0.0 -1.9361754648262418e-11 0.0 0.010001089027871429 0.009995194466194108 0.0 -2.294610655427209e-11 0.0 0.01 0.0 -2.2946106554278707e-11 0.0 0.010001000650175082 0.009995228417374201 0.0 -1.410097234109046e-11 0.0 0.01 0.0 -1.410097234109046e-11 0.0 0.01000093863213801 0.00999528733347839 0.0 -5.416411263696334e-12 0.0 0.01 0.0 -5.416411263696334e-12 0.0 0.010000879015886754 0.009995371215831076 0.0 -1.1505408769103673e-12 0.0 0.01 0.0 -1.1505408769103673e-12 0.0 0.010000789143402272 0.00999547906767346 0.0 -4.125979115350131e-14 0.0 0.01 0.0 -4.125979115350131e-14 0.0 0.010000678269001086 0.009994257949460818 0.0 -2.4319474794326104e-11 0.0 0.01 0.0 -2.4319474794326104e-11 0.0 0.010001296652152429 0.0099942913919542 0.0 -3.0066576196010754e-11 0.0 0.01 0.0 -3.0066576196004136e-11 0.0 0.010001188211743528 0.00999435029149017 0.0 -1.8395564731018082e-11 0.0 0.01 0.0 -1.839556473102139e-11 0.0 0.01000110518318749 0.00999443564775046 0.0 -6.9186510189419614e-12 0.0 0.01 0.0 -6.918651018943616e-12 0.0 0.010001028458637321 0.009994554451331891 0.0 -1.4150561400027186e-12 0.0 0.01 0.0 -1.4150561400027186e-12 0.0 0.010000918576551934 0.009994694225675442 0.0 -4.765793510353967e-14 0.0 0.01 0.0 -4.765793510353967e-14 0.0 0.010000787192941153 0.009993168506776824 0.0 -2.846844253771907e-11 0.0 0.01 0.0 -2.8468442537705835e-11 0.0 0.010001548209468681 0.009993232875299629 0.0 -3.8903064494395616e-11 0.0 0.01 0.0 -3.8903064494389e-11 0.0 0.010001402645056794 0.009993327184916467 0.0 -2.420566742433887e-11 0.0 0.01 0.0 -2.4205667424352106e-11 0.0 0.010001284447428403 0.009993454432281937 0.0 -9.171783641368945e-12 0.0 0.01 0.0 -9.17178364136729e-12 0.0 0.01000118626104891 0.009993616118299358 0.0 -1.9427008087474385e-12 0.0 0.01 0.0 -1.942700808747852e-12 0.0 0.010001055817188957 0.009993802765620969 0.0 -1.1346449824890386e-13 0.0 0.01 0.0 -1.1346449824890386e-13 0.0 0.010000899521356247 0.00999190234642935 0.0 -3.0488839424220015e-11 0.0 0.01 0.0 -3.048883942422663e-11 0.0 0.010001838406836716 0.009992011582428077 0.0 -5.026781489917698e-11 0.0 0.01 0.0 -5.02678148991836e-11 0.0 0.010001630298594381 0.009992156238350678 0.0 -3.271297002386352e-11 0.0 0.01 0.0 -3.271297002386352e-11 0.0 0.010001464171506966 0.00999234180618124 0.0 -1.2976143027065653e-11 0.0 0.01 0.0 -1.2976143027065653e-11 0.0 0.010001347922485283 0.009992561807244995 0.0 -3.110987495923351e-12 0.0 0.01 0.0 -3.1109874959237646e-12 0.0 0.010001197465054049 0.00999280726775864 0.0 -3.4913229199619783e-13 0.0 0.01 0.0 -3.4913229199619783e-13 0.0 0.01000101970594883 0.009990473131497543 0.0 -2.923762758037489e-11 0.0 0.01 0.0 -2.923762758037158e-11 0.0 0.010002159399249439 0.009990646639188569 0.0 -6.626642028818703e-11 0.0 0.01 0.0 -6.626642028818703e-11 0.0 0.010001851113866549 0.0099908620406235 0.0 -4.638317745969453e-11 0.0 0.01 0.0 -4.638317745969453e-11 0.0 0.010001629798349836 0.0099911218372774 0.0 -1.9931000685055123e-11 0.0 0.01 0.0 -1.9931000685055123e-11 0.0 0.010001509641783953 0.009991417062681087 0.0 -5.715987082294077e-12 0.0 0.01 0.0 -5.71598708229325e-12 0.0 0.010001346972101208 0.009991728773307583 0.0 -1.1301140691752807e-12 0.0 0.01 0.0 -1.1301140691752807e-12 0.0 0.010001150598551096 0.009988953829675705 0.0 -2.5291609153831e-11 0.0 0.01 0.0 -2.5291609153827692e-11 0.0 0.010002485276182744 0.009989207496894269 0.0 -9.22518879405977e-11 0.0 0.01 0.0 -9.225188794061094e-11 0.0 0.010002038222983636 0.009989510527468335 0.0 -7.063412294350064e-11 0.0 0.01 0.0 -7.063412294350726e-11 0.0 0.010001771470605058 0.009989856454627103 0.0 -3.331783088310226e-11 0.0 0.01 0.0 -3.3317830883105566e-11 0.0 0.010001674720609446 0.00999023532098723 0.0 -1.1322591693235071e-11 0.0 0.01 0.0 -1.1322591693235071e-11 0.0 0.01000151449398434 0.009990622207961106 0.0 -3.2936631288802167e-12 0.0 0.01 0.0 -3.2936631288802167e-12 0.0 0.010001306906155917 0.009987478557304499 0.0 -2.3792063203197006e-11 0.0 0.01 0.0 -2.3792063203193697e-11 0.0 0.010002784862887392 0.009987823775227542 0.0 -1.4019205234791488e-10 0.0 0.01 0.0 -1.4019205234791488e-10 0.0 0.010002167704637847 0.009988222339714805 0.0 -1.1731977981509206e-10 0.0 0.01 0.0 -1.1731977981509206e-10 0.0 0.010001898490503109 0.009988659320862629 0.0 -6.016624497850027e-11 0.0 0.01 0.0 -6.016624497850027e-11 0.0 0.010001874526945988 0.00998912177614385 0.0 -2.284570297467554e-11 0.0 0.01 0.0 -2.2845702974672232e-11 0.0 0.010001731899817673 0.009989579809712917 0.0 -7.887931748549947e-12 0.0 0.01 0.0 -7.887931748549947e-12 0.0 0.010001519896442575 0.009986271821267684 0.0 -3.598034975370927e-11 0.0 0.01 0.0 -3.598034975370265e-11 0.0 0.010003021368748956 0.009986700578317513 0.0 -2.32989026727846e-10 0.0 0.01 0.0 -2.32989026727846e-10 0.0 0.010002233147819716 0.009987182684716728 0.0 -2.1074805630787847e-10 0.0 0.01 0.0 -2.1074805630787847e-10 0.0 0.01000205143108281 0.0099877012262389 0.0 -1.1532652425374741e-10 0.0 0.01 0.0 -1.1532652425377388e-10 0.0 0.010002162801454238 0.009988231307964631 0.0 -4.587701847007922e-11 0.0 0.01 0.0 -4.587701847009245e-11 0.0 0.010002059235893273 0.00998874602633539 0.0 -1.577297104479615e-11 0.0 0.01 0.0 -1.5772971044794496e-11 0.0 0.010001840858189094 0.009985634514474106 0.0 -7.827710721367314e-11 0.0 0.01 0.0 -7.827710721367976e-11 0.0 0.010003188524355057 0.009986116964410584 0.0 -4.073294111189162e-10 0.0 0.01 0.0 -4.073294111189162e-10 0.0 0.010002287384579967 0.00998664978191574 0.0 -3.9334620277670317e-10 0.0 0.01 0.0 -3.9334620277670317e-10 0.0 0.010002308399060014 0.009987207588803178 0.0 -2.2596038670704753e-10 0.0 0.01 0.0 -2.2596038670702106e-10 0.0 0.010002620179441408 0.009987769972677038 0.0 -9.062557429475735e-11 0.0 0.01 0.0 -9.062557429478382e-11 0.0 0.010002571291391019 0.009988306542567372 0.0 -2.7043926775909162e-11 0.0 0.01 0.0 -2.7043926775905854e-11 0.0 0.010002342122573844 0.009985956637891816 0.0 -1.6920650904018516e-10 0.0 0.01 0.0 -1.692065090401984e-10 0.0 0.01000336059327934 0.009986429673131235 0.0 -7.157604440043949e-10 0.0 0.01 0.0 -7.15760444004342e-10 0.0 0.010002470164955965 0.009986945109098224 0.0 -7.284470498805115e-10 0.0 0.01 0.0 -7.284470498805115e-10 0.0 0.010002784362469659 0.009987474074190332 0.0 -4.3315134425987187e-10 0.0 0.01 0.0 -4.3315134425981893e-10 0.0 0.010003332214808668 0.009988001130532408 0.0 -1.7265957060077182e-10 0.0 0.01 0.0 -1.7265957060077182e-10 0.0 0.010003354236881316 0.009988505349467408 0.0 -4.16354769404868e-11 0.0 0.01 0.0 -4.16354769404868e-11 0.0 0.010003102993688163 0.009987670838773027 0.0 -3.201709216338125e-10 0.0 0.01 0.0 -3.2017092163378604e-10 0.0 0.010003770181068506 0.009988047463671558 0.0 -1.2097818896633696e-09 0.0 0.01 0.0 -1.2097818896633696e-09 0.0 0.010003053648145997 0.009988449044554195 0.0 -1.2809074116624363e-09 0.0 0.01 0.0 -1.2809074116623304e-09 0.0 0.010003612306371546 0.00998885665383756 0.0 -7.830669003563603e-10 0.0 0.01 0.0 -7.830669003563603e-10 0.0 0.010004365156526196 0.009989261322679407 0.0 -3.1154941713229523e-10 0.0 0.01 0.0 -3.115494171323217e-10 0.0 0.01000445122024137 0.009989660059294449 0.0 -6.111108217076084e-11 0.0 0.01 0.0 -6.111108217076084e-11 0.0 0.010004176464972724 0.009991155746973185 0.0 -5.080759568298059e-10 0.0 0.01 0.0 -5.080759568298059e-10 0.0 0.010004907910775322 0.009991343253877185 0.0 -1.8498137928125584e-09 0.0 0.01 0.0 -1.8498137928125584e-09 0.0 0.010004480559514571 0.009991537254843499 0.0 -2.028995566349078e-09 0.0 0.01 0.0 -2.02899556634929e-09 0.0 0.01000500034802371 0.009991728274547524 0.0 -1.2815623726952616e-09 0.0 0.01 0.0 -1.2815623726952616e-09 0.0 0.010005725112787363 0.009991919803996878 0.0 -5.205465096306368e-10 0.0 0.01 0.0 -5.205465096305838e-10 0.0 0.010005860147176823 0.009992130798405559 0.0 -9.30756429793026e-11 0.0 0.01 0.0 -9.30756429793026e-11 0.0 0.010005569599612955 0.009996574760643822 0.0 -6.294746678198578e-10 0.0 0.01 0.0 -6.29474667819646e-10 0.0 0.010007260349253448 0.009996497840628362 0.0 -2.3917146999765735e-09 0.0 0.01 0.0 -2.39171469997615e-09 0.0 0.010007152215818745 0.00999641193206016 0.0 -2.759711433815405e-09 0.0 0.01 0.0 -2.7597114338158286e-09 0.0 0.010007347439806163 0.00999631703563407 0.0 -1.82036913193916e-09 0.0 0.01 0.0 -1.82036913193916e-09 0.0 0.010007502584879166 0.009996233628901844 0.0 -7.766489567065098e-10 0.0 0.01 0.0 -7.766489567066157e-10 0.0 0.010007527541058478 0.009996189179460354 0.0 -1.4939454470649018e-10 0.0 0.01 0.0 -1.4939454470649018e-10 0.0 0.01000722512282341 0.010003676326313032 0.0 -4.928883253595103e-10 0.0 0.01 0.0 -4.928883253594044e-10 0.0 0.010010339764529521 0.010003305838563922 0.0 -2.446645327273498e-09 0.0 0.01 0.0 -2.446645327272651e-09 0.0 0.010010544002986803 0.010002913873105278 0.0 -3.1037678437530514e-09 0.0 0.01 0.0 -3.1037678437522044e-09 0.0 0.010010602287472192 0.010002514598163386 0.0 -2.1739770676284864e-09 0.0 0.01 0.0 -2.173977067628063e-09 0.0 0.010009785344228335 0.010002136434458003 0.0 -9.936740403348594e-10 0.0 0.01 0.0 -9.936740403346477e-10 0.0 0.010009400438642646 0.010001819346382782 0.0 -2.2767111203124258e-10 0.0 0.01 0.0 -2.2767111203118964e-10 0.0 0.010009021493433405 0.01001163994174088 0.0 -1.2115213634782033e-10 0.0 0.01 0.0 -1.2115213634782033e-10 0.0 0.010012634253382693 0.010011025507504136 0.0 -1.8246109177879846e-09 0.0 0.01 0.0 -1.8246109177862905e-09 0.0 0.010013262688254842 0.010010368152526782 0.0 -2.7637825249947405e-09 0.0 0.01 0.0 -2.7637825249964346e-09 0.0 0.010013522479247625 0.01000971042556518 0.0 -2.101266575643259e-09 0.0 0.01 0.0 -2.101266575643259e-09 0.0 0.010012088283716048 0.01000908461455531 0.0 -1.041579827636553e-09 0.0 0.01 0.0 -1.0415798276374e-09 0.0 0.010011257280462885 0.010008529450331064 0.0 -2.89516392974268e-10 0.0 0.01 0.0 -2.8951639297405623e-10 0.0 0.010010770325031672 0.010019087209488358 0.0 -3.686029846831668e-10 0.0 0.01 0.0 -3.686029846831668e-10 0.0 0.010013623489435412 0.010018375726284456 0.0 -1.1712060991164443e-09 0.0 0.01 0.0 -1.1712060991168678e-09 0.0 0.010014645410497 0.010017588293632142 0.0 -1.9493048305014622e-09 0.0 0.01 0.0 -1.9493048305014622e-09 0.0 0.01001550523745003 0.010016794664570271 0.0 -1.6107055410561542e-09 0.0 0.01 0.0 -1.6107055410561542e-09 0.0 0.010013883358720823 0.010016028705714133 0.0 -8.614690538036958e-10 0.0 0.01 0.0 -8.614690538041193e-10 0.0 0.01001283818058052 0.010015318325914494 0.0 -2.8319452842387874e-10 0.0 0.01 0.0 -2.831945284239846e-10 0.0 0.010012285804115676 0.010024508758346774 0.0 -6.82778005535303e-10 0.0 0.01 0.0 -6.82778005535303e-10 0.0 0.010013723498558363 0.010023884599413991 0.0 -1.2768732240321227e-09 0.0 0.01 0.0 -1.2768732240321227e-09 0.0 0.010014706227474716 0.010023165699526148 0.0 -1.3443071593127002e-09 0.0 0.01 0.0 -1.3443071593127002e-09 0.0 0.010016185209524723 0.010022406130860478 0.0 -1.0141540613090532e-09 0.0 0.01 0.0 -1.0141540613088414e-09 0.0 0.010014936247203446 0.010021640846784852 0.0 -5.56456093320222e-10 0.0 0.01 0.0 -5.564560933201162e-10 0.0 0.01001394561789025 0.010020882630984024 0.0 -2.0586082616643985e-10 0.0 0.01 0.0 -2.0586082616638691e-10 0.0 0.010013420518284154 0.010027057672796229 0.0 -1.43201325410237e-10 0.0 0.01 0.0 -1.4320132541022377e-10 0.0 0.010013469063563154 0.010026630904277467 0.0 -7.745462091424398e-10 0.0 0.01 0.0 -7.745462091423339e-10 0.0 0.010014127531779157 0.01002612104102564 0.0 -7.797046231069988e-10 0.0 0.01 0.0 -7.797046231069988e-10 0.0 0.01001585352058434 0.010025532000640104 0.0 -5.290321179339867e-10 0.0 0.01 0.0 -5.290321179340926e-10 0.0 0.010015131927116895 0.010024876216999273 0.0 -2.76502455574993e-10 0.0 0.01 0.0 -2.7650245557494006e-10 0.0 0.010014476675551139 0.010024160528454621 0.0 -1.0948982928309876e-10 0.0 0.01 0.0 -1.0948982928312523e-10 0.0 0.010014118694441368 0.010026973998282965 0.0 3.445620808489707e-10 0.0 0.01 0.0 3.445620808488648e-10 0.0 0.01001339014646762 0.010026762301037542 0.0 -1.4657900000759953e-10 0.0 0.01 0.0 -1.4657900000759953e-10 0.0 0.010013677911698913 0.010026480814874181 0.0 -2.3679257918661457e-10 0.0 0.01 0.0 -2.367925791866675e-10 0.0 0.010015474796426995 0.01002610083355782 0.0 -1.6515229424174667e-10 0.0 0.01 0.0 -1.651522942417202e-10 0.0 0.010015112288291505 0.010025597953892766 0.0 -8.608743242698513e-11 0.0 0.01 0.0 -8.608743242698513e-11 0.0 0.010014725813689944 0.010024980492955799 0.0 -3.834306677813557e-11 0.0 0.01 0.0 -3.834306677813557e-11 0.0 0.010014495306282501 0.010025228954869686 0.0 3.1569412277767986e-10 0.0 0.01 0.0 3.1569412277767986e-10 0.0 0.010013544066654292 0.010025192026980928 0.0 9.249187875015497e-11 0.0 0.01 0.0 9.249187875014173e-11 0.0 0.010013552400435109 0.010025094646115324 0.0 7.723686641016968e-12 0.0 0.01 0.0 7.723686641016968e-12 0.0 0.01001528989578363 0.010024884075363774 0.0 -8.250843209741053e-12 0.0 0.01 0.0 -8.250843209739398e-12 0.0 0.010015080444508212 0.01002452694143664 0.0 -7.195974998493389e-12 0.0 0.01 0.0 -7.195974998493389e-12 0.0 0.01001481997979176 0.01002401442776123 0.0 -5.882190286056447e-12 0.0 0.01 0.0 -5.882190286058101e-12 0.0 0.010014647821057812 0.010022910544130044 0.0 8.373036181200534e-11 0.0 0.01 0.0 8.373036181200534e-11 0.0 0.010013839727784645 0.01002298278919131 0.0 5.1961537928340765e-11 0.0 0.01 0.0 5.196153792833415e-11 0.0 0.010013691165963876 0.01002299557698161 0.0 2.4552285522522577e-11 0.0 0.01 0.0 2.4552285522529194e-11 0.0 0.010015309987723807 0.010022891362951142 0.0 8.92593844239657e-12 0.0 0.01 0.0 8.925938442394916e-12 0.0 0.010015085316486925 0.010022633761830794 0.0 2.6969603780812042e-12 0.0 0.01 0.0 2.6969603780807906e-12 0.0 0.01001482490161306 0.010022208514249493 0.0 5.812777427439737e-13 0.0 0.01 0.0 5.812777427438703e-13 0.0 0.01001464782105781 0.0100207489496426 0.0 -2.0715126985706208e-11 0.0 0.01 0.0 -2.071512698569959e-11 0.0 0.010014154495846085 0.010020857071623632 0.0 -3.695907319954085e-11 0.0 0.01 0.0 -3.695907319954085e-11 0.0 0.010013970622302967 0.010020903259744274 0.0 -4.202903182085131e-11 0.0 0.01 0.0 -4.202903182085131e-11 0.0 0.010015468416907952 0.01002083689596743 0.0 -3.124134442331251e-11 0.0 0.01 0.0 -3.124134442330589e-11 0.0 0.010015098576341272 0.010020623675409445 0.0 -1.6008617685413696e-11 0.0 0.01 0.0 -1.6008617685417005e-11 0.0 0.010014750823947531 0.010020244409900922 0.0 -4.668627141892918e-12 0.0 0.01 0.0 -4.668627141892918e-12 0.0 0.010014531111726656 0.010018934994647188 0.0 -2.315718632482852e-11 0.0 0.01 0.0 -2.315718632482852e-11 0.0 0.010014193260212344 0.010019017009776596 0.0 -1.3324328780173136e-10 0.0 0.01 0.0 -1.3324328780173136e-10 0.0 0.010014053519798366 0.010019036168720572 0.0 -1.5023077520884e-10 0.0 0.01 0.0 -1.5023077520884e-10 0.0 0.010015464498784198 0.010018949728056661 0.0 -1.0396113795464439e-10 0.0 0.01 0.0 -1.0396113795464439e-10 0.0 0.010014988732091418 0.010018726772762896 0.0 -5.0885026228730564e-11 0.0 0.01 0.0 -5.0885026228677624e-11 0.0 0.010014558581240783 0.010018353604854724 0.0 -1.608209604360801e-11 0.0 0.01 0.0 -1.608209604360801e-11 0.0 0.010014293788554906 0.01001725842539886 0.0 -7.06633824101727e-11 0.0 0.01 0.0 -7.066338241019917e-11 0.0 0.01001392598604277 0.010017273151413106 0.0 -2.883000284615101e-10 0.0 0.01 0.0 -2.883000284614042e-10 0.0 0.010013862271200408 0.010017221133189147 0.0 -3.1800392601326476e-10 0.0 0.01 0.0 -3.18003926013053e-10 0.0 0.010015202547479308 0.010017068500817187 0.0 -2.1592073428836978e-10 0.0 0.01 0.0 -2.159207342882639e-10 0.0 0.01001469296917846 0.010016792704729069 0.0 -1.0367892049464113e-10 0.0 0.01 0.0 -1.0367892049469407e-10 0.0 0.010014220726946414 0.010016383424718934 0.0 -3.2913418414171906e-11 0.0 0.01 0.0 -3.2913418414224846e-11 0.0 0.010013924529976848 0.010015407133960309 0.0 -2.0540235256912295e-10 0.0 0.01 0.0 -2.0540235256912295e-10 0.0 0.010013421522315867 0.010015331084391165 0.0 -5.081876189748157e-10 0.0 0.01 0.0 -5.081876189748157e-10 0.0 0.010013426893890684 0.010015173616054904 0.0 -5.405584425986331e-10 0.0 0.01 0.0 -5.405584425986331e-10 0.0 0.010014687545345307 0.010014921029251306 0.0 -3.5967501056882403e-10 0.0 0.01 0.0 -3.5967501056882403e-10 0.0 0.010014196172579303 0.010014552705658432 0.0 -1.691046313751426e-10 0.0 0.01 0.0 -1.691046313751426e-10 0.0 0.01001372646072158 0.010014073102184483 0.0 -5.168265236292909e-11 0.0 0.01 0.0 -5.168265236303497e-11 0.0 0.010013410226976511 0.0100132278501884 0.0 -3.706312014666892e-10 0.0 0.01 0.0 -3.7063120146499514e-10 0.0 0.010012746027835034 0.010013038154766143 0.0 -7.390823349345593e-10 0.0 0.01 0.0 -7.390823349311712e-10 0.0 0.010012787686985481 0.01001275777265137 0.0 -7.691614941423986e-10 0.0 0.01 0.0 -7.691614941407045e-10 0.0 0.010013943659721296 0.0100123735277983 0.0 -4.995621342726526e-10 0.0 0.01 0.0 -4.995621342726526e-10 0.0 0.010013500440153289 0.010011882947156252 0.0 -2.2680735225851073e-10 0.0 0.01 0.0 -2.2680735225851073e-10 0.0 0.01001307002926868 0.010011311162456744 0.0 -6.410665039909962e-11 0.0 0.01 0.0 -6.410665039909962e-11 0.0 0.010012757270735214 0.010010837893564654 0.0 -4.98023933345141e-10 0.0 0.01 0.0 -4.98023933345141e-10 0.0 0.010011934882262449 0.010010520980393423 0.0 -9.237255668842617e-10 0.0 0.01 0.0 -9.237255668842617e-10 0.0 0.010011981950718748 0.010010094865397562 0.0 -9.343355433618927e-10 0.0 0.01 0.0 -9.343355433618927e-10 0.0 0.010013023949377262 0.01000955517778622 0.0 -5.872714564560308e-10 0.0 0.01 0.0 -5.87271456455819e-10 0.0 0.010012642584892198 0.01000892794200555 0.0 -2.5295647868473026e-10 0.0 0.01 0.0 -2.5295647868483614e-10 0.0 0.01001228088603697 0.010008255812523603 0.0 -6.362641822316589e-11 0.0 0.01 0.0 -6.362641822319236e-11 0.0 0.010011989778799177 0.010008532859040298 0.0 -5.530187631598284e-10 0.0 0.01 0.0 -5.530187631602519e-10 0.0 0.010011021594591902 0.010008073266130757 0.0 -1.060653462614003e-09 0.0 0.01 0.0 -1.060653462614003e-09 0.0 0.010011095087867902 0.010007488403036587 0.0 -9.952661462682454e-10 0.0 0.01 0.0 -9.952661462682454e-10 0.0 0.010012017729211124 0.010006791562538364 0.0 -5.891973622458485e-10 0.0 0.01 0.0 -5.891973622456368e-10 0.0 0.01001169628851976 0.010006027895952214 0.0 -2.4205688562016953e-10 0.0 0.01 0.0 -2.4205688562022247e-10 0.0 0.010011410098886116 0.010005275671972425 0.0 -5.319142564637624e-11 0.0 0.01 0.0 -5.319142564637624e-11 0.0 0.010011139184610187 0.010006617913725277 0.0 -5.039077839744372e-10 0.0 0.01 0.0 -5.039077839744372e-10 0.0 0.010010040000024525 0.01000600735892265 0.0 -2.73929330092382e-09 0.0 0.01 0.0 -2.739293300922973e-09 0.0 0.010010151186093606 0.010005263903387586 0.0 -2.5253539339473564e-09 0.0 0.01 0.0 -2.5253539339473564e-09 0.0 0.010010977047920646 0.01000442042930291 0.0 -1.1363665871141858e-09 0.0 0.01 0.0 -1.136366587113974e-09 0.0 0.010010742385065803 0.010003548287658722 0.0 -2.611942157453471e-10 0.0 0.01 0.0 -2.611942157453471e-10 0.0 0.010010505280982249 0.010002738924845603 0.0 -3.9001127990835614e-11 0.0 0.01 0.0 -3.900112799084223e-11 0.0 0.010010245223209587 0.010005238463351614 0.0 -2.9242120799503364e-10 0.0 0.01 0.0 -2.9242120799503364e-10 0.0 0.010009006803780507 0.010004488370024043 0.0 -8.809696300029492e-09 0.0 0.01 0.0 -8.80969630003288e-09 0.0 0.010009150243750778 0.010003601544746702 0.0 -8.924872803121536e-09 0.0 0.01 0.0 -8.92487280312323e-09 0.0 0.01000995770366852 0.010002642647171812 0.0 -4.607154858221656e-09 0.0 0.01 0.0 -4.607154858220809e-09 0.0 0.010009820597704513 0.010001696731737347 0.0 -1.2539236073397006e-09 0.0 0.01 0.0 -1.2539236073397006e-09 0.0 0.010009599254182969 0.010000851658786055 0.0 -1.2445117508412208e-10 0.0 0.01 0.0 -1.2445117508414855e-10 0.0 0.010009353907989809 0.010004353441218677 0.0 1.5831067444644926e-09 0.0 0.01 0.0 1.5831067444644926e-09 0.0 0.010007888724988723 0.010003487173258965 0.0 -1.8293870963898397e-08 0.0 0.01 0.0 -1.8293870963905173e-08 0.0 0.010008113363379175 0.010002487728070157 0.0 -1.990791985039995e-08 0.0 0.01 0.0 -1.9907919850386396e-08 0.0 0.010009010213036898 0.010001452966622684 0.0 -1.0722186288884367e-08 0.0 0.01 0.0 -1.072218628888606e-08 0.0 0.010008954864110206 0.010000473683655618 0.0 -2.9660468955574362e-09 0.0 0.01 0.0 -2.9660468955578597e-09 0.0 0.010008740445970657 0.009999623521261516 0.0 -2.5961535451913847e-10 0.0 0.01 0.0 -2.596153545191914e-10 0.0 0.010008506942912125 0.010003825944561343 0.0 4.5588935525540985e-09 0.0 0.01 0.0 4.558893552547322e-09 0.0 0.010006699576643106 0.010002838608268678 0.0 -2.1841813351880675e-08 0.0 0.01 0.0 -2.184181335188745e-08 0.0 0.010007142394861333 0.010001752410629143 0.0 -2.52250598010913e-08 0.0 0.01 0.0 -2.52250598010913e-08 0.0 0.01000816819712342 0.01000069247194029 0.0 -1.1356912429483806e-08 0.0 0.01 0.0 -1.1356912429483806e-08 0.0 0.010008190251074363 0.00999973401061294 0.0 -3.0114313646996453e-10 0.0 0.01 0.0 -3.0114313647001747e-10 0.0 0.010007990517061003 0.009998920174929031 0.0 1.8517440625150616e-09 0.0 0.01 0.0 1.8517440625150616e-09 0.0 0.010007747293793744 0.010003638685050583 0.0 -7.894810452183435e-09 0.0 0.01 0.0 -7.894810452183435e-09 0.0 0.010005754463278166 0.010002371943650818 0.0 9.33116617171204e-10 0.0 0.01 0.0 9.33116617171204e-10 0.0 0.010006388416569768 0.010001184760516814 0.0 -3.107803723176882e-09 0.0 0.01 0.0 -3.107803723176882e-09 0.0 0.010007473720134018 0.010000150903431511 0.0 1.0269597781168796e-08 0.0 0.01 0.0 1.0269597781168796e-08 0.0 0.010007578907292767 0.00999928357704478 0.0 1.7922731500531937e-08 0.0 0.01 0.0 1.7922731500531937e-08 0.0 0.010007375852510127 0.00999856880732767 0.0 1.2157955327580375e-08 0.0 0.01 0.0 1.2157955327582069e-08 0.0 0.01000710326130859 0.010003908541469608 0.0 -8.796896904493534e-08 0.0 0.01 0.0 -8.796896904482692e-08 0.0 0.010005306972765204 0.010002045077828599 0.0 6.577719575173225e-08 0.0 0.01 0.0 6.577719575175936e-08 0.0 0.010006034759003007 0.010000669518007795 0.0 7.194940134034721e-08 0.0 0.01 0.0 7.194940134034721e-08 0.0 0.010007029856665644 0.009999672516868629 0.0 7.219524371912306e-08 0.0 0.01 0.0 7.219524371915016e-08 0.0 0.010007139940319322 0.009998962662062632 0.0 6.48182298762333e-08 0.0 0.01 0.0 6.481822987624685e-08 0.0 0.010006899233981239 0.009998409879585625 0.0 3.940076056215057e-08 0.0 0.01 0.0 3.940076056215057e-08 0.0 0.010006589006767506 0.010004514319573814 0.0 -3.1174539352578357e-07 0.0 0.01 0.0 -3.1174539352578357e-07 0.0 0.01000499690741837 0.010001877481392233 0.0 1.3632447719551938e-07 0.0 0.01 0.0 1.3632447719551938e-07 0.0 0.010005799944787279 0.010000212912682382 0.0 1.9813081385863362e-07 0.0 0.01 0.0 1.9813081385874204e-07 0.0 0.010006669271827818 0.009999219096405965 0.0 1.8126073005826139e-07 0.0 0.01 0.0 1.812607300582885e-07 0.0 0.01000680724941317 0.009998693259488689 0.0 1.4855237007892945e-07 0.0 0.01 0.0 1.4855237007892945e-07 0.0 0.010006541566524895 0.009998352908307721 0.0 9.245448179231368e-08 0.0 0.01 0.0 9.245448179228657e-08 0.0 0.010006193750914412 0.010001874528777769 0.0 1.1054391325666241e-07 0.0 0.01 0.0 1.1054391325655399e-07 0.0 0.010005438034448573 0.00999992251662452 0.0 3.238997910491679e-07 0.0 0.01 0.0 3.238997910492763e-07 0.0 0.010006213301684871 0.00999888420258314 0.0 3.2469233480407565e-07 0.0 0.01 0.0 3.2469233480402144e-07 0.0 0.010006500498772074 0.009998482356216885 0.0 2.666475220455995e-07 0.0 0.01 0.0 2.666475220455995e-07 0.0 0.01000625342155468 0.009998355410473767 0.0 1.7673338819222304e-07 0.0 0.01 0.0 1.7673338819216883e-07 0.0 0.010005890956097729 0.010002079250018621 0.0 -1.067195703382531e-07 0.0 0.01 0.0 -1.0671957033830731e-07 0.0 0.010005051677045039 0.009999981020412267 0.0 3.685444039119726e-07 0.0 0.01 0.0 3.685444039119726e-07 0.0 0.010005753031142208 0.009998826738831136 0.0 4.642840876755176e-07 0.0 0.01 0.0 4.642840876755176e-07 0.0 0.010006152205076523 0.009998400908370933 0.0 4.0607246341970056e-07 0.0 0.01 0.0 4.0607246341959214e-07 0.0 0.010005989751974649 0.009998406893546691 0.0 2.9179619427655273e-07 0.0 0.01 0.0 2.917961942764443e-07 0.0 0.010005636624907175 0.010000499545011296 0.0 2.2492168895356943e-07 0.0 0.01 0.0 2.2492168895356943e-07 0.0 0.01000538911082623 0.009999183642156545 0.0 5.304280211791516e-07 0.0 0.01 0.0 5.304280211791516e-07 0.0 0.01000580148682745 0.009998585844485562 0.0 5.444937942443179e-07 0.0 0.01 0.0 5.444937942443179e-07 0.0 0.010005766728852627 0.009998533850060772 0.0 4.2869950937296855e-07 0.0 0.01 0.0 4.2869950937286013e-07 0.0 0.010005412618830246 0.010001382592521053 0.0 -1.9741132460074796e-07 0.0 0.01 0.0 -1.9741132460074796e-07 0.0 0.010005059993777845 0.010000063027355736 0.0 4.225337623279873e-07 0.0 0.01 0.0 4.2253376232820414e-07 0.0 0.01000557548618316 0.009999195155530747 0.0 6.238860509359071e-07 0.0 0.01 0.0 6.23886050936124e-07 0.0 0.010005587738240356 0.0099988667408837 0.0 5.670529039568601e-07 0.0 0.01 0.0 5.670529039568601e-07 0.0 0.010005254186243992 0.010001247783507937 0.0 3.858757842532953e-09 0.0 0.01 0.0 3.858757842534647e-09 0.0 0.010005345583238267 0.010000305254518442 0.0 5.200953411374932e-07 0.0 0.01 0.0 5.200953411374932e-07 0.0 0.010005476686344907 0.009999631583508518 0.0 6.490272520401699e-07 0.0 0.01 0.0 6.490272520397362e-07 0.0 0.010005196510855165 0.010001678173148561 0.0 7.32224478799514e-08 0.0 0.01 0.0 7.32224478799514e-08 0.0 0.010005322096496641 0.010000945977530202 0.0 5.376305438004395e-07 0.0 0.01 0.0 5.376305438004395e-07 0.0 0.010005185223486578 0.010002433555127248 0.0 -6.691978714067764e-07 0.0 0.01 0.0 -6.691978714072101e-07 0.0 0.010004860558524271 0.010002355833019673 0.0 7.256000570787097e-08 0.0 0.01 0.0 7.256000570787097e-08 0.0 0.010005121132002949 0.009999888501864803 0.0 5.642346432701322e-16 0.0 0.01 0.0 5.642346432701322e-16 0.0 0.010000003900002281 0.009999883502035798 0.0 3.7677590626865215e-16 0.0 0.01 0.0 3.7677590626865215e-16 0.0 0.010000003900002281 0.00999988200208856 0.0 1.236625342454968e-16 0.0 0.01 0.0 1.236625342454968e-16 0.0 0.010000003400001733 0.009999880502141994 0.0 1.3660284184694364e-17 0.0 0.01 0.0 1.3660284184694364e-17 0.0 0.010000002950001304 0.009999880002159957 0.0 1.3159276956300629e-17 0.0 0.01 0.0 1.3159276956300629e-17 0.0 0.010000002950001304 0.009999879502177995 0.0 6.69584993119698e-18 0.0 0.01 0.0 6.69584993119698e-18 0.0 0.01000000195000057 0.009999879002196106 0.0 1.8283289506748323e-17 0.0 0.01 0.0 1.8283289506748323e-17 0.0 0.01000000195000057 0.009999878502214293 0.0 8.895209319755658e-18 0.0 0.01 0.0 8.895209319755658e-18 0.0 0.010000001450000314 0.009999878502214293 0.0 -3.2941933575830503e-18 0.0 0.01 0.0 -3.2941933575830503e-18 0.0 0.01000000100000015 0.00999986050291897 0.0 -3.908475145107249e-16 0.0 0.01 0.0 -3.908475145107249e-16 0.0 0.010000005850005133 0.009999855503131962 0.0 -2.7432316978053052e-17 0.0 0.01 0.0 -2.7432316978053052e-17 0.0 0.010000005850005133 0.00999985350321926 0.0 -1.400175710368487e-17 0.0 0.01 0.0 -1.400175710368487e-17 0.0 0.010000004900003601 0.009999853003241271 0.0 -2.0733840504558534e-17 0.0 0.01 0.0 -2.0733840504558534e-17 0.0 0.010000004400002904 0.009999852503263358 0.0 -5.995091866108645e-18 0.0 0.01 0.0 -5.995091866108645e-18 0.0 0.010000003900002281 0.00999985200328552 0.0 1.1221202355260189e-17 0.0 0.01 0.0 1.1221202355260189e-17 0.0 0.010000002950001304 0.00999985200328552 0.0 8.107769487602947e-18 0.0 0.01 0.0 8.107769487602947e-18 0.0 0.0100000024500009 0.00999985200328552 0.0 8.893350169330789e-18 0.0 0.01 0.0 8.893350169330789e-18 0.0 0.01000000195000057 0.00999985200328552 0.0 -1.9183894704515685e-14 0.0 0.01 0.0 -1.9183894704515685e-14 0.0 0.01000000195000057 0.00999983100428403 0.0 -4.644410150267849e-16 0.0 0.01 0.0 -4.644410150267849e-16 0.0 0.010000007300007994 0.009999828004437473 0.0 -2.451347774203815e-16 0.0 0.01 0.0 -2.451347774203815e-16 0.0 0.010000006850007037 0.009999825004593616 0.0 -1.4493663934932954e-16 0.0 0.01 0.0 -1.4493663934932954e-16 0.0 0.010000006850007037 0.009999824504619902 0.0 -1.0977568825986747e-16 0.0 0.01 0.0 -1.0977568825986747e-16 0.0 0.010000005350004294 0.0099998235046727 0.0 -4.843886595801148e-17 0.0 0.01 0.0 -4.843886595801148e-17 0.0 0.010000005350004294 0.009999824004646265 0.0 -1.3366547443749375e-17 0.0 0.01 0.0 -1.3366547443749375e-17 0.0 0.010000003900002281 0.009999824504619902 0.0 6.474520860832097e-18 0.0 0.01 0.0 6.474520860832097e-18 0.0 0.010000003400001733 0.009999824504619902 0.0 8.395555573010329e-18 0.0 0.01 0.0 8.395555573010329e-18 0.0 0.0100000024500009 0.009999825004593616 0.0 7.591131473797417e-14 0.0 0.01 0.0 7.591131473797417e-14 0.0 0.0100000024500009 0.009999799506029836 0.0 -3.129776888415856e-16 0.0 0.01 0.0 -3.129776888415856e-16 0.0 0.010000009300012973 0.009999794506334321 0.0 -2.58408325079027e-16 0.0 0.01 0.0 -2.58408325079027e-16 0.0 0.010000009300012973 0.009999793506396118 0.0 -2.659173193154248e-16 0.0 0.01 0.0 -2.659173193154248e-16 0.0 0.010000008300010334 0.009999793506396118 0.0 -1.0154355089246893e-16 0.0 0.01 0.0 -1.0154355089246893e-16 0.0 0.010000007300007994 0.00999979400636518 0.0 -4.385471337758769e-17 0.0 0.01 0.0 -4.385471337758769e-17 0.0 0.010000005850005133 0.009999794506334321 0.0 -3.642942612039624e-14 0.0 0.01 0.0 -3.642942612039624e-14 0.0 0.010000004900003601 0.009999795006303535 0.0 1.0736399943023447e-17 0.0 0.01 0.0 1.0736399943023447e-17 0.0 0.010000004400002904 0.009999795006303535 0.0 2.548344288353899e-18 0.0 0.01 0.0 2.548344288353899e-18 0.0 0.010000003400001733 0.009999796006242187 0.0 2.823268807574932e-18 0.0 0.01 0.0 2.823268807574932e-18 0.0 0.010000002950001304 0.009999760508603696 0.0 5.951931570048714e-17 0.0 0.01 0.0 5.951931570048714e-17 0.0 0.010000012200022326 0.009999758008784247 0.0 -3.5345638455040755e-16 0.0 0.01 0.0 -3.5345638455040755e-16 0.0 0.010000010750017335 0.009999754509040167 0.0 -2.559521016679519e-16 0.0 0.01 0.0 -2.559521016679519e-16 0.0 0.010000009300012973 0.009999754509040167 0.0 -6.75120929328253e-17 0.0 0.01 0.0 -6.75120929328253e-17 0.0 0.010000008300010334 0.009999754509040167 0.0 -3.4748074112161086e-17 0.0 0.01 0.0 -3.4748074112161086e-17 0.0 0.010000006850007037 0.009999756508893476 0.0 8.383870766312542e-18 0.0 0.01 0.0 8.383870766312542e-18 0.0 0.010000006350006049 0.009999757508820581 0.0 1.9807778554064726e-17 0.0 0.01 0.0 1.9807778554064726e-17 0.0 0.010000004900003601 0.009999758508747986 0.0 7.479156505003064e-18 0.0 0.01 0.0 7.479156505003064e-18 0.0 0.010000004400002904 0.009999758508747986 0.0 9.444806888627211e-18 0.0 0.01 0.0 9.444806888627211e-18 0.0 0.010000003900002281 0.009999711012527546 0.0 1.4964300308804766e-15 0.0 0.01 0.0 1.4964300308804766e-15 0.0 0.010000012700024194 0.009999708512745217 0.0 1.0660849366758065e-16 0.0 0.01 0.0 1.0660849366758065e-16 0.0 0.010000012200022326 0.00999970701287672 0.0 -2.7890693277463777e-16 0.0 0.01 0.0 -2.7890693277463777e-16 0.0 0.010000011250018984 0.009999707512832813 0.0 -8.186954001140927e-17 0.0 0.01 0.0 -8.186954001140927e-17 0.0 0.010000010750017335 0.009999709512657926 0.0 -1.990502321458437e-14 0.0 0.01 0.0 -1.990502321458437e-14 0.0 0.010000008300010334 0.009999711512484239 0.0 1.4949324431987903e-17 0.0 0.01 0.0 1.4949324431987903e-17 0.0 0.010000006850007037 0.009999713012354758 0.0 2.211585848318181e-17 0.0 0.01 0.0 2.211585848318181e-17 0.0 0.010000006350006049 0.009999714012268814 0.0 2.0940335969211705e-17 0.0 0.01 0.0 2.0940335969211705e-17 0.0 0.010000005350004294 0.009999714512225956 0.0 5.9585607452630695e-15 0.0 0.01 0.0 5.9585607452630695e-15 0.0 0.010000004400002904 0.00999965101826909 0.0 4.5245600286241164e-15 0.0 0.01 0.0 4.5245600286241164e-15 0.0 0.010000015600036506 0.00999964801858451 0.0 1.0418720775689123e-15 0.0 0.01 0.0 1.0418720775689123e-15 0.0 0.010000015600036504 0.009999647518637344 0.0 -1.7762378189894678e-16 0.0 0.01 0.0 -1.7762378189894678e-16 0.0 0.010000013650027948 0.00999964951842646 0.0 -8.537145069361204e-17 0.0 0.01 0.0 -8.537145069361204e-17 0.0 0.010000011250018984 0.00999965251811239 0.0 4.004753650645398e-15 0.0 0.01 0.0 4.004753650645398e-15 0.0 0.01000001025001576 0.009999655017852722 0.0 2.684401226608137e-17 0.0 0.01 0.0 2.684401226608137e-17 0.0 0.010000008800011615 0.009999657017646341 0.0 3.132928995980575e-17 0.0 0.01 0.0 3.132928995980575e-17 0.0 0.010000006350006049 0.00999965851749234 0.0 2.5805248778903653e-17 0.0 0.01 0.0 2.5805248778903653e-17 0.0 0.010000005850005133 0.009999659017441159 0.0 8.203859958849574e-18 0.0 0.01 0.0 8.203859958849574e-18 0.0 0.010000005350004294 0.009999574527155611 0.0 9.79663222987109e-13 0.0 0.01 0.0 9.796632229838003e-13 0.0 0.010000019050054437 0.009999573527283397 0.0 9.414439118850816e-16 0.0 0.01 0.0 9.414439118850816e-16 0.0 0.010000019050054435 0.009999576026964494 0.0 -2.1829963846472017e-16 0.0 0.01 0.0 -2.1829963846472017e-16 0.0 0.010000016100038882 0.009999579526521179 0.0 -7.846789722955783e-17 0.0 0.01 0.0 -7.846789722955783e-17 0.0 0.010000014150030033 0.009999582526144118 0.0 3.566240392344451e-17 0.0 0.01 0.0 3.566240392344451e-17 0.0 0.010000012200022326 0.00999958652564557 0.0 5.706855309529556e-17 0.0 0.01 0.0 5.706855309529556e-17 0.0 0.01000001025001576 0.009999589025336415 0.0 2.7734591205600463e-17 0.0 0.01 0.0 2.7734591205600463e-17 0.0 0.010000008300010334 0.009999592024967903 0.0 1.1075990282899825e-17 0.0 0.01 0.0 1.1075990282899825e-17 0.0 0.010000007300007994 0.009999592524906746 0.0 -1.83636650209836e-17 0.0 0.01 0.0 -1.83636650209836e-17 0.0 0.010000006350006049 0.00999948503978034 0.0 8.605949696020623e-12 0.0 0.01 0.0 8.605949696020623e-12 0.0 0.010000024400089307 0.009999485039780334 0.0 1.3246102350212314e-15 0.0 0.01 0.0 1.3246102350212314e-15 0.0 0.010000022950079004 0.009999488039318244 0.0 -3.4522146295365167e-16 0.0 0.01 0.0 -3.4522146295365167e-16 0.0 0.01000002000006 0.00999949253863017 0.0 -1.434211858120298e-16 0.0 0.01 0.0 -1.434211858120298e-16 0.0 0.010000017600046464 0.009999497537872767 0.0 8.687652114462157e-17 0.0 0.01 0.0 8.687652114462157e-17 0.0 0.010000014150030033 0.009999503037048281 0.0 1.1832820413584786e-16 0.0 0.01 0.0 1.1832820413584786e-16 0.0 0.010000012700024194 0.009999507036454355 0.0 3.703625891613607e-17 0.0 0.01 0.0 3.703625891613607e-17 0.0 0.010000010750017335 0.009999510535938606 0.0 6.609879903370401e-18 0.0 0.01 0.0 6.609879903370401e-18 0.0 0.010000008300010334 0.009999512035718694 0.0 -2.0819935354060716e-17 0.0 0.01 0.0 -2.0819935354060716e-17 0.0 0.010000007800009127 0.009999373558869188 0.0 2.5718425224792643e-11 0.0 0.01 0.0 2.5718425224898523e-11 0.0 0.010000033200165336 0.009999377558119908 0.0 8.083263368314074e-14 0.0 0.01 0.0 8.083263368334753e-14 0.0 0.010000029800133209 0.009999384056912556 0.0 -3.665772378813786e-16 0.0 0.01 0.0 -3.665772378813786e-16 0.0 0.010000025900100622 0.009999390555717877 0.0 -1.41181199285622e-16 0.0 0.01 0.0 -1.41181199285622e-16 0.0 0.010000023450082485 0.00999939755444547 0.0 1.7731062071852015e-16 0.0 0.01 0.0 1.7731062071852015e-16 0.0 0.01000001955005733 0.009999404053277108 0.0 7.380676107058769e-17 0.0 0.01 0.0 7.380676107058769e-17 0.0 0.010000017100043862 0.009999409052386991 0.0 -2.487496261257069e-18 0.0 0.01 0.0 -2.487496261257069e-18 0.0 0.010000013200026137 0.00999941405150437 0.0 -8.703658491646175e-17 0.0 0.01 0.0 -8.703658491646175e-17 0.0 0.010000010750017335 0.009999416551065872 0.0 -4.950379362749781e-17 0.0 0.01 0.0 -4.950379362749781e-17 0.0 0.01000000975001426 0.009999239586743045 0.0 4.4627326492867916e-11 0.0 0.01 0.0 4.462732649276204e-11 0.0 0.010000045900316026 0.009999246585153644 0.0 3.375576214296464e-13 0.0 0.01 0.0 3.3755762143130077e-13 0.0 0.010000040550246647 0.009999256582908565 0.0 -8.496369618411949e-16 0.0 0.01 0.0 -8.496369618411949e-16 0.0 0.010000034650180095 0.009999266080803515 0.0 2.0074280089654404e-17 0.0 0.01 0.0 2.0074280089654404e-17 0.0 0.010000029800133207 0.009999276078616913 0.0 2.3553810302421446e-16 0.0 0.01 0.0 2.3553810302421446e-16 0.0 0.010000024400089305 0.009999283576996643 0.0 5.388802513317563e-17 0.0 0.01 0.0 5.388802513317563e-17 0.0 0.01000002000006 0.009999291575286949 0.0 1.9089056302570532e-17 0.0 0.01 0.0 1.9089056302570532e-17 0.0 0.010000017100043862 0.009999298073911953 0.0 1.4017354191893717e-14 0.0 0.01 0.0 1.4017354191893717e-14 0.0 0.010000014150030033 0.009999302073072099 0.0 -3.005609391694866e-17 0.0 0.01 0.0 -3.005609391694866e-17 0.0 0.010000011700020532 0.009999081126664748 0.0 5.031402078934302e-11 0.0 0.01 0.0 5.031402078934302e-11 0.0 0.010000064450623075 0.00999909262351476 0.0 3.6620376852413016e-13 0.0 0.01 0.0 3.66203768523303e-13 0.0 0.010000055650464544 0.009999105620001647 0.0 -8.605340650512884e-16 0.0 0.01 0.0 -8.605340650512884e-16 0.0 0.010000045900316024 0.009999119616274975 0.0 2.1629000343269057e-16 0.0 0.01 0.0 2.1629000343269057e-16 0.0 0.010000040050240602 0.00999913311273706 0.0 4.1838755728669056e-16 0.0 0.01 0.0 4.1838755728669056e-16 0.0 0.010000031750151211 0.009999144609766388 0.0 2.1387862543030912e-16 0.0 0.01 0.0 2.1387862543030912e-16 0.0 0.010000025900100622 0.009999153607469176 0.0 -8.837646034549102e-17 0.0 0.01 0.0 -8.837646034549102e-17 0.0 0.010000020500063036 0.00999916060569925 0.0 3.533089980270624e-17 0.0 0.01 0.0 3.533089980270624e-17 0.0 0.010000017600046464 0.009999164604694459 0.0 -6.370389142577055e-17 0.0 0.01 0.0 -6.370389142577055e-17 0.0 0.010000014650032193 0.009998891684281792 0.0 3.647716967125844e-11 0.0 0.01 0.0 3.647716967125844e-11 0.0 0.010000093251304356 0.009998908678673339 0.0 1.0042129174151846e-13 0.0 0.01 0.0 1.0042129174131167e-13 0.0 0.010000075200848271 0.009998927172668471 0.0 -5.621867889140655e-16 0.0 0.01 0.0 -5.621867889140655e-16 0.0 0.010000062500585943 0.009998947166292165 0.0 5.818582707671426e-16 0.0 0.01 0.0 5.818582707671426e-16 0.0 0.010000051250393988 0.009998963661122004 0.0 8.673467015848547e-16 0.0 0.01 0.0 8.673467015848547e-16 0.0 0.01000004150025834 0.009998978156645919 0.0 2.2200584947607782e-16 0.0 0.01 0.0 2.2200584947607782e-16 0.0 0.010000033700170356 0.009998991152686473 0.0 -6.560453017923008e-17 0.0 0.01 0.0 -6.560453017923008e-17 0.0 0.010000026850108139 0.00999899865042523 0.0 -1.5866552734503645e-16 0.0 0.01 0.0 -1.5866552734503645e-16 0.0 0.01000002195007227 0.009999005148479128 0.0 -3.2061837573964424e-17 0.0 0.01 0.0 -3.2061837573964424e-17 0.0 0.010000018550051615 0.009998668266074533 0.0 1.4891110197747782e-11 0.0 0.01 0.0 1.4891110197761017e-11 0.0 0.010000125502362593 0.009998692256573667 0.0 4.1204522289137335e-16 0.0 0.01 0.0 4.1204522289137335e-16 0.0 0.010000102551577501 0.00999871674705299 0.0 1.3333361578804865e-17 0.0 0.01 0.0 1.3333361578804865e-17 0.0 0.010000084001058415 0.009998740238090002 0.0 5.949129347768221e-16 0.0 0.01 0.0 5.949129347768221e-16 0.0 0.010000066900671348 0.00999876123022061 0.0 8.325518307550323e-16 0.0 0.01 0.0 8.325518307550323e-16 0.0 0.010000053700432558 0.009998781222848875 0.0 -4.730919633451256e-18 0.0 0.01 0.0 -4.730919633451256e-18 0.0 0.010000042500270938 0.009998796217398775 0.0 -2.36254452760759e-16 0.0 0.01 0.0 -2.36254452760759e-16 0.0 0.010000033700170356 0.00999880771326605 0.0 -3.6371838355993424e-16 0.0 0.01 0.0 -3.6371838355993424e-16 0.0 0.010000027350112205 0.009998814710769894 0.0 -1.2845743015756095e-16 0.0 0.01 0.0 -1.2845743015756095e-16 0.0 0.0100000224500756 0.009998403882220138 0.0 1.9584812048689154e-12 0.0 0.01 0.0 1.9584812048689154e-12 0.0 0.0100001679542312 0.009998435867053328 0.0 1.824218516164662e-15 0.0 0.01 0.0 1.824218516164662e-15 0.0 0.010000135752764273 0.009998468851734058 0.0 1.66586021249499e-16 0.0 0.01 0.0 1.66586021249499e-16 0.0 0.010000108401762615 0.0099984998376406 0.0 9.682764899162236e-16 0.0 0.01 0.0 9.682764899162236e-16 0.0 0.010000087901158979 0.009998528824717202 0.0 5.54901520988887e-16 0.0 0.01 0.0 5.54901520988887e-16 0.0 0.01000006785069055 0.00999855231442972 0.0 -1.427650273796966e-16 0.0 0.01 0.0 -1.427650273796966e-16 0.0 0.010000053700432558 0.00999857230580482 0.0 -5.353599217265634e-16 0.0 0.01 0.0 -5.353599217265634e-16 0.0 0.010000041000252152 0.00999858629983874 0.0 -4.848312205355034e-16 0.0 0.01 0.0 -4.848312205355034e-16 0.0 0.010000032250156011 0.009998594796245144 0.0 -5.655318526462237e-16 0.0 0.01 0.0 -5.655318526462237e-16 0.0 0.010000026850108139 0.009998094544752353 0.0 6.8332447243916365e-15 0.0 0.01 0.0 6.8332447243916365e-15 0.0 0.01000021730708315 0.00999813602129205 0.0 2.8788351888248743e-15 0.0 0.01 0.0 2.8788351888248743e-15 0.0 0.010000174804583388 0.00999817799807465 0.0 -1.0635119344188969e-15 0.0 0.01 0.0 -1.0635119344188969e-15 0.0 0.010000140152946372 0.009998217476721687 0.0 9.672690761288645e-17 0.0 0.01 0.0 9.672690761288645e-17 0.0 0.010000110351826602 0.009998253457668095 0.0 -4.1285005970808634e-16 0.0 0.01 0.0 -4.1285005970808634e-16 0.0 0.010000085951108127 0.00999828394182944 0.0 -1.3924635593538779e-15 0.0 0.01 0.0 -1.3924635593538779e-15 0.0 0.010000065450642562 0.009998309428801302 0.0 -1.6418526232298781e-15 0.0 0.01 0.0 -1.6418526232298781e-15 0.0 0.010000049800372009 0.00999832791947151 0.0 -8.0850391975509e-16 0.0 0.01 0.0 -8.0850391975509e-16 0.0 0.010000039550234633 0.00999833841422186 0.0 -3.0800929073681914e-16 0.0 0.01 0.0 -3.0800929073681914e-16 0.0 0.010000032250156011 0.009997734270262376 0.0 1.3230253075215662e-14 0.0 0.01 0.0 1.3230253075215662e-14 0.0 0.010000271961094024 0.009997785235994277 0.0 -6.536645249919548e-16 0.0 0.01 0.0 -6.536645249919548e-16 0.0 0.010000220707306542 0.009997838700884052 0.0 -3.56697337548031e-15 0.0 0.01 0.0 -3.56697337548031e-15 0.0 0.010000174804583388 0.009997889168529575 0.0 -1.928047956338678e-15 0.0 0.01 0.0 -1.928047956338678e-15 0.0 0.010000136702803097 0.00999793464003302 0.0 -2.3991143985539513e-15 0.0 0.01 0.0 -2.3991143985539513e-15 0.0 0.010000105451667985 0.009997973616101214 0.0 -2.7471609116182843e-15 0.0 0.01 0.0 -2.7471609116182843e-15 0.0 0.010000081050985378 0.009998003598002318 0.0 -2.435781964694072e-15 0.0 0.01 0.0 -2.435781964694072e-15 0.0 0.010000060550549951 0.009998025584901224 0.0 -1.6578756730404735e-15 0.0 0.01 0.0 -1.6578756730404735e-15 0.0 0.010000047850343446 0.00999803907693373 0.0 -1.2219348973171744e-15 0.0 0.01 0.0 -1.2219348973171744e-15 0.0 0.010000039050228738 0.009997313582913394 0.0 1.4619811649300564e-14 0.0 0.01 0.0 1.4619811649300564e-14 0.0 0.010000335966930307 0.009997378031568393 0.0 -8.852684888278033e-15 0.0 0.01 0.0 -8.852684888278033e-15 0.0 0.010000270510976031 0.00999744497955312 0.0 -6.62890879399066e-15 0.0 0.01 0.0 -6.62890879399066e-15 0.0 0.010000214356892134 0.009997507931870167 0.0 -3.934017315497224e-15 0.0 0.01 0.0 -3.934017315497224e-15 0.0 0.010000167004183467 0.009997565389388029 0.0 -4.369416817866616e-15 0.0 0.01 0.0 -4.369416817866616e-15 0.0 0.010000128902492335 0.009997612855041301 0.0 -4.378066313218734e-15 0.0 0.01 0.0 -4.378066313218734e-15 0.0 0.010000096701402656 0.00999765132769843 0.0 -3.839133739258907e-15 0.0 0.01 0.0 -3.839133739258907e-15 0.0 0.010000074200825857 0.00999767880843974 0.0 -1.925464972135464e-15 0.0 0.01 0.0 -1.925464972135464e-15 0.0 0.010000058100506347 0.009997695296993299 0.0 -9.490577262782577e-16 0.0 0.01 0.0 -9.490577262782577e-16 0.0 0.01000004685032924 0.009996823014626986 0.0 6.482298778054209e-15 0.0 0.01 0.0 6.482298778054209e-15 0.0 0.010000405274635799 0.009996904937504983 0.0 -2.026472086536402e-14 0.0 0.01 0.0 -2.026472086536402e-14 0.0 0.010000326666005904 0.009996989859687404 0.0 -8.201990057015446e-15 0.0 0.01 0.0 -8.201990057015446e-15 0.0 0.010000258310008265 0.009997067790182562 0.0 2.3905421487625754e-16 0.0 0.01 0.0 2.3905421487625754e-16 0.0 0.010000200706042276 0.009997137729358141 0.0 -1.9194988104849664e-15 0.0 0.01 0.0 -1.9194988104849664e-15 0.0 0.010000154303571365 0.009997196679231858 0.0 -3.7604060300362046e-15 0.0 0.01 0.0 -3.7604060300362046e-15 0.0 0.010000117702078034 0.00999724314046038 0.0 -3.2497970798685606e-15 0.0 0.01 0.0 -3.2497970798685606e-15 0.0 0.010000090351224488 0.009997276113338121 0.0 -1.2788329909572028e-15 0.0 0.01 0.0 -1.2788329909572028e-15 0.0 0.010000070300741322 0.00999729609705917 0.0 -9.113079851171456e-16 0.0 0.01 0.0 -9.113079851171456e-16 0.0 0.010000059100523926 0.009996257102441517 0.0 -7.488026280784238e-15 0.0 0.01 0.0 -7.488026280784238e-15 0.0 0.010000480484627603 0.009996360987326211 0.0 -2.7569904726957533e-14 0.0 0.01 0.0 -2.7569904726957533e-14 0.0 0.0100003862723798 0.009996463876510119 0.0 5.470376095751163e-15 0.0 0.01 0.0 5.470376095751163e-15 0.0 0.010000305213972766 0.009996560775054187 0.0 1.7943792193863434e-14 0.0 0.01 0.0 1.7943792193863434e-14 0.0 0.010000237808482661 0.009996647186957414 0.0 1.256997108321882e-14 0.0 0.01 0.0 1.256997108321882e-14 0.0 0.010000184555108963 0.009996718615829247 0.0 2.8759963718947517e-15 0.0 0.01 0.0 2.8759963718947517e-15 0.0 0.010000142103028933 0.00999677306264103 0.0 7.699490783658801e-16 0.0 0.01 0.0 7.699490783658801e-16 0.0 0.010000112301891729 0.009996814522736545 0.0 -1.2699905868337212e-15 0.0 0.01 0.0 -1.2699905868337212e-15 0.0 0.010000089851210972 0.009996838499894677 0.0 -1.5180239665580329e-15 0.0 0.01 0.0 -1.5180239665580329e-15 0.0 0.010000078600926707 0.009995602402531351 0.0 -1.960989054951451e-14 0.0 0.01 0.0 -1.960989054951451e-14 0.0 0.010000562047381038 0.009995733731710607 0.0 -2.3510772897563974e-14 0.0 0.01 0.0 -2.3510772897563974e-14 0.0 0.010000451180532744 0.009995860571649366 0.0 4.0697851199510024e-14 0.0 0.01 0.0 4.0697851199510024e-14 0.0 0.010000357419161356 0.009995979925449932 0.0 6.145153344344083e-14 0.0 0.01 0.0 6.145153344344083e-14 0.0 0.01000028076182364 0.00999608430110603 0.0 4.3066117520463994e-14 0.0 0.01 0.0 4.3066117520463994e-14 0.0 0.01000022215740287 0.00999616870295088 0.0 2.1784155080893407e-14 0.0 0.01 0.0 2.1784155080893407e-14 0.0 0.010000176254659746 0.009996236625514642 0.0 8.882170861538152e-15 0.0 0.01 0.0 8.882170861538152e-15 0.0 0.010000142103028933 0.009996282573916422 0.0 2.272017589990569e-15 0.0 0.01 0.0 2.272017589990569e-15 0.0 0.010000119152129552 0.009996311042265855 0.0 2.2400783430074725e-16 0.0 0.01 0.0 2.2400783430074725e-16 0.0 0.010000106451699771 0.009994853475734847 0.0 -3.149018015933591e-14 0.0 0.01 0.0 -3.149018015933591e-14 0.0 0.010000649463264902 0.009995017725933279 0.0 8.630618133834341e-15 0.0 0.01 0.0 8.630618133834341e-15 0.0 0.010000521040719685 0.009995173995796828 0.0 1.1669622072472058e-13 0.0 0.01 0.0 1.1669622072472058e-13 0.0 0.0100004160259602 0.009995316791921177 0.0 1.311166888485896e-13 0.0 0.01 0.0 1.311166888485896e-13 0.0 0.010000333016634276 0.009995440120772093 0.0 9.285725346725325e-14 0.0 0.01 0.0 9.285725346720155e-14 0.0 0.010000269060858671 0.00999554148352892 0.0 4.844581483237293e-14 0.0 0.01 0.0 4.844581483237293e-14 0.0 0.010000223157469668 0.00999561938015672 0.0 2.2407033322444686e-14 0.0 0.01 0.0 2.2407033322444686e-14 0.0 0.010000188505330005 0.009995675307063915 0.0 8.631325934542125e-15 0.0 0.01 0.0 8.631325934542125e-15 0.0 0.010000167004183467 0.009995706267005503 0.0 2.1577620221436406e-15 0.0 0.01 0.0 2.1577620221436406e-15 0.0 0.010000153303525224 0.009994003897301956 0.0 -7.350228112922673e-15 0.0 0.01 0.0 -7.350228112922673e-15 0.0 0.010000740782305634 0.009994204541995925 0.0 9.237373835324374e-14 0.0 0.01 0.0 9.237373835324374e-14 0.0 0.010000599153843501 0.00999439621388474 0.0 2.2654528845015606e-13 0.0 0.01 0.0 2.2654528845015606e-13 0.0 0.010000485885410401 0.009994564934204244 0.0 2.176586737487473e-13 0.0 0.01 0.0 2.176586737487473e-13 0.0 0.0100003999239896 0.009994710699466525 0.0 1.427665949486405e-13 0.0 0.01 0.0 1.427665949486405e-13 0.0 0.010000336466980746 0.009994828015182786 0.0 7.533862090216136e-14 0.0 0.01 0.0 7.533862090216136e-14 0.0 0.010000289062533092 0.009994917377585254 0.0 3.547981663642657e-14 0.0 0.01 0.0 3.547981663642657e-14 0.0 0.010000255859819302 0.009994979782918967 0.0 1.4512328180559372e-14 0.0 0.01 0.0 1.4512328180559372e-14 0.0 0.010000235858344112 0.009995017725933279 0.0 2.9632083253988352e-15 0.0 0.01 0.0 2.9632083253988352e-15 0.0 0.010000224107533404 0.009993059232830465 0.0 1.3381891739973904e-14 0.0 0.01 0.0 1.3381891739973904e-14 0.0 0.010000843356675577 0.009993304231007263 0.0 1.9520836053466672e-13 0.0 0.01 0.0 1.9520836053461502e-13 0.0 0.010000689521309392 0.009993529784974099 0.0 3.374406412217168e-13 0.0 0.01 0.0 3.374406412217168e-13 0.0 0.010000573299297046 0.009993726408634482 0.0 2.846482657417166e-13 0.0 0.01 0.0 2.846482657417166e-13 0.0 0.010000490286054705 0.00999389309869506 0.0 1.7346335976716315e-13 0.0 0.01 0.0 1.7346335976705975e-13 0.0 0.0100004302277628 0.009994028353346791 0.0 8.430562871766105e-14 0.0 0.01 0.0 8.430562871766105e-14 0.0 0.01000038722249003 0.009994128674919682 0.0 3.58541901774355e-14 0.0 0.01 0.0 3.58541901774355e-14 0.0 0.010000359369371024 0.009994199051557412 0.0 1.4851885446178355e-14 0.0 0.01 0.0 1.4851885446178355e-14 0.0 0.010000339867325686 0.00999424097877169 0.0 2.852498560005743e-15 0.0 0.01 0.0 2.852498560005743e-15 0.0 0.010000330566390398 0.009992038517882483 0.0 -1.9944980474982194e-13 0.0 0.01 0.0 -1.9944980474982194e-13 0.0 0.010000960088247721 0.009992329334900825 0.0 1.3366928071257692e-13 0.0 0.01 0.0 1.3366928071257692e-13 0.0 0.010000800896204937 0.009992590742706522 0.0 3.091713787172406e-13 0.0 0.01 0.0 3.091713787172406e-13 0.0 0.010000690971609667 0.00999281525051806 0.0 2.588849858473568e-13 0.0 0.01 0.0 2.588849858474085e-13 0.0 0.010000616256961217 0.009993001852969833 0.0 1.4742390829762646e-13 0.0 0.01 0.0 1.4742390829762646e-13 0.0 0.010000566448125886 0.00999315054369012 0.0 6.632654231309479e-14 0.0 0.01 0.0 6.632654231309479e-14 0.0 0.010000532742569172 0.009993262315581185 0.0 2.7939550517453296e-14 0.0 0.01 0.0 2.7939550517453296e-14 0.0 0.0100005078386824 0.009993340657936842 0.0 9.361820458129896e-15 0.0 0.01 0.0 9.361820458129896e-15 0.0 0.010000492236342107 0.009993386566415454 0.0 2.6001363530814535e-15 0.0 0.01 0.0 2.6001363530814535e-15 0.0 0.010000483435054159 0.009990992185742148 0.0 -1.2561945660411577e-12 0.0 0.01 0.0 -1.2561945660413645e-12 0.0 0.010001106633668613 0.009991328292831924 0.0 -6.300170736031308e-13 0.0 0.01 0.0 -6.300170736032342e-13 0.0 0.01000095423656774 0.009991623037793513 0.0 -2.508081916514151e-13 0.0 0.01 0.0 -2.508081916514151e-13 0.0 0.010000858510543402 0.009991872918165577 0.0 -6.955764206337107e-14 0.0 0.01 0.0 -6.955764206337107e-14 0.0 0.010000801346313096 0.009992077923847119 0.0 -1.7370422788972273e-14 0.0 0.01 0.0 -1.7370422788972273e-14 0.0 0.010000762287153398 0.009992240041897157 0.0 -3.319473481223825e-15 0.0 0.01 0.0 -3.319473481223825e-15 0.0 0.010000735931231245 0.009992360762616895 0.0 3.587177386091711e-15 0.0 0.01 0.0 3.587177386091711e-15 0.0 0.010000716376972044 0.009992445070177096 0.0 2.0349151224587505e-15 0.0 0.01 0.0 2.0349151224587505e-15 0.0 0.010000702724066227 0.00999249495731233 0.0 7.400006172834866e-16 0.0 0.01 0.0 7.400006172834866e-16 0.0 0.01000069587262907 0.009990006001988417 0.0 -3.907690268277097e-12 0.0 0.01 0.0 -3.907690268276684e-12 0.0 0.010001315709618227 0.00999038438680516 0.0 -2.8959853519681036e-12 0.0 0.01 0.0 -2.8959853519681036e-12 0.0 0.010001173556552929 0.009990707967345115 0.0 -2.0279424644446008e-12 0.0 0.01 0.0 -2.0279424644446008e-12 0.0 0.010001096880445615 0.009990978223570163 0.0 -1.1516534110044185e-12 0.0 0.01 0.0 -1.1516534110042117e-12 0.0 0.010001060718744775 0.00999119763589752 0.0 -5.478810573345496e-13 0.0 0.01 0.0 -5.478810573347564e-13 0.0 0.010001036311068839 0.00999137118134003 0.0 -2.2102338502261844e-13 0.0 0.01 0.0 -2.210233850225926e-13 0.0 0.010001015304605588 0.00999150034890436 0.0 -7.41943751355815e-14 0.0 0.01 0.0 -7.41943751355815e-14 0.0 0.010000999649875005 0.009991590120818648 0.0 -1.9823424328042746e-14 0.0 0.01 0.0 -1.9823424328042746e-14 0.0 0.010000985495661115 0.009991642987633578 0.0 -3.633460393208174e-15 0.0 0.01 0.0 -3.633460393208174e-15 0.0 0.010000978643642763 0.009989214972645724 0.0 -7.83328937760939e-12 0.0 0.01 0.0 -7.83328937760939e-12 0.0 0.010001630748814539 0.009989624669489055 0.0 -6.741969605790336e-12 0.0 0.01 0.0 -6.7419696057895086e-12 0.0 0.010001494985180293 0.009989966620531848 0.0 -5.567743833824019e-12 0.0 0.01 0.0 -5.567743833824019e-12 0.0 0.010001435859194554 0.00999024977858372 0.0 -3.561585376982875e-12 0.0 0.01 0.0 -3.561585376982875e-12 0.0 0.010001418751871428 0.009990479612944145 0.0 -1.8279045640907654e-12 0.0 0.01 0.0 -1.827904564091179e-12 0.0 0.010001406046489423 0.009990662594372642 0.0 -7.713237877228652e-13 0.0 0.01 0.0 -7.713237877228652e-13 0.0 0.010001387988923522 0.009990798216523638 0.0 -2.6387812170141335e-13 0.0 0.01 0.0 -2.6387812170141335e-13 0.0 0.010001368430839206 0.009990891958591378 0.0 -7.804924171249484e-14 0.0 0.01 0.0 -7.804924171249484e-14 0.0 0.010001351824064848 0.00999094830482731 0.0 -1.5656113649914876e-14 0.0 0.01 0.0 -1.5656113649914876e-14 0.0 0.010001338668757135 0.009988794363125142 0.0 -9.879144291137015e-12 0.0 0.01 0.0 -9.879144291137015e-12 0.0 0.010002112969507397 0.009989211483959622 0.0 -9.598772520510057e-12 0.0 0.01 0.0 -9.598772520510057e-12 0.0 0.010001968330996557 0.009989559872228623 0.0 -9.754409923403791e-12 0.0 0.01 0.0 -9.754409923402136e-12 0.0 0.01000191169804872 0.009989847980477695 0.0 -7.177801687230996e-12 0.0 0.01 0.0 -7.177801687230996e-12 0.0 0.010001899491072913 0.009990081775215006 0.0 -4.01221163700159e-12 0.0 0.01 0.0 -4.012211637001176e-12 0.0 0.010001890185785312 0.009990267227490668 0.0 -1.7508922158267682e-12 0.0 0.01 0.0 -1.7508922158263547e-12 0.0 0.010001867723128178 0.009990406822037733 0.0 -6.073882071172652e-13 0.0 0.01 0.0 -6.073882071172652e-13 0.0 0.01000183595548614 0.009990503544548592 0.0 -1.6920257831603823e-13 0.0 0.01 0.0 -1.6920257831603823e-13 0.0 0.010001806139203014 0.009990560881383842 0.0 -3.433364827241189e-14 0.0 0.01 0.0 -3.433364827241189e-14 0.0 0.010001782226336414 0.009988966288321612 0.0 -3.994103728108571e-12 0.0 0.01 0.0 -3.994103728108571e-12 0.0 0.010002830301137392 0.009989365488012542 0.0 -5.3187408211040505e-12 0.0 0.01 0.0 -5.3187408211040505e-12 0.0 0.010002646550263629 0.00998969794175645 0.0 -1.0693368112972318e-11 0.0 0.01 0.0 -1.0693368112970664e-11 0.0 0.010002563985766448 0.009989976091978867 0.0 -1.0127692396769983e-11 0.0 0.01 0.0 -1.0127692396769983e-11 0.0 0.010002534162971914 0.009990202916257579 0.0 -6.309263075695088e-12 0.0 0.01 0.0 -6.309263075695088e-12 0.0 0.010002508743753592 0.009990383888246152 0.0 -2.7900463478099942e-12 0.0 0.01 0.0 -2.7900463478095806e-12 0.0 0.010002465761697369 0.009990523487683667 0.0 -8.707000878032925e-13 0.0 0.01 0.0 -8.707000878032925e-13 0.0 0.01000240907026339 0.009990620213583105 0.0 -1.8323290870499822e-13 0.0 0.01 0.0 -1.8323290870499822e-13 0.0 0.010002354331170372 0.009990679048236271 0.0 -2.3033494016043127e-14 0.0 0.01 0.0 -2.3033494016043127e-14 0.0 0.010002316254506777 0.009990035912266626 0.0 1.6076345228498267e-11 0.0 0.01 0.0 1.6076345228498267e-11 0.0 0.010003839610259468 0.009990373418524243 0.0 1.3832610411668339e-11 0.0 0.01 0.0 1.3832610411669994e-11 0.0 0.010003580522103135 0.00999066259437264 0.0 -2.145407289454102e-12 0.0 0.01 0.0 -2.1454072894543086e-12 0.0 0.010003431965950431 0.009990907914950815 0.0 -8.43307619561791e-12 0.0 0.01 0.0 -8.433076195617082e-12 0.0 0.010003350332957824 0.00999111335990741 0.0 -6.566449155235611e-12 0.0 0.01 0.0 -6.566449155235611e-12 0.0 0.01000327896203401 0.009991279420554094 0.0 -2.714035844234769e-12 0.0 0.01 0.0 -2.7140358442351825e-12 0.0 0.01000319342904729 0.00999141008069711 0.0 -4.3937874090509643e-13 0.0 0.01 0.0 -4.3937874090509643e-13 0.0 0.010003096637781178 0.009991503341262522 0.0 1.6503018033646106e-13 0.0 0.01 0.0 1.6503018033646106e-13 0.0 0.010003004303333656 0.009991559697843298 0.0 8.381899880563093e-14 0.0 0.01 0.0 8.381899880563093e-14 0.0 0.010002941247131499 0.009992354776362402 0.0 4.9626297779055234e-11 0.0 0.01 0.0 4.9626297779055234e-11 0.0 0.010005156836203002 0.009992578769381612 0.0 5.092740822494629e-11 0.0 0.01 0.0 5.092740822494629e-11 0.0 0.010004791541631832 0.009992786812024946 0.0 2.045527169075342e-11 0.0 0.01 0.0 2.045527169075011e-11 0.0 0.010004536785496895 0.009992971916043621 0.0 2.1923162041392703e-12 0.0 0.01 0.0 2.1923162041388567e-12 0.0 0.010004363203971947 0.009993136073496283 0.0 -1.6943034572579773e-12 0.0 0.01 0.0 -1.6943034572583909e-12 0.0 0.01000421456288461 0.009993272295396701 0.0 2.830834005386634e-13 0.0 0.01 0.0 2.830834005386634e-13 0.0 0.010004060071288975 0.009993381077324929 0.0 1.6207327536486756e-12 0.0 0.01 0.0 1.6207327536486756e-12 0.0 0.010003900731169081 0.009993460919532748 0.0 1.2408571829146144e-12 0.0 0.01 0.0 1.2408571829148212e-12 0.0 0.010003756515651782 0.009993509823830082 0.0 3.838612287638574e-13 0.0 0.01 0.0 3.838612287638574e-13 0.0 0.01000366020858876 0.009996202664059694 0.0 7.990251094868343e-11 0.0 0.01 0.0 7.99025109486702e-11 0.0 0.01000673680156452 0.009996261597393532 0.0 9.521959945276283e-11 0.0 0.01 0.0 9.521959945276283e-11 0.0 0.010006251958163551 0.009996348001538497 0.0 5.3192184659590376e-11 0.0 0.01 0.0 5.3192184659590376e-11 0.0 0.010005862551399429 0.009996442399379264 0.0 2.193184879313761e-11 0.0 0.01 0.0 2.1931848793140918e-11 0.0 0.010005568147189142 0.009996535800933092 0.0 9.728470297101495e-12 0.0 0.01 0.0 9.728470297101495e-12 0.0 0.010005313782443742 0.009996619714722096 0.0 7.323779090983739e-12 0.0 0.01 0.0 7.323779090982084e-12 0.0 0.010005062942413922 0.00999669114300504 0.0 5.85261361022997e-12 0.0 0.01 0.0 5.8526136102291425e-12 0.0 0.010004818430354598 0.00999674508985597 0.0 3.2702670480131407e-12 0.0 0.01 0.0 3.270267048013968e-12 0.0 0.010004606681272765 0.009996777558289104 0.0 9.095196350664033e-13 0.0 0.01 0.0 9.095196350668169e-13 0.0 0.010004463937232302 0.010001590229243951 0.0 8.07217952013663e-11 0.0 0.01 0.0 8.072179520137954e-11 0.0 0.010008465838440905 0.010001451465951869 0.0 1.2157805836963316e-10 0.0 0.01 0.0 1.2157805836963316e-10 0.0 0.01000787158453129 0.010001381636285084 0.0 8.02586211221606e-11 0.0 0.01 0.0 8.025862112218708e-11 0.0 0.010007349895210264 0.010001353324673586 0.0 4.2917809562855785e-11 0.0 0.01 0.0 4.291780956284255e-11 0.0 0.010006917320784965 0.010001348922889862 0.0 2.4199533413957354e-11 0.0 0.01 0.0 2.4199533413950737e-11 0.0 0.010006537655557082 0.010001356225852402 0.0 1.6638820828795034e-11 0.0 0.01 0.0 1.663882082880827e-11 0.0 0.01000617271065325 0.010001368430839205 0.0 1.1239971384248834e-11 0.0 0.01 0.0 1.1239971384248834e-11 0.0 0.010005828341477818 0.010001380635870685 0.0 5.7293002096107974e-12 0.0 0.01 0.0 5.7293002096107974e-12 0.0 0.01000553389020407 0.010001389939736179 0.0 1.5201812677545703e-12 0.0 0.01 0.0 1.5201812677537432e-12 0.0 0.010005338722252047 0.010008074719645611 0.0 4.405668669936602e-11 0.0 0.01 0.0 4.405668669939249e-11 0.0 0.010010179572484307 0.010007735015322459 0.0 1.1003262950395696e-10 0.0 0.01 0.0 1.1003262950406284e-10 0.0 0.01000950964783091 0.010007489856296655 0.0 8.38436778735348e-11 0.0 0.01 0.0 8.384367787364067e-11 0.0 0.010008879512875627 0.010007315168932688 0.0 5.243772543888257e-11 0.0 0.01 0.0 5.243772543898845e-11 0.0 0.01000832533515203 0.01000718839352798 0.0 3.348617656033899e-11 0.0 0.01 0.0 3.348617656033899e-11 0.0 0.010007820213805918 0.010007097398816476 0.0 2.310705064565234e-11 0.0 0.01 0.0 2.310705064565234e-11 0.0 0.010007335212916035 0.010007032311060503 0.0 1.4823613716964527e-11 0.0 0.01 0.0 1.4823613716964527e-11 0.0 0.010006879141883775 0.010006988769614032 0.0 7.23550980849789e-12 0.0 0.01 0.0 7.23550980847142e-12 0.0 0.010006497527197171 0.01000696527049644 0.0 1.8956548783634467e-12 0.0 0.01 0.0 1.8956548783634467e-12 0.0 0.01000624314165971 0.0100146958819814 0.0 -3.897918666698792e-12 0.0 0.01 0.0 -3.8979186666954835e-12 0.0 0.010011690869553946 0.0100141760873417 0.0 6.714458563332824e-11 0.0 0.01 0.0 6.71445856332753e-11 0.0 0.010011002030101798 0.010013761755852484 0.0 6.070245726879831e-11 0.0 0.01 0.0 6.070245726877184e-11 0.0 0.01001031278111038 0.010013432767491672 0.0 4.351447542217041e-11 0.0 0.01 0.0 4.3514475422183645e-11 0.0 0.010009668303360197 0.010013172481503225 0.0 3.08567638944028e-11 0.0 0.01 0.0 3.0856763894416033e-11 0.0 0.010009058694140632 0.010012968031931782 0.0 2.201010491143125e-11 0.0 0.01 0.0 2.2010104911444486e-11 0.0 0.010008462880943602 0.010012815593887817 0.0 1.3942778228216798e-11 0.0 0.01 0.0 1.3942778228216798e-11 0.0 0.010007902908532559 0.010012709739625349 0.0 6.692649235571089e-12 0.0 0.01 0.0 6.6926492355694345e-12 0.0 0.010007434081626097 0.010012645997805637 0.0 1.7241130241973183e-12 0.0 0.01 0.0 1.7241130241969047e-12 0.0 0.010007123303996468 0.010020161408868043 0.0 -3.0854140471873027e-11 0.0 0.01 0.0 -3.0854140471873027e-11 0.0 0.010012870504913044 0.0100195085896281 0.0 2.1268783369451377e-11 0.0 0.01 0.0 2.1268783369448068e-11 0.0 0.010012207868476081 0.01001894676125567 0.0 2.64154093763898e-11 0.0 0.01 0.0 2.64154093763898e-11 0.0 0.010011512048620157 0.010018472911482224 0.0 2.2562831027229658e-11 0.0 0.01 0.0 2.2562831027229658e-11 0.0 0.010010824199163427 0.010018081623800567 0.0 1.8351214650685534e-11 0.0 0.01 0.0 1.8351214650682225e-11 0.0 0.010010142359277809 0.010017765982619702 0.0 1.40522607712021e-11 0.0 0.01 0.0 1.40522607712021e-11 0.0 0.010009461661535131 0.010017526418865455 0.0 9.075710391083809e-12 0.0 0.01 0.0 9.075710391085463e-12 0.0 0.010008816846825417 0.01001735708590828 0.0 4.340710269678733e-12 0.0 0.01 0.0 4.340710269680387e-12 0.0 0.010008275411041498 0.010017256465285824 0.0 1.106827087556157e-12 0.0 0.01 0.0 1.1068270875559502e-12 0.0 0.010007917092137079 0.010023417450465815 0.0 -3.0930537152077475e-11 0.0 0.01 0.0 -3.093053715208409e-11 0.0 0.010013665159539114 0.010022691754331427 0.0 -5.7799587543968806e-12 0.0 0.01 0.0 -5.779958754397708e-12 0.0 0.010013062148457815 0.010022024700020279 0.0 6.8501264222356e-13 0.0 0.01 0.0 6.8501264222356e-13 0.0 0.010012393100330396 0.010021436884507068 0.0 3.542563294900675e-12 0.0 0.01 0.0 3.542563294900675e-12 0.0 0.010011700703979793 0.01002093913396492 0.0 5.0524290003476464e-12 0.0 0.01 0.0 5.052429000345992e-12 0.0 0.010010988786512085 0.010020535231611682 0.0 4.980021928841056e-12 0.0 0.01 0.0 4.980021928841056e-12 0.0 0.01001025846384852 0.010020222326394426 0.0 3.5462867319337554e-12 0.0 0.01 0.0 3.546286731934169e-12 0.0 0.010009555177786168 0.01002000270657484 0.0 1.7304977179012384e-12 0.0 0.01 0.0 1.7304977179014452e-12 0.0 0.010008963687766648 0.010019871575377539 0.0 4.402234536067e-13 0.0 0.01 0.0 4.402234536067e-13 0.0 0.010008571056872754 0.010024274603240622 0.0 -1.801675418859292e-11 0.0 0.01 0.0 -1.8016754188589612e-11 0.0 0.010014117238291381 0.010023536938099995 0.0 -1.1494083330882522e-11 0.0 0.01 0.0 -1.1494083330880868e-11 0.0 0.010013571528046895 0.0100228245065795 0.0 -8.181549202065128e-12 0.0 0.01 0.0 -8.181549202063473e-12 0.0 0.010012945996499245 0.010022176099395704 0.0 -4.710255502488312e-12 0.0 0.01 0.0 -4.710255502488312e-12 0.0 0.010012277473496806 0.010021613822199588 0.0 -1.844234769178364e-12 0.0 0.01 0.0 -1.8442347691787775e-12 0.0 0.010011563476218005 0.010021153833882194 0.0 -2.586101474635233e-13 0.0 0.01 0.0 -2.58610147463575e-13 0.0 0.01001081341423502 0.010020797098459235 0.0 2.1000382272689142e-13 0.0 0.01 0.0 2.1000382272691727e-13 0.0 0.01001008212692147 0.010020545544903205 0.0 1.5927767560883075e-13 0.0 0.01 0.0 1.5927767560883075e-13 0.0 0.010009462162955762 0.010020394722475663 0.0 3.768769701858934e-14 0.0 0.01 0.0 3.768769701858934e-14 0.0 0.010009049368857003 0.010023378578882344 0.0 -6.139443051720049e-12 0.0 0.01 0.0 -6.1394430517192215e-12 0.0 0.01001430553881853 0.010022673581225962 0.0 -6.536805523630965e-12 0.0 0.01 0.0 -6.536805523630965e-12 0.0 0.010013800013585167 0.010021964756219573 0.0 -5.786818036666692e-12 0.0 0.01 0.0 -5.786818036666692e-12 0.0 0.010013215601732853 0.0100213037345056 0.0 -4.102926975067129e-12 0.0 0.01 0.0 -4.102926975067129e-12 0.0 0.010012577890765607 0.010020721932272053 0.0 -2.427464324470689e-12 0.0 0.01 0.0 -2.427464324470689e-12 0.0 0.01001188099019703 0.010020243906858146 0.0 -1.2667653563033954e-12 0.0 0.01 0.0 -1.2667653563033954e-12 0.0 0.010011133315044298 0.010019874040013097 0.0 -6.126135159313029e-13 0.0 0.01 0.0 -6.126135159313029e-13 0.0 0.010010395587797349 0.010019612245522017 0.0 -2.573349443215171e-13 0.0 0.01 0.0 -2.573349443215171e-13 0.0 0.01000976623830435 0.010019455078091889 0.0 -6.759180505031765e-14 0.0 0.01 0.0 -6.759180505031765e-14 0.0 0.010009345584687163 0.010021639387350968 0.0 -4.0454088000072515e-13 0.0 0.01 0.0 -4.0454088000072515e-13 0.0 0.010014308953432811 0.010020984316911638 0.0 -9.938224883820748e-13 0.0 0.01 0.0 -9.938224883820748e-13 0.0 0.010013817636389073 0.010020306787792225 0.0 -1.1381890784302836e-12 0.0 0.01 0.0 -1.1381890784304904e-12 0.0 0.010013260228494244 0.01001966676548795 0.0 -9.404739463565111e-13 0.0 0.01 0.0 -9.40473946356718e-13 0.0 0.010012650414522397 0.01001910244644015 0.0 -6.461387610328134e-13 0.0 0.01 0.0 -6.461387610328134e-13 0.0 0.010011974574274902 0.010018634960137532 0.0 -3.96994923718099e-13 0.0 0.01 0.0 -3.96994923718099e-13 0.0 0.010011240624379901 0.01001827406947099 0.0 -2.2216677014769532e-13 0.0 0.01 0.0 -2.2216677014759193e-13 0.0 0.010010510196444848 0.010018017326895997 0.0 -1.0174801091219825e-13 0.0 0.01 0.0 -1.0174801091219825e-13 0.0 0.010009886241363918 0.010017864155442452 0.0 -2.685356586413514e-14 0.0 0.01 0.0 -2.685356586413514e-14 0.0 0.010009468029582731 0.010019724203536527 0.0 4.0504227614382616e-13 0.0 0.01 0.0 4.0504227614403295e-13 0.0 0.010014171166476923 0.010019113258180796 0.0 1.5070909791663552e-12 0.0 0.01 0.0 1.5070909791663552e-12 0.0 0.01001367791169891 0.010018478341468075 0.0 1.2363664023996605e-12 0.0 0.01 0.0 1.2363664023988333e-12 0.0 0.01001313126932477 0.010017875465860903 0.0 8.079890710514194e-13 0.0 0.01 0.0 8.079890710516262e-13 0.0 0.010012542608151355 0.010017343867341818 0.0 5.124434639457289e-13 0.0 0.01 0.0 5.124434639453153e-13 0.0 0.010011885907686468 0.01001690456825343 0.0 3.2702011347428994e-13 0.0 0.01 0.0 3.2702011347439333e-13 0.0 0.0100111700376263 0.010016564516769706 0.0 1.9520069896754472e-13 0.0 0.01 0.0 1.9520069896749302e-13 0.0 0.010010456327382391 0.010016322577180634 0.0 9.309694347287524e-14 0.0 0.01 0.0 9.309694347287524e-14 0.0 0.010009843113984002 0.010016179331078586 0.0 2.4645078315272733e-14 0.0 0.01 0.0 2.4645078315272733e-14 0.0 0.010009432779834007 0.010017847969043583 0.0 -1.6243767835134727e-12 0.0 0.01 0.0 -1.6243767835134727e-12 0.0 0.010013907860577704 0.010017265813527576 0.0 1.5324406836223896e-12 0.0 0.01 0.0 1.5324406836223896e-12 0.0 0.010013405809254184 0.010016665116542088 0.0 1.2765164295369522e-12 0.0 0.01 0.0 1.2765164295365386e-12 0.0 0.010012865134233608 0.010016101806901826 0.0 7.578721907445585e-13 0.0 0.01 0.0 7.578721907445585e-13 0.0 0.010012286757621556 0.010015609221253309 0.0 4.998352465245733e-13 0.0 0.01 0.0 4.998352465245733e-13 0.0 0.010011648270768482 0.010015202547479294 0.0 3.891604275442401e-13 0.0 0.01 0.0 3.891604275442401e-13 0.0 0.01001095156428004 0.01001488913706866 0.0 2.836861545543997e-13 0.0 0.01 0.0 2.836861545545031e-13 0.0 0.010010256959227819 0.010014666954947623 0.0 1.5174617966932293e-13 0.0 0.01 0.0 1.5174617966932293e-13 0.0 0.010009659979273219 0.010014536033122072 0.0 4.104369031036643e-14 0.0 0.01 0.0 4.104369031036643e-14 0.0 0.0100092598959895 0.010015864321810423 0.0 -4.6790357605458074e-12 0.0 0.01 0.0 -4.6790357605458074e-12 0.0 0.010013518061375588 0.010015288891189793 0.0 1.1027831620826665e-12 0.0 0.01 0.0 1.1027831620818393e-12 0.0 0.010013009242094695 0.010014715016146687 0.0 8.532396016273469e-13 0.0 0.01 0.0 8.532396016273469e-13 0.0 0.010012472044041786 0.010014189343584943 0.0 2.7989747005164826e-13 0.0 0.01 0.0 2.7989747005144147e-13 0.0 0.010011907484511482 0.010013733338975277 0.0 1.4581572335622555e-13 0.0 0.01 0.0 1.4581572335622555e-13 0.0 0.010011285174570752 0.010013360226733428 0.0 2.3085426374245154e-13 0.0 0.01 0.0 2.3085426374245154e-13 0.0 0.010010608657695604 0.010013075400277825 0.0 2.6121416433333297e-13 0.0 0.01 0.0 2.6121416433333297e-13 0.0 0.010009936189584286 0.010012873466319424 0.0 1.649744780069106e-13 0.0 0.01 0.0 1.649744780069106e-13 0.0 0.010009358821756536 0.010012753857707935 0.0 4.94555969361472e-14 0.0 0.01 0.0 4.94555969361472e-14 0.0 0.010008973514157988 0.010013516605487592 0.0 -6.243274264359724e-12 0.0 0.01 0.0 -6.243274264333254e-12 0.0 0.010012994534877065 0.01001293666034619 0.0 2.452741657979656e-12 0.0 0.01 0.0 2.452741657979656e-12 0.0 0.01001248915795977 0.010012382812190222 0.0 1.7301974833449811e-12 0.0 0.01 0.0 1.7301974833383637e-12 0.0 0.010011962330417918 0.010011890825183155 0.0 6.973499762630087e-13 0.0 0.01 0.0 6.973499762646631e-13 0.0 0.010011413560710837 0.010011474820551146 0.0 3.705773624917778e-13 0.0 0.01 0.0 3.705773624917778e-13 0.0 0.010010812912611284 0.010011138682937484 0.0 4.2828865019695745e-13 0.0 0.01 0.0 4.2828865019695745e-13 0.0 0.010010159511404984 0.010010883943281954 0.0 4.2919964667178754e-13 0.0 0.01 0.0 4.2919964667178754e-13 0.0 0.010009511603399916 0.010010702707706137 0.0 2.6393514625691666e-13 0.0 0.01 0.0 2.6393514625691666e-13 0.0 0.010008959275926889 0.010010596920440344 0.0 7.548208876457457e-14 0.0 0.01 0.0 7.548208876457457e-14 0.0 0.010008589654663414 0.010010704162367113 0.0 -3.697328713727731e-12 0.0 0.01 0.0 -3.69732871373104e-12 0.0 0.010012346578114931 0.010010116380492854 0.0 6.2849415133891615e-12 0.0 0.01 0.0 6.284941513382544e-12 0.0 0.010011853091108417 0.010009588974652522 0.0 4.285828197786059e-12 0.0 0.01 0.0 4.285828197779441e-12 0.0 0.010011345428646653 0.010009139965592216 0.0 2.2293043068937917e-12 0.0 0.01 0.0 2.2293043068937917e-12 0.0 0.010010821239574951 0.010008771778129791 0.0 1.3546668535444541e-12 0.0 0.01 0.0 1.3546668535444541e-12 0.0 0.01001024522320959 0.010008480024438977 0.0 1.094006232800618e-12 0.0 0.01 0.0 1.094006232800618e-12 0.0 0.010009623223161571 0.010008259722193168 0.0 8.540823609451392e-13 0.0 0.01 0.0 8.540823609451392e-13 0.0 0.010009005801076169 0.010008106546771258 0.0 4.76591326600721e-13 0.0 0.01 0.0 4.76591326600721e-13 0.0 0.010008481478131236 0.010008015476891232 0.0 1.3057891900788529e-13 0.0 0.01 0.0 1.3057891900788529e-13 0.0 0.010008130003807828 0.010007605818479872 0.0 2.148307978295058e-12 0.0 0.01 0.0 2.148307978295058e-12 0.0 0.01001158991783778 0.010007026448715265 0.0 1.054481415562095e-11 0.0 0.01 0.0 1.0544814155624258e-11 0.0 0.01001112057260345 0.010006542064195345 0.0 6.81164853555449e-12 0.0 0.01 0.0 6.811648535551181e-12 0.0 0.010010641963636187 0.010006151671807522 0.0 3.8194108469698244e-12 0.0 0.01 0.0 3.819410846966516e-12 0.0 0.010010148227100871 0.01000584592222826 0.0 2.412712626663718e-12 0.0 0.01 0.0 2.4127126266628907e-12 0.0 0.010009607578118217 0.010005612120852376 0.0 1.8011898045995295e-12 0.0 0.01 0.0 1.8011898046003567e-12 0.0 0.0100090214934334 0.01000543898416652 0.0 1.2736415435289688e-12 0.0 0.01 0.0 1.2736415435289688e-12 0.0 0.010008438419032553 0.01000531919106103 0.0 6.684831489876806e-13 0.0 0.01 0.0 6.684831489876806e-13 0.0 0.010007945509646307 0.010005250231847623 0.0 1.840770450941009e-13 0.0 0.01 0.0 1.840770450942043e-13 0.0 0.010007617094188095 0.010004603777264373 0.0 6.420333284912559e-12 0.0 0.01 0.0 6.420333284910905e-12 0.0 0.010010758035430703 0.010004053263010015 0.0 1.1461753605660458e-11 0.0 0.01 0.0 1.1461753605663766e-11 0.0 0.010010319652332086 0.01000363037598797 0.0 7.0200502491851175e-12 0.0 0.01 0.0 7.0200502491851175e-12 0.0 0.010009877415250102 0.010003313145813217 0.0 4.035031400267374e-12 0.0 0.01 0.0 4.035031400267374e-12 0.0 0.010009421999402007 0.010003081974199487 0.0 2.6485999190146283e-12 0.0 0.01 0.0 2.6485999190154555e-12 0.0 0.01000891866722127 0.010002912421836247 0.0 1.9644725132453126e-12 0.0 0.01 0.0 1.9644725132461398e-12 0.0 0.010008374257495142 0.010002793670253108 0.0 1.3625923306387015e-12 0.0 0.01 0.0 1.362592330639115e-12 0.0 0.010007832442472706 0.010002713003659089 0.0 6.99999575524832e-13 0.0 0.01 0.0 6.99999575524832e-13 0.0 0.01000737384803375 0.010002666115847159 0.0 1.8665883229574034e-13 0.0 0.01 0.0 1.8665883229574034e-13 0.0 0.010007069489592369 0.010002063138305362 0.0 5.3388978093887146e-12 0.0 0.01 0.0 5.338897809387887e-12 0.0 0.010009891105766172 0.010001554062191347 0.0 7.51888589998976e-12 0.0 0.01 0.0 7.518885899991415e-12 0.0 0.010009486130949772 0.010001197014892401 0.0 4.351628586546353e-12 0.0 0.01 0.0 4.35162858654718e-12 0.0 0.01000908416332764 0.010000956187126592 0.0 2.6209112180088293e-12 0.0 0.01 0.0 2.6209112180088293e-12 0.0 0.010008666503237321 0.010000796945258138 0.0 1.881669202763111e-12 0.0 0.01 0.0 1.881669202763111e-12 0.0 0.010008207844258404 0.010000691971817122 0.0 1.4918586517065363e-12 0.0 0.01 0.0 1.4918586517069499e-12 0.0 0.010007707150878889 0.010000622608141309 0.0 1.0517357707049456e-12 0.0 0.01 0.0 1.0517357707049456e-12 0.0 0.010007209939996044 0.010000579150308378 0.0 5.407959561810889e-13 0.0 0.01 0.0 5.407959561810889e-13 0.0 0.010006787153570272 0.010000556696483198 0.0 1.4512371226046479e-13 0.0 0.01 0.0 1.4512371226046479e-13 0.0 0.010006509300136617 0.010000181154922452 0.0 1.3758363647102907e-12 0.0 0.01 0.0 1.3758363647102907e-12 0.0 0.010009020992078996 0.009999704013141755 0.0 1.7228445613490446e-12 0.0 0.01 0.0 1.7228445613490446e-12 0.0 0.010008651363978379 0.009999402053635253 0.0 8.430181567948682e-13 0.0 0.01 0.0 8.43018156795075e-13 0.0 0.010008285686525273 0.009999220091248139 0.0 7.04080194881049e-13 0.0 0.01 0.0 7.04080194881049e-13 0.0 0.010007909273605573 0.009999117616803757 0.0 7.357569361861584e-13 0.0 0.01 0.0 7.357569361863652e-13 0.0 0.010007496220581587 0.009999062131955975 0.0 7.275253040578346e-13 0.0 0.01 0.0 7.275253040580414e-13 0.0 0.010007041129650522 0.009999033640095772 0.0 5.606068648207394e-13 0.0 0.01 0.0 5.606068648207394e-13 0.0 0.010006590509501888 0.009999021143742695 0.0 2.998331094870109e-13 0.0 0.01 0.0 2.998331094870109e-13 0.0 0.010006207425038846 0.009999014145805441 0.0 7.960437044314913e-14 0.0 0.01 0.0 7.960437044314913e-14 0.0 0.010005954514216582 0.009998956163461956 0.0 1.1854391559624673e-11 0.0 0.01 0.0 1.1854391559623019e-11 0.0 0.010008189248596077 0.009998498338315912 0.0 -5.793614256159604e-13 0.0 0.01 0.0 -5.793614256157537e-13 0.0 0.010007845172361978 0.009998222973785583 0.0 -3.747616829163035e-13 0.0 0.01 0.0 -3.747616829164069e-13 0.0 0.010007511855726847 0.009998074556242853 0.0 -1.5712775824728845e-13 0.0 0.01 0.0 -1.5712775824728845e-13 0.0 0.010007172258822099 0.009998006596207263 0.0 -6.247184464718631e-14 0.0 0.01 0.0 -6.247184464718631e-14 0.0 0.010006799879471158 0.009997980611854012 0.0 5.374513032885771e-14 0.0 0.01 0.0 5.374513032885771e-14 0.0 0.010006394327889597 0.009997976614279187 0.0 1.0816841449143149e-13 0.0 0.01 0.0 1.0816841449143149e-13 0.0 0.010005992181636201 0.009997980611854012 0.0 6.66832752389051e-14 0.0 0.01 0.0 6.66832752389051e-14 0.0 0.010005650285253274 0.009997986108527228 0.0 2.1899809368061183e-14 0.0 0.01 0.0 2.1899809368061183e-14 0.0 0.010005421906374705 0.009998276445698388 0.0 5.486001075023962e-10 0.0 0.01 0.0 5.486001075023962e-10 0.0 0.010007427216344813 0.009997820212927956 0.0 1.9617035559177513e-11 0.0 0.01 0.0 1.9617035559170895e-11 0.0 0.010007095444662129 0.00999754340552506 0.0 3.107821854797645e-12 0.0 0.01 0.0 3.1078218547968178e-12 0.0 0.010006783746644422 0.009997400014340442 0.0 1.1134992611956622e-12 0.0 0.01 0.0 1.1134992611956622e-12 0.0 0.0100064725787224 0.009997335565260305 0.0 -1.6581545402209867e-13 0.0 0.01 0.0 -1.6581545402204698e-13 0.0 0.010006136493865501 0.00999731608090006 0.0 -4.621396950922681e-13 0.0 0.01 0.0 -4.621396950923715e-13 0.0 0.010005777452990335 0.009997320577280776 0.0 -3.1587084512103473e-13 0.0 0.01 0.0 -3.1587084512113813e-13 0.0 0.010005423358734833 0.00999733256765901 0.0 -1.33734603156322e-13 0.0 0.01 0.0 -1.33734603156322e-13 0.0 0.010005122583442473 0.009997343558876954 0.0 -2.9037940860818336e-14 0.0 0.01 0.0 -2.9037940860818336e-14 0.0 0.010004922081649697 0.00999798061185607 0.0 3.7064340594455196e-09 0.0 0.01 0.0 3.7064340594446726e-09 0.0 0.010006766611866252 0.009997528416610746 0.0 3.3024202333150403e-10 0.0 0.01 0.0 3.3024202333150403e-10 0.0 0.010006426589854355 0.00999722515539185 0.0 1.2516263636320881e-11 0.0 0.01 0.0 1.2516263636319227e-11 0.0 0.010006116457084125 0.009997054801640141 0.0 5.176773221544708e-12 0.0 0.01 0.0 5.176773221545535e-12 0.0 0.010005820026967151 0.009996971875985798 0.0 5.89913963928602e-13 0.0 0.01 0.0 5.899139639287054e-13 0.0 0.010005515309442688 0.009996943401990071 0.0 -9.08280561371437e-13 0.0 0.01 0.0 -9.082805613716438e-13 0.0 0.010005199352180182 0.00999694240290692 0.0 -8.346288808585804e-13 0.0 0.01 0.0 -8.346288808587872e-13 0.0 0.010004892237758158 0.009996951394666062 0.0 -4.034947188037518e-13 0.0 0.01 0.0 -4.034947188037518e-13 0.0 0.010004630664473258 0.009996959886905313 0.0 -9.694263286429052e-14 0.0 0.01 0.0 -9.694263286429052e-14 0.0 0.010004459030670994 0.009997931142231896 0.0 1.387754675534635e-08 0.0 0.01 0.0 1.3877546755342962e-08 0.0 0.010006223104266554 0.009997507432244552 0.0 2.0515529424833565e-09 0.0 0.01 0.0 2.0515529424842036e-09 0.0 0.01000585523856156 0.009997172199920402 0.0 5.822459255475415e-11 0.0 0.01 0.0 5.822459255475415e-11 0.0 0.010005527028832692 0.009996952893294947 0.0 1.3289223253970437e-11 0.0 0.01 0.0 1.3289223253977055e-11 0.0 0.010005228197250686 0.00999683250558897 0.0 3.1220192394270602e-12 0.0 0.01 0.0 3.1220192394278874e-12 0.0 0.010004941159847808 0.00999677506070609 0.0 -9.077168143497486e-13 0.0 0.01 0.0 -9.077168143497486e-13 0.0 0.010004660956653578 0.009996755579622851 0.0 -1.3822187304165336e-12 0.0 0.01 0.0 -1.38221873041612e-12 0.0 0.010004398900847835 0.009996754081082703 0.0 -7.573733336832194e-13 0.0 0.01 0.0 -7.573733336832194e-13 0.0 0.010004179869236235 0.009996759076219148 0.0 -1.942854924773709e-13 0.0 0.01 0.0 -1.9428549247726751e-13 0.0 0.010004035141041116 0.009998037578035817 0.0 3.827007823077773e-08 0.0 0.01 0.0 3.827007823077095e-08 0.0 0.010005800443090108 0.009997685303932042 0.0 8.661918682898869e-09 0.0 0.01 0.0 8.661918682900563e-09 0.0 0.010005397917494715 0.009997336064860852 0.0 6.748499183761825e-10 0.0 0.01 0.0 6.748499183761825e-10 0.0 0.010005033598017285 0.00999705779899159 0.0 2.75181476029329e-11 0.0 0.01 0.0 2.7518147602939518e-11 0.0 0.010004712779451313 0.009996877463144607 0.0 9.693045425332563e-12 0.0 0.01 0.0 9.693045425332563e-12 0.0 0.01000442823966024 0.009996777058772353 0.0 1.0038347750452535e-12 0.0 0.01 0.0 1.0038347750452535e-12 0.0 0.010004171058208404 0.009996729605022351 0.0 -1.283070544520017e-12 0.0 0.01 0.0 -1.283070544520017e-12 0.0 0.010003944232318686 0.00999670912519164 0.0 -9.705026438154439e-13 0.0 0.01 0.0 -9.705026438154439e-13 0.0 0.010003762372252086 0.009996703131118657 0.0 -2.794431135989814e-13 0.0 0.01 0.0 -2.794431135990331e-13 0.0 0.010003642589302334 0.009998239965872026 0.0 8.583818196122612e-08 0.0 0.01 0.0 8.583818196123967e-08 0.0 0.010005481554928662 0.009998014091842715 0.0 2.7248179465644393e-08 0.0 0.01 0.0 2.724817946565117e-08 0.0 0.010005054629922582 0.00999769679596 0.0 4.649030062298539e-09 0.0 0.01 0.0 4.649030062298539e-09 0.0 0.010004649240309816 0.009997370537474714 0.0 2.6979510875096965e-10 0.0 0.01 0.0 2.6979510875096965e-10 0.0 0.010004292812654754 0.009997118745722488 0.0 2.3097132597449992e-11 0.0 0.01 0.0 2.3097132597449992e-11 0.0 0.010003990186968837 0.009996955391011248 0.0 7.319158959244158e-12 0.0 0.01 0.0 7.319158959245812e-12 0.0 0.010003737944790632 0.009996859480049572 0.0 9.288321923151123e-13 0.0 0.01 0.0 9.288321923151123e-13 0.0 0.010003534573098279 0.009996811026082067 0.0 -4.3003533288334686e-13 0.0 0.01 0.0 -4.3003533288334686e-13 0.0 0.010003378661532017 0.009996789047195066 0.0 -2.091636659096094e-13 0.0 0.01 0.0 -2.091636659096094e-13 0.0 0.010003280913953404 0.009998491345603471 0.0 1.659375908922905e-07 0.0 0.01 0.0 1.6593759089234472e-07 0.0 0.010005241922909885 0.009998433868723643 0.0 6.985162969799807e-08 0.0 0.01 0.0 6.985162969798452e-08 0.0 0.010004810619815337 0.009998206482681278 0.0 2.0036652952913115e-08 0.0 0.01 0.0 2.0036652952913115e-08 0.0 0.01000437737259217 0.009997887169798053 0.0 3.3118205877601117e-09 0.0 0.01 0.0 3.3118205877609588e-09 0.0 0.01000397892351725 0.009997575382100965 0.0 2.4180886461756444e-10 0.0 0.01 0.0 2.418088646176174e-10 0.0 0.010003645542528515 0.009997334566059578 0.0 2.0062915462425695e-11 0.0 0.01 0.0 2.0062915462432312e-11 0.0 0.01000338011300255 0.009997174697801087 0.0 7.092331175437363e-12 0.0 0.01 0.0 7.092331175437363e-12 0.0 0.010003177764086152 0.009997081278337892 0.0 1.7961177866903127e-12 0.0 0.01 0.0 1.7961177866898991e-12 0.0 0.010003036032064126 0.009997032821145219 0.0 2.6107063634060195e-13 0.0 0.01 0.0 2.6107063634060195e-13 0.0 0.010002950505308717 0.00999874025001216 0.0 2.8202445284192723e-07 0.0 0.01 0.0 2.8202445284198144e-07 0.0 0.010005038016602498 0.00999886769571021 0.0 1.497838286863254e-07 0.0 0.01 0.0 1.497838286863254e-07 0.0 0.010004631619160051 0.009998792219415607 0.0 6.166639280839198e-08 0.0 0.01 0.0 6.166639280840553e-08 0.0 0.010004196991302457 0.009998550815133752 0.0 1.8683766525034334e-08 0.0 0.01 0.0 1.8683766525034334e-08 0.0 0.010003774586102295 0.009998241463978421 0.0 3.908674359685759e-09 0.0 0.01 0.0 3.908674359685759e-09 0.0 0.010003405538866944 0.009997949131082103 0.0 4.985759783267104e-10 0.0 0.01 0.0 4.985759783267104e-10 0.0 0.010003112802828259 0.009997721778780352 0.0 3.6769572126059745e-11 0.0 0.01 0.0 3.676957212604651e-11 0.0 0.010002897258629915 0.009997569886105138 0.0 6.36265704077855e-12 0.0 0.01 0.0 6.36265704077855e-12 0.0 0.01000275063448243 0.009997487946878774 0.0 1.3531631889117643e-12 0.0 0.01 0.0 1.3531631889117643e-12 0.0 0.010002666115847159 0.009998983681877675 0.0 4.237249552967951e-07 0.0 0.01 0.0 4.2372495529690354e-07 0.0 0.010004854159043071 0.009999236098573856 0.0 2.712620567463502e-07 0.0 0.01 0.0 2.7126205674645864e-07 0.0 0.010004474712692535 0.009999349566598842 0.0 1.4456718875987097e-07 0.0 0.01 0.0 1.4456718875992518e-07 0.0 0.01000406938576982 0.009999264081843344 0.0 6.320394932435042e-08 0.0 0.01 0.0 6.320394932432332e-08 0.0 0.01000365435276723 0.00999904213771817 0.0 2.2447285761665887e-08 0.0 0.01 0.0 2.2447285761672663e-08 0.0 0.010003271154443464 0.009998771226525812 0.0 6.3592528160616625e-09 0.0 0.01 0.0 6.3592528160599684e-09 0.0 0.010002953457928057 0.009998523826927652 0.0 1.3282508365188107e-09 0.0 0.01 0.0 1.3282508365179636e-09 0.0 0.010002712553293028 0.009998336415219255 0.0 1.8714844879493562e-10 0.0 0.01 0.0 1.8714844879493562e-10 0.0 0.01000254782337993 0.009998221474585442 0.0 9.680733280897807e-12 0.0 0.01 0.0 9.680733280897807e-12 0.0 0.01000245355269281 0.009999407600920619 0.0 5.674440401630745e-07 0.0 0.01 0.0 5.674440401630745e-07 0.0 0.010004750481159461 0.009999538558204112 0.0 4.185276208024851e-07 0.0 0.01 0.0 4.185276208025935e-07 0.0 0.01000433294077637 0.009999785517802652 0.0 2.696564028150305e-07 0.0 0.01 0.0 2.6965640281513895e-07 0.0 0.010003954505376713 0.009999907504673075 0.0 1.5036135642717934e-07 0.0 0.01 0.0 1.5036135642717934e-07 0.0 0.010003575169750369 0.009999859503739647 0.0 7.2065597105759e-08 0.0 0.01 0.0 7.2065597105759e-08 0.0 0.010003210045776159 0.00999970151349355 0.0 2.9317360099418116e-08 0.0 0.01 0.0 2.931736009939101e-08 0.0 0.01000288945198645 0.009999510036026137 0.0 9.689545837637413e-09 0.0 0.01 0.0 9.689545837630637e-09 0.0 0.010002633840215913 0.009999340565234712 0.0 2.3769791335743416e-09 0.0 0.01 0.0 2.3769791335743416e-09 0.0 0.010002451100890753 0.009999227089617821 0.0 3.1779863273996276e-10 0.0 0.01 0.0 3.177986327401745e-10 0.0 0.01000234067155511 0.01000032232890084 0.0 6.499370091307948e-07 0.0 0.01 0.0 6.499370091307948e-07 0.0 0.01000475590392287 0.010000064498100841 0.0 5.627601002901762e-07 0.0 0.01 0.0 5.627601002899593e-07 0.0 0.010004293360810209 0.01000014357870006 0.0 4.132964468639075e-07 0.0 0.01 0.0 4.132964468639075e-07 0.0 0.01000387092204131 0.010000377982335691 0.0 2.697205965247317e-07 0.0 0.01 0.0 2.697205965246233e-07 0.0 0.010003509157165356 0.010000547398571568 0.0 1.5556654755566942e-07 0.0 0.01 0.0 1.5556654755566942e-07 0.0 0.010003187577076439 0.010000583051885711 0.0 7.736219635170669e-08 0.0 0.01 0.0 7.73621963517609e-08 0.0 0.01000289775996242 0.010000526391712793 0.0 3.189075858291558e-08 0.0 0.01 0.0 3.189075858291558e-08 0.0 0.010002652405067248 0.010000438978918879 0.0 1.0068113118106854e-08 0.0 0.01 0.0 1.0068113118106854e-08 0.0 0.010002464310640016 0.010000366220117119 0.0 1.8653575037859166e-09 0.0 0.01 0.0 1.8653575037859166e-09 0.0 0.010002346025317573 0.010001728987967626 0.0 5.144884340879501e-07 0.0 0.01 0.0 5.144884340879501e-07 0.0 0.01000480034392912 0.010001215629525318 0.0 6.215594344988543e-07 0.0 0.01 0.0 6.215594344986374e-07 0.0 0.010004361309368383 0.010000892262452939 0.0 5.359106684595539e-07 0.0 0.01 0.0 5.359106684595539e-07 0.0 0.010003917393724247 0.01000085218163855 0.0 3.8931351983482153e-07 0.0 0.01 0.0 3.8931351983482153e-07 0.0 0.010003529240162425 0.01000102801781767 0.0 2.4930364378320316e-07 0.0 0.01 0.0 2.4930364378320316e-07 0.0 0.01000321345759665 0.010001238532972991 0.0 1.3948734224784876e-07 0.0 0.01 0.0 1.3948734224774034e-07 0.0 0.010002957364299151 0.010001369932096901 0.0 6.540581236851159e-08 0.0 0.01 0.0 6.540581236851159e-08 0.0 0.010002743829518164 0.010001420702786512 0.0 2.3727775563456418e-08 0.0 0.01 0.0 2.3727775563456418e-08 0.0 0.010002573743366749 0.010001430506897703 0.0 4.994598033647587e-09 0.0 0.01 0.0 4.994598033634034e-09 0.0 0.01000246235918715 0.010002598662608126 0.0 3.5514386937187965e-09 0.0 0.01 0.0 3.5514386937154083e-09 0.0 0.01000468739369224 0.010002490704108372 0.0 3.992175171526127e-07 0.0 0.01 0.0 3.9921751715217904e-07 0.0 0.010004416998629112 0.010002273766039349 0.0 5.216599478848234e-07 0.0 0.01 0.0 5.216599478848234e-07 0.0 0.010004053754369965 0.010002044108601615 0.0 4.6223091100050864e-07 0.0 0.01 0.0 4.6223091100050864e-07 0.0 0.010003690574054026 0.010001852080438038 0.0 3.271077233693402e-07 0.0 0.01 0.0 3.271077233693402e-07 0.0 0.010003377226109882 0.010001827156317034 0.0 1.944066542660522e-07 0.0 0.01 0.0 1.9440665426583535e-07 0.0 0.010003120115323685 0.010001941466646359 0.0 9.661054919756461e-08 0.0 0.01 0.0 9.661054919734777e-08 0.0 0.010002914374940894 0.010002074395498474 0.0 3.738489712430421e-08 0.0 0.01 0.0 3.738489712430421e-08 0.0 0.01000276139358263 0.010002161850848217 0.0 8.318700021062381e-09 0.0 0.01 0.0 8.318700021062381e-09 0.0 0.010002659760783291 0.010002597715510125 0.0 -1.559132708730442e-07 0.0 0.01 0.0 -1.559132708730442e-07 0.0 0.010004310388958009 0.010003026278696535 0.0 1.9154989713680327e-07 0.0 0.01 0.0 1.9154989713680327e-07 0.0 0.010004146132633042 0.010003282882715922 0.0 3.351507573585988e-07 0.0 0.01 0.0 3.351507573577314e-07 0.0 0.010003903200881861 0.010003376223722915 0.0 3.128322402685957e-07 0.0 0.01 0.0 3.128322402677283e-07 0.0 0.010003628939083265 0.010003384023786496 0.0 2.133523973237711e-07 0.0 0.01 0.0 2.1335239732463845e-07 0.0 0.010003365004545291 0.010003365950575408 0.0 1.1245126952524886e-07 0.0 0.01 0.0 1.1245126952524886e-07 0.0 0.0100031489386423 0.010003392826206353 0.0 4.450294959737651e-08 0.0 0.01 0.0 4.450294959737651e-08 0.0 0.010002993543956194 0.01000342901292847 0.0 1.0024115190389532e-08 0.0 0.01 0.0 1.0024115190416637e-08 0.0 0.010002898209471074 0.010002901162748913 0.0 -6.958287630213101e-08 0.0 0.01 0.0 -6.958287630202259e-08 0.0 0.01000408405128473 0.01000359909299077 0.0 7.761240809235626e-08 0.0 0.01 0.0 7.761240809235626e-08 0.0 0.010003927113023977 0.010004107030420123 0.0 1.0496726659744993e-07 0.0 0.01 0.0 1.0496726659831729e-07 0.0 0.01000365580541044 0.010004671221737153 0.0 6.97076966200581e-08 0.0 0.01 0.0 6.970769661984125e-08 0.0 0.01000339773163062 0.010005104005107183 0.0 2.9975841377670454e-08 0.0 0.01 0.0 2.997584137764335e-08 0.0 0.010003230064458305 0.010005354397374811 0.0 6.952910592460332e-09 0.0 0.01 0.0 6.952910592460332e-09 0.0 0.010003139678025207 0.010002607972565636 0.0 -1.3405115928660088e-07 0.0 0.01 0.0 -1.3405115928660088e-07 0.0 0.010004003856038059 0.01000328236567571 0.0 -4.430465363482704e-08 0.0 0.01 0.0 -4.430465363504388e-08 0.0 0.01000367782826263 0.010003953493297017 0.0 -1.0300827178754725e-08 0.0 0.01 0.0 -1.030082717872762e-08 0.0 0.010003459294195771 0.010004394995701448 0.0 -1.4333601136773199e-09 0.0 0.01 0.0 -1.4333601136756258e-09 0.0 0.010003358641313605 0.009999878502214293 0.0 -7.821393843338363e-18 0.0 0.01 0.0 -7.821393843338363e-18 0.0 0.01000000100000015 0.009999878502214293 0.0 -3.784737317236897e-14 0.0 0.01 0.0 -3.784737317236897e-14 0.0 0.01000000100000015 0.009999878502214293 0.0 5.894426356233112e-18 0.0 0.01 0.0 5.894426356233112e-18 0.0 0.010000001450000314 0.009999879002196106 0.0 1.657020609806061e-17 0.0 0.01 0.0 1.657020609806061e-17 0.0 0.01000000195000057 0.009999879502177995 0.0 1.3699248393556891e-17 0.0 0.01 0.0 1.3699248393556891e-17 0.0 0.01000000195000057 0.009999880002159957 0.0 8.922529842904359e-18 0.0 0.01 0.0 8.922529842904359e-18 0.0 0.010000002950001304 0.009999880502141994 0.0 3.194820796678555e-17 0.0 0.01 0.0 3.194820796678555e-17 0.0 0.010000002950001304 0.00999988200208856 0.0 2.138834933498438e-16 0.0 0.01 0.0 2.138834933498438e-16 0.0 0.010000003400001733 0.00999985200328552 0.0 1.592394641960908e-18 0.0 0.01 0.0 1.592394641960908e-18 0.0 0.01000000195000057 0.00999985200328552 0.0 4.8632345089491275e-18 0.0 0.01 0.0 4.8632345089491275e-18 0.0 0.01000000195000057 0.00999985200328552 0.0 1.0136227941111387e-17 0.0 0.01 0.0 1.0136227941111387e-17 0.0 0.01000000195000057 0.00999985200328552 0.0 7.19189048355643e-18 0.0 0.01 0.0 7.19189048355643e-18 0.0 0.0100000024500009 0.00999985200328552 0.0 1.2720110242851537e-17 0.0 0.01 0.0 1.2720110242851537e-17 0.0 0.010000002950001304 0.009999852503263358 0.0 -1.0043963653665823e-17 0.0 0.01 0.0 -1.0043963653665823e-17 0.0 0.010000003900002281 0.009999853003241271 0.0 1.0122971970220848e-17 0.0 0.01 0.0 1.0122971970220848e-17 0.0 0.010000004400002904 0.00999985350321926 0.0 -7.594891685002336e-17 0.0 0.01 0.0 -7.594891685002336e-17 0.0 0.010000004900003601 0.009999825004593616 0.0 -1.0689765087285544e-18 0.0 0.01 0.0 -1.0689765087285544e-18 0.0 0.0100000024500009 0.009999825004593616 0.0 6.404971138105882e-14 0.0 0.01 0.0 6.404971138105882e-14 0.0 0.0100000024500009 0.009999824504619902 0.0 3.2319696064123423e-18 0.0 0.01 0.0 3.2319696064123423e-18 0.0 0.0100000024500009 0.009999824504619902 0.0 5.089273620846689e-18 0.0 0.01 0.0 5.089273620846689e-18 0.0 0.010000003400001733 0.009999824004646265 0.0 -3.647233496977475e-18 0.0 0.01 0.0 -3.647233496977475e-18 0.0 0.010000003900002281 0.0099998235046727 0.0 -4.439636323882578e-17 0.0 0.01 0.0 -4.439636323882578e-17 0.0 0.010000005350004294 0.009999824504619902 0.0 -1.1930366008377655e-16 0.0 0.01 0.0 -1.1930366008377655e-16 0.0 0.010000005350004294 0.009999825004593616 0.0 -2.0249382761923274e-16 0.0 0.01 0.0 -2.0249382761923274e-16 0.0 0.010000006850007037 0.009999796006242187 0.0 -1.658527597257298e-19 0.0 0.01 0.0 -1.658527597257298e-19 0.0 0.010000002950001304 0.009999796006242187 0.0 3.88221402255319e-18 0.0 0.01 0.0 3.88221402255319e-18 0.0 0.010000002950001304 0.009999795006303535 0.0 4.7413155731886155e-18 0.0 0.01 0.0 4.7413155731886155e-18 0.0 0.010000003400001733 0.009999795006303535 0.0 4.265481652198557e-18 0.0 0.01 0.0 4.265481652198557e-18 0.0 0.010000004400002904 0.009999794506334321 0.0 -4.437697670202804e-18 0.0 0.01 0.0 -4.437697670202804e-18 0.0 0.010000004900003601 0.00999979400636518 0.0 -4.0861187250797874e-17 0.0 0.01 0.0 -4.0861187250797874e-17 0.0 0.010000005850005133 0.009999793506396118 0.0 -1.0256763529297982e-16 0.0 0.01 0.0 -1.0256763529297982e-16 0.0 0.010000007300007994 0.009999793506396118 0.0 -2.7438457258566467e-16 0.0 0.01 0.0 -2.7438457258566467e-16 0.0 0.010000008300010334 0.009999758508747986 0.0 -8.452105782066686e-19 0.0 0.01 0.0 -8.452105782066686e-19 0.0 0.010000003900002281 0.009999758508747986 0.0 4.679801862617295e-18 0.0 0.01 0.0 4.679801862617295e-18 0.0 0.010000003900002281 0.009999758508747986 0.0 1.0897699425157709e-17 0.0 0.01 0.0 1.0897699425157709e-17 0.0 0.010000004400002904 0.009999757508820581 0.0 1.348949123680082e-17 0.0 0.01 0.0 1.348949123680082e-17 0.0 0.010000004900003601 0.009999756508893476 0.0 1.631991846272097e-17 0.0 0.01 0.0 1.631991846272097e-17 0.0 0.010000006350006049 0.009999754509040167 0.0 -1.3339766972100572e-17 0.0 0.01 0.0 -1.3339766972100572e-17 0.0 0.010000006850007037 0.009999754509040167 0.0 -1.2796243212106176e-16 0.0 0.01 0.0 -1.2796243212106176e-16 0.0 0.010000008300010334 0.009999754509040167 0.0 -2.831361135425708e-16 0.0 0.01 0.0 -2.831361135425708e-16 0.0 0.010000009300012973 0.009999715012183172 0.0 -2.3971769358942835e-18 0.0 0.01 0.0 -2.3971769358942835e-18 0.0 0.010000004400002904 0.009999714512225956 0.0 3.573402228317838e-18 0.0 0.01 0.0 3.573402228317838e-18 0.0 0.010000004400002904 0.009999714012268814 0.0 1.894415900277599e-17 0.0 0.01 0.0 1.894415900277599e-17 0.0 0.010000005350004294 0.009999713012354758 0.0 1.7671517077679638e-17 0.0 0.01 0.0 1.7671517077679638e-17 0.0 0.010000006350006049 0.009999711512484239 0.0 2.591694208016388e-17 0.0 0.01 0.0 2.591694208016388e-17 0.0 0.010000006850007037 0.009999709512657926 0.0 5.753238966862747e-18 0.0 0.01 0.0 5.753238966862747e-18 0.0 0.010000008300010334 0.009999707512832813 0.0 -6.003948759780433e-17 0.0 0.01 0.0 -6.003948759780433e-17 0.0 0.010000010750017335 0.00999970701287672 0.0 -2.2852037222360557e-16 0.0 0.01 0.0 -2.2852037222360557e-16 0.0 0.010000011250018984 0.009999660017339018 0.0 5.514575557790241e-19 0.0 0.01 0.0 5.514575557790241e-19 0.0 0.010000005350004294 0.009999659017441159 0.0 1.316804702605802e-17 0.0 0.01 0.0 1.316804702605802e-17 0.0 0.010000005350004294 0.00999965851749234 0.0 -6.6927197638098216e-15 0.0 0.01 0.0 -6.6927197638098216e-15 0.0 0.010000005850005133 0.009999657017646341 0.0 3.800668027076685e-17 0.0 0.01 0.0 3.800668027076685e-17 0.0 0.010000006350006049 0.009999655017852722 0.0 2.7056578046550756e-17 0.0 0.01 0.0 2.7056578046550756e-17 0.0 0.010000008800011615 0.00999965251811239 0.0 7.719383998535724e-18 0.0 0.01 0.0 7.719383998535724e-18 0.0 0.01000001025001576 0.00999964951842646 0.0 -6.69074352739357e-17 0.0 0.01 0.0 -6.69074352739357e-17 0.0 0.010000011250018984 0.009999647518637344 0.0 -2.1719799045696427e-16 0.0 0.01 0.0 -2.1719799045696427e-16 0.0 0.010000013650027948 0.009999593524784658 0.0 -4.743191458097782e-19 0.0 0.01 0.0 -4.743191458097782e-19 0.0 0.010000006350006049 0.009999592524906746 0.0 -5.226036038806959e-18 0.0 0.01 0.0 -5.226036038806959e-18 0.0 0.010000006350006049 0.009999592024967903 0.0 2.9408758400581404e-17 0.0 0.01 0.0 2.9408758400581404e-17 0.0 0.010000007300007994 0.009999589025336415 0.0 2.713340152021019e-17 0.0 0.01 0.0 2.713340152021019e-17 0.0 0.010000008300010334 0.00999958652564557 0.0 5.12351509402375e-17 0.0 0.01 0.0 5.12351509402375e-17 0.0 0.01000001025001576 0.009999582526144118 0.0 7.923541292567222e-17 0.0 0.01 0.0 7.923541292567222e-17 0.0 0.010000012200022326 0.009999579526521179 0.0 -7.432164495169064e-17 0.0 0.01 0.0 -7.432164495169064e-17 0.0 0.010000014150030033 0.009999576026964494 0.0 -1.3617779804166876e-16 0.0 0.01 0.0 -1.3617779804166876e-16 0.0 0.010000016100038882 0.00999951253564554 0.0 -6.064776961641264e-19 0.0 0.01 0.0 -6.064776961641264e-19 0.0 0.010000007300007994 0.009999512035718694 0.0 -1.6318733572588208e-17 0.0 0.01 0.0 -1.6318733572588208e-17 0.0 0.010000007800009127 0.009999510535938606 0.0 -2.6828624028246363e-17 0.0 0.01 0.0 -2.6828624028246363e-17 0.0 0.010000008300010334 0.009999507036454355 0.0 6.699598872545285e-17 0.0 0.01 0.0 6.699598872545285e-17 0.0 0.010000010750017335 0.009999503037048281 0.0 7.964361434897517e-17 0.0 0.01 0.0 7.964361434897517e-17 0.0 0.010000012700024194 0.009999497537872767 0.0 9.919096909038003e-17 0.0 0.01 0.0 9.919096909038003e-17 0.0 0.010000014150030033 0.00999949253863017 0.0 -3.131822460602019e-17 0.0 0.01 0.0 -3.131822460602019e-17 0.0 0.010000017600046464 0.009999488039318244 0.0 -4.4168140429453614e-16 0.0 0.01 0.0 -4.4168140429453614e-16 0.0 0.01000002000006 0.009999418550716422 0.0 -1.7805011017387436e-18 0.0 0.01 0.0 -1.7805011017387436e-18 0.0 0.01000000975001426 0.009999416551065872 0.0 -3.524957286759223e-17 0.0 0.01 0.0 -3.524957286759223e-17 0.0 0.01000000975001426 0.00999941405150437 0.0 -9.982014186776239e-17 0.0 0.01 0.0 -9.982014186776239e-17 0.0 0.010000010750017335 0.009999409052386991 0.0 2.4601874280866612e-17 0.0 0.01 0.0 2.4601874280866612e-17 0.0 0.010000013200026137 0.009999404053277108 0.0 8.064900193197836e-17 0.0 0.01 0.0 8.064900193197836e-17 0.0 0.010000017100043862 0.00999939755444547 0.0 1.789194850373039e-16 0.0 0.01 0.0 1.789194850373039e-16 0.0 0.01000001955005733 0.009999390555717877 0.0 -8.273019749597132e-17 0.0 0.01 0.0 -8.273019749597132e-17 0.0 0.010000023450082485 0.009999384056912556 0.0 -7.491521897468951e-16 0.0 0.01 0.0 -7.491521897468951e-16 0.0 0.010000025900100622 0.009999302073072099 0.0 -3.7079159796565813e-19 0.0 0.01 0.0 -3.7079159796565813e-19 0.0 0.010000011250018984 0.009999302073072099 0.0 9.694871974794431e-18 0.0 0.01 0.0 9.694871974794431e-18 0.0 0.010000011700020532 0.009999298073911953 0.0 -7.826209522448085e-17 0.0 0.01 0.0 -7.826209522448085e-17 0.0 0.010000014150030033 0.009999291575286949 0.0 1.382212602801228e-17 0.0 0.01 0.0 1.382212602801228e-17 0.0 0.010000017100043862 0.009999283576996643 0.0 1.6749865584095482e-16 0.0 0.01 0.0 1.6749865584095482e-16 0.0 0.01000002000006 0.009999276078616913 0.0 2.5926729792202014e-16 0.0 0.01 0.0 2.5926729792202014e-16 0.0 0.010000024400089305 0.009999266080803515 0.0 1.033025983310727e-17 0.0 0.01 0.0 1.033025983310727e-17 0.0 0.010000029800133207 0.009999256582908565 0.0 -8.139702041301444e-16 0.0 0.01 0.0 -8.139702041301444e-16 0.0 0.010000034650180095 0.009999166104318901 0.0 1.8544421689297752e-18 0.0 0.01 0.0 1.8544421689297752e-18 0.0 0.010000014150030033 0.009999164604694459 0.0 -5.252323804948513e-17 0.0 0.01 0.0 -5.252323804948513e-17 0.0 0.010000014650032193 0.00999916060569925 0.0 -9.89062615449294e-17 0.0 0.01 0.0 -9.89062615449294e-17 0.0 0.010000017600046464 0.009999153607469176 0.0 -5.945144909248608e-17 0.0 0.01 0.0 -5.945144909248608e-17 0.0 0.010000020500063036 0.009999144609766388 0.0 1.772096234371234e-16 0.0 0.01 0.0 1.772096234371234e-16 0.0 0.010000025900100622 0.00999913311273706 0.0 4.3218973308016704e-16 0.0 0.01 0.0 4.3218973308016704e-16 0.0 0.010000031750151211 0.009999119616274975 0.0 1.709318565006196e-16 0.0 0.01 0.0 1.709318565006196e-16 0.0 0.010000040050240602 0.009999105620001647 0.0 -1.0124623765263507e-15 0.0 0.01 0.0 -1.0124623765263507e-15 0.0 0.010000045900316024 0.00999900614818085 0.0 3.3836297598995703e-18 0.0 0.01 0.0 3.3836297598995703e-18 0.0 0.010000017100043862 0.009999005148479128 0.0 -3.6838143014039084e-17 0.0 0.01 0.0 -3.6838143014039084e-17 0.0 0.010000018550051615 0.00999899865042523 0.0 -2.0144565667934696e-16 0.0 0.01 0.0 -2.0144565667934696e-16 0.0 0.01000002195007227 0.009998991152686473 0.0 -5.430609965734545e-17 0.0 0.01 0.0 -5.430609965734545e-17 0.0 0.010000026850108139 0.009998978156645919 0.0 2.1632357182670099e-16 0.0 0.01 0.0 2.1632357182670099e-16 0.0 0.010000033700170356 0.009998963661122004 0.0 6.692957099911656e-16 0.0 0.01 0.0 6.692957099911656e-16 0.0 0.01000004150025834 0.009998947166292165 0.0 6.731921470623702e-16 0.0 0.01 0.0 6.731921470623702e-16 0.0 0.010000051250393988 0.009998927172668471 0.0 -4.3196038743095135e-16 0.0 0.01 0.0 -4.3196038743095135e-16 0.0 0.010000062500585943 0.00999881770970461 0.0 3.84734297764349e-19 0.0 0.01 0.0 3.84734297764349e-19 0.0 0.01000002100006615 0.009998814710769894 0.0 -1.351144688140998e-16 0.0 0.01 0.0 -1.351144688140998e-16 0.0 0.0100000224500756 0.00999880771326605 0.0 -4.181108574804562e-16 0.0 0.01 0.0 -4.181108574804562e-16 0.0 0.010000027350112205 0.009998796217398775 0.0 -4.2523561390168926e-16 0.0 0.01 0.0 -4.2523561390168926e-16 0.0 0.010000033700170356 0.009998781222848875 0.0 6.275334590162766e-17 0.0 0.01 0.0 6.275334590162766e-17 0.0 0.010000042500270938 0.00999876123022061 0.0 1.0997982170670701e-15 0.0 0.01 0.0 1.0997982170670701e-15 0.0 0.010000053700432558 0.009998740238090002 0.0 1.1337587032972989e-15 0.0 0.01 0.0 1.1337587032972989e-15 0.0 0.010000066900671348 0.00999871674705299 0.0 -1.185302041987058e-16 0.0 0.01 0.0 -1.185302041987058e-16 0.0 0.010000084001058415 0.009998598294771722 0.0 3.783651582631898e-18 0.0 0.01 0.0 3.783651582631898e-18 0.0 0.010000024900093002 0.009998594796245144 0.0 -3.0610542990535226e-16 0.0 0.01 0.0 -3.0610542990535226e-16 0.0 0.010000026850108139 0.00999858629983874 0.0 -5.279486791583884e-16 0.0 0.01 0.0 -5.279486791583884e-16 0.0 0.010000032250156011 0.00999857230580482 0.0 -5.495838625243461e-16 0.0 0.01 0.0 -5.495838625243461e-16 0.0 0.010000041000252152 0.00999855231442972 0.0 -2.119483585024542e-16 0.0 0.01 0.0 -2.119483585024542e-16 0.0 0.010000053700432558 0.009998528824717202 0.0 7.367856270942828e-16 0.0 0.01 0.0 7.367856270942828e-16 0.0 0.01000006785069055 0.0099984998376406 0.0 8.974344000605428e-16 0.0 0.01 0.0 8.974344000605428e-16 0.0 0.010000087901158979 0.009998468851734058 0.0 3.8048788765803564e-16 0.0 0.01 0.0 3.8048788765803564e-16 0.0 0.010000108401762615 0.009998342911982129 0.0 6.087377333313206e-19 0.0 0.01 0.0 6.087377333313206e-19 0.0 0.010000029300128775 0.00999833841422186 0.0 -6.508948858033078e-16 0.0 0.01 0.0 -6.508948858033078e-16 0.0 0.010000032250156011 0.00999832791947151 0.0 -9.67627994829609e-16 0.0 0.01 0.0 -9.67627994829609e-16 0.0 0.010000039550234633 0.009998309428801302 0.0 -1.5285921047035219e-15 0.0 0.01 0.0 -1.5285921047035219e-15 0.0 0.010000049800372009 0.00999828394182944 0.0 -1.3708389146518183e-15 0.0 0.01 0.0 -1.3708389146518183e-15 0.0 0.010000065450642562 0.009998253457668095 0.0 -1.1276190572645334e-15 0.0 0.01 0.0 -1.1276190572645334e-15 0.0 0.010000085951108127 0.009998217476721687 0.0 6.780478375697795e-16 0.0 0.01 0.0 6.780478375697795e-16 0.0 0.010000110351826602 0.00999817799807465 0.0 -5.460619572497442e-16 0.0 0.01 0.0 -5.460619572497442e-16 0.0 0.010000140152946372 0.00999804407399667 0.0 3.003466915642254e-18 0.0 0.01 0.0 3.003466915642254e-18 0.0 0.010000036600200936 0.00999803907693373 0.0 -4.636398515063187e-16 0.0 0.01 0.0 -4.636398515063187e-16 0.0 0.010000039050228738 0.009998025584901224 0.0 -1.3925396712922674e-15 0.0 0.01 0.0 -1.3925396712922674e-15 0.0 0.010000047850343446 0.009998003598002318 0.0 -2.2758277742049214e-15 0.0 0.01 0.0 -2.2758277742049214e-15 0.0 0.010000060550549951 0.009997973616101214 0.0 -3.0011777194626493e-15 0.0 0.01 0.0 -3.0011777194626493e-15 0.0 0.010000081050985378 0.00999793464003302 0.0 -2.269453177698167e-15 0.0 0.01 0.0 -2.269453177698167e-15 0.0 0.010000105451667985 0.009997889168529575 0.0 -1.50633896782227e-15 0.0 0.01 0.0 -1.50633896782227e-15 0.0 0.010000136702803097 0.009997838700884052 0.0 -2.611579240909185e-15 0.0 0.01 0.0 -2.611579240909185e-15 0.0 0.010000174804583388 0.009997699793885702 0.0 2.860122474392231e-18 0.0 0.01 0.0 2.860122474392231e-18 0.0 0.010000043450283188 0.009997695296993299 0.0 -2.921632603318862e-16 0.0 0.01 0.0 -2.921632603318862e-16 0.0 0.01000004685032924 0.00999767880843974 0.0 -2.0167587216253346e-15 0.0 0.01 0.0 -2.0167587216253346e-15 0.0 0.010000058100506347 0.00999765132769843 0.0 -3.876438258058265e-15 0.0 0.01 0.0 -3.876438258058265e-15 0.0 0.010000074200825857 0.009997612855041301 0.0 -4.530059076939841e-15 0.0 0.01 0.0 -4.530059076939841e-15 0.0 0.010000096701402656 0.009997565389388029 0.0 -4.6777771847841935e-15 0.0 0.01 0.0 -4.6777771847841935e-15 0.0 0.010000128902492335 0.009997507931870167 0.0 -4.2616199727681784e-15 0.0 0.01 0.0 -4.2616199727681784e-15 0.0 0.010000167004183467 0.00999744497955312 0.0 -6.188408006719258e-15 0.0 0.01 0.0 -6.188408006719258e-15 0.0 0.010000214356892134 0.009997302591794315 0.0 1.074405884682489e-18 0.0 0.01 0.0 1.074405884682489e-18 0.0 0.010000055650464542 0.00999729609705917 0.0 -1.18287196128522e-15 0.0 0.01 0.0 -1.18287196128522e-15 0.0 0.010000059100523926 0.009997276113338121 0.0 -1.849649351815776e-15 0.0 0.01 0.0 -1.849649351815776e-15 0.0 0.010000070300741322 0.00999724314046038 0.0 -3.691632940963856e-15 0.0 0.01 0.0 -3.691632940963856e-15 0.0 0.010000090351224488 0.009997196679231858 0.0 -4.266417610553146e-15 0.0 0.01 0.0 -4.266417610553146e-15 0.0 0.010000117702078034 0.009997137729358141 0.0 -1.6344635347427811e-15 0.0 0.01 0.0 -1.6344635347427811e-15 0.0 0.010000154303571365 0.009997067790182562 0.0 -3.0382957432322215e-16 0.0 0.01 0.0 -3.0382957432322215e-16 0.0 0.010000200706042276 0.009996989859687404 0.0 -6.308418491506358e-15 0.0 0.01 0.0 -6.308418491506358e-15 0.0 0.010000258310008265 0.009996845992791973 0.0 -4.225760668855368e-18 0.0 0.01 0.0 -4.225760668855368e-18 0.0 0.01000007375081587 0.009996838499894677 0.0 -8.600496652156985e-16 0.0 0.01 0.0 -8.600496652156985e-16 0.0 0.010000078600926707 0.009996814522736545 0.0 -3.017751929387909e-16 0.0 0.01 0.0 -3.017751929387909e-16 0.0 0.010000089851210972 0.00999677306264103 0.0 7.295850443809668e-16 0.0 0.01 0.0 7.295850443809668e-16 0.0 0.010000112301891729 0.009996718615829247 0.0 2.872980642599692e-15 0.0 0.01 0.0 2.872980642599692e-15 0.0 0.010000142103028933 0.009996647186957414 0.0 1.1644443127246574e-14 0.0 0.01 0.0 1.1644443127246574e-14 0.0 0.010000184555108963 0.009996560775054187 0.0 1.932256128644832e-14 0.0 0.01 0.0 1.932256128644832e-14 0.0 0.010000237808482661 0.009996463876510119 0.0 2.6854536124561236e-15 0.0 0.01 0.0 2.6854536124561236e-15 0.0 0.010000305213972766 0.009996320531769715 0.0 -1.7911664148893222e-19 0.0 0.01 0.0 -1.7911664148893222e-19 0.0 0.010000103051592922 0.009996311042265855 0.0 1.0428205373740033e-16 0.0 0.01 0.0 1.0428205373740033e-16 0.0 0.010000106451699771 0.009996282573916422 0.0 2.6880406337910573e-15 0.0 0.01 0.0 2.6880406337910573e-15 0.0 0.010000119152129552 0.009996236625514642 0.0 9.063146008096404e-15 0.0 0.01 0.0 9.063146008096404e-15 0.0 0.010000142103028933 0.00999616870295088 0.0 2.1614044892653947e-14 0.0 0.01 0.0 2.1614044892653947e-14 0.0 0.010000176254659746 0.00999608430110603 0.0 4.34045004474964e-14 0.0 0.01 0.0 4.34045004474964e-14 0.0 0.01000022215740287 0.009995979925449932 0.0 5.832366879883394e-14 0.0 0.01 0.0 5.832366879883394e-14 0.0 0.01000028076182364 0.009995860571649367 0.0 4.3218850237099563e-14 0.0 0.01 0.0 4.3218850237099563e-14 0.0 0.010000357419161358 0.009995718750934303 0.0 -1.442691607144334e-18 0.0 0.01 0.0 -1.442691607144334e-18 0.0 0.010000148953327997 0.009995706267005503 0.0 3.04276681190102e-15 0.0 0.01 0.0 3.04276681190102e-15 0.0 0.010000153303525224 0.009995675307063915 0.0 8.919690990799673e-15 0.0 0.01 0.0 8.919690990799673e-15 0.0 0.010000167004183467 0.00999561938015672 0.0 2.2618553237208213e-14 0.0 0.01 0.0 2.2618553237208213e-14 0.0 0.010000188505330005 0.00999554148352892 0.0 4.7998425729902574e-14 0.0 0.01 0.0 4.7998425729902574e-14 0.0 0.010000223157469668 0.009995440120772093 0.0 9.041584577220472e-14 0.0 0.01 0.0 9.041584577220472e-14 0.0 0.010000269060858671 0.009995316791921177 0.0 1.3119407332127158e-13 0.0 0.01 0.0 1.3119407332127158e-13 0.0 0.010000333016634276 0.009995173995796828 0.0 1.1736585247801174e-13 0.0 0.01 0.0 1.1736585247796004e-13 0.0 0.0100004160259602 0.009995029208772783 0.0 7.577446584625375e-19 0.0 0.01 0.0 7.577446584625375e-19 0.0 0.010000220207273473 0.009995017725933279 0.0 3.6562769854772996e-15 0.0 0.01 0.0 3.6562769854772996e-15 0.0 0.010000224107533404 0.009994979782918967 0.0 1.437600208118753e-14 0.0 0.01 0.0 1.437600208118753e-14 0.0 0.010000235858344112 0.009994917377585254 0.0 3.527405071521197e-14 0.0 0.01 0.0 3.527405071521197e-14 0.0 0.010000255859819302 0.009994828015182786 0.0 7.547594025456725e-14 0.0 0.01 0.0 7.547594025456725e-14 0.0 0.010000289062533092 0.009994710699466525 0.0 1.417189688079264e-13 0.0 0.01 0.0 1.417189688079264e-13 0.0 0.010000336466980746 0.009994564934204244 0.0 2.2123267244129306e-13 0.0 0.01 0.0 2.2123267244134476e-13 0.0 0.0100003999239896 0.00999439621388474 0.0 2.307111729518457e-13 0.0 0.01 0.0 2.307111729518457e-13 0.0 0.010000485885410401 0.009994253956349716 0.0 1.5868999557094704e-19 0.0 0.01 0.0 1.5868999557094704e-19 0.0 0.010000328116148325 0.00999424097877169 0.0 3.361501625385019e-15 0.0 0.01 0.0 3.361501625385019e-15 0.0 0.010000330566390398 0.009994199051557412 0.0 1.395794929371751e-14 0.0 0.01 0.0 1.395794929371751e-14 0.0 0.010000339867325686 0.009994128674919682 0.0 3.748679279075003e-14 0.0 0.01 0.0 3.748679279075003e-14 0.0 0.010000359369371024 0.009994028353346791 0.0 8.529610836479147e-14 0.0 0.01 0.0 8.529610836479147e-14 0.0 0.01000038722249003 0.00999389309869506 0.0 1.7090867686430977e-13 0.0 0.01 0.0 1.7090867686430977e-13 0.0 0.0100004302277628 0.009993726408634482 0.0 2.8689953113267753e-13 0.0 0.01 0.0 2.8689953113272923e-13 0.0 0.010000490286054705 0.009993529784974099 0.0 3.3622810968517283e-13 0.0 0.01 0.0 3.3622810968517283e-13 0.0 0.010000573299297046 0.009993400538686702 0.0 1.1203300954823807e-19 0.0 0.01 0.0 1.1203300954823807e-19 0.0 0.010000480984699717 0.009993386566415454 0.0 2.551657568879075e-15 0.0 0.01 0.0 2.551657568879075e-15 0.0 0.010000483435054159 0.009993340657936842 0.0 1.1075349913595705e-14 0.0 0.01 0.0 1.1075349913595705e-14 0.0 0.010000492236342107 0.009993262315581185 0.0 2.703320923859807e-14 0.0 0.01 0.0 2.703320923859807e-14 0.0 0.0100005078386824 0.00999315054369012 0.0 6.67382818280702e-14 0.0 0.01 0.0 6.67382818280702e-14 0.0 0.010000532742569172 0.009993001852969833 0.0 1.5103959176863515e-13 0.0 0.01 0.0 1.5103959176858345e-13 0.0 0.010000566448125886 0.00999281525051806 0.0 2.6038857796541326e-13 0.0 0.01 0.0 2.6038857796551666e-13 0.0 0.010000616256961217 0.009992590742706522 0.0 3.0658090685282687e-13 0.0 0.01 0.0 3.0658090685282687e-13 0.0 0.010000690971609667 0.009992508925844093 0.0 -1.2276755735046596e-18 0.0 0.01 0.0 -1.2276755735046596e-18 0.0 0.010000694422326657 0.00999249495731233 0.0 -2.9442225526505504e-16 0.0 0.01 0.0 -2.9442225526505504e-16 0.0 0.01000069587262907 0.009992445070177096 0.0 3.771441350414796e-16 0.0 0.01 0.0 3.771441350414796e-16 0.0 0.010000702724066227 0.009992360762616895 0.0 1.0222233008692416e-15 0.0 0.01 0.0 1.0222233008692416e-15 0.0 0.010000716376972044 0.009992240041897157 0.0 -1.905311856051262e-15 0.0 0.01 0.0 -1.905311856051262e-15 0.0 0.010000735931231245 0.009992077923847119 0.0 -1.568756905113324e-14 0.0 0.01 0.0 -1.568756905113324e-14 0.0 0.010000762287153398 0.009991872918165577 0.0 -7.393989629827218e-14 0.0 0.01 0.0 -7.393989629827218e-14 0.0 0.010000801346313096 0.009991623037793513 0.0 -2.5522772180982107e-13 0.0 0.01 0.0 -2.5522772180982107e-13 0.0 0.010000858510543402 0.009991660443841663 0.0 3.5683919212818447e-19 0.0 0.01 0.0 3.5683919212818447e-19 0.0 0.010000975742792522 0.009991642987633578 0.0 -1.993583941064427e-15 0.0 0.01 0.0 -1.993583941064427e-15 0.0 0.010000978643642763 0.009991590120818648 0.0 -1.8673556346955618e-14 0.0 0.01 0.0 -1.8673556346955618e-14 0.0 0.010000985495661115 0.00999150034890436 0.0 -7.19022517461175e-14 0.0 0.01 0.0 -7.19022517461175e-14 0.0 0.010000999649875005 0.00999137118134003 0.0 -2.176584074137799e-13 0.0 0.01 0.0 -2.176584074137282e-13 0.0 0.010001015304605588 0.00999119763589752 0.0 -5.496550882855832e-13 0.0 0.01 0.0 -5.496550882856866e-13 0.0 0.010001036311068839 0.009990978223570163 0.0 -1.153317021959176e-12 0.0 0.01 0.0 -1.1533170219589691e-12 0.0 0.010001060718744775 0.009990707967345117 0.0 -2.0243291617757137e-12 0.0 0.01 0.0 -2.0243291617757137e-12 0.0 0.010001096880445618 0.009990966754686966 0.0 -2.0507085895813785e-19 0.0 0.01 0.0 -2.0507085895813785e-19 0.0 0.010001333766792632 0.00999094830482731 0.0 -1.5967212776501264e-14 0.0 0.01 0.0 -1.5967212776501264e-14 0.0 0.010001338668757135 0.009990891958591378 0.0 -7.709355997056253e-14 0.0 0.01 0.0 -7.709355997056253e-14 0.0 0.010001351824064848 0.009990798216523638 0.0 -2.663718928204395e-13 0.0 0.01 0.0 -2.663718928204395e-13 0.0 0.010001368430839206 0.009990662594372642 0.0 -7.699321492519983e-13 0.0 0.01 0.0 -7.699321492519983e-13 0.0 0.010001387988923522 0.009990479612944147 0.0 -1.8306201045596144e-12 0.0 0.01 0.0 -1.830620104560028e-12 0.0 0.010001406046489424 0.009990249778583721 0.0 -3.5649370327629554e-12 0.0 0.01 0.0 -3.564937032763369e-12 0.0 0.01000141875187143 0.00998996662053185 0.0 -5.557233406954279e-12 0.0 0.01 0.0 -5.557233406954279e-12 0.0 0.010001435859194552 0.009990580824862288 0.0 1.5785313985062365e-18 0.0 0.01 0.0 1.5785313985062365e-18 0.0 0.01000177537268033 0.009990560881383842 0.0 -3.234207067551372e-14 0.0 0.01 0.0 -3.234207067551372e-14 0.0 0.010001782226336414 0.009990503544548592 0.0 -1.681141055837839e-13 0.0 0.01 0.0 -1.681141055837839e-13 0.0 0.010001806139203014 0.009990406822037733 0.0 -6.062064839913952e-13 0.0 0.01 0.0 -6.062064839913952e-13 0.0 0.01000183595548614 0.009990267227490668 0.0 -1.7497337344104342e-12 0.0 0.01 0.0 -1.7497337344100206e-12 0.0 0.010001867723128178 0.009990081775215006 0.0 -4.0124169394328665e-12 0.0 0.01 0.0 -4.0124169394328665e-12 0.0 0.010001890185785312 0.009989847980477699 0.0 -7.181250911472339e-12 0.0 0.01 0.0 -7.181250911472339e-12 0.0 0.010001899491072917 0.009989559872228623 0.0 -9.769221947413426e-12 0.0 0.01 0.0 -9.76922194741508e-12 0.0 0.01000191169804872 0.00999069799521025 0.0 7.176918587699897e-19 0.0 0.01 0.0 7.176918587699897e-19 0.0 0.01000230304535845 0.009990679048236271 0.0 -2.2105407473823175e-14 0.0 0.01 0.0 -2.2105407473823175e-14 0.0 0.010002316254506777 0.009990620213583105 0.0 -1.8510232101003355e-13 0.0 0.01 0.0 -1.8510232101003355e-13 0.0 0.010002354331170372 0.009990523487683667 0.0 -8.736057032788307e-13 0.0 0.01 0.0 -8.73605703278624e-13 0.0 0.01000240907026339 0.009990383888246154 0.0 -2.791331667311645e-12 0.0 0.01 0.0 -2.7913316673112315e-12 0.0 0.010002465761697369 0.00999020291625758 0.0 -6.307349171049774e-12 0.0 0.01 0.0 -6.3073491710514284e-12 0.0 0.010002508743753594 0.009989976091978867 0.0 -1.0119595007092988e-11 0.0 0.01 0.0 -1.0119595007091334e-11 0.0 0.010002534162971912 0.009989697941756446 0.0 -1.0709832474157312e-11 0.0 0.01 0.0 -1.0709832474158966e-11 0.0 0.010002563985766448 0.009991578151090268 0.0 1.5749633756497584e-18 0.0 0.01 0.0 1.5749633756497584e-18 0.0 0.010002919227786265 0.009991559697843298 0.0 8.529612875441875e-14 0.0 0.01 0.0 8.529612875441875e-14 0.0 0.010002941247131499 0.009991503341262522 0.0 1.607177479563518e-13 0.0 0.01 0.0 1.607177479563518e-13 0.0 0.010003004303333656 0.00999141008069711 0.0 -4.4397250545723645e-13 0.0 0.01 0.0 -4.4397250545723645e-13 0.0 0.010003096637781178 0.009991279420554097 0.0 -2.705878966414802e-12 0.0 0.01 0.0 -2.7058789664152155e-12 0.0 0.01000319342904729 0.00999111335990741 0.0 -6.561873010018724e-12 0.0 0.01 0.0 -6.561873010018724e-12 0.0 0.01000327896203401 0.009990907914950813 0.0 -8.415072724201493e-12 0.0 0.01 0.0 -8.415072724201493e-12 0.0 0.01000335033295782 0.00999066259437264 0.0 -2.1608911528548083e-12 0.0 0.01 0.0 -2.160891152855015e-12 0.0 0.010003431965950431 0.009993525293706266 0.0 2.603757743463302e-18 0.0 0.01 0.0 2.603757743463302e-18 0.0 0.010003625020163399 0.009993509823830082 0.0 3.799968616254219e-13 0.0 0.01 0.0 3.799968616254219e-13 0.0 0.01000366020858876 0.009993460919532748 0.0 1.2401704699821247e-12 0.0 0.01 0.0 1.2401704699821247e-12 0.0 0.010003756515651782 0.009993381077324929 0.0 1.6199596193915233e-12 0.0 0.01 0.0 1.6199596193915233e-12 0.0 0.010003900731169081 0.009993272295396701 0.0 2.8044913644139217e-13 0.0 0.01 0.0 2.8044913644134047e-13 0.0 0.010004060071288975 0.009993136073496282 0.0 -1.6891342152568493e-12 0.0 0.01 0.0 -1.689134215257056e-12 0.0 0.010004214562884608 0.009992971916043617 0.0 2.17231281525168e-12 0.0 0.01 0.0 2.17231281525168e-12 0.0 0.010004363203971944 0.009992786812024944 0.0 2.0467120924295778e-11 0.0 0.01 0.0 2.0467120924295778e-11 0.0 0.010004536785496895 0.009996789546713614 0.0 4.687459070470973e-18 0.0 0.01 0.0 4.687459070470973e-18 0.0 0.01000441452148033 0.009996777558289104 0.0 9.089597309769482e-13 0.0 0.01 0.0 9.089597309773618e-13 0.0 0.010004463937232302 0.009996745089855971 0.0 3.2660758996020536e-12 0.0 0.01 0.0 3.2660758996020536e-12 0.0 0.010004606681272765 0.009996691143005035 0.0 5.855461254001113e-12 0.0 0.01 0.0 5.855461254001113e-12 0.0 0.010004818430354593 0.009996619714722097 0.0 7.313005376007453e-12 0.0 0.01 0.0 7.313005376007453e-12 0.0 0.01000506294241392 0.009996535800933095 0.0 9.729755653147986e-12 0.0 0.01 0.0 9.729755653146331e-12 0.0 0.010005313782443745 0.009996442399379265 0.0 2.190574243237673e-11 0.0 0.01 0.0 2.190574243237673e-11 0.0 0.010005568147189144 0.009996348001538502 0.0 5.315369691791667e-11 0.0 0.01 0.0 5.315369691792329e-11 0.0 0.010005862551399425 0.010001392390758824 0.0 -6.464509500863705e-18 0.0 0.01 0.0 -6.464509500863705e-18 0.0 0.01000526931192303 0.010001389939736174 0.0 1.524935112209503e-12 0.0 0.01 0.0 1.524935112209503e-12 0.0 0.010005338722252044 0.010001380635870688 0.0 5.713019837021622e-12 0.0 0.01 0.0 5.713019837023277e-12 0.0 0.010005533890204074 0.010001368430839201 0.0 1.1230724910625198e-11 0.0 0.01 0.0 1.1230724910631815e-11 0.0 0.010005828341477814 0.010001356225852406 0.0 1.664145430034502e-11 0.0 0.01 0.0 1.664145430035164e-11 0.0 0.010006172710653254 0.01000134892288986 0.0 2.420017066713162e-11 0.0 0.01 0.0 2.420017066713162e-11 0.0 0.01000653765555708 0.010001353324673586 0.0 4.2942286900472276e-11 0.0 0.01 0.0 4.2942286900472276e-11 0.0 0.010006917320784965 0.010001381636285086 0.0 8.023421418791099e-11 0.0 0.01 0.0 8.023421418791099e-11 0.0 0.010007349895210262 0.010006957955239893 0.0 3.1743781029976176e-17 0.0 0.01 0.0 3.1743781029976176e-17 0.0 0.010006153625409032 0.010006965270496439 0.0 1.8906058381055873e-12 0.0 0.01 0.0 1.8906058381055873e-12 0.0 0.010006243141659708 0.010006988769614037 0.0 7.2389342265695624e-12 0.0 0.01 0.0 7.2389342265695624e-12 0.0 0.010006497527197173 0.010007032311060508 0.0 1.4825491129281457e-11 0.0 0.01 0.0 1.48254911290697e-11 0.0 0.010006879141883777 0.010007097398816478 0.0 2.3115542001870764e-11 0.0 0.01 0.0 2.3115542002082523e-11 0.0 0.010007335212916036 0.010007188393527978 0.0 3.349195956026055e-11 0.0 0.01 0.0 3.349195956015467e-11 0.0 0.010007820213805918 0.01000731516893269 0.0 5.246255359652881e-11 0.0 0.01 0.0 5.246255359652881e-11 0.0 0.010008325335152033 0.010007489856296653 0.0 8.386822805561417e-11 0.0 0.01 0.0 8.386822805572005e-11 0.0 0.010008879512875627 0.010012625419997794 0.0 6.4866658285787164e-18 0.0 0.01 0.0 6.4866658285787164e-18 0.0 0.01000701271984452 0.010012645997805637 0.0 1.7230950114999864e-12 0.0 0.01 0.0 1.7230950114991593e-12 0.0 0.010007123303996467 0.01001270973962535 0.0 6.684285515959886e-12 0.0 0.01 0.0 6.684285515959886e-12 0.0 0.010007434081626096 0.010012815593887815 0.0 1.394478344685029e-11 0.0 0.01 0.0 1.3944783446853598e-11 0.0 0.01000790290853256 0.010012968031931784 0.0 2.2009979007580468e-11 0.0 0.01 0.0 2.2009979007580468e-11 0.0 0.010008462880943604 0.010013172481503222 0.0 3.085783696473594e-11 0.0 0.01 0.0 3.085783696472271e-11 0.0 0.01000905869414063 0.010013432767491672 0.0 4.3523660676514254e-11 0.0 0.01 0.0 4.3523660676514254e-11 0.0 0.010009668303360197 0.010013761755852486 0.0 6.07025074495712e-11 0.0 0.01 0.0 6.070250744954473e-11 0.0 0.010010312781110382 0.010017223595869382 0.0 3.2138383288507513e-18 0.0 0.01 0.0 3.2138383288507513e-18 0.0 0.010007790845141746 0.010017256465285824 0.0 1.1064493650097516e-12 0.0 0.01 0.0 1.1064493650097516e-12 0.0 0.010007917092137079 0.01001735708590828 0.0 4.330013150180431e-12 0.0 0.01 0.0 4.330013150180431e-12 0.0 0.010008275411041495 0.010017526418865455 0.0 9.069689163074698e-12 0.0 0.01 0.0 9.069689163073044e-12 0.0 0.010008816846825414 0.010017765982619706 0.0 1.4049497015228169e-11 0.0 0.01 0.0 1.4049497015228169e-11 0.0 0.010009461661535133 0.010018081623800572 0.0 1.83432063447143e-11 0.0 0.01 0.0 1.83432063447143e-11 0.0 0.01001014235927781 0.010018472911482229 0.0 2.2572451679467616e-11 0.0 0.01 0.0 2.2572451679470924e-11 0.0 0.010010824199163432 0.010018946761255672 0.0 2.6423440455268648e-11 0.0 0.01 0.0 2.6423440455275265e-11 0.0 0.010011512048620158 0.010019827866122493 0.0 -4.288100460140518e-20 0.0 0.01 0.0 -4.288100460140518e-20 0.0 0.01000843205294987 0.010019871575377539 0.0 4.399248936356134e-13 0.0 0.01 0.0 4.399248936356134e-13 0.0 0.010008571056872754 0.01002000270657484 0.0 1.7317000762758518e-12 0.0 0.01 0.0 1.7317000762760586e-12 0.0 0.010008963687766648 0.010020222326394426 0.0 3.5411317277660997e-12 0.0 0.01 0.0 3.541131727765686e-12 0.0 0.01000955517778617 0.010020535231611682 0.0 4.980029212376453e-12 0.0 0.01 0.0 4.980029212376453e-12 0.0 0.01001025846384852 0.010020939133964919 0.0 5.050724363353743e-12 0.0 0.01 0.0 5.050724363353743e-12 0.0 0.010010988786512083 0.010021436884507066 0.0 3.548488195329457e-12 0.0 0.01 0.0 3.5484881953290433e-12 0.0 0.010011700703979793 0.010022024700020279 0.0 7.057031342994911e-13 0.0 0.01 0.0 7.057031342995945e-13 0.0 0.010012393100330396 0.010020345623648437 0.0 -1.074348851170149e-18 0.0 0.01 0.0 -1.074348851170149e-18 0.0 0.010008904930561122 0.010020394722475663 0.0 4.0247949817680975e-14 0.0 0.01 0.0 4.0247949817680975e-14 0.0 0.010009049368857003 0.010020545544903205 0.0 1.5495670208382558e-13 0.0 0.01 0.0 1.5495670208382558e-13 0.0 0.010009462162955762 0.010020797098459235 0.0 2.1064476699733123e-13 0.0 0.01 0.0 2.1064476699738293e-13 0.0 0.01001008212692147 0.010021153833882194 0.0 -2.583129721829076e-13 0.0 0.01 0.0 -2.583129721829076e-13 0.0 0.01001081341423502 0.010021613822199592 0.0 -1.852971952360428e-12 0.0 0.01 0.0 -1.8529719523608416e-12 0.0 0.010011563476218007 0.0100221760993957 0.0 -4.714576454507242e-12 0.0 0.01 0.0 -4.714576454507242e-12 0.0 0.010012277473496808 0.010022824506579498 0.0 -8.188250024364202e-12 0.0 0.01 0.0 -8.188250024364202e-12 0.0 0.010012945996499243 0.010019403478493954 0.0 -2.367561047767052e-18 0.0 0.01 0.0 -2.367561047767052e-18 0.0 0.010009198726937174 0.010019455078091889 0.0 -6.676464733338727e-14 0.0 0.01 0.0 -6.676464733338727e-14 0.0 0.010009345584687163 0.010019612245522017 0.0 -2.5978134729106013e-13 0.0 0.01 0.0 -2.5978134729106013e-13 0.0 0.01000976623830435 0.010019874040013097 0.0 -6.131802812751793e-13 0.0 0.01 0.0 -6.131802812751793e-13 0.0 0.010010395587797349 0.010020243906858146 0.0 -1.2674262568802022e-12 0.0 0.01 0.0 -1.2674262568802022e-12 0.0 0.010011133315044298 0.010020721932272056 0.0 -2.426352505297261e-12 0.0 0.01 0.0 -2.4263525052968473e-12 0.0 0.010011880990197033 0.010021303734505601 0.0 -4.107161672519973e-12 0.0 0.01 0.0 -4.107161672519973e-12 0.0 0.010012577890765605 0.010021964756219576 0.0 -5.7932835333069174e-12 0.0 0.01 0.0 -5.7932835333069174e-12 0.0 0.010013215601732853 0.010017814088450245 0.0 -5.706989126397686e-18 0.0 0.01 0.0 -5.706989126397686e-18 0.0 0.010009322119102345 0.010017864155442452 0.0 -2.6536946931772096e-14 0.0 0.01 0.0 -2.6536946931772096e-14 0.0 0.010009468029582731 0.010018017326895997 0.0 -1.0166914174740707e-13 0.0 0.01 0.0 -1.0166914174740707e-13 0.0 0.010009886241363918 0.01001827406947099 0.0 -2.222926821917536e-13 0.0 0.01 0.0 -2.222926821916502e-13 0.0 0.010010510196444848 0.010018634960137532 0.0 -3.9764852883704406e-13 0.0 0.01 0.0 -3.9764852883704406e-13 0.0 0.010011240624379901 0.010019101943569345 0.0 -6.458235981272876e-13 0.0 0.01 0.0 -6.458235981272876e-13 0.0 0.010011974574274902 0.01001966676548795 0.0 -9.404817842267892e-13 0.0 0.01 0.0 -9.404817842272028e-13 0.0 0.010012650414522397 0.010020306787792223 0.0 -1.1371312201477484e-12 0.0 0.01 0.0 -1.137131220148162e-12 0.0 0.010013260228494242 0.010016131248794543 0.0 -3.001988271875083e-18 0.0 0.01 0.0 -3.001988271875083e-18 0.0 0.010009288826333564 0.010016179331078586 0.0 2.4227136357073635e-14 0.0 0.01 0.0 2.4227136357073635e-14 0.0 0.010009432779834007 0.010016322577180634 0.0 9.290449013394815e-14 0.0 0.01 0.0 9.290449013394815e-14 0.0 0.010009843113984002 0.010016564516769706 0.0 1.947222350094568e-13 0.0 0.01 0.0 1.947222350094568e-13 0.0 0.010010456327382391 0.01001690456825343 0.0 3.2756368606200626e-13 0.0 0.01 0.0 3.2756368606210966e-13 0.0 0.0100111700376263 0.010017343867341818 0.0 5.134612632900197e-13 0.0 0.01 0.0 5.134612632896061e-13 0.0 0.010011885907686468 0.010017875465860903 0.0 8.069543142258113e-13 0.0 0.01 0.0 8.069543142260181e-13 0.0 0.010012542608151353 0.010018478341468075 0.0 1.237144881766823e-12 0.0 0.01 0.0 1.2371448817664094e-12 0.0 0.01001313126932477 0.010014491891477595 0.0 1.4447417559717645e-17 0.0 0.01 0.0 1.4447417559717645e-17 0.0 0.010009121815966193 0.010014536033122072 0.0 4.22170167608256e-14 0.0 0.01 0.0 4.22170167608256e-14 0.0 0.0100092598959895 0.010014666954947623 0.0 1.5406670651817604e-13 0.0 0.01 0.0 1.5406670651817604e-13 0.0 0.010009659979273219 0.01001488913706866 0.0 2.83658681190165e-13 0.0 0.01 0.0 2.836586811903718e-13 0.0 0.010010256959227819 0.010015202547479294 0.0 3.887565974423811e-13 0.0 0.01 0.0 3.887565974423811e-13 0.0 0.01001095156428004 0.01001560922125331 0.0 4.962065156406565e-13 0.0 0.01 0.0 4.962065156406565e-13 0.0 0.010011648270768484 0.010016101806901828 0.0 7.629578351647926e-13 0.0 0.01 0.0 7.629578351656197e-13 0.0 0.010012286757621558 0.01001666511654209 0.0 1.2773357479896888e-12 0.0 0.01 0.0 1.2773357479888617e-12 0.0 0.010012865134233608 0.01001271365451695 0.0 9.405979575038394e-18 0.0 0.01 0.0 9.405979575038394e-18 0.0 0.010008838353681184 0.010012753857707935 0.0 4.8747156110458855e-14 0.0 0.01 0.0 4.8747156110458855e-14 0.0 0.010008973514157988 0.010012873466319424 0.0 1.660803777570716e-13 0.0 0.01 0.0 1.6608037775717499e-13 0.0 0.010009358821756536 0.010013075400277823 0.0 2.5902329449952936e-13 0.0 0.01 0.0 2.5902329449973615e-13 0.0 0.010009936189584285 0.010013360226733428 0.0 2.312562354923848e-13 0.0 0.01 0.0 2.312562354922814e-13 0.0 0.010010608657695604 0.010013733338975277 0.0 1.4405417421197876e-13 0.0 0.01 0.0 1.4405417421208216e-13 0.0 0.010011285174570752 0.010014189343584945 0.0 2.8476815669694385e-13 0.0 0.01 0.0 2.8476815669694385e-13 0.0 0.010011907484511483 0.010014715016146689 0.0 8.384236957509138e-13 0.0 0.01 0.0 8.384236957509138e-13 0.0 0.010012472044041792 0.010010559652420583 0.0 6.2237993057616e-17 0.0 0.01 0.0 6.2237993057616e-17 0.0 0.01000846042471902 0.010010596920440346 0.0 7.75916433614091e-14 0.0 0.01 0.0 7.75916433613574e-14 0.0 0.010008589654663416 0.010010702707706133 0.0 2.6960579777996487e-13 0.0 0.01 0.0 2.6960579778017166e-13 0.0 0.010008959275926885 0.010010883943281958 0.0 4.2762713564823607e-13 0.0 0.01 0.0 4.2762713564823607e-13 0.0 0.010009511603399919 0.010011138682937487 0.0 4.266797962793366e-13 0.0 0.01 0.0 4.266797962801638e-13 0.0 0.010010159511404987 0.010011474820551146 0.0 3.744804370571834e-13 0.0 0.01 0.0 3.744804370571834e-13 0.0 0.010010812912611284 0.010011890825183152 0.0 6.881228464085435e-13 0.0 0.01 0.0 6.881228464068891e-13 0.0 0.010011413560710834 0.010012382812190225 0.0 1.7503703711204892e-12 0.0 0.01 0.0 1.7503703711204892e-12 0.0 0.010011962330417921 0.010007987610104949 0.0 5.539721219874687e-16 0.0 0.01 0.0 5.539721219874687e-16 0.0 0.01000800765812914 0.010008015476891232 0.0 1.327393577706479e-13 0.0 0.01 0.0 1.3273935776733917e-13 0.0 0.010008130003807828 0.010008106546771256 0.0 4.756403893973395e-13 0.0 0.01 0.0 4.756403893956851e-13 0.0 0.010008481478131234 0.010008259722193167 0.0 8.536516975251405e-13 0.0 0.01 0.0 8.536516975267949e-13 0.0 0.010009005801076169 0.010008480024438977 0.0 1.0968946620965637e-12 0.0 0.01 0.0 1.0968946620965637e-12 0.0 0.010009623223161571 0.010008771778129793 0.0 1.3536871642493925e-12 0.0 0.01 0.0 1.3536871642493925e-12 0.0 0.010010245223209592 0.010009139965592214 0.0 2.225897877801796e-12 0.0 0.01 0.0 2.2258978778034504e-12 0.0 0.01001082123957495 0.010009588974652523 0.0 4.274895940648716e-12 0.0 0.01 0.0 4.274895940648716e-12 0.0 0.010011345428646654 0.010005226744975546 0.0 1.14773432661742e-17 0.0 0.01 0.0 1.14773432661742e-17 0.0 0.010007502083752472 0.010005250231847623 0.0 1.8442273644533553e-13 0.0 0.01 0.0 1.8442273644533553e-13 0.0 0.010007617094188095 0.010005319191061032 0.0 6.709427863721711e-13 0.0 0.01 0.0 6.709427863717575e-13 0.0 0.010007945509646307 0.01000543898416652 0.0 1.2720015344739616e-12 0.0 0.01 0.0 1.2720015344747888e-12 0.0 0.010008438419032551 0.010005612120852374 0.0 1.7995562241573238e-12 0.0 0.01 0.0 1.7995562241573238e-12 0.0 0.010009021493433402 0.010005845922228258 0.0 2.4173023490097662e-12 0.0 0.01 0.0 2.4173023490114206e-12 0.0 0.010009607578118212 0.01000615167180752 0.0 3.8052098834752465e-12 0.0 0.01 0.0 3.8052098834752465e-12 0.0 0.01001014822710087 0.010006542064195342 0.0 6.806599042716339e-12 0.0 0.01 0.0 6.806599042716339e-12 0.0 0.010010641963636187 0.010002652404914693 0.0 -2.2400858322913822e-17 0.0 0.01 0.0 -2.2400858322913822e-17 0.0 0.010006963316419492 0.010002666115847159 0.0 1.8686877857031276e-13 0.0 0.01 0.0 1.8686877857031276e-13 0.0 0.010007069489592369 0.010002713003659089 0.0 6.998560085386001e-13 0.0 0.01 0.0 6.998560085383933e-13 0.0 0.01000737384803375 0.010002793670253104 0.0 1.3601403268081894e-12 0.0 0.01 0.0 1.3601403268081894e-12 0.0 0.010007832442472702 0.010002912421836246 0.0 1.963303185978028e-12 0.0 0.01 0.0 1.963303185978855e-12 0.0 0.01000837425749514 0.010003081974199485 0.0 2.6478760176074444e-12 0.0 0.01 0.0 2.6478760176074444e-12 0.0 0.01000891866722127 0.010003313145813212 0.0 4.035766753067832e-12 0.0 0.01 0.0 4.035766753067832e-12 0.0 0.010009421999402005 0.010003630375987964 0.0 7.0314613365588635e-12 0.0 0.01 0.0 7.031461336557209e-12 0.0 0.010009877415250102 0.010000547895025054 0.0 4.723978498127921e-18 0.0 0.01 0.0 4.723978498127921e-18 0.0 0.010006411410661248 0.010000556696483198 0.0 1.4474144745190332e-13 0.0 0.01 0.0 1.4474144745190332e-13 0.0 0.010006509300136617 0.010000579150308378 0.0 5.412289842179472e-13 0.0 0.01 0.0 5.412289842179472e-13 0.0 0.010006787153570272 0.010000622608141309 0.0 1.052660656285689e-12 0.0 0.01 0.0 1.052660656285689e-12 0.0 0.010007209939996044 0.010000691971817128 0.0 1.4902930312711953e-12 0.0 0.01 0.0 1.4902930312711953e-12 0.0 0.010007707150878894 0.010000796945258137 0.0 1.885531714175092e-12 0.0 0.01 0.0 1.885531714175092e-12 0.0 0.010008207844258403 0.01000095618712659 0.0 2.608670420215531e-12 0.0 0.01 0.0 2.6086704202159447e-12 0.0 0.010008666503237318 0.010001197014892401 0.0 4.355986799424691e-12 0.0 0.01 0.0 4.355986799424691e-12 0.0 0.01000908416332764 0.009999012146397493 0.0 -2.6701997494284664e-19 0.0 0.01 0.0 -2.6701997494284664e-19 0.0 0.010005864504831602 0.009999014145805441 0.0 7.97035693153844e-14 0.0 0.01 0.0 7.97035693153844e-14 0.0 0.010005954514216582 0.009999021143742695 0.0 2.9800555738505126e-13 0.0 0.01 0.0 2.9800555738505126e-13 0.0 0.010006207425038846 0.009999033640095772 0.0 5.620003393289909e-13 0.0 0.01 0.0 5.620003393288875e-13 0.0 0.010006590509501888 0.009999062131955973 0.0 7.235088305393868e-13 0.0 0.01 0.0 7.235088305393868e-13 0.0 0.01000704112965052 0.009999117616803757 0.0 7.32581138750569e-13 0.0 0.01 0.0 7.325811387506724e-13 0.0 0.010007496220581587 0.00999922009124814 0.0 6.966605186937546e-13 0.0 0.01 0.0 6.96660518693858e-13 0.0 0.010007909273605575 0.009999402053635253 0.0 8.621598557589756e-13 0.0 0.01 0.0 8.621598557589756e-13 0.0 0.010008285686525273 0.00999798860701805 0.0 1.0819132651024863e-18 0.0 0.01 0.0 1.0819132651024863e-18 0.0 0.01000534217778236 0.009997986108527228 0.0 2.0250378418159348e-14 0.0 0.01 0.0 2.0250378418159348e-14 0.0 0.010005421906374705 0.009997980611854014 0.0 7.3695215737402e-14 0.0 0.01 0.0 7.3695215737402e-14 0.0 0.010005650285253275 0.009997976614279187 0.0 1.0883254449089948e-13 0.0 0.01 0.0 1.0883254449089948e-13 0.0 0.010005992181636201 0.009997980611854012 0.0 5.5235827630605285e-14 0.0 0.01 0.0 5.5235827630605285e-14 0.0 0.010006394327889597 0.009998006596207263 0.0 -5.072319281214928e-14 0.0 0.01 0.0 -5.072319281214928e-14 0.0 0.010006799879471158 0.009998075055954129 0.0 -1.6369789592943916e-13 0.0 0.01 0.0 -1.6369789592943916e-13 0.0 0.010007172258822099 0.009998222973785581 0.0 -3.8273869756939167e-13 0.0 0.01 0.0 -3.8273869756933997e-13 0.0 0.010007511855726845 0.00999734655648814 0.0 2.72951674632324e-19 0.0 0.01 0.0 2.72951674632324e-19 0.0 0.010004851177806955 0.009997343558876954 0.0 -2.875247745111394e-14 0.0 0.01 0.0 -2.875247745111394e-14 0.0 0.010004922081649697 0.00999733256765901 0.0 -1.3504737109612798e-13 0.0 0.01 0.0 -1.3504737109612798e-13 0.0 0.010005122583442473 0.009997320577280776 0.0 -3.169840978342918e-13 0.0 0.01 0.0 -3.169840978342918e-13 0.0 0.010005423358734833 0.009997316080900057 0.0 -4.635014713149397e-13 0.0 0.01 0.0 -4.635014713149397e-13 0.0 0.010005777452990331 0.009997335565260309 0.0 -1.4972305209241883e-13 0.0 0.01 0.0 -1.4972305209241883e-13 0.0 0.010006136493865505 0.009997400014340447 0.0 1.1060796559482044e-12 0.0 0.01 0.0 1.1060796559482044e-12 0.0 0.010006472578722406 0.009997543405525056 0.0 3.1405703377869654e-12 0.0 0.01 0.0 3.1405703377869654e-12 0.0 0.010006783746644418 0.009996963383715998 0.0 2.503704498561176e-18 0.0 0.01 0.0 2.503704498561176e-18 0.0 0.010004398400187743 0.009996959886905313 0.0 -9.751328414270284e-14 0.0 0.01 0.0 -9.751328414270284e-14 0.0 0.010004459030670994 0.009996951394666062 0.0 -4.022647023186634e-13 0.0 0.01 0.0 -4.022647023186634e-13 0.0 0.010004630664473258 0.00999694240290692 0.0 -8.40390314272022e-13 0.0 0.01 0.0 -8.40390314272022e-13 0.0 0.010004892237758158 0.009996943401990071 0.0 -9.066792473438591e-13 0.0 0.01 0.0 -9.066792473438591e-13 0.0 0.010005199352180182 0.009996971875985796 0.0 5.925902611713736e-13 0.0 0.01 0.0 5.92590261171477e-13 0.0 0.010005515309442686 0.009997054801640141 0.0 5.192804126318648e-12 0.0 0.01 0.0 5.192804126318648e-12 0.0 0.01000582002696715 0.009997225155391852 0.0 1.2513491748493166e-11 0.0 0.01 0.0 1.2513491748491512e-11 0.0 0.010006116457084126 0.009996761573790177 0.0 -3.1632744037905252e-18 0.0 0.01 0.0 -3.1632744037905252e-18 0.0 0.010003984329968409 0.009996759076219148 0.0 -1.9538406305177212e-13 0.0 0.01 0.0 -1.9538406305177212e-13 0.0 0.010004035141041116 0.009996754081082705 0.0 -7.610586989115592e-13 0.0 0.01 0.0 -7.610586989115592e-13 0.0 0.010004179869236237 0.00999675557962285 0.0 -1.3805838478106843e-12 0.0 0.01 0.0 -1.3805838478102707e-12 0.0 0.010004398900847835 0.00999677506070609 0.0 -9.074709614765386e-13 0.0 0.01 0.0 -9.074709614763318e-13 0.0 0.010004660956653578 0.00999683250558897 0.0 3.1219558225790154e-12 0.0 0.01 0.0 3.1219558225790154e-12 0.0 0.010004941159847808 0.009996952893294947 0.0 1.329457550282063e-11 0.0 0.01 0.0 1.329457550282063e-11 0.0 0.010005228197250686 0.009997172199920402 0.0 5.821310791005658e-11 0.0 0.01 0.0 5.821310791006981e-11 0.0 0.010005527028832692 0.00999670213210754 0.0 2.1438063819846063e-18 0.0 0.01 0.0 2.1438063819846063e-18 0.0 0.010003602045275234 0.009996703131118657 0.0 -2.800024224680343e-13 0.0 0.01 0.0 -2.800024224680343e-13 0.0 0.010003642589302334 0.00999670912519164 0.0 -9.715239657906777e-13 0.0 0.01 0.0 -9.715239657906777e-13 0.0 0.010003762372252086 0.009996729605022353 0.0 -1.2777587590462423e-12 0.0 0.01 0.0 -1.277758759046656e-12 0.0 0.010003944232318688 0.009996777058772352 0.0 9.990236922044932e-13 0.0 0.01 0.0 9.990236922044932e-13 0.0 0.010004171058208403 0.00999687746314461 0.0 9.692110242462235e-12 0.0 0.01 0.0 9.692110242462235e-12 0.0 0.01000442823966024 0.009997057798991592 0.0 2.7507969403198592e-11 0.0 0.01 0.0 2.7507969403198592e-11 0.0 0.010004712779451315 0.009997336064860857 0.0 6.74864323491022e-10 0.0 0.01 0.0 6.74864323491022e-10 0.0 0.010005033598017288 0.009996783552495968 0.0 -3.292100125998227e-18 0.0 0.01 0.0 -3.292100125998227e-18 0.0 0.010003247180943113 0.009996789047195066 0.0 -2.086519256471798e-13 0.0 0.01 0.0 -2.086519256471798e-13 0.0 0.010003280913953404 0.009996811026082067 0.0 -4.2962596632412923e-13 0.0 0.01 0.0 -4.2962596632412923e-13 0.0 0.010003378661532017 0.009996859480049572 0.0 9.36618100771845e-13 0.0 0.01 0.0 9.36618100771845e-13 0.0 0.010003534573098277 0.00999695539101125 0.0 7.32043709186812e-12 0.0 0.01 0.0 7.32043709186812e-12 0.0 0.010003737944790628 0.00999711874572249 0.0 2.3091923732335334e-11 0.0 0.01 0.0 2.3091923732335334e-11 0.0 0.01000399018696884 0.00999737053747471 0.0 2.6978221053643655e-10 0.0 0.01 0.0 2.6978221053643655e-10 0.0 0.010004292812654754 0.00999769679596 0.0 4.649078979495635e-09 0.0 0.01 0.0 4.649078979495635e-09 0.0 0.010004649240309818 0.009997018833633027 0.0 3.5572560220154796e-19 0.0 0.01 0.0 3.5572560220154796e-19 0.0 0.010002922680810336 0.009997032821145219 0.0 2.596227802152708e-13 0.0 0.01 0.0 2.596227802152191e-13 0.0 0.010002950505308717 0.009997081278337896 0.0 1.7998797522205466e-12 0.0 0.01 0.0 1.7998797522197194e-12 0.0 0.01000303603206413 0.009997174697801089 0.0 7.094662298255881e-12 0.0 0.01 0.0 7.094662298255881e-12 0.0 0.01000317776408615 0.009997334566059574 0.0 2.0067108411119284e-11 0.0 0.01 0.0 2.0067108411125902e-11 0.0 0.010003380113002544 0.009997575382100965 0.0 2.418007431319938e-10 0.0 0.01 0.0 2.4180074313194084e-10 0.0 0.010003645542528517 0.009997887169798055 0.0 3.3118063837883863e-09 0.0 0.01 0.0 3.3118063837883863e-09 0.0 0.010003978923517254 0.009998206482681283 0.0 2.0036641448457416e-08 0.0 0.01 0.0 2.0036641448457416e-08 0.0 0.010004377372592176 0.009997460967330505 0.0 1.3046560662814127e-18 0.0 0.01 0.0 1.3046560662814127e-18 0.0 0.010002639244474152 0.009997487946878776 0.0 1.3521717161323327e-12 0.0 0.01 0.0 1.3521717161327463e-12 0.0 0.01000266611584716 0.009997569886105137 0.0 6.358608846696998e-12 0.0 0.01 0.0 6.358608846698652e-12 0.0 0.010002750634482428 0.00999772177878035 0.0 3.677268691483744e-11 0.0 0.01 0.0 3.6772686914850674e-11 0.0 0.010002897258629916 0.009997949131082103 0.0 4.985737679745411e-10 0.0 0.01 0.0 4.985737679747528e-10 0.0 0.010003112802828255 0.00999824146397842 0.0 3.908670158648827e-09 0.0 0.01 0.0 3.908670158648827e-09 0.0 0.010003405538866944 0.009998550815133754 0.0 1.8683772026953783e-08 0.0 0.01 0.0 1.8683772026947007e-08 0.0 0.010003774586102297 0.009998792219415608 0.0 6.166643282633482e-08 0.0 0.01 0.0 6.166643282633482e-08 0.0 0.010004196991302462 0.009998184994256486 0.0 1.6808045805891377e-18 0.0 0.01 0.0 1.6808045805891377e-18 0.0 0.01000242177946838 0.009998221474585437 0.0 9.67962366865342e-12 0.0 0.01 0.0 9.679623668656729e-12 0.0 0.010002453552692808 0.009998336415219251 0.0 1.8715489464933095e-10 0.0 0.01 0.0 1.8715489464927801e-10 0.0 0.010002547823379929 0.00999852382692765 0.0 1.3282454855270798e-09 0.0 0.01 0.0 1.3282454855266563e-09 0.0 0.010002712553293026 0.009998771226525817 0.0 6.359260818124217e-09 0.0 0.01 0.0 6.359260818124217e-09 0.0 0.010002953457928059 0.00999904213771817 0.0 2.2447281760275468e-08 0.0 0.01 0.0 2.2447281760275468e-08 0.0 0.010003271154443463 0.009999264081843344 0.0 6.320394932435042e-08 0.0 0.01 0.0 6.320394932432332e-08 0.0 0.01000365435276723 0.009999349566598838 0.0 1.4456720376756008e-07 0.0 0.01 0.0 1.4456720376756008e-07 0.0 0.010004069385769816 0.00999918759901003 0.0 3.657124722722242e-18 0.0 0.01 0.0 3.657124722722242e-18 0.0 0.010002303545704024 0.00999922708961782 0.0 3.177985777272904e-10 0.0 0.01 0.0 3.1779857772707866e-10 0.0 0.01000234067155511 0.009999340565234714 0.0 2.376978683450869e-09 0.0 0.01 0.0 2.376978683450869e-09 0.0 0.010002451100890755 0.00999951003602614 0.0 9.689551339401008e-09 0.0 0.01 0.0 9.689551339394232e-09 0.0 0.010002633840215913 0.009999701513493546 0.0 2.931737110366359e-08 0.0 0.01 0.0 2.931737110366359e-08 0.0 0.010002889451986446 0.009999859503739647 0.0 7.2065597105759e-08 0.0 0.01 0.0 7.2065597105759e-08 0.0 0.010003210045776159 0.009999907504673075 0.0 1.5036141645858626e-07 0.0 0.01 0.0 1.5036141645853205e-07 0.0 0.010003575169750369 0.00999978551780266 0.0 2.696565478966769e-07 0.0 0.01 0.0 2.6965654789656845e-07 0.0 0.010003954505376724 0.010000339867325686 0.0 1.9026751778937767e-17 0.0 0.01 0.0 1.9026751778937767e-17 0.0 0.010002307448402078 0.010000366220117117 0.0 1.865358904359977e-09 0.0 0.01 0.0 1.865358904358283e-09 0.0 0.010002346025317575 0.010000438978918884 0.0 1.0068112117672852e-08 0.0 0.01 0.0 1.0068112117679628e-08 0.0 0.01000246431064002 0.010000526391712797 0.0 3.189077008833351e-08 0.0 0.01 0.0 3.1890770088360615e-08 0.0 0.010002652405067248 0.010000583051885713 0.0 7.73622313700274e-08 0.0 0.01 0.0 7.736223136997318e-08 0.0 0.010002897759962421 0.010000547398571568 0.0 1.5556654755566942e-07 0.0 0.01 0.0 1.5556654755566942e-07 0.0 0.010003187577076439 0.010000377982335691 0.0 2.697205965247317e-07 0.0 0.01 0.0 2.697205965246233e-07 0.0 0.010003509157165356 0.010000143578700077 0.0 4.1329659695435103e-07 0.0 0.01 0.0 4.1329659695435103e-07 0.0 0.010003870922041328 0.01000143000667939 0.0 1.5075662559054976e-17 0.0 0.01 0.0 1.5075662559054976e-17 0.0 0.01000242423124972 0.0100014305068977 0.0 4.994605037729146e-09 0.0 0.01 0.0 4.994605037729146e-09 0.0 0.010002462359187147 0.01000142070278651 0.0 2.3727792573666933e-08 0.0 0.01 0.0 2.3727792573666933e-08 0.0 0.010002573743366747 0.010001369932096903 0.0 6.540585239319004e-08 0.0 0.01 0.0 6.540585239319004e-08 0.0 0.010002743829518164 0.010001238532972995 0.0 1.3948740228565248e-07 0.0 0.01 0.0 1.394874022857609e-07 0.0 0.01000295736429916 0.010001028017817671 0.0 2.493036888118541e-07 0.0 0.01 0.0 2.493036888122878e-07 0.0 0.010003213457596652 0.010000852181638578 0.0 3.8931375999254163e-07 0.0 0.01 0.0 3.8931375999254163e-07 0.0 0.010003529240162451 0.010000892262452986 0.0 5.359109686764365e-07 0.0 0.01 0.0 5.359109686764365e-07 0.0 0.010003917393724297 0.010002192620927214 0.0 -1.3320732173339364e-16 0.0 0.01 0.0 -1.3320732173339364e-16 0.0 0.010002624082510092 0.01000216185084822 0.0 8.318708026892538e-09 0.0 0.01 0.0 8.318708026865433e-09 0.0 0.010002659760783291 0.010002074395498469 0.0 3.7384941656390565e-08 0.0 0.01 0.0 3.7384941656390565e-08 0.0 0.010002761393582624 0.010001941466646357 0.0 9.661055420137447e-08 0.0 0.01 0.0 9.661055420137447e-08 0.0 0.010002914374940896 0.010001827156317037 0.0 1.9440668428804403e-07 0.0 0.01 0.0 1.9440668428826087e-07 0.0 0.01000312011532369 0.010001852080438047 0.0 3.271078434633791e-07 0.0 0.01 0.0 3.271078434629454e-07 0.0 0.010003377226109889 0.010002044108601647 0.0 4.6223112118090603e-07 0.0 0.01 0.0 4.6223112118090603e-07 0.0 0.010003690574054053 0.010002273766039332 0.0 5.216598477904115e-07 0.0 0.01 0.0 5.216598477899778e-07 0.0 0.010004053754369949 0.010003445630037149 0.0 -4.534779526480318e-17 0.0 0.01 0.0 -4.534779526480318e-17 0.0 0.01000286498074705 0.010003429012928474 0.0 1.0024138712697766e-08 0.0 0.01 0.0 1.002413871272487e-08 0.0 0.010002898209471076 0.010003392826206353 0.0 4.450297211885772e-08 0.0 0.01 0.0 4.450297211885772e-08 0.0 0.010002993543956196 0.01000336595057541 0.0 1.1245135961290842e-07 0.0 0.01 0.0 1.1245135961290842e-07 0.0 0.0100031489386423 0.010003384023786501 0.0 2.1335250242979914e-07 0.0 0.01 0.0 2.1335250242979914e-07 0.0 0.010003365004545295 0.01000337622372294 0.0 3.1283248051999085e-07 0.0 0.01 0.0 3.1283248051999085e-07 0.0 0.01000362893908329 0.010003282882715937 0.0 3.351509325465879e-07 0.0 0.01 0.0 3.3515093254528686e-07 0.0 0.010003903200881877 0.01000302627869654 0.0 1.9154997221780372e-07 0.0 0.01 0.0 1.9154997221780372e-07 0.0 0.010004146132633047 0.010005433124621058 0.0 -8.033327532823784e-18 0.0 0.01 0.0 -8.033327532823784e-18 0.0 0.010003109850073837 0.010005354397374813 0.0 6.952917100756567e-09 0.0 0.01 0.0 6.952917100756567e-09 0.0 0.010003139678025205 0.010005104005107181 0.0 2.997588042640432e-08 0.0 0.01 0.0 2.997588042643142e-08 0.0 0.010003230064458302 0.010004671221737153 0.0 6.97077516864696e-08 0.0 0.01 0.0 6.970775168657802e-08 0.0 0.010003397731630621 0.010004107030420128 0.0 1.0496732166277722e-07 0.0 0.01 0.0 1.0496732166234354e-07 0.0 0.01000365580541044 0.010003599092990772 0.0 7.761243312094657e-08 0.0 0.01 0.0 7.761243312094657e-08 0.0 0.010003927113023978 0.010002901162748913 0.0 -6.958275617610817e-08 0.0 0.01 0.0 -6.958275617610817e-08 0.0 0.010004084051284726 0.01000453873815269 0.0 -2.5277249486665936e-17 0.0 0.01 0.0 -2.5277249486665936e-17 0.0 0.01000333076335896 0.010004394995701448 0.0 -1.4333471986728997e-09 0.0 0.01 0.0 -1.4333471986695116e-09 0.0 0.010003358641313602 0.010003953493297019 0.0 -1.0300832184299315e-08 0.0 0.01 0.0 -1.0300832184299315e-08 0.0 0.010003459294195773 0.01000328236567571 0.0 -4.430465013133614e-08 0.0 0.01 0.0 -4.430465013133614e-08 0.0 0.01000367782826263 0.010002607972565634 0.0 -1.340511743013915e-07 0.0 0.01 0.0 -1.3405117430149993e-07 0.0 0.010004003856038056 0.009999883502035798 0.0 3.9165217501801006e-16 0.0 0.01 0.0 3.9165217501801006e-16 0.0 0.010000003900002281 0.009999888501864803 0.0 3.4082130915771787e-16 0.0 0.01 0.0 3.4082130915771787e-16 0.0 0.010000003900002281 0.009999892501733406 0.0 -2.378451110555959e-16 0.0 0.01 0.0 -2.378451110555959e-16 0.0 0.010000003400001733 0.009999899501515013 0.0 -2.7059229027067465e-16 0.0 0.01 0.0 -2.7059229027067465e-16 0.0 0.0100000024500009 0.009999910001214982 0.0 -2.8771371587076697e-16 0.0 0.01 0.0 -2.8771371587076697e-16 0.0 0.01 0.009999923000889342 0.0 8.503860229221624e-16 0.0 0.01 0.0 8.503860229221624e-16 0.0 0.009999998000000601 0.009999939000558143 0.0 3.505595294487096e-15 0.0 0.01 0.0 3.5055952946938913e-15 0.0 0.009999995000003748 0.009999855503131962 0.0 1.2795288390860809e-17 0.0 0.01 0.0 1.2795288390860809e-17 0.0 0.010000005850005133 0.00999986050291897 0.0 -3.681466246063782e-16 0.0 0.01 0.0 -3.681466246063782e-16 0.0 0.010000005850005133 0.009999865502713475 0.0 -1.1413744617482836e-15 0.0 0.01 0.0 -1.1413744617482836e-15 0.0 0.010000004900003601 0.009999875502324994 0.0 -2.0932797256383265e-15 0.0 0.01 0.0 -2.0932797256383265e-15 0.0 0.010000003400001737 0.009999887501898404 0.0 -2.5633879274280906e-15 0.0 0.01 0.0 -2.5633879274022412e-15 0.0 0.010000001000000152 0.009999903501396817 0.0 -1.3621593719558711e-15 0.0 0.01 0.0 -1.3621593719558711e-15 0.0 0.00999999750000094 0.009999922500900928 0.0 1.0454739770006279e-15 0.0 0.01 0.0 1.0454739770006279e-15 0.0 0.009999993500006339 0.009999943500478833 0.0 5.524282809286758e-15 0.0 0.01 0.0 5.524282809493553e-15 0.0 0.009999990500013536 0.009999828004437473 0.0 -5.694380436446111e-17 0.0 0.01 0.0 -5.694380436446111e-17 0.0 0.010000006850007037 0.00999983100428403 0.0 -8.338006762426478e-16 0.0 0.01 0.0 -8.338006762426478e-16 0.0 0.010000007300007994 0.009999838503912232 0.0 -1.558274452059547e-15 0.0 0.01 0.0 -1.558274452059547e-15 0.0 0.010000006850007037 0.009999847503488353 0.0 -2.664362811200457e-15 0.0 0.01 0.0 -2.664362811200457e-15 0.0 0.010000004900003604 0.009999863002815287 0.0 -2.97039395463669e-15 0.0 0.01 0.0 -2.970393954584991e-15 0.0 0.010000001450000316 0.009999881502106296 0.0 -8.369914458652865e-16 0.0 0.01 0.0 -8.369914458652865e-16 0.0 0.009999997000001351 0.009999904501368019 0.0 3.0175806257598895e-15 0.0 0.01 0.0 3.0175806257598895e-15 0.0 0.00999999150001084 0.009999928500766832 0.0 6.443516794920588e-15 0.0 0.01 0.0 6.443516794920588e-15 0.0 0.009999988000021604 0.009999794506334321 0.0 -3.798623157059021e-16 0.0 0.01 0.0 -3.798623157059021e-16 0.0 0.010000009300012973 0.009999799506029836 0.0 -4.864093948456484e-16 0.0 0.01 0.0 -4.864093948456484e-16 0.0 0.010000009300012973 0.009999806005645217 0.0 -1.0906111347649537e-15 0.0 0.01 0.0 -1.0906111347649537e-15 0.0 0.010000009300012973 0.009999816005078243 0.0 -7.556484706157507e-16 0.0 0.01 0.0 -7.556484706157507e-16 0.0 0.010000006850007037 0.009999833504158222 0.0 1.2134246997383954e-15 0.0 0.01 0.0 1.2134246997383954e-15 0.0 0.01000000195000057 0.009999856503088761 0.0 4.963897096298217e-15 0.0 0.01 0.0 4.963897096246518e-15 0.0 0.009999996500001836 0.0099998835020358 0.0 1.9425743353786682e-13 0.0 0.01 0.0 1.9425743353124938e-13 0.0 0.009999990500013538 0.009999913001135332 0.0 7.149578647824098e-13 0.0 0.01 0.0 7.149578647691749e-13 0.0 0.009999985500031538 0.009999758008784247 0.0 -1.0327964750764962e-16 0.0 0.01 0.0 -1.0327964750764962e-16 0.0 0.010000010750017335 0.009999760508603696 0.0 1.9778395659562019e-16 0.0 0.01 0.0 1.9778395659562019e-16 0.0 0.010000012200022326 0.009999767508108123 0.0 1.831024971216285e-15 0.0 0.01 0.0 1.831024971216285e-15 0.0 0.01000000975001426 0.009999779507292774 0.0 5.742748209233043e-15 0.0 0.01 0.0 5.742748209233043e-15 0.0 0.010000008300010337 0.009999797506150728 0.0 1.6571280982108636e-12 0.0 0.01 0.0 1.6571280982373334e-12 0.0 0.010000002950001306 0.009999823504672703 0.0 1.520212254362675e-11 0.0 0.01 0.0 1.520212254352087e-11 0.0 0.009999996500001839 0.009999855003153672 0.0 4.366340427706524e-11 0.0 0.01 0.0 4.3663404277488756e-11 0.0 0.009999989000018148 0.00999989150176581 0.0 7.772637680101288e-11 0.0 0.01 0.0 7.772637680101288e-11 0.0 0.009999983000043353 0.009999708512745217 0.0 2.9382299536896125e-17 0.0 0.01 0.0 2.9382299536896125e-17 0.0 0.010000012200022326 0.009999711012527546 0.0 1.2849199968539907e-15 0.0 0.01 0.0 1.2849199968539907e-15 0.0 0.010000012700024194 0.009999718011928041 0.0 6.5115814780539e-15 0.0 0.01 0.0 6.5115814780022016e-15 0.0 0.010000012200022328 0.00999973201077312 0.0 6.608017077390685e-12 0.0 0.01 0.0 6.608017077390685e-12 0.0 0.010000009300012973 0.009999750509337152 0.0 5.881188838000365e-11 0.0 0.01 0.0 5.881188838042717e-11 0.0 0.010000003900002285 0.009999780007259738 0.0 2.1204762112734176e-10 0.0 0.01 0.0 2.120476211256477e-10 0.0 0.009999996500001844 0.009999819004914036 0.0 4.5756650982474076e-10 0.0 0.01 0.0 4.5756650982474076e-10 0.0 0.009999987000025383 0.009999860502919048 0.0 7.202417682037167e-10 0.0 0.01 0.0 7.202417682037167e-10 0.0 0.009999980000060076 0.00999964801858451 0.0 8.026943963761131e-16 0.0 0.01 0.0 8.026943963761131e-16 0.0 0.010000015600036504 0.00999965101826909 0.0 4.526214195901218e-15 0.0 0.01 0.0 4.526214195901218e-15 0.0 0.010000015600036506 0.009999657517594934 0.0 5.524181624008046e-12 0.0 0.01 0.0 5.524181623981576e-12 0.0 0.010000015600036508 0.009999670016334108 0.0 7.779423657580217e-11 0.0 0.01 0.0 7.779423657580217e-11 0.0 0.01000001220002233 0.009999692014228895 0.0 3.8600541142166955e-10 0.0 0.01 0.0 3.8600541142166955e-10 0.0 0.010000005350004317 0.009999722011592249 0.0 1.103973334921687e-09 0.0 0.01 0.0 1.1039733349149108e-09 0.0 0.009999996500002023 0.009999763008425734 0.0 2.1857860553405354e-09 0.0 0.01 0.0 2.1857860553405354e-09 0.0 0.009999986000030119 0.009999813005246702 0.0 3.1822077831426994e-09 0.0 0.01 0.0 3.1822077831698044e-09 0.0 0.009999976000087916 0.009999573527283397 0.0 7.873065322797256e-16 0.0 0.01 0.0 7.873065322797256e-16 0.0 0.010000019050054435 0.009999574527155611 0.0 9.79525431382945e-13 0.0 0.01 0.0 9.795254313895624e-13 0.0 0.010000019050054433 0.009999581026332312 0.0 4.373370333183031e-11 0.0 0.01 0.0 4.3733703331618555e-11 0.0 0.010000019050054433 0.009999593524784679 0.0 3.431349954642496e-10 0.0 0.01 0.0 3.431349954642496e-10 0.0 0.010000015600036521 0.009999612522522267 0.0 1.3747008576240564e-09 0.0 0.01 0.0 1.3747008576308326e-09 0.0 0.010000008300010618 0.009999641019332952 0.0 3.6123126025106684e-09 0.0 0.01 0.0 3.612312602524221e-09 0.0 0.00999999700000331 0.009999681515222663 0.0 6.895576998262138e-09 0.0 0.01 0.0 6.8955769983163485e-09 0.0 0.009999983500047969 0.009999735510507918 0.0 9.778505734954132e-09 0.0 0.01 0.0 9.778505734954132e-09 0.0 0.009999971500136179 0.009999485039780334 0.0 1.2636990306695826e-15 0.0 0.01 0.0 1.2636990306695826e-15 0.0 0.010000022950079004 0.009999485039780338 0.0 8.60561222086261e-12 0.0 0.01 0.0 8.60561222086261e-12 0.0 0.010000024400089309 0.009999487539395079 0.0 1.5114789151778393e-10 0.0 0.01 0.0 1.5114789151736042e-10 0.0 0.010000025400096781 0.00999949503825066 0.0 9.340768100504413e-10 0.0 0.01 0.0 9.340768100538294e-10 0.0 0.010000022950079136 0.009999510036013801 0.0 3.4076891202220166e-09 0.0 0.01 0.0 3.4076891201949115e-09 0.0 0.010000014150031778 0.009999531033002914 0.0 8.695300790376517e-09 0.0 0.01 0.0 8.695300790403622e-09 0.0 0.010000000000011344 0.00999956402855335 0.0 1.653729955568544e-08 0.0 0.01 0.0 1.653729955568544e-08 0.0 0.009999982500086962 0.00999961502231612 0.0 2.3635589324264017e-08 0.0 0.01 0.0 2.3635589324372437e-08 0.0 0.009999967500242237 0.009999377558119906 0.0 8.077773356381732e-14 0.0 0.01 0.0 8.077773356423092e-14 0.0 0.010000029800133207 0.009999373558869191 0.0 2.5718201244717434e-11 0.0 0.01 0.0 2.5718201244823313e-11 0.0 0.01000003320016534 0.009999374558681435 0.0 3.2910860707862196e-10 0.0 0.01 0.0 3.2910860707862196e-10 0.0 0.010000035150185346 0.009999375558494448 0.0 1.8273044797667386e-09 0.0 0.01 0.0 1.8273044797667386e-09 0.0 0.010000033200165834 0.009999381557381611 0.0 6.423718558422049e-09 0.0 0.01 0.0 6.423718558408497e-09 0.0 0.010000024400095493 0.00999938955594101 0.0 1.636254647443061e-08 0.0 0.01 0.0 1.636254647443061e-08 0.0 0.010000005850045297 0.009999406552980993 0.0 3.161027156966135e-08 0.0 0.01 0.0 3.161027156966135e-08 0.0 0.009999982000198495 0.009999448046021826 0.0 4.6219350272502964e-08 0.0 0.01 0.0 4.6219350272502964e-08 0.0 0.009999959500566494 0.009999246585153644 0.0 3.3729286974281253e-13 0.0 0.01 0.0 3.3729286974281253e-13 0.0 0.010000040550246647 0.009999239586743043 0.0 4.462685004382311e-11 0.0 0.01 0.0 4.462685004382311e-11 0.0 0.010000045900316024 0.009999236587428751 0.0 5.096375409706705e-10 0.0 0.01 0.0 5.096375409715175e-10 0.0 0.01000005175040175 0.0099992315885786 0.0 2.721216845486137e-09 0.0 0.01 0.0 2.721216845486137e-09 0.0 0.01000005225041062 0.009999227089631354 0.0 9.50465090960857e-09 0.0 0.01 0.0 9.504650909595018e-09 0.0 0.010000041000265702 0.009999220591221273 0.0 2.450609635758303e-08 0.0 0.01 0.0 2.450609635763724e-08 0.0 0.010000018550141706 0.009999218591949808 0.0 4.8332985480440196e-08 0.0 0.01 0.0 4.8332985480440196e-08 0.0 0.009999983000393795 0.009999242586838548 0.0 7.204118285925563e-08 0.0 0.01 0.0 7.204118285947247e-08 0.0 0.0099999485011764 0.009999092623514757 0.0 3.6581679796860913e-13 0.0 0.01 0.0 3.658167979694363e-13 0.0 0.010000055650464542 0.009999081126664752 0.0 5.0314410739383253e-11 0.0 0.01 0.0 5.0314410739277374e-11 0.0 0.010000064450623078 0.009999071629296882 0.0 5.823529264498874e-10 0.0 0.01 0.0 5.823529264490404e-10 0.0 0.010000074200825906 0.009999060632379788 0.0 3.1395239956621664e-09 0.0 0.01 0.0 3.1395239956621664e-09 0.0 0.010000080100963891 0.009999049135657237 0.0 1.113233523810167e-08 0.0 0.01 0.0 1.1132335238115223e-08 0.0 0.010000070800770493 0.009999035139790061 0.0 2.930042544875555e-08 0.0 0.01 0.0 2.930042544870134e-08 0.0 0.010000042000393396 0.009999021144264672 0.0 5.8991016916361966e-08 0.0 0.01 0.0 5.8991016916470386e-08 0.0 0.009999996000524461 0.009999039639572717 0.0 8.984655099943117e-08 0.0 0.01 0.0 8.984655099943117e-08 0.0 0.009999957001488362 0.009998908678673339 0.0 1.0036266567842586e-13 0.0 0.01 0.0 1.0036266567821907e-13 0.0 0.010000075200848271 0.009998891684281795 0.0 3.647669324381297e-11 0.0 0.01 0.0 3.647669324386591e-11 0.0 0.010000093251304357 0.009998875189808196 0.0 4.881300611813677e-10 0.0 0.01 0.0 4.881300611813677e-10 0.0 0.010000107901746429 0.009998860694733226 0.0 2.7953376236658305e-09 0.0 0.01 0.0 2.7953376236692187e-09 0.0 0.010000118652112889 0.009998844200427674 0.0 1.02906685163235e-08 0.0 0.01 0.0 1.02906685163235e-08 0.0 0.010000114251973885 0.00999882770629031 0.0 2.794828123212122e-08 0.0 0.01 0.0 2.7948281232148325e-08 0.0 0.010000088851301351 0.009998816210737666 0.0 5.777983085893503e-08 0.0 0.01 0.0 5.777983085888082e-08 0.0 0.01000004930086543 0.009998838703549742 0.0 9.04296340516501e-08 0.0 0.01 0.0 9.04296340516501e-08 0.0 0.010000049301591395 0.009998692256573667 0.0 1.0574108090066677e-16 0.0 0.01 0.0 1.0574108090066677e-16 0.0 0.010000102551577501 0.009998668266074533 0.0 1.4890481811479845e-11 0.0 0.01 0.0 1.4890481811453375e-11 0.0 0.010000125502362588 0.009998645275341583 0.0 2.860373734016455e-10 0.0 0.01 0.0 2.860373734016455e-10 0.0 0.010000150403393122 0.009998624283941812 0.0 1.873912089528159e-09 0.0 0.01 0.0 1.873912089529853e-09 0.0 0.010000170404356076 0.009998607790799153 0.0 7.393511219854171e-09 0.0 0.01 0.0 7.393511219847394e-09 0.0 0.010000175804644186 0.00999859379673301 0.0 2.1011041351161244e-08 0.0 0.01 0.0 2.101104135113414e-08 0.0 0.010000163554078633 0.00999858829929118 0.0 4.471840284419985e-08 0.0 0.01 0.0 4.471840284414564e-08 0.0 0.010000152853804576 0.009998615288422217 0.0 7.094232180383016e-08 0.0 0.01 0.0 7.094232180377595e-08 0.0 0.01000019775662102 0.009998435867053328 0.0 1.4219191797513323e-15 0.0 0.01 0.0 1.4219191797513323e-15 0.0 0.010000135752764273 0.009998403882220138 0.0 1.9595475763758214e-12 0.0 0.01 0.0 1.9595475763758214e-12 0.0 0.0100001679542312 0.009998375895742895 0.0 1.028792918107603e-10 0.0 0.01 0.0 1.0287929181086618e-10 0.0 0.010000202156129906 0.009998349408757795 0.0 8.891661240438943e-10 0.0 0.01 0.0 8.891661240430473e-10 0.0 0.010000232908136794 0.009998329418721922 0.0 3.984766007779459e-09 0.0 0.01 0.0 3.984766007779459e-09 0.0 0.010000250509415314 0.009998316425281232 0.0 1.2162065071567082e-08 0.0 0.01 0.0 1.216206507155353e-08 0.0 0.01000025490976871 0.009998315425872794 0.0 2.691002309103841e-08 0.0 0.01 0.0 2.6910023091011306e-08 0.0 0.010000275411485944 0.009998341413008678 0.0 4.3256864111550306e-08 0.0 0.01 0.0 4.325686411157741e-08 0.0 0.010000341817805824 0.00999813602129205 0.0 1.915445100136526e-15 0.0 0.01 0.0 1.915445100136526e-15 0.0 0.010000174804583388 0.009998094544752353 0.0 7.611397128105861e-15 0.0 0.01 0.0 7.611397128105861e-15 0.0 0.01000021730708315 0.00999805756610403 0.0 1.5579290737004694e-11 0.0 0.01 0.0 1.557929073699146e-11 0.0 0.01000026126023818 0.009998026084605165 0.0 2.562378907948898e-10 0.0 0.01 0.0 2.5623789079467805e-10 0.0 0.010000300813572786 0.00999800159920085 0.0 1.4792876109028644e-09 0.0 0.01 0.0 1.4792876109045585e-09 0.0 0.0100003330166346 0.009997986608229177 0.0 5.125001386294158e-09 0.0 0.01 0.0 5.125001386297546e-09 0.0 0.010000352568648757 0.009997986608247517 0.0 1.218639057495711e-08 0.0 0.01 0.0 1.2186390574963886e-08 0.0 0.010000389672797831 0.009998006096567714 0.0 2.0243557427023786e-08 0.0 0.01 0.0 2.0243557427010233e-08 0.0 0.010000461482004357 0.009997785235994277 0.0 -4.709025869673916e-16 0.0 0.01 0.0 -4.709025869673916e-16 0.0 0.010000220707306542 0.009997734270262376 0.0 1.3288059781926037e-14 0.0 0.01 0.0 1.3288059781926037e-14 0.0 0.010000271961094024 0.0099976863032267 0.0 -8.88296388851591e-14 0.0 0.01 0.0 -8.88296388852625e-14 0.0 0.010000327666104059 0.009997645331930443 0.0 2.6738873561178784e-11 0.0 0.01 0.0 2.6738873561178784e-11 0.0 0.01000037992164997 0.009997615852894742 0.0 2.9556744383926474e-10 0.0 0.01 0.0 2.9556744383926474e-10 0.0 0.010000421426638576 0.009997597366175144 0.0 1.3486070142260489e-09 0.0 0.01 0.0 1.3486070142260489e-09 0.0 0.010000450230404561 0.00999759236978374 0.0 3.6885789553865983e-09 0.0 0.01 0.0 3.688578955384904e-09 0.0 0.010000493186484579 0.009997601363301481 0.0 6.675069919933219e-09 0.0 0.01 0.0 6.675069919933219e-09 0.0 0.010000564997886471 0.009997378031568393 0.0 -9.6338927442177e-15 0.0 0.01 0.0 -9.6338927442177e-15 0.0 0.010000270510976031 0.009997313582913394 0.0 1.3560559743325407e-14 0.0 0.01 0.0 1.3560559743325407e-14 0.0 0.010000335966930307 0.009997254630971649 0.0 -7.162129526036656e-14 0.0 0.01 0.0 -7.162129526034071e-14 0.0 0.010000404324520427 0.009997203673353874 0.0 -7.753390047416582e-13 0.0 0.01 0.0 -7.753390047420718e-13 0.0 0.010000465382485113 0.009997166205014398 0.0 8.20804008094983e-12 0.0 0.01 0.0 8.208040080946521e-12 0.0 0.010000514689733104 0.009997141725926797 0.0 1.2742801863268918e-10 0.0 0.01 0.0 1.2742801863268918e-10 0.0 0.010000549845346162 0.009997131234944338 0.0 5.085193506709225e-10 0.0 0.01 0.0 5.085193506709225e-10 0.0 0.010000593802886133 0.009997130235805009 0.0 1.0948784667335025e-09 0.0 0.01 0.0 1.094878466733926e-09 0.0 0.010000666566640918 0.009996904937504983 0.0 -2.122303175135881e-14 0.0 0.01 0.0 -2.122303175135881e-14 0.0 0.010000326666005904 0.009996823014626986 0.0 6.320963883059381e-15 0.0 0.01 0.0 6.320963883059381e-15 0.0 0.010000405274635799 0.009996748086928851 0.0 -5.828680410749853e-14 0.0 0.01 0.0 -5.828680410749853e-14 0.0 0.010000486835549022 0.009996685648467377 0.0 -8.634359564077662e-13 0.0 0.01 0.0 -8.634359564073526e-13 0.0 0.010000561547296767 0.009996638196019106 0.0 -3.483348148653472e-12 0.0 0.01 0.0 -3.483348148653472e-12 0.0 0.01000062165796399 0.009996609225382907 0.0 -8.395437365603918e-12 0.0 0.01 0.0 -8.395437365603918e-12 0.0 0.010000660715475975 0.0099965917432243 0.0 -9.886132776134955e-12 0.0 0.01 0.0 -9.886132776134955e-12 0.0 0.010000706624890759 0.009996586248850534 0.0 6.2030622126562564e-12 0.0 0.01 0.0 6.203062212654602e-12 0.0 0.010000778390874421 0.009996360987326211 0.0 -2.891618453929649e-14 0.0 0.01 0.0 -2.891618453929649e-14 0.0 0.0100003862723798 0.009996257102441517 0.0 -5.878780185196282e-15 0.0 0.01 0.0 -5.878780185196282e-15 0.0 0.010000480484627603 0.009996160212727763 0.0 -4.7510968940537924e-14 0.0 0.01 0.0 -4.7510968940537924e-14 0.0 0.010000579650395294 0.00999607880756893 0.0 -9.845350317597742e-13 0.0 0.01 0.0 -9.845350317597742e-13 0.0 0.010000669517231999 0.009996017380452785 0.0 -4.3102415942154675e-12 0.0 0.01 0.0 -4.310241594213813e-12 0.0 0.010000742282639346 0.009995975430877881 0.0 -1.0838612038985887e-11 0.0 0.01 0.0 -1.0838612038979269e-11 0.0 0.010000790143639181 0.009995953457501802 0.0 -1.732409957332552e-11 0.0 0.01 0.0 -1.7324099573332136e-11 0.0 0.010000839955817017 0.00999594496782713 0.0 -1.4763142473837877e-11 0.0 0.01 0.0 -1.4763142473837877e-11 0.0 0.01000091612587762 0.009995733731710607 0.0 -2.297128080692481e-14 0.0 0.01 0.0 -2.297128080692481e-14 0.0 0.010000451180532744 0.009995602402531351 0.0 -2.18924080581324e-14 0.0 0.01 0.0 -2.18924080581324e-14 0.0 0.010000562047381038 0.00999547906767346 0.0 -4.257710588386368e-14 0.0 0.01 0.0 -4.257710588386368e-14 0.0 0.010000678269001086 0.009995371215831075 0.0 -1.147748536175949e-12 0.0 0.01 0.0 -1.1477485361755354e-12 0.0 0.01000078914340227 0.009995287333478393 0.0 -5.417068885283284e-12 0.0 0.01 0.0 -5.417068885283284e-12 0.0 0.010000879015886758 0.009995228417374198 0.0 -1.4103618318787436e-11 0.0 0.01 0.0 -1.4103618318790745e-11 0.0 0.010000938632138004 0.009995194466194107 0.0 -2.294466137963883e-11 0.0 0.01 0.0 -2.2944661379645447e-11 0.0 0.010001000650175078 0.009995176492180008 0.0 -1.9365061794417403e-11 0.0 0.01 0.0 -1.936506179442402e-11 0.0 0.01000108902787143 0.009995017725933279 0.0 1.3162724275788303e-14 0.0 0.01 0.0 1.3162724275788303e-14 0.0 0.010000521040719685 0.009994853475734847 0.0 -3.1226547619410635e-14 0.0 0.01 0.0 -3.1226547619410635e-14 0.0 0.010000649463264902 0.009994694225675442 0.0 -5.216155988752709e-14 0.0 0.01 0.0 -5.216155988752709e-14 0.0 0.010000787192941153 0.009994554451331891 0.0 -1.4145585281577736e-12 0.0 0.01 0.0 -1.4145585281586008e-12 0.0 0.010000918576551934 0.009994435647750462 0.0 -6.914784651593227e-12 0.0 0.01 0.0 -6.914784651593227e-12 0.0 0.010001028458637323 0.00999435029149017 0.0 -1.8393748969762606e-11 0.0 0.01 0.0 -1.8393748969762606e-11 0.0 0.010001105183187486 0.009994291391954197 0.0 -3.0059665385709206e-11 0.0 0.01 0.0 -3.0059665385709206e-11 0.0 0.010001188211743525 0.009994257949460817 0.0 -2.4317120865228198e-11 0.0 0.01 0.0 -2.4317120865234816e-11 0.0 0.010001296652152427 0.009994204541995925 0.0 9.100496607166365e-14 0.0 0.01 0.0 9.100496607166365e-14 0.0 0.010000599153843501 0.009994003897301956 0.0 -7.009456960827518e-15 0.0 0.01 0.0 -7.009456960827518e-15 0.0 0.010000740782305634 0.009993802765620969 0.0 -1.1425066298828316e-13 0.0 0.01 0.0 -1.1425066298828316e-13 0.0 0.010000899521356247 0.009993616118299358 0.0 -1.9427818938867494e-12 0.0 0.01 0.0 -1.9427818938867494e-12 0.0 0.010001055817188957 0.009993454432281931 0.0 -9.173442306763848e-12 0.0 0.01 0.0 -9.173442306763848e-12 0.0 0.010001186261048909 0.009993327184916473 0.0 -2.4207690287823398e-11 0.0 0.01 0.0 -2.4207690287830016e-11 0.0 0.010001284447428404 0.009993232875299624 0.0 -3.889936047775593e-11 0.0 0.01 0.0 -3.889936047775593e-11 0.0 0.010001402645056792 0.00999316850677682 0.0 -2.8482430441636442e-11 0.0 0.01 0.0 -2.8482430441629825e-11 0.0 0.01000154820946868 0.009993304231007263 0.0 1.9490087281222442e-13 0.0 0.01 0.0 1.9490087281222442e-13 0.0 0.010000689521309392 0.009993059232830465 0.0 1.2169487163579066e-14 0.0 0.01 0.0 1.2169487163579066e-14 0.0 0.010000843356675577 0.009992807267758641 0.0 -3.5087145003396744e-13 0.0 0.01 0.0 -3.5087145003396744e-13 0.0 0.010001019705948832 0.009992561807244995 0.0 -3.1110284075865793e-12 0.0 0.01 0.0 -3.1110284075861657e-12 0.0 0.010001197465054049 0.009992341806181233 0.0 -1.2972255710471242e-11 0.0 0.01 0.0 -1.297225571047455e-11 0.0 0.010001347922485282 0.00999215623835068 0.0 -3.271078561649199e-11 0.0 0.01 0.0 -3.2710785616498606e-11 0.0 0.010001464171506966 0.009992011582428077 0.0 -5.02847487309571e-11 0.0 0.01 0.0 -5.028474873097034e-11 0.0 0.010001630298594385 0.009991902346429351 0.0 -3.048182851426468e-11 0.0 0.01 0.0 -3.048182851426468e-11 0.0 0.010001838406836718 0.009992329334900825 0.0 1.2818281018854028e-13 0.0 0.01 0.0 1.2818281018854028e-13 0.0 0.010000800896204937 0.009992038517882483 0.0 -2.0321844261699776e-13 0.0 0.01 0.0 -2.0321844261699776e-13 0.0 0.010000960088247721 0.009991728773307585 0.0 -1.1353133096278535e-12 0.0 0.01 0.0 -1.135313309628267e-12 0.0 0.010001150598551098 0.009991417062681087 0.0 -5.712297092111369e-12 0.0 0.01 0.0 -5.712297092111369e-12 0.0 0.010001346972101208 0.0099911218372774 0.0 -1.9935809863055683e-11 0.0 0.01 0.0 -1.9935809863058992e-11 0.0 0.010001509641783953 0.0099908620406235 0.0 -4.638178203325179e-11 0.0 0.01 0.0 -4.6381782033258406e-11 0.0 0.010001629798349837 0.00999064663918857 0.0 -6.626397804014162e-11 0.0 0.01 0.0 -6.6263978040135e-11 0.0 0.01000185111386655 0.009990473131497542 0.0 -2.9220435105886566e-11 0.0 0.01 0.0 -2.922043510589318e-11 0.0 0.010002159399249436 0.009991328292831924 0.0 -6.326339906519646e-13 0.0 0.01 0.0 -6.326339906519646e-13 0.0 0.01000095423656774 0.009990992185742146 0.0 -1.2491341441260886e-12 0.0 0.01 0.0 -1.2491341441260886e-12 0.0 0.010001106633668612 0.009990622207961106 0.0 -3.2933231909470266e-12 0.0 0.01 0.0 -3.2933231909470266e-12 0.0 0.010001306906155917 0.00999023532098723 0.0 -1.1321129005780382e-11 0.0 0.01 0.0 -1.1321129005778727e-11 0.0 0.010001514493984346 0.009989856454627105 0.0 -3.33213334275159e-11 0.0 0.01 0.0 -3.33213334275159e-11 0.0 0.01000167472060945 0.009989510527468338 0.0 -7.063675949068682e-11 0.0 0.01 0.0 -7.063675949069344e-11 0.0 0.01000177147060506 0.009989207496894265 0.0 -9.226002224303417e-11 0.0 0.01 0.0 -9.226002224303417e-11 0.0 0.010002038222983635 0.009988953829675701 0.0 -2.530157883131199e-11 0.0 0.01 0.0 -2.530157883131199e-11 0.0 0.010002485276182738 0.009990384386805162 0.0 -2.8969793416277695e-12 0.0 0.01 0.0 -2.896979341627356e-12 0.0 0.010001173556552929 0.009990006001988419 0.0 -3.909244841867559e-12 0.0 0.01 0.0 -3.909244841867559e-12 0.0 0.010001315709618227 0.009989579809712917 0.0 -7.893099839082575e-12 0.0 0.01 0.0 -7.893099839083402e-12 0.0 0.010001519896442572 0.009989121776143852 0.0 -2.2846259210402406e-11 0.0 0.01 0.0 -2.2846259210405715e-11 0.0 0.010001731899817675 0.009988659320862629 0.0 -6.016961019268131e-11 0.0 0.01 0.0 -6.016961019268131e-11 0.0 0.010001874526945988 0.009988222339714805 0.0 -1.1731594550630256e-10 0.0 0.01 0.0 -1.173159455062761e-10 0.0 0.010001898490503112 0.00998782377522754 0.0 -1.4020111871378628e-10 0.0 0.01 0.0 -1.4020111871381275e-10 0.0 0.010002167704637846 0.009987478557304497 0.0 -2.3750064151354284e-11 0.0 0.01 0.0 -2.3750064151354284e-11 0.0 0.01000278486288739 0.00998962466948905 0.0 -6.744074298253444e-12 0.0 0.01 0.0 -6.744074298253444e-12 0.0 0.010001494985180288 0.009989214972645724 0.0 -7.820009140223842e-12 0.0 0.01 0.0 -7.820009140223842e-12 0.0 0.010001630748814539 0.009988746026335394 0.0 -1.5776158537181108e-11 0.0 0.01 0.0 -1.5776158537182762e-11 0.0 0.010001840858189098 0.009988231307964635 0.0 -4.5881224833875486e-11 0.0 0.01 0.0 -4.5881224833882103e-11 0.0 0.010002059235893276 0.009987701226238904 0.0 -1.1532899049770682e-10 0.0 0.01 0.0 -1.1532899049769359e-10 0.0 0.010002162801454242 0.009987182684716732 0.0 -2.1074363845478497e-10 0.0 0.01 0.0 -2.1074363845478497e-10 0.0 0.010002051431082813 0.00998670057831751 0.0 -2.3294486516811607e-10 0.0 0.01 0.0 -2.329448651680896e-10 0.0 0.010002233147819716 0.009986271821267685 0.0 -3.5930988683029993e-11 0.0 0.01 0.0 -3.5930988683026685e-11 0.0 0.010003021368748958 0.009989211483959624 0.0 -9.608618973851416e-12 0.0 0.01 0.0 -9.608618973851416e-12 0.0 0.010001968330996558 0.009988794363125142 0.0 -9.866484085360386e-12 0.0 0.01 0.0 -9.866484085360386e-12 0.0 0.010002112969507397 0.009988306542567374 0.0 -2.7044800548260502e-11 0.0 0.01 0.0 -2.7044800548253885e-11 0.0 0.010002342122573846 0.009987769972677044 0.0 -9.063071183859274e-11 0.0 0.01 0.0 -9.063071183860597e-11 0.0 0.010002571291391022 0.00998720758880318 0.0 -2.2595660748384139e-10 0.0 0.01 0.0 -2.2595660748386786e-10 0.0 0.010002620179441405 0.009986649781915736 0.0 -3.933463774868306e-10 0.0 0.01 0.0 -3.9334637748677766e-10 0.0 0.01000230839906001 0.009986116964410586 0.0 -4.072956799015641e-10 0.0 0.01 0.0 -4.07295679901617e-10 0.0 0.010002287384579967 0.009985634514474108 0.0 -7.826292603755642e-11 0.0 0.01 0.0 -7.826292603755642e-11 0.0 0.010003188524355059 0.009989365488012545 0.0 -5.314657221568908e-12 0.0 0.01 0.0 -5.314657221568908e-12 0.0 0.010002646550263629 0.009988966288321612 0.0 -3.9803286556750046e-12 0.0 0.01 0.0 -3.9803286556750046e-12 0.0 0.010002830301137394 0.009988505349467403 0.0 -4.16448581120161e-11 0.0 0.01 0.0 -4.164485811201941e-11 0.0 0.010003102993688158 0.00998800113053241 0.0 -1.7264552884099088e-10 0.0 0.01 0.0 -1.7264552884099088e-10 0.0 0.01000335423688132 0.009987474074190329 0.0 -4.3313666953428643e-10 0.0 0.01 0.0 -4.3313666953433937e-10 0.0 0.01000333221480867 0.009986945109098226 0.0 -7.284795996425445e-10 0.0 0.01 0.0 -7.284795996424915e-10 0.0 0.010002784362469659 0.009986429673131233 0.0 -7.157289465470735e-10 0.0 0.01 0.0 -7.157289465471265e-10 0.0 0.010002470164955958 0.009985956637891822 0.0 -1.6918197343570162e-10 0.0 0.01 0.0 -1.6918197343567515e-10 0.0 0.010003360593279342 0.009990373418524243 0.0 1.3815028881517237e-11 0.0 0.01 0.0 1.3815028881517237e-11 0.0 0.010003580522103135 0.009990035912266625 0.0 1.6120138930028173e-11 0.0 0.01 0.0 1.6120138930028173e-11 0.0 0.01000383961025947 0.009989660059294449 0.0 -6.111291547285766e-11 0.0 0.01 0.0 -6.111291547285104e-11 0.0 0.010004176464972724 0.009989261322679405 0.0 -3.115302552377603e-10 0.0 0.01 0.0 -3.115302552377868e-10 0.0 0.010004451220241366 0.009988856653837561 0.0 -7.830571602778071e-10 0.0 0.01 0.0 -7.830571602778071e-10 0.0 0.0100043651565262 0.009988449044554197 0.0 -1.2808863368023294e-09 0.0 0.01 0.0 -1.2808863368024353e-09 0.0 0.010003612306371548 0.009988047463671556 0.0 -1.2097095863438923e-09 0.0 0.01 0.0 -1.2097095863436805e-09 0.0 0.010003053648145997 0.009987670838773027 0.0 -3.201989955238803e-10 0.0 0.01 0.0 -3.2019899552385385e-10 0.0 0.010003770181068508 0.00999257876938161 0.0 5.088928329584626e-11 0.0 0.01 0.0 5.088928329584626e-11 0.0 0.01000479154163183 0.009992354776362402 0.0 4.962523217777259e-11 0.0 0.01 0.0 4.962523217777259e-11 0.0 0.010005156836203006 0.009992130798405559 0.0 -9.300779644897194e-11 0.0 0.01 0.0 -9.300779644897194e-11 0.0 0.010005569599612952 0.009991919803996876 0.0 -5.20506223088563e-10 0.0 0.01 0.0 -5.2050622308851e-10 0.0 0.010005860147176826 0.009991728274547522 0.0 -1.281528285752712e-09 0.0 0.01 0.0 -1.2815282857528178e-09 0.0 0.010005725112787361 0.009991537254843499 0.0 -2.0289694799257887e-09 0.0 0.01 0.0 -2.0289694799262122e-09 0.0 0.01000500034802371 0.009991343253877188 0.0 -1.8497809634149328e-09 0.0 0.01 0.0 -1.8497809634149328e-09 0.0 0.010004480559514575 0.009991155746973186 0.0 -5.080859627522436e-10 0.0 0.01 0.0 -5.080859627523494e-10 0.0 0.010004907410038812 0.009996261597393533 0.0 9.525169153349973e-11 0.0 0.01 0.0 9.525169153349973e-11 0.0 0.01000625195816355 0.009996202664059688 0.0 7.990167558092834e-11 0.0 0.01 0.0 7.990167558092834e-11 0.0 0.010006736801564518 0.009996189179460352 0.0 -1.4939844670188102e-10 0.0 0.01 0.0 -1.4939844670185455e-10 0.0 0.01000722512282341 0.009996233628901837 0.0 -7.766429533248149e-10 0.0 0.01 0.0 -7.766429533249207e-10 0.0 0.010007527541058475 0.009996317035634064 0.0 -1.8203342119617295e-09 0.0 0.01 0.0 -1.8203342119619413e-09 0.0 0.010007502584879166 0.009996411932060164 0.0 -2.759713985252284e-09 0.0 0.01 0.0 -2.759713985252284e-09 0.0 0.010007347439806165 0.009996497840628362 0.0 -2.3916597199166942e-09 0.0 0.01 0.0 -2.3916597199162707e-09 0.0 0.010007152215818743 0.00999657476064382 0.0 -6.295556143215507e-10 0.0 0.01 0.0 -6.295556143215507e-10 0.0 0.010007260349253448 0.010001451465951869 0.0 1.2152047292571718e-10 0.0 0.01 0.0 1.2152047292574365e-10 0.0 0.010007871584531291 0.010001590229243946 0.0 8.070568593020672e-11 0.0 0.01 0.0 8.070568593020672e-11 0.0 0.010008465838440901 0.010001819346382782 0.0 -2.2768993259786366e-10 0.0 0.01 0.0 -2.276899325979166e-10 0.0 0.010009021493433407 0.010002136434458 0.0 -9.93658263067197e-10 0.0 0.01 0.0 -9.936582630674088e-10 0.0 0.010009400438642645 0.010002514598163387 0.0 -2.1739315838260794e-09 0.0 0.01 0.0 -2.173931583825656e-09 0.0 0.010009785344228335 0.010002913873105278 0.0 -3.1037015595666937e-09 0.0 0.01 0.0 -3.1037015595658467e-09 0.0 0.01001060228747219 0.010003305838563924 0.0 -2.4465268314718632e-09 0.0 0.01 0.0 -2.4465268314722867e-09 0.0 0.010010544002986801 0.01000367632631303 0.0 -4.927492634338037e-10 0.0 0.01 0.0 -4.927492634338037e-10 0.0 0.010010339764529521 0.01000773501532246 0.0 1.0997375247005699e-10 0.0 0.01 0.0 1.0997375247005699e-10 0.0 0.010009509647830912 0.010008074719645613 0.0 4.4138699852099914e-11 0.0 0.01 0.0 4.4138699852099914e-11 0.0 0.01001017957248431 0.010008529450331063 0.0 -2.8952678299507175e-10 0.0 0.01 0.0 -2.8952678299486e-10 0.0 0.01001077032503167 0.010009084614555309 0.0 -1.041540106683789e-09 0.0 0.01 0.0 -1.041540106684636e-09 0.0 0.010011257280462883 0.010009710425565177 0.0 -2.101288296514007e-09 0.0 0.01 0.0 -2.101288296512313e-09 0.0 0.010012088283716046 0.010010368152526783 0.0 -2.763768274049956e-09 0.0 0.01 0.0 -2.763768274048262e-09 0.0 0.010013522479247628 0.010011025507504137 0.0 -1.824638267185891e-09 0.0 0.01 0.0 -1.824638267185891e-09 0.0 0.010013262688254842 0.010011639941740882 0.0 -1.2122113697879254e-10 0.0 0.01 0.0 -1.2122113697879254e-10 0.0 0.010012634253382693 0.010014176087341703 0.0 6.714172485625831e-11 0.0 0.01 0.0 6.714172485625831e-11 0.0 0.010011002030101796 0.010014695881981403 0.0 -3.89677595579165e-12 0.0 0.01 0.0 -3.89677595579165e-12 0.0 0.01001169086955395 0.010015318325914492 0.0 -2.831748571980565e-10 0.0 0.01 0.0 -2.8317485719816236e-10 0.0 0.010012285804115676 0.010016028705714131 0.0 -8.614338518195628e-10 0.0 0.01 0.0 -8.614338518187158e-10 0.0 0.010012838180580519 0.010016794664570271 0.0 -1.6106732428851941e-09 0.0 0.01 0.0 -1.6106732428868882e-09 0.0 0.010013883358720823 0.010017588293632146 0.0 -1.9493139757501753e-09 0.0 0.01 0.0 -1.9493139757501753e-09 0.0 0.01001550523745003 0.010018375726284452 0.0 -1.1711970042174872e-09 0.0 0.01 0.0 -1.1711970042170637e-09 0.0 0.010014645410496995 0.010019087209488357 0.0 -3.6860184410534006e-10 0.0 0.01 0.0 -3.6860184410534006e-10 0.0 0.01001362348943541 0.010019508589628103 0.0 2.12996231163135e-11 0.0 0.01 0.0 2.129962311631681e-11 0.0 0.010012207868476085 0.010020161408868042 0.0 -3.0763408418669824e-11 0.0 0.01 0.0 -3.076340841867644e-11 0.0 0.010012870504913046 0.010020882630984022 0.0 -2.0590663606107314e-10 0.0 0.01 0.0 -2.0590663606107314e-10 0.0 0.010013420518284152 0.010021640846784852 0.0 -5.564663981286643e-10 0.0 0.01 0.0 -5.564663981286643e-10 0.0 0.01001394561789025 0.010022406130860476 0.0 -1.0141232895960726e-09 0.0 0.01 0.0 -1.0141232895964961e-09 0.0 0.010014936247203442 0.010023165699526151 0.0 -1.344274366516427e-09 0.0 0.01 0.0 -1.344274366516427e-09 0.0 0.010016185209524724 0.010023884599413993 0.0 -1.2768716650434194e-09 0.0 0.01 0.0 -1.2768716650432076e-09 0.0 0.010014706227474718 0.010024508758346772 0.0 -6.828425240917525e-10 0.0 0.01 0.0 -6.828425240916466e-10 0.0 0.01001372349855836 0.010022691754331427 0.0 -5.805704828744868e-12 0.0 0.01 0.0 -5.8057048287465225e-12 0.0 0.010013062148457815 0.010023417450465815 0.0 -3.088891350056175e-11 0.0 0.01 0.0 -3.088891350056175e-11 0.0 0.010013665159539114 0.010024160528454621 0.0 -1.0949876539294498e-10 0.0 0.01 0.0 -1.0949876539294498e-10 0.0 0.010014118694441371 0.010024876216999271 0.0 -2.7646987402000184e-10 0.0 0.01 0.0 -2.7646987402000184e-10 0.0 0.010014476675551142 0.010025532000640106 0.0 -5.290295020443591e-10 0.0 0.01 0.0 -5.290295020442532e-10 0.0 0.010015131927116895 0.010026121041025642 0.0 -7.797399445488235e-10 0.0 0.01 0.0 -7.797399445488235e-10 0.0 0.01001585352058434 0.010026630904277467 0.0 -7.744784465935862e-10 0.0 0.01 0.0 -7.744784465935862e-10 0.0 0.010014127531779157 0.010027057672796229 0.0 -1.432996254738802e-10 0.0 0.01 0.0 -1.4329962547389342e-10 0.0 0.010013469063563159 0.010023536938099997 0.0 -1.14749688374578e-11 0.0 0.01 0.0 -1.1474968837459455e-11 0.0 0.010013571528046895 0.010024274603240624 0.0 -1.80112747573288e-11 0.0 0.01 0.0 -1.8011274757332108e-11 0.0 0.01001411723829138 0.0100249804929558 0.0 -3.834381318006144e-11 0.0 0.01 0.0 -3.834381318006144e-11 0.0 0.010014495306282503 0.01002559795389277 0.0 -8.609022424399262e-11 0.0 0.01 0.0 -8.609022424397939e-11 0.0 0.010014725813689942 0.010026100833557818 0.0 -1.6517005859875482e-10 0.0 0.01 0.0 -1.6517005859872835e-10 0.0 0.010015112288291503 0.010026480814874178 0.0 -2.3680695929857673e-10 0.0 0.01 0.0 -2.368069592986032e-10 0.0 0.010015474796426994 0.010026762301037544 0.0 -1.465946545726795e-10 0.0 0.01 0.0 -1.4659465457266626e-10 0.0 0.010013677911698915 0.010026973998282963 0.0 3.4459264513173517e-10 0.0 0.01 0.0 3.4459264513173517e-10 0.0 0.010013390146467622 0.010022673581225966 0.0 -6.543604583639974e-12 0.0 0.01 0.0 -6.543604583639974e-12 0.0 0.01001380001358517 0.010023378578882348 0.0 -6.150339911667336e-12 0.0 0.01 0.0 -6.150339911666509e-12 0.0 0.010014305538818536 0.010024014427761232 0.0 -5.893561472321111e-12 0.0 0.01 0.0 -5.893561472321111e-12 0.0 0.010014647821057814 0.010024526941436641 0.0 -7.187861302742291e-12 0.0 0.01 0.0 -7.1878613027414635e-12 0.0 0.010014819979791761 0.010024884075363777 0.0 -8.244740776234958e-12 0.0 0.01 0.0 -8.244740776234958e-12 0.0 0.010015080444508216 0.010025094646115328 0.0 7.732369523317675e-12 0.0 0.01 0.0 7.732369523316021e-12 0.0 0.01001528989578363 0.01002519202698093 0.0 9.250035783172779e-11 0.0 0.01 0.0 9.250035783172779e-11 0.0 0.01001355240043511 0.010025228954869686 0.0 3.1570468255738584e-10 0.0 0.01 0.0 3.1570468255738584e-10 0.0 0.010013544568688694 0.010020984316911638 0.0 -9.950976215269201e-13 0.0 0.01 0.0 -9.950976215269201e-13 0.0 0.010013817636389073 0.010021639387350968 0.0 -4.053192418732923e-13 0.0 0.01 0.0 -4.053192418731889e-13 0.0 0.010014308953432811 0.010022208514249493 0.0 5.806153443506999e-13 0.0 0.01 0.0 5.806153443504931e-13 0.0 0.01001464782105781 0.010022633761830794 0.0 2.696792991129733e-12 0.0 0.01 0.0 2.696792991129733e-12 0.0 0.01001482490161306 0.010022891362951142 0.0 8.921627982107401e-12 0.0 0.01 0.0 8.921627982107401e-12 0.0 0.010015085316486925 0.010022995576981608 0.0 2.455337425399199e-11 0.0 0.01 0.0 2.4553374253985372e-11 0.0 0.010015309987723807 0.010022982789191306 0.0 5.195173922603513e-11 0.0 0.01 0.0 5.195173922603513e-11 0.0 0.010013691165963874 0.010022910544130048 0.0 8.373236782891113e-11 0.0 0.01 0.0 8.373236782892437e-11 0.0 0.010013839727784647 0.010019113258180796 0.0 1.507807542076126e-12 0.0 0.01 0.0 1.507807542076126e-12 0.0 0.01001367791169891 0.010019724203536525 0.0 4.025398815913305e-13 0.0 0.01 0.0 4.025398815915373e-13 0.0 0.010014171166476921 0.010020244409900918 0.0 -4.672422168740358e-12 0.0 0.01 0.0 -4.672422168738703e-12 0.0 0.010014531111726656 0.010020623675409441 0.0 -1.6014629974126594e-11 0.0 0.01 0.0 -1.6014629974119976e-11 0.0 0.01001475082394753 0.010020836895967434 0.0 -3.124540121168482e-11 0.0 0.01 0.0 -3.1245401211698056e-11 0.0 0.010015098576341275 0.010020903259744278 0.0 -4.2041003898943424e-11 0.0 0.01 0.0 -4.2041003898943424e-11 0.0 0.010015468416907956 0.010020857071623628 0.0 -3.6961472188137956e-11 0.0 0.01 0.0 -3.696147218813134e-11 0.0 0.010013970622302965 0.010020748949642598 0.0 -2.0720073290969095e-11 0.0 0.01 0.0 -2.0720073290975712e-11 0.0 0.010014154495846084 0.010017265813527576 0.0 1.5377840414365681e-12 0.0 0.01 0.0 1.537784041435741e-12 0.0 0.010013405809254186 0.010017847969043585 0.0 -1.6050498652295634e-12 0.0 0.01 0.0 -1.6050498652303906e-12 0.0 0.010013907860577704 0.010018353604854728 0.0 -1.6067350067278642e-11 0.0 0.01 0.0 -1.6067350067278642e-11 0.0 0.010014293788554906 0.010018726772762894 0.0 -5.0878031421493594e-11 0.0 0.01 0.0 -5.0878031421493594e-11 0.0 0.010014558581240783 0.010018949728056666 0.0 -1.039633642496679e-10 0.0 0.01 0.0 -1.039633642496679e-10 0.0 0.01001498873209142 0.010019036168720574 0.0 -1.502216179828693e-10 0.0 0.01 0.0 -1.502216179828693e-10 0.0 0.0100154644987842 0.010019017009776594 0.0 -1.3322591691839403e-10 0.0 0.01 0.0 -1.3322591691839403e-10 0.0 0.010014053519798366 0.010018934994647186 0.0 -2.3186713062185637e-11 0.0 0.01 0.0 -2.318671306217902e-11 0.0 0.010014193260212342 0.010015288891189793 0.0 1.0921986609508444e-12 0.0 0.01 0.0 1.0921986609508444e-12 0.0 0.010013009242094691 0.010015864321810425 0.0 -4.67298697971463e-12 0.0 0.01 0.0 -4.67298697971463e-12 0.0 0.01001351806137559 0.010016383424718932 0.0 -3.289153121222561e-11 0.0 0.01 0.0 -3.289153121222561e-11 0.0 0.010013924529976844 0.010016792704729069 0.0 -1.0367544939719254e-10 0.0 0.01 0.0 -1.036754493971396e-10 0.0 0.010014220726946412 0.01001706850081719 0.0 -2.1591817714439465e-10 0.0 0.01 0.0 -2.1591817714428878e-10 0.0 0.010014692969178462 0.010017221133189142 0.0 -3.180194563009428e-10 0.0 0.01 0.0 -3.1801945630051927e-10 0.0 0.010015202547479306 0.010017273151413106 0.0 -2.8831631428425997e-10 0.0 0.01 0.0 -2.883163142841541e-10 0.0 0.01001386227120041 0.01001725842539886 0.0 -7.071428979421353e-11 0.0 0.01 0.0 -7.071428979424e-11 0.0 0.010013925986042772 0.010012936660346191 0.0 2.456480732154977e-12 0.0 0.01 0.0 2.456480732154977e-12 0.0 0.010012489157959771 0.010013516605487592 0.0 -6.2449323405389875e-12 0.0 0.01 0.0 -6.244932340512518e-12 0.0 0.010012994534877065 0.010014073102184481 0.0 -5.170795137221466e-11 0.0 0.01 0.0 -5.170795137210878e-11 0.0 0.010013410226976511 0.010014552705658432 0.0 -1.6910732275880503e-10 0.0 0.01 0.0 -1.6910732275922854e-10 0.0 0.010013726460721581 0.010014921029251304 0.0 -3.596628224906203e-10 0.0 0.01 0.0 -3.5966282248977324e-10 0.0 0.010014196172579303 0.010015173616054902 0.0 -5.405408641001618e-10 0.0 0.01 0.0 -5.405408641018559e-10 0.0 0.0100146875453453 0.010015331084391167 0.0 -5.082222177944103e-10 0.0 0.01 0.0 -5.082222177944103e-10 0.0 0.010013426893890688 0.010015407133960309 0.0 -2.0541296332141881e-10 0.0 0.01 0.0 -2.0541296332141881e-10 0.0 0.010013421522315864 0.010010116380492855 0.0 6.299761243319085e-12 0.0 0.01 0.0 6.29976124330585e-12 0.0 0.010011853091108419 0.010010704162367113 0.0 -3.686521884021534e-12 0.0 0.01 0.0 -3.686521884024843e-12 0.0 0.010012346578114926 0.010011311162456743 0.0 -6.407689322629023e-11 0.0 0.01 0.0 -6.407689322629023e-11 0.0 0.010012757270735214 0.010011882947156252 0.0 -2.2681913625498831e-10 0.0 0.01 0.0 -2.2681913625541183e-10 0.0 0.010013070029268682 0.0100123735277983 0.0 -4.995324117933598e-10 0.0 0.01 0.0 -4.995324117942069e-10 0.0 0.010013499938125522 0.010012757772651374 0.0 -7.691600383256963e-10 0.0 0.01 0.0 -7.691600383256963e-10 0.0 0.010013943659721296 0.010013038154766143 0.0 -7.390401218245173e-10 0.0 0.01 0.0 -7.390401218245173e-10 0.0 0.010012787686985481 0.010013227850188398 0.0 -3.7062851602835103e-10 0.0 0.01 0.0 -3.706285160300451e-10 0.0 0.010012746027835032 0.010007026448715265 0.0 1.0542337927621324e-11 0.0 0.01 0.0 1.0542337927618015e-11 0.0 0.01001112057260345 0.01000760581847987 0.0 2.1932395008489524e-12 0.0 0.01 0.0 2.1932395008489524e-12 0.0 0.010011589917837778 0.0100082558125236 0.0 -6.36216638143157e-11 0.0 0.01 0.0 -6.362166381434217e-11 0.0 0.010011989778799173 0.01000892794200555 0.0 -2.5296415806341286e-10 0.0 0.01 0.0 -2.5296415806341286e-10 0.0 0.01001228088603697 0.010009555177786221 0.0 -5.872785801223371e-10 0.0 0.01 0.0 -5.872785801223371e-10 0.0 0.010012642584892198 0.010010094865397563 0.0 -9.343558636657802e-10 0.0 0.01 0.0 -9.343558636653566e-10 0.0 0.010013023949377262 0.010010520980393425 0.0 -9.23743376864979e-10 0.0 0.01 0.0 -9.23743376864132e-10 0.0 0.010011981950718746 0.010010837893564656 0.0 -4.980513267065985e-10 0.0 0.01 0.0 -4.980513267074455e-10 0.0 0.010011934882262452 0.010004053263010012 0.0 1.1425632349362102e-11 0.0 0.01 0.0 1.142563234936541e-11 0.0 0.010010319652332083 0.01000460377726437 0.0 6.441869329617353e-12 0.0 0.01 0.0 6.4418693296156984e-12 0.0 0.0100107580354307 0.010005275671972425 0.0 -5.318594216787951e-11 0.0 0.01 0.0 -5.318594216787951e-11 0.0 0.010011139184610187 0.010006027895952214 0.0 -2.4204500961203814e-10 0.0 0.01 0.0 -2.420450096119852e-10 0.0 0.010011410098886118 0.01000679156253836 0.0 -5.891862314362871e-10 0.0 0.01 0.0 -5.891862314360754e-10 0.0 0.010011696288519757 0.010007488403036583 0.0 -9.952544621492343e-10 0.0 0.01 0.0 -9.952544621492343e-10 0.0 0.010012017729211118 0.010008073266130756 0.0 -1.060684601974011e-09 0.0 0.01 0.0 -1.0606846019744345e-09 0.0 0.010011095087867898 0.0100085328590403 0.0 -5.530289429610307e-10 0.0 0.01 0.0 -5.530289429614542e-10 0.0 0.010011021594591905 0.010001554062191345 0.0 7.531469211385036e-12 0.0 0.01 0.0 7.53146921138669e-12 0.0 0.010009486130949772 0.01000206313830536 0.0 5.32574525724861e-12 0.0 0.01 0.0 5.32574525724861e-12 0.0 0.01000989110576617 0.010002738924845603 0.0 -3.9005852178509776e-11 0.0 0.01 0.0 -3.9005852178516394e-11 0.0 0.010010245223209587 0.01000354828765872 0.0 -2.6117033047057877e-10 0.0 0.01 0.0 -2.611703304706317e-10 0.0 0.010010505280982246 0.01000442042930291 0.0 -1.1363811702292934e-09 0.0 0.01 0.0 -1.1363811702292934e-09 0.0 0.010010742385065803 0.010005263903387586 0.0 -2.5253508765116296e-09 0.0 0.01 0.0 -2.5253508765124766e-09 0.0 0.010010977047920647 0.010006007358922644 0.0 -2.7392335563544343e-09 0.0 0.01 0.0 -2.7392335563544343e-09 0.0 0.010010151186093602 0.010006617913725275 0.0 -5.038604659408177e-10 0.0 0.01 0.0 -5.038604659403942e-10 0.0 0.010010040000024522 0.009999704013141753 0.0 1.7207719667494862e-12 0.0 0.01 0.0 1.7207719667490726e-12 0.0 0.010008651363978377 0.01000018115492245 0.0 1.3616729381179062e-12 0.0 0.01 0.0 1.3616729381179062e-12 0.0 0.010009020992078994 0.010000851658786052 0.0 -1.244529077331879e-10 0.0 0.01 0.0 -1.244529077331879e-10 0.0 0.010009353907989807 0.010001696731737349 0.0 -1.253925560644899e-09 0.0 0.01 0.0 -1.253925560644899e-09 0.0 0.01000959925418297 0.010002642647171807 0.0 -4.607154407379899e-09 0.0 0.01 0.0 -4.607154407380746e-09 0.0 0.01000982059770451 0.010003601544746705 0.0 -8.924866289892181e-09 0.0 0.01 0.0 -8.924866289893875e-09 0.0 0.01000995770366852 0.01000448837002404 0.0 -8.809688784675458e-09 0.0 0.01 0.0 -8.809688784675458e-09 0.0 0.010009150243750771 0.010005238463351614 0.0 -2.924237734690484e-10 0.0 0.01 0.0 -2.9242377346894253e-10 0.0 0.01000900680378051 0.009998498338315912 0.0 -5.740139929496115e-13 0.0 0.01 0.0 -5.740139929495081e-13 0.0 0.010007845172361978 0.009998956163461956 0.0 1.1847997714238474e-11 0.0 0.01 0.0 1.1847997714238474e-11 0.0 0.010008189248596077 0.009999623521261516 0.0 -2.5962161714818416e-10 0.0 0.01 0.0 -2.5962161714818416e-10 0.0 0.010008506942912125 0.010000473683655624 0.0 -2.9660736825369006e-09 0.0 0.01 0.0 -2.9660736825369006e-09 0.0 0.010008740445970662 0.010001452966622682 0.0 -1.0722197306064035e-08 0.0 0.01 0.0 -1.0722197306064035e-08 0.0 0.010008954864110207 0.010002487728070157 0.0 -1.9907941888354093e-08 0.0 0.01 0.0 -1.9907941888354093e-08 0.0 0.0100090102130369 0.010003487173258961 0.0 -1.8293887993502578e-08 0.0 0.01 0.0 -1.8293887993495802e-08 0.0 0.010008113363379173 0.010004353441218672 0.0 1.5830767895271718e-09 0.0 0.01 0.0 1.5830767895271718e-09 0.0 0.010007888724988721 0.009997820212927956 0.0 1.962370747341504e-11 0.0 0.01 0.0 1.962370747341173e-11 0.0 0.010007095444662127 0.009998276445698385 0.0 5.485622751692539e-10 0.0 0.01 0.0 5.48562275169148e-10 0.0 0.010007427216344811 0.009998920174929028 0.0 1.8517285970643676e-09 0.0 0.01 0.0 1.8517285970643676e-09 0.0 0.010007747293793744 0.009999734010612944 0.0 -3.011362585091227e-10 0.0 0.01 0.0 -3.0113625850917563e-10 0.0 0.010007990517061001 0.010000692471940291 0.0 -1.1356898410829337e-08 0.0 0.01 0.0 -1.1356898410829337e-08 0.0 0.010008190251074368 0.010001752410629143 0.0 -2.5225050286946187e-08 0.0 0.01 0.0 -2.5225050286946187e-08 0.0 0.01000816819712342 0.010002838608268682 0.0 -2.1841815354876426e-08 0.0 0.01 0.0 -2.1841815354876426e-08 0.0 0.010007142394861335 0.010003825944561342 0.0 4.558899111319623e-09 0.0 0.01 0.0 4.558899111319623e-09 0.0 0.010006699576643102 0.009997528416610743 0.0 3.302656973613375e-10 0.0 0.01 0.0 3.3026569736128455e-10 0.0 0.010006426589854355 0.009997980611856068 0.0 3.7064555247156056e-09 0.0 0.01 0.0 3.7064555247147586e-09 0.0 0.010006766611866254 0.009998568807327668 0.0 1.2157935310567222e-08 0.0 0.01 0.0 1.2157935310567222e-08 0.0 0.010007103261308587 0.009999283577044778 0.0 1.7922761530499436e-08 0.0 0.01 0.0 1.7922761530499436e-08 0.0 0.010007375852510124 0.010000150903431511 0.0 1.0269619806683414e-08 0.0 0.01 0.0 1.0269619806683414e-08 0.0 0.010007578907292768 0.010001184760516812 0.0 -3.1077703799154956e-09 0.0 0.01 0.0 -3.1077703799163426e-09 0.0 0.010007473720134016 0.010002371943650817 0.0 9.331497106167396e-10 0.0 0.01 0.0 9.331497106171632e-10 0.0 0.010006388416569766 0.010003638685050581 0.0 -7.89482447190686e-09 0.0 0.01 0.0 -7.894824471913636e-09 0.0 0.010005754463278164 0.009997507432244552 0.0 2.0515303811153673e-09 0.0 0.01 0.0 2.0515303811153673e-09 0.0 0.010005855238561557 0.009997931142231898 0.0 1.3877539250671707e-08 0.0 0.01 0.0 1.3877539250671707e-08 0.0 0.010006223104266557 0.009998409879585625 0.0 3.9400738545650074e-08 0.0 0.01 0.0 3.94007385456433e-08 0.0 0.010006589006767503 0.009998962662062634 0.0 6.481824488941117e-08 0.0 0.01 0.0 6.481824488941117e-08 0.0 0.010006899233981235 0.009999672516868632 0.0 7.219523370891479e-08 0.0 0.01 0.0 7.219523370890124e-08 0.0 0.010007139940319324 0.010000669518007798 0.0 7.194944639233561e-08 0.0 0.01 0.0 7.194944639233561e-08 0.0 0.010007029856665645 0.010002045077828599 0.0 6.577718573961308e-08 0.0 0.01 0.0 6.577718573961308e-08 0.0 0.010006034759003007 0.0100039085414696 0.0 -8.796887892030449e-08 0.0 0.01 0.0 -8.796887892041291e-08 0.0 0.010005306972765193 0.009997685303932042 0.0 8.661901675039718e-09 0.0 0.01 0.0 8.661901675039718e-09 0.0 0.010005397917494717 0.009998037578035817 0.0 3.827010024343608e-08 0.0 0.01 0.0 3.827010024343608e-08 0.0 0.010005800443090107 0.009998352908307724 0.0 9.245449680252355e-08 0.0 0.01 0.0 9.245449680252355e-08 0.0 0.010006193750914417 0.009998693259488687 0.0 1.4855238509073852e-07 0.0 0.01 0.0 1.4855238509071142e-07 0.0 0.010006541566524895 0.009999219096405962 0.0 1.812607450718594e-07 0.0 0.01 0.0 1.8126074507183228e-07 0.0 0.01000680724941317 0.010000212912682379 0.0 1.9813075379681482e-07 0.0 0.01 0.0 1.9813075379681482e-07 0.0 0.010006669271827815 0.010001877481392233 0.0 1.3632447719551938e-07 0.0 0.01 0.0 1.3632447719551938e-07 0.0 0.010005799944787279 0.010004514319573814 0.0 -3.1174539352578357e-07 0.0 0.01 0.0 -3.1174539352578357e-07 0.0 0.01000499690741837 0.009998014091842717 0.0 2.7248216982895255e-08 0.0 0.01 0.0 2.7248216982895255e-08 0.0 0.010005054629922584 0.009998239965872026 0.0 8.583821197795957e-08 0.0 0.01 0.0 8.583821197795957e-08 0.0 0.010005481554928662 0.009998355410473765 0.0 1.7673335817313144e-07 0.0 0.01 0.0 1.7673335817310434e-07 0.0 0.010005890956097729 0.009998482356216885 0.0 2.666475220455995e-07 0.0 0.01 0.0 2.666475220455995e-07 0.0 0.01000625342155468 0.009998884202583162 0.0 3.2469251494925393e-07 0.0 0.01 0.0 3.2469251494925393e-07 0.0 0.010006500498772091 0.009999922516624526 0.0 3.238998511045357e-07 0.0 0.01 0.0 3.238998511045357e-07 0.0 0.010006213301684878 0.010001874528777767 0.0 1.1054388822921051e-07 0.0 0.01 0.0 1.105438882291563e-07 0.0 0.010005438034448571 0.009998433868723641 0.0 6.985171974178809e-08 0.0 0.01 0.0 6.98517197418152e-08 0.0 0.010004810619815337 0.009998491345603471 0.0 1.659375908922905e-07 0.0 0.01 0.0 1.6593759089234472e-07 0.0 0.010005241922909885 0.009998406893546688 0.0 2.9179613424010426e-07 0.0 0.01 0.0 2.9179613424010426e-07 0.0 0.01000563662490717 0.009998400908370923 0.0 4.060723733604471e-07 0.0 0.01 0.0 4.060723733605555e-07 0.0 0.01000598975197464 0.00999882673883116 0.0 4.642842678099623e-07 0.0 0.01 0.0 4.642842678099623e-07 0.0 0.010006152205076547 0.009999981020412262 0.0 3.6854437388618606e-07 0.0 0.01 0.0 3.685443738862945e-07 0.0 0.010005753031142203 0.010002079250018621 0.0 -1.0671952028481297e-07 0.0 0.01 0.0 -1.0671952028481297e-07 0.0 0.010005051677045039 0.009998867695710206 0.0 1.4978385870202887e-07 0.0 0.01 0.0 1.4978385870197466e-07 0.0 0.01000463161916005 0.009998740250012171 0.0 2.8202456790700275e-07 0.0 0.01 0.0 2.8202456790694854e-07 0.0 0.010005038016602508 0.009998533850060755 0.0 4.286993893020232e-07 0.0 0.01 0.0 4.286993893020232e-07 0.0 0.010005412618830232 0.009998585844485553 0.0 5.444937442116403e-07 0.0 0.01 0.0 5.444937442116403e-07 0.0 0.010005766728852618 0.009999183642156574 0.0 5.304282213290526e-07 0.0 0.01 0.0 5.304282213289442e-07 0.0 0.010005801486827483 0.010000499545011298 0.0 2.2492173399322503e-07 0.0 0.01 0.0 2.2492173399327924e-07 0.0 0.010005389110826232 0.00999923609857386 0.0 2.712620867631379e-07 0.0 0.01 0.0 2.7126208676302947e-07 0.0 0.010004474712692538 0.009998983681877694 0.0 4.2372507536589735e-07 0.0 0.01 0.0 4.2372507536589735e-07 0.0 0.01000485415904309 0.009998866740883733 0.0 5.670531040805234e-07 0.0 0.01 0.0 5.670531040805234e-07 0.0 0.010005254186244027 0.009999195155530757 0.0 6.238861009720542e-07 0.0 0.01 0.0 6.238861009718374e-07 0.0 0.010005587738240366 0.010000063027355722 0.0 4.225336722519287e-07 0.0 0.01 0.0 4.2253367225203713e-07 0.0 0.010005575486183148 0.010001382592521047 0.0 -1.974112645428865e-07 0.0 0.01 0.0 -1.974112645428865e-07 0.0 0.010005059993777843 0.009999538558204134 0.0 4.185278309246608e-07 0.0 0.01 0.0 4.185278309246608e-07 0.0 0.010004332940776394 0.009999407600920638 0.0 5.674441402253941e-07 0.0 0.01 0.0 5.674441402251772e-07 0.0 0.010004750481159477 0.009999631583508518 0.0 6.490272520401699e-07 0.0 0.01 0.0 6.490272520397362e-07 0.0 0.010005196510855165 0.010000305254518442 0.0 5.200953411374932e-07 0.0 0.01 0.0 5.200953411374932e-07 0.0 0.010005476686344907 0.010001247783507932 0.0 3.8586751107717865e-09 0.0 0.01 0.0 3.8586751107717865e-09 0.0 0.010005345583238264 0.010000064498100883 0.0 5.627603504533476e-07 0.0 0.01 0.0 5.627603504535644e-07 0.0 0.010004293360810252 0.01000032232890078 0.0 6.499367089022028e-07 0.0 0.01 0.0 6.49936708901986e-07 0.0 0.010004755903922809 0.010000945977530191 0.0 5.376304937545345e-07 0.0 0.01 0.0 5.376304937547514e-07 0.0 0.010005185223486571 0.010001678173148565 0.0 7.322247791151132e-08 0.0 0.01 0.0 7.322247791148422e-08 0.0 0.010005322096496646 0.010001215629525308 0.0 6.215593844570693e-07 0.0 0.01 0.0 6.215593844568525e-07 0.0 0.010004361309368371 0.010001728987967648 0.0 5.144885842347721e-07 0.0 0.01 0.0 5.14488584234989e-07 0.0 0.010004800343929143 0.010002355833019673 0.0 7.256001071346977e-08 0.0 0.01 0.0 7.256001071346977e-08 0.0 0.010005121132002949 0.010002433555127187 0.0 -6.691975710784379e-07 0.0 0.01 0.0 -6.691975710784379e-07 0.0 0.01000486055852421 0.010002490704108394 0.0 3.9921772236519576e-07 0.0 0.01 0.0 3.992177223654126e-07 0.0 0.010004416998629138 0.01000259866260813 0.0 3.551418421577626e-09 0.0 0.01 0.0 3.5514184215742377e-09 0.0 0.010004687393692242 0.01000259771551012 0.0 -1.5591325585760304e-07 0.0 0.01 0.0 -1.5591325585749462e-07 0.0 0.010004310388958004 
